Node Numbers,X Locations (inches),Y Locations (inches),Z Locations (inches),Equivalent Elastic Strains (in/in),Equivalent Stress (psi),Max Principal Elastic Strain (in/in),Max Principal Stress (psi),Middle Principal Elastic Strain (in/in),Middle Principal Stress (psi),Min Principal Elastic Strain (in/in),Min Principal Stress (psi),Total Deformation (in)
1,5.5691,2.9106,0,0.00019971,1995.7,9.2993e-05,407.13,5.6146e-05,130.28,-0.00018912,-1712.6,0.042513
2,4.7232,2.5801,0,0.00014884,1487.4,6.2287e-05,192.96,4.4124e-05,56.496,-0.00014413,-1357.9,0.030333
3,6.5213,4.3949,0,8.2988e-05,829.31,3.3885e-05,74.201,2.2935e-05,-8.0687,-8.1556e-05,-793.18,0.05828
4,4.3916,0.52665,0,9.3502e-05,934.37,4.2691e-05,163.84,2.5255e-05,32.835,-8.9464e-05,-829.12,0.023958
5,6.2247,0.60869,0,6.5241e-05,651.96,3.0243e-05,122.15,1.7531e-05,26.637,-6.2183e-05,-572.3,0.052337
6,4.5432,4.5532,0,0.00010872,1086.4,5.8907e-05,221.33,1.3653e-05,-118.7,-0.0001029,-994.45,0.026859
7,6.2152,5.474,0,5.6592e-05,565.53,2.4903e-05,71.926,1.4375e-05,-7.1753,-5.5073e-05,-528.99,0.050946
8,6.4686,3.4494,0,0.00011059,1105.1,4.2301e-05,-29.642,2.3381e-05,-171.8,-0.00011333,-1199,0.05802
9,3.5584,3.7349,0,0.00011957,1194.9,5.1088e-05,3.0895,1.8434e-05,-242.26,-0.00012173,-1295.4,0.017295
10,4.3786,1.3023,0,0.00012595,1258.6,5.8144e-05,198.01,3.0554e-05,-9.2915,-0.00012145,-1151.4,0.024982
11,4.387,5.3602,0,9.0367e-05,903.04,4.8144e-05,225.48,1.7555e-05,-4.3546,-8.4382e-05,-770.27,0.023921
12,3.4746,0.77858,0,0.00010057,1005,3.6901e-05,3.4021,2.7056e-05,-70.57,-0.00010151,-1036.6,0.01546
13,3.5005,2.6499,0,0.00012998,1298.9,5.3534e-05,12.812,2.492e-05,-202.19,-0.00013185,-1380.1,0.016866
14,3.4252,4.8575,0,0.00010435,1042.8,3.774e-05,34.006,3.1908e-05,-9.8179,-0.00010387,-1030,0.015363
15,2.2504,4.8338,0,0.00012822,1281.4,4.9055e-05,-35.049,2.7025e-05,-200.58,-0.00013143,-1391.1,0.0066548
16,1.1124,4.8066,0,0.00014207,1419.7,7.7856e-05,257.09,1.2318e-05,-235.33,-0.00013514,-1343.2,0.0016148
17,1.2245,1.2633,0,0.00014219,1420.9,7.8036e-05,253.49,1.1638e-05,-245.4,-0.00013531,-1349.5,0.0019769
18,2.6069,1.3208,0,0.00012355,1234.7,4.6016e-05,-48.499,2.6939e-05,-191.84,-0.00012702,-1348.6,0.0090622
19,7.2761,0.99294,0,6.6517e-05,664.71,2.2983e-05,4.7937,2.0632e-05,-12.877,-6.6637e-05,-668.58,0.073588
20,8.1607,1.9833,0,6.9678e-05,696.3,2.4611e-05,-8.1305,1.945e-05,-46.91,-7.0534e-05,-723.01,0.092637
21,9.5108,2.0164,0,6.1632e-05,615.9,2.2807e-05,8.0431,1.68e-05,-37.096,-6.2002e-05,-629.18,0.12314
22,10.73,1.995,0,5.0941e-05,509.06,1.7492e-05,-4.5761,1.5224e-05,-21.619,-5.1366e-05,-521.95,0.15263
23,11.864,1.8707,0,4.2887e-05,428.57,1.4503e-05,-0.51479,1.3511e-05,-7.9672,-4.3026e-05,-432.77,0.18143
24,12.948,1.8566,0,3.5864e-05,358.4,1.187e-05,-1.017,1.1684e-05,-2.4122,-3.5923e-05,-360.11,0.21002
25,14.05,1.8777,0,2.9423e-05,294.02,9.8458e-06,1.3131,9.5991e-06,-0.54058,-2.9409e-05,-293.63,0.23992
26,15.115,1.8315,0,2.3566e-05,235.5,8.1289e-06,3.1121,7.464e-06,-1.8835,-2.3541e-05,-234.85,0.26951
27,16.269,1.9581,0,1.8248e-05,182.35,6.5204e-06,5.5714,5.6829e-06,-0.72177,-1.8157e-05,-179.85,0.30217
28,17.349,1.923,0,1.3649e-05,136.4,5.1239e-06,6.581,4.0444e-06,-1.5296,-1.3545e-05,-133.69,0.33316
29,18.482,1.9788,0,9.741e-06,97.343,3.8775e-06,7.4555,2.7533e-06,-0.99107,-9.6035e-06,-93.835,0.36602
30,19.583,1.9821,0,6.5412e-06,65.366,2.8607e-06,7.7921,1.6439e-06,-1.35,-6.3834e-06,-61.664,0.39816
31,20.695,2.0084,0,4.1259e-06,41.231,2.0234e-06,7.71,8.9111e-07,-0.79735,-3.9419e-06,-37.111,0.4308
32,21.747,1.8908,0,2.4222e-06,24.206,1.4881e-06,7.9358,2.381e-07,-1.456,-2.1711e-06,-19.558,0.46177
33,22.802,1.5355,0,1.228e-06,12.271,1.0303e-06,7.9375,-1.7473e-07,-1.1163,-8.2858e-07,-6.0291,0.49295
34,1.1631,3.6366,0,0.00015018,1500.8,8.7112e-05,298.19,4.6836e-06,-321.14,-0.00014066,-1413.2,0.0019011
35,1.2237,2.4395,0,0.0001498,1497,8.7454e-05,306.65,4.3668e-06,-317.63,-0.00013987,-1401.4,0.0021062
36,22.937,2.8925,0,1.8064e-06,18.051,1.61e-06,13.53,-3.3922e-07,-1.115,-1.0741e-06,-6.6368,0.49665
37,23.399,3.6073,0,1.0581e-06,10.574,1.0527e-06,10.657,-2.1373e-07,1.1411,-4.6228e-07,-0.72637,0.51011
38,22.966,4.699,0,1.2226e-06,12.218,1.0142e-06,8.2825,-6.7552e-08,0.15472,-8.5582e-07,-5.768,0.49704
39,21.907,3.9143,0,2.0522e-06,20.508,1.382e-06,8.8189,1.4968e-07,-0.44031,-1.7463e-06,-14.686,0.46604
40,20.718,3.9874,0,4.0775e-06,40.746,2.0164e-06,7.8717,8.7279e-07,-0.7207,-3.8872e-06,-36.486,0.43101
41,19.567,3.9632,0,6.5826e-06,65.781,2.826e-06,7.2686,1.6975e-06,-1.2106,-6.4384e-06,-62.341,0.39722
42,18.47,3.958,0,9.7647e-06,97.58,3.8681e-06,7.149,2.7631e-06,-1.1537,-9.6362e-06,-94.317,0.36519
43,17.362,3.937,0,1.3649e-05,136.39,5.1231e-06,6.8408,4.0698e-06,-1.0735,-1.3533e-05,-133.34,0.33307
44,16.267,3.9126,0,1.8212e-05,181.99,6.5867e-06,6.2241,5.5956e-06,-1.2221,-1.8115e-05,-179.38,0.30167
45,15.174,3.9084,0,2.3316e-05,233,8.1704e-06,5.0124,7.344e-06,-1.1975,-2.3245e-05,-231.03,0.27073
46,14.085,3.913,0,2.9188e-05,291.67,9.9022e-06,2.849,9.4349e-06,-0.66208,-2.9149e-05,-290.57,0.24046
47,12.996,3.9258,0,3.5517e-05,354.92,1.171e-05,-0.89903,1.1655e-05,-1.315,-3.5554e-05,-356.03,0.21086
48,11.888,3.9457,0,4.2684e-05,426.55,1.4469e-05,-0.66992,1.3373e-05,-8.9037,-4.2841e-05,-431.27,0.18162
49,10.737,3.9673,0,5.1153e-05,511.18,1.7886e-05,-1.6085,1.5006e-05,-23.249,-5.1542e-05,-523.26,0.15234
50,9.5171,3.9628,0,6.0494e-05,604.52,2.1792e-05,4.1978,1.7196e-05,-30.335,-6.0864e-05,-616.85,0.12284
51,8.1765,3.9575,0,6.7871e-05,678.25,2.5803e-05,-5.5245,1.5875e-05,-80.119,-6.902e-05,-717.98,0.092504
52,7.2731,4.9597,0,8.3356e-05,832.99,3.2546e-05,71.321,2.5413e-05,17.728,-8.1712e-05,-787.17,0.072593
53,2.3272,3.6933,0,0.00012349,1234.1,5.1486e-05,-67.185,1.4387e-05,-345.93,-0.00012813,-1416.8,0.0075437
54,2.3722,2.5402,0,0.00012451,1244.2,5.2186e-05,-68.388,1.3873e-05,-356.26,-0.0001292,-1431.3,0.0078646
55,6.0054,5.039,0,6.2505e-05,624.62,3.1132e-05,154.37,1.6356e-05,43.347,-5.8397e-05,-518.32,0.047666
56,4.6298,0.94467,0,7.4726e-05,746.75,4.2426e-05,232.68,1.3878e-05,18.178,-6.811e-05,-597.84,0.027232
57,3.7829,1.8676,0,0.00011954,1194.6,4.651e-05,-40.652,2.2942e-05,-217.73,-0.00012294,-1313.9,0.019302
58,4.6766,4.9777,0,7.5317e-05,752.65,5.2039e-05,384.65,9.4748e-06,64.837,-6.2385e-05,-475.09,0.027657
59,6.0079,1.0145,0,5.5402e-05,553.64,3.0102e-05,150.95,1.0872e-05,6.4607,-5.1291e-05,-460.61,0.048636
60,6.3165,1.4853,0,9.1905e-05,918.42,4.1734e-05,146,2.3774e-05,11.053,-8.8486e-05,-832.43,0.054888
61,6.6866,2.3428,0,9.2178e-05,921.14,3.0345e-05,-45.183,2.6381e-05,-74.962,-9.4186e-05,-980.86,0.062365
62,5.089,3.398,0,0.00021792,2177.7,9.0938e-05,210.12,5.8102e-05,-36.595,-0.00021392,-2080.5,0.035143
63,5.0598,3.9219,0,0.00022221,2220.6,0.00010004,155.55,3.9345e-05,-300.51,-0.00022113,-2257.6,0.034073
64,4.4133,3.2473,0,0.00014728,1471.8,5.6364e-05,98.428,4.4322e-05,7.9482,-0.00014526,-1416.5,0.02653
65,4.4133,3.2473,0.1,0.00014728,1471.8,0.00014526,1416.5,-4.4322e-05,-7.9482,-5.6364e-05,-98.428,0.02653
66,5.0598,3.9219,0.1,0.00022221,2220.6,0.00022113,2257.6,-3.9345e-05,300.51,-0.00010004,-155.55,0.034073
67,5.089,3.398,0.1,0.00021792,2177.7,0.00021392,2080.5,-5.8102e-05,36.595,-9.0938e-05,-210.12,0.035143
68,6.6866,2.3428,0.1,9.2178e-05,921.14,9.4186e-05,980.86,-2.6381e-05,74.962,-3.0345e-05,45.183,0.062365
69,6.3165,1.4853,0.1,9.1905e-05,918.42,8.8486e-05,832.43,-2.3774e-05,-11.053,-4.1734e-05,-146,0.054888
70,6.0079,1.0145,0.1,5.5402e-05,553.64,5.1291e-05,460.61,-1.0872e-05,-6.4607,-3.0102e-05,-150.95,0.048636
71,4.6766,4.9777,0.1,7.5317e-05,752.65,6.2385e-05,475.09,-9.4748e-06,-64.837,-5.2039e-05,-384.65,0.027657
72,3.7829,1.8676,0.1,0.00011954,1194.6,0.00012294,1313.9,-2.2942e-05,217.73,-4.651e-05,40.652,0.019302
73,4.6298,0.94467,0.1,7.4726e-05,746.75,6.811e-05,597.84,-1.3878e-05,-18.178,-4.2426e-05,-232.68,0.027232
74,6.0054,5.039,0.1,6.2505e-05,624.62,5.8397e-05,518.32,-1.6356e-05,-43.347,-3.1132e-05,-154.37,0.047666
75,2.3722,2.5402,0.1,0.00012451,1244.2,0.0001292,1431.3,-1.3873e-05,356.26,-5.2186e-05,68.388,0.0078646
76,2.3272,3.6933,0.1,0.00012349,1234.1,0.00012813,1416.8,-1.4387e-05,345.93,-5.1486e-05,67.185,0.0075437
77,7.2731,4.9597,0.1,8.3356e-05,832.99,8.1712e-05,787.17,-2.5413e-05,-17.728,-3.2546e-05,-71.321,0.072593
78,8.1765,3.9575,0.1,6.7871e-05,678.25,6.902e-05,717.98,-1.5875e-05,80.119,-2.5803e-05,5.5245,0.092504
79,9.5171,3.9628,0.1,6.0494e-05,604.52,6.0864e-05,616.85,-1.7196e-05,30.335,-2.1792e-05,-4.1978,0.12284
80,10.737,3.9673,0.1,5.1153e-05,511.18,5.1542e-05,523.26,-1.5006e-05,23.249,-1.7886e-05,1.6085,0.15234
81,11.888,3.9457,0.1,4.2684e-05,426.55,4.2841e-05,431.27,-1.3373e-05,8.9037,-1.4469e-05,0.66992,0.18162
82,12.996,3.9258,0.1,3.5517e-05,354.92,3.5554e-05,356.03,-1.1655e-05,1.315,-1.171e-05,0.89903,0.21086
83,14.085,3.913,0.1,2.9188e-05,291.67,2.9149e-05,290.57,-9.4349e-06,0.66208,-9.9022e-06,-2.849,0.24046
84,15.174,3.9084,0.1,2.3316e-05,233,2.3245e-05,231.03,-7.344e-06,1.1975,-8.1704e-06,-5.0124,0.27073
85,16.267,3.9126,0.1,1.8212e-05,181.99,1.8115e-05,179.38,-5.5956e-06,1.2221,-6.5867e-06,-6.2241,0.30167
86,17.362,3.937,0.1,1.3649e-05,136.39,1.3533e-05,133.34,-4.0698e-06,1.0735,-5.1231e-06,-6.8408,0.33307
87,18.47,3.958,0.1,9.7647e-06,97.58,9.6362e-06,94.317,-2.7631e-06,1.1537,-3.8681e-06,-7.149,0.36519
88,19.567,3.9632,0.1,6.5826e-06,65.781,6.4384e-06,62.341,-1.6975e-06,1.2106,-2.826e-06,-7.2686,0.39722
89,20.718,3.9874,0.1,4.0775e-06,40.746,3.8872e-06,36.486,-8.7279e-07,0.7207,-2.0164e-06,-7.8717,0.43101
90,21.907,3.9143,0.1,2.0522e-06,20.508,1.7463e-06,14.686,-1.4968e-07,0.44031,-1.382e-06,-8.8189,0.46604
91,22.966,4.699,0.1,1.2226e-06,12.218,8.5582e-07,5.768,6.7552e-08,-0.15472,-1.0142e-06,-8.2825,0.49704
92,23.399,3.6073,0.1,1.0581e-06,10.574,4.6228e-07,0.72638,2.1373e-07,-1.1411,-1.0527e-06,-10.657,0.51011
93,22.937,2.8925,0.1,1.8064e-06,18.051,1.0741e-06,6.6368,3.3922e-07,1.115,-1.61e-06,-13.53,0.49665
94,1.2237,2.4395,0.1,0.0001498,1497,0.00013987,1401.4,-4.3668e-06,317.63,-8.7454e-05,-306.65,0.0021062
95,1.1631,3.6366,0.1,0.00015018,1500.8,0.00014066,1413.2,-4.6836e-06,321.14,-8.7112e-05,-298.19,0.0019011
96,22.802,1.5355,0.1,1.228e-06,12.271,8.2858e-07,6.0291,1.7473e-07,1.1163,-1.0303e-06,-7.9375,0.49295
97,21.747,1.8908,0.1,2.4222e-06,24.206,2.1711e-06,19.558,-2.381e-07,1.456,-1.4881e-06,-7.9358,0.46177
98,20.695,2.0084,0.1,4.1259e-06,41.231,3.9419e-06,37.111,-8.9111e-07,0.79735,-2.0234e-06,-7.71,0.4308
99,19.583,1.9821,0.1,6.5412e-06,65.366,6.3834e-06,61.664,-1.6439e-06,1.35,-2.8607e-06,-7.7921,0.39816
100,18.482,1.9788,0.1,9.741e-06,97.343,9.6035e-06,93.835,-2.7533e-06,0.99107,-3.8775e-06,-7.4555,0.36602
101,17.349,1.923,0.1,1.3649e-05,136.4,1.3545e-05,133.69,-4.0444e-06,1.5296,-5.1239e-06,-6.581,0.33316
102,16.269,1.9581,0.1,1.8248e-05,182.35,1.8157e-05,179.85,-5.6829e-06,0.72177,-6.5204e-06,-5.5714,0.30217
103,15.115,1.8315,0.1,2.3566e-05,235.5,2.3541e-05,234.85,-7.464e-06,1.8835,-8.1289e-06,-3.112,0.26951
104,14.05,1.8777,0.1,2.9423e-05,294.02,2.9409e-05,293.63,-9.5991e-06,0.54058,-9.8458e-06,-1.3131,0.23992
105,12.948,1.8566,0.1,3.5864e-05,358.4,3.5923e-05,360.11,-1.1684e-05,2.4122,-1.187e-05,1.017,0.21002
106,11.864,1.8707,0.1,4.2887e-05,428.57,4.3026e-05,432.77,-1.3511e-05,7.9672,-1.4503e-05,0.51479,0.18143
107,10.73,1.995,0.1,5.0941e-05,509.06,5.1366e-05,521.95,-1.5224e-05,21.619,-1.7492e-05,4.5761,0.15263
108,9.5108,2.0164,0.1,6.1632e-05,615.9,6.2002e-05,629.18,-1.68e-05,37.096,-2.2807e-05,-8.0431,0.12314
109,8.1607,1.9833,0.1,6.9678e-05,696.3,7.0534e-05,723.01,-1.945e-05,46.91,-2.4611e-05,8.1305,0.092637
110,7.2761,0.99294,0.1,6.6517e-05,664.71,6.6637e-05,668.58,-2.0632e-05,12.877,-2.2983e-05,-4.7937,0.073588
111,2.6069,1.3208,0.1,0.00012355,1234.7,0.00012702,1348.6,-2.6939e-05,191.84,-4.6016e-05,48.499,0.0090622
112,1.2245,1.2633,0.1,0.00014219,1420.9,0.00013531,1349.5,-1.1638e-05,245.4,-7.8036e-05,-253.49,0.0019769
113,1.1124,4.8066,0.1,0.00014207,1419.7,0.00013514,1343.2,-1.2318e-05,235.33,-7.7856e-05,-257.09,0.0016148
114,2.2504,4.8338,0.1,0.00012822,1281.4,0.00013143,1391.1,-2.7025e-05,200.58,-4.9055e-05,35.049,0.0066548
115,3.4252,4.8575,0.1,0.00010435,1042.8,0.00010387,1030,-3.1908e-05,9.8179,-3.774e-05,-34.006,0.015363
116,3.5005,2.6499,0.1,0.00012998,1298.9,0.00013185,1380.1,-2.492e-05,202.19,-5.3534e-05,-12.812,0.016866
117,3.4746,0.77858,0.1,0.00010057,1005,0.00010151,1036.6,-2.7056e-05,70.57,-3.6901e-05,-3.4021,0.01546
118,4.387,5.3602,0.1,9.0367e-05,903.04,8.4382e-05,770.27,-1.7555e-05,4.3546,-4.8144e-05,-225.48,0.023921
119,4.3786,1.3023,0.1,0.00012595,1258.6,0.00012145,1151.4,-3.0554e-05,9.2915,-5.8144e-05,-198.01,0.024982
120,3.5584,3.7349,0.1,0.00011957,1194.9,0.00012173,1295.4,-1.8434e-05,242.26,-5.1088e-05,-3.0895,0.017295
121,6.4686,3.4494,0.1,0.00011059,1105.1,0.00011333,1199,-2.3381e-05,171.8,-4.2301e-05,29.642,0.05802
122,6.2152,5.474,0.1,5.6592e-05,565.53,5.5073e-05,528.99,-1.4375e-05,7.1752,-2.4903e-05,-71.926,0.050946
123,4.5432,4.5532,0.1,0.00010872,1086.4,0.0001029,994.45,-1.3653e-05,118.7,-5.8907e-05,-221.33,0.026859
124,6.2247,0.60869,0.1,6.5241e-05,651.96,6.2183e-05,572.3,-1.7531e-05,-26.637,-3.0243e-05,-122.15,0.052337
125,4.3916,0.52665,0.1,9.3502e-05,934.37,8.9464e-05,829.12,-2.5255e-05,-32.835,-4.2691e-05,-163.84,0.023958
126,6.5213,4.3949,0.1,8.2988e-05,829.31,8.1556e-05,793.18,-2.2935e-05,8.0687,-3.3885e-05,-74.201,0.05828
127,4.7232,2.5801,0.1,0.00014884,1487.4,0.00014413,1357.9,-4.4124e-05,-56.496,-6.2287e-05,-192.96,0.030333
128,5.5691,2.9106,0.1,0.00019971,1995.7,0.00018912,1712.6,-5.6146e-05,-130.28,-9.2993e-05,-407.13,0.042513
129,5.4067,4,0,0.00031522,3150,0.00013915,249.12,6.4173e-05,-314.21,-0.00031253,-3144.6,0.038935
130,5.4067,4.5,0,0.00014191,1418.1,6.4904e-05,223.95,3.5679e-05,4.3646,-0.00013674,-1291.2,0.037782
131,5.4067,5,0,0.00011348,1134,6.8811e-05,384.67,1.4741e-05,-21.59,-0.0001017,-896.48,0.036651
132,5.4067,5.5,0,2.831e-05,282.91,1.0328e-05,-76.416,-2.8087e-08,-154.23,-3.1419e-05,-390.09,0.0356
133,5.24,4,0,0.00049328,4929.4,0.00023534,880.54,0.00011536,-20.943,-0.00047243,-4437.3,0.0364
134,5.24,5.5,0,2.542e-05,254.02,9.1197e-06,-76.074,-4.936e-07,-148.3,-2.8454e-05,-358.39,0.032672
135,5.24,5,0,7.1394e-05,713.45,3.6081e-05,98.713,9.5868e-06,-100.36,-6.9307e-05,-693.13,0.03384
136,5.24,4.5,0,0.00014686,1467.6,0.00010002,539.59,-3.7942e-06,-240.46,-0.00012529,-1153.3,0.03508
137,5.4067,2,0,0.00030821,3080,9.3619e-05,-314.12,8.6614e-05,-366.76,-0.00031976,-3420.1,0.039207
138,5.4067,1.5,0,0.00016662,1665,8.4814e-05,394.05,3.8217e-05,43.941,-0.00015638,-1418.2,0.038282
139,5.4067,1,0,9.8645e-05,985.77,5.7996e-05,255.08,8.0652e-06,-120.08,-9.0837e-05,-863.19,0.037394
140,5.4067,0.5,0,2.2944e-05,229.29,8.7224e-06,-74.835,-2.2156e-06,-157.02,-2.5755e-05,-333.89,0.0366
141,5.24,2,0,0.00027331,2731.2,0.00011129,9.4828,5.3141e-05,-427.4,-0.00027779,-2913.9,0.036667
142,5.24,0.5,0,3.5181e-05,351.56,1.2684e-05,-101.68,-4.3013e-07,-200.21,-3.9264e-05,-492,0.033104
143,5.24,1,0,0.00010826,1081.8,6.6878e-05,320.93,5.802e-06,-137.97,-9.7577e-05,-914.72,0.034284
144,5.24,1.5,0,0.00018411,1839.8,0.00012815,860.18,1.1039e-05,-19.758,-0.00015327,-1254.3,0.035546
145,5.4067,6,0,3.2907e-05,328.84,1.0778e-05,-48.343,6.471e-06,-80.703,-3.4982e-05,-392.17,0.034595
146,6.5004,6,0,5.3785e-05,537.48,2.3477e-05,27.983,1.0007e-05,-73.224,-5.3835e-05,-552.91,0.055587
147,7.5941,6,0,7.1492e-05,714.43,3.1411e-05,80.659,1.7247e-05,-25.761,-6.9961e-05,-681.01,0.077859
148,8.6878,6,0,6.7874e-05,678.28,2.7138e-05,50.806,1.8859e-05,-11.396,-6.699e-05,-656.43,0.10178
149,9.7816,6,0,5.8862e-05,588.21,2.0958e-05,12.322,1.7935e-05,-10.388,-5.8796e-05,-586.91,0.12726
150,10.875,6,0,4.9777e-05,497.43,1.6727e-05,-3.1589,1.5627e-05,-11.421,-5.002e-05,-504.67,0.15411
151,11.969,6,0,4.2873e-05,428.43,1.4279e-05,0.21521,1.3946e-05,-2.2904,-4.2907e-05,-429.46,0.18216
152,13.063,6,0,3.5843e-05,358.19,1.2271e-05,5.0995,1.1545e-05,-0.35329,-3.576e-05,-355.78,0.21122
153,14.156,6,0,2.9207e-05,291.87,1.0484e-05,10.098,9.1229e-06,-0.12727,-2.9024e-05,-286.75,0.24113
154,15.25,6,0,2.3392e-05,233.75,8.741e-06,12.852,7.1502e-06,0.89909,-2.3135e-05,-226.65,0.27171
155,16.344,6,0,1.8145e-05,181.32,7.1122e-06,14.187,5.3562e-06,0.99322,-1.7851e-05,-173.37,0.30284
156,17.438,6,0,1.3588e-05,135.79,5.6707e-06,14.745,3.7808e-06,0.54551,-1.3272e-05,-127.58,0.33437
157,18.531,6,0,9.7744e-06,97.676,4.3724e-06,14.579,2.5604e-06,0.96435,-9.4385e-06,-89.191,0.3662
158,19.625,6,0,6.5478e-06,65.433,3.279e-06,14.301,1.4891e-06,0.85212,-6.1855e-06,-56.812,0.39824
159,20.719,6,0,3.8937e-06,38.91,2.2529e-06,12.585,6.8119e-07,0.77592,-3.5295e-06,-30.862,0.4304
160,21.813,6,0,1.9165e-06,19.152,1.396e-06,9.9215,6.8768e-08,-0.051047,-1.5427e-06,-12.159,0.46264
161,22.906,6,0,1.5412e-06,15.402,1.3097e-06,10.509,-1.9255e-07,-0.77824,-1.0255e-06,-7.0366,0.4949
162,24,6,0,6.752e-07,6.7474,5.5072e-07,5.0669,6.2315e-08,1.3972,-4.8565e-07,-2.72,0.52718
163,24,4.8,0,7.5412e-07,7.536,6.9134e-07,5.9233,-1.9285e-07,-0.72016,-3.9855e-07,-2.2657,0.52752
164,24,3.6,0,1.4056e-06,14.046,1.3033e-06,11.19,-4.4219e-07,-1.9245,-6.6937e-07,-3.6315,0.52783
165,24,2.4,0,1.0499e-06,10.492,9.9252e-07,8.9518,-2.9722e-07,-0.73885,-4.9039e-07,-2.1902,0.52811
166,24,1.2,0,8.3393e-07,8.3335,6.8839e-07,5.6855,-2.8916e-08,0.29591,-5.891e-07,-3.9131,0.52836
167,1.049e-14,1.2,0,0.00010027,1002,5.5913e-07,-974.24,-1.1078e-06,-986.77,-0.00013362,-1982.4,0
168,2.0981e-14,2.4,0,0.0001047,1046.3,6.7071e-08,-1020.5,-5.7042e-07,-1025.3,-0.0001395,-2069.2,0
169,3.1471e-14,3.6,0,0.0001041,1040.2,1.083e-07,-1015.2,-6.9522e-07,-1021.3,-0.00013874,-2058.5,0
170,4.1961e-14,4.8,0,9.9457e-05,993.88,4.149e-07,-966.81,-9.003e-07,-976.69,-0.00013252,-1965.6,0
171,24,0,0,5.9837e-07,5.9796,5.5699e-07,5.0367,-1.2097e-07,-0.057229,-3.1924e-07,-1.5469,0.5286
172,5.4067,0,0,3.5267e-05,352.43,1.582e-05,-12.339,2.4955e-06,-112.45,-3.6306e-05,-403.99,0.035861
173,22.906,0,0,1.4016e-06,14.006,1.2256e-06,10.862,-9.1604e-08,0.9651,-9.0732e-07,-5.1638,0.49632
174,21.813,0,0,2.1593e-06,21.578,1.5999e-06,11.94,1.0028e-07,0.67217,-1.7114e-06,-12.94,0.46405
175,20.719,0,0,3.9174e-06,39.147,2.3445e-06,13.364,5.8905e-07,0.17383,-3.5166e-06,-30.674,0.43182
176,19.625,0,0,6.5157e-06,65.112,3.2413e-06,13.916,1.493e-06,0.78026,-6.1655e-06,-56.763,0.39965
177,18.531,0,0,9.6624e-06,96.558,4.2615e-06,13.694,2.5752e-06,1.024,-9.3495e-06,-88.573,0.36762
178,17.438,0,0,1.3588e-05,135.78,5.6476e-06,14.515,3.8007e-06,0.6379,-1.3277e-05,-127.68,0.33579
179,16.344,0,0,1.8009e-05,179.97,6.9247e-06,12.539,5.4097e-06,1.156,-1.7749e-05,-172.85,0.30426
180,15.25,0,0,2.3434e-05,234.18,8.8992e-06,14.742,7.0881e-06,1.1334,-2.3135e-05,-225.95,0.27313
181,14.156,0,0,2.9283e-05,292.63,1.0623e-05,11.515,9.0826e-06,-0.057202,-2.9071e-05,-286.73,0.24254
182,13.063,0,0,3.588e-05,358.55,1.258e-05,8.5206,1.1364e-05,-0.61244,-3.5737e-05,-354.51,0.21264
183,11.969,0,0,4.3211e-05,431.81,1.4517e-05,2.7047,1.4072e-05,-0.64162,-4.3175e-05,-430.77,0.18357
184,10.875,0,0,5.0189e-05,501.55,1.6829e-05,-3.2869,1.5809e-05,-10.948,-5.0427e-05,-508.62,0.15553
185,9.7816,0,0,5.806e-05,580.2,2.0444e-05,5.0999,1.743e-05,-17.551,-5.8239e-05,-586.09,0.12869
186,8.6878,0,0,6.9739e-05,696.91,2.6368e-05,48.761,2.1756e-05,14.109,-6.8605e-05,-664.83,0.10322
187,7.5941,0,0,6.5195e-05,651.5,2.4448e-05,31.916,1.9411e-05,-5.9286,-6.4671e-05,-637.68,0.079352
188,6.5004,0,0,4.8399e-05,483.66,1.5182e-05,-33.546,1.4233e-05,-40.673,-4.9658e-05,-520.73,0.057034
189,0,0,0,7.5597e-05,755.44,6.0302e-06,-624.98,-3.7914e-07,-673.14,-9.7565e-05,-1403.4,0
190,5.24,0,0,4.8286e-05,482.53,2.2653e-05,-21.831,6.8466e-07,-186.89,-4.967e-05,-565.23,0.031986
191,4.192,-9.7055e-31,0,7.3412e-05,733.61,2.4671e-05,-43.259,1.9451e-05,-82.475,-7.5472e-05,-795.69,0.021
192,3.144,-7.2791e-31,0,0.00011677,1166.9,4.1702e-05,39.633,3.6778e-05,2.6364,-0.00011601,-1145.4,0.011623
193,2.096,-4.8527e-31,0,0.00014414,1440.4,4.8733e-05,-12.007,4.4477e-05,-43.984,-0.00014507,-1468.1,0.0047849
194,1.048,-2.4264e-31,0,0.00013991,1398.1,6.3212e-05,185.38,3.315e-05,-40.498,-0.00013607,-1311.9,0.0010352
195,3.937e-14,6,0,7.506e-05,750.08,7.4049e-06,-592.69,-2.6758e-07,-650.34,-9.604e-05,-1369.9,0
196,5.24,6,0,4.9115e-05,490.81,2.5091e-05,17.122,3.8723e-07,-168.49,-4.8981e-05,-539.42,0.031554
197,1.048,6,0,0.00014015,1400.6,6.4406e-05,176.8,3.0207e-05,-80.163,-0.00013673,-1334.4,0.0010159
198,2.096,6,0,0.00014128,1411.8,5.1237e-05,-8.4197,3.7829e-05,-109.17,-0.00014301,-1467.9,0.004755
199,3.144,6,0,0.00011746,1173.8,4.5082e-05,81.091,3.5362e-05,8.0541,-0.00011577,-1127.5,0.011551
200,4.192,6,0,6.4737e-05,646.92,2.0797e-05,-67.383,1.6093e-05,-102.73,-6.7558e-05,-731.25,0.020805
201,5.4067,5.5,0.1,2.831e-05,282.91,3.1419e-05,390.09,2.8087e-08,154.23,-1.0328e-05,76.416,0.0356
202,5.4067,5,0.1,0.00011348,1134,0.0001017,896.48,-1.4741e-05,21.59,-6.8811e-05,-384.67,0.036651
203,5.4067,4.5,0.1,0.00014191,1418.1,0.00013674,1291.2,-3.5679e-05,-4.3646,-6.4904e-05,-223.95,0.037782
204,5.4067,4,0.1,0.00031522,3150,0.00031253,3144.6,-6.4173e-05,314.21,-0.00013915,-249.12,0.038935
205,5.24,4,0.1,0.00049328,4929.4,0.00047243,4437.3,-0.00011536,20.943,-0.00023534,-880.54,0.0364
206,5.24,4.5,0.1,0.00014686,1467.6,0.00012529,1153.3,3.7942e-06,240.46,-0.00010002,-539.59,0.03508
207,5.24,5,0.1,7.1394e-05,713.45,6.9307e-05,693.13,-9.5868e-06,100.36,-3.6081e-05,-98.713,0.03384
208,5.24,5.5,0.1,2.542e-05,254.02,2.8454e-05,358.39,4.936e-07,148.3,-9.1197e-06,76.074,0.032672
209,5.4067,0.5,0.1,2.2944e-05,229.29,2.5755e-05,333.89,2.2156e-06,157.02,-8.7224e-06,74.835,0.0366
210,5.4067,1,0.1,9.8645e-05,985.77,9.0837e-05,863.19,-8.0652e-06,120.08,-5.7996e-05,-255.08,0.037394
211,5.4067,1.5,0.1,0.00016662,1665,0.00015638,1418.2,-3.8217e-05,-43.941,-8.4814e-05,-394.05,0.038282
212,5.4067,2,0.1,0.00030821,3080,0.00031976,3420.1,-8.6614e-05,366.76,-9.3619e-05,314.12,0.039207
213,5.24,2,0.1,0.00027331,2731.2,0.00027779,2913.9,-5.3141e-05,427.4,-0.00011129,-9.4828,0.036667
214,5.24,1.5,0.1,0.00018411,1839.8,0.00015327,1254.3,-1.1039e-05,19.758,-0.00012815,-860.18,0.035546
215,5.24,1,0.1,0.00010826,1081.8,9.7577e-05,914.72,-5.802e-06,137.97,-6.6878e-05,-320.93,0.034284
216,5.24,0.5,0.1,3.5181e-05,351.56,3.9264e-05,492,4.3013e-07,200.21,-1.2684e-05,101.68,0.033104
217,5.4067,6,0.1,3.2907e-05,328.84,3.4982e-05,392.17,-6.471e-06,80.703,-1.0778e-05,48.343,0.034595
218,6.5004,6,0.1,5.3785e-05,537.48,5.3835e-05,552.91,-1.0007e-05,73.224,-2.3477e-05,-27.983,0.055587
219,7.5941,6,0.1,7.1492e-05,714.43,6.9961e-05,681.01,-1.7247e-05,25.761,-3.1411e-05,-80.659,0.077859
220,8.6878,6,0.1,6.7874e-05,678.28,6.699e-05,656.43,-1.8859e-05,11.396,-2.7138e-05,-50.806,0.10178
221,9.7816,6,0.1,5.8862e-05,588.21,5.8796e-05,586.91,-1.7935e-05,10.388,-2.0958e-05,-12.322,0.12726
222,10.875,6,0.1,4.9777e-05,497.43,5.002e-05,504.67,-1.5627e-05,11.421,-1.6727e-05,3.1589,0.15411
223,11.969,6,0.1,4.2873e-05,428.43,4.2907e-05,429.46,-1.3946e-05,2.2904,-1.4279e-05,-0.21521,0.18216
224,13.063,6,0.1,3.5843e-05,358.19,3.576e-05,355.78,-1.1545e-05,0.35329,-1.2271e-05,-5.0995,0.21122
225,14.156,6,0.1,2.9207e-05,291.87,2.9024e-05,286.75,-9.1229e-06,0.12727,-1.0484e-05,-10.098,0.24113
226,15.25,6,0.1,2.3392e-05,233.75,2.3135e-05,226.65,-7.1502e-06,-0.89909,-8.741e-06,-12.852,0.27171
227,16.344,6,0.1,1.8145e-05,181.32,1.7851e-05,173.37,-5.3562e-06,-0.99322,-7.1122e-06,-14.187,0.30284
228,17.438,6,0.1,1.3588e-05,135.79,1.3272e-05,127.58,-3.7808e-06,-0.54551,-5.6707e-06,-14.745,0.33437
229,18.531,6,0.1,9.7744e-06,97.676,9.4385e-06,89.191,-2.5604e-06,-0.96435,-4.3724e-06,-14.579,0.3662
230,19.625,6,0.1,6.5478e-06,65.433,6.1855e-06,56.812,-1.4891e-06,-0.85212,-3.279e-06,-14.301,0.39824
231,20.719,6,0.1,3.8937e-06,38.91,3.5295e-06,30.862,-6.8119e-07,-0.77592,-2.2529e-06,-12.585,0.4304
232,21.813,6,0.1,1.9165e-06,19.152,1.5427e-06,12.159,-6.8768e-08,0.051047,-1.396e-06,-9.9215,0.46264
233,22.906,6,0.1,1.5412e-06,15.402,1.0255e-06,7.0367,1.9255e-07,0.77824,-1.3097e-06,-10.509,0.4949
234,24,6,0.1,6.752e-07,6.7474,4.8565e-07,2.72,-6.2315e-08,-1.3972,-5.5072e-07,-5.0669,0.52718
235,24,4.8,0.1,7.5412e-07,7.536,3.9855e-07,2.2657,1.9285e-07,0.72016,-6.9134e-07,-5.9233,0.52752
236,24,3.6,0.1,1.4056e-06,14.046,6.6937e-07,3.6315,4.4219e-07,1.9245,-1.3033e-06,-11.19,0.52783
237,24,2.4,0.1,1.0499e-06,10.492,4.9039e-07,2.1902,2.9722e-07,0.73885,-9.9252e-07,-8.9517,0.52811
238,24,1.2,0.1,8.3393e-07,8.3335,5.891e-07,3.9131,2.8916e-08,-0.29591,-6.8839e-07,-5.6854,0.52836
239,1.049e-14,1.2,0.1,0.00010027,1002,0.00013362,1982.4,1.1078e-06,986.77,-5.5913e-07,974.24,0
240,2.0981e-14,2.4,0.1,0.0001047,1046.3,0.0001395,2069.2,5.7042e-07,1025.3,-6.7071e-08,1020.5,0
241,3.1471e-14,3.6,0.1,0.0001041,1040.2,0.00013874,2058.5,6.9522e-07,1021.3,-1.083e-07,1015.2,0
242,4.1961e-14,4.8,0.1,9.9457e-05,993.88,0.00013252,1965.6,9.003e-07,976.69,-4.149e-07,966.81,0
243,24,0,0.1,5.9837e-07,5.9796,3.1924e-07,1.5469,1.2097e-07,0.05723,-5.5699e-07,-5.0367,0.5286
244,22.906,0,0.1,1.4016e-06,14.006,9.0732e-07,5.1638,9.1604e-08,-0.9651,-1.2256e-06,-10.862,0.49632
245,21.813,0,0.1,2.1593e-06,21.578,1.7114e-06,12.94,-1.0028e-07,-0.67217,-1.5999e-06,-11.94,0.46405
246,20.719,0,0.1,3.9174e-06,39.147,3.5166e-06,30.674,-5.8905e-07,-0.17383,-2.3445e-06,-13.364,0.43182
247,19.625,0,0.1,6.5157e-06,65.112,6.1655e-06,56.763,-1.493e-06,-0.78026,-3.2413e-06,-13.916,0.39965
248,18.531,0,0.1,9.6624e-06,96.558,9.3495e-06,88.573,-2.5752e-06,-1.024,-4.2615e-06,-13.694,0.36762
249,17.438,0,0.1,1.3588e-05,135.78,1.3277e-05,127.68,-3.8007e-06,-0.63791,-5.6476e-06,-14.515,0.33579
250,16.344,0,0.1,1.8009e-05,179.97,1.7749e-05,172.85,-5.4097e-06,-1.156,-6.9247e-06,-12.539,0.30426
251,15.25,0,0.1,2.3434e-05,234.18,2.3135e-05,225.95,-7.0881e-06,-1.1334,-8.8992e-06,-14.741,0.27313
252,14.156,0,0.1,2.9283e-05,292.63,2.9071e-05,286.73,-9.0826e-06,0.057202,-1.0623e-05,-11.515,0.24254
253,13.063,0,0.1,3.588e-05,358.55,3.5737e-05,354.51,-1.1364e-05,0.61244,-1.258e-05,-8.5206,0.21264
254,11.969,0,0.1,4.3211e-05,431.81,4.3175e-05,430.77,-1.4072e-05,0.64162,-1.4517e-05,-2.7047,0.18357
255,10.875,0,0.1,5.0189e-05,501.55,5.0427e-05,508.62,-1.5809e-05,10.948,-1.6829e-05,3.2869,0.15553
256,9.7816,0,0.1,5.806e-05,580.2,5.8239e-05,586.09,-1.743e-05,17.551,-2.0444e-05,-5.0999,0.12869
257,8.6878,0,0.1,6.9739e-05,696.91,6.8605e-05,664.83,-2.1756e-05,-14.109,-2.6368e-05,-48.761,0.10322
258,7.5941,0,0.1,6.5195e-05,651.5,6.4671e-05,637.68,-1.9411e-05,5.9286,-2.4448e-05,-31.916,0.079352
259,6.5004,0,0.1,4.8399e-05,483.66,4.9658e-05,520.73,-1.4233e-05,40.673,-1.5182e-05,33.546,0.057034
260,5.4067,0,0.1,3.5267e-05,352.43,3.6306e-05,403.99,-2.4955e-06,112.45,-1.582e-05,12.339,0.035861
261,5.24,0,0.1,4.8286e-05,482.53,4.967e-05,565.23,-6.8466e-07,186.89,-2.2653e-05,21.831,0.031986
262,4.192,-9.7055e-31,0.1,7.3412e-05,733.61,7.5472e-05,795.69,-1.9451e-05,82.475,-2.4671e-05,43.259,0.021
263,3.144,-7.2791e-31,0.1,0.00011677,1166.9,0.00011601,1145.4,-3.6778e-05,-2.6364,-4.1702e-05,-39.633,0.011623
264,2.096,-4.8527e-31,0.1,0.00014414,1440.4,0.00014507,1468.1,-4.4477e-05,43.984,-4.8733e-05,12.007,0.0047849
265,1.048,-2.4264e-31,0.1,0.00013991,1398.1,0.00013607,1311.9,-3.315e-05,40.498,-6.3212e-05,-185.38,0.0010352
266,0,0,0.1,7.5597e-05,755.44,9.7565e-05,1403.4,3.7914e-07,673.14,-6.0302e-06,624.98,0
267,3.937e-14,6,0.1,7.506e-05,750.08,9.604e-05,1369.9,2.6758e-07,650.34,-7.4049e-06,592.69,0
268,1.048,6,0.1,0.00014015,1400.6,0.00013673,1334.4,-3.0207e-05,80.163,-6.4406e-05,-176.8,0.0010159
269,2.096,6,0.1,0.00014128,1411.8,0.00014301,1467.9,-3.7829e-05,109.17,-5.1237e-05,8.4197,0.004755
270,3.144,6,0.1,0.00011746,1173.8,0.00011577,1127.5,-3.5362e-05,-8.0541,-4.5082e-05,-81.091,0.011551
271,4.192,6,0.1,6.4737e-05,646.92,6.7558e-05,731.25,-1.6093e-05,102.73,-2.0797e-05,67.383,0.020805
272,5.24,6,0.1,4.9115e-05,490.81,4.8981e-05,539.42,-3.8723e-07,168.49,-2.5091e-05,-17.122,0.031554
273,5.1462,2.7453,0,0.00017328,1731.6,7.6816e-05,293.86,5.015e-05,93.499,-0.00016582,-1529.2,0.036118
274,6.0188,3.18,0,0.00015405,1539.5,5.9193e-05,125.22,4.804e-05,41.425,-0.00015105,-1454.4,0.049939
275,5.3291,3.1543,0,0.00020794,2078,9.1577e-05,305.71,5.6741e-05,43.965,-0.00020075,-1890.7,0.038756
276,5.5691,2.9106,0.05,5.3065e-06,53.028,4.0747e-06,30.616,2.0318e-13,1.4706e-05,-4.0747e-06,-30.616,0.042504
277,5.4879,2.4553,0,0.00024826,2480.9,8.8563e-05,10.867,7.15e-05,-117.34,-0.00024982,-2531.6,0.041061
278,4.1119,2.615,0,0.00013842,1383.3,4.9288e-05,38.102,4.3024e-05,-8.9684,-0.00013787,-1368.1,0.023089
279,4.5683,2.9137,0,0.00014606,1459.6,5.7622e-05,132.89,4.4221e-05,32.209,-0.00014299,-1374.4,0.028466
280,4.7232,2.5801,0.05,3.661e-06,36.585,2.8112e-06,21.122,1.831e-12,1.5308e-05,-2.8112e-06,-21.122,0.030325
281,4.9816,2.2901,0,0.00020799,2078.5,8.4061e-05,80.744,4.8876e-05,-183.62,-0.00020847,-2117.2,0.033526
282,6.4949,3.9222,0,9.5588e-05,955.23,3.5868e-05,5.5648,2.4505e-05,-79.818,-9.6565e-05,-989.49,0.058234
283,6.8972,4.6773,0,8.2565e-05,825.08,3.0827e-05,54.813,2.6169e-05,19.817,-8.124e-05,-787.21,0.06533
284,6.2633,4.717,0,7.2178e-05,721.28,3.1633e-05,107.7,2.0139e-05,21.343,-6.9594e-05,-652.87,0.053008
285,6.5213,4.3949,0.05,6.5858e-06,65.813,5.0571e-06,37.997,5.1892e-13,-1.7004e-06,-5.0571e-06,-37.997,0.058272
286,5.964,4.4475,0,0.00010736,1072.8,4.5195e-05,117.53,2.925e-05,-2.2763,-0.00010489,-1010.2,0.047808
287,3.9331,0.65261,0,9.4794e-05,947.29,3.3464e-05,36.047,3.0883e-05,16.655,-9.3883e-05,-920.79,0.019545
288,4.5107,0.73566,0,8.3126e-05,830.69,4.19e-05,193.31,1.956e-05,25.458,-7.8122e-05,-708.49,0.025586
289,4.3916,0.52665,0.05,7.6558e-06,76.505,5.8787e-06,44.17,-1.247e-21,-9.3692e-15,-5.8787e-06,-44.17,0.023951
290,4.8158,0.51332,0,6.2081e-05,620.38,2.0416e-05,-23.552,1.8441e-05,-38.395,-6.3121e-05,-651.22,0.028469
291,4.2918,0.26332,0,8.2321e-05,822.64,3.2704e-05,52.955,2.2422e-05,-24.303,-8.156e-05,-805.59,0.022478
292,6.7504,0.80081,0,6.41e-05,640.56,2.4547e-05,47.951,1.9743e-05,11.85,-6.3006e-05,-609.89,0.062826
293,6.1163,0.81161,0,6.002e-05,599.79,2.9984e-05,135.13,1.4207e-05,16.588,-5.6553e-05,-515.08,0.050484
294,6.2247,0.60869,0.05,6.9692e-06,69.644,5.3515e-06,40.209,-1.1351e-21,1.2625e-06,-5.3515e-06,-40.209,0.052328
295,5.8157,0.55434,0,4.2046e-05,420.17,1.353e-05,-21.068,1.2527e-05,-28.606,-4.2886e-05,-444.96,0.044437
296,6.3626,0.30434,0,5.5982e-05,559.43,2.1717e-05,36.819,1.627e-05,-4.1028,-5.5313e-05,-541.95,0.054678
297,3.9842,4.7054,0,0.00010413,1040.6,4.6515e-05,114.08,2.3313e-05,-60.253,-0.00010211,-1002.6,0.020796
298,4.6099,4.7655,0,8.6699e-05,866.39,4.828e-05,248.94,1.5878e-05,5.4822,-7.9764e-05,-713.13,0.0273
299,4.8015,4.2376,0,0.00016391,1637.9,7.5761e-05,160.53,2.9761e-05,-185.09,-0.00016157,-1622.6,0.030333
300,4.5432,4.5532,0.05,3.0484e-05,304.63,2.3408e-05,175.88,1.363e-12,9.5418e-06,-2.3408e-05,-175.88,0.026852
301,4.8916,4.5266,0,0.00011033,1102.5,6.1145e-05,242.81,1.2812e-05,-120.35,-0.00010366,-995.48,0.030899
302,6.7442,5.2169,0,6.8661e-05,686.13,2.721e-05,60.241,2.0358e-05,8.7633,-6.7342e-05,-650.18,0.06164
303,6.1103,5.2565,0,5.9519e-05,594.78,2.7965e-05,112.75,1.5408e-05,18.401,-5.6724e-05,-523.57,0.049305
304,6.2152,5.474,0.05,4.3244e-06,43.214,3.3206e-06,24.95,1.6649e-13,-1.9176e-14,-3.3206e-06,-24.95,0.050937
305,5.8109,5.487,0,4.1074e-05,410.46,1.2683e-05,-39.307,1.1424e-05,-48.762,-4.2564e-05,-454.41,0.043229
306,6.3578,5.737,0,5.3202e-05,531.65,1.9666e-05,15.966,1.5393e-05,-16.145,-5.3132e-05,-531.01,0.053258
307,7.3225,3.7034,0,8.9129e-05,890.67,3.3789e-05,-19.562,1.983e-05,-124.44,-9.1114e-05,-958.03,0.074667
308,6.5776,2.8961,0,0.00010085,1007.8,3.4793e-05,-48.909,2.612e-05,-114.08,-0.00010347,-1087.7,0.060261
309,6.4686,3.4494,0.05,1.01e-05,100.93,7.7555e-06,58.272,1.4322e-13,6.5326e-06,-7.7555e-06,-58.272,0.058011
310,5.9376,3.7247,0,0.00020921,2090.6,8.0341e-05,31.718,5.2157e-05,-180.04,-0.00021092,-2156.7,0.048177
311,3.5295,3.1924,0,0.00012438,1242.9,5.2153e-05,6.7614,2.1494e-05,-223.6,-0.00012645,-1335.2,0.01715
312,3.4918,4.2962,0,0.00011146,1113.8,4.4212e-05,17.032,2.5189e-05,-125.9,-0.00011262,-1161.3,0.016419
313,2.9428,3.7141,0,0.00012146,1213.7,5.1157e-05,-33.02,1.6502e-05,-293.4,-0.0001249,-1355.8,0.011955
314,4.3091,3.8284,0,0.00016554,1654.2,5.8492e-05,-48.961,4.3373e-05,-162.56,-0.00016884,-1757.1,0.02504
315,3.9859,3.4911,0,0.00013233,1322.4,4.7605e-05,4.7719,3.7314e-05,-72.555,-0.00013331,-1354.6,0.021674
316,3.5584,3.7349,0.05,8.8826e-06,88.764,6.8207e-06,51.248,-1.5356e-13,1.144e-05,-6.8207e-06,-51.248,0.017287
317,3.9266,1.0404,0,0.0001127,1126.2,4.5667e-05,86.762,3.0439e-05,-27.653,-0.00011126,-1092.3,0.019983
318,4.5042,1.1235,0,9.6155e-05,960.89,4.4539e-05,172.17,2.5125e-05,26.299,-9.1944e-05,-853.31,0.026139
319,4.0808,1.585,0,0.00012218,1221,4.9459e-05,57.132,2.9515e-05,-92.723,-0.0001221,-1231.9,0.02212
320,4.3786,1.3023,0.05,1.9436e-05,194.23,1.4925e-05,112.14,-3.1657e-21,7.9545e-06,-1.4925e-05,-112.14,0.024975
321,4.8093,1.4012,0,0.00013488,1347.8,7.4269e-05,387.25,2.6484e-05,28.207,-0.00012417,-1103.7,0.030068
322,3.9061,5.1088,0,9.5237e-05,951.71,3.9157e-05,101.3,2.7377e-05,12.795,-9.2987e-05,-891.57,0.019538
323,4.5318,5.169,0,7.8918e-05,788.63,4.713e-05,282.81,1.3593e-05,30.831,-7.0501e-05,-601.02,0.025779
324,4.387,5.3602,0.05,1.3999e-05,139.89,1.0749e-05,80.767,-2.2801e-21,-1.7132e-14,-1.0749e-05,-80.767,0.023915
325,4.8135,5.4301,0,5.4669e-05,546.31,2.2151e-05,26.012,1.3209e-05,-41.179,-5.4616e-05,-550.79,0.028256
326,4.2895,5.6801,0,7.6246e-05,761.94,3.3554e-05,72.163,1.6914e-05,-52.865,-7.5144e-05,-744.56,0.022368
327,3.0408,1.0497,0,0.00011203,1119.5,4.1423e-05,-22.817,2.7024e-05,-131,-0.00011425,-1192.5,0.012111
328,3.4746,0.77858,0.05,4.2168e-06,42.139,3.238e-06,24.329,1.0031e-13,-5.1606e-15,-3.238e-06,-24.329,0.015453
329,3.3093,0.38929,0,0.00010852,1084.4,3.7411e-05,7.3141,3.3757e-05,-20.139,-0.00010871,-1090.6,0.013558
330,2.9364,2.5951,0,0.00012716,1270.7,5.2808e-05,-28.179,1.9432e-05,-278.96,-0.00013051,-1405.6,0.011971
331,3.6417,2.2588,0,0.00012423,1241.5,4.9606e-05,-17.047,2.3914e-05,-210.09,-0.00012697,-1343.7,0.018111
332,3.5005,2.6499,0.05,2.0437e-06,20.423,1.5693e-06,11.791,-4.97e-14,7.3526e-07,-1.5693e-06,-11.791,0.016859
333,2.8378,4.8456,0,0.0001161,1160.2,4.3084e-05,-2.8767,2.9709e-05,-103.37,-0.00011758,-1210,0.010589
334,3.4252,4.8575,0.05,8.7254e-06,87.194,6.7e-06,50.341,1.0393e-13,-9.4765e-07,-6.7e-06,-50.341,0.015355
335,3.2846,5.4287,0,0.00011072,1106.4,3.867e-05,36.949,3.6306e-05,19.19,-0.00010975,-1078.2,0.01353
336,1.6814,4.8202,0,0.00013451,1344.2,6.343e-05,110.83,1.9695e-05,-217.78,-0.00013328,-1367.2,0.0036954
337,2.2888,4.2635,0,0.00012551,1254.2,5.0254e-05,-51.24,2.0494e-05,-274.85,-0.00012955,-1402.2,0.0071531
338,2.2504,4.8338,0.05,2.8464e-06,28.444,2.1857e-06,16.422,3.3775e-13,1.9066e-06,-2.1857e-06,-16.422,0.0066468
339,2.1732,5.4169,0,0.0001346,1345.1,5.0101e-05,-22.071,3.2377e-05,-155.24,-0.00013712,-1428.8,0.0057859
340,1.1378,4.2216,0,0.00014582,1457.2,8.2474e-05,277.57,8.2342e-06,-280.24,-0.00013762,-1376.1,0.0017741
341,1.1124,4.8066,0.05,2.2932e-06,22.916,1.7609e-06,13.231,9.8524e-13,-2.8064e-15,-1.7609e-06,-13.231,0.0016064
342,0.55622,4.8033,0,0.00011892,1188.4,3.8961e-05,-356.17,5.3645e-06,-608.6,-0.00013331,-1650.5,0.00040879
343,1.0802,5.4033,0,0.00014015,1400.6,7.1078e-05,216.54,2.0717e-05,-161.85,-0.00013533,-1334.3,0.0013664
344,1.9157,1.292,0,0.00013214,1320.4,6.1973e-05,102.1,1.9338e-05,-218.25,-0.00013116,-1349.1,0.0048666
345,1.2241,1.8514,0,0.00014577,1456.6,8.2738e-05,280.02,7.8226e-06,-282.87,-0.00013741,-1374.1,0.0020628
346,1.2245,1.2633,0.05,3.0349e-06,30.328,2.3304e-06,17.51,-4.9432e-22,-3.7141e-15,-2.3304e-06,-17.51,0.0019684
347,0.61224,1.2316,0,0.00011949,1194.1,3.9046e-05,-362.27,5.1432e-06,-617,-0.00013409,-1663.2,0.0004991
348,1.1362,0.63164,0,0.00013988,1397.8,7.0607e-05,219.31,2.1713e-05,-148.07,-0.00013499,-1325.5,0.0015464
349,2.4895,1.9305,0,0.00012365,1235.7,4.9075e-05,-58.64,2.0223e-05,-275.43,-0.0001279,-1388.4,0.0085182
350,3.1949,1.5942,0,0.00012142,1213.4,4.6168e-05,-45.286,2.4941e-05,-204.78,-0.00012489,-1330.5,0.013761
351,2.6069,1.3208,0.05,3.1865e-06,31.843,2.4469e-06,18.385,-5.1902e-22,1.4993e-06,-2.4469e-06,-18.385,0.0090543
352,2.3514,0.66038,0,0.00013351,1334.2,4.6312e-05,-38.24,3.6634e-05,-110.95,-0.0001359,-1407.3,0.0069257
353,7.7184,1.4881,0,6.7997e-05,679.5,2.3747e-05,-2.0473,2.0007e-05,-30.146,-6.8501e-05,-695.16,0.083053
354,6.7963,1.2391,0,7.8918e-05,788.63,3.1244e-05,67.025,2.3243e-05,6.9032,-7.7488e-05,-749.95,0.064067
355,7.2761,0.99294,0.05,2.6307e-06,26.288,2.02e-06,15.178,-1.1802e-13,-9.9004e-07,-2.02e-06,-15.178,0.073581
356,7.4351,0.49647,0,6.5774e-05,657.29,2.2806e-05,11.519,2.0892e-05,-2.8592,-6.5615e-05,-652.84,0.076506
357,8.8358,1.9999,0,6.5646e-05,656.01,2.3674e-05,-0.30947,1.8156e-05,-41.772,-6.6263e-05,-676.06,0.10758
358,8.1686,2.9704,0,6.8644e-05,685.96,2.5204e-05,-6.8488,1.7562e-05,-64.272,-6.9673e-05,-719.72,0.092762
359,7.4237,2.1631,0,8.0811e-05,807.55,2.6664e-05,-32.777,2.3657e-05,-55.364,-8.2287e-05,-851.39,0.077092
360,8.1607,1.9833,0.05,1.1276e-06,11.268,8.6586e-07,6.5057,-9.488e-14,-8.9476e-07,-8.6586e-07,-6.5057,0.09263
361,8.4243,0.99166,0,6.94e-05,693.52,2.3187e-05,3.0105,2.2696e-05,-0.67157,-6.9359e-05,-692.34,0.098069
362,10.12,2.0057,0,5.6278e-05,562.4,2.0149e-05,1.7288,1.6012e-05,-29.354,-5.6684e-05,-575.56,0.13768
363,9.5139,2.9896,0,6.1024e-05,609.82,2.2295e-05,6.089,1.6968e-05,-33.94,-6.1399e-05,-622.76,0.12315
364,9.5108,2.0164,0.05,8.6727e-07,8.6667,6.6595e-07,5.0037,-4.5046e-14,8.3643e-07,-6.6595e-07,-5.0037,0.12314
365,9.6462,1.0082,0,5.9804e-05,597.63,2.1622e-05,6.5414,1.7086e-05,-27.538,-6.0088e-05,-607.39,0.12607
366,11.297,1.9328,0,4.6912e-05,468.8,1.5997e-05,-2.5496,1.4367e-05,-14.793,-4.7195e-05,-477.35,0.16687
367,10.733,2.9812,0,5.1007e-05,509.72,1.7689e-05,-3.098,1.508e-05,-22.701,-5.1417e-05,-522.33,0.15263
368,10.73,1.995,0.05,8.5225e-07,8.5166,6.5442e-07,4.9171,-1.3243e-15,2.8296e-07,-6.5442e-07,-4.9171,0.15262
369,10.802,0.99749,0,5.0542e-05,505.08,1.7158e-05,-3.9522,1.55e-05,-16.407,-5.0877e-05,-515.14,0.15422
370,12.406,1.8636,0,3.9374e-05,393.47,1.3185e-05,-0.7783,1.2598e-05,-5.1836,-3.9474e-05,-396.43,0.19561
371,11.876,2.9082,0,4.2738e-05,427.08,1.4486e-05,-0.59323,1.3399e-05,-8.7567,-4.2891e-05,-431.7,0.18167
372,11.864,1.8707,0.05,5.0775e-07,5.0739,3.8989e-07,2.9294,3.1901e-15,7.2638e-07,-3.8989e-07,-2.9294,0.18142
373,11.916,0.93534,0,4.2992e-05,429.62,1.4288e-05,-0.56908,1.3964e-05,-3.0048,-4.3052e-05,-431.4,0.18261
374,13.499,1.8671,0,3.2642e-05,326.2,1.0786e-05,-0.39307,1.0713e-05,-0.94092,-3.2665e-05,-326.87,0.22487
375,12.972,2.8912,0,3.5629e-05,356.04,1.1789e-05,-0.96779,1.1616e-05,-2.2648,-3.5684e-05,-357.66,0.21056
376,12.948,1.8566,0.05,5.3576e-07,5.3539,4.114e-07,3.0911,2.6902e-15,1.2096e-06,-4.114e-07,-3.0911,0.21002
377,13.006,0.92829,0,3.5799e-05,357.74,1.2075e-05,2.6269,1.1612e-05,-0.85518,-3.5767e-05,-356.84,0.21143
378,14.582,1.8546,0,2.6494e-05,264.75,8.9865e-06,2.2059,8.5321e-06,-1.2079,-2.6475e-05,-264.24,0.25464
379,14.068,2.8954,0,2.9231e-05,292.1,9.8066e-06,1.5744,9.5187e-06,-0.58843,-2.9213e-05,-291.61,0.24029
380,14.05,1.8777,0.05,4.9201e-07,4.9167,3.778e-07,2.8387,-8.0138e-23,1.2005e-06,-3.778e-07,-2.8387,0.23992
381,14.103,0.93883,0,2.9278e-05,292.57,1.017e-05,5.9326,9.3416e-06,-0.29301,-2.9177e-05,-289.71,0.24132
382,15.692,1.8948,0,2.0906e-05,208.91,7.3235e-06,4.3329,6.5737e-06,-1.3007,-2.0849e-05,-207.34,0.28577
383,15.145,2.87,0,2.3366e-05,233.5,8.0825e-06,3.5578,7.4051e-06,-1.5325,-2.3327e-05,-232.44,0.27021
384,15.115,1.8315,0.05,4.2447e-07,4.2418,3.2594e-07,2.449,3.4304e-15,1.5914e-06,-3.2594e-07,-2.449,0.26951
385,15.183,0.91577,0,2.34e-05,233.84,8.4298e-06,8.2934,7.2759e-06,-0.37628,-2.3254e-05,-229.76,0.27138
386,16.809,1.9405,0,1.5947e-05,159.36,5.822e-06,6.0749,4.8636e-06,-1.1258,-1.5851e-05,-156.77,0.31762
387,16.268,2.9354,0,1.8134e-05,181.22,6.4702e-06,5.2713,5.6396e-06,-0.96909,-1.8053e-05,-178.99,0.30198
388,16.269,1.9581,0.05,3.989e-07,3.9862,3.063e-07,2.3014,1.1369e-13,1.8477e-06,-3.063e-07,-2.3014,0.30216
389,16.307,0.97905,0,1.8056e-05,180.43,6.6602e-06,8.5871,5.5465e-06,0.21899,-1.7891e-05,-175.88,0.30327
390,17.916,1.9509,0,1.1694e-05,116.86,4.5001e-06,7.0141,3.3989e-06,-1.2602,-1.1574e-05,-113.76,0.34956
391,17.355,2.93,0,1.3561e-05,135.52,5.0468e-06,6.1347,4.0579e-06,-1.2955,-1.3463e-05,-132.94,0.33317
392,17.349,1.923,0.05,3.3211e-07,3.3188,2.5502e-07,1.9161,1.1385e-13,1.9787e-06,-2.5502e-07,-1.9161,0.33316
393,17.393,0.9615,0,1.352e-05,135.11,5.3031e-06,9.9269,3.9232e-06,-0.44106,-1.3329e-05,-130.07,0.33452
394,19.033,1.9805,0,8.1383e-06,81.327,3.3685e-06,7.6198,2.1986e-06,-1.1708,-7.9929e-06,-77.745,0.38207
395,18.476,2.9684,0,9.6595e-06,96.528,3.7928e-06,6.701,2.7586e-06,-1.0697,-9.5402e-06,-93.478,0.36565
396,18.482,1.9788,0.05,2.6401e-07,2.6383,2.0273e-07,1.5232,5.6649e-14,2.0005e-06,-2.0273e-07,-1.5232,0.36602
397,18.507,0.98939,0,9.6111e-06,96.045,3.9941e-06,10.008,2.6647e-06,0.019676,-9.4015e-06,-90.641,0.36685
398,20.139,1.9953,0,5.3312e-06,53.275,2.4419e-06,7.75,1.2675e-06,-1.0737,-5.1625e-06,-49.386,0.41446
399,19.575,2.9727,0,6.4709e-06,64.664,2.7668e-06,6.9555,1.6712e-06,-1.2769,-6.3349e-06,-61.431,0.39772
400,19.583,1.9821,0.05,2.1864e-07,2.1849,1.6789e-07,1.2615,1.4282e-13,2.1787e-06,-1.6789e-07,-1.2615,0.39816
401,19.604,0.99107,0,6.4315e-06,64.271,2.9719e-06,10.26,1.5696e-06,-0.27597,-6.1965e-06,-58.628,0.39893
402,21.221,1.9496,0,3.2626e-06,32.604,1.7547e-06,7.8155,5.6453e-07,-1.1273,-3.0555e-06,-28.327,0.44628
403,20.706,2.9979,0,4.0254e-06,40.226,1.9575e-06,7.3226,8.8201e-07,-0.75858,-3.8523e-06,-36.33,0.43093
404,20.695,2.0084,0.05,1.1681e-07,1.1673,8.9694e-08,0.67393,1.7142e-13,2.4733e-06,-8.9694e-08,-0.67392,0.4308
405,20.707,1.0042,0,3.9229e-06,39.202,2.1102e-06,9.983,7.4011e-07,-0.31152,-3.6556e-06,-33.339,0.43133
406,22.274,1.7132,0,1.7838e-06,17.825,1.2486e-06,7.8575,2.7928e-08,-1.3144,-1.4856e-06,-12.686,0.47736
407,21.827,2.9026,0,2.1985e-06,21.97,1.4055e-06,8.1556,1.9418e-07,-0.94599,-1.9295e-06,-16.902,0.46392
408,21.747,1.8908,0.05,1.6411e-07,1.6399,1.2601e-07,0.94681,1.2287e-13,2.2831e-06,-1.2601e-07,-0.94681,0.46177
409,21.78,0.94541,0,2.1942e-06,21.927,1.4719e-06,9.3958,1.7079e-07,-0.37991,-1.8707e-06,-15.719,0.46292
410,22.869,2.214,0,1.4717e-06,14.707,1.2849e-06,10.469,-2.554e-07,-1.1038,-9.1769e-07,-6.08,0.4948
411,22.802,1.5355,0.05,1.6626e-07,1.6614,1.2767e-07,0.95923,1.1453e-13,2.3336e-06,-1.2766e-07,-0.95922,0.49295
412,23.401,1.3678,0,1.0289e-06,10.282,8.586e-07,6.806,-1.0161e-07,-0.40858,-7.0833e-07,-4.9673,0.51065
413,22.854,0.76776,0,1.2686e-06,12.678,1.0924e-06,9.1325,-1.3349e-07,-0.077999,-8.3204e-07,-5.3266,0.49464
414,1.1934,3.038,0,0.00014989,1497.9,8.7281e-05,302.41,4.4048e-06,-320.29,-0.00014014,-1406.4,0.0020133
415,1.7451,3.6649,0,0.00013635,1362.5,6.9283e-05,115.39,9.5454e-06,-333.46,-0.00013439,-1414.9,0.0042635
416,1.1631,3.6366,0.05,7.945e-07,7.9395,6.1008e-07,4.5839,-9.8209e-14,-1.2011e-07,-6.1008e-07,-4.5839,0.0018918
417,0.58153,3.6183,0,0.00012509,1250,4.3558e-05,-358.91,2.0003e-06,-671.16,-0.00013965,-1735.5,0.00047653
418,1.7979,2.4899,0,0.00013665,1365.5,6.9774e-05,118.78,9.1566e-06,-336.67,-0.00013453,-1416.3,0.004536
419,1.2237,2.4395,0.05,2.0591e-06,20.577,1.5811e-06,11.88,-5.5249e-14,-2.5199e-15,-1.5811e-06,-11.88,0.002097
420,0.61186,2.4197,0,0.00012513,1250.5,4.3722e-05,-357.21,1.8798e-06,-671.59,-0.00013963,-1734.9,0.00052807
421,23.168,3.2499,0,1.4175e-06,14.165,1.3199e-06,12.008,-2.7061e-07,0.057144,-7.6263e-07,-3.6397,0.50338
422,22.422,3.4034,0,1.8887e-06,18.874,1.4931e-06,11.153,-9.9408e-08,-0.8125,-1.4027e-06,-10.605,0.48134
423,22.937,2.8925,0.05,1.806e-07,1.8047,1.3868e-07,1.042,2.512e-13,3.5973e-06,-1.3868e-07,-1.042,0.49665
424,23.469,2.6462,0,1.4241e-06,14.231,1.3009e-06,11.239,-3.1837e-07,-0.92805,-7.818e-07,-4.41,0.51238
425,23.183,4.1532,0,1.1254e-06,11.246,1.0304e-06,9.4468,-1.4071e-07,0.6474,-6.5595e-07,-3.2239,0.50358
426,23.399,3.6073,0.05,1.6263e-07,1.6252,1.2488e-07,0.93829,2.8843e-13,4.0688e-06,-1.2488e-07,-0.93829,0.51011
427,23.7,3.6037,0,1.2133e-06,12.125,1.1676e-06,10.846,-3.7287e-07,-0.72916,-5.1056e-07,-1.7637,0.51897
428,22.437,4.3067,0,1.6252e-06,16.24,1.1953e-06,8.53,4.0983e-08,-0.14341,-1.2982e-06,-10.206,0.48154
429,22.966,4.699,0.05,1.4151e-07,1.4141,1.0866e-07,0.81644,1.9536e-13,3.0676e-06,-1.0866e-07,-0.81644,0.49704
430,22.936,5.3495,0,1.2289e-06,12.28,1.0429e-06,8.5013,-1.2711e-07,-0.28969,-8.2455e-07,-5.5299,0.49598
431,23.483,4.7495,0,9.7491e-07,9.7424,8.4911e-07,7.0754,-1.3311e-07,-0.30458,-6.2062e-07,-3.9675,0.51228
432,21.313,3.9508,0,3.0483e-06,30.462,1.6989e-06,8.3431,5.1125e-07,-0.58043,-2.8165e-06,-25.584,0.44851
433,21.907,3.9143,0.05,1.0243e-07,1.0236,7.8656e-08,0.59099,2.0646e-13,2.9263e-06,-7.8656e-08,-0.59099,0.46603
434,21.86,4.9572,0,1.9547e-06,19.534,1.3665e-06,9.2013,1.1004e-07,-0.23953,-1.6228e-06,-13.259,0.46435
435,20.142,3.9753,0,5.3263e-06,53.226,2.4207e-06,7.5664,1.2852e-06,-0.965,-5.1624e-06,-49.41,0.4141
436,20.718,3.9874,0.05,1.081e-07,1.0802,8.3004e-08,0.62366,1.4309e-13,2.3922e-06,-8.3004e-08,-0.62366,0.43101
437,20.718,4.9937,0,3.8778e-06,38.751,2.0504e-06,9.5957,7.7723e-07,0.029396,-3.6244e-06,-33.043,0.43072
438,19.018,3.9606,0,8.1716e-06,81.659,3.3465e-06,7.2045,2.2303e-06,-1.1824,-8.0367e-06,-78.324,0.38119
439,19.567,3.9632,0.05,2.3406e-07,2.3389,1.7973e-07,1.3504,1.6978e-13,2.3007e-06,-1.7973e-07,-1.3504,0.39722
440,19.596,4.9816,0,6.4534e-06,64.49,2.963e-06,10.112,1.5934e-06,-0.17876,-6.2225e-06,-58.904,0.39775
441,17.916,3.9475,0,1.1705e-05,116.97,4.4947e-06,6.9883,3.4164e-06,-1.1135,-1.1584e-05,-113.82,0.34909
442,18.47,3.958,0.05,2.7747e-07,2.7728,2.1306e-07,1.6009,1.1376e-13,2.1069e-06,-2.1306e-07,-1.6009,0.36519
443,18.501,4.979,0,9.6607e-06,96.54,4.0304e-06,10.189,2.662e-06,-0.092689,-9.4478e-06,-91.081,0.36573
444,16.815,3.9248,0,1.5929e-05,159.18,5.8547e-06,6.5308,4.8327e-06,-1.1477,-1.5824e-05,-156.35,0.31732
445,17.362,3.937,0.05,3.4033e-07,3.401,2.6133e-07,1.9636,5.5488e-14,1.8479e-06,-2.6133e-07,-1.9636,0.33306
446,17.4,4.9685,0,1.3509e-05,134.99,5.3054e-06,10.106,3.9255e-06,-0.26229,-1.3311e-05,-129.77,0.33377
447,15.721,3.9105,0,2.0762e-05,207.48,7.3773e-06,5.6091,6.4698e-06,-1.21,-2.0679e-05,-205.19,0.28614
448,16.267,3.9126,0.05,3.8966e-07,3.8939,2.9921e-07,2.2482,1.1369e-13,1.6687e-06,-2.9921e-07,-2.2482,0.30167
449,16.306,4.9563,0,1.8078e-05,180.66,6.7644e-06,9.5671,5.4761e-06,-0.11308,-1.7898e-05,-175.74,0.30232
450,14.63,3.9107,0,2.6251e-05,262.33,9.0362e-06,3.9298,8.3894e-06,-0.92985,-2.6197e-05,-260.8,0.25552
451,15.174,3.9084,0.05,4.0964e-07,4.0936,3.1455e-07,2.3634,1.266e-16,1.5498e-06,-3.1455e-07,-2.3634,0.27073
452,15.212,4.9542,0,2.3251e-05,232.35,8.3663e-06,8.2607,7.2476e-06,-0.14504,-2.3101e-05,-228.17,0.27131
453,13.541,3.9194,0,3.2351e-05,323.29,1.0778e-05,0.76434,1.0573e-05,-0.78057,-3.2351e-05,-323.29,0.22556
454,14.085,3.913,0.05,4.5346e-07,4.5315,3.482e-07,2.6163,1.0003e-15,1.1997e-06,-3.482e-07,-2.6163,0.24045
455,14.121,4.9565,0,2.9107e-05,290.87,1.0114e-05,5.8809,9.28e-06,-0.38687,-2.9008e-05,-288.07,0.2409
456,12.442,3.9357,0,3.9099e-05,390.72,1.309e-05,-0.78459,1.2514e-05,-5.1118,-3.9197e-05,-393.65,0.19612
457,12.996,3.9258,0.05,5.2631e-07,5.2595,4.0414e-07,3.0366,-8.5725e-23,1.1831e-06,-4.0414e-07,-3.0366,0.21085
458,13.029,4.9629,0,3.5607e-05,355.82,1.19e-05,1.4196,1.1627e-05,-0.63243,-3.5593e-05,-355.43,0.21116
459,11.312,3.9565,0,4.6916e-05,468.84,1.6177e-05,-1.1472,1.419e-05,-16.07,-4.7191e-05,-477.27,0.16683
460,11.888,3.9457,0.05,5.5312e-07,5.5274,4.2473e-07,3.1913,-9.0092e-23,9.9013e-07,-4.2473e-07,-3.1913,0.18162
461,11.929,4.9729,0,4.2728e-05,426.99,1.4362e-05,-0.31543,1.3627e-05,-5.8396,-4.283e-05,-430.04,0.18203
462,10.127,3.9651,0,5.5822e-05,557.83,1.9835e-05,1.2651,1.6105e-05,-26.766,-5.6203e-05,-570.05,0.13738
463,10.737,3.9673,0.05,9.5545e-07,9.5479,7.3367e-07,5.5125,-2.2424e-13,7.9198e-07,-7.3367e-07,-5.5125,0.15233
464,10.806,4.9837,0,5.0428e-05,503.94,1.7305e-05,-2.3927,1.5288e-05,-17.554,-5.0751e-05,-513.74,0.15338
465,8.8468,3.9602,0,6.4147e-05,641.03,2.3783e-05,-0.77313,1.6534e-05,-55.237,-6.4926e-05,-667.3,0.10738
466,9.5171,3.9628,0.05,6.9169e-07,6.9122,5.3114e-07,3.9907,-1.95e-13,5.1325e-07,-5.3114e-07,-3.9907,0.12283
467,9.6493,4.9814,0,5.9596e-05,595.55,2.1357e-05,8.1271,1.7512e-05,-20.765,-5.9759e-05,-601.34,0.12521
468,7.7248,4.4586,0,7.5378e-05,753.26,2.7021e-05,16.72,2.2737e-05,-15.472,-7.5305e-05,-752.12,0.082476
469,8.1765,3.9575,0.05,1.6763e-06,16.751,1.2872e-06,9.6715,-3.0292e-14,4.2496e-07,-1.2872e-06,-9.6715,0.092497
470,8.4322,4.9787,0,6.7489e-05,674.43,2.2335e-05,-8.4327,2.1392e-05,-15.518,-6.7894e-05,-686.37,0.097308
471,7.2731,4.9597,0.05,6.731e-06,67.263,5.1686e-06,38.835,-3.4283e-13,2.8313e-06,-5.1686e-06,-38.835,0.072585
472,7.4336,5.4799,0,7.7208e-05,771.55,3.1443e-05,71.969,2.1768e-05,-0.72707,-7.5739e-05,-733.36,0.075269
473,2.3497,3.1168,0,0.00012388,1238,5.1754e-05,-68.402,1.4115e-05,-351.21,-0.00012857,-1423.3,0.00774
474,2.3272,3.6933,0.05,3.3556e-06,33.533,2.5767e-06,19.36,-2.5633e-13,-4.1066e-15,-2.5767e-06,-19.36,0.0075356
475,2.3722,2.5402,0.05,3.0627e-06,30.606,2.3518e-06,17.67,-4.1396e-14,-3.7481e-15,-2.3518e-06,-17.67,0.0078564
476,6.0054,5.039,0.05,2.3818e-06,23.802,1.829e-06,13.742,3.2092e-13,5.6039e-06,-1.829e-06,-13.742,0.047657
477,5.7061,5.0195,0,7.9882e-05,798.27,4.398e-05,224.5,1.5185e-05,8.1425,-7.3692e-05,-659.65,0.042131
478,4.6298,0.94467,0.05,2.7217e-06,27.198,2.0899e-06,15.703,-4.433e-22,-3.3308e-15,-2.0899e-06,-15.703,0.027226
479,4.9349,0.97233,0,8.8078e-05,880.17,5.2003e-05,256.9,9.9976e-06,-58.711,-8.0352e-05,-737.56,0.030725
480,3.7829,1.8676,0.05,7.2345e-06,72.295,5.5552e-06,41.74,-1.1783e-21,1.2575e-06,-5.5552e-06,-41.74,0.019294
481,4.5115,1.9338,0,0.00019382,1936.9,6.6715e-05,-107.12,4.9223e-05,-238.55,-0.00019936,-2106.3,0.027241
482,4.6766,4.9777,0.05,6.8145e-06,68.098,5.2327e-06,39.316,1.4966e-13,-8.3396e-15,-5.2327e-06,-39.316,0.027651
483,4.9583,4.9889,0,7.2755e-05,727.04,4.3484e-05,237.36,9.8653e-06,-15.247,-6.5605e-05,-582.3,0.030736
484,6.1622,1.2499,0,7.1063e-05,710.14,3.236e-05,121.74,1.9083e-05,21.983,-6.809e-05,-633.01,0.051794
485,6.0079,1.0145,0.05,8.4571e-07,8.4513,6.494e-07,4.8794,8.6744e-14,4.5479e-08,-6.494e-07,-4.8794,0.048627
486,5.7073,1.0073,0,7.3051e-05,730.01,4.1014e-05,180.21,9.4433e-06,-56.999,-6.8003e-05,-638.9,0.042999
487,6.5015,1.9141,0,9.1706e-05,916.43,3.5821e-05,48.77,2.511e-05,-31.712,-9.115e-05,-905.25,0.058674
488,6.3165,1.4853,0.05,1.1968e-05,119.6,9.1901e-06,69.051,-1.9494e-21,6.0972e-06,-9.1901e-06,-69.051,0.054879
489,5.8616,1.4927,0,0.00011599,1159.1,5.0228e-05,172,3.3379e-05,45.407,-0.00011177,-1045.2,0.046429
490,6.6866,2.3428,0.05,3.551e-06,35.486,2.7268e-06,20.488,-3.899e-13,7.1978e-06,-2.7268e-06,-20.488,0.062357
491,6.0466,2.1714,0,0.00019819,1980.5,6.0321e-05,-192.14,5.6397e-05,-221.62,-0.00020521,-2187.3,0.050325
492,5.0744,3.66,0,0.00021534,2152,9.1706e-05,154.4,4.8738e-05,-168.44,-0.00021376,-2140.7,0.034665
493,4.7512,3.3226,0,0.00018218,1820.6,7.3643e-05,154.21,5.0873e-05,-16.868,-0.00017924,-1745.9,0.030686
494,5.089,3.398,0.05,3.6819e-05,367.93,2.8272e-05,212.43,-5.997e-21,3.4711e-07,-2.8272e-05,-212.43,0.035135
495,5.2478,3.699,0,0.00025452,2543.4,0.00010391,146,6.246e-05,-165.47,-0.00025342,-2538.8,0.037055
496,5.0598,3.9219,0.05,6.2904e-06,62.861,4.8303e-06,36.293,1.4524e-12,4.8736e-05,-4.8303e-06,-36.293,0.034065
497,5.1499,3.961,0,0.00035589,3556.4,0.00016472,495.75,7.9111e-05,-147.52,-0.00034557,-3338.4,0.035219
498,4.4133,3.2473,0.05,6.4316e-06,64.272,4.9387e-06,37.107,4.0037e-14,-7.1655e-07,-4.9387e-06,-37.107,0.026522
499,4.7512,3.3226,0.1,0.00018218,1820.6,0.00017924,1745.9,-5.0873e-05,16.868,-7.3643e-05,-154.21,0.030686
500,3.9859,3.4911,0.1,0.00013233,1322.4,0.00013331,1354.6,-3.7314e-05,72.555,-4.7605e-05,-4.7719,0.021674
501,4.5683,2.9137,0.1,0.00014606,1459.6,0.00014299,1374.4,-4.4221e-05,-32.209,-5.7622e-05,-132.89,0.028466
502,5.0744,3.66,0.1,0.00021534,2152,0.00021376,2140.7,-4.8738e-05,168.44,-9.1706e-05,-154.4,0.034665
503,4.3091,3.8284,0.1,0.00016554,1654.2,0.00016884,1757.1,-4.3373e-05,162.56,-5.8492e-05,48.961,0.02504
504,4.8015,4.2376,0.1,0.00016391,1637.9,0.00016157,1622.6,-2.9761e-05,185.09,-7.5761e-05,-160.53,0.030333
505,5.1499,3.961,0.1,0.00035589,3556.4,0.00034557,3338.4,-7.9111e-05,147.52,-0.00016472,-495.75,0.035219
506,5.3291,3.1543,0.1,0.00020794,2078,0.00020075,1890.7,-5.6741e-05,-43.965,-9.1577e-05,-305.71,0.038756
507,5.2478,3.699,0.1,0.00025452,2543.4,0.00025342,2538.8,-6.246e-05,165.47,-0.00010391,-146,0.037055
508,6.5015,1.9141,0.1,9.1706e-05,916.43,9.115e-05,905.25,-2.511e-05,31.712,-3.5821e-05,-48.77,0.058674
509,7.4237,2.1631,0.1,8.0811e-05,807.55,8.2287e-05,851.39,-2.3657e-05,55.364,-2.6664e-05,32.777,0.077092
510,6.5776,2.8961,0.1,0.00010085,1007.8,0.00010347,1087.7,-2.612e-05,114.08,-3.4793e-05,48.909,0.060261
511,6.0466,2.1714,0.1,0.00019819,1980.5,0.00020521,2187.3,-5.6397e-05,221.62,-6.0321e-05,192.14,0.050325
512,6.1622,1.2499,0.1,7.1063e-05,710.14,6.809e-05,633.01,-1.9083e-05,-21.983,-3.236e-05,-121.74,0.051794
513,6.7963,1.2391,0.1,7.8918e-05,788.63,7.7488e-05,749.95,-2.3243e-05,-6.9032,-3.1244e-05,-67.025,0.064067
514,5.8616,1.4927,0.1,0.00011599,1159.1,0.00011177,1045.2,-3.3379e-05,-45.407,-5.0228e-05,-172,0.046429
515,6.1163,0.81161,0.1,6.002e-05,599.79,5.6553e-05,515.08,-1.4207e-05,-16.588,-2.9984e-05,-135.13,0.050484
516,5.7073,1.0073,0.1,7.3051e-05,730.01,6.8003e-05,638.9,-9.4433e-06,56.999,-4.1014e-05,-180.21,0.042999
517,4.5318,5.169,0.1,7.8918e-05,788.63,7.0501e-05,601.02,-1.3593e-05,-30.831,-4.713e-05,-282.81,0.025779
518,4.6099,4.7655,0.1,8.6699e-05,866.39,7.9764e-05,713.13,-1.5878e-05,-5.4822,-4.828e-05,-248.94,0.0273
519,4.9583,4.9889,0.1,7.2755e-05,727.04,6.5605e-05,582.3,-9.8653e-06,15.247,-4.3484e-05,-237.36,0.030736
520,3.1949,1.5942,0.1,0.00012142,1213.4,0.00012489,1330.5,-2.4941e-05,204.78,-4.6168e-05,45.286,0.013761
521,3.6417,2.2588,0.1,0.00012423,1241.5,0.00012697,1343.7,-2.3914e-05,210.09,-4.9606e-05,17.047,0.018111
522,4.0808,1.585,0.1,0.00012218,1221,0.0001221,1231.9,-2.9515e-05,92.723,-4.9459e-05,-57.132,0.02212
523,4.5115,1.9338,0.1,0.00019382,1936.9,0.00019936,2106.3,-4.9223e-05,238.55,-6.6715e-05,107.12,0.027241
524,4.5042,1.1235,0.1,9.6155e-05,960.89,9.1944e-05,853.31,-2.5125e-05,-26.299,-4.4539e-05,-172.17,0.026139
525,4.5107,0.73566,0.1,8.3126e-05,830.69,7.8122e-05,708.49,-1.956e-05,-25.458,-4.19e-05,-193.31,0.025586
526,4.9349,0.97233,0.1,8.8078e-05,880.17,8.0352e-05,737.56,-9.9976e-06,58.711,-5.2003e-05,-256.9,0.030725
527,6.1103,5.2565,0.1,5.9519e-05,594.78,5.6724e-05,523.57,-1.5408e-05,-18.401,-2.7965e-05,-112.75,0.049305
528,6.2633,4.717,0.1,7.2178e-05,721.28,6.9594e-05,652.87,-2.0139e-05,-21.343,-3.1633e-05,-107.7,0.053008
529,5.7061,5.0195,0.1,7.9882e-05,798.27,7.3692e-05,659.65,-1.5185e-05,-8.1425,-4.398e-05,-224.5,0.042131
530,2.3497,3.1168,0.1,0.00012388,1238,0.00012857,1423.3,-1.4115e-05,351.21,-5.1754e-05,68.402,0.00774
531,1.7979,2.4899,0.1,0.00013665,1365.5,0.00013453,1416.3,-9.1566e-06,336.67,-6.9774e-05,-118.78,0.004536
532,2.4895,1.9305,0.1,0.00012365,1235.7,0.0001279,1388.4,-2.0223e-05,275.43,-4.9075e-05,58.64,0.0085182
533,2.9364,2.5951,0.1,0.00012716,1270.7,0.00013051,1405.6,-1.9432e-05,278.96,-5.2808e-05,28.179,0.011971
534,1.7451,3.6649,0.1,0.00013635,1362.5,0.00013439,1414.9,-9.5454e-06,333.46,-6.9283e-05,-115.39,0.0042635
535,2.2888,4.2635,0.1,0.00012551,1254.2,0.00012955,1402.2,-2.0494e-05,274.85,-5.0254e-05,51.24,0.0071531
536,2.9428,3.7141,0.1,0.00012146,1213.7,0.0001249,1355.8,-1.6502e-05,293.4,-5.1157e-05,33.02,0.011955
537,7.7248,4.4586,0.1,7.5378e-05,753.26,7.5305e-05,752.12,-2.2737e-05,15.472,-2.7021e-05,-16.72,0.082476
538,6.7442,5.2169,0.1,6.8661e-05,686.13,6.7342e-05,650.18,-2.0358e-05,-8.7633,-2.721e-05,-60.241,0.06164
539,6.8972,4.6773,0.1,8.2565e-05,825.08,8.124e-05,787.21,-2.6169e-05,-19.817,-3.0827e-05,-54.813,0.06533
540,7.4336,5.4799,0.1,7.7208e-05,771.55,7.5739e-05,733.36,-2.1768e-05,0.72707,-3.1443e-05,-71.969,0.075269
541,8.8468,3.9602,0.1,6.4147e-05,641.03,6.4926e-05,667.3,-1.6534e-05,55.237,-2.3783e-05,0.77313,0.10738
542,8.1686,2.9704,0.1,6.8644e-05,685.96,6.9673e-05,719.72,-1.7562e-05,64.272,-2.5204e-05,6.8488,0.092762
543,7.3225,3.7034,0.1,8.9129e-05,890.67,9.1114e-05,958.03,-1.983e-05,124.44,-3.3789e-05,19.562,0.074667
544,8.4322,4.9787,0.1,6.7489e-05,674.43,6.7894e-05,686.37,-2.1392e-05,15.518,-2.2335e-05,8.4327,0.097308
545,10.127,3.9651,0.1,5.5822e-05,557.83,5.6203e-05,570.05,-1.6105e-05,26.766,-1.9835e-05,-1.2651,0.13738
546,9.5139,2.9896,0.1,6.1024e-05,609.82,6.1399e-05,622.76,-1.6968e-05,33.94,-2.2295e-05,-6.089,0.12315
547,9.6493,4.9814,0.1,5.9596e-05,595.55,5.9759e-05,601.34,-1.7512e-05,20.765,-2.1357e-05,-8.1271,0.12521
548,11.312,3.9565,0.1,4.6916e-05,468.84,4.7191e-05,477.27,-1.419e-05,16.07,-1.6177e-05,1.1472,0.16683
549,10.733,2.9812,0.1,5.1007e-05,509.72,5.1417e-05,522.33,-1.508e-05,22.701,-1.7689e-05,3.098,0.15263
550,10.806,4.9837,0.1,5.0428e-05,503.94,5.0751e-05,513.74,-1.5288e-05,17.554,-1.7305e-05,2.3927,0.15338
551,12.442,3.9357,0.1,3.9099e-05,390.72,3.9197e-05,393.65,-1.2514e-05,5.1118,-1.309e-05,0.78459,0.19612
552,11.876,2.9082,0.1,4.2738e-05,427.08,4.2891e-05,431.7,-1.3399e-05,8.7567,-1.4486e-05,0.59323,0.18167
553,11.929,4.9729,0.1,4.2728e-05,426.99,4.283e-05,430.04,-1.3627e-05,5.8396,-1.4362e-05,0.31543,0.18203
554,13.541,3.9194,0.1,3.2351e-05,323.29,3.2351e-05,323.29,-1.0573e-05,0.78057,-1.0778e-05,-0.76434,0.22556
555,12.972,2.8912,0.1,3.5629e-05,356.04,3.5684e-05,357.66,-1.1616e-05,2.2648,-1.1789e-05,0.96779,0.21056
556,13.029,4.9629,0.1,3.5607e-05,355.82,3.5593e-05,355.43,-1.1627e-05,0.63243,-1.19e-05,-1.4196,0.21116
557,14.63,3.9107,0.1,2.6251e-05,262.33,2.6197e-05,260.8,-8.3894e-06,0.92985,-9.0362e-06,-3.9298,0.25552
558,14.068,2.8954,0.1,2.9231e-05,292.1,2.9213e-05,291.61,-9.5187e-06,0.58843,-9.8066e-06,-1.5744,0.24029
559,14.121,4.9565,0.1,2.9107e-05,290.87,2.9008e-05,288.07,-9.28e-06,0.38687,-1.0114e-05,-5.8809,0.2409
560,15.721,3.9105,0.1,2.0762e-05,207.48,2.0679e-05,205.19,-6.4698e-06,1.21,-7.3773e-06,-5.6091,0.28614
561,15.145,2.87,0.1,2.3366e-05,233.5,2.3327e-05,232.44,-7.4051e-06,1.5325,-8.0825e-06,-3.5578,0.27021
562,15.212,4.9542,0.1,2.3251e-05,232.35,2.3101e-05,228.17,-7.2476e-06,0.14504,-8.3663e-06,-8.2607,0.27131
563,16.815,3.9248,0.1,1.5929e-05,159.18,1.5824e-05,156.35,-4.8327e-06,1.1477,-5.8547e-06,-6.5308,0.31732
564,16.268,2.9354,0.1,1.8134e-05,181.22,1.8053e-05,178.99,-5.6396e-06,0.96909,-6.4702e-06,-5.2713,0.30198
565,16.306,4.9563,0.1,1.8078e-05,180.66,1.7898e-05,175.74,-5.4761e-06,0.11308,-6.7644e-06,-9.5671,0.30232
566,17.916,3.9475,0.1,1.1705e-05,116.97,1.1584e-05,113.82,-3.4164e-06,1.1135,-4.4947e-06,-6.9883,0.34909
567,17.355,2.93,0.1,1.3561e-05,135.52,1.3463e-05,132.94,-4.0579e-06,1.2955,-5.0468e-06,-6.1347,0.33317
568,17.4,4.9685,0.1,1.3509e-05,134.99,1.3311e-05,129.77,-3.9255e-06,0.26229,-5.3054e-06,-10.106,0.33377
569,19.018,3.9606,0.1,8.1716e-06,81.659,8.0367e-06,78.324,-2.2303e-06,1.1824,-3.3465e-06,-7.2045,0.38119
570,18.476,2.9684,0.1,9.6595e-06,96.528,9.5402e-06,93.478,-2.7586e-06,1.0697,-3.7928e-06,-6.701,0.36565
571,18.501,4.979,0.1,9.6607e-06,96.54,9.4478e-06,91.081,-2.662e-06,0.092688,-4.0304e-06,-10.189,0.36573
572,20.142,3.9753,0.1,5.3263e-06,53.226,5.1624e-06,49.41,-1.2852e-06,0.965,-2.4207e-06,-7.5664,0.4141
573,19.575,2.9727,0.1,6.4709e-06,64.664,6.3349e-06,61.431,-1.6712e-06,1.2769,-2.7668e-06,-6.9554,0.39772
574,19.596,4.9816,0.1,6.4534e-06,64.49,6.2225e-06,58.904,-1.5934e-06,0.17876,-2.963e-06,-10.112,0.39775
575,21.313,3.9508,0.1,3.0483e-06,30.462,2.8165e-06,25.584,-5.1125e-07,0.58043,-1.6989e-06,-8.3431,0.44851
576,20.706,2.9979,0.1,4.0254e-06,40.226,3.8523e-06,36.33,-8.8201e-07,0.75858,-1.9575e-06,-7.3226,0.43093
577,20.718,4.9937,0.1,3.8778e-06,38.751,3.6244e-06,33.043,-7.7723e-07,-0.029396,-2.0504e-06,-9.5957,0.43072
578,22.437,4.3067,0.1,1.6252e-06,16.24,1.2982e-06,10.206,-4.0983e-08,0.14341,-1.1953e-06,-8.53,0.48154
579,22.422,3.4034,0.1,1.8887e-06,18.874,1.4027e-06,10.605,9.9407e-08,0.8125,-1.4931e-06,-11.153,0.48134
580,21.827,2.9026,0.1,2.1985e-06,21.97,1.9295e-06,16.902,-1.9418e-07,0.94599,-1.4055e-06,-8.1556,0.46392
581,21.86,4.9572,0.1,1.9547e-06,19.534,1.6228e-06,13.259,-1.1004e-07,0.23953,-1.3665e-06,-9.2013,0.46435
582,23.183,4.1532,0.1,1.1254e-06,11.246,6.5595e-07,3.2239,1.4071e-07,-0.6474,-1.0304e-06,-9.4468,0.50358
583,22.936,5.3495,0.1,1.2289e-06,12.28,8.2455e-07,5.5299,1.2711e-07,0.28969,-1.0429e-06,-8.5013,0.49598
584,23.483,4.7495,0.1,9.7491e-07,9.7424,6.2062e-07,3.9675,1.3311e-07,0.30458,-8.4911e-07,-7.0754,0.51228
585,23.168,3.2499,0.1,1.4175e-06,14.165,7.6263e-07,3.6397,2.7061e-07,-0.057143,-1.3199e-06,-12.008,0.50338
586,23.7,3.6037,0.1,1.2133e-06,12.125,5.1056e-07,1.7637,3.7287e-07,0.72916,-1.1676e-06,-10.846,0.51897
587,22.869,2.214,0.1,1.4717e-06,14.707,9.1769e-07,6.08,2.554e-07,1.1038,-1.2849e-06,-10.469,0.4948
588,23.469,2.6462,0.1,1.4241e-06,14.231,7.818e-07,4.41,3.1837e-07,0.92805,-1.3009e-06,-11.239,0.51238
589,1.1934,3.038,0.1,0.00014989,1497.9,0.00014014,1406.4,-4.4048e-06,320.29,-8.7281e-05,-302.41,0.0020133
590,1.2241,1.8514,0.1,0.00014577,1456.6,0.00013741,1374.1,-7.8226e-06,282.87,-8.2738e-05,-280.02,0.0020628
591,0.61186,2.4197,0.1,0.00012513,1250.5,0.00013963,1734.9,-1.8798e-06,671.59,-4.3722e-05,357.21,0.00052807
592,1.1378,4.2216,0.1,0.00014582,1457.2,0.00013762,1376.1,-8.2342e-06,280.24,-8.2474e-05,-277.57,0.0017741
593,0.58153,3.6183,0.1,0.00012509,1250,0.00013965,1735.5,-2.0003e-06,671.16,-4.3558e-05,358.91,0.00047653
594,22.274,1.7132,0.1,1.7838e-06,17.825,1.4856e-06,12.686,-2.7929e-08,1.3144,-1.2486e-06,-7.8575,0.47736
595,23.401,1.3678,0.1,1.0289e-06,10.282,7.0833e-07,4.9673,1.0161e-07,0.40858,-8.586e-07,-6.806,0.51065
596,22.854,0.76776,0.1,1.2686e-06,12.678,8.3204e-07,5.3267,1.3348e-07,0.077999,-1.0924e-06,-9.1325,0.49464
597,21.221,1.9496,0.1,3.2626e-06,32.604,3.0555e-06,28.327,-5.6453e-07,1.1273,-1.7547e-06,-7.8155,0.44628
598,21.78,0.94541,0.1,2.1942e-06,21.927,1.8707e-06,15.719,-1.7079e-07,0.37991,-1.4719e-06,-9.3958,0.46292
599,20.139,1.9953,0.1,5.3312e-06,53.275,5.1625e-06,49.386,-1.2675e-06,1.0737,-2.4419e-06,-7.75,0.41446
600,20.707,1.0042,0.1,3.9229e-06,39.202,3.6556e-06,33.339,-7.4011e-07,0.31152,-2.1102e-06,-9.983,0.43133
601,19.033,1.9805,0.1,8.1383e-06,81.327,7.9929e-06,77.745,-2.1986e-06,1.1708,-3.3685e-06,-7.6198,0.38207
602,19.604,0.99107,0.1,6.4315e-06,64.271,6.1965e-06,58.628,-1.5696e-06,0.27597,-2.9718e-06,-10.26,0.39893
603,17.916,1.9509,0.1,1.1694e-05,116.86,1.1574e-05,113.76,-3.3989e-06,1.2602,-4.5001e-06,-7.0141,0.34956
604,18.507,0.98939,0.1,9.6111e-06,96.045,9.4015e-06,90.641,-2.6647e-06,-0.019676,-3.9941e-06,-10.008,0.36685
605,16.809,1.9405,0.1,1.5947e-05,159.36,1.5851e-05,156.77,-4.8637e-06,1.1258,-5.822e-06,-6.0749,0.31762
606,17.393,0.9615,0.1,1.352e-05,135.11,1.3329e-05,130.07,-3.9232e-06,0.44106,-5.3031e-06,-9.9269,0.33452
607,15.692,1.8948,0.1,2.0906e-05,208.91,2.0849e-05,207.34,-6.5737e-06,1.3007,-7.3235e-06,-4.3329,0.28577
608,16.307,0.97905,0.1,1.8056e-05,180.43,1.7891e-05,175.88,-5.5465e-06,-0.21899,-6.6602e-06,-8.5871,0.30327
609,14.582,1.8546,0.1,2.6494e-05,264.75,2.6475e-05,264.24,-8.5321e-06,1.2079,-8.9865e-06,-2.2059,0.25464
610,15.183,0.91577,0.1,2.34e-05,233.84,2.3254e-05,229.76,-7.2759e-06,0.37628,-8.4298e-06,-8.2934,0.27138
611,13.499,1.8671,0.1,3.2642e-05,326.2,3.2665e-05,326.87,-1.0713e-05,0.94093,-1.0786e-05,0.39308,0.22487
612,14.103,0.93883,0.1,2.9278e-05,292.57,2.9177e-05,289.71,-9.3416e-06,0.29301,-1.017e-05,-5.9326,0.24132
613,12.406,1.8636,0.1,3.9374e-05,393.47,3.9474e-05,396.43,-1.2598e-05,5.1836,-1.3185e-05,0.7783,0.19561
614,13.006,0.92829,0.1,3.5799e-05,357.74,3.5767e-05,356.84,-1.1612e-05,0.85518,-1.2075e-05,-2.6269,0.21143
615,11.297,1.9328,0.1,4.6912e-05,468.8,4.7195e-05,477.35,-1.4367e-05,14.793,-1.5997e-05,2.5496,0.16687
616,11.916,0.93534,0.1,4.2992e-05,429.62,4.3052e-05,431.4,-1.3964e-05,3.0048,-1.4288e-05,0.56908,0.18261
617,10.12,2.0057,0.1,5.6278e-05,562.4,5.6684e-05,575.56,-1.6012e-05,29.354,-2.0149e-05,-1.7288,0.13768
618,10.802,0.99749,0.1,5.0542e-05,505.08,5.0877e-05,515.14,-1.55e-05,16.407,-1.7158e-05,3.9522,0.15422
619,8.8358,1.9999,0.1,6.5646e-05,656.01,6.6263e-05,676.06,-1.8156e-05,41.772,-2.3674e-05,0.30947,0.10758
620,9.6462,1.0082,0.1,5.9804e-05,597.63,6.0088e-05,607.39,-1.7086e-05,27.538,-2.1622e-05,-6.5414,0.12607
621,7.7184,1.4881,0.1,6.7997e-05,679.5,6.8501e-05,695.16,-2.0007e-05,30.146,-2.3747e-05,2.0473,0.083053
622,8.4243,0.99166,0.1,6.94e-05,693.52,6.9359e-05,692.34,-2.2696e-05,0.67157,-2.3187e-05,-3.0105,0.098069
623,6.7504,0.80081,0.1,6.41e-05,640.56,6.3006e-05,609.89,-1.9743e-05,-11.85,-2.4547e-05,-47.951,0.062826
624,7.4351,0.49647,0.1,6.5774e-05,657.29,6.5615e-05,652.84,-2.0892e-05,2.8592,-2.2806e-05,-11.519,0.076506
625,1.9157,1.292,0.1,0.00013214,1320.4,0.00013116,1349.1,-1.9338e-05,218.25,-6.1973e-05,-102.1,0.0048666
626,3.0408,1.0497,0.1,0.00011203,1119.5,0.00011425,1192.5,-2.7024e-05,131,-4.1423e-05,22.817,0.012111
627,2.3514,0.66038,0.1,0.00013351,1334.2,0.0001359,1407.3,-3.6634e-05,110.95,-4.6312e-05,38.24,0.0069257
628,0.61224,1.2316,0.1,0.00011949,1194.1,0.00013409,1663.2,-5.1432e-06,617,-3.9046e-05,362.27,0.0004991
629,1.1362,0.63164,0.1,0.00013988,1397.8,0.00013499,1325.5,-2.1713e-05,148.07,-7.0607e-05,-219.31,0.0015464
630,1.6814,4.8202,0.1,0.00013451,1344.2,0.00013328,1367.2,-1.9695e-05,217.78,-6.343e-05,-110.83,0.0036954
631,0.55622,4.8033,0.1,0.00011892,1188.4,0.00013331,1650.5,-5.3645e-06,608.6,-3.8961e-05,356.17,0.00040879
632,1.0802,5.4033,0.1,0.00014015,1400.6,0.00013533,1334.3,-2.0717e-05,161.85,-7.1078e-05,-216.54,0.0013664
633,2.8378,4.8456,0.1,0.0001161,1160.2,0.00011758,1210,-2.9709e-05,103.37,-4.3084e-05,2.8767,0.010589
634,2.1732,5.4169,0.1,0.0001346,1345.1,0.00013712,1428.8,-3.2377e-05,155.24,-5.0101e-05,22.071,0.0057859
635,3.9061,5.1088,0.1,9.5237e-05,951.71,9.2987e-05,891.57,-2.7377e-05,-12.795,-3.9157e-05,-101.3,0.019538
636,3.4918,4.2962,0.1,0.00011146,1113.8,0.00011262,1161.3,-2.5189e-05,125.9,-4.4212e-05,-17.032,0.016419
637,3.9842,4.7054,0.1,0.00010413,1040.6,0.00010211,1002.6,-2.3313e-05,60.253,-4.6515e-05,-114.08,0.020796
638,3.2846,5.4287,0.1,0.00011072,1106.4,0.00010975,1078.2,-3.6306e-05,-19.19,-3.867e-05,-36.949,0.01353
639,3.5295,3.1924,0.1,0.00012438,1242.9,0.00012645,1335.2,-2.1494e-05,223.6,-5.2153e-05,-6.7614,0.01715
640,4.1119,2.615,0.1,0.00013842,1383.3,0.00013787,1368.1,-4.3024e-05,8.9684,-4.9288e-05,-38.102,0.023089
641,3.9266,1.0404,0.1,0.0001127,1126.2,0.00011126,1092.3,-3.0439e-05,27.653,-4.5667e-05,-86.762,0.019983
642,3.9331,0.65261,0.1,9.4794e-05,947.29,9.3883e-05,920.79,-3.0883e-05,-16.655,-3.3464e-05,-36.047,0.019545
643,3.3093,0.38929,0.1,0.00010852,1084.4,0.00010871,1090.6,-3.3757e-05,20.139,-3.7411e-05,-7.3141,0.013558
644,4.8135,5.4301,0.1,5.4669e-05,546.31,5.4616e-05,550.79,-1.3209e-05,41.179,-2.2151e-05,-26.012,0.028256
645,4.2895,5.6801,0.1,7.6246e-05,761.94,7.5144e-05,744.56,-1.6914e-05,52.865,-3.3554e-05,-72.163,0.022368
646,4.8093,1.4012,0.1,0.00013488,1347.8,0.00012417,1103.7,-2.6484e-05,-28.207,-7.4269e-05,-387.25,0.030068
647,6.4949,3.9222,0.1,9.5588e-05,955.23,9.6565e-05,989.49,-2.4505e-05,79.818,-3.5868e-05,-5.5648,0.058234
648,6.0188,3.18,0.1,0.00015405,1539.5,0.00015105,1454.4,-4.804e-05,-41.425,-5.9193e-05,-125.22,0.049939
649,5.9376,3.7247,0.1,0.00020921,2090.6,0.00021092,2156.7,-5.2157e-05,180.04,-8.0341e-05,-31.718,0.048177
650,5.8109,5.487,0.1,4.1074e-05,410.46,4.2564e-05,454.41,-1.1424e-05,48.762,-1.2683e-05,39.307,0.043229
651,6.3578,5.737,0.1,5.3202e-05,531.65,5.3132e-05,531.01,-1.5393e-05,16.145,-1.9666e-05,-15.966,0.053258
652,4.8916,4.5266,0.1,0.00011033,1102.5,0.00010366,995.48,-1.2812e-05,120.35,-6.1145e-05,-242.81,0.030899
653,5.8157,0.55434,0.1,4.2046e-05,420.17,4.2886e-05,444.96,-1.2527e-05,28.606,-1.353e-05,21.068,0.044437
654,6.3626,0.30434,0.1,5.5982e-05,559.43,5.5313e-05,541.95,-1.627e-05,4.1028,-2.1717e-05,-36.819,0.054678
655,4.8158,0.51332,0.1,6.2081e-05,620.38,6.3121e-05,651.22,-1.8441e-05,38.395,-2.0416e-05,23.552,0.028469
656,4.2918,0.26332,0.1,8.2321e-05,822.64,8.156e-05,805.59,-2.2422e-05,24.303,-3.2704e-05,-52.955,0.022478
657,5.964,4.4475,0.1,0.00010736,1072.8,0.00010489,1010.2,-2.925e-05,2.2763,-4.5195e-05,-117.53,0.047808
658,5.1462,2.7453,0.1,0.00017328,1731.6,0.00016582,1529.2,-5.015e-05,-93.499,-7.6816e-05,-293.86,0.036118
659,4.9816,2.2901,0.1,0.00020799,2078.5,0.00020847,2117.2,-4.8876e-05,183.62,-8.4061e-05,-80.744,0.033526
660,5.4879,2.4553,0.1,0.00024826,2480.9,0.00024982,2531.6,-7.15e-05,117.34,-8.8563e-05,-10.867,0.041061
661,5.4067,4.25,0,0.00021965,2195,9.1054e-05,154.1,5.4073e-05,-123.76,-0.00021781,-2166.6,0.038364
662,5.3233,4,0,0.00036063,3603.8,0.00015836,347.82,8.1311e-05,-231.11,-0.00035514,-3510.4,0.037629
663,5.4067,4,0.05,5.0275e-05,502.4,3.8605e-05,290.06,6.0318e-13,1.599e-05,-3.8605e-05,-290.06,0.038925
664,5.4067,4.75,0,0.00012308,1229.9,6.2311e-05,270.15,2.6768e-05,3.0911,-0.00011623,-1071.4,0.037235
665,5.4067,4.5,0.05,8.6939e-06,86.879,6.6758e-06,50.159,7.8548e-14,2.6356e-07,-6.6758e-06,-50.159,0.037771
666,5.4067,5.25,0,6.8379e-05,683.31,3.4048e-05,112.64,1.216e-05,-51.817,-6.5842e-05,-637.89,0.036115
667,5.4067,5,0.05,2.4804e-05,247.87,1.9046e-05,143.11,-7.1414e-17,-3.0355e-14,-1.9046e-05,-143.11,0.036638
668,5.4067,5.75,0,2.9929e-05,299.08,1.038e-05,-63.675,2.8469e-06,-120.28,-3.2654e-05,-387.02,0.035099
669,5.4067,5.5,0.05,5.7982e-06,57.942,4.4523e-06,33.453,-9.444e-22,3.1376e-06,-4.4523e-06,-33.453,0.035587
670,5.24,4.25,0,0.00029367,2934.7,0.00014859,566.6,5.599e-05,-129.14,-0.00027997,-2653.4,0.035745
671,5.24,4,0.05,8.7435e-05,873.74,6.7139e-05,504.46,-1.4241e-20,4.6231e-05,-6.7139e-05,-504.46,0.036389
672,5.24,5.25,0,4.7293e-05,472.6,1.8093e-05,-22.55,9.023e-06,-90.696,-4.8849e-05,-525.52,0.033249
673,5.24,5.75,0,3.3493e-05,334.7,1.6912e-05,-30.93,-4.3006e-06,-190.31,-3.4276e-05,-415.54,0.03211
674,5.24,5.5,0.05,2.4565e-06,24.548,1.8862e-06,14.173,-2.178e-13,-3.0062e-15,-1.8862e-06,-14.173,0.032667
675,5.24,4.75,0,0.00010742,1073.4,6.6994e-05,311.2,3.295e-06,-167.41,-9.664e-05,-918.28,0.034452
676,5.24,5,0.05,1.3415e-05,134.06,1.0301e-05,77.397,-2.185e-21,-7.7146e-14,-1.0301e-05,-77.397,0.033835
677,5.24,4.5,0.05,2.6323e-05,263.05,2.0213e-05,151.87,-4.2875e-21,-3.2214e-14,-2.0213e-05,-151.87,0.035075
678,5.4067,1.75,0,0.00022317,2230.2,7.7293e-05,-49.63,6.2784e-05,-158.64,-0.00022652,-2332.3,0.038769
679,5.3233,2,0,0.00025702,2568.4,7.503e-05,-358.36,6.8533e-05,-407.18,-0.00027001,-2950.8,0.037908
680,5.4067,2,0.05,6.2641e-06,62.598,4.8101e-06,36.141,-1.0203e-21,4.7669e-06,-4.8101e-06,-36.141,0.039196
681,5.4067,1.25,0,0.00013136,1312.7,6.9941e-05,313.57,2.4112e-05,-30.773,-0.00012312,-1137,0.037845
682,5.4067,1.5,0.05,1.0606e-05,105.99,8.1443e-06,61.193,-3.417e-13,-5.0087e-15,-8.1443e-06,-61.193,0.03827
683,5.4067,0.75,0,5.8885e-05,588.45,2.8218e-05,51.496,7.9969e-06,-100.44,-5.8227e-05,-598.02,0.036987
684,5.4067,1,0.05,2.409e-05,240.74,1.8498e-05,138.99,-3.9238e-21,1.8766e-06,-1.8498e-05,-138.99,0.037382
685,5.4067,0.25,0,2.7272e-05,272.53,1.2059e-05,-45.179,-1.6164e-06,-147.93,-2.9062e-05,-354.15,0.036231
686,5.4067,0.5,0.05,3.4838e-06,34.814,2.6751e-06,20.1,2.1981e-14,-4.2635e-15,-2.6751e-06,-20.1,0.036588
687,5.24,1.75,0,0.00020989,2097.4,0.00010675,337.37,3.1766e-05,-226.01,-0.00020224,-1984.2,0.036185
688,5.24,2,0.05,1.562e-05,156.09,1.1994e-05,90.119,1.1403e-12,-1.8417e-05,-1.1994e-05,-90.119,0.036659
689,5.24,0.75,0,6.911e-05,690.63,3.3799e-05,64.682,8.3952e-06,-126.19,-6.8148e-05,-701.31,0.033684
690,5.24,0.25,0,3.9179e-05,391.52,1.7257e-05,-64.842,-2.1573e-06,-210.72,-4.1772e-05,-508.36,0.032544
691,5.24,0.5,0.05,5.6206e-06,56.167,4.3159e-06,32.428,-9.1547e-22,-6.8785e-15,-4.3159e-06,-32.428,0.033099
692,5.24,1.25,0,0.00014546,1453.6,9.6502e-05,582.95,9.2307e-06,-72.776,-0.00012522,-1083,0.034925
693,5.24,1,0.05,2.8967e-05,289.47,2.2243e-05,167.12,-4.7181e-21,-3.545e-14,-2.2243e-05,-167.12,0.034279
694,5.24,1.5,0.05,2.3634e-05,236.18,1.8148e-05,136.36,-3.8495e-21,-2.8924e-14,-1.8148e-05,-136.36,0.035539
695,5.9535,6,0,4.231e-05,422.81,1.6973e-05,-11.341,7.4418e-06,-82.953,-4.3457e-05,-465.39,0.044988
696,5.4067,6,0.05,2.7968e-06,27.949,2.1476e-06,16.136,-4.5554e-22,2.0138e-06,-2.1476e-06,-16.136,0.034581
697,7.0473,6,0,6.1741e-05,616.98,2.2278e-05,15.505,1.8538e-05,-12.592,-6.1643e-05,-615.04,0.066499
698,6.5004,6,0.05,8.0332e-06,80.277,6.1685e-06,46.348,8.839e-14,1.8595e-06,-6.1685e-06,-46.348,0.055578
699,8.141,6,0,6.9657e-05,696.09,2.927e-05,65.699,1.8054e-05,-18.576,-6.8471e-05,-668.69,0.089617
700,7.5941,6,0.05,3.0671e-06,30.65,2.3552e-06,17.696,-4.9957e-22,1.797e-06,-2.3552e-06,-17.696,0.077852
701,9.2347,6,0,6.3246e-05,632.02,2.252e-05,20.088,1.9905e-05,0.43945,-6.2873e-05,-621.53,0.11433
702,8.6878,6,0.05,2.2999e-06,22.983,1.7661e-06,13.269,4.7093e-13,1.6709e-06,-1.7661e-06,-13.269,0.10178
703,10.328,6,0,5.4312e-05,542.75,1.8833e-05,4.5133,1.6786e-05,-10.867,-5.4404e-05,-545.76,0.14053
704,9.7816,6,0.05,2.1631e-06,21.616,1.661e-06,12.48,-3.9534e-13,3.237e-06,-1.661e-06,-12.48,0.12725
705,11.422,6,0,4.632e-05,462.88,1.5491e-05,-1.5578,1.4794e-05,-6.7989,-4.646e-05,-467.04,0.168
706,10.875,6,0.05,1.084e-06,10.833,8.3239e-07,6.2542,6.6756e-15,1.3386e-06,-8.3239e-07,-6.2542,0.15411
707,12.516,6,0,3.9349e-05,393.22,1.3144e-05,1.669,1.287e-05,-0.38279,-3.9327e-05,-392.57,0.19657
708,11.969,6,0.05,7.9574e-07,7.9519,6.1103e-07,4.5911,-1.2961e-22,9.4945e-07,-6.1103e-07,-4.5911,0.18215
709,13.61,6,0,3.2518e-05,324.96,1.1372e-05,7.5572,1.0335e-05,-0.23692,-3.2387e-05,-321.23,0.22608
710,13.063,6,0.05,8.3352e-07,8.3295,6.4004e-07,4.809,2.3628e-13,1.363e-06,-6.4004e-07,-4.809,0.21122
711,14.703,6,0,2.6294e-05,262.76,9.6085e-06,11.445,8.1368e-06,0.38773,-2.6075e-05,-256.67,0.25635
712,14.156,6,0.05,7.7507e-07,7.7453,5.9516e-07,4.4718,-1.2624e-22,1.792e-06,-5.9516e-07,-4.4718,0.24112
713,15.797,6,0,2.0763e-05,207.48,7.9224e-06,13.488,6.2531e-06,0.94605,-2.0488e-05,-199.98,0.28722
714,15.25,6,0.05,6.8249e-07,6.8202,5.2407e-07,3.9376,-7.0442e-15,1.2541e-06,-5.2407e-07,-3.9376,0.27171
715,16.891,6,0,1.586e-05,158.49,6.387e-06,14.433,4.5685e-06,0.76952,-1.5557e-05,-150.45,0.31856
716,16.344,6,0.05,6.6235e-07,6.6189,5.086e-07,3.8214,1.8453e-17,1.9161e-06,-5.086e-07,-3.8214,0.30283
717,17.985,6,0,1.1673e-05,116.65,5.016e-06,14.62,3.1705e-06,0.75432,-1.135e-05,-108.34,0.35025
718,17.438,6,0.05,5.437e-07,5.4333,4.1749e-07,3.1369,1.0898e-13,1.8137e-06,-4.1749e-07,-3.1369,0.33436
719,19.078,6,0,8.15e-06,81.444,3.8192e-06,14.391,2.0247e-06,0.90786,-7.8055e-06,-72.953,0.3822
720,18.531,6,0.05,4.9135e-07,4.9101,3.773e-07,2.8349,1.1322e-13,1.9034e-06,-3.773e-07,-2.8349,0.3662
721,20.172,6,0,5.2084e-06,52.048,2.7597e-06,13.396,1.0852e-06,0.81406,-4.8513e-06,-43.79,0.41431
722,19.625,6,0.05,3.8995e-07,3.8968,2.9943e-07,2.2498,1.1372e-13,2.5409e-06,-2.9943e-07,-2.2498,0.39823
723,21.266,6,0,2.8856e-06,28.836,1.8196e-06,11.217,3.747e-07,0.36037,-2.5309e-06,-21.471,0.44652
724,20.719,6,0.05,2.266e-07,2.2644,1.74e-07,1.3074,1.7054e-13,2.4997e-06,-1.74e-07,-1.3074,0.4304
725,22.359,6,0,1.6488e-06,16.477,1.3022e-06,9.8347,-6.8309e-08,-0.46287,-1.227e-06,-9.1688,0.47877
726,21.813,6,0.05,5.5016e-08,0.54978,4.2245e-08,0.31742,1.5701e-13,2.6284e-06,-4.2245e-08,-0.31741,0.46264
727,23.453,6,0,1.0893e-06,10.886,9.1992e-07,7.7106,-6.7051e-08,0.29494,-7.4334e-07,-4.7864,0.51104
728,22.906,6,0.05,2.5493e-07,2.5476,1.9576e-07,1.4708,2.7759e-13,4.1442e-06,-1.9576e-07,-1.4708,0.4949
729,24,5.4,0,5.2795e-07,5.2758,4.8083e-07,4.4417,-5.2447e-08,0.43484,-3.1472e-07,-1.5358,0.52735
730,24,6,0.05,2.3053e-07,2.3037,1.7702e-07,1.3301,-4.2183e-13,-1.9247e-06,-1.7702e-07,-1.33,0.52718
731,24,4.2,0,1.0617e-06,10.61,9.8883e-07,8.493,-3.8047e-07,-1.7953,-4.6254e-07,-2.412,0.52768
732,24,4.8,0.05,1.2684e-07,1.2675,9.7399e-08,0.73182,2.4573e-13,3.6515e-06,-9.7399e-08,-0.73181,0.52751
733,24,3,0,1.2203e-06,12.194,1.1469e-06,10.064,-4.3076e-07,-1.7904,-5.1786e-07,-2.4448,0.52798
734,24,3.6,0.05,1.776e-07,1.7747,1.3637e-07,1.0246,2.3675e-13,3.4068e-06,-1.3637e-07,-1.0246,0.52783
735,24,1.8,0,9.1168e-07,9.1105,8.2662e-07,7.2147,-1.6309e-07,-0.22164,-5.2589e-07,-2.9476,0.52824
736,24,2.4,0.05,9.4766e-08,0.947,7.2768e-08,0.54675,2.7954e-13,3.813e-06,-7.2768e-08,-0.54675,0.52811
737,24,0.6,0,6.5603e-07,6.5558,5.7961e-07,5.0374,-7.511e-08,0.11808,-4.1092e-07,-2.4051,0.52848
738,24,1.2,0.05,1.5126e-07,1.5116,1.1615e-07,0.87273,4.3051e-13,5.7064e-06,-1.1615e-07,-0.87272,0.52836
739,1.5735e-14,1.8,0,0.00010241,1023.4,1.2811e-07,-998.76,-7.1263e-07,-1005.1,-0.0001365,-2025.3,0
740,5.2451e-15,0.6,0,8.5277e-05,852.18,9.8958e-07,-816.93,-7.4491e-07,-829.96,-0.00011329,-1675.6,0
741,1.0632e-14,1.2,0.05,5.0347e-06,50.312,3.866e-06,29.048,-2.4027e-14,-1.7916e-07,-3.866e-06,-29.048,0
742,2.6226e-14,3,0,0.0001044,1043.2,2.878e-08,-1018.3,-5.7542e-07,-1022.8,-0.00013912,-2063.8,0
743,2.1264e-14,2.4,0.05,2.3422e-06,23.406,1.7985e-06,13.514,2.2001e-14,-4.0827e-08,-1.7985e-06,-13.514,0
744,3.6716e-14,4.2,0,0.00010169,1016.2,4.187e-08,-992.67,-6.5286e-07,-997.89,-0.00013555,-2011.5,0
745,3.1897e-14,3.6,0.05,2.6748e-06,26.729,2.0539e-06,15.432,-5.6182e-15,-3.2734e-15,-2.0539e-06,-15.432,0
746,4.7206e-14,5.4,0,8.4094e-05,840.36,1.1328e-06,-800.62,-5.4374e-07,-813.21,-0.00011154,-1647.2,0
747,4.2529e-14,4.8,0.05,5.6126e-06,56.088,4.3098e-06,32.382,-1.4491e-14,-1.2156e-07,-4.3098e-06,-32.382,0
748,23.453,0,0,9.8696e-07,9.8627,8.8633e-07,7.9121,-1.1477e-07,0.39021,-5.9981e-07,-3.2542,0.51246
749,24,0,0.05,1.2118e-07,1.2109,9.3048e-08,0.69912,3.8988e-13,2.9363e-06,-9.3048e-08,-0.69913,0.52859
750,5.9535,0,0,4.152e-05,414.91,1.547e-05,-23.172,8.3706e-06,-76.516,-4.2957e-05,-462.18,0.046334
751,5.4067,0,0.05,5.7548e-06,57.508,4.4189e-06,33.202,-9.3732e-22,-7.0427e-15,-4.4189e-06,-33.202,0.035848
752,22.359,0,0,1.7609e-06,17.597,1.4044e-06,11.338,2.6083e-09,0.80565,-1.2993e-06,-8.976,0.48018
753,22.906,0,0.05,1.4295e-07,1.4285,1.0977e-07,0.82474,3.8012e-13,3.7517e-06,-1.0977e-07,-0.82474,0.49632
754,21.266,0,0,3.0244e-06,30.223,1.9681e-06,12.621,3.4675e-07,0.43868,-2.612e-06,-21.792,0.44793
755,21.813,0,0.05,1.2989e-07,1.298,9.974e-08,0.74941,1.2899e-13,2.1284e-06,-9.974e-08,-0.74941,0.46405
756,20.172,0,0,5.2021e-06,51.985,2.7883e-06,13.606,1.0411e-06,0.47764,-4.8366e-06,-43.685,0.41572
757,20.719,0,0.05,2.7171e-07,2.7153,2.0864e-07,1.5677,2.2732e-13,2.6811e-06,-2.0864e-07,-1.5677,0.43182
758,19.078,0,0,8.0775e-06,80.72,3.7449e-06,13.756,2.0341e-06,0.90224,-7.751e-06,-72.619,0.38361
759,19.625,0,0.05,3.8561e-07,3.8534,2.961e-07,2.2248,1.8254e-13,2.6256e-06,-2.961e-07,-2.2248,0.39965
760,17.985,0,0,1.162e-05,116.12,4.9512e-06,14.08,3.1881e-06,0.83171,-1.131e-05,-108.1,0.35167
761,18.531,0,0.05,4.4418e-07,4.4387,3.4108e-07,2.5627,2.2726e-13,2.4423e-06,-3.4108e-07,-2.5627,0.36761
762,16.891,0,0,1.5787e-05,157.77,6.2785e-06,13.469,4.6052e-06,0.8973,-1.5505e-05,-150.21,0.31998
763,17.438,0,0.05,5.8723e-07,5.8682,4.5092e-07,3.388,2.2586e-13,2.3683e-06,-4.5092e-07,-3.388,0.33578
764,15.797,0,0,2.0721e-05,207.07,7.9114e-06,13.636,6.2489e-06,1.1447,-2.0442e-05,-199.4,0.28864
765,16.344,0,0.05,6.2986e-07,6.2943,4.8366e-07,3.634,-1.0259e-22,1.7879e-06,-4.8366e-07,-3.634,0.30425
766,14.703,0,0,2.6349e-05,263.31,9.7536e-06,13.072,8.0853e-06,0.53782,-2.6095e-05,-256.28,0.25776
767,15.25,0,0.05,8.31e-07,8.3043,6.3811e-07,4.7945,3.0082e-16,1.6689e-06,-6.3811e-07,-4.7945,0.27313
768,13.61,0,0,3.2578e-05,325.55,1.1598e-05,9.9961,1.0223e-05,-0.33495,-3.2401e-05,-320.6,0.2275
769,14.156,0,0.05,8.5294e-07,8.5236,6.5496e-07,4.9211,2.6339e-17,1.2024e-06,-6.5496e-07,-4.9211,0.24254
770,12.516,0,0,3.9537e-05,395.1,1.3542e-05,5.5662,1.2718e-05,-0.62737,-3.945e-05,-392.59,0.19799
771,13.063,0,0.05,9.0992e-07,9.0929,6.987e-07,5.2498,2.3314e-13,9.0336e-07,-6.987e-07,-5.2498,0.21263
772,11.422,0,0,4.6683e-05,466.51,1.5456e-05,-1.9195,1.5144e-05,-4.2686,-4.6788e-05,-469.59,0.16941
773,11.969,0,0.05,8.857e-07,8.8509,6.8011e-07,5.1101,2.2953e-13,1.0819e-06,-6.8011e-07,-5.1101,0.18357
774,10.328,0,0,5.412e-05,540.83,1.8625e-05,0.81736,1.663e-05,-14.168,-5.4332e-05,-547.35,0.14195
775,10.875,0,0.05,8.1187e-07,8.1131,6.2341e-07,4.6841,1.5882e-14,1.4205e-06,-6.2341e-07,-4.6841,0.15552
776,9.2347,0,0,6.3784e-05,637.4,2.1907e-05,15.663,2.1031e-05,9.087,-6.336e-05,-625,0.11577
777,9.7816,0,0.05,1.5954e-06,15.943,1.225e-06,9.2045,4.8074e-13,6.8958e-07,-1.225e-06,-9.2045,0.12868
778,8.141,0,0,6.7325e-05,672.79,2.5298e-05,39.515,2.057e-05,3.9908,-6.6515e-05,-650.33,0.091068
779,8.6878,0,0.05,3.2104e-06,32.082,2.4652e-06,18.522,-1.8439e-21,2.3097e-07,-2.4652e-06,-18.522,0.10322
780,7.0473,0,0,5.6501e-05,564.62,1.9115e-05,-6.074,1.7287e-05,-19.811,-5.6929e-05,-577.44,0.068016
781,7.5941,0,0.05,3.5931e-07,3.5907,2.7591e-07,2.0731,2.8398e-14,6.9561e-07,-2.7591e-07,-2.0731,0.079345
782,6.5004,0,0.05,1.5246e-06,15.236,1.1707e-06,8.7963,7.8832e-15,6.6129e-08,-1.1707e-06,-8.7963,0.057025
783,0.524,-1.2132e-31,0,0.00010461,1045.4,3.2664e-05,-234.5,1.5702e-05,-361.95,-0.00011418,-1337.8,0.00023902
784,0,0,0.05,3.1571e-05,315.49,2.4243e-05,182.15,-5.1423e-21,-3.8637e-14,-2.4243e-05,-182.15,0
785,4.716,-1.0919e-30,0,5.9844e-05,598.03,2.1045e-05,-52.202,1.2563e-05,-115.94,-6.2449e-05,-679.55,0.026346
786,5.24,-1.2132e-30,0.05,9.7549e-06,97.482,7.4906e-06,56.281,-2.2139e-13,-1.1938e-14,-7.4906e-06,-56.281,0.031981
787,3.668,-8.4923e-31,0,9.4869e-05,948.03,3.2993e-05,-3.2678,2.8117e-05,-39.904,-9.555e-05,-969.09,0.016053
788,4.192,0,0.05,2.4828e-06,24.811,1.9065e-06,14.325,-4.044e-22,-3.0385e-15,-1.9065e-06,-14.325,0.020993
789,2.62,-6.0659e-31,0,0.00013017,1300.8,4.4953e-05,11.824,4.0638e-05,-20.594,-0.00013028,-1304.8,0.0078331
790,3.144,0,0.05,3.0134e-06,30.113,2.3139e-06,17.386,-4.9082e-22,1.7742e-07,-2.3139e-06,-17.386,0.011615
791,1.572,-3.6396e-31,0,0.00014129,1411.9,5.4992e-05,79.322,3.9438e-05,-37.545,-0.00014021,-1387.4,0.0025275
792,2.096,0,0.05,4.2368e-06,42.339,3.2533e-06,24.444,-6.9008e-22,-5.185e-15,-3.2533e-06,-24.444,0.0047766
793,1.048,0,0.05,2.7517e-06,27.498,2.1129e-06,15.876,-4.4819e-22,-3.3675e-15,-2.1129e-06,-15.876,0.0010278
794,0.524,6,0,0.00010404,1039.7,3.34e-05,-226.78,1.4531e-05,-368.55,-0.00011344,-1330.1,0.00023202
795,5.2451e-14,6,0.05,3.4047e-05,340.23,2.6144e-05,196.43,1.6085e-15,-4.1666e-14,-2.6144e-05,-196.43,0
796,4.716,6,0,5.5465e-05,554.27,2.0873e-05,-40.688,9.834e-06,-123.63,-5.7793e-05,-631.75,0.026038
797,5.24,6,0.05,1.3266e-05,132.57,1.0187e-05,76.538,-2.1607e-21,-1.6235e-14,-1.0187e-05,-76.538,0.031549
798,1.572,6,0,0.00014015,1400.6,5.7786e-05,83.918,3.3682e-05,-97.187,-0.0001395,-1398.4,0.0024962
799,1.048,6,0.05,4.7068e-06,47.035,3.6142e-06,27.156,-6.0253e-14,-5.7602e-15,-3.6142e-06,-27.156,0.0010087
800,2.62,6,0,0.00012913,1290.4,4.394e-05,4.6319,4.0786e-05,-19.068,-0.00012936,-1297.5,0.0077868
801,2.096,6,0.05,5.0606e-06,50.571,3.8859e-06,29.197,-8.2426e-22,-6.1932e-15,-3.8859e-06,-29.197,0.0047465
802,3.668,6,0,9.1066e-05,910.03,3.2702e-05,5.0679,2.595e-05,-45.666,-9.165e-05,-929.27,0.015929
803,3.144,6,0.05,3.018e-06,30.16,2.3175e-06,17.413,-4.9157e-22,-3.6935e-15,-2.3175e-06,-17.413,0.011543
804,4.192,6,0.05,3.9627e-06,39.599,3.0428e-06,22.863,-6.4543e-22,1.064e-06,-3.0428e-06,-22.863,0.020798
805,5.4067,5.25,0.1,6.8379e-05,683.31,6.5842e-05,637.89,-1.216e-05,51.817,-3.4048e-05,-112.64,0.036115
806,5.4067,5.75,0.1,2.9929e-05,299.08,3.2654e-05,387.02,-2.8469e-06,120.28,-1.038e-05,63.675,0.035099
807,5.4067,4.75,0.1,0.00012308,1229.9,0.00011623,1071.4,-2.6768e-05,-3.0911,-6.2311e-05,-270.15,0.037235
808,5.4067,4.25,0.1,0.00021965,2195,0.00021781,2166.6,-5.4073e-05,123.76,-9.1054e-05,-154.1,0.038364
809,5.3233,4,0.1,0.00036063,3603.8,0.00035514,3510.4,-8.1311e-05,231.11,-0.00015836,-347.82,0.037629
810,5.24,4.25,0.1,0.00029367,2934.7,0.00027997,2653.4,-5.599e-05,129.14,-0.00014859,-566.6,0.035745
811,5.24,4.75,0.1,0.00010742,1073.4,9.664e-05,918.28,-3.295e-06,167.41,-6.6994e-05,-311.2,0.034452
812,5.24,5.25,0.1,4.7293e-05,472.6,4.8849e-05,525.52,-9.023e-06,90.696,-1.8093e-05,22.55,0.033249
813,5.24,5.75,0.1,3.3493e-05,334.7,3.4276e-05,415.54,4.3006e-06,190.31,-1.6912e-05,30.93,0.03211
814,5.4067,0.75,0.1,5.8885e-05,588.45,5.8227e-05,598.02,-7.9969e-06,100.44,-2.8218e-05,-51.496,0.036987
815,5.4067,0.25,0.1,2.7272e-05,272.53,2.9062e-05,354.15,1.6164e-06,147.93,-1.2059e-05,45.179,0.036231
816,5.4067,1.25,0.1,0.00013136,1312.7,0.00012312,1137,-2.4112e-05,30.773,-6.9941e-05,-313.57,0.037845
817,5.4067,1.75,0.1,0.00022317,2230.2,0.00022652,2332.3,-6.2784e-05,158.64,-7.7293e-05,49.63,0.038769
818,5.3233,2,0.1,0.00025702,2568.4,0.00027001,2950.8,-6.8533e-05,407.18,-7.503e-05,358.36,0.037908
819,5.24,1.75,0.1,0.00020989,2097.4,0.00020224,1984.2,-3.1766e-05,226.01,-0.00010675,-337.37,0.036185
820,5.24,1.25,0.1,0.00014546,1453.6,0.00012522,1083,-9.2307e-06,72.776,-9.6502e-05,-582.95,0.034925
821,5.24,0.75,0.1,6.911e-05,690.63,6.8148e-05,701.31,-8.3952e-06,126.19,-3.3799e-05,-64.682,0.033684
822,5.24,0.25,0.1,3.9179e-05,391.52,4.1772e-05,508.36,2.1573e-06,210.72,-1.7257e-05,64.842,0.032544
823,5.9535,6,0.1,4.231e-05,422.81,4.3457e-05,465.39,-7.4418e-06,82.953,-1.6973e-05,11.341,0.044988
824,7.0473,6,0.1,6.1741e-05,616.98,6.1643e-05,615.04,-1.8538e-05,12.592,-2.2278e-05,-15.506,0.066499
825,8.141,6,0.1,6.9657e-05,696.09,6.8471e-05,668.69,-1.8054e-05,18.576,-2.927e-05,-65.699,0.089617
826,9.2347,6,0.1,6.3246e-05,632.02,6.2873e-05,621.53,-1.9905e-05,-0.43945,-2.252e-05,-20.088,0.11433
827,10.328,6,0.1,5.4312e-05,542.75,5.4404e-05,545.76,-1.6786e-05,10.867,-1.8833e-05,-4.5133,0.14053
828,11.422,6,0.1,4.632e-05,462.88,4.646e-05,467.04,-1.4794e-05,6.7989,-1.5491e-05,1.5578,0.168
829,12.516,6,0.1,3.9349e-05,393.22,3.9327e-05,392.57,-1.287e-05,0.38279,-1.3144e-05,-1.669,0.19657
830,13.61,6,0.1,3.2518e-05,324.96,3.2387e-05,321.23,-1.0335e-05,0.23692,-1.1372e-05,-7.5572,0.22608
831,14.703,6,0.1,2.6294e-05,262.76,2.6075e-05,256.67,-8.1368e-06,-0.38773,-9.6085e-06,-11.445,0.25635
832,15.797,6,0.1,2.0763e-05,207.48,2.0488e-05,199.98,-6.2531e-06,-0.94605,-7.9224e-06,-13.488,0.28722
833,16.891,6,0.1,1.586e-05,158.49,1.5557e-05,150.45,-4.5685e-06,-0.76952,-6.387e-06,-14.433,0.31856
834,17.985,6,0.1,1.1673e-05,116.65,1.135e-05,108.34,-3.1705e-06,-0.75432,-5.016e-06,-14.62,0.35025
835,19.078,6,0.1,8.15e-06,81.444,7.8055e-06,72.953,-2.0247e-06,-0.90786,-3.8192e-06,-14.391,0.3822
836,20.172,6,0.1,5.2084e-06,52.048,4.8513e-06,43.79,-1.0852e-06,-0.81406,-2.7597e-06,-13.396,0.41431
837,21.266,6,0.1,2.8856e-06,28.836,2.5309e-06,21.471,-3.747e-07,-0.36037,-1.8196e-06,-11.217,0.44652
838,22.359,6,0.1,1.6488e-06,16.477,1.227e-06,9.1688,6.8309e-08,0.46287,-1.3022e-06,-9.8347,0.47877
839,23.453,6,0.1,1.0893e-06,10.886,7.4334e-07,4.7864,6.7051e-08,-0.29494,-9.1992e-07,-7.7106,0.51104
840,24,5.4,0.1,5.2795e-07,5.2758,3.1472e-07,1.5358,5.2447e-08,-0.43484,-4.8083e-07,-4.4417,0.52735
841,24,4.2,0.1,1.0617e-06,10.61,4.6254e-07,2.412,3.8047e-07,1.7953,-9.8883e-07,-8.493,0.52768
842,24,3,0.1,1.2203e-06,12.194,5.1786e-07,2.4449,4.3076e-07,1.7904,-1.1469e-06,-10.064,0.52798
843,24,1.8,0.1,9.1168e-07,9.1105,5.2589e-07,2.9476,1.6309e-07,0.22164,-8.2662e-07,-7.2147,0.52824
844,24,0.6,0.1,6.5603e-07,6.5558,4.1092e-07,2.4051,7.5109e-08,-0.11808,-5.7961e-07,-5.0374,0.52848
845,1.5735e-14,1.8,0.1,0.00010241,1023.4,0.0001365,2025.3,7.1263e-07,1005.1,-1.2811e-07,998.76,0
846,5.2451e-15,0.6,0.1,8.5277e-05,852.18,0.00011329,1675.6,7.4491e-07,829.96,-9.8958e-07,816.93,0
847,2.6226e-14,3,0.1,0.0001044,1043.2,0.00013912,2063.8,5.7542e-07,1022.8,-2.878e-08,1018.3,0
848,3.6716e-14,4.2,0.1,0.00010169,1016.2,0.00013555,2011.5,6.5286e-07,997.89,-4.187e-08,992.67,0
849,4.7206e-14,5.4,0.1,8.4094e-05,840.36,0.00011154,1647.2,5.4374e-07,813.21,-1.1328e-06,800.62,0
850,23.453,0,0.1,9.8695e-07,9.8627,5.9981e-07,3.2542,1.1477e-07,-0.39021,-8.8633e-07,-7.9121,0.51246
851,22.359,0,0.1,1.7609e-06,17.597,1.2993e-06,8.976,-2.6085e-09,-0.80565,-1.4044e-06,-11.338,0.48018
852,21.266,0,0.1,3.0244e-06,30.223,2.612e-06,21.792,-3.4675e-07,-0.43868,-1.9681e-06,-12.621,0.44793
853,20.172,0,0.1,5.2021e-06,51.985,4.8366e-06,43.685,-1.0411e-06,-0.47764,-2.7883e-06,-13.606,0.41572
854,19.078,0,0.1,8.0775e-06,80.72,7.751e-06,72.619,-2.0341e-06,-0.90224,-3.7449e-06,-13.756,0.38361
855,17.985,0,0.1,1.162e-05,116.12,1.131e-05,108.1,-3.1881e-06,-0.83171,-4.9512e-06,-14.08,0.35167
856,16.891,0,0.1,1.5787e-05,157.77,1.5505e-05,150.21,-4.6052e-06,-0.89731,-6.2785e-06,-13.469,0.31998
857,15.797,0,0.1,2.0721e-05,207.07,2.0442e-05,199.4,-6.2489e-06,-1.1447,-7.9114e-06,-13.636,0.28864
858,14.703,0,0.1,2.6349e-05,263.31,2.6095e-05,256.28,-8.0853e-06,-0.53782,-9.7536e-06,-13.072,0.25776
859,13.61,0,0.1,3.2578e-05,325.55,3.2401e-05,320.6,-1.0223e-05,0.33495,-1.1598e-05,-9.9961,0.2275
860,12.516,0,0.1,3.9537e-05,395.1,3.945e-05,392.59,-1.2718e-05,0.62737,-1.3542e-05,-5.5662,0.19799
861,11.422,0,0.1,4.6683e-05,466.51,4.6788e-05,469.59,-1.5144e-05,4.2686,-1.5456e-05,1.9195,0.16941
862,10.328,0,0.1,5.412e-05,540.83,5.4332e-05,547.35,-1.663e-05,14.168,-1.8625e-05,-0.81736,0.14195
863,9.2347,0,0.1,6.3784e-05,637.4,6.336e-05,625,-2.1031e-05,-9.087,-2.1907e-05,-15.663,0.11577
864,8.141,0,0.1,6.7325e-05,672.79,6.6515e-05,650.33,-2.057e-05,-3.9908,-2.5298e-05,-39.515,0.091068
865,7.0473,0,0.1,5.6501e-05,564.62,5.6929e-05,577.44,-1.7287e-05,19.811,-1.9115e-05,6.074,0.068016
866,5.9535,0,0.1,4.152e-05,414.91,4.2957e-05,462.18,-8.3706e-06,76.516,-1.547e-05,23.172,0.046334
867,4.716,-1.0919e-30,0.1,5.9844e-05,598.03,6.2449e-05,679.55,-1.2563e-05,115.94,-2.1045e-05,52.202,0.026346
868,3.668,-8.4923e-31,0.1,9.4869e-05,948.03,9.555e-05,969.09,-2.8117e-05,39.904,-3.2993e-05,3.2678,0.016053
869,2.62,-6.0659e-31,0.1,0.00013017,1300.8,0.00013028,1304.8,-4.0638e-05,20.594,-4.4953e-05,-11.824,0.0078331
870,1.572,-3.6396e-31,0.1,0.00014129,1411.9,0.00014021,1387.4,-3.9438e-05,37.545,-5.4992e-05,-79.322,0.0025275
871,0.524,-1.2132e-31,0.1,0.00010461,1045.4,0.00011418,1337.8,-1.5702e-05,361.95,-3.2664e-05,234.5,0.00023902
872,0.524,6,0.1,0.00010404,1039.7,0.00011344,1330.1,-1.4531e-05,368.55,-3.34e-05,226.78,0.00023202
873,1.572,6,0.1,0.00014015,1400.6,0.0001395,1398.4,-3.3682e-05,97.187,-5.7786e-05,-83.918,0.0024962
874,2.62,6,0.1,0.00012913,1290.4,0.00012936,1297.5,-4.0786e-05,19.068,-4.394e-05,-4.6319,0.0077868
875,3.668,6,0.1,9.1066e-05,910.03,9.165e-05,929.27,-2.595e-05,45.666,-3.2702e-05,-5.0679,0.015929
876,4.716,6,0.1,5.5465e-05,554.27,5.7793e-05,631.75,-9.834e-06,123.63,-2.0873e-05,40.688,0.026038
