Node Number	X Location (in)	Y Location (in)	Z Location (in)	Minimum Principal Stress (psi)
1	10.8	2.1818	0.	-11066
2	10.8	2.3636	0.	-8823.3
3	10.8	2.5455	0.	-7804.1
4	10.8	2.7273	0.	-7285.2
5	10.8	2.9091	0.	-7063.6
6	10.8	3.0909	0.	-7063.6
7	10.8	3.2727	0.	-7285.2
8	10.8	3.4545	0.	-7804.1
9	10.8	3.6364	0.	-8823.3
10	10.8	3.8182	0.	-11066
11	10.967	2.1818	0.	-11108
12	10.967	2.3636	0.	-8823.1
13	10.967	2.5455	0.	-7777.
14	10.967	2.7273	0.	-7249.6
15	10.967	2.9091	0.	-7024.3
16	10.967	3.0909	0.	-7024.3
17	10.967	3.2727	0.	-7249.6
18	10.967	3.4545	0.	-7777.
19	10.967	3.6364	0.	-8823.1
20	10.967	3.8182	0.	-11108
21	10.617	5.8182	0.	-614.52
22	10.617	5.6364	0.	-841.93
23	10.617	5.4545	0.	-1105.3
24	10.617	5.2727	0.	-1388.9
25	10.617	5.0909	0.	-1703.8
26	10.617	4.9091	0.	-2070.3
27	10.617	4.7273	0.	-2520.3
28	10.617	4.5455	0.	-3128.3
29	10.617	4.3636	0.	-4001.5
30	10.617	4.1818	0.	-5756.2
31	10.617	4.	0.	-8063.8
32	10.617	3.8182	0.	-8202.9
33	10.617	3.6364	0.	-7799.
34	10.617	3.4545	0.	-7280.6
35	10.617	3.2727	0.	-6973.7
36	10.617	3.0909	0.	-6825.9
37	10.617	2.9091	0.	-6825.9
38	10.617	2.7273	0.	-6973.7
39	10.617	2.5455	0.	-7280.6
40	10.617	2.3636	0.	-7799.
41	10.617	2.1818	0.	-8202.9
42	10.617	2.	0.	-8063.8
43	10.617	1.8182	0.	-5756.2
44	10.617	1.6364	0.	-4001.5
45	10.617	1.4545	0.	-3128.3
46	10.617	1.2727	0.	-2520.3
47	10.617	1.0909	0.	-2070.3
48	10.617	0.90909	0.	-1703.8
49	10.617	0.72727	0.	-1388.9
50	10.617	0.54545	0.	-1105.3
51	10.617	0.36364	0.	-841.93
52	10.617	0.18182	0.	-614.52
53	10.434	5.8182	0.	-985.23
54	10.434	5.6364	0.	-1115.6
55	10.434	5.4545	0.	-1315.3
56	10.434	5.2727	0.	-1560.3
57	10.434	5.0909	0.	-1849.4
58	10.434	4.9091	0.	-2194.2
59	10.434	4.7273	0.	-2619.8
60	10.434	4.5455	0.	-3162.5
61	10.434	4.3636	0.	-3888.2
62	10.434	4.1818	0.	-4795.8
63	10.434	4.	0.	-5652.5
64	10.434	3.8182	0.	-6312.6
65	10.434	3.6364	0.	-6540.
66	10.434	3.4545	0.	-6521.9
67	10.434	3.2727	0.	-6444.9
68	10.434	3.0909	0.	-6393.6
69	10.434	2.9091	0.	-6393.6
70	10.434	2.7273	0.	-6444.9
71	10.434	2.5455	0.	-6521.9
72	10.434	2.3636	0.	-6540.
73	10.434	2.1818	0.	-6312.6
74	10.434	2.	0.	-5652.5
75	10.434	1.8182	0.	-4795.8
76	10.434	1.6364	0.	-3888.2
77	10.434	1.4545	0.	-3162.5
78	10.434	1.2727	0.	-2619.8
79	10.434	1.0909	0.	-2194.2
80	10.434	0.90909	0.	-1849.4
81	10.434	0.72727	0.	-1560.3
82	10.434	0.54545	0.	-1315.3
83	10.434	0.36364	0.	-1115.6
84	10.434	0.18182	0.	-985.23
85	10.251	5.8182	0.	-1370.
86	10.251	5.6364	0.	-1466.9
87	10.251	5.4545	0.	-1625.5
88	10.251	5.2727	0.	-1836.2
89	10.251	5.0909	0.	-2097.
90	10.251	4.9091	0.	-2412.9
91	10.251	4.7273	0.	-2794.3
92	10.251	4.5455	0.	-3255.5
93	10.251	4.3636	0.	-3792.9
94	10.251	4.1818	0.	-4376.6
95	10.251	4.	0.	-4935.6
96	10.251	3.8182	0.	-5380.6
97	10.251	3.6364	0.	-5679.2
98	10.251	3.4545	0.	-5827.
99	10.251	3.2727	0.	-5882.2
100	10.251	3.0909	0.	-5897.1
101	10.251	2.9091	0.	-5897.1
102	10.251	2.7273	0.	-5882.2
103	10.251	2.5455	0.	-5827.
104	10.251	2.3636	0.	-5679.2
105	10.251	2.1818	0.	-5380.6
106	10.251	2.	0.	-4935.6
107	10.251	1.8182	0.	-4376.6
108	10.251	1.6364	0.	-3792.9
109	10.251	1.4545	0.	-3255.5
110	10.251	1.2727	0.	-2794.3
111	10.251	1.0909	0.	-2412.9
112	10.251	0.90909	0.	-2097.
113	10.251	0.72727	0.	-1836.2
114	10.251	0.54545	0.	-1625.5
115	10.251	0.36364	0.	-1466.9
116	10.251	0.18182	0.	-1370.
117	10.068	5.8182	0.	-1728.7
118	10.068	5.6364	0.	-1811.5
119	10.068	5.4545	0.	-1943.9
120	10.068	5.2727	0.	-2123.5
121	10.068	5.0909	0.	-2349.8
122	10.068	4.9091	0.	-2623.7
123	10.068	4.7273	0.	-2946.3
124	10.068	4.5455	0.	-3315.5
125	10.068	4.3636	0.	-3720.
126	10.068	4.1818	0.	-4133.2
127	10.068	4.	0.	-4523.
128	10.068	3.8182	0.	-4858.4
129	10.068	3.6364	0.	-5117.
130	10.068	3.4545	0.	-5290.5
131	10.068	3.2727	0.	-5389.3
132	10.068	3.0909	0.	-5432.4
133	10.068	2.9091	0.	-5432.4
134	10.068	2.7273	0.	-5389.3
135	10.068	2.5455	0.	-5290.5
136	10.068	2.3636	0.	-5117.
137	10.068	2.1818	0.	-4858.4
138	10.068	2.	0.	-4523.
139	10.068	1.8182	0.	-4133.2
140	10.068	1.6364	0.	-3720.
141	10.068	1.4545	0.	-3315.5
142	10.068	1.2727	0.	-2946.3
143	10.068	1.0909	0.	-2623.7
144	10.068	0.90909	0.	-2349.8
145	10.068	0.72727	0.	-2123.5
146	10.068	0.54545	0.	-1943.9
147	10.068	0.36364	0.	-1811.5
148	10.068	0.18182	0.	-1728.7
149	9.8847	5.8182	0.	-2054.9
150	9.8847	5.6364	0.	-2128.9
151	9.8847	5.4545	0.	-2242.2
152	9.8847	5.2727	0.	-2394.8
153	9.8847	5.0909	0.	-2586.4
154	9.8847	4.9091	0.	-2815.6
155	9.8847	4.7273	0.	-3079.4
156	9.8847	4.5455	0.	-3371.1
157	9.8847	4.3636	0.	-3678.5
158	9.8847	4.1818	0.	-3985.3
159	9.8847	4.	0.	-4274.1
160	9.8847	3.8182	0.	-4529.6
161	9.8847	3.6364	0.	-4739.1
162	9.8847	3.4545	0.	-4894.5
163	9.8847	3.2727	0.	-4994.6
164	9.8847	3.0909	0.	-5042.7
165	9.8847	2.9091	0.	-5042.7
166	9.8847	2.7273	0.	-4994.6
167	9.8847	2.5455	0.	-4894.5
168	9.8847	2.3636	0.	-4739.1
169	9.8847	2.1818	0.	-4529.6
170	9.8847	2.	0.	-4274.1
171	9.8847	1.8182	0.	-3985.3
172	9.8847	1.6364	0.	-3678.5
173	9.8847	1.4545	0.	-3371.1
174	9.8847	1.2727	0.	-3079.4
175	9.8847	1.0909	0.	-2815.6
176	9.8847	0.90909	0.	-2586.4
177	9.8847	0.72727	0.	-2394.8
178	9.8847	0.54545	0.	-2242.2
179	9.8847	0.36364	0.	-2128.9
180	9.8847	0.18182	0.	-2054.9
181	9.7017	5.8182	0.	-2346.1
182	9.7017	5.6364	0.	-2412.6
183	9.7017	5.4545	0.	-2509.9
184	9.7017	5.2727	0.	-2638.6
185	9.7017	5.0909	0.	-2798.1
186	9.7017	4.9091	0.	-2986.
187	9.7017	4.7273	0.	-3198.
188	9.7017	4.5455	0.	-3427.1
189	9.7017	4.3636	0.	-3663.6
190	9.7017	4.1818	0.	-3896.8
191	9.7017	4.	0.	-4116.2
192	9.7017	3.8182	0.	-4312.5
193	9.7017	3.6364	0.	-4478.
194	9.7017	3.4545	0.	-4606.
195	9.7017	3.2727	0.	-4692.4
196	9.7017	3.0909	0.	-4735.7
197	9.7017	2.9091	0.	-4735.7
198	9.7017	2.7273	0.	-4692.4
199	9.7017	2.5455	0.	-4606.
200	9.7017	2.3636	0.	-4478.
201	9.7017	2.1818	0.	-4312.5
202	9.7017	2.	0.	-4116.2
203	9.7017	1.8182	0.	-3896.8
204	9.7017	1.6364	0.	-3663.6
205	9.7017	1.4545	0.	-3427.1
206	9.7017	1.2727	0.	-3198.
207	9.7017	1.0909	0.	-2986.
208	9.7017	0.90909	0.	-2798.1
209	9.7017	0.72727	0.	-2638.6
210	9.7017	0.54545	0.	-2509.9
211	9.7017	0.36364	0.	-2412.6
212	9.7017	0.18182	0.	-2346.1
213	9.5186	5.8182	0.	-2603.
214	9.5186	5.6364	0.	-2661.9
215	9.5186	5.4545	0.	-2744.9
216	9.5186	5.2727	0.	-2852.6
217	9.5186	5.0909	0.	-2983.7
218	9.5186	4.9091	0.	-3135.9
219	9.5186	4.7273	0.	-3304.8
220	9.5186	4.5455	0.	-3484.4
221	9.5186	4.3636	0.	-3667.6
222	9.5186	4.1818	0.	-3847.
223	9.5186	4.	0.	-4015.5
224	9.5186	3.8182	0.	-4167.1
225	9.5186	3.6364	0.	-4296.2
226	9.5186	3.4545	0.	-4397.7
227	9.5186	3.2727	0.	-4467.6
228	9.5186	3.0909	0.	-4503.2
229	9.5186	2.9091	0.	-4503.2
230	9.5186	2.7273	0.	-4467.6
231	9.5186	2.5455	0.	-4397.7
232	9.5186	2.3636	0.	-4296.2
233	9.5186	2.1818	0.	-4167.1
234	9.5186	2.	0.	-4015.5
235	9.5186	1.8182	0.	-3847.
236	9.5186	1.6364	0.	-3667.6
237	9.5186	1.4545	0.	-3484.4
238	9.5186	1.2727	0.	-3304.8
239	9.5186	1.0909	0.	-3135.9
240	9.5186	0.90909	0.	-2983.7
241	9.5186	0.72727	0.	-2852.6
242	9.5186	0.54545	0.	-2744.9
243	9.5186	0.36364	0.	-2661.9
244	9.5186	0.18182	0.	-2603.
245	9.3356	5.8182	0.	-2828.
246	9.3356	5.6364	0.	-2879.3
247	9.3356	5.4545	0.	-2949.4
248	9.3356	5.2727	0.	-3038.5
249	9.3356	5.0909	0.	-3145.4
250	9.3356	4.9091	0.	-3267.6
251	9.3356	4.7273	0.	-3401.5
252	9.3356	4.5455	0.	-3542.3
253	9.3356	4.3636	0.	-3684.6
254	9.3356	4.1818	0.	-3823.3
255	9.3356	4.	0.	-3953.4
256	9.3356	3.8182	0.	-4070.5
257	9.3356	3.6364	0.	-4170.5
258	9.3356	3.4545	0.	-4249.6
259	9.3356	3.2727	0.	-4304.3
260	9.3356	3.0909	0.	-4332.4
261	9.3356	2.9091	0.	-4332.4
262	9.3356	2.7273	0.	-4304.3
263	9.3356	2.5455	0.	-4249.6
264	9.3356	2.3636	0.	-4170.5
265	9.3356	2.1818	0.	-4070.5
266	9.3356	2.	0.	-3953.4
267	9.3356	1.8182	0.	-3823.3
268	9.3356	1.6364	0.	-3684.6
269	9.3356	1.4545	0.	-3542.3
270	9.3356	1.2727	0.	-3401.5
271	9.3356	1.0909	0.	-3267.6
272	9.3356	0.90909	0.	-3145.4
273	9.3356	0.72727	0.	-3038.5
274	9.3356	0.54545	0.	-2949.4
275	9.3356	0.36364	0.	-2879.3
276	9.3356	0.18182	0.	-2828.
277	9.1525	5.8182	0.	-3024.3
278	9.1525	5.6364	0.	-3068.3
279	9.1525	5.4545	0.	-3126.8
280	9.1525	5.2727	0.	-3199.9
281	9.1525	5.0909	0.	-3286.4
282	9.1525	4.9091	0.	-3384.
283	9.1525	4.7273	0.	-3489.7
284	9.1525	4.5455	0.	-3599.9
285	9.1525	4.3636	0.	-3710.7
286	9.1525	4.1818	0.	-3818.1
287	9.1525	4.	0.	-3918.7
288	9.1525	3.8182	0.	-4009.
289	9.1525	3.6364	0.	-4086.
290	9.1525	3.4545	0.	-4147.
291	9.1525	3.2727	0.	-4189.2
292	9.1525	3.0909	0.	-4210.9
293	9.1525	2.9091	0.	-4210.9
294	9.1525	2.7273	0.	-4189.2
295	9.1525	2.5455	0.	-4147.
296	9.1525	2.3636	0.	-4086.
297	9.1525	2.1818	0.	-4009.
298	9.1525	2.	0.	-3918.7
299	9.1525	1.8182	0.	-3818.1
300	9.1525	1.6364	0.	-3710.7
301	9.1525	1.4545	0.	-3599.9
302	9.1525	1.2727	0.	-3489.7
303	9.1525	1.0909	0.	-3384.
304	9.1525	0.90909	0.	-3286.4
305	9.1525	0.72727	0.	-3199.9
306	9.1525	0.54545	0.	-3126.8
307	9.1525	0.36364	0.	-3068.3
308	9.1525	0.18182	0.	-3024.3
309	8.9695	5.8182	0.	-3195.7
310	8.9695	5.6364	0.	-3232.7
311	8.9695	5.4545	0.	-3281.
312	8.9695	5.2727	0.	-3340.6
313	8.9695	5.0909	0.	-3410.
314	8.9695	4.9091	0.	-3487.6
315	8.9695	4.7273	0.	-3570.8
316	8.9695	4.5455	0.	-3657.
317	8.9695	4.3636	0.	-3743.1
318	8.9695	4.1818	0.	-3826.3
319	8.9695	4.	0.	-3903.9
320	8.9695	3.8182	0.	-3973.4
321	8.9695	3.6364	0.	-4032.5
322	8.9695	3.4545	0.	-4079.2
323	8.9695	3.2727	0.	-4111.5
324	8.9695	3.0909	0.	-4128.1
325	8.9695	2.9091	0.	-4128.1
326	8.9695	2.7273	0.	-4111.5
327	8.9695	2.5455	0.	-4079.2
328	8.9695	2.3636	0.	-4032.5
329	8.9695	2.1818	0.	-3973.4
330	8.9695	2.	0.	-3903.9
331	8.9695	1.8182	0.	-3826.3
332	8.9695	1.6364	0.	-3743.1
333	8.9695	1.4545	0.	-3657.
334	8.9695	1.2727	0.	-3570.8
335	8.9695	1.0909	0.	-3487.6
336	8.9695	0.90909	0.	-3410.
337	8.9695	0.72727	0.	-3340.6
338	8.9695	0.54545	0.	-3281.
339	8.9695	0.36364	0.	-3232.7
340	8.9695	0.18182	0.	-3195.7
341	8.7864	5.8182	0.	-3345.7
342	8.7864	5.6364	0.	-3376.4
343	8.7864	5.4545	0.	-3415.9
344	8.7864	5.2727	0.	-3464.
345	8.7864	5.0909	0.	-3519.5
346	8.7864	4.9091	0.	-3580.8
347	8.7864	4.7273	0.	-3646.1
348	8.7864	4.5455	0.	-3713.2
349	8.7864	4.3636	0.	-3780.
350	8.7864	4.1818	0.	-3844.3
351	8.7864	4.	0.	-3904.1
352	8.7864	3.8182	0.	-3957.4
353	8.7864	3.6364	0.	-4002.7
354	8.7864	3.4545	0.	-4038.2
355	8.7864	3.2727	0.	-4062.8
356	8.7864	3.0909	0.	-4075.4
357	8.7864	2.9091	0.	-4075.4
358	8.7864	2.7273	0.	-4062.8
359	8.7864	2.5455	0.	-4038.2
360	8.7864	2.3636	0.	-4002.7
361	8.7864	2.1818	0.	-3957.4
362	8.7864	2.	0.	-3904.1
363	8.7864	1.8182	0.	-3844.3
364	8.7864	1.6364	0.	-3780.
365	8.7864	1.4545	0.	-3713.2
366	8.7864	1.2727	0.	-3646.1
367	8.7864	1.0909	0.	-3580.8
368	8.7864	0.90909	0.	-3519.5
369	8.7864	0.72727	0.	-3464.
370	8.7864	0.54545	0.	-3415.9
371	8.7864	0.36364	0.	-3376.4
372	8.7864	0.18182	0.	-3345.7
373	8.6034	5.8182	0.	-3477.9
374	8.6034	5.6364	0.	-3503.
375	8.6034	5.4545	0.	-3534.9
376	8.6034	5.2727	0.	-3573.4
377	8.6034	5.0909	0.	-3617.4
378	8.6034	4.9091	0.	-3665.6
379	8.6034	4.7273	0.	-3716.6
380	8.6034	4.5455	0.	-3768.8
381	8.6034	4.3636	0.	-3820.4
382	8.6034	4.1818	0.	-3869.9
383	8.6034	4.	0.	-3915.7
384	8.6034	3.8182	0.	-3956.5
385	8.6034	3.6364	0.	-3991.
386	8.6034	3.4545	0.	-4018.
387	8.6034	3.2727	0.	-4036.6
388	8.6034	3.0909	0.	-4046.1
389	8.6034	2.9091	0.	-4046.1
390	8.6034	2.7273	0.	-4036.6
391	8.6034	2.5455	0.	-4018.
392	8.6034	2.3636	0.	-3991.
393	8.6034	2.1818	0.	-3956.5
394	8.6034	2.	0.	-3915.7
395	8.6034	1.8182	0.	-3869.9
396	8.6034	1.6364	0.	-3820.4
397	8.6034	1.4545	0.	-3768.8
398	8.6034	1.2727	0.	-3716.6
399	8.6034	1.0909	0.	-3665.6
400	8.6034	0.90909	0.	-3617.4
401	8.6034	0.72727	0.	-3573.4
402	8.6034	0.54545	0.	-3534.9
403	8.6034	0.36364	0.	-3503.
404	8.6034	0.18182	0.	-3477.9
405	8.4203	5.8182	0.	-3595.4
406	8.4203	5.6364	0.	-3615.5
407	8.4203	5.4545	0.	-3641.
408	8.4203	5.2727	0.	-3671.6
409	8.4203	5.0909	0.	-3706.2
410	8.4203	4.9091	0.	-3743.8
411	8.4203	4.7273	0.	-3783.4
412	8.4203	4.5455	0.	-3823.7
413	8.4203	4.3636	0.	-3863.4
414	8.4203	4.1818	0.	-3901.3
415	8.4203	4.	0.	-3936.3
416	8.4203	3.8182	0.	-3967.3
417	8.4203	3.6364	0.	-3993.4
418	8.4203	3.4545	0.	-4013.8
419	8.4203	3.2727	0.	-4027.8
420	8.4203	3.0909	0.	-4035.
421	8.4203	2.9091	0.	-4035.
422	8.4203	2.7273	0.	-4027.8
423	8.4203	2.5455	0.	-4013.8
424	8.4203	2.3636	0.	-3993.4
425	8.4203	2.1818	0.	-3967.3
426	8.4203	2.	0.	-3936.3
427	8.4203	1.8182	0.	-3901.3
428	8.4203	1.6364	0.	-3863.4
429	8.4203	1.4545	0.	-3823.7
430	8.4203	1.2727	0.	-3783.4
431	8.4203	1.0909	0.	-3743.8
432	8.4203	0.90909	0.	-3706.2
433	8.4203	0.72727	0.	-3671.6
434	8.4203	0.54545	0.	-3641.
435	8.4203	0.36364	0.	-3615.5
436	8.4203	0.18182	0.	-3595.4
437	8.2373	5.8182	0.	-3700.7
438	8.2373	5.6364	0.	-3716.6
439	8.2373	5.4545	0.	-3736.7
440	8.2373	5.2727	0.	-3760.7
441	8.2373	5.0909	0.	-3787.6
442	8.2373	4.9091	0.	-3816.8
443	8.2373	4.7273	0.	-3847.3
444	8.2373	4.5455	0.	-3878.2
445	8.2373	4.3636	0.	-3908.5
446	8.2373	4.1818	0.	-3937.3
447	8.2373	4.	0.	-3963.8
448	8.2373	3.8182	0.	-3987.2
449	8.2373	3.6364	0.	-4006.9
450	8.2373	3.4545	0.	-4022.2
451	8.2373	3.2727	0.	-4032.7
452	8.2373	3.0909	0.	-4038.
453	8.2373	2.9091	0.	-4038.
454	8.2373	2.7273	0.	-4032.7
455	8.2373	2.5455	0.	-4022.2
456	8.2373	2.3636	0.	-4006.9
457	8.2373	2.1818	0.	-3987.2
458	8.2373	2.	0.	-3963.8
459	8.2373	1.8182	0.	-3937.3
460	8.2373	1.6364	0.	-3908.5
461	8.2373	1.4545	0.	-3878.2
462	8.2373	1.2727	0.	-3847.3
463	8.2373	1.0909	0.	-3816.8
464	8.2373	0.90909	0.	-3787.6
465	8.2373	0.72727	0.	-3760.7
466	8.2373	0.54545	0.	-3736.7
467	8.2373	0.36364	0.	-3716.6
468	8.2373	0.18182	0.	-3700.7
469	8.0542	5.8182	0.	-3796.3
470	8.0542	5.6364	0.	-3808.5
471	8.0542	5.4545	0.	-3824.1
472	8.0542	5.2727	0.	-3842.6
473	8.0542	5.0909	0.	-3863.3
474	8.0542	4.9091	0.	-3885.6
475	8.0542	4.7273	0.	-3908.9
476	8.0542	4.5455	0.	-3932.3
477	8.0542	4.3636	0.	-3955.2
478	8.0542	4.1818	0.	-3976.9
479	8.0542	4.	0.	-3996.8
480	8.0542	3.8182	0.	-4014.3
481	8.0542	3.6364	0.	-4029.
482	8.0542	3.4545	0.	-4040.4
483	8.0542	3.2727	0.	-4048.1
484	8.0542	3.0909	0.	-4052.1
485	8.0542	2.9091	0.	-4052.1
486	8.0542	2.7273	0.	-4048.1
487	8.0542	2.5455	0.	-4040.4
488	8.0542	2.3636	0.	-4029.
489	8.0542	2.1818	0.	-4014.3
490	8.0542	2.	0.	-3996.8
491	8.0542	1.8182	0.	-3976.9
492	8.0542	1.6364	0.	-3955.2
493	8.0542	1.4545	0.	-3932.3
494	8.0542	1.2727	0.	-3908.9
495	8.0542	1.0909	0.	-3885.6
496	8.0542	0.90909	0.	-3863.3
497	8.0542	0.72727	0.	-3842.6
498	8.0542	0.54545	0.	-3824.1
499	8.0542	0.36364	0.	-3808.5
500	8.0542	0.18182	0.	-3796.3
501	7.8712	5.8182	0.	-3884.1
502	7.8712	5.6364	0.	-3893.1
503	7.8712	5.4545	0.	-3904.9
504	7.8712	5.2727	0.	-3918.8
505	7.8712	5.0909	0.	-3934.5
506	7.8712	4.9091	0.	-3951.3
507	7.8712	4.7273	0.	-3968.7
508	7.8712	4.5455	0.	-3986.2
509	7.8712	4.3636	0.	-4003.3
510	7.8712	4.1818	0.	-4019.4
511	7.8712	4.	0.	-4034.1
512	7.8712	3.8182	0.	-4047.1
513	7.8712	3.6364	0.	-4057.8
514	7.8712	3.4545	0.	-4066.2
515	7.8712	3.2727	0.	-4071.9
516	7.8712	3.0909	0.	-4074.8
517	7.8712	2.9091	0.	-4074.8
518	7.8712	2.7273	0.	-4071.9
519	7.8712	2.5455	0.	-4066.2
520	7.8712	2.3636	0.	-4057.8
521	7.8712	2.1818	0.	-4047.1
522	7.8712	2.	0.	-4034.1
523	7.8712	1.8182	0.	-4019.4
524	7.8712	1.6364	0.	-4003.3
525	7.8712	1.4545	0.	-3986.2
526	7.8712	1.2727	0.	-3968.7
527	7.8712	1.0909	0.	-3951.3
528	7.8712	0.90909	0.	-3934.5
529	7.8712	0.72727	0.	-3918.8
530	7.8712	0.54545	0.	-3904.9
531	7.8712	0.36364	0.	-3893.1
532	7.8712	0.18182	0.	-3884.1
533	7.6881	5.8182	0.	-3965.5
534	7.6881	5.6364	0.	-3971.9
535	7.6881	5.4545	0.	-3980.4
536	7.6881	5.2727	0.	-3990.7
537	7.6881	5.0909	0.	-4002.2
538	7.6881	4.9091	0.	-4014.5
539	7.6881	4.7273	0.	-4027.3
540	7.6881	4.5455	0.	-4040.1
541	7.6881	4.3636	0.	-4052.5
542	7.6881	4.1818	0.	-4064.2
543	7.6881	4.	0.	-4074.9
544	7.6881	3.8182	0.	-4084.2
545	7.6881	3.6364	0.	-4092.
546	7.6881	3.4545	0.	-4098.
547	7.6881	3.2727	0.	-4102.1
548	7.6881	3.0909	0.	-4104.1
549	7.6881	2.9091	0.	-4104.1
550	7.6881	2.7273	0.	-4102.1
551	7.6881	2.5455	0.	-4098.
552	7.6881	2.3636	0.	-4092.
553	7.6881	2.1818	0.	-4084.2
554	7.6881	2.	0.	-4074.9
555	7.6881	1.8182	0.	-4064.2
556	7.6881	1.6364	0.	-4052.5
557	7.6881	1.4545	0.	-4040.1
558	7.6881	1.2727	0.	-4027.3
559	7.6881	1.0909	0.	-4014.5
560	7.6881	0.90909	0.	-4002.2
561	7.6881	0.72727	0.	-3990.7
562	7.6881	0.54545	0.	-3980.4
563	7.6881	0.36364	0.	-3971.9
564	7.6881	0.18182	0.	-3965.5
565	7.5051	5.8182	0.	-4042.
566	7.5051	5.6364	0.	-4046.1
567	7.5051	5.4545	0.	-4051.9
568	7.5051	5.2727	0.	-4059.1
569	7.5051	5.0909	0.	-4067.1
570	7.5051	4.9091	0.	-4075.9
571	7.5051	4.7273	0.	-4084.9
572	7.5051	4.5455	0.	-4093.9
573	7.5051	4.3636	0.	-4102.7
574	7.5051	4.1818	0.	-4110.9
575	7.5051	4.	0.	-4118.4
576	7.5051	3.8182	0.	-4124.9
577	7.5051	3.6364	0.	-4130.3
578	7.5051	3.4545	0.	-4134.5
579	7.5051	3.2727	0.	-4137.3
580	7.5051	3.0909	0.	-4138.7
581	7.5051	2.9091	0.	-4138.7
582	7.5051	2.7273	0.	-4137.3
583	7.5051	2.5455	0.	-4134.5
584	7.5051	2.3636	0.	-4130.3
585	7.5051	2.1818	0.	-4124.9
586	7.5051	2.	0.	-4118.4
587	7.5051	1.8182	0.	-4110.9
588	7.5051	1.6364	0.	-4102.7
589	7.5051	1.4545	0.	-4093.9
590	7.5051	1.2727	0.	-4084.9
591	7.5051	1.0909	0.	-4075.9
592	7.5051	0.90909	0.	-4067.1
593	7.5051	0.72727	0.	-4059.1
594	7.5051	0.54545	0.	-4051.9
595	7.5051	0.36364	0.	-4046.1
596	7.5051	0.18182	0.	-4042.
597	7.322	5.8182	0.	-4114.6
598	7.322	5.6364	0.	-4116.7
599	7.322	5.4545	0.	-4120.2
600	7.322	5.2727	0.	-4124.8
601	7.322	5.0909	0.	-4130.1
602	7.322	4.9091	0.	-4135.8
603	7.322	4.7273	0.	-4141.8
604	7.322	4.5455	0.	-4147.8
605	7.322	4.3636	0.	-4153.6
606	7.322	4.1818	0.	-4159.1
607	7.322	4.	0.	-4164.
608	7.322	3.8182	0.	-4168.3
609	7.322	3.6364	0.	-4171.9
610	7.322	3.4545	0.	-4174.6
611	7.322	3.2727	0.	-4176.5
612	7.322	3.0909	0.	-4177.4
613	7.322	2.9091	0.	-4177.4
614	7.322	2.7273	0.	-4176.5
615	7.322	2.5455	0.	-4174.6
616	7.322	2.3636	0.	-4171.9
617	7.322	2.1818	0.	-4168.3
618	7.322	2.	0.	-4164.
619	7.322	1.8182	0.	-4159.1
620	7.322	1.6364	0.	-4153.6
621	7.322	1.4545	0.	-4147.8
622	7.322	1.2727	0.	-4141.8
623	7.322	1.0909	0.	-4135.8
624	7.322	0.90909	0.	-4130.1
625	7.322	0.72727	0.	-4124.8
626	7.322	0.54545	0.	-4120.2
627	7.322	0.36364	0.	-4116.7
628	7.322	0.18182	0.	-4114.6
629	7.139	5.8182	0.	-4184.1
630	7.139	5.6364	0.	-4184.5
631	7.139	5.4545	0.	-4186.1
632	7.139	5.2727	0.	-4188.5
633	7.139	5.0909	0.	-4191.4
634	7.139	4.9091	0.	-4194.8
635	7.139	4.7273	0.	-4198.3
636	7.139	4.5455	0.	-4201.8
637	7.139	4.3636	0.	-4205.3
638	7.139	4.1818	0.	-4208.5
639	7.139	4.	0.	-4211.4
640	7.139	3.8182	0.	-4214.
641	7.139	3.6364	0.	-4216.1
642	7.139	3.4545	0.	-4217.7
643	7.139	3.2727	0.	-4218.8
644	7.139	3.0909	0.	-4219.3
645	7.139	2.9091	0.	-4219.3
646	7.139	2.7273	0.	-4218.8
647	7.139	2.5455	0.	-4217.7
648	7.139	2.3636	0.	-4216.1
649	7.139	2.1818	0.	-4214.
650	7.139	2.	0.	-4211.4
651	7.139	1.8182	0.	-4208.5
652	7.139	1.6364	0.	-4205.3
653	7.139	1.4545	0.	-4201.8
654	7.139	1.2727	0.	-4198.3
655	7.139	1.0909	0.	-4194.8
656	7.139	0.90909	0.	-4191.4
657	7.139	0.72727	0.	-4188.5
658	7.139	0.54545	0.	-4186.1
659	7.139	0.36364	0.	-4184.5
660	7.139	0.18182	0.	-4184.1
661	6.9559	5.8182	0.	-4251.3
662	6.9559	5.6364	0.	-4250.3
663	6.9559	5.4545	0.	-4250.2
664	6.9559	5.2727	0.	-4250.7
665	6.9559	5.0909	0.	-4251.7
666	6.9559	4.9091	0.	-4252.9
667	6.9559	4.7273	0.	-4254.4
668	6.9559	4.5455	0.	-4255.9
669	6.9559	4.3636	0.	-4257.5
670	6.9559	4.1818	0.	-4258.9
671	6.9559	4.	0.	-4260.2
672	6.9559	3.8182	0.	-4261.4
673	6.9559	3.6364	0.	-4262.3
674	6.9559	3.4545	0.	-4263.
675	6.9559	3.2727	0.	-4263.5
676	6.9559	3.0909	0.	-4263.8
677	6.9559	2.9091	0.	-4263.8
678	6.9559	2.7273	0.	-4263.5
679	6.9559	2.5455	0.	-4263.
680	6.9559	2.3636	0.	-4262.3
681	6.9559	2.1818	0.	-4261.4
682	6.9559	2.	0.	-4260.2
683	6.9559	1.8182	0.	-4258.9
684	6.9559	1.6364	0.	-4257.5
685	6.9559	1.4545	0.	-4255.9
686	6.9559	1.2727	0.	-4254.4
687	6.9559	1.0909	0.	-4252.9
688	6.9559	0.90909	0.	-4251.7
689	6.9559	0.72727	0.	-4250.7
690	6.9559	0.54545	0.	-4250.2
691	6.9559	0.36364	0.	-4250.3
692	6.9559	0.18182	0.	-4251.3
693	6.7729	5.8182	0.	-4316.8
694	6.7729	5.6364	0.	-4314.4
695	6.7729	5.4545	0.	-4312.9
696	6.7729	5.2727	0.	-4311.8
697	6.7729	5.0909	0.	-4311.1
698	6.7729	4.9091	0.	-4310.6
699	6.7729	4.7273	0.	-4310.4
700	6.7729	4.5455	0.	-4310.2
701	6.7729	4.3636	0.	-4310.2
702	6.7729	4.1818	0.	-4310.2
703	6.7729	4.	0.	-4310.1
704	6.7729	3.8182	0.	-4310.1
705	6.7729	3.6364	0.	-4310.1
706	6.7729	3.4545	0.	-4310.1
707	6.7729	3.2727	0.	-4310.1
708	6.7729	3.0909	0.	-4310.1
709	6.7729	2.9091	0.	-4310.1
710	6.7729	2.7273	0.	-4310.1
711	6.7729	2.5455	0.	-4310.1
712	6.7729	2.3636	0.	-4310.1
713	6.7729	2.1818	0.	-4310.1
714	6.7729	2.	0.	-4310.1
715	6.7729	1.8182	0.	-4310.2
716	6.7729	1.6364	0.	-4310.2
717	6.7729	1.4545	0.	-4310.2
718	6.7729	1.2727	0.	-4310.4
719	6.7729	1.0909	0.	-4310.6
720	6.7729	0.90909	0.	-4311.1
721	6.7729	0.72727	0.	-4311.8
722	6.7729	0.54545	0.	-4312.9
723	6.7729	0.36364	0.	-4314.4
724	6.7729	0.18182	0.	-4316.8
725	6.5898	5.8182	0.	-4381.
726	6.5898	5.6364	0.	-4377.4
727	6.5898	5.4545	0.	-4374.6
728	6.5898	5.2727	0.	-4372.1
729	6.5898	5.0909	0.	-4369.9
730	6.5898	4.9091	0.	-4368.
731	6.5898	4.7273	0.	-4366.3
732	6.5898	4.5455	0.	-4364.7
733	6.5898	4.3636	0.	-4363.3
734	6.5898	4.1818	0.	-4362.1
735	6.5898	4.	0.	-4361.
736	6.5898	3.8182	0.	-4360.
737	6.5898	3.6364	0.	-4359.2
738	6.5898	3.4545	0.	-4358.6
739	6.5898	3.2727	0.	-4358.2
740	6.5898	3.0909	0.	-4358.
741	6.5898	2.9091	0.	-4358.
742	6.5898	2.7273	0.	-4358.2
743	6.5898	2.5455	0.	-4358.6
744	6.5898	2.3636	0.	-4359.2
745	6.5898	2.1818	0.	-4360.
746	6.5898	2.	0.	-4361.
747	6.5898	1.8182	0.	-4362.1
748	6.5898	1.6364	0.	-4363.3
749	6.5898	1.4545	0.	-4364.7
750	6.5898	1.2727	0.	-4366.3
751	6.5898	1.0909	0.	-4368.
752	6.5898	0.90909	0.	-4369.9
753	6.5898	0.72727	0.	-4372.1
754	6.5898	0.54545	0.	-4374.6
755	6.5898	0.36364	0.	-4377.4
756	6.5898	0.18182	0.	-4381.
757	6.4068	5.8182	0.	-4444.2
758	6.4068	5.6364	0.	-4439.6
759	6.4068	5.4545	0.	-4435.5
760	6.4068	5.2727	0.	-4431.8
761	6.4068	5.0909	0.	-4428.4
762	6.4068	4.9091	0.	-4425.2
763	6.4068	4.7273	0.	-4422.2
764	6.4068	4.5455	0.	-4419.4
765	6.4068	4.3636	0.	-4416.9
766	6.4068	4.1818	0.	-4414.6
767	6.4068	4.	0.	-4412.5
768	6.4068	3.8182	0.	-4410.8
769	6.4068	3.6364	0.	-4409.3
770	6.4068	3.4545	0.	-4408.2
771	6.4068	3.2727	0.	-4407.4
772	6.4068	3.0909	0.	-4407.1
773	6.4068	2.9091	0.	-4407.1
774	6.4068	2.7273	0.	-4407.4
775	6.4068	2.5455	0.	-4408.2
776	6.4068	2.3636	0.	-4409.3
777	6.4068	2.1818	0.	-4410.8
778	6.4068	2.	0.	-4412.5
779	6.4068	1.8182	0.	-4414.6
780	6.4068	1.6364	0.	-4416.9
781	6.4068	1.4545	0.	-4419.4
782	6.4068	1.2727	0.	-4422.2
783	6.4068	1.0909	0.	-4425.2
784	6.4068	0.90909	0.	-4428.4
785	6.4068	0.72727	0.	-4431.8
786	6.4068	0.54545	0.	-4435.5
787	6.4068	0.36364	0.	-4439.6
788	6.4068	0.18182	0.	-4444.2
789	6.2237	5.8182	0.	-4506.9
790	6.2237	5.6364	0.	-4501.2
791	6.2237	5.4545	0.	-4496.1
792	6.2237	5.2727	0.	-4491.2
793	6.2237	5.0909	0.	-4486.6
794	6.2237	4.9091	0.	-4482.3
795	6.2237	4.7273	0.	-4478.1
796	6.2237	4.5455	0.	-4474.3
797	6.2237	4.3636	0.	-4470.7
798	6.2237	4.1818	0.	-4467.5
799	6.2237	4.	0.	-4464.7
800	6.2237	3.8182	0.	-4462.2
801	6.2237	3.6364	0.	-4460.2
802	6.2237	3.4545	0.	-4458.6
803	6.2237	3.2727	0.	-4457.6
804	6.2237	3.0909	0.	-4457.1
805	6.2237	2.9091	0.	-4457.1
806	6.2237	2.7273	0.	-4457.6
807	6.2237	2.5455	0.	-4458.6
808	6.2237	2.3636	0.	-4460.2
809	6.2237	2.1818	0.	-4462.2
810	6.2237	2.	0.	-4464.7
811	6.2237	1.8182	0.	-4467.5
812	6.2237	1.6364	0.	-4470.7
813	6.2237	1.4545	0.	-4474.3
814	6.2237	1.2727	0.	-4478.1
815	6.2237	1.0909	0.	-4482.3
816	6.2237	0.90909	0.	-4486.6
817	6.2237	0.72727	0.	-4491.2
818	6.2237	0.54545	0.	-4496.1
819	6.2237	0.36364	0.	-4501.2
820	6.2237	0.18182	0.	-4506.9
821	6.0407	5.8182	0.	-4569.2
822	6.0407	5.6364	0.	-4562.6
823	6.0407	5.4545	0.	-4556.4
824	6.0407	5.2727	0.	-4550.5
825	6.0407	5.0909	0.	-4544.8
826	6.0407	4.9091	0.	-4539.4
827	6.0407	4.7273	0.	-4534.2
828	6.0407	4.5455	0.	-4529.4
829	6.0407	4.3636	0.	-4524.9
830	6.0407	4.1818	0.	-4520.9
831	6.0407	4.	0.	-4517.3
832	6.0407	3.8182	0.	-4514.2
833	6.0407	3.6364	0.	-4511.7
834	6.0407	3.4545	0.	-4509.8
835	6.0407	3.2727	0.	-4508.4
836	6.0407	3.0909	0.	-4507.8
837	6.0407	2.9091	0.	-4507.8
838	6.0407	2.7273	0.	-4508.4
839	6.0407	2.5455	0.	-4509.8
840	6.0407	2.3636	0.	-4511.7
841	6.0407	2.1818	0.	-4514.2
842	6.0407	2.	0.	-4517.3
843	6.0407	1.8182	0.	-4520.9
844	6.0407	1.6364	0.	-4524.9
845	6.0407	1.4545	0.	-4529.4
846	6.0407	1.2727	0.	-4534.2
847	6.0407	1.0909	0.	-4539.4
848	6.0407	0.90909	0.	-4544.8
849	6.0407	0.72727	0.	-4550.5
850	6.0407	0.54545	0.	-4556.4
851	6.0407	0.36364	0.	-4562.6
852	6.0407	0.18182	0.	-4569.2
853	5.8576	5.8182	0.	-4631.3
854	5.8576	5.6364	0.	-4623.7
855	5.8576	5.4545	0.	-4616.6
856	5.8576	5.2727	0.	-4609.7
857	5.8576	5.0909	0.	-4603.
858	5.8576	4.9091	0.	-4596.6
859	5.8576	4.7273	0.	-4590.5
860	5.8576	4.5455	0.	-4584.7
861	5.8576	4.3636	0.	-4579.4
862	5.8576	4.1818	0.	-4574.6
863	5.8576	4.	0.	-4570.3
864	5.8576	3.8182	0.	-4566.7
865	5.8576	3.6364	0.	-4563.7
866	5.8576	3.4545	0.	-4561.4
867	5.8576	3.2727	0.	-4559.9
868	5.8576	3.0909	0.	-4559.1
869	5.8576	2.9091	0.	-4559.1
870	5.8576	2.7273	0.	-4559.9
871	5.8576	2.5455	0.	-4561.4
872	5.8576	2.3636	0.	-4563.7
873	5.8576	2.1818	0.	-4566.7
874	5.8576	2.	0.	-4570.3
875	5.8576	1.8182	0.	-4574.6
876	5.8576	1.6364	0.	-4579.4
877	5.8576	1.4545	0.	-4584.7
878	5.8576	1.2727	0.	-4590.5
879	5.8576	1.0909	0.	-4596.6
880	5.8576	0.90909	0.	-4603.
881	5.8576	0.72727	0.	-4609.7
882	5.8576	0.54545	0.	-4616.6
883	5.8576	0.36364	0.	-4623.7
884	5.8576	0.18182	0.	-4631.3
885	5.6746	5.8182	0.	-4693.4
886	5.6746	5.6364	0.	-4684.9
887	5.6746	5.4545	0.	-4676.8
888	5.6746	5.2727	0.	-4668.9
889	5.6746	5.0909	0.	-4661.3
890	5.6746	4.9091	0.	-4653.9
891	5.6746	4.7273	0.	-4646.9
892	5.6746	4.5455	0.	-4640.3
893	5.6746	4.3636	0.	-4634.2
894	5.6746	4.1818	0.	-4628.6
895	5.6746	4.	0.	-4623.7
896	5.6746	3.8182	0.	-4619.5
897	5.6746	3.6364	0.	-4616.1
898	5.6746	3.4545	0.	-4613.5
899	5.6746	3.2727	0.	-4611.7
900	5.6746	3.0909	0.	-4610.8
901	5.6746	2.9091	0.	-4610.8
902	5.6746	2.7273	0.	-4611.7
903	5.6746	2.5455	0.	-4613.5
904	5.6746	2.3636	0.	-4616.1
905	5.6746	2.1818	0.	-4619.5
906	5.6746	2.	0.	-4623.7
907	5.6746	1.8182	0.	-4628.6
908	5.6746	1.6364	0.	-4634.2
909	5.6746	1.4545	0.	-4640.3
910	5.6746	1.2727	0.	-4646.9
911	5.6746	1.0909	0.	-4653.9
912	5.6746	0.90909	0.	-4661.3
913	5.6746	0.72727	0.	-4668.9
914	5.6746	0.54545	0.	-4676.8
915	5.6746	0.36364	0.	-4684.9
916	5.6746	0.18182	0.	-4693.4
917	5.4915	5.8182	0.	-4755.7
918	5.4915	5.6364	0.	-4746.3
919	5.4915	5.4545	0.	-4737.2
920	5.4915	5.2727	0.	-4728.3
921	5.4915	5.0909	0.	-4719.7
922	5.4915	4.9091	0.	-4711.4
923	5.4915	4.7273	0.	-4703.5
924	5.4915	4.5455	0.	-4696.1
925	5.4915	4.3636	0.	-4689.2
926	5.4915	4.1818	0.	-4683.
927	5.4915	4.	0.	-4677.4
928	5.4915	3.8182	0.	-4672.7
929	5.4915	3.6364	0.	-4668.8
930	5.4915	3.4545	0.	-4665.9
931	5.4915	3.2727	0.	-4663.9
932	5.4915	3.0909	0.	-4662.9
933	5.4915	2.9091	0.	-4662.9
934	5.4915	2.7273	0.	-4663.9
935	5.4915	2.5455	0.	-4665.9
936	5.4915	2.3636	0.	-4668.8
937	5.4915	2.1818	0.	-4672.7
938	5.4915	2.	0.	-4677.4
939	5.4915	1.8182	0.	-4683.
940	5.4915	1.6364	0.	-4689.2
941	5.4915	1.4545	0.	-4696.1
942	5.4915	1.2727	0.	-4703.5
943	5.4915	1.0909	0.	-4711.4
944	5.4915	0.90909	0.	-4719.7
945	5.4915	0.72727	0.	-4728.3
946	5.4915	0.54545	0.	-4737.2
947	5.4915	0.36364	0.	-4746.3
948	5.4915	0.18182	0.	-4755.7
949	5.3085	5.8182	0.	-4818.2
950	5.3085	5.6364	0.	-4807.8
951	5.3085	5.4545	0.	-4797.8
952	5.3085	5.2727	0.	-4787.9
953	5.3085	5.0909	0.	-4778.4
954	5.3085	4.9091	0.	-4769.1
955	5.3085	4.7273	0.	-4760.4
956	5.3085	4.5455	0.	-4752.1
957	5.3085	4.3636	0.	-4744.4
958	5.3085	4.1818	0.	-4737.5
959	5.3085	4.	0.	-4731.4
960	5.3085	3.8182	0.	-4726.1
961	5.3085	3.6364	0.	-4721.9
962	5.3085	3.4545	0.	-4718.6
963	5.3085	3.2727	0.	-4716.4
964	5.3085	3.0909	0.	-4715.3
965	5.3085	2.9091	0.	-4715.3
966	5.3085	2.7273	0.	-4716.4
967	5.3085	2.5455	0.	-4718.6
968	5.3085	2.3636	0.	-4721.9
969	5.3085	2.1818	0.	-4726.1
970	5.3085	2.	0.	-4731.4
971	5.3085	1.8182	0.	-4737.5
972	5.3085	1.6364	0.	-4744.4
973	5.3085	1.4545	0.	-4752.1
974	5.3085	1.2727	0.	-4760.4
975	5.3085	1.0909	0.	-4769.1
976	5.3085	0.90909	0.	-4778.4
977	5.3085	0.72727	0.	-4787.9
978	5.3085	0.54545	0.	-4797.8
979	5.3085	0.36364	0.	-4807.8
980	5.3085	0.18182	0.	-4818.2
981	5.1254	5.8182	0.	-4881.
982	5.1254	5.6364	0.	-4869.7
983	5.1254	5.4545	0.	-4858.7
984	5.1254	5.2727	0.	-4847.8
985	5.1254	5.0909	0.	-4837.3
986	5.1254	4.9091	0.	-4827.1
987	5.1254	4.7273	0.	-4817.5
988	5.1254	4.5455	0.	-4808.4
989	5.1254	4.3636	0.	-4800.
990	5.1254	4.1818	0.	-4792.3
991	5.1254	4.	0.	-4785.6
992	5.1254	3.8182	0.	-4779.8
993	5.1254	3.6364	0.	-4775.1
994	5.1254	3.4545	0.	-4771.5
995	5.1254	3.2727	0.	-4769.1
996	5.1254	3.0909	0.	-4767.9
997	5.1254	2.9091	0.	-4767.9
998	5.1254	2.7273	0.	-4769.1
999	5.1254	2.5455	0.	-4771.5
1000	5.1254	2.3636	0.	-4775.1
1001	5.1254	2.1818	0.	-4779.8
1002	5.1254	2.	0.	-4785.6
1003	5.1254	1.8182	0.	-4792.3
1004	5.1254	1.6364	0.	-4800.
1005	5.1254	1.4545	0.	-4808.4
1006	5.1254	1.2727	0.	-4817.5
1007	5.1254	1.0909	0.	-4827.1
1008	5.1254	0.90909	0.	-4837.3
1009	5.1254	0.72727	0.	-4847.8
1010	5.1254	0.54545	0.	-4858.7
1011	5.1254	0.36364	0.	-4869.7
1012	5.1254	0.18182	0.	-4881.
1013	4.9424	5.8182	0.	-4944.3
1014	4.9424	5.6364	0.	-4931.9
1015	4.9424	5.4545	0.	-4919.9
1016	4.9424	5.2727	0.	-4908.1
1017	4.9424	5.0909	0.	-4896.5
1018	4.9424	4.9091	0.	-4885.4
1019	4.9424	4.7273	0.	-4874.8
1020	4.9424	4.5455	0.	-4864.9
1021	4.9424	4.3636	0.	-4855.7
1022	4.9424	4.1818	0.	-4847.4
1023	4.9424	4.	0.	-4840.
1024	4.9424	3.8182	0.	-4833.7
1025	4.9424	3.6364	0.	-4828.6
1026	4.9424	3.4545	0.	-4824.7
1027	4.9424	3.2727	0.	-4822.1
1028	4.9424	3.0909	0.	-4820.7
1029	4.9424	2.9091	0.	-4820.7
1030	4.9424	2.7273	0.	-4822.1
1031	4.9424	2.5455	0.	-4824.7
1032	4.9424	2.3636	0.	-4828.6
1033	4.9424	2.1818	0.	-4833.7
1034	4.9424	2.	0.	-4840.
1035	4.9424	1.8182	0.	-4847.4
1036	4.9424	1.6364	0.	-4855.7
1037	4.9424	1.4545	0.	-4864.9
1038	4.9424	1.2727	0.	-4874.8
1039	4.9424	1.0909	0.	-4885.4
1040	4.9424	0.90909	0.	-4896.5
1041	4.9424	0.72727	0.	-4908.1
1042	4.9424	0.54545	0.	-4919.9
1043	4.9424	0.36364	0.	-4931.9
1044	4.9424	0.18182	0.	-4944.3
1045	4.7593	5.8182	0.	-5008.1
1046	4.7593	5.6364	0.	-4994.5
1047	4.7593	5.4545	0.	-4981.5
1048	4.7593	5.2727	0.	-4968.6
1049	4.7593	5.0909	0.	-4956.1
1050	4.7593	4.9091	0.	-4944.
1051	4.7593	4.7273	0.	-4932.5
1052	4.7593	4.5455	0.	-4921.7
1053	4.7593	4.3636	0.	-4911.7
1054	4.7593	4.1818	0.	-4902.7
1055	4.7593	4.	0.	-4894.7
1056	4.7593	3.8182	0.	-4887.9
1057	4.7593	3.6364	0.	-4882.3
1058	4.7593	3.4545	0.	-4878.1
1059	4.7593	3.2727	0.	-4875.2
1060	4.7593	3.0909	0.	-4873.8
1061	4.7593	2.9091	0.	-4873.8
1062	4.7593	2.7273	0.	-4875.2
1063	4.7593	2.5455	0.	-4878.1
1064	4.7593	2.3636	0.	-4882.3
1065	4.7593	2.1818	0.	-4887.9
1066	4.7593	2.	0.	-4894.7
1067	4.7593	1.8182	0.	-4902.7
1068	4.7593	1.6364	0.	-4911.7
1069	4.7593	1.4545	0.	-4921.7
1070	4.7593	1.2727	0.	-4932.5
1071	4.7593	1.0909	0.	-4944.
1072	4.7593	0.90909	0.	-4956.1
1073	4.7593	0.72727	0.	-4968.6
1074	4.7593	0.54545	0.	-4981.5
1075	4.7593	0.36364	0.	-4994.5
1076	4.7593	0.18182	0.	-5008.1
1077	4.5763	5.8182	0.	-5072.4
1078	4.5763	5.6364	0.	-5057.6
1079	4.5763	5.4545	0.	-5043.5
1080	4.5763	5.2727	0.	-5029.6
1081	4.5763	5.0909	0.	-5016.
1082	4.5763	4.9091	0.	-5002.9
1083	4.5763	4.7273	0.	-4990.5
1084	4.5763	4.5455	0.	-4978.8
1085	4.5763	4.3636	0.	-4968.
1086	4.5763	4.1818	0.	-4958.2
1087	4.5763	4.	0.	-4949.6
1088	4.5763	3.8182	0.	-4942.3
1089	4.5763	3.6364	0.	-4936.3
1090	4.5763	3.4545	0.	-4931.7
1091	4.5763	3.2727	0.	-4928.7
1092	4.5763	3.0909	0.	-4927.1
1093	4.5763	2.9091	0.	-4927.1
1094	4.5763	2.7273	0.	-4928.7
1095	4.5763	2.5455	0.	-4931.7
1096	4.5763	2.3636	0.	-4936.3
1097	4.5763	2.1818	0.	-4942.3
1098	4.5763	2.	0.	-4949.6
1099	4.5763	1.8182	0.	-4958.2
1100	4.5763	1.6364	0.	-4968.
1101	4.5763	1.4545	0.	-4978.8
1102	4.5763	1.2727	0.	-4990.5
1103	4.5763	1.0909	0.	-5002.9
1104	4.5763	0.90909	0.	-5016.
1105	4.5763	0.72727	0.	-5029.6
1106	4.5763	0.54545	0.	-5043.5
1107	4.5763	0.36364	0.	-5057.6
1108	4.5763	0.18182	0.	-5072.4
1109	4.3932	5.8182	0.	-5137.2
1110	4.3932	5.6364	0.	-5121.2
1111	4.3932	5.4545	0.	-5105.9
1112	4.3932	5.2727	0.	-5090.9
1113	4.3932	5.0909	0.	-5076.2
1114	4.3932	4.9091	0.	-5062.1
1115	4.3932	4.7273	0.	-5048.7
1116	4.3932	4.5455	0.	-5036.1
1117	4.3932	4.3636	0.	-5024.5
1118	4.3932	4.1818	0.	-5014.1
1119	4.3932	4.	0.	-5004.8
1120	4.3932	3.8182	0.	-4997.
1121	4.3932	3.6364	0.	-4990.5
1122	4.3932	3.4545	0.	-4985.6
1123	4.3932	3.2727	0.	-4982.4
1124	4.3932	3.0909	0.	-4980.7
1125	4.3932	2.9091	0.	-4980.7
1126	4.3932	2.7273	0.	-4982.4
1127	4.3932	2.5455	0.	-4985.6
1128	4.3932	2.3636	0.	-4990.5
1129	4.3932	2.1818	0.	-4997.
1130	4.3932	2.	0.	-5004.8
1131	4.3932	1.8182	0.	-5014.1
1132	4.3932	1.6364	0.	-5024.5
1133	4.3932	1.4545	0.	-5036.1
1134	4.3932	1.2727	0.	-5048.7
1135	4.3932	1.0909	0.	-5062.1
1136	4.3932	0.90909	0.	-5076.2
1137	4.3932	0.72727	0.	-5090.9
1138	4.3932	0.54545	0.	-5106.
1139	4.3932	0.36364	0.	-5121.2
1140	4.3932	0.18182	0.	-5137.2
1141	4.2102	5.8182	0.	-5202.6
1142	4.2102	5.6364	0.	-5185.2
1143	4.2102	5.4545	0.	-5168.8
1144	4.2102	5.2727	0.	-5152.6
1145	4.2102	5.0909	0.	-5136.8
1146	4.2102	4.9091	0.	-5121.7
1147	4.2102	4.7273	0.	-5107.3
1148	4.2102	4.5455	0.	-5093.8
1149	4.2102	4.3636	0.	-5081.4
1150	4.2102	4.1818	0.	-5070.2
1151	4.2102	4.	0.	-5060.3
1152	4.2102	3.8182	0.	-5051.9
1153	4.2102	3.6364	0.	-5045.1
1154	4.2102	3.4545	0.	-5039.9
1155	4.2102	3.2727	0.	-5036.4
1156	4.2102	3.0909	0.	-5034.6
1157	4.2102	2.9091	0.	-5034.6
1158	4.2102	2.7273	0.	-5036.4
1159	4.2102	2.5455	0.	-5039.9
1160	4.2102	2.3636	0.	-5045.1
1161	4.2102	2.1818	0.	-5051.9
1162	4.2102	2.	0.	-5060.3
1163	4.2102	1.8182	0.	-5070.2
1164	4.2102	1.6364	0.	-5081.4
1165	4.2102	1.4545	0.	-5093.8
1166	4.2102	1.2727	0.	-5107.3
1167	4.2102	1.0909	0.	-5121.7
1168	4.2102	0.90909	0.	-5136.8
1169	4.2102	0.72727	0.	-5152.6
1170	4.2102	0.54545	0.	-5168.8
1171	4.2102	0.36364	0.	-5185.2
1172	4.2102	0.18182	0.	-5202.6
1173	4.0271	5.8182	0.	-5268.6
1174	4.0271	5.6364	0.	-5249.7
1175	4.0271	5.4545	0.	-5232.1
1176	4.0271	5.2727	0.	-5214.7
1177	4.0271	5.0909	0.	-5197.8
1178	4.0271	4.9091	0.	-5181.5
1179	4.0271	4.7273	0.	-5166.2
1180	4.0271	4.5455	0.	-5151.8
1181	4.0271	4.3636	0.	-5138.6
1182	4.0271	4.1818	0.	-5126.7
1183	4.0271	4.	0.	-5116.2
1184	4.0271	3.8182	0.	-5107.3
1185	4.0271	3.6364	0.	-5100.1
1186	4.0271	3.4545	0.	-5094.6
1187	4.0271	3.2727	0.	-5090.9
1188	4.0271	3.0909	0.	-5089.1
1189	4.0271	2.9091	0.	-5089.1
1190	4.0271	2.7273	0.	-5090.9
1191	4.0271	2.5455	0.	-5094.6
1192	4.0271	2.3636	0.	-5100.1
1193	4.0271	2.1818	0.	-5107.3
1194	4.0271	2.	0.	-5116.2
1195	4.0271	1.8182	0.	-5126.7
1196	4.0271	1.6364	0.	-5138.6
1197	4.0271	1.4545	0.	-5151.8
1198	4.0271	1.2727	0.	-5166.2
1199	4.0271	1.0909	0.	-5181.5
1200	4.0271	0.90909	0.	-5197.8
1201	4.0271	0.72727	0.	-5214.7
1202	4.0271	0.54545	0.	-5232.1
1203	4.0271	0.36364	0.	-5249.7
1204	4.0271	0.18182	0.	-5268.6
1205	3.8441	5.8182	0.	-5335.1
1206	3.8441	5.6364	0.	-5314.6
1207	3.8441	5.4545	0.	-5295.7
1208	3.8441	5.2727	0.	-5277.
1209	3.8441	5.0909	0.	-5259.
1210	3.8441	4.9091	0.	-5241.7
1211	3.8441	4.7273	0.	-5225.3
1212	3.8441	4.5455	0.	-5210.1
1213	3.8441	4.3636	0.	-5196.1
1214	3.8441	4.1818	0.	-5183.6
1215	3.8441	4.	0.	-5172.5
1216	3.8441	3.8182	0.	-5163.2
1217	3.8441	3.6364	0.	-5155.6
1218	3.8441	3.4545	0.	-5149.9
1219	3.8441	3.2727	0.	-5146.
1220	3.8441	3.0909	0.	-5144.1
1221	3.8441	2.9091	0.	-5144.1
1222	3.8441	2.7273	0.	-5146.
1223	3.8441	2.5455	0.	-5149.9
1224	3.8441	2.3636	0.	-5155.6
1225	3.8441	2.1818	0.	-5163.2
1226	3.8441	2.	0.	-5172.5
1227	3.8441	1.8182	0.	-5183.6
1228	3.8441	1.6364	0.	-5196.1
1229	3.8441	1.4545	0.	-5210.1
1230	3.8441	1.2727	0.	-5225.3
1231	3.8441	1.0909	0.	-5241.7
1232	3.8441	0.90909	0.	-5259.
1233	3.8441	0.72727	0.	-5277.
1234	3.8441	0.54545	0.	-5295.7
1235	3.8441	0.36364	0.	-5314.6
1236	3.8441	0.18182	0.	-5335.1
1237	3.661	5.8182	0.	-5402.
1238	3.661	5.6364	0.	-5379.8
1239	3.661	5.4545	0.	-5359.5
1240	3.661	5.2727	0.	-5339.7
1241	3.661	5.0909	0.	-5320.5
1242	3.661	4.9091	0.	-5302.1
1243	3.661	4.7273	0.	-5284.8
1244	3.661	4.5455	0.	-5268.7
1245	3.661	4.3636	0.	-5254.
1246	3.661	4.1818	0.	-5240.9
1247	3.661	4.	0.	-5229.4
1248	3.661	3.8182	0.	-5219.7
1249	3.661	3.6364	0.	-5211.9
1250	3.661	3.4545	0.	-5205.9
1251	3.661	3.2727	0.	-5201.9
1252	3.661	3.0909	0.	-5199.9
1253	3.661	2.9091	0.	-5199.9
1254	3.661	2.7273	0.	-5201.9
1255	3.661	2.5455	0.	-5205.9
1256	3.661	2.3636	0.	-5211.9
1257	3.661	2.1818	0.	-5219.7
1258	3.661	2.	0.	-5229.4
1259	3.661	1.8182	0.	-5240.9
1260	3.661	1.6364	0.	-5254.
1261	3.661	1.4545	0.	-5268.7
1262	3.661	1.2727	0.	-5284.8
1263	3.661	1.0909	0.	-5302.1
1264	3.661	0.90909	0.	-5320.5
1265	3.661	0.72727	0.	-5339.7
1266	3.661	0.54545	0.	-5359.5
1267	3.661	0.36364	0.	-5379.8
1268	3.661	0.18182	0.	-5402.
1269	3.478	5.8182	0.	-5469.3
1270	3.478	5.6364	0.	-5445.3
1271	3.478	5.4545	0.	-5423.6
1272	3.478	5.2727	0.	-5402.4
1273	3.478	5.0909	0.	-5382.1
1274	3.478	4.9091	0.	-5362.7
1275	3.478	4.7273	0.	-5344.5
1276	3.478	4.5455	0.	-5327.7
1277	3.478	4.3636	0.	-5312.4
1278	3.478	4.1818	0.	-5298.8
1279	3.478	4.	0.	-5287.
1280	3.478	3.8182	0.	-5277.
1281	3.478	3.6364	0.	-5269.
1282	3.478	3.4545	0.	-5262.9
1283	3.478	3.2727	0.	-5258.8
1284	3.478	3.0909	0.	-5256.8
1285	3.478	2.9091	0.	-5256.8
1286	3.478	2.7273	0.	-5258.8
1287	3.478	2.5455	0.	-5262.9
1288	3.478	2.3636	0.	-5269.
1289	3.478	2.1818	0.	-5277.
1290	3.478	2.	0.	-5287.
1291	3.478	1.8182	0.	-5298.8
1292	3.478	1.6364	0.	-5312.4
1293	3.478	1.4545	0.	-5327.7
1294	3.478	1.2727	0.	-5344.5
1295	3.478	1.0909	0.	-5362.7
1296	3.478	0.90909	0.	-5382.1
1297	3.478	0.72727	0.	-5402.4
1298	3.478	0.54545	0.	-5423.6
1299	3.478	0.36364	0.	-5445.3
1300	3.478	0.18182	0.	-5469.3
1301	3.2949	5.8182	0.	-5536.7
1302	3.2949	5.6364	0.	-5510.7
1303	3.2949	5.4545	0.	-5487.6
1304	3.2949	5.2727	0.	-5465.2
1305	3.2949	5.0909	0.	-5443.7
1306	3.2949	4.9091	0.	-5423.4
1307	3.2949	4.7273	0.	-5404.4
1308	3.2949	4.5455	0.	-5387.
1309	3.2949	4.3636	0.	-5371.3
1310	3.2949	4.1818	0.	-5357.4
1311	3.2949	4.	0.	-5345.3
1312	3.2949	3.8182	0.	-5335.3
1313	3.2949	3.6364	0.	-5327.2
1314	3.2949	3.4545	0.	-5321.2
1315	3.2949	3.2727	0.	-5317.1
1316	3.2949	3.0909	0.	-5315.1
1317	3.2949	2.9091	0.	-5315.1
1318	3.2949	2.7273	0.	-5317.1
1319	3.2949	2.5455	0.	-5321.2
1320	3.2949	2.3636	0.	-5327.2
1321	3.2949	2.1818	0.	-5335.3
1322	3.2949	2.	0.	-5345.3
1323	3.2949	1.8182	0.	-5357.4
1324	3.2949	1.6364	0.	-5371.3
1325	3.2949	1.4545	0.	-5387.
1326	3.2949	1.2727	0.	-5404.4
1327	3.2949	1.0909	0.	-5423.4
1328	3.2949	0.90909	0.	-5443.7
1329	3.2949	0.72727	0.	-5465.2
1330	3.2949	0.54545	0.	-5487.6
1331	3.2949	0.36364	0.	-5510.7
1332	3.2949	0.18182	0.	-5536.7
1333	3.1119	5.8182	0.	-5604.1
1334	3.1119	5.6364	0.	-5575.9
1335	3.1119	5.4545	0.	-5551.3
1336	3.1119	5.2727	0.	-5527.7
1337	3.1119	5.0909	0.	-5505.2
1338	3.1119	4.9091	0.	-5484.
1339	3.1119	4.7273	0.	-5464.5
1340	3.1119	4.5455	0.	-5446.7
1341	3.1119	4.3636	0.	-5430.7
1342	3.1119	4.1818	0.	-5416.7
1343	3.1119	4.	0.	-5404.8
1344	3.1119	3.8182	0.	-5394.8
1345	3.1119	3.6364	0.	-5386.9
1346	3.1119	3.4545	0.	-5381.
1347	3.1119	3.2727	0.	-5377.1
1348	3.1119	3.0909	0.	-5375.2
1349	3.1119	2.9091	0.	-5375.2
1350	3.1119	2.7273	0.	-5377.1
1351	3.1119	2.5455	0.	-5381.
1352	3.1119	2.3636	0.	-5386.9
1353	3.1119	2.1818	0.	-5394.8
1354	3.1119	2.	0.	-5404.8
1355	3.1119	1.8182	0.	-5416.7
1356	3.1119	1.6364	0.	-5430.7
1357	3.1119	1.4545	0.	-5446.7
1358	3.1119	1.2727	0.	-5464.5
1359	3.1119	1.0909	0.	-5484.
1360	3.1119	0.90909	0.	-5505.2
1361	3.1119	0.72727	0.	-5527.7
1362	3.1119	0.54545	0.	-5551.3
1363	3.1119	0.36364	0.	-5575.9
1364	3.1119	0.18182	0.	-5604.1
1365	2.9288	5.8182	0.	-5671.
1366	2.9288	5.6364	0.	-5640.4
1367	2.9288	5.4545	0.	-5614.4
1368	2.9288	5.2727	0.	-5589.6
1369	2.9288	5.0909	0.	-5566.2
1370	2.9288	4.9091	0.	-5544.5
1371	2.9288	4.7273	0.	-5524.6
1372	2.9288	4.5455	0.	-5506.6
1373	2.9288	4.3636	0.	-5490.8
1374	2.9288	4.1818	0.	-5477.1
1375	2.9288	4.	0.	-5465.5
1376	2.9288	3.8182	0.	-5456.
1377	2.9288	3.6364	0.	-5448.5
1378	2.9288	3.4545	0.	-5443.
1379	2.9288	3.2727	0.	-5439.4
1380	2.9288	3.0909	0.	-5437.6
1381	2.9288	2.9091	0.	-5437.6
1382	2.9288	2.7273	0.	-5439.4
1383	2.9288	2.5455	0.	-5443.
1384	2.9288	2.3636	0.	-5448.5
1385	2.9288	2.1818	0.	-5456.
1386	2.9288	2.	0.	-5465.5
1387	2.9288	1.8182	0.	-5477.1
1388	2.9288	1.6364	0.	-5490.8
1389	2.9288	1.4545	0.	-5506.6
1390	2.9288	1.2727	0.	-5524.6
1391	2.9288	1.0909	0.	-5544.5
1392	2.9288	0.90909	0.	-5566.2
1393	2.9288	0.72727	0.	-5589.6
1394	2.9288	0.54545	0.	-5614.4
1395	2.9288	0.36364	0.	-5640.4
1396	2.9288	0.18182	0.	-5671.
1397	2.7458	5.8182	0.	-5737.
1398	2.7458	5.6364	0.	-5703.9
1399	2.7458	5.4545	0.	-5676.5
1400	2.7458	5.2727	0.	-5650.6
1401	2.7458	5.0909	0.	-5626.5
1402	2.7458	4.9091	0.	-5604.4
1403	2.7458	4.7273	0.	-5584.5
1404	2.7458	4.5455	0.	-5566.8
1405	2.7458	4.3636	0.	-5551.5
1406	2.7458	4.1818	0.	-5538.6
1407	2.7458	4.	0.	-5527.8
1408	2.7458	3.8182	0.	-5519.2
1409	2.7458	3.6364	0.	-5512.5
1410	2.7458	3.4545	0.	-5507.7
1411	2.7458	3.2727	0.	-5504.5
1412	2.7458	3.0909	0.	-5503.
1413	2.7458	2.9091	0.	-5503.
1414	2.7458	2.7273	0.	-5504.5
1415	2.7458	2.5455	0.	-5507.7
1416	2.7458	2.3636	0.	-5512.5
1417	2.7458	2.1818	0.	-5519.2
1418	2.7458	2.	0.	-5527.8
1419	2.7458	1.8182	0.	-5538.6
1420	2.7458	1.6364	0.	-5551.5
1421	2.7458	1.4545	0.	-5566.8
1422	2.7458	1.2727	0.	-5584.5
1423	2.7458	1.0909	0.	-5604.4
1424	2.7458	0.90909	0.	-5626.5
1425	2.7458	0.72727	0.	-5650.6
1426	2.7458	0.54545	0.	-5676.5
1427	2.7458	0.36364	0.	-5703.9
1428	2.7458	0.18182	0.	-5737.
1429	2.5627	5.8182	0.	-5801.5
1430	2.5627	5.6364	0.	-5765.7
1431	2.5627	5.4545	0.	-5736.9
1432	2.5627	5.2727	0.	-5710.2
1433	2.5627	5.0909	0.	-5685.7
1434	2.5627	4.9091	0.	-5663.6
1435	2.5627	4.7273	0.	-5644.1
1436	2.5627	4.5455	0.	-5627.3
1437	2.5627	4.3636	0.	-5613.2
1438	2.5627	4.1818	0.	-5601.5
1439	2.5627	4.	0.	-5592.2
1440	2.5627	3.8182	0.	-5585.
1441	2.5627	3.6364	0.	-5579.6
1442	2.5627	3.4545	0.	-5575.8
1443	2.5627	3.2727	0.	-5573.4
1444	2.5627	3.0909	0.	-5572.2
1445	2.5627	2.9091	0.	-5572.2
1446	2.5627	2.7273	0.	-5573.4
1447	2.5627	2.5455	0.	-5575.8
1448	2.5627	2.3636	0.	-5579.6
1449	2.5627	2.1818	0.	-5585.
1450	2.5627	2.	0.	-5592.2
1451	2.5627	1.8182	0.	-5601.5
1452	2.5627	1.6364	0.	-5613.2
1453	2.5627	1.4545	0.	-5627.3
1454	2.5627	1.2727	0.	-5644.1
1455	2.5627	1.0909	0.	-5663.6
1456	2.5627	0.90909	0.	-5685.7
1457	2.5627	0.72727	0.	-5710.2
1458	2.5627	0.54545	0.	-5736.9
1459	2.5627	0.36364	0.	-5765.7
1460	2.5627	0.18182	0.	-5801.5
1461	2.3797	5.8182	0.	-5863.6
1462	2.3797	5.6364	0.	-5824.9
1463	2.3797	5.4545	0.	-5794.8
1464	2.3797	5.2727	0.	-5767.5
1465	2.3797	5.0909	0.	-5743.
1466	2.3797	4.9091	0.	-5721.5
1467	2.3797	4.7273	0.	-5703.2
1468	2.3797	4.5455	0.	-5688.
1469	2.3797	4.3636	0.	-5675.8
1470	2.3797	4.1818	0.	-5666.3
1471	2.3797	4.	0.	-5659.2
1472	2.3797	3.8182	0.	-5654.1
1473	2.3797	3.6364	0.	-5650.5
1474	2.3797	3.4545	0.	-5648.2
1475	2.3797	3.2727	0.	-5646.8
1476	2.3797	3.0909	0.	-5646.2
1477	2.3797	2.9091	0.	-5646.2
1478	2.3797	2.7273	0.	-5646.8
1479	2.3797	2.5455	0.	-5648.2
1480	2.3797	2.3636	0.	-5650.5
1481	2.3797	2.1818	0.	-5654.1
1482	2.3797	2.	0.	-5659.2
1483	2.3797	1.8182	0.	-5666.3
1484	2.3797	1.6364	0.	-5675.8
1485	2.3797	1.4545	0.	-5688.
1486	2.3797	1.2727	0.	-5703.2
1487	2.3797	1.0909	0.	-5721.5
1488	2.3797	0.90909	0.	-5743.
1489	2.3797	0.72727	0.	-5767.5
1490	2.3797	0.54545	0.	-5794.8
1491	2.3797	0.36364	0.	-5824.9
1492	2.3797	0.18182	0.	-5863.6
1493	2.1966	5.8182	0.	-5922.1
1494	2.1966	5.6364	0.	-5880.3
1495	2.1966	5.4545	0.	-5849.2
1496	2.1966	5.2727	0.	-5821.6
1497	2.1966	5.0909	0.	-5797.7
1498	2.1966	4.9091	0.	-5777.7
1499	2.1966	4.7273	0.	-5761.4
1500	2.1966	4.5455	0.	-5748.9
1501	2.1966	4.3636	0.	-5739.7
1502	2.1966	4.1818	0.	-5733.4
1503	2.1966	4.	0.	-5729.5
1504	2.1966	3.8182	0.	-5727.3
1505	2.1966	3.6364	0.	-5726.3
1506	2.1966	3.4545	0.	-5726.
1507	2.1966	3.2727	0.	-5726.
1508	2.1966	3.0909	0.	-5726.1
1509	2.1966	2.9091	0.	-5726.1
1510	2.1966	2.7273	0.	-5726.
1511	2.1966	2.5455	0.	-5726.
1512	2.1966	2.3636	0.	-5726.3
1513	2.1966	2.1818	0.	-5727.3
1514	2.1966	2.	0.	-5729.5
1515	2.1966	1.8182	0.	-5733.4
1516	2.1966	1.6364	0.	-5739.7
1517	2.1966	1.4545	0.	-5748.9
1518	2.1966	1.2727	0.	-5761.4
1519	2.1966	1.0909	0.	-5777.7
1520	2.1966	0.90909	0.	-5797.7
1521	2.1966	0.72727	0.	-5821.6
1522	2.1966	0.54545	0.	-5849.2
1523	2.1966	0.36364	0.	-5880.3
1524	2.1966	0.18182	0.	-5922.1
1525	2.0136	5.8182	0.	-5975.5
1526	2.0136	5.6364	0.	-5930.3
1527	2.0136	5.4545	0.	-5898.5
1528	2.0136	5.2727	0.	-5871.3
1529	2.0136	5.0909	0.	-5848.9
1530	2.0136	4.9091	0.	-5831.4
1531	2.0136	4.7273	0.	-5818.5
1532	2.0136	4.5455	0.	-5810.
1533	2.0136	4.3636	0.	-5805.3
1534	2.0136	4.1818	0.	-5803.5
1535	2.0136	4.	0.	-5803.9
1536	2.0136	3.8182	0.	-5805.7
1537	2.0136	3.6364	0.	-5808.1
1538	2.0136	3.4545	0.	-5810.5
1539	2.0136	3.2727	0.	-5812.4
1540	2.0136	3.0909	0.	-5813.4
1541	2.0136	2.9091	0.	-5813.4
1542	2.0136	2.7273	0.	-5812.4
1543	2.0136	2.5455	0.	-5810.5
1544	2.0136	2.3636	0.	-5808.1
1545	2.0136	2.1818	0.	-5805.7
1546	2.0136	2.	0.	-5803.9
1547	2.0136	1.8182	0.	-5803.5
1548	2.0136	1.6364	0.	-5805.3
1549	2.0136	1.4545	0.	-5810.
1550	2.0136	1.2727	0.	-5818.5
1551	2.0136	1.0909	0.	-5831.4
1552	2.0136	0.90909	0.	-5848.9
1553	2.0136	0.72727	0.	-5871.3
1554	2.0136	0.54545	0.	-5898.5
1555	2.0136	0.36364	0.	-5930.3
1556	2.0136	0.18182	0.	-5975.5
1557	1.8305	5.8182	0.	-6021.4
1558	1.8305	5.6364	0.	-5972.7
1559	1.8305	5.4545	0.	-5940.7
1560	1.8305	5.2727	0.	-5914.9
1561	1.8305	5.0909	0.	-5895.4
1562	1.8305	4.9091	0.	-5881.9
1563	1.8305	4.7273	0.	-5874.2
1564	1.8305	4.5455	0.	-5871.6
1565	1.8305	4.3636	0.	-5873.1
1566	1.8305	4.1818	0.	-5877.5
1567	1.8305	4.	0.	-5883.8
1568	1.8305	3.8182	0.	-5890.8
1569	1.8305	3.6364	0.	-5897.6
1570	1.8305	3.4545	0.	-5903.3
1571	1.8305	3.2727	0.	-5907.5
1572	1.8305	3.0909	0.	-5909.7
1573	1.8305	2.9091	0.	-5909.7
1574	1.8305	2.7273	0.	-5907.5
1575	1.8305	2.5455	0.	-5903.3
1576	1.8305	2.3636	0.	-5897.6
1577	1.8305	2.1818	0.	-5890.8
1578	1.8305	2.	0.	-5883.8
1579	1.8305	1.8182	0.	-5877.5
1580	1.8305	1.6364	0.	-5873.1
1581	1.8305	1.4545	0.	-5871.6
1582	1.8305	1.2727	0.	-5874.2
1583	1.8305	1.0909	0.	-5881.9
1584	1.8305	0.90909	0.	-5895.4
1585	1.8305	0.72727	0.	-5914.9
1586	1.8305	0.54545	0.	-5940.7
1587	1.8305	0.36364	0.	-5972.7
1588	1.8305	0.18182	0.	-6021.4
1589	1.6475	5.8182	0.	-6056.7
1590	1.6475	5.6364	0.	-6004.5
1591	1.6475	5.4545	0.	-5973.2
1592	1.6475	5.2727	0.	-5950.3
1593	1.6475	5.0909	0.	-5935.4
1594	1.6475	4.9091	0.	-5928.4
1595	1.6475	4.7273	0.	-5928.4
1596	1.6475	4.5455	0.	-5934.1
1597	1.6475	4.3636	0.	-5944.1
1598	1.6475	4.1818	0.	-5956.8
1599	1.6475	4.	0.	-5970.6
1600	1.6475	3.8182	0.	-5984.2
1601	1.6475	3.6364	0.	-5996.4
1602	1.6475	3.4545	0.	-6006.2
1603	1.6475	3.2727	0.	-6013.2
1604	1.6475	3.0909	0.	-6016.8
1605	1.6475	2.9091	0.	-6016.8
1606	1.6475	2.7273	0.	-6013.2
1607	1.6475	2.5455	0.	-6006.2
1608	1.6475	2.3636	0.	-5996.4
1609	1.6475	2.1818	0.	-5984.2
1610	1.6475	2.	0.	-5970.6
1611	1.6475	1.8182	0.	-5956.8
1612	1.6475	1.6364	0.	-5944.1
1613	1.6475	1.4545	0.	-5934.1
1614	1.6475	1.2727	0.	-5928.4
1615	1.6475	1.0909	0.	-5928.4
1616	1.6475	0.90909	0.	-5935.4
1617	1.6475	0.72727	0.	-5950.3
1618	1.6475	0.54545	0.	-5973.2
1619	1.6475	0.36364	0.	-6004.5
1620	1.6475	0.18182	0.	-6056.7
1621	1.4644	5.8182	0.	-6077.1
1622	1.4644	5.6364	0.	-6021.6
1623	1.4644	5.4545	0.	-5992.4
1624	1.4644	5.2727	0.	-5974.5
1625	1.4644	5.0909	0.	-5967.4
1626	1.4644	4.9091	0.	-5970.1
1627	1.4644	4.7273	0.	-5981.2
1628	1.4644	4.5455	0.	-5998.6
1629	1.4644	4.3636	0.	-6020.
1630	1.4644	4.1818	0.	-6043.3
1631	1.4644	4.	0.	-6066.6
1632	1.4644	3.8182	0.	-6088.1
1633	1.4644	3.6364	0.	-6106.7
1634	1.4644	3.4545	0.	-6121.4
1635	1.4644	3.2727	0.	-6131.5
1636	1.4644	3.0909	0.	-6136.7
1637	1.4644	2.9091	0.	-6136.7
1638	1.4644	2.7273	0.	-6131.5
1639	1.4644	2.5455	0.	-6121.4
1640	1.4644	2.3636	0.	-6106.7
1641	1.4644	2.1818	0.	-6088.1
1642	1.4644	2.	0.	-6066.6
1643	1.4644	1.8182	0.	-6043.3
1644	1.4644	1.6364	0.	-6020.
1645	1.4644	1.4545	0.	-5998.6
1646	1.4644	1.2727	0.	-5981.2
1647	1.4644	1.0909	0.	-5970.1
1648	1.4644	0.90909	0.	-5967.4
1649	1.4644	0.72727	0.	-5974.5
1650	1.4644	0.54545	0.	-5992.4
1651	1.4644	0.36364	0.	-6021.6
1652	1.4644	0.18182	0.	-6077.1
1653	1.2814	5.8182	0.	-6076.
1654	1.2814	5.6364	0.	-6017.7
1655	1.2814	5.4545	0.	-5993.2
1656	1.2814	5.2727	0.	-5984.2
1657	1.2814	5.0909	0.	-5989.3
1658	1.2814	4.9091	0.	-6006.8
1659	1.2814	4.7273	0.	-6033.7
1660	1.2814	4.5455	0.	-6067.
1661	1.2814	4.3636	0.	-6103.2
1662	1.2814	4.1818	0.	-6139.8
1663	1.2814	4.	0.	-6174.3
1664	1.2814	3.8182	0.	-6205.1
1665	1.2814	3.6364	0.	-6230.9
1666	1.2814	3.4545	0.	-6250.9
1667	1.2814	3.2727	0.	-6264.5
1668	1.2814	3.0909	0.	-6271.4
1669	1.2814	2.9091	0.	-6271.4
1670	1.2814	2.7273	0.	-6264.5
1671	1.2814	2.5455	0.	-6250.9
1672	1.2814	2.3636	0.	-6230.9
1673	1.2814	2.1818	0.	-6205.1
1674	1.2814	2.	0.	-6174.3
1675	1.2814	1.8182	0.	-6139.8
1676	1.2814	1.6364	0.	-6103.2
1677	1.2814	1.4545	0.	-6067.
1678	1.2814	1.2727	0.	-6033.7
1679	1.2814	1.0909	0.	-6006.8
1680	1.2814	0.90909	0.	-5989.3
1681	1.2814	0.72727	0.	-5984.2
1682	1.2814	0.54545	0.	-5993.2
1683	1.2814	0.36364	0.	-6017.7
1684	1.2814	0.18182	0.	-6076.
1685	1.0983	5.8182	0.	-6043.4
1686	1.0983	5.6364	0.	-5984.1
1687	1.0983	5.4545	0.	-5968.9
1688	1.0983	5.2727	0.	-5975.1
1689	1.0983	5.0909	0.	-6000.
1690	1.0983	4.9091	0.	-6039.5
1691	1.0983	4.7273	0.	-6088.8
1692	1.0983	4.5455	0.	-6143.
1693	1.0983	4.3636	0.	-6197.9
1694	1.0983	4.1818	0.	-6250.2
1695	1.0983	4.	0.	-6297.6
1696	1.0983	3.8182	0.	-6338.5
1697	1.0983	3.6364	0.	-6372.1
1698	1.0983	3.4545	0.	-6397.6
1699	1.0983	3.2727	0.	-6414.7
1700	1.0983	3.0909	0.	-6423.3
1701	1.0983	2.9091	0.	-6423.3
1702	1.0983	2.7273	0.	-6414.7
1703	1.0983	2.5455	0.	-6397.6
1704	1.0983	2.3636	0.	-6372.1
1705	1.0983	2.1818	0.	-6338.5
1706	1.0983	2.	0.	-6297.6
1707	1.0983	1.8182	0.	-6250.2
1708	1.0983	1.6364	0.	-6197.9
1709	1.0983	1.4545	0.	-6143.
1710	1.0983	1.2727	0.	-6088.8
1711	1.0983	1.0909	0.	-6039.5
1712	1.0983	0.90909	0.	-6000.
1713	1.0983	0.72727	0.	-5975.1
1714	1.0983	0.54545	0.	-5968.9
1715	1.0983	0.36364	0.	-5984.1
1716	1.0983	0.18182	0.	-6043.4
1717	0.91525	5.8182	0.	-5962.9
1718	0.91525	5.6364	0.	-5906.7
1719	0.91525	5.4545	0.	-5909.3
1720	0.91525	5.2727	0.	-5942.1
1721	0.91525	5.0909	0.	-5998.6
1722	0.91525	4.9091	0.	-6070.8
1723	0.91525	4.7273	0.	-6150.8
1724	0.91525	4.5455	0.	-6231.6
1725	0.91525	4.3636	0.	-6308.6
1726	0.91525	4.1818	0.	-6378.5
1727	0.91525	4.	0.	-6439.6
1728	0.91525	3.8182	0.	-6490.9
1729	0.91525	3.6364	0.	-6531.9
1730	0.91525	3.4545	0.	-6562.7
1731	0.91525	3.2727	0.	-6583.1
1732	0.91525	3.0909	0.	-6593.3
1733	0.91525	2.9091	0.	-6593.3
1734	0.91525	2.7273	0.	-6583.1
1735	0.91525	2.5455	0.	-6562.7
1736	0.91525	2.3636	0.	-6531.9
1737	0.91525	2.1818	0.	-6490.9
1738	0.91525	2.	0.	-6439.6
1739	0.91525	1.8182	0.	-6378.5
1740	0.91525	1.6364	0.	-6308.6
1741	0.91525	1.4545	0.	-6231.6
1742	0.91525	1.2727	0.	-6150.8
1743	0.91525	1.0909	0.	-6070.8
1744	0.91525	0.90909	0.	-5998.6
1745	0.91525	0.72727	0.	-5942.1
1746	0.91525	0.54545	0.	-5909.3
1747	0.91525	0.36364	0.	-5906.7
1748	0.91525	0.18182	0.	-5962.9
1749	0.7322	5.8182	0.	-5808.8
1750	0.7322	5.6364	0.	-5766.8
1751	0.7322	5.4545	0.	-5805.9
1752	0.7322	5.2727	0.	-5886.7
1753	0.7322	5.0909	0.	-5994.4
1754	0.7322	4.9091	0.	-6114.1
1755	0.7322	4.7273	0.	-6234.
1756	0.7322	4.5455	0.	-6346.6
1757	0.7322	4.3636	0.	-6447.7
1758	0.7322	4.1818	0.	-6535.5
1759	0.7322	4.	0.	-6609.7
1760	0.7322	3.8182	0.	-6670.3
1761	0.7322	3.6364	0.	-6717.8
1762	0.7322	3.4545	0.	-6752.9
1763	0.7322	3.2727	0.	-6776.1
1764	0.7322	3.0909	0.	-6787.5
1765	0.7322	2.9091	0.	-6787.5
1766	0.7322	2.7273	0.	-6776.1
1767	0.7322	2.5455	0.	-6752.9
1768	0.7322	2.3636	0.	-6717.8
1769	0.7322	2.1818	0.	-6670.3
1770	0.7322	2.	0.	-6609.7
1771	0.7322	1.8182	0.	-6535.5
1772	0.7322	1.6364	0.	-6447.7
1773	0.7322	1.4545	0.	-6346.6
1774	0.7322	1.2727	0.	-6234.
1775	0.7322	1.0909	0.	-6114.1
1776	0.7322	0.90909	0.	-5994.4
1777	0.7322	0.72727	0.	-5886.7
1778	0.7322	0.54545	0.	-5805.9
1779	0.7322	0.36364	0.	-5766.8
1780	0.7322	0.18182	0.	-5808.8
1781	0.54915	5.8182	0.	-5522.9
1782	0.54915	5.6364	0.	-5519.3
1783	0.54915	5.4545	0.	-5633.5
1784	0.54915	5.2727	0.	-5801.3
1785	0.54915	5.0909	0.	-5988.8
1786	0.54915	4.9091	0.	-6172.1
1787	0.54915	4.7273	0.	-6338.7
1788	0.54915	4.5455	0.	-6484.2
1789	0.54915	4.3636	0.	-6607.8
1790	0.54915	4.1818	0.	-6710.9
1791	0.54915	4.	0.	-6795.2
1792	0.54915	3.8182	0.	-6862.5
1793	0.54915	3.6364	0.	-6914.4
1794	0.54915	3.4545	0.	-6952.2
1795	0.54915	3.2727	0.	-6976.9
1796	0.54915	3.0909	0.	-6989.1
1797	0.54915	2.9091	0.	-6989.1
1798	0.54915	2.7273	0.	-6976.9
1799	0.54915	2.5455	0.	-6952.2
1800	0.54915	2.3636	0.	-6914.4
1801	0.54915	2.1818	0.	-6862.5
1802	0.54915	2.	0.	-6795.2
1803	0.54915	1.8182	0.	-6710.9
1804	0.54915	1.6364	0.	-6607.8
1805	0.54915	1.4545	0.	-6484.2
1806	0.54915	1.2727	0.	-6338.7
1807	0.54915	1.0909	0.	-6172.1
1808	0.54915	0.90909	0.	-5988.8
1809	0.54915	0.72727	0.	-5801.3
1810	0.54915	0.54545	0.	-5633.5
1811	0.54915	0.36364	0.	-5519.3
1812	0.54915	0.18182	0.	-5522.9
1813	0.3661	5.8182	0.	-5024.5
1814	0.3661	5.6364	0.	-5157.7
1815	0.3661	5.4545	0.	-5454.8
1816	0.3661	5.2727	0.	-5783.8
1817	0.3661	5.0909	0.	-6085.2
1818	0.3661	4.9091	0.	-6341.9
1819	0.3661	4.7273	0.	-6554.
1820	0.3661	4.5455	0.	-6727.
1821	0.3661	4.3636	0.	-6867.
1822	0.3661	4.1818	0.	-6979.7
1823	0.3661	4.	0.	-7069.5
1824	0.3661	3.8182	0.	-7139.7
1825	0.3661	3.6364	0.	-7193.2
1826	0.3661	3.4545	0.	-7231.7
1827	0.3661	3.2727	0.	-7256.6
1828	0.3661	3.0909	0.	-7268.9
1829	0.3661	2.9091	0.	-7268.9
1830	0.3661	2.7273	0.	-7256.6
1831	0.3661	2.5455	0.	-7231.7
1832	0.3661	2.3636	0.	-7193.2
1833	0.3661	2.1818	0.	-7139.7
1834	0.3661	2.	0.	-7069.5
1835	0.3661	1.8182	0.	-6979.7
1836	0.3661	1.6364	0.	-6867.
1837	0.3661	1.4545	0.	-6727.
1838	0.3661	1.2727	0.	-6554.
1839	0.3661	1.0909	0.	-6341.9
1840	0.3661	0.90909	0.	-6085.2
1841	0.3661	0.72727	0.	-5783.8
1842	0.3661	0.54545	0.	-5454.8
1843	0.3661	0.36364	0.	-5157.7
1844	0.3661	0.18182	0.	-5024.5
1845	0.18305	5.8182	0.	-3883.6
1846	0.18305	5.6364	0.	-4488.3
1847	0.18305	5.4545	0.	-5185.
1848	0.18305	5.2727	0.	-5717.1
1849	0.18305	5.0909	0.	-6116.8
1850	0.18305	4.9091	0.	-6417.7
1851	0.18305	4.7273	0.	-6648.
1852	0.18305	4.5455	0.	-6826.6
1853	0.18305	4.3636	0.	-6966.3
1854	0.18305	4.1818	0.	-7075.9
1855	0.18305	4.	0.	-7161.6
1856	0.18305	3.8182	0.	-7227.7
1857	0.18305	3.6364	0.	-7277.5
1858	0.18305	3.4545	0.	-7313.1
1859	0.18305	3.2727	0.	-7336.1
1860	0.18305	3.0909	0.	-7347.4
1861	0.18305	2.9091	0.	-7347.4
1862	0.18305	2.7273	0.	-7336.1
1863	0.18305	2.5455	0.	-7313.1
1864	0.18305	2.3636	0.	-7277.5
1865	0.18305	2.1818	0.	-7227.7
1866	0.18305	2.	0.	-7161.6
1867	0.18305	1.8182	0.	-7075.9
1868	0.18305	1.6364	0.	-6966.3
1869	0.18305	1.4545	0.	-6826.6
1870	0.18305	1.2727	0.	-6648.
1871	0.18305	1.0909	0.	-6417.7
1872	0.18305	0.90909	0.	-6116.8
1873	0.18305	0.72727	0.	-5717.1
1874	0.18305	0.54545	0.	-5185.
1875	0.18305	0.36364	0.	-4488.3
1876	0.18305	0.18182	0.	-3883.6
1877	11.15	5.8182	0.	-537.01
1878	11.334	5.8182	0.	-832.49
1879	11.517	5.8182	0.	-1128.5
1880	11.701	5.8182	0.	-1390.6
1881	11.885	5.8182	0.	-1614.2
1882	12.068	5.8182	0.	-1799.
1883	12.252	5.8182	0.	-1947.1
1884	12.435	5.8182	0.	-2061.9
1885	12.619	5.8182	0.	-2147.5
1886	12.802	5.8182	0.	-2208.2
1887	12.986	5.8182	0.	-2247.9
1888	13.169	5.8182	0.	-2270.3
1889	13.353	5.8182	0.	-2278.5
1890	13.537	5.8182	0.	-2275.2
1891	13.72	5.8182	0.	-2262.7
1892	13.904	5.8182	0.	-2242.8
1893	14.087	5.8182	0.	-2217.
1894	14.271	5.8182	0.	-2186.7
1895	14.454	5.8182	0.	-2152.7
1896	14.638	5.8182	0.	-2116.
1897	14.822	5.8182	0.	-2077.
1898	15.005	5.8182	0.	-2036.5
1899	15.189	5.8182	0.	-1994.7
1900	15.372	5.8182	0.	-1952.
1901	15.556	5.8182	0.	-1908.6
1902	15.739	5.8182	0.	-1864.8
1903	15.923	5.8182	0.	-1820.7
1904	16.107	5.8182	0.	-1776.3
1905	16.29	5.8182	0.	-1731.9
1906	16.474	5.8182	0.	-1687.5
1907	16.657	5.8182	0.	-1643.1
1908	16.841	5.8182	0.	-1598.7
1909	17.024	5.8182	0.	-1554.5
1910	17.208	5.8182	0.	-1510.4
1911	17.392	5.8182	0.	-1466.5
1912	17.575	5.8182	0.	-1422.7
1913	17.759	5.8182	0.	-1379.1
1914	17.942	5.8182	0.	-1335.7
1915	18.126	5.8182	0.	-1292.5
1916	18.309	5.8182	0.	-1249.4
1917	18.493	5.8182	0.	-1206.6
1918	18.677	5.8182	0.	-1163.9
1919	18.86	5.8182	0.	-1121.4
1920	19.044	5.8182	0.	-1079.1
1921	19.227	5.8182	0.	-1037.
1922	19.411	5.8182	0.	-995.02
1923	19.594	5.8182	0.	-953.24
1924	19.778	5.8182	0.	-911.64
1925	19.962	5.8182	0.	-870.2
1926	20.145	5.8182	0.	-828.92
1927	20.329	5.8182	0.	-787.79
1928	20.512	5.8182	0.	-746.82
1929	20.696	5.8182	0.	-706.
1930	20.879	5.8182	0.	-665.32
1931	21.063	5.8182	0.	-624.77
1932	21.246	5.8182	0.	-584.36
1933	21.43	5.8182	0.	-544.08
1934	21.614	5.8182	0.	-503.92
1935	21.797	5.8182	0.	-463.89
1936	21.981	5.8182	0.	-423.98
1937	22.164	5.8182	0.	-384.2
1938	22.348	5.8182	0.	-344.54
1939	22.531	5.8182	0.	-305.01
1940	22.715	5.8182	0.	-265.63
1941	22.899	5.8182	0.	-226.42
1942	23.082	5.8182	0.	-187.41
1943	23.266	5.8182	0.	-148.66
1944	23.449	5.8182	0.	-110.3
1945	23.633	5.8182	0.	-72.578
1946	23.816	5.8182	0.	-36.929
1947	11.15	5.6364	0.	-746.79
1948	11.334	5.6364	0.	-951.21
1949	11.517	5.6364	0.	-1213.1
1950	11.701	5.6364	0.	-1459.5
1951	11.885	5.6364	0.	-1673.4
1952	12.068	5.6364	0.	-1850.2
1953	12.252	5.6364	0.	-1990.9
1954	12.435	5.6364	0.	-2098.8
1955	12.619	5.6364	0.	-2178.
1956	12.802	5.6364	0.	-2233.
1957	12.986	5.6364	0.	-2267.7
1958	13.169	5.6364	0.	-2285.8
1959	13.353	5.6364	0.	-2290.3
1960	13.537	5.6364	0.	-2283.9
1961	13.72	5.6364	0.	-2268.9
1962	13.904	5.6364	0.	-2246.9
1963	14.087	5.6364	0.	-2219.4
1964	14.271	5.6364	0.	-2187.7
1965	14.454	5.6364	0.	-2152.7
1966	14.638	5.6364	0.	-2115.
1967	14.822	5.6364	0.	-2075.4
1968	15.005	5.6364	0.	-2034.3
1969	15.189	5.6364	0.	-1992.1
1970	15.372	5.6364	0.	-1949.1
1971	15.556	5.6364	0.	-1905.5
1972	15.739	5.6364	0.	-1861.5
1973	15.923	5.6364	0.	-1817.2
1974	16.107	5.6364	0.	-1772.7
1975	16.29	5.6364	0.	-1728.2
1976	16.474	5.6364	0.	-1683.7
1977	16.657	5.6364	0.	-1639.3
1978	16.841	5.6364	0.	-1594.9
1979	17.024	5.6364	0.	-1550.7
1980	17.208	5.6364	0.	-1506.5
1981	17.392	5.6364	0.	-1462.6
1982	17.575	5.6364	0.	-1418.8
1983	17.759	5.6364	0.	-1375.2
1984	17.942	5.6364	0.	-1331.8
1985	18.126	5.6364	0.	-1288.5
1986	18.309	5.6364	0.	-1245.4
1987	18.493	5.6364	0.	-1202.6
1988	18.677	5.6364	0.	-1159.9
1989	18.86	5.6364	0.	-1117.4
1990	19.044	5.6364	0.	-1075.1
1991	19.227	5.6364	0.	-1032.9
1992	19.411	5.6364	0.	-990.95
1993	19.594	5.6364	0.	-949.17
1994	19.778	5.6364	0.	-907.55
1995	19.962	5.6364	0.	-866.11
1996	20.145	5.6364	0.	-824.82
1997	20.329	5.6364	0.	-783.7
1998	20.512	5.6364	0.	-742.74
1999	20.696	5.6364	0.	-701.93
2000	20.879	5.6364	0.	-661.27
2001	21.063	5.6364	0.	-620.75
2002	21.246	5.6364	0.	-580.37
2003	21.43	5.6364	0.	-540.14
2004	21.614	5.6364	0.	-500.04
2005	21.797	5.6364	0.	-460.09
2006	21.981	5.6364	0.	-420.27
2007	22.164	5.6364	0.	-380.6
2008	22.348	5.6364	0.	-341.09
2009	22.531	5.6364	0.	-301.74
2010	22.715	5.6364	0.	-262.59
2011	22.899	5.6364	0.	-223.68
2012	23.082	5.6364	0.	-185.07
2013	23.266	5.6364	0.	-146.87
2014	23.449	5.6364	0.	-109.29
2015	23.633	5.6364	0.	-72.706
2016	23.816	5.6364	0.	-37.939
2017	11.15	5.4545	0.	-993.11
2018	11.334	5.4545	0.	-1138.2
2019	11.517	5.4545	0.	-1359.2
2020	11.701	5.4545	0.	-1578.6
2021	11.885	5.4545	0.	-1772.6
2022	12.068	5.4545	0.	-1933.1
2023	12.252	5.4545	0.	-2059.8
2024	12.435	5.4545	0.	-2155.5
2025	12.619	5.4545	0.	-2224.1
2026	12.802	5.4545	0.	-2270.1
2027	12.986	5.4545	0.	-2297.1
2028	13.169	5.4545	0.	-2308.8
2029	13.353	5.4545	0.	-2308.1
2030	13.537	5.4545	0.	-2297.5
2031	13.72	5.4545	0.	-2279.
2032	13.904	5.4545	0.	-2254.2
2033	14.087	5.4545	0.	-2224.5
2034	14.271	5.4545	0.	-2191.
2035	14.454	5.4545	0.	-2154.6
2036	14.638	5.4545	0.	-2115.9
2037	14.822	5.4545	0.	-2075.4
2038	15.005	5.4545	0.	-2033.7
2039	15.189	5.4545	0.	-1991.
2040	15.372	5.4545	0.	-1947.6
2041	15.556	5.4545	0.	-1903.7
2042	15.739	5.4545	0.	-1859.5
2043	15.923	5.4545	0.	-1815.1
2044	16.107	5.4545	0.	-1770.6
2045	16.29	5.4545	0.	-1726.
2046	16.474	5.4545	0.	-1681.5
2047	16.657	5.4545	0.	-1637.
2048	16.841	5.4545	0.	-1592.7
2049	17.024	5.4545	0.	-1548.4
2050	17.208	5.4545	0.	-1504.4
2051	17.392	5.4545	0.	-1460.4
2052	17.575	5.4545	0.	-1416.7
2053	17.759	5.4545	0.	-1373.1
2054	17.942	5.4545	0.	-1329.7
2055	18.126	5.4545	0.	-1286.5
2056	18.309	5.4545	0.	-1243.5
2057	18.493	5.4545	0.	-1200.7
2058	18.677	5.4545	0.	-1158.
2059	18.86	5.4545	0.	-1115.6
2060	19.044	5.4545	0.	-1073.3
2061	19.227	5.4545	0.	-1031.2
2062	19.411	5.4545	0.	-989.29
2063	19.594	5.4545	0.	-947.55
2064	19.778	5.4545	0.	-905.98
2065	19.962	5.4545	0.	-864.59
2066	20.145	5.4545	0.	-823.36
2067	20.329	5.4545	0.	-782.29
2068	20.512	5.4545	0.	-741.39
2069	20.696	5.4545	0.	-700.64
2070	20.879	5.4545	0.	-660.05
2071	21.063	5.4545	0.	-619.6
2072	21.246	5.4545	0.	-579.31
2073	21.43	5.4545	0.	-539.17
2074	21.614	5.4545	0.	-499.17
2075	21.797	5.4545	0.	-459.32
2076	21.981	5.4545	0.	-419.63
2077	22.164	5.4545	0.	-380.1
2078	22.348	5.4545	0.	-340.75
2079	22.531	5.4545	0.	-301.6
2080	22.715	5.4545	0.	-262.67
2081	22.899	5.4545	0.	-224.03
2082	23.082	5.4545	0.	-185.74
2083	23.266	5.4545	0.	-147.91
2084	23.449	5.4545	0.	-110.69
2085	23.633	5.4545	0.	-74.225
2086	23.816	5.4545	0.	-38.767
2087	11.15	5.2727	0.	-1262.9
2088	11.334	5.2727	0.	-1370.2
2089	11.517	5.2727	0.	-1555.8
2090	11.701	5.2727	0.	-1742.9
2091	11.885	5.2727	0.	-1909.2
2092	12.068	5.2727	0.	-2045.9
2093	12.252	5.2727	0.	-2152.
2094	12.435	5.2727	0.	-2230.2
2095	12.619	5.2727	0.	-2284.1
2096	12.802	5.2727	0.	-2317.8
2097	12.986	5.2727	0.	-2334.8
2098	13.169	5.2727	0.	-2338.2
2099	13.353	5.2727	0.	-2330.9
2100	13.537	5.2727	0.	-2314.8
2101	13.72	5.2727	0.	-2292.
2102	13.904	5.2727	0.	-2263.8
2103	14.087	5.2727	0.	-2231.4
2104	14.271	5.2727	0.	-2195.7
2105	14.454	5.2727	0.	-2157.6
2106	14.638	5.2727	0.	-2117.6
2107	14.822	5.2727	0.	-2076.1
2108	15.005	5.2727	0.	-2033.6
2109	15.189	5.2727	0.	-1990.3
2110	15.372	5.2727	0.	-1946.5
2111	15.556	5.2727	0.	-1902.3
2112	15.739	5.2727	0.	-1857.8
2113	15.923	5.2727	0.	-1813.3
2114	16.107	5.2727	0.	-1768.6
2115	16.29	5.2727	0.	-1724.
2116	16.474	5.2727	0.	-1679.5
2117	16.657	5.2727	0.	-1635.
2118	16.841	5.2727	0.	-1590.7
2119	17.024	5.2727	0.	-1546.5
2120	17.208	5.2727	0.	-1502.4
2121	17.392	5.2727	0.	-1458.5
2122	17.575	5.2727	0.	-1414.8
2123	17.759	5.2727	0.	-1371.3
2124	17.942	5.2727	0.	-1328.
2125	18.126	5.2727	0.	-1284.8
2126	18.309	5.2727	0.	-1241.9
2127	18.493	5.2727	0.	-1199.1
2128	18.677	5.2727	0.	-1156.5
2129	18.86	5.2727	0.	-1114.1
2130	19.044	5.2727	0.	-1071.9
2131	19.227	5.2727	0.	-1029.8
2132	19.411	5.2727	0.	-987.96
2133	19.594	5.2727	0.	-946.28
2134	19.778	5.2727	0.	-904.78
2135	19.962	5.2727	0.	-863.45
2136	20.145	5.2727	0.	-822.28
2137	20.329	5.2727	0.	-781.29
2138	20.512	5.2727	0.	-740.46
2139	20.696	5.2727	0.	-699.79
2140	20.879	5.2727	0.	-659.29
2141	21.063	5.2727	0.	-618.94
2142	21.246	5.2727	0.	-578.75
2143	21.43	5.2727	0.	-538.71
2144	21.614	5.2727	0.	-498.84
2145	21.797	5.2727	0.	-459.13
2146	21.981	5.2727	0.	-419.59
2147	22.164	5.2727	0.	-380.22
2148	22.348	5.2727	0.	-341.06
2149	22.531	5.2727	0.	-302.11
2150	22.715	5.2727	0.	-263.41
2151	22.899	5.2727	0.	-225.
2152	23.082	5.2727	0.	-186.95
2153	23.266	5.2727	0.	-149.31
2154	23.449	5.2727	0.	-112.15
2155	23.633	5.2727	0.	-75.432
2156	23.816	5.2727	0.	-39.264
2157	11.15	5.0909	0.	-1568.7
2158	11.334	5.0909	0.	-1647.6
2159	11.517	5.0909	0.	-1801.6
2160	11.701	5.0909	0.	-1952.1
2161	11.885	5.0909	0.	-2082.9
2162	12.068	5.0909	0.	-2187.7
2163	12.252	5.0909	0.	-2266.6
2164	12.435	5.0909	0.	-2321.8
2165	12.619	5.0909	0.	-2356.9
2166	12.802	5.0909	0.	-2375.2
2167	12.986	5.0909	0.	-2379.7
2168	13.169	5.0909	0.	-2373.2
2169	13.353	5.0909	0.	-2357.8
2170	13.537	5.0909	0.	-2335.3
2171	13.72	5.0909	0.	-2307.4
2172	13.904	5.0909	0.	-2275.2
2173	14.087	5.0909	0.	-2239.6
2174	14.271	5.0909	0.	-2201.5
2175	14.454	5.0909	0.	-2161.4
2176	14.638	5.0909	0.	-2119.9
2177	14.822	5.0909	0.	-2077.3
2178	15.005	5.0909	0.	-2033.9
2179	15.189	5.0909	0.	-1990.
2180	15.372	5.0909	0.	-1945.7
2181	15.556	5.0909	0.	-1901.1
2182	15.739	5.0909	0.	-1856.4
2183	15.923	5.0909	0.	-1811.7
2184	16.107	5.0909	0.	-1766.9
2185	16.29	5.0909	0.	-1722.2
2186	16.474	5.0909	0.	-1677.6
2187	16.657	5.0909	0.	-1633.2
2188	16.841	5.0909	0.	-1588.8
2189	17.024	5.0909	0.	-1544.7
2190	17.208	5.0909	0.	-1500.6
2191	17.392	5.0909	0.	-1456.8
2192	17.575	5.0909	0.	-1413.2
2193	17.759	5.0909	0.	-1369.7
2194	17.942	5.0909	0.	-1326.4
2195	18.126	5.0909	0.	-1283.3
2196	18.309	5.0909	0.	-1240.4
2197	18.493	5.0909	0.	-1197.7
2198	18.677	5.0909	0.	-1155.1
2199	18.86	5.0909	0.	-1112.8
2200	19.044	5.0909	0.	-1070.6
2201	19.227	5.0909	0.	-1028.6
2202	19.411	5.0909	0.	-986.83
2203	19.594	5.0909	0.	-945.22
2204	19.778	5.0909	0.	-903.78
2205	19.962	5.0909	0.	-862.52
2206	20.145	5.0909	0.	-821.43
2207	20.329	5.0909	0.	-780.51
2208	20.512	5.0909	0.	-739.77
2209	20.696	5.0909	0.	-699.19
2210	20.879	5.0909	0.	-658.78
2211	21.063	5.0909	0.	-618.54
2212	21.246	5.0909	0.	-578.46
2213	21.43	5.0909	0.	-538.55
2214	21.614	5.0909	0.	-498.81
2215	21.797	5.0909	0.	-459.24
2216	21.981	5.0909	0.	-419.86
2217	22.164	5.0909	0.	-380.66
2218	22.348	5.0909	0.	-341.67
2219	22.531	5.0909	0.	-302.9
2220	22.715	5.0909	0.	-264.39
2221	22.899	5.0909	0.	-226.15
2222	23.082	5.0909	0.	-188.23
2223	23.266	5.0909	0.	-150.63
2224	23.449	5.0909	0.	-113.35
2225	23.633	5.0909	0.	-76.278
2226	23.816	5.0909	0.	-39.516
2227	11.15	4.9091	0.	-1931.8
2228	11.334	4.9091	0.	-1982.5
2229	11.517	4.9091	0.	-2101.7
2230	11.701	4.9091	0.	-2207.3
2231	11.885	4.9091	0.	-2292.7
2232	12.068	4.9091	0.	-2357.
2233	12.252	4.9091	0.	-2401.6
2234	12.435	4.9091	0.	-2428.7
2235	12.619	4.9091	0.	-2441.
2236	12.802	4.9091	0.	-2441.
2237	12.986	4.9091	0.	-2430.9
2238	13.169	4.9091	0.	-2412.8
2239	13.353	4.9091	0.	-2388.2
2240	13.537	4.9091	0.	-2358.5
2241	13.72	4.9091	0.	-2324.8
2242	13.904	4.9091	0.	-2288.1
2243	14.087	4.9091	0.	-2249.
2244	14.271	4.9091	0.	-2208.1
2245	14.454	4.9091	0.	-2165.9
2246	14.638	4.9091	0.	-2122.8
2247	14.822	4.9091	0.	-2078.9
2248	15.005	4.9091	0.	-2034.6
2249	15.189	4.9091	0.	-1989.9
2250	15.372	4.9091	0.	-1945.1
2251	15.556	4.9091	0.	-1900.1
2252	15.739	4.9091	0.	-1855.2
2253	15.923	4.9091	0.	-1810.2
2254	16.107	4.9091	0.	-1765.4
2255	16.29	4.9091	0.	-1720.6
2256	16.474	4.9091	0.	-1676.
2257	16.657	4.9091	0.	-1631.5
2258	16.841	4.9091	0.	-1587.2
2259	17.024	4.9091	0.	-1543.
2260	17.208	4.9091	0.	-1499.
2261	17.392	4.9091	0.	-1455.2
2262	17.575	4.9091	0.	-1411.6
2263	17.759	4.9091	0.	-1368.2
2264	17.942	4.9091	0.	-1325.
2265	18.126	4.9091	0.	-1281.9
2266	18.309	4.9091	0.	-1239.1
2267	18.493	4.9091	0.	-1196.4
2268	18.677	4.9091	0.	-1153.9
2269	18.86	4.9091	0.	-1111.6
2270	19.044	4.9091	0.	-1069.5
2271	19.227	4.9091	0.	-1027.6
2272	19.411	4.9091	0.	-985.87
2273	19.594	4.9091	0.	-944.32
2274	19.778	4.9091	0.	-902.96
2275	19.962	4.9091	0.	-861.77
2276	20.145	4.9091	0.	-820.76
2277	20.329	4.9091	0.	-779.93
2278	20.512	4.9091	0.	-739.27
2279	20.696	4.9091	0.	-698.79
2280	20.879	4.9091	0.	-658.48
2281	21.063	4.9091	0.	-618.35
2282	21.246	4.9091	0.	-578.39
2283	21.43	4.9091	0.	-538.6
2284	21.614	4.9091	0.	-498.99
2285	21.797	4.9091	0.	-459.57
2286	21.981	4.9091	0.	-420.33
2287	22.164	4.9091	0.	-381.28
2288	22.348	4.9091	0.	-342.44
2289	22.531	4.9091	0.	-303.82
2290	22.715	4.9091	0.	-265.44
2291	22.899	4.9091	0.	-227.3
2292	23.082	4.9091	0.	-189.41
2293	23.266	4.9091	0.	-151.75
2294	23.449	4.9091	0.	-114.28
2295	23.633	4.9091	0.	-76.872
2296	23.816	4.9091	0.	-39.641
2297	11.15	4.7273	0.	-2386.2
2298	11.334	4.7273	0.	-2399.5
2299	11.517	4.7273	0.	-2466.3
2300	11.701	4.7273	0.	-2510.
2301	11.885	4.7273	0.	-2536.5
2302	12.068	4.7273	0.	-2550.4
2303	12.252	4.7273	0.	-2553.7
2304	12.435	4.7273	0.	-2547.8
2305	12.619	4.7273	0.	-2534.
2306	12.802	4.7273	0.	-2513.3
2307	12.986	4.7273	0.	-2486.9
2308	13.169	4.7273	0.	-2455.9
2309	13.353	4.7273	0.	-2421.1
2310	13.537	4.7273	0.	-2383.5
2311	13.72	4.7273	0.	-2343.6
2312	13.904	4.7273	0.	-2302.
2313	14.087	4.7273	0.	-2259.1
2314	14.271	4.7273	0.	-2215.3
2315	14.454	4.7273	0.	-2170.9
2316	14.638	4.7273	0.	-2126.
2317	14.822	4.7273	0.	-2080.8
2318	15.005	4.7273	0.	-2035.5
2319	15.189	4.7273	0.	-1990.1
2320	15.372	4.7273	0.	-1944.7
2321	15.556	4.7273	0.	-1899.3
2322	15.739	4.7273	0.	-1854.1
2323	15.923	4.7273	0.	-1808.9
2324	16.107	4.7273	0.	-1763.9
2325	16.29	4.7273	0.	-1719.1
2326	16.474	4.7273	0.	-1674.4
2327	16.657	4.7273	0.	-1629.9
2328	16.841	4.7273	0.	-1585.6
2329	17.024	4.7273	0.	-1541.5
2330	17.208	4.7273	0.	-1497.5
2331	17.392	4.7273	0.	-1453.8
2332	17.575	4.7273	0.	-1410.2
2333	17.759	4.7273	0.	-1366.8
2334	17.942	4.7273	0.	-1323.7
2335	18.126	4.7273	0.	-1280.7
2336	18.309	4.7273	0.	-1237.9
2337	18.493	4.7273	0.	-1195.3
2338	18.677	4.7273	0.	-1152.8
2339	18.86	4.7273	0.	-1110.6
2340	19.044	4.7273	0.	-1068.6
2341	19.227	4.7273	0.	-1026.7
2342	19.411	4.7273	0.	-985.06
2343	19.594	4.7273	0.	-943.58
2344	19.778	4.7273	0.	-902.29
2345	19.962	4.7273	0.	-861.18
2346	20.145	4.7273	0.	-820.25
2347	20.329	4.7273	0.	-779.5
2348	20.512	4.7273	0.	-738.93
2349	20.696	4.7273	0.	-698.55
2350	20.879	4.7273	0.	-658.34
2351	21.063	4.7273	0.	-618.32
2352	21.246	4.7273	0.	-578.47
2353	21.43	4.7273	0.	-538.8
2354	21.614	4.7273	0.	-499.32
2355	21.797	4.7273	0.	-460.02
2356	21.981	4.7273	0.	-420.91
2357	22.164	4.7273	0.	-382.
2358	22.348	4.7273	0.	-343.28
2359	22.531	4.7273	0.	-304.77
2360	22.715	4.7273	0.	-266.46
2361	22.899	4.7273	0.	-228.36
2362	23.082	4.7273	0.	-190.45
2363	23.266	4.7273	0.	-152.68
2364	23.449	4.7273	0.	-115.
2365	23.633	4.7273	0.	-77.29
2366	23.816	4.7273	0.	-39.69
2367	11.15	4.5455	0.	-3006.3
2368	11.334	4.5455	0.	-2934.4
2369	11.517	4.5455	0.	-2909.4
2370	11.701	4.5455	0.	-2859.3
2371	11.885	4.5455	0.	-2809.4
2372	12.068	4.5455	0.	-2762.5
2373	12.252	4.5455	0.	-2718.5
2374	12.435	4.5455	0.	-2675.7
2375	12.619	4.5455	0.	-2633.1
2376	12.802	4.5455	0.	-2589.9
2377	12.986	4.5455	0.	-2546.
2378	13.169	4.5455	0.	-2501.2
2379	13.353	4.5455	0.	-2455.7
2380	13.537	4.5455	0.	-2409.6
2381	13.72	4.5455	0.	-2363.1
2382	13.904	4.5455	0.	-2316.5
2383	14.087	4.5455	0.	-2269.7
2384	14.271	4.5455	0.	-2222.8
2385	14.454	4.5455	0.	-2176.1
2386	14.638	4.5455	0.	-2129.4
2387	14.822	4.5455	0.	-2082.9
2388	15.005	4.5455	0.	-2036.5
2389	15.189	4.5455	0.	-1990.4
2390	15.372	4.5455	0.	-1944.4
2391	15.556	4.5455	0.	-1898.7
2392	15.739	4.5455	0.	-1853.1
2393	15.923	4.5455	0.	-1807.8
2394	16.107	4.5455	0.	-1762.7
2395	16.29	4.5455	0.	-1717.8
2396	16.474	4.5455	0.	-1673.
2397	16.657	4.5455	0.	-1628.5
2398	16.841	4.5455	0.	-1584.2
2399	17.024	4.5455	0.	-1540.1
2400	17.208	4.5455	0.	-1496.2
2401	17.392	4.5455	0.	-1452.5
2402	17.575	4.5455	0.	-1409.
2403	17.759	4.5455	0.	-1365.6
2404	17.942	4.5455	0.	-1322.5
2405	18.126	4.5455	0.	-1279.6
2406	18.309	4.5455	0.	-1236.8
2407	18.493	4.5455	0.	-1194.3
2408	18.677	4.5455	0.	-1151.9
2409	18.86	4.5455	0.	-1109.8
2410	19.044	4.5455	0.	-1067.8
2411	19.227	4.5455	0.	-1026.
2412	19.411	4.5455	0.	-984.38
2413	19.594	4.5455	0.	-942.97
2414	19.778	4.5455	0.	-901.75
2415	19.962	4.5455	0.	-860.71
2416	20.145	4.5455	0.	-819.86
2417	20.329	4.5455	0.	-779.2
2418	20.512	4.5455	0.	-738.72
2419	20.696	4.5455	0.	-698.42
2420	20.879	4.5455	0.	-658.32
2421	21.063	4.5455	0.	-618.39
2422	21.246	4.5455	0.	-578.65
2423	21.43	4.5455	0.	-539.1
2424	21.614	4.5455	0.	-499.73
2425	21.797	4.5455	0.	-460.54
2426	21.981	4.5455	0.	-421.55
2427	22.164	4.5455	0.	-382.73
2428	22.348	4.5455	0.	-344.11
2429	22.531	4.5455	0.	-305.67
2430	22.715	4.5455	0.	-267.4
2431	22.899	4.5455	0.	-229.3
2432	23.082	4.5455	0.	-191.32
2433	23.266	4.5455	0.	-153.42
2434	23.449	4.5455	0.	-115.55
2435	23.633	4.5455	0.	-77.588
2436	23.816	4.5455	0.	-39.695
2437	11.15	4.3636	0.	-3907.9
2438	11.334	4.3636	0.	-3644.1
2439	11.517	4.3636	0.	-3430.
2440	11.701	4.3636	0.	-3247.5
2441	11.885	4.3636	0.	-3102.2
2442	12.068	4.3636	0.	-2986.1
2443	12.252	4.3636	0.	-2890.3
2444	12.435	4.3636	0.	-2808.1
2445	12.619	4.3636	0.	-2735.2
2446	12.802	4.3636	0.	-2668.5
2447	12.986	4.3636	0.	-2606.3
2448	13.169	4.3636	0.	-2547.3
2449	13.353	4.3636	0.	-2490.7
2450	13.537	4.3636	0.	-2436.
2451	13.72	4.3636	0.	-2382.9
2452	13.904	4.3636	0.	-2331.1
2453	14.087	4.3636	0.	-2280.3
2454	14.271	4.3636	0.	-2230.4
2455	14.454	4.3636	0.	-2181.3
2456	14.638	4.3636	0.	-2132.9
2457	14.822	4.3636	0.	-2085.
2458	15.005	4.3636	0.	-2037.7
2459	15.189	4.3636	0.	-1990.8
2460	15.372	4.3636	0.	-1944.3
2461	15.556	4.3636	0.	-1898.1
2462	15.739	4.3636	0.	-1852.3
2463	15.923	4.3636	0.	-1806.8
2464	16.107	4.3636	0.	-1761.5
2465	16.29	4.3636	0.	-1716.6
2466	16.474	4.3636	0.	-1671.8
2467	16.657	4.3636	0.	-1627.3
2468	16.841	4.3636	0.	-1583.
2469	17.024	4.3636	0.	-1538.9
2470	17.208	4.3636	0.	-1495.
2471	17.392	4.3636	0.	-1451.3
2472	17.575	4.3636	0.	-1407.9
2473	17.759	4.3636	0.	-1364.6
2474	17.942	4.3636	0.	-1321.5
2475	18.126	4.3636	0.	-1278.6
2476	18.309	4.3636	0.	-1235.9
2477	18.493	4.3636	0.	-1193.4
2478	18.677	4.3636	0.	-1151.1
2479	18.86	4.3636	0.	-1109.
2480	19.044	4.3636	0.	-1067.1
2481	19.227	4.3636	0.	-1025.4
2482	19.411	4.3636	0.	-983.82
2483	19.594	4.3636	0.	-942.47
2484	19.778	4.3636	0.	-901.31
2485	19.962	4.3636	0.	-860.35
2486	20.145	4.3636	0.	-819.57
2487	20.329	4.3636	0.	-778.99
2488	20.512	4.3636	0.	-738.59
2489	20.696	4.3636	0.	-698.39
2490	20.879	4.3636	0.	-658.37
2491	21.063	4.3636	0.	-618.54
2492	21.246	4.3636	0.	-578.9
2493	21.43	4.3636	0.	-539.44
2494	21.614	4.3636	0.	-500.17
2495	21.797	4.3636	0.	-461.08
2496	21.981	4.3636	0.	-422.18
2497	22.164	4.3636	0.	-383.45
2498	22.348	4.3636	0.	-344.89
2499	22.531	4.3636	0.	-306.49
2500	22.715	4.3636	0.	-268.23
2501	22.899	4.3636	0.	-230.1
2502	23.082	4.3636	0.	-192.04
2503	23.266	4.3636	0.	-154.02
2504	23.449	4.3636	0.	-115.97
2505	23.633	4.3636	0.	-77.8
2506	23.816	4.3636	0.	-39.676
2507	11.15	4.1818	0.	-5685.1
2508	11.334	4.1818	0.	-4551.2
2509	11.517	4.1818	0.	-4007.8
2510	11.701	4.1818	0.	-3654.5
2511	11.885	4.1818	0.	-3402.3
2512	12.068	4.1818	0.	-3212.5
2513	12.252	4.1818	0.	-3063.
2514	12.435	4.1818	0.	-2940.6
2515	12.619	4.1818	0.	-2836.8
2516	12.802	4.1818	0.	-2746.5
2517	12.986	4.1818	0.	-2665.9
2518	13.169	4.1818	0.	-2592.7
2519	13.353	4.1818	0.	-2525.1
2520	13.537	4.1818	0.	-2461.9
2521	13.72	4.1818	0.	-2402.2
2522	13.904	4.1818	0.	-2345.3
2523	14.087	4.1818	0.	-2290.6
2524	14.271	4.1818	0.	-2237.8
2525	14.454	4.1818	0.	-2186.4
2526	14.638	4.1818	0.	-2136.3
2527	14.822	4.1818	0.	-2087.1
2528	15.005	4.1818	0.	-2038.8
2529	15.189	4.1818	0.	-1991.2
2530	15.372	4.1818	0.	-1944.2
2531	15.556	4.1818	0.	-1897.7
2532	15.739	4.1818	0.	-1851.6
2533	15.923	4.1818	0.	-1805.9
2534	16.107	4.1818	0.	-1760.6
2535	16.29	4.1818	0.	-1715.5
2536	16.474	4.1818	0.	-1670.7
2537	16.657	4.1818	0.	-1626.2
2538	16.841	4.1818	0.	-1581.9
2539	17.024	4.1818	0.	-1537.8
2540	17.208	4.1818	0.	-1494.
2541	17.392	4.1818	0.	-1450.3
2542	17.575	4.1818	0.	-1406.9
2543	17.759	4.1818	0.	-1363.6
2544	17.942	4.1818	0.	-1320.6
2545	18.126	4.1818	0.	-1277.8
2546	18.309	4.1818	0.	-1235.1
2547	18.493	4.1818	0.	-1192.7
2548	18.677	4.1818	0.	-1150.4
2549	18.86	4.1818	0.	-1108.4
2550	19.044	4.1818	0.	-1066.5
2551	19.227	4.1818	0.	-1024.8
2552	19.411	4.1818	0.	-983.35
2553	19.594	4.1818	0.	-942.07
2554	19.778	4.1818	0.	-900.98
2555	19.962	4.1818	0.	-860.08
2556	20.145	4.1818	0.	-819.37
2557	20.329	4.1818	0.	-778.86
2558	20.512	4.1818	0.	-738.54
2559	20.696	4.1818	0.	-698.41
2560	20.879	4.1818	0.	-658.48
2561	21.063	4.1818	0.	-618.73
2562	21.246	4.1818	0.	-579.18
2563	21.43	4.1818	0.	-539.81
2564	21.614	4.1818	0.	-500.62
2565	21.797	4.1818	0.	-461.61
2566	21.981	4.1818	0.	-422.78
2567	22.164	4.1818	0.	-384.11
2568	22.348	4.1818	0.	-345.59
2569	22.531	4.1818	0.	-307.21
2570	22.715	4.1818	0.	-268.95
2571	22.899	4.1818	0.	-230.77
2572	23.082	4.1818	0.	-192.63
2573	23.266	4.1818	0.	-154.49
2574	23.449	4.1818	0.	-116.29
2575	23.633	4.1818	0.	-77.952
2576	23.816	4.1818	0.	-39.644
2577	11.15	4.	0.	-7949.5
2578	11.334	4.	0.	-5430.8
2579	11.517	4.	0.	-4583.1
2580	11.701	4.	0.	-4051.8
2581	11.885	4.	0.	-3693.8
2582	12.068	4.	0.	-3431.8
2583	12.252	4.	0.	-3229.9
2584	12.435	4.	0.	-3068.2
2585	12.619	4.	0.	-2934.5
2586	12.802	4.	0.	-2821.1
2587	12.986	4.	0.	-2722.8
2588	13.169	4.	0.	-2635.8
2589	13.353	4.	0.	-2557.6
2590	13.537	4.	0.	-2486.3
2591	13.72	4.	0.	-2420.3
2592	13.904	4.	0.	-2358.6
2593	14.087	4.	0.	-2300.3
2594	14.271	4.	0.	-2244.7
2595	14.454	4.	0.	-2191.2
2596	14.638	4.	0.	-2139.5
2597	14.822	4.	0.	-2089.1
2598	15.005	4.	0.	-2040.
2599	15.189	4.	0.	-1991.7
2600	15.372	4.	0.	-1944.2
2601	15.556	4.	0.	-1897.4
2602	15.739	4.	0.	-1851.
2603	15.923	4.	0.	-1805.2
2604	16.107	4.	0.	-1759.7
2605	16.29	4.	0.	-1714.6
2606	16.474	4.	0.	-1669.7
2607	16.657	4.	0.	-1625.2
2608	16.841	4.	0.	-1580.9
2609	17.024	4.	0.	-1536.9
2610	17.208	4.	0.	-1493.
2611	17.392	4.	0.	-1449.4
2612	17.575	4.	0.	-1406.
2613	17.759	4.	0.	-1362.9
2614	17.942	4.	0.	-1319.9
2615	18.126	4.	0.	-1277.1
2616	18.309	4.	0.	-1234.5
2617	18.493	4.	0.	-1192.1
2618	18.677	4.	0.	-1149.9
2619	18.86	4.	0.	-1107.8
2620	19.044	4.	0.	-1066.
2621	19.227	4.	0.	-1024.4
2622	19.411	4.	0.	-982.98
2623	19.594	4.	0.	-941.75
2624	19.778	4.	0.	-900.71
2625	19.962	4.	0.	-859.87
2626	20.145	4.	0.	-819.23
2627	20.329	4.	0.	-778.78
2628	20.512	4.	0.	-738.53
2629	20.696	4.	0.	-698.47
2630	20.879	4.	0.	-658.61
2631	21.063	4.	0.	-618.94
2632	21.246	4.	0.	-579.45
2633	21.43	4.	0.	-540.16
2634	21.614	4.	0.	-501.04
2635	21.797	4.	0.	-462.09
2636	21.981	4.	0.	-423.31
2637	22.164	4.	0.	-384.69
2638	22.348	4.	0.	-346.2
2639	22.531	4.	0.	-307.82
2640	22.715	4.	0.	-269.54
2641	22.899	4.	0.	-231.32
2642	23.082	4.	0.	-193.1
2643	23.266	4.	0.	-154.86
2644	23.449	4.	0.	-116.53
2645	23.633	4.	0.	-78.06
2646	23.816	4.	0.	-39.607
2647	11.15	3.8182	0.	-8200.7
2648	11.334	3.8182	0.	-6135.7
2649	11.517	3.8182	0.	-5054.8
2650	11.701	3.8182	0.	-4402.9
2651	11.885	3.8182	0.	-3958.3
2652	12.068	3.8182	0.	-3633.1
2653	12.252	3.8182	0.	-3383.8
2654	12.435	3.8182	0.	-3186.
2655	12.619	3.8182	0.	-3024.5
2656	12.802	3.8182	0.	-2889.7
2657	12.986	3.8182	0.	-2774.8
2658	13.169	3.8182	0.	-2675.2
2659	13.353	3.8182	0.	-2587.2
2660	13.537	3.8182	0.	-2508.4
2661	13.72	3.8182	0.	-2436.7
2662	13.904	3.8182	0.	-2370.6
2663	14.087	3.8182	0.	-2309.
2664	14.271	3.8182	0.	-2250.8
2665	14.454	3.8182	0.	-2195.5
2666	14.638	3.8182	0.	-2142.3
2667	14.822	3.8182	0.	-2090.9
2668	15.005	3.8182	0.	-2041.
2669	15.189	3.8182	0.	-1992.1
2670	15.372	3.8182	0.	-1944.2
2671	15.556	3.8182	0.	-1897.1
2672	15.739	3.8182	0.	-1850.5
2673	15.923	3.8182	0.	-1804.5
2674	16.107	3.8182	0.	-1759.
2675	16.29	3.8182	0.	-1713.8
2676	16.474	3.8182	0.	-1668.9
2677	16.657	3.8182	0.	-1624.4
2678	16.841	3.8182	0.	-1580.1
2679	17.024	3.8182	0.	-1536.1
2680	17.208	3.8182	0.	-1492.3
2681	17.392	3.8182	0.	-1448.7
2682	17.575	3.8182	0.	-1405.3
2683	17.759	3.8182	0.	-1362.2
2684	17.942	3.8182	0.	-1319.2
2685	18.126	3.8182	0.	-1276.5
2686	18.309	3.8182	0.	-1233.9
2687	18.493	3.8182	0.	-1191.6
2688	18.677	3.8182	0.	-1149.4
2689	18.86	3.8182	0.	-1107.4
2690	19.044	3.8182	0.	-1065.6
2691	19.227	3.8182	0.	-1024.1
2692	19.411	3.8182	0.	-982.69
2693	19.594	3.8182	0.	-941.5
2694	19.778	3.8182	0.	-900.51
2695	19.962	3.8182	0.	-859.73
2696	20.145	3.8182	0.	-819.14
2697	20.329	3.8182	0.	-778.74
2698	20.512	3.8182	0.	-738.55
2699	20.696	3.8182	0.	-698.55
2700	20.879	3.8182	0.	-658.75
2701	21.063	3.8182	0.	-619.14
2702	21.246	3.8182	0.	-579.71
2703	21.43	3.8182	0.	-540.47
2704	21.614	3.8182	0.	-501.41
2705	21.797	3.8182	0.	-462.52
2706	21.981	3.8182	0.	-423.78
2707	22.164	3.8182	0.	-385.18
2708	22.348	3.8182	0.	-346.71
2709	22.531	3.8182	0.	-308.33
2710	22.715	3.8182	0.	-270.02
2711	22.899	3.8182	0.	-231.75
2712	23.082	3.8182	0.	-193.47
2713	23.266	3.8182	0.	-155.14
2714	23.449	3.8182	0.	-116.72
2715	23.633	3.8182	0.	-78.137
2716	23.816	3.8182	0.	-39.571
2717	11.15	3.6364	0.	-7748.4
2718	11.334	3.6364	0.	-6362.
2719	11.517	3.6364	0.	-5364.9
2720	11.701	3.6364	0.	-4673.7
2721	11.885	3.6364	0.	-4177.2
2722	12.068	3.6364	0.	-3805.1
2723	12.252	3.6364	0.	-3517.2
2724	12.435	3.6364	0.	-3288.5
2725	12.619	3.6364	0.	-3102.9
2726	12.802	3.6364	0.	-2949.3
2727	12.986	3.6364	0.	-2819.9
2728	13.169	3.6364	0.	-2709.1
2729	13.353	3.6364	0.	-2612.6
2730	13.537	3.6364	0.	-2527.3
2731	13.72	3.6364	0.	-2450.7
2732	13.904	3.6364	0.	-2380.9
2733	14.087	3.6364	0.	-2316.4
2734	14.271	3.6364	0.	-2256.1
2735	14.454	3.6364	0.	-2199.1
2736	14.638	3.6364	0.	-2144.8
2737	14.822	3.6364	0.	-2092.5
2738	15.005	3.6364	0.	-2041.8
2739	15.189	3.6364	0.	-1992.5
2740	15.372	3.6364	0.	-1944.3
2741	15.556	3.6364	0.	-1896.8
2742	15.739	3.6364	0.	-1850.1
2743	15.923	3.6364	0.	-1804.
2744	16.107	3.6364	0.	-1758.4
2745	16.29	3.6364	0.	-1713.2
2746	16.474	3.6364	0.	-1668.3
2747	16.657	3.6364	0.	-1623.7
2748	16.841	3.6364	0.	-1579.5
2749	17.024	3.6364	0.	-1535.4
2750	17.208	3.6364	0.	-1491.7
2751	17.392	3.6364	0.	-1448.1
2752	17.575	3.6364	0.	-1404.8
2753	17.759	3.6364	0.	-1361.7
2754	17.942	3.6364	0.	-1318.7
2755	18.126	3.6364	0.	-1276.
2756	18.309	3.6364	0.	-1233.5
2757	18.493	3.6364	0.	-1191.2
2758	18.677	3.6364	0.	-1149.
2759	18.86	3.6364	0.	-1107.1
2760	19.044	3.6364	0.	-1065.3
2761	19.227	3.6364	0.	-1023.8
2762	19.411	3.6364	0.	-982.46
2763	19.594	3.6364	0.	-941.31
2764	19.778	3.6364	0.	-900.37
2765	19.962	3.6364	0.	-859.62
2766	20.145	3.6364	0.	-819.08
2767	20.329	3.6364	0.	-778.73
2768	20.512	3.6364	0.	-738.58
2769	20.696	3.6364	0.	-698.63
2770	20.879	3.6364	0.	-658.88
2771	21.063	3.6364	0.	-619.31
2772	21.246	3.6364	0.	-579.94
2773	21.43	3.6364	0.	-540.75
2774	21.614	3.6364	0.	-501.72
2775	21.797	3.6364	0.	-462.87
2776	21.981	3.6364	0.	-424.16
2777	22.164	3.6364	0.	-385.58
2778	22.348	3.6364	0.	-347.11
2779	22.531	3.6364	0.	-308.73
2780	22.715	3.6364	0.	-270.4
2781	22.899	3.6364	0.	-232.09
2782	23.082	3.6364	0.	-193.76
2783	23.266	3.6364	0.	-155.35
2784	23.449	3.6364	0.	-116.85
2785	23.633	3.6364	0.	-78.19
2786	23.816	3.6364	0.	-39.538
2787	11.15	3.4545	0.	-7185.6
2788	11.334	3.4545	0.	-6324.2
2789	11.517	3.4545	0.	-5508.7
2790	11.701	3.4545	0.	-4851.2
2791	11.885	3.4545	0.	-4338.5
2792	12.068	3.4545	0.	-3938.6
2793	12.252	3.4545	0.	-3623.
2794	12.435	3.4545	0.	-3370.6
2795	12.619	3.4545	0.	-3165.7
2796	12.802	3.4545	0.	-2997.
2797	12.986	3.4545	0.	-2856.
2798	13.169	3.4545	0.	-2736.2
2799	13.353	3.4545	0.	-2632.9
2800	13.537	3.4545	0.	-2542.3
2801	13.72	3.4545	0.	-2461.7
2802	13.904	3.4545	0.	-2388.9
2803	14.087	3.4545	0.	-2322.2
2804	14.271	3.4545	0.	-2260.2
2805	14.454	3.4545	0.	-2202.
2806	14.638	3.4545	0.	-2146.7
2807	14.822	3.4545	0.	-2093.7
2808	15.005	3.4545	0.	-2042.5
2809	15.189	3.4545	0.	-1992.8
2810	15.372	3.4545	0.	-1944.3
2811	15.556	3.4545	0.	-1896.7
2812	15.739	3.4545	0.	-1849.8
2813	15.923	3.4545	0.	-1803.6
2814	16.107	3.4545	0.	-1757.9
2815	16.29	3.4545	0.	-1712.7
2816	16.474	3.4545	0.	-1667.8
2817	16.657	3.4545	0.	-1623.2
2818	16.841	3.4545	0.	-1579.
2819	17.024	3.4545	0.	-1535.
2820	17.208	3.4545	0.	-1491.2
2821	17.392	3.4545	0.	-1447.7
2822	17.575	3.4545	0.	-1404.4
2823	17.759	3.4545	0.	-1361.3
2824	17.942	3.4545	0.	-1318.4
2825	18.126	3.4545	0.	-1275.7
2826	18.309	3.4545	0.	-1233.2
2827	18.493	3.4545	0.	-1190.9
2828	18.677	3.4545	0.	-1148.7
2829	18.86	3.4545	0.	-1106.8
2830	19.044	3.4545	0.	-1065.1
2831	19.227	3.4545	0.	-1023.6
2832	19.411	3.4545	0.	-982.3
2833	19.594	3.4545	0.	-941.18
2834	19.778	3.4545	0.	-900.27
2835	19.962	3.4545	0.	-859.55
2836	20.145	3.4545	0.	-819.04
2837	20.329	3.4545	0.	-778.73
2838	20.512	3.4545	0.	-738.61
2839	20.696	3.4545	0.	-698.7
2840	20.879	3.4545	0.	-658.98
2841	21.063	3.4545	0.	-619.46
2842	21.246	3.4545	0.	-580.12
2843	21.43	3.4545	0.	-540.96
2844	21.614	3.4545	0.	-501.97
2845	21.797	3.4545	0.	-463.14
2846	21.981	3.4545	0.	-424.45
2847	22.164	3.4545	0.	-385.88
2848	22.348	3.4545	0.	-347.42
2849	22.531	3.4545	0.	-309.03
2850	22.715	3.4545	0.	-270.68
2851	22.899	3.4545	0.	-232.33
2852	23.082	3.4545	0.	-193.96
2853	23.266	3.4545	0.	-155.51
2854	23.449	3.4545	0.	-116.94
2855	23.633	3.4545	0.	-78.225
2856	23.816	3.4545	0.	-39.512
2857	11.15	3.2727	0.	-6856.7
2858	11.334	3.2727	0.	-6229.3
2859	11.517	3.2727	0.	-5556.2
2860	11.701	3.2727	0.	-4948.9
2861	11.885	3.2727	0.	-4440.9
2862	12.068	3.2727	0.	-4028.3
2863	12.252	3.2727	0.	-3696.
2864	12.435	3.2727	0.	-3427.8
2865	12.619	3.2727	0.	-3209.7
2866	12.802	3.2727	0.	-3030.4
2867	12.986	3.2727	0.	-2881.1
2868	13.169	3.2727	0.	-2755.
2869	13.353	3.2727	0.	-2646.9
2870	13.537	3.2727	0.	-2552.7
2871	13.72	3.2727	0.	-2469.4
2872	13.904	3.2727	0.	-2394.5
2873	14.087	3.2727	0.	-2326.2
2874	14.271	3.2727	0.	-2263.
2875	14.454	3.2727	0.	-2203.9
2876	14.638	3.2727	0.	-2148.
2877	14.822	3.2727	0.	-2094.5
2878	15.005	3.2727	0.	-2043.
2879	15.189	3.2727	0.	-1993.
2880	15.372	3.2727	0.	-1944.3
2881	15.556	3.2727	0.	-1896.6
2882	15.739	3.2727	0.	-1849.7
2883	15.923	3.2727	0.	-1803.4
2884	16.107	3.2727	0.	-1757.6
2885	16.29	3.2727	0.	-1712.4
2886	16.474	3.2727	0.	-1667.5
2887	16.657	3.2727	0.	-1622.9
2888	16.841	3.2727	0.	-1578.6
2889	17.024	3.2727	0.	-1534.6
2890	17.208	3.2727	0.	-1490.9
2891	17.392	3.2727	0.	-1447.4
2892	17.575	3.2727	0.	-1404.1
2893	17.759	3.2727	0.	-1361.
2894	17.942	3.2727	0.	-1318.1
2895	18.126	3.2727	0.	-1275.4
2896	18.309	3.2727	0.	-1232.9
2897	18.493	3.2727	0.	-1190.7
2898	18.677	3.2727	0.	-1148.6
2899	18.86	3.2727	0.	-1106.7
2900	19.044	3.2727	0.	-1065.
2901	19.227	3.2727	0.	-1023.5
2902	19.411	3.2727	0.	-982.19
2903	19.594	3.2727	0.	-941.1
2904	19.778	3.2727	0.	-900.2
2905	19.962	3.2727	0.	-859.51
2906	20.145	3.2727	0.	-819.02
2907	20.329	3.2727	0.	-778.73
2908	20.512	3.2727	0.	-738.64
2909	20.696	3.2727	0.	-698.75
2910	20.879	3.2727	0.	-659.06
2911	21.063	3.2727	0.	-619.56
2912	21.246	3.2727	0.	-580.24
2913	21.43	3.2727	0.	-541.1
2914	21.614	3.2727	0.	-502.13
2915	21.797	3.2727	0.	-463.32
2916	21.981	3.2727	0.	-424.64
2917	22.164	3.2727	0.	-386.08
2918	22.348	3.2727	0.	-347.62
2919	22.531	3.2727	0.	-309.22
2920	22.715	3.2727	0.	-270.86
2921	22.899	3.2727	0.	-232.49
2922	23.082	3.2727	0.	-194.09
2923	23.266	3.2727	0.	-155.6
2924	23.449	3.2727	0.	-117.
2925	23.633	3.2727	0.	-78.247
2926	23.816	3.2727	0.	-39.494
2927	11.15	3.0909	0.	-6699.8
2928	11.334	3.0909	0.	-6169.4
2929	11.517	3.0909	0.	-5566.1
2930	11.701	3.0909	0.	-4990.5
2931	11.885	3.0909	0.	-4489.6
2932	12.068	3.0909	0.	-4072.9
2933	12.252	3.0909	0.	-3733.1
2934	12.435	3.0909	0.	-3457.2
2935	12.619	3.0909	0.	-3232.4
2936	12.802	3.0909	0.	-3047.7
2937	12.986	3.0909	0.	-2894.1
2938	13.169	3.0909	0.	-2764.7
2939	13.353	3.0909	0.	-2654.1
2940	13.537	3.0909	0.	-2558.1
2941	13.72	3.0909	0.	-2473.3
2942	13.904	3.0909	0.	-2397.3
2943	14.087	3.0909	0.	-2328.2
2944	14.271	3.0909	0.	-2264.5
2945	14.454	3.0909	0.	-2204.9
2946	14.638	3.0909	0.	-2148.6
2947	14.822	3.0909	0.	-2094.9
2948	15.005	3.0909	0.	-2043.2
2949	15.189	3.0909	0.	-1993.1
2950	15.372	3.0909	0.	-1944.3
2951	15.556	3.0909	0.	-1896.5
2952	15.739	3.0909	0.	-1849.6
2953	15.923	3.0909	0.	-1803.2
2954	16.107	3.0909	0.	-1757.5
2955	16.29	3.0909	0.	-1712.2
2956	16.474	3.0909	0.	-1667.3
2957	16.657	3.0909	0.	-1622.7
2958	16.841	3.0909	0.	-1578.5
2959	17.024	3.0909	0.	-1534.5
2960	17.208	3.0909	0.	-1490.7
2961	17.392	3.0909	0.	-1447.2
2962	17.575	3.0909	0.	-1403.9
2963	17.759	3.0909	0.	-1360.9
2964	17.942	3.0909	0.	-1318.
2965	18.126	3.0909	0.	-1275.3
2966	18.309	3.0909	0.	-1232.8
2967	18.493	3.0909	0.	-1190.6
2968	18.677	3.0909	0.	-1148.5
2969	18.86	3.0909	0.	-1106.6
2970	19.044	3.0909	0.	-1064.9
2971	19.227	3.0909	0.	-1023.4
2972	19.411	3.0909	0.	-982.14
2973	19.594	3.0909	0.	-941.05
2974	19.778	3.0909	0.	-900.17
2975	19.962	3.0909	0.	-859.49
2976	20.145	3.0909	0.	-819.01
2977	20.329	3.0909	0.	-778.73
2978	20.512	3.0909	0.	-738.66
2979	20.696	3.0909	0.	-698.78
2980	20.879	3.0909	0.	-659.1
2981	21.063	3.0909	0.	-619.61
2982	21.246	3.0909	0.	-580.3
2983	21.43	3.0909	0.	-541.18
2984	21.614	3.0909	0.	-502.22
2985	21.797	3.0909	0.	-463.41
2986	21.981	3.0909	0.	-424.74
2987	22.164	3.0909	0.	-386.18
2988	22.348	3.0909	0.	-347.72
2989	22.531	3.0909	0.	-309.32
2990	22.715	3.0909	0.	-270.95
2991	22.899	3.0909	0.	-232.57
2992	23.082	3.0909	0.	-194.15
2993	23.266	3.0909	0.	-155.65
2994	23.449	3.0909	0.	-117.03
2995	23.633	3.0909	0.	-78.257
2996	23.816	3.0909	0.	-39.485
2997	11.15	2.9091	0.	-6699.8
2998	11.334	2.9091	0.	-6169.4
2999	11.517	2.9091	0.	-5566.1
3000	11.701	2.9091	0.	-4990.5
3001	11.885	2.9091	0.	-4489.6
3002	12.068	2.9091	0.	-4072.9
3003	12.252	2.9091	0.	-3733.1
3004	12.435	2.9091	0.	-3457.2
3005	12.619	2.9091	0.	-3232.4
3006	12.802	2.9091	0.	-3047.7
3007	12.986	2.9091	0.	-2894.1
3008	13.169	2.9091	0.	-2764.7
3009	13.353	2.9091	0.	-2654.1
3010	13.537	2.9091	0.	-2558.1
3011	13.72	2.9091	0.	-2473.3
3012	13.904	2.9091	0.	-2397.3
3013	14.087	2.9091	0.	-2328.2
3014	14.271	2.9091	0.	-2264.5
3015	14.454	2.9091	0.	-2204.9
3016	14.638	2.9091	0.	-2148.6
3017	14.822	2.9091	0.	-2094.9
3018	15.005	2.9091	0.	-2043.2
3019	15.189	2.9091	0.	-1993.1
3020	15.372	2.9091	0.	-1944.3
3021	15.556	2.9091	0.	-1896.5
3022	15.739	2.9091	0.	-1849.6
3023	15.923	2.9091	0.	-1803.2
3024	16.107	2.9091	0.	-1757.5
3025	16.29	2.9091	0.	-1712.2
3026	16.474	2.9091	0.	-1667.3
3027	16.657	2.9091	0.	-1622.7
3028	16.841	2.9091	0.	-1578.5
3029	17.024	2.9091	0.	-1534.5
3030	17.208	2.9091	0.	-1490.7
3031	17.392	2.9091	0.	-1447.2
3032	17.575	2.9091	0.	-1403.9
3033	17.759	2.9091	0.	-1360.9
3034	17.942	2.9091	0.	-1318.
3035	18.126	2.9091	0.	-1275.3
3036	18.309	2.9091	0.	-1232.8
3037	18.493	2.9091	0.	-1190.6
3038	18.677	2.9091	0.	-1148.5
3039	18.86	2.9091	0.	-1106.6
3040	19.044	2.9091	0.	-1064.9
3041	19.227	2.9091	0.	-1023.4
3042	19.411	2.9091	0.	-982.14
3043	19.594	2.9091	0.	-941.05
3044	19.778	2.9091	0.	-900.17
3045	19.962	2.9091	0.	-859.49
3046	20.145	2.9091	0.	-819.01
3047	20.329	2.9091	0.	-778.73
3048	20.512	2.9091	0.	-738.66
3049	20.696	2.9091	0.	-698.78
3050	20.879	2.9091	0.	-659.1
3051	21.063	2.9091	0.	-619.61
3052	21.246	2.9091	0.	-580.3
3053	21.43	2.9091	0.	-541.18
3054	21.614	2.9091	0.	-502.22
3055	21.797	2.9091	0.	-463.41
3056	21.981	2.9091	0.	-424.74
3057	22.164	2.9091	0.	-386.18
3058	22.348	2.9091	0.	-347.72
3059	22.531	2.9091	0.	-309.32
3060	22.715	2.9091	0.	-270.95
3061	22.899	2.9091	0.	-232.57
3062	23.082	2.9091	0.	-194.15
3063	23.266	2.9091	0.	-155.65
3064	23.449	2.9091	0.	-117.03
3065	23.633	2.9091	0.	-78.257
3066	23.816	2.9091	0.	-39.485
3067	11.15	2.7273	0.	-6856.7
3068	11.334	2.7273	0.	-6229.3
3069	11.517	2.7273	0.	-5556.2
3070	11.701	2.7273	0.	-4948.9
3071	11.885	2.7273	0.	-4440.9
3072	12.068	2.7273	0.	-4028.3
3073	12.252	2.7273	0.	-3696.
3074	12.435	2.7273	0.	-3427.8
3075	12.619	2.7273	0.	-3209.7
3076	12.802	2.7273	0.	-3030.4
3077	12.986	2.7273	0.	-2881.1
3078	13.169	2.7273	0.	-2755.
3079	13.353	2.7273	0.	-2646.9
3080	13.537	2.7273	0.	-2552.7
3081	13.72	2.7273	0.	-2469.4
3082	13.904	2.7273	0.	-2394.5
3083	14.087	2.7273	0.	-2326.2
3084	14.271	2.7273	0.	-2263.
3085	14.454	2.7273	0.	-2203.9
3086	14.638	2.7273	0.	-2148.
3087	14.822	2.7273	0.	-2094.5
3088	15.005	2.7273	0.	-2043.
3089	15.189	2.7273	0.	-1993.
3090	15.372	2.7273	0.	-1944.3
3091	15.556	2.7273	0.	-1896.6
3092	15.739	2.7273	0.	-1849.7
3093	15.923	2.7273	0.	-1803.4
3094	16.107	2.7273	0.	-1757.6
3095	16.29	2.7273	0.	-1712.4
3096	16.474	2.7273	0.	-1667.5
3097	16.657	2.7273	0.	-1622.9
3098	16.841	2.7273	0.	-1578.6
3099	17.024	2.7273	0.	-1534.6
3100	17.208	2.7273	0.	-1490.9
3101	17.392	2.7273	0.	-1447.4
3102	17.575	2.7273	0.	-1404.1
3103	17.759	2.7273	0.	-1361.
3104	17.942	2.7273	0.	-1318.1
3105	18.126	2.7273	0.	-1275.4
3106	18.309	2.7273	0.	-1232.9
3107	18.493	2.7273	0.	-1190.7
3108	18.677	2.7273	0.	-1148.6
3109	18.86	2.7273	0.	-1106.7
3110	19.044	2.7273	0.	-1065.
3111	19.227	2.7273	0.	-1023.5
3112	19.411	2.7273	0.	-982.19
3113	19.594	2.7273	0.	-941.1
3114	19.778	2.7273	0.	-900.2
3115	19.962	2.7273	0.	-859.51
3116	20.145	2.7273	0.	-819.02
3117	20.329	2.7273	0.	-778.73
3118	20.512	2.7273	0.	-738.64
3119	20.696	2.7273	0.	-698.75
3120	20.879	2.7273	0.	-659.06
3121	21.063	2.7273	0.	-619.56
3122	21.246	2.7273	0.	-580.24
3123	21.43	2.7273	0.	-541.1
3124	21.614	2.7273	0.	-502.13
3125	21.797	2.7273	0.	-463.32
3126	21.981	2.7273	0.	-424.64
3127	22.164	2.7273	0.	-386.08
3128	22.348	2.7273	0.	-347.62
3129	22.531	2.7273	0.	-309.22
3130	22.715	2.7273	0.	-270.86
3131	22.899	2.7273	0.	-232.49
3132	23.082	2.7273	0.	-194.09
3133	23.266	2.7273	0.	-155.6
3134	23.449	2.7273	0.	-117.
3135	23.633	2.7273	0.	-78.247
3136	23.816	2.7273	0.	-39.494
3137	11.15	2.5455	0.	-7185.6
3138	11.334	2.5455	0.	-6324.2
3139	11.517	2.5455	0.	-5508.7
3140	11.701	2.5455	0.	-4851.2
3141	11.885	2.5455	0.	-4338.5
3142	12.068	2.5455	0.	-3938.6
3143	12.252	2.5455	0.	-3623.
3144	12.435	2.5455	0.	-3370.6
3145	12.619	2.5455	0.	-3165.7
3146	12.802	2.5455	0.	-2997.
3147	12.986	2.5455	0.	-2856.
3148	13.169	2.5455	0.	-2736.2
3149	13.353	2.5455	0.	-2632.9
3150	13.537	2.5455	0.	-2542.3
3151	13.72	2.5455	0.	-2461.7
3152	13.904	2.5455	0.	-2388.9
3153	14.087	2.5455	0.	-2322.2
3154	14.271	2.5455	0.	-2260.2
3155	14.454	2.5455	0.	-2202.
3156	14.638	2.5455	0.	-2146.7
3157	14.822	2.5455	0.	-2093.7
3158	15.005	2.5455	0.	-2042.5
3159	15.189	2.5455	0.	-1992.8
3160	15.372	2.5455	0.	-1944.3
3161	15.556	2.5455	0.	-1896.7
3162	15.739	2.5455	0.	-1849.8
3163	15.923	2.5455	0.	-1803.6
3164	16.107	2.5455	0.	-1757.9
3165	16.29	2.5455	0.	-1712.7
3166	16.474	2.5455	0.	-1667.8
3167	16.657	2.5455	0.	-1623.2
3168	16.841	2.5455	0.	-1579.
3169	17.024	2.5455	0.	-1535.
3170	17.208	2.5455	0.	-1491.2
3171	17.392	2.5455	0.	-1447.7
3172	17.575	2.5455	0.	-1404.4
3173	17.759	2.5455	0.	-1361.3
3174	17.942	2.5455	0.	-1318.4
3175	18.126	2.5455	0.	-1275.7
3176	18.309	2.5455	0.	-1233.2
3177	18.493	2.5455	0.	-1190.9
3178	18.677	2.5455	0.	-1148.7
3179	18.86	2.5455	0.	-1106.8
3180	19.044	2.5455	0.	-1065.1
3181	19.227	2.5455	0.	-1023.6
3182	19.411	2.5455	0.	-982.3
3183	19.594	2.5455	0.	-941.18
3184	19.778	2.5455	0.	-900.27
3185	19.962	2.5455	0.	-859.55
3186	20.145	2.5455	0.	-819.04
3187	20.329	2.5455	0.	-778.73
3188	20.512	2.5455	0.	-738.61
3189	20.696	2.5455	0.	-698.7
3190	20.879	2.5455	0.	-658.98
3191	21.063	2.5455	0.	-619.46
3192	21.246	2.5455	0.	-580.12
3193	21.43	2.5455	0.	-540.96
3194	21.614	2.5455	0.	-501.97
3195	21.797	2.5455	0.	-463.14
3196	21.981	2.5455	0.	-424.45
3197	22.164	2.5455	0.	-385.88
3198	22.348	2.5455	0.	-347.42
3199	22.531	2.5455	0.	-309.03
3200	22.715	2.5455	0.	-270.68
3201	22.899	2.5455	0.	-232.33
3202	23.082	2.5455	0.	-193.96
3203	23.266	2.5455	0.	-155.51
3204	23.449	2.5455	0.	-116.94
3205	23.633	2.5455	0.	-78.225
3206	23.816	2.5455	0.	-39.512
3207	11.15	2.3636	0.	-7748.4
3208	11.334	2.3636	0.	-6362.
3209	11.517	2.3636	0.	-5364.9
3210	11.701	2.3636	0.	-4673.7
3211	11.885	2.3636	0.	-4177.2
3212	12.068	2.3636	0.	-3805.1
3213	12.252	2.3636	0.	-3517.2
3214	12.435	2.3636	0.	-3288.5
3215	12.619	2.3636	0.	-3102.9
3216	12.802	2.3636	0.	-2949.3
3217	12.986	2.3636	0.	-2819.9
3218	13.169	2.3636	0.	-2709.1
3219	13.353	2.3636	0.	-2612.6
3220	13.537	2.3636	0.	-2527.3
3221	13.72	2.3636	0.	-2450.7
3222	13.904	2.3636	0.	-2380.9
3223	14.087	2.3636	0.	-2316.4
3224	14.271	2.3636	0.	-2256.1
3225	14.454	2.3636	0.	-2199.1
3226	14.638	2.3636	0.	-2144.8
3227	14.822	2.3636	0.	-2092.5
3228	15.005	2.3636	0.	-2041.8
3229	15.189	2.3636	0.	-1992.5
3230	15.372	2.3636	0.	-1944.3
3231	15.556	2.3636	0.	-1896.8
3232	15.739	2.3636	0.	-1850.1
3233	15.923	2.3636	0.	-1804.
3234	16.107	2.3636	0.	-1758.4
3235	16.29	2.3636	0.	-1713.2
3236	16.474	2.3636	0.	-1668.3
3237	16.657	2.3636	0.	-1623.7
3238	16.841	2.3636	0.	-1579.5
3239	17.024	2.3636	0.	-1535.4
3240	17.208	2.3636	0.	-1491.7
3241	17.392	2.3636	0.	-1448.1
3242	17.575	2.3636	0.	-1404.8
3243	17.759	2.3636	0.	-1361.7
3244	17.942	2.3636	0.	-1318.7
3245	18.126	2.3636	0.	-1276.
3246	18.309	2.3636	0.	-1233.5
3247	18.493	2.3636	0.	-1191.2
3248	18.677	2.3636	0.	-1149.
3249	18.86	2.3636	0.	-1107.1
3250	19.044	2.3636	0.	-1065.3
3251	19.227	2.3636	0.	-1023.8
3252	19.411	2.3636	0.	-982.46
3253	19.594	2.3636	0.	-941.31
3254	19.778	2.3636	0.	-900.37
3255	19.962	2.3636	0.	-859.62
3256	20.145	2.3636	0.	-819.08
3257	20.329	2.3636	0.	-778.73
3258	20.512	2.3636	0.	-738.58
3259	20.696	2.3636	0.	-698.63
3260	20.879	2.3636	0.	-658.88
3261	21.063	2.3636	0.	-619.31
3262	21.246	2.3636	0.	-579.94
3263	21.43	2.3636	0.	-540.75
3264	21.614	2.3636	0.	-501.72
3265	21.797	2.3636	0.	-462.87
3266	21.981	2.3636	0.	-424.16
3267	22.164	2.3636	0.	-385.58
3268	22.348	2.3636	0.	-347.11
3269	22.531	2.3636	0.	-308.73
3270	22.715	2.3636	0.	-270.4
3271	22.899	2.3636	0.	-232.09
3272	23.082	2.3636	0.	-193.76
3273	23.266	2.3636	0.	-155.35
3274	23.449	2.3636	0.	-116.85
3275	23.633	2.3636	0.	-78.19
3276	23.816	2.3636	0.	-39.538
3277	11.15	2.1818	0.	-8200.7
3278	11.334	2.1818	0.	-6135.7
3279	11.517	2.1818	0.	-5054.8
3280	11.701	2.1818	0.	-4402.9
3281	11.885	2.1818	0.	-3958.3
3282	12.068	2.1818	0.	-3633.1
3283	12.252	2.1818	0.	-3383.8
3284	12.435	2.1818	0.	-3186.
3285	12.619	2.1818	0.	-3024.5
3286	12.802	2.1818	0.	-2889.7
3287	12.986	2.1818	0.	-2774.8
3288	13.169	2.1818	0.	-2675.2
3289	13.353	2.1818	0.	-2587.2
3290	13.537	2.1818	0.	-2508.4
3291	13.72	2.1818	0.	-2436.7
3292	13.904	2.1818	0.	-2370.6
3293	14.087	2.1818	0.	-2309.
3294	14.271	2.1818	0.	-2250.8
3295	14.454	2.1818	0.	-2195.5
3296	14.638	2.1818	0.	-2142.3
3297	14.822	2.1818	0.	-2090.9
3298	15.005	2.1818	0.	-2041.
3299	15.189	2.1818	0.	-1992.1
3300	15.372	2.1818	0.	-1944.2
3301	15.556	2.1818	0.	-1897.1
3302	15.739	2.1818	0.	-1850.5
3303	15.923	2.1818	0.	-1804.5
3304	16.107	2.1818	0.	-1759.
3305	16.29	2.1818	0.	-1713.8
3306	16.474	2.1818	0.	-1668.9
3307	16.657	2.1818	0.	-1624.4
3308	16.841	2.1818	0.	-1580.1
3309	17.024	2.1818	0.	-1536.1
3310	17.208	2.1818	0.	-1492.3
3311	17.392	2.1818	0.	-1448.7
3312	17.575	2.1818	0.	-1405.3
3313	17.759	2.1818	0.	-1362.2
3314	17.942	2.1818	0.	-1319.2
3315	18.126	2.1818	0.	-1276.5
3316	18.309	2.1818	0.	-1233.9
3317	18.493	2.1818	0.	-1191.6
3318	18.677	2.1818	0.	-1149.4
3319	18.86	2.1818	0.	-1107.4
3320	19.044	2.1818	0.	-1065.6
3321	19.227	2.1818	0.	-1024.1
3322	19.411	2.1818	0.	-982.69
3323	19.594	2.1818	0.	-941.5
3324	19.778	2.1818	0.	-900.51
3325	19.962	2.1818	0.	-859.73
3326	20.145	2.1818	0.	-819.14
3327	20.329	2.1818	0.	-778.74
3328	20.512	2.1818	0.	-738.55
3329	20.696	2.1818	0.	-698.55
3330	20.879	2.1818	0.	-658.75
3331	21.063	2.1818	0.	-619.14
3332	21.246	2.1818	0.	-579.71
3333	21.43	2.1818	0.	-540.47
3334	21.614	2.1818	0.	-501.41
3335	21.797	2.1818	0.	-462.52
3336	21.981	2.1818	0.	-423.78
3337	22.164	2.1818	0.	-385.18
3338	22.348	2.1818	0.	-346.71
3339	22.531	2.1818	0.	-308.33
3340	22.715	2.1818	0.	-270.02
3341	22.899	2.1818	0.	-231.75
3342	23.082	2.1818	0.	-193.47
3343	23.266	2.1818	0.	-155.14
3344	23.449	2.1818	0.	-116.72
3345	23.633	2.1818	0.	-78.137
3346	23.816	2.1818	0.	-39.571
3347	11.15	2.	0.	-7949.5
3348	11.334	2.	0.	-5430.8
3349	11.517	2.	0.	-4583.1
3350	11.701	2.	0.	-4051.8
3351	11.885	2.	0.	-3693.8
3352	12.068	2.	0.	-3431.8
3353	12.252	2.	0.	-3229.9
3354	12.435	2.	0.	-3068.2
3355	12.619	2.	0.	-2934.5
3356	12.802	2.	0.	-2821.1
3357	12.986	2.	0.	-2722.8
3358	13.169	2.	0.	-2635.8
3359	13.353	2.	0.	-2557.6
3360	13.537	2.	0.	-2486.3
3361	13.72	2.	0.	-2420.3
3362	13.904	2.	0.	-2358.6
3363	14.087	2.	0.	-2300.3
3364	14.271	2.	0.	-2244.7
3365	14.454	2.	0.	-2191.2
3366	14.638	2.	0.	-2139.5
3367	14.822	2.	0.	-2089.1
3368	15.005	2.	0.	-2040.
3369	15.189	2.	0.	-1991.7
3370	15.372	2.	0.	-1944.2
3371	15.556	2.	0.	-1897.4
3372	15.739	2.	0.	-1851.
3373	15.923	2.	0.	-1805.2
3374	16.107	2.	0.	-1759.7
3375	16.29	2.	0.	-1714.6
3376	16.474	2.	0.	-1669.7
3377	16.657	2.	0.	-1625.2
3378	16.841	2.	0.	-1580.9
3379	17.024	2.	0.	-1536.9
3380	17.208	2.	0.	-1493.
3381	17.392	2.	0.	-1449.4
3382	17.575	2.	0.	-1406.
3383	17.759	2.	0.	-1362.9
3384	17.942	2.	0.	-1319.9
3385	18.126	2.	0.	-1277.1
3386	18.309	2.	0.	-1234.5
3387	18.493	2.	0.	-1192.1
3388	18.677	2.	0.	-1149.9
3389	18.86	2.	0.	-1107.8
3390	19.044	2.	0.	-1066.
3391	19.227	2.	0.	-1024.4
3392	19.411	2.	0.	-982.98
3393	19.594	2.	0.	-941.75
3394	19.778	2.	0.	-900.71
3395	19.962	2.	0.	-859.87
3396	20.145	2.	0.	-819.23
3397	20.329	2.	0.	-778.78
3398	20.512	2.	0.	-738.53
3399	20.696	2.	0.	-698.47
3400	20.879	2.	0.	-658.61
3401	21.063	2.	0.	-618.94
3402	21.246	2.	0.	-579.45
3403	21.43	2.	0.	-540.16
3404	21.614	2.	0.	-501.04
3405	21.797	2.	0.	-462.09
3406	21.981	2.	0.	-423.31
3407	22.164	2.	0.	-384.69
3408	22.348	2.	0.	-346.2
3409	22.531	2.	0.	-307.82
3410	22.715	2.	0.	-269.54
3411	22.899	2.	0.	-231.32
3412	23.082	2.	0.	-193.1
3413	23.266	2.	0.	-154.86
3414	23.449	2.	0.	-116.53
3415	23.633	2.	0.	-78.061
3416	23.816	2.	0.	-39.607
3417	11.15	1.8182	0.	-5685.1
3418	11.334	1.8182	0.	-4551.2
3419	11.517	1.8182	0.	-4007.8
3420	11.701	1.8182	0.	-3654.5
3421	11.885	1.8182	0.	-3402.3
3422	12.068	1.8182	0.	-3212.5
3423	12.252	1.8182	0.	-3063.
3424	12.435	1.8182	0.	-2940.6
3425	12.619	1.8182	0.	-2836.8
3426	12.802	1.8182	0.	-2746.5
3427	12.986	1.8182	0.	-2665.9
3428	13.169	1.8182	0.	-2592.7
3429	13.353	1.8182	0.	-2525.1
3430	13.537	1.8182	0.	-2461.9
3431	13.72	1.8182	0.	-2402.2
3432	13.904	1.8182	0.	-2345.3
3433	14.087	1.8182	0.	-2290.6
3434	14.271	1.8182	0.	-2237.8
3435	14.454	1.8182	0.	-2186.4
3436	14.638	1.8182	0.	-2136.3
3437	14.822	1.8182	0.	-2087.1
3438	15.005	1.8182	0.	-2038.8
3439	15.189	1.8182	0.	-1991.2
3440	15.372	1.8182	0.	-1944.2
3441	15.556	1.8182	0.	-1897.7
3442	15.739	1.8182	0.	-1851.6
3443	15.923	1.8182	0.	-1805.9
3444	16.107	1.8182	0.	-1760.6
3445	16.29	1.8182	0.	-1715.5
3446	16.474	1.8182	0.	-1670.7
3447	16.657	1.8182	0.	-1626.2
3448	16.841	1.8182	0.	-1581.9
3449	17.024	1.8182	0.	-1537.8
3450	17.208	1.8182	0.	-1494.
3451	17.392	1.8182	0.	-1450.3
3452	17.575	1.8182	0.	-1406.9
3453	17.759	1.8182	0.	-1363.6
3454	17.942	1.8182	0.	-1320.6
3455	18.126	1.8182	0.	-1277.8
3456	18.309	1.8182	0.	-1235.1
3457	18.493	1.8182	0.	-1192.7
3458	18.677	1.8182	0.	-1150.4
3459	18.86	1.8182	0.	-1108.4
3460	19.044	1.8182	0.	-1066.5
3461	19.227	1.8182	0.	-1024.8
3462	19.411	1.8182	0.	-983.35
3463	19.594	1.8182	0.	-942.07
3464	19.778	1.8182	0.	-900.98
3465	19.962	1.8182	0.	-860.08
3466	20.145	1.8182	0.	-819.37
3467	20.329	1.8182	0.	-778.86
3468	20.512	1.8182	0.	-738.54
3469	20.696	1.8182	0.	-698.41
3470	20.879	1.8182	0.	-658.48
3471	21.063	1.8182	0.	-618.73
3472	21.246	1.8182	0.	-579.18
3473	21.43	1.8182	0.	-539.81
3474	21.614	1.8182	0.	-500.62
3475	21.797	1.8182	0.	-461.61
3476	21.981	1.8182	0.	-422.78
3477	22.164	1.8182	0.	-384.11
3478	22.348	1.8182	0.	-345.59
3479	22.531	1.8182	0.	-307.21
3480	22.715	1.8182	0.	-268.95
3481	22.899	1.8182	0.	-230.77
3482	23.082	1.8182	0.	-192.63
3483	23.266	1.8182	0.	-154.49
3484	23.449	1.8182	0.	-116.29
3485	23.633	1.8182	0.	-77.952
3486	23.816	1.8182	0.	-39.644
3487	11.15	1.6364	0.	-3907.9
3488	11.334	1.6364	0.	-3644.1
3489	11.517	1.6364	0.	-3430.
3490	11.701	1.6364	0.	-3247.5
3491	11.885	1.6364	0.	-3102.2
3492	12.068	1.6364	0.	-2986.1
3493	12.252	1.6364	0.	-2890.3
3494	12.435	1.6364	0.	-2808.1
3495	12.619	1.6364	0.	-2735.2
3496	12.802	1.6364	0.	-2668.5
3497	12.986	1.6364	0.	-2606.3
3498	13.169	1.6364	0.	-2547.3
3499	13.353	1.6364	0.	-2490.7
3500	13.537	1.6364	0.	-2436.
3501	13.72	1.6364	0.	-2382.9
3502	13.904	1.6364	0.	-2331.1
3503	14.087	1.6364	0.	-2280.3
3504	14.271	1.6364	0.	-2230.4
3505	14.454	1.6364	0.	-2181.3
3506	14.638	1.6364	0.	-2132.9
3507	14.822	1.6364	0.	-2085.
3508	15.005	1.6364	0.	-2037.7
3509	15.189	1.6364	0.	-1990.8
3510	15.372	1.6364	0.	-1944.3
3511	15.556	1.6364	0.	-1898.1
3512	15.739	1.6364	0.	-1852.3
3513	15.923	1.6364	0.	-1806.8
3514	16.107	1.6364	0.	-1761.5
3515	16.29	1.6364	0.	-1716.6
3516	16.474	1.6364	0.	-1671.8
3517	16.657	1.6364	0.	-1627.3
3518	16.841	1.6364	0.	-1583.
3519	17.024	1.6364	0.	-1538.9
3520	17.208	1.6364	0.	-1495.
3521	17.392	1.6364	0.	-1451.3
3522	17.575	1.6364	0.	-1407.9
3523	17.759	1.6364	0.	-1364.6
3524	17.942	1.6364	0.	-1321.5
3525	18.126	1.6364	0.	-1278.6
3526	18.309	1.6364	0.	-1235.9
3527	18.493	1.6364	0.	-1193.4
3528	18.677	1.6364	0.	-1151.1
3529	18.86	1.6364	0.	-1109.
3530	19.044	1.6364	0.	-1067.1
3531	19.227	1.6364	0.	-1025.4
3532	19.411	1.6364	0.	-983.82
3533	19.594	1.6364	0.	-942.47
3534	19.778	1.6364	0.	-901.31
3535	19.962	1.6364	0.	-860.35
3536	20.145	1.6364	0.	-819.57
3537	20.329	1.6364	0.	-778.99
3538	20.512	1.6364	0.	-738.59
3539	20.696	1.6364	0.	-698.39
3540	20.879	1.6364	0.	-658.37
3541	21.063	1.6364	0.	-618.54
3542	21.246	1.6364	0.	-578.9
3543	21.43	1.6364	0.	-539.44
3544	21.614	1.6364	0.	-500.17
3545	21.797	1.6364	0.	-461.08
3546	21.981	1.6364	0.	-422.18
3547	22.164	1.6364	0.	-383.45
3548	22.348	1.6364	0.	-344.89
3549	22.531	1.6364	0.	-306.49
3550	22.715	1.6364	0.	-268.23
3551	22.899	1.6364	0.	-230.1
3552	23.082	1.6364	0.	-192.04
3553	23.266	1.6364	0.	-154.02
3554	23.449	1.6364	0.	-115.97
3555	23.633	1.6364	0.	-77.8
3556	23.816	1.6364	0.	-39.676
3557	11.15	1.4545	0.	-3006.3
3558	11.334	1.4545	0.	-2934.4
3559	11.517	1.4545	0.	-2909.4
3560	11.701	1.4545	0.	-2859.3
3561	11.885	1.4545	0.	-2809.4
3562	12.068	1.4545	0.	-2762.5
3563	12.252	1.4545	0.	-2718.5
3564	12.435	1.4545	0.	-2675.7
3565	12.619	1.4545	0.	-2633.1
3566	12.802	1.4545	0.	-2589.9
3567	12.986	1.4545	0.	-2546.
3568	13.169	1.4545	0.	-2501.2
3569	13.353	1.4545	0.	-2455.7
3570	13.537	1.4545	0.	-2409.6
3571	13.72	1.4545	0.	-2363.1
3572	13.904	1.4545	0.	-2316.5
3573	14.087	1.4545	0.	-2269.7
3574	14.271	1.4545	0.	-2222.8
3575	14.454	1.4545	0.	-2176.1
3576	14.638	1.4545	0.	-2129.4
3577	14.822	1.4545	0.	-2082.9
3578	15.005	1.4545	0.	-2036.5
3579	15.189	1.4545	0.	-1990.4
3580	15.372	1.4545	0.	-1944.4
3581	15.556	1.4545	0.	-1898.7
3582	15.739	1.4545	0.	-1853.1
3583	15.923	1.4545	0.	-1807.8
3584	16.107	1.4545	0.	-1762.7
3585	16.29	1.4545	0.	-1717.8
3586	16.474	1.4545	0.	-1673.
3587	16.657	1.4545	0.	-1628.5
3588	16.841	1.4545	0.	-1584.2
3589	17.024	1.4545	0.	-1540.1
3590	17.208	1.4545	0.	-1496.2
3591	17.392	1.4545	0.	-1452.5
3592	17.575	1.4545	0.	-1409.
3593	17.759	1.4545	0.	-1365.6
3594	17.942	1.4545	0.	-1322.5
3595	18.126	1.4545	0.	-1279.6
3596	18.309	1.4545	0.	-1236.8
3597	18.493	1.4545	0.	-1194.3
3598	18.677	1.4545	0.	-1151.9
3599	18.86	1.4545	0.	-1109.8
3600	19.044	1.4545	0.	-1067.8
3601	19.227	1.4545	0.	-1026.
3602	19.411	1.4545	0.	-984.38
3603	19.594	1.4545	0.	-942.97
3604	19.778	1.4545	0.	-901.75
3605	19.962	1.4545	0.	-860.71
3606	20.145	1.4545	0.	-819.86
3607	20.329	1.4545	0.	-779.2
3608	20.512	1.4545	0.	-738.72
3609	20.696	1.4545	0.	-698.43
3610	20.879	1.4545	0.	-658.32
3611	21.063	1.4545	0.	-618.39
3612	21.246	1.4545	0.	-578.65
3613	21.43	1.4545	0.	-539.1
3614	21.614	1.4545	0.	-499.73
3615	21.797	1.4545	0.	-460.54
3616	21.981	1.4545	0.	-421.55
3617	22.164	1.4545	0.	-382.73
3618	22.348	1.4545	0.	-344.11
3619	22.531	1.4545	0.	-305.67
3620	22.715	1.4545	0.	-267.4
3621	22.899	1.4545	0.	-229.3
3622	23.082	1.4545	0.	-191.32
3623	23.266	1.4545	0.	-153.42
3624	23.449	1.4545	0.	-115.55
3625	23.633	1.4545	0.	-77.588
3626	23.816	1.4545	0.	-39.696
3627	11.15	1.2727	0.	-2386.2
3628	11.334	1.2727	0.	-2399.5
3629	11.517	1.2727	0.	-2466.3
3630	11.701	1.2727	0.	-2510.
3631	11.885	1.2727	0.	-2536.5
3632	12.068	1.2727	0.	-2550.4
3633	12.252	1.2727	0.	-2553.7
3634	12.435	1.2727	0.	-2547.8
3635	12.619	1.2727	0.	-2534.
3636	12.802	1.2727	0.	-2513.3
3637	12.986	1.2727	0.	-2486.9
3638	13.169	1.2727	0.	-2455.9
3639	13.353	1.2727	0.	-2421.1
3640	13.537	1.2727	0.	-2383.5
3641	13.72	1.2727	0.	-2343.6
3642	13.904	1.2727	0.	-2302.
3643	14.087	1.2727	0.	-2259.1
3644	14.271	1.2727	0.	-2215.3
3645	14.454	1.2727	0.	-2170.9
3646	14.638	1.2727	0.	-2126.
3647	14.822	1.2727	0.	-2080.8
3648	15.005	1.2727	0.	-2035.5
3649	15.189	1.2727	0.	-1990.1
3650	15.372	1.2727	0.	-1944.7
3651	15.556	1.2727	0.	-1899.3
3652	15.739	1.2727	0.	-1854.1
3653	15.923	1.2727	0.	-1808.9
3654	16.107	1.2727	0.	-1763.9
3655	16.29	1.2727	0.	-1719.1
3656	16.474	1.2727	0.	-1674.4
3657	16.657	1.2727	0.	-1629.9
3658	16.841	1.2727	0.	-1585.6
3659	17.024	1.2727	0.	-1541.5
3660	17.208	1.2727	0.	-1497.5
3661	17.392	1.2727	0.	-1453.8
3662	17.575	1.2727	0.	-1410.2
3663	17.759	1.2727	0.	-1366.8
3664	17.942	1.2727	0.	-1323.7
3665	18.126	1.2727	0.	-1280.7
3666	18.309	1.2727	0.	-1237.9
3667	18.493	1.2727	0.	-1195.3
3668	18.677	1.2727	0.	-1152.8
3669	18.86	1.2727	0.	-1110.6
3670	19.044	1.2727	0.	-1068.6
3671	19.227	1.2727	0.	-1026.7
3672	19.411	1.2727	0.	-985.06
3673	19.594	1.2727	0.	-943.58
3674	19.778	1.2727	0.	-902.29
3675	19.962	1.2727	0.	-861.18
3676	20.145	1.2727	0.	-820.25
3677	20.329	1.2727	0.	-779.5
3678	20.512	1.2727	0.	-738.93
3679	20.696	1.2727	0.	-698.55
3680	20.879	1.2727	0.	-658.34
3681	21.063	1.2727	0.	-618.32
3682	21.246	1.2727	0.	-578.47
3683	21.43	1.2727	0.	-538.8
3684	21.614	1.2727	0.	-499.32
3685	21.797	1.2727	0.	-460.02
3686	21.981	1.2727	0.	-420.91
3687	22.164	1.2727	0.	-382.
3688	22.348	1.2727	0.	-343.28
3689	22.531	1.2727	0.	-304.77
3690	22.715	1.2727	0.	-266.46
3691	22.899	1.2727	0.	-228.36
3692	23.082	1.2727	0.	-190.45
3693	23.266	1.2727	0.	-152.68
3694	23.449	1.2727	0.	-115.
3695	23.633	1.2727	0.	-77.29
3696	23.816	1.2727	0.	-39.69
3697	11.15	1.0909	0.	-1931.8
3698	11.334	1.0909	0.	-1982.5
3699	11.517	1.0909	0.	-2101.7
3700	11.701	1.0909	0.	-2207.3
3701	11.885	1.0909	0.	-2292.7
3702	12.068	1.0909	0.	-2357.
3703	12.252	1.0909	0.	-2401.6
3704	12.435	1.0909	0.	-2428.7
3705	12.619	1.0909	0.	-2441.
3706	12.802	1.0909	0.	-2441.
3707	12.986	1.0909	0.	-2430.9
3708	13.169	1.0909	0.	-2412.8
3709	13.353	1.0909	0.	-2388.2
3710	13.537	1.0909	0.	-2358.5
3711	13.72	1.0909	0.	-2324.8
3712	13.904	1.0909	0.	-2288.1
3713	14.087	1.0909	0.	-2249.
3714	14.271	1.0909	0.	-2208.1
3715	14.454	1.0909	0.	-2165.9
3716	14.638	1.0909	0.	-2122.8
3717	14.822	1.0909	0.	-2078.9
3718	15.005	1.0909	0.	-2034.6
3719	15.189	1.0909	0.	-1989.9
3720	15.372	1.0909	0.	-1945.1
3721	15.556	1.0909	0.	-1900.1
3722	15.739	1.0909	0.	-1855.2
3723	15.923	1.0909	0.	-1810.2
3724	16.107	1.0909	0.	-1765.4
3725	16.29	1.0909	0.	-1720.6
3726	16.474	1.0909	0.	-1676.
3727	16.657	1.0909	0.	-1631.5
3728	16.841	1.0909	0.	-1587.2
3729	17.024	1.0909	0.	-1543.
3730	17.208	1.0909	0.	-1499.
3731	17.392	1.0909	0.	-1455.2
3732	17.575	1.0909	0.	-1411.6
3733	17.759	1.0909	0.	-1368.2
3734	17.942	1.0909	0.	-1325.
3735	18.126	1.0909	0.	-1281.9
3736	18.309	1.0909	0.	-1239.1
3737	18.493	1.0909	0.	-1196.4
3738	18.677	1.0909	0.	-1153.9
3739	18.86	1.0909	0.	-1111.6
3740	19.044	1.0909	0.	-1069.5
3741	19.227	1.0909	0.	-1027.6
3742	19.411	1.0909	0.	-985.87
3743	19.594	1.0909	0.	-944.32
3744	19.778	1.0909	0.	-902.96
3745	19.962	1.0909	0.	-861.77
3746	20.145	1.0909	0.	-820.76
3747	20.329	1.0909	0.	-779.93
3748	20.512	1.0909	0.	-739.27
3749	20.696	1.0909	0.	-698.79
3750	20.879	1.0909	0.	-658.48
3751	21.063	1.0909	0.	-618.35
3752	21.246	1.0909	0.	-578.39
3753	21.43	1.0909	0.	-538.6
3754	21.614	1.0909	0.	-498.99
3755	21.797	1.0909	0.	-459.57
3756	21.981	1.0909	0.	-420.33
3757	22.164	1.0909	0.	-381.28
3758	22.348	1.0909	0.	-342.44
3759	22.531	1.0909	0.	-303.83
3760	22.715	1.0909	0.	-265.44
3761	22.899	1.0909	0.	-227.3
3762	23.082	1.0909	0.	-189.41
3763	23.266	1.0909	0.	-151.75
3764	23.449	1.0909	0.	-114.28
3765	23.633	1.0909	0.	-76.872
3766	23.816	1.0909	0.	-39.641
3767	11.15	0.90909	0.	-1568.7
3768	11.334	0.90909	0.	-1647.6
3769	11.517	0.90909	0.	-1801.6
3770	11.701	0.90909	0.	-1952.1
3771	11.885	0.90909	0.	-2082.9
3772	12.068	0.90909	0.	-2187.7
3773	12.252	0.90909	0.	-2266.6
3774	12.435	0.90909	0.	-2321.8
3775	12.619	0.90909	0.	-2356.9
3776	12.802	0.90909	0.	-2375.2
3777	12.986	0.90909	0.	-2379.7
3778	13.169	0.90909	0.	-2373.2
3779	13.353	0.90909	0.	-2357.8
3780	13.537	0.90909	0.	-2335.3
3781	13.72	0.90909	0.	-2307.4
3782	13.904	0.90909	0.	-2275.2
3783	14.087	0.90909	0.	-2239.6
3784	14.271	0.90909	0.	-2201.5
3785	14.454	0.90909	0.	-2161.4
3786	14.638	0.90909	0.	-2119.9
3787	14.822	0.90909	0.	-2077.3
3788	15.005	0.90909	0.	-2033.9
3789	15.189	0.90909	0.	-1990.
3790	15.372	0.90909	0.	-1945.7
3791	15.556	0.90909	0.	-1901.1
3792	15.739	0.90909	0.	-1856.4
3793	15.923	0.90909	0.	-1811.7
3794	16.107	0.90909	0.	-1766.9
3795	16.29	0.90909	0.	-1722.2
3796	16.474	0.90909	0.	-1677.6
3797	16.657	0.90909	0.	-1633.2
3798	16.841	0.90909	0.	-1588.8
3799	17.024	0.90909	0.	-1544.7
3800	17.208	0.90909	0.	-1500.6
3801	17.392	0.90909	0.	-1456.8
3802	17.575	0.90909	0.	-1413.2
3803	17.759	0.90909	0.	-1369.7
3804	17.942	0.90909	0.	-1326.4
3805	18.126	0.90909	0.	-1283.3
3806	18.309	0.90909	0.	-1240.4
3807	18.493	0.90909	0.	-1197.7
3808	18.677	0.90909	0.	-1155.1
3809	18.86	0.90909	0.	-1112.8
3810	19.044	0.90909	0.	-1070.6
3811	19.227	0.90909	0.	-1028.6
3812	19.411	0.90909	0.	-986.83
3813	19.594	0.90909	0.	-945.22
3814	19.778	0.90909	0.	-903.78
3815	19.962	0.90909	0.	-862.52
3816	20.145	0.90909	0.	-821.43
3817	20.329	0.90909	0.	-780.51
3818	20.512	0.90909	0.	-739.77
3819	20.696	0.90909	0.	-699.19
3820	20.879	0.90909	0.	-658.78
3821	21.063	0.90909	0.	-618.54
3822	21.246	0.90909	0.	-578.46
3823	21.43	0.90909	0.	-538.55
3824	21.614	0.90909	0.	-498.81
3825	21.797	0.90909	0.	-459.24
3826	21.981	0.90909	0.	-419.86
3827	22.164	0.90909	0.	-380.66
3828	22.348	0.90909	0.	-341.67
3829	22.531	0.90909	0.	-302.9
3830	22.715	0.90909	0.	-264.39
3831	22.899	0.90909	0.	-226.15
3832	23.082	0.90909	0.	-188.23
3833	23.266	0.90909	0.	-150.63
3834	23.449	0.90909	0.	-113.35
3835	23.633	0.90909	0.	-76.278
3836	23.816	0.90909	0.	-39.516
3837	11.15	0.72727	0.	-1262.9
3838	11.334	0.72727	0.	-1370.2
3839	11.517	0.72727	0.	-1555.8
3840	11.701	0.72727	0.	-1742.9
3841	11.885	0.72727	0.	-1909.2
3842	12.068	0.72727	0.	-2045.9
3843	12.252	0.72727	0.	-2152.
3844	12.435	0.72727	0.	-2230.2
3845	12.619	0.72727	0.	-2284.1
3846	12.802	0.72727	0.	-2317.8
3847	12.986	0.72727	0.	-2334.8
3848	13.169	0.72727	0.	-2338.2
3849	13.353	0.72727	0.	-2330.9
3850	13.537	0.72727	0.	-2314.8
3851	13.72	0.72727	0.	-2292.
3852	13.904	0.72727	0.	-2263.8
3853	14.087	0.72727	0.	-2231.4
3854	14.271	0.72727	0.	-2195.7
3855	14.454	0.72727	0.	-2157.6
3856	14.638	0.72727	0.	-2117.6
3857	14.822	0.72727	0.	-2076.1
3858	15.005	0.72727	0.	-2033.6
3859	15.189	0.72727	0.	-1990.3
3860	15.372	0.72727	0.	-1946.5
3861	15.556	0.72727	0.	-1902.3
3862	15.739	0.72727	0.	-1857.8
3863	15.923	0.72727	0.	-1813.3
3864	16.107	0.72727	0.	-1768.6
3865	16.29	0.72727	0.	-1724.
3866	16.474	0.72727	0.	-1679.5
3867	16.657	0.72727	0.	-1635.
3868	16.841	0.72727	0.	-1590.7
3869	17.024	0.72727	0.	-1546.5
3870	17.208	0.72727	0.	-1502.4
3871	17.392	0.72727	0.	-1458.5
3872	17.575	0.72727	0.	-1414.8
3873	17.759	0.72727	0.	-1371.3
3874	17.942	0.72727	0.	-1328.
3875	18.126	0.72727	0.	-1284.8
3876	18.309	0.72727	0.	-1241.9
3877	18.493	0.72727	0.	-1199.1
3878	18.677	0.72727	0.	-1156.5
3879	18.86	0.72727	0.	-1114.1
3880	19.044	0.72727	0.	-1071.9
3881	19.227	0.72727	0.	-1029.8
3882	19.411	0.72727	0.	-987.96
3883	19.594	0.72727	0.	-946.28
3884	19.778	0.72727	0.	-904.78
3885	19.962	0.72727	0.	-863.45
3886	20.145	0.72727	0.	-822.28
3887	20.329	0.72727	0.	-781.29
3888	20.512	0.72727	0.	-740.46
3889	20.696	0.72727	0.	-699.79
3890	20.879	0.72727	0.	-659.29
3891	21.063	0.72727	0.	-618.94
3892	21.246	0.72727	0.	-578.75
3893	21.43	0.72727	0.	-538.71
3894	21.614	0.72727	0.	-498.84
3895	21.797	0.72727	0.	-459.13
3896	21.981	0.72727	0.	-419.59
3897	22.164	0.72727	0.	-380.22
3898	22.348	0.72727	0.	-341.06
3899	22.531	0.72727	0.	-302.11
3900	22.715	0.72727	0.	-263.41
3901	22.899	0.72727	0.	-225.
3902	23.082	0.72727	0.	-186.95
3903	23.266	0.72727	0.	-149.31
3904	23.449	0.72727	0.	-112.15
3905	23.633	0.72727	0.	-75.432
3906	23.816	0.72727	0.	-39.264
3907	11.15	0.54545	0.	-993.11
3908	11.334	0.54545	0.	-1138.2
3909	11.517	0.54545	0.	-1359.2
3910	11.701	0.54545	0.	-1578.6
3911	11.885	0.54545	0.	-1772.6
3912	12.068	0.54545	0.	-1933.1
3913	12.252	0.54545	0.	-2059.8
3914	12.435	0.54545	0.	-2155.5
3915	12.619	0.54545	0.	-2224.1
3916	12.802	0.54545	0.	-2270.1
3917	12.986	0.54545	0.	-2297.1
3918	13.169	0.54545	0.	-2308.8
3919	13.353	0.54545	0.	-2308.1
3920	13.537	0.54545	0.	-2297.5
3921	13.72	0.54545	0.	-2279.
3922	13.904	0.54545	0.	-2254.2
3923	14.087	0.54545	0.	-2224.5
3924	14.271	0.54545	0.	-2191.
3925	14.454	0.54545	0.	-2154.6
3926	14.638	0.54545	0.	-2115.9
3927	14.822	0.54545	0.	-2075.4
3928	15.005	0.54545	0.	-2033.7
3929	15.189	0.54545	0.	-1991.
3930	15.372	0.54545	0.	-1947.6
3931	15.556	0.54545	0.	-1903.7
3932	15.739	0.54545	0.	-1859.5
3933	15.923	0.54545	0.	-1815.1
3934	16.107	0.54545	0.	-1770.6
3935	16.29	0.54545	0.	-1726.
3936	16.474	0.54545	0.	-1681.5
3937	16.657	0.54545	0.	-1637.
3938	16.841	0.54545	0.	-1592.7
3939	17.024	0.54545	0.	-1548.4
3940	17.208	0.54545	0.	-1504.4
3941	17.392	0.54545	0.	-1460.4
3942	17.575	0.54545	0.	-1416.7
3943	17.759	0.54545	0.	-1373.1
3944	17.942	0.54545	0.	-1329.7
3945	18.126	0.54545	0.	-1286.5
3946	18.309	0.54545	0.	-1243.5
3947	18.493	0.54545	0.	-1200.7
3948	18.677	0.54545	0.	-1158.
3949	18.86	0.54545	0.	-1115.6
3950	19.044	0.54545	0.	-1073.3
3951	19.227	0.54545	0.	-1031.2
3952	19.411	0.54545	0.	-989.29
3953	19.594	0.54545	0.	-947.55
3954	19.778	0.54545	0.	-905.98
3955	19.962	0.54545	0.	-864.59
3956	20.145	0.54545	0.	-823.36
3957	20.329	0.54545	0.	-782.29
3958	20.512	0.54545	0.	-741.39
3959	20.696	0.54545	0.	-700.64
3960	20.879	0.54545	0.	-660.05
3961	21.063	0.54545	0.	-619.6
3962	21.246	0.54545	0.	-579.31
3963	21.43	0.54545	0.	-539.17
3964	21.614	0.54545	0.	-499.17
3965	21.797	0.54545	0.	-459.32
3966	21.981	0.54545	0.	-419.63
3967	22.164	0.54545	0.	-380.1
3968	22.348	0.54545	0.	-340.75
3969	22.531	0.54545	0.	-301.6
3970	22.715	0.54545	0.	-262.67
3971	22.899	0.54545	0.	-224.03
3972	23.082	0.54545	0.	-185.74
3973	23.266	0.54545	0.	-147.91
3974	23.449	0.54545	0.	-110.69
3975	23.633	0.54545	0.	-74.225
3976	23.816	0.54545	0.	-38.767
3977	11.15	0.36364	0.	-746.79
3978	11.334	0.36364	0.	-951.21
3979	11.517	0.36364	0.	-1213.1
3980	11.701	0.36364	0.	-1459.5
3981	11.885	0.36364	0.	-1673.4
3982	12.068	0.36364	0.	-1850.2
3983	12.252	0.36364	0.	-1990.9
3984	12.435	0.36364	0.	-2098.8
3985	12.619	0.36364	0.	-2178.
3986	12.802	0.36364	0.	-2233.
3987	12.986	0.36364	0.	-2267.7
3988	13.169	0.36364	0.	-2285.8
3989	13.353	0.36364	0.	-2290.3
3990	13.537	0.36364	0.	-2283.9
3991	13.72	0.36364	0.	-2268.9
3992	13.904	0.36364	0.	-2246.9
3993	14.087	0.36364	0.	-2219.4
3994	14.271	0.36364	0.	-2187.7
3995	14.454	0.36364	0.	-2152.7
3996	14.638	0.36364	0.	-2115.
3997	14.822	0.36364	0.	-2075.4
3998	15.005	0.36364	0.	-2034.3
3999	15.189	0.36364	0.	-1992.1
4000	15.372	0.36364	0.	-1949.1
4001	15.556	0.36364	0.	-1905.5
4002	15.739	0.36364	0.	-1861.5
4003	15.923	0.36364	0.	-1817.2
4004	16.107	0.36364	0.	-1772.7
4005	16.29	0.36364	0.	-1728.2
4006	16.474	0.36364	0.	-1683.7
4007	16.657	0.36364	0.	-1639.3
4008	16.841	0.36364	0.	-1594.9
4009	17.024	0.36364	0.	-1550.7
4010	17.208	0.36364	0.	-1506.5
4011	17.392	0.36364	0.	-1462.6
4012	17.575	0.36364	0.	-1418.8
4013	17.759	0.36364	0.	-1375.2
4014	17.942	0.36364	0.	-1331.8
4015	18.126	0.36364	0.	-1288.5
4016	18.309	0.36364	0.	-1245.4
4017	18.493	0.36364	0.	-1202.6
4018	18.677	0.36364	0.	-1159.9
4019	18.86	0.36364	0.	-1117.4
4020	19.044	0.36364	0.	-1075.1
4021	19.227	0.36364	0.	-1032.9
4022	19.411	0.36364	0.	-990.95
4023	19.594	0.36364	0.	-949.17
4024	19.778	0.36364	0.	-907.55
4025	19.962	0.36364	0.	-866.11
4026	20.145	0.36364	0.	-824.83
4027	20.329	0.36364	0.	-783.7
4028	20.512	0.36364	0.	-742.74
4029	20.696	0.36364	0.	-701.93
4030	20.879	0.36364	0.	-661.27
4031	21.063	0.36364	0.	-620.75
4032	21.246	0.36364	0.	-580.37
4033	21.43	0.36364	0.	-540.14
4034	21.614	0.36364	0.	-500.04
4035	21.797	0.36364	0.	-460.09
4036	21.981	0.36364	0.	-420.27
4037	22.164	0.36364	0.	-380.6
4038	22.348	0.36364	0.	-341.09
4039	22.531	0.36364	0.	-301.74
4040	22.715	0.36364	0.	-262.59
4041	22.899	0.36364	0.	-223.68
4042	23.082	0.36364	0.	-185.07
4043	23.266	0.36364	0.	-146.87
4044	23.449	0.36364	0.	-109.29
4045	23.633	0.36364	0.	-72.706
4046	23.816	0.36364	0.	-37.939
4047	11.15	0.18182	0.	-537.01
4048	11.334	0.18182	0.	-832.49
4049	11.517	0.18182	0.	-1128.5
4050	11.701	0.18182	0.	-1390.6
4051	11.885	0.18182	0.	-1614.2
4052	12.068	0.18182	0.	-1799.
4053	12.252	0.18182	0.	-1947.1
4054	12.435	0.18182	0.	-2061.9
4055	12.619	0.18182	0.	-2147.5
4056	12.802	0.18182	0.	-2208.2
4057	12.986	0.18182	0.	-2247.9
4058	13.169	0.18182	0.	-2270.3
4059	13.353	0.18182	0.	-2278.5
4060	13.537	0.18182	0.	-2275.2
4061	13.72	0.18182	0.	-2262.7
4062	13.904	0.18182	0.	-2242.8
4063	14.087	0.18182	0.	-2217.
4064	14.271	0.18182	0.	-2186.7
4065	14.454	0.18182	0.	-2152.7
4066	14.638	0.18182	0.	-2116.
4067	14.822	0.18182	0.	-2077.
4068	15.005	0.18182	0.	-2036.5
4069	15.189	0.18182	0.	-1994.7
4070	15.372	0.18182	0.	-1952.
4071	15.556	0.18182	0.	-1908.6
4072	15.739	0.18182	0.	-1864.8
4073	15.923	0.18182	0.	-1820.7
4074	16.107	0.18182	0.	-1776.3
4075	16.29	0.18182	0.	-1731.9
4076	16.474	0.18182	0.	-1687.5
4077	16.657	0.18182	0.	-1643.1
4078	16.841	0.18182	0.	-1598.7
4079	17.024	0.18182	0.	-1554.5
4080	17.208	0.18182	0.	-1510.4
4081	17.392	0.18182	0.	-1466.5
4082	17.575	0.18182	0.	-1422.7
4083	17.759	0.18182	0.	-1379.1
4084	17.942	0.18182	0.	-1335.7
4085	18.126	0.18182	0.	-1292.5
4086	18.309	0.18182	0.	-1249.4
4087	18.493	0.18182	0.	-1206.6
4088	18.677	0.18182	0.	-1163.9
4089	18.86	0.18182	0.	-1121.4
4090	19.044	0.18182	0.	-1079.1
4091	19.227	0.18182	0.	-1037.
4092	19.411	0.18182	0.	-995.02
4093	19.594	0.18182	0.	-953.24
4094	19.778	0.18182	0.	-911.64
4095	19.962	0.18182	0.	-870.2
4096	20.145	0.18182	0.	-828.92
4097	20.329	0.18182	0.	-787.79
4098	20.512	0.18182	0.	-746.82
4099	20.696	0.18182	0.	-706.
4100	20.879	0.18182	0.	-665.32
4101	21.063	0.18182	0.	-624.77
4102	21.246	0.18182	0.	-584.36
4103	21.43	0.18182	0.	-544.08
4104	21.614	0.18182	0.	-503.92
4105	21.797	0.18182	0.	-463.89
4106	21.981	0.18182	0.	-423.98
4107	22.164	0.18182	0.	-384.2
4108	22.348	0.18182	0.	-344.54
4109	22.531	0.18182	0.	-305.01
4110	22.715	0.18182	0.	-265.63
4111	22.899	0.18182	0.	-226.42
4112	23.082	0.18182	0.	-187.41
4113	23.266	0.18182	0.	-148.66
4114	23.449	0.18182	0.	-110.3
4115	23.633	0.18182	0.	-72.578
4116	23.816	0.18182	0.	-36.929
4117	23.816	0.18182	0.1	-33.586
4118	23.633	0.18182	0.1	-32.474
4119	23.449	0.18182	0.1	-32.67
4120	23.266	0.18182	0.1	-32.888
4121	23.082	0.18182	0.1	-32.975
4122	22.899	0.18182	0.1	-32.928
4123	22.715	0.18182	0.1	-32.759
4124	22.531	0.18182	0.1	-32.489
4125	22.348	0.18182	0.1	-32.135
4126	22.164	0.18182	0.1	-31.713
4127	21.981	0.18182	0.1	-31.234
4128	21.797	0.18182	0.1	-30.707
4129	21.614	0.18182	0.1	-30.142
4130	21.43	0.18182	0.1	-29.545
4131	21.246	0.18182	0.1	-28.922
4132	21.063	0.18182	0.1	-28.276
4133	20.879	0.18182	0.1	-27.612
4134	20.696	0.18182	0.1	-26.933
4135	20.512	0.18182	0.1	-26.242
4136	20.329	0.18182	0.1	-25.539
4137	20.145	0.18182	0.1	-24.827
4138	19.962	0.18182	0.1	-24.107
4139	19.778	0.18182	0.1	-23.378
4140	19.594	0.18182	0.1	-22.643
4141	19.411	0.18182	0.1	-21.901
4142	19.227	0.18182	0.1	-21.152
4143	19.044	0.18182	0.1	-20.395
4144	18.86	0.18182	0.1	-19.632
4145	18.677	0.18182	0.1	-18.861
4146	18.493	0.18182	0.1	-18.083
4147	18.309	0.18182	0.1	-17.296
4148	18.126	0.18182	0.1	-16.502
4149	17.942	0.18182	0.1	-15.7
4150	17.759	0.18182	0.1	-14.89
4151	17.575	0.18182	0.1	-14.074
4152	17.392	0.18182	0.1	-13.253
4153	17.208	0.18182	0.1	-12.429
4154	17.024	0.18182	0.1	-11.605
4155	16.841	0.18182	0.1	-10.783
4156	16.657	0.18182	0.1	-9.97
4157	16.474	0.18182	0.1	-9.1713
4158	16.29	0.18182	0.1	-8.3952
4159	16.107	0.18182	0.1	-7.6516
4160	15.923	0.18182	0.1	-6.9529
4161	15.739	0.18182	0.1	-6.3142
4162	15.556	0.18182	0.1	-5.7534
4163	15.372	0.18182	0.1	-5.2923
4164	15.189	0.18182	0.1	-4.956
4165	15.005	0.18182	0.1	-4.7745
4166	14.822	0.18182	0.1	-4.7828
4167	14.638	0.18182	0.1	-5.0218
4168	14.454	0.18182	0.1	-5.539
4169	14.271	0.18182	0.1	-6.3891
4170	14.087	0.18182	0.1	-7.6328
4171	13.904	0.18182	0.1	-9.3367
4172	13.72	0.18182	0.1	-11.571
4173	13.537	0.18182	0.1	-14.406
4174	13.353	0.18182	0.1	-17.911
4175	13.169	0.18182	0.1	-22.14
4176	12.986	0.18182	0.1	-27.124
4177	12.802	0.18182	0.1	-32.844
4178	12.619	0.18182	0.1	-39.206
4179	12.435	0.18182	0.1	-45.996
4180	12.252	0.18182	0.1	-52.832
4181	12.068	0.18182	0.1	-59.121
4182	11.885	0.18182	0.1	-64.029
4183	11.701	0.18182	0.1	-66.626
4184	11.517	0.18182	0.1	-66.04
4185	11.334	0.18182	0.1	-65.283
4186	11.15	0.18182	0.1	-88.195
4187	23.816	0.36364	0.1	-56.469
4188	23.633	0.36364	0.1	-49.958
4189	23.449	0.36364	0.1	-46.076
4190	23.266	0.36364	0.1	-43.499
4191	23.082	0.36364	0.1	-41.534
4192	22.899	0.36364	0.1	-39.903
4193	22.715	0.36364	0.1	-38.464
4194	22.531	0.36364	0.1	-37.143
4195	22.348	0.36364	0.1	-35.9
4196	22.164	0.36364	0.1	-34.713
4197	21.981	0.36364	0.1	-33.566
4198	21.797	0.36364	0.1	-32.45
4199	21.614	0.36364	0.1	-31.361
4200	21.43	0.36364	0.1	-30.293
4201	21.246	0.36364	0.1	-29.245
4202	21.063	0.36364	0.1	-28.214
4203	20.879	0.36364	0.1	-27.197
4204	20.696	0.36364	0.1	-26.194
4205	20.512	0.36364	0.1	-25.202
4206	20.329	0.36364	0.1	-24.221
4207	20.145	0.36364	0.1	-23.247
4208	19.962	0.36364	0.1	-22.281
4209	19.778	0.36364	0.1	-21.32
4210	19.594	0.36364	0.1	-20.361
4211	19.411	0.36364	0.1	-19.404
4212	19.227	0.36364	0.1	-18.447
4213	19.044	0.36364	0.1	-17.487
4214	18.86	0.36364	0.1	-16.522
4215	18.677	0.36364	0.1	-15.552
4216	18.493	0.36364	0.1	-14.574
4217	18.309	0.36364	0.1	-13.586
4218	18.126	0.36364	0.1	-12.589
4219	17.942	0.36364	0.1	-11.58
4220	17.759	0.36364	0.1	-10.561
4221	17.575	0.36364	0.1	-9.5305
4222	17.392	0.36364	0.1	-8.4909
4223	17.208	0.36364	0.1	-7.4442
4224	17.024	0.36364	0.1	-6.394
4225	16.841	0.36364	0.1	-5.3456
4226	16.657	0.36364	0.1	-4.3061
4227	16.474	0.36364	0.1	-3.285
4228	16.29	0.36364	0.1	-2.295
4229	16.107	0.36364	0.1	-1.3528
4230	15.923	0.36364	0.1	-0.4894
4231	15.739	0.36364	0.1	-6.2247e-002
4232	15.556	0.36364	0.1	-4.5883e-002
4233	15.372	0.36364	0.1	-4.6569e-002
4234	15.189	0.36364	0.1	-5.1448e-002
4235	15.005	0.36364	0.1	-6.0959e-002
4236	14.822	0.36364	0.1	-8.0542e-002
4237	14.638	0.36364	0.1	-0.13418
4238	14.454	0.36364	0.1	-0.40476
4239	14.271	0.36364	0.1	-1.613
4240	14.087	0.36364	0.1	-3.7004
4241	13.904	0.36364	0.1	-6.5359
4242	13.72	0.36364	0.1	-10.179
4243	13.537	0.36364	0.1	-14.704
4244	13.353	0.36364	0.1	-20.173
4245	13.169	0.36364	0.1	-26.607
4246	12.986	0.36364	0.1	-33.965
4247	12.802	0.36364	0.1	-42.109
4248	12.619	0.36364	0.1	-50.754
4249	12.435	0.36364	0.1	-59.426
4250	12.252	0.36364	0.1	-67.43
4251	12.068	0.36364	0.1	-73.883
4252	11.885	0.36364	0.1	-77.907
4253	11.701	0.36364	0.1	-79.335
4254	11.517	0.36364	0.1	-80.452
4255	11.334	0.36364	0.1	-93.685
4256	11.15	0.36364	0.1	-175.52
4257	23.816	0.54545	0.1	-76.235
4258	23.633	0.54545	0.1	-67.784
4259	23.449	0.54545	0.1	-61.469
4260	23.266	0.54545	0.1	-56.711
4261	23.082	0.54545	0.1	-52.936
4262	22.899	0.54545	0.1	-49.817
4263	22.715	0.54545	0.1	-47.138
4264	22.531	0.54545	0.1	-44.769
4265	22.348	0.54545	0.1	-42.624
4266	22.164	0.54545	0.1	-40.65
4267	21.981	0.54545	0.1	-38.808
4268	21.797	0.54545	0.1	-37.073
4269	21.614	0.54545	0.1	-35.425
4270	21.43	0.54545	0.1	-33.851
4271	21.246	0.54545	0.1	-32.339
4272	21.063	0.54545	0.1	-30.881
4273	20.879	0.54545	0.1	-29.47
4274	20.696	0.54545	0.1	-28.099
4275	20.512	0.54545	0.1	-26.762
4276	20.329	0.54545	0.1	-25.456
4277	20.145	0.54545	0.1	-24.175
4278	19.962	0.54545	0.1	-22.914
4279	19.778	0.54545	0.1	-21.671
4280	19.594	0.54545	0.1	-20.44
4281	19.411	0.54545	0.1	-19.218
4282	19.227	0.54545	0.1	-18.001
4283	19.044	0.54545	0.1	-16.785
4284	18.86	0.54545	0.1	-15.567
4285	18.677	0.54545	0.1	-14.344
4286	18.493	0.54545	0.1	-13.111
4287	18.309	0.54545	0.1	-11.868
4288	18.126	0.54545	0.1	-10.61
4289	17.942	0.54545	0.1	-9.3369
4290	17.759	0.54545	0.1	-8.0467
4291	17.575	0.54545	0.1	-6.7393
4292	17.392	0.54545	0.1	-5.4155
4293	17.208	0.54545	0.1	-4.0773
4294	17.024	0.54545	0.1	-2.7286
4295	16.841	0.54545	0.1	-1.3755
4296	16.657	0.54545	0.1	-7.2299e-002
4297	16.474	0.54545	0.1	-8.728e-003
4298	16.29	0.54545	0.1	-8.7861e-003
4299	16.107	0.54545	0.1	-9.901e-003
4300	15.923	0.54545	0.1	-1.1482e-002
4301	15.739	0.54545	0.1	-1.3481e-002
4302	15.556	0.54545	0.1	-1.6007e-002
4303	15.372	0.54545	0.1	-1.9219e-002
4304	15.189	0.54545	0.1	-2.3396e-002
4305	15.005	0.54545	0.1	-2.9141e-002
4306	14.822	0.54545	0.1	-3.7541e-002
4307	14.638	0.54545	0.1	-5.0834e-002
4308	14.454	0.54545	0.1	-7.4532e-002
4309	14.271	0.54545	0.1	-0.12572
4310	14.087	0.54545	0.1	-0.28808
4311	13.904	0.54545	0.1	-1.3935
4312	13.72	0.54545	0.1	-5.1385
4313	13.537	0.54545	0.1	-10.38
4314	13.353	0.54545	0.1	-16.833
4315	13.169	0.54545	0.1	-24.49
4316	12.986	0.54545	0.1	-33.32
4317	12.802	0.54545	0.1	-43.21
4318	12.619	0.54545	0.1	-53.931
4319	12.435	0.54545	0.1	-65.128
4320	12.252	0.54545	0.1	-76.341
4321	12.068	0.54545	0.1	-87.165
4322	11.885	0.54545	0.1	-97.702
4323	11.701	0.54545	0.1	-109.8
4324	11.517	0.54545	0.1	-129.77
4325	11.334	0.54545	0.1	-177.08
4326	11.15	0.54545	0.1	-316.64
4327	23.816	0.72727	0.1	-92.917
4328	23.633	0.72727	0.1	-83.609
4329	23.449	0.72727	0.1	-75.909
4330	23.266	0.72727	0.1	-69.623
4331	23.082	0.72727	0.1	-64.392
4332	22.899	0.72727	0.1	-59.963
4333	22.715	0.72727	0.1	-56.131
4334	22.531	0.72727	0.1	-52.749
4335	22.348	0.72727	0.1	-49.714
4336	22.164	0.72727	0.1	-46.951
4337	21.981	0.72727	0.1	-44.406
4338	21.797	0.72727	0.1	-42.04
4339	21.614	0.72727	0.1	-39.821
4340	21.43	0.72727	0.1	-37.728
4341	21.246	0.72727	0.1	-35.741
4342	21.063	0.72727	0.1	-33.846
4343	20.879	0.72727	0.1	-32.029
4344	20.696	0.72727	0.1	-30.281
4345	20.512	0.72727	0.1	-28.592
4346	20.329	0.72727	0.1	-26.954
4347	20.145	0.72727	0.1	-25.359
4348	19.962	0.72727	0.1	-23.8
4349	19.778	0.72727	0.1	-22.269
4350	19.594	0.72727	0.1	-20.762
4351	19.411	0.72727	0.1	-19.271
4352	19.227	0.72727	0.1	-17.792
4353	19.044	0.72727	0.1	-16.317
4354	18.86	0.72727	0.1	-14.843
4355	18.677	0.72727	0.1	-13.363
4356	18.493	0.72727	0.1	-11.874
4357	18.309	0.72727	0.1	-10.37
4358	18.126	0.72727	0.1	-8.8478
4359	17.942	0.72727	0.1	-7.3042
4360	17.759	0.72727	0.1	-5.7366
4361	17.575	0.72727	0.1	-4.1437
4362	17.392	0.72727	0.1	-2.5261
4363	17.208	0.72727	0.1	-0.8932
4364	17.024	0.72727	0.1	-2.5756e-002
4365	16.841	0.72727	0.1	-1.2259e-002
4366	16.657	0.72727	0.1	-1.0373e-002
4367	16.474	0.72727	0.1	-1.0258e-002
4368	16.29	0.72727	0.1	-1.0848e-002
4369	16.107	0.72727	0.1	-1.1887e-002
4370	15.923	0.72727	0.1	-1.3321e-002
4371	15.739	0.72727	0.1	-1.5173e-002
4372	15.556	0.72727	0.1	-1.7549e-002
4373	15.372	0.72727	0.1	-2.0598e-002
4374	15.189	0.72727	0.1	-2.4536e-002
4375	15.005	0.72727	0.1	-2.9831e-002
4376	14.822	0.72727	0.1	-3.7212e-002
4377	14.638	0.72727	0.1	-4.7941e-002
4378	14.454	0.72727	0.1	-6.4476e-002
4379	14.271	0.72727	0.1	-9.1942e-002
4380	14.087	0.72727	0.1	-0.14267
4381	13.904	0.72727	0.1	-0.25349
4382	13.72	0.72727	0.1	-0.58606
4383	13.537	0.72727	0.1	-2.2969
4384	13.353	0.72727	0.1	-7.7109
4385	13.169	0.72727	0.1	-15.403
4386	12.986	0.72727	0.1	-24.712
4387	12.802	0.72727	0.1	-35.574
4388	12.619	0.72727	0.1	-48.006
4389	12.435	0.72727	0.1	-62.089
4390	12.252	0.72727	0.1	-78.08
4391	12.068	0.72727	0.1	-96.71
4392	11.885	0.72727	0.1	-119.82
4393	11.701	0.72727	0.1	-151.8
4394	11.517	0.72727	0.1	-201.93
4395	11.334	0.72727	0.1	-290.96
4396	11.15	0.72727	0.1	-485.17
4397	23.816	0.90909	0.1	-107.22
4398	23.633	0.90909	0.1	-97.478
4399	23.449	0.90909	0.1	-88.952
4400	23.266	0.90909	0.1	-81.634
4401	23.082	0.90909	0.1	-75.306
4402	22.899	0.90909	0.1	-69.807
4403	22.715	0.90909	0.1	-64.975
4404	22.531	0.90909	0.1	-60.677
4405	22.348	0.90909	0.1	-56.811
4406	22.164	0.90909	0.1	-53.296
4407	21.981	0.90909	0.1	-50.07
4408	21.797	0.90909	0.1	-47.085
4409	21.614	0.90909	0.1	-44.303
4410	21.43	0.90909	0.1	-41.695
4411	21.246	0.90909	0.1	-39.235
4412	21.063	0.90909	0.1	-36.903
4413	20.879	0.90909	0.1	-34.683
4414	20.696	0.90909	0.1	-32.558
4415	20.512	0.90909	0.1	-30.517
4416	20.329	0.90909	0.1	-28.548
4417	20.145	0.90909	0.1	-26.64
4418	19.962	0.90909	0.1	-24.783
4419	19.778	0.90909	0.1	-22.967
4420	19.594	0.90909	0.1	-21.185
4421	19.411	0.90909	0.1	-19.428
4422	19.227	0.90909	0.1	-17.688
4423	19.044	0.90909	0.1	-15.957
4424	18.86	0.90909	0.1	-14.228
4425	18.677	0.90909	0.1	-12.495
4426	18.493	0.90909	0.1	-10.75
4427	18.309	0.90909	0.1	-8.9868
4428	18.126	0.90909	0.1	-7.2006
4429	17.942	0.90909	0.1	-5.3863
4430	17.759	0.90909	0.1	-3.5403
4431	17.575	0.90909	0.1	-1.6641
4432	17.392	0.90909	0.1	-8.2694e-002
4433	17.208	0.90909	0.1	-1.7201e-002
4434	17.024	0.90909	0.1	-1.1887e-002
4435	16.841	0.90909	0.1	-1.0386e-002
4436	16.657	0.90909	0.1	-1.0036e-002
4437	16.474	0.90909	0.1	-1.0263e-002
4438	16.29	0.90909	0.1	-1.0891e-002
4439	16.107	0.90909	0.1	-1.1873e-002
4440	15.923	0.90909	0.1	-1.3227e-002
4441	15.739	0.90909	0.1	-1.5006e-002
4442	15.556	0.90909	0.1	-1.7334e-002
4443	15.372	0.90909	0.1	-2.0363e-002
4444	15.189	0.90909	0.1	-2.4292e-002
4445	15.005	0.90909	0.1	-2.9537e-002
4446	14.822	0.90909	0.1	-3.6688e-002
4447	14.638	0.90909	0.1	-4.666e-002
4448	14.454	0.90909	0.1	-6.1016e-002
4449	14.271	0.90909	0.1	-8.2504e-002
4450	14.087	0.90909	0.1	-0.11626
4451	13.904	0.90909	0.1	-0.17274
4452	13.72	0.90909	0.1	-0.27594
4453	13.537	0.90909	0.1	-0.49195
4454	13.353	0.90909	0.1	-1.0634
4455	13.169	0.90909	0.1	-3.217
4456	12.986	0.90909	0.1	-9.8332
4457	12.802	0.90909	0.1	-20.275
4458	12.619	0.90909	0.1	-33.677
4459	12.435	0.90909	0.1	-50.525
4460	12.252	0.90909	0.1	-72.104
4461	12.068	0.90909	0.1	-100.79
4462	11.885	0.90909	0.1	-140.76
4463	11.701	0.90909	0.1	-199.19
4464	11.517	0.90909	0.1	-287.3
4465	11.334	0.90909	0.1	-424.57
4466	11.15	0.90909	0.1	-680.67
4467	23.816	1.0909	0.1	-119.58
4468	23.633	1.0909	0.1	-109.59
4469	23.449	1.0909	0.1	-100.54
4470	23.266	1.0909	0.1	-92.524
4471	23.082	1.0909	0.1	-85.391
4472	22.899	1.0909	0.1	-79.052
4473	22.715	1.0909	0.1	-73.391
4474	22.531	1.0909	0.1	-68.302
4475	22.348	1.0909	0.1	-63.694
4476	22.164	1.0909	0.1	-59.491
4477	21.981	1.0909	0.1	-55.631
4478	21.797	1.0909	0.1	-52.062
4479	21.614	1.0909	0.1	-48.742
4480	21.43	1.0909	0.1	-45.638
4481	21.246	1.0909	0.1	-42.721
4482	21.063	1.0909	0.1	-39.965
4483	20.879	1.0909	0.1	-37.351
4484	20.696	1.0909	0.1	-34.859
4485	20.512	1.0909	0.1	-32.474
4486	20.329	1.0909	0.1	-30.181
4487	20.145	1.0909	0.1	-27.967
4488	19.962	1.0909	0.1	-25.818
4489	19.778	1.0909	0.1	-23.724
4490	19.594	1.0909	0.1	-21.674
4491	19.411	1.0909	0.1	-19.657
4492	19.227	1.0909	0.1	-17.662
4493	19.044	1.0909	0.1	-15.681
4494	18.86	1.0909	0.1	-13.704
4495	18.677	1.0909	0.1	-11.721
4496	18.493	1.0909	0.1	-9.7258
4497	18.309	1.0909	0.1	-7.7085
4498	18.126	1.0909	0.1	-5.6623
4499	17.942	1.0909	0.1	-3.581
4500	17.759	1.0909	0.1	-1.4662
4501	17.575	1.0909	0.1	-4.7818e-002
4502	17.392	1.0909	0.1	-1.6758e-002
4503	17.208	1.0909	0.1	-1.2274e-002
4504	17.024	1.0909	0.1	-1.0747e-002
4505	16.841	1.0909	0.1	-1.021e-002
4506	16.657	1.0909	0.1	-1.0185e-002
4507	16.474	1.0909	0.1	-1.0515e-002
4508	16.29	1.0909	0.1	-1.1153e-002
4509	16.107	1.0909	0.1	-1.21e-002
4510	15.923	1.0909	0.1	-1.3398e-002
4511	15.739	1.0909	0.1	-1.5111e-002
4512	15.556	1.0909	0.1	-1.7366e-002
4513	15.372	1.0909	0.1	-2.031e-002
4514	15.189	1.0909	0.1	-2.4125e-002
4515	15.005	1.0909	0.1	-2.9178e-002
4516	14.822	1.0909	0.1	-3.596e-002
4517	14.638	1.0909	0.1	-4.5176e-002
4518	14.454	1.0909	0.1	-5.7941e-002
4519	14.271	1.0909	0.1	-7.6021e-002
4520	14.087	1.0909	0.1	-0.10231
4521	13.904	1.0909	0.1	-0.14178
4522	13.72	1.0909	0.1	-0.20339
4523	13.537	1.0909	0.1	-0.30462
4524	13.353	1.0909	0.1	-0.48319
4525	13.169	1.0909	0.1	-0.83463
4526	12.986	1.0909	0.1	-1.667
4527	12.802	1.0909	0.1	-4.3317
4528	12.619	1.0909	0.1	-13.238
4529	12.435	1.0909	0.1	-30.616
4530	12.252	1.0909	0.1	-56.872
4531	12.068	1.0909	0.1	-95.717
4532	11.885	1.0909	0.1	-154.09
4533	11.701	1.0909	0.1	-242.78
4534	11.517	1.0909	0.1	-375.93
4535	11.334	1.0909	0.1	-572.79
4536	11.15	1.0909	0.1	-909.94
4537	23.816	1.2727	0.1	-130.29
4538	23.633	1.2727	0.1	-120.14
4539	23.449	1.2727	0.1	-110.75
4540	23.266	1.2727	0.1	-102.25
4541	23.082	1.2727	0.1	-94.523
4542	22.899	1.2727	0.1	-87.536
4543	22.715	1.2727	0.1	-81.205
4544	22.531	1.2727	0.1	-75.452
4545	22.348	1.2727	0.1	-70.203
4546	22.164	1.2727	0.1	-65.391
4547	21.981	1.2727	0.1	-60.957
4548	21.797	1.2727	0.1	-56.853
4549	21.614	1.2727	0.1	-53.034
4550	21.43	1.2727	0.1	-49.466
4551	21.246	1.2727	0.1	-46.116
4552	21.063	1.2727	0.1	-42.958
4553	20.879	1.2727	0.1	-39.969
4554	20.696	1.2727	0.1	-37.126
4555	20.512	1.2727	0.1	-34.412
4556	20.329	1.2727	0.1	-31.809
4557	20.145	1.2727	0.1	-29.3
4558	19.962	1.2727	0.1	-26.872
4559	19.778	1.2727	0.1	-24.511
4560	19.594	1.2727	0.1	-22.202
4561	19.411	1.2727	0.1	-19.935
4562	19.227	1.2727	0.1	-17.696
4563	19.044	1.2727	0.1	-15.473
4564	18.86	1.2727	0.1	-13.257
4565	18.677	1.2727	0.1	-11.035
4566	18.493	1.2727	0.1	-8.797
4567	18.309	1.2727	0.1	-6.5332
4568	18.126	1.2727	0.1	-4.2343
4569	17.942	1.2727	0.1	-1.8965
4570	17.759	1.2727	0.1	-6.3662e-002
4571	17.575	1.2727	0.1	-1.7806e-002
4572	17.392	1.2727	0.1	-1.2842e-002
4573	17.208	1.2727	0.1	-1.1112e-002
4574	17.024	1.2727	0.1	-1.0371e-002
4575	16.841	1.2727	0.1	-1.0116e-002
4576	16.657	1.2727	0.1	-1.0181e-002
4577	16.474	1.2727	0.1	-1.0511e-002
4578	16.29	1.2727	0.1	-1.1099e-002
4579	16.107	1.2727	0.1	-1.1965e-002
4580	15.923	1.2727	0.1	-1.3162e-002
4581	15.739	1.2727	0.1	-1.4756e-002
4582	15.556	1.2727	0.1	-1.6871e-002
4583	15.372	1.2727	0.1	-1.9644e-002
4584	15.189	1.2727	0.1	-2.3237e-002
4585	15.005	1.2727	0.1	-2.7976e-002
4586	14.822	1.2727	0.1	-3.4274e-002
4587	14.638	1.2727	0.1	-4.269e-002
4588	14.454	1.2727	0.1	-5.4067e-002
4589	14.271	1.2727	0.1	-6.9649e-002
4590	14.087	1.2727	0.1	-9.1315e-002
4591	13.904	1.2727	0.1	-0.12199
4592	13.72	1.2727	0.1	-0.16637
4593	13.537	1.2727	0.1	-0.23231
4594	13.353	1.2727	0.1	-0.33377
4595	13.169	1.2727	0.1	-0.49785
4596	12.986	1.2727	0.1	-0.78428
4597	12.802	1.2727	0.1	-1.3538
4598	12.619	1.2727	0.1	-2.8065
4599	12.435	1.2727	0.1	-8.6994
4600	12.252	1.2727	0.1	-31.667
4601	12.068	1.2727	0.1	-77.072
4602	11.885	1.2727	0.1	-151.39
4603	11.701	1.2727	0.1	-269.85
4604	11.517	1.2727	0.1	-453.5
4605	11.334	1.2727	0.1	-730.94
4606	11.15	1.2727	0.1	-1187.8
4607	23.816	1.4545	0.1	-139.55
4608	23.633	1.4545	0.1	-129.31
4609	23.449	1.4545	0.1	-119.68
4610	23.266	1.4545	0.1	-110.82
4611	23.082	1.4545	0.1	-102.66
4612	22.899	1.4545	0.1	-95.175
4613	22.715	1.4545	0.1	-88.312
4614	22.531	1.4545	0.1	-82.013
4615	22.348	1.4545	0.1	-76.223
4616	22.164	1.4545	0.1	-70.884
4617	21.981	1.4545	0.1	-65.945
4618	21.797	1.4545	0.1	-61.361
4619	21.614	1.4545	0.1	-57.09
4620	21.43	1.4545	0.1	-53.097
4621	21.246	1.4545	0.1	-49.349
4622	21.063	1.4545	0.1	-45.818
4623	20.879	1.4545	0.1	-42.478
4624	20.696	1.4545	0.1	-39.308
4625	20.512	1.4545	0.1	-36.284
4626	20.329	1.4545	0.1	-33.389
4627	20.145	1.4545	0.1	-30.604
4628	19.962	1.4545	0.1	-27.912
4629	19.778	1.4545	0.1	-25.298
4630	19.594	1.4545	0.1	-22.746
4631	19.411	1.4545	0.1	-20.242
4632	19.227	1.4545	0.1	-17.772
4633	19.044	1.4545	0.1	-15.321
4634	18.86	1.4545	0.1	-12.878
4635	18.677	1.4545	0.1	-10.428
4636	18.493	1.4545	0.1	-7.9598
4637	18.309	1.4545	0.1	-5.4608
4638	18.126	1.4545	0.1	-2.921
4639	17.942	1.4545	0.1	-0.39052
4640	17.759	1.4545	0.1	-2.0712e-002
4641	17.575	1.4545	0.1	-1.3726e-002
4642	17.392	1.4545	0.1	-1.1598e-002
4643	17.208	1.4545	0.1	-1.0644e-002
4644	17.024	1.4545	0.1	-1.0187e-002
4645	16.841	1.4545	0.1	-1.0025e-002
4646	16.657	1.4545	0.1	-1.0095e-002
4647	16.474	1.4545	0.1	-1.0376e-002
4648	16.29	1.4545	0.1	-1.0879e-002
4649	16.107	1.4545	0.1	-1.1633e-002
4650	15.923	1.4545	0.1	-1.2688e-002
4651	15.739	1.4545	0.1	-1.4113e-002
4652	15.556	1.4545	0.1	-1.6022e-002
4653	15.372	1.4545	0.1	-1.8541e-002
4654	15.189	1.4545	0.1	-2.181e-002
4655	15.005	1.4545	0.1	-2.6117e-002
4656	14.822	1.4545	0.1	-3.1813e-002
4657	14.638	1.4545	0.1	-3.9346e-002
4658	14.454	1.4545	0.1	-4.9375e-002
4659	14.271	1.4545	0.1	-6.2822e-002
4660	14.087	1.4545	0.1	-8.1012e-002
4661	13.904	1.4545	0.1	-0.10587
4662	13.72	1.4545	0.1	-0.1403
4663	13.537	1.4545	0.1	-0.18873
4664	13.353	1.4545	0.1	-0.25837
4665	13.169	1.4545	0.1	-0.36163
4666	12.986	1.4545	0.1	-0.52196
4667	12.802	1.4545	0.1	-0.79031
4668	12.619	1.4545	0.1	-1.3006
4669	12.435	1.4545	0.1	-2.5534
4670	12.252	1.4545	0.1	-8.026
4671	12.068	1.4545	0.1	-42.785
4672	11.885	1.4545	0.1	-124.14
4673	11.701	1.4545	0.1	-264.34
4674	11.517	1.4545	0.1	-497.77
4675	11.334	1.4545	0.1	-873.78
4676	11.15	1.4545	0.1	-1524.5
4677	23.816	1.6364	0.1	-147.51
4678	23.633	1.6364	0.1	-137.21
4679	23.449	1.6364	0.1	-127.41
4680	23.266	1.6364	0.1	-118.29
4681	23.082	1.6364	0.1	-109.81
4682	22.899	1.6364	0.1	-101.94
4683	22.715	1.6364	0.1	-94.654
4684	22.531	1.6364	0.1	-87.913
4685	22.348	1.6364	0.1	-81.672
4686	22.164	1.6364	0.1	-75.886
4687	21.981	1.6364	0.1	-70.512
4688	21.797	1.6364	0.1	-65.508
4689	21.614	1.6364	0.1	-60.837
4690	21.43	1.6364	0.1	-56.463
4691	21.246	1.6364	0.1	-52.356
4692	21.063	1.6364	0.1	-48.487
4693	20.879	1.6364	0.1	-44.828
4694	20.696	1.6364	0.1	-41.356
4695	20.512	1.6364	0.1	-38.049
4696	20.329	1.6364	0.1	-34.885
4697	20.145	1.6364	0.1	-31.844
4698	19.962	1.6364	0.1	-28.909
4699	19.778	1.6364	0.1	-26.061
4700	19.594	1.6364	0.1	-23.283
4701	19.411	1.6364	0.1	-20.56
4702	19.227	1.6364	0.1	-17.875
4703	19.044	1.6364	0.1	-15.213
4704	18.86	1.6364	0.1	-12.558
4705	18.677	1.6364	0.1	-9.8962
4706	18.493	1.6364	0.1	-7.2125
4707	18.309	1.6364	0.1	-4.4931
4708	18.126	1.6364	0.1	-1.7294
4709	17.942	1.6364	0.1	-3.1639e-002
4710	17.759	1.6364	0.1	-1.5167e-002
4711	17.575	1.6364	0.1	-1.2252e-002
4712	17.392	1.6364	0.1	-1.1021e-002
4713	17.208	1.6364	0.1	-1.0379e-002
4714	17.024	1.6364	0.1	-1.0029e-002
4715	16.841	1.6364	0.1	-9.879e-003
4716	16.657	1.6364	0.1	-9.9067e-003
4717	16.474	1.6364	0.1	-1.0106e-002
4718	16.29	1.6364	0.1	-1.0495e-002
4719	16.107	1.6364	0.1	-1.1105e-002
4720	15.923	1.6364	0.1	-1.1987e-002
4721	15.739	1.6364	0.1	-1.3199e-002
4722	15.556	1.6364	0.1	-1.4852e-002
4723	15.372	1.6364	0.1	-1.7056e-002
4724	15.189	1.6364	0.1	-1.9928e-002
4725	15.005	1.6364	0.1	-2.3726e-002
4726	14.822	1.6364	0.1	-2.8745e-002
4727	14.638	1.6364	0.1	-3.5352e-002
4728	14.454	1.6364	0.1	-4.4075e-002
4729	14.271	1.6364	0.1	-5.5624e-002
4730	14.087	1.6364	0.1	-7.098e-002
4731	13.904	1.6364	0.1	-9.1511e-002
4732	13.72	1.6364	0.1	-0.11916
4733	13.537	1.6364	0.1	-0.15675
4734	13.353	1.6364	0.1	-0.20857
4735	13.169	1.6364	0.1	-0.28152
4736	12.986	1.6364	0.1	-0.38748
4737	12.802	1.6364	0.1	-0.54975
4738	12.619	1.6364	0.1	-0.81853
4739	12.435	1.6364	0.1	-1.3403
4740	12.252	1.6364	0.1	-2.6589
4741	12.068	1.6364	0.1	-9.8001
4742	11.885	1.6364	0.1	-69.456
4743	11.701	1.6364	0.1	-211.45
4744	11.517	1.6364	0.1	-466.28
4745	11.334	1.6364	0.1	-951.3
4746	11.15	1.6364	0.1	-2003.8
4747	23.816	1.8182	0.1	-154.29
4748	23.633	1.8182	0.1	-143.94
4749	23.449	1.8182	0.1	-134.02
4750	23.266	1.8182	0.1	-124.72
4751	23.082	1.8182	0.1	-115.98
4752	22.899	1.8182	0.1	-107.82
4753	22.715	1.8182	0.1	-100.2
4754	22.531	1.8182	0.1	-93.107
4755	22.348	1.8182	0.1	-86.498
4756	22.164	1.8182	0.1	-80.34
4757	21.981	1.8182	0.1	-74.597
4758	21.797	1.8182	0.1	-69.234
4759	21.614	1.8182	0.1	-64.216
4760	21.43	1.8182	0.1	-59.51
4761	21.246	1.8182	0.1	-55.087
4762	21.063	1.8182	0.1	-50.917
4763	20.879	1.8182	0.1	-46.973
4764	20.696	1.8182	0.1	-43.232
4765	20.512	1.8182	0.1	-39.669
4766	20.329	1.8182	0.1	-36.263
4767	20.145	1.8182	0.1	-32.992
4768	19.962	1.8182	0.1	-29.836
4769	19.778	1.8182	0.1	-26.777
4770	19.594	1.8182	0.1	-23.795
4771	19.411	1.8182	0.1	-20.873
4772	19.227	1.8182	0.1	-17.993
4773	19.044	1.8182	0.1	-15.138
4774	18.86	1.8182	0.1	-12.291
4775	18.677	1.8182	0.1	-9.4351
4776	18.493	1.8182	0.1	-6.5544
4777	18.309	1.8182	0.1	-3.6329
4778	18.126	1.8182	0.1	-0.67556
4779	17.942	1.8182	0.1	-1.8341e-002
4780	17.759	1.8182	0.1	-1.3175e-002
4781	17.575	1.8182	0.1	-1.1538e-002
4782	17.392	1.8182	0.1	-1.0692e-002
4783	17.208	1.8182	0.1	-1.0186e-002
4784	17.024	1.8182	0.1	-9.8637e-003
4785	16.841	1.8182	0.1	-9.6864e-003
4786	16.657	1.8182	0.1	-9.6447e-003
4787	16.474	1.8182	0.1	-9.7426e-003
4788	16.29	1.8182	0.1	-1.0003e-002
4789	16.107	1.8182	0.1	-1.0451e-002
4790	15.923	1.8182	0.1	-1.1135e-002
4791	15.739	1.8182	0.1	-1.211e-002
4792	15.556	1.8182	0.1	-1.3475e-002
4793	15.372	1.8182	0.1	-1.5327e-002
4794	15.189	1.8182	0.1	-1.7763e-002
4795	15.005	1.8182	0.1	-2.101e-002
4796	14.822	1.8182	0.1	-2.5324e-002
4797	14.638	1.8182	0.1	-3.1008e-002
4798	14.454	1.8182	0.1	-3.8492e-002
4799	14.271	1.8182	0.1	-4.8347e-002
4800	14.087	1.8182	0.1	-6.1327e-002
4801	13.904	1.8182	0.1	-7.8457e-002
4802	13.72	1.8182	0.1	-0.10112
4803	13.537	1.8182	0.1	-0.13125
4804	13.353	1.8182	0.1	-0.17157
4805	13.169	1.8182	0.1	-0.22625
4806	12.986	1.8182	0.1	-0.30178
4807	12.802	1.8182	0.1	-0.4104
4808	12.619	1.8182	0.1	-0.57323
4809	12.435	1.8182	0.1	-0.85165
4810	12.252	1.8182	0.1	-1.3762
4811	12.068	1.8182	0.1	-2.9224
4812	11.885	1.8182	0.1	-13.324
4813	11.701	1.8182	0.1	-113.15
4814	11.517	1.8182	0.1	-334.26
4815	11.334	1.8182	0.1	-862.15
4816	11.15	1.8182	0.1	-2207.7
4817	23.816	2.	0.1	-159.98
4818	23.633	2.	0.1	-149.6
4819	23.449	2.	0.1	-139.58
4820	23.266	2.	0.1	-130.14
4821	23.082	2.	0.1	-121.21
4822	22.899	2.	0.1	-112.82
4823	22.715	2.	0.1	-104.95
4824	22.531	2.	0.1	-97.572
4825	22.348	2.	0.1	-90.666
4826	22.164	2.	0.1	-84.205
4827	21.981	2.	0.1	-78.157
4828	21.797	2.	0.1	-72.493
4829	21.614	2.	0.1	-67.181
4830	21.43	2.	0.1	-62.192
4831	21.246	2.	0.1	-57.497
4832	21.063	2.	0.1	-53.067
4833	20.879	2.	0.1	-48.877
4834	20.696	2.	0.1	-44.901
4835	20.512	2.	0.1	-41.115
4836	20.329	2.	0.1	-37.496
4837	20.145	2.	0.1	-34.022
4838	19.962	2.	0.1	-30.673
4839	19.778	2.	0.1	-27.427
4840	19.594	2.	0.1	-24.264
4841	19.411	2.	0.1	-21.166
4842	19.227	2.	0.1	-18.114
4843	19.044	2.	0.1	-15.088
4844	18.86	2.	0.1	-12.07
4845	18.677	2.	0.1	-9.0423
4846	18.493	2.	0.1	-5.986
4847	18.309	2.	0.1	-2.8841
4848	18.126	2.	0.1	-5.5977e-002
4849	17.942	2.	0.1	-1.4723e-002
4850	17.759	2.	0.1	-1.2221e-002
4851	17.575	2.	0.1	-1.1135e-002
4852	17.392	2.	0.1	-1.0472e-002
4853	17.208	2.	0.1	-1.0018e-002
4854	17.024	2.	0.1	-9.6884e-003
4855	16.841	2.	0.1	-9.4587e-003
4856	16.657	2.	0.1	-9.3365e-003
4857	16.474	2.	0.1	-9.3249e-003
4858	16.29	2.	0.1	-9.4468e-003
4859	16.107	2.	0.1	-9.7268e-003
4860	15.923	2.	0.1	-1.0208e-002
4861	15.739	2.	0.1	-1.0937e-002
4862	15.556	2.	0.1	-1.2004e-002
4863	15.372	2.	0.1	-1.3494e-002
4864	15.189	2.	0.1	-1.5486e-002
4865	15.005	2.	0.1	-1.8184e-002
4866	14.822	2.	0.1	-2.1809e-002
4867	14.638	2.	0.1	-2.6617e-002
4868	14.454	2.	0.1	-3.2973e-002
4869	14.271	2.	0.1	-4.1349e-002
4870	14.087	2.	0.1	-5.2363e-002
4871	13.904	2.	0.1	-6.6821e-002
4872	13.72	2.	0.1	-8.5785e-002
4873	13.537	2.	0.1	-0.11066
4874	13.353	2.	0.1	-0.14332
4875	13.169	2.	0.1	-0.18642
4876	12.986	2.	0.1	-0.24356
4877	12.802	2.	0.1	-0.32175
4878	12.619	2.	0.1	-0.42763
4879	12.435	2.	0.1	-0.59835
4880	12.252	2.	0.1	-0.82208
4881	12.068	2.	0.1	-1.5008
4882	11.885	2.	0.1	-2.3273
4883	11.701	2.	0.1	-20.529
4884	11.517	2.	0.1	-165.41
4885	11.334	2.	0.1	-479.49
4886	11.15	2.	0.1	-1429.2
4887	23.816	2.1818	0.1	-164.63
4888	23.633	2.1818	0.1	-154.23
4889	23.449	2.1818	0.1	-144.14
4890	23.266	2.1818	0.1	-134.59
4891	23.082	2.1818	0.1	-125.53
4892	22.899	2.1818	0.1	-116.97
4893	22.715	2.1818	0.1	-108.89
4894	22.531	2.1818	0.1	-101.3
4895	22.348	2.1818	0.1	-94.156
4896	22.164	2.1818	0.1	-87.453
4897	21.981	2.1818	0.1	-81.159
4898	21.797	2.1818	0.1	-75.25
4899	21.614	2.1818	0.1	-69.698
4900	21.43	2.1818	0.1	-64.474
4901	21.246	2.1818	0.1	-59.552
4902	21.063	2.1818	0.1	-54.905
4903	20.879	2.1818	0.1	-50.507
4904	20.696	2.1818	0.1	-46.333
4905	20.512	2.1818	0.1	-42.358
4906	20.329	2.1818	0.1	-38.559
4907	20.145	2.1818	0.1	-34.913
4908	19.962	2.1818	0.1	-31.398
4909	19.778	2.1818	0.1	-27.993
4910	19.594	2.1818	0.1	-24.677
4911	19.411	2.1818	0.1	-21.428
4912	19.227	2.1818	0.1	-18.228
4913	19.044	2.1818	0.1	-15.056
4914	18.86	2.1818	0.1	-11.892
4915	18.677	2.1818	0.1	-8.7161
4916	18.493	2.1818	0.1	-5.5086
4917	18.309	2.1818	0.1	-2.2508
4918	18.126	2.1818	0.1	-2.1036e-002
4919	17.942	2.1818	0.1	-1.3167e-002
4920	17.759	2.1818	0.1	-1.1694e-002
4921	17.575	2.1818	0.1	-1.0881e-002
4922	17.392	2.1818	0.1	-1.0307e-002
4923	17.208	2.1818	0.1	-9.8679e-003
4924	17.024	2.1818	0.1	-9.5075e-003
4925	16.841	2.1818	0.1	-9.2214e-003
4926	16.657	2.1818	0.1	-9.015e-003
4927	16.474	2.1818	0.1	-8.8951e-003
4928	16.29	2.1818	0.1	-8.8828e-003
4929	16.107	2.1818	0.1	-9.0006e-003
4930	15.923	2.1818	0.1	-9.2833e-003
4931	15.739	2.1818	0.1	-9.7759e-003
4932	15.556	2.1818	0.1	-1.0558e-002
4933	15.372	2.1818	0.1	-1.1702e-002
4934	15.189	2.1818	0.1	-1.3273e-002
4935	15.005	2.1818	0.1	-1.5457e-002
4936	14.822	2.1818	0.1	-1.8449e-002
4937	14.638	2.1818	0.1	-2.2473e-002
4938	14.454	2.1818	0.1	-2.7848e-002
4939	14.271	2.1818	0.1	-3.4989e-002
4940	14.087	2.1818	0.1	-4.443e-002
4941	13.904	2.1818	0.1	-5.6866e-002
4942	13.72	2.1818	0.1	-7.3188e-002
4943	13.537	2.1818	0.1	-9.4551e-002
4944	13.353	2.1818	0.1	-0.12241
4945	13.169	2.1818	0.1	-0.15869
4946	12.986	2.1818	0.1	-0.20573
4947	12.802	2.1818	0.1	-0.26774
4948	12.619	2.1818	0.1	-0.34628
4949	12.435	2.1818	0.1	-0.46399
4950	12.252	2.1818	0.1	-0.57853
4951	12.068	2.1818	0.1	-0.97511
4952	11.885	2.1818	0.1	-0.71325
4953	11.701	2.1818	0.1	-4.4266
4954	11.517	2.1818	0.1	-61.88
4955	11.334	2.1818	0.1	-296.85
4956	11.15	2.1818	0.1	-695.83
4957	23.816	2.3636	0.1	-168.29
4958	23.633	2.3636	0.1	-157.88
4959	23.449	2.3636	0.1	-147.74
4960	23.266	2.3636	0.1	-138.11
4961	23.082	2.3636	0.1	-128.95
4962	22.899	2.3636	0.1	-120.26
4963	22.715	2.3636	0.1	-112.04
4964	22.531	2.3636	0.1	-104.27
4965	22.348	2.3636	0.1	-96.956
4966	22.164	2.3636	0.1	-90.066
4967	21.981	2.3636	0.1	-83.582
4968	21.797	2.3636	0.1	-77.481
4969	21.614	2.3636	0.1	-71.738
4970	21.43	2.3636	0.1	-66.328
4971	21.246	2.3636	0.1	-61.226
4972	21.063	2.3636	0.1	-56.404
4973	20.879	2.3636	0.1	-51.839
4974	20.696	2.3636	0.1	-47.505
4975	20.512	2.3636	0.1	-43.377
4976	20.329	2.3636	0.1	-39.432
4977	20.145	2.3636	0.1	-35.647
4978	19.962	2.3636	0.1	-31.997
4979	19.778	2.3636	0.1	-28.463
4980	19.594	2.3636	0.1	-25.021
4981	19.411	2.3636	0.1	-21.65
4982	19.227	2.3636	0.1	-18.329
4983	19.044	2.3636	0.1	-15.037
4984	18.86	2.3636	0.1	-11.753
4985	18.677	2.3636	0.1	-8.4555
4986	18.493	2.3636	0.1	-5.1237
4987	18.309	2.3636	0.1	-1.7374
4988	18.126	2.3636	0.1	-1.5443e-002
4989	17.942	2.3636	0.1	-1.2369e-002
4990	17.759	2.3636	0.1	-1.1383e-002
4991	17.575	2.3636	0.1	-1.0712e-002
4992	17.392	2.3636	0.1	-1.018e-002
4993	17.208	2.3636	0.1	-9.7328e-003
4994	17.024	2.3636	0.1	-9.3388e-003
4995	16.841	2.3636	0.1	-8.9937e-003
4996	16.657	2.3636	0.1	-8.7096e-003
4997	16.474	2.3636	0.1	-8.4933e-003
4998	16.29	2.3636	0.1	-8.3598e-003
4999	16.107	2.3636	0.1	-8.3313e-003
5000	15.923	2.3636	0.1	-8.4404e-003
5001	15.739	2.3636	0.1	-8.7205e-003
5002	15.556	2.3636	0.1	-9.2482e-003
5003	15.372	2.3636	0.1	-1.0086e-002
5004	15.189	2.3636	0.1	-1.1288e-002
5005	15.005	2.3636	0.1	-1.3025e-002
5006	14.822	2.3636	0.1	-1.5473e-002
5007	14.638	2.3636	0.1	-1.8836e-002
5008	14.454	2.3636	0.1	-2.341e-002
5009	14.271	2.3636	0.1	-2.9574e-002
5010	14.087	2.3636	0.1	-3.7828e-002
5011	13.904	2.3636	0.1	-4.8825e-002
5012	13.72	2.3636	0.1	-6.341e-002
5013	13.537	2.3636	0.1	-8.2676e-002
5014	13.353	2.3636	0.1	-0.108
5015	13.169	2.3636	0.1	-0.14117
5016	12.986	2.3636	0.1	-0.18435
5017	12.802	2.3636	0.1	-0.24053
5018	12.619	2.3636	0.1	-0.31244
5019	12.435	2.3636	0.1	-0.40754
5020	12.252	2.3636	0.1	-0.52534
5021	12.068	2.3636	0.1	-0.70361
5022	11.885	2.3636	0.1	-0.97698
5023	11.701	2.3636	0.1	-1.0386
5024	11.517	2.3636	0.1	-69.024
5025	11.334	2.3636	0.1	-308.98
5026	11.15	2.3636	0.1	-709.23
5027	23.816	2.5455	0.1	-171.01
5028	23.633	2.5455	0.1	-160.59
5029	23.449	2.5455	0.1	-150.42
5030	23.266	2.5455	0.1	-140.74
5031	23.082	2.5455	0.1	-131.5
5032	22.899	2.5455	0.1	-122.72
5033	22.715	2.5455	0.1	-114.39
5034	22.531	2.5455	0.1	-106.51
5035	22.348	2.5455	0.1	-99.06
5036	22.164	2.5455	0.1	-92.034
5037	21.981	2.5455	0.1	-85.41
5038	21.797	2.5455	0.1	-79.167
5039	21.614	2.5455	0.1	-73.283
5040	21.43	2.5455	0.1	-67.735
5041	21.246	2.5455	0.1	-62.498
5042	21.063	2.5455	0.1	-57.546
5043	20.879	2.5455	0.1	-52.855
5044	20.696	2.5455	0.1	-48.4
5045	20.512	2.5455	0.1	-44.157
5046	20.329	2.5455	0.1	-40.101
5047	20.145	2.5455	0.1	-36.209
5048	19.962	2.5455	0.1	-32.458
5049	19.778	2.5455	0.1	-28.824
5050	19.594	2.5455	0.1	-25.287
5051	19.411	2.5455	0.1	-21.822
5052	19.227	2.5455	0.1	-18.409
5053	19.044	2.5455	0.1	-15.026
5054	18.86	2.5455	0.1	-11.65
5055	18.677	2.5455	0.1	-8.2601
5056	18.493	2.5455	0.1	-4.8331
5057	18.309	2.5455	0.1	-1.3477
5058	18.126	2.5455	0.1	-1.3425e-002
5059	17.942	2.5455	0.1	-1.193e-002
5060	17.759	2.5455	0.1	-1.1193e-002
5061	17.575	2.5455	0.1	-1.0598e-002
5062	17.392	2.5455	0.1	-1.0082e-002
5063	17.208	2.5455	0.1	-9.6239e-003
5064	17.024	2.5455	0.1	-9.1961e-003
5065	16.841	2.5455	0.1	-8.8039e-003
5066	16.657	2.5455	0.1	-8.4545e-003
5067	16.474	2.5455	0.1	-8.157e-003
5068	16.29	2.5455	0.1	-7.9251e-003
5069	16.107	2.5455	0.1	-7.7776e-003
5070	15.923	2.5455	0.1	-7.7434e-003
5071	15.739	2.5455	0.1	-7.8521e-003
5072	15.556	2.5455	0.1	-8.1737e-003
5073	15.372	2.5455	0.1	-8.7639e-003
5074	15.189	2.5455	0.1	-9.6695e-003
5075	15.005	2.5455	0.1	-1.1048e-002
5076	14.822	2.5455	0.1	-1.3071e-002
5077	14.638	2.5455	0.1	-1.5923e-002
5078	14.454	2.5455	0.1	-1.9889e-002
5079	14.271	2.5455	0.1	-2.5339e-002
5080	14.087	2.5455	0.1	-3.2765e-002
5081	13.904	2.5455	0.1	-4.2826e-002
5082	13.72	2.5455	0.1	-5.6394e-002
5083	13.537	2.5455	0.1	-7.4631e-002
5084	13.353	2.5455	0.1	-9.906e-002
5085	13.169	2.5455	0.1	-0.13167
5086	12.986	2.5455	0.1	-0.17509
5087	12.802	2.5455	0.1	-0.2326
5088	12.619	2.5455	0.1	-0.30836
5089	12.435	2.5455	0.1	-0.40698
5090	12.252	2.5455	0.1	-0.53887
5091	12.068	2.5455	0.1	-0.69794
5092	11.885	2.5455	0.1	-0.98913
5093	11.701	2.5455	0.1	-1.7277
5094	11.517	2.5455	0.1	-113.28
5095	11.334	2.5455	0.1	-359.52
5096	11.15	2.5455	0.1	-653.45
5097	23.816	2.7273	0.1	-172.81
5098	23.633	2.7273	0.1	-162.38
5099	23.449	2.7273	0.1	-152.19
5100	23.266	2.7273	0.1	-142.47
5101	23.082	2.7273	0.1	-133.19
5102	22.899	2.7273	0.1	-124.35
5103	22.715	2.7273	0.1	-115.95
5104	22.531	2.7273	0.1	-107.99
5105	22.348	2.7273	0.1	-100.46
5106	22.164	2.7273	0.1	-93.348
5107	21.981	2.7273	0.1	-86.633
5108	21.797	2.7273	0.1	-80.297
5109	21.614	2.7273	0.1	-74.321
5110	21.43	2.7273	0.1	-68.681
5111	21.246	2.7273	0.1	-63.353
5112	21.063	2.7273	0.1	-58.314
5113	20.879	2.7273	0.1	-53.539
5114	20.696	2.7273	0.1	-49.004
5115	20.512	2.7273	0.1	-44.683
5116	20.329	2.7273	0.1	-40.553
5117	20.145	2.7273	0.1	-36.589
5118	19.962	2.7273	0.1	-32.769
5119	19.778	2.7273	0.1	-29.07
5120	19.594	2.7273	0.1	-25.468
5121	19.411	2.7273	0.1	-21.94
5122	19.227	2.7273	0.1	-18.465
5123	19.044	2.7273	0.1	-15.02
5124	18.86	2.7273	0.1	-11.583
5125	18.677	2.7273	0.1	-8.1298
5126	18.493	2.7273	0.1	-4.6384
5127	18.309	2.7273	0.1	-1.0854
5128	18.126	2.7273	0.1	-1.2537e-002
5129	17.942	2.7273	0.1	-1.1692e-002
5130	17.759	2.7273	0.1	-1.1081e-002
5131	17.575	2.7273	0.1	-1.0526e-002
5132	17.392	2.7273	0.1	-1.0016e-002
5133	17.208	2.7273	0.1	-9.5454e-003
5134	17.024	2.7273	0.1	-9.0931e-003
5135	16.841	2.7273	0.1	-8.6644e-003
5136	16.657	2.7273	0.1	-8.2692e-003
5137	16.474	2.7273	0.1	-7.9148e-003
5138	16.29	2.7273	0.1	-7.6128e-003
5139	16.107	2.7273	0.1	-7.3819e-003
5140	15.923	2.7273	0.1	-7.2465e-003
5141	15.739	2.7273	0.1	-7.2341e-003
5142	15.556	2.7273	0.1	-7.4107e-003
5143	15.372	2.7273	0.1	-7.8281e-003
5144	15.189	2.7273	0.1	-8.5262e-003
5145	15.005	2.7273	0.1	-9.6587e-003
5146	14.822	2.7273	0.1	-1.1386e-002
5147	14.638	2.7273	0.1	-1.3892e-002
5148	14.454	2.7273	0.1	-1.7454e-002
5149	14.271	2.7273	0.1	-2.2441e-002
5150	14.087	2.7273	0.1	-2.9354e-002
5151	13.904	2.7273	0.1	-3.8877e-002
5152	13.72	2.7273	0.1	-5.1939e-002
5153	13.537	2.7273	0.1	-6.9815e-002
5154	13.353	2.7273	0.1	-9.4231e-002
5155	13.169	2.7273	0.1	-0.12754
5156	12.986	2.7273	0.1	-0.17295
5157	12.802	2.7273	0.1	-0.23462
5158	12.619	2.7273	0.1	-0.31774
5159	12.435	2.7273	0.1	-0.42824
5160	12.252	2.7273	0.1	-0.57146
5161	12.068	2.7273	0.1	-0.75359
5162	11.885	2.7273	0.1	-0.95589
5163	11.701	2.7273	0.1	-1.7011
5164	11.517	2.7273	0.1	-149.07
5165	11.334	2.7273	0.1	-380.6
5166	11.15	2.7273	0.1	-628.54
5167	23.816	2.9091	0.1	-173.71
5168	23.633	2.9091	0.1	-163.28
5169	23.449	2.9091	0.1	-153.07
5170	23.266	2.9091	0.1	-143.34
5171	23.082	2.9091	0.1	-134.03
5172	22.899	2.9091	0.1	-125.16
5173	22.715	2.9091	0.1	-116.73
5174	22.531	2.9091	0.1	-108.74
5175	22.348	2.9091	0.1	-101.16
5176	22.164	2.9091	0.1	-94.007
5177	21.981	2.9091	0.1	-87.246
5178	21.797	2.9091	0.1	-80.864
5179	21.614	2.9091	0.1	-74.841
5180	21.43	2.9091	0.1	-69.155
5181	21.246	2.9091	0.1	-63.783
5182	21.063	2.9091	0.1	-58.701
5183	20.879	2.9091	0.1	-53.884
5184	20.696	2.9091	0.1	-49.308
5185	20.512	2.9091	0.1	-44.948
5186	20.329	2.9091	0.1	-40.78
5187	20.145	2.9091	0.1	-36.781
5188	19.962	2.9091	0.1	-32.927
5189	19.778	2.9091	0.1	-29.194
5190	19.594	2.9091	0.1	-25.559
5191	19.411	2.9091	0.1	-22.
5192	19.227	2.9091	0.1	-18.494
5193	19.044	2.9091	0.1	-15.018
5194	18.86	2.9091	0.1	-11.549
5195	18.677	2.9091	0.1	-8.0646
5196	18.493	2.9091	0.1	-4.5407
5197	18.309	2.9091	0.1	-0.9533
5198	18.126	2.9091	0.1	-1.2182e-002
5199	17.942	2.9091	0.1	-1.1585e-002
5200	17.759	2.9091	0.1	-1.1029e-002
5201	17.575	2.9091	0.1	-1.049e-002
5202	17.392	2.9091	0.1	-9.9825e-003
5203	17.208	2.9091	0.1	-9.5038e-003
5204	17.024	2.9091	0.1	-9.0376e-003
5205	16.841	2.9091	0.1	-8.5912e-003
5206	16.657	2.9091	0.1	-8.1719e-003
5207	16.474	2.9091	0.1	-7.7872e-003
5208	16.29	2.9091	0.1	-7.4508e-003
5209	16.107	2.9091	0.1	-7.1756e-003
5210	15.923	2.9091	0.1	-6.9879e-003
5211	15.739	2.9091	0.1	-6.9143e-003
5212	15.556	2.9091	0.1	-7.0162e-003
5213	15.372	2.9091	0.1	-7.3434e-003
5214	15.189	2.9091	0.1	-7.9344e-003
5215	15.005	2.9091	0.1	-8.9413e-003
5216	14.822	2.9091	0.1	-1.0519e-002
5217	14.638	2.9091	0.1	-1.285e-002
5218	14.454	2.9091	0.1	-1.621e-002
5219	14.271	2.9091	0.1	-2.0971e-002
5220	14.087	2.9091	0.1	-2.7643e-002
5221	13.904	2.9091	0.1	-3.6926e-002
5222	13.72	2.9091	0.1	-4.9796e-002
5223	13.537	2.9091	0.1	-6.7603e-002
5224	13.353	2.9091	0.1	-9.222e-002
5225	13.169	2.9091	0.1	-0.12625
5226	12.986	2.9091	0.1	-0.17329
5227	12.802	2.9091	0.1	-0.23811
5228	12.619	2.9091	0.1	-0.32656
5229	12.435	2.9091	0.1	-0.44487
5230	12.252	2.9091	0.1	-0.59658
5231	12.068	2.9091	0.1	-0.77356
5232	11.885	2.9091	0.1	-0.94727
5233	11.701	2.9091	0.1	-1.1695
5234	11.517	2.9091	0.1	-167.31
5235	11.334	2.9091	0.1	-389.9
5236	11.15	2.9091	0.1	-613.51
5237	23.816	3.0909	0.1	-173.71
5238	23.633	3.0909	0.1	-163.28
5239	23.449	3.0909	0.1	-153.07
5240	23.266	3.0909	0.1	-143.34
5241	23.082	3.0909	0.1	-134.03
5242	22.899	3.0909	0.1	-125.16
5243	22.715	3.0909	0.1	-116.73
5244	22.531	3.0909	0.1	-108.74
5245	22.348	3.0909	0.1	-101.16
5246	22.164	3.0909	0.1	-94.007
5247	21.981	3.0909	0.1	-87.246
5248	21.797	3.0909	0.1	-80.864
5249	21.614	3.0909	0.1	-74.841
5250	21.43	3.0909	0.1	-69.155
5251	21.246	3.0909	0.1	-63.783
5252	21.063	3.0909	0.1	-58.701
5253	20.879	3.0909	0.1	-53.884
5254	20.696	3.0909	0.1	-49.308
5255	20.512	3.0909	0.1	-44.948
5256	20.329	3.0909	0.1	-40.78
5257	20.145	3.0909	0.1	-36.781
5258	19.962	3.0909	0.1	-32.927
5259	19.778	3.0909	0.1	-29.194
5260	19.594	3.0909	0.1	-25.559
5261	19.411	3.0909	0.1	-22.
5262	19.227	3.0909	0.1	-18.494
5263	19.044	3.0909	0.1	-15.018
5264	18.86	3.0909	0.1	-11.549
5265	18.677	3.0909	0.1	-8.0646
5266	18.493	3.0909	0.1	-4.5407
5267	18.309	3.0909	0.1	-0.9533
5268	18.126	3.0909	0.1	-1.218e-002
5269	17.942	3.0909	0.1	-1.1587e-002
5270	17.759	3.0909	0.1	-1.103e-002
5271	17.575	3.0909	0.1	-1.049e-002
5272	17.392	3.0909	0.1	-9.9809e-003
5273	17.208	3.0909	0.1	-9.5042e-003
5274	17.024	3.0909	0.1	-9.0379e-003
5275	16.841	3.0909	0.1	-8.5913e-003
5276	16.657	3.0909	0.1	-8.1721e-003
5277	16.474	3.0909	0.1	-7.787e-003
5278	16.29	3.0909	0.1	-7.45e-003
5279	16.107	3.0909	0.1	-7.1759e-003
5280	15.923	3.0909	0.1	-6.988e-003
5281	15.739	3.0909	0.1	-6.9135e-003
5282	15.556	3.0909	0.1	-7.0157e-003
5283	15.372	3.0909	0.1	-7.3439e-003
5284	15.189	3.0909	0.1	-7.9344e-003
5285	15.005	3.0909	0.1	-8.9407e-003
5286	14.822	3.0909	0.1	-1.0519e-002
5287	14.638	3.0909	0.1	-1.285e-002
5288	14.454	3.0909	0.1	-1.621e-002
5289	14.271	3.0909	0.1	-2.0972e-002
5290	14.087	3.0909	0.1	-2.7643e-002
5291	13.904	3.0909	0.1	-3.6927e-002
5292	13.72	3.0909	0.1	-4.9795e-002
5293	13.537	3.0909	0.1	-6.7603e-002
5294	13.353	3.0909	0.1	-9.222e-002
5295	13.169	3.0909	0.1	-0.12625
5296	12.986	3.0909	0.1	-0.17329
5297	12.802	3.0909	0.1	-0.23811
5298	12.619	3.0909	0.1	-0.32656
5299	12.435	3.0909	0.1	-0.44487
5300	12.252	3.0909	0.1	-0.59658
5301	12.068	3.0909	0.1	-0.77356
5302	11.885	3.0909	0.1	-0.94727
5303	11.701	3.0909	0.1	-1.1695
5304	11.517	3.0909	0.1	-167.31
5305	11.334	3.0909	0.1	-389.9
5306	11.15	3.0909	0.1	-613.51
5307	23.816	3.2727	0.1	-172.81
5308	23.633	3.2727	0.1	-162.38
5309	23.449	3.2727	0.1	-152.19
5310	23.266	3.2727	0.1	-142.47
5311	23.082	3.2727	0.1	-133.19
5312	22.899	3.2727	0.1	-124.35
5313	22.715	3.2727	0.1	-115.95
5314	22.531	3.2727	0.1	-107.99
5315	22.348	3.2727	0.1	-100.46
5316	22.164	3.2727	0.1	-93.348
5317	21.981	3.2727	0.1	-86.633
5318	21.797	3.2727	0.1	-80.297
5319	21.614	3.2727	0.1	-74.321
5320	21.43	3.2727	0.1	-68.681
5321	21.246	3.2727	0.1	-63.353
5322	21.063	3.2727	0.1	-58.314
5323	20.879	3.2727	0.1	-53.539
5324	20.696	3.2727	0.1	-49.004
5325	20.512	3.2727	0.1	-44.683
5326	20.329	3.2727	0.1	-40.553
5327	20.145	3.2727	0.1	-36.589
5328	19.962	3.2727	0.1	-32.769
5329	19.778	3.2727	0.1	-29.07
5330	19.594	3.2727	0.1	-25.468
5331	19.411	3.2727	0.1	-21.94
5332	19.227	3.2727	0.1	-18.465
5333	19.044	3.2727	0.1	-15.02
5334	18.86	3.2727	0.1	-11.583
5335	18.677	3.2727	0.1	-8.1298
5336	18.493	3.2727	0.1	-4.6384
5337	18.309	3.2727	0.1	-1.0854
5338	18.126	3.2727	0.1	-1.2537e-002
5339	17.942	3.2727	0.1	-1.1692e-002
5340	17.759	3.2727	0.1	-1.1081e-002
5341	17.575	3.2727	0.1	-1.0525e-002
5342	17.392	3.2727	0.1	-1.0016e-002
5343	17.208	3.2727	0.1	-9.5449e-003
5344	17.024	3.2727	0.1	-9.0924e-003
5345	16.841	3.2727	0.1	-8.6648e-003
5346	16.657	3.2727	0.1	-8.2687e-003
5347	16.474	3.2727	0.1	-7.9142e-003
5348	16.29	3.2727	0.1	-7.6132e-003
5349	16.107	3.2727	0.1	-7.381e-003
5350	15.923	3.2727	0.1	-7.2466e-003
5351	15.739	3.2727	0.1	-7.2338e-003
5352	15.556	3.2727	0.1	-7.4123e-003
5353	15.372	3.2727	0.1	-7.8273e-003
5354	15.189	3.2727	0.1	-8.5261e-003
5355	15.005	3.2727	0.1	-9.6578e-003
5356	14.822	3.2727	0.1	-1.1386e-002
5357	14.638	3.2727	0.1	-1.3892e-002
5358	14.454	3.2727	0.1	-1.7454e-002
5359	14.271	3.2727	0.1	-2.2441e-002
5360	14.087	3.2727	0.1	-2.9355e-002
5361	13.904	3.2727	0.1	-3.8876e-002
5362	13.72	3.2727	0.1	-5.1939e-002
5363	13.537	3.2727	0.1	-6.9814e-002
5364	13.353	3.2727	0.1	-9.423e-002
5365	13.169	3.2727	0.1	-0.12754
5366	12.986	3.2727	0.1	-0.17295
5367	12.802	3.2727	0.1	-0.23462
5368	12.619	3.2727	0.1	-0.31774
5369	12.435	3.2727	0.1	-0.42824
5370	12.252	3.2727	0.1	-0.57146
5371	12.068	3.2727	0.1	-0.75359
5372	11.885	3.2727	0.1	-0.95589
5373	11.701	3.2727	0.1	-1.7011
5374	11.517	3.2727	0.1	-149.07
5375	11.334	3.2727	0.1	-380.6
5376	11.15	3.2727	0.1	-628.54
5377	23.816	3.4545	0.1	-171.01
5378	23.633	3.4545	0.1	-160.59
5379	23.449	3.4545	0.1	-150.42
5380	23.266	3.4545	0.1	-140.74
5381	23.082	3.4545	0.1	-131.5
5382	22.899	3.4545	0.1	-122.72
5383	22.715	3.4545	0.1	-114.39
5384	22.531	3.4545	0.1	-106.51
5385	22.348	3.4545	0.1	-99.06
5386	22.164	3.4545	0.1	-92.034
5387	21.981	3.4545	0.1	-85.41
5388	21.797	3.4545	0.1	-79.167
5389	21.614	3.4545	0.1	-73.284
5390	21.43	3.4545	0.1	-67.735
5391	21.246	3.4545	0.1	-62.498
5392	21.063	3.4545	0.1	-57.546
5393	20.879	3.4545	0.1	-52.855
5394	20.696	3.4545	0.1	-48.4
5395	20.512	3.4545	0.1	-44.157
5396	20.329	3.4545	0.1	-40.101
5397	20.145	3.4545	0.1	-36.209
5398	19.962	3.4545	0.1	-32.458
5399	19.778	3.4545	0.1	-28.824
5400	19.594	3.4545	0.1	-25.287
5401	19.411	3.4545	0.1	-21.822
5402	19.227	3.4545	0.1	-18.409
5403	19.044	3.4545	0.1	-15.026
5404	18.86	3.4545	0.1	-11.65
5405	18.677	3.4545	0.1	-8.2601
5406	18.493	3.4545	0.1	-4.8331
5407	18.309	3.4545	0.1	-1.3478
5408	18.126	3.4545	0.1	-1.3426e-002
5409	17.942	3.4545	0.1	-1.193e-002
5410	17.759	3.4545	0.1	-1.1192e-002
5411	17.575	3.4545	0.1	-1.0598e-002
5412	17.392	3.4545	0.1	-1.0083e-002
5413	17.208	3.4545	0.1	-9.6235e-003
5414	17.024	3.4545	0.1	-9.1964e-003
5415	16.841	3.4545	0.1	-8.8046e-003
5416	16.657	3.4545	0.1	-8.4545e-003
5417	16.474	3.4545	0.1	-8.1567e-003
5418	16.29	3.4545	0.1	-7.9256e-003
5419	16.107	3.4545	0.1	-7.778e-003
5420	15.923	3.4545	0.1	-7.7428e-003
5421	15.739	3.4545	0.1	-7.852e-003
5422	15.556	3.4545	0.1	-8.1733e-003
5423	15.372	3.4545	0.1	-8.7645e-003
5424	15.189	3.4545	0.1	-9.6694e-003
5425	15.005	3.4545	0.1	-1.1049e-002
5426	14.822	3.4545	0.1	-1.307e-002
5427	14.638	3.4545	0.1	-1.5923e-002
5428	14.454	3.4545	0.1	-1.9889e-002
5429	14.271	3.4545	0.1	-2.5339e-002
5430	14.087	3.4545	0.1	-3.2765e-002
5431	13.904	3.4545	0.1	-4.2826e-002
5432	13.72	3.4545	0.1	-5.6394e-002
5433	13.537	3.4545	0.1	-7.4632e-002
5434	13.353	3.4545	0.1	-9.906e-002
5435	13.169	3.4545	0.1	-0.13167
5436	12.986	3.4545	0.1	-0.17509
5437	12.802	3.4545	0.1	-0.2326
5438	12.619	3.4545	0.1	-0.30836
5439	12.435	3.4545	0.1	-0.40698
5440	12.252	3.4545	0.1	-0.53887
5441	12.068	3.4545	0.1	-0.69794
5442	11.885	3.4545	0.1	-0.98913
5443	11.701	3.4545	0.1	-1.7277
5444	11.517	3.4545	0.1	-113.28
5445	11.334	3.4545	0.1	-359.52
5446	11.15	3.4545	0.1	-653.45
5447	23.816	3.6364	0.1	-168.29
5448	23.633	3.6364	0.1	-157.88
5449	23.449	3.6364	0.1	-147.74
5450	23.266	3.6364	0.1	-138.11
5451	23.082	3.6364	0.1	-128.95
5452	22.899	3.6364	0.1	-120.26
5453	22.715	3.6364	0.1	-112.04
5454	22.531	3.6364	0.1	-104.27
5455	22.348	3.6364	0.1	-96.957
5456	22.164	3.6364	0.1	-90.066
5457	21.981	3.6364	0.1	-83.582
5458	21.797	3.6364	0.1	-77.481
5459	21.614	3.6364	0.1	-71.738
5460	21.43	3.6364	0.1	-66.328
5461	21.246	3.6364	0.1	-61.226
5462	21.063	3.6364	0.1	-56.405
5463	20.879	3.6364	0.1	-51.839
5464	20.696	3.6364	0.1	-47.505
5465	20.512	3.6364	0.1	-43.377
5466	20.329	3.6364	0.1	-39.432
5467	20.145	3.6364	0.1	-35.647
5468	19.962	3.6364	0.1	-31.997
5469	19.778	3.6364	0.1	-28.463
5470	19.594	3.6364	0.1	-25.021
5471	19.411	3.6364	0.1	-21.65
5472	19.227	3.6364	0.1	-18.329
5473	19.044	3.6364	0.1	-15.037
5474	18.86	3.6364	0.1	-11.753
5475	18.677	3.6364	0.1	-8.4555
5476	18.493	3.6364	0.1	-5.1237
5477	18.309	3.6364	0.1	-1.7374
5478	18.126	3.6364	0.1	-1.5443e-002
5479	17.942	3.6364	0.1	-1.2369e-002
5480	17.759	3.6364	0.1	-1.1383e-002
5481	17.575	3.6364	0.1	-1.0712e-002
5482	17.392	3.6364	0.1	-1.0179e-002
5483	17.208	3.6364	0.1	-9.7337e-003
5484	17.024	3.6364	0.1	-9.339e-003
5485	16.841	3.6364	0.1	-8.9946e-003
5486	16.657	3.6364	0.1	-8.7101e-003
5487	16.474	3.6364	0.1	-8.493e-003
5488	16.29	3.6364	0.1	-8.3591e-003
5489	16.107	3.6364	0.1	-8.3325e-003
5490	15.923	3.6364	0.1	-8.4391e-003
5491	15.739	3.6364	0.1	-8.721e-003
5492	15.556	3.6364	0.1	-9.2482e-003
5493	15.372	3.6364	0.1	-1.0086e-002
5494	15.189	3.6364	0.1	-1.1288e-002
5495	15.005	3.6364	0.1	-1.3024e-002
5496	14.822	3.6364	0.1	-1.5473e-002
5497	14.638	3.6364	0.1	-1.8836e-002
5498	14.454	3.6364	0.1	-2.341e-002
5499	14.271	3.6364	0.1	-2.9574e-002
5500	14.087	3.6364	0.1	-3.7829e-002
5501	13.904	3.6364	0.1	-4.8825e-002
5502	13.72	3.6364	0.1	-6.341e-002
5503	13.537	3.6364	0.1	-8.2675e-002
5504	13.353	3.6364	0.1	-0.108
5505	13.169	3.6364	0.1	-0.14117
5506	12.986	3.6364	0.1	-0.18435
5507	12.802	3.6364	0.1	-0.24053
5508	12.619	3.6364	0.1	-0.31244
5509	12.435	3.6364	0.1	-0.40754
5510	12.252	3.6364	0.1	-0.52534
5511	12.068	3.6364	0.1	-0.70361
5512	11.885	3.6364	0.1	-0.97698
5513	11.701	3.6364	0.1	-1.0386
5514	11.517	3.6364	0.1	-69.024
5515	11.334	3.6364	0.1	-308.98
5516	11.15	3.6364	0.1	-709.23
5517	23.816	3.8182	0.1	-164.63
5518	23.633	3.8182	0.1	-154.23
5519	23.449	3.8182	0.1	-144.14
5520	23.266	3.8182	0.1	-134.59
5521	23.082	3.8182	0.1	-125.53
5522	22.899	3.8182	0.1	-116.97
5523	22.715	3.8182	0.1	-108.89
5524	22.531	3.8182	0.1	-101.3
5525	22.348	3.8182	0.1	-94.156
5526	22.164	3.8182	0.1	-87.453
5527	21.981	3.8182	0.1	-81.16
5528	21.797	3.8182	0.1	-75.25
5529	21.614	3.8182	0.1	-69.698
5530	21.43	3.8182	0.1	-64.474
5531	21.246	3.8182	0.1	-59.552
5532	21.063	3.8182	0.1	-54.905
5533	20.879	3.8182	0.1	-50.507
5534	20.696	3.8182	0.1	-46.333
5535	20.512	3.8182	0.1	-42.358
5536	20.329	3.8182	0.1	-38.559
5537	20.145	3.8182	0.1	-34.913
5538	19.962	3.8182	0.1	-31.398
5539	19.778	3.8182	0.1	-27.993
5540	19.594	3.8182	0.1	-24.677
5541	19.411	3.8182	0.1	-21.429
5542	19.227	3.8182	0.1	-18.228
5543	19.044	3.8182	0.1	-15.056
5544	18.86	3.8182	0.1	-11.892
5545	18.677	3.8182	0.1	-8.7161
5546	18.493	3.8182	0.1	-5.5087
5547	18.309	3.8182	0.1	-2.2509
5548	18.126	3.8182	0.1	-2.1036e-002
5549	17.942	3.8182	0.1	-1.3167e-002
5550	17.759	3.8182	0.1	-1.1695e-002
5551	17.575	3.8182	0.1	-1.0881e-002
5552	17.392	3.8182	0.1	-1.0308e-002
5553	17.208	3.8182	0.1	-9.8669e-003
5554	17.024	3.8182	0.1	-9.5079e-003
5555	16.841	3.8182	0.1	-9.2215e-003
5556	16.657	3.8182	0.1	-9.0134e-003
5557	16.474	3.8182	0.1	-8.8953e-003
5558	16.29	3.8182	0.1	-8.8831e-003
5559	16.107	3.8182	0.1	-8.9999e-003
5560	15.923	3.8182	0.1	-9.284e-003
5561	15.739	3.8182	0.1	-9.7756e-003
5562	15.556	3.8182	0.1	-1.0557e-002
5563	15.372	3.8182	0.1	-1.1701e-002
5564	15.189	3.8182	0.1	-1.3273e-002
5565	15.005	3.8182	0.1	-1.5456e-002
5566	14.822	3.8182	0.1	-1.845e-002
5567	14.638	3.8182	0.1	-2.2472e-002
5568	14.454	3.8182	0.1	-2.7848e-002
5569	14.271	3.8182	0.1	-3.4989e-002
5570	14.087	3.8182	0.1	-4.4431e-002
5571	13.904	3.8182	0.1	-5.6865e-002
5572	13.72	3.8182	0.1	-7.3188e-002
5573	13.537	3.8182	0.1	-9.4551e-002
5574	13.353	3.8182	0.1	-0.12241
5575	13.169	3.8182	0.1	-0.15869
5576	12.986	3.8182	0.1	-0.20573
5577	12.802	3.8182	0.1	-0.26774
5578	12.619	3.8182	0.1	-0.34628
5579	12.435	3.8182	0.1	-0.46399
5580	12.252	3.8182	0.1	-0.57853
5581	12.068	3.8182	0.1	-0.9751
5582	11.885	3.8182	0.1	-0.71325
5583	11.701	3.8182	0.1	-4.4266
5584	11.517	3.8182	0.1	-61.88
5585	11.334	3.8182	0.1	-296.85
5586	11.15	3.8182	0.1	-695.83
5587	23.816	4.	0.1	-159.98
5588	23.633	4.	0.1	-149.6
5589	23.449	4.	0.1	-139.58
5590	23.266	4.	0.1	-130.14
5591	23.082	4.	0.1	-121.21
5592	22.899	4.	0.1	-112.82
5593	22.715	4.	0.1	-104.95
5594	22.531	4.	0.1	-97.572
5595	22.348	4.	0.1	-90.666
5596	22.164	4.	0.1	-84.205
5597	21.981	4.	0.1	-78.157
5598	21.797	4.	0.1	-72.493
5599	21.614	4.	0.1	-67.181
5600	21.43	4.	0.1	-62.192
5601	21.246	4.	0.1	-57.497
5602	21.063	4.	0.1	-53.067
5603	20.879	4.	0.1	-48.877
5604	20.696	4.	0.1	-44.901
5605	20.512	4.	0.1	-41.115
5606	20.329	4.	0.1	-37.496
5607	20.145	4.	0.1	-34.022
5608	19.962	4.	0.1	-30.673
5609	19.778	4.	0.1	-27.427
5610	19.594	4.	0.1	-24.264
5611	19.411	4.	0.1	-21.166
5612	19.227	4.	0.1	-18.114
5613	19.044	4.	0.1	-15.088
5614	18.86	4.	0.1	-12.07
5615	18.677	4.	0.1	-9.0424
5616	18.493	4.	0.1	-5.9861
5617	18.309	4.	0.1	-2.8842
5618	18.126	4.	0.1	-5.5986e-002
5619	17.942	4.	0.1	-1.4723e-002
5620	17.759	4.	0.1	-1.2221e-002
5621	17.575	4.	0.1	-1.1135e-002
5622	17.392	4.	0.1	-1.0472e-002
5623	17.208	4.	0.1	-1.0018e-002
5624	17.024	4.	0.1	-9.6873e-003
5625	16.841	4.	0.1	-9.4586e-003
5626	16.657	4.	0.1	-9.3369e-003
5627	16.474	4.	0.1	-9.3251e-003
5628	16.29	4.	0.1	-9.4461e-003
5629	16.107	4.	0.1	-9.7264e-003
5630	15.923	4.	0.1	-1.0207e-002
5631	15.739	4.	0.1	-1.0936e-002
5632	15.556	4.	0.1	-1.2004e-002
5633	15.372	4.	0.1	-1.3494e-002
5634	15.189	4.	0.1	-1.5486e-002
5635	15.005	4.	0.1	-1.8184e-002
5636	14.822	4.	0.1	-2.1808e-002
5637	14.638	4.	0.1	-2.6617e-002
5638	14.454	4.	0.1	-3.2972e-002
5639	14.271	4.	0.1	-4.135e-002
5640	14.087	4.	0.1	-5.2362e-002
5641	13.904	4.	0.1	-6.6821e-002
5642	13.72	4.	0.1	-8.5785e-002
5643	13.537	4.	0.1	-0.11066
5644	13.353	4.	0.1	-0.14332
5645	13.169	4.	0.1	-0.18641
5646	12.986	4.	0.1	-0.24356
5647	12.802	4.	0.1	-0.32175
5648	12.619	4.	0.1	-0.42763
5649	12.435	4.	0.1	-0.59834
5650	12.252	4.	0.1	-0.82208
5651	12.068	4.	0.1	-1.5008
5652	11.885	4.	0.1	-2.3272
5653	11.701	4.	0.1	-20.529
5654	11.517	4.	0.1	-165.4
5655	11.334	4.	0.1	-479.49
5656	11.15	4.	0.1	-1429.2
5657	23.816	4.1818	0.1	-154.29
5658	23.633	4.1818	0.1	-143.94
5659	23.449	4.1818	0.1	-134.02
5660	23.266	4.1818	0.1	-124.72
5661	23.082	4.1818	0.1	-115.98
5662	22.899	4.1818	0.1	-107.82
5663	22.715	4.1818	0.1	-100.2
5664	22.531	4.1818	0.1	-93.107
5665	22.348	4.1818	0.1	-86.498
5666	22.164	4.1818	0.1	-80.34
5667	21.981	4.1818	0.1	-74.598
5668	21.797	4.1818	0.1	-69.234
5669	21.614	4.1818	0.1	-64.216
5670	21.43	4.1818	0.1	-59.51
5671	21.246	4.1818	0.1	-55.087
5672	21.063	4.1818	0.1	-50.917
5673	20.879	4.1818	0.1	-46.974
5674	20.696	4.1818	0.1	-43.232
5675	20.512	4.1818	0.1	-39.67
5676	20.329	4.1818	0.1	-36.263
5677	20.145	4.1818	0.1	-32.992
5678	19.962	4.1818	0.1	-29.837
5679	19.778	4.1818	0.1	-26.777
5680	19.594	4.1818	0.1	-23.795
5681	19.411	4.1818	0.1	-20.873
5682	19.227	4.1818	0.1	-17.993
5683	19.044	4.1818	0.1	-15.138
5684	18.86	4.1818	0.1	-12.291
5685	18.677	4.1818	0.1	-9.4352
5686	18.493	4.1818	0.1	-6.5545
5687	18.309	4.1818	0.1	-3.633
5688	18.126	4.1818	0.1	-0.67565
5689	17.942	4.1818	0.1	-1.8341e-002
5690	17.759	4.1818	0.1	-1.3175e-002
5691	17.575	4.1818	0.1	-1.1538e-002
5692	17.392	4.1818	0.1	-1.0692e-002
5693	17.208	4.1818	0.1	-1.0184e-002
5694	17.024	4.1818	0.1	-9.8642e-003
5695	16.841	4.1818	0.1	-9.6864e-003
5696	16.657	4.1818	0.1	-9.644e-003
5697	16.474	4.1818	0.1	-9.7417e-003
5698	16.29	4.1818	0.1	-1.0002e-002
5699	16.107	4.1818	0.1	-1.045e-002
5700	15.923	4.1818	0.1	-1.1135e-002
5701	15.739	4.1818	0.1	-1.211e-002
5702	15.556	4.1818	0.1	-1.3475e-002
5703	15.372	4.1818	0.1	-1.5326e-002
5704	15.189	4.1818	0.1	-1.7762e-002
5705	15.005	4.1818	0.1	-2.101e-002
5706	14.822	4.1818	0.1	-2.5324e-002
5707	14.638	4.1818	0.1	-3.1007e-002
5708	14.454	4.1818	0.1	-3.8492e-002
5709	14.271	4.1818	0.1	-4.8346e-002
5710	14.087	4.1818	0.1	-6.1327e-002
5711	13.904	4.1818	0.1	-7.8457e-002
5712	13.72	4.1818	0.1	-0.10112
5713	13.537	4.1818	0.1	-0.13125
5714	13.353	4.1818	0.1	-0.17157
5715	13.169	4.1818	0.1	-0.22624
5716	12.986	4.1818	0.1	-0.30178
5717	12.802	4.1818	0.1	-0.4104
5718	12.619	4.1818	0.1	-0.57323
5719	12.435	4.1818	0.1	-0.85165
5720	12.252	4.1818	0.1	-1.3762
5721	12.068	4.1818	0.1	-2.9223
5722	11.885	4.1818	0.1	-13.324
5723	11.701	4.1818	0.1	-113.14
5724	11.517	4.1818	0.1	-334.26
5725	11.334	4.1818	0.1	-862.15
5726	11.15	4.1818	0.1	-2207.7
5727	23.816	4.3636	0.1	-147.51
5728	23.633	4.3636	0.1	-137.21
5729	23.449	4.3636	0.1	-127.41
5730	23.266	4.3636	0.1	-118.29
5731	23.082	4.3636	0.1	-109.81
5732	22.899	4.3636	0.1	-101.94
5733	22.715	4.3636	0.1	-94.654
5734	22.531	4.3636	0.1	-87.913
5735	22.348	4.3636	0.1	-81.672
5736	22.164	4.3636	0.1	-75.886
5737	21.981	4.3636	0.1	-70.512
5738	21.797	4.3636	0.1	-65.508
5739	21.614	4.3636	0.1	-60.837
5740	21.43	4.3636	0.1	-56.464
5741	21.246	4.3636	0.1	-52.357
5742	21.063	4.3636	0.1	-48.487
5743	20.879	4.3636	0.1	-44.828
5744	20.696	4.3636	0.1	-41.356
5745	20.512	4.3636	0.1	-38.049
5746	20.329	4.3636	0.1	-34.885
5747	20.145	4.3636	0.1	-31.844
5748	19.962	4.3636	0.1	-28.909
5749	19.778	4.3636	0.1	-26.061
5750	19.594	4.3636	0.1	-23.283
5751	19.411	4.3636	0.1	-20.56
5752	19.227	4.3636	0.1	-17.875
5753	19.044	4.3636	0.1	-15.213
5754	18.86	4.3636	0.1	-12.558
5755	18.677	4.3636	0.1	-9.8963
5756	18.493	4.3636	0.1	-7.2126
5757	18.309	4.3636	0.1	-4.4932
5758	18.126	4.3636	0.1	-1.7295
5759	17.942	4.3636	0.1	-3.1641e-002
5760	17.759	4.3636	0.1	-1.5166e-002
5761	17.575	4.3636	0.1	-1.2251e-002
5762	17.392	4.3636	0.1	-1.1021e-002
5763	17.208	4.3636	0.1	-1.0378e-002
5764	17.024	4.3636	0.1	-1.0028e-002
5765	16.841	4.3636	0.1	-9.8788e-003
5766	16.657	4.3636	0.1	-9.9064e-003
5767	16.474	4.3636	0.1	-1.0106e-002
5768	16.29	4.3636	0.1	-1.0494e-002
5769	16.107	4.3636	0.1	-1.1105e-002
5770	15.923	4.3636	0.1	-1.1986e-002
5771	15.739	4.3636	0.1	-1.3198e-002
5772	15.556	4.3636	0.1	-1.4851e-002
5773	15.372	4.3636	0.1	-1.7056e-002
5774	15.189	4.3636	0.1	-1.9928e-002
5775	15.005	4.3636	0.1	-2.3725e-002
5776	14.822	4.3636	0.1	-2.8745e-002
5777	14.638	4.3636	0.1	-3.5352e-002
5778	14.454	4.3636	0.1	-4.4075e-002
5779	14.271	4.3636	0.1	-5.5623e-002
5780	14.087	4.3636	0.1	-7.098e-002
5781	13.904	4.3636	0.1	-9.151e-002
5782	13.72	4.3636	0.1	-0.11916
5783	13.537	4.3636	0.1	-0.15675
5784	13.353	4.3636	0.1	-0.20857
5785	13.169	4.3636	0.1	-0.28152
5786	12.986	4.3636	0.1	-0.38748
5787	12.802	4.3636	0.1	-0.54975
5788	12.619	4.3636	0.1	-0.81853
5789	12.435	4.3636	0.1	-1.3403
5790	12.252	4.3636	0.1	-2.6589
5791	12.068	4.3636	0.1	-9.8
5792	11.885	4.3636	0.1	-69.456
5793	11.701	4.3636	0.1	-211.45
5794	11.517	4.3636	0.1	-466.28
5795	11.334	4.3636	0.1	-951.3
5796	11.15	4.3636	0.1	-2003.8
5797	23.816	4.5455	0.1	-139.55
5798	23.633	4.5455	0.1	-129.31
5799	23.449	4.5455	0.1	-119.68
5800	23.266	4.5455	0.1	-110.82
5801	23.082	4.5455	0.1	-102.66
5802	22.899	4.5455	0.1	-95.175
5803	22.715	4.5455	0.1	-88.312
5804	22.531	4.5455	0.1	-82.014
5805	22.348	4.5455	0.1	-76.223
5806	22.164	4.5455	0.1	-70.884
5807	21.981	4.5455	0.1	-65.945
5808	21.797	4.5455	0.1	-61.361
5809	21.614	4.5455	0.1	-57.09
5810	21.43	4.5455	0.1	-53.097
5811	21.246	4.5455	0.1	-49.349
5812	21.063	4.5455	0.1	-45.818
5813	20.879	4.5455	0.1	-42.479
5814	20.696	4.5455	0.1	-39.308
5815	20.512	4.5455	0.1	-36.284
5816	20.329	4.5455	0.1	-33.389
5817	20.145	4.5455	0.1	-30.604
5818	19.962	4.5455	0.1	-27.912
5819	19.778	4.5455	0.1	-25.298
5820	19.594	4.5455	0.1	-22.746
5821	19.411	4.5455	0.1	-20.242
5822	19.227	4.5455	0.1	-17.772
5823	19.044	4.5455	0.1	-15.321
5824	18.86	4.5455	0.1	-12.878
5825	18.677	4.5455	0.1	-10.428
5826	18.493	4.5455	0.1	-7.96
5827	18.309	4.5455	0.1	-5.4609
5828	18.126	4.5455	0.1	-2.9212
5829	17.942	4.5455	0.1	-0.39061
5830	17.759	4.5455	0.1	-2.0712e-002
5831	17.575	4.5455	0.1	-1.3727e-002
5832	17.392	4.5455	0.1	-1.1597e-002
5833	17.208	4.5455	0.1	-1.0645e-002
5834	17.024	4.5455	0.1	-1.0187e-002
5835	16.841	4.5455	0.1	-1.0025e-002
5836	16.657	4.5455	0.1	-1.0095e-002
5837	16.474	4.5455	0.1	-1.0375e-002
5838	16.29	4.5455	0.1	-1.0879e-002
5839	16.107	4.5455	0.1	-1.1633e-002
5840	15.923	4.5455	0.1	-1.2688e-002
5841	15.739	4.5455	0.1	-1.4111e-002
5842	15.556	4.5455	0.1	-1.6022e-002
5843	15.372	4.5455	0.1	-1.8541e-002
5844	15.189	4.5455	0.1	-2.181e-002
5845	15.005	4.5455	0.1	-2.6118e-002
5846	14.822	4.5455	0.1	-3.1813e-002
5847	14.638	4.5455	0.1	-3.9346e-002
5848	14.454	4.5455	0.1	-4.9374e-002
5849	14.271	4.5455	0.1	-6.2822e-002
5850	14.087	4.5455	0.1	-8.1011e-002
5851	13.904	4.5455	0.1	-0.10587
5852	13.72	4.5455	0.1	-0.1403
5853	13.537	4.5455	0.1	-0.18873
5854	13.353	4.5455	0.1	-0.25837
5855	13.169	4.5455	0.1	-0.36163
5856	12.986	4.5455	0.1	-0.52196
5857	12.802	4.5455	0.1	-0.79031
5858	12.619	4.5455	0.1	-1.3006
5859	12.435	4.5455	0.1	-2.5534
5860	12.252	4.5455	0.1	-8.0259
5861	12.068	4.5455	0.1	-42.784
5862	11.885	4.5455	0.1	-124.14
5863	11.701	4.5455	0.1	-264.34
5864	11.517	4.5455	0.1	-497.77
5865	11.334	4.5455	0.1	-873.78
5866	11.15	4.5455	0.1	-1524.5
5867	23.816	4.7273	0.1	-130.29
5868	23.633	4.7273	0.1	-120.14
5869	23.449	4.7273	0.1	-110.75
5870	23.266	4.7273	0.1	-102.25
5871	23.082	4.7273	0.1	-94.523
5872	22.899	4.7273	0.1	-87.536
5873	22.715	4.7273	0.1	-81.205
5874	22.531	4.7273	0.1	-75.452
5875	22.348	4.7273	0.1	-70.204
5876	22.164	4.7273	0.1	-65.391
5877	21.981	4.7273	0.1	-60.958
5878	21.797	4.7273	0.1	-56.853
5879	21.614	4.7273	0.1	-53.034
5880	21.43	4.7273	0.1	-49.466
5881	21.246	4.7273	0.1	-46.116
5882	21.063	4.7273	0.1	-42.959
5883	20.879	4.7273	0.1	-39.969
5884	20.696	4.7273	0.1	-37.126
5885	20.512	4.7273	0.1	-34.412
5886	20.329	4.7273	0.1	-31.809
5887	20.145	4.7273	0.1	-29.3
5888	19.962	4.7273	0.1	-26.872
5889	19.778	4.7273	0.1	-24.511
5890	19.594	4.7273	0.1	-22.202
5891	19.411	4.7273	0.1	-19.935
5892	19.227	4.7273	0.1	-17.696
5893	19.044	4.7273	0.1	-15.474
5894	18.86	4.7273	0.1	-13.257
5895	18.677	4.7273	0.1	-11.035
5896	18.493	4.7273	0.1	-8.7971
5897	18.309	4.7273	0.1	-6.5333
5898	18.126	4.7273	0.1	-4.2344
5899	17.942	4.7273	0.1	-1.8966
5900	17.759	4.7273	0.1	-6.3672e-002
5901	17.575	4.7273	0.1	-1.7806e-002
5902	17.392	4.7273	0.1	-1.2842e-002
5903	17.208	4.7273	0.1	-1.1111e-002
5904	17.024	4.7273	0.1	-1.0372e-002
5905	16.841	4.7273	0.1	-1.0115e-002
5906	16.657	4.7273	0.1	-1.018e-002
5907	16.474	4.7273	0.1	-1.051e-002
5908	16.29	4.7273	0.1	-1.1098e-002
5909	16.107	4.7273	0.1	-1.1966e-002
5910	15.923	4.7273	0.1	-1.3161e-002
5911	15.739	4.7273	0.1	-1.4756e-002
5912	15.556	4.7273	0.1	-1.6871e-002
5913	15.372	4.7273	0.1	-1.9644e-002
5914	15.189	4.7273	0.1	-2.3236e-002
5915	15.005	4.7273	0.1	-2.7975e-002
5916	14.822	4.7273	0.1	-3.4274e-002
5917	14.638	4.7273	0.1	-4.269e-002
5918	14.454	4.7273	0.1	-5.4067e-002
5919	14.271	4.7273	0.1	-6.9649e-002
5920	14.087	4.7273	0.1	-9.1315e-002
5921	13.904	4.7273	0.1	-0.12199
5922	13.72	4.7273	0.1	-0.16637
5923	13.537	4.7273	0.1	-0.23231
5924	13.353	4.7273	0.1	-0.33377
5925	13.169	4.7273	0.1	-0.49785
5926	12.986	4.7273	0.1	-0.78427
5927	12.802	4.7273	0.1	-1.3538
5928	12.619	4.7273	0.1	-2.8065
5929	12.435	4.7273	0.1	-8.6993
5930	12.252	4.7273	0.1	-31.667
5931	12.068	4.7273	0.1	-77.071
5932	11.885	4.7273	0.1	-151.39
5933	11.701	4.7273	0.1	-269.85
5934	11.517	4.7273	0.1	-453.5
5935	11.334	4.7273	0.1	-730.94
5936	11.15	4.7273	0.1	-1187.8
5937	23.816	4.9091	0.1	-119.58
5938	23.633	4.9091	0.1	-109.59
5939	23.449	4.9091	0.1	-100.54
5940	23.266	4.9091	0.1	-92.524
5941	23.082	4.9091	0.1	-85.391
5942	22.899	4.9091	0.1	-79.053
5943	22.715	4.9091	0.1	-73.391
5944	22.531	4.9091	0.1	-68.302
5945	22.348	4.9091	0.1	-63.694
5946	22.164	4.9091	0.1	-59.491
5947	21.981	4.9091	0.1	-55.631
5948	21.797	4.9091	0.1	-52.062
5949	21.614	4.9091	0.1	-48.743
5950	21.43	4.9091	0.1	-45.638
5951	21.246	4.9091	0.1	-42.721
5952	21.063	4.9091	0.1	-39.965
5953	20.879	4.9091	0.1	-37.351
5954	20.696	4.9091	0.1	-34.859
5955	20.512	4.9091	0.1	-32.474
5956	20.329	4.9091	0.1	-30.181
5957	20.145	4.9091	0.1	-27.967
5958	19.962	4.9091	0.1	-25.819
5959	19.778	4.9091	0.1	-23.725
5960	19.594	4.9091	0.1	-21.674
5961	19.411	4.9091	0.1	-19.657
5962	19.227	4.9091	0.1	-17.662
5963	19.044	4.9091	0.1	-15.681
5964	18.86	4.9091	0.1	-13.704
5965	18.677	4.9091	0.1	-11.722
5966	18.493	4.9091	0.1	-9.726
5967	18.309	4.9091	0.1	-7.7087
5968	18.126	4.9091	0.1	-5.6624
5969	17.942	4.9091	0.1	-3.5811
5970	17.759	4.9091	0.1	-1.4664
5971	17.575	4.9091	0.1	-4.7823e-002
5972	17.392	4.9091	0.1	-1.6758e-002
5973	17.208	4.9091	0.1	-1.2273e-002
5974	17.024	4.9091	0.1	-1.0747e-002
5975	16.841	4.9091	0.1	-1.0209e-002
5976	16.657	4.9091	0.1	-1.0185e-002
5977	16.474	4.9091	0.1	-1.0515e-002
5978	16.29	4.9091	0.1	-1.1152e-002
5979	16.107	4.9091	0.1	-1.2099e-002
5980	15.923	4.9091	0.1	-1.3396e-002
5981	15.739	4.9091	0.1	-1.5111e-002
5982	15.556	4.9091	0.1	-1.7366e-002
5983	15.372	4.9091	0.1	-2.031e-002
5984	15.189	4.9091	0.1	-2.4125e-002
5985	15.005	4.9091	0.1	-2.9178e-002
5986	14.822	4.9091	0.1	-3.596e-002
5987	14.638	4.9091	0.1	-4.5176e-002
5988	14.454	4.9091	0.1	-5.794e-002
5989	14.271	4.9091	0.1	-7.602e-002
5990	14.087	4.9091	0.1	-0.10231
5991	13.904	4.9091	0.1	-0.14178
5992	13.72	4.9091	0.1	-0.20339
5993	13.537	4.9091	0.1	-0.30462
5994	13.353	4.9091	0.1	-0.48319
5995	13.169	4.9091	0.1	-0.83462
5996	12.986	4.9091	0.1	-1.667
5997	12.802	4.9091	0.1	-4.3317
5998	12.619	4.9091	0.1	-13.238
5999	12.435	4.9091	0.1	-30.616
6000	12.252	4.9091	0.1	-56.872
6001	12.068	4.9091	0.1	-95.717
6002	11.885	4.9091	0.1	-154.09
6003	11.701	4.9091	0.1	-242.78
6004	11.517	4.9091	0.1	-375.93
6005	11.334	4.9091	0.1	-572.79
6006	11.15	4.9091	0.1	-909.94
6007	23.816	5.0909	0.1	-107.22
6008	23.633	5.0909	0.1	-97.478
6009	23.449	5.0909	0.1	-88.952
6010	23.266	5.0909	0.1	-81.634
6011	23.082	5.0909	0.1	-75.306
6012	22.899	5.0909	0.1	-69.807
6013	22.715	5.0909	0.1	-64.975
6014	22.531	5.0909	0.1	-60.677
6015	22.348	5.0909	0.1	-56.811
6016	22.164	5.0909	0.1	-53.296
6017	21.981	5.0909	0.1	-50.07
6018	21.797	5.0909	0.1	-47.085
6019	21.614	5.0909	0.1	-44.303
6020	21.43	5.0909	0.1	-41.695
6021	21.246	5.0909	0.1	-39.235
6022	21.063	5.0909	0.1	-36.903
6023	20.879	5.0909	0.1	-34.683
6024	20.696	5.0909	0.1	-32.558
6025	20.512	5.0909	0.1	-30.518
6026	20.329	5.0909	0.1	-28.548
6027	20.145	5.0909	0.1	-26.64
6028	19.962	5.0909	0.1	-24.783
6029	19.778	5.0909	0.1	-22.967
6030	19.594	5.0909	0.1	-21.185
6031	19.411	5.0909	0.1	-19.428
6032	19.227	5.0909	0.1	-17.688
6033	19.044	5.0909	0.1	-15.957
6034	18.86	5.0909	0.1	-14.229
6035	18.677	5.0909	0.1	-12.495
6036	18.493	5.0909	0.1	-10.75
6037	18.309	5.0909	0.1	-8.9869
6038	18.126	5.0909	0.1	-7.2008
6039	17.942	5.0909	0.1	-5.3865
6040	17.759	5.0909	0.1	-3.5405
6041	17.575	5.0909	0.1	-1.6642
6042	17.392	5.0909	0.1	-8.2712e-002
6043	17.208	5.0909	0.1	-1.72e-002
6044	17.024	5.0909	0.1	-1.1886e-002
6045	16.841	5.0909	0.1	-1.0383e-002
6046	16.657	5.0909	0.1	-1.0034e-002
6047	16.474	5.0909	0.1	-1.0261e-002
6048	16.29	5.0909	0.1	-1.0889e-002
6049	16.107	5.0909	0.1	-1.1872e-002
6050	15.923	5.0909	0.1	-1.3227e-002
6051	15.739	5.0909	0.1	-1.5005e-002
6052	15.556	5.0909	0.1	-1.7332e-002
6053	15.372	5.0909	0.1	-2.0361e-002
6054	15.189	5.0909	0.1	-2.429e-002
6055	15.005	5.0909	0.1	-2.9535e-002
6056	14.822	5.0909	0.1	-3.6687e-002
6057	14.638	5.0909	0.1	-4.6658e-002
6058	14.454	5.0909	0.1	-6.1015e-002
6059	14.271	5.0909	0.1	-8.2502e-002
6060	14.087	5.0909	0.1	-0.11626
6061	13.904	5.0909	0.1	-0.17273
6062	13.72	5.0909	0.1	-0.27594
6063	13.537	5.0909	0.1	-0.49195
6064	13.353	5.0909	0.1	-1.0634
6065	13.169	5.0909	0.1	-3.217
6066	12.986	5.0909	0.1	-9.8332
6067	12.802	5.0909	0.1	-20.274
6068	12.619	5.0909	0.1	-33.677
6069	12.435	5.0909	0.1	-50.525
6070	12.252	5.0909	0.1	-72.104
6071	12.068	5.0909	0.1	-100.79
6072	11.885	5.0909	0.1	-140.76
6073	11.701	5.0909	0.1	-199.19
6074	11.517	5.0909	0.1	-287.29
6075	11.334	5.0909	0.1	-424.57
6076	11.15	5.0909	0.1	-680.67
6077	23.816	5.2727	0.1	-92.917
6078	23.633	5.2727	0.1	-83.609
6079	23.449	5.2727	0.1	-75.909
6080	23.266	5.2727	0.1	-69.624
6081	23.082	5.2727	0.1	-64.392
6082	22.899	5.2727	0.1	-59.963
6083	22.715	5.2727	0.1	-56.131
6084	22.531	5.2727	0.1	-52.749
6085	22.348	5.2727	0.1	-49.714
6086	22.164	5.2727	0.1	-46.951
6087	21.981	5.2727	0.1	-44.407
6088	21.797	5.2727	0.1	-42.04
6089	21.614	5.2727	0.1	-39.822
6090	21.43	5.2727	0.1	-37.728
6091	21.246	5.2727	0.1	-35.741
6092	21.063	5.2727	0.1	-33.846
6093	20.879	5.2727	0.1	-32.029
6094	20.696	5.2727	0.1	-30.281
6095	20.512	5.2727	0.1	-28.593
6096	20.329	5.2727	0.1	-26.954
6097	20.145	5.2727	0.1	-25.359
6098	19.962	5.2727	0.1	-23.8
6099	19.778	5.2727	0.1	-22.27
6100	19.594	5.2727	0.1	-20.762
6101	19.411	5.2727	0.1	-19.272
6102	19.227	5.2727	0.1	-17.792
6103	19.044	5.2727	0.1	-16.318
6104	18.86	5.2727	0.1	-14.843
6105	18.677	5.2727	0.1	-13.364
6106	18.493	5.2727	0.1	-11.874
6107	18.309	5.2727	0.1	-10.37
6108	18.126	5.2727	0.1	-8.848
6109	17.942	5.2727	0.1	-7.3044
6110	17.759	5.2727	0.1	-5.7368
6111	17.575	5.2727	0.1	-4.1439
6112	17.392	5.2727	0.1	-2.5262
6113	17.208	5.2727	0.1	-0.89332
6114	17.024	5.2727	0.1	-2.5757e-002
6115	16.841	5.2727	0.1	-1.2257e-002
6116	16.657	5.2727	0.1	-1.0372e-002
6117	16.474	5.2727	0.1	-1.0256e-002
6118	16.29	5.2727	0.1	-1.0846e-002
6119	16.107	5.2727	0.1	-1.1886e-002
6120	15.923	5.2727	0.1	-1.332e-002
6121	15.739	5.2727	0.1	-1.5172e-002
6122	15.556	5.2727	0.1	-1.7547e-002
6123	15.372	5.2727	0.1	-2.0598e-002
6124	15.189	5.2727	0.1	-2.4535e-002
6125	15.005	5.2727	0.1	-2.9829e-002
6126	14.822	5.2727	0.1	-3.721e-002
6127	14.638	5.2727	0.1	-4.7941e-002
6128	14.454	5.2727	0.1	-6.4475e-002
6129	14.271	5.2727	0.1	-9.1941e-002
6130	14.087	5.2727	0.1	-0.14267
6131	13.904	5.2727	0.1	-0.25349
6132	13.72	5.2727	0.1	-0.58606
6133	13.537	5.2727	0.1	-2.2969
6134	13.353	5.2727	0.1	-7.7108
6135	13.169	5.2727	0.1	-15.403
6136	12.986	5.2727	0.1	-24.712
6137	12.802	5.2727	0.1	-35.574
6138	12.619	5.2727	0.1	-48.006
6139	12.435	5.2727	0.1	-62.089
6140	12.252	5.2727	0.1	-78.08
6141	12.068	5.2727	0.1	-96.71
6142	11.885	5.2727	0.1	-119.82
6143	11.701	5.2727	0.1	-151.8
6144	11.517	5.2727	0.1	-201.93
6145	11.334	5.2727	0.1	-290.96
6146	11.15	5.2727	0.1	-485.17
6147	23.816	5.4545	0.1	-76.235
6148	23.633	5.4545	0.1	-67.785
6149	23.449	5.4545	0.1	-61.469
6150	23.266	5.4545	0.1	-56.711
6151	23.082	5.4545	0.1	-52.936
6152	22.899	5.4545	0.1	-49.817
6153	22.715	5.4545	0.1	-47.138
6154	22.531	5.4545	0.1	-44.769
6155	22.348	5.4545	0.1	-42.624
6156	22.164	5.4545	0.1	-40.65
6157	21.981	5.4545	0.1	-38.808
6158	21.797	5.4545	0.1	-37.073
6159	21.614	5.4545	0.1	-35.425
6160	21.43	5.4545	0.1	-33.851
6161	21.246	5.4545	0.1	-32.339
6162	21.063	5.4545	0.1	-30.881
6163	20.879	5.4545	0.1	-29.47
6164	20.696	5.4545	0.1	-28.099
6165	20.512	5.4545	0.1	-26.762
6166	20.329	5.4545	0.1	-25.456
6167	20.145	5.4545	0.1	-24.175
6168	19.962	5.4545	0.1	-22.914
6169	19.778	5.4545	0.1	-21.671
6170	19.594	5.4545	0.1	-20.44
6171	19.411	5.4545	0.1	-19.218
6172	19.227	5.4545	0.1	-18.001
6173	19.044	5.4545	0.1	-16.785
6174	18.86	5.4545	0.1	-15.567
6175	18.677	5.4545	0.1	-14.344
6176	18.493	5.4545	0.1	-13.112
6177	18.309	5.4545	0.1	-11.868
6178	18.126	5.4545	0.1	-10.61
6179	17.942	5.4545	0.1	-9.337
6180	17.759	5.4545	0.1	-8.0468
6181	17.575	5.4545	0.1	-6.7394
6182	17.392	5.4545	0.1	-5.4156
6183	17.208	5.4545	0.1	-4.0774
6184	17.024	5.4545	0.1	-2.7287
6185	16.841	5.4545	0.1	-1.3756
6186	16.657	5.4545	0.1	-7.2352e-002
6187	16.474	5.4545	0.1	-8.7284e-003
6188	16.29	5.4545	0.1	-8.7862e-003
6189	16.107	5.4545	0.1	-9.8991e-003
6190	15.923	5.4545	0.1	-1.1481e-002
6191	15.739	5.4545	0.1	-1.3482e-002
6192	15.556	5.4545	0.1	-1.6006e-002
6193	15.372	5.4545	0.1	-1.9218e-002
6194	15.189	5.4545	0.1	-2.3395e-002
6195	15.005	5.4545	0.1	-2.9141e-002
6196	14.822	5.4545	0.1	-3.754e-002
6197	14.638	5.4545	0.1	-5.0835e-002
6198	14.454	5.4545	0.1	-7.4532e-002
6199	14.271	5.4545	0.1	-0.12572
6200	14.087	5.4545	0.1	-0.28808
6201	13.904	5.4545	0.1	-1.3935
6202	13.72	5.4545	0.1	-5.1385
6203	13.537	5.4545	0.1	-10.38
6204	13.353	5.4545	0.1	-16.833
6205	13.169	5.4545	0.1	-24.49
6206	12.986	5.4545	0.1	-33.32
6207	12.802	5.4545	0.1	-43.21
6208	12.619	5.4545	0.1	-53.931
6209	12.435	5.4545	0.1	-65.128
6210	12.252	5.4545	0.1	-76.341
6211	12.068	5.4545	0.1	-87.165
6212	11.885	5.4545	0.1	-97.702
6213	11.701	5.4545	0.1	-109.8
6214	11.517	5.4545	0.1	-129.76
6215	11.334	5.4545	0.1	-177.08
6216	11.15	5.4545	0.1	-316.64
6217	23.816	5.6364	0.1	-56.469
6218	23.633	5.6364	0.1	-49.958
6219	23.449	5.6364	0.1	-46.076
6220	23.266	5.6364	0.1	-43.499
6221	23.082	5.6364	0.1	-41.534
6222	22.899	5.6364	0.1	-39.903
6223	22.715	5.6364	0.1	-38.464
6224	22.531	5.6364	0.1	-37.143
6225	22.348	5.6364	0.1	-35.9
6226	22.164	5.6364	0.1	-34.713
6227	21.981	5.6364	0.1	-33.566
6228	21.797	5.6364	0.1	-32.45
6229	21.614	5.6364	0.1	-31.361
6230	21.43	5.6364	0.1	-30.294
6231	21.246	5.6364	0.1	-29.245
6232	21.063	5.6364	0.1	-28.214
6233	20.879	5.6364	0.1	-27.197
6234	20.696	5.6364	0.1	-26.194
6235	20.512	5.6364	0.1	-25.202
6236	20.329	5.6364	0.1	-24.221
6237	20.145	5.6364	0.1	-23.247
6238	19.962	5.6364	0.1	-22.281
6239	19.778	5.6364	0.1	-21.32
6240	19.594	5.6364	0.1	-20.361
6241	19.411	5.6364	0.1	-19.404
6242	19.227	5.6364	0.1	-18.447
6243	19.044	5.6364	0.1	-17.487
6244	18.86	5.6364	0.1	-16.522
6245	18.677	5.6364	0.1	-15.552
6246	18.493	5.6364	0.1	-14.574
6247	18.309	5.6364	0.1	-13.586
6248	18.126	5.6364	0.1	-12.589
6249	17.942	5.6364	0.1	-11.58
6250	17.759	5.6364	0.1	-10.561
6251	17.575	5.6364	0.1	-9.5306
6252	17.392	5.6364	0.1	-8.4909
6253	17.208	5.6364	0.1	-7.4442
6254	17.024	5.6364	0.1	-6.394
6255	16.841	5.6364	0.1	-5.3456
6256	16.657	5.6364	0.1	-4.3061
6257	16.474	5.6364	0.1	-3.2851
6258	16.29	5.6364	0.1	-2.2951
6259	16.107	5.6364	0.1	-1.3529
6260	15.923	5.6364	0.1	-0.48946
6261	15.739	5.6364	0.1	-6.2256e-002
6262	15.556	5.6364	0.1	-4.5885e-002
6263	15.372	5.6364	0.1	-4.657e-002
6264	15.189	5.6364	0.1	-5.145e-002
6265	15.005	5.6364	0.1	-6.096e-002
6266	14.822	5.6364	0.1	-8.0544e-002
6267	14.638	5.6364	0.1	-0.13418
6268	14.454	5.6364	0.1	-0.40477
6269	14.271	5.6364	0.1	-1.6131
6270	14.087	5.6364	0.1	-3.7005
6271	13.904	5.6364	0.1	-6.5359
6272	13.72	5.6364	0.1	-10.179
6273	13.537	5.6364	0.1	-14.704
6274	13.353	5.6364	0.1	-20.173
6275	13.169	5.6364	0.1	-26.607
6276	12.986	5.6364	0.1	-33.965
6277	12.802	5.6364	0.1	-42.109
6278	12.619	5.6364	0.1	-50.753
6279	12.435	5.6364	0.1	-59.426
6280	12.252	5.6364	0.1	-67.43
6281	12.068	5.6364	0.1	-73.883
6282	11.885	5.6364	0.1	-77.907
6283	11.701	5.6364	0.1	-79.335
6284	11.517	5.6364	0.1	-80.452
6285	11.334	5.6364	0.1	-93.685
6286	11.15	5.6364	0.1	-175.52
6287	23.816	5.8182	0.1	-33.586
6288	23.633	5.8182	0.1	-32.474
6289	23.449	5.8182	0.1	-32.67
6290	23.266	5.8182	0.1	-32.888
6291	23.082	5.8182	0.1	-32.975
6292	22.899	5.8182	0.1	-32.928
6293	22.715	5.8182	0.1	-32.759
6294	22.531	5.8182	0.1	-32.489
6295	22.348	5.8182	0.1	-32.135
6296	22.164	5.8182	0.1	-31.713
6297	21.981	5.8182	0.1	-31.234
6298	21.797	5.8182	0.1	-30.707
6299	21.614	5.8182	0.1	-30.142
6300	21.43	5.8182	0.1	-29.545
6301	21.246	5.8182	0.1	-28.922
6302	21.063	5.8182	0.1	-28.276
6303	20.879	5.8182	0.1	-27.612
6304	20.696	5.8182	0.1	-26.934
6305	20.512	5.8182	0.1	-26.242
6306	20.329	5.8182	0.1	-25.539
6307	20.145	5.8182	0.1	-24.827
6308	19.962	5.8182	0.1	-24.107
6309	19.778	5.8182	0.1	-23.378
6310	19.594	5.8182	0.1	-22.643
6311	19.411	5.8182	0.1	-21.901
6312	19.227	5.8182	0.1	-21.152
6313	19.044	5.8182	0.1	-20.395
6314	18.86	5.8182	0.1	-19.632
6315	18.677	5.8182	0.1	-18.861
6316	18.493	5.8182	0.1	-18.083
6317	18.309	5.8182	0.1	-17.296
6318	18.126	5.8182	0.1	-16.502
6319	17.942	5.8182	0.1	-15.7
6320	17.759	5.8182	0.1	-14.89
6321	17.575	5.8182	0.1	-14.075
6322	17.392	5.8182	0.1	-13.253
6323	17.208	5.8182	0.1	-12.429
6324	17.024	5.8182	0.1	-11.605
6325	16.841	5.8182	0.1	-10.783
6326	16.657	5.8182	0.1	-9.97
6327	16.474	5.8182	0.1	-9.1714
6328	16.29	5.8182	0.1	-8.3952
6329	16.107	5.8182	0.1	-7.6517
6330	15.923	5.8182	0.1	-6.953
6331	15.739	5.8182	0.1	-6.3142
6332	15.556	5.8182	0.1	-5.7535
6333	15.372	5.8182	0.1	-5.2923
6334	15.189	5.8182	0.1	-4.956
6335	15.005	5.8182	0.1	-4.7746
6336	14.822	5.8182	0.1	-4.7829
6337	14.638	5.8182	0.1	-5.0218
6338	14.454	5.8182	0.1	-5.5391
6339	14.271	5.8182	0.1	-6.3891
6340	14.087	5.8182	0.1	-7.6329
6341	13.904	5.8182	0.1	-9.3367
6342	13.72	5.8182	0.1	-11.571
6343	13.537	5.8182	0.1	-14.406
6344	13.353	5.8182	0.1	-17.911
6345	13.169	5.8182	0.1	-22.141
6346	12.986	5.8182	0.1	-27.124
6347	12.802	5.8182	0.1	-32.844
6348	12.619	5.8182	0.1	-39.206
6349	12.435	5.8182	0.1	-45.996
6350	12.252	5.8182	0.1	-52.832
6351	12.068	5.8182	0.1	-59.121
6352	11.885	5.8182	0.1	-64.029
6353	11.701	5.8182	0.1	-66.626
6354	11.517	5.8182	0.1	-66.04
6355	11.334	5.8182	0.1	-65.283
6356	11.15	5.8182	0.1	-88.195
6357	0.18305	0.18182	0.1	-314.32
6358	0.18305	0.36364	0.1	-610.75
6359	0.18305	0.54545	0.1	-743.53
6360	0.18305	0.72727	0.1	-829.1
6361	0.18305	0.90909	0.1	-884.
6362	0.18305	1.0909	0.1	-923.66
6363	0.18305	1.2727	0.1	-952.79
6364	0.18305	1.4545	0.1	-974.9
6365	0.18305	1.6364	0.1	-991.92
6366	0.18305	1.8182	0.1	-1005.1
6367	0.18305	2.	0.1	-1015.3
6368	0.18305	2.1818	0.1	-1023.2
6369	0.18305	2.3636	0.1	-1029.
6370	0.18305	2.5455	0.1	-1033.2
6371	0.18305	2.7273	0.1	-1035.9
6372	0.18305	2.9091	0.1	-1037.2
6373	0.18305	3.0909	0.1	-1037.2
6374	0.18305	3.2727	0.1	-1035.9
6375	0.18305	3.4545	0.1	-1033.2
6376	0.18305	3.6364	0.1	-1029.
6377	0.18305	3.8182	0.1	-1023.2
6378	0.18305	4.	0.1	-1015.3
6379	0.18305	4.1818	0.1	-1005.1
6380	0.18305	4.3636	0.1	-991.92
6381	0.18305	4.5455	0.1	-974.9
6382	0.18305	4.7273	0.1	-952.79
6383	0.18305	4.9091	0.1	-923.66
6384	0.18305	5.0909	0.1	-884.
6385	0.18305	5.2727	0.1	-829.1
6386	0.18305	5.4545	0.1	-743.53
6387	0.18305	5.6364	0.1	-610.75
6388	0.18305	5.8182	0.1	-314.32
6389	0.3661	0.18182	0.1	-92.996
6390	0.3661	0.36364	0.1	137.96
6391	0.3661	0.54545	0.1	183.83
6392	0.3661	0.72727	0.1	207.02
6393	0.3661	0.90909	0.1	221.96
6394	0.3661	1.0909	0.1	232.45
6395	0.3661	1.2727	0.1	240.12
6396	0.3661	1.4545	0.1	245.9
6397	0.3661	1.6364	0.1	250.33
6398	0.3661	1.8182	0.1	253.76
6399	0.3661	2.	0.1	256.41
6400	0.3661	2.1818	0.1	258.44
6401	0.3661	2.3636	0.1	259.95
6402	0.3661	2.5455	0.1	261.03
6403	0.3661	2.7273	0.1	261.73
6404	0.3661	2.9091	0.1	262.07
6405	0.3661	3.0909	0.1	262.07
6406	0.3661	3.2727	0.1	261.73
6407	0.3661	3.4545	0.1	261.03
6408	0.3661	3.6364	0.1	259.95
6409	0.3661	3.8182	0.1	258.44
6410	0.3661	4.	0.1	256.41
6411	0.3661	4.1818	0.1	253.76
6412	0.3661	4.3636	0.1	250.33
6413	0.3661	4.5455	0.1	245.9
6414	0.3661	4.7273	0.1	240.12
6415	0.3661	4.9091	0.1	232.45
6416	0.3661	5.0909	0.1	221.96
6417	0.3661	5.2727	0.1	207.02
6418	0.3661	5.4545	0.1	183.83
6419	0.3661	5.6364	0.1	137.96
6420	0.3661	5.8182	0.1	-92.995
6421	0.54915	0.18182	0.1	-104.66
6422	0.54915	0.36364	0.1	-40.547
6423	0.54915	0.54545	0.1	-49.276
6424	0.54915	0.72727	0.1	-53.938
6425	0.54915	0.90909	0.1	-57.184
6426	0.54915	1.0909	0.1	-59.575
6427	0.54915	1.2727	0.1	-61.355
6428	0.54915	1.4545	0.1	-62.708
6429	0.54915	1.6364	0.1	-63.752
6430	0.54915	1.8182	0.1	-64.561
6431	0.54915	2.	0.1	-65.188
6432	0.54915	2.1818	0.1	-65.668
6433	0.54915	2.3636	0.1	-66.028
6434	0.54915	2.5455	0.1	-66.285
6435	0.54915	2.7273	0.1	-66.45
6436	0.54915	2.9091	0.1	-66.531
6437	0.54915	3.0909	0.1	-66.531
6438	0.54915	3.2727	0.1	-66.45
6439	0.54915	3.4545	0.1	-66.285
6440	0.54915	3.6364	0.1	-66.028
6441	0.54915	3.8182	0.1	-65.668
6442	0.54915	4.	0.1	-65.188
6443	0.54915	4.1818	0.1	-64.561
6444	0.54915	4.3636	0.1	-63.752
6445	0.54915	4.5455	0.1	-62.708
6446	0.54915	4.7273	0.1	-61.355
6447	0.54915	4.9091	0.1	-59.575
6448	0.54915	5.0909	0.1	-57.184
6449	0.54915	5.2727	0.1	-53.938
6450	0.54915	5.4545	0.1	-49.276
6451	0.54915	5.6364	0.1	-40.547
6452	0.54915	5.8182	0.1	-104.66
6453	0.7322	0.18182	0.1	-72.959
6454	0.7322	0.36364	0.1	5.74
6455	0.7322	0.54545	0.1	10.627
6456	0.7322	0.72727	0.1	12.432
6457	0.7322	0.90909	0.1	13.676
6458	0.7322	1.0909	0.1	14.468
6459	0.7322	1.2727	0.1	15.034
6460	0.7322	1.4545	0.1	15.448
6461	0.7322	1.6364	0.1	15.765
6462	0.7322	1.8182	0.1	16.009
6463	0.7322	2.	0.1	16.197
6464	0.7322	2.1818	0.1	16.342
6465	0.7322	2.3636	0.1	16.451
6466	0.7322	2.5455	0.1	16.528
6467	0.7322	2.7273	0.1	16.578
6468	0.7322	2.9091	0.1	16.603
6469	0.7322	3.0909	0.1	16.603
6470	0.7322	3.2727	0.1	16.578
6471	0.7322	3.4545	0.1	16.528
6472	0.7322	3.6364	0.1	16.451
6473	0.7322	3.8182	0.1	16.342
6474	0.7322	4.	0.1	16.197
6475	0.7322	4.1818	0.1	16.009
6476	0.7322	4.3636	0.1	15.765
6477	0.7322	4.5455	0.1	15.448
6478	0.7322	4.7273	0.1	15.034
6479	0.7322	4.9091	0.1	14.468
6480	0.7322	5.0909	0.1	13.676
6481	0.7322	5.2727	0.1	12.432
6482	0.7322	5.4545	0.1	10.627
6483	0.7322	5.6364	0.1	5.74
6484	0.7322	5.8182	0.1	-72.959
6485	0.91525	0.18182	0.1	-53.721
6486	0.91525	0.36364	0.1	-4.9369
6487	0.91525	0.54545	0.1	-3.9645
6488	0.91525	0.72727	0.1	-4.0277
6489	0.91525	0.90909	0.1	-4.0268
6490	0.91525	1.0909	0.1	-4.0898
6491	0.91525	1.2727	0.1	-4.1522
6492	0.91525	1.4545	0.1	-4.2115
6493	0.91525	1.6364	0.1	-4.2608
6494	0.91525	1.8182	0.1	-4.3003
6495	0.91525	2.	0.1	-4.3309
6496	0.91525	2.1818	0.1	-4.3542
6497	0.91525	2.3636	0.1	-4.3712
6498	0.91525	2.5455	0.1	-4.3832
6499	0.91525	2.7273	0.1	-4.3909
6500	0.91525	2.9091	0.1	-4.3946
6501	0.91525	3.0909	0.1	-4.3946
6502	0.91525	3.2727	0.1	-4.3909
6503	0.91525	3.4545	0.1	-4.3832
6504	0.91525	3.6364	0.1	-4.3712
6505	0.91525	3.8182	0.1	-4.3542
6506	0.91525	4.	0.1	-4.3309
6507	0.91525	4.1818	0.1	-4.3003
6508	0.91525	4.3636	0.1	-4.2608
6509	0.91525	4.5455	0.1	-4.2115
6510	0.91525	4.7273	0.1	-4.1522
6511	0.91525	4.9091	0.1	-4.0898
6512	0.91525	5.0909	0.1	-4.0268
6513	0.91525	5.2727	0.1	-4.0277
6514	0.91525	5.4545	0.1	-3.9645
6515	0.91525	5.6364	0.1	-4.9369
6516	0.91525	5.8182	0.1	-53.721
6517	1.0983	0.18182	0.1	-36.006
6518	1.0983	0.36364	0.1	-1.7005
6519	1.0983	0.54545	0.1	-4.0014e-002
6520	1.0983	0.72727	0.1	0.29979
6521	1.0983	0.90909	0.1	0.56808
6522	1.0983	1.0909	0.1	0.70366
6523	1.0983	1.2727	0.1	0.78868
6524	1.0983	1.4545	0.1	0.83947
6525	1.0983	1.6364	0.1	0.87272
6526	1.0983	1.8182	0.1	0.89567
6527	1.0983	2.	0.1	0.91248
6528	1.0983	2.1818	0.1	0.92513
6529	1.0983	2.3636	0.1	0.93463
6530	1.0983	2.5455	0.1	0.94149
6531	1.0983	2.7273	0.1	0.94595
6532	1.0983	2.9091	0.1	0.94816
6533	1.0983	3.0909	0.1	0.94816
6534	1.0983	3.2727	0.1	0.94595
6535	1.0983	3.4545	0.1	0.94149
6536	1.0983	3.6364	0.1	0.93463
6537	1.0983	3.8182	0.1	0.92513
6538	1.0983	4.	0.1	0.91248
6539	1.0983	4.1818	0.1	0.89567
6540	1.0983	4.3636	0.1	0.87272
6541	1.0983	4.5455	0.1	0.83947
6542	1.0983	4.7273	0.1	0.78868
6543	1.0983	4.9091	0.1	0.70366
6544	1.0983	5.0909	0.1	0.56808
6545	1.0983	5.2727	0.1	0.29979
6546	1.0983	5.4545	0.1	-4.0014e-002
6547	1.0983	5.6364	0.1	-1.7005
6548	1.0983	5.8182	0.1	-36.006
6549	1.2814	0.18182	0.1	-23.658
6550	1.2814	0.36364	0.1	-2.0915
6551	1.2814	0.54545	0.1	-0.86544
6552	1.2814	0.72727	0.1	-0.6895
6553	1.2814	0.90909	0.1	-0.52178
6554	1.2814	1.0909	0.1	-0.44671
6555	1.2814	1.2727	0.1	-0.40257
6556	1.2814	1.4545	0.1	-0.382
6557	1.2814	1.6364	0.1	-0.37278
6558	1.2814	1.8182	0.1	-0.36952
6559	1.2814	2.	0.1	-0.36885
6560	1.2814	2.1818	0.1	-0.36918
6561	1.2814	2.3636	0.1	-0.36973
6562	1.2814	2.5455	0.1	-0.37023
6563	1.2814	2.7273	0.1	-0.37056
6564	1.2814	2.9091	0.1	-0.37072
6565	1.2814	3.0909	0.1	-0.37072
6566	1.2814	3.2727	0.1	-0.37056
6567	1.2814	3.4545	0.1	-0.37023
6568	1.2814	3.6364	0.1	-0.36973
6569	1.2814	3.8182	0.1	-0.36918
6570	1.2814	4.	0.1	-0.36885
6571	1.2814	4.1818	0.1	-0.36952
6572	1.2814	4.3636	0.1	-0.37278
6573	1.2814	4.5455	0.1	-0.382
6574	1.2814	4.7273	0.1	-0.40257
6575	1.2814	4.9091	0.1	-0.44671
6576	1.2814	5.0909	0.1	-0.52178
6577	1.2814	5.2727	0.1	-0.6895
6578	1.2814	5.4545	0.1	-0.86544
6579	1.2814	5.6364	0.1	-2.0915
6580	1.2814	5.8182	0.1	-23.657
6581	1.4644	0.18182	0.1	-15.228
6582	1.4644	0.36364	0.1	-1.6596
6583	1.4644	0.54545	0.1	-0.53841
6584	1.4644	0.72727	0.1	-0.36637
6585	1.4644	0.90909	0.1	-0.20008
6586	1.4644	1.0909	0.1	-0.11768
6587	1.4644	1.2727	0.1	-6.4643e-002
6588	1.4644	1.4545	0.1	-3.5551e-002
6589	1.4644	1.6364	0.1	-1.9661e-002
6590	1.4644	1.8182	0.1	-1.1723e-002
6591	1.4644	2.	0.1	-8.047e-003
6592	1.4644	2.1818	0.1	-6.5738e-003
6593	1.4644	2.3636	0.1	-6.1324e-003
6594	1.4644	2.5455	0.1	-6.1122e-003
6595	1.4644	2.7273	0.1	-6.2082e-003
6596	1.4644	2.9091	0.1	-6.2825e-003
6597	1.4644	3.0909	0.1	-6.2823e-003
6598	1.4644	3.2727	0.1	-6.2082e-003
6599	1.4644	3.4545	0.1	-6.1121e-003
6600	1.4644	3.6364	0.1	-6.1322e-003
6601	1.4644	3.8182	0.1	-6.5736e-003
6602	1.4644	4.	0.1	-8.0469e-003
6603	1.4644	4.1818	0.1	-1.1723e-002
6604	1.4644	4.3636	0.1	-1.9661e-002
6605	1.4644	4.5455	0.1	-3.5551e-002
6606	1.4644	4.7273	0.1	-6.4643e-002
6607	1.4644	4.9091	0.1	-0.11768
6608	1.4644	5.0909	0.1	-0.20008
6609	1.4644	5.2727	0.1	-0.36637
6610	1.4644	5.4545	0.1	-0.53841
6611	1.4644	5.6364	0.1	-1.6596
6612	1.4644	5.8182	0.1	-15.228
6613	1.6475	0.18182	0.1	-10.053
6614	1.6475	0.36364	0.1	-1.4944
6615	1.6475	0.54545	0.1	-0.52599
6616	1.6475	0.72727	0.1	-0.38997
6617	1.6475	0.90909	0.1	-0.24738
6618	1.6475	1.0909	0.1	-0.17513
6619	1.6475	1.2727	0.1	-0.12628
6620	1.6475	1.4545	0.1	-9.8151e-002
6621	1.6475	1.6364	0.1	-8.2153e-002
6622	1.6475	1.8182	0.1	-7.3998e-002
6623	1.6475	2.	0.1	-7.0362e-002
6624	1.6475	2.1818	0.1	-6.9199e-002
6625	1.6475	2.3636	0.1	-6.9225e-002
6626	1.6475	2.5455	0.1	-6.9692e-002
6627	1.6475	2.7273	0.1	-7.0178e-002
6628	1.6475	2.9091	0.1	-7.0467e-002
6629	1.6475	3.0909	0.1	-7.0466e-002
6630	1.6475	3.2727	0.1	-7.0178e-002
6631	1.6475	3.4545	0.1	-6.9692e-002
6632	1.6475	3.6364	0.1	-6.9225e-002
6633	1.6475	3.8182	0.1	-6.9199e-002
6634	1.6475	4.	0.1	-7.0362e-002
6635	1.6475	4.1818	0.1	-7.3998e-002
6636	1.6475	4.3636	0.1	-8.2152e-002
6637	1.6475	4.5455	0.1	-9.8151e-002
6638	1.6475	4.7273	0.1	-0.12628
6639	1.6475	4.9091	0.1	-0.17513
6640	1.6475	5.0909	0.1	-0.24737
6641	1.6475	5.2727	0.1	-0.38997
6642	1.6475	5.4545	0.1	-0.52599
6643	1.6475	5.6364	0.1	-1.4944
6644	1.6475	5.8182	0.1	-10.053
6645	1.8305	0.18182	0.1	-6.9023
6646	1.8305	0.36364	0.1	-1.3078
6647	1.8305	0.54545	0.1	-0.45044
6648	1.8305	0.72727	0.1	-0.3351
6649	1.8305	0.90909	0.1	-0.20763
6650	1.8305	1.0909	0.1	-0.14124
6651	1.8305	1.2727	0.1	-9.4212e-002
6652	1.8305	1.4545	0.1	-6.5329e-002
6653	1.8305	1.6364	0.1	-4.7618e-002
6654	1.8305	1.8182	0.1	-3.7623e-002
6655	1.8305	2.	0.1	-3.2438e-002
6656	1.8305	2.1818	0.1	-3.014e-002
6657	1.8305	2.3636	0.1	-2.9417e-002
6658	1.8305	2.5455	0.1	-2.9434e-002
6659	1.8305	2.7273	0.1	-2.9679e-002
6660	1.8305	2.9091	0.1	-2.9865e-002
6661	1.8305	3.0909	0.1	-2.9865e-002
6662	1.8305	3.2727	0.1	-2.9679e-002
6663	1.8305	3.4545	0.1	-2.9434e-002
6664	1.8305	3.6364	0.1	-2.9417e-002
6665	1.8305	3.8182	0.1	-3.014e-002
6666	1.8305	4.	0.1	-3.2438e-002
6667	1.8305	4.1818	0.1	-3.7622e-002
6668	1.8305	4.3636	0.1	-4.7618e-002
6669	1.8305	4.5455	0.1	-6.5328e-002
6670	1.8305	4.7273	0.1	-9.4212e-002
6671	1.8305	4.9091	0.1	-0.14124
6672	1.8305	5.0909	0.1	-0.20763
6673	1.8305	5.2727	0.1	-0.3351
6674	1.8305	5.4545	0.1	-0.45044
6675	1.8305	5.6364	0.1	-1.3078
6676	1.8305	5.8182	0.1	-6.9023
6677	2.0136	0.18182	0.1	-4.9498
6678	2.0136	0.36364	0.1	-1.162
6679	2.0136	0.54545	0.1	-0.40263
6680	2.0136	0.72727	0.1	-0.30629
6681	2.0136	0.90909	0.1	-0.19343
6682	2.0136	1.0909	0.1	-0.13375
6683	2.0136	1.2727	0.1	-8.9856e-002
6684	2.0136	1.4545	0.1	-6.1539e-002
6685	2.0136	1.6364	0.1	-4.3106e-002
6686	2.0136	1.8182	0.1	-3.1857e-002
6687	2.0136	2.	0.1	-2.537e-002
6688	2.0136	2.1818	0.1	-2.1949e-002
6689	2.0136	2.3636	0.1	-2.0366e-002
6690	2.0136	2.5455	0.1	-1.9785e-002
6691	2.0136	2.7273	0.1	-1.9661e-002
6692	2.0136	2.9091	0.1	-1.9674e-002
6693	2.0136	3.0909	0.1	-1.9673e-002
6694	2.0136	3.2727	0.1	-1.9661e-002
6695	2.0136	3.4545	0.1	-1.9785e-002
6696	2.0136	3.6364	0.1	-2.0366e-002
6697	2.0136	3.8182	0.1	-2.1949e-002
6698	2.0136	4.	0.1	-2.5369e-002
6699	2.0136	4.1818	0.1	-3.1857e-002
6700	2.0136	4.3636	0.1	-4.3106e-002
6701	2.0136	4.5455	0.1	-6.1539e-002
6702	2.0136	4.7273	0.1	-8.9856e-002
6703	2.0136	4.9091	0.1	-0.13375
6704	2.0136	5.0909	0.1	-0.19343
6705	2.0136	5.2727	0.1	-0.30629
6706	2.0136	5.4545	0.1	-0.40263
6707	2.0136	5.6364	0.1	-1.162
6708	2.0136	5.8182	0.1	-4.9498
6709	2.1966	0.18182	0.1	-3.6819
6710	2.1966	0.36364	0.1	-1.0344
6711	2.1966	0.54545	0.1	-0.3571
6712	2.1966	0.72727	0.1	-0.27573
6713	2.1966	0.90909	0.1	-0.17516
6714	2.1966	1.0909	0.1	-0.12143
6715	2.1966	1.2727	0.1	-8.0702e-002
6716	2.1966	1.4545	0.1	-5.3348e-002
6717	2.1966	1.6364	0.1	-3.4623e-002
6718	2.1966	1.8182	0.1	-2.243e-002
6719	2.1966	2.	0.1	-1.4783e-002
6720	2.1966	2.1818	0.1	-1.0246e-002
6721	2.1966	2.3636	0.1	-7.7243e-003
6722	2.1966	2.5455	0.1	-6.4349e-003
6723	2.1966	2.7273	0.1	-5.8446e-003
6724	2.1966	2.9091	0.1	-5.6267e-003
6725	2.1966	3.0909	0.1	-5.6267e-003
6726	2.1966	3.2727	0.1	-5.8445e-003
6727	2.1966	3.4545	0.1	-6.4348e-003
6728	2.1966	3.6364	0.1	-7.7242e-003
6729	2.1966	3.8182	0.1	-1.0246e-002
6730	2.1966	4.	0.1	-1.4783e-002
6731	2.1966	4.1818	0.1	-2.243e-002
6732	2.1966	4.3636	0.1	-3.4623e-002
6733	2.1966	4.5455	0.1	-5.3347e-002
6734	2.1966	4.7273	0.1	-8.0701e-002
6735	2.1966	4.9091	0.1	-0.12143
6736	2.1966	5.0909	0.1	-0.17516
6737	2.1966	5.2727	0.1	-0.27573
6738	2.1966	5.4545	0.1	-0.3571
6739	2.1966	5.6364	0.1	-1.0344
6740	2.1966	5.8182	0.1	-3.6818
6741	2.3797	0.18182	0.1	-2.8217
6742	2.3797	0.36364	0.1	-0.92505
6743	2.3797	0.54545	0.1	-0.31855
6744	2.3797	0.72727	0.1	-0.24963
6745	2.3797	0.90909	0.1	-0.15981
6746	2.3797	1.0909	0.1	-0.11154
6747	2.3797	1.2727	0.1	-7.4054e-002
6748	2.3797	1.4545	0.1	-4.806e-002
6749	2.3797	1.6364	0.1	-2.9532e-002
6750	2.3797	1.8182	0.1	-1.6835e-002
6751	2.3797	2.	0.1	-8.3556e-003
6752	2.3797	2.1818	0.1	-2.9088e-003
6753	2.3797	2.3636	0.1	4.4385e-004
6754	2.3797	2.5455	0.1	2.3977e-003
6755	2.3797	2.7273	0.1	3.4444e-003
6756	2.3797	2.9091	0.1	3.8932e-003
6757	2.3797	3.0909	0.1	3.8932e-003
6758	2.3797	3.2727	0.1	3.4445e-003
6759	2.3797	3.4545	0.1	2.3979e-003
6760	2.3797	3.6364	0.1	4.4406e-004
6761	2.3797	3.8182	0.1	-2.9087e-003
6762	2.3797	4.	0.1	-8.3553e-003
6763	2.3797	4.1818	0.1	-1.6834e-002
6764	2.3797	4.3636	0.1	-2.9532e-002
6765	2.3797	4.5455	0.1	-4.8059e-002
6766	2.3797	4.7273	0.1	-7.4053e-002
6767	2.3797	4.9091	0.1	-0.11154
6768	2.3797	5.0909	0.1	-0.15981
6769	2.3797	5.2727	0.1	-0.24963
6770	2.3797	5.4545	0.1	-0.31855
6771	2.3797	5.6364	0.1	-0.92505
6772	2.3797	5.8182	0.1	-2.8217
6773	2.5627	0.18182	0.1	-2.2144
6774	2.5627	0.36364	0.1	-0.82991
6775	2.5627	0.54545	0.1	-0.28455
6776	2.5627	0.72727	0.1	-0.22589
6777	2.5627	0.90909	0.1	-0.14539
6778	2.5627	1.0909	0.1	-0.102
6779	2.5627	1.2727	0.1	-6.7622e-002
6780	2.5627	1.4545	0.1	-4.3178e-002
6781	2.5627	1.6364	0.1	-2.518e-002
6782	2.5627	1.8182	0.1	-1.2336e-002
6783	2.5627	2.	0.1	-3.3373e-003
6784	2.5627	2.1818	0.1	2.7798e-003
6785	2.5627	2.3636	0.1	6.7991e-003
6786	2.5627	2.5455	0.1	9.3159e-003
6787	2.5627	2.7273	0.1	1.0763e-002
6788	2.5627	2.9091	0.1	1.1419e-002
6789	2.5627	3.0909	0.1	1.1419e-002
6790	2.5627	3.2727	0.1	1.0764e-002
6791	2.5627	3.4545	0.1	9.3161e-003
6792	2.5627	3.6364	0.1	6.7992e-003
6793	2.5627	3.8182	0.1	2.7801e-003
6794	2.5627	4.	0.1	-3.3371e-003
6795	2.5627	4.1818	0.1	-1.2335e-002
6796	2.5627	4.3636	0.1	-2.5179e-002
6797	2.5627	4.5455	0.1	-4.3178e-002
6798	2.5627	4.7273	0.1	-6.7622e-002
6799	2.5627	4.9091	0.1	-0.102
6800	2.5627	5.0909	0.1	-0.14539
6801	2.5627	5.2727	0.1	-0.22589
6802	2.5627	5.4545	0.1	-0.28455
6803	2.5627	5.6364	0.1	-0.82991
6804	2.5627	5.8182	0.1	-2.2144
6805	2.7458	0.18182	0.1	-1.7714
6806	2.7458	0.36364	0.1	-0.74675
6807	2.7458	0.54545	0.1	-0.25474
6808	2.7458	0.72727	0.1	-0.20462
6809	2.7458	0.90909	0.1	-0.13227
6810	2.7458	1.0909	0.1	-9.3221e-002
6811	2.7458	1.2727	0.1	-6.1785e-002
6812	2.7458	1.4545	0.1	-3.8978e-002
6813	2.7458	1.6364	0.1	-2.1741e-002
6814	2.7458	1.8182	0.1	-9.0399e-003
6815	2.7458	2.	0.1	1.9387e-004
6816	2.7458	2.1818	0.1	6.739e-003
6817	2.7458	2.3636	0.1	1.1237e-002
6818	2.7458	2.5455	0.1	1.4185e-002
6819	2.7458	2.7273	0.1	1.5952e-002
6820	2.7458	2.9091	0.1	1.6776e-002
6821	2.7458	3.0909	0.1	1.6776e-002
6822	2.7458	3.2727	0.1	1.5952e-002
6823	2.7458	3.4545	0.1	1.4185e-002
6824	2.7458	3.6364	0.1	1.1237e-002
6825	2.7458	3.8182	0.1	6.7391e-003
6826	2.7458	4.	0.1	1.9416e-004
6827	2.7458	4.1818	0.1	-9.0394e-003
6828	2.7458	4.3636	0.1	-2.1741e-002
6829	2.7458	4.5455	0.1	-3.8978e-002
6830	2.7458	4.7273	0.1	-6.1785e-002
6831	2.7458	4.9091	0.1	-9.322e-002
6832	2.7458	5.0909	0.1	-0.13227
6833	2.7458	5.2727	0.1	-0.20462
6834	2.7458	5.4545	0.1	-0.25474
6835	2.7458	5.6364	0.1	-0.74675
6836	2.7458	5.8182	0.1	-1.7714
6837	2.9288	0.18182	0.1	-1.4393
6838	2.9288	0.36364	0.1	-0.67356
6839	2.9288	0.54545	0.1	-0.22843
6840	2.9288	0.72727	0.1	-0.18545
6841	2.9288	0.90909	0.1	-0.12026
6842	2.9288	1.0909	0.1	-8.5071e-002
6843	2.9288	1.2727	0.1	-5.6363e-002
6844	2.9288	1.4545	0.1	-3.52e-002
6845	2.9288	1.6364	0.1	-1.8866e-002
6846	2.9288	1.8182	0.1	-6.5198e-003
6847	2.9288	2.	0.1	2.719e-003
6848	2.9288	2.1818	0.1	9.4781e-003
6849	2.9288	2.3636	0.1	1.4278e-002
6850	2.9288	2.5455	0.1	1.7523e-002
6851	2.9288	2.7273	0.1	1.952e-002
6852	2.9288	2.9091	0.1	2.0469e-002
6853	2.9288	3.0909	0.1	2.0469e-002
6854	2.9288	3.2727	0.1	1.952e-002
6855	2.9288	3.4545	0.1	1.7523e-002
6856	2.9288	3.6364	0.1	1.4278e-002
6857	2.9288	3.8182	0.1	9.4784e-003
6858	2.9288	4.	0.1	2.7194e-003
6859	2.9288	4.1818	0.1	-6.5195e-003
6860	2.9288	4.3636	0.1	-1.8866e-002
6861	2.9288	4.5455	0.1	-3.52e-002
6862	2.9288	4.7273	0.1	-5.6363e-002
6863	2.9288	4.9091	0.1	-8.5071e-002
6864	2.9288	5.0909	0.1	-0.12025
6865	2.9288	5.2727	0.1	-0.18545
6866	2.9288	5.4545	0.1	-0.22843
6867	2.9288	5.6364	0.1	-0.67356
6868	2.9288	5.8182	0.1	-1.4393
6869	3.1119	0.18182	0.1	-1.1847
6870	3.1119	0.36364	0.1	-0.60882
6871	3.1119	0.54545	0.1	-0.20517
6872	3.1119	0.72727	0.1	-0.1682
6873	3.1119	0.90909	0.1	-0.10932
6874	3.1119	1.0909	0.1	-7.7569e-002
6875	3.1119	1.2727	0.1	-5.1372e-002
6876	3.1119	1.4545	0.1	-3.1812e-002
6877	3.1119	1.6364	0.1	-1.6457e-002
6878	3.1119	1.8182	0.1	-4.6133e-003
6879	3.1119	2.	0.1	4.4542e-003
6880	3.1119	2.1818	0.1	1.1252e-002
6881	3.1119	2.3636	0.1	1.6198e-002
6882	3.1119	2.5455	0.1	1.9619e-002
6883	3.1119	2.7273	0.1	2.1764e-002
6884	3.1119	2.9091	0.1	2.2796e-002
6885	3.1119	3.0909	0.1	2.2796e-002
6886	3.1119	3.2727	0.1	2.1764e-002
6887	3.1119	3.4545	0.1	1.962e-002
6888	3.1119	3.6364	0.1	1.6198e-002
6889	3.1119	3.8182	0.1	1.1252e-002
6890	3.1119	4.	0.1	4.4547e-003
6891	3.1119	4.1818	0.1	-4.6128e-003
6892	3.1119	4.3636	0.1	-1.6457e-002
6893	3.1119	4.5455	0.1	-3.1811e-002
6894	3.1119	4.7273	0.1	-5.1371e-002
6895	3.1119	4.9091	0.1	-7.7568e-002
6896	3.1119	5.0909	0.1	-0.10932
6897	3.1119	5.2727	0.1	-0.1682
6898	3.1119	5.4545	0.1	-0.20517
6899	3.1119	5.6364	0.1	-0.60882
6900	3.1119	5.8182	0.1	-1.1847
6901	3.2949	0.18182	0.1	-0.98585
6902	3.2949	0.36364	0.1	-0.55126
6903	3.2949	0.54545	0.1	-0.18454
6904	3.2949	0.72727	0.1	-0.15264
6905	3.2949	0.90909	0.1	-9.9368e-002
6906	3.2949	1.0909	0.1	-7.0682e-002
6907	3.2949	1.2727	0.1	-4.6785e-002
6908	3.2949	1.4545	0.1	-2.8759e-002
6909	3.2949	1.6364	0.1	-1.4413e-002
6910	3.2949	1.8182	0.1	-3.1638e-003
6911	3.2949	2.	0.1	5.6051e-003
6912	3.2949	2.1818	0.1	1.2305e-002
6913	3.2949	2.3636	0.1	1.7272e-002
6914	3.2949	2.5455	0.1	2.0767e-002
6915	3.2949	2.7273	0.1	2.2988e-002
6916	3.2949	2.9091	0.1	2.4066e-002
6917	3.2949	3.0909	0.1	2.4066e-002
6918	3.2949	3.2727	0.1	2.2988e-002
6919	3.2949	3.4545	0.1	2.0767e-002
6920	3.2949	3.6364	0.1	1.7273e-002
6921	3.2949	3.8182	0.1	1.2305e-002
6922	3.2949	4.	0.1	5.6055e-003
6923	3.2949	4.1818	0.1	-3.1634e-003
6924	3.2949	4.3636	0.1	-1.4412e-002
6925	3.2949	4.5455	0.1	-2.8758e-002
6926	3.2949	4.7273	0.1	-4.6785e-002
6927	3.2949	4.9091	0.1	-7.0681e-002
6928	3.2949	5.0909	0.1	-9.9367e-002
6929	3.2949	5.2727	0.1	-0.15264
6930	3.2949	5.4545	0.1	-0.18454
6931	3.2949	5.6364	0.1	-0.55126
6932	3.2949	5.8182	0.1	-0.98584
6933	3.478	0.18182	0.1	-0.82815
6934	3.478	0.36364	0.1	-0.49987
6935	3.478	0.54545	0.1	-0.16621
6936	3.478	0.72727	0.1	-0.13862
6937	3.478	0.90909	0.1	-9.0351e-002
6938	3.478	1.0909	0.1	-6.4403e-002
6939	3.478	1.2727	0.1	-4.2608e-002
6940	3.478	1.4545	0.1	-2.6029e-002
6941	3.478	1.6364	0.1	-1.2687e-002
6942	3.478	1.8182	0.1	-2.0862e-003
6943	3.478	2.	0.1	6.2981e-003
6944	3.478	2.1818	0.1	1.2802e-002
6945	3.478	2.3636	0.1	1.7694e-002
6946	3.478	2.5455	0.1	2.1181e-002
6947	3.478	2.7273	0.1	2.342e-002
6948	3.478	2.9091	0.1	2.4514e-002
6949	3.478	3.0909	0.1	2.4514e-002
6950	3.478	3.2727	0.1	2.342e-002
6951	3.478	3.4545	0.1	2.1181e-002
6952	3.478	3.6364	0.1	1.7694e-002
6953	3.478	3.8182	0.1	1.2802e-002
6954	3.478	4.	0.1	6.2985e-003
6955	3.478	4.1818	0.1	-2.0858e-003
6956	3.478	4.3636	0.1	-1.2686e-002
6957	3.478	4.5455	0.1	-2.6028e-002
6958	3.478	4.7273	0.1	-4.2607e-002
6959	3.478	4.9091	0.1	-6.4402e-002
6960	3.478	5.0909	0.1	-9.035e-002
6961	3.478	5.2727	0.1	-0.13862
6962	3.478	5.4545	0.1	-0.16621
6963	3.478	5.6364	0.1	-0.49986
6964	3.478	5.8182	0.1	-0.82815
6965	3.661	0.18182	0.1	-0.70143
6966	3.661	0.36364	0.1	-0.4538
6967	3.661	0.54545	0.1	-0.1499
6968	3.661	0.72727	0.1	-0.12599
6969	3.661	0.90909	0.1	-8.22e-002
6970	3.661	1.0909	0.1	-5.8704e-002
6971	3.661	1.2727	0.1	-3.8828e-002
6972	3.661	1.4545	0.1	-2.3604e-002
6973	3.661	1.6364	0.1	-1.1238e-002
6974	3.661	1.8182	0.1	-1.3077e-003
6975	3.661	2.	0.1	6.6395e-003
6976	3.661	2.1818	0.1	1.2879e-002
6977	3.661	2.3636	0.1	1.7626e-002
6978	3.661	2.5455	0.1	2.1045e-002
6979	3.661	2.7273	0.1	2.3258e-002
6980	3.661	2.9091	0.1	2.4345e-002
6981	3.661	3.0909	0.1	2.4345e-002
6982	3.661	3.2727	0.1	2.3258e-002
6983	3.661	3.4545	0.1	2.1045e-002
6984	3.661	3.6364	0.1	1.7627e-002
6985	3.661	3.8182	0.1	1.2879e-002
6986	3.661	4.	0.1	6.6399e-003
6987	3.661	4.1818	0.1	-1.3073e-003
6988	3.661	4.3636	0.1	-1.1238e-002
6989	3.661	4.5455	0.1	-2.3603e-002
6990	3.661	4.7273	0.1	-3.8827e-002
6991	3.661	4.9091	0.1	-5.8704e-002
6992	3.661	5.0909	0.1	-8.2199e-002
6993	3.661	5.2727	0.1	-0.12599
6994	3.661	5.4545	0.1	-0.1499
6995	3.661	5.6364	0.1	-0.4538
6996	3.661	5.8182	0.1	-0.70143
6997	3.8441	0.18182	0.1	-0.59843
6998	3.8441	0.36364	0.1	-0.41236
6999	3.8441	0.54545	0.1	-0.13534
7000	3.8441	0.72727	0.1	-0.11458
7001	3.8441	0.90909	0.1	-7.4835e-002
7002	3.8441	1.0909	0.1	-5.3546e-002
7003	3.8441	1.2727	0.1	-3.542e-002
7004	3.8441	1.4545	0.1	-2.1456e-002
7005	3.8441	1.6364	0.1	-1.0025e-002
7006	3.8441	1.8182	0.1	-7.6375e-004
7007	3.8441	2.	0.1	6.7197e-003
7008	3.8441	2.1818	0.1	1.2653e-002
7009	3.8441	2.3636	0.1	1.721e-002
7010	3.8441	2.5455	0.1	2.0518e-002
7011	3.8441	2.7273	0.1	2.2672e-002
7012	3.8441	2.9091	0.1	2.3735e-002
7013	3.8441	3.0909	0.1	2.3735e-002
7014	3.8441	3.2727	0.1	2.2672e-002
7015	3.8441	3.4545	0.1	2.0518e-002
7016	3.8441	3.6364	0.1	1.721e-002
7017	3.8441	3.8182	0.1	1.2653e-002
7018	3.8441	4.	0.1	6.72e-003
7019	3.8441	4.1818	0.1	-7.6325e-004
7020	3.8441	4.3636	0.1	-1.0025e-002
7021	3.8441	4.5455	0.1	-2.1455e-002
7022	3.8441	4.7273	0.1	-3.5419e-002
7023	3.8441	4.9091	0.1	-5.3545e-002
7024	3.8441	5.0909	0.1	-7.4834e-002
7025	3.8441	5.2727	0.1	-0.11458
7026	3.8441	5.4545	0.1	-0.13534
7027	3.8441	5.6364	0.1	-0.41236
7028	3.8441	5.8182	0.1	-0.59843
7029	4.0271	0.18182	0.1	-0.51391
7030	4.0271	0.36364	0.1	-0.37496
7031	4.0271	0.54545	0.1	-0.12235
7032	4.0271	0.72727	0.1	-0.1043
7033	4.0271	0.90909	0.1	-6.8203e-002
7034	4.0271	1.0909	0.1	-4.8903e-002
7035	4.0271	1.2727	0.1	-3.2375e-002
7036	4.0271	1.4545	0.1	-1.9577e-002
7037	4.0271	1.6364	0.1	-9.0309e-003
7038	4.0271	1.8182	0.1	-4.2117e-004
7039	4.0271	2.	0.1	6.5917e-003
7040	4.0271	2.1818	0.1	1.2197e-002
7041	4.0271	2.3636	0.1	1.6535e-002
7042	4.0271	2.5455	0.1	1.9705e-002
7043	4.0271	2.7273	0.1	2.1781e-002
7044	4.0271	2.9091	0.1	2.2808e-002
7045	4.0271	3.0909	0.1	2.2808e-002
7046	4.0271	3.2727	0.1	2.1781e-002
7047	4.0271	3.4545	0.1	1.9705e-002
7048	4.0271	3.6364	0.1	1.6535e-002
7049	4.0271	3.8182	0.1	1.2197e-002
7050	4.0271	4.	0.1	6.5922e-003
7051	4.0271	4.1818	0.1	-4.2079e-004
7052	4.0271	4.3636	0.1	-9.0303e-003
7053	4.0271	4.5455	0.1	-1.9576e-002
7054	4.0271	4.7273	0.1	-3.2374e-002
7055	4.0271	4.9091	0.1	-4.8903e-002
7056	4.0271	5.0909	0.1	-6.8202e-002
7057	4.0271	5.2727	0.1	-0.1043
7058	4.0271	5.4545	0.1	-0.12235
7059	4.0271	5.6364	0.1	-0.37496
7060	4.0271	5.8182	0.1	-0.5139
7061	4.2102	0.18182	0.1	-0.44394
7062	4.2102	0.36364	0.1	-0.3411
7063	4.2102	0.54545	0.1	-0.11073
7064	4.2102	0.72727	0.1	-9.503e-002
7065	4.2102	0.90909	0.1	-6.2245e-002
7066	4.2102	1.0909	0.1	-4.4745e-002
7067	4.2102	1.2727	0.1	-2.9675e-002
7068	4.2102	1.4545	0.1	-1.7952e-002
7069	4.2102	1.6364	0.1	-8.2345e-003
7070	4.2102	1.8182	0.1	-2.4859e-004
7071	4.2102	2.	0.1	6.302e-003
7072	4.2102	2.1818	0.1	1.1574e-002
7073	4.2102	2.3636	0.1	1.5681e-002
7074	4.2102	2.5455	0.1	1.8698e-002
7075	4.2102	2.7273	0.1	2.0682e-002
7076	4.2102	2.9091	0.1	2.1667e-002
7077	4.2102	3.0909	0.1	2.1667e-002
7078	4.2102	3.2727	0.1	2.0682e-002
7079	4.2102	3.4545	0.1	1.8698e-002
7080	4.2102	3.6364	0.1	1.5681e-002
7081	4.2102	3.8182	0.1	1.1575e-002
7082	4.2102	4.	0.1	6.3024e-003
7083	4.2102	4.1818	0.1	-2.481e-004
7084	4.2102	4.3636	0.1	-8.2338e-003
7085	4.2102	4.5455	0.1	-1.7951e-002
7086	4.2102	4.7273	0.1	-2.9674e-002
7087	4.2102	4.9091	0.1	-4.4744e-002
7088	4.2102	5.0909	0.1	-6.2243e-002
7089	4.2102	5.2727	0.1	-9.5029e-002
7090	4.2102	5.4545	0.1	-0.11073
7091	4.2102	5.6364	0.1	-0.3411
7092	4.2102	5.8182	0.1	-0.44394
7093	4.3932	0.18182	0.1	-0.38559
7094	4.3932	0.36364	0.1	-0.31036
7095	4.3932	0.54545	0.1	-0.10034
7096	4.3932	0.72727	0.1	-8.6676e-002
7097	4.3932	0.90909	0.1	-5.6909e-002
7098	4.3932	1.0909	0.1	-4.1042e-002
7099	4.3932	1.2727	0.1	-2.7304e-002
7100	4.3932	1.4545	0.1	-1.6569e-002
7101	4.3932	1.6364	0.1	-7.6211e-003
7102	4.3932	1.8182	0.1	-2.2253e-004
7103	4.3932	2.	0.1	5.8843e-003
7104	4.3932	2.1818	0.1	1.083e-002
7105	4.3932	2.3636	0.1	1.4704e-002
7106	4.3932	2.5455	0.1	1.7564e-002
7107	4.3932	2.7273	0.1	1.9452e-002
7108	4.3932	2.9091	0.1	2.0391e-002
7109	4.3932	3.0909	0.1	2.0391e-002
7110	4.3932	3.2727	0.1	1.9452e-002
7111	4.3932	3.4545	0.1	1.7565e-002
7112	4.3932	3.6364	0.1	1.4704e-002
7113	4.3932	3.8182	0.1	1.083e-002
7114	4.3932	4.	0.1	5.8848e-003
7115	4.3932	4.1818	0.1	-2.2208e-004
7116	4.3932	4.3636	0.1	-7.6206e-003
7117	4.3932	4.5455	0.1	-1.6569e-002
7118	4.3932	4.7273	0.1	-2.7303e-002
7119	4.3932	4.9091	0.1	-4.1041e-002
7120	4.3932	5.0909	0.1	-5.6908e-002
7121	4.3932	5.2727	0.1	-8.6676e-002
7122	4.3932	5.4545	0.1	-0.10034
7123	4.3932	5.6364	0.1	-0.31036
7124	4.3932	5.8182	0.1	-0.38558
7125	4.5763	0.18182	0.1	-0.33656
7126	4.5763	0.36364	0.1	-0.28236
7127	4.5763	0.54545	0.1	-9.1029e-002
7128	4.5763	0.72727	0.1	-7.915e-002
7129	4.5763	0.90909	0.1	-5.2143e-002
7130	4.5763	1.0909	0.1	-3.7761e-002
7131	4.5763	1.2727	0.1	-2.524e-002
7132	4.5763	1.4545	0.1	-1.5411e-002
7133	4.5763	1.6364	0.1	-7.1723e-003
7134	4.5763	1.8182	0.1	-3.1971e-004
7135	4.5763	2.	0.1	5.3707e-003
7136	4.5763	2.1818	0.1	1.0006e-002
7137	4.5763	2.3636	0.1	1.3655e-002
7138	4.5763	2.5455	0.1	1.6361e-002
7139	4.5763	2.7273	0.1	1.8154e-002
7140	4.5763	2.9091	0.1	1.9046e-002
7141	4.5763	3.0909	0.1	1.9046e-002
7142	4.5763	3.2727	0.1	1.8154e-002
7143	4.5763	3.4545	0.1	1.6362e-002
7144	4.5763	3.6364	0.1	1.3656e-002
7145	4.5763	3.8182	0.1	1.0006e-002
7146	4.5763	4.	0.1	5.3711e-003
7147	4.5763	4.1818	0.1	-3.191e-004
7148	4.5763	4.3636	0.1	-7.1717e-003
7149	4.5763	4.5455	0.1	-1.5411e-002
7150	4.5763	4.7273	0.1	-2.524e-002
7151	4.5763	4.9091	0.1	-3.7761e-002
7152	4.5763	5.0909	0.1	-5.2141e-002
7153	4.5763	5.2727	0.1	-7.9149e-002
7154	4.5763	5.4545	0.1	-9.1029e-002
7155	4.5763	5.6364	0.1	-0.28235
7156	4.5763	5.8182	0.1	-0.33656
7157	4.7593	0.18182	0.1	-0.29511
7158	4.7593	0.36364	0.1	-0.25678
7159	4.7593	0.54545	0.1	-8.2701e-002
7160	4.7593	0.72727	0.1	-7.2387e-002
7161	4.7593	0.90909	0.1	-4.7914e-002
7162	4.7593	1.0909	0.1	-3.4887e-002
7163	4.7593	1.2727	0.1	-2.3479e-002
7164	4.7593	1.4545	0.1	-1.4478e-002
7165	4.7593	1.6364	0.1	-6.8874e-003
7166	4.7593	1.8182	0.1	-5.3539e-004
7167	4.7593	2.	0.1	4.771e-003
7168	4.7593	2.1818	0.1	9.1185e-003
7169	4.7593	2.3636	0.1	1.2559e-002
7170	4.7593	2.5455	0.1	1.512e-002
7171	4.7593	2.7273	0.1	1.6822e-002
7172	4.7593	2.9091	0.1	1.7672e-002
7173	4.7593	3.0909	0.1	1.7672e-002
7174	4.7593	3.2727	0.1	1.6822e-002
7175	4.7593	3.4545	0.1	1.5121e-002
7176	4.7593	3.6364	0.1	1.2559e-002
7177	4.7593	3.8182	0.1	9.1187e-003
7178	4.7593	4.	0.1	4.7715e-003
7179	4.7593	4.1818	0.1	-5.3485e-004
7180	4.7593	4.3636	0.1	-6.8868e-003
7181	4.7593	4.5455	0.1	-1.4477e-002
7182	4.7593	4.7273	0.1	-2.3479e-002
7183	4.7593	4.9091	0.1	-3.4887e-002
7184	4.7593	5.0909	0.1	-4.7913e-002
7185	4.7593	5.2727	0.1	-7.2386e-002
7186	4.7593	5.4545	0.1	-8.2701e-002
7187	4.7593	5.6364	0.1	-0.25678
7188	4.7593	5.8182	0.1	-0.2951
7189	4.9424	0.18182	0.1	-0.25982
7190	4.9424	0.36364	0.1	-0.23335
7191	4.9424	0.54545	0.1	-7.5257e-002
7192	4.9424	0.72727	0.1	-6.6325e-002
7193	4.9424	0.90909	0.1	-4.419e-002
7194	4.9424	1.0909	0.1	-3.2403e-002
7195	4.9424	1.2727	0.1	-2.2013e-002
7196	4.9424	1.4545	0.1	-1.3765e-002
7197	4.9424	1.6364	0.1	-6.7629e-003
7198	4.9424	1.8182	0.1	-8.639e-004
7199	4.9424	2.	0.1	4.0962e-003
7200	4.9424	2.1818	0.1	8.1842e-003
7201	4.9424	2.3636	0.1	1.1436e-002
7202	4.9424	2.5455	0.1	1.3868e-002
7203	4.9424	2.7273	0.1	1.5489e-002
7204	4.9424	2.9091	0.1	1.63e-002
7205	4.9424	3.0909	0.1	1.63e-002
7206	4.9424	3.2727	0.1	1.5489e-002
7207	4.9424	3.4545	0.1	1.3868e-002
7208	4.9424	3.6364	0.1	1.1437e-002
7209	4.9424	3.8182	0.1	8.1846e-003
7210	4.9424	4.	0.1	4.0967e-003
7211	4.9424	4.1818	0.1	-8.6332e-004
7212	4.9424	4.3636	0.1	-6.7624e-003
7213	4.9424	4.5455	0.1	-1.3764e-002
7214	4.9424	4.7273	0.1	-2.2012e-002
7215	4.9424	4.9091	0.1	-3.2402e-002
7216	4.9424	5.0909	0.1	-4.4189e-002
7217	4.9424	5.2727	0.1	-6.6324e-002
7218	4.9424	5.4545	0.1	-7.5257e-002
7219	4.9424	5.6364	0.1	-0.23335
7220	4.9424	5.8182	0.1	-0.25982
7221	5.1254	0.18182	0.1	-0.22958
7222	5.1254	0.36364	0.1	-0.21181
7223	5.1254	0.54545	0.1	-6.8617e-002
7224	5.1254	0.72727	0.1	-6.0916e-002
7225	5.1254	0.90909	0.1	-4.0948e-002
7226	5.1254	1.0909	0.1	-3.0298e-002
7227	5.1254	1.2727	0.1	-2.0839e-002
7228	5.1254	1.4545	0.1	-1.3274e-002
7229	5.1254	1.6364	0.1	-6.8015e-003
7230	5.1254	1.8182	0.1	-1.3057e-003
7231	5.1254	2.	0.1	3.3492e-003
7232	5.1254	2.1818	0.1	7.2112e-003
7233	5.1254	2.3636	0.1	1.0301e-002
7234	5.1254	2.5455	0.1	1.2621e-002
7235	5.1254	2.7273	0.1	1.4174e-002
7236	5.1254	2.9091	0.1	1.4951e-002
7237	5.1254	3.0909	0.1	1.4951e-002
7238	5.1254	3.2727	0.1	1.4174e-002
7239	5.1254	3.4545	0.1	1.2622e-002
7240	5.1254	3.6364	0.1	1.0301e-002
7241	5.1254	3.8182	0.1	7.2115e-003
7242	5.1254	4.	0.1	3.3497e-003
7243	5.1254	4.1818	0.1	-1.3052e-003
7244	5.1254	4.3636	0.1	-6.8009e-003
7245	5.1254	4.5455	0.1	-1.3273e-002
7246	5.1254	4.7273	0.1	-2.0839e-002
7247	5.1254	4.9091	0.1	-3.0297e-002
7248	5.1254	5.0909	0.1	-4.0946e-002
7249	5.1254	5.2727	0.1	-6.0915e-002
7250	5.1254	5.4545	0.1	-6.8617e-002
7251	5.1254	5.6364	0.1	-0.2118
7252	5.1254	5.8182	0.1	-0.22958
7253	5.3085	0.18182	0.1	-0.20347
7254	5.3085	0.36364	0.1	-0.19191
7255	5.3085	0.54545	0.1	-6.2709e-002
7256	5.3085	0.72727	0.1	-5.6113e-002
7257	5.3085	0.90909	0.1	-3.8165e-002
7258	5.3085	1.0909	0.1	-2.8562e-002
7259	5.3085	1.2727	0.1	-1.9956e-002
7260	5.3085	1.4545	0.1	-1.3007e-002
7261	5.3085	1.6364	0.1	-7.0047e-003
7262	5.3085	1.8182	0.1	-1.8603e-003
7263	5.3085	2.	0.1	2.5339e-003
7264	5.3085	2.1818	0.1	6.2073e-003
7265	5.3085	2.3636	0.1	9.1647e-003
7266	5.3085	2.5455	0.1	1.1397e-002
7267	5.3085	2.7273	0.1	1.2896e-002
7268	5.3085	2.9091	0.1	1.3648e-002
7269	5.3085	3.0909	0.1	1.3648e-002
7270	5.3085	3.2727	0.1	1.2896e-002
7271	5.3085	3.4545	0.1	1.1397e-002
7272	5.3085	3.6364	0.1	9.165e-003
7273	5.3085	3.8182	0.1	6.2077e-003
7274	5.3085	4.	0.1	2.5345e-003
7275	5.3085	4.1818	0.1	-1.8599e-003
7276	5.3085	4.3636	0.1	-7.0042e-003
7277	5.3085	4.5455	0.1	-1.3006e-002
7278	5.3085	4.7273	0.1	-1.9955e-002
7279	5.3085	4.9091	0.1	-2.8561e-002
7280	5.3085	5.0909	0.1	-3.8163e-002
7281	5.3085	5.2727	0.1	-5.6112e-002
7282	5.3085	5.4545	0.1	-6.2709e-002
7283	5.3085	5.6364	0.1	-0.19191
7284	5.3085	5.8182	0.1	-0.20347
7285	5.4915	0.18182	0.1	-0.18075
7286	5.4915	0.36364	0.1	-0.17346
7287	5.4915	0.54545	0.1	-5.7491e-002
7288	5.4915	0.72727	0.1	-5.1898e-002
7289	5.4915	0.90909	0.1	-3.5846e-002
7290	5.4915	1.0909	0.1	-2.7212e-002
7291	5.4915	1.2727	0.1	-1.9387e-002
7292	5.4915	1.4545	0.1	-1.299e-002
7293	5.4915	1.6364	0.1	-7.3988e-003
7294	5.4915	1.8182	0.1	-2.552e-003
7295	5.4915	2.	0.1	1.6299e-003
7296	5.4915	2.1818	0.1	5.1567e-003
7297	5.4915	2.3636	0.1	8.0166e-003
7298	5.4915	2.5455	0.1	1.0188e-002
7299	5.4915	2.7273	0.1	1.1651e-002
7300	5.4915	2.9091	0.1	1.2387e-002
7301	5.4915	3.0909	0.1	1.2387e-002
7302	5.4915	3.2727	0.1	1.1651e-002
7303	5.4915	3.4545	0.1	1.0188e-002
7304	5.4915	3.6364	0.1	8.0168e-003
7305	5.4915	3.8182	0.1	5.1571e-003
7306	5.4915	4.	0.1	1.6304e-003
7307	5.4915	4.1818	0.1	-2.5516e-003
7308	5.4915	4.3636	0.1	-7.3981e-003
7309	5.4915	4.5455	0.1	-1.2989e-002
7310	5.4915	4.7273	0.1	-1.9386e-002
7311	5.4915	4.9091	0.1	-2.7211e-002
7312	5.4915	5.0909	0.1	-3.5845e-002
7313	5.4915	5.2727	0.1	-5.1897e-002
7314	5.4915	5.4545	0.1	-5.7491e-002
7315	5.4915	5.6364	0.1	-0.17346
7316	5.4915	5.8182	0.1	-0.18075
7317	5.6746	0.18182	0.1	-0.16078
7318	5.6746	0.36364	0.1	-0.15627
7319	5.6746	0.54545	0.1	-5.2928e-002
7320	5.6746	0.72727	0.1	-4.8256e-002
7321	5.6746	0.90909	0.1	-3.4e-002
7322	5.6746	1.0909	0.1	-2.6267e-002
7323	5.6746	1.2727	0.1	-1.9157e-002
7324	5.6746	1.4545	0.1	-1.325e-002
7325	5.6746	1.6364	0.1	-8.0102e-003
7326	5.6746	1.8182	0.1	-3.4043e-003
7327	5.6746	2.	0.1	6.1818e-004
7328	5.6746	2.1818	0.1	4.0453e-003
7329	5.6746	2.3636	0.1	6.8477e-003
7330	5.6746	2.5455	0.1	8.9885e-003
7331	5.6746	2.7273	0.1	1.0438e-002
7332	5.6746	2.9091	0.1	1.117e-002
7333	5.6746	3.0909	0.1	1.117e-002
7334	5.6746	3.2727	0.1	1.0438e-002
7335	5.6746	3.4545	0.1	8.9888e-003
7336	5.6746	3.6364	0.1	6.8481e-003
7337	5.6746	3.8182	0.1	4.0458e-003
7338	5.6746	4.	0.1	6.1866e-004
7339	5.6746	4.1818	0.1	-3.4038e-003
7340	5.6746	4.3636	0.1	-8.0095e-003
7341	5.6746	4.5455	0.1	-1.3249e-002
7342	5.6746	4.7273	0.1	-1.9156e-002
7343	5.6746	4.9091	0.1	-2.6266e-002
7344	5.6746	5.0909	0.1	-3.3999e-002
7345	5.6746	5.2727	0.1	-4.8255e-002
7346	5.6746	5.4545	0.1	-5.2927e-002
7347	5.6746	5.6364	0.1	-0.15627
7348	5.6746	5.8182	0.1	-0.16078
7349	5.8576	0.18182	0.1	-0.14303
7350	5.8576	0.36364	0.1	-0.14013
7351	5.8576	0.54545	0.1	-4.8988e-002
7352	5.8576	0.72727	0.1	-4.5176e-002
7353	5.8576	0.90909	0.1	-3.2641e-002
7354	5.8576	1.0909	0.1	-2.5751e-002
7355	5.8576	1.2727	0.1	-1.9296e-002
7356	5.8576	1.4545	0.1	-1.382e-002
7357	5.8576	1.6364	0.1	-8.87e-003
7358	5.8576	1.8182	0.1	-4.4437e-003
7359	5.8576	2.	0.1	-5.2182e-004
7360	5.8576	2.1818	0.1	2.8596e-003
7361	5.8576	2.3636	0.1	5.6507e-003
7362	5.8576	2.5455	0.1	7.7984e-003
7363	5.8576	2.7273	0.1	9.2598e-003
7364	5.8576	2.9091	0.1	9.9997e-003
7365	5.8576	3.0909	0.1	9.9998e-003
7366	5.8576	3.2727	0.1	9.2597e-003
7367	5.8576	3.4545	0.1	7.7987e-003
7368	5.8576	3.6364	0.1	5.651e-003
7369	5.8576	3.8182	0.1	2.8599e-003
7370	5.8576	4.	0.1	-5.2154e-004
7371	5.8576	4.1818	0.1	-4.4431e-003
7372	5.8576	4.3636	0.1	-8.8694e-003
7373	5.8576	4.5455	0.1	-1.3819e-002
7374	5.8576	4.7273	0.1	-1.9296e-002
7375	5.8576	4.9091	0.1	-2.575e-002
7376	5.8576	5.0909	0.1	-3.264e-002
7377	5.8576	5.2727	0.1	-4.5176e-002
7378	5.8576	5.4545	0.1	-4.8987e-002
7379	5.8576	5.6364	0.1	-0.14013
7380	5.8576	5.8182	0.1	-0.14303
7381	6.0407	0.18182	0.1	-0.12704
7382	6.0407	0.36364	0.1	-0.12489
7383	6.0407	0.54545	0.1	-4.5679e-002
7384	6.0407	0.72727	0.1	-4.2691e-002
7385	6.0407	0.90909	0.1	-3.1824e-002
7386	6.0407	1.0909	0.1	-2.5731e-002
7387	6.0407	1.2727	0.1	-1.9879e-002
7388	6.0407	1.4545	0.1	-1.4773e-002
7389	6.0407	1.6364	0.1	-1.0047e-002
7390	6.0407	1.8182	0.1	-5.7321e-003
7391	6.0407	2.	0.1	-1.8437e-003
7392	6.0407	2.1818	0.1	1.5552e-003
7393	6.0407	2.3636	0.1	4.3908e-003
7394	6.0407	2.5455	0.1	6.5898e-003
7395	6.0407	2.7273	0.1	8.0943e-003
7396	6.0407	2.9091	0.1	8.8586e-003
7397	6.0407	3.0909	0.1	8.8586e-003
7398	6.0407	3.2727	0.1	8.0944e-003
7399	6.0407	3.4545	0.1	6.5901e-003
7400	6.0407	3.6364	0.1	4.391e-003
7401	6.0407	3.8182	0.1	1.5557e-003
7402	6.0407	4.	0.1	-1.843e-003
7403	6.0407	4.1818	0.1	-5.7315e-003
7404	6.0407	4.3636	0.1	-1.0046e-002
7405	6.0407	4.5455	0.1	-1.4772e-002
7406	6.0407	4.7273	0.1	-1.9879e-002
7407	6.0407	4.9091	0.1	-2.5731e-002
7408	6.0407	5.0909	0.1	-3.1822e-002
7409	6.0407	5.2727	0.1	-4.269e-002
7410	6.0407	5.4545	0.1	-4.5679e-002
7411	6.0407	5.6364	0.1	-0.12489
7412	6.0407	5.8182	0.1	-0.12704
7413	6.2237	0.18182	0.1	-0.11241
7414	6.2237	0.36364	0.1	-0.1104
7415	6.2237	0.54545	0.1	-4.3031e-002
7416	6.2237	0.72727	0.1	-4.0853e-002
7417	6.2237	0.90909	0.1	-3.1634e-002
7418	6.2237	1.0909	0.1	-2.6307e-002
7419	6.2237	1.2727	0.1	-2.1008e-002
7420	6.2237	1.4545	0.1	-1.6209e-002
7421	6.2237	1.6364	0.1	-1.1635e-002
7422	6.2237	1.8182	0.1	-7.3522e-003
7423	6.2237	2.	0.1	-3.4159e-003
7424	6.2237	2.1818	0.1	7.7518e-005
7425	6.2237	2.3636	0.1	3.026e-003
7426	6.2237	2.5455	0.1	5.332e-003
7427	6.2237	2.7273	0.1	6.9188e-003
7428	6.2237	2.9091	0.1	7.7276e-003
7429	6.2237	3.0909	0.1	7.7277e-003
7430	6.2237	3.2727	0.1	6.9189e-003
7431	6.2237	3.4545	0.1	5.3323e-003
7432	6.2237	3.6364	0.1	3.026e-003
7433	6.2237	3.8182	0.1	7.7702e-005
7434	6.2237	4.	0.1	-3.4156e-003
7435	6.2237	4.1818	0.1	-7.3518e-003
7436	6.2237	4.3636	0.1	-1.1634e-002
7437	6.2237	4.5455	0.1	-1.6208e-002
7438	6.2237	4.7273	0.1	-2.1008e-002
7439	6.2237	4.9091	0.1	-2.6306e-002
7440	6.2237	5.0909	0.1	-3.1633e-002
7441	6.2237	5.2727	0.1	-4.0852e-002
7442	6.2237	5.4545	0.1	-4.3031e-002
7443	6.2237	5.6364	0.1	-0.11039
7444	6.2237	5.8182	0.1	-0.11241
7445	6.4068	0.18182	0.1	-9.8823e-002
7446	6.4068	0.36364	0.1	-9.6509e-002
7447	6.4068	0.54545	0.1	-4.1124e-002
7448	6.4068	0.72727	0.1	-3.9778e-002
7449	6.4068	0.90909	0.1	-3.2223e-002
7450	6.4068	1.0909	0.1	-2.7643e-002
7451	6.4068	1.2727	0.1	-2.2853e-002
7452	6.4068	1.4545	0.1	-1.8292e-002
7453	6.4068	1.6364	0.1	-1.3782e-002
7454	6.4068	1.8182	0.1	-9.4321e-003
7455	6.4068	2.	0.1	-5.3456e-003
7456	6.4068	2.1818	0.1	-1.6582e-003
7457	6.4068	2.3636	0.1	1.4921e-003
7458	6.4068	2.5455	0.1	3.9779e-003
7459	6.4068	2.7273	0.1	5.6981e-003
7460	6.4068	2.9091	0.1	6.5777e-003
7461	6.4068	3.0909	0.1	6.5777e-003
7462	6.4068	3.2727	0.1	5.6981e-003
7463	6.4068	3.4545	0.1	3.9779e-003
7464	6.4068	3.6364	0.1	1.4923e-003
7465	6.4068	3.8182	0.1	-1.6576e-003
7466	6.4068	4.	0.1	-5.3451e-003
7467	6.4068	4.1818	0.1	-9.4315e-003
7468	6.4068	4.3636	0.1	-1.3781e-002
7469	6.4068	4.5455	0.1	-1.8292e-002
7470	6.4068	4.7273	0.1	-2.2852e-002
7471	6.4068	4.9091	0.1	-2.7642e-002
7472	6.4068	5.0909	0.1	-3.2221e-002
7473	6.4068	5.2727	0.1	-3.9777e-002
7474	6.4068	5.4545	0.1	-4.1123e-002
7475	6.4068	5.6364	0.1	-9.6508e-002
7476	6.4068	5.8182	0.1	-9.8822e-002
7477	6.5898	0.18182	0.1	-8.608e-002
7478	6.5898	0.36364	0.1	-8.3156e-002
7479	6.5898	0.54545	0.1	-4.0127e-002
7480	6.5898	0.72727	0.1	-3.9689e-002
7481	6.5898	0.90909	0.1	-3.386e-002
7482	6.5898	1.0909	0.1	-3.0024e-002
7483	6.5898	1.2727	0.1	-2.5693e-002
7484	6.5898	1.4545	0.1	-2.1282e-002
7485	6.5898	1.6364	0.1	-1.6718e-002
7486	6.5898	1.8182	0.1	-1.2167e-002
7487	6.5898	2.	0.1	-7.7895e-003
7488	6.5898	2.1818	0.1	-3.7722e-003
7489	6.5898	2.3636	0.1	-2.9916e-004
7490	6.5898	2.5455	0.1	2.4646e-003
7491	6.5898	2.7273	0.1	4.3876e-003
7492	6.5898	2.9091	0.1	5.3739e-003
7493	6.5898	3.0909	0.1	5.3739e-003
7494	6.5898	3.2727	0.1	4.3877e-003
7495	6.5898	3.4545	0.1	2.4647e-003
7496	6.5898	3.6364	0.1	-2.9883e-004
7497	6.5898	3.8182	0.1	-3.772e-003
7498	6.5898	4.	0.1	-7.7889e-003
7499	6.5898	4.1818	0.1	-1.2166e-002
7500	6.5898	4.3636	0.1	-1.6717e-002
7501	6.5898	4.5455	0.1	-2.1281e-002
7502	6.5898	4.7273	0.1	-2.5693e-002
7503	6.5898	4.9091	0.1	-3.0023e-002
7504	6.5898	5.0909	0.1	-3.3859e-002
7505	6.5898	5.2727	0.1	-3.9688e-002
7506	6.5898	5.4545	0.1	-4.0127e-002
7507	6.5898	5.6364	0.1	-8.3155e-002
7508	6.5898	5.8182	0.1	-8.6078e-002
7509	6.7729	0.18182	0.1	-7.432e-002
7510	6.7729	0.36364	0.1	-7.0431e-002
7511	6.7729	0.54545	0.1	-4.0457e-002
7512	6.7729	0.72727	0.1	-4.1087e-002
7513	6.7729	0.90909	0.1	-3.7101e-002
7514	6.7729	1.0909	0.1	-3.4004e-002
7515	6.7729	1.2727	0.1	-3.0052e-002
7516	6.7729	1.4545	0.1	-2.5648e-002
7517	6.7729	1.6364	0.1	-2.0847e-002
7518	6.7729	1.8182	0.1	-1.589e-002
7519	6.7729	2.	0.1	-1.1013e-002
7520	6.7729	2.1818	0.1	-6.4677e-003
7521	6.7729	2.3636	0.1	-2.4968e-003
7522	6.7729	2.5455	0.1	6.8532e-004
7523	6.7729	2.7273	0.1	2.9092e-003
7524	6.7729	2.9091	0.1	4.0527e-003
7525	6.7729	3.0909	0.1	4.0527e-003
7526	6.7729	3.2727	0.1	2.9093e-003
7527	6.7729	3.4545	0.1	6.8556e-004
7528	6.7729	3.6364	0.1	-2.4966e-003
7529	6.7729	3.8182	0.1	-6.4673e-003
7530	6.7729	4.	0.1	-1.1012e-002
7531	6.7729	4.1818	0.1	-1.5889e-002
7532	6.7729	4.3636	0.1	-2.0846e-002
7533	6.7729	4.5455	0.1	-2.5647e-002
7534	6.7729	4.7273	0.1	-3.0052e-002
7535	6.7729	4.9091	0.1	-3.4004e-002
7536	6.7729	5.0909	0.1	-3.7099e-002
7537	6.7729	5.2727	0.1	-4.1086e-002
7538	6.7729	5.4545	0.1	-4.0456e-002
7539	6.7729	5.6364	0.1	-7.0429e-002
7540	6.7729	5.8182	0.1	-7.4318e-002
7541	6.9559	0.18182	0.1	-6.5183e-002
7542	6.9559	0.36364	0.1	-5.8997e-002
7543	6.9559	0.54545	0.1	-4.3223e-002
7544	6.9559	0.72727	0.1	-4.5196e-002
7545	6.9559	0.90909	0.1	-4.3178e-002
7546	6.9559	1.0909	0.1	-4.073e-002
7547	6.9559	1.2727	0.1	-3.6941e-002
7548	6.9559	1.4545	0.1	-3.2246e-002
7549	6.9559	1.6364	0.1	-2.6871e-002
7550	6.9559	1.8182	0.1	-2.1156e-002
7551	6.9559	2.	0.1	-1.5439e-002
7552	6.9559	2.1818	0.1	-1.0054e-002
7553	6.9559	2.3636	0.1	-5.3196e-003
7554	6.9559	2.5455	0.1	-1.5093e-003
7555	6.9559	2.7273	0.1	1.1597e-003
7556	6.9559	2.9091	0.1	2.5338e-003
7557	6.9559	3.0909	0.1	2.5338e-003
7558	6.9559	3.2727	0.1	1.1599e-003
7559	6.9559	3.4545	0.1	-1.5091e-003
7560	6.9559	3.6364	0.1	-5.3193e-003
7561	6.9559	3.8182	0.1	-1.0054e-002
7562	6.9559	4.	0.1	-1.5438e-002
7563	6.9559	4.1818	0.1	-2.1156e-002
7564	6.9559	4.3636	0.1	-2.687e-002
7565	6.9559	4.5455	0.1	-3.2246e-002
7566	6.9559	4.7273	0.1	-3.694e-002
7567	6.9559	4.9091	0.1	-4.0729e-002
7568	6.9559	5.0909	0.1	-4.3177e-002
7569	6.9559	5.2727	0.1	-4.5195e-002
7570	6.9559	5.4545	0.1	-4.3222e-002
7571	6.9559	5.6364	0.1	-5.8996e-002
7572	6.9559	5.8182	0.1	-6.5181e-002
7573	7.139	0.18182	0.1	-8.2936e-002
7574	7.139	0.36364	0.1	-5.3081e-002
7575	7.139	0.54545	0.1	-5.2727e-002
7576	7.139	0.72727	0.1	-5.5954e-002
7577	7.139	0.90909	0.1	-5.5482e-002
7578	7.139	1.0909	0.1	-5.2984e-002
7579	7.139	1.2727	0.1	-4.8579e-002
7580	7.139	1.4545	0.1	-4.2807e-002
7581	7.139	1.6364	0.1	-3.6107e-002
7582	7.139	1.8182	0.1	-2.8949e-002
7583	7.139	2.	0.1	-2.1781e-002
7584	7.139	2.1818	0.1	-1.5034e-002
7585	7.139	2.3636	0.1	-9.1084e-003
7586	7.139	2.5455	0.1	-4.3443e-003
7587	7.139	2.7273	0.1	-1.0108e-003
7588	7.139	2.9091	0.1	7.0424e-004
7589	7.139	3.0909	0.1	7.0412e-004
7590	7.139	3.2727	0.1	-1.0108e-003
7591	7.139	3.4545	0.1	-4.3441e-003
7592	7.139	3.6364	0.1	-9.1082e-003
7593	7.139	3.8182	0.1	-1.5034e-002
7594	7.139	4.	0.1	-2.178e-002
7595	7.139	4.1818	0.1	-2.8948e-002
7596	7.139	4.3636	0.1	-3.6107e-002
7597	7.139	4.5455	0.1	-4.2806e-002
7598	7.139	4.7273	0.1	-4.8579e-002
7599	7.139	4.9091	0.1	-5.2983e-002
7600	7.139	5.0909	0.1	-5.548e-002
7601	7.139	5.2727	0.1	-5.5953e-002
7602	7.139	5.4545	0.1	-5.2727e-002
7603	7.139	5.6364	0.1	-5.3079e-002
7604	7.139	5.8182	0.1	-8.2936e-002
7605	7.322	0.18182	0.1	-2.0529
7606	7.322	0.36364	0.1	-0.45521
7607	7.322	0.54545	0.1	-0.11462
7608	7.322	0.72727	0.1	-9.5693e-002
7609	7.322	0.90909	0.1	-8.7441e-002
7610	7.322	1.0909	0.1	-7.9414e-002
7611	7.322	1.2727	0.1	-7.0729e-002
7612	7.322	1.4545	0.1	-6.1243e-002
7613	7.322	1.6364	0.1	-5.1239e-002
7614	7.322	1.8182	0.1	-4.1105e-002
7615	7.322	2.	0.1	-3.1284e-002
7616	7.322	2.1818	0.1	-2.2235e-002
7617	7.322	2.3636	0.1	-1.4396e-002
7618	7.322	2.5455	0.1	-8.154e-003
7619	7.322	2.7273	0.1	-3.8134e-003
7620	7.322	2.9091	0.1	-1.5883e-003
7621	7.322	3.0909	0.1	-1.5882e-003
7622	7.322	3.2727	0.1	-3.8134e-003
7623	7.322	3.4545	0.1	-8.1537e-003
7624	7.322	3.6364	0.1	-1.4396e-002
7625	7.322	3.8182	0.1	-2.2234e-002
7626	7.322	4.	0.1	-3.1284e-002
7627	7.322	4.1818	0.1	-4.1104e-002
7628	7.322	4.3636	0.1	-5.1239e-002
7629	7.322	4.5455	0.1	-6.1242e-002
7630	7.322	4.7273	0.1	-7.0728e-002
7631	7.322	4.9091	0.1	-7.9413e-002
7632	7.322	5.0909	0.1	-8.7439e-002
7633	7.322	5.2727	0.1	-9.5693e-002
7634	7.322	5.4545	0.1	-0.11462
7635	7.322	5.6364	0.1	-0.45523
7636	7.322	5.8182	0.1	-2.053
7637	7.5051	0.18182	0.1	-5.1627
7638	7.5051	0.36364	0.1	-6.6176
7639	7.5051	0.54545	0.1	-5.6145
7640	7.5051	0.72727	0.1	-2.0849
7641	7.5051	0.90909	0.1	-0.28849
7642	7.5051	1.0909	0.1	-0.16476
7643	7.5051	1.2727	0.1	-0.12357
7644	7.5051	1.4545	0.1	-9.826e-002
7645	7.5051	1.6364	0.1	-7.845e-002
7646	7.5051	1.8182	0.1	-6.1366e-002
7647	7.5051	2.	0.1	-4.6264e-002
7648	7.5051	2.1818	0.1	-3.309e-002
7649	7.5051	2.3636	0.1	-2.2062e-002
7650	7.5051	2.5455	0.1	-1.3469e-002
7651	7.5051	2.7273	0.1	-7.5754e-003
7652	7.5051	2.9091	0.1	-4.577e-003
7653	7.5051	3.0909	0.1	-4.577e-003
7654	7.5051	3.2727	0.1	-7.5752e-003
7655	7.5051	3.4545	0.1	-1.3469e-002
7656	7.5051	3.6364	0.1	-2.2062e-002
7657	7.5051	3.8182	0.1	-3.3089e-002
7658	7.5051	4.	0.1	-4.6263e-002
7659	7.5051	4.1818	0.1	-6.1366e-002
7660	7.5051	4.3636	0.1	-7.8449e-002
7661	7.5051	4.5455	0.1	-9.8259e-002
7662	7.5051	4.7273	0.1	-0.12357
7663	7.5051	4.9091	0.1	-0.16476
7664	7.5051	5.0909	0.1	-0.2885
7665	7.5051	5.2727	0.1	-2.085
7666	7.5051	5.4545	0.1	-5.6146
7667	7.5051	5.6364	0.1	-6.6177
7668	7.5051	5.8182	0.1	-5.1628
7669	7.6881	0.18182	0.1	-8.5188
7670	7.6881	0.36364	0.1	-13.535
7671	7.6881	0.54545	0.1	-15.412
7672	7.6881	0.72727	0.1	-13.862
7673	7.6881	0.90909	0.1	-9.0098
7674	7.6881	1.0909	0.1	-2.0019
7675	7.6881	1.2727	0.1	-0.34813
7676	7.6881	1.4545	0.1	-0.19472
7677	7.6881	1.6364	0.1	-0.13484
7678	7.6881	1.8182	0.1	-9.8174e-002
7679	7.6881	2.	0.1	-7.1256e-002
7680	7.6881	2.1818	0.1	-5.0139e-002
7681	7.6881	2.3636	0.1	-3.3543e-002
7682	7.6881	2.5455	0.1	-2.1103e-002
7683	7.6881	2.7273	0.1	-1.2768e-002
7684	7.6881	2.9091	0.1	-8.582e-003
7685	7.6881	3.0909	0.1	-8.5821e-003
7686	7.6881	3.2727	0.1	-1.2768e-002
7687	7.6881	3.4545	0.1	-2.1103e-002
7688	7.6881	3.6364	0.1	-3.3543e-002
7689	7.6881	3.8182	0.1	-5.0139e-002
7690	7.6881	4.	0.1	-7.1256e-002
7691	7.6881	4.1818	0.1	-9.8174e-002
7692	7.6881	4.3636	0.1	-0.13484
7693	7.6881	4.5455	0.1	-0.19472
7694	7.6881	4.7273	0.1	-0.34813
7695	7.6881	4.9091	0.1	-2.0019
7696	7.6881	5.0909	0.1	-9.0099
7697	7.6881	5.2727	0.1	-13.862
7698	7.6881	5.4545	0.1	-15.412
7699	7.6881	5.6364	0.1	-13.535
7700	7.6881	5.8182	0.1	-8.5188
7701	7.8712	0.18182	0.1	-12.165
7702	7.8712	0.36364	0.1	-21.099
7703	7.8712	0.54545	0.1	-26.126
7704	7.8712	0.72727	0.1	-26.973
7705	7.8712	0.90909	0.1	-23.744
7706	7.8712	1.0909	0.1	-16.735
7707	7.8712	1.2727	0.1	-6.7085
7708	7.8712	1.4545	0.1	-0.71882
7709	7.8712	1.6364	0.1	-0.28747
7710	7.8712	1.8182	0.1	-0.17428
7711	7.8712	2.	0.1	-0.11609
7712	7.8712	2.1818	0.1	-7.8151e-002
7713	7.8712	2.3636	0.1	-5.1281e-002
7714	7.8712	2.5455	0.1	-3.2332e-002
7715	7.8712	2.7273	0.1	-2.0087e-002
7716	7.8712	2.9091	0.1	-1.4054e-002
7717	7.8712	3.0909	0.1	-1.4054e-002
7718	7.8712	3.2727	0.1	-2.0087e-002
7719	7.8712	3.4545	0.1	-3.2332e-002
7720	7.8712	3.6364	0.1	-5.1281e-002
7721	7.8712	3.8182	0.1	-7.8151e-002
7722	7.8712	4.	0.1	-0.11609
7723	7.8712	4.1818	0.1	-0.17428
7724	7.8712	4.3636	0.1	-0.28747
7725	7.8712	4.5455	0.1	-0.71883
7726	7.8712	4.7273	0.1	-6.7086
7727	7.8712	4.9091	0.1	-16.735
7728	7.8712	5.0909	0.1	-23.744
7729	7.8712	5.2727	0.1	-26.973
7730	7.8712	5.4545	0.1	-26.126
7731	7.8712	5.6364	0.1	-21.099
7732	7.8712	5.8182	0.1	-12.165
7733	8.0542	0.18182	0.1	-16.154
7734	8.0542	0.36364	0.1	-29.402
7735	8.0542	0.54545	0.1	-37.869
7736	8.0542	0.72727	0.1	-41.327
7737	8.0542	0.90909	0.1	-39.905
7738	8.0542	1.0909	0.1	-33.894
7739	8.0542	1.2727	0.1	-23.824
7740	8.0542	1.4545	0.1	-10.655
7741	8.0542	1.6364	0.1	-1.1709
7742	8.0542	1.8182	0.1	-0.3741
7743	8.0542	2.	0.1	-0.20557
7744	8.0542	2.1818	0.1	-0.12686
7745	8.0542	2.3636	0.1	-7.9639e-002
7746	8.0542	2.5455	0.1	-4.9248e-002
7747	8.0542	2.7273	0.1	-3.0604e-002
7748	8.0542	2.9091	0.1	-2.1667e-002
7749	8.0542	3.0909	0.1	-2.1666e-002
7750	8.0542	3.2727	0.1	-3.0604e-002
7751	8.0542	3.4545	0.1	-4.9247e-002
7752	8.0542	3.6364	0.1	-7.9638e-002
7753	8.0542	3.8182	0.1	-0.12686
7754	8.0542	4.	0.1	-0.20557
7755	8.0542	4.1818	0.1	-0.3741
7756	8.0542	4.3636	0.1	-1.1709
7757	8.0542	4.5455	0.1	-10.655
7758	8.0542	4.7273	0.1	-23.824
7759	8.0542	4.9091	0.1	-33.894
7760	8.0542	5.0909	0.1	-39.905
7761	8.0542	5.2727	0.1	-41.327
7762	8.0542	5.4545	0.1	-37.869
7763	8.0542	5.6364	0.1	-29.402
7764	8.0542	5.8182	0.1	-16.154
7765	8.2373	0.18182	0.1	-20.543
7766	8.2373	0.36364	0.1	-38.525
7767	8.2373	0.54545	0.1	-50.758
7768	8.2373	0.72727	0.1	-57.084
7769	8.2373	0.90909	0.1	-57.666
7770	8.2373	1.0909	0.1	-52.798
7771	8.2373	1.2727	0.1	-43.011
7772	8.2373	1.4545	0.1	-29.106
7773	8.2373	1.6364	0.1	-12.421
7774	8.2373	1.8182	0.1	-1.3523
7775	8.2373	2.	0.1	-0.4211
7776	8.2373	2.1818	0.1	-0.21871
7777	8.2373	2.3636	0.1	-0.1269
7778	8.2373	2.5455	0.1	-7.5347e-002
7779	8.2373	2.7273	0.1	-4.5959e-002
7780	8.2373	2.9091	0.1	-3.2391e-002
7781	8.2373	3.0909	0.1	-3.2391e-002
7782	8.2373	3.2727	0.1	-4.596e-002
7783	8.2373	3.4545	0.1	-7.5347e-002
7784	8.2373	3.6364	0.1	-0.1269
7785	8.2373	3.8182	0.1	-0.21871
7786	8.2373	4.	0.1	-0.4211
7787	8.2373	4.1818	0.1	-1.3523
7788	8.2373	4.3636	0.1	-12.422
7789	8.2373	4.5455	0.1	-29.106
7790	8.2373	4.7273	0.1	-43.011
7791	8.2373	4.9091	0.1	-52.799
7792	8.2373	5.0909	0.1	-57.666
7793	8.2373	5.2727	0.1	-57.084
7794	8.2373	5.4545	0.1	-50.758
7795	8.2373	5.6364	0.1	-38.526
7796	8.2373	5.8182	0.1	-20.543
7797	8.4203	0.18182	0.1	-25.386
7798	8.4203	0.36364	0.1	-48.524
7799	8.4203	0.54545	0.1	-64.88
7800	8.4203	0.72727	0.1	-74.397
7801	8.4203	0.90909	0.1	-77.267
7802	8.4203	1.0909	0.1	-73.766
7803	8.4203	1.2727	0.1	-64.4
7804	8.4203	1.4545	0.1	-49.97
7805	8.4203	1.6364	0.1	-31.644
7806	8.4203	1.8182	0.1	-11.438
7807	8.4203	2.	0.1	-1.2215
7808	8.4203	2.1818	0.1	-0.41744
7809	8.4203	2.3636	0.1	-0.21055
7810	8.4203	2.5455	0.1	-0.11687
7811	8.4203	2.7273	0.1	-6.8761e-002
7812	8.4203	2.9091	0.1	-4.7661e-002
7813	8.4203	3.0909	0.1	-4.7661e-002
7814	8.4203	3.2727	0.1	-6.8761e-002
7815	8.4203	3.4545	0.1	-0.11687
7816	8.4203	3.6364	0.1	-0.21055
7817	8.4203	3.8182	0.1	-0.41744
7818	8.4203	4.	0.1	-1.2215
7819	8.4203	4.1818	0.1	-11.439
7820	8.4203	4.3636	0.1	-31.644
7821	8.4203	4.5455	0.1	-49.971
7822	8.4203	4.7273	0.1	-64.401
7823	8.4203	4.9091	0.1	-73.766
7824	8.4203	5.0909	0.1	-77.267
7825	8.4203	5.2727	0.1	-74.397
7826	8.4203	5.4545	0.1	-64.88
7827	8.4203	5.6364	0.1	-48.524
7828	8.4203	5.8182	0.1	-25.386
7829	8.6034	0.18182	0.1	-30.724
7830	8.6034	0.36364	0.1	-59.403
7831	8.6034	0.54545	0.1	-80.268
7832	8.6034	0.72727	0.1	-93.388
7833	8.6034	0.90909	0.1	-98.971
7834	8.6034	1.0909	0.1	-97.215
7835	8.6034	1.2727	0.1	-88.54
7836	8.6034	1.4545	0.1	-73.7
7837	8.6034	1.6364	0.1	-53.896
7838	8.6034	1.8182	0.1	-30.857
7839	8.6034	2.	0.1	-8.0454
7840	8.6034	2.1818	0.1	-0.99026
7841	8.6034	2.3636	0.1	-0.37469
7842	8.6034	2.5455	0.1	-0.1861
7843	8.6034	2.7273	0.1	-0.10336
7844	8.6034	2.9091	0.1	-6.9603e-002
7845	8.6034	3.0909	0.1	-6.9602e-002
7846	8.6034	3.2727	0.1	-0.10336
7847	8.6034	3.4545	0.1	-0.1861
7848	8.6034	3.6364	0.1	-0.37469
7849	8.6034	3.8182	0.1	-0.99027
7850	8.6034	4.	0.1	-8.0455
7851	8.6034	4.1818	0.1	-30.858
7852	8.6034	4.3636	0.1	-53.896
7853	8.6034	4.5455	0.1	-73.701
7854	8.6034	4.7273	0.1	-88.54
7855	8.6034	4.9091	0.1	-97.215
7856	8.6034	5.0909	0.1	-98.971
7857	8.6034	5.2727	0.1	-93.388
7858	8.6034	5.4545	0.1	-80.268
7859	8.6034	5.6364	0.1	-59.403
7860	8.6034	5.8182	0.1	-30.724
7861	8.7864	0.18182	0.1	-36.58
7862	8.7864	0.36364	0.1	-71.089
7863	8.7864	0.54545	0.1	-96.869
7864	8.7864	0.72727	0.1	-114.14
7865	8.7864	0.90909	0.1	-123.07
7866	8.7864	1.0909	0.1	-123.7
7867	8.7864	1.2727	0.1	-116.21
7868	8.7864	1.4545	0.1	-101.23
7869	8.7864	1.6364	0.1	-79.942
7870	8.7864	1.8182	0.1	-54.247
7871	8.7864	2.	0.1	-26.765
7872	8.7864	2.1818	0.1	-4.3417
7873	8.7864	2.3636	0.1	-0.77131
7874	8.7864	2.5455	0.1	-0.31184
7875	8.7864	2.7273	0.1	-0.15779
7876	8.7864	2.9091	0.1	-0.1014
7877	8.7864	3.0909	0.1	-0.1014
7878	8.7864	3.2727	0.1	-0.15779
7879	8.7864	3.4545	0.1	-0.31184
7880	8.7864	3.6364	0.1	-0.77131
7881	8.7864	3.8182	0.1	-4.3418
7882	8.7864	4.	0.1	-26.765
7883	8.7864	4.1818	0.1	-54.247
7884	8.7864	4.3636	0.1	-79.942
7885	8.7864	4.5455	0.1	-101.23
7886	8.7864	4.7273	0.1	-116.21
7887	8.7864	4.9091	0.1	-123.7
7888	8.7864	5.0909	0.1	-123.07
7889	8.7864	5.2727	0.1	-114.14
7890	8.7864	5.4545	0.1	-96.869
7891	8.7864	5.6364	0.1	-71.089
7892	8.7864	5.8182	0.1	-36.58
7893	8.9695	0.18182	0.1	-42.934
7894	8.9695	0.36364	0.1	-83.388
7895	8.9695	0.54545	0.1	-114.51
7896	8.9695	0.72727	0.1	-136.66
7897	8.9695	0.90909	0.1	-149.92
7898	8.9695	1.0909	0.1	-153.97
7899	8.9695	1.2727	0.1	-148.57
7900	8.9695	1.4545	0.1	-133.97
7901	8.9695	1.6364	0.1	-111.27
7902	8.9695	1.8182	0.1	-82.621
7903	8.9695	2.	0.1	-51.073
7904	8.9695	2.1818	0.1	-20.5
7905	8.9695	2.3636	0.1	-2.4136
7906	8.9695	2.5455	0.1	-0.58778
7907	8.9695	2.7273	0.1	-0.25025
7908	8.9695	2.9091	0.1	-0.14799
7909	8.9695	3.0909	0.1	-0.14799
7910	8.9695	3.2727	0.1	-0.25025
7911	8.9695	3.4545	0.1	-0.58778
7912	8.9695	3.6364	0.1	-2.4137
7913	8.9695	3.8182	0.1	-20.501
7914	8.9695	4.	0.1	-51.074
7915	8.9695	4.1818	0.1	-82.621
7916	8.9695	4.3636	0.1	-111.27
7917	8.9695	4.5455	0.1	-133.97
7918	8.9695	4.7273	0.1	-148.57
7919	8.9695	4.9091	0.1	-153.97
7920	8.9695	5.0909	0.1	-149.92
7921	8.9695	5.2727	0.1	-136.66
7922	8.9695	5.4545	0.1	-114.51
7923	8.9695	5.6364	0.1	-83.388
7924	8.9695	5.8182	0.1	-42.934
7925	9.1525	0.18182	0.1	-49.698
7926	9.1525	0.36364	0.1	-95.934
7927	9.1525	0.54545	0.1	-132.84
7928	9.1525	0.72727	0.1	-160.9
7929	9.1525	0.90909	0.1	-179.98
7930	9.1525	1.0909	0.1	-189.14
7931	9.1525	1.2727	0.1	-187.34
7932	9.1525	1.4545	0.1	-174.1
7933	9.1525	1.6364	0.1	-150.21
7934	9.1525	1.8182	0.1	-118.12
7935	9.1525	2.	0.1	-81.76
7936	9.1525	2.1818	0.1	-45.75
7937	9.1525	2.3636	0.1	-14.988
7938	9.1525	2.5455	0.1	-1.6522
7939	9.1525	2.7273	0.1	-0.44705
7940	9.1525	2.9091	0.1	-0.21847
7941	9.1525	3.0909	0.1	-0.21847
7942	9.1525	3.2727	0.1	-0.44705
7943	9.1525	3.4545	0.1	-1.6522
7944	9.1525	3.6364	0.1	-14.988
7945	9.1525	3.8182	0.1	-45.75
7946	9.1525	4.	0.1	-81.76
7947	9.1525	4.1818	0.1	-118.12
7948	9.1525	4.3636	0.1	-150.21
7949	9.1525	4.5455	0.1	-174.1
7950	9.1525	4.7273	0.1	-187.34
7951	9.1525	4.9091	0.1	-189.14
7952	9.1525	5.0909	0.1	-179.98
7953	9.1525	5.2727	0.1	-160.9
7954	9.1525	5.4545	0.1	-132.84
7955	9.1525	5.6364	0.1	-95.934
7956	9.1525	5.8182	0.1	-49.698
7957	9.3356	0.18182	0.1	-56.683
7958	9.3356	0.36364	0.1	-108.14
7959	9.3356	0.54545	0.1	-151.32
7960	9.3356	0.72727	0.1	-186.78
7961	9.3356	0.90909	0.1	-213.97
7962	9.3356	1.0909	0.1	-230.93
7963	9.3356	1.2727	0.1	-235.23
7964	9.3356	1.4545	0.1	-225.07
7965	9.3356	1.6364	0.1	-200.47
7966	9.3356	1.8182	0.1	-164.18
7967	9.3356	2.	0.1	-121.55
7968	9.3356	2.1818	0.1	-79.099
7969	9.3356	2.3636	0.1	-42.505
7970	9.3356	2.5455	0.1	-15.357
7971	9.3356	2.7273	0.1	-1.8912
7972	9.3356	2.9091	0.1	-0.36166
7973	9.3356	3.0909	0.1	-0.36166
7974	9.3356	3.2727	0.1	-1.8912
7975	9.3356	3.4545	0.1	-15.357
7976	9.3356	3.6364	0.1	-42.506
7977	9.3356	3.8182	0.1	-79.1
7978	9.3356	4.	0.1	-121.55
7979	9.3356	4.1818	0.1	-164.18
7980	9.3356	4.3636	0.1	-200.47
7981	9.3356	4.5455	0.1	-225.07
7982	9.3356	4.7273	0.1	-235.23
7983	9.3356	4.9091	0.1	-230.93
7984	9.3356	5.0909	0.1	-213.97
7985	9.3356	5.2727	0.1	-186.78
7986	9.3356	5.4545	0.1	-151.32
7987	9.3356	5.6364	0.1	-108.14
7988	9.3356	5.8182	0.1	-56.683
7989	9.5186	0.18182	0.1	-63.558
7990	9.5186	0.36364	0.1	-119.15
7991	9.5186	0.54545	0.1	-169.22
7992	9.5186	0.72727	0.1	-214.26
7993	9.5186	0.90909	0.1	-253.03
7994	9.5186	1.0909	0.1	-282.01
7995	9.5186	1.2727	0.1	-296.57
7996	9.5186	1.4545	0.1	-292.47
7997	9.5186	1.6364	0.1	-268.07
7998	9.5186	1.8182	0.1	-226.28
7999	9.5186	2.	0.1	-174.76
8000	9.5186	2.1818	0.1	-123.54
8001	9.5186	2.3636	0.1	-80.902
8002	9.5186	2.5455	0.1	-50.678
8003	9.5186	2.7273	0.1	-32.505
8004	9.5186	2.9091	0.1	-24.198
8005	9.5186	3.0909	0.1	-24.198
8006	9.5186	3.2727	0.1	-32.505
8007	9.5186	3.4545	0.1	-50.678
8008	9.5186	3.6364	0.1	-80.902
8009	9.5186	3.8182	0.1	-123.54
8010	9.5186	4.	0.1	-174.76
8011	9.5186	4.1818	0.1	-226.28
8012	9.5186	4.3636	0.1	-268.07
8013	9.5186	4.5455	0.1	-292.47
8014	9.5186	4.7273	0.1	-296.57
8015	9.5186	4.9091	0.1	-282.01
8016	9.5186	5.0909	0.1	-253.03
8017	9.5186	5.2727	0.1	-214.26
8018	9.5186	5.4545	0.1	-169.22
8019	9.5186	5.6364	0.1	-119.15
8020	9.5186	5.8182	0.1	-63.558
8021	9.7017	0.18182	0.1	-69.814
8022	9.7017	0.36364	0.1	-127.91
8023	9.7017	0.54545	0.1	-185.81
8024	9.7017	0.72727	0.1	-243.66
8025	9.7017	0.90909	0.1	-299.16
8026	9.7017	1.0909	0.1	-346.64
8027	9.7017	1.2727	0.1	-378.19
8028	9.7017	1.4545	0.1	-385.44
8029	9.7017	1.6364	0.1	-363.18
8030	9.7017	1.8182	0.1	-313.6
8031	9.7017	2.	0.1	-248.36
8032	9.7017	2.1818	0.1	-183.97
8033	9.7017	2.3636	0.1	-133.57
8034	9.7017	2.5455	0.1	-101.66
8035	9.7017	2.7273	0.1	-85.205
8036	9.7017	2.9091	0.1	-78.783
8037	9.7017	3.0909	0.1	-78.783
8038	9.7017	3.2727	0.1	-85.205
8039	9.7017	3.4545	0.1	-101.66
8040	9.7017	3.6364	0.1	-133.57
8041	9.7017	3.8182	0.1	-183.97
8042	9.7017	4.	0.1	-248.36
8043	9.7017	4.1818	0.1	-313.6
8044	9.7017	4.3636	0.1	-363.18
8045	9.7017	4.5455	0.1	-385.45
8046	9.7017	4.7273	0.1	-378.19
8047	9.7017	4.9091	0.1	-346.64
8048	9.7017	5.0909	0.1	-299.16
8049	9.7017	5.2727	0.1	-243.66
8050	9.7017	5.4545	0.1	-185.81
8051	9.7017	5.6364	0.1	-127.91
8052	9.7017	5.8182	0.1	-69.814
8053	9.8847	0.18182	0.1	-74.743
8054	9.8847	0.36364	0.1	-133.33
8055	9.8847	0.54545	0.1	-200.79
8056	9.8847	0.72727	0.1	-276.3
8057	9.8847	0.90909	0.1	-355.93
8058	9.8847	1.0909	0.1	-431.4
8059	9.8847	1.2727	0.1	-490.66
8060	9.8847	1.4545	0.1	-518.9
8061	9.8847	1.6364	0.1	-502.95
8062	9.8847	1.8182	0.1	-442.02
8063	9.8847	2.	0.1	-353.43
8064	9.8847	2.1818	0.1	-267.24
8065	9.8847	2.3636	0.1	-206.25
8066	9.8847	2.5455	0.1	-174.03
8067	9.8847	2.7273	0.1	-161.53
8068	9.8847	2.9091	0.1	-158.15
8069	9.8847	3.0909	0.1	-158.15
8070	9.8847	3.2727	0.1	-161.53
8071	9.8847	3.4545	0.1	-174.03
8072	9.8847	3.6364	0.1	-206.25
8073	9.8847	3.8182	0.1	-267.24
8074	9.8847	4.	0.1	-353.43
8075	9.8847	4.1818	0.1	-442.02
8076	9.8847	4.3636	0.1	-502.95
8077	9.8847	4.5455	0.1	-518.9
8078	9.8847	4.7273	0.1	-490.66
8079	9.8847	4.9091	0.1	-431.4
8080	9.8847	5.0909	0.1	-355.93
8081	9.8847	5.2727	0.1	-276.3
8082	9.8847	5.4545	0.1	-200.79
8083	9.8847	5.6364	0.1	-133.33
8084	9.8847	5.8182	0.1	-74.743
8085	10.068	0.18182	0.1	-77.574
8086	10.068	0.36364	0.1	-135.04
8087	10.068	0.54545	0.1	-215.73
8088	10.068	0.72727	0.1	-316.08
8089	10.068	0.90909	0.1	-429.71
8090	10.068	1.0909	0.1	-546.03
8091	10.068	1.2727	0.1	-649.28
8092	10.068	1.4545	0.1	-716.64
8093	10.068	1.6364	0.1	-719.98
8094	10.068	1.8182	0.1	-641.75
8095	10.068	2.	0.1	-511.04
8096	10.068	2.1818	0.1	-385.64
8097	10.068	2.3636	0.1	-307.43
8098	10.068	2.5455	0.1	-276.61
8099	10.068	2.7273	0.1	-269.73
8100	10.068	2.9091	0.1	-269.62
8101	10.068	3.0909	0.1	-269.62
8102	10.068	3.2727	0.1	-269.73
8103	10.068	3.4545	0.1	-276.61
8104	10.068	3.6364	0.1	-307.43
8105	10.068	3.8182	0.1	-385.64
8106	10.068	4.	0.1	-511.04
8107	10.068	4.1818	0.1	-641.75
8108	10.068	4.3636	0.1	-719.98
8109	10.068	4.5455	0.1	-716.64
8110	10.068	4.7273	0.1	-649.28
8111	10.068	4.9091	0.1	-546.03
8112	10.068	5.0909	0.1	-429.71
8113	10.068	5.2727	0.1	-316.08
8114	10.068	5.4545	0.1	-215.73
8115	10.068	5.6364	0.1	-135.04
8116	10.068	5.8182	0.1	-77.574
8117	10.251	0.18182	0.1	-77.567
8118	10.251	0.36364	0.1	-135.3
8119	10.251	0.54545	0.1	-237.13
8120	10.251	0.72727	0.1	-372.34
8121	10.251	0.90909	0.1	-531.07
8122	10.251	1.0909	0.1	-703.1
8123	10.251	1.2727	0.1	-872.85
8124	10.251	1.4545	0.1	-1013.7
8125	10.251	1.6364	0.1	-1067.
8126	10.251	1.8182	0.1	-972.25
8127	10.251	2.	0.1	-759.1
8128	10.251	2.1818	0.1	-551.76
8129	10.251	2.3636	0.1	-449.93
8130	10.251	2.5455	0.1	-421.32
8131	10.251	2.7273	0.1	-415.91
8132	10.251	2.9091	0.1	-415.9
8133	10.251	3.0909	0.1	-415.9
8134	10.251	3.2727	0.1	-415.91
8135	10.251	3.4545	0.1	-421.32
8136	10.251	3.6364	0.1	-449.93
8137	10.251	3.8182	0.1	-551.77
8138	10.251	4.	0.1	-759.1
8139	10.251	4.1818	0.1	-972.25
8140	10.251	4.3636	0.1	-1067.
8141	10.251	4.5455	0.1	-1013.7
8142	10.251	4.7273	0.1	-872.85
8143	10.251	4.9091	0.1	-703.1
8144	10.251	5.0909	0.1	-531.07
8145	10.251	5.2727	0.1	-372.34
8146	10.251	5.4545	0.1	-237.13
8147	10.251	5.6364	0.1	-135.3
8148	10.251	5.8182	0.1	-77.567
8149	10.434	0.18182	0.1	-78.179
8150	10.434	0.36364	0.1	-147.98
8151	10.434	0.54545	0.1	-286.78
8152	10.434	0.72727	0.1	-467.98
8153	10.434	0.90909	0.1	-680.71
8154	10.434	1.0909	0.1	-920.87
8155	10.434	1.2727	0.1	-1186.2
8156	10.434	1.4545	0.1	-1451.7
8157	10.434	1.6364	0.1	-1667.9
8158	10.434	1.8182	0.1	-1660.
8159	10.434	2.	0.1	-1207.
8160	10.434	2.1818	0.1	-815.
8161	10.434	2.3636	0.1	-655.66
8162	10.434	2.5455	0.1	-615.09
8163	10.434	2.7273	0.1	-593.29
8164	10.434	2.9091	0.1	-584.59
8165	10.434	3.0909	0.1	-584.59
8166	10.434	3.2727	0.1	-593.29
8167	10.434	3.4545	0.1	-615.09
8168	10.434	3.6364	0.1	-655.66
8169	10.434	3.8182	0.1	-815.
8170	10.434	4.	0.1	-1207.
8171	10.434	4.1818	0.1	-1660.
8172	10.434	4.3636	0.1	-1667.9
8173	10.434	4.5455	0.1	-1451.7
8174	10.434	4.7273	0.1	-1186.2
8175	10.434	4.9091	0.1	-920.87
8176	10.434	5.0909	0.1	-680.71
8177	10.434	5.2727	0.1	-467.98
8178	10.434	5.4545	0.1	-286.78
8179	10.434	5.6364	0.1	-147.98
8180	10.434	5.8182	0.1	-78.179
8181	10.617	0.18182	0.1	-107.07
8182	10.617	0.36364	0.1	-239.78
8183	10.617	0.54545	0.1	-441.67
8184	10.617	0.72727	0.1	-682.32
8185	10.617	0.90909	0.1	-961.55
8186	10.617	1.0909	0.1	-1288.2
8187	10.617	1.2727	0.1	-1681.7
8188	10.617	1.4545	0.1	-2161.6
8189	10.617	1.6364	0.1	-2826.
8190	10.617	1.8182	0.1	-3296.1
8191	10.617	2.	0.1	-2416.4
8192	10.617	2.1818	0.1	-1188.9
8193	10.617	2.3636	0.1	-959.51
8194	10.617	2.5455	0.1	-823.39
8195	10.617	2.7273	0.1	-764.98
8196	10.617	2.9091	0.1	-736.45
8197	10.617	3.0909	0.1	-736.45
8198	10.617	3.2727	0.1	-764.98
8199	10.617	3.4545	0.1	-823.39
8200	10.617	3.6364	0.1	-959.51
8201	10.617	3.8182	0.1	-1188.9
8202	10.617	4.	0.1	-2416.4
8203	10.617	4.1818	0.1	-3296.1
8204	10.617	4.3636	0.1	-2826.
8205	10.617	4.5455	0.1	-2161.6
8206	10.617	4.7273	0.1	-1681.7
8207	10.617	4.9091	0.1	-1288.3
8208	10.617	5.0909	0.1	-961.55
8209	10.617	5.2727	0.1	-682.32
8210	10.617	5.4545	0.1	-441.67
8211	10.617	5.6364	0.1	-239.78
8212	10.617	5.8182	0.1	-107.07
8213	10.967	3.8182	0.1	-1152.5
8214	10.967	3.6364	0.1	-1042.5
8215	10.967	3.4545	0.1	-892.11
8216	10.967	3.2727	0.1	-809.47
8217	10.967	3.0909	0.1	-770.97
8218	10.967	2.9091	0.1	-770.97
8219	10.967	2.7273	0.1	-809.47
8220	10.967	2.5455	0.1	-892.11
8221	10.967	2.3636	0.1	-1042.5
8222	10.967	2.1818	0.1	-1152.5
8223	10.8	3.8182	0.1	-1430.3
8224	10.8	3.6364	0.1	-1129.2
8225	10.8	3.4545	0.1	-948.87
8226	10.8	3.2727	0.1	-853.14
8227	10.8	3.0909	0.1	-810.03
8228	10.8	2.9091	0.1	-810.03
8229	10.8	2.7273	0.1	-853.14
8230	10.8	2.5455	0.1	-948.87
8231	10.8	2.3636	0.1	-1129.2
8232	10.8	2.1818	0.1	-1430.3
8233	10.967	5.8182	0.1	-54.611
8234	10.967	5.6364	0.1	-136.27
8235	10.967	5.4545	0.1	-233.16
8236	10.967	5.2727	0.1	-347.03
8237	10.967	5.0909	0.1	-482.48
8238	10.967	4.9091	0.1	-648.34
8239	10.967	4.7273	0.1	-860.6
8240	10.967	4.5455	0.1	-1168.
8241	10.967	4.3636	0.1	-1478.4
8242	10.967	4.1818	0.1	-3280.6
8243	10.967	4.	0.1	-2143.7
8244	10.8	4.	0.1	-3521.
8245	10.8	4.1818	0.1	-4385.7
8246	10.8	4.3636	0.1	-2201.8
8247	10.8	4.5455	0.1	-1697.2
8248	10.8	4.7273	0.1	-1260.8
8249	10.8	4.9091	0.1	-948.78
8250	10.8	5.0909	0.1	-702.99
8251	10.8	5.2727	0.1	-501.35
8252	10.8	5.4545	0.1	-332.47
8253	10.8	5.6364	0.1	-190.71
8254	10.8	5.8182	0.1	-74.126
8255	10.967	0.18182	0.1	-54.611
8256	10.967	0.36364	0.1	-136.27
8257	10.967	0.54545	0.1	-233.16
8258	10.967	0.72727	0.1	-347.03
8259	10.967	0.90909	0.1	-482.48
8260	10.967	1.0909	0.1	-648.34
8261	10.967	1.2727	0.1	-860.6
8262	10.967	1.4545	0.1	-1168.
8263	10.967	1.6364	0.1	-1478.4
8264	10.967	1.8182	0.1	-3280.6
8265	10.967	2.	0.1	-2143.7
8266	10.8	2.	0.1	-3521.
8267	10.8	1.8182	0.1	-4385.7
8268	10.8	1.6364	0.1	-2201.8
8269	10.8	1.4545	0.1	-1697.2
8270	10.8	1.2727	0.1	-1260.8
8271	10.8	1.0909	0.1	-948.78
8272	10.8	0.90909	0.1	-702.99
8273	10.8	0.72727	0.1	-501.35
8274	10.8	0.54545	0.1	-332.47
8275	10.8	0.36364	0.1	-190.71
8276	10.8	0.18182	0.1	-74.126
8277	10.967	6.	0.1	-8.3545
8278	11.15	6.	0.1	-14.012
8279	11.334	6.	0.1	-16.813
8280	11.517	6.	0.1	-18.573
8281	11.701	6.	0.1	-18.5
8282	11.885	6.	0.1	-17.19
8283	12.068	6.	0.1	-15.381
8284	12.252	6.	0.1	-13.429
8285	12.435	6.	0.1	-11.558
8286	12.619	6.	0.1	-9.8763
8287	12.802	6.	0.1	-8.4268
8288	12.986	6.	0.1	-7.2155
8289	13.169	6.	0.1	-6.2285
8290	13.353	6.	0.1	-5.4434
8291	13.537	6.	0.1	-4.8354
8292	13.72	6.	0.1	-4.3802
8293	13.904	6.	0.1	-4.0558
8294	14.087	6.	0.1	-3.8428
8295	14.271	6.	0.1	-3.7242
8296	14.454	6.	0.1	-3.6853
8297	14.638	6.	0.1	-3.7134
8298	14.822	6.	0.1	-3.7976
8299	15.005	6.	0.1	-3.9284
8300	15.189	6.	0.1	-4.0979
8301	15.372	6.	0.1	-4.2989
8302	15.556	6.	0.1	-4.5256
8303	15.739	6.	0.1	-4.773
8304	15.923	6.	0.1	-5.0366
8305	16.107	6.	0.1	-5.313
8306	16.29	6.	0.1	-5.599
8307	16.474	6.	0.1	-5.8922
8308	16.657	6.	0.1	-6.1905
8309	16.841	6.	0.1	-6.4924
8310	17.024	6.	0.1	-6.7963
8311	17.208	6.	0.1	-7.1014
8312	17.392	6.	0.1	-7.4068
8313	17.575	6.	0.1	-7.7119
8314	17.759	6.	0.1	-8.0162
8315	17.942	6.	0.1	-8.3196
8316	18.126	6.	0.1	-8.6216
8317	18.309	6.	0.1	-8.9222
8318	18.493	6.	0.1	-9.2214
8319	18.677	6.	0.1	-9.519
8320	18.86	6.	0.1	-9.815
8321	19.044	6.	0.1	-10.109
8322	19.227	6.	0.1	-10.402
8323	19.411	6.	0.1	-10.693
8324	19.594	6.	0.1	-10.982
8325	19.778	6.	0.1	-11.268
8326	19.962	6.	0.1	-11.552
8327	20.145	6.	0.1	-11.834
8328	20.329	6.	0.1	-12.111
8329	20.512	6.	0.1	-12.385
8330	20.696	6.	0.1	-12.654
8331	20.879	6.	0.1	-12.916
8332	21.063	6.	0.1	-13.172
8333	21.246	6.	0.1	-13.419
8334	21.43	6.	0.1	-13.655
8335	21.614	6.	0.1	-13.878
8336	21.797	6.	0.1	-14.085
8337	21.981	6.	0.1	-14.273
8338	22.164	6.	0.1	-14.438
8339	22.348	6.	0.1	-14.574
8340	22.531	6.	0.1	-14.674
8341	22.715	6.	0.1	-14.728
8342	22.899	6.	0.1	-14.723
8343	23.082	6.	0.1	-14.637
8344	23.266	6.	0.1	-14.44
8345	23.449	6.	0.1	-14.046
8346	23.633	6.	0.1	-13.45
8347	23.816	6.	0.1	-11.261
8348	24.	6.	0.1	-5.6874
8349	24.	5.8182	0.1	-36.199
8350	24.	5.6364	0.1	-63.196
8351	24.	5.4545	0.1	-83.987
8352	24.	5.2727	0.1	-101.22
8353	24.	5.0909	0.1	-115.89
8354	24.	4.9091	0.1	-128.52
8355	24.	4.7273	0.1	-139.44
8356	24.	4.5455	0.1	-148.88
8357	24.	4.3636	0.1	-157.
8358	24.	4.1818	0.1	-163.91
8359	24.	4.	0.1	-169.69
8360	24.	3.8182	0.1	-174.43
8361	24.	3.6364	0.1	-178.16
8362	24.	3.4545	0.1	-180.93
8363	24.	3.2727	0.1	-182.76
8364	24.	3.0909	0.1	-183.67
8365	24.	2.9091	0.1	-183.67
8366	24.	2.7273	0.1	-182.76
8367	24.	2.5455	0.1	-180.93
8368	24.	2.3636	0.1	-178.16
8369	24.	2.1818	0.1	-174.43
8370	24.	2.	0.1	-169.69
8371	24.	1.8182	0.1	-163.91
8372	24.	1.6364	0.1	-157.
8373	24.	1.4545	0.1	-148.88
8374	24.	1.2727	0.1	-139.44
8375	24.	1.0909	0.1	-128.52
8376	24.	0.90909	0.1	-115.89
8377	24.	0.72727	0.1	-101.22
8378	24.	0.54545	0.1	-83.986
8379	24.	0.36364	0.1	-63.196
8380	24.	0.18182	0.1	-36.199
8381	1.5894e-015	0.18182	0.1	1059.2
8382	3.1789e-015	0.36364	0.1	2241.9
8383	4.7683e-015	0.54545	0.1	2785.8
8384	6.3578e-015	0.72727	0.1	3110.6
8385	7.9472e-015	0.90909	0.1	3326.1
8386	9.5366e-015	1.0909	0.1	3479.6
8387	1.1126e-014	1.2727	0.1	3593.1
8388	1.2716e-014	1.4545	0.1	3679.2
8389	1.4305e-014	1.6364	0.1	3745.4
8390	1.5894e-014	1.8182	0.1	3796.8
8391	1.7484e-014	2.	0.1	3836.6
8392	1.9073e-014	2.1818	0.1	3867.2
8393	2.0663e-014	2.3636	0.1	3890.1
8394	2.2252e-014	2.5455	0.1	3906.5
8395	2.3842e-014	2.7273	0.1	3917.1
8396	2.5431e-014	2.9091	0.1	3922.4
8397	2.702e-014	3.0909	0.1	3922.4
8398	2.861e-014	3.2727	0.1	3917.1
8399	3.0199e-014	3.4545	0.1	3906.5
8400	3.1789e-014	3.6364	0.1	3890.1
8401	3.3378e-014	3.8182	0.1	3867.2
8402	3.4968e-014	4.	0.1	3836.6
8403	3.6557e-014	4.1818	0.1	3796.8
8404	3.8147e-014	4.3636	0.1	3745.4
8405	3.9736e-014	4.5455	0.1	3679.2
8406	4.1325e-014	4.7273	0.1	3593.1
8407	4.2915e-014	4.9091	0.1	3479.6
8408	4.4504e-014	5.0909	0.1	3326.1
8409	4.6094e-014	5.2727	0.1	3110.6
8410	4.7683e-014	5.4545	0.1	2785.8
8411	4.9273e-014	5.6364	0.1	2241.9
8412	5.0862e-014	5.8182	0.1	1059.2
8413	24.	0.	0.1	-5.6874
8414	23.816	0.	0.1	-11.261
8415	23.633	0.	0.1	-13.45
8416	23.449	0.	0.1	-14.046
8417	23.266	0.	0.1	-14.44
8418	23.082	0.	0.1	-14.637
8419	22.899	0.	0.1	-14.723
8420	22.715	0.	0.1	-14.728
8421	22.531	0.	0.1	-14.674
8422	22.348	0.	0.1	-14.574
8423	22.164	0.	0.1	-14.438
8424	21.981	0.	0.1	-14.273
8425	21.797	0.	0.1	-14.085
8426	21.614	0.	0.1	-13.878
8427	21.43	0.	0.1	-13.655
8428	21.246	0.	0.1	-13.418
8429	21.063	0.	0.1	-13.172
8430	20.879	0.	0.1	-12.916
8431	20.696	0.	0.1	-12.654
8432	20.512	0.	0.1	-12.385
8433	20.329	0.	0.1	-12.111
8434	20.145	0.	0.1	-11.834
8435	19.962	0.	0.1	-11.552
8436	19.778	0.	0.1	-11.268
8437	19.594	0.	0.1	-10.982
8438	19.411	0.	0.1	-10.693
8439	19.227	0.	0.1	-10.402
8440	19.044	0.	0.1	-10.109
8441	18.86	0.	0.1	-9.8149
8442	18.677	0.	0.1	-9.5189
8443	18.493	0.	0.1	-9.2213
8444	18.309	0.	0.1	-8.9222
8445	18.126	0.	0.1	-8.6216
8446	17.942	0.	0.1	-8.3195
8447	17.759	0.	0.1	-8.0162
8448	17.575	0.	0.1	-7.7118
8449	17.392	0.	0.1	-7.4067
8450	17.208	0.	0.1	-7.1014
8451	17.024	0.	0.1	-6.7963
8452	16.841	0.	0.1	-6.4923
8453	16.657	0.	0.1	-6.1905
8454	16.474	0.	0.1	-5.8922
8455	16.29	0.	0.1	-5.599
8456	16.107	0.	0.1	-5.3129
8457	15.923	0.	0.1	-5.0366
8458	15.739	0.	0.1	-4.7729
8459	15.556	0.	0.1	-4.5256
8460	15.372	0.	0.1	-4.2989
8461	15.189	0.	0.1	-4.0978
8462	15.005	0.	0.1	-3.9284
8463	14.822	0.	0.1	-3.7975
8464	14.638	0.	0.1	-3.7134
8465	14.454	0.	0.1	-3.6853
8466	14.271	0.	0.1	-3.7242
8467	14.087	0.	0.1	-3.8428
8468	13.904	0.	0.1	-4.0558
8469	13.72	0.	0.1	-4.3801
8470	13.537	0.	0.1	-4.8353
8471	13.353	0.	0.1	-5.4434
8472	13.169	0.	0.1	-6.2285
8473	12.986	0.	0.1	-7.2155
8474	12.802	0.	0.1	-8.4268
8475	12.619	0.	0.1	-9.8762
8476	12.435	0.	0.1	-11.558
8477	12.252	0.	0.1	-13.429
8478	12.068	0.	0.1	-15.381
8479	11.885	0.	0.1	-17.19
8480	11.701	0.	0.1	-18.5
8481	11.517	0.	0.1	-18.573
8482	11.334	0.	0.1	-16.813
8483	11.15	0.	0.1	-14.012
8484	10.967	0.	0.1	-8.3545
8485	10.8	0.	0.1	-9.7592
8486	10.617	4.7705e-031	0.1	-12.943
8487	10.434	4.6882e-031	0.1	-13.402
8488	10.251	4.606e-031	0.1	-13.579
8489	10.068	4.5237e-031	0.1	-12.665
8490	9.8847	4.4415e-031	0.1	-11.09
8491	9.7017	4.3592e-031	0.1	-9.4479
8492	9.5186	4.277e-031	0.1	-7.9424
8493	9.3356	4.1947e-031	0.1	-6.6711
8494	9.1525	4.1125e-031	0.1	-5.6409
8495	8.9695	4.0302e-031	0.1	-4.8237
8496	8.7864	3.948e-031	0.1	-4.1763
8497	8.6034	3.8657e-031	0.1	-3.655
8498	8.4203	3.7835e-031	0.1	-3.2217
8499	8.2373	3.7012e-031	0.1	-2.8459
8500	8.0542	3.619e-031	0.1	-2.5044
8501	7.8712	3.5367e-031	0.1	-2.1807
8502	7.6881	3.4545e-031	0.1	-1.8635
8503	7.5051	3.3722e-031	0.1	-1.5456
8504	7.322	3.29e-031	0.1	-1.2224
8505	7.139	3.2077e-031	0.1	-0.89175
8506	6.9559	3.1255e-031	0.1	-0.55299
8507	6.7729	3.0432e-031	0.1	-0.26633
8508	6.5898	2.961e-031	0.1	-0.34967
8509	6.4068	2.8787e-031	0.1	-0.43028
8510	6.2237	2.7965e-031	0.1	-0.50947
8511	6.0407	2.7142e-031	0.1	-0.58844
8512	5.8576	2.632e-031	0.1	-0.66829
8513	5.6746	2.5497e-031	0.1	-0.75003
8514	5.4915	2.4675e-031	0.1	-0.8346
8515	5.3085	2.3852e-031	0.1	-0.92292
8516	5.1254	2.303e-031	0.1	-1.0159
8517	4.9424	2.2207e-031	0.1	-1.1143
8518	4.7593	2.1385e-031	0.1	-1.2191
8519	4.5763	2.0562e-031	0.1	-1.3314
8520	4.3932	1.974e-031	0.1	-1.4523
8521	4.2102	1.8917e-031	0.1	-1.5833
8522	4.0271	1.8095e-031	0.1	-1.7263
8523	3.8441	1.7272e-031	0.1	-1.8845
8524	3.661	1.645e-031	0.1	-2.0636
8525	3.478	1.5627e-031	0.1	-2.2769
8526	3.2949	1.4805e-031	0.1	-2.5641
8527	3.1119	1.3982e-031	0.1	-3.0936
8528	2.9288	1.316e-031	0.1	-4.3824
8529	2.7458	1.2337e-031	0.1	-6.5812
8530	2.5627	1.1515e-031	0.1	-9.4959
8531	2.3797	1.0692e-031	0.1	-13.147
8532	2.1966	9.87e-032	0.1	-17.652
8533	2.0136	9.0475e-032	0.1	-23.182
8534	1.8305	8.225e-032	0.1	-29.969
8535	1.6475	7.4025e-032	0.1	-38.33
8536	1.4644	6.58e-032	0.1	-48.695
8537	1.2814	5.7575e-032	0.1	-61.743
8538	1.0983	4.935e-032	0.1	-78.375
8539	0.91525	4.1125e-032	0.1	-100.6
8540	0.7322	3.29e-032	0.1	-130.7
8541	0.54915	2.4675e-032	0.1	-177.35
8542	0.3661	1.645e-032	0.1	-258.08
8543	0.18305	8.225e-033	0.1	-443.84
8544	0.	0.	0.1	-1829.8
8545	3.937e-014	6.	0.1	-1829.8
8546	0.18305	6.	0.1	-443.84
8547	0.3661	6.	0.1	-258.08
8548	0.54915	6.	0.1	-177.35
8549	0.7322	6.	0.1	-130.7
8550	0.91525	6.	0.1	-100.6
8551	1.0983	6.	0.1	-78.375
8552	1.2814	6.	0.1	-61.743
8553	1.4644	6.	0.1	-48.695
8554	1.6475	6.	0.1	-38.33
8555	1.8305	6.	0.1	-29.969
8556	2.0136	6.	0.1	-23.182
8557	2.1966	6.	0.1	-17.652
8558	2.3797	6.	0.1	-13.147
8559	2.5627	6.	0.1	-9.4959
8560	2.7458	6.	0.1	-6.5811
8561	2.9288	6.	0.1	-4.3823
8562	3.1119	6.	0.1	-3.0936
8563	3.2949	6.	0.1	-2.5641
8564	3.478	6.	0.1	-2.2769
8565	3.661	6.	0.1	-2.0636
8566	3.8441	6.	0.1	-1.8845
8567	4.0271	6.	0.1	-1.7263
8568	4.2102	6.	0.1	-1.5833
8569	4.3932	6.	0.1	-1.4523
8570	4.5763	6.	0.1	-1.3314
8571	4.7593	6.	0.1	-1.2191
8572	4.9424	6.	0.1	-1.1143
8573	5.1254	6.	0.1	-1.0159
8574	5.3085	6.	0.1	-0.92292
8575	5.4915	6.	0.1	-0.8346
8576	5.6746	6.	0.1	-0.75003
8577	5.8576	6.	0.1	-0.66829
8578	6.0407	6.	0.1	-0.58844
8579	6.2237	6.	0.1	-0.50947
8580	6.4068	6.	0.1	-0.43028
8581	6.5898	6.	0.1	-0.34967
8582	6.7729	6.	0.1	-0.26633
8583	6.9559	6.	0.1	-0.55301
8584	7.139	6.	0.1	-0.89177
8585	7.322	6.	0.1	-1.2224
8586	7.5051	6.	0.1	-1.5456
8587	7.6881	6.	0.1	-1.8636
8588	7.8712	6.	0.1	-2.1807
8589	8.0542	6.	0.1	-2.5044
8590	8.2373	6.	0.1	-2.8459
8591	8.4203	6.	0.1	-3.2217
8592	8.6034	6.	0.1	-3.655
8593	8.7864	6.	0.1	-4.1763
8594	8.9695	6.	0.1	-4.8237
8595	9.1525	6.	0.1	-5.6409
8596	9.3356	6.	0.1	-6.6711
8597	9.5186	6.	0.1	-7.9424
8598	9.7017	6.	0.1	-9.4479
8599	9.8847	6.	0.1	-11.09
8600	10.068	6.	0.1	-12.665
8601	10.251	6.	0.1	-13.579
8602	10.434	6.	0.1	-13.402
8603	10.617	6.	0.1	-12.943
8604	10.8	6.	0.1	-9.7592
8605	10.617	6.	0.	-442.95
8606	10.434	6.	0.	-884.96
8607	10.251	6.	0.	-1290.8
8608	10.068	6.	0.	-1663.2
8609	9.8847	6.	0.	-2000.3
8610	9.7017	6.	0.	-2300.8
8611	9.5186	6.	0.	-2565.6
8612	9.3356	6.	0.	-2797.1
8613	9.1525	6.	0.	-2999.
8614	8.9695	6.	0.	-3174.9
8615	8.7864	6.	0.	-3328.7
8616	8.6034	6.	0.	-3464.1
8617	8.4203	6.	0.	-3584.2
8618	8.2373	6.	0.	-3691.8
8619	8.0542	6.	0.	-3789.3
8620	7.8712	6.	0.	-3878.6
8621	7.6881	6.	0.	-3961.5
8622	7.5051	6.	0.	-4039.3
8623	7.322	6.	0.	-4113.
8624	7.139	6.	0.	-4183.6
8625	6.9559	6.	0.	-4251.8
8626	6.7729	6.	0.	-4318.2
8627	6.5898	6.	0.	-4383.3
8628	6.4068	6.	0.	-4447.4
8629	6.2237	6.	0.	-4510.9
8630	6.0407	6.	0.	-4574.
8631	5.8576	6.	0.	-4636.9
8632	5.6746	6.	0.	-4699.8
8633	5.4915	6.	0.	-4762.7
8634	5.3085	6.	0.	-4826.
8635	5.1254	6.	0.	-4889.5
8636	4.9424	6.	0.	-4953.3
8637	4.7593	6.	0.	-5017.6
8638	4.5763	6.	0.	-5082.4
8639	4.3932	6.	0.	-5147.5
8640	4.2102	6.	0.	-5213.1
8641	4.0271	6.	0.	-5279.1
8642	3.8441	6.	0.	-5345.4
8643	3.661	6.	0.	-5412.
8644	3.478	6.	0.	-5478.5
8645	3.2949	6.	0.	-5544.9
8646	3.1119	6.	0.	-5610.8
8647	2.9288	6.	0.	-5675.8
8648	2.7458	6.	0.	-5739.3
8649	2.5627	6.	0.	-5800.5
8650	2.3797	6.	0.	-5858.6
8651	2.1966	6.	0.	-5912.2
8652	2.0136	6.	0.	-5959.4
8653	1.8305	6.	0.	-5997.9
8654	1.6475	6.	0.	-6024.1
8655	1.4644	6.	0.	-6033.4
8656	1.2814	6.	0.	-6018.5
8657	1.0983	6.	0.	-5968.8
8658	0.91525	6.	0.	-5866.5
8659	0.7322	6.	0.	-5682.8
8660	0.54915	6.	0.	-5356.
8661	0.3661	6.	0.	-4777.4
8662	0.18305	6.	0.	-3561.3
8663	10.8	6.	0.	-41.382
8664	3.937e-014	6.	0.	-755.05
8665	0.18305	8.225e-033	0.	-3561.3
8666	0.3661	1.645e-032	0.	-4777.4
8667	0.54915	2.4675e-032	0.	-5356.
8668	0.7322	3.29e-032	0.	-5682.8
8669	0.91525	4.1125e-032	0.	-5866.5
8670	1.0983	4.935e-032	0.	-5968.8
8671	1.2814	5.7575e-032	0.	-6018.5
8672	1.4644	6.58e-032	0.	-6033.4
8673	1.6475	7.4025e-032	0.	-6024.1
8674	1.8305	8.225e-032	0.	-5997.9
8675	2.0136	9.0475e-032	0.	-5959.4
8676	2.1966	9.87e-032	0.	-5912.2
8677	2.3797	1.0692e-031	0.	-5858.6
8678	2.5627	1.1515e-031	0.	-5800.5
8679	2.7458	1.2337e-031	0.	-5739.3
8680	2.9288	1.316e-031	0.	-5675.8
8681	3.1119	1.3982e-031	0.	-5610.8
8682	3.2949	1.4805e-031	0.	-5544.9
8683	3.478	1.5627e-031	0.	-5478.5
8684	3.661	1.645e-031	0.	-5412.
8685	3.8441	1.7272e-031	0.	-5345.4
8686	4.0271	1.8095e-031	0.	-5279.1
8687	4.2102	1.8917e-031	0.	-5213.1
8688	4.3932	1.974e-031	0.	-5147.5
8689	4.5763	2.0562e-031	0.	-5082.4
8690	4.7593	2.1385e-031	0.	-5017.6
8691	4.9424	2.2207e-031	0.	-4953.3
8692	5.1254	2.303e-031	0.	-4889.5
8693	5.3085	2.3852e-031	0.	-4826.
8694	5.4915	2.4675e-031	0.	-4762.7
8695	5.6746	2.5497e-031	0.	-4699.8
8696	5.8576	2.632e-031	0.	-4636.9
8697	6.0407	2.7142e-031	0.	-4574.
8698	6.2237	2.7965e-031	0.	-4510.9
8699	6.4068	2.8787e-031	0.	-4447.4
8700	6.5898	2.961e-031	0.	-4383.3
8701	6.7729	3.0432e-031	0.	-4318.2
8702	6.9559	3.1255e-031	0.	-4251.8
8703	7.139	3.2077e-031	0.	-4183.6
8704	7.322	3.29e-031	0.	-4113.
8705	7.5051	3.3722e-031	0.	-4039.3
8706	7.6881	3.4545e-031	0.	-3961.5
8707	7.8712	3.5367e-031	0.	-3878.6
8708	8.0542	3.619e-031	0.	-3789.3
8709	8.2373	3.7012e-031	0.	-3691.8
8710	8.4203	3.7835e-031	0.	-3584.2
8711	8.6034	3.8657e-031	0.	-3464.1
8712	8.7864	3.948e-031	0.	-3328.7
8713	8.9695	4.0302e-031	0.	-3174.9
8714	9.1525	4.1125e-031	0.	-2999.
8715	9.3356	4.1947e-031	0.	-2797.1
8716	9.5186	4.277e-031	0.	-2565.6
8717	9.7017	4.3592e-031	0.	-2300.8
8718	9.8847	4.4415e-031	0.	-2000.3
8719	10.068	4.5237e-031	0.	-1663.2
8720	10.251	4.606e-031	0.	-1290.8
8721	10.434	4.6882e-031	0.	-884.96
8722	10.617	4.7705e-031	0.	-442.95
8723	10.8	0.	0.	-41.382
8724	0.	0.	0.	-755.05
8725	11.15	0.	0.	-376.69
8726	11.334	0.	0.	-734.21
8727	11.517	0.	0.	-1048.
8728	11.701	0.	0.	-1322.2
8729	11.885	0.	0.	-1556.1
8730	12.068	0.	0.	-1750.1
8731	12.252	0.	0.	-1906.4
8732	12.435	0.	0.	-2028.3
8733	12.619	0.	0.	-2120.1
8734	12.802	0.	0.	-2185.9
8735	12.986	0.	0.	-2229.9
8736	13.169	0.	0.	-2255.8
8737	13.353	0.	0.	-2266.8
8738	13.537	0.	0.	-2265.7
8739	13.72	0.	0.	-2255.
8740	13.904	0.	0.	-2236.5
8741	14.087	0.	0.	-2211.8
8742	14.271	0.	0.	-2182.2
8743	14.454	0.	0.	-2148.8
8744	14.638	0.	0.	-2112.4
8745	14.822	0.	0.	-2073.7
8746	15.005	0.	0.	-2033.3
8747	15.189	0.	0.	-1991.5
8748	15.372	0.	0.	-1948.7
8749	15.556	0.	0.	-1905.2
8750	15.739	0.	0.	-1861.2
8751	15.923	0.	0.	-1816.8
8752	16.107	0.	0.	-1772.2
8753	16.29	0.	0.	-1727.5
8754	16.474	0.	0.	-1682.7
8755	16.657	0.	0.	-1638.
8756	16.841	0.	0.	-1593.3
8757	17.024	0.	0.	-1548.8
8758	17.208	0.	0.	-1504.3
8759	17.392	0.	0.	-1460.1
8760	17.575	0.	0.	-1416.
8761	17.759	0.	0.	-1372.
8762	17.942	0.	0.	-1328.3
8763	18.126	0.	0.	-1284.7
8764	18.309	0.	0.	-1241.3
8765	18.493	0.	0.	-1198.1
8766	18.677	0.	0.	-1155.2
8767	18.86	0.	0.	-1112.4
8768	19.044	0.	0.	-1069.7
8769	19.227	0.	0.	-1027.3
8770	19.411	0.	0.	-985.09
8771	19.594	0.	0.	-943.03
8772	19.778	0.	0.	-901.16
8773	19.962	0.	0.	-859.46
8774	20.145	0.	0.	-817.94
8775	20.329	0.	0.	-776.59
8776	20.512	0.	0.	-735.4
8777	20.696	0.	0.	-694.38
8778	20.879	0.	0.	-653.52
8779	21.063	0.	0.	-612.82
8780	21.246	0.	0.	-572.29
8781	21.43	0.	0.	-531.92
8782	21.614	0.	0.	-491.71
8783	21.797	0.	0.	-451.67
8784	21.981	0.	0.	-411.81
8785	22.164	0.	0.	-372.13
8786	22.348	0.	0.	-332.67
8787	22.531	0.	0.	-293.43
8788	22.715	0.	0.	-254.46
8789	22.899	0.	0.	-215.82
8790	23.082	0.	0.	-177.58
8791	23.266	0.	0.	-139.87
8792	23.449	0.	0.	-102.91
8793	23.633	0.	0.	-67.084
8794	23.816	0.	0.	-33.318
8795	10.967	0.	0.	-36.482
8796	24.	0.	0.	-5.1869
8797	5.0862e-014	5.8182	0.	-2495.
8798	4.9273e-014	5.6364	0.	-4637.
8799	4.7683e-014	5.4545	0.	-5687.9
8800	4.6094e-014	5.2727	0.	-6334.3
8801	4.4504e-014	5.0909	0.	-6765.7
8802	4.2915e-014	4.9091	0.	-7073.8
8803	4.1325e-014	4.7273	0.	-7301.8
8804	3.9736e-014	4.5455	0.	-7474.9
8805	3.8147e-014	4.3636	0.	-7608.2
8806	3.6557e-014	4.1818	0.	-7711.6
8807	3.4968e-014	4.	0.	-7791.8
8808	3.3378e-014	3.8182	0.	-7853.3
8809	3.1789e-014	3.6364	0.	-7899.3
8810	3.0199e-014	3.4545	0.	-7932.1
8811	2.861e-014	3.2727	0.	-7953.2
8812	2.702e-014	3.0909	0.	-7963.6
8813	2.5431e-014	2.9091	0.	-7963.6
8814	2.3842e-014	2.7273	0.	-7953.2
8815	2.2252e-014	2.5455	0.	-7932.1
8816	2.0663e-014	2.3636	0.	-7899.3
8817	1.9073e-014	2.1818	0.	-7853.3
8818	1.7484e-014	2.	0.	-7791.8
8819	1.5894e-014	1.8182	0.	-7711.6
8820	1.4305e-014	1.6364	0.	-7608.2
8821	1.2716e-014	1.4545	0.	-7474.9
8822	1.1126e-014	1.2727	0.	-7301.8
8823	9.5366e-015	1.0909	0.	-7073.8
8824	7.9472e-015	0.90909	0.	-6765.7
8825	6.3578e-015	0.72727	0.	-6334.3
8826	4.7683e-015	0.54545	0.	-5687.9
8827	3.1789e-015	0.36364	0.	-4637.
8828	1.5894e-015	0.18182	0.	-2495.
8829	24.	0.18182	0.	-6.7072
8830	24.	0.36364	0.	-7.075
8831	24.	0.54545	0.	-7.1906
8832	24.	0.72727	0.	-7.2259
8833	24.	0.90909	0.	-7.2034
8834	24.	1.0909	0.	-7.1633
8835	24.	1.2727	0.	-7.114
8836	24.	1.4545	0.	-7.0629
8837	24.	1.6364	0.	-7.0134
8838	24.	1.8182	0.	-6.9678
8839	24.	2.	0.	-6.9274
8840	24.	2.1818	0.	-6.8929
8841	24.	2.3636	0.	-6.8649
8842	24.	2.5455	0.	-6.8437
8843	24.	2.7273	0.	-6.8294
8844	24.	2.9091	0.	-6.8223
8845	24.	3.0909	0.	-6.8223
8846	24.	3.2727	0.	-6.8294
8847	24.	3.4545	0.	-6.8437
8848	24.	3.6364	0.	-6.8649
8849	24.	3.8182	0.	-6.8929
8850	24.	4.	0.	-6.9274
8851	24.	4.1818	0.	-6.9678
8852	24.	4.3636	0.	-7.0134
8853	24.	4.5455	0.	-7.0629
8854	24.	4.7273	0.	-7.114
8855	24.	4.9091	0.	-7.1633
8856	24.	5.0909	0.	-7.2034
8857	24.	5.2727	0.	-7.2259
8858	24.	5.4545	0.	-7.1906
8859	24.	5.6364	0.	-7.075
8860	24.	5.8182	0.	-6.7072
8861	24.	6.	0.	-5.1869
8862	23.816	6.	0.	-33.318
8863	23.633	6.	0.	-67.084
8864	23.449	6.	0.	-102.91
8865	23.266	6.	0.	-139.87
8866	23.082	6.	0.	-177.58
8867	22.899	6.	0.	-215.82
8868	22.715	6.	0.	-254.46
8869	22.531	6.	0.	-293.43
8870	22.348	6.	0.	-332.67
8871	22.164	6.	0.	-372.13
8872	21.981	6.	0.	-411.81
8873	21.797	6.	0.	-451.67
8874	21.614	6.	0.	-491.71
8875	21.43	6.	0.	-531.92
8876	21.246	6.	0.	-572.29
8877	21.063	6.	0.	-612.82
8878	20.879	6.	0.	-653.52
8879	20.696	6.	0.	-694.38
8880	20.512	6.	0.	-735.4
8881	20.329	6.	0.	-776.59
8882	20.145	6.	0.	-817.94
8883	19.962	6.	0.	-859.46
8884	19.778	6.	0.	-901.16
8885	19.594	6.	0.	-943.03
8886	19.411	6.	0.	-985.09
8887	19.227	6.	0.	-1027.3
8888	19.044	6.	0.	-1069.7
8889	18.86	6.	0.	-1112.4
8890	18.677	6.	0.	-1155.2
8891	18.493	6.	0.	-1198.1
8892	18.309	6.	0.	-1241.3
8893	18.126	6.	0.	-1284.7
8894	17.942	6.	0.	-1328.3
8895	17.759	6.	0.	-1372.
8896	17.575	6.	0.	-1416.
8897	17.392	6.	0.	-1460.1
8898	17.208	6.	0.	-1504.3
8899	17.024	6.	0.	-1548.8
8900	16.841	6.	0.	-1593.3
8901	16.657	6.	0.	-1638.
8902	16.474	6.	0.	-1682.7
8903	16.29	6.	0.	-1727.5
8904	16.107	6.	0.	-1772.2
8905	15.923	6.	0.	-1816.8
8906	15.739	6.	0.	-1861.2
8907	15.556	6.	0.	-1905.2
8908	15.372	6.	0.	-1948.7
8909	15.189	6.	0.	-1991.5
8910	15.005	6.	0.	-2033.3
8911	14.822	6.	0.	-2073.7
8912	14.638	6.	0.	-2112.4
8913	14.454	6.	0.	-2148.8
8914	14.271	6.	0.	-2182.2
8915	14.087	6.	0.	-2211.8
8916	13.904	6.	0.	-2236.5
8917	13.72	6.	0.	-2255.
8918	13.537	6.	0.	-2265.7
8919	13.353	6.	0.	-2266.8
8920	13.169	6.	0.	-2255.8
8921	12.986	6.	0.	-2229.9
8922	12.802	6.	0.	-2185.9
8923	12.619	6.	0.	-2120.1
8924	12.435	6.	0.	-2028.3
8925	12.252	6.	0.	-1906.4
8926	12.068	6.	0.	-1750.1
8927	11.885	6.	0.	-1556.1
8928	11.701	6.	0.	-1322.2
8929	11.517	6.	0.	-1048.
8930	11.334	6.	0.	-734.21
8931	11.15	6.	0.	-376.69
8932	10.967	6.	0.	-36.482
8933	10.8	1.8182	0.	-3713.8
8934	10.8	1.6364	0.	-2474.6
8935	10.8	1.4545	0.	-1977.1
8936	10.8	1.2727	0.	-1612.
8937	10.8	1.0909	0.	-1342.2
8938	10.8	0.90909	0.	-1117.6
8939	10.8	0.72727	0.	-918.74
8940	10.8	0.54545	0.	-730.19
8941	10.8	0.36364	0.	-537.67
8942	10.8	0.18182	0.	-312.54
8943	10.8	2.	0.	-15749
8944	10.967	0.18182	0.	-286.55
8945	10.967	0.36364	0.	-503.92
8946	10.967	0.54545	0.	-696.42
8947	10.967	0.72727	0.	-890.75
8948	10.967	0.90909	0.	-1101.8
8949	10.967	1.0909	0.	-1346.4
8950	10.967	1.2727	0.	-1647.5
8951	10.967	1.4545	0.	-2059.1
8952	10.967	1.6364	0.	-2625.8
8953	10.967	1.8182	0.	-3985.9
8954	10.967	2.	0.	-16013
8955	10.8	4.1818	0.	-3713.8
8956	10.8	4.3636	0.	-2474.6
8957	10.8	4.5455	0.	-1977.1
8958	10.8	4.7273	0.	-1612.
8959	10.8	4.9091	0.	-1342.2
8960	10.8	5.0909	0.	-1117.6
8961	10.8	5.2727	0.	-918.74
8962	10.8	5.4545	0.	-730.19
8963	10.8	5.6364	0.	-537.67
8964	10.8	5.8182	0.	-312.54
8965	10.8	4.	0.	-15749
8966	10.967	5.8182	0.	-286.55
8967	10.967	5.6364	0.	-503.92
8968	10.967	5.4545	0.	-696.42
8969	10.967	5.2727	0.	-890.75
8970	10.967	5.0909	0.	-1101.8
8971	10.967	4.9091	0.	-1346.4
8972	10.967	4.7273	0.	-1647.5
8973	10.967	4.5455	0.	-2059.1
8974	10.967	4.3636	0.	-2625.8
8975	10.967	4.1818	0.	-3985.9
8976	10.967	4.	0.	-16013
8977	10.8	2.2727	0.	-9941.9
8978	10.883	2.1818	0.	-10981
8979	10.708	2.1818	0.	-9561.4
8980	10.8	2.1818	5.e-002	-410.55
8981	10.8	2.0909	0.	-13195
8982	10.8	2.4545	0.	-8313.
8983	10.883	2.3636	0.	-8791.
8984	10.708	2.3636	0.	-8291.5
8985	10.8	2.3636	5.e-002	-69.292
8986	10.8	2.6364	0.	-7544.5
8987	10.883	2.5455	0.	-7782.1
8988	10.708	2.5455	0.	-7535.6
8989	10.8	2.5455	5.e-002	-33.189
8990	10.8	2.8182	0.	-7174.3
8991	10.883	2.7273	0.	-7265.2
8992	10.708	2.7273	0.	-7127.6
8993	10.8	2.7273	5.e-002	-17.123
8994	10.8	3.	0.	-7063.6
8995	10.883	2.9091	0.	-7043.7
8996	10.708	2.9091	0.	-6944.6
8997	10.8	2.9091	5.e-002	-9.6439
8998	10.8	3.1818	0.	-7174.3
8999	10.883	3.0909	0.	-7043.7
9000	10.708	3.0909	0.	-6944.6
9001	10.8	3.0909	5.e-002	-9.6439
9002	10.8	3.3636	0.	-7544.5
9003	10.883	3.2727	0.	-7265.2
9004	10.708	3.2727	0.	-7127.6
9005	10.8	3.2727	5.e-002	-17.123
9006	10.8	3.5455	0.	-8313.
9007	10.883	3.4545	0.	-7782.1
9008	10.708	3.4545	0.	-7535.6
9009	10.8	3.4545	5.e-002	-33.189
9010	10.8	3.7273	0.	-9941.9
9011	10.883	3.6364	0.	-8791.
9012	10.708	3.6364	0.	-8291.5
9013	10.8	3.6364	5.e-002	-69.291
9014	10.883	3.8182	0.	-10981
9015	10.708	3.8182	0.	-9561.4
9016	10.8	3.8182	5.e-002	-410.55
9017	10.8	3.9091	0.	-13195
9018	10.967	2.2727	0.	-9957.5
9019	11.058	2.1818	0.	-9589.4
9020	10.967	2.1818	5.e-002	-368.72
9021	10.967	2.0909	0.	-13354
9022	10.967	2.4545	0.	-8297.3
9023	11.058	2.3636	0.	-8265.
9024	10.967	2.3636	5.e-002	-74.712
9025	10.967	2.6364	0.	-7512.4
9026	11.058	2.5455	0.	-7474.
9027	10.967	2.5455	5.e-002	-36.016
9028	10.967	2.8182	0.	-7136.4
9029	11.058	2.7273	0.	-7051.2
9030	10.967	2.7273	5.e-002	-20.006
9031	10.967	3.	0.	-7023.8
9032	11.058	2.9091	0.	-6861.9
9033	10.967	2.9091	5.e-002	-13.178
9034	10.967	3.1818	0.	-7136.4
9035	11.058	3.0909	0.	-6861.9
9036	10.967	3.0909	5.e-002	-13.178
9037	10.967	3.3636	0.	-7512.4
9038	11.058	3.2727	0.	-7051.2
9039	10.967	3.2727	5.e-002	-20.006
9040	10.967	3.5455	0.	-8297.3
9041	11.058	3.4545	0.	-7474.
9042	10.967	3.4545	5.e-002	-36.016
9043	10.967	3.7273	0.	-9957.5
9044	11.058	3.6364	0.	-8265.
9045	10.967	3.6364	5.e-002	-74.711
9046	11.058	3.8182	0.	-9589.4
9047	10.967	3.8182	5.e-002	-368.72
9048	10.967	3.9091	0.	-13354
9049	10.617	5.7273	0.	-725.35
9050	10.525	5.8182	0.	-788.61
9051	10.617	5.8182	5.e-002	-51.218
9052	10.617	5.9091	0.	-509.15
9053	10.708	5.8182	0.	-430.97
9054	10.617	5.5455	0.	-973.29
9055	10.525	5.6364	0.	-961.66
9056	10.617	5.6364	5.e-002	-46.214
9057	10.708	5.6364	0.	-653.76
9058	10.617	5.3636	0.	-1247.1
9059	10.525	5.4545	0.	-1193.4
9060	10.617	5.4545	5.e-002	-48.763
9061	10.708	5.4545	0.	-876.28
9062	10.617	5.1818	0.	-1546.3
9063	10.525	5.2727	0.	-1458.
9064	10.617	5.2727	5.e-002	-54.079
9065	10.708	5.2727	0.	-1104.6
9066	10.617	5.	0.	-1886.9
9067	10.525	5.0909	0.	-1759.5
9068	10.617	5.0909	5.e-002	-62.139
9069	10.708	5.0909	0.	-1351.6
9070	10.617	4.8182	0.	-2295.
9071	10.525	4.9091	0.	-2113.1
9072	10.617	4.9091	5.e-002	-73.623
9073	10.708	4.9091	0.	-1634.5
9074	10.617	4.6364	0.	-2823.5
9075	10.525	4.7273	0.	-2546.6
9076	10.617	4.7273	5.e-002	-91.462
9077	10.708	4.7273	0.	-1978.3
9078	10.617	4.4545	0.	-3563.3
9079	10.525	4.5455	0.	-3114.6
9080	10.617	4.5455	5.e-002	-114.11
9081	10.708	4.5455	0.	-2437.9
9082	10.617	4.2727	0.	-4856.5
9083	10.525	4.3636	0.	-3893.9
9084	10.617	4.3636	5.e-002	-172.29
9085	10.708	4.3636	0.	-3093.8
9086	10.617	4.0909	0.	-6840.3
9087	10.525	4.1818	0.	-5233.6
9088	10.617	4.1818	5.e-002	-328.26
9089	10.708	4.1818	0.	-4283.4
9090	10.617	3.9091	0.	-8062.5
9091	10.525	4.	0.	-6838.5
9092	10.617	4.	5.e-002	-590.64
9093	10.708	4.	0.	-11829
9094	10.617	3.7273	0.	-7983.3
9095	10.525	3.8182	0.	-7257.4
9096	10.617	3.8182	5.e-002	-265.82
9097	10.617	3.5455	0.	-7533.9
9098	10.525	3.6364	0.	-7167.9
9099	10.617	3.6364	5.e-002	-114.49
9100	10.617	3.3636	0.	-7124.7
9101	10.525	3.4545	0.	-6900.
9102	10.617	3.4545	5.e-002	-62.907
9103	10.617	3.1818	0.	-6898.5
9104	10.525	3.2727	0.	-6708.8
9105	10.617	3.2727	5.e-002	-37.291
9106	10.617	3.	0.	-6824.8
9107	10.525	3.0909	0.	-6609.7
9108	10.617	3.0909	5.e-002	-28.351
9109	10.617	2.8182	0.	-6898.5
9110	10.525	2.9091	0.	-6609.7
9111	10.617	2.9091	5.e-002	-28.351
9112	10.617	2.6364	0.	-7124.7
9113	10.525	2.7273	0.	-6708.8
9114	10.617	2.7273	5.e-002	-37.291
9115	10.617	2.4545	0.	-7533.9
9116	10.525	2.5455	0.	-6900.
9117	10.617	2.5455	5.e-002	-62.907
9118	10.617	2.2727	0.	-7983.3
9119	10.525	2.3636	0.	-7167.9
9120	10.617	2.3636	5.e-002	-114.49
9121	10.617	2.0909	0.	-8062.5
9122	10.525	2.1818	0.	-7257.4
9123	10.617	2.1818	5.e-002	-265.82
9124	10.617	1.9091	0.	-6840.3
9125	10.525	2.	0.	-6838.5
9126	10.617	2.	5.e-002	-590.64
9127	10.708	2.	0.	-11829
9128	10.617	1.7273	0.	-4856.5
9129	10.525	1.8182	0.	-5233.6
9130	10.617	1.8182	5.e-002	-328.26
9131	10.708	1.8182	0.	-4283.4
9132	10.617	1.5455	0.	-3563.3
9133	10.525	1.6364	0.	-3893.9
9134	10.617	1.6364	5.e-002	-172.29
9135	10.708	1.6364	0.	-3093.8
9136	10.617	1.3636	0.	-2823.5
9137	10.525	1.4545	0.	-3114.6
9138	10.617	1.4545	5.e-002	-114.11
9139	10.708	1.4545	0.	-2437.9
9140	10.617	1.1818	0.	-2295.
9141	10.525	1.2727	0.	-2546.6
9142	10.617	1.2727	5.e-002	-91.462
9143	10.708	1.2727	0.	-1978.3
9144	10.617	1.	0.	-1886.9
9145	10.525	1.0909	0.	-2113.1
9146	10.617	1.0909	5.e-002	-73.623
9147	10.708	1.0909	0.	-1634.5
9148	10.617	0.81818	0.	-1546.3
9149	10.525	0.90909	0.	-1759.5
9150	10.617	0.90909	5.e-002	-62.139
9151	10.708	0.90909	0.	-1351.6
9152	10.617	0.63636	0.	-1247.1
9153	10.525	0.72727	0.	-1458.
9154	10.617	0.72727	5.e-002	-54.079
9155	10.708	0.72727	0.	-1104.6
9156	10.617	0.45455	0.	-973.29
9157	10.525	0.54545	0.	-1193.4
9158	10.617	0.54545	5.e-002	-48.763
9159	10.708	0.54545	0.	-876.28
9160	10.617	0.27273	0.	-725.35
9161	10.525	0.36364	0.	-961.66
9162	10.617	0.36364	5.e-002	-46.214
9163	10.708	0.36364	0.	-653.76
9164	10.525	0.18182	0.	-788.61
9165	10.617	0.18182	5.e-002	-51.218
9166	10.617	9.0909e-002	0.	-509.15
9167	10.708	0.18182	0.	-430.97
9168	10.434	5.7273	0.	-1047.3
9169	10.342	5.8182	0.	-1174.4
9170	10.434	5.8182	5.e-002	-46.978
9171	10.434	5.9091	0.	-922.78
9172	10.434	5.5455	0.	-1213.8
9173	10.342	5.6364	0.	-1284.4
9174	10.434	5.6364	5.e-002	-41.296
9175	10.434	5.3636	0.	-1437.3
9176	10.342	5.4545	0.	-1461.
9177	10.434	5.4545	5.e-002	-41.726
9178	10.434	5.1818	0.	-1704.7
9179	10.342	5.2727	0.	-1687.4
9180	10.434	5.2727	5.e-002	-43.963
9181	10.434	5.	0.	-2021.8
9182	10.342	5.0909	0.	-1961.2
9183	10.434	5.0909	5.e-002	-47.862
9184	10.434	4.8182	0.	-2406.8
9185	10.342	4.9091	0.	-2290.2
9186	10.434	4.9091	5.e-002	-53.667
9187	10.434	4.6364	0.	-2890.2
9188	10.342	4.7273	0.	-2692.1
9189	10.434	4.7273	5.e-002	-61.038
9190	10.434	4.4545	0.	-3521.3
9191	10.342	4.5455	0.	-3192.2
9192	10.434	4.5455	5.e-002	-74.87
9193	10.434	4.2727	0.	-4334.3
9194	10.342	4.3636	0.	-3825.2
9195	10.434	4.3636	5.e-002	-71.21
9196	10.434	4.0909	0.	-5209.5
9197	10.342	4.1818	0.	-4573.9
9198	10.434	4.1818	5.e-002	-103.44
9199	10.434	3.9091	0.	-5974.1
9200	10.342	4.	0.	-5290.
9201	10.434	4.	5.e-002	-89.786
9202	10.434	3.7273	0.	-6418.2
9203	10.342	3.8182	0.	-5845.1
9204	10.434	3.8182	5.e-002	-126.33
9205	10.434	3.5455	0.	-6525.5
9206	10.342	3.6364	0.	-6109.5
9207	10.434	3.6364	5.e-002	-87.486
9208	10.434	3.3636	0.	-6480.
9209	10.342	3.4545	0.	-6174.5
9210	10.434	3.4545	5.e-002	-65.156
9211	10.434	3.1818	0.	-6416.8
9212	10.342	3.2727	0.	-6163.5
9213	10.434	3.2727	5.e-002	-46.571
9214	10.434	3.	0.	-6391.4
9215	10.342	3.0909	0.	-6145.3
9216	10.434	3.0909	5.e-002	-38.635
9217	10.434	2.8182	0.	-6416.8
9218	10.342	2.9091	0.	-6145.3
9219	10.434	2.9091	5.e-002	-38.635
9220	10.434	2.6364	0.	-6480.
9221	10.342	2.7273	0.	-6163.5
9222	10.434	2.7273	5.e-002	-46.571
9223	10.434	2.4545	0.	-6525.5
9224	10.342	2.5455	0.	-6174.5
9225	10.434	2.5455	5.e-002	-65.156
9226	10.434	2.2727	0.	-6418.2
9227	10.342	2.3636	0.	-6109.5
9228	10.434	2.3636	5.e-002	-87.486
9229	10.434	2.0909	0.	-5974.1
9230	10.342	2.1818	0.	-5845.1
9231	10.434	2.1818	5.e-002	-126.33
9232	10.434	1.9091	0.	-5209.5
9233	10.342	2.	0.	-5290.
9234	10.434	2.	5.e-002	-89.786
9235	10.434	1.7273	0.	-4334.3
9236	10.342	1.8182	0.	-4573.9
9237	10.434	1.8182	5.e-002	-103.44
9238	10.434	1.5455	0.	-3521.3
9239	10.342	1.6364	0.	-3825.2
9240	10.434	1.6364	5.e-002	-71.21
9241	10.434	1.3636	0.	-2890.2
9242	10.342	1.4545	0.	-3192.2
9243	10.434	1.4545	5.e-002	-74.87
9244	10.434	1.1818	0.	-2406.8
9245	10.342	1.2727	0.	-2692.1
9246	10.434	1.2727	5.e-002	-61.038
9247	10.434	1.	0.	-2021.8
9248	10.342	1.0909	0.	-2290.2
9249	10.434	1.0909	5.e-002	-53.667
9250	10.434	0.81818	0.	-1704.7
9251	10.342	0.90909	0.	-1961.2
9252	10.434	0.90909	5.e-002	-47.862
9253	10.434	0.63636	0.	-1437.3
9254	10.342	0.72727	0.	-1687.4
9255	10.434	0.72727	5.e-002	-43.963
9256	10.434	0.45455	0.	-1213.8
9257	10.342	0.54545	0.	-1461.
9258	10.434	0.54545	5.e-002	-41.726
9259	10.434	0.27273	0.	-1047.3
9260	10.342	0.36364	0.	-1284.4
9261	10.434	0.36364	5.e-002	-41.296
9262	10.342	0.18182	0.	-1174.4
9263	10.434	0.18182	5.e-002	-46.978
9264	10.434	9.0909e-002	0.	-922.78
9265	10.251	5.7273	0.	-1416.8
9266	10.159	5.8182	0.	-1547.7
9267	10.251	5.8182	5.e-002	-44.417
9268	10.251	5.9091	0.	-1321.9
9269	10.251	5.5455	0.	-1544.7
9270	10.159	5.6364	0.	-1636.
9271	10.251	5.6364	5.e-002	-39.013
9272	10.251	5.3636	0.	-1730.1
9273	10.159	5.4545	0.	-1779.6
9274	10.251	5.4545	5.e-002	-39.156
9275	10.251	5.1818	0.	-1966.4
9276	10.159	5.2727	0.	-1973.2
9277	10.251	5.2727	5.e-002	-40.399
9278	10.251	5.	0.	-2254.9
9279	10.159	5.0909	0.	-2215.6
9280	10.251	5.0909	5.e-002	-42.37
9281	10.251	4.8182	0.	-2603.5
9282	10.159	4.9091	0.	-2509.5
9283	10.251	4.9091	5.e-002	-44.838
9284	10.251	4.6364	0.	-3024.2
9285	10.159	4.7273	0.	-2861.
9286	10.251	4.7273	5.e-002	-46.958
9287	10.251	4.4545	0.	-3522.2
9288	10.159	4.5455	0.	-3276.3
9289	10.251	4.5455	5.e-002	-46.254
9290	10.251	4.2727	0.	-4081.
9291	10.159	4.3636	0.	-3748.7
9292	10.251	4.3636	5.e-002	-45.413
9293	10.251	4.0909	0.	-4652.3
9294	10.159	4.1818	0.	-4249.8
9295	10.251	4.1818	5.e-002	-43.376
9296	10.251	3.9091	0.	-5154.7
9297	10.159	4.	0.	-4726.2
9298	10.251	4.	5.e-002	-55.943
9299	10.251	3.7273	0.	-5526.7
9300	10.159	3.8182	0.	-5117.9
9301	10.251	3.8182	5.e-002	-60.97
9302	10.251	3.5455	0.	-5749.9
9303	10.159	3.6364	0.	-5397.4
9304	10.251	3.6364	5.e-002	-61.161
9305	10.251	3.3636	0.	-5851.8
9306	10.159	3.4545	0.	-5558.6
9307	10.251	3.4545	5.e-002	-51.96
9308	10.251	3.1818	0.	-5887.2
9309	10.159	3.2727	0.	-5635.7
9310	10.251	3.2727	5.e-002	-44.508
9311	10.251	3.	0.	-5894.8
9312	10.159	3.0909	0.	-5664.7
9313	10.251	3.0909	5.e-002	-40.154
9314	10.251	2.8182	0.	-5887.2
9315	10.159	2.9091	0.	-5664.7
9316	10.251	2.9091	5.e-002	-40.154
9317	10.251	2.6364	0.	-5851.8
9318	10.159	2.7273	0.	-5635.7
9319	10.251	2.7273	5.e-002	-44.508
9320	10.251	2.4545	0.	-5749.9
9321	10.159	2.5455	0.	-5558.6
9322	10.251	2.5455	5.e-002	-51.96
9323	10.251	2.2727	0.	-5526.7
9324	10.159	2.3636	0.	-5397.4
9325	10.251	2.3636	5.e-002	-61.161
9326	10.251	2.0909	0.	-5154.7
9327	10.159	2.1818	0.	-5117.9
9328	10.251	2.1818	5.e-002	-60.97
9329	10.251	1.9091	0.	-4652.3
9330	10.159	2.	0.	-4726.2
9331	10.251	2.	5.e-002	-55.943
9332	10.251	1.7273	0.	-4081.
9333	10.159	1.8182	0.	-4249.8
9334	10.251	1.8182	5.e-002	-43.376
9335	10.251	1.5455	0.	-3522.2
9336	10.159	1.6364	0.	-3748.7
9337	10.251	1.6364	5.e-002	-45.413
9338	10.251	1.3636	0.	-3024.2
9339	10.159	1.4545	0.	-3276.3
9340	10.251	1.4545	5.e-002	-46.254
9341	10.251	1.1818	0.	-2603.5
9342	10.159	1.2727	0.	-2861.
9343	10.251	1.2727	5.e-002	-46.958
9344	10.251	1.	0.	-2254.9
9345	10.159	1.0909	0.	-2509.5
9346	10.251	1.0909	5.e-002	-44.838
9347	10.251	0.81818	0.	-1966.4
9348	10.159	0.90909	0.	-2215.6
9349	10.251	0.90909	5.e-002	-42.37
9350	10.251	0.63636	0.	-1730.1
9351	10.159	0.72727	0.	-1973.2
9352	10.251	0.72727	5.e-002	-40.399
9353	10.251	0.45455	0.	-1544.7
9354	10.159	0.54545	0.	-1779.6
9355	10.251	0.54545	5.e-002	-39.156
9356	10.251	0.27273	0.	-1416.8
9357	10.159	0.36364	0.	-1636.
9358	10.251	0.36364	5.e-002	-39.013
9359	10.159	0.18182	0.	-1547.7
9360	10.251	0.18182	5.e-002	-44.417
9361	10.251	9.0909e-002	0.	-1321.9
9362	10.068	5.7273	0.	-1769.2
9363	9.9763	5.8182	0.	-1890.8
9364	10.068	5.8182	5.e-002	-40.924
9365	10.068	5.9091	0.	-1690.2
9366	10.068	5.5455	0.	-1876.7
9367	9.9763	5.6364	0.	-1968.4
9368	10.068	5.6364	5.e-002	-35.683
9369	10.068	5.3636	0.	-2033.1
9370	9.9763	5.4545	0.	-2090.2
9371	10.068	5.4545	5.e-002	-35.475
9372	10.068	5.1818	0.	-2236.4
9373	9.9763	5.2727	0.	-2255.2
9374	10.068	5.2727	5.e-002	-35.797
9375	10.068	5.	0.	-2486.7
9376	9.9763	5.0909	0.	-2463.3
9377	10.068	5.0909	5.e-002	-36.181
9378	10.068	4.8182	0.	-2784.9
9379	9.9763	4.9091	0.	-2714.3
9380	10.068	4.9091	5.e-002	-36.207
9381	10.068	4.6364	0.	-3130.5
9382	9.9763	4.7273	0.	-3007.3
9383	10.068	4.7273	5.e-002	-35.208
9384	10.068	4.4545	0.	-3516.8
9385	9.9763	4.5455	0.	-3338.1
9386	10.068	4.5455	5.e-002	-32.85
9387	10.068	4.2727	0.	-3925.1
9388	9.9763	4.3636	0.	-3695.
9389	10.068	4.3636	5.e-002	-29.866
9390	10.068	4.0909	0.	-4326.5
9391	9.9763	4.1818	0.	-4056.2
9392	10.068	4.1818	5.e-002	-30.284
9393	10.068	3.9091	0.	-4689.2
9394	9.9763	4.	0.	-4396.5
9395	10.068	4.	5.e-002	-34.983
9396	10.068	3.7273	0.	-4986.2
9397	9.9763	3.8182	0.	-4692.7
9398	10.068	3.8182	5.e-002	-38.98
9399	10.068	3.5455	0.	-5202.1
9400	9.9763	3.6364	0.	-4927.3
9401	10.068	3.6364	5.e-002	-40.649
9402	10.068	3.3636	0.	-5338.1
9403	9.9763	3.4545	0.	-5092.2
9404	10.068	3.4545	5.e-002	-39.708
9405	10.068	3.1818	0.	-5409.
9406	9.9763	3.2727	0.	-5191.8
9407	10.068	3.2727	5.e-002	-37.616
9408	10.068	3.	0.	-5430.6
9409	9.9763	3.0909	0.	-5237.6
9410	10.068	3.0909	5.e-002	-36.108
9411	10.068	2.8182	0.	-5409.
9412	9.9763	2.9091	0.	-5237.6
9413	10.068	2.9091	5.e-002	-36.108
9414	10.068	2.6364	0.	-5338.1
9415	9.9763	2.7273	0.	-5191.8
9416	10.068	2.7273	5.e-002	-37.616
9417	10.068	2.4545	0.	-5202.1
9418	9.9763	2.5455	0.	-5092.2
9419	10.068	2.5455	5.e-002	-39.708
9420	10.068	2.2727	0.	-4986.2
9421	9.9763	2.3636	0.	-4927.3
9422	10.068	2.3636	5.e-002	-40.649
9423	10.068	2.0909	0.	-4689.2
9424	9.9763	2.1818	0.	-4692.7
9425	10.068	2.1818	5.e-002	-38.98
9426	10.068	1.9091	0.	-4326.5
9427	9.9763	2.	0.	-4396.5
9428	10.068	2.	5.e-002	-34.983
9429	10.068	1.7273	0.	-3925.1
9430	9.9763	1.8182	0.	-4056.2
9431	10.068	1.8182	5.e-002	-30.284
9432	10.068	1.5455	0.	-3516.8
9433	9.9763	1.6364	0.	-3695.
9434	10.068	1.6364	5.e-002	-29.866
9435	10.068	1.3636	0.	-3130.5
9436	9.9763	1.4545	0.	-3338.1
9437	10.068	1.4545	5.e-002	-32.85
9438	10.068	1.1818	0.	-2784.9
9439	9.9763	1.2727	0.	-3007.3
9440	10.068	1.2727	5.e-002	-35.208
9441	10.068	1.	0.	-2486.7
9442	9.9763	1.0909	0.	-2714.3
9443	10.068	1.0909	5.e-002	-36.207
9444	10.068	0.81818	0.	-2236.4
9445	9.9763	0.90909	0.	-2463.3
9446	10.068	0.90909	5.e-002	-36.181
9447	10.068	0.63636	0.	-2033.1
9448	9.9763	0.72727	0.	-2255.2
9449	10.068	0.72727	5.e-002	-35.797
9450	10.068	0.45455	0.	-1876.7
9451	9.9763	0.54545	0.	-2090.2
9452	10.068	0.54545	5.e-002	-35.475
9453	10.068	0.27273	0.	-1769.2
9454	9.9763	0.36364	0.	-1968.4
9455	10.068	0.36364	5.e-002	-35.683
9456	9.9763	0.18182	0.	-1890.8
9457	10.068	0.18182	5.e-002	-40.924
9458	10.068	9.0909e-002	0.	-1690.2
9459	9.8847	5.7273	0.	-2091.4
9460	9.7932	5.8182	0.	-2199.8
9461	9.8847	5.8182	5.e-002	-36.823
9462	9.8847	5.9091	0.	-2023.8
9463	9.8847	5.5455	0.	-2185.
9464	9.7932	5.6364	0.	-2269.7
9465	9.8847	5.6364	5.e-002	-31.972
9466	9.8847	5.3636	0.	-2318.1
9467	9.7932	5.4545	0.	-2374.3
9468	9.8847	5.4545	5.e-002	-31.426
9469	9.8847	5.1818	0.	-2490.4
9470	9.7932	5.2727	0.	-2514.4
9471	9.8847	5.2727	5.e-002	-31.066
9472	9.8847	5.	0.	-2701.
9473	9.7932	5.0909	0.	-2689.3
9474	9.8847	5.0909	5.e-002	-30.443
9475	9.8847	4.8182	0.	-2947.5
9476	9.7932	4.9091	0.	-2897.6
9477	9.8847	4.9091	5.e-002	-29.248
9478	9.8847	4.6364	0.	-3225.1
9479	9.7932	4.7273	0.	-3135.4
9480	9.8847	4.7273	5.e-002	-27.24
9481	9.8847	4.4545	0.	-3524.4
9482	9.7932	4.5455	0.	-3396.1
9483	9.8847	4.5455	5.e-002	-24.527
9484	9.8847	4.2727	0.	-3831.3
9485	9.7932	4.3636	0.	-3668.6
9486	9.8847	4.3636	5.e-002	-22.369
9487	9.8847	4.0909	0.	-4129.
9488	9.7932	4.1818	0.	-3939.2
9489	9.8847	4.1818	5.e-002	-22.593
9490	9.8847	3.9091	0.	-4401.1
9491	9.7932	4.	0.	-4193.8
9492	9.8847	4.	5.e-002	-24.719
9493	9.8847	3.7273	0.	-4633.5
9494	9.7932	3.8182	0.	-4420.1
9495	9.8847	3.8182	5.e-002	-27.058
9496	9.8847	3.5455	0.	-4815.9
9497	9.7932	3.6364	0.	-4607.9
9498	9.8847	3.6364	5.e-002	-28.844
9499	9.8847	3.3636	0.	-4943.5
9500	9.7932	3.4545	0.	-4750.
9501	9.8847	3.4545	5.e-002	-29.821
9502	9.8847	3.1818	0.	-5017.5
9503	9.7932	3.2727	0.	-4843.4
9504	9.8847	3.2727	5.e-002	-29.986
9505	9.8847	3.	0.	-5041.5
9506	9.7932	3.0909	0.	-4889.2
9507	9.8847	3.0909	5.e-002	-29.875
9508	9.8847	2.8182	0.	-5017.5
9509	9.7932	2.9091	0.	-4889.2
9510	9.8847	2.9091	5.e-002	-29.875
9511	9.8847	2.6364	0.	-4943.5
9512	9.7932	2.7273	0.	-4843.4
9513	9.8847	2.7273	5.e-002	-29.986
9514	9.8847	2.4545	0.	-4815.9
9515	9.7932	2.5455	0.	-4750.
9516	9.8847	2.5455	5.e-002	-29.821
9517	9.8847	2.2727	0.	-4633.5
9518	9.7932	2.3636	0.	-4607.9
9519	9.8847	2.3636	5.e-002	-28.844
9520	9.8847	2.0909	0.	-4401.1
9521	9.7932	2.1818	0.	-4420.1
9522	9.8847	2.1818	5.e-002	-27.058
9523	9.8847	1.9091	0.	-4129.
9524	9.7932	2.	0.	-4193.8
9525	9.8847	2.	5.e-002	-24.719
9526	9.8847	1.7273	0.	-3831.3
9527	9.7932	1.8182	0.	-3939.2
9528	9.8847	1.8182	5.e-002	-22.593
9529	9.8847	1.5455	0.	-3524.4
9530	9.7932	1.6364	0.	-3668.6
9531	9.8847	1.6364	5.e-002	-22.369
9532	9.8847	1.3636	0.	-3225.1
9533	9.7932	1.4545	0.	-3396.1
9534	9.8847	1.4545	5.e-002	-24.527
9535	9.8847	1.1818	0.	-2947.5
9536	9.7932	1.2727	0.	-3135.4
9537	9.8847	1.2727	5.e-002	-27.24
9538	9.8847	1.	0.	-2701.
9539	9.7932	1.0909	0.	-2897.6
9540	9.8847	1.0909	5.e-002	-29.248
9541	9.8847	0.81818	0.	-2490.4
9542	9.7932	0.90909	0.	-2689.3
9543	9.8847	0.90909	5.e-002	-30.443
9544	9.8847	0.63636	0.	-2318.1
9545	9.7932	0.72727	0.	-2514.4
9546	9.8847	0.72727	5.e-002	-31.066
9547	9.8847	0.45455	0.	-2185.
9548	9.7932	0.54545	0.	-2374.3
9549	9.8847	0.54545	5.e-002	-31.426
9550	9.8847	0.27273	0.	-2091.4
9551	9.7932	0.36364	0.	-2269.7
9552	9.8847	0.36364	5.e-002	-31.972
9553	9.7932	0.18182	0.	-2199.8
9554	9.8847	0.18182	5.e-002	-36.823
9555	9.8847	9.0909e-002	0.	-2023.8
9556	9.7017	5.7273	0.	-2379.
9557	9.6102	5.8182	0.	-2474.1
9558	9.7017	5.8182	5.e-002	-32.481
9559	9.7017	5.9091	0.	-2321.
9560	9.7017	5.5455	0.	-2460.9
9561	9.6102	5.6364	0.	-2536.6
9562	9.7017	5.6364	5.e-002	-28.222
9563	9.7017	5.3636	0.	-2574.
9564	9.6102	5.4545	0.	-2626.4
9565	9.7017	5.4545	5.e-002	-27.444
9566	9.7017	5.1818	0.	-2718.2
9567	9.6102	5.2727	0.	-2744.2
9568	9.7017	5.2727	5.e-002	-26.676
9569	9.7017	5.	0.	-2892.
9570	9.6102	5.0909	0.	-2889.2
9571	9.7017	5.0909	5.e-002	-25.555
9572	9.7017	4.8182	0.	-3092.
9573	9.6102	4.9091	0.	-3059.1
9574	9.7017	4.9091	5.e-002	-23.928
9575	9.7017	4.6364	0.	-3312.5
9576	9.6102	4.7273	0.	-3249.5
9577	9.7017	4.7273	5.e-002	-21.779
9578	9.7017	4.4545	0.	-3545.1
9579	9.6102	4.5455	0.	-3454.
9580	9.7017	4.5455	5.e-002	-19.451
9581	9.7017	4.2727	0.	-3779.9
9582	9.6102	4.3636	0.	-3664.1
9583	9.7017	4.3636	5.e-002	-17.745
9584	9.7017	4.0909	0.	-4006.2
9585	9.6102	4.1818	0.	-3870.7
9586	9.7017	4.1818	5.e-002	-17.43
9587	9.7017	3.9091	0.	-4214.
9588	9.6102	4.	0.	-4065.
9589	9.7017	4.	5.e-002	-18.303
9590	9.7017	3.7273	0.	-4394.8
9591	9.6102	3.8182	0.	-4239.2
9592	9.7017	3.8182	5.e-002	-19.665
9593	9.7017	3.5455	0.	-4541.5
9594	9.6102	3.6364	0.	-4386.7
9595	9.7017	3.6364	5.e-002	-21.083
9596	9.7017	3.3636	0.	-4648.6
9597	9.6102	3.4545	0.	-4501.6
9598	9.7017	3.4545	5.e-002	-22.298
9599	9.7017	3.1818	0.	-4713.4
9600	9.6102	3.2727	0.	-4579.9
9601	9.7017	3.2727	5.e-002	-23.097
9602	9.7017	3.	0.	-4735.
9603	9.6102	3.0909	0.	-4619.4
9604	9.7017	3.0909	5.e-002	-23.462
9605	9.7017	2.8182	0.	-4713.4
9606	9.6102	2.9091	0.	-4619.4
9607	9.7017	2.9091	5.e-002	-23.462
9608	9.7017	2.6364	0.	-4648.6
9609	9.6102	2.7273	0.	-4579.9
9610	9.7017	2.7273	5.e-002	-23.097
9611	9.7017	2.4545	0.	-4541.5
9612	9.6102	2.5455	0.	-4501.6
9613	9.7017	2.5455	5.e-002	-22.298
9614	9.7017	2.2727	0.	-4394.8
9615	9.6102	2.3636	0.	-4386.7
9616	9.7017	2.3636	5.e-002	-21.083
9617	9.7017	2.0909	0.	-4214.
9618	9.6102	2.1818	0.	-4239.2
9619	9.7017	2.1818	5.e-002	-19.665
9620	9.7017	1.9091	0.	-4006.2
9621	9.6102	2.	0.	-4065.
9622	9.7017	2.	5.e-002	-18.303
9623	9.7017	1.7273	0.	-3779.9
9624	9.6102	1.8182	0.	-3870.7
9625	9.7017	1.8182	5.e-002	-17.43
9626	9.7017	1.5455	0.	-3545.1
9627	9.6102	1.6364	0.	-3664.2
9628	9.7017	1.6364	5.e-002	-17.745
9629	9.7017	1.3636	0.	-3312.5
9630	9.6102	1.4545	0.	-3454.
9631	9.7017	1.4545	5.e-002	-19.451
9632	9.7017	1.1818	0.	-3092.
9633	9.6102	1.2727	0.	-3249.5
9634	9.7017	1.2727	5.e-002	-21.779
9635	9.7017	1.	0.	-2892.
9636	9.6102	1.0909	0.	-3059.1
9637	9.7017	1.0909	5.e-002	-23.928
9638	9.7017	0.81818	0.	-2718.2
9639	9.6102	0.90909	0.	-2889.2
9640	9.7017	0.90909	5.e-002	-25.555
9641	9.7017	0.63636	0.	-2574.
9642	9.6102	0.72727	0.	-2744.2
9643	9.7017	0.72727	5.e-002	-26.676
9644	9.7017	0.45455	0.	-2460.9
9645	9.6102	0.54545	0.	-2626.4
9646	9.7017	0.54545	5.e-002	-27.444
9647	9.7017	0.27273	0.	-2379.
9648	9.6102	0.36364	0.	-2536.6
9649	9.7017	0.36364	5.e-002	-28.222
9650	9.6102	0.18182	0.	-2474.1
9651	9.7017	0.18182	5.e-002	-32.481
9652	9.7017	9.0909e-002	0.	-2321.
9653	9.5186	5.7273	0.	-2632.3
9654	9.4271	5.8182	0.	-2715.2
9655	9.5186	5.8182	5.e-002	-28.2
9656	9.5186	5.9091	0.	-2582.8
9657	9.5186	5.5455	0.	-2703.2
9658	9.4271	5.6364	0.	-2770.2
9659	9.5186	5.6364	5.e-002	-24.674
9660	9.5186	5.3636	0.	-2798.6
9661	9.4271	5.4545	0.	-2846.5
9662	9.5186	5.4545	5.e-002	-23.794
9663	9.5186	5.1818	0.	-2918.1
9664	9.4271	5.2727	0.	-2944.7
9665	9.5186	5.2727	5.e-002	-22.844
9666	9.5186	5.	0.	-3059.8
9667	9.4271	5.0909	0.	-3063.6
9668	9.5186	5.0909	5.e-002	-21.563
9669	9.5186	4.8182	0.	-3220.3
9670	9.4271	4.9091	0.	-3200.7
9671	9.5186	4.9091	5.e-002	-19.901
9672	9.5186	4.6364	0.	-3394.5
9673	9.4271	4.7273	0.	-3352.
9674	9.5186	4.7273	5.e-002	-17.944
9675	9.5186	4.4545	0.	-3575.9
9676	9.4271	4.5455	0.	-3512.3
9677	9.5186	4.5455	5.e-002	-15.978
9678	9.5186	4.2727	0.	-3757.1
9679	9.4271	4.3636	0.	-3675.3
9680	9.5186	4.3636	5.e-002	-14.488
9681	9.5186	4.0909	0.	-3931.
9682	9.4271	4.1818	0.	-3834.4
9683	9.5186	4.1818	5.e-002	-13.842
9684	9.5186	3.9091	0.	-4091.1
9685	9.4271	4.	0.	-3983.9
9686	9.5186	4.	5.e-002	-13.992
9687	9.5186	3.7273	0.	-4231.4
9688	9.4271	3.8182	0.	-4118.4
9689	9.5186	3.8182	5.e-002	-14.65
9690	9.5186	3.5455	0.	-4346.7
9691	9.4271	3.6364	0.	-4233.1
9692	9.5186	3.6364	5.e-002	-15.576
9693	9.5186	3.3636	0.	-4432.3
9694	9.4271	3.4545	0.	-4323.5
9695	9.5186	3.4545	5.e-002	-16.545
9696	9.5186	3.1818	0.	-4485.
9697	9.4271	3.2727	0.	-4385.9
9698	9.5186	3.2727	5.e-002	-17.322
9699	9.5186	3.	0.	-4502.8
9700	9.4271	3.0909	0.	-4417.8
9701	9.5186	3.0909	5.e-002	-17.743
9702	9.5186	2.8182	0.	-4485.
9703	9.4271	2.9091	0.	-4417.8
9704	9.5186	2.9091	5.e-002	-17.743
9705	9.5186	2.6364	0.	-4432.3
9706	9.4271	2.7273	0.	-4385.9
9707	9.5186	2.7273	5.e-002	-17.322
9708	9.5186	2.4545	0.	-4346.7
9709	9.4271	2.5455	0.	-4323.5
9710	9.5186	2.5455	5.e-002	-16.545
9711	9.5186	2.2727	0.	-4231.4
9712	9.4271	2.3636	0.	-4233.1
9713	9.5186	2.3636	5.e-002	-15.576
9714	9.5186	2.0909	0.	-4091.1
9715	9.4271	2.1818	0.	-4118.4
9716	9.5186	2.1818	5.e-002	-14.65
9717	9.5186	1.9091	0.	-3931.
9718	9.4271	2.	0.	-3983.9
9719	9.5186	2.	5.e-002	-13.992
9720	9.5186	1.7273	0.	-3757.1
9721	9.4271	1.8182	0.	-3834.4
9722	9.5186	1.8182	5.e-002	-13.842
9723	9.5186	1.5455	0.	-3575.9
9724	9.4271	1.6364	0.	-3675.3
9725	9.5186	1.6364	5.e-002	-14.488
9726	9.5186	1.3636	0.	-3394.5
9727	9.4271	1.4545	0.	-3512.3
9728	9.5186	1.4545	5.e-002	-15.978
9729	9.5186	1.1818	0.	-3220.3
9730	9.4271	1.2727	0.	-3352.
9731	9.5186	1.2727	5.e-002	-17.944
9732	9.5186	1.	0.	-3059.8
9733	9.4271	1.0909	0.	-3200.7
9734	9.5186	1.0909	5.e-002	-19.901
9735	9.5186	0.81818	0.	-2918.1
9736	9.4271	0.90909	0.	-3063.6
9737	9.5186	0.90909	5.e-002	-21.563
9738	9.5186	0.63636	0.	-2798.6
9739	9.4271	0.72727	0.	-2944.7
9740	9.5186	0.72727	5.e-002	-22.844
9741	9.5186	0.45455	0.	-2703.2
9742	9.4271	0.54545	0.	-2846.5
9743	9.5186	0.54545	5.e-002	-23.794
9744	9.5186	0.27273	0.	-2632.3
9745	9.4271	0.36364	0.	-2770.2
9746	9.5186	0.36364	5.e-002	-24.674
9747	9.4271	0.18182	0.	-2715.2
9748	9.5186	0.18182	5.e-002	-28.2
9749	9.5186	9.0909e-002	0.	-2582.8
9750	9.3356	5.7273	0.	-2853.5
9751	9.2441	5.8182	0.	-2926.
9752	9.3356	5.8182	5.e-002	-24.189
9753	9.3356	5.9091	0.	-2811.7
9754	9.3356	5.5455	0.	-2914.2
9755	9.2441	5.6364	0.	-2973.5
9756	9.3356	5.6364	5.e-002	-21.465
9757	9.3356	5.3636	0.	-2993.9
9758	9.2441	5.4545	0.	-3037.7
9759	9.3356	5.4545	5.e-002	-20.589
9760	9.3356	5.1818	0.	-3091.9
9761	9.2441	5.2727	0.	-3118.7
9762	9.3356	5.2727	5.e-002	-19.609
9763	9.3356	5.	0.	-3206.5
9764	9.2441	5.0909	0.	-3215.3
9765	9.3356	5.0909	5.e-002	-18.355
9766	9.3356	4.8182	0.	-3334.6
9767	9.2441	4.9091	0.	-3325.2
9768	9.3356	4.9091	5.e-002	-16.832
9769	9.3356	4.6364	0.	-3471.8
9770	9.2441	4.7273	0.	-3444.9
9771	9.3356	4.7273	5.e-002	-15.135
9772	9.3356	4.4545	0.	-3613.4
9773	9.2441	4.5455	0.	-3570.5
9774	9.3356	4.5455	5.e-002	-13.471
9775	9.3356	4.2727	0.	-3753.9
9776	9.2441	4.3636	0.	-3697.2
9777	9.3356	4.3636	5.e-002	-12.108
9778	9.3356	4.0909	0.	-3888.3
9779	9.2441	4.1818	0.	-3820.3
9780	9.3356	4.1818	5.e-002	-11.251
9781	9.3356	3.9091	0.	-4011.9
9782	9.2441	4.	0.	-3935.7
9783	9.3356	4.	5.e-002	-10.931
9784	9.3356	3.7273	0.	-4120.4
9785	9.2441	3.8182	0.	-4039.5
9786	9.3356	3.8182	5.e-002	-11.054
9787	9.3356	3.5455	0.	-4209.9
9788	9.2441	3.6364	0.	-4128.1
9789	9.3356	3.6364	5.e-002	-11.495
9790	9.3356	3.3636	0.	-4276.8
9791	9.2441	3.4545	0.	-4198.2
9792	9.3356	3.4545	5.e-002	-12.092
9793	9.3356	3.1818	0.	-4318.2
9794	9.2441	3.2727	0.	-4246.8
9795	9.3356	3.2727	5.e-002	-12.639
9796	9.3356	3.	0.	-4332.2
9797	9.2441	3.0909	0.	-4271.6
9798	9.3356	3.0909	5.e-002	-12.961
9799	9.3356	2.8182	0.	-4318.2
9800	9.2441	2.9091	0.	-4271.6
9801	9.3356	2.9091	5.e-002	-12.961
9802	9.3356	2.6364	0.	-4276.8
9803	9.2441	2.7273	0.	-4246.8
9804	9.3356	2.7273	5.e-002	-12.639
9805	9.3356	2.4545	0.	-4209.9
9806	9.2441	2.5455	0.	-4198.2
9807	9.3356	2.5455	5.e-002	-12.092
9808	9.3356	2.2727	0.	-4120.4
9809	9.2441	2.3636	0.	-4128.1
9810	9.3356	2.3636	5.e-002	-11.495
9811	9.3356	2.0909	0.	-4011.9
9812	9.2441	2.1818	0.	-4039.5
9813	9.3356	2.1818	5.e-002	-11.054
9814	9.3356	1.9091	0.	-3888.3
9815	9.2441	2.	0.	-3935.7
9816	9.3356	2.	5.e-002	-10.931
9817	9.3356	1.7273	0.	-3753.9
9818	9.2441	1.8182	0.	-3820.3
9819	9.3356	1.8182	5.e-002	-11.251
9820	9.3356	1.5455	0.	-3613.4
9821	9.2441	1.6364	0.	-3697.2
9822	9.3356	1.6364	5.e-002	-12.108
9823	9.3356	1.3636	0.	-3471.8
9824	9.2441	1.4545	0.	-3570.5
9825	9.3356	1.4545	5.e-002	-13.471
9826	9.3356	1.1818	0.	-3334.6
9827	9.2441	1.2727	0.	-3444.9
9828	9.3356	1.2727	5.e-002	-15.135
9829	9.3356	1.	0.	-3206.5
9830	9.2441	1.0909	0.	-3325.2
9831	9.3356	1.0909	5.e-002	-16.832
9832	9.3356	0.81818	0.	-3091.9
9833	9.2441	0.90909	0.	-3215.3
9834	9.3356	0.90909	5.e-002	-18.355
9835	9.3356	0.63636	0.	-2993.9
9836	9.2441	0.72727	0.	-3118.7
9837	9.3356	0.72727	5.e-002	-19.609
9838	9.3356	0.45455	0.	-2914.2
9839	9.2441	0.54545	0.	-3037.7
9840	9.3356	0.54545	5.e-002	-20.589
9841	9.3356	0.27273	0.	-2853.5
9842	9.2441	0.36364	0.	-2973.5
9843	9.3356	0.36364	5.e-002	-21.465
9844	9.2441	0.18182	0.	-2926.
9845	9.3356	0.18182	5.e-002	-24.189
9846	9.3356	9.0909e-002	0.	-2811.7
9847	9.1525	5.7273	0.	-3046.2
9848	9.061	5.8182	0.	-3109.8
9849	9.1525	5.8182	5.e-002	-20.571
9850	9.1525	5.9091	0.	-3011.2
9851	9.1525	5.5455	0.	-3097.4
9852	9.061	5.6364	0.	-3150.3
9853	9.1525	5.6364	5.e-002	-18.654
9854	9.1525	5.3636	0.	-3163.3
9855	9.061	5.4545	0.	-3203.7
9856	9.1525	5.4545	5.e-002	-17.853
9857	9.1525	5.1818	0.	-3243.1
9858	9.061	5.2727	0.	-3269.9
9859	9.1525	5.2727	5.e-002	-16.931
9860	9.1525	5.	0.	-3335.2
9861	9.061	5.0909	0.	-3347.8
9862	9.1525	5.0909	5.e-002	-15.794
9863	9.1525	4.8182	0.	-3436.8
9864	9.061	4.9091	0.	-3435.4
9865	9.1525	4.9091	5.e-002	-14.464
9866	9.1525	4.6364	0.	-3544.8
9867	9.061	4.7273	0.	-3529.9
9868	9.1525	4.7273	5.e-002	-13.02
9869	9.1525	4.4545	0.	-3655.3
9870	9.061	4.5455	0.	-3628.1
9871	9.1525	4.5455	5.e-002	-11.595
9872	9.1525	4.2727	0.	-3764.4
9873	9.061	4.3636	0.	-3726.6
9874	9.1525	4.3636	5.e-002	-10.338
9875	9.1525	4.0909	0.	-3868.4
9876	9.061	4.1818	0.	-3822.
9877	9.1525	4.1818	5.e-002	-9.3652
9878	9.1525	3.9091	0.	-3963.8
9879	9.061	4.	0.	-3911.1
9880	9.1525	4.	5.e-002	-8.7281
9881	9.1525	3.7273	0.	-4047.4
9882	9.061	3.8182	0.	-3991.
9883	9.1525	3.8182	5.e-002	-8.4272
9884	9.1525	3.5455	0.	-4116.4
9885	9.061	3.6364	0.	-4059.2
9886	9.1525	3.6364	5.e-002	-8.4274
9887	9.1525	3.3636	0.	-4168.
9888	9.061	3.4545	0.	-4113.
9889	9.1525	3.4545	5.e-002	-8.6365
9890	9.1525	3.1818	0.	-4200.
9891	9.061	3.2727	0.	-4150.4
9892	9.1525	3.2727	5.e-002	-8.9057
9893	9.1525	3.	0.	-4210.8
9894	9.061	3.0909	0.	-4169.5
9895	9.1525	3.0909	5.e-002	-9.085
9896	9.1525	2.8182	0.	-4200.
9897	9.061	2.9091	0.	-4169.5
9898	9.1525	2.9091	5.e-002	-9.085
9899	9.1525	2.6364	0.	-4168.
9900	9.061	2.7273	0.	-4150.4
9901	9.1525	2.7273	5.e-002	-8.9057
9902	9.1525	2.4545	0.	-4116.4
9903	9.061	2.5455	0.	-4113.
9904	9.1525	2.5455	5.e-002	-8.6366
9905	9.1525	2.2727	0.	-4047.4
9906	9.061	2.3636	0.	-4059.2
9907	9.1525	2.3636	5.e-002	-8.4274
9908	9.1525	2.0909	0.	-3963.8
9909	9.061	2.1818	0.	-3991.
9910	9.1525	2.1818	5.e-002	-8.4271
9911	9.1525	1.9091	0.	-3868.4
9912	9.061	2.	0.	-3911.1
9913	9.1525	2.	5.e-002	-8.7281
9914	9.1525	1.7273	0.	-3764.4
9915	9.061	1.8182	0.	-3822.
9916	9.1525	1.8182	5.e-002	-9.3652
9917	9.1525	1.5455	0.	-3655.3
9918	9.061	1.6364	0.	-3726.6
9919	9.1525	1.6364	5.e-002	-10.338
9920	9.1525	1.3636	0.	-3544.8
9921	9.061	1.4545	0.	-3628.1
9922	9.1525	1.4545	5.e-002	-11.595
9923	9.1525	1.1818	0.	-3436.8
9924	9.061	1.2727	0.	-3529.9
9925	9.1525	1.2727	5.e-002	-13.02
9926	9.1525	1.	0.	-3335.2
9927	9.061	1.0909	0.	-3435.4
9928	9.1525	1.0909	5.e-002	-14.464
9929	9.1525	0.81818	0.	-3243.1
9930	9.061	0.90909	0.	-3347.8
9931	9.1525	0.90909	5.e-002	-15.794
9932	9.1525	0.63636	0.	-3163.3
9933	9.061	0.72727	0.	-3269.9
9934	9.1525	0.72727	5.e-002	-16.931
9935	9.1525	0.45455	0.	-3097.4
9936	9.061	0.54545	0.	-3203.7
9937	9.1525	0.54545	5.e-002	-17.853
9938	9.1525	0.27273	0.	-3046.2
9939	9.061	0.36364	0.	-3150.3
9940	9.1525	0.36364	5.e-002	-18.654
9941	9.061	0.18182	0.	-3109.8
9942	9.1525	0.18182	5.e-002	-20.571
9943	9.1525	9.0909e-002	0.	-3011.2
9944	8.9695	5.7273	0.	-3214.1
9945	8.878	5.8182	0.	-3270.6
9946	8.9695	5.8182	5.e-002	-17.399
9947	8.9695	5.9091	0.	-3185.1
9948	8.9695	5.5455	0.	-3256.8
9949	8.878	5.6364	0.	-3304.4
9950	8.9695	5.6364	5.e-002	-16.248
9951	8.9695	5.3636	0.	-3310.8
9952	8.878	5.4545	0.	-3348.3
9953	8.9695	5.4545	5.e-002	-15.56
9954	8.9695	5.1818	0.	-3375.3
9955	8.878	5.2727	0.	-3402.1
9956	8.9695	5.2727	5.e-002	-14.741
9957	8.9695	5.	0.	-3448.8
9958	8.878	5.0909	0.	-3464.5
9959	8.9695	5.0909	5.e-002	-13.752
9960	8.9695	4.8182	0.	-3529.2
9961	8.878	4.9091	0.	-3534.
9962	8.9695	4.9091	5.e-002	-12.62
9963	8.9695	4.6364	0.	-3613.9
9964	8.878	4.7273	0.	-3608.2
9965	8.9695	4.7273	5.e-002	-11.401
9966	8.9695	4.4545	0.	-3700.
9967	8.878	4.5455	0.	-3684.9
9968	8.9695	4.5455	5.e-002	-10.174
9969	8.9695	4.2727	0.	-3784.7
9970	8.878	4.3636	0.	-3761.4
9971	8.9695	4.3636	5.e-002	-9.022
9972	8.9695	4.0909	0.	-3865.
9973	8.878	4.1818	0.	-3835.2
9974	8.9695	4.1818	5.e-002	-8.007
9975	8.9695	3.9091	0.	-3938.6
9976	8.878	4.	0.	-3903.9
9977	8.9695	4.	5.e-002	-7.1708
9978	8.9695	3.7273	0.	-4002.9
9979	8.878	3.8182	0.	-3965.3
9980	8.9695	3.8182	5.e-002	-6.5455
9981	8.9695	3.5455	0.	-4055.8
9982	8.878	3.6364	0.	-4017.6
9983	8.9695	3.6364	5.e-002	-6.1551
9984	8.9695	3.3636	0.	-4095.3
9985	8.878	3.4545	0.	-4058.7
9986	8.9695	3.4545	5.e-002	-5.9863
9987	8.9695	3.1818	0.	-4119.8
9988	8.878	3.2727	0.	-4087.2
9989	8.9695	3.2727	5.e-002	-5.9656
9990	8.9695	3.	0.	-4128.
9991	8.878	3.0909	0.	-4101.7
9992	8.9695	3.0909	5.e-002	-5.9907
9993	8.9695	2.8182	0.	-4119.8
9994	8.878	2.9091	0.	-4101.7
9995	8.9695	2.9091	5.e-002	-5.9907
9996	8.9695	2.6364	0.	-4095.3
9997	8.878	2.7273	0.	-4087.2
9998	8.9695	2.7273	5.e-002	-5.9657
9999	8.9695	2.4545	0.	-4055.8
10000	8.878	2.5455	0.	-4058.7
10001	8.9695	2.5455	5.e-002	-5.9863
10002	8.9695	2.2727	0.	-4002.9
10003	8.878	2.3636	0.	-4017.6
10004	8.9695	2.3636	5.e-002	-6.1551
10005	8.9695	2.0909	0.	-3938.6
10006	8.878	2.1818	0.	-3965.3
10007	8.9695	2.1818	5.e-002	-6.5455
10008	8.9695	1.9091	0.	-3865.
10009	8.878	2.	0.	-3903.9
10010	8.9695	2.	5.e-002	-7.1708
10011	8.9695	1.7273	0.	-3784.7
10012	8.878	1.8182	0.	-3835.2
10013	8.9695	1.8182	5.e-002	-8.007
10014	8.9695	1.5455	0.	-3700.
10015	8.878	1.6364	0.	-3761.4
10016	8.9695	1.6364	5.e-002	-9.0219
10017	8.9695	1.3636	0.	-3613.9
10018	8.878	1.4545	0.	-3684.9
10019	8.9695	1.4545	5.e-002	-10.174
10020	8.9695	1.1818	0.	-3529.2
10021	8.878	1.2727	0.	-3608.2
10022	8.9695	1.2727	5.e-002	-11.401
10023	8.9695	1.	0.	-3448.8
10024	8.878	1.0909	0.	-3534.
10025	8.9695	1.0909	5.e-002	-12.62
10026	8.9695	0.81818	0.	-3375.3
10027	8.878	0.90909	0.	-3464.5
10028	8.9695	0.90909	5.e-002	-13.752
10029	8.9695	0.63636	0.	-3310.8
10030	8.878	0.72727	0.	-3402.1
10031	8.9695	0.72727	5.e-002	-14.741
10032	8.9695	0.45455	0.	-3256.8
10033	8.878	0.54545	0.	-3348.3
10034	8.9695	0.54545	5.e-002	-15.56
10035	8.9695	0.27273	0.	-3214.1
10036	8.878	0.36364	0.	-3304.4
10037	8.9695	0.36364	5.e-002	-16.248
10038	8.878	0.18182	0.	-3270.6
10039	8.9695	0.18182	5.e-002	-17.399
10040	8.9695	9.0909e-002	0.	-3185.1
10041	8.7864	5.7273	0.	-3361.
10042	8.6949	5.8182	0.	-3411.7
10043	8.7864	5.8182	5.e-002	-14.677
10044	8.7864	5.9091	0.	-3337.1
10045	8.7864	5.5455	0.	-3396.1
10046	8.6949	5.6364	0.	-3439.6
10047	8.7864	5.6364	5.e-002	-14.225
10048	8.7864	5.3636	0.	-3439.9
10049	8.6949	5.4545	0.	-3475.3
10050	8.7864	5.4545	5.e-002	-13.664
10051	8.7864	5.1818	0.	-3491.7
10052	8.6949	5.2727	0.	-3518.6
10053	8.7864	5.2727	5.e-002	-12.964
10054	8.7864	5.	0.	-3550.1
10055	8.6949	5.0909	0.	-3568.3
10056	8.7864	5.0909	5.e-002	-12.126
10057	8.7864	4.8182	0.	-3613.4
10058	8.6949	4.9091	0.	-3623.1
10059	8.7864	4.9091	5.e-002	-11.176
10060	8.7864	4.6364	0.	-3679.7
10061	8.6949	4.7273	0.	-3681.2
10062	8.7864	4.7273	5.e-002	-10.151
10063	8.7864	4.4545	0.	-3746.6
10064	8.6949	4.5455	0.	-3740.9
10065	8.7864	4.5455	5.e-002	-9.0973
10066	8.7864	4.2727	0.	-3812.2
10067	8.6949	4.3636	0.	-3800.1
10068	8.7864	4.3636	5.e-002	-8.0563
10069	8.7864	4.0909	0.	-3874.2
10070	8.6949	4.1818	0.	-3857.
10071	8.7864	4.1818	5.e-002	-7.0589
10072	8.7864	3.9091	0.	-3930.7
10073	8.6949	4.	0.	-3909.8
10074	8.7864	4.	5.e-002	-6.1274
10075	8.7864	3.7273	0.	-3980.
10076	8.6949	3.8182	0.	-3956.9
10077	8.7864	3.8182	5.e-002	-5.2875
10078	8.7864	3.5455	0.	-4020.4
10079	8.6949	3.6364	0.	-3996.8
10080	8.7864	3.6364	5.e-002	-4.5779
10081	8.7864	3.3636	0.	-4050.5
10082	8.6949	3.4545	0.	-4028.1
10083	8.7864	3.4545	5.e-002	-4.0413
10084	8.7864	3.1818	0.	-4069.1
10085	8.6949	3.2727	0.	-4049.7
10086	8.7864	3.2727	5.e-002	-3.6998
10087	8.7864	3.	0.	-4075.3
10088	8.6949	3.0909	0.	-4060.7
10089	8.7864	3.0909	5.e-002	-3.541
10090	8.7864	2.8182	0.	-4069.1
10091	8.6949	2.9091	0.	-4060.7
10092	8.7864	2.9091	5.e-002	-3.541
10093	8.7864	2.6364	0.	-4050.5
10094	8.6949	2.7273	0.	-4049.7
10095	8.7864	2.7273	5.e-002	-3.6998
10096	8.7864	2.4545	0.	-4020.4
10097	8.6949	2.5455	0.	-4028.1
10098	8.7864	2.5455	5.e-002	-4.0413
10099	8.7864	2.2727	0.	-3980.
10100	8.6949	2.3636	0.	-3996.8
10101	8.7864	2.3636	5.e-002	-4.5778
10102	8.7864	2.0909	0.	-3930.7
10103	8.6949	2.1818	0.	-3956.9
10104	8.7864	2.1818	5.e-002	-5.2875
10105	8.7864	1.9091	0.	-3874.2
10106	8.6949	2.	0.	-3909.8
10107	8.7864	2.	5.e-002	-6.1274
10108	8.7864	1.7273	0.	-3812.2
10109	8.6949	1.8182	0.	-3857.
10110	8.7864	1.8182	5.e-002	-7.0589
10111	8.7864	1.5455	0.	-3746.6
10112	8.6949	1.6364	0.	-3800.1
10113	8.7864	1.6364	5.e-002	-8.0563
10114	8.7864	1.3636	0.	-3679.7
10115	8.6949	1.4545	0.	-3740.9
10116	8.7864	1.4545	5.e-002	-9.0973
10117	8.7864	1.1818	0.	-3613.4
10118	8.6949	1.2727	0.	-3681.2
10119	8.7864	1.2727	5.e-002	-10.151
10120	8.7864	1.	0.	-3550.1
10121	8.6949	1.0909	0.	-3623.1
10122	8.7864	1.0909	5.e-002	-11.176
10123	8.7864	0.81818	0.	-3491.7
10124	8.6949	0.90909	0.	-3568.3
10125	8.7864	0.90909	5.e-002	-12.126
10126	8.7864	0.63636	0.	-3439.9
10127	8.6949	0.72727	0.	-3518.6
10128	8.7864	0.72727	5.e-002	-12.964
10129	8.7864	0.45455	0.	-3396.1
10130	8.6949	0.54545	0.	-3475.3
10131	8.7864	0.54545	5.e-002	-13.664
10132	8.7864	0.27273	0.	-3361.
10133	8.6949	0.36364	0.	-3439.6
10134	8.7864	0.36364	5.e-002	-14.225
10135	8.6949	0.18182	0.	-3411.7
10136	8.7864	0.18182	5.e-002	-14.677
10137	8.7864	9.0909e-002	0.	-3337.1
10138	8.6034	5.7273	0.	-3490.4
10139	8.5119	5.8182	0.	-3536.6
10140	8.6034	5.8182	5.e-002	-12.384
10141	8.6034	5.9091	0.	-3471.
10142	8.6034	5.5455	0.	-3519.
10143	8.5119	5.6364	0.	-3559.2
10144	8.6034	5.6364	5.e-002	-12.546
10145	8.6034	5.3636	0.	-3554.2
10146	8.5119	5.4545	0.	-3587.9
10147	8.6034	5.4545	5.e-002	-12.113
10148	8.6034	5.1818	0.	-3595.4
10149	8.5119	5.2727	0.	-3622.4
10150	8.6034	5.2727	5.e-002	-11.53
10151	8.6034	5.	0.	-3641.5
10152	8.5119	5.0909	0.	-3661.7
10153	8.6034	5.0909	5.e-002	-10.834
10154	8.6034	4.8182	0.	-3691.1
10155	8.5119	4.9091	0.	-3704.7
10156	8.6034	4.9091	5.e-002	-10.045
10157	8.6034	4.6364	0.	-3742.7
10158	8.5119	4.7273	0.	-3750.
10159	8.6034	4.7273	5.e-002	-9.1867
10160	8.6034	4.4545	0.	-3794.6
10161	8.5119	4.5455	0.	-3796.2
10162	8.6034	4.5455	5.e-002	-8.2858
10163	8.6034	4.2727	0.	-3845.2
10164	8.5119	4.3636	0.	-3841.9
10165	8.6034	4.3636	5.e-002	-7.3625
10166	8.6034	4.0909	0.	-3892.8
10167	8.5119	4.1818	0.	-3885.6
10168	8.6034	4.1818	5.e-002	-6.4295
10169	8.6034	3.9091	0.	-3936.1
10170	8.5119	4.	0.	-3926.
10171	8.6034	4.	5.e-002	-5.4941
10172	8.6034	3.7273	0.	-3973.8
10173	8.5119	3.8182	0.	-3961.9
10174	8.6034	3.8182	5.e-002	-4.5653
10175	8.6034	3.5455	0.	-4004.5
10176	8.5119	3.6364	0.	-3992.2
10177	8.6034	3.6364	5.e-002	-3.6612
10178	8.6034	3.3636	0.	-4027.3
10179	8.5119	3.4545	0.	-4015.9
10180	8.6034	3.4545	5.e-002	-2.8157
10181	8.6034	3.1818	0.	-4041.3
10182	8.5119	3.2727	0.	-4032.2
10183	8.6034	3.2727	5.e-002	-2.0924
10184	8.6034	3.	0.	-4046.1
10185	8.5119	3.0909	0.	-4040.5
10186	8.6034	3.0909	5.e-002	-1.6276
10187	8.6034	2.8182	0.	-4041.3
10188	8.5119	2.9091	0.	-4040.5
10189	8.6034	2.9091	5.e-002	-1.6276
10190	8.6034	2.6364	0.	-4027.3
10191	8.5119	2.7273	0.	-4032.2
10192	8.6034	2.7273	5.e-002	-2.0924
10193	8.6034	2.4545	0.	-4004.5
10194	8.5119	2.5455	0.	-4015.9
10195	8.6034	2.5455	5.e-002	-2.8156
10196	8.6034	2.2727	0.	-3973.8
10197	8.5119	2.3636	0.	-3992.2
10198	8.6034	2.3636	5.e-002	-3.6612
10199	8.6034	2.0909	0.	-3936.1
10200	8.5119	2.1818	0.	-3961.9
10201	8.6034	2.1818	5.e-002	-4.5653
10202	8.6034	1.9091	0.	-3892.8
10203	8.5119	2.	0.	-3926.
10204	8.6034	2.	5.e-002	-5.4941
10205	8.6034	1.7273	0.	-3845.2
10206	8.5119	1.8182	0.	-3885.6
10207	8.6034	1.8182	5.e-002	-6.4295
10208	8.6034	1.5455	0.	-3794.6
10209	8.5119	1.6364	0.	-3841.9
10210	8.6034	1.6364	5.e-002	-7.3625
10211	8.6034	1.3636	0.	-3742.7
10212	8.5119	1.4545	0.	-3796.2
10213	8.6034	1.4545	5.e-002	-8.2858
10214	8.6034	1.1818	0.	-3691.1
10215	8.5119	1.2727	0.	-3750.
10216	8.6034	1.2727	5.e-002	-9.1867
10217	8.6034	1.	0.	-3641.5
10218	8.5119	1.0909	0.	-3704.7
10219	8.6034	1.0909	5.e-002	-10.045
10220	8.6034	0.81818	0.	-3595.4
10221	8.5119	0.90909	0.	-3661.7
10222	8.6034	0.90909	5.e-002	-10.834
10223	8.6034	0.63636	0.	-3554.2
10224	8.5119	0.72727	0.	-3622.4
10225	8.6034	0.72727	5.e-002	-11.53
10226	8.6034	0.45455	0.	-3519.
10227	8.5119	0.54545	0.	-3587.9
10228	8.6034	0.54545	5.e-002	-12.113
10229	8.6034	0.27273	0.	-3490.4
10230	8.5119	0.36364	0.	-3559.2
10231	8.6034	0.36364	5.e-002	-12.546
10232	8.5119	0.18182	0.	-3536.6
10233	8.6034	0.18182	5.e-002	-12.384
10234	8.6034	9.0909e-002	0.	-3471.
10235	8.4203	5.7273	0.	-3605.4
10236	8.3288	5.8182	0.	-3648.
10237	8.4203	5.8182	5.e-002	-10.481
10238	8.4203	5.9091	0.	-3589.7
10239	8.4203	5.5455	0.	-3628.3
10240	8.3288	5.6364	0.	-3666.
10241	8.4203	5.6364	5.e-002	-11.168
10242	8.4203	5.3636	0.	-3656.3
10243	8.3288	5.4545	0.	-3688.9
10244	8.4203	5.4545	5.e-002	-10.853
10245	8.4203	5.1818	0.	-3688.9
10246	8.3288	5.2727	0.	-3716.1
10247	8.4203	5.2727	5.e-002	-10.38
10248	8.4203	5.	0.	-3725.
10249	8.3288	5.0909	0.	-3746.8
10250	8.4203	5.0909	5.e-002	-9.8091
10251	8.4203	4.8182	0.	-3763.6
10252	8.3288	4.9091	0.	-3780.3
10253	8.4203	4.9091	5.e-002	-9.1589
10254	8.4203	4.6364	0.	-3803.6
10255	8.3288	4.7273	0.	-3815.3
10256	8.4203	4.7273	5.e-002	-8.4447
10257	8.4203	4.4545	0.	-3843.6
10258	8.3288	4.5455	0.	-3850.9
10259	8.4203	4.5455	5.e-002	-7.6809
10260	8.4203	4.2727	0.	-3882.4
10261	8.3288	4.3636	0.	-3885.9
10262	8.4203	4.3636	5.e-002	-6.8777
10263	8.4203	4.0909	0.	-3918.8
10264	8.3288	4.1818	0.	-3919.3
10265	8.4203	4.1818	5.e-002	-6.0403
10266	8.4203	3.9091	0.	-3951.8
10267	8.3288	4.	0.	-3950.1
10268	8.4203	4.	5.e-002	-5.1704
10269	8.4203	3.7273	0.	-3980.4
10270	8.3288	3.8182	0.	-3977.3
10271	8.4203	3.8182	5.e-002	-4.2698
10272	8.4203	3.5455	0.	-4003.6
10273	8.3288	3.6364	0.	-4000.2
10274	8.4203	3.6364	5.e-002	-3.3429
10275	8.4203	3.3636	0.	-4020.8
10276	8.3288	3.4545	0.	-4018.
10277	8.4203	3.4545	5.e-002	-2.3974
10278	8.4203	3.1818	0.	-4031.4
10279	8.3288	3.2727	0.	-4030.3
10280	8.4203	3.2727	5.e-002	-1.4412
10281	8.4203	3.	0.	-4035.
10282	8.3288	3.0909	0.	-4036.5
10283	8.4203	3.0909	5.e-002	-0.48077
10284	8.4203	2.8182	0.	-4031.4
10285	8.3288	2.9091	0.	-4036.5
10286	8.4203	2.9091	5.e-002	-0.48076
10287	8.4203	2.6364	0.	-4020.8
10288	8.3288	2.7273	0.	-4030.3
10289	8.4203	2.7273	5.e-002	-1.4412
10290	8.4203	2.4545	0.	-4003.6
10291	8.3288	2.5455	0.	-4018.
10292	8.4203	2.5455	5.e-002	-2.3974
10293	8.4203	2.2727	0.	-3980.4
10294	8.3288	2.3636	0.	-4000.2
10295	8.4203	2.3636	5.e-002	-3.3429
10296	8.4203	2.0909	0.	-3951.8
10297	8.3288	2.1818	0.	-3977.3
10298	8.4203	2.1818	5.e-002	-4.2698
10299	8.4203	1.9091	0.	-3918.8
10300	8.3288	2.	0.	-3950.1
10301	8.4203	2.	5.e-002	-5.1704
10302	8.4203	1.7273	0.	-3882.4
10303	8.3288	1.8182	0.	-3919.3
10304	8.4203	1.8182	5.e-002	-6.0403
10305	8.4203	1.5455	0.	-3843.6
10306	8.3288	1.6364	0.	-3885.9
10307	8.4203	1.6364	5.e-002	-6.8777
10308	8.4203	1.3636	0.	-3803.6
10309	8.3288	1.4545	0.	-3850.9
10310	8.4203	1.4545	5.e-002	-7.6809
10311	8.4203	1.1818	0.	-3763.6
10312	8.3288	1.2727	0.	-3815.3
10313	8.4203	1.2727	5.e-002	-8.4447
10314	8.4203	1.	0.	-3725.
10315	8.3288	1.0909	0.	-3780.3
10316	8.4203	1.0909	5.e-002	-9.1589
10317	8.4203	0.81818	0.	-3688.9
10318	8.3288	0.90909	0.	-3746.8
10319	8.4203	0.90909	5.e-002	-9.8091
10320	8.4203	0.63636	0.	-3656.3
10321	8.3288	0.72727	0.	-3716.1
10322	8.4203	0.72727	5.e-002	-10.38
10323	8.4203	0.45455	0.	-3628.3
10324	8.3288	0.54545	0.	-3688.9
10325	8.4203	0.54545	5.e-002	-10.853
10326	8.4203	0.27273	0.	-3605.4
10327	8.3288	0.36364	0.	-3666.
10328	8.4203	0.36364	5.e-002	-11.168
10329	8.3288	0.18182	0.	-3648.
10330	8.4203	0.18182	5.e-002	-10.481
10331	8.4203	9.0909e-002	0.	-3589.7
10332	8.2373	5.7273	0.	-3708.7
10333	8.1458	5.8182	0.	-3748.5
10334	8.2373	5.8182	5.e-002	-8.9253
10335	8.2373	5.9091	0.	-3696.2
10336	8.2373	5.5455	0.	-3726.7
10337	8.1458	5.6364	0.	-3762.6
10338	8.2373	5.6364	5.e-002	-10.049
10339	8.2373	5.3636	0.	-3748.7
10340	8.1458	5.4545	0.	-3780.4
10341	8.2373	5.4545	5.e-002	-9.8387
10342	8.2373	5.1818	0.	-3774.1
10343	8.1458	5.2727	0.	-3801.6
10344	8.2373	5.2727	5.e-002	-9.4616
10345	8.2373	5.	0.	-3802.2
10346	8.1458	5.0909	0.	-3825.4
10347	8.2373	5.0909	5.e-002	-8.9995
10348	8.2373	4.8182	0.	-3832.
10349	8.1458	4.9091	0.	-3851.2
10350	8.2373	4.9091	5.e-002	-8.4681
10351	8.2373	4.6364	0.	-3862.7
10352	8.1458	4.7273	0.	-3878.1
10353	8.2373	4.7273	5.e-002	-7.8774
10354	8.2373	4.4545	0.	-3893.3
10355	8.1458	4.5455	0.	-3905.2
10356	8.2373	4.5455	5.e-002	-7.2362
10357	8.2373	4.2727	0.	-3922.9
10358	8.1458	4.3636	0.	-3931.8
10359	8.2373	4.3636	5.e-002	-6.5504
10360	8.2373	4.0909	0.	-3950.6
10361	8.1458	4.1818	0.	-3957.1
10362	8.2373	4.1818	5.e-002	-5.8236
10363	8.2373	3.9091	0.	-3975.5
10364	8.1458	4.	0.	-3980.3
10365	8.2373	4.	5.e-002	-5.0589
10366	8.2373	3.7273	0.	-3997.1
10367	8.1458	3.8182	0.	-4000.8
10368	8.2373	3.8182	5.e-002	-4.2615
10369	8.2373	3.5455	0.	-4014.6
10370	8.1458	3.6364	0.	-4017.9
10371	8.2373	3.6364	5.e-002	-3.4425
10372	8.2373	3.3636	0.	-4027.4
10373	8.1458	3.4545	0.	-4031.3
10374	8.2373	3.4545	5.e-002	-2.6254
10375	8.2373	3.1818	0.	-4035.4
10376	8.1458	3.2727	0.	-4040.4
10377	8.2373	3.2727	5.e-002	-1.8649
10378	8.2373	3.	0.	-4038.
10379	8.1458	3.0909	0.	-4045.1
10380	8.2373	3.0909	5.e-002	-1.318
10381	8.2373	2.8182	0.	-4035.4
10382	8.1458	2.9091	0.	-4045.1
10383	8.2373	2.9091	5.e-002	-1.318
10384	8.2373	2.6364	0.	-4027.4
10385	8.1458	2.7273	0.	-4040.4
10386	8.2373	2.7273	5.e-002	-1.8649
10387	8.2373	2.4545	0.	-4014.6
10388	8.1458	2.5455	0.	-4031.3
10389	8.2373	2.5455	5.e-002	-2.6255
10390	8.2373	2.2727	0.	-3997.1
10391	8.1458	2.3636	0.	-4017.9
10392	8.2373	2.3636	5.e-002	-3.4425
10393	8.2373	2.0909	0.	-3975.5
10394	8.1458	2.1818	0.	-4000.8
10395	8.2373	2.1818	5.e-002	-4.2615
10396	8.2373	1.9091	0.	-3950.6
10397	8.1458	2.	0.	-3980.3
10398	8.2373	2.	5.e-002	-5.0589
10399	8.2373	1.7273	0.	-3922.9
10400	8.1458	1.8182	0.	-3957.1
10401	8.2373	1.8182	5.e-002	-5.8236
10402	8.2373	1.5455	0.	-3893.3
10403	8.1458	1.6364	0.	-3931.8
10404	8.2373	1.6364	5.e-002	-6.5504
10405	8.2373	1.3636	0.	-3862.7
10406	8.1458	1.4545	0.	-3905.2
10407	8.2373	1.4545	5.e-002	-7.2362
10408	8.2373	1.1818	0.	-3832.
10409	8.1458	1.2727	0.	-3878.1
10410	8.2373	1.2727	5.e-002	-7.8774
10411	8.2373	1.	0.	-3802.2
10412	8.1458	1.0909	0.	-3851.2
10413	8.2373	1.0909	5.e-002	-8.4681
10414	8.2373	0.81818	0.	-3774.1
10415	8.1458	0.90909	0.	-3825.4
10416	8.2373	0.90909	5.e-002	-8.9995
10417	8.2373	0.63636	0.	-3748.7
10418	8.1458	0.72727	0.	-3801.6
10419	8.2373	0.72727	5.e-002	-9.4616
10420	8.2373	0.45455	0.	-3726.7
10421	8.1458	0.54545	0.	-3780.4
10422	8.2373	0.54545	5.e-002	-9.8387
10423	8.2373	0.27273	0.	-3708.7
10424	8.1458	0.36364	0.	-3762.6
10425	8.2373	0.36364	5.e-002	-10.049
10426	8.1458	0.18182	0.	-3748.5
10427	8.2373	0.18182	5.e-002	-8.9253
10428	8.2373	9.0909e-002	0.	-3696.2
10429	8.0542	5.7273	0.	-3802.4
10430	7.9627	5.8182	0.	-3840.2
10431	8.0542	5.8182	5.e-002	-7.6722
10432	8.0542	5.9091	0.	-3792.7
10433	8.0542	5.5455	0.	-3816.3
10434	7.9627	5.6364	0.	-3850.8
10435	8.0542	5.6364	5.e-002	-9.1485
10436	8.0542	5.3636	0.	-3833.3
10437	7.9627	5.4545	0.	-3864.5
10438	8.0542	5.4545	5.e-002	-9.027
10439	8.0542	5.1818	0.	-3852.9
10440	7.9627	5.2727	0.	-3880.7
10441	8.0542	5.2727	5.e-002	-8.7326
10442	8.0542	5.	0.	-3874.5
10443	7.9627	5.0909	0.	-3898.9
10444	8.0542	5.0909	5.e-002	-8.3629
10445	8.0542	4.8182	0.	-3897.3
10446	7.9627	4.9091	0.	-3918.5
10447	8.0542	4.9091	5.e-002	-7.932
10448	8.0542	4.6364	0.	-3920.6
10449	7.9627	4.7273	0.	-3938.8
10450	8.0542	4.7273	5.e-002	-7.4472
10451	8.0542	4.4545	0.	-3943.8
10452	7.9627	4.5455	0.	-3959.3
10453	8.0542	4.5455	5.e-002	-6.9144
10454	8.0542	4.2727	0.	-3966.1
10455	7.9627	4.3636	0.	-3979.3
10456	8.0542	4.3636	5.e-002	-6.3385
10457	8.0542	4.0909	0.	-3986.9
10458	7.9627	4.1818	0.	-3998.2
10459	8.0542	4.1818	5.e-002	-5.7241
10460	8.0542	3.9091	0.	-4005.6
10461	7.9627	4.	0.	-4015.5
10462	8.0542	4.	5.e-002	-5.0775
10463	8.0542	3.7273	0.	-4021.7
10464	7.9627	3.8182	0.	-4030.7
10465	8.0542	3.8182	5.e-002	-4.4098
10466	8.0542	3.5455	0.	-4034.7
10467	7.9627	3.6364	0.	-4043.4
10468	8.0542	3.6364	5.e-002	-3.7415
10469	8.0542	3.3636	0.	-4044.3
10470	7.9627	3.4545	0.	-4053.3
10471	8.0542	3.4545	5.e-002	-3.1095
10472	8.0542	3.1818	0.	-4050.1
10473	7.9627	3.2727	0.	-4060.
10474	8.0542	3.2727	5.e-002	-2.5805
10475	8.0542	3.	0.	-4052.1
10476	7.9627	3.0909	0.	-4063.4
10477	8.0542	3.0909	5.e-002	-2.2618
10478	8.0542	2.8182	0.	-4050.1
10479	7.9627	2.9091	0.	-4063.4
10480	8.0542	2.9091	5.e-002	-2.2618
10481	8.0542	2.6364	0.	-4044.3
10482	7.9627	2.7273	0.	-4060.
10483	8.0542	2.7273	5.e-002	-2.5805
10484	8.0542	2.4545	0.	-4034.7
10485	7.9627	2.5455	0.	-4053.3
10486	8.0542	2.5455	5.e-002	-3.1095
10487	8.0542	2.2727	0.	-4021.7
10488	7.9627	2.3636	0.	-4043.4
10489	8.0542	2.3636	5.e-002	-3.7415
10490	8.0542	2.0909	0.	-4005.6
10491	7.9627	2.1818	0.	-4030.7
10492	8.0542	2.1818	5.e-002	-4.4098
10493	8.0542	1.9091	0.	-3986.9
10494	7.9627	2.	0.	-4015.5
10495	8.0542	2.	5.e-002	-5.0775
10496	8.0542	1.7273	0.	-3966.1
10497	7.9627	1.8182	0.	-3998.2
10498	8.0542	1.8182	5.e-002	-5.7241
10499	8.0542	1.5455	0.	-3943.8
10500	7.9627	1.6364	0.	-3979.3
10501	8.0542	1.6364	5.e-002	-6.3385
10502	8.0542	1.3636	0.	-3920.6
10503	7.9627	1.4545	0.	-3959.3
10504	8.0542	1.4545	5.e-002	-6.9144
10505	8.0542	1.1818	0.	-3897.3
10506	7.9627	1.2727	0.	-3938.8
10507	8.0542	1.2727	5.e-002	-7.4473
10508	8.0542	1.	0.	-3874.5
10509	7.9627	1.0909	0.	-3918.5
10510	8.0542	1.0909	5.e-002	-7.9321
10511	8.0542	0.81818	0.	-3852.9
10512	7.9627	0.90909	0.	-3898.9
10513	8.0542	0.90909	5.e-002	-8.3629
10514	8.0542	0.63636	0.	-3833.3
10515	7.9627	0.72727	0.	-3880.7
10516	8.0542	0.72727	5.e-002	-8.7326
10517	8.0542	0.45455	0.	-3816.3
10518	7.9627	0.54545	0.	-3864.5
10519	8.0542	0.54545	5.e-002	-9.027
10520	8.0542	0.27273	0.	-3802.4
10521	7.9627	0.36364	0.	-3850.8
10522	8.0542	0.36364	5.e-002	-9.1485
10523	7.9627	0.18182	0.	-3840.2
10524	8.0542	0.18182	5.e-002	-7.6722
10525	8.0542	9.0909e-002	0.	-3792.7
10526	7.8712	5.7273	0.	-3888.6
10527	7.7797	5.8182	0.	-3924.8
10528	7.8712	5.8182	5.e-002	-6.6818
10529	7.8712	5.9091	0.	-3881.3
10530	7.8712	5.5455	0.	-3899.
10531	7.7797	5.6364	0.	-3932.5
10532	7.8712	5.6364	5.e-002	-8.4315
10533	7.8712	5.3636	0.	-3911.9
10534	7.7797	5.4545	0.	-3942.6
10535	7.8712	5.4545	5.e-002	-8.3828
10536	7.8712	5.1818	0.	-3926.7
10537	7.7797	5.2727	0.	-3954.7
10538	7.8712	5.2727	5.e-002	-8.1578
10539	7.8712	5.	0.	-3942.9
10540	7.7797	5.0909	0.	-3968.3
10541	7.8712	5.0909	5.e-002	-7.8656
10542	7.8712	4.8182	0.	-3960.
10543	7.7797	4.9091	0.	-3982.9
10544	7.8712	4.9091	5.e-002	-7.5193
10545	7.8712	4.6364	0.	-3977.5
10546	7.7797	4.7273	0.	-3998.
10547	7.8712	4.7273	5.e-002	-7.1245
10548	7.8712	4.4545	0.	-3994.8
10549	7.7797	4.5455	0.	-4013.2
10550	7.8712	4.5455	5.e-002	-6.6862
10551	7.8712	4.2727	0.	-4011.4
10552	7.7797	4.3636	0.	-4027.9
10553	7.8712	4.3636	5.e-002	-6.2093
10554	7.8712	4.0909	0.	-4026.8
10555	7.7797	4.1818	0.	-4041.8
10556	7.8712	4.1818	5.e-002	-5.6998
10557	7.8712	3.9091	0.	-4040.6
10558	7.7797	4.	0.	-4054.5
10559	7.8712	4.	5.e-002	-5.1668
10560	7.8712	3.7273	0.	-4052.4
10561	7.7797	3.8182	0.	-4065.6
10562	7.8712	3.8182	5.e-002	-4.6248
10563	7.8712	3.5455	0.	-4062.
10564	7.7797	3.6364	0.	-4074.9
10565	7.8712	3.6364	5.e-002	-4.0972
10566	7.8712	3.3636	0.	-4069.
10567	7.7797	3.4545	0.	-4082.1
10568	7.8712	3.4545	5.e-002	-3.6203
10569	7.8712	3.1818	0.	-4073.3
10570	7.7797	3.2727	0.	-4087.
10571	7.8712	3.2727	5.e-002	-3.2459
10572	7.8712	3.	0.	-4074.8
10573	7.7797	3.0909	0.	-4089.4
10574	7.8712	3.0909	5.e-002	-3.0354
10575	7.8712	2.8182	0.	-4073.3
10576	7.7797	2.9091	0.	-4089.4
10577	7.8712	2.9091	5.e-002	-3.0354
10578	7.8712	2.6364	0.	-4069.
10579	7.7797	2.7273	0.	-4087.
10580	7.8712	2.7273	5.e-002	-3.2459
10581	7.8712	2.4545	0.	-4062.
10582	7.7797	2.5455	0.	-4082.1
10583	7.8712	2.5455	5.e-002	-3.6203
10584	7.8712	2.2727	0.	-4052.4
10585	7.7797	2.3636	0.	-4074.9
10586	7.8712	2.3636	5.e-002	-4.0972
10587	7.8712	2.0909	0.	-4040.6
10588	7.7797	2.1818	0.	-4065.6
10589	7.8712	2.1818	5.e-002	-4.6248
10590	7.8712	1.9091	0.	-4026.8
10591	7.7797	2.	0.	-4054.5
10592	7.8712	2.	5.e-002	-5.1668
10593	7.8712	1.7273	0.	-4011.4
10594	7.7797	1.8182	0.	-4041.8
10595	7.8712	1.8182	5.e-002	-5.6998
10596	7.8712	1.5455	0.	-3994.8
10597	7.7797	1.6364	0.	-4027.9
10598	7.8712	1.6364	5.e-002	-6.2093
10599	7.8712	1.3636	0.	-3977.5
10600	7.7797	1.4545	0.	-4013.2
10601	7.8712	1.4545	5.e-002	-6.6862
10602	7.8712	1.1818	0.	-3960.
10603	7.7797	1.2727	0.	-3998.
10604	7.8712	1.2727	5.e-002	-7.1245
10605	7.8712	1.	0.	-3942.9
10606	7.7797	1.0909	0.	-3982.9
10607	7.8712	1.0909	5.e-002	-7.5193
10608	7.8712	0.81818	0.	-3926.7
10609	7.7797	0.90909	0.	-3968.3
10610	7.8712	0.90909	5.e-002	-7.8656
10611	7.8712	0.63636	0.	-3911.9
10612	7.7797	0.72727	0.	-3954.7
10613	7.8712	0.72727	5.e-002	-8.1579
10614	7.8712	0.45455	0.	-3899.
10615	7.7797	0.54545	0.	-3942.6
10616	7.8712	0.54545	5.e-002	-8.3829
10617	7.8712	0.27273	0.	-3888.6
10618	7.7797	0.36364	0.	-3932.5
10619	7.8712	0.36364	5.e-002	-8.4315
10620	7.7797	0.18182	0.	-3924.8
10621	7.8712	0.18182	5.e-002	-6.6819
10622	7.8712	9.0909e-002	0.	-3881.3
10623	7.6881	5.7273	0.	-3968.7
10624	7.5966	5.8182	0.	-4003.8
10625	7.6881	5.8182	5.e-002	-5.918
10626	7.6881	5.9091	0.	-3963.4
10627	7.6881	5.5455	0.	-3976.2
10628	7.5966	5.6364	0.	-4009.
10629	7.6881	5.6364	5.e-002	-7.8673
10630	7.6881	5.3636	0.	-3985.5
10631	7.5966	5.4545	0.	-4016.2
10632	7.6881	5.4545	5.e-002	-7.8766
10633	7.6881	5.1818	0.	-3996.4
10634	7.5966	5.2727	0.	-4024.9
10635	7.6881	5.2727	5.e-002	-7.7086
10636	7.6881	5.	0.	-4008.3
10637	7.5966	5.0909	0.	-4034.7
10638	7.6881	5.0909	5.e-002	-7.4804
10639	7.6881	4.8182	0.	-4020.9
10640	7.5966	4.9091	0.	-4045.2
10641	7.6881	4.9091	5.e-002	-7.2047
10642	7.6881	4.6364	0.	-4033.7
10643	7.5966	4.7273	0.	-4056.1
10644	7.6881	4.7273	5.e-002	-6.8859
10645	7.6881	4.4545	0.	-4046.3
10646	7.5966	4.5455	0.	-4067.
10647	7.6881	4.5455	5.e-002	-6.5287
10648	7.6881	4.2727	0.	-4058.4
10649	7.5966	4.3636	0.	-4077.6
10650	7.6881	4.3636	5.e-002	-6.1384
10651	7.6881	4.0909	0.	-4069.6
10652	7.5966	4.1818	0.	-4087.6
10653	7.6881	4.1818	5.e-002	-5.7218
10654	7.6881	3.9091	0.	-4079.6
10655	7.5966	4.	0.	-4096.6
10656	7.6881	4.	5.e-002	-5.2892
10657	7.6881	3.7273	0.	-4088.1
10658	7.5966	3.8182	0.	-4104.6
10659	7.6881	3.8182	5.e-002	-4.856
10660	7.6881	3.5455	0.	-4095.
10661	7.5966	3.6364	0.	-4111.1
10662	7.6881	3.6364	5.e-002	-4.444
10663	7.6881	3.3636	0.	-4100.
10664	7.5966	3.4545	0.	-4116.2
10665	7.6881	3.4545	5.e-002	-4.0834
10666	7.6881	3.1818	0.	-4103.1
10667	7.5966	3.2727	0.	-4119.7
10668	7.6881	3.2727	5.e-002	-3.8105
10669	7.6881	3.	0.	-4104.1
10670	7.5966	3.0909	0.	-4121.4
10671	7.6881	3.0909	5.e-002	-3.662
10672	7.6881	2.8182	0.	-4103.1
10673	7.5966	2.9091	0.	-4121.4
10674	7.6881	2.9091	5.e-002	-3.662
10675	7.6881	2.6364	0.	-4100.
10676	7.5966	2.7273	0.	-4119.7
10677	7.6881	2.7273	5.e-002	-3.8105
10678	7.6881	2.4545	0.	-4095.
10679	7.5966	2.5455	0.	-4116.2
10680	7.6881	2.5455	5.e-002	-4.0834
10681	7.6881	2.2727	0.	-4088.1
10682	7.5966	2.3636	0.	-4111.1
10683	7.6881	2.3636	5.e-002	-4.444
10684	7.6881	2.0909	0.	-4079.6
10685	7.5966	2.1818	0.	-4104.6
10686	7.6881	2.1818	5.e-002	-4.856
10687	7.6881	1.9091	0.	-4069.6
10688	7.5966	2.	0.	-4096.6
10689	7.6881	2.	5.e-002	-5.2892
10690	7.6881	1.7273	0.	-4058.4
10691	7.5966	1.8182	0.	-4087.6
10692	7.6881	1.8182	5.e-002	-5.7218
10693	7.6881	1.5455	0.	-4046.3
10694	7.5966	1.6364	0.	-4077.6
10695	7.6881	1.6364	5.e-002	-6.1384
10696	7.6881	1.3636	0.	-4033.7
10697	7.5966	1.4545	0.	-4067.
10698	7.6881	1.4545	5.e-002	-6.5287
10699	7.6881	1.1818	0.	-4020.9
10700	7.5966	1.2727	0.	-4056.1
10701	7.6881	1.2727	5.e-002	-6.8859
10702	7.6881	1.	0.	-4008.3
10703	7.5966	1.0909	0.	-4045.2
10704	7.6881	1.0909	5.e-002	-7.2047
10705	7.6881	0.81818	0.	-3996.4
10706	7.5966	0.90909	0.	-4034.7
10707	7.6881	0.90909	5.e-002	-7.4805
10708	7.6881	0.63636	0.	-3985.5
10709	7.5966	0.72727	0.	-4024.9
10710	7.6881	0.72727	5.e-002	-7.7087
10711	7.6881	0.45455	0.	-3976.2
10712	7.5966	0.54545	0.	-4016.2
10713	7.6881	0.54545	5.e-002	-7.8766
10714	7.6881	0.27273	0.	-3968.7
10715	7.5966	0.36364	0.	-4009.
10716	7.6881	0.36364	5.e-002	-7.8674
10717	7.5966	0.18182	0.	-4003.8
10718	7.6881	0.18182	5.e-002	-5.9181
10719	7.6881	9.0909e-002	0.	-3963.4
10720	7.5051	5.7273	0.	-4044.
10721	7.4136	5.8182	0.	-4078.3
10722	7.5051	5.8182	5.e-002	-5.3495
10723	7.5051	5.9091	0.	-4040.5
10724	7.5051	5.5455	0.	-4049.
10725	7.4136	5.6364	0.	-4081.4
10726	7.5051	5.6364	5.e-002	-7.4297
10727	7.5051	5.3636	0.	-4055.5
10728	7.4136	5.4545	0.	-4086.1
10729	7.5051	5.4545	5.e-002	-7.4835
10730	7.5051	5.1818	0.	-4063.1
10731	7.4136	5.2727	0.	-4091.9
10732	7.5051	5.2727	5.e-002	-7.3616
10733	7.5051	5.	0.	-4071.5
10734	7.4136	5.0909	0.	-4098.6
10735	7.5051	5.0909	5.e-002	-7.186
10736	7.5051	4.8182	0.	-4080.4
10737	7.4136	4.9091	0.	-4105.8
10738	7.5051	4.9091	5.e-002	-6.9685
10739	7.5051	4.6364	0.	-4089.4
10740	7.4136	4.7273	0.	-4113.3
10741	7.5051	4.7273	5.e-002	-6.7133
10742	7.5051	4.4545	0.	-4098.3
10743	7.4136	4.5455	0.	-4120.9
10744	7.5051	4.5455	5.e-002	-6.4247
10745	7.5051	4.2727	0.	-4106.8
10746	7.4136	4.3636	0.	-4128.2
10747	7.5051	4.3636	5.e-002	-6.1082
10748	7.5051	4.0909	0.	-4114.6
10749	7.4136	4.1818	0.	-4135.
10750	7.5051	4.1818	5.e-002	-5.7709
10751	7.5051	3.9091	0.	-4121.6
10752	7.4136	4.	0.	-4141.2
10753	7.5051	4.	5.e-002	-5.4232
10754	7.5051	3.7273	0.	-4127.6
10755	7.4136	3.8182	0.	-4146.6
10756	7.5051	3.8182	5.e-002	-5.0794
10757	7.5051	3.5455	0.	-4132.4
10758	7.4136	3.6364	0.	-4151.1
10759	7.5051	3.6364	5.e-002	-4.7582
10760	7.5051	3.3636	0.	-4135.9
10761	7.4136	3.4545	0.	-4154.6
10762	7.5051	3.4545	5.e-002	-4.4831
10763	7.5051	3.1818	0.	-4138.
10764	7.4136	3.2727	0.	-4156.9
10765	7.5051	3.2727	5.e-002	-4.2795
10766	7.5051	3.	0.	-4138.7
10767	7.4136	3.0909	0.	-4158.1
10768	7.5051	3.0909	5.e-002	-4.1707
10769	7.5051	2.8182	0.	-4138.
10770	7.4136	2.9091	0.	-4158.1
10771	7.5051	2.9091	5.e-002	-4.1707
10772	7.5051	2.6364	0.	-4135.9
10773	7.4136	2.7273	0.	-4156.9
10774	7.5051	2.7273	5.e-002	-4.2795
10775	7.5051	2.4545	0.	-4132.4
10776	7.4136	2.5455	0.	-4154.6
10777	7.5051	2.5455	5.e-002	-4.4831
10778	7.5051	2.2727	0.	-4127.6
10779	7.4136	2.3636	0.	-4151.1
10780	7.5051	2.3636	5.e-002	-4.7582
10781	7.5051	2.0909	0.	-4121.6
10782	7.4136	2.1818	0.	-4146.6
10783	7.5051	2.1818	5.e-002	-5.0794
10784	7.5051	1.9091	0.	-4114.6
10785	7.4136	2.	0.	-4141.2
10786	7.5051	2.	5.e-002	-5.4232
10787	7.5051	1.7273	0.	-4106.8
10788	7.4136	1.8182	0.	-4135.
10789	7.5051	1.8182	5.e-002	-5.7709
10790	7.5051	1.5455	0.	-4098.3
10791	7.4136	1.6364	0.	-4128.2
10792	7.5051	1.6364	5.e-002	-6.1082
10793	7.5051	1.3636	0.	-4089.4
10794	7.4136	1.4545	0.	-4120.9
10795	7.5051	1.4545	5.e-002	-6.4247
10796	7.5051	1.1818	0.	-4080.4
10797	7.4136	1.2727	0.	-4113.3
10798	7.5051	1.2727	5.e-002	-6.7133
10799	7.5051	1.	0.	-4071.5
10800	7.4136	1.0909	0.	-4105.8
10801	7.5051	1.0909	5.e-002	-6.9685
10802	7.5051	0.81818	0.	-4063.1
10803	7.4136	0.90909	0.	-4098.6
10804	7.5051	0.90909	5.e-002	-7.186
10805	7.5051	0.63636	0.	-4055.5
10806	7.4136	0.72727	0.	-4091.9
10807	7.5051	0.72727	5.e-002	-7.3617
10808	7.5051	0.45455	0.	-4049.
10809	7.4136	0.54545	0.	-4086.1
10810	7.5051	0.54545	5.e-002	-7.4835
10811	7.5051	0.27273	0.	-4044.
10812	7.4136	0.36364	0.	-4081.4
10813	7.5051	0.36364	5.e-002	-7.4298
10814	7.4136	0.18182	0.	-4078.3
10815	7.5051	0.18182	5.e-002	-5.3495
10816	7.5051	9.0909e-002	0.	-4040.5
10817	7.322	5.7273	0.	-4115.6
10818	7.2305	5.8182	0.	-4149.3
10819	7.322	5.8182	5.e-002	-4.9489
10820	7.322	5.9091	0.	-4113.7
10821	7.322	5.5455	0.	-4118.5
10822	7.2305	5.6364	0.	-4150.6
10823	7.322	5.6364	5.e-002	-7.0968
10824	7.322	5.3636	0.	-4122.5
10825	7.2305	5.4545	0.	-4153.2
10826	7.322	5.4545	5.e-002	-7.1832
10827	7.322	5.1818	0.	-4127.4
10828	7.2305	5.2727	0.	-4156.6
10829	7.322	5.2727	5.e-002	-7.0981
10830	7.322	5.	0.	-4132.9
10831	7.2305	5.0909	0.	-4160.8
10832	7.322	5.0909	5.e-002	-6.9649
10833	7.322	4.8182	0.	-4138.8
10834	7.2305	4.9091	0.	-4165.3
10835	7.322	4.9091	5.e-002	-6.7952
10836	7.322	4.6364	0.	-4144.8
10837	7.2305	4.7273	0.	-4170.
10838	7.322	4.7273	5.e-002	-6.5926
10839	7.322	4.4545	0.	-4150.7
10840	7.2305	4.5455	0.	-4174.8
10841	7.322	4.5455	5.e-002	-6.3614
10842	7.322	4.2727	0.	-4156.4
10843	7.2305	4.3636	0.	-4179.4
10844	7.322	4.3636	5.e-002	-6.1066
10845	7.322	4.0909	0.	-4161.6
10846	7.2305	4.1818	0.	-4183.8
10847	7.322	4.1818	5.e-002	-5.8355
10848	7.322	3.9091	0.	-4166.2
10849	7.2305	4.	0.	-4187.7
10850	7.322	4.	5.e-002	-5.5575
10851	7.322	3.7273	0.	-4170.1
10852	7.2305	3.8182	0.	-4191.2
10853	7.322	3.8182	5.e-002	-5.2853
10854	7.322	3.5455	0.	-4173.3
10855	7.2305	3.6364	0.	-4194.
10856	7.322	3.6364	5.e-002	-5.0344
10857	7.322	3.3636	0.	-4175.6
10858	7.2305	3.4545	0.	-4196.2
10859	7.322	3.4545	5.e-002	-4.8226
10860	7.322	3.1818	0.	-4177.
10861	7.2305	3.2727	0.	-4197.7
10862	7.322	3.2727	5.e-002	-4.6682
10863	7.322	3.	0.	-4177.4
10864	7.2305	3.0909	0.	-4198.4
10865	7.322	3.0909	5.e-002	-4.5865
10866	7.322	2.8182	0.	-4177.
10867	7.2305	2.9091	0.	-4198.4
10868	7.322	2.9091	5.e-002	-4.5865
10869	7.322	2.6364	0.	-4175.6
10870	7.2305	2.7273	0.	-4197.7
10871	7.322	2.7273	5.e-002	-4.6682
10872	7.322	2.4545	0.	-4173.3
10873	7.2305	2.5455	0.	-4196.2
10874	7.322	2.5455	5.e-002	-4.8226
10875	7.322	2.2727	0.	-4170.1
10876	7.2305	2.3636	0.	-4194.
10877	7.322	2.3636	5.e-002	-5.0344
10878	7.322	2.0909	0.	-4166.2
10879	7.2305	2.1818	0.	-4191.2
10880	7.322	2.1818	5.e-002	-5.2853
10881	7.322	1.9091	0.	-4161.6
10882	7.2305	2.	0.	-4187.7
10883	7.322	2.	5.e-002	-5.5575
10884	7.322	1.7273	0.	-4156.4
10885	7.2305	1.8182	0.	-4183.8
10886	7.322	1.8182	5.e-002	-5.8354
10887	7.322	1.5455	0.	-4150.7
10888	7.2305	1.6364	0.	-4179.4
10889	7.322	1.6364	5.e-002	-6.1066
10890	7.322	1.3636	0.	-4144.8
10891	7.2305	1.4545	0.	-4174.8
10892	7.322	1.4545	5.e-002	-6.3614
10893	7.322	1.1818	0.	-4138.8
10894	7.2305	1.2727	0.	-4170.
10895	7.322	1.2727	5.e-002	-6.5927
10896	7.322	1.	0.	-4132.9
10897	7.2305	1.0909	0.	-4165.3
10898	7.322	1.0909	5.e-002	-6.7953
10899	7.322	0.81818	0.	-4127.4
10900	7.2305	0.90909	0.	-4160.8
10901	7.322	0.90909	5.e-002	-6.9649
10902	7.322	0.63636	0.	-4122.5
10903	7.2305	0.72727	0.	-4156.6
10904	7.322	0.72727	5.e-002	-7.0981
10905	7.322	0.45455	0.	-4118.5
10906	7.2305	0.54545	0.	-4153.2
10907	7.322	0.54545	5.e-002	-7.1833
10908	7.322	0.27273	0.	-4115.6
10909	7.2305	0.36364	0.	-4150.6
10910	7.322	0.36364	5.e-002	-7.0968
10911	7.2305	0.18182	0.	-4149.3
10912	7.322	0.18182	5.e-002	-4.949
10913	7.322	9.0909e-002	0.	-4113.7
10914	7.139	5.7273	0.	-4184.3
10915	7.0475	5.8182	0.	-4217.7
10916	7.139	5.8182	5.e-002	-4.6926
10917	7.139	5.9091	0.	-4183.8
10918	7.139	5.5455	0.	-4185.3
10919	7.0475	5.6364	0.	-4217.4
10920	7.139	5.6364	5.e-002	-6.8502
10921	7.139	5.3636	0.	-4187.3
10922	7.0475	5.4545	0.	-4218.2
10923	7.139	5.4545	5.e-002	-6.9592
10924	7.139	5.1818	0.	-4190.
10925	7.0475	5.2727	0.	-4219.6
10926	7.139	5.2727	5.e-002	-6.9028
10927	7.139	5.	0.	-4193.1
10928	7.0475	5.0909	0.	-4221.6
10929	7.139	5.0909	5.e-002	-6.8036
10930	7.139	4.8182	0.	-4196.5
10931	7.0475	4.9091	0.	-4223.8
10932	7.139	4.9091	5.e-002	-6.6728
10933	7.139	4.6364	0.	-4200.
10934	7.0475	4.7273	0.	-4226.3
10935	7.139	4.7273	5.e-002	-6.5134
10936	7.139	4.4545	0.	-4203.5
10937	7.0475	4.5455	0.	-4228.9
10938	7.139	4.5455	5.e-002	-6.3293
10939	7.139	4.2727	0.	-4206.9
10940	7.0475	4.3636	0.	-4231.4
10941	7.139	4.3636	5.e-002	-6.1255
10942	7.139	4.0909	0.	-4210.
10943	7.0475	4.1818	0.	-4233.7
10944	7.139	4.1818	5.e-002	-5.9086
10945	7.139	3.9091	0.	-4212.7
10946	7.0475	4.	0.	-4235.8
10947	7.139	4.	5.e-002	-5.687
10948	7.139	3.7273	0.	-4215.
10949	7.0475	3.8182	0.	-4237.7
10950	7.139	3.8182	5.e-002	-5.4716
10951	7.139	3.5455	0.	-4216.9
10952	7.0475	3.6364	0.	-4239.2
10953	7.139	3.6364	5.e-002	-5.2749
10954	7.139	3.3636	0.	-4218.3
10955	7.0475	3.4545	0.	-4240.4
10956	7.139	3.4545	5.e-002	-5.1105
10957	7.139	3.1818	0.	-4219.1
10958	7.0475	3.2727	0.	-4241.2
10959	7.139	3.2727	5.e-002	-4.9917
10960	7.139	3.	0.	-4219.3
10961	7.0475	3.0909	0.	-4241.6
10962	7.139	3.0909	5.e-002	-4.9293
10963	7.139	2.8182	0.	-4219.1
10964	7.0475	2.9091	0.	-4241.6
10965	7.139	2.9091	5.e-002	-4.9293
10966	7.139	2.6364	0.	-4218.3
10967	7.0475	2.7273	0.	-4241.2
10968	7.139	2.7273	5.e-002	-4.9917
10969	7.139	2.4545	0.	-4216.9
10970	7.0475	2.5455	0.	-4240.4
10971	7.139	2.5455	5.e-002	-5.1105
10972	7.139	2.2727	0.	-4215.
10973	7.0475	2.3636	0.	-4239.2
10974	7.139	2.3636	5.e-002	-5.2749
10975	7.139	2.0909	0.	-4212.7
10976	7.0475	2.1818	0.	-4237.7
10977	7.139	2.1818	5.e-002	-5.4716
10978	7.139	1.9091	0.	-4210.
10979	7.0475	2.	0.	-4235.8
10980	7.139	2.	5.e-002	-5.687
10981	7.139	1.7273	0.	-4206.9
10982	7.0475	1.8182	0.	-4233.7
10983	7.139	1.8182	5.e-002	-5.9086
10984	7.139	1.5455	0.	-4203.5
10985	7.0475	1.6364	0.	-4231.4
10986	7.139	1.6364	5.e-002	-6.1255
10987	7.139	1.3636	0.	-4200.
10988	7.0475	1.4545	0.	-4228.9
10989	7.139	1.4545	5.e-002	-6.3293
10990	7.139	1.1818	0.	-4196.5
10991	7.0475	1.2727	0.	-4226.3
10992	7.139	1.2727	5.e-002	-6.5134
10993	7.139	1.	0.	-4193.1
10994	7.0475	1.0909	0.	-4223.8
10995	7.139	1.0909	5.e-002	-6.6728
10996	7.139	0.81818	0.	-4190.
10997	7.0475	0.90909	0.	-4221.6
10998	7.139	0.90909	5.e-002	-6.8037
10999	7.139	0.63636	0.	-4187.3
11000	7.0475	0.72727	0.	-4219.6
11001	7.139	0.72727	5.e-002	-6.9028
11002	7.139	0.45455	0.	-4185.3
11003	7.0475	0.54545	0.	-4218.2
11004	7.139	0.54545	5.e-002	-6.9592
11005	7.139	0.27273	0.	-4184.3
11006	7.0475	0.36364	0.	-4217.4
11007	7.139	0.36364	5.e-002	-6.8502
11008	7.0475	0.18182	0.	-4217.7
11009	7.139	0.18182	5.e-002	-4.6927
11010	7.139	9.0909e-002	0.	-4183.8
11011	6.9559	5.7273	0.	-4250.8
11012	6.8644	5.8182	0.	-4284.1
11013	6.9559	5.8182	5.e-002	-4.5597
11014	6.9559	5.9091	0.	-4251.5
11015	6.9559	5.5455	0.	-4250.2
11016	6.8644	5.6364	0.	-4282.3
11017	6.9559	5.6364	5.e-002	-6.6747
11018	6.9559	5.3636	0.	-4250.4
11019	6.8644	5.4545	0.	-4281.5
11020	6.9559	5.4545	5.e-002	-6.7978
11021	6.9559	5.1818	0.	-4251.2
11022	6.8644	5.2727	0.	-4281.2
11023	6.9559	5.2727	5.e-002	-6.7635
11024	6.9559	5.	0.	-4252.3
11025	6.8644	5.0909	0.	-4281.4
11026	6.9559	5.0909	5.e-002	-6.6915
11027	6.9559	4.8182	0.	-4253.7
11028	6.8644	4.9091	0.	-4281.8
11029	6.9559	4.9091	5.e-002	-6.5918
11030	6.9559	4.6364	0.	-4255.2
11031	6.8644	4.7273	0.	-4282.4
11032	6.9559	4.7273	5.e-002	-6.4675
11033	6.9559	4.4545	0.	-4256.7
11034	6.8644	4.5455	0.	-4283.1
11035	6.9559	4.5455	5.e-002	-6.3219
11036	6.9559	4.2727	0.	-4258.2
11037	6.8644	4.3636	0.	-4283.8
11038	6.9559	4.3636	5.e-002	-6.1597
11039	6.9559	4.0909	0.	-4259.6
11040	6.8644	4.1818	0.	-4284.5
11041	6.9559	4.1818	5.e-002	-5.9866
11042	6.9559	3.9091	0.	-4260.8
11043	6.8644	4.	0.	-4285.2
11044	6.9559	4.	5.e-002	-5.8103
11045	6.9559	3.7273	0.	-4261.8
11046	6.8644	3.8182	0.	-4285.8
11047	6.9559	3.8182	5.e-002	-5.6395
11048	6.9559	3.5455	0.	-4262.7
11049	6.8644	3.6364	0.	-4286.2
11050	6.9559	3.6364	5.e-002	-5.4846
11051	6.9559	3.3636	0.	-4263.3
11052	6.8644	3.4545	0.	-4286.6
11053	6.9559	3.4545	5.e-002	-5.356
11054	6.9559	3.1818	0.	-4263.6
11055	6.8644	3.2727	0.	-4286.8
11056	6.9559	3.2727	5.e-002	-5.2637
11057	6.9559	3.	0.	-4263.8
11058	6.8644	3.0909	0.	-4286.9
11059	6.9559	3.0909	5.e-002	-5.2154
11060	6.9559	2.8182	0.	-4263.6
11061	6.8644	2.9091	0.	-4286.9
11062	6.9559	2.9091	5.e-002	-5.2154
11063	6.9559	2.6364	0.	-4263.3
11064	6.8644	2.7273	0.	-4286.8
11065	6.9559	2.7273	5.e-002	-5.2637
11066	6.9559	2.4545	0.	-4262.7
11067	6.8644	2.5455	0.	-4286.6
11068	6.9559	2.5455	5.e-002	-5.356
11069	6.9559	2.2727	0.	-4261.8
11070	6.8644	2.3636	0.	-4286.2
11071	6.9559	2.3636	5.e-002	-5.4846
11072	6.9559	2.0909	0.	-4260.8
11073	6.8644	2.1818	0.	-4285.8
11074	6.9559	2.1818	5.e-002	-5.6395
11075	6.9559	1.9091	0.	-4259.6
11076	6.8644	2.	0.	-4285.2
11077	6.9559	2.	5.e-002	-5.8103
11078	6.9559	1.7273	0.	-4258.2
11079	6.8644	1.8182	0.	-4284.5
11080	6.9559	1.8182	5.e-002	-5.9866
11081	6.9559	1.5455	0.	-4256.7
11082	6.8644	1.6364	0.	-4283.8
11083	6.9559	1.6364	5.e-002	-6.1597
11084	6.9559	1.3636	0.	-4255.2
11085	6.8644	1.4545	0.	-4283.1
11086	6.9559	1.4545	5.e-002	-6.322
11087	6.9559	1.1818	0.	-4253.7
11088	6.8644	1.2727	0.	-4282.4
11089	6.9559	1.2727	5.e-002	-6.4676
11090	6.9559	1.	0.	-4252.3
11091	6.8644	1.0909	0.	-4281.8
11092	6.9559	1.0909	5.e-002	-6.5919
11093	6.9559	0.81818	0.	-4251.2
11094	6.8644	0.90909	0.	-4281.4
11095	6.9559	0.90909	5.e-002	-6.6915
11096	6.9559	0.63636	0.	-4250.4
11097	6.8644	0.72727	0.	-4281.2
11098	6.9559	0.72727	5.e-002	-6.7636
11099	6.9559	0.45455	0.	-4250.2
11100	6.8644	0.54545	0.	-4281.5
11101	6.9559	0.54545	5.e-002	-6.7978
11102	6.9559	0.27273	0.	-4250.8
11103	6.8644	0.36364	0.	-4282.3
11104	6.9559	0.36364	5.e-002	-6.6748
11105	6.8644	0.18182	0.	-4284.1
11106	6.9559	0.18182	5.e-002	-4.5597
11107	6.9559	9.0909e-002	0.	-4251.5
11108	6.7729	5.7273	0.	-4315.6
11109	6.6814	5.8182	0.	-4348.9
11110	6.7729	5.8182	5.e-002	-4.5323
11111	6.7729	5.9091	0.	-4317.4
11112	6.7729	5.5455	0.	-4313.6
11113	6.6814	5.6364	0.	-4345.9
11114	6.7729	5.6364	5.e-002	-6.5582
11115	6.7729	5.3636	0.	-4312.3
11116	6.6814	5.4545	0.	-4343.7
11117	6.7729	5.4545	5.e-002	-6.6883
11118	6.7729	5.1818	0.	-4311.4
11119	6.6814	5.2727	0.	-4341.9
11120	6.7729	5.2727	5.e-002	-6.6708
11121	6.7729	5.	0.	-4310.9
11122	6.6814	5.0909	0.	-4340.5
11123	6.7729	5.0909	5.e-002	-6.62
11124	6.7729	4.8182	0.	-4310.5
11125	6.6814	4.9091	0.	-4339.3
11126	6.7729	4.9091	5.e-002	-6.5452
11127	6.7729	4.6364	0.	-4310.3
11128	6.6814	4.7273	0.	-4338.3
11129	6.7729	4.7273	5.e-002	-6.449
11130	6.7729	4.4545	0.	-4310.2
11131	6.6814	4.5455	0.	-4337.5
11132	6.7729	4.5455	5.e-002	-6.3345
11133	6.7729	4.2727	0.	-4310.2
11134	6.6814	4.3636	0.	-4336.8
11135	6.7729	4.3636	5.e-002	-6.2058
11136	6.7729	4.0909	0.	-4310.1
11137	6.6814	4.1818	0.	-4336.1
11138	6.7729	4.1818	5.e-002	-6.068
11139	6.7729	3.9091	0.	-4310.1
11140	6.6814	4.	0.	-4335.6
11141	6.7729	4.	5.e-002	-5.9275
11142	6.7729	3.7273	0.	-4310.1
11143	6.6814	3.8182	0.	-4335.1
11144	6.7729	3.8182	5.e-002	-5.7919
11145	6.7729	3.5455	0.	-4310.1
11146	6.6814	3.6364	0.	-4334.7
11147	6.7729	3.6364	5.e-002	-5.6693
11148	6.7729	3.3636	0.	-4310.1
11149	6.6814	3.4545	0.	-4334.4
11150	6.7729	3.4545	5.e-002	-5.568
11151	6.7729	3.1818	0.	-4310.1
11152	6.6814	3.2727	0.	-4334.2
11153	6.7729	3.2727	5.e-002	-5.4955
11154	6.7729	3.	0.	-4310.1
11155	6.6814	3.0909	0.	-4334.1
11156	6.7729	3.0909	5.e-002	-5.4577
11157	6.7729	2.8182	0.	-4310.1
11158	6.6814	2.9091	0.	-4334.1
11159	6.7729	2.9091	5.e-002	-5.4577
11160	6.7729	2.6364	0.	-4310.1
11161	6.6814	2.7273	0.	-4334.2
11162	6.7729	2.7273	5.e-002	-5.4955
11163	6.7729	2.4545	0.	-4310.1
11164	6.6814	2.5455	0.	-4334.4
11165	6.7729	2.5455	5.e-002	-5.568
11166	6.7729	2.2727	0.	-4310.1
11167	6.6814	2.3636	0.	-4334.7
11168	6.7729	2.3636	5.e-002	-5.6693
11169	6.7729	2.0909	0.	-4310.1
11170	6.6814	2.1818	0.	-4335.1
11171	6.7729	2.1818	5.e-002	-5.7919
11172	6.7729	1.9091	0.	-4310.1
11173	6.6814	2.	0.	-4335.6
11174	6.7729	2.	5.e-002	-5.9276
11175	6.7729	1.7273	0.	-4310.2
11176	6.6814	1.8182	0.	-4336.1
11177	6.7729	1.8182	5.e-002	-6.068
11178	6.7729	1.5455	0.	-4310.2
11179	6.6814	1.6364	0.	-4336.8
11180	6.7729	1.6364	5.e-002	-6.2058
11181	6.7729	1.3636	0.	-4310.3
11182	6.6814	1.4545	0.	-4337.5
11183	6.7729	1.4545	5.e-002	-6.3346
11184	6.7729	1.1818	0.	-4310.5
11185	6.6814	1.2727	0.	-4338.3
11186	6.7729	1.2727	5.e-002	-6.4491
11187	6.7729	1.	0.	-4310.9
11188	6.6814	1.0909	0.	-4339.3
11189	6.7729	1.0909	5.e-002	-6.5452
11190	6.7729	0.81818	0.	-4311.4
11191	6.6814	0.90909	0.	-4340.5
11192	6.7729	0.90909	5.e-002	-6.62
11193	6.7729	0.63636	0.	-4312.3
11194	6.6814	0.72727	0.	-4341.9
11195	6.7729	0.72727	5.e-002	-6.6708
11196	6.7729	0.45455	0.	-4313.6
11197	6.6814	0.54545	0.	-4343.7
11198	6.7729	0.54545	5.e-002	-6.6883
11199	6.7729	0.27273	0.	-4315.6
11200	6.6814	0.36364	0.	-4345.9
11201	6.7729	0.36364	5.e-002	-6.5582
11202	6.6814	0.18182	0.	-4348.9
11203	6.7729	0.18182	5.e-002	-4.5323
11204	6.7729	9.0909e-002	0.	-4317.4
11205	6.5898	5.7273	0.	-4379.2
11206	6.4983	5.8182	0.	-4412.6
11207	6.5898	5.8182	5.e-002	-4.5949
11208	6.5898	5.9091	0.	-4382.1
11209	6.5898	5.5455	0.	-4376.
11210	6.4983	5.6364	0.	-4408.5
11211	6.5898	5.6364	5.e-002	-6.4907
11212	6.5898	5.3636	0.	-4373.3
11213	6.4983	5.4545	0.	-4405.
11214	6.5898	5.4545	5.e-002	-6.6218
11215	6.5898	5.1818	0.	-4371.
11216	6.4983	5.2727	0.	-4401.9
11217	6.5898	5.2727	5.e-002	-6.6168
11218	6.5898	5.	0.	-4368.9
11219	6.4983	5.0909	0.	-4399.1
11220	6.5898	5.0909	5.e-002	-6.5825
11221	6.5898	4.8182	0.	-4367.1
11222	6.4983	4.9091	0.	-4396.6
11223	6.5898	4.9091	5.e-002	-6.5273
11224	6.5898	4.6364	0.	-4365.5
11225	6.4983	4.7273	0.	-4394.2
11226	6.5898	4.7273	5.e-002	-6.4536
11227	6.5898	4.4545	0.	-4364.
11228	6.4983	4.5455	0.	-4392.1
11229	6.5898	4.5455	5.e-002	-6.3639
11230	6.5898	4.2727	0.	-4362.7
11231	6.4983	4.3636	0.	-4390.1
11232	6.5898	4.3636	5.e-002	-6.262
11233	6.5898	4.0909	0.	-4361.5
11234	6.4983	4.1818	0.	-4388.3
11235	6.5898	4.1818	5.e-002	-6.1522
11236	6.5898	3.9091	0.	-4360.5
11237	6.4983	4.	0.	-4386.7
11238	6.5898	4.	5.e-002	-6.0401
11239	6.5898	3.7273	0.	-4359.6
11240	6.4983	3.8182	0.	-4385.4
11241	6.5898	3.8182	5.e-002	-5.9319
11242	6.5898	3.5455	0.	-4358.9
11243	6.4983	3.6364	0.	-4384.3
11244	6.5898	3.6364	5.e-002	-5.8343
11245	6.5898	3.3636	0.	-4358.4
11246	6.4983	3.4545	0.	-4383.4
11247	6.5898	3.4545	5.e-002	-5.7539
11248	6.5898	3.1818	0.	-4358.1
11249	6.4983	3.2727	0.	-4382.8
11250	6.5898	3.2727	5.e-002	-5.6965
11251	6.5898	3.	0.	-4358.
11252	6.4983	3.0909	0.	-4382.5
11253	6.5898	3.0909	5.e-002	-5.6666
11254	6.5898	2.8182	0.	-4358.1
11255	6.4983	2.9091	0.	-4382.5
11256	6.5898	2.9091	5.e-002	-5.6666
11257	6.5898	2.6364	0.	-4358.4
11258	6.4983	2.7273	0.	-4382.8
11259	6.5898	2.7273	5.e-002	-5.6965
11260	6.5898	2.4545	0.	-4358.9
11261	6.4983	2.5455	0.	-4383.4
11262	6.5898	2.5455	5.e-002	-5.7539
11263	6.5898	2.2727	0.	-4359.6
11264	6.4983	2.3636	0.	-4384.3
11265	6.5898	2.3636	5.e-002	-5.8343
11266	6.5898	2.0909	0.	-4360.5
11267	6.4983	2.1818	0.	-4385.4
11268	6.5898	2.1818	5.e-002	-5.9319
11269	6.5898	1.9091	0.	-4361.5
11270	6.4983	2.	0.	-4386.7
11271	6.5898	2.	5.e-002	-6.0401
11272	6.5898	1.7273	0.	-4362.7
11273	6.4983	1.8182	0.	-4388.3
11274	6.5898	1.8182	5.e-002	-6.1523
11275	6.5898	1.5455	0.	-4364.
11276	6.4983	1.6364	0.	-4390.1
11277	6.5898	1.6364	5.e-002	-6.262
11278	6.5898	1.3636	0.	-4365.5
11279	6.4983	1.4545	0.	-4392.1
11280	6.5898	1.4545	5.e-002	-6.364
11281	6.5898	1.1818	0.	-4367.1
11282	6.4983	1.2727	0.	-4394.2
11283	6.5898	1.2727	5.e-002	-6.4536
11284	6.5898	1.	0.	-4368.9
11285	6.4983	1.0909	0.	-4396.6
11286	6.5898	1.0909	5.e-002	-6.5274
11287	6.5898	0.81818	0.	-4371.
11288	6.4983	0.90909	0.	-4399.1
11289	6.5898	0.90909	5.e-002	-6.5825
11290	6.5898	0.63636	0.	-4373.3
11291	6.4983	0.72727	0.	-4401.9
11292	6.5898	0.72727	5.e-002	-6.6168
11293	6.5898	0.45455	0.	-4376.
11294	6.4983	0.54545	0.	-4405.
11295	6.5898	0.54545	5.e-002	-6.6218
11296	6.5898	0.27273	0.	-4379.2
11297	6.4983	0.36364	0.	-4408.5
11298	6.5898	0.36364	5.e-002	-6.4907
11299	6.4983	0.18182	0.	-4412.6
11300	6.5898	0.18182	5.e-002	-4.5949
11301	6.5898	9.0909e-002	0.	-4382.1
11302	6.4068	5.7273	0.	-4441.9
11303	6.3153	5.8182	0.	-4475.6
11304	6.4068	5.8182	5.e-002	-4.735
11305	6.4068	5.9091	0.	-4445.8
11306	6.4068	5.5455	0.	-4437.6
11307	6.3153	5.6364	0.	-4470.4
11308	6.4068	5.6364	5.e-002	-6.4641
11309	6.4068	5.3636	0.	-4433.7
11310	6.3153	5.4545	0.	-4465.8
11311	6.4068	5.4545	5.e-002	-6.5915
11312	6.4068	5.1818	0.	-4430.1
11313	6.3153	5.2727	0.	-4461.5
11314	6.4068	5.2727	5.e-002	-6.5956
11315	6.4068	5.	0.	-4426.8
11316	6.3153	5.0909	0.	-4457.5
11317	6.4068	5.0909	5.e-002	-6.5739
11318	6.4068	4.8182	0.	-4423.7
11319	6.3153	4.9091	0.	-4453.7
11320	6.4068	4.9091	5.e-002	-6.5341
11321	6.4068	4.6364	0.	-4420.8
11322	6.3153	4.7273	0.	-4450.2
11323	6.4068	4.7273	5.e-002	-6.478
11324	6.4068	4.4545	0.	-4418.1
11325	6.3153	4.5455	0.	-4446.8
11326	6.4068	4.5455	5.e-002	-6.408
11327	6.4068	4.2727	0.	-4415.7
11328	6.3153	4.3636	0.	-4443.8
11329	6.4068	4.3636	5.e-002	-6.3272
11330	6.4068	4.0909	0.	-4413.5
11331	6.3153	4.1818	0.	-4441.
11332	6.4068	4.1818	5.e-002	-6.2396
11333	6.4068	3.9091	0.	-4411.6
11334	6.3153	4.	0.	-4438.6
11335	6.4068	4.	5.e-002	-6.1498
11336	6.4068	3.7273	0.	-4410.
11337	6.3153	3.8182	0.	-4436.5
11338	6.4068	3.8182	5.e-002	-6.0629
11339	6.4068	3.5455	0.	-4408.8
11340	6.3153	3.6364	0.	-4434.7
11341	6.4068	3.6364	5.e-002	-5.9846
11342	6.4068	3.3636	0.	-4407.8
11343	6.3153	3.4545	0.	-4433.4
11344	6.4068	3.4545	5.e-002	-5.9202
11345	6.4068	3.1818	0.	-4407.3
11346	6.3153	3.2727	0.	-4432.5
11347	6.4068	3.2727	5.e-002	-5.8743
11348	6.4068	3.	0.	-4407.1
11349	6.3153	3.0909	0.	-4432.1
11350	6.4068	3.0909	5.e-002	-5.8504
11351	6.4068	2.8182	0.	-4407.3
11352	6.3153	2.9091	0.	-4432.1
11353	6.4068	2.9091	5.e-002	-5.8504
11354	6.4068	2.6364	0.	-4407.8
11355	6.3153	2.7273	0.	-4432.5
11356	6.4068	2.7273	5.e-002	-5.8743
11357	6.4068	2.4545	0.	-4408.8
11358	6.3153	2.5455	0.	-4433.4
11359	6.4068	2.5455	5.e-002	-5.9202
11360	6.4068	2.2727	0.	-4410.
11361	6.3153	2.3636	0.	-4434.7
11362	6.4068	2.3636	5.e-002	-5.9846
11363	6.4068	2.0909	0.	-4411.6
11364	6.3153	2.1818	0.	-4436.5
11365	6.4068	2.1818	5.e-002	-6.063
11366	6.4068	1.9091	0.	-4413.5
11367	6.3153	2.	0.	-4438.6
11368	6.4068	2.	5.e-002	-6.1498
11369	6.4068	1.7273	0.	-4415.7
11370	6.3153	1.8182	0.	-4441.
11371	6.4068	1.8182	5.e-002	-6.2396
11372	6.4068	1.5455	0.	-4418.1
11373	6.3153	1.6364	0.	-4443.8
11374	6.4068	1.6364	5.e-002	-6.3272
11375	6.4068	1.3636	0.	-4420.8
11376	6.3153	1.4545	0.	-4446.8
11377	6.4068	1.4545	5.e-002	-6.408
11378	6.4068	1.1818	0.	-4423.7
11379	6.3153	1.2727	0.	-4450.2
11380	6.4068	1.2727	5.e-002	-6.478
11381	6.4068	1.	0.	-4426.8
11382	6.3153	1.0909	0.	-4453.7
11383	6.4068	1.0909	5.e-002	-6.5341
11384	6.4068	0.81818	0.	-4430.1
11385	6.3153	0.90909	0.	-4457.5
11386	6.4068	0.90909	5.e-002	-6.5739
11387	6.4068	0.63636	0.	-4433.7
11388	6.3153	0.72727	0.	-4461.5
11389	6.4068	0.72727	5.e-002	-6.5956
11390	6.4068	0.45455	0.	-4437.6
11391	6.3153	0.54545	0.	-4465.8
11392	6.4068	0.54545	5.e-002	-6.5915
11393	6.4068	0.27273	0.	-4441.9
11394	6.3153	0.36364	0.	-4470.4
11395	6.4068	0.36364	5.e-002	-6.4642
11396	6.3153	0.18182	0.	-4475.6
11397	6.4068	0.18182	5.e-002	-4.7351
11398	6.4068	9.0909e-002	0.	-4445.8
11399	6.2237	5.7273	0.	-4504.
11400	6.1322	5.8182	0.	-4538.
11401	6.2237	5.8182	5.e-002	-4.943
11402	6.2237	5.9091	0.	-4508.8
11403	6.2237	5.5455	0.	-4498.7
11404	6.1322	5.6364	0.	-4531.9
11405	6.2237	5.6364	5.e-002	-6.4725
11406	6.2237	5.3636	0.	-4493.7
11407	6.1322	5.4545	0.	-4526.2
11408	6.2237	5.4545	5.e-002	-6.5919
11409	6.2237	5.1818	0.	-4488.9
11410	6.1322	5.2727	0.	-4520.8
11411	6.2237	5.2727	5.e-002	-6.6024
11412	6.2237	5.	0.	-4484.4
11413	6.1322	5.0909	0.	-4515.7
11414	6.2237	5.0909	5.e-002	-6.5903
11415	6.2237	4.8182	0.	-4480.2
11416	6.1322	4.9091	0.	-4510.8
11417	6.2237	4.9091	5.e-002	-6.5623
11418	6.2237	4.6364	0.	-4476.2
11419	6.1322	4.7273	0.	-4506.2
11420	6.2237	4.7273	5.e-002	-6.5199
11421	6.2237	4.4545	0.	-4472.5
11422	6.1322	4.5455	0.	-4501.8
11423	6.2237	4.5455	5.e-002	-6.4653
11424	6.2237	4.2727	0.	-4469.1
11425	6.1322	4.3636	0.	-4497.8
11426	6.2237	4.3636	5.e-002	-6.4011
11427	6.2237	4.0909	0.	-4466.1
11428	6.1322	4.1818	0.	-4494.2
11429	6.2237	4.1818	5.e-002	-6.3308
11430	6.2237	3.9091	0.	-4463.4
11431	6.1322	4.	0.	-4491.
11432	6.2237	4.	5.e-002	-6.2583
11433	6.2237	3.7273	0.	-4461.2
11434	6.1322	3.8182	0.	-4488.2
11435	6.2237	3.8182	5.e-002	-6.1881
11436	6.2237	3.5455	0.	-4459.4
11437	6.1322	3.6364	0.	-4485.9
11438	6.2237	3.6364	5.e-002	-6.1247
11439	6.2237	3.3636	0.	-4458.1
11440	6.1322	3.4545	0.	-4484.2
11441	6.2237	3.4545	5.e-002	-6.0725
11442	6.2237	3.1818	0.	-4457.3
11443	6.1322	3.2727	0.	-4483.
11444	6.2237	3.2727	5.e-002	-6.0353
11445	6.2237	3.	0.	-4457.1
11446	6.1322	3.0909	0.	-4482.4
11447	6.2237	3.0909	5.e-002	-6.016
11448	6.2237	2.8182	0.	-4457.3
11449	6.1322	2.9091	0.	-4482.4
11450	6.2237	2.9091	5.e-002	-6.016
11451	6.2237	2.6364	0.	-4458.1
11452	6.1322	2.7273	0.	-4483.
11453	6.2237	2.7273	5.e-002	-6.0353
11454	6.2237	2.4545	0.	-4459.4
11455	6.1322	2.5455	0.	-4484.2
11456	6.2237	2.5455	5.e-002	-6.0725
11457	6.2237	2.2727	0.	-4461.2
11458	6.1322	2.3636	0.	-4485.9
11459	6.2237	2.3636	5.e-002	-6.1246
11460	6.2237	2.0909	0.	-4463.4
11461	6.1322	2.1818	0.	-4488.2
11462	6.2237	2.1818	5.e-002	-6.1881
11463	6.2237	1.9091	0.	-4466.1
11464	6.1322	2.	0.	-4491.
11465	6.2237	2.	5.e-002	-6.2583
11466	6.2237	1.7273	0.	-4469.1
11467	6.1322	1.8182	0.	-4494.2
11468	6.2237	1.8182	5.e-002	-6.3308
11469	6.2237	1.5455	0.	-4472.5
11470	6.1322	1.6364	0.	-4497.8
11471	6.2237	1.6364	5.e-002	-6.4011
11472	6.2237	1.3636	0.	-4476.2
11473	6.1322	1.4545	0.	-4501.8
11474	6.2237	1.4545	5.e-002	-6.4653
11475	6.2237	1.1818	0.	-4480.2
11476	6.1322	1.2727	0.	-4506.2
11477	6.2237	1.2727	5.e-002	-6.52
11478	6.2237	1.	0.	-4484.4
11479	6.1322	1.0909	0.	-4510.8
11480	6.2237	1.0909	5.e-002	-6.5623
11481	6.2237	0.81818	0.	-4488.9
11482	6.1322	0.90909	0.	-4515.7
11483	6.2237	0.90909	5.e-002	-6.5903
11484	6.2237	0.63636	0.	-4493.7
11485	6.1322	0.72727	0.	-4520.8
11486	6.2237	0.72727	5.e-002	-6.6024
11487	6.2237	0.45455	0.	-4498.7
11488	6.1322	0.54545	0.	-4526.2
11489	6.2237	0.54545	5.e-002	-6.592
11490	6.2237	0.27273	0.	-4504.
11491	6.1322	0.36364	0.	-4531.9
11492	6.2237	0.36364	5.e-002	-6.4725
11493	6.1322	0.18182	0.	-4538.
11494	6.2237	0.18182	5.e-002	-4.943
11495	6.2237	9.0909e-002	0.	-4508.8
11496	6.0407	5.7273	0.	-4565.8
11497	5.9492	5.8182	0.	-4600.2
11498	6.0407	5.8182	5.e-002	-5.2113
11499	6.0407	5.9091	0.	-4571.5
11500	6.0407	5.5455	0.	-4559.5
11501	5.9492	5.6364	0.	-4593.1
11502	6.0407	5.6364	5.e-002	-6.5108
11503	6.0407	5.3636	0.	-4553.4
11504	5.9492	5.4545	0.	-4586.5
11505	6.0407	5.4545	5.e-002	-6.619
11506	6.0407	5.1818	0.	-4547.6
11507	5.9492	5.2727	0.	-4580.1
11508	6.0407	5.2727	5.e-002	-6.6337
11509	6.0407	5.	0.	-4542.1
11510	5.9492	5.0909	0.	-4573.9
11511	6.0407	5.0909	5.e-002	-6.6288
11512	6.0407	4.8182	0.	-4536.8
11513	5.9492	4.9091	0.	-4568.
11514	6.0407	4.9091	5.e-002	-6.6097
11515	6.0407	4.6364	0.	-4531.8
11516	5.9492	4.7273	0.	-4562.3
11517	6.0407	4.7273	5.e-002	-6.5779
11518	6.0407	4.4545	0.	-4527.2
11519	5.9492	4.5455	0.	-4557.1
11520	6.0407	4.5455	5.e-002	-6.5351
11521	6.0407	4.2727	0.	-4522.9
11522	5.9492	4.3636	0.	-4552.2
11523	6.0407	4.3636	5.e-002	-6.4837
11524	6.0407	4.0909	0.	-4519.1
11525	5.9492	4.1818	0.	-4547.7
11526	6.0407	4.1818	5.e-002	-6.4268
11527	6.0407	3.9091	0.	-4515.8
11528	5.9492	4.	0.	-4543.8
11529	6.0407	4.	5.e-002	-6.3676
11530	6.0407	3.7273	0.	-4513.
11531	5.9492	3.8182	0.	-4540.5
11532	6.0407	3.8182	5.e-002	-6.3101
11533	6.0407	3.5455	0.	-4510.7
11534	5.9492	3.6364	0.	-4537.7
11535	6.0407	3.6364	5.e-002	-6.2581
11536	6.0407	3.3636	0.	-4509.1
11537	5.9492	3.4545	0.	-4535.6
11538	6.0407	3.4545	5.e-002	-6.2153
11539	6.0407	3.1818	0.	-4508.1
11540	5.9492	3.2727	0.	-4534.2
11541	6.0407	3.2727	5.e-002	-6.1848
11542	6.0407	3.	0.	-4507.8
11543	5.9492	3.0909	0.	-4533.4
11544	6.0407	3.0909	5.e-002	-6.1689
11545	6.0407	2.8182	0.	-4508.1
11546	5.9492	2.9091	0.	-4533.4
11547	6.0407	2.9091	5.e-002	-6.1689
11548	6.0407	2.6364	0.	-4509.1
11549	5.9492	2.7273	0.	-4534.2
11550	6.0407	2.7273	5.e-002	-6.1848
11551	6.0407	2.4545	0.	-4510.7
11552	5.9492	2.5455	0.	-4535.6
11553	6.0407	2.5455	5.e-002	-6.2153
11554	6.0407	2.2727	0.	-4513.
11555	5.9492	2.3636	0.	-4537.7
11556	6.0407	2.3636	5.e-002	-6.2581
11557	6.0407	2.0909	0.	-4515.8
11558	5.9492	2.1818	0.	-4540.5
11559	6.0407	2.1818	5.e-002	-6.3101
11560	6.0407	1.9091	0.	-4519.1
11561	5.9492	2.	0.	-4543.8
11562	6.0407	2.	5.e-002	-6.3676
11563	6.0407	1.7273	0.	-4522.9
11564	5.9492	1.8182	0.	-4547.7
11565	6.0407	1.8182	5.e-002	-6.4268
11566	6.0407	1.5455	0.	-4527.2
11567	5.9492	1.6364	0.	-4552.2
11568	6.0407	1.6364	5.e-002	-6.4837
11569	6.0407	1.3636	0.	-4531.8
11570	5.9492	1.4545	0.	-4557.1
11571	6.0407	1.4545	5.e-002	-6.5351
11572	6.0407	1.1818	0.	-4536.8
11573	5.9492	1.2727	0.	-4562.3
11574	6.0407	1.2727	5.e-002	-6.5779
11575	6.0407	1.	0.	-4542.1
11576	5.9492	1.0909	0.	-4568.
11577	6.0407	1.0909	5.e-002	-6.6097
11578	6.0407	0.81818	0.	-4547.6
11579	5.9492	0.90909	0.	-4573.9
11580	6.0407	0.90909	5.e-002	-6.6288
11581	6.0407	0.63636	0.	-4553.4
11582	5.9492	0.72727	0.	-4580.1
11583	6.0407	0.72727	5.e-002	-6.6337
11584	6.0407	0.45455	0.	-4559.5
11585	5.9492	0.54545	0.	-4586.5
11586	6.0407	0.54545	5.e-002	-6.619
11587	6.0407	0.27273	0.	-4565.8
11588	5.9492	0.36364	0.	-4593.1
11589	6.0407	0.36364	5.e-002	-6.5109
11590	5.9492	0.18182	0.	-4600.2
11591	6.0407	0.18182	5.e-002	-5.2114
11592	6.0407	9.0909e-002	0.	-4571.5
11593	5.8576	5.7273	0.	-4627.5
11594	5.7661	5.8182	0.	-4662.3
11595	5.8576	5.8182	5.e-002	-5.535
11596	5.8576	5.9091	0.	-4634.1
11597	5.8576	5.5455	0.	-4620.2
11598	5.7661	5.6364	0.	-4654.3
11599	5.8576	5.6364	5.e-002	-6.5757
11600	5.8576	5.3636	0.	-4613.1
11601	5.7661	5.4545	0.	-4646.7
11602	5.8576	5.4545	5.e-002	-6.6695
11603	5.8576	5.1818	0.	-4606.3
11604	5.7661	5.2727	0.	-4639.3
11605	5.8576	5.2727	5.e-002	-6.6869
11606	5.8576	5.	0.	-4599.8
11607	5.7661	5.0909	0.	-4632.1
11608	5.8576	5.0909	5.e-002	-6.6871
11609	5.8576	4.8182	0.	-4593.5
11610	5.7661	4.9091	0.	-4625.2
11611	5.8576	4.9091	5.e-002	-6.6748
11612	5.8576	4.6364	0.	-4587.6
11613	5.7661	4.7273	0.	-4618.7
11614	5.8576	4.7273	5.e-002	-6.6509
11615	5.8576	4.4545	0.	-4582.1
11616	5.7661	4.5455	0.	-4612.5
11617	5.8576	4.5455	5.e-002	-6.617
11618	5.8576	4.2727	0.	-4577.
11619	5.7661	4.3636	0.	-4606.8
11620	5.8576	4.3636	5.e-002	-6.5754
11621	5.8576	4.0909	0.	-4572.5
11622	5.7661	4.1818	0.	-4601.6
11623	5.8576	4.1818	5.e-002	-6.5286
11624	5.8576	3.9091	0.	-4568.5
11625	5.7661	4.	0.	-4597.
11626	5.8576	4.	5.e-002	-6.4796
11627	5.8576	3.7273	0.	-4565.2
11628	5.7661	3.8182	0.	-4593.1
11629	5.8576	3.8182	5.e-002	-6.4317
11630	5.8576	3.5455	0.	-4562.5
11631	5.7661	3.6364	0.	-4589.9
11632	5.8576	3.6364	5.e-002	-6.3884
11633	5.8576	3.3636	0.	-4560.6
11634	5.7661	3.4545	0.	-4587.4
11635	5.8576	3.4545	5.e-002	-6.3526
11636	5.8576	3.1818	0.	-4559.5
11637	5.7661	3.2727	0.	-4585.8
11638	5.8576	3.2727	5.e-002	-6.3271
11639	5.8576	3.	0.	-4559.1
11640	5.7661	3.0909	0.	-4584.9
11641	5.8576	3.0909	5.e-002	-6.3139
11642	5.8576	2.8182	0.	-4559.5
11643	5.7661	2.9091	0.	-4584.9
11644	5.8576	2.9091	5.e-002	-6.3139
11645	5.8576	2.6364	0.	-4560.6
11646	5.7661	2.7273	0.	-4585.8
11647	5.8576	2.7273	5.e-002	-6.3271
11648	5.8576	2.4545	0.	-4562.5
11649	5.7661	2.5455	0.	-4587.4
11650	5.8576	2.5455	5.e-002	-6.3526
11651	5.8576	2.2727	0.	-4565.2
11652	5.7661	2.3636	0.	-4589.9
11653	5.8576	2.3636	5.e-002	-6.3884
11654	5.8576	2.0909	0.	-4568.5
11655	5.7661	2.1818	0.	-4593.1
11656	5.8576	2.1818	5.e-002	-6.4317
11657	5.8576	1.9091	0.	-4572.5
11658	5.7661	2.	0.	-4597.
11659	5.8576	2.	5.e-002	-6.4797
11660	5.8576	1.7273	0.	-4577.
11661	5.7661	1.8182	0.	-4601.6
11662	5.8576	1.8182	5.e-002	-6.5286
11663	5.8576	1.5455	0.	-4582.1
11664	5.7661	1.6364	0.	-4606.8
11665	5.8576	1.6364	5.e-002	-6.5754
11666	5.8576	1.3636	0.	-4587.6
11667	5.7661	1.4545	0.	-4612.5
11668	5.8576	1.4545	5.e-002	-6.6171
11669	5.8576	1.1818	0.	-4593.5
11670	5.7661	1.2727	0.	-4618.7
11671	5.8576	1.2727	5.e-002	-6.6509
11672	5.8576	1.	0.	-4599.8
11673	5.7661	1.0909	0.	-4625.2
11674	5.8576	1.0909	5.e-002	-6.6748
11675	5.8576	0.81818	0.	-4606.3
11676	5.7661	0.90909	0.	-4632.1
11677	5.8576	0.90909	5.e-002	-6.6872
11678	5.8576	0.63636	0.	-4613.1
11679	5.7661	0.72727	0.	-4639.3
11680	5.8576	0.72727	5.e-002	-6.6869
11681	5.8576	0.45455	0.	-4620.2
11682	5.7661	0.54545	0.	-4646.7
11683	5.8576	0.54545	5.e-002	-6.6696
11684	5.8576	0.27273	0.	-4627.5
11685	5.7661	0.36364	0.	-4654.3
11686	5.8576	0.36364	5.e-002	-6.5757
11687	5.7661	0.18182	0.	-4662.3
11688	5.8576	0.18182	5.e-002	-5.535
11689	5.8576	9.0909e-002	0.	-4634.1
11690	5.6746	5.7273	0.	-4689.2
11691	5.5831	5.8182	0.	-4724.5
11692	5.6746	5.8182	5.e-002	-5.9105
11693	5.6746	5.9091	0.	-4696.6
11694	5.6746	5.5455	0.	-4680.9
11695	5.5831	5.6364	0.	-4715.6
11696	5.6746	5.6364	5.e-002	-6.6642
11697	5.6746	5.3636	0.	-4672.9
11698	5.5831	5.4545	0.	-4707.
11699	5.6746	5.4545	5.e-002	-6.7412
11700	5.6746	5.1818	0.	-4665.1
11701	5.5831	5.2727	0.	-4698.6
11702	5.6746	5.2727	5.e-002	-6.7599
11703	5.6746	5.	0.	-4657.6
11704	5.5831	5.0909	0.	-4690.5
11705	5.6746	5.0909	5.e-002	-6.7641
11706	5.6746	4.8182	0.	-4650.4
11707	5.5831	4.9091	0.	-4682.6
11708	5.6746	4.9091	5.e-002	-6.7565
11709	5.6746	4.6364	0.	-4643.6
11710	5.5831	4.7273	0.	-4675.2
11711	5.6746	4.7273	5.e-002	-6.7384
11712	5.6746	4.4545	0.	-4637.2
11713	5.5831	4.5455	0.	-4668.2
11714	5.6746	4.5455	5.e-002	-6.7112
11715	5.6746	4.2727	0.	-4631.4
11716	5.5831	4.3636	0.	-4661.7
11717	5.6746	4.3636	5.e-002	-6.6767
11718	5.6746	4.0909	0.	-4626.2
11719	5.5831	4.1818	0.	-4655.8
11720	5.6746	4.1818	5.e-002	-6.6375
11721	5.6746	3.9091	0.	-4621.6
11722	5.5831	4.	0.	-4650.6
11723	5.6746	4.	5.e-002	-6.596
11724	5.6746	3.7273	0.	-4617.8
11725	5.5831	3.8182	0.	-4646.1
11726	5.6746	3.8182	5.e-002	-6.5553
11727	5.6746	3.5455	0.	-4614.8
11728	5.5831	3.6364	0.	-4642.5
11729	5.6746	3.6364	5.e-002	-6.5183
11730	5.6746	3.3636	0.	-4612.6
11731	5.5831	3.4545	0.	-4639.7
11732	5.6746	3.4545	5.e-002	-6.4878
11733	5.6746	3.1818	0.	-4611.3
11734	5.5831	3.2727	0.	-4637.8
11735	5.6746	3.2727	5.e-002	-6.466
11736	5.6746	3.	0.	-4610.8
11737	5.5831	3.0909	0.	-4636.9
11738	5.6746	3.0909	5.e-002	-6.4547
11739	5.6746	2.8182	0.	-4611.3
11740	5.5831	2.9091	0.	-4636.9
11741	5.6746	2.9091	5.e-002	-6.4547
11742	5.6746	2.6364	0.	-4612.6
11743	5.5831	2.7273	0.	-4637.8
11744	5.6746	2.7273	5.e-002	-6.4661
11745	5.6746	2.4545	0.	-4614.8
11746	5.5831	2.5455	0.	-4639.7
11747	5.6746	2.5455	5.e-002	-6.4878
11748	5.6746	2.2727	0.	-4617.8
11749	5.5831	2.3636	0.	-4642.5
11750	5.6746	2.3636	5.e-002	-6.5183
11751	5.6746	2.0909	0.	-4621.6
11752	5.5831	2.1818	0.	-4646.1
11753	5.6746	2.1818	5.e-002	-6.5554
11754	5.6746	1.9091	0.	-4626.2
11755	5.5831	2.	0.	-4650.6
11756	5.6746	2.	5.e-002	-6.596
11757	5.6746	1.7273	0.	-4631.4
11758	5.5831	1.8182	0.	-4655.8
11759	5.6746	1.8182	5.e-002	-6.6375
11760	5.6746	1.5455	0.	-4637.2
11761	5.5831	1.6364	0.	-4661.7
11762	5.6746	1.6364	5.e-002	-6.6768
11763	5.6746	1.3636	0.	-4643.6
11764	5.5831	1.4545	0.	-4668.2
11765	5.6746	1.4545	5.e-002	-6.7112
11766	5.6746	1.1818	0.	-4650.4
11767	5.5831	1.2727	0.	-4675.2
11768	5.6746	1.2727	5.e-002	-6.7384
11769	5.6746	1.	0.	-4657.6
11770	5.5831	1.0909	0.	-4682.6
11771	5.6746	1.0909	5.e-002	-6.7565
11772	5.6746	0.81818	0.	-4665.1
11773	5.5831	0.90909	0.	-4690.5
11774	5.6746	0.90909	5.e-002	-6.764
11775	5.6746	0.63636	0.	-4672.9
11776	5.5831	0.72727	0.	-4698.6
11777	5.6746	0.72727	5.e-002	-6.7601
11778	5.6746	0.45455	0.	-4680.9
11779	5.5831	0.54545	0.	-4707.
11780	5.6746	0.54545	5.e-002	-6.7413
11781	5.6746	0.27273	0.	-4689.2
11782	5.5831	0.36364	0.	-4715.6
11783	5.6746	0.36364	5.e-002	-6.6642
11784	5.5831	0.18182	0.	-4724.5
11785	5.6746	0.18182	5.e-002	-5.9105
11786	5.6746	9.0909e-002	0.	-4696.6
11787	5.4915	5.7273	0.	-4751.
11788	5.4	5.8182	0.	-4786.9
11789	5.4915	5.8182	5.e-002	-6.3357
11790	5.4915	5.9091	0.	-4759.2
11791	5.4915	5.5455	0.	-4741.7
11792	5.4	5.6364	0.	-4777.
11793	5.4915	5.6364	5.e-002	-6.7744
11794	5.4915	5.3636	0.	-4732.8
11795	5.4	5.4545	0.	-4767.5
11796	5.4915	5.4545	5.e-002	-6.8324
11797	5.4915	5.1818	0.	-4724.
11798	5.4	5.2727	0.	-4758.1
11799	5.4915	5.2727	5.e-002	-6.8518
11800	5.4915	5.	0.	-4715.6
11801	5.4	5.0909	0.	-4749.
11802	5.4915	5.0909	5.e-002	-6.8585
11803	5.4915	4.8182	0.	-4707.4
11804	5.4	4.9091	0.	-4740.3
11805	5.4915	4.9091	5.e-002	-6.8543
11806	5.4915	4.6364	0.	-4699.8
11807	5.4	4.7273	0.	-4731.9
11808	5.4915	4.7273	5.e-002	-6.8404
11809	5.4915	4.4545	0.	-4692.6
11810	5.4	4.5455	0.	-4724.1
11811	5.4915	4.5455	5.e-002	-6.8179
11812	5.4915	4.2727	0.	-4686.1
11813	5.4	4.3636	0.	-4716.8
11814	5.4915	4.3636	5.e-002	-6.7886
11815	5.4915	4.0909	0.	-4680.2
11816	5.4	4.1818	0.	-4710.2
11817	5.4915	4.1818	5.e-002	-6.7547
11818	5.4915	3.9091	0.	-4675.1
11819	5.4	4.	0.	-4704.4
11820	5.4915	4.	5.e-002	-6.7186
11821	5.4915	3.7273	0.	-4670.8
11822	5.4	3.8182	0.	-4699.4
11823	5.4915	3.8182	5.e-002	-6.6831
11824	5.4915	3.5455	0.	-4667.4
11825	5.4	3.6364	0.	-4695.4
11826	5.4915	3.6364	5.e-002	-6.6507
11827	5.4915	3.3636	0.	-4664.9
11828	5.4	3.4545	0.	-4692.2
11829	5.4915	3.4545	5.e-002	-6.6239
11830	5.4915	3.1818	0.	-4663.4
11831	5.4	3.2727	0.	-4690.1
11832	5.4915	3.2727	5.e-002	-6.6049
11833	5.4915	3.	0.	-4662.9
11834	5.4	3.0909	0.	-4689.1
11835	5.4915	3.0909	5.e-002	-6.5949
11836	5.4915	2.8182	0.	-4663.4
11837	5.4	2.9091	0.	-4689.1
11838	5.4915	2.9091	5.e-002	-6.5949
11839	5.4915	2.6364	0.	-4664.9
11840	5.4	2.7273	0.	-4690.1
11841	5.4915	2.7273	5.e-002	-6.6049
11842	5.4915	2.4545	0.	-4667.4
11843	5.4	2.5455	0.	-4692.2
11844	5.4915	2.5455	5.e-002	-6.6239
11845	5.4915	2.2727	0.	-4670.8
11846	5.4	2.3636	0.	-4695.4
11847	5.4915	2.3636	5.e-002	-6.6507
11848	5.4915	2.0909	0.	-4675.1
11849	5.4	2.1818	0.	-4699.4
11850	5.4915	2.1818	5.e-002	-6.6831
11851	5.4915	1.9091	0.	-4680.2
11852	5.4	2.	0.	-4704.4
11853	5.4915	2.	5.e-002	-6.7186
11854	5.4915	1.7273	0.	-4686.1
11855	5.4	1.8182	0.	-4710.2
11856	5.4915	1.8182	5.e-002	-6.7547
11857	5.4915	1.5455	0.	-4692.6
11858	5.4	1.6364	0.	-4716.8
11859	5.4915	1.6364	5.e-002	-6.7886
11860	5.4915	1.3636	0.	-4699.8
11861	5.4	1.4545	0.	-4724.1
11862	5.4915	1.4545	5.e-002	-6.8179
11863	5.4915	1.1818	0.	-4707.4
11864	5.4	1.2727	0.	-4731.9
11865	5.4915	1.2727	5.e-002	-6.8404
11866	5.4915	1.	0.	-4715.6
11867	5.4	1.0909	0.	-4740.3
11868	5.4915	1.0909	5.e-002	-6.8544
11869	5.4915	0.81818	0.	-4724.
11870	5.4	0.90909	0.	-4749.
11871	5.4915	0.90909	5.e-002	-6.8585
11872	5.4915	0.63636	0.	-4732.8
11873	5.4	0.72727	0.	-4758.1
11874	5.4915	0.72727	5.e-002	-6.8518
11875	5.4915	0.45455	0.	-4741.7
11876	5.4	0.54545	0.	-4767.5
11877	5.4915	0.54545	5.e-002	-6.8325
11878	5.4915	0.27273	0.	-4751.
11879	5.4	0.36364	0.	-4777.
11880	5.4915	0.36364	5.e-002	-6.7744
11881	5.4	0.18182	0.	-4786.9
11882	5.4915	0.18182	5.e-002	-6.3357
11883	5.4915	9.0909e-002	0.	-4759.2
11884	5.3085	5.7273	0.	-4813.
11885	5.2169	5.8182	0.	-4849.6
11886	5.3085	5.8182	5.e-002	-6.8097
11887	5.3085	5.9091	0.	-4822.1
11888	5.3085	5.5455	0.	-4802.8
11889	5.2169	5.6364	0.	-4838.7
11890	5.3085	5.6364	5.e-002	-6.9051
11891	5.3085	5.3636	0.	-4792.9
11892	5.2169	5.4545	0.	-4828.2
11893	5.3085	5.4545	5.e-002	-6.9422
11894	5.3085	5.1818	0.	-4783.2
11895	5.2169	5.2727	0.	-4817.9
11896	5.3085	5.2727	5.e-002	-6.9615
11897	5.3085	5.	0.	-4773.8
11898	5.2169	5.0909	0.	-4807.8
11899	5.3085	5.0909	5.e-002	-6.97
11900	5.3085	4.8182	0.	-4764.7
11901	5.2169	4.9091	0.	-4798.1
11902	5.3085	4.9091	5.e-002	-6.9682
11903	5.3085	4.6364	0.	-4756.2
11904	5.2169	4.7273	0.	-4788.9
11905	5.3085	4.7273	5.e-002	-6.957
11906	5.3085	4.4545	0.	-4748.3
11907	5.2169	4.5455	0.	-4780.2
11908	5.3085	4.5455	5.e-002	-6.9377
11909	5.3085	4.2727	0.	-4741.
11910	5.2169	4.3636	0.	-4772.2
11911	5.3085	4.3636	5.e-002	-6.9119
11912	5.3085	4.0909	0.	-4734.5
11913	5.2169	4.1818	0.	-4764.9
11914	5.3085	4.1818	5.e-002	-6.8817
11915	5.3085	3.9091	0.	-4728.8
11916	5.2169	4.	0.	-4758.5
11917	5.3085	4.	5.e-002	-6.8493
11918	5.3085	3.7273	0.	-4724.
11919	5.2169	3.8182	0.	-4753.
11920	5.3085	3.8182	5.e-002	-6.8173
11921	5.3085	3.5455	0.	-4720.2
11922	5.2169	3.6364	0.	-4748.5
11923	5.3085	3.6364	5.e-002	-6.788
11924	5.3085	3.3636	0.	-4717.5
11925	5.2169	3.4545	0.	-4745.1
11926	5.3085	3.4545	5.e-002	-6.7638
11927	5.3085	3.1818	0.	-4715.8
11928	5.2169	3.2727	0.	-4742.7
11929	5.3085	3.2727	5.e-002	-6.7465
11930	5.3085	3.	0.	-4715.3
11931	5.2169	3.0909	0.	-4741.6
11932	5.3085	3.0909	5.e-002	-6.7375
11933	5.3085	2.8182	0.	-4715.8
11934	5.2169	2.9091	0.	-4741.6
11935	5.3085	2.9091	5.e-002	-6.7375
11936	5.3085	2.6364	0.	-4717.5
11937	5.2169	2.7273	0.	-4742.7
11938	5.3085	2.7273	5.e-002	-6.7465
11939	5.3085	2.4545	0.	-4720.2
11940	5.2169	2.5455	0.	-4745.1
11941	5.3085	2.5455	5.e-002	-6.7638
11942	5.3085	2.2727	0.	-4724.
11943	5.2169	2.3636	0.	-4748.5
11944	5.3085	2.3636	5.e-002	-6.788
11945	5.3085	2.0909	0.	-4728.8
11946	5.2169	2.1818	0.	-4753.
11947	5.3085	2.1818	5.e-002	-6.8173
11948	5.3085	1.9091	0.	-4734.5
11949	5.2169	2.	0.	-4758.5
11950	5.3085	2.	5.e-002	-6.8493
11951	5.3085	1.7273	0.	-4741.
11952	5.2169	1.8182	0.	-4764.9
11953	5.3085	1.8182	5.e-002	-6.8817
11954	5.3085	1.5455	0.	-4748.3
11955	5.2169	1.6364	0.	-4772.2
11956	5.3085	1.6364	5.e-002	-6.9119
11957	5.3085	1.3636	0.	-4756.2
11958	5.2169	1.4545	0.	-4780.2
11959	5.3085	1.4545	5.e-002	-6.9378
11960	5.3085	1.1818	0.	-4764.7
11961	5.2169	1.2727	0.	-4788.9
11962	5.3085	1.2727	5.e-002	-6.9571
11963	5.3085	1.	0.	-4773.8
11964	5.2169	1.0909	0.	-4798.1
11965	5.3085	1.0909	5.e-002	-6.9682
11966	5.3085	0.81818	0.	-4783.2
11967	5.2169	0.90909	0.	-4807.8
11968	5.3085	0.90909	5.e-002	-6.97
11969	5.3085	0.63636	0.	-4792.9
11970	5.2169	0.72727	0.	-4817.9
11971	5.3085	0.72727	5.e-002	-6.9615
11972	5.3085	0.45455	0.	-4802.8
11973	5.2169	0.54545	0.	-4828.2
11974	5.3085	0.54545	5.e-002	-6.9423
11975	5.3085	0.27273	0.	-4813.
11976	5.2169	0.36364	0.	-4838.7
11977	5.3085	0.36364	5.e-002	-6.9052
11978	5.2169	0.18182	0.	-4849.6
11979	5.3085	0.18182	5.e-002	-6.8097
11980	5.3085	9.0909e-002	0.	-4822.1
11981	5.1254	5.7273	0.	-4875.3
11982	5.0339	5.8182	0.	-4912.7
11983	5.1254	5.8182	5.e-002	-7.3323
11984	5.1254	5.9091	0.	-4885.2
11985	5.1254	5.5455	0.	-4864.2
11986	5.0339	5.6364	0.	-4900.8
11987	5.1254	5.6364	5.e-002	-7.0555
11988	5.1254	5.3636	0.	-4853.3
11989	5.0339	5.4545	0.	-4889.3
11990	5.1254	5.4545	5.e-002	-7.07
11991	5.1254	5.1818	0.	-4842.6
11992	5.0339	5.2727	0.	-4877.9
11993	5.1254	5.2727	5.e-002	-7.0888
11994	5.1254	5.	0.	-4832.2
11995	5.0339	5.0909	0.	-4866.9
11996	5.1254	5.0909	5.e-002	-7.0985
11997	5.1254	4.8182	0.	-4822.3
11998	5.0339	4.9091	0.	-4856.3
11999	5.1254	4.9091	5.e-002	-7.0983
12000	5.1254	4.6364	0.	-4812.9
12001	5.0339	4.7273	0.	-4846.1
12002	5.1254	4.7273	5.e-002	-7.0889
12003	5.1254	4.4545	0.	-4804.2
12004	5.0339	4.5455	0.	-4836.6
12005	5.1254	4.5455	5.e-002	-7.0716
12006	5.1254	4.2727	0.	-4796.1
12007	5.0339	4.3636	0.	-4827.8
12008	5.1254	4.3636	5.e-002	-7.0479
12009	5.1254	4.0909	0.	-4789.
12010	5.0339	4.1818	0.	-4819.9
12011	5.1254	4.1818	5.e-002	-7.0199
12012	5.1254	3.9091	0.	-4782.7
12013	5.0339	4.	0.	-4812.8
12014	5.1254	4.	5.e-002	-6.9898
12015	5.1254	3.7273	0.	-4777.5
12016	5.0339	3.8182	0.	-4806.8
12017	5.1254	3.8182	5.e-002	-6.9599
12018	5.1254	3.5455	0.	-4773.3
12019	5.0339	3.6364	0.	-4801.9
12020	5.1254	3.6364	5.e-002	-6.9326
12021	5.1254	3.3636	0.	-4770.3
12022	5.0339	3.4545	0.	-4798.1
12023	5.1254	3.4545	5.e-002	-6.91
12024	5.1254	3.1818	0.	-4768.5
12025	5.0339	3.2727	0.	-4795.6
12026	5.1254	3.2727	5.e-002	-6.8938
12027	5.1254	3.	0.	-4767.9
12028	5.0339	3.0909	0.	-4794.3
12029	5.1254	3.0909	5.e-002	-6.8854
12030	5.1254	2.8182	0.	-4768.5
12031	5.0339	2.9091	0.	-4794.3
12032	5.1254	2.9091	5.e-002	-6.8854
12033	5.1254	2.6364	0.	-4770.3
12034	5.0339	2.7273	0.	-4795.6
12035	5.1254	2.7273	5.e-002	-6.8938
12036	5.1254	2.4545	0.	-4773.3
12037	5.0339	2.5455	0.	-4798.1
12038	5.1254	2.5455	5.e-002	-6.91
12039	5.1254	2.2727	0.	-4777.5
12040	5.0339	2.3636	0.	-4801.9
12041	5.1254	2.3636	5.e-002	-6.9326
12042	5.1254	2.0909	0.	-4782.7
12043	5.0339	2.1818	0.	-4806.8
12044	5.1254	2.1818	5.e-002	-6.9599
12045	5.1254	1.9091	0.	-4789.
12046	5.0339	2.	0.	-4812.8
12047	5.1254	2.	5.e-002	-6.9898
12048	5.1254	1.7273	0.	-4796.1
12049	5.0339	1.8182	0.	-4819.9
12050	5.1254	1.8182	5.e-002	-7.0199
12051	5.1254	1.5455	0.	-4804.2
12052	5.0339	1.6364	0.	-4827.8
12053	5.1254	1.6364	5.e-002	-7.048
12054	5.1254	1.3636	0.	-4812.9
12055	5.0339	1.4545	0.	-4836.6
12056	5.1254	1.4545	5.e-002	-7.0716
12057	5.1254	1.1818	0.	-4822.3
12058	5.0339	1.2727	0.	-4846.1
12059	5.1254	1.2727	5.e-002	-7.089
12060	5.1254	1.	0.	-4832.2
12061	5.0339	1.0909	0.	-4856.3
12062	5.1254	1.0909	5.e-002	-7.0984
12063	5.1254	0.81818	0.	-4842.6
12064	5.0339	0.90909	0.	-4866.9
12065	5.1254	0.90909	5.e-002	-7.0985
12066	5.1254	0.63636	0.	-4853.3
12067	5.0339	0.72727	0.	-4877.9
12068	5.1254	0.72727	5.e-002	-7.0888
12069	5.1254	0.45455	0.	-4864.2
12070	5.0339	0.54545	0.	-4889.3
12071	5.1254	0.54545	5.e-002	-7.07
12072	5.1254	0.27273	0.	-4875.3
12073	5.0339	0.36364	0.	-4900.8
12074	5.1254	0.36364	5.e-002	-7.0556
12075	5.0339	0.18182	0.	-4912.7
12076	5.1254	0.18182	5.e-002	-7.3324
12077	5.1254	9.0909e-002	0.	-4885.2
12078	4.9424	5.7273	0.	-4938.1
12079	4.8508	5.8182	0.	-4976.2
12080	4.9424	5.8182	5.e-002	-7.9041
12081	4.9424	5.9091	0.	-4948.8
12082	4.9424	5.5455	0.	-4925.9
12083	4.8508	5.6364	0.	-4963.2
12084	4.9424	5.6364	5.e-002	-7.2251
12085	4.9424	5.3636	0.	-4914.
12086	4.8508	5.4545	0.	-4950.7
12087	4.9424	5.4545	5.e-002	-7.2156
12088	4.9424	5.1818	0.	-4902.3
12089	4.8508	5.2727	0.	-4938.3
12090	4.9424	5.2727	5.e-002	-7.2337
12091	4.9424	5.	0.	-4891.
12092	4.8508	5.0909	0.	-4926.3
12093	4.9424	5.0909	5.e-002	-7.2444
12094	4.9424	4.8182	0.	-4880.1
12095	4.8508	4.9091	0.	-4914.7
12096	4.9424	4.9091	5.e-002	-7.2452
12097	4.9424	4.6364	0.	-4869.9
12098	4.8508	4.7273	0.	-4903.7
12099	4.9424	4.7273	5.e-002	-7.2369
12100	4.9424	4.4545	0.	-4860.3
12101	4.8508	4.5455	0.	-4893.3
12102	4.9424	4.5455	5.e-002	-7.2206
12103	4.9424	4.2727	0.	-4851.5
12104	4.8508	4.3636	0.	-4883.7
12105	4.9424	4.3636	5.e-002	-7.198
12106	4.9424	4.0909	0.	-4843.7
12107	4.8508	4.1818	0.	-4875.
12108	4.9424	4.1818	5.e-002	-7.1711
12109	4.9424	3.9091	0.	-4836.9
12110	4.8508	4.	0.	-4867.4
12111	4.9424	4.	5.e-002	-7.1421
12112	4.9424	3.7273	0.	-4831.2
12113	4.8508	3.8182	0.	-4860.8
12114	4.9424	3.8182	5.e-002	-7.1133
12115	4.9424	3.5455	0.	-4826.7
12116	4.8508	3.6364	0.	-4855.5
12117	4.9424	3.6364	5.e-002	-7.0869
12118	4.9424	3.3636	0.	-4823.4
12119	4.8508	3.4545	0.	-4851.4
12120	4.9424	3.4545	5.e-002	-7.0651
12121	4.9424	3.1818	0.	-4821.4
12122	4.8508	3.2727	0.	-4848.6
12123	4.9424	3.2727	5.e-002	-7.0495
12124	4.9424	3.	0.	-4820.7
12125	4.8508	3.0909	0.	-4847.3
12126	4.9424	3.0909	5.e-002	-7.0414
12127	4.9424	2.8182	0.	-4821.4
12128	4.8508	2.9091	0.	-4847.3
12129	4.9424	2.9091	5.e-002	-7.0414
12130	4.9424	2.6364	0.	-4823.4
12131	4.8508	2.7273	0.	-4848.6
12132	4.9424	2.7273	5.e-002	-7.0496
12133	4.9424	2.4545	0.	-4826.7
12134	4.8508	2.5455	0.	-4851.4
12135	4.9424	2.5455	5.e-002	-7.0652
12136	4.9424	2.2727	0.	-4831.2
12137	4.8508	2.3636	0.	-4855.5
12138	4.9424	2.3636	5.e-002	-7.0869
12139	4.9424	2.0909	0.	-4836.9
12140	4.8508	2.1818	0.	-4860.8
12141	4.9424	2.1818	5.e-002	-7.1133
12142	4.9424	1.9091	0.	-4843.7
12143	4.8508	2.	0.	-4867.4
12144	4.9424	2.	5.e-002	-7.1421
12145	4.9424	1.7273	0.	-4851.5
12146	4.8508	1.8182	0.	-4875.
12147	4.9424	1.8182	5.e-002	-7.1711
12148	4.9424	1.5455	0.	-4860.3
12149	4.8508	1.6364	0.	-4883.7
12150	4.9424	1.6364	5.e-002	-7.198
12151	4.9424	1.3636	0.	-4869.9
12152	4.8508	1.4545	0.	-4893.3
12153	4.9424	1.4545	5.e-002	-7.2207
12154	4.9424	1.1818	0.	-4880.1
12155	4.8508	1.2727	0.	-4903.7
12156	4.9424	1.2727	5.e-002	-7.2369
12157	4.9424	1.	0.	-4891.
12158	4.8508	1.0909	0.	-4914.7
12159	4.9424	1.0909	5.e-002	-7.2453
12160	4.9424	0.81818	0.	-4902.3
12161	4.8508	0.90909	0.	-4926.3
12162	4.9424	0.90909	5.e-002	-7.2444
12163	4.9424	0.63636	0.	-4914.
12164	4.8508	0.72727	0.	-4938.3
12165	4.9424	0.72727	5.e-002	-7.2337
12166	4.9424	0.45455	0.	-4925.9
12167	4.8508	0.54545	0.	-4950.7
12168	4.9424	0.54545	5.e-002	-7.2156
12169	4.9424	0.27273	0.	-4938.1
12170	4.8508	0.36364	0.	-4963.2
12171	4.9424	0.36364	5.e-002	-7.2252
12172	4.8508	0.18182	0.	-4976.2
12173	4.9424	0.18182	5.e-002	-7.9042
12174	4.9424	9.0909e-002	0.	-4948.8
12175	4.7593	5.7273	0.	-5001.3
12176	4.6678	5.8182	0.	-5040.2
12177	4.7593	5.8182	5.e-002	-8.5259
12178	4.7593	5.9091	0.	-5012.8
12179	4.7593	5.5455	0.	-4988.
12180	4.6678	5.6364	0.	-5026.1
12181	4.7593	5.6364	5.e-002	-7.4139
12182	4.7593	5.3636	0.	-4975.1
12183	4.6678	5.4545	0.	-5012.5
12184	4.7593	5.4545	5.e-002	-7.3791
12185	4.7593	5.1818	0.	-4962.4
12186	4.6678	5.2727	0.	-4999.1
12187	4.7593	5.2727	5.e-002	-7.3967
12188	4.7593	5.	0.	-4950.1
12189	4.6678	5.0909	0.	-4986.
12190	4.7593	5.0909	5.e-002	-7.4083
12191	4.7593	4.8182	0.	-4938.3
12192	4.6678	4.9091	0.	-4973.4
12193	4.7593	4.9091	5.e-002	-7.41
12194	4.7593	4.6364	0.	-4927.1
12195	4.6678	4.7273	0.	-4961.5
12196	4.7593	4.7273	5.e-002	-7.4021
12197	4.7593	4.4545	0.	-4916.7
12198	4.6678	4.5455	0.	-4950.2
12199	4.7593	4.5455	5.e-002	-7.3862
12200	4.7593	4.2727	0.	-4907.2
12201	4.6678	4.3636	0.	-4939.8
12202	4.7593	4.3636	5.e-002	-7.3638
12203	4.7593	4.0909	0.	-4898.7
12204	4.6678	4.1818	0.	-4930.4
12205	4.7593	4.1818	5.e-002	-7.3371
12206	4.7593	3.9091	0.	-4891.3
12207	4.6678	4.	0.	-4922.2
12208	4.7593	4.	5.e-002	-7.3083
12209	4.7593	3.7273	0.	-4885.1
12210	4.6678	3.8182	0.	-4915.1
12211	4.7593	3.8182	5.e-002	-7.2796
12212	4.7593	3.5455	0.	-4880.2
12213	4.6678	3.6364	0.	-4909.3
12214	4.7593	3.6364	5.e-002	-7.2534
12215	4.7593	3.3636	0.	-4876.7
12216	4.6678	3.4545	0.	-4904.9
12217	4.7593	3.4545	5.e-002	-7.2318
12218	4.7593	3.1818	0.	-4874.5
12219	4.6678	3.2727	0.	-4901.9
12220	4.7593	3.2727	5.e-002	-7.2164
12221	4.7593	3.	0.	-4873.8
12222	4.6678	3.0909	0.	-4900.4
12223	4.7593	3.0909	5.e-002	-7.2084
12224	4.7593	2.8182	0.	-4874.5
12225	4.6678	2.9091	0.	-4900.4
12226	4.7593	2.9091	5.e-002	-7.2084
12227	4.7593	2.6364	0.	-4876.7
12228	4.6678	2.7273	0.	-4901.9
12229	4.7593	2.7273	5.e-002	-7.2164
12230	4.7593	2.4545	0.	-4880.2
12231	4.6678	2.5455	0.	-4904.9
12232	4.7593	2.5455	5.e-002	-7.2318
12233	4.7593	2.2727	0.	-4885.1
12234	4.6678	2.3636	0.	-4909.3
12235	4.7593	2.3636	5.e-002	-7.2534
12236	4.7593	2.0909	0.	-4891.3
12237	4.6678	2.1818	0.	-4915.1
12238	4.7593	2.1818	5.e-002	-7.2796
12239	4.7593	1.9091	0.	-4898.7
12240	4.6678	2.	0.	-4922.2
12241	4.7593	2.	5.e-002	-7.3083
12242	4.7593	1.7273	0.	-4907.2
12243	4.6678	1.8182	0.	-4930.4
12244	4.7593	1.8182	5.e-002	-7.3371
12245	4.7593	1.5455	0.	-4916.7
12246	4.6678	1.6364	0.	-4939.8
12247	4.7593	1.6364	5.e-002	-7.3638
12248	4.7593	1.3636	0.	-4927.1
12249	4.6678	1.4545	0.	-4950.2
12250	4.7593	1.4545	5.e-002	-7.3862
12251	4.7593	1.1818	0.	-4938.3
12252	4.6678	1.2727	0.	-4961.5
12253	4.7593	1.2727	5.e-002	-7.4022
12254	4.7593	1.	0.	-4950.1
12255	4.6678	1.0909	0.	-4973.4
12256	4.7593	1.0909	5.e-002	-7.41
12257	4.7593	0.81818	0.	-4962.4
12258	4.6678	0.90909	0.	-4986.
12259	4.7593	0.90909	5.e-002	-7.4083
12260	4.7593	0.63636	0.	-4975.1
12261	4.6678	0.72727	0.	-4999.1
12262	4.7593	0.72727	5.e-002	-7.3967
12263	4.7593	0.45455	0.	-4988.
12264	4.6678	0.54545	0.	-5012.5
12265	4.7593	0.54545	5.e-002	-7.3791
12266	4.7593	0.27273	0.	-5001.3
12267	4.6678	0.36364	0.	-5026.1
12268	4.7593	0.36364	5.e-002	-7.4139
12269	4.6678	0.18182	0.	-5040.2
12270	4.7593	0.18182	5.e-002	-8.5259
12271	4.7593	9.0909e-002	0.	-5012.8
12272	4.5763	5.7273	0.	-5065.
12273	4.4847	5.8182	0.	-5104.8
12274	4.5763	5.8182	5.e-002	-9.1989
12275	4.5763	5.9091	0.	-5077.2
12276	4.5763	5.5455	0.	-5050.6
12277	4.4847	5.6364	0.	-5089.4
12278	4.5763	5.6364	5.e-002	-7.6219
12279	4.5763	5.3636	0.	-5036.5
12280	4.4847	5.4545	0.	-5074.7
12281	4.5763	5.4545	5.e-002	-7.5611
12282	4.5763	5.1818	0.	-5022.8
12283	4.4847	5.2727	0.	-5060.2
12284	4.5763	5.2727	5.e-002	-7.5784
12285	4.5763	5.	0.	-5009.5
12286	4.4847	5.0909	0.	-5046.1
12287	4.5763	5.0909	5.e-002	-7.5912
12288	4.5763	4.8182	0.	-4996.7
12289	4.4847	4.9091	0.	-5032.5
12290	4.5763	4.9091	5.e-002	-7.5936
12291	4.5763	4.6364	0.	-4984.6
12292	4.4847	4.7273	0.	-5019.6
12293	4.5763	4.7273	5.e-002	-7.586
12294	4.5763	4.4545	0.	-4973.4
12295	4.4847	4.5455	0.	-5007.4
12296	4.5763	4.5455	5.e-002	-7.57
12297	4.5763	4.2727	0.	-4963.1
12298	4.4847	4.3636	0.	-4996.2
12299	4.5763	4.3636	5.e-002	-7.5472
12300	4.5763	4.0909	0.	-4953.9
12301	4.4847	4.1818	0.	-4986.1
12302	4.5763	4.1818	5.e-002	-7.52
12303	4.5763	3.9091	0.	-4945.9
12304	4.4847	4.	0.	-4977.2
12305	4.5763	4.	5.e-002	-7.4906
12306	4.5763	3.7273	0.	-4939.3
12307	4.4847	3.8182	0.	-4969.6
12308	4.5763	3.8182	5.e-002	-7.4615
12309	4.5763	3.5455	0.	-4934.
12310	4.4847	3.6364	0.	-4963.4
12311	4.5763	3.6364	5.e-002	-7.4349
12312	4.5763	3.3636	0.	-4930.2
12313	4.4847	3.4545	0.	-4958.7
12314	4.5763	3.4545	5.e-002	-7.4129
12315	4.5763	3.1818	0.	-4927.9
12316	4.4847	3.2727	0.	-4955.5
12317	4.5763	3.2727	5.e-002	-7.3972
12318	4.5763	3.	0.	-4927.1
12319	4.4847	3.0909	0.	-4953.9
12320	4.5763	3.0909	5.e-002	-7.3891
12321	4.5763	2.8182	0.	-4927.9
12322	4.4847	2.9091	0.	-4953.9
12323	4.5763	2.9091	5.e-002	-7.3891
12324	4.5763	2.6364	0.	-4930.2
12325	4.4847	2.7273	0.	-4955.5
12326	4.5763	2.7273	5.e-002	-7.3972
12327	4.5763	2.4545	0.	-4934.
12328	4.4847	2.5455	0.	-4958.7
12329	4.5763	2.5455	5.e-002	-7.4129
12330	4.5763	2.2727	0.	-4939.3
12331	4.4847	2.3636	0.	-4963.4
12332	4.5763	2.3636	5.e-002	-7.4349
12333	4.5763	2.0909	0.	-4945.9
12334	4.4847	2.1818	0.	-4969.6
12335	4.5763	2.1818	5.e-002	-7.4615
12336	4.5763	1.9091	0.	-4953.9
12337	4.4847	2.	0.	-4977.2
12338	4.5763	2.	5.e-002	-7.4907
12339	4.5763	1.7273	0.	-4963.1
12340	4.4847	1.8182	0.	-4986.1
12341	4.5763	1.8182	5.e-002	-7.52
12342	4.5763	1.5455	0.	-4973.4
12343	4.4847	1.6364	0.	-4996.2
12344	4.5763	1.6364	5.e-002	-7.5473
12345	4.5763	1.3636	0.	-4984.6
12346	4.4847	1.4545	0.	-5007.4
12347	4.5763	1.4545	5.e-002	-7.57
12348	4.5763	1.1818	0.	-4996.7
12349	4.4847	1.2727	0.	-5019.6
12350	4.5763	1.2727	5.e-002	-7.5861
12351	4.5763	1.	0.	-5009.5
12352	4.4847	1.0909	0.	-5032.5
12353	4.5763	1.0909	5.e-002	-7.5936
12354	4.5763	0.81818	0.	-5022.8
12355	4.4847	0.90909	0.	-5046.1
12356	4.5763	0.90909	5.e-002	-7.5912
12357	4.5763	0.63636	0.	-5036.5
12358	4.4847	0.72727	0.	-5060.2
12359	4.5763	0.72727	5.e-002	-7.5784
12360	4.5763	0.45455	0.	-5050.6
12361	4.4847	0.54545	0.	-5074.7
12362	4.5763	0.54545	5.e-002	-7.5611
12363	4.5763	0.27273	0.	-5065.
12364	4.4847	0.36364	0.	-5089.4
12365	4.5763	0.36364	5.e-002	-7.622
12366	4.4847	0.18182	0.	-5104.8
12367	4.5763	0.18182	5.e-002	-9.1989
12368	4.5763	9.0909e-002	0.	-5077.2
12369	4.3932	5.7273	0.	-5129.2
12370	4.3017	5.8182	0.	-5169.9
12371	4.3932	5.8182	5.e-002	-9.9245
12372	4.3932	5.9091	0.	-5142.1
12373	4.3932	5.5455	0.	-5113.6
12374	4.3017	5.6364	0.	-5153.2
12375	4.3932	5.6364	5.e-002	-7.8495
12376	4.3932	5.3636	0.	-5098.4
12377	4.3017	5.4545	0.	-5137.4
12378	4.3932	5.4545	5.e-002	-7.7622
12379	4.3932	5.1818	0.	-5083.6
12380	4.3017	5.2727	0.	-5121.7
12381	4.3932	5.2727	5.e-002	-7.7799
12382	4.3932	5.	0.	-5069.2
12383	4.3017	5.0909	0.	-5106.5
12384	4.3932	5.0909	5.e-002	-7.7944
12385	4.3932	4.8182	0.	-5055.4
12386	4.3017	4.9091	0.	-5091.9
12387	4.3932	4.9091	5.e-002	-7.7976
12388	4.3932	4.6364	0.	-5042.4
12389	4.3017	4.7273	0.	-5078.
12390	4.3932	4.7273	5.e-002	-7.7903
12391	4.3932	4.4545	0.	-5030.3
12392	4.3017	4.5455	0.	-5065.
12393	4.3932	4.5455	5.e-002	-7.7739
12394	4.3932	4.2727	0.	-5019.3
12395	4.3017	4.3636	0.	-5052.9
12396	4.3932	4.3636	5.e-002	-7.7504
12397	4.3932	4.0909	0.	-5009.4
12398	4.3017	4.1818	0.	-5042.1
12399	4.3932	4.1818	5.e-002	-7.7222
12400	4.3932	3.9091	0.	-5000.9
12401	4.3017	4.	0.	-5032.6
12402	4.3932	4.	5.e-002	-7.6917
12403	4.3932	3.7273	0.	-4993.7
12404	4.3017	3.8182	0.	-5024.4
12405	4.3932	3.8182	5.e-002	-7.6616
12406	4.3932	3.5455	0.	-4988.1
12407	4.3017	3.6364	0.	-5017.8
12408	4.3932	3.6364	5.e-002	-7.6341
12409	4.3932	3.3636	0.	-4984.
12410	4.3017	3.4545	0.	-5012.8
12411	4.3932	3.4545	5.e-002	-7.6114
12412	4.3932	3.1818	0.	-4981.5
12413	4.3017	3.2727	0.	-5009.4
12414	4.3932	3.2727	5.e-002	-7.5953
12415	4.3932	3.	0.	-4980.7
12416	4.3017	3.0909	0.	-5007.7
12417	4.3932	3.0909	5.e-002	-7.5869
12418	4.3932	2.8182	0.	-4981.5
12419	4.3017	2.9091	0.	-5007.7
12420	4.3932	2.9091	5.e-002	-7.5869
12421	4.3932	2.6364	0.	-4984.
12422	4.3017	2.7273	0.	-5009.4
12423	4.3932	2.7273	5.e-002	-7.5953
12424	4.3932	2.4545	0.	-4988.1
12425	4.3017	2.5455	0.	-5012.8
12426	4.3932	2.5455	5.e-002	-7.6114
12427	4.3932	2.2727	0.	-4993.7
12428	4.3017	2.3636	0.	-5017.8
12429	4.3932	2.3636	5.e-002	-7.6341
12430	4.3932	2.0909	0.	-5000.9
12431	4.3017	2.1818	0.	-5024.4
12432	4.3932	2.1818	5.e-002	-7.6616
12433	4.3932	1.9091	0.	-5009.4
12434	4.3017	2.	0.	-5032.6
12435	4.3932	2.	5.e-002	-7.6918
12436	4.3932	1.7273	0.	-5019.3
12437	4.3017	1.8182	0.	-5042.1
12438	4.3932	1.8182	5.e-002	-7.7222
12439	4.3932	1.5455	0.	-5030.3
12440	4.3017	1.6364	0.	-5052.9
12441	4.3932	1.6364	5.e-002	-7.7505
12442	4.3932	1.3636	0.	-5042.4
12443	4.3017	1.4545	0.	-5065.
12444	4.3932	1.4545	5.e-002	-7.7739
12445	4.3932	1.1818	0.	-5055.4
12446	4.3017	1.2727	0.	-5078.
12447	4.3932	1.2727	5.e-002	-7.7903
12448	4.3932	1.	0.	-5069.2
12449	4.3017	1.0909	0.	-5091.9
12450	4.3932	1.0909	5.e-002	-7.7977
12451	4.3932	0.81818	0.	-5083.6
12452	4.3017	0.90909	0.	-5106.5
12453	4.3932	0.90909	5.e-002	-7.7944
12454	4.3932	0.63636	0.	-5098.4
12455	4.3017	0.72727	0.	-5121.7
12456	4.3932	0.72727	5.e-002	-7.78
12457	4.3932	0.45455	0.	-5113.6
12458	4.3017	0.54545	0.	-5137.4
12459	4.3932	0.54545	5.e-002	-7.7623
12460	4.3932	0.27273	0.	-5129.2
12461	4.3017	0.36364	0.	-5153.2
12462	4.3932	0.36364	5.e-002	-7.8496
12463	4.3017	0.18182	0.	-5169.9
12464	4.3932	0.18182	5.e-002	-9.9246
12465	4.3932	9.0909e-002	0.	-5142.1
12466	4.2102	5.7273	0.	-5193.9
12467	4.1186	5.8182	0.	-5235.6
12468	4.2102	5.8182	5.e-002	-10.704
12469	4.2102	5.9091	0.	-5207.5
12470	4.2102	5.5455	0.	-5177.
12471	4.1186	5.6364	0.	-5217.5
12472	4.2102	5.6364	5.e-002	-8.0972
12473	4.2102	5.3636	0.	-5160.7
12474	4.1186	5.4545	0.	-5200.4
12475	4.2102	5.4545	5.e-002	-7.9836
12476	4.2102	5.1818	0.	-5144.7
12477	4.1186	5.2727	0.	-5183.6
12478	4.2102	5.2727	5.e-002	-8.0026
12479	4.2102	5.	0.	-5129.3
12480	4.1186	5.0909	0.	-5167.3
12481	4.2102	5.0909	5.e-002	-8.0193
12482	4.2102	4.8182	0.	-5114.5
12483	4.1186	4.9091	0.	-5151.6
12484	4.2102	4.9091	5.e-002	-8.024
12485	4.2102	4.6364	0.	-5100.5
12486	4.1186	4.7273	0.	-5136.7
12487	4.2102	4.7273	5.e-002	-8.0171
12488	4.2102	4.4545	0.	-5087.6
12489	4.1186	4.5455	0.	-5122.8
12490	4.2102	4.5455	5.e-002	-8.0003
12491	4.2102	4.2727	0.	-5075.8
12492	4.1186	4.3636	0.	-5110.
12493	4.2102	4.3636	5.e-002	-7.9759
12494	4.2102	4.0909	0.	-5065.3
12495	4.1186	4.1818	0.	-5098.4
12496	4.2102	4.1818	5.e-002	-7.9464
12497	4.2102	3.9091	0.	-5056.1
12498	4.1186	4.	0.	-5088.3
12499	4.2102	4.	5.e-002	-7.9146
12500	4.2102	3.7273	0.	-5048.5
12501	4.1186	3.8182	0.	-5079.6
12502	4.2102	3.8182	5.e-002	-7.8831
12503	4.2102	3.5455	0.	-5042.5
12504	4.1186	3.6364	0.	-5072.6
12505	4.2102	3.6364	5.e-002	-7.8544
12506	4.2102	3.3636	0.	-5038.1
12507	4.1186	3.4545	0.	-5067.3
12508	4.2102	3.4545	5.e-002	-7.8308
12509	4.2102	3.1818	0.	-5035.5
12510	4.1186	3.2727	0.	-5063.7
12511	4.2102	3.2727	5.e-002	-7.8141
12512	4.2102	3.	0.	-5034.6
12513	4.1186	3.0909	0.	-5061.9
12514	4.2102	3.0909	5.e-002	-7.8054
12515	4.2102	2.8182	0.	-5035.5
12516	4.1186	2.9091	0.	-5061.9
12517	4.2102	2.9091	5.e-002	-7.8054
12518	4.2102	2.6364	0.	-5038.1
12519	4.1186	2.7273	0.	-5063.7
12520	4.2102	2.7273	5.e-002	-7.8141
12521	4.2102	2.4545	0.	-5042.5
12522	4.1186	2.5455	0.	-5067.3
12523	4.2102	2.5455	5.e-002	-7.8308
12524	4.2102	2.2727	0.	-5048.5
12525	4.1186	2.3636	0.	-5072.6
12526	4.2102	2.3636	5.e-002	-7.8544
12527	4.2102	2.0909	0.	-5056.1
12528	4.1186	2.1818	0.	-5079.6
12529	4.2102	2.1818	5.e-002	-7.8831
12530	4.2102	1.9091	0.	-5065.3
12531	4.1186	2.	0.	-5088.3
12532	4.2102	2.	5.e-002	-7.9146
12533	4.2102	1.7273	0.	-5075.8
12534	4.1186	1.8182	0.	-5098.4
12535	4.2102	1.8182	5.e-002	-7.9464
12536	4.2102	1.5455	0.	-5087.6
12537	4.1186	1.6364	0.	-5110.
12538	4.2102	1.6364	5.e-002	-7.9759
12539	4.2102	1.3636	0.	-5100.5
12540	4.1186	1.4545	0.	-5122.8
12541	4.2102	1.4545	5.e-002	-8.0003
12542	4.2102	1.1818	0.	-5114.5
12543	4.1186	1.2727	0.	-5136.7
12544	4.2102	1.2727	5.e-002	-8.017
12545	4.2102	1.	0.	-5129.3
12546	4.1186	1.0909	0.	-5151.6
12547	4.2102	1.0909	5.e-002	-8.024
12548	4.2102	0.81818	0.	-5144.7
12549	4.1186	0.90909	0.	-5167.3
12550	4.2102	0.90909	5.e-002	-8.0193
12551	4.2102	0.63636	0.	-5160.7
12552	4.1186	0.72727	0.	-5183.6
12553	4.2102	0.72727	5.e-002	-8.0026
12554	4.2102	0.45455	0.	-5177.
12555	4.1186	0.54545	0.	-5200.4
12556	4.2102	0.54545	5.e-002	-7.9836
12557	4.2102	0.27273	0.	-5193.9
12558	4.1186	0.36364	0.	-5217.5
12559	4.2102	0.36364	5.e-002	-8.0973
12560	4.1186	0.18182	0.	-5235.6
12561	4.2102	0.18182	5.e-002	-10.704
12562	4.2102	9.0909e-002	0.	-5207.5
12563	4.0271	5.7273	0.	-5259.2
12564	3.9356	5.8182	0.	-5301.8
12565	4.0271	5.8182	5.e-002	-11.54
12566	4.0271	5.9091	0.	-5273.4
12567	4.0271	5.5455	0.	-5240.9
12568	3.9356	5.6364	0.	-5282.2
12569	4.0271	5.6364	5.e-002	-8.3656
12570	4.0271	5.3636	0.	-5223.4
12571	3.9356	5.4545	0.	-5263.8
12572	4.0271	5.4545	5.e-002	-8.2262
12573	4.0271	5.1818	0.	-5206.2
12574	3.9356	5.2727	0.	-5245.8
12575	4.0271	5.2727	5.e-002	-8.248
12576	4.0271	5.	0.	-5189.7
12577	3.9356	5.0909	0.	-5228.4
12578	4.0271	5.0909	5.e-002	-8.2681
12579	4.0271	4.8182	0.	-5173.9
12580	3.9356	4.9091	0.	-5211.6
12581	4.0271	4.9091	5.e-002	-8.2748
12582	4.0271	4.6364	0.	-5159.
12583	3.9356	4.7273	0.	-5195.7
12584	4.0271	4.7273	5.e-002	-8.2688
12585	4.0271	4.4545	0.	-5145.2
12586	3.9356	4.5455	0.	-5180.9
12587	4.0271	4.5455	5.e-002	-8.2519
12588	4.0271	4.2727	0.	-5132.6
12589	3.9356	4.3636	0.	-5167.3
12590	4.0271	4.3636	5.e-002	-8.2266
12591	4.0271	4.0909	0.	-5121.4
12592	3.9356	4.1818	0.	-5155.1
12593	4.0271	4.1818	5.e-002	-8.1958
12594	4.0271	3.9091	0.	-5111.8
12595	3.9356	4.	0.	-5144.4
12596	4.0271	4.	5.e-002	-8.1624
12597	4.0271	3.7273	0.	-5103.7
12598	3.9356	3.8182	0.	-5135.3
12599	4.0271	3.8182	5.e-002	-8.1295
12600	4.0271	3.5455	0.	-5097.3
12601	3.9356	3.6364	0.	-5127.9
12602	4.0271	3.6364	5.e-002	-8.0996
12603	4.0271	3.3636	0.	-5092.7
12604	3.9356	3.4545	0.	-5122.3
12605	4.0271	3.4545	5.e-002	-8.075
12606	4.0271	3.1818	0.	-5090.
12607	3.9356	3.2727	0.	-5118.5
12608	4.0271	3.2727	5.e-002	-8.0576
12609	4.0271	3.	0.	-5089.
12610	3.9356	3.0909	0.	-5116.6
12611	4.0271	3.0909	5.e-002	-8.0486
12612	4.0271	2.8182	0.	-5090.
12613	3.9356	2.9091	0.	-5116.6
12614	4.0271	2.9091	5.e-002	-8.0486
12615	4.0271	2.6364	0.	-5092.7
12616	3.9356	2.7273	0.	-5118.5
12617	4.0271	2.7273	5.e-002	-8.0576
12618	4.0271	2.4545	0.	-5097.3
12619	3.9356	2.5455	0.	-5122.3
12620	4.0271	2.5455	5.e-002	-8.075
12621	4.0271	2.2727	0.	-5103.7
12622	3.9356	2.3636	0.	-5127.9
12623	4.0271	2.3636	5.e-002	-8.0996
12624	4.0271	2.0909	0.	-5111.8
12625	3.9356	2.1818	0.	-5135.3
12626	4.0271	2.1818	5.e-002	-8.1295
12627	4.0271	1.9091	0.	-5121.4
12628	3.9356	2.	0.	-5144.4
12629	4.0271	2.	5.e-002	-8.1625
12630	4.0271	1.7273	0.	-5132.6
12631	3.9356	1.8182	0.	-5155.1
12632	4.0271	1.8182	5.e-002	-8.1958
12633	4.0271	1.5455	0.	-5145.2
12634	3.9356	1.6364	0.	-5167.3
12635	4.0271	1.6364	5.e-002	-8.2266
12636	4.0271	1.3636	0.	-5159.
12637	3.9356	1.4545	0.	-5180.9
12638	4.0271	1.4545	5.e-002	-8.2519
12639	4.0271	1.1818	0.	-5173.9
12640	3.9356	1.2727	0.	-5195.7
12641	4.0271	1.2727	5.e-002	-8.2688
12642	4.0271	1.	0.	-5189.7
12643	3.9356	1.0909	0.	-5211.6
12644	4.0271	1.0909	5.e-002	-8.2749
12645	4.0271	0.81818	0.	-5206.2
12646	3.9356	0.90909	0.	-5228.4
12647	4.0271	0.90909	5.e-002	-8.2682
12648	4.0271	0.63636	0.	-5223.4
12649	3.9356	0.72727	0.	-5245.8
12650	4.0271	0.72727	5.e-002	-8.2481
12651	4.0271	0.45455	0.	-5240.9
12652	3.9356	0.54545	0.	-5263.8
12653	4.0271	0.54545	5.e-002	-8.2263
12654	4.0271	0.27273	0.	-5259.2
12655	3.9356	0.36364	0.	-5282.2
12656	4.0271	0.36364	5.e-002	-8.3657
12657	3.9356	0.18182	0.	-5301.8
12658	4.0271	0.18182	5.e-002	-11.54
12659	4.0271	9.0909e-002	0.	-5273.4
12660	3.8441	5.7273	0.	-5324.9
12661	3.7525	5.8182	0.	-5368.5
12662	3.8441	5.8182	5.e-002	-12.432
12663	3.8441	5.9091	0.	-5339.6
12664	3.8441	5.5455	0.	-5305.1
12665	3.7525	5.6364	0.	-5347.2
12666	3.8441	5.6364	5.e-002	-8.6555
12667	3.8441	5.3636	0.	-5286.3
12668	3.7525	5.4545	0.	-5327.6
12669	3.8441	5.4545	5.e-002	-8.4919
12670	3.8441	5.1818	0.	-5268.
12671	3.7525	5.2727	0.	-5308.3
12672	3.8441	5.2727	5.e-002	-8.5182
12673	3.8441	5.	0.	-5250.3
12674	3.7525	5.0909	0.	-5289.7
12675	3.8441	5.0909	5.e-002	-8.5432
12676	3.8441	4.8182	0.	-5233.5
12677	3.7525	4.9091	0.	-5271.9
12678	3.8441	4.9091	5.e-002	-8.553
12679	3.8441	4.6364	0.	-5217.7
12680	3.7525	4.7273	0.	-5255.
12681	3.8441	4.7273	5.e-002	-8.5485
12682	3.8441	4.4545	0.	-5203.1
12683	3.7525	4.5455	0.	-5239.4
12684	3.8441	4.5455	5.e-002	-8.5318
12685	3.8441	4.2727	0.	-5189.8
12686	3.7525	4.3636	0.	-5225.1
12687	3.8441	4.3636	5.e-002	-8.5058
12688	3.8441	4.0909	0.	-5178.
12689	3.7525	4.1818	0.	-5212.2
12690	3.8441	4.1818	5.e-002	-8.4738
12691	3.8441	3.9091	0.	-5167.9
12692	3.7525	4.	0.	-5201.
12693	3.8441	4.	5.e-002	-8.4391
12694	3.8441	3.7273	0.	-5159.4
12695	3.7525	3.8182	0.	-5191.5
12696	3.8441	3.8182	5.e-002	-8.4048
12697	3.8441	3.5455	0.	-5152.7
12698	3.7525	3.6364	0.	-5183.7
12699	3.8441	3.6364	5.e-002	-8.3738
12700	3.8441	3.3636	0.	-5147.9
12701	3.7525	3.4545	0.	-5177.9
12702	3.8441	3.4545	5.e-002	-8.3484
12703	3.8441	3.1818	0.	-5145.
12704	3.7525	3.2727	0.	-5174.
12705	3.8441	3.2727	5.e-002	-8.3305
12706	3.8441	3.	0.	-5144.1
12707	3.7525	3.0909	0.	-5172.
12708	3.8441	3.0909	5.e-002	-8.3212
12709	3.8441	2.8182	0.	-5145.
12710	3.7525	2.9091	0.	-5172.
12711	3.8441	2.9091	5.e-002	-8.3212
12712	3.8441	2.6364	0.	-5147.9
12713	3.7525	2.7273	0.	-5174.
12714	3.8441	2.7273	5.e-002	-8.3305
12715	3.8441	2.4545	0.	-5152.7
12716	3.7525	2.5455	0.	-5177.9
12717	3.8441	2.5455	5.e-002	-8.3484
12718	3.8441	2.2727	0.	-5159.4
12719	3.7525	2.3636	0.	-5183.7
12720	3.8441	2.3636	5.e-002	-8.3738
12721	3.8441	2.0909	0.	-5167.9
12722	3.7525	2.1818	0.	-5191.5
12723	3.8441	2.1818	5.e-002	-8.4049
12724	3.8441	1.9091	0.	-5178.
12725	3.7525	2.	0.	-5201.
12726	3.8441	2.	5.e-002	-8.4391
12727	3.8441	1.7273	0.	-5189.8
12728	3.7525	1.8182	0.	-5212.2
12729	3.8441	1.8182	5.e-002	-8.4738
12730	3.8441	1.5455	0.	-5203.1
12731	3.7525	1.6364	0.	-5225.1
12732	3.8441	1.6364	5.e-002	-8.5058
12733	3.8441	1.3636	0.	-5217.7
12734	3.7525	1.4545	0.	-5239.4
12735	3.8441	1.4545	5.e-002	-8.5318
12736	3.8441	1.1818	0.	-5233.5
12737	3.7525	1.2727	0.	-5255.
12738	3.8441	1.2727	5.e-002	-8.5485
12739	3.8441	1.	0.	-5250.3
12740	3.7525	1.0909	0.	-5271.9
12741	3.8441	1.0909	5.e-002	-8.5531
12742	3.8441	0.81818	0.	-5268.
12743	3.7525	0.90909	0.	-5289.7
12744	3.8441	0.90909	5.e-002	-8.5432
12745	3.8441	0.63636	0.	-5286.3
12746	3.7525	0.72727	0.	-5308.3
12747	3.8441	0.72727	5.e-002	-8.5183
12748	3.8441	0.45455	0.	-5305.1
12749	3.7525	0.54545	0.	-5327.6
12750	3.8441	0.54545	5.e-002	-8.492
12751	3.8441	0.27273	0.	-5324.9
12752	3.7525	0.36364	0.	-5347.2
12753	3.8441	0.36364	5.e-002	-8.6555
12754	3.7525	0.18182	0.	-5368.5
12755	3.8441	0.18182	5.e-002	-12.432
12756	3.8441	9.0909e-002	0.	-5339.6
12757	3.661	5.7273	0.	-5390.9
12758	3.5695	5.8182	0.	-5435.6
12759	3.661	5.8182	5.e-002	-13.381
12760	3.661	5.9091	0.	-5406.1
12761	3.661	5.5455	0.	-5369.7
12762	3.5695	5.6364	0.	-5412.5
12763	3.661	5.6364	5.e-002	-8.9678
12764	3.661	5.3636	0.	-5349.6
12765	3.5695	5.4545	0.	-5391.5
12766	3.661	5.4545	5.e-002	-8.7827
12767	3.661	5.1818	0.	-5330.1
12768	3.5695	5.2727	0.	-5371.
12769	3.661	5.2727	5.e-002	-8.8158
12770	3.661	5.	0.	-5311.3
12771	3.5695	5.0909	0.	-5351.2
12772	3.661	5.0909	5.e-002	-8.8475
12773	3.661	4.8182	0.	-5293.5
12774	3.5695	4.9091	0.	-5332.4
12775	3.661	4.9091	5.e-002	-8.8618
12776	3.661	4.6364	0.	-5276.8
12777	3.5695	4.7273	0.	-5314.6
12778	3.661	4.7273	5.e-002	-8.8597
12779	3.661	4.4545	0.	-5261.4
12780	3.5695	4.5455	0.	-5298.2
12781	3.661	4.5455	5.e-002	-8.8437
12782	3.661	4.2727	0.	-5247.5
12783	3.5695	4.3636	0.	-5283.2
12784	3.661	4.3636	5.e-002	-8.8175
12785	3.661	4.0909	0.	-5235.1
12786	3.5695	4.1818	0.	-5269.8
12787	3.661	4.1818	5.e-002	-8.7847
12788	3.661	3.9091	0.	-5224.5
12789	3.5695	4.	0.	-5258.2
12790	3.661	4.	5.e-002	-8.749
12791	3.661	3.7273	0.	-5215.8
12792	3.5695	3.8182	0.	-5248.3
12793	3.661	3.8182	5.e-002	-8.7138
12794	3.661	3.5455	0.	-5208.8
12795	3.5695	3.6364	0.	-5240.4
12796	3.661	3.6364	5.e-002	-8.6821
12797	3.661	3.3636	0.	-5203.9
12798	3.5695	3.4545	0.	-5234.4
12799	3.661	3.4545	5.e-002	-8.6563
12800	3.661	3.1818	0.	-5200.9
12801	3.5695	3.2727	0.	-5230.4
12802	3.661	3.2727	5.e-002	-8.6382
12803	3.661	3.	0.	-5199.9
12804	3.5695	3.0909	0.	-5228.4
12805	3.661	3.0909	5.e-002	-8.6288
12806	3.661	2.8182	0.	-5200.9
12807	3.5695	2.9091	0.	-5228.4
12808	3.661	2.9091	5.e-002	-8.6288
12809	3.661	2.6364	0.	-5203.9
12810	3.5695	2.7273	0.	-5230.4
12811	3.661	2.7273	5.e-002	-8.6382
12812	3.661	2.4545	0.	-5208.8
12813	3.5695	2.5455	0.	-5234.4
12814	3.661	2.5455	5.e-002	-8.6563
12815	3.661	2.2727	0.	-5215.8
12816	3.5695	2.3636	0.	-5240.4
12817	3.661	2.3636	5.e-002	-8.6821
12818	3.661	2.0909	0.	-5224.5
12819	3.5695	2.1818	0.	-5248.3
12820	3.661	2.1818	5.e-002	-8.7138
12821	3.661	1.9091	0.	-5235.1
12822	3.5695	2.	0.	-5258.2
12823	3.661	2.	5.e-002	-8.749
12824	3.661	1.7273	0.	-5247.5
12825	3.5695	1.8182	0.	-5269.8
12826	3.661	1.8182	5.e-002	-8.7847
12827	3.661	1.5455	0.	-5261.4
12828	3.5695	1.6364	0.	-5283.2
12829	3.661	1.6364	5.e-002	-8.8175
12830	3.661	1.3636	0.	-5276.8
12831	3.5695	1.4545	0.	-5298.2
12832	3.661	1.4545	5.e-002	-8.8438
12833	3.661	1.1818	0.	-5293.5
12834	3.5695	1.2727	0.	-5314.6
12835	3.661	1.2727	5.e-002	-8.8597
12836	3.661	1.	0.	-5311.3
12837	3.5695	1.0909	0.	-5332.4
12838	3.661	1.0909	5.e-002	-8.8618
12839	3.661	0.81818	0.	-5330.1
12840	3.5695	0.90909	0.	-5351.2
12841	3.661	0.90909	5.e-002	-8.8475
12842	3.661	0.63636	0.	-5349.6
12843	3.5695	0.72727	0.	-5371.
12844	3.661	0.72727	5.e-002	-8.8158
12845	3.661	0.45455	0.	-5369.7
12846	3.5695	0.54545	0.	-5391.5
12847	3.661	0.54545	5.e-002	-8.7827
12848	3.661	0.27273	0.	-5390.9
12849	3.5695	0.36364	0.	-5412.5
12850	3.661	0.36364	5.e-002	-8.9678
12851	3.5695	0.18182	0.	-5435.6
12852	3.661	0.18182	5.e-002	-13.381
12853	3.661	9.0909e-002	0.	-5406.1
12854	3.478	5.7273	0.	-5457.3
12855	3.3864	5.8182	0.	-5502.9
12856	3.478	5.8182	5.e-002	-14.389
12857	3.478	5.9091	0.	-5472.7
12858	3.478	5.5455	0.	-5434.4
12859	3.3864	5.6364	0.	-5477.9
12860	3.478	5.6364	5.e-002	-9.3037
12861	3.478	5.3636	0.	-5413.
12862	3.3864	5.4545	0.	-5455.5
12863	3.478	5.4545	5.e-002	-9.101
12864	3.478	5.1818	0.	-5392.2
12865	3.3864	5.2727	0.	-5433.7
12866	3.478	5.2727	5.e-002	-9.144
12867	3.478	5.	0.	-5372.4
12868	3.3864	5.0909	0.	-5412.8
12869	3.478	5.0909	5.e-002	-9.1848
12870	3.478	4.8182	0.	-5353.6
12871	3.3864	4.9091	0.	-5393.
12872	3.478	4.9091	5.e-002	-9.2052
12873	3.478	4.6364	0.	-5336.1
12874	3.3864	4.7273	0.	-5374.4
12875	3.478	4.7273	5.e-002	-9.2064
12876	3.478	4.4545	0.	-5320.1
12877	3.3864	4.5455	0.	-5357.3
12878	3.478	4.5455	5.e-002	-9.1921
12879	3.478	4.2727	0.	-5305.6
12880	3.3864	4.3636	0.	-5341.8
12881	3.478	4.3636	5.e-002	-9.1662
12882	3.478	4.0909	0.	-5292.9
12883	3.3864	4.1818	0.	-5328.1
12884	3.478	4.1818	5.e-002	-9.1331
12885	3.478	3.9091	0.	-5281.9
12886	3.3864	4.	0.	-5316.1
12887	3.478	4.	5.e-002	-9.097
12888	3.478	3.7273	0.	-5272.9
12889	3.3864	3.8182	0.	-5306.1
12890	3.478	3.8182	5.e-002	-9.0618
12891	3.478	3.5455	0.	-5265.9
12892	3.3864	3.6364	0.	-5298.1
12893	3.478	3.6364	5.e-002	-9.0302
12894	3.478	3.3636	0.	-5260.8
12895	3.3864	3.4545	0.	-5292.
12896	3.478	3.4545	5.e-002	-9.0047
12897	3.478	3.1818	0.	-5257.8
12898	3.3864	3.2727	0.	-5288.
12899	3.478	3.2727	5.e-002	-8.9868
12900	3.478	3.	0.	-5256.8
12901	3.3864	3.0909	0.	-5286.
12902	3.478	3.0909	5.e-002	-8.9777
12903	3.478	2.8182	0.	-5257.8
12904	3.3864	2.9091	0.	-5286.
12905	3.478	2.9091	5.e-002	-8.9777
12906	3.478	2.6364	0.	-5260.8
12907	3.3864	2.7273	0.	-5288.
12908	3.478	2.7273	5.e-002	-8.9868
12909	3.478	2.4545	0.	-5265.9
12910	3.3864	2.5455	0.	-5292.
12911	3.478	2.5455	5.e-002	-9.0047
12912	3.478	2.2727	0.	-5272.9
12913	3.3864	2.3636	0.	-5298.1
12914	3.478	2.3636	5.e-002	-9.0302
12915	3.478	2.0909	0.	-5281.9
12916	3.3864	2.1818	0.	-5306.1
12917	3.478	2.1818	5.e-002	-9.0618
12918	3.478	1.9091	0.	-5292.9
12919	3.3864	2.	0.	-5316.1
12920	3.478	2.	5.e-002	-9.0971
12921	3.478	1.7273	0.	-5305.6
12922	3.3864	1.8182	0.	-5328.1
12923	3.478	1.8182	5.e-002	-9.1331
12924	3.478	1.5455	0.	-5320.1
12925	3.3864	1.6364	0.	-5341.8
12926	3.478	1.6364	5.e-002	-9.1662
12927	3.478	1.3636	0.	-5336.1
12928	3.3864	1.4545	0.	-5357.3
12929	3.478	1.4545	5.e-002	-9.1921
12930	3.478	1.1818	0.	-5353.6
12931	3.3864	1.2727	0.	-5374.4
12932	3.478	1.2727	5.e-002	-9.2065
12933	3.478	1.	0.	-5372.4
12934	3.3864	1.0909	0.	-5393.
12935	3.478	1.0909	5.e-002	-9.2052
12936	3.478	0.81818	0.	-5392.2
12937	3.3864	0.90909	0.	-5412.8
12938	3.478	0.90909	5.e-002	-9.1848
12939	3.478	0.63636	0.	-5413.
12940	3.3864	0.72727	0.	-5433.7
12941	3.478	0.72727	5.e-002	-9.1441
12942	3.478	0.45455	0.	-5434.4
12943	3.3864	0.54545	0.	-5455.5
12944	3.478	0.54545	5.e-002	-9.1011
12945	3.478	0.27273	0.	-5457.3
12946	3.3864	0.36364	0.	-5477.9
12947	3.478	0.36364	5.e-002	-9.3037
12948	3.3864	0.18182	0.	-5502.9
12949	3.478	0.18182	5.e-002	-14.389
12950	3.478	9.0909e-002	0.	-5472.7
12951	3.2949	5.7273	0.	-5523.7
12952	3.2034	5.8182	0.	-5570.3
12953	3.2949	5.8182	5.e-002	-15.454
12954	3.2949	5.9091	0.	-5539.2
12955	3.2949	5.5455	0.	-5499.1
12956	3.2034	5.6364	0.	-5543.2
12957	3.2949	5.6364	5.e-002	-9.665
12958	3.2949	5.3636	0.	-5476.4
12959	3.2034	5.4545	0.	-5519.4
12960	3.2949	5.4545	5.e-002	-9.4505
12961	3.2949	5.1818	0.	-5454.4
12962	3.2034	5.2727	0.	-5496.3
12963	3.2949	5.2727	5.e-002	-9.5073
12964	3.2949	5.	0.	-5433.5
12965	3.2034	5.0909	0.	-5474.4
12966	3.2949	5.0909	5.e-002	-9.5598
12967	3.2949	4.8182	0.	-5413.9
12968	3.2034	4.9091	0.	-5453.7
12969	3.2949	4.9091	5.e-002	-9.588
12970	3.2949	4.6364	0.	-5395.7
12971	3.2034	4.7273	0.	-5434.4
12972	3.2949	4.7273	5.e-002	-9.594
12973	3.2949	4.4545	0.	-5379.1
12974	3.2034	4.5455	0.	-5416.8
12975	3.2949	4.5455	5.e-002	-9.582
12976	3.2949	4.2727	0.	-5364.3
12977	3.2034	4.3636	0.	-5401.
12978	3.2949	4.3636	5.e-002	-9.5571
12979	3.2949	4.0909	0.	-5351.3
12980	3.2034	4.1818	0.	-5387.
12981	3.2949	4.1818	5.e-002	-9.5246
12982	3.2949	3.9091	0.	-5340.3
12983	3.2034	4.	0.	-5375.
12984	3.2949	4.	5.e-002	-9.4893
12985	3.2949	3.7273	0.	-5331.2
12986	3.2034	3.8182	0.	-5365.
12987	3.2949	3.8182	5.e-002	-9.455
12988	3.2949	3.5455	0.	-5324.1
12989	3.2034	3.6364	0.	-5357.1
12990	3.2949	3.6364	5.e-002	-9.4247
12991	3.2949	3.3636	0.	-5319.1
12992	3.2034	3.4545	0.	-5351.1
12993	3.2949	3.4545	5.e-002	-9.4005
12994	3.2949	3.1818	0.	-5316.
12995	3.2034	3.2727	0.	-5347.1
12996	3.2949	3.2727	5.e-002	-9.3837
12997	3.2949	3.	0.	-5315.
12998	3.2034	3.0909	0.	-5345.1
12999	3.2949	3.0909	5.e-002	-9.3752
13000	3.2949	2.8182	0.	-5316.
13001	3.2034	2.9091	0.	-5345.1
13002	3.2949	2.9091	5.e-002	-9.3752
13003	3.2949	2.6364	0.	-5319.1
13004	3.2034	2.7273	0.	-5347.1
13005	3.2949	2.7273	5.e-002	-9.3837
13006	3.2949	2.4545	0.	-5324.1
13007	3.2034	2.5455	0.	-5351.1
13008	3.2949	2.5455	5.e-002	-9.4005
13009	3.2949	2.2727	0.	-5331.2
13010	3.2034	2.3636	0.	-5357.1
13011	3.2949	2.3636	5.e-002	-9.4246
13012	3.2949	2.0909	0.	-5340.3
13013	3.2034	2.1818	0.	-5365.
13014	3.2949	2.1818	5.e-002	-9.455
13015	3.2949	1.9091	0.	-5351.3
13016	3.2034	2.	0.	-5375.
13017	3.2949	2.	5.e-002	-9.4893
13018	3.2949	1.7273	0.	-5364.3
13019	3.2034	1.8182	0.	-5387.
13020	3.2949	1.8182	5.e-002	-9.5246
13021	3.2949	1.5455	0.	-5379.1
13022	3.2034	1.6364	0.	-5401.
13023	3.2949	1.6364	5.e-002	-9.5571
13024	3.2949	1.3636	0.	-5395.7
13025	3.2034	1.4545	0.	-5416.8
13026	3.2949	1.4545	5.e-002	-9.582
13027	3.2949	1.1818	0.	-5413.9
13028	3.2034	1.2727	0.	-5434.4
13029	3.2949	1.2727	5.e-002	-9.594
13030	3.2949	1.	0.	-5433.5
13031	3.2034	1.0909	0.	-5453.7
13032	3.2949	1.0909	5.e-002	-9.5881
13033	3.2949	0.81818	0.	-5454.4
13034	3.2034	0.90909	0.	-5474.4
13035	3.2949	0.90909	5.e-002	-9.5598
13036	3.2949	0.63636	0.	-5476.4
13037	3.2034	0.72727	0.	-5496.3
13038	3.2949	0.72727	5.e-002	-9.5073
13039	3.2949	0.45455	0.	-5499.1
13040	3.2034	0.54545	0.	-5519.4
13041	3.2949	0.54545	5.e-002	-9.4505
13042	3.2949	0.27273	0.	-5523.7
13043	3.2034	0.36364	0.	-5543.2
13044	3.2949	0.36364	5.e-002	-9.6651
13045	3.2034	0.18182	0.	-5570.3
13046	3.2949	0.18182	5.e-002	-15.454
13047	3.2949	9.0909e-002	0.	-5539.2
13048	3.1119	5.7273	0.	-5589.9
13049	3.0203	5.8182	0.	-5637.4
13050	3.1119	5.8182	5.e-002	-16.575
13051	3.1119	5.9091	0.	-5605.4
13052	3.1119	5.5455	0.	-5563.6
13053	3.0203	5.6364	0.	-5608.1
13054	3.1119	5.6364	5.e-002	-10.054
13055	3.1119	5.3636	0.	-5539.5
13056	3.0203	5.4545	0.	-5582.8
13057	3.1119	5.4545	5.e-002	-9.836
13058	3.1119	5.1818	0.	-5516.4
13059	3.0203	5.2727	0.	-5558.6
13060	3.1119	5.2727	5.e-002	-9.9112
13061	3.1119	5.	0.	-5494.6
13062	3.0203	5.0909	0.	-5535.6
13063	3.1119	5.0909	5.e-002	-9.9786
13064	3.1119	4.8182	0.	-5474.3
13065	3.0203	4.9091	0.	-5514.2
13066	3.1119	4.9091	5.e-002	-10.017
13067	3.1119	4.6364	0.	-5455.6
13068	3.0203	4.7273	0.	-5494.5
13069	3.1119	4.7273	5.e-002	-10.028
13070	3.1119	4.4545	0.	-5438.7
13071	3.0203	4.5455	0.	-5476.6
13072	3.1119	4.5455	5.e-002	-10.019
13073	3.1119	4.2727	0.	-5423.7
13074	3.0203	4.3636	0.	-5460.7
13075	3.1119	4.3636	5.e-002	-9.9964
13076	3.1119	4.0909	0.	-5410.7
13077	3.0203	4.1818	0.	-5446.9
13078	3.1119	4.1818	5.e-002	-9.9656
13079	3.1119	3.9091	0.	-5399.7
13080	3.0203	4.	0.	-5435.1
13081	3.1119	4.	5.e-002	-9.9323
13082	3.1119	3.7273	0.	-5390.8
13083	3.0203	3.8182	0.	-5425.4
13084	3.1119	3.8182	5.e-002	-9.9005
13085	3.1119	3.5455	0.	-5383.9
13086	3.0203	3.6364	0.	-5417.7
13087	3.1119	3.6364	5.e-002	-9.8732
13088	3.1119	3.3636	0.	-5379.
13089	3.0203	3.4545	0.	-5412.
13090	3.1119	3.4545	5.e-002	-9.8518
13091	3.1119	3.1818	0.	-5376.1
13092	3.0203	3.2727	0.	-5408.3
13093	3.1119	3.2727	5.e-002	-9.8373
13094	3.1119	3.	0.	-5375.1
13095	3.0203	3.0909	0.	-5406.4
13096	3.1119	3.0909	5.e-002	-9.83
13097	3.1119	2.8182	0.	-5376.1
13098	3.0203	2.9091	0.	-5406.4
13099	3.1119	2.9091	5.e-002	-9.83
13100	3.1119	2.6364	0.	-5379.
13101	3.0203	2.7273	0.	-5408.3
13102	3.1119	2.7273	5.e-002	-9.8373
13103	3.1119	2.4545	0.	-5383.9
13104	3.0203	2.5455	0.	-5412.
13105	3.1119	2.5455	5.e-002	-9.8518
13106	3.1119	2.2727	0.	-5390.8
13107	3.0203	2.3636	0.	-5417.7
13108	3.1119	2.3636	5.e-002	-9.8732
13109	3.1119	2.0909	0.	-5399.7
13110	3.0203	2.1818	0.	-5425.4
13111	3.1119	2.1818	5.e-002	-9.9006
13112	3.1119	1.9091	0.	-5410.7
13113	3.0203	2.	0.	-5435.1
13114	3.1119	2.	5.e-002	-9.9323
13115	3.1119	1.7273	0.	-5423.7
13116	3.0203	1.8182	0.	-5446.9
13117	3.1119	1.8182	5.e-002	-9.9656
13118	3.1119	1.5455	0.	-5438.7
13119	3.0203	1.6364	0.	-5460.7
13120	3.1119	1.6364	5.e-002	-9.9964
13121	3.1119	1.3636	0.	-5455.6
13122	3.0203	1.4545	0.	-5476.6
13123	3.1119	1.4545	5.e-002	-10.019
13124	3.1119	1.1818	0.	-5474.3
13125	3.0203	1.2727	0.	-5494.5
13126	3.1119	1.2727	5.e-002	-10.028
13127	3.1119	1.	0.	-5494.6
13128	3.0203	1.0909	0.	-5514.2
13129	3.1119	1.0909	5.e-002	-10.017
13130	3.1119	0.81818	0.	-5516.4
13131	3.0203	0.90909	0.	-5535.6
13132	3.1119	0.90909	5.e-002	-9.9786
13133	3.1119	0.63636	0.	-5539.5
13134	3.0203	0.72727	0.	-5558.6
13135	3.1119	0.72727	5.e-002	-9.9113
13136	3.1119	0.45455	0.	-5563.6
13137	3.0203	0.54545	0.	-5582.8
13138	3.1119	0.54545	5.e-002	-9.836
13139	3.1119	0.27273	0.	-5589.9
13140	3.0203	0.36364	0.	-5608.1
13141	3.1119	0.36364	5.e-002	-10.054
13142	3.0203	0.18182	0.	-5637.4
13143	3.1119	0.18182	5.e-002	-16.575
13144	3.1119	9.0909e-002	0.	-5605.4
13145	2.9288	5.7273	0.	-5655.7
13146	2.8373	5.8182	0.	-5703.9
13147	2.9288	5.8182	5.e-002	-17.749
13148	2.9288	5.9091	0.	-5670.9
13149	2.9288	5.5455	0.	-5627.4
13150	2.8373	5.6364	0.	-5672.1
13151	2.9288	5.6364	5.e-002	-10.475
13152	2.9288	5.3636	0.	-5602.
13153	2.8373	5.4545	0.	-5645.4
13154	2.9288	5.4545	5.e-002	-10.264
13155	2.9288	5.1818	0.	-5577.9
13156	2.8373	5.2727	0.	-5620.1
13157	2.9288	5.2727	5.e-002	-10.363
13158	2.9288	5.	0.	-5555.3
13159	2.8373	5.0909	0.	-5596.3
13160	2.9288	5.0909	5.e-002	-10.449
13161	2.9288	4.8182	0.	-5534.5
13162	2.8373	4.9091	0.	-5574.4
13163	2.9288	4.9091	5.e-002	-10.499
13164	2.9288	4.6364	0.	-5515.6
13165	2.8373	4.7273	0.	-5554.5
13166	2.9288	4.7273	5.e-002	-10.517
13167	2.9288	4.4545	0.	-5498.7
13168	2.8373	4.5455	0.	-5536.7
13169	2.9288	4.5455	5.e-002	-10.512
13170	2.9288	4.2727	0.	-5483.9
13171	2.8373	4.3636	0.	-5521.1
13172	2.9288	4.3636	5.e-002	-10.491
13173	2.9288	4.0909	0.	-5471.2
13174	2.8373	4.1818	0.	-5507.8
13175	2.9288	4.1818	5.e-002	-10.463
13176	2.9288	3.9091	0.	-5460.7
13177	2.8373	4.	0.	-5496.6
13178	2.9288	4.	5.e-002	-10.434
13179	2.9288	3.7273	0.	-5452.2
13180	2.8373	3.8182	0.	-5487.6
13181	2.9288	3.8182	5.e-002	-10.407
13182	2.9288	3.5455	0.	-5445.7
13183	2.8373	3.6364	0.	-5480.5
13184	2.9288	3.6364	5.e-002	-10.385
13185	2.9288	3.3636	0.	-5441.1
13186	2.8373	3.4545	0.	-5475.4
13187	2.9288	3.4545	5.e-002	-10.368
13188	2.9288	3.1818	0.	-5438.4
13189	2.8373	3.2727	0.	-5472.
13190	2.9288	3.2727	5.e-002	-10.357
13191	2.9288	3.	0.	-5437.5
13192	2.8373	3.0909	0.	-5470.3
13193	2.9288	3.0909	5.e-002	-10.352
13194	2.9288	2.8182	0.	-5438.4
13195	2.8373	2.9091	0.	-5470.3
13196	2.9288	2.9091	5.e-002	-10.352
13197	2.9288	2.6364	0.	-5441.1
13198	2.8373	2.7273	0.	-5472.
13199	2.9288	2.7273	5.e-002	-10.357
13200	2.9288	2.4545	0.	-5445.7
13201	2.8373	2.5455	0.	-5475.4
13202	2.9288	2.5455	5.e-002	-10.368
13203	2.9288	2.2727	0.	-5452.2
13204	2.8373	2.3636	0.	-5480.5
13205	2.9288	2.3636	5.e-002	-10.385
13206	2.9288	2.0909	0.	-5460.7
13207	2.8373	2.1818	0.	-5487.6
13208	2.9288	2.1818	5.e-002	-10.407
13209	2.9288	1.9091	0.	-5471.2
13210	2.8373	2.	0.	-5496.6
13211	2.9288	2.	5.e-002	-10.434
13212	2.9288	1.7273	0.	-5483.9
13213	2.8373	1.8182	0.	-5507.8
13214	2.9288	1.8182	5.e-002	-10.463
13215	2.9288	1.5455	0.	-5498.7
13216	2.8373	1.6364	0.	-5521.1
13217	2.9288	1.6364	5.e-002	-10.491
13218	2.9288	1.3636	0.	-5515.6
13219	2.8373	1.4545	0.	-5536.7
13220	2.9288	1.4545	5.e-002	-10.512
13221	2.9288	1.1818	0.	-5534.5
13222	2.8373	1.2727	0.	-5554.5
13223	2.9288	1.2727	5.e-002	-10.517
13224	2.9288	1.	0.	-5555.3
13225	2.8373	1.0909	0.	-5574.4
13226	2.9288	1.0909	5.e-002	-10.499
13227	2.9288	0.81818	0.	-5577.9
13228	2.8373	0.90909	0.	-5596.3
13229	2.9288	0.90909	5.e-002	-10.449
13230	2.9288	0.63636	0.	-5602.
13231	2.8373	0.72727	0.	-5620.1
13232	2.9288	0.72727	5.e-002	-10.364
13233	2.9288	0.45455	0.	-5627.4
13234	2.8373	0.54545	0.	-5645.4
13235	2.9288	0.54545	5.e-002	-10.264
13236	2.9288	0.27273	0.	-5655.7
13237	2.8373	0.36364	0.	-5672.1
13238	2.9288	0.36364	5.e-002	-10.475
13239	2.8373	0.18182	0.	-5703.9
13240	2.9288	0.18182	5.e-002	-17.749
13241	2.9288	9.0909e-002	0.	-5670.9
13242	2.7458	5.7273	0.	-5720.5
13243	2.6542	5.8182	0.	-5769.2
13244	2.7458	5.8182	5.e-002	-18.971
13245	2.7458	5.9091	0.	-5735.
13246	2.7458	5.5455	0.	-5690.2
13247	2.6542	5.6364	0.	-5734.7
13248	2.7458	5.6364	5.e-002	-10.934
13249	2.7458	5.3636	0.	-5663.6
13250	2.6542	5.4545	0.	-5706.6
13251	2.7458	5.4545	5.e-002	-10.745
13252	2.7458	5.1818	0.	-5638.6
13253	2.6542	5.2727	0.	-5680.3
13254	2.7458	5.2727	5.e-002	-10.875
13255	2.7458	5.	0.	-5615.5
13256	2.6542	5.0909	0.	-5656.
13257	2.7458	5.0909	5.e-002	-10.982
13258	2.7458	4.8182	0.	-5594.4
13259	2.6542	4.9091	0.	-5633.9
13260	2.7458	4.9091	5.e-002	-11.044
13261	2.7458	4.6364	0.	-5575.6
13262	2.6542	4.7273	0.	-5614.3
13263	2.7458	4.7273	5.e-002	-11.069
13264	2.7458	4.4545	0.	-5559.2
13265	2.6542	4.5455	0.	-5597.
13266	2.7458	4.5455	5.e-002	-11.067
13267	2.7458	4.2727	0.	-5545.
13268	2.6542	4.3636	0.	-5582.3
13269	2.7458	4.3636	5.e-002	-11.05
13270	2.7458	4.0909	0.	-5533.1
13271	2.6542	4.1818	0.	-5570.
13272	2.7458	4.1818	5.e-002	-11.027
13273	2.7458	3.9091	0.	-5523.4
13274	2.6542	4.	0.	-5560.
13275	2.7458	4.	5.e-002	-11.003
13276	2.7458	3.7273	0.	-5515.8
13277	2.6542	3.8182	0.	-5552.1
13278	2.7458	3.8182	5.e-002	-10.984
13279	2.7458	3.5455	0.	-5510.
13280	2.6542	3.6364	0.	-5546.1
13281	2.7458	3.6364	5.e-002	-10.969
13282	2.7458	3.3636	0.	-5506.
13283	2.6542	3.4545	0.	-5541.7
13284	2.7458	3.4545	5.e-002	-10.96
13285	2.7458	3.1818	0.	-5503.7
13286	2.6542	3.2727	0.	-5539.
13287	2.7458	3.2727	5.e-002	-10.955
13288	2.7458	3.	0.	-5502.9
13289	2.6542	3.0909	0.	-5537.6
13290	2.7458	3.0909	5.e-002	-10.952
13291	2.7458	2.8182	0.	-5503.7
13292	2.6542	2.9091	0.	-5537.6
13293	2.7458	2.9091	5.e-002	-10.952
13294	2.7458	2.6364	0.	-5506.
13295	2.6542	2.7273	0.	-5539.
13296	2.7458	2.7273	5.e-002	-10.955
13297	2.7458	2.4545	0.	-5510.
13298	2.6542	2.5455	0.	-5541.7
13299	2.7458	2.5455	5.e-002	-10.96
13300	2.7458	2.2727	0.	-5515.8
13301	2.6542	2.3636	0.	-5546.1
13302	2.7458	2.3636	5.e-002	-10.969
13303	2.7458	2.0909	0.	-5523.4
13304	2.6542	2.1818	0.	-5552.1
13305	2.7458	2.1818	5.e-002	-10.984
13306	2.7458	1.9091	0.	-5533.1
13307	2.6542	2.	0.	-5560.
13308	2.7458	2.	5.e-002	-11.003
13309	2.7458	1.7273	0.	-5545.
13310	2.6542	1.8182	0.	-5570.
13311	2.7458	1.8182	5.e-002	-11.027
13312	2.7458	1.5455	0.	-5559.2
13313	2.6542	1.6364	0.	-5582.3
13314	2.7458	1.6364	5.e-002	-11.05
13315	2.7458	1.3636	0.	-5575.6
13316	2.6542	1.4545	0.	-5597.
13317	2.7458	1.4545	5.e-002	-11.067
13318	2.7458	1.1818	0.	-5594.4
13319	2.6542	1.2727	0.	-5614.3
13320	2.7458	1.2727	5.e-002	-11.069
13321	2.7458	1.	0.	-5615.5
13322	2.6542	1.0909	0.	-5633.9
13323	2.7458	1.0909	5.e-002	-11.044
13324	2.7458	0.81818	0.	-5638.6
13325	2.6542	0.90909	0.	-5656.
13326	2.7458	0.90909	5.e-002	-10.982
13327	2.7458	0.63636	0.	-5663.6
13328	2.6542	0.72727	0.	-5680.3
13329	2.7458	0.72727	5.e-002	-10.875
13330	2.7458	0.45455	0.	-5690.2
13331	2.6542	0.54545	0.	-5706.6
13332	2.7458	0.54545	5.e-002	-10.745
13333	2.7458	0.27273	0.	-5720.5
13334	2.6542	0.36364	0.	-5734.7
13335	2.7458	0.36364	5.e-002	-10.934
13336	2.6542	0.18182	0.	-5769.2
13337	2.7458	0.18182	5.e-002	-18.971
13338	2.7458	9.0909e-002	0.	-5735.
13339	2.5627	5.7273	0.	-5783.6
13340	2.4712	5.8182	0.	-5832.4
13341	2.5627	5.8182	5.e-002	-20.234
13342	2.5627	5.9091	0.	-5797.2
13343	2.5627	5.5455	0.	-5751.3
13344	2.4712	5.6364	0.	-5795.2
13345	2.5627	5.6364	5.e-002	-11.439
13346	2.5627	5.3636	0.	-5723.5
13347	2.4712	5.4545	0.	-5765.8
13348	2.5627	5.4545	5.e-002	-11.292
13349	2.5627	5.1818	0.	-5697.9
13350	2.4712	5.2727	0.	-5738.7
13351	2.5627	5.2727	5.e-002	-11.46
13352	2.5627	5.	0.	-5674.6
13353	2.4712	5.0909	0.	-5714.2
13354	2.5627	5.0909	5.e-002	-11.591
13355	2.5627	4.8182	0.	-5653.8
13356	2.4712	4.9091	0.	-5692.5
13357	2.5627	4.9091	5.e-002	-11.666
13358	2.5627	4.6364	0.	-5635.7
13359	2.4712	4.7273	0.	-5673.6
13360	2.5627	4.7273	5.e-002	-11.696
13361	2.5627	4.4545	0.	-5620.2
13362	2.4712	4.5455	0.	-5657.6
13363	2.5627	4.5455	5.e-002	-11.697
13364	2.5627	4.2727	0.	-5607.3
13365	2.4712	4.3636	0.	-5644.5
13366	2.5627	4.3636	5.e-002	-11.683
13367	2.5627	4.0909	0.	-5596.8
13368	2.4712	4.1818	0.	-5633.9
13369	2.5627	4.1818	5.e-002	-11.665
13370	2.5627	3.9091	0.	-5588.5
13371	2.4712	4.	0.	-5625.7
13372	2.5627	4.	5.e-002	-11.651
13373	2.5627	3.7273	0.	-5582.2
13374	2.4712	3.8182	0.	-5619.5
13375	2.5627	3.8182	5.e-002	-11.642
13376	2.5627	3.5455	0.	-5577.6
13377	2.4712	3.6364	0.	-5615.
13378	2.5627	3.6364	5.e-002	-11.638
13379	2.5627	3.3636	0.	-5574.5
13380	2.4712	3.4545	0.	-5612.
13381	2.5627	3.4545	5.e-002	-11.639
13382	2.5627	3.1818	0.	-5572.7
13383	2.4712	3.2727	0.	-5610.1
13384	2.5627	3.2727	5.e-002	-11.642
13385	2.5627	3.	0.	-5572.1
13386	2.4712	3.0909	0.	-5609.2
13387	2.5627	3.0909	5.e-002	-11.644
13388	2.5627	2.8182	0.	-5572.7
13389	2.4712	2.9091	0.	-5609.2
13390	2.5627	2.9091	5.e-002	-11.643
13391	2.5627	2.6364	0.	-5574.5
13392	2.4712	2.7273	0.	-5610.1
13393	2.5627	2.7273	5.e-002	-11.642
13394	2.5627	2.4545	0.	-5577.6
13395	2.4712	2.5455	0.	-5612.
13396	2.5627	2.5455	5.e-002	-11.639
13397	2.5627	2.2727	0.	-5582.2
13398	2.4712	2.3636	0.	-5615.
13399	2.5627	2.3636	5.e-002	-11.638
13400	2.5627	2.0909	0.	-5588.5
13401	2.4712	2.1818	0.	-5619.5
13402	2.5627	2.1818	5.e-002	-11.642
13403	2.5627	1.9091	0.	-5596.8
13404	2.4712	2.	0.	-5625.7
13405	2.5627	2.	5.e-002	-11.651
13406	2.5627	1.7273	0.	-5607.3
13407	2.4712	1.8182	0.	-5633.9
13408	2.5627	1.8182	5.e-002	-11.665
13409	2.5627	1.5455	0.	-5620.2
13410	2.4712	1.6364	0.	-5644.5
13411	2.5627	1.6364	5.e-002	-11.683
13412	2.5627	1.3636	0.	-5635.7
13413	2.4712	1.4545	0.	-5657.6
13414	2.5627	1.4545	5.e-002	-11.697
13415	2.5627	1.1818	0.	-5653.8
13416	2.4712	1.2727	0.	-5673.6
13417	2.5627	1.2727	5.e-002	-11.696
13418	2.5627	1.	0.	-5674.6
13419	2.4712	1.0909	0.	-5692.5
13420	2.5627	1.0909	5.e-002	-11.666
13421	2.5627	0.81818	0.	-5697.9
13422	2.4712	0.90909	0.	-5714.2
13423	2.5627	0.90909	5.e-002	-11.591
13424	2.5627	0.63636	0.	-5723.5
13425	2.4712	0.72727	0.	-5738.7
13426	2.5627	0.72727	5.e-002	-11.46
13427	2.5627	0.45455	0.	-5751.3
13428	2.4712	0.54545	0.	-5765.8
13429	2.5627	0.54545	5.e-002	-11.292
13430	2.5627	0.27273	0.	-5783.6
13431	2.4712	0.36364	0.	-5795.2
13432	2.5627	0.36364	5.e-002	-11.439
13433	2.4712	0.18182	0.	-5832.4
13434	2.5627	0.18182	5.e-002	-20.234
13435	2.5627	9.0909e-002	0.	-5797.2
13436	2.3797	5.7273	0.	-5844.2
13437	2.2881	5.8182	0.	-5892.7
13438	2.3797	5.8182	5.e-002	-21.527
13439	2.3797	5.9091	0.	-5856.4
13440	2.3797	5.5455	0.	-5809.9
13441	2.2881	5.6364	0.	-5852.5
13442	2.3797	5.6364	5.e-002	-12.008
13443	2.3797	5.3636	0.	-5781.2
13444	2.2881	5.4545	0.	-5821.9
13445	2.3797	5.4545	5.e-002	-11.927
13446	2.3797	5.1818	0.	-5755.2
13447	2.2881	5.2727	0.	-5794.5
13448	2.3797	5.2727	5.e-002	-12.14
13449	2.3797	5.	0.	-5732.2
13450	2.2881	5.0909	0.	-5770.3
13451	2.3797	5.0909	5.e-002	-12.296
13452	2.3797	4.8182	0.	-5712.3
13453	2.2881	4.9091	0.	-5749.5
13454	2.3797	4.9091	5.e-002	-12.38
13455	2.3797	4.6364	0.	-5695.6
13456	2.2881	4.7273	0.	-5732.3
13457	2.3797	4.7273	5.e-002	-12.412
13458	2.3797	4.4545	0.	-5681.8
13459	2.2881	4.5455	0.	-5718.4
13460	2.3797	4.5455	5.e-002	-12.413
13461	2.3797	4.2727	0.	-5671.
13462	2.2881	4.3636	0.	-5707.7
13463	2.3797	4.3636	5.e-002	-12.402
13464	2.3797	4.0909	0.	-5662.7
13465	2.2881	4.1818	0.	-5699.9
13466	2.3797	4.1818	5.e-002	-12.391
13467	2.3797	3.9091	0.	-5656.5
13468	2.2881	4.	0.	-5694.3
13469	2.3797	4.	5.e-002	-12.388
13470	2.3797	3.7273	0.	-5652.2
13471	2.2881	3.8182	0.	-5690.7
13472	2.3797	3.8182	5.e-002	-12.394
13473	2.3797	3.5455	0.	-5649.2
13474	2.2881	3.6364	0.	-5688.4
13475	2.3797	3.6364	5.e-002	-12.406
13476	2.3797	3.3636	0.	-5647.4
13477	2.2881	3.4545	0.	-5687.1
13478	2.3797	3.4545	5.e-002	-12.42
13479	2.3797	3.1818	0.	-5646.4
13480	2.2881	3.2727	0.	-5686.4
13481	2.3797	3.2727	5.e-002	-12.432
13482	2.3797	3.	0.	-5646.1
13483	2.2881	3.0909	0.	-5686.2
13484	2.3797	3.0909	5.e-002	-12.439
13485	2.3797	2.8182	0.	-5646.4
13486	2.2881	2.9091	0.	-5686.2
13487	2.3797	2.9091	5.e-002	-12.439
13488	2.3797	2.6364	0.	-5647.4
13489	2.2881	2.7273	0.	-5686.4
13490	2.3797	2.7273	5.e-002	-12.432
13491	2.3797	2.4545	0.	-5649.2
13492	2.2881	2.5455	0.	-5687.1
13493	2.3797	2.5455	5.e-002	-12.42
13494	2.3797	2.2727	0.	-5652.2
13495	2.2881	2.3636	0.	-5688.4
13496	2.3797	2.3636	5.e-002	-12.406
13497	2.3797	2.0909	0.	-5656.5
13498	2.2881	2.1818	0.	-5690.7
13499	2.3797	2.1818	5.e-002	-12.394
13500	2.3797	1.9091	0.	-5662.7
13501	2.2881	2.	0.	-5694.3
13502	2.3797	2.	5.e-002	-12.388
13503	2.3797	1.7273	0.	-5671.
13504	2.2881	1.8182	0.	-5699.9
13505	2.3797	1.8182	5.e-002	-12.391
13506	2.3797	1.5455	0.	-5681.8
13507	2.2881	1.6364	0.	-5707.7
13508	2.3797	1.6364	5.e-002	-12.402
13509	2.3797	1.3636	0.	-5695.6
13510	2.2881	1.4545	0.	-5718.4
13511	2.3797	1.4545	5.e-002	-12.413
13512	2.3797	1.1818	0.	-5712.3
13513	2.2881	1.2727	0.	-5732.3
13514	2.3797	1.2727	5.e-002	-12.412
13515	2.3797	1.	0.	-5732.2
13516	2.2881	1.0909	0.	-5749.5
13517	2.3797	1.0909	5.e-002	-12.38
13518	2.3797	0.81818	0.	-5755.2
13519	2.2881	0.90909	0.	-5770.3
13520	2.3797	0.90909	5.e-002	-12.296
13521	2.3797	0.63636	0.	-5781.2
13522	2.2881	0.72727	0.	-5794.5
13523	2.3797	0.72727	5.e-002	-12.14
13524	2.3797	0.45455	0.	-5809.9
13525	2.2881	0.54545	0.	-5821.9
13526	2.3797	0.54545	5.e-002	-11.927
13527	2.3797	0.27273	0.	-5844.2
13528	2.2881	0.36364	0.	-5852.5
13529	2.3797	0.36364	5.e-002	-12.008
13530	2.2881	0.18182	0.	-5892.7
13531	2.3797	0.18182	5.e-002	-21.527
13532	2.3797	9.0909e-002	0.	-5856.4
13533	2.1966	5.7273	0.	-5901.2
13534	2.1051	5.8182	0.	-5948.6
13535	2.1966	5.8182	5.e-002	-22.833
13536	2.1966	5.9091	0.	-5911.4
13537	2.1966	5.5455	0.	-5864.7
13538	2.1051	5.6364	0.	-5905.1
13539	2.1966	5.6364	5.e-002	-12.664
13540	2.1966	5.3636	0.	-5835.4
13541	2.1051	5.4545	0.	-5873.7
13542	2.1966	5.4545	5.e-002	-12.682
13543	2.1966	5.1818	0.	-5809.7
13544	2.1051	5.2727	0.	-5846.4
13545	2.1966	5.2727	5.e-002	-12.945
13546	2.1966	5.	0.	-5787.7
13547	2.1051	5.0909	0.	-5823.3
13548	2.1966	5.0909	5.e-002	-13.122
13549	2.1966	4.8182	0.	-5769.5
13550	2.1051	4.9091	0.	-5804.4
13551	2.1966	4.9091	5.e-002	-13.208
13552	2.1966	4.6364	0.	-5755.1
13553	2.1051	4.7273	0.	-5789.9
13554	2.1966	4.7273	5.e-002	-13.233
13555	2.1966	4.4545	0.	-5744.2
13556	2.1051	4.5455	0.	-5779.4
13557	2.1966	4.5455	5.e-002	-13.23
13558	2.1966	4.2727	0.	-5736.5
13559	2.1051	4.3636	0.	-5772.5
13560	2.1966	4.3636	5.e-002	-13.22
13561	2.1966	4.0909	0.	-5731.3
13562	2.1051	4.1818	0.	-5768.4
13563	2.1966	4.1818	5.e-002	-13.218
13564	2.1966	3.9091	0.	-5728.2
13565	2.1051	4.	0.	-5766.7
13566	2.1966	4.	5.e-002	-13.23
13567	2.1966	3.7273	0.	-5726.6
13568	2.1051	3.8182	0.	-5766.5
13569	2.1966	3.8182	5.e-002	-13.254
13570	2.1966	3.5455	0.	-5726.
13571	2.1051	3.6364	0.	-5767.2
13572	2.1966	3.6364	5.e-002	-13.285
13573	2.1966	3.3636	0.	-5725.9
13574	2.1051	3.4545	0.	-5768.3
13575	2.1966	3.4545	5.e-002	-13.316
13576	2.1966	3.1818	0.	-5725.9
13577	2.1051	3.2727	0.	-5769.2
13578	2.1966	3.2727	5.e-002	-13.34
13579	2.1966	3.	0.	-5726.
13580	2.1051	3.0909	0.	-5769.8
13581	2.1966	3.0909	5.e-002	-13.353
13582	2.1966	2.8182	0.	-5725.9
13583	2.1051	2.9091	0.	-5769.8
13584	2.1966	2.9091	5.e-002	-13.353
13585	2.1966	2.6364	0.	-5725.9
13586	2.1051	2.7273	0.	-5769.2
13587	2.1966	2.7273	5.e-002	-13.34
13588	2.1966	2.4545	0.	-5726.
13589	2.1051	2.5455	0.	-5768.3
13590	2.1966	2.5455	5.e-002	-13.316
13591	2.1966	2.2727	0.	-5726.6
13592	2.1051	2.3636	0.	-5767.2
13593	2.1966	2.3636	5.e-002	-13.285
13594	2.1966	2.0909	0.	-5728.2
13595	2.1051	2.1818	0.	-5766.5
13596	2.1966	2.1818	5.e-002	-13.254
13597	2.1966	1.9091	0.	-5731.3
13598	2.1051	2.	0.	-5766.7
13599	2.1966	2.	5.e-002	-13.23
13600	2.1966	1.7273	0.	-5736.5
13601	2.1051	1.8182	0.	-5768.4
13602	2.1966	1.8182	5.e-002	-13.218
13603	2.1966	1.5455	0.	-5744.2
13604	2.1051	1.6364	0.	-5772.5
13605	2.1966	1.6364	5.e-002	-13.22
13606	2.1966	1.3636	0.	-5755.1
13607	2.1051	1.4545	0.	-5779.4
13608	2.1966	1.4545	5.e-002	-13.23
13609	2.1966	1.1818	0.	-5769.5
13610	2.1051	1.2727	0.	-5789.9
13611	2.1966	1.2727	5.e-002	-13.233
13612	2.1966	1.	0.	-5787.7
13613	2.1051	1.0909	0.	-5804.4
13614	2.1966	1.0909	5.e-002	-13.208
13615	2.1966	0.81818	0.	-5809.7
13616	2.1051	0.90909	0.	-5823.3
13617	2.1966	0.90909	5.e-002	-13.122
13618	2.1966	0.63636	0.	-5835.4
13619	2.1051	0.72727	0.	-5846.4
13620	2.1966	0.72727	5.e-002	-12.945
13621	2.1966	0.45455	0.	-5864.7
13622	2.1051	0.54545	0.	-5873.7
13623	2.1966	0.54545	5.e-002	-12.682
13624	2.1966	0.27273	0.	-5901.2
13625	2.1051	0.36364	0.	-5905.1
13626	2.1966	0.36364	5.e-002	-12.664
13627	2.1051	0.18182	0.	-5948.6
13628	2.1966	0.18182	5.e-002	-22.833
13629	2.1966	9.0909e-002	0.	-5911.4
13630	2.0136	5.7273	0.	-5952.8
13631	1.922	5.8182	0.	-5998.2
13632	2.0136	5.8182	5.e-002	-24.132
13633	2.0136	5.9091	0.	-5960.5
13634	2.0136	5.5455	0.	-5914.4
13635	1.922	5.6364	0.	-5951.3
13636	2.0136	5.6364	5.e-002	-13.45
13637	2.0136	5.3636	0.	-5884.9
13638	1.922	5.4545	0.	-5919.4
13639	2.0136	5.4545	5.e-002	-13.604
13640	2.0136	5.1818	0.	-5860.1
13641	1.922	5.2727	0.	-5893.
13642	2.0136	5.2727	5.e-002	-13.917
13643	2.0136	5.	0.	-5840.1
13644	1.922	5.0909	0.	-5872.1
13645	2.0136	5.0909	5.e-002	-14.103
13646	2.0136	4.8182	0.	-5824.9
13647	1.922	4.9091	0.	-5856.6
13648	2.0136	4.9091	5.e-002	-14.176
13649	2.0136	4.6364	0.	-5814.2
13650	1.922	4.7273	0.	-5846.3
13651	2.0136	4.7273	5.e-002	-14.182
13652	2.0136	4.4545	0.	-5807.5
13653	1.922	4.5455	0.	-5840.8
13654	2.0136	4.5455	5.e-002	-14.166
13655	2.0136	4.2727	0.	-5804.3
13656	1.922	4.3636	0.	-5839.1
13657	2.0136	4.3636	5.e-002	-14.155
13658	2.0136	4.0909	0.	-5803.6
13659	1.922	4.1818	0.	-5840.5
13660	2.0136	4.1818	5.e-002	-14.164
13661	2.0136	3.9091	0.	-5804.7
13662	1.922	4.	0.	-5843.8
13663	2.0136	4.	5.e-002	-14.194
13664	2.0136	3.7273	0.	-5806.8
13665	1.922	3.8182	0.	-5848.2
13666	2.0136	3.8182	5.e-002	-14.241
13667	2.0136	3.5455	0.	-5809.2
13668	1.922	3.6364	0.	-5852.8
13669	2.0136	3.6364	5.e-002	-14.293
13670	2.0136	3.3636	0.	-5811.3
13671	1.922	3.4545	0.	-5856.9
13672	2.0136	3.4545	5.e-002	-14.342
13673	2.0136	3.1818	0.	-5812.8
13674	1.922	3.2727	0.	-5860.
13675	2.0136	3.2727	5.e-002	-14.38
13676	2.0136	3.	0.	-5813.3
13677	1.922	3.0909	0.	-5861.6
13678	2.0136	3.0909	5.e-002	-14.4
13679	2.0136	2.8182	0.	-5812.8
13680	1.922	2.9091	0.	-5861.6
13681	2.0136	2.9091	5.e-002	-14.4
13682	2.0136	2.6364	0.	-5811.3
13683	1.922	2.7273	0.	-5860.
13684	2.0136	2.7273	5.e-002	-14.38
13685	2.0136	2.4545	0.	-5809.2
13686	1.922	2.5455	0.	-5856.9
13687	2.0136	2.5455	5.e-002	-14.342
13688	2.0136	2.2727	0.	-5806.8
13689	1.922	2.3636	0.	-5852.8
13690	2.0136	2.3636	5.e-002	-14.293
13691	2.0136	2.0909	0.	-5804.7
13692	1.922	2.1818	0.	-5848.2
13693	2.0136	2.1818	5.e-002	-14.241
13694	2.0136	1.9091	0.	-5803.6
13695	1.922	2.	0.	-5843.8
13696	2.0136	2.	5.e-002	-14.194
13697	2.0136	1.7273	0.	-5804.3
13698	1.922	1.8182	0.	-5840.5
13699	2.0136	1.8182	5.e-002	-14.164
13700	2.0136	1.5455	0.	-5807.5
13701	1.922	1.6364	0.	-5839.1
13702	2.0136	1.6364	5.e-002	-14.155
13703	2.0136	1.3636	0.	-5814.2
13704	1.922	1.4545	0.	-5840.8
13705	2.0136	1.4545	5.e-002	-14.166
13706	2.0136	1.1818	0.	-5824.9
13707	1.922	1.2727	0.	-5846.3
13708	2.0136	1.2727	5.e-002	-14.182
13709	2.0136	1.	0.	-5840.1
13710	1.922	1.0909	0.	-5856.6
13711	2.0136	1.0909	5.e-002	-14.176
13712	2.0136	0.81818	0.	-5860.1
13713	1.922	0.90909	0.	-5872.1
13714	2.0136	0.90909	5.e-002	-14.103
13715	2.0136	0.63636	0.	-5884.9
13716	1.922	0.72727	0.	-5893.
13717	2.0136	0.72727	5.e-002	-13.917
13718	2.0136	0.45455	0.	-5914.4
13719	1.922	0.54545	0.	-5919.4
13720	2.0136	0.54545	5.e-002	-13.604
13721	2.0136	0.27273	0.	-5952.8
13722	1.922	0.36364	0.	-5951.3
13723	2.0136	0.36364	5.e-002	-13.45
13724	1.922	0.18182	0.	-5998.2
13725	2.0136	0.18182	5.e-002	-24.132
13726	2.0136	9.0909e-002	0.	-5960.5
13727	1.8305	5.7273	0.	-5997.
13728	1.739	5.8182	0.	-6038.8
13729	1.8305	5.8182	5.e-002	-25.391
13730	1.8305	5.9091	0.	-6001.3
13731	1.8305	5.5455	0.	-5956.7
13732	1.739	5.6364	0.	-5988.4
13733	1.8305	5.6364	5.e-002	-14.433
13734	1.8305	5.3636	0.	-5927.8
13735	1.739	5.4545	0.	-5956.8
13736	1.8305	5.4545	5.e-002	-14.764
13737	1.8305	5.1818	0.	-5905.1
13738	1.739	5.2727	0.	-5932.5
13739	1.8305	5.2727	5.e-002	-15.117
13740	1.8305	5.	0.	-5888.6
13741	1.739	5.0909	0.	-5915.3
13742	1.8305	5.0909	5.e-002	-15.286
13743	1.8305	4.8182	0.	-5878.
13744	1.739	4.9091	0.	-5905.1
13745	1.8305	4.9091	5.e-002	-15.318
13746	1.8305	4.6364	0.	-5872.8
13747	1.739	4.7273	0.	-5901.3
13748	1.8305	4.7273	5.e-002	-15.284
13749	1.8305	4.4545	0.	-5872.2
13750	1.739	4.5455	0.	-5902.8
13751	1.8305	4.5455	5.e-002	-15.243
13752	1.8305	4.2727	0.	-5875.2
13753	1.739	4.3636	0.	-5908.6
13754	1.8305	4.3636	5.e-002	-15.227
13755	1.8305	4.0909	0.	-5880.5
13756	1.739	4.1818	0.	-5917.2
13757	1.8305	4.1818	5.e-002	-15.248
13758	1.8305	3.9091	0.	-5887.1
13759	1.739	4.	0.	-5927.2
13760	1.8305	4.	5.e-002	-15.3
13761	1.8305	3.7273	0.	-5894.
13762	1.739	3.8182	0.	-5937.5
13763	1.8305	3.8182	5.e-002	-15.371
13764	1.8305	3.5455	0.	-5900.3
13765	1.739	3.6364	0.	-5947.
13766	1.8305	3.6364	5.e-002	-15.447
13767	1.8305	3.3636	0.	-5905.3
13768	1.739	3.4545	0.	-5954.8
13769	1.8305	3.4545	5.e-002	-15.515
13770	1.8305	3.1818	0.	-5908.5
13771	1.739	3.2727	0.	-5960.4
13772	1.8305	3.2727	5.e-002	-15.566
13773	1.8305	3.	0.	-5909.6
13774	1.739	3.0909	0.	-5963.2
13775	1.8305	3.0909	5.e-002	-15.593
13776	1.8305	2.8182	0.	-5908.5
13777	1.739	2.9091	0.	-5963.2
13778	1.8305	2.9091	5.e-002	-15.593
13779	1.8305	2.6364	0.	-5905.3
13780	1.739	2.7273	0.	-5960.4
13781	1.8305	2.7273	5.e-002	-15.566
13782	1.8305	2.4545	0.	-5900.3
13783	1.739	2.5455	0.	-5954.8
13784	1.8305	2.5455	5.e-002	-15.515
13785	1.8305	2.2727	0.	-5894.
13786	1.739	2.3636	0.	-5947.
13787	1.8305	2.3636	5.e-002	-15.447
13788	1.8305	2.0909	0.	-5887.1
13789	1.739	2.1818	0.	-5937.5
13790	1.8305	2.1818	5.e-002	-15.371
13791	1.8305	1.9091	0.	-5880.5
13792	1.739	2.	0.	-5927.2
13793	1.8305	2.	5.e-002	-15.3
13794	1.8305	1.7273	0.	-5875.2
13795	1.739	1.8182	0.	-5917.2
13796	1.8305	1.8182	5.e-002	-15.248
13797	1.8305	1.5455	0.	-5872.2
13798	1.739	1.6364	0.	-5908.6
13799	1.8305	1.6364	5.e-002	-15.227
13800	1.8305	1.3636	0.	-5872.8
13801	1.739	1.4545	0.	-5902.8
13802	1.8305	1.4545	5.e-002	-15.243
13803	1.8305	1.1818	0.	-5878.
13804	1.739	1.2727	0.	-5901.3
13805	1.8305	1.2727	5.e-002	-15.284
13806	1.8305	1.	0.	-5888.6
13807	1.739	1.0909	0.	-5905.1
13808	1.8305	1.0909	5.e-002	-15.318
13809	1.8305	0.81818	0.	-5905.1
13810	1.739	0.90909	0.	-5915.3
13811	1.8305	0.90909	5.e-002	-15.286
13812	1.8305	0.63636	0.	-5927.8
13813	1.739	0.72727	0.	-5932.5
13814	1.8305	0.72727	5.e-002	-15.117
13815	1.8305	0.45455	0.	-5956.7
13816	1.739	0.54545	0.	-5956.8
13817	1.8305	0.54545	5.e-002	-14.764
13818	1.8305	0.27273	0.	-5997.
13819	1.739	0.36364	0.	-5988.4
13820	1.8305	0.36364	5.e-002	-14.433
13821	1.739	0.18182	0.	-6038.8
13822	1.8305	0.18182	5.e-002	-25.391
13823	1.8305	9.0909e-002	0.	-6001.3
13824	1.6475	5.7273	0.	-6030.6
13825	1.5559	5.8182	0.	-6066.7
13826	1.6475	5.8182	5.e-002	-26.57
13827	1.6475	5.9091	0.	-6030.4
13828	1.6475	5.5455	0.	-5988.9
13829	1.5559	5.6364	0.	-6012.8
13830	1.6475	5.6364	5.e-002	-15.724
13831	1.6475	5.3636	0.	-5961.7
13832	1.5559	5.4545	0.	-5982.6
13833	1.6475	5.4545	5.e-002	-16.268
13834	1.6475	5.1818	0.	-5942.8
13835	1.5559	5.2727	0.	-5962.3
13836	1.6475	5.2727	5.e-002	-16.626
13837	1.6475	5.	0.	-5931.9
13838	1.5559	5.0909	0.	-5951.3
13839	1.6475	5.0909	5.e-002	-16.729
13840	1.6475	4.8182	0.	-5928.3
13841	1.5559	4.9091	0.	-5949.2
13842	1.6475	4.9091	5.e-002	-16.674
13843	1.6475	4.6364	0.	-5931.1
13844	1.5559	4.7273	0.	-5954.8
13845	1.6475	4.7273	5.e-002	-16.57
13846	1.6475	4.4545	0.	-5939.
13847	1.5559	4.5455	0.	-5966.3
13848	1.6475	4.5455	5.e-002	-16.489
13849	1.6475	4.2727	0.	-5950.3
13850	1.5559	4.3636	0.	-5982.1
13851	1.6475	4.3636	5.e-002	-16.465
13852	1.6475	4.0909	0.	-5963.5
13853	1.5559	4.1818	0.	-6000.1
13854	1.6475	4.1818	5.e-002	-16.497
13855	1.6475	3.9091	0.	-5977.2
13856	1.5559	4.	0.	-6018.6
13857	1.6475	4.	5.e-002	-16.571
13858	1.6475	3.7273	0.	-5990.1
13859	1.5559	3.8182	0.	-6036.1
13860	1.6475	3.8182	5.e-002	-16.666
13861	1.6475	3.5455	0.	-6001.1
13862	1.5559	3.6364	0.	-6051.5
13863	1.6475	3.6364	5.e-002	-16.763
13864	1.6475	3.3636	0.	-6009.6
13865	1.5559	3.4545	0.	-6063.8
13866	1.6475	3.4545	5.e-002	-16.847
13867	1.6475	3.1818	0.	-6014.8
13868	1.5559	3.2727	0.	-6072.3
13869	1.6475	3.2727	5.e-002	-16.908
13870	1.6475	3.	0.	-6016.6
13871	1.5559	3.0909	0.	-6076.7
13872	1.6475	3.0909	5.e-002	-16.94
13873	1.6475	2.8182	0.	-6014.8
13874	1.5559	2.9091	0.	-6076.7
13875	1.6475	2.9091	5.e-002	-16.94
13876	1.6475	2.6364	0.	-6009.6
13877	1.5559	2.7273	0.	-6072.3
13878	1.6475	2.7273	5.e-002	-16.908
13879	1.6475	2.4545	0.	-6001.1
13880	1.5559	2.5455	0.	-6063.8
13881	1.6475	2.5455	5.e-002	-16.847
13882	1.6475	2.2727	0.	-5990.1
13883	1.5559	2.3636	0.	-6051.5
13884	1.6475	2.3636	5.e-002	-16.763
13885	1.6475	2.0909	0.	-5977.2
13886	1.5559	2.1818	0.	-6036.1
13887	1.6475	2.1818	5.e-002	-16.666
13888	1.6475	1.9091	0.	-5963.5
13889	1.5559	2.	0.	-6018.6
13890	1.6475	2.	5.e-002	-16.571
13891	1.6475	1.7273	0.	-5950.3
13892	1.5559	1.8182	0.	-6000.1
13893	1.6475	1.8182	5.e-002	-16.497
13894	1.6475	1.5455	0.	-5939.
13895	1.5559	1.6364	0.	-5982.1
13896	1.6475	1.6364	5.e-002	-16.465
13897	1.6475	1.3636	0.	-5931.1
13898	1.5559	1.4545	0.	-5966.3
13899	1.6475	1.4545	5.e-002	-16.489
13900	1.6475	1.1818	0.	-5928.3
13901	1.5559	1.2727	0.	-5954.8
13902	1.6475	1.2727	5.e-002	-16.57
13903	1.6475	1.	0.	-5931.9
13904	1.5559	1.0909	0.	-5949.2
13905	1.6475	1.0909	5.e-002	-16.674
13906	1.6475	0.81818	0.	-5942.8
13907	1.5559	0.90909	0.	-5951.3
13908	1.6475	0.90909	5.e-002	-16.729
13909	1.6475	0.63636	0.	-5961.7
13910	1.5559	0.72727	0.	-5962.3
13911	1.6475	0.72727	5.e-002	-16.626
13912	1.6475	0.45455	0.	-5988.9
13913	1.5559	0.54545	0.	-5982.6
13914	1.6475	0.54545	5.e-002	-16.268
13915	1.6475	0.27273	0.	-6030.6
13916	1.5559	0.36364	0.	-6012.8
13917	1.6475	0.36364	5.e-002	-15.724
13918	1.5559	0.18182	0.	-6066.7
13919	1.6475	0.18182	5.e-002	-26.57
13920	1.6475	9.0909e-002	0.	-6030.4
13921	1.4644	5.7273	0.	-6049.3
13922	1.3729	5.8182	0.	-6076.2
13923	1.4644	5.8182	5.e-002	-27.617
13924	1.4644	5.9091	0.	-6043.3
13925	1.4644	5.5455	0.	-6007.
13926	1.3729	5.6364	0.	-6019.4
13927	1.4644	5.6364	5.e-002	-17.506
13928	1.4644	5.3636	0.	-5983.5
13929	1.3729	5.4545	0.	-5992.6
13930	1.4644	5.4545	5.e-002	-18.275
13931	1.4644	5.1818	0.	-5970.9
13932	1.3729	5.2727	0.	-5979.2
13933	1.4644	5.2727	5.e-002	-18.559
13934	1.4644	5.	0.	-5968.7
13935	1.3729	5.0909	0.	-5978.3
13936	1.4644	5.0909	5.e-002	-18.504
13937	1.4644	4.8182	0.	-5975.5
13938	1.3729	4.9091	0.	-5988.4
13939	1.4644	4.9091	5.e-002	-18.292
13940	1.4644	4.6364	0.	-5989.7
13941	1.3729	4.7273	0.	-6007.5
13942	1.4644	4.7273	5.e-002	-18.077
13943	1.4644	4.4545	0.	-6009.1
13944	1.3729	4.5455	0.	-6032.8
13945	1.4644	4.5455	5.e-002	-17.94
13946	1.4644	4.2727	0.	-6031.5
13947	1.3729	4.3636	0.	-6061.6
13948	1.4644	4.3636	5.e-002	-17.902
13949	1.4644	4.0909	0.	-6054.8
13950	1.3729	4.1818	0.	-6091.5
13951	1.4644	4.1818	5.e-002	-17.944
13952	1.4644	3.9091	0.	-6077.1
13953	1.3729	4.	0.	-6120.4
13954	1.4644	4.	5.e-002	-18.036
13955	1.4644	3.7273	0.	-6097.2
13956	1.3729	3.8182	0.	-6146.6
13957	1.4644	3.8182	5.e-002	-18.149
13958	1.4644	3.5455	0.	-6113.9
13959	1.3729	3.6364	0.	-6168.8
13960	1.4644	3.6364	5.e-002	-18.258
13961	1.4644	3.3636	0.	-6126.3
13962	1.3729	3.4545	0.	-6186.1
13963	1.4644	3.4545	5.e-002	-18.35
13964	1.4644	3.1818	0.	-6133.9
13965	1.3729	3.2727	0.	-6198.
13966	1.4644	3.2727	5.e-002	-18.416
13967	1.4644	3.	0.	-6136.5
13968	1.3729	3.0909	0.	-6204.
13969	1.4644	3.0909	5.e-002	-18.449
13970	1.4644	2.8182	0.	-6133.9
13971	1.3729	2.9091	0.	-6204.
13972	1.4644	2.9091	5.e-002	-18.449
13973	1.4644	2.6364	0.	-6126.3
13974	1.3729	2.7273	0.	-6198.
13975	1.4644	2.7273	5.e-002	-18.416
13976	1.4644	2.4545	0.	-6113.9
13977	1.3729	2.5455	0.	-6186.1
13978	1.4644	2.5455	5.e-002	-18.35
13979	1.4644	2.2727	0.	-6097.2
13980	1.3729	2.3636	0.	-6168.8
13981	1.4644	2.3636	5.e-002	-18.258
13982	1.4644	2.0909	0.	-6077.1
13983	1.3729	2.1818	0.	-6146.6
13984	1.4644	2.1818	5.e-002	-18.149
13985	1.4644	1.9091	0.	-6054.8
13986	1.3729	2.	0.	-6120.4
13987	1.4644	2.	5.e-002	-18.036
13988	1.4644	1.7273	0.	-6031.5
13989	1.3729	1.8182	0.	-6091.5
13990	1.4644	1.8182	5.e-002	-17.945
13991	1.4644	1.5455	0.	-6009.1
13992	1.3729	1.6364	0.	-6061.6
13993	1.4644	1.6364	5.e-002	-17.902
13994	1.4644	1.3636	0.	-5989.7
13995	1.3729	1.4545	0.	-6032.8
13996	1.4644	1.4545	5.e-002	-17.94
13997	1.4644	1.1818	0.	-5975.5
13998	1.3729	1.2727	0.	-6007.5
13999	1.4644	1.2727	5.e-002	-18.077
14000	1.4644	1.	0.	-5968.7
14001	1.3729	1.0909	0.	-5988.4
14002	1.4644	1.0909	5.e-002	-18.292
14003	1.4644	0.81818	0.	-5970.9
14004	1.3729	0.90909	0.	-5978.3
14005	1.4644	0.90909	5.e-002	-18.504
14006	1.4644	0.63636	0.	-5983.5
14007	1.3729	0.72727	0.	-5979.2
14008	1.4644	0.72727	5.e-002	-18.559
14009	1.4644	0.45455	0.	-6007.
14010	1.3729	0.54545	0.	-5992.6
14011	1.4644	0.54545	5.e-002	-18.275
14012	1.4644	0.27273	0.	-6049.3
14013	1.3729	0.36364	0.	-6019.4
14014	1.4644	0.36364	5.e-002	-17.506
14015	1.3729	0.18182	0.	-6076.2
14016	1.4644	0.18182	5.e-002	-27.617
14017	1.4644	9.0909e-002	0.	-6043.3
14018	1.2814	5.7273	0.	-6046.7
14019	1.1898	5.8182	0.	-6059.2
14020	1.2814	5.8182	5.e-002	-28.477
14021	1.2814	5.9091	0.	-6033.
14022	1.2814	5.5455	0.	-6005.4
14023	1.1898	5.6364	0.	-6000.6
14024	1.2814	5.6364	5.e-002	-20.076
14025	1.2814	5.3636	0.	-5988.6
14026	1.1898	5.4545	0.	-5980.8
14027	1.2814	5.4545	5.e-002	-21.014
14028	1.2814	5.1818	0.	-5986.6
14029	1.1898	5.2727	0.	-5979.5
14030	1.2814	5.2727	5.e-002	-21.061
14031	1.2814	5.	0.	-5997.9
14032	1.1898	5.0909	0.	-5994.6
14033	1.2814	5.0909	5.e-002	-20.696
14034	1.2814	4.8182	0.	-6020.
14035	1.1898	4.9091	0.	-6023.1
14036	1.2814	4.9091	5.e-002	-20.226
14037	1.2814	4.6364	0.	-6050.1
14038	1.1898	4.7273	0.	-6061.3
14039	1.2814	4.7273	5.e-002	-19.851
14040	1.2814	4.4545	0.	-6084.9
14041	1.1898	4.5455	0.	-6105.
14042	1.2814	4.5455	5.e-002	-19.643
14043	1.2814	4.2727	0.	-6121.3
14044	1.1898	4.3636	0.	-6150.5
14045	1.2814	4.3636	5.e-002	-19.585
14046	1.2814	4.0909	0.	-6156.8
14047	1.1898	4.1818	0.	-6194.9
14048	1.2814	4.1818	5.e-002	-19.628
14049	1.2814	3.9091	0.	-6189.5
14050	1.1898	4.	0.	-6235.9
14051	1.2814	4.	5.e-002	-19.724
14052	1.2814	3.7273	0.	-6217.8
14053	1.1898	3.8182	0.	-6271.8
14054	1.2814	3.8182	5.e-002	-19.835
14055	1.2814	3.5455	0.	-6240.7
14056	1.1898	3.6364	0.	-6301.5
14057	1.2814	3.6364	5.e-002	-19.94
14058	1.2814	3.3636	0.	-6257.6
14059	1.1898	3.4545	0.	-6324.2
14060	1.2814	3.4545	5.e-002	-20.024
14061	1.2814	3.1818	0.	-6267.8
14062	1.1898	3.2727	0.	-6339.6
14063	1.2814	3.2727	5.e-002	-20.083
14064	1.2814	3.	0.	-6271.3
14065	1.1898	3.0909	0.	-6347.4
14066	1.2814	3.0909	5.e-002	-20.113
14067	1.2814	2.8182	0.	-6267.8
14068	1.1898	2.9091	0.	-6347.4
14069	1.2814	2.9091	5.e-002	-20.113
14070	1.2814	2.6364	0.	-6257.6
14071	1.1898	2.7273	0.	-6339.6
14072	1.2814	2.7273	5.e-002	-20.083
14073	1.2814	2.4545	0.	-6240.7
14074	1.1898	2.5455	0.	-6324.2
14075	1.2814	2.5455	5.e-002	-20.024
14076	1.2814	2.2727	0.	-6217.8
14077	1.1898	2.3636	0.	-6301.5
14078	1.2814	2.3636	5.e-002	-19.94
14079	1.2814	2.0909	0.	-6189.5
14080	1.1898	2.1818	0.	-6271.8
14081	1.2814	2.1818	5.e-002	-19.835
14082	1.2814	1.9091	0.	-6156.8
14083	1.1898	2.	0.	-6235.9
14084	1.2814	2.	5.e-002	-19.724
14085	1.2814	1.7273	0.	-6121.3
14086	1.1898	1.8182	0.	-6194.9
14087	1.2814	1.8182	5.e-002	-19.628
14088	1.2814	1.5455	0.	-6084.9
14089	1.1898	1.6364	0.	-6150.5
14090	1.2814	1.6364	5.e-002	-19.585
14091	1.2814	1.3636	0.	-6050.1
14092	1.1898	1.4545	0.	-6105.
14093	1.2814	1.4545	5.e-002	-19.643
14094	1.2814	1.1818	0.	-6020.
14095	1.1898	1.2727	0.	-6061.3
14096	1.2814	1.2727	5.e-002	-19.851
14097	1.2814	1.	0.	-5997.9
14098	1.1898	1.0909	0.	-6023.1
14099	1.2814	1.0909	5.e-002	-20.226
14100	1.2814	0.81818	0.	-5986.6
14101	1.1898	0.90909	0.	-5994.6
14102	1.2814	0.90909	5.e-002	-20.696
14103	1.2814	0.63636	0.	-5988.6
14104	1.1898	0.72727	0.	-5979.5
14105	1.2814	0.72727	5.e-002	-21.061
14106	1.2814	0.45455	0.	-6005.4
14107	1.1898	0.54545	0.	-5980.8
14108	1.2814	0.54545	5.e-002	-21.014
14109	1.2814	0.27273	0.	-6046.7
14110	1.1898	0.36364	0.	-6000.6
14111	1.2814	0.36364	5.e-002	-20.076
14112	1.1898	0.18182	0.	-6059.2
14113	1.2814	0.18182	5.e-002	-28.477
14114	1.2814	9.0909e-002	0.	-6033.
14115	1.0983	5.7273	0.	-6013.6
14116	1.0068	5.8182	0.	-6002.5
14117	1.0983	5.8182	5.e-002	-29.166
14118	1.0983	5.9091	0.	-5989.
14119	1.0983	5.5455	0.	-5976.5
14120	1.0068	5.6364	0.	-5945.
14121	1.0983	5.6364	5.e-002	-23.929
14122	1.0983	5.3636	0.	-5971.9
14123	1.0068	5.4545	0.	-5938.9
14124	1.0983	5.4545	5.e-002	-24.814
14125	1.0983	5.1818	0.	-5987.3
14126	1.0068	5.2727	0.	-5958.5
14127	1.0983	5.2727	5.e-002	-24.311
14128	1.0983	5.	0.	-6019.5
14129	1.0068	5.0909	0.	-5999.3
14130	1.0983	5.0909	5.e-002	-23.395
14131	1.0983	4.8182	0.	-6063.8
14132	1.0068	4.9091	0.	-6055.2
14133	1.0983	4.9091	5.e-002	-22.543
14134	1.0983	4.6364	0.	-6115.6
14135	1.0068	4.7273	0.	-6119.8
14136	1.0983	4.7273	5.e-002	-21.97
14137	1.0983	4.4545	0.	-6170.2
14138	1.0068	4.5455	0.	-6187.3
14139	1.0983	4.5455	5.e-002	-21.679
14140	1.0983	4.2727	0.	-6223.8
14141	1.0068	4.3636	0.	-6253.2
14142	1.0983	4.3636	5.e-002	-21.588
14143	1.0983	4.0909	0.	-6273.7
14144	1.0068	4.1818	0.	-6314.3
14145	1.0983	4.1818	5.e-002	-21.609
14146	1.0983	3.9091	0.	-6317.9
14147	1.0068	4.	0.	-6368.5
14148	1.0983	4.	5.e-002	-21.678
14149	1.0983	3.7273	0.	-6355.2
14150	1.0068	3.8182	0.	-6414.7
14151	1.0983	3.8182	5.e-002	-21.757
14152	1.0983	3.5455	0.	-6384.7
14153	1.0068	3.6364	0.	-6452.
14154	1.0983	3.6364	5.e-002	-21.827
14155	1.0983	3.3636	0.	-6406.
14156	1.0068	3.4545	0.	-6480.1
14157	1.0983	3.4545	5.e-002	-21.881
14158	1.0983	3.1818	0.	-6418.9
14159	1.0068	3.2727	0.	-6498.9
14160	1.0983	3.2727	5.e-002	-21.916
14161	1.0983	3.	0.	-6423.2
14162	1.0068	3.0909	0.	-6508.3
14163	1.0983	3.0909	5.e-002	-21.934
14164	1.0983	2.8182	0.	-6418.9
14165	1.0068	2.9091	0.	-6508.3
14166	1.0983	2.9091	5.e-002	-21.934
14167	1.0983	2.6364	0.	-6406.
14168	1.0068	2.7273	0.	-6498.9
14169	1.0983	2.7273	5.e-002	-21.916
14170	1.0983	2.4545	0.	-6384.7
14171	1.0068	2.5455	0.	-6480.1
14172	1.0983	2.5455	5.e-002	-21.881
14173	1.0983	2.2727	0.	-6355.2
14174	1.0068	2.3636	0.	-6452.
14175	1.0983	2.3636	5.e-002	-21.827
14176	1.0983	2.0909	0.	-6317.9
14177	1.0068	2.1818	0.	-6414.7
14178	1.0983	2.1818	5.e-002	-21.757
14179	1.0983	1.9091	0.	-6273.7
14180	1.0068	2.	0.	-6368.5
14181	1.0983	2.	5.e-002	-21.678
14182	1.0983	1.7273	0.	-6223.8
14183	1.0068	1.8182	0.	-6314.3
14184	1.0983	1.8182	5.e-002	-21.609
14185	1.0983	1.5455	0.	-6170.2
14186	1.0068	1.6364	0.	-6253.2
14187	1.0983	1.6364	5.e-002	-21.588
14188	1.0983	1.3636	0.	-6115.6
14189	1.0068	1.4545	0.	-6187.3
14190	1.0983	1.4545	5.e-002	-21.679
14191	1.0983	1.1818	0.	-6063.8
14192	1.0068	1.2727	0.	-6119.8
14193	1.0983	1.2727	5.e-002	-21.97
14194	1.0983	1.	0.	-6019.5
14195	1.0068	1.0909	0.	-6055.2
14196	1.0983	1.0909	5.e-002	-22.543
14197	1.0983	0.81818	0.	-5987.3
14198	1.0068	0.90909	0.	-5999.3
14199	1.0983	0.90909	5.e-002	-23.395
14200	1.0983	0.63636	0.	-5971.9
14201	1.0068	0.72727	0.	-5958.5
14202	1.0983	0.72727	5.e-002	-24.311
14203	1.0983	0.45455	0.	-5976.5
14204	1.0068	0.54545	0.	-5938.9
14205	1.0983	0.54545	5.e-002	-24.814
14206	1.0983	0.27273	0.	-6013.6
14207	1.0068	0.36364	0.	-5945.
14208	1.0983	0.36364	5.e-002	-23.929
14209	1.0068	0.18182	0.	-6002.5
14210	1.0983	0.18182	5.e-002	-29.166
14211	1.0983	9.0909e-002	0.	-5989.
14212	0.91525	5.7273	0.	-5934.5
14213	0.82373	5.8182	0.	-5885.
14214	0.91525	5.8182	5.e-002	-29.9
14215	0.91525	5.9091	0.	-5894.4
14216	0.91525	5.5455	0.	-5907.9
14217	0.82373	5.6364	0.	-5836.3
14218	0.91525	5.6364	5.e-002	-29.844
14219	0.91525	5.3636	0.	-5925.5
14220	0.82373	5.4545	0.	-5857.4
14221	0.91525	5.4545	5.e-002	-30.126
14222	0.91525	5.1818	0.	-5970.
14223	0.82373	5.2727	0.	-5914.4
14224	0.91525	5.2727	5.e-002	-28.483
14225	0.91525	5.	0.	-6034.3
14226	0.82373	5.0909	0.	-5996.5
14227	0.91525	5.0909	5.e-002	-26.663
14228	0.91525	4.8182	0.	-6110.4
14229	0.82373	4.9091	0.	-6092.4
14230	0.91525	4.9091	5.e-002	-25.305
14231	0.91525	4.6364	0.	-6190.8
14232	0.82373	4.7273	0.	-6192.3
14233	0.91525	4.7273	5.e-002	-24.502
14234	0.91525	4.4545	0.	-6269.8
14235	0.82373	4.5455	0.	-6289.
14236	0.91525	4.5455	5.e-002	-24.105
14237	0.91525	4.2727	0.	-6343.3
14238	0.82373	4.3636	0.	-6378.
14239	0.91525	4.3636	5.e-002	-23.939
14240	0.91525	4.0909	0.	-6408.9
14241	0.82373	4.1818	0.	-6456.9
14242	0.91525	4.1818	5.e-002	-23.88
14243	0.91525	3.9091	0.	-6465.1
14244	0.82373	4.	0.	-6524.5
14245	0.91525	4.	5.e-002	-23.862
14246	0.91525	3.7273	0.	-6511.3
14247	0.82373	3.8182	0.	-6580.5
14248	0.91525	3.8182	5.e-002	-23.853
14249	0.91525	3.5455	0.	-6547.2
14250	0.82373	3.6364	0.	-6624.8
14251	0.91525	3.6364	5.e-002	-23.845
14252	0.91525	3.3636	0.	-6572.8
14253	0.82373	3.4545	0.	-6657.8
14254	0.91525	3.4545	5.e-002	-23.835
14255	0.91525	3.1818	0.	-6588.2
14256	0.82373	3.2727	0.	-6679.6
14257	0.91525	3.2727	5.e-002	-23.826
14258	0.91525	3.	0.	-6593.3
14259	0.82373	3.0909	0.	-6690.4
14260	0.91525	3.0909	5.e-002	-23.821
14261	0.91525	2.8182	0.	-6588.2
14262	0.82373	2.9091	0.	-6690.4
14263	0.91525	2.9091	5.e-002	-23.821
14264	0.91525	2.6364	0.	-6572.8
14265	0.82373	2.7273	0.	-6679.6
14266	0.91525	2.7273	5.e-002	-23.826
14267	0.91525	2.4545	0.	-6547.2
14268	0.82373	2.5455	0.	-6657.8
14269	0.91525	2.5455	5.e-002	-23.835
14270	0.91525	2.2727	0.	-6511.3
14271	0.82373	2.3636	0.	-6624.8
14272	0.91525	2.3636	5.e-002	-23.845
14273	0.91525	2.0909	0.	-6465.1
14274	0.82373	2.1818	0.	-6580.5
14275	0.91525	2.1818	5.e-002	-23.853
14276	0.91525	1.9091	0.	-6408.9
14277	0.82373	2.	0.	-6524.5
14278	0.91525	2.	5.e-002	-23.862
14279	0.91525	1.7273	0.	-6343.3
14280	0.82373	1.8182	0.	-6456.9
14281	0.91525	1.8182	5.e-002	-23.88
14282	0.91525	1.5455	0.	-6269.8
14283	0.82373	1.6364	0.	-6378.
14284	0.91525	1.6364	5.e-002	-23.939
14285	0.91525	1.3636	0.	-6190.8
14286	0.82373	1.4545	0.	-6289.
14287	0.91525	1.4545	5.e-002	-24.105
14288	0.91525	1.1818	0.	-6110.4
14289	0.82373	1.2727	0.	-6192.3
14290	0.91525	1.2727	5.e-002	-24.502
14291	0.91525	1.	0.	-6034.3
14292	0.82373	1.0909	0.	-6092.4
14293	0.91525	1.0909	5.e-002	-25.305
14294	0.91525	0.81818	0.	-5969.9
14295	0.82373	0.90909	0.	-5996.5
14296	0.91525	0.90909	5.e-002	-26.663
14297	0.91525	0.63636	0.	-5925.5
14298	0.82373	0.72727	0.	-5914.4
14299	0.91525	0.72727	5.e-002	-28.483
14300	0.91525	0.45455	0.	-5907.9
14301	0.82373	0.54545	0.	-5857.4
14302	0.91525	0.54545	5.e-002	-30.126
14303	0.91525	0.27273	0.	-5934.5
14304	0.82373	0.36364	0.	-5836.3
14305	0.91525	0.36364	5.e-002	-29.844
14306	0.82373	0.18182	0.	-5885.
14307	0.91525	0.18182	5.e-002	-29.9
14308	0.91525	9.0909e-002	0.	-5894.4
14309	0.7322	5.7273	0.	-5787.3
14310	0.64068	5.8182	0.	-5664.7
14311	0.7322	5.8182	5.e-002	-32.268
14312	0.7322	5.9091	0.	-5721.7
14313	0.7322	5.5455	0.	-5786.
14314	0.64068	5.6364	0.	-5642.6
14315	0.7322	5.6364	5.e-002	-39.19
14316	0.7322	5.3636	0.	-5845.7
14317	0.64068	5.4545	0.	-5719.7
14318	0.7322	5.4545	5.e-002	-37.471
14319	0.7322	5.1818	0.	-5939.8
14320	0.64068	5.2727	0.	-5843.9
14321	0.7322	5.2727	5.e-002	-33.721
14322	0.7322	5.	0.	-6053.6
14323	0.64068	5.0909	0.	-5991.3
14324	0.7322	5.0909	5.e-002	-30.684
14325	0.7322	4.8182	0.	-6173.5
14326	0.64068	4.9091	0.	-6142.7
14327	0.7322	4.9091	5.e-002	-28.811
14328	0.7322	4.6364	0.	-6289.9
14329	0.64068	4.7273	0.	-6286.
14330	0.7322	4.7273	5.e-002	-27.798
14331	0.7322	4.4545	0.	-6396.9
14332	0.64068	4.5455	0.	-6415.
14333	0.7322	4.5455	5.e-002	-27.257
14334	0.7322	4.2727	0.	-6491.4
14335	0.64068	4.3636	0.	-6527.5
14336	0.7322	4.3636	5.e-002	-26.935
14337	0.7322	4.0909	0.	-6572.4
14338	0.64068	4.1818	0.	-6623.
14339	0.7322	4.1818	5.e-002	-26.705
14340	0.7322	3.9091	0.	-6639.8
14341	0.64068	4.	0.	-6702.3
14342	0.7322	4.	5.e-002	-26.516
14343	0.7322	3.7273	0.	-6694.
14344	0.64068	3.8182	0.	-6766.3
14345	0.7322	3.8182	5.e-002	-26.354
14346	0.7322	3.5455	0.	-6735.3
14347	0.64068	3.6364	0.	-6816.1
14348	0.7322	3.6364	5.e-002	-26.216
14349	0.7322	3.3636	0.	-6764.4
14350	0.64068	3.4545	0.	-6852.6
14351	0.7322	3.4545	5.e-002	-26.107
14352	0.7322	3.1818	0.	-6781.7
14353	0.64068	3.2727	0.	-6876.5
14354	0.7322	3.2727	5.e-002	-26.031
14355	0.7322	3.	0.	-6787.5
14356	0.64068	3.0909	0.	-6888.3
14357	0.7322	3.0909	5.e-002	-25.992
14358	0.7322	2.8182	0.	-6781.7
14359	0.64068	2.9091	0.	-6888.3
14360	0.7322	2.9091	5.e-002	-25.992
14361	0.7322	2.6364	0.	-6764.4
14362	0.64068	2.7273	0.	-6876.5
14363	0.7322	2.7273	5.e-002	-26.031
14364	0.7322	2.4545	0.	-6735.3
14365	0.64068	2.5455	0.	-6852.6
14366	0.7322	2.5455	5.e-002	-26.107
14367	0.7322	2.2727	0.	-6694.
14368	0.64068	2.3636	0.	-6816.1
14369	0.7322	2.3636	5.e-002	-26.216
14370	0.7322	2.0909	0.	-6639.8
14371	0.64068	2.1818	0.	-6766.3
14372	0.7322	2.1818	5.e-002	-26.354
14373	0.7322	1.9091	0.	-6572.4
14374	0.64068	2.	0.	-6702.3
14375	0.7322	2.	5.e-002	-26.516
14376	0.7322	1.7273	0.	-6491.4
14377	0.64068	1.8182	0.	-6623.
14378	0.7322	1.8182	5.e-002	-26.705
14379	0.7322	1.5455	0.	-6396.9
14380	0.64068	1.6364	0.	-6527.5
14381	0.7322	1.6364	5.e-002	-26.935
14382	0.7322	1.3636	0.	-6289.9
14383	0.64068	1.4545	0.	-6415.
14384	0.7322	1.4545	5.e-002	-27.257
14385	0.7322	1.1818	0.	-6173.5
14386	0.64068	1.2727	0.	-6286.
14387	0.7322	1.2727	5.e-002	-27.798
14388	0.7322	1.	0.	-6053.6
14389	0.64068	1.0909	0.	-6142.7
14390	0.7322	1.0909	5.e-002	-28.811
14391	0.7322	0.81818	0.	-5939.8
14392	0.64068	0.90909	0.	-5991.3
14393	0.7322	0.90909	5.e-002	-30.684
14394	0.7322	0.63636	0.	-5845.7
14395	0.64068	0.72727	0.	-5843.9
14396	0.7322	0.72727	5.e-002	-33.721
14397	0.7322	0.45455	0.	-5786.
14398	0.64068	0.54545	0.	-5719.7
14399	0.7322	0.54545	5.e-002	-37.471
14400	0.7322	0.27273	0.	-5787.3
14401	0.64068	0.36364	0.	-5642.6
14402	0.7322	0.36364	5.e-002	-39.19
14403	0.64068	0.18182	0.	-5664.7
14404	0.7322	0.18182	5.e-002	-32.268
14405	0.7322	9.0909e-002	0.	-5721.7
14406	0.54915	5.7273	0.	-5520.
14407	0.45763	5.8182	0.	-5271.4
14408	0.54915	5.8182	5.e-002	-40.463
14409	0.54915	5.9091	0.	-5411.1
14410	0.54915	5.5455	0.	-5575.4
14411	0.45763	5.6364	0.	-5338.1
14412	0.54915	5.6364	5.e-002	-54.264
14413	0.54915	5.3636	0.	-5716.1
14414	0.45763	5.4545	0.	-5544.1
14415	0.54915	5.4545	5.e-002	-47.168
14416	0.54915	5.1818	0.	-5893.9
14417	0.45763	5.2727	0.	-5791.9
14418	0.54915	5.2727	5.e-002	-39.858
14419	0.54915	5.	0.	-6079.6
14420	0.45763	5.0909	0.	-6036.1
14421	0.54915	5.0909	5.e-002	-35.349
14422	0.54915	4.8182	0.	-6254.9
14423	0.45763	4.9091	0.	-6256.1
14424	0.54915	4.9091	5.e-002	-32.843
14425	0.54915	4.6364	0.	-6411.1
14426	0.45763	4.7273	0.	-6445.7
14427	0.54915	4.7273	5.e-002	-31.412
14428	0.54915	4.4545	0.	-6545.8
14429	0.45763	4.5455	0.	-6605.1
14430	0.54915	4.5455	5.e-002	-30.465
14431	0.54915	4.2727	0.	-6659.2
14432	0.45763	4.3636	0.	-6737.1
14433	0.54915	4.3636	5.e-002	-29.743
14434	0.54915	4.0909	0.	-6752.9
14435	0.45763	4.1818	0.	-6845.1
14436	0.54915	4.1818	5.e-002	-29.147
14437	0.54915	3.9091	0.	-6828.8
14438	0.45763	4.	0.	-6932.2
14439	0.54915	4.	5.e-002	-28.642
14440	0.54915	3.7273	0.	-6888.4
14441	0.45763	3.8182	0.	-7001.
14442	0.54915	3.8182	5.e-002	-28.22
14443	0.54915	3.5455	0.	-6933.3
14444	0.45763	3.6364	0.	-7053.7
14445	0.54915	3.6364	5.e-002	-27.88
14446	0.54915	3.3636	0.	-6964.5
14447	0.45763	3.4545	0.	-7091.9
14448	0.54915	3.4545	5.e-002	-27.623
14449	0.54915	3.1818	0.	-6983.
14450	0.45763	3.2727	0.	-7116.8
14451	0.54915	3.2727	5.e-002	-27.451
14452	0.54915	3.	0.	-6989.1
14453	0.45763	3.0909	0.	-7129.
14454	0.54915	3.0909	5.e-002	-27.365
14455	0.54915	2.8182	0.	-6983.
14456	0.45763	2.9091	0.	-7129.
14457	0.54915	2.9091	5.e-002	-27.365
14458	0.54915	2.6364	0.	-6964.5
14459	0.45763	2.7273	0.	-7116.8
14460	0.54915	2.7273	5.e-002	-27.451
14461	0.54915	2.4545	0.	-6933.3
14462	0.45763	2.5455	0.	-7091.9
14463	0.54915	2.5455	5.e-002	-27.623
14464	0.54915	2.2727	0.	-6888.4
14465	0.45763	2.3636	0.	-7053.7
14466	0.54915	2.3636	5.e-002	-27.88
14467	0.54915	2.0909	0.	-6828.8
14468	0.45763	2.1818	0.	-7001.
14469	0.54915	2.1818	5.e-002	-28.22
14470	0.54915	1.9091	0.	-6752.9
14471	0.45763	2.	0.	-6932.2
14472	0.54915	2.	5.e-002	-28.642
14473	0.54915	1.7273	0.	-6659.2
14474	0.45763	1.8182	0.	-6845.1
14475	0.54915	1.8182	5.e-002	-29.147
14476	0.54915	1.5455	0.	-6545.8
14477	0.45763	1.6364	0.	-6737.1
14478	0.54915	1.6364	5.e-002	-29.743
14479	0.54915	1.3636	0.	-6411.1
14480	0.45763	1.4545	0.	-6605.1
14481	0.54915	1.4545	5.e-002	-30.465
14482	0.54915	1.1818	0.	-6254.9
14483	0.45763	1.2727	0.	-6445.7
14484	0.54915	1.2727	5.e-002	-31.412
14485	0.54915	1.	0.	-6079.6
14486	0.45763	1.0909	0.	-6256.1
14487	0.54915	1.0909	5.e-002	-32.843
14488	0.54915	0.81818	0.	-5893.9
14489	0.45763	0.90909	0.	-6036.1
14490	0.54915	0.90909	5.e-002	-35.349
14491	0.54915	0.63636	0.	-5716.1
14492	0.45763	0.72727	0.	-5791.9
14493	0.54915	0.72727	5.e-002	-39.858
14494	0.54915	0.45455	0.	-5575.4
14495	0.45763	0.54545	0.	-5544.1
14496	0.54915	0.54545	5.e-002	-47.168
14497	0.54915	0.27273	0.	-5520.
14498	0.45763	0.36364	0.	-5338.1
14499	0.54915	0.36364	5.e-002	-54.264
14500	0.45763	0.18182	0.	-5271.4
14501	0.54915	0.18182	5.e-002	-40.463
14502	0.54915	9.0909e-002	0.	-5411.1
14503	0.3661	5.7273	0.	-5087.9
14504	0.27458	5.8182	0.	-4453.1
14505	0.3661	5.8182	5.e-002	-70.787
14506	0.3661	5.9091	0.	-4867.8
14507	0.3661	5.5455	0.	-5302.9
14508	0.27458	5.6364	0.	-4820.1
14509	0.3661	5.6364	5.e-002	-78.402
14510	0.3661	5.3636	0.	-5616.7
14511	0.27458	5.4545	0.	-5313.6
14512	0.3661	5.4545	5.e-002	-59.646
14513	0.3661	5.1818	0.	-5933.1
14514	0.27458	5.2727	0.	-5745.2
14515	0.3661	5.2727	5.e-002	-49.058
14516	0.3661	5.	0.	-6212.8
14517	0.27458	5.0909	0.	-6097.5
14518	0.3661	5.0909	5.e-002	-43.602
14519	0.3661	4.8182	0.	-6447.6
14520	0.27458	4.9091	0.	-6377.6
14521	0.3661	4.9091	5.e-002	-40.684
14522	0.3661	4.6364	0.	-6640.3
14523	0.27458	4.7273	0.	-6599.7
14524	0.3661	4.7273	5.e-002	-38.708
14525	0.3661	4.4545	0.	-6796.9
14526	0.27458	4.5455	0.	-6776.
14527	0.3661	4.5455	5.e-002	-37.178
14528	0.3661	4.2727	0.	-6923.3
14529	0.27458	4.3636	0.	-6916.2
14530	0.3661	4.3636	5.e-002	-35.92
14531	0.3661	4.0909	0.	-7024.6
14532	0.27458	4.1818	0.	-7027.5
14533	0.3661	4.1818	5.e-002	-34.87
14534	0.3661	3.9091	0.	-7104.6
14535	0.27458	4.	0.	-7115.3
14536	0.3661	4.	5.e-002	-33.999
14537	0.3661	3.7273	0.	-7166.4
14538	0.27458	3.8182	0.	-7183.6
14539	0.3661	3.8182	5.e-002	-33.291
14540	0.3661	3.5455	0.	-7212.4
14541	0.27458	3.6364	0.	-7235.3
14542	0.3661	3.6364	5.e-002	-32.737
14543	0.3661	3.3636	0.	-7244.2
14544	0.27458	3.4545	0.	-7272.4
14545	0.3661	3.4545	5.e-002	-32.328
14546	0.3661	3.1818	0.	-7262.8
14547	0.27458	3.2727	0.	-7296.4
14548	0.3661	3.2727	5.e-002	-32.058
14549	0.3661	3.	0.	-7268.9
14550	0.27458	3.0909	0.	-7308.2
14551	0.3661	3.0909	5.e-002	-31.924
14552	0.3661	2.8182	0.	-7262.8
14553	0.27458	2.9091	0.	-7308.2
14554	0.3661	2.9091	5.e-002	-31.924
14555	0.3661	2.6364	0.	-7244.2
14556	0.27458	2.7273	0.	-7296.4
14557	0.3661	2.7273	5.e-002	-32.058
14558	0.3661	2.4545	0.	-7212.4
14559	0.27458	2.5455	0.	-7272.4
14560	0.3661	2.5455	5.e-002	-32.328
14561	0.3661	2.2727	0.	-7166.4
14562	0.27458	2.3636	0.	-7235.3
14563	0.3661	2.3636	5.e-002	-32.737
14564	0.3661	2.0909	0.	-7104.6
14565	0.27458	2.1818	0.	-7183.6
14566	0.3661	2.1818	5.e-002	-33.291
14567	0.3661	1.9091	0.	-7024.6
14568	0.27458	2.	0.	-7115.3
14569	0.3661	2.	5.e-002	-33.999
14570	0.3661	1.7273	0.	-6923.3
14571	0.27458	1.8182	0.	-7027.5
14572	0.3661	1.8182	5.e-002	-34.87
14573	0.3661	1.5455	0.	-6796.9
14574	0.27458	1.6364	0.	-6916.2
14575	0.3661	1.6364	5.e-002	-35.92
14576	0.3661	1.3636	0.	-6640.3
14577	0.27458	1.4545	0.	-6776.
14578	0.3661	1.4545	5.e-002	-37.178
14579	0.3661	1.1818	0.	-6447.6
14580	0.27458	1.2727	0.	-6599.7
14581	0.3661	1.2727	5.e-002	-38.708
14582	0.3661	1.	0.	-6212.8
14583	0.27458	1.0909	0.	-6377.6
14584	0.3661	1.0909	5.e-002	-40.684
14585	0.3661	0.81818	0.	-5933.1
14586	0.27458	0.90909	0.	-6097.5
14587	0.3661	0.90909	5.e-002	-43.602
14588	0.3661	0.63636	0.	-5616.7
14589	0.27458	0.72727	0.	-5745.2
14590	0.3661	0.72727	5.e-002	-49.058
14591	0.3661	0.45455	0.	-5302.9
14592	0.27458	0.54545	0.	-5313.6
14593	0.3661	0.54545	5.e-002	-59.646
14594	0.3661	0.27273	0.	-5087.9
14595	0.27458	0.36364	0.	-4820.1
14596	0.3661	0.36364	5.e-002	-78.402
14597	0.27458	0.18182	0.	-4453.1
14598	0.3661	0.18182	5.e-002	-70.787
14599	0.3661	9.0909e-002	0.	-4867.8
14600	0.18305	5.7273	0.	-4170.
14601	0.18305	5.8182	5.e-002	-170.42
14602	0.18305	5.9091	0.	-3681.2
14603	9.1525e-002	5.8182	0.	-3187.8
14604	0.18305	5.5455	0.	-4830.5
14605	0.18305	5.6364	5.e-002	-108.53
14606	9.1525e-002	5.6364	0.	-4547.4
14607	0.18305	5.3636	0.	-5449.3
14608	0.18305	5.4545	5.e-002	-73.726
14609	9.1525e-002	5.4545	0.	-5429.2
14610	0.18305	5.1818	0.	-5916.4
14611	0.18305	5.2727	5.e-002	-56.477
14612	9.1525e-002	5.2727	0.	-6022.4
14613	0.18305	5.	0.	-6267.
14614	0.18305	5.0909	5.e-002	-47.519
14615	9.1525e-002	5.0909	0.	-6439.6
14616	0.18305	4.8182	0.	-6532.8
14617	0.18305	4.9091	5.e-002	-41.404
14618	9.1525e-002	4.9091	0.	-6744.8
14619	0.18305	4.6364	0.	-6737.3
14620	0.18305	4.7273	5.e-002	-36.948
14621	9.1525e-002	4.7273	0.	-6974.4
14622	0.18305	4.4545	0.	-6896.5
14623	0.18305	4.5455	5.e-002	-33.55
14624	9.1525e-002	4.5455	0.	-7150.5
14625	0.18305	4.2727	0.	-7021.1
14626	0.18305	4.3636	5.e-002	-30.9
14627	9.1525e-002	4.3636	0.	-7287.1
14628	0.18305	4.0909	0.	-7118.7
14629	0.18305	4.1818	5.e-002	-28.815
14630	9.1525e-002	4.1818	0.	-7393.7
14631	0.18305	3.9091	0.	-7194.6
14632	0.18305	4.	5.e-002	-27.175
14633	9.1525e-002	4.	0.	-7476.6
14634	0.18305	3.7273	0.	-7252.6
14635	0.18305	3.8182	5.e-002	-25.9
14636	9.1525e-002	3.8182	0.	-7540.5
14637	0.18305	3.5455	0.	-7295.3
14638	0.18305	3.6364	5.e-002	-24.934
14639	9.1525e-002	3.6364	0.	-7588.4
14640	0.18305	3.3636	0.	-7324.6
14641	0.18305	3.4545	5.e-002	-24.239
14642	9.1525e-002	3.4545	0.	-7622.6
14643	0.18305	3.1818	0.	-7341.8
14644	0.18305	3.2727	5.e-002	-23.789
14645	9.1525e-002	3.2727	0.	-7644.7
14646	0.18305	3.	0.	-7347.4
14647	0.18305	3.0909	5.e-002	-23.568
14648	9.1525e-002	3.0909	0.	-7655.5
14649	0.18305	2.8182	0.	-7341.8
14650	0.18305	2.9091	5.e-002	-23.568
14651	9.1525e-002	2.9091	0.	-7655.5
14652	0.18305	2.6364	0.	-7324.6
14653	0.18305	2.7273	5.e-002	-23.789
14654	9.1525e-002	2.7273	0.	-7644.7
14655	0.18305	2.4545	0.	-7295.3
14656	0.18305	2.5455	5.e-002	-24.239
14657	9.1525e-002	2.5455	0.	-7622.6
14658	0.18305	2.2727	0.	-7252.6
14659	0.18305	2.3636	5.e-002	-24.934
14660	9.1525e-002	2.3636	0.	-7588.4
14661	0.18305	2.0909	0.	-7194.6
14662	0.18305	2.1818	5.e-002	-25.9
14663	9.1525e-002	2.1818	0.	-7540.5
14664	0.18305	1.9091	0.	-7118.7
14665	0.18305	2.	5.e-002	-27.175
14666	9.1525e-002	2.	0.	-7476.6
14667	0.18305	1.7273	0.	-7021.1
14668	0.18305	1.8182	5.e-002	-28.815
14669	9.1525e-002	1.8182	0.	-7393.7
14670	0.18305	1.5455	0.	-6896.5
14671	0.18305	1.6364	5.e-002	-30.9
14672	9.1525e-002	1.6364	0.	-7287.1
14673	0.18305	1.3636	0.	-6737.3
14674	0.18305	1.4545	5.e-002	-33.55
14675	9.1525e-002	1.4545	0.	-7150.5
14676	0.18305	1.1818	0.	-6532.8
14677	0.18305	1.2727	5.e-002	-36.948
14678	9.1525e-002	1.2727	0.	-6974.4
14679	0.18305	1.	0.	-6267.
14680	0.18305	1.0909	5.e-002	-41.404
14681	9.1525e-002	1.0909	0.	-6744.8
14682	0.18305	0.81818	0.	-5916.4
14683	0.18305	0.90909	5.e-002	-47.519
14684	9.1525e-002	0.90909	0.	-6439.6
14685	0.18305	0.63636	0.	-5449.3
14686	0.18305	0.72727	5.e-002	-56.477
14687	9.1525e-002	0.72727	0.	-6022.4
14688	0.18305	0.45455	0.	-4830.5
14689	0.18305	0.54545	5.e-002	-73.726
14690	9.1525e-002	0.54545	0.	-5429.2
14691	0.18305	0.27273	0.	-4170.
14692	0.18305	0.36364	5.e-002	-108.53
14693	9.1525e-002	0.36364	0.	-4547.4
14694	0.18305	0.18182	5.e-002	-170.42
14695	0.18305	9.0909e-002	0.	-3681.2
14696	9.1525e-002	0.18182	0.	-3187.8
14697	11.242	5.8182	0.	-675.73
14698	11.15	5.7273	0.	-639.04
14699	11.15	5.8182	5.e-002	-43.954
14700	11.15	5.9091	0.	-438.61
14701	11.058	5.8182	0.	-383.87
14702	11.426	5.8182	0.	-978.
14703	11.334	5.7273	0.	-888.97
14704	11.334	5.8182	5.e-002	-38.671
14705	11.334	5.9091	0.	-770.97
14706	11.609	5.8182	0.	-1258.3
14707	11.517	5.7273	0.	-1169.4
14708	11.517	5.8182	5.e-002	-35.502
14709	11.517	5.9091	0.	-1079.
14710	11.793	5.8182	0.	-1501.7
14711	11.701	5.7273	0.	-1424.4
14712	11.701	5.8182	5.e-002	-31.747
14713	11.701	5.9091	0.	-1349.3
14714	11.976	5.8182	0.	-1706.2
14715	11.885	5.7273	0.	-1643.5
14716	11.885	5.8182	5.e-002	-27.631
14717	11.885	5.9091	0.	-1579.8
14718	12.16	5.8182	0.	-1872.8
14719	12.068	5.7273	0.	-1824.5
14720	12.068	5.8182	5.e-002	-23.46
14721	12.068	5.9091	0.	-1770.5
14722	12.343	5.8182	0.	-2004.3
14723	12.252	5.7273	0.	-1968.9
14724	12.252	5.8182	5.e-002	-19.479
14725	12.252	5.9091	0.	-1923.7
14726	12.527	5.8182	0.	-2104.6
14727	12.435	5.7273	0.	-2080.3
14728	12.435	5.8182	5.e-002	-15.848
14729	12.435	5.9091	0.	-2042.8
14730	12.711	5.8182	0.	-2177.8
14731	12.619	5.7273	0.	-2162.8
14732	12.619	5.8182	5.e-002	-12.649
14733	12.619	5.9091	0.	-2132.
14734	12.894	5.8182	0.	-2228.
14735	12.802	5.7273	0.	-2220.6
14736	12.802	5.8182	5.e-002	-9.9043
14737	12.802	5.9091	0.	-2195.7
14738	13.078	5.8182	0.	-2259.1
14739	12.986	5.7273	0.	-2257.8
14740	12.986	5.8182	5.e-002	-7.5995
14741	12.986	5.9091	0.	-2237.8
14742	13.261	5.8182	0.	-2274.4
14743	13.169	5.7273	0.	-2278.
14744	13.169	5.8182	5.e-002	-5.6969
14745	13.169	5.9091	0.	-2262.1
14746	13.445	5.8182	0.	-2276.9
14747	13.353	5.7273	0.	-2284.4
14748	13.353	5.8182	5.e-002	-4.1496
14749	13.353	5.9091	0.	-2271.9
14750	13.628	5.8182	0.	-2269.
14751	13.537	5.7273	0.	-2279.6
14752	13.537	5.8182	5.e-002	-2.9089
14753	13.537	5.9091	0.	-2269.8
14754	13.812	5.8182	0.	-2252.7
14755	13.72	5.7273	0.	-2265.8
14756	13.72	5.8182	5.e-002	-1.9289
14757	13.72	5.9091	0.	-2258.2
14758	13.996	5.8182	0.	-2229.9
14759	13.904	5.7273	0.	-2244.8
14760	13.904	5.8182	5.e-002	-1.1711
14761	13.904	5.9091	0.	-2239.
14762	14.179	5.8182	0.	-2201.9
14763	14.087	5.7273	0.	-2218.2
14764	14.087	5.8182	5.e-002	-0.61409
14765	14.087	5.9091	0.	-2213.8
14766	14.363	5.8182	0.	-2169.7
14767	14.271	5.7273	0.	-2187.2
14768	14.271	5.8182	5.e-002	-0.31654
14769	14.271	5.9091	0.	-2183.9
14770	14.546	5.8182	0.	-2134.3
14771	14.454	5.7273	0.	-2152.7
14772	14.454	5.8182	5.e-002	-0.40395
14773	14.454	5.9091	0.	-2150.2
14774	14.73	5.8182	0.	-2096.5
14775	14.638	5.7273	0.	-2115.5
14776	14.638	5.8182	5.e-002	-0.59462
14777	14.638	5.9091	0.	-2113.6
14778	14.913	5.8182	0.	-2056.8
14779	14.822	5.7273	0.	-2076.2
14780	14.822	5.8182	5.e-002	-0.74834
14781	14.822	5.9091	0.	-2074.8
14782	15.097	5.8182	0.	-2015.6
14783	15.005	5.7273	0.	-2035.4
14784	15.005	5.8182	5.e-002	-0.85492
14785	15.005	5.9091	0.	-2034.3
14786	15.281	5.8182	0.	-1973.4
14787	15.189	5.7273	0.	-1993.4
14788	15.189	5.8182	5.e-002	-0.92094
14789	15.189	5.9091	0.	-1992.5
14790	15.464	5.8182	0.	-1930.3
14791	15.372	5.7273	0.	-1950.5
14792	15.372	5.8182	5.e-002	-0.95467
14793	15.372	5.9091	0.	-1949.7
14794	15.648	5.8182	0.	-1886.7
14795	15.556	5.7273	0.	-1907.
14796	15.556	5.8182	5.e-002	-0.96346
14797	15.556	5.9091	0.	-1906.2
14798	15.831	5.8182	0.	-1842.7
14799	15.739	5.7273	0.	-1863.1
14800	15.739	5.8182	5.e-002	-0.95355
14801	15.739	5.9091	0.	-1862.2
14802	16.015	5.8182	0.	-1798.5
14803	15.923	5.7273	0.	-1818.9
14804	15.923	5.8182	5.e-002	-0.93006
14805	15.923	5.9091	0.	-1817.9
14806	16.198	5.8182	0.	-1754.1
14807	16.107	5.7273	0.	-1774.5
14808	16.107	5.8182	5.e-002	-0.89709
14809	16.107	5.9091	0.	-1773.4
14810	16.382	5.8182	0.	-1709.7
14811	16.29	5.7273	0.	-1730.
14812	16.29	5.8182	5.e-002	-0.85792
14813	16.29	5.9091	0.	-1728.8
14814	16.565	5.8182	0.	-1665.3
14815	16.474	5.7273	0.	-1685.6
14816	16.474	5.8182	5.e-002	-0.81519
14817	16.474	5.9091	0.	-1684.2
14818	16.749	5.8182	0.	-1620.9
14819	16.657	5.7273	0.	-1641.1
14820	16.657	5.8182	5.e-002	-0.77093
14821	16.657	5.9091	0.	-1639.6
14822	16.933	5.8182	0.	-1576.6
14823	16.841	5.7273	0.	-1596.8
14824	16.841	5.8182	5.e-002	-0.72677
14825	16.841	5.9091	0.	-1595.
14826	17.116	5.8182	0.	-1532.5
14827	17.024	5.7273	0.	-1552.5
14828	17.024	5.8182	5.e-002	-0.68406
14829	17.024	5.9091	0.	-1550.6
14830	17.3	5.8182	0.	-1488.5
14831	17.208	5.7273	0.	-1508.4
14832	17.208	5.8182	5.e-002	-0.64377
14833	17.208	5.9091	0.	-1506.3
14834	17.483	5.8182	0.	-1444.6
14835	17.392	5.7273	0.	-1464.5
14836	17.392	5.8182	5.e-002	-0.60677
14837	17.392	5.9091	0.	-1462.2
14838	17.667	5.8182	0.	-1400.9
14839	17.575	5.7273	0.	-1420.7
14840	17.575	5.8182	5.e-002	-0.57372
14841	17.575	5.9091	0.	-1418.2
14842	17.85	5.8182	0.	-1357.4
14843	17.759	5.7273	0.	-1377.1
14844	17.759	5.8182	5.e-002	-0.5452
14845	17.759	5.9091	0.	-1374.4
14846	18.034	5.8182	0.	-1314.1
14847	17.942	5.7273	0.	-1333.7
14848	17.942	5.8182	5.e-002	-0.52171
14849	17.942	5.9091	0.	-1330.7
14850	18.218	5.8182	0.	-1271.
14851	18.126	5.7273	0.	-1290.4
14852	18.126	5.8182	5.e-002	-0.50359
14853	18.126	5.9091	0.	-1287.3
14854	18.401	5.8182	0.	-1228.
14855	18.309	5.7273	0.	-1247.4
14856	18.309	5.8182	5.e-002	-0.49109
14857	18.309	5.9091	0.	-1244.
14858	18.585	5.8182	0.	-1185.2
14859	18.493	5.7273	0.	-1204.5
14860	18.493	5.8182	5.e-002	-0.48442
14861	18.493	5.9091	0.	-1201.
14862	18.768	5.8182	0.	-1142.6
14863	18.677	5.7273	0.	-1161.8
14864	18.677	5.8182	5.e-002	-0.48366
14865	18.677	5.9091	0.	-1158.1
14866	18.952	5.8182	0.	-1100.2
14867	18.86	5.7273	0.	-1119.3
14868	18.86	5.8182	5.e-002	-0.48877
14869	18.86	5.9091	0.	-1115.4
14870	19.135	5.8182	0.	-1058.
14871	19.044	5.7273	0.	-1077.
14872	19.044	5.8182	5.e-002	-0.49968
14873	19.044	5.9091	0.	-1072.9
14874	19.319	5.8182	0.	-1016.
14875	19.227	5.7273	0.	-1034.9
14876	19.227	5.8182	5.e-002	-0.51632
14877	19.227	5.9091	0.	-1030.6
14878	19.503	5.8182	0.	-974.13
14879	19.411	5.7273	0.	-992.9
14880	19.411	5.8182	5.e-002	-0.53851
14881	19.411	5.9091	0.	-988.5
14882	19.686	5.8182	0.	-932.44
14883	19.594	5.7273	0.	-951.12
14884	19.594	5.8182	5.e-002	-0.56619
14885	19.594	5.9091	0.	-946.55
14886	19.87	5.8182	0.	-890.91
14887	19.778	5.7273	0.	-909.5
14888	19.778	5.8182	5.e-002	-0.5993
14889	19.778	5.9091	0.	-904.78
14890	20.053	5.8182	0.	-849.55
14891	19.962	5.7273	0.	-868.06
14892	19.962	5.8182	5.e-002	-0.6378
14893	19.962	5.9091	0.	-863.19
14894	20.237	5.8182	0.	-808.35
14895	20.145	5.7273	0.	-826.77
14896	20.145	5.8182	5.e-002	-0.68178
14897	20.145	5.9091	0.	-821.76
14898	20.42	5.8182	0.	-767.3
14899	20.329	5.7273	0.	-785.65
14900	20.329	5.8182	5.e-002	-0.73137
14901	20.329	5.9091	0.	-780.49
14902	20.604	5.8182	0.	-726.4
14903	20.512	5.7273	0.	-744.67
14904	20.512	5.8182	5.e-002	-0.78677
14905	20.512	5.9091	0.	-739.39
14906	20.788	5.8182	0.	-685.65
14907	20.696	5.7273	0.	-703.85
14908	20.696	5.8182	5.e-002	-0.84825
14909	20.696	5.9091	0.	-698.45
14910	20.971	5.8182	0.	-645.04
14911	20.879	5.7273	0.	-663.18
14912	20.879	5.8182	5.e-002	-0.9161
14913	20.879	5.9091	0.	-657.67
14914	21.155	5.8182	0.	-604.56
14915	21.063	5.7273	0.	-622.64
14916	21.063	5.8182	5.e-002	-0.99072
14917	21.063	5.9091	0.	-617.04
14918	21.338	5.8182	0.	-564.21
14919	21.246	5.7273	0.	-582.24
14920	21.246	5.8182	5.e-002	-1.0725
14921	21.246	5.9091	0.	-576.56
14922	21.522	5.8182	0.	-523.99
14923	21.43	5.7273	0.	-541.98
14924	21.43	5.8182	5.e-002	-1.1621
14925	21.43	5.9091	0.	-536.23
14926	21.705	5.8182	0.	-483.9
14927	21.614	5.7273	0.	-501.85
14928	21.614	5.8182	5.e-002	-1.2599
14929	21.614	5.9091	0.	-496.06
14930	21.889	5.8182	0.	-443.93
14931	21.797	5.7273	0.	-461.85
14932	21.797	5.8182	5.e-002	-1.3666
14933	21.797	5.9091	0.	-456.04
14934	22.073	5.8182	0.	-404.08
14935	21.981	5.7273	0.	-421.97
14936	21.981	5.8182	5.e-002	-1.483
14937	21.981	5.9091	0.	-416.17
14938	22.256	5.8182	0.	-364.35
14939	22.164	5.7273	0.	-382.24
14940	22.164	5.8182	5.e-002	-1.61
14941	22.164	5.9091	0.	-376.47
14942	22.44	5.8182	0.	-324.76
14943	22.348	5.7273	0.	-342.64
14944	22.348	5.8182	5.e-002	-1.7487
14945	22.348	5.9091	0.	-336.95
14946	22.623	5.8182	0.	-285.31
14947	22.531	5.7273	0.	-303.19
14948	22.531	5.8182	5.e-002	-1.9004
14949	22.531	5.9091	0.	-297.63
14950	22.807	5.8182	0.	-246.01
14951	22.715	5.7273	0.	-263.9
14952	22.715	5.8182	5.e-002	-2.0667
14953	22.715	5.9091	0.	-258.53
14954	22.99	5.8182	0.	-206.9
14955	22.899	5.7273	0.	-224.82
14956	22.899	5.8182	5.e-002	-2.25
14957	22.899	5.9091	0.	-219.7
14958	23.174	5.8182	0.	-168.02
14959	23.082	5.7273	0.	-185.98
14960	23.082	5.8182	5.e-002	-2.4535
14961	23.082	5.9091	0.	-181.19
14962	23.358	5.8182	0.	-129.47
14963	23.266	5.7273	0.	-147.47
14964	23.266	5.8182	5.e-002	-2.6827
14965	23.266	5.9091	0.	-143.11
14966	23.541	5.8182	0.	-91.434
14967	23.449	5.7273	0.	-109.46
14968	23.449	5.8182	5.e-002	-2.945
14969	23.449	5.9091	0.	-105.62
14970	23.725	5.8182	0.	-54.745
14971	23.633	5.7273	0.	-72.279
14972	23.633	5.8182	5.e-002	-3.2752
14973	23.633	5.9091	0.	-69.031
14974	23.816	5.7273	0.	-37.16
14975	23.816	5.8182	5.e-002	-3.9794
14976	23.908	5.8182	0.	-20.488
14977	23.816	5.9091	0.	-34.465
14978	11.242	5.6364	0.	-835.17
14979	11.15	5.5455	0.	-869.57
14980	11.15	5.6364	5.e-002	-39.804
14981	11.058	5.6364	0.	-594.45
14982	11.426	5.6364	0.	-1076.5
14983	11.334	5.5455	0.	-1043.2
14984	11.334	5.6364	5.e-002	-33.218
14985	11.609	5.6364	0.	-1333.7
14986	11.517	5.5455	0.	-1284.8
14987	11.517	5.6364	5.e-002	-29.882
14988	11.793	5.6364	0.	-1565.1
14989	11.701	5.5455	0.	-1518.3
14990	11.701	5.6364	5.e-002	-25.865
14991	11.976	5.6364	0.	-1761.
14992	11.885	5.5455	0.	-1722.6
14993	11.885	5.6364	5.e-002	-21.692
14994	12.16	5.6364	0.	-1920.
14995	12.068	5.5455	0.	-1891.5
14996	12.068	5.6364	5.e-002	-17.656
14997	12.343	5.6364	0.	-2044.5
14998	12.252	5.5455	0.	-2025.3
14999	12.252	5.6364	5.e-002	-13.954
15000	12.527	5.6364	0.	-2138.2
15001	12.435	5.5455	0.	-2127.1
15002	12.435	5.6364	5.e-002	-10.683
15003	12.711	5.6364	0.	-2205.4
15004	12.619	5.5455	0.	-2201.1
15005	12.619	5.6364	5.e-002	-7.8731
15006	12.894	5.6364	0.	-2250.3
15007	12.802	5.5455	0.	-2251.5
15008	12.802	5.6364	5.e-002	-5.513
15009	13.078	5.6364	0.	-2276.7
15010	12.986	5.5455	0.	-2282.4
15011	12.986	5.6364	5.e-002	-3.5708
15012	13.261	5.6364	0.	-2288.
15013	13.169	5.5455	0.	-2297.3
15014	13.169	5.6364	5.e-002	-2.0235
15015	13.445	5.6364	0.	-2287.1
15016	13.353	5.5455	0.	-2299.2
15017	13.353	5.6364	5.e-002	-0.96147
15018	13.628	5.6364	0.	-2276.4
15019	13.537	5.5455	0.	-2290.7
15020	13.537	5.6364	5.e-002	-0.94487
15021	13.812	5.6364	0.	-2257.9
15022	13.72	5.5455	0.	-2273.9
15023	13.72	5.6364	5.e-002	-1.5786
15024	13.996	5.6364	0.	-2233.2
15025	13.904	5.5455	0.	-2250.5
15026	13.904	5.6364	5.e-002	-2.1898
15027	14.179	5.6364	0.	-2203.6
15028	14.087	5.5455	0.	-2222.
15029	14.087	5.6364	5.e-002	-2.6946
15030	14.363	5.6364	0.	-2170.2
15031	14.271	5.5455	0.	-2189.4
15032	14.271	5.6364	5.e-002	-3.0974
15033	14.546	5.6364	0.	-2133.8
15034	14.454	5.5455	0.	-2153.6
15035	14.454	5.6364	5.e-002	-3.4136
15036	14.73	5.6364	0.	-2095.2
15037	14.638	5.5455	0.	-2115.4
15038	14.638	5.6364	5.e-002	-3.6586
15039	14.913	5.6364	0.	-2054.9
15040	14.822	5.5455	0.	-2075.4
15041	14.822	5.6364	5.e-002	-3.8461
15042	15.097	5.6364	0.	-2013.2
15043	15.005	5.5455	0.	-2034.
15044	15.005	5.6364	5.e-002	-3.9874
15045	15.281	5.6364	0.	-1970.6
15046	15.189	5.5455	0.	-1991.6
15047	15.189	5.6364	5.e-002	-4.092
15048	15.464	5.6364	0.	-1927.3
15049	15.372	5.5455	0.	-1948.3
15050	15.372	5.6364	5.e-002	-4.1675
15051	15.648	5.6364	0.	-1883.5
15052	15.556	5.5455	0.	-1904.6
15053	15.556	5.6364	5.e-002	-4.22
15054	15.831	5.6364	0.	-1839.3
15055	15.739	5.5455	0.	-1860.5
15056	15.739	5.6364	5.e-002	-4.2546
15057	16.015	5.6364	0.	-1795.
15058	15.923	5.5455	0.	-1816.1
15059	15.923	5.6364	5.e-002	-4.2751
15060	16.198	5.6364	0.	-1750.5
15061	16.107	5.5455	0.	-1771.6
15062	16.107	5.6364	5.e-002	-4.2849
15063	16.382	5.6364	0.	-1706.
15064	16.29	5.5455	0.	-1727.1
15065	16.29	5.6364	5.e-002	-4.2864
15066	16.565	5.6364	0.	-1661.5
15067	16.474	5.5455	0.	-1682.6
15068	16.474	5.6364	5.e-002	-4.2815
15069	16.749	5.6364	0.	-1617.1
15070	16.657	5.5455	0.	-1638.1
15071	16.657	5.6364	5.e-002	-4.2719
15072	16.933	5.6364	0.	-1572.8
15073	16.841	5.5455	0.	-1593.8
15074	16.841	5.6364	5.e-002	-4.2589
15075	17.116	5.6364	0.	-1528.6
15076	17.024	5.5455	0.	-1549.5
15077	17.024	5.6364	5.e-002	-4.2434
15078	17.3	5.6364	0.	-1484.6
15079	17.208	5.5455	0.	-1505.4
15080	17.208	5.6364	5.e-002	-4.2261
15081	17.483	5.6364	0.	-1440.7
15082	17.392	5.5455	0.	-1461.5
15083	17.392	5.6364	5.e-002	-4.2076
15084	17.667	5.6364	0.	-1397.
15085	17.575	5.5455	0.	-1417.7
15086	17.575	5.6364	5.e-002	-4.1884
15087	17.85	5.6364	0.	-1353.5
15088	17.759	5.5455	0.	-1374.1
15089	17.759	5.6364	5.e-002	-4.1689
15090	18.034	5.6364	0.	-1310.1
15091	17.942	5.5455	0.	-1330.7
15092	17.942	5.6364	5.e-002	-4.1494
15093	18.218	5.6364	0.	-1267.
15094	18.126	5.5455	0.	-1287.5
15095	18.126	5.6364	5.e-002	-4.13
15096	18.401	5.6364	0.	-1224.
15097	18.309	5.5455	0.	-1244.5
15098	18.309	5.6364	5.e-002	-4.1109
15099	18.585	5.6364	0.	-1181.2
15100	18.493	5.5455	0.	-1201.6
15101	18.493	5.6364	5.e-002	-4.0923
15102	18.768	5.6364	0.	-1138.6
15103	18.677	5.5455	0.	-1158.9
15104	18.677	5.6364	5.e-002	-4.0742
15105	18.952	5.6364	0.	-1096.2
15106	18.86	5.5455	0.	-1116.5
15107	18.86	5.6364	5.e-002	-4.0568
15108	19.135	5.6364	0.	-1054.
15109	19.044	5.5455	0.	-1074.2
15110	19.044	5.6364	5.e-002	-4.04
15111	19.319	5.6364	0.	-1011.9
15112	19.227	5.5455	0.	-1032.
15113	19.227	5.6364	5.e-002	-4.0241
15114	19.503	5.6364	0.	-970.06
15115	19.411	5.5455	0.	-990.09
15116	19.411	5.6364	5.e-002	-4.0089
15117	19.686	5.6364	0.	-928.36
15118	19.594	5.5455	0.	-948.33
15119	19.594	5.6364	5.e-002	-3.9946
15120	19.87	5.6364	0.	-886.83
15121	19.778	5.5455	0.	-906.74
15122	19.778	5.6364	5.e-002	-3.9813
15123	20.053	5.6364	0.	-845.46
15124	19.962	5.5455	0.	-865.32
15125	19.962	5.6364	5.e-002	-3.9688
15126	20.237	5.6364	0.	-804.26
15127	20.145	5.5455	0.	-824.06
15128	20.145	5.6364	5.e-002	-3.9573
15129	20.42	5.6364	0.	-763.22
15130	20.329	5.5455	0.	-782.97
15131	20.329	5.6364	5.e-002	-3.9469
15132	20.604	5.6364	0.	-722.33
15133	20.512	5.5455	0.	-742.03
15134	20.512	5.6364	5.e-002	-3.9375
15135	20.788	5.6364	0.	-681.59
15136	20.696	5.5455	0.	-701.25
15137	20.696	5.6364	5.e-002	-3.9292
15138	20.971	5.6364	0.	-641.
15139	20.879	5.5455	0.	-660.62
15140	20.879	5.6364	5.e-002	-3.9221
15141	21.155	5.6364	0.	-600.56
15142	21.063	5.5455	0.	-620.14
15143	21.063	5.6364	5.e-002	-3.9161
15144	21.338	5.6364	0.	-560.25
15145	21.246	5.5455	0.	-579.8
15146	21.246	5.6364	5.e-002	-3.9115
15147	21.522	5.6364	0.	-520.09
15148	21.43	5.5455	0.	-539.61
15149	21.43	5.6364	5.e-002	-3.9081
15150	21.705	5.6364	0.	-480.06
15151	21.614	5.5455	0.	-499.56
15152	21.614	5.6364	5.e-002	-3.9061
15153	21.889	5.6364	0.	-440.17
15154	21.797	5.5455	0.	-459.65
15155	21.797	5.6364	5.e-002	-3.9056
15156	22.073	5.6364	0.	-400.43
15157	21.981	5.5455	0.	-419.89
15158	21.981	5.6364	5.e-002	-3.9066
15159	22.256	5.6364	0.	-360.84
15160	22.164	5.5455	0.	-380.29
15161	22.164	5.6364	5.e-002	-3.9093
15162	22.44	5.6364	0.	-321.41
15163	22.348	5.5455	0.	-340.85
15164	22.348	5.6364	5.e-002	-3.9139
15165	22.623	5.6364	0.	-282.16
15166	22.531	5.5455	0.	-301.59
15167	22.531	5.6364	5.e-002	-3.9206
15168	22.807	5.6364	0.	-243.13
15169	22.715	5.5455	0.	-262.55
15170	22.715	5.6364	5.e-002	-3.93
15171	22.99	5.6364	0.	-204.37
15172	22.899	5.5455	0.	-223.76
15173	22.899	5.6364	5.e-002	-3.9428
15174	23.174	5.6364	0.	-165.97
15175	23.082	5.5455	0.	-185.3
15176	23.082	5.6364	5.e-002	-3.9609
15177	23.358	5.6364	0.	-128.08
15178	23.266	5.5455	0.	-147.28
15179	23.266	5.6364	5.e-002	-3.9879
15180	23.541	5.6364	0.	-90.992
15181	23.449	5.5455	0.	-109.88
15182	23.449	5.6364	5.e-002	-4.0342
15183	23.725	5.6364	0.	-55.295
15184	23.633	5.5455	0.	-73.378
15185	23.633	5.6364	5.e-002	-4.1399
15186	23.816	5.5455	0.	-38.305
15187	23.816	5.6364	5.e-002	-4.5133
15188	23.908	5.6364	0.	-21.409
15189	11.242	5.4545	0.	-1052.1
15190	11.15	5.3636	0.	-1128.
15191	11.15	5.4545	5.e-002	-42.638
15192	11.058	5.4545	0.	-808.89
15193	11.426	5.4545	0.	-1240.7
15194	11.334	5.3636	0.	-1253.7
15195	11.334	5.4545	5.e-002	-33.575
15196	11.609	5.4545	0.	-1464.6
15197	11.517	5.3636	0.	-1456.8
15198	11.517	5.4545	5.e-002	-29.969
15199	11.793	5.4545	0.	-1673.2
15200	11.701	5.3636	0.	-1660.2
15201	11.701	5.4545	5.e-002	-25.679
15202	11.976	5.4545	0.	-1851.5
15203	11.885	5.3636	0.	-1840.6
15204	11.885	5.4545	5.e-002	-21.247
15205	12.16	5.4545	0.	-1995.7
15206	12.068	5.3636	0.	-1989.4
15207	12.068	5.4545	5.e-002	-17.051
15208	12.343	5.4545	0.	-2107.2
15209	12.252	5.3636	0.	-2105.9
15210	12.252	5.4545	5.e-002	-13.3
15211	12.527	5.4545	0.	-2189.5
15212	12.435	5.3636	0.	-2192.8
15213	12.435	5.4545	5.e-002	-10.073
15214	12.711	5.4545	0.	-2246.9
15215	12.619	5.3636	0.	-2254.1
15216	12.619	5.4545	5.e-002	-7.372
15217	12.894	5.4545	0.	-2283.5
15218	12.802	5.3636	0.	-2293.9
15219	12.802	5.4545	5.e-002	-5.1727
15220	13.078	5.4545	0.	-2302.9
15221	12.986	5.3636	0.	-2315.9
15222	12.986	5.4545	5.e-002	-3.4556
15223	13.261	5.4545	0.	-2308.5
15224	13.169	5.3636	0.	-2323.5
15225	13.169	5.4545	5.e-002	-2.2587
15226	13.445	5.4545	0.	-2302.8
15227	13.353	5.3636	0.	-2319.5
15228	13.353	5.4545	5.e-002	-1.731
15229	13.628	5.4545	0.	-2288.2
15230	13.537	5.3636	0.	-2306.2
15231	13.537	5.4545	5.e-002	-1.8757
15232	13.812	5.4545	0.	-2266.6
15233	13.72	5.3636	0.	-2285.5
15234	13.72	5.4545	5.e-002	-2.3129
15235	13.996	5.4545	0.	-2239.4
15236	13.904	5.3636	0.	-2259.
15237	13.904	5.4545	5.e-002	-2.7743
15238	14.179	5.4545	0.	-2207.8
15239	14.087	5.3636	0.	-2227.9
15240	14.087	5.4545	5.e-002	-3.1791
15241	14.363	5.4545	0.	-2172.8
15242	14.271	5.3636	0.	-2193.4
15243	14.271	5.4545	5.e-002	-3.5129
15244	14.546	5.4545	0.	-2135.2
15245	14.454	5.3636	0.	-2156.1
15246	14.454	5.4545	5.e-002	-3.7799
15247	14.73	5.4545	0.	-2095.7
15248	14.638	5.3636	0.	-2116.7
15249	14.638	5.4545	5.e-002	-3.9892
15250	14.913	5.4545	0.	-2054.6
15251	14.822	5.3636	0.	-2075.8
15252	14.822	5.4545	5.e-002	-4.1506
15253	15.097	5.4545	0.	-2012.3
15254	15.005	5.3636	0.	-2033.6
15255	15.005	5.4545	5.e-002	-4.273
15256	15.281	5.4545	0.	-1969.3
15257	15.189	5.3636	0.	-1990.6
15258	15.189	5.4545	5.e-002	-4.3637
15259	15.464	5.4545	0.	-1925.7
15260	15.372	5.3636	0.	-1947.
15261	15.372	5.4545	5.e-002	-4.4293
15262	15.648	5.4545	0.	-1881.6
15263	15.556	5.3636	0.	-1903.
15264	15.556	5.4545	5.e-002	-4.4749
15265	15.831	5.4545	0.	-1837.3
15266	15.739	5.3636	0.	-1858.7
15267	15.739	5.4545	5.e-002	-4.5046
15268	16.015	5.4545	0.	-1792.8
15269	15.923	5.3636	0.	-1814.2
15270	15.923	5.4545	5.e-002	-4.522
15271	16.198	5.4545	0.	-1748.3
15272	16.107	5.3636	0.	-1769.6
15273	16.107	5.4545	5.e-002	-4.5297
15274	16.382	5.4545	0.	-1703.7
15275	16.29	5.3636	0.	-1725.
15276	16.29	5.4545	5.e-002	-4.53
15277	16.565	5.4545	0.	-1659.2
15278	16.474	5.3636	0.	-1680.5
15279	16.474	5.4545	5.e-002	-4.5245
15280	16.749	5.4545	0.	-1614.8
15281	16.657	5.3636	0.	-1636.
15282	16.657	5.4545	5.e-002	-4.5147
15283	16.933	5.4545	0.	-1570.5
15284	16.841	5.3636	0.	-1591.7
15285	16.841	5.4545	5.e-002	-4.5016
15286	17.116	5.4545	0.	-1526.4
15287	17.024	5.3636	0.	-1547.4
15288	17.024	5.4545	5.e-002	-4.4862
15289	17.3	5.4545	0.	-1482.4
15290	17.208	5.3636	0.	-1503.4
15291	17.208	5.4545	5.e-002	-4.469
15292	17.483	5.4545	0.	-1438.6
15293	17.392	5.3636	0.	-1459.5
15294	17.392	5.4545	5.e-002	-4.4506
15295	17.667	5.4545	0.	-1394.9
15296	17.575	5.3636	0.	-1415.8
15297	17.575	5.4545	5.e-002	-4.4314
15298	17.85	5.4545	0.	-1351.4
15299	17.759	5.3636	0.	-1372.2
15300	17.759	5.4545	5.e-002	-4.4118
15301	18.034	5.4545	0.	-1308.1
15302	17.942	5.3636	0.	-1328.8
15303	17.942	5.4545	5.e-002	-4.392
15304	18.218	5.4545	0.	-1265.
15305	18.126	5.3636	0.	-1285.7
15306	18.126	5.4545	5.e-002	-4.3721
15307	18.401	5.4545	0.	-1222.1
15308	18.309	5.3636	0.	-1242.7
15309	18.309	5.4545	5.e-002	-4.3524
15310	18.585	5.4545	0.	-1179.4
15311	18.493	5.3636	0.	-1199.9
15312	18.493	5.4545	5.e-002	-4.3329
15313	18.768	5.4545	0.	-1136.8
15314	18.677	5.3636	0.	-1157.2
15315	18.677	5.4545	5.e-002	-4.3138
15316	18.952	5.4545	0.	-1094.4
15317	18.86	5.3636	0.	-1114.8
15318	18.86	5.4545	5.e-002	-4.2951
15319	19.135	5.4545	0.	-1052.2
15320	19.044	5.3636	0.	-1072.6
15321	19.044	5.4545	5.e-002	-4.2769
15322	19.319	5.4545	0.	-1010.2
15323	19.227	5.3636	0.	-1030.5
15324	19.227	5.4545	5.e-002	-4.2592
15325	19.503	5.4545	0.	-968.42
15326	19.411	5.3636	0.	-988.6
15327	19.411	5.4545	5.e-002	-4.242
15328	19.686	5.4545	0.	-926.76
15329	19.594	5.3636	0.	-946.89
15330	19.594	5.4545	5.e-002	-4.2255
15331	19.87	5.4545	0.	-885.28
15332	19.778	5.3636	0.	-905.36
15333	19.778	5.4545	5.e-002	-4.2097
15334	20.053	5.4545	0.	-843.97
15335	19.962	5.3636	0.	-863.99
15336	19.962	5.4545	5.e-002	-4.1945
15337	20.237	5.4545	0.	-802.82
15338	20.145	5.3636	0.	-822.79
15339	20.145	5.4545	5.e-002	-4.1801
15340	20.42	5.4545	0.	-761.84
15341	20.329	5.3636	0.	-781.76
15342	20.329	5.4545	5.e-002	-4.1663
15343	20.604	5.4545	0.	-721.01
15344	20.512	5.3636	0.	-740.89
15345	20.512	5.4545	5.e-002	-4.1534
15346	20.788	5.4545	0.	-680.34
15347	20.696	5.3636	0.	-700.19
15348	20.696	5.4545	5.e-002	-4.1413
15349	20.971	5.4545	0.	-639.82
15350	20.879	5.3636	0.	-659.63
15351	20.879	5.4545	5.e-002	-4.13
15352	21.155	5.4545	0.	-599.45
15353	21.063	5.3636	0.	-619.24
15354	21.063	5.4545	5.e-002	-4.1197
15355	21.338	5.4545	0.	-559.24
15356	21.246	5.3636	0.	-578.99
15357	21.246	5.4545	5.e-002	-4.1103
15358	21.522	5.4545	0.	-519.16
15359	21.43	5.3636	0.	-538.9
15360	21.43	5.4545	5.e-002	-4.1018
15361	21.705	5.4545	0.	-479.24
15362	21.614	5.3636	0.	-498.97
15363	21.614	5.4545	5.e-002	-4.0945
15364	21.889	5.4545	0.	-439.48
15365	21.797	5.3636	0.	-459.18
15366	21.797	5.4545	5.e-002	-4.0882
15367	22.073	5.4545	0.	-399.87
15368	21.981	5.3636	0.	-419.56
15369	21.981	5.4545	5.e-002	-4.0833
15370	22.256	5.4545	0.	-360.43
15371	22.164	5.3636	0.	-380.12
15372	22.164	5.4545	5.e-002	-4.0798
15373	22.44	5.4545	0.	-321.17
15374	22.348	5.3636	0.	-340.85
15375	22.348	5.4545	5.e-002	-4.078
15376	22.623	5.4545	0.	-282.14
15377	22.531	5.3636	0.	-301.8
15378	22.531	5.4545	5.e-002	-4.0784
15379	22.807	5.4545	0.	-243.35
15380	22.715	5.3636	0.	-262.98
15381	22.715	5.4545	5.e-002	-4.0816
15382	22.99	5.4545	0.	-204.88
15383	22.899	5.3636	0.	-224.45
15384	22.899	5.4545	5.e-002	-4.089
15385	23.174	5.4545	0.	-166.82
15386	23.082	5.3636	0.	-186.28
15387	23.082	5.4545	5.e-002	-4.1031
15388	23.358	5.4545	0.	-129.29
15389	23.266	5.3636	0.	-148.55
15390	23.266	5.4545	5.e-002	-4.129
15391	23.541	5.4545	0.	-92.447
15392	23.449	5.3636	0.	-111.37
15393	23.449	5.4545	5.e-002	-4.1773
15394	23.725	5.4545	0.	-56.467
15395	23.633	5.3636	0.	-74.791
15396	23.633	5.4545	5.e-002	-4.2742
15397	23.816	5.3636	0.	-38.993
15398	23.816	5.4545	5.e-002	-4.5675
15399	23.908	5.4545	0.	-21.917
15400	11.242	5.2727	0.	-1303.4
15401	11.15	5.1818	0.	-1415.8
15402	11.15	5.2727	5.e-002	-48.172
15403	11.058	5.2727	0.	-1033.8
15404	11.426	5.2727	0.	-1453.8
15405	11.334	5.1818	0.	-1508.8
15406	11.334	5.2727	5.e-002	-35.549
15407	11.609	5.2727	0.	-1643.7
15408	11.517	5.1818	0.	-1678.5
15409	11.517	5.2727	5.e-002	-31.02
15410	11.793	5.2727	0.	-1822.8
15411	11.701	5.1818	0.	-1847.3
15412	11.701	5.2727	5.e-002	-26.003
15413	11.976	5.2727	0.	-1975.6
15414	11.885	5.1818	0.	-1995.9
15415	11.885	5.2727	5.e-002	-21.096
15416	12.16	5.2727	0.	-2097.8
15417	12.068	5.1818	0.	-2116.7
15418	12.068	5.2727	5.e-002	-16.677
15419	12.343	5.2727	0.	-2190.5
15420	12.252	5.1818	0.	-2209.3
15421	12.252	5.2727	5.e-002	-12.899
15422	12.527	5.2727	0.	-2256.8
15423	12.435	5.1818	0.	-2276.
15424	12.435	5.2727	5.e-002	-9.7749
15425	12.711	5.2727	0.	-2300.7
15426	12.619	5.1818	0.	-2320.5
15427	12.619	5.2727	5.e-002	-7.2594
15428	12.894	5.2727	0.	-2326.1
15429	12.802	5.1818	0.	-2346.5
15430	12.802	5.2727	5.e-002	-5.304
15431	13.078	5.2727	0.	-2336.4
15432	12.986	5.1818	0.	-2357.2
15433	12.986	5.2727	5.e-002	-3.8847
15434	13.261	5.2727	0.	-2334.5
15435	13.169	5.1818	0.	-2355.7
15436	13.169	5.2727	5.e-002	-3.0115
15437	13.445	5.2727	0.	-2322.8
15438	13.353	5.1818	0.	-2344.3
15439	13.353	5.2727	5.e-002	-2.6731
15440	13.628	5.2727	0.	-2303.4
15441	13.537	5.1818	0.	-2325.1
15442	13.537	5.2727	5.e-002	-2.7341
15443	13.812	5.2727	0.	-2277.9
15444	13.72	5.1818	0.	-2299.7
15445	13.72	5.2727	5.e-002	-2.9872
15446	13.996	5.2727	0.	-2247.6
15447	13.904	5.1818	0.	-2269.5
15448	13.904	5.2727	5.e-002	-3.2886
15449	14.179	5.2727	0.	-2213.6
15450	14.087	5.1818	0.	-2235.5
15451	14.087	5.2727	5.e-002	-3.5728
15452	14.363	5.2727	0.	-2176.7
15453	14.271	5.1818	0.	-2198.6
15454	14.271	5.2727	5.e-002	-3.8173
15455	14.546	5.2727	0.	-2137.6
15456	14.454	5.1818	0.	-2159.5
15457	14.454	5.2727	5.e-002	-4.0178
15458	14.73	5.2727	0.	-2096.8
15459	14.638	5.1818	0.	-2118.7
15460	14.638	5.2727	5.e-002	-4.1771
15461	14.913	5.2727	0.	-2054.9
15462	14.822	5.1818	0.	-2076.7
15463	14.822	5.2727	5.e-002	-4.3005
15464	15.097	5.2727	0.	-2012.
15465	15.005	5.1818	0.	-2033.8
15466	15.005	5.2727	5.e-002	-4.3937
15467	15.281	5.2727	0.	-1968.4
15468	15.189	5.1818	0.	-1990.1
15469	15.189	5.2727	5.e-002	-4.4621
15470	15.464	5.2727	0.	-1924.4
15471	15.372	5.1818	0.	-1946.1
15472	15.372	5.2727	5.e-002	-4.5104
15473	15.648	5.2727	0.	-1880.1
15474	15.556	5.1818	0.	-1901.7
15475	15.556	5.2727	5.e-002	-4.5427
15476	15.831	5.2727	0.	-1835.6
15477	15.739	5.1818	0.	-1857.1
15478	15.739	5.2727	5.e-002	-4.5621
15479	16.015	5.2727	0.	-1791.
15480	15.923	5.1818	0.	-1812.4
15481	15.923	5.2727	5.e-002	-4.5714
15482	16.198	5.2727	0.	-1746.3
15483	16.107	5.1818	0.	-1767.8
15484	16.107	5.2727	5.e-002	-4.5728
15485	16.382	5.2727	0.	-1701.7
15486	16.29	5.1818	0.	-1723.1
15487	16.29	5.2727	5.e-002	-4.5682
15488	16.565	5.2727	0.	-1657.2
15489	16.474	5.1818	0.	-1678.5
15490	16.474	5.2727	5.e-002	-4.5589
15491	16.749	5.2727	0.	-1612.8
15492	16.657	5.1818	0.	-1634.1
15493	16.657	5.2727	5.e-002	-4.5462
15494	16.933	5.2727	0.	-1568.6
15495	16.841	5.1818	0.	-1589.7
15496	16.841	5.2727	5.e-002	-4.5307
15497	17.116	5.2727	0.	-1524.4
15498	17.024	5.1818	0.	-1545.5
15499	17.024	5.2727	5.e-002	-4.5135
15500	17.3	5.2727	0.	-1480.5
15501	17.208	5.1818	0.	-1501.5
15502	17.208	5.2727	5.e-002	-4.4948
15503	17.483	5.2727	0.	-1436.7
15504	17.392	5.1818	0.	-1457.7
15505	17.392	5.2727	5.e-002	-4.4753
15506	17.667	5.2727	0.	-1393.1
15507	17.575	5.1818	0.	-1414.
15508	17.575	5.2727	5.e-002	-4.4551
15509	17.85	5.2727	0.	-1349.6
15510	17.759	5.1818	0.	-1370.5
15511	17.759	5.2727	5.e-002	-4.4348
15512	18.034	5.2727	0.	-1306.4
15513	17.942	5.1818	0.	-1327.2
15514	17.942	5.2727	5.e-002	-4.4143
15515	18.218	5.2727	0.	-1263.3
15516	18.126	5.1818	0.	-1284.
15517	18.126	5.2727	5.e-002	-4.394
15518	18.401	5.2727	0.	-1220.5
15519	18.309	5.1818	0.	-1241.1
15520	18.309	5.2727	5.e-002	-4.3738
15521	18.585	5.2727	0.	-1177.8
15522	18.493	5.1818	0.	-1198.4
15523	18.493	5.2727	5.e-002	-4.354
15524	18.768	5.2727	0.	-1135.3
15525	18.677	5.1818	0.	-1155.8
15526	18.677	5.2727	5.e-002	-4.3346
15527	18.952	5.2727	0.	-1093.
15528	18.86	5.1818	0.	-1113.4
15529	18.86	5.2727	5.e-002	-4.3156
15530	19.135	5.2727	0.	-1050.8
15531	19.044	5.1818	0.	-1071.2
15532	19.044	5.2727	5.e-002	-4.2972
15533	19.319	5.2727	0.	-1008.9
15534	19.227	5.1818	0.	-1029.2
15535	19.227	5.2727	5.e-002	-4.2793
15536	19.503	5.2727	0.	-967.12
15537	19.411	5.1818	0.	-987.38
15538	19.411	5.2727	5.e-002	-4.2621
15539	19.686	5.2727	0.	-925.53
15540	19.594	5.1818	0.	-945.73
15541	19.594	5.2727	5.e-002	-4.2455
15542	19.87	5.2727	0.	-884.11
15543	19.778	5.1818	0.	-904.26
15544	19.778	5.2727	5.e-002	-4.2295
15545	20.053	5.2727	0.	-842.86
15546	19.962	5.1818	0.	-862.96
15547	19.962	5.2727	5.e-002	-4.2143
15548	20.237	5.2727	0.	-801.78
15549	20.145	5.1818	0.	-821.83
15550	20.145	5.2727	5.e-002	-4.1998
15551	20.42	5.2727	0.	-760.87
15552	20.329	5.1818	0.	-780.88
15553	20.329	5.2727	5.e-002	-4.1861
15554	20.604	5.2727	0.	-720.12
15555	20.512	5.1818	0.	-740.09
15556	20.512	5.2727	5.e-002	-4.1732
15557	20.788	5.2727	0.	-679.54
15558	20.696	5.1818	0.	-699.46
15559	20.696	5.2727	5.e-002	-4.1611
15560	20.971	5.2727	0.	-639.11
15561	20.879	5.1818	0.	-659.01
15562	20.879	5.2727	5.e-002	-4.15
15563	21.155	5.2727	0.	-598.84
15564	21.063	5.1818	0.	-618.71
15565	21.063	5.2727	5.e-002	-4.1399
15566	21.338	5.2727	0.	-558.73
15567	21.246	5.1818	0.	-578.57
15568	21.246	5.2727	5.e-002	-4.1308
15569	21.522	5.2727	0.	-518.78
15570	21.43	5.1818	0.	-538.6
15571	21.43	5.2727	5.e-002	-4.1228
15572	21.705	5.2727	0.	-478.98
15573	21.614	5.1818	0.	-498.79
15574	21.614	5.2727	5.e-002	-4.116
15575	21.889	5.2727	0.	-439.36
15576	21.797	5.1818	0.	-459.15
15577	21.797	5.2727	5.e-002	-4.1106
15578	22.073	5.2727	0.	-399.9
15579	21.981	5.1818	0.	-419.68
15580	21.981	5.2727	5.e-002	-4.1067
15581	22.256	5.2727	0.	-360.64
15582	22.164	5.1818	0.	-380.4
15583	22.164	5.2727	5.e-002	-4.1046
15584	22.44	5.2727	0.	-321.58
15585	22.348	5.1818	0.	-341.32
15586	22.348	5.2727	5.e-002	-4.1047
15587	22.623	5.2727	0.	-282.76
15588	22.531	5.1818	0.	-302.46
15589	22.531	5.2727	5.e-002	-4.1075
15590	22.807	5.2727	0.	-244.2
15591	22.715	5.1818	0.	-263.85
15592	22.715	5.2727	5.e-002	-4.1142
15593	22.99	5.2727	0.	-205.97
15594	22.899	5.1818	0.	-225.53
15595	22.899	5.2727	5.e-002	-4.1262
15596	23.174	5.2727	0.	-168.13
15597	23.082	5.1818	0.	-187.55
15598	23.082	5.2727	5.e-002	-4.1464
15599	23.358	5.2727	0.	-130.73
15600	23.266	5.1818	0.	-149.93
15601	23.266	5.2727	5.e-002	-4.1796
15602	23.541	5.2727	0.	-93.782
15603	23.449	5.1818	0.	-112.72
15604	23.449	5.2727	5.e-002	-4.2335
15605	23.725	5.2727	0.	-57.317
15606	23.633	5.1818	0.	-75.834
15607	23.633	5.2727	5.e-002	-4.3263
15608	23.816	5.1818	0.	-39.376
15609	23.816	5.2727	5.e-002	-4.5712
15610	23.908	5.2727	0.	-22.201
15611	11.242	5.0909	0.	-1594.4
15612	11.15	5.	0.	-1750.2
15613	11.15	5.0909	5.e-002	-56.417
15614	11.058	5.0909	0.	-1283.
15615	11.426	5.0909	0.	-1714.4
15616	11.334	5.	0.	-1815.1
15617	11.334	5.0909	5.e-002	-39.026
15618	11.609	5.0909	0.	-1870.2
15619	11.517	5.	0.	-1951.6
15620	11.517	5.0909	5.e-002	-32.708
15621	11.793	5.0909	0.	-2013.4
15622	11.701	5.	0.	-2079.7
15623	11.701	5.0909	5.e-002	-26.427
15624	11.976	5.0909	0.	-2132.9
15625	11.885	5.	0.	-2187.8
15626	11.885	5.0909	5.e-002	-20.842
15627	12.16	5.0909	0.	-2225.8
15628	12.068	5.	0.	-2272.4
15629	12.068	5.0909	5.e-002	-16.207
15630	12.343	5.0909	0.	-2293.4
15631	12.252	5.	0.	-2334.1
15632	12.252	5.0909	5.e-002	-12.5
15633	12.527	5.0909	0.	-2338.9
15634	12.435	5.	0.	-2375.3
15635	12.435	5.0909	5.e-002	-9.5941
15636	12.711	5.0909	0.	-2365.8
15637	12.619	5.	0.	-2399.
15638	12.619	5.0909	5.e-002	-7.3657
15639	12.894	5.0909	0.	-2377.3
15640	12.802	5.	0.	-2408.1
15641	12.802	5.0909	5.e-002	-5.7208
15642	13.078	5.0909	0.	-2376.4
15643	12.986	5.	0.	-2405.3
15644	12.986	5.0909	5.e-002	-4.595
15645	13.261	5.0909	0.	-2365.4
15646	13.169	5.	0.	-2393.
15647	13.169	5.0909	5.e-002	-3.9296
15648	13.445	5.0909	0.	-2346.5
15649	13.353	5.	0.	-2373.
15650	13.353	5.0909	5.e-002	-3.638
15651	13.628	5.0909	0.	-2321.4
15652	13.537	5.	0.	-2346.9
15653	13.537	5.0909	5.e-002	-3.6
15654	13.812	5.0909	0.	-2291.3
15655	13.72	5.	0.	-2316.1
15656	13.72	5.0909	5.e-002	-3.6987
15657	13.996	5.0909	0.	-2257.4
15658	13.904	5.	0.	-2281.6
15659	13.904	5.0909	5.e-002	-3.8515
15660	14.179	5.0909	0.	-2220.6
15661	14.087	5.	0.	-2244.3
15662	14.087	5.0909	5.e-002	-4.0125
15663	14.363	5.0909	0.	-2181.5
15664	14.271	5.	0.	-2204.8
15665	14.271	5.0909	5.e-002	-4.1598
15666	14.546	5.0909	0.	-2140.7
15667	14.454	5.	0.	-2163.7
15668	14.454	5.0909	5.e-002	-4.2849
15669	14.73	5.0909	0.	-2098.6
15670	14.638	5.	0.	-2121.3
15671	14.638	5.0909	5.e-002	-4.3859
15672	14.913	5.0909	0.	-2055.6
15673	14.822	5.	0.	-2078.1
15674	14.822	5.0909	5.e-002	-4.4643
15675	15.097	5.0909	0.	-2012.
15676	15.005	5.	0.	-2034.2
15677	15.005	5.0909	5.e-002	-4.5227
15678	15.281	5.0909	0.	-1967.8
15679	15.189	5.	0.	-1989.9
15680	15.189	5.0909	5.e-002	-4.5641
15681	15.464	5.0909	0.	-1923.4
15682	15.372	5.	0.	-1945.4
15683	15.372	5.0909	5.e-002	-4.5914
15684	15.648	5.0909	0.	-1878.8
15685	15.556	5.	0.	-1900.6
15686	15.556	5.0909	5.e-002	-4.6073
15687	15.831	5.0909	0.	-1834.
15688	15.739	5.	0.	-1855.8
15689	15.739	5.0909	5.e-002	-4.614
15690	16.015	5.0909	0.	-1789.3
15691	15.923	5.	0.	-1810.9
15692	15.923	5.0909	5.e-002	-4.6133
15693	16.198	5.0909	0.	-1744.6
15694	16.107	5.	0.	-1766.1
15695	16.107	5.0909	5.e-002	-4.607
15696	16.382	5.0909	0.	-1699.9
15697	16.29	5.	0.	-1721.4
15698	16.29	5.0909	5.e-002	-4.5963
15699	16.565	5.0909	0.	-1655.4
15700	16.474	5.	0.	-1676.8
15701	16.474	5.0909	5.e-002	-4.5822
15702	16.749	5.0909	0.	-1611.
15703	16.657	5.	0.	-1632.3
15704	16.657	5.0909	5.e-002	-4.5657
15705	16.933	5.0909	0.	-1566.7
15706	16.841	5.	0.	-1588.
15707	16.841	5.0909	5.e-002	-4.5473
15708	17.116	5.0909	0.	-1522.7
15709	17.024	5.	0.	-1543.8
15710	17.024	5.0909	5.e-002	-4.5276
15711	17.3	5.0909	0.	-1478.7
15712	17.208	5.	0.	-1499.8
15713	17.208	5.0909	5.e-002	-4.5072
15714	17.483	5.0909	0.	-1435.
15715	17.392	5.	0.	-1456.
15716	17.392	5.0909	5.e-002	-4.4861
15717	17.667	5.0909	0.	-1391.4
15718	17.575	5.	0.	-1412.4
15719	17.575	5.0909	5.e-002	-4.4648
15720	17.85	5.0909	0.	-1348.
15721	17.759	5.	0.	-1368.9
15722	17.759	5.0909	5.e-002	-4.4435
15723	18.034	5.0909	0.	-1304.8
15724	17.942	5.	0.	-1325.7
15725	17.942	5.0909	5.e-002	-4.4224
15726	18.218	5.0909	0.	-1261.8
15727	18.126	5.	0.	-1282.6
15728	18.126	5.0909	5.e-002	-4.4014
15729	18.401	5.0909	0.	-1219.
15730	18.309	5.	0.	-1239.7
15731	18.309	5.0909	5.e-002	-4.3808
15732	18.585	5.0909	0.	-1176.4
15733	18.493	5.	0.	-1197.
15734	18.493	5.0909	5.e-002	-4.3607
15735	18.768	5.0909	0.	-1133.9
15736	18.677	5.	0.	-1154.5
15737	18.677	5.0909	5.e-002	-4.341
15738	18.952	5.0909	0.	-1091.7
15739	18.86	5.	0.	-1112.2
15740	18.86	5.0909	5.e-002	-4.3218
15741	19.135	5.0909	0.	-1049.6
15742	19.044	5.	0.	-1070.
15743	19.044	5.0909	5.e-002	-4.3032
15744	19.319	5.0909	0.	-1007.7
15745	19.227	5.	0.	-1028.1
15746	19.227	5.0909	5.e-002	-4.2852
15747	19.503	5.0909	0.	-966.02
15748	19.411	5.	0.	-986.33
15749	19.411	5.0909	5.e-002	-4.268
15750	19.686	5.0909	0.	-924.5
15751	19.594	5.	0.	-944.75
15752	19.594	5.0909	5.e-002	-4.2513
15753	19.87	5.0909	0.	-883.15
15754	19.778	5.	0.	-903.35
15755	19.778	5.0909	5.e-002	-4.2355
15756	20.053	5.0909	0.	-841.97
15757	19.962	5.	0.	-862.12
15758	19.962	5.0909	5.e-002	-4.2203
15759	20.237	5.0909	0.	-800.97
15760	20.145	5.	0.	-821.07
15761	20.145	5.0909	5.e-002	-4.206
15762	20.42	5.0909	0.	-760.14
15763	20.329	5.	0.	-780.2
15764	20.329	5.0909	5.e-002	-4.1925
15765	20.604	5.0909	0.	-719.48
15766	20.512	5.	0.	-739.5
15767	20.512	5.0909	5.e-002	-4.1798
15768	20.788	5.0909	0.	-678.99
15769	20.696	5.	0.	-698.97
15770	20.696	5.0909	5.e-002	-4.1682
15771	20.971	5.0909	0.	-638.66
15772	20.879	5.	0.	-658.61
15773	20.879	5.0909	5.e-002	-4.1575
15774	21.155	5.0909	0.	-598.5
15775	21.063	5.	0.	-618.42
15776	21.063	5.0909	5.e-002	-4.1479
15777	21.338	5.0909	0.	-558.51
15778	21.246	5.	0.	-578.4
15779	21.246	5.0909	5.e-002	-4.1394
15780	21.522	5.0909	0.	-518.68
15781	21.43	5.	0.	-538.55
15782	21.43	5.0909	5.e-002	-4.1322
15783	21.705	5.0909	0.	-479.03
15784	21.614	5.	0.	-498.87
15785	21.614	5.0909	5.e-002	-4.1264
15786	21.889	5.0909	0.	-439.55
15787	21.797	5.	0.	-459.37
15788	21.797	5.0909	5.e-002	-4.1222
15789	22.073	5.0909	0.	-400.26
15790	21.981	5.	0.	-420.06
15791	21.981	5.0909	5.e-002	-4.1198
15792	22.256	5.0909	0.	-361.16
15793	22.164	5.	0.	-380.94
15794	22.164	5.0909	5.e-002	-4.1196
15795	22.44	5.0909	0.	-322.29
15796	22.348	5.	0.	-342.02
15797	22.348	5.0909	5.e-002	-4.122
15798	22.623	5.0909	0.	-283.64
15799	22.531	5.	0.	-303.33
15800	22.531	5.0909	5.e-002	-4.1277
15801	22.807	5.0909	0.	-245.27
15802	22.715	5.	0.	-264.88
15803	22.715	5.0909	5.e-002	-4.138
15804	22.99	5.0909	0.	-207.19
15805	22.899	5.	0.	-226.7
15806	22.899	5.0909	5.e-002	-4.1543
15807	23.174	5.0909	0.	-169.43
15808	23.082	5.	0.	-188.79
15809	23.082	5.0909	5.e-002	-4.1794
15810	23.358	5.0909	0.	-131.98
15811	23.266	5.	0.	-151.17
15812	23.266	5.0909	5.e-002	-4.2171
15813	23.541	5.0909	0.	-94.804
15814	23.449	5.	0.	-113.79
15815	23.449	5.0909	5.e-002	-4.2727
15816	23.725	5.0909	0.	-57.864
15817	23.633	5.	0.	-76.561
15818	23.633	5.0909	5.e-002	-4.3576
15819	23.816	5.	0.	-39.569
15820	23.816	5.0909	5.e-002	-4.5672
15821	23.908	5.0909	0.	-22.332
15822	11.242	4.9091	0.	-1941.6
15823	11.15	4.8182	0.	-2158.8
15824	11.15	4.9091	5.e-002	-68.081
15825	11.058	4.9091	0.	-1574.8
15826	11.426	4.9091	0.	-2030.8
15827	11.334	4.8182	0.	-2190.8
15828	11.334	4.9091	5.e-002	-44.248
15829	11.609	4.9091	0.	-2147.
15830	11.517	4.8182	0.	-2283.9
15831	11.517	4.9091	5.e-002	-34.871
15832	11.793	4.9091	0.	-2245.4
15833	11.701	4.8182	0.	-2358.6
15834	11.701	4.9091	5.e-002	-26.743
15835	11.976	4.9091	0.	-2322.2
15836	11.885	4.8182	0.	-2414.6
15837	11.885	4.9091	5.e-002	-20.425
15838	12.16	4.9091	0.	-2377.7
15839	12.068	4.8182	0.	-2453.7
15840	12.068	4.9091	5.e-002	-15.732
15841	12.343	4.9091	0.	-2414.2
15842	12.252	4.8182	0.	-2477.6
15843	12.252	4.9091	5.e-002	-12.264
15844	12.527	4.9091	0.	-2434.3
15845	12.435	4.8182	0.	-2488.3
15846	12.435	4.9091	5.e-002	-9.6956
15847	12.711	4.9091	0.	-2440.7
15848	12.619	4.8182	0.	-2487.5
15849	12.619	4.9091	5.e-002	-7.8053
15850	12.894	4.9091	0.	-2435.8
15851	12.802	4.8182	0.	-2477.1
15852	12.802	4.9091	5.e-002	-6.4483
15853	13.078	4.9091	0.	-2421.8
15854	12.986	4.8182	0.	-2458.9
15855	12.986	4.9091	5.e-002	-5.5217
15856	13.261	4.9091	0.	-2400.4
15857	13.169	4.8182	0.	-2434.3
15858	13.169	4.9091	5.e-002	-4.9381
15859	13.445	4.9091	0.	-2373.3
15860	13.353	4.8182	0.	-2404.6
15861	13.353	4.9091	5.e-002	-4.612
15862	13.628	4.9091	0.	-2341.6
15863	13.537	4.8182	0.	-2371.
15864	13.537	4.9091	5.e-002	-4.4621
15865	13.812	4.9091	0.	-2306.4
15866	13.72	4.8182	0.	-2334.2
15867	13.72	4.9091	5.e-002	-4.4202
15868	13.996	4.9091	0.	-2268.5
15869	13.904	4.8182	0.	-2295.
15870	13.904	4.9091	5.e-002	-4.4365
15871	14.179	4.9091	0.	-2228.5
15872	14.087	4.8182	0.	-2254.
15873	14.087	4.9091	5.e-002	-4.4789
15874	14.363	4.9091	0.	-2187.
15875	14.271	4.8182	0.	-2211.7
15876	14.271	4.9091	5.e-002	-4.5286
15877	14.546	4.9091	0.	-2144.4
15878	14.454	4.8182	0.	-2168.4
15879	14.454	4.9091	5.e-002	-4.5754
15880	14.73	4.9091	0.	-2100.8
15881	14.638	4.8182	0.	-2124.4
15882	14.638	4.9091	5.e-002	-4.6145
15883	14.913	4.9091	0.	-2056.8
15884	14.822	4.8182	0.	-2079.9
15885	14.822	4.9091	5.e-002	-4.6443
15886	15.097	4.9091	0.	-2012.3
15887	15.005	4.8182	0.	-2035.
15888	15.005	4.9091	5.e-002	-4.6647
15889	15.281	4.9091	0.	-1967.5
15890	15.189	4.8182	0.	-1990.
15891	15.189	4.9091	5.e-002	-4.6763
15892	15.464	4.9091	0.	-1922.6
15893	15.372	4.8182	0.	-1944.9
15894	15.372	4.9091	5.e-002	-4.6804
15895	15.648	4.9091	0.	-1877.6
15896	15.556	4.8182	0.	-1899.7
15897	15.556	4.9091	5.e-002	-4.678
15898	15.831	4.9091	0.	-1832.7
15899	15.739	4.8182	0.	-1854.6
15900	15.739	4.9091	5.e-002	-4.6704
15901	16.015	4.9091	0.	-1787.8
15902	15.923	4.8182	0.	-1809.6
15903	15.923	4.9091	5.e-002	-4.6586
15904	16.198	4.9091	0.	-1743.
15905	16.107	4.8182	0.	-1764.6
15906	16.107	4.9091	5.e-002	-4.6435
15907	16.382	4.9091	0.	-1698.3
15908	16.29	4.8182	0.	-1719.8
15909	16.29	4.9091	5.e-002	-4.6259
15910	16.565	4.9091	0.	-1653.7
15911	16.474	4.8182	0.	-1675.2
15912	16.474	4.9091	5.e-002	-4.6065
15913	16.749	4.9091	0.	-1609.3
15914	16.657	4.8182	0.	-1630.7
15915	16.657	4.9091	5.e-002	-4.5856
15916	16.933	4.9091	0.	-1565.1
15917	16.841	4.8182	0.	-1586.4
15918	16.841	4.9091	5.e-002	-4.5639
15919	17.116	4.9091	0.	-1521.
15920	17.024	4.8182	0.	-1542.2
15921	17.024	4.9091	5.e-002	-4.5416
15922	17.3	4.9091	0.	-1477.1
15923	17.208	4.8182	0.	-1498.3
15924	17.208	4.9091	5.e-002	-4.5191
15925	17.483	4.9091	0.	-1433.4
15926	17.392	4.8182	0.	-1454.5
15927	17.392	4.9091	5.e-002	-4.4964
15928	17.667	4.9091	0.	-1389.9
15929	17.575	4.8182	0.	-1410.9
15930	17.575	4.9091	5.e-002	-4.4738
15931	17.85	4.9091	0.	-1346.6
15932	17.759	4.8182	0.	-1367.5
15933	17.759	4.9091	5.e-002	-4.4515
15934	18.034	4.9091	0.	-1303.4
15935	17.942	4.8182	0.	-1324.3
15936	17.942	4.9091	5.e-002	-4.4295
15937	18.218	4.9091	0.	-1260.5
15938	18.126	4.8182	0.	-1281.3
15939	18.126	4.9091	5.e-002	-4.4079
15940	18.401	4.9091	0.	-1217.7
15941	18.309	4.8182	0.	-1238.5
15942	18.309	4.9091	5.e-002	-4.3868
15943	18.585	4.9091	0.	-1175.2
15944	18.493	4.8182	0.	-1195.8
15945	18.493	4.9091	5.e-002	-4.3662
15946	18.768	4.9091	0.	-1132.8
15947	18.677	4.8182	0.	-1153.4
15948	18.677	4.9091	5.e-002	-4.3462
15949	18.952	4.9091	0.	-1090.6
15950	18.86	4.8182	0.	-1111.1
15951	18.86	4.9091	5.e-002	-4.3268
15952	19.135	4.9091	0.	-1048.6
15953	19.044	4.8182	0.	-1069.
15954	19.044	4.9091	5.e-002	-4.3081
15955	19.319	4.9091	0.	-1006.7
15956	19.227	4.8182	0.	-1027.1
15957	19.227	4.9091	5.e-002	-4.29
15958	19.503	4.9091	0.	-965.1
15959	19.411	4.8182	0.	-985.45
15960	19.411	4.9091	5.e-002	-4.2727
15961	19.686	4.9091	0.	-923.64
15962	19.594	4.8182	0.	-943.93
15963	19.594	4.9091	5.e-002	-4.2561
15964	19.87	4.9091	0.	-882.36
15965	19.778	4.8182	0.	-902.6
15966	19.778	4.9091	5.e-002	-4.2402
15967	20.053	4.9091	0.	-841.26
15968	19.962	4.8182	0.	-861.45
15969	19.962	4.9091	5.e-002	-4.2252
15970	20.237	4.9091	0.	-800.34
15971	20.145	4.8182	0.	-820.48
15972	20.145	4.9091	5.e-002	-4.211
15973	20.42	4.9091	0.	-759.6
15974	20.329	4.8182	0.	-779.69
15975	20.329	4.9091	5.e-002	-4.1977
15976	20.604	4.9091	0.	-719.03
15977	20.512	4.8182	0.	-739.08
15978	20.512	4.9091	5.e-002	-4.1854
15979	20.788	4.9091	0.	-678.64
15980	20.696	4.8182	0.	-698.65
15981	20.696	4.9091	5.e-002	-4.1741
15982	20.971	4.9091	0.	-638.42
15983	20.879	4.8182	0.	-658.39
15984	20.879	4.9091	5.e-002	-4.1638
15985	21.155	4.9091	0.	-598.37
15986	21.063	4.8182	0.	-618.31
15987	21.063	4.9091	5.e-002	-4.1548
15988	21.338	4.9091	0.	-558.5
15989	21.246	4.8182	0.	-578.4
15990	21.246	4.9091	5.e-002	-4.147
15991	21.522	4.9091	0.	-518.8
15992	21.43	4.8182	0.	-538.68
15993	21.43	4.9091	5.e-002	-4.1406
15994	21.705	4.9091	0.	-479.28
15995	21.614	4.8182	0.	-499.13
15996	21.614	4.9091	5.e-002	-4.1358
15997	21.889	4.9091	0.	-439.95
15998	21.797	4.8182	0.	-459.77
15999	21.797	4.9091	5.e-002	-4.1328
16000	22.073	4.9091	0.	-400.8
16001	21.981	4.8182	0.	-420.59
16002	21.981	4.9091	5.e-002	-4.1319
16003	22.256	4.9091	0.	-361.86
16004	22.164	4.8182	0.	-381.61
16005	22.164	4.9091	5.e-002	-4.1334
16006	22.44	4.9091	0.	-323.13
16007	22.348	4.8182	0.	-342.84
16008	22.348	4.9091	5.e-002	-4.138
16009	22.623	4.9091	0.	-284.63
16010	22.531	4.8182	0.	-304.27
16011	22.531	4.9091	5.e-002	-4.1464
16012	22.807	4.9091	0.	-246.37
16013	22.715	4.8182	0.	-265.93
16014	22.715	4.9091	5.e-002	-4.1597
16015	22.99	4.9091	0.	-208.36
16016	22.899	4.8182	0.	-227.81
16017	22.899	4.9091	5.e-002	-4.1794
16018	23.174	4.9091	0.	-170.58
16019	23.082	4.8182	0.	-189.91
16020	23.082	4.9091	5.e-002	-4.2077
16021	23.358	4.9091	0.	-133.01
16022	23.266	4.8182	0.	-152.2
16023	23.266	4.9091	5.e-002	-4.2475
16024	23.541	4.9091	0.	-95.568
16025	23.449	4.8182	0.	-114.63
16026	23.449	4.9091	5.e-002	-4.3021
16027	23.725	4.9091	0.	-58.221
16028	23.633	4.8182	0.	-77.071
16029	23.633	4.9091	5.e-002	-4.3792
16030	23.816	4.8182	0.	-39.658
16031	23.816	4.9091	5.e-002	-4.5586
16032	23.908	4.9091	0.	-22.388
16033	11.242	4.7273	0.	-2373.4
16034	11.15	4.6364	0.	-2695.6
16035	11.15	4.7273	5.e-002	-85.92
16036	11.058	4.7273	0.	-1936.5
16037	11.426	4.7273	0.	-2420.1
16038	11.334	4.6364	0.	-2666.2
16039	11.334	4.7273	5.e-002	-50.789
16040	11.609	4.7273	0.	-2480.2
16041	11.517	4.6364	0.	-2687.3
16042	11.517	4.7273	5.e-002	-37.125
16043	11.793	4.7273	0.	-2518.5
16044	11.701	4.6364	0.	-2684.4
16045	11.701	4.7273	5.e-002	-26.701
16046	11.976	4.7273	0.	-2540.6
16047	11.885	4.6364	0.	-2672.8
16048	11.885	4.7273	5.e-002	-20.038
16049	12.16	4.7273	0.	-2550.4
16050	12.068	4.6364	0.	-2656.4
16051	12.068	4.7273	5.e-002	-15.585
16052	12.343	4.7273	0.	-2549.8
16053	12.252	4.6364	0.	-2636.1
16054	12.252	4.7273	5.e-002	-12.508
16055	12.527	4.7273	0.	-2540.4
16056	12.435	4.6364	0.	-2611.8
16057	12.435	4.7273	5.e-002	-10.292
16058	12.711	4.7273	0.	-2523.3
16059	12.619	4.6364	0.	-2583.5
16060	12.619	4.7273	5.e-002	-8.6633
16061	12.894	4.7273	0.	-2499.9
16062	12.802	4.6364	0.	-2551.6
16063	12.802	4.7273	5.e-002	-7.4679
16064	13.078	4.7273	0.	-2471.3
16065	12.986	4.6364	0.	-2516.4
16066	12.986	4.7273	5.e-002	-6.6038
16067	13.261	4.7273	0.	-2438.4
16068	13.169	4.6364	0.	-2478.5
16069	13.169	4.7273	5.e-002	-5.9953
16070	13.445	4.7273	0.	-2402.3
16071	13.353	4.6364	0.	-2438.4
16072	13.353	4.7273	5.e-002	-5.58
16073	13.628	4.7273	0.	-2363.5
16074	13.537	4.6364	0.	-2396.5
16075	13.537	4.7273	5.e-002	-5.3056
16076	13.812	4.7273	0.	-2322.8
16077	13.72	4.6364	0.	-2353.3
16078	13.72	4.7273	5.e-002	-5.1293
16079	13.996	4.7273	0.	-2280.5
16080	13.904	4.6364	0.	-2309.2
16081	13.904	4.7273	5.e-002	-5.0185
16082	14.179	4.7273	0.	-2237.2
16083	14.087	4.6364	0.	-2264.4
16084	14.087	4.7273	5.e-002	-4.9491
16085	14.363	4.7273	0.	-2193.1
16086	14.271	4.6364	0.	-2219.1
16087	14.271	4.7273	5.e-002	-4.9048
16088	14.546	4.7273	0.	-2148.4
16089	14.454	4.6364	0.	-2173.5
16090	14.454	4.7273	5.e-002	-4.8747
16091	14.73	4.7273	0.	-2103.4
16092	14.638	4.6364	0.	-2127.7
16093	14.638	4.7273	5.e-002	-4.8519
16094	14.913	4.7273	0.	-2058.1
16095	14.822	4.6364	0.	-2081.8
16096	14.822	4.7273	5.e-002	-4.8323
16097	15.097	4.7273	0.	-2012.8
16098	15.005	4.6364	0.	-2036.
16099	15.005	4.7273	5.e-002	-4.8135
16100	15.281	4.7273	0.	-1967.4
16101	15.189	4.6364	0.	-1990.2
16102	15.189	4.7273	5.e-002	-4.7943
16103	15.464	4.7273	0.	-1922.
16104	15.372	4.6364	0.	-1944.5
16105	15.372	4.7273	5.e-002	-4.774
16106	15.648	4.7273	0.	-1876.7
16107	15.556	4.6364	0.	-1899.
16108	15.556	4.7273	5.e-002	-4.7525
16109	15.831	4.7273	0.	-1831.5
16110	15.739	4.6364	0.	-1853.6
16111	15.739	4.7273	5.e-002	-4.7299
16112	16.015	4.7273	0.	-1786.4
16113	15.923	4.6364	0.	-1808.4
16114	15.923	4.7273	5.e-002	-4.7062
16115	16.198	4.7273	0.	-1741.5
16116	16.107	4.6364	0.	-1763.3
16117	16.107	4.7273	5.e-002	-4.6818
16118	16.382	4.7273	0.	-1696.8
16119	16.29	4.6364	0.	-1718.4
16120	16.29	4.7273	5.e-002	-4.6569
16121	16.565	4.7273	0.	-1652.2
16122	16.474	4.6364	0.	-1673.7
16123	16.474	4.7273	5.e-002	-4.6317
16124	16.749	4.7273	0.	-1607.8
16125	16.657	4.6364	0.	-1629.2
16126	16.657	4.7273	5.e-002	-4.6063
16127	16.933	4.7273	0.	-1563.5
16128	16.841	4.6364	0.	-1584.9
16129	16.841	4.7273	5.e-002	-4.581
16130	17.116	4.7273	0.	-1519.5
16131	17.024	4.6364	0.	-1540.8
16132	17.024	4.7273	5.e-002	-4.5559
16133	17.3	4.7273	0.	-1475.7
16134	17.208	4.6364	0.	-1496.9
16135	17.208	4.7273	5.e-002	-4.5311
16136	17.483	4.7273	0.	-1432.
16137	17.392	4.6364	0.	-1453.1
16138	17.392	4.7273	5.e-002	-4.5067
16139	17.667	4.7273	0.	-1388.5
16140	17.575	4.6364	0.	-1409.6
16141	17.575	4.7273	5.e-002	-4.4827
16142	17.85	4.7273	0.	-1345.3
16143	17.759	4.6364	0.	-1366.2
16144	17.759	4.7273	5.e-002	-4.4592
16145	18.034	4.7273	0.	-1302.2
16146	17.942	4.6364	0.	-1323.1
16147	17.942	4.7273	5.e-002	-4.4364
16148	18.218	4.7273	0.	-1259.3
16149	18.126	4.6364	0.	-1280.1
16150	18.126	4.7273	5.e-002	-4.4141
16151	18.401	4.7273	0.	-1216.6
16152	18.309	4.6364	0.	-1237.3
16153	18.309	4.7273	5.e-002	-4.3925
16154	18.585	4.7273	0.	-1174.1
16155	18.493	4.6364	0.	-1194.8
16156	18.493	4.7273	5.e-002	-4.3715
16157	18.768	4.7273	0.	-1131.7
16158	18.677	4.6364	0.	-1152.4
16159	18.677	4.7273	5.e-002	-4.3511
16160	18.952	4.7273	0.	-1089.6
16161	18.86	4.6364	0.	-1110.2
16162	18.86	4.7273	5.e-002	-4.3315
16163	19.135	4.7273	0.	-1047.7
16164	19.044	4.6364	0.	-1068.2
16165	19.044	4.7273	5.e-002	-4.3126
16166	19.319	4.7273	0.	-1005.9
16167	19.227	4.6364	0.	-1026.3
16168	19.227	4.7273	5.e-002	-4.2944
16169	19.503	4.7273	0.	-964.32
16170	19.411	4.6364	0.	-984.7
16171	19.411	4.7273	5.e-002	-4.277
16172	19.686	4.7273	0.	-922.93
16173	19.594	4.6364	0.	-943.26
16174	19.594	4.7273	5.e-002	-4.2604
16175	19.87	4.7273	0.	-881.73
16176	19.778	4.6364	0.	-902.
16177	19.778	4.7273	5.e-002	-4.2446
16178	20.053	4.7273	0.	-840.71
16179	19.962	4.6364	0.	-860.92
16180	19.962	4.7273	5.e-002	-4.2297
16181	20.237	4.7273	0.	-799.87
16182	20.145	4.6364	0.	-820.03
16183	20.145	4.7273	5.e-002	-4.2157
16184	20.42	4.7273	0.	-759.22
16185	20.329	4.6364	0.	-779.33
16186	20.329	4.7273	5.e-002	-4.2026
16187	20.604	4.7273	0.	-718.74
16188	20.512	4.6364	0.	-738.81
16189	20.512	4.7273	5.e-002	-4.1905
16190	20.788	4.7273	0.	-678.44
16191	20.696	4.6364	0.	-698.47
16192	20.696	4.7273	5.e-002	-4.1796
16193	20.971	4.7273	0.	-638.33
16194	20.879	4.6364	0.	-658.31
16195	20.879	4.7273	5.e-002	-4.1698
16196	21.155	4.7273	0.	-598.39
16197	21.063	4.6364	0.	-618.33
16198	21.063	4.7273	5.e-002	-4.1612
16199	21.338	4.7273	0.	-558.64
16200	21.246	4.6364	0.	-578.54
16201	21.246	4.7273	5.e-002	-4.1541
16202	21.522	4.7273	0.	-519.06
16203	21.43	4.6364	0.	-538.93
16204	21.43	4.7273	5.e-002	-4.1485
16205	21.705	4.7273	0.	-479.67
16206	21.614	4.6364	0.	-499.5
16207	21.614	4.7273	5.e-002	-4.1447
16208	21.889	4.7273	0.	-440.47
16209	21.797	4.6364	0.	-460.26
16210	21.797	4.7273	5.e-002	-4.1429
16211	22.073	4.7273	0.	-401.45
16212	21.981	4.6364	0.	-421.21
16213	21.981	4.7273	5.e-002	-4.1434
16214	22.256	4.7273	0.	-362.64
16215	22.164	4.6364	0.	-382.34
16216	22.164	4.7273	5.e-002	-4.1466
16217	22.44	4.7273	0.	-324.02
16218	22.348	4.6364	0.	-343.67
16219	22.348	4.7273	5.e-002	-4.1531
16220	22.623	4.7273	0.	-285.62
16221	22.531	4.6364	0.	-305.2
16222	22.531	4.7273	5.e-002	-4.1637
16223	22.807	4.7273	0.	-247.41
16224	22.715	4.6364	0.	-266.92
16225	22.715	4.7273	5.e-002	-4.1794
16226	22.99	4.7273	0.	-209.4
16227	22.899	4.6364	0.	-228.81
16228	22.899	4.7273	5.e-002	-4.2015
16229	23.174	4.7273	0.	-171.56
16230	23.082	4.6364	0.	-190.87
16231	23.082	4.7273	5.e-002	-4.2317
16232	23.358	4.7273	0.	-133.84
16233	23.266	4.6364	0.	-153.04
16234	23.266	4.7273	5.e-002	-4.2721
16235	23.541	4.7273	0.	-96.136
16236	23.449	4.6364	0.	-115.26
16237	23.449	4.7273	5.e-002	-4.3247
16238	23.725	4.7273	0.	-58.453
16239	23.633	4.6364	0.	-77.431
16240	23.633	4.7273	5.e-002	-4.3947
16241	23.816	4.6364	0.	-39.687
16242	23.816	4.7273	5.e-002	-4.5482
16243	23.908	4.7273	0.	-22.401
16244	11.242	4.5455	0.	-2944.7
16245	11.15	4.4545	0.	-3455.9
16246	11.15	4.5455	5.e-002	-108.98
16247	11.058	4.5455	0.	-2425.6
16248	11.426	4.5455	0.	-2907.5
16249	11.334	4.4545	0.	-3286.1
16250	11.334	4.5455	5.e-002	-63.233
16251	11.609	4.5455	0.	-2876.5
16252	11.517	4.4545	0.	-3168.3
16253	11.517	4.5455	5.e-002	-37.92
16254	11.793	4.5455	0.	-2829.8
16255	11.701	4.4545	0.	-3052.8
16256	11.701	4.5455	5.e-002	-26.846
16257	11.976	4.5455	0.	-2783.3
16258	11.885	4.4545	0.	-2955.5
16259	11.885	4.5455	5.e-002	-20.31
16260	12.16	4.5455	0.	-2738.9
16261	12.068	4.4545	0.	-2874.2
16262	12.068	4.5455	5.e-002	-16.333
16263	12.343	4.5455	0.	-2696.2
16264	12.252	4.4545	0.	-2804.3
16265	12.252	4.5455	5.e-002	-13.54
16266	12.527	4.5455	0.	-2653.9
16267	12.435	4.4545	0.	-2741.9
16268	12.435	4.5455	5.e-002	-11.484
16269	12.711	4.5455	0.	-2611.2
16270	12.619	4.4545	0.	-2684.1
16271	12.619	4.5455	5.e-002	-9.9158
16272	12.894	4.5455	0.	-2567.8
16273	12.802	4.4545	0.	-2629.2
16274	12.802	4.5455	5.e-002	-8.7087
16275	13.078	4.5455	0.	-2523.5
16276	12.986	4.4545	0.	-2576.1
16277	12.986	4.5455	5.e-002	-7.7787
16278	13.261	4.5455	0.	-2478.4
16279	13.169	4.4545	0.	-2524.2
16280	13.169	4.5455	5.e-002	-7.066
16281	13.445	4.5455	0.	-2432.6
16282	13.353	4.4545	0.	-2473.2
16283	13.353	4.5455	5.e-002	-6.5242
16284	13.628	4.5455	0.	-2386.4
16285	13.537	4.4545	0.	-2422.8
16286	13.537	4.5455	5.e-002	-6.1156
16287	13.812	4.5455	0.	-2339.8
16288	13.72	4.4545	0.	-2373.
16289	13.72	4.5455	5.e-002	-5.8089
16290	13.996	4.5455	0.	-2293.1
16291	13.904	4.4545	0.	-2323.8
16292	13.904	4.5455	5.e-002	-5.5789
16293	14.179	4.5455	0.	-2246.2
16294	14.087	4.4545	0.	-2275.
16295	14.087	4.5455	5.e-002	-5.4054
16296	14.363	4.5455	0.	-2199.4
16297	14.271	4.4545	0.	-2226.6
16298	14.271	4.5455	5.e-002	-5.2729
16299	14.546	4.5455	0.	-2152.7
16300	14.454	4.4545	0.	-2178.7
16301	14.454	4.5455	5.e-002	-5.1698
16302	14.73	4.5455	0.	-2106.1
16303	14.638	4.4545	0.	-2131.1
16304	14.638	4.5455	5.e-002	-5.0876
16305	14.913	4.5455	0.	-2059.7
16306	14.822	4.4545	0.	-2083.9
16307	14.822	4.5455	5.e-002	-5.02
16308	15.097	4.5455	0.	-2013.5
16309	15.005	4.4545	0.	-2037.1
16310	15.005	4.5455	5.e-002	-4.9628
16311	15.281	4.5455	0.	-1967.4
16312	15.189	4.4545	0.	-1990.6
16313	15.189	4.5455	5.e-002	-4.913
16314	15.464	4.5455	0.	-1921.6
16315	15.372	4.4545	0.	-1944.4
16316	15.372	4.5455	5.e-002	-4.8685
16317	15.648	4.5455	0.	-1875.9
16318	15.556	4.4545	0.	-1898.4
16319	15.556	4.5455	5.e-002	-4.8279
16320	15.831	4.5455	0.	-1830.5
16321	15.739	4.4545	0.	-1852.7
16322	15.739	4.5455	5.e-002	-4.79
16323	16.015	4.5455	0.	-1785.2
16324	15.923	4.4545	0.	-1807.3
16325	15.923	4.5455	5.e-002	-4.7544
16326	16.198	4.5455	0.	-1740.2
16327	16.107	4.4545	0.	-1762.1
16328	16.107	4.5455	5.e-002	-4.7206
16329	16.382	4.5455	0.	-1695.4
16330	16.29	4.4545	0.	-1717.1
16331	16.29	4.5455	5.e-002	-4.6882
16332	16.565	4.5455	0.	-1650.8
16333	16.474	4.4545	0.	-1672.4
16334	16.474	4.5455	5.e-002	-4.6571
16335	16.749	4.5455	0.	-1606.4
16336	16.657	4.4545	0.	-1627.9
16337	16.657	4.5455	5.e-002	-4.6271
16338	16.933	4.5455	0.	-1562.2
16339	16.841	4.4545	0.	-1583.6
16340	16.841	4.5455	5.e-002	-4.5981
16341	17.116	4.5455	0.	-1518.2
16342	17.024	4.4545	0.	-1539.5
16343	17.024	4.5455	5.e-002	-4.5701
16344	17.3	4.5455	0.	-1474.3
16345	17.208	4.4545	0.	-1495.6
16346	17.208	4.5455	5.e-002	-4.543
16347	17.483	4.5455	0.	-1430.7
16348	17.392	4.4545	0.	-1451.9
16349	17.392	4.5455	5.e-002	-4.5168
16350	17.667	4.5455	0.	-1387.3
16351	17.575	4.4545	0.	-1408.4
16352	17.575	4.5455	5.e-002	-4.4914
16353	17.85	4.5455	0.	-1344.1
16354	17.759	4.4545	0.	-1365.1
16355	17.759	4.5455	5.e-002	-4.4668
16356	18.034	4.5455	0.	-1301.
16357	17.942	4.4545	0.	-1322.
16358	17.942	4.5455	5.e-002	-4.443
16359	18.218	4.5455	0.	-1258.2
16360	18.126	4.4545	0.	-1279.1
16361	18.126	4.5455	5.e-002	-4.42
16362	18.401	4.5455	0.	-1215.6
16363	18.309	4.4545	0.	-1236.4
16364	18.309	4.5455	5.e-002	-4.3979
16365	18.585	4.5455	0.	-1173.1
16366	18.493	4.4545	0.	-1193.8
16367	18.493	4.5455	5.e-002	-4.3764
16368	18.768	4.5455	0.	-1130.8
16369	18.677	4.4545	0.	-1151.5
16370	18.677	4.5455	5.e-002	-4.3558
16371	18.952	4.5455	0.	-1088.8
16372	18.86	4.4545	0.	-1109.4
16373	18.86	4.5455	5.e-002	-4.3359
16374	19.135	4.5455	0.	-1046.9
16375	19.044	4.4545	0.	-1067.4
16376	19.044	4.5455	5.e-002	-4.3168
16377	19.319	4.5455	0.	-1005.2
16378	19.227	4.4545	0.	-1025.7
16379	19.227	4.5455	5.e-002	-4.2985
16380	19.503	4.5455	0.	-963.67
16381	19.411	4.4545	0.	-984.08
16382	19.411	4.5455	5.e-002	-4.2811
16383	19.686	4.5455	0.	-922.36
16384	19.594	4.4545	0.	-942.7
16385	19.594	4.5455	5.e-002	-4.2645
16386	19.87	4.5455	0.	-881.23
16387	19.778	4.4545	0.	-901.51
16388	19.778	4.5455	5.e-002	-4.2487
16389	20.053	4.5455	0.	-840.28
16390	19.962	4.4545	0.	-860.51
16391	19.962	4.5455	5.e-002	-4.2339
16392	20.237	4.5455	0.	-799.53
16393	20.145	4.4545	0.	-819.7
16394	20.145	4.5455	5.e-002	-4.22
16395	20.42	4.5455	0.	-758.96
16396	20.329	4.4545	0.	-779.07
16397	20.329	4.5455	5.e-002	-4.2071
16398	20.604	4.5455	0.	-718.57
16399	20.512	4.4545	0.	-738.64
16400	20.512	4.5455	5.e-002	-4.1953
16401	20.788	4.5455	0.	-678.37
16402	20.696	4.4545	0.	-698.39
16403	20.696	4.5455	5.e-002	-4.1847
16404	20.971	4.5455	0.	-638.35
16405	20.879	4.4545	0.	-658.32
16406	20.879	4.5455	5.e-002	-4.1753
16407	21.155	4.5455	0.	-598.52
16408	21.063	4.4545	0.	-618.45
16409	21.063	4.5455	5.e-002	-4.1673
16410	21.338	4.5455	0.	-558.87
16411	21.246	4.4545	0.	-578.76
16412	21.246	4.5455	5.e-002	-4.1608
16413	21.522	4.5455	0.	-519.41
16414	21.43	4.4545	0.	-539.25
16415	21.43	4.5455	5.e-002	-4.156
16416	21.705	4.5455	0.	-480.14
16417	21.614	4.4545	0.	-499.93
16418	21.614	4.5455	5.e-002	-4.1531
16419	21.889	4.5455	0.	-441.04
16420	21.797	4.4545	0.	-460.79
16421	21.797	4.5455	5.e-002	-4.1524
16422	22.073	4.5455	0.	-402.14
16423	21.981	4.4545	0.	-421.84
16424	21.981	4.5455	5.e-002	-4.1541
16425	22.256	4.5455	0.	-363.42
16426	22.164	4.4545	0.	-383.07
16427	22.164	4.5455	5.e-002	-4.1589
16428	22.44	4.5455	0.	-324.89
16429	22.348	4.4545	0.	-344.48
16430	22.348	4.5455	5.e-002	-4.1671
16431	22.623	4.5455	0.	-286.54
16432	22.531	4.4545	0.	-306.06
16433	22.531	4.5455	5.e-002	-4.1795
16434	22.807	4.5455	0.	-248.35
16435	22.715	4.4545	0.	-267.8
16436	22.715	4.5455	5.e-002	-4.197
16437	22.99	4.5455	0.	-210.31
16438	22.899	4.4545	0.	-229.68
16439	22.899	4.5455	5.e-002	-4.2208
16440	23.174	4.5455	0.	-172.37
16441	23.082	4.4545	0.	-191.67
16442	23.082	4.5455	5.e-002	-4.252
16443	23.358	4.5455	0.	-134.48
16444	23.266	4.4545	0.	-153.71
16445	23.266	4.5455	5.e-002	-4.2921
16446	23.541	4.5455	0.	-96.559
16447	23.449	4.4545	0.	-115.75
16448	23.449	4.5455	5.e-002	-4.3421
16449	23.725	4.5455	0.	-58.603
16450	23.633	4.4545	0.	-77.688
16451	23.633	4.5455	5.e-002	-4.4059
16452	23.816	4.4545	0.	-39.681
16453	23.816	4.5455	5.e-002	-4.5373
16454	23.908	4.5455	0.	-22.389
16455	11.242	4.3636	0.	-3733.8
16456	11.15	4.2727	0.	-4778.7
16457	11.15	4.3636	5.e-002	-165.18
16458	11.058	4.3636	0.	-3126.9
16459	11.426	4.3636	0.	-3524.1
16460	11.334	4.2727	0.	-4092.3
16461	11.334	4.3636	5.e-002	-64.932
16462	11.609	4.3636	0.	-3331.9
16463	11.517	4.2727	0.	-3716.4
16464	11.517	4.3636	5.e-002	-39.665
16465	11.793	4.3636	0.	-3170.9
16466	11.701	4.2727	0.	-3450.
16467	11.701	4.3636	5.e-002	-28.795
16468	11.976	4.3636	0.	-3041.8
16469	11.885	4.2727	0.	-3251.8
16470	11.885	4.3636	5.e-002	-22.295
16471	12.16	4.3636	0.	-2936.8
16472	12.068	4.2727	0.	-3099.1
16473	12.068	4.3636	5.e-002	-18.316
16474	12.343	4.3636	0.	-2848.4
16475	12.252	4.2727	0.	-2976.5
16476	12.252	4.3636	5.e-002	-15.39
16477	12.527	4.3636	0.	-2771.2
16478	12.435	4.2727	0.	-2874.3
16479	12.435	4.3636	5.e-002	-13.172
16480	12.711	4.3636	0.	-2701.6
16481	12.619	4.2727	0.	-2786.
16482	12.619	4.3636	5.e-002	-11.443
16483	12.894	4.3636	0.	-2637.2
16484	12.802	4.2727	0.	-2707.5
16485	12.802	4.3636	5.e-002	-10.075
16486	13.078	4.3636	0.	-2576.7
16487	12.986	4.2727	0.	-2636.1
16488	12.986	4.3636	5.e-002	-8.986
16489	13.261	4.3636	0.	-2518.9
16490	13.169	4.2727	0.	-2569.9
16491	13.169	4.3636	5.e-002	-8.1173
16492	13.445	4.3636	0.	-2463.3
16493	13.353	4.2727	0.	-2507.9
16494	13.353	4.3636	5.e-002	-7.4261
16495	13.628	4.3636	0.	-2409.5
16496	13.537	4.2727	0.	-2448.9
16497	13.537	4.3636	5.e-002	-6.8781
16498	13.812	4.3636	0.	-2357.
16499	13.72	4.2727	0.	-2392.5
16500	13.72	4.3636	5.e-002	-6.4452
16501	13.996	4.3636	0.	-2305.7
16502	13.904	4.2727	0.	-2338.2
16503	13.904	4.3636	5.e-002	-6.1037
16504	14.179	4.3636	0.	-2255.3
16505	14.087	4.2727	0.	-2285.4
16506	14.087	4.3636	5.e-002	-5.8342
16507	14.363	4.3636	0.	-2205.9
16508	14.271	4.2727	0.	-2234.1
16509	14.271	4.3636	5.e-002	-5.6206
16510	14.546	4.3636	0.	-2157.1
16511	14.454	4.2727	0.	-2183.9
16512	14.454	4.3636	5.e-002	-5.4501
16513	14.73	4.3636	0.	-2109.
16514	14.638	4.2727	0.	-2134.6
16515	14.638	4.3636	5.e-002	-5.3126
16516	14.913	4.3636	0.	-2061.4
16517	14.822	4.2727	0.	-2086.1
16518	14.822	4.3636	5.e-002	-5.2001
16519	15.097	4.3636	0.	-2014.2
16520	15.005	4.2727	0.	-2038.3
16521	15.005	4.3636	5.e-002	-5.1067
16522	15.281	4.3636	0.	-1967.5
16523	15.189	4.2727	0.	-1991.
16524	15.189	4.3636	5.e-002	-5.0279
16525	15.464	4.3636	0.	-1921.2
16526	15.372	4.2727	0.	-1944.2
16527	15.372	4.3636	5.e-002	-4.9602
16528	15.648	4.3636	0.	-1875.2
16529	15.556	4.2727	0.	-1897.9
16530	15.556	4.3636	5.e-002	-4.9011
16531	15.831	4.3636	0.	-1829.6
16532	15.739	4.2727	0.	-1852.
16533	15.739	4.3636	5.e-002	-4.8487
16534	16.015	4.3636	0.	-1784.2
16535	15.923	4.2727	0.	-1806.4
16536	15.923	4.3636	5.e-002	-4.8014
16537	16.198	4.3636	0.	-1739.
16538	16.107	4.2727	0.	-1761.
16539	16.107	4.3636	5.e-002	-4.7584
16540	16.382	4.3636	0.	-1694.2
16541	16.29	4.2727	0.	-1716.
16542	16.29	4.3636	5.e-002	-4.7187
16543	16.565	4.3636	0.	-1649.5
16544	16.474	4.2727	0.	-1671.2
16545	16.474	4.3636	5.e-002	-4.6819
16546	16.749	4.3636	0.	-1605.1
16547	16.657	4.2727	0.	-1626.7
16548	16.657	4.3636	5.e-002	-4.6473
16549	16.933	4.3636	0.	-1560.9
16550	16.841	4.2727	0.	-1582.4
16551	16.841	4.3636	5.e-002	-4.6147
16552	17.116	4.3636	0.	-1516.9
16553	17.024	4.2727	0.	-1538.3
16554	17.024	4.3636	5.e-002	-4.5839
16555	17.3	4.3636	0.	-1473.2
16556	17.208	4.2727	0.	-1494.5
16557	17.208	4.3636	5.e-002	-4.5545
16558	17.483	4.3636	0.	-1429.6
16559	17.392	4.2727	0.	-1450.8
16560	17.392	4.3636	5.e-002	-4.5265
16561	17.667	4.3636	0.	-1386.2
16562	17.575	4.2727	0.	-1407.4
16563	17.575	4.3636	5.e-002	-4.4997
16564	17.85	4.3636	0.	-1343.
16565	17.759	4.2727	0.	-1364.1
16566	17.759	4.3636	5.e-002	-4.474
16567	18.034	4.3636	0.	-1300.1
16568	17.942	4.2727	0.	-1321.
16569	17.942	4.3636	5.e-002	-4.4493
16570	18.218	4.3636	0.	-1257.3
16571	18.126	4.2727	0.	-1278.2
16572	18.126	4.3636	5.e-002	-4.4256
16573	18.401	4.3636	0.	-1214.7
16574	18.309	4.2727	0.	-1235.5
16575	18.309	4.3636	5.e-002	-4.4029
16576	18.585	4.3636	0.	-1172.3
16577	18.493	4.2727	0.	-1193.
16578	18.493	4.3636	5.e-002	-4.3811
16579	18.768	4.3636	0.	-1130.1
16580	18.677	4.2727	0.	-1150.8
16581	18.677	4.3636	5.e-002	-4.3601
16582	18.952	4.3636	0.	-1088.
16583	18.86	4.2727	0.	-1108.7
16584	18.86	4.3636	5.e-002	-4.34
16585	19.135	4.3636	0.	-1046.2
16586	19.044	4.2727	0.	-1066.8
16587	19.044	4.3636	5.e-002	-4.3207
16588	19.319	4.3636	0.	-1004.6
16589	19.227	4.2727	0.	-1025.1
16590	19.227	4.3636	5.e-002	-4.3023
16591	19.503	4.3636	0.	-963.14
16592	19.411	4.2727	0.	-983.57
16593	19.411	4.3636	5.e-002	-4.2848
16594	19.686	4.3636	0.	-921.89
16595	19.594	4.2727	0.	-942.25
16596	19.594	4.3636	5.e-002	-4.2681
16597	19.87	4.3636	0.	-880.83
16598	19.778	4.2727	0.	-901.13
16599	19.778	4.3636	5.e-002	-4.2524
16600	20.053	4.3636	0.	-839.96
16601	19.962	4.2727	0.	-860.2
16602	19.962	4.3636	5.e-002	-4.2377
16603	20.237	4.3636	0.	-799.28
16604	20.145	4.2727	0.	-819.45
16605	20.145	4.3636	5.e-002	-4.2239
16606	20.42	4.3636	0.	-758.79
16607	20.329	4.2727	0.	-778.91
16608	20.329	4.3636	5.e-002	-4.2112
16609	20.604	4.3636	0.	-718.49
16610	20.512	4.2727	0.	-738.55
16611	20.512	4.3636	5.e-002	-4.1997
16612	20.788	4.3636	0.	-678.38
16613	20.696	4.2727	0.	-698.38
16614	20.696	4.3636	5.e-002	-4.1894
16615	20.971	4.3636	0.	-638.46
16616	20.879	4.2727	0.	-658.41
16617	20.879	4.3636	5.e-002	-4.1804
16618	21.155	4.3636	0.	-598.72
16619	21.063	4.2727	0.	-618.62
16620	21.063	4.3636	5.e-002	-4.1729
16621	21.338	4.3636	0.	-559.17
16622	21.246	4.2727	0.	-579.02
16623	21.246	4.3636	5.e-002	-4.167
16624	21.522	4.3636	0.	-519.81
16625	21.43	4.2727	0.	-539.61
16626	21.43	4.3636	5.e-002	-4.1629
16627	21.705	4.3636	0.	-480.63
16628	21.614	4.2727	0.	-500.38
16629	21.614	4.3636	5.e-002	-4.1609
16630	21.889	4.3636	0.	-441.63
16631	21.797	4.2727	0.	-461.33
16632	21.797	4.3636	5.e-002	-4.1611
16633	22.073	4.3636	0.	-402.81
16634	21.981	4.2727	0.	-422.46
16635	21.981	4.3636	5.e-002	-4.1641
16636	22.256	4.3636	0.	-364.17
16637	22.164	4.2727	0.	-383.76
16638	22.164	4.3636	5.e-002	-4.1701
16639	22.44	4.3636	0.	-325.69
16640	22.348	4.2727	0.	-345.22
16641	22.348	4.3636	5.e-002	-4.1797
16642	22.623	4.3636	0.	-287.36
16643	22.531	4.2727	0.	-306.84
16644	22.531	4.3636	5.e-002	-4.1936
16645	22.807	4.3636	0.	-249.17
16646	22.715	4.2727	0.	-268.58
16647	22.715	4.3636	5.e-002	-4.2124
16648	22.99	4.3636	0.	-211.07
16649	22.899	4.2727	0.	-230.42
16650	22.899	4.3636	5.e-002	-4.2372
16651	23.174	4.3636	0.	-173.03
16652	23.082	4.2727	0.	-192.33
16653	23.082	4.3636	5.e-002	-4.2688
16654	23.358	4.3636	0.	-134.99
16655	23.266	4.2727	0.	-154.25
16656	23.266	4.3636	5.e-002	-4.3081
16657	23.541	4.3636	0.	-96.876
16658	23.449	4.2727	0.	-116.12
16659	23.449	4.3636	5.e-002	-4.3557
16660	23.725	4.3636	0.	-58.699
16661	23.633	4.2727	0.	-77.871
16662	23.633	4.3636	5.e-002	-4.4142
16663	23.816	4.2727	0.	-39.655
16664	23.816	4.3636	5.e-002	-4.5266
16665	23.908	4.3636	0.	-22.365
16666	11.242	4.1818	0.	-5084.
16667	11.15	4.0909	0.	-6761.9
16668	11.15	4.1818	5.e-002	-296.15
16669	11.058	4.1818	0.	-4410.8
16670	11.426	4.1818	0.	-4268.7
16671	11.334	4.0909	0.	-4980.4
16672	11.334	4.1818	5.e-002	-99.08
16673	11.609	4.1818	0.	-3826.2
16674	11.517	4.0909	0.	-4292.7
16675	11.517	4.1818	5.e-002	-46.26
16676	11.793	4.1818	0.	-3525.3
16677	11.701	4.0909	0.	-3852.
16678	11.701	4.1818	5.e-002	-33.356
16679	11.976	4.1818	0.	-3305.5
16680	11.885	4.0909	0.	-3547.5
16681	11.885	4.1818	5.e-002	-26.186
16682	12.16	4.1818	0.	-3136.5
16683	12.068	4.0909	0.	-3321.9
16684	12.068	4.1818	5.e-002	-21.252
16685	12.343	4.1818	0.	-3001.
16686	12.252	4.0909	0.	-3146.3
16687	12.252	4.1818	5.e-002	-17.765
16688	12.527	4.1818	0.	-2888.3
16689	12.435	4.0909	0.	-3004.3
16690	12.435	4.1818	5.e-002	-15.141
16691	12.711	4.1818	0.	-2791.4
16692	12.619	4.0909	0.	-2885.6
16693	12.619	4.1818	5.e-002	-13.101
16694	12.894	4.1818	0.	-2706.
16695	12.802	4.0909	0.	-2783.8
16696	12.802	4.1818	5.e-002	-11.479
16697	13.078	4.1818	0.	-2629.2
16698	12.986	4.0909	0.	-2694.3
16699	12.986	4.1818	5.e-002	-10.174
16700	13.261	4.1818	0.	-2558.8
16701	13.169	4.0909	0.	-2614.2
16702	13.169	4.1818	5.e-002	-9.1202
16703	13.445	4.1818	0.	-2493.4
16704	13.353	4.0909	0.	-2541.3
16705	13.353	4.1818	5.e-002	-8.2681
16706	13.628	4.1818	0.	-2432.
16707	13.537	4.0909	0.	-2474.1
16708	13.537	4.1818	5.e-002	-7.5805
16709	13.812	4.1818	0.	-2373.7
16710	13.72	4.0909	0.	-2411.2
16711	13.72	4.1818	5.e-002	-7.027
16712	13.996	4.1818	0.	-2317.9
16713	13.904	4.0909	0.	-2351.9
16714	13.904	4.1818	5.e-002	-6.5824
16715	14.179	4.1818	0.	-2264.2
16716	14.087	4.0909	0.	-2295.5
16717	14.087	4.1818	5.e-002	-6.2255
16718	14.363	4.1818	0.	-2212.1
16719	14.271	4.0909	0.	-2241.2
16720	14.271	4.1818	5.e-002	-5.9387
16721	14.546	4.1818	0.	-2161.3
16722	14.454	4.0909	0.	-2188.8
16723	14.454	4.1818	5.e-002	-5.7074
16724	14.73	4.1818	0.	-2111.7
16725	14.638	4.0909	0.	-2137.9
16726	14.638	4.1818	5.e-002	-5.52
16727	14.913	4.1818	0.	-2063.
16728	14.822	4.0909	0.	-2088.1
16729	14.822	4.1818	5.e-002	-5.3669
16730	15.097	4.1818	0.	-2015.
16731	15.005	4.0909	0.	-2039.4
16732	15.005	4.1818	5.e-002	-5.2405
16733	15.281	4.1818	0.	-1967.7
16734	15.189	4.0909	0.	-1991.5
16735	15.189	4.1818	5.e-002	-5.1351
16736	15.464	4.1818	0.	-1921.
16737	15.372	4.0909	0.	-1944.2
16738	15.372	4.1818	5.e-002	-5.0461
16739	15.648	4.1818	0.	-1874.7
16740	15.556	4.0909	0.	-1897.5
16741	15.556	4.1818	5.e-002	-4.9699
16742	15.831	4.1818	0.	-1828.8
16743	15.739	4.0909	0.	-1851.3
16744	15.739	4.1818	5.e-002	-4.9038
16745	16.015	4.1818	0.	-1783.2
16746	15.923	4.0909	0.	-1805.5
16747	15.923	4.1818	5.e-002	-4.8457
16748	16.198	4.1818	0.	-1738.
16749	16.107	4.0909	0.	-1760.1
16750	16.107	4.1818	5.e-002	-4.794
16751	16.382	4.1818	0.	-1693.1
16752	16.29	4.0909	0.	-1715.
16753	16.29	4.1818	5.e-002	-4.7475
16754	16.565	4.1818	0.	-1648.4
16755	16.474	4.0909	0.	-1670.2
16756	16.474	4.1818	5.e-002	-4.7052
16757	16.749	4.1818	0.	-1604.
16758	16.657	4.0909	0.	-1625.7
16759	16.657	4.1818	5.e-002	-4.6664
16760	16.933	4.1818	0.	-1559.8
16761	16.841	4.0909	0.	-1581.4
16762	16.841	4.1818	5.e-002	-4.6304
16763	17.116	4.1818	0.	-1515.9
16764	17.024	4.0909	0.	-1537.3
16765	17.024	4.1818	5.e-002	-4.5968
16766	17.3	4.1818	0.	-1472.1
16767	17.208	4.0909	0.	-1493.5
16768	17.208	4.1818	5.e-002	-4.5653
16769	17.483	4.1818	0.	-1428.6
16770	17.392	4.0909	0.	-1449.9
16771	17.392	4.1818	5.e-002	-4.5356
16772	17.667	4.1818	0.	-1385.3
16773	17.575	4.0909	0.	-1406.5
16774	17.575	4.1818	5.e-002	-4.5074
16775	17.85	4.1818	0.	-1342.1
16776	17.759	4.0909	0.	-1363.2
16777	17.759	4.1818	5.e-002	-4.4806
16778	18.034	4.1818	0.	-1299.2
16779	17.942	4.0909	0.	-1320.2
16780	17.942	4.1818	5.e-002	-4.4551
16781	18.218	4.1818	0.	-1256.5
16782	18.126	4.0909	0.	-1277.4
16783	18.126	4.1818	5.e-002	-4.4308
16784	18.401	4.1818	0.	-1213.9
16785	18.309	4.0909	0.	-1234.8
16786	18.309	4.1818	5.e-002	-4.4075
16787	18.585	4.1818	0.	-1171.6
16788	18.493	4.0909	0.	-1192.4
16789	18.493	4.1818	5.e-002	-4.3853
16790	18.768	4.1818	0.	-1129.4
16791	18.677	4.0909	0.	-1150.1
16792	18.677	4.1818	5.e-002	-4.364
16793	18.952	4.1818	0.	-1087.4
16794	18.86	4.0909	0.	-1108.1
16795	18.86	4.1818	5.e-002	-4.3436
16796	19.135	4.1818	0.	-1045.7
16797	19.044	4.0909	0.	-1066.3
16798	19.044	4.1818	5.e-002	-4.3242
16799	19.319	4.1818	0.	-1004.1
16800	19.227	4.0909	0.	-1024.6
16801	19.227	4.1818	5.e-002	-4.3057
16802	19.503	4.1818	0.	-962.71
16803	19.411	4.0909	0.	-983.15
16804	19.411	4.1818	5.e-002	-4.2881
16805	19.686	4.1818	0.	-921.52
16806	19.594	4.0909	0.	-941.89
16807	19.594	4.1818	5.e-002	-4.2714
16808	19.87	4.1818	0.	-880.53
16809	19.778	4.0909	0.	-900.83
16810	19.778	4.1818	5.e-002	-4.2558
16811	20.053	4.1818	0.	-839.72
16812	19.962	4.0909	0.	-859.96
16813	19.962	4.1818	5.e-002	-4.2411
16814	20.237	4.1818	0.	-799.11
16815	20.145	4.0909	0.	-819.28
16816	20.145	4.1818	5.e-002	-4.2274
16817	20.42	4.1818	0.	-758.7
16818	20.329	4.0909	0.	-778.8
16819	20.329	4.1818	5.e-002	-4.2149
16820	20.604	4.1818	0.	-718.48
16821	20.512	4.0909	0.	-738.52
16822	20.512	4.1818	5.e-002	-4.2036
16823	20.788	4.1818	0.	-678.45
16824	20.696	4.0909	0.	-698.43
16825	20.696	4.1818	5.e-002	-4.1936
16826	20.971	4.1818	0.	-638.6
16827	20.879	4.0909	0.	-658.53
16828	20.879	4.1818	5.e-002	-4.185
16829	21.155	4.1818	0.	-598.95
16830	21.063	4.0909	0.	-618.82
16831	21.063	4.1818	5.e-002	-4.178
16832	21.338	4.1818	0.	-559.49
16833	21.246	4.0909	0.	-579.3
16834	21.246	4.1818	5.e-002	-4.1726
16835	21.522	4.1818	0.	-520.21
16836	21.43	4.0909	0.	-539.96
16837	21.43	4.1818	5.e-002	-4.1692
16838	21.705	4.1818	0.	-481.11
16839	21.614	4.0909	0.	-500.81
16840	21.614	4.1818	5.e-002	-4.1679
16841	21.889	4.1818	0.	-442.19
16842	21.797	4.0909	0.	-461.84
16843	21.797	4.1818	5.e-002	-4.1691
16844	22.073	4.1818	0.	-403.44
16845	21.981	4.0909	0.	-423.03
16846	21.981	4.1818	5.e-002	-4.173
16847	22.256	4.1818	0.	-364.85
16848	22.164	4.0909	0.	-384.38
16849	22.164	4.1818	5.e-002	-4.1801
16850	22.44	4.1818	0.	-326.4
16851	22.348	4.0909	0.	-345.88
16852	22.348	4.1818	5.e-002	-4.1909
16853	22.623	4.1818	0.	-288.08
16854	22.531	4.0909	0.	-307.51
16855	22.531	4.1818	5.e-002	-4.2059
16856	22.807	4.1818	0.	-249.86
16857	22.715	4.0909	0.	-269.23
16858	22.715	4.1818	5.e-002	-4.2257
16859	22.99	4.1818	0.	-211.7
16860	22.899	4.0909	0.	-231.03
16861	22.899	4.1818	5.e-002	-4.2511
16862	23.174	4.1818	0.	-173.56
16863	23.082	4.0909	0.	-192.86
16864	23.082	4.1818	5.e-002	-4.2827
16865	23.358	4.1818	0.	-135.39
16866	23.266	4.0909	0.	-154.67
16867	23.266	4.1818	5.e-002	-4.321
16868	23.541	4.1818	0.	-97.112
16869	23.449	4.0909	0.	-116.4
16870	23.449	4.1818	5.e-002	-4.3663
16871	23.725	4.1818	0.	-58.758
16872	23.633	4.0909	0.	-78.002
16873	23.633	4.1818	5.e-002	-4.4204
16874	23.816	4.0909	0.	-39.621
16875	23.816	4.1818	5.e-002	-4.5166
16876	23.908	4.1818	0.	-22.336
16877	11.242	4.	0.	-6674.2
16878	11.15	3.9091	0.	-8009.6
16879	11.15	4.	5.e-002	-526.91
16880	11.058	4.	0.	-11934
16881	11.426	4.	0.	-5002.5
16882	11.334	3.9091	0.	-5774.1
16883	11.334	4.	5.e-002	-92.691
16884	11.609	4.	0.	-4314.
16885	11.517	3.9091	0.	-4815.5
16886	11.517	4.	5.e-002	-60.025
16887	11.793	4.	0.	-3870.5
16888	11.701	3.9091	0.	-4225.8
16889	11.701	4.	5.e-002	-40.312
16890	11.976	4.	0.	-3561.3
16891	11.885	3.9091	0.	-3825.3
16892	11.885	4.	5.e-002	-30.7
16893	12.16	4.	0.	-3329.9
16894	12.068	3.9091	0.	-3532.
16895	12.068	4.	5.e-002	-24.55
16896	12.343	4.	0.	-3148.4
16897	12.252	3.9091	0.	-3306.7
16898	12.252	4.	5.e-002	-20.329
16899	12.527	4.	0.	-3001.
16900	12.435	3.9091	0.	-3127.
16901	12.435	4.	5.e-002	-17.195
16902	12.711	4.	0.	-2877.6
16903	12.619	3.9091	0.	-2979.5
16904	12.619	4.	5.e-002	-14.772
16905	12.894	4.	0.	-2771.8
16906	12.802	3.9091	0.	-2855.4
16907	12.802	4.	5.e-002	-12.85
16908	13.078	4.	0.	-2679.2
16909	12.986	3.9091	0.	-2748.8
16910	12.986	4.	5.e-002	-11.303
16911	13.261	4.	0.	-2596.7
16912	13.169	3.9091	0.	-2655.5
16913	13.169	4.	5.e-002	-10.051
16914	13.445	4.	0.	-2521.9
16915	13.353	3.9091	0.	-2572.4
16916	13.353	4.	5.e-002	-9.0353
16917	13.628	4.	0.	-2453.3
16918	13.537	3.9091	0.	-2497.3
16919	13.537	4.	5.e-002	-8.212
16920	13.812	4.	0.	-2389.5
16921	13.72	3.9091	0.	-2428.5
16922	13.72	4.	5.e-002	-7.5456
16923	13.996	4.	0.	-2329.5
16924	13.904	3.9091	0.	-2364.6
16925	13.904	4.	5.e-002	-7.0069
16926	14.179	4.	0.	-2272.5
16927	14.087	3.9091	0.	-2304.6
16928	14.087	4.	5.e-002	-6.5719
16929	14.363	4.	0.	-2217.9
16930	14.271	3.9091	0.	-2247.8
16931	14.271	4.	5.e-002	-6.2203
16932	14.546	4.	0.	-2165.3
16933	14.454	3.9091	0.	-2193.3
16934	14.454	4.	5.e-002	-5.9357
16935	14.73	4.	0.	-2114.3
16936	14.638	3.9091	0.	-2140.9
16937	14.638	4.	5.e-002	-5.7045
16938	14.913	4.	0.	-2064.5
16939	14.822	3.9091	0.	-2090.
16940	14.822	4.	5.e-002	-5.5156
16941	15.097	4.	0.	-2015.8
16942	15.005	3.9091	0.	-2040.5
16943	15.005	4.	5.e-002	-5.3603
16944	15.281	4.	0.	-1968.
16945	15.189	3.9091	0.	-1991.9
16946	15.189	4.	5.e-002	-5.2313
16947	15.464	4.	0.	-1920.8
16948	15.372	3.9091	0.	-1944.2
16949	15.372	4.	5.e-002	-5.1234
16950	15.648	4.	0.	-1874.2
16951	15.556	3.9091	0.	-1897.2
16952	15.556	4.	5.e-002	-5.032
16953	15.831	4.	0.	-1828.1
16954	15.739	3.9091	0.	-1850.8
16955	15.739	4.	5.e-002	-4.9537
16956	16.015	4.	0.	-1782.4
16957	15.923	3.9091	0.	-1804.8
16958	15.923	4.	5.e-002	-4.8859
16959	16.198	4.	0.	-1737.1
16960	16.107	3.9091	0.	-1759.3
16961	16.107	4.	5.e-002	-4.8264
16962	16.382	4.	0.	-1692.2
16963	16.29	3.9091	0.	-1714.2
16964	16.29	4.	5.e-002	-4.7737
16965	16.565	4.	0.	-1647.5
16966	16.474	3.9091	0.	-1669.3
16967	16.474	4.	5.e-002	-4.7265
16968	16.749	4.	0.	-1603.1
16969	16.657	3.9091	0.	-1624.8
16970	16.657	4.	5.e-002	-4.6837
16971	16.933	4.	0.	-1558.9
16972	16.841	3.9091	0.	-1580.5
16973	16.841	4.	5.e-002	-4.6446
16974	17.116	4.	0.	-1515.
16975	17.024	3.9091	0.	-1536.5
16976	17.024	4.	5.e-002	-4.6085
16977	17.3	4.	0.	-1471.2
16978	17.208	3.9091	0.	-1492.7
16979	17.208	4.	5.e-002	-4.5751
16980	17.483	4.	0.	-1427.7
16981	17.392	3.9091	0.	-1449.1
16982	17.392	4.	5.e-002	-4.5438
16983	17.667	4.	0.	-1384.4
16984	17.575	3.9091	0.	-1405.7
16985	17.575	4.	5.e-002	-4.5143
16986	17.85	4.	0.	-1341.4
16987	17.759	3.9091	0.	-1362.5
16988	17.759	4.	5.e-002	-4.4866
16989	18.034	4.	0.	-1298.5
16990	17.942	3.9091	0.	-1319.5
16991	17.942	4.	5.e-002	-4.4603
16992	18.218	4.	0.	-1255.8
16993	18.126	3.9091	0.	-1276.8
16994	18.126	4.	5.e-002	-4.4354
16995	18.401	4.	0.	-1213.3
16996	18.309	3.9091	0.	-1234.2
16997	18.309	4.	5.e-002	-4.4116
16998	18.585	4.	0.	-1171.
16999	18.493	3.9091	0.	-1191.8
17000	18.493	4.	5.e-002	-4.389
17001	18.768	4.	0.	-1128.9
17002	18.677	3.9091	0.	-1149.6
17003	18.677	4.	5.e-002	-4.3674
17004	18.952	4.	0.	-1086.9
17005	18.86	3.9091	0.	-1107.6
17006	18.86	4.	5.e-002	-4.3468
17007	19.135	4.	0.	-1045.2
17008	19.044	3.9091	0.	-1065.8
17009	19.044	4.	5.e-002	-4.3273
17010	19.319	4.	0.	-1003.7
17011	19.227	3.9091	0.	-1024.2
17012	19.227	4.	5.e-002	-4.3086
17013	19.503	4.	0.	-962.36
17014	19.411	3.9091	0.	-982.82
17015	19.411	4.	5.e-002	-4.291
17016	19.686	4.	0.	-921.23
17017	19.594	3.9091	0.	-941.61
17018	19.594	4.	5.e-002	-4.2743
17019	19.87	4.	0.	-880.29
17020	19.778	3.9091	0.	-900.6
17021	19.778	4.	5.e-002	-4.2587
17022	20.053	4.	0.	-839.55
17023	19.962	3.9091	0.	-859.78
17024	19.962	4.	5.e-002	-4.2441
17025	20.237	4.	0.	-799.01
17026	20.145	3.9091	0.	-819.17
17027	20.145	4.	5.e-002	-4.2305
17028	20.42	4.	0.	-758.66
17029	20.329	3.9091	0.	-778.75
17030	20.329	4.	5.e-002	-4.2182
17031	20.604	4.	0.	-718.5
17032	20.512	3.9091	0.	-738.52
17033	20.512	4.	5.e-002	-4.2071
17034	20.788	4.	0.	-678.54
17035	20.696	3.9091	0.	-698.5
17036	20.696	4.	5.e-002	-4.1974
17037	20.971	4.	0.	-638.77
17038	20.879	3.9091	0.	-658.66
17039	20.879	4.	5.e-002	-4.1891
17040	21.155	4.	0.	-599.2
17041	21.063	3.9091	0.	-619.02
17042	21.063	4.	5.e-002	-4.1824
17043	21.338	4.	0.	-559.81
17044	21.246	3.9091	0.	-579.57
17045	21.246	4.	5.e-002	-4.1776
17046	21.522	4.	0.	-520.6
17047	21.43	3.9091	0.	-540.3
17048	21.43	4.	5.e-002	-4.1747
17049	21.705	4.	0.	-481.57
17050	21.614	3.9091	0.	-501.21
17051	21.614	4.	5.e-002	-4.1741
17052	21.889	4.	0.	-442.7
17053	21.797	3.9091	0.	-462.29
17054	21.797	4.	5.e-002	-4.176
17055	22.073	4.	0.	-404.
17056	21.981	3.9091	0.	-423.53
17057	21.981	4.	5.e-002	-4.1808
17058	22.256	4.	0.	-365.44
17059	22.164	3.9091	0.	-384.92
17060	22.164	4.	5.e-002	-4.1888
17061	22.44	4.	0.	-327.01
17062	22.348	3.9091	0.	-346.44
17063	22.348	4.	5.e-002	-4.2005
17064	22.623	4.	0.	-288.68
17065	22.531	3.9091	0.	-308.07
17066	22.531	4.	5.e-002	-4.2163
17067	22.807	4.	0.	-250.43
17068	22.715	3.9091	0.	-269.77
17069	22.715	4.	5.e-002	-4.2369
17070	22.99	4.	0.	-212.21
17071	22.899	3.9091	0.	-231.53
17072	22.899	4.	5.e-002	-4.2626
17073	23.174	4.	0.	-173.98
17074	23.082	3.9091	0.	-193.28
17075	23.082	4.	5.e-002	-4.2939
17076	23.358	4.	0.	-135.69
17077	23.266	3.9091	0.	-154.99
17078	23.266	4.	5.e-002	-4.3312
17079	23.541	4.	0.	-97.288
17080	23.449	3.9091	0.	-116.62
17081	23.449	4.	5.e-002	-4.3745
17082	23.725	4.	0.	-58.792
17083	23.633	3.9091	0.	-78.094
17084	23.633	4.	5.e-002	-4.425
17085	23.816	3.9091	0.	-39.585
17086	23.816	4.	5.e-002	-4.5077
17087	23.908	4.	0.	-22.305
17088	11.242	3.8182	0.	-7168.1
17089	11.15	3.7273	0.	-7946.5
17090	11.15	3.8182	5.e-002	-292.34
17091	11.426	3.8182	0.	-5593.5
17092	11.334	3.7273	0.	-6236.8
17093	11.334	3.8182	5.e-002	-134.12
17094	11.609	3.8182	0.	-4726.9
17095	11.517	3.7273	0.	-5205.2
17096	11.517	3.8182	5.e-002	-67.74
17097	11.793	3.8182	0.	-4179.
17098	11.701	3.7273	0.	-4536.2
17099	11.701	3.8182	5.e-002	-46.72
17100	11.976	3.8182	0.	-3794.5
17101	11.885	3.7273	0.	-4066.7
17102	11.885	3.8182	5.e-002	-34.967
17103	12.16	3.8182	0.	-3507.7
17104	12.068	3.7273	0.	-3718.5
17105	12.068	3.8182	5.e-002	-27.798
17106	12.343	3.8182	0.	-3284.4
17107	12.252	3.7273	0.	-3450.2
17108	12.252	3.8182	5.e-002	-22.858
17109	12.527	3.8182	0.	-3105.
17110	12.435	3.7273	0.	-3237.1
17111	12.435	3.8182	5.e-002	-19.202
17112	12.711	3.8182	0.	-2956.9
17113	12.619	3.7273	0.	-3063.6
17114	12.619	3.8182	5.e-002	-16.376
17115	12.894	3.8182	0.	-2832.2
17116	12.802	3.7273	0.	-2919.4
17117	12.802	3.8182	5.e-002	-14.137
17118	13.078	3.8182	0.	-2724.9
17119	12.986	3.7273	0.	-2797.3
17120	12.986	3.8182	5.e-002	-12.339
17121	13.261	3.8182	0.	-2631.2
17122	13.169	3.7273	0.	-2692.1
17123	13.169	3.8182	5.e-002	-10.888
17124	13.445	3.8182	0.	-2547.8
17125	13.353	3.7273	0.	-2599.9
17126	13.353	3.8182	5.e-002	-9.7136
17127	13.628	3.8182	0.	-2472.5
17128	13.537	3.7273	0.	-2517.9
17129	13.537	3.8182	5.e-002	-8.7628
17130	13.812	3.8182	0.	-2403.7
17131	13.72	3.7273	0.	-2443.7
17132	13.72	3.8182	5.e-002	-7.9933
17133	13.996	3.8182	0.	-2339.8
17134	13.904	3.7273	0.	-2375.7
17135	13.904	3.8182	5.e-002	-7.3711
17136	14.179	3.8182	0.	-2279.9
17137	14.087	3.7273	0.	-2312.7
17138	14.087	3.8182	5.e-002	-6.8679
17139	14.363	3.8182	0.	-2223.2
17140	14.271	3.7273	0.	-2253.5
17141	14.271	3.8182	5.e-002	-6.4608
17142	14.546	3.8182	0.	-2168.9
17143	14.454	3.7273	0.	-2197.3
17144	14.454	3.8182	5.e-002	-6.1307
17145	14.73	3.8182	0.	-2116.6
17146	14.638	3.7273	0.	-2143.5
17147	14.638	3.8182	5.e-002	-5.8624
17148	14.913	3.8182	0.	-2066.
17149	14.822	3.7273	0.	-2091.7
17150	14.822	3.8182	5.e-002	-5.6432
17151	15.097	3.8182	0.	-2016.5
17152	15.005	3.7273	0.	-2041.4
17153	15.005	3.8182	5.e-002	-5.4632
17154	15.281	3.8182	0.	-1968.2
17155	15.189	3.7273	0.	-1992.3
17156	15.189	3.8182	5.e-002	-5.3143
17157	15.464	3.8182	0.	-1920.6
17158	15.372	3.7273	0.	-1944.2
17159	15.372	3.8182	5.e-002	-5.1903
17160	15.648	3.8182	0.	-1873.8
17161	15.556	3.7273	0.	-1897.
17162	15.556	3.8182	5.e-002	-5.0859
17163	15.831	3.8182	0.	-1827.5
17164	15.739	3.7273	0.	-1850.3
17165	15.739	3.8182	5.e-002	-4.9971
17166	16.015	3.8182	0.	-1781.7
17167	15.923	3.7273	0.	-1804.3
17168	15.923	3.8182	5.e-002	-4.9209
17169	16.198	3.8182	0.	-1736.4
17170	16.107	3.7273	0.	-1758.7
17171	16.107	3.8182	5.e-002	-4.8547
17172	16.382	3.8182	0.	-1691.4
17173	16.29	3.7273	0.	-1713.5
17174	16.29	3.8182	5.e-002	-4.7966
17175	16.565	3.8182	0.	-1646.7
17176	16.474	3.7273	0.	-1668.6
17177	16.474	3.8182	5.e-002	-4.7451
17178	16.749	3.8182	0.	-1602.2
17179	16.657	3.7273	0.	-1624.1
17180	16.657	3.8182	5.e-002	-4.6988
17181	16.933	3.8182	0.	-1558.1
17182	16.841	3.7273	0.	-1579.8
17183	16.841	3.8182	5.e-002	-4.657
17184	17.116	3.8182	0.	-1514.2
17185	17.024	3.7273	0.	-1535.8
17186	17.024	3.8182	5.e-002	-4.6188
17187	17.3	3.8182	0.	-1470.5
17188	17.208	3.7273	0.	-1492.
17189	17.208	3.8182	5.e-002	-4.5836
17190	17.483	3.8182	0.	-1427.
17191	17.392	3.7273	0.	-1448.4
17192	17.392	3.8182	5.e-002	-4.5509
17193	17.667	3.8182	0.	-1383.8
17194	17.575	3.7273	0.	-1405.1
17195	17.575	3.8182	5.e-002	-4.5204
17196	17.85	3.8182	0.	-1340.7
17197	17.759	3.7273	0.	-1361.9
17198	17.759	3.8182	5.e-002	-4.4918
17199	18.034	3.8182	0.	-1297.9
17200	17.942	3.7273	0.	-1319.
17201	17.942	3.8182	5.e-002	-4.4648
17202	18.218	3.8182	0.	-1255.2
17203	18.126	3.7273	0.	-1276.2
17204	18.126	3.8182	5.e-002	-4.4393
17205	18.401	3.8182	0.	-1212.7
17206	18.309	3.7273	0.	-1233.7
17207	18.309	3.8182	5.e-002	-4.4152
17208	18.585	3.8182	0.	-1170.5
17209	18.493	3.7273	0.	-1191.3
17210	18.493	3.8182	5.e-002	-4.3922
17211	18.768	3.8182	0.	-1128.4
17212	18.677	3.7273	0.	-1149.2
17213	18.677	3.8182	5.e-002	-4.3704
17214	18.952	3.8182	0.	-1086.5
17215	18.86	3.7273	0.	-1107.2
17216	18.86	3.8182	5.e-002	-4.3496
17217	19.135	3.8182	0.	-1044.9
17218	19.044	3.7273	0.	-1065.5
17219	19.044	3.8182	5.e-002	-4.3299
17220	19.319	3.8182	0.	-1003.4
17221	19.227	3.7273	0.	-1023.9
17222	19.227	3.8182	5.e-002	-4.3112
17223	19.503	3.8182	0.	-962.09
17224	19.411	3.7273	0.	-982.56
17225	19.411	3.8182	5.e-002	-4.2934
17226	19.686	3.8182	0.	-921.01
17227	19.594	3.7273	0.	-941.39
17228	19.594	3.8182	5.e-002	-4.2768
17229	19.87	3.8182	0.	-880.12
17230	19.778	3.7273	0.	-900.43
17231	19.778	3.8182	5.e-002	-4.2612
17232	20.053	3.8182	0.	-839.43
17233	19.962	3.7273	0.	-859.66
17234	19.962	3.8182	5.e-002	-4.2466
17235	20.237	3.8182	0.	-798.94
17236	20.145	3.7273	0.	-819.09
17237	20.145	3.8182	5.e-002	-4.2332
17238	20.42	3.8182	0.	-758.65
17239	20.329	3.7273	0.	-778.72
17240	20.329	3.8182	5.e-002	-4.221
17241	20.604	3.8182	0.	-718.55
17242	20.512	3.7273	0.	-738.55
17243	20.512	3.8182	5.e-002	-4.2101
17244	20.788	3.8182	0.	-678.65
17245	20.696	3.7273	0.	-698.58
17246	20.696	3.8182	5.e-002	-4.2005
17247	20.971	3.8182	0.	-638.94
17248	20.879	3.7273	0.	-658.8
17249	20.879	3.8182	5.e-002	-4.1926
17250	21.155	3.8182	0.	-599.43
17251	21.063	3.7273	0.	-619.21
17252	21.063	3.8182	5.e-002	-4.1863
17253	21.338	3.8182	0.	-560.09
17254	21.246	3.7273	0.	-579.81
17255	21.246	3.8182	5.e-002	-4.1818
17256	21.522	3.8182	0.	-520.94
17257	21.43	3.7273	0.	-540.6
17258	21.43	3.8182	5.e-002	-4.1795
17259	21.705	3.8182	0.	-481.96
17260	21.614	3.7273	0.	-501.56
17261	21.614	3.8182	5.e-002	-4.1794
17262	21.889	3.8182	0.	-443.15
17263	21.797	3.7273	0.	-462.68
17264	21.797	3.8182	5.e-002	-4.182
17265	22.073	3.8182	0.	-404.48
17266	21.981	3.7273	0.	-423.96
17267	21.981	3.8182	5.e-002	-4.1874
17268	22.256	3.8182	0.	-365.94
17269	22.164	3.7273	0.	-385.37
17270	22.164	3.8182	5.e-002	-4.1961
17271	22.44	3.8182	0.	-327.52
17272	22.348	3.7273	0.	-346.9
17273	22.348	3.8182	5.e-002	-4.2085
17274	22.623	3.8182	0.	-289.18
17275	22.531	3.7273	0.	-308.52
17276	22.531	3.8182	5.e-002	-4.225
17277	22.807	3.8182	0.	-250.89
17278	22.715	3.7273	0.	-270.2
17279	22.715	3.8182	5.e-002	-4.246
17280	22.99	3.8182	0.	-212.61
17281	22.899	3.7273	0.	-231.91
17282	22.899	3.8182	5.e-002	-4.2718
17283	23.174	3.8182	0.	-174.31
17284	23.082	3.7273	0.	-193.61
17285	23.082	3.8182	5.e-002	-4.3028
17286	23.358	3.8182	0.	-135.93
17287	23.266	3.7273	0.	-155.24
17288	23.266	3.8182	5.e-002	-4.3392
17289	23.541	3.8182	0.	-97.418
17290	23.449	3.7273	0.	-116.78
17291	23.449	3.8182	5.e-002	-4.3808
17292	23.725	3.8182	0.	-58.812
17293	23.633	3.7273	0.	-78.16
17294	23.633	3.8182	5.e-002	-4.4284
17295	23.816	3.7273	0.	-39.551
17296	23.816	3.8182	5.e-002	-4.5
17297	23.908	3.8182	0.	-22.276
17298	11.242	3.6364	0.	-7053.2
17299	11.15	3.5455	0.	-7457.1
17300	11.15	3.6364	5.e-002	-125.35
17301	11.426	3.6364	0.	-5863.4
17302	11.334	3.5455	0.	-6334.2
17303	11.334	3.6364	5.e-002	-99.226
17304	11.609	3.6364	0.	-5018.6
17305	11.517	3.5455	0.	-5431.6
17306	11.517	3.6364	5.e-002	-71.338
17307	11.793	3.6364	0.	-4424.6
17308	11.701	3.5455	0.	-4759.7
17309	11.701	3.6364	5.e-002	-50.167
17310	11.976	3.6364	0.	-3990.4
17311	11.885	3.5455	0.	-4256.4
17312	11.885	3.6364	5.e-002	-38.338
17313	12.16	3.6364	0.	-3660.6
17314	12.068	3.5455	0.	-3871.
17315	12.068	3.6364	5.e-002	-30.643
17316	12.343	3.6364	0.	-3402.5
17317	12.252	3.5455	0.	-3569.7
17318	12.252	3.6364	5.e-002	-25.168
17319	12.527	3.6364	0.	-3195.5
17320	12.435	3.5455	0.	-3329.3
17321	12.435	3.6364	5.e-002	-21.045
17322	12.711	3.6364	0.	-3025.9
17323	12.619	3.5455	0.	-3134.2
17324	12.619	3.6364	5.e-002	-17.834
17325	12.894	3.6364	0.	-2884.5
17326	12.802	3.5455	0.	-2973.1
17327	12.802	3.6364	5.e-002	-15.287
17328	13.078	3.6364	0.	-2764.5
17329	12.986	3.5455	0.	-2837.9
17330	12.986	3.6364	5.e-002	-13.249
17331	13.261	3.6364	0.	-2660.9
17332	13.169	3.5455	0.	-2722.6
17333	13.169	3.6364	5.e-002	-11.609
17334	13.445	3.6364	0.	-2570.
17335	13.353	3.5455	0.	-2622.7
17336	13.353	3.6364	5.e-002	-10.288
17337	13.628	3.6364	0.	-2489.
17338	13.537	3.5455	0.	-2534.8
17339	13.537	3.6364	5.e-002	-9.2229
17340	13.812	3.6364	0.	-2415.8
17341	13.72	3.5455	0.	-2456.2
17342	13.72	3.6364	5.e-002	-8.3635
17343	13.996	3.6364	0.	-2348.6
17344	13.904	3.5455	0.	-2384.9
17345	13.904	3.6364	5.e-002	-7.6698
17346	14.179	3.6364	0.	-2286.2
17347	14.087	3.5455	0.	-2319.3
17348	14.087	3.6364	5.e-002	-7.1096
17349	14.363	3.6364	0.	-2227.6
17350	14.271	3.5455	0.	-2258.1
17351	14.271	3.6364	5.e-002	-6.6565
17352	14.546	3.6364	0.	-2171.9
17353	14.454	3.5455	0.	-2200.5
17354	14.454	3.6364	5.e-002	-6.2894
17355	14.73	3.6364	0.	-2118.6
17356	14.638	3.5455	0.	-2145.7
17357	14.638	3.6364	5.e-002	-5.9909
17358	14.913	3.6364	0.	-2067.2
17359	14.822	3.5455	0.	-2093.1
17360	14.822	3.6364	5.e-002	-5.7472
17361	15.097	3.6364	0.	-2017.2
17362	15.005	3.5455	0.	-2042.2
17363	15.005	3.6364	5.e-002	-5.5474
17364	15.281	3.6364	0.	-1968.4
17365	15.189	3.5455	0.	-1992.7
17366	15.189	3.6364	5.e-002	-5.3823
17367	15.464	3.6364	0.	-1920.5
17368	15.372	3.5455	0.	-1944.3
17369	15.372	3.6364	5.e-002	-5.2452
17370	15.648	3.6364	0.	-1873.5
17371	15.556	3.5455	0.	-1896.8
17372	15.556	3.6364	5.e-002	-5.1302
17373	15.831	3.6364	0.	-1827.1
17374	15.739	3.5455	0.	-1850.
17375	15.739	3.6364	5.e-002	-5.0329
17376	16.015	3.6364	0.	-1781.2
17377	15.923	3.5455	0.	-1803.8
17378	15.923	3.6364	5.e-002	-4.9498
17379	16.198	3.6364	0.	-1735.8
17380	16.107	3.5455	0.	-1758.2
17381	16.107	3.6364	5.e-002	-4.8781
17382	16.382	3.6364	0.	-1690.7
17383	16.29	3.5455	0.	-1712.9
17384	16.29	3.6364	5.e-002	-4.8156
17385	16.565	3.6364	0.	-1646.
17386	16.474	3.5455	0.	-1668.
17387	16.474	3.6364	5.e-002	-4.7605
17388	16.749	3.6364	0.	-1601.6
17389	16.657	3.5455	0.	-1623.5
17390	16.657	3.6364	5.e-002	-4.7114
17391	16.933	3.6364	0.	-1557.5
17392	16.841	3.5455	0.	-1579.2
17393	16.841	3.6364	5.e-002	-4.6673
17394	17.116	3.6364	0.	-1513.6
17395	17.024	3.5455	0.	-1535.2
17396	17.024	3.6364	5.e-002	-4.6273
17397	17.3	3.6364	0.	-1469.9
17398	17.208	3.5455	0.	-1491.4
17399	17.208	3.6364	5.e-002	-4.5907
17400	17.483	3.6364	0.	-1426.5
17401	17.392	3.5455	0.	-1447.9
17402	17.392	3.6364	5.e-002	-4.5568
17403	17.667	3.6364	0.	-1383.2
17404	17.575	3.5455	0.	-1404.6
17405	17.575	3.6364	5.e-002	-4.5254
17406	17.85	3.6364	0.	-1340.2
17407	17.759	3.5455	0.	-1361.4
17408	17.759	3.6364	5.e-002	-4.4961
17409	18.034	3.6364	0.	-1297.4
17410	17.942	3.5455	0.	-1318.5
17411	17.942	3.6364	5.e-002	-4.4686
17412	18.218	3.6364	0.	-1254.7
17413	18.126	3.5455	0.	-1275.8
17414	18.126	3.6364	5.e-002	-4.4426
17415	18.401	3.6364	0.	-1212.3
17416	18.309	3.5455	0.	-1233.3
17417	18.309	3.6364	5.e-002	-4.4181
17418	18.585	3.6364	0.	-1170.1
17419	18.493	3.5455	0.	-1191.
17420	18.493	3.6364	5.e-002	-4.3948
17421	18.768	3.6364	0.	-1128.1
17422	18.677	3.5455	0.	-1148.9
17423	18.677	3.6364	5.e-002	-4.3728
17424	18.952	3.6364	0.	-1086.2
17425	18.86	3.5455	0.	-1106.9
17426	18.86	3.6364	5.e-002	-4.3519
17427	19.135	3.6364	0.	-1044.6
17428	19.044	3.5455	0.	-1065.2
17429	19.044	3.6364	5.e-002	-4.332
17430	19.319	3.6364	0.	-1003.1
17431	19.227	3.5455	0.	-1023.7
17432	19.227	3.6364	5.e-002	-4.3132
17433	19.503	3.6364	0.	-961.89
17434	19.411	3.5455	0.	-982.36
17435	19.411	3.6364	5.e-002	-4.2955
17436	19.686	3.6364	0.	-920.84
17437	19.594	3.5455	0.	-941.23
17438	19.594	3.6364	5.e-002	-4.2788
17439	19.87	3.6364	0.	-879.99
17440	19.778	3.5455	0.	-900.3
17441	19.778	3.6364	5.e-002	-4.2632
17442	20.053	3.6364	0.	-839.35
17443	19.962	3.5455	0.	-859.57
17444	19.962	3.6364	5.e-002	-4.2487
17445	20.237	3.6364	0.	-798.9
17446	20.145	3.5455	0.	-819.04
17447	20.145	3.6364	5.e-002	-4.2353
17448	20.42	3.6364	0.	-758.65
17449	20.329	3.5455	0.	-778.71
17450	20.329	3.6364	5.e-002	-4.2232
17451	20.604	3.6364	0.	-718.61
17452	20.512	3.5455	0.	-738.58
17453	20.512	3.6364	5.e-002	-4.2125
17454	20.788	3.6364	0.	-678.75
17455	20.696	3.5455	0.	-698.65
17456	20.696	3.6364	5.e-002	-4.2031
17457	20.971	3.6364	0.	-639.1
17458	20.879	3.5455	0.	-658.91
17459	20.879	3.6364	5.e-002	-4.1954
17460	21.155	3.6364	0.	-599.63
17461	21.063	3.5455	0.	-619.37
17462	21.063	3.6364	5.e-002	-4.1894
17463	21.338	3.6364	0.	-560.34
17464	21.246	3.5455	0.	-580.01
17465	21.246	3.6364	5.e-002	-4.1853
17466	21.522	3.6364	0.	-521.24
17467	21.43	3.5455	0.	-540.84
17468	21.43	3.6364	5.e-002	-4.1833
17469	21.705	3.6364	0.	-482.3
17470	21.614	3.5455	0.	-501.83
17471	21.614	3.6364	5.e-002	-4.1837
17472	21.889	3.6364	0.	-443.51
17473	21.797	3.5455	0.	-462.99
17474	21.797	3.6364	5.e-002	-4.1868
17475	22.073	3.6364	0.	-404.87
17476	21.981	3.5455	0.	-424.29
17477	21.981	3.6364	5.e-002	-4.1928
17478	22.256	3.6364	0.	-366.35
17479	22.164	3.5455	0.	-385.72
17480	22.164	3.6364	5.e-002	-4.2021
17481	22.44	3.6364	0.	-327.92
17482	22.348	3.5455	0.	-347.26
17483	22.348	3.6364	5.e-002	-4.215
17484	22.623	3.6364	0.	-289.57
17485	22.531	3.5455	0.	-308.87
17486	22.531	3.6364	5.e-002	-4.2319
17487	22.807	3.6364	0.	-251.24
17488	22.715	3.5455	0.	-270.53
17489	22.715	3.6364	5.e-002	-4.2531
17490	22.99	3.6364	0.	-212.92
17491	22.899	3.5455	0.	-232.21
17492	22.899	3.6364	5.e-002	-4.279
17493	23.174	3.6364	0.	-174.55
17494	23.082	3.5455	0.	-193.85
17495	23.082	3.6364	5.e-002	-4.3097
17496	23.358	3.6364	0.	-136.1
17497	23.266	3.5455	0.	-155.42
17498	23.266	3.6364	5.e-002	-4.3453
17499	23.541	3.6364	0.	-97.512
17500	23.449	3.5455	0.	-116.89
17501	23.449	3.6364	5.e-002	-4.3856
17502	23.725	3.6364	0.	-58.821
17503	23.633	3.5455	0.	-78.204
17504	23.633	3.6364	5.e-002	-4.4309
17505	23.816	3.5455	0.	-39.522
17506	23.816	3.6364	5.e-002	-4.4938
17507	23.908	3.6364	0.	-22.251
17508	11.242	3.4545	0.	-6753.4
17509	11.15	3.3636	0.	-7016.6
17510	11.15	3.4545	5.e-002	-70.001
17511	11.426	3.4545	0.	-5916.5
17512	11.334	3.3636	0.	-6271.
17513	11.334	3.4545	5.e-002	-74.378
17514	11.609	3.4545	0.	-5179.8
17515	11.517	3.3636	0.	-5527.8
17516	11.517	3.4545	5.e-002	-61.852
17517	11.793	3.4545	0.	-4594.5
17518	11.701	3.3636	0.	-4897.
17519	11.701	3.4545	5.e-002	-49.918
17520	11.976	3.4545	0.	-4138.2
17521	11.885	3.3636	0.	-4387.9
17522	11.885	3.4545	5.e-002	-40.147
17523	12.16	3.4545	0.	-3780.5
17524	12.068	3.3636	0.	-3982.4
17525	12.068	3.4545	5.e-002	-32.733
17526	12.343	3.4545	0.	-3496.6
17527	12.252	3.3636	0.	-3658.9
17528	12.252	3.4545	5.e-002	-27.039
17529	12.527	3.4545	0.	-3268.
17530	12.435	3.3636	0.	-3398.9
17531	12.435	3.4545	5.e-002	-22.582
17532	12.711	3.4545	0.	-3081.3
17533	12.619	3.3636	0.	-3187.6
17534	12.619	3.4545	5.e-002	-19.052
17535	12.894	3.4545	0.	-2926.4
17536	12.802	3.3636	0.	-3013.6
17537	12.802	3.4545	5.e-002	-16.239
17538	13.078	3.4545	0.	-2796.
17539	12.986	3.3636	0.	-2868.5
17540	12.986	3.4545	5.e-002	-13.989
17541	13.261	3.4545	0.	-2684.5
17542	13.169	3.3636	0.	-2745.6
17543	13.169	3.4545	5.e-002	-12.187
17544	13.445	3.4545	0.	-2587.6
17545	13.353	3.3636	0.	-2639.9
17546	13.353	3.4545	5.e-002	-10.742
17547	13.628	3.4545	0.	-2502.
17548	13.537	3.3636	0.	-2547.5
17549	13.537	3.4545	5.e-002	-9.5819
17550	13.812	3.4545	0.	-2425.3
17551	13.72	3.3636	0.	-2465.6
17552	13.72	3.4545	5.e-002	-8.6492
17553	13.996	3.4545	0.	-2355.6
17554	13.904	3.3636	0.	-2391.7
17555	13.904	3.4545	5.e-002	-7.8987
17556	14.179	3.4545	0.	-2291.2
17557	14.087	3.3636	0.	-2324.2
17558	14.087	3.4545	5.e-002	-7.2939
17559	14.363	3.4545	0.	-2231.1
17560	14.271	3.3636	0.	-2261.6
17561	14.271	3.4545	5.e-002	-6.8053
17562	14.546	3.4545	0.	-2174.3
17563	14.454	3.3636	0.	-2202.9
17564	14.454	3.4545	5.e-002	-6.4098
17565	14.73	3.4545	0.	-2120.2
17566	14.638	3.3636	0.	-2147.3
17567	14.638	3.4545	5.e-002	-6.0884
17568	14.913	3.4545	0.	-2068.1
17569	14.822	3.3636	0.	-2094.1
17570	14.822	3.4545	5.e-002	-5.8262
17571	15.097	3.4545	0.	-2017.7
17572	15.005	3.3636	0.	-2042.7
17573	15.005	3.4545	5.e-002	-5.6113
17574	15.281	3.4545	0.	-1968.5
17575	15.189	3.3636	0.	-1992.9
17576	15.189	3.4545	5.e-002	-5.4341
17577	15.464	3.4545	0.	-1920.5
17578	15.372	3.3636	0.	-1944.3
17579	15.372	3.4545	5.e-002	-5.2871
17580	15.648	3.4545	0.	-1873.3
17581	15.556	3.3636	0.	-1896.6
17582	15.556	3.4545	5.e-002	-5.1641
17583	15.831	3.4545	0.	-1826.7
17584	15.739	3.3636	0.	-1849.7
17585	15.739	3.4545	5.e-002	-5.0603
17586	16.015	3.4545	0.	-1780.8
17587	15.923	3.3636	0.	-1803.5
17588	15.923	3.4545	5.e-002	-4.972
17589	16.198	3.4545	0.	-1735.3
17590	16.107	3.3636	0.	-1757.8
17591	16.107	3.4545	5.e-002	-4.8961
17592	16.382	3.4545	0.	-1690.2
17593	16.29	3.3636	0.	-1712.5
17594	16.29	3.4545	5.e-002	-4.8301
17595	16.565	3.4545	0.	-1645.5
17596	16.474	3.3636	0.	-1667.6
17597	16.474	3.4545	5.e-002	-4.7723
17598	16.749	3.4545	0.	-1601.1
17599	16.657	3.3636	0.	-1623.1
17600	16.657	3.4545	5.e-002	-4.7211
17601	16.933	3.4545	0.	-1557.
17602	16.841	3.3636	0.	-1578.8
17603	16.841	3.4545	5.e-002	-4.6753
17604	17.116	3.4545	0.	-1513.1
17605	17.024	3.3636	0.	-1534.8
17606	17.024	3.4545	5.e-002	-4.6338
17607	17.3	3.4545	0.	-1469.4
17608	17.208	3.3636	0.	-1491.
17609	17.208	3.4545	5.e-002	-4.5961
17610	17.483	3.4545	0.	-1426.
17611	17.392	3.3636	0.	-1447.5
17612	17.392	3.4545	5.e-002	-4.5614
17613	17.667	3.4545	0.	-1382.8
17614	17.575	3.3636	0.	-1404.2
17615	17.575	3.4545	5.e-002	-4.5293
17616	17.85	3.4545	0.	-1339.8
17617	17.759	3.3636	0.	-1361.1
17618	17.759	3.4545	5.e-002	-4.4994
17619	18.034	3.4545	0.	-1297.
17620	17.942	3.3636	0.	-1318.2
17621	17.942	3.4545	5.e-002	-4.4714
17622	18.218	3.4545	0.	-1254.4
17623	18.126	3.3636	0.	-1275.5
17624	18.126	3.4545	5.e-002	-4.4451
17625	18.401	3.4545	0.	-1212.
17626	18.309	3.3636	0.	-1233.
17627	18.309	3.4545	5.e-002	-4.4203
17628	18.585	3.4545	0.	-1169.8
17629	18.493	3.3636	0.	-1190.7
17630	18.493	3.4545	5.e-002	-4.3968
17631	18.768	3.4545	0.	-1127.8
17632	18.677	3.3636	0.	-1148.6
17633	18.677	3.4545	5.e-002	-4.3746
17634	18.952	3.4545	0.	-1086.
17635	18.86	3.3636	0.	-1106.7
17636	18.86	3.4545	5.e-002	-4.3536
17637	19.135	3.4545	0.	-1044.4
17638	19.044	3.3636	0.	-1065.
17639	19.044	3.4545	5.e-002	-4.3336
17640	19.319	3.4545	0.	-1003.
17641	19.227	3.3636	0.	-1023.5
17642	19.227	3.4545	5.e-002	-4.3148
17643	19.503	3.4545	0.	-961.74
17644	19.411	3.3636	0.	-982.23
17645	19.411	3.4545	5.e-002	-4.297
17646	19.686	3.4545	0.	-920.72
17647	19.594	3.3636	0.	-941.12
17648	19.594	3.4545	5.e-002	-4.2803
17649	19.87	3.4545	0.	-879.91
17650	19.778	3.3636	0.	-900.22
17651	19.778	3.4545	5.e-002	-4.2647
17652	20.053	3.4545	0.	-839.3
17653	19.962	3.3636	0.	-859.52
17654	19.962	3.4545	5.e-002	-4.2502
17655	20.237	3.4545	0.	-798.88
17656	20.145	3.3636	0.	-819.01
17657	20.145	3.4545	5.e-002	-4.237
17658	20.42	3.4545	0.	-758.67
17659	20.329	3.3636	0.	-778.71
17660	20.329	3.4545	5.e-002	-4.225
17661	20.604	3.4545	0.	-718.66
17662	20.512	3.3636	0.	-738.61
17663	20.512	3.4545	5.e-002	-4.2143
17664	20.788	3.4545	0.	-678.84
17665	20.696	3.3636	0.	-698.71
17666	20.696	3.4545	5.e-002	-4.2051
17667	20.971	3.4545	0.	-639.22
17668	20.879	3.3636	0.	-659.01
17669	20.879	3.4545	5.e-002	-4.1976
17670	21.155	3.4545	0.	-599.79
17671	21.063	3.3636	0.	-619.49
17672	21.063	3.4545	5.e-002	-4.1918
17673	21.338	3.4545	0.	-560.54
17674	21.246	3.3636	0.	-580.17
17675	21.246	3.4545	5.e-002	-4.188
17676	21.522	3.4545	0.	-521.46
17677	21.43	3.3636	0.	-541.02
17678	21.43	3.4545	5.e-002	-4.1863
17679	21.705	3.4545	0.	-482.55
17680	21.614	3.3636	0.	-502.04
17681	21.614	3.4545	5.e-002	-4.187
17682	21.889	3.4545	0.	-443.79
17683	21.797	3.3636	0.	-463.21
17684	21.797	3.4545	5.e-002	-4.1905
17685	22.073	3.4545	0.	-405.16
17686	21.981	3.3636	0.	-424.53
17687	21.981	3.4545	5.e-002	-4.1969
17688	22.256	3.4545	0.	-366.65
17689	22.164	3.3636	0.	-385.97
17690	22.164	3.4545	5.e-002	-4.2065
17691	22.44	3.4545	0.	-328.22
17692	22.348	3.3636	0.	-347.51
17693	22.348	3.4545	5.e-002	-4.2198
17694	22.623	3.4545	0.	-289.85
17695	22.531	3.3636	0.	-309.12
17696	22.531	3.4545	5.e-002	-4.237
17697	22.807	3.4545	0.	-251.51
17698	22.715	3.3636	0.	-270.76
17699	22.715	3.4545	5.e-002	-4.2584
17700	22.99	3.4545	0.	-213.15
17701	22.899	3.3636	0.	-232.41
17702	22.899	3.4545	5.e-002	-4.2843
17703	23.174	3.4545	0.	-174.73
17704	23.082	3.3636	0.	-194.02
17705	23.082	3.4545	5.e-002	-4.3147
17706	23.358	3.4545	0.	-136.22
17707	23.266	3.3636	0.	-155.55
17708	23.266	3.4545	5.e-002	-4.3496
17709	23.541	3.4545	0.	-97.576
17710	23.449	3.3636	0.	-116.97
17711	23.449	3.4545	5.e-002	-4.3889
17712	23.725	3.4545	0.	-58.826
17713	23.633	3.3636	0.	-78.233
17714	23.633	3.4545	5.e-002	-4.4326
17715	23.816	3.3636	0.	-39.5
17716	23.816	3.4545	5.e-002	-4.489
17717	23.908	3.4545	0.	-22.231
17718	11.242	3.2727	0.	-6542.4
17719	11.15	3.1818	0.	-6775.5
17720	11.15	3.2727	5.e-002	-42.881
17721	11.426	3.2727	0.	-5892.7
17722	11.334	3.1818	0.	-6195.1
17723	11.334	3.2727	5.e-002	-54.323
17724	11.609	3.2727	0.	-5252.5
17725	11.517	3.1818	0.	-5557.
17726	11.517	3.2727	5.e-002	-53.684
17727	11.793	3.2727	0.	-4694.8
17728	11.701	3.1818	0.	-4966.6
17729	11.701	3.2727	5.e-002	-47.651
17730	11.976	3.2727	0.	-4234.4
17731	11.885	3.1818	0.	-4463.2
17732	11.885	3.2727	5.e-002	-40.541
17733	12.16	3.2727	0.	-3862.
17734	12.068	3.1818	0.	-4049.4
17735	12.068	3.2727	5.e-002	-33.938
17736	12.343	3.2727	0.	-3561.8
17737	12.252	3.1818	0.	-3713.9
17738	12.252	3.2727	5.e-002	-28.308
17739	12.527	3.2727	0.	-3318.7
17740	12.435	3.1818	0.	-3442.1
17741	12.435	3.2727	5.e-002	-23.677
17742	12.711	3.2727	0.	-3120.1
17743	12.619	3.1818	0.	-3220.8
17744	12.619	3.2727	5.e-002	-19.93
17745	12.894	3.2727	0.	-2955.8
17746	12.802	3.1818	0.	-3038.9
17747	12.802	3.2727	5.e-002	-16.923
17748	13.078	3.2727	0.	-2818.1
17749	12.986	3.1818	0.	-2887.6
17750	12.986	3.2727	5.e-002	-14.517
17751	13.261	3.2727	0.	-2701.
17752	13.169	3.1818	0.	-2759.9
17753	13.169	3.2727	5.e-002	-12.594
17754	13.445	3.2727	0.	-2599.8
17755	13.353	3.1818	0.	-2650.5
17756	13.353	3.2727	5.e-002	-11.058
17757	13.628	3.2727	0.	-2511.1
17758	13.537	3.1818	0.	-2555.4
17759	13.537	3.2727	5.e-002	-9.8289
17760	13.812	3.2727	0.	-2431.9
17761	13.72	3.1818	0.	-2471.3
17762	13.72	3.2727	5.e-002	-8.8443
17763	13.996	3.2727	0.	-2360.4
17764	13.904	3.1818	0.	-2395.9
17765	13.904	3.2727	5.e-002	-8.0539
17766	14.179	3.2727	0.	-2294.6
17767	14.087	3.1818	0.	-2327.2
17768	14.087	3.2727	5.e-002	-7.4182
17769	14.363	3.2727	0.	-2233.5
17770	14.271	3.1818	0.	-2263.8
17771	14.271	3.2727	5.e-002	-6.9054
17772	14.546	3.2727	0.	-2175.9
17773	14.454	3.1818	0.	-2204.4
17774	14.454	3.2727	5.e-002	-6.4907
17775	14.73	3.2727	0.	-2121.2
17776	14.638	3.1818	0.	-2148.3
17777	14.638	3.2727	5.e-002	-6.1539
17778	14.913	3.2727	0.	-2068.7
17779	14.822	3.1818	0.	-2094.7
17780	14.822	3.2727	5.e-002	-5.8793
17781	15.097	3.2727	0.	-2018.
17782	15.005	3.1818	0.	-2043.1
17783	15.005	3.2727	5.e-002	-5.6544
17784	15.281	3.2727	0.	-1968.7
17785	15.189	3.1818	0.	-1993.1
17786	15.189	3.2727	5.e-002	-5.469
17787	15.464	3.2727	0.	-1920.4
17788	15.372	3.1818	0.	-1944.3
17789	15.372	3.2727	5.e-002	-5.3153
17790	15.648	3.2727	0.	-1873.1
17791	15.556	3.1818	0.	-1896.5
17792	15.556	3.2727	5.e-002	-5.187
17793	15.831	3.2727	0.	-1826.5
17794	15.739	3.1818	0.	-1849.6
17795	15.739	3.2727	5.e-002	-5.0788
17796	16.015	3.2727	0.	-1780.5
17797	15.923	3.1818	0.	-1803.3
17798	15.923	3.2727	5.e-002	-4.987
17799	16.198	3.2727	0.	-1735.
17800	16.107	3.1818	0.	-1757.6
17801	16.107	3.2727	5.e-002	-4.9082
17802	16.382	3.2727	0.	-1689.9
17803	16.29	3.1818	0.	-1712.3
17804	16.29	3.2727	5.e-002	-4.84
17805	16.565	3.2727	0.	-1645.2
17806	16.474	3.1818	0.	-1667.4
17807	16.474	3.2727	5.e-002	-4.7804
17808	16.749	3.2727	0.	-1600.8
17809	16.657	3.1818	0.	-1622.8
17810	16.657	3.2727	5.e-002	-4.7277
17811	16.933	3.2727	0.	-1556.6
17812	16.841	3.1818	0.	-1578.5
17813	16.841	3.2727	5.e-002	-4.6807
17814	17.116	3.2727	0.	-1512.8
17815	17.024	3.1818	0.	-1534.6
17816	17.024	3.2727	5.e-002	-4.6383
17817	17.3	3.2727	0.	-1469.1
17818	17.208	3.1818	0.	-1490.8
17819	17.208	3.2727	5.e-002	-4.5998
17820	17.483	3.2727	0.	-1425.7
17821	17.392	3.1818	0.	-1447.3
17822	17.392	3.2727	5.e-002	-4.5645
17823	17.667	3.2727	0.	-1382.5
17824	17.575	3.1818	0.	-1404.
17825	17.575	3.2727	5.e-002	-4.5319
17826	17.85	3.2727	0.	-1339.5
17827	17.759	3.1818	0.	-1360.9
17828	17.759	3.2727	5.e-002	-4.5016
17829	18.034	3.2727	0.	-1296.8
17830	17.942	3.1818	0.	-1318.
17831	17.942	3.2727	5.e-002	-4.4733
17832	18.218	3.2727	0.	-1254.2
17833	18.126	3.1818	0.	-1275.4
17834	18.126	3.2727	5.e-002	-4.4468
17835	18.401	3.2727	0.	-1211.8
17836	18.309	3.1818	0.	-1232.9
17837	18.309	3.2727	5.e-002	-4.4218
17838	18.585	3.2727	0.	-1169.6
17839	18.493	3.1818	0.	-1190.6
17840	18.493	3.2727	5.e-002	-4.3982
17841	18.768	3.2727	0.	-1127.6
17842	18.677	3.1818	0.	-1148.5
17843	18.677	3.2727	5.e-002	-4.3759
17844	18.952	3.2727	0.	-1085.8
17845	18.86	3.1818	0.	-1106.6
17846	18.86	3.2727	5.e-002	-4.3547
17847	19.135	3.2727	0.	-1044.2
17848	19.044	3.1818	0.	-1064.9
17849	19.044	3.2727	5.e-002	-4.3347
17850	19.319	3.2727	0.	-1002.8
17851	19.227	3.1818	0.	-1023.4
17852	19.227	3.2727	5.e-002	-4.3158
17853	19.503	3.2727	0.	-961.64
17854	19.411	3.1818	0.	-982.15
17855	19.411	3.2727	5.e-002	-4.298
17856	19.686	3.2727	0.	-920.65
17857	19.594	3.1818	0.	-941.06
17858	19.594	3.2727	5.e-002	-4.2813
17859	19.87	3.2727	0.	-879.86
17860	19.778	3.1818	0.	-900.17
17861	19.778	3.2727	5.e-002	-4.2657
17862	20.053	3.2727	0.	-839.26
17863	19.962	3.1818	0.	-859.48
17864	19.962	3.2727	5.e-002	-4.2513
17865	20.237	3.2727	0.	-798.87
17866	20.145	3.1818	0.	-819.
17867	20.145	3.2727	5.e-002	-4.2381
17868	20.42	3.2727	0.	-758.69
17869	20.329	3.1818	0.	-778.72
17870	20.329	3.2727	5.e-002	-4.2261
17871	20.604	3.2727	0.	-718.7
17872	20.512	3.1818	0.	-738.63
17873	20.512	3.2727	5.e-002	-4.2155
17874	20.788	3.2727	0.	-678.9
17875	20.696	3.1818	0.	-698.75
17876	20.696	3.2727	5.e-002	-4.2065
17877	20.971	3.2727	0.	-639.31
17878	20.879	3.1818	0.	-659.06
17879	20.879	3.2727	5.e-002	-4.199
17880	21.155	3.2727	0.	-599.9
17881	21.063	3.1818	0.	-619.57
17882	21.063	3.2727	5.e-002	-4.1934
17883	21.338	3.2727	0.	-560.67
17884	21.246	3.1818	0.	-580.26
17885	21.246	3.2727	5.e-002	-4.1897
17886	21.522	3.2727	0.	-521.62
17887	21.43	3.1818	0.	-541.13
17888	21.43	3.2727	5.e-002	-4.1883
17889	21.705	3.2727	0.	-482.72
17890	21.614	3.1818	0.	-502.16
17891	21.614	3.2727	5.e-002	-4.1892
17892	21.889	3.2727	0.	-443.98
17893	21.797	3.1818	0.	-463.35
17894	21.797	3.2727	5.e-002	-4.1929
17895	22.073	3.2727	0.	-405.36
17896	21.981	3.1818	0.	-424.68
17897	21.981	3.2727	5.e-002	-4.1996
17898	22.256	3.2727	0.	-366.85
17899	22.164	3.1818	0.	-386.12
17900	22.164	3.2727	5.e-002	-4.2095
17901	22.44	3.2727	0.	-328.42
17902	22.348	3.1818	0.	-347.66
17903	22.348	3.2727	5.e-002	-4.223
17904	22.623	3.2727	0.	-290.04
17905	22.531	3.1818	0.	-309.26
17906	22.531	3.2727	5.e-002	-4.2404
17907	22.807	3.2727	0.	-251.68
17908	22.715	3.1818	0.	-270.9
17909	22.715	3.2727	5.e-002	-4.2619
17910	22.99	3.2727	0.	-213.29
17911	22.899	3.1818	0.	-232.53
17912	22.899	3.2727	5.e-002	-4.2877
17913	23.174	3.2727	0.	-174.84
17914	23.082	3.1818	0.	-194.12
17915	23.082	3.2727	5.e-002	-4.3179
17916	23.358	3.2727	0.	-136.3
17917	23.266	3.1818	0.	-155.62
17918	23.266	3.2727	5.e-002	-4.3525
17919	23.541	3.2727	0.	-97.617
17920	23.449	3.1818	0.	-117.01
17921	23.449	3.2727	5.e-002	-4.3911
17922	23.725	3.2727	0.	-58.827
17923	23.633	3.1818	0.	-78.249
17924	23.633	3.2727	5.e-002	-4.4337
17925	23.816	3.1818	0.	-39.486
17926	23.816	3.2727	5.e-002	-4.4858
17927	23.908	3.2727	0.	-22.218
17928	11.242	3.0909	0.	-6434.5
17929	11.15	3.	0.	-6697.5
17930	11.15	3.0909	5.e-002	-33.544
17931	11.426	3.0909	0.	-5867.7
17932	11.334	3.	0.	-6165.6
17933	11.334	3.0909	5.e-002	-45.621
17934	11.609	3.0909	0.	-5278.3
17935	11.517	3.	0.	-5562.2
17936	11.517	3.0909	5.e-002	-48.781
17937	11.793	3.0909	0.	-4740.
17938	11.701	3.	0.	-4987.4
17939	11.701	3.0909	5.e-002	-45.919
17940	11.976	3.0909	0.	-4281.2
17941	11.885	3.	0.	-4487.5
17942	11.885	3.0909	5.e-002	-40.427
17943	12.16	3.0909	0.	-3903.
17944	12.068	3.	0.	-4071.7
17945	12.068	3.0909	5.e-002	-34.435
17946	12.343	3.0909	0.	-3595.1
17947	12.252	3.	0.	-3732.4
17948	12.252	3.0909	5.e-002	-28.931
17949	12.527	3.0909	0.	-3344.8
17950	12.435	3.	0.	-3456.8
17951	12.435	3.0909	5.e-002	-24.242
17952	12.711	3.0909	0.	-3140.
17953	12.619	3.	0.	-3232.2
17954	12.619	3.0909	5.e-002	-20.39
17955	12.894	3.0909	0.	-2970.9
17956	12.802	3.	0.	-3047.5
17957	12.802	3.0909	5.e-002	-17.281
17958	13.078	3.0909	0.	-2829.4
17959	12.986	3.	0.	-2894.1
17960	12.986	3.0909	5.e-002	-14.792
17961	13.261	3.0909	0.	-2709.4
17962	13.169	3.	0.	-2764.7
17963	13.169	3.0909	5.e-002	-12.805
17964	13.445	3.0909	0.	-2606.1
17965	13.353	3.	0.	-2654.1
17966	13.353	3.0909	5.e-002	-11.22
17967	13.628	3.0909	0.	-2515.7
17968	13.537	3.	0.	-2558.1
17969	13.537	3.0909	5.e-002	-9.9551
17970	13.812	3.0909	0.	-2435.3
17971	13.72	3.	0.	-2473.3
17972	13.72	3.0909	5.e-002	-8.9433
17973	13.996	3.0909	0.	-2362.8
17974	13.904	3.	0.	-2397.3
17975	13.904	3.0909	5.e-002	-8.1324
17976	14.179	3.0909	0.	-2296.4
17977	14.087	3.	0.	-2328.2
17978	14.087	3.0909	5.e-002	-7.4808
17979	14.363	3.0909	0.	-2234.7
17980	14.271	3.	0.	-2264.5
17981	14.271	3.0909	5.e-002	-6.9558
17982	14.546	3.0909	0.	-2176.8
17983	14.454	3.	0.	-2204.9
17984	14.454	3.0909	5.e-002	-6.5313
17985	14.73	3.0909	0.	-2121.8
17986	14.638	3.	0.	-2148.6
17987	14.638	3.0909	5.e-002	-6.1868
17988	14.913	3.0909	0.	-2069.1
17989	14.822	3.	0.	-2094.9
17990	14.822	3.0909	5.e-002	-5.906
17991	15.097	3.0909	0.	-2018.2
17992	15.005	3.	0.	-2043.2
17993	15.005	3.0909	5.e-002	-5.676
17994	15.281	3.0909	0.	-1968.7
17995	15.189	3.	0.	-1993.1
17996	15.189	3.0909	5.e-002	-5.4866
17997	15.464	3.0909	0.	-1920.4
17998	15.372	3.	0.	-1944.3
17999	15.372	3.0909	5.e-002	-5.3296
18000	15.648	3.0909	0.	-1873.
18001	15.556	3.	0.	-1896.5
18002	15.556	3.0909	5.e-002	-5.1985
18003	15.831	3.0909	0.	-1826.4
18004	15.739	3.	0.	-1849.5
18005	15.739	3.0909	5.e-002	-5.0882
18006	16.015	3.0909	0.	-1780.4
18007	15.923	3.	0.	-1803.2
18008	15.923	3.0909	5.e-002	-4.9946
18009	16.198	3.0909	0.	-1734.8
18010	16.107	3.	0.	-1757.5
18011	16.107	3.0909	5.e-002	-4.9144
18012	16.382	3.0909	0.	-1689.7
18013	16.29	3.	0.	-1712.2
18014	16.29	3.0909	5.e-002	-4.845
18015	16.565	3.0909	0.	-1645.
18016	16.474	3.	0.	-1667.3
18017	16.474	3.0909	5.e-002	-4.7844
18018	16.749	3.0909	0.	-1600.6
18019	16.657	3.	0.	-1622.7
18020	16.657	3.0909	5.e-002	-4.731
18021	16.933	3.0909	0.	-1556.5
18022	16.841	3.	0.	-1578.5
18023	16.841	3.0909	5.e-002	-4.6834
18024	17.116	3.0909	0.	-1512.6
18025	17.024	3.	0.	-1534.5
18026	17.024	3.0909	5.e-002	-4.6405
18027	17.3	3.0909	0.	-1469.
18028	17.208	3.	0.	-1490.7
18029	17.208	3.0909	5.e-002	-4.6017
18030	17.483	3.0909	0.	-1425.6
18031	17.392	3.	0.	-1447.2
18032	17.392	3.0909	5.e-002	-4.5661
18033	17.667	3.0909	0.	-1382.4
18034	17.575	3.	0.	-1403.9
18035	17.575	3.0909	5.e-002	-4.5332
18036	17.85	3.0909	0.	-1339.4
18037	17.759	3.	0.	-1360.8
18038	17.759	3.0909	5.e-002	-4.5027
18039	18.034	3.0909	0.	-1296.6
18040	17.942	3.	0.	-1318.
18041	17.942	3.0909	5.e-002	-4.4743
18042	18.218	3.0909	0.	-1254.1
18043	18.126	3.	0.	-1275.3
18044	18.126	3.0909	5.e-002	-4.4476
18045	18.401	3.0909	0.	-1211.7
18046	18.309	3.	0.	-1232.8
18047	18.309	3.0909	5.e-002	-4.4226
18048	18.585	3.0909	0.	-1169.5
18049	18.493	3.	0.	-1190.5
18050	18.493	3.0909	5.e-002	-4.3989
18051	18.768	3.0909	0.	-1127.5
18052	18.677	3.	0.	-1148.5
18053	18.677	3.0909	5.e-002	-4.3765
18054	18.952	3.0909	0.	-1085.8
18055	18.86	3.	0.	-1106.6
18056	18.86	3.0909	5.e-002	-4.3553
18057	19.135	3.0909	0.	-1044.2
18058	19.044	3.	0.	-1064.9
18059	19.044	3.0909	5.e-002	-4.3353
18060	19.319	3.0909	0.	-1002.8
18061	19.227	3.	0.	-1023.4
18062	19.227	3.0909	5.e-002	-4.3164
18063	19.503	3.0909	0.	-961.6
18064	19.411	3.	0.	-982.12
18065	19.411	3.0909	5.e-002	-4.2985
18066	19.686	3.0909	0.	-920.61
18067	19.594	3.	0.	-941.04
18068	19.594	3.0909	5.e-002	-4.2818
18069	19.87	3.0909	0.	-879.83
18070	19.778	3.	0.	-900.16
18071	19.778	3.0909	5.e-002	-4.2663
18072	20.053	3.0909	0.	-839.25
18073	19.962	3.	0.	-859.47
18074	19.962	3.0909	5.e-002	-4.2518
18075	20.237	3.0909	0.	-798.87
18076	20.145	3.	0.	-819.
18077	20.145	3.0909	5.e-002	-4.2386
18078	20.42	3.0909	0.	-758.69
18079	20.329	3.	0.	-778.72
18080	20.329	3.0909	5.e-002	-4.2267
18081	20.604	3.0909	0.	-718.72
18082	20.512	3.	0.	-738.64
18083	20.512	3.0909	5.e-002	-4.2162
18084	20.788	3.0909	0.	-678.94
18085	20.696	3.	0.	-698.76
18086	20.696	3.0909	5.e-002	-4.2071
18087	20.971	3.0909	0.	-639.35
18088	20.879	3.	0.	-659.08
18089	20.879	3.0909	5.e-002	-4.1998
18090	21.155	3.0909	0.	-599.95
18091	21.063	3.	0.	-619.59
18092	21.063	3.0909	5.e-002	-4.1942
18093	21.338	3.0909	0.	-560.74
18094	21.246	3.	0.	-580.29
18095	21.246	3.0909	5.e-002	-4.1906
18096	21.522	3.0909	0.	-521.7
18097	21.43	3.	0.	-541.16
18098	21.43	3.0909	5.e-002	-4.1893
18099	21.705	3.0909	0.	-482.81
18100	21.614	3.	0.	-502.2
18101	21.614	3.0909	5.e-002	-4.1904
18102	21.889	3.0909	0.	-444.07
18103	21.797	3.	0.	-463.4
18104	21.797	3.0909	5.e-002	-4.1942
18105	22.073	3.0909	0.	-405.46
18106	21.981	3.	0.	-424.73
18107	21.981	3.0909	5.e-002	-4.2009
18108	22.256	3.0909	0.	-366.95
18109	22.164	3.	0.	-386.17
18110	22.164	3.0909	5.e-002	-4.211
18111	22.44	3.0909	0.	-328.52
18112	22.348	3.	0.	-347.71
18113	22.348	3.0909	5.e-002	-4.2246
18114	22.623	3.0909	0.	-290.13
18115	22.531	3.	0.	-309.31
18116	22.531	3.0909	5.e-002	-4.2421
18117	22.807	3.0909	0.	-251.76
18118	22.715	3.	0.	-270.94
18119	22.715	3.0909	5.e-002	-4.2637
18120	22.99	3.0909	0.	-213.36
18121	22.899	3.	0.	-232.57
18122	22.899	3.0909	5.e-002	-4.2894
18123	23.174	3.0909	0.	-174.9
18124	23.082	3.	0.	-194.15
18125	23.082	3.0909	5.e-002	-4.3195
18126	23.358	3.0909	0.	-136.34
18127	23.266	3.	0.	-155.65
18128	23.266	3.0909	5.e-002	-4.3539
18129	23.541	3.0909	0.	-97.637
18130	23.449	3.	0.	-117.03
18131	23.449	3.0909	5.e-002	-4.3922
18132	23.725	3.0909	0.	-58.828
18133	23.633	3.	0.	-78.254
18134	23.633	3.0909	5.e-002	-4.4342
18135	23.816	3.	0.	-39.481
18136	23.816	3.0909	5.e-002	-4.4842
18137	23.908	3.0909	0.	-22.211
18138	11.242	2.9091	0.	-6434.5
18139	11.15	2.8182	0.	-6775.5
18140	11.15	2.9091	5.e-002	-33.544
18141	11.426	2.9091	0.	-5867.7
18142	11.334	2.8182	0.	-6195.1
18143	11.334	2.9091	5.e-002	-45.621
18144	11.609	2.9091	0.	-5278.3
18145	11.517	2.8182	0.	-5557.
18146	11.517	2.9091	5.e-002	-48.781
18147	11.793	2.9091	0.	-4740.
18148	11.701	2.8182	0.	-4966.6
18149	11.701	2.9091	5.e-002	-45.919
18150	11.976	2.9091	0.	-4281.2
18151	11.885	2.8182	0.	-4463.2
18152	11.885	2.9091	5.e-002	-40.427
18153	12.16	2.9091	0.	-3903.
18154	12.068	2.8182	0.	-4049.4
18155	12.068	2.9091	5.e-002	-34.435
18156	12.343	2.9091	0.	-3595.1
18157	12.252	2.8182	0.	-3713.9
18158	12.252	2.9091	5.e-002	-28.931
18159	12.527	2.9091	0.	-3344.8
18160	12.435	2.8182	0.	-3442.1
18161	12.435	2.9091	5.e-002	-24.242
18162	12.711	2.9091	0.	-3140.
18163	12.619	2.8182	0.	-3220.8
18164	12.619	2.9091	5.e-002	-20.39
18165	12.894	2.9091	0.	-2970.9
18166	12.802	2.8182	0.	-3038.9
18167	12.802	2.9091	5.e-002	-17.281
18168	13.078	2.9091	0.	-2829.4
18169	12.986	2.8182	0.	-2887.6
18170	12.986	2.9091	5.e-002	-14.792
18171	13.261	2.9091	0.	-2709.4
18172	13.169	2.8182	0.	-2759.9
18173	13.169	2.9091	5.e-002	-12.805
18174	13.445	2.9091	0.	-2606.1
18175	13.353	2.8182	0.	-2650.5
18176	13.353	2.9091	5.e-002	-11.22
18177	13.628	2.9091	0.	-2515.7
18178	13.537	2.8182	0.	-2555.4
18179	13.537	2.9091	5.e-002	-9.9551
18180	13.812	2.9091	0.	-2435.3
18181	13.72	2.8182	0.	-2471.3
18182	13.72	2.9091	5.e-002	-8.9433
18183	13.996	2.9091	0.	-2362.8
18184	13.904	2.8182	0.	-2395.9
18185	13.904	2.9091	5.e-002	-8.1324
18186	14.179	2.9091	0.	-2296.4
18187	14.087	2.8182	0.	-2327.2
18188	14.087	2.9091	5.e-002	-7.4808
18189	14.363	2.9091	0.	-2234.7
18190	14.271	2.8182	0.	-2263.8
18191	14.271	2.9091	5.e-002	-6.9558
18192	14.546	2.9091	0.	-2176.8
18193	14.454	2.8182	0.	-2204.4
18194	14.454	2.9091	5.e-002	-6.5313
18195	14.73	2.9091	0.	-2121.8
18196	14.638	2.8182	0.	-2148.3
18197	14.638	2.9091	5.e-002	-6.1868
18198	14.913	2.9091	0.	-2069.1
18199	14.822	2.8182	0.	-2094.7
18200	14.822	2.9091	5.e-002	-5.906
18201	15.097	2.9091	0.	-2018.2
18202	15.005	2.8182	0.	-2043.1
18203	15.005	2.9091	5.e-002	-5.676
18204	15.281	2.9091	0.	-1968.7
18205	15.189	2.8182	0.	-1993.1
18206	15.189	2.9091	5.e-002	-5.4866
18207	15.464	2.9091	0.	-1920.4
18208	15.372	2.8182	0.	-1944.3
18209	15.372	2.9091	5.e-002	-5.3296
18210	15.648	2.9091	0.	-1873.
18211	15.556	2.8182	0.	-1896.5
18212	15.556	2.9091	5.e-002	-5.1985
18213	15.831	2.9091	0.	-1826.4
18214	15.739	2.8182	0.	-1849.6
18215	15.739	2.9091	5.e-002	-5.0882
18216	16.015	2.9091	0.	-1780.4
18217	15.923	2.8182	0.	-1803.3
18218	15.923	2.9091	5.e-002	-4.9946
18219	16.198	2.9091	0.	-1734.8
18220	16.107	2.8182	0.	-1757.6
18221	16.107	2.9091	5.e-002	-4.9144
18222	16.382	2.9091	0.	-1689.7
18223	16.29	2.8182	0.	-1712.3
18224	16.29	2.9091	5.e-002	-4.845
18225	16.565	2.9091	0.	-1645.
18226	16.474	2.8182	0.	-1667.4
18227	16.474	2.9091	5.e-002	-4.7844
18228	16.749	2.9091	0.	-1600.6
18229	16.657	2.8182	0.	-1622.8
18230	16.657	2.9091	5.e-002	-4.731
18231	16.933	2.9091	0.	-1556.5
18232	16.841	2.8182	0.	-1578.5
18233	16.841	2.9091	5.e-002	-4.6834
18234	17.116	2.9091	0.	-1512.6
18235	17.024	2.8182	0.	-1534.6
18236	17.024	2.9091	5.e-002	-4.6405
18237	17.3	2.9091	0.	-1469.
18238	17.208	2.8182	0.	-1490.8
18239	17.208	2.9091	5.e-002	-4.6017
18240	17.483	2.9091	0.	-1425.6
18241	17.392	2.8182	0.	-1447.3
18242	17.392	2.9091	5.e-002	-4.5661
18243	17.667	2.9091	0.	-1382.4
18244	17.575	2.8182	0.	-1404.
18245	17.575	2.9091	5.e-002	-4.5332
18246	17.85	2.9091	0.	-1339.4
18247	17.759	2.8182	0.	-1360.9
18248	17.759	2.9091	5.e-002	-4.5027
18249	18.034	2.9091	0.	-1296.6
18250	17.942	2.8182	0.	-1318.
18251	17.942	2.9091	5.e-002	-4.4743
18252	18.218	2.9091	0.	-1254.1
18253	18.126	2.8182	0.	-1275.4
18254	18.126	2.9091	5.e-002	-4.4477
18255	18.401	2.9091	0.	-1211.7
18256	18.309	2.8182	0.	-1232.9
18257	18.309	2.9091	5.e-002	-4.4226
18258	18.585	2.9091	0.	-1169.5
18259	18.493	2.8182	0.	-1190.6
18260	18.493	2.9091	5.e-002	-4.3989
18261	18.768	2.9091	0.	-1127.5
18262	18.677	2.8182	0.	-1148.5
18263	18.677	2.9091	5.e-002	-4.3765
18264	18.952	2.9091	0.	-1085.8
18265	18.86	2.8182	0.	-1106.6
18266	18.86	2.9091	5.e-002	-4.3553
18267	19.135	2.9091	0.	-1044.2
18268	19.044	2.8182	0.	-1064.9
18269	19.044	2.9091	5.e-002	-4.3353
18270	19.319	2.9091	0.	-1002.8
18271	19.227	2.8182	0.	-1023.4
18272	19.227	2.9091	5.e-002	-4.3164
18273	19.503	2.9091	0.	-961.6
18274	19.411	2.8182	0.	-982.15
18275	19.411	2.9091	5.e-002	-4.2985
18276	19.686	2.9091	0.	-920.61
18277	19.594	2.8182	0.	-941.06
18278	19.594	2.9091	5.e-002	-4.2818
18279	19.87	2.9091	0.	-879.83
18280	19.778	2.8182	0.	-900.17
18281	19.778	2.9091	5.e-002	-4.2663
18282	20.053	2.9091	0.	-839.25
18283	19.962	2.8182	0.	-859.48
18284	19.962	2.9091	5.e-002	-4.2518
18285	20.237	2.9091	0.	-798.87
18286	20.145	2.8182	0.	-819.
18287	20.145	2.9091	5.e-002	-4.2386
18288	20.42	2.9091	0.	-758.69
18289	20.329	2.8182	0.	-778.72
18290	20.329	2.9091	5.e-002	-4.2267
18291	20.604	2.9091	0.	-718.72
18292	20.512	2.8182	0.	-738.63
18293	20.512	2.9091	5.e-002	-4.2162
18294	20.788	2.9091	0.	-678.94
18295	20.696	2.8182	0.	-698.75
18296	20.696	2.9091	5.e-002	-4.2071
18297	20.971	2.9091	0.	-639.35
18298	20.879	2.8182	0.	-659.06
18299	20.879	2.9091	5.e-002	-4.1998
18300	21.155	2.9091	0.	-599.95
18301	21.063	2.8182	0.	-619.57
18302	21.063	2.9091	5.e-002	-4.1942
18303	21.338	2.9091	0.	-560.74
18304	21.246	2.8182	0.	-580.26
18305	21.246	2.9091	5.e-002	-4.1906
18306	21.522	2.9091	0.	-521.7
18307	21.43	2.8182	0.	-541.13
18308	21.43	2.9091	5.e-002	-4.1893
18309	21.705	2.9091	0.	-482.81
18310	21.614	2.8182	0.	-502.16
18311	21.614	2.9091	5.e-002	-4.1904
18312	21.889	2.9091	0.	-444.07
18313	21.797	2.8182	0.	-463.35
18314	21.797	2.9091	5.e-002	-4.1942
18315	22.073	2.9091	0.	-405.46
18316	21.981	2.8182	0.	-424.68
18317	21.981	2.9091	5.e-002	-4.2009
18318	22.256	2.9091	0.	-366.95
18319	22.164	2.8182	0.	-386.12
18320	22.164	2.9091	5.e-002	-4.211
18321	22.44	2.9091	0.	-328.52
18322	22.348	2.8182	0.	-347.66
18323	22.348	2.9091	5.e-002	-4.2246
18324	22.623	2.9091	0.	-290.13
18325	22.531	2.8182	0.	-309.26
18326	22.531	2.9091	5.e-002	-4.2421
18327	22.807	2.9091	0.	-251.76
18328	22.715	2.8182	0.	-270.9
18329	22.715	2.9091	5.e-002	-4.2637
18330	22.99	2.9091	0.	-213.36
18331	22.899	2.8182	0.	-232.53
18332	22.899	2.9091	5.e-002	-4.2894
18333	23.174	2.9091	0.	-174.9
18334	23.082	2.8182	0.	-194.12
18335	23.082	2.9091	5.e-002	-4.3195
18336	23.358	2.9091	0.	-136.34
18337	23.266	2.8182	0.	-155.62
18338	23.266	2.9091	5.e-002	-4.3539
18339	23.541	2.9091	0.	-97.637
18340	23.449	2.8182	0.	-117.01
18341	23.449	2.9091	5.e-002	-4.3922
18342	23.725	2.9091	0.	-58.828
18343	23.633	2.8182	0.	-78.249
18344	23.633	2.9091	5.e-002	-4.4342
18345	23.816	2.8182	0.	-39.486
18346	23.816	2.9091	5.e-002	-4.4842
18347	23.908	2.9091	0.	-22.211
18348	11.242	2.7273	0.	-6542.4
18349	11.15	2.6364	0.	-7016.6
18350	11.15	2.7273	5.e-002	-42.882
18351	11.426	2.7273	0.	-5892.7
18352	11.334	2.6364	0.	-6271.
18353	11.334	2.7273	5.e-002	-54.323
18354	11.609	2.7273	0.	-5252.5
18355	11.517	2.6364	0.	-5527.8
18356	11.517	2.7273	5.e-002	-53.685
18357	11.793	2.7273	0.	-4694.8
18358	11.701	2.6364	0.	-4897.
18359	11.701	2.7273	5.e-002	-47.651
18360	11.976	2.7273	0.	-4234.4
18361	11.885	2.6364	0.	-4387.9
18362	11.885	2.7273	5.e-002	-40.541
18363	12.16	2.7273	0.	-3862.
18364	12.068	2.6364	0.	-3982.4
18365	12.068	2.7273	5.e-002	-33.938
18366	12.343	2.7273	0.	-3561.8
18367	12.252	2.6364	0.	-3658.9
18368	12.252	2.7273	5.e-002	-28.308
18369	12.527	2.7273	0.	-3318.7
18370	12.435	2.6364	0.	-3398.9
18371	12.435	2.7273	5.e-002	-23.677
18372	12.711	2.7273	0.	-3120.1
18373	12.619	2.6364	0.	-3187.6
18374	12.619	2.7273	5.e-002	-19.93
18375	12.894	2.7273	0.	-2955.8
18376	12.802	2.6364	0.	-3013.6
18377	12.802	2.7273	5.e-002	-16.923
18378	13.078	2.7273	0.	-2818.1
18379	12.986	2.6364	0.	-2868.5
18380	12.986	2.7273	5.e-002	-14.517
18381	13.261	2.7273	0.	-2701.
18382	13.169	2.6364	0.	-2745.6
18383	13.169	2.7273	5.e-002	-12.594
18384	13.445	2.7273	0.	-2599.8
18385	13.353	2.6364	0.	-2639.9
18386	13.353	2.7273	5.e-002	-11.058
18387	13.628	2.7273	0.	-2511.1
18388	13.537	2.6364	0.	-2547.5
18389	13.537	2.7273	5.e-002	-9.8289
18390	13.812	2.7273	0.	-2431.9
18391	13.72	2.6364	0.	-2465.6
18392	13.72	2.7273	5.e-002	-8.8443
18393	13.996	2.7273	0.	-2360.4
18394	13.904	2.6364	0.	-2391.7
18395	13.904	2.7273	5.e-002	-8.0539
18396	14.179	2.7273	0.	-2294.6
18397	14.087	2.6364	0.	-2324.2
18398	14.087	2.7273	5.e-002	-7.4182
18399	14.363	2.7273	0.	-2233.5
18400	14.271	2.6364	0.	-2261.6
18401	14.271	2.7273	5.e-002	-6.9054
18402	14.546	2.7273	0.	-2175.9
18403	14.454	2.6364	0.	-2202.9
18404	14.454	2.7273	5.e-002	-6.4907
18405	14.73	2.7273	0.	-2121.2
18406	14.638	2.6364	0.	-2147.3
18407	14.638	2.7273	5.e-002	-6.1539
18408	14.913	2.7273	0.	-2068.7
18409	14.822	2.6364	0.	-2094.1
18410	14.822	2.7273	5.e-002	-5.8793
18411	15.097	2.7273	0.	-2018.
18412	15.005	2.6364	0.	-2042.7
18413	15.005	2.7273	5.e-002	-5.6544
18414	15.281	2.7273	0.	-1968.7
18415	15.189	2.6364	0.	-1992.9
18416	15.189	2.7273	5.e-002	-5.469
18417	15.464	2.7273	0.	-1920.4
18418	15.372	2.6364	0.	-1944.3
18419	15.372	2.7273	5.e-002	-5.3154
18420	15.648	2.7273	0.	-1873.1
18421	15.556	2.6364	0.	-1896.6
18422	15.556	2.7273	5.e-002	-5.187
18423	15.831	2.7273	0.	-1826.5
18424	15.739	2.6364	0.	-1849.7
18425	15.739	2.7273	5.e-002	-5.0788
18426	16.015	2.7273	0.	-1780.5
18427	15.923	2.6364	0.	-1803.5
18428	15.923	2.7273	5.e-002	-4.987
18429	16.198	2.7273	0.	-1735.
18430	16.107	2.6364	0.	-1757.8
18431	16.107	2.7273	5.e-002	-4.9082
18432	16.382	2.7273	0.	-1689.9
18433	16.29	2.6364	0.	-1712.5
18434	16.29	2.7273	5.e-002	-4.84
18435	16.565	2.7273	0.	-1645.2
18436	16.474	2.6364	0.	-1667.6
18437	16.474	2.7273	5.e-002	-4.7804
18438	16.749	2.7273	0.	-1600.8
18439	16.657	2.6364	0.	-1623.1
18440	16.657	2.7273	5.e-002	-4.7277
18441	16.933	2.7273	0.	-1556.6
18442	16.841	2.6364	0.	-1578.8
18443	16.841	2.7273	5.e-002	-4.6806
18444	17.116	2.7273	0.	-1512.8
18445	17.024	2.6364	0.	-1534.8
18446	17.024	2.7273	5.e-002	-4.6383
18447	17.3	2.7273	0.	-1469.1
18448	17.208	2.6364	0.	-1491.
18449	17.208	2.7273	5.e-002	-4.5998
18450	17.483	2.7273	0.	-1425.7
18451	17.392	2.6364	0.	-1447.5
18452	17.392	2.7273	5.e-002	-4.5645
18453	17.667	2.7273	0.	-1382.5
18454	17.575	2.6364	0.	-1404.2
18455	17.575	2.7273	5.e-002	-4.5319
18456	17.85	2.7273	0.	-1339.5
18457	17.759	2.6364	0.	-1361.1
18458	17.759	2.7273	5.e-002	-4.5016
18459	18.034	2.7273	0.	-1296.8
18460	17.942	2.6364	0.	-1318.2
18461	17.942	2.7273	5.e-002	-4.4733
18462	18.218	2.7273	0.	-1254.2
18463	18.126	2.6364	0.	-1275.5
18464	18.126	2.7273	5.e-002	-4.4468
18465	18.401	2.7273	0.	-1211.8
18466	18.309	2.6364	0.	-1233.
18467	18.309	2.7273	5.e-002	-4.4218
18468	18.585	2.7273	0.	-1169.6
18469	18.493	2.6364	0.	-1190.7
18470	18.493	2.7273	5.e-002	-4.3982
18471	18.768	2.7273	0.	-1127.6
18472	18.677	2.6364	0.	-1148.6
18473	18.677	2.7273	5.e-002	-4.3759
18474	18.952	2.7273	0.	-1085.8
18475	18.86	2.6364	0.	-1106.7
18476	18.86	2.7273	5.e-002	-4.3547
18477	19.135	2.7273	0.	-1044.2
18478	19.044	2.6364	0.	-1065.
18479	19.044	2.7273	5.e-002	-4.3347
18480	19.319	2.7273	0.	-1002.8
18481	19.227	2.6364	0.	-1023.5
18482	19.227	2.7273	5.e-002	-4.3158
18483	19.503	2.7273	0.	-961.64
18484	19.411	2.6364	0.	-982.23
18485	19.411	2.7273	5.e-002	-4.298
18486	19.686	2.7273	0.	-920.65
18487	19.594	2.6364	0.	-941.12
18488	19.594	2.7273	5.e-002	-4.2813
18489	19.87	2.7273	0.	-879.86
18490	19.778	2.6364	0.	-900.22
18491	19.778	2.7273	5.e-002	-4.2657
18492	20.053	2.7273	0.	-839.26
18493	19.962	2.6364	0.	-859.52
18494	19.962	2.7273	5.e-002	-4.2513
18495	20.237	2.7273	0.	-798.87
18496	20.145	2.6364	0.	-819.01
18497	20.145	2.7273	5.e-002	-4.238
18498	20.42	2.7273	0.	-758.69
18499	20.329	2.6364	0.	-778.71
18500	20.329	2.7273	5.e-002	-4.2261
18501	20.604	2.7273	0.	-718.7
18502	20.512	2.6364	0.	-738.61
18503	20.512	2.7273	5.e-002	-4.2155
18504	20.788	2.7273	0.	-678.9
18505	20.696	2.6364	0.	-698.71
18506	20.696	2.7273	5.e-002	-4.2065
18507	20.971	2.7273	0.	-639.31
18508	20.879	2.6364	0.	-659.01
18509	20.879	2.7273	5.e-002	-4.199
18510	21.155	2.7273	0.	-599.9
18511	21.063	2.6364	0.	-619.49
18512	21.063	2.7273	5.e-002	-4.1934
18513	21.338	2.7273	0.	-560.67
18514	21.246	2.6364	0.	-580.17
18515	21.246	2.7273	5.e-002	-4.1897
18516	21.522	2.7273	0.	-521.62
18517	21.43	2.6364	0.	-541.02
18518	21.43	2.7273	5.e-002	-4.1883
18519	21.705	2.7273	0.	-482.72
18520	21.614	2.6364	0.	-502.04
18521	21.614	2.7273	5.e-002	-4.1893
18522	21.889	2.7273	0.	-443.98
18523	21.797	2.6364	0.	-463.21
18524	21.797	2.7273	5.e-002	-4.1929
18525	22.073	2.7273	0.	-405.36
18526	21.981	2.6364	0.	-424.53
18527	21.981	2.7273	5.e-002	-4.1996
18528	22.256	2.7273	0.	-366.85
18529	22.164	2.6364	0.	-385.97
18530	22.164	2.7273	5.e-002	-4.2095
18531	22.44	2.7273	0.	-328.42
18532	22.348	2.6364	0.	-347.51
18533	22.348	2.7273	5.e-002	-4.223
18534	22.623	2.7273	0.	-290.04
18535	22.531	2.6364	0.	-309.12
18536	22.531	2.7273	5.e-002	-4.2404
18537	22.807	2.7273	0.	-251.68
18538	22.715	2.6364	0.	-270.76
18539	22.715	2.7273	5.e-002	-4.2619
18540	22.99	2.7273	0.	-213.29
18541	22.899	2.6364	0.	-232.41
18542	22.899	2.7273	5.e-002	-4.2877
18543	23.174	2.7273	0.	-174.84
18544	23.082	2.6364	0.	-194.02
18545	23.082	2.7273	5.e-002	-4.3179
18546	23.358	2.7273	0.	-136.3
18547	23.266	2.6364	0.	-155.55
18548	23.266	2.7273	5.e-002	-4.3525
18549	23.541	2.7273	0.	-97.617
18550	23.449	2.6364	0.	-116.97
18551	23.449	2.7273	5.e-002	-4.3911
18552	23.725	2.7273	0.	-58.827
18553	23.633	2.6364	0.	-78.233
18554	23.633	2.7273	5.e-002	-4.4337
18555	23.816	2.6364	0.	-39.5
18556	23.816	2.7273	5.e-002	-4.4858
18557	23.908	2.7273	0.	-22.218
18558	11.242	2.5455	0.	-6753.4
18559	11.15	2.4545	0.	-7457.1
18560	11.15	2.5455	5.e-002	-70.001
18561	11.426	2.5455	0.	-5916.5
18562	11.334	2.4545	0.	-6334.2
18563	11.334	2.5455	5.e-002	-74.378
18564	11.609	2.5455	0.	-5179.8
18565	11.517	2.4545	0.	-5431.6
18566	11.517	2.5455	5.e-002	-61.853
18567	11.793	2.5455	0.	-4594.5
18568	11.701	2.4545	0.	-4759.7
18569	11.701	2.5455	5.e-002	-49.918
18570	11.976	2.5455	0.	-4138.2
18571	11.885	2.4545	0.	-4256.4
18572	11.885	2.5455	5.e-002	-40.147
18573	12.16	2.5455	0.	-3780.5
18574	12.068	2.4545	0.	-3871.
18575	12.068	2.5455	5.e-002	-32.733
18576	12.343	2.5455	0.	-3496.6
18577	12.252	2.4545	0.	-3569.7
18578	12.252	2.5455	5.e-002	-27.039
18579	12.527	2.5455	0.	-3268.
18580	12.435	2.4545	0.	-3329.3
18581	12.435	2.5455	5.e-002	-22.582
18582	12.711	2.5455	0.	-3081.3
18583	12.619	2.4545	0.	-3134.2
18584	12.619	2.5455	5.e-002	-19.052
18585	12.894	2.5455	0.	-2926.4
18586	12.802	2.4545	0.	-2973.1
18587	12.802	2.5455	5.e-002	-16.239
18588	13.078	2.5455	0.	-2796.
18589	12.986	2.4545	0.	-2837.9
18590	12.986	2.5455	5.e-002	-13.989
18591	13.261	2.5455	0.	-2684.5
18592	13.169	2.4545	0.	-2722.6
18593	13.169	2.5455	5.e-002	-12.187
18594	13.445	2.5455	0.	-2587.6
18595	13.353	2.4545	0.	-2622.7
18596	13.353	2.5455	5.e-002	-10.742
18597	13.628	2.5455	0.	-2502.
18598	13.537	2.4545	0.	-2534.8
18599	13.537	2.5455	5.e-002	-9.5819
18600	13.812	2.5455	0.	-2425.3
18601	13.72	2.4545	0.	-2456.2
18602	13.72	2.5455	5.e-002	-8.6493
18603	13.996	2.5455	0.	-2355.6
18604	13.904	2.4545	0.	-2384.9
18605	13.904	2.5455	5.e-002	-7.8987
18606	14.179	2.5455	0.	-2291.2
18607	14.087	2.4545	0.	-2319.3
18608	14.087	2.5455	5.e-002	-7.2939
18609	14.363	2.5455	0.	-2231.1
18610	14.271	2.4545	0.	-2258.1
18611	14.271	2.5455	5.e-002	-6.8053
18612	14.546	2.5455	0.	-2174.3
18613	14.454	2.4545	0.	-2200.5
18614	14.454	2.5455	5.e-002	-6.4098
18615	14.73	2.5455	0.	-2120.2
18616	14.638	2.4545	0.	-2145.7
18617	14.638	2.5455	5.e-002	-6.0884
18618	14.913	2.5455	0.	-2068.1
18619	14.822	2.4545	0.	-2093.1
18620	14.822	2.5455	5.e-002	-5.8262
18621	15.097	2.5455	0.	-2017.7
18622	15.005	2.4545	0.	-2042.2
18623	15.005	2.5455	5.e-002	-5.6113
18624	15.281	2.5455	0.	-1968.5
18625	15.189	2.4545	0.	-1992.7
18626	15.189	2.5455	5.e-002	-5.4341
18627	15.464	2.5455	0.	-1920.5
18628	15.372	2.4545	0.	-1944.3
18629	15.372	2.5455	5.e-002	-5.2871
18630	15.648	2.5455	0.	-1873.3
18631	15.556	2.4545	0.	-1896.8
18632	15.556	2.5455	5.e-002	-5.1641
18633	15.831	2.5455	0.	-1826.7
18634	15.739	2.4545	0.	-1850.
18635	15.739	2.5455	5.e-002	-5.0603
18636	16.015	2.5455	0.	-1780.8
18637	15.923	2.4545	0.	-1803.8
18638	15.923	2.5455	5.e-002	-4.972
18639	16.198	2.5455	0.	-1735.3
18640	16.107	2.4545	0.	-1758.2
18641	16.107	2.5455	5.e-002	-4.896
18642	16.382	2.5455	0.	-1690.2
18643	16.29	2.4545	0.	-1712.9
18644	16.29	2.5455	5.e-002	-4.8301
18645	16.565	2.5455	0.	-1645.5
18646	16.474	2.4545	0.	-1668.
18647	16.474	2.5455	5.e-002	-4.7723
18648	16.749	2.5455	0.	-1601.1
18649	16.657	2.4545	0.	-1623.5
18650	16.657	2.5455	5.e-002	-4.7211
18651	16.933	2.5455	0.	-1557.
18652	16.841	2.4545	0.	-1579.2
18653	16.841	2.5455	5.e-002	-4.6753
18654	17.116	2.5455	0.	-1513.1
18655	17.024	2.4545	0.	-1535.2
18656	17.024	2.5455	5.e-002	-4.6338
18657	17.3	2.5455	0.	-1469.4
18658	17.208	2.4545	0.	-1491.4
18659	17.208	2.5455	5.e-002	-4.5961
18660	17.483	2.5455	0.	-1426.
18661	17.392	2.4545	0.	-1447.9
18662	17.392	2.5455	5.e-002	-4.5614
18663	17.667	2.5455	0.	-1382.8
18664	17.575	2.4545	0.	-1404.6
18665	17.575	2.5455	5.e-002	-4.5293
18666	17.85	2.5455	0.	-1339.8
18667	17.759	2.4545	0.	-1361.4
18668	17.759	2.5455	5.e-002	-4.4994
18669	18.034	2.5455	0.	-1297.
18670	17.942	2.4545	0.	-1318.5
18671	17.942	2.5455	5.e-002	-4.4714
18672	18.218	2.5455	0.	-1254.4
18673	18.126	2.4545	0.	-1275.8
18674	18.126	2.5455	5.e-002	-4.4451
18675	18.401	2.5455	0.	-1212.
18676	18.309	2.4545	0.	-1233.3
18677	18.309	2.5455	5.e-002	-4.4203
18678	18.585	2.5455	0.	-1169.8
18679	18.493	2.4545	0.	-1191.
18680	18.493	2.5455	5.e-002	-4.3968
18681	18.768	2.5455	0.	-1127.8
18682	18.677	2.4545	0.	-1148.9
18683	18.677	2.5455	5.e-002	-4.3746
18684	18.952	2.5455	0.	-1086.
18685	18.86	2.4545	0.	-1106.9
18686	18.86	2.5455	5.e-002	-4.3536
18687	19.135	2.5455	0.	-1044.4
18688	19.044	2.4545	0.	-1065.2
18689	19.044	2.5455	5.e-002	-4.3336
18690	19.319	2.5455	0.	-1003.
18691	19.227	2.4545	0.	-1023.7
18692	19.227	2.5455	5.e-002	-4.3148
18693	19.503	2.5455	0.	-961.74
18694	19.411	2.4545	0.	-982.36
18695	19.411	2.5455	5.e-002	-4.297
18696	19.686	2.5455	0.	-920.72
18697	19.594	2.4545	0.	-941.23
18698	19.594	2.5455	5.e-002	-4.2803
18699	19.87	2.5455	0.	-879.91
18700	19.778	2.4545	0.	-900.3
18701	19.778	2.5455	5.e-002	-4.2647
18702	20.053	2.5455	0.	-839.3
18703	19.962	2.4545	0.	-859.57
18704	19.962	2.5455	5.e-002	-4.2502
18705	20.237	2.5455	0.	-798.88
18706	20.145	2.4545	0.	-819.04
18707	20.145	2.5455	5.e-002	-4.2369
18708	20.42	2.5455	0.	-758.67
18709	20.329	2.4545	0.	-778.71
18710	20.329	2.5455	5.e-002	-4.2249
18711	20.604	2.5455	0.	-718.66
18712	20.512	2.4545	0.	-738.58
18713	20.512	2.5455	5.e-002	-4.2143
18714	20.788	2.5455	0.	-678.84
18715	20.696	2.4545	0.	-698.65
18716	20.696	2.5455	5.e-002	-4.2051
18717	20.971	2.5455	0.	-639.22
18718	20.879	2.4545	0.	-658.92
18719	20.879	2.5455	5.e-002	-4.1976
18720	21.155	2.5455	0.	-599.79
18721	21.063	2.4545	0.	-619.37
18722	21.063	2.5455	5.e-002	-4.1918
18723	21.338	2.5455	0.	-560.54
18724	21.246	2.4545	0.	-580.01
18725	21.246	2.5455	5.e-002	-4.188
18726	21.522	2.5455	0.	-521.46
18727	21.43	2.4545	0.	-540.84
18728	21.43	2.5455	5.e-002	-4.1863
18729	21.705	2.5455	0.	-482.55
18730	21.614	2.4545	0.	-501.83
18731	21.614	2.5455	5.e-002	-4.187
18732	21.889	2.5455	0.	-443.79
18733	21.797	2.4545	0.	-462.99
18734	21.797	2.5455	5.e-002	-4.1905
18735	22.073	2.5455	0.	-405.16
18736	21.981	2.4545	0.	-424.29
18737	21.981	2.5455	5.e-002	-4.1969
18738	22.256	2.5455	0.	-366.65
18739	22.164	2.4545	0.	-385.72
18740	22.164	2.5455	5.e-002	-4.2065
18741	22.44	2.5455	0.	-328.22
18742	22.348	2.4545	0.	-347.26
18743	22.348	2.5455	5.e-002	-4.2198
18744	22.623	2.5455	0.	-289.85
18745	22.531	2.4545	0.	-308.87
18746	22.531	2.5455	5.e-002	-4.237
18747	22.807	2.5455	0.	-251.51
18748	22.715	2.4545	0.	-270.53
18749	22.715	2.5455	5.e-002	-4.2584
18750	22.99	2.5455	0.	-213.15
18751	22.899	2.4545	0.	-232.21
18752	22.899	2.5455	5.e-002	-4.2843
18753	23.174	2.5455	0.	-174.73
18754	23.082	2.4545	0.	-193.85
18755	23.082	2.5455	5.e-002	-4.3147
18756	23.358	2.5455	0.	-136.22
18757	23.266	2.4545	0.	-155.42
18758	23.266	2.5455	5.e-002	-4.3496
18759	23.541	2.5455	0.	-97.576
18760	23.449	2.4545	0.	-116.89
18761	23.449	2.5455	5.e-002	-4.3889
18762	23.725	2.5455	0.	-58.826
18763	23.633	2.4545	0.	-78.204
18764	23.633	2.5455	5.e-002	-4.4326
18765	23.816	2.4545	0.	-39.522
18766	23.816	2.5455	5.e-002	-4.489
18767	23.908	2.5455	0.	-22.231
18768	11.242	2.3636	0.	-7053.2
18769	11.15	2.2727	0.	-7946.5
18770	11.15	2.3636	5.e-002	-125.35
18771	11.426	2.3636	0.	-5863.4
18772	11.334	2.2727	0.	-6236.8
18773	11.334	2.3636	5.e-002	-99.226
18774	11.609	2.3636	0.	-5018.6
18775	11.517	2.2727	0.	-5205.2
18776	11.517	2.3636	5.e-002	-71.338
18777	11.793	2.3636	0.	-4424.6
18778	11.701	2.2727	0.	-4536.2
18779	11.701	2.3636	5.e-002	-50.167
18780	11.976	2.3636	0.	-3990.4
18781	11.885	2.2727	0.	-4066.7
18782	11.885	2.3636	5.e-002	-38.338
18783	12.16	2.3636	0.	-3660.6
18784	12.068	2.2727	0.	-3718.5
18785	12.068	2.3636	5.e-002	-30.643
18786	12.343	2.3636	0.	-3402.5
18787	12.252	2.2727	0.	-3450.2
18788	12.252	2.3636	5.e-002	-25.168
18789	12.527	2.3636	0.	-3195.5
18790	12.435	2.2727	0.	-3237.1
18791	12.435	2.3636	5.e-002	-21.045
18792	12.711	2.3636	0.	-3025.9
18793	12.619	2.2727	0.	-3063.6
18794	12.619	2.3636	5.e-002	-17.834
18795	12.894	2.3636	0.	-2884.5
18796	12.802	2.2727	0.	-2919.4
18797	12.802	2.3636	5.e-002	-15.287
18798	13.078	2.3636	0.	-2764.5
18799	12.986	2.2727	0.	-2797.3
18800	12.986	2.3636	5.e-002	-13.249
18801	13.261	2.3636	0.	-2660.9
18802	13.169	2.2727	0.	-2692.1
18803	13.169	2.3636	5.e-002	-11.609
18804	13.445	2.3636	0.	-2570.
18805	13.353	2.2727	0.	-2599.9
18806	13.353	2.3636	5.e-002	-10.288
18807	13.628	2.3636	0.	-2489.
18808	13.537	2.2727	0.	-2517.9
18809	13.537	2.3636	5.e-002	-9.2229
18810	13.812	2.3636	0.	-2415.8
18811	13.72	2.2727	0.	-2443.7
18812	13.72	2.3636	5.e-002	-8.3635
18813	13.996	2.3636	0.	-2348.6
18814	13.904	2.2727	0.	-2375.7
18815	13.904	2.3636	5.e-002	-7.6699
18816	14.179	2.3636	0.	-2286.2
18817	14.087	2.2727	0.	-2312.7
18818	14.087	2.3636	5.e-002	-7.1096
18819	14.363	2.3636	0.	-2227.6
18820	14.271	2.2727	0.	-2253.5
18821	14.271	2.3636	5.e-002	-6.6565
18822	14.546	2.3636	0.	-2171.9
18823	14.454	2.2727	0.	-2197.3
18824	14.454	2.3636	5.e-002	-6.2894
18825	14.73	2.3636	0.	-2118.6
18826	14.638	2.2727	0.	-2143.5
18827	14.638	2.3636	5.e-002	-5.9909
18828	14.913	2.3636	0.	-2067.2
18829	14.822	2.2727	0.	-2091.7
18830	14.822	2.3636	5.e-002	-5.7472
18831	15.097	2.3636	0.	-2017.2
18832	15.005	2.2727	0.	-2041.4
18833	15.005	2.3636	5.e-002	-5.5473
18834	15.281	2.3636	0.	-1968.4
18835	15.189	2.2727	0.	-1992.3
18836	15.189	2.3636	5.e-002	-5.3823
18837	15.464	2.3636	0.	-1920.5
18838	15.372	2.2727	0.	-1944.2
18839	15.372	2.3636	5.e-002	-5.2452
18840	15.648	2.3636	0.	-1873.5
18841	15.556	2.2727	0.	-1897.
18842	15.556	2.3636	5.e-002	-5.1302
18843	15.831	2.3636	0.	-1827.1
18844	15.739	2.2727	0.	-1850.3
18845	15.739	2.3636	5.e-002	-5.0329
18846	16.015	2.3636	0.	-1781.2
18847	15.923	2.2727	0.	-1804.3
18848	15.923	2.3636	5.e-002	-4.9498
18849	16.198	2.3636	0.	-1735.8
18850	16.107	2.2727	0.	-1758.7
18851	16.107	2.3636	5.e-002	-4.8781
18852	16.382	2.3636	0.	-1690.7
18853	16.29	2.2727	0.	-1713.5
18854	16.29	2.3636	5.e-002	-4.8156
18855	16.565	2.3636	0.	-1646.
18856	16.474	2.2727	0.	-1668.6
18857	16.474	2.3636	5.e-002	-4.7605
18858	16.749	2.3636	0.	-1601.6
18859	16.657	2.2727	0.	-1624.1
18860	16.657	2.3636	5.e-002	-4.7114
18861	16.933	2.3636	0.	-1557.5
18862	16.841	2.2727	0.	-1579.8
18863	16.841	2.3636	5.e-002	-4.6673
18864	17.116	2.3636	0.	-1513.6
18865	17.024	2.2727	0.	-1535.8
18866	17.024	2.3636	5.e-002	-4.6273
18867	17.3	2.3636	0.	-1469.9
18868	17.208	2.2727	0.	-1492.
18869	17.208	2.3636	5.e-002	-4.5907
18870	17.483	2.3636	0.	-1426.5
18871	17.392	2.2727	0.	-1448.4
18872	17.392	2.3636	5.e-002	-4.5568
18873	17.667	2.3636	0.	-1383.2
18874	17.575	2.2727	0.	-1405.1
18875	17.575	2.3636	5.e-002	-4.5254
18876	17.85	2.3636	0.	-1340.2
18877	17.759	2.2727	0.	-1361.9
18878	17.759	2.3636	5.e-002	-4.4961
18879	18.034	2.3636	0.	-1297.4
18880	17.942	2.2727	0.	-1319.
18881	17.942	2.3636	5.e-002	-4.4685
18882	18.218	2.3636	0.	-1254.7
18883	18.126	2.2727	0.	-1276.2
18884	18.126	2.3636	5.e-002	-4.4426
18885	18.401	2.3636	0.	-1212.3
18886	18.309	2.2727	0.	-1233.7
18887	18.309	2.3636	5.e-002	-4.4181
18888	18.585	2.3636	0.	-1170.1
18889	18.493	2.2727	0.	-1191.3
18890	18.493	2.3636	5.e-002	-4.3948
18891	18.768	2.3636	0.	-1128.1
18892	18.677	2.2727	0.	-1149.2
18893	18.677	2.3636	5.e-002	-4.3728
18894	18.952	2.3636	0.	-1086.2
18895	18.86	2.2727	0.	-1107.2
18896	18.86	2.3636	5.e-002	-4.3519
18897	19.135	2.3636	0.	-1044.6
18898	19.044	2.2727	0.	-1065.5
18899	19.044	2.3636	5.e-002	-4.332
18900	19.319	2.3636	0.	-1003.1
18901	19.227	2.2727	0.	-1023.9
18902	19.227	2.3636	5.e-002	-4.3132
18903	19.503	2.3636	0.	-961.89
18904	19.411	2.2727	0.	-982.56
18905	19.411	2.3636	5.e-002	-4.2955
18906	19.686	2.3636	0.	-920.84
18907	19.594	2.2727	0.	-941.39
18908	19.594	2.3636	5.e-002	-4.2788
18909	19.87	2.3636	0.	-879.99
18910	19.778	2.2727	0.	-900.43
18911	19.778	2.3636	5.e-002	-4.2632
18912	20.053	2.3636	0.	-839.35
18913	19.962	2.2727	0.	-859.66
18914	19.962	2.3636	5.e-002	-4.2487
18915	20.237	2.3636	0.	-798.9
18916	20.145	2.2727	0.	-819.09
18917	20.145	2.3636	5.e-002	-4.2353
18918	20.42	2.3636	0.	-758.65
18919	20.329	2.2727	0.	-778.72
18920	20.329	2.3636	5.e-002	-4.2232
18921	20.604	2.3636	0.	-718.61
18922	20.512	2.2727	0.	-738.55
18923	20.512	2.3636	5.e-002	-4.2125
18924	20.788	2.3636	0.	-678.75
18925	20.696	2.2727	0.	-698.58
18926	20.696	2.3636	5.e-002	-4.2031
18927	20.971	2.3636	0.	-639.1
18928	20.879	2.2727	0.	-658.8
18929	20.879	2.3636	5.e-002	-4.1954
18930	21.155	2.3636	0.	-599.63
18931	21.063	2.2727	0.	-619.21
18932	21.063	2.3636	5.e-002	-4.1894
18933	21.338	2.3636	0.	-560.34
18934	21.246	2.2727	0.	-579.81
18935	21.246	2.3636	5.e-002	-4.1853
18936	21.522	2.3636	0.	-521.24
18937	21.43	2.2727	0.	-540.6
18938	21.43	2.3636	5.e-002	-4.1833
18939	21.705	2.3636	0.	-482.3
18940	21.614	2.2727	0.	-501.56
18941	21.614	2.3636	5.e-002	-4.1837
18942	21.889	2.3636	0.	-443.51
18943	21.797	2.2727	0.	-462.68
18944	21.797	2.3636	5.e-002	-4.1868
18945	22.073	2.3636	0.	-404.87
18946	21.981	2.2727	0.	-423.96
18947	21.981	2.3636	5.e-002	-4.1928
18948	22.256	2.3636	0.	-366.35
18949	22.164	2.2727	0.	-385.37
18950	22.164	2.3636	5.e-002	-4.2021
18951	22.44	2.3636	0.	-327.92
18952	22.348	2.2727	0.	-346.9
18953	22.348	2.3636	5.e-002	-4.215
18954	22.623	2.3636	0.	-289.57
18955	22.531	2.2727	0.	-308.52
18956	22.531	2.3636	5.e-002	-4.2319
18957	22.807	2.3636	0.	-251.24
18958	22.715	2.2727	0.	-270.2
18959	22.715	2.3636	5.e-002	-4.2531
18960	22.99	2.3636	0.	-212.92
18961	22.899	2.2727	0.	-231.91
18962	22.899	2.3636	5.e-002	-4.279
18963	23.174	2.3636	0.	-174.55
18964	23.082	2.2727	0.	-193.61
18965	23.082	2.3636	5.e-002	-4.3097
18966	23.358	2.3636	0.	-136.1
18967	23.266	2.2727	0.	-155.24
18968	23.266	2.3636	5.e-002	-4.3453
18969	23.541	2.3636	0.	-97.512
18970	23.449	2.2727	0.	-116.78
18971	23.449	2.3636	5.e-002	-4.3856
18972	23.725	2.3636	0.	-58.821
18973	23.633	2.2727	0.	-78.16
18974	23.633	2.3636	5.e-002	-4.4309
18975	23.816	2.2727	0.	-39.551
18976	23.816	2.3636	5.e-002	-4.4938
18977	23.908	2.3636	0.	-22.251
18978	11.242	2.1818	0.	-7168.1
18979	11.15	2.0909	0.	-8009.6
18980	11.15	2.1818	5.e-002	-292.34
18981	11.426	2.1818	0.	-5593.5
18982	11.334	2.0909	0.	-5774.1
18983	11.334	2.1818	5.e-002	-134.12
18984	11.609	2.1818	0.	-4726.9
18985	11.517	2.0909	0.	-4815.5
18986	11.517	2.1818	5.e-002	-67.74
18987	11.793	2.1818	0.	-4179.
18988	11.701	2.0909	0.	-4225.8
18989	11.701	2.1818	5.e-002	-46.72
18990	11.976	2.1818	0.	-3794.5
18991	11.885	2.0909	0.	-3825.3
18992	11.885	2.1818	5.e-002	-34.967
18993	12.16	2.1818	0.	-3507.7
18994	12.068	2.0909	0.	-3532.
18995	12.068	2.1818	5.e-002	-27.798
18996	12.343	2.1818	0.	-3284.4
18997	12.252	2.0909	0.	-3306.7
18998	12.252	2.1818	5.e-002	-22.858
18999	12.527	2.1818	0.	-3105.
19000	12.435	2.0909	0.	-3127.
19001	12.435	2.1818	5.e-002	-19.202
19002	12.711	2.1818	0.	-2956.9
19003	12.619	2.0909	0.	-2979.5
19004	12.619	2.1818	5.e-002	-16.376
19005	12.894	2.1818	0.	-2832.2
19006	12.802	2.0909	0.	-2855.4
19007	12.802	2.1818	5.e-002	-14.137
19008	13.078	2.1818	0.	-2724.9
19009	12.986	2.0909	0.	-2748.8
19010	12.986	2.1818	5.e-002	-12.339
19011	13.261	2.1818	0.	-2631.2
19012	13.169	2.0909	0.	-2655.5
19013	13.169	2.1818	5.e-002	-10.888
19014	13.445	2.1818	0.	-2547.8
19015	13.353	2.0909	0.	-2572.4
19016	13.353	2.1818	5.e-002	-9.7137
19017	13.628	2.1818	0.	-2472.5
19018	13.537	2.0909	0.	-2497.3
19019	13.537	2.1818	5.e-002	-8.7628
19020	13.812	2.1818	0.	-2403.7
19021	13.72	2.0909	0.	-2428.5
19022	13.72	2.1818	5.e-002	-7.9933
19023	13.996	2.1818	0.	-2339.8
19024	13.904	2.0909	0.	-2364.6
19025	13.904	2.1818	5.e-002	-7.3711
19026	14.179	2.1818	0.	-2279.9
19027	14.087	2.0909	0.	-2304.6
19028	14.087	2.1818	5.e-002	-6.8679
19029	14.363	2.1818	0.	-2223.2
19030	14.271	2.0909	0.	-2247.8
19031	14.271	2.1818	5.e-002	-6.4608
19032	14.546	2.1818	0.	-2168.9
19033	14.454	2.0909	0.	-2193.3
19034	14.454	2.1818	5.e-002	-6.1307
19035	14.73	2.1818	0.	-2116.6
19036	14.638	2.0909	0.	-2140.9
19037	14.638	2.1818	5.e-002	-5.8624
19038	14.913	2.1818	0.	-2066.
19039	14.822	2.0909	0.	-2090.
19040	14.822	2.1818	5.e-002	-5.6432
19041	15.097	2.1818	0.	-2016.5
19042	15.005	2.0909	0.	-2040.5
19043	15.005	2.1818	5.e-002	-5.4632
19044	15.281	2.1818	0.	-1968.2
19045	15.189	2.0909	0.	-1991.9
19046	15.189	2.1818	5.e-002	-5.3144
19047	15.464	2.1818	0.	-1920.6
19048	15.372	2.0909	0.	-1944.2
19049	15.372	2.1818	5.e-002	-5.1903
19050	15.648	2.1818	0.	-1873.8
19051	15.556	2.0909	0.	-1897.2
19052	15.556	2.1818	5.e-002	-5.0859
19053	15.831	2.1818	0.	-1827.5
19054	15.739	2.0909	0.	-1850.8
19055	15.739	2.1818	5.e-002	-4.9971
19056	16.015	2.1818	0.	-1781.7
19057	15.923	2.0909	0.	-1804.8
19058	15.923	2.1818	5.e-002	-4.9209
19059	16.198	2.1818	0.	-1736.4
19060	16.107	2.0909	0.	-1759.3
19061	16.107	2.1818	5.e-002	-4.8547
19062	16.382	2.1818	0.	-1691.4
19063	16.29	2.0909	0.	-1714.2
19064	16.29	2.1818	5.e-002	-4.7966
19065	16.565	2.1818	0.	-1646.7
19066	16.474	2.0909	0.	-1669.3
19067	16.474	2.1818	5.e-002	-4.7451
19068	16.749	2.1818	0.	-1602.2
19069	16.657	2.0909	0.	-1624.8
19070	16.657	2.1818	5.e-002	-4.6988
19071	16.933	2.1818	0.	-1558.1
19072	16.841	2.0909	0.	-1580.5
19073	16.841	2.1818	5.e-002	-4.657
19074	17.116	2.1818	0.	-1514.2
19075	17.024	2.0909	0.	-1536.5
19076	17.024	2.1818	5.e-002	-4.6188
19077	17.3	2.1818	0.	-1470.5
19078	17.208	2.0909	0.	-1492.7
19079	17.208	2.1818	5.e-002	-4.5836
19080	17.483	2.1818	0.	-1427.
19081	17.392	2.0909	0.	-1449.1
19082	17.392	2.1818	5.e-002	-4.5509
19083	17.667	2.1818	0.	-1383.8
19084	17.575	2.0909	0.	-1405.7
19085	17.575	2.1818	5.e-002	-4.5204
19086	17.85	2.1818	0.	-1340.7
19087	17.759	2.0909	0.	-1362.5
19088	17.759	2.1818	5.e-002	-4.4918
19089	18.034	2.1818	0.	-1297.9
19090	17.942	2.0909	0.	-1319.5
19091	17.942	2.1818	5.e-002	-4.4648
19092	18.218	2.1818	0.	-1255.2
19093	18.126	2.0909	0.	-1276.8
19094	18.126	2.1818	5.e-002	-4.4393
19095	18.401	2.1818	0.	-1212.7
19096	18.309	2.0909	0.	-1234.2
19097	18.309	2.1818	5.e-002	-4.4152
19098	18.585	2.1818	0.	-1170.5
19099	18.493	2.0909	0.	-1191.8
19100	18.493	2.1818	5.e-002	-4.3922
19101	18.768	2.1818	0.	-1128.4
19102	18.677	2.0909	0.	-1149.6
19103	18.677	2.1818	5.e-002	-4.3704
19104	18.952	2.1818	0.	-1086.5
19105	18.86	2.0909	0.	-1107.6
19106	18.86	2.1818	5.e-002	-4.3496
19107	19.135	2.1818	0.	-1044.9
19108	19.044	2.0909	0.	-1065.8
19109	19.044	2.1818	5.e-002	-4.3299
19110	19.319	2.1818	0.	-1003.4
19111	19.227	2.0909	0.	-1024.2
19112	19.227	2.1818	5.e-002	-4.3112
19113	19.503	2.1818	0.	-962.09
19114	19.411	2.0909	0.	-982.82
19115	19.411	2.1818	5.e-002	-4.2935
19116	19.686	2.1818	0.	-921.01
19117	19.594	2.0909	0.	-941.61
19118	19.594	2.1818	5.e-002	-4.2768
19119	19.87	2.1818	0.	-880.12
19120	19.778	2.0909	0.	-900.6
19121	19.778	2.1818	5.e-002	-4.2612
19122	20.053	2.1818	0.	-839.43
19123	19.962	2.0909	0.	-859.78
19124	19.962	2.1818	5.e-002	-4.2466
19125	20.237	2.1818	0.	-798.94
19126	20.145	2.0909	0.	-819.17
19127	20.145	2.1818	5.e-002	-4.2332
19128	20.42	2.1818	0.	-758.65
19129	20.329	2.0909	0.	-778.75
19130	20.329	2.1818	5.e-002	-4.221
19131	20.604	2.1818	0.	-718.55
19132	20.512	2.0909	0.	-738.52
19133	20.512	2.1818	5.e-002	-4.2101
19134	20.788	2.1818	0.	-678.65
19135	20.696	2.0909	0.	-698.5
19136	20.696	2.1818	5.e-002	-4.2005
19137	20.971	2.1818	0.	-638.94
19138	20.879	2.0909	0.	-658.66
19139	20.879	2.1818	5.e-002	-4.1926
19140	21.155	2.1818	0.	-599.43
19141	21.063	2.0909	0.	-619.02
19142	21.063	2.1818	5.e-002	-4.1863
19143	21.338	2.1818	0.	-560.09
19144	21.246	2.0909	0.	-579.57
19145	21.246	2.1818	5.e-002	-4.1818
19146	21.522	2.1818	0.	-520.94
19147	21.43	2.0909	0.	-540.3
19148	21.43	2.1818	5.e-002	-4.1795
19149	21.705	2.1818	0.	-481.96
19150	21.614	2.0909	0.	-501.21
19151	21.614	2.1818	5.e-002	-4.1794
19152	21.889	2.1818	0.	-443.15
19153	21.797	2.0909	0.	-462.29
19154	21.797	2.1818	5.e-002	-4.182
19155	22.073	2.1818	0.	-404.48
19156	21.981	2.0909	0.	-423.53
19157	21.981	2.1818	5.e-002	-4.1874
19158	22.256	2.1818	0.	-365.94
19159	22.164	2.0909	0.	-384.92
19160	22.164	2.1818	5.e-002	-4.1961
19161	22.44	2.1818	0.	-327.52
19162	22.348	2.0909	0.	-346.44
19163	22.348	2.1818	5.e-002	-4.2085
19164	22.623	2.1818	0.	-289.18
19165	22.531	2.0909	0.	-308.07
19166	22.531	2.1818	5.e-002	-4.225
19167	22.807	2.1818	0.	-250.89
19168	22.715	2.0909	0.	-269.77
19169	22.715	2.1818	5.e-002	-4.246
19170	22.99	2.1818	0.	-212.61
19171	22.899	2.0909	0.	-231.53
19172	22.899	2.1818	5.e-002	-4.2718
19173	23.174	2.1818	0.	-174.31
19174	23.082	2.0909	0.	-193.28
19175	23.082	2.1818	5.e-002	-4.3028
19176	23.358	2.1818	0.	-135.93
19177	23.266	2.0909	0.	-154.99
19178	23.266	2.1818	5.e-002	-4.3392
19179	23.541	2.1818	0.	-97.418
19180	23.449	2.0909	0.	-116.62
19181	23.449	2.1818	5.e-002	-4.3808
19182	23.725	2.1818	0.	-58.812
19183	23.633	2.0909	0.	-78.094
19184	23.633	2.1818	5.e-002	-4.4284
19185	23.816	2.0909	0.	-39.585
19186	23.816	2.1818	5.e-002	-4.5
19187	23.908	2.1818	0.	-22.276
19188	11.242	2.	0.	-6674.2
19189	11.15	1.9091	0.	-6761.9
19190	11.15	2.	5.e-002	-526.91
19191	11.058	2.	0.	-11934
19192	11.426	2.	0.	-5002.5
19193	11.334	1.9091	0.	-4980.4
19194	11.334	2.	5.e-002	-92.691
19195	11.609	2.	0.	-4314.
19196	11.517	1.9091	0.	-4292.7
19197	11.517	2.	5.e-002	-60.025
19198	11.793	2.	0.	-3870.5
19199	11.701	1.9091	0.	-3852.
19200	11.701	2.	5.e-002	-40.312
19201	11.976	2.	0.	-3561.3
19202	11.885	1.9091	0.	-3547.5
19203	11.885	2.	5.e-002	-30.7
19204	12.16	2.	0.	-3329.9
19205	12.068	1.9091	0.	-3321.9
19206	12.068	2.	5.e-002	-24.55
19207	12.343	2.	0.	-3148.4
19208	12.252	1.9091	0.	-3146.3
19209	12.252	2.	5.e-002	-20.329
19210	12.527	2.	0.	-3001.
19211	12.435	1.9091	0.	-3004.3
19212	12.435	2.	5.e-002	-17.195
19213	12.711	2.	0.	-2877.6
19214	12.619	1.9091	0.	-2885.6
19215	12.619	2.	5.e-002	-14.772
19216	12.894	2.	0.	-2771.8
19217	12.802	1.9091	0.	-2783.8
19218	12.802	2.	5.e-002	-12.85
19219	13.078	2.	0.	-2679.2
19220	12.986	1.9091	0.	-2694.3
19221	12.986	2.	5.e-002	-11.303
19222	13.261	2.	0.	-2596.7
19223	13.169	1.9091	0.	-2614.2
19224	13.169	2.	5.e-002	-10.051
19225	13.445	2.	0.	-2521.9
19226	13.353	1.9091	0.	-2541.3
19227	13.353	2.	5.e-002	-9.0353
19228	13.628	2.	0.	-2453.3
19229	13.537	1.9091	0.	-2474.1
19230	13.537	2.	5.e-002	-8.212
19231	13.812	2.	0.	-2389.5
19232	13.72	1.9091	0.	-2411.3
19233	13.72	2.	5.e-002	-7.5456
19234	13.996	2.	0.	-2329.5
19235	13.904	1.9091	0.	-2351.9
19236	13.904	2.	5.e-002	-7.0069
19237	14.179	2.	0.	-2272.5
19238	14.087	1.9091	0.	-2295.5
19239	14.087	2.	5.e-002	-6.5719
19240	14.363	2.	0.	-2217.9
19241	14.271	1.9091	0.	-2241.2
19242	14.271	2.	5.e-002	-6.2203
19243	14.546	2.	0.	-2165.3
19244	14.454	1.9091	0.	-2188.8
19245	14.454	2.	5.e-002	-5.9358
19246	14.73	2.	0.	-2114.3
19247	14.638	1.9091	0.	-2137.9
19248	14.638	2.	5.e-002	-5.7045
19249	14.913	2.	0.	-2064.5
19250	14.822	1.9091	0.	-2088.1
19251	14.822	2.	5.e-002	-5.5157
19252	15.097	2.	0.	-2015.8
19253	15.005	1.9091	0.	-2039.4
19254	15.005	2.	5.e-002	-5.3603
19255	15.281	2.	0.	-1968.
19256	15.189	1.9091	0.	-1991.5
19257	15.189	2.	5.e-002	-5.2314
19258	15.464	2.	0.	-1920.8
19259	15.372	1.9091	0.	-1944.2
19260	15.372	2.	5.e-002	-5.1234
19261	15.648	2.	0.	-1874.2
19262	15.556	1.9091	0.	-1897.5
19263	15.556	2.	5.e-002	-5.032
19264	15.831	2.	0.	-1828.1
19265	15.739	1.9091	0.	-1851.3
19266	15.739	2.	5.e-002	-4.9537
19267	16.015	2.	0.	-1782.4
19268	15.923	1.9091	0.	-1805.5
19269	15.923	2.	5.e-002	-4.8859
19270	16.198	2.	0.	-1737.1
19271	16.107	1.9091	0.	-1760.1
19272	16.107	2.	5.e-002	-4.8264
19273	16.382	2.	0.	-1692.2
19274	16.29	1.9091	0.	-1715.
19275	16.29	2.	5.e-002	-4.7737
19276	16.565	2.	0.	-1647.5
19277	16.474	1.9091	0.	-1670.2
19278	16.474	2.	5.e-002	-4.7265
19279	16.749	2.	0.	-1603.1
19280	16.657	1.9091	0.	-1625.7
19281	16.657	2.	5.e-002	-4.6837
19282	16.933	2.	0.	-1558.9
19283	16.841	1.9091	0.	-1581.4
19284	16.841	2.	5.e-002	-4.6446
19285	17.116	2.	0.	-1515.
19286	17.024	1.9091	0.	-1537.3
19287	17.024	2.	5.e-002	-4.6085
19288	17.3	2.	0.	-1471.2
19289	17.208	1.9091	0.	-1493.5
19290	17.208	2.	5.e-002	-4.5751
19291	17.483	2.	0.	-1427.7
19292	17.392	1.9091	0.	-1449.9
19293	17.392	2.	5.e-002	-4.5438
19294	17.667	2.	0.	-1384.4
19295	17.575	1.9091	0.	-1406.5
19296	17.575	2.	5.e-002	-4.5144
19297	17.85	2.	0.	-1341.4
19298	17.759	1.9091	0.	-1363.2
19299	17.759	2.	5.e-002	-4.4866
19300	18.034	2.	0.	-1298.5
19301	17.942	1.9091	0.	-1320.2
19302	17.942	2.	5.e-002	-4.4603
19303	18.218	2.	0.	-1255.8
19304	18.126	1.9091	0.	-1277.4
19305	18.126	2.	5.e-002	-4.4354
19306	18.401	2.	0.	-1213.3
19307	18.309	1.9091	0.	-1234.8
19308	18.309	2.	5.e-002	-4.4116
19309	18.585	2.	0.	-1171.
19310	18.493	1.9091	0.	-1192.4
19311	18.493	2.	5.e-002	-4.389
19312	18.768	2.	0.	-1128.9
19313	18.677	1.9091	0.	-1150.1
19314	18.677	2.	5.e-002	-4.3674
19315	18.952	2.	0.	-1086.9
19316	18.86	1.9091	0.	-1108.1
19317	18.86	2.	5.e-002	-4.3468
19318	19.135	2.	0.	-1045.2
19319	19.044	1.9091	0.	-1066.3
19320	19.044	2.	5.e-002	-4.3273
19321	19.319	2.	0.	-1003.7
19322	19.227	1.9091	0.	-1024.6
19323	19.227	2.	5.e-002	-4.3086
19324	19.503	2.	0.	-962.36
19325	19.411	1.9091	0.	-983.15
19326	19.411	2.	5.e-002	-4.291
19327	19.686	2.	0.	-921.23
19328	19.594	1.9091	0.	-941.89
19329	19.594	2.	5.e-002	-4.2743
19330	19.87	2.	0.	-880.29
19331	19.778	1.9091	0.	-900.83
19332	19.778	2.	5.e-002	-4.2587
19333	20.053	2.	0.	-839.55
19334	19.962	1.9091	0.	-859.96
19335	19.962	2.	5.e-002	-4.2441
19336	20.237	2.	0.	-799.01
19337	20.145	1.9091	0.	-819.28
19338	20.145	2.	5.e-002	-4.2305
19339	20.42	2.	0.	-758.66
19340	20.329	1.9091	0.	-778.8
19341	20.329	2.	5.e-002	-4.2182
19342	20.604	2.	0.	-718.5
19343	20.512	1.9091	0.	-738.52
19344	20.512	2.	5.e-002	-4.2071
19345	20.788	2.	0.	-678.54
19346	20.696	1.9091	0.	-698.43
19347	20.696	2.	5.e-002	-4.1974
19348	20.971	2.	0.	-638.77
19349	20.879	1.9091	0.	-658.53
19350	20.879	2.	5.e-002	-4.1891
19351	21.155	2.	0.	-599.2
19352	21.063	1.9091	0.	-618.82
19353	21.063	2.	5.e-002	-4.1824
19354	21.338	2.	0.	-559.81
19355	21.246	1.9091	0.	-579.3
19356	21.246	2.	5.e-002	-4.1776
19357	21.522	2.	0.	-520.6
19358	21.43	1.9091	0.	-539.96
19359	21.43	2.	5.e-002	-4.1747
19360	21.705	2.	0.	-481.57
19361	21.614	1.9091	0.	-500.81
19362	21.614	2.	5.e-002	-4.1741
19363	21.889	2.	0.	-442.7
19364	21.797	1.9091	0.	-461.84
19365	21.797	2.	5.e-002	-4.176
19366	22.073	2.	0.	-404.
19367	21.981	1.9091	0.	-423.03
19368	21.981	2.	5.e-002	-4.1808
19369	22.256	2.	0.	-365.44
19370	22.164	1.9091	0.	-384.38
19371	22.164	2.	5.e-002	-4.1888
19372	22.44	2.	0.	-327.01
19373	22.348	1.9091	0.	-345.88
19374	22.348	2.	5.e-002	-4.2005
19375	22.623	2.	0.	-288.68
19376	22.531	1.9091	0.	-307.51
19377	22.531	2.	5.e-002	-4.2163
19378	22.807	2.	0.	-250.43
19379	22.715	1.9091	0.	-269.23
19380	22.715	2.	5.e-002	-4.2369
19381	22.99	2.	0.	-212.21
19382	22.899	1.9091	0.	-231.03
19383	22.899	2.	5.e-002	-4.2626
19384	23.174	2.	0.	-173.98
19385	23.082	1.9091	0.	-192.86
19386	23.082	2.	5.e-002	-4.2939
19387	23.358	2.	0.	-135.69
19388	23.266	1.9091	0.	-154.67
19389	23.266	2.	5.e-002	-4.3312
19390	23.541	2.	0.	-97.288
19391	23.449	1.9091	0.	-116.4
19392	23.449	2.	5.e-002	-4.3745
19393	23.725	2.	0.	-58.792
19394	23.633	1.9091	0.	-78.002
19395	23.633	2.	5.e-002	-4.425
19396	23.816	1.9091	0.	-39.621
19397	23.816	2.	5.e-002	-4.5077
19398	23.908	2.	0.	-22.305
19399	11.242	1.8182	0.	-5084.
19400	11.15	1.7273	0.	-4778.7
19401	11.15	1.8182	5.e-002	-296.15
19402	11.058	1.8182	0.	-4410.8
19403	11.426	1.8182	0.	-4268.7
19404	11.334	1.7273	0.	-4092.3
19405	11.334	1.8182	5.e-002	-99.08
19406	11.609	1.8182	0.	-3826.2
19407	11.517	1.7273	0.	-3716.4
19408	11.517	1.8182	5.e-002	-46.26
19409	11.793	1.8182	0.	-3525.3
19410	11.701	1.7273	0.	-3450.
19411	11.701	1.8182	5.e-002	-33.356
19412	11.976	1.8182	0.	-3305.5
19413	11.885	1.7273	0.	-3251.8
19414	11.885	1.8182	5.e-002	-26.186
19415	12.16	1.8182	0.	-3136.5
19416	12.068	1.7273	0.	-3099.1
19417	12.068	1.8182	5.e-002	-21.252
19418	12.343	1.8182	0.	-3001.
19419	12.252	1.7273	0.	-2976.5
19420	12.252	1.8182	5.e-002	-17.765
19421	12.527	1.8182	0.	-2888.3
19422	12.435	1.7273	0.	-2874.3
19423	12.435	1.8182	5.e-002	-15.141
19424	12.711	1.8182	0.	-2791.4
19425	12.619	1.7273	0.	-2786.
19426	12.619	1.8182	5.e-002	-13.101
19427	12.894	1.8182	0.	-2706.
19428	12.802	1.7273	0.	-2707.5
19429	12.802	1.8182	5.e-002	-11.479
19430	13.078	1.8182	0.	-2629.2
19431	12.986	1.7273	0.	-2636.1
19432	12.986	1.8182	5.e-002	-10.174
19433	13.261	1.8182	0.	-2558.8
19434	13.169	1.7273	0.	-2569.9
19435	13.169	1.8182	5.e-002	-9.1202
19436	13.445	1.8182	0.	-2493.4
19437	13.353	1.7273	0.	-2507.9
19438	13.353	1.8182	5.e-002	-8.2682
19439	13.628	1.8182	0.	-2432.
19440	13.537	1.7273	0.	-2448.9
19441	13.537	1.8182	5.e-002	-7.5805
19442	13.812	1.8182	0.	-2373.7
19443	13.72	1.7273	0.	-2392.5
19444	13.72	1.8182	5.e-002	-7.027
19445	13.996	1.8182	0.	-2317.9
19446	13.904	1.7273	0.	-2338.2
19447	13.904	1.8182	5.e-002	-6.5824
19448	14.179	1.8182	0.	-2264.2
19449	14.087	1.7273	0.	-2285.4
19450	14.087	1.8182	5.e-002	-6.2255
19451	14.363	1.8182	0.	-2212.1
19452	14.271	1.7273	0.	-2234.1
19453	14.271	1.8182	5.e-002	-5.9387
19454	14.546	1.8182	0.	-2161.3
19455	14.454	1.7273	0.	-2183.9
19456	14.454	1.8182	5.e-002	-5.7075
19457	14.73	1.8182	0.	-2111.7
19458	14.638	1.7273	0.	-2134.6
19459	14.638	1.8182	5.e-002	-5.52
19460	14.913	1.8182	0.	-2063.
19461	14.822	1.7273	0.	-2086.1
19462	14.822	1.8182	5.e-002	-5.3669
19463	15.097	1.8182	0.	-2015.
19464	15.005	1.7273	0.	-2038.3
19465	15.005	1.8182	5.e-002	-5.2405
19466	15.281	1.8182	0.	-1967.7
19467	15.189	1.7273	0.	-1991.
19468	15.189	1.8182	5.e-002	-5.1351
19469	15.464	1.8182	0.	-1921.
19470	15.372	1.7273	0.	-1944.2
19471	15.372	1.8182	5.e-002	-5.0461
19472	15.648	1.8182	0.	-1874.7
19473	15.556	1.7273	0.	-1897.9
19474	15.556	1.8182	5.e-002	-4.9699
19475	15.831	1.8182	0.	-1828.8
19476	15.739	1.7273	0.	-1852.
19477	15.739	1.8182	5.e-002	-4.9038
19478	16.015	1.8182	0.	-1783.2
19479	15.923	1.7273	0.	-1806.4
19480	15.923	1.8182	5.e-002	-4.8457
19481	16.198	1.8182	0.	-1738.
19482	16.107	1.7273	0.	-1761.
19483	16.107	1.8182	5.e-002	-4.794
19484	16.382	1.8182	0.	-1693.1
19485	16.29	1.7273	0.	-1716.
19486	16.29	1.8182	5.e-002	-4.7475
19487	16.565	1.8182	0.	-1648.4
19488	16.474	1.7273	0.	-1671.2
19489	16.474	1.8182	5.e-002	-4.7052
19490	16.749	1.8182	0.	-1604.
19491	16.657	1.7273	0.	-1626.7
19492	16.657	1.8182	5.e-002	-4.6664
19493	16.933	1.8182	0.	-1559.8
19494	16.841	1.7273	0.	-1582.4
19495	16.841	1.8182	5.e-002	-4.6304
19496	17.116	1.8182	0.	-1515.9
19497	17.024	1.7273	0.	-1538.3
19498	17.024	1.8182	5.e-002	-4.5968
19499	17.3	1.8182	0.	-1472.1
19500	17.208	1.7273	0.	-1494.5
19501	17.208	1.8182	5.e-002	-4.5653
19502	17.483	1.8182	0.	-1428.6
19503	17.392	1.7273	0.	-1450.8
19504	17.392	1.8182	5.e-002	-4.5356
19505	17.667	1.8182	0.	-1385.3
19506	17.575	1.7273	0.	-1407.4
19507	17.575	1.8182	5.e-002	-4.5074
19508	17.85	1.8182	0.	-1342.1
19509	17.759	1.7273	0.	-1364.1
19510	17.759	1.8182	5.e-002	-4.4806
19511	18.034	1.8182	0.	-1299.2
19512	17.942	1.7273	0.	-1321.
19513	17.942	1.8182	5.e-002	-4.4551
19514	18.218	1.8182	0.	-1256.5
19515	18.126	1.7273	0.	-1278.2
19516	18.126	1.8182	5.e-002	-4.4308
19517	18.401	1.8182	0.	-1213.9
19518	18.309	1.7273	0.	-1235.5
19519	18.309	1.8182	5.e-002	-4.4075
19520	18.585	1.8182	0.	-1171.6
19521	18.493	1.7273	0.	-1193.
19522	18.493	1.8182	5.e-002	-4.3853
19523	18.768	1.8182	0.	-1129.4
19524	18.677	1.7273	0.	-1150.8
19525	18.677	1.8182	5.e-002	-4.364
19526	18.952	1.8182	0.	-1087.4
19527	18.86	1.7273	0.	-1108.7
19528	18.86	1.8182	5.e-002	-4.3436
19529	19.135	1.8182	0.	-1045.7
19530	19.044	1.7273	0.	-1066.8
19531	19.044	1.8182	5.e-002	-4.3242
19532	19.319	1.8182	0.	-1004.1
19533	19.227	1.7273	0.	-1025.1
19534	19.227	1.8182	5.e-002	-4.3057
19535	19.503	1.8182	0.	-962.71
19536	19.411	1.7273	0.	-983.57
19537	19.411	1.8182	5.e-002	-4.2881
19538	19.686	1.8182	0.	-921.52
19539	19.594	1.7273	0.	-942.25
19540	19.594	1.8182	5.e-002	-4.2714
19541	19.87	1.8182	0.	-880.53
19542	19.778	1.7273	0.	-901.13
19543	19.778	1.8182	5.e-002	-4.2558
19544	20.053	1.8182	0.	-839.72
19545	19.962	1.7273	0.	-860.2
19546	19.962	1.8182	5.e-002	-4.2411
19547	20.237	1.8182	0.	-799.11
19548	20.145	1.7273	0.	-819.45
19549	20.145	1.8182	5.e-002	-4.2275
19550	20.42	1.8182	0.	-758.7
19551	20.329	1.7273	0.	-778.91
19552	20.329	1.8182	5.e-002	-4.2149
19553	20.604	1.8182	0.	-718.48
19554	20.512	1.7273	0.	-738.55
19555	20.512	1.8182	5.e-002	-4.2036
19556	20.788	1.8182	0.	-678.45
19557	20.696	1.7273	0.	-698.38
19558	20.696	1.8182	5.e-002	-4.1936
19559	20.971	1.8182	0.	-638.6
19560	20.879	1.7273	0.	-658.41
19561	20.879	1.8182	5.e-002	-4.185
19562	21.155	1.8182	0.	-598.95
19563	21.063	1.7273	0.	-618.62
19564	21.063	1.8182	5.e-002	-4.178
19565	21.338	1.8182	0.	-559.49
19566	21.246	1.7273	0.	-579.02
19567	21.246	1.8182	5.e-002	-4.1726
19568	21.522	1.8182	0.	-520.21
19569	21.43	1.7273	0.	-539.61
19570	21.43	1.8182	5.e-002	-4.1692
19571	21.705	1.8182	0.	-481.11
19572	21.614	1.7273	0.	-500.38
19573	21.614	1.8182	5.e-002	-4.1679
19574	21.889	1.8182	0.	-442.19
19575	21.797	1.7273	0.	-461.33
19576	21.797	1.8182	5.e-002	-4.1691
19577	22.073	1.8182	0.	-403.44
19578	21.981	1.7273	0.	-422.46
19579	21.981	1.8182	5.e-002	-4.173
19580	22.256	1.8182	0.	-364.85
19581	22.164	1.7273	0.	-383.76
19582	22.164	1.8182	5.e-002	-4.1801
19583	22.44	1.8182	0.	-326.4
19584	22.348	1.7273	0.	-345.22
19585	22.348	1.8182	5.e-002	-4.1909
19586	22.623	1.8182	0.	-288.08
19587	22.531	1.7273	0.	-306.84
19588	22.531	1.8182	5.e-002	-4.2059
19589	22.807	1.8182	0.	-249.86
19590	22.715	1.7273	0.	-268.58
19591	22.715	1.8182	5.e-002	-4.2257
19592	22.99	1.8182	0.	-211.7
19593	22.899	1.7273	0.	-230.42
19594	22.899	1.8182	5.e-002	-4.2511
19595	23.174	1.8182	0.	-173.56
19596	23.082	1.7273	0.	-192.33
19597	23.082	1.8182	5.e-002	-4.2827
19598	23.358	1.8182	0.	-135.39
19599	23.266	1.7273	0.	-154.25
19600	23.266	1.8182	5.e-002	-4.321
19601	23.541	1.8182	0.	-97.112
19602	23.449	1.7273	0.	-116.12
19603	23.449	1.8182	5.e-002	-4.3663
19604	23.725	1.8182	0.	-58.758
19605	23.633	1.7273	0.	-77.871
19606	23.633	1.8182	5.e-002	-4.4204
19607	23.816	1.7273	0.	-39.655
19608	23.816	1.8182	5.e-002	-4.5166
19609	23.908	1.8182	0.	-22.336
19610	11.242	1.6364	0.	-3733.8
19611	11.15	1.5455	0.	-3455.9
19612	11.15	1.6364	5.e-002	-165.18
19613	11.058	1.6364	0.	-3126.9
19614	11.426	1.6364	0.	-3524.1
19615	11.334	1.5455	0.	-3286.1
19616	11.334	1.6364	5.e-002	-64.932
19617	11.609	1.6364	0.	-3331.9
19618	11.517	1.5455	0.	-3168.3
19619	11.517	1.6364	5.e-002	-39.665
19620	11.793	1.6364	0.	-3170.9
19621	11.701	1.5455	0.	-3052.8
19622	11.701	1.6364	5.e-002	-28.795
19623	11.976	1.6364	0.	-3041.8
19624	11.885	1.5455	0.	-2955.5
19625	11.885	1.6364	5.e-002	-22.295
19626	12.16	1.6364	0.	-2936.8
19627	12.068	1.5455	0.	-2874.2
19628	12.068	1.6364	5.e-002	-18.316
19629	12.343	1.6364	0.	-2848.4
19630	12.252	1.5455	0.	-2804.3
19631	12.252	1.6364	5.e-002	-15.39
19632	12.527	1.6364	0.	-2771.2
19633	12.435	1.5455	0.	-2741.9
19634	12.435	1.6364	5.e-002	-13.172
19635	12.711	1.6364	0.	-2701.6
19636	12.619	1.5455	0.	-2684.1
19637	12.619	1.6364	5.e-002	-11.443
19638	12.894	1.6364	0.	-2637.2
19639	12.802	1.5455	0.	-2629.2
19640	12.802	1.6364	5.e-002	-10.075
19641	13.078	1.6364	0.	-2576.7
19642	12.986	1.5455	0.	-2576.1
19643	12.986	1.6364	5.e-002	-8.986
19644	13.261	1.6364	0.	-2518.9
19645	13.169	1.5455	0.	-2524.2
19646	13.169	1.6364	5.e-002	-8.1172
19647	13.445	1.6364	0.	-2463.3
19648	13.353	1.5455	0.	-2473.2
19649	13.353	1.6364	5.e-002	-7.4261
19650	13.628	1.6364	0.	-2409.5
19651	13.537	1.5455	0.	-2422.8
19652	13.537	1.6364	5.e-002	-6.8781
19653	13.812	1.6364	0.	-2357.
19654	13.72	1.5455	0.	-2373.
19655	13.72	1.6364	5.e-002	-6.4452
19656	13.996	1.6364	0.	-2305.7
19657	13.904	1.5455	0.	-2323.8
19658	13.904	1.6364	5.e-002	-6.1037
19659	14.179	1.6364	0.	-2255.3
19660	14.087	1.5455	0.	-2275.
19661	14.087	1.6364	5.e-002	-5.8342
19662	14.363	1.6364	0.	-2205.9
19663	14.271	1.5455	0.	-2226.6
19664	14.271	1.6364	5.e-002	-5.6206
19665	14.546	1.6364	0.	-2157.1
19666	14.454	1.5455	0.	-2178.7
19667	14.454	1.6364	5.e-002	-5.4501
19668	14.73	1.6364	0.	-2109.
19669	14.638	1.5455	0.	-2131.1
19670	14.638	1.6364	5.e-002	-5.3126
19671	14.913	1.6364	0.	-2061.4
19672	14.822	1.5455	0.	-2083.9
19673	14.822	1.6364	5.e-002	-5.2001
19674	15.097	1.6364	0.	-2014.2
19675	15.005	1.5455	0.	-2037.1
19676	15.005	1.6364	5.e-002	-5.1067
19677	15.281	1.6364	0.	-1967.5
19678	15.189	1.5455	0.	-1990.6
19679	15.189	1.6364	5.e-002	-5.0279
19680	15.464	1.6364	0.	-1921.2
19681	15.372	1.5455	0.	-1944.4
19682	15.372	1.6364	5.e-002	-4.9602
19683	15.648	1.6364	0.	-1875.2
19684	15.556	1.5455	0.	-1898.4
19685	15.556	1.6364	5.e-002	-4.9012
19686	15.831	1.6364	0.	-1829.6
19687	15.739	1.5455	0.	-1852.7
19688	15.739	1.6364	5.e-002	-4.8487
19689	16.015	1.6364	0.	-1784.2
19690	15.923	1.5455	0.	-1807.3
19691	15.923	1.6364	5.e-002	-4.8014
19692	16.198	1.6364	0.	-1739.
19693	16.107	1.5455	0.	-1762.1
19694	16.107	1.6364	5.e-002	-4.7584
19695	16.382	1.6364	0.	-1694.2
19696	16.29	1.5455	0.	-1717.1
19697	16.29	1.6364	5.e-002	-4.7187
19698	16.565	1.6364	0.	-1649.5
19699	16.474	1.5455	0.	-1672.4
19700	16.474	1.6364	5.e-002	-4.6819
19701	16.749	1.6364	0.	-1605.1
19702	16.657	1.5455	0.	-1627.9
19703	16.657	1.6364	5.e-002	-4.6473
19704	16.933	1.6364	0.	-1560.9
19705	16.841	1.5455	0.	-1583.6
19706	16.841	1.6364	5.e-002	-4.6147
19707	17.116	1.6364	0.	-1516.9
19708	17.024	1.5455	0.	-1539.5
19709	17.024	1.6364	5.e-002	-4.5839
19710	17.3	1.6364	0.	-1473.2
19711	17.208	1.5455	0.	-1495.6
19712	17.208	1.6364	5.e-002	-4.5545
19713	17.483	1.6364	0.	-1429.6
19714	17.392	1.5455	0.	-1451.9
19715	17.392	1.6364	5.e-002	-4.5265
19716	17.667	1.6364	0.	-1386.2
19717	17.575	1.5455	0.	-1408.4
19718	17.575	1.6364	5.e-002	-4.4997
19719	17.85	1.6364	0.	-1343.
19720	17.759	1.5455	0.	-1365.1
19721	17.759	1.6364	5.e-002	-4.474
19722	18.034	1.6364	0.	-1300.1
19723	17.942	1.5455	0.	-1322.
19724	17.942	1.6364	5.e-002	-4.4493
19725	18.218	1.6364	0.	-1257.3
19726	18.126	1.5455	0.	-1279.1
19727	18.126	1.6364	5.e-002	-4.4256
19728	18.401	1.6364	0.	-1214.7
19729	18.309	1.5455	0.	-1236.4
19730	18.309	1.6364	5.e-002	-4.4029
19731	18.585	1.6364	0.	-1172.3
19732	18.493	1.5455	0.	-1193.8
19733	18.493	1.6364	5.e-002	-4.3811
19734	18.768	1.6364	0.	-1130.1
19735	18.677	1.5455	0.	-1151.5
19736	18.677	1.6364	5.e-002	-4.3601
19737	18.952	1.6364	0.	-1088.
19738	18.86	1.5455	0.	-1109.4
19739	18.86	1.6364	5.e-002	-4.34
19740	19.135	1.6364	0.	-1046.2
19741	19.044	1.5455	0.	-1067.4
19742	19.044	1.6364	5.e-002	-4.3207
19743	19.319	1.6364	0.	-1004.6
19744	19.227	1.5455	0.	-1025.7
19745	19.227	1.6364	5.e-002	-4.3023
19746	19.503	1.6364	0.	-963.14
19747	19.411	1.5455	0.	-984.08
19748	19.411	1.6364	5.e-002	-4.2848
19749	19.686	1.6364	0.	-921.89
19750	19.594	1.5455	0.	-942.7
19751	19.594	1.6364	5.e-002	-4.2681
19752	19.87	1.6364	0.	-880.83
19753	19.778	1.5455	0.	-901.51
19754	19.778	1.6364	5.e-002	-4.2524
19755	20.053	1.6364	0.	-839.96
19756	19.962	1.5455	0.	-860.51
19757	19.962	1.6364	5.e-002	-4.2377
19758	20.237	1.6364	0.	-799.28
19759	20.145	1.5455	0.	-819.7
19760	20.145	1.6364	5.e-002	-4.2239
19761	20.42	1.6364	0.	-758.79
19762	20.329	1.5455	0.	-779.07
19763	20.329	1.6364	5.e-002	-4.2112
19764	20.604	1.6364	0.	-718.49
19765	20.512	1.5455	0.	-738.64
19766	20.512	1.6364	5.e-002	-4.1997
19767	20.788	1.6364	0.	-678.38
19768	20.696	1.5455	0.	-698.39
19769	20.696	1.6364	5.e-002	-4.1894
19770	20.971	1.6364	0.	-638.46
19771	20.879	1.5455	0.	-658.32
19772	20.879	1.6364	5.e-002	-4.1804
19773	21.155	1.6364	0.	-598.72
19774	21.063	1.5455	0.	-618.45
19775	21.063	1.6364	5.e-002	-4.1729
19776	21.338	1.6364	0.	-559.17
19777	21.246	1.5455	0.	-578.76
19778	21.246	1.6364	5.e-002	-4.167
19779	21.522	1.6364	0.	-519.81
19780	21.43	1.5455	0.	-539.25
19781	21.43	1.6364	5.e-002	-4.1629
19782	21.705	1.6364	0.	-480.63
19783	21.614	1.5455	0.	-499.93
19784	21.614	1.6364	5.e-002	-4.1609
19785	21.889	1.6364	0.	-441.63
19786	21.797	1.5455	0.	-460.79
19787	21.797	1.6364	5.e-002	-4.1611
19788	22.073	1.6364	0.	-402.81
19789	21.981	1.5455	0.	-421.84
19790	21.981	1.6364	5.e-002	-4.1641
19791	22.256	1.6364	0.	-364.17
19792	22.164	1.5455	0.	-383.07
19793	22.164	1.6364	5.e-002	-4.1701
19794	22.44	1.6364	0.	-325.69
19795	22.348	1.5455	0.	-344.48
19796	22.348	1.6364	5.e-002	-4.1797
19797	22.623	1.6364	0.	-287.36
19798	22.531	1.5455	0.	-306.06
19799	22.531	1.6364	5.e-002	-4.1936
19800	22.807	1.6364	0.	-249.17
19801	22.715	1.5455	0.	-267.8
19802	22.715	1.6364	5.e-002	-4.2124
19803	22.99	1.6364	0.	-211.07
19804	22.899	1.5455	0.	-229.68
19805	22.899	1.6364	5.e-002	-4.2372
19806	23.174	1.6364	0.	-173.03
19807	23.082	1.5455	0.	-191.67
19808	23.082	1.6364	5.e-002	-4.2688
19809	23.358	1.6364	0.	-134.99
19810	23.266	1.5455	0.	-153.71
19811	23.266	1.6364	5.e-002	-4.3081
19812	23.541	1.6364	0.	-96.876
19813	23.449	1.5455	0.	-115.75
19814	23.449	1.6364	5.e-002	-4.3557
19815	23.725	1.6364	0.	-58.699
19816	23.633	1.5455	0.	-77.688
19817	23.633	1.6364	5.e-002	-4.4142
19818	23.816	1.5455	0.	-39.681
19819	23.816	1.6364	5.e-002	-4.5266
19820	23.908	1.6364	0.	-22.365
19821	11.242	1.4545	0.	-2944.7
19822	11.15	1.3636	0.	-2695.6
19823	11.15	1.4545	5.e-002	-108.98
19824	11.058	1.4545	0.	-2425.6
19825	11.426	1.4545	0.	-2907.5
19826	11.334	1.3636	0.	-2666.2
19827	11.334	1.4545	5.e-002	-63.233
19828	11.609	1.4545	0.	-2876.5
19829	11.517	1.3636	0.	-2687.3
19830	11.517	1.4545	5.e-002	-37.92
19831	11.793	1.4545	0.	-2829.8
19832	11.701	1.3636	0.	-2684.4
19833	11.701	1.4545	5.e-002	-26.846
19834	11.976	1.4545	0.	-2783.3
19835	11.885	1.3636	0.	-2672.8
19836	11.885	1.4545	5.e-002	-20.31
19837	12.16	1.4545	0.	-2738.9
19838	12.068	1.3636	0.	-2656.4
19839	12.068	1.4545	5.e-002	-16.333
19840	12.343	1.4545	0.	-2696.2
19841	12.252	1.3636	0.	-2636.1
19842	12.252	1.4545	5.e-002	-13.54
19843	12.527	1.4545	0.	-2653.9
19844	12.435	1.3636	0.	-2611.8
19845	12.435	1.4545	5.e-002	-11.484
19846	12.711	1.4545	0.	-2611.2
19847	12.619	1.3636	0.	-2583.5
19848	12.619	1.4545	5.e-002	-9.9158
19849	12.894	1.4545	0.	-2567.8
19850	12.802	1.3636	0.	-2551.6
19851	12.802	1.4545	5.e-002	-8.7087
19852	13.078	1.4545	0.	-2523.5
19853	12.986	1.3636	0.	-2516.4
19854	12.986	1.4545	5.e-002	-7.7787
19855	13.261	1.4545	0.	-2478.4
19856	13.169	1.3636	0.	-2478.5
19857	13.169	1.4545	5.e-002	-7.066
19858	13.445	1.4545	0.	-2432.6
19859	13.353	1.3636	0.	-2438.4
19860	13.353	1.4545	5.e-002	-6.5242
19861	13.628	1.4545	0.	-2386.4
19862	13.537	1.3636	0.	-2396.5
19863	13.537	1.4545	5.e-002	-6.1156
19864	13.812	1.4545	0.	-2339.8
19865	13.72	1.3636	0.	-2353.3
19866	13.72	1.4545	5.e-002	-5.8089
19867	13.996	1.4545	0.	-2293.1
19868	13.904	1.3636	0.	-2309.2
19869	13.904	1.4545	5.e-002	-5.5789
19870	14.179	1.4545	0.	-2246.2
19871	14.087	1.3636	0.	-2264.4
19872	14.087	1.4545	5.e-002	-5.4054
19873	14.363	1.4545	0.	-2199.4
19874	14.271	1.3636	0.	-2219.1
19875	14.271	1.4545	5.e-002	-5.2729
19876	14.546	1.4545	0.	-2152.7
19877	14.454	1.3636	0.	-2173.5
19878	14.454	1.4545	5.e-002	-5.1698
19879	14.73	1.4545	0.	-2106.1
19880	14.638	1.3636	0.	-2127.7
19881	14.638	1.4545	5.e-002	-5.0876
19882	14.913	1.4545	0.	-2059.7
19883	14.822	1.3636	0.	-2081.8
19884	14.822	1.4545	5.e-002	-5.02
19885	15.097	1.4545	0.	-2013.5
19886	15.005	1.3636	0.	-2036.
19887	15.005	1.4545	5.e-002	-4.9628
19888	15.281	1.4545	0.	-1967.4
19889	15.189	1.3636	0.	-1990.2
19890	15.189	1.4545	5.e-002	-4.913
19891	15.464	1.4545	0.	-1921.6
19892	15.372	1.3636	0.	-1944.5
19893	15.372	1.4545	5.e-002	-4.8685
19894	15.648	1.4545	0.	-1875.9
19895	15.556	1.3636	0.	-1899.
19896	15.556	1.4545	5.e-002	-4.8279
19897	15.831	1.4545	0.	-1830.5
19898	15.739	1.3636	0.	-1853.6
19899	15.739	1.4545	5.e-002	-4.79
19900	16.015	1.4545	0.	-1785.2
19901	15.923	1.3636	0.	-1808.4
19902	15.923	1.4545	5.e-002	-4.7544
19903	16.198	1.4545	0.	-1740.2
19904	16.107	1.3636	0.	-1763.3
19905	16.107	1.4545	5.e-002	-4.7206
19906	16.382	1.4545	0.	-1695.4
19907	16.29	1.3636	0.	-1718.4
19908	16.29	1.4545	5.e-002	-4.6882
19909	16.565	1.4545	0.	-1650.8
19910	16.474	1.3636	0.	-1673.7
19911	16.474	1.4545	5.e-002	-4.6571
19912	16.749	1.4545	0.	-1606.4
19913	16.657	1.3636	0.	-1629.2
19914	16.657	1.4545	5.e-002	-4.6271
19915	16.933	1.4545	0.	-1562.2
19916	16.841	1.3636	0.	-1584.9
19917	16.841	1.4545	5.e-002	-4.5981
19918	17.116	1.4545	0.	-1518.2
19919	17.024	1.3636	0.	-1540.8
19920	17.024	1.4545	5.e-002	-4.5701
19921	17.3	1.4545	0.	-1474.3
19922	17.208	1.3636	0.	-1496.9
19923	17.208	1.4545	5.e-002	-4.543
19924	17.483	1.4545	0.	-1430.7
19925	17.392	1.3636	0.	-1453.1
19926	17.392	1.4545	5.e-002	-4.5168
19927	17.667	1.4545	0.	-1387.3
19928	17.575	1.3636	0.	-1409.6
19929	17.575	1.4545	5.e-002	-4.4914
19930	17.85	1.4545	0.	-1344.1
19931	17.759	1.3636	0.	-1366.2
19932	17.759	1.4545	5.e-002	-4.4668
19933	18.034	1.4545	0.	-1301.
19934	17.942	1.3636	0.	-1323.1
19935	17.942	1.4545	5.e-002	-4.443
19936	18.218	1.4545	0.	-1258.2
19937	18.126	1.3636	0.	-1280.1
19938	18.126	1.4545	5.e-002	-4.4201
19939	18.401	1.4545	0.	-1215.6
19940	18.309	1.3636	0.	-1237.3
19941	18.309	1.4545	5.e-002	-4.3979
19942	18.585	1.4545	0.	-1173.1
19943	18.493	1.3636	0.	-1194.8
19944	18.493	1.4545	5.e-002	-4.3764
19945	18.768	1.4545	0.	-1130.8
19946	18.677	1.3636	0.	-1152.4
19947	18.677	1.4545	5.e-002	-4.3558
19948	18.952	1.4545	0.	-1088.8
19949	18.86	1.3636	0.	-1110.2
19950	18.86	1.4545	5.e-002	-4.3359
19951	19.135	1.4545	0.	-1046.9
19952	19.044	1.3636	0.	-1068.2
19953	19.044	1.4545	5.e-002	-4.3168
19954	19.319	1.4545	0.	-1005.2
19955	19.227	1.3636	0.	-1026.3
19956	19.227	1.4545	5.e-002	-4.2985
19957	19.503	1.4545	0.	-963.67
19958	19.411	1.3636	0.	-984.7
19959	19.411	1.4545	5.e-002	-4.2811
19960	19.686	1.4545	0.	-922.36
19961	19.594	1.3636	0.	-943.26
19962	19.594	1.4545	5.e-002	-4.2645
19963	19.87	1.4545	0.	-881.23
19964	19.778	1.3636	0.	-902.
19965	19.778	1.4545	5.e-002	-4.2487
19966	20.053	1.4545	0.	-840.28
19967	19.962	1.3636	0.	-860.92
19968	19.962	1.4545	5.e-002	-4.2339
19969	20.237	1.4545	0.	-799.53
19970	20.145	1.3636	0.	-820.03
19971	20.145	1.4545	5.e-002	-4.22
19972	20.42	1.4545	0.	-758.96
19973	20.329	1.3636	0.	-779.33
19974	20.329	1.4545	5.e-002	-4.2071
19975	20.604	1.4545	0.	-718.57
19976	20.512	1.3636	0.	-738.81
19977	20.512	1.4545	5.e-002	-4.1953
19978	20.788	1.4545	0.	-678.37
19979	20.696	1.3636	0.	-698.47
19980	20.696	1.4545	5.e-002	-4.1847
19981	20.971	1.4545	0.	-638.35
19982	20.879	1.3636	0.	-658.31
19983	20.879	1.4545	5.e-002	-4.1753
19984	21.155	1.4545	0.	-598.52
19985	21.063	1.3636	0.	-618.33
19986	21.063	1.4545	5.e-002	-4.1673
19987	21.338	1.4545	0.	-558.88
19988	21.246	1.3636	0.	-578.54
19989	21.246	1.4545	5.e-002	-4.1608
19990	21.522	1.4545	0.	-519.41
19991	21.43	1.3636	0.	-538.93
19992	21.43	1.4545	5.e-002	-4.156
19993	21.705	1.4545	0.	-480.14
19994	21.614	1.3636	0.	-499.5
19995	21.614	1.4545	5.e-002	-4.1531
19996	21.889	1.4545	0.	-441.04
19997	21.797	1.3636	0.	-460.26
19998	21.797	1.4545	5.e-002	-4.1524
19999	22.073	1.4545	0.	-402.14
20000	21.981	1.3636	0.	-421.21
20001	21.981	1.4545	5.e-002	-4.1542
20002	22.256	1.4545	0.	-363.42
20003	22.164	1.3636	0.	-382.34
20004	22.164	1.4545	5.e-002	-4.1589
20005	22.44	1.4545	0.	-324.89
20006	22.348	1.3636	0.	-343.67
20007	22.348	1.4545	5.e-002	-4.1671
20008	22.623	1.4545	0.	-286.54
20009	22.531	1.3636	0.	-305.2
20010	22.531	1.4545	5.e-002	-4.1795
20011	22.807	1.4545	0.	-248.35
20012	22.715	1.3636	0.	-266.92
20013	22.715	1.4545	5.e-002	-4.197
20014	22.99	1.4545	0.	-210.31
20015	22.899	1.3636	0.	-228.81
20016	22.899	1.4545	5.e-002	-4.2208
20017	23.174	1.4545	0.	-172.37
20018	23.082	1.3636	0.	-190.87
20019	23.082	1.4545	5.e-002	-4.252
20020	23.358	1.4545	0.	-134.48
20021	23.266	1.3636	0.	-153.04
20022	23.266	1.4545	5.e-002	-4.2921
20023	23.541	1.4545	0.	-96.559
20024	23.449	1.3636	0.	-115.26
20025	23.449	1.4545	5.e-002	-4.3421
20026	23.725	1.4545	0.	-58.603
20027	23.633	1.3636	0.	-77.431
20028	23.633	1.4545	5.e-002	-4.4059
20029	23.816	1.3636	0.	-39.687
20030	23.816	1.4545	5.e-002	-4.5373
20031	23.908	1.4545	0.	-22.389
20032	11.242	1.2727	0.	-2373.4
20033	11.15	1.1818	0.	-2158.8
20034	11.15	1.2727	5.e-002	-85.92
20035	11.058	1.2727	0.	-1936.5
20036	11.426	1.2727	0.	-2420.1
20037	11.334	1.1818	0.	-2190.8
20038	11.334	1.2727	5.e-002	-50.789
20039	11.609	1.2727	0.	-2480.2
20040	11.517	1.1818	0.	-2283.9
20041	11.517	1.2727	5.e-002	-37.125
20042	11.793	1.2727	0.	-2518.5
20043	11.701	1.1818	0.	-2358.6
20044	11.701	1.2727	5.e-002	-26.701
20045	11.976	1.2727	0.	-2540.6
20046	11.885	1.1818	0.	-2414.6
20047	11.885	1.2727	5.e-002	-20.038
20048	12.16	1.2727	0.	-2550.4
20049	12.068	1.1818	0.	-2453.7
20050	12.068	1.2727	5.e-002	-15.585
20051	12.343	1.2727	0.	-2549.8
20052	12.252	1.1818	0.	-2477.6
20053	12.252	1.2727	5.e-002	-12.508
20054	12.527	1.2727	0.	-2540.4
20055	12.435	1.1818	0.	-2488.3
20056	12.435	1.2727	5.e-002	-10.292
20057	12.711	1.2727	0.	-2523.3
20058	12.619	1.1818	0.	-2487.5
20059	12.619	1.2727	5.e-002	-8.6633
20060	12.894	1.2727	0.	-2499.9
20061	12.802	1.1818	0.	-2477.1
20062	12.802	1.2727	5.e-002	-7.4679
20063	13.078	1.2727	0.	-2471.3
20064	12.986	1.1818	0.	-2458.9
20065	12.986	1.2727	5.e-002	-6.6038
20066	13.261	1.2727	0.	-2438.4
20067	13.169	1.1818	0.	-2434.3
20068	13.169	1.2727	5.e-002	-5.9953
20069	13.445	1.2727	0.	-2402.3
20070	13.353	1.1818	0.	-2404.6
20071	13.353	1.2727	5.e-002	-5.58
20072	13.628	1.2727	0.	-2363.5
20073	13.537	1.1818	0.	-2371.
20074	13.537	1.2727	5.e-002	-5.3056
20075	13.812	1.2727	0.	-2322.8
20076	13.72	1.1818	0.	-2334.2
20077	13.72	1.2727	5.e-002	-5.1294
20078	13.996	1.2727	0.	-2280.5
20079	13.904	1.1818	0.	-2295.
20080	13.904	1.2727	5.e-002	-5.0185
20081	14.179	1.2727	0.	-2237.2
20082	14.087	1.1818	0.	-2254.
20083	14.087	1.2727	5.e-002	-4.9491
20084	14.363	1.2727	0.	-2193.1
20085	14.271	1.1818	0.	-2211.7
20086	14.271	1.2727	5.e-002	-4.9048
20087	14.546	1.2727	0.	-2148.4
20088	14.454	1.1818	0.	-2168.4
20089	14.454	1.2727	5.e-002	-4.8747
20090	14.73	1.2727	0.	-2103.4
20091	14.638	1.1818	0.	-2124.4
20092	14.638	1.2727	5.e-002	-4.8519
20093	14.913	1.2727	0.	-2058.1
20094	14.822	1.1818	0.	-2079.9
20095	14.822	1.2727	5.e-002	-4.8323
20096	15.097	1.2727	0.	-2012.8
20097	15.005	1.1818	0.	-2035.
20098	15.005	1.2727	5.e-002	-4.8135
20099	15.281	1.2727	0.	-1967.4
20100	15.189	1.1818	0.	-1990.
20101	15.189	1.2727	5.e-002	-4.7943
20102	15.464	1.2727	0.	-1922.
20103	15.372	1.1818	0.	-1944.9
20104	15.372	1.2727	5.e-002	-4.774
20105	15.648	1.2727	0.	-1876.7
20106	15.556	1.1818	0.	-1899.7
20107	15.556	1.2727	5.e-002	-4.7525
20108	15.831	1.2727	0.	-1831.5
20109	15.739	1.1818	0.	-1854.6
20110	15.739	1.2727	5.e-002	-4.7299
20111	16.015	1.2727	0.	-1786.4
20112	15.923	1.1818	0.	-1809.6
20113	15.923	1.2727	5.e-002	-4.7062
20114	16.198	1.2727	0.	-1741.5
20115	16.107	1.1818	0.	-1764.6
20116	16.107	1.2727	5.e-002	-4.6818
20117	16.382	1.2727	0.	-1696.8
20118	16.29	1.1818	0.	-1719.8
20119	16.29	1.2727	5.e-002	-4.6569
20120	16.565	1.2727	0.	-1652.2
20121	16.474	1.1818	0.	-1675.2
20122	16.474	1.2727	5.e-002	-4.6317
20123	16.749	1.2727	0.	-1607.8
20124	16.657	1.1818	0.	-1630.7
20125	16.657	1.2727	5.e-002	-4.6063
20126	16.933	1.2727	0.	-1563.5
20127	16.841	1.1818	0.	-1586.4
20128	16.841	1.2727	5.e-002	-4.581
20129	17.116	1.2727	0.	-1519.5
20130	17.024	1.1818	0.	-1542.2
20131	17.024	1.2727	5.e-002	-4.5559
20132	17.3	1.2727	0.	-1475.7
20133	17.208	1.1818	0.	-1498.3
20134	17.208	1.2727	5.e-002	-4.5311
20135	17.483	1.2727	0.	-1432.
20136	17.392	1.1818	0.	-1454.5
20137	17.392	1.2727	5.e-002	-4.5067
20138	17.667	1.2727	0.	-1388.5
20139	17.575	1.1818	0.	-1410.9
20140	17.575	1.2727	5.e-002	-4.4827
20141	17.85	1.2727	0.	-1345.3
20142	17.759	1.1818	0.	-1367.5
20143	17.759	1.2727	5.e-002	-4.4592
20144	18.034	1.2727	0.	-1302.2
20145	17.942	1.1818	0.	-1324.3
20146	17.942	1.2727	5.e-002	-4.4364
20147	18.218	1.2727	0.	-1259.3
20148	18.126	1.1818	0.	-1281.3
20149	18.126	1.2727	5.e-002	-4.4141
20150	18.401	1.2727	0.	-1216.6
20151	18.309	1.1818	0.	-1238.5
20152	18.309	1.2727	5.e-002	-4.3925
20153	18.585	1.2727	0.	-1174.1
20154	18.493	1.1818	0.	-1195.8
20155	18.493	1.2727	5.e-002	-4.3715
20156	18.768	1.2727	0.	-1131.7
20157	18.677	1.1818	0.	-1153.4
20158	18.677	1.2727	5.e-002	-4.3512
20159	18.952	1.2727	0.	-1089.6
20160	18.86	1.1818	0.	-1111.1
20161	18.86	1.2727	5.e-002	-4.3315
20162	19.135	1.2727	0.	-1047.7
20163	19.044	1.1818	0.	-1069.
20164	19.044	1.2727	5.e-002	-4.3126
20165	19.319	1.2727	0.	-1005.9
20166	19.227	1.1818	0.	-1027.1
20167	19.227	1.2727	5.e-002	-4.2944
20168	19.503	1.2727	0.	-964.32
20169	19.411	1.1818	0.	-985.45
20170	19.411	1.2727	5.e-002	-4.277
20171	19.686	1.2727	0.	-922.93
20172	19.594	1.1818	0.	-943.93
20173	19.594	1.2727	5.e-002	-4.2604
20174	19.87	1.2727	0.	-881.73
20175	19.778	1.1818	0.	-902.6
20176	19.778	1.2727	5.e-002	-4.2446
20177	20.053	1.2727	0.	-840.71
20178	19.962	1.1818	0.	-861.45
20179	19.962	1.2727	5.e-002	-4.2297
20180	20.237	1.2727	0.	-799.87
20181	20.145	1.1818	0.	-820.48
20182	20.145	1.2727	5.e-002	-4.2157
20183	20.42	1.2727	0.	-759.22
20184	20.329	1.1818	0.	-779.69
20185	20.329	1.2727	5.e-002	-4.2026
20186	20.604	1.2727	0.	-718.74
20187	20.512	1.1818	0.	-739.08
20188	20.512	1.2727	5.e-002	-4.1905
20189	20.788	1.2727	0.	-678.45
20190	20.696	1.1818	0.	-698.65
20191	20.696	1.2727	5.e-002	-4.1796
20192	20.971	1.2727	0.	-638.33
20193	20.879	1.1818	0.	-658.39
20194	20.879	1.2727	5.e-002	-4.1698
20195	21.155	1.2727	0.	-598.39
20196	21.063	1.1818	0.	-618.31
20197	21.063	1.2727	5.e-002	-4.1612
20198	21.338	1.2727	0.	-558.64
20199	21.246	1.1818	0.	-578.4
20200	21.246	1.2727	5.e-002	-4.1541
20201	21.522	1.2727	0.	-519.06
20202	21.43	1.1818	0.	-538.68
20203	21.43	1.2727	5.e-002	-4.1485
20204	21.705	1.2727	0.	-479.67
20205	21.614	1.1818	0.	-499.13
20206	21.614	1.2727	5.e-002	-4.1447
20207	21.889	1.2727	0.	-440.47
20208	21.797	1.1818	0.	-459.77
20209	21.797	1.2727	5.e-002	-4.1429
20210	22.073	1.2727	0.	-401.45
20211	21.981	1.1818	0.	-420.59
20212	21.981	1.2727	5.e-002	-4.1434
20213	22.256	1.2727	0.	-362.64
20214	22.164	1.1818	0.	-381.61
20215	22.164	1.2727	5.e-002	-4.1466
20216	22.44	1.2727	0.	-324.02
20217	22.348	1.1818	0.	-342.84
20218	22.348	1.2727	5.e-002	-4.1531
20219	22.623	1.2727	0.	-285.62
20220	22.531	1.1818	0.	-304.27
20221	22.531	1.2727	5.e-002	-4.1637
20222	22.807	1.2727	0.	-247.41
20223	22.715	1.1818	0.	-265.93
20224	22.715	1.2727	5.e-002	-4.1794
20225	22.99	1.2727	0.	-209.4
20226	22.899	1.1818	0.	-227.81
20227	22.899	1.2727	5.e-002	-4.2015
20228	23.174	1.2727	0.	-171.56
20229	23.082	1.1818	0.	-189.91
20230	23.082	1.2727	5.e-002	-4.2317
20231	23.358	1.2727	0.	-133.84
20232	23.266	1.1818	0.	-152.2
20233	23.266	1.2727	5.e-002	-4.2721
20234	23.541	1.2727	0.	-96.136
20235	23.449	1.1818	0.	-114.63
20236	23.449	1.2727	5.e-002	-4.3247
20237	23.725	1.2727	0.	-58.453
20238	23.633	1.1818	0.	-77.071
20239	23.633	1.2727	5.e-002	-4.3947
20240	23.816	1.1818	0.	-39.658
20241	23.816	1.2727	5.e-002	-4.5482
20242	23.908	1.2727	0.	-22.401
20243	11.242	1.0909	0.	-1941.6
20244	11.15	1.	0.	-1750.2
20245	11.15	1.0909	5.e-002	-68.081
20246	11.058	1.0909	0.	-1574.8
20247	11.426	1.0909	0.	-2030.8
20248	11.334	1.	0.	-1815.1
20249	11.334	1.0909	5.e-002	-44.248
20250	11.609	1.0909	0.	-2147.
20251	11.517	1.	0.	-1951.6
20252	11.517	1.0909	5.e-002	-34.871
20253	11.793	1.0909	0.	-2245.4
20254	11.701	1.	0.	-2079.7
20255	11.701	1.0909	5.e-002	-26.743
20256	11.976	1.0909	0.	-2322.2
20257	11.885	1.	0.	-2187.8
20258	11.885	1.0909	5.e-002	-20.425
20259	12.16	1.0909	0.	-2377.7
20260	12.068	1.	0.	-2272.4
20261	12.068	1.0909	5.e-002	-15.732
20262	12.343	1.0909	0.	-2414.2
20263	12.252	1.	0.	-2334.1
20264	12.252	1.0909	5.e-002	-12.264
20265	12.527	1.0909	0.	-2434.3
20266	12.435	1.	0.	-2375.3
20267	12.435	1.0909	5.e-002	-9.6956
20268	12.711	1.0909	0.	-2440.7
20269	12.619	1.	0.	-2399.
20270	12.619	1.0909	5.e-002	-7.8053
20271	12.894	1.0909	0.	-2435.8
20272	12.802	1.	0.	-2408.1
20273	12.802	1.0909	5.e-002	-6.4483
20274	13.078	1.0909	0.	-2421.8
20275	12.986	1.	0.	-2405.3
20276	12.986	1.0909	5.e-002	-5.5217
20277	13.261	1.0909	0.	-2400.4
20278	13.169	1.	0.	-2393.
20279	13.169	1.0909	5.e-002	-4.9381
20280	13.445	1.0909	0.	-2373.3
20281	13.353	1.	0.	-2373.
20282	13.353	1.0909	5.e-002	-4.612
20283	13.628	1.0909	0.	-2341.6
20284	13.537	1.	0.	-2346.9
20285	13.537	1.0909	5.e-002	-4.4621
20286	13.812	1.0909	0.	-2306.4
20287	13.72	1.	0.	-2316.1
20288	13.72	1.0909	5.e-002	-4.4202
20289	13.996	1.0909	0.	-2268.5
20290	13.904	1.	0.	-2281.6
20291	13.904	1.0909	5.e-002	-4.4365
20292	14.179	1.0909	0.	-2228.5
20293	14.087	1.	0.	-2244.3
20294	14.087	1.0909	5.e-002	-4.4789
20295	14.363	1.0909	0.	-2187.
20296	14.271	1.	0.	-2204.8
20297	14.271	1.0909	5.e-002	-4.5285
20298	14.546	1.0909	0.	-2144.4
20299	14.454	1.	0.	-2163.7
20300	14.454	1.0909	5.e-002	-4.5754
20301	14.73	1.0909	0.	-2100.8
20302	14.638	1.	0.	-2121.3
20303	14.638	1.0909	5.e-002	-4.6145
20304	14.913	1.0909	0.	-2056.8
20305	14.822	1.	0.	-2078.1
20306	14.822	1.0909	5.e-002	-4.6444
20307	15.097	1.0909	0.	-2012.3
20308	15.005	1.	0.	-2034.2
20309	15.005	1.0909	5.e-002	-4.6647
20310	15.281	1.0909	0.	-1967.5
20311	15.189	1.	0.	-1989.9
20312	15.189	1.0909	5.e-002	-4.6763
20313	15.464	1.0909	0.	-1922.6
20314	15.372	1.	0.	-1945.4
20315	15.372	1.0909	5.e-002	-4.6804
20316	15.648	1.0909	0.	-1877.6
20317	15.556	1.	0.	-1900.6
20318	15.556	1.0909	5.e-002	-4.678
20319	15.831	1.0909	0.	-1832.7
20320	15.739	1.	0.	-1855.8
20321	15.739	1.0909	5.e-002	-4.6704
20322	16.015	1.0909	0.	-1787.8
20323	15.923	1.	0.	-1810.9
20324	15.923	1.0909	5.e-002	-4.6586
20325	16.198	1.0909	0.	-1743.
20326	16.107	1.	0.	-1766.1
20327	16.107	1.0909	5.e-002	-4.6435
20328	16.382	1.0909	0.	-1698.3
20329	16.29	1.	0.	-1721.4
20330	16.29	1.0909	5.e-002	-4.6259
20331	16.565	1.0909	0.	-1653.7
20332	16.474	1.	0.	-1676.8
20333	16.474	1.0909	5.e-002	-4.6065
20334	16.749	1.0909	0.	-1609.3
20335	16.657	1.	0.	-1632.3
20336	16.657	1.0909	5.e-002	-4.5857
20337	16.933	1.0909	0.	-1565.1
20338	16.841	1.	0.	-1588.
20339	16.841	1.0909	5.e-002	-4.5639
20340	17.116	1.0909	0.	-1521.
20341	17.024	1.	0.	-1543.8
20342	17.024	1.0909	5.e-002	-4.5416
20343	17.3	1.0909	0.	-1477.1
20344	17.208	1.	0.	-1499.8
20345	17.208	1.0909	5.e-002	-4.5191
20346	17.483	1.0909	0.	-1433.4
20347	17.392	1.	0.	-1456.
20348	17.392	1.0909	5.e-002	-4.4964
20349	17.667	1.0909	0.	-1389.9
20350	17.575	1.	0.	-1412.4
20351	17.575	1.0909	5.e-002	-4.4738
20352	17.85	1.0909	0.	-1346.6
20353	17.759	1.	0.	-1368.9
20354	17.759	1.0909	5.e-002	-4.4515
20355	18.034	1.0909	0.	-1303.4
20356	17.942	1.	0.	-1325.7
20357	17.942	1.0909	5.e-002	-4.4295
20358	18.218	1.0909	0.	-1260.5
20359	18.126	1.	0.	-1282.6
20360	18.126	1.0909	5.e-002	-4.4079
20361	18.401	1.0909	0.	-1217.7
20362	18.309	1.	0.	-1239.7
20363	18.309	1.0909	5.e-002	-4.3868
20364	18.585	1.0909	0.	-1175.2
20365	18.493	1.	0.	-1197.
20366	18.493	1.0909	5.e-002	-4.3662
20367	18.768	1.0909	0.	-1132.8
20368	18.677	1.	0.	-1154.5
20369	18.677	1.0909	5.e-002	-4.3462
20370	18.952	1.0909	0.	-1090.6
20371	18.86	1.	0.	-1112.2
20372	18.86	1.0909	5.e-002	-4.3268
20373	19.135	1.0909	0.	-1048.6
20374	19.044	1.	0.	-1070.
20375	19.044	1.0909	5.e-002	-4.3081
20376	19.319	1.0909	0.	-1006.7
20377	19.227	1.	0.	-1028.1
20378	19.227	1.0909	5.e-002	-4.29
20379	19.503	1.0909	0.	-965.1
20380	19.411	1.	0.	-986.33
20381	19.411	1.0909	5.e-002	-4.2727
20382	19.686	1.0909	0.	-923.64
20383	19.594	1.	0.	-944.75
20384	19.594	1.0909	5.e-002	-4.2561
20385	19.87	1.0909	0.	-882.36
20386	19.778	1.	0.	-903.35
20387	19.778	1.0909	5.e-002	-4.2403
20388	20.053	1.0909	0.	-841.26
20389	19.962	1.	0.	-862.12
20390	19.962	1.0909	5.e-002	-4.2252
20391	20.237	1.0909	0.	-800.34
20392	20.145	1.	0.	-821.07
20393	20.145	1.0909	5.e-002	-4.211
20394	20.42	1.0909	0.	-759.6
20395	20.329	1.	0.	-780.2
20396	20.329	1.0909	5.e-002	-4.1977
20397	20.604	1.0909	0.	-719.03
20398	20.512	1.	0.	-739.5
20399	20.512	1.0909	5.e-002	-4.1854
20400	20.788	1.0909	0.	-678.64
20401	20.696	1.	0.	-698.97
20402	20.696	1.0909	5.e-002	-4.1741
20403	20.971	1.0909	0.	-638.42
20404	20.879	1.	0.	-658.61
20405	20.879	1.0909	5.e-002	-4.1638
20406	21.155	1.0909	0.	-598.37
20407	21.063	1.	0.	-618.42
20408	21.063	1.0909	5.e-002	-4.1548
20409	21.338	1.0909	0.	-558.5
20410	21.246	1.	0.	-578.4
20411	21.246	1.0909	5.e-002	-4.147
20412	21.522	1.0909	0.	-518.8
20413	21.43	1.	0.	-538.55
20414	21.43	1.0909	5.e-002	-4.1406
20415	21.705	1.0909	0.	-479.28
20416	21.614	1.	0.	-498.87
20417	21.614	1.0909	5.e-002	-4.1358
20418	21.889	1.0909	0.	-439.95
20419	21.797	1.	0.	-459.37
20420	21.797	1.0909	5.e-002	-4.1328
20421	22.073	1.0909	0.	-400.8
20422	21.981	1.	0.	-420.06
20423	21.981	1.0909	5.e-002	-4.1319
20424	22.256	1.0909	0.	-361.86
20425	22.164	1.	0.	-380.94
20426	22.164	1.0909	5.e-002	-4.1334
20427	22.44	1.0909	0.	-323.13
20428	22.348	1.	0.	-342.02
20429	22.348	1.0909	5.e-002	-4.138
20430	22.623	1.0909	0.	-284.63
20431	22.531	1.	0.	-303.33
20432	22.531	1.0909	5.e-002	-4.1464
20433	22.807	1.0909	0.	-246.37
20434	22.715	1.	0.	-264.88
20435	22.715	1.0909	5.e-002	-4.1597
20436	22.99	1.0909	0.	-208.36
20437	22.899	1.	0.	-226.7
20438	22.899	1.0909	5.e-002	-4.1794
20439	23.174	1.0909	0.	-170.58
20440	23.082	1.	0.	-188.79
20441	23.082	1.0909	5.e-002	-4.2077
20442	23.358	1.0909	0.	-133.01
20443	23.266	1.	0.	-151.17
20444	23.266	1.0909	5.e-002	-4.2475
20445	23.541	1.0909	0.	-95.568
20446	23.449	1.	0.	-113.79
20447	23.449	1.0909	5.e-002	-4.3021
20448	23.725	1.0909	0.	-58.221
20449	23.633	1.	0.	-76.561
20450	23.633	1.0909	5.e-002	-4.3792
20451	23.816	1.	0.	-39.569
20452	23.816	1.0909	5.e-002	-4.5586
20453	23.908	1.0909	0.	-22.388
20454	11.242	0.90909	0.	-1594.4
20455	11.15	0.81818	0.	-1415.8
20456	11.15	0.90909	5.e-002	-56.417
20457	11.058	0.90909	0.	-1283.
20458	11.426	0.90909	0.	-1714.4
20459	11.334	0.81818	0.	-1508.8
20460	11.334	0.90909	5.e-002	-39.026
20461	11.609	0.90909	0.	-1870.2
20462	11.517	0.81818	0.	-1678.5
20463	11.517	0.90909	5.e-002	-32.708
20464	11.793	0.90909	0.	-2013.4
20465	11.701	0.81818	0.	-1847.3
20466	11.701	0.90909	5.e-002	-26.427
20467	11.976	0.90909	0.	-2132.9
20468	11.885	0.81818	0.	-1995.9
20469	11.885	0.90909	5.e-002	-20.842
20470	12.16	0.90909	0.	-2225.8
20471	12.068	0.81818	0.	-2116.7
20472	12.068	0.90909	5.e-002	-16.207
20473	12.343	0.90909	0.	-2293.4
20474	12.252	0.81818	0.	-2209.3
20475	12.252	0.90909	5.e-002	-12.5
20476	12.527	0.90909	0.	-2338.9
20477	12.435	0.81818	0.	-2276.
20478	12.435	0.90909	5.e-002	-9.5941
20479	12.711	0.90909	0.	-2365.8
20480	12.619	0.81818	0.	-2320.5
20481	12.619	0.90909	5.e-002	-7.3657
20482	12.894	0.90909	0.	-2377.3
20483	12.802	0.81818	0.	-2346.5
20484	12.802	0.90909	5.e-002	-5.7208
20485	13.078	0.90909	0.	-2376.4
20486	12.986	0.81818	0.	-2357.2
20487	12.986	0.90909	5.e-002	-4.595
20488	13.261	0.90909	0.	-2365.4
20489	13.169	0.81818	0.	-2355.7
20490	13.169	0.90909	5.e-002	-3.9296
20491	13.445	0.90909	0.	-2346.5
20492	13.353	0.81818	0.	-2344.3
20493	13.353	0.90909	5.e-002	-3.638
20494	13.628	0.90909	0.	-2321.4
20495	13.537	0.81818	0.	-2325.1
20496	13.537	0.90909	5.e-002	-3.6001
20497	13.812	0.90909	0.	-2291.3
20498	13.72	0.81818	0.	-2299.7
20499	13.72	0.90909	5.e-002	-3.6987
20500	13.996	0.90909	0.	-2257.4
20501	13.904	0.81818	0.	-2269.5
20502	13.904	0.90909	5.e-002	-3.8515
20503	14.179	0.90909	0.	-2220.6
20504	14.087	0.81818	0.	-2235.5
20505	14.087	0.90909	5.e-002	-4.0126
20506	14.363	0.90909	0.	-2181.5
20507	14.271	0.81818	0.	-2198.6
20508	14.271	0.90909	5.e-002	-4.1599
20509	14.546	0.90909	0.	-2140.7
20510	14.454	0.81818	0.	-2159.5
20511	14.454	0.90909	5.e-002	-4.2849
20512	14.73	0.90909	0.	-2098.6
20513	14.638	0.81818	0.	-2118.7
20514	14.638	0.90909	5.e-002	-4.3859
20515	14.913	0.90909	0.	-2055.6
20516	14.822	0.81818	0.	-2076.7
20517	14.822	0.90909	5.e-002	-4.4643
20518	15.097	0.90909	0.	-2012.
20519	15.005	0.81818	0.	-2033.8
20520	15.005	0.90909	5.e-002	-4.5227
20521	15.281	0.90909	0.	-1967.8
20522	15.189	0.81818	0.	-1990.1
20523	15.189	0.90909	5.e-002	-4.5641
20524	15.464	0.90909	0.	-1923.4
20525	15.372	0.81818	0.	-1946.1
20526	15.372	0.90909	5.e-002	-4.5915
20527	15.648	0.90909	0.	-1878.8
20528	15.556	0.81818	0.	-1901.7
20529	15.556	0.90909	5.e-002	-4.6073
20530	15.831	0.90909	0.	-1834.
20531	15.739	0.81818	0.	-1857.1
20532	15.739	0.90909	5.e-002	-4.614
20533	16.015	0.90909	0.	-1789.3
20534	15.923	0.81818	0.	-1812.4
20535	15.923	0.90909	5.e-002	-4.6133
20536	16.198	0.90909	0.	-1744.6
20537	16.107	0.81818	0.	-1767.8
20538	16.107	0.90909	5.e-002	-4.607
20539	16.382	0.90909	0.	-1699.9
20540	16.29	0.81818	0.	-1723.1
20541	16.29	0.90909	5.e-002	-4.5963
20542	16.565	0.90909	0.	-1655.4
20543	16.474	0.81818	0.	-1678.5
20544	16.474	0.90909	5.e-002	-4.5822
20545	16.749	0.90909	0.	-1611.
20546	16.657	0.81818	0.	-1634.1
20547	16.657	0.90909	5.e-002	-4.5657
20548	16.933	0.90909	0.	-1566.7
20549	16.841	0.81818	0.	-1589.7
20550	16.841	0.90909	5.e-002	-4.5473
20551	17.116	0.90909	0.	-1522.7
20552	17.024	0.81818	0.	-1545.5
20553	17.024	0.90909	5.e-002	-4.5276
20554	17.3	0.90909	0.	-1478.7
20555	17.208	0.81818	0.	-1501.5
20556	17.208	0.90909	5.e-002	-4.5072
20557	17.483	0.90909	0.	-1435.
20558	17.392	0.81818	0.	-1457.7
20559	17.392	0.90909	5.e-002	-4.4861
20560	17.667	0.90909	0.	-1391.4
20561	17.575	0.81818	0.	-1414.
20562	17.575	0.90909	5.e-002	-4.4649
20563	17.85	0.90909	0.	-1348.
20564	17.759	0.81818	0.	-1370.5
20565	17.759	0.90909	5.e-002	-4.4435
20566	18.034	0.90909	0.	-1304.8
20567	17.942	0.81818	0.	-1327.2
20568	17.942	0.90909	5.e-002	-4.4224
20569	18.218	0.90909	0.	-1261.8
20570	18.126	0.81818	0.	-1284.
20571	18.126	0.90909	5.e-002	-4.4014
20572	18.401	0.90909	0.	-1219.
20573	18.309	0.81818	0.	-1241.1
20574	18.309	0.90909	5.e-002	-4.3808
20575	18.585	0.90909	0.	-1176.4
20576	18.493	0.81818	0.	-1198.4
20577	18.493	0.90909	5.e-002	-4.3607
20578	18.768	0.90909	0.	-1133.9
20579	18.677	0.81818	0.	-1155.8
20580	18.677	0.90909	5.e-002	-4.341
20581	18.952	0.90909	0.	-1091.7
20582	18.86	0.81818	0.	-1113.4
20583	18.86	0.90909	5.e-002	-4.3218
20584	19.135	0.90909	0.	-1049.6
20585	19.044	0.81818	0.	-1071.2
20586	19.044	0.90909	5.e-002	-4.3032
20587	19.319	0.90909	0.	-1007.7
20588	19.227	0.81818	0.	-1029.2
20589	19.227	0.90909	5.e-002	-4.2853
20590	19.503	0.90909	0.	-966.02
20591	19.411	0.81818	0.	-987.38
20592	19.411	0.90909	5.e-002	-4.268
20593	19.686	0.90909	0.	-924.5
20594	19.594	0.81818	0.	-945.73
20595	19.594	0.90909	5.e-002	-4.2514
20596	19.87	0.90909	0.	-883.15
20597	19.778	0.81818	0.	-904.26
20598	19.778	0.90909	5.e-002	-4.2355
20599	20.053	0.90909	0.	-841.97
20600	19.962	0.81818	0.	-862.96
20601	19.962	0.90909	5.e-002	-4.2203
20602	20.237	0.90909	0.	-800.97
20603	20.145	0.81818	0.	-821.83
20604	20.145	0.90909	5.e-002	-4.206
20605	20.42	0.90909	0.	-760.14
20606	20.329	0.81818	0.	-780.88
20607	20.329	0.90909	5.e-002	-4.1925
20608	20.604	0.90909	0.	-719.48
20609	20.512	0.81818	0.	-740.09
20610	20.512	0.90909	5.e-002	-4.1799
20611	20.788	0.90909	0.	-678.99
20612	20.696	0.81818	0.	-699.47
20613	20.696	0.90909	5.e-002	-4.1682
20614	20.971	0.90909	0.	-638.66
20615	20.879	0.81818	0.	-659.01
20616	20.879	0.90909	5.e-002	-4.1575
20617	21.155	0.90909	0.	-598.5
20618	21.063	0.81818	0.	-618.71
20619	21.063	0.90909	5.e-002	-4.1479
20620	21.338	0.90909	0.	-558.51
20621	21.246	0.81818	0.	-578.57
20622	21.246	0.90909	5.e-002	-4.1394
20623	21.522	0.90909	0.	-518.68
20624	21.43	0.81818	0.	-538.6
20625	21.43	0.90909	5.e-002	-4.1322
20626	21.705	0.90909	0.	-479.03
20627	21.614	0.81818	0.	-498.79
20628	21.614	0.90909	5.e-002	-4.1264
20629	21.889	0.90909	0.	-439.55
20630	21.797	0.81818	0.	-459.15
20631	21.797	0.90909	5.e-002	-4.1222
20632	22.073	0.90909	0.	-400.26
20633	21.981	0.81818	0.	-419.68
20634	21.981	0.90909	5.e-002	-4.1198
20635	22.256	0.90909	0.	-361.16
20636	22.164	0.81818	0.	-380.4
20637	22.164	0.90909	5.e-002	-4.1196
20638	22.44	0.90909	0.	-322.29
20639	22.348	0.81818	0.	-341.32
20640	22.348	0.90909	5.e-002	-4.122
20641	22.623	0.90909	0.	-283.64
20642	22.531	0.81818	0.	-302.46
20643	22.531	0.90909	5.e-002	-4.1277
20644	22.807	0.90909	0.	-245.27
20645	22.715	0.81818	0.	-263.85
20646	22.715	0.90909	5.e-002	-4.138
20647	22.99	0.90909	0.	-207.19
20648	22.899	0.81818	0.	-225.53
20649	22.899	0.90909	5.e-002	-4.1543
20650	23.174	0.90909	0.	-169.43
20651	23.082	0.81818	0.	-187.55
20652	23.082	0.90909	5.e-002	-4.1794
20653	23.358	0.90909	0.	-131.98
20654	23.266	0.81818	0.	-149.93
20655	23.266	0.90909	5.e-002	-4.2171
20656	23.541	0.90909	0.	-94.804
20657	23.449	0.81818	0.	-112.72
20658	23.449	0.90909	5.e-002	-4.2727
20659	23.725	0.90909	0.	-57.864
20660	23.633	0.81818	0.	-75.834
20661	23.633	0.90909	5.e-002	-4.3576
20662	23.816	0.81818	0.	-39.376
20663	23.816	0.90909	5.e-002	-4.5672
20664	23.908	0.90909	0.	-22.332
20665	11.242	0.72727	0.	-1303.4
20666	11.15	0.63636	0.	-1128.
20667	11.15	0.72727	5.e-002	-48.172
20668	11.058	0.72727	0.	-1033.8
20669	11.426	0.72727	0.	-1453.8
20670	11.334	0.63636	0.	-1253.7
20671	11.334	0.72727	5.e-002	-35.549
20672	11.609	0.72727	0.	-1643.7
20673	11.517	0.63636	0.	-1456.8
20674	11.517	0.72727	5.e-002	-31.02
20675	11.793	0.72727	0.	-1822.8
20676	11.701	0.63636	0.	-1660.2
20677	11.701	0.72727	5.e-002	-26.003
20678	11.976	0.72727	0.	-1975.6
20679	11.885	0.63636	0.	-1840.6
20680	11.885	0.72727	5.e-002	-21.096
20681	12.16	0.72727	0.	-2097.8
20682	12.068	0.63636	0.	-1989.4
20683	12.068	0.72727	5.e-002	-16.677
20684	12.343	0.72727	0.	-2190.5
20685	12.252	0.63636	0.	-2105.9
20686	12.252	0.72727	5.e-002	-12.899
20687	12.527	0.72727	0.	-2256.8
20688	12.435	0.63636	0.	-2192.8
20689	12.435	0.72727	5.e-002	-9.7749
20690	12.711	0.72727	0.	-2300.7
20691	12.619	0.63636	0.	-2254.1
20692	12.619	0.72727	5.e-002	-7.2594
20693	12.894	0.72727	0.	-2326.1
20694	12.802	0.63636	0.	-2293.9
20695	12.802	0.72727	5.e-002	-5.304
20696	13.078	0.72727	0.	-2336.4
20697	12.986	0.63636	0.	-2315.9
20698	12.986	0.72727	5.e-002	-3.8847
20699	13.261	0.72727	0.	-2334.5
20700	13.169	0.63636	0.	-2323.5
20701	13.169	0.72727	5.e-002	-3.0115
20702	13.445	0.72727	0.	-2322.8
20703	13.353	0.63636	0.	-2319.5
20704	13.353	0.72727	5.e-002	-2.6731
20705	13.628	0.72727	0.	-2303.4
20706	13.537	0.63636	0.	-2306.2
20707	13.537	0.72727	5.e-002	-2.7341
20708	13.812	0.72727	0.	-2277.9
20709	13.72	0.63636	0.	-2285.5
20710	13.72	0.72727	5.e-002	-2.9872
20711	13.996	0.72727	0.	-2247.6
20712	13.904	0.63636	0.	-2259.
20713	13.904	0.72727	5.e-002	-3.2886
20714	14.179	0.72727	0.	-2213.6
20715	14.087	0.63636	0.	-2227.9
20716	14.087	0.72727	5.e-002	-3.5728
20717	14.363	0.72727	0.	-2176.7
20718	14.271	0.63636	0.	-2193.4
20719	14.271	0.72727	5.e-002	-3.8174
20720	14.546	0.72727	0.	-2137.6
20721	14.454	0.63636	0.	-2156.1
20722	14.454	0.72727	5.e-002	-4.0178
20723	14.73	0.72727	0.	-2096.8
20724	14.638	0.63636	0.	-2116.7
20725	14.638	0.72727	5.e-002	-4.1771
20726	14.913	0.72727	0.	-2054.9
20727	14.822	0.63636	0.	-2075.8
20728	14.822	0.72727	5.e-002	-4.3005
20729	15.097	0.72727	0.	-2012.
20730	15.005	0.63636	0.	-2033.6
20731	15.005	0.72727	5.e-002	-4.3937
20732	15.281	0.72727	0.	-1968.4
20733	15.189	0.63636	0.	-1990.6
20734	15.189	0.72727	5.e-002	-4.4621
20735	15.464	0.72727	0.	-1924.4
20736	15.372	0.63636	0.	-1947.
20737	15.372	0.72727	5.e-002	-4.5105
20738	15.648	0.72727	0.	-1880.1
20739	15.556	0.63636	0.	-1903.
20740	15.556	0.72727	5.e-002	-4.5427
20741	15.831	0.72727	0.	-1835.6
20742	15.739	0.63636	0.	-1858.7
20743	15.739	0.72727	5.e-002	-4.5621
20744	16.015	0.72727	0.	-1791.
20745	15.923	0.63636	0.	-1814.2
20746	15.923	0.72727	5.e-002	-4.5714
20747	16.198	0.72727	0.	-1746.3
20748	16.107	0.63636	0.	-1769.6
20749	16.107	0.72727	5.e-002	-4.5728
20750	16.382	0.72727	0.	-1701.7
20751	16.29	0.63636	0.	-1725.
20752	16.29	0.72727	5.e-002	-4.5682
20753	16.565	0.72727	0.	-1657.2
20754	16.474	0.63636	0.	-1680.5
20755	16.474	0.72727	5.e-002	-4.559
20756	16.749	0.72727	0.	-1612.8
20757	16.657	0.63636	0.	-1636.
20758	16.657	0.72727	5.e-002	-4.5462
20759	16.933	0.72727	0.	-1568.6
20760	16.841	0.63636	0.	-1591.7
20761	16.841	0.72727	5.e-002	-4.5308
20762	17.116	0.72727	0.	-1524.4
20763	17.024	0.63636	0.	-1547.4
20764	17.024	0.72727	5.e-002	-4.5135
20765	17.3	0.72727	0.	-1480.5
20766	17.208	0.63636	0.	-1503.4
20767	17.208	0.72727	5.e-002	-4.4948
20768	17.483	0.72727	0.	-1436.7
20769	17.392	0.63636	0.	-1459.5
20770	17.392	0.72727	5.e-002	-4.4753
20771	17.667	0.72727	0.	-1393.1
20772	17.575	0.63636	0.	-1415.8
20773	17.575	0.72727	5.e-002	-4.4552
20774	17.85	0.72727	0.	-1349.6
20775	17.759	0.63636	0.	-1372.2
20776	17.759	0.72727	5.e-002	-4.4348
20777	18.034	0.72727	0.	-1306.4
20778	17.942	0.63636	0.	-1328.8
20779	17.942	0.72727	5.e-002	-4.4143
20780	18.218	0.72727	0.	-1263.3
20781	18.126	0.63636	0.	-1285.7
20782	18.126	0.72727	5.e-002	-4.394
20783	18.401	0.72727	0.	-1220.5
20784	18.309	0.63636	0.	-1242.7
20785	18.309	0.72727	5.e-002	-4.3739
20786	18.585	0.72727	0.	-1177.8
20787	18.493	0.63636	0.	-1199.9
20788	18.493	0.72727	5.e-002	-4.354
20789	18.768	0.72727	0.	-1135.3
20790	18.677	0.63636	0.	-1157.2
20791	18.677	0.72727	5.e-002	-4.3346
20792	18.952	0.72727	0.	-1093.
20793	18.86	0.63636	0.	-1114.8
20794	18.86	0.72727	5.e-002	-4.3156
20795	19.135	0.72727	0.	-1050.8
20796	19.044	0.63636	0.	-1072.6
20797	19.044	0.72727	5.e-002	-4.2972
20798	19.319	0.72727	0.	-1008.9
20799	19.227	0.63636	0.	-1030.5
20800	19.227	0.72727	5.e-002	-4.2793
20801	19.503	0.72727	0.	-967.12
20802	19.411	0.63636	0.	-988.6
20803	19.411	0.72727	5.e-002	-4.2621
20804	19.686	0.72727	0.	-925.53
20805	19.594	0.63636	0.	-946.89
20806	19.594	0.72727	5.e-002	-4.2455
20807	19.87	0.72727	0.	-884.11
20808	19.778	0.63636	0.	-905.36
20809	19.778	0.72727	5.e-002	-4.2295
20810	20.053	0.72727	0.	-842.86
20811	19.962	0.63636	0.	-863.99
20812	19.962	0.72727	5.e-002	-4.2143
20813	20.237	0.72727	0.	-801.78
20814	20.145	0.63636	0.	-822.79
20815	20.145	0.72727	5.e-002	-4.1998
20816	20.42	0.72727	0.	-760.87
20817	20.329	0.63636	0.	-781.76
20818	20.329	0.72727	5.e-002	-4.1861
20819	20.604	0.72727	0.	-720.12
20820	20.512	0.63636	0.	-740.89
20821	20.512	0.72727	5.e-002	-4.1732
20822	20.788	0.72727	0.	-679.54
20823	20.696	0.63636	0.	-700.19
20824	20.696	0.72727	5.e-002	-4.1612
20825	20.971	0.72727	0.	-639.11
20826	20.879	0.63636	0.	-659.63
20827	20.879	0.72727	5.e-002	-4.15
20828	21.155	0.72727	0.	-598.84
20829	21.063	0.63636	0.	-619.24
20830	21.063	0.72727	5.e-002	-4.1399
20831	21.338	0.72727	0.	-558.73
20832	21.246	0.63636	0.	-578.99
20833	21.246	0.72727	5.e-002	-4.1308
20834	21.522	0.72727	0.	-518.78
20835	21.43	0.63636	0.	-538.9
20836	21.43	0.72727	5.e-002	-4.1228
20837	21.705	0.72727	0.	-478.98
20838	21.614	0.63636	0.	-498.97
20839	21.614	0.72727	5.e-002	-4.116
20840	21.889	0.72727	0.	-439.36
20841	21.797	0.63636	0.	-459.18
20842	21.797	0.72727	5.e-002	-4.1106
20843	22.073	0.72727	0.	-399.9
20844	21.981	0.63636	0.	-419.56
20845	21.981	0.72727	5.e-002	-4.1067
20846	22.256	0.72727	0.	-360.64
20847	22.164	0.63636	0.	-380.12
20848	22.164	0.72727	5.e-002	-4.1046
20849	22.44	0.72727	0.	-321.58
20850	22.348	0.63636	0.	-340.85
20851	22.348	0.72727	5.e-002	-4.1047
20852	22.623	0.72727	0.	-282.76
20853	22.531	0.63636	0.	-301.8
20854	22.531	0.72727	5.e-002	-4.1075
20855	22.807	0.72727	0.	-244.2
20856	22.715	0.63636	0.	-262.98
20857	22.715	0.72727	5.e-002	-4.1142
20858	22.99	0.72727	0.	-205.97
20859	22.899	0.63636	0.	-224.45
20860	22.899	0.72727	5.e-002	-4.1262
20861	23.174	0.72727	0.	-168.13
20862	23.082	0.63636	0.	-186.28
20863	23.082	0.72727	5.e-002	-4.1464
20864	23.358	0.72727	0.	-130.73
20865	23.266	0.63636	0.	-148.55
20866	23.266	0.72727	5.e-002	-4.1796
20867	23.541	0.72727	0.	-93.782
20868	23.449	0.63636	0.	-111.37
20869	23.449	0.72727	5.e-002	-4.2335
20870	23.725	0.72727	0.	-57.317
20871	23.633	0.63636	0.	-74.791
20872	23.633	0.72727	5.e-002	-4.3263
20873	23.816	0.63636	0.	-38.993
20874	23.816	0.72727	5.e-002	-4.5712
20875	23.908	0.72727	0.	-22.201
20876	11.242	0.54545	0.	-1052.1
20877	11.15	0.45455	0.	-869.57
20878	11.15	0.54545	5.e-002	-42.638
20879	11.058	0.54545	0.	-808.89
20880	11.426	0.54545	0.	-1240.7
20881	11.334	0.45455	0.	-1043.2
20882	11.334	0.54545	5.e-002	-33.575
20883	11.609	0.54545	0.	-1464.6
20884	11.517	0.45455	0.	-1284.8
20885	11.517	0.54545	5.e-002	-29.969
20886	11.793	0.54545	0.	-1673.2
20887	11.701	0.45455	0.	-1518.3
20888	11.701	0.54545	5.e-002	-25.679
20889	11.976	0.54545	0.	-1851.5
20890	11.885	0.45455	0.	-1722.6
20891	11.885	0.54545	5.e-002	-21.247
20892	12.16	0.54545	0.	-1995.7
20893	12.068	0.45455	0.	-1891.5
20894	12.068	0.54545	5.e-002	-17.051
20895	12.343	0.54545	0.	-2107.2
20896	12.252	0.45455	0.	-2025.3
20897	12.252	0.54545	5.e-002	-13.3
20898	12.527	0.54545	0.	-2189.5
20899	12.435	0.45455	0.	-2127.1
20900	12.435	0.54545	5.e-002	-10.073
20901	12.711	0.54545	0.	-2246.9
20902	12.619	0.45455	0.	-2201.1
20903	12.619	0.54545	5.e-002	-7.372
20904	12.894	0.54545	0.	-2283.5
20905	12.802	0.45455	0.	-2251.5
20906	12.802	0.54545	5.e-002	-5.1727
20907	13.078	0.54545	0.	-2302.9
20908	12.986	0.45455	0.	-2282.4
20909	12.986	0.54545	5.e-002	-3.4556
20910	13.261	0.54545	0.	-2308.5
20911	13.169	0.45455	0.	-2297.3
20912	13.169	0.54545	5.e-002	-2.2587
20913	13.445	0.54545	0.	-2302.8
20914	13.353	0.45455	0.	-2299.2
20915	13.353	0.54545	5.e-002	-1.7309
20916	13.628	0.54545	0.	-2288.2
20917	13.537	0.45455	0.	-2290.7
20918	13.537	0.54545	5.e-002	-1.8757
20919	13.812	0.54545	0.	-2266.6
20920	13.72	0.45455	0.	-2273.9
20921	13.72	0.54545	5.e-002	-2.3129
20922	13.996	0.54545	0.	-2239.4
20923	13.904	0.45455	0.	-2250.5
20924	13.904	0.54545	5.e-002	-2.7743
20925	14.179	0.54545	0.	-2207.8
20926	14.087	0.45455	0.	-2222.
20927	14.087	0.54545	5.e-002	-3.1792
20928	14.363	0.54545	0.	-2172.8
20929	14.271	0.45455	0.	-2189.4
20930	14.271	0.54545	5.e-002	-3.5129
20931	14.546	0.54545	0.	-2135.2
20932	14.454	0.45455	0.	-2153.6
20933	14.454	0.54545	5.e-002	-3.7799
20934	14.73	0.54545	0.	-2095.7
20935	14.638	0.45455	0.	-2115.4
20936	14.638	0.54545	5.e-002	-3.9892
20937	14.913	0.54545	0.	-2054.6
20938	14.822	0.45455	0.	-2075.4
20939	14.822	0.54545	5.e-002	-4.1507
20940	15.097	0.54545	0.	-2012.3
20941	15.005	0.45455	0.	-2034.
20942	15.005	0.54545	5.e-002	-4.273
20943	15.281	0.54545	0.	-1969.3
20944	15.189	0.45455	0.	-1991.6
20945	15.189	0.54545	5.e-002	-4.3637
20946	15.464	0.54545	0.	-1925.7
20947	15.372	0.45455	0.	-1948.3
20948	15.372	0.54545	5.e-002	-4.4293
20949	15.648	0.54545	0.	-1881.6
20950	15.556	0.45455	0.	-1904.6
20951	15.556	0.54545	5.e-002	-4.4749
20952	15.831	0.54545	0.	-1837.3
20953	15.739	0.45455	0.	-1860.5
20954	15.739	0.54545	5.e-002	-4.5047
20955	16.015	0.54545	0.	-1792.8
20956	15.923	0.45455	0.	-1816.1
20957	15.923	0.54545	5.e-002	-4.522
20958	16.198	0.54545	0.	-1748.3
20959	16.107	0.45455	0.	-1771.6
20960	16.107	0.54545	5.e-002	-4.5297
20961	16.382	0.54545	0.	-1703.7
20962	16.29	0.45455	0.	-1727.1
20963	16.29	0.54545	5.e-002	-4.53
20964	16.565	0.54545	0.	-1659.2
20965	16.474	0.45455	0.	-1682.6
20966	16.474	0.54545	5.e-002	-4.5245
20967	16.749	0.54545	0.	-1614.8
20968	16.657	0.45455	0.	-1638.1
20969	16.657	0.54545	5.e-002	-4.5147
20970	16.933	0.54545	0.	-1570.5
20971	16.841	0.45455	0.	-1593.8
20972	16.841	0.54545	5.e-002	-4.5016
20973	17.116	0.54545	0.	-1526.4
20974	17.024	0.45455	0.	-1549.5
20975	17.024	0.54545	5.e-002	-4.4862
20976	17.3	0.54545	0.	-1482.4
20977	17.208	0.45455	0.	-1505.4
20978	17.208	0.54545	5.e-002	-4.469
20979	17.483	0.54545	0.	-1438.6
20980	17.392	0.45455	0.	-1461.5
20981	17.392	0.54545	5.e-002	-4.4506
20982	17.667	0.54545	0.	-1394.9
20983	17.575	0.45455	0.	-1417.7
20984	17.575	0.54545	5.e-002	-4.4314
20985	17.85	0.54545	0.	-1351.4
20986	17.759	0.45455	0.	-1374.1
20987	17.759	0.54545	5.e-002	-4.4118
20988	18.034	0.54545	0.	-1308.1
20989	17.942	0.45455	0.	-1330.7
20990	17.942	0.54545	5.e-002	-4.392
20991	18.218	0.54545	0.	-1265.
20992	18.126	0.45455	0.	-1287.5
20993	18.126	0.54545	5.e-002	-4.3721
20994	18.401	0.54545	0.	-1222.1
20995	18.309	0.45455	0.	-1244.5
20996	18.309	0.54545	5.e-002	-4.3524
20997	18.585	0.54545	0.	-1179.4
20998	18.493	0.45455	0.	-1201.6
20999	18.493	0.54545	5.e-002	-4.3329
21000	18.768	0.54545	0.	-1136.8
21001	18.677	0.45455	0.	-1158.9
21002	18.677	0.54545	5.e-002	-4.3138
21003	18.952	0.54545	0.	-1094.4
21004	18.86	0.45455	0.	-1116.5
21005	18.86	0.54545	5.e-002	-4.2951
21006	19.135	0.54545	0.	-1052.2
21007	19.044	0.45455	0.	-1074.2
21008	19.044	0.54545	5.e-002	-4.2769
21009	19.319	0.54545	0.	-1010.2
21010	19.227	0.45455	0.	-1032.
21011	19.227	0.54545	5.e-002	-4.2592
21012	19.503	0.54545	0.	-968.42
21013	19.411	0.45455	0.	-990.09
21014	19.411	0.54545	5.e-002	-4.242
21015	19.686	0.54545	0.	-926.76
21016	19.594	0.45455	0.	-948.33
21017	19.594	0.54545	5.e-002	-4.2256
21018	19.87	0.54545	0.	-885.28
21019	19.778	0.45455	0.	-906.74
21020	19.778	0.54545	5.e-002	-4.2097
21021	20.053	0.54545	0.	-843.97
21022	19.962	0.45455	0.	-865.32
21023	19.962	0.54545	5.e-002	-4.1945
21024	20.237	0.54545	0.	-802.82
21025	20.145	0.45455	0.	-824.06
21026	20.145	0.54545	5.e-002	-4.1801
21027	20.42	0.54545	0.	-761.84
21028	20.329	0.45455	0.	-782.97
21029	20.329	0.54545	5.e-002	-4.1664
21030	20.604	0.54545	0.	-721.01
21031	20.512	0.45455	0.	-742.03
21032	20.512	0.54545	5.e-002	-4.1534
21033	20.788	0.54545	0.	-680.34
21034	20.696	0.45455	0.	-701.25
21035	20.696	0.54545	5.e-002	-4.1413
21036	20.971	0.54545	0.	-639.82
21037	20.879	0.45455	0.	-660.62
21038	20.879	0.54545	5.e-002	-4.1301
21039	21.155	0.54545	0.	-599.45
21040	21.063	0.45455	0.	-620.14
21041	21.063	0.54545	5.e-002	-4.1197
21042	21.338	0.54545	0.	-559.24
21043	21.246	0.45455	0.	-579.8
21044	21.246	0.54545	5.e-002	-4.1103
21045	21.522	0.54545	0.	-519.17
21046	21.43	0.45455	0.	-539.61
21047	21.43	0.54545	5.e-002	-4.1018
21048	21.705	0.54545	0.	-479.24
21049	21.614	0.45455	0.	-499.56
21050	21.614	0.54545	5.e-002	-4.0945
21051	21.889	0.54545	0.	-439.48
21052	21.797	0.45455	0.	-459.65
21053	21.797	0.54545	5.e-002	-4.0882
21054	22.073	0.54545	0.	-399.87
21055	21.981	0.45455	0.	-419.89
21056	21.981	0.54545	5.e-002	-4.0833
21057	22.256	0.54545	0.	-360.43
21058	22.164	0.45455	0.	-380.29
21059	22.164	0.54545	5.e-002	-4.0798
21060	22.44	0.54545	0.	-321.17
21061	22.348	0.45455	0.	-340.85
21062	22.348	0.54545	5.e-002	-4.078
21063	22.623	0.54545	0.	-282.14
21064	22.531	0.45455	0.	-301.59
21065	22.531	0.54545	5.e-002	-4.0784
21066	22.807	0.54545	0.	-243.35
21067	22.715	0.45455	0.	-262.55
21068	22.715	0.54545	5.e-002	-4.0816
21069	22.99	0.54545	0.	-204.88
21070	22.899	0.45455	0.	-223.76
21071	22.899	0.54545	5.e-002	-4.089
21072	23.174	0.54545	0.	-166.82
21073	23.082	0.45455	0.	-185.3
21074	23.082	0.54545	5.e-002	-4.1031
21075	23.358	0.54545	0.	-129.29
21076	23.266	0.45455	0.	-147.28
21077	23.266	0.54545	5.e-002	-4.129
21078	23.541	0.54545	0.	-92.447
21079	23.449	0.45455	0.	-109.88
21080	23.449	0.54545	5.e-002	-4.1773
21081	23.725	0.54545	0.	-56.467
21082	23.633	0.45455	0.	-73.378
21083	23.633	0.54545	5.e-002	-4.2742
21084	23.816	0.45455	0.	-38.305
21085	23.816	0.54545	5.e-002	-4.5675
21086	23.908	0.54545	0.	-21.917
21087	11.242	0.36364	0.	-835.17
21088	11.15	0.27273	0.	-639.04
21089	11.15	0.36364	5.e-002	-39.804
21090	11.058	0.36364	0.	-594.45
21091	11.426	0.36364	0.	-1076.5
21092	11.334	0.27273	0.	-888.97
21093	11.334	0.36364	5.e-002	-33.218
21094	11.609	0.36364	0.	-1333.7
21095	11.517	0.27273	0.	-1169.4
21096	11.517	0.36364	5.e-002	-29.882
21097	11.793	0.36364	0.	-1565.1
21098	11.701	0.27273	0.	-1424.4
21099	11.701	0.36364	5.e-002	-25.865
21100	11.976	0.36364	0.	-1761.
21101	11.885	0.27273	0.	-1643.5
21102	11.885	0.36364	5.e-002	-21.692
21103	12.16	0.36364	0.	-1920.
21104	12.068	0.27273	0.	-1824.5
21105	12.068	0.36364	5.e-002	-17.656
21106	12.343	0.36364	0.	-2044.5
21107	12.252	0.27273	0.	-1968.9
21108	12.252	0.36364	5.e-002	-13.954
21109	12.527	0.36364	0.	-2138.2
21110	12.435	0.27273	0.	-2080.3
21111	12.435	0.36364	5.e-002	-10.683
21112	12.711	0.36364	0.	-2205.4
21113	12.619	0.27273	0.	-2162.8
21114	12.619	0.36364	5.e-002	-7.8731
21115	12.894	0.36364	0.	-2250.3
21116	12.802	0.27273	0.	-2220.6
21117	12.802	0.36364	5.e-002	-5.513
21118	13.078	0.36364	0.	-2276.7
21119	12.986	0.27273	0.	-2257.8
21120	12.986	0.36364	5.e-002	-3.5708
21121	13.261	0.36364	0.	-2288.
21122	13.169	0.27273	0.	-2278.
21123	13.169	0.36364	5.e-002	-2.0235
21124	13.445	0.36364	0.	-2287.1
21125	13.353	0.27273	0.	-2284.4
21126	13.353	0.36364	5.e-002	-0.96147
21127	13.628	0.36364	0.	-2276.4
21128	13.537	0.27273	0.	-2279.6
21129	13.537	0.36364	5.e-002	-0.94488
21130	13.812	0.36364	0.	-2257.9
21131	13.72	0.27273	0.	-2265.8
21132	13.72	0.36364	5.e-002	-1.5787
21133	13.996	0.36364	0.	-2233.2
21134	13.904	0.27273	0.	-2244.8
21135	13.904	0.36364	5.e-002	-2.1899
21136	14.179	0.36364	0.	-2203.6
21137	14.087	0.27273	0.	-2218.2
21138	14.087	0.36364	5.e-002	-2.6947
21139	14.363	0.36364	0.	-2170.2
21140	14.271	0.27273	0.	-2187.2
21141	14.271	0.36364	5.e-002	-3.0975
21142	14.546	0.36364	0.	-2133.8
21143	14.454	0.27273	0.	-2152.7
21144	14.454	0.36364	5.e-002	-3.4137
21145	14.73	0.36364	0.	-2095.2
21146	14.638	0.27273	0.	-2115.5
21147	14.638	0.36364	5.e-002	-3.6587
21148	14.913	0.36364	0.	-2054.9
21149	14.822	0.27273	0.	-2076.2
21150	14.822	0.36364	5.e-002	-3.8461
21151	15.097	0.36364	0.	-2013.2
21152	15.005	0.27273	0.	-2035.4
21153	15.005	0.36364	5.e-002	-3.9875
21154	15.281	0.36364	0.	-1970.6
21155	15.189	0.27273	0.	-1993.4
21156	15.189	0.36364	5.e-002	-4.092
21157	15.464	0.36364	0.	-1927.3
21158	15.372	0.27273	0.	-1950.5
21159	15.372	0.36364	5.e-002	-4.1675
21160	15.648	0.36364	0.	-1883.5
21161	15.556	0.27273	0.	-1907.
21162	15.556	0.36364	5.e-002	-4.2201
21163	15.831	0.36364	0.	-1839.3
21164	15.739	0.27273	0.	-1863.1
21165	15.739	0.36364	5.e-002	-4.2546
21166	16.015	0.36364	0.	-1795.
21167	15.923	0.27273	0.	-1818.9
21168	15.923	0.36364	5.e-002	-4.2752
21169	16.198	0.36364	0.	-1750.5
21170	16.107	0.27273	0.	-1774.5
21171	16.107	0.36364	5.e-002	-4.2849
21172	16.382	0.36364	0.	-1706.
21173	16.29	0.27273	0.	-1730.
21174	16.29	0.36364	5.e-002	-4.2864
21175	16.565	0.36364	0.	-1661.5
21176	16.474	0.27273	0.	-1685.6
21177	16.474	0.36364	5.e-002	-4.2815
21178	16.749	0.36364	0.	-1617.1
21179	16.657	0.27273	0.	-1641.1
21180	16.657	0.36364	5.e-002	-4.272
21181	16.933	0.36364	0.	-1572.8
21182	16.841	0.27273	0.	-1596.8
21183	16.841	0.36364	5.e-002	-4.2589
21184	17.116	0.36364	0.	-1528.6
21185	17.024	0.27273	0.	-1552.5
21186	17.024	0.36364	5.e-002	-4.2434
21187	17.3	0.36364	0.	-1484.6
21188	17.208	0.27273	0.	-1508.4
21189	17.208	0.36364	5.e-002	-4.2261
21190	17.483	0.36364	0.	-1440.7
21191	17.392	0.27273	0.	-1464.5
21192	17.392	0.36364	5.e-002	-4.2076
21193	17.667	0.36364	0.	-1397.
21194	17.575	0.27273	0.	-1420.7
21195	17.575	0.36364	5.e-002	-4.1884
21196	17.85	0.36364	0.	-1353.5
21197	17.759	0.27273	0.	-1377.1
21198	17.759	0.36364	5.e-002	-4.1689
21199	18.034	0.36364	0.	-1310.1
21200	17.942	0.27273	0.	-1333.7
21201	17.942	0.36364	5.e-002	-4.1494
21202	18.218	0.36364	0.	-1267.
21203	18.126	0.27273	0.	-1290.4
21204	18.126	0.36364	5.e-002	-4.13
21205	18.401	0.36364	0.	-1224.
21206	18.309	0.27273	0.	-1247.4
21207	18.309	0.36364	5.e-002	-4.1109
21208	18.585	0.36364	0.	-1181.2
21209	18.493	0.27273	0.	-1204.5
21210	18.493	0.36364	5.e-002	-4.0923
21211	18.768	0.36364	0.	-1138.6
21212	18.677	0.27273	0.	-1161.8
21213	18.677	0.36364	5.e-002	-4.0742
21214	18.952	0.36364	0.	-1096.2
21215	18.86	0.27273	0.	-1119.3
21216	18.86	0.36364	5.e-002	-4.0568
21217	19.135	0.36364	0.	-1054.
21218	19.044	0.27273	0.	-1077.
21219	19.044	0.36364	5.e-002	-4.04
21220	19.319	0.36364	0.	-1011.9
21221	19.227	0.27273	0.	-1034.9
21222	19.227	0.36364	5.e-002	-4.0241
21223	19.503	0.36364	0.	-970.06
21224	19.411	0.27273	0.	-992.9
21225	19.411	0.36364	5.e-002	-4.0089
21226	19.686	0.36364	0.	-928.36
21227	19.594	0.27273	0.	-951.12
21228	19.594	0.36364	5.e-002	-3.9946
21229	19.87	0.36364	0.	-886.83
21230	19.778	0.27273	0.	-909.5
21231	19.778	0.36364	5.e-002	-3.9813
21232	20.053	0.36364	0.	-845.46
21233	19.962	0.27273	0.	-868.06
21234	19.962	0.36364	5.e-002	-3.9688
21235	20.237	0.36364	0.	-804.26
21236	20.145	0.27273	0.	-826.77
21237	20.145	0.36364	5.e-002	-3.9573
21238	20.42	0.36364	0.	-763.22
21239	20.329	0.27273	0.	-785.65
21240	20.329	0.36364	5.e-002	-3.9469
21241	20.604	0.36364	0.	-722.33
21242	20.512	0.27273	0.	-744.67
21243	20.512	0.36364	5.e-002	-3.9375
21244	20.788	0.36364	0.	-681.59
21245	20.696	0.27273	0.	-703.85
21246	20.696	0.36364	5.e-002	-3.9292
21247	20.971	0.36364	0.	-641.
21248	20.879	0.27273	0.	-663.18
21249	20.879	0.36364	5.e-002	-3.9221
21250	21.155	0.36364	0.	-600.56
21251	21.063	0.27273	0.	-622.64
21252	21.063	0.36364	5.e-002	-3.9162
21253	21.338	0.36364	0.	-560.25
21254	21.246	0.27273	0.	-582.24
21255	21.246	0.36364	5.e-002	-3.9115
21256	21.522	0.36364	0.	-520.09
21257	21.43	0.27273	0.	-541.98
21258	21.43	0.36364	5.e-002	-3.9081
21259	21.705	0.36364	0.	-480.06
21260	21.614	0.27273	0.	-501.85
21261	21.614	0.36364	5.e-002	-3.9061
21262	21.889	0.36364	0.	-440.17
21263	21.797	0.27273	0.	-461.85
21264	21.797	0.36364	5.e-002	-3.9056
21265	22.073	0.36364	0.	-400.43
21266	21.981	0.27273	0.	-421.97
21267	21.981	0.36364	5.e-002	-3.9066
21268	22.256	0.36364	0.	-360.84
21269	22.164	0.27273	0.	-382.24
21270	22.164	0.36364	5.e-002	-3.9093
21271	22.44	0.36364	0.	-321.41
21272	22.348	0.27273	0.	-342.64
21273	22.348	0.36364	5.e-002	-3.9139
21274	22.623	0.36364	0.	-282.16
21275	22.531	0.27273	0.	-303.19
21276	22.531	0.36364	5.e-002	-3.9206
21277	22.807	0.36364	0.	-243.13
21278	22.715	0.27273	0.	-263.9
21279	22.715	0.36364	5.e-002	-3.93
21280	22.99	0.36364	0.	-204.37
21281	22.899	0.27273	0.	-224.82
21282	22.899	0.36364	5.e-002	-3.9428
21283	23.174	0.36364	0.	-165.97
21284	23.082	0.27273	0.	-185.98
21285	23.082	0.36364	5.e-002	-3.9609
21286	23.358	0.36364	0.	-128.08
21287	23.266	0.27273	0.	-147.47
21288	23.266	0.36364	5.e-002	-3.9879
21289	23.541	0.36364	0.	-90.992
21290	23.449	0.27273	0.	-109.46
21291	23.449	0.36364	5.e-002	-4.0342
21292	23.725	0.36364	0.	-55.295
21293	23.633	0.27273	0.	-72.279
21294	23.633	0.36364	5.e-002	-4.1399
21295	23.816	0.27273	0.	-37.16
21296	23.816	0.36364	5.e-002	-4.5133
21297	23.908	0.36364	0.	-21.409
21298	11.242	0.18182	0.	-675.73
21299	11.15	0.18182	5.e-002	-43.954
21300	11.15	9.0909e-002	0.	-438.61
21301	11.058	0.18182	0.	-383.87
21302	11.426	0.18182	0.	-978.
21303	11.334	0.18182	5.e-002	-38.671
21304	11.334	9.0909e-002	0.	-770.97
21305	11.609	0.18182	0.	-1258.3
21306	11.517	0.18182	5.e-002	-35.502
21307	11.517	9.0909e-002	0.	-1079.
21308	11.793	0.18182	0.	-1501.7
21309	11.701	0.18182	5.e-002	-31.747
21310	11.701	9.0909e-002	0.	-1349.3
21311	11.976	0.18182	0.	-1706.2
21312	11.885	0.18182	5.e-002	-27.631
21313	11.885	9.0909e-002	0.	-1579.8
21314	12.16	0.18182	0.	-1872.8
21315	12.068	0.18182	5.e-002	-23.46
21316	12.068	9.0909e-002	0.	-1770.5
21317	12.343	0.18182	0.	-2004.3
21318	12.252	0.18182	5.e-002	-19.479
21319	12.252	9.0909e-002	0.	-1923.7
21320	12.527	0.18182	0.	-2104.6
21321	12.435	0.18182	5.e-002	-15.848
21322	12.435	9.0909e-002	0.	-2042.8
21323	12.711	0.18182	0.	-2177.8
21324	12.619	0.18182	5.e-002	-12.649
21325	12.619	9.0909e-002	0.	-2132.
21326	12.894	0.18182	0.	-2228.
21327	12.802	0.18182	5.e-002	-9.9043
21328	12.802	9.0909e-002	0.	-2195.7
21329	13.078	0.18182	0.	-2259.1
21330	12.986	0.18182	5.e-002	-7.5995
21331	12.986	9.0909e-002	0.	-2237.8
21332	13.261	0.18182	0.	-2274.4
21333	13.169	0.18182	5.e-002	-5.6969
21334	13.169	9.0909e-002	0.	-2262.1
21335	13.445	0.18182	0.	-2276.9
21336	13.353	0.18182	5.e-002	-4.1496
21337	13.353	9.0909e-002	0.	-2271.9
21338	13.628	0.18182	0.	-2269.
21339	13.537	0.18182	5.e-002	-2.9089
21340	13.537	9.0909e-002	0.	-2269.8
21341	13.812	0.18182	0.	-2252.7
21342	13.72	0.18182	5.e-002	-1.929
21343	13.72	9.0909e-002	0.	-2258.2
21344	13.996	0.18182	0.	-2229.9
21345	13.904	0.18182	5.e-002	-1.1711
21346	13.904	9.0909e-002	0.	-2239.
21347	14.179	0.18182	0.	-2201.9
21348	14.087	0.18182	5.e-002	-0.6141
21349	14.087	9.0909e-002	0.	-2213.8
21350	14.363	0.18182	0.	-2169.7
21351	14.271	0.18182	5.e-002	-0.31654
21352	14.271	9.0909e-002	0.	-2183.9
21353	14.546	0.18182	0.	-2134.3
21354	14.454	0.18182	5.e-002	-0.40396
21355	14.454	9.0909e-002	0.	-2150.2
21356	14.73	0.18182	0.	-2096.5
21357	14.638	0.18182	5.e-002	-0.59464
21358	14.638	9.0909e-002	0.	-2113.6
21359	14.913	0.18182	0.	-2056.8
21360	14.822	0.18182	5.e-002	-0.74836
21361	14.822	9.0909e-002	0.	-2074.8
21362	15.097	0.18182	0.	-2015.6
21363	15.005	0.18182	5.e-002	-0.85494
21364	15.005	9.0909e-002	0.	-2034.3
21365	15.281	0.18182	0.	-1973.4
21366	15.189	0.18182	5.e-002	-0.92097
21367	15.189	9.0909e-002	0.	-1992.5
21368	15.464	0.18182	0.	-1930.3
21369	15.372	0.18182	5.e-002	-0.95468
21370	15.372	9.0909e-002	0.	-1949.7
21371	15.648	0.18182	0.	-1886.7
21372	15.556	0.18182	5.e-002	-0.96349
21373	15.556	9.0909e-002	0.	-1906.2
21374	15.831	0.18182	0.	-1842.7
21375	15.739	0.18182	5.e-002	-0.95357
21376	15.739	9.0909e-002	0.	-1862.2
21377	16.015	0.18182	0.	-1798.5
21378	15.923	0.18182	5.e-002	-0.93007
21379	15.923	9.0909e-002	0.	-1817.9
21380	16.198	0.18182	0.	-1754.1
21381	16.107	0.18182	5.e-002	-0.8971
21382	16.107	9.0909e-002	0.	-1773.4
21383	16.382	0.18182	0.	-1709.7
21384	16.29	0.18182	5.e-002	-0.85797
21385	16.29	9.0909e-002	0.	-1728.8
21386	16.565	0.18182	0.	-1665.3
21387	16.474	0.18182	5.e-002	-0.81522
21388	16.474	9.0909e-002	0.	-1684.2
21389	16.749	0.18182	0.	-1620.9
21390	16.657	0.18182	5.e-002	-0.77094
21391	16.657	9.0909e-002	0.	-1639.6
21392	16.933	0.18182	0.	-1576.6
21393	16.841	0.18182	5.e-002	-0.72682
21394	16.841	9.0909e-002	0.	-1595.
21395	17.116	0.18182	0.	-1532.5
21396	17.024	0.18182	5.e-002	-0.68409
21397	17.024	9.0909e-002	0.	-1550.6
21398	17.3	0.18182	0.	-1488.5
21399	17.208	0.18182	5.e-002	-0.64381
21400	17.208	9.0909e-002	0.	-1506.3
21401	17.483	0.18182	0.	-1444.6
21402	17.392	0.18182	5.e-002	-0.60679
21403	17.392	9.0909e-002	0.	-1462.2
21404	17.667	0.18182	0.	-1400.9
21405	17.575	0.18182	5.e-002	-0.57373
21406	17.575	9.0909e-002	0.	-1418.2
21407	17.85	0.18182	0.	-1357.4
21408	17.759	0.18182	5.e-002	-0.54523
21409	17.759	9.0909e-002	0.	-1374.4
21410	18.034	0.18182	0.	-1314.1
21411	17.942	0.18182	5.e-002	-0.52174
21412	17.942	9.0909e-002	0.	-1330.7
21413	18.218	0.18182	0.	-1271.
21414	18.126	0.18182	5.e-002	-0.5036
21415	18.126	9.0909e-002	0.	-1287.3
21416	18.401	0.18182	0.	-1228.
21417	18.309	0.18182	5.e-002	-0.49113
21418	18.309	9.0909e-002	0.	-1244.
21419	18.585	0.18182	0.	-1185.2
21420	18.493	0.18182	5.e-002	-0.48445
21421	18.493	9.0909e-002	0.	-1201.
21422	18.768	0.18182	0.	-1142.6
21423	18.677	0.18182	5.e-002	-0.48366
21424	18.677	9.0909e-002	0.	-1158.1
21425	18.952	0.18182	0.	-1100.2
21426	18.86	0.18182	5.e-002	-0.48878
21427	18.86	9.0909e-002	0.	-1115.4
21428	19.135	0.18182	0.	-1058.
21429	19.044	0.18182	5.e-002	-0.49972
21430	19.044	9.0909e-002	0.	-1072.9
21431	19.319	0.18182	0.	-1016.
21432	19.227	0.18182	5.e-002	-0.51634
21433	19.227	9.0909e-002	0.	-1030.6
21434	19.503	0.18182	0.	-974.13
21435	19.411	0.18182	5.e-002	-0.53853
21436	19.411	9.0909e-002	0.	-988.5
21437	19.686	0.18182	0.	-932.44
21438	19.594	0.18182	5.e-002	-0.56621
21439	19.594	9.0909e-002	0.	-946.55
21440	19.87	0.18182	0.	-890.91
21441	19.778	0.18182	5.e-002	-0.59932
21442	19.778	9.0909e-002	0.	-904.78
21443	20.053	0.18182	0.	-849.55
21444	19.962	0.18182	5.e-002	-0.63781
21445	19.962	9.0909e-002	0.	-863.19
21446	20.237	0.18182	0.	-808.35
21447	20.145	0.18182	5.e-002	-0.6818
21448	20.145	9.0909e-002	0.	-821.76
21449	20.42	0.18182	0.	-767.3
21450	20.329	0.18182	5.e-002	-0.73139
21451	20.329	9.0909e-002	0.	-780.49
21452	20.604	0.18182	0.	-726.4
21453	20.512	0.18182	5.e-002	-0.78679
21454	20.512	9.0909e-002	0.	-739.39
21455	20.788	0.18182	0.	-685.65
21456	20.696	0.18182	5.e-002	-0.84826
21457	20.696	9.0909e-002	0.	-698.45
21458	20.971	0.18182	0.	-645.04
21459	20.879	0.18182	5.e-002	-0.91612
21460	20.879	9.0909e-002	0.	-657.67
21461	21.155	0.18182	0.	-604.56
21462	21.063	0.18182	5.e-002	-0.99073
21463	21.063	9.0909e-002	0.	-617.04
21464	21.338	0.18182	0.	-564.21
21465	21.246	0.18182	5.e-002	-1.0725
21466	21.246	9.0909e-002	0.	-576.56
21467	21.522	0.18182	0.	-523.99
21468	21.43	0.18182	5.e-002	-1.1621
21469	21.43	9.0909e-002	0.	-536.23
21470	21.705	0.18182	0.	-483.9
21471	21.614	0.18182	5.e-002	-1.2599
21472	21.614	9.0909e-002	0.	-496.06
21473	21.889	0.18182	0.	-443.93
21474	21.797	0.18182	5.e-002	-1.3666
21475	21.797	9.0909e-002	0.	-456.04
21476	22.073	0.18182	0.	-404.08
21477	21.981	0.18182	5.e-002	-1.483
21478	21.981	9.0909e-002	0.	-416.17
21479	22.256	0.18182	0.	-364.35
21480	22.164	0.18182	5.e-002	-1.61
21481	22.164	9.0909e-002	0.	-376.47
21482	22.44	0.18182	0.	-324.76
21483	22.348	0.18182	5.e-002	-1.7487
21484	22.348	9.0909e-002	0.	-336.96
21485	22.623	0.18182	0.	-285.31
21486	22.531	0.18182	5.e-002	-1.9004
21487	22.531	9.0909e-002	0.	-297.63
21488	22.807	0.18182	0.	-246.01
21489	22.715	0.18182	5.e-002	-2.0667
21490	22.715	9.0909e-002	0.	-258.53
21491	22.99	0.18182	0.	-206.9
21492	22.899	0.18182	5.e-002	-2.25
21493	22.899	9.0909e-002	0.	-219.7
21494	23.174	0.18182	0.	-168.02
21495	23.082	0.18182	5.e-002	-2.4535
21496	23.082	9.0909e-002	0.	-181.19
21497	23.358	0.18182	0.	-129.47
21498	23.266	0.18182	5.e-002	-2.6827
21499	23.266	9.0909e-002	0.	-143.11
21500	23.541	0.18182	0.	-91.434
21501	23.449	0.18182	5.e-002	-2.945
21502	23.449	9.0909e-002	0.	-105.62
21503	23.725	0.18182	0.	-54.745
21504	23.633	0.18182	5.e-002	-3.2752
21505	23.633	9.0909e-002	0.	-69.031
21506	23.816	0.18182	5.e-002	-3.9793
21507	23.816	9.0909e-002	0.	-34.465
21508	23.908	0.18182	0.	-20.488
21509	23.725	0.18182	0.1	-33.023
21510	23.816	0.27273	0.1	-44.741
21511	23.908	0.18182	0.1	-34.415
21512	23.816	9.0909e-002	0.1	-21.057
21513	23.541	0.18182	0.1	-32.569
21514	23.633	0.27273	0.1	-40.854
21515	23.633	9.0909e-002	0.1	-21.618
21516	23.358	0.18182	0.1	-32.77
21517	23.449	0.27273	0.1	-39.04
21518	23.449	9.0909e-002	0.1	-21.955
21519	23.174	0.18182	0.1	-32.92
21520	23.266	0.27273	0.1	-37.905
21521	23.266	9.0909e-002	0.1	-22.167
21522	22.99	0.18182	0.1	-32.939
21523	23.082	0.27273	0.1	-37.003
21524	23.082	9.0909e-002	0.1	-22.219
21525	22.807	0.18182	0.1	-32.83
21526	22.899	0.27273	0.1	-36.193
21527	22.899	9.0909e-002	0.1	-22.16
21528	22.623	0.18182	0.1	-32.612
21529	22.715	0.27273	0.1	-35.411
21530	22.715	9.0909e-002	0.1	-22.014
21531	22.44	0.18182	0.1	-32.301
21532	22.531	0.27273	0.1	-34.633
21533	22.531	9.0909e-002	0.1	-21.802
21534	22.256	0.18182	0.1	-31.913
21535	22.348	0.27273	0.1	-33.849
21536	22.348	9.0909e-002	0.1	-21.538
21537	22.073	0.18182	0.1	-31.463
21538	22.164	0.27273	0.1	-33.056
21539	22.164	9.0909e-002	0.1	-21.232
21540	21.889	0.18182	0.1	-30.961
21541	21.981	0.27273	0.1	-32.252
21542	21.981	9.0909e-002	0.1	-20.892
21543	21.705	0.18182	0.1	-30.416
21544	21.797	0.27273	0.1	-31.439
21545	21.797	9.0909e-002	0.1	-20.526
21546	21.522	0.18182	0.1	-29.835
21547	21.614	0.27273	0.1	-30.619
21548	21.614	9.0909e-002	0.1	-20.138
21549	21.338	0.18182	0.1	-29.225
21550	21.43	0.27273	0.1	-29.793
21551	21.43	9.0909e-002	0.1	-19.731
21552	21.155	0.18182	0.1	-28.591
21553	21.246	0.27273	0.1	-28.963
21554	21.246	9.0909e-002	0.1	-19.311
21555	20.971	0.18182	0.1	-27.937
21556	21.063	0.27273	0.1	-28.129
21557	21.063	9.0909e-002	0.1	-18.879
21558	20.788	0.18182	0.1	-27.266
21559	20.879	0.27273	0.1	-27.293
21560	20.879	9.0909e-002	0.1	-18.437
21561	20.604	0.18182	0.1	-26.581
21562	20.696	0.27273	0.1	-26.456
21563	20.696	9.0909e-002	0.1	-17.988
21564	20.42	0.18182	0.1	-25.884
21565	20.512	0.27273	0.1	-25.618
21566	20.512	9.0909e-002	0.1	-17.532
21567	20.237	0.18182	0.1	-25.177
21568	20.329	0.27273	0.1	-24.78
21569	20.329	9.0909e-002	0.1	-17.071
21570	20.053	0.18182	0.1	-24.461
21571	20.145	0.27273	0.1	-23.94
21572	20.145	9.0909e-002	0.1	-16.606
21573	19.87	0.18182	0.1	-23.737
21574	19.962	0.27273	0.1	-23.1
21575	19.962	9.0909e-002	0.1	-16.136
21576	19.686	0.18182	0.1	-23.005
21577	19.778	0.27273	0.1	-22.258
21578	19.778	9.0909e-002	0.1	-15.664
21579	19.503	0.18182	0.1	-22.267
21580	19.594	0.27273	0.1	-21.413
21581	19.594	9.0909e-002	0.1	-15.188
21582	19.319	0.18182	0.1	-21.521
21583	19.411	0.27273	0.1	-20.566
21584	19.411	9.0909e-002	0.1	-14.709
21585	19.135	0.18182	0.1	-20.769
21586	19.227	0.27273	0.1	-19.715
21587	19.227	9.0909e-002	0.1	-14.227
21588	18.952	0.18182	0.1	-20.009
21589	19.044	0.27273	0.1	-18.859
21590	19.044	9.0909e-002	0.1	-13.742
21591	18.768	0.18182	0.1	-19.242
21592	18.86	0.27273	0.1	-17.998
21593	18.86	9.0909e-002	0.1	-13.253
21594	18.585	0.18182	0.1	-18.467
21595	18.677	0.27273	0.1	-17.129
21596	18.677	9.0909e-002	0.1	-12.761
21597	18.401	0.18182	0.1	-17.685
21598	18.493	0.27273	0.1	-16.253
21599	18.493	9.0909e-002	0.1	-12.265
21600	18.218	0.18182	0.1	-16.895
21601	18.309	0.27273	0.1	-15.368
21602	18.309	9.0909e-002	0.1	-11.765
21603	18.034	0.18182	0.1	-16.097
21604	18.126	0.27273	0.1	-14.474
21605	18.126	9.0909e-002	0.1	-11.262
21606	17.85	0.18182	0.1	-15.291
21607	17.942	0.27273	0.1	-13.571
21608	17.942	9.0909e-002	0.1	-10.755
21609	17.667	0.18182	0.1	-14.478
21610	17.759	0.27273	0.1	-12.658
21611	17.759	9.0909e-002	0.1	-10.244
21612	17.483	0.18182	0.1	-13.66
21613	17.575	0.27273	0.1	-11.737
21614	17.575	9.0909e-002	0.1	-9.7296
21615	17.3	0.18182	0.1	-12.837
21616	17.392	0.27273	0.1	-10.808
21617	17.392	9.0909e-002	0.1	-9.2131
21618	17.116	0.18182	0.1	-12.013
21619	17.208	0.27273	0.1	-9.8747
21620	17.208	9.0909e-002	0.1	-8.6952
21621	16.933	0.18182	0.1	-11.19
21622	17.024	0.27273	0.1	-8.9391
21623	17.024	9.0909e-002	0.1	-8.1774
21624	16.749	0.18182	0.1	-10.373
21625	16.841	0.27273	0.1	-8.0061
21626	16.841	9.0909e-002	0.1	-7.6619
21627	16.565	0.18182	0.1	-9.5668
21628	16.657	0.27273	0.1	-7.0818
21629	16.657	9.0909e-002	0.1	-7.1513
21630	16.382	0.18182	0.1	-8.7794
21631	16.474	0.27273	0.1	-6.1741
21632	16.474	9.0909e-002	0.1	-6.6491
21633	16.198	0.18182	0.1	-8.0197
21634	16.29	0.27273	0.1	-5.2933
21635	16.29	9.0909e-002	0.1	-6.1599
21636	16.015	0.18182	0.1	-7.2987
21637	16.107	0.27273	0.1	-4.4525
21638	16.107	9.0909e-002	0.1	-5.6891
21639	15.831	0.18182	0.1	-6.6301
21640	15.923	0.27273	0.1	-3.668
21641	15.923	9.0909e-002	0.1	-5.2436
21642	15.648	0.18182	0.1	-6.0306
21643	15.739	0.27273	0.1	-2.9601
21644	15.739	9.0909e-002	0.1	-4.8316
21645	15.464	0.18182	0.1	-5.5199
21646	15.556	0.27273	0.1	-2.3536
21647	15.556	9.0909e-002	0.1	-4.4632
21648	15.281	0.18182	0.1	-5.1216
21649	15.372	0.27273	0.1	-1.878
21650	15.372	9.0909e-002	0.1	-4.1503
21651	15.097	0.18182	0.1	-4.8631
21652	15.189	0.27273	0.1	-1.5659
21653	15.189	9.0909e-002	0.1	-3.9071
21654	14.913	0.18182	0.1	-4.777
21655	15.005	0.27273	0.1	-1.4512
21656	15.005	9.0909e-002	0.1	-3.7505
21657	14.73	0.18182	0.1	-4.9011
21658	14.822	0.27273	0.1	-1.5711
21659	14.822	9.0909e-002	0.1	-3.7005
21660	14.546	0.18182	0.1	-5.2797
21661	14.638	0.27273	0.1	-1.9774
21662	14.638	9.0909e-002	0.1	-3.7807
21663	14.363	0.18182	0.1	-5.9636
21664	14.454	0.27273	0.1	-2.738
21665	14.454	9.0909e-002	0.1	-4.0188
21666	14.179	0.18182	0.1	-7.0107
21667	14.271	0.27273	0.1	-3.9273
21668	14.271	9.0909e-002	0.1	-4.446
21669	13.996	0.18182	0.1	-8.4843
21670	14.087	0.27273	0.1	-5.622
21671	14.087	9.0909e-002	0.1	-5.0969
21672	13.812	0.18182	0.1	-10.452
21673	13.904	0.27273	0.1	-7.9011
21674	13.904	9.0909e-002	0.1	-6.0086
21675	13.628	0.18182	0.1	-12.985
21676	13.72	0.27273	0.1	-10.845
21677	13.72	9.0909e-002	0.1	-7.2204
21678	13.445	0.18182	0.1	-16.151
21679	13.537	0.27273	0.1	-14.53
21680	13.537	9.0909e-002	0.1	-8.7714
21681	13.261	0.18182	0.1	-20.011
21682	13.353	0.27273	0.1	-19.02
21683	13.353	9.0909e-002	0.1	-10.699
21684	13.078	0.18182	0.1	-24.605
21685	13.169	0.27273	0.1	-24.356
21686	13.169	9.0909e-002	0.1	-13.031
21687	12.894	0.18182	0.1	-29.937
21688	12.986	0.27273	0.1	-30.532
21689	12.986	9.0909e-002	0.1	-15.782
21690	12.711	0.18182	0.1	-35.948
21691	12.802	0.27273	0.1	-37.468
21692	12.802	9.0909e-002	0.1	-18.935
21693	12.527	0.18182	0.1	-42.477
21694	12.619	0.27273	0.1	-44.973
21695	12.619	9.0909e-002	0.1	-22.424
21696	12.343	0.18182	0.1	-49.218
21697	12.435	0.27273	0.1	-52.698
21698	12.435	9.0909e-002	0.1	-26.106
21699	12.16	0.18182	0.1	-55.672
21700	12.252	0.27273	0.1	-60.094
21701	12.252	9.0909e-002	0.1	-29.722
21702	11.976	0.18182	0.1	-61.101
21703	12.068	0.27273	0.1	-66.398
21704	12.068	9.0909e-002	0.1	-32.86
21705	11.793	0.18182	0.1	-64.57
21706	11.885	0.27273	0.1	-70.71
21707	11.885	9.0909e-002	0.1	-34.904
21708	11.609	0.18182	0.1	-65.031
21709	11.701	0.27273	0.1	-72.389
21710	11.701	9.0909e-002	0.1	-35.068
21711	11.426	0.18182	0.1	-63.007
21712	11.517	0.27273	0.1	-71.967
21713	11.517	9.0909e-002	0.1	-32.292
21714	11.242	0.18182	0.1	-68.754
21715	11.334	0.27273	0.1	-76.87
21716	11.334	9.0909e-002	0.1	-27.484
21717	11.15	0.27273	0.1	-128.29
21718	11.058	0.18182	0.1	-38.751
21719	11.15	9.0909e-002	0.1	-33.213
21720	23.725	0.36364	0.1	-53.207
21721	23.816	0.45455	0.1	-66.296
21722	23.908	0.36364	0.1	-59.519
21723	23.541	0.36364	0.1	-48.014
21724	23.633	0.45455	0.1	-58.778
21725	23.358	0.36364	0.1	-44.787
21726	23.449	0.45455	0.1	-53.661
21727	23.174	0.36364	0.1	-42.516
21728	23.266	0.45455	0.1	-49.994
21729	22.99	0.36364	0.1	-40.717
21730	23.082	0.45455	0.1	-47.132
21731	22.807	0.36364	0.1	-39.18
21732	22.899	0.45455	0.1	-44.766
21733	22.623	0.36364	0.1	-37.799
21734	22.715	0.45455	0.1	-42.716
21735	22.44	0.36364	0.1	-36.517
21736	22.531	0.45455	0.1	-40.879
21737	22.256	0.36364	0.1	-35.302
21738	22.348	0.45455	0.1	-39.193
21739	22.073	0.36364	0.1	-34.134
21740	22.164	0.45455	0.1	-37.618
21741	21.889	0.36364	0.1	-33.003
21742	21.981	0.45455	0.1	-36.129
21743	21.705	0.36364	0.1	-31.901
21744	21.797	0.45455	0.1	-34.708
21745	21.522	0.36364	0.1	-30.822
21746	21.614	0.45455	0.1	-33.344
21747	21.338	0.36364	0.1	-29.764
21748	21.43	0.45455	0.1	-32.026
21749	21.155	0.36364	0.1	-28.725
21750	21.246	0.45455	0.1	-30.749
21751	20.971	0.36364	0.1	-27.701
21752	21.063	0.45455	0.1	-29.507
21753	20.788	0.36364	0.1	-26.691
21754	20.879	0.45455	0.1	-28.295
21755	20.604	0.36364	0.1	-25.693
21756	20.696	0.45455	0.1	-27.11
21757	20.42	0.36364	0.1	-24.707
21758	20.512	0.45455	0.1	-25.948
21759	20.237	0.36364	0.1	-23.73
21760	20.329	0.45455	0.1	-24.805
21761	20.053	0.36364	0.1	-22.76
21762	20.145	0.45455	0.1	-23.68
21763	19.87	0.36364	0.1	-21.796
21764	19.962	0.45455	0.1	-22.568
21765	19.686	0.36364	0.1	-20.837
21766	19.778	0.45455	0.1	-21.466
21767	19.503	0.36364	0.1	-19.879
21768	19.594	0.45455	0.1	-20.373
21769	19.319	0.36364	0.1	-18.922
21770	19.411	0.45455	0.1	-19.284
21771	19.135	0.36364	0.1	-17.963
21772	19.227	0.45455	0.1	-18.198
21773	18.952	0.36364	0.1	-17.001
21774	19.044	0.45455	0.1	-17.111
21775	18.768	0.36364	0.1	-16.034
21776	18.86	0.45455	0.1	-16.021
21777	18.585	0.36364	0.1	-15.059
21778	18.677	0.45455	0.1	-14.924
21779	18.401	0.36364	0.1	-14.077
21780	18.493	0.45455	0.1	-13.82
21781	18.218	0.36364	0.1	-13.084
21782	18.309	0.45455	0.1	-12.705
21783	18.034	0.36364	0.1	-12.081
21784	18.126	0.45455	0.1	-11.578
21785	17.85	0.36364	0.1	-11.067
21786	17.942	0.45455	0.1	-10.438
21787	17.667	0.36364	0.1	-10.042
21788	17.759	0.45455	0.1	-9.2836
21789	17.483	0.36364	0.1	-9.0075
21790	17.575	0.45455	0.1	-8.1152
21791	17.3	0.36364	0.1	-7.9644
21792	17.392	0.45455	0.1	-6.9339
21793	17.116	0.36364	0.1	-6.9159
21794	17.208	0.45455	0.1	-5.7418
21795	16.933	0.36364	0.1	-5.8667
21796	17.024	0.45455	0.1	-4.5425
21797	16.749	0.36364	0.1	-4.8227
21798	16.841	0.45455	0.1	-3.3415
21799	16.565	0.36364	0.1	-3.7925
21800	16.657	0.45455	0.1	-2.1463
21801	16.382	0.36364	0.1	-2.7869
21802	16.474	0.45455	0.1	-0.96722
21803	16.198	0.36364	0.1	-1.8206
21804	16.29	0.45455	0.1	-1.3341e-002
21805	16.015	0.36364	0.1	-0.91428
21806	16.107	0.45455	0.1	-1.4978e-002
21807	15.831	0.36364	0.1	-0.16023
21808	15.923	0.45455	0.1	-1.7176e-002
21809	15.648	0.36364	0.1	-4.9751e-002
21810	15.739	0.45455	0.1	-1.9641e-002
21811	15.464	0.36364	0.1	-4.5947e-002
21812	15.556	0.45455	0.1	-2.2486e-002
21813	15.281	0.36364	0.1	-4.8989e-002
21814	15.372	0.45455	0.1	-2.5882e-002
21815	15.097	0.36364	0.1	-5.607e-002
21816	15.189	0.45455	0.1	-3.013e-002
21817	14.913	0.36364	0.1	-6.9918e-002
21818	15.005	0.45455	0.1	-3.5947e-002
21819	14.73	0.36364	0.1	-0.10231
21820	14.822	0.45455	0.1	-4.48e-002
21821	14.546	0.36364	0.1	-0.22095
21822	14.638	0.45455	0.1	-6.0281e-002
21823	14.363	0.36364	0.1	-0.9258
21824	14.454	0.45455	0.1	-9.3721e-002
21825	14.179	0.36364	0.1	-2.6433
21826	14.271	0.45455	0.1	-0.20135
21827	13.996	0.36364	0.1	-5.1142
21828	14.087	0.45455	0.1	-0.97451
21829	13.812	0.36364	0.1	-8.3539
21830	13.904	0.45455	0.1	-3.6978
21831	13.628	0.36364	0.1	-12.436
21832	13.72	0.45455	0.1	-7.5964
21833	13.445	0.36364	0.1	-17.427
21834	13.537	0.45455	0.1	-12.511
21835	13.261	0.36364	0.1	-23.369
21836	13.353	0.45455	0.1	-18.483
21837	13.078	0.36364	0.1	-30.248
21838	13.169	0.45455	0.1	-25.534
21839	12.894	0.36364	0.1	-37.972
21840	12.986	0.45455	0.1	-33.631
21841	12.711	0.36364	0.1	-46.321
21842	12.802	0.45455	0.1	-42.647
21843	12.527	0.36364	0.1	-54.906
21844	12.619	0.45455	0.1	-52.323
21845	12.343	0.36364	0.1	-63.127
21846	12.435	0.45455	0.1	-62.235
21847	12.16	0.36364	0.1	-70.16
21848	12.252	0.45455	0.1	-71.792
21849	11.976	0.36364	0.1	-75.067
21850	12.068	0.45455	0.1	-80.323
21851	11.793	0.36364	0.1	-77.185
21852	11.885	0.45455	0.1	-87.394
21853	11.609	0.36364	0.1	-77.227
21854	11.701	0.45455	0.1	-93.786
21855	11.426	0.36364	0.1	-81.534
21856	11.517	0.45455	0.1	-103.75
21857	11.242	0.36364	0.1	-121.67
21858	11.334	0.45455	0.1	-133.61
21859	11.15	0.45455	0.1	-245.34
21860	11.058	0.36364	0.1	-123.89
21861	23.725	0.54545	0.1	-72.008
21862	23.816	0.63636	0.1	-84.551
21863	23.908	0.54545	0.1	-79.867
21864	23.541	0.54545	0.1	-64.623
21865	23.633	0.63636	0.1	-75.657
21866	23.358	0.54545	0.1	-59.089
21867	23.449	0.63636	0.1	-68.635
21868	23.174	0.54545	0.1	-54.824
21869	23.266	0.63636	0.1	-63.106
21870	22.99	0.54545	0.1	-51.377
21871	23.082	0.63636	0.1	-58.601
21872	22.807	0.54545	0.1	-48.477
21873	22.899	0.63636	0.1	-54.828
21874	22.623	0.54545	0.1	-45.952
21875	22.715	0.63636	0.1	-51.575
21876	22.44	0.54545	0.1	-43.695
21877	22.531	0.63636	0.1	-48.703
21878	22.256	0.54545	0.1	-41.635
21879	22.348	0.63636	0.1	-46.117
21880	22.073	0.54545	0.1	-39.726
21881	22.164	0.63636	0.1	-43.752
21882	21.889	0.54545	0.1	-37.938
21883	21.981	0.63636	0.1	-41.561
21884	21.705	0.54545	0.1	-36.246
21885	21.797	0.63636	0.1	-39.513
21886	21.522	0.54545	0.1	-34.635
21887	21.614	0.63636	0.1	-37.583
21888	21.338	0.54545	0.1	-33.092
21889	21.43	0.63636	0.1	-35.752
21890	21.155	0.54545	0.1	-31.607
21891	21.246	0.63636	0.1	-34.004
21892	20.971	0.54545	0.1	-30.172
21893	21.063	0.63636	0.1	-32.33
21894	20.788	0.54545	0.1	-28.781
21895	20.879	0.63636	0.1	-30.717
21896	20.604	0.54545	0.1	-27.427
21897	20.696	0.63636	0.1	-29.159
21898	20.42	0.54545	0.1	-26.106
21899	20.512	0.63636	0.1	-27.648
21900	20.237	0.54545	0.1	-24.812
21901	20.329	0.63636	0.1	-26.177
21902	20.053	0.54545	0.1	-23.541
21903	20.145	0.63636	0.1	-24.74
21904	19.87	0.54545	0.1	-22.29
21905	19.962	0.63636	0.1	-23.331
21906	19.686	0.54545	0.1	-21.052
21907	19.778	0.63636	0.1	-21.945
21908	19.503	0.54545	0.1	-19.826
21909	19.594	0.63636	0.1	-20.577
21910	19.319	0.54545	0.1	-18.607
21911	19.411	0.63636	0.1	-19.222
21912	19.135	0.54545	0.1	-17.39
21913	19.227	0.63636	0.1	-17.874
21914	18.952	0.54545	0.1	-16.173
21915	19.044	0.63636	0.1	-16.53
21916	18.768	0.54545	0.1	-14.953
21917	18.86	0.63636	0.1	-15.184
21918	18.585	0.54545	0.1	-13.725
21919	18.677	0.63636	0.1	-13.833
21920	18.401	0.54545	0.1	-12.487
21921	18.493	0.63636	0.1	-12.473
21922	18.218	0.54545	0.1	-11.236
21923	18.309	0.63636	0.1	-11.1
21924	18.034	0.54545	0.1	-9.9707
21925	18.126	0.63636	0.1	-9.7107
21926	17.85	0.54545	0.1	-8.689
21927	17.942	0.63636	0.1	-8.3027
21928	17.667	0.54545	0.1	-7.3902
21929	17.759	0.63636	0.1	-6.8743
21930	17.483	0.54545	0.1	-6.0746
21931	17.575	0.63636	0.1	-5.4244
21932	17.3	0.54545	0.1	-4.7436
21933	17.392	0.63636	0.1	-3.9534
21934	17.116	0.54545	0.1	-3.4002
21935	17.208	0.63636	0.1	-2.4634
21936	16.933	0.54545	0.1	-2.0491
21937	17.024	0.63636	0.1	-0.96186
21938	16.749	0.54545	0.1	-0.69957
21939	16.841	0.63636	0.1	-2.2138e-002
21940	16.565	0.54545	0.1	-1.0672e-002
21941	16.657	0.63636	0.1	-1.0362e-002
21942	16.382	0.54545	0.1	-8.5228e-003
21943	16.474	0.63636	0.1	-9.3846e-003
21944	16.198	0.54545	0.1	-9.2859e-003
21945	16.29	0.63636	0.1	-9.8045e-003
21946	16.015	0.54545	0.1	-1.0661e-002
21947	16.107	0.63636	0.1	-1.0813e-002
21948	15.831	0.54545	0.1	-1.2457e-002
21949	15.923	0.63636	0.1	-1.2247e-002
21950	15.648	0.54545	0.1	-1.4718e-002
21951	15.739	0.63636	0.1	-1.41e-002
21952	15.464	0.54545	0.1	-1.7577e-002
21953	15.556	0.63636	0.1	-1.6472e-002
21954	15.281	0.54545	0.1	-2.1251e-002
21955	15.372	0.63636	0.1	-1.9504e-002
21956	15.097	0.54545	0.1	-2.6168e-002
21957	15.189	0.63636	0.1	-2.3425e-002
21958	14.913	0.54545	0.1	-3.3142e-002
21959	15.005	0.63636	0.1	-2.8729e-002
21960	14.73	0.54545	0.1	-4.3744e-002
21961	14.822	0.63636	0.1	-3.623e-002
21962	14.546	0.54545	0.1	-6.1518e-002
21963	14.638	0.63636	0.1	-4.7427e-002
21964	14.363	0.54545	0.1	-9.6155e-002
21965	14.454	0.63636	0.1	-6.5477e-002
21966	14.179	0.54545	0.1	-0.18442
21967	14.271	0.63636	0.1	-9.7865e-002
21968	13.996	0.54545	0.1	-0.5977
21969	14.087	0.63636	0.1	-0.16665
21970	13.812	0.54545	0.1	-3.1266
21971	13.904	0.63636	0.1	-0.36781
21972	13.628	0.54545	0.1	-7.7345
21973	13.72	0.63636	0.1	-1.49
21974	13.445	0.54545	0.1	-13.587
21975	13.537	0.63636	0.1	-5.7954
21976	13.261	0.54545	0.1	-20.631
21977	13.353	0.63636	0.1	-12.136
21978	13.078	0.54545	0.1	-28.853
21979	13.169	0.63636	0.1	-19.886
21980	12.894	0.54545	0.1	-38.173
21981	12.986	0.63636	0.1	-28.98
21982	12.711	0.54545	0.1	-48.413
21983	12.802	0.63636	0.1	-39.366
21984	12.527	0.54545	0.1	-59.261
21985	12.619	0.63636	0.1	-50.944
21986	12.343	0.54545	0.1	-70.279
21987	12.435	0.63636	0.1	-63.573
21988	12.16	0.54545	0.1	-80.977
21989	12.252	0.63636	0.1	-77.141
21990	11.976	0.54545	0.1	-91.099
21991	12.068	0.63636	0.1	-91.794
21992	11.793	0.54545	0.1	-101.41
21993	11.885	0.63636	0.1	-108.48
21994	11.609	0.54545	0.1	-115.54
21995	11.701	0.63636	0.1	-130.3
21996	11.426	0.54545	0.1	-145.6
21997	11.517	0.63636	0.1	-165.13
21998	11.242	0.54545	0.1	-233.72
21999	11.334	0.63636	0.1	-233.42
22000	11.15	0.63636	0.1	-400.77
22001	11.058	0.54545	0.1	-239.93
22002	23.725	0.72727	0.1	-88.262
22003	23.816	0.81818	0.1	-100.06
22004	23.908	0.72727	0.1	-96.871
22005	23.541	0.72727	0.1	-79.757
22006	23.633	0.81818	0.1	-90.521
22007	23.358	0.72727	0.1	-72.765
22008	23.449	0.81818	0.1	-82.4
22009	23.174	0.72727	0.1	-67.007
22010	23.266	0.81818	0.1	-75.592
22011	22.99	0.72727	0.1	-62.177
22012	23.082	0.81818	0.1	-69.808
22013	22.807	0.72727	0.1	-58.047
22014	22.899	0.81818	0.1	-64.842
22015	22.623	0.72727	0.1	-54.44
22016	22.715	0.81818	0.1	-60.509
22017	22.44	0.72727	0.1	-51.231
22018	22.531	0.81818	0.1	-56.67
22019	22.256	0.72727	0.1	-48.332
22020	22.348	0.81818	0.1	-53.221
22021	22.073	0.72727	0.1	-45.678
22022	22.164	0.81818	0.1	-50.084
22023	21.889	0.72727	0.1	-43.222
22024	21.981	0.81818	0.1	-47.2
22025	21.705	0.72727	0.1	-40.929
22026	21.797	0.81818	0.1	-44.526
22027	21.522	0.72727	0.1	-38.773
22028	21.614	0.81818	0.1	-42.027
22029	21.338	0.72727	0.1	-36.732
22030	21.43	0.81818	0.1	-39.678
22031	21.155	0.72727	0.1	-34.791
22032	21.246	0.81818	0.1	-37.456
22033	20.971	0.72727	0.1	-32.935
22034	21.063	0.81818	0.1	-35.344
22035	20.788	0.72727	0.1	-31.153
22036	20.879	0.81818	0.1	-33.327
22037	20.604	0.72727	0.1	-29.435
22038	20.696	0.81818	0.1	-31.392
22039	20.42	0.72727	0.1	-27.771
22040	20.512	0.81818	0.1	-29.528
22041	20.237	0.72727	0.1	-26.154
22042	20.329	0.81818	0.1	-27.725
22043	20.053	0.72727	0.1	-24.577
22044	20.145	0.81818	0.1	-25.974
22045	19.87	0.72727	0.1	-23.032
22046	19.962	0.81818	0.1	-24.267
22047	19.686	0.72727	0.1	-21.513
22048	19.778	0.81818	0.1	-22.595
22049	19.503	0.72727	0.1	-20.014
22050	19.594	0.81818	0.1	-20.951
22051	19.319	0.72727	0.1	-18.529
22052	19.411	0.81818	0.1	-19.328
22053	19.135	0.72727	0.1	-17.052
22054	19.227	0.81818	0.1	-17.719
22055	18.952	0.72727	0.1	-15.578
22056	19.044	0.81818	0.1	-16.117
22057	18.768	0.72727	0.1	-14.101
22058	18.86	0.81818	0.1	-14.516
22059	18.585	0.72727	0.1	-12.616
22060	18.677	0.81818	0.1	-12.91
22061	18.401	0.72727	0.1	-11.12
22062	18.493	0.81818	0.1	-11.293
22063	18.218	0.72727	0.1	-9.6065
22064	18.309	0.81818	0.1	-9.6605
22065	18.034	0.72727	0.1	-8.0737
22066	18.126	0.81818	0.1	-8.0069
22067	17.85	0.72727	0.1	-6.518
22068	17.942	0.81818	0.1	-6.3284
22069	17.667	0.72727	0.1	-4.9377
22070	17.759	0.81818	0.1	-4.6217
22071	17.483	0.72727	0.1	-3.3322
22072	17.575	0.81818	0.1	-2.8856
22073	17.3	0.72727	0.1	-1.7042
22074	17.392	0.81818	0.1	-1.1268
22075	17.116	0.72727	0.1	-0.15383
22076	17.208	0.81818	0.1	-3.6434e-002
22077	16.933	0.72727	0.1	-1.5359e-002
22078	17.024	0.81818	0.1	-1.4096e-002
22079	16.749	0.72727	0.1	-1.0931e-002
22080	16.841	0.81818	0.1	-1.0905e-002
22081	16.565	0.72727	0.1	-1.0195e-002
22082	16.657	0.81818	0.1	-1.0143e-002
22083	16.382	0.72727	0.1	-1.0495e-002
22084	16.474	0.81818	0.1	-1.0256e-002
22085	16.198	0.72727	0.1	-1.133e-002
22086	16.29	0.81818	0.1	-1.0864e-002
22087	16.015	0.72727	0.1	-1.2574e-002
22088	16.107	0.81818	0.1	-1.1859e-002
22089	15.831	0.72727	0.1	-1.4219e-002
22090	15.923	0.81818	0.1	-1.3231e-002
22091	15.648	0.72727	0.1	-1.633e-002
22092	15.739	0.81818	0.1	-1.5019e-002
22093	15.464	0.72727	0.1	-1.9034e-002
22094	15.556	0.81818	0.1	-1.7337e-002
22095	15.281	0.72727	0.1	-2.2512e-002
22096	15.372	0.81818	0.1	-2.0332e-002
22097	15.097	0.72727	0.1	-2.7098e-002
22098	15.189	0.81818	0.1	-2.4203e-002
22099	14.913	0.72727	0.1	-3.3378e-002
22100	15.005	0.81818	0.1	-2.9377e-002
22101	14.73	0.72727	0.1	-4.2319e-002
22102	14.822	0.81818	0.1	-3.6484e-002
22103	14.546	0.72727	0.1	-5.5702e-002
22104	14.638	0.81818	0.1	-4.6543e-002
22105	14.363	0.72727	0.1	-7.7102e-002
22106	14.454	0.81818	0.1	-6.139e-002
22107	14.179	0.72727	0.1	-0.1145
22108	14.271	0.81818	0.1	-8.4471e-002
22109	13.996	0.72727	0.1	-0.18913
22110	14.087	0.81818	0.1	-0.12286
22111	13.812	0.72727	0.1	-0.37628
22112	13.904	0.81818	0.1	-0.19298
22113	13.628	0.72727	0.1	-1.1198
22114	13.72	0.81818	0.1	-0.34112
22115	13.445	0.72727	0.1	-4.7282
22116	13.537	0.81818	0.1	-0.74658
22117	13.261	0.72727	0.1	-11.48
22118	13.353	0.81818	0.1	-2.4571
22119	13.078	0.72727	0.1	-19.981
22120	13.169	0.81818	0.1	-8.1615
22121	12.894	0.72727	0.1	-30.021
22122	12.986	0.81818	0.1	-16.93
22123	12.711	0.72727	0.1	-41.581
22124	12.802	0.81818	0.1	-27.787
22125	12.527	0.72727	0.1	-54.686
22126	12.619	0.81818	0.1	-40.77
22127	12.343	0.72727	0.1	-69.459
22128	12.435	0.81818	0.1	-56.261
22129	12.16	0.72727	0.1	-86.312
22130	12.252	0.81818	0.1	-75.048
22131	11.976	0.72727	0.1	-106.39
22132	12.068	0.81818	0.1	-98.682
22133	11.793	0.72727	0.1	-132.54
22134	11.885	0.81818	0.1	-130.17
22135	11.609	0.72727	0.1	-171.26
22136	11.701	0.81818	0.1	-175.3
22137	11.426	0.72727	0.1	-237.32
22138	11.517	0.81818	0.1	-244.38
22139	11.242	0.72727	0.1	-375.14
22140	11.334	0.81818	0.1	-357.64
22141	11.15	0.81818	0.1	-582.88
22142	11.058	0.72727	0.1	-375.07
22143	23.725	0.90909	0.1	-102.35
22144	23.816	1.	0.1	-113.39
22145	23.908	0.90909	0.1	-111.4
22146	23.541	0.90909	0.1	-93.213
22147	23.633	1.	0.1	-103.52
22148	23.358	0.90909	0.1	-85.292
22149	23.449	1.	0.1	-94.728
22150	23.174	0.90909	0.1	-78.469
22151	23.266	1.	0.1	-87.055
22152	22.99	0.90909	0.1	-72.556
22153	23.082	1.	0.1	-80.321
22154	22.807	0.90909	0.1	-67.391
22155	22.899	1.	0.1	-74.399
22156	22.623	0.90909	0.1	-62.826
22157	22.715	1.	0.1	-69.15
22158	22.44	0.90909	0.1	-58.744
22159	22.531	1.	0.1	-64.457
22160	22.256	0.90909	0.1	-55.053
22161	22.348	1.	0.1	-60.22
22162	22.073	0.90909	0.1	-51.682
22163	22.164	1.	0.1	-56.361
22164	21.889	0.90909	0.1	-48.577
22165	21.981	1.	0.1	-52.818
22166	21.705	0.90909	0.1	-45.693
22167	21.797	1.	0.1	-49.542
22168	21.522	0.90909	0.1	-42.998
22169	21.614	1.	0.1	-46.493
22170	21.338	0.90909	0.1	-40.463
22171	21.43	1.	0.1	-43.637
22172	21.155	0.90909	0.1	-38.068
22173	21.246	1.	0.1	-40.949
22174	20.971	0.90909	0.1	-35.791
22175	21.063	1.	0.1	-38.407
22176	20.788	0.90909	0.1	-33.619
22177	20.879	1.	0.1	-35.99
22178	20.604	0.90909	0.1	-31.536
22179	20.696	1.	0.1	-33.683
22180	20.42	0.90909	0.1	-29.531
22181	20.512	1.	0.1	-31.471
22182	20.237	0.90909	0.1	-27.592
22183	20.329	1.	0.1	-29.341
22184	20.053	0.90909	0.1	-25.709
22185	20.145	1.	0.1	-27.28
22186	19.87	0.90909	0.1	-23.873
22187	19.962	1.	0.1	-25.278
22188	19.686	0.90909	0.1	-22.074
22189	19.778	1.	0.1	-23.324
22190	19.503	0.90909	0.1	-20.305
22191	19.594	1.	0.1	-21.409
22192	19.319	0.90909	0.1	-18.556
22193	19.411	1.	0.1	-19.522
22194	19.135	0.90909	0.1	-16.821
22195	19.227	1.	0.1	-17.655
22196	18.952	0.90909	0.1	-15.091
22197	19.044	1.	0.1	-15.8
22198	18.768	0.90909	0.1	-13.36
22199	18.86	1.	0.1	-13.947
22200	18.585	0.90909	0.1	-11.62
22201	18.677	1.	0.1	-12.09
22202	18.401	0.90909	0.1	-9.8663
22203	18.493	1.	0.1	-10.22
22204	18.218	0.90909	0.1	-8.0917
22205	18.309	1.	0.1	-8.3307
22206	18.034	0.90909	0.1	-6.2914
22207	18.126	1.	0.1	-6.4149
22208	17.85	0.90909	0.1	-4.4611
22209	17.942	1.	0.1	-4.4674
22210	17.667	0.90909	0.1	-2.5986
22211	17.759	1.	0.1	-2.4851
22212	17.483	0.90909	0.1	-0.72228
22213	17.575	1.	0.1	-0.50458
22214	17.3	0.90909	0.1	-2.6344e-002
22215	17.392	1.	0.1	-2.3924e-002
22216	17.116	0.90909	0.1	-1.3621e-002
22217	17.208	1.	0.1	-1.3691e-002
22218	16.933	0.90909	0.1	-1.0912e-002
22219	17.024	1.	0.1	-1.1121e-002
22220	16.749	0.90909	0.1	-1.0118e-002
22221	16.841	1.	0.1	-1.0252e-002
22222	16.565	0.90909	0.1	-1.0098e-002
22223	16.657	1.	0.1	-1.0102e-002
22224	16.382	0.90909	0.1	-1.0543e-002
22225	16.474	1.	0.1	-1.0387e-002
22226	16.198	0.90909	0.1	-1.1355e-002
22227	16.29	1.	0.1	-1.1017e-002
22228	16.015	0.90909	0.1	-1.2526e-002
22229	16.107	1.	0.1	-1.1973e-002
22230	15.831	0.90909	0.1	-1.4091e-002
22231	15.923	1.	0.1	-1.3286e-002
22232	15.648	0.90909	0.1	-1.6141e-002
22233	15.739	1.	0.1	-1.5016e-002
22234	15.464	0.90909	0.1	-1.8812e-002
22235	15.556	1.	0.1	-1.7286e-002
22236	15.281	0.90909	0.1	-2.2278e-002
22237	15.372	1.	0.1	-2.0244e-002
22238	15.097	0.90909	0.1	-2.6842e-002
22239	15.189	1.	0.1	-2.4074e-002
22240	14.913	0.90909	0.1	-3.3e-002
22241	15.005	1.	0.1	-2.9161e-002
22242	14.73	0.90909	0.1	-4.1491e-002
22243	14.822	1.	0.1	-3.6029e-002
22244	14.546	0.90909	0.1	-5.3524e-002
22245	14.638	1.	0.1	-4.5455e-002
22246	14.363	0.90909	0.1	-7.1189e-002
22247	14.454	1.	0.1	-5.8711e-002
22248	14.179	0.90909	0.1	-9.827e-002
22249	14.271	1.	0.1	-7.7898e-002
22250	13.996	0.90909	0.1	-0.14214
22251	14.087	1.	0.1	-0.10665
22252	13.812	0.90909	0.1	-0.21867
22253	13.904	1.	0.1	-0.15163
22254	13.628	0.90909	0.1	-0.36751
22255	13.72	1.	0.1	-0.226
22256	13.445	0.90909	0.1	-0.71317
22257	13.537	1.	0.1	-0.3587
22258	13.261	0.90909	0.1	-1.8086
22259	13.353	1.	0.1	-0.62423
22260	13.078	0.90909	0.1	-6.027
22261	13.169	1.	0.1	-1.2675
22262	12.894	0.90909	0.1	-14.809
22263	12.986	1.	0.1	-3.3761
22264	12.711	0.90909	0.1	-26.696
22265	12.802	1.	0.1	-10.262
22266	12.527	0.90909	0.1	-41.648
22267	12.619	1.	0.1	-22.814
22268	12.343	0.90909	0.1	-60.533
22269	12.435	1.	0.1	-40.381
22270	12.16	0.90909	0.1	-85.085
22271	12.252	1.	0.1	-64.426
22272	11.976	0.90909	0.1	-118.41
22273	12.068	1.	0.1	-98.23
22274	11.793	0.90909	0.1	-165.93
22275	11.885	1.	0.1	-147.41
22276	11.609	0.90909	0.1	-236.58
22277	11.701	1.	0.1	-220.96
22278	11.426	0.90909	0.1	-345.81
22279	11.517	1.	0.1	-331.59
22280	11.242	0.90909	0.1	-539.07
22281	11.334	1.	0.1	-498.67
22282	11.15	1.	0.1	-795.24
22283	11.058	0.90909	0.1	-532.15
22284	23.725	1.0909	0.1	-114.59
22285	23.816	1.1818	0.1	-124.93
22286	23.908	1.0909	0.1	-123.92
22287	23.541	1.0909	0.1	-105.06
22288	23.633	1.1818	0.1	-114.86
22289	23.358	1.0909	0.1	-96.532
22290	23.449	1.1818	0.1	-105.63
22291	23.174	1.0909	0.1	-88.957
22292	23.266	1.1818	0.1	-97.368
22293	22.99	1.0909	0.1	-82.221
22294	23.082	1.1818	0.1	-89.937
22295	22.807	1.0909	0.1	-76.221
22296	22.899	1.1818	0.1	-83.271
22297	22.623	1.0909	0.1	-70.846
22298	22.715	1.1818	0.1	-77.273
22299	22.44	1.0909	0.1	-65.998
22300	22.531	1.1818	0.1	-71.851
22301	22.256	1.0909	0.1	-61.593
22302	22.348	1.1818	0.1	-66.922
22303	22.073	1.0909	0.1	-57.561
22304	22.164	1.1818	0.1	-62.414
22305	21.889	1.0909	0.1	-53.846
22306	21.981	1.1818	0.1	-58.267
22307	21.705	1.0909	0.1	-50.402
22308	21.797	1.1818	0.1	-54.431
22309	21.522	1.0909	0.1	-47.19
22310	21.614	1.1818	0.1	-50.862
22311	21.338	1.0909	0.1	-44.179
22312	21.43	1.1818	0.1	-47.526
22313	21.155	1.0909	0.1	-41.342
22314	21.246	1.1818	0.1	-44.393
22315	20.971	1.0909	0.1	-38.657
22316	21.063	1.1818	0.1	-41.437
22317	20.788	1.0909	0.1	-36.104
22318	20.879	1.1818	0.1	-38.636
22319	20.604	1.0909	0.1	-33.666
22320	20.696	1.1818	0.1	-35.969
22321	20.42	1.0909	0.1	-31.327
22322	20.512	1.1818	0.1	-33.42
22323	20.237	1.0909	0.1	-29.073
22324	20.329	1.1818	0.1	-30.973
22325	20.053	1.0909	0.1	-26.891
22326	20.145	1.1818	0.1	-28.612
22327	19.87	1.0909	0.1	-24.77
22328	19.962	1.1818	0.1	-26.324
22329	19.686	1.0909	0.1	-22.698
22330	19.778	1.1818	0.1	-24.097
22331	19.503	1.0909	0.1	-20.664
22332	19.594	1.1818	0.1	-21.918
22333	19.319	1.0909	0.1	-18.658
22334	19.411	1.1818	0.1	-19.776
22335	19.135	1.0909	0.1	-16.67
22336	19.227	1.1818	0.1	-17.66
22337	18.952	1.0909	0.1	-14.691
22338	19.044	1.1818	0.1	-15.559
22339	18.768	1.0909	0.1	-12.711
22340	18.86	1.1818	0.1	-13.462
22341	18.585	1.0909	0.1	-10.722
22342	18.677	1.1818	0.1	-11.361
22343	18.401	1.0909	0.1	-8.7155
22344	18.493	1.1818	0.1	-9.2447
22345	18.218	1.0909	0.1	-6.6837
22346	18.309	1.1818	0.1	-7.1046
22347	18.034	1.0909	0.1	-4.6196
22348	18.126	1.1818	0.1	-4.9325
22349	17.85	1.0909	0.1	-2.5191
22350	17.942	1.1818	0.1	-2.7224
22351	17.667	1.0909	0.1	-0.43104
22352	17.759	1.1818	0.1	-0.5121
22353	17.483	1.0909	0.1	-2.3171e-002
22354	17.575	1.1818	0.1	-2.3907e-002
22355	17.3	1.0909	0.1	-1.3829e-002
22356	17.392	1.1818	0.1	-1.4174e-002
22357	17.116	1.0909	0.1	-1.132e-002
22358	17.208	1.1818	0.1	-1.1553e-002
22359	16.933	1.0909	0.1	-1.0396e-002
22360	17.024	1.1818	0.1	-1.052e-002
22361	16.749	1.0909	0.1	-1.0151e-002
22362	16.841	1.1818	0.1	-1.0153e-002
22363	16.565	1.0909	0.1	-1.0319e-002
22364	16.657	1.1818	0.1	-1.0181e-002
22365	16.382	1.0909	0.1	-1.081e-002
22366	16.474	1.1818	0.1	-1.0511e-002
22367	16.198	1.0909	0.1	-1.1606e-002
22368	16.29	1.1818	0.1	-1.112e-002
22369	16.015	1.0909	0.1	-1.2729e-002
22370	16.107	1.1818	0.1	-1.2021e-002
22371	15.831	1.0909	0.1	-1.4233e-002
22372	15.923	1.1818	0.1	-1.3259e-002
22373	15.648	1.0909	0.1	-1.6213e-002
22374	15.739	1.1818	0.1	-1.49e-002
22375	15.464	1.0909	0.1	-1.8806e-002
22376	15.556	1.1818	0.1	-1.7068e-002
22377	15.281	1.0909	0.1	-2.2175e-002
22378	15.372	1.1818	0.1	-1.9904e-002
22379	15.097	1.0909	0.1	-2.6591e-002
22380	15.189	1.1818	0.1	-2.3576e-002
22381	14.913	1.0909	0.1	-3.2481e-002
22382	15.005	1.1818	0.1	-2.8425e-002
22383	14.73	1.0909	0.1	-4.0432e-002
22384	14.822	1.1818	0.1	-3.4892e-002
22385	14.546	1.0909	0.1	-5.1344e-002
22386	14.638	1.1818	0.1	-4.3591e-002
22387	14.363	1.0909	0.1	-6.6629e-002
22388	14.454	1.1818	0.1	-5.5468e-002
22389	14.179	1.0909	0.1	-8.8568e-002
22390	14.271	1.1818	0.1	-7.1958e-002
22391	13.996	1.0909	0.1	-0.12098
22392	14.087	1.1818	0.1	-9.5314e-002
22393	13.812	1.0909	0.1	-0.17058
22394	13.904	1.1818	0.1	-0.12918
22395	13.628	1.0909	0.1	-0.24993
22396	13.72	1.1818	0.1	-0.17968
22397	13.445	1.0909	0.1	-0.38472
22398	13.537	1.1818	0.1	-0.25771
22399	13.261	1.0909	0.1	-0.63468
22400	13.353	1.1818	0.1	-0.38411
22401	13.078	1.0909	0.1	-1.1688
22402	13.169	1.1818	0.1	-0.60324
22403	12.894	1.0909	0.1	-2.6282
22404	12.986	1.1818	0.1	-1.0266
22405	12.711	1.0909	0.1	-7.8424
22406	12.802	1.1818	0.1	-2.0171
22407	12.527	1.0909	0.1	-21.165
22408	12.619	1.1818	0.1	-5.2857
22409	12.343	1.0909	0.1	-42.782
22410	12.435	1.1818	0.1	-17.614
22411	12.16	1.0909	0.1	-74.711
22412	12.252	1.1818	0.1	-43.902
22413	11.976	1.0909	0.1	-122.2
22414	12.068	1.1818	0.1	-86.327
22415	11.793	1.0909	0.1	-193.85
22416	11.885	1.1818	0.1	-152.72
22417	11.609	1.0909	0.1	-301.88
22418	11.701	1.1818	0.1	-256.28
22419	11.426	1.0909	0.1	-463.04
22420	11.517	1.1818	0.1	-414.62
22421	11.242	1.0909	0.1	-725.97
22422	11.334	1.1818	0.1	-651.69
22423	11.15	1.1818	0.1	-1048.7
22424	11.058	1.0909	0.1	-718.89
22425	23.725	1.2727	0.1	-125.22
22426	23.816	1.3636	0.1	-134.91
22427	23.908	1.2727	0.1	-134.76
22428	23.541	1.2727	0.1	-115.45
22429	23.633	1.3636	0.1	-124.72
22430	23.358	1.2727	0.1	-106.5
22431	23.449	1.3636	0.1	-115.2
22432	23.174	1.2727	0.1	-98.384
22433	23.266	1.3636	0.1	-106.52
22434	22.99	1.2727	0.1	-91.029
22435	23.082	1.3636	0.1	-98.576
22436	22.807	1.2727	0.1	-84.37
22437	22.899	1.3636	0.1	-91.338
22438	22.623	1.2727	0.1	-78.328
22439	22.715	1.3636	0.1	-84.739
22440	22.44	1.2727	0.1	-72.828
22441	22.531	1.3636	0.1	-78.712
22442	22.256	1.2727	0.1	-67.797
22443	22.348	1.3636	0.1	-73.191
22444	22.073	1.2727	0.1	-63.174
22445	22.164	1.3636	0.1	-68.115
22446	21.889	1.2727	0.1	-58.905
22447	21.981	1.3636	0.1	-63.429
22448	21.705	1.2727	0.1	-54.943
22449	21.797	1.3636	0.1	-59.084
22450	21.522	1.2727	0.1	-51.25
22451	21.614	1.3636	0.1	-55.039
22452	21.338	1.2727	0.1	-47.791
22453	21.43	1.3636	0.1	-51.258
22454	21.155	1.2727	0.1	-44.537
22455	21.246	1.3636	0.1	-47.71
22456	20.971	1.2727	0.1	-41.463
22457	21.063	1.3636	0.1	-44.366
22458	20.788	1.2727	0.1	-38.547
22459	20.879	1.3636	0.1	-41.202
22460	20.604	1.2727	0.1	-35.768
22461	20.696	1.3636	0.1	-38.195
22462	20.42	1.2727	0.1	-33.109
22463	20.512	1.3636	0.1	-35.327
22464	20.237	1.2727	0.1	-30.553
22465	20.329	1.3636	0.1	-32.578
22466	20.053	1.2727	0.1	-28.085
22467	20.145	1.3636	0.1	-29.932
22468	19.87	1.2727	0.1	-25.69
22469	19.962	1.3636	0.1	-27.372
22470	19.686	1.2727	0.1	-23.355
22471	19.778	1.3636	0.1	-24.885
22472	19.503	1.2727	0.1	-21.067
22473	19.594	1.3636	0.1	-22.455
22474	19.319	1.2727	0.1	-18.814
22475	19.411	1.3636	0.1	-20.07
22476	19.135	1.2727	0.1	-16.583
22477	19.227	1.3636	0.1	-17.716
22478	18.952	1.2727	0.1	-14.364
22479	19.044	1.3636	0.1	-15.38
22480	18.768	1.2727	0.1	-12.145
22481	18.86	1.3636	0.1	-13.05
22482	18.585	1.2727	0.1	-9.9146
22483	18.677	1.3636	0.1	-10.715
22484	18.401	1.2727	0.1	-7.6637
22485	18.493	1.3636	0.1	-8.3625
22486	18.218	1.2727	0.1	-5.3821
22487	18.309	1.3636	0.1	-5.9815
22488	18.034	1.2727	0.1	-3.0622
22489	18.126	1.3636	0.1	-3.5625
22490	17.85	1.2727	0.1	-0.72284
22491	17.942	1.3636	0.1	-1.1094
22492	17.667	1.2727	0.1	-2.5396e-002
22493	17.759	1.3636	0.1	-2.915e-002
22494	17.483	1.2727	0.1	-1.4554e-002
22495	17.575	1.3636	0.1	-1.5196e-002
22496	17.3	1.2727	0.1	-1.178e-002
22497	17.392	1.3636	0.1	-1.2095e-002
22498	17.116	1.2727	0.1	-1.0659e-002
22499	17.208	1.3636	0.1	-1.0841e-002
22500	16.933	1.2727	0.1	-1.0199e-002
22501	17.024	1.3636	0.1	-1.0268e-002
22502	16.749	1.2727	0.1	-1.0119e-002
22503	16.841	1.3636	0.1	-1.0068e-002
22504	16.565	1.2727	0.1	-1.0325e-002
22505	16.657	1.3636	0.1	-1.0137e-002
22506	16.382	1.2727	0.1	-1.0787e-002
22507	16.474	1.3636	0.1	-1.0441e-002
22508	16.198	1.2727	0.1	-1.1515e-002
22509	16.29	1.3636	0.1	-1.0983e-002
22510	16.015	1.2727	0.1	-1.2547e-002
22511	16.107	1.3636	0.1	-1.1787e-002
22512	15.831	1.2727	0.1	-1.3941e-002
22513	15.923	1.3636	0.1	-1.2905e-002
22514	15.648	1.2727	0.1	-1.5792e-002
22515	15.739	1.3636	0.1	-1.4404e-002
22516	15.464	1.2727	0.1	-1.8231e-002
22517	15.556	1.3636	0.1	-1.6402e-002
22518	15.281	1.2727	0.1	-2.1405e-002
22519	15.372	1.3636	0.1	-1.9029e-002
22520	15.097	1.2727	0.1	-2.5558e-002
22521	15.189	1.3636	0.1	-2.2432e-002
22522	14.913	1.2727	0.1	-3.1056e-002
22523	15.005	1.3636	0.1	-2.6917e-002
22524	14.73	1.2727	0.1	-3.8381e-002
22525	14.822	1.3636	0.1	-3.2855e-002
22526	14.546	1.2727	0.1	-4.8227e-002
22527	14.638	1.3636	0.1	-4.0741e-002
22528	14.363	1.2727	0.1	-6.1626e-002
22529	14.454	1.3636	0.1	-5.1305e-002
22530	14.179	1.2727	0.1	-8.0116e-002
22531	14.271	1.3636	0.1	-6.5593e-002
22532	13.996	1.2727	0.1	-0.10606
22533	14.087	1.3636	0.1	-8.5146e-002
22534	13.812	1.2727	0.1	-0.14319
22535	13.904	1.3636	0.1	-0.11227
22536	13.628	1.2727	0.1	-0.19761
22537	13.72	1.3636	0.1	-0.15052
22538	13.445	1.2727	0.1	-0.27984
22539	13.537	1.3636	0.1	-0.20557
22540	13.261	1.2727	0.1	-0.40938
22541	13.353	1.3636	0.1	-0.28696
22542	13.078	1.2727	0.1	-0.62639
22543	13.169	1.3636	0.1	-0.41188
22544	12.894	1.2727	0.1	-1.0281
22545	12.986	1.3636	0.1	-0.61484
22546	12.711	1.2727	0.1	-1.9184
22547	12.802	1.3636	0.1	-0.97683
22548	12.527	1.2727	0.1	-4.7486
22549	12.619	1.3636	0.1	-1.7401
22550	12.343	1.2727	0.1	-17.917
22551	12.435	1.3636	0.1	-4.0239
22552	12.16	1.2727	0.1	-52.426
22553	12.252	1.3636	0.1	-16.466
22554	11.976	1.2727	0.1	-111.34
22555	12.068	1.3636	0.1	-59.436
22556	11.793	1.2727	0.1	-205.81
22557	11.885	1.3636	0.1	-137.59
22558	11.609	1.2727	0.1	-353.69
22559	11.701	1.3636	0.1	-266.82
22560	11.426	1.2727	0.1	-579.41
22561	11.517	1.3636	0.1	-475.09
22562	11.242	1.2727	0.1	-940.12
22563	11.334	1.3636	0.1	-801.57
22564	11.15	1.3636	0.1	-1355.5
22565	11.058	1.2727	0.1	-948.42
22566	23.725	1.4545	0.1	-134.43
22567	23.816	1.5455	0.1	-143.53
22568	23.908	1.4545	0.1	-144.14
22569	23.541	1.4545	0.1	-124.49
22570	23.633	1.5455	0.1	-133.25
22571	23.358	1.4545	0.1	-115.25
22572	23.449	1.5455	0.1	-123.53
22573	23.174	1.4545	0.1	-106.74
22574	23.266	1.5455	0.1	-114.55
22575	22.99	1.4545	0.1	-98.918
22576	23.082	1.5455	0.1	-106.22
22577	22.807	1.4545	0.1	-91.743
22578	22.899	1.5455	0.1	-98.543
22579	22.623	1.4545	0.1	-85.162
22580	22.715	1.5455	0.1	-91.467
22581	22.44	1.4545	0.1	-79.118
22582	22.531	1.5455	0.1	-84.946
22583	22.256	1.4545	0.1	-73.553
22584	22.348	1.5455	0.1	-78.929
22585	22.073	1.4545	0.1	-68.414
22586	22.164	1.5455	0.1	-73.366
22587	21.889	1.4545	0.1	-63.653
22588	21.981	1.5455	0.1	-68.209
22589	21.705	1.4545	0.1	-59.225
22590	21.797	1.5455	0.1	-63.415
22591	21.522	1.4545	0.1	-55.093
22592	21.614	1.5455	0.1	-58.943
22593	21.338	1.4545	0.1	-51.223
22594	21.43	1.5455	0.1	-54.76
22595	21.155	1.4545	0.1	-47.583
22596	21.246	1.5455	0.1	-50.832
22597	20.971	1.4545	0.1	-44.148
22598	21.063	1.5455	0.1	-47.132
22599	20.788	1.4545	0.1	-40.893
22600	20.879	1.5455	0.1	-43.633
22601	20.604	1.4545	0.1	-37.795
22602	20.696	1.5455	0.1	-40.312
22603	20.42	1.4545	0.1	-34.836
22604	20.512	1.5455	0.1	-37.147
22605	20.237	1.4545	0.1	-31.996
22606	20.329	1.5455	0.1	-34.117
22607	20.053	1.4545	0.1	-29.257
22608	20.145	1.5455	0.1	-31.205
22609	19.87	1.4545	0.1	-26.604
22610	19.962	1.5455	0.1	-28.392
22611	19.686	1.4545	0.1	-24.021
22612	19.778	1.5455	0.1	-25.661
22613	19.503	1.4545	0.1	-21.493
22614	19.594	1.5455	0.1	-22.997
22615	19.319	1.4545	0.1	-19.006
22616	19.411	1.5455	0.1	-20.383
22617	19.135	1.4545	0.1	-16.545
22618	19.227	1.5455	0.1	-17.806
22619	18.952	1.4545	0.1	-14.099
22620	19.044	1.5455	0.1	-15.25
22621	18.768	1.4545	0.1	-11.652
22622	18.86	1.5455	0.1	-12.702
22623	18.585	1.4545	0.1	-9.193
22624	18.677	1.5455	0.1	-10.146
22625	18.401	1.4545	0.1	-6.7091
22626	18.493	1.5455	0.1	-7.5709
22627	18.218	1.4545	0.1	-4.1891
22628	18.309	1.5455	0.1	-4.9621
22629	18.034	1.4545	0.1	-1.6282
22630	18.126	1.5455	0.1	-2.3104
22631	17.85	1.4545	0.1	-3.6778e-002
22632	17.942	1.5455	0.1	-6.7339e-002
22633	17.667	1.4545	0.1	-1.5938e-002
22634	17.759	1.5455	0.1	-1.7158e-002
22635	17.483	1.4545	0.1	-1.2419e-002
22636	17.575	1.5455	0.1	-1.2855e-002
22637	17.3	1.4545	0.1	-1.1031e-002
22638	17.392	1.5455	0.1	-1.127e-002
22639	17.116	1.4545	0.1	-1.037e-002
22640	17.208	1.5455	0.1	-1.0499e-002
22641	16.933	1.4545	0.1	-1.0078e-002
22642	17.024	1.5455	0.1	-1.0105e-002
22643	16.749	1.4545	0.1	-1.004e-002
22644	16.841	1.5455	0.1	-9.9517e-003
22645	16.565	1.4545	0.1	-1.022e-002
22646	16.657	1.5455	0.1	-9.9999e-003
22647	16.382	1.4545	0.1	-1.0614e-002
22648	16.474	1.5455	0.1	-1.0238e-002
22649	16.198	1.4545	0.1	-1.1243e-002
22650	16.29	1.5455	0.1	-1.068e-002
22651	16.015	1.4545	0.1	-1.2147e-002
22652	16.107	1.5455	0.1	-1.1357e-002
22653	15.831	1.4545	0.1	-1.3385e-002
22654	15.923	1.5455	0.1	-1.2318e-002
22655	15.648	1.4545	0.1	-1.505e-002
22656	15.739	1.5455	0.1	-1.3627e-002
22657	15.464	1.4545	0.1	-1.726e-002
22658	15.556	1.5455	0.1	-1.5395e-002
22659	15.281	1.4545	0.1	-2.0147e-002
22660	15.372	1.5455	0.1	-1.7739e-002
22661	15.097	1.4545	0.1	-2.3925e-002
22662	15.189	1.5455	0.1	-2.0786e-002
22663	14.913	1.4545	0.1	-2.8912e-002
22664	15.005	1.5455	0.1	-2.4805e-002
22665	14.73	1.4545	0.1	-3.5505e-002
22666	14.822	1.5455	0.1	-3.0114e-002
22667	14.546	1.4545	0.1	-4.4253e-002
22668	14.638	1.5455	0.1	-3.7112e-002
22669	14.363	1.4545	0.1	-5.594e-002
22670	14.454	1.5455	0.1	-4.6381e-002
22671	14.179	1.4545	0.1	-7.168e-002
22672	14.271	1.5455	0.1	-5.8715e-002
22673	13.996	1.4545	0.1	-9.3083e-002
22674	14.087	1.5455	0.1	-7.5233e-002
22675	13.812	1.4545	0.1	-0.12252
22676	13.904	1.5455	0.1	-9.7525e-002
22677	13.628	1.4545	0.1	-0.16361
22678	13.72	1.5455	0.1	-0.1279
22679	13.445	1.4545	0.1	-0.22204
22680	13.537	1.5455	0.1	-0.16982
22681	13.261	1.4545	0.1	-0.3073
22682	13.353	1.5455	0.1	-0.22865
22683	13.078	1.4545	0.1	-0.43651
22684	13.169	1.5455	0.1	-0.31333
22685	12.894	1.4545	0.1	-0.64437
22686	12.986	1.5455	0.1	-0.43985
22687	12.711	1.4545	0.1	-1.0132
22688	12.802	1.5455	0.1	-0.6408
22689	12.527	1.4545	0.1	-1.7988
22690	12.619	1.5455	0.1	-0.99264
22691	12.343	1.4545	0.1	-4.2597
22692	12.435	1.5455	0.1	-1.7378
22693	12.16	1.4545	0.1	-20.467
22694	12.252	1.5455	0.1	-4.0511
22695	11.976	1.4545	0.1	-80.196
22696	12.068	1.5455	0.1	-21.498
22697	11.793	1.4545	0.1	-189.57
22698	11.885	1.5455	0.1	-96.115
22699	11.609	1.4545	0.1	-373.15
22700	11.701	1.5455	0.1	-237.19
22701	11.426	1.4545	0.1	-671.43
22702	11.517	1.5455	0.1	-480.58
22703	11.242	1.4545	0.1	-1173.7
22704	11.334	1.5455	0.1	-909.4
22705	11.15	1.5455	0.1	-1762.9
22706	11.058	1.4545	0.1	-1252.6
22707	23.725	1.6364	0.1	-142.36
22708	23.816	1.7273	0.1	-150.9
22709	23.908	1.6364	0.1	-152.19
22710	23.541	1.6364	0.1	-132.31
22711	23.633	1.7273	0.1	-140.57
22712	23.358	1.6364	0.1	-122.85
22713	23.449	1.7273	0.1	-130.71
22714	23.174	1.6364	0.1	-114.05
22715	23.266	1.7273	0.1	-121.5
22716	22.99	1.6364	0.1	-105.87
22717	23.082	1.7273	0.1	-112.89
22718	22.807	1.6364	0.1	-98.296
22719	22.899	1.7273	0.1	-104.87
22720	22.623	1.6364	0.1	-91.283
22721	22.715	1.7273	0.1	-97.416
22722	22.44	1.6364	0.1	-84.792
22723	22.531	1.7273	0.1	-90.496
22724	22.256	1.6364	0.1	-78.779
22725	22.348	1.7273	0.1	-84.07
22726	22.073	1.6364	0.1	-73.199
22727	22.164	1.7273	0.1	-78.097
22728	21.889	1.6364	0.1	-68.01
22729	21.981	1.7273	0.1	-72.538
22730	21.705	1.6364	0.1	-63.172
22731	21.797	1.7273	0.1	-67.354
22732	21.522	1.6364	0.1	-58.65
22733	21.614	1.7273	0.1	-62.509
22734	21.338	1.6364	0.1	-54.41
22735	21.43	1.7273	0.1	-57.969
22736	21.155	1.6364	0.1	-50.421
22737	21.246	1.7273	0.1	-53.703
22738	20.971	1.6364	0.1	-46.657
22739	21.063	1.7273	0.1	-49.683
22740	20.788	1.6364	0.1	-43.092
22741	20.879	1.7273	0.1	-45.882
22742	20.604	1.6364	0.1	-39.702
22743	20.696	1.7273	0.1	-42.276
22744	20.42	1.6364	0.1	-36.466
22745	20.512	1.7273	0.1	-38.841
22746	20.237	1.6364	0.1	-33.364
22747	20.329	1.7273	0.1	-35.556
22748	20.053	1.6364	0.1	-30.376
22749	20.145	1.7273	0.1	-32.4
22750	19.87	1.6364	0.1	-27.484
22751	19.962	1.7273	0.1	-29.355
22752	19.686	1.6364	0.1	-24.671
22753	19.778	1.7273	0.1	-26.401
22754	19.503	1.6364	0.1	-21.921
22755	19.594	1.7273	0.1	-23.522
22756	19.319	1.6364	0.1	-19.217
22757	19.411	1.7273	0.1	-20.7
22758	19.135	1.6364	0.1	-16.543
22759	19.227	1.7273	0.1	-17.918
22760	18.952	1.6364	0.1	-13.885
22761	19.044	1.7273	0.1	-15.159
22762	18.768	1.6364	0.1	-11.226
22763	18.86	1.7273	0.1	-12.409
22764	18.585	1.6364	0.1	-8.5535
22765	18.677	1.7273	0.1	-9.6506
22766	18.401	1.6364	0.1	-5.8517
22767	18.493	1.7273	0.1	-6.8688
22768	18.218	1.6364	0.1	-3.1083
22769	18.309	1.7273	0.1	-4.0488
22770	18.034	1.6364	0.1	-0.36713
22771	18.126	1.7273	0.1	-1.1855
22772	17.85	1.6364	0.1	-1.8869e-002
22773	17.942	1.7273	0.1	-2.2491e-002
22774	17.667	1.6364	0.1	-1.3325e-002
22775	17.759	1.7273	0.1	-1.3989e-002
22776	17.483	1.6364	0.1	-1.1526e-002
22777	17.575	1.7273	0.1	-1.1849e-002
22778	17.3	1.6364	0.1	-1.0651e-002
22779	17.392	1.7273	0.1	-1.0842e-002
22780	17.116	1.6364	0.1	-1.0176e-002
22781	17.208	1.7273	0.1	-1.0278e-002
22782	16.933	1.6364	0.1	-9.9353e-003
22783	17.024	1.7273	0.1	-9.9454e-003
22784	16.749	1.6364	0.1	-9.8789e-003
22785	16.841	1.7273	0.1	-9.7824e-003
22786	16.565	1.6364	0.1	-9.9947e-003
22787	16.657	1.7273	0.1	-9.7742e-003
22788	16.382	1.6364	0.1	-1.029e-002
22789	16.474	1.7273	0.1	-9.9201e-003
22790	16.198	1.6364	0.1	-1.079e-002
22791	16.29	1.7273	0.1	-1.0241e-002
22792	16.015	1.6364	0.1	-1.1535e-002
22793	16.107	1.7273	0.1	-1.0765e-002
22794	15.831	1.6364	0.1	-1.2581e-002
22795	15.923	1.7273	0.1	-1.1541e-002
22796	15.648	1.6364	0.1	-1.4011e-002
22797	15.739	1.7273	0.1	-1.2626e-002
22798	15.464	1.6364	0.1	-1.5936e-002
22799	15.556	1.7273	0.1	-1.4123e-002
22800	15.281	1.6364	0.1	-1.847e-002
22801	15.372	1.7273	0.1	-1.6135e-002
22802	15.097	1.6364	0.1	-2.1798e-002
22803	15.189	1.7273	0.1	-1.8767e-002
22804	14.913	1.6364	0.1	-2.6196e-002
22805	15.005	1.7273	0.1	-2.226e-002
22806	14.73	1.6364	0.1	-3.1994e-002
22807	14.822	1.7273	0.1	-2.6884e-002
22808	14.546	1.6364	0.1	-3.9637e-002
22809	14.638	1.7273	0.1	-3.297e-002
22810	14.363	1.6364	0.1	-4.9741e-002
22811	14.454	1.7273	0.1	-4.0987e-002
22812	14.179	1.6364	0.1	-6.3146e-002
22813	14.271	1.7273	0.1	-5.1563e-002
22814	13.996	1.6364	0.1	-8.1017e-002
22815	14.087	1.7273	0.1	-6.5544e-002
22816	13.812	1.6364	0.1	-0.10499
22817	13.904	1.7273	0.1	-8.4092e-002
22818	13.628	1.6364	0.1	-0.13744
22819	13.72	1.7273	0.1	-0.10882
22820	13.445	1.6364	0.1	-0.18185
22821	13.537	1.7273	0.1	-0.142
22822	13.261	1.6364	0.1	-0.2437
22823	13.353	1.7273	0.1	-0.187
22824	13.078	1.6364	0.1	-0.33209
22825	13.169	1.7273	0.1	-0.24903
22826	12.894	1.6364	0.1	-0.46386
22827	12.986	1.7273	0.1	-0.33667
22828	12.711	1.6364	0.1	-0.67318
22829	12.802	1.7273	0.1	-0.46622
22830	12.527	1.6364	0.1	-1.0476
22831	12.619	1.7273	0.1	-0.66929
22832	12.343	1.6364	0.1	-1.86
22833	12.435	1.7273	0.1	-1.035
22834	12.16	1.6364	0.1	-4.7164
22835	12.252	1.7273	0.1	-1.8144
22836	11.976	1.6364	0.1	-31.266
22837	12.068	1.7273	0.1	-4.6744
22838	11.793	1.6364	0.1	-135.95
22839	11.885	1.7273	0.1	-35.035
22840	11.609	1.6364	0.1	-331.86
22841	11.701	1.7273	0.1	-161.
22842	11.426	1.6364	0.1	-695.77
22843	11.517	1.7273	0.1	-397.7
22844	11.242	1.6364	0.1	-1435.5
22845	11.334	1.7273	0.1	-900.97
22846	11.15	1.7273	0.1	-2088.1
22847	11.058	1.6364	0.1	-1595.8
22848	23.725	1.8182	0.1	-149.12
22849	23.816	1.9091	0.1	-157.13
22850	23.908	1.8182	0.1	-159.05
22851	23.541	1.8182	0.1	-138.98
22852	23.633	1.9091	0.1	-146.77
22853	23.358	1.8182	0.1	-129.37
22854	23.449	1.9091	0.1	-136.79
22855	23.174	1.8182	0.1	-120.35
22856	23.266	1.9091	0.1	-127.42
22857	22.99	1.8182	0.1	-111.9
22858	23.082	1.9091	0.1	-118.59
22859	22.807	1.8182	0.1	-104.01
22860	22.899	1.9091	0.1	-110.31
22861	22.623	1.8182	0.1	-96.655
22862	22.715	1.9091	0.1	-102.57
22863	22.44	1.8182	0.1	-89.802
22864	22.531	1.9091	0.1	-95.327
22865	22.256	1.8182	0.1	-83.419
22866	22.348	1.9091	0.1	-88.569
22867	22.073	1.8182	0.1	-77.469
22868	22.164	1.9091	0.1	-82.258
22869	21.889	1.8182	0.1	-71.916
22870	21.981	1.9091	0.1	-76.363
22871	21.705	1.8182	0.1	-66.725
22872	21.797	1.9091	0.1	-70.848
22873	21.522	1.8182	0.1	-61.863
22874	21.614	1.9091	0.1	-65.683
22875	21.338	1.8182	0.1	-57.298
22876	21.43	1.9091	0.1	-60.835
22877	21.155	1.8182	0.1	-53.001
22878	21.246	1.9091	0.1	-56.275
22879	20.971	1.8182	0.1	-48.945
22880	21.063	1.9091	0.1	-51.975
22881	20.788	1.8182	0.1	-45.103
22882	20.879	1.9091	0.1	-47.908
22883	20.604	1.8182	0.1	-41.451
22884	20.696	1.9091	0.1	-44.049
22885	20.42	1.8182	0.1	-37.966
22886	20.512	1.9091	0.1	-40.375
22887	20.237	1.8182	0.1	-34.627
22888	20.329	1.9091	0.1	-36.862
22889	20.053	1.8182	0.1	-31.414
22890	20.145	1.9091	0.1	-33.49
22891	19.87	1.8182	0.1	-28.306
22892	19.962	1.9091	0.1	-30.238
22893	19.686	1.8182	0.1	-25.286
22894	19.778	1.9091	0.1	-27.085
22895	19.503	1.8182	0.1	-22.333
22896	19.594	1.9091	0.1	-24.013
22897	19.319	1.8182	0.1	-19.432
22898	19.411	1.9091	0.1	-21.004
22899	19.135	1.8182	0.1	-16.565
22900	19.227	1.9091	0.1	-18.038
22901	18.952	1.8182	0.1	-13.714
22902	19.044	1.9091	0.1	-15.098
22903	18.768	1.8182	0.1	-10.862
22904	18.86	1.9091	0.1	-12.166
22905	18.585	1.8182	0.1	-7.9941
22906	18.677	1.9091	0.1	-9.2242
22907	18.401	1.8182	0.1	-5.0927
22908	18.493	1.9091	0.1	-6.2561
22909	18.218	1.8182	0.1	-2.1447
22910	18.309	1.9091	0.1	-3.2449
22911	18.034	1.8182	0.1	-3.2746e-002
22912	18.126	1.9091	0.1	-0.24211
22913	17.85	1.8182	0.1	-1.4788e-002
22914	17.942	1.9091	0.1	-1.6136e-002
22915	17.667	1.8182	0.1	-1.2192e-002
22916	17.759	1.9091	0.1	-1.2634e-002
22917	17.483	1.8182	0.1	-1.1056e-002
22918	17.575	1.9091	0.1	-1.1317e-002
22919	17.3	1.8182	0.1	-1.041e-002
22920	17.392	1.9091	0.1	-1.0576e-002
22921	17.116	1.8182	0.1	-1.0007e-002
22922	17.208	1.9091	0.1	-1.01e-002
22923	16.933	1.8182	0.1	-9.7624e-003
22924	17.024	1.9091	0.1	-9.7759e-003
22925	16.749	1.8182	0.1	-9.6557e-003
22926	16.841	1.9091	0.1	-9.5719e-003
22927	16.565	1.8182	0.1	-9.6852e-003
22928	16.657	1.9091	0.1	-9.4883e-003
22929	16.382	1.8182	0.1	-9.8648e-003
22930	16.474	1.9091	0.1	-9.5288e-003
22931	16.198	1.8182	0.1	-1.0219e-002
22932	16.29	1.9091	0.1	-9.7159e-003
22933	16.015	1.8182	0.1	-1.0785e-002
22934	16.107	1.9091	0.1	-1.0075e-002
22935	15.831	1.8182	0.1	-1.1613e-002
22936	15.923	1.9091	0.1	-1.0651e-002
22937	15.648	1.8182	0.1	-1.2782e-002
22938	15.739	1.9091	0.1	-1.1495e-002
22939	15.464	1.8182	0.1	-1.4388e-002
22940	15.556	1.9091	0.1	-1.27e-002
22941	15.281	1.8182	0.1	-1.6528e-002
22942	15.372	1.9091	0.1	-1.4356e-002
22943	15.097	1.8182	0.1	-1.9365e-002
22944	15.189	1.9091	0.1	-1.655e-002
22945	14.913	1.8182	0.1	-2.3138e-002
22946	15.005	1.9091	0.1	-1.9496e-002
22947	14.73	1.8182	0.1	-2.8127e-002
22948	14.822	1.9091	0.1	-2.3427e-002
22949	14.546	1.8182	0.1	-3.4696e-002
22950	14.638	1.9091	0.1	-2.8622e-002
22951	14.363	1.8182	0.1	-4.3345e-002
22952	14.454	1.9091	0.1	-3.547e-002
22953	14.179	1.8182	0.1	-5.473e-002
22954	14.271	1.9091	0.1	-4.4484e-002
22955	13.996	1.8182	0.1	-6.9745e-002
22956	14.087	1.9091	0.1	-5.6335e-002
22957	13.812	1.8182	0.1	-8.9579e-002
22958	13.904	1.9091	0.1	-7.1919e-002
22959	13.628	1.8182	0.1	-0.11588
22960	13.72	1.9091	0.1	-9.2424e-002
22961	13.445	1.8182	0.1	-0.15095
22962	13.537	1.9091	0.1	-0.11947
22963	13.261	1.8182	0.1	-0.19819
22964	13.353	1.9091	0.1	-0.15526
22965	13.078	1.8182	0.1	-0.26283
22966	13.169	1.9091	0.1	-0.20305
22967	12.894	1.8182	0.1	-0.35395
22968	12.986	1.9091	0.1	-0.26761
22969	12.711	1.8182	0.1	-0.48746
22970	12.802	1.9091	0.1	-0.3579
22971	12.527	1.8182	0.1	-0.70195
22972	12.619	1.9091	0.1	-0.48629
22973	12.343	1.8182	0.1	-1.0811
22974	12.435	1.9091	0.1	-0.69751
22975	12.16	1.8182	0.1	-1.9845
22976	12.252	1.9091	0.1	-1.0334
22977	11.976	1.8182	0.1	-5.4776
22978	12.068	1.9091	0.1	-1.9693
22979	11.793	1.8182	0.1	-52.663
22980	11.885	1.9091	0.1	-4.9748
22981	11.609	1.8182	0.1	-218.27
22982	11.701	1.9091	0.1	-60.739
22983	11.426	1.8182	0.1	-587.49
22984	11.517	1.9091	0.1	-247.04
22985	11.242	1.8182	0.1	-1500.9
22986	11.334	1.9091	0.1	-659.97
22987	11.15	1.9091	0.1	-1767.8
22988	11.058	1.8182	0.1	-2484.1
22989	23.725	2.	0.1	-154.79
22990	23.816	2.0909	0.1	-162.3
22991	23.908	2.	0.1	-164.8
22992	23.541	2.	0.1	-144.59
22993	23.633	2.0909	0.1	-151.91
22994	23.358	2.	0.1	-134.86
22995	23.449	2.0909	0.1	-141.85
22996	23.174	2.	0.1	-125.67
22997	23.266	2.0909	0.1	-132.36
22998	22.99	2.	0.1	-117.02
22999	23.082	2.0909	0.1	-123.36
23000	22.807	2.	0.1	-108.89
23001	22.899	2.0909	0.1	-114.89
23002	22.623	2.	0.1	-101.26
23003	22.715	2.0909	0.1	-106.91
23004	22.44	2.	0.1	-94.119
23005	22.531	2.0909	0.1	-99.423
23006	22.256	2.	0.1	-87.435
23007	22.348	2.0909	0.1	-92.4
23008	22.073	2.	0.1	-81.181
23009	22.164	2.0909	0.1	-85.816
23010	21.889	2.	0.1	-75.325
23011	21.981	2.0909	0.1	-79.645
23012	21.705	2.	0.1	-69.837
23013	21.797	2.0909	0.1	-73.858
23014	21.522	2.	0.1	-64.687
23015	21.614	2.0909	0.1	-68.425
23016	21.338	2.	0.1	-59.844
23017	21.43	2.0909	0.1	-63.318
23018	21.155	2.	0.1	-55.282
23019	21.246	2.0909	0.1	-58.509
23020	20.971	2.	0.1	-50.972
23021	21.063	2.0909	0.1	-53.97
23022	20.788	2.	0.1	-46.888
23023	20.879	2.0909	0.1	-49.676
23024	20.604	2.	0.1	-43.007
23025	20.696	2.0909	0.1	-45.6
23026	20.42	2.	0.1	-39.305
23027	20.512	2.0909	0.1	-41.72
23028	20.237	2.	0.1	-35.759
23029	20.329	2.0909	0.1	-38.011
23030	20.053	2.	0.1	-32.347
23031	20.145	2.0909	0.1	-34.452
23032	19.87	2.	0.1	-29.049
23033	19.962	2.0909	0.1	-31.019
23034	19.686	2.	0.1	-25.845
23035	19.778	2.0909	0.1	-27.694
23036	19.503	2.	0.1	-22.715
23037	19.594	2.0909	0.1	-24.455
23038	19.319	2.	0.1	-19.64
23039	19.411	2.0909	0.1	-21.282
23040	19.135	2.	0.1	-16.6
23041	19.227	2.0909	0.1	-18.156
23042	18.952	2.	0.1	-13.579
23043	19.044	2.0909	0.1	-15.057
23044	18.768	2.	0.1	-10.556
23045	18.86	2.0909	0.1	-11.967
23046	18.585	2.	0.1	-7.5137
23047	18.677	2.0909	0.1	-8.8652
23048	18.401	2.	0.1	-4.4341
23049	18.493	2.0909	0.1	-5.7337
23050	18.218	2.	0.1	-1.3047
23051	18.309	2.0909	0.1	-2.5543
23052	18.034	2.	0.1	-1.8609e-002
23053	18.126	2.0909	0.1	-2.9144e-002
23054	17.85	2.	0.1	-1.312e-002
23055	17.942	2.0909	0.1	-1.3823e-002
23056	17.667	2.	0.1	-1.1596e-002
23057	17.759	2.0909	0.1	-1.193e-002
23058	17.483	2.	0.1	-1.077e-002
23059	17.575	2.0909	0.1	-1.0999e-002
23060	17.3	2.	0.1	-1.0227e-002
23061	17.392	2.0909	0.1	-1.0387e-002
23062	17.116	2.	0.1	-9.8413e-003
23063	17.208	2.0909	0.1	-9.9425e-003
23064	16.933	2.	0.1	-9.5648e-003
23065	17.024	2.0909	0.1	-9.5978e-003
23066	16.749	2.	0.1	-9.3906e-003
23067	16.841	2.0909	0.1	-9.3389e-003
23068	16.565	2.	0.1	-9.3246e-003
23069	16.657	2.0909	0.1	-9.1727e-003
23070	16.382	2.	0.1	-9.3802e-003
23071	16.474	2.0909	0.1	-9.1042e-003
23072	16.198	2.	0.1	-9.5811e-003
23073	16.29	2.0909	0.1	-9.1553e-003
23074	16.015	2.	0.1	-9.9617e-003
23075	16.107	2.0909	0.1	-9.3493e-003
23076	15.831	2.	0.1	-1.0566e-002
23077	15.923	2.0909	0.1	-9.7251e-003
23078	15.648	2.	0.1	-1.1463e-002
23079	15.739	2.0909	0.1	-1.0328e-002
23080	15.464	2.	0.1	-1.274e-002
23081	15.556	2.0909	0.1	-1.1241e-002
23082	15.281	2.	0.1	-1.4478e-002
23083	15.372	2.0909	0.1	-1.2544e-002
23084	15.097	2.	0.1	-1.682e-002
23085	15.189	2.0909	0.1	-1.4307e-002
23086	14.913	2.	0.1	-1.9976e-002
23087	15.005	2.0909	0.1	-1.6724e-002
23088	14.73	2.	0.1	-2.4186e-002
23089	14.822	2.0909	0.1	-1.9998e-002
23090	14.546	2.	0.1	-2.9758e-002
23091	14.638	2.0909	0.1	-2.4369e-002
23092	14.363	2.	0.1	-3.7111e-002
23093	14.454	2.0909	0.1	-3.0173e-002
23094	14.179	2.	0.1	-4.6787e-002
23095	14.271	2.0909	0.1	-3.7846e-002
23096	13.996	2.	0.1	-5.9497e-002
23097	14.087	2.0909	0.1	-4.7955e-002
23098	13.812	2.	0.1	-7.6171e-002
23099	13.904	2.0909	0.1	-6.1237e-002
23100	13.628	2.	0.1	-9.8039e-002
23101	13.72	2.0909	0.1	-7.8645e-002
23102	13.445	2.	0.1	-0.12672
23103	13.537	2.0909	0.1	-0.10143
23104	13.261	2.	0.1	-0.16448
23105	13.353	2.0909	0.1	-0.13119
23106	13.078	2.	0.1	-0.21439
23107	13.169	2.0909	0.1	-0.17015
23108	12.894	2.	0.1	-0.28169
23109	12.986	2.0909	0.1	-0.2211
23110	12.711	2.	0.1	-0.37296
23111	12.802	2.0909	0.1	-0.28934
23112	12.527	2.	0.1	-0.50944
23113	12.619	2.0909	0.1	-0.37826
23114	12.343	2.	0.1	-0.70147
23115	12.435	2.0909	0.1	-0.51604
23116	12.16	2.	0.1	-1.1328
23117	12.252	2.0909	0.1	-0.67031
23118	11.976	2.	0.1	-1.746
23119	12.068	2.0909	0.1	-1.1638
23120	11.793	2.	0.1	-6.8045
23121	11.885	2.0909	0.1	-1.2302
23122	11.609	2.	0.1	-82.953
23123	11.701	2.0909	0.1	-7.481
23124	11.426	2.	0.1	-317.76
23125	11.517	2.0909	0.1	-110.1
23126	11.242	2.	0.1	-941.64
23127	11.334	2.0909	0.1	-377.9
23128	11.15	2.0909	0.1	-961.47
23129	11.058	2.	0.1	-1418.3
23130	23.725	2.1818	0.1	-159.43
23131	23.816	2.2727	0.1	-166.46
23132	23.908	2.1818	0.1	-169.51
23133	23.541	2.1818	0.1	-149.18
23134	23.633	2.2727	0.1	-156.05
23135	23.358	2.1818	0.1	-139.36
23136	23.449	2.2727	0.1	-145.93
23137	23.174	2.1818	0.1	-130.06
23138	23.266	2.2727	0.1	-136.35
23139	22.99	2.1818	0.1	-121.25
23140	23.082	2.2727	0.1	-127.23
23141	22.807	2.1818	0.1	-112.93
23142	22.899	2.2727	0.1	-118.6
23143	22.623	2.1818	0.1	-105.09
23144	22.715	2.2727	0.1	-110.46
23145	22.44	2.1818	0.1	-97.726
23146	22.531	2.2727	0.1	-102.78
23147	22.256	2.1818	0.1	-90.805
23148	22.348	2.2727	0.1	-95.546
23149	22.073	2.1818	0.1	-84.306
23150	22.164	2.2727	0.1	-88.748
23151	21.889	2.1818	0.1	-78.205
23152	21.981	2.2727	0.1	-82.359
23153	21.705	2.1818	0.1	-72.474
23154	21.797	2.2727	0.1	-76.353
23155	21.522	2.1818	0.1	-67.086
23156	21.614	2.2727	0.1	-70.704
23157	21.338	2.1818	0.1	-62.013
23158	21.43	2.2727	0.1	-65.387
23159	21.155	2.1818	0.1	-57.228
23160	21.246	2.2727	0.1	-60.374
23161	20.971	2.1818	0.1	-52.706
23162	21.063	2.2727	0.1	-55.64
23163	20.788	2.1818	0.1	-48.42
23164	20.879	2.2727	0.1	-51.158
23165	20.604	2.1818	0.1	-44.345
23166	20.696	2.2727	0.1	-46.904
23167	20.42	2.1818	0.1	-40.458
23168	20.512	2.2727	0.1	-42.852
23169	20.237	2.1818	0.1	-36.736
23170	20.329	2.2727	0.1	-38.98
23171	20.053	2.1818	0.1	-33.155
23172	20.145	2.2727	0.1	-35.264
23173	19.87	2.1818	0.1	-29.696
23174	19.962	2.2727	0.1	-31.682
23175	19.686	2.1818	0.1	-26.335
23176	19.778	2.2727	0.1	-28.213
23177	19.503	2.1818	0.1	-23.052
23178	19.594	2.2727	0.1	-24.834
23179	19.319	2.1818	0.1	-19.828
23180	19.411	2.2727	0.1	-21.524
23181	19.135	2.1818	0.1	-16.642
23182	19.227	2.2727	0.1	-18.264
23183	18.952	2.1818	0.1	-13.474
23184	19.044	2.2727	0.1	-15.032
23185	18.768	2.1818	0.1	-10.304
23186	18.86	2.2727	0.1	-11.808
23187	18.585	2.1818	0.1	-7.112
23188	18.677	2.2727	0.1	-8.5722
23189	18.401	2.1818	0.1	-3.8788
23190	18.493	2.2727	0.1	-5.3029
23191	18.218	2.1818	0.1	-0.59731
23192	18.309	2.2727	0.1	-1.9814
23193	18.034	2.1818	0.1	-1.4843e-002
23194	18.126	2.2727	0.1	-1.7481e-002
23195	17.85	2.1818	0.1	-1.2277e-002
23196	17.942	2.2727	0.1	-1.2717e-002
23197	17.667	2.1818	0.1	-1.1244e-002
23198	17.759	2.2727	0.1	-1.1524e-002
23199	17.483	2.1818	0.1	-1.0574e-002
23200	17.575	2.2727	0.1	-1.0792e-002
23201	17.3	2.1818	0.1	-1.0076e-002
23202	17.392	2.2727	0.1	-1.0243e-002
23203	17.116	2.1818	0.1	-9.6799e-003
23204	17.208	2.2727	0.1	-9.8003e-003
23205	16.933	2.1818	0.1	-9.3585e-003
23206	17.024	2.2727	0.1	-9.4228e-003
23207	16.749	2.1818	0.1	-9.1133e-003
23208	16.841	2.2727	0.1	-9.1059e-003
23209	16.565	2.1818	0.1	-8.9508e-003
23210	16.657	2.2727	0.1	-8.8586e-003
23211	16.382	2.1818	0.1	-8.885e-003
23212	16.474	2.2727	0.1	-8.6877e-003
23213	16.198	2.1818	0.1	-8.9378e-003
23214	16.29	2.2727	0.1	-8.6111e-003
23215	16.015	2.1818	0.1	-9.1379e-003
23216	16.107	2.2727	0.1	-8.6509e-003
23217	15.831	2.1818	0.1	-9.5252e-003
23218	15.923	2.2727	0.1	-8.8407e-003
23219	15.648	2.1818	0.1	-1.0162e-002
23220	15.739	2.2727	0.1	-9.219e-003
23221	15.464	2.1818	0.1	-1.1124e-002
23222	15.556	2.2727	0.1	-9.8636e-003
23223	15.281	2.1818	0.1	-1.248e-002
23224	15.372	2.2727	0.1	-1.0841e-002
23225	15.097	2.1818	0.1	-1.4355e-002
23226	15.189	2.2727	0.1	-1.221e-002
23227	14.913	2.1818	0.1	-1.694e-002
23228	15.005	2.2727	0.1	-1.4147e-002
23229	14.73	2.1818	0.1	-2.0443e-002
23230	14.822	2.2727	0.1	-1.6837e-002
23231	14.546	2.1818	0.1	-2.5136e-002
23232	14.638	2.2727	0.1	-2.0489e-002
23233	14.363	2.1818	0.1	-3.1386e-002
23234	14.454	2.2727	0.1	-2.541e-002
23235	14.179	2.1818	0.1	-3.9665e-002
23236	14.271	2.2727	0.1	-3.1989e-002
23237	13.996	2.1818	0.1	-5.0586e-002
23238	14.087	2.2727	0.1	-4.0737e-002
23239	13.812	2.1818	0.1	-6.4942e-002
23240	13.904	2.2727	0.1	-5.2318e-002
23241	13.628	2.1818	0.1	-8.3753e-002
23242	13.72	2.2727	0.1	-6.7585e-002
23243	13.445	2.1818	0.1	-0.10832
23244	13.537	2.2727	0.1	-8.764e-002
23245	13.261	2.1818	0.1	-0.14033
23246	13.353	2.2727	0.1	-0.11387
23247	13.078	2.1818	0.1	-0.1819
23248	13.169	2.2727	0.1	-0.14807
23249	12.894	2.1818	0.1	-0.2363
23250	12.986	2.2727	0.1	-0.19242
23251	12.711	2.1818	0.1	-0.30635
23252	12.802	2.2727	0.1	-0.25035
23253	12.527	2.1818	0.1	-0.40408
23254	12.619	2.2727	0.1	-0.32368
23255	12.343	2.1818	0.1	-0.51936
23256	12.435	2.2727	0.1	-0.42681
23257	12.16	2.1818	0.1	-0.7728
23258	12.252	2.2727	0.1	-0.53658
23259	11.976	2.1818	0.1	-0.83205
23260	12.068	2.2727	0.1	-0.80942
23261	11.793	2.1818	0.1	-2.5197
23262	11.885	2.2727	0.1	-0.77082
23263	11.609	2.1818	0.1	-4.1747
23264	11.701	2.2727	0.1	-2.468
23265	11.426	2.1818	0.1	-177.08
23266	11.517	2.2727	0.1	-59.589
23267	11.242	2.1818	0.1	-493.09
23268	11.334	2.2727	0.1	-290.71
23269	11.15	2.2727	0.1	-670.14
23270	11.058	2.1818	0.1	-861.29
23271	23.725	2.3636	0.1	-163.09
23272	23.816	2.4545	0.1	-169.65
23273	23.908	2.3636	0.1	-173.21
23274	23.541	2.3636	0.1	-152.81
23275	23.633	2.4545	0.1	-159.23
23276	23.358	2.3636	0.1	-142.93
23277	23.449	2.4545	0.1	-149.07
23278	23.174	2.3636	0.1	-133.53
23279	23.266	2.4545	0.1	-139.42
23280	22.99	2.3636	0.1	-124.6
23281	23.082	2.4545	0.1	-130.22
23282	22.807	2.3636	0.1	-116.15
23283	22.899	2.4545	0.1	-121.48
23284	22.623	2.3636	0.1	-108.16
23285	22.715	2.4545	0.1	-113.2
23286	22.44	2.3636	0.1	-100.62
23287	22.531	2.4545	0.1	-105.38
23288	22.256	2.3636	0.1	-93.511
23289	22.348	2.4545	0.1	-97.998
23290	22.073	2.3636	0.1	-86.824
23291	22.164	2.4545	0.1	-91.039
23292	21.889	2.3636	0.1	-80.531
23293	21.981	2.4545	0.1	-84.484
23294	21.705	2.3636	0.1	-74.609
23295	21.797	2.4545	0.1	-78.312
23296	21.522	2.3636	0.1	-69.033
23297	21.614	2.4545	0.1	-72.498
23298	21.338	2.3636	0.1	-63.777
23299	21.43	2.4545	0.1	-67.018
23300	21.155	2.3636	0.1	-58.815
23301	21.246	2.4545	0.1	-61.848
23302	20.971	2.3636	0.1	-54.122
23303	21.063	2.4545	0.1	-56.961
23304	20.788	2.3636	0.1	-49.672
23305	20.879	2.4545	0.1	-52.333
23306	20.604	2.3636	0.1	-45.441
23307	20.696	2.4545	0.1	-47.938
23308	20.42	2.3636	0.1	-41.405
23309	20.512	2.4545	0.1	-43.752
23310	20.237	2.3636	0.1	-37.539
23311	20.329	2.4545	0.1	-39.752
23312	20.053	2.3636	0.1	-33.822
23313	20.145	2.4545	0.1	-35.913
23314	19.87	2.3636	0.1	-30.23
23315	19.962	2.4545	0.1	-32.213
23316	19.686	2.3636	0.1	-26.742
23317	19.778	2.4545	0.1	-28.629
23318	19.503	2.3636	0.1	-23.335
23319	19.594	2.4545	0.1	-25.139
23320	19.319	2.3636	0.1	-19.989
23321	19.411	2.4545	0.1	-21.721
23322	19.135	2.3636	0.1	-16.683
23323	19.227	2.4545	0.1	-18.355
23324	18.952	2.3636	0.1	-13.395
23325	19.044	2.4545	0.1	-15.017
23326	18.768	2.3636	0.1	-10.104
23327	18.86	2.4545	0.1	-11.688
23328	18.585	2.3636	0.1	-6.7894
23329	18.677	2.4545	0.1	-8.3445
23330	18.401	2.3636	0.1	-3.4297
23331	18.493	2.4545	0.1	-4.9655
23332	18.218	2.3636	0.1	-8.7832e-002
23333	18.309	2.4545	0.1	-1.5301
23334	18.034	2.3636	0.1	-1.3249e-002
23335	18.126	2.4545	0.1	-1.4239e-002
23336	17.85	2.3636	0.1	-1.1805e-002
23337	17.942	2.4545	0.1	-1.2124e-002
23338	17.667	2.3636	0.1	-1.1024e-002
23339	17.759	2.4545	0.1	-1.128e-002
23340	17.483	2.3636	0.1	-1.0434e-002
23341	17.575	2.4545	0.1	-1.0653e-002
23342	17.3	2.3636	0.1	-9.9493e-003
23343	17.392	2.4545	0.1	-1.0131e-002
23344	17.116	2.3636	0.1	-9.5308e-003
23345	17.208	2.4545	0.1	-9.6783e-003
23346	16.933	2.3636	0.1	-9.1623e-003
23347	17.024	2.4545	0.1	-9.2668e-003
23348	16.749	2.3636	0.1	-8.8484e-003
23349	16.841	2.4545	0.1	-8.8967e-003
23350	16.565	2.3636	0.1	-8.5986e-003
23351	16.657	2.4545	0.1	-8.5779e-003
23352	16.382	2.3636	0.1	-8.4239e-003
23353	16.474	2.4545	0.1	-8.3181e-003
23354	16.198	2.3636	0.1	-8.343e-003
23355	16.29	2.4545	0.1	-8.1317e-003
23356	16.015	2.3636	0.1	-8.3833e-003
23357	16.107	2.4545	0.1	-8.0389e-003
23358	15.831	2.3636	0.1	-8.5777e-003
23359	15.923	2.4545	0.1	-8.0702e-003
23360	15.648	2.3636	0.1	-8.9812e-003
23361	15.739	2.4545	0.1	-8.2568e-003
23362	15.464	2.3636	0.1	-9.6636e-003
23363	15.556	2.4545	0.1	-8.6714e-003
23364	15.281	2.3636	0.1	-1.0683e-002
23365	15.372	2.4545	0.1	-9.3726e-003
23366	15.097	2.3636	0.1	-1.215e-002
23367	15.189	2.4545	0.1	-1.0409e-002
23368	14.913	2.3636	0.1	-1.4241e-002
23369	15.005	2.4545	0.1	-1.1945e-002
23370	14.73	2.3636	0.1	-1.7144e-002
23371	14.822	2.4545	0.1	-1.4152e-002
23372	14.546	2.3636	0.1	-2.1108e-002
23373	14.638	2.4545	0.1	-1.7223e-002
23374	14.363	2.3636	0.1	-2.6471e-002
23375	14.454	2.4545	0.1	-2.1443e-002
23376	14.179	2.3636	0.1	-3.3672e-002
23377	14.271	2.4545	0.1	-2.7185e-002
23378	13.996	2.3636	0.1	-4.3286e-002
23379	14.087	2.4545	0.1	-3.4939e-002
23380	13.812	2.3636	0.1	-5.6061e-002
23381	13.904	2.4545	0.1	-4.5352e-002
23382	13.628	2.3636	0.1	-7.2965e-002
23383	13.72	2.4545	0.1	-5.9275e-002
23384	13.445	2.3636	0.1	-9.5234e-002
23385	13.537	2.4545	0.1	-7.782e-002
23386	13.261	2.3636	0.1	-0.12445
23387	13.353	2.4545	0.1	-0.10242
23388	13.078	2.3636	0.1	-0.16258
23389	13.169	2.4545	0.1	-0.13493
23390	12.894	2.3636	0.1	-0.21221
23391	12.986	2.4545	0.1	-0.17771
23392	12.711	2.3636	0.1	-0.2762
23393	12.802	2.4545	0.1	-0.23383
23394	12.527	2.3636	0.1	-0.35967
23395	12.619	2.4545	0.1	-0.30662
23396	12.343	2.3636	0.1	-0.46613
23397	12.435	2.4545	0.1	-0.40195
23398	12.16	2.3636	0.1	-0.61428
23399	12.252	2.4545	0.1	-0.52443
23400	11.976	2.3636	0.1	-0.83973
23401	12.068	2.4545	0.1	-0.68924
23402	11.793	2.3636	0.1	-0.98254
23403	11.885	2.4545	0.1	-0.9632
23404	11.609	2.3636	0.1	-6.1357
23405	11.701	2.4545	0.1	-1.2868
23406	11.426	2.3636	0.1	-188.73
23407	11.517	2.4545	0.1	-85.899
23408	11.242	2.3636	0.1	-507.01
23409	11.334	2.4545	0.1	-325.15
23410	11.15	2.4545	0.1	-671.24
23411	11.058	2.3636	0.1	-855.07
23412	23.725	2.5455	0.1	-165.8
23413	23.816	2.6364	0.1	-171.91
23414	23.908	2.5455	0.1	-175.97
23415	23.541	2.5455	0.1	-155.5
23416	23.633	2.6364	0.1	-161.48
23417	23.358	2.5455	0.1	-145.58
23418	23.449	2.6364	0.1	-151.3
23419	23.174	2.5455	0.1	-136.12
23420	23.266	2.6364	0.1	-141.6
23421	22.99	2.5455	0.1	-127.11
23422	23.082	2.6364	0.1	-132.34
23423	22.807	2.5455	0.1	-118.55
23424	22.899	2.6364	0.1	-123.53
23425	22.623	2.5455	0.1	-110.45
23426	22.715	2.6364	0.1	-115.16
23427	22.44	2.5455	0.1	-102.78
23428	22.531	2.6364	0.1	-107.24
23429	22.256	2.5455	0.1	-95.547
23430	22.348	2.6364	0.1	-99.752
23431	22.073	2.5455	0.1	-88.722
23432	22.164	2.6364	0.1	-92.681
23433	21.889	2.5455	0.1	-82.288
23434	21.981	2.6364	0.1	-86.01
23435	21.705	2.5455	0.1	-76.225
23436	21.797	2.6364	0.1	-79.721
23437	21.522	2.5455	0.1	-70.509
23438	21.614	2.6364	0.1	-73.79
23439	21.338	2.5455	0.1	-65.116
23440	21.43	2.6364	0.1	-68.195
23441	21.155	2.5455	0.1	-60.022
23442	21.246	2.6364	0.1	-62.912
23443	20.971	2.5455	0.1	-55.2
23444	21.063	2.6364	0.1	-57.916
23445	20.788	2.5455	0.1	-50.627
23446	20.879	2.6364	0.1	-53.183
23447	20.604	2.5455	0.1	-46.278
23448	20.696	2.6364	0.1	-48.687
23449	20.42	2.5455	0.1	-42.129
23450	20.512	2.6364	0.1	-44.405
23451	20.237	2.5455	0.1	-38.155
23452	20.329	2.6364	0.1	-40.312
23453	20.053	2.5455	0.1	-34.333
23454	20.145	2.6364	0.1	-36.384
23455	19.87	2.5455	0.1	-30.641
23456	19.962	2.6364	0.1	-32.599
23457	19.686	2.5455	0.1	-27.055
23458	19.778	2.6364	0.1	-28.933
23459	19.503	2.5455	0.1	-23.554
23460	19.594	2.6364	0.1	-25.363
23461	19.319	2.5455	0.1	-20.116
23462	19.411	2.6364	0.1	-21.867
23463	19.135	2.5455	0.1	-16.718
23464	19.227	2.6364	0.1	-18.423
23465	18.952	2.5455	0.1	-13.338
23466	19.044	2.6364	0.1	-15.009
23467	18.768	2.5455	0.1	-9.9551
23468	18.86	2.6364	0.1	-11.603
23469	18.585	2.5455	0.1	-6.5465
23470	18.677	2.6364	0.1	-8.1819
23471	18.401	2.5455	0.1	-3.0898
23472	18.493	2.6364	0.1	-4.723
23473	18.218	2.5455	0.1	-1.9705e-002
23474	18.309	2.6364	0.1	-1.2043
23475	18.034	2.5455	0.1	-1.2455e-002
23476	18.126	2.6364	0.1	-1.29e-002
23477	17.85	2.5455	0.1	-1.153e-002
23478	17.942	2.6364	0.1	-1.1795e-002
23479	17.667	2.5455	0.1	-1.0884e-002
23480	17.759	2.6364	0.1	-1.1132e-002
23481	17.483	2.5455	0.1	-1.0334e-002
23482	17.575	2.6364	0.1	-1.0561e-002
23483	17.3	2.5455	0.1	-9.8487e-003
23484	17.392	2.6364	0.1	-1.0049e-002
23485	17.116	2.5455	0.1	-9.4068e-003
23486	17.208	2.6364	0.1	-9.5845e-003
23487	16.933	2.5455	0.1	-8.9974e-003
23488	17.024	2.6364	0.1	-9.1436e-003
23489	16.749	2.5455	0.1	-8.627e-003
23490	16.841	2.6364	0.1	-8.7317e-003
23491	16.565	2.5455	0.1	-8.3039e-003
23492	16.657	2.6364	0.1	-8.3573e-003
23493	16.382	2.5455	0.1	-8.0394e-003
23494	16.474	2.6364	0.1	-8.0284e-003
23495	16.198	2.5455	0.1	-7.8498e-003
23496	16.29	2.6364	0.1	-7.7578e-003
23497	16.015	2.5455	0.1	-7.759e-003
23498	16.107	2.6364	0.1	-7.5639e-003
23499	15.831	2.5455	0.1	-7.7963e-003
23500	15.923	2.6364	0.1	-7.473e-003
23501	15.648	2.5455	0.1	-8.0113e-003
23502	15.739	2.6364	0.1	-7.5134e-003
23503	15.464	2.5455	0.1	-8.4669e-003
23504	15.556	2.6364	0.1	-7.7527e-003
23505	15.281	2.5455	0.1	-9.2143e-003
23506	15.372	2.6364	0.1	-8.2438e-003
23507	15.097	2.5455	0.1	-1.0355e-002
23508	15.189	2.6364	0.1	-9.0294e-003
23509	14.913	2.5455	0.1	-1.2055e-002
23510	15.005	2.6364	0.1	-1.0264e-002
23511	14.73	2.5455	0.1	-1.449e-002
23512	14.822	2.6364	0.1	-1.2112e-002
23513	14.546	2.5455	0.1	-1.7897e-002
23514	14.638	2.6364	0.1	-1.4756e-002
23515	14.363	2.5455	0.1	-2.26e-002
23516	14.454	2.6364	0.1	-1.8474e-002
23517	14.179	2.5455	0.1	-2.9032e-002
23518	14.271	2.6364	0.1	-2.3633e-002
23519	13.996	2.5455	0.1	-3.7767e-002
23520	14.087	2.6364	0.1	-3.0725e-002
23521	13.812	2.5455	0.1	-4.9569e-002
23522	13.904	2.6364	0.1	-4.0415e-002
23523	13.628	2.5455	0.1	-6.5454e-002
23524	13.72	2.6364	0.1	-5.3598e-002
23525	13.445	2.5455	0.1	-8.6763e-002
23526	13.537	2.6364	0.1	-7.1483e-002
23527	13.261	2.5455	0.1	-0.11525
23528	13.353	2.6364	0.1	-9.5683e-002
23529	13.078	2.5455	0.1	-0.15323
23530	13.169	2.6364	0.1	-0.12836
23531	12.894	2.5455	0.1	-0.20366
23532	12.986	2.6364	0.1	-0.17241
23533	12.711	2.5455	0.1	-0.27025
23534	12.802	2.6364	0.1	-0.23156
23535	12.527	2.5455	0.1	-0.35741
23536	12.619	2.6364	0.1	-0.31048
23537	12.343	2.5455	0.1	-0.47262
23538	12.435	2.6364	0.1	-0.4145
23539	12.16	2.5455	0.1	-0.61768
23540	12.252	2.6364	0.1	-0.55166
23541	11.976	2.5455	0.1	-0.83797
23542	12.068	2.6364	0.1	-0.72239
23543	11.793	2.5455	0.1	-1.2158
23544	11.885	2.6364	0.1	-0.97008
23545	11.609	2.5455	0.1	-29.967
23546	11.701	2.6364	0.1	-1.6482
23547	11.426	2.5455	0.1	-236.29
23548	11.517	2.6364	0.1	-126.39
23549	11.242	2.5455	0.1	-504.88
23550	11.334	2.6364	0.1	-364.12
23551	11.15	2.6364	0.1	-636.29
23552	11.058	2.5455	0.1	-765.35
23553	23.725	2.7273	0.1	-167.6
23554	23.816	2.8182	0.1	-173.26
23555	23.908	2.7273	0.1	-177.79
23556	23.541	2.7273	0.1	-157.29
23557	23.633	2.8182	0.1	-162.83
23558	23.358	2.7273	0.1	-147.33
23559	23.449	2.8182	0.1	-152.62
23560	23.174	2.7273	0.1	-137.83
23561	23.266	2.8182	0.1	-142.9
23562	22.99	2.7273	0.1	-128.77
23563	23.082	2.8182	0.1	-133.6
23564	22.807	2.7273	0.1	-120.15
23565	22.899	2.8182	0.1	-124.75
23566	22.623	2.7273	0.1	-111.97
23567	22.715	2.8182	0.1	-116.33
23568	22.44	2.7273	0.1	-104.23
23569	22.531	2.8182	0.1	-108.36
23570	22.256	2.7273	0.1	-96.906
23571	22.348	2.8182	0.1	-100.81
23572	22.073	2.7273	0.1	-89.991
23573	22.164	2.8182	0.1	-93.668
23574	21.889	2.7273	0.1	-83.465
23575	21.981	2.8182	0.1	-86.929
23576	21.705	2.7273	0.1	-77.309
23577	21.797	2.8182	0.1	-80.569
23578	21.522	2.7273	0.1	-71.501
23579	21.614	2.8182	0.1	-74.569
23580	21.338	2.7273	0.1	-66.017
23581	21.43	2.8182	0.1	-68.906
23582	21.155	2.7273	0.1	-60.834
23583	21.246	2.8182	0.1	-63.555
23584	20.971	2.7273	0.1	-55.927
23585	21.063	2.8182	0.1	-58.494
23586	20.788	2.7273	0.1	-51.271
23587	20.879	2.8182	0.1	-53.698
23588	20.604	2.7273	0.1	-46.843
23589	20.696	2.8182	0.1	-49.142
23590	20.42	2.7273	0.1	-42.618
23591	20.512	2.8182	0.1	-44.801
23592	20.237	2.7273	0.1	-38.571
23593	20.329	2.8182	0.1	-40.652
23594	20.053	2.7273	0.1	-34.679
23595	20.145	2.8182	0.1	-36.671
23596	19.87	2.7273	0.1	-30.92
23597	19.962	2.8182	0.1	-32.834
23598	19.686	2.7273	0.1	-27.269
23599	19.778	2.8182	0.1	-29.118
23600	19.503	2.7273	0.1	-23.704
23601	19.594	2.8182	0.1	-25.499
23602	19.319	2.7273	0.1	-20.203
23603	19.411	2.8182	0.1	-21.956
23604	19.135	2.7273	0.1	-16.743
23605	19.227	2.8182	0.1	-18.466
23606	18.952	2.7273	0.1	-13.301
23607	19.044	2.8182	0.1	-15.006
23608	18.768	2.7273	0.1	-9.8562
23609	18.86	2.8182	0.1	-11.553
23610	18.585	2.7273	0.1	-6.384
23611	18.677	2.8182	0.1	-8.0843
23612	18.401	2.7273	0.1	-2.8616
23613	18.493	2.8182	0.1	-4.577
23614	18.218	2.7273	0.1	-1.4014e-002
23615	18.309	2.8182	0.1	-1.0071
23616	18.034	2.7273	0.1	-1.2049e-002
23617	18.126	2.8182	0.1	-1.2312e-002
23618	17.85	2.7273	0.1	-1.1375e-002
23619	17.942	2.8182	0.1	-1.1627e-002
23620	17.667	2.7273	0.1	-1.0798e-002
23621	17.759	2.8182	0.1	-1.1052e-002
23622	17.483	2.7273	0.1	-1.0267e-002
23623	17.575	2.8182	0.1	-1.0507e-002
23624	17.3	2.7273	0.1	-9.778e-003
23625	17.392	2.8182	0.1	-9.9991e-003
23626	17.116	2.7273	0.1	-9.3171e-003
23627	17.208	2.8182	0.1	-9.5244e-003
23628	16.933	2.7273	0.1	-8.877e-003
23629	17.024	2.8182	0.1	-9.0642e-003
23630	16.749	2.7273	0.1	-8.4654e-003
23631	16.841	2.8182	0.1	-8.6252e-003
23632	16.565	2.7273	0.1	-8.0908e-003
23633	16.657	2.8182	0.1	-8.2157e-003
23634	16.382	2.7273	0.1	-7.7627e-003
23635	16.474	2.8182	0.1	-7.8433e-003
23636	16.198	2.7273	0.1	-7.4965e-003
23637	16.29	2.8182	0.1	-7.5204e-003
23638	16.015	2.7273	0.1	-7.3135e-003
23639	16.107	2.8182	0.1	-7.2626e-003
23640	15.831	2.7273	0.1	-7.2397e-003
23641	15.923	2.8182	0.1	-7.0951e-003
23642	15.648	2.7273	0.1	-7.3218e-003
23643	15.739	2.8182	0.1	-7.0444e-003
23644	15.464	2.7273	0.1	-7.6187e-003
23645	15.556	2.8182	0.1	-7.1739e-003
23646	15.281	2.7273	0.1	-8.1763e-003
23647	15.372	2.8182	0.1	-7.5338e-003
23648	15.097	2.7273	0.1	-9.0911e-003
23649	15.189	2.8182	0.1	-8.1624e-003
23650	14.913	2.7273	0.1	-1.052e-002
23651	15.005	2.8182	0.1	-9.2116e-003
23652	14.73	2.7273	0.1	-1.2635e-002
23653	14.822	2.8182	0.1	-1.0838e-002
23654	14.546	2.7273	0.1	-1.5667e-002
23655	14.638	2.8182	0.1	-1.3222e-002
23656	14.363	2.7273	0.1	-1.9939e-002
23657	14.454	2.8182	0.1	-1.664e-002
23658	14.179	2.7273	0.1	-2.5883e-002
23659	14.271	2.8182	0.1	-2.1458e-002
23660	13.996	2.7273	0.1	-3.4093e-002
23661	14.087	2.8182	0.1	-2.8177e-002
23662	13.812	2.7273	0.1	-4.5374e-002
23663	13.904	2.8182	0.1	-3.7487e-002
23664	13.628	2.7273	0.1	-6.0826e-002
23665	13.72	2.8182	0.1	-5.0333e-002
23666	13.445	2.7273	0.1	-8.1948e-002
23667	13.537	2.8182	0.1	-6.8022e-002
23668	13.261	2.7273	0.1	-0.11078
23669	13.353	2.8182	0.1	-9.2349e-002
23670	13.078	2.7273	0.1	-0.15009
23671	13.169	2.8182	0.1	-0.12579
23672	12.894	2.7273	0.1	-0.20358
23673	12.986	2.8182	0.1	-0.17175
23674	12.711	2.7273	0.1	-0.27591
23675	12.802	2.8182	0.1	-0.23471
23676	12.527	2.7273	0.1	-0.37264
23677	12.619	2.8182	0.1	-0.32025
23678	12.343	2.7273	0.1	-0.49939
23679	12.435	2.8182	0.1	-0.4346
23680	12.16	2.7273	0.1	-0.66157
23681	12.252	2.8182	0.1	-0.58241
23682	11.976	2.7273	0.1	-0.84943
23683	12.068	2.8182	0.1	-0.76296
23684	11.793	2.7273	0.1	-1.1172
23685	11.885	2.8182	0.1	-0.95119
23686	11.609	2.7273	0.1	-60.177
23687	11.701	2.8182	0.1	-1.3836
23688	11.426	2.7273	0.1	-264.78
23689	11.517	2.8182	0.1	-153.99
23690	11.242	2.7273	0.1	-503.92
23691	11.334	2.8182	0.1	-380.9
23692	11.15	2.8182	0.1	-618.24
23693	11.058	2.7273	0.1	-717.06
23694	23.725	2.9091	0.1	-168.49
23695	23.816	3.	0.1	-173.71
23696	23.908	2.9091	0.1	-178.69
23697	23.541	2.9091	0.1	-158.17
23698	23.633	3.	0.1	-163.27
23699	23.358	2.9091	0.1	-148.2
23700	23.449	3.	0.1	-153.06
23701	23.174	2.9091	0.1	-138.68
23702	23.266	3.	0.1	-143.33
23703	22.99	2.9091	0.1	-129.6
23704	23.082	3.	0.1	-134.02
23705	22.807	2.9091	0.1	-120.95
23706	22.899	3.	0.1	-125.16
23707	22.623	2.9091	0.1	-112.73
23708	22.715	3.	0.1	-116.73
23709	22.44	2.9091	0.1	-104.95
23710	22.531	3.	0.1	-108.73
23711	22.256	2.9091	0.1	-97.586
23712	22.348	3.	0.1	-101.16
23713	22.073	2.9091	0.1	-90.626
23714	22.164	3.	0.1	-93.997
23715	21.889	2.9091	0.1	-84.055
23716	21.981	3.	0.1	-87.235
23717	21.705	2.9091	0.1	-77.853
23718	21.797	3.	0.1	-80.853
23719	21.522	2.9091	0.1	-71.998
23720	21.614	3.	0.1	-74.83
23721	21.338	2.9091	0.1	-66.469
23722	21.43	3.	0.1	-69.143
23723	21.155	2.9091	0.1	-61.242
23724	21.246	3.	0.1	-63.77
23725	20.971	2.9091	0.1	-56.292
23726	21.063	3.	0.1	-58.688
23727	20.788	2.9091	0.1	-51.596
23728	20.879	3.	0.1	-53.87
23729	20.604	2.9091	0.1	-47.128
23730	20.696	3.	0.1	-49.294
23731	20.42	2.9091	0.1	-42.864
23732	20.512	3.	0.1	-44.934
23733	20.237	2.9091	0.1	-38.781
23734	20.329	3.	0.1	-40.766
23735	20.053	2.9091	0.1	-34.854
23736	20.145	3.	0.1	-36.767
23737	19.87	2.9091	0.1	-31.06
23738	19.962	3.	0.1	-32.913
23739	19.686	2.9091	0.1	-27.377
23740	19.778	3.	0.1	-29.18
23741	19.503	2.9091	0.1	-23.78
23742	19.594	3.	0.1	-25.545
23743	19.319	2.9091	0.1	-20.247
23744	19.411	3.	0.1	-21.986
23745	19.135	2.9091	0.1	-16.756
23746	19.227	3.	0.1	-18.48
23747	18.952	2.9091	0.1	-13.284
23748	19.044	3.	0.1	-15.004
23749	18.768	2.9091	0.1	-9.8069
23750	18.86	3.	0.1	-11.536
23751	18.585	2.9091	0.1	-6.3026
23752	18.677	3.	0.1	-8.0517
23753	18.401	2.9091	0.1	-2.7469
23754	18.493	3.	0.1	-4.5282
23755	18.218	2.9091	0.1	-1.2578e-002
23756	18.309	3.	0.1	-0.94109
23757	18.034	2.9091	0.1	-1.1874e-002
23758	18.126	3.	0.1	-1.2142e-002
23759	17.85	2.9091	0.1	-1.1304e-002
23760	17.942	3.	0.1	-1.1575e-002
23761	17.667	2.9091	0.1	-1.0757e-002
23762	17.759	3.	0.1	-1.1026e-002
23763	17.483	2.9091	0.1	-1.0234e-002
23764	17.575	3.	0.1	-1.0489e-002
23765	17.3	2.9091	0.1	-9.7414e-003
23766	17.392	3.	0.1	-9.9817e-003
23767	17.116	2.9091	0.1	-9.2692e-003
23768	17.208	3.	0.1	-9.5037e-003
23769	16.933	2.9091	0.1	-8.8131e-003
23770	17.024	3.	0.1	-9.0366e-003
23771	16.749	2.9091	0.1	-8.3804e-003
23772	16.841	3.	0.1	-8.5885e-003
23773	16.565	2.9091	0.1	-7.9787e-003
23774	16.657	3.	0.1	-8.1671e-003
23775	16.382	2.9091	0.1	-7.6183e-003
23776	16.474	3.	0.1	-7.7793e-003
23777	16.198	2.9091	0.1	-7.3127e-003
23778	16.29	3.	0.1	-7.4389e-003
23779	16.015	2.9091	0.1	-7.0814e-003
23780	16.107	3.	0.1	-7.1596e-003
23781	15.831	2.9091	0.1	-6.9509e-003
23782	15.923	3.	0.1	-6.9657e-003
23783	15.648	2.9091	0.1	-6.9651e-003
23784	15.739	3.	0.1	-6.8841e-003
23785	15.464	2.9091	0.1	-7.1797e-003
23786	15.556	3.	0.1	-6.9764e-003
23787	15.281	2.9091	0.1	-7.6388e-003
23788	15.372	3.	0.1	-7.2917e-003
23789	15.097	2.9091	0.1	-8.4374e-003
23790	15.189	3.	0.1	-7.8667e-003
23791	14.913	2.9091	0.1	-9.7293e-003
23792	15.005	3.	0.1	-8.853e-003
23793	14.73	2.9091	0.1	-1.1683e-002
23794	14.822	3.	0.1	-1.0405e-002
23795	14.546	2.9091	0.1	-1.4526e-002
23796	14.638	3.	0.1	-1.2703e-002
23797	14.363	2.9091	0.1	-1.8584e-002
23798	14.454	3.	0.1	-1.602e-002
23799	14.179	2.9091	0.1	-2.4295e-002
23800	14.271	3.	0.1	-2.0726e-002
23801	13.996	2.9091	0.1	-3.2265e-002
23802	14.087	3.	0.1	-2.7326e-002
23803	13.812	2.9091	0.1	-4.333e-002
23804	13.904	3.	0.1	-3.6519e-002
23805	13.628	2.9091	0.1	-5.8651e-002
23806	13.72	3.	0.1	-4.9272e-002
23807	13.445	2.9091	0.1	-7.9837e-002
23808	13.537	3.	0.1	-6.6934e-002
23809	13.261	2.9091	0.1	-0.10912
23810	13.353	3.	0.1	-9.1372e-002
23811	13.078	2.9091	0.1	-0.14961
23812	13.169	3.	0.1	-0.12519
23813	12.894	2.9091	0.1	-0.20547
23814	12.986	3.	0.1	-0.17199
23815	12.711	2.9091	0.1	-0.28202
23816	12.802	3.	0.1	-0.23658
23817	12.527	2.9091	0.1	-0.3853
23818	12.619	3.	0.1	-0.32487
23819	12.343	2.9091	0.1	-0.52023
23820	12.435	3.	0.1	-0.44326
23821	12.16	2.9091	0.1	-0.68451
23822	12.252	3.	0.1	-0.59548
23823	11.976	2.9091	0.1	-0.85929
23824	12.068	3.	0.1	-0.77339
23825	11.793	2.9091	0.1	-0.98486
23826	11.885	3.	0.1	-0.94563
23827	11.609	2.9091	0.1	-76.986
23828	11.701	3.	0.1	-0.99692
23829	11.426	2.9091	0.1	-278.6
23830	11.517	3.	0.1	-163.33
23831	11.242	2.9091	0.1	-501.64
23832	11.334	3.	0.1	-386.04
23833	11.15	3.	0.1	-611.16
23834	11.058	2.9091	0.1	-692.05
23835	23.725	3.0909	0.1	-168.49
23836	23.816	3.1818	0.1	-173.26
23837	23.908	3.0909	0.1	-178.69
23838	23.541	3.0909	0.1	-158.17
23839	23.633	3.1818	0.1	-162.83
23840	23.358	3.0909	0.1	-148.2
23841	23.449	3.1818	0.1	-152.62
23842	23.174	3.0909	0.1	-138.68
23843	23.266	3.1818	0.1	-142.9
23844	22.99	3.0909	0.1	-129.6
23845	23.082	3.1818	0.1	-133.6
23846	22.807	3.0909	0.1	-120.95
23847	22.899	3.1818	0.1	-124.75
23848	22.623	3.0909	0.1	-112.73
23849	22.715	3.1818	0.1	-116.33
23850	22.44	3.0909	0.1	-104.95
23851	22.531	3.1818	0.1	-108.36
23852	22.256	3.0909	0.1	-97.586
23853	22.348	3.1818	0.1	-100.81
23854	22.073	3.0909	0.1	-90.626
23855	22.164	3.1818	0.1	-93.668
23856	21.889	3.0909	0.1	-84.055
23857	21.981	3.1818	0.1	-86.929
23858	21.705	3.0909	0.1	-77.853
23859	21.797	3.1818	0.1	-80.569
23860	21.522	3.0909	0.1	-71.998
23861	21.614	3.1818	0.1	-74.569
23862	21.338	3.0909	0.1	-66.469
23863	21.43	3.1818	0.1	-68.906
23864	21.155	3.0909	0.1	-61.242
23865	21.246	3.1818	0.1	-63.555
23866	20.971	3.0909	0.1	-56.292
23867	21.063	3.1818	0.1	-58.494
23868	20.788	3.0909	0.1	-51.596
23869	20.879	3.1818	0.1	-53.698
23870	20.604	3.0909	0.1	-47.128
23871	20.696	3.1818	0.1	-49.142
23872	20.42	3.0909	0.1	-42.864
23873	20.512	3.1818	0.1	-44.801
23874	20.237	3.0909	0.1	-38.781
23875	20.329	3.1818	0.1	-40.652
23876	20.053	3.0909	0.1	-34.854
23877	20.145	3.1818	0.1	-36.671
23878	19.87	3.0909	0.1	-31.06
23879	19.962	3.1818	0.1	-32.834
23880	19.686	3.0909	0.1	-27.377
23881	19.778	3.1818	0.1	-29.118
23882	19.503	3.0909	0.1	-23.78
23883	19.594	3.1818	0.1	-25.499
23884	19.319	3.0909	0.1	-20.247
23885	19.411	3.1818	0.1	-21.956
23886	19.135	3.0909	0.1	-16.756
23887	19.227	3.1818	0.1	-18.466
23888	18.952	3.0909	0.1	-13.284
23889	19.044	3.1818	0.1	-15.006
23890	18.768	3.0909	0.1	-9.8069
23891	18.86	3.1818	0.1	-11.553
23892	18.585	3.0909	0.1	-6.3026
23893	18.677	3.1818	0.1	-8.0843
23894	18.401	3.0909	0.1	-2.7469
23895	18.493	3.1818	0.1	-4.577
23896	18.218	3.0909	0.1	-1.2577e-002
23897	18.309	3.1818	0.1	-1.0072
23898	18.034	3.0909	0.1	-1.1874e-002
23899	18.126	3.1818	0.1	-1.2312e-002
23900	17.85	3.0909	0.1	-1.1305e-002
23901	17.942	3.1818	0.1	-1.1628e-002
23902	17.667	3.0909	0.1	-1.0757e-002
23903	17.759	3.1818	0.1	-1.1052e-002
23904	17.483	3.0909	0.1	-1.0233e-002
23905	17.575	3.1818	0.1	-1.0507e-002
23906	17.3	3.0909	0.1	-9.7408e-003
23907	17.392	3.1818	0.1	-9.9984e-003
23908	17.116	3.0909	0.1	-9.2695e-003
23909	17.208	3.1818	0.1	-9.5243e-003
23910	16.933	3.0909	0.1	-8.8133e-003
23911	17.024	3.1818	0.1	-9.064e-003
23912	16.749	3.0909	0.1	-8.3806e-003
23913	16.841	3.1818	0.1	-8.6254e-003
23914	16.565	3.0909	0.1	-7.9786e-003
23915	16.657	3.1818	0.1	-8.2155e-003
23916	16.382	3.0909	0.1	-7.6178e-003
23917	16.474	3.1818	0.1	-7.8429e-003
23918	16.198	3.0909	0.1	-7.3124e-003
23919	16.29	3.1818	0.1	-7.5202e-003
23920	16.015	3.0909	0.1	-7.0816e-003
23921	16.107	3.1818	0.1	-7.2623e-003
23922	15.831	3.0909	0.1	-6.9505e-003
23923	15.923	3.1818	0.1	-7.0951e-003
23924	15.648	3.0909	0.1	-6.9645e-003
23925	15.739	3.1818	0.1	-7.0439e-003
23926	15.464	3.0909	0.1	-7.1797e-003
23927	15.556	3.1818	0.1	-7.1745e-003
23928	15.281	3.0909	0.1	-7.639e-003
23929	15.372	3.1818	0.1	-7.5336e-003
23930	15.097	3.0909	0.1	-8.4371e-003
23931	15.189	3.1818	0.1	-8.1623e-003
23932	14.913	3.0909	0.1	-9.7288e-003
23933	15.005	3.1818	0.1	-9.2109e-003
23934	14.73	3.0909	0.1	-1.1682e-002
23935	14.822	3.1818	0.1	-1.0838e-002
23936	14.546	3.0909	0.1	-1.4526e-002
23937	14.638	3.1818	0.1	-1.3222e-002
23938	14.363	3.0909	0.1	-1.8584e-002
23939	14.454	3.1818	0.1	-1.664e-002
23940	14.179	3.0909	0.1	-2.4295e-002
23941	14.271	3.1818	0.1	-2.1458e-002
23942	13.996	3.0909	0.1	-3.2265e-002
23943	14.087	3.1818	0.1	-2.8178e-002
23944	13.812	3.0909	0.1	-4.333e-002
23945	13.904	3.1818	0.1	-3.7487e-002
23946	13.628	3.0909	0.1	-5.8651e-002
23947	13.72	3.1818	0.1	-5.0332e-002
23948	13.445	3.0909	0.1	-7.9837e-002
23949	13.537	3.1818	0.1	-6.8022e-002
23950	13.261	3.0909	0.1	-0.10912
23951	13.353	3.1818	0.1	-9.2349e-002
23952	13.078	3.0909	0.1	-0.14961
23953	13.169	3.1818	0.1	-0.12579
23954	12.894	3.0909	0.1	-0.20547
23955	12.986	3.1818	0.1	-0.17175
23956	12.711	3.0909	0.1	-0.28202
23957	12.802	3.1818	0.1	-0.23471
23958	12.527	3.0909	0.1	-0.3853
23959	12.619	3.1818	0.1	-0.32025
23960	12.343	3.0909	0.1	-0.52023
23961	12.435	3.1818	0.1	-0.4346
23962	12.16	3.0909	0.1	-0.68451
23963	12.252	3.1818	0.1	-0.58241
23964	11.976	3.0909	0.1	-0.85929
23965	12.068	3.1818	0.1	-0.76296
23966	11.793	3.0909	0.1	-0.98486
23967	11.885	3.1818	0.1	-0.95119
23968	11.609	3.0909	0.1	-76.986
23969	11.701	3.1818	0.1	-1.3836
23970	11.426	3.0909	0.1	-278.6
23971	11.517	3.1818	0.1	-153.99
23972	11.242	3.0909	0.1	-501.64
23973	11.334	3.1818	0.1	-380.9
23974	11.15	3.1818	0.1	-618.24
23975	11.058	3.0909	0.1	-692.05
23976	23.725	3.2727	0.1	-167.6
23977	23.816	3.3636	0.1	-171.91
23978	23.908	3.2727	0.1	-177.79
23979	23.541	3.2727	0.1	-157.29
23980	23.633	3.3636	0.1	-161.48
23981	23.358	3.2727	0.1	-147.33
23982	23.449	3.3636	0.1	-151.3
23983	23.174	3.2727	0.1	-137.83
23984	23.266	3.3636	0.1	-141.6
23985	22.99	3.2727	0.1	-128.77
23986	23.082	3.3636	0.1	-132.34
23987	22.807	3.2727	0.1	-120.15
23988	22.899	3.3636	0.1	-123.53
23989	22.623	3.2727	0.1	-111.97
23990	22.715	3.3636	0.1	-115.16
23991	22.44	3.2727	0.1	-104.23
23992	22.531	3.3636	0.1	-107.24
23993	22.256	3.2727	0.1	-96.906
23994	22.348	3.3636	0.1	-99.752
23995	22.073	3.2727	0.1	-89.991
23996	22.164	3.3636	0.1	-92.681
23997	21.889	3.2727	0.1	-83.465
23998	21.981	3.3636	0.1	-86.01
23999	21.705	3.2727	0.1	-77.309
24000	21.797	3.3636	0.1	-79.721
24001	21.522	3.2727	0.1	-71.501
24002	21.614	3.3636	0.1	-73.79
24003	21.338	3.2727	0.1	-66.017
24004	21.43	3.3636	0.1	-68.195
24005	21.155	3.2727	0.1	-60.834
24006	21.246	3.3636	0.1	-62.912
24007	20.971	3.2727	0.1	-55.927
24008	21.063	3.3636	0.1	-57.916
24009	20.788	3.2727	0.1	-51.271
24010	20.879	3.3636	0.1	-53.183
24011	20.604	3.2727	0.1	-46.843
24012	20.696	3.3636	0.1	-48.687
24013	20.42	3.2727	0.1	-42.618
24014	20.512	3.3636	0.1	-44.405
24015	20.237	3.2727	0.1	-38.571
24016	20.329	3.3636	0.1	-40.312
24017	20.053	3.2727	0.1	-34.679
24018	20.145	3.3636	0.1	-36.384
24019	19.87	3.2727	0.1	-30.92
24020	19.962	3.3636	0.1	-32.599
24021	19.686	3.2727	0.1	-27.269
24022	19.778	3.3636	0.1	-28.933
24023	19.503	3.2727	0.1	-23.704
24024	19.594	3.3636	0.1	-25.363
24025	19.319	3.2727	0.1	-20.203
24026	19.411	3.3636	0.1	-21.867
24027	19.135	3.2727	0.1	-16.743
24028	19.227	3.3636	0.1	-18.423
24029	18.952	3.2727	0.1	-13.302
24030	19.044	3.3636	0.1	-15.009
24031	18.768	3.2727	0.1	-9.8562
24032	18.86	3.3636	0.1	-11.603
24033	18.585	3.2727	0.1	-6.384
24034	18.677	3.3636	0.1	-8.1819
24035	18.401	3.2727	0.1	-2.8616
24036	18.493	3.3636	0.1	-4.7231
24037	18.218	3.2727	0.1	-1.4014e-002
24038	18.309	3.3636	0.1	-1.2043
24039	18.034	3.2727	0.1	-1.205e-002
24040	18.126	3.3636	0.1	-1.2901e-002
24041	17.85	3.2727	0.1	-1.1375e-002
24042	17.942	3.3636	0.1	-1.1795e-002
24043	17.667	3.2727	0.1	-1.0798e-002
24044	17.759	3.3636	0.1	-1.1132e-002
24045	17.483	3.2727	0.1	-1.0267e-002
24046	17.575	3.3636	0.1	-1.056e-002
24047	17.3	3.2727	0.1	-9.7778e-003
24048	17.392	3.3636	0.1	-1.0049e-002
24049	17.116	3.2727	0.1	-9.3166e-003
24050	17.208	3.3636	0.1	-9.584e-003
24051	16.933	3.2727	0.1	-8.8769e-003
24052	17.024	3.3636	0.1	-9.1435e-003
24053	16.749	3.2727	0.1	-8.4653e-003
24054	16.841	3.3636	0.1	-8.7322e-003
24055	16.565	3.2727	0.1	-8.0902e-003
24056	16.657	3.3636	0.1	-8.357e-003
24057	16.382	3.2727	0.1	-7.7627e-003
24058	16.474	3.3636	0.1	-8.028e-003
24059	16.198	3.2727	0.1	-7.4963e-003
24060	16.29	3.3636	0.1	-7.7582e-003
24061	16.015	3.2727	0.1	-7.3131e-003
24062	16.107	3.3636	0.1	-7.5636e-003
24063	15.831	3.2727	0.1	-7.2396e-003
24064	15.923	3.3636	0.1	-7.4727e-003
24065	15.648	3.2727	0.1	-7.3225e-003
24066	15.739	3.3636	0.1	-7.5132e-003
24067	15.464	3.2727	0.1	-7.6191e-003
24068	15.556	3.3636	0.1	-7.7532e-003
24069	15.281	3.2727	0.1	-8.1758e-003
24070	15.372	3.3636	0.1	-8.2437e-003
24071	15.097	3.2727	0.1	-9.0906e-003
24072	15.189	3.3636	0.1	-9.0293e-003
24073	14.913	3.2727	0.1	-1.052e-002
24074	15.005	3.3636	0.1	-1.0264e-002
24075	14.73	3.2727	0.1	-1.2635e-002
24076	14.822	3.3636	0.1	-1.2111e-002
24077	14.546	3.2727	0.1	-1.5667e-002
24078	14.638	3.3636	0.1	-1.4756e-002
24079	14.363	3.2727	0.1	-1.9939e-002
24080	14.454	3.3636	0.1	-1.8474e-002
24081	14.179	3.2727	0.1	-2.5884e-002
24082	14.271	3.3636	0.1	-2.3633e-002
24083	13.996	3.2727	0.1	-3.4093e-002
24084	14.087	3.3636	0.1	-3.0725e-002
24085	13.812	3.2727	0.1	-4.5374e-002
24086	13.904	3.3636	0.1	-4.0415e-002
24087	13.628	3.2727	0.1	-6.0826e-002
24088	13.72	3.3636	0.1	-5.3598e-002
24089	13.445	3.2727	0.1	-8.1947e-002
24090	13.537	3.3636	0.1	-7.1483e-002
24091	13.261	3.2727	0.1	-0.11078
24092	13.353	3.3636	0.1	-9.5682e-002
24093	13.078	3.2727	0.1	-0.15009
24094	13.169	3.3636	0.1	-0.12836
24095	12.894	3.2727	0.1	-0.20358
24096	12.986	3.3636	0.1	-0.17241
24097	12.711	3.2727	0.1	-0.27591
24098	12.802	3.3636	0.1	-0.23156
24099	12.527	3.2727	0.1	-0.37264
24100	12.619	3.3636	0.1	-0.31048
24101	12.343	3.2727	0.1	-0.49939
24102	12.435	3.3636	0.1	-0.4145
24103	12.16	3.2727	0.1	-0.66157
24104	12.252	3.3636	0.1	-0.55166
24105	11.976	3.2727	0.1	-0.84943
24106	12.068	3.3636	0.1	-0.72239
24107	11.793	3.2727	0.1	-1.1172
24108	11.885	3.3636	0.1	-0.97008
24109	11.609	3.2727	0.1	-60.177
24110	11.701	3.3636	0.1	-1.6482
24111	11.426	3.2727	0.1	-264.78
24112	11.517	3.3636	0.1	-126.39
24113	11.242	3.2727	0.1	-503.92
24114	11.334	3.3636	0.1	-364.12
24115	11.15	3.3636	0.1	-636.29
24116	11.058	3.2727	0.1	-717.06
24117	23.725	3.4545	0.1	-165.8
24118	23.816	3.5455	0.1	-169.65
24119	23.908	3.4545	0.1	-175.97
24120	23.541	3.4545	0.1	-155.5
24121	23.633	3.5455	0.1	-159.23
24122	23.358	3.4545	0.1	-145.58
24123	23.449	3.5455	0.1	-149.07
24124	23.174	3.4545	0.1	-136.12
24125	23.266	3.5455	0.1	-139.42
24126	22.99	3.4545	0.1	-127.11
24127	23.082	3.5455	0.1	-130.22
24128	22.807	3.4545	0.1	-118.55
24129	22.899	3.5455	0.1	-121.48
24130	22.623	3.4545	0.1	-110.45
24131	22.715	3.5455	0.1	-113.2
24132	22.44	3.4545	0.1	-102.78
24133	22.531	3.5455	0.1	-105.38
24134	22.256	3.4545	0.1	-95.547
24135	22.348	3.5455	0.1	-97.998
24136	22.073	3.4545	0.1	-88.722
24137	22.164	3.5455	0.1	-91.039
24138	21.889	3.4545	0.1	-82.288
24139	21.981	3.5455	0.1	-84.484
24140	21.705	3.4545	0.1	-76.225
24141	21.797	3.5455	0.1	-78.312
24142	21.522	3.4545	0.1	-70.509
24143	21.614	3.5455	0.1	-72.498
24144	21.338	3.4545	0.1	-65.116
24145	21.43	3.5455	0.1	-67.018
24146	21.155	3.4545	0.1	-60.022
24147	21.246	3.5455	0.1	-61.848
24148	20.971	3.4545	0.1	-55.2
24149	21.063	3.5455	0.1	-56.961
24150	20.788	3.4545	0.1	-50.627
24151	20.879	3.5455	0.1	-52.333
24152	20.604	3.4545	0.1	-46.278
24153	20.696	3.5455	0.1	-47.938
24154	20.42	3.4545	0.1	-42.129
24155	20.512	3.5455	0.1	-43.752
24156	20.237	3.4545	0.1	-38.155
24157	20.329	3.5455	0.1	-39.752
24158	20.053	3.4545	0.1	-34.333
24159	20.145	3.5455	0.1	-35.913
24160	19.87	3.4545	0.1	-30.641
24161	19.962	3.5455	0.1	-32.213
24162	19.686	3.4545	0.1	-27.055
24163	19.778	3.5455	0.1	-28.629
24164	19.503	3.4545	0.1	-23.554
24165	19.594	3.5455	0.1	-25.139
24166	19.319	3.4545	0.1	-20.116
24167	19.411	3.5455	0.1	-21.721
24168	19.135	3.4545	0.1	-16.718
24169	19.227	3.5455	0.1	-18.355
24170	18.952	3.4545	0.1	-13.338
24171	19.044	3.5455	0.1	-15.017
24172	18.768	3.4545	0.1	-9.9551
24173	18.86	3.5455	0.1	-11.688
24174	18.585	3.4545	0.1	-6.5465
24175	18.677	3.5455	0.1	-8.3445
24176	18.401	3.4545	0.1	-3.0898
24177	18.493	3.5455	0.1	-4.9655
24178	18.218	3.4545	0.1	-1.9706e-002
24179	18.309	3.5455	0.1	-1.5302
24180	18.034	3.4545	0.1	-1.2456e-002
24181	18.126	3.5455	0.1	-1.4239e-002
24182	17.85	3.4545	0.1	-1.153e-002
24183	17.942	3.5455	0.1	-1.2124e-002
24184	17.667	3.4545	0.1	-1.0883e-002
24185	17.759	3.5455	0.1	-1.1279e-002
24186	17.483	3.4545	0.1	-1.0334e-002
24187	17.575	3.5455	0.1	-1.0652e-002
24188	17.3	3.4545	0.1	-9.8489e-003
24189	17.392	3.5455	0.1	-1.013e-002
24190	17.116	3.4545	0.1	-9.4067e-003
24191	17.208	3.5455	0.1	-9.6786e-003
24192	16.933	3.4545	0.1	-8.9979e-003
24193	17.024	3.5455	0.1	-9.267e-003
24194	16.749	3.4545	0.1	-8.6273e-003
24195	16.841	3.5455	0.1	-8.8975e-003
24196	16.565	3.4545	0.1	-8.3037e-003
24197	16.657	3.5455	0.1	-8.5781e-003
24198	16.382	3.4545	0.1	-8.0395e-003
24199	16.474	3.5455	0.1	-8.3178e-003
24200	16.198	3.4545	0.1	-7.8502e-003
24201	16.29	3.5455	0.1	-8.1316e-003
24202	16.015	3.4545	0.1	-7.7589e-003
24203	16.107	3.5455	0.1	-8.0397e-003
24204	15.831	3.4545	0.1	-7.7959e-003
24205	15.923	3.5455	0.1	-8.0693e-003
24206	15.648	3.4545	0.1	-8.011e-003
24207	15.739	3.5455	0.1	-8.257e-003
24208	15.464	3.4545	0.1	-8.467e-003
24209	15.556	3.5455	0.1	-8.6712e-003
24210	15.281	3.4545	0.1	-9.2146e-003
24211	15.372	3.5455	0.1	-9.3728e-003
24212	15.097	3.4545	0.1	-1.0356e-002
24213	15.189	3.5455	0.1	-1.0409e-002
24214	14.913	3.4545	0.1	-1.2055e-002
24215	15.005	3.5455	0.1	-1.1946e-002
24216	14.73	3.4545	0.1	-1.449e-002
24217	14.822	3.5455	0.1	-1.4152e-002
24218	14.546	3.4545	0.1	-1.7897e-002
24219	14.638	3.5455	0.1	-1.7222e-002
24220	14.363	3.4545	0.1	-2.26e-002
24221	14.454	3.5455	0.1	-2.1443e-002
24222	14.179	3.4545	0.1	-2.9032e-002
24223	14.271	3.5455	0.1	-2.7185e-002
24224	13.996	3.4545	0.1	-3.7767e-002
24225	14.087	3.5455	0.1	-3.4939e-002
24226	13.812	3.4545	0.1	-4.9568e-002
24227	13.904	3.5455	0.1	-4.5352e-002
24228	13.628	3.4545	0.1	-6.5454e-002
24229	13.72	3.5455	0.1	-5.9275e-002
24230	13.445	3.4545	0.1	-8.6763e-002
24231	13.537	3.5455	0.1	-7.782e-002
24232	13.261	3.4545	0.1	-0.11525
24233	13.353	3.5455	0.1	-0.10242
24234	13.078	3.4545	0.1	-0.15323
24235	13.169	3.5455	0.1	-0.13493
24236	12.894	3.4545	0.1	-0.20366
24237	12.986	3.5455	0.1	-0.17771
24238	12.711	3.4545	0.1	-0.27025
24239	12.802	3.5455	0.1	-0.23383
24240	12.527	3.4545	0.1	-0.35741
24241	12.619	3.5455	0.1	-0.30662
24242	12.343	3.4545	0.1	-0.47262
24243	12.435	3.5455	0.1	-0.40195
24244	12.16	3.4545	0.1	-0.61768
24245	12.252	3.5455	0.1	-0.52443
24246	11.976	3.4545	0.1	-0.83797
24247	12.068	3.5455	0.1	-0.68923
24248	11.793	3.4545	0.1	-1.2158
24249	11.885	3.5455	0.1	-0.9632
24250	11.609	3.4545	0.1	-29.967
24251	11.701	3.5455	0.1	-1.2868
24252	11.426	3.4545	0.1	-236.29
24253	11.517	3.5455	0.1	-85.899
24254	11.242	3.4545	0.1	-504.88
24255	11.334	3.5455	0.1	-325.15
24256	11.15	3.5455	0.1	-671.24
24257	11.058	3.4545	0.1	-765.35
24258	23.725	3.6364	0.1	-163.09
24259	23.816	3.7273	0.1	-166.46
24260	23.908	3.6364	0.1	-173.21
24261	23.541	3.6364	0.1	-152.81
24262	23.633	3.7273	0.1	-156.05
24263	23.358	3.6364	0.1	-142.93
24264	23.449	3.7273	0.1	-145.93
24265	23.174	3.6364	0.1	-133.53
24266	23.266	3.7273	0.1	-136.35
24267	22.99	3.6364	0.1	-124.6
24268	23.082	3.7273	0.1	-127.23
24269	22.807	3.6364	0.1	-116.15
24270	22.899	3.7273	0.1	-118.6
24271	22.623	3.6364	0.1	-108.16
24272	22.715	3.7273	0.1	-110.46
24273	22.44	3.6364	0.1	-100.62
24274	22.531	3.7273	0.1	-102.78
24275	22.256	3.6364	0.1	-93.511
24276	22.348	3.7273	0.1	-95.546
24277	22.073	3.6364	0.1	-86.824
24278	22.164	3.7273	0.1	-88.748
24279	21.889	3.6364	0.1	-80.531
24280	21.981	3.7273	0.1	-82.359
24281	21.705	3.6364	0.1	-74.609
24282	21.797	3.7273	0.1	-76.353
24283	21.522	3.6364	0.1	-69.033
24284	21.614	3.7273	0.1	-70.704
24285	21.338	3.6364	0.1	-63.777
24286	21.43	3.7273	0.1	-65.387
24287	21.155	3.6364	0.1	-58.815
24288	21.246	3.7273	0.1	-60.374
24289	20.971	3.6364	0.1	-54.122
24290	21.063	3.7273	0.1	-55.64
24291	20.788	3.6364	0.1	-49.672
24292	20.879	3.7273	0.1	-51.158
24293	20.604	3.6364	0.1	-45.441
24294	20.696	3.7273	0.1	-46.904
24295	20.42	3.6364	0.1	-41.405
24296	20.512	3.7273	0.1	-42.852
24297	20.237	3.6364	0.1	-37.539
24298	20.329	3.7273	0.1	-38.98
24299	20.053	3.6364	0.1	-33.822
24300	20.145	3.7273	0.1	-35.264
24301	19.87	3.6364	0.1	-30.23
24302	19.962	3.7273	0.1	-31.682
24303	19.686	3.6364	0.1	-26.742
24304	19.778	3.7273	0.1	-28.213
24305	19.503	3.6364	0.1	-23.335
24306	19.594	3.7273	0.1	-24.834
24307	19.319	3.6364	0.1	-19.989
24308	19.411	3.7273	0.1	-21.524
24309	19.135	3.6364	0.1	-16.683
24310	19.227	3.7273	0.1	-18.264
24311	18.952	3.6364	0.1	-13.395
24312	19.044	3.7273	0.1	-15.032
24313	18.768	3.6364	0.1	-10.104
24314	18.86	3.7273	0.1	-11.808
24315	18.585	3.6364	0.1	-6.7894
24316	18.677	3.7273	0.1	-8.5722
24317	18.401	3.6364	0.1	-3.4298
24318	18.493	3.7273	0.1	-5.303
24319	18.218	3.6364	0.1	-8.7855e-002
24320	18.309	3.7273	0.1	-1.9814
24321	18.034	3.6364	0.1	-1.3249e-002
24322	18.126	3.7273	0.1	-1.7481e-002
24323	17.85	3.6364	0.1	-1.1805e-002
24324	17.942	3.7273	0.1	-1.2717e-002
24325	17.667	3.6364	0.1	-1.1024e-002
24326	17.759	3.7273	0.1	-1.1525e-002
24327	17.483	3.6364	0.1	-1.0434e-002
24328	17.575	3.7273	0.1	-1.0792e-002
24329	17.3	3.6364	0.1	-9.9491e-003
24330	17.392	3.7273	0.1	-1.0242e-002
24331	17.116	3.6364	0.1	-9.5313e-003
24332	17.208	3.7273	0.1	-9.8003e-003
24333	16.933	3.6364	0.1	-9.1628e-003
24334	17.024	3.7273	0.1	-9.4231e-003
24335	16.749	3.6364	0.1	-8.849e-003
24336	16.841	3.7273	0.1	-9.1064e-003
24337	16.565	3.6364	0.1	-8.5987e-003
24338	16.657	3.7273	0.1	-8.8581e-003
24339	16.382	3.6364	0.1	-8.4234e-003
24340	16.474	3.7273	0.1	-8.6877e-003
24341	16.198	3.6364	0.1	-8.3432e-003
24342	16.29	3.7273	0.1	-8.6109e-003
24343	16.015	3.6364	0.1	-8.3832e-003
24344	16.107	3.7273	0.1	-8.6512e-003
24345	15.831	3.6364	0.1	-8.5773e-003
24346	15.923	3.7273	0.1	-8.8403e-003
24347	15.648	3.6364	0.1	-8.9815e-003
24348	15.739	3.7273	0.1	-9.219e-003
24349	15.464	3.6364	0.1	-9.6634e-003
24350	15.556	3.7273	0.1	-9.8632e-003
24351	15.281	3.6364	0.1	-1.0682e-002
24352	15.372	3.7273	0.1	-1.0841e-002
24353	15.097	3.6364	0.1	-1.215e-002
24354	15.189	3.7273	0.1	-1.221e-002
24355	14.913	3.6364	0.1	-1.4241e-002
24356	15.005	3.7273	0.1	-1.4147e-002
24357	14.73	3.6364	0.1	-1.7143e-002
24358	14.822	3.7273	0.1	-1.6837e-002
24359	14.546	3.6364	0.1	-2.1108e-002
24360	14.638	3.7273	0.1	-2.0489e-002
24361	14.363	3.6364	0.1	-2.6471e-002
24362	14.454	3.7273	0.1	-2.5409e-002
24363	14.179	3.6364	0.1	-3.3672e-002
24364	14.271	3.7273	0.1	-3.1988e-002
24365	13.996	3.6364	0.1	-4.3286e-002
24366	14.087	3.7273	0.1	-4.0737e-002
24367	13.812	3.6364	0.1	-5.606e-002
24368	13.904	3.7273	0.1	-5.2317e-002
24369	13.628	3.6364	0.1	-7.2965e-002
24370	13.72	3.7273	0.1	-6.7585e-002
24371	13.445	3.6364	0.1	-9.5234e-002
24372	13.537	3.7273	0.1	-8.764e-002
24373	13.261	3.6364	0.1	-0.12444
24374	13.353	3.7273	0.1	-0.11387
24375	13.078	3.6364	0.1	-0.16258
24376	13.169	3.7273	0.1	-0.14807
24377	12.894	3.6364	0.1	-0.21221
24378	12.986	3.7273	0.1	-0.19242
24379	12.711	3.6364	0.1	-0.2762
24380	12.802	3.7273	0.1	-0.25035
24381	12.527	3.6364	0.1	-0.35967
24382	12.619	3.7273	0.1	-0.32368
24383	12.343	3.6364	0.1	-0.46613
24384	12.435	3.7273	0.1	-0.4268
24385	12.16	3.6364	0.1	-0.61428
24386	12.252	3.7273	0.1	-0.53658
24387	11.976	3.6364	0.1	-0.83973
24388	12.068	3.7273	0.1	-0.80942
24389	11.793	3.6364	0.1	-0.98254
24390	11.885	3.7273	0.1	-0.77082
24391	11.609	3.6364	0.1	-6.1357
24392	11.701	3.7273	0.1	-2.468
24393	11.426	3.6364	0.1	-188.73
24394	11.517	3.7273	0.1	-59.589
24395	11.242	3.6364	0.1	-507.01
24396	11.334	3.7273	0.1	-290.7
24397	11.15	3.7273	0.1	-670.14
24398	11.058	3.6364	0.1	-855.07
24399	23.725	3.8182	0.1	-159.43
24400	23.816	3.9091	0.1	-162.3
24401	23.908	3.8182	0.1	-169.51
24402	23.541	3.8182	0.1	-149.18
24403	23.633	3.9091	0.1	-151.91
24404	23.358	3.8182	0.1	-139.36
24405	23.449	3.9091	0.1	-141.85
24406	23.174	3.8182	0.1	-130.06
24407	23.266	3.9091	0.1	-132.36
24408	22.99	3.8182	0.1	-121.25
24409	23.082	3.9091	0.1	-123.36
24410	22.807	3.8182	0.1	-112.93
24411	22.899	3.9091	0.1	-114.89
24412	22.623	3.8182	0.1	-105.09
24413	22.715	3.9091	0.1	-106.91
24414	22.44	3.8182	0.1	-97.726
24415	22.531	3.9091	0.1	-99.423
24416	22.256	3.8182	0.1	-90.805
24417	22.348	3.9091	0.1	-92.4
24418	22.073	3.8182	0.1	-84.306
24419	22.164	3.9091	0.1	-85.816
24420	21.889	3.8182	0.1	-78.205
24421	21.981	3.9091	0.1	-79.645
24422	21.705	3.8182	0.1	-72.474
24423	21.797	3.9091	0.1	-73.858
24424	21.522	3.8182	0.1	-67.086
24425	21.614	3.9091	0.1	-68.425
24426	21.338	3.8182	0.1	-62.013
24427	21.43	3.9091	0.1	-63.318
24428	21.155	3.8182	0.1	-57.228
24429	21.246	3.9091	0.1	-58.509
24430	20.971	3.8182	0.1	-52.706
24431	21.063	3.9091	0.1	-53.97
24432	20.788	3.8182	0.1	-48.42
24433	20.879	3.9091	0.1	-49.676
24434	20.604	3.8182	0.1	-44.345
24435	20.696	3.9091	0.1	-45.601
24436	20.42	3.8182	0.1	-40.458
24437	20.512	3.9091	0.1	-41.72
24438	20.237	3.8182	0.1	-36.736
24439	20.329	3.9091	0.1	-38.011
24440	20.053	3.8182	0.1	-33.156
24441	20.145	3.9091	0.1	-34.452
24442	19.87	3.8182	0.1	-29.696
24443	19.962	3.9091	0.1	-31.02
24444	19.686	3.8182	0.1	-26.335
24445	19.778	3.9091	0.1	-27.694
24446	19.503	3.8182	0.1	-23.052
24447	19.594	3.9091	0.1	-24.455
24448	19.319	3.8182	0.1	-19.828
24449	19.411	3.9091	0.1	-21.282
24450	19.135	3.8182	0.1	-16.642
24451	19.227	3.9091	0.1	-18.156
24452	18.952	3.8182	0.1	-13.474
24453	19.044	3.9091	0.1	-15.057
24454	18.768	3.8182	0.1	-10.304
24455	18.86	3.9091	0.1	-11.967
24456	18.585	3.8182	0.1	-7.1121
24457	18.677	3.9091	0.1	-8.8653
24458	18.401	3.8182	0.1	-3.8789
24459	18.493	3.9091	0.1	-5.7338
24460	18.218	3.8182	0.1	-0.59737
24461	18.309	3.9091	0.1	-2.5544
24462	18.034	3.8182	0.1	-1.4843e-002
24463	18.126	3.9091	0.1	-2.9146e-002
24464	17.85	3.8182	0.1	-1.2277e-002
24465	17.942	3.9091	0.1	-1.3822e-002
24466	17.667	3.8182	0.1	-1.1244e-002
24467	17.759	3.9091	0.1	-1.193e-002
24468	17.483	3.8182	0.1	-1.0574e-002
24469	17.575	3.9091	0.1	-1.0999e-002
24470	17.3	3.8182	0.1	-1.0076e-002
24471	17.392	3.9091	0.1	-1.0387e-002
24472	17.116	3.8182	0.1	-9.6796e-003
24473	17.208	3.9091	0.1	-9.9421e-003
24474	16.933	3.8182	0.1	-9.3588e-003
24475	17.024	3.9091	0.1	-9.5974e-003
24476	16.749	3.8182	0.1	-9.1126e-003
24477	16.841	3.9091	0.1	-9.3389e-003
24478	16.565	3.8182	0.1	-8.9501e-003
24479	16.657	3.9091	0.1	-9.1721e-003
24480	16.382	3.8182	0.1	-8.8852e-003
24481	16.474	3.9091	0.1	-9.1044e-003
24482	16.198	3.8182	0.1	-8.9376e-003
24483	16.29	3.9091	0.1	-9.1551e-003
24484	16.015	3.8182	0.1	-9.1379e-003
24485	16.107	3.9091	0.1	-9.3488e-003
24486	15.831	3.8182	0.1	-9.5253e-003
24487	15.923	3.9091	0.1	-9.725e-003
24488	15.648	3.8182	0.1	-1.0161e-002
24489	15.739	3.9091	0.1	-1.0327e-002
24490	15.464	3.8182	0.1	-1.1123e-002
24491	15.556	3.9091	0.1	-1.1241e-002
24492	15.281	3.8182	0.1	-1.248e-002
24493	15.372	3.9091	0.1	-1.2544e-002
24494	15.097	3.8182	0.1	-1.4355e-002
24495	15.189	3.9091	0.1	-1.4307e-002
24496	14.913	3.8182	0.1	-1.694e-002
24497	15.005	3.9091	0.1	-1.6723e-002
24498	14.73	3.8182	0.1	-2.0443e-002
24499	14.822	3.9091	0.1	-1.9998e-002
24500	14.546	3.8182	0.1	-2.5135e-002
24501	14.638	3.9091	0.1	-2.4368e-002
24502	14.363	3.8182	0.1	-3.1385e-002
24503	14.454	3.9091	0.1	-3.0172e-002
24504	14.179	3.8182	0.1	-3.9665e-002
24505	14.271	3.9091	0.1	-3.7846e-002
24506	13.996	3.8182	0.1	-5.0586e-002
24507	14.087	3.9091	0.1	-4.7955e-002
24508	13.812	3.8182	0.1	-6.4942e-002
24509	13.904	3.9091	0.1	-6.1236e-002
24510	13.628	3.8182	0.1	-8.3754e-002
24511	13.72	3.9091	0.1	-7.8645e-002
24512	13.445	3.8182	0.1	-0.10832
24513	13.537	3.9091	0.1	-0.10143
24514	13.261	3.8182	0.1	-0.14033
24515	13.353	3.9091	0.1	-0.13119
24516	13.078	3.8182	0.1	-0.1819
24517	13.169	3.9091	0.1	-0.17015
24518	12.894	3.8182	0.1	-0.23629
24519	12.986	3.9091	0.1	-0.2211
24520	12.711	3.8182	0.1	-0.30635
24521	12.802	3.9091	0.1	-0.28934
24522	12.527	3.8182	0.1	-0.40408
24523	12.619	3.9091	0.1	-0.37826
24524	12.343	3.8182	0.1	-0.51936
24525	12.435	3.9091	0.1	-0.51604
24526	12.16	3.8182	0.1	-0.7728
24527	12.252	3.9091	0.1	-0.67031
24528	11.976	3.8182	0.1	-0.83205
24529	12.068	3.9091	0.1	-1.1638
24530	11.793	3.8182	0.1	-2.5197
24531	11.885	3.9091	0.1	-1.2302
24532	11.609	3.8182	0.1	-4.1746
24533	11.701	3.9091	0.1	-7.481
24534	11.426	3.8182	0.1	-177.08
24535	11.517	3.9091	0.1	-110.1
24536	11.242	3.8182	0.1	-493.09
24537	11.334	3.9091	0.1	-377.9
24538	11.15	3.9091	0.1	-961.47
24539	11.058	3.8182	0.1	-861.29
24540	23.725	4.	0.1	-154.79
24541	23.816	4.0909	0.1	-157.13
24542	23.908	4.	0.1	-164.8
24543	23.541	4.	0.1	-144.59
24544	23.633	4.0909	0.1	-146.77
24545	23.358	4.	0.1	-134.86
24546	23.449	4.0909	0.1	-136.79
24547	23.174	4.	0.1	-125.67
24548	23.266	4.0909	0.1	-127.42
24549	22.99	4.	0.1	-117.02
24550	23.082	4.0909	0.1	-118.59
24551	22.807	4.	0.1	-108.89
24552	22.899	4.0909	0.1	-110.31
24553	22.623	4.	0.1	-101.26
24554	22.715	4.0909	0.1	-102.57
24555	22.44	4.	0.1	-94.119
24556	22.531	4.0909	0.1	-95.327
24557	22.256	4.	0.1	-87.436
24558	22.348	4.0909	0.1	-88.569
24559	22.073	4.	0.1	-81.181
24560	22.164	4.0909	0.1	-82.258
24561	21.889	4.	0.1	-75.325
24562	21.981	4.0909	0.1	-76.363
24563	21.705	4.	0.1	-69.837
24564	21.797	4.0909	0.1	-70.848
24565	21.522	4.	0.1	-64.687
24566	21.614	4.0909	0.1	-65.683
24567	21.338	4.	0.1	-59.844
24568	21.43	4.0909	0.1	-60.835
24569	21.155	4.	0.1	-55.282
24570	21.246	4.0909	0.1	-56.275
24571	20.971	4.	0.1	-50.972
24572	21.063	4.0909	0.1	-51.975
24573	20.788	4.	0.1	-46.889
24574	20.879	4.0909	0.1	-47.908
24575	20.604	4.	0.1	-43.008
24576	20.696	4.0909	0.1	-44.049
24577	20.42	4.	0.1	-39.305
24578	20.512	4.0909	0.1	-40.375
24579	20.237	4.	0.1	-35.759
24580	20.329	4.0909	0.1	-36.863
24581	20.053	4.	0.1	-32.347
24582	20.145	4.0909	0.1	-33.49
24583	19.87	4.	0.1	-29.049
24584	19.962	4.0909	0.1	-30.238
24585	19.686	4.	0.1	-25.845
24586	19.778	4.0909	0.1	-27.085
24587	19.503	4.	0.1	-22.715
24588	19.594	4.0909	0.1	-24.013
24589	19.319	4.	0.1	-19.64
24590	19.411	4.0909	0.1	-21.004
24591	19.135	4.	0.1	-16.6
24592	19.227	4.0909	0.1	-18.038
24593	18.952	4.	0.1	-13.579
24594	19.044	4.0909	0.1	-15.098
24595	18.768	4.	0.1	-10.556
24596	18.86	4.0909	0.1	-12.166
24597	18.585	4.	0.1	-7.5138
24598	18.677	4.0909	0.1	-9.2243
24599	18.401	4.	0.1	-4.4342
24600	18.493	4.0909	0.1	-6.2562
24601	18.218	4.	0.1	-1.3048
24602	18.309	4.0909	0.1	-3.245
24603	18.034	4.	0.1	-1.8609e-002
24604	18.126	4.0909	0.1	-0.24218
24605	17.85	4.	0.1	-1.312e-002
24606	17.942	4.0909	0.1	-1.6136e-002
24607	17.667	4.	0.1	-1.1595e-002
24608	17.759	4.0909	0.1	-1.2634e-002
24609	17.483	4.	0.1	-1.077e-002
24610	17.575	4.0909	0.1	-1.1317e-002
24611	17.3	4.	0.1	-1.0227e-002
24612	17.392	4.0909	0.1	-1.0576e-002
24613	17.116	4.	0.1	-9.8408e-003
24614	17.208	4.0909	0.1	-1.01e-002
24615	16.933	4.	0.1	-9.5642e-003
24616	17.024	4.0909	0.1	-9.7756e-003
24617	16.749	4.	0.1	-9.3907e-003
24618	16.841	4.0909	0.1	-9.5719e-003
24619	16.565	4.	0.1	-9.3249e-003
24620	16.657	4.0909	0.1	-9.4882e-003
24621	16.382	4.	0.1	-9.38e-003
24622	16.474	4.0909	0.1	-9.5285e-003
24623	16.198	4.	0.1	-9.5806e-003
24624	16.29	4.0909	0.1	-9.7155e-003
24625	16.015	4.	0.1	-9.961e-003
24626	16.107	4.0909	0.1	-1.0075e-002
24627	15.831	4.	0.1	-1.0565e-002
24628	15.923	4.0909	0.1	-1.0651e-002
24629	15.648	4.	0.1	-1.1463e-002
24630	15.739	4.0909	0.1	-1.1494e-002
24631	15.464	4.	0.1	-1.274e-002
24632	15.556	4.0909	0.1	-1.27e-002
24633	15.281	4.	0.1	-1.4478e-002
24634	15.372	4.0909	0.1	-1.4355e-002
24635	15.097	4.	0.1	-1.682e-002
24636	15.189	4.0909	0.1	-1.6549e-002
24637	14.913	4.	0.1	-1.9976e-002
24638	15.005	4.0909	0.1	-1.9495e-002
24639	14.73	4.	0.1	-2.4185e-002
24640	14.822	4.0909	0.1	-2.3427e-002
24641	14.546	4.	0.1	-2.9758e-002
24642	14.638	4.0909	0.1	-2.8621e-002
24643	14.363	4.	0.1	-3.7111e-002
24644	14.454	4.0909	0.1	-3.547e-002
24645	14.179	4.	0.1	-4.6787e-002
24646	14.271	4.0909	0.1	-4.4483e-002
24647	13.996	4.	0.1	-5.9497e-002
24648	14.087	4.0909	0.1	-5.6335e-002
24649	13.812	4.	0.1	-7.6171e-002
24650	13.904	4.0909	0.1	-7.1918e-002
24651	13.628	4.	0.1	-9.8038e-002
24652	13.72	4.0909	0.1	-9.2424e-002
24653	13.445	4.	0.1	-0.12672
24654	13.537	4.0909	0.1	-0.11947
24655	13.261	4.	0.1	-0.16448
24656	13.353	4.0909	0.1	-0.15526
24657	13.078	4.	0.1	-0.21439
24658	13.169	4.0909	0.1	-0.20305
24659	12.894	4.	0.1	-0.28169
24660	12.986	4.0909	0.1	-0.26761
24661	12.711	4.	0.1	-0.37296
24662	12.802	4.0909	0.1	-0.3579
24663	12.527	4.	0.1	-0.50944
24664	12.619	4.0909	0.1	-0.48629
24665	12.343	4.	0.1	-0.70147
24666	12.435	4.0909	0.1	-0.69751
24667	12.16	4.	0.1	-1.1328
24668	12.252	4.0909	0.1	-1.0334
24669	11.976	4.	0.1	-1.7459
24670	12.068	4.0909	0.1	-1.9693
24671	11.793	4.	0.1	-6.8045
24672	11.885	4.0909	0.1	-4.9748
24673	11.609	4.	0.1	-82.952
24674	11.701	4.0909	0.1	-60.738
24675	11.426	4.	0.1	-317.76
24676	11.517	4.0909	0.1	-247.04
24677	11.242	4.	0.1	-941.64
24678	11.334	4.0909	0.1	-659.97
24679	11.15	4.0909	0.1	-1767.8
24680	11.058	4.	0.1	-1418.3
24681	23.725	4.1818	0.1	-149.12
24682	23.816	4.2727	0.1	-150.9
24683	23.908	4.1818	0.1	-159.05
24684	23.541	4.1818	0.1	-138.98
24685	23.633	4.2727	0.1	-140.57
24686	23.358	4.1818	0.1	-129.37
24687	23.449	4.2727	0.1	-130.71
24688	23.174	4.1818	0.1	-120.35
24689	23.266	4.2727	0.1	-121.5
24690	22.99	4.1818	0.1	-111.9
24691	23.082	4.2727	0.1	-112.89
24692	22.807	4.1818	0.1	-104.01
24693	22.899	4.2727	0.1	-104.87
24694	22.623	4.1818	0.1	-96.655
24695	22.715	4.2727	0.1	-97.416
24696	22.44	4.1818	0.1	-89.802
24697	22.531	4.2727	0.1	-90.496
24698	22.256	4.1818	0.1	-83.419
24699	22.348	4.2727	0.1	-84.07
24700	22.073	4.1818	0.1	-77.469
24701	22.164	4.2727	0.1	-78.097
24702	21.889	4.1818	0.1	-71.916
24703	21.981	4.2727	0.1	-72.538
24704	21.705	4.1818	0.1	-66.725
24705	21.797	4.2727	0.1	-67.354
24706	21.522	4.1818	0.1	-61.863
24707	21.614	4.2727	0.1	-62.509
24708	21.338	4.1818	0.1	-57.298
24709	21.43	4.2727	0.1	-57.969
24710	21.155	4.1818	0.1	-53.002
24711	21.246	4.2727	0.1	-53.703
24712	20.971	4.1818	0.1	-48.945
24713	21.063	4.2727	0.1	-49.683
24714	20.788	4.1818	0.1	-45.103
24715	20.879	4.2727	0.1	-45.882
24716	20.604	4.1818	0.1	-41.451
24717	20.696	4.2727	0.1	-42.276
24718	20.42	4.1818	0.1	-37.966
24719	20.512	4.2727	0.1	-38.841
24720	20.237	4.1818	0.1	-34.627
24721	20.329	4.2727	0.1	-35.556
24722	20.053	4.1818	0.1	-31.414
24723	20.145	4.2727	0.1	-32.4
24724	19.87	4.1818	0.1	-28.306
24725	19.962	4.2727	0.1	-29.355
24726	19.686	4.1818	0.1	-25.286
24727	19.778	4.2727	0.1	-26.402
24728	19.503	4.1818	0.1	-22.334
24729	19.594	4.2727	0.1	-23.522
24730	19.319	4.1818	0.1	-19.432
24731	19.411	4.2727	0.1	-20.7
24732	19.135	4.1818	0.1	-16.565
24733	19.227	4.2727	0.1	-17.918
24734	18.952	4.1818	0.1	-13.714
24735	19.044	4.2727	0.1	-15.159
24736	18.768	4.1818	0.1	-10.862
24737	18.86	4.2727	0.1	-12.409
24738	18.585	4.1818	0.1	-7.9942
24739	18.677	4.2727	0.1	-9.6507
24740	18.401	4.1818	0.1	-5.0928
24741	18.493	4.2727	0.1	-6.8689
24742	18.218	4.1818	0.1	-2.1448
24743	18.309	4.2727	0.1	-4.0489
24744	18.034	4.1818	0.1	-3.2747e-002
24745	18.126	4.2727	0.1	-1.1856
24746	17.85	4.1818	0.1	-1.4788e-002
24747	17.942	4.2727	0.1	-2.2491e-002
24748	17.667	4.1818	0.1	-1.2192e-002
24749	17.759	4.2727	0.1	-1.3989e-002
24750	17.483	4.1818	0.1	-1.1056e-002
24751	17.575	4.2727	0.1	-1.1848e-002
24752	17.3	4.1818	0.1	-1.0408e-002
24753	17.392	4.2727	0.1	-1.0842e-002
24754	17.116	4.1818	0.1	-1.0006e-002
24755	17.208	4.2727	0.1	-1.0276e-002
24756	16.933	4.1818	0.1	-9.7626e-003
24757	17.024	4.2727	0.1	-9.9453e-003
24758	16.749	4.1818	0.1	-9.6553e-003
24759	16.841	4.2727	0.1	-9.7823e-003
24760	16.565	4.1818	0.1	-9.6844e-003
24761	16.657	4.2727	0.1	-9.7737e-003
24762	16.382	4.1818	0.1	-9.8643e-003
24763	16.474	4.2727	0.1	-9.9197e-003
24764	16.198	4.1818	0.1	-1.0219e-002
24765	16.29	4.2727	0.1	-1.024e-002
24766	16.015	4.1818	0.1	-1.0785e-002
24767	16.107	4.2727	0.1	-1.0765e-002
24768	15.831	4.1818	0.1	-1.1613e-002
24769	15.923	4.2727	0.1	-1.1541e-002
24770	15.648	4.1818	0.1	-1.2782e-002
24771	15.739	4.2727	0.1	-1.2625e-002
24772	15.464	4.1818	0.1	-1.4388e-002
24773	15.556	4.2727	0.1	-1.4123e-002
24774	15.281	4.1818	0.1	-1.6528e-002
24775	15.372	4.2727	0.1	-1.6135e-002
24776	15.097	4.1818	0.1	-1.9364e-002
24777	15.189	4.2727	0.1	-1.8767e-002
24778	14.913	4.1818	0.1	-2.3138e-002
24779	15.005	4.2727	0.1	-2.226e-002
24780	14.73	4.1818	0.1	-2.8126e-002
24781	14.822	4.2727	0.1	-2.6884e-002
24782	14.546	4.1818	0.1	-3.4696e-002
24783	14.638	4.2727	0.1	-3.2969e-002
24784	14.363	4.1818	0.1	-4.3345e-002
24785	14.454	4.2727	0.1	-4.0988e-002
24786	14.179	4.1818	0.1	-5.473e-002
24787	14.271	4.2727	0.1	-5.1562e-002
24788	13.996	4.1818	0.1	-6.9745e-002
24789	14.087	4.2727	0.1	-6.5544e-002
24790	13.812	4.1818	0.1	-8.9579e-002
24791	13.904	4.2727	0.1	-8.4092e-002
24792	13.628	4.1818	0.1	-0.11588
24793	13.72	4.2727	0.1	-0.10882
24794	13.445	4.1818	0.1	-0.15095
24795	13.537	4.2727	0.1	-0.142
24796	13.261	4.1818	0.1	-0.19819
24797	13.353	4.2727	0.1	-0.187
24798	13.078	4.1818	0.1	-0.26283
24799	13.169	4.2727	0.1	-0.24903
24800	12.894	4.1818	0.1	-0.35395
24801	12.986	4.2727	0.1	-0.33667
24802	12.711	4.1818	0.1	-0.48746
24803	12.802	4.2727	0.1	-0.46622
24804	12.527	4.1818	0.1	-0.70195
24805	12.619	4.2727	0.1	-0.66929
24806	12.343	4.1818	0.1	-1.0811
24807	12.435	4.2727	0.1	-1.0349
24808	12.16	4.1818	0.1	-1.9845
24809	12.252	4.2727	0.1	-1.8144
24810	11.976	4.1818	0.1	-5.4776
24811	12.068	4.2727	0.1	-4.6743
24812	11.793	4.1818	0.1	-52.662
24813	11.885	4.2727	0.1	-35.035
24814	11.609	4.1818	0.1	-218.27
24815	11.701	4.2727	0.1	-161.
24816	11.426	4.1818	0.1	-587.48
24817	11.517	4.2727	0.1	-397.7
24818	11.242	4.1818	0.1	-1500.9
24819	11.334	4.2727	0.1	-900.97
24820	11.15	4.2727	0.1	-2088.1
24821	11.058	4.1818	0.1	-2484.1
24822	23.725	4.3636	0.1	-142.36
24823	23.816	4.4545	0.1	-143.53
24824	23.908	4.3636	0.1	-152.19
24825	23.541	4.3636	0.1	-132.31
24826	23.633	4.4545	0.1	-133.25
24827	23.358	4.3636	0.1	-122.85
24828	23.449	4.4545	0.1	-123.53
24829	23.174	4.3636	0.1	-114.05
24830	23.266	4.4545	0.1	-114.55
24831	22.99	4.3636	0.1	-105.87
24832	23.082	4.4545	0.1	-106.22
24833	22.807	4.3636	0.1	-98.296
24834	22.899	4.4545	0.1	-98.543
24835	22.623	4.3636	0.1	-91.283
24836	22.715	4.4545	0.1	-91.467
24837	22.44	4.3636	0.1	-84.792
24838	22.531	4.4545	0.1	-84.947
24839	22.256	4.3636	0.1	-78.779
24840	22.348	4.4545	0.1	-78.93
24841	22.073	4.3636	0.1	-73.199
24842	22.164	4.4545	0.1	-73.366
24843	21.889	4.3636	0.1	-68.01
24844	21.981	4.4545	0.1	-68.209
24845	21.705	4.3636	0.1	-63.172
24846	21.797	4.4545	0.1	-63.415
24847	21.522	4.3636	0.1	-58.65
24848	21.614	4.4545	0.1	-58.943
24849	21.338	4.3636	0.1	-54.41
24850	21.43	4.4545	0.1	-54.76
24851	21.155	4.3636	0.1	-50.422
24852	21.246	4.4545	0.1	-50.832
24853	20.971	4.3636	0.1	-46.657
24854	21.063	4.4545	0.1	-47.132
24855	20.788	4.3636	0.1	-43.092
24856	20.879	4.4545	0.1	-43.633
24857	20.604	4.3636	0.1	-39.702
24858	20.696	4.4545	0.1	-40.312
24859	20.42	4.3636	0.1	-36.466
24860	20.512	4.4545	0.1	-37.147
24861	20.237	4.3636	0.1	-33.364
24862	20.329	4.4545	0.1	-34.117
24863	20.053	4.3636	0.1	-30.376
24864	20.145	4.4545	0.1	-31.205
24865	19.87	4.3636	0.1	-27.484
24866	19.962	4.4545	0.1	-28.392
24867	19.686	4.3636	0.1	-24.672
24868	19.778	4.4545	0.1	-25.661
24869	19.503	4.3636	0.1	-21.921
24870	19.594	4.4545	0.1	-22.997
24871	19.319	4.3636	0.1	-19.217
24872	19.411	4.4545	0.1	-20.384
24873	19.135	4.3636	0.1	-16.543
24874	19.227	4.4545	0.1	-17.806
24875	18.952	4.3636	0.1	-13.885
24876	19.044	4.4545	0.1	-15.25
24877	18.768	4.3636	0.1	-11.227
24878	18.86	4.4545	0.1	-12.702
24879	18.585	4.3636	0.1	-8.5536
24880	18.677	4.4545	0.1	-10.147
24881	18.401	4.3636	0.1	-5.8518
24882	18.493	4.4545	0.1	-7.571
24883	18.218	4.3636	0.1	-3.1084
24884	18.309	4.4545	0.1	-4.9623
24885	18.034	4.3636	0.1	-0.36722
24886	18.126	4.4545	0.1	-2.3105
24887	17.85	4.3636	0.1	-1.887e-002
24888	17.942	4.4545	0.1	-6.735e-002
24889	17.667	4.3636	0.1	-1.3324e-002
24890	17.759	4.4545	0.1	-1.7157e-002
24891	17.483	4.3636	0.1	-1.1525e-002
24892	17.575	4.4545	0.1	-1.2855e-002
24893	17.3	4.3636	0.1	-1.065e-002
24894	17.392	4.4545	0.1	-1.127e-002
24895	17.116	4.3636	0.1	-1.0175e-002
24896	17.208	4.4545	0.1	-1.0499e-002
24897	16.933	4.3636	0.1	-9.9349e-003
24898	17.024	4.4545	0.1	-1.0104e-002
24899	16.749	4.3636	0.1	-9.8787e-003
24900	16.841	4.4545	0.1	-9.9516e-003
24901	16.565	4.3636	0.1	-9.9946e-003
24902	16.657	4.4545	0.1	-9.9998e-003
24903	16.382	4.3636	0.1	-1.029e-002
24904	16.474	4.4545	0.1	-1.0238e-002
24905	16.198	4.3636	0.1	-1.079e-002
24906	16.29	4.4545	0.1	-1.0679e-002
24907	16.015	4.3636	0.1	-1.1535e-002
24908	16.107	4.4545	0.1	-1.1357e-002
24909	15.831	4.3636	0.1	-1.258e-002
24910	15.923	4.4545	0.1	-1.2318e-002
24911	15.648	4.3636	0.1	-1.4011e-002
24912	15.739	4.4545	0.1	-1.3626e-002
24913	15.464	4.3636	0.1	-1.5936e-002
24914	15.556	4.4545	0.1	-1.5395e-002
24915	15.281	4.3636	0.1	-1.847e-002
24916	15.372	4.4545	0.1	-1.7739e-002
24917	15.097	4.3636	0.1	-2.1797e-002
24918	15.189	4.4545	0.1	-2.0786e-002
24919	14.913	4.3636	0.1	-2.6195e-002
24920	15.005	4.4545	0.1	-2.4805e-002
24921	14.73	4.3636	0.1	-3.1993e-002
24922	14.822	4.4545	0.1	-3.0113e-002
24923	14.546	4.3636	0.1	-3.9637e-002
24924	14.638	4.4545	0.1	-3.7112e-002
24925	14.363	4.3636	0.1	-4.9741e-002
24926	14.454	4.4545	0.1	-4.638e-002
24927	14.179	4.3636	0.1	-6.3145e-002
24928	14.271	4.4545	0.1	-5.8715e-002
24929	13.996	4.3636	0.1	-8.1017e-002
24930	14.087	4.4545	0.1	-7.5233e-002
24931	13.812	4.3636	0.1	-0.10499
24932	13.904	4.4545	0.1	-9.7524e-002
24933	13.628	4.3636	0.1	-0.13744
24934	13.72	4.4545	0.1	-0.1279
24935	13.445	4.3636	0.1	-0.18185
24936	13.537	4.4545	0.1	-0.16982
24937	13.261	4.3636	0.1	-0.2437
24938	13.353	4.4545	0.1	-0.22865
24939	13.078	4.3636	0.1	-0.33209
24940	13.169	4.4545	0.1	-0.31333
24941	12.894	4.3636	0.1	-0.46385
24942	12.986	4.4545	0.1	-0.43984
24943	12.711	4.3636	0.1	-0.67318
24944	12.802	4.4545	0.1	-0.6408
24945	12.527	4.3636	0.1	-1.0476
24946	12.619	4.4545	0.1	-0.99263
24947	12.343	4.3636	0.1	-1.86
24948	12.435	4.4545	0.1	-1.7378
24949	12.16	4.3636	0.1	-4.7163
24950	12.252	4.4545	0.1	-4.0511
24951	11.976	4.3636	0.1	-31.266
24952	12.068	4.4545	0.1	-21.498
24953	11.793	4.3636	0.1	-135.94
24954	11.885	4.4545	0.1	-96.115
24955	11.609	4.3636	0.1	-331.86
24956	11.701	4.4545	0.1	-237.19
24957	11.426	4.3636	0.1	-695.77
24958	11.517	4.4545	0.1	-480.58
24959	11.242	4.3636	0.1	-1435.5
24960	11.334	4.4545	0.1	-909.4
24961	11.15	4.4545	0.1	-1762.9
24962	11.058	4.3636	0.1	-1595.8
24963	23.725	4.5455	0.1	-134.43
24964	23.816	4.6364	0.1	-134.91
24965	23.908	4.5455	0.1	-144.14
24966	23.541	4.5455	0.1	-124.49
24967	23.633	4.6364	0.1	-124.72
24968	23.358	4.5455	0.1	-115.25
24969	23.449	4.6364	0.1	-115.2
24970	23.174	4.5455	0.1	-106.74
24971	23.266	4.6364	0.1	-106.52
24972	22.99	4.5455	0.1	-98.918
24973	23.082	4.6364	0.1	-98.577
24974	22.807	4.5455	0.1	-91.743
24975	22.899	4.6364	0.1	-91.338
24976	22.623	4.5455	0.1	-85.163
24977	22.715	4.6364	0.1	-84.739
24978	22.44	4.5455	0.1	-79.118
24979	22.531	4.6364	0.1	-78.713
24980	22.256	4.5455	0.1	-73.553
24981	22.348	4.6364	0.1	-73.192
24982	22.073	4.5455	0.1	-68.414
24983	22.164	4.6364	0.1	-68.115
24984	21.889	4.5455	0.1	-63.653
24985	21.981	4.6364	0.1	-63.429
24986	21.705	4.5455	0.1	-59.225
24987	21.797	4.6364	0.1	-59.084
24988	21.522	4.5455	0.1	-55.093
24989	21.614	4.6364	0.1	-55.039
24990	21.338	4.5455	0.1	-51.223
24991	21.43	4.6364	0.1	-51.259
24992	21.155	4.5455	0.1	-47.583
24993	21.246	4.6364	0.1	-47.71
24994	20.971	4.5455	0.1	-44.148
24995	21.063	4.6364	0.1	-44.366
24996	20.788	4.5455	0.1	-40.893
24997	20.879	4.6364	0.1	-41.202
24998	20.604	4.5455	0.1	-37.795
24999	20.696	4.6364	0.1	-38.196
25000	20.42	4.5455	0.1	-34.836
25001	20.512	4.6364	0.1	-35.327
25002	20.237	4.5455	0.1	-31.996
25003	20.329	4.6364	0.1	-32.578
25004	20.053	4.5455	0.1	-29.257
25005	20.145	4.6364	0.1	-29.932
25006	19.87	4.5455	0.1	-26.604
25007	19.962	4.6364	0.1	-27.372
25008	19.686	4.5455	0.1	-24.021
25009	19.778	4.6364	0.1	-24.885
25010	19.503	4.5455	0.1	-21.493
25011	19.594	4.6364	0.1	-22.455
25012	19.319	4.5455	0.1	-19.006
25013	19.411	4.6364	0.1	-20.07
25014	19.135	4.5455	0.1	-16.546
25015	19.227	4.6364	0.1	-17.716
25016	18.952	4.5455	0.1	-14.099
25017	19.044	4.6364	0.1	-15.38
25018	18.768	4.5455	0.1	-11.652
25019	18.86	4.6364	0.1	-13.05
25020	18.585	4.5455	0.1	-9.1931
25021	18.677	4.6364	0.1	-10.715
25022	18.401	4.5455	0.1	-6.7092
25023	18.493	4.6364	0.1	-8.3626
25024	18.218	4.5455	0.1	-4.1892
25025	18.309	4.6364	0.1	-5.9816
25026	18.034	4.5455	0.1	-1.6283
25027	18.126	4.6364	0.1	-3.5627
25028	17.85	4.5455	0.1	-3.678e-002
25029	17.942	4.6364	0.1	-1.1095
25030	17.667	4.5455	0.1	-1.5938e-002
25031	17.759	4.6364	0.1	-2.9151e-002
25032	17.483	4.5455	0.1	-1.2419e-002
25033	17.575	4.6364	0.1	-1.5196e-002
25034	17.3	4.5455	0.1	-1.1031e-002
25035	17.392	4.6364	0.1	-1.2095e-002
25036	17.116	4.5455	0.1	-1.0371e-002
25037	17.208	4.6364	0.1	-1.0841e-002
25038	16.933	4.5455	0.1	-1.0078e-002
25039	17.024	4.6364	0.1	-1.0268e-002
25040	16.749	4.5455	0.1	-1.004e-002
25041	16.841	4.6364	0.1	-1.0068e-002
25042	16.565	4.5455	0.1	-1.022e-002
25043	16.657	4.6364	0.1	-1.0137e-002
25044	16.382	4.5455	0.1	-1.0613e-002
25045	16.474	4.6364	0.1	-1.0441e-002
25046	16.198	4.5455	0.1	-1.1242e-002
25047	16.29	4.6364	0.1	-1.0982e-002
25048	16.015	4.5455	0.1	-1.2147e-002
25049	16.107	4.6364	0.1	-1.1787e-002
25050	15.831	4.5455	0.1	-1.3385e-002
25051	15.923	4.6364	0.1	-1.2905e-002
25052	15.648	4.5455	0.1	-1.5049e-002
25053	15.739	4.6364	0.1	-1.4403e-002
25054	15.464	4.5455	0.1	-1.7259e-002
25055	15.556	4.6364	0.1	-1.6402e-002
25056	15.281	4.5455	0.1	-2.0147e-002
25057	15.372	4.6364	0.1	-1.9028e-002
25058	15.097	4.5455	0.1	-2.3926e-002
25059	15.189	4.6364	0.1	-2.2432e-002
25060	14.913	4.5455	0.1	-2.8912e-002
25061	15.005	4.6364	0.1	-2.6916e-002
25062	14.73	4.5455	0.1	-3.5505e-002
25063	14.822	4.6364	0.1	-3.2855e-002
25064	14.546	4.5455	0.1	-4.4252e-002
25065	14.638	4.6364	0.1	-4.0741e-002
25066	14.363	4.5455	0.1	-5.5939e-002
25067	14.454	4.6364	0.1	-5.1304e-002
25068	14.179	4.5455	0.1	-7.168e-002
25069	14.271	4.6364	0.1	-6.5593e-002
25070	13.996	4.5455	0.1	-9.3083e-002
25071	14.087	4.6364	0.1	-8.5145e-002
25072	13.812	4.5455	0.1	-0.12252
25073	13.904	4.6364	0.1	-0.11227
25074	13.628	4.5455	0.1	-0.16361
25075	13.72	4.6364	0.1	-0.15052
25076	13.445	4.5455	0.1	-0.22204
25077	13.537	4.6364	0.1	-0.20557
25078	13.261	4.5455	0.1	-0.30729
25079	13.353	4.6364	0.1	-0.28696
25080	13.078	4.5455	0.1	-0.43651
25081	13.169	4.6364	0.1	-0.41188
25082	12.894	4.5455	0.1	-0.64437
25083	12.986	4.6364	0.1	-0.61484
25084	12.711	4.5455	0.1	-1.0131
25085	12.802	4.6364	0.1	-0.97683
25086	12.527	4.5455	0.1	-1.7988
25087	12.619	4.6364	0.1	-1.7401
25088	12.343	4.5455	0.1	-4.2597
25089	12.435	4.6364	0.1	-4.0238
25090	12.16	4.5455	0.1	-20.467
25091	12.252	4.6364	0.1	-16.466
25092	11.976	4.5455	0.1	-80.196
25093	12.068	4.6364	0.1	-59.436
25094	11.793	4.5455	0.1	-189.57
25095	11.885	4.6364	0.1	-137.59
25096	11.609	4.5455	0.1	-373.15
25097	11.701	4.6364	0.1	-266.82
25098	11.426	4.5455	0.1	-671.43
25099	11.517	4.6364	0.1	-475.09
25100	11.242	4.5455	0.1	-1173.7
25101	11.334	4.6364	0.1	-801.57
25102	11.15	4.6364	0.1	-1355.5
25103	11.058	4.5455	0.1	-1252.6
25104	23.725	4.7273	0.1	-125.22
25105	23.816	4.8182	0.1	-124.93
25106	23.908	4.7273	0.1	-134.76
25107	23.541	4.7273	0.1	-115.45
25108	23.633	4.8182	0.1	-114.86
25109	23.358	4.7273	0.1	-106.5
25110	23.449	4.8182	0.1	-105.63
25111	23.174	4.7273	0.1	-98.384
25112	23.266	4.8182	0.1	-97.368
25113	22.99	4.7273	0.1	-91.029
25114	23.082	4.8182	0.1	-89.937
25115	22.807	4.7273	0.1	-84.37
25116	22.899	4.8182	0.1	-83.271
25117	22.623	4.7273	0.1	-78.329
25118	22.715	4.8182	0.1	-77.273
25119	22.44	4.7273	0.1	-72.828
25120	22.531	4.8182	0.1	-71.852
25121	22.256	4.7273	0.1	-67.797
25122	22.348	4.8182	0.1	-66.922
25123	22.073	4.7273	0.1	-63.174
25124	22.164	4.8182	0.1	-62.415
25125	21.889	4.7273	0.1	-58.905
25126	21.981	4.8182	0.1	-58.267
25127	21.705	4.7273	0.1	-54.943
25128	21.797	4.8182	0.1	-54.431
25129	21.522	4.7273	0.1	-51.25
25130	21.614	4.8182	0.1	-50.862
25131	21.338	4.7273	0.1	-47.791
25132	21.43	4.8182	0.1	-47.526
25133	21.155	4.7273	0.1	-44.537
25134	21.246	4.8182	0.1	-44.393
25135	20.971	4.7273	0.1	-41.463
25136	21.063	4.8182	0.1	-41.437
25137	20.788	4.7273	0.1	-38.547
25138	20.879	4.8182	0.1	-38.636
25139	20.604	4.7273	0.1	-35.769
25140	20.696	4.8182	0.1	-35.969
25141	20.42	4.7273	0.1	-33.11
25142	20.512	4.8182	0.1	-33.42
25143	20.237	4.7273	0.1	-30.554
25144	20.329	4.8182	0.1	-30.973
25145	20.053	4.7273	0.1	-28.085
25146	20.145	4.8182	0.1	-28.612
25147	19.87	4.7273	0.1	-25.691
25148	19.962	4.8182	0.1	-26.324
25149	19.686	4.7273	0.1	-23.356
25150	19.778	4.8182	0.1	-24.097
25151	19.503	4.7273	0.1	-21.068
25152	19.594	4.8182	0.1	-21.918
25153	19.319	4.7273	0.1	-18.814
25154	19.411	4.8182	0.1	-19.776
25155	19.135	4.7273	0.1	-16.583
25156	19.227	4.8182	0.1	-17.66
25157	18.952	4.7273	0.1	-14.364
25158	19.044	4.8182	0.1	-15.559
25159	18.768	4.7273	0.1	-12.145
25160	18.86	4.8182	0.1	-13.463
25161	18.585	4.7273	0.1	-9.9148
25162	18.677	4.8182	0.1	-11.361
25163	18.401	4.7273	0.1	-7.6638
25164	18.493	4.8182	0.1	-9.2448
25165	18.218	4.7273	0.1	-5.3823
25166	18.309	4.8182	0.1	-7.1048
25167	18.034	4.7273	0.1	-3.0623
25168	18.126	4.8182	0.1	-4.9326
25169	17.85	4.7273	0.1	-0.72295
25170	17.942	4.8182	0.1	-2.7225
25171	17.667	4.7273	0.1	-2.5397e-002
25172	17.759	4.8182	0.1	-0.51221
25173	17.483	4.7273	0.1	-1.4554e-002
25174	17.575	4.8182	0.1	-2.3907e-002
25175	17.3	4.7273	0.1	-1.178e-002
25176	17.392	4.8182	0.1	-1.4174e-002
25177	17.116	4.7273	0.1	-1.0659e-002
25178	17.208	4.8182	0.1	-1.1552e-002
25179	16.933	4.7273	0.1	-1.0199e-002
25180	17.024	4.8182	0.1	-1.052e-002
25181	16.749	4.7273	0.1	-1.0119e-002
25182	16.841	4.8182	0.1	-1.0152e-002
25183	16.565	4.7273	0.1	-1.0324e-002
25184	16.657	4.8182	0.1	-1.0181e-002
25185	16.382	4.7273	0.1	-1.0786e-002
25186	16.474	4.8182	0.1	-1.0511e-002
25187	16.198	4.7273	0.1	-1.1515e-002
25188	16.29	4.8182	0.1	-1.112e-002
25189	16.015	4.7273	0.1	-1.2547e-002
25190	16.107	4.8182	0.1	-1.202e-002
25191	15.831	4.7273	0.1	-1.394e-002
25192	15.923	4.8182	0.1	-1.3257e-002
25193	15.648	4.7273	0.1	-1.5792e-002
25194	15.739	4.8182	0.1	-1.49e-002
25195	15.464	4.7273	0.1	-1.8231e-002
25196	15.556	4.8182	0.1	-1.7068e-002
25197	15.281	4.7273	0.1	-2.1405e-002
25198	15.372	4.8182	0.1	-1.9904e-002
25199	15.097	4.7273	0.1	-2.5557e-002
25200	15.189	4.8182	0.1	-2.3576e-002
25201	14.913	4.7273	0.1	-3.1055e-002
25202	15.005	4.8182	0.1	-2.8424e-002
25203	14.73	4.7273	0.1	-3.8381e-002
25204	14.822	4.8182	0.1	-3.4892e-002
25205	14.546	4.7273	0.1	-4.8227e-002
25206	14.638	4.8182	0.1	-4.3592e-002
25207	14.363	4.7273	0.1	-6.1625e-002
25208	14.454	4.8182	0.1	-5.5467e-002
25209	14.179	4.7273	0.1	-8.0116e-002
25210	14.271	4.8182	0.1	-7.1958e-002
25211	13.996	4.7273	0.1	-0.10606
25212	14.087	4.8182	0.1	-9.5313e-002
25213	13.812	4.7273	0.1	-0.14319
25214	13.904	4.8182	0.1	-0.12918
25215	13.628	4.7273	0.1	-0.19761
25216	13.72	4.8182	0.1	-0.17968
25217	13.445	4.7273	0.1	-0.27984
25218	13.537	4.8182	0.1	-0.25771
25219	13.261	4.7273	0.1	-0.40938
25220	13.353	4.8182	0.1	-0.38411
25221	13.078	4.7273	0.1	-0.62639
25222	13.169	4.8182	0.1	-0.60324
25223	12.894	4.7273	0.1	-1.0281
25224	12.986	4.8182	0.1	-1.0266
25225	12.711	4.7273	0.1	-1.9184
25226	12.802	4.8182	0.1	-2.0171
25227	12.527	4.7273	0.1	-4.7486
25228	12.619	4.8182	0.1	-5.2857
25229	12.343	4.7273	0.1	-17.917
25230	12.435	4.8182	0.1	-17.614
25231	12.16	4.7273	0.1	-52.426
25232	12.252	4.8182	0.1	-43.902
25233	11.976	4.7273	0.1	-111.34
25234	12.068	4.8182	0.1	-86.326
25235	11.793	4.7273	0.1	-205.81
25236	11.885	4.8182	0.1	-152.72
25237	11.609	4.7273	0.1	-353.69
25238	11.701	4.8182	0.1	-256.28
25239	11.426	4.7273	0.1	-579.41
25240	11.517	4.8182	0.1	-414.62
25241	11.242	4.7273	0.1	-940.12
25242	11.334	4.8182	0.1	-651.69
25243	11.15	4.8182	0.1	-1048.7
25244	11.058	4.7273	0.1	-948.42
25245	23.725	4.9091	0.1	-114.59
25246	23.816	5.	0.1	-113.39
25247	23.908	4.9091	0.1	-123.92
25248	23.541	4.9091	0.1	-105.06
25249	23.633	5.	0.1	-103.52
25250	23.358	4.9091	0.1	-96.533
25251	23.449	5.	0.1	-94.728
25252	23.174	4.9091	0.1	-88.957
25253	23.266	5.	0.1	-87.055
25254	22.99	4.9091	0.1	-82.222
25255	23.082	5.	0.1	-80.321
25256	22.807	4.9091	0.1	-76.222
25257	22.899	5.	0.1	-74.399
25258	22.623	4.9091	0.1	-70.847
25259	22.715	5.	0.1	-69.151
25260	22.44	4.9091	0.1	-65.998
25261	22.531	5.	0.1	-64.457
25262	22.256	4.9091	0.1	-61.593
25263	22.348	5.	0.1	-60.22
25264	22.073	4.9091	0.1	-57.561
25265	22.164	5.	0.1	-56.361
25266	21.889	4.9091	0.1	-53.846
25267	21.981	5.	0.1	-52.819
25268	21.705	4.9091	0.1	-50.402
25269	21.797	5.	0.1	-49.542
25270	21.522	4.9091	0.1	-47.19
25271	21.614	5.	0.1	-46.493
25272	21.338	4.9091	0.1	-44.179
25273	21.43	5.	0.1	-43.637
25274	21.155	4.9091	0.1	-41.342
25275	21.246	5.	0.1	-40.95
25276	20.971	4.9091	0.1	-38.657
25277	21.063	5.	0.1	-38.407
25278	20.788	4.9091	0.1	-36.104
25279	20.879	5.	0.1	-35.99
25280	20.604	4.9091	0.1	-33.666
25281	20.696	5.	0.1	-33.683
25282	20.42	4.9091	0.1	-31.327
25283	20.512	5.	0.1	-31.471
25284	20.237	4.9091	0.1	-29.073
25285	20.329	5.	0.1	-29.341
25286	20.053	4.9091	0.1	-26.891
25287	20.145	5.	0.1	-27.28
25288	19.87	4.9091	0.1	-24.77
25289	19.962	5.	0.1	-25.278
25290	19.686	4.9091	0.1	-22.698
25291	19.778	5.	0.1	-23.324
25292	19.503	4.9091	0.1	-20.664
25293	19.594	5.	0.1	-21.409
25294	19.319	4.9091	0.1	-18.658
25295	19.411	5.	0.1	-19.522
25296	19.135	4.9091	0.1	-16.67
25297	19.227	5.	0.1	-17.655
25298	18.952	4.9091	0.1	-14.691
25299	19.044	5.	0.1	-15.8
25300	18.768	4.9091	0.1	-12.711
25301	18.86	5.	0.1	-13.948
25302	18.585	4.9091	0.1	-10.722
25303	18.677	5.	0.1	-12.09
25304	18.401	4.9091	0.1	-8.7157
25305	18.493	5.	0.1	-10.22
25306	18.218	4.9091	0.1	-6.6838
25307	18.309	5.	0.1	-8.3308
25308	18.034	4.9091	0.1	-4.6197
25309	18.126	5.	0.1	-6.4151
25310	17.85	4.9091	0.1	-2.5193
25311	17.942	5.	0.1	-4.4675
25312	17.667	4.9091	0.1	-0.43115
25313	17.759	5.	0.1	-2.4852
25314	17.483	4.9091	0.1	-2.3172e-002
25315	17.575	5.	0.1	-0.5047
25316	17.3	4.9091	0.1	-1.3829e-002
25317	17.392	5.	0.1	-2.3923e-002
25318	17.116	4.9091	0.1	-1.1319e-002
25319	17.208	5.	0.1	-1.369e-002
25320	16.933	4.9091	0.1	-1.0395e-002
25321	17.024	5.	0.1	-1.112e-002
25322	16.749	4.9091	0.1	-1.0151e-002
25323	16.841	5.	0.1	-1.025e-002
25324	16.565	4.9091	0.1	-1.0319e-002
25325	16.657	5.	0.1	-1.0101e-002
25326	16.382	4.9091	0.1	-1.0809e-002
25327	16.474	5.	0.1	-1.0386e-002
25328	16.198	4.9091	0.1	-1.1605e-002
25329	16.29	5.	0.1	-1.1016e-002
25330	16.015	4.9091	0.1	-1.2727e-002
25331	16.107	5.	0.1	-1.1972e-002
25332	15.831	4.9091	0.1	-1.4232e-002
25333	15.923	5.	0.1	-1.3285e-002
25334	15.648	4.9091	0.1	-1.6213e-002
25335	15.739	5.	0.1	-1.5015e-002
25336	15.464	4.9091	0.1	-1.8806e-002
25337	15.556	5.	0.1	-1.7285e-002
25338	15.281	4.9091	0.1	-2.2175e-002
25339	15.372	5.	0.1	-2.0243e-002
25340	15.097	4.9091	0.1	-2.6591e-002
25341	15.189	5.	0.1	-2.4073e-002
25342	14.913	4.9091	0.1	-3.248e-002
25343	15.005	5.	0.1	-2.916e-002
25344	14.73	4.9091	0.1	-4.0433e-002
25345	14.822	5.	0.1	-3.6029e-002
25346	14.546	4.9091	0.1	-5.1344e-002
25347	14.638	5.	0.1	-4.5454e-002
25348	14.363	4.9091	0.1	-6.6629e-002
25349	14.454	5.	0.1	-5.871e-002
25350	14.179	4.9091	0.1	-8.8567e-002
25351	14.271	5.	0.1	-7.7897e-002
25352	13.996	4.9091	0.1	-0.12098
25353	14.087	5.	0.1	-0.10665
25354	13.812	4.9091	0.1	-0.17058
25355	13.904	5.	0.1	-0.15163
25356	13.628	4.9091	0.1	-0.24993
25357	13.72	5.	0.1	-0.226
25358	13.445	4.9091	0.1	-0.38472
25359	13.537	5.	0.1	-0.3587
25360	13.261	4.9091	0.1	-0.63468
25361	13.353	5.	0.1	-0.62422
25362	13.078	4.9091	0.1	-1.1688
25363	13.169	5.	0.1	-1.2675
25364	12.894	4.9091	0.1	-2.6282
25365	12.986	5.	0.1	-3.3761
25366	12.711	4.9091	0.1	-7.8423
25367	12.802	5.	0.1	-10.262
25368	12.527	4.9091	0.1	-21.165
25369	12.619	5.	0.1	-22.814
25370	12.343	4.9091	0.1	-42.782
25371	12.435	5.	0.1	-40.381
25372	12.16	4.9091	0.1	-74.711
25373	12.252	5.	0.1	-64.425
25374	11.976	4.9091	0.1	-122.2
25375	12.068	5.	0.1	-98.23
25376	11.793	4.9091	0.1	-193.85
25377	11.885	5.	0.1	-147.41
25378	11.609	4.9091	0.1	-301.88
25379	11.701	5.	0.1	-220.96
25380	11.426	4.9091	0.1	-463.04
25381	11.517	5.	0.1	-331.59
25382	11.242	4.9091	0.1	-725.97
25383	11.334	5.	0.1	-498.67
25384	11.15	5.	0.1	-795.24
25385	11.058	4.9091	0.1	-718.89
25386	23.725	5.0909	0.1	-102.35
25387	23.816	5.1818	0.1	-100.06
25388	23.908	5.0909	0.1	-111.4
25389	23.541	5.0909	0.1	-93.213
25390	23.633	5.1818	0.1	-90.522
25391	23.358	5.0909	0.1	-85.292
25392	23.449	5.1818	0.1	-82.4
25393	23.174	5.0909	0.1	-78.47
25394	23.266	5.1818	0.1	-75.592
25395	22.99	5.0909	0.1	-72.557
25396	23.082	5.1818	0.1	-69.808
25397	22.807	5.0909	0.1	-67.391
25398	22.899	5.1818	0.1	-64.842
25399	22.623	5.0909	0.1	-62.826
25400	22.715	5.1818	0.1	-60.509
25401	22.44	5.0909	0.1	-58.744
25402	22.531	5.1818	0.1	-56.67
25403	22.256	5.0909	0.1	-55.053
25404	22.348	5.1818	0.1	-53.221
25405	22.073	5.0909	0.1	-51.683
25406	22.164	5.1818	0.1	-50.084
25407	21.889	5.0909	0.1	-48.577
25408	21.981	5.1818	0.1	-47.2
25409	21.705	5.0909	0.1	-45.693
25410	21.797	5.1818	0.1	-44.526
25411	21.522	5.0909	0.1	-42.998
25412	21.614	5.1818	0.1	-42.028
25413	21.338	5.0909	0.1	-40.464
25414	21.43	5.1818	0.1	-39.678
25415	21.155	5.0909	0.1	-38.068
25416	21.246	5.1818	0.1	-37.456
25417	20.971	5.0909	0.1	-35.791
25418	21.063	5.1818	0.1	-35.344
25419	20.788	5.0909	0.1	-33.619
25420	20.879	5.1818	0.1	-33.327
25421	20.604	5.0909	0.1	-31.536
25422	20.696	5.1818	0.1	-31.392
25423	20.42	5.0909	0.1	-29.531
25424	20.512	5.1818	0.1	-29.528
25425	20.237	5.0909	0.1	-27.592
25426	20.329	5.1818	0.1	-27.725
25427	20.053	5.0909	0.1	-25.709
25428	20.145	5.1818	0.1	-25.975
25429	19.87	5.0909	0.1	-23.873
25430	19.962	5.1818	0.1	-24.267
25431	19.686	5.0909	0.1	-22.075
25432	19.778	5.1818	0.1	-22.595
25433	19.503	5.0909	0.1	-20.305
25434	19.594	5.1818	0.1	-20.951
25435	19.319	5.0909	0.1	-18.556
25436	19.411	5.1818	0.1	-19.328
25437	19.135	5.0909	0.1	-16.821
25438	19.227	5.1818	0.1	-17.719
25439	18.952	5.0909	0.1	-15.091
25440	19.044	5.1818	0.1	-16.117
25441	18.768	5.0909	0.1	-13.36
25442	18.86	5.1818	0.1	-14.516
25443	18.585	5.0909	0.1	-11.62
25444	18.677	5.1818	0.1	-12.91
25445	18.401	5.0909	0.1	-9.8664
25446	18.493	5.1818	0.1	-11.293
25447	18.218	5.0909	0.1	-8.0919
25448	18.309	5.1818	0.1	-9.6607
25449	18.034	5.0909	0.1	-6.2916
25450	18.126	5.1818	0.1	-8.007
25451	17.85	5.0909	0.1	-4.4612
25452	17.942	5.1818	0.1	-6.3285
25453	17.667	5.0909	0.1	-2.5987
25454	17.759	5.1818	0.1	-4.6219
25455	17.483	5.0909	0.1	-0.7224
25456	17.575	5.1818	0.1	-2.8858
25457	17.3	5.0909	0.1	-2.6342e-002
25458	17.392	5.1818	0.1	-1.1269
25459	17.116	5.0909	0.1	-1.362e-002
25460	17.208	5.1818	0.1	-3.6437e-002
25461	16.933	5.0909	0.1	-1.091e-002
25462	17.024	5.1818	0.1	-1.4094e-002
25463	16.749	5.0909	0.1	-1.0116e-002
25464	16.841	5.1818	0.1	-1.0902e-002
25465	16.565	5.0909	0.1	-1.0096e-002
25466	16.657	5.1818	0.1	-1.0142e-002
25467	16.382	5.0909	0.1	-1.0541e-002
25468	16.474	5.1818	0.1	-1.0254e-002
25469	16.198	5.0909	0.1	-1.1354e-002
25470	16.29	5.1818	0.1	-1.0863e-002
25471	16.015	5.0909	0.1	-1.2525e-002
25472	16.107	5.1818	0.1	-1.1858e-002
25473	15.831	5.0909	0.1	-1.409e-002
25474	15.923	5.1818	0.1	-1.323e-002
25475	15.648	5.0909	0.1	-1.614e-002
25476	15.739	5.1818	0.1	-1.5017e-002
25477	15.464	5.0909	0.1	-1.881e-002
25478	15.556	5.1818	0.1	-1.7335e-002
25479	15.281	5.0909	0.1	-2.2276e-002
25480	15.372	5.1818	0.1	-2.033e-002
25481	15.097	5.0909	0.1	-2.684e-002
25482	15.189	5.1818	0.1	-2.4201e-002
25483	14.913	5.0909	0.1	-3.2999e-002
25484	15.005	5.1818	0.1	-2.9376e-002
25485	14.73	5.0909	0.1	-4.149e-002
25486	14.822	5.1818	0.1	-3.6483e-002
25487	14.546	5.0909	0.1	-5.3523e-002
25488	14.638	5.1818	0.1	-4.6541e-002
25489	14.363	5.0909	0.1	-7.1188e-002
25490	14.454	5.1818	0.1	-6.1389e-002
25491	14.179	5.0909	0.1	-9.8268e-002
25492	14.271	5.1818	0.1	-8.447e-002
25493	13.996	5.0909	0.1	-0.14214
25494	14.087	5.1818	0.1	-0.12285
25495	13.812	5.0909	0.1	-0.21867
25496	13.904	5.1818	0.1	-0.19298
25497	13.628	5.0909	0.1	-0.36751
25498	13.72	5.1818	0.1	-0.34112
25499	13.445	5.0909	0.1	-0.71317
25500	13.537	5.1818	0.1	-0.74658
25501	13.261	5.0909	0.1	-1.8086
25502	13.353	5.1818	0.1	-2.4571
25503	13.078	5.0909	0.1	-6.027
25504	13.169	5.1818	0.1	-8.1615
25505	12.894	5.0909	0.1	-14.809
25506	12.986	5.1818	0.1	-16.93
25507	12.711	5.0909	0.1	-26.696
25508	12.802	5.1818	0.1	-27.787
25509	12.527	5.0909	0.1	-41.648
25510	12.619	5.1818	0.1	-40.77
25511	12.343	5.0909	0.1	-60.532
25512	12.435	5.1818	0.1	-56.261
25513	12.16	5.0909	0.1	-85.084
25514	12.252	5.1818	0.1	-75.048
25515	11.976	5.0909	0.1	-118.41
25516	12.068	5.1818	0.1	-98.682
25517	11.793	5.0909	0.1	-165.93
25518	11.885	5.1818	0.1	-130.17
25519	11.609	5.0909	0.1	-236.58
25520	11.701	5.1818	0.1	-175.3
25521	11.426	5.0909	0.1	-345.81
25522	11.517	5.1818	0.1	-244.38
25523	11.242	5.0909	0.1	-539.07
25524	11.334	5.1818	0.1	-357.64
25525	11.15	5.1818	0.1	-582.88
25526	11.058	5.0909	0.1	-532.15
25527	23.725	5.2727	0.1	-88.263
25528	23.816	5.3636	0.1	-84.551
25529	23.908	5.2727	0.1	-96.871
25530	23.541	5.2727	0.1	-79.757
25531	23.633	5.3636	0.1	-75.657
25532	23.358	5.2727	0.1	-72.765
25533	23.449	5.3636	0.1	-68.636
25534	23.174	5.2727	0.1	-67.007
25535	23.266	5.3636	0.1	-63.106
25536	22.99	5.2727	0.1	-62.177
25537	23.082	5.3636	0.1	-58.601
25538	22.807	5.2727	0.1	-58.047
25539	22.899	5.3636	0.1	-54.828
25540	22.623	5.2727	0.1	-54.44
25541	22.715	5.3636	0.1	-51.575
25542	22.44	5.2727	0.1	-51.231
25543	22.531	5.3636	0.1	-48.703
25544	22.256	5.2727	0.1	-48.332
25545	22.348	5.3636	0.1	-46.117
25546	22.073	5.2727	0.1	-45.678
25547	22.164	5.3636	0.1	-43.752
25548	21.889	5.2727	0.1	-43.222
25549	21.981	5.3636	0.1	-41.562
25550	21.705	5.2727	0.1	-40.929
25551	21.797	5.3636	0.1	-39.514
25552	21.522	5.2727	0.1	-38.773
25553	21.614	5.3636	0.1	-37.583
25554	21.338	5.2727	0.1	-36.733
25555	21.43	5.3636	0.1	-35.752
25556	21.155	5.2727	0.1	-34.791
25557	21.246	5.3636	0.1	-34.004
25558	20.971	5.2727	0.1	-32.935
25559	21.063	5.3636	0.1	-32.33
25560	20.788	5.2727	0.1	-31.153
25561	20.879	5.3636	0.1	-30.717
25562	20.604	5.2727	0.1	-29.435
25563	20.696	5.3636	0.1	-29.159
25564	20.42	5.2727	0.1	-27.771
25565	20.512	5.3636	0.1	-27.648
25566	20.237	5.2727	0.1	-26.154
25567	20.329	5.3636	0.1	-26.177
25568	20.053	5.2727	0.1	-24.577
25569	20.145	5.3636	0.1	-24.74
25570	19.87	5.2727	0.1	-23.032
25571	19.962	5.3636	0.1	-23.331
25572	19.686	5.2727	0.1	-21.514
25573	19.778	5.3636	0.1	-21.946
25574	19.503	5.2727	0.1	-20.015
25575	19.594	5.3636	0.1	-20.577
25576	19.319	5.2727	0.1	-18.529
25577	19.411	5.3636	0.1	-19.222
25578	19.135	5.2727	0.1	-17.052
25579	19.227	5.3636	0.1	-17.874
25580	18.952	5.2727	0.1	-15.578
25581	19.044	5.3636	0.1	-16.53
25582	18.768	5.2727	0.1	-14.101
25583	18.86	5.3636	0.1	-15.185
25584	18.585	5.2727	0.1	-12.616
25585	18.677	5.3636	0.1	-13.834
25586	18.401	5.2727	0.1	-11.12
25587	18.493	5.3636	0.1	-12.473
25588	18.218	5.2727	0.1	-9.6067
25589	18.309	5.3636	0.1	-11.1
25590	18.034	5.2727	0.1	-8.0738
25591	18.126	5.3636	0.1	-9.7108
25592	17.85	5.2727	0.1	-6.5182
25593	17.942	5.3636	0.1	-8.3028
25594	17.667	5.2727	0.1	-4.9379
25595	17.759	5.3636	0.1	-6.8744
25596	17.483	5.2727	0.1	-3.3323
25597	17.575	5.3636	0.1	-5.4245
25598	17.3	5.2727	0.1	-1.7043
25599	17.392	5.3636	0.1	-3.9535
25600	17.116	5.2727	0.1	-0.15389
25601	17.208	5.3636	0.1	-2.4635
25602	16.933	5.2727	0.1	-1.5358e-002
25603	17.024	5.3636	0.1	-0.96196
25604	16.749	5.2727	0.1	-1.093e-002
25605	16.841	5.3636	0.1	-2.214e-002
25606	16.565	5.2727	0.1	-1.0194e-002
25607	16.657	5.3636	0.1	-1.0361e-002
25608	16.382	5.2727	0.1	-1.0493e-002
25609	16.474	5.3636	0.1	-9.3837e-003
25610	16.198	5.2727	0.1	-1.1329e-002
25611	16.29	5.3636	0.1	-9.8036e-003
25612	16.015	5.2727	0.1	-1.2573e-002
25613	16.107	5.3636	0.1	-1.0812e-002
25614	15.831	5.2727	0.1	-1.4218e-002
25615	15.923	5.3636	0.1	-1.2246e-002
25616	15.648	5.2727	0.1	-1.6328e-002
25617	15.739	5.3636	0.1	-1.41e-002
25618	15.464	5.2727	0.1	-1.9033e-002
25619	15.556	5.3636	0.1	-1.647e-002
25620	15.281	5.2727	0.1	-2.2511e-002
25621	15.372	5.3636	0.1	-1.9504e-002
25622	15.097	5.2727	0.1	-2.7097e-002
25623	15.189	5.3636	0.1	-2.3424e-002
25624	14.913	5.2727	0.1	-3.3377e-002
25625	15.005	5.3636	0.1	-2.8728e-002
25626	14.73	5.2727	0.1	-4.2318e-002
25627	14.822	5.3636	0.1	-3.6229e-002
25628	14.546	5.2727	0.1	-5.5701e-002
25629	14.638	5.3636	0.1	-4.7427e-002
25630	14.363	5.2727	0.1	-7.7101e-002
25631	14.454	5.3636	0.1	-6.5477e-002
25632	14.179	5.2727	0.1	-0.1145
25633	14.271	5.3636	0.1	-9.7864e-002
25634	13.996	5.2727	0.1	-0.18913
25635	14.087	5.3636	0.1	-0.16665
25636	13.812	5.2727	0.1	-0.37628
25637	13.904	5.3636	0.1	-0.36781
25638	13.628	5.2727	0.1	-1.1198
25639	13.72	5.3636	0.1	-1.49
25640	13.445	5.2727	0.1	-4.7282
25641	13.537	5.3636	0.1	-5.7954
25642	13.261	5.2727	0.1	-11.48
25643	13.353	5.3636	0.1	-12.136
25644	13.078	5.2727	0.1	-19.981
25645	13.169	5.3636	0.1	-19.886
25646	12.894	5.2727	0.1	-30.021
25647	12.986	5.3636	0.1	-28.98
25648	12.711	5.2727	0.1	-41.581
25649	12.802	5.3636	0.1	-39.366
25650	12.527	5.2727	0.1	-54.686
25651	12.619	5.3636	0.1	-50.944
25652	12.343	5.2727	0.1	-69.459
25653	12.435	5.3636	0.1	-63.573
25654	12.16	5.2727	0.1	-86.312
25655	12.252	5.3636	0.1	-77.141
25656	11.976	5.2727	0.1	-106.39
25657	12.068	5.3636	0.1	-91.794
25658	11.793	5.2727	0.1	-132.54
25659	11.885	5.3636	0.1	-108.48
25660	11.609	5.2727	0.1	-171.26
25661	11.701	5.3636	0.1	-130.3
25662	11.426	5.2727	0.1	-237.32
25663	11.517	5.3636	0.1	-165.13
25664	11.242	5.2727	0.1	-375.14
25665	11.334	5.3636	0.1	-233.42
25666	11.15	5.3636	0.1	-400.77
25667	11.058	5.2727	0.1	-375.07
25668	23.725	5.4545	0.1	-72.008
25669	23.816	5.5455	0.1	-66.296
25670	23.908	5.4545	0.1	-79.867
25671	23.541	5.4545	0.1	-64.623
25672	23.633	5.5455	0.1	-58.778
25673	23.358	5.4545	0.1	-59.089
25674	23.449	5.5455	0.1	-53.661
25675	23.174	5.4545	0.1	-54.824
25676	23.266	5.5455	0.1	-49.994
25677	22.99	5.4545	0.1	-51.377
25678	23.082	5.5455	0.1	-47.132
25679	22.807	5.4545	0.1	-48.477
25680	22.899	5.5455	0.1	-44.766
25681	22.623	5.4545	0.1	-45.952
25682	22.715	5.5455	0.1	-42.716
25683	22.44	5.4545	0.1	-43.695
25684	22.531	5.5455	0.1	-40.879
25685	22.256	5.4545	0.1	-41.635
25686	22.348	5.5455	0.1	-39.193
25687	22.073	5.4545	0.1	-39.727
25688	22.164	5.5455	0.1	-37.618
25689	21.889	5.4545	0.1	-37.938
25690	21.981	5.5455	0.1	-36.129
25691	21.705	5.4545	0.1	-36.246
25692	21.797	5.5455	0.1	-34.708
25693	21.522	5.4545	0.1	-34.635
25694	21.614	5.5455	0.1	-33.344
25695	21.338	5.4545	0.1	-33.092
25696	21.43	5.5455	0.1	-32.026
25697	21.155	5.4545	0.1	-31.607
25698	21.246	5.5455	0.1	-30.749
25699	20.971	5.4545	0.1	-30.173
25700	21.063	5.5455	0.1	-29.507
25701	20.788	5.4545	0.1	-28.781
25702	20.879	5.5455	0.1	-28.295
25703	20.604	5.4545	0.1	-27.427
25704	20.696	5.5455	0.1	-27.11
25705	20.42	5.4545	0.1	-26.106
25706	20.512	5.5455	0.1	-25.948
25707	20.237	5.4545	0.1	-24.812
25708	20.329	5.5455	0.1	-24.805
25709	20.053	5.4545	0.1	-23.542
25710	20.145	5.5455	0.1	-23.68
25711	19.87	5.4545	0.1	-22.29
25712	19.962	5.5455	0.1	-22.568
25713	19.686	5.4545	0.1	-21.053
25714	19.778	5.5455	0.1	-21.466
25715	19.503	5.4545	0.1	-19.826
25716	19.594	5.5455	0.1	-20.373
25717	19.319	5.4545	0.1	-18.607
25718	19.411	5.5455	0.1	-19.285
25719	19.135	5.4545	0.1	-17.39
25720	19.227	5.5455	0.1	-18.198
25721	18.952	5.4545	0.1	-16.174
25722	19.044	5.5455	0.1	-17.111
25723	18.768	5.4545	0.1	-14.953
25724	18.86	5.5455	0.1	-16.021
25725	18.585	5.4545	0.1	-13.725
25726	18.677	5.5455	0.1	-14.925
25727	18.401	5.4545	0.1	-12.487
25728	18.493	5.5455	0.1	-13.82
25729	18.218	5.4545	0.1	-11.236
25730	18.309	5.5455	0.1	-12.705
25731	18.034	5.4545	0.1	-9.9709
25732	18.126	5.5455	0.1	-11.578
25733	17.85	5.4545	0.1	-8.6891
25734	17.942	5.5455	0.1	-10.438
25735	17.667	5.4545	0.1	-7.3904
25736	17.759	5.5455	0.1	-9.2837
25737	17.483	5.4545	0.1	-6.0747
25738	17.575	5.5455	0.1	-8.1153
25739	17.3	5.4545	0.1	-4.7437
25740	17.392	5.5455	0.1	-6.934
25741	17.116	5.4545	0.1	-3.4003
25742	17.208	5.5455	0.1	-5.7419
25743	16.933	5.4545	0.1	-2.0492
25744	17.024	5.5455	0.1	-4.5426
25745	16.749	5.4545	0.1	-0.69966
25746	16.841	5.5455	0.1	-3.3416
25747	16.565	5.4545	0.1	-1.0673e-002
25748	16.657	5.5455	0.1	-2.1464
25749	16.382	5.4545	0.1	-8.5231e-003
25750	16.474	5.5455	0.1	-0.96729
25751	16.198	5.4545	0.1	-9.2849e-003
25752	16.29	5.5455	0.1	-1.3342e-002
25753	16.015	5.4545	0.1	-1.066e-002
25754	16.107	5.5455	0.1	-1.4978e-002
25755	15.831	5.4545	0.1	-1.2457e-002
25756	15.923	5.5455	0.1	-1.7177e-002
25757	15.648	5.4545	0.1	-1.4717e-002
25758	15.739	5.5455	0.1	-1.9642e-002
25759	15.464	5.4545	0.1	-1.7576e-002
25760	15.556	5.5455	0.1	-2.2486e-002
25761	15.281	5.4545	0.1	-2.125e-002
25762	15.372	5.5455	0.1	-2.5882e-002
25763	15.097	5.4545	0.1	-2.6168e-002
25764	15.189	5.5455	0.1	-3.013e-002
25765	14.913	5.4545	0.1	-3.3142e-002
25766	15.005	5.5455	0.1	-3.5947e-002
25767	14.73	5.4545	0.1	-4.3744e-002
25768	14.822	5.5455	0.1	-4.48e-002
25769	14.546	5.4545	0.1	-6.1519e-002
25770	14.638	5.5455	0.1	-6.0281e-002
25771	14.363	5.4545	0.1	-9.6156e-002
25772	14.454	5.5455	0.1	-9.3722e-002
25773	14.179	5.4545	0.1	-0.18442
25774	14.271	5.5455	0.1	-0.20136
25775	13.996	5.4545	0.1	-0.59771
25776	14.087	5.5455	0.1	-0.97453
25777	13.812	5.4545	0.1	-3.1266
25778	13.904	5.5455	0.1	-3.6978
25779	13.628	5.4545	0.1	-7.7345
25780	13.72	5.5455	0.1	-7.5964
25781	13.445	5.4545	0.1	-13.587
25782	13.537	5.5455	0.1	-12.511
25783	13.261	5.4545	0.1	-20.631
25784	13.353	5.5455	0.1	-18.483
25785	13.078	5.4545	0.1	-28.853
25786	13.169	5.5455	0.1	-25.534
25787	12.894	5.4545	0.1	-38.173
25788	12.986	5.5455	0.1	-33.631
25789	12.711	5.4545	0.1	-48.413
25790	12.802	5.5455	0.1	-42.647
25791	12.527	5.4545	0.1	-59.261
25792	12.619	5.5455	0.1	-52.323
25793	12.343	5.4545	0.1	-70.279
25794	12.435	5.5455	0.1	-62.235
25795	12.16	5.4545	0.1	-80.977
25796	12.252	5.5455	0.1	-71.792
25797	11.976	5.4545	0.1	-91.099
25798	12.068	5.5455	0.1	-80.323
25799	11.793	5.4545	0.1	-101.41
25800	11.885	5.5455	0.1	-87.394
25801	11.609	5.4545	0.1	-115.54
25802	11.701	5.5455	0.1	-93.786
25803	11.426	5.4545	0.1	-145.6
25804	11.517	5.5455	0.1	-103.75
25805	11.242	5.4545	0.1	-233.72
25806	11.334	5.5455	0.1	-133.61
25807	11.15	5.5455	0.1	-245.34
25808	11.058	5.4545	0.1	-239.93
25809	23.725	5.6364	0.1	-53.208
25810	23.816	5.7273	0.1	-44.741
25811	23.908	5.6364	0.1	-59.519
25812	23.541	5.6364	0.1	-48.014
25813	23.633	5.7273	0.1	-40.854
25814	23.358	5.6364	0.1	-44.787
25815	23.449	5.7273	0.1	-39.04
25816	23.174	5.6364	0.1	-42.516
25817	23.266	5.7273	0.1	-37.905
25818	22.99	5.6364	0.1	-40.717
25819	23.082	5.7273	0.1	-37.003
25820	22.807	5.6364	0.1	-39.18
25821	22.899	5.7273	0.1	-36.193
25822	22.623	5.6364	0.1	-37.799
25823	22.715	5.7273	0.1	-35.411
25824	22.44	5.6364	0.1	-36.517
25825	22.531	5.7273	0.1	-34.633
25826	22.256	5.6364	0.1	-35.302
25827	22.348	5.7273	0.1	-33.849
25828	22.073	5.6364	0.1	-34.134
25829	22.164	5.7273	0.1	-33.056
25830	21.889	5.6364	0.1	-33.003
25831	21.981	5.7273	0.1	-32.252
25832	21.705	5.6364	0.1	-31.901
25833	21.797	5.7273	0.1	-31.44
25834	21.522	5.6364	0.1	-30.822
25835	21.614	5.7273	0.1	-30.619
25836	21.338	5.6364	0.1	-29.764
25837	21.43	5.7273	0.1	-29.793
25838	21.155	5.6364	0.1	-28.725
25839	21.246	5.7273	0.1	-28.963
25840	20.971	5.6364	0.1	-27.701
25841	21.063	5.7273	0.1	-28.129
25842	20.788	5.6364	0.1	-26.691
25843	20.879	5.7273	0.1	-27.293
25844	20.604	5.6364	0.1	-25.694
25845	20.696	5.7273	0.1	-26.456
25846	20.42	5.6364	0.1	-24.707
25847	20.512	5.7273	0.1	-25.618
25848	20.237	5.6364	0.1	-23.73
25849	20.329	5.7273	0.1	-24.78
25850	20.053	5.6364	0.1	-22.76
25851	20.145	5.7273	0.1	-23.94
25852	19.87	5.6364	0.1	-21.796
25853	19.962	5.7273	0.1	-23.1
25854	19.686	5.6364	0.1	-20.837
25855	19.778	5.7273	0.1	-22.258
25856	19.503	5.6364	0.1	-19.879
25857	19.594	5.7273	0.1	-21.414
25858	19.319	5.6364	0.1	-18.922
25859	19.411	5.7273	0.1	-20.566
25860	19.135	5.6364	0.1	-17.963
25861	19.227	5.7273	0.1	-19.715
25862	18.952	5.6364	0.1	-17.001
25863	19.044	5.7273	0.1	-18.86
25864	18.768	5.6364	0.1	-16.034
25865	18.86	5.7273	0.1	-17.998
25866	18.585	5.6364	0.1	-15.059
25867	18.677	5.7273	0.1	-17.129
25868	18.401	5.6364	0.1	-14.077
25869	18.493	5.7273	0.1	-16.253
25870	18.218	5.6364	0.1	-13.084
25871	18.309	5.7273	0.1	-15.368
25872	18.034	5.6364	0.1	-12.081
25873	18.126	5.7273	0.1	-14.474
25874	17.85	5.6364	0.1	-11.067
25875	17.942	5.7273	0.1	-13.571
25876	17.667	5.6364	0.1	-10.043
25877	17.759	5.7273	0.1	-12.658
25878	17.483	5.6364	0.1	-9.0076
25879	17.575	5.7273	0.1	-11.737
25880	17.3	5.6364	0.1	-7.9644
25881	17.392	5.7273	0.1	-10.808
25882	17.116	5.6364	0.1	-6.916
25883	17.208	5.7273	0.1	-9.8747
25884	16.933	5.6364	0.1	-5.8667
25885	17.024	5.7273	0.1	-8.9392
25886	16.749	5.6364	0.1	-4.8228
25887	16.841	5.7273	0.1	-8.0062
25888	16.565	5.6364	0.1	-3.7926
25889	16.657	5.7273	0.1	-7.0818
25890	16.382	5.6364	0.1	-2.787
25891	16.474	5.7273	0.1	-6.1741
25892	16.198	5.6364	0.1	-1.8207
25893	16.29	5.7273	0.1	-5.2934
25894	16.015	5.6364	0.1	-0.91434
25895	16.107	5.7273	0.1	-4.4525
25896	15.831	5.6364	0.1	-0.16027
25897	15.923	5.7273	0.1	-3.668
25898	15.648	5.6364	0.1	-4.9755e-002
25899	15.739	5.7273	0.1	-2.9601
25900	15.464	5.6364	0.1	-4.5949e-002
25901	15.556	5.7273	0.1	-2.3536
25902	15.281	5.6364	0.1	-4.8991e-002
25903	15.372	5.7273	0.1	-1.878
25904	15.097	5.6364	0.1	-5.6071e-002
25905	15.189	5.7273	0.1	-1.5659
25906	14.913	5.6364	0.1	-6.9919e-002
25907	15.005	5.7273	0.1	-1.4512
25908	14.73	5.6364	0.1	-0.10232
25909	14.822	5.7273	0.1	-1.5712
25910	14.546	5.6364	0.1	-0.22096
25911	14.638	5.7273	0.1	-1.9775
25912	14.363	5.6364	0.1	-0.92583
25913	14.454	5.7273	0.1	-2.738
25914	14.179	5.6364	0.1	-2.6433
25915	14.271	5.7273	0.1	-3.9274
25916	13.996	5.6364	0.1	-5.1142
25917	14.087	5.7273	0.1	-5.622
25918	13.812	5.6364	0.1	-8.3539
25919	13.904	5.7273	0.1	-7.9011
25920	13.628	5.6364	0.1	-12.436
25921	13.72	5.7273	0.1	-10.845
25922	13.445	5.6364	0.1	-17.427
25923	13.537	5.7273	0.1	-14.53
25924	13.261	5.6364	0.1	-23.369
25925	13.353	5.7273	0.1	-19.02
25926	13.078	5.6364	0.1	-30.248
25927	13.169	5.7273	0.1	-24.356
25928	12.894	5.6364	0.1	-37.972
25929	12.986	5.7273	0.1	-30.532
25930	12.711	5.6364	0.1	-46.321
25931	12.802	5.7273	0.1	-37.468
25932	12.527	5.6364	0.1	-54.906
25933	12.619	5.7273	0.1	-44.973
25934	12.343	5.6364	0.1	-63.126
25935	12.435	5.7273	0.1	-52.698
25936	12.16	5.6364	0.1	-70.16
25937	12.252	5.7273	0.1	-60.094
25938	11.976	5.6364	0.1	-75.067
25939	12.068	5.7273	0.1	-66.398
25940	11.793	5.6364	0.1	-77.185
25941	11.885	5.7273	0.1	-70.71
25942	11.609	5.6364	0.1	-77.227
25943	11.701	5.7273	0.1	-72.389
25944	11.426	5.6364	0.1	-81.534
25945	11.517	5.7273	0.1	-71.967
25946	11.242	5.6364	0.1	-121.67
25947	11.334	5.7273	0.1	-76.87
25948	11.15	5.7273	0.1	-128.29
25949	11.058	5.6364	0.1	-123.89
25950	23.725	5.8182	0.1	-33.023
25951	23.816	5.9091	0.1	-21.057
25952	23.908	5.8182	0.1	-34.415
25953	23.541	5.8182	0.1	-32.569
25954	23.633	5.9091	0.1	-21.618
25955	23.358	5.8182	0.1	-32.77
25956	23.449	5.9091	0.1	-21.955
25957	23.174	5.8182	0.1	-32.92
25958	23.266	5.9091	0.1	-22.167
25959	22.99	5.8182	0.1	-32.939
25960	23.082	5.9091	0.1	-22.219
25961	22.807	5.8182	0.1	-32.831
25962	22.899	5.9091	0.1	-22.16
25963	22.623	5.8182	0.1	-32.612
25964	22.715	5.9091	0.1	-22.014
25965	22.44	5.8182	0.1	-32.301
25966	22.531	5.9091	0.1	-21.802
25967	22.256	5.8182	0.1	-31.913
25968	22.348	5.9091	0.1	-21.538
25969	22.073	5.8182	0.1	-31.463
25970	22.164	5.9091	0.1	-21.232
25971	21.889	5.8182	0.1	-30.961
25972	21.981	5.9091	0.1	-20.892
25973	21.705	5.8182	0.1	-30.416
25974	21.797	5.9091	0.1	-20.526
25975	21.522	5.8182	0.1	-29.835
25976	21.614	5.9091	0.1	-20.138
25977	21.338	5.8182	0.1	-29.225
25978	21.43	5.9091	0.1	-19.731
25979	21.155	5.8182	0.1	-28.591
25980	21.246	5.9091	0.1	-19.311
25981	20.971	5.8182	0.1	-27.937
25982	21.063	5.9091	0.1	-18.879
25983	20.788	5.8182	0.1	-27.266
25984	20.879	5.9091	0.1	-18.437
25985	20.604	5.8182	0.1	-26.581
25986	20.696	5.9091	0.1	-17.988
25987	20.42	5.8182	0.1	-25.884
25988	20.512	5.9091	0.1	-17.532
25989	20.237	5.8182	0.1	-25.177
25990	20.329	5.9091	0.1	-17.071
25991	20.053	5.8182	0.1	-24.461
25992	20.145	5.9091	0.1	-16.606
25993	19.87	5.8182	0.1	-23.737
25994	19.962	5.9091	0.1	-16.136
25995	19.686	5.8182	0.1	-23.005
25996	19.778	5.9091	0.1	-15.664
25997	19.503	5.8182	0.1	-22.267
25998	19.594	5.9091	0.1	-15.188
25999	19.319	5.8182	0.1	-21.521
26000	19.411	5.9091	0.1	-14.709
26001	19.135	5.8182	0.1	-20.769
26002	19.227	5.9091	0.1	-14.227
26003	18.952	5.8182	0.1	-20.009
26004	19.044	5.9091	0.1	-13.742
26005	18.768	5.8182	0.1	-19.242
26006	18.86	5.9091	0.1	-13.253
26007	18.585	5.8182	0.1	-18.467
26008	18.677	5.9091	0.1	-12.761
26009	18.401	5.8182	0.1	-17.685
26010	18.493	5.9091	0.1	-12.265
26011	18.218	5.8182	0.1	-16.895
26012	18.309	5.9091	0.1	-11.766
26013	18.034	5.8182	0.1	-16.097
26014	18.126	5.9091	0.1	-11.262
26015	17.85	5.8182	0.1	-15.291
26016	17.942	5.9091	0.1	-10.755
26017	17.667	5.8182	0.1	-14.478
26018	17.759	5.9091	0.1	-10.244
26019	17.483	5.8182	0.1	-13.66
26020	17.575	5.9091	0.1	-9.7297
26021	17.3	5.8182	0.1	-12.837
26022	17.392	5.9091	0.1	-9.2131
26023	17.116	5.8182	0.1	-12.013
26024	17.208	5.9091	0.1	-8.6952
26025	16.933	5.8182	0.1	-11.19
26026	17.024	5.9091	0.1	-8.1775
26027	16.749	5.8182	0.1	-10.373
26028	16.841	5.9091	0.1	-7.6619
26029	16.565	5.8182	0.1	-9.5668
26030	16.657	5.9091	0.1	-7.1513
26031	16.382	5.8182	0.1	-8.7795
26032	16.474	5.9091	0.1	-6.6492
26033	16.198	5.8182	0.1	-8.0197
26034	16.29	5.9091	0.1	-6.1599
26035	16.015	5.8182	0.1	-7.2987
26036	16.107	5.9091	0.1	-5.6891
26037	15.831	5.8182	0.1	-6.6302
26038	15.923	5.9091	0.1	-5.2436
26039	15.648	5.8182	0.1	-6.0306
26040	15.739	5.9091	0.1	-4.8317
26041	15.464	5.8182	0.1	-5.52
26042	15.556	5.9091	0.1	-4.4633
26043	15.281	5.8182	0.1	-5.1216
26044	15.372	5.9091	0.1	-4.1504
26045	15.097	5.8182	0.1	-4.8632
26046	15.189	5.9091	0.1	-3.9071
26047	14.913	5.8182	0.1	-4.7771
26048	15.005	5.9091	0.1	-3.7505
26049	14.73	5.8182	0.1	-4.9012
26050	14.822	5.9091	0.1	-3.7005
26051	14.546	5.8182	0.1	-5.2797
26052	14.638	5.9091	0.1	-3.7808
26053	14.363	5.8182	0.1	-5.9637
26054	14.454	5.9091	0.1	-4.0189
26055	14.179	5.8182	0.1	-7.0107
26056	14.271	5.9091	0.1	-4.446
26057	13.996	5.8182	0.1	-8.4843
26058	14.087	5.9091	0.1	-5.0969
26059	13.812	5.8182	0.1	-10.452
26060	13.904	5.9091	0.1	-6.0087
26061	13.628	5.8182	0.1	-12.985
26062	13.72	5.9091	0.1	-7.2204
26063	13.445	5.8182	0.1	-16.151
26064	13.537	5.9091	0.1	-8.7714
26065	13.261	5.8182	0.1	-20.011
26066	13.353	5.9091	0.1	-10.699
26067	13.078	5.8182	0.1	-24.605
26068	13.169	5.9091	0.1	-13.031
26069	12.894	5.8182	0.1	-29.937
26070	12.986	5.9091	0.1	-15.782
26071	12.711	5.8182	0.1	-35.948
26072	12.802	5.9091	0.1	-18.935
26073	12.527	5.8182	0.1	-42.477
26074	12.619	5.9091	0.1	-22.424
26075	12.343	5.8182	0.1	-49.218
26076	12.435	5.9091	0.1	-26.106
26077	12.16	5.8182	0.1	-55.672
26078	12.252	5.9091	0.1	-29.722
26079	11.976	5.8182	0.1	-61.101
26080	12.068	5.9091	0.1	-32.86
26081	11.793	5.8182	0.1	-64.57
26082	11.885	5.9091	0.1	-34.904
26083	11.609	5.8182	0.1	-65.031
26084	11.701	5.9091	0.1	-35.068
26085	11.426	5.8182	0.1	-63.007
26086	11.517	5.9091	0.1	-32.292
26087	11.242	5.8182	0.1	-68.754
26088	11.334	5.9091	0.1	-27.484
26089	11.058	5.8182	0.1	-38.751
26090	11.15	5.9091	0.1	-33.213
26091	0.18305	0.27273	0.1	-448.16
26092	0.27458	0.18182	0.1	-164.83
26093	9.1525e-002	0.18182	0.1	399.17
26094	0.18305	9.0909e-002	0.1	-222.88
26095	0.18305	0.45455	0.1	-676.55
26096	0.27458	0.36364	0.1	-235.86
26097	9.1525e-002	0.36364	0.1	831.32
26098	0.18305	0.63636	0.1	-786.2
26099	0.27458	0.54545	0.1	-279.7
26100	9.1525e-002	0.54545	0.1	1029.
26101	0.18305	0.81818	0.1	-856.52
26102	0.27458	0.72727	0.1	-310.97
26103	9.1525e-002	0.72727	0.1	1145.6
26104	0.18305	1.	0.1	-903.82
26105	0.27458	0.90909	0.1	-330.98
26106	9.1525e-002	0.90909	0.1	1224.4
26107	0.18305	1.1818	0.1	-938.22
26108	0.27458	1.0909	0.1	-345.58
26109	9.1525e-002	1.0909	0.1	1280.4
26110	0.18305	1.3636	0.1	-963.84
26111	0.27458	1.2727	0.1	-356.32
26112	9.1525e-002	1.2727	0.1	1321.9
26113	0.18305	1.5455	0.1	-983.41
26114	0.27458	1.4545	0.1	-364.49
26115	9.1525e-002	1.4545	0.1	1353.5
26116	0.18305	1.7273	0.1	-998.51
26117	0.27458	1.6364	0.1	-370.78
26118	9.1525e-002	1.6364	0.1	1377.8
26119	0.18305	1.9091	0.1	-1010.2
26120	0.27458	1.8182	0.1	-375.67
26121	9.1525e-002	1.8182	0.1	1396.6
26122	0.18305	2.0909	0.1	-1019.2
26123	0.27458	2.	0.1	-379.45
26124	9.1525e-002	2.	0.1	1411.3
26125	0.18305	2.2727	0.1	-1026.1
26126	0.27458	2.1818	0.1	-382.35
26127	9.1525e-002	2.1818	0.1	1422.5
26128	0.18305	2.4545	0.1	-1031.1
26129	0.27458	2.3636	0.1	-384.53
26130	9.1525e-002	2.3636	0.1	1430.9
26131	0.18305	2.6364	0.1	-1034.5
26132	0.27458	2.5455	0.1	-386.08
26133	9.1525e-002	2.5455	0.1	1436.9
26134	0.18305	2.8182	0.1	-1036.6
26135	0.27458	2.7273	0.1	-387.08
26136	9.1525e-002	2.7273	0.1	1440.7
26137	0.18305	3.	0.1	-1037.2
26138	0.27458	2.9091	0.1	-387.56
26139	9.1525e-002	2.9091	0.1	1442.6
26140	0.18305	3.1818	0.1	-1036.6
26141	0.27458	3.0909	0.1	-387.56
26142	9.1525e-002	3.0909	0.1	1442.6
26143	0.18305	3.3636	0.1	-1034.5
26144	0.27458	3.2727	0.1	-387.08
26145	9.1525e-002	3.2727	0.1	1440.7
26146	0.18305	3.5455	0.1	-1031.1
26147	0.27458	3.4545	0.1	-386.08
26148	9.1525e-002	3.4545	0.1	1436.9
26149	0.18305	3.7273	0.1	-1026.1
26150	0.27458	3.6364	0.1	-384.53
26151	9.1525e-002	3.6364	0.1	1430.9
26152	0.18305	3.9091	0.1	-1019.2
26153	0.27458	3.8182	0.1	-382.35
26154	9.1525e-002	3.8182	0.1	1422.5
26155	0.18305	4.0909	0.1	-1010.2
26156	0.27458	4.	0.1	-379.45
26157	9.1525e-002	4.	0.1	1411.3
26158	0.18305	4.2727	0.1	-998.51
26159	0.27458	4.1818	0.1	-375.67
26160	9.1525e-002	4.1818	0.1	1396.6
26161	0.18305	4.4545	0.1	-983.41
26162	0.27458	4.3636	0.1	-370.78
26163	9.1525e-002	4.3636	0.1	1377.8
26164	0.18305	4.6364	0.1	-963.84
26165	0.27458	4.5455	0.1	-364.49
26166	9.1525e-002	4.5455	0.1	1353.5
26167	0.18305	4.8182	0.1	-938.22
26168	0.27458	4.7273	0.1	-356.32
26169	9.1525e-002	4.7273	0.1	1321.9
26170	0.18305	5.	0.1	-903.82
26171	0.27458	4.9091	0.1	-345.58
26172	9.1525e-002	4.9091	0.1	1280.4
26173	0.18305	5.1818	0.1	-856.52
26174	0.27458	5.0909	0.1	-330.98
26175	9.1525e-002	5.0909	0.1	1224.4
26176	0.18305	5.3636	0.1	-786.2
26177	0.27458	5.2727	0.1	-310.97
26178	9.1525e-002	5.2727	0.1	1145.6
26179	0.18305	5.5455	0.1	-676.55
26180	0.27458	5.4545	0.1	-279.7
26181	9.1525e-002	5.4545	0.1	1029.
26182	0.18305	5.7273	0.1	-448.16
26183	0.27458	5.6364	0.1	-235.86
26184	9.1525e-002	5.6364	0.1	831.32
26185	0.27458	5.8182	0.1	-164.83
26186	9.1525e-002	5.8182	0.1	399.17
26187	0.18305	5.9091	0.1	-222.88
26188	0.3661	0.27273	0.1	90.391
26189	0.45763	0.18182	0.1	-96.768
26190	0.3661	9.0909e-002	0.1	-133.31
26191	0.3661	0.45455	0.1	161.71
26192	0.45763	0.36364	0.1	48.826
26193	0.3661	0.63636	0.1	195.58
26194	0.45763	0.54545	0.1	67.294
26195	0.3661	0.81818	0.1	214.54
26196	0.45763	0.72727	0.1	76.547
26197	0.3661	1.	0.1	227.23
26198	0.45763	0.90909	0.1	82.393
26199	0.3661	1.1818	0.1	236.29
26200	0.45763	1.0909	0.1	86.443
26201	0.3661	1.3636	0.1	243.01
26202	0.45763	1.2727	0.1	89.385
26203	0.3661	1.5455	0.1	248.12
26204	0.45763	1.4545	0.1	91.598
26205	0.3661	1.7273	0.1	252.05
26206	0.45763	1.6364	0.1	93.292
26207	0.3661	1.9091	0.1	255.08
26208	0.45763	1.8182	0.1	94.6
26209	0.3661	2.0909	0.1	257.42
26210	0.45763	2.	0.1	95.611
26211	0.3661	2.2727	0.1	259.2
26212	0.45763	2.1818	0.1	96.385
26213	0.3661	2.4545	0.1	260.49
26214	0.45763	2.3636	0.1	96.964
26215	0.3661	2.6364	0.1	261.38
26216	0.45763	2.5455	0.1	97.376
26217	0.3661	2.8182	0.1	261.9
26218	0.45763	2.7273	0.1	97.64
26219	0.3661	3.	0.1	262.07
26220	0.45763	2.9091	0.1	97.77
26221	0.3661	3.1818	0.1	261.9
26222	0.45763	3.0909	0.1	97.77
26223	0.3661	3.3636	0.1	261.38
26224	0.45763	3.2727	0.1	97.64
26225	0.3661	3.5455	0.1	260.49
26226	0.45763	3.4545	0.1	97.376
26227	0.3661	3.7273	0.1	259.2
26228	0.45763	3.6364	0.1	96.964
26229	0.3661	3.9091	0.1	257.42
26230	0.45763	3.8182	0.1	96.385
26231	0.3661	4.0909	0.1	255.08
26232	0.45763	4.	0.1	95.611
26233	0.3661	4.2727	0.1	252.05
26234	0.45763	4.1818	0.1	94.6
26235	0.3661	4.4545	0.1	248.12
26236	0.45763	4.3636	0.1	93.292
26237	0.3661	4.6364	0.1	243.01
26238	0.45763	4.5455	0.1	91.598
26239	0.3661	4.8182	0.1	236.29
26240	0.45763	4.7273	0.1	89.385
26241	0.3661	5.	0.1	227.23
26242	0.45763	4.9091	0.1	86.443
26243	0.3661	5.1818	0.1	214.54
26244	0.45763	5.0909	0.1	82.393
26245	0.3661	5.3636	0.1	195.58
26246	0.45763	5.2727	0.1	76.547
26247	0.3661	5.5455	0.1	161.71
26248	0.45763	5.4545	0.1	67.294
26249	0.3661	5.7273	0.1	90.391
26250	0.45763	5.6364	0.1	48.826
26251	0.45763	5.8182	0.1	-96.768
26252	0.3661	5.9091	0.1	-133.31
26253	0.54915	0.27273	0.1	-33.816
26254	0.64068	0.18182	0.1	-87.944
26255	0.54915	9.0909e-002	0.1	-108.39
26256	0.54915	0.45455	0.1	-44.6
26257	0.64068	0.36364	0.1	-17.401
26258	0.54915	0.63636	0.1	-51.522
26259	0.64068	0.54545	0.1	-19.324
26260	0.54915	0.81818	0.1	-55.527
26261	0.64068	0.72727	0.1	-20.752
26262	0.54915	1.	0.1	-58.364
26263	0.64068	0.90909	0.1	-21.752
26264	0.54915	1.1818	0.1	-60.458
26265	0.64068	1.0909	0.1	-22.552
26266	0.54915	1.3636	0.1	-62.028
26267	0.64068	1.2727	0.1	-23.16
26268	0.54915	1.5455	0.1	-63.228
26269	0.64068	1.4545	0.1	-23.629
26270	0.54915	1.7273	0.1	-64.155
26271	0.64068	1.6364	0.1	-23.993
26272	0.54915	1.9091	0.1	-64.873
26273	0.64068	1.8182	0.1	-24.276
26274	0.54915	2.0909	0.1	-65.427
26275	0.64068	2.	0.1	-24.495
26276	0.54915	2.2727	0.1	-65.848
26277	0.64068	2.1818	0.1	-24.663
26278	0.54915	2.4545	0.1	-66.156
26279	0.64068	2.3636	0.1	-24.789
26280	0.54915	2.6364	0.1	-66.367
26281	0.64068	2.5455	0.1	-24.878
26282	0.54915	2.8182	0.1	-66.49
26283	0.64068	2.7273	0.1	-24.936
26284	0.54915	3.	0.1	-66.531
26285	0.64068	2.9091	0.1	-24.964
26286	0.54915	3.1818	0.1	-66.49
26287	0.64068	3.0909	0.1	-24.964
26288	0.54915	3.3636	0.1	-66.367
26289	0.64068	3.2727	0.1	-24.936
26290	0.54915	3.5455	0.1	-66.156
26291	0.64068	3.4545	0.1	-24.878
26292	0.54915	3.7273	0.1	-65.848
26293	0.64068	3.6364	0.1	-24.789
26294	0.54915	3.9091	0.1	-65.427
26295	0.64068	3.8182	0.1	-24.663
26296	0.54915	4.0909	0.1	-64.873
26297	0.64068	4.	0.1	-24.495
26298	0.54915	4.2727	0.1	-64.155
26299	0.64068	4.1818	0.1	-24.276
26300	0.54915	4.4545	0.1	-63.228
26301	0.64068	4.3636	0.1	-23.993
26302	0.54915	4.6364	0.1	-62.028
26303	0.64068	4.5455	0.1	-23.629
26304	0.54915	4.8182	0.1	-60.458
26305	0.64068	4.7273	0.1	-23.16
26306	0.54915	5.	0.1	-58.364
26307	0.64068	4.9091	0.1	-22.552
26308	0.54915	5.1818	0.1	-55.527
26309	0.64068	5.0909	0.1	-21.752
26310	0.54915	5.3636	0.1	-51.522
26311	0.64068	5.2727	0.1	-20.752
26312	0.54915	5.5455	0.1	-44.6
26313	0.64068	5.4545	0.1	-19.324
26314	0.54915	5.7273	0.1	-33.816
26315	0.64068	5.6364	0.1	-17.401
26316	0.64068	5.8182	0.1	-87.944
26317	0.54915	5.9091	0.1	-108.39
26318	0.7322	0.27273	0.1	-0.44225
26319	0.82373	0.18182	0.1	-62.556
26320	0.7322	9.0909e-002	0.1	-73.716
26321	0.7322	0.45455	0.1	8.4469
26322	0.82373	0.36364	0.1	0.40452
26323	0.7322	0.63636	0.1	11.595
26324	0.82373	0.54545	0.1	3.3321
26325	0.7322	0.81818	0.1	13.082
26326	0.82373	0.72727	0.1	4.2025
26327	0.7322	1.	0.1	14.085
26328	0.82373	0.90909	0.1	4.8249
26329	0.7322	1.1818	0.1	14.758
26330	0.82373	1.0909	0.1	5.1895
26331	0.7322	1.3636	0.1	15.245
26332	0.82373	1.2727	0.1	5.4411
26333	0.7322	1.5455	0.1	15.609
26334	0.82373	1.4545	0.1	5.6188
26335	0.7322	1.7273	0.1	15.888
26336	0.82373	1.6364	0.1	5.7522
26337	0.7322	1.9091	0.1	16.104
26338	0.82373	1.8182	0.1	5.8544
26339	0.7322	2.0909	0.1	16.27
26340	0.82373	2.	0.1	5.9335
26341	0.7322	2.2727	0.1	16.397
26342	0.82373	2.1818	0.1	5.9943
26343	0.7322	2.4545	0.1	16.49
26344	0.82373	2.3636	0.1	6.04
26345	0.7322	2.6364	0.1	16.553
26346	0.82373	2.5455	0.1	6.0726
26347	0.7322	2.8182	0.1	16.591
26348	0.82373	2.7273	0.1	6.0937
26349	0.7322	3.	0.1	16.603
26350	0.82373	2.9091	0.1	6.1041
26351	0.7322	3.1818	0.1	16.591
26352	0.82373	3.0909	0.1	6.1041
26353	0.7322	3.3636	0.1	16.553
26354	0.82373	3.2727	0.1	6.0937
26355	0.7322	3.5455	0.1	16.49
26356	0.82373	3.4545	0.1	6.0726
26357	0.7322	3.7273	0.1	16.397
26358	0.82373	3.6364	0.1	6.04
26359	0.7322	3.9091	0.1	16.27
26360	0.82373	3.8182	0.1	5.9943
26361	0.7322	4.0909	0.1	16.104
26362	0.82373	4.	0.1	5.9335
26363	0.7322	4.2727	0.1	15.888
26364	0.82373	4.1818	0.1	5.8544
26365	0.7322	4.4545	0.1	15.609
26366	0.82373	4.3636	0.1	5.7522
26367	0.7322	4.6364	0.1	15.245
26368	0.82373	4.5455	0.1	5.6188
26369	0.7322	4.8182	0.1	14.758
26370	0.82373	4.7273	0.1	5.4411
26371	0.7322	5.	0.1	14.085
26372	0.82373	4.9091	0.1	5.1895
26373	0.7322	5.1818	0.1	13.082
26374	0.82373	5.0909	0.1	4.8249
26375	0.7322	5.3636	0.1	11.595
26376	0.82373	5.2727	0.1	4.2025
26377	0.7322	5.5455	0.1	8.447
26378	0.82373	5.4545	0.1	3.3321
26379	0.7322	5.7273	0.1	-0.44224
26380	0.82373	5.6364	0.1	0.40452
26381	0.82373	5.8182	0.1	-62.556
26382	0.7322	5.9091	0.1	-73.716
26383	0.91525	0.27273	0.1	-7.1097
26384	1.0068	0.18182	0.1	-44.285
26385	0.91525	9.0909e-002	0.1	-52.41
26386	0.91525	0.45455	0.1	-4.2602
26387	1.0068	0.36364	0.1	-3.3175
26388	0.91525	0.63636	0.1	-3.9496
26389	1.0068	0.54545	0.1	-2.0021
26390	0.91525	0.81818	0.1	-4.007
26391	1.0068	0.72727	0.1	-1.8639
26392	0.91525	1.	0.1	-4.0478
26393	1.0068	0.90909	0.1	-1.7293
26394	0.91525	1.1818	0.1	-4.1151
26395	1.0068	1.0909	0.1	-1.693
26396	0.91525	1.3636	0.1	-4.1784
26397	1.0068	1.2727	0.1	-1.6816
26398	0.91525	1.5455	0.1	-4.234
26399	1.0068	1.4545	0.1	-1.6858
26400	0.91525	1.7273	0.1	-4.2792
26401	1.0068	1.6364	0.1	-1.6938
26402	0.91525	1.9091	0.1	-4.3147
26403	1.0068	1.8182	0.1	-1.7021
26404	0.91525	2.0909	0.1	-4.3419
26405	1.0068	2.	0.1	-1.7091
26406	0.91525	2.2727	0.1	-4.3622
26407	1.0068	2.1818	0.1	-1.7144
26408	0.91525	2.4545	0.1	-4.3769
26409	1.0068	2.3636	0.1	-1.7182
26410	0.91525	2.6364	0.1	-4.3867
26411	1.0068	2.5455	0.1	-1.7208
26412	0.91525	2.8182	0.1	-4.3924
26413	1.0068	2.7273	0.1	-1.7224
26414	0.91525	3.	0.1	-4.3943
26415	1.0068	2.9091	0.1	-1.7231
26416	0.91525	3.1818	0.1	-4.3924
26417	1.0068	3.0909	0.1	-1.7231
26418	0.91525	3.3636	0.1	-4.3867
26419	1.0068	3.2727	0.1	-1.7224
26420	0.91525	3.5455	0.1	-4.3769
26421	1.0068	3.4545	0.1	-1.7208
26422	0.91525	3.7273	0.1	-4.3622
26423	1.0068	3.6364	0.1	-1.7182
26424	0.91525	3.9091	0.1	-4.3419
26425	1.0068	3.8182	0.1	-1.7144
26426	0.91525	4.0909	0.1	-4.3147
26427	1.0068	4.	0.1	-1.7091
26428	0.91525	4.2727	0.1	-4.2792
26429	1.0068	4.1818	0.1	-1.7021
26430	0.91525	4.4545	0.1	-4.234
26431	1.0068	4.3636	0.1	-1.6938
26432	0.91525	4.6364	0.1	-4.1784
26433	1.0068	4.5455	0.1	-1.6858
26434	0.91525	4.8182	0.1	-4.1151
26435	1.0068	4.7273	0.1	-1.6816
26436	0.91525	5.	0.1	-4.0478
26437	1.0068	4.9091	0.1	-1.693
26438	0.91525	5.1818	0.1	-4.007
26439	1.0068	5.0909	0.1	-1.7293
26440	0.91525	5.3636	0.1	-3.9496
26441	1.0068	5.2727	0.1	-1.8639
26442	0.91525	5.5455	0.1	-4.2602
26443	1.0068	5.4545	0.1	-2.0021
26444	0.91525	5.7273	0.1	-7.1097
26445	1.0068	5.6364	0.1	-3.3175
26446	1.0068	5.8182	0.1	-44.285
26447	0.91525	5.9091	0.1	-52.41
26448	1.0983	0.27273	0.1	-4.0278
26449	1.1898	0.18182	0.1	-29.302
26450	1.0983	9.0909e-002	0.1	-34.63
26451	1.0983	0.45455	0.1	-0.72022
26452	1.1898	0.36364	0.1	-1.8942
26453	1.0983	0.63636	0.1	0.16617
26454	1.1898	0.54545	0.1	-0.45244
26455	1.0983	0.81818	0.1	0.44971
26456	1.1898	0.72727	0.1	-0.19477
26457	1.0983	1.	0.1	0.64435
26458	1.1898	0.90909	0.1	2.3179e-002
26459	1.0983	1.1818	0.1	0.75116
26460	1.1898	1.0909	0.1	0.12852
26461	1.0983	1.3636	0.1	0.81716
26462	1.1898	1.2727	0.1	0.19314
26463	1.0983	1.5455	0.1	0.85808
26464	1.1898	1.4545	0.1	0.22884
26465	1.0983	1.7273	0.1	0.88552
26466	1.1898	1.6364	0.1	0.2501
26467	1.0983	1.9091	0.1	0.90499
26468	1.1898	1.8182	0.1	0.2632
26469	1.0983	2.0909	0.1	0.91947
26470	1.1898	2.	0.1	0.27193
26471	1.0983	2.2727	0.1	0.93038
26472	1.1898	2.1818	0.1	0.27808
26473	1.0983	2.4545	0.1	0.93846
26474	1.1898	2.3636	0.1	0.28254
26475	1.0983	2.6364	0.1	0.94406
26476	1.1898	2.5455	0.1	0.28571
26477	1.0983	2.8182	0.1	0.94736
26478	1.1898	2.7273	0.1	0.28777
26479	1.0983	3.	0.1	0.94846
26480	1.1898	2.9091	0.1	0.28879
26481	1.0983	3.1818	0.1	0.94736
26482	1.1898	3.0909	0.1	0.28879
26483	1.0983	3.3636	0.1	0.94406
26484	1.1898	3.2727	0.1	0.28777
26485	1.0983	3.5455	0.1	0.93846
26486	1.1898	3.4545	0.1	0.28571
26487	1.0983	3.7273	0.1	0.93038
26488	1.1898	3.6364	0.1	0.28254
26489	1.0983	3.9091	0.1	0.91947
26490	1.1898	3.8182	0.1	0.27808
26491	1.0983	4.0909	0.1	0.90499
26492	1.1898	4.	0.1	0.27193
26493	1.0983	4.2727	0.1	0.88552
26494	1.1898	4.1818	0.1	0.2632
26495	1.0983	4.4545	0.1	0.85808
26496	1.1898	4.3636	0.1	0.2501
26497	1.0983	4.6364	0.1	0.81716
26498	1.1898	4.5455	0.1	0.22884
26499	1.0983	4.8182	0.1	0.75116
26500	1.1898	4.7273	0.1	0.19314
26501	1.0983	5.	0.1	0.64435
26502	1.1898	4.9091	0.1	0.12852
26503	1.0983	5.1818	0.1	0.44971
26504	1.1898	5.0909	0.1	2.318e-002
26505	1.0983	5.3636	0.1	0.16617
26506	1.1898	5.2727	0.1	-0.19477
26507	1.0983	5.5455	0.1	-0.72022
26508	1.1898	5.4545	0.1	-0.45245
26509	1.0983	5.7273	0.1	-4.0278
26510	1.1898	5.6364	0.1	-1.8942
26511	1.1898	5.8182	0.1	-29.302
26512	1.0983	5.9091	0.1	-34.63
26513	1.2814	0.27273	0.1	-3.6858
26514	1.3729	0.18182	0.1	-19.022
26515	1.2814	9.0909e-002	0.1	-21.221
26516	1.2814	0.45455	0.1	-1.3611
26517	1.3729	0.36364	0.1	-1.874
26518	1.2814	0.63636	0.1	-0.74865
26519	1.3729	0.54545	0.1	-0.70167
26520	1.2814	0.81818	0.1	-0.5931
26521	1.3729	0.72727	0.1	-0.52785
26522	1.2814	1.	0.1	-0.4774
26523	1.3729	0.90909	0.1	-0.36089
26524	1.2814	1.1818	0.1	-0.42048
26525	1.3729	1.0909	0.1	-0.28217
26526	1.2814	1.3636	0.1	-0.38961
26527	1.3729	1.2727	0.1	-0.23357
26528	1.2814	1.5455	0.1	-0.3756
26529	1.3729	1.4545	0.1	-0.20872
26530	1.2814	1.7273	0.1	-0.36991
26531	1.3729	1.6364	0.1	-0.19615
26532	1.2814	1.9091	0.1	-0.3683
26533	1.3729	1.8182	0.1	-0.19054
26534	1.2814	2.0909	0.1	-0.36836
26535	1.3729	2.	0.1	-0.18837
26536	1.2814	2.2727	0.1	-0.36895
26537	1.3729	2.1818	0.1	-0.1878
26538	1.2814	2.4545	0.1	-0.36957
26539	1.3729	2.3636	0.1	-0.18786
26540	1.2814	2.6364	0.1	-0.37004
26541	1.3729	2.5455	0.1	-0.1881
26542	1.2814	2.8182	0.1	-0.37032
26543	1.3729	2.7273	0.1	-0.18832
26544	1.2814	3.	0.1	-0.37041
26545	1.3729	2.9091	0.1	-0.18844
26546	1.2814	3.1818	0.1	-0.37032
26547	1.3729	3.0909	0.1	-0.18844
26548	1.2814	3.3636	0.1	-0.37004
26549	1.3729	3.2727	0.1	-0.18832
26550	1.2814	3.5455	0.1	-0.36957
26551	1.3729	3.4545	0.1	-0.1881
26552	1.2814	3.7273	0.1	-0.36895
26553	1.3729	3.6364	0.1	-0.18786
26554	1.2814	3.9091	0.1	-0.36836
26555	1.3729	3.8182	0.1	-0.1878
26556	1.2814	4.0909	0.1	-0.3683
26557	1.3729	4.	0.1	-0.18837
26558	1.2814	4.2727	0.1	-0.36991
26559	1.3729	4.1818	0.1	-0.19054
26560	1.2814	4.4545	0.1	-0.3756
26561	1.3729	4.3636	0.1	-0.19615
26562	1.2814	4.6364	0.1	-0.38961
26563	1.3729	4.5455	0.1	-0.20872
26564	1.2814	4.8182	0.1	-0.42048
26565	1.3729	4.7273	0.1	-0.23357
26566	1.2814	5.	0.1	-0.4774
26567	1.3729	4.9091	0.1	-0.28217
26568	1.2814	5.1818	0.1	-0.5931
26569	1.3729	5.0909	0.1	-0.36089
26570	1.2814	5.3636	0.1	-0.74865
26571	1.3729	5.2727	0.1	-0.52785
26572	1.2814	5.5455	0.1	-1.3611
26573	1.3729	5.4545	0.1	-0.70167
26574	1.2814	5.7273	0.1	-3.6858
26575	1.3729	5.6364	0.1	-1.874
26576	1.3729	5.8182	0.1	-19.022
26577	1.2814	5.9091	0.1	-21.221
26578	1.4644	0.27273	0.1	-2.8927
26579	1.5559	0.18182	0.1	-12.354
26580	1.4644	9.0909e-002	0.1	-10.9
26581	1.4644	0.45455	0.1	-1.0056
26582	1.5559	0.36364	0.1	-1.5756
26583	1.4644	0.63636	0.1	-0.42892
26584	1.5559	0.54545	0.1	-0.53194
26585	1.4644	0.81818	0.1	-0.27303
26586	1.5559	0.72727	0.1	-0.37808
26587	1.4644	1.	0.1	-0.15327
26588	1.5559	0.90909	0.1	-0.22369
26589	1.4644	1.1818	0.1	-8.7691e-002
26590	1.5559	1.0909	0.1	-0.14638
26591	1.4644	1.3636	0.1	-4.7807e-002
26592	1.5559	1.2727	0.1	-9.5439e-002
26593	1.4644	1.5455	0.1	-2.6028e-002
26594	1.5559	1.4545	0.1	-6.6817e-002
26595	1.4644	1.7273	0.1	-1.4568e-002
26596	1.5559	1.6364	0.1	-5.0862e-002
26597	1.4644	1.9091	0.1	-9.0578e-003
26598	1.5559	1.8182	0.1	-4.2808e-002
26599	1.4644	2.0909	0.1	-6.6803e-003
26600	1.5559	2.	0.1	-3.9147e-002
26601	1.4644	2.2727	0.1	-5.8543e-003
26602	1.5559	2.1818	0.1	-3.7827e-002
26603	1.4644	2.4545	0.1	-5.7096e-003
26604	1.5559	2.3636	0.1	-3.762e-002
26605	1.4644	2.6364	0.1	-5.8015e-003
26606	1.5559	2.5455	0.1	-3.7844e-002
26607	1.4644	2.8182	0.1	-5.9162e-003
26608	1.5559	2.7273	0.1	-3.8137e-002
26609	1.4644	3.	0.1	-5.9627e-003
26610	1.5559	2.9091	0.1	-3.8319e-002
26611	1.4644	3.1818	0.1	-5.9161e-003
26612	1.5559	3.0909	0.1	-3.8319e-002
26613	1.4644	3.3636	0.1	-5.8014e-003
26614	1.5559	3.2727	0.1	-3.8137e-002
26615	1.4644	3.5455	0.1	-5.7094e-003
26616	1.5559	3.4545	0.1	-3.7844e-002
26617	1.4644	3.7273	0.1	-5.8541e-003
26618	1.5559	3.6364	0.1	-3.762e-002
26619	1.4644	3.9091	0.1	-6.6802e-003
26620	1.5559	3.8182	0.1	-3.7827e-002
26621	1.4644	4.0909	0.1	-9.0576e-003
26622	1.5559	4.	0.1	-3.9147e-002
26623	1.4644	4.2727	0.1	-1.4568e-002
26624	1.5559	4.1818	0.1	-4.2807e-002
26625	1.4644	4.4545	0.1	-2.6028e-002
26626	1.5559	4.3636	0.1	-5.0862e-002
26627	1.4644	4.6364	0.1	-4.7807e-002
26628	1.5559	4.5455	0.1	-6.6817e-002
26629	1.4644	4.8182	0.1	-8.7691e-002
26630	1.5559	4.7273	0.1	-9.5438e-002
26631	1.4644	5.	0.1	-0.15327
26632	1.5559	4.9091	0.1	-0.14638
26633	1.4644	5.1818	0.1	-0.27303
26634	1.5559	5.0909	0.1	-0.22368
26635	1.4644	5.3636	0.1	-0.42892
26636	1.5559	5.2727	0.1	-0.37808
26637	1.4644	5.5455	0.1	-1.0056
26638	1.5559	5.4545	0.1	-0.53194
26639	1.4644	5.7273	0.1	-2.8927
26640	1.5559	5.6364	0.1	-1.5756
26641	1.5559	5.8182	0.1	-12.354
26642	1.4644	5.9091	0.1	-10.9
26643	1.6475	0.27273	0.1	-2.4077
26644	1.739	0.18182	0.1	-8.311
26645	1.6475	9.0909e-002	0.1	-4.2856
26646	1.6475	0.45455	0.1	-0.93511
26647	1.739	0.36364	0.1	-1.3999
26648	1.6475	0.63636	0.1	-0.43859
26649	1.739	0.54545	0.1	-0.48798
26650	1.6475	0.81818	0.1	-0.31023
26651	1.739	0.72727	0.1	-0.36244
26652	1.6475	1.	0.1	-0.20659
26653	1.739	0.90909	0.1	-0.22746
26654	1.6475	1.1818	0.1	-0.14779
26655	1.739	1.0909	0.1	-0.15816
26656	1.6475	1.3636	0.1	-0.11026
26657	1.739	1.2727	0.1	-0.11023
26658	1.6475	1.5455	0.1	-8.8772e-002
26659	1.739	1.4545	0.1	-8.1716e-002
26660	1.6475	1.7273	0.1	-7.7067e-002
26661	1.739	1.6364	0.1	-6.4855e-002
26662	1.6475	1.9091	0.1	-7.142e-002
26663	1.739	1.8182	0.1	-5.5774e-002
26664	1.6475	2.0909	0.1	-6.9188e-002
26665	1.739	2.	0.1	-5.1359e-002
26666	1.6475	2.2727	0.1	-6.8733e-002
26667	1.739	2.1818	0.1	-4.9625e-002
26668	1.6475	2.4545	0.1	-6.9056e-002
26669	1.739	2.3636	0.1	-4.9275e-002
26670	1.6475	2.6364	0.1	-6.9581e-002
26671	1.739	2.5455	0.1	-4.9516e-002
26672	1.6475	2.8182	0.1	-6.9995e-002
26673	1.739	2.7273	0.1	-4.9882e-002
26674	1.6475	3.	0.1	-7.0148e-002
26675	1.739	2.9091	0.1	-5.0119e-002
26676	1.6475	3.1818	0.1	-6.9995e-002
26677	1.739	3.0909	0.1	-5.0119e-002
26678	1.6475	3.3636	0.1	-6.9581e-002
26679	1.739	3.2727	0.1	-4.9882e-002
26680	1.6475	3.5455	0.1	-6.9056e-002
26681	1.739	3.4545	0.1	-4.9516e-002
26682	1.6475	3.7273	0.1	-6.8733e-002
26683	1.739	3.6364	0.1	-4.9275e-002
26684	1.6475	3.9091	0.1	-6.9188e-002
26685	1.739	3.8182	0.1	-4.9625e-002
26686	1.6475	4.0909	0.1	-7.142e-002
26687	1.739	4.	0.1	-5.1359e-002
26688	1.6475	4.2727	0.1	-7.7067e-002
26689	1.739	4.1818	0.1	-5.5774e-002
26690	1.6475	4.4545	0.1	-8.8771e-002
26691	1.739	4.3636	0.1	-6.4855e-002
26692	1.6475	4.6364	0.1	-0.11026
26693	1.739	4.5455	0.1	-8.1716e-002
26694	1.6475	4.8182	0.1	-0.14779
26695	1.739	4.7273	0.1	-0.11023
26696	1.6475	5.	0.1	-0.20659
26697	1.739	4.9091	0.1	-0.15816
26698	1.6475	5.1818	0.1	-0.31023
26699	1.739	5.0909	0.1	-0.22746
26700	1.6475	5.3636	0.1	-0.43859
26701	1.739	5.2727	0.1	-0.36244
26702	1.6475	5.5455	0.1	-0.9351
26703	1.739	5.4545	0.1	-0.48798
26704	1.6475	5.7273	0.1	-2.4077
26705	1.739	5.6364	0.1	-1.3999
26706	1.739	5.8182	0.1	-8.311
26707	1.6475	5.9091	0.1	-4.2856
26708	1.8305	0.27273	0.1	-1.994
26709	1.922	0.18182	0.1	-5.8335
26710	1.8305	9.0909e-002	0.1	-1.9211
26711	1.8305	0.45455	0.1	-0.8181
26712	1.922	0.36364	0.1	-1.2339
26713	1.8305	0.63636	0.1	-0.37654
26714	1.922	0.54545	0.1	-0.42632
26715	1.8305	0.81818	0.1	-0.26428
26716	1.922	0.72727	0.1	-0.32061
26717	1.8305	1.	0.1	-0.17052
26718	1.922	0.90909	0.1	-0.20049
26719	1.8305	1.1818	0.1	-0.11526
26720	1.922	1.0909	0.1	-0.13747
26721	1.8305	1.3636	0.1	-7.8093e-002
26722	1.922	1.2727	0.1	-9.2014e-002
26723	1.8305	1.5455	0.1	-5.5271e-002
26724	1.922	1.4545	0.1	-6.3415e-002
26725	1.8305	1.7273	0.1	-4.1724e-002
26726	1.922	1.6364	0.1	-4.534e-002
26727	1.8305	1.9091	0.1	-3.4341e-002
26728	1.922	1.8182	0.1	-3.4714e-002
26729	1.8305	2.0909	0.1	-3.0741e-002
26730	1.922	2.	0.1	-2.8874e-002
26731	1.8305	2.2727	0.1	-2.9328e-002
26732	1.922	2.1818	0.1	-2.6011e-002
26733	1.8305	2.4545	0.1	-2.9041e-002
26734	1.922	2.3636	0.1	-2.4856e-002
26735	1.8305	2.6364	0.1	-2.9214e-002
26736	1.922	2.5455	0.1	-2.4573e-002
26737	1.8305	2.8182	0.1	-2.9453e-002
26738	1.922	2.7273	0.1	-2.4632e-002
26739	1.8305	3.	0.1	-2.9554e-002
26740	1.922	2.9091	0.1	-2.4731e-002
26741	1.8305	3.1818	0.1	-2.9453e-002
26742	1.922	3.0909	0.1	-2.4731e-002
26743	1.8305	3.3636	0.1	-2.9214e-002
26744	1.922	3.2727	0.1	-2.4632e-002
26745	1.8305	3.5455	0.1	-2.9041e-002
26746	1.922	3.4545	0.1	-2.4573e-002
26747	1.8305	3.7273	0.1	-2.9328e-002
26748	1.922	3.6364	0.1	-2.4856e-002
26749	1.8305	3.9091	0.1	-3.0741e-002
26750	1.922	3.8182	0.1	-2.6011e-002
26751	1.8305	4.0909	0.1	-3.4341e-002
26752	1.922	4.	0.1	-2.8873e-002
26753	1.8305	4.2727	0.1	-4.1724e-002
26754	1.922	4.1818	0.1	-3.4713e-002
26755	1.8305	4.4545	0.1	-5.527e-002
26756	1.922	4.3636	0.1	-4.5339e-002
26757	1.8305	4.6364	0.1	-7.8092e-002
26758	1.922	4.5455	0.1	-6.3414e-002
26759	1.8305	4.8182	0.1	-0.11526
26760	1.922	4.7273	0.1	-9.2014e-002
26761	1.8305	5.	0.1	-0.17052
26762	1.922	4.9091	0.1	-0.13747
26763	1.8305	5.1818	0.1	-0.26428
26764	1.922	5.0909	0.1	-0.20049
26765	1.8305	5.3636	0.1	-0.37654
26766	1.922	5.2727	0.1	-0.32061
26767	1.8305	5.5455	0.1	-0.8181
26768	1.922	5.4545	0.1	-0.42632
26769	1.8305	5.7273	0.1	-1.994
26770	1.922	5.6364	0.1	-1.2339
26771	1.922	5.8182	0.1	-5.8334
26772	1.8305	5.9091	0.1	-1.9211
26773	2.0136	0.27273	0.1	-1.6753
26774	2.1051	0.18182	0.1	-4.2636
26775	2.0136	9.0909e-002	0.1	-1.2399
26776	2.0136	0.45455	0.1	-0.73226
26777	2.1051	0.36364	0.1	-1.0974
26778	2.0136	0.63636	0.1	-0.34073
26779	2.1051	0.54545	0.1	-0.37967
26780	2.0136	0.81818	0.1	-0.24384
26781	2.1051	0.72727	0.1	-0.29093
26782	2.0136	1.	0.1	-0.16025
26783	2.1051	0.90909	0.1	-0.18425
26784	2.0136	1.1818	0.1	-0.1097
26785	2.1051	1.0909	0.1	-0.12756
26786	2.0136	1.3636	0.1	-7.4253e-002
26787	2.1051	1.2727	0.1	-8.5259e-002
26788	2.0136	1.5455	0.1	-5.1275e-002
26789	2.1051	1.4545	0.1	-5.7426e-002
26790	2.0136	1.7273	0.1	-3.669e-002
26791	2.1051	1.6364	0.1	-3.8847e-002
26792	2.0136	1.9091	0.1	-2.7994e-002
26793	2.1051	1.8182	0.1	-2.7124e-002
26794	2.0136	2.0909	0.1	-2.3159e-002
26795	2.1051	2.	0.1	-2.0054e-002
26796	2.0136	2.2727	0.1	-2.074e-002
26797	2.1051	2.1818	0.1	-1.6072e-002
26798	2.0136	2.4545	0.1	-1.9714e-002
26799	2.1051	2.3636	0.1	-1.4018e-002
26800	2.0136	2.6364	0.1	-1.9398e-002
26801	2.1051	2.5455	0.1	-1.3081e-002
26802	2.0136	2.8182	0.1	-1.9363e-002
26803	2.1051	2.7273	0.1	-1.2723e-002
26804	2.0136	3.	0.1	-1.9376e-002
26805	2.1051	2.9091	0.1	-1.262e-002
26806	2.0136	3.1818	0.1	-1.9363e-002
26807	2.1051	3.0909	0.1	-1.262e-002
26808	2.0136	3.3636	0.1	-1.9398e-002
26809	2.1051	3.2727	0.1	-1.2723e-002
26810	2.0136	3.5455	0.1	-1.9714e-002
26811	2.1051	3.4545	0.1	-1.3081e-002
26812	2.0136	3.7273	0.1	-2.0739e-002
26813	2.1051	3.6364	0.1	-1.4018e-002
26814	2.0136	3.9091	0.1	-2.3158e-002
26815	2.1051	3.8182	0.1	-1.6072e-002
26816	2.0136	4.0909	0.1	-2.7993e-002
26817	2.1051	4.	0.1	-2.0053e-002
26818	2.0136	4.2727	0.1	-3.6689e-002
26819	2.1051	4.1818	0.1	-2.7123e-002
26820	2.0136	4.4545	0.1	-5.1275e-002
26821	2.1051	4.3636	0.1	-3.8846e-002
26822	2.0136	4.6364	0.1	-7.4253e-002
26823	2.1051	4.5455	0.1	-5.7426e-002
26824	2.0136	4.8182	0.1	-0.1097
26825	2.1051	4.7273	0.1	-8.5259e-002
26826	2.0136	5.	0.1	-0.16025
26827	2.1051	4.9091	0.1	-0.12756
26828	2.0136	5.1818	0.1	-0.24384
26829	2.1051	5.0909	0.1	-0.18425
26830	2.0136	5.3636	0.1	-0.34072
26831	2.1051	5.2727	0.1	-0.29093
26832	2.0136	5.5455	0.1	-0.73226
26833	2.1051	5.4545	0.1	-0.37967
26834	2.0136	5.7273	0.1	-1.6753
26835	2.1051	5.6364	0.1	-1.0974
26836	2.1051	5.8182	0.1	-4.2636
26837	2.0136	5.9091	0.1	-1.2399
26838	2.1966	0.27273	0.1	-1.4181
26839	2.2881	0.18182	0.1	-3.2211
26840	2.1966	9.0909e-002	0.1	-0.94522
26841	2.1966	0.45455	0.1	-0.65423
26842	2.2881	0.36364	0.1	-0.97905
26843	2.1966	0.63636	0.1	-0.30469
26844	2.2881	0.54545	0.1	-0.33766
26845	2.1966	0.81818	0.1	-0.22028
26846	2.2881	0.72727	0.1	-0.26261
26847	2.1966	1.	0.1	-0.14543
26848	2.2881	0.90909	0.1	-0.16744
26849	2.1966	1.1818	0.1	-9.9253e-002
26850	2.2881	1.0909	0.1	-0.11646
26851	2.1966	1.3636	0.1	-6.5775e-002
26852	2.2881	1.2727	0.1	-7.7359e-002
26853	2.1966	1.5455	0.1	-4.3071e-002
26854	2.2881	1.4545	0.1	-5.0688e-002
26855	2.1966	1.7273	0.1	-2.7828e-002
26856	2.2881	1.6364	0.1	-3.2063e-002
26857	2.1966	1.9091	0.1	-1.8053e-002
26858	2.2881	1.8182	0.1	-1.9617e-002
26859	2.1966	2.0909	0.1	-1.2061e-002
26860	2.2881	2.	0.1	-1.1552e-002
26861	2.1966	2.2727	0.1	-8.6015e-003
26862	2.2881	2.1818	0.1	-6.5583e-003
26863	2.1966	2.4545	0.1	-6.7439e-003
26864	2.2881	2.3636	0.1	-3.6192e-003
26865	2.1966	2.6364	0.1	-5.8354e-003
26866	2.2881	2.5455	0.1	-1.9963e-003
26867	2.1966	2.8182	0.1	-5.4489e-003
26868	2.2881	2.7273	0.1	-1.1769e-003
26869	2.1966	3.	0.1	-5.3457e-003
26870	2.2881	2.9091	0.1	-8.4312e-004
26871	2.1966	3.1818	0.1	-5.4489e-003
26872	2.2881	3.0909	0.1	-8.4311e-004
26873	2.1966	3.3636	0.1	-5.8353e-003
26874	2.2881	3.2727	0.1	-1.1768e-003
26875	2.1966	3.5455	0.1	-6.7438e-003
26876	2.2881	3.4545	0.1	-1.9962e-003
26877	2.1966	3.7273	0.1	-8.6014e-003
26878	2.2881	3.6364	0.1	-3.6191e-003
26879	2.1966	3.9091	0.1	-1.2061e-002
26880	2.2881	3.8182	0.1	-6.5581e-003
26881	2.1966	4.0909	0.1	-1.8052e-002
26882	2.2881	4.	0.1	-1.1552e-002
26883	2.1966	4.2727	0.1	-2.7827e-002
26884	2.2881	4.1818	0.1	-1.9616e-002
26885	2.1966	4.4545	0.1	-4.3071e-002
26886	2.2881	4.3636	0.1	-3.2062e-002
26887	2.1966	4.6364	0.1	-6.5775e-002
26888	2.2881	4.5455	0.1	-5.0688e-002
26889	2.1966	4.8182	0.1	-9.9252e-002
26890	2.2881	4.7273	0.1	-7.7359e-002
26891	2.1966	5.	0.1	-0.14543
26892	2.2881	4.9091	0.1	-0.11646
26893	2.1966	5.1818	0.1	-0.22028
26894	2.2881	5.0909	0.1	-0.16744
26895	2.1966	5.3636	0.1	-0.30469
26896	2.2881	5.2727	0.1	-0.26261
26897	2.1966	5.5455	0.1	-0.65423
26898	2.2881	5.4545	0.1	-0.33766
26899	2.1966	5.7273	0.1	-1.4181
26900	2.2881	5.6364	0.1	-0.97905
26901	2.2881	5.8182	0.1	-3.2211
26902	2.1966	5.9091	0.1	-0.94522
26903	2.3797	0.27273	0.1	-1.2105
26904	2.4712	0.18182	0.1	-2.4992
26905	2.3797	9.0909e-002	0.1	-0.77753
26906	2.3797	0.45455	0.1	-0.58711
26907	2.4712	0.36364	0.1	-0.87695
26908	2.3797	0.63636	0.1	-0.27402
26909	2.4712	0.54545	0.1	-0.30141
26910	2.3797	0.81818	0.1	-0.20025
26911	2.4712	0.72727	0.1	-0.2377
26912	2.3797	1.	0.1	-0.1332
26913	2.4712	0.90909	0.1	-0.15256
26914	2.3797	1.1818	0.1	-9.1227e-002
26915	2.4712	1.0909	0.1	-0.10674
26916	2.3797	1.3636	0.1	-5.9969e-002
26917	2.4712	1.2727	0.1	-7.082e-002
26918	2.3797	1.5455	0.1	-3.7996e-002
26919	2.4712	1.4545	0.1	-4.5605e-002
26920	2.3797	1.7273	0.1	-2.2566e-002
26921	2.4712	1.6364	0.1	-2.7343e-002
26922	2.3797	1.9091	0.1	-1.2101e-002
26923	2.4712	1.8182	0.1	-1.4572e-002
26924	2.3797	2.0909	0.1	-5.2232e-003
26925	2.4712	2.	0.1	-5.8326e-003
26926	2.3797	2.2727	0.1	-8.8291e-004
26927	2.4712	2.1818	0.1	-4.9571e-005
26928	2.3797	2.4545	0.1	1.7294e-003
26929	2.4712	2.3636	0.1	3.6375e-003
26930	2.3797	2.6364	0.1	3.2029e-003
26931	2.4712	2.5455	0.1	5.8738e-003
26932	2.3797	2.8182	0.1	3.9355e-003
26933	2.4712	2.7273	0.1	7.1216e-003
26934	2.3797	3.	0.1	4.1551e-003
26935	2.4712	2.9091	0.1	7.6743e-003
26936	2.3797	3.1818	0.1	3.9356e-003
26937	2.4712	3.0909	0.1	7.6743e-003
26938	2.3797	3.3636	0.1	3.2031e-003
26939	2.4712	3.2727	0.1	7.1217e-003
26940	2.3797	3.5455	0.1	1.7296e-003
26941	2.4712	3.4545	0.1	5.874e-003
26942	2.3797	3.7273	0.1	-8.8275e-004
26943	2.4712	3.6364	0.1	3.6377e-003
26944	2.3797	3.9091	0.1	-5.223e-003
26945	2.4712	3.8182	0.1	-4.939e-005
26946	2.3797	4.0909	0.1	-1.2101e-002
26947	2.4712	4.	0.1	-5.8324e-003
26948	2.3797	4.2727	0.1	-2.2566e-002
26949	2.4712	4.1818	0.1	-1.4572e-002
26950	2.3797	4.4545	0.1	-3.7995e-002
26951	2.4712	4.3636	0.1	-2.7343e-002
26952	2.3797	4.6364	0.1	-5.9969e-002
26953	2.4712	4.5455	0.1	-4.5604e-002
26954	2.3797	4.8182	0.1	-9.1226e-002
26955	2.4712	4.7273	0.1	-7.082e-002
26956	2.3797	5.	0.1	-0.1332
26957	2.4712	4.9091	0.1	-0.10674
26958	2.3797	5.1818	0.1	-0.20025
26959	2.4712	5.0909	0.1	-0.15256
26960	2.3797	5.3636	0.1	-0.27402
26961	2.4712	5.2727	0.1	-0.2377
26962	2.3797	5.5455	0.1	-0.58711
26963	2.4712	5.4545	0.1	-0.30141
26964	2.3797	5.7273	0.1	-1.2105
26965	2.4712	5.6364	0.1	-0.87695
26966	2.4712	5.8182	0.1	-2.4992
26967	2.3797	5.9091	0.1	-0.77753
26968	2.5627	0.27273	0.1	-1.0406
26969	2.6542	0.18182	0.1	-1.9808
26970	2.5627	9.0909e-002	0.1	-0.66563
26971	2.5627	0.45455	0.1	-0.52798
26972	2.6542	0.36364	0.1	-0.7879
26973	2.5627	0.63636	0.1	-0.2465
26974	2.6542	0.54545	0.1	-0.26952
26975	2.5627	0.81818	0.1	-0.18175
26976	2.6542	0.72727	0.1	-0.2152
26977	2.5627	1.	0.1	-0.12153
26978	2.6542	0.90909	0.1	-0.13879
26979	2.5627	1.1818	0.1	-8.3438e-002
26980	2.6542	1.0909	0.1	-9.7586e-002
26981	2.5627	1.3636	0.1	-5.4449e-002
26982	2.6542	1.2727	0.1	-6.4688e-002
26983	2.5627	1.5455	0.1	-3.3476e-002
26984	2.6542	1.4545	0.1	-4.1065e-002
26985	2.5627	1.7273	0.1	-1.8212e-002
26986	2.6542	1.6364	0.1	-2.3449e-002
26987	2.5627	1.9091	0.1	-7.3963e-003
26988	2.6542	1.8182	0.1	-1.0677e-002
26989	2.5627	2.0909	0.1	8.8638e-005
26990	2.6542	2.	0.1	-1.5607e-003
26991	2.5627	2.2727	0.1	5.1061e-003
26992	2.6542	2.1818	0.1	4.771e-003
26993	2.5627	2.4545	0.1	8.3392e-003
26994	2.6542	2.3636	0.1	9.0304e-003
26995	2.5627	2.6364	0.1	1.0298e-002
26996	2.6542	2.5455	0.1	1.1764e-002
26997	2.5627	2.8182	0.1	1.1337e-002
26998	2.6542	2.7273	0.1	1.3371e-002
26999	2.5627	3.	0.1	1.1661e-002
27000	2.6542	2.9091	0.1	1.4111e-002
27001	2.5627	3.1818	0.1	1.1337e-002
27002	2.6542	3.0909	0.1	1.4111e-002
27003	2.5627	3.3636	0.1	1.0299e-002
27004	2.6542	3.2727	0.1	1.3371e-002
27005	2.5627	3.5455	0.1	8.3393e-003
27006	2.6542	3.4545	0.1	1.1764e-002
27007	2.5627	3.7273	0.1	5.1063e-003
27008	2.6542	3.6364	0.1	9.0306e-003
27009	2.5627	3.9091	0.1	8.8896e-005
27010	2.6542	3.8182	0.1	4.7712e-003
27011	2.5627	4.0909	0.1	-7.3961e-003
27012	2.6542	4.	0.1	-1.5604e-003
27013	2.5627	4.2727	0.1	-1.8212e-002
27014	2.6542	4.1818	0.1	-1.0676e-002
27015	2.5627	4.4545	0.1	-3.3475e-002
27016	2.6542	4.3636	0.1	-2.3449e-002
27017	2.5627	4.6364	0.1	-5.4449e-002
27018	2.6542	4.5455	0.1	-4.1065e-002
27019	2.5627	4.8182	0.1	-8.3437e-002
27020	2.6542	4.7273	0.1	-6.4687e-002
27021	2.5627	5.	0.1	-0.12153
27022	2.6542	4.9091	0.1	-9.7586e-002
27023	2.5627	5.1818	0.1	-0.18175
27024	2.6542	5.0909	0.1	-0.13879
27025	2.5627	5.3636	0.1	-0.2465
27026	2.6542	5.2727	0.1	-0.2152
27027	2.5627	5.5455	0.1	-0.52798
27028	2.6542	5.4545	0.1	-0.26952
27029	2.5627	5.7273	0.1	-1.0406
27030	2.6542	5.6364	0.1	-0.7879
27031	2.6542	5.8182	0.1	-1.9808
27032	2.5627	5.9091	0.1	-0.66563
27033	2.7458	0.27273	0.1	-0.9002
27034	2.8373	0.18182	0.1	-1.5973
27035	2.7458	9.0909e-002	0.1	-0.58353
27036	2.7458	0.45455	0.1	-0.4759
27037	2.8373	0.36364	0.1	-0.7098
27038	2.7458	0.63636	0.1	-0.22209
27039	2.8373	0.54545	0.1	-0.24148
27040	2.7458	0.81818	0.1	-0.16504
27041	2.8373	0.72727	0.1	-0.19499
27042	2.7458	1.	0.1	-0.11085
27043	2.8373	0.90909	0.1	-0.12623
27044	2.7458	1.1818	0.1	-7.63e-002
27045	2.8373	1.0909	0.1	-8.9126e-002
27046	2.7458	1.3636	0.1	-4.9546e-002
27047	2.8373	1.2727	0.1	-5.906e-002
27048	2.7458	1.5455	0.1	-2.974e-002
27049	2.8373	1.4545	0.1	-3.7078e-002
27050	2.7458	1.7273	0.1	-1.4907e-002
27051	2.8373	1.6364	0.1	-2.0294e-002
27052	2.7458	1.9091	0.1	-4.0311e-003
27053	2.8373	1.8182	0.1	-7.7708e-003
27054	2.7458	2.0909	0.1	3.7958e-003
27055	2.8373	2.	0.1	1.4653e-003
27056	2.7458	2.2727	0.1	9.2739e-003
27057	2.8373	2.1818	0.1	8.1176e-003
27058	2.7458	2.4545	0.1	1.2967e-002
27059	2.8373	2.3636	0.1	1.2767e-002
27060	2.7458	2.6364	0.1	1.5305e-002
27061	2.8373	2.5455	0.1	1.5864e-002
27062	2.7458	2.8182	0.1	1.6589e-002
27063	2.8373	2.7273	0.1	1.7746e-002
27064	2.7458	3.	0.1	1.6997e-002
27065	2.8373	2.9091	0.1	1.8632e-002
27066	2.7458	3.1818	0.1	1.6589e-002
27067	2.8373	3.0909	0.1	1.8632e-002
27068	2.7458	3.3636	0.1	1.5305e-002
27069	2.8373	3.2727	0.1	1.7746e-002
27070	2.7458	3.5455	0.1	1.2967e-002
27071	2.8373	3.4545	0.1	1.5864e-002
27072	2.7458	3.7273	0.1	9.274e-003
27073	2.8373	3.6364	0.1	1.2767e-002
27074	2.7458	3.9091	0.1	3.796e-003
27075	2.8373	3.8182	0.1	8.1178e-003
27076	2.7458	4.0909	0.1	-4.0307e-003
27077	2.8373	4.	0.1	1.4656e-003
27078	2.7458	4.2727	0.1	-1.4907e-002
27079	2.8373	4.1818	0.1	-7.7704e-003
27080	2.7458	4.4545	0.1	-2.9739e-002
27081	2.8373	4.3636	0.1	-2.0293e-002
27082	2.7458	4.6364	0.1	-4.9545e-002
27083	2.8373	4.5455	0.1	-3.7077e-002
27084	2.7458	4.8182	0.1	-7.6299e-002
27085	2.8373	4.7273	0.1	-5.9059e-002
27086	2.7458	5.	0.1	-0.11085
27087	2.8373	4.9091	0.1	-8.9125e-002
27088	2.7458	5.1818	0.1	-0.16503
27089	2.8373	5.0909	0.1	-0.12623
27090	2.7458	5.3636	0.1	-0.22209
27091	2.8373	5.2727	0.1	-0.19499
27092	2.7458	5.5455	0.1	-0.4759
27093	2.8373	5.4545	0.1	-0.24148
27094	2.7458	5.7273	0.1	-0.9002
27095	2.8373	5.6364	0.1	-0.7098
27096	2.8373	5.8182	0.1	-1.5973
27097	2.7458	5.9091	0.1	-0.58353
27098	2.9288	0.27273	0.1	-0.78311
27099	3.0203	0.18182	0.1	-1.3064
27100	2.9288	9.0909e-002	0.1	-0.5194
27101	2.9288	0.45455	0.1	-0.42975
27102	3.0203	0.36364	0.1	-0.6409
27103	2.9288	0.63636	0.1	-0.2003
27104	3.0203	0.54545	0.1	-0.21671
27105	2.9288	0.81818	0.1	-0.14985
27106	3.0203	0.72727	0.1	-0.17678
27107	2.9288	1.	0.1	-0.10099
27108	3.0203	0.90909	0.1	-0.11476
27109	2.9288	1.1818	0.1	-6.9656e-002
27110	3.0203	1.0909	0.1	-8.1302e-002
27111	2.9288	1.3636	0.1	-4.5044e-002
27112	3.0203	1.2727	0.1	-5.3855e-002
27113	2.9288	1.5455	0.1	-2.6485e-002
27114	3.0203	1.4545	0.1	-3.3496e-002
27115	2.9288	1.7273	0.1	-1.2264e-002
27116	3.0203	1.6364	0.1	-1.7653e-002
27117	2.9288	1.9091	0.1	-1.5512e-003
27118	3.0203	1.8182	0.1	-5.559e-003
27119	2.9288	2.0909	0.1	6.3935e-003
27120	3.0203	2.	0.1	3.5937e-003
27121	2.9288	2.2727	0.1	1.2135e-002
27122	3.0203	2.1818	0.1	1.0372e-002
27123	2.9288	2.4545	0.1	1.6132e-002
27124	3.0203	2.3636	0.1	1.5245e-002
27125	2.9288	2.6364	0.1	1.8736e-002
27126	3.0203	2.5455	0.1	1.8579e-002
27127	2.9288	2.8182	0.1	2.02e-002
27128	3.0203	2.7273	0.1	2.065e-002
27129	2.9288	3.	0.1	2.0671e-002
27130	3.0203	2.9091	0.1	2.164e-002
27131	2.9288	3.1818	0.1	2.02e-002
27132	3.0203	3.0909	0.1	2.164e-002
27133	2.9288	3.3636	0.1	1.8736e-002
27134	3.0203	3.2727	0.1	2.065e-002
27135	2.9288	3.5455	0.1	1.6132e-002
27136	3.0203	3.4545	0.1	1.8579e-002
27137	2.9288	3.7273	0.1	1.2135e-002
27138	3.0203	3.6364	0.1	1.5245e-002
27139	2.9288	3.9091	0.1	6.3939e-003
27140	3.0203	3.8182	0.1	1.0372e-002
27141	2.9288	4.0909	0.1	-1.5508e-003
27142	3.0203	4.	0.1	3.5942e-003
27143	2.9288	4.2727	0.1	-1.2264e-002
27144	3.0203	4.1818	0.1	-5.5586e-003
27145	2.9288	4.4545	0.1	-2.6484e-002
27146	3.0203	4.3636	0.1	-1.7653e-002
27147	2.9288	4.6364	0.1	-4.5043e-002
27148	3.0203	4.5455	0.1	-3.3495e-002
27149	2.9288	4.8182	0.1	-6.9655e-002
27150	3.0203	4.7273	0.1	-5.3854e-002
27151	2.9288	5.	0.1	-0.10099
27152	3.0203	4.9091	0.1	-8.1302e-002
27153	2.9288	5.1818	0.1	-0.14985
27154	3.0203	5.0909	0.1	-0.11476
27155	2.9288	5.3636	0.1	-0.2003
27156	3.0203	5.2727	0.1	-0.17678
27157	2.9288	5.5455	0.1	-0.42975
27158	3.0203	5.4545	0.1	-0.21671
27159	2.9288	5.7273	0.1	-0.78311
27160	3.0203	5.6364	0.1	-0.6409
27161	3.0203	5.8182	0.1	-1.3064
27162	2.9288	5.9091	0.1	-0.5194
27163	3.1119	0.27273	0.1	-0.68464
27164	3.2034	0.18182	0.1	-1.0814
27165	3.1119	9.0909e-002	0.1	-0.46714
27166	3.1119	0.45455	0.1	-0.38871
27167	3.2034	0.36364	0.1	-0.5798
27168	3.1119	0.63636	0.1	-0.18085
27169	3.2034	0.54545	0.1	-0.19478
27170	3.1119	0.81818	0.1	-0.13611
27171	3.2034	0.72727	0.1	-0.16038
27172	3.1119	1.	0.1	-9.1962e-002
27173	3.2034	0.90909	0.1	-0.10432
27174	3.1119	1.1818	0.1	-6.353e-002
27175	3.2034	1.0909	0.1	-7.411e-002
27176	3.1119	1.3636	0.1	-4.0938e-002
27177	3.2034	1.2727	0.1	-4.9067e-002
27178	3.1119	1.5455	0.1	-2.3648e-002
27179	3.2034	1.4545	0.1	-3.0276e-002
27180	3.1119	1.7273	0.1	-1.0154e-002
27181	3.2034	1.6364	0.1	-1.5428e-002
27182	3.1119	1.9091	0.1	2.3207e-004
27183	3.2034	1.8182	0.1	-3.8823e-003
27184	3.1119	2.0909	0.1	8.1172e-003
27185	3.2034	2.	0.1	5.0354e-003
27186	3.1119	2.2727	0.1	1.3956e-002
27187	3.2034	2.1818	0.1	1.1784e-002
27188	3.1119	2.4545	0.1	1.8118e-002
27189	3.2034	2.3636	0.1	1.6741e-002
27190	3.1119	2.6364	0.1	2.0886e-002
27191	3.2034	2.5455	0.1	2.0199e-002
27192	3.1119	2.8182	0.1	2.2466e-002
27193	3.2034	2.7273	0.1	2.2382e-002
27194	3.1119	3.	0.1	2.2979e-002
27195	3.2034	2.9091	0.1	2.3437e-002
27196	3.1119	3.1818	0.1	2.2466e-002
27197	3.2034	3.0909	0.1	2.3437e-002
27198	3.1119	3.3636	0.1	2.0886e-002
27199	3.2034	3.2727	0.1	2.2382e-002
27200	3.1119	3.5455	0.1	1.8118e-002
27201	3.2034	3.4545	0.1	2.0199e-002
27202	3.1119	3.7273	0.1	1.3957e-002
27203	3.2034	3.6364	0.1	1.6741e-002
27204	3.1119	3.9091	0.1	8.1176e-003
27205	3.2034	3.8182	0.1	1.1784e-002
27206	3.1119	4.0909	0.1	2.3251e-004
27207	3.2034	4.	0.1	5.0358e-003
27208	3.1119	4.2727	0.1	-1.0154e-002
27209	3.2034	4.1818	0.1	-3.8818e-003
27210	3.1119	4.4545	0.1	-2.3648e-002
27211	3.2034	4.3636	0.1	-1.5427e-002
27212	3.1119	4.6364	0.1	-4.0937e-002
27213	3.2034	4.5455	0.1	-3.0276e-002
27214	3.1119	4.8182	0.1	-6.353e-002
27215	3.2034	4.7273	0.1	-4.9067e-002
27216	3.1119	5.	0.1	-9.1961e-002
27217	3.2034	4.9091	0.1	-7.4109e-002
27218	3.1119	5.1818	0.1	-0.13611
27219	3.2034	5.0909	0.1	-0.10432
27220	3.1119	5.3636	0.1	-0.18085
27221	3.2034	5.2727	0.1	-0.16038
27222	3.1119	5.5455	0.1	-0.3887
27223	3.2034	5.4545	0.1	-0.19478
27224	3.1119	5.7273	0.1	-0.68464
27225	3.2034	5.6364	0.1	-0.5798
27226	3.2034	5.8182	0.1	-1.0814
27227	3.1119	5.9091	0.1	-0.46714
27228	3.2949	0.27273	0.1	-0.60117
27229	3.3864	0.18182	0.1	-0.90419
27230	3.2949	9.0909e-002	0.1	-0.42323
27231	3.2949	0.45455	0.1	-0.35206
27232	3.3864	0.36364	0.1	-0.52537
27233	3.2949	0.63636	0.1	-0.16344
27234	3.3864	0.54545	0.1	-0.17531
27235	3.2949	0.81818	0.1	-0.12365
27236	3.3864	0.72727	0.1	-0.1456
27237	3.2949	1.	0.1	-8.3709e-002
27238	3.3864	0.90909	0.1	-9.484e-002
27239	3.2949	1.1818	0.1	-5.7898e-002
27240	3.3864	1.0909	0.1	-6.7529e-002
27241	3.2949	1.3636	0.1	-3.7191e-002
27242	3.3864	1.2727	0.1	-4.4687e-002
27243	3.2949	1.5455	0.1	-2.1153e-002
27244	3.3864	1.4545	0.1	-2.7386e-002
27245	3.2949	1.7273	0.1	-8.4485e-003
27246	3.3864	1.6364	0.1	-1.3544e-002
27247	3.2949	1.9091	0.1	1.499e-003
27248	3.3864	1.8182	0.1	-2.6199e-003
27249	3.2949	2.0909	0.1	9.1918e-003
27250	3.3864	2.	0.1	5.9562e-003
27251	3.2949	2.2727	0.1	1.4997e-002
27252	3.3864	2.1818	0.1	1.2558e-002
27253	3.2949	2.4545	0.1	1.9208e-002
27254	3.3864	2.3636	0.1	1.7487e-002
27255	3.2949	2.6364	0.1	2.2053e-002
27256	3.3864	2.5455	0.1	2.0978e-002
27257	3.2949	2.8182	0.1	2.3695e-002
27258	3.3864	2.7273	0.1	2.3208e-002
27259	3.2949	3.	0.1	2.4232e-002
27260	3.3864	2.9091	0.1	2.4294e-002
27261	3.2949	3.1818	0.1	2.3695e-002
27262	3.3864	3.0909	0.1	2.4294e-002
27263	3.2949	3.3636	0.1	2.2053e-002
27264	3.3864	3.2727	0.1	2.3208e-002
27265	3.2949	3.5455	0.1	1.9208e-002
27266	3.3864	3.4545	0.1	2.0978e-002
27267	3.2949	3.7273	0.1	1.4997e-002
27268	3.3864	3.6364	0.1	1.7487e-002
27269	3.2949	3.9091	0.1	9.1921e-003
27270	3.3864	3.8182	0.1	1.2558e-002
27271	3.2949	4.0909	0.1	1.4994e-003
27272	3.3864	4.	0.1	5.9566e-003
27273	3.2949	4.2727	0.1	-8.448e-003
27274	3.3864	4.1818	0.1	-2.6195e-003
27275	3.2949	4.4545	0.1	-2.1152e-002
27276	3.3864	4.3636	0.1	-1.3543e-002
27277	3.2949	4.6364	0.1	-3.719e-002
27278	3.3864	4.5455	0.1	-2.7386e-002
27279	3.2949	4.8182	0.1	-5.7897e-002
27280	3.3864	4.7273	0.1	-4.4686e-002
27281	3.2949	5.	0.1	-8.3708e-002
27282	3.3864	4.9091	0.1	-6.7528e-002
27283	3.2949	5.1818	0.1	-0.12365
27284	3.3864	5.0909	0.1	-9.4839e-002
27285	3.2949	5.3636	0.1	-0.16344
27286	3.3864	5.2727	0.1	-0.1456
27287	3.2949	5.5455	0.1	-0.35206
27288	3.3864	5.4545	0.1	-0.17531
27289	3.2949	5.7273	0.1	-0.60117
27290	3.3864	5.6364	0.1	-0.52537
27291	3.3864	5.8182	0.1	-0.90419
27292	3.2949	5.9091	0.1	-0.42323
27293	3.478	0.27273	0.1	-0.52995
27294	3.5695	0.18182	0.1	-0.76272
27295	3.478	9.0909e-002	0.1	-0.38554
27296	3.478	0.45455	0.1	-0.31926
27297	3.5695	0.36364	0.1	-0.47668
27298	3.478	0.63636	0.1	-0.14786
27299	3.5695	0.54545	0.1	-0.158
27300	3.478	0.81818	0.1	-0.11239
27301	3.5695	0.72727	0.1	-0.13228
27302	3.478	1.	0.1	-7.6205e-002
27303	3.5695	0.90909	0.1	-8.6259e-002
27304	3.478	1.1818	0.1	-5.276e-002
27305	3.5695	1.0909	0.1	-6.1542e-002
27306	3.478	1.3636	0.1	-3.38e-002
27307	3.5695	1.2727	0.1	-4.071e-002
27308	3.478	1.5455	0.1	-1.8972e-002
27309	3.5695	1.4545	0.1	-2.481e-002
27310	3.478	1.7273	0.1	-7.0831e-003
27311	3.5695	1.6364	0.1	-1.1958e-002
27312	3.478	1.9091	0.1	2.355e-003
27313	3.5695	1.8182	0.1	-1.6928e-003
27314	3.478	2.0909	0.1	9.7621e-003
27315	3.5695	2.	0.1	6.4725e-003
27316	3.478	2.2727	0.1	1.5435e-002
27317	3.5695	2.1818	0.1	1.2844e-002
27318	3.478	2.4545	0.1	1.9607e-002
27319	3.5695	2.3636	0.1	1.7663e-002
27320	3.478	2.6364	0.1	2.2459e-002
27321	3.5695	2.5455	0.1	2.1116e-002
27322	3.478	2.8182	0.1	2.4119e-002
27323	3.5695	2.7273	0.1	2.3342e-002
27324	3.478	3.	0.1	2.4664e-002
27325	3.5695	2.9091	0.1	2.4433e-002
27326	3.478	3.1818	0.1	2.4119e-002
27327	3.5695	3.0909	0.1	2.4433e-002
27328	3.478	3.3636	0.1	2.2459e-002
27329	3.5695	3.2727	0.1	2.3342e-002
27330	3.478	3.5455	0.1	1.9607e-002
27331	3.5695	3.4545	0.1	2.1116e-002
27332	3.478	3.7273	0.1	1.5435e-002
27333	3.5695	3.6364	0.1	1.7664e-002
27334	3.478	3.9091	0.1	9.7625e-003
27335	3.5695	3.8182	0.1	1.2844e-002
27336	3.478	4.0909	0.1	2.3554e-003
27337	3.5695	4.	0.1	6.4729e-003
27338	3.478	4.2727	0.1	-7.0826e-003
27339	3.5695	4.1818	0.1	-1.6923e-003
27340	3.478	4.4545	0.1	-1.8971e-002
27341	3.5695	4.3636	0.1	-1.1957e-002
27342	3.478	4.6364	0.1	-3.3799e-002
27343	3.5695	4.5455	0.1	-2.481e-002
27344	3.478	4.8182	0.1	-5.276e-002
27345	3.5695	4.7273	0.1	-4.0709e-002
27346	3.478	5.	0.1	-7.6204e-002
27347	3.5695	4.9091	0.1	-6.1542e-002
27348	3.478	5.1818	0.1	-0.11239
27349	3.5695	5.0909	0.1	-8.6258e-002
27350	3.478	5.3636	0.1	-0.14786
27351	3.5695	5.2727	0.1	-0.13228
27352	3.478	5.5455	0.1	-0.31926
27353	3.5695	5.4545	0.1	-0.158
27354	3.478	5.7273	0.1	-0.52994
27355	3.5695	5.6364	0.1	-0.47667
27356	3.5695	5.8182	0.1	-0.76272
27357	3.478	5.9091	0.1	-0.38553
27358	3.661	0.27273	0.1	-0.46878
27359	3.7525	0.18182	0.1	-0.64838
27360	3.661	9.0909e-002	0.1	-0.35264
27361	3.661	0.45455	0.1	-0.2898
27362	3.7525	0.36364	0.1	-0.43295
27363	3.661	0.63636	0.1	-0.1339
27364	3.7525	0.54545	0.1	-0.14257
27365	3.661	0.81818	0.1	-0.10223
27366	3.7525	0.72727	0.1	-0.12026
27367	3.661	1.	0.1	-6.9405e-002
27368	3.7525	0.90909	0.1	-7.8503e-002
27369	3.661	1.1818	0.1	-4.81e-002
27370	3.7525	1.0909	0.1	-5.6116e-002
27371	3.661	1.3636	0.1	-3.0752e-002
27372	3.7525	1.2727	0.1	-3.7117e-002
27373	3.661	1.5455	0.1	-1.7076e-002
27374	3.7525	1.4545	0.1	-2.2525e-002
27375	3.661	1.7273	0.1	-6.0015e-003
27376	3.7525	1.6364	0.1	-1.0628e-002
27377	3.661	1.9091	0.1	2.8891e-003
27378	3.7525	1.8182	0.1	-1.0323e-003
27379	3.661	2.0909	0.1	9.9496e-003
27380	3.7525	2.	0.1	6.6826e-003
27381	3.661	2.2727	0.1	1.5421e-002
27382	3.7525	2.1818	0.1	1.2768e-002
27383	3.661	2.4545	0.1	1.9489e-002
27384	3.7525	2.3636	0.1	1.742e-002
27385	3.661	2.6364	0.1	2.2295e-002
27386	3.7525	2.5455	0.1	2.0784e-002
27387	3.661	2.8182	0.1	2.3939e-002
27388	3.7525	2.7273	0.1	2.2968e-002
27389	3.661	3.	0.1	2.448e-002
27390	3.7525	2.9091	0.1	2.4042e-002
27391	3.661	3.1818	0.1	2.3939e-002
27392	3.7525	3.0909	0.1	2.4042e-002
27393	3.661	3.3636	0.1	2.2295e-002
27394	3.7525	3.2727	0.1	2.2968e-002
27395	3.661	3.5455	0.1	1.9489e-002
27396	3.7525	3.4545	0.1	2.0784e-002
27397	3.661	3.7273	0.1	1.5421e-002
27398	3.7525	3.6364	0.1	1.7421e-002
27399	3.661	3.9091	0.1	9.95e-003
27400	3.7525	3.8182	0.1	1.2769e-002
27401	3.661	4.0909	0.1	2.8896e-003
27402	3.7525	4.	0.1	6.6829e-003
27403	3.661	4.2727	0.1	-6.001e-003
27404	3.7525	4.1818	0.1	-1.0319e-003
27405	3.661	4.4545	0.1	-1.7075e-002
27406	3.7525	4.3636	0.1	-1.0627e-002
27407	3.661	4.6364	0.1	-3.0752e-002
27408	3.7525	4.5455	0.1	-2.2524e-002
27409	3.661	4.8182	0.1	-4.81e-002
27410	3.7525	4.7273	0.1	-3.7116e-002
27411	3.661	5.	0.1	-6.9404e-002
27412	3.7525	4.9091	0.1	-5.6115e-002
27413	3.661	5.1818	0.1	-0.10223
27414	3.7525	5.0909	0.1	-7.8502e-002
27415	3.661	5.3636	0.1	-0.1339
27416	3.7525	5.2727	0.1	-0.12026
27417	3.661	5.5455	0.1	-0.2898
27418	3.7525	5.4545	0.1	-0.14257
27419	3.661	5.7273	0.1	-0.46877
27420	3.7525	5.6364	0.1	-0.43295
27421	3.7525	5.8182	0.1	-0.64838
27422	3.661	5.9091	0.1	-0.35264
27423	3.8441	0.27273	0.1	-0.41593
27424	3.9356	0.18182	0.1	-0.55499
27425	3.8441	9.0909e-002	0.1	-0.32358
27426	3.8441	0.45455	0.1	-0.26327
27427	3.9356	0.36364	0.1	-0.39355
27428	3.8441	0.63636	0.1	-0.12136
27429	3.9356	0.54545	0.1	-0.12881
27430	3.8441	0.81818	0.1	-9.3041e-002
27431	3.9356	0.72727	0.1	-0.10942
27432	3.8441	1.	0.1	-6.3253e-002
27433	3.9356	0.90909	0.1	-7.1507e-002
27434	3.8441	1.1818	0.1	-4.3886e-002
27435	3.9356	1.0909	0.1	-5.1217e-002
27436	3.8441	1.3636	0.1	-2.8022e-002
27437	3.9356	1.2727	0.1	-3.3891e-002
27438	3.8441	1.5455	0.1	-1.5431e-002
27439	3.9356	1.4545	0.1	-2.0512e-002
27440	3.8441	1.7273	0.1	-5.151e-003
27441	3.9356	1.6364	0.1	-9.5249e-003
27442	3.8441	1.9091	0.1	3.1784e-003
27443	3.9356	1.8182	0.1	-5.8975e-004
27444	3.8441	2.0909	0.1	9.8576e-003
27445	3.9356	2.	0.1	6.658e-003
27446	3.8441	2.2727	0.1	1.5083e-002
27447	3.9356	2.1818	0.1	1.2427e-002
27448	3.8441	2.4545	0.1	1.9001e-002
27449	3.9356	2.3636	0.1	1.6874e-002
27450	3.8441	2.6364	0.1	2.1724e-002
27451	3.9356	2.5455	0.1	2.0113e-002
27452	3.8441	2.8182	0.1	2.3328e-002
27453	3.9356	2.7273	0.1	2.2228e-002
27454	3.8441	3.	0.1	2.3857e-002
27455	3.9356	2.9091	0.1	2.3273e-002
27456	3.8441	3.1818	0.1	2.3328e-002
27457	3.9356	3.0909	0.1	2.3273e-002
27458	3.8441	3.3636	0.1	2.1724e-002
27459	3.9356	3.2727	0.1	2.2228e-002
27460	3.8441	3.5455	0.1	1.9002e-002
27461	3.9356	3.4545	0.1	2.0113e-002
27462	3.8441	3.7273	0.1	1.5083e-002
27463	3.9356	3.6364	0.1	1.6874e-002
27464	3.8441	3.9091	0.1	9.8579e-003
27465	3.9356	3.8182	0.1	1.2427e-002
27466	3.8441	4.0909	0.1	3.1788e-003
27467	3.9356	4.	0.1	6.6584e-003
27468	3.8441	4.2727	0.1	-5.1504e-003
27469	3.9356	4.1818	0.1	-5.893e-004
27470	3.8441	4.4545	0.1	-1.543e-002
27471	3.9356	4.3636	0.1	-9.5243e-003
27472	3.8441	4.6364	0.1	-2.8022e-002
27473	3.9356	4.5455	0.1	-2.0511e-002
27474	3.8441	4.8182	0.1	-4.3885e-002
27475	3.9356	4.7273	0.1	-3.3891e-002
27476	3.8441	5.	0.1	-6.3252e-002
27477	3.9356	4.9091	0.1	-5.1216e-002
27478	3.8441	5.1818	0.1	-9.304e-002
27479	3.9356	5.0909	0.1	-7.1506e-002
27480	3.8441	5.3636	0.1	-0.12136
27481	3.9356	5.2727	0.1	-0.10942
27482	3.8441	5.5455	0.1	-0.26327
27483	3.9356	5.4545	0.1	-0.12881
27484	3.8441	5.7273	0.1	-0.41592
27485	3.9356	5.6364	0.1	-0.39355
27486	3.9356	5.8182	0.1	-0.55499
27487	3.8441	5.9091	0.1	-0.32358
27488	4.0271	0.27273	0.1	-0.37003
27489	4.1186	0.18182	0.1	-0.47802
27490	4.0271	9.0909e-002	0.1	-0.29766
27491	4.0271	0.45455	0.1	-0.23933
27492	4.1186	0.36364	0.1	-0.35794
27493	4.0271	0.63636	0.1	-0.11011
27494	4.1186	0.54545	0.1	-0.11651
27495	4.0271	0.81818	0.1	-8.4758e-002
27496	4.1186	0.72727	0.1	-9.9649e-002
27497	4.0271	1.	0.1	-5.7712e-002
27498	4.1186	0.90909	0.1	-6.5214e-002
27499	4.0271	1.1818	0.1	-4.0103e-002
27500	4.1186	1.0909	0.1	-4.6818e-002
27501	4.0271	1.3636	0.1	-2.5603e-002
27502	4.1186	1.2727	0.1	-3.102e-002
27503	4.0271	1.5455	0.1	-1.4026e-002
27504	4.1186	1.4545	0.1	-1.8761e-002
27505	4.0271	1.7273	0.1	-4.5071e-003
27506	4.1186	1.6364	0.1	-8.63e-003
27507	4.0271	1.9091	0.1	3.2656e-003
27508	4.1186	1.8182	0.1	-3.3274e-004
27509	4.0271	2.0909	0.1	9.5487e-003
27510	4.1186	2.	0.1	6.4486e-003
27511	4.0271	2.2727	0.1	1.4503e-002
27512	4.1186	2.1818	0.1	1.1887e-002
27513	4.0271	2.4545	0.1	1.8245e-002
27514	4.1186	2.3636	0.1	1.6109e-002
27515	4.0271	2.6364	0.1	2.086e-002
27516	4.1186	2.5455	0.1	1.9203e-002
27517	4.0271	2.8182	0.1	2.2406e-002
27518	4.1186	2.7273	0.1	2.1233e-002
27519	4.0271	3.	0.1	2.2918e-002
27520	4.1186	2.9091	0.1	2.2238e-002
27521	4.0271	3.1818	0.1	2.2407e-002
27522	4.1186	3.0909	0.1	2.2238e-002
27523	4.0271	3.3636	0.1	2.086e-002
27524	4.1186	3.2727	0.1	2.1233e-002
27525	4.0271	3.5455	0.1	1.8245e-002
27526	4.1186	3.4545	0.1	1.9203e-002
27527	4.0271	3.7273	0.1	1.4503e-002
27528	4.1186	3.6364	0.1	1.611e-002
27529	4.0271	3.9091	0.1	9.5491e-003
27530	4.1186	3.8182	0.1	1.1888e-002
27531	4.0271	4.0909	0.1	3.266e-003
27532	4.1186	4.	0.1	6.4491e-003
27533	4.0271	4.2727	0.1	-4.5066e-003
27534	4.1186	4.1818	0.1	-3.3231e-004
27535	4.0271	4.4545	0.1	-1.4025e-002
27536	4.1186	4.3636	0.1	-8.6294e-003
27537	4.0271	4.6364	0.1	-2.5602e-002
27538	4.1186	4.5455	0.1	-1.876e-002
27539	4.0271	4.8182	0.1	-4.0103e-002
27540	4.1186	4.7273	0.1	-3.1019e-002
27541	4.0271	5.	0.1	-5.7711e-002
27542	4.1186	4.9091	0.1	-4.6817e-002
27543	4.0271	5.1818	0.1	-8.4757e-002
27544	4.1186	5.0909	0.1	-6.5213e-002
27545	4.0271	5.3636	0.1	-0.11011
27546	4.1186	5.2727	0.1	-9.9648e-002
27547	4.0271	5.5455	0.1	-0.23933
27548	4.1186	5.4545	0.1	-0.11651
27549	4.0271	5.7273	0.1	-0.37002
27550	4.1186	5.6364	0.1	-0.35794
27551	4.1186	5.8182	0.1	-0.47801
27552	4.0271	5.9091	0.1	-0.29766
27553	4.2102	0.27273	0.1	-0.32996
27554	4.3017	0.18182	0.1	-0.41406
27555	4.2102	9.0909e-002	0.1	-0.27437
27556	4.2102	0.45455	0.1	-0.21767
27557	4.3017	0.36364	0.1	-0.32566
27558	4.2102	0.63636	0.1	-0.10001
27559	4.3017	0.54545	0.1	-0.10551
27560	4.2102	0.81818	0.1	-7.7298e-002
27561	4.3017	0.72727	0.1	-9.084e-002
27562	4.2102	1.	0.1	-5.2739e-002
27563	4.3017	0.90909	0.1	-5.9569e-002
27564	4.2102	1.1818	0.1	-3.6729e-002
27565	4.3017	1.0909	0.1	-4.2888e-002
27566	4.2102	1.3636	0.1	-2.3478e-002
27567	4.3017	1.2727	0.1	-2.8485e-002
27568	4.2102	1.5455	0.1	-1.2843e-002
27569	4.3017	1.4545	0.1	-1.7258e-002
27570	4.2102	1.7273	0.1	-4.0444e-003
27571	4.3017	1.6364	0.1	-7.9257e-003
27572	4.2102	1.9091	0.1	3.1892e-003
27573	4.3017	1.8182	0.1	-2.339e-004
27574	4.2102	2.0909	0.1	9.0773e-003
27575	4.3017	2.	0.1	6.0945e-003
27576	4.2102	2.2727	0.1	1.3751e-002
27577	4.3017	2.1818	0.1	1.1203e-002
27578	4.2102	2.4545	0.1	1.7302e-002
27579	4.3017	2.3636	0.1	1.5194e-002
27580	4.2102	2.6364	0.1	1.9796e-002
27581	4.3017	2.5455	0.1	1.8132e-002
27582	4.2102	2.8182	0.1	2.1276e-002
27583	4.3017	2.7273	0.1	2.0068e-002
27584	4.2102	3.	0.1	2.1767e-002
27585	4.3017	2.9091	0.1	2.103e-002
27586	4.2102	3.1818	0.1	2.1276e-002
27587	4.3017	3.0909	0.1	2.103e-002
27588	4.2102	3.3636	0.1	1.9796e-002
27589	4.3017	3.2727	0.1	2.0068e-002
27590	4.2102	3.5455	0.1	1.7302e-002
27591	4.3017	3.4545	0.1	1.8132e-002
27592	4.2102	3.7273	0.1	1.3751e-002
27593	4.3017	3.6364	0.1	1.5194e-002
27594	4.2102	3.9091	0.1	9.0777e-003
27595	4.3017	3.8182	0.1	1.1204e-002
27596	4.2102	4.0909	0.1	3.1897e-003
27597	4.3017	4.	0.1	6.0949e-003
27598	4.2102	4.2727	0.1	-4.0438e-003
27599	4.3017	4.1818	0.1	-2.3343e-004
27600	4.2102	4.4545	0.1	-1.2842e-002
27601	4.3017	4.3636	0.1	-7.9251e-003
27602	4.2102	4.6364	0.1	-2.3477e-002
27603	4.3017	4.5455	0.1	-1.7257e-002
27604	4.2102	4.8182	0.1	-3.6728e-002
27605	4.3017	4.7273	0.1	-2.8485e-002
27606	4.2102	5.	0.1	-5.2738e-002
27607	4.3017	4.9091	0.1	-4.2888e-002
27608	4.2102	5.1818	0.1	-7.7297e-002
27609	4.3017	5.0909	0.1	-5.9567e-002
27610	4.2102	5.3636	0.1	-0.10001
27611	4.3017	5.2727	0.1	-9.0839e-002
27612	4.2102	5.5455	0.1	-0.21766
27613	4.3017	5.4545	0.1	-0.10551
27614	4.2102	5.7273	0.1	-0.32996
27615	4.3017	5.6364	0.1	-0.32565
27616	4.3017	5.8182	0.1	-0.41406
27617	4.2102	5.9091	0.1	-0.27437
27618	4.3932	0.27273	0.1	-0.29483
27619	4.4847	0.18182	0.1	-0.36052
27620	4.3932	9.0909e-002	0.1	-0.25332
27621	4.3932	0.45455	0.1	-0.19803
27622	4.4847	0.36364	0.1	-0.2963
27623	4.3932	0.63636	0.1	-9.0939e-002
27624	4.4847	0.54545	0.1	-9.5661e-002
27625	4.3932	0.81818	0.1	-7.059e-002
27626	4.4847	0.72727	0.1	-8.2902e-002
27627	4.3932	1.	0.1	-4.8296e-002
27628	4.4847	0.90909	0.1	-5.4519e-002
27629	4.3932	1.1818	0.1	-3.374e-002
27630	4.4847	1.0909	0.1	-3.9397e-002
27631	4.3932	1.3636	0.1	-2.1634e-002
27632	4.4847	1.2727	0.1	-2.6269e-002
27633	4.3932	1.5455	0.1	-1.187e-002
27634	4.4847	1.4545	0.1	-1.5988e-002
27635	4.3932	1.7273	0.1	-3.7439e-003
27636	4.4847	1.6364	0.1	-7.3951e-003
27637	4.3932	1.9091	0.1	2.9777e-003
27638	4.4847	1.8182	0.1	-2.6985e-004
27639	4.3932	2.0909	0.1	8.4832e-003
27640	4.4847	2.	0.1	5.6286e-003
27641	4.3932	2.2727	0.1	1.2879e-002
27642	4.4847	2.1818	0.1	1.0419e-002
27643	4.3932	2.4545	0.1	1.6236e-002
27644	4.4847	2.3636	0.1	1.4181e-002
27645	4.3932	2.6364	0.1	1.8604e-002
27646	4.4847	2.5455	0.1	1.6964e-002
27647	4.3932	2.8182	0.1	2.0014e-002
27648	4.4847	2.7273	0.1	1.8804e-002
27649	4.3932	3.	0.1	2.0482e-002
27650	4.4847	2.9091	0.1	1.9719e-002
27651	4.3932	3.1818	0.1	2.0014e-002
27652	4.4847	3.0909	0.1	1.9719e-002
27653	4.3932	3.3636	0.1	1.8604e-002
27654	4.4847	3.2727	0.1	1.8804e-002
27655	4.3932	3.5455	0.1	1.6237e-002
27656	4.4847	3.4545	0.1	1.6964e-002
27657	4.3932	3.7273	0.1	1.2879e-002
27658	4.4847	3.6364	0.1	1.4181e-002
27659	4.3932	3.9091	0.1	8.4835e-003
27660	4.4847	3.8182	0.1	1.0419e-002
27661	4.3932	4.0909	0.1	2.9782e-003
27662	4.4847	4.	0.1	5.629e-003
27663	4.3932	4.2727	0.1	-3.7435e-003
27664	4.4847	4.1818	0.1	-2.6933e-004
27665	4.3932	4.4545	0.1	-1.1869e-002
27666	4.4847	4.3636	0.1	-7.3946e-003
27667	4.3932	4.6364	0.1	-2.1634e-002
27668	4.4847	4.5455	0.1	-1.5988e-002
27669	4.3932	4.8182	0.1	-3.3739e-002
27670	4.4847	4.7273	0.1	-2.6268e-002
27671	4.3932	5.	0.1	-4.8295e-002
27672	4.4847	4.9091	0.1	-3.9397e-002
27673	4.3932	5.1818	0.1	-7.0589e-002
27674	4.4847	5.0909	0.1	-5.4518e-002
27675	4.3932	5.3636	0.1	-9.0939e-002
27676	4.4847	5.2727	0.1	-8.2901e-002
27677	4.3932	5.5455	0.1	-0.19803
27678	4.4847	5.4545	0.1	-9.566e-002
27679	4.3932	5.7273	0.1	-0.29482
27680	4.4847	5.6364	0.1	-0.2963
27681	4.4847	5.8182	0.1	-0.36052
27682	4.3932	5.9091	0.1	-0.25332
27683	4.5763	0.27273	0.1	-0.26386
27684	4.6678	0.18182	0.1	-0.31539
27685	4.5763	9.0909e-002	0.1	-0.2342
27686	4.5763	0.45455	0.1	-0.18019
27687	4.6678	0.36364	0.1	-0.26952
27688	4.5763	0.63636	0.1	-8.279e-002
27689	4.6678	0.54545	0.1	-8.6847e-002
27690	4.5763	0.81818	0.1	-6.4566e-002
27691	4.6678	0.72727	0.1	-7.5759e-002
27692	4.5763	1.	0.1	-4.4341e-002
27693	4.6678	0.90909	0.1	-5.0023e-002
27694	4.5763	1.1818	0.1	-3.1111e-002
27695	4.6678	1.0909	0.1	-3.6321e-002
27696	4.5763	1.3636	0.1	-2.0053e-002
27697	4.6678	1.2727	0.1	-2.4357e-002
27698	4.5763	1.5455	0.1	-1.1088e-002
27699	4.6678	1.4545	0.1	-1.4943e-002
27700	4.5763	1.7273	0.1	-3.5851e-003
27701	4.6678	1.6364	0.1	-7.0287e-003
27702	4.5763	1.9091	0.1	2.6585e-003
27703	4.6678	1.8182	0.1	-4.266e-004
27704	4.5763	2.0909	0.1	7.8024e-003
27705	4.6678	2.	0.1	5.0716e-003
27706	4.5763	2.2727	0.1	1.1932e-002
27707	4.6678	2.1818	0.1	9.5627e-003
27708	4.5763	2.4545	0.1	1.5101e-002
27709	4.6678	2.3636	0.1	1.3108e-002
27710	4.5763	2.6364	0.1	1.7345e-002
27711	4.6678	2.5455	0.1	1.5741e-002
27712	4.5763	2.8182	0.1	1.8684e-002
27713	4.6678	2.7273	0.1	1.7488e-002
27714	4.5763	3.	0.1	1.913e-002
27715	4.6678	2.9091	0.1	1.836e-002
27716	4.5763	3.1818	0.1	1.8684e-002
27717	4.6678	3.0909	0.1	1.836e-002
27718	4.5763	3.3636	0.1	1.7345e-002
27719	4.6678	3.2727	0.1	1.7489e-002
27720	4.5763	3.5455	0.1	1.5101e-002
27721	4.6678	3.4545	0.1	1.5742e-002
27722	4.5763	3.7273	0.1	1.1932e-002
27723	4.6678	3.6364	0.1	1.3108e-002
27724	4.5763	3.9091	0.1	7.8028e-003
27725	4.6678	3.8182	0.1	9.5631e-003
27726	4.5763	4.0909	0.1	2.659e-003
27727	4.6678	4.	0.1	5.0721e-003
27728	4.5763	4.2727	0.1	-3.5845e-003
27729	4.6678	4.1818	0.1	-4.2603e-004
27730	4.5763	4.4545	0.1	-1.1088e-002
27731	4.6678	4.3636	0.1	-7.0281e-003
27732	4.5763	4.6364	0.1	-2.0053e-002
27733	4.6678	4.5455	0.1	-1.4942e-002
27734	4.5763	4.8182	0.1	-3.111e-002
27735	4.6678	4.7273	0.1	-2.4357e-002
27736	4.5763	5.	0.1	-4.434e-002
27737	4.6678	4.9091	0.1	-3.632e-002
27738	4.5763	5.1818	0.1	-6.4565e-002
27739	4.6678	5.0909	0.1	-5.0022e-002
27740	4.5763	5.3636	0.1	-8.279e-002
27741	4.6678	5.2727	0.1	-7.5758e-002
27742	4.5763	5.5455	0.1	-0.18019
27743	4.6678	5.4545	0.1	-8.6847e-002
27744	4.5763	5.7273	0.1	-0.26386
27745	4.6678	5.6364	0.1	-0.26952
27746	4.6678	5.8182	0.1	-0.31539
27747	4.5763	5.9091	0.1	-0.2342
27748	4.7593	0.27273	0.1	-0.23645
27749	4.8508	0.18182	0.1	-0.27711
27750	4.7593	9.0909e-002	0.1	-0.21677
27751	4.7593	0.45455	0.1	-0.16395
27752	4.8508	0.36364	0.1	-0.24503
27753	4.7593	0.63636	0.1	-7.5484e-002
27754	4.8508	0.54545	0.1	-7.8964e-002
27755	4.7593	0.81818	0.1	-5.918e-002
27756	4.8508	0.72727	0.1	-6.9349e-002
27757	4.7593	1.	0.1	-4.0851e-002
27758	4.8508	0.90909	0.1	-4.6048e-002
27759	4.7593	1.1818	0.1	-2.8832e-002
27760	4.8508	1.0909	0.1	-3.3642e-002
27761	4.7593	1.3636	0.1	-1.8733e-002
27762	4.8508	1.2727	0.1	-2.2744e-002
27763	4.7593	1.5455	0.1	-1.0498e-002
27764	4.8508	1.4545	0.1	-1.412e-002
27765	4.7593	1.7273	0.1	-3.5656e-003
27766	4.8508	1.6364	0.1	-6.8243e-003
27767	4.7593	1.9091	0.1	2.2386e-003
27768	4.8508	1.8182	0.1	-6.9892e-004
27769	4.7593	2.0909	0.1	7.0488e-003
27770	4.8508	2.	0.1	4.4342e-003
27771	4.7593	2.2727	0.1	1.0931e-002
27772	4.8508	2.1818	0.1	8.6519e-003
27773	4.7593	2.4545	0.1	1.3924e-002
27774	4.8508	2.3636	0.1	1.1998e-002
27775	4.7593	2.6364	0.1	1.6051e-002
27776	4.8508	2.5455	0.1	1.4495e-002
27777	4.7593	2.8182	0.1	1.7324e-002
27778	4.8508	2.7273	0.1	1.6156e-002
27779	4.7593	3.	0.1	1.7748e-002
27780	4.8508	2.9091	0.1	1.6986e-002
27781	4.7593	3.1818	0.1	1.7324e-002
27782	4.8508	3.0909	0.1	1.6986e-002
27783	4.7593	3.3636	0.1	1.6051e-002
27784	4.8508	3.2727	0.1	1.6156e-002
27785	4.7593	3.5455	0.1	1.3925e-002
27786	4.8508	3.4545	0.1	1.4495e-002
27787	4.7593	3.7273	0.1	1.0931e-002
27788	4.8508	3.6364	0.1	1.1998e-002
27789	4.7593	3.9091	0.1	7.0491e-003
27790	4.8508	3.8182	0.1	8.6522e-003
27791	4.7593	4.0909	0.1	2.2392e-003
27792	4.8508	4.	0.1	4.4347e-003
27793	4.7593	4.2727	0.1	-3.565e-003
27794	4.8508	4.1818	0.1	-6.9836e-004
27795	4.7593	4.4545	0.1	-1.0498e-002
27796	4.8508	4.3636	0.1	-6.8237e-003
27797	4.7593	4.6364	0.1	-1.8732e-002
27798	4.8508	4.5455	0.1	-1.4119e-002
27799	4.7593	4.8182	0.1	-2.8831e-002
27800	4.8508	4.7273	0.1	-2.2744e-002
27801	4.7593	5.	0.1	-4.085e-002
27802	4.8508	4.9091	0.1	-3.3642e-002
27803	4.7593	5.1818	0.1	-5.9179e-002
27804	4.8508	5.0909	0.1	-4.6046e-002
27805	4.7593	5.3636	0.1	-7.5483e-002
27806	4.8508	5.2727	0.1	-6.9348e-002
27807	4.7593	5.5455	0.1	-0.16395
27808	4.8508	5.4545	0.1	-7.8964e-002
27809	4.7593	5.7273	0.1	-0.23645
27810	4.8508	5.6364	0.1	-0.24502
27811	4.8508	5.8182	0.1	-0.27711
27812	4.7593	5.9091	0.1	-0.21677
27813	4.9424	0.27273	0.1	-0.21208
27814	5.0339	0.18182	0.1	-0.24442
27815	4.9424	9.0909e-002	0.1	-0.20081
27816	4.9424	0.45455	0.1	-0.14914
27817	5.0339	0.36364	0.1	-0.22255
27818	4.9424	0.63636	0.1	-6.8945e-002
27819	5.0339	0.54545	0.1	-7.1925e-002
27820	4.9424	0.81818	0.1	-5.4386e-002
27821	5.0339	0.72727	0.1	-6.3615e-002
27822	4.9424	1.	0.1	-3.7801e-002
27823	5.0339	0.90909	0.1	-4.2566e-002
27824	4.9424	1.1818	0.1	-2.6891e-002
27825	5.0339	1.0909	0.1	-3.1348e-002
27826	4.9424	1.3636	0.1	-1.7666e-002
27827	5.0339	1.2727	0.1	-2.1425e-002
27828	4.9424	1.5455	0.1	-1.0097e-002
27829	5.0339	1.4545	0.1	-1.3518e-002
27830	4.9424	1.7273	0.1	-3.6808e-003
27831	5.0339	1.6364	0.1	-6.7815e-003
27832	4.9424	1.9091	0.1	1.7264e-003
27833	5.0339	1.8182	0.1	-1.0842e-003
27834	4.9424	2.0909	0.1	6.2354e-003
27835	5.0339	2.	0.1	3.7232e-003
27836	4.9424	2.2727	0.1	9.8953e-003
27837	5.0339	2.1818	0.1	7.6982e-003
27838	4.9424	2.4545	0.1	1.273e-002
27839	5.0339	2.3636	0.1	1.0869e-002
27840	4.9424	2.6364	0.1	1.4752e-002
27841	5.0339	2.5455	0.1	1.3245e-002
27842	4.9424	2.8182	0.1	1.5965e-002
27843	5.0339	2.7273	0.1	1.4832e-002
27844	4.9424	3.	0.1	1.637e-002
27845	5.0339	2.9091	0.1	1.5626e-002
27846	4.9424	3.1818	0.1	1.5965e-002
27847	5.0339	3.0909	0.1	1.5626e-002
27848	4.9424	3.3636	0.1	1.4752e-002
27849	5.0339	3.2727	0.1	1.4832e-002
27850	4.9424	3.5455	0.1	1.273e-002
27851	5.0339	3.4545	0.1	1.3245e-002
27852	4.9424	3.7273	0.1	9.8955e-003
27853	5.0339	3.6364	0.1	1.0869e-002
27854	4.9424	3.9091	0.1	6.2358e-003
27855	5.0339	3.8182	0.1	7.6985e-003
27856	4.9424	4.0909	0.1	1.7269e-003
27857	5.0339	4.	0.1	3.7237e-003
27858	4.9424	4.2727	0.1	-3.6802e-003
27859	5.0339	4.1818	0.1	-1.0837e-003
27860	4.9424	4.4545	0.1	-1.0096e-002
27861	5.0339	4.3636	0.1	-6.7809e-003
27862	4.9424	4.6364	0.1	-1.7666e-002
27863	5.0339	4.5455	0.1	-1.3518e-002
27864	4.9424	4.8182	0.1	-2.689e-002
27865	5.0339	4.7273	0.1	-2.1424e-002
27866	4.9424	5.	0.1	-3.78e-002
27867	5.0339	4.9091	0.1	-3.1348e-002
27868	4.9424	5.1818	0.1	-5.4385e-002
27869	5.0339	5.0909	0.1	-4.2564e-002
27870	4.9424	5.3636	0.1	-6.8945e-002
27871	5.0339	5.2727	0.1	-6.3614e-002
27872	4.9424	5.5455	0.1	-0.14913
27873	5.0339	5.4545	0.1	-7.1925e-002
27874	4.9424	5.7273	0.1	-0.21207
27875	5.0339	5.6364	0.1	-0.22254
27876	5.0339	5.8182	0.1	-0.24441
27877	4.9424	5.9091	0.1	-0.20081
27878	5.1254	0.27273	0.1	-0.19029
27879	5.2169	0.18182	0.1	-0.2163
27880	5.1254	9.0909e-002	0.1	-0.18615
27881	5.1254	0.45455	0.1	-0.1356
27882	5.2169	0.36364	0.1	-0.20183
27883	5.1254	0.63636	0.1	-6.3114e-002
27884	5.2169	0.54545	0.1	-6.5654e-002
27885	5.1254	0.81818	0.1	-5.015e-002
27886	5.2169	0.72727	0.1	-5.851e-002
27887	5.1254	1.	0.1	-3.5178e-002
27888	5.2169	0.90909	0.1	-3.9554e-002
27889	5.1254	1.1818	0.1	-2.5282e-002
27890	5.2169	1.0909	0.1	-2.9428e-002
27891	5.1254	1.3636	0.1	-1.6855e-002
27892	5.2169	1.2727	0.1	-2.0397e-002
27893	5.1254	1.5455	0.1	-9.8859e-003
27894	5.2169	1.4545	0.1	-1.314e-002
27895	5.1254	1.7273	0.1	-3.9326e-003
27896	5.2169	1.6364	0.1	-6.9024e-003
27897	5.1254	1.9091	0.1	1.1228e-003
27898	5.2169	1.8182	0.1	-1.5824e-003
27899	5.1254	2.0909	0.1	5.3678e-003
27900	5.2169	2.	0.1	2.9421e-003
27901	5.1254	2.2727	0.1	8.8345e-003
27902	5.2169	2.1818	0.1	6.7097e-003
27903	5.1254	2.4545	0.1	1.1533e-002
27904	5.2169	2.3636	0.1	9.7332e-003
27905	5.1254	2.6364	0.1	1.3466e-002
27906	5.2169	2.5455	0.1	1.201e-002
27907	5.1254	2.8182	0.1	1.4629e-002
27908	5.2169	2.7273	0.1	1.3535e-002
27909	5.1254	3.	0.1	1.5017e-002
27910	5.2169	2.9091	0.1	1.43e-002
27911	5.1254	3.1818	0.1	1.4629e-002
27912	5.2169	3.0909	0.1	1.43e-002
27913	5.1254	3.3636	0.1	1.3466e-002
27914	5.2169	3.2727	0.1	1.3535e-002
27915	5.1254	3.5455	0.1	1.1534e-002
27916	5.2169	3.4545	0.1	1.201e-002
27917	5.1254	3.7273	0.1	8.8348e-003
27918	5.2169	3.6364	0.1	9.7335e-003
27919	5.1254	3.9091	0.1	5.3682e-003
27920	5.2169	3.8182	0.1	6.7101e-003
27921	5.1254	4.0909	0.1	1.1233e-003
27922	5.2169	4.	0.1	2.9427e-003
27923	5.1254	4.2727	0.1	-3.932e-003
27924	5.2169	4.1818	0.1	-1.5819e-003
27925	5.1254	4.4545	0.1	-9.8853e-003
27926	5.2169	4.3636	0.1	-6.9018e-003
27927	5.1254	4.6364	0.1	-1.6855e-002
27928	5.2169	4.5455	0.1	-1.3139e-002
27929	5.1254	4.8182	0.1	-2.5282e-002
27930	5.2169	4.7273	0.1	-2.0396e-002
27931	5.1254	5.	0.1	-3.5176e-002
27932	5.2169	4.9091	0.1	-2.9427e-002
27933	5.1254	5.1818	0.1	-5.0149e-002
27934	5.2169	5.0909	0.1	-3.9552e-002
27935	5.1254	5.3636	0.1	-6.3114e-002
27936	5.2169	5.2727	0.1	-5.8509e-002
27937	5.1254	5.5455	0.1	-0.1356
27938	5.2169	5.4545	0.1	-6.5654e-002
27939	5.1254	5.7273	0.1	-0.19029
27940	5.2169	5.6364	0.1	-0.20183
27941	5.2169	5.8182	0.1	-0.21629
27942	5.1254	5.9091	0.1	-0.18614
27943	5.3085	0.27273	0.1	-0.1707
27944	5.4	0.18182	0.1	-0.19192
27945	5.3085	9.0909e-002	0.1	-0.17262
27946	5.3085	0.45455	0.1	-0.1232
27947	5.4	0.36364	0.1	-0.18267
27948	5.3085	0.63636	0.1	-5.7934e-002
27949	5.4	0.54545	0.1	-6.0093e-002
27950	5.3085	0.81818	0.1	-4.6439e-002
27951	5.4	0.72727	0.1	-5.4002e-002
27952	5.3085	1.	0.1	-3.2963e-002
27953	5.4	0.90909	0.1	-3.7003e-002
27954	5.3085	1.1818	0.1	-2.4001e-002
27955	5.4	1.0909	0.1	-2.7885e-002
27956	5.3085	1.3636	0.1	-1.6299e-002
27957	5.4	1.2727	0.1	-1.967e-002
27958	5.3085	1.5455	0.1	-9.8673e-003
27959	5.4	1.4545	0.1	-1.2997e-002
27960	5.3085	1.7273	0.1	-4.3215e-003
27961	5.4	1.6364	0.1	-7.2007e-003
27962	5.3085	1.9091	0.1	4.3e-004
27963	5.4	1.8182	0.1	-2.2052e-003
27964	5.3085	2.0909	0.1	4.4518e-003
27965	5.4	2.	0.1	2.0827e-003
27966	5.3085	2.2727	0.1	7.7592e-003
27967	5.4	2.1818	0.1	5.6826e-003
27968	5.3085	2.4545	0.1	1.0349e-002
27969	5.4	2.3636	0.1	8.5912e-003
27970	5.3085	2.6364	0.1	1.2211e-002
27971	5.4	2.5455	0.1	1.0793e-002
27972	5.3085	2.8182	0.1	1.3334e-002
27973	5.4	2.7273	0.1	1.2274e-002
27974	5.3085	3.	0.1	1.371e-002
27975	5.4	2.9091	0.1	1.3018e-002
27976	5.3085	3.1818	0.1	1.3334e-002
27977	5.4	3.0909	0.1	1.3018e-002
27978	5.3085	3.3636	0.1	1.2211e-002
27979	5.4	3.2727	0.1	1.2274e-002
27980	5.3085	3.5455	0.1	1.0349e-002
27981	5.4	3.4545	0.1	1.0793e-002
27982	5.3085	3.7273	0.1	7.7595e-003
27983	5.4	3.6364	0.1	8.5914e-003
27984	5.3085	3.9091	0.1	4.4524e-003
27985	5.4	3.8182	0.1	5.6831e-003
27986	5.3085	4.0909	0.1	4.3051e-004
27987	5.4	4.	0.1	2.0833e-003
27988	5.3085	4.2727	0.1	-4.321e-003
27989	5.4	4.1818	0.1	-2.2048e-003
27990	5.3085	4.4545	0.1	-9.8666e-003
27991	5.4	4.3636	0.1	-7.2001e-003
27992	5.3085	4.6364	0.1	-1.6298e-002
27993	5.4	4.5455	0.1	-1.2996e-002
27994	5.3085	4.8182	0.1	-2.4e-002
27995	5.4	4.7273	0.1	-1.9669e-002
27996	5.3085	5.	0.1	-3.2962e-002
27997	5.4	4.9091	0.1	-2.7885e-002
27998	5.3085	5.1818	0.1	-4.6438e-002
27999	5.4	5.0909	0.1	-3.7002e-002
28000	5.3085	5.3636	0.1	-5.7934e-002
28001	5.4	5.2727	0.1	-5.4001e-002
28002	5.3085	5.5455	0.1	-0.1232
28003	5.4	5.4545	0.1	-6.0093e-002
28004	5.3085	5.7273	0.1	-0.1707
28005	5.4	5.6364	0.1	-0.18266
28006	5.4	5.8182	0.1	-0.19192
28007	5.3085	5.9091	0.1	-0.17262
28008	5.4915	0.27273	0.1	-0.153
28009	5.5831	0.18182	0.1	-0.17062
28010	5.4915	9.0909e-002	0.1	-0.16011
28011	5.4915	0.45455	0.1	-0.11182
28012	5.5831	0.36364	0.1	-0.16485
28013	5.4915	0.63636	0.1	-5.3379e-002
28014	5.5831	0.54545	0.1	-5.5204e-002
28015	5.4915	0.81818	0.1	-4.3246e-002
28016	5.5831	0.72727	0.1	-5.0074e-002
28017	5.4915	1.	0.1	-3.117e-002
28018	5.5831	0.90909	0.1	-3.4921e-002
28019	5.4915	1.1818	0.1	-2.3066e-002
28020	5.5831	1.0909	0.1	-2.6737e-002
28021	5.4915	1.3636	0.1	-1.6022e-002
28022	5.5831	1.2727	0.1	-1.927e-002
28023	5.4915	1.5455	0.1	-1.0067e-002
28024	5.5831	1.4545	0.1	-1.3118e-002
28025	5.4915	1.7273	0.1	-4.8728e-003
28026	5.5831	1.6364	0.1	-7.7027e-003
28027	5.4915	1.9091	0.1	-3.7423e-004
28028	5.5831	1.8182	0.1	-2.9765e-003
28029	5.4915	2.0909	0.1	3.4695e-003
28030	5.5831	2.	0.1	1.1254e-003
28031	5.4915	2.2727	0.1	6.6557e-003
28032	5.5831	2.1818	0.1	4.6021e-003
28033	5.4915	2.4545	0.1	9.1664e-003
28034	5.5831	2.3636	0.1	7.4329e-003
28035	5.4915	2.6364	0.1	1.098e-002
28036	5.5831	2.5455	0.1	9.5886e-003
28037	5.4915	2.8182	0.1	1.2079e-002
28038	5.5831	2.7273	0.1	1.1045e-002
28039	5.4915	3.	0.1	1.2446e-002
28040	5.5831	2.9091	0.1	1.1779e-002
28041	5.4915	3.1818	0.1	1.2079e-002
28042	5.5831	3.0909	0.1	1.1779e-002
28043	5.4915	3.3636	0.1	1.0981e-002
28044	5.5831	3.2727	0.1	1.1045e-002
28045	5.4915	3.5455	0.1	9.1666e-003
28046	5.5831	3.4545	0.1	9.5889e-003
28047	5.4915	3.7273	0.1	6.656e-003
28048	5.5831	3.6364	0.1	7.4332e-003
28049	5.4915	3.9091	0.1	3.47e-003
28050	5.5831	3.8182	0.1	4.6025e-003
28051	5.4915	4.0909	0.1	-3.7378e-004
28052	5.5831	4.	0.1	1.1259e-003
28053	5.4915	4.2727	0.1	-4.8723e-003
28054	5.5831	4.1818	0.1	-2.9761e-003
28055	5.4915	4.4545	0.1	-1.0067e-002
28056	5.5831	4.3636	0.1	-7.702e-003
28057	5.4915	4.6364	0.1	-1.6021e-002
28058	5.5831	4.5455	0.1	-1.3117e-002
28059	5.4915	4.8182	0.1	-2.3065e-002
28060	5.5831	4.7273	0.1	-1.9269e-002
28061	5.4915	5.	0.1	-3.1169e-002
28062	5.5831	4.9091	0.1	-2.6737e-002
28063	5.4915	5.1818	0.1	-4.3245e-002
28064	5.5831	5.0909	0.1	-3.492e-002
28065	5.4915	5.3636	0.1	-5.3378e-002
28066	5.5831	5.2727	0.1	-5.0073e-002
28067	5.4915	5.5455	0.1	-0.11182
28068	5.5831	5.4545	0.1	-5.5204e-002
28069	5.4915	5.7273	0.1	-0.15299
28070	5.5831	5.6364	0.1	-0.16485
28071	5.5831	5.8182	0.1	-0.17061
28072	5.4915	5.9091	0.1	-0.16011
28073	5.6746	0.27273	0.1	-0.13688
28074	5.7661	0.18182	0.1	-0.15178
28075	5.6746	9.0909e-002	0.1	-0.14848
28076	5.6746	0.45455	0.1	-0.10135
28077	5.7661	0.36364	0.1	-0.14819
28078	5.6746	0.63636	0.1	-4.9424e-002
28079	5.7661	0.54545	0.1	-5.0953e-002
28080	5.6746	0.81818	0.1	-4.0571e-002
28081	5.7661	0.72727	0.1	-4.6713e-002
28082	5.6746	1.	0.1	-2.9812e-002
28083	5.7661	0.90909	0.1	-3.3317e-002
28084	5.6746	1.1818	0.1	-2.2501e-002
28085	5.7661	1.0909	0.1	-2.6005e-002
28086	5.6746	1.3636	0.1	-1.6052e-002
28087	5.7661	1.2727	0.1	-1.9223e-002
28088	5.6746	1.5455	0.1	-1.0513e-002
28089	5.7661	1.4545	0.1	-1.3531e-002
28090	5.6746	1.7273	0.1	-5.6115e-003
28091	5.7661	1.6364	0.1	-8.4367e-003
28092	5.6746	1.9091	0.1	-1.3112e-003
28093	5.7661	1.8182	0.1	-3.921e-003
28094	5.6746	2.0909	0.1	2.4043e-003
28095	5.7661	2.	0.1	5.0681e-005
28096	5.6746	2.2727	0.1	5.5128e-003
28097	5.7661	2.1818	0.1	3.4544e-003
28098	5.6746	2.4545	0.1	7.9802e-003
28099	5.7661	2.3636	0.1	6.2505e-003
28100	5.6746	2.6364	0.1	9.7726e-003
28101	5.7661	2.5455	0.1	8.3943e-003
28102	5.6746	2.8182	0.1	1.0862e-002
28103	5.7661	2.7273	0.1	9.8493e-003
28104	5.6746	3.	0.1	1.1227e-002
28105	5.7661	2.9091	0.1	1.0585e-002
28106	5.6746	3.1818	0.1	1.0862e-002
28107	5.7661	3.0909	0.1	1.0585e-002
28108	5.6746	3.3636	0.1	9.7728e-003
28109	5.7661	3.2727	0.1	9.8494e-003
28110	5.6746	3.5455	0.1	7.9805e-003
28111	5.7661	3.4545	0.1	8.3946e-003
28112	5.6746	3.7273	0.1	5.5132e-003
28113	5.7661	3.6364	0.1	6.2509e-003
28114	5.6746	3.9091	0.1	2.4048e-003
28115	5.7661	3.8182	0.1	3.4548e-003
28116	5.6746	4.0909	0.1	-1.3108e-003
28117	5.7661	4.	0.1	5.1061e-005
28118	5.6746	4.2727	0.1	-5.611e-003
28119	5.7661	4.1818	0.1	-3.9204e-003
28120	5.6746	4.4545	0.1	-1.0512e-002
28121	5.7661	4.3636	0.1	-8.436e-003
28122	5.6746	4.6364	0.1	-1.6051e-002
28123	5.7661	4.5455	0.1	-1.353e-002
28124	5.6746	4.8182	0.1	-2.25e-002
28125	5.7661	4.7273	0.1	-1.9222e-002
28126	5.6746	5.	0.1	-2.9811e-002
28127	5.7661	4.9091	0.1	-2.6005e-002
28128	5.6746	5.1818	0.1	-4.057e-002
28129	5.7661	5.0909	0.1	-3.3316e-002
28130	5.6746	5.3636	0.1	-4.9424e-002
28131	5.7661	5.2727	0.1	-4.6712e-002
28132	5.6746	5.5455	0.1	-0.10135
28133	5.7661	5.4545	0.1	-5.0953e-002
28134	5.6746	5.7273	0.1	-0.13688
28135	5.7661	5.6364	0.1	-0.14819
28136	5.7661	5.8182	0.1	-0.15178
28137	5.6746	5.9091	0.1	-0.14848
28138	5.8576	0.27273	0.1	-0.12209
28139	5.9492	0.18182	0.1	-0.13493
28140	5.8576	9.0909e-002	0.1	-0.13762
28141	5.8576	0.45455	0.1	-9.1701e-002
28142	5.9492	0.36364	0.1	-0.1325
28143	5.8576	0.63636	0.1	-4.6053e-002
28144	5.9492	0.54545	0.1	-4.7329e-002
28145	5.8576	0.81818	0.1	-3.8414e-002
28146	5.9492	0.72727	0.1	-4.3929e-002
28147	5.8576	1.	0.1	-2.8908e-002
28148	5.9492	0.90909	0.1	-3.2227e-002
28149	5.8576	1.1818	0.1	-2.2333e-002
28150	5.9492	1.0909	0.1	-2.5735e-002
28151	5.8576	1.3636	0.1	-1.6419e-002
28152	5.9492	1.2727	0.1	-1.9581e-002
28153	5.8576	1.5455	0.1	-1.1236e-002
28154	5.9492	1.4545	0.1	-1.4289e-002
28155	5.8576	1.7273	0.1	-6.5664e-003
28156	5.9492	1.6364	0.1	-9.452e-003
28157	5.8576	1.9091	0.1	-2.4043e-003
28158	5.9492	1.8182	0.1	-5.0823e-003
28159	5.8576	2.0909	0.1	1.2393e-003
28160	5.9492	2.	0.1	-1.1781e-003
28161	5.8576	2.2727	0.1	4.3201e-003
28162	5.9492	2.1818	0.1	2.2109e-003
28163	5.8576	2.4545	0.1	6.7859e-003
28164	5.9492	2.3636	0.1	5.023e-003
28165	5.8576	2.6364	0.1	8.5881e-003
28166	5.9492	2.5455	0.1	7.1955e-003
28167	5.8576	2.8182	0.1	9.6874e-003
28168	5.9492	2.7273	0.1	8.6778e-003
28169	5.8576	3.	0.1	1.0057e-002
28170	5.9492	2.9091	0.1	9.4295e-003
28171	5.8576	3.1818	0.1	9.6875e-003
28172	5.9492	3.0909	0.1	9.4296e-003
28173	5.8576	3.3636	0.1	8.5882e-003
28174	5.9492	3.2727	0.1	8.6778e-003
28175	5.8576	3.5455	0.1	6.7862e-003
28176	5.9492	3.4545	0.1	7.1958e-003
28177	5.8576	3.7273	0.1	4.3204e-003
28178	5.9492	3.6364	0.1	5.0234e-003
28179	5.8576	3.9091	0.1	1.2396e-003
28180	5.9492	3.8182	0.1	2.2113e-003
28181	5.8576	4.0909	0.1	-2.4039e-003
28182	5.9492	4.	0.1	-1.1777e-003
28183	5.8576	4.2727	0.1	-6.5658e-003
28184	5.9492	4.1818	0.1	-5.0816e-003
28185	5.8576	4.4545	0.1	-1.1235e-002
28186	5.9492	4.3636	0.1	-9.4514e-003
28187	5.8576	4.6364	0.1	-1.6418e-002
28188	5.9492	4.5455	0.1	-1.4288e-002
28189	5.8576	4.8182	0.1	-2.2332e-002
28190	5.9492	4.7273	0.1	-1.958e-002
28191	5.8576	5.	0.1	-2.8907e-002
28192	5.9492	4.9091	0.1	-2.5734e-002
28193	5.8576	5.1818	0.1	-3.8413e-002
28194	5.9492	5.0909	0.1	-3.2225e-002
28195	5.8576	5.3636	0.1	-4.6052e-002
28196	5.9492	5.2727	0.1	-4.3928e-002
28197	5.8576	5.5455	0.1	-9.17e-002
28198	5.9492	5.4545	0.1	-4.7328e-002
28199	5.8576	5.7273	0.1	-0.12209
28200	5.9492	5.6364	0.1	-0.1325
28201	5.9492	5.8182	0.1	-0.13493
28202	5.8576	5.9091	0.1	-0.13762
28203	6.0407	0.27273	0.1	-0.10841
28204	6.1322	0.18182	0.1	-0.11963
28205	6.0407	9.0909e-002	0.1	-0.12742
28206	6.0407	0.45455	0.1	-8.2789e-002
28207	6.1322	0.36364	0.1	-0.11764
28208	6.0407	0.63636	0.1	-4.3285e-002
28209	6.1322	0.54545	0.1	-4.4348e-002
28210	6.0407	0.81818	0.1	-3.6821e-002
28211	6.1322	0.72727	0.1	-4.1762e-002
28212	6.0407	1.	0.1	-2.852e-002
28213	6.1322	0.90909	0.1	-3.1717e-002
28214	6.0407	1.1818	0.1	-2.2631e-002
28215	6.1322	1.0909	0.1	-2.6006e-002
28216	6.0407	1.3636	0.1	-1.7197e-002
28217	6.1322	1.2727	0.1	-2.043e-002
28218	6.0407	1.5455	0.1	-1.2307e-002
28219	6.1322	1.4545	0.1	-1.5477e-002
28220	6.0407	1.7273	0.1	-7.8023e-003
28221	6.1322	1.6364	0.1	-1.0829e-002
28222	6.0407	1.9091	0.1	-3.711e-003
28223	6.1322	1.8182	0.1	-6.5317e-003
28224	6.0407	2.0909	0.1	-7.418e-005
28225	6.1322	2.	0.1	-2.6214e-003
28226	6.0407	2.2727	0.1	3.0384e-003
28227	6.1322	2.1818	0.1	8.2254e-004
28228	6.0407	2.4545	0.1	5.5526e-003
28229	6.1322	2.3636	0.1	3.7125e-003
28230	6.0407	2.6364	0.1	7.4024e-003
28231	6.1322	2.5455	0.1	5.9632e-003
28232	6.0407	2.8182	0.1	8.5357e-003
28233	6.1322	2.7273	0.1	7.5077e-003
28234	6.0407	3.	0.1	8.9175e-003
28235	6.1322	2.9091	0.1	8.2936e-003
28236	6.0407	3.1818	0.1	8.5358e-003
28237	6.1322	3.0909	0.1	8.2936e-003
28238	6.0407	3.3636	0.1	7.4027e-003
28239	6.1322	3.2727	0.1	7.5078e-003
28240	6.0407	3.5455	0.1	5.5529e-003
28241	6.1322	3.4545	0.1	5.9636e-003
28242	6.0407	3.7273	0.1	3.0388e-003
28243	6.1322	3.6364	0.1	3.7126e-003
28244	6.0407	3.9091	0.1	-7.3622e-005
28245	6.1322	3.8182	0.1	8.2287e-004
28246	6.0407	4.0909	0.1	-3.7104e-003
28247	6.1322	4.	0.1	-2.621e-003
28248	6.0407	4.2727	0.1	-7.8017e-003
28249	6.1322	4.1818	0.1	-6.5311e-003
28250	6.0407	4.4545	0.1	-1.2306e-002
28251	6.1322	4.3636	0.1	-1.0828e-002
28252	6.0407	4.6364	0.1	-1.7196e-002
28253	6.1322	4.5455	0.1	-1.5477e-002
28254	6.0407	4.8182	0.1	-2.2631e-002
28255	6.1322	4.7273	0.1	-2.0429e-002
28256	6.0407	5.	0.1	-2.8519e-002
28257	6.1322	4.9091	0.1	-2.6005e-002
28258	6.0407	5.1818	0.1	-3.682e-002
28259	6.1322	5.0909	0.1	-3.1716e-002
28260	6.0407	5.3636	0.1	-4.3284e-002
28261	6.1322	5.2727	0.1	-4.1761e-002
28262	6.0407	5.5455	0.1	-8.2788e-002
28263	6.1322	5.4545	0.1	-4.4347e-002
28264	6.0407	5.7273	0.1	-0.10841
28265	6.1322	5.6364	0.1	-0.11763
28266	6.1322	5.8182	0.1	-0.11963
28267	6.0407	5.9091	0.1	-0.12742
28268	6.2237	0.27273	0.1	-9.5626e-002
28269	6.3153	0.18182	0.1	-0.10553
28270	6.2237	9.0909e-002	0.1	-0.1178
28271	6.2237	0.45455	0.1	-7.456e-002
28272	6.3153	0.36364	0.1	-0.10344
28273	6.2237	0.63636	0.1	-4.1163e-002
28274	6.3153	0.54545	0.1	-4.2062e-002
28275	6.2237	0.81818	0.1	-3.586e-002
28276	6.3153	0.72727	0.1	-4.0295e-002
28277	6.2237	1.	0.1	-2.8739e-002
28278	6.3153	0.90909	0.1	-3.1904e-002
28279	6.2237	1.1818	0.1	-2.3498e-002
28280	6.3153	1.0909	0.1	-2.6947e-002
28281	6.2237	1.3636	0.1	-1.8487e-002
28282	6.3153	1.2727	0.1	-2.1903e-002
28283	6.2237	1.5455	0.1	-1.3822e-002
28284	6.3153	1.4545	0.1	-1.7225e-002
28285	6.2237	1.7273	0.1	-9.4071e-003
28286	6.3153	1.6364	0.1	-1.2685e-002
28287	6.2237	1.9091	0.1	-5.3062e-003
28288	6.3153	1.8182	0.1	-8.3728e-003
28289	6.2237	2.0909	0.1	-1.5971e-003
28290	6.3153	2.	0.1	-4.3656e-003
28291	6.2237	2.2727	0.1	1.6199e-003
28292	6.3153	2.1818	0.1	-7.7936e-004
28293	6.2237	2.4545	0.1	4.2446e-003
28294	6.3153	2.3636	0.1	2.2662e-003
28295	6.2237	2.6364	0.1	6.1893e-003
28296	6.3153	2.5455	0.1	4.659e-003
28297	6.2237	2.8182	0.1	7.3863e-003
28298	6.3153	2.7273	0.1	6.3103e-003
28299	6.2237	3.	0.1	7.7904e-003
28300	6.3153	2.9091	0.1	7.1534e-003
28301	6.2237	3.1818	0.1	7.3864e-003
28302	6.3153	3.0909	0.1	7.1534e-003
28303	6.2237	3.3636	0.1	6.1896e-003
28304	6.3153	3.2727	0.1	6.3104e-003
28305	6.2237	3.5455	0.1	4.2448e-003
28306	6.3153	3.4545	0.1	4.6591e-003
28307	6.2237	3.7273	0.1	1.6201e-003
28308	6.3153	3.6364	0.1	2.2663e-003
28309	6.2237	3.9091	0.1	-1.5969e-003
28310	6.3153	3.8182	0.1	-7.79e-004
28311	6.2237	4.0909	0.1	-5.3059e-003
28312	6.3153	4.	0.1	-4.3652e-003
28313	6.2237	4.2727	0.1	-9.4066e-003
28314	6.3153	4.1818	0.1	-8.3723e-003
28315	6.2237	4.4545	0.1	-1.3821e-002
28316	6.3153	4.3636	0.1	-1.2685e-002
28317	6.2237	4.6364	0.1	-1.8486e-002
28318	6.3153	4.5455	0.1	-1.7224e-002
28319	6.2237	4.8182	0.1	-2.3497e-002
28320	6.3153	4.7273	0.1	-2.1902e-002
28321	6.2237	5.	0.1	-2.8738e-002
28322	6.3153	4.9091	0.1	-2.6947e-002
28323	6.2237	5.1818	0.1	-3.5859e-002
28324	6.3153	5.0909	0.1	-3.1902e-002
28325	6.2237	5.3636	0.1	-4.1162e-002
28326	6.3153	5.2727	0.1	-4.0294e-002
28327	6.2237	5.5455	0.1	-7.4558e-002
28328	6.3153	5.4545	0.1	-4.2062e-002
28329	6.2237	5.7273	0.1	-9.5624e-002
28330	6.3153	5.6364	0.1	-0.10344
28331	6.3153	5.8182	0.1	-0.10553
28332	6.2237	5.9091	0.1	-0.1178
28333	6.4068	0.27273	0.1	-8.3577e-002
28334	6.4983	0.18182	0.1	-9.235e-002
28335	6.4068	9.0909e-002	0.1	-0.10871
28336	6.4068	0.45455	0.1	-6.6993e-002
28337	6.4983	0.36364	0.1	-8.9808e-002
28338	6.4068	0.63636	0.1	-3.9785e-002
28339	6.4983	0.54545	0.1	-4.059e-002
28340	6.4068	0.81818	0.1	-3.5664e-002
28341	6.4983	0.72727	0.1	-3.9687e-002
28342	6.4068	1.	0.1	-2.9723e-002
28343	6.4983	0.90909	0.1	-3.2988e-002
28344	6.4068	1.1818	0.1	-2.5097e-002
28345	6.4983	1.0909	0.1	-2.8777e-002
28346	6.4068	1.3636	0.1	-2.0454e-002
28347	6.4983	1.2727	0.1	-2.4218e-002
28348	6.4068	1.5455	0.1	-1.5937e-002
28349	6.4983	1.4545	0.1	-1.9737e-002
28350	6.4068	1.7273	0.1	-1.1518e-002
28351	6.4983	1.6364	0.1	-1.5207e-002
28352	6.4068	1.9091	0.1	-7.3067e-003
28353	6.4983	1.8182	0.1	-1.0764e-002
28354	6.4068	2.0909	0.1	-3.4245e-003
28355	6.4983	2.	0.1	-6.5403e-003
28356	6.4068	2.2727	0.1	-8.8712e-006
28357	6.4983	2.1818	0.1	-2.6958e-003
28358	6.4068	2.4545	0.1	2.807e-003
28359	6.4983	2.3636	0.1	6.0887e-004
28360	6.4068	2.6364	0.1	4.9087e-003
28361	6.4983	2.5455	0.1	3.2282e-003
28362	6.4068	2.8182	0.1	6.2079e-003
28363	6.4983	2.7273	0.1	5.0459e-003
28364	6.4068	3.	0.1	6.6474e-003
28365	6.4983	2.9091	0.1	5.9769e-003
28366	6.4068	3.1818	0.1	6.2078e-003
28367	6.4983	3.0909	0.1	5.9769e-003
28368	6.4068	3.3636	0.1	4.9087e-003
28369	6.4983	3.2727	0.1	5.0459e-003
28370	6.4068	3.5455	0.1	2.8072e-003
28371	6.4983	3.4545	0.1	3.2282e-003
28372	6.4068	3.7273	0.1	-8.4654e-006
28373	6.4983	3.6364	0.1	6.0917e-004
28374	6.4068	3.9091	0.1	-3.424e-003
28375	6.4983	3.8182	0.1	-2.6955e-003
28376	6.4068	4.0909	0.1	-7.3062e-003
28377	6.4983	4.	0.1	-6.5398e-003
28378	6.4068	4.2727	0.1	-1.1517e-002
28379	6.4983	4.1818	0.1	-1.0763e-002
28380	6.4068	4.4545	0.1	-1.5936e-002
28381	6.4983	4.3636	0.1	-1.5206e-002
28382	6.4068	4.6364	0.1	-2.0453e-002
28383	6.4983	4.5455	0.1	-1.9736e-002
28384	6.4068	4.8182	0.1	-2.5097e-002
28385	6.4983	4.7273	0.1	-2.4217e-002
28386	6.4068	5.	0.1	-2.9722e-002
28387	6.4983	4.9091	0.1	-2.8776e-002
28388	6.4068	5.1818	0.1	-3.5663e-002
28389	6.4983	5.0909	0.1	-3.2986e-002
28390	6.4068	5.3636	0.1	-3.9785e-002
28391	6.4983	5.2727	0.1	-3.9686e-002
28392	6.4068	5.5455	0.1	-6.6992e-002
28393	6.4983	5.4545	0.1	-4.059e-002
28394	6.4068	5.7273	0.1	-8.3576e-002
28395	6.4983	5.6364	0.1	-8.9806e-002
28396	6.4983	5.8182	0.1	-9.2348e-002
28397	6.4068	5.9091	0.1	-0.10871
28398	6.5898	0.27273	0.1	-7.2151e-002
28399	6.6814	0.18182	0.1	-8.0012e-002
28400	6.5898	9.0909e-002	0.1	-0.10018
28401	6.5898	0.45455	0.1	-6.0135e-002
28402	6.6814	0.36364	0.1	-7.6728e-002
28403	6.5898	0.63636	0.1	-3.9346e-002
28404	6.6814	0.54545	0.1	-4.02e-002
28405	6.5898	0.81818	0.1	-3.6478e-002
28406	6.6814	0.72727	0.1	-4.0276e-002
28407	6.5898	1.	0.1	-3.1747e-002
28408	6.6814	0.90909	0.1	-3.5358e-002
28409	6.5898	1.1818	0.1	-2.7711e-002
28410	6.6814	1.0909	0.1	-3.1893e-002
28411	6.5898	1.3636	0.1	-2.3366e-002
28412	6.6814	1.2727	0.1	-2.776e-002
28413	6.5898	1.5455	0.1	-1.8893e-002
28414	6.6814	1.4545	0.1	-2.3366e-002
28415	6.5898	1.7273	0.1	-1.4345e-002
28416	6.6814	1.6364	0.1	-1.87e-002
28417	6.5898	1.9091	0.1	-9.8863e-003
28418	6.6814	1.8182	0.1	-1.3963e-002
28419	6.5898	2.0909	0.1	-5.6931e-003
28420	6.6814	2.	0.1	-9.3522e-003
28421	6.5898	2.2727	0.1	-1.9508e-003
28422	6.6814	2.1818	0.1	-5.0859e-003
28423	6.5898	2.4545	0.1	1.1657e-003
28424	6.6814	2.3636	0.1	-1.3765e-003
28425	6.5898	2.6364	0.1	3.5079e-003
28426	6.6814	2.5455	0.1	1.5867e-003
28427	6.5898	2.8182	0.1	4.9618e-003
28428	6.6814	2.7273	0.1	3.6535e-003
28429	6.5898	3.	0.1	5.4547e-003
28430	6.6814	2.9091	0.1	4.715e-003
28431	6.5898	3.1818	0.1	4.9619e-003
28432	6.6814	3.0909	0.1	4.715e-003
28433	6.5898	3.3636	0.1	3.508e-003
28434	6.6814	3.2727	0.1	3.6535e-003
28435	6.5898	3.5455	0.1	1.166e-003
28436	6.6814	3.4545	0.1	1.5869e-003
28437	6.5898	3.7273	0.1	-1.9505e-003
28438	6.6814	3.6364	0.1	-1.3762e-003
28439	6.5898	3.9091	0.1	-5.6927e-003
28440	6.6814	3.8182	0.1	-5.0856e-003
28441	6.5898	4.0909	0.1	-9.8858e-003
28442	6.6814	4.	0.1	-9.3517e-003
28443	6.5898	4.2727	0.1	-1.4344e-002
28444	6.6814	4.1818	0.1	-1.3963e-002
28445	6.5898	4.4545	0.1	-1.8892e-002
28446	6.6814	4.3636	0.1	-1.8699e-002
28447	6.5898	4.6364	0.1	-2.3365e-002
28448	6.6814	4.5455	0.1	-2.3365e-002
28449	6.5898	4.8182	0.1	-2.771e-002
28450	6.6814	4.7273	0.1	-2.776e-002
28451	6.5898	5.	0.1	-3.1745e-002
28452	6.6814	4.9091	0.1	-3.1892e-002
28453	6.5898	5.1818	0.1	-3.6476e-002
28454	6.6814	5.0909	0.1	-3.5357e-002
28455	6.5898	5.3636	0.1	-3.9345e-002
28456	6.6814	5.2727	0.1	-4.0275e-002
28457	6.5898	5.5455	0.1	-6.0134e-002
28458	6.6814	5.4545	0.1	-4.02e-002
28459	6.5898	5.7273	0.1	-7.215e-002
28460	6.6814	5.6364	0.1	-7.6726e-002
28461	6.6814	5.8182	0.1	-8.001e-002
28462	6.5898	5.9091	0.1	-0.10018
28463	6.7729	0.27273	0.1	-6.1396e-002
28464	6.8644	0.18182	0.1	-6.9103e-002
28465	6.7729	9.0909e-002	0.1	-9.2544e-002
28466	6.7729	0.45455	0.1	-5.4229e-002
28467	6.8644	0.36364	0.1	-6.4489e-002
28468	6.7729	0.63636	0.1	-4.0293e-002
28469	6.8644	0.54545	0.1	-4.1561e-002
28470	6.7729	0.81818	0.1	-3.8819e-002
28471	6.8644	0.72727	0.1	-4.2835e-002
28472	6.7729	1.	0.1	-3.5357e-002
28473	6.8644	0.90909	0.1	-3.9836e-002
28474	6.7729	1.1818	0.1	-3.1871e-002
28475	6.8644	1.0909	0.1	-3.7089e-002
28476	6.7729	1.3636	0.1	-2.7713e-002
28477	6.8644	1.2727	0.1	-3.3255e-002
28478	6.7729	1.5455	0.1	-2.3123e-002
28479	6.8644	1.4545	0.1	-2.8746e-002
28480	6.7729	1.7273	0.1	-1.8253e-002
28481	6.8644	1.6364	0.1	-2.3699e-002
28482	6.7729	1.9091	0.1	-1.3341e-002
28483	6.8644	1.8182	0.1	-1.8401e-002
28484	6.7729	2.0909	0.1	-8.6341e-003
28485	6.8644	2.	0.1	-1.3137e-002
28486	6.7729	2.2727	0.1	-4.3791e-003
28487	6.8644	2.1818	0.1	-8.2013e-003
28488	6.7729	2.4545	0.1	-8.0478e-004
28489	6.8644	2.3636	0.1	-3.8713e-003
28490	6.7729	2.6364	0.1	1.8967e-003
28491	6.8644	2.5455	0.1	-3.9216e-004
28492	6.7729	2.8182	0.1	3.5795e-003
28493	6.8644	2.7273	0.1	2.0429e-003
28494	6.7729	3.	0.1	4.151e-003
28495	6.8644	2.9091	0.1	3.2959e-003
28496	6.7729	3.1818	0.1	3.5796e-003
28497	6.8644	3.0909	0.1	3.2959e-003
28498	6.7729	3.3636	0.1	1.8969e-003
28499	6.8644	3.2727	0.1	2.043e-003
28500	6.7729	3.5455	0.1	-8.0456e-004
28501	6.8644	3.4545	0.1	-3.9196e-004
28502	6.7729	3.7273	0.1	-4.3788e-003
28503	6.8644	3.6364	0.1	-3.871e-003
28504	6.7729	3.9091	0.1	-8.6337e-003
28505	6.8644	3.8182	0.1	-8.2009e-003
28506	6.7729	4.0909	0.1	-1.3341e-002
28507	6.8644	4.	0.1	-1.3137e-002
28508	6.7729	4.2727	0.1	-1.8252e-002
28509	6.8644	4.1818	0.1	-1.8401e-002
28510	6.7729	4.4545	0.1	-2.3123e-002
28511	6.8644	4.3636	0.1	-2.3698e-002
28512	6.7729	4.6364	0.1	-2.7713e-002
28513	6.8644	4.5455	0.1	-2.8746e-002
28514	6.7729	4.8182	0.1	-3.187e-002
28515	6.8644	4.7273	0.1	-3.3254e-002
28516	6.7729	5.	0.1	-3.5356e-002
28517	6.8644	4.9091	0.1	-3.7088e-002
28518	6.7729	5.1818	0.1	-3.8818e-002
28519	6.8644	5.0909	0.1	-3.9835e-002
28520	6.7729	5.3636	0.1	-4.0292e-002
28521	6.8644	5.2727	0.1	-4.2833e-002
28522	6.7729	5.5455	0.1	-5.4228e-002
28523	6.8644	5.4545	0.1	-4.156e-002
28524	6.7729	5.7273	0.1	-6.1394e-002
28525	6.8644	5.6364	0.1	-6.4487e-002
28526	6.8644	5.8182	0.1	-6.9101e-002
28527	6.7729	5.9091	0.1	-9.2543e-002
28528	6.9559	0.27273	0.1	-5.1892e-002
28529	7.0475	0.18182	0.1	-6.4697e-002
28530	6.9559	9.0909e-002	0.1	-8.7804e-002
28531	6.9559	0.45455	0.1	-5.011e-002
28532	7.0475	0.36364	0.1	-5.4703e-002
28533	6.9559	0.63636	0.1	-4.3762e-002
28534	7.0475	0.54545	0.1	-4.6765e-002
28535	6.9559	0.81818	0.1	-4.3894e-002
28536	7.0475	0.72727	0.1	-4.9502e-002
28537	6.9559	1.	0.1	-4.1723e-002
28538	7.0475	0.90909	0.1	-4.8431e-002
28539	6.9559	1.1818	0.1	-3.8638e-002
28540	7.0475	1.0909	0.1	-4.6133e-002
28541	6.9559	1.3636	0.1	-3.4417e-002
28542	7.0475	1.2727	0.1	-4.2194e-002
28543	6.9559	1.5455	0.1	-2.9395e-002
28544	7.0475	1.4545	0.1	-3.7094e-002
28545	6.9559	1.7273	0.1	-2.386e-002
28546	7.0475	1.6364	0.1	-3.1167e-002
28547	6.9559	1.9091	0.1	-1.8152e-002
28548	7.0475	1.8182	0.1	-2.482e-002
28549	6.9559	2.0909	0.1	-1.2608e-002
28550	7.0475	2.	0.1	-1.8449e-002
28551	6.9559	2.2727	0.1	-7.5532e-003
28552	7.0475	2.1818	0.1	-1.2439e-002
28553	6.9559	2.4545	0.1	-3.2844e-003
28554	7.0475	2.3636	0.1	-7.1505e-003
28555	6.9559	2.6364	0.1	-4.7415e-005
28556	7.0475	2.5455	0.1	-2.8934e-003
28557	6.9559	2.8182	0.1	1.9725e-003
28558	7.0475	2.7273	0.1	8.8434e-005
28559	6.9559	3.	0.1	2.659e-003
28560	7.0475	2.9091	0.1	1.6234e-003
28561	6.9559	3.1818	0.1	1.9726e-003
28562	7.0475	3.0909	0.1	1.6234e-003
28563	6.9559	3.3636	0.1	-4.7252e-005
28564	7.0475	3.2727	0.1	8.8523e-005
28565	6.9559	3.5455	0.1	-3.2842e-003
28566	7.0475	3.4545	0.1	-2.8933e-003
28567	6.9559	3.7273	0.1	-7.5529e-003
28568	7.0475	3.6364	0.1	-7.1503e-003
28569	6.9559	3.9091	0.1	-1.2607e-002
28570	7.0475	3.8182	0.1	-1.2439e-002
28571	6.9559	4.0909	0.1	-1.8152e-002
28572	7.0475	4.	0.1	-1.8448e-002
28573	6.9559	4.2727	0.1	-2.386e-002
28574	7.0475	4.1818	0.1	-2.482e-002
28575	6.9559	4.4545	0.1	-2.9395e-002
28576	7.0475	4.3636	0.1	-3.1166e-002
28577	6.9559	4.6364	0.1	-3.4416e-002
28578	7.0475	4.5455	0.1	-3.7093e-002
28579	6.9559	4.8182	0.1	-3.8637e-002
28580	7.0475	4.7273	0.1	-4.2193e-002
28581	6.9559	5.	0.1	-4.1723e-002
28582	7.0475	4.9091	0.1	-4.6133e-002
28583	6.9559	5.1818	0.1	-4.3893e-002
28584	7.0475	5.0909	0.1	-4.843e-002
28585	6.9559	5.3636	0.1	-4.3762e-002
28586	7.0475	5.2727	0.1	-4.9501e-002
28587	6.9559	5.5455	0.1	-5.0109e-002
28588	7.0475	5.4545	0.1	-4.6764e-002
28589	6.9559	5.7273	0.1	-5.189e-002
28590	7.0475	5.6364	0.1	-5.4702e-002
28591	7.0475	5.8182	0.1	-6.4695e-002
28592	6.9559	5.9091	0.1	-8.7803e-002
28593	7.139	0.27273	0.1	-4.8188e-002
28594	7.2305	0.18182	0.1	-0.63641
28595	7.139	9.0909e-002	0.1	-0.1359
28596	7.139	0.45455	0.1	-5.1648e-002
28597	7.2305	0.36364	0.1	-6.4468e-002
28598	7.139	0.63636	0.1	-5.3679e-002
28599	7.2305	0.54545	0.1	-6.7244e-002
28600	7.139	0.81818	0.1	-5.5235e-002
28601	7.2305	0.72727	0.1	-6.8863e-002
28602	7.139	1.	0.1	-5.3841e-002
28603	7.2305	0.90909	0.1	-6.7586e-002
28604	7.139	1.1818	0.1	-5.0449e-002
28605	7.2305	1.0909	0.1	-6.381e-002
28606	7.139	1.3636	0.1	-4.5403e-002
28607	7.2305	1.2727	0.1	-5.8106e-002
28608	7.139	1.5455	0.1	-3.9199e-002
28609	7.2305	1.4545	0.1	-5.0995e-002
28610	7.139	1.7273	0.1	-3.2295e-002
28611	7.2305	1.6364	0.1	-4.2983e-002
28612	7.139	1.9091	0.1	-2.5151e-002
28613	7.2305	1.8182	0.1	-3.4566e-002
28614	7.139	2.0909	0.1	-1.8209e-002
28615	7.2305	2.	0.1	-2.6232e-002
28616	7.139	2.2727	0.1	-1.1885e-002
28617	7.2305	2.1818	0.1	-1.8447e-002
28618	7.139	2.4545	0.1	-6.5487e-003
28619	7.2305	2.3636	0.1	-1.1643e-002
28620	7.139	2.6364	0.1	-2.506e-003
28621	7.2305	2.5455	0.1	-6.1931e-003
28622	7.139	2.8182	0.1	1.4621e-005
28623	7.2305	2.7273	0.1	-2.3891e-003
28624	7.139	3.	0.1	8.7087e-004
28625	7.2305	2.9091	0.1	-4.348e-004
28626	7.139	3.1818	0.1	1.4561e-005
28627	7.2305	3.0909	0.1	-4.3483e-004
28628	7.139	3.3636	0.1	-2.506e-003
28629	7.2305	3.2727	0.1	-2.3891e-003
28630	7.139	3.5455	0.1	-6.5486e-003
28631	7.2305	3.4545	0.1	-6.193e-003
28632	7.139	3.7273	0.1	-1.1885e-002
28633	7.2305	3.6364	0.1	-1.1643e-002
28634	7.139	3.9091	0.1	-1.8209e-002
28635	7.2305	3.8182	0.1	-1.8446e-002
28636	7.139	4.0909	0.1	-2.515e-002
28637	7.2305	4.	0.1	-2.6232e-002
28638	7.139	4.2727	0.1	-3.2294e-002
28639	7.2305	4.1818	0.1	-3.4566e-002
28640	7.139	4.4545	0.1	-3.9198e-002
28641	7.2305	4.3636	0.1	-4.2982e-002
28642	7.139	4.6364	0.1	-4.5402e-002
28643	7.2305	4.5455	0.1	-5.0994e-002
28644	7.139	4.8182	0.1	-5.0448e-002
28645	7.2305	4.7273	0.1	-5.8105e-002
28646	7.139	5.	0.1	-5.384e-002
28647	7.2305	4.9091	0.1	-6.381e-002
28648	7.139	5.1818	0.1	-5.5234e-002
28649	7.2305	5.0909	0.1	-6.7585e-002
28650	7.139	5.3636	0.1	-5.3679e-002
28651	7.2305	5.2727	0.1	-6.8862e-002
28652	7.139	5.5455	0.1	-5.1647e-002
28653	7.2305	5.4545	0.1	-6.7245e-002
28654	7.139	5.7273	0.1	-4.8187e-002
28655	7.2305	5.6364	0.1	-6.4467e-002
28656	7.2305	5.8182	0.1	-0.63643
28657	7.139	5.9091	0.1	-0.1359
28658	7.322	0.27273	0.1	-1.1483
28659	7.4136	0.18182	0.1	-3.6049
28660	7.322	9.0909e-002	0.1	-1.4766
28661	7.322	0.45455	0.1	-0.12764
28662	7.4136	0.36364	0.1	-3.4407
28663	7.322	0.63636	0.1	-9.7656e-002
28664	7.4136	0.54545	0.1	-1.2767
28665	7.322	0.81818	0.1	-8.8967e-002
28666	7.4136	0.72727	0.1	-0.20299
28667	7.322	1.	0.1	-8.201e-002
28668	7.4136	0.90909	0.1	-0.13363
28669	7.322	1.1818	0.1	-7.4141e-002
28670	7.4136	1.0909	0.1	-0.10836
28671	7.322	1.3636	0.1	-6.5311e-002
28672	7.4136	1.2727	0.1	-9.1421e-002
28673	7.322	1.5455	0.1	-5.5718e-002
28674	7.4136	1.4545	0.1	-7.683e-002
28675	7.322	1.7273	0.1	-4.5746e-002
28676	7.4136	1.6364	0.1	-6.3201e-002
28677	7.322	1.9091	0.1	-3.5835e-002
28678	7.4136	1.8182	0.1	-5.0266e-002
28679	7.322	2.0909	0.1	-2.6447e-002
28680	7.4136	2.	0.1	-3.8195e-002
28681	7.322	2.2727	0.1	-1.8035e-002
28682	7.4136	2.1818	0.1	-2.7323e-002
28683	7.322	2.4545	0.1	-1.1018e-002
28684	7.4136	2.3636	0.1	-1.804e-002
28685	7.322	2.6364	0.1	-5.7415e-003
28686	7.4136	2.5455	0.1	-1.0718e-002
28687	7.322	2.8182	0.1	-2.4673e-003
28688	7.4136	2.7273	0.1	-5.6566e-003
28689	7.322	3.	0.1	-1.3576e-003
28690	7.4136	2.9091	0.1	-3.0709e-003
28691	7.322	3.1818	0.1	-2.4673e-003
28692	7.4136	3.0909	0.1	-3.0708e-003
28693	7.322	3.3636	0.1	-5.7415e-003
28694	7.4136	3.2727	0.1	-5.6566e-003
28695	7.322	3.5455	0.1	-1.1017e-002
28696	7.4136	3.4545	0.1	-1.0718e-002
28697	7.322	3.7273	0.1	-1.8035e-002
28698	7.4136	3.6364	0.1	-1.804e-002
28699	7.322	3.9091	0.1	-2.6446e-002
28700	7.4136	3.8182	0.1	-2.7322e-002
28701	7.322	4.0909	0.1	-3.5835e-002
28702	7.4136	4.	0.1	-3.8195e-002
28703	7.322	4.2727	0.1	-4.5746e-002
28704	7.4136	4.1818	0.1	-5.0266e-002
28705	7.322	4.4545	0.1	-5.5717e-002
28706	7.4136	4.3636	0.1	-6.3201e-002
28707	7.322	4.6364	0.1	-6.531e-002
28708	7.4136	4.5455	0.1	-7.6829e-002
28709	7.322	4.8182	0.1	-7.4141e-002
28710	7.4136	4.7273	0.1	-9.1421e-002
28711	7.322	5.	0.1	-8.2009e-002
28712	7.4136	4.9091	0.1	-0.10836
28713	7.322	5.1818	0.1	-8.8966e-002
28714	7.4136	5.0909	0.1	-0.13363
28715	7.322	5.3636	0.1	-9.7656e-002
28716	7.4136	5.2727	0.1	-0.20299
28717	7.322	5.5455	0.1	-0.12765
28718	7.4136	5.4545	0.1	-1.2768
28719	7.322	5.7273	0.1	-1.1484
28720	7.4136	5.6364	0.1	-3.4407
28721	7.4136	5.8182	0.1	-3.6049
28722	7.322	5.9091	0.1	-1.4766
28723	7.5051	0.27273	0.1	-5.8602
28724	7.5966	0.18182	0.1	-6.8394
28725	7.5051	9.0909e-002	0.1	-3.1464
28726	7.5051	0.45455	0.1	-6.0999
28727	7.5966	0.36364	0.1	-10.074
28728	7.5051	0.63636	0.1	-3.7659
28729	7.5966	0.54545	0.1	-10.503
28730	7.5051	0.81818	0.1	-0.51887
28731	7.5966	0.72727	0.1	-7.8577
28732	7.5051	1.	0.1	-0.19633
28733	7.5966	0.90909	0.1	-2.5675
28734	7.5051	1.1818	0.1	-0.13778
28735	7.5966	1.0909	0.1	-0.35038
28736	7.5051	1.3636	0.1	-0.10825
28737	7.5966	1.2727	0.1	-0.18955
28738	7.5051	1.5455	0.1	-8.6867e-002
28739	7.5966	1.4545	0.1	-0.13467
28740	7.5051	1.7273	0.1	-6.8934e-002
28741	7.5966	1.6364	0.1	-0.10194
28742	7.5051	1.9091	0.1	-5.3109e-002
28743	7.5966	1.8182	0.1	-7.7516e-002
28744	7.5051	2.0909	0.1	-3.9126e-002
28745	7.5966	2.	0.1	-5.7582e-002
28746	7.5051	2.2727	0.1	-2.712e-002
28747	7.5966	2.1818	0.1	-4.0984e-002
28748	7.5051	2.4545	0.1	-1.7371e-002
28749	7.5966	2.3636	0.1	-2.7474e-002
28750	7.5051	2.6364	0.1	-1.0165e-002
28751	7.5966	2.5455	0.1	-1.7129e-002
28752	7.5051	2.8182	0.1	-5.7396e-003
28753	7.5966	2.7273	0.1	-1.011e-002
28754	7.5051	3.	0.1	-4.247e-003
28755	7.5966	2.9091	0.1	-6.5604e-003
28756	7.5051	3.1818	0.1	-5.7395e-003
28757	7.5966	3.0909	0.1	-6.5604e-003
28758	7.5051	3.3636	0.1	-1.0165e-002
28759	7.5966	3.2727	0.1	-1.011e-002
28760	7.5051	3.5455	0.1	-1.7371e-002
28761	7.5966	3.4545	0.1	-1.7129e-002
28762	7.5051	3.7273	0.1	-2.712e-002
28763	7.5966	3.6364	0.1	-2.7473e-002
28764	7.5051	3.9091	0.1	-3.9125e-002
28765	7.5966	3.8182	0.1	-4.0983e-002
28766	7.5051	4.0909	0.1	-5.3109e-002
28767	7.5966	4.	0.1	-5.7582e-002
28768	7.5051	4.2727	0.1	-6.8934e-002
28769	7.5966	4.1818	0.1	-7.7516e-002
28770	7.5051	4.4545	0.1	-8.6866e-002
28771	7.5966	4.3636	0.1	-0.10194
28772	7.5051	4.6364	0.1	-0.10825
28773	7.5966	4.5455	0.1	-0.13467
28774	7.5051	4.8182	0.1	-0.13778
28775	7.5966	4.7273	0.1	-0.18955
28776	7.5051	5.	0.1	-0.19633
28777	7.5966	4.9091	0.1	-0.35039
28778	7.5051	5.1818	0.1	-0.51888
28779	7.5966	5.0909	0.1	-2.5675
28780	7.5051	5.3636	0.1	-3.766
28781	7.5966	5.2727	0.1	-7.8578
28782	7.5051	5.5455	0.1	-6.1
28783	7.5966	5.4545	0.1	-10.503
28784	7.5051	5.7273	0.1	-5.8603
28785	7.5966	5.6364	0.1	-10.074
28786	7.5966	5.8182	0.1	-6.8394
28787	7.5051	5.9091	0.1	-3.1464
28788	7.6881	0.27273	0.1	-10.993
28789	7.7797	0.18182	0.1	-10.339
28790	7.6881	9.0909e-002	0.1	-4.9376
28791	7.6881	0.45455	0.1	-14.461
28792	7.7797	0.36364	0.1	-17.313
28793	7.6881	0.63636	0.1	-14.627
28794	7.7797	0.54545	0.1	-20.763
28795	7.6881	0.81818	0.1	-11.417
28796	7.7797	0.72727	0.1	-20.409
28797	7.6881	1.	0.1	-5.1672
28798	7.7797	0.90909	0.1	-16.35
28799	7.6881	1.1818	0.1	-0.58322
28800	7.7797	1.0909	0.1	-8.9438
28801	7.6881	1.3636	0.1	-0.24217
28802	7.7797	1.2727	0.1	-1.2301
28803	7.6881	1.5455	0.1	-0.15772
28804	7.7797	1.4545	0.1	-0.32933
28805	7.6881	1.7273	0.1	-0.11351
28806	7.7797	1.6364	0.1	-0.19166
28807	7.6881	1.9091	0.1	-8.3041e-002
28808	7.7797	1.8182	0.1	-0.12999
28809	7.6881	2.0909	0.1	-5.96e-002
28810	7.7797	2.	0.1	-9.1061e-002
28811	7.6881	2.2727	0.1	-4.1038e-002
28812	7.7797	2.1818	0.1	-6.2923e-002
28813	7.6881	2.4545	0.1	-2.6683e-002
28814	7.7797	2.3636	0.1	-4.1828e-002
28815	7.6881	2.6364	0.1	-1.6388e-002
28816	7.7797	2.5455	0.1	-2.6454e-002
28817	7.6881	2.8182	0.1	-1.0175e-002
28818	7.7797	2.7273	0.1	-1.6327e-002
28819	7.6881	3.	0.1	-8.0971e-003
28820	7.7797	2.9091	0.1	-1.1287e-002
28821	7.6881	3.1818	0.1	-1.0175e-002
28822	7.7797	3.0909	0.1	-1.1287e-002
28823	7.6881	3.3636	0.1	-1.6387e-002
28824	7.7797	3.2727	0.1	-1.6327e-002
28825	7.6881	3.5455	0.1	-2.6682e-002
28826	7.7797	3.4545	0.1	-2.6454e-002
28827	7.6881	3.7273	0.1	-4.1037e-002
28828	7.7797	3.6364	0.1	-4.1828e-002
28829	7.6881	3.9091	0.1	-5.96e-002
28830	7.7797	3.8182	0.1	-6.2923e-002
28831	7.6881	4.0909	0.1	-8.3041e-002
28832	7.7797	4.	0.1	-9.1061e-002
28833	7.6881	4.2727	0.1	-0.1135
28834	7.7797	4.1818	0.1	-0.12999
28835	7.6881	4.4545	0.1	-0.15772
28836	7.7797	4.3636	0.1	-0.19166
28837	7.6881	4.6364	0.1	-0.24217
28838	7.7797	4.5455	0.1	-0.32933
28839	7.6881	4.8182	0.1	-0.58323
28840	7.7797	4.7273	0.1	-1.2301
28841	7.6881	5.	0.1	-5.1673
28842	7.7797	4.9091	0.1	-8.9439
28843	7.6881	5.1818	0.1	-11.417
28844	7.7797	5.0909	0.1	-16.35
28845	7.6881	5.3636	0.1	-14.627
28846	7.7797	5.2727	0.1	-20.409
28847	7.6881	5.5455	0.1	-14.461
28848	7.7797	5.4545	0.1	-20.763
28849	7.6881	5.7273	0.1	-10.993
28850	7.7797	5.6364	0.1	-17.313
28851	7.7797	5.8182	0.1	-10.339
28852	7.6881	5.9091	0.1	-4.9376
28853	7.8712	0.27273	0.1	-16.592
28854	7.9627	0.18182	0.1	-14.153
28855	7.8712	9.0909e-002	0.1	-6.8732
28856	7.8712	0.45455	0.1	-23.599
28857	7.9627	0.36364	0.1	-25.243
28858	7.8712	0.63636	0.1	-26.541
28859	7.9627	0.54545	0.1	-31.988
28860	7.8712	0.81818	0.1	-25.352
28861	7.9627	0.72727	0.1	-34.139
28862	7.8712	1.	0.1	-20.227
28863	7.9627	0.90909	0.1	-31.811
28864	7.8712	1.1818	0.1	-11.618
28865	7.9627	1.0909	0.1	-25.292
28866	7.8712	1.3636	0.1	-1.9737
28867	7.9627	1.2727	0.1	-15.139
28868	7.8712	1.5455	0.1	-0.40148
28869	7.9627	1.4545	0.1	-3.3245
28870	7.8712	1.7273	0.1	-0.21614
28871	7.9627	1.6364	0.1	-0.50883
28872	7.8712	1.9091	0.1	-0.1401
28873	7.9627	1.8182	0.1	-0.24998
28874	7.8712	2.0909	0.1	-9.4591e-002
28875	7.9627	2.	0.1	-0.15412
28876	7.8712	2.2727	0.1	-6.3164e-002
28877	7.9627	2.1818	0.1	-9.9967e-002
28878	7.8712	2.4545	0.1	-4.0707e-002
28879	7.9627	2.3636	0.1	-6.4387e-002
28880	7.8712	2.6364	0.1	-2.5338e-002
28881	7.9627	2.5455	0.1	-4.0341e-002
28882	7.8712	2.8182	0.1	-1.6309e-002
28883	7.9627	2.7273	0.1	-2.5181e-002
28884	7.8712	3.	0.1	-1.3326e-002
28885	7.9627	2.9091	0.1	-1.781e-002
28886	7.8712	3.1818	0.1	-1.6309e-002
28887	7.9627	3.0909	0.1	-1.781e-002
28888	7.8712	3.3636	0.1	-2.5338e-002
28889	7.9627	3.2727	0.1	-2.5181e-002
28890	7.8712	3.5455	0.1	-4.0707e-002
28891	7.9627	3.4545	0.1	-4.0341e-002
28892	7.8712	3.7273	0.1	-6.3164e-002
28893	7.9627	3.6364	0.1	-6.4387e-002
28894	7.8712	3.9091	0.1	-9.4591e-002
28895	7.9627	3.8182	0.1	-9.9966e-002
28896	7.8712	4.0909	0.1	-0.1401
28897	7.9627	4.	0.1	-0.15412
28898	7.8712	4.2727	0.1	-0.21614
28899	7.9627	4.1818	0.1	-0.24998
28900	7.8712	4.4545	0.1	-0.40148
28901	7.9627	4.3636	0.1	-0.50884
28902	7.8712	4.6364	0.1	-1.9737
28903	7.9627	4.5455	0.1	-3.3246
28904	7.8712	4.8182	0.1	-11.618
28905	7.9627	4.7273	0.1	-15.139
28906	7.8712	5.	0.1	-20.227
28907	7.9627	4.9091	0.1	-25.292
28908	7.8712	5.1818	0.1	-25.352
28909	7.9627	5.0909	0.1	-31.811
28910	7.8712	5.3636	0.1	-26.541
28911	7.9627	5.2727	0.1	-34.139
28912	7.8712	5.5455	0.1	-23.599
28913	7.9627	5.4545	0.1	-31.988
28914	7.8712	5.7273	0.1	-16.592
28915	7.9627	5.6364	0.1	-25.243
28916	7.9627	5.8182	0.1	-14.153
28917	7.8712	5.9091	0.1	-6.8733
28918	8.0542	0.27273	0.1	-22.731
28919	8.1458	0.18182	0.1	-18.337
28920	8.0542	9.0909e-002	0.1	-8.9816
28921	8.0542	0.45455	0.1	-33.62
28922	8.1458	0.36364	0.1	-33.949
28923	8.0542	0.63636	0.1	-39.589
28924	8.1458	0.54545	0.1	-44.295
28925	8.0542	0.81818	0.1	-40.611
28926	8.1458	0.72727	0.1	-49.185
28927	8.0542	1.	0.1	-36.894
28928	8.1458	0.90909	0.1	-48.763
28929	8.0542	1.1818	0.1	-28.846
28930	8.1458	1.0909	0.1	-43.323
28931	8.0542	1.3636	0.1	-17.152
28932	8.1458	1.2727	0.1	-33.388
28933	8.0542	1.5455	0.1	-3.9196
28934	8.1458	1.4545	0.1	-19.78
28935	8.0542	1.7273	0.1	-0.56728
28936	8.1458	1.6364	0.1	-4.7494
28937	8.0542	1.9091	0.1	-0.26716
28938	8.1458	1.8182	0.1	-0.64681
28939	8.0542	2.0909	0.1	-0.15917
28940	8.1458	2.	0.1	-0.29062
28941	8.0542	2.2727	0.1	-9.9919e-002
28942	8.1458	2.1818	0.1	-0.16685
28943	8.0542	2.4545	0.1	-6.2436e-002
28944	8.1458	2.3636	0.1	-0.10118
28945	8.0542	2.6364	0.1	-3.849e-002
28946	8.1458	2.5455	0.1	-6.1513e-002
28947	8.0542	2.8182	0.1	-2.4952e-002
28948	8.1458	2.7273	0.1	-3.8011e-002
28949	8.0542	3.	0.1	-2.0556e-002
28950	8.1458	2.9091	0.1	-2.6948e-002
28951	8.0542	3.1818	0.1	-2.4952e-002
28952	8.1458	3.0909	0.1	-2.6948e-002
28953	8.0542	3.3636	0.1	-3.849e-002
28954	8.1458	3.2727	0.1	-3.8011e-002
28955	8.0542	3.5455	0.1	-6.2436e-002
28956	8.1458	3.4545	0.1	-6.1513e-002
28957	8.0542	3.7273	0.1	-9.9919e-002
28958	8.1458	3.6364	0.1	-0.10118
28959	8.0542	3.9091	0.1	-0.15917
28960	8.1458	3.8182	0.1	-0.16685
28961	8.0542	4.0909	0.1	-0.26716
28962	8.1458	4.	0.1	-0.29062
28963	8.0542	4.2727	0.1	-0.56729
28964	8.1458	4.1818	0.1	-0.64681
28965	8.0542	4.4545	0.1	-3.9197
28966	8.1458	4.3636	0.1	-4.7495
28967	8.0542	4.6364	0.1	-17.152
28968	8.1458	4.5455	0.1	-19.78
28969	8.0542	4.8182	0.1	-28.846
28970	8.1458	4.7273	0.1	-33.388
28971	8.0542	5.	0.1	-36.894
28972	8.1458	4.9091	0.1	-43.323
28973	8.0542	5.1818	0.1	-40.611
28974	8.1458	5.0909	0.1	-48.764
28975	8.0542	5.3636	0.1	-39.59
28976	8.1458	5.2727	0.1	-49.185
28977	8.0542	5.5455	0.1	-33.62
28978	8.1458	5.4545	0.1	-44.295
28979	8.0542	5.7273	0.1	-22.731
28980	8.1458	5.6364	0.1	-33.949
28981	8.1458	5.8182	0.1	-18.337
28982	8.0542	5.9091	0.1	-8.9817
28983	8.2373	0.27273	0.1	-29.478
28984	8.3288	0.18182	0.1	-22.943
28985	8.2373	9.0909e-002	0.1	-11.293
28986	8.2373	0.45455	0.1	-44.623
28987	8.3288	0.36364	0.1	-43.498
28988	8.2373	0.63636	0.1	-53.911
28989	8.3288	0.54545	0.1	-57.787
28990	8.2373	0.81818	0.1	-57.37
28991	8.3288	0.72727	0.1	-65.704
28992	8.2373	1.	0.1	-55.228
28993	8.3288	0.90909	0.1	-67.427
28994	8.2373	1.1818	0.1	-47.899
28995	8.3288	1.0909	0.1	-63.242
28996	8.2373	1.3636	0.1	-36.041
28997	8.3288	1.2727	0.1	-53.666
28998	8.2373	1.5455	0.1	-20.645
28999	8.3288	1.4545	0.1	-39.494
29000	8.2373	1.7273	0.1	-4.5058
29001	8.3288	1.6364	0.1	-21.909
29002	8.2373	1.9091	0.1	-0.65699
29003	8.3288	1.8182	0.1	-4.3895
29004	8.2373	2.0909	0.1	-0.29367
29005	8.3288	2.	0.1	-0.68068
29006	8.2373	2.2727	0.1	-0.16461
29007	8.3288	2.1818	0.1	-0.30089
29008	8.2373	2.4545	0.1	-9.7191e-002
29009	8.3288	2.3636	0.1	-0.16426
29010	8.2373	2.6364	0.1	-5.82e-002
29011	8.3288	2.5455	0.1	-9.4664e-002
29012	8.2373	2.8182	0.1	-3.7302e-002
29013	8.3288	2.7273	0.1	-5.6902e-002
29014	8.2373	3.	0.1	-3.0675e-002
29015	8.3288	2.9091	0.1	-3.9896e-002
29016	8.2373	3.1818	0.1	-3.7302e-002
29017	8.3288	3.0909	0.1	-3.9896e-002
29018	8.2373	3.3636	0.1	-5.82e-002
29019	8.3288	3.2727	0.1	-5.6902e-002
29020	8.2373	3.5455	0.1	-9.7191e-002
29021	8.3288	3.4545	0.1	-9.4664e-002
29022	8.2373	3.7273	0.1	-0.16461
29023	8.3288	3.6364	0.1	-0.16426
29024	8.2373	3.9091	0.1	-0.29367
29025	8.3288	3.8182	0.1	-0.30089
29026	8.2373	4.0909	0.1	-0.65699
29027	8.3288	4.	0.1	-0.68068
29028	8.2373	4.2727	0.1	-4.5059
29029	8.3288	4.1818	0.1	-4.3896
29030	8.2373	4.4545	0.1	-20.645
29031	8.3288	4.3636	0.1	-21.909
29032	8.2373	4.6364	0.1	-36.041
29033	8.3288	4.5455	0.1	-39.494
29034	8.2373	4.8182	0.1	-47.899
29035	8.3288	4.7273	0.1	-53.666
29036	8.2373	5.	0.1	-55.228
29037	8.3288	4.9091	0.1	-63.242
29038	8.2373	5.1818	0.1	-57.37
29039	8.3288	5.0909	0.1	-67.427
29040	8.2373	5.3636	0.1	-53.911
29041	8.3288	5.2727	0.1	-65.704
29042	8.2373	5.5455	0.1	-44.623
29043	8.3288	5.4545	0.1	-57.787
29044	8.2373	5.7273	0.1	-29.478
29045	8.3288	5.6364	0.1	-43.498
29046	8.3288	5.8182	0.1	-22.943
29047	8.2373	5.9091	0.1	-11.293
29048	8.4203	0.27273	0.1	-36.889
29049	8.5119	0.18182	0.1	-28.02
29050	8.4203	9.0909e-002	0.1	-13.835
29051	8.4203	0.45455	0.1	-56.679
29052	8.5119	0.36364	0.1	-53.919
29053	8.4203	0.63636	0.1	-69.626
29054	8.5119	0.54545	0.1	-72.519
29055	8.4203	0.81818	0.1	-75.826
29056	8.5119	0.72727	0.1	-83.829
29057	8.4203	1.	0.1	-75.513
29058	8.5119	0.90909	0.1	-88.05
29059	8.4203	1.1818	0.1	-69.079
29060	8.5119	1.0909	0.1	-85.419
29061	8.4203	1.3636	0.1	-57.177
29062	8.5119	1.2727	0.1	-76.401
29063	8.4203	1.5455	0.1	-40.779
29064	8.5119	1.4545	0.1	-61.77
29065	8.4203	1.7273	0.1	-21.314
29066	8.5119	1.6364	0.1	-42.701
29067	8.4203	1.9091	0.1	-3.5551
29068	8.5119	1.8182	0.1	-20.941
29069	8.4203	2.0909	0.1	-0.647
29070	8.5119	2.	0.1	-2.9941
29071	8.4203	2.2727	0.1	-0.28922
29072	8.5119	2.1818	0.1	-0.62771
29073	8.4203	2.4545	0.1	-0.15525
29074	8.5119	2.3636	0.1	-0.28121
29075	8.4203	2.6364	0.1	-8.8432e-002
29076	8.5119	2.5455	0.1	-0.14856
29077	8.4203	2.8182	0.1	-5.5183e-002
29078	8.5119	2.7273	0.1	-8.5243e-002
29079	8.4203	3.	0.1	-4.4978e-002
29080	8.5119	2.9091	0.1	-5.842e-002
29081	8.4203	3.1818	0.1	-5.5183e-002
29082	8.5119	3.0909	0.1	-5.842e-002
29083	8.4203	3.3636	0.1	-8.8432e-002
29084	8.5119	3.2727	0.1	-8.5243e-002
29085	8.4203	3.5455	0.1	-0.15525
29086	8.5119	3.4545	0.1	-0.14856
29087	8.4203	3.7273	0.1	-0.28922
29088	8.5119	3.6364	0.1	-0.28122
29089	8.4203	3.9091	0.1	-0.647
29090	8.5119	3.8182	0.1	-0.62771
29091	8.4203	4.0909	0.1	-3.5552
29092	8.5119	4.	0.1	-2.9941
29093	8.4203	4.2727	0.1	-21.314
29094	8.5119	4.1818	0.1	-20.942
29095	8.4203	4.4545	0.1	-40.779
29096	8.5119	4.3636	0.1	-42.702
29097	8.4203	4.6364	0.1	-57.177
29098	8.5119	4.5455	0.1	-61.77
29099	8.4203	4.8182	0.1	-69.079
29100	8.5119	4.7273	0.1	-76.401
29101	8.4203	5.	0.1	-75.513
29102	8.5119	4.9091	0.1	-85.419
29103	8.4203	5.1818	0.1	-75.826
29104	8.5119	5.0909	0.1	-88.05
29105	8.4203	5.3636	0.1	-69.627
29106	8.5119	5.2727	0.1	-83.829
29107	8.4203	5.5455	0.1	-56.679
29108	8.5119	5.4545	0.1	-72.519
29109	8.4203	5.7273	0.1	-36.889
29110	8.5119	5.6364	0.1	-53.919
29111	8.5119	5.8182	0.1	-28.02
29112	8.4203	5.9091	0.1	-13.835
29113	8.6034	0.27273	0.1	-44.986
29114	8.6949	0.18182	0.1	-33.595
29115	8.6034	9.0909e-002	0.1	-16.633
29116	8.6034	0.45455	0.1	-69.806
29117	8.6949	0.36364	0.1	-65.174
29118	8.6034	0.63636	0.1	-86.813
29119	8.6949	0.54545	0.1	-88.477
29120	8.6034	0.81818	0.1	-96.172
29121	8.6949	0.72727	0.1	-103.65
29122	8.6034	1.	0.1	-98.09
29123	8.6949	0.90909	0.1	-110.9
29124	8.6034	1.1818	0.1	-92.874
29125	8.6949	1.0909	0.1	-110.33
29126	8.6034	1.3636	0.1	-81.114
29127	8.6949	1.2727	0.1	-102.25
29128	8.6034	1.5455	0.1	-63.783
29129	8.6949	1.4545	0.1	-87.35
29130	8.6034	1.7273	0.1	-42.323
29131	8.6949	1.6364	0.1	-66.817
29132	8.6034	1.9091	0.1	-18.866
29133	8.6949	1.8182	0.1	-42.448
29134	8.6034	2.0909	0.1	-2.3057
29135	8.6949	2.	0.1	-16.932
29136	8.6034	2.2727	0.1	-0.57292
29137	8.6949	2.1818	0.1	-1.8963
29138	8.6034	2.4545	0.1	-0.25931
29139	8.6949	2.3636	0.1	-0.53203
29140	8.6034	2.6364	0.1	-0.13638
29141	8.6949	2.5455	0.1	-0.24191
29142	8.6034	2.8182	0.1	-8.1458e-002
29143	8.6949	2.7273	0.1	-0.12894
29144	8.6034	3.	0.1	-6.5343e-002
29145	8.6949	2.9091	0.1	-8.5148e-002
29146	8.6034	3.1818	0.1	-8.1458e-002
29147	8.6949	3.0909	0.1	-8.5148e-002
29148	8.6034	3.3636	0.1	-0.13638
29149	8.6949	3.2727	0.1	-0.12894
29150	8.6034	3.5455	0.1	-0.25931
29151	8.6949	3.4545	0.1	-0.24191
29152	8.6034	3.7273	0.1	-0.57292
29153	8.6949	3.6364	0.1	-0.53203
29154	8.6034	3.9091	0.1	-2.3057
29155	8.6949	3.8182	0.1	-1.8963
29156	8.6034	4.0909	0.1	-18.866
29157	8.6949	4.	0.1	-16.932
29158	8.6034	4.2727	0.1	-42.324
29159	8.6949	4.1818	0.1	-42.448
29160	8.6034	4.4545	0.1	-63.783
29161	8.6949	4.3636	0.1	-66.817
29162	8.6034	4.6364	0.1	-81.114
29163	8.6949	4.5455	0.1	-87.351
29164	8.6034	4.8182	0.1	-92.874
29165	8.6949	4.7273	0.1	-102.25
29166	8.6034	5.	0.1	-98.09
29167	8.6949	4.9091	0.1	-110.33
29168	8.6034	5.1818	0.1	-96.173
29169	8.6949	5.0909	0.1	-110.9
29170	8.6034	5.3636	0.1	-86.813
29171	8.6949	5.2727	0.1	-103.65
29172	8.6034	5.5455	0.1	-69.806
29173	8.6949	5.4545	0.1	-88.477
29174	8.6034	5.7273	0.1	-44.986
29175	8.6949	5.6364	0.1	-65.174
29176	8.6949	5.8182	0.1	-33.595
29177	8.6034	5.9091	0.1	-16.633
29178	8.7864	0.27273	0.1	-53.744
29179	8.878	0.18182	0.1	-39.667
29180	8.7864	9.0909e-002	0.1	-19.697
29181	8.7864	0.45455	0.1	-83.94
29182	8.878	0.36364	0.1	-77.123
29183	8.7864	0.63636	0.1	-105.48
29184	8.878	0.54545	0.1	-105.54
29185	8.7864	0.81818	0.1	-118.59
29186	8.878	0.72727	0.1	-125.22
29187	8.7864	1.	0.1	-123.38
29188	8.878	0.90909	0.1	-136.29
29189	8.7864	1.1818	0.1	-119.95
29190	8.878	1.0909	0.1	-138.62
29191	8.7864	1.3636	0.1	-108.71
29192	8.878	1.2727	0.1	-132.18
29193	8.7864	1.5455	0.1	-90.571
29194	8.878	1.4545	0.1	-117.4
29195	8.7864	1.7273	0.1	-67.063
29196	8.878	1.6364	0.1	-95.431
29197	8.7864	1.9091	0.1	-40.394
29198	8.878	1.8182	0.1	-68.284
29199	8.7864	2.0909	0.1	-13.88
29200	8.878	2.	0.1	-38.757
29201	8.7864	2.2727	0.1	-1.5217
29202	8.878	2.1818	0.1	-11.155
29203	8.7864	2.4545	0.1	-0.47254
29204	8.878	2.3636	0.1	-1.2828
29205	8.7864	2.6364	0.1	-0.21707
29206	8.878	2.5455	0.1	-0.4255
29207	8.7864	2.8182	0.1	-0.12088
29208	8.878	2.7273	0.1	-0.19993
29209	8.7864	3.	0.1	-9.4469e-002
29210	8.878	2.9091	0.1	-0.12405
29211	8.7864	3.1818	0.1	-0.12088
29212	8.878	3.0909	0.1	-0.12405
29213	8.7864	3.3636	0.1	-0.21707
29214	8.878	3.2727	0.1	-0.19993
29215	8.7864	3.5455	0.1	-0.47254
29216	8.878	3.4545	0.1	-0.4255
29217	8.7864	3.7273	0.1	-1.5218
29218	8.878	3.6364	0.1	-1.2828
29219	8.7864	3.9091	0.1	-13.88
29220	8.878	3.8182	0.1	-11.155
29221	8.7864	4.0909	0.1	-40.395
29222	8.878	4.	0.1	-38.757
29223	8.7864	4.2727	0.1	-67.063
29224	8.878	4.1818	0.1	-68.284
29225	8.7864	4.4545	0.1	-90.571
29226	8.878	4.3636	0.1	-95.431
29227	8.7864	4.6364	0.1	-108.71
29228	8.878	4.5455	0.1	-117.4
29229	8.7864	4.8182	0.1	-119.95
29230	8.878	4.7273	0.1	-132.18
29231	8.7864	5.	0.1	-123.38
29232	8.878	4.9091	0.1	-138.62
29233	8.7864	5.1818	0.1	-118.59
29234	8.878	5.0909	0.1	-136.29
29235	8.7864	5.3636	0.1	-105.48
29236	8.878	5.2727	0.1	-125.22
29237	8.7864	5.5455	0.1	-83.94
29238	8.878	5.4545	0.1	-105.54
29239	8.7864	5.7273	0.1	-53.744
29240	8.878	5.6364	0.1	-77.124
29241	8.878	5.8182	0.1	-39.668
29242	8.7864	5.9091	0.1	-19.697
29243	8.9695	0.27273	0.1	-63.054
29244	9.061	0.18182	0.1	-46.178
29245	8.9695	9.0909e-002	0.1	-23.017
29246	8.9695	0.45455	0.1	-98.892
29247	9.061	0.36364	0.1	-89.48
29248	8.9695	0.63636	0.1	-125.55
29249	9.061	0.54545	0.1	-123.43
29250	8.9695	0.81818	0.1	-143.27
29251	9.061	0.72727	0.1	-148.48
29252	8.9695	1.	0.1	-151.94
29253	9.061	0.90909	0.1	-164.6
29254	8.9695	1.1818	0.1	-151.26
29255	9.061	1.0909	0.1	-171.18
29256	8.9695	1.3636	0.1	-141.26
29257	9.061	1.2727	0.1	-167.58
29258	8.9695	1.5455	0.1	-122.6
29259	9.061	1.4545	0.1	-153.69
29260	8.9695	1.7273	0.1	-96.913
29261	9.061	1.6364	0.1	-130.44
29262	8.9695	1.9091	0.1	-66.785
29263	9.061	1.8182	0.1	-100.12
29264	8.9695	2.0909	0.1	-35.547
29265	9.061	2.	0.1	-66.209
29266	8.9695	2.2727	0.1	-8.4433
29267	9.061	2.1818	0.1	-32.853
29268	8.9695	2.4545	0.1	-1.0719
29269	9.061	2.3636	0.1	-6.5008
29270	8.9695	2.6364	0.1	-0.37156
29271	9.061	2.5455	0.1	-0.92401
29272	8.9695	2.8182	0.1	-0.18255
29273	9.061	2.7273	0.1	-0.33136
29274	8.9695	3.	0.1	-0.13612
29275	9.061	2.9091	0.1	-0.18161
29276	8.9695	3.1818	0.1	-0.18255
29277	9.061	3.0909	0.1	-0.18161
29278	8.9695	3.3636	0.1	-0.37156
29279	9.061	3.2727	0.1	-0.33136
29280	8.9695	3.5455	0.1	-1.0719
29281	9.061	3.4545	0.1	-0.92402
29282	8.9695	3.7273	0.1	-8.4434
29283	9.061	3.6364	0.1	-6.5009
29284	8.9695	3.9091	0.1	-35.547
29285	9.061	3.8182	0.1	-32.853
29286	8.9695	4.0909	0.1	-66.785
29287	9.061	4.	0.1	-66.21
29288	8.9695	4.2727	0.1	-96.914
29289	9.061	4.1818	0.1	-100.12
29290	8.9695	4.4545	0.1	-122.6
29291	9.061	4.3636	0.1	-130.44
29292	8.9695	4.6364	0.1	-141.26
29293	9.061	4.5455	0.1	-153.69
29294	8.9695	4.8182	0.1	-151.26
29295	9.061	4.7273	0.1	-167.58
29296	8.9695	5.	0.1	-151.94
29297	9.061	4.9091	0.1	-171.18
29298	8.9695	5.1818	0.1	-143.27
29299	9.061	5.0909	0.1	-164.6
29300	8.9695	5.3636	0.1	-125.55
29301	9.061	5.2727	0.1	-148.48
29302	8.9695	5.5455	0.1	-98.892
29303	9.061	5.4545	0.1	-123.43
29304	8.9695	5.7273	0.1	-63.054
29305	9.061	5.6364	0.1	-89.48
29306	9.061	5.8182	0.1	-46.178
29307	8.9695	5.9091	0.1	-23.017
29308	9.1525	0.27273	0.1	-72.688
29309	9.2441	0.18182	0.1	-52.983
29310	9.1525	9.0909e-002	0.1	-26.54
29311	9.1525	0.45455	0.1	-114.3
29312	9.2441	0.36364	0.1	-101.75
29313	9.1525	0.63636	0.1	-146.82
29314	9.2441	0.54545	0.1	-141.69
29315	9.1525	0.81818	0.1	-170.42
29316	9.2441	0.72727	0.1	-173.34
29317	9.1525	1.	0.1	-184.56
29318	9.2441	0.90909	0.1	-196.39
29319	9.1525	1.1818	0.1	-188.24
29320	9.2441	1.0909	0.1	-209.4
29321	9.1525	1.3636	0.1	-180.7
29322	9.2441	1.2727	0.1	-210.65
29323	9.1525	1.5455	0.1	-162.12
29324	9.2441	1.4545	0.1	-198.99
29325	9.1525	1.7273	0.1	-134.12
29326	9.2441	1.6364	0.1	-174.82
29327	9.1525	1.9091	0.1	-99.875
29328	9.2441	1.8182	0.1	-140.73
29329	9.1525	2.0909	0.1	-63.642
29330	9.2441	2.	0.1	-101.32
29331	9.1525	2.2727	0.1	-29.954
29332	9.2441	2.1818	0.1	-62.156
29333	9.1525	2.4545	0.1	-5.3851
29334	9.2441	2.3636	0.1	-28.279
29335	9.1525	2.6364	0.1	-0.80097
29336	9.2441	2.5455	0.1	-5.2191
29337	9.1525	2.8182	0.1	-0.29241
29338	9.2441	2.7273	0.1	-0.73122
29339	9.1525	3.	0.1	-0.19528
29340	9.2441	2.9091	0.1	-0.27458
29341	9.1525	3.1818	0.1	-0.29241
29342	9.2441	3.0909	0.1	-0.27458
29343	9.1525	3.3636	0.1	-0.80098
29344	9.2441	3.2727	0.1	-0.73122
29345	9.1525	3.5455	0.1	-5.3852
29346	9.2441	3.4545	0.1	-5.2192
29347	9.1525	3.7273	0.1	-29.954
29348	9.2441	3.6364	0.1	-28.279
29349	9.1525	3.9091	0.1	-63.642
29350	9.2441	3.8182	0.1	-62.156
29351	9.1525	4.0909	0.1	-99.875
29352	9.2441	4.	0.1	-101.32
29353	9.1525	4.2727	0.1	-134.12
29354	9.2441	4.1818	0.1	-140.73
29355	9.1525	4.4545	0.1	-162.13
29356	9.2441	4.3636	0.1	-174.82
29357	9.1525	4.6364	0.1	-180.7
29358	9.2441	4.5455	0.1	-198.99
29359	9.1525	4.8182	0.1	-188.24
29360	9.2441	4.7273	0.1	-210.65
29361	9.1525	5.	0.1	-184.56
29362	9.2441	4.9091	0.1	-209.4
29363	9.1525	5.1818	0.1	-170.42
29364	9.2441	5.0909	0.1	-196.39
29365	9.1525	5.3636	0.1	-146.82
29366	9.2441	5.2727	0.1	-173.34
29367	9.1525	5.5455	0.1	-114.3
29368	9.2441	5.4545	0.1	-141.69
29369	9.1525	5.7273	0.1	-72.688
29370	9.2441	5.6364	0.1	-101.75
29371	9.2441	5.8182	0.1	-52.983
29372	9.1525	5.9091	0.1	-26.54
29373	9.3356	0.27273	0.1	-82.251
29374	9.4271	0.18182	0.1	-59.811
29375	9.3356	9.0909e-002	0.1	-30.151
29376	9.3356	0.45455	0.1	-129.6
29377	9.4271	0.36364	0.1	-113.21
29378	9.3356	0.63636	0.1	-168.97
29379	9.4271	0.54545	0.1	-159.64
29380	9.3356	0.81818	0.1	-200.34
29381	9.4271	0.72727	0.1	-199.69
29382	9.3356	1.	0.1	-222.44
29383	9.4271	0.90909	0.1	-232.5
29384	9.3356	1.1818	0.1	-233.08
29385	9.4271	1.0909	0.1	-255.37
29386	9.3356	1.3636	0.1	-230.13
29387	9.4271	1.2727	0.1	-264.8
29388	9.3356	1.5455	0.1	-212.72
29389	9.4271	1.4545	0.1	-257.75
29390	9.3356	1.7273	0.1	-182.24
29391	9.4271	1.6364	0.1	-233.4
29392	9.3356	1.9091	0.1	-142.76
29393	9.4271	1.8182	0.1	-194.52
29394	9.3356	2.0909	0.1	-100.2
29395	9.4271	2.	0.1	-147.62
29396	9.3356	2.2727	0.1	-60.632
29397	9.4271	2.1818	0.1	-100.92
29398	9.3356	2.4545	0.1	-28.621
29399	9.4271	2.3636	0.1	-61.389
29400	9.3356	2.6364	0.1	-7.0539
29401	9.4271	2.5455	0.1	-32.567
29402	9.3356	2.8182	0.1	-0.74061
29403	9.4271	2.7273	0.1	-14.59
29404	9.3356	3.	0.1	-0.2776
29405	9.4271	2.9091	0.1	-5.8036
29406	9.3356	3.1818	0.1	-0.74062
29407	9.4271	3.0909	0.1	-5.8036
29408	9.3356	3.3636	0.1	-7.054
29409	9.4271	3.2727	0.1	-14.59
29410	9.3356	3.5455	0.1	-28.621
29411	9.4271	3.4545	0.1	-32.567
29412	9.3356	3.7273	0.1	-60.632
29413	9.4271	3.6364	0.1	-61.389
29414	9.3356	3.9091	0.1	-100.2
29415	9.4271	3.8182	0.1	-100.92
29416	9.3356	4.0909	0.1	-142.76
29417	9.4271	4.	0.1	-147.62
29418	9.3356	4.2727	0.1	-182.24
29419	9.4271	4.1818	0.1	-194.52
29420	9.3356	4.4545	0.1	-212.72
29421	9.4271	4.3636	0.1	-233.4
29422	9.3356	4.6364	0.1	-230.13
29423	9.4271	4.5455	0.1	-257.75
29424	9.3356	4.8182	0.1	-233.08
29425	9.4271	4.7273	0.1	-264.8
29426	9.3356	5.	0.1	-222.44
29427	9.4271	4.9091	0.1	-255.37
29428	9.3356	5.1818	0.1	-200.34
29429	9.4271	5.0909	0.1	-232.5
29430	9.3356	5.3636	0.1	-168.97
29431	9.4271	5.2727	0.1	-199.69
29432	9.3356	5.5455	0.1	-129.6
29433	9.4271	5.4545	0.1	-159.64
29434	9.3356	5.7273	0.1	-82.251
29435	9.4271	5.6364	0.1	-113.21
29436	9.4271	5.8182	0.1	-59.811
29437	9.3356	5.9091	0.1	-30.151
29438	9.5186	0.27273	0.1	-91.142
29439	9.6102	0.18182	0.1	-66.227
29440	9.5186	9.0909e-002	0.1	-33.639
29441	9.5186	0.45455	0.1	-143.98
29442	9.6102	0.36364	0.1	-122.84
29443	9.5186	0.63636	0.1	-191.61
29444	9.6102	0.54545	0.1	-176.49
29445	9.5186	0.81818	0.1	-233.59
29446	9.6102	0.72727	0.1	-227.58
29447	9.5186	1.	0.1	-267.51
29448	9.6102	0.90909	0.1	-274.4
29449	9.5186	1.1818	0.1	-289.28
29450	9.6102	1.0909	0.1	-312.45
29451	9.5186	1.3636	0.1	-294.48
29452	9.6102	1.2727	0.1	-335.48
29453	9.5186	1.5455	0.1	-280.18
29454	9.6102	1.4545	0.1	-337.21
29455	9.5186	1.7273	0.1	-247.02
29456	9.6102	1.6364	0.1	-314.15
29457	9.5186	1.9091	0.1	-200.33
29458	9.6102	1.8182	0.1	-268.78
29459	9.5186	2.0909	0.1	-148.94
29460	9.6102	2.	0.1	-210.7
29461	9.5186	2.2727	0.1	-101.98
29462	9.6102	2.1818	0.1	-153.13
29463	9.5186	2.4545	0.1	-65.515
29464	9.6102	2.3636	0.1	-106.81
29465	9.5186	2.6364	0.1	-41.27
29466	9.6102	2.5455	0.1	-75.9
29467	9.5186	2.8182	0.1	-27.966
29468	9.6102	2.7273	0.1	-58.721
29469	9.5186	3.	0.1	-23.768
29470	9.6102	2.9091	0.1	-51.471
29471	9.5186	3.1818	0.1	-27.966
29472	9.6102	3.0909	0.1	-51.471
29473	9.5186	3.3636	0.1	-41.27
29474	9.6102	3.2727	0.1	-58.721
29475	9.5186	3.5455	0.1	-65.515
29476	9.6102	3.4545	0.1	-75.9
29477	9.5186	3.7273	0.1	-101.98
29478	9.6102	3.6364	0.1	-106.81
29479	9.5186	3.9091	0.1	-148.94
29480	9.6102	3.8182	0.1	-153.13
29481	9.5186	4.0909	0.1	-200.33
29482	9.6102	4.	0.1	-210.7
29483	9.5186	4.2727	0.1	-247.02
29484	9.6102	4.1818	0.1	-268.78
29485	9.5186	4.4545	0.1	-280.18
29486	9.6102	4.3636	0.1	-314.15
29487	9.5186	4.6364	0.1	-294.48
29488	9.6102	4.5455	0.1	-337.21
29489	9.5186	4.8182	0.1	-289.28
29490	9.6102	4.7273	0.1	-335.48
29491	9.5186	5.	0.1	-267.51
29492	9.6102	4.9091	0.1	-312.45
29493	9.5186	5.1818	0.1	-233.59
29494	9.6102	5.0909	0.1	-274.4
29495	9.5186	5.3636	0.1	-191.61
29496	9.6102	5.2727	0.1	-227.58
29497	9.5186	5.5455	0.1	-143.98
29498	9.6102	5.4545	0.1	-176.49
29499	9.5186	5.7273	0.1	-91.142
29500	9.6102	5.6364	0.1	-122.84
29501	9.6102	5.8182	0.1	-66.227
29502	9.5186	5.9091	0.1	-33.639
29503	9.7017	0.27273	0.1	-98.548
29504	9.7932	0.18182	0.1	-71.591
29505	9.7017	9.0909e-002	0.1	-36.665
29506	9.7017	0.45455	0.1	-156.51
29507	9.7932	0.36364	0.1	-129.52
29508	9.7017	0.63636	0.1	-214.5
29509	9.7932	0.54545	0.1	-191.6
29510	9.7017	0.81818	0.1	-271.31
29511	9.7932	0.72727	0.1	-257.65
29512	9.7017	1.	0.1	-322.89
29513	9.7932	0.90909	0.1	-324.68
29514	9.7017	1.1818	0.1	-362.41
29515	9.7932	1.0909	0.1	-385.81
29516	9.7017	1.3636	0.1	-381.73
29517	9.7932	1.2727	0.1	-431.16
29518	9.7017	1.5455	0.1	-374.11
29519	9.7932	1.4545	0.1	-449.17
29520	9.7017	1.7273	0.1	-338.08
29521	9.7932	1.6364	0.1	-430.58
29522	9.7017	1.9091	0.1	-280.62
29523	9.7932	1.8182	0.1	-375.93
29524	9.7017	2.0909	0.1	-215.78
29525	9.7932	2.	0.1	-299.56
29526	9.7017	2.2727	0.1	-158.34
29527	9.7932	2.1818	0.1	-224.68
29528	9.7017	2.4545	0.1	-117.11
29529	9.7932	2.3636	0.1	-169.31
29530	9.7017	2.6364	0.1	-92.828
29531	9.7932	2.5455	0.1	-137.52
29532	9.7017	2.8182	0.1	-81.317
29533	9.7932	2.7273	0.1	-123.24
29534	9.7017	3.	0.1	-78.081
29535	9.7932	2.9091	0.1	-118.45
29536	9.7017	3.1818	0.1	-81.317
29537	9.7932	3.0909	0.1	-118.45
29538	9.7017	3.3636	0.1	-92.828
29539	9.7932	3.2727	0.1	-123.24
29540	9.7017	3.5455	0.1	-117.11
29541	9.7932	3.4545	0.1	-137.52
29542	9.7017	3.7273	0.1	-158.34
29543	9.7932	3.6364	0.1	-169.31
29544	9.7017	3.9091	0.1	-215.78
29545	9.7932	3.8182	0.1	-224.68
29546	9.7017	4.0909	0.1	-280.62
29547	9.7932	4.	0.1	-299.56
29548	9.7017	4.2727	0.1	-338.08
29549	9.7932	4.1818	0.1	-375.93
29550	9.7017	4.4545	0.1	-374.11
29551	9.7932	4.3636	0.1	-430.58
29552	9.7017	4.6364	0.1	-381.73
29553	9.7932	4.5455	0.1	-449.17
29554	9.7017	4.8182	0.1	-362.41
29555	9.7932	4.7273	0.1	-431.16
29556	9.7017	5.	0.1	-322.89
29557	9.7932	4.9091	0.1	-385.81
29558	9.7017	5.1818	0.1	-271.31
29559	9.7932	5.0909	0.1	-324.68
29560	9.7017	5.3636	0.1	-214.5
29561	9.7932	5.2727	0.1	-257.65
29562	9.7017	5.5455	0.1	-156.51
29563	9.7932	5.4545	0.1	-191.6
29564	9.7017	5.7273	0.1	-98.548
29565	9.7932	5.6364	0.1	-129.52
29566	9.7932	5.8182	0.1	-71.591
29567	9.7017	5.9091	0.1	-36.665
29568	9.8847	0.27273	0.1	-103.52
29569	9.9763	0.18182	0.1	-75.099
29570	9.8847	9.0909e-002	0.1	-38.71
29571	9.8847	0.45455	0.1	-166.47
29572	9.9763	0.36364	0.1	-132.35
29573	9.8847	0.63636	0.1	-238.15
29574	9.9763	0.54545	0.1	-205.36
29575	9.8847	0.81818	0.1	-315.95
29576	9.9763	0.72727	0.1	-292.24
29577	9.8847	1.	0.1	-393.64
29578	9.9763	0.90909	0.1	-388.
29579	9.8847	1.1818	0.1	-461.01
29580	9.9763	1.0909	0.1	-483.32
29581	9.8847	1.3636	0.1	-504.59
29582	9.9763	1.2727	0.1	-564.4
29583	9.8847	1.5455	0.1	-510.48
29584	9.9763	1.4545	0.1	-612.55
29585	9.8847	1.7273	0.1	-471.82
29586	9.9763	1.6364	0.1	-607.19
29587	9.8847	1.9091	0.1	-396.99
29588	9.9763	1.8182	0.1	-538.82
29589	9.8847	2.0909	0.1	-309.6
29590	9.9763	2.	0.1	-430.21
29591	9.8847	2.2727	0.1	-235.94
29592	9.9763	2.1818	0.1	-325.17
29593	9.8847	2.4545	0.1	-189.2
29594	9.9763	2.3636	0.1	-256.09
29595	9.8847	2.6364	0.1	-166.71
29596	9.9763	2.5455	0.1	-224.97
29597	9.8847	2.8182	0.1	-158.69
29598	9.9763	2.7273	0.1	-215.52
29599	9.8847	3.	0.1	-156.97
29600	9.9763	2.9091	0.1	-213.87
29601	9.8847	3.1818	0.1	-158.69
29602	9.9763	3.0909	0.1	-213.87
29603	9.8847	3.3636	0.1	-166.71
29604	9.9763	3.2727	0.1	-215.52
29605	9.8847	3.5455	0.1	-189.2
29606	9.9763	3.4545	0.1	-224.97
29607	9.8847	3.7273	0.1	-235.94
29608	9.9763	3.6364	0.1	-256.09
29609	9.8847	3.9091	0.1	-309.6
29610	9.9763	3.8182	0.1	-325.17
29611	9.8847	4.0909	0.1	-396.99
29612	9.9763	4.	0.1	-430.21
29613	9.8847	4.2727	0.1	-471.83
29614	9.9763	4.1818	0.1	-538.82
29615	9.8847	4.4545	0.1	-510.48
29616	9.9763	4.3636	0.1	-607.19
29617	9.8847	4.6364	0.1	-504.6
29618	9.9763	4.5455	0.1	-612.56
29619	9.8847	4.8182	0.1	-461.01
29620	9.9763	4.7273	0.1	-564.4
29621	9.8847	5.	0.1	-393.64
29622	9.9763	4.9091	0.1	-483.32
29623	9.8847	5.1818	0.1	-315.95
29624	9.9763	5.0909	0.1	-388.
29625	9.8847	5.3636	0.1	-238.15
29626	9.9763	5.2727	0.1	-292.24
29627	9.8847	5.5455	0.1	-166.47
29628	9.9763	5.4545	0.1	-205.36
29629	9.8847	5.7273	0.1	-103.52
29630	9.9763	5.6364	0.1	-132.35
29631	9.9763	5.8182	0.1	-75.099
29632	9.8847	5.9091	0.1	-38.71
29633	10.068	0.27273	0.1	-105.41
29634	10.159	0.18182	0.1	-75.813
29635	10.068	9.0909e-002	0.1	-39.111
29636	10.068	0.45455	0.1	-174.4
29637	10.159	0.36364	0.1	-131.86
29638	10.068	0.63636	0.1	-265.29
29639	10.159	0.54545	0.1	-221.3
29640	10.068	0.81818	0.1	-372.66
29641	10.159	0.72727	0.1	-337.55
29642	10.068	1.	0.1	-487.85
29643	10.159	0.90909	0.1	-472.54
29644	10.068	1.1818	0.1	-597.6
29645	10.159	1.0909	0.1	-615.81
29646	10.068	1.3636	0.1	-682.56
29647	10.159	1.2727	0.1	-751.74
29648	10.068	1.5455	0.1	-717.32
29649	10.159	1.4545	0.1	-856.01
29650	10.068	1.7273	0.1	-679.38
29651	10.159	1.6364	0.1	-885.7
29652	10.068	1.9091	0.1	-574.8
29653	10.159	1.8182	0.1	-801.87
29654	10.068	2.0909	0.1	-446.83
29655	10.159	2.	0.1	-632.04
29656	10.068	2.2727	0.1	-345.
29657	10.159	2.1818	0.1	-467.13
29658	10.068	2.4545	0.1	-290.29
29659	10.159	2.3636	0.1	-377.97
29660	10.068	2.6364	0.1	-271.36
29661	10.159	2.5455	0.1	-348.75
29662	10.068	2.8182	0.1	-267.87
29663	10.159	2.7273	0.1	-342.78
29664	10.068	3.	0.1	-267.83
29665	10.159	2.9091	0.1	-342.76
29666	10.068	3.1818	0.1	-267.87
29667	10.159	3.0909	0.1	-342.76
29668	10.068	3.3636	0.1	-271.36
29669	10.159	3.2727	0.1	-342.78
29670	10.068	3.5455	0.1	-290.29
29671	10.159	3.4545	0.1	-348.75
29672	10.068	3.7273	0.1	-345.
29673	10.159	3.6364	0.1	-377.97
29674	10.068	3.9091	0.1	-446.83
29675	10.159	3.8182	0.1	-467.13
29676	10.068	4.0909	0.1	-574.8
29677	10.159	4.	0.1	-632.05
29678	10.068	4.2727	0.1	-679.38
29679	10.159	4.1818	0.1	-801.87
29680	10.068	4.4545	0.1	-717.32
29681	10.159	4.3636	0.1	-885.7
29682	10.068	4.6364	0.1	-682.56
29683	10.159	4.5455	0.1	-856.01
29684	10.068	4.8182	0.1	-597.6
29685	10.159	4.7273	0.1	-751.74
29686	10.068	5.	0.1	-487.85
29687	10.159	4.9091	0.1	-615.81
29688	10.068	5.1818	0.1	-372.66
29689	10.159	5.0909	0.1	-472.54
29690	10.068	5.3636	0.1	-265.29
29691	10.159	5.2727	0.1	-337.55
29692	10.068	5.5455	0.1	-174.4
29693	10.159	5.4545	0.1	-221.3
29694	10.068	5.7273	0.1	-105.41
29695	10.159	5.6364	0.1	-131.86
29696	10.159	5.8182	0.1	-75.813
29697	10.068	5.9091	0.1	-39.111
29698	10.251	0.27273	0.1	-104.76
29699	10.342	0.18182	0.1	-74.383
29700	10.251	9.0909e-002	0.1	-36.885
29701	10.251	0.45455	0.1	-184.68
29702	10.342	0.36364	0.1	-134.75
29703	10.251	0.63636	0.1	-303.96
29704	10.342	0.54545	0.1	-252.52
29705	10.251	0.81818	0.1	-451.47
29706	10.342	0.72727	0.1	-409.27
29707	10.251	1.	0.1	-617.08
29708	10.342	0.90909	0.1	-593.9
29709	10.251	1.1818	0.1	-787.85
29710	10.342	1.0909	0.1	-798.67
29711	10.251	1.3636	0.1	-942.53
29712	10.342	1.2727	0.1	-1014.5
29713	10.251	1.5455	0.1	-1038.3
29714	10.342	1.4545	0.1	-1215.9
29715	10.251	1.7273	0.1	-1015.9
29716	10.342	1.6364	0.1	-1352.
29717	10.251	1.9091	0.1	-861.91
29718	10.342	1.8182	0.1	-1303.8
29719	10.251	2.0909	0.1	-652.05
29720	10.342	2.	0.1	-979.08
29721	10.251	2.2727	0.1	-497.52
29722	10.342	2.1818	0.1	-681.95
29723	10.251	2.4545	0.1	-432.43
29724	10.342	2.3636	0.1	-552.59
29725	10.251	2.6364	0.1	-415.82
29726	10.342	2.5455	0.1	-518.18
29727	10.251	2.8182	0.1	-413.47
29728	10.342	2.7273	0.1	-504.58
29729	10.251	3.	0.1	-413.6
29730	10.342	2.9091	0.1	-500.24
29731	10.251	3.1818	0.1	-413.47
29732	10.342	3.0909	0.1	-500.24
29733	10.251	3.3636	0.1	-415.82
29734	10.342	3.2727	0.1	-504.58
29735	10.251	3.5455	0.1	-432.43
29736	10.342	3.4545	0.1	-518.18
29737	10.251	3.7273	0.1	-497.52
29738	10.342	3.6364	0.1	-552.59
29739	10.251	3.9091	0.1	-652.06
29740	10.342	3.8182	0.1	-681.95
29741	10.251	4.0909	0.1	-861.91
29742	10.342	4.	0.1	-979.09
29743	10.251	4.2727	0.1	-1015.9
29744	10.342	4.1818	0.1	-1303.8
29745	10.251	4.4545	0.1	-1038.3
29746	10.342	4.3636	0.1	-1352.
29747	10.251	4.6364	0.1	-942.53
29748	10.342	4.5455	0.1	-1215.9
29749	10.251	4.8182	0.1	-787.85
29750	10.342	4.7273	0.1	-1014.5
29751	10.251	5.	0.1	-617.08
29752	10.342	4.9091	0.1	-798.67
29753	10.251	5.1818	0.1	-451.47
29754	10.342	5.0909	0.1	-593.9
29755	10.251	5.3636	0.1	-303.96
29756	10.342	5.2727	0.1	-409.27
29757	10.251	5.5455	0.1	-184.68
29758	10.342	5.4545	0.1	-252.52
29759	10.251	5.7273	0.1	-104.76
29760	10.342	5.6364	0.1	-134.75
29761	10.342	5.8182	0.1	-74.383
29762	10.251	5.9091	0.1	-36.885
29763	10.434	0.27273	0.1	-109.91
29764	10.525	0.18182	0.1	-82.054
29765	10.434	9.0909e-002	0.1	-33.039
29766	10.434	0.45455	0.1	-215.58
29767	10.525	0.36364	0.1	-177.33
29768	10.434	0.63636	0.1	-376.79
29769	10.525	0.54545	0.1	-347.5
29770	10.434	0.81818	0.1	-574.23
29771	10.525	0.72727	0.1	-558.72
29772	10.434	1.	0.1	-800.77
29773	10.525	0.90909	0.1	-804.07
29774	10.434	1.1818	0.1	-1053.3
29775	10.525	1.0909	0.1	-1085.5
29776	10.434	1.3636	0.1	-1317.9
29777	10.525	1.2727	0.1	-1410.4
29778	10.434	1.5455	0.1	-1555.7
29779	10.525	1.4545	0.1	-1775.9
29780	10.434	1.7273	0.1	-1656.
29781	10.525	1.6364	0.1	-2195.7
29782	10.434	1.9091	0.1	-1418.8
29783	10.525	1.8182	0.1	-2436.2
29784	10.434	2.0909	0.1	-1002.4
29785	10.525	2.	0.1	-1793.3
29786	10.434	2.2727	0.1	-727.1
29787	10.525	2.1818	0.1	-999.32
29788	10.434	2.4545	0.1	-629.91
29789	10.525	2.3636	0.1	-805.92
29790	10.434	2.6364	0.1	-600.74
29791	10.525	2.5455	0.1	-717.92
29792	10.434	2.8182	0.1	-586.48
29793	10.525	2.7273	0.1	-678.61
29794	10.434	3.	0.1	-582.44
29795	10.525	2.9091	0.1	-660.46
29796	10.434	3.1818	0.1	-586.48
29797	10.525	3.0909	0.1	-660.46
29798	10.434	3.3636	0.1	-600.74
29799	10.525	3.2727	0.1	-678.61
29800	10.434	3.5455	0.1	-629.91
29801	10.525	3.4545	0.1	-717.92
29802	10.434	3.7273	0.1	-727.1
29803	10.525	3.6364	0.1	-805.92
29804	10.434	3.9091	0.1	-1002.4
29805	10.525	3.8182	0.1	-999.32
29806	10.434	4.0909	0.1	-1418.8
29807	10.525	4.	0.1	-1793.3
29808	10.434	4.2727	0.1	-1656.
29809	10.525	4.1818	0.1	-2436.2
29810	10.434	4.4545	0.1	-1555.7
29811	10.525	4.3636	0.1	-2195.7
29812	10.434	4.6364	0.1	-1317.9
29813	10.525	4.5455	0.1	-1775.9
29814	10.434	4.8182	0.1	-1053.3
29815	10.525	4.7273	0.1	-1410.4
29816	10.434	5.	0.1	-800.78
29817	10.525	4.9091	0.1	-1085.5
29818	10.434	5.1818	0.1	-574.23
29819	10.525	5.0909	0.1	-804.07
29820	10.434	5.3636	0.1	-376.79
29821	10.525	5.2727	0.1	-558.72
29822	10.434	5.5455	0.1	-215.58
29823	10.525	5.4545	0.1	-347.5
29824	10.434	5.7273	0.1	-109.91
29825	10.525	5.6364	0.1	-177.33
29826	10.525	5.8182	0.1	-82.054
29827	10.434	5.9091	0.1	-33.039
29828	10.617	0.27273	0.1	-169.48
29829	10.708	0.18182	0.1	-53.431
29830	10.617	9.0909e-002	0.1	-40.972
29831	10.617	0.45455	0.1	-340.03
29832	10.708	0.36364	0.1	-179.72
29833	10.617	0.63636	0.1	-561.88
29834	10.708	0.54545	0.1	-348.04
29835	10.617	0.81818	0.1	-821.89
29836	10.708	0.72727	0.1	-546.13
29837	10.617	1.	0.1	-1124.8
29838	10.708	0.90909	0.1	-777.62
29839	10.617	1.1818	0.1	-1484.7
29840	10.708	1.0909	0.1	-1052.7
29841	10.617	1.3636	0.1	-1920.9
29842	10.708	1.2727	0.1	-1390.
29843	10.617	1.5455	0.1	-2492.3
29844	10.708	1.4545	0.1	-1831.5
29845	10.617	1.7273	0.1	-3039.3
29846	10.708	1.6364	0.1	-2366.2
29847	10.617	1.9091	0.1	-2792.7
29848	10.708	1.8182	0.1	-3588.5
29849	10.617	2.0909	0.1	-1715.9
29850	10.708	2.	0.1	-2642.8
29851	10.617	2.2727	0.1	-1056.1
29852	10.708	2.1818	0.1	-1236.9
29853	10.617	2.4545	0.1	-885.56
29854	10.708	2.3636	0.1	-1024.7
29855	10.617	2.6364	0.1	-791.73
29856	10.708	2.5455	0.1	-879.39
29857	10.617	2.8182	0.1	-749.38
29858	10.708	2.7273	0.1	-807.27
29859	10.617	3.	0.1	-735.37
29860	10.708	2.9091	0.1	-773.06
29861	10.617	3.1818	0.1	-749.38
29862	10.708	3.0909	0.1	-773.06
29863	10.617	3.3636	0.1	-791.73
29864	10.708	3.2727	0.1	-807.27
29865	10.617	3.5455	0.1	-885.56
29866	10.708	3.4545	0.1	-879.39
29867	10.617	3.7273	0.1	-1056.1
29868	10.708	3.6364	0.1	-1024.7
29869	10.617	3.9091	0.1	-1715.9
29870	10.708	3.8182	0.1	-1236.9
29871	10.617	4.0909	0.1	-2792.7
29872	10.708	4.	0.1	-2642.8
29873	10.617	4.2727	0.1	-3039.3
29874	10.708	4.1818	0.1	-3588.5
29875	10.617	4.4545	0.1	-2492.3
29876	10.708	4.3636	0.1	-2366.2
29877	10.617	4.6364	0.1	-1920.9
29878	10.708	4.5455	0.1	-1831.5
29879	10.617	4.8182	0.1	-1484.7
29880	10.708	4.7273	0.1	-1390.
29881	10.617	5.	0.1	-1124.8
29882	10.708	4.9091	0.1	-1052.7
29883	10.617	5.1818	0.1	-821.89
29884	10.708	5.0909	0.1	-777.62
29885	10.617	5.3636	0.1	-561.88
29886	10.708	5.2727	0.1	-546.13
29887	10.617	5.5455	0.1	-340.03
29888	10.708	5.4545	0.1	-348.04
29889	10.617	5.7273	0.1	-169.48
29890	10.708	5.6364	0.1	-179.72
29891	10.708	5.8182	0.1	-53.431
29892	10.617	5.9091	0.1	-40.972
29893	10.967	3.7273	0.1	-1085.7
29894	10.883	3.8182	0.1	-1184.9
29895	10.967	3.9091	0.1	-1469.9
29896	10.967	3.5455	0.1	-964.27
29897	10.883	3.6364	0.1	-1053.6
29898	10.967	3.3636	0.1	-849.86
29899	10.883	3.4545	0.1	-912.07
29900	10.967	3.1818	0.1	-789.62
29901	10.883	3.2727	0.1	-829.11
29902	10.967	3.	0.1	-770.48
29903	10.883	3.0909	0.1	-790.3
29904	10.967	2.8182	0.1	-789.62
29905	10.883	2.9091	0.1	-790.3
29906	10.967	2.6364	0.1	-849.86
29907	10.883	2.7273	0.1	-829.11
29908	10.967	2.4545	0.1	-964.27
29909	10.883	2.5455	0.1	-912.07
29910	10.967	2.2727	0.1	-1085.7
29911	10.883	2.3636	0.1	-1053.6
29912	10.883	2.1818	0.1	-1184.9
29913	10.967	2.0909	0.1	-1469.9
29914	10.8	3.7273	0.1	-1279.1
29915	10.8	3.9091	0.1	-2295.1
29916	10.8	3.5455	0.1	-1038.1
29917	10.8	3.3636	0.1	-900.85
29918	10.8	3.1818	0.1	-831.5
29919	10.8	3.	0.1	-809.97
29920	10.8	2.8182	0.1	-831.5
29921	10.8	2.6364	0.1	-900.85
29922	10.8	2.4545	0.1	-1038.1
29923	10.8	2.2727	0.1	-1279.1
29924	10.8	2.0909	0.1	-2295.1
29925	10.967	5.7273	0.1	-94.881
29926	10.967	5.9091	0.1	-16.05
29927	10.967	5.8182	5.e-002	-66.225
29928	10.967	5.5455	0.1	-184.53
29929	10.967	5.6364	5.e-002	-141.55
29930	10.967	5.3636	0.1	-289.91
29931	10.967	5.4545	5.e-002	-215.97
29932	10.967	5.1818	0.1	-414.57
29933	10.967	5.2727	5.e-002	-296.51
29934	10.967	5.	0.1	-565.21
29935	10.967	5.0909	5.e-002	-387.51
29936	10.967	4.8182	0.1	-754.25
29937	10.967	4.9091	5.e-002	-495.32
29938	10.967	4.6364	0.1	-1013.9
29939	10.967	4.7273	5.e-002	-630.71
29940	10.967	4.4545	0.1	-1320.
29941	10.967	4.5455	5.e-002	-812.42
29942	10.967	4.2727	0.1	-2358.1
29943	10.967	4.3636	5.e-002	-1100.
29944	10.967	4.0909	0.1	-2237.2
29945	10.967	4.1818	5.e-002	-1838.7
29946	10.883	4.	0.1	-1844.6
29947	10.967	4.	5.e-002	-1566.9
29948	10.8	4.0909	0.1	-3431.
29949	10.8	4.	5.e-002	-1869.3
29950	10.8	4.2727	0.1	-3274.5
29951	10.8	4.1818	5.e-002	-2091.
29952	10.8	4.4545	0.1	-1946.2
29953	10.8	4.3636	5.e-002	-1293.9
29954	10.8	4.6364	0.1	-1478.5
29955	10.8	4.5455	5.e-002	-966.66
29956	10.8	4.8182	0.1	-1104.4
29957	10.8	4.7273	5.e-002	-759.64
29958	10.8	5.	0.1	-825.51
29959	10.8	4.9091	5.e-002	-602.09
29960	10.8	5.1818	0.1	-601.8
29961	10.8	5.0909	5.e-002	-474.27
29962	10.8	5.3636	0.1	-416.54
29963	10.8	5.2727	5.e-002	-364.54
29964	10.8	5.5455	0.1	-261.23
29965	10.8	5.4545	5.e-002	-266.18
29966	10.8	5.7273	0.1	-131.81
29967	10.8	5.6364	5.e-002	-174.65
29968	10.8	5.9091	0.1	-22.391
29969	10.8	5.8182	5.e-002	-82.581
29970	10.967	0.27273	0.1	-94.881
29971	10.967	9.0909e-002	0.1	-16.05
29972	10.967	0.18182	5.e-002	-66.225
29973	10.967	0.45455	0.1	-184.53
29974	10.967	0.36364	5.e-002	-141.55
29975	10.967	0.63636	0.1	-289.91
29976	10.967	0.54545	5.e-002	-215.97
29977	10.967	0.81818	0.1	-414.57
29978	10.967	0.72727	5.e-002	-296.51
29979	10.967	1.	0.1	-565.21
29980	10.967	0.90909	5.e-002	-387.51
29981	10.967	1.1818	0.1	-754.25
29982	10.967	1.0909	5.e-002	-495.32
29983	10.967	1.3636	0.1	-1013.9
29984	10.967	1.2727	5.e-002	-630.71
29985	10.967	1.5455	0.1	-1320.
29986	10.967	1.4545	5.e-002	-812.42
29987	10.967	1.7273	0.1	-2358.1
29988	10.967	1.6364	5.e-002	-1100.
29989	10.967	1.9091	0.1	-2237.2
29990	10.967	1.8182	5.e-002	-1838.7
29991	10.883	2.	0.1	-1844.6
29992	10.967	2.	5.e-002	-1566.9
29993	10.8	1.9091	0.1	-3431.
29994	10.8	2.	5.e-002	-1869.3
29995	10.8	1.7273	0.1	-3274.5
29996	10.8	1.8182	5.e-002	-2091.
29997	10.8	1.5455	0.1	-1946.2
29998	10.8	1.6364	5.e-002	-1293.9
29999	10.8	1.3636	0.1	-1478.5
30000	10.8	1.4545	5.e-002	-966.66
30001	10.8	1.1818	0.1	-1104.4
30002	10.8	1.2727	5.e-002	-759.64
30003	10.8	1.	0.1	-825.51
30004	10.8	1.0909	5.e-002	-602.09
30005	10.8	0.81818	0.1	-601.8
30006	10.8	0.90909	5.e-002	-474.27
30007	10.8	0.63636	0.1	-416.54
30008	10.8	0.72727	5.e-002	-364.54
30009	10.8	0.45455	0.1	-261.23
30010	10.8	0.54545	5.e-002	-266.18
30011	10.8	0.27273	0.1	-131.81
30012	10.8	0.36364	5.e-002	-174.65
30013	10.8	9.0909e-002	0.1	-22.391
30014	10.8	0.18182	5.e-002	-82.581
30015	11.058	6.	0.1	-4.6881
30016	10.967	6.	5.e-002	-20.895
30017	11.242	6.	0.1	-14.306
30018	11.15	6.	5.e-002	-16.763
30019	11.426	6.	0.1	-17.355
30020	11.334	6.	5.e-002	-42.881
30021	11.609	6.	0.1	-18.358
30022	11.517	6.	5.e-002	-56.354
30023	11.793	6.	0.1	-17.725
30024	11.701	6.	5.e-002	-63.615
30025	11.976	6.	0.1	-16.201
30026	11.885	6.	5.e-002	-66.429
30027	12.16	6.	0.1	-14.346
30028	12.068	6.	5.e-002	-66.439
30029	12.343	6.	0.1	-12.453
30030	12.252	6.	5.e-002	-64.785
30031	12.527	6.	0.1	-10.691
30032	12.435	6.	5.e-002	-62.302
30033	12.711	6.	0.1	-9.135
30034	12.619	6.	5.e-002	-59.558
30035	12.894	6.	0.1	-7.8112
30036	12.802	6.	5.e-002	-56.917
30037	13.078	6.	0.1	-6.7164
30038	12.986	6.	5.e-002	-54.59
30039	13.261	6.	0.1	-5.8331
30040	13.169	6.	5.e-002	-52.677
30041	13.445	6.	0.1	-5.1381
30042	13.353	6.	5.e-002	-51.211
30043	13.628	6.	0.1	-4.6073
30044	13.537	6.	5.e-002	-50.178
30045	13.812	6.	0.1	-4.2179
30046	13.72	6.	5.e-002	-49.538
30047	13.996	6.	0.1	-3.9493
30048	13.904	6.	5.e-002	-49.241
30049	14.179	6.	0.1	-3.7834
30050	14.087	6.	5.e-002	-49.23
30051	14.363	6.	0.1	-3.7044
30052	14.271	6.	5.e-002	-49.451
30053	14.546	6.	0.1	-3.6988
30054	14.454	6.	5.e-002	-49.852
30055	14.73	6.	0.1	-3.7547
30056	14.638	6.	5.e-002	-50.388
30057	14.913	6.	0.1	-3.862
30058	14.822	6.	5.e-002	-51.02
30059	15.097	6.	0.1	-4.0119
30060	15.005	6.	5.e-002	-51.713
30061	15.281	6.	0.1	-4.197
30062	15.189	6.	5.e-002	-52.439
30063	15.464	6.	0.1	-4.4108
30064	15.372	6.	5.e-002	-53.175
30065	15.648	6.	0.1	-4.6477
30066	15.556	6.	5.e-002	-53.902
30067	15.831	6.	0.1	-4.9031
30068	15.739	6.	5.e-002	-54.607
30069	16.015	6.	0.1	-5.173
30070	15.923	6.	5.e-002	-55.276
30071	16.198	6.	0.1	-5.4541
30072	16.107	6.	5.e-002	-55.901
30073	16.382	6.	0.1	-5.7437
30074	16.29	6.	5.e-002	-56.475
30075	16.565	6.	0.1	-6.0394
30076	16.474	6.	5.e-002	-56.995
30077	16.749	6.	0.1	-6.3394
30078	16.657	6.	5.e-002	-57.455
30079	16.933	6.	0.1	-6.6423
30080	16.841	6.	5.e-002	-57.855
30081	17.116	6.	0.1	-6.9468
30082	17.024	6.	5.e-002	-58.193
30083	17.3	6.	0.1	-7.252
30084	17.208	6.	5.e-002	-58.469
30085	17.483	6.	0.1	-7.5572
30086	17.392	6.	5.e-002	-58.681
30087	17.667	6.	0.1	-7.8619
30088	17.575	6.	5.e-002	-58.831
30089	17.85	6.	0.1	-8.1657
30090	17.759	6.	5.e-002	-58.919
30091	18.034	6.	0.1	-8.4683
30092	17.942	6.	5.e-002	-58.946
30093	18.218	6.	0.1	-8.7696
30094	18.126	6.	5.e-002	-58.911
30095	18.401	6.	0.1	-9.0694
30096	18.309	6.	5.e-002	-58.815
30097	18.585	6.	0.1	-9.3677
30098	18.493	6.	5.e-002	-58.659
30099	18.768	6.	0.1	-9.6644
30100	18.677	6.	5.e-002	-58.443
30101	18.952	6.	0.1	-9.9595
30102	18.86	6.	5.e-002	-58.166
30103	19.135	6.	0.1	-10.253
30104	19.044	6.	5.e-002	-57.829
30105	19.319	6.	0.1	-10.544
30106	19.227	6.	5.e-002	-57.43
30107	19.503	6.	0.1	-10.834
30108	19.411	6.	5.e-002	-56.97
30109	19.686	6.	0.1	-11.122
30110	19.594	6.	5.e-002	-56.446
30111	19.87	6.	0.1	-11.407
30112	19.778	6.	5.e-002	-55.856
30113	20.053	6.	0.1	-11.689
30114	19.962	6.	5.e-002	-55.2
30115	20.237	6.	0.1	-11.969
30116	20.145	6.	5.e-002	-54.475
30117	20.42	6.	0.1	-12.244
30118	20.329	6.	5.e-002	-53.677
30119	20.604	6.	0.1	-12.515
30120	20.512	6.	5.e-002	-52.804
30121	20.788	6.	0.1	-12.78
30122	20.696	6.	5.e-002	-51.852
30123	20.971	6.	0.1	-13.039
30124	20.879	6.	5.e-002	-50.815
30125	21.155	6.	0.1	-13.29
30126	21.063	6.	5.e-002	-49.689
30127	21.338	6.	0.1	-13.53
30128	21.246	6.	5.e-002	-48.468
30129	21.522	6.	0.1	-13.759
30130	21.43	6.	5.e-002	-47.145
30131	21.705	6.	0.1	-13.974
30132	21.614	6.	5.e-002	-45.712
30133	21.889	6.	0.1	-14.171
30134	21.797	6.	5.e-002	-44.159
30135	22.073	6.	0.1	-14.346
30136	21.981	6.	5.e-002	-42.475
30137	22.256	6.	0.1	-14.495
30138	22.164	6.	5.e-002	-40.647
30139	22.44	6.	0.1	-14.611
30140	22.348	6.	5.e-002	-38.659
30141	22.623	6.	0.1	-14.686
30142	22.531	6.	5.e-002	-36.491
30143	22.807	6.	0.1	-14.706
30144	22.715	6.	5.e-002	-34.118
30145	22.99	6.	0.1	-14.655
30146	22.899	6.	5.e-002	-31.507
30147	23.174	6.	0.1	-14.505
30148	23.082	6.	5.e-002	-28.613
30149	23.358	6.	0.1	-14.196
30150	23.266	6.	5.e-002	-25.37
30151	23.541	6.	0.1	-13.677
30152	23.449	6.	5.e-002	-21.675
30153	23.725	6.	0.1	-12.251
30154	23.633	6.	5.e-002	-17.33
30155	23.908	6.	0.1	-8.4702
30156	23.816	6.	5.e-002	-11.713
30157	24.	5.9091	0.1	-20.09
30158	24.	6.	5.e-002	-4.5364
30159	24.	5.7273	0.1	-49.664
30160	24.	5.8182	5.e-002	-4.044
30161	24.	5.5455	0.1	-73.584
30162	24.	5.6364	5.e-002	-4.6024
30163	24.	5.3636	0.1	-92.598
30164	24.	5.4545	5.e-002	-5.0906
30165	24.	5.1818	0.1	-108.55
30166	24.	5.2727	5.e-002	-5.3515
30167	24.	5.	0.1	-122.2
30168	24.	5.0909	5.e-002	-5.4676
30169	24.	4.8182	0.1	-133.98
30170	24.	4.9091	5.e-002	-5.4842
30171	24.	4.6364	0.1	-144.16
30172	24.	4.7273	5.e-002	-5.4322
30173	24.	4.4545	0.1	-152.94
30174	24.	4.5455	5.e-002	-5.3339
30175	24.	4.2727	0.1	-160.45
30176	24.	4.3636	5.e-002	-5.2065
30177	24.	4.0909	0.1	-166.8
30178	24.	4.1818	5.e-002	-5.0638
30179	24.	3.9091	0.1	-172.06
30180	24.	4.	5.e-002	-4.9178
30181	24.	3.7273	0.1	-176.29
30182	24.	3.8182	5.e-002	-4.7785
30183	24.	3.5455	0.1	-179.55
30184	24.	3.6364	5.e-002	-4.655
30185	24.	3.3636	0.1	-181.85
30186	24.	3.4545	5.e-002	-4.5549
30187	24.	3.1818	0.1	-183.22
30188	24.	3.2727	5.e-002	-4.4845
30189	24.	3.	0.1	-183.67
30190	24.	3.0909	5.e-002	-4.4481
30191	24.	2.8182	0.1	-183.22
30192	24.	2.9091	5.e-002	-4.4481
30193	24.	2.6364	0.1	-181.85
30194	24.	2.7273	5.e-002	-4.4845
30195	24.	2.4545	0.1	-179.54
30196	24.	2.5455	5.e-002	-4.5549
30197	24.	2.2727	0.1	-176.29
30198	24.	2.3636	5.e-002	-4.655
30199	24.	2.0909	0.1	-172.06
30200	24.	2.1818	5.e-002	-4.7785
30201	24.	1.9091	0.1	-166.8
30202	24.	2.	5.e-002	-4.9178
30203	24.	1.7273	0.1	-160.45
30204	24.	1.8182	5.e-002	-5.0638
30205	24.	1.5455	0.1	-152.94
30206	24.	1.6364	5.e-002	-5.2065
30207	24.	1.3636	0.1	-144.16
30208	24.	1.4545	5.e-002	-5.3339
30209	24.	1.1818	0.1	-133.98
30210	24.	1.2727	5.e-002	-5.4322
30211	24.	1.	0.1	-122.2
30212	24.	1.0909	5.e-002	-5.4842
30213	24.	0.81818	0.1	-108.55
30214	24.	0.90909	5.e-002	-5.4676
30215	24.	0.63636	0.1	-92.598
30216	24.	0.72727	5.e-002	-5.3515
30217	24.	0.45455	0.1	-73.584
30218	24.	0.54545	5.e-002	-5.0906
30219	24.	0.27273	0.1	-49.664
30220	24.	0.36364	5.e-002	-4.6024
30221	24.	9.0909e-002	0.1	-20.09
30222	24.	0.18182	5.e-002	-4.044
30223	2.3842e-015	0.27273	0.1	1663.3
30224	7.9472e-016	9.0909e-002	0.1	-148.86
30225	1.6109e-015	0.18182	5.e-002	-95.244
30226	3.9736e-015	0.45455	0.1	2514.4
30227	3.2219e-015	0.36364	5.e-002	-49.834
30228	5.563e-015	0.63636	0.1	2948.3
30229	4.8328e-015	0.54545	5.e-002	-45.183
30230	7.1525e-015	0.81818	0.1	3218.4
30231	6.4438e-015	0.72727	5.e-002	-39.829
30232	8.7419e-015	1.	0.1	3402.9
30233	8.0547e-015	0.90909	5.e-002	-33.963
30234	1.0331e-014	1.1818	0.1	3536.4
30235	9.6657e-015	1.0909	5.e-002	-28.918
30236	1.1921e-014	1.3636	0.1	3636.1
30237	1.1277e-014	1.2727	5.e-002	-24.825
30238	1.351e-014	1.5455	0.1	3712.3
30239	1.2888e-014	1.4545	5.e-002	-21.5
30240	1.51e-014	1.7273	0.1	3771.1
30241	1.4498e-014	1.6364	5.e-002	-18.807
30242	1.6689e-014	1.9091	0.1	3816.7
30243	1.6109e-014	1.8182	5.e-002	-16.635
30244	1.8279e-014	2.0909	0.1	3851.9
30245	1.772e-014	2.	5.e-002	-14.899
30246	1.9868e-014	2.2727	0.1	3878.7
30247	1.9331e-014	2.1818	5.e-002	-13.533
30248	2.1457e-014	2.4545	0.1	3898.3
30249	2.0942e-014	2.3636	5.e-002	-12.491
30250	2.3047e-014	2.6364	0.1	3911.8
30251	2.2553e-014	2.5455	5.e-002	-11.736
30252	2.4636e-014	2.8182	0.1	3919.8
30253	2.4164e-014	2.7273	5.e-002	-11.246
30254	2.6226e-014	3.	0.1	3922.4
30255	2.5775e-014	2.9091	5.e-002	-11.004
30256	2.7815e-014	3.1818	0.1	3919.8
30257	2.7386e-014	3.0909	5.e-002	-11.004
30258	2.9405e-014	3.3636	0.1	3911.8
30259	2.8997e-014	3.2727	5.e-002	-11.246
30260	3.0994e-014	3.5455	0.1	3898.3
30261	3.0608e-014	3.4545	5.e-002	-11.736
30262	3.2583e-014	3.7273	0.1	3878.7
30263	3.2219e-014	3.6364	5.e-002	-12.491
30264	3.4173e-014	3.9091	0.1	3851.9
30265	3.383e-014	3.8182	5.e-002	-13.533
30266	3.5762e-014	4.0909	0.1	3816.7
30267	3.5441e-014	4.	5.e-002	-14.899
30268	3.7352e-014	4.2727	0.1	3771.1
30269	3.7052e-014	4.1818	5.e-002	-16.635
30270	3.8941e-014	4.4545	0.1	3712.3
30271	3.8663e-014	4.3636	5.e-002	-18.807
30272	4.0531e-014	4.6364	0.1	3636.1
30273	4.0274e-014	4.5455	5.e-002	-21.5
30274	4.212e-014	4.8182	0.1	3536.4
30275	4.1885e-014	4.7273	5.e-002	-24.825
30276	4.371e-014	5.	0.1	3402.9
30277	4.3495e-014	4.9091	5.e-002	-28.918
30278	4.5299e-014	5.1818	0.1	3218.4
30279	4.5106e-014	5.0909	5.e-002	-33.963
30280	4.6888e-014	5.3636	0.1	2948.3
30281	4.6717e-014	5.2727	5.e-002	-39.828
30282	4.8478e-014	5.5455	0.1	2514.4
30283	4.8328e-014	5.4545	5.e-002	-45.183
30284	5.0067e-014	5.7273	0.1	1663.3
30285	4.9939e-014	5.6364	5.e-002	-49.833
30286	5.1657e-014	5.9091	0.1	-148.86
30287	5.155e-014	5.8182	5.e-002	-95.243
30288	23.908	0.	0.1	-8.4702
30289	24.	0.	5.e-002	-4.5364
30290	23.725	0.	0.1	-12.251
30291	23.816	0.	5.e-002	-11.713
30292	23.541	0.	0.1	-13.677
30293	23.633	0.	5.e-002	-17.33
30294	23.358	0.	0.1	-14.196
30295	23.449	0.	5.e-002	-21.675
30296	23.174	0.	0.1	-14.505
30297	23.266	0.	5.e-002	-25.37
30298	22.99	0.	0.1	-14.655
30299	23.082	0.	5.e-002	-28.613
30300	22.807	0.	0.1	-14.706
30301	22.899	0.	5.e-002	-31.507
30302	22.623	0.	0.1	-14.685
30303	22.715	0.	5.e-002	-34.118
30304	22.44	0.	0.1	-14.611
30305	22.531	0.	5.e-002	-36.491
30306	22.256	0.	0.1	-14.495
30307	22.348	0.	5.e-002	-38.659
30308	22.073	0.	0.1	-14.346
30309	22.164	0.	5.e-002	-40.647
30310	21.889	0.	0.1	-14.171
30311	21.981	0.	5.e-002	-42.475
30312	21.705	0.	0.1	-13.974
30313	21.797	0.	5.e-002	-44.159
30314	21.522	0.	0.1	-13.759
30315	21.614	0.	5.e-002	-45.712
30316	21.338	0.	0.1	-13.53
30317	21.43	0.	5.e-002	-47.145
30318	21.155	0.	0.1	-13.29
30319	21.246	0.	5.e-002	-48.468
30320	20.971	0.	0.1	-13.039
30321	21.063	0.	5.e-002	-49.689
30322	20.788	0.	0.1	-12.78
30323	20.879	0.	5.e-002	-50.815
30324	20.604	0.	0.1	-12.515
30325	20.696	0.	5.e-002	-51.852
30326	20.42	0.	0.1	-12.244
30327	20.512	0.	5.e-002	-52.804
30328	20.237	0.	0.1	-11.969
30329	20.329	0.	5.e-002	-53.677
30330	20.053	0.	0.1	-11.689
30331	20.145	0.	5.e-002	-54.475
30332	19.87	0.	0.1	-11.407
30333	19.962	0.	5.e-002	-55.2
30334	19.686	0.	0.1	-11.122
30335	19.778	0.	5.e-002	-55.856
30336	19.503	0.	0.1	-10.834
30337	19.594	0.	5.e-002	-56.446
30338	19.319	0.	0.1	-10.544
30339	19.411	0.	5.e-002	-56.97
30340	19.135	0.	0.1	-10.253
30341	19.227	0.	5.e-002	-57.43
30342	18.952	0.	0.1	-9.9594
30343	19.044	0.	5.e-002	-57.829
30344	18.768	0.	0.1	-9.6643
30345	18.86	0.	5.e-002	-58.166
30346	18.585	0.	0.1	-9.3676
30347	18.677	0.	5.e-002	-58.443
30348	18.401	0.	0.1	-9.0693
30349	18.493	0.	5.e-002	-58.659
30350	18.218	0.	0.1	-8.7695
30351	18.309	0.	5.e-002	-58.815
30352	18.034	0.	0.1	-8.4683
30353	18.126	0.	5.e-002	-58.911
30354	17.85	0.	0.1	-8.1656
30355	17.942	0.	5.e-002	-58.946
30356	17.667	0.	0.1	-7.8618
30357	17.759	0.	5.e-002	-58.919
30358	17.483	0.	0.1	-7.5571
30359	17.575	0.	5.e-002	-58.831
30360	17.3	0.	0.1	-7.252
30361	17.392	0.	5.e-002	-58.681
30362	17.116	0.	0.1	-6.9468
30363	17.208	0.	5.e-002	-58.469
30364	16.933	0.	0.1	-6.6423
30365	17.024	0.	5.e-002	-58.193
30366	16.749	0.	0.1	-6.3394
30367	16.841	0.	5.e-002	-57.855
30368	16.565	0.	0.1	-6.0394
30369	16.657	0.	5.e-002	-57.455
30370	16.382	0.	0.1	-5.7436
30371	16.474	0.	5.e-002	-56.994
30372	16.198	0.	0.1	-5.4541
30373	16.29	0.	5.e-002	-56.475
30374	16.015	0.	0.1	-5.173
30375	16.107	0.	5.e-002	-55.901
30376	15.831	0.	0.1	-4.903
30377	15.923	0.	5.e-002	-55.275
30378	15.648	0.	0.1	-4.6476
30379	15.739	0.	5.e-002	-54.606
30380	15.464	0.	0.1	-4.4107
30381	15.556	0.	5.e-002	-53.902
30382	15.281	0.	0.1	-4.197
30383	15.372	0.	5.e-002	-53.175
30384	15.097	0.	0.1	-4.0119
30385	15.189	0.	5.e-002	-52.439
30386	14.913	0.	0.1	-3.8619
30387	15.005	0.	5.e-002	-51.712
30388	14.73	0.	0.1	-3.7547
30389	14.822	0.	5.e-002	-51.02
30390	14.546	0.	0.1	-3.6988
30391	14.638	0.	5.e-002	-50.388
30392	14.363	0.	0.1	-3.7044
30393	14.454	0.	5.e-002	-49.852
30394	14.179	0.	0.1	-3.7834
30395	14.271	0.	5.e-002	-49.451
30396	13.996	0.	0.1	-3.9493
30397	14.087	0.	5.e-002	-49.23
30398	13.812	0.	0.1	-4.2179
30399	13.904	0.	5.e-002	-49.241
30400	13.628	0.	0.1	-4.6073
30401	13.72	0.	5.e-002	-49.538
30402	13.445	0.	0.1	-5.1381
30403	13.537	0.	5.e-002	-50.178
30404	13.261	0.	0.1	-5.8331
30405	13.353	0.	5.e-002	-51.211
30406	13.078	0.	0.1	-6.7164
30407	13.169	0.	5.e-002	-52.677
30408	12.894	0.	0.1	-7.8112
30409	12.986	0.	5.e-002	-54.59
30410	12.711	0.	0.1	-9.1349
30411	12.802	0.	5.e-002	-56.917
30412	12.527	0.	0.1	-10.691
30413	12.619	0.	5.e-002	-59.558
30414	12.343	0.	0.1	-12.453
30415	12.435	0.	5.e-002	-62.301
30416	12.16	0.	0.1	-14.346
30417	12.252	0.	5.e-002	-64.785
30418	11.976	0.	0.1	-16.2
30419	12.068	0.	5.e-002	-66.439
30420	11.793	0.	0.1	-17.725
30421	11.885	0.	5.e-002	-66.429
30422	11.609	0.	0.1	-18.358
30423	11.701	0.	5.e-002	-63.615
30424	11.426	0.	0.1	-17.355
30425	11.517	0.	5.e-002	-56.354
30426	11.242	0.	0.1	-14.306
30427	11.334	0.	5.e-002	-42.881
30428	11.058	0.	0.1	-4.6881
30429	11.15	0.	5.e-002	-16.763
30430	10.967	0.	5.e-002	-20.895
30431	10.708	4.8116e-031	0.1	-4.1623
30432	10.8	4.8527e-031	5.e-002	-23.867
30433	10.525	4.7294e-031	0.1	-11.955
30434	10.617	0.	5.e-002	-11.043
30435	10.342	4.6471e-031	0.1	-13.022
30436	10.434	0.	5.e-002	-32.846
30437	10.159	4.5649e-031	0.1	-12.862
30438	10.251	0.	5.e-002	-40.296
30439	9.9763	4.4826e-031	0.1	-11.694
30440	10.068	0.	5.e-002	-40.733
30441	9.7932	4.4004e-031	0.1	-10.135
30442	9.8847	0.	5.e-002	-36.329
30443	9.6102	4.3181e-031	0.1	-8.5979
30444	9.7017	0.	5.e-002	-29.085
30445	9.4271	4.2359e-031	0.1	-7.2372
30446	9.5186	0.	5.e-002	-20.399
30447	9.2441	4.1536e-031	0.1	-6.1074
30448	9.3356	0.	5.e-002	-11.366
30449	9.061	4.0714e-031	0.1	-5.1991
30450	9.1525	0.	5.e-002	-3.6744
30451	8.878	3.9891e-031	0.1	-4.4779
30452	8.9695	0.	5.e-002	-7.2014
30453	8.6949	3.9069e-031	0.1	-3.9014
30454	8.7864	0.	5.e-002	-14.315
30455	8.5119	3.8246e-031	0.1	-3.4295
30456	8.6034	0.	5.e-002	-20.686
30457	8.3288	3.7424e-031	0.1	-3.0286
30458	8.4203	0.	5.e-002	-26.078
30459	8.1458	3.6601e-031	0.1	-2.6723
30460	8.2373	0.	5.e-002	-30.481
30461	7.9627	3.5779e-031	0.1	-2.3412
30462	8.0542	0.	5.e-002	-33.937
30463	7.7797	3.4956e-031	0.1	-2.0216
30464	7.8712	0.	5.e-002	-36.51
30465	7.5966	3.4134e-031	0.1	-1.7044
30466	7.6881	0.	5.e-002	-38.271
30467	7.4136	3.3311e-031	0.1	-1.384
30468	7.5051	0.	5.e-002	-39.288
30469	7.2305	3.2489e-031	0.1	-1.057
30470	7.322	0.	5.e-002	-39.624
30471	7.0475	3.1666e-031	0.1	-0.72203
30472	7.139	0.	5.e-002	-39.333
30473	6.8644	3.0844e-031	0.1	-0.3791
30474	6.9559	0.	5.e-002	-38.461
30475	6.6814	3.0021e-031	0.1	-0.308
30476	6.7729	0.	5.e-002	-37.044
30477	6.4983	2.9199e-031	0.1	-0.38997
30478	6.5898	0.	5.e-002	-35.109
30479	6.3153	2.8376e-031	0.1	-0.46987
30480	6.4068	0.	5.e-002	-32.674
30481	6.1322	2.7554e-031	0.1	-0.54895
30482	6.2237	0.	5.e-002	-29.753
30483	5.9492	2.6731e-031	0.1	-0.62836
30484	6.0407	0.	5.e-002	-26.348
30485	5.7661	2.5909e-031	0.1	-0.70915
30486	5.8576	0.	5.e-002	-22.459
30487	5.5831	2.5086e-031	0.1	-0.7923
30488	5.6746	0.	5.e-002	-18.079
30489	5.4	2.4264e-031	0.1	-0.87874
30490	5.4915	0.	5.e-002	-13.204
30491	5.2169	2.3441e-031	0.1	-0.96935
30492	5.3085	0.	5.e-002	-7.8521
30493	5.0339	2.2619e-031	0.1	-1.065
30494	5.1254	0.	5.e-002	-2.4598
30495	4.8508	2.1796e-031	0.1	-1.1666
30496	4.9424	0.	5.e-002	-5.2786
30497	4.6678	2.0974e-031	0.1	-1.2752
30498	4.7593	0.	5.e-002	-12.292
30499	4.4847	2.0151e-031	0.1	-1.3917
30500	4.5763	0.	5.e-002	-20.103
30501	4.3017	1.9329e-031	0.1	-1.5175
30502	4.3932	0.	5.e-002	-28.646
30503	4.1186	1.8506e-031	0.1	-1.6543
30504	4.2102	0.	5.e-002	-37.952
30505	3.9356	1.7684e-031	0.1	-1.8046
30506	4.0271	0.	5.e-002	-48.068
30507	3.7525	1.6861e-031	0.1	-1.9725
30508	3.8441	0.	5.e-002	-59.052
30509	3.5695	1.6039e-031	0.1	-2.1666
30510	3.661	0.	5.e-002	-70.968
30511	3.3864	1.5216e-031	0.1	-2.4091
30512	3.478	0.	5.e-002	-83.887
30513	3.2034	1.4394e-031	0.1	-2.7804
30514	3.2949	0.	5.e-002	-97.89
30515	3.0203	1.3571e-031	0.1	-3.6234
30516	3.1119	0.	5.e-002	-113.06
30517	2.8373	1.2749e-031	0.1	-5.4098
30518	2.9288	0.	5.e-002	-129.51
30519	2.6542	1.1926e-031	0.1	-7.9827
30520	2.7458	0.	5.e-002	-147.34
30521	2.4712	1.1104e-031	0.1	-11.264
30522	2.5627	0.	5.e-002	-166.7
30523	2.2881	1.0281e-031	0.1	-15.334
30524	2.3797	0.	5.e-002	-187.72
30525	2.1051	9.4587e-032	0.1	-20.34
30526	2.1966	0.	5.e-002	-210.59
30527	1.922	8.6362e-032	0.1	-26.484
30528	2.0136	0.	5.e-002	-235.53
30529	1.739	7.8137e-032	0.1	-34.037
30530	1.8305	0.	5.e-002	-262.82
30531	1.5559	6.9912e-032	0.1	-43.371
30532	1.6475	0.	5.e-002	-292.79
30533	1.3729	6.1687e-032	0.1	-55.035
30534	1.4644	0.	5.e-002	-325.89
30535	1.1898	5.3462e-032	0.1	-69.808
30536	1.2814	0.	5.e-002	-362.73
30537	1.0068	4.5237e-032	0.1	-89.121
30538	1.0983	0.	5.e-002	-404.2
30539	0.82373	3.7012e-032	0.1	-115.06
30540	0.91525	0.	5.e-002	-451.52
30541	0.64068	2.8787e-032	0.1	-152.95
30542	0.7322	0.	5.e-002	-507.17
30543	0.45763	2.0562e-032	0.1	-214.85
30544	0.54915	0.	5.e-002	-574.57
30545	0.27458	1.2337e-032	0.1	-336.63
30546	0.3661	0.	5.e-002	-665.44
30547	9.1525e-002	4.1125e-033	0.1	-904.04
30548	0.18305	0.	5.e-002	-846.17
30549	0.	0.	5.e-002	-1119.
30550	9.1525e-002	6.	0.1	-904.04
30551	5.2451e-014	6.	5.e-002	-1119.
30552	0.27458	6.	0.1	-336.63
30553	0.18305	6.	5.e-002	-846.16
30554	0.45763	6.	0.1	-214.85
30555	0.3661	6.	5.e-002	-665.44
30556	0.64068	6.	0.1	-152.95
30557	0.54915	6.	5.e-002	-574.57
30558	0.82373	6.	0.1	-115.06
30559	0.7322	6.	5.e-002	-507.17
30560	1.0068	6.	0.1	-89.121
30561	0.91525	6.	5.e-002	-451.52
30562	1.1898	6.	0.1	-69.807
30563	1.0983	6.	5.e-002	-404.2
30564	1.3729	6.	0.1	-55.035
30565	1.2814	6.	5.e-002	-362.73
30566	1.5559	6.	0.1	-43.371
30567	1.4644	6.	5.e-002	-325.89
30568	1.739	6.	0.1	-34.037
30569	1.6475	6.	5.e-002	-292.79
30570	1.922	6.	0.1	-26.484
30571	1.8305	6.	5.e-002	-262.82
30572	2.1051	6.	0.1	-20.34
30573	2.0136	6.	5.e-002	-235.53
30574	2.2881	6.	0.1	-15.334
30575	2.1966	6.	5.e-002	-210.59
30576	2.4712	6.	0.1	-11.264
30577	2.3797	6.	5.e-002	-187.72
30578	2.6542	6.	0.1	-7.9827
30579	2.5627	6.	5.e-002	-166.7
30580	2.8373	6.	0.1	-5.4097
30581	2.7458	6.	5.e-002	-147.34
30582	3.0203	6.	0.1	-3.6234
30583	2.9288	6.	5.e-002	-129.51
30584	3.2034	6.	0.1	-2.7804
30585	3.1119	6.	5.e-002	-113.06
30586	3.3864	6.	0.1	-2.4091
30587	3.2949	6.	5.e-002	-97.889
30588	3.5695	6.	0.1	-2.1666
30589	3.478	6.	5.e-002	-83.887
30590	3.7525	6.	0.1	-1.9725
30591	3.661	6.	5.e-002	-70.968
30592	3.9356	6.	0.1	-1.8046
30593	3.8441	6.	5.e-002	-59.052
30594	4.1186	6.	0.1	-1.6543
30595	4.0271	6.	5.e-002	-48.068
30596	4.3017	6.	0.1	-1.5175
30597	4.2102	6.	5.e-002	-37.951
30598	4.4847	6.	0.1	-1.3917
30599	4.3932	6.	5.e-002	-28.646
30600	4.6678	6.	0.1	-1.2752
30601	4.5763	6.	5.e-002	-20.103
30602	4.8508	6.	0.1	-1.1666
30603	4.7593	6.	5.e-002	-12.292
30604	5.0339	6.	0.1	-1.065
30605	4.9424	6.	5.e-002	-5.2784
30606	5.2169	6.	0.1	-0.96935
30607	5.1254	6.	5.e-002	-2.4599
30608	5.4	6.	0.1	-0.87874
30609	5.3085	6.	5.e-002	-7.8522
30610	5.5831	6.	0.1	-0.7923
30611	5.4915	6.	5.e-002	-13.204
30612	5.7661	6.	0.1	-0.70915
30613	5.6746	6.	5.e-002	-18.079
30614	5.9492	6.	0.1	-0.62836
30615	5.8576	6.	5.e-002	-22.459
30616	6.1322	6.	0.1	-0.54895
30617	6.0407	6.	5.e-002	-26.348
30618	6.3153	6.	0.1	-0.46987
30619	6.2237	6.	5.e-002	-29.753
30620	6.4983	6.	0.1	-0.38997
30621	6.4068	6.	5.e-002	-32.675
30622	6.6814	6.	0.1	-0.308
30623	6.5898	6.	5.e-002	-35.109
30624	6.8644	6.	0.1	-0.37911
30625	6.7729	6.	5.e-002	-37.044
30626	7.0475	6.	0.1	-0.72204
30627	6.9559	6.	5.e-002	-38.461
30628	7.2305	6.	0.1	-1.057
30629	7.139	6.	5.e-002	-39.333
30630	7.4136	6.	0.1	-1.384
30631	7.322	6.	5.e-002	-39.624
30632	7.5966	6.	0.1	-1.7045
30633	7.5051	6.	5.e-002	-39.288
30634	7.7797	6.	0.1	-2.0216
30635	7.6881	6.	5.e-002	-38.271
30636	7.9627	6.	0.1	-2.3412
30637	7.8712	6.	5.e-002	-36.51
30638	8.1458	6.	0.1	-2.6723
30639	8.0542	6.	5.e-002	-33.937
30640	8.3288	6.	0.1	-3.0286
30641	8.2373	6.	5.e-002	-30.481
30642	8.5119	6.	0.1	-3.4295
30643	8.4203	6.	5.e-002	-26.078
30644	8.6949	6.	0.1	-3.9014
30645	8.6034	6.	5.e-002	-20.686
30646	8.878	6.	0.1	-4.4779
30647	8.7864	6.	5.e-002	-14.315
30648	9.061	6.	0.1	-5.1991
30649	8.9695	6.	5.e-002	-7.2015
30650	9.2441	6.	0.1	-6.1074
30651	9.1525	6.	5.e-002	-3.6743
30652	9.4271	6.	0.1	-7.2372
30653	9.3356	6.	5.e-002	-11.366
30654	9.6102	6.	0.1	-8.5979
30655	9.5186	6.	5.e-002	-20.399
30656	9.7932	6.	0.1	-10.135
30657	9.7017	6.	5.e-002	-29.085
30658	9.9763	6.	0.1	-11.694
30659	9.8847	6.	5.e-002	-36.329
30660	10.159	6.	0.1	-12.862
30661	10.068	6.	5.e-002	-40.733
30662	10.342	6.	0.1	-13.022
30663	10.251	6.	5.e-002	-40.295
30664	10.525	6.	0.1	-11.955
30665	10.434	6.	5.e-002	-32.846
30666	10.708	6.	0.1	-4.1623
30667	10.617	6.	5.e-002	-11.043
30668	10.8	6.	5.e-002	-23.867
30669	10.525	6.	0.	-663.15
30670	10.708	6.	0.	-235.42
30671	10.342	6.	0.	-1087.5
30672	10.159	6.	0.	-1476.8
30673	9.9763	6.	0.	-1831.6
30674	9.7932	6.	0.	-2150.4
30675	9.6102	6.	0.	-2433.1
30676	9.4271	6.	0.	-2681.3
30677	9.2441	6.	0.	-2898.
30678	9.061	6.	0.	-3086.9
30679	8.878	6.	0.	-3251.8
30680	8.6949	6.	0.	-3396.4
30681	8.5119	6.	0.	-3524.1
30682	8.3288	6.	0.	-3638.
30683	8.1458	6.	0.	-3740.5
30684	7.9627	6.	0.	-3833.9
30685	7.7797	6.	0.	-3920.1
30686	7.5966	6.	0.	-4000.4
30687	7.4136	6.	0.	-4076.1
30688	7.2305	6.	0.	-4148.3
30689	7.0475	6.	0.	-4217.7
30690	6.8644	6.	0.	-4285.
30691	6.6814	6.	0.	-4350.8
30692	6.4983	6.	0.	-4415.4
30693	6.3153	6.	0.	-4479.2
30694	6.1322	6.	0.	-4542.4
30695	5.9492	6.	0.	-4605.4
30696	5.7661	6.	0.	-4668.3
30697	5.5831	6.	0.	-4731.3
30698	5.4	6.	0.	-4794.3
30699	5.2169	6.	0.	-4857.7
30700	5.0339	6.	0.	-4921.4
30701	4.8508	6.	0.	-4985.5
30702	4.6678	6.	0.	-5050.
30703	4.4847	6.	0.	-5114.9
30704	4.3017	6.	0.	-5180.3
30705	4.1186	6.	0.	-5246.1
30706	3.9356	6.	0.	-5312.3
30707	3.7525	6.	0.	-5378.7
30708	3.5695	6.	0.	-5445.2
30709	3.3864	6.	0.	-5511.7
30710	3.2034	6.	0.	-5577.8
30711	3.0203	6.	0.	-5643.2
30712	2.8373	6.	0.	-5707.5
30713	2.6542	6.	0.	-5769.8
30714	2.4712	6.	0.	-5829.5
30715	2.2881	6.	0.	-5885.3
30716	2.1051	6.	0.	-5935.7
30717	1.922	6.	0.	-5978.5
30718	1.739	6.	0.	-6010.9
30719	1.5559	6.	0.	-6028.6
30720	1.3729	6.	0.	-6025.8
30721	1.1898	6.	0.	-5993.4
30722	1.0068	6.	0.	-5917.3
30723	0.82373	6.	0.	-5774.
30724	0.64068	6.	0.	-5518.3
30725	0.45763	6.	0.	-5063.8
30726	0.27458	6.	0.	-4153.5
30727	9.1525e-002	6.	0.	-1940.2
30728	10.8	5.9091	0.	-169.71
30729	5.1657e-014	5.9091	0.	-1431.3
30730	0.27458	1.2337e-032	0.	-4153.5
30731	9.1525e-002	4.1125e-033	0.	-1940.2
30732	0.45763	2.0562e-032	0.	-5063.8
30733	0.64068	2.8787e-032	0.	-5518.3
30734	0.82373	3.7012e-032	0.	-5774.
30735	1.0068	4.5237e-032	0.	-5917.3
30736	1.1898	5.3462e-032	0.	-5993.4
30737	1.3729	6.1687e-032	0.	-6025.8
30738	1.5559	6.9912e-032	0.	-6028.6
30739	1.739	7.8137e-032	0.	-6010.9
30740	1.922	8.6362e-032	0.	-5978.5
30741	2.1051	9.4587e-032	0.	-5935.7
30742	2.2881	1.0281e-031	0.	-5885.3
30743	2.4712	1.1104e-031	0.	-5829.5
30744	2.6542	1.1926e-031	0.	-5769.8
30745	2.8373	1.2749e-031	0.	-5707.5
30746	3.0203	1.3571e-031	0.	-5643.2
30747	3.2034	1.4394e-031	0.	-5577.8
30748	3.3864	1.5216e-031	0.	-5511.7
30749	3.5695	1.6039e-031	0.	-5445.2
30750	3.7525	1.6861e-031	0.	-5378.7
30751	3.9356	1.7684e-031	0.	-5312.3
30752	4.1186	1.8506e-031	0.	-5246.1
30753	4.3017	1.9329e-031	0.	-5180.3
30754	4.4847	2.0151e-031	0.	-5114.9
30755	4.6678	2.0974e-031	0.	-5050.
30756	4.8508	2.1796e-031	0.	-4985.5
30757	5.0339	2.2619e-031	0.	-4921.4
30758	5.2169	2.3441e-031	0.	-4857.7
30759	5.4	2.4264e-031	0.	-4794.3
30760	5.5831	2.5086e-031	0.	-4731.3
30761	5.7661	2.5909e-031	0.	-4668.3
30762	5.9492	2.6731e-031	0.	-4605.4
30763	6.1322	2.7554e-031	0.	-4542.4
30764	6.3153	2.8376e-031	0.	-4479.2
30765	6.4983	2.9199e-031	0.	-4415.4
30766	6.6814	3.0021e-031	0.	-4350.8
30767	6.8644	3.0844e-031	0.	-4285.
30768	7.0475	3.1666e-031	0.	-4217.7
30769	7.2305	3.2489e-031	0.	-4148.3
30770	7.4136	3.3311e-031	0.	-4076.1
30771	7.5966	3.4134e-031	0.	-4000.4
30772	7.7797	3.4956e-031	0.	-3920.1
30773	7.9627	3.5779e-031	0.	-3833.9
30774	8.1458	3.6601e-031	0.	-3740.5
30775	8.3288	3.7424e-031	0.	-3638.
30776	8.5119	3.8246e-031	0.	-3524.1
30777	8.6949	3.9069e-031	0.	-3396.4
30778	8.878	3.9891e-031	0.	-3251.8
30779	9.061	4.0714e-031	0.	-3086.9
30780	9.2441	4.1536e-031	0.	-2898.
30781	9.4271	4.2359e-031	0.	-2681.3
30782	9.6102	4.3181e-031	0.	-2433.1
30783	9.7932	4.4004e-031	0.	-2150.4
30784	9.9763	4.4826e-031	0.	-1831.6
30785	10.159	4.5649e-031	0.	-1476.8
30786	10.342	4.6471e-031	0.	-1087.5
30787	10.525	4.7294e-031	0.	-663.15
30788	10.708	4.8116e-031	0.	-235.42
30789	10.8	9.0909e-002	0.	-169.71
30790	7.9472e-016	9.0909e-002	0.	-1431.3
30791	11.242	0.	0.	-554.84
30792	11.058	0.	0.	-200.66
30793	11.426	0.	0.	-890.87
30794	11.609	0.	0.	-1184.9
30795	11.793	0.	0.	-1439.
30796	11.976	0.	0.	-1653.
30797	12.16	0.	0.	-1828.2
30798	12.343	0.	0.	-1967.3
30799	12.527	0.	0.	-2074.2
30800	12.711	0.	0.	-2153.
30801	12.894	0.	0.	-2207.9
30802	13.078	0.	0.	-2242.8
30803	13.261	0.	0.	-2261.3
30804	13.445	0.	0.	-2266.3
30805	13.628	0.	0.	-2260.4
30806	13.812	0.	0.	-2245.7
30807	13.996	0.	0.	-2224.1
30808	14.179	0.	0.	-2197.
30809	14.363	0.	0.	-2165.5
30810	14.546	0.	0.	-2130.6
30811	14.73	0.	0.	-2093.1
30812	14.913	0.	0.	-2053.5
30813	15.097	0.	0.	-2012.4
30814	15.281	0.	0.	-1970.1
30815	15.464	0.	0.	-1927.
30816	15.648	0.	0.	-1883.2
30817	15.831	0.	0.	-1839.
30818	16.015	0.	0.	-1794.5
30819	16.198	0.	0.	-1749.9
30820	16.382	0.	0.	-1705.1
30821	16.565	0.	0.	-1660.4
30822	16.749	0.	0.	-1615.7
30823	16.933	0.	0.	-1571.1
30824	17.116	0.	0.	-1526.6
30825	17.3	0.	0.	-1482.2
30826	17.483	0.	0.	-1438.
30827	17.667	0.	0.	-1394.
30828	17.85	0.	0.	-1350.1
30829	18.034	0.	0.	-1306.5
30830	18.218	0.	0.	-1263.
30831	18.401	0.	0.	-1219.7
30832	18.585	0.	0.	-1176.6
30833	18.768	0.	0.	-1133.8
30834	18.952	0.	0.	-1091.
30835	19.135	0.	0.	-1048.5
30836	19.319	0.	0.	-1006.2
30837	19.503	0.	0.	-964.06
30838	19.686	0.	0.	-922.09
30839	19.87	0.	0.	-880.31
30840	20.053	0.	0.	-838.7
30841	20.237	0.	0.	-797.26
30842	20.42	0.	0.	-755.99
30843	20.604	0.	0.	-714.89
30844	20.788	0.	0.	-673.95
30845	20.971	0.	0.	-633.17
30846	21.155	0.	0.	-592.55
30847	21.338	0.	0.	-552.1
30848	21.522	0.	0.	-511.8
30849	21.705	0.	0.	-471.68
30850	21.889	0.	0.	-431.73
30851	22.073	0.	0.	-391.96
30852	22.256	0.	0.	-352.39
30853	22.44	0.	0.	-313.04
30854	22.623	0.	0.	-273.93
30855	22.807	0.	0.	-235.12
30856	22.99	0.	0.	-196.68
30857	23.174	0.	0.	-158.7
30858	23.358	0.	0.	-121.34
30859	23.541	0.	0.	-84.925
30860	23.725	0.	0.	-50.095
30861	23.908	0.	0.	-18.599
30862	10.967	9.0909e-002	0.	-154.92
30863	24.	9.0909e-002	0.	-5.8778
30864	5.0067e-014	5.7273	0.	-3540.6
30865	4.8478e-014	5.5455	0.	-5161.9
30866	4.6888e-014	5.3636	0.	-6011.1
30867	4.5299e-014	5.1818	0.	-6550.
30868	4.371e-014	5.	0.	-6919.7
30869	4.212e-014	4.8182	0.	-7187.8
30870	4.0531e-014	4.6364	0.	-7388.4
30871	3.8941e-014	4.4545	0.	-7541.6
30872	3.7352e-014	4.2727	0.	-7659.9
30873	3.5762e-014	4.0909	0.	-7751.7
30874	3.4173e-014	3.9091	0.	-7822.5
30875	3.2583e-014	3.7273	0.	-7876.3
30876	3.0994e-014	3.5455	0.	-7915.7
30877	2.9405e-014	3.3636	0.	-7942.7
30878	2.7815e-014	3.1818	0.	-7958.4
30879	2.6226e-014	3.	0.	-7963.6
30880	2.4636e-014	2.8182	0.	-7958.4
30881	2.3047e-014	2.6364	0.	-7942.7
30882	2.1457e-014	2.4545	0.	-7915.7
30883	1.9868e-014	2.2727	0.	-7876.3
30884	1.8279e-014	2.0909	0.	-7822.5
30885	1.6689e-014	1.9091	0.	-7751.7
30886	1.51e-014	1.7273	0.	-7659.9
30887	1.351e-014	1.5455	0.	-7541.6
30888	1.1921e-014	1.3636	0.	-7388.4
30889	1.0331e-014	1.1818	0.	-7187.8
30890	8.7419e-015	1.	0.	-6919.7
30891	7.1525e-015	0.81818	0.	-6550.
30892	5.563e-015	0.63636	0.	-6011.
30893	3.9736e-015	0.45455	0.	-5161.9
30894	2.3842e-015	0.27273	0.	-3540.6
30895	24.	0.27273	0.	-6.8869
30896	24.	0.45455	0.	-7.1289
30897	24.	0.63636	0.	-7.2053
30898	24.	0.81818	0.	-7.2122
30899	24.	1.	0.	-7.1813
30900	24.	1.1818	0.	-7.1368
30901	24.	1.3636	0.	-7.0868
30902	24.	1.5455	0.	-7.0367
30903	24.	1.7273	0.	-6.9893
30904	24.	1.9091	0.	-6.9463
30905	24.	2.0909	0.	-6.9089
30906	24.	2.2727	0.	-6.8777
30907	24.	2.4545	0.	-6.8532
30908	24.	2.6364	0.	-6.8355
30909	24.	2.8182	0.	-6.8248
30910	24.	3.	0.	-6.8212
30911	24.	3.1818	0.	-6.8248
30912	24.	3.3636	0.	-6.8355
30913	24.	3.5455	0.	-6.8532
30914	24.	3.7273	0.	-6.8777
30915	24.	3.9091	0.	-6.9089
30916	24.	4.0909	0.	-6.9463
30917	24.	4.2727	0.	-6.9893
30918	24.	4.4545	0.	-7.0367
30919	24.	4.6364	0.	-7.0868
30920	24.	4.8182	0.	-7.1368
30921	24.	5.	0.	-7.1813
30922	24.	5.1818	0.	-7.2122
30923	24.	5.3636	0.	-7.2053
30924	24.	5.5455	0.	-7.1289
30925	24.	5.7273	0.	-6.8869
30926	24.	5.9091	0.	-5.8778
30927	23.908	6.	0.	-18.599
30928	23.725	6.	0.	-50.095
30929	23.541	6.	0.	-84.925
30930	23.358	6.	0.	-121.34
30931	23.174	6.	0.	-158.7
30932	22.99	6.	0.	-196.68
30933	22.807	6.	0.	-235.12
30934	22.623	6.	0.	-273.93
30935	22.44	6.	0.	-313.04
30936	22.256	6.	0.	-352.39
30937	22.073	6.	0.	-391.96
30938	21.889	6.	0.	-431.73
30939	21.705	6.	0.	-471.68
30940	21.522	6.	0.	-511.8
30941	21.338	6.	0.	-552.1
30942	21.155	6.	0.	-592.55
30943	20.971	6.	0.	-633.17
30944	20.788	6.	0.	-673.94
30945	20.604	6.	0.	-714.88
30946	20.42	6.	0.	-755.99
30947	20.237	6.	0.	-797.26
30948	20.053	6.	0.	-838.7
30949	19.87	6.	0.	-880.31
30950	19.686	6.	0.	-922.09
30951	19.503	6.	0.	-964.06
30952	19.319	6.	0.	-1006.2
30953	19.135	6.	0.	-1048.5
30954	18.952	6.	0.	-1091.
30955	18.768	6.	0.	-1133.8
30956	18.585	6.	0.	-1176.6
30957	18.401	6.	0.	-1219.7
30958	18.218	6.	0.	-1263.
30959	18.034	6.	0.	-1306.5
30960	17.85	6.	0.	-1350.1
30961	17.667	6.	0.	-1394.
30962	17.483	6.	0.	-1438.
30963	17.3	6.	0.	-1482.2
30964	17.116	6.	0.	-1526.6
30965	16.933	6.	0.	-1571.1
30966	16.749	6.	0.	-1615.7
30967	16.565	6.	0.	-1660.4
30968	16.382	6.	0.	-1705.1
30969	16.198	6.	0.	-1749.9
30970	16.015	6.	0.	-1794.5
30971	15.831	6.	0.	-1839.
30972	15.648	6.	0.	-1883.2
30973	15.464	6.	0.	-1927.
30974	15.281	6.	0.	-1970.1
30975	15.097	6.	0.	-2012.4
30976	14.913	6.	0.	-2053.5
30977	14.73	6.	0.	-2093.1
30978	14.546	6.	0.	-2130.6
30979	14.363	6.	0.	-2165.5
30980	14.179	6.	0.	-2197.
30981	13.996	6.	0.	-2224.1
30982	13.812	6.	0.	-2245.7
30983	13.628	6.	0.	-2260.4
30984	13.445	6.	0.	-2266.3
30985	13.261	6.	0.	-2261.3
30986	13.078	6.	0.	-2242.8
30987	12.894	6.	0.	-2207.9
30988	12.711	6.	0.	-2153.
30989	12.527	6.	0.	-2074.2
30990	12.343	6.	0.	-1967.3
30991	12.16	6.	0.	-1828.2
30992	11.976	6.	0.	-1653.
30993	11.793	6.	0.	-1439.
30994	11.609	6.	0.	-1184.9
30995	11.426	6.	0.	-890.87
30996	11.242	6.	0.	-554.84
30997	11.058	6.	0.	-200.66
30998	10.967	5.9091	0.	-154.92
30999	10.8	1.7273	0.	-3081.5
31000	10.8	1.9091	0.	-8674.9
31001	10.8	1.5455	0.	-2224.3
31002	10.8	1.3636	0.	-1794.
31003	10.8	1.1818	0.	-1476.7
31004	10.8	1.	0.	-1229.5
31005	10.8	0.81818	0.	-1017.8
31006	10.8	0.63636	0.	-824.09
31007	10.8	0.45455	0.	-633.58
31008	10.8	0.27273	0.	-424.89
31009	10.883	2.	0.	-14149
31010	10.967	0.27273	0.	-395.12
31011	10.967	0.45455	0.	-600.01
31012	10.967	0.63636	0.	-793.4
31013	10.967	0.81818	0.	-996.09
31014	10.967	1.	0.	-1223.9
31015	10.967	1.1818	0.	-1496.8
31016	10.967	1.3636	0.	-1853.
31017	10.967	1.5455	0.	-2341.4
31018	10.967	1.7273	0.	-3296.9
31019	10.967	1.9091	0.	-9015.
31020	10.8	4.2727	0.	-3081.5
31021	10.8	4.0909	0.	-8674.9
31022	10.8	4.4545	0.	-2224.3
31023	10.8	4.6364	0.	-1794.
31024	10.8	4.8182	0.	-1476.7
31025	10.8	5.	0.	-1229.5
31026	10.8	5.1818	0.	-1017.8
31027	10.8	5.3636	0.	-824.09
31028	10.8	5.5455	0.	-633.58
31029	10.8	5.7273	0.	-424.89
31030	10.883	4.	0.	-14149
31031	10.967	5.7273	0.	-395.12
31032	10.967	5.5455	0.	-600.01
31033	10.967	5.3636	0.	-793.4
31034	10.967	5.1818	0.	-996.1
31035	10.967	5.	0.	-1223.9
31036	10.967	4.8182	0.	-1496.8
31037	10.967	4.6364	0.	-1853.
31038	10.967	4.4545	0.	-2341.4
31039	10.967	4.2727	0.	-3296.9
31040	10.967	4.0909	0.	-9015.
