Node Number	X Location (in)	Y Location (in)	Z Location (in)	Equivalent (von-Mises) Stress (psi)
1	18.	2.2	0.	4788.7
2	18.	2.4	0.	3775.3
3	18.	2.6	0.	3355.5
4	18.	2.8	0.	3155.8
5	18.	3.	0.	3097.2
6	18.	3.2	0.	3155.8
7	18.	3.4	0.	3355.5
8	18.	3.6	0.	3775.3
9	18.	3.8	0.	4788.7
10	18.167	2.2	0.	4713.2
11	18.167	2.4	0.	3727.4
12	18.167	2.6	0.	3303.9
13	18.167	2.8	0.	3102.8
14	18.167	3.	0.	3043.6
15	18.167	3.2	0.	3102.8
16	18.167	3.4	0.	3303.9
17	18.167	3.6	0.	3727.4
18	18.167	3.8	0.	4713.2
19	0.2	0.2	0.	4192.5
20	0.2	0.4	0.	4725.3
21	0.2	0.6	0.	5384.
22	0.2	0.8	0.	5887.5
23	0.2	1.	0.	6258.9
24	0.2	1.2	0.	6535.4
25	0.2	1.4	0.	6744.
26	0.2	1.6	0.	6903.1
27	0.2	1.8	0.	7025.1
28	0.2	2.	0.	7118.3
29	0.2	2.2	0.	7188.5
30	0.2	2.4	0.	7239.6
31	0.2	2.6	0.	7274.4
32	0.2	2.8	0.	7294.7
33	0.2	3.	0.	7301.3
34	0.2	3.2	0.	7294.7
35	0.2	3.4	0.	7274.4
36	0.2	3.6	0.	7239.6
37	0.2	3.8	0.	7188.5
38	0.2	4.	0.	7118.3
39	0.2	4.2	0.	7025.1
40	0.2	4.4	0.	6903.1
41	0.2	4.6	0.	6744.
42	0.2	4.8	0.	6535.4
43	0.2	5.	0.	6258.9
44	0.2	5.2	0.	5887.5
45	0.2	5.4	0.	5384.
46	0.2	5.6	0.	4725.3
47	0.2	5.8	0.	4192.5
48	0.4	0.2	0.	5119.
49	0.4	0.4	0.	4866.4
50	0.4	0.6	0.	4929.
51	0.4	0.8	0.	5122.2
52	0.4	1.	0.	5332.6
53	0.4	1.2	0.	5522.1
54	0.4	1.4	0.	5681.6
55	0.4	1.6	0.	5812.
56	0.4	1.8	0.	5916.6
57	0.4	2.	0.	5999.1
58	0.4	2.2	0.	6062.7
59	0.4	2.4	0.	6109.7
60	0.4	2.6	0.	6142.1
61	0.4	2.8	0.	6161.1
62	0.4	3.	0.	6167.3
63	0.4	3.2	0.	6161.1
64	0.4	3.4	0.	6142.1
65	0.4	3.6	0.	6109.7
66	0.4	3.8	0.	6062.7
67	0.4	4.	0.	5999.1
68	0.4	4.2	0.	5916.6
69	0.4	4.4	0.	5812.
70	0.4	4.6	0.	5681.6
71	0.4	4.8	0.	5522.1
72	0.4	5.	0.	5332.6
73	0.4	5.2	0.	5122.2
74	0.4	5.4	0.	4929.
75	0.4	5.6	0.	4866.4
76	0.4	5.8	0.	5119.
77	0.6	0.2	0.	5637.5
78	0.6	0.4	0.	5409.7
79	0.6	0.6	0.	5346.4
80	0.6	0.8	0.	5391.9
81	0.6	1.	0.	5496.
82	0.6	1.2	0.	5618.8
83	0.6	1.4	0.	5738.6
84	0.6	1.6	0.	5845.8
85	0.6	1.8	0.	5937.4
86	0.6	2.	0.	6012.7
87	0.6	2.2	0.	6072.5
88	0.6	2.4	0.	6117.7
89	0.6	2.6	0.	6149.2
90	0.6	2.8	0.	6167.9
91	0.6	3.	0.	6174.
92	0.6	3.2	0.	6167.9
93	0.6	3.4	0.	6149.2
94	0.6	3.6	0.	6117.7
95	0.6	3.8	0.	6072.5
96	0.6	4.	0.	6012.7
97	0.6	4.2	0.	5937.4
98	0.6	4.4	0.	5845.8
99	0.6	4.6	0.	5738.6
100	0.6	4.8	0.	5618.8
101	0.6	5.	0.	5496.
102	0.6	5.2	0.	5391.9
103	0.6	5.4	0.	5346.4
104	0.6	5.6	0.	5409.7
105	0.6	5.8	0.	5637.5
106	0.8	0.2	0.	5872.4
107	0.8	0.4	0.	5638.2
108	0.8	0.6	0.	5512.2
109	0.8	0.8	0.	5465.6
110	0.8	1.	0.	5479.7
111	0.8	1.2	0.	5530.4
112	0.8	1.4	0.	5597.7
113	0.8	1.6	0.	5668.3
114	0.8	1.8	0.	5734.8
115	0.8	2.	0.	5793.2
116	0.8	2.2	0.	5841.7
117	0.8	2.4	0.	5879.6
118	0.8	2.6	0.	5906.6
119	0.8	2.8	0.	5922.7
120	0.8	3.	0.	5928.1
121	0.8	3.2	0.	5922.7
122	0.8	3.4	0.	5906.6
123	0.8	3.6	0.	5879.6
124	0.8	3.8	0.	5841.7
125	0.8	4.	0.	5793.2
126	0.8	4.2	0.	5734.8
127	0.8	4.4	0.	5668.3
128	0.8	4.6	0.	5597.7
129	0.8	4.8	0.	5530.4
130	0.8	5.	0.	5479.7
131	0.8	5.2	0.	5465.6
132	0.8	5.4	0.	5512.2
133	0.8	5.6	0.	5638.2
134	0.8	5.8	0.	5872.4
135	1.	0.2	0.	5997.
136	1.	0.4	0.	5787.3
137	1.	0.6	0.	5650.7
138	1.	0.8	0.	5566.5
139	1.	1.	0.	5530.6
140	1.	1.2	0.	5531.7
141	1.	1.4	0.	5556.5
142	1.	1.6	0.	5593.6
143	1.	1.8	0.	5634.8
144	1.	2.	0.	5674.8
145	1.	2.2	0.	5710.2
146	1.	2.4	0.	5738.9
147	1.	2.6	0.	5760.1
148	1.	2.8	0.	5772.9
149	1.	3.	0.	5777.2
150	1.	3.2	0.	5772.9
151	1.	3.4	0.	5760.1
152	1.	3.6	0.	5738.9
153	1.	3.8	0.	5710.2
154	1.	4.	0.	5674.8
155	1.	4.2	0.	5634.8
156	1.	4.4	0.	5593.6
157	1.	4.6	0.	5556.5
158	1.	4.8	0.	5531.7
159	1.	5.	0.	5530.6
160	1.	5.2	0.	5566.5
161	1.	5.4	0.	5650.7
162	1.	5.6	0.	5787.3
163	1.	5.8	0.	5997.
164	1.2	0.2	0.	6047.7
165	1.2	0.4	0.	5858.
166	1.2	0.6	0.	5721.6
167	1.2	0.8	0.	5621.3
168	1.2	1.	0.	5557.2
169	1.2	1.2	0.	5525.2
170	1.2	1.4	0.	5517.5
171	1.2	1.6	0.	5526.1
172	1.2	1.8	0.	5543.9
173	1.2	2.	0.	5565.5
174	1.2	2.2	0.	5587.
175	1.2	2.4	0.	5605.8
176	1.2	2.6	0.	5620.2
177	1.2	2.8	0.	5629.2
178	1.2	3.	0.	5632.3
179	1.2	3.2	0.	5629.2
180	1.2	3.4	0.	5620.2
181	1.2	3.6	0.	5605.8
182	1.2	3.8	0.	5587.
183	1.2	4.	0.	5565.5
184	1.2	4.2	0.	5543.9
185	1.2	4.4	0.	5526.1
186	1.2	4.6	0.	5517.5
187	1.2	4.8	0.	5525.2
188	1.2	5.	0.	5557.2
189	1.2	5.2	0.	5621.3
190	1.2	5.4	0.	5721.6
191	1.2	5.6	0.	5858.
192	1.2	5.8	0.	6047.7
193	1.4	0.2	0.	6055.6
194	1.4	0.4	0.	5885.1
195	1.4	0.6	0.	5754.8
196	1.4	0.8	0.	5649.9
197	1.4	1.	0.	5571.8
198	1.4	1.2	0.	5519.7
199	1.4	1.4	0.	5489.8
200	1.4	1.6	0.	5476.7
201	1.4	1.8	0.	5475.1
202	1.4	2.	0.	5480.5
203	1.4	2.2	0.	5489.1
204	1.4	2.4	0.	5498.3
205	1.4	2.6	0.	5506.
206	1.4	2.8	0.	5511.2
207	1.4	3.	0.	5512.9
208	1.4	3.2	0.	5511.2
209	1.4	3.4	0.	5506.
210	1.4	3.6	0.	5498.3
211	1.4	3.8	0.	5489.1
212	1.4	4.	0.	5480.5
213	1.4	4.2	0.	5475.1
214	1.4	4.4	0.	5476.7
215	1.4	4.6	0.	5489.8
216	1.4	4.8	0.	5519.8
217	1.4	5.	0.	5571.8
218	1.4	5.2	0.	5649.9
219	1.4	5.4	0.	5754.8
220	1.4	5.6	0.	5885.1
221	1.4	5.8	0.	6055.6
222	1.6	0.2	0.	6035.2
223	1.6	0.4	0.	5881.4
224	1.6	0.6	0.	5758.6
225	1.6	0.8	0.	5654.4
226	1.6	1.	0.	5570.3
227	1.6	1.2	0.	5506.8
228	1.6	1.4	0.	5462.3
229	1.6	1.6	0.	5433.6
230	1.6	1.8	0.	5417.1
231	1.6	2.	0.	5409.2
232	1.6	2.2	0.	5406.8
233	1.6	2.4	0.	5407.3
234	1.6	2.6	0.	5409.
235	1.6	2.8	0.	5410.5
236	1.6	3.	0.	5411.
237	1.6	3.2	0.	5410.5
238	1.6	3.4	0.	5409.
239	1.6	3.6	0.	5407.3
240	1.6	3.8	0.	5406.8
241	1.6	4.	0.	5409.2
242	1.6	4.2	0.	5417.1
243	1.6	4.4	0.	5433.6
244	1.6	4.6	0.	5462.3
245	1.6	4.8	0.	5506.8
246	1.6	5.	0.	5570.3
247	1.6	5.2	0.	5654.4
248	1.6	5.4	0.	5758.6
249	1.6	5.6	0.	5881.4
250	1.6	5.8	0.	6035.2
251	1.8	0.2	0.	5996.3
252	1.8	0.4	0.	5857.1
253	1.8	0.6	0.	5742.4
254	1.8	0.8	0.	5641.6
255	1.8	1.	0.	5556.
256	1.8	1.2	0.	5486.7
257	1.8	1.4	0.	5433.4
258	1.8	1.6	0.	5394.2
259	1.8	1.8	0.	5366.8
260	1.8	2.	0.	5348.7
261	1.8	2.2	0.	5337.4
262	1.8	2.4	0.	5330.9
263	1.8	2.6	0.	5327.3
264	1.8	2.8	0.	5325.7
265	1.8	3.	0.	5325.2
266	1.8	3.2	0.	5325.7
267	1.8	3.4	0.	5327.3
268	1.8	3.6	0.	5330.9
269	1.8	3.8	0.	5337.4
270	1.8	4.	0.	5348.7
271	1.8	4.2	0.	5366.8
272	1.8	4.4	0.	5394.2
273	1.8	4.6	0.	5433.4
274	1.8	4.8	0.	5486.7
275	1.8	5.	0.	5556.
276	1.8	5.2	0.	5641.6
277	1.8	5.4	0.	5742.4
278	1.8	5.6	0.	5857.1
279	1.8	5.8	0.	5996.3
280	2.	0.2	0.	5944.9
281	2.	0.4	0.	5818.7
282	2.	0.6	0.	5711.8
283	2.	0.8	0.	5615.7
284	2.	1.	0.	5531.3
285	2.	1.2	0.	5459.9
286	2.	1.4	0.	5401.7
287	2.	1.6	0.	5355.9
288	2.	1.8	0.	5321.2
289	2.	2.	0.	5295.7
290	2.	2.2	0.	5277.7
291	2.	2.4	0.	5265.5
292	2.	2.6	0.	5257.8
293	2.	2.8	0.	5253.6
294	2.	3.	0.	5252.3
295	2.	3.2	0.	5253.6
296	2.	3.4	0.	5257.8
297	2.	3.6	0.	5265.5
298	2.	3.8	0.	5277.7
299	2.	4.	0.	5295.7
300	2.	4.2	0.	5321.2
301	2.	4.4	0.	5355.9
302	2.	4.6	0.	5401.7
303	2.	4.8	0.	5459.9
304	2.	5.	0.	5531.3
305	2.	5.2	0.	5615.7
306	2.	5.4	0.	5711.8
307	2.	5.6	0.	5818.7
308	2.	5.8	0.	5944.9
309	2.2	0.2	0.	5885.3
310	2.2	0.4	0.	5770.4
311	2.2	0.6	0.	5671.1
312	2.2	0.8	0.	5580.2
313	2.2	1.	0.	5498.5
314	2.2	1.2	0.	5427.3
315	2.2	1.4	0.	5367.1
316	2.2	1.6	0.	5317.7
317	2.2	1.8	0.	5278.4
318	2.2	2.	0.	5247.9
319	2.2	2.2	0.	5225.2
320	2.2	2.4	0.	5208.9
321	2.2	2.6	0.	5198.
322	2.2	2.8	0.	5191.9
323	2.2	3.	0.	5189.9
324	2.2	3.2	0.	5191.9
325	2.2	3.4	0.	5198.
326	2.2	3.6	0.	5208.9
327	2.2	3.8	0.	5225.2
328	2.2	4.	0.	5247.9
329	2.2	4.2	0.	5278.4
330	2.2	4.4	0.	5317.7
331	2.2	4.6	0.	5367.1
332	2.2	4.8	0.	5427.3
333	2.2	5.	0.	5498.5
334	2.2	5.2	0.	5580.2
335	2.2	5.4	0.	5671.1
336	2.2	5.6	0.	5770.4
337	2.2	5.8	0.	5885.3
338	2.4	0.2	0.	5820.1
339	2.4	0.4	0.	5715.4
340	2.4	0.6	0.	5623.3
341	2.4	0.8	0.	5537.7
342	2.4	1.	0.	5459.7
343	2.4	1.2	0.	5390.2
344	2.4	1.4	0.	5329.9
345	2.4	1.6	0.	5279.
346	2.4	1.8	0.	5237.1
347	2.4	2.	0.	5203.6
348	2.4	2.2	0.	5177.7
349	2.4	2.4	0.	5158.7
350	2.4	2.6	0.	5145.6
351	2.4	2.8	0.	5138.1
352	2.4	3.	0.	5135.6
353	2.4	3.2	0.	5138.1
354	2.4	3.4	0.	5145.6
355	2.4	3.6	0.	5158.7
356	2.4	3.8	0.	5177.7
357	2.4	4.	0.	5203.6
358	2.4	4.2	0.	5237.1
359	2.4	4.4	0.	5279.
360	2.4	4.6	0.	5329.9
361	2.4	4.8	0.	5390.2
362	2.4	5.	0.	5459.7
363	2.4	5.2	0.	5537.7
364	2.4	5.4	0.	5623.3
365	2.4	5.6	0.	5715.4
366	2.4	5.8	0.	5820.1
367	2.6	0.2	0.	5751.4
368	2.6	0.4	0.	5655.8
369	2.6	0.6	0.	5570.3
370	2.6	0.8	0.	5490.3
371	2.6	1.	0.	5416.3
372	2.6	1.2	0.	5349.4
373	2.6	1.4	0.	5290.4
374	2.6	1.6	0.	5239.4
375	2.6	1.8	0.	5196.6
376	2.6	2.	0.	5161.6
377	2.6	2.2	0.	5133.9
378	2.6	2.4	0.	5113.1
379	2.6	2.6	0.	5098.7
380	2.6	2.8	0.	5090.2
381	2.6	3.	0.	5087.4
382	2.6	3.2	0.	5090.2
383	2.6	3.4	0.	5098.7
384	2.6	3.6	0.	5113.1
385	2.6	3.8	0.	5133.9
386	2.6	4.	0.	5161.6
387	2.6	4.2	0.	5196.6
388	2.6	4.4	0.	5239.4
389	2.6	4.6	0.	5290.4
390	2.6	4.8	0.	5349.4
391	2.6	5.	0.	5416.3
392	2.6	5.2	0.	5490.3
393	2.6	5.4	0.	5570.3
394	2.6	5.6	0.	5655.8
395	2.6	5.8	0.	5751.4
396	2.8	0.2	0.	5680.5
397	2.8	0.4	0.	5593.2
398	2.8	0.6	0.	5514.
399	2.8	0.8	0.	5439.2
400	2.8	1.	0.	5369.5
401	2.8	1.2	0.	5305.8
402	2.8	1.4	0.	5248.8
403	2.8	1.6	0.	5198.9
404	2.8	1.8	0.	5156.3
405	2.8	2.	0.	5120.9
406	2.8	2.2	0.	5092.5
407	2.8	2.4	0.	5070.9
408	2.8	2.6	0.	5055.7
409	2.8	2.8	0.	5046.7
410	2.8	3.	0.	5043.7
411	2.8	3.2	0.	5046.7
412	2.8	3.4	0.	5055.7
413	2.8	3.6	0.	5070.9
414	2.8	3.8	0.	5092.5
415	2.8	4.	0.	5120.9
416	2.8	4.2	0.	5156.3
417	2.8	4.4	0.	5198.9
418	2.8	4.6	0.	5248.8
419	2.8	4.8	0.	5305.8
420	2.8	5.	0.	5369.5
421	2.8	5.2	0.	5439.2
422	2.8	5.4	0.	5514.
423	2.8	5.6	0.	5593.2
424	2.8	5.8	0.	5680.5
425	3.	0.2	0.	5608.5
426	3.	0.4	0.	5528.5
427	3.	0.6	0.	5455.2
428	3.	0.8	0.	5385.6
429	3.	1.	0.	5320.3
430	3.	1.2	0.	5260.1
431	3.	1.4	0.	5205.6
432	3.	1.6	0.	5157.5
433	3.	1.8	0.	5115.9
434	3.	2.	0.	5080.9
435	3.	2.2	0.	5052.6
436	3.	2.4	0.	5030.8
437	3.	2.6	0.	5015.4
438	3.	2.8	0.	5006.2
439	3.	3.	0.	5003.1
440	3.	3.2	0.	5006.2
441	3.	3.4	0.	5015.4
442	3.	3.6	0.	5030.8
443	3.	3.8	0.	5052.6
444	3.	4.	0.	5080.9
445	3.	4.2	0.	5115.9
446	3.	4.4	0.	5157.5
447	3.	4.6	0.	5205.6
448	3.	4.8	0.	5260.1
449	3.	5.	0.	5320.3
450	3.	5.2	0.	5385.6
451	3.	5.4	0.	5455.2
452	3.	5.6	0.	5528.5
453	3.	5.8	0.	5608.5
454	3.2	0.2	0.	5535.9
455	3.2	0.4	0.	5462.7
456	3.2	0.6	0.	5394.8
457	3.2	0.8	0.	5330.2
458	3.2	1.	0.	5269.2
459	3.2	1.2	0.	5212.6
460	3.2	1.4	0.	5161.1
461	3.2	1.6	0.	5115.1
462	3.2	1.8	0.	5075.1
463	3.2	2.	0.	5041.2
464	3.2	2.2	0.	5013.5
465	3.2	2.4	0.	4992.
466	3.2	2.6	0.	4976.7
467	3.2	2.8	0.	4967.6
468	3.2	3.	0.	4964.5
469	3.2	3.2	0.	4967.6
470	3.2	3.4	0.	4976.7
471	3.2	3.6	0.	4992.
472	3.2	3.8	0.	5013.5
473	3.2	4.	0.	5041.2
474	3.2	4.2	0.	5075.1
475	3.2	4.4	0.	5115.1
476	3.2	4.6	0.	5161.1
477	3.2	4.8	0.	5212.6
478	3.2	5.	0.	5269.2
479	3.2	5.2	0.	5330.2
480	3.2	5.4	0.	5394.8
481	3.2	5.6	0.	5462.7
482	3.2	5.8	0.	5535.9
483	3.4	0.2	0.	5463.3
484	3.4	0.4	0.	5396.3
485	3.4	0.6	0.	5333.5
486	3.4	0.8	0.	5273.5
487	3.4	1.	0.	5216.7
488	3.4	1.2	0.	5163.8
489	3.4	1.4	0.	5115.4
490	3.4	1.6	0.	5071.9
491	3.4	1.8	0.	5033.8
492	3.4	2.	0.	5001.3
493	3.4	2.2	0.	4974.6
494	3.4	2.4	0.	4953.8
495	3.4	2.6	0.	4938.9
496	3.4	2.8	0.	4930.
497	3.4	3.	0.	4927.
498	3.4	3.2	0.	4930.
499	3.4	3.4	0.	4938.9
500	3.4	3.6	0.	4953.8
501	3.4	3.8	0.	4974.6
502	3.4	4.	0.	5001.3
503	3.4	4.2	0.	5033.8
504	3.4	4.4	0.	5071.9
505	3.4	4.6	0.	5115.4
506	3.4	4.8	0.	5163.8
507	3.4	5.	0.	5216.7
508	3.4	5.2	0.	5273.5
509	3.4	5.4	0.	5333.5
510	3.4	5.6	0.	5396.3
511	3.4	5.8	0.	5463.3
512	3.6	0.2	0.	5391.1
513	3.6	0.4	0.	5329.6
514	3.6	0.6	0.	5271.6
515	3.6	0.8	0.	5216.
516	3.6	1.	0.	5163.3
517	3.6	1.2	0.	5114.
518	3.6	1.4	0.	5068.6
519	3.6	1.6	0.	5027.8
520	3.6	1.8	0.	4991.8
521	3.6	2.	0.	4960.9
522	3.6	2.2	0.	4935.5
523	3.6	2.4	0.	4915.6
524	3.6	2.6	0.	4901.3
525	3.6	2.8	0.	4892.7
526	3.6	3.	0.	4889.9
527	3.6	3.2	0.	4892.7
528	3.6	3.4	0.	4901.3
529	3.6	3.6	0.	4915.6
530	3.6	3.8	0.	4935.5
531	3.6	4.	0.	4960.9
532	3.6	4.2	0.	4991.8
533	3.6	4.4	0.	5027.8
534	3.6	4.6	0.	5068.6
535	3.6	4.8	0.	5114.
536	3.6	5.	0.	5163.3
537	3.6	5.2	0.	5216.
538	3.6	5.4	0.	5271.6
539	3.6	5.6	0.	5329.6
540	3.6	5.8	0.	5391.1
541	3.8	0.2	0.	5319.3
542	3.8	0.4	0.	5262.9
543	3.8	0.6	0.	5209.4
544	3.8	0.8	0.	5158.
545	3.8	1.	0.	5109.1
546	3.8	1.2	0.	5063.3
547	3.8	1.4	0.	5021.
548	3.8	1.6	0.	4982.8
549	3.8	1.8	0.	4949.
550	3.8	2.	0.	4920.
551	3.8	2.2	0.	4896.
552	3.8	2.4	0.	4877.1
553	3.8	2.6	0.	4863.6
554	3.8	2.8	0.	4855.4
555	3.8	3.	0.	4852.7
556	3.8	3.2	0.	4855.4
557	3.8	3.4	0.	4863.6
558	3.8	3.6	0.	4877.1
559	3.8	3.8	0.	4896.
560	3.8	4.	0.	4920.
561	3.8	4.2	0.	4949.
562	3.8	4.4	0.	4982.8
563	3.8	4.6	0.	5021.
564	3.8	4.8	0.	5063.3
565	3.8	5.	0.	5109.1
566	3.8	5.2	0.	5158.
567	3.8	5.4	0.	5209.4
568	3.8	5.6	0.	5262.9
569	3.8	5.8	0.	5319.3
570	4.	0.2	0.	5248.2
571	4.	0.4	0.	5196.5
572	4.	0.6	0.	5147.1
573	4.	0.8	0.	5099.6
574	4.	1.	0.	5054.3
575	4.	1.2	0.	5011.9
576	4.	1.4	0.	4972.6
577	4.	1.6	0.	4937.1
578	4.	1.8	0.	4905.5
579	4.	2.	0.	4878.4
580	4.	2.2	0.	4855.8
581	4.	2.4	0.	4838.1
582	4.	2.6	0.	4825.4
583	4.	2.8	0.	4817.7
584	4.	3.	0.	4815.1
585	4.	3.2	0.	4817.7
586	4.	3.4	0.	4825.4
587	4.	3.6	0.	4838.1
588	4.	3.8	0.	4855.8
589	4.	4.	0.	4878.4
590	4.	4.2	0.	4905.5
591	4.	4.4	0.	4937.1
592	4.	4.6	0.	4972.6
593	4.	4.8	0.	5011.9
594	4.	5.	0.	5054.3
595	4.	5.2	0.	5099.6
596	4.	5.4	0.	5147.1
597	4.	5.6	0.	5196.5
598	4.	5.8	0.	5248.2
599	4.2	0.2	0.	5177.9
600	4.2	0.4	0.	5130.3
601	4.2	0.6	0.	5084.8
602	4.2	0.8	0.	5041.
603	4.2	1.	0.	4999.2
604	4.2	1.2	0.	4959.9
605	4.2	1.4	0.	4923.5
606	4.2	1.6	0.	4890.5
607	4.2	1.8	0.	4861.2
608	4.2	2.	0.	4835.9
609	4.2	2.2	0.	4814.9
610	4.2	2.4	0.	4798.3
611	4.2	2.6	0.	4786.4
612	4.2	2.8	0.	4779.2
613	4.2	3.	0.	4776.8
614	4.2	3.2	0.	4779.2
615	4.2	3.4	0.	4786.4
616	4.2	3.6	0.	4798.3
617	4.2	3.8	0.	4814.9
618	4.2	4.	0.	4835.9
619	4.2	4.2	0.	4861.2
620	4.2	4.4	0.	4890.5
621	4.2	4.6	0.	4923.5
622	4.2	4.8	0.	4959.9
623	4.2	5.	0.	4999.2
624	4.2	5.2	0.	5041.
625	4.2	5.4	0.	5084.8
626	4.2	5.6	0.	5130.3
627	4.2	5.8	0.	5177.9
628	4.4	0.2	0.	5108.3
629	4.4	0.4	0.	5064.6
630	4.4	0.6	0.	5022.7
631	4.4	0.8	0.	4982.2
632	4.4	1.	0.	4943.7
633	4.4	1.2	0.	4907.4
634	4.4	1.4	0.	4873.8
635	4.4	1.6	0.	4843.2
636	4.4	1.8	0.	4816.1
637	4.4	2.	0.	4792.6
638	4.4	2.2	0.	4773.1
639	4.4	2.4	0.	4757.7
640	4.4	2.6	0.	4746.6
641	4.4	2.8	0.	4739.8
642	4.4	3.	0.	4737.6
643	4.4	3.2	0.	4739.8
644	4.4	3.4	0.	4746.6
645	4.4	3.6	0.	4757.7
646	4.4	3.8	0.	4773.1
647	4.4	4.	0.	4792.6
648	4.4	4.2	0.	4816.1
649	4.4	4.4	0.	4843.2
650	4.4	4.6	0.	4873.8
651	4.4	4.8	0.	4907.4
652	4.4	5.	0.	4943.7
653	4.4	5.2	0.	4982.2
654	4.4	5.4	0.	5022.7
655	4.4	5.6	0.	5064.6
656	4.4	5.8	0.	5108.3
657	4.6	0.2	0.	5039.5
658	4.6	0.4	0.	4999.4
659	4.6	0.6	0.	4960.7
660	4.6	0.8	0.	4923.5
661	4.6	1.	0.	4887.9
662	4.6	1.2	0.	4854.5
663	4.6	1.4	0.	4823.5
664	4.6	1.6	0.	4795.2
665	4.6	1.8	0.	4770.1
666	4.6	2.	0.	4748.4
667	4.6	2.2	0.	4730.3
668	4.6	2.4	0.	4716.
669	4.6	2.6	0.	4705.7
670	4.6	2.8	0.	4699.5
671	4.6	3.	0.	4697.4
672	4.6	3.2	0.	4699.5
673	4.6	3.4	0.	4705.7
674	4.6	3.6	0.	4716.
675	4.6	3.8	0.	4730.3
676	4.6	4.	0.	4748.4
677	4.6	4.2	0.	4770.1
678	4.6	4.4	0.	4795.2
679	4.6	4.6	0.	4823.5
680	4.6	4.8	0.	4854.5
681	4.6	5.	0.	4887.9
682	4.6	5.2	0.	4923.5
683	4.6	5.4	0.	4960.7
684	4.6	5.6	0.	4999.4
685	4.6	5.8	0.	5039.5
686	4.8	0.2	0.	4971.5
687	4.8	0.4	0.	4934.6
688	4.8	0.6	0.	4899.
689	4.8	0.8	0.	4864.7
690	4.8	1.	0.	4832.
691	4.8	1.2	0.	4801.2
692	4.8	1.4	0.	4772.6
693	4.8	1.6	0.	4746.6
694	4.8	1.8	0.	4723.4
695	4.8	2.	0.	4703.4
696	4.8	2.2	0.	4686.6
697	4.8	2.4	0.	4673.4
698	4.8	2.6	0.	4663.9
699	4.8	2.8	0.	4658.2
700	4.8	3.	0.	4656.2
701	4.8	3.2	0.	4658.2
702	4.8	3.4	0.	4663.9
703	4.8	3.6	0.	4673.4
704	4.8	3.8	0.	4686.6
705	4.8	4.	0.	4703.4
706	4.8	4.2	0.	4723.4
707	4.8	4.4	0.	4746.6
708	4.8	4.6	0.	4772.6
709	4.8	4.8	0.	4801.2
710	4.8	5.	0.	4832.
711	4.8	5.2	0.	4864.7
712	4.8	5.4	0.	4899.
713	4.8	5.6	0.	4934.6
714	4.8	5.8	0.	4971.5
715	5.	0.2	0.	4904.2
716	5.	0.4	0.	4870.4
717	5.	0.6	0.	4837.6
718	5.	0.8	0.	4806.
719	5.	1.	0.	4775.9
720	5.	1.2	0.	4747.5
721	5.	1.4	0.	4721.2
722	5.	1.6	0.	4697.2
723	5.	1.8	0.	4675.9
724	5.	2.	0.	4657.4
725	5.	2.2	0.	4642.
726	5.	2.4	0.	4629.9
727	5.	2.6	0.	4621.1
728	5.	2.8	0.	4615.8
729	5.	3.	0.	4614.
730	5.	3.2	0.	4615.8
731	5.	3.4	0.	4621.1
732	5.	3.6	0.	4629.9
733	5.	3.8	0.	4642.
734	5.	4.	0.	4657.4
735	5.	4.2	0.	4675.9
736	5.	4.4	0.	4697.2
737	5.	4.6	0.	4721.2
738	5.	4.8	0.	4747.5
739	5.	5.	0.	4775.9
740	5.	5.2	0.	4806.
741	5.	5.4	0.	4837.6
742	5.	5.6	0.	4870.4
743	5.	5.8	0.	4904.2
744	5.2	0.2	0.	4837.7
745	5.2	0.4	0.	4806.6
746	5.2	0.6	0.	4776.4
747	5.2	0.8	0.	4747.4
748	5.2	1.	0.	4719.6
749	5.2	1.2	0.	4693.5
750	5.2	1.4	0.	4669.3
751	5.2	1.6	0.	4647.3
752	5.2	1.8	0.	4627.7
753	5.2	2.	0.	4610.7
754	5.2	2.2	0.	4596.5
755	5.2	2.4	0.	4585.3
756	5.2	2.6	0.	4577.2
757	5.2	2.8	0.	4572.3
758	5.2	3.	0.	4570.7
759	5.2	3.2	0.	4572.3
760	5.2	3.4	0.	4577.2
761	5.2	3.6	0.	4585.3
762	5.2	3.8	0.	4596.5
763	5.2	4.	0.	4610.7
764	5.2	4.2	0.	4627.7
765	5.2	4.4	0.	4647.3
766	5.2	4.6	0.	4669.3
767	5.2	4.8	0.	4693.5
768	5.2	5.	0.	4719.6
769	5.2	5.2	0.	4747.4
770	5.2	5.4	0.	4776.4
771	5.2	5.6	0.	4806.6
772	5.2	5.8	0.	4837.7
773	5.4	0.2	0.	4771.9
774	5.4	0.4	0.	4743.2
775	5.4	0.6	0.	4715.5
776	5.4	0.8	0.	4688.8
777	5.4	1.	0.	4663.3
778	5.4	1.2	0.	4639.3
779	5.4	1.4	0.	4617.
780	5.4	1.6	0.	4596.8
781	5.4	1.8	0.	4578.8
782	5.4	2.	0.	4563.1
783	5.4	2.2	0.	4550.1
784	5.4	2.4	0.	4539.8
785	5.4	2.6	0.	4532.4
786	5.4	2.8	0.	4527.9
787	5.4	3.	0.	4526.4
788	5.4	3.2	0.	4527.9
789	5.4	3.4	0.	4532.4
790	5.4	3.6	0.	4539.8
791	5.4	3.8	0.	4550.1
792	5.4	4.	0.	4563.1
793	5.4	4.2	0.	4578.8
794	5.4	4.4	0.	4596.8
795	5.4	4.6	0.	4617.
796	5.4	4.8	0.	4639.3
797	5.4	5.	0.	4663.3
798	5.4	5.2	0.	4688.8
799	5.4	5.4	0.	4715.5
800	5.4	5.6	0.	4743.2
801	5.4	5.8	0.	4771.9
802	5.6	0.2	0.	4706.7
803	5.6	0.4	0.	4680.4
804	5.6	0.6	0.	4654.8
805	5.6	0.8	0.	4630.3
806	5.6	1.	0.	4606.8
807	5.6	1.2	0.	4584.8
808	5.6	1.4	0.	4564.4
809	5.6	1.6	0.	4545.8
810	5.6	1.8	0.	4529.2
811	5.6	2.	0.	4514.9
812	5.6	2.2	0.	4502.9
813	5.6	2.4	0.	4493.4
814	5.6	2.6	0.	4486.6
815	5.6	2.8	0.	4482.5
816	5.6	3.	0.	4481.1
817	5.6	3.2	0.	4482.5
818	5.6	3.4	0.	4486.6
819	5.6	3.6	0.	4493.4
820	5.6	3.8	0.	4502.9
821	5.6	4.	0.	4514.9
822	5.6	4.2	0.	4529.2
823	5.6	4.4	0.	4545.8
824	5.6	4.6	0.	4564.4
825	5.6	4.8	0.	4584.8
826	5.6	5.	0.	4606.8
827	5.6	5.2	0.	4630.3
828	5.6	5.4	0.	4654.8
829	5.6	5.6	0.	4680.4
830	5.6	5.8	0.	4706.7
831	5.8	0.2	0.	4642.2
832	5.8	0.4	0.	4617.9
833	5.8	0.6	0.	4594.4
834	5.8	0.8	0.	4571.9
835	5.8	1.	0.	4550.3
836	5.8	1.2	0.	4530.1
837	5.8	1.4	0.	4511.3
838	5.8	1.6	0.	4494.2
839	5.8	1.8	0.	4479.
840	5.8	2.	0.	4465.9
841	5.8	2.2	0.	4454.9
842	5.8	2.4	0.	4446.2
843	5.8	2.6	0.	4440.
844	5.8	2.8	0.	4436.2
845	5.8	3.	0.	4434.9
846	5.8	3.2	0.	4436.2
847	5.8	3.4	0.	4440.
848	5.8	3.6	0.	4446.2
849	5.8	3.8	0.	4454.9
850	5.8	4.	0.	4465.9
851	5.8	4.2	0.	4479.
852	5.8	4.4	0.	4494.2
853	5.8	4.6	0.	4511.3
854	5.8	4.8	0.	4530.1
855	5.8	5.	0.	4550.3
856	5.8	5.2	0.	4571.9
857	5.8	5.4	0.	4594.4
858	5.8	5.6	0.	4617.9
859	5.8	5.8	0.	4642.2
860	6.	0.2	0.	4578.3
861	6.	0.4	0.	4555.8
862	6.	0.6	0.	4534.3
863	6.	0.8	0.	4513.5
864	6.	1.	0.	4493.8
865	6.	1.2	0.	4475.2
866	6.	1.4	0.	4457.9
867	6.	1.6	0.	4442.3
868	6.	1.8	0.	4428.3
869	6.	2.	0.	4416.2
870	6.	2.2	0.	4406.2
871	6.	2.4	0.	4398.2
872	6.	2.6	0.	4392.5
873	6.	2.8	0.	4389.
874	6.	3.	0.	4387.8
875	6.	3.2	0.	4389.
876	6.	3.4	0.	4392.5
877	6.	3.6	0.	4398.2
878	6.	3.8	0.	4406.2
879	6.	4.	0.	4416.2
880	6.	4.2	0.	4428.3
881	6.	4.4	0.	4442.3
882	6.	4.6	0.	4457.9
883	6.	4.8	0.	4475.2
884	6.	5.	0.	4493.8
885	6.	5.2	0.	4513.5
886	6.	5.4	0.	4534.3
887	6.	5.6	0.	4555.8
888	6.	5.8	0.	4578.3
889	6.2	0.2	0.	4514.9
890	6.2	0.4	0.	4494.2
891	6.2	0.6	0.	4474.4
892	6.2	0.8	0.	4455.3
893	6.2	1.	0.	4437.1
894	6.2	1.2	0.	4420.1
895	6.2	1.4	0.	4404.3
896	6.2	1.6	0.	4389.9
897	6.2	1.8	0.	4377.1
898	6.2	2.	0.	4366.
899	6.2	2.2	0.	4356.8
900	6.2	2.4	0.	4349.5
901	6.2	2.6	0.	4344.2
902	6.2	2.8	0.	4341.
903	6.2	3.	0.	4340.
904	6.2	3.2	0.	4341.
905	6.2	3.4	0.	4344.2
906	6.2	3.6	0.	4349.5
907	6.2	3.8	0.	4356.8
908	6.2	4.	0.	4366.
909	6.2	4.2	0.	4377.1
910	6.2	4.4	0.	4389.9
911	6.2	4.6	0.	4404.3
912	6.2	4.8	0.	4420.1
913	6.2	5.	0.	4437.1
914	6.2	5.2	0.	4455.3
915	6.2	5.4	0.	4474.4
916	6.2	5.6	0.	4494.2
917	6.2	5.8	0.	4514.9
918	6.4	0.2	0.	4452.
919	6.4	0.4	0.	4432.9
920	6.4	0.6	0.	4414.7
921	6.4	0.8	0.	4397.2
922	6.4	1.	0.	4380.5
923	6.4	1.2	0.	4364.8
924	6.4	1.4	0.	4350.3
925	6.4	1.6	0.	4337.1
926	6.4	1.8	0.	4325.4
927	6.4	2.	0.	4315.2
928	6.4	2.2	0.	4306.8
929	6.4	2.4	0.	4300.1
930	6.4	2.6	0.	4295.3
931	6.4	2.8	0.	4292.4
932	6.4	3.	0.	4291.4
933	6.4	3.2	0.	4292.4
934	6.4	3.4	0.	4295.3
935	6.4	3.6	0.	4300.1
936	6.4	3.8	0.	4306.8
937	6.4	4.	0.	4315.2
938	6.4	4.2	0.	4325.4
939	6.4	4.4	0.	4337.1
940	6.4	4.6	0.	4350.3
941	6.4	4.8	0.	4364.8
942	6.4	5.	0.	4380.5
943	6.4	5.2	0.	4397.2
944	6.4	5.4	0.	4414.7
945	6.4	5.6	0.	4432.9
946	6.4	5.8	0.	4452.
947	6.6	0.2	0.	4389.7
948	6.6	0.4	0.	4372.
949	6.6	0.6	0.	4355.2
950	6.6	0.8	0.	4339.1
951	6.6	1.	0.	4323.8
952	6.6	1.2	0.	4309.4
953	6.6	1.4	0.	4296.1
954	6.6	1.6	0.	4284.
955	6.6	1.8	0.	4273.3
956	6.6	2.	0.	4264.
957	6.6	2.2	0.	4256.2
958	6.6	2.4	0.	4250.1
959	6.6	2.6	0.	4245.7
960	6.6	2.8	0.	4243.
961	6.6	3.	0.	4242.1
962	6.6	3.2	0.	4243.
963	6.6	3.4	0.	4245.7
964	6.6	3.6	0.	4250.1
965	6.6	3.8	0.	4256.2
966	6.6	4.	0.	4264.
967	6.6	4.2	0.	4273.3
968	6.6	4.4	0.	4284.
969	6.6	4.6	0.	4296.1
970	6.6	4.8	0.	4309.4
971	6.6	5.	0.	4323.8
972	6.6	5.2	0.	4339.1
973	6.6	5.4	0.	4355.2
974	6.6	5.6	0.	4372.
975	6.6	5.8	0.	4389.7
976	6.8	0.2	0.	4327.8
977	6.8	0.4	0.	4311.4
978	6.8	0.6	0.	4296.
979	6.8	0.8	0.	4281.2
980	6.8	1.	0.	4267.1
981	6.8	1.2	0.	4253.9
982	6.8	1.4	0.	4241.7
983	6.8	1.6	0.	4230.6
984	6.8	1.8	0.	4220.8
985	6.8	2.	0.	4212.3
986	6.8	2.2	0.	4205.1
987	6.8	2.4	0.	4199.5
988	6.8	2.6	0.	4195.5
989	6.8	2.8	0.	4193.
990	6.8	3.	0.	4192.2
991	6.8	3.2	0.	4193.
992	6.8	3.4	0.	4195.5
993	6.8	3.6	0.	4199.5
994	6.8	3.8	0.	4205.1
995	6.8	4.	0.	4212.3
996	6.8	4.2	0.	4220.8
997	6.8	4.4	0.	4230.6
998	6.8	4.6	0.	4241.7
999	6.8	4.8	0.	4253.9
1000	6.8	5.	0.	4267.1
1001	6.8	5.2	0.	4281.2
1002	6.8	5.4	0.	4296.
1003	6.8	5.6	0.	4311.4
1004	6.8	5.8	0.	4327.8
1005	7.	0.2	0.	4266.3
1006	7.	0.4	0.	4251.1
1007	7.	0.6	0.	4237.
1008	7.	0.8	0.	4223.4
1009	7.	1.	0.	4210.5
1010	7.	1.2	0.	4198.4
1011	7.	1.4	0.	4187.2
1012	7.	1.6	0.	4177.
1013	7.	1.8	0.	4167.9
1014	7.	2.	0.	4160.1
1015	7.	2.2	0.	4153.6
1016	7.	2.4	0.	4148.5
1017	7.	2.6	0.	4144.8
1018	7.	2.8	0.	4142.5
1019	7.	3.	0.	4141.8
1020	7.	3.2	0.	4142.5
1021	7.	3.4	0.	4144.8
1022	7.	3.6	0.	4148.5
1023	7.	3.8	0.	4153.6
1024	7.	4.	0.	4160.1
1025	7.	4.2	0.	4168.
1026	7.	4.4	0.	4177.
1027	7.	4.6	0.	4187.2
1028	7.	4.8	0.	4198.4
1029	7.	5.	0.	4210.5
1030	7.	5.2	0.	4223.4
1031	7.	5.4	0.	4237.
1032	7.	5.6	0.	4251.1
1033	7.	5.8	0.	4266.3
1034	7.2	0.2	0.	4205.2
1035	7.2	0.4	0.	4191.2
1036	7.2	0.6	0.	4178.2
1037	7.2	0.8	0.	4165.7
1038	7.2	1.	0.	4153.8
1039	7.2	1.2	0.	4142.7
1040	7.2	1.4	0.	4132.4
1041	7.2	1.6	0.	4123.1
1042	7.2	1.8	0.	4114.8
1043	7.2	2.	0.	4107.7
1044	7.2	2.2	0.	4101.7
1045	7.2	2.4	0.	4097.
1046	7.2	2.6	0.	4093.6
1047	7.2	2.8	0.	4091.6
1048	7.2	3.	0.	4090.9
1049	7.2	3.2	0.	4091.6
1050	7.2	3.4	0.	4093.6
1051	7.2	3.6	0.	4097.
1052	7.2	3.8	0.	4101.7
1053	7.2	4.	0.	4107.7
1054	7.2	4.2	0.	4114.8
1055	7.2	4.4	0.	4123.1
1056	7.2	4.6	0.	4132.4
1057	7.2	4.8	0.	4142.7
1058	7.2	5.	0.	4153.8
1059	7.2	5.2	0.	4165.7
1060	7.2	5.4	0.	4178.2
1061	7.2	5.6	0.	4191.2
1062	7.2	5.8	0.	4205.2
1063	7.4	0.2	0.	4144.6
1064	7.4	0.4	0.	4131.6
1065	7.4	0.6	0.	4119.6
1066	7.4	0.8	0.	4108.1
1067	7.4	1.	0.	4097.2
1068	7.4	1.2	0.	4087.
1069	7.4	1.4	0.	4077.6
1070	7.4	1.6	0.	4069.
1071	7.4	1.8	0.	4061.4
1072	7.4	2.	0.	4054.9
1073	7.4	2.2	0.	4049.4
1074	7.4	2.4	0.	4045.1
1075	7.4	2.6	0.	4042.
1076	7.4	2.8	0.	4040.1
1077	7.4	3.	0.	4039.5
1078	7.4	3.2	0.	4040.1
1079	7.4	3.4	0.	4042.
1080	7.4	3.6	0.	4045.1
1081	7.4	3.8	0.	4049.4
1082	7.4	4.	0.	4054.9
1083	7.4	4.2	0.	4061.4
1084	7.4	4.4	0.	4069.
1085	7.4	4.6	0.	4077.6
1086	7.4	4.8	0.	4087.
1087	7.4	5.	0.	4097.2
1088	7.4	5.2	0.	4108.1
1089	7.4	5.4	0.	4119.6
1090	7.4	5.6	0.	4131.6
1091	7.4	5.8	0.	4144.6
1092	7.6	0.2	0.	4084.3
1093	7.6	0.4	0.	4072.2
1094	7.6	0.6	0.	4061.2
1095	7.6	0.8	0.	4050.6
1096	7.6	1.	0.	4040.6
1097	7.6	1.2	0.	4031.3
1098	7.6	1.4	0.	4022.6
1099	7.6	1.6	0.	4014.8
1100	7.6	1.8	0.	4007.8
1101	7.6	2.	0.	4001.8
1102	7.6	2.2	0.	3996.8
1103	7.6	2.4	0.	3992.9
1104	7.6	2.6	0.	3990.
1105	7.6	2.8	0.	3988.3
1106	7.6	3.	0.	3987.7
1107	7.6	3.2	0.	3988.3
1108	7.6	3.4	0.	3990.
1109	7.6	3.6	0.	3992.9
1110	7.6	3.8	0.	3996.8
1111	7.6	4.	0.	4001.8
1112	7.6	4.2	0.	4007.8
1113	7.6	4.4	0.	4014.8
1114	7.6	4.6	0.	4022.6
1115	7.6	4.8	0.	4031.3
1116	7.6	5.	0.	4040.6
1117	7.6	5.2	0.	4050.6
1118	7.6	5.4	0.	4061.2
1119	7.6	5.6	0.	4072.2
1120	7.6	5.8	0.	4084.3
1121	7.8	0.2	0.	4024.4
1122	7.8	0.4	0.	4013.1
1123	7.8	0.6	0.	4003.
1124	7.8	0.8	0.	3993.3
1125	7.8	1.	0.	3984.1
1126	7.8	1.2	0.	3975.5
1127	7.8	1.4	0.	3967.6
1128	7.8	1.6	0.	3960.4
1129	7.8	1.8	0.	3954.
1130	7.8	2.	0.	3948.5
1131	7.8	2.2	0.	3944.
1132	7.8	2.4	0.	3940.3
1133	7.8	2.6	0.	3937.7
1134	7.8	2.8	0.	3936.2
1135	7.8	3.	0.	3935.6
1136	7.8	3.2	0.	3936.2
1137	7.8	3.4	0.	3937.7
1138	7.8	3.6	0.	3940.3
1139	7.8	3.8	0.	3944.
1140	7.8	4.	0.	3948.5
1141	7.8	4.2	0.	3954.
1142	7.8	4.4	0.	3960.4
1143	7.8	4.6	0.	3967.6
1144	7.8	4.8	0.	3975.5
1145	7.8	5.	0.	3984.1
1146	7.8	5.2	0.	3993.3
1147	7.8	5.4	0.	4003.
1148	7.8	5.6	0.	4013.1
1149	7.8	5.8	0.	4024.4
1150	8.	0.2	0.	3964.9
1151	8.	0.4	0.	3954.3
1152	8.	0.6	0.	3945.
1153	8.	0.8	0.	3936.1
1154	8.	1.	0.	3927.7
1155	8.	1.2	0.	3919.8
1156	8.	1.4	0.	3912.5
1157	8.	1.6	0.	3905.9
1158	8.	1.8	0.	3900.1
1159	8.	2.	0.	3895.1
1160	8.	2.2	0.	3890.9
1161	8.	2.4	0.	3887.6
1162	8.	2.6	0.	3885.2
1163	8.	2.8	0.	3883.7
1164	8.	3.	0.	3883.2
1165	8.	3.2	0.	3883.7
1166	8.	3.4	0.	3885.2
1167	8.	3.6	0.	3887.6
1168	8.	3.8	0.	3890.9
1169	8.	4.	0.	3895.1
1170	8.	4.2	0.	3900.1
1171	8.	4.4	0.	3905.9
1172	8.	4.6	0.	3912.5
1173	8.	4.8	0.	3919.8
1174	8.	5.	0.	3927.7
1175	8.	5.2	0.	3936.1
1176	8.	5.4	0.	3945.
1177	8.	5.6	0.	3954.3
1178	8.	5.8	0.	3964.9
1179	8.2	0.2	0.	3905.6
1180	8.2	0.4	0.	3895.8
1181	8.2	0.6	0.	3887.2
1182	8.2	0.8	0.	3879.1
1183	8.2	1.	0.	3871.3
1184	8.2	1.2	0.	3864.1
1185	8.2	1.4	0.	3857.4
1186	8.2	1.6	0.	3851.4
1187	8.2	1.8	0.	3846.
1188	8.2	2.	0.	3841.4
1189	8.2	2.2	0.	3837.6
1190	8.2	2.4	0.	3834.5
1191	8.2	2.6	0.	3832.4
1192	8.2	2.8	0.	3831.
1193	8.2	3.	0.	3830.6
1194	8.2	3.2	0.	3831.
1195	8.2	3.4	0.	3832.4
1196	8.2	3.6	0.	3834.5
1197	8.2	3.8	0.	3837.6
1198	8.2	4.	0.	3841.4
1199	8.2	4.2	0.	3846.
1200	8.2	4.4	0.	3851.4
1201	8.2	4.6	0.	3857.4
1202	8.2	4.8	0.	3864.1
1203	8.2	5.	0.	3871.3
1204	8.2	5.2	0.	3879.1
1205	8.2	5.4	0.	3887.2
1206	8.2	5.6	0.	3895.8
1207	8.2	5.8	0.	3905.7
1208	8.4	0.2	0.	3846.7
1209	8.4	0.4	0.	3837.6
1210	8.4	0.6	0.	3829.7
1211	8.4	0.8	0.	3822.2
1212	8.4	1.	0.	3815.1
1213	8.4	1.2	0.	3808.4
1214	8.4	1.4	0.	3802.3
1215	8.4	1.6	0.	3796.8
1216	8.4	1.8	0.	3791.9
1217	8.4	2.	0.	3787.6
1218	8.4	2.2	0.	3784.1
1219	8.4	2.4	0.	3781.4
1220	8.4	2.6	0.	3779.4
1221	8.4	2.8	0.	3778.1
1222	8.4	3.	0.	3777.7
1223	8.4	3.2	0.	3778.1
1224	8.4	3.4	0.	3779.4
1225	8.4	3.6	0.	3781.4
1226	8.4	3.8	0.	3784.1
1227	8.4	4.	0.	3787.6
1228	8.4	4.2	0.	3791.9
1229	8.4	4.4	0.	3796.8
1230	8.4	4.6	0.	3802.3
1231	8.4	4.8	0.	3808.4
1232	8.4	5.	0.	3815.1
1233	8.4	5.2	0.	3822.2
1234	8.4	5.4	0.	3829.7
1235	8.4	5.6	0.	3837.6
1236	8.4	5.8	0.	3846.7
1237	8.6	0.2	0.	3788.2
1238	8.6	0.4	0.	3779.6
1239	8.6	0.6	0.	3772.3
1240	8.6	0.8	0.	3765.4
1241	8.6	1.	0.	3758.9
1242	8.6	1.2	0.	3752.8
1243	8.6	1.4	0.	3747.2
1244	8.6	1.6	0.	3742.1
1245	8.6	1.8	0.	3737.6
1246	8.6	2.	0.	3733.8
1247	8.6	2.2	0.	3730.5
1248	8.6	2.4	0.	3728.
1249	8.6	2.6	0.	3726.2
1250	8.6	2.8	0.	3725.1
1251	8.6	3.	0.	3724.7
1252	8.6	3.2	0.	3725.1
1253	8.6	3.4	0.	3726.2
1254	8.6	3.6	0.	3728.
1255	8.6	3.8	0.	3730.6
1256	8.6	4.	0.	3733.8
1257	8.6	4.2	0.	3737.6
1258	8.6	4.4	0.	3742.1
1259	8.6	4.6	0.	3747.2
1260	8.6	4.8	0.	3752.8
1261	8.6	5.	0.	3758.9
1262	8.6	5.2	0.	3765.4
1263	8.6	5.4	0.	3772.3
1264	8.6	5.6	0.	3779.6
1265	8.6	5.8	0.	3788.2
1266	8.8	0.2	0.	3729.9
1267	8.8	0.4	0.	3721.8
1268	8.8	0.6	0.	3715.1
1269	8.8	0.8	0.	3708.8
1270	8.8	1.	0.	3702.8
1271	8.8	1.2	0.	3697.2
1272	8.8	1.4	0.	3692.1
1273	8.8	1.6	0.	3687.5
1274	8.8	1.8	0.	3683.4
1275	8.8	2.	0.	3679.8
1276	8.8	2.2	0.	3676.9
1277	8.8	2.4	0.	3674.6
1278	8.8	2.6	0.	3672.9
1279	8.8	2.8	0.	3671.9
1280	8.8	3.	0.	3671.5
1281	8.8	3.2	0.	3671.9
1282	8.8	3.4	0.	3672.9
1283	8.8	3.6	0.	3674.6
1284	8.8	3.8	0.	3676.9
1285	8.8	4.	0.	3679.8
1286	8.8	4.2	0.	3683.4
1287	8.8	4.4	0.	3687.5
1288	8.8	4.6	0.	3692.1
1289	8.8	4.8	0.	3697.2
1290	8.8	5.	0.	3702.8
1291	8.8	5.2	0.	3708.8
1292	8.8	5.4	0.	3715.1
1293	8.8	5.6	0.	3721.8
1294	8.8	5.8	0.	3729.9
1295	9.	0.2	0.	3671.9
1296	9.	0.4	0.	3664.3
1297	9.	0.6	0.	3658.1
1298	9.	0.8	0.	3652.3
1299	9.	1.	0.	3646.9
1300	9.	1.2	0.	3641.8
1301	9.	1.4	0.	3637.1
1302	9.	1.6	0.	3632.8
1303	9.	1.8	0.	3629.1
1304	9.	2.	0.	3625.8
1305	9.	2.2	0.	3623.1
1306	9.	2.4	0.	3621.
1307	9.	2.6	0.	3619.5
1308	9.	2.8	0.	3618.6
1309	9.	3.	0.	3618.3
1310	9.	3.2	0.	3618.6
1311	9.	3.4	0.	3619.5
1312	9.	3.6	0.	3621.
1313	9.	3.8	0.	3623.1
1314	9.	4.	0.	3625.8
1315	9.	4.2	0.	3629.1
1316	9.	4.4	0.	3632.8
1317	9.	4.6	0.	3637.1
1318	9.	4.8	0.	3641.8
1319	9.	5.	0.	3646.9
1320	9.	5.2	0.	3652.3
1321	9.	5.4	0.	3658.1
1322	9.	5.6	0.	3664.3
1323	9.	5.8	0.	3671.9
1324	9.2	0.2	0.	3614.1
1325	9.2	0.4	0.	3607.
1326	9.2	0.6	0.	3601.4
1327	9.2	0.8	0.	3596.1
1328	9.2	1.	0.	3591.1
1329	9.2	1.2	0.	3586.4
1330	9.2	1.4	0.	3582.1
1331	9.2	1.6	0.	3578.2
1332	9.2	1.8	0.	3574.8
1333	9.2	2.	0.	3571.8
1334	9.2	2.2	0.	3569.4
1335	9.2	2.4	0.	3567.4
1336	9.2	2.6	0.	3566.
1337	9.2	2.8	0.	3565.2
1338	9.2	3.	0.	3564.9
1339	9.2	3.2	0.	3565.2
1340	9.2	3.4	0.	3566.
1341	9.2	3.6	0.	3567.4
1342	9.2	3.8	0.	3569.4
1343	9.2	4.	0.	3571.8
1344	9.2	4.2	0.	3574.8
1345	9.2	4.4	0.	3578.2
1346	9.2	4.6	0.	3582.1
1347	9.2	4.8	0.	3586.4
1348	9.2	5.	0.	3591.1
1349	9.2	5.2	0.	3596.1
1350	9.2	5.4	0.	3601.4
1351	9.2	5.6	0.	3607.
1352	9.2	5.8	0.	3614.1
1353	9.4	0.2	0.	3556.7
1354	9.4	0.4	0.	3550.
1355	9.4	0.6	0.	3544.8
1356	9.4	0.8	0.	3540.
1357	9.4	1.	0.	3535.4
1358	9.4	1.2	0.	3531.1
1359	9.4	1.4	0.	3527.2
1360	9.4	1.6	0.	3523.6
1361	9.4	1.8	0.	3520.5
1362	9.4	2.	0.	3517.8
1363	9.4	2.2	0.	3515.6
1364	9.4	2.4	0.	3513.8
1365	9.4	2.6	0.	3512.5
1366	9.4	2.8	0.	3511.8
1367	9.4	3.	0.	3511.5
1368	9.4	3.2	0.	3511.8
1369	9.4	3.4	0.	3512.5
1370	9.4	3.6	0.	3513.8
1371	9.4	3.8	0.	3515.6
1372	9.4	4.	0.	3517.8
1373	9.4	4.2	0.	3520.5
1374	9.4	4.4	0.	3523.6
1375	9.4	4.6	0.	3527.2
1376	9.4	4.8	0.	3531.1
1377	9.4	5.	0.	3535.4
1378	9.4	5.2	0.	3540.
1379	9.4	5.4	0.	3544.8
1380	9.4	5.6	0.	3550.
1381	9.4	5.8	0.	3556.7
1382	9.6	0.2	0.	3499.5
1383	9.6	0.4	0.	3493.2
1384	9.6	0.6	0.	3488.5
1385	9.6	0.8	0.	3484.
1386	9.6	1.	0.	3479.8
1387	9.6	1.2	0.	3475.9
1388	9.6	1.4	0.	3472.4
1389	9.6	1.6	0.	3469.1
1390	9.6	1.8	0.	3466.3
1391	9.6	2.	0.	3463.8
1392	9.6	2.2	0.	3461.8
1393	9.6	2.4	0.	3460.2
1394	9.6	2.6	0.	3459.
1395	9.6	2.8	0.	3458.3
1396	9.6	3.	0.	3458.1
1397	9.6	3.2	0.	3458.3
1398	9.6	3.4	0.	3459.
1399	9.6	3.6	0.	3460.2
1400	9.6	3.8	0.	3461.8
1401	9.6	4.	0.	3463.8
1402	9.6	4.2	0.	3466.3
1403	9.6	4.4	0.	3469.1
1404	9.6	4.6	0.	3472.4
1405	9.6	4.8	0.	3475.9
1406	9.6	5.	0.	3479.8
1407	9.6	5.2	0.	3484.
1408	9.6	5.4	0.	3488.5
1409	9.6	5.6	0.	3493.2
1410	9.6	5.8	0.	3499.5
1411	9.8	0.2	0.	3442.6
1412	9.8	0.4	0.	3436.7
1413	9.8	0.6	0.	3432.3
1414	9.8	0.8	0.	3428.3
1415	9.8	1.	0.	3424.4
1416	9.8	1.2	0.	3420.9
1417	9.8	1.4	0.	3417.6
1418	9.8	1.6	0.	3414.7
1419	9.8	1.8	0.	3412.1
1420	9.8	2.	0.	3409.9
1421	9.8	2.2	0.	3408.
1422	9.8	2.4	0.	3406.6
1423	9.8	2.6	0.	3405.5
1424	9.8	2.8	0.	3404.9
1425	9.8	3.	0.	3404.7
1426	9.8	3.2	0.	3404.9
1427	9.8	3.4	0.	3405.5
1428	9.8	3.6	0.	3406.6
1429	9.8	3.8	0.	3408.
1430	9.8	4.	0.	3409.9
1431	9.8	4.2	0.	3412.1
1432	9.8	4.4	0.	3414.7
1433	9.8	4.6	0.	3417.6
1434	9.8	4.8	0.	3420.9
1435	9.8	5.	0.	3424.4
1436	9.8	5.2	0.	3428.3
1437	9.8	5.4	0.	3432.3
1438	9.8	5.6	0.	3436.7
1439	9.8	5.8	0.	3442.6
1440	10.	0.2	0.	3386.
1441	10.	0.4	0.	3380.4
1442	10.	0.6	0.	3376.4
1443	10.	0.8	0.	3372.7
1444	10.	1.	0.	3369.2
1445	10.	1.2	0.	3366.
1446	10.	1.4	0.	3363.
1447	10.	1.6	0.	3360.4
1448	10.	1.8	0.	3358.
1449	10.	2.	0.	3356.
1450	10.	2.2	0.	3354.3
1451	10.	2.4	0.	3353.
1452	10.	2.6	0.	3352.1
1453	10.	2.8	0.	3351.5
1454	10.	3.	0.	3351.3
1455	10.	3.2	0.	3351.5
1456	10.	3.4	0.	3352.1
1457	10.	3.6	0.	3353.
1458	10.	3.8	0.	3354.3
1459	10.	4.	0.	3356.
1460	10.	4.2	0.	3358.
1461	10.	4.4	0.	3360.4
1462	10.	4.6	0.	3363.
1463	10.	4.8	0.	3366.
1464	10.	5.	0.	3369.2
1465	10.	5.2	0.	3372.7
1466	10.	5.4	0.	3376.4
1467	10.	5.6	0.	3380.4
1468	10.	5.8	0.	3386.
1469	10.2	0.2	0.	3329.6
1470	10.2	0.4	0.	3324.3
1471	10.2	0.6	0.	3320.6
1472	10.2	0.8	0.	3317.3
1473	10.2	1.	0.	3314.2
1474	10.2	1.2	0.	3311.2
1475	10.2	1.4	0.	3308.6
1476	10.2	1.6	0.	3306.2
1477	10.2	1.8	0.	3304.1
1478	10.2	2.	0.	3302.2
1479	10.2	2.2	0.	3300.7
1480	10.2	2.4	0.	3299.5
1481	10.2	2.6	0.	3298.7
1482	10.2	2.8	0.	3298.1
1483	10.2	3.	0.	3298.
1484	10.2	3.2	0.	3298.1
1485	10.2	3.4	0.	3298.7
1486	10.2	3.6	0.	3299.5
1487	10.2	3.8	0.	3300.7
1488	10.2	4.	0.	3302.2
1489	10.2	4.2	0.	3304.1
1490	10.2	4.4	0.	3306.2
1491	10.2	4.6	0.	3308.6
1492	10.2	4.8	0.	3311.2
1493	10.2	5.	0.	3314.2
1494	10.2	5.2	0.	3317.3
1495	10.2	5.4	0.	3320.6
1496	10.2	5.6	0.	3324.3
1497	10.2	5.8	0.	3329.6
1498	10.4	0.2	0.	3273.4
1499	10.4	0.4	0.	3268.4
1500	10.4	0.6	0.	3265.1
1501	10.4	0.8	0.	3262.1
1502	10.4	1.	0.	3259.3
1503	10.4	1.2	0.	3256.6
1504	10.4	1.4	0.	3254.2
1505	10.4	1.6	0.	3252.1
1506	10.4	1.8	0.	3250.2
1507	10.4	2.	0.	3248.5
1508	10.4	2.2	0.	3247.2
1509	10.4	2.4	0.	3246.1
1510	10.4	2.6	0.	3245.3
1511	10.4	2.8	0.	3244.9
1512	10.4	3.	0.	3244.7
1513	10.4	3.2	0.	3244.9
1514	10.4	3.4	0.	3245.3
1515	10.4	3.6	0.	3246.1
1516	10.4	3.8	0.	3247.2
1517	10.4	4.	0.	3248.5
1518	10.4	4.2	0.	3250.2
1519	10.4	4.4	0.	3252.1
1520	10.4	4.6	0.	3254.2
1521	10.4	4.8	0.	3256.6
1522	10.4	5.	0.	3259.3
1523	10.4	5.2	0.	3262.1
1524	10.4	5.4	0.	3265.1
1525	10.4	5.6	0.	3268.4
1526	10.4	5.8	0.	3273.4
1527	10.6	0.2	0.	3217.5
1528	10.6	0.4	0.	3212.8
1529	10.6	0.6	0.	3209.8
1530	10.6	0.8	0.	3207.1
1531	10.6	1.	0.	3204.6
1532	10.6	1.2	0.	3202.2
1533	10.6	1.4	0.	3200.1
1534	10.6	1.6	0.	3198.1
1535	10.6	1.8	0.	3196.4
1536	10.6	2.	0.	3195.
1537	10.6	2.2	0.	3193.7
1538	10.6	2.4	0.	3192.8
1539	10.6	2.6	0.	3192.1
1540	10.6	2.8	0.	3191.7
1541	10.6	3.	0.	3191.5
1542	10.6	3.2	0.	3191.7
1543	10.6	3.4	0.	3192.1
1544	10.6	3.6	0.	3192.8
1545	10.6	3.8	0.	3193.7
1546	10.6	4.	0.	3195.
1547	10.6	4.2	0.	3196.4
1548	10.6	4.4	0.	3198.1
1549	10.6	4.6	0.	3200.1
1550	10.6	4.8	0.	3202.2
1551	10.6	5.	0.	3204.6
1552	10.6	5.2	0.	3207.1
1553	10.6	5.4	0.	3209.8
1554	10.6	5.6	0.	3212.8
1555	10.6	5.8	0.	3217.5
1556	10.8	0.2	0.	3161.8
1557	10.8	0.4	0.	3157.4
1558	10.8	0.6	0.	3154.7
1559	10.8	0.8	0.	3152.3
1560	10.8	1.	0.	3150.
1561	10.8	1.2	0.	3147.9
1562	10.8	1.4	0.	3146.
1563	10.8	1.6	0.	3144.3
1564	10.8	1.8	0.	3142.8
1565	10.8	2.	0.	3141.5
1566	10.8	2.2	0.	3140.4
1567	10.8	2.4	0.	3139.6
1568	10.8	2.6	0.	3139.
1569	10.8	2.8	0.	3138.6
1570	10.8	3.	0.	3138.5
1571	10.8	3.2	0.	3138.6
1572	10.8	3.4	0.	3139.
1573	10.8	3.6	0.	3139.6
1574	10.8	3.8	0.	3140.4
1575	10.8	4.	0.	3141.5
1576	10.8	4.2	0.	3142.8
1577	10.8	4.4	0.	3144.3
1578	10.8	4.6	0.	3146.
1579	10.8	4.8	0.	3147.9
1580	10.8	5.	0.	3150.
1581	10.8	5.2	0.	3152.3
1582	10.8	5.4	0.	3154.7
1583	10.8	5.6	0.	3157.4
1584	10.8	5.8	0.	3161.8
1585	11.	0.2	0.	3106.3
1586	11.	0.4	0.	3102.2
1587	11.	0.6	0.	3099.8
1588	11.	0.8	0.	3097.7
1589	11.	1.	0.	3095.7
1590	11.	1.2	0.	3093.9
1591	11.	1.4	0.	3092.2
1592	11.	1.6	0.	3090.7
1593	11.	1.8	0.	3089.4
1594	11.	2.	0.	3088.2
1595	11.	2.2	0.	3087.3
1596	11.	2.4	0.	3086.5
1597	11.	2.6	0.	3086.
1598	11.	2.8	0.	3085.7
1599	11.	3.	0.	3085.5
1600	11.	3.2	0.	3085.7
1601	11.	3.4	0.	3086.
1602	11.	3.6	0.	3086.5
1603	11.	3.8	0.	3087.3
1604	11.	4.	0.	3088.2
1605	11.	4.2	0.	3089.4
1606	11.	4.4	0.	3090.7
1607	11.	4.6	0.	3092.2
1608	11.	4.8	0.	3093.9
1609	11.	5.	0.	3095.7
1610	11.	5.2	0.	3097.7
1611	11.	5.4	0.	3099.8
1612	11.	5.6	0.	3102.2
1613	11.	5.8	0.	3106.3
1614	11.2	0.2	0.	3051.1
1615	11.2	0.4	0.	3047.2
1616	11.2	0.6	0.	3045.1
1617	11.2	0.8	0.	3043.3
1618	11.2	1.	0.	3041.6
1619	11.2	1.2	0.	3040.
1620	11.2	1.4	0.	3038.5
1621	11.2	1.6	0.	3037.2
1622	11.2	1.8	0.	3036.1
1623	11.2	2.	0.	3035.1
1624	11.2	2.2	0.	3034.3
1625	11.2	2.4	0.	3033.6
1626	11.2	2.6	0.	3033.1
1627	11.2	2.8	0.	3032.9
1628	11.2	3.	0.	3032.8
1629	11.2	3.2	0.	3032.9
1630	11.2	3.4	0.	3033.1
1631	11.2	3.6	0.	3033.6
1632	11.2	3.8	0.	3034.3
1633	11.2	4.	0.	3035.1
1634	11.2	4.2	0.	3036.1
1635	11.2	4.4	0.	3037.2
1636	11.2	4.6	0.	3038.5
1637	11.2	4.8	0.	3040.
1638	11.2	5.	0.	3041.6
1639	11.2	5.2	0.	3043.3
1640	11.2	5.4	0.	3045.1
1641	11.2	5.6	0.	3047.2
1642	11.2	5.8	0.	3051.1
1643	11.4	0.2	0.	2996.
1644	11.4	0.4	0.	2992.4
1645	11.4	0.6	0.	2990.6
1646	11.4	0.8	0.	2989.1
1647	11.4	1.	0.	2987.6
1648	11.4	1.2	0.	2986.3
1649	11.4	1.4	0.	2985.1
1650	11.4	1.6	0.	2984.
1651	11.4	1.8	0.	2983.
1652	11.4	2.	0.	2982.1
1653	11.4	2.2	0.	2981.4
1654	11.4	2.4	0.	2980.9
1655	11.4	2.6	0.	2980.5
1656	11.4	2.8	0.	2980.2
1657	11.4	3.	0.	2980.1
1658	11.4	3.2	0.	2980.2
1659	11.4	3.4	0.	2980.5
1660	11.4	3.6	0.	2980.9
1661	11.4	3.8	0.	2981.4
1662	11.4	4.	0.	2982.1
1663	11.4	4.2	0.	2983.
1664	11.4	4.4	0.	2984.
1665	11.4	4.6	0.	2985.1
1666	11.4	4.8	0.	2986.3
1667	11.4	5.	0.	2987.6
1668	11.4	5.2	0.	2989.1
1669	11.4	5.4	0.	2990.6
1670	11.4	5.6	0.	2992.4
1671	11.4	5.8	0.	2996.
1672	11.6	0.2	0.	2941.2
1673	11.6	0.4	0.	2937.9
1674	11.6	0.6	0.	2936.4
1675	11.6	0.8	0.	2935.1
1676	11.6	1.	0.	2933.9
1677	11.6	1.2	0.	2932.8
1678	11.6	1.4	0.	2931.8
1679	11.6	1.6	0.	2930.9
1680	11.6	1.8	0.	2930.1
1681	11.6	2.	0.	2929.4
1682	11.6	2.2	0.	2928.8
1683	11.6	2.4	0.	2928.3
1684	11.6	2.6	0.	2928.
1685	11.6	2.8	0.	2927.8
1686	11.6	3.	0.	2927.7
1687	11.6	3.2	0.	2927.8
1688	11.6	3.4	0.	2928.
1689	11.6	3.6	0.	2928.3
1690	11.6	3.8	0.	2928.8
1691	11.6	4.	0.	2929.4
1692	11.6	4.2	0.	2930.1
1693	11.6	4.4	0.	2930.9
1694	11.6	4.6	0.	2931.8
1695	11.6	4.8	0.	2932.8
1696	11.6	5.	0.	2933.9
1697	11.6	5.2	0.	2935.1
1698	11.6	5.4	0.	2936.4
1699	11.6	5.6	0.	2937.9
1700	11.6	5.8	0.	2941.2
1701	11.8	0.2	0.	2886.5
1702	11.8	0.4	0.	2883.5
1703	11.8	0.6	0.	2882.3
1704	11.8	0.8	0.	2881.3
1705	11.8	1.	0.	2880.4
1706	11.8	1.2	0.	2879.5
1707	11.8	1.4	0.	2878.7
1708	11.8	1.6	0.	2878.
1709	11.8	1.8	0.	2877.4
1710	11.8	2.	0.	2876.8
1711	11.8	2.2	0.	2876.4
1712	11.8	2.4	0.	2876.
1713	11.8	2.6	0.	2875.7
1714	11.8	2.8	0.	2875.5
1715	11.8	3.	0.	2875.5
1716	11.8	3.2	0.	2875.5
1717	11.8	3.4	0.	2875.7
1718	11.8	3.6	0.	2876.
1719	11.8	3.8	0.	2876.4
1720	11.8	4.	0.	2876.8
1721	11.8	4.2	0.	2877.4
1722	11.8	4.4	0.	2878.
1723	11.8	4.6	0.	2878.7
1724	11.8	4.8	0.	2879.5
1725	11.8	5.	0.	2880.4
1726	11.8	5.2	0.	2881.3
1727	11.8	5.4	0.	2882.3
1728	11.8	5.6	0.	2883.5
1729	11.8	5.8	0.	2886.5
1730	12.	0.2	0.	2832.
1731	12.	0.4	0.	2829.3
1732	12.	0.6	0.	2828.4
1733	12.	0.8	0.	2827.7
1734	12.	1.	0.	2827.1
1735	12.	1.2	0.	2826.5
1736	12.	1.4	0.	2825.9
1737	12.	1.6	0.	2825.4
1738	12.	1.8	0.	2824.9
1739	12.	2.	0.	2824.5
1740	12.	2.2	0.	2824.2
1741	12.	2.4	0.	2823.9
1742	12.	2.6	0.	2823.6
1743	12.	2.8	0.	2823.5
1744	12.	3.	0.	2823.5
1745	12.	3.2	0.	2823.5
1746	12.	3.4	0.	2823.6
1747	12.	3.6	0.	2823.9
1748	12.	3.8	0.	2824.2
1749	12.	4.	0.	2824.5
1750	12.	4.2	0.	2824.9
1751	12.	4.4	0.	2825.4
1752	12.	4.6	0.	2825.9
1753	12.	4.8	0.	2826.5
1754	12.	5.	0.	2827.1
1755	12.	5.2	0.	2827.7
1756	12.	5.4	0.	2828.4
1757	12.	5.6	0.	2829.3
1758	12.	5.8	0.	2832.
1759	12.2	0.2	0.	2777.7
1760	12.2	0.4	0.	2775.3
1761	12.2	0.6	0.	2774.7
1762	12.2	0.8	0.	2774.3
1763	12.2	1.	0.	2774.
1764	12.2	1.2	0.	2773.6
1765	12.2	1.4	0.	2773.3
1766	12.2	1.6	0.	2773.
1767	12.2	1.8	0.	2772.7
1768	12.2	2.	0.	2772.4
1769	12.2	2.2	0.	2772.2
1770	12.2	2.4	0.	2772.
1771	12.2	2.6	0.	2771.8
1772	12.2	2.8	0.	2771.7
1773	12.2	3.	0.	2771.7
1774	12.2	3.2	0.	2771.7
1775	12.2	3.4	0.	2771.8
1776	12.2	3.6	0.	2772.
1777	12.2	3.8	0.	2772.2
1778	12.2	4.	0.	2772.4
1779	12.2	4.2	0.	2772.7
1780	12.2	4.4	0.	2773.
1781	12.2	4.6	0.	2773.3
1782	12.2	4.8	0.	2773.6
1783	12.2	5.	0.	2774.
1784	12.2	5.2	0.	2774.3
1785	12.2	5.4	0.	2774.7
1786	12.2	5.6	0.	2775.3
1787	12.2	5.8	0.	2777.7
1788	12.4	0.2	0.	2723.5
1789	12.4	0.4	0.	2721.4
1790	12.4	0.6	0.	2721.2
1791	12.4	0.8	0.	2721.1
1792	12.4	1.	0.	2721.1
1793	12.4	1.2	0.	2721.
1794	12.4	1.4	0.	2721.
1795	12.4	1.6	0.	2720.9
1796	12.4	1.8	0.	2720.8
1797	12.4	2.	0.	2720.6
1798	12.4	2.2	0.	2720.5
1799	12.4	2.4	0.	2720.4
1800	12.4	2.6	0.	2720.3
1801	12.4	2.8	0.	2720.2
1802	12.4	3.	0.	2720.2
1803	12.4	3.2	0.	2720.2
1804	12.4	3.4	0.	2720.3
1805	12.4	3.6	0.	2720.4
1806	12.4	3.8	0.	2720.5
1807	12.4	4.	0.	2720.7
1808	12.4	4.2	0.	2720.8
1809	12.4	4.4	0.	2720.9
1810	12.4	4.6	0.	2721.
1811	12.4	4.8	0.	2721.
1812	12.4	5.	0.	2721.1
1813	12.4	5.2	0.	2721.1
1814	12.4	5.4	0.	2721.2
1815	12.4	5.6	0.	2721.4
1816	12.4	5.8	0.	2723.5
1817	12.6	0.2	0.	2669.4
1818	12.6	0.4	0.	2667.7
1819	12.6	0.6	0.	2667.9
1820	12.6	0.8	0.	2668.1
1821	12.6	1.	0.	2668.4
1822	12.6	1.2	0.	2668.7
1823	12.6	1.4	0.	2668.9
1824	12.6	1.6	0.	2669.
1825	12.6	1.8	0.	2669.1
1826	12.6	2.	0.	2669.1
1827	12.6	2.2	0.	2669.1
1828	12.6	2.4	0.	2669.1
1829	12.6	2.6	0.	2669.1
1830	12.6	2.8	0.	2669.
1831	12.6	3.	0.	2669.
1832	12.6	3.2	0.	2669.
1833	12.6	3.4	0.	2669.1
1834	12.6	3.6	0.	2669.1
1835	12.6	3.8	0.	2669.1
1836	12.6	4.	0.	2669.1
1837	12.6	4.2	0.	2669.1
1838	12.6	4.4	0.	2669.
1839	12.6	4.6	0.	2668.9
1840	12.6	4.8	0.	2668.7
1841	12.6	5.	0.	2668.4
1842	12.6	5.2	0.	2668.1
1843	12.6	5.4	0.	2667.9
1844	12.6	5.6	0.	2667.7
1845	12.6	5.8	0.	2669.4
1846	12.8	0.2	0.	2615.4
1847	12.8	0.4	0.	2614.1
1848	12.8	0.6	0.	2614.7
1849	12.8	0.8	0.	2615.3
1850	12.8	1.	0.	2616.
1851	12.8	1.2	0.	2616.6
1852	12.8	1.4	0.	2617.1
1853	12.8	1.6	0.	2617.5
1854	12.8	1.8	0.	2617.8
1855	12.8	2.	0.	2618.
1856	12.8	2.2	0.	2618.1
1857	12.8	2.4	0.	2618.1
1858	12.8	2.6	0.	2618.2
1859	12.8	2.8	0.	2618.2
1860	12.8	3.	0.	2618.2
1861	12.8	3.2	0.	2618.2
1862	12.8	3.4	0.	2618.2
1863	12.8	3.6	0.	2618.1
1864	12.8	3.8	0.	2618.1
1865	12.8	4.	0.	2618.
1866	12.8	4.2	0.	2617.8
1867	12.8	4.4	0.	2617.5
1868	12.8	4.6	0.	2617.1
1869	12.8	4.8	0.	2616.6
1870	12.8	5.	0.	2616.
1871	12.8	5.2	0.	2615.3
1872	12.8	5.4	0.	2614.7
1873	12.8	5.6	0.	2614.1
1874	12.8	5.8	0.	2615.4
1875	13.	0.2	0.	2561.3
1876	13.	0.4	0.	2560.6
1877	13.	0.6	0.	2561.6
1878	13.	0.8	0.	2562.7
1879	13.	1.	0.	2563.8
1880	13.	1.2	0.	2564.8
1881	13.	1.4	0.	2565.6
1882	13.	1.6	0.	2566.2
1883	13.	1.8	0.	2566.8
1884	13.	2.	0.	2567.1
1885	13.	2.2	0.	2567.4
1886	13.	2.4	0.	2567.6
1887	13.	2.6	0.	2567.7
1888	13.	2.8	0.	2567.7
1889	13.	3.	0.	2567.7
1890	13.	3.2	0.	2567.7
1891	13.	3.4	0.	2567.7
1892	13.	3.6	0.	2567.6
1893	13.	3.8	0.	2567.4
1894	13.	4.	0.	2567.1
1895	13.	4.2	0.	2566.8
1896	13.	4.4	0.	2566.2
1897	13.	4.6	0.	2565.6
1898	13.	4.8	0.	2564.8
1899	13.	5.	0.	2563.8
1900	13.	5.2	0.	2562.7
1901	13.	5.4	0.	2561.6
1902	13.	5.6	0.	2560.6
1903	13.	5.8	0.	2561.3
1904	13.2	0.2	0.	2507.3
1905	13.2	0.4	0.	2507.
1906	13.2	0.6	0.	2508.6
1907	13.2	0.8	0.	2510.2
1908	13.2	1.	0.	2511.8
1909	13.2	1.2	0.	2513.2
1910	13.2	1.4	0.	2514.4
1911	13.2	1.6	0.	2515.4
1912	13.2	1.8	0.	2516.1
1913	13.2	2.	0.	2516.7
1914	13.2	2.2	0.	2517.1
1915	13.2	2.4	0.	2517.4
1916	13.2	2.6	0.	2517.6
1917	13.2	2.8	0.	2517.7
1918	13.2	3.	0.	2517.7
1919	13.2	3.2	0.	2517.7
1920	13.2	3.4	0.	2517.6
1921	13.2	3.6	0.	2517.4
1922	13.2	3.8	0.	2517.1
1923	13.2	4.	0.	2516.7
1924	13.2	4.2	0.	2516.1
1925	13.2	4.4	0.	2515.4
1926	13.2	4.6	0.	2514.4
1927	13.2	4.8	0.	2513.2
1928	13.2	5.	0.	2511.8
1929	13.2	5.2	0.	2510.2
1930	13.2	5.4	0.	2508.6
1931	13.2	5.6	0.	2507.
1932	13.2	5.8	0.	2507.3
1933	13.4	0.2	0.	2453.1
1934	13.4	0.4	0.	2453.5
1935	13.4	0.6	0.	2455.7
1936	13.4	0.8	0.	2457.9
1937	13.4	1.	0.	2460.
1938	13.4	1.2	0.	2461.9
1939	13.4	1.4	0.	2463.5
1940	13.4	1.6	0.	2464.8
1941	13.4	1.8	0.	2465.9
1942	13.4	2.	0.	2466.7
1943	13.4	2.2	0.	2467.3
1944	13.4	2.4	0.	2467.7
1945	13.4	2.6	0.	2468.
1946	13.4	2.8	0.	2468.1
1947	13.4	3.	0.	2468.2
1948	13.4	3.2	0.	2468.1
1949	13.4	3.4	0.	2468.
1950	13.4	3.6	0.	2467.7
1951	13.4	3.8	0.	2467.3
1952	13.4	4.	0.	2466.7
1953	13.4	4.2	0.	2465.9
1954	13.4	4.4	0.	2464.8
1955	13.4	4.6	0.	2463.5
1956	13.4	4.8	0.	2461.9
1957	13.4	5.	0.	2460.
1958	13.4	5.2	0.	2457.9
1959	13.4	5.4	0.	2455.7
1960	13.4	5.6	0.	2453.5
1961	13.4	5.8	0.	2453.1
1962	13.6	0.2	0.	2398.7
1963	13.6	0.4	0.	2399.8
1964	13.6	0.6	0.	2402.7
1965	13.6	0.8	0.	2405.6
1966	13.6	1.	0.	2408.4
1967	13.6	1.2	0.	2410.8
1968	13.6	1.4	0.	2412.9
1969	13.6	1.6	0.	2414.7
1970	13.6	1.8	0.	2416.1
1971	13.6	2.	0.	2417.2
1972	13.6	2.2	0.	2418.
1973	13.6	2.4	0.	2418.6
1974	13.6	2.6	0.	2419.
1975	13.6	2.8	0.	2419.2
1976	13.6	3.	0.	2419.2
1977	13.6	3.2	0.	2419.2
1978	13.6	3.4	0.	2419.
1979	13.6	3.6	0.	2418.6
1980	13.6	3.8	0.	2418.
1981	13.6	4.	0.	2417.2
1982	13.6	4.2	0.	2416.1
1983	13.6	4.4	0.	2414.7
1984	13.6	4.6	0.	2412.9
1985	13.6	4.8	0.	2410.8
1986	13.6	5.	0.	2408.4
1987	13.6	5.2	0.	2405.6
1988	13.6	5.4	0.	2402.7
1989	13.6	5.6	0.	2399.8
1990	13.6	5.8	0.	2398.7
1991	13.8	0.2	0.	2344.
1992	13.8	0.4	0.	2346.
1993	13.8	0.6	0.	2349.7
1994	13.8	0.8	0.	2353.4
1995	13.8	1.	0.	2356.9
1996	13.8	1.2	0.	2360.
1997	13.8	1.4	0.	2362.8
1998	13.8	1.6	0.	2365.
1999	13.8	1.8	0.	2366.9
2000	13.8	2.	0.	2368.3
2001	13.8	2.2	0.	2369.4
2002	13.8	2.4	0.	2370.1
2003	13.8	2.6	0.	2370.6
2004	13.8	2.8	0.	2370.9
2005	13.8	3.	0.	2371.
2006	13.8	3.2	0.	2370.9
2007	13.8	3.4	0.	2370.6
2008	13.8	3.6	0.	2370.1
2009	13.8	3.8	0.	2369.4
2010	13.8	4.	0.	2368.3
2011	13.8	4.2	0.	2366.9
2012	13.8	4.4	0.	2365.
2013	13.8	4.6	0.	2362.8
2014	13.8	4.8	0.	2360.
2015	13.8	5.	0.	2356.9
2016	13.8	5.2	0.	2353.4
2017	13.8	5.4	0.	2349.7
2018	13.8	5.6	0.	2346.
2019	13.8	5.8	0.	2344.
2020	14.	0.2	0.	2288.7
2021	14.	0.4	0.	2291.8
2022	14.	0.6	0.	2296.5
2023	14.	0.8	0.	2301.2
2024	14.	1.	0.	2305.6
2025	14.	1.2	0.	2309.5
2026	14.	1.4	0.	2313.
2027	14.	1.6	0.	2315.9
2028	14.	1.8	0.	2318.2
2029	14.	2.	0.	2320.1
2030	14.	2.2	0.	2321.5
2031	14.	2.4	0.	2322.5
2032	14.	2.6	0.	2323.1
2033	14.	2.8	0.	2323.5
2034	14.	3.	0.	2323.6
2035	14.	3.2	0.	2323.5
2036	14.	3.4	0.	2323.1
2037	14.	3.6	0.	2322.5
2038	14.	3.8	0.	2321.5
2039	14.	4.	0.	2320.1
2040	14.	4.2	0.	2318.2
2041	14.	4.4	0.	2315.9
2042	14.	4.6	0.	2313.
2043	14.	4.8	0.	2309.5
2044	14.	5.	0.	2305.6
2045	14.	5.2	0.	2301.2
2046	14.	5.4	0.	2296.5
2047	14.	5.6	0.	2291.8
2048	14.	5.8	0.	2288.7
2049	14.2	0.2	0.	2232.8
2050	14.2	0.4	0.	2237.1
2051	14.2	0.6	0.	2243.
2052	14.2	0.8	0.	2248.8
2053	14.2	1.	0.	2254.3
2054	14.2	1.2	0.	2259.2
2055	14.2	1.4	0.	2263.6
2056	14.2	1.6	0.	2267.2
2057	14.2	1.8	0.	2270.3
2058	14.2	2.	0.	2272.6
2059	14.2	2.2	0.	2274.4
2060	14.2	2.4	0.	2275.7
2061	14.2	2.6	0.	2276.6
2062	14.2	2.8	0.	2277.1
2063	14.2	3.	0.	2277.2
2064	14.2	3.2	0.	2277.1
2065	14.2	3.4	0.	2276.6
2066	14.2	3.6	0.	2275.7
2067	14.2	3.8	0.	2274.4
2068	14.2	4.	0.	2272.6
2069	14.2	4.2	0.	2270.3
2070	14.2	4.4	0.	2267.2
2071	14.2	4.6	0.	2263.6
2072	14.2	4.8	0.	2259.2
2073	14.2	5.	0.	2254.3
2074	14.2	5.2	0.	2248.8
2075	14.2	5.4	0.	2243.
2076	14.2	5.6	0.	2237.1
2077	14.2	5.8	0.	2232.8
2078	14.4	0.2	0.	2176.
2079	14.4	0.4	0.	2181.7
2080	14.4	0.6	0.	2189.
2081	14.4	0.8	0.	2196.2
2082	14.4	1.	0.	2203.
2083	14.4	1.2	0.	2209.2
2084	14.4	1.4	0.	2214.6
2085	14.4	1.6	0.	2219.3
2086	14.4	1.8	0.	2223.1
2087	14.4	2.	0.	2226.1
2088	14.4	2.2	0.	2228.5
2089	14.4	2.4	0.	2230.1
2090	14.4	2.6	0.	2231.3
2091	14.4	2.8	0.	2231.9
2092	14.4	3.	0.	2232.1
2093	14.4	3.2	0.	2231.9
2094	14.4	3.4	0.	2231.3
2095	14.4	3.6	0.	2230.1
2096	14.4	3.8	0.	2228.5
2097	14.4	4.	0.	2226.1
2098	14.4	4.2	0.	2223.1
2099	14.4	4.4	0.	2219.3
2100	14.4	4.6	0.	2214.6
2101	14.4	4.8	0.	2209.2
2102	14.4	5.	0.	2203.
2103	14.4	5.2	0.	2196.2
2104	14.4	5.4	0.	2189.
2105	14.4	5.6	0.	2181.7
2106	14.4	5.8	0.	2176.
2107	14.6	0.2	0.	2117.9
2108	14.6	0.4	0.	2125.4
2109	14.6	0.6	0.	2134.3
2110	14.6	0.8	0.	2143.2
2111	14.6	1.	0.	2151.6
2112	14.6	1.2	0.	2159.3
2113	14.6	1.4	0.	2166.1
2114	14.6	1.6	0.	2172.
2115	14.6	1.8	0.	2176.8
2116	14.6	2.	0.	2180.8
2117	14.6	2.2	0.	2183.8
2118	14.6	2.4	0.	2186.
2119	14.6	2.6	0.	2187.5
2120	14.6	2.8	0.	2188.3
2121	14.6	3.	0.	2188.6
2122	14.6	3.2	0.	2188.3
2123	14.6	3.4	0.	2187.5
2124	14.6	3.6	0.	2186.
2125	14.6	3.8	0.	2183.8
2126	14.6	4.	0.	2180.8
2127	14.6	4.2	0.	2176.8
2128	14.6	4.4	0.	2172.
2129	14.6	4.6	0.	2166.1
2130	14.6	4.8	0.	2159.3
2131	14.6	5.	0.	2151.6
2132	14.6	5.2	0.	2143.2
2133	14.6	5.4	0.	2134.3
2134	14.6	5.6	0.	2125.4
2135	14.6	5.8	0.	2117.9
2136	14.8	0.2	0.	2058.1
2137	14.8	0.4	0.	2067.6
2138	14.8	0.6	0.	2078.6
2139	14.8	0.8	0.	2089.5
2140	14.8	1.	0.	2099.9
2141	14.8	1.2	0.	2109.5
2142	14.8	1.4	0.	2118.1
2143	14.8	1.6	0.	2125.5
2144	14.8	1.8	0.	2131.7
2145	14.8	2.	0.	2136.8
2146	14.8	2.2	0.	2140.7
2147	14.8	2.4	0.	2143.6
2148	14.8	2.6	0.	2145.6
2149	14.8	2.8	0.	2146.7
2150	14.8	3.	0.	2147.1
2151	14.8	3.2	0.	2146.7
2152	14.8	3.4	0.	2145.6
2153	14.8	3.6	0.	2143.6
2154	14.8	3.8	0.	2140.7
2155	14.8	4.	0.	2136.8
2156	14.8	4.2	0.	2131.7
2157	14.8	4.4	0.	2125.5
2158	14.8	4.6	0.	2118.1
2159	14.8	4.8	0.	2109.5
2160	14.8	5.	0.	2099.9
2161	14.8	5.2	0.	2089.5
2162	14.8	5.4	0.	2078.6
2163	14.8	5.6	0.	2067.6
2164	14.8	5.8	0.	2058.1
2165	15.	0.2	0.	1996.2
2166	15.	0.4	0.	2008.1
2167	15.	0.6	0.	2021.6
2168	15.	0.8	0.	2034.9
2169	15.	1.	0.	2047.8
2170	15.	1.2	0.	2059.7
2171	15.	1.4	0.	2070.5
2172	15.	1.6	0.	2080.
2173	15.	1.8	0.	2088.
2174	15.	2.	0.	2094.5
2175	15.	2.2	0.	2099.7
2176	15.	2.4	0.	2103.5
2177	15.	2.6	0.	2106.1
2178	15.	2.8	0.	2107.7
2179	15.	3.	0.	2108.2
2180	15.	3.2	0.	2107.7
2181	15.	3.4	0.	2106.1
2182	15.	3.6	0.	2103.5
2183	15.	3.8	0.	2099.7
2184	15.	4.	0.	2094.5
2185	15.	4.2	0.	2088.
2186	15.	4.4	0.	2080.
2187	15.	4.6	0.	2070.5
2188	15.	4.8	0.	2059.7
2189	15.	5.	0.	2047.8
2190	15.	5.2	0.	2034.9
2191	15.	5.4	0.	2021.6
2192	15.	5.6	0.	2008.1
2193	15.	5.8	0.	1996.2
2194	15.2	0.2	0.	1931.4
2195	15.2	0.4	0.	1946.3
2196	15.2	0.6	0.	1962.6
2197	15.2	0.8	0.	1979.
2198	15.2	1.	0.	1994.9
2199	15.2	1.2	0.	2009.9
2200	15.2	1.4	0.	2023.5
2201	15.2	1.6	0.	2035.6
2202	15.2	1.8	0.	2045.9
2203	15.2	2.	0.	2054.4
2204	15.2	2.2	0.	2061.2
2205	15.2	2.4	0.	2066.2
2206	15.2	2.6	0.	2069.8
2207	15.2	2.8	0.	2071.8
2208	15.2	3.	0.	2072.5
2209	15.2	3.2	0.	2071.8
2210	15.2	3.4	0.	2069.8
2211	15.2	3.6	0.	2066.2
2212	15.2	3.8	0.	2061.2
2213	15.2	4.	0.	2054.4
2214	15.2	4.2	0.	2045.9
2215	15.2	4.4	0.	2035.6
2216	15.2	4.6	0.	2023.5
2217	15.2	4.8	0.	2009.9
2218	15.2	5.	0.	1994.9
2219	15.2	5.2	0.	1979.
2220	15.2	5.4	0.	1962.6
2221	15.2	5.6	0.	1946.3
2222	15.2	5.8	0.	1931.4
2223	15.4	0.2	0.	1863.1
2224	15.4	0.4	0.	1881.3
2225	15.4	0.6	0.	1901.1
2226	15.4	0.8	0.	1921.2
2227	15.4	1.	0.	1941.
2228	15.4	1.2	0.	1959.7
2229	15.4	1.4	0.	1977.1
2230	15.4	1.6	0.	1992.5
2231	15.4	1.8	0.	2005.9
2232	15.4	2.	0.	2017.
2233	15.4	2.2	0.	2025.9
2234	15.4	2.4	0.	2032.6
2235	15.4	2.6	0.	2037.4
2236	15.4	2.8	0.	2040.1
2237	15.4	3.	0.	2041.1
2238	15.4	3.2	0.	2040.1
2239	15.4	3.4	0.	2037.4
2240	15.4	3.6	0.	2032.6
2241	15.4	3.8	0.	2025.9
2242	15.4	4.	0.	2017.
2243	15.4	4.2	0.	2005.9
2244	15.4	4.4	0.	1992.5
2245	15.4	4.6	0.	1977.1
2246	15.4	4.8	0.	1959.7
2247	15.4	5.	0.	1941.
2248	15.4	5.2	0.	1921.2
2249	15.4	5.4	0.	1901.1
2250	15.4	5.6	0.	1881.3
2251	15.4	5.8	0.	1863.1
2252	15.6	0.2	0.	1790.1
2253	15.6	0.4	0.	1812.3
2254	15.6	0.6	0.	1836.3
2255	15.6	0.8	0.	1860.9
2256	15.6	1.	0.	1885.5
2257	15.6	1.2	0.	1909.1
2258	15.6	1.4	0.	1931.2
2259	15.6	1.6	0.	1951.1
2260	15.6	1.8	0.	1968.5
2261	15.6	2.	0.	1983.
2262	15.6	2.2	0.	1994.8
2263	15.6	2.4	0.	2003.8
2264	15.6	2.6	0.	2010.1
2265	15.6	2.8	0.	2013.9
2266	15.6	3.	0.	2015.2
2267	15.6	3.2	0.	2013.9
2268	15.6	3.4	0.	2010.1
2269	15.6	3.6	0.	2003.8
2270	15.6	3.8	0.	1994.8
2271	15.6	4.	0.	1983.
2272	15.6	4.2	0.	1968.5
2273	15.6	4.4	0.	1951.1
2274	15.6	4.6	0.	1931.2
2275	15.6	4.8	0.	1909.1
2276	15.6	5.	0.	1885.5
2277	15.6	5.2	0.	1860.9
2278	15.6	5.4	0.	1836.3
2279	15.6	5.6	0.	1812.3
2280	15.6	5.8	0.	1790.1
2281	15.8	0.2	0.	1711.4
2282	15.8	0.4	0.	1738.1
2283	15.8	0.6	0.	1767.1
2284	15.8	0.8	0.	1797.3
2285	15.8	1.	0.	1827.9
2286	15.8	1.2	0.	1857.8
2287	15.8	1.4	0.	1886.1
2288	15.8	1.6	0.	1911.8
2289	15.8	1.8	0.	1934.4
2290	15.8	2.	0.	1953.5
2291	15.8	2.2	0.	1969.
2292	15.8	2.4	0.	1981.
2293	15.8	2.6	0.	1989.6
2294	15.8	2.8	0.	1994.7
2295	15.8	3.	0.	1996.5
2296	15.8	3.2	0.	1994.7
2297	15.8	3.4	0.	1989.6
2298	15.8	3.6	0.	1981.
2299	15.8	3.8	0.	1969.
2300	15.8	4.	0.	1953.5
2301	15.8	4.2	0.	1934.4
2302	15.8	4.4	0.	1911.8
2303	15.8	4.6	0.	1886.1
2304	15.8	4.8	0.	1857.8
2305	15.8	5.	0.	1827.9
2306	15.8	5.2	0.	1797.3
2307	15.8	5.4	0.	1767.1
2308	15.8	5.6	0.	1738.1
2309	15.8	5.8	0.	1711.4
2310	16.	0.2	0.	1625.6
2311	16.	0.4	0.	1657.4
2312	16.	0.6	0.	1692.2
2313	16.	0.8	0.	1729.3
2314	16.	1.	0.	1767.5
2315	16.	1.2	0.	1805.4
2316	16.	1.4	0.	1841.7
2317	16.	1.6	0.	1875.1
2318	16.	1.8	0.	1904.6
2319	16.	2.	0.	1929.7
2320	16.	2.2	0.	1950.3
2321	16.	2.4	0.	1966.3
2322	16.	2.6	0.	1977.9
2323	16.	2.8	0.	1984.9
2324	16.	3.	0.	1987.2
2325	16.	3.2	0.	1984.9
2326	16.	3.4	0.	1977.9
2327	16.	3.6	0.	1966.3
2328	16.	3.8	0.	1950.3
2329	16.	4.	0.	1929.7
2330	16.	4.2	0.	1904.6
2331	16.	4.4	0.	1875.1
2332	16.	4.6	0.	1841.7
2333	16.	4.8	0.	1805.4
2334	16.	5.	0.	1767.5
2335	16.	5.2	0.	1729.3
2336	16.	5.4	0.	1692.2
2337	16.	5.6	0.	1657.4
2338	16.	5.8	0.	1625.6
2339	16.2	0.2	0.	1530.9
2340	16.2	0.4	0.	1568.3
2341	16.2	0.6	0.	1610.1
2342	16.2	0.8	0.	1655.5
2343	16.2	1.	0.	1703.4
2344	16.2	1.2	0.	1751.7
2345	16.2	1.4	0.	1798.6
2346	16.2	1.6	0.	1842.
2347	16.2	1.8	0.	1880.6
2348	16.2	2.	0.	1913.5
2349	16.2	2.2	0.	1940.7
2350	16.2	2.4	0.	1962.1
2351	16.2	2.6	0.	1977.8
2352	16.2	2.8	0.	1987.3
2353	16.2	3.	0.	1990.5
2354	16.2	3.2	0.	1987.3
2355	16.2	3.4	0.	1977.8
2356	16.2	3.6	0.	1962.1
2357	16.2	3.8	0.	1940.7
2358	16.2	4.	0.	1913.5
2359	16.2	4.2	0.	1880.6
2360	16.2	4.4	0.	1842.
2361	16.2	4.6	0.	1798.6
2362	16.2	4.8	0.	1751.7
2363	16.2	5.	0.	1703.4
2364	16.2	5.2	0.	1655.5
2365	16.2	5.4	0.	1610.1
2366	16.2	5.6	0.	1568.3
2367	16.2	5.8	0.	1530.9
2368	16.4	0.2	0.	1425.6
2369	16.4	0.4	0.	1469.
2370	16.4	0.6	0.	1518.8
2371	16.4	0.8	0.	1574.4
2372	16.4	1.	0.	1634.5
2373	16.4	1.2	0.	1696.5
2374	16.4	1.4	0.	1757.3
2375	16.4	1.6	0.	1814.
2376	16.4	1.8	0.	1864.5
2377	16.4	2.	0.	1907.7
2378	16.4	2.2	0.	1943.5
2379	16.4	2.4	0.	1972.
2380	16.4	2.6	0.	1993.
2381	16.4	2.8	0.	2006.
2382	16.4	3.	0.	2010.4
2383	16.4	3.2	0.	2006.
2384	16.4	3.4	0.	1993.
2385	16.4	3.6	0.	1972.
2386	16.4	3.8	0.	1943.5
2387	16.4	4.	0.	1907.7
2388	16.4	4.2	0.	1864.5
2389	16.4	4.4	0.	1814.
2390	16.4	4.6	0.	1757.3
2391	16.4	4.8	0.	1696.5
2392	16.4	5.	0.	1634.5
2393	16.4	5.2	0.	1574.4
2394	16.4	5.4	0.	1518.8
2395	16.4	5.6	0.	1469.
2396	16.4	5.8	0.	1425.6
2397	16.6	0.2	0.	1307.6
2398	16.6	0.4	0.	1357.2
2399	16.6	0.6	0.	1416.1
2400	16.6	0.8	0.	1484.2
2401	16.6	1.	0.	1559.9
2402	16.6	1.2	0.	1639.6
2403	16.6	1.4	0.	1719.
2404	16.6	1.6	0.	1793.4
2405	16.6	1.8	0.	1859.7
2406	16.6	2.	0.	1916.2
2407	16.6	2.2	0.	1963.
2408	16.6	2.4	0.	2000.6
2409	16.6	2.6	0.	2028.7
2410	16.6	2.8	0.	2046.3
2411	16.6	3.	0.	2052.3
2412	16.6	3.2	0.	2046.3
2413	16.6	3.4	0.	2028.7
2414	16.6	3.6	0.	2000.6
2415	16.6	3.8	0.	1963.
2416	16.6	4.	0.	1916.2
2417	16.6	4.2	0.	1859.7
2418	16.6	4.4	0.	1793.4
2419	16.6	4.6	0.	1719.
2420	16.6	4.8	0.	1639.6
2421	16.6	5.	0.	1559.9
2422	16.6	5.2	0.	1484.2
2423	16.6	5.4	0.	1416.1
2424	16.6	5.6	0.	1357.2
2425	16.6	5.8	0.	1307.6
2426	16.8	0.2	0.	1175.2
2427	16.8	0.4	0.	1230.7
2428	16.8	0.6	0.	1299.9
2429	16.8	0.8	0.	1383.2
2430	16.8	1.	0.	1478.6
2431	16.8	1.2	0.	1581.6
2432	16.8	1.4	0.	1685.9
2433	16.8	1.6	0.	1784.4
2434	16.8	1.8	0.	1871.6
2435	16.8	2.	0.	1945.2
2436	16.8	2.2	0.	2005.9
2437	16.8	2.4	0.	2054.9
2438	16.8	2.6	0.	2091.8
2439	16.8	2.8	0.	2115.1
2440	16.8	3.	0.	2123.
2441	16.8	3.2	0.	2115.1
2442	16.8	3.4	0.	2091.8
2443	16.8	3.6	0.	2054.9
2444	16.8	3.8	0.	2005.9
2445	16.8	4.	0.	1945.2
2446	16.8	4.2	0.	1871.6
2447	16.8	4.4	0.	1784.4
2448	16.8	4.6	0.	1685.9
2449	16.8	4.8	0.	1581.6
2450	16.8	5.	0.	1478.6
2451	16.8	5.2	0.	1383.2
2452	16.8	5.4	0.	1299.9
2453	16.8	5.6	0.	1230.7
2454	16.8	5.8	0.	1175.2
2455	17.	0.2	0.	1026.9
2456	17.	0.4	0.	1087.7
2457	17.	0.6	0.	1168.7
2458	17.	0.8	0.	1270.4
2459	17.	1.	0.	1390.7
2460	17.	1.2	0.	1524.
2461	17.	1.4	0.	1662.1
2462	17.	1.6	0.	1793.6
2463	17.	1.8	0.	1909.3
2464	17.	2.	0.	2004.9
2465	17.	2.2	0.	2082.5
2466	17.	2.4	0.	2145.
2467	17.	2.6	0.	2191.9
2468	17.	2.8	0.	2221.
2469	17.	3.	0.	2230.8
2470	17.	3.2	0.	2221.
2471	17.	3.4	0.	2191.9
2472	17.	3.6	0.	2145.
2473	17.	3.8	0.	2082.5
2474	17.	4.	0.	2004.9
2475	17.	4.2	0.	1909.3
2476	17.	4.4	0.	1793.6
2477	17.	4.6	0.	1662.1
2478	17.	4.8	0.	1524.
2479	17.	5.	0.	1390.7
2480	17.	5.2	0.	1270.4
2481	17.	5.4	0.	1168.7
2482	17.	5.6	0.	1087.7
2483	17.	5.8	0.	1026.9
2484	17.2	0.2	0.	862.02
2485	17.2	0.4	0.	927.9
2486	17.2	0.6	0.	1023.
2487	17.2	0.8	0.	1147.2
2488	17.2	1.	0.	1298.
2489	17.2	1.2	0.	1470.1
2490	17.2	1.4	0.	1654.
2491	17.2	1.6	0.	1834.3
2492	17.2	1.8	0.	1990.
2493	17.2	2.	0.	2114.8
2494	17.2	2.2	0.	2211.9
2495	17.2	2.4	0.	2287.3
2496	17.2	2.6	0.	2341.7
2497	17.2	2.8	0.	2373.1
2498	17.2	3.	0.	2383.1
2499	17.2	3.2	0.	2373.1
2500	17.2	3.4	0.	2341.7
2501	17.2	3.6	0.	2287.3
2502	17.2	3.8	0.	2211.9
2503	17.2	4.	0.	2114.8
2504	17.2	4.2	0.	1990.
2505	17.2	4.4	0.	1834.3
2506	17.2	4.6	0.	1654.
2507	17.2	4.8	0.	1470.1
2508	17.2	5.	0.	1298.
2509	17.2	5.2	0.	1147.2
2510	17.2	5.4	0.	1023.
2511	17.2	5.6	0.	927.9
2512	17.2	5.8	0.	862.02
2513	17.4	0.2	0.	681.53
2514	17.4	0.4	0.	754.43
2515	17.4	0.6	0.	868.71
2516	17.4	0.8	0.	1020.7
2517	17.4	1.	0.	1207.2
2518	17.4	1.2	0.	1425.8
2519	17.4	1.4	0.	1672.2
2520	17.4	1.6	0.	1923.5
2521	17.4	1.8	0.	2146.9
2522	17.4	2.	0.	2311.5
2523	17.4	2.2	0.	2425.6
2524	17.4	2.4	0.	2510.1
2525	17.4	2.6	0.	2556.7
2526	17.4	2.8	0.	2576.1
2527	17.4	3.	0.	2581.1
2528	17.4	3.2	0.	2576.1
2529	17.4	3.4	0.	2556.7
2530	17.4	3.6	0.	2510.1
2531	17.4	3.8	0.	2425.6
2532	17.4	4.	0.	2311.5
2533	17.4	4.2	0.	2146.9
2534	17.4	4.4	0.	1923.5
2535	17.4	4.6	0.	1672.2
2536	17.4	4.8	0.	1425.8
2537	17.4	5.	0.	1207.2
2538	17.4	5.2	0.	1020.7
2539	17.4	5.4	0.	868.71
2540	17.4	5.6	0.	754.43
2541	17.4	5.8	0.	681.53
2542	17.6	0.2	0.	490.16
2543	17.6	0.4	0.	580.91
2544	17.6	0.6	0.	725.88
2545	17.6	0.8	0.	911.52
2546	17.6	1.	0.	1135.6
2547	17.6	1.2	0.	1404.7
2548	17.6	1.4	0.	1723.8
2549	17.6	1.6	0.	2107.
2550	17.6	1.8	0.	2478.4
2551	17.6	2.	0.	2696.7
2552	17.6	2.2	0.	2824.4
2553	17.6	2.4	0.	2860.4
2554	17.6	2.6	0.	2844.6
2555	17.6	2.8	0.	2817.3
2556	17.6	3.	0.	2806.2
2557	17.6	3.2	0.	2817.3
2558	17.6	3.4	0.	2844.6
2559	17.6	3.6	0.	2860.4
2560	17.6	3.8	0.	2824.4
2561	17.6	4.	0.	2696.7
2562	17.6	4.2	0.	2478.4
2563	17.6	4.4	0.	2107.
2564	17.6	4.6	0.	1723.8
2565	17.6	4.8	0.	1404.7
2566	17.6	5.	0.	1135.6
2567	17.6	5.2	0.	911.52
2568	17.6	5.4	0.	725.88
2569	17.6	5.6	0.	580.91
2570	17.6	5.8	0.	490.16
2571	17.8	0.2	0.	312.62
2572	17.8	0.4	0.	465.91
2573	17.8	0.6	0.	663.23
2574	17.8	0.8	0.	891.22
2575	17.8	1.	0.	1157.2
2576	17.8	1.2	0.	1478.7
2577	17.8	1.4	0.	1890.3
2578	17.8	1.6	0.	2467.1
2579	17.8	1.8	0.	3313.3
2580	17.8	2.	0.	3855.5
2581	17.8	2.2	0.	3620.
2582	17.8	2.4	0.	3383.
2583	17.8	2.6	0.	3159.7
2584	17.8	2.8	0.	3042.9
2585	17.8	3.	0.	3005.2
2586	17.8	3.2	0.	3042.9
2587	17.8	3.4	0.	3159.7
2588	17.8	3.6	0.	3383.
2589	17.8	3.8	0.	3620.
2590	17.8	4.	0.	3855.5
2591	17.8	4.2	0.	3313.3
2592	17.8	4.4	0.	2467.1
2593	17.8	4.6	0.	1890.3
2594	17.8	4.8	0.	1478.7
2595	17.8	5.	0.	1157.2
2596	17.8	5.2	0.	891.22
2597	17.8	5.4	0.	663.23
2598	17.8	5.6	0.	465.91
2599	17.8	5.8	0.	312.62
2600	18.361	0.2	0.	229.9
2601	18.361	0.4	0.	341.27
2602	18.361	0.6	0.	482.26
2603	18.361	0.8	0.	645.44
2604	18.361	1.	0.	839.47
2605	18.361	1.2	0.	1081.8
2606	18.361	1.4	0.	1401.5
2607	18.361	1.6	0.	1877.2
2608	18.361	1.8	0.	2592.1
2609	18.361	2.	0.	3310.
2610	18.361	2.2	0.	3411.3
2611	18.361	2.4	0.	3234.2
2612	18.361	2.6	0.	2997.2
2613	18.361	2.8	0.	2874.7
2614	18.361	3.	0.	2835.3
2615	18.361	3.2	0.	2874.7
2616	18.361	3.4	0.	2997.2
2617	18.361	3.6	0.	3234.2
2618	18.361	3.8	0.	3411.3
2619	18.361	4.	0.	3310.
2620	18.361	4.2	0.	2592.1
2621	18.361	4.4	0.	1877.2
2622	18.361	4.6	0.	1401.5
2623	18.361	4.8	0.	1081.8
2624	18.361	5.	0.	839.47
2625	18.361	5.2	0.	645.44
2626	18.361	5.4	0.	482.26
2627	18.361	5.6	0.	341.27
2628	18.361	5.8	0.	229.9
2629	18.556	0.2	0.	334.1
2630	18.556	0.4	0.	391.56
2631	18.556	0.6	0.	491.77
2632	18.556	0.8	0.	621.
2633	18.556	1.	0.	778.84
2634	18.556	1.2	0.	972.44
2635	18.556	1.4	0.	1210.1
2636	18.556	1.6	0.	1504.3
2637	18.556	1.8	0.	1857.7
2638	18.556	2.	0.	2177.
2639	18.556	2.2	0.	2464.2
2640	18.556	2.4	0.	2564.4
2641	18.556	2.6	0.	2563.2
2642	18.556	2.8	0.	2534.
2643	18.556	3.	0.	2521.9
2644	18.556	3.2	0.	2534.
2645	18.556	3.4	0.	2563.2
2646	18.556	3.6	0.	2564.4
2647	18.556	3.8	0.	2464.2
2648	18.556	4.	0.	2177.
2649	18.556	4.2	0.	1857.7
2650	18.556	4.4	0.	1504.3
2651	18.556	4.6	0.	1210.1
2652	18.556	4.8	0.	972.44
2653	18.556	5.	0.	778.84
2654	18.556	5.2	0.	621.
2655	18.556	5.4	0.	491.77
2656	18.556	5.6	0.	391.56
2657	18.556	5.8	0.	334.1
2658	18.75	0.2	0.	440.29
2659	18.75	0.4	0.	477.72
2660	18.75	0.6	0.	550.44
2661	18.75	0.8	0.	651.25
2662	18.75	1.	0.	777.81
2663	18.75	1.2	0.	930.1
2664	18.75	1.4	0.	1109.1
2665	18.75	1.6	0.	1307.6
2666	18.75	1.8	0.	1521.9
2667	18.75	2.	0.	1740.4
2668	18.75	2.2	0.	1938.7
2669	18.75	2.4	0.	2081.9
2670	18.75	2.6	0.	2151.4
2671	18.75	2.8	0.	2177.8
2672	18.75	3.	0.	2183.9
2673	18.75	3.2	0.	2177.8
2674	18.75	3.4	0.	2151.4
2675	18.75	3.6	0.	2081.9
2676	18.75	3.8	0.	1938.7
2677	18.75	4.	0.	1740.4
2678	18.75	4.2	0.	1521.9
2679	18.75	4.4	0.	1307.6
2680	18.75	4.6	0.	1109.1
2681	18.75	4.8	0.	930.1
2682	18.75	5.	0.	777.81
2683	18.75	5.2	0.	651.25
2684	18.75	5.4	0.	550.44
2685	18.75	5.6	0.	477.72
2686	18.75	5.8	0.	440.29
2687	18.944	0.2	0.	529.05
2688	18.944	0.4	0.	557.63
2689	18.944	0.6	0.	612.4
2690	18.944	0.8	0.	689.6
2691	18.944	1.	0.	787.39
2692	18.944	1.2	0.	903.58
2693	18.944	1.4	0.	1035.3
2694	18.944	1.6	0.	1178.6
2695	18.944	1.8	0.	1327.8
2696	18.944	2.	0.	1480.8
2697	18.944	2.2	0.	1624.6
2698	18.944	2.4	0.	1741.6
2699	18.944	2.6	0.	1820.8
2700	18.944	2.8	0.	1863.
2701	18.944	3.	0.	1875.9
2702	18.944	3.2	0.	1863.
2703	18.944	3.4	0.	1820.8
2704	18.944	3.6	0.	1741.6
2705	18.944	3.8	0.	1624.6
2706	18.944	4.	0.	1480.8
2707	18.944	4.2	0.	1327.8
2708	18.944	4.4	0.	1178.6
2709	18.944	4.6	0.	1035.3
2710	18.944	4.8	0.	903.58
2711	18.944	5.	0.	787.39
2712	18.944	5.2	0.	689.6
2713	18.944	5.4	0.	612.4
2714	18.944	5.6	0.	557.63
2715	18.944	5.8	0.	529.05
2716	19.139	0.2	0.	598.1
2717	19.139	0.4	0.	621.33
2718	19.139	0.6	0.	663.54
2719	19.139	0.8	0.	722.23
2720	19.139	1.	0.	796.1
2721	19.139	1.2	0.	883.01
2722	19.139	1.4	0.	980.
2723	19.139	1.6	0.	1083.8
2724	19.139	1.8	0.	1192.1
2725	19.139	2.	0.	1301.7
2726	19.139	2.2	0.	1406.8
2727	19.139	2.4	0.	1497.6
2728	19.139	2.6	0.	1565.
2729	19.139	2.8	0.	1605.3
2730	19.139	3.	0.	1618.5
2731	19.139	3.2	0.	1605.3
2732	19.139	3.4	0.	1565.
2733	19.139	3.6	0.	1497.6
2734	19.139	3.8	0.	1406.8
2735	19.139	4.	0.	1301.7
2736	19.139	4.2	0.	1192.1
2737	19.139	4.4	0.	1083.8
2738	19.139	4.6	0.	980.
2739	19.139	4.8	0.	883.01
2740	19.139	5.	0.	796.1
2741	19.139	5.2	0.	722.23
2742	19.139	5.4	0.	663.54
2743	19.139	5.6	0.	621.33
2744	19.139	5.8	0.	598.1
2745	19.333	0.2	0.	648.29
2746	19.333	0.4	0.	667.28
2747	19.333	0.6	0.	699.97
2748	19.333	0.8	0.	744.29
2749	19.333	1.	0.	799.39
2750	19.333	1.2	0.	863.63
2751	19.333	1.4	0.	934.87
2752	19.333	1.6	0.	1011.
2753	19.333	1.8	0.	1090.1
2754	19.333	2.	0.	1170.1
2755	19.333	2.2	0.	1246.9
2756	19.333	2.4	0.	1314.6
2757	19.333	2.6	0.	1367.2
2758	19.333	2.8	0.	1400.
2759	19.333	3.	0.	1411.1
2760	19.333	3.2	0.	1400.
2761	19.333	3.4	0.	1367.2
2762	19.333	3.6	0.	1314.6
2763	19.333	3.8	0.	1246.9
2764	19.333	4.	0.	1170.1
2765	19.333	4.2	0.	1090.1
2766	19.333	4.4	0.	1011.
2767	19.333	4.6	0.	934.87
2768	19.333	4.8	0.	863.63
2769	19.333	5.	0.	799.39
2770	19.333	5.2	0.	744.29
2771	19.333	5.4	0.	699.97
2772	19.333	5.6	0.	667.28
2773	19.333	5.8	0.	648.29
2774	19.528	0.2	0.	681.47
2775	19.528	0.4	0.	696.67
2776	19.528	0.6	0.	721.79
2777	19.528	0.8	0.	754.99
2778	19.528	1.	0.	795.69
2779	19.528	1.2	0.	842.81
2780	19.528	1.4	0.	894.93
2781	19.528	1.6	0.	950.62
2782	19.528	1.8	0.	1008.5
2783	19.528	2.	0.	1066.8
2784	19.528	2.2	0.	1122.9
2785	19.528	2.4	0.	1172.7
2786	19.528	2.6	0.	1211.9
2787	19.528	2.8	0.	1236.8
2788	19.528	3.	0.	1245.4
2789	19.528	3.2	0.	1236.8
2790	19.528	3.4	0.	1211.9
2791	19.528	3.6	0.	1172.7
2792	19.528	3.8	0.	1122.9
2793	19.528	4.	0.	1066.8
2794	19.528	4.2	0.	1008.5
2795	19.528	4.4	0.	950.62
2796	19.528	4.6	0.	894.93
2797	19.528	4.8	0.	842.81
2798	19.528	5.	0.	795.69
2799	19.528	5.2	0.	754.99
2800	19.528	5.4	0.	721.79
2801	19.528	5.6	0.	696.67
2802	19.528	5.8	0.	681.47
2803	19.722	0.2	0.	699.94
2804	19.722	0.4	0.	711.69
2805	19.722	0.6	0.	730.72
2806	19.722	0.8	0.	755.31
2807	19.722	1.	0.	785.09
2808	19.722	1.2	0.	819.37
2809	19.722	1.4	0.	857.26
2810	19.722	1.6	0.	897.78
2811	19.722	1.8	0.	939.91
2812	19.722	2.	0.	982.28
2813	19.722	2.2	0.	1022.9
2814	19.722	2.4	0.	1058.9
2815	19.722	2.6	0.	1087.5
2816	19.722	2.8	0.	1105.8
2817	19.722	3.	0.	1112.1
2818	19.722	3.2	0.	1105.8
2819	19.722	3.4	0.	1087.5
2820	19.722	3.6	0.	1058.9
2821	19.722	3.8	0.	1022.9
2822	19.722	4.	0.	982.28
2823	19.722	4.2	0.	939.91
2824	19.722	4.4	0.	897.78
2825	19.722	4.6	0.	857.26
2826	19.722	4.8	0.	819.37
2827	19.722	5.	0.	785.09
2828	19.722	5.2	0.	755.31
2829	19.722	5.4	0.	730.72
2830	19.722	5.6	0.	711.69
2831	19.722	5.8	0.	699.94
2832	19.917	0.2	0.	706.05
2833	19.917	0.4	0.	714.72
2834	19.917	0.6	0.	728.85
2835	19.917	0.8	0.	746.8
2836	19.917	1.	0.	768.33
2837	19.917	1.2	0.	793.02
2838	19.917	1.4	0.	820.31
2839	19.917	1.6	0.	849.52
2840	19.917	1.8	0.	879.88
2841	19.917	2.	0.	910.35
2842	19.917	2.2	0.	939.45
2843	19.917	2.4	0.	965.27
2844	19.917	2.6	0.	985.71
2845	19.917	2.8	0.	998.86
2846	19.917	3.	0.	1003.4
2847	19.917	3.2	0.	998.86
2848	19.917	3.4	0.	985.71
2849	19.917	3.6	0.	965.27
2850	19.917	3.8	0.	939.45
2851	19.917	4.	0.	910.35
2852	19.917	4.2	0.	879.88
2853	19.917	4.4	0.	849.52
2854	19.917	4.6	0.	820.31
2855	19.917	4.8	0.	793.02
2856	19.917	5.	0.	768.33
2857	19.917	5.2	0.	746.8
2858	19.917	5.4	0.	728.85
2859	19.917	5.6	0.	714.72
2860	19.917	5.8	0.	706.05
2861	20.111	0.2	0.	701.98
2862	20.111	0.4	0.	708.
2863	20.111	0.6	0.	718.21
2864	20.111	0.8	0.	731.08
2865	20.111	1.	0.	746.42
2866	20.111	1.2	0.	763.96
2867	20.111	1.4	0.	783.34
2868	20.111	1.6	0.	804.12
2869	20.111	1.8	0.	825.71
2870	20.111	2.	0.	847.33
2871	20.111	2.2	0.	867.92
2872	20.111	2.4	0.	886.14
2873	20.111	2.6	0.	900.54
2874	20.111	2.8	0.	909.8
2875	20.111	3.	0.	913.
2876	20.111	3.2	0.	909.8
2877	20.111	3.4	0.	900.54
2878	20.111	3.6	0.	886.14
2879	20.111	3.8	0.	867.92
2880	20.111	4.	0.	847.33
2881	20.111	4.2	0.	825.71
2882	20.111	4.4	0.	804.12
2883	20.111	4.6	0.	783.34
2884	20.111	4.8	0.	763.96
2885	20.111	5.	0.	746.42
2886	20.111	5.2	0.	731.08
2887	20.111	5.4	0.	718.21
2888	20.111	5.6	0.	708.
2889	20.111	5.8	0.	701.98
2890	20.306	0.2	0.	689.7
2891	20.306	0.4	0.	693.47
2892	20.306	0.6	0.	700.61
2893	20.306	0.8	0.	709.62
2894	20.306	1.	0.	720.32
2895	20.306	1.2	0.	732.55
2896	20.306	1.4	0.	746.08
2897	20.306	1.6	0.	760.59
2898	20.306	1.8	0.	775.68
2899	20.306	2.	0.	790.76
2900	20.306	2.2	0.	805.08
2901	20.306	2.4	0.	817.72
2902	20.306	2.6	0.	827.69
2903	20.306	2.8	0.	834.1
2904	20.306	3.	0.	836.31
2905	20.306	3.2	0.	834.1
2906	20.306	3.4	0.	827.69
2907	20.306	3.6	0.	817.72
2908	20.306	3.8	0.	805.08
2909	20.306	4.	0.	790.76
2910	20.306	4.2	0.	775.68
2911	20.306	4.4	0.	760.59
2912	20.306	4.6	0.	746.08
2913	20.306	4.8	0.	732.55
2914	20.306	5.	0.	720.32
2915	20.306	5.2	0.	709.62
2916	20.306	5.4	0.	700.61
2917	20.306	5.6	0.	693.47
2918	20.306	5.8	0.	689.7
2919	20.5	0.2	0.	670.85
2920	20.5	0.4	0.	672.8
2921	20.5	0.6	0.	677.56
2922	20.5	0.8	0.	683.65
2923	20.5	1.	0.	690.92
2924	20.5	1.2	0.	699.25
2925	20.5	1.4	0.	708.47
2926	20.5	1.6	0.	718.38
2927	20.5	1.8	0.	728.68
2928	20.5	2.	0.	738.97
2929	20.5	2.2	0.	748.72
2930	20.5	2.4	0.	757.31
2931	20.5	2.6	0.	764.07
2932	20.5	2.8	0.	768.4
2933	20.5	3.	0.	769.89
2934	20.5	3.2	0.	768.4
2935	20.5	3.4	0.	764.07
2936	20.5	3.6	0.	757.31
2937	20.5	3.8	0.	748.72
2938	20.5	4.	0.	738.97
2939	20.5	4.2	0.	728.68
2940	20.5	4.4	0.	718.38
2941	20.5	4.6	0.	708.48
2942	20.5	4.8	0.	699.25
2943	20.5	5.	0.	690.92
2944	20.5	5.2	0.	683.65
2945	20.5	5.4	0.	677.56
2946	20.5	5.6	0.	672.8
2947	20.5	5.8	0.	670.85
2948	20.694	0.2	0.	646.83
2949	20.694	0.4	0.	647.33
2950	20.694	0.6	0.	650.29
2951	20.694	0.8	0.	654.23
2952	20.694	1.	0.	659.
2953	20.694	1.2	0.	664.49
2954	20.694	1.4	0.	670.59
2955	20.694	1.6	0.	677.16
2956	20.694	1.8	0.	683.99
2957	20.694	2.	0.	690.8
2958	20.694	2.2	0.	697.25
2959	20.694	2.4	0.	702.93
2960	20.694	2.6	0.	707.38
2961	20.694	2.8	0.	710.24
2962	20.694	3.	0.	711.22
2963	20.694	3.2	0.	710.24
2964	20.694	3.4	0.	707.38
2965	20.694	3.6	0.	702.93
2966	20.694	3.8	0.	697.25
2967	20.694	4.	0.	690.8
2968	20.694	4.2	0.	683.99
2969	20.694	4.4	0.	677.16
2970	20.694	4.6	0.	670.59
2971	20.694	4.8	0.	664.49
2972	20.694	5.	0.	659.
2973	20.694	5.2	0.	654.24
2974	20.694	5.4	0.	650.29
2975	20.694	5.6	0.	647.33
2976	20.694	5.8	0.	646.83
2977	20.889	0.2	0.	618.76
2978	20.889	0.4	0.	618.15
2979	20.889	0.6	0.	619.8
2980	20.889	0.8	0.	622.2
2981	20.889	1.	0.	625.18
2982	20.889	1.2	0.	628.66
2983	20.889	1.4	0.	632.54
2984	20.889	1.6	0.	636.73
2985	20.889	1.8	0.	641.08
2986	20.889	2.	0.	645.43
2987	20.889	2.2	0.	649.53
2988	20.889	2.4	0.	653.14
2989	20.889	2.6	0.	655.97
2990	20.889	2.8	0.	657.78
2991	20.889	3.	0.	658.41
2992	20.889	3.2	0.	657.78
2993	20.889	3.4	0.	655.97
2994	20.889	3.6	0.	653.14
2995	20.889	3.8	0.	649.53
2996	20.889	4.	0.	645.43
2997	20.889	4.2	0.	641.08
2998	20.889	4.4	0.	636.73
2999	20.889	4.6	0.	632.54
3000	20.889	4.8	0.	628.66
3001	20.889	5.	0.	625.18
3002	20.889	5.2	0.	622.2
3003	20.889	5.4	0.	619.8
3004	20.889	5.6	0.	618.15
3005	20.889	5.8	0.	618.76
3006	21.083	0.2	0.	587.56
3007	21.083	0.4	0.	586.14
3008	21.083	0.6	0.	586.87
3009	21.083	0.8	0.	588.21
3010	21.083	1.	0.	589.98
3011	21.083	1.2	0.	592.08
3012	21.083	1.4	0.	594.43
3013	21.083	1.6	0.	596.97
3014	21.083	1.8	0.	599.61
3015	21.083	2.	0.	602.23
3016	21.083	2.2	0.	604.71
3017	21.083	2.4	0.	606.88
3018	21.083	2.6	0.	608.58
3019	21.083	2.8	0.	609.67
3020	21.083	3.	0.	610.04
3021	21.083	3.2	0.	609.67
3022	21.083	3.4	0.	608.58
3023	21.083	3.6	0.	606.88
3024	21.083	3.8	0.	604.71
3025	21.083	4.	0.	602.23
3026	21.083	4.2	0.	599.61
3027	21.083	4.4	0.	596.97
3028	21.083	4.6	0.	594.43
3029	21.083	4.8	0.	592.08
3030	21.083	5.	0.	589.98
3031	21.083	5.2	0.	588.21
3032	21.083	5.4	0.	586.87
3033	21.083	5.6	0.	586.14
3034	21.083	5.8	0.	587.56
3035	21.278	0.2	0.	553.96
3036	21.278	0.4	0.	551.99
3037	21.278	0.6	0.	552.14
3038	21.278	0.8	0.	552.81
3039	21.278	1.	0.	553.8
3040	21.278	1.2	0.	555.01
3041	21.278	1.4	0.	556.37
3042	21.278	1.6	0.	557.82
3043	21.278	1.8	0.	559.31
3044	21.278	2.	0.	560.77
3045	21.278	2.2	0.	562.15
3046	21.278	2.4	0.	563.35
3047	21.278	2.6	0.	564.29
3048	21.278	2.8	0.	564.89
3049	21.278	3.	0.	565.09
3050	21.278	3.2	0.	564.89
3051	21.278	3.4	0.	564.29
3052	21.278	3.6	0.	563.35
3053	21.278	3.8	0.	562.15
3054	21.278	4.	0.	560.77
3055	21.278	4.2	0.	559.31
3056	21.278	4.4	0.	557.82
3057	21.278	4.6	0.	556.37
3058	21.278	4.8	0.	555.01
3059	21.278	5.	0.	553.8
3060	21.278	5.2	0.	552.81
3061	21.278	5.4	0.	552.14
3062	21.278	5.6	0.	551.99
3063	21.278	5.8	0.	553.96
3064	21.472	0.2	0.	518.54
3065	21.472	0.4	0.	516.26
3066	21.472	0.6	0.	516.1
3067	21.472	0.8	0.	516.41
3068	21.472	1.	0.	516.98
3069	21.472	1.2	0.	517.68
3070	21.472	1.4	0.	518.45
3071	21.472	1.6	0.	519.23
3072	21.472	1.8	0.	520.
3073	21.472	2.	0.	520.72
3074	21.472	2.2	0.	521.39
3075	21.472	2.4	0.	521.96
3076	21.472	2.6	0.	522.4
3077	21.472	2.8	0.	522.68
3078	21.472	3.	0.	522.77
3079	21.472	3.2	0.	522.68
3080	21.472	3.4	0.	522.4
3081	21.472	3.6	0.	521.96
3082	21.472	3.8	0.	521.39
3083	21.472	4.	0.	520.72
3084	21.472	4.2	0.	520.
3085	21.472	4.4	0.	519.23
3086	21.472	4.6	0.	518.45
3087	21.472	4.8	0.	517.68
3088	21.472	5.	0.	516.98
3089	21.472	5.2	0.	516.41
3090	21.472	5.4	0.	516.1
3091	21.472	5.6	0.	516.26
3092	21.472	5.8	0.	518.54
3093	21.667	0.2	0.	481.76
3094	21.667	0.4	0.	479.35
3095	21.667	0.6	0.	479.12
3096	21.667	0.8	0.	479.34
3097	21.667	1.	0.	479.77
3098	21.667	1.2	0.	480.26
3099	21.667	1.4	0.	480.74
3100	21.667	1.6	0.	481.17
3101	21.667	1.8	0.	481.54
3102	21.667	2.	0.	481.84
3103	21.667	2.2	0.	482.08
3104	21.667	2.4	0.	482.27
3105	21.667	2.6	0.	482.4
3106	21.667	2.8	0.	482.48
3107	21.667	3.	0.	482.51
3108	21.667	3.2	0.	482.48
3109	21.667	3.4	0.	482.4
3110	21.667	3.6	0.	482.27
3111	21.667	3.8	0.	482.08
3112	21.667	4.	0.	481.84
3113	21.667	4.2	0.	481.54
3114	21.667	4.4	0.	481.17
3115	21.667	4.6	0.	480.74
3116	21.667	4.8	0.	480.26
3117	21.667	5.	0.	479.77
3118	21.667	5.2	0.	479.35
3119	21.667	5.4	0.	479.12
3120	21.667	5.6	0.	479.35
3121	21.667	5.8	0.	481.76
3122	21.861	0.2	0.	443.97
3123	21.861	0.4	0.	441.62
3124	21.861	0.6	0.	441.52
3125	21.861	0.8	0.	441.87
3126	21.861	1.	0.	442.37
3127	21.861	1.2	0.	442.89
3128	21.861	1.4	0.	443.33
3129	21.861	1.6	0.	443.65
3130	21.861	1.8	0.	443.85
3131	21.861	2.	0.	443.95
3132	21.861	2.2	0.	443.97
3133	21.861	2.4	0.	443.95
3134	21.861	2.6	0.	443.92
3135	21.861	2.8	0.	443.89
3136	21.861	3.	0.	443.88
3137	21.861	3.2	0.	443.89
3138	21.861	3.4	0.	443.92
3139	21.861	3.6	0.	443.95
3140	21.861	3.8	0.	443.97
3141	21.861	4.	0.	443.95
3142	21.861	4.2	0.	443.85
3143	21.861	4.4	0.	443.65
3144	21.861	4.6	0.	443.33
3145	21.861	4.8	0.	442.89
3146	21.861	5.	0.	442.37
3147	21.861	5.2	0.	441.87
3148	21.861	5.4	0.	441.52
3149	21.861	5.6	0.	441.62
3150	21.861	5.8	0.	443.97
3151	22.056	0.2	0.	405.46
3152	22.056	0.4	0.	403.33
3153	22.056	0.6	0.	403.54
3154	22.056	0.8	0.	404.2
3155	22.056	1.	0.	404.98
3156	22.056	1.2	0.	405.7
3157	22.056	1.4	0.	406.28
3158	22.056	1.6	0.	406.67
3159	22.056	1.8	0.	406.88
3160	22.056	2.	0.	406.93
3161	22.056	2.2	0.	406.89
3162	22.056	2.4	0.	406.79
3163	22.056	2.6	0.	406.68
3164	22.056	2.8	0.	406.61
3165	22.056	3.	0.	406.58
3166	22.056	3.2	0.	406.61
3167	22.056	3.4	0.	406.68
3168	22.056	3.6	0.	406.79
3169	22.056	3.8	0.	406.89
3170	22.056	4.	0.	406.93
3171	22.056	4.2	0.	406.88
3172	22.056	4.4	0.	406.67
3173	22.056	4.6	0.	406.28
3174	22.056	4.8	0.	405.7
3175	22.056	5.	0.	404.98
3176	22.056	5.2	0.	404.2
3177	22.056	5.4	0.	403.54
3178	22.056	5.6	0.	403.33
3179	22.056	5.8	0.	405.46
3180	22.25	0.2	0.	366.43
3181	22.25	0.4	0.	364.69
3182	22.25	0.6	0.	365.39
3183	22.25	0.8	0.	366.53
3184	22.25	1.	0.	367.74
3185	22.25	1.2	0.	368.82
3186	22.25	1.4	0.	369.67
3187	22.25	1.6	0.	370.26
3188	22.25	1.8	0.	370.6
3189	22.25	2.	0.	370.73
3190	22.25	2.2	0.	370.72
3191	22.25	2.4	0.	370.63
3192	22.25	2.6	0.	370.52
3193	22.25	2.8	0.	370.43
3194	22.25	3.	0.	370.4
3195	22.25	3.2	0.	370.43
3196	22.25	3.4	0.	370.52
3197	22.25	3.6	0.	370.63
3198	22.25	3.8	0.	370.72
3199	22.25	4.	0.	370.73
3200	22.25	4.2	0.	370.6
3201	22.25	4.4	0.	370.26
3202	22.25	4.6	0.	369.67
3203	22.25	4.8	0.	368.82
3204	22.25	5.	0.	367.74
3205	22.25	5.2	0.	366.53
3206	22.25	5.4	0.	365.39
3207	22.25	5.6	0.	364.69
3208	22.25	5.8	0.	366.43
3209	22.444	0.2	0.	327.07
3210	22.444	0.4	0.	325.88
3211	22.444	0.6	0.	327.23
3212	22.444	0.8	0.	329.02
3213	22.444	1.	0.	330.8
3214	22.444	1.2	0.	332.37
3215	22.444	1.4	0.	333.6
3216	22.444	1.6	0.	334.49
3217	22.444	1.8	0.	335.04
3218	22.444	2.	0.	335.32
3219	22.444	2.2	0.	335.42
3220	22.444	2.4	0.	335.39
3221	22.444	2.6	0.	335.32
3222	22.444	2.8	0.	335.26
3223	22.444	3.	0.	335.23
3224	22.444	3.2	0.	335.26
3225	22.444	3.4	0.	335.32
3226	22.444	3.6	0.	335.39
3227	22.444	3.8	0.	335.42
3228	22.444	4.	0.	335.32
3229	22.444	4.2	0.	335.04
3230	22.444	4.4	0.	334.49
3231	22.444	4.6	0.	333.6
3232	22.444	4.8	0.	332.37
3233	22.444	5.	0.	330.8
3234	22.444	5.2	0.	329.02
3235	22.444	5.4	0.	327.23
3236	22.444	5.6	0.	325.88
3237	22.444	5.8	0.	327.07
3238	22.639	0.2	0.	287.51
3239	22.639	0.4	0.	287.06
3240	22.639	0.6	0.	289.27
3241	22.639	0.8	0.	291.86
3242	22.639	1.	0.	294.35
3243	22.639	1.2	0.	296.49
3244	22.639	1.4	0.	298.19
3245	22.639	1.6	0.	299.43
3246	22.639	1.8	0.	300.26
3247	22.639	2.	0.	300.75
3248	22.639	2.2	0.	300.99
3249	22.639	2.4	0.	301.07
3250	22.639	2.6	0.	301.07
3251	22.639	2.8	0.	301.05
3252	22.639	3.	0.	301.03
3253	22.639	3.2	0.	301.05
3254	22.639	3.4	0.	301.07
3255	22.639	3.6	0.	301.07
3256	22.639	3.8	0.	300.99
3257	22.639	4.	0.	300.75
3258	22.639	4.2	0.	300.26
3259	22.639	4.4	0.	299.43
3260	22.639	4.6	0.	298.19
3261	22.639	4.8	0.	296.49
3262	22.639	5.	0.	294.35
3263	22.639	5.2	0.	291.86
3264	22.639	5.4	0.	289.27
3265	22.639	5.6	0.	287.06
3266	22.639	5.8	0.	287.51
3267	22.833	0.2	0.	247.87
3268	22.833	0.4	0.	248.41
3269	22.833	0.6	0.	251.68
3270	22.833	0.8	0.	255.26
3271	22.833	1.	0.	258.57
3272	22.833	1.2	0.	261.38
3273	22.833	1.4	0.	263.6
3274	22.833	1.6	0.	265.24
3275	22.833	1.8	0.	266.38
3276	22.833	2.	0.	267.11
3277	22.833	2.2	0.	267.53
3278	22.833	2.4	0.	267.74
3279	22.833	2.6	0.	267.83
3280	22.833	2.8	0.	267.86
3281	22.833	3.	0.	267.86
3282	22.833	3.2	0.	267.86
3283	22.833	3.4	0.	267.83
3284	22.833	3.6	0.	267.74
3285	22.833	3.8	0.	267.53
3286	22.833	4.	0.	267.11
3287	22.833	4.2	0.	266.38
3288	22.833	4.4	0.	265.24
3289	22.833	4.6	0.	263.6
3290	22.833	4.8	0.	261.38
3291	22.833	5.	0.	258.57
3292	22.833	5.2	0.	255.26
3293	22.833	5.4	0.	251.68
3294	22.833	5.6	0.	248.41
3295	22.833	5.8	0.	247.87
3296	23.028	0.2	0.	208.26
3297	23.028	0.4	0.	210.13
3298	23.028	0.6	0.	214.75
3299	23.028	0.8	0.	219.51
3300	23.028	1.	0.	223.76
3301	23.028	1.2	0.	227.3
3302	23.028	1.4	0.	230.07
3303	23.028	1.6	0.	232.14
3304	23.028	1.8	0.	233.61
3305	23.028	2.	0.	234.6
3306	23.028	2.2	0.	235.22
3307	23.028	2.4	0.	235.59
3308	23.028	2.6	0.	235.78
3309	23.028	2.8	0.	235.87
3310	23.028	3.	0.	235.89
3311	23.028	3.2	0.	235.87
3312	23.028	3.4	0.	235.78
3313	23.028	3.6	0.	235.59
3314	23.028	3.8	0.	235.22
3315	23.028	4.	0.	234.6
3316	23.028	4.2	0.	233.61
3317	23.028	4.4	0.	232.14
3318	23.028	4.6	0.	230.07
3319	23.028	4.8	0.	227.3
3320	23.028	5.	0.	223.76
3321	23.028	5.2	0.	219.51
3322	23.028	5.4	0.	214.75
3323	23.028	5.6	0.	210.13
3324	23.028	5.8	0.	208.26
3325	23.222	0.2	0.	168.83
3326	23.222	0.4	0.	172.55
3327	23.222	0.6	0.	178.9
3328	23.222	0.8	0.	185.03
3329	23.222	1.	0.	190.32
3330	23.222	1.2	0.	194.62
3331	23.222	1.4	0.	197.98
3332	23.222	1.6	0.	200.51
3333	23.222	1.8	0.	202.33
3334	23.222	2.	0.	203.6
3335	23.222	2.2	0.	204.44
3336	23.222	2.4	0.	204.97
3337	23.222	2.6	0.	205.28
3338	23.222	2.8	0.	205.44
3339	23.222	3.	0.	205.49
3340	23.222	3.2	0.	205.44
3341	23.222	3.4	0.	205.28
3342	23.222	3.6	0.	204.97
3343	23.222	3.8	0.	204.44
3344	23.222	4.	0.	203.6
3345	23.222	4.2	0.	202.33
3346	23.222	4.4	0.	200.51
3347	23.222	4.6	0.	197.98
3348	23.222	4.8	0.	194.62
3349	23.222	5.	0.	190.32
3350	23.222	5.2	0.	185.03
3351	23.222	5.4	0.	178.9
3352	23.222	5.6	0.	172.55
3353	23.222	5.8	0.	168.83
3354	23.417	0.2	0.	129.84
3355	23.417	0.4	0.	136.25
3356	23.417	0.6	0.	144.8
3357	23.417	0.8	0.	152.5
3358	23.417	1.	0.	158.88
3359	23.417	1.2	0.	163.98
3360	23.417	1.4	0.	167.95
3361	23.417	1.6	0.	170.95
3362	23.417	1.8	0.	173.15
3363	23.417	2.	0.	174.73
3364	23.417	2.2	0.	175.82
3365	23.417	2.4	0.	176.53
3366	23.417	2.6	0.	176.97
3367	23.417	2.8	0.	177.2
3368	23.417	3.	0.	177.28
3369	23.417	3.2	0.	177.2
3370	23.417	3.4	0.	176.97
3371	23.417	3.6	0.	176.53
3372	23.417	3.8	0.	175.82
3373	23.417	4.	0.	174.73
3374	23.417	4.2	0.	173.15
3375	23.417	4.4	0.	170.95
3376	23.417	4.6	0.	167.95
3377	23.417	4.8	0.	163.98
3378	23.417	5.	0.	158.88
3379	23.417	5.2	0.	152.5
3380	23.417	5.4	0.	144.8
3381	23.417	5.6	0.	136.25
3382	23.417	5.8	0.	129.84
3383	23.611	0.2	0.	91.929
3384	23.611	0.4	0.	102.62
3385	23.611	0.6	0.	113.82
3386	23.611	0.8	0.	123.14
3387	23.611	1.	0.	130.63
3388	23.611	1.2	0.	136.53
3389	23.611	1.4	0.	141.12
3390	23.611	1.6	0.	144.62
3391	23.611	1.8	0.	147.23
3392	23.611	2.	0.	149.14
3393	23.611	2.2	0.	150.49
3394	23.611	2.4	0.	151.4
3395	23.611	2.6	0.	151.98
3396	23.611	2.8	0.	152.3
3397	23.611	3.	0.	152.4
3398	23.611	3.2	0.	152.3
3399	23.611	3.4	0.	151.98
3400	23.611	3.6	0.	151.4
3401	23.611	3.8	0.	150.49
3402	23.611	4.	0.	149.14
3403	23.611	4.2	0.	147.23
3404	23.611	4.4	0.	144.62
3405	23.611	4.6	0.	141.12
3406	23.611	4.8	0.	136.53
3407	23.611	5.	0.	130.63
3408	23.611	5.2	0.	123.14
3409	23.611	5.4	0.	113.82
3410	23.611	5.6	0.	102.62
3411	23.611	5.8	0.	91.929
3412	23.806	0.2	0.	57.988
3413	23.806	0.4	0.	74.74
3414	23.806	0.6	0.	88.415
3415	23.806	0.8	0.	99.179
3416	23.806	1.	0.	107.64
3417	23.806	1.2	0.	114.28
3418	23.806	1.4	0.	119.44
3419	23.806	1.6	0.	123.41
3420	23.806	1.8	0.	126.41
3421	23.806	2.	0.	128.63
3422	23.806	2.2	0.	130.24
3423	23.806	2.4	0.	131.34
3424	23.806	2.6	0.	132.06
3425	23.806	2.8	0.	132.47
3426	23.806	3.	0.	132.6
3427	23.806	3.2	0.	132.47
3428	23.806	3.4	0.	132.06
3429	23.806	3.6	0.	131.34
3430	23.806	3.8	0.	130.24
3431	23.806	4.	0.	128.63
3432	23.806	4.2	0.	126.41
3433	23.806	4.4	0.	123.41
3434	23.806	4.6	0.	119.44
3435	23.806	4.8	0.	114.28
3436	23.806	5.	0.	107.64
3437	23.806	5.2	0.	99.179
3438	23.806	5.4	0.	88.415
3439	23.806	5.6	0.	74.74
3440	23.806	5.8	0.	57.988
3441	23.806	5.8	0.1	57.988
3442	23.806	5.6	0.1	74.74
3443	23.806	5.4	0.1	88.415
3444	23.806	5.2	0.1	99.179
3445	23.806	5.	0.1	107.64
3446	23.806	4.8	0.1	114.28
3447	23.806	4.6	0.1	119.44
3448	23.806	4.4	0.1	123.41
3449	23.806	4.2	0.1	126.41
3450	23.806	4.	0.1	128.63
3451	23.806	3.8	0.1	130.24
3452	23.806	3.6	0.1	131.34
3453	23.806	3.4	0.1	132.06
3454	23.806	3.2	0.1	132.47
3455	23.806	3.	0.1	132.6
3456	23.806	2.8	0.1	132.47
3457	23.806	2.6	0.1	132.06
3458	23.806	2.4	0.1	131.34
3459	23.806	2.2	0.1	130.24
3460	23.806	2.	0.1	128.63
3461	23.806	1.8	0.1	126.41
3462	23.806	1.6	0.1	123.41
3463	23.806	1.4	0.1	119.44
3464	23.806	1.2	0.1	114.28
3465	23.806	1.	0.1	107.64
3466	23.806	0.8	0.1	99.179
3467	23.806	0.6	0.1	88.415
3468	23.806	0.4	0.1	74.74
3469	23.806	0.2	0.1	57.988
3470	23.611	5.8	0.1	91.929
3471	23.611	5.6	0.1	102.62
3472	23.611	5.4	0.1	113.82
3473	23.611	5.2	0.1	123.14
3474	23.611	5.	0.1	130.63
3475	23.611	4.8	0.1	136.53
3476	23.611	4.6	0.1	141.12
3477	23.611	4.4	0.1	144.62
3478	23.611	4.2	0.1	147.23
3479	23.611	4.	0.1	149.14
3480	23.611	3.8	0.1	150.49
3481	23.611	3.6	0.1	151.4
3482	23.611	3.4	0.1	151.98
3483	23.611	3.2	0.1	152.3
3484	23.611	3.	0.1	152.4
3485	23.611	2.8	0.1	152.3
3486	23.611	2.6	0.1	151.98
3487	23.611	2.4	0.1	151.4
3488	23.611	2.2	0.1	150.49
3489	23.611	2.	0.1	149.14
3490	23.611	1.8	0.1	147.23
3491	23.611	1.6	0.1	144.62
3492	23.611	1.4	0.1	141.12
3493	23.611	1.2	0.1	136.53
3494	23.611	1.	0.1	130.63
3495	23.611	0.8	0.1	123.14
3496	23.611	0.6	0.1	113.82
3497	23.611	0.4	0.1	102.62
3498	23.611	0.2	0.1	91.929
3499	23.417	5.8	0.1	129.84
3500	23.417	5.6	0.1	136.25
3501	23.417	5.4	0.1	144.8
3502	23.417	5.2	0.1	152.5
3503	23.417	5.	0.1	158.88
3504	23.417	4.8	0.1	163.98
3505	23.417	4.6	0.1	167.95
3506	23.417	4.4	0.1	170.95
3507	23.417	4.2	0.1	173.15
3508	23.417	4.	0.1	174.73
3509	23.417	3.8	0.1	175.82
3510	23.417	3.6	0.1	176.53
3511	23.417	3.4	0.1	176.97
3512	23.417	3.2	0.1	177.2
3513	23.417	3.	0.1	177.28
3514	23.417	2.8	0.1	177.2
3515	23.417	2.6	0.1	176.97
3516	23.417	2.4	0.1	176.53
3517	23.417	2.2	0.1	175.82
3518	23.417	2.	0.1	174.73
3519	23.417	1.8	0.1	173.15
3520	23.417	1.6	0.1	170.95
3521	23.417	1.4	0.1	167.95
3522	23.417	1.2	0.1	163.98
3523	23.417	1.	0.1	158.88
3524	23.417	0.8	0.1	152.5
3525	23.417	0.6	0.1	144.8
3526	23.417	0.4	0.1	136.25
3527	23.417	0.2	0.1	129.84
3528	23.222	5.8	0.1	168.83
3529	23.222	5.6	0.1	172.55
3530	23.222	5.4	0.1	178.9
3531	23.222	5.2	0.1	185.03
3532	23.222	5.	0.1	190.32
3533	23.222	4.8	0.1	194.62
3534	23.222	4.6	0.1	197.98
3535	23.222	4.4	0.1	200.51
3536	23.222	4.2	0.1	202.33
3537	23.222	4.	0.1	203.6
3538	23.222	3.8	0.1	204.44
3539	23.222	3.6	0.1	204.97
3540	23.222	3.4	0.1	205.28
3541	23.222	3.2	0.1	205.44
3542	23.222	3.	0.1	205.49
3543	23.222	2.8	0.1	205.44
3544	23.222	2.6	0.1	205.28
3545	23.222	2.4	0.1	204.97
3546	23.222	2.2	0.1	204.44
3547	23.222	2.	0.1	203.6
3548	23.222	1.8	0.1	202.33
3549	23.222	1.6	0.1	200.51
3550	23.222	1.4	0.1	197.98
3551	23.222	1.2	0.1	194.62
3552	23.222	1.	0.1	190.32
3553	23.222	0.8	0.1	185.03
3554	23.222	0.6	0.1	178.9
3555	23.222	0.4	0.1	172.55
3556	23.222	0.2	0.1	168.83
3557	23.028	5.8	0.1	208.26
3558	23.028	5.6	0.1	210.13
3559	23.028	5.4	0.1	214.75
3560	23.028	5.2	0.1	219.51
3561	23.028	5.	0.1	223.76
3562	23.028	4.8	0.1	227.3
3563	23.028	4.6	0.1	230.07
3564	23.028	4.4	0.1	232.14
3565	23.028	4.2	0.1	233.61
3566	23.028	4.	0.1	234.6
3567	23.028	3.8	0.1	235.22
3568	23.028	3.6	0.1	235.59
3569	23.028	3.4	0.1	235.78
3570	23.028	3.2	0.1	235.87
3571	23.028	3.	0.1	235.89
3572	23.028	2.8	0.1	235.87
3573	23.028	2.6	0.1	235.78
3574	23.028	2.4	0.1	235.59
3575	23.028	2.2	0.1	235.22
3576	23.028	2.	0.1	234.6
3577	23.028	1.8	0.1	233.61
3578	23.028	1.6	0.1	232.14
3579	23.028	1.4	0.1	230.07
3580	23.028	1.2	0.1	227.3
3581	23.028	1.	0.1	223.76
3582	23.028	0.8	0.1	219.51
3583	23.028	0.6	0.1	214.75
3584	23.028	0.4	0.1	210.13
3585	23.028	0.2	0.1	208.26
3586	22.833	5.8	0.1	247.87
3587	22.833	5.6	0.1	248.41
3588	22.833	5.4	0.1	251.68
3589	22.833	5.2	0.1	255.26
3590	22.833	5.	0.1	258.57
3591	22.833	4.8	0.1	261.38
3592	22.833	4.6	0.1	263.6
3593	22.833	4.4	0.1	265.24
3594	22.833	4.2	0.1	266.38
3595	22.833	4.	0.1	267.11
3596	22.833	3.8	0.1	267.53
3597	22.833	3.6	0.1	267.74
3598	22.833	3.4	0.1	267.83
3599	22.833	3.2	0.1	267.86
3600	22.833	3.	0.1	267.86
3601	22.833	2.8	0.1	267.86
3602	22.833	2.6	0.1	267.83
3603	22.833	2.4	0.1	267.74
3604	22.833	2.2	0.1	267.53
3605	22.833	2.	0.1	267.11
3606	22.833	1.8	0.1	266.38
3607	22.833	1.6	0.1	265.24
3608	22.833	1.4	0.1	263.6
3609	22.833	1.2	0.1	261.38
3610	22.833	1.	0.1	258.57
3611	22.833	0.8	0.1	255.26
3612	22.833	0.6	0.1	251.68
3613	22.833	0.4	0.1	248.41
3614	22.833	0.2	0.1	247.87
3615	22.639	5.8	0.1	287.51
3616	22.639	5.6	0.1	287.06
3617	22.639	5.4	0.1	289.27
3618	22.639	5.2	0.1	291.86
3619	22.639	5.	0.1	294.35
3620	22.639	4.8	0.1	296.49
3621	22.639	4.6	0.1	298.19
3622	22.639	4.4	0.1	299.43
3623	22.639	4.2	0.1	300.26
3624	22.639	4.	0.1	300.75
3625	22.639	3.8	0.1	300.99
3626	22.639	3.6	0.1	301.07
3627	22.639	3.4	0.1	301.07
3628	22.639	3.2	0.1	301.05
3629	22.639	3.	0.1	301.03
3630	22.639	2.8	0.1	301.05
3631	22.639	2.6	0.1	301.07
3632	22.639	2.4	0.1	301.07
3633	22.639	2.2	0.1	300.99
3634	22.639	2.	0.1	300.75
3635	22.639	1.8	0.1	300.26
3636	22.639	1.6	0.1	299.43
3637	22.639	1.4	0.1	298.19
3638	22.639	1.2	0.1	296.49
3639	22.639	1.	0.1	294.35
3640	22.639	0.8	0.1	291.86
3641	22.639	0.6	0.1	289.27
3642	22.639	0.4	0.1	287.06
3643	22.639	0.2	0.1	287.51
3644	22.444	5.8	0.1	327.07
3645	22.444	5.6	0.1	325.88
3646	22.444	5.4	0.1	327.23
3647	22.444	5.2	0.1	329.02
3648	22.444	5.	0.1	330.8
3649	22.444	4.8	0.1	332.37
3650	22.444	4.6	0.1	333.6
3651	22.444	4.4	0.1	334.49
3652	22.444	4.2	0.1	335.04
3653	22.444	4.	0.1	335.32
3654	22.444	3.8	0.1	335.42
3655	22.444	3.6	0.1	335.39
3656	22.444	3.4	0.1	335.32
3657	22.444	3.2	0.1	335.26
3658	22.444	3.	0.1	335.23
3659	22.444	2.8	0.1	335.26
3660	22.444	2.6	0.1	335.32
3661	22.444	2.4	0.1	335.39
3662	22.444	2.2	0.1	335.42
3663	22.444	2.	0.1	335.32
3664	22.444	1.8	0.1	335.04
3665	22.444	1.6	0.1	334.49
3666	22.444	1.4	0.1	333.6
3667	22.444	1.2	0.1	332.37
3668	22.444	1.	0.1	330.8
3669	22.444	0.8	0.1	329.02
3670	22.444	0.6	0.1	327.23
3671	22.444	0.4	0.1	325.88
3672	22.444	0.2	0.1	327.07
3673	22.25	5.8	0.1	366.43
3674	22.25	5.6	0.1	364.69
3675	22.25	5.4	0.1	365.39
3676	22.25	5.2	0.1	366.53
3677	22.25	5.	0.1	367.74
3678	22.25	4.8	0.1	368.82
3679	22.25	4.6	0.1	369.67
3680	22.25	4.4	0.1	370.26
3681	22.25	4.2	0.1	370.6
3682	22.25	4.	0.1	370.73
3683	22.25	3.8	0.1	370.72
3684	22.25	3.6	0.1	370.63
3685	22.25	3.4	0.1	370.52
3686	22.25	3.2	0.1	370.43
3687	22.25	3.	0.1	370.4
3688	22.25	2.8	0.1	370.43
3689	22.25	2.6	0.1	370.52
3690	22.25	2.4	0.1	370.63
3691	22.25	2.2	0.1	370.72
3692	22.25	2.	0.1	370.73
3693	22.25	1.8	0.1	370.6
3694	22.25	1.6	0.1	370.26
3695	22.25	1.4	0.1	369.67
3696	22.25	1.2	0.1	368.82
3697	22.25	1.	0.1	367.74
3698	22.25	0.8	0.1	366.53
3699	22.25	0.6	0.1	365.39
3700	22.25	0.4	0.1	364.69
3701	22.25	0.2	0.1	366.43
3702	22.056	5.8	0.1	405.46
3703	22.056	5.6	0.1	403.33
3704	22.056	5.4	0.1	403.54
3705	22.056	5.2	0.1	404.2
3706	22.056	5.	0.1	404.98
3707	22.056	4.8	0.1	405.7
3708	22.056	4.6	0.1	406.28
3709	22.056	4.4	0.1	406.67
3710	22.056	4.2	0.1	406.88
3711	22.056	4.	0.1	406.93
3712	22.056	3.8	0.1	406.89
3713	22.056	3.6	0.1	406.79
3714	22.056	3.4	0.1	406.68
3715	22.056	3.2	0.1	406.61
3716	22.056	3.	0.1	406.58
3717	22.056	2.8	0.1	406.61
3718	22.056	2.6	0.1	406.68
3719	22.056	2.4	0.1	406.79
3720	22.056	2.2	0.1	406.89
3721	22.056	2.	0.1	406.93
3722	22.056	1.8	0.1	406.88
3723	22.056	1.6	0.1	406.67
3724	22.056	1.4	0.1	406.28
3725	22.056	1.2	0.1	405.7
3726	22.056	1.	0.1	404.98
3727	22.056	0.8	0.1	404.2
3728	22.056	0.6	0.1	403.54
3729	22.056	0.4	0.1	403.33
3730	22.056	0.2	0.1	405.46
3731	21.861	5.8	0.1	443.97
3732	21.861	5.6	0.1	441.62
3733	21.861	5.4	0.1	441.52
3734	21.861	5.2	0.1	441.87
3735	21.861	5.	0.1	442.37
3736	21.861	4.8	0.1	442.89
3737	21.861	4.6	0.1	443.33
3738	21.861	4.4	0.1	443.65
3739	21.861	4.2	0.1	443.85
3740	21.861	4.	0.1	443.95
3741	21.861	3.8	0.1	443.97
3742	21.861	3.6	0.1	443.95
3743	21.861	3.4	0.1	443.92
3744	21.861	3.2	0.1	443.89
3745	21.861	3.	0.1	443.88
3746	21.861	2.8	0.1	443.89
3747	21.861	2.6	0.1	443.92
3748	21.861	2.4	0.1	443.95
3749	21.861	2.2	0.1	443.97
3750	21.861	2.	0.1	443.95
3751	21.861	1.8	0.1	443.85
3752	21.861	1.6	0.1	443.65
3753	21.861	1.4	0.1	443.33
3754	21.861	1.2	0.1	442.89
3755	21.861	1.	0.1	442.37
3756	21.861	0.8	0.1	441.87
3757	21.861	0.6	0.1	441.52
3758	21.861	0.4	0.1	441.62
3759	21.861	0.2	0.1	443.97
3760	21.667	5.8	0.1	481.76
3761	21.667	5.6	0.1	479.35
3762	21.667	5.4	0.1	479.12
3763	21.667	5.2	0.1	479.35
3764	21.667	5.	0.1	479.77
3765	21.667	4.8	0.1	480.26
3766	21.667	4.6	0.1	480.74
3767	21.667	4.4	0.1	481.17
3768	21.667	4.2	0.1	481.54
3769	21.667	4.	0.1	481.84
3770	21.667	3.8	0.1	482.08
3771	21.667	3.6	0.1	482.27
3772	21.667	3.4	0.1	482.4
3773	21.667	3.2	0.1	482.48
3774	21.667	3.	0.1	482.51
3775	21.667	2.8	0.1	482.48
3776	21.667	2.6	0.1	482.4
3777	21.667	2.4	0.1	482.27
3778	21.667	2.2	0.1	482.08
3779	21.667	2.	0.1	481.84
3780	21.667	1.8	0.1	481.54
3781	21.667	1.6	0.1	481.17
3782	21.667	1.4	0.1	480.74
3783	21.667	1.2	0.1	480.26
3784	21.667	1.	0.1	479.77
3785	21.667	0.8	0.1	479.34
3786	21.667	0.6	0.1	479.12
3787	21.667	0.4	0.1	479.35
3788	21.667	0.2	0.1	481.76
3789	21.472	5.8	0.1	518.54
3790	21.472	5.6	0.1	516.26
3791	21.472	5.4	0.1	516.1
3792	21.472	5.2	0.1	516.41
3793	21.472	5.	0.1	516.98
3794	21.472	4.8	0.1	517.68
3795	21.472	4.6	0.1	518.45
3796	21.472	4.4	0.1	519.23
3797	21.472	4.2	0.1	520.
3798	21.472	4.	0.1	520.72
3799	21.472	3.8	0.1	521.39
3800	21.472	3.6	0.1	521.96
3801	21.472	3.4	0.1	522.4
3802	21.472	3.2	0.1	522.68
3803	21.472	3.	0.1	522.77
3804	21.472	2.8	0.1	522.68
3805	21.472	2.6	0.1	522.4
3806	21.472	2.4	0.1	521.96
3807	21.472	2.2	0.1	521.39
3808	21.472	2.	0.1	520.72
3809	21.472	1.8	0.1	520.
3810	21.472	1.6	0.1	519.23
3811	21.472	1.4	0.1	518.45
3812	21.472	1.2	0.1	517.68
3813	21.472	1.	0.1	516.98
3814	21.472	0.8	0.1	516.41
3815	21.472	0.6	0.1	516.1
3816	21.472	0.4	0.1	516.26
3817	21.472	0.2	0.1	518.54
3818	21.278	5.8	0.1	553.96
3819	21.278	5.6	0.1	551.99
3820	21.278	5.4	0.1	552.14
3821	21.278	5.2	0.1	552.81
3822	21.278	5.	0.1	553.8
3823	21.278	4.8	0.1	555.01
3824	21.278	4.6	0.1	556.37
3825	21.278	4.4	0.1	557.82
3826	21.278	4.2	0.1	559.31
3827	21.278	4.	0.1	560.77
3828	21.278	3.8	0.1	562.15
3829	21.278	3.6	0.1	563.35
3830	21.278	3.4	0.1	564.29
3831	21.278	3.2	0.1	564.89
3832	21.278	3.	0.1	565.09
3833	21.278	2.8	0.1	564.89
3834	21.278	2.6	0.1	564.29
3835	21.278	2.4	0.1	563.35
3836	21.278	2.2	0.1	562.15
3837	21.278	2.	0.1	560.77
3838	21.278	1.8	0.1	559.31
3839	21.278	1.6	0.1	557.82
3840	21.278	1.4	0.1	556.37
3841	21.278	1.2	0.1	555.01
3842	21.278	1.	0.1	553.8
3843	21.278	0.8	0.1	552.81
3844	21.278	0.6	0.1	552.14
3845	21.278	0.4	0.1	551.99
3846	21.278	0.2	0.1	553.96
3847	21.083	5.8	0.1	587.56
3848	21.083	5.6	0.1	586.14
3849	21.083	5.4	0.1	586.87
3850	21.083	5.2	0.1	588.21
3851	21.083	5.	0.1	589.98
3852	21.083	4.8	0.1	592.08
3853	21.083	4.6	0.1	594.43
3854	21.083	4.4	0.1	596.97
3855	21.083	4.2	0.1	599.61
3856	21.083	4.	0.1	602.23
3857	21.083	3.8	0.1	604.71
3858	21.083	3.6	0.1	606.88
3859	21.083	3.4	0.1	608.58
3860	21.083	3.2	0.1	609.67
3861	21.083	3.	0.1	610.04
3862	21.083	2.8	0.1	609.67
3863	21.083	2.6	0.1	608.58
3864	21.083	2.4	0.1	606.88
3865	21.083	2.2	0.1	604.71
3866	21.083	2.	0.1	602.23
3867	21.083	1.8	0.1	599.61
3868	21.083	1.6	0.1	596.97
3869	21.083	1.4	0.1	594.43
3870	21.083	1.2	0.1	592.08
3871	21.083	1.	0.1	589.98
3872	21.083	0.8	0.1	588.21
3873	21.083	0.6	0.1	586.87
3874	21.083	0.4	0.1	586.14
3875	21.083	0.2	0.1	587.56
3876	20.889	5.8	0.1	618.76
3877	20.889	5.6	0.1	618.15
3878	20.889	5.4	0.1	619.8
3879	20.889	5.2	0.1	622.2
3880	20.889	5.	0.1	625.18
3881	20.889	4.8	0.1	628.66
3882	20.889	4.6	0.1	632.54
3883	20.889	4.4	0.1	636.73
3884	20.889	4.2	0.1	641.08
3885	20.889	4.	0.1	645.43
3886	20.889	3.8	0.1	649.53
3887	20.889	3.6	0.1	653.14
3888	20.889	3.4	0.1	655.97
3889	20.889	3.2	0.1	657.78
3890	20.889	3.	0.1	658.41
3891	20.889	2.8	0.1	657.78
3892	20.889	2.6	0.1	655.97
3893	20.889	2.4	0.1	653.14
3894	20.889	2.2	0.1	649.53
3895	20.889	2.	0.1	645.43
3896	20.889	1.8	0.1	641.08
3897	20.889	1.6	0.1	636.73
3898	20.889	1.4	0.1	632.54
3899	20.889	1.2	0.1	628.66
3900	20.889	1.	0.1	625.18
3901	20.889	0.8	0.1	622.2
3902	20.889	0.6	0.1	619.8
3903	20.889	0.4	0.1	618.15
3904	20.889	0.2	0.1	618.76
3905	20.694	5.8	0.1	646.83
3906	20.694	5.6	0.1	647.33
3907	20.694	5.4	0.1	650.29
3908	20.694	5.2	0.1	654.24
3909	20.694	5.	0.1	659.
3910	20.694	4.8	0.1	664.49
3911	20.694	4.6	0.1	670.59
3912	20.694	4.4	0.1	677.16
3913	20.694	4.2	0.1	683.99
3914	20.694	4.	0.1	690.8
3915	20.694	3.8	0.1	697.25
3916	20.694	3.6	0.1	702.93
3917	20.694	3.4	0.1	707.38
3918	20.694	3.2	0.1	710.24
3919	20.694	3.	0.1	711.22
3920	20.694	2.8	0.1	710.24
3921	20.694	2.6	0.1	707.38
3922	20.694	2.4	0.1	702.93
3923	20.694	2.2	0.1	697.25
3924	20.694	2.	0.1	690.8
3925	20.694	1.8	0.1	683.99
3926	20.694	1.6	0.1	677.16
3927	20.694	1.4	0.1	670.59
3928	20.694	1.2	0.1	664.49
3929	20.694	1.	0.1	659.
3930	20.694	0.8	0.1	654.23
3931	20.694	0.6	0.1	650.29
3932	20.694	0.4	0.1	647.33
3933	20.694	0.2	0.1	646.83
3934	20.5	5.8	0.1	670.85
3935	20.5	5.6	0.1	672.8
3936	20.5	5.4	0.1	677.56
3937	20.5	5.2	0.1	683.65
3938	20.5	5.	0.1	690.92
3939	20.5	4.8	0.1	699.25
3940	20.5	4.6	0.1	708.48
3941	20.5	4.4	0.1	718.38
3942	20.5	4.2	0.1	728.68
3943	20.5	4.	0.1	738.97
3944	20.5	3.8	0.1	748.72
3945	20.5	3.6	0.1	757.31
3946	20.5	3.4	0.1	764.07
3947	20.5	3.2	0.1	768.4
3948	20.5	3.	0.1	769.89
3949	20.5	2.8	0.1	768.4
3950	20.5	2.6	0.1	764.07
3951	20.5	2.4	0.1	757.31
3952	20.5	2.2	0.1	748.72
3953	20.5	2.	0.1	738.97
3954	20.5	1.8	0.1	728.68
3955	20.5	1.6	0.1	718.38
3956	20.5	1.4	0.1	708.47
3957	20.5	1.2	0.1	699.25
3958	20.5	1.	0.1	690.92
3959	20.5	0.8	0.1	683.65
3960	20.5	0.6	0.1	677.56
3961	20.5	0.4	0.1	672.8
3962	20.5	0.2	0.1	670.85
3963	20.306	5.8	0.1	689.7
3964	20.306	5.6	0.1	693.47
3965	20.306	5.4	0.1	700.61
3966	20.306	5.2	0.1	709.62
3967	20.306	5.	0.1	720.32
3968	20.306	4.8	0.1	732.55
3969	20.306	4.6	0.1	746.08
3970	20.306	4.4	0.1	760.59
3971	20.306	4.2	0.1	775.68
3972	20.306	4.	0.1	790.76
3973	20.306	3.8	0.1	805.08
3974	20.306	3.6	0.1	817.72
3975	20.306	3.4	0.1	827.69
3976	20.306	3.2	0.1	834.1
3977	20.306	3.	0.1	836.31
3978	20.306	2.8	0.1	834.1
3979	20.306	2.6	0.1	827.69
3980	20.306	2.4	0.1	817.72
3981	20.306	2.2	0.1	805.08
3982	20.306	2.	0.1	790.76
3983	20.306	1.8	0.1	775.68
3984	20.306	1.6	0.1	760.59
3985	20.306	1.4	0.1	746.08
3986	20.306	1.2	0.1	732.55
3987	20.306	1.	0.1	720.32
3988	20.306	0.8	0.1	709.62
3989	20.306	0.6	0.1	700.61
3990	20.306	0.4	0.1	693.47
3991	20.306	0.2	0.1	689.7
3992	20.111	5.8	0.1	701.98
3993	20.111	5.6	0.1	708.
3994	20.111	5.4	0.1	718.21
3995	20.111	5.2	0.1	731.08
3996	20.111	5.	0.1	746.42
3997	20.111	4.8	0.1	763.96
3998	20.111	4.6	0.1	783.34
3999	20.111	4.4	0.1	804.12
4000	20.111	4.2	0.1	825.71
4001	20.111	4.	0.1	847.33
4002	20.111	3.8	0.1	867.92
4003	20.111	3.6	0.1	886.14
4004	20.111	3.4	0.1	900.54
4005	20.111	3.2	0.1	909.8
4006	20.111	3.	0.1	913.
4007	20.111	2.8	0.1	909.8
4008	20.111	2.6	0.1	900.54
4009	20.111	2.4	0.1	886.14
4010	20.111	2.2	0.1	867.92
4011	20.111	2.	0.1	847.33
4012	20.111	1.8	0.1	825.71
4013	20.111	1.6	0.1	804.12
4014	20.111	1.4	0.1	783.34
4015	20.111	1.2	0.1	763.96
4016	20.111	1.	0.1	746.42
4017	20.111	0.8	0.1	731.08
4018	20.111	0.6	0.1	718.21
4019	20.111	0.4	0.1	708.
4020	20.111	0.2	0.1	701.98
4021	19.917	5.8	0.1	706.05
4022	19.917	5.6	0.1	714.72
4023	19.917	5.4	0.1	728.85
4024	19.917	5.2	0.1	746.8
4025	19.917	5.	0.1	768.33
4026	19.917	4.8	0.1	793.02
4027	19.917	4.6	0.1	820.31
4028	19.917	4.4	0.1	849.52
4029	19.917	4.2	0.1	879.88
4030	19.917	4.	0.1	910.35
4031	19.917	3.8	0.1	939.45
4032	19.917	3.6	0.1	965.27
4033	19.917	3.4	0.1	985.71
4034	19.917	3.2	0.1	998.86
4035	19.917	3.	0.1	1003.4
4036	19.917	2.8	0.1	998.86
4037	19.917	2.6	0.1	985.71
4038	19.917	2.4	0.1	965.27
4039	19.917	2.2	0.1	939.45
4040	19.917	2.	0.1	910.35
4041	19.917	1.8	0.1	879.88
4042	19.917	1.6	0.1	849.52
4043	19.917	1.4	0.1	820.31
4044	19.917	1.2	0.1	793.02
4045	19.917	1.	0.1	768.33
4046	19.917	0.8	0.1	746.8
4047	19.917	0.6	0.1	728.85
4048	19.917	0.4	0.1	714.72
4049	19.917	0.2	0.1	706.05
4050	19.722	5.8	0.1	699.94
4051	19.722	5.6	0.1	711.69
4052	19.722	5.4	0.1	730.72
4053	19.722	5.2	0.1	755.31
4054	19.722	5.	0.1	785.09
4055	19.722	4.8	0.1	819.37
4056	19.722	4.6	0.1	857.26
4057	19.722	4.4	0.1	897.78
4058	19.722	4.2	0.1	939.91
4059	19.722	4.	0.1	982.28
4060	19.722	3.8	0.1	1022.9
4061	19.722	3.6	0.1	1058.9
4062	19.722	3.4	0.1	1087.5
4063	19.722	3.2	0.1	1105.8
4064	19.722	3.	0.1	1112.1
4065	19.722	2.8	0.1	1105.8
4066	19.722	2.6	0.1	1087.5
4067	19.722	2.4	0.1	1058.9
4068	19.722	2.2	0.1	1022.9
4069	19.722	2.	0.1	982.28
4070	19.722	1.8	0.1	939.91
4071	19.722	1.6	0.1	897.78
4072	19.722	1.4	0.1	857.26
4073	19.722	1.2	0.1	819.37
4074	19.722	1.	0.1	785.09
4075	19.722	0.8	0.1	755.31
4076	19.722	0.6	0.1	730.72
4077	19.722	0.4	0.1	711.69
4078	19.722	0.2	0.1	699.94
4079	19.528	5.8	0.1	681.47
4080	19.528	5.6	0.1	696.67
4081	19.528	5.4	0.1	721.79
4082	19.528	5.2	0.1	754.99
4083	19.528	5.	0.1	795.69
4084	19.528	4.8	0.1	842.81
4085	19.528	4.6	0.1	894.93
4086	19.528	4.4	0.1	950.62
4087	19.528	4.2	0.1	1008.5
4088	19.528	4.	0.1	1066.8
4089	19.528	3.8	0.1	1122.9
4090	19.528	3.6	0.1	1172.7
4091	19.528	3.4	0.1	1211.9
4092	19.528	3.2	0.1	1236.8
4093	19.528	3.	0.1	1245.4
4094	19.528	2.8	0.1	1236.8
4095	19.528	2.6	0.1	1211.9
4096	19.528	2.4	0.1	1172.7
4097	19.528	2.2	0.1	1122.9
4098	19.528	2.	0.1	1066.8
4099	19.528	1.8	0.1	1008.5
4100	19.528	1.6	0.1	950.62
4101	19.528	1.4	0.1	894.93
4102	19.528	1.2	0.1	842.81
4103	19.528	1.	0.1	795.69
4104	19.528	0.8	0.1	754.99
4105	19.528	0.6	0.1	721.79
4106	19.528	0.4	0.1	696.67
4107	19.528	0.2	0.1	681.47
4108	19.333	5.8	0.1	648.29
4109	19.333	5.6	0.1	667.28
4110	19.333	5.4	0.1	699.97
4111	19.333	5.2	0.1	744.29
4112	19.333	5.	0.1	799.39
4113	19.333	4.8	0.1	863.63
4114	19.333	4.6	0.1	934.87
4115	19.333	4.4	0.1	1011.
4116	19.333	4.2	0.1	1090.1
4117	19.333	4.	0.1	1170.1
4118	19.333	3.8	0.1	1246.9
4119	19.333	3.6	0.1	1314.6
4120	19.333	3.4	0.1	1367.2
4121	19.333	3.2	0.1	1400.
4122	19.333	3.	0.1	1411.1
4123	19.333	2.8	0.1	1400.
4124	19.333	2.6	0.1	1367.2
4125	19.333	2.4	0.1	1314.6
4126	19.333	2.2	0.1	1246.9
4127	19.333	2.	0.1	1170.1
4128	19.333	1.8	0.1	1090.1
4129	19.333	1.6	0.1	1011.
4130	19.333	1.4	0.1	934.87
4131	19.333	1.2	0.1	863.63
4132	19.333	1.	0.1	799.39
4133	19.333	0.8	0.1	744.29
4134	19.333	0.6	0.1	699.97
4135	19.333	0.4	0.1	667.28
4136	19.333	0.2	0.1	648.29
4137	19.139	5.8	0.1	598.1
4138	19.139	5.6	0.1	621.33
4139	19.139	5.4	0.1	663.54
4140	19.139	5.2	0.1	722.23
4141	19.139	5.	0.1	796.1
4142	19.139	4.8	0.1	883.01
4143	19.139	4.6	0.1	980.
4144	19.139	4.4	0.1	1083.8
4145	19.139	4.2	0.1	1192.1
4146	19.139	4.	0.1	1301.7
4147	19.139	3.8	0.1	1406.8
4148	19.139	3.6	0.1	1497.6
4149	19.139	3.4	0.1	1565.
4150	19.139	3.2	0.1	1605.3
4151	19.139	3.	0.1	1618.5
4152	19.139	2.8	0.1	1605.3
4153	19.139	2.6	0.1	1565.
4154	19.139	2.4	0.1	1497.6
4155	19.139	2.2	0.1	1406.8
4156	19.139	2.	0.1	1301.7
4157	19.139	1.8	0.1	1192.1
4158	19.139	1.6	0.1	1083.8
4159	19.139	1.4	0.1	980.
4160	19.139	1.2	0.1	883.01
4161	19.139	1.	0.1	796.1
4162	19.139	0.8	0.1	722.23
4163	19.139	0.6	0.1	663.54
4164	19.139	0.4	0.1	621.33
4165	19.139	0.2	0.1	598.1
4166	18.944	5.8	0.1	529.05
4167	18.944	5.6	0.1	557.63
4168	18.944	5.4	0.1	612.4
4169	18.944	5.2	0.1	689.6
4170	18.944	5.	0.1	787.39
4171	18.944	4.8	0.1	903.58
4172	18.944	4.6	0.1	1035.3
4173	18.944	4.4	0.1	1178.6
4174	18.944	4.2	0.1	1327.8
4175	18.944	4.	0.1	1480.8
4176	18.944	3.8	0.1	1624.6
4177	18.944	3.6	0.1	1741.6
4178	18.944	3.4	0.1	1820.8
4179	18.944	3.2	0.1	1863.
4180	18.944	3.	0.1	1875.9
4181	18.944	2.8	0.1	1863.
4182	18.944	2.6	0.1	1820.8
4183	18.944	2.4	0.1	1741.6
4184	18.944	2.2	0.1	1624.6
4185	18.944	2.	0.1	1480.8
4186	18.944	1.8	0.1	1327.8
4187	18.944	1.6	0.1	1178.6
4188	18.944	1.4	0.1	1035.3
4189	18.944	1.2	0.1	903.58
4190	18.944	1.	0.1	787.39
4191	18.944	0.8	0.1	689.6
4192	18.944	0.6	0.1	612.4
4193	18.944	0.4	0.1	557.63
4194	18.944	0.2	0.1	529.05
4195	18.75	5.8	0.1	440.29
4196	18.75	5.6	0.1	477.72
4197	18.75	5.4	0.1	550.44
4198	18.75	5.2	0.1	651.25
4199	18.75	5.	0.1	777.81
4200	18.75	4.8	0.1	930.1
4201	18.75	4.6	0.1	1109.1
4202	18.75	4.4	0.1	1307.6
4203	18.75	4.2	0.1	1521.9
4204	18.75	4.	0.1	1740.4
4205	18.75	3.8	0.1	1938.7
4206	18.75	3.6	0.1	2081.9
4207	18.75	3.4	0.1	2151.4
4208	18.75	3.2	0.1	2177.8
4209	18.75	3.	0.1	2183.9
4210	18.75	2.8	0.1	2177.8
4211	18.75	2.6	0.1	2151.4
4212	18.75	2.4	0.1	2081.9
4213	18.75	2.2	0.1	1938.7
4214	18.75	2.	0.1	1740.4
4215	18.75	1.8	0.1	1521.9
4216	18.75	1.6	0.1	1307.6
4217	18.75	1.4	0.1	1109.1
4218	18.75	1.2	0.1	930.1
4219	18.75	1.	0.1	777.81
4220	18.75	0.8	0.1	651.25
4221	18.75	0.6	0.1	550.44
4222	18.75	0.4	0.1	477.72
4223	18.75	0.2	0.1	440.29
4224	18.556	5.8	0.1	334.1
4225	18.556	5.6	0.1	391.56
4226	18.556	5.4	0.1	491.77
4227	18.556	5.2	0.1	621.
4228	18.556	5.	0.1	778.84
4229	18.556	4.8	0.1	972.44
4230	18.556	4.6	0.1	1210.1
4231	18.556	4.4	0.1	1504.3
4232	18.556	4.2	0.1	1857.7
4233	18.556	4.	0.1	2177.
4234	18.556	3.8	0.1	2464.2
4235	18.556	3.6	0.1	2564.4
4236	18.556	3.4	0.1	2563.2
4237	18.556	3.2	0.1	2534.
4238	18.556	3.	0.1	2521.9
4239	18.556	2.8	0.1	2534.
4240	18.556	2.6	0.1	2563.2
4241	18.556	2.4	0.1	2564.4
4242	18.556	2.2	0.1	2464.2
4243	18.556	2.	0.1	2177.
4244	18.556	1.8	0.1	1857.7
4245	18.556	1.6	0.1	1504.3
4246	18.556	1.4	0.1	1210.1
4247	18.556	1.2	0.1	972.44
4248	18.556	1.	0.1	778.84
4249	18.556	0.8	0.1	621.
4250	18.556	0.6	0.1	491.77
4251	18.556	0.4	0.1	391.56
4252	18.556	0.2	0.1	334.1
4253	18.361	5.8	0.1	229.9
4254	18.361	5.6	0.1	341.27
4255	18.361	5.4	0.1	482.26
4256	18.361	5.2	0.1	645.44
4257	18.361	5.	0.1	839.47
4258	18.361	4.8	0.1	1081.8
4259	18.361	4.6	0.1	1401.5
4260	18.361	4.4	0.1	1877.2
4261	18.361	4.2	0.1	2592.1
4262	18.361	4.	0.1	3310.
4263	18.361	3.8	0.1	3411.3
4264	18.361	3.6	0.1	3234.2
4265	18.361	3.4	0.1	2997.2
4266	18.361	3.2	0.1	2874.7
4267	18.361	3.	0.1	2835.3
4268	18.361	2.8	0.1	2874.7
4269	18.361	2.6	0.1	2997.2
4270	18.361	2.4	0.1	3234.2
4271	18.361	2.2	0.1	3411.3
4272	18.361	2.	0.1	3310.
4273	18.361	1.8	0.1	2592.1
4274	18.361	1.6	0.1	1877.2
4275	18.361	1.4	0.1	1401.5
4276	18.361	1.2	0.1	1081.8
4277	18.361	1.	0.1	839.47
4278	18.361	0.8	0.1	645.44
4279	18.361	0.6	0.1	482.26
4280	18.361	0.4	0.1	341.27
4281	18.361	0.2	0.1	229.9
4282	17.8	5.8	0.1	312.62
4283	17.8	5.6	0.1	465.91
4284	17.8	5.4	0.1	663.23
4285	17.8	5.2	0.1	891.22
4286	17.8	5.	0.1	1157.2
4287	17.8	4.8	0.1	1478.7
4288	17.8	4.6	0.1	1890.3
4289	17.8	4.4	0.1	2467.1
4290	17.8	4.2	0.1	3313.3
4291	17.8	4.	0.1	3855.5
4292	17.8	3.8	0.1	3620.
4293	17.8	3.6	0.1	3383.
4294	17.8	3.4	0.1	3159.7
4295	17.8	3.2	0.1	3042.9
4296	17.8	3.	0.1	3005.2
4297	17.8	2.8	0.1	3042.9
4298	17.8	2.6	0.1	3159.7
4299	17.8	2.4	0.1	3383.
4300	17.8	2.2	0.1	3620.
4301	17.8	2.	0.1	3855.5
4302	17.8	1.8	0.1	3313.3
4303	17.8	1.6	0.1	2467.1
4304	17.8	1.4	0.1	1890.3
4305	17.8	1.2	0.1	1478.7
4306	17.8	1.	0.1	1157.2
4307	17.8	0.8	0.1	891.22
4308	17.8	0.6	0.1	663.23
4309	17.8	0.4	0.1	465.91
4310	17.8	0.2	0.1	312.62
4311	17.6	5.8	0.1	490.16
4312	17.6	5.6	0.1	580.91
4313	17.6	5.4	0.1	725.88
4314	17.6	5.2	0.1	911.52
4315	17.6	5.	0.1	1135.6
4316	17.6	4.8	0.1	1404.7
4317	17.6	4.6	0.1	1723.8
4318	17.6	4.4	0.1	2107.
4319	17.6	4.2	0.1	2478.4
4320	17.6	4.	0.1	2696.7
4321	17.6	3.8	0.1	2824.4
4322	17.6	3.6	0.1	2860.4
4323	17.6	3.4	0.1	2844.6
4324	17.6	3.2	0.1	2817.3
4325	17.6	3.	0.1	2806.2
4326	17.6	2.8	0.1	2817.3
4327	17.6	2.6	0.1	2844.6
4328	17.6	2.4	0.1	2860.4
4329	17.6	2.2	0.1	2824.4
4330	17.6	2.	0.1	2696.7
4331	17.6	1.8	0.1	2478.4
4332	17.6	1.6	0.1	2107.
4333	17.6	1.4	0.1	1723.8
4334	17.6	1.2	0.1	1404.7
4335	17.6	1.	0.1	1135.6
4336	17.6	0.8	0.1	911.52
4337	17.6	0.6	0.1	725.88
4338	17.6	0.4	0.1	580.91
4339	17.6	0.2	0.1	490.16
4340	17.4	5.8	0.1	681.53
4341	17.4	5.6	0.1	754.43
4342	17.4	5.4	0.1	868.71
4343	17.4	5.2	0.1	1020.7
4344	17.4	5.	0.1	1207.2
4345	17.4	4.8	0.1	1425.8
4346	17.4	4.6	0.1	1672.2
4347	17.4	4.4	0.1	1923.5
4348	17.4	4.2	0.1	2146.9
4349	17.4	4.	0.1	2311.5
4350	17.4	3.8	0.1	2425.6
4351	17.4	3.6	0.1	2510.1
4352	17.4	3.4	0.1	2556.7
4353	17.4	3.2	0.1	2576.1
4354	17.4	3.	0.1	2581.1
4355	17.4	2.8	0.1	2576.1
4356	17.4	2.6	0.1	2556.7
4357	17.4	2.4	0.1	2510.1
4358	17.4	2.2	0.1	2425.6
4359	17.4	2.	0.1	2311.5
4360	17.4	1.8	0.1	2146.9
4361	17.4	1.6	0.1	1923.5
4362	17.4	1.4	0.1	1672.2
4363	17.4	1.2	0.1	1425.8
4364	17.4	1.	0.1	1207.2
4365	17.4	0.8	0.1	1020.7
4366	17.4	0.6	0.1	868.71
4367	17.4	0.4	0.1	754.43
4368	17.4	0.2	0.1	681.53
4369	17.2	5.8	0.1	862.02
4370	17.2	5.6	0.1	927.9
4371	17.2	5.4	0.1	1023.
4372	17.2	5.2	0.1	1147.2
4373	17.2	5.	0.1	1298.
4374	17.2	4.8	0.1	1470.1
4375	17.2	4.6	0.1	1654.
4376	17.2	4.4	0.1	1834.3
4377	17.2	4.2	0.1	1990.
4378	17.2	4.	0.1	2114.8
4379	17.2	3.8	0.1	2211.9
4380	17.2	3.6	0.1	2287.3
4381	17.2	3.4	0.1	2341.7
4382	17.2	3.2	0.1	2373.1
4383	17.2	3.	0.1	2383.1
4384	17.2	2.8	0.1	2373.1
4385	17.2	2.6	0.1	2341.7
4386	17.2	2.4	0.1	2287.3
4387	17.2	2.2	0.1	2211.9
4388	17.2	2.	0.1	2114.8
4389	17.2	1.8	0.1	1990.
4390	17.2	1.6	0.1	1834.3
4391	17.2	1.4	0.1	1654.
4392	17.2	1.2	0.1	1470.1
4393	17.2	1.	0.1	1298.
4394	17.2	0.8	0.1	1147.2
4395	17.2	0.6	0.1	1023.
4396	17.2	0.4	0.1	927.9
4397	17.2	0.2	0.1	862.02
4398	17.	5.8	0.1	1026.9
4399	17.	5.6	0.1	1087.7
4400	17.	5.4	0.1	1168.7
4401	17.	5.2	0.1	1270.4
4402	17.	5.	0.1	1390.7
4403	17.	4.8	0.1	1524.
4404	17.	4.6	0.1	1662.1
4405	17.	4.4	0.1	1793.6
4406	17.	4.2	0.1	1909.3
4407	17.	4.	0.1	2004.9
4408	17.	3.8	0.1	2082.5
4409	17.	3.6	0.1	2145.
4410	17.	3.4	0.1	2191.9
4411	17.	3.2	0.1	2221.
4412	17.	3.	0.1	2230.8
4413	17.	2.8	0.1	2221.
4414	17.	2.6	0.1	2191.9
4415	17.	2.4	0.1	2145.
4416	17.	2.2	0.1	2082.5
4417	17.	2.	0.1	2004.9
4418	17.	1.8	0.1	1909.3
4419	17.	1.6	0.1	1793.6
4420	17.	1.4	0.1	1662.1
4421	17.	1.2	0.1	1524.
4422	17.	1.	0.1	1390.7
4423	17.	0.8	0.1	1270.4
4424	17.	0.6	0.1	1168.7
4425	17.	0.4	0.1	1087.7
4426	17.	0.2	0.1	1026.9
4427	16.8	5.8	0.1	1175.2
4428	16.8	5.6	0.1	1230.7
4429	16.8	5.4	0.1	1299.9
4430	16.8	5.2	0.1	1383.2
4431	16.8	5.	0.1	1478.6
4432	16.8	4.8	0.1	1581.6
4433	16.8	4.6	0.1	1685.9
4434	16.8	4.4	0.1	1784.4
4435	16.8	4.2	0.1	1871.6
4436	16.8	4.	0.1	1945.2
4437	16.8	3.8	0.1	2005.9
4438	16.8	3.6	0.1	2054.9
4439	16.8	3.4	0.1	2091.8
4440	16.8	3.2	0.1	2115.1
4441	16.8	3.	0.1	2123.
4442	16.8	2.8	0.1	2115.1
4443	16.8	2.6	0.1	2091.8
4444	16.8	2.4	0.1	2054.9
4445	16.8	2.2	0.1	2005.9
4446	16.8	2.	0.1	1945.2
4447	16.8	1.8	0.1	1871.6
4448	16.8	1.6	0.1	1784.4
4449	16.8	1.4	0.1	1685.9
4450	16.8	1.2	0.1	1581.6
4451	16.8	1.	0.1	1478.6
4452	16.8	0.8	0.1	1383.2
4453	16.8	0.6	0.1	1299.9
4454	16.8	0.4	0.1	1230.7
4455	16.8	0.2	0.1	1175.2
4456	16.6	5.8	0.1	1307.6
4457	16.6	5.6	0.1	1357.2
4458	16.6	5.4	0.1	1416.1
4459	16.6	5.2	0.1	1484.2
4460	16.6	5.	0.1	1559.9
4461	16.6	4.8	0.1	1639.6
4462	16.6	4.6	0.1	1719.
4463	16.6	4.4	0.1	1793.4
4464	16.6	4.2	0.1	1859.7
4465	16.6	4.	0.1	1916.2
4466	16.6	3.8	0.1	1963.
4467	16.6	3.6	0.1	2000.6
4468	16.6	3.4	0.1	2028.7
4469	16.6	3.2	0.1	2046.3
4470	16.6	3.	0.1	2052.3
4471	16.6	2.8	0.1	2046.3
4472	16.6	2.6	0.1	2028.7
4473	16.6	2.4	0.1	2000.6
4474	16.6	2.2	0.1	1963.
4475	16.6	2.	0.1	1916.2
4476	16.6	1.8	0.1	1859.7
4477	16.6	1.6	0.1	1793.4
4478	16.6	1.4	0.1	1719.
4479	16.6	1.2	0.1	1639.6
4480	16.6	1.	0.1	1559.9
4481	16.6	0.8	0.1	1484.2
4482	16.6	0.6	0.1	1416.1
4483	16.6	0.4	0.1	1357.2
4484	16.6	0.2	0.1	1307.6
4485	16.4	5.8	0.1	1425.6
4486	16.4	5.6	0.1	1469.
4487	16.4	5.4	0.1	1518.8
4488	16.4	5.2	0.1	1574.4
4489	16.4	5.	0.1	1634.5
4490	16.4	4.8	0.1	1696.5
4491	16.4	4.6	0.1	1757.3
4492	16.4	4.4	0.1	1814.
4493	16.4	4.2	0.1	1864.5
4494	16.4	4.	0.1	1907.7
4495	16.4	3.8	0.1	1943.5
4496	16.4	3.6	0.1	1972.
4497	16.4	3.4	0.1	1993.
4498	16.4	3.2	0.1	2006.
4499	16.4	3.	0.1	2010.4
4500	16.4	2.8	0.1	2006.
4501	16.4	2.6	0.1	1993.
4502	16.4	2.4	0.1	1972.
4503	16.4	2.2	0.1	1943.5
4504	16.4	2.	0.1	1907.7
4505	16.4	1.8	0.1	1864.5
4506	16.4	1.6	0.1	1814.
4507	16.4	1.4	0.1	1757.3
4508	16.4	1.2	0.1	1696.5
4509	16.4	1.	0.1	1634.5
4510	16.4	0.8	0.1	1574.4
4511	16.4	0.6	0.1	1518.8
4512	16.4	0.4	0.1	1469.
4513	16.4	0.2	0.1	1425.6
4514	16.2	5.8	0.1	1530.9
4515	16.2	5.6	0.1	1568.3
4516	16.2	5.4	0.1	1610.1
4517	16.2	5.2	0.1	1655.5
4518	16.2	5.	0.1	1703.4
4519	16.2	4.8	0.1	1751.7
4520	16.2	4.6	0.1	1798.6
4521	16.2	4.4	0.1	1842.
4522	16.2	4.2	0.1	1880.6
4523	16.2	4.	0.1	1913.5
4524	16.2	3.8	0.1	1940.7
4525	16.2	3.6	0.1	1962.1
4526	16.2	3.4	0.1	1977.8
4527	16.2	3.2	0.1	1987.3
4528	16.2	3.	0.1	1990.5
4529	16.2	2.8	0.1	1987.3
4530	16.2	2.6	0.1	1977.8
4531	16.2	2.4	0.1	1962.1
4532	16.2	2.2	0.1	1940.7
4533	16.2	2.	0.1	1913.5
4534	16.2	1.8	0.1	1880.6
4535	16.2	1.6	0.1	1842.
4536	16.2	1.4	0.1	1798.6
4537	16.2	1.2	0.1	1751.7
4538	16.2	1.	0.1	1703.4
4539	16.2	0.8	0.1	1655.5
4540	16.2	0.6	0.1	1610.1
4541	16.2	0.4	0.1	1568.3
4542	16.2	0.2	0.1	1530.9
4543	16.	5.8	0.1	1625.6
4544	16.	5.6	0.1	1657.4
4545	16.	5.4	0.1	1692.2
4546	16.	5.2	0.1	1729.3
4547	16.	5.	0.1	1767.5
4548	16.	4.8	0.1	1805.4
4549	16.	4.6	0.1	1841.7
4550	16.	4.4	0.1	1875.1
4551	16.	4.2	0.1	1904.6
4552	16.	4.	0.1	1929.7
4553	16.	3.8	0.1	1950.3
4554	16.	3.6	0.1	1966.3
4555	16.	3.4	0.1	1977.9
4556	16.	3.2	0.1	1984.9
4557	16.	3.	0.1	1987.2
4558	16.	2.8	0.1	1984.9
4559	16.	2.6	0.1	1977.9
4560	16.	2.4	0.1	1966.3
4561	16.	2.2	0.1	1950.3
4562	16.	2.	0.1	1929.7
4563	16.	1.8	0.1	1904.6
4564	16.	1.6	0.1	1875.1
4565	16.	1.4	0.1	1841.7
4566	16.	1.2	0.1	1805.4
4567	16.	1.	0.1	1767.5
4568	16.	0.8	0.1	1729.3
4569	16.	0.6	0.1	1692.2
4570	16.	0.4	0.1	1657.4
4571	16.	0.2	0.1	1625.6
4572	15.8	5.8	0.1	1711.4
4573	15.8	5.6	0.1	1738.1
4574	15.8	5.4	0.1	1767.1
4575	15.8	5.2	0.1	1797.3
4576	15.8	5.	0.1	1827.9
4577	15.8	4.8	0.1	1857.8
4578	15.8	4.6	0.1	1886.1
4579	15.8	4.4	0.1	1911.8
4580	15.8	4.2	0.1	1934.4
4581	15.8	4.	0.1	1953.5
4582	15.8	3.8	0.1	1969.
4583	15.8	3.6	0.1	1981.
4584	15.8	3.4	0.1	1989.6
4585	15.8	3.2	0.1	1994.7
4586	15.8	3.	0.1	1996.5
4587	15.8	2.8	0.1	1994.7
4588	15.8	2.6	0.1	1989.6
4589	15.8	2.4	0.1	1981.
4590	15.8	2.2	0.1	1969.
4591	15.8	2.	0.1	1953.5
4592	15.8	1.8	0.1	1934.4
4593	15.8	1.6	0.1	1911.8
4594	15.8	1.4	0.1	1886.1
4595	15.8	1.2	0.1	1857.8
4596	15.8	1.	0.1	1827.9
4597	15.8	0.8	0.1	1797.3
4598	15.8	0.6	0.1	1767.1
4599	15.8	0.4	0.1	1738.1
4600	15.8	0.2	0.1	1711.4
4601	15.6	5.8	0.1	1790.1
4602	15.6	5.6	0.1	1812.3
4603	15.6	5.4	0.1	1836.3
4604	15.6	5.2	0.1	1860.9
4605	15.6	5.	0.1	1885.5
4606	15.6	4.8	0.1	1909.1
4607	15.6	4.6	0.1	1931.2
4608	15.6	4.4	0.1	1951.1
4609	15.6	4.2	0.1	1968.5
4610	15.6	4.	0.1	1983.
4611	15.6	3.8	0.1	1994.8
4612	15.6	3.6	0.1	2003.8
4613	15.6	3.4	0.1	2010.1
4614	15.6	3.2	0.1	2013.9
4615	15.6	3.	0.1	2015.2
4616	15.6	2.8	0.1	2013.9
4617	15.6	2.6	0.1	2010.1
4618	15.6	2.4	0.1	2003.8
4619	15.6	2.2	0.1	1994.8
4620	15.6	2.	0.1	1983.
4621	15.6	1.8	0.1	1968.5
4622	15.6	1.6	0.1	1951.1
4623	15.6	1.4	0.1	1931.2
4624	15.6	1.2	0.1	1909.1
4625	15.6	1.	0.1	1885.5
4626	15.6	0.8	0.1	1860.9
4627	15.6	0.6	0.1	1836.3
4628	15.6	0.4	0.1	1812.3
4629	15.6	0.2	0.1	1790.1
4630	15.4	5.8	0.1	1863.1
4631	15.4	5.6	0.1	1881.3
4632	15.4	5.4	0.1	1901.1
4633	15.4	5.2	0.1	1921.2
4634	15.4	5.	0.1	1941.
4635	15.4	4.8	0.1	1959.7
4636	15.4	4.6	0.1	1977.1
4637	15.4	4.4	0.1	1992.5
4638	15.4	4.2	0.1	2005.9
4639	15.4	4.	0.1	2017.
4640	15.4	3.8	0.1	2025.9
4641	15.4	3.6	0.1	2032.6
4642	15.4	3.4	0.1	2037.4
4643	15.4	3.2	0.1	2040.1
4644	15.4	3.	0.1	2041.1
4645	15.4	2.8	0.1	2040.1
4646	15.4	2.6	0.1	2037.4
4647	15.4	2.4	0.1	2032.6
4648	15.4	2.2	0.1	2025.9
4649	15.4	2.	0.1	2017.
4650	15.4	1.8	0.1	2005.9
4651	15.4	1.6	0.1	1992.5
4652	15.4	1.4	0.1	1977.1
4653	15.4	1.2	0.1	1959.7
4654	15.4	1.	0.1	1941.
4655	15.4	0.8	0.1	1921.2
4656	15.4	0.6	0.1	1901.1
4657	15.4	0.4	0.1	1881.3
4658	15.4	0.2	0.1	1863.1
4659	15.2	5.8	0.1	1931.4
4660	15.2	5.6	0.1	1946.3
4661	15.2	5.4	0.1	1962.6
4662	15.2	5.2	0.1	1979.
4663	15.2	5.	0.1	1994.9
4664	15.2	4.8	0.1	2009.9
4665	15.2	4.6	0.1	2023.5
4666	15.2	4.4	0.1	2035.6
4667	15.2	4.2	0.1	2045.9
4668	15.2	4.	0.1	2054.4
4669	15.2	3.8	0.1	2061.2
4670	15.2	3.6	0.1	2066.2
4671	15.2	3.4	0.1	2069.8
4672	15.2	3.2	0.1	2071.8
4673	15.2	3.	0.1	2072.5
4674	15.2	2.8	0.1	2071.8
4675	15.2	2.6	0.1	2069.8
4676	15.2	2.4	0.1	2066.2
4677	15.2	2.2	0.1	2061.2
4678	15.2	2.	0.1	2054.4
4679	15.2	1.8	0.1	2045.9
4680	15.2	1.6	0.1	2035.6
4681	15.2	1.4	0.1	2023.5
4682	15.2	1.2	0.1	2009.9
4683	15.2	1.	0.1	1994.9
4684	15.2	0.8	0.1	1979.
4685	15.2	0.6	0.1	1962.6
4686	15.2	0.4	0.1	1946.3
4687	15.2	0.2	0.1	1931.4
4688	15.	5.8	0.1	1996.2
4689	15.	5.6	0.1	2008.1
4690	15.	5.4	0.1	2021.6
4691	15.	5.2	0.1	2034.9
4692	15.	5.	0.1	2047.8
4693	15.	4.8	0.1	2059.7
4694	15.	4.6	0.1	2070.5
4695	15.	4.4	0.1	2080.
4696	15.	4.2	0.1	2088.
4697	15.	4.	0.1	2094.5
4698	15.	3.8	0.1	2099.7
4699	15.	3.6	0.1	2103.5
4700	15.	3.4	0.1	2106.1
4701	15.	3.2	0.1	2107.7
4702	15.	3.	0.1	2108.2
4703	15.	2.8	0.1	2107.7
4704	15.	2.6	0.1	2106.1
4705	15.	2.4	0.1	2103.5
4706	15.	2.2	0.1	2099.7
4707	15.	2.	0.1	2094.5
4708	15.	1.8	0.1	2088.
4709	15.	1.6	0.1	2080.
4710	15.	1.4	0.1	2070.5
4711	15.	1.2	0.1	2059.7
4712	15.	1.	0.1	2047.8
4713	15.	0.8	0.1	2034.9
4714	15.	0.6	0.1	2021.6
4715	15.	0.4	0.1	2008.1
4716	15.	0.2	0.1	1996.2
4717	14.8	5.8	0.1	2058.1
4718	14.8	5.6	0.1	2067.6
4719	14.8	5.4	0.1	2078.6
4720	14.8	5.2	0.1	2089.5
4721	14.8	5.	0.1	2099.9
4722	14.8	4.8	0.1	2109.5
4723	14.8	4.6	0.1	2118.1
4724	14.8	4.4	0.1	2125.5
4725	14.8	4.2	0.1	2131.7
4726	14.8	4.	0.1	2136.8
4727	14.8	3.8	0.1	2140.7
4728	14.8	3.6	0.1	2143.6
4729	14.8	3.4	0.1	2145.6
4730	14.8	3.2	0.1	2146.7
4731	14.8	3.	0.1	2147.1
4732	14.8	2.8	0.1	2146.7
4733	14.8	2.6	0.1	2145.6
4734	14.8	2.4	0.1	2143.6
4735	14.8	2.2	0.1	2140.7
4736	14.8	2.	0.1	2136.8
4737	14.8	1.8	0.1	2131.7
4738	14.8	1.6	0.1	2125.5
4739	14.8	1.4	0.1	2118.1
4740	14.8	1.2	0.1	2109.5
4741	14.8	1.	0.1	2099.9
4742	14.8	0.8	0.1	2089.5
4743	14.8	0.6	0.1	2078.6
4744	14.8	0.4	0.1	2067.6
4745	14.8	0.2	0.1	2058.1
4746	14.6	5.8	0.1	2117.9
4747	14.6	5.6	0.1	2125.4
4748	14.6	5.4	0.1	2134.3
4749	14.6	5.2	0.1	2143.2
4750	14.6	5.	0.1	2151.6
4751	14.6	4.8	0.1	2159.3
4752	14.6	4.6	0.1	2166.1
4753	14.6	4.4	0.1	2172.
4754	14.6	4.2	0.1	2176.8
4755	14.6	4.	0.1	2180.8
4756	14.6	3.8	0.1	2183.8
4757	14.6	3.6	0.1	2186.
4758	14.6	3.4	0.1	2187.5
4759	14.6	3.2	0.1	2188.3
4760	14.6	3.	0.1	2188.6
4761	14.6	2.8	0.1	2188.3
4762	14.6	2.6	0.1	2187.5
4763	14.6	2.4	0.1	2186.
4764	14.6	2.2	0.1	2183.8
4765	14.6	2.	0.1	2180.8
4766	14.6	1.8	0.1	2176.8
4767	14.6	1.6	0.1	2172.
4768	14.6	1.4	0.1	2166.1
4769	14.6	1.2	0.1	2159.3
4770	14.6	1.	0.1	2151.6
4771	14.6	0.8	0.1	2143.2
4772	14.6	0.6	0.1	2134.3
4773	14.6	0.4	0.1	2125.4
4774	14.6	0.2	0.1	2117.9
4775	14.4	5.8	0.1	2176.
4776	14.4	5.6	0.1	2181.7
4777	14.4	5.4	0.1	2189.
4778	14.4	5.2	0.1	2196.2
4779	14.4	5.	0.1	2203.
4780	14.4	4.8	0.1	2209.2
4781	14.4	4.6	0.1	2214.6
4782	14.4	4.4	0.1	2219.3
4783	14.4	4.2	0.1	2223.1
4784	14.4	4.	0.1	2226.1
4785	14.4	3.8	0.1	2228.5
4786	14.4	3.6	0.1	2230.1
4787	14.4	3.4	0.1	2231.3
4788	14.4	3.2	0.1	2231.9
4789	14.4	3.	0.1	2232.1
4790	14.4	2.8	0.1	2231.9
4791	14.4	2.6	0.1	2231.3
4792	14.4	2.4	0.1	2230.1
4793	14.4	2.2	0.1	2228.5
4794	14.4	2.	0.1	2226.1
4795	14.4	1.8	0.1	2223.1
4796	14.4	1.6	0.1	2219.3
4797	14.4	1.4	0.1	2214.6
4798	14.4	1.2	0.1	2209.2
4799	14.4	1.	0.1	2203.
4800	14.4	0.8	0.1	2196.2
4801	14.4	0.6	0.1	2189.
4802	14.4	0.4	0.1	2181.7
4803	14.4	0.2	0.1	2176.
4804	14.2	5.8	0.1	2232.8
4805	14.2	5.6	0.1	2237.1
4806	14.2	5.4	0.1	2243.
4807	14.2	5.2	0.1	2248.8
4808	14.2	5.	0.1	2254.3
4809	14.2	4.8	0.1	2259.2
4810	14.2	4.6	0.1	2263.6
4811	14.2	4.4	0.1	2267.2
4812	14.2	4.2	0.1	2270.3
4813	14.2	4.	0.1	2272.6
4814	14.2	3.8	0.1	2274.4
4815	14.2	3.6	0.1	2275.7
4816	14.2	3.4	0.1	2276.6
4817	14.2	3.2	0.1	2277.1
4818	14.2	3.	0.1	2277.2
4819	14.2	2.8	0.1	2277.1
4820	14.2	2.6	0.1	2276.6
4821	14.2	2.4	0.1	2275.7
4822	14.2	2.2	0.1	2274.4
4823	14.2	2.	0.1	2272.6
4824	14.2	1.8	0.1	2270.3
4825	14.2	1.6	0.1	2267.2
4826	14.2	1.4	0.1	2263.6
4827	14.2	1.2	0.1	2259.2
4828	14.2	1.	0.1	2254.3
4829	14.2	0.8	0.1	2248.8
4830	14.2	0.6	0.1	2243.
4831	14.2	0.4	0.1	2237.1
4832	14.2	0.2	0.1	2232.8
4833	14.	5.8	0.1	2288.7
4834	14.	5.6	0.1	2291.8
4835	14.	5.4	0.1	2296.5
4836	14.	5.2	0.1	2301.2
4837	14.	5.	0.1	2305.6
4838	14.	4.8	0.1	2309.5
4839	14.	4.6	0.1	2313.
4840	14.	4.4	0.1	2315.9
4841	14.	4.2	0.1	2318.2
4842	14.	4.	0.1	2320.1
4843	14.	3.8	0.1	2321.5
4844	14.	3.6	0.1	2322.5
4845	14.	3.4	0.1	2323.1
4846	14.	3.2	0.1	2323.5
4847	14.	3.	0.1	2323.6
4848	14.	2.8	0.1	2323.5
4849	14.	2.6	0.1	2323.1
4850	14.	2.4	0.1	2322.5
4851	14.	2.2	0.1	2321.5
4852	14.	2.	0.1	2320.1
4853	14.	1.8	0.1	2318.2
4854	14.	1.6	0.1	2315.9
4855	14.	1.4	0.1	2313.
4856	14.	1.2	0.1	2309.5
4857	14.	1.	0.1	2305.6
4858	14.	0.8	0.1	2301.2
4859	14.	0.6	0.1	2296.5
4860	14.	0.4	0.1	2291.8
4861	14.	0.2	0.1	2288.7
4862	13.8	5.8	0.1	2344.
4863	13.8	5.6	0.1	2346.
4864	13.8	5.4	0.1	2349.7
4865	13.8	5.2	0.1	2353.4
4866	13.8	5.	0.1	2356.9
4867	13.8	4.8	0.1	2360.
4868	13.8	4.6	0.1	2362.8
4869	13.8	4.4	0.1	2365.
4870	13.8	4.2	0.1	2366.9
4871	13.8	4.	0.1	2368.3
4872	13.8	3.8	0.1	2369.4
4873	13.8	3.6	0.1	2370.1
4874	13.8	3.4	0.1	2370.6
4875	13.8	3.2	0.1	2370.9
4876	13.8	3.	0.1	2371.
4877	13.8	2.8	0.1	2370.9
4878	13.8	2.6	0.1	2370.6
4879	13.8	2.4	0.1	2370.1
4880	13.8	2.2	0.1	2369.4
4881	13.8	2.	0.1	2368.3
4882	13.8	1.8	0.1	2366.9
4883	13.8	1.6	0.1	2365.
4884	13.8	1.4	0.1	2362.8
4885	13.8	1.2	0.1	2360.
4886	13.8	1.	0.1	2356.9
4887	13.8	0.8	0.1	2353.4
4888	13.8	0.6	0.1	2349.7
4889	13.8	0.4	0.1	2346.
4890	13.8	0.2	0.1	2344.
4891	13.6	5.8	0.1	2398.7
4892	13.6	5.6	0.1	2399.8
4893	13.6	5.4	0.1	2402.7
4894	13.6	5.2	0.1	2405.6
4895	13.6	5.	0.1	2408.4
4896	13.6	4.8	0.1	2410.8
4897	13.6	4.6	0.1	2412.9
4898	13.6	4.4	0.1	2414.7
4899	13.6	4.2	0.1	2416.1
4900	13.6	4.	0.1	2417.2
4901	13.6	3.8	0.1	2418.
4902	13.6	3.6	0.1	2418.6
4903	13.6	3.4	0.1	2419.
4904	13.6	3.2	0.1	2419.2
4905	13.6	3.	0.1	2419.2
4906	13.6	2.8	0.1	2419.2
4907	13.6	2.6	0.1	2419.
4908	13.6	2.4	0.1	2418.6
4909	13.6	2.2	0.1	2418.
4910	13.6	2.	0.1	2417.2
4911	13.6	1.8	0.1	2416.1
4912	13.6	1.6	0.1	2414.7
4913	13.6	1.4	0.1	2412.9
4914	13.6	1.2	0.1	2410.8
4915	13.6	1.	0.1	2408.4
4916	13.6	0.8	0.1	2405.6
4917	13.6	0.6	0.1	2402.7
4918	13.6	0.4	0.1	2399.8
4919	13.6	0.2	0.1	2398.7
4920	13.4	5.8	0.1	2453.1
4921	13.4	5.6	0.1	2453.5
4922	13.4	5.4	0.1	2455.7
4923	13.4	5.2	0.1	2457.9
4924	13.4	5.	0.1	2460.
4925	13.4	4.8	0.1	2461.9
4926	13.4	4.6	0.1	2463.5
4927	13.4	4.4	0.1	2464.8
4928	13.4	4.2	0.1	2465.9
4929	13.4	4.	0.1	2466.7
4930	13.4	3.8	0.1	2467.3
4931	13.4	3.6	0.1	2467.7
4932	13.4	3.4	0.1	2468.
4933	13.4	3.2	0.1	2468.1
4934	13.4	3.	0.1	2468.2
4935	13.4	2.8	0.1	2468.1
4936	13.4	2.6	0.1	2468.
4937	13.4	2.4	0.1	2467.7
4938	13.4	2.2	0.1	2467.3
4939	13.4	2.	0.1	2466.7
4940	13.4	1.8	0.1	2465.9
4941	13.4	1.6	0.1	2464.8
4942	13.4	1.4	0.1	2463.5
4943	13.4	1.2	0.1	2461.9
4944	13.4	1.	0.1	2460.
4945	13.4	0.8	0.1	2457.9
4946	13.4	0.6	0.1	2455.7
4947	13.4	0.4	0.1	2453.5
4948	13.4	0.2	0.1	2453.1
4949	13.2	5.8	0.1	2507.3
4950	13.2	5.6	0.1	2507.
4951	13.2	5.4	0.1	2508.6
4952	13.2	5.2	0.1	2510.2
4953	13.2	5.	0.1	2511.8
4954	13.2	4.8	0.1	2513.2
4955	13.2	4.6	0.1	2514.4
4956	13.2	4.4	0.1	2515.4
4957	13.2	4.2	0.1	2516.1
4958	13.2	4.	0.1	2516.7
4959	13.2	3.8	0.1	2517.1
4960	13.2	3.6	0.1	2517.4
4961	13.2	3.4	0.1	2517.6
4962	13.2	3.2	0.1	2517.7
4963	13.2	3.	0.1	2517.7
4964	13.2	2.8	0.1	2517.7
4965	13.2	2.6	0.1	2517.6
4966	13.2	2.4	0.1	2517.4
4967	13.2	2.2	0.1	2517.1
4968	13.2	2.	0.1	2516.7
4969	13.2	1.8	0.1	2516.1
4970	13.2	1.6	0.1	2515.4
4971	13.2	1.4	0.1	2514.4
4972	13.2	1.2	0.1	2513.2
4973	13.2	1.	0.1	2511.8
4974	13.2	0.8	0.1	2510.2
4975	13.2	0.6	0.1	2508.6
4976	13.2	0.4	0.1	2507.
4977	13.2	0.2	0.1	2507.3
4978	13.	5.8	0.1	2561.3
4979	13.	5.6	0.1	2560.6
4980	13.	5.4	0.1	2561.6
4981	13.	5.2	0.1	2562.7
4982	13.	5.	0.1	2563.8
4983	13.	4.8	0.1	2564.8
4984	13.	4.6	0.1	2565.6
4985	13.	4.4	0.1	2566.2
4986	13.	4.2	0.1	2566.8
4987	13.	4.	0.1	2567.1
4988	13.	3.8	0.1	2567.4
4989	13.	3.6	0.1	2567.6
4990	13.	3.4	0.1	2567.7
4991	13.	3.2	0.1	2567.7
4992	13.	3.	0.1	2567.7
4993	13.	2.8	0.1	2567.7
4994	13.	2.6	0.1	2567.7
4995	13.	2.4	0.1	2567.6
4996	13.	2.2	0.1	2567.4
4997	13.	2.	0.1	2567.1
4998	13.	1.8	0.1	2566.8
4999	13.	1.6	0.1	2566.2
5000	13.	1.4	0.1	2565.6
5001	13.	1.2	0.1	2564.8
5002	13.	1.	0.1	2563.8
5003	13.	0.8	0.1	2562.7
5004	13.	0.6	0.1	2561.6
5005	13.	0.4	0.1	2560.6
5006	13.	0.2	0.1	2561.3
5007	12.8	5.8	0.1	2615.4
5008	12.8	5.6	0.1	2614.1
5009	12.8	5.4	0.1	2614.7
5010	12.8	5.2	0.1	2615.3
5011	12.8	5.	0.1	2616.
5012	12.8	4.8	0.1	2616.6
5013	12.8	4.6	0.1	2617.1
5014	12.8	4.4	0.1	2617.5
5015	12.8	4.2	0.1	2617.8
5016	12.8	4.	0.1	2618.
5017	12.8	3.8	0.1	2618.1
5018	12.8	3.6	0.1	2618.1
5019	12.8	3.4	0.1	2618.2
5020	12.8	3.2	0.1	2618.2
5021	12.8	3.	0.1	2618.2
5022	12.8	2.8	0.1	2618.2
5023	12.8	2.6	0.1	2618.2
5024	12.8	2.4	0.1	2618.1
5025	12.8	2.2	0.1	2618.1
5026	12.8	2.	0.1	2618.
5027	12.8	1.8	0.1	2617.8
5028	12.8	1.6	0.1	2617.5
5029	12.8	1.4	0.1	2617.1
5030	12.8	1.2	0.1	2616.6
5031	12.8	1.	0.1	2616.
5032	12.8	0.8	0.1	2615.3
5033	12.8	0.6	0.1	2614.7
5034	12.8	0.4	0.1	2614.1
5035	12.8	0.2	0.1	2615.4
5036	12.6	5.8	0.1	2669.4
5037	12.6	5.6	0.1	2667.7
5038	12.6	5.4	0.1	2667.9
5039	12.6	5.2	0.1	2668.1
5040	12.6	5.	0.1	2668.4
5041	12.6	4.8	0.1	2668.7
5042	12.6	4.6	0.1	2668.9
5043	12.6	4.4	0.1	2669.
5044	12.6	4.2	0.1	2669.1
5045	12.6	4.	0.1	2669.1
5046	12.6	3.8	0.1	2669.1
5047	12.6	3.6	0.1	2669.1
5048	12.6	3.4	0.1	2669.1
5049	12.6	3.2	0.1	2669.
5050	12.6	3.	0.1	2669.
5051	12.6	2.8	0.1	2669.
5052	12.6	2.6	0.1	2669.1
5053	12.6	2.4	0.1	2669.1
5054	12.6	2.2	0.1	2669.1
5055	12.6	2.	0.1	2669.1
5056	12.6	1.8	0.1	2669.1
5057	12.6	1.6	0.1	2669.
5058	12.6	1.4	0.1	2668.9
5059	12.6	1.2	0.1	2668.7
5060	12.6	1.	0.1	2668.4
5061	12.6	0.8	0.1	2668.1
5062	12.6	0.6	0.1	2667.9
5063	12.6	0.4	0.1	2667.7
5064	12.6	0.2	0.1	2669.4
5065	12.4	5.8	0.1	2723.5
5066	12.4	5.6	0.1	2721.4
5067	12.4	5.4	0.1	2721.2
5068	12.4	5.2	0.1	2721.1
5069	12.4	5.	0.1	2721.1
5070	12.4	4.8	0.1	2721.
5071	12.4	4.6	0.1	2721.
5072	12.4	4.4	0.1	2720.9
5073	12.4	4.2	0.1	2720.8
5074	12.4	4.	0.1	2720.6
5075	12.4	3.8	0.1	2720.5
5076	12.4	3.6	0.1	2720.4
5077	12.4	3.4	0.1	2720.3
5078	12.4	3.2	0.1	2720.2
5079	12.4	3.	0.1	2720.2
5080	12.4	2.8	0.1	2720.2
5081	12.4	2.6	0.1	2720.3
5082	12.4	2.4	0.1	2720.4
5083	12.4	2.2	0.1	2720.5
5084	12.4	2.	0.1	2720.6
5085	12.4	1.8	0.1	2720.8
5086	12.4	1.6	0.1	2720.9
5087	12.4	1.4	0.1	2721.
5088	12.4	1.2	0.1	2721.
5089	12.4	1.	0.1	2721.1
5090	12.4	0.8	0.1	2721.1
5091	12.4	0.6	0.1	2721.2
5092	12.4	0.4	0.1	2721.4
5093	12.4	0.2	0.1	2723.5
5094	12.2	5.8	0.1	2777.7
5095	12.2	5.6	0.1	2775.3
5096	12.2	5.4	0.1	2774.7
5097	12.2	5.2	0.1	2774.3
5098	12.2	5.	0.1	2774.
5099	12.2	4.8	0.1	2773.6
5100	12.2	4.6	0.1	2773.3
5101	12.2	4.4	0.1	2773.
5102	12.2	4.2	0.1	2772.7
5103	12.2	4.	0.1	2772.4
5104	12.2	3.8	0.1	2772.2
5105	12.2	3.6	0.1	2772.
5106	12.2	3.4	0.1	2771.8
5107	12.2	3.2	0.1	2771.7
5108	12.2	3.	0.1	2771.7
5109	12.2	2.8	0.1	2771.7
5110	12.2	2.6	0.1	2771.8
5111	12.2	2.4	0.1	2772.
5112	12.2	2.2	0.1	2772.2
5113	12.2	2.	0.1	2772.4
5114	12.2	1.8	0.1	2772.7
5115	12.2	1.6	0.1	2773.
5116	12.2	1.4	0.1	2773.3
5117	12.2	1.2	0.1	2773.6
5118	12.2	1.	0.1	2774.
5119	12.2	0.8	0.1	2774.3
5120	12.2	0.6	0.1	2774.7
5121	12.2	0.4	0.1	2775.3
5122	12.2	0.2	0.1	2777.7
5123	12.	5.8	0.1	2832.
5124	12.	5.6	0.1	2829.3
5125	12.	5.4	0.1	2828.4
5126	12.	5.2	0.1	2827.7
5127	12.	5.	0.1	2827.1
5128	12.	4.8	0.1	2826.5
5129	12.	4.6	0.1	2825.9
5130	12.	4.4	0.1	2825.4
5131	12.	4.2	0.1	2824.9
5132	12.	4.	0.1	2824.5
5133	12.	3.8	0.1	2824.2
5134	12.	3.6	0.1	2823.9
5135	12.	3.4	0.1	2823.6
5136	12.	3.2	0.1	2823.5
5137	12.	3.	0.1	2823.5
5138	12.	2.8	0.1	2823.5
5139	12.	2.6	0.1	2823.6
5140	12.	2.4	0.1	2823.9
5141	12.	2.2	0.1	2824.2
5142	12.	2.	0.1	2824.5
5143	12.	1.8	0.1	2824.9
5144	12.	1.6	0.1	2825.4
5145	12.	1.4	0.1	2825.9
5146	12.	1.2	0.1	2826.5
5147	12.	1.	0.1	2827.1
5148	12.	0.8	0.1	2827.7
5149	12.	0.6	0.1	2828.4
5150	12.	0.4	0.1	2829.3
5151	12.	0.2	0.1	2832.
5152	11.8	5.8	0.1	2886.5
5153	11.8	5.6	0.1	2883.5
5154	11.8	5.4	0.1	2882.3
5155	11.8	5.2	0.1	2881.3
5156	11.8	5.	0.1	2880.4
5157	11.8	4.8	0.1	2879.5
5158	11.8	4.6	0.1	2878.7
5159	11.8	4.4	0.1	2878.
5160	11.8	4.2	0.1	2877.4
5161	11.8	4.	0.1	2876.8
5162	11.8	3.8	0.1	2876.4
5163	11.8	3.6	0.1	2876.
5164	11.8	3.4	0.1	2875.7
5165	11.8	3.2	0.1	2875.5
5166	11.8	3.	0.1	2875.5
5167	11.8	2.8	0.1	2875.5
5168	11.8	2.6	0.1	2875.7
5169	11.8	2.4	0.1	2876.
5170	11.8	2.2	0.1	2876.4
5171	11.8	2.	0.1	2876.8
5172	11.8	1.8	0.1	2877.4
5173	11.8	1.6	0.1	2878.
5174	11.8	1.4	0.1	2878.7
5175	11.8	1.2	0.1	2879.5
5176	11.8	1.	0.1	2880.4
5177	11.8	0.8	0.1	2881.3
5178	11.8	0.6	0.1	2882.3
5179	11.8	0.4	0.1	2883.5
5180	11.8	0.2	0.1	2886.5
5181	11.6	5.8	0.1	2941.2
5182	11.6	5.6	0.1	2937.9
5183	11.6	5.4	0.1	2936.4
5184	11.6	5.2	0.1	2935.1
5185	11.6	5.	0.1	2933.9
5186	11.6	4.8	0.1	2932.8
5187	11.6	4.6	0.1	2931.8
5188	11.6	4.4	0.1	2930.9
5189	11.6	4.2	0.1	2930.1
5190	11.6	4.	0.1	2929.4
5191	11.6	3.8	0.1	2928.8
5192	11.6	3.6	0.1	2928.3
5193	11.6	3.4	0.1	2928.
5194	11.6	3.2	0.1	2927.8
5195	11.6	3.	0.1	2927.7
5196	11.6	2.8	0.1	2927.8
5197	11.6	2.6	0.1	2928.
5198	11.6	2.4	0.1	2928.3
5199	11.6	2.2	0.1	2928.8
5200	11.6	2.	0.1	2929.4
5201	11.6	1.8	0.1	2930.1
5202	11.6	1.6	0.1	2930.9
5203	11.6	1.4	0.1	2931.8
5204	11.6	1.2	0.1	2932.8
5205	11.6	1.	0.1	2933.9
5206	11.6	0.8	0.1	2935.1
5207	11.6	0.6	0.1	2936.4
5208	11.6	0.4	0.1	2937.9
5209	11.6	0.2	0.1	2941.2
5210	11.4	5.8	0.1	2996.
5211	11.4	5.6	0.1	2992.4
5212	11.4	5.4	0.1	2990.6
5213	11.4	5.2	0.1	2989.1
5214	11.4	5.	0.1	2987.6
5215	11.4	4.8	0.1	2986.3
5216	11.4	4.6	0.1	2985.1
5217	11.4	4.4	0.1	2984.
5218	11.4	4.2	0.1	2983.
5219	11.4	4.	0.1	2982.1
5220	11.4	3.8	0.1	2981.4
5221	11.4	3.6	0.1	2980.9
5222	11.4	3.4	0.1	2980.5
5223	11.4	3.2	0.1	2980.2
5224	11.4	3.	0.1	2980.1
5225	11.4	2.8	0.1	2980.2
5226	11.4	2.6	0.1	2980.5
5227	11.4	2.4	0.1	2980.9
5228	11.4	2.2	0.1	2981.4
5229	11.4	2.	0.1	2982.1
5230	11.4	1.8	0.1	2983.
5231	11.4	1.6	0.1	2984.
5232	11.4	1.4	0.1	2985.1
5233	11.4	1.2	0.1	2986.3
5234	11.4	1.	0.1	2987.6
5235	11.4	0.8	0.1	2989.1
5236	11.4	0.6	0.1	2990.6
5237	11.4	0.4	0.1	2992.4
5238	11.4	0.2	0.1	2996.
5239	11.2	5.8	0.1	3051.1
5240	11.2	5.6	0.1	3047.2
5241	11.2	5.4	0.1	3045.1
5242	11.2	5.2	0.1	3043.3
5243	11.2	5.	0.1	3041.6
5244	11.2	4.8	0.1	3040.
5245	11.2	4.6	0.1	3038.5
5246	11.2	4.4	0.1	3037.2
5247	11.2	4.2	0.1	3036.1
5248	11.2	4.	0.1	3035.1
5249	11.2	3.8	0.1	3034.3
5250	11.2	3.6	0.1	3033.6
5251	11.2	3.4	0.1	3033.1
5252	11.2	3.2	0.1	3032.9
5253	11.2	3.	0.1	3032.8
5254	11.2	2.8	0.1	3032.9
5255	11.2	2.6	0.1	3033.1
5256	11.2	2.4	0.1	3033.6
5257	11.2	2.2	0.1	3034.3
5258	11.2	2.	0.1	3035.1
5259	11.2	1.8	0.1	3036.1
5260	11.2	1.6	0.1	3037.2
5261	11.2	1.4	0.1	3038.5
5262	11.2	1.2	0.1	3040.
5263	11.2	1.	0.1	3041.6
5264	11.2	0.8	0.1	3043.3
5265	11.2	0.6	0.1	3045.1
5266	11.2	0.4	0.1	3047.2
5267	11.2	0.2	0.1	3051.1
5268	11.	5.8	0.1	3106.3
5269	11.	5.6	0.1	3102.2
5270	11.	5.4	0.1	3099.8
5271	11.	5.2	0.1	3097.7
5272	11.	5.	0.1	3095.7
5273	11.	4.8	0.1	3093.9
5274	11.	4.6	0.1	3092.2
5275	11.	4.4	0.1	3090.7
5276	11.	4.2	0.1	3089.4
5277	11.	4.	0.1	3088.2
5278	11.	3.8	0.1	3087.3
5279	11.	3.6	0.1	3086.5
5280	11.	3.4	0.1	3086.
5281	11.	3.2	0.1	3085.7
5282	11.	3.	0.1	3085.5
5283	11.	2.8	0.1	3085.7
5284	11.	2.6	0.1	3086.
5285	11.	2.4	0.1	3086.5
5286	11.	2.2	0.1	3087.3
5287	11.	2.	0.1	3088.2
5288	11.	1.8	0.1	3089.4
5289	11.	1.6	0.1	3090.7
5290	11.	1.4	0.1	3092.2
5291	11.	1.2	0.1	3093.9
5292	11.	1.	0.1	3095.7
5293	11.	0.8	0.1	3097.7
5294	11.	0.6	0.1	3099.8
5295	11.	0.4	0.1	3102.2
5296	11.	0.2	0.1	3106.3
5297	10.8	5.8	0.1	3161.8
5298	10.8	5.6	0.1	3157.4
5299	10.8	5.4	0.1	3154.7
5300	10.8	5.2	0.1	3152.3
5301	10.8	5.	0.1	3150.
5302	10.8	4.8	0.1	3147.9
5303	10.8	4.6	0.1	3146.
5304	10.8	4.4	0.1	3144.3
5305	10.8	4.2	0.1	3142.8
5306	10.8	4.	0.1	3141.5
5307	10.8	3.8	0.1	3140.4
5308	10.8	3.6	0.1	3139.6
5309	10.8	3.4	0.1	3139.
5310	10.8	3.2	0.1	3138.6
5311	10.8	3.	0.1	3138.5
5312	10.8	2.8	0.1	3138.6
5313	10.8	2.6	0.1	3139.
5314	10.8	2.4	0.1	3139.6
5315	10.8	2.2	0.1	3140.4
5316	10.8	2.	0.1	3141.5
5317	10.8	1.8	0.1	3142.8
5318	10.8	1.6	0.1	3144.3
5319	10.8	1.4	0.1	3146.
5320	10.8	1.2	0.1	3147.9
5321	10.8	1.	0.1	3150.
5322	10.8	0.8	0.1	3152.3
5323	10.8	0.6	0.1	3154.7
5324	10.8	0.4	0.1	3157.4
5325	10.8	0.2	0.1	3161.8
5326	10.6	5.8	0.1	3217.5
5327	10.6	5.6	0.1	3212.8
5328	10.6	5.4	0.1	3209.8
5329	10.6	5.2	0.1	3207.1
5330	10.6	5.	0.1	3204.6
5331	10.6	4.8	0.1	3202.2
5332	10.6	4.6	0.1	3200.1
5333	10.6	4.4	0.1	3198.1
5334	10.6	4.2	0.1	3196.4
5335	10.6	4.	0.1	3195.
5336	10.6	3.8	0.1	3193.7
5337	10.6	3.6	0.1	3192.8
5338	10.6	3.4	0.1	3192.1
5339	10.6	3.2	0.1	3191.7
5340	10.6	3.	0.1	3191.5
5341	10.6	2.8	0.1	3191.7
5342	10.6	2.6	0.1	3192.1
5343	10.6	2.4	0.1	3192.8
5344	10.6	2.2	0.1	3193.7
5345	10.6	2.	0.1	3195.
5346	10.6	1.8	0.1	3196.4
5347	10.6	1.6	0.1	3198.1
5348	10.6	1.4	0.1	3200.1
5349	10.6	1.2	0.1	3202.2
5350	10.6	1.	0.1	3204.6
5351	10.6	0.8	0.1	3207.1
5352	10.6	0.6	0.1	3209.8
5353	10.6	0.4	0.1	3212.8
5354	10.6	0.2	0.1	3217.5
5355	10.4	5.8	0.1	3273.4
5356	10.4	5.6	0.1	3268.4
5357	10.4	5.4	0.1	3265.1
5358	10.4	5.2	0.1	3262.1
5359	10.4	5.	0.1	3259.3
5360	10.4	4.8	0.1	3256.6
5361	10.4	4.6	0.1	3254.2
5362	10.4	4.4	0.1	3252.1
5363	10.4	4.2	0.1	3250.2
5364	10.4	4.	0.1	3248.5
5365	10.4	3.8	0.1	3247.2
5366	10.4	3.6	0.1	3246.1
5367	10.4	3.4	0.1	3245.3
5368	10.4	3.2	0.1	3244.9
5369	10.4	3.	0.1	3244.7
5370	10.4	2.8	0.1	3244.9
5371	10.4	2.6	0.1	3245.3
5372	10.4	2.4	0.1	3246.1
5373	10.4	2.2	0.1	3247.2
5374	10.4	2.	0.1	3248.5
5375	10.4	1.8	0.1	3250.2
5376	10.4	1.6	0.1	3252.1
5377	10.4	1.4	0.1	3254.2
5378	10.4	1.2	0.1	3256.6
5379	10.4	1.	0.1	3259.3
5380	10.4	0.8	0.1	3262.1
5381	10.4	0.6	0.1	3265.1
5382	10.4	0.4	0.1	3268.4
5383	10.4	0.2	0.1	3273.4
5384	10.2	5.8	0.1	3329.6
5385	10.2	5.6	0.1	3324.3
5386	10.2	5.4	0.1	3320.6
5387	10.2	5.2	0.1	3317.3
5388	10.2	5.	0.1	3314.2
5389	10.2	4.8	0.1	3311.2
5390	10.2	4.6	0.1	3308.6
5391	10.2	4.4	0.1	3306.2
5392	10.2	4.2	0.1	3304.1
5393	10.2	4.	0.1	3302.2
5394	10.2	3.8	0.1	3300.7
5395	10.2	3.6	0.1	3299.5
5396	10.2	3.4	0.1	3298.7
5397	10.2	3.2	0.1	3298.1
5398	10.2	3.	0.1	3298.
5399	10.2	2.8	0.1	3298.1
5400	10.2	2.6	0.1	3298.7
5401	10.2	2.4	0.1	3299.5
5402	10.2	2.2	0.1	3300.7
5403	10.2	2.	0.1	3302.2
5404	10.2	1.8	0.1	3304.1
5405	10.2	1.6	0.1	3306.2
5406	10.2	1.4	0.1	3308.6
5407	10.2	1.2	0.1	3311.2
5408	10.2	1.	0.1	3314.2
5409	10.2	0.8	0.1	3317.3
5410	10.2	0.6	0.1	3320.6
5411	10.2	0.4	0.1	3324.3
5412	10.2	0.2	0.1	3329.6
5413	10.	5.8	0.1	3386.
5414	10.	5.6	0.1	3380.4
5415	10.	5.4	0.1	3376.4
5416	10.	5.2	0.1	3372.7
5417	10.	5.	0.1	3369.2
5418	10.	4.8	0.1	3366.
5419	10.	4.6	0.1	3363.
5420	10.	4.4	0.1	3360.4
5421	10.	4.2	0.1	3358.
5422	10.	4.	0.1	3356.
5423	10.	3.8	0.1	3354.3
5424	10.	3.6	0.1	3353.
5425	10.	3.4	0.1	3352.1
5426	10.	3.2	0.1	3351.5
5427	10.	3.	0.1	3351.3
5428	10.	2.8	0.1	3351.5
5429	10.	2.6	0.1	3352.1
5430	10.	2.4	0.1	3353.
5431	10.	2.2	0.1	3354.3
5432	10.	2.	0.1	3356.
5433	10.	1.8	0.1	3358.
5434	10.	1.6	0.1	3360.4
5435	10.	1.4	0.1	3363.
5436	10.	1.2	0.1	3366.
5437	10.	1.	0.1	3369.2
5438	10.	0.8	0.1	3372.7
5439	10.	0.6	0.1	3376.4
5440	10.	0.4	0.1	3380.4
5441	10.	0.2	0.1	3386.
5442	9.8	5.8	0.1	3442.6
5443	9.8	5.6	0.1	3436.7
5444	9.8	5.4	0.1	3432.3
5445	9.8	5.2	0.1	3428.3
5446	9.8	5.	0.1	3424.4
5447	9.8	4.8	0.1	3420.9
5448	9.8	4.6	0.1	3417.6
5449	9.8	4.4	0.1	3414.7
5450	9.8	4.2	0.1	3412.1
5451	9.8	4.	0.1	3409.9
5452	9.8	3.8	0.1	3408.
5453	9.8	3.6	0.1	3406.6
5454	9.8	3.4	0.1	3405.5
5455	9.8	3.2	0.1	3404.9
5456	9.8	3.	0.1	3404.7
5457	9.8	2.8	0.1	3404.9
5458	9.8	2.6	0.1	3405.5
5459	9.8	2.4	0.1	3406.6
5460	9.8	2.2	0.1	3408.
5461	9.8	2.	0.1	3409.9
5462	9.8	1.8	0.1	3412.1
5463	9.8	1.6	0.1	3414.7
5464	9.8	1.4	0.1	3417.6
5465	9.8	1.2	0.1	3420.9
5466	9.8	1.	0.1	3424.4
5467	9.8	0.8	0.1	3428.3
5468	9.8	0.6	0.1	3432.3
5469	9.8	0.4	0.1	3436.7
5470	9.8	0.2	0.1	3442.6
5471	9.6	5.8	0.1	3499.5
5472	9.6	5.6	0.1	3493.2
5473	9.6	5.4	0.1	3488.5
5474	9.6	5.2	0.1	3484.
5475	9.6	5.	0.1	3479.8
5476	9.6	4.8	0.1	3475.9
5477	9.6	4.6	0.1	3472.4
5478	9.6	4.4	0.1	3469.1
5479	9.6	4.2	0.1	3466.3
5480	9.6	4.	0.1	3463.8
5481	9.6	3.8	0.1	3461.8
5482	9.6	3.6	0.1	3460.2
5483	9.6	3.4	0.1	3459.
5484	9.6	3.2	0.1	3458.3
5485	9.6	3.	0.1	3458.1
5486	9.6	2.8	0.1	3458.3
5487	9.6	2.6	0.1	3459.
5488	9.6	2.4	0.1	3460.2
5489	9.6	2.2	0.1	3461.8
5490	9.6	2.	0.1	3463.8
5491	9.6	1.8	0.1	3466.3
5492	9.6	1.6	0.1	3469.1
5493	9.6	1.4	0.1	3472.4
5494	9.6	1.2	0.1	3475.9
5495	9.6	1.	0.1	3479.8
5496	9.6	0.8	0.1	3484.
5497	9.6	0.6	0.1	3488.5
5498	9.6	0.4	0.1	3493.2
5499	9.6	0.2	0.1	3499.5
5500	9.4	5.8	0.1	3556.7
5501	9.4	5.6	0.1	3550.
5502	9.4	5.4	0.1	3544.8
5503	9.4	5.2	0.1	3540.
5504	9.4	5.	0.1	3535.4
5505	9.4	4.8	0.1	3531.1
5506	9.4	4.6	0.1	3527.2
5507	9.4	4.4	0.1	3523.6
5508	9.4	4.2	0.1	3520.5
5509	9.4	4.	0.1	3517.8
5510	9.4	3.8	0.1	3515.6
5511	9.4	3.6	0.1	3513.8
5512	9.4	3.4	0.1	3512.5
5513	9.4	3.2	0.1	3511.8
5514	9.4	3.	0.1	3511.5
5515	9.4	2.8	0.1	3511.8
5516	9.4	2.6	0.1	3512.5
5517	9.4	2.4	0.1	3513.8
5518	9.4	2.2	0.1	3515.6
5519	9.4	2.	0.1	3517.8
5520	9.4	1.8	0.1	3520.5
5521	9.4	1.6	0.1	3523.6
5522	9.4	1.4	0.1	3527.2
5523	9.4	1.2	0.1	3531.1
5524	9.4	1.	0.1	3535.4
5525	9.4	0.8	0.1	3540.
5526	9.4	0.6	0.1	3544.8
5527	9.4	0.4	0.1	3550.
5528	9.4	0.2	0.1	3556.7
5529	9.2	5.8	0.1	3614.1
5530	9.2	5.6	0.1	3607.
5531	9.2	5.4	0.1	3601.4
5532	9.2	5.2	0.1	3596.1
5533	9.2	5.	0.1	3591.1
5534	9.2	4.8	0.1	3586.4
5535	9.2	4.6	0.1	3582.1
5536	9.2	4.4	0.1	3578.2
5537	9.2	4.2	0.1	3574.8
5538	9.2	4.	0.1	3571.8
5539	9.2	3.8	0.1	3569.4
5540	9.2	3.6	0.1	3567.4
5541	9.2	3.4	0.1	3566.
5542	9.2	3.2	0.1	3565.2
5543	9.2	3.	0.1	3564.9
5544	9.2	2.8	0.1	3565.2
5545	9.2	2.6	0.1	3566.
5546	9.2	2.4	0.1	3567.4
5547	9.2	2.2	0.1	3569.4
5548	9.2	2.	0.1	3571.8
5549	9.2	1.8	0.1	3574.8
5550	9.2	1.6	0.1	3578.2
5551	9.2	1.4	0.1	3582.1
5552	9.2	1.2	0.1	3586.4
5553	9.2	1.	0.1	3591.1
5554	9.2	0.8	0.1	3596.1
5555	9.2	0.6	0.1	3601.4
5556	9.2	0.4	0.1	3607.
5557	9.2	0.2	0.1	3614.1
5558	9.	5.8	0.1	3671.9
5559	9.	5.6	0.1	3664.3
5560	9.	5.4	0.1	3658.1
5561	9.	5.2	0.1	3652.3
5562	9.	5.	0.1	3646.9
5563	9.	4.8	0.1	3641.8
5564	9.	4.6	0.1	3637.1
5565	9.	4.4	0.1	3632.8
5566	9.	4.2	0.1	3629.1
5567	9.	4.	0.1	3625.8
5568	9.	3.8	0.1	3623.1
5569	9.	3.6	0.1	3621.
5570	9.	3.4	0.1	3619.5
5571	9.	3.2	0.1	3618.6
5572	9.	3.	0.1	3618.3
5573	9.	2.8	0.1	3618.6
5574	9.	2.6	0.1	3619.5
5575	9.	2.4	0.1	3621.
5576	9.	2.2	0.1	3623.1
5577	9.	2.	0.1	3625.8
5578	9.	1.8	0.1	3629.1
5579	9.	1.6	0.1	3632.8
5580	9.	1.4	0.1	3637.1
5581	9.	1.2	0.1	3641.8
5582	9.	1.	0.1	3646.9
5583	9.	0.8	0.1	3652.3
5584	9.	0.6	0.1	3658.1
5585	9.	0.4	0.1	3664.3
5586	9.	0.2	0.1	3671.9
5587	8.8	5.8	0.1	3729.9
5588	8.8	5.6	0.1	3721.8
5589	8.8	5.4	0.1	3715.1
5590	8.8	5.2	0.1	3708.8
5591	8.8	5.	0.1	3702.8
5592	8.8	4.8	0.1	3697.2
5593	8.8	4.6	0.1	3692.1
5594	8.8	4.4	0.1	3687.5
5595	8.8	4.2	0.1	3683.4
5596	8.8	4.	0.1	3679.8
5597	8.8	3.8	0.1	3676.9
5598	8.8	3.6	0.1	3674.6
5599	8.8	3.4	0.1	3672.9
5600	8.8	3.2	0.1	3671.9
5601	8.8	3.	0.1	3671.5
5602	8.8	2.8	0.1	3671.9
5603	8.8	2.6	0.1	3672.9
5604	8.8	2.4	0.1	3674.6
5605	8.8	2.2	0.1	3676.9
5606	8.8	2.	0.1	3679.8
5607	8.8	1.8	0.1	3683.4
5608	8.8	1.6	0.1	3687.5
5609	8.8	1.4	0.1	3692.1
5610	8.8	1.2	0.1	3697.2
5611	8.8	1.	0.1	3702.8
5612	8.8	0.8	0.1	3708.8
5613	8.8	0.6	0.1	3715.1
5614	8.8	0.4	0.1	3721.8
5615	8.8	0.2	0.1	3729.9
5616	8.6	5.8	0.1	3788.2
5617	8.6	5.6	0.1	3779.6
5618	8.6	5.4	0.1	3772.3
5619	8.6	5.2	0.1	3765.4
5620	8.6	5.	0.1	3758.9
5621	8.6	4.8	0.1	3752.8
5622	8.6	4.6	0.1	3747.2
5623	8.6	4.4	0.1	3742.1
5624	8.6	4.2	0.1	3737.6
5625	8.6	4.	0.1	3733.8
5626	8.6	3.8	0.1	3730.5
5627	8.6	3.6	0.1	3728.
5628	8.6	3.4	0.1	3726.2
5629	8.6	3.2	0.1	3725.1
5630	8.6	3.	0.1	3724.7
5631	8.6	2.8	0.1	3725.1
5632	8.6	2.6	0.1	3726.2
5633	8.6	2.4	0.1	3728.
5634	8.6	2.2	0.1	3730.6
5635	8.6	2.	0.1	3733.8
5636	8.6	1.8	0.1	3737.6
5637	8.6	1.6	0.1	3742.1
5638	8.6	1.4	0.1	3747.2
5639	8.6	1.2	0.1	3752.8
5640	8.6	1.	0.1	3758.9
5641	8.6	0.8	0.1	3765.4
5642	8.6	0.6	0.1	3772.3
5643	8.6	0.4	0.1	3779.6
5644	8.6	0.2	0.1	3788.2
5645	8.4	5.8	0.1	3846.7
5646	8.4	5.6	0.1	3837.6
5647	8.4	5.4	0.1	3829.7
5648	8.4	5.2	0.1	3822.2
5649	8.4	5.	0.1	3815.1
5650	8.4	4.8	0.1	3808.4
5651	8.4	4.6	0.1	3802.3
5652	8.4	4.4	0.1	3796.8
5653	8.4	4.2	0.1	3791.9
5654	8.4	4.	0.1	3787.6
5655	8.4	3.8	0.1	3784.1
5656	8.4	3.6	0.1	3781.4
5657	8.4	3.4	0.1	3779.4
5658	8.4	3.2	0.1	3778.1
5659	8.4	3.	0.1	3777.7
5660	8.4	2.8	0.1	3778.1
5661	8.4	2.6	0.1	3779.4
5662	8.4	2.4	0.1	3781.4
5663	8.4	2.2	0.1	3784.1
5664	8.4	2.	0.1	3787.6
5665	8.4	1.8	0.1	3791.9
5666	8.4	1.6	0.1	3796.8
5667	8.4	1.4	0.1	3802.3
5668	8.4	1.2	0.1	3808.4
5669	8.4	1.	0.1	3815.1
5670	8.4	0.8	0.1	3822.2
5671	8.4	0.6	0.1	3829.7
5672	8.4	0.4	0.1	3837.6
5673	8.4	0.2	0.1	3846.7
5674	8.2	5.8	0.1	3905.6
5675	8.2	5.6	0.1	3895.8
5676	8.2	5.4	0.1	3887.2
5677	8.2	5.2	0.1	3879.1
5678	8.2	5.	0.1	3871.3
5679	8.2	4.8	0.1	3864.1
5680	8.2	4.6	0.1	3857.4
5681	8.2	4.4	0.1	3851.4
5682	8.2	4.2	0.1	3846.
5683	8.2	4.	0.1	3841.4
5684	8.2	3.8	0.1	3837.6
5685	8.2	3.6	0.1	3834.5
5686	8.2	3.4	0.1	3832.4
5687	8.2	3.2	0.1	3831.
5688	8.2	3.	0.1	3830.6
5689	8.2	2.8	0.1	3831.
5690	8.2	2.6	0.1	3832.4
5691	8.2	2.4	0.1	3834.5
5692	8.2	2.2	0.1	3837.6
5693	8.2	2.	0.1	3841.4
5694	8.2	1.8	0.1	3846.
5695	8.2	1.6	0.1	3851.4
5696	8.2	1.4	0.1	3857.4
5697	8.2	1.2	0.1	3864.1
5698	8.2	1.	0.1	3871.3
5699	8.2	0.8	0.1	3879.1
5700	8.2	0.6	0.1	3887.2
5701	8.2	0.4	0.1	3895.8
5702	8.2	0.2	0.1	3905.7
5703	8.	5.8	0.1	3964.9
5704	8.	5.6	0.1	3954.3
5705	8.	5.4	0.1	3945.
5706	8.	5.2	0.1	3936.1
5707	8.	5.	0.1	3927.7
5708	8.	4.8	0.1	3919.8
5709	8.	4.6	0.1	3912.5
5710	8.	4.4	0.1	3905.9
5711	8.	4.2	0.1	3900.1
5712	8.	4.	0.1	3895.1
5713	8.	3.8	0.1	3890.9
5714	8.	3.6	0.1	3887.6
5715	8.	3.4	0.1	3885.2
5716	8.	3.2	0.1	3883.7
5717	8.	3.	0.1	3883.2
5718	8.	2.8	0.1	3883.7
5719	8.	2.6	0.1	3885.2
5720	8.	2.4	0.1	3887.6
5721	8.	2.2	0.1	3890.9
5722	8.	2.	0.1	3895.1
5723	8.	1.8	0.1	3900.1
5724	8.	1.6	0.1	3905.9
5725	8.	1.4	0.1	3912.5
5726	8.	1.2	0.1	3919.8
5727	8.	1.	0.1	3927.7
5728	8.	0.8	0.1	3936.1
5729	8.	0.6	0.1	3945.
5730	8.	0.4	0.1	3954.3
5731	8.	0.2	0.1	3964.9
5732	7.8	5.8	0.1	4024.4
5733	7.8	5.6	0.1	4013.1
5734	7.8	5.4	0.1	4003.
5735	7.8	5.2	0.1	3993.3
5736	7.8	5.	0.1	3984.1
5737	7.8	4.8	0.1	3975.5
5738	7.8	4.6	0.1	3967.6
5739	7.8	4.4	0.1	3960.4
5740	7.8	4.2	0.1	3954.
5741	7.8	4.	0.1	3948.5
5742	7.8	3.8	0.1	3944.
5743	7.8	3.6	0.1	3940.3
5744	7.8	3.4	0.1	3937.7
5745	7.8	3.2	0.1	3936.2
5746	7.8	3.	0.1	3935.6
5747	7.8	2.8	0.1	3936.2
5748	7.8	2.6	0.1	3937.7
5749	7.8	2.4	0.1	3940.3
5750	7.8	2.2	0.1	3944.
5751	7.8	2.	0.1	3948.5
5752	7.8	1.8	0.1	3954.
5753	7.8	1.6	0.1	3960.4
5754	7.8	1.4	0.1	3967.6
5755	7.8	1.2	0.1	3975.5
5756	7.8	1.	0.1	3984.1
5757	7.8	0.8	0.1	3993.3
5758	7.8	0.6	0.1	4003.
5759	7.8	0.4	0.1	4013.1
5760	7.8	0.2	0.1	4024.4
5761	7.6	5.8	0.1	4084.3
5762	7.6	5.6	0.1	4072.2
5763	7.6	5.4	0.1	4061.2
5764	7.6	5.2	0.1	4050.6
5765	7.6	5.	0.1	4040.6
5766	7.6	4.8	0.1	4031.3
5767	7.6	4.6	0.1	4022.6
5768	7.6	4.4	0.1	4014.8
5769	7.6	4.2	0.1	4007.8
5770	7.6	4.	0.1	4001.8
5771	7.6	3.8	0.1	3996.8
5772	7.6	3.6	0.1	3992.9
5773	7.6	3.4	0.1	3990.
5774	7.6	3.2	0.1	3988.3
5775	7.6	3.	0.1	3987.7
5776	7.6	2.8	0.1	3988.3
5777	7.6	2.6	0.1	3990.
5778	7.6	2.4	0.1	3992.9
5779	7.6	2.2	0.1	3996.8
5780	7.6	2.	0.1	4001.8
5781	7.6	1.8	0.1	4007.8
5782	7.6	1.6	0.1	4014.8
5783	7.6	1.4	0.1	4022.6
5784	7.6	1.2	0.1	4031.3
5785	7.6	1.	0.1	4040.6
5786	7.6	0.8	0.1	4050.6
5787	7.6	0.6	0.1	4061.2
5788	7.6	0.4	0.1	4072.2
5789	7.6	0.2	0.1	4084.3
5790	7.4	5.8	0.1	4144.6
5791	7.4	5.6	0.1	4131.6
5792	7.4	5.4	0.1	4119.6
5793	7.4	5.2	0.1	4108.1
5794	7.4	5.	0.1	4097.2
5795	7.4	4.8	0.1	4087.
5796	7.4	4.6	0.1	4077.6
5797	7.4	4.4	0.1	4069.
5798	7.4	4.2	0.1	4061.4
5799	7.4	4.	0.1	4054.9
5800	7.4	3.8	0.1	4049.4
5801	7.4	3.6	0.1	4045.1
5802	7.4	3.4	0.1	4042.
5803	7.4	3.2	0.1	4040.1
5804	7.4	3.	0.1	4039.5
5805	7.4	2.8	0.1	4040.1
5806	7.4	2.6	0.1	4042.
5807	7.4	2.4	0.1	4045.1
5808	7.4	2.2	0.1	4049.4
5809	7.4	2.	0.1	4054.9
5810	7.4	1.8	0.1	4061.4
5811	7.4	1.6	0.1	4069.
5812	7.4	1.4	0.1	4077.6
5813	7.4	1.2	0.1	4087.
5814	7.4	1.	0.1	4097.2
5815	7.4	0.8	0.1	4108.1
5816	7.4	0.6	0.1	4119.6
5817	7.4	0.4	0.1	4131.6
5818	7.4	0.2	0.1	4144.6
5819	7.2	5.8	0.1	4205.2
5820	7.2	5.6	0.1	4191.2
5821	7.2	5.4	0.1	4178.2
5822	7.2	5.2	0.1	4165.7
5823	7.2	5.	0.1	4153.8
5824	7.2	4.8	0.1	4142.7
5825	7.2	4.6	0.1	4132.4
5826	7.2	4.4	0.1	4123.1
5827	7.2	4.2	0.1	4114.8
5828	7.2	4.	0.1	4107.7
5829	7.2	3.8	0.1	4101.7
5830	7.2	3.6	0.1	4097.
5831	7.2	3.4	0.1	4093.6
5832	7.2	3.2	0.1	4091.6
5833	7.2	3.	0.1	4090.9
5834	7.2	2.8	0.1	4091.6
5835	7.2	2.6	0.1	4093.6
5836	7.2	2.4	0.1	4097.
5837	7.2	2.2	0.1	4101.7
5838	7.2	2.	0.1	4107.7
5839	7.2	1.8	0.1	4114.8
5840	7.2	1.6	0.1	4123.1
5841	7.2	1.4	0.1	4132.4
5842	7.2	1.2	0.1	4142.7
5843	7.2	1.	0.1	4153.8
5844	7.2	0.8	0.1	4165.7
5845	7.2	0.6	0.1	4178.2
5846	7.2	0.4	0.1	4191.2
5847	7.2	0.2	0.1	4205.2
5848	7.	5.8	0.1	4266.3
5849	7.	5.6	0.1	4251.1
5850	7.	5.4	0.1	4237.
5851	7.	5.2	0.1	4223.4
5852	7.	5.	0.1	4210.5
5853	7.	4.8	0.1	4198.4
5854	7.	4.6	0.1	4187.2
5855	7.	4.4	0.1	4177.
5856	7.	4.2	0.1	4167.9
5857	7.	4.	0.1	4160.1
5858	7.	3.8	0.1	4153.6
5859	7.	3.6	0.1	4148.5
5860	7.	3.4	0.1	4144.8
5861	7.	3.2	0.1	4142.5
5862	7.	3.	0.1	4141.8
5863	7.	2.8	0.1	4142.5
5864	7.	2.6	0.1	4144.8
5865	7.	2.4	0.1	4148.5
5866	7.	2.2	0.1	4153.6
5867	7.	2.	0.1	4160.1
5868	7.	1.8	0.1	4167.9
5869	7.	1.6	0.1	4177.
5870	7.	1.4	0.1	4187.2
5871	7.	1.2	0.1	4198.4
5872	7.	1.	0.1	4210.5
5873	7.	0.8	0.1	4223.4
5874	7.	0.6	0.1	4237.
5875	7.	0.4	0.1	4251.1
5876	7.	0.2	0.1	4266.3
5877	6.8	5.8	0.1	4327.8
5878	6.8	5.6	0.1	4311.4
5879	6.8	5.4	0.1	4296.
5880	6.8	5.2	0.1	4281.2
5881	6.8	5.	0.1	4267.1
5882	6.8	4.8	0.1	4253.9
5883	6.8	4.6	0.1	4241.7
5884	6.8	4.4	0.1	4230.6
5885	6.8	4.2	0.1	4220.8
5886	6.8	4.	0.1	4212.3
5887	6.8	3.8	0.1	4205.1
5888	6.8	3.6	0.1	4199.5
5889	6.8	3.4	0.1	4195.5
5890	6.8	3.2	0.1	4193.
5891	6.8	3.	0.1	4192.2
5892	6.8	2.8	0.1	4193.
5893	6.8	2.6	0.1	4195.5
5894	6.8	2.4	0.1	4199.5
5895	6.8	2.2	0.1	4205.1
5896	6.8	2.	0.1	4212.3
5897	6.8	1.8	0.1	4220.8
5898	6.8	1.6	0.1	4230.6
5899	6.8	1.4	0.1	4241.7
5900	6.8	1.2	0.1	4253.9
5901	6.8	1.	0.1	4267.1
5902	6.8	0.8	0.1	4281.2
5903	6.8	0.6	0.1	4296.
5904	6.8	0.4	0.1	4311.4
5905	6.8	0.2	0.1	4327.8
5906	6.6	5.8	0.1	4389.7
5907	6.6	5.6	0.1	4372.
5908	6.6	5.4	0.1	4355.2
5909	6.6	5.2	0.1	4339.1
5910	6.6	5.	0.1	4323.8
5911	6.6	4.8	0.1	4309.4
5912	6.6	4.6	0.1	4296.1
5913	6.6	4.4	0.1	4284.
5914	6.6	4.2	0.1	4273.3
5915	6.6	4.	0.1	4264.
5916	6.6	3.8	0.1	4256.2
5917	6.6	3.6	0.1	4250.1
5918	6.6	3.4	0.1	4245.7
5919	6.6	3.2	0.1	4243.
5920	6.6	3.	0.1	4242.1
5921	6.6	2.8	0.1	4243.
5922	6.6	2.6	0.1	4245.7
5923	6.6	2.4	0.1	4250.1
5924	6.6	2.2	0.1	4256.2
5925	6.6	2.	0.1	4264.
5926	6.6	1.8	0.1	4273.3
5927	6.6	1.6	0.1	4284.
5928	6.6	1.4	0.1	4296.1
5929	6.6	1.2	0.1	4309.4
5930	6.6	1.	0.1	4323.8
5931	6.6	0.8	0.1	4339.1
5932	6.6	0.6	0.1	4355.2
5933	6.6	0.4	0.1	4372.
5934	6.6	0.2	0.1	4389.7
5935	6.4	5.8	0.1	4452.
5936	6.4	5.6	0.1	4432.9
5937	6.4	5.4	0.1	4414.7
5938	6.4	5.2	0.1	4397.2
5939	6.4	5.	0.1	4380.5
5940	6.4	4.8	0.1	4364.8
5941	6.4	4.6	0.1	4350.3
5942	6.4	4.4	0.1	4337.1
5943	6.4	4.2	0.1	4325.4
5944	6.4	4.	0.1	4315.2
5945	6.4	3.8	0.1	4306.8
5946	6.4	3.6	0.1	4300.1
5947	6.4	3.4	0.1	4295.3
5948	6.4	3.2	0.1	4292.4
5949	6.4	3.	0.1	4291.4
5950	6.4	2.8	0.1	4292.4
5951	6.4	2.6	0.1	4295.3
5952	6.4	2.4	0.1	4300.1
5953	6.4	2.2	0.1	4306.8
5954	6.4	2.	0.1	4315.2
5955	6.4	1.8	0.1	4325.4
5956	6.4	1.6	0.1	4337.1
5957	6.4	1.4	0.1	4350.3
5958	6.4	1.2	0.1	4364.8
5959	6.4	1.	0.1	4380.5
5960	6.4	0.8	0.1	4397.2
5961	6.4	0.6	0.1	4414.7
5962	6.4	0.4	0.1	4432.9
5963	6.4	0.2	0.1	4452.
5964	6.2	5.8	0.1	4514.9
5965	6.2	5.6	0.1	4494.2
5966	6.2	5.4	0.1	4474.4
5967	6.2	5.2	0.1	4455.3
5968	6.2	5.	0.1	4437.1
5969	6.2	4.8	0.1	4420.1
5970	6.2	4.6	0.1	4404.3
5971	6.2	4.4	0.1	4389.9
5972	6.2	4.2	0.1	4377.1
5973	6.2	4.	0.1	4366.
5974	6.2	3.8	0.1	4356.8
5975	6.2	3.6	0.1	4349.5
5976	6.2	3.4	0.1	4344.2
5977	6.2	3.2	0.1	4341.
5978	6.2	3.	0.1	4340.
5979	6.2	2.8	0.1	4341.
5980	6.2	2.6	0.1	4344.2
5981	6.2	2.4	0.1	4349.5
5982	6.2	2.2	0.1	4356.8
5983	6.2	2.	0.1	4366.
5984	6.2	1.8	0.1	4377.1
5985	6.2	1.6	0.1	4389.9
5986	6.2	1.4	0.1	4404.3
5987	6.2	1.2	0.1	4420.1
5988	6.2	1.	0.1	4437.1
5989	6.2	0.8	0.1	4455.3
5990	6.2	0.6	0.1	4474.4
5991	6.2	0.4	0.1	4494.2
5992	6.2	0.2	0.1	4514.9
5993	6.	5.8	0.1	4578.3
5994	6.	5.6	0.1	4555.8
5995	6.	5.4	0.1	4534.3
5996	6.	5.2	0.1	4513.5
5997	6.	5.	0.1	4493.8
5998	6.	4.8	0.1	4475.2
5999	6.	4.6	0.1	4457.9
6000	6.	4.4	0.1	4442.3
6001	6.	4.2	0.1	4428.3
6002	6.	4.	0.1	4416.2
6003	6.	3.8	0.1	4406.2
6004	6.	3.6	0.1	4398.2
6005	6.	3.4	0.1	4392.5
6006	6.	3.2	0.1	4389.
6007	6.	3.	0.1	4387.8
6008	6.	2.8	0.1	4389.
6009	6.	2.6	0.1	4392.5
6010	6.	2.4	0.1	4398.2
6011	6.	2.2	0.1	4406.2
6012	6.	2.	0.1	4416.2
6013	6.	1.8	0.1	4428.3
6014	6.	1.6	0.1	4442.3
6015	6.	1.4	0.1	4457.9
6016	6.	1.2	0.1	4475.2
6017	6.	1.	0.1	4493.8
6018	6.	0.8	0.1	4513.5
6019	6.	0.6	0.1	4534.3
6020	6.	0.4	0.1	4555.8
6021	6.	0.2	0.1	4578.3
6022	5.8	5.8	0.1	4642.2
6023	5.8	5.6	0.1	4617.9
6024	5.8	5.4	0.1	4594.4
6025	5.8	5.2	0.1	4571.9
6026	5.8	5.	0.1	4550.3
6027	5.8	4.8	0.1	4530.1
6028	5.8	4.6	0.1	4511.3
6029	5.8	4.4	0.1	4494.2
6030	5.8	4.2	0.1	4479.
6031	5.8	4.	0.1	4465.9
6032	5.8	3.8	0.1	4454.9
6033	5.8	3.6	0.1	4446.2
6034	5.8	3.4	0.1	4440.
6035	5.8	3.2	0.1	4436.2
6036	5.8	3.	0.1	4434.9
6037	5.8	2.8	0.1	4436.2
6038	5.8	2.6	0.1	4440.
6039	5.8	2.4	0.1	4446.2
6040	5.8	2.2	0.1	4454.9
6041	5.8	2.	0.1	4465.9
6042	5.8	1.8	0.1	4479.
6043	5.8	1.6	0.1	4494.2
6044	5.8	1.4	0.1	4511.3
6045	5.8	1.2	0.1	4530.1
6046	5.8	1.	0.1	4550.3
6047	5.8	0.8	0.1	4571.9
6048	5.8	0.6	0.1	4594.4
6049	5.8	0.4	0.1	4617.9
6050	5.8	0.2	0.1	4642.2
6051	5.6	5.8	0.1	4706.7
6052	5.6	5.6	0.1	4680.4
6053	5.6	5.4	0.1	4654.8
6054	5.6	5.2	0.1	4630.3
6055	5.6	5.	0.1	4606.8
6056	5.6	4.8	0.1	4584.8
6057	5.6	4.6	0.1	4564.4
6058	5.6	4.4	0.1	4545.8
6059	5.6	4.2	0.1	4529.2
6060	5.6	4.	0.1	4514.9
6061	5.6	3.8	0.1	4502.9
6062	5.6	3.6	0.1	4493.4
6063	5.6	3.4	0.1	4486.6
6064	5.6	3.2	0.1	4482.5
6065	5.6	3.	0.1	4481.1
6066	5.6	2.8	0.1	4482.5
6067	5.6	2.6	0.1	4486.6
6068	5.6	2.4	0.1	4493.4
6069	5.6	2.2	0.1	4502.9
6070	5.6	2.	0.1	4514.9
6071	5.6	1.8	0.1	4529.2
6072	5.6	1.6	0.1	4545.8
6073	5.6	1.4	0.1	4564.4
6074	5.6	1.2	0.1	4584.8
6075	5.6	1.	0.1	4606.8
6076	5.6	0.8	0.1	4630.3
6077	5.6	0.6	0.1	4654.8
6078	5.6	0.4	0.1	4680.4
6079	5.6	0.2	0.1	4706.7
6080	5.4	5.8	0.1	4771.9
6081	5.4	5.6	0.1	4743.2
6082	5.4	5.4	0.1	4715.5
6083	5.4	5.2	0.1	4688.8
6084	5.4	5.	0.1	4663.3
6085	5.4	4.8	0.1	4639.3
6086	5.4	4.6	0.1	4617.
6087	5.4	4.4	0.1	4596.8
6088	5.4	4.2	0.1	4578.8
6089	5.4	4.	0.1	4563.1
6090	5.4	3.8	0.1	4550.1
6091	5.4	3.6	0.1	4539.8
6092	5.4	3.4	0.1	4532.4
6093	5.4	3.2	0.1	4527.9
6094	5.4	3.	0.1	4526.4
6095	5.4	2.8	0.1	4527.9
6096	5.4	2.6	0.1	4532.4
6097	5.4	2.4	0.1	4539.8
6098	5.4	2.2	0.1	4550.1
6099	5.4	2.	0.1	4563.1
6100	5.4	1.8	0.1	4578.8
6101	5.4	1.6	0.1	4596.8
6102	5.4	1.4	0.1	4617.
6103	5.4	1.2	0.1	4639.3
6104	5.4	1.	0.1	4663.3
6105	5.4	0.8	0.1	4688.8
6106	5.4	0.6	0.1	4715.5
6107	5.4	0.4	0.1	4743.2
6108	5.4	0.2	0.1	4771.9
6109	5.2	5.8	0.1	4837.7
6110	5.2	5.6	0.1	4806.6
6111	5.2	5.4	0.1	4776.4
6112	5.2	5.2	0.1	4747.4
6113	5.2	5.	0.1	4719.6
6114	5.2	4.8	0.1	4693.5
6115	5.2	4.6	0.1	4669.3
6116	5.2	4.4	0.1	4647.3
6117	5.2	4.2	0.1	4627.7
6118	5.2	4.	0.1	4610.7
6119	5.2	3.8	0.1	4596.5
6120	5.2	3.6	0.1	4585.3
6121	5.2	3.4	0.1	4577.2
6122	5.2	3.2	0.1	4572.3
6123	5.2	3.	0.1	4570.7
6124	5.2	2.8	0.1	4572.3
6125	5.2	2.6	0.1	4577.2
6126	5.2	2.4	0.1	4585.3
6127	5.2	2.2	0.1	4596.5
6128	5.2	2.	0.1	4610.7
6129	5.2	1.8	0.1	4627.7
6130	5.2	1.6	0.1	4647.3
6131	5.2	1.4	0.1	4669.3
6132	5.2	1.2	0.1	4693.5
6133	5.2	1.	0.1	4719.6
6134	5.2	0.8	0.1	4747.4
6135	5.2	0.6	0.1	4776.4
6136	5.2	0.4	0.1	4806.6
6137	5.2	0.2	0.1	4837.7
6138	5.	5.8	0.1	4904.2
6139	5.	5.6	0.1	4870.4
6140	5.	5.4	0.1	4837.6
6141	5.	5.2	0.1	4806.
6142	5.	5.	0.1	4775.9
6143	5.	4.8	0.1	4747.5
6144	5.	4.6	0.1	4721.2
6145	5.	4.4	0.1	4697.2
6146	5.	4.2	0.1	4675.9
6147	5.	4.	0.1	4657.4
6148	5.	3.8	0.1	4642.
6149	5.	3.6	0.1	4629.9
6150	5.	3.4	0.1	4621.1
6151	5.	3.2	0.1	4615.8
6152	5.	3.	0.1	4614.
6153	5.	2.8	0.1	4615.8
6154	5.	2.6	0.1	4621.1
6155	5.	2.4	0.1	4629.9
6156	5.	2.2	0.1	4642.
6157	5.	2.	0.1	4657.4
6158	5.	1.8	0.1	4675.9
6159	5.	1.6	0.1	4697.2
6160	5.	1.4	0.1	4721.2
6161	5.	1.2	0.1	4747.5
6162	5.	1.	0.1	4775.9
6163	5.	0.8	0.1	4806.
6164	5.	0.6	0.1	4837.6
6165	5.	0.4	0.1	4870.4
6166	5.	0.2	0.1	4904.2
6167	4.8	5.8	0.1	4971.5
6168	4.8	5.6	0.1	4934.6
6169	4.8	5.4	0.1	4899.
6170	4.8	5.2	0.1	4864.7
6171	4.8	5.	0.1	4832.
6172	4.8	4.8	0.1	4801.2
6173	4.8	4.6	0.1	4772.6
6174	4.8	4.4	0.1	4746.6
6175	4.8	4.2	0.1	4723.4
6176	4.8	4.	0.1	4703.4
6177	4.8	3.8	0.1	4686.6
6178	4.8	3.6	0.1	4673.4
6179	4.8	3.4	0.1	4663.9
6180	4.8	3.2	0.1	4658.2
6181	4.8	3.	0.1	4656.2
6182	4.8	2.8	0.1	4658.2
6183	4.8	2.6	0.1	4663.9
6184	4.8	2.4	0.1	4673.4
6185	4.8	2.2	0.1	4686.6
6186	4.8	2.	0.1	4703.4
6187	4.8	1.8	0.1	4723.4
6188	4.8	1.6	0.1	4746.6
6189	4.8	1.4	0.1	4772.6
6190	4.8	1.2	0.1	4801.2
6191	4.8	1.	0.1	4832.
6192	4.8	0.8	0.1	4864.7
6193	4.8	0.6	0.1	4899.
6194	4.8	0.4	0.1	4934.6
6195	4.8	0.2	0.1	4971.5
6196	4.6	5.8	0.1	5039.5
6197	4.6	5.6	0.1	4999.4
6198	4.6	5.4	0.1	4960.7
6199	4.6	5.2	0.1	4923.5
6200	4.6	5.	0.1	4887.9
6201	4.6	4.8	0.1	4854.5
6202	4.6	4.6	0.1	4823.5
6203	4.6	4.4	0.1	4795.2
6204	4.6	4.2	0.1	4770.1
6205	4.6	4.	0.1	4748.4
6206	4.6	3.8	0.1	4730.3
6207	4.6	3.6	0.1	4716.
6208	4.6	3.4	0.1	4705.7
6209	4.6	3.2	0.1	4699.5
6210	4.6	3.	0.1	4697.4
6211	4.6	2.8	0.1	4699.5
6212	4.6	2.6	0.1	4705.7
6213	4.6	2.4	0.1	4716.
6214	4.6	2.2	0.1	4730.3
6215	4.6	2.	0.1	4748.4
6216	4.6	1.8	0.1	4770.1
6217	4.6	1.6	0.1	4795.2
6218	4.6	1.4	0.1	4823.5
6219	4.6	1.2	0.1	4854.5
6220	4.6	1.	0.1	4887.9
6221	4.6	0.8	0.1	4923.5
6222	4.6	0.6	0.1	4960.7
6223	4.6	0.4	0.1	4999.4
6224	4.6	0.2	0.1	5039.5
6225	4.4	5.8	0.1	5108.3
6226	4.4	5.6	0.1	5064.6
6227	4.4	5.4	0.1	5022.7
6228	4.4	5.2	0.1	4982.2
6229	4.4	5.	0.1	4943.7
6230	4.4	4.8	0.1	4907.4
6231	4.4	4.6	0.1	4873.8
6232	4.4	4.4	0.1	4843.2
6233	4.4	4.2	0.1	4816.1
6234	4.4	4.	0.1	4792.6
6235	4.4	3.8	0.1	4773.1
6236	4.4	3.6	0.1	4757.7
6237	4.4	3.4	0.1	4746.6
6238	4.4	3.2	0.1	4739.8
6239	4.4	3.	0.1	4737.6
6240	4.4	2.8	0.1	4739.8
6241	4.4	2.6	0.1	4746.6
6242	4.4	2.4	0.1	4757.7
6243	4.4	2.2	0.1	4773.1
6244	4.4	2.	0.1	4792.6
6245	4.4	1.8	0.1	4816.1
6246	4.4	1.6	0.1	4843.2
6247	4.4	1.4	0.1	4873.8
6248	4.4	1.2	0.1	4907.4
6249	4.4	1.	0.1	4943.7
6250	4.4	0.8	0.1	4982.2
6251	4.4	0.6	0.1	5022.7
6252	4.4	0.4	0.1	5064.6
6253	4.4	0.2	0.1	5108.3
6254	4.2	5.8	0.1	5177.9
6255	4.2	5.6	0.1	5130.3
6256	4.2	5.4	0.1	5084.8
6257	4.2	5.2	0.1	5041.
6258	4.2	5.	0.1	4999.2
6259	4.2	4.8	0.1	4959.9
6260	4.2	4.6	0.1	4923.5
6261	4.2	4.4	0.1	4890.5
6262	4.2	4.2	0.1	4861.2
6263	4.2	4.	0.1	4835.9
6264	4.2	3.8	0.1	4814.9
6265	4.2	3.6	0.1	4798.3
6266	4.2	3.4	0.1	4786.4
6267	4.2	3.2	0.1	4779.2
6268	4.2	3.	0.1	4776.8
6269	4.2	2.8	0.1	4779.2
6270	4.2	2.6	0.1	4786.4
6271	4.2	2.4	0.1	4798.3
6272	4.2	2.2	0.1	4814.9
6273	4.2	2.	0.1	4835.9
6274	4.2	1.8	0.1	4861.2
6275	4.2	1.6	0.1	4890.5
6276	4.2	1.4	0.1	4923.5
6277	4.2	1.2	0.1	4959.9
6278	4.2	1.	0.1	4999.2
6279	4.2	0.8	0.1	5041.
6280	4.2	0.6	0.1	5084.8
6281	4.2	0.4	0.1	5130.3
6282	4.2	0.2	0.1	5177.9
6283	4.	5.8	0.1	5248.2
6284	4.	5.6	0.1	5196.5
6285	4.	5.4	0.1	5147.1
6286	4.	5.2	0.1	5099.6
6287	4.	5.	0.1	5054.3
6288	4.	4.8	0.1	5011.9
6289	4.	4.6	0.1	4972.6
6290	4.	4.4	0.1	4937.1
6291	4.	4.2	0.1	4905.5
6292	4.	4.	0.1	4878.4
6293	4.	3.8	0.1	4855.8
6294	4.	3.6	0.1	4838.1
6295	4.	3.4	0.1	4825.4
6296	4.	3.2	0.1	4817.7
6297	4.	3.	0.1	4815.1
6298	4.	2.8	0.1	4817.7
6299	4.	2.6	0.1	4825.4
6300	4.	2.4	0.1	4838.1
6301	4.	2.2	0.1	4855.8
6302	4.	2.	0.1	4878.4
6303	4.	1.8	0.1	4905.5
6304	4.	1.6	0.1	4937.1
6305	4.	1.4	0.1	4972.6
6306	4.	1.2	0.1	5011.9
6307	4.	1.	0.1	5054.3
6308	4.	0.8	0.1	5099.6
6309	4.	0.6	0.1	5147.1
6310	4.	0.4	0.1	5196.5
6311	4.	0.2	0.1	5248.2
6312	3.8	5.8	0.1	5319.3
6313	3.8	5.6	0.1	5262.9
6314	3.8	5.4	0.1	5209.4
6315	3.8	5.2	0.1	5158.
6316	3.8	5.	0.1	5109.1
6317	3.8	4.8	0.1	5063.3
6318	3.8	4.6	0.1	5021.
6319	3.8	4.4	0.1	4982.8
6320	3.8	4.2	0.1	4949.
6321	3.8	4.	0.1	4920.
6322	3.8	3.8	0.1	4896.
6323	3.8	3.6	0.1	4877.1
6324	3.8	3.4	0.1	4863.6
6325	3.8	3.2	0.1	4855.4
6326	3.8	3.	0.1	4852.7
6327	3.8	2.8	0.1	4855.4
6328	3.8	2.6	0.1	4863.6
6329	3.8	2.4	0.1	4877.1
6330	3.8	2.2	0.1	4896.
6331	3.8	2.	0.1	4920.
6332	3.8	1.8	0.1	4949.
6333	3.8	1.6	0.1	4982.8
6334	3.8	1.4	0.1	5021.
6335	3.8	1.2	0.1	5063.3
6336	3.8	1.	0.1	5109.1
6337	3.8	0.8	0.1	5158.
6338	3.8	0.6	0.1	5209.4
6339	3.8	0.4	0.1	5262.9
6340	3.8	0.2	0.1	5319.3
6341	3.6	5.8	0.1	5391.1
6342	3.6	5.6	0.1	5329.6
6343	3.6	5.4	0.1	5271.6
6344	3.6	5.2	0.1	5216.
6345	3.6	5.	0.1	5163.3
6346	3.6	4.8	0.1	5114.
6347	3.6	4.6	0.1	5068.6
6348	3.6	4.4	0.1	5027.8
6349	3.6	4.2	0.1	4991.8
6350	3.6	4.	0.1	4960.9
6351	3.6	3.8	0.1	4935.5
6352	3.6	3.6	0.1	4915.6
6353	3.6	3.4	0.1	4901.3
6354	3.6	3.2	0.1	4892.7
6355	3.6	3.	0.1	4889.9
6356	3.6	2.8	0.1	4892.7
6357	3.6	2.6	0.1	4901.3
6358	3.6	2.4	0.1	4915.6
6359	3.6	2.2	0.1	4935.5
6360	3.6	2.	0.1	4960.9
6361	3.6	1.8	0.1	4991.8
6362	3.6	1.6	0.1	5027.8
6363	3.6	1.4	0.1	5068.6
6364	3.6	1.2	0.1	5114.
6365	3.6	1.	0.1	5163.3
6366	3.6	0.8	0.1	5216.
6367	3.6	0.6	0.1	5271.6
6368	3.6	0.4	0.1	5329.6
6369	3.6	0.2	0.1	5391.1
6370	3.4	5.8	0.1	5463.3
6371	3.4	5.6	0.1	5396.3
6372	3.4	5.4	0.1	5333.5
6373	3.4	5.2	0.1	5273.5
6374	3.4	5.	0.1	5216.7
6375	3.4	4.8	0.1	5163.8
6376	3.4	4.6	0.1	5115.4
6377	3.4	4.4	0.1	5071.9
6378	3.4	4.2	0.1	5033.8
6379	3.4	4.	0.1	5001.3
6380	3.4	3.8	0.1	4974.6
6381	3.4	3.6	0.1	4953.8
6382	3.4	3.4	0.1	4938.9
6383	3.4	3.2	0.1	4930.
6384	3.4	3.	0.1	4927.
6385	3.4	2.8	0.1	4930.
6386	3.4	2.6	0.1	4938.9
6387	3.4	2.4	0.1	4953.8
6388	3.4	2.2	0.1	4974.6
6389	3.4	2.	0.1	5001.3
6390	3.4	1.8	0.1	5033.8
6391	3.4	1.6	0.1	5071.9
6392	3.4	1.4	0.1	5115.4
6393	3.4	1.2	0.1	5163.8
6394	3.4	1.	0.1	5216.7
6395	3.4	0.8	0.1	5273.5
6396	3.4	0.6	0.1	5333.5
6397	3.4	0.4	0.1	5396.3
6398	3.4	0.2	0.1	5463.3
6399	3.2	5.8	0.1	5535.9
6400	3.2	5.6	0.1	5462.7
6401	3.2	5.4	0.1	5394.8
6402	3.2	5.2	0.1	5330.2
6403	3.2	5.	0.1	5269.2
6404	3.2	4.8	0.1	5212.6
6405	3.2	4.6	0.1	5161.1
6406	3.2	4.4	0.1	5115.1
6407	3.2	4.2	0.1	5075.1
6408	3.2	4.	0.1	5041.2
6409	3.2	3.8	0.1	5013.5
6410	3.2	3.6	0.1	4992.
6411	3.2	3.4	0.1	4976.7
6412	3.2	3.2	0.1	4967.6
6413	3.2	3.	0.1	4964.5
6414	3.2	2.8	0.1	4967.6
6415	3.2	2.6	0.1	4976.7
6416	3.2	2.4	0.1	4992.
6417	3.2	2.2	0.1	5013.5
6418	3.2	2.	0.1	5041.2
6419	3.2	1.8	0.1	5075.1
6420	3.2	1.6	0.1	5115.1
6421	3.2	1.4	0.1	5161.1
6422	3.2	1.2	0.1	5212.6
6423	3.2	1.	0.1	5269.2
6424	3.2	0.8	0.1	5330.2
6425	3.2	0.6	0.1	5394.8
6426	3.2	0.4	0.1	5462.7
6427	3.2	0.2	0.1	5535.9
6428	3.	5.8	0.1	5608.5
6429	3.	5.6	0.1	5528.5
6430	3.	5.4	0.1	5455.2
6431	3.	5.2	0.1	5385.6
6432	3.	5.	0.1	5320.3
6433	3.	4.8	0.1	5260.1
6434	3.	4.6	0.1	5205.6
6435	3.	4.4	0.1	5157.5
6436	3.	4.2	0.1	5115.9
6437	3.	4.	0.1	5080.9
6438	3.	3.8	0.1	5052.6
6439	3.	3.6	0.1	5030.8
6440	3.	3.4	0.1	5015.4
6441	3.	3.2	0.1	5006.2
6442	3.	3.	0.1	5003.1
6443	3.	2.8	0.1	5006.2
6444	3.	2.6	0.1	5015.4
6445	3.	2.4	0.1	5030.8
6446	3.	2.2	0.1	5052.6
6447	3.	2.	0.1	5080.9
6448	3.	1.8	0.1	5115.9
6449	3.	1.6	0.1	5157.5
6450	3.	1.4	0.1	5205.6
6451	3.	1.2	0.1	5260.1
6452	3.	1.	0.1	5320.3
6453	3.	0.8	0.1	5385.6
6454	3.	0.6	0.1	5455.2
6455	3.	0.4	0.1	5528.5
6456	3.	0.2	0.1	5608.5
6457	2.8	5.8	0.1	5680.5
6458	2.8	5.6	0.1	5593.2
6459	2.8	5.4	0.1	5514.
6460	2.8	5.2	0.1	5439.2
6461	2.8	5.	0.1	5369.5
6462	2.8	4.8	0.1	5305.8
6463	2.8	4.6	0.1	5248.8
6464	2.8	4.4	0.1	5198.9
6465	2.8	4.2	0.1	5156.3
6466	2.8	4.	0.1	5120.9
6467	2.8	3.8	0.1	5092.5
6468	2.8	3.6	0.1	5070.9
6469	2.8	3.4	0.1	5055.7
6470	2.8	3.2	0.1	5046.7
6471	2.8	3.	0.1	5043.7
6472	2.8	2.8	0.1	5046.7
6473	2.8	2.6	0.1	5055.7
6474	2.8	2.4	0.1	5070.9
6475	2.8	2.2	0.1	5092.5
6476	2.8	2.	0.1	5120.9
6477	2.8	1.8	0.1	5156.3
6478	2.8	1.6	0.1	5198.9
6479	2.8	1.4	0.1	5248.8
6480	2.8	1.2	0.1	5305.8
6481	2.8	1.	0.1	5369.5
6482	2.8	0.8	0.1	5439.2
6483	2.8	0.6	0.1	5514.
6484	2.8	0.4	0.1	5593.2
6485	2.8	0.2	0.1	5680.5
6486	2.6	5.8	0.1	5751.4
6487	2.6	5.6	0.1	5655.8
6488	2.6	5.4	0.1	5570.3
6489	2.6	5.2	0.1	5490.3
6490	2.6	5.	0.1	5416.3
6491	2.6	4.8	0.1	5349.4
6492	2.6	4.6	0.1	5290.4
6493	2.6	4.4	0.1	5239.4
6494	2.6	4.2	0.1	5196.6
6495	2.6	4.	0.1	5161.6
6496	2.6	3.8	0.1	5133.9
6497	2.6	3.6	0.1	5113.1
6498	2.6	3.4	0.1	5098.7
6499	2.6	3.2	0.1	5090.2
6500	2.6	3.	0.1	5087.4
6501	2.6	2.8	0.1	5090.2
6502	2.6	2.6	0.1	5098.7
6503	2.6	2.4	0.1	5113.1
6504	2.6	2.2	0.1	5133.9
6505	2.6	2.	0.1	5161.6
6506	2.6	1.8	0.1	5196.6
6507	2.6	1.6	0.1	5239.4
6508	2.6	1.4	0.1	5290.4
6509	2.6	1.2	0.1	5349.4
6510	2.6	1.	0.1	5416.3
6511	2.6	0.8	0.1	5490.3
6512	2.6	0.6	0.1	5570.3
6513	2.6	0.4	0.1	5655.8
6514	2.6	0.2	0.1	5751.4
6515	2.4	5.8	0.1	5820.1
6516	2.4	5.6	0.1	5715.4
6517	2.4	5.4	0.1	5623.3
6518	2.4	5.2	0.1	5537.7
6519	2.4	5.	0.1	5459.7
6520	2.4	4.8	0.1	5390.2
6521	2.4	4.6	0.1	5329.9
6522	2.4	4.4	0.1	5279.
6523	2.4	4.2	0.1	5237.1
6524	2.4	4.	0.1	5203.6
6525	2.4	3.8	0.1	5177.7
6526	2.4	3.6	0.1	5158.7
6527	2.4	3.4	0.1	5145.6
6528	2.4	3.2	0.1	5138.1
6529	2.4	3.	0.1	5135.6
6530	2.4	2.8	0.1	5138.1
6531	2.4	2.6	0.1	5145.6
6532	2.4	2.4	0.1	5158.7
6533	2.4	2.2	0.1	5177.7
6534	2.4	2.	0.1	5203.6
6535	2.4	1.8	0.1	5237.1
6536	2.4	1.6	0.1	5279.
6537	2.4	1.4	0.1	5329.9
6538	2.4	1.2	0.1	5390.2
6539	2.4	1.	0.1	5459.7
6540	2.4	0.8	0.1	5537.7
6541	2.4	0.6	0.1	5623.3
6542	2.4	0.4	0.1	5715.4
6543	2.4	0.2	0.1	5820.1
6544	2.2	5.8	0.1	5885.3
6545	2.2	5.6	0.1	5770.4
6546	2.2	5.4	0.1	5671.1
6547	2.2	5.2	0.1	5580.2
6548	2.2	5.	0.1	5498.5
6549	2.2	4.8	0.1	5427.3
6550	2.2	4.6	0.1	5367.1
6551	2.2	4.4	0.1	5317.7
6552	2.2	4.2	0.1	5278.4
6553	2.2	4.	0.1	5247.9
6554	2.2	3.8	0.1	5225.2
6555	2.2	3.6	0.1	5208.9
6556	2.2	3.4	0.1	5198.
6557	2.2	3.2	0.1	5191.9
6558	2.2	3.	0.1	5189.9
6559	2.2	2.8	0.1	5191.9
6560	2.2	2.6	0.1	5198.
6561	2.2	2.4	0.1	5208.9
6562	2.2	2.2	0.1	5225.2
6563	2.2	2.	0.1	5247.9
6564	2.2	1.8	0.1	5278.4
6565	2.2	1.6	0.1	5317.7
6566	2.2	1.4	0.1	5367.1
6567	2.2	1.2	0.1	5427.3
6568	2.2	1.	0.1	5498.5
6569	2.2	0.8	0.1	5580.2
6570	2.2	0.6	0.1	5671.1
6571	2.2	0.4	0.1	5770.4
6572	2.2	0.2	0.1	5885.3
6573	2.	5.8	0.1	5944.9
6574	2.	5.6	0.1	5818.7
6575	2.	5.4	0.1	5711.8
6576	2.	5.2	0.1	5615.7
6577	2.	5.	0.1	5531.3
6578	2.	4.8	0.1	5459.9
6579	2.	4.6	0.1	5401.7
6580	2.	4.4	0.1	5355.9
6581	2.	4.2	0.1	5321.2
6582	2.	4.	0.1	5295.7
6583	2.	3.8	0.1	5277.7
6584	2.	3.6	0.1	5265.5
6585	2.	3.4	0.1	5257.8
6586	2.	3.2	0.1	5253.6
6587	2.	3.	0.1	5252.3
6588	2.	2.8	0.1	5253.6
6589	2.	2.6	0.1	5257.8
6590	2.	2.4	0.1	5265.5
6591	2.	2.2	0.1	5277.7
6592	2.	2.	0.1	5295.7
6593	2.	1.8	0.1	5321.2
6594	2.	1.6	0.1	5355.9
6595	2.	1.4	0.1	5401.7
6596	2.	1.2	0.1	5459.9
6597	2.	1.	0.1	5531.3
6598	2.	0.8	0.1	5615.7
6599	2.	0.6	0.1	5711.8
6600	2.	0.4	0.1	5818.7
6601	2.	0.2	0.1	5944.9
6602	1.8	5.8	0.1	5996.3
6603	1.8	5.6	0.1	5857.1
6604	1.8	5.4	0.1	5742.4
6605	1.8	5.2	0.1	5641.6
6606	1.8	5.	0.1	5556.
6607	1.8	4.8	0.1	5486.7
6608	1.8	4.6	0.1	5433.4
6609	1.8	4.4	0.1	5394.2
6610	1.8	4.2	0.1	5366.8
6611	1.8	4.	0.1	5348.7
6612	1.8	3.8	0.1	5337.4
6613	1.8	3.6	0.1	5330.9
6614	1.8	3.4	0.1	5327.3
6615	1.8	3.2	0.1	5325.7
6616	1.8	3.	0.1	5325.2
6617	1.8	2.8	0.1	5325.7
6618	1.8	2.6	0.1	5327.3
6619	1.8	2.4	0.1	5330.9
6620	1.8	2.2	0.1	5337.4
6621	1.8	2.	0.1	5348.7
6622	1.8	1.8	0.1	5366.8
6623	1.8	1.6	0.1	5394.2
6624	1.8	1.4	0.1	5433.4
6625	1.8	1.2	0.1	5486.7
6626	1.8	1.	0.1	5556.
6627	1.8	0.8	0.1	5641.6
6628	1.8	0.6	0.1	5742.4
6629	1.8	0.4	0.1	5857.1
6630	1.8	0.2	0.1	5996.3
6631	1.6	5.8	0.1	6035.2
6632	1.6	5.6	0.1	5881.4
6633	1.6	5.4	0.1	5758.6
6634	1.6	5.2	0.1	5654.4
6635	1.6	5.	0.1	5570.3
6636	1.6	4.8	0.1	5506.8
6637	1.6	4.6	0.1	5462.3
6638	1.6	4.4	0.1	5433.6
6639	1.6	4.2	0.1	5417.1
6640	1.6	4.	0.1	5409.2
6641	1.6	3.8	0.1	5406.8
6642	1.6	3.6	0.1	5407.3
6643	1.6	3.4	0.1	5409.
6644	1.6	3.2	0.1	5410.5
6645	1.6	3.	0.1	5411.
6646	1.6	2.8	0.1	5410.5
6647	1.6	2.6	0.1	5409.
6648	1.6	2.4	0.1	5407.3
6649	1.6	2.2	0.1	5406.8
6650	1.6	2.	0.1	5409.2
6651	1.6	1.8	0.1	5417.1
6652	1.6	1.6	0.1	5433.6
6653	1.6	1.4	0.1	5462.3
6654	1.6	1.2	0.1	5506.8
6655	1.6	1.	0.1	5570.3
6656	1.6	0.8	0.1	5654.4
6657	1.6	0.6	0.1	5758.6
6658	1.6	0.4	0.1	5881.4
6659	1.6	0.2	0.1	6035.2
6660	1.4	5.8	0.1	6055.6
6661	1.4	5.6	0.1	5885.1
6662	1.4	5.4	0.1	5754.8
6663	1.4	5.2	0.1	5649.9
6664	1.4	5.	0.1	5571.8
6665	1.4	4.8	0.1	5519.7
6666	1.4	4.6	0.1	5489.8
6667	1.4	4.4	0.1	5476.7
6668	1.4	4.2	0.1	5475.1
6669	1.4	4.	0.1	5480.5
6670	1.4	3.8	0.1	5489.1
6671	1.4	3.6	0.1	5498.3
6672	1.4	3.4	0.1	5506.
6673	1.4	3.2	0.1	5511.2
6674	1.4	3.	0.1	5512.9
6675	1.4	2.8	0.1	5511.2
6676	1.4	2.6	0.1	5506.
6677	1.4	2.4	0.1	5498.3
6678	1.4	2.2	0.1	5489.1
6679	1.4	2.	0.1	5480.5
6680	1.4	1.8	0.1	5475.1
6681	1.4	1.6	0.1	5476.7
6682	1.4	1.4	0.1	5489.8
6683	1.4	1.2	0.1	5519.8
6684	1.4	1.	0.1	5571.8
6685	1.4	0.8	0.1	5649.9
6686	1.4	0.6	0.1	5754.8
6687	1.4	0.4	0.1	5885.1
6688	1.4	0.2	0.1	6055.6
6689	1.2	5.8	0.1	6047.7
6690	1.2	5.6	0.1	5858.
6691	1.2	5.4	0.1	5721.6
6692	1.2	5.2	0.1	5621.3
6693	1.2	5.	0.1	5557.2
6694	1.2	4.8	0.1	5525.2
6695	1.2	4.6	0.1	5517.5
6696	1.2	4.4	0.1	5526.1
6697	1.2	4.2	0.1	5543.9
6698	1.2	4.	0.1	5565.5
6699	1.2	3.8	0.1	5587.
6700	1.2	3.6	0.1	5605.8
6701	1.2	3.4	0.1	5620.2
6702	1.2	3.2	0.1	5629.2
6703	1.2	3.	0.1	5632.3
6704	1.2	2.8	0.1	5629.2
6705	1.2	2.6	0.1	5620.2
6706	1.2	2.4	0.1	5605.8
6707	1.2	2.2	0.1	5587.
6708	1.2	2.	0.1	5565.5
6709	1.2	1.8	0.1	5543.9
6710	1.2	1.6	0.1	5526.1
6711	1.2	1.4	0.1	5517.5
6712	1.2	1.2	0.1	5525.2
6713	1.2	1.	0.1	5557.2
6714	1.2	0.8	0.1	5621.3
6715	1.2	0.6	0.1	5721.6
6716	1.2	0.4	0.1	5858.
6717	1.2	0.2	0.1	6047.7
6718	1.	5.8	0.1	5997.
6719	1.	5.6	0.1	5787.3
6720	1.	5.4	0.1	5650.7
6721	1.	5.2	0.1	5566.5
6722	1.	5.	0.1	5530.6
6723	1.	4.8	0.1	5531.7
6724	1.	4.6	0.1	5556.5
6725	1.	4.4	0.1	5593.6
6726	1.	4.2	0.1	5634.8
6727	1.	4.	0.1	5674.8
6728	1.	3.8	0.1	5710.2
6729	1.	3.6	0.1	5738.9
6730	1.	3.4	0.1	5760.1
6731	1.	3.2	0.1	5772.9
6732	1.	3.	0.1	5777.2
6733	1.	2.8	0.1	5772.9
6734	1.	2.6	0.1	5760.1
6735	1.	2.4	0.1	5738.9
6736	1.	2.2	0.1	5710.2
6737	1.	2.	0.1	5674.8
6738	1.	1.8	0.1	5634.8
6739	1.	1.6	0.1	5593.6
6740	1.	1.4	0.1	5556.5
6741	1.	1.2	0.1	5531.7
6742	1.	1.	0.1	5530.6
6743	1.	0.8	0.1	5566.5
6744	1.	0.6	0.1	5650.7
6745	1.	0.4	0.1	5787.3
6746	1.	0.2	0.1	5997.
6747	0.8	5.8	0.1	5872.4
6748	0.8	5.6	0.1	5638.2
6749	0.8	5.4	0.1	5512.2
6750	0.8	5.2	0.1	5465.6
6751	0.8	5.	0.1	5479.7
6752	0.8	4.8	0.1	5530.4
6753	0.8	4.6	0.1	5597.7
6754	0.8	4.4	0.1	5668.3
6755	0.8	4.2	0.1	5734.8
6756	0.8	4.	0.1	5793.2
6757	0.8	3.8	0.1	5841.7
6758	0.8	3.6	0.1	5879.6
6759	0.8	3.4	0.1	5906.6
6760	0.8	3.2	0.1	5922.7
6761	0.8	3.	0.1	5928.1
6762	0.8	2.8	0.1	5922.7
6763	0.8	2.6	0.1	5906.6
6764	0.8	2.4	0.1	5879.6
6765	0.8	2.2	0.1	5841.7
6766	0.8	2.	0.1	5793.2
6767	0.8	1.8	0.1	5734.8
6768	0.8	1.6	0.1	5668.3
6769	0.8	1.4	0.1	5597.7
6770	0.8	1.2	0.1	5530.4
6771	0.8	1.	0.1	5479.7
6772	0.8	0.8	0.1	5465.6
6773	0.8	0.6	0.1	5512.2
6774	0.8	0.4	0.1	5638.2
6775	0.8	0.2	0.1	5872.4
6776	0.6	5.8	0.1	5637.5
6777	0.6	5.6	0.1	5409.7
6778	0.6	5.4	0.1	5346.4
6779	0.6	5.2	0.1	5391.9
6780	0.6	5.	0.1	5496.
6781	0.6	4.8	0.1	5618.8
6782	0.6	4.6	0.1	5738.6
6783	0.6	4.4	0.1	5845.8
6784	0.6	4.2	0.1	5937.4
6785	0.6	4.	0.1	6012.7
6786	0.6	3.8	0.1	6072.5
6787	0.6	3.6	0.1	6117.7
6788	0.6	3.4	0.1	6149.2
6789	0.6	3.2	0.1	6167.9
6790	0.6	3.	0.1	6174.
6791	0.6	2.8	0.1	6167.9
6792	0.6	2.6	0.1	6149.2
6793	0.6	2.4	0.1	6117.7
6794	0.6	2.2	0.1	6072.5
6795	0.6	2.	0.1	6012.7
6796	0.6	1.8	0.1	5937.4
6797	0.6	1.6	0.1	5845.8
6798	0.6	1.4	0.1	5738.6
6799	0.6	1.2	0.1	5618.8
6800	0.6	1.	0.1	5496.
6801	0.6	0.8	0.1	5391.9
6802	0.6	0.6	0.1	5346.4
6803	0.6	0.4	0.1	5409.7
6804	0.6	0.2	0.1	5637.5
6805	0.4	5.8	0.1	5119.
6806	0.4	5.6	0.1	4866.4
6807	0.4	5.4	0.1	4929.
6808	0.4	5.2	0.1	5122.2
6809	0.4	5.	0.1	5332.6
6810	0.4	4.8	0.1	5522.1
6811	0.4	4.6	0.1	5681.6
6812	0.4	4.4	0.1	5812.
6813	0.4	4.2	0.1	5916.6
6814	0.4	4.	0.1	5999.1
6815	0.4	3.8	0.1	6062.7
6816	0.4	3.6	0.1	6109.7
6817	0.4	3.4	0.1	6142.1
6818	0.4	3.2	0.1	6161.1
6819	0.4	3.	0.1	6167.3
6820	0.4	2.8	0.1	6161.1
6821	0.4	2.6	0.1	6142.1
6822	0.4	2.4	0.1	6109.7
6823	0.4	2.2	0.1	6062.7
6824	0.4	2.	0.1	5999.1
6825	0.4	1.8	0.1	5916.6
6826	0.4	1.6	0.1	5812.
6827	0.4	1.4	0.1	5681.6
6828	0.4	1.2	0.1	5522.1
6829	0.4	1.	0.1	5332.6
6830	0.4	0.8	0.1	5122.2
6831	0.4	0.6	0.1	4929.
6832	0.4	0.4	0.1	4866.4
6833	0.4	0.2	0.1	5119.
6834	0.2	5.8	0.1	4192.5
6835	0.2	5.6	0.1	4725.3
6836	0.2	5.4	0.1	5384.
6837	0.2	5.2	0.1	5887.5
6838	0.2	5.	0.1	6258.9
6839	0.2	4.8	0.1	6535.4
6840	0.2	4.6	0.1	6744.
6841	0.2	4.4	0.1	6903.1
6842	0.2	4.2	0.1	7025.1
6843	0.2	4.	0.1	7118.3
6844	0.2	3.8	0.1	7188.5
6845	0.2	3.6	0.1	7239.6
6846	0.2	3.4	0.1	7274.4
6847	0.2	3.2	0.1	7294.7
6848	0.2	3.	0.1	7301.3
6849	0.2	2.8	0.1	7294.7
6850	0.2	2.6	0.1	7274.4
6851	0.2	2.4	0.1	7239.6
6852	0.2	2.2	0.1	7188.5
6853	0.2	2.	0.1	7118.3
6854	0.2	1.8	0.1	7025.1
6855	0.2	1.6	0.1	6903.1
6856	0.2	1.4	0.1	6744.
6857	0.2	1.2	0.1	6535.4
6858	0.2	1.	0.1	6258.9
6859	0.2	0.8	0.1	5887.5
6860	0.2	0.6	0.1	5384.
6861	0.2	0.4	0.1	4725.3
6862	0.2	0.2	0.1	4192.5
6863	18.167	3.8	0.1	4713.2
6864	18.167	3.6	0.1	3727.4
6865	18.167	3.4	0.1	3303.9
6866	18.167	3.2	0.1	3102.8
6867	18.167	3.	0.1	3043.6
6868	18.167	2.8	0.1	3102.8
6869	18.167	2.6	0.1	3303.9
6870	18.167	2.4	0.1	3727.4
6871	18.167	2.2	0.1	4713.2
6872	18.	3.8	0.1	4788.7
6873	18.	3.6	0.1	3775.3
6874	18.	3.4	0.1	3355.5
6875	18.	3.2	0.1	3155.8
6876	18.	3.	0.1	3097.2
6877	18.	2.8	0.1	3155.8
6878	18.	2.6	0.1	3355.5
6879	18.	2.4	0.1	3775.3
6880	18.	2.2	0.1	4788.7
6881	18.167	0.2	0.1	134.56
6882	18.167	0.4	0.1	247.84
6883	18.167	0.6	0.1	358.13
6884	18.167	0.8	0.1	479.24
6885	18.167	1.	0.1	621.26
6886	18.167	1.2	0.1	799.09
6887	18.167	1.4	0.1	1047.8
6888	18.167	1.6	0.1	1356.5
6889	18.167	1.8	0.1	2426.2
6890	18.167	2.	0.1	6757.2
6891	18.	2.	0.1	7319.2
6892	18.	1.8	0.1	3076.5
6893	18.	1.6	0.1	1746.2
6894	18.	1.4	0.1	1351.2
6895	18.	1.2	0.1	1039.
6896	18.	1.	0.1	808.28
6897	18.	0.8	0.1	620.72
6898	18.	0.6	0.1	459.68
6899	18.	0.4	0.1	314.53
6900	18.	0.2	0.1	170.1
6901	18.167	5.8	0.1	134.56
6902	18.167	5.6	0.1	247.84
6903	18.167	5.4	0.1	358.13
6904	18.167	5.2	0.1	479.24
6905	18.167	5.	0.1	621.26
6906	18.167	4.8	0.1	799.09
6907	18.167	4.6	0.1	1047.8
6908	18.167	4.4	0.1	1356.5
6909	18.167	4.2	0.1	2426.2
6910	18.167	4.	0.1	6757.2
6911	18.	4.	0.1	7319.2
6912	18.	4.2	0.1	3076.5
6913	18.	4.4	0.1	1746.2
6914	18.	4.6	0.1	1351.2
6915	18.	4.8	0.1	1039.
6916	18.	5.	0.1	808.28
6917	18.	5.2	0.1	620.72
6918	18.	5.4	0.1	459.68
6919	18.	5.6	0.1	314.53
6920	18.	5.8	0.1	170.1
6921	18.167	6.	0.1	18.144
6922	18.361	6.	0.1	151.16
6923	18.556	6.	0.1	286.63
6924	18.75	6.	0.1	399.26
6925	18.944	6.	0.1	492.14
6926	19.139	6.	0.1	565.28
6927	19.333	6.	0.1	619.69
6928	19.528	6.	0.1	656.99
6929	19.722	6.	0.1	679.26
6930	19.917	6.	0.1	688.71
6931	20.111	6.	0.1	687.46
6932	20.306	6.	0.1	677.47
6933	20.5	6.	0.1	660.41
6934	20.694	6.	0.1	637.73
6935	20.889	6.	0.1	610.61
6936	21.083	6.	0.1	580.02
6937	21.278	6.	0.1	546.74
6938	21.472	6.	0.1	511.4
6939	21.667	6.	0.1	474.5
6940	21.861	6.	0.1	436.44
6941	22.056	6.	0.1	397.53
6942	22.25	6.	0.1	358.03
6943	22.444	6.	0.1	318.13
6944	22.639	6.	0.1	278.
6945	22.833	6.	0.1	237.78
6946	23.028	6.	0.1	197.62
6947	23.222	6.	0.1	157.66
6948	23.417	6.	0.1	118.08
6949	23.611	6.	0.1	79.357
6950	23.806	6.	0.1	41.659
6951	24.	6.	0.1	10.439
6952	24.	5.8	0.1	36.08
6953	24.	5.6	0.1	57.651
6954	24.	5.4	0.1	73.047
6955	24.	5.2	0.1	84.865
6956	24.	5.	0.1	94.071
6957	24.	4.8	0.1	101.28
6958	24.	4.6	0.1	106.89
6959	24.	4.4	0.1	111.23
6960	24.	4.2	0.1	114.52
6961	24.	4.	0.1	116.98
6962	24.	3.8	0.1	118.77
6963	24.	3.6	0.1	120.02
6964	24.	3.4	0.1	120.84
6965	24.	3.2	0.1	121.3
6966	24.	3.	0.1	121.45
6967	24.	2.8	0.1	121.3
6968	24.	2.6	0.1	120.84
6969	24.	2.4	0.1	120.02
6970	24.	2.2	0.1	118.77
6971	24.	2.	0.1	116.98
6972	24.	1.8	0.1	114.52
6973	24.	1.6	0.1	111.23
6974	24.	1.4	0.1	106.89
6975	24.	1.2	0.1	101.28
6976	24.	1.	0.1	94.071
6977	24.	0.8	0.1	84.865
6978	24.	0.6	0.1	73.047
6979	24.	0.4	0.1	57.651
6980	24.	0.2	0.1	36.08
6981	1.7484e-015	0.2	0.1	1504.2
6982	3.4968e-015	0.4	0.1	2505.8
6983	5.2451e-015	0.6	0.1	3004.5
6984	6.9935e-015	0.8	0.1	3318.1
6985	8.7419e-015	1.	0.1	3525.5
6986	1.049e-014	1.2	0.1	3671.8
6987	1.2239e-014	1.4	0.1	3778.8
6988	1.3987e-014	1.6	0.1	3858.8
6989	1.5735e-014	1.8	0.1	3919.1
6990	1.7484e-014	2.	0.1	3964.7
6991	1.9232e-014	2.2	0.1	3998.8
6992	2.0981e-014	2.4	0.1	4023.5
6993	2.2729e-014	2.6	0.1	4040.2
6994	2.4477e-014	2.8	0.1	4049.9
6995	2.6226e-014	3.	0.1	4053.1
6996	2.7974e-014	3.2	0.1	4049.9
6997	2.9723e-014	3.4	0.1	4040.2
6998	3.1471e-014	3.6	0.1	4023.5
6999	3.3219e-014	3.8	0.1	3998.8
7000	3.4968e-014	4.	0.1	3964.7
7001	3.6716e-014	4.2	0.1	3919.1
7002	3.8464e-014	4.4	0.1	3858.8
7003	4.0213e-014	4.6	0.1	3778.8
7004	4.1961e-014	4.8	0.1	3671.8
7005	4.371e-014	5.	0.1	3525.5
7006	4.5458e-014	5.2	0.1	3318.1
7007	4.7206e-014	5.4	0.1	3004.5
7008	4.8955e-014	5.6	0.1	2505.8
7009	5.0703e-014	5.8	0.1	1504.2
7010	3.937e-014	6.	0.1	2226.6
7011	0.2	6.	0.1	3964.7
7012	0.4	6.	0.1	5067.4
7013	0.6	6.	0.1	5566.9
7014	0.8	6.	0.1	5836.2
7015	1.	6.	0.1	5976.9
7016	1.2	6.	0.1	6043.2
7017	1.4	6.	0.1	6063.
7018	1.6	6.	0.1	6052.2
7019	1.8	6.	0.1	6020.9
7020	2.	6.	0.1	5975.4
7021	2.2	6.	0.1	5920.1
7022	2.4	6.	0.1	5858.1
7023	2.6	6.	0.1	5791.4
7024	2.8	6.	0.1	5721.8
7025	3.	6.	0.1	5650.2
7026	3.2	6.	0.1	5577.5
7027	3.4	6.	0.1	5504.3
7028	3.6	6.	0.1	5431.
7029	3.8	6.	0.1	5357.9
7030	4.	6.	0.1	5285.2
7031	4.2	6.	0.1	5213.1
7032	4.4	6.	0.1	5141.6
7033	4.6	6.	0.1	5070.8
7034	4.8	6.	0.1	5000.8
7035	5.	6.	0.1	4931.5
7036	5.2	6.	0.1	4862.9
7037	5.4	6.	0.1	4795.1
7038	5.6	6.	0.1	4728.
7039	5.8	6.	0.1	4661.6
7040	6.	6.	0.1	4595.8
7041	6.2	6.	0.1	4530.7
7042	6.4	6.	0.1	4466.2
7043	6.6	6.	0.1	4402.2
7044	6.8	6.	0.1	4338.8
7045	7.	6.	0.1	4275.9
7046	7.2	6.	0.1	4213.5
7047	7.4	6.	0.1	4151.6
7048	7.6	6.	0.1	4090.1
7049	7.8	6.	0.1	4029.1
7050	8.	6.	0.1	3968.5
7051	8.2	6.	0.1	3908.2
7052	8.4	6.	0.1	3848.4
7053	8.6	6.	0.1	3788.9
7054	8.8	6.	0.1	3729.8
7055	9.	6.	0.1	3671.1
7056	9.2	6.	0.1	3612.6
7057	9.4	6.	0.1	3554.5
7058	9.6	6.	0.1	3496.7
7059	9.8	6.	0.1	3439.2
7060	10.	6.	0.1	3382.
7061	10.2	6.	0.1	3325.
7062	10.4	6.	0.1	3268.4
7063	10.6	6.	0.1	3212.
7064	10.8	6.	0.1	3155.9
7065	11.	6.	0.1	3100.
7066	11.2	6.	0.1	3044.3
7067	11.4	6.	0.1	2988.9
7068	11.6	6.	0.1	2933.7
7069	11.8	6.	0.1	2878.7
7070	12.	6.	0.1	2823.8
7071	12.2	6.	0.1	2769.2
7072	12.4	6.	0.1	2714.6
7073	12.6	6.	0.1	2660.2
7074	12.8	6.	0.1	2605.8
7075	13.	6.	0.1	2551.4
7076	13.2	6.	0.1	2497.
7077	13.4	6.	0.1	2442.5
7078	13.6	6.	0.1	2387.7
7079	13.8	6.	0.1	2332.5
7080	14.	6.	0.1	2276.8
7081	14.2	6.	0.1	2220.3
7082	14.4	6.	0.1	2162.8
7083	14.6	6.	0.1	2104.
7084	14.8	6.	0.1	2043.4
7085	15.	6.	0.1	1980.4
7086	15.2	6.	0.1	1914.5
7087	15.4	6.	0.1	1844.8
7088	15.6	6.	0.1	1770.2
7089	15.8	6.	0.1	1689.6
7090	16.	6.	0.1	1601.4
7091	16.2	6.	0.1	1504.
7092	16.4	6.	0.1	1395.6
7093	16.6	6.	0.1	1274.1
7094	16.8	6.	0.1	1137.9
7095	17.	6.	0.1	985.45
7096	17.2	6.	0.1	816.29
7097	17.4	6.	0.1	630.88
7098	17.6	6.	0.1	431.18
7099	17.8	6.	0.1	215.66
7100	18.	6.	0.1	24.568
7101	24.	0.	0.1	10.439
7102	23.806	0.	0.1	41.659
7103	23.611	0.	0.1	79.357
7104	23.417	0.	0.1	118.08
7105	23.222	0.	0.1	157.66
7106	23.028	0.	0.1	197.62
7107	22.833	0.	0.1	237.78
7108	22.639	0.	0.1	278.
7109	22.444	0.	0.1	318.13
7110	22.25	0.	0.1	358.03
7111	22.056	0.	0.1	397.53
7112	21.861	0.	0.1	436.44
7113	21.667	0.	0.1	474.5
7114	21.472	0.	0.1	511.4
7115	21.278	0.	0.1	546.74
7116	21.083	0.	0.1	580.02
7117	20.889	0.	0.1	610.61
7118	20.694	0.	0.1	637.73
7119	20.5	0.	0.1	660.41
7120	20.306	0.	0.1	677.47
7121	20.111	0.	0.1	687.46
7122	19.917	0.	0.1	688.71
7123	19.722	0.	0.1	679.26
7124	19.528	0.	0.1	656.99
7125	19.333	0.	0.1	619.69
7126	19.139	0.	0.1	565.28
7127	18.944	0.	0.1	492.14
7128	18.75	0.	0.1	399.26
7129	18.556	0.	0.1	286.63
7130	18.361	0.	0.1	151.16
7131	18.167	0.	0.1	18.144
7132	18.	0.	0.1	24.568
7133	17.8	2.7593e-030	0.1	215.66
7134	17.6	2.7283e-030	0.1	431.18
7135	17.4	2.6973e-030	0.1	630.88
7136	17.2	2.6663e-030	0.1	816.29
7137	17.	2.6353e-030	0.1	985.45
7138	16.8	2.6043e-030	0.1	1137.9
7139	16.6	2.5733e-030	0.1	1274.1
7140	16.4	2.5423e-030	0.1	1395.6
7141	16.2	2.5113e-030	0.1	1504.
7142	16.	2.4803e-030	0.1	1601.4
7143	15.8	2.4493e-030	0.1	1689.6
7144	15.6	2.4183e-030	0.1	1770.2
7145	15.4	2.3873e-030	0.1	1844.8
7146	15.2	2.3563e-030	0.1	1914.5
7147	15.	2.3253e-030	0.1	1980.4
7148	14.8	2.2943e-030	0.1	2043.4
7149	14.6	2.2633e-030	0.1	2104.
7150	14.4	2.2323e-030	0.1	2162.8
7151	14.2	2.2013e-030	0.1	2220.3
7152	14.	2.1703e-030	0.1	2276.8
7153	13.8	2.1392e-030	0.1	2332.5
7154	13.6	2.1082e-030	0.1	2387.7
7155	13.4	2.0772e-030	0.1	2442.5
7156	13.2	2.0462e-030	0.1	2497.
7157	13.	2.0152e-030	0.1	2551.4
7158	12.8	1.9842e-030	0.1	2605.8
7159	12.6	1.9532e-030	0.1	2660.2
7160	12.4	1.9222e-030	0.1	2714.6
7161	12.2	1.8912e-030	0.1	2769.2
7162	12.	1.8602e-030	0.1	2823.8
7163	11.8	1.8292e-030	0.1	2878.7
7164	11.6	1.7982e-030	0.1	2933.7
7165	11.4	1.7672e-030	0.1	2988.9
7166	11.2	1.7362e-030	0.1	3044.3
7167	11.	1.7052e-030	0.1	3100.
7168	10.8	1.6742e-030	0.1	3155.9
7169	10.6	1.6432e-030	0.1	3212.
7170	10.4	1.6122e-030	0.1	3268.4
7171	10.2	1.5812e-030	0.1	3325.
7172	10.	1.5502e-030	0.1	3382.
7173	9.8	1.5192e-030	0.1	3439.2
7174	9.6	1.4882e-030	0.1	3496.7
7175	9.4	1.4572e-030	0.1	3554.5
7176	9.2	1.4262e-030	0.1	3612.6
7177	9.	1.3952e-030	0.1	3671.1
7178	8.8	1.3642e-030	0.1	3729.8
7179	8.6	1.3332e-030	0.1	3788.9
7180	8.4	1.3022e-030	0.1	3848.4
7181	8.2	1.2711e-030	0.1	3908.2
7182	8.	1.2401e-030	0.1	3968.5
7183	7.8	1.2091e-030	0.1	4029.1
7184	7.6	1.1781e-030	0.1	4090.1
7185	7.4	1.1471e-030	0.1	4151.6
7186	7.2	1.1161e-030	0.1	4213.5
7187	7.	1.0851e-030	0.1	4275.9
7188	6.8	1.0541e-030	0.1	4338.8
7189	6.6	1.0231e-030	0.1	4402.2
7190	6.4	9.9212e-031	0.1	4466.2
7191	6.2	9.6111e-031	0.1	4530.7
7192	6.	9.3011e-031	0.1	4595.8
7193	5.8	8.991e-031	0.1	4661.6
7194	5.6	8.681e-031	0.1	4728.
7195	5.4	8.371e-031	0.1	4795.1
7196	5.2	8.0609e-031	0.1	4862.9
7197	5.	7.7509e-031	0.1	4931.5
7198	4.8	7.4409e-031	0.1	5000.8
7199	4.6	7.1308e-031	0.1	5070.8
7200	4.4	6.8208e-031	0.1	5141.6
7201	4.2	6.5108e-031	0.1	5213.1
7202	4.	6.2007e-031	0.1	5285.2
7203	3.8	5.8907e-031	0.1	5357.9
7204	3.6	5.5806e-031	0.1	5431.
7205	3.4	5.2706e-031	0.1	5504.3
7206	3.2	4.9606e-031	0.1	5577.5
7207	3.	4.6505e-031	0.1	5650.2
7208	2.8	4.3405e-031	0.1	5721.8
7209	2.6	4.0305e-031	0.1	5791.4
7210	2.4	3.7204e-031	0.1	5858.1
7211	2.2	3.4104e-031	0.1	5920.1
7212	2.	3.1004e-031	0.1	5975.4
7213	1.8	2.7903e-031	0.1	6020.9
7214	1.6	2.4803e-031	0.1	6052.2
7215	1.4	2.1703e-031	0.1	6063.
7216	1.2	1.8602e-031	0.1	6043.2
7217	1.	1.5502e-031	0.1	5976.9
7218	0.8	1.2401e-031	0.1	5836.2
7219	0.6	9.3011e-032	0.1	5566.9
7220	0.4	6.2007e-032	0.1	5067.4
7221	0.2	3.1004e-032	0.1	3964.7
7222	0.	0.	0.1	2226.6
7223	0.2	3.1004e-032	0.	3964.7
7224	0.4	6.2007e-032	0.	5067.4
7225	0.6	9.3011e-032	0.	5566.9
7226	0.8	1.2401e-031	0.	5836.2
7227	1.	1.5502e-031	0.	5976.9
7228	1.2	1.8602e-031	0.	6043.2
7229	1.4	2.1703e-031	0.	6063.
7230	1.6	2.4803e-031	0.	6052.2
7231	1.8	2.7903e-031	0.	6020.9
7232	2.	3.1004e-031	0.	5975.4
7233	2.2	3.4104e-031	0.	5920.1
7234	2.4	3.7204e-031	0.	5858.1
7235	2.6	4.0305e-031	0.	5791.4
7236	2.8	4.3405e-031	0.	5721.8
7237	3.	4.6505e-031	0.	5650.2
7238	3.2	4.9606e-031	0.	5577.5
7239	3.4	5.2706e-031	0.	5504.3
7240	3.6	5.5806e-031	0.	5431.
7241	3.8	5.8907e-031	0.	5357.9
7242	4.	6.2007e-031	0.	5285.2
7243	4.2	6.5108e-031	0.	5213.1
7244	4.4	6.8208e-031	0.	5141.6
7245	4.6	7.1308e-031	0.	5070.8
7246	4.8	7.4409e-031	0.	5000.8
7247	5.	7.7509e-031	0.	4931.5
7248	5.2	8.0609e-031	0.	4862.9
7249	5.4	8.371e-031	0.	4795.1
7250	5.6	8.681e-031	0.	4728.
7251	5.8	8.991e-031	0.	4661.6
7252	6.	9.3011e-031	0.	4595.8
7253	6.2	9.6111e-031	0.	4530.7
7254	6.4	9.9212e-031	0.	4466.2
7255	6.6	1.0231e-030	0.	4402.2
7256	6.8	1.0541e-030	0.	4338.8
7257	7.	1.0851e-030	0.	4275.9
7258	7.2	1.1161e-030	0.	4213.5
7259	7.4	1.1471e-030	0.	4151.6
7260	7.6	1.1781e-030	0.	4090.1
7261	7.8	1.2091e-030	0.	4029.1
7262	8.	1.2401e-030	0.	3968.5
7263	8.2	1.2711e-030	0.	3908.2
7264	8.4	1.3022e-030	0.	3848.4
7265	8.6	1.3332e-030	0.	3788.9
7266	8.8	1.3642e-030	0.	3729.8
7267	9.	1.3952e-030	0.	3671.1
7268	9.2	1.4262e-030	0.	3612.6
7269	9.4	1.4572e-030	0.	3554.5
7270	9.6	1.4882e-030	0.	3496.7
7271	9.8	1.5192e-030	0.	3439.2
7272	10.	1.5502e-030	0.	3382.
7273	10.2	1.5812e-030	0.	3325.
7274	10.4	1.6122e-030	0.	3268.4
7275	10.6	1.6432e-030	0.	3212.
7276	10.8	1.6742e-030	0.	3155.9
7277	11.	1.7052e-030	0.	3100.
7278	11.2	1.7362e-030	0.	3044.3
7279	11.4	1.7672e-030	0.	2988.9
7280	11.6	1.7982e-030	0.	2933.7
7281	11.8	1.8292e-030	0.	2878.7
7282	12.	1.8602e-030	0.	2823.8
7283	12.2	1.8912e-030	0.	2769.2
7284	12.4	1.9222e-030	0.	2714.6
7285	12.6	1.9532e-030	0.	2660.2
7286	12.8	1.9842e-030	0.	2605.8
7287	13.	2.0152e-030	0.	2551.4
7288	13.2	2.0462e-030	0.	2497.
7289	13.4	2.0772e-030	0.	2442.5
7290	13.6	2.1082e-030	0.	2387.7
7291	13.8	2.1392e-030	0.	2332.5
7292	14.	2.1703e-030	0.	2276.8
7293	14.2	2.2013e-030	0.	2220.3
7294	14.4	2.2323e-030	0.	2162.8
7295	14.6	2.2633e-030	0.	2104.
7296	14.8	2.2943e-030	0.	2043.4
7297	15.	2.3253e-030	0.	1980.4
7298	15.2	2.3563e-030	0.	1914.5
7299	15.4	2.3873e-030	0.	1844.8
7300	15.6	2.4183e-030	0.	1770.2
7301	15.8	2.4493e-030	0.	1689.6
7302	16.	2.4803e-030	0.	1601.4
7303	16.2	2.5113e-030	0.	1504.
7304	16.4	2.5423e-030	0.	1395.6
7305	16.6	2.5733e-030	0.	1274.1
7306	16.8	2.6043e-030	0.	1137.9
7307	17.	2.6353e-030	0.	985.45
7308	17.2	2.6663e-030	0.	816.29
7309	17.4	2.6973e-030	0.	630.88
7310	17.6	2.7283e-030	0.	431.18
7311	17.8	2.7593e-030	0.	215.66
7312	18.	0.	0.	24.568
7313	0.	0.	0.	2226.6
7314	18.361	0.	0.	151.16
7315	18.556	0.	0.	286.63
7316	18.75	0.	0.	399.26
7317	18.944	0.	0.	492.14
7318	19.139	0.	0.	565.28
7319	19.333	0.	0.	619.69
7320	19.528	0.	0.	656.99
7321	19.722	0.	0.	679.26
7322	19.917	0.	0.	688.71
7323	20.111	0.	0.	687.46
7324	20.306	0.	0.	677.47
7325	20.5	0.	0.	660.41
7326	20.694	0.	0.	637.73
7327	20.889	0.	0.	610.61
7328	21.083	0.	0.	580.02
7329	21.278	0.	0.	546.74
7330	21.472	0.	0.	511.4
7331	21.667	0.	0.	474.5
7332	21.861	0.	0.	436.44
7333	22.056	0.	0.	397.53
7334	22.25	0.	0.	358.03
7335	22.444	0.	0.	318.13
7336	22.639	0.	0.	278.
7337	22.833	0.	0.	237.78
7338	23.028	0.	0.	197.62
7339	23.222	0.	0.	157.66
7340	23.417	0.	0.	118.08
7341	23.611	0.	0.	79.357
7342	23.806	0.	0.	41.659
7343	18.167	0.	0.	18.144
7344	24.	0.	0.	10.439
7345	17.8	6.	0.	215.66
7346	17.6	6.	0.	431.18
7347	17.4	6.	0.	630.88
7348	17.2	6.	0.	816.29
7349	17.	6.	0.	985.45
7350	16.8	6.	0.	1137.9
7351	16.6	6.	0.	1274.1
7352	16.4	6.	0.	1395.6
7353	16.2	6.	0.	1504.
7354	16.	6.	0.	1601.4
7355	15.8	6.	0.	1689.6
7356	15.6	6.	0.	1770.2
7357	15.4	6.	0.	1844.8
7358	15.2	6.	0.	1914.5
7359	15.	6.	0.	1980.4
7360	14.8	6.	0.	2043.4
7361	14.6	6.	0.	2104.
7362	14.4	6.	0.	2162.8
7363	14.2	6.	0.	2220.3
7364	14.	6.	0.	2276.8
7365	13.8	6.	0.	2332.5
7366	13.6	6.	0.	2387.7
7367	13.4	6.	0.	2442.5
7368	13.2	6.	0.	2497.
7369	13.	6.	0.	2551.4
7370	12.8	6.	0.	2605.8
7371	12.6	6.	0.	2660.2
7372	12.4	6.	0.	2714.6
7373	12.2	6.	0.	2769.2
7374	12.	6.	0.	2823.8
7375	11.8	6.	0.	2878.7
7376	11.6	6.	0.	2933.7
7377	11.4	6.	0.	2988.9
7378	11.2	6.	0.	3044.3
7379	11.	6.	0.	3100.
7380	10.8	6.	0.	3155.9
7381	10.6	6.	0.	3212.
7382	10.4	6.	0.	3268.4
7383	10.2	6.	0.	3325.
7384	10.	6.	0.	3382.
7385	9.8	6.	0.	3439.2
7386	9.6	6.	0.	3496.7
7387	9.4	6.	0.	3554.5
7388	9.2	6.	0.	3612.6
7389	9.	6.	0.	3671.1
7390	8.8	6.	0.	3729.8
7391	8.6	6.	0.	3788.9
7392	8.4	6.	0.	3848.4
7393	8.2	6.	0.	3908.2
7394	8.	6.	0.	3968.5
7395	7.8	6.	0.	4029.1
7396	7.6	6.	0.	4090.1
7397	7.4	6.	0.	4151.6
7398	7.2	6.	0.	4213.5
7399	7.	6.	0.	4275.9
7400	6.8	6.	0.	4338.8
7401	6.6	6.	0.	4402.2
7402	6.4	6.	0.	4466.2
7403	6.2	6.	0.	4530.7
7404	6.	6.	0.	4595.8
7405	5.8	6.	0.	4661.6
7406	5.6	6.	0.	4728.
7407	5.4	6.	0.	4795.1
7408	5.2	6.	0.	4862.9
7409	5.	6.	0.	4931.5
7410	4.8	6.	0.	5000.8
7411	4.6	6.	0.	5070.8
7412	4.4	6.	0.	5141.6
7413	4.2	6.	0.	5213.1
7414	4.	6.	0.	5285.2
7415	3.8	6.	0.	5357.9
7416	3.6	6.	0.	5431.
7417	3.4	6.	0.	5504.3
7418	3.2	6.	0.	5577.5
7419	3.	6.	0.	5650.2
7420	2.8	6.	0.	5721.8
7421	2.6	6.	0.	5791.4
7422	2.4	6.	0.	5858.1
7423	2.2	6.	0.	5920.1
7424	2.	6.	0.	5975.4
7425	1.8	6.	0.	6020.9
7426	1.6	6.	0.	6052.2
7427	1.4	6.	0.	6063.
7428	1.2	6.	0.	6043.2
7429	1.	6.	0.	5976.9
7430	0.8	6.	0.	5836.2
7431	0.6	6.	0.	5566.9
7432	0.4	6.	0.	5067.4
7433	0.2	6.	0.	3964.7
7434	18.	6.	0.	24.568
7435	3.937e-014	6.	0.	2226.6
7436	5.0703e-014	5.8	0.	1504.2
7437	4.8955e-014	5.6	0.	2505.8
7438	4.7206e-014	5.4	0.	3004.5
7439	4.5458e-014	5.2	0.	3318.1
7440	4.371e-014	5.	0.	3525.5
7441	4.1961e-014	4.8	0.	3671.8
7442	4.0213e-014	4.6	0.	3778.8
7443	3.8464e-014	4.4	0.	3858.8
7444	3.6716e-014	4.2	0.	3919.1
7445	3.4968e-014	4.	0.	3964.7
7446	3.3219e-014	3.8	0.	3998.8
7447	3.1471e-014	3.6	0.	4023.5
7448	2.9723e-014	3.4	0.	4040.2
7449	2.7974e-014	3.2	0.	4049.9
7450	2.6226e-014	3.	0.	4053.1
7451	2.4477e-014	2.8	0.	4049.9
7452	2.2729e-014	2.6	0.	4040.2
7453	2.0981e-014	2.4	0.	4023.5
7454	1.9232e-014	2.2	0.	3998.8
7455	1.7484e-014	2.	0.	3964.7
7456	1.5735e-014	1.8	0.	3919.1
7457	1.3987e-014	1.6	0.	3858.8
7458	1.2239e-014	1.4	0.	3778.8
7459	1.049e-014	1.2	0.	3671.8
7460	8.7419e-015	1.	0.	3525.5
7461	6.9935e-015	0.8	0.	3318.1
7462	5.2451e-015	0.6	0.	3004.5
7463	3.4968e-015	0.4	0.	2505.8
7464	1.7484e-015	0.2	0.	1504.2
7465	24.	0.2	0.	36.08
7466	24.	0.4	0.	57.651
7467	24.	0.6	0.	73.047
7468	24.	0.8	0.	84.865
7469	24.	1.	0.	94.071
7470	24.	1.2	0.	101.28
7471	24.	1.4	0.	106.89
7472	24.	1.6	0.	111.23
7473	24.	1.8	0.	114.52
7474	24.	2.	0.	116.98
7475	24.	2.2	0.	118.77
7476	24.	2.4	0.	120.02
7477	24.	2.6	0.	120.84
7478	24.	2.8	0.	121.3
7479	24.	3.	0.	121.45
7480	24.	3.2	0.	121.3
7481	24.	3.4	0.	120.84
7482	24.	3.6	0.	120.02
7483	24.	3.8	0.	118.77
7484	24.	4.	0.	116.98
7485	24.	4.2	0.	114.52
7486	24.	4.4	0.	111.23
7487	24.	4.6	0.	106.89
7488	24.	4.8	0.	101.28
7489	24.	5.	0.	94.071
7490	24.	5.2	0.	84.865
7491	24.	5.4	0.	73.047
7492	24.	5.6	0.	57.651
7493	24.	5.8	0.	36.08
7494	24.	6.	0.	10.439
7495	23.806	6.	0.	41.659
7496	23.611	6.	0.	79.357
7497	23.417	6.	0.	118.08
7498	23.222	6.	0.	157.66
7499	23.028	6.	0.	197.62
7500	22.833	6.	0.	237.78
7501	22.639	6.	0.	278.
7502	22.444	6.	0.	318.13
7503	22.25	6.	0.	358.03
7504	22.056	6.	0.	397.53
7505	21.861	6.	0.	436.44
7506	21.667	6.	0.	474.5
7507	21.472	6.	0.	511.4
7508	21.278	6.	0.	546.74
7509	21.083	6.	0.	580.02
7510	20.889	6.	0.	610.61
7511	20.694	6.	0.	637.73
7512	20.5	6.	0.	660.41
7513	20.306	6.	0.	677.47
7514	20.111	6.	0.	687.46
7515	19.917	6.	0.	688.71
7516	19.722	6.	0.	679.26
7517	19.528	6.	0.	656.99
7518	19.333	6.	0.	619.69
7519	19.139	6.	0.	565.28
7520	18.944	6.	0.	492.14
7521	18.75	6.	0.	399.26
7522	18.556	6.	0.	286.63
7523	18.361	6.	0.	151.16
7524	18.167	6.	0.	18.144
7525	18.	4.2	0.	3076.5
7526	18.	4.4	0.	1746.2
7527	18.	4.6	0.	1351.2
7528	18.	4.8	0.	1039.
7529	18.	5.	0.	808.28
7530	18.	5.2	0.	620.72
7531	18.	5.4	0.	459.68
7532	18.	5.6	0.	314.53
7533	18.	5.8	0.	170.1
7534	18.	4.	0.	7319.2
7535	18.167	5.8	0.	134.56
7536	18.167	5.6	0.	247.84
7537	18.167	5.4	0.	358.13
7538	18.167	5.2	0.	479.24
7539	18.167	5.	0.	621.26
7540	18.167	4.8	0.	799.09
7541	18.167	4.6	0.	1047.8
7542	18.167	4.4	0.	1356.5
7543	18.167	4.2	0.	2426.2
7544	18.167	4.	0.	6757.2
7545	18.	1.8	0.	3076.5
7546	18.	1.6	0.	1746.2
7547	18.	1.4	0.	1351.2
7548	18.	1.2	0.	1039.
7549	18.	1.	0.	808.28
7550	18.	0.8	0.	620.72
7551	18.	0.6	0.	459.68
7552	18.	0.4	0.	314.53
7553	18.	0.2	0.	170.1
7554	18.	2.	0.	7319.2
7555	18.167	0.2	0.	134.56
7556	18.167	0.4	0.	247.84
7557	18.167	0.6	0.	358.13
7558	18.167	0.8	0.	479.24
7559	18.167	1.	0.	621.26
7560	18.167	1.2	0.	799.09
7561	18.167	1.4	0.	1047.8
7562	18.167	1.6	0.	1356.5
7563	18.167	1.8	0.	2426.2
7564	18.167	2.	0.	6757.2
7565	18.	2.3	0.	4280.6
7566	18.083	2.2	0.	4688.2
7567	17.9	2.2	0.	4158.8
7568	18.	2.2	5.e-002	280.13
7569	18.	2.1	0.	5909.
7570	18.	2.5	0.	3565.3
7571	18.083	2.4	0.	3736.
7572	17.9	2.4	0.	3567.6
7573	18.	2.4	5.e-002	35.329
7574	18.	2.7	0.	3255.6
7575	18.083	2.6	0.	3326.
7576	17.9	2.6	0.	3254.2
7577	18.	2.6	5.e-002	19.308
7578	18.	2.9	0.	3126.5
7579	18.083	2.8	0.	3128.5
7580	17.9	2.8	0.	3098.7
7581	18.	2.8	5.e-002	8.3955
7582	18.	3.1	0.	3126.5
7583	18.083	3.	0.	3070.4
7584	17.9	3.	0.	3051.2
7585	18.	3.	5.e-002	5.4344
7586	18.	3.3	0.	3255.6
7587	18.083	3.2	0.	3128.5
7588	17.9	3.2	0.	3098.7
7589	18.	3.2	5.e-002	8.3955
7590	18.	3.5	0.	3565.3
7591	18.083	3.4	0.	3326.
7592	17.9	3.4	0.	3254.2
7593	18.	3.4	5.e-002	19.308
7594	18.	3.7	0.	4280.6
7595	18.083	3.6	0.	3736.
7596	17.9	3.6	0.	3567.6
7597	18.	3.6	5.e-002	35.329
7598	18.083	3.8	0.	4688.2
7599	17.9	3.8	0.	4158.8
7600	18.	3.8	5.e-002	280.13
7601	18.	3.9	0.	5909.
7602	18.167	2.3	0.	4210.9
7603	18.264	2.2	0.	4024.1
7604	18.167	2.2	5.e-002	211.76
7605	18.167	2.1	0.	5585.7
7606	18.167	2.5	0.	3513.1
7607	18.264	2.4	0.	3467.9
7608	18.167	2.4	5.e-002	45.687
7609	18.167	2.7	0.	3202.3
7610	18.264	2.6	0.	3146.5
7611	18.167	2.6	5.e-002	22.394
7612	18.167	2.9	0.	3072.4
7613	18.264	2.8	0.	2987.9
7614	18.167	2.8	5.e-002	12.743
7615	18.167	3.1	0.	3072.4
7616	18.264	3.	0.	2939.3
7617	18.167	3.	5.e-002	10.464
7618	18.167	3.3	0.	3202.3
7619	18.264	3.2	0.	2987.9
7620	18.167	3.2	5.e-002	12.743
7621	18.167	3.5	0.	3513.1
7622	18.264	3.4	0.	3146.5
7623	18.167	3.4	5.e-002	22.394
7624	18.167	3.7	0.	4210.9
7625	18.264	3.6	0.	3467.9
7626	18.167	3.6	5.e-002	45.687
7627	18.264	3.8	0.	4024.1
7628	18.167	3.8	5.e-002	211.76
7629	18.167	3.9	0.	5585.7
7630	0.2	0.3	0.	4411.4
7631	0.3	0.2	0.	4650.2
7632	0.2	0.2	5.e-002	284.77
7633	0.2	0.1	0.	4009.4
7634	0.1	0.2	0.	2839.2
7635	0.2	0.5	0.	5045.6
7636	0.3	0.4	0.	4771.9
7637	0.2	0.4	5.e-002	170.72
7638	0.1	0.4	0.	3560.5
7639	0.2	0.7	0.	5633.6
7640	0.3	0.6	0.	5135.1
7641	0.2	0.6	5.e-002	113.97
7642	0.1	0.6	0.	4129.5
7643	0.2	0.9	0.	6072.6
7644	0.3	0.8	0.	5490.1
7645	0.2	0.8	5.e-002	86.944
7646	0.1	0.8	0.	4529.8
7647	0.2	1.1	0.	6396.9
7648	0.3	1.	0.	5785.7
7649	0.2	1.	5.e-002	72.994
7650	0.1	1.	0.	4813.8
7651	0.2	1.3	0.	6639.6
7652	0.3	1.2	0.	6021.4
7653	0.2	1.2	5.e-002	63.285
7654	0.1	1.2	0.	5021.4
7655	0.2	1.5	0.	6823.5
7656	0.3	1.4	0.	6207.
7657	0.2	1.4	5.e-002	56.155
7658	0.1	1.4	0.	5176.3
7659	0.2	1.7	0.	6964.1
7660	0.3	1.6	0.	6352.7
7661	0.2	1.6	5.e-002	50.718
7662	0.1	1.6	0.	5293.8
7663	0.2	1.9	0.	7071.7
7664	0.3	1.8	0.	6466.5
7665	0.2	1.8	5.e-002	46.515
7666	0.1	1.8	0.	5383.4
7667	0.2	2.1	0.	7153.4
7668	0.3	2.	0.	6554.7
7669	0.2	2.	5.e-002	43.266
7670	0.1	2.	0.	5451.6
7671	0.2	2.3	0.	7214.1
7672	0.3	2.2	0.	6621.8
7673	0.2	2.2	5.e-002	40.792
7674	0.1	2.2	0.	5502.9
7675	0.2	2.5	0.	7257.
7676	0.3	2.4	0.	6671.
7677	0.2	2.4	5.e-002	38.97
7678	0.1	2.4	0.	5540.1
7679	0.2	2.7	0.	7284.5
7680	0.3	2.6	0.	6704.7
7681	0.2	2.6	5.e-002	37.721
7682	0.1	2.6	0.	5565.5
7683	0.2	2.9	0.	7298.
7684	0.3	2.8	0.	6724.3
7685	0.2	2.8	5.e-002	36.99
7686	0.1	2.8	0.	5580.2
7687	0.2	3.1	0.	7298.
7688	0.3	3.	0.	6730.8
7689	0.2	3.	5.e-002	36.75
7690	0.1	3.	0.	5585.
7691	0.2	3.3	0.	7284.5
7692	0.3	3.2	0.	6724.3
7693	0.2	3.2	5.e-002	36.99
7694	0.1	3.2	0.	5580.2
7695	0.2	3.5	0.	7257.
7696	0.3	3.4	0.	6704.7
7697	0.2	3.4	5.e-002	37.721
7698	0.1	3.4	0.	5565.5
7699	0.2	3.7	0.	7214.1
7700	0.3	3.6	0.	6671.
7701	0.2	3.6	5.e-002	38.97
7702	0.1	3.6	0.	5540.1
7703	0.2	3.9	0.	7153.4
7704	0.3	3.8	0.	6621.8
7705	0.2	3.8	5.e-002	40.792
7706	0.1	3.8	0.	5502.9
7707	0.2	4.1	0.	7071.7
7708	0.3	4.	0.	6554.7
7709	0.2	4.	5.e-002	43.266
7710	0.1	4.	0.	5451.6
7711	0.2	4.3	0.	6964.1
7712	0.3	4.2	0.	6466.5
7713	0.2	4.2	5.e-002	46.515
7714	0.1	4.2	0.	5383.4
7715	0.2	4.5	0.	6823.5
7716	0.3	4.4	0.	6352.7
7717	0.2	4.4	5.e-002	50.718
7718	0.1	4.4	0.	5293.8
7719	0.2	4.7	0.	6639.6
7720	0.3	4.6	0.	6207.
7721	0.2	4.6	5.e-002	56.155
7722	0.1	4.6	0.	5176.3
7723	0.2	4.9	0.	6396.9
7724	0.3	4.8	0.	6021.4
7725	0.2	4.8	5.e-002	63.285
7726	0.1	4.8	0.	5021.4
7727	0.2	5.1	0.	6072.6
7728	0.3	5.	0.	5785.7
7729	0.2	5.	5.e-002	72.994
7730	0.1	5.	0.	4813.8
7731	0.2	5.3	0.	5633.6
7732	0.3	5.2	0.	5490.1
7733	0.2	5.2	5.e-002	86.944
7734	0.1	5.2	0.	4529.8
7735	0.2	5.5	0.	5045.6
7736	0.3	5.4	0.	5135.1
7737	0.2	5.4	5.e-002	113.97
7738	0.1	5.4	0.	4129.5
7739	0.2	5.7	0.	4411.4
7740	0.3	5.6	0.	4771.9
7741	0.2	5.6	5.e-002	170.72
7742	0.1	5.6	0.	3560.5
7743	0.3	5.8	0.	4650.2
7744	0.2	5.8	5.e-002	284.77
7745	0.2	5.9	0.	4009.4
7746	0.1	5.8	0.	2839.2
7747	0.4	0.3	0.	4979.3
7748	0.5	0.2	0.	5374.7
7749	0.4	0.2	5.e-002	119.57
7750	0.4	0.1	0.	5051.
7751	0.4	0.5	0.	4887.9
7752	0.5	0.4	0.	5137.2
7753	0.4	0.4	5.e-002	126.65
7754	0.4	0.7	0.	5020.6
7755	0.5	0.6	0.	5136.6
7756	0.4	0.6	5.e-002	95.873
7757	0.4	0.9	0.	5225.2
7758	0.5	0.8	0.	5255.6
7759	0.4	0.8	5.e-002	79.956
7760	0.4	1.1	0.	5426.4
7761	0.5	1.	0.	5413.
7762	0.4	1.	5.e-002	72.642
7763	0.4	1.3	0.	5601.4
7764	0.5	1.2	0.	5569.5
7765	0.4	1.2	5.e-002	68.984
7766	0.4	1.5	0.	5746.6
7767	0.5	1.4	0.	5709.4
7768	0.4	1.4	5.e-002	66.475
7769	0.4	1.7	0.	5864.2
7770	0.5	1.6	0.	5828.4
7771	0.4	1.6	5.e-002	64.457
7772	0.4	1.9	0.	5957.8
7773	0.5	1.8	0.	5926.6
7774	0.4	1.8	5.e-002	62.756
7775	0.4	2.1	0.	6030.8
7776	0.5	2.	0.	6005.6
7777	0.4	2.	5.e-002	61.331
7778	0.4	2.3	0.	6086.2
7779	0.5	2.2	0.	6067.4
7780	0.4	2.2	5.e-002	60.172
7781	0.4	2.5	0.	6125.9
7782	0.5	2.4	0.	6113.5
7783	0.4	2.4	5.e-002	59.275
7784	0.4	2.7	0.	6151.6
7785	0.5	2.6	0.	6145.5
7786	0.4	2.6	5.e-002	58.638
7787	0.4	2.9	0.	6164.2
7788	0.5	2.8	0.	6164.4
7789	0.4	2.8	5.e-002	58.257
7790	0.4	3.1	0.	6164.2
7791	0.5	3.	0.	6170.6
7792	0.4	3.	5.e-002	58.13
7793	0.4	3.3	0.	6151.6
7794	0.5	3.2	0.	6164.4
7795	0.4	3.2	5.e-002	58.257
7796	0.4	3.5	0.	6125.9
7797	0.5	3.4	0.	6145.5
7798	0.4	3.4	5.e-002	58.638
7799	0.4	3.7	0.	6086.2
7800	0.5	3.6	0.	6113.5
7801	0.4	3.6	5.e-002	59.275
7802	0.4	3.9	0.	6030.8
7803	0.5	3.8	0.	6067.4
7804	0.4	3.8	5.e-002	60.172
7805	0.4	4.1	0.	5957.8
7806	0.5	4.	0.	6005.6
7807	0.4	4.	5.e-002	61.331
7808	0.4	4.3	0.	5864.2
7809	0.5	4.2	0.	5926.6
7810	0.4	4.2	5.e-002	62.756
7811	0.4	4.5	0.	5746.6
7812	0.5	4.4	0.	5828.4
7813	0.4	4.4	5.e-002	64.457
7814	0.4	4.7	0.	5601.4
7815	0.5	4.6	0.	5709.4
7816	0.4	4.6	5.e-002	66.475
7817	0.4	4.9	0.	5426.4
7818	0.5	4.8	0.	5569.5
7819	0.4	4.8	5.e-002	68.984
7820	0.4	5.1	0.	5225.2
7821	0.5	5.	0.	5413.
7822	0.4	5.	5.e-002	72.642
7823	0.4	5.3	0.	5020.6
7824	0.5	5.2	0.	5255.6
7825	0.4	5.2	5.e-002	79.956
7826	0.4	5.5	0.	4887.9
7827	0.5	5.4	0.	5136.6
7828	0.4	5.4	5.e-002	95.873
7829	0.4	5.7	0.	4979.3
7830	0.5	5.6	0.	5137.2
7831	0.4	5.6	5.e-002	126.65
7832	0.5	5.8	0.	5374.7
7833	0.4	5.8	5.e-002	119.57
7834	0.4	5.9	0.	5051.
7835	0.6	0.3	0.	5517.2
7836	0.7	0.2	0.	5753.3
7837	0.6	0.2	5.e-002	69.498
7838	0.6	0.1	0.	5567.4
7839	0.6	0.5	0.	5372.6
7840	0.7	0.4	0.	5522.9
7841	0.6	0.4	5.e-002	88.878
7842	0.6	0.7	0.	5365.
7843	0.7	0.6	0.	5428.2
7844	0.6	0.6	5.e-002	76.333
7845	0.6	0.9	0.	5441.4
7846	0.7	0.8	0.	5427.3
7847	0.6	0.8	5.e-002	64.303
7848	0.6	1.1	0.	5556.
7849	0.7	1.	0.	5486.4
7850	0.6	1.	5.e-002	57.441
7851	0.6	1.3	0.	5677.9
7852	0.7	1.2	0.	5573.3
7853	0.6	1.2	5.e-002	54.007
7854	0.6	1.5	0.	5791.8
7855	0.7	1.4	0.	5667.1
7856	0.6	1.4	5.e-002	52.229
7857	0.6	1.7	0.	5891.3
7858	0.7	1.6	0.	5756.3
7859	0.6	1.6	5.e-002	51.106
7860	0.6	1.9	0.	5974.9
7861	0.7	1.8	0.	5835.6
7862	0.6	1.8	5.e-002	50.249
7863	0.6	2.1	0.	6042.5
7864	0.7	2.	0.	5902.6
7865	0.6	2.	5.e-002	49.534
7866	0.6	2.3	0.	6095.
7867	0.7	2.2	0.	5956.8
7868	0.6	2.2	5.e-002	48.932
7869	0.6	2.5	0.	6133.4
7870	0.7	2.4	0.	5998.4
7871	0.6	2.4	5.e-002	48.45
7872	0.6	2.7	0.	6158.5
7873	0.7	2.6	0.	6027.8
7874	0.6	2.6	5.e-002	48.096
7875	0.6	2.9	0.	6170.9
7876	0.7	2.8	0.	6045.2
7877	0.6	2.8	5.e-002	47.88
7878	0.6	3.1	0.	6170.9
7879	0.7	3.	0.	6051.
7880	0.6	3.	5.e-002	47.807
7881	0.6	3.3	0.	6158.5
7882	0.7	3.2	0.	6045.2
7883	0.6	3.2	5.e-002	47.88
7884	0.6	3.5	0.	6133.4
7885	0.7	3.4	0.	6027.8
7886	0.6	3.4	5.e-002	48.096
7887	0.6	3.7	0.	6095.
7888	0.7	3.6	0.	5998.4
7889	0.6	3.6	5.e-002	48.45
7890	0.6	3.9	0.	6042.5
7891	0.7	3.8	0.	5956.8
7892	0.6	3.8	5.e-002	48.932
7893	0.6	4.1	0.	5974.9
7894	0.7	4.	0.	5902.6
7895	0.6	4.	5.e-002	49.534
7896	0.6	4.3	0.	5891.3
7897	0.7	4.2	0.	5835.6
7898	0.6	4.2	5.e-002	50.249
7899	0.6	4.5	0.	5791.8
7900	0.7	4.4	0.	5756.3
7901	0.6	4.4	5.e-002	51.106
7902	0.6	4.7	0.	5677.9
7903	0.7	4.6	0.	5667.1
7904	0.6	4.6	5.e-002	52.229
7905	0.6	4.9	0.	5556.
7906	0.7	4.8	0.	5573.3
7907	0.6	4.8	5.e-002	54.007
7908	0.6	5.1	0.	5441.4
7909	0.7	5.	0.	5486.4
7910	0.6	5.	5.e-002	57.441
7911	0.6	5.3	0.	5365.
7912	0.7	5.2	0.	5427.3
7913	0.6	5.2	5.e-002	64.303
7914	0.6	5.5	0.	5372.6
7915	0.7	5.4	0.	5428.2
7916	0.6	5.4	5.e-002	76.333
7917	0.6	5.7	0.	5517.2
7918	0.7	5.6	0.	5522.9
7919	0.6	5.6	5.e-002	88.878
7920	0.7	5.8	0.	5753.3
7921	0.6	5.8	5.e-002	69.498
7922	0.6	5.9	0.	5567.4
7923	0.8	0.3	0.	5752.
7924	0.9	0.2	0.	5933.5
7925	0.8	0.2	5.e-002	55.832
7926	0.8	0.1	0.	5825.1
7927	0.8	0.5	0.	5572.2
7928	0.9	0.4	0.	5712.
7929	0.8	0.4	5.e-002	64.515
7930	0.8	0.7	0.	5486.1
7931	0.9	0.6	0.	5580.9
7932	0.8	0.6	5.e-002	61.271
7933	0.8	0.9	0.	5470.4
7934	0.9	0.8	0.	5515.5
7935	0.8	0.8	5.e-002	54.969
7936	0.8	1.1	0.	5503.5
7937	0.9	1.	0.	5504.5
7938	0.8	1.	5.e-002	50.236
7939	0.8	1.3	0.	5563.1
7940	0.9	1.2	0.	5530.5
7941	0.8	1.2	5.e-002	47.638
7942	0.8	1.5	0.	5632.4
7943	0.9	1.4	0.	5576.6
7944	0.8	1.4	5.e-002	46.476
7945	0.8	1.7	0.	5701.2
7946	0.9	1.6	0.	5630.5
7947	0.8	1.6	5.e-002	46.013
7948	0.8	1.9	0.	5763.8
7949	0.9	1.8	0.	5684.5
7950	0.8	1.8	5.e-002	45.818
7951	0.8	2.1	0.	5817.3
7952	0.9	2.	0.	5733.8
7953	0.8	2.	5.e-002	45.701
7954	0.8	2.3	0.	5860.5
7955	0.9	2.2	0.	5775.8
7956	0.8	2.2	5.e-002	45.6
7957	0.8	2.5	0.	5893.
7958	0.9	2.4	0.	5809.2
7959	0.8	2.4	5.e-002	45.505
7960	0.8	2.7	0.	5914.5
7961	0.9	2.6	0.	5833.2
7962	0.8	2.6	5.e-002	45.425
7963	0.8	2.9	0.	5925.3
7964	0.9	2.8	0.	5847.8
7965	0.8	2.8	5.e-002	45.371
7966	0.8	3.1	0.	5925.3
7967	0.9	3.	0.	5852.6
7968	0.8	3.	5.e-002	45.352
7969	0.8	3.3	0.	5914.5
7970	0.9	3.2	0.	5847.8
7971	0.8	3.2	5.e-002	45.371
7972	0.8	3.5	0.	5893.
7973	0.9	3.4	0.	5833.2
7974	0.8	3.4	5.e-002	45.425
7975	0.8	3.7	0.	5860.5
7976	0.9	3.6	0.	5809.2
7977	0.8	3.6	5.e-002	45.505
7978	0.8	3.9	0.	5817.3
7979	0.9	3.8	0.	5775.8
7980	0.8	3.8	5.e-002	45.6
7981	0.8	4.1	0.	5763.8
7982	0.9	4.	0.	5733.8
7983	0.8	4.	5.e-002	45.701
7984	0.8	4.3	0.	5701.2
7985	0.9	4.2	0.	5684.5
7986	0.8	4.2	5.e-002	45.818
7987	0.8	4.5	0.	5632.4
7988	0.9	4.4	0.	5630.5
7989	0.8	4.4	5.e-002	46.013
7990	0.8	4.7	0.	5563.1
7991	0.9	4.6	0.	5576.6
7992	0.8	4.6	5.e-002	46.476
7993	0.8	4.9	0.	5503.5
7994	0.9	4.8	0.	5530.5
7995	0.8	4.8	5.e-002	47.638
7996	0.8	5.1	0.	5470.4
7997	0.9	5.	0.	5504.5
7998	0.8	5.	5.e-002	50.236
7999	0.8	5.3	0.	5486.1
8000	0.9	5.2	0.	5515.5
8001	0.8	5.2	5.e-002	54.969
8002	0.8	5.5	0.	5572.2
8003	0.9	5.4	0.	5580.9
8004	0.8	5.4	5.e-002	61.271
8005	0.8	5.7	0.	5752.
8006	0.9	5.6	0.	5712.
8007	0.8	5.6	5.e-002	64.515
8008	0.9	5.8	0.	5933.5
8009	0.8	5.8	5.e-002	55.832
8010	0.8	5.9	0.	5825.1
8011	1.	0.3	0.	5890.1
8012	1.1	0.2	0.	6021.5
8013	1.	0.2	5.e-002	51.116
8014	1.	0.1	0.	5962.8
8015	1.	0.5	0.	5717.1
8016	1.1	0.4	0.	5822.
8017	1.	0.4	5.e-002	49.658
8018	1.	0.7	0.	5606.7
8019	1.1	0.6	0.	5685.7
8020	1.	0.6	5.e-002	49.747
8021	1.	0.9	0.	5546.8
8022	1.1	0.8	0.	5593.5
8023	1.	0.8	5.e-002	46.841
8024	1.	1.1	0.	5529.8
8025	1.1	1.	0.	5543.5
8026	1.	1.	5.e-002	43.851
8027	1.	1.3	0.	5543.1
8028	1.1	1.2	0.	5528.
8029	1.	1.2	5.e-002	41.824
8030	1.	1.5	0.	5574.3
8031	1.1	1.4	0.	5536.6
8032	1.	1.4	5.e-002	40.81
8033	1.	1.7	0.	5613.7
8034	1.1	1.6	0.	5559.5
8035	1.	1.6	5.e-002	40.472
8036	1.	1.9	0.	5654.5
8037	1.1	1.8	0.	5589.1
8038	1.	1.8	5.e-002	40.471
8039	1.	2.1	0.	5692.2
8040	1.1	2.	0.	5619.9
8041	1.	2.	5.e-002	40.595
8042	1.	2.3	0.	5724.4
8043	1.1	2.2	0.	5648.4
8044	1.	2.2	5.e-002	40.736
8045	1.	2.5	0.	5749.4
8046	1.1	2.4	0.	5672.2
8047	1.	2.4	5.e-002	40.853
8048	1.	2.7	0.	5766.4
8049	1.1	2.6	0.	5690.
8050	1.	2.6	5.e-002	40.933
8051	1.	2.9	0.	5775.
8052	1.1	2.8	0.	5701.
8053	1.	2.8	5.e-002	40.979
8054	1.	3.1	0.	5775.
8055	1.1	3.	0.	5704.7
8056	1.	3.	5.e-002	40.993
8057	1.	3.3	0.	5766.4
8058	1.1	3.2	0.	5701.
8059	1.	3.2	5.e-002	40.979
8060	1.	3.5	0.	5749.4
8061	1.1	3.4	0.	5690.
8062	1.	3.4	5.e-002	40.933
8063	1.	3.7	0.	5724.4
8064	1.1	3.6	0.	5672.2
8065	1.	3.6	5.e-002	40.853
8066	1.	3.9	0.	5692.2
8067	1.1	3.8	0.	5648.4
8068	1.	3.8	5.e-002	40.736
8069	1.	4.1	0.	5654.5
8070	1.1	4.	0.	5619.9
8071	1.	4.	5.e-002	40.595
8072	1.	4.3	0.	5613.7
8073	1.1	4.2	0.	5589.1
8074	1.	4.2	5.e-002	40.471
8075	1.	4.5	0.	5574.3
8076	1.1	4.4	0.	5559.5
8077	1.	4.4	5.e-002	40.472
8078	1.	4.7	0.	5543.1
8079	1.1	4.6	0.	5536.6
8080	1.	4.6	5.e-002	40.81
8081	1.	4.9	0.	5529.8
8082	1.1	4.8	0.	5528.
8083	1.	4.8	5.e-002	41.824
8084	1.	5.1	0.	5546.8
8085	1.1	5.	0.	5543.5
8086	1.	5.	5.e-002	43.851
8087	1.	5.3	0.	5606.7
8088	1.1	5.2	0.	5593.5
8089	1.	5.2	5.e-002	46.841
8090	1.	5.5	0.	5717.1
8091	1.1	5.4	0.	5685.7
8092	1.	5.4	5.e-002	49.747
8093	1.	5.7	0.	5890.1
8094	1.1	5.6	0.	5822.
8095	1.	5.6	5.e-002	49.658
8096	1.1	5.8	0.	6021.5
8097	1.	5.8	5.e-002	51.116
8098	1.	5.9	0.	5962.8
8099	1.2	0.3	0.	5951.4
8100	1.3	0.2	0.	6051.
8101	1.2	0.2	5.e-002	49.212
8102	1.2	0.1	0.	6025.5
8103	1.2	0.5	0.	5788.5
8104	1.3	0.4	0.	5871.1
8105	1.2	0.4	5.e-002	40.313
8106	1.2	0.7	0.	5670.1
8107	1.3	0.6	0.	5737.8
8108	1.2	0.6	5.e-002	41.381
8109	1.2	0.9	0.	5588.
8110	1.3	0.8	0.	5635.3
8111	1.2	0.8	5.e-002	40.356
8112	1.2	1.1	0.	5540.1
8113	1.3	1.	0.	5564.2
8114	1.2	1.	5.e-002	38.76
8115	1.2	1.3	0.	5520.5
8116	1.3	1.2	0.	5522.2
8117	1.2	1.2	5.e-002	37.41
8118	1.2	1.5	0.	5521.1
8119	1.3	1.4	0.	5503.4
8120	1.2	1.4	5.e-002	36.622
8121	1.2	1.7	0.	5534.5
8122	1.3	1.6	0.	5501.1
8123	1.2	1.6	5.e-002	36.343
8124	1.2	1.9	0.	5554.3
8125	1.3	1.8	0.	5509.3
8126	1.2	1.8	5.e-002	36.391
8127	1.2	2.1	0.	5575.9
8128	1.3	2.	0.	5522.8
8129	1.2	2.	5.e-002	36.593
8130	1.2	2.3	0.	5596.1
8131	1.3	2.2	0.	5537.9
8132	1.2	2.2	5.e-002	36.835
8133	1.2	2.5	0.	5612.8
8134	1.3	2.4	0.	5551.9
8135	1.2	2.4	5.e-002	37.054
8136	1.2	2.7	0.	5624.5
8137	1.3	2.6	0.	5563.
8138	1.2	2.6	5.e-002	37.221
8139	1.2	2.9	0.	5630.6
8140	1.3	2.8	0.	5570.1
8141	1.2	2.8	5.e-002	37.323
8142	1.2	3.1	0.	5630.6
8143	1.3	3.	0.	5572.5
8144	1.2	3.	5.e-002	37.357
8145	1.2	3.3	0.	5624.5
8146	1.3	3.2	0.	5570.1
8147	1.2	3.2	5.e-002	37.323
8148	1.2	3.5	0.	5612.8
8149	1.3	3.4	0.	5563.
8150	1.2	3.4	5.e-002	37.221
8151	1.2	3.7	0.	5596.1
8152	1.3	3.6	0.	5551.9
8153	1.2	3.6	5.e-002	37.054
8154	1.2	3.9	0.	5575.9
8155	1.3	3.8	0.	5537.9
8156	1.2	3.8	5.e-002	36.835
8157	1.2	4.1	0.	5554.3
8158	1.3	4.	0.	5522.8
8159	1.2	4.	5.e-002	36.593
8160	1.2	4.3	0.	5534.5
8161	1.3	4.2	0.	5509.3
8162	1.2	4.2	5.e-002	36.391
8163	1.2	4.5	0.	5521.1
8164	1.3	4.4	0.	5501.1
8165	1.2	4.4	5.e-002	36.343
8166	1.2	4.7	0.	5520.5
8167	1.3	4.6	0.	5503.4
8168	1.2	4.6	5.e-002	36.622
8169	1.2	4.9	0.	5540.1
8170	1.3	4.8	0.	5522.2
8171	1.2	4.8	5.e-002	37.41
8172	1.2	5.1	0.	5588.
8173	1.3	5.	0.	5564.2
8174	1.2	5.	5.e-002	38.76
8175	1.2	5.3	0.	5670.1
8176	1.3	5.2	0.	5635.3
8177	1.2	5.2	5.e-002	40.356
8178	1.2	5.5	0.	5788.5
8179	1.3	5.4	0.	5737.8
8180	1.2	5.4	5.e-002	41.381
8181	1.2	5.7	0.	5951.4
8182	1.3	5.6	0.	5871.1
8183	1.2	5.6	5.e-002	40.313
8184	1.3	5.8	0.	6051.
8185	1.2	5.8	5.e-002	49.212
8186	1.2	5.9	0.	6025.5
8187	1.4	0.3	0.	5969.3
8188	1.5	0.2	0.	6044.9
8189	1.4	0.2	5.e-002	47.494
8190	1.4	0.1	0.	6042.8
8191	1.4	0.5	0.	5819.
8192	1.5	0.4	0.	5882.8
8193	1.4	0.4	5.e-002	34.255
8194	1.4	0.7	0.	5701.4
8195	1.5	0.6	0.	5756.4
8196	1.4	0.6	5.e-002	35.394
8197	1.4	0.9	0.	5609.9
8198	1.5	0.8	0.	5651.9
8199	1.4	0.8	5.e-002	35.265
8200	1.4	1.1	0.	5544.9
8201	1.5	1.	0.	5570.8
8202	1.4	1.	5.e-002	34.525
8203	1.4	1.3	0.	5504.
8204	1.5	1.2	0.	5513.
8205	1.4	1.2	5.e-002	33.704
8206	1.4	1.5	0.	5482.6
8207	1.5	1.4	0.	5475.8
8208	1.4	1.4	5.e-002	33.127
8209	1.4	1.7	0.	5475.4
8210	1.5	1.6	0.	5454.9
8211	1.4	1.6	5.e-002	32.878
8212	1.4	1.9	0.	5477.4
8213	1.5	1.8	0.	5445.9
8214	1.4	1.8	5.e-002	32.896
8215	1.4	2.1	0.	5484.5
8216	1.5	2.	0.	5444.6
8217	1.4	2.	5.e-002	33.073
8218	1.4	2.3	0.	5493.4
8219	1.5	2.2	0.	5447.8
8220	1.4	2.2	5.e-002	33.312
8221	1.4	2.5	0.	5501.9
8222	1.5	2.4	0.	5452.6
8223	1.4	2.4	5.e-002	33.546
8224	1.4	2.7	0.	5508.4
8225	1.5	2.6	0.	5457.4
8226	1.4	2.6	5.e-002	33.733
8227	1.4	2.9	0.	5511.8
8228	1.5	2.8	0.	5460.7
8229	1.4	2.8	5.e-002	33.853
8230	1.4	3.1	0.	5511.8
8231	1.5	3.	0.	5461.9
8232	1.4	3.	5.e-002	33.893
8233	1.4	3.3	0.	5508.4
8234	1.5	3.2	0.	5460.7
8235	1.4	3.2	5.e-002	33.853
8236	1.4	3.5	0.	5501.9
8237	1.5	3.4	0.	5457.4
8238	1.4	3.4	5.e-002	33.733
8239	1.4	3.7	0.	5493.4
8240	1.5	3.6	0.	5452.6
8241	1.4	3.6	5.e-002	33.546
8242	1.4	3.9	0.	5484.5
8243	1.5	3.8	0.	5447.8
8244	1.4	3.8	5.e-002	33.312
8245	1.4	4.1	0.	5477.4
8246	1.5	4.	0.	5444.6
8247	1.4	4.	5.e-002	33.073
8248	1.4	4.3	0.	5475.4
8249	1.5	4.2	0.	5445.9
8250	1.4	4.2	5.e-002	32.896
8251	1.4	4.5	0.	5482.6
8252	1.5	4.4	0.	5454.9
8253	1.4	4.4	5.e-002	32.878
8254	1.4	4.7	0.	5504.
8255	1.5	4.6	0.	5475.8
8256	1.4	4.6	5.e-002	33.127
8257	1.4	4.9	0.	5544.9
8258	1.5	4.8	0.	5513.
8259	1.4	4.8	5.e-002	33.704
8260	1.4	5.1	0.	5609.9
8261	1.5	5.	0.	5570.8
8262	1.4	5.	5.e-002	34.525
8263	1.4	5.3	0.	5701.4
8264	1.5	5.2	0.	5651.9
8265	1.4	5.2	5.e-002	35.265
8266	1.4	5.5	0.	5819.
8267	1.5	5.4	0.	5756.4
8268	1.4	5.4	5.e-002	35.394
8269	1.4	5.7	0.	5969.3
8270	1.5	5.6	0.	5882.8
8271	1.4	5.6	5.e-002	34.255
8272	1.5	5.8	0.	6044.9
8273	1.4	5.8	5.e-002	47.494
8274	1.4	5.9	0.	6042.8
8275	1.6	0.3	0.	5957.5
8276	1.7	0.2	0.	6015.3
8277	1.6	0.2	5.e-002	45.613
8278	1.6	0.1	0.	6030.1
8279	1.6	0.5	0.	5819.3
8280	1.7	0.4	0.	5868.9
8281	1.6	0.4	5.e-002	30.199
8282	1.6	0.7	0.	5705.8
8283	1.7	0.6	0.	5750.2
8284	1.6	0.6	5.e-002	31.065
8285	1.6	0.9	0.	5611.6
8286	1.7	0.8	0.	5647.8
8287	1.6	0.8	5.e-002	31.32
8288	1.6	1.1	0.	5537.8
8289	1.7	1.	0.	5562.9
8290	1.6	1.	5.e-002	31.066
8291	1.6	1.3	0.	5483.9
8292	1.7	1.2	0.	5496.6
8293	1.6	1.2	5.e-002	30.614
8294	1.6	1.5	0.	5447.3
8295	1.7	1.4	0.	5447.6
8296	1.6	1.4	5.e-002	30.22
8297	1.6	1.7	0.	5424.8
8298	1.7	1.6	0.	5413.7
8299	1.6	1.6	5.e-002	30.008
8300	1.6	1.9	0.	5412.7
8301	1.7	1.8	0.	5391.8
8302	1.6	1.8	5.e-002	29.986
8303	1.6	2.1	0.	5407.6
8304	1.7	2.	0.	5378.8
8305	1.6	2.	5.e-002	30.102
8306	1.6	2.3	0.	5406.7
8307	1.7	2.2	0.	5371.9
8308	1.6	2.2	5.e-002	30.289
8309	1.6	2.5	0.	5407.9
8310	1.7	2.4	0.	5368.9
8311	1.6	2.4	5.e-002	30.488
8312	1.6	2.7	0.	5409.5
8313	1.7	2.6	0.	5368.
8314	1.6	2.6	5.e-002	30.656
8315	1.6	2.9	0.	5410.5
8316	1.7	2.8	0.	5367.9
8317	1.6	2.8	5.e-002	30.767
8318	1.6	3.1	0.	5410.5
8319	1.7	3.	0.	5368.
8320	1.6	3.	5.e-002	30.805
8321	1.6	3.3	0.	5409.5
8322	1.7	3.2	0.	5367.9
8323	1.6	3.2	5.e-002	30.767
8324	1.6	3.5	0.	5407.9
8325	1.7	3.4	0.	5368.
8326	1.6	3.4	5.e-002	30.656
8327	1.6	3.7	0.	5406.7
8328	1.7	3.6	0.	5368.9
8329	1.6	3.6	5.e-002	30.488
8330	1.6	3.9	0.	5407.6
8331	1.7	3.8	0.	5371.9
8332	1.6	3.8	5.e-002	30.289
8333	1.6	4.1	0.	5412.7
8334	1.7	4.	0.	5378.8
8335	1.6	4.	5.e-002	30.102
8336	1.6	4.3	0.	5424.8
8337	1.7	4.2	0.	5391.8
8338	1.6	4.2	5.e-002	29.986
8339	1.6	4.5	0.	5447.3
8340	1.7	4.4	0.	5413.7
8341	1.6	4.4	5.e-002	30.008
8342	1.6	4.7	0.	5483.9
8343	1.7	4.6	0.	5447.6
8344	1.6	4.6	5.e-002	30.22
8345	1.6	4.9	0.	5537.8
8346	1.7	4.8	0.	5496.6
8347	1.6	4.8	5.e-002	30.614
8348	1.6	5.1	0.	5611.6
8349	1.7	5.	0.	5562.9
8350	1.6	5.	5.e-002	31.066
8351	1.6	5.3	0.	5705.8
8352	1.7	5.2	0.	5647.8
8353	1.6	5.2	5.e-002	31.32
8354	1.6	5.5	0.	5819.3
8355	1.7	5.4	0.	5750.2
8356	1.6	5.4	5.e-002	31.065
8357	1.6	5.7	0.	5957.5
8358	1.7	5.6	0.	5868.9
8359	1.6	5.6	5.e-002	30.199
8360	1.7	5.8	0.	6015.3
8361	1.6	5.8	5.e-002	45.613
8362	1.6	5.9	0.	6030.1
8363	1.8	0.3	0.	5926.1
8364	1.9	0.2	0.	5970.3
8365	1.8	0.2	5.e-002	43.513
8366	1.8	0.1	0.	5997.4
8367	1.8	0.5	0.	5799.2
8368	1.9	0.4	0.	5837.6
8369	1.8	0.4	5.e-002	27.344
8370	1.8	0.7	0.	5691.4
8371	1.9	0.6	0.	5726.9
8372	1.8	0.6	5.e-002	27.867
8373	1.8	0.9	0.	5598.2
8374	1.9	0.8	0.	5628.4
8375	1.8	0.8	5.e-002	28.243
8376	1.8	1.1	0.	5520.8
8377	1.9	1.	0.	5543.4
8378	1.8	1.	5.e-002	28.235
8379	1.8	1.3	0.	5459.5
8380	1.9	1.2	0.	5473.1
8381	1.8	1.2	5.e-002	28.009
8382	1.8	1.5	0.	5413.3
8383	1.9	1.4	0.	5417.3
8384	1.8	1.4	5.e-002	27.749
8385	1.8	1.7	0.	5380.1
8386	1.9	1.6	0.	5374.9
8387	1.8	1.6	5.e-002	27.571
8388	1.8	1.9	0.	5357.4
8389	1.9	1.8	0.	5343.8
8390	1.8	1.8	5.e-002	27.513
8391	1.8	2.1	0.	5342.8
8392	1.9	2.	0.	5322.1
8393	1.8	2.	5.e-002	27.563
8394	1.8	2.3	0.	5333.9
8395	1.9	2.2	0.	5307.4
8396	1.8	2.2	5.e-002	27.68
8397	1.8	2.5	0.	5328.8
8398	1.9	2.4	0.	5298.
8399	1.8	2.4	5.e-002	27.821
8400	1.8	2.7	0.	5326.3
8401	1.9	2.6	0.	5292.4
8402	1.8	2.6	5.e-002	27.948
8403	1.8	2.9	0.	5325.2
8404	1.9	2.8	0.	5289.5
8405	1.8	2.8	5.e-002	28.035
8406	1.8	3.1	0.	5325.2
8407	1.9	3.	0.	5288.6
8408	1.8	3.	5.e-002	28.066
8409	1.8	3.3	0.	5326.3
8410	1.9	3.2	0.	5289.5
8411	1.8	3.2	5.e-002	28.035
8412	1.8	3.5	0.	5328.8
8413	1.9	3.4	0.	5292.4
8414	1.8	3.4	5.e-002	27.948
8415	1.8	3.7	0.	5333.9
8416	1.9	3.6	0.	5298.
8417	1.8	3.6	5.e-002	27.821
8418	1.8	3.9	0.	5342.8
8419	1.9	3.8	0.	5307.4
8420	1.8	3.8	5.e-002	27.68
8421	1.8	4.1	0.	5357.4
8422	1.9	4.	0.	5322.1
8423	1.8	4.	5.e-002	27.563
8424	1.8	4.3	0.	5380.1
8425	1.9	4.2	0.	5343.8
8426	1.8	4.2	5.e-002	27.513
8427	1.8	4.5	0.	5413.3
8428	1.9	4.4	0.	5374.9
8429	1.8	4.4	5.e-002	27.571
8430	1.8	4.7	0.	5459.5
8431	1.9	4.6	0.	5417.3
8432	1.8	4.6	5.e-002	27.749
8433	1.8	4.9	0.	5520.8
8434	1.9	4.8	0.	5473.1
8435	1.8	4.8	5.e-002	28.009
8436	1.8	5.1	0.	5598.2
8437	1.9	5.	0.	5543.4
8438	1.8	5.	5.e-002	28.235
8439	1.8	5.3	0.	5691.4
8440	1.9	5.2	0.	5628.4
8441	1.8	5.2	5.e-002	28.243
8442	1.8	5.5	0.	5799.2
8443	1.9	5.4	0.	5726.9
8444	1.8	5.4	5.e-002	27.867
8445	1.8	5.7	0.	5926.1
8446	1.9	5.6	0.	5837.6
8447	1.8	5.6	5.e-002	27.344
8448	1.9	5.8	0.	5970.3
8449	1.8	5.8	5.e-002	43.513
8450	1.8	5.9	0.	5997.4
8451	2.	0.3	0.	5881.3
8452	2.1	0.2	0.	5914.8
8453	2.	0.2	5.e-002	41.266
8454	2.	0.1	0.	5951.
8455	2.	0.5	0.	5764.8
8456	2.1	0.4	0.	5794.3
8457	2.	0.4	5.e-002	25.225
8458	2.	0.7	0.	5663.3
8459	2.1	0.6	0.	5691.3
8460	2.	0.6	5.e-002	25.438
8461	2.	0.9	0.	5573.
8462	2.1	0.8	0.	5597.7
8463	2.	0.8	5.e-002	25.811
8464	2.	1.1	0.	5495.1
8465	2.1	1.	0.	5514.7
8466	2.	1.	5.e-002	25.909
8467	2.	1.3	0.	5430.3
8468	2.1	1.2	0.	5443.4
8469	2.	1.2	5.e-002	25.81
8470	2.	1.5	0.	5378.4
8471	2.1	1.4	0.	5384.3
8472	2.	1.4	5.e-002	25.636
8473	2.	1.7	0.	5338.2
8474	2.1	1.6	0.	5336.7
8475	2.	1.6	5.e-002	25.483
8476	2.	1.9	0.	5308.1
8477	2.1	1.8	0.	5299.6
8478	2.	1.8	5.e-002	25.399
8479	2.	2.1	0.	5286.4
8480	2.1	2.	0.	5271.7
8481	2.	2.	5.e-002	25.391
8482	2.	2.3	0.	5271.4
8483	2.1	2.2	0.	5251.3
8484	2.	2.2	5.e-002	25.44
8485	2.	2.5	0.	5261.4
8486	2.1	2.4	0.	5237.1
8487	2.	2.4	5.e-002	25.519
8488	2.	2.7	0.	5255.5
8489	2.1	2.6	0.	5227.8
8490	2.	2.6	5.e-002	25.599
8491	2.	2.9	0.	5252.7
8492	2.1	2.8	0.	5222.6
8493	2.	2.8	5.e-002	25.656
8494	2.	3.1	0.	5252.7
8495	2.1	3.	0.	5220.9
8496	2.	3.	5.e-002	25.676
8497	2.	3.3	0.	5255.5
8498	2.1	3.2	0.	5222.6
8499	2.	3.2	5.e-002	25.656
8500	2.	3.5	0.	5261.4
8501	2.1	3.4	0.	5227.8
8502	2.	3.4	5.e-002	25.599
8503	2.	3.7	0.	5271.4
8504	2.1	3.6	0.	5237.1
8505	2.	3.6	5.e-002	25.519
8506	2.	3.9	0.	5286.4
8507	2.1	3.8	0.	5251.3
8508	2.	3.8	5.e-002	25.44
8509	2.	4.1	0.	5308.1
8510	2.1	4.	0.	5271.7
8511	2.	4.	5.e-002	25.391
8512	2.	4.3	0.	5338.2
8513	2.1	4.2	0.	5299.6
8514	2.	4.2	5.e-002	25.399
8515	2.	4.5	0.	5378.4
8516	2.1	4.4	0.	5336.7
8517	2.	4.4	5.e-002	25.483
8518	2.	4.7	0.	5430.3
8519	2.1	4.6	0.	5384.3
8520	2.	4.6	5.e-002	25.636
8521	2.	4.9	0.	5495.1
8522	2.1	4.8	0.	5443.4
8523	2.	4.8	5.e-002	25.81
8524	2.	5.1	0.	5573.
8525	2.1	5.	0.	5514.7
8526	2.	5.	5.e-002	25.909
8527	2.	5.3	0.	5663.3
8528	2.1	5.2	0.	5597.7
8529	2.	5.2	5.e-002	25.811
8530	2.	5.5	0.	5764.8
8531	2.1	5.4	0.	5691.3
8532	2.	5.4	5.e-002	25.438
8533	2.	5.7	0.	5881.3
8534	2.1	5.6	0.	5794.3
8535	2.	5.6	5.e-002	25.225
8536	2.1	5.8	0.	5914.8
8537	2.	5.8	5.e-002	41.266
8538	2.	5.9	0.	5951.
8539	2.2	0.3	0.	5827.5
8540	2.3	0.2	0.	5852.4
8541	2.2	0.2	5.e-002	38.942
8542	2.2	0.1	0.	5895.2
8543	2.2	0.5	0.	5720.4
8544	2.3	0.4	0.	5742.7
8545	2.2	0.4	5.e-002	23.564
8546	2.2	0.7	0.	5625.3
8547	2.3	0.6	0.	5647.
8548	2.2	0.6	5.e-002	23.532
8549	2.2	0.9	0.	5539.
8550	2.3	0.8	0.	5558.8
8551	2.2	0.8	5.e-002	23.85
8552	2.2	1.1	0.	5462.6
8553	2.3	1.	0.	5478.9
8554	2.2	1.	5.e-002	23.979
8555	2.2	1.3	0.	5396.9
8556	2.3	1.2	0.	5408.6
8557	2.2	1.2	5.e-002	23.941
8558	2.2	1.5	0.	5342.1
8559	2.3	1.4	0.	5348.4
8560	2.2	1.4	5.e-002	23.818
8561	2.2	1.7	0.	5297.7
8562	2.3	1.6	0.	5298.2
8563	2.2	1.6	5.e-002	23.681
8564	2.2	1.9	0.	5262.8
8565	2.3	1.8	0.	5257.6
8566	2.2	1.8	5.e-002	23.578
8567	2.2	2.1	0.	5236.3
8568	2.3	2.	0.	5225.6
8569	2.2	2.	5.e-002	23.524
8570	2.2	2.3	0.	5216.8
8571	2.3	2.2	0.	5201.3
8572	2.2	2.2	5.e-002	23.516
8573	2.2	2.5	0.	5203.2
8574	2.3	2.4	0.	5183.6
8575	2.2	2.4	5.e-002	23.539
8576	2.2	2.7	0.	5194.7
8577	2.3	2.6	0.	5171.7
8578	2.2	2.6	5.e-002	23.573
8579	2.2	2.9	0.	5190.6
8580	2.3	2.8	0.	5164.8
8581	2.2	2.8	5.e-002	23.601
8582	2.2	3.1	0.	5190.6
8583	2.3	3.	0.	5162.6
8584	2.2	3.	5.e-002	23.611
8585	2.2	3.3	0.	5194.7
8586	2.3	3.2	0.	5164.8
8587	2.2	3.2	5.e-002	23.601
8588	2.2	3.5	0.	5203.2
8589	2.3	3.4	0.	5171.7
8590	2.2	3.4	5.e-002	23.573
8591	2.2	3.7	0.	5216.8
8592	2.3	3.6	0.	5183.6
8593	2.2	3.6	5.e-002	23.539
8594	2.2	3.9	0.	5236.3
8595	2.3	3.8	0.	5201.3
8596	2.2	3.8	5.e-002	23.516
8597	2.2	4.1	0.	5262.8
8598	2.3	4.	0.	5225.6
8599	2.2	4.	5.e-002	23.524
8600	2.2	4.3	0.	5297.7
8601	2.3	4.2	0.	5257.6
8602	2.2	4.2	5.e-002	23.578
8603	2.2	4.5	0.	5342.1
8604	2.3	4.4	0.	5298.2
8605	2.2	4.4	5.e-002	23.681
8606	2.2	4.7	0.	5396.9
8607	2.3	4.6	0.	5348.4
8608	2.2	4.6	5.e-002	23.818
8609	2.2	4.9	0.	5462.6
8610	2.3	4.8	0.	5408.6
8611	2.2	4.8	5.e-002	23.941
8612	2.2	5.1	0.	5539.
8613	2.3	5.	0.	5478.9
8614	2.2	5.	5.e-002	23.979
8615	2.2	5.3	0.	5625.3
8616	2.3	5.2	0.	5558.8
8617	2.2	5.2	5.e-002	23.85
8618	2.2	5.5	0.	5720.4
8619	2.3	5.4	0.	5647.
8620	2.2	5.4	5.e-002	23.532
8621	2.2	5.7	0.	5827.5
8622	2.3	5.6	0.	5742.7
8623	2.2	5.6	5.e-002	23.564
8624	2.3	5.8	0.	5852.4
8625	2.2	5.8	5.e-002	38.942
8626	2.2	5.9	0.	5895.2
8627	2.4	0.3	0.	5767.4
8628	2.5	0.2	0.	5785.5
8629	2.4	0.2	5.e-002	36.6
8630	2.4	0.1	0.	5833.1
8631	2.4	0.5	0.	5669.1
8632	2.5	0.4	0.	5685.5
8633	2.4	0.4	5.e-002	22.196
8634	2.4	0.7	0.	5580.2
8635	2.5	0.6	0.	5596.6
8636	2.4	0.6	5.e-002	21.988
8637	2.4	0.9	0.	5498.4
8638	2.5	0.8	0.	5513.8
8639	2.4	0.8	5.e-002	22.237
8640	2.4	1.1	0.	5424.6
8641	2.5	1.	0.	5437.8
8642	2.4	1.	5.e-002	22.358
8643	2.4	1.3	0.	5359.8
8644	2.5	1.2	0.	5369.7
8645	2.4	1.2	5.e-002	22.343
8646	2.4	1.5	0.	5304.2
8647	2.5	1.4	0.	5310.
8648	2.4	1.4	5.e-002	22.245
8649	2.4	1.7	0.	5257.8
8650	2.5	1.6	0.	5259.1
8651	2.4	1.6	5.e-002	22.118
8652	2.4	1.9	0.	5220.1
8653	2.5	1.8	0.	5216.7
8654	2.4	1.8	5.e-002	22.
8655	2.4	2.1	0.	5190.4
8656	2.5	2.	0.	5182.5
8657	2.4	2.	5.e-002	21.913
8658	2.4	2.3	0.	5168.
8659	2.5	2.2	0.	5155.7
8660	2.4	2.2	5.e-002	21.861
8661	2.4	2.5	0.	5151.9
8662	2.5	2.4	0.	5135.8
8663	2.4	2.4	5.e-002	21.839
8664	2.4	2.7	0.	5141.6
8665	2.5	2.6	0.	5122.
8666	2.4	2.6	5.e-002	21.835
8667	2.4	2.9	0.	5136.6
8668	2.5	2.8	0.	5114.
8669	2.4	2.8	5.e-002	21.838
8670	2.4	3.1	0.	5136.6
8671	2.5	3.	0.	5111.4
8672	2.4	3.	5.e-002	21.84
8673	2.4	3.3	0.	5141.6
8674	2.5	3.2	0.	5114.
8675	2.4	3.2	5.e-002	21.838
8676	2.4	3.5	0.	5151.9
8677	2.5	3.4	0.	5122.
8678	2.4	3.4	5.e-002	21.835
8679	2.4	3.7	0.	5168.
8680	2.5	3.6	0.	5135.8
8681	2.4	3.6	5.e-002	21.839
8682	2.4	3.9	0.	5190.4
8683	2.5	3.8	0.	5155.7
8684	2.4	3.8	5.e-002	21.861
8685	2.4	4.1	0.	5220.1
8686	2.5	4.	0.	5182.5
8687	2.4	4.	5.e-002	21.913
8688	2.4	4.3	0.	5257.8
8689	2.5	4.2	0.	5216.7
8690	2.4	4.2	5.e-002	22.
8691	2.4	4.5	0.	5304.2
8692	2.5	4.4	0.	5259.1
8693	2.4	4.4	5.e-002	22.118
8694	2.4	4.7	0.	5359.8
8695	2.5	4.6	0.	5310.
8696	2.4	4.6	5.e-002	22.245
8697	2.4	4.9	0.	5424.6
8698	2.5	4.8	0.	5369.7
8699	2.4	4.8	5.e-002	22.343
8700	2.4	5.1	0.	5498.4
8701	2.5	5.	0.	5437.8
8702	2.4	5.	5.e-002	22.358
8703	2.4	5.3	0.	5580.2
8704	2.5	5.2	0.	5513.8
8705	2.4	5.2	5.e-002	22.237
8706	2.4	5.5	0.	5669.1
8707	2.5	5.4	0.	5596.6
8708	2.4	5.4	5.e-002	21.988
8709	2.4	5.7	0.	5767.4
8710	2.5	5.6	0.	5685.5
8711	2.4	5.6	5.e-002	22.196
8712	2.5	5.8	0.	5785.5
8713	2.4	5.8	5.e-002	36.6
8714	2.4	5.9	0.	5833.1
8715	2.6	0.3	0.	5703.3
8716	2.7	0.2	0.	5715.8
8717	2.6	0.2	5.e-002	34.285
8718	2.6	0.1	0.	5766.6
8719	2.6	0.5	0.	5612.8
8720	2.7	0.4	0.	5624.3
8721	2.6	0.4	5.e-002	21.024
8722	2.6	0.7	0.	5530.1
8723	2.7	0.6	0.	5542.
8724	2.6	0.6	5.e-002	20.7
8725	2.6	0.9	0.	5453.
8726	2.7	0.8	0.	5464.6
8727	2.6	0.8	5.e-002	20.882
8728	2.6	1.1	0.	5382.6
8729	2.7	1.	0.	5392.8
8730	2.6	1.	5.e-002	20.979
8731	2.6	1.3	0.	5319.7
8732	2.7	1.2	0.	5327.5
8733	2.6	1.2	5.e-002	20.966
8734	2.6	1.5	0.	5264.7
8735	2.7	1.4	0.	5269.5
8736	2.6	1.4	5.e-002	20.879
8737	2.6	1.7	0.	5217.8
8738	2.7	1.6	0.	5219.
8739	2.6	1.6	5.e-002	20.756
8740	2.6	1.9	0.	5178.9
8741	2.7	1.8	0.	5176.3
8742	2.6	1.8	5.e-002	20.63
8743	2.6	2.1	0.	5147.5
8744	2.7	2.	0.	5141.1
8745	2.6	2.	5.e-002	20.52
8746	2.6	2.3	0.	5123.3
8747	2.7	2.2	0.	5113.1
8748	2.6	2.2	5.e-002	20.437
8749	2.6	2.5	0.	5105.7
8750	2.7	2.4	0.	5091.9
8751	2.6	2.4	5.e-002	20.381
8752	2.6	2.7	0.	5094.3
8753	2.7	2.6	0.	5077.1
8754	2.6	2.6	5.e-002	20.348
8755	2.6	2.9	0.	5088.6
8756	2.7	2.8	0.	5068.4
8757	2.6	2.8	5.e-002	20.331
8758	2.6	3.1	0.	5088.6
8759	2.7	3.	0.	5065.5
8760	2.6	3.	5.e-002	20.326
8761	2.6	3.3	0.	5094.3
8762	2.7	3.2	0.	5068.4
8763	2.6	3.2	5.e-002	20.331
8764	2.6	3.5	0.	5105.7
8765	2.7	3.4	0.	5077.1
8766	2.6	3.4	5.e-002	20.348
8767	2.6	3.7	0.	5123.3
8768	2.7	3.6	0.	5091.9
8769	2.6	3.6	5.e-002	20.381
8770	2.6	3.9	0.	5147.5
8771	2.7	3.8	0.	5113.1
8772	2.6	3.8	5.e-002	20.437
8773	2.6	4.1	0.	5178.9
8774	2.7	4.	0.	5141.1
8775	2.6	4.	5.e-002	20.52
8776	2.6	4.3	0.	5217.8
8777	2.7	4.2	0.	5176.3
8778	2.6	4.2	5.e-002	20.63
8779	2.6	4.5	0.	5264.7
8780	2.7	4.4	0.	5219.
8781	2.6	4.4	5.e-002	20.756
8782	2.6	4.7	0.	5319.7
8783	2.7	4.6	0.	5269.5
8784	2.6	4.6	5.e-002	20.879
8785	2.6	4.9	0.	5382.6
8786	2.7	4.8	0.	5327.5
8787	2.6	4.8	5.e-002	20.966
8788	2.6	5.1	0.	5453.
8789	2.7	5.	0.	5392.8
8790	2.6	5.	5.e-002	20.979
8791	2.6	5.3	0.	5530.1
8792	2.7	5.2	0.	5464.6
8793	2.6	5.2	5.e-002	20.882
8794	2.6	5.5	0.	5612.8
8795	2.7	5.4	0.	5542.
8796	2.6	5.4	5.e-002	20.7
8797	2.6	5.7	0.	5703.3
8798	2.7	5.6	0.	5624.3
8799	2.6	5.6	5.e-002	21.024
8800	2.7	5.8	0.	5715.8
8801	2.6	5.8	5.e-002	34.285
8802	2.6	5.9	0.	5766.6
8803	2.8	0.3	0.	5636.6
8804	2.9	0.2	0.	5644.3
8805	2.8	0.2	5.e-002	32.028
8806	2.8	0.1	0.	5697.3
8807	2.8	0.5	0.	5553.4
8808	2.9	0.4	0.	5560.7
8809	2.8	0.4	5.e-002	19.991
8810	2.8	0.7	0.	5476.4
8811	2.9	0.6	0.	5484.4
8812	2.8	0.6	5.e-002	19.599
8813	2.8	0.9	0.	5404.2
8814	2.9	0.8	0.	5412.3
8815	2.8	0.8	5.e-002	19.723
8816	2.8	1.1	0.	5337.5
8817	2.9	1.	0.	5344.8
8818	2.8	1.	5.e-002	19.791
8819	2.8	1.3	0.	5277.1
8820	2.9	1.2	0.	5282.8
8821	2.8	1.2	5.e-002	19.772
8822	2.8	1.5	0.	5223.7
8823	2.9	1.4	0.	5227.1
8824	2.8	1.4	5.e-002	19.687
8825	2.8	1.7	0.	5177.4
8826	2.9	1.6	0.	5178.1
8827	2.8	1.6	5.e-002	19.566
8828	2.8	1.9	0.	5138.4
8829	2.9	1.8	0.	5136.
8830	2.8	1.8	5.e-002	19.435
8831	2.8	2.1	0.	5106.5
8832	2.9	2.	0.	5100.8
8833	2.8	2.	5.e-002	19.312
8834	2.8	2.3	0.	5081.5
8835	2.9	2.2	0.	5072.5
8836	2.8	2.2	5.e-002	19.209
8837	2.8	2.5	0.	5063.1
8838	2.9	2.4	0.	5050.7
8839	2.8	2.4	5.e-002	19.13
8840	2.8	2.7	0.	5051.1
8841	2.9	2.6	0.	5035.4
8842	2.8	2.6	5.e-002	19.076
8843	2.8	2.9	0.	5045.1
8844	2.9	2.8	0.	5026.4
8845	2.8	2.8	5.e-002	19.046
8846	2.8	3.1	0.	5045.1
8847	2.9	3.	0.	5023.3
8848	2.8	3.	5.e-002	19.036
8849	2.8	3.3	0.	5051.1
8850	2.9	3.2	0.	5026.4
8851	2.8	3.2	5.e-002	19.046
8852	2.8	3.5	0.	5063.1
8853	2.9	3.4	0.	5035.4
8854	2.8	3.4	5.e-002	19.076
8855	2.8	3.7	0.	5081.5
8856	2.9	3.6	0.	5050.7
8857	2.8	3.6	5.e-002	19.13
8858	2.8	3.9	0.	5106.5
8859	2.9	3.8	0.	5072.5
8860	2.8	3.8	5.e-002	19.209
8861	2.8	4.1	0.	5138.4
8862	2.9	4.	0.	5100.8
8863	2.8	4.	5.e-002	19.312
8864	2.8	4.3	0.	5177.4
8865	2.9	4.2	0.	5136.
8866	2.8	4.2	5.e-002	19.435
8867	2.8	4.5	0.	5223.7
8868	2.9	4.4	0.	5178.1
8869	2.8	4.4	5.e-002	19.566
8870	2.8	4.7	0.	5277.1
8871	2.9	4.6	0.	5227.1
8872	2.8	4.6	5.e-002	19.687
8873	2.8	4.9	0.	5337.5
8874	2.9	4.8	0.	5282.8
8875	2.8	4.8	5.e-002	19.772
8876	2.8	5.1	0.	5404.2
8877	2.9	5.	0.	5344.8
8878	2.8	5.	5.e-002	19.791
8879	2.8	5.3	0.	5476.4
8880	2.9	5.2	0.	5412.3
8881	2.8	5.2	5.e-002	19.723
8882	2.8	5.5	0.	5553.4
8883	2.9	5.4	0.	5484.4
8884	2.8	5.4	5.e-002	19.599
8885	2.8	5.7	0.	5636.6
8886	2.9	5.6	0.	5560.7
8887	2.8	5.6	5.e-002	19.991
8888	2.9	5.8	0.	5644.3
8889	2.8	5.8	5.e-002	32.028
8890	2.8	5.9	0.	5697.3
8891	3.	0.3	0.	5568.3
8892	3.1	0.2	0.	5572.1
8893	3.	0.2	5.e-002	29.85
8894	3.	0.1	0.	5626.3
8895	3.	0.5	0.	5491.7
8896	3.1	0.4	0.	5495.5
8897	3.	0.4	5.e-002	19.062
8898	3.	0.7	0.	5420.2
8899	3.1	0.6	0.	5424.9
8900	3.	0.6	5.e-002	18.638
8901	3.	0.9	0.	5352.8
8902	3.1	0.8	0.	5357.8
8903	3.	0.8	5.e-002	18.716
8904	3.	1.1	0.	5290.
8905	3.1	1.	0.	5294.6
8906	3.	1.	5.e-002	18.757
8907	3.	1.3	0.	5232.7
8908	3.1	1.2	0.	5236.2
8909	3.	1.2	5.e-002	18.728
8910	3.	1.5	0.	5181.4
8911	3.1	1.4	0.	5183.3
8912	3.	1.4	5.e-002	18.643
8913	3.	1.7	0.	5136.5
8914	3.1	1.6	0.	5136.2
8915	3.	1.6	5.e-002	18.524
8916	3.	1.9	0.	5098.3
8917	3.1	1.8	0.	5095.4
8918	3.	1.8	5.e-002	18.391
8919	3.	2.1	0.	5066.6
8920	3.1	2.	0.	5061.
8921	3.	2.	5.e-002	18.261
8922	3.	2.3	0.	5041.6
8923	3.1	2.2	0.	5032.9
8924	3.	2.2	5.e-002	18.147
8925	3.	2.5	0.	5023.
8926	3.1	2.4	0.	5011.3
8927	3.	2.4	5.e-002	18.055
8928	3.	2.7	0.	5010.6
8929	3.1	2.6	0.	4995.9
8930	3.	2.6	5.e-002	17.989
8931	3.	2.9	0.	5004.5
8932	3.1	2.8	0.	4986.8
8933	3.	2.8	5.e-002	17.949
8934	3.	3.1	0.	5004.5
8935	3.1	3.	0.	4983.7
8936	3.	3.	5.e-002	17.936
8937	3.	3.3	0.	5010.6
8938	3.1	3.2	0.	4986.8
8939	3.	3.2	5.e-002	17.949
8940	3.	3.5	0.	5023.
8941	3.1	3.4	0.	4995.9
8942	3.	3.4	5.e-002	17.989
8943	3.	3.7	0.	5041.6
8944	3.1	3.6	0.	5011.3
8945	3.	3.6	5.e-002	18.055
8946	3.	3.9	0.	5066.6
8947	3.1	3.8	0.	5032.9
8948	3.	3.8	5.e-002	18.147
8949	3.	4.1	0.	5098.3
8950	3.1	4.	0.	5061.
8951	3.	4.	5.e-002	18.261
8952	3.	4.3	0.	5136.5
8953	3.1	4.2	0.	5095.4
8954	3.	4.2	5.e-002	18.391
8955	3.	4.5	0.	5181.4
8956	3.1	4.4	0.	5136.2
8957	3.	4.4	5.e-002	18.524
8958	3.	4.7	0.	5232.7
8959	3.1	4.6	0.	5183.3
8960	3.	4.6	5.e-002	18.643
8961	3.	4.9	0.	5290.
8962	3.1	4.8	0.	5236.2
8963	3.	4.8	5.e-002	18.728
8964	3.	5.1	0.	5352.8
8965	3.1	5.	0.	5294.6
8966	3.	5.	5.e-002	18.757
8967	3.	5.3	0.	5420.2
8968	3.1	5.2	0.	5357.8
8969	3.	5.2	5.e-002	18.716
8970	3.	5.5	0.	5491.7
8971	3.1	5.4	0.	5424.9
8972	3.	5.4	5.e-002	18.638
8973	3.	5.7	0.	5568.3
8974	3.1	5.6	0.	5495.5
8975	3.	5.6	5.e-002	19.062
8976	3.1	5.8	0.	5572.1
8977	3.	5.8	5.e-002	29.85
8978	3.	5.9	0.	5626.3
8979	3.2	0.3	0.	5499.2
8980	3.3	0.2	0.	5499.5
8981	3.2	0.2	5.e-002	27.765
8982	3.2	0.1	0.	5554.4
8983	3.2	0.5	0.	5428.6
8984	3.3	0.4	0.	5429.4
8985	3.2	0.4	5.e-002	18.216
8986	3.2	0.7	0.	5362.4
8987	3.3	0.6	0.	5364.1
8988	3.2	0.6	5.e-002	17.788
8989	3.2	0.9	0.	5299.5
8990	3.3	0.8	0.	5301.7
8991	3.2	0.8	5.e-002	17.83
8992	3.2	1.1	0.	5240.8
8993	3.3	1.	0.	5242.9
8994	3.2	1.	5.e-002	17.849
8995	3.2	1.3	0.	5186.7
8996	3.3	1.2	0.	5188.1
8997	3.2	1.2	5.e-002	17.81
8998	3.2	1.5	0.	5138.
8999	3.3	1.4	0.	5138.1
9000	3.2	1.4	5.e-002	17.725
9001	3.2	1.7	0.	5095.
9002	3.3	1.6	0.	5093.4
9003	3.2	1.6	5.e-002	17.608
9004	3.2	1.9	0.	5058.
9005	3.3	1.8	0.	5054.3
9006	3.2	1.8	5.e-002	17.477
9007	3.2	2.1	0.	5027.2
9008	3.3	2.	0.	5021.1
9009	3.2	2.	5.e-002	17.346
9010	3.2	2.3	0.	5002.6
9011	3.3	2.2	0.	4993.9
9012	3.2	2.2	5.e-002	17.228
9013	3.2	2.5	0.	4984.2
9014	3.3	2.4	0.	4972.8
9015	3.2	2.4	5.e-002	17.13
9016	3.2	2.7	0.	4972.
9017	3.3	2.6	0.	4957.7
9018	3.2	2.6	5.e-002	17.057
9019	3.2	2.9	0.	4965.9
9020	3.3	2.8	0.	4948.7
9021	3.2	2.8	5.e-002	17.013
9022	3.2	3.1	0.	4965.9
9023	3.3	3.	0.	4945.7
9024	3.2	3.	5.e-002	16.998
9025	3.2	3.3	0.	4972.
9026	3.3	3.2	0.	4948.7
9027	3.2	3.2	5.e-002	17.013
9028	3.2	3.5	0.	4984.2
9029	3.3	3.4	0.	4957.7
9030	3.2	3.4	5.e-002	17.057
9031	3.2	3.7	0.	5002.6
9032	3.3	3.6	0.	4972.8
9033	3.2	3.6	5.e-002	17.13
9034	3.2	3.9	0.	5027.2
9035	3.3	3.8	0.	4993.9
9036	3.2	3.8	5.e-002	17.228
9037	3.2	4.1	0.	5058.
9038	3.3	4.	0.	5021.1
9039	3.2	4.	5.e-002	17.346
9040	3.2	4.3	0.	5095.
9041	3.3	4.2	0.	5054.3
9042	3.2	4.2	5.e-002	17.477
9043	3.2	4.5	0.	5138.
9044	3.3	4.4	0.	5093.4
9045	3.2	4.4	5.e-002	17.608
9046	3.2	4.7	0.	5186.7
9047	3.3	4.6	0.	5138.1
9048	3.2	4.6	5.e-002	17.725
9049	3.2	4.9	0.	5240.8
9050	3.3	4.8	0.	5188.1
9051	3.2	4.8	5.e-002	17.81
9052	3.2	5.1	0.	5299.5
9053	3.3	5.	0.	5242.9
9054	3.2	5.	5.e-002	17.849
9055	3.2	5.3	0.	5362.4
9056	3.3	5.2	0.	5301.7
9057	3.2	5.2	5.e-002	17.83
9058	3.2	5.5	0.	5428.6
9059	3.3	5.4	0.	5364.1
9060	3.2	5.4	5.e-002	17.788
9061	3.2	5.7	0.	5499.2
9062	3.3	5.6	0.	5429.4
9063	3.2	5.6	5.e-002	18.216
9064	3.3	5.8	0.	5499.5
9065	3.2	5.8	5.e-002	27.765
9066	3.2	5.9	0.	5554.4
9067	3.4	0.3	0.	5429.7
9068	3.5	0.2	0.	5427.1
9069	3.4	0.2	5.e-002	25.784
9070	3.4	0.1	0.	5482.
9071	3.4	0.5	0.	5364.8
9072	3.5	0.4	0.	5362.8
9073	3.4	0.4	5.e-002	17.439
9074	3.4	0.7	0.	5303.4
9075	3.5	0.6	0.	5302.5
9076	3.4	0.6	5.e-002	17.028
9077	3.4	0.9	0.	5245.
9078	3.5	0.8	0.	5244.7
9079	3.4	0.8	5.e-002	17.045
9080	3.4	1.1	0.	5190.1
9081	3.5	1.	0.	5189.9
9082	3.4	1.	5.e-002	17.046
9083	3.4	1.3	0.	5139.5
9084	3.5	1.2	0.	5138.8
9085	3.4	1.2	5.e-002	17.
9086	3.4	1.5	0.	5093.5
9087	3.5	1.4	0.	5091.9
9088	3.4	1.4	5.e-002	16.914
9089	3.4	1.7	0.	5052.7
9090	3.5	1.6	0.	5049.7
9091	3.4	1.6	5.e-002	16.801
9092	3.4	1.9	0.	5017.4
9093	3.5	1.8	0.	5012.7
9094	3.4	1.8	5.e-002	16.674
9095	3.4	2.1	0.	4987.8
9096	3.5	2.	0.	4981.
9097	3.4	2.	5.e-002	16.547
9098	3.4	2.3	0.	4964.1
9099	3.5	2.2	0.	4955.
9100	3.4	2.2	5.e-002	16.429
9101	3.4	2.5	0.	4946.2
9102	3.5	2.4	0.	4934.6
9103	3.4	2.4	5.e-002	16.33
9104	3.4	2.7	0.	4934.3
9105	3.5	2.6	0.	4920.
9106	3.4	2.6	5.e-002	16.256
9107	3.4	2.9	0.	4928.4
9108	3.5	2.8	0.	4911.3
9109	3.4	2.8	5.e-002	16.21
9110	3.4	3.1	0.	4928.4
9111	3.5	3.	0.	4908.4
9112	3.4	3.	5.e-002	16.194
9113	3.4	3.3	0.	4934.3
9114	3.5	3.2	0.	4911.3
9115	3.4	3.2	5.e-002	16.21
9116	3.4	3.5	0.	4946.2
9117	3.5	3.4	0.	4920.
9118	3.4	3.4	5.e-002	16.256
9119	3.4	3.7	0.	4964.1
9120	3.5	3.6	0.	4934.6
9121	3.4	3.6	5.e-002	16.33
9122	3.4	3.9	0.	4987.8
9123	3.5	3.8	0.	4955.
9124	3.4	3.8	5.e-002	16.429
9125	3.4	4.1	0.	5017.4
9126	3.5	4.	0.	4981.
9127	3.4	4.	5.e-002	16.547
9128	3.4	4.3	0.	5052.7
9129	3.5	4.2	0.	5012.7
9130	3.4	4.2	5.e-002	16.674
9131	3.4	4.5	0.	5093.5
9132	3.5	4.4	0.	5049.8
9133	3.4	4.4	5.e-002	16.801
9134	3.4	4.7	0.	5139.5
9135	3.5	4.6	0.	5091.9
9136	3.4	4.6	5.e-002	16.914
9137	3.4	4.9	0.	5190.1
9138	3.5	4.8	0.	5138.8
9139	3.4	4.8	5.e-002	17.
9140	3.4	5.1	0.	5245.
9141	3.5	5.	0.	5189.9
9142	3.4	5.	5.e-002	17.046
9143	3.4	5.3	0.	5303.4
9144	3.5	5.2	0.	5244.7
9145	3.4	5.2	5.e-002	17.045
9146	3.4	5.5	0.	5364.8
9147	3.5	5.4	0.	5302.5
9148	3.4	5.4	5.e-002	17.028
9149	3.4	5.7	0.	5429.7
9150	3.5	5.6	0.	5362.8
9151	3.4	5.6	5.e-002	17.439
9152	3.5	5.8	0.	5427.1
9153	3.4	5.8	5.e-002	25.784
9154	3.4	5.9	0.	5482.
9155	3.6	0.3	0.	5360.2
9156	3.7	0.2	0.	5355.1
9157	3.6	0.2	5.e-002	23.91
9158	3.6	0.1	0.	5409.7
9159	3.6	0.5	0.	5300.5
9160	3.7	0.4	0.	5296.2
9161	3.6	0.4	5.e-002	16.723
9162	3.6	0.7	0.	5243.7
9163	3.7	0.6	0.	5240.4
9164	3.6	0.6	5.e-002	16.344
9165	3.6	0.9	0.	5189.5
9166	3.7	0.8	0.	5186.9
9167	3.6	0.8	5.e-002	16.343
9168	3.6	1.1	0.	5138.5
9169	3.7	1.	0.	5136.1
9170	3.6	1.	5.e-002	16.332
9171	3.6	1.3	0.	5091.2
9172	3.7	1.2	0.	5088.5
9173	3.6	1.2	5.e-002	16.281
9174	3.6	1.5	0.	5048.1
9175	3.7	1.4	0.	5044.8
9176	3.6	1.4	5.e-002	16.196
9177	3.6	1.7	0.	5009.7
9178	3.7	1.6	0.	5005.2
9179	3.6	1.6	5.e-002	16.088
9180	3.6	1.9	0.	4976.3
9181	3.7	1.8	0.	4970.3
9182	3.6	1.8	5.e-002	15.968
9183	3.6	2.1	0.	4948.1
9184	3.7	2.	0.	4940.4
9185	3.6	2.	5.e-002	15.847
9186	3.6	2.3	0.	4925.5
9187	3.7	2.2	0.	4915.7
9188	3.6	2.2	5.e-002	15.734
9189	3.6	2.5	0.	4908.4
9190	3.7	2.4	0.	4896.3
9191	3.6	2.4	5.e-002	15.638
9192	3.6	2.7	0.	4897.
9193	3.7	2.6	0.	4882.4
9194	3.6	2.6	5.e-002	15.565
9195	3.6	2.9	0.	4891.2
9196	3.7	2.8	0.	4874.
9197	3.6	2.8	5.e-002	15.52
9198	3.6	3.1	0.	4891.2
9199	3.7	3.	0.	4871.2
9200	3.6	3.	5.e-002	15.505
9201	3.6	3.3	0.	4897.
9202	3.7	3.2	0.	4874.
9203	3.6	3.2	5.e-002	15.52
9204	3.6	3.5	0.	4908.4
9205	3.7	3.4	0.	4882.4
9206	3.6	3.4	5.e-002	15.565
9207	3.6	3.7	0.	4925.5
9208	3.7	3.6	0.	4896.3
9209	3.6	3.6	5.e-002	15.638
9210	3.6	3.9	0.	4948.1
9211	3.7	3.8	0.	4915.7
9212	3.6	3.8	5.e-002	15.734
9213	3.6	4.1	0.	4976.3
9214	3.7	4.	0.	4940.4
9215	3.6	4.	5.e-002	15.847
9216	3.6	4.3	0.	5009.7
9217	3.7	4.2	0.	4970.3
9218	3.6	4.2	5.e-002	15.968
9219	3.6	4.5	0.	5048.1
9220	3.7	4.4	0.	5005.2
9221	3.6	4.4	5.e-002	16.088
9222	3.6	4.7	0.	5091.2
9223	3.7	4.6	0.	5044.8
9224	3.6	4.6	5.e-002	16.196
9225	3.6	4.9	0.	5138.5
9226	3.7	4.8	0.	5088.5
9227	3.6	4.8	5.e-002	16.281
9228	3.6	5.1	0.	5189.5
9229	3.7	5.	0.	5136.1
9230	3.6	5.	5.e-002	16.332
9231	3.6	5.3	0.	5243.7
9232	3.7	5.2	0.	5186.9
9233	3.6	5.2	5.e-002	16.343
9234	3.6	5.5	0.	5300.5
9235	3.7	5.4	0.	5240.4
9236	3.6	5.4	5.e-002	16.344
9237	3.6	5.7	0.	5360.2
9238	3.7	5.6	0.	5296.2
9239	3.6	5.6	5.e-002	16.723
9240	3.7	5.8	0.	5355.1
9241	3.6	5.8	5.e-002	23.91
9242	3.6	5.9	0.	5409.7
9243	3.8	0.3	0.	5291.
9244	3.9	0.2	0.	5283.7
9245	3.8	0.2	5.e-002	22.145
9246	3.8	0.1	0.	5337.6
9247	3.8	0.5	0.	5236.
9248	3.9	0.4	0.	5229.6
9249	3.8	0.4	5.e-002	16.063
9250	3.8	0.7	0.	5183.6
9251	3.9	0.6	0.	5178.1
9252	3.8	0.6	5.e-002	15.725
9253	3.8	0.9	0.	5133.4
9254	3.9	0.8	0.	5128.7
9255	3.8	0.8	5.e-002	15.713
9256	3.8	1.1	0.	5086.1
9257	3.9	1.	0.	5081.6
9258	3.8	1.	5.e-002	15.694
9259	3.8	1.3	0.	5042.1
9260	3.9	1.2	0.	5037.5
9261	3.8	1.2	5.e-002	15.641
9262	3.8	1.5	0.	5001.8
9263	3.9	1.4	0.	4996.8
9264	3.8	1.4	5.e-002	15.559
9265	3.8	1.7	0.	4965.9
9266	3.9	1.6	0.	4959.9
9267	3.8	1.6	5.e-002	15.458
9268	3.8	1.9	0.	4934.5
9269	3.9	1.8	0.	4927.2
9270	3.8	1.8	5.e-002	15.345
9271	3.8	2.1	0.	4907.9
9272	3.9	2.	0.	4899.1
9273	3.8	2.	5.e-002	15.232
9274	3.8	2.3	0.	4886.5
9275	3.9	2.2	0.	4875.9
9276	3.8	2.2	5.e-002	15.126
9277	3.8	2.5	0.	4870.3
9278	3.9	2.4	0.	4857.6
9279	3.8	2.4	5.e-002	15.036
9280	3.8	2.7	0.	4859.4
9281	3.9	2.6	0.	4844.4
9282	3.8	2.6	5.e-002	14.967
9283	3.8	2.9	0.	4854.
9284	3.9	2.8	0.	4836.5
9285	3.8	2.8	5.e-002	14.924
9286	3.8	3.1	0.	4854.
9287	3.9	3.	0.	4833.8
9288	3.8	3.	5.e-002	14.909
9289	3.8	3.3	0.	4859.4
9290	3.9	3.2	0.	4836.5
9291	3.8	3.2	5.e-002	14.924
9292	3.8	3.5	0.	4870.3
9293	3.9	3.4	0.	4844.4
9294	3.8	3.4	5.e-002	14.967
9295	3.8	3.7	0.	4886.5
9296	3.9	3.6	0.	4857.6
9297	3.8	3.6	5.e-002	15.036
9298	3.8	3.9	0.	4907.9
9299	3.9	3.8	0.	4875.9
9300	3.8	3.8	5.e-002	15.126
9301	3.8	4.1	0.	4934.5
9302	3.9	4.	0.	4899.1
9303	3.8	4.	5.e-002	15.232
9304	3.8	4.3	0.	4965.9
9305	3.9	4.2	0.	4927.2
9306	3.8	4.2	5.e-002	15.345
9307	3.8	4.5	0.	5001.8
9308	3.9	4.4	0.	4959.9
9309	3.8	4.4	5.e-002	15.458
9310	3.8	4.7	0.	5042.1
9311	3.9	4.6	0.	4996.8
9312	3.8	4.6	5.e-002	15.559
9313	3.8	4.9	0.	5086.1
9314	3.9	4.8	0.	5037.5
9315	3.8	4.8	5.e-002	15.641
9316	3.8	5.1	0.	5133.4
9317	3.9	5.	0.	5081.6
9318	3.8	5.	5.e-002	15.694
9319	3.8	5.3	0.	5183.6
9320	3.9	5.2	0.	5128.7
9321	3.8	5.2	5.e-002	15.713
9322	3.8	5.5	0.	5236.
9323	3.9	5.4	0.	5178.1
9324	3.8	5.4	5.e-002	15.725
9325	3.8	5.7	0.	5291.
9326	3.9	5.6	0.	5229.6
9327	3.8	5.6	5.e-002	16.063
9328	3.9	5.8	0.	5283.7
9329	3.8	5.8	5.e-002	22.145
9330	3.8	5.9	0.	5337.6
9331	4.	0.3	0.	5222.3
9332	4.1	0.2	0.	5213.
9333	4.	0.2	5.e-002	20.49
9334	4.	0.1	0.	5266.
9335	4.	0.5	0.	5171.7
9336	4.1	0.4	0.	5163.3
9337	4.	0.4	5.e-002	15.454
9338	4.	0.7	0.	5123.2
9339	4.1	0.6	0.	5115.9
9340	4.	0.6	5.e-002	15.163
9341	4.	0.9	0.	5076.9
9342	4.1	0.8	0.	5070.2
9343	4.	0.8	5.e-002	15.146
9344	4.	1.1	0.	5033.
9345	4.1	1.	0.	5026.7
9346	4.	1.	5.e-002	15.122
9347	4.	1.3	0.	4992.2
9348	4.1	1.2	0.	4985.8
9349	4.	1.2	5.e-002	15.069
9350	4.	1.5	0.	4954.8
9351	4.1	1.4	0.	4948.
9352	4.	1.4	5.e-002	14.992
9353	4.	1.7	0.	4921.2
9354	4.1	1.6	0.	4913.7
9355	4.	1.6	5.e-002	14.898
9356	4.	1.9	0.	4891.9
9357	4.1	1.8	0.	4883.3
9358	4.	1.8	5.e-002	14.795
9359	4.	2.1	0.	4867.1
9360	4.1	2.	0.	4857.1
9361	4.	2.	5.e-002	14.69
9362	4.	2.3	0.	4846.9
9363	4.1	2.2	0.	4835.3
9364	4.	2.2	5.e-002	14.593
9365	4.	2.5	0.	4831.7
9366	4.1	2.4	0.	4818.2
9367	4.	2.4	5.e-002	14.51
9368	4.	2.7	0.	4821.5
9369	4.1	2.6	0.	4805.8
9370	4.	2.6	5.e-002	14.446
9371	4.	2.9	0.	4816.3
9372	4.1	2.8	0.	4798.4
9373	4.	2.8	5.e-002	14.406
9374	4.	3.1	0.	4816.3
9375	4.1	3.	0.	4795.9
9376	4.	3.	5.e-002	14.392
9377	4.	3.3	0.	4821.5
9378	4.1	3.2	0.	4798.4
9379	4.	3.2	5.e-002	14.406
9380	4.	3.5	0.	4831.7
9381	4.1	3.4	0.	4805.8
9382	4.	3.4	5.e-002	14.446
9383	4.	3.7	0.	4846.9
9384	4.1	3.6	0.	4818.2
9385	4.	3.6	5.e-002	14.51
9386	4.	3.9	0.	4867.1
9387	4.1	3.8	0.	4835.3
9388	4.	3.8	5.e-002	14.593
9389	4.	4.1	0.	4891.9
9390	4.1	4.	0.	4857.1
9391	4.	4.	5.e-002	14.69
9392	4.	4.3	0.	4921.2
9393	4.1	4.2	0.	4883.3
9394	4.	4.2	5.e-002	14.795
9395	4.	4.5	0.	4954.8
9396	4.1	4.4	0.	4913.7
9397	4.	4.4	5.e-002	14.898
9398	4.	4.7	0.	4992.2
9399	4.1	4.6	0.	4948.
9400	4.	4.6	5.e-002	14.992
9401	4.	4.9	0.	5033.
9402	4.1	4.8	0.	4985.8
9403	4.	4.8	5.e-002	15.069
9404	4.	5.1	0.	5076.9
9405	4.1	5.	0.	5026.7
9406	4.	5.	5.e-002	15.122
9407	4.	5.3	0.	5123.2
9408	4.1	5.2	0.	5070.2
9409	4.	5.2	5.e-002	15.146
9410	4.	5.5	0.	5171.7
9411	4.1	5.4	0.	5115.9
9412	4.	5.4	5.e-002	15.163
9413	4.	5.7	0.	5222.3
9414	4.1	5.6	0.	5163.3
9415	4.	5.6	5.e-002	15.454
9416	4.1	5.8	0.	5213.
9417	4.	5.8	5.e-002	20.49
9418	4.	5.9	0.	5266.
9419	4.2	0.3	0.	5154.
9420	4.3	0.2	0.	5143.
9421	4.2	0.2	5.e-002	18.942
9422	4.2	0.1	0.	5195.
9423	4.2	0.5	0.	5107.5
9424	4.3	0.4	0.	5097.4
9425	4.2	0.4	5.e-002	14.891
9426	4.2	0.7	0.	5062.8
9427	4.3	0.6	0.	5053.7
9428	4.2	0.6	5.e-002	14.653
9429	4.2	0.9	0.	5020.
9430	4.3	0.8	0.	5011.5
9431	4.2	0.8	5.e-002	14.634
9432	4.2	1.1	0.	4979.5
9433	4.3	1.	0.	4971.4
9434	4.2	1.	5.e-002	14.608
9435	4.2	1.3	0.	4941.6
9436	4.3	1.2	0.	4933.6
9437	4.2	1.2	5.e-002	14.557
9438	4.2	1.5	0.	4907.
9439	4.3	1.4	0.	4898.6
9440	4.2	1.4	5.e-002	14.486
9441	4.2	1.7	0.	4875.8
9442	4.3	1.6	0.	4866.8
9443	4.2	1.6	5.e-002	14.4
9444	4.2	1.9	0.	4848.5
9445	4.3	1.8	0.	4838.6
9446	4.2	1.8	5.e-002	14.306
9447	4.2	2.1	0.	4825.4
9448	4.3	2.	0.	4814.2
9449	4.2	2.	5.e-002	14.212
9450	4.2	2.3	0.	4806.6
9451	4.3	2.2	0.	4793.9
9452	4.2	2.2	5.e-002	14.124
9453	4.2	2.5	0.	4792.3
9454	4.3	2.4	0.	4778.
9455	4.2	2.4	5.e-002	14.048
9456	4.2	2.7	0.	4782.8
9457	4.3	2.6	0.	4766.4
9458	4.2	2.6	5.e-002	13.99
9459	4.2	2.9	0.	4777.9
9460	4.3	2.8	0.	4759.5
9461	4.2	2.8	5.e-002	13.954
9462	4.2	3.1	0.	4777.9
9463	4.3	3.	0.	4757.2
9464	4.2	3.	5.e-002	13.941
9465	4.2	3.3	0.	4782.8
9466	4.3	3.2	0.	4759.5
9467	4.2	3.2	5.e-002	13.954
9468	4.2	3.5	0.	4792.3
9469	4.3	3.4	0.	4766.4
9470	4.2	3.4	5.e-002	13.99
9471	4.2	3.7	0.	4806.6
9472	4.3	3.6	0.	4778.
9473	4.2	3.6	5.e-002	14.048
9474	4.2	3.9	0.	4825.4
9475	4.3	3.8	0.	4793.9
9476	4.2	3.8	5.e-002	14.124
9477	4.2	4.1	0.	4848.5
9478	4.3	4.	0.	4814.2
9479	4.2	4.	5.e-002	14.212
9480	4.2	4.3	0.	4875.8
9481	4.3	4.2	0.	4838.6
9482	4.2	4.2	5.e-002	14.306
9483	4.2	4.5	0.	4907.
9484	4.3	4.4	0.	4866.8
9485	4.2	4.4	5.e-002	14.4
9486	4.2	4.7	0.	4941.6
9487	4.3	4.6	0.	4898.6
9488	4.2	4.6	5.e-002	14.486
9489	4.2	4.9	0.	4979.5
9490	4.3	4.8	0.	4933.6
9491	4.2	4.8	5.e-002	14.557
9492	4.2	5.1	0.	5020.
9493	4.3	5.	0.	4971.4
9494	4.2	5.	5.e-002	14.608
9495	4.2	5.3	0.	5062.8
9496	4.3	5.2	0.	5011.5
9497	4.2	5.2	5.e-002	14.634
9498	4.2	5.5	0.	5107.5
9499	4.3	5.4	0.	5053.7
9500	4.2	5.4	5.e-002	14.653
9501	4.2	5.7	0.	5154.
9502	4.3	5.6	0.	5097.4
9503	4.2	5.6	5.e-002	14.891
9504	4.3	5.8	0.	5143.
9505	4.2	5.8	5.e-002	18.942
9506	4.2	5.9	0.	5195.
9507	4.4	0.3	0.	5086.4
9508	4.5	0.2	0.	5073.8
9509	4.4	0.2	5.e-002	17.499
9510	4.4	0.1	0.	5124.6
9511	4.4	0.5	0.	5043.6
9512	4.5	0.4	0.	5032.
9513	4.4	0.4	5.e-002	14.374
9514	4.4	0.7	0.	5002.4
9515	4.5	0.6	0.	4991.7
9516	4.4	0.6	5.e-002	14.189
9517	4.4	0.9	0.	4962.9
9518	4.5	0.8	0.	4952.8
9519	4.4	0.8	5.e-002	14.171
9520	4.4	1.1	0.	4925.5
9521	4.5	1.	0.	4915.8
9522	4.4	1.	5.e-002	14.145
9523	4.4	1.3	0.	4890.5
9524	4.5	1.2	0.	4880.9
9525	4.4	1.2	5.e-002	14.098
9526	4.4	1.5	0.	4858.5
9527	4.5	1.4	0.	4848.6
9528	4.4	1.4	5.e-002	14.033
9529	4.4	1.7	0.	4829.6
9530	4.5	1.6	0.	4819.2
9531	4.4	1.6	5.e-002	13.955
9532	4.4	1.9	0.	4804.3
9533	4.5	1.8	0.	4793.1
9534	4.4	1.8	5.e-002	13.871
9535	4.4	2.1	0.	4782.8
9536	4.5	2.	0.	4770.5
9537	4.4	2.	5.e-002	13.787
9538	4.4	2.3	0.	4765.3
9539	4.5	2.2	0.	4751.7
9540	4.4	2.2	5.e-002	13.708
9541	4.4	2.5	0.	4752.1
9542	4.5	2.4	0.	4736.8
9543	4.4	2.4	5.e-002	13.641
9544	4.4	2.7	0.	4743.2
9545	4.5	2.6	0.	4726.1
9546	4.4	2.6	5.e-002	13.589
9547	4.4	2.9	0.	4738.7
9548	4.5	2.8	0.	4719.6
9549	4.4	2.8	5.e-002	13.556
9550	4.4	3.1	0.	4738.7
9551	4.5	3.	0.	4717.5
9552	4.4	3.	5.e-002	13.545
9553	4.4	3.3	0.	4743.2
9554	4.5	3.2	0.	4719.6
9555	4.4	3.2	5.e-002	13.556
9556	4.4	3.5	0.	4752.1
9557	4.5	3.4	0.	4726.1
9558	4.4	3.4	5.e-002	13.589
9559	4.4	3.7	0.	4765.3
9560	4.5	3.6	0.	4736.8
9561	4.4	3.6	5.e-002	13.641
9562	4.4	3.9	0.	4782.8
9563	4.5	3.8	0.	4751.7
9564	4.4	3.8	5.e-002	13.708
9565	4.4	4.1	0.	4804.3
9566	4.5	4.	0.	4770.5
9567	4.4	4.	5.e-002	13.787
9568	4.4	4.3	0.	4829.6
9569	4.5	4.2	0.	4793.1
9570	4.4	4.2	5.e-002	13.871
9571	4.4	4.5	0.	4858.5
9572	4.5	4.4	0.	4819.2
9573	4.4	4.4	5.e-002	13.955
9574	4.4	4.7	0.	4890.5
9575	4.5	4.6	0.	4848.6
9576	4.4	4.6	5.e-002	14.033
9577	4.4	4.9	0.	4925.5
9578	4.5	4.8	0.	4880.9
9579	4.4	4.8	5.e-002	14.098
9580	4.4	5.1	0.	4962.9
9581	4.5	5.	0.	4915.8
9582	4.4	5.	5.e-002	14.145
9583	4.4	5.3	0.	5002.4
9584	4.5	5.2	0.	4952.8
9585	4.4	5.2	5.e-002	14.171
9586	4.4	5.5	0.	5043.6
9587	4.5	5.4	0.	4991.7
9588	4.4	5.4	5.e-002	14.189
9589	4.4	5.7	0.	5086.4
9590	4.5	5.6	0.	5032.
9591	4.4	5.6	5.e-002	14.374
9592	4.5	5.8	0.	5073.8
9593	4.4	5.8	5.e-002	17.499
9594	4.4	5.9	0.	5124.6
9595	4.6	0.3	0.	5019.4
9596	4.7	0.2	0.	5005.4
9597	4.6	0.2	5.e-002	16.156
9598	4.6	0.1	0.	5054.9
9599	4.6	0.5	0.	4980.
9600	4.7	0.4	0.	4967.
9601	4.6	0.4	5.e-002	13.898
9602	4.6	0.7	0.	4942.1
9603	4.7	0.6	0.	4929.9
9604	4.6	0.6	5.e-002	13.767
9605	4.6	0.9	0.	4905.7
9606	4.7	0.8	0.	4894.1
9607	4.6	0.8	5.e-002	13.752
9608	4.6	1.1	0.	4871.2
9609	4.7	1.	0.	4859.9
9610	4.6	1.	5.e-002	13.728
9611	4.6	1.3	0.	4838.9
9612	4.7	1.2	0.	4827.8
9613	4.6	1.2	5.e-002	13.685
9614	4.6	1.5	0.	4809.3
9615	4.7	1.4	0.	4798.
9616	4.6	1.4	5.e-002	13.627
9617	4.6	1.7	0.	4782.7
9618	4.7	1.6	0.	4770.9
9619	4.6	1.6	5.e-002	13.558
9620	4.6	1.9	0.	4759.2
9621	4.7	1.8	0.	4746.7
9622	4.6	1.8	5.e-002	13.484
9623	4.6	2.1	0.	4739.3
9624	4.7	2.	0.	4725.9
9625	4.6	2.	5.e-002	13.409
9626	4.6	2.3	0.	4723.2
9627	4.7	2.2	0.	4708.5
9628	4.6	2.2	5.e-002	13.339
9629	4.6	2.5	0.	4710.9
9630	4.7	2.4	0.	4694.7
9631	4.6	2.4	5.e-002	13.28
9632	4.6	2.7	0.	4702.6
9633	4.7	2.6	0.	4684.8
9634	4.6	2.6	5.e-002	13.234
9635	4.6	2.9	0.	4698.5
9636	4.7	2.8	0.	4678.8
9637	4.6	2.8	5.e-002	13.205
9638	4.6	3.1	0.	4698.5
9639	4.7	3.	0.	4676.8
9640	4.6	3.	5.e-002	13.195
9641	4.6	3.3	0.	4702.6
9642	4.7	3.2	0.	4678.8
9643	4.6	3.2	5.e-002	13.205
9644	4.6	3.5	0.	4710.9
9645	4.7	3.4	0.	4684.8
9646	4.6	3.4	5.e-002	13.234
9647	4.6	3.7	0.	4723.2
9648	4.7	3.6	0.	4694.7
9649	4.6	3.6	5.e-002	13.28
9650	4.6	3.9	0.	4739.3
9651	4.7	3.8	0.	4708.5
9652	4.6	3.8	5.e-002	13.339
9653	4.6	4.1	0.	4759.2
9654	4.7	4.	0.	4725.9
9655	4.6	4.	5.e-002	13.409
9656	4.6	4.3	0.	4782.7
9657	4.7	4.2	0.	4746.7
9658	4.6	4.2	5.e-002	13.484
9659	4.6	4.5	0.	4809.3
9660	4.7	4.4	0.	4770.9
9661	4.6	4.4	5.e-002	13.558
9662	4.6	4.7	0.	4838.9
9663	4.7	4.6	0.	4798.
9664	4.6	4.6	5.e-002	13.627
9665	4.6	4.9	0.	4871.2
9666	4.7	4.8	0.	4827.8
9667	4.6	4.8	5.e-002	13.685
9668	4.6	5.1	0.	4905.7
9669	4.7	5.	0.	4859.9
9670	4.6	5.	5.e-002	13.728
9671	4.6	5.3	0.	4942.1
9672	4.7	5.2	0.	4894.1
9673	4.6	5.2	5.e-002	13.752
9674	4.6	5.5	0.	4980.
9675	4.7	5.4	0.	4929.9
9676	4.6	5.4	5.e-002	13.767
9677	4.6	5.7	0.	5019.4
9678	4.7	5.6	0.	4967.
9679	4.6	5.6	5.e-002	13.898
9680	4.7	5.8	0.	5005.4
9681	4.6	5.8	5.e-002	16.156
9682	4.6	5.9	0.	5054.9
9683	4.8	0.3	0.	4953.
9684	4.9	0.2	0.	4937.8
9685	4.8	0.2	5.e-002	14.909
9686	4.8	0.1	0.	4986.
9687	4.8	0.5	0.	4916.8
9688	4.9	0.4	0.	4902.5
9689	4.8	0.4	5.e-002	13.461
9690	4.8	0.7	0.	4881.8
9691	4.9	0.6	0.	4868.3
9692	4.8	0.6	5.e-002	13.383
9693	4.8	0.9	0.	4848.3
9694	4.9	0.8	0.	4835.3
9695	4.8	0.8	5.e-002	13.373
9696	4.8	1.1	0.	4816.5
9697	4.9	1.	0.	4803.9
9698	4.8	1.	5.e-002	13.351
9699	4.8	1.3	0.	4786.8
9700	4.9	1.2	0.	4774.3
9701	4.8	1.2	5.e-002	13.313
9702	4.8	1.5	0.	4759.5
9703	4.9	1.4	0.	4746.9
9704	4.8	1.4	5.e-002	13.262
9705	4.8	1.7	0.	4735.
9706	4.9	1.6	0.	4721.9
9707	4.8	1.6	5.e-002	13.201
9708	4.8	1.9	0.	4713.4
9709	4.9	1.8	0.	4699.6
9710	4.8	1.8	5.e-002	13.136
9711	4.8	2.1	0.	4695.
9712	4.9	2.	0.	4680.4
9713	4.8	2.	5.e-002	13.071
9714	4.8	2.3	0.	4680.
9715	4.9	2.2	0.	4664.3
9716	4.8	2.2	5.e-002	13.01
9717	4.8	2.5	0.	4668.7
9718	4.9	2.4	0.	4651.6
9719	4.8	2.4	5.e-002	12.958
9720	4.8	2.7	0.	4661.
9721	4.9	2.6	0.	4642.5
9722	4.8	2.6	5.e-002	12.918
9723	4.8	2.9	0.	4657.2
9724	4.9	2.8	0.	4636.9
9725	4.8	2.8	5.e-002	12.893
9726	4.8	3.1	0.	4657.2
9727	4.9	3.	0.	4635.1
9728	4.8	3.	5.e-002	12.884
9729	4.8	3.3	0.	4661.
9730	4.9	3.2	0.	4636.9
9731	4.8	3.2	5.e-002	12.893
9732	4.8	3.5	0.	4668.7
9733	4.9	3.4	0.	4642.5
9734	4.8	3.4	5.e-002	12.918
9735	4.8	3.7	0.	4680.
9736	4.9	3.6	0.	4651.6
9737	4.8	3.6	5.e-002	12.958
9738	4.8	3.9	0.	4695.
9739	4.9	3.8	0.	4664.3
9740	4.8	3.8	5.e-002	13.01
9741	4.8	4.1	0.	4713.4
9742	4.9	4.	0.	4680.4
9743	4.8	4.	5.e-002	13.071
9744	4.8	4.3	0.	4735.
9745	4.9	4.2	0.	4699.6
9746	4.8	4.2	5.e-002	13.136
9747	4.8	4.5	0.	4759.5
9748	4.9	4.4	0.	4721.9
9749	4.8	4.4	5.e-002	13.201
9750	4.8	4.7	0.	4786.8
9751	4.9	4.6	0.	4746.9
9752	4.8	4.6	5.e-002	13.262
9753	4.8	4.9	0.	4816.5
9754	4.9	4.8	0.	4774.3
9755	4.8	4.8	5.e-002	13.313
9756	4.8	5.1	0.	4848.3
9757	4.9	5.	0.	4803.9
9758	4.8	5.	5.e-002	13.351
9759	4.8	5.3	0.	4881.8
9760	4.9	5.2	0.	4835.3
9761	4.8	5.2	5.e-002	13.373
9762	4.8	5.5	0.	4916.8
9763	4.9	5.4	0.	4868.3
9764	4.8	5.4	5.e-002	13.383
9765	4.8	5.7	0.	4953.
9766	4.9	5.6	0.	4902.5
9767	4.8	5.6	5.e-002	13.461
9768	4.9	5.8	0.	4937.8
9769	4.8	5.8	5.e-002	14.909
9770	4.8	5.9	0.	4986.
9771	5.	0.3	0.	4887.2
9772	5.1	0.2	0.	4870.9
9773	5.	0.2	5.e-002	13.754
9774	5.	0.1	0.	4917.8
9775	5.	0.5	0.	4853.9
9776	5.1	0.4	0.	4838.4
9777	5.	0.4	5.e-002	13.06
9778	5.	0.7	0.	4821.8
9779	5.1	0.6	0.	4807.
9780	5.	0.6	5.e-002	13.034
9781	5.	0.9	0.	4790.9
9782	5.1	0.8	0.	4776.7
9783	5.	0.8	5.e-002	13.029
9784	5.	1.1	0.	4761.7
9785	5.1	1.	0.	4747.7
9786	5.	1.	5.e-002	13.01
9787	5.	1.3	0.	4734.3
9788	5.1	1.2	0.	4720.5
9789	5.	1.2	5.e-002	12.977
9790	5.	1.5	0.	4709.2
9791	5.1	1.4	0.	4695.2
9792	5.	1.4	5.e-002	12.933
9793	5.	1.7	0.	4686.6
9794	5.1	1.6	0.	4672.2
9795	5.	1.6	5.e-002	12.881
9796	5.	1.9	0.	4666.7
9797	5.1	1.8	0.	4651.8
9798	5.	1.8	5.e-002	12.824
9799	5.	2.1	0.	4649.7
9800	5.1	2.	0.	4634.
9801	5.	2.	5.e-002	12.768
9802	5.	2.3	0.	4635.9
9803	5.1	2.2	0.	4619.2
9804	5.	2.2	5.e-002	12.715
9805	5.	2.5	0.	4625.5
9806	5.1	2.4	0.	4607.6
9807	5.	2.4	5.e-002	12.67
9808	5.	2.7	0.	4618.4
9809	5.1	2.6	0.	4599.1
9810	5.	2.6	5.e-002	12.635
9811	5.	2.9	0.	4614.9
9812	5.1	2.8	0.	4594.
9813	5.	2.8	5.e-002	12.614
9814	5.	3.1	0.	4614.9
9815	5.1	3.	0.	4592.3
9816	5.	3.	5.e-002	12.606
9817	5.	3.3	0.	4618.4
9818	5.1	3.2	0.	4594.
9819	5.	3.2	5.e-002	12.614
9820	5.	3.5	0.	4625.5
9821	5.1	3.4	0.	4599.1
9822	5.	3.4	5.e-002	12.635
9823	5.	3.7	0.	4635.9
9824	5.1	3.6	0.	4607.6
9825	5.	3.6	5.e-002	12.67
9826	5.	3.9	0.	4649.7
9827	5.1	3.8	0.	4619.2
9828	5.	3.8	5.e-002	12.715
9829	5.	4.1	0.	4666.7
9830	5.1	4.	0.	4634.
9831	5.	4.	5.e-002	12.768
9832	5.	4.3	0.	4686.6
9833	5.1	4.2	0.	4651.8
9834	5.	4.2	5.e-002	12.824
9835	5.	4.5	0.	4709.2
9836	5.1	4.4	0.	4672.2
9837	5.	4.4	5.e-002	12.881
9838	5.	4.7	0.	4734.3
9839	5.1	4.6	0.	4695.2
9840	5.	4.6	5.e-002	12.933
9841	5.	4.9	0.	4761.7
9842	5.1	4.8	0.	4720.5
9843	5.	4.8	5.e-002	12.977
9844	5.	5.1	0.	4790.9
9845	5.1	5.	0.	4747.7
9846	5.	5.	5.e-002	13.01
9847	5.	5.3	0.	4821.8
9848	5.1	5.2	0.	4776.7
9849	5.	5.2	5.e-002	13.029
9850	5.	5.5	0.	4853.9
9851	5.1	5.4	0.	4807.
9852	5.	5.4	5.e-002	13.034
9853	5.	5.7	0.	4887.3
9854	5.1	5.6	0.	4838.4
9855	5.	5.6	5.e-002	13.06
9856	5.1	5.8	0.	4870.9
9857	5.	5.8	5.e-002	13.754
9858	5.	5.9	0.	4917.8
9859	5.2	0.3	0.	4822.1
9860	5.3	0.2	0.	4804.8
9861	5.2	0.2	5.e-002	12.684
9862	5.2	0.1	0.	4850.3
9863	5.2	0.5	0.	4791.5
9864	5.3	0.4	0.	4774.9
9865	5.2	0.4	5.e-002	12.693
9866	5.2	0.7	0.	4761.9
9867	5.3	0.6	0.	4745.9
9868	5.2	0.6	5.e-002	12.717
9869	5.2	0.9	0.	4733.5
9870	5.3	0.8	0.	4718.
9871	5.2	0.8	5.e-002	12.717
9872	5.2	1.1	0.	4706.6
9873	5.3	1.	0.	4691.4
9874	5.2	1.	5.e-002	12.702
9875	5.2	1.3	0.	4681.4
9876	5.3	1.2	0.	4666.4
9877	5.2	1.2	5.e-002	12.674
9878	5.2	1.5	0.	4658.3
9879	5.3	1.4	0.	4643.2
9880	5.2	1.4	5.e-002	12.636
9881	5.2	1.7	0.	4637.5
9882	5.3	1.6	0.	4622.
9883	5.2	1.6	5.e-002	12.591
9884	5.2	1.9	0.	4619.2
9885	5.3	1.8	0.	4603.2
9886	5.2	1.8	5.e-002	12.543
9887	5.2	2.1	0.	4603.6
9888	5.3	2.	0.	4586.9
9889	5.2	2.	5.e-002	12.495
9890	5.2	2.3	0.	4590.9
9891	5.3	2.2	0.	4573.3
9892	5.2	2.2	5.e-002	12.45
9893	5.2	2.5	0.	4581.3
9894	5.3	2.4	0.	4562.5
9895	5.2	2.4	5.e-002	12.411
9896	5.2	2.7	0.	4574.8
9897	5.3	2.6	0.	4554.8
9898	5.2	2.6	5.e-002	12.381
9899	5.2	2.9	0.	4571.5
9900	5.3	2.8	0.	4550.1
9901	5.2	2.8	5.e-002	12.363
9902	5.2	3.1	0.	4571.5
9903	5.3	3.	0.	4548.5
9904	5.2	3.	5.e-002	12.356
9905	5.2	3.3	0.	4574.8
9906	5.3	3.2	0.	4550.1
9907	5.2	3.2	5.e-002	12.363
9908	5.2	3.5	0.	4581.3
9909	5.3	3.4	0.	4554.8
9910	5.2	3.4	5.e-002	12.381
9911	5.2	3.7	0.	4590.9
9912	5.3	3.6	0.	4562.5
9913	5.2	3.6	5.e-002	12.411
9914	5.2	3.9	0.	4603.6
9915	5.3	3.8	0.	4573.3
9916	5.2	3.8	5.e-002	12.45
9917	5.2	4.1	0.	4619.2
9918	5.3	4.	0.	4586.9
9919	5.2	4.	5.e-002	12.495
9920	5.2	4.3	0.	4637.5
9921	5.3	4.2	0.	4603.2
9922	5.2	4.2	5.e-002	12.543
9923	5.2	4.5	0.	4658.3
9924	5.3	4.4	0.	4622.
9925	5.2	4.4	5.e-002	12.591
9926	5.2	4.7	0.	4681.4
9927	5.3	4.6	0.	4643.2
9928	5.2	4.6	5.e-002	12.636
9929	5.2	4.9	0.	4706.6
9930	5.3	4.8	0.	4666.4
9931	5.2	4.8	5.e-002	12.674
9932	5.2	5.1	0.	4733.5
9933	5.3	5.	0.	4691.4
9934	5.2	5.	5.e-002	12.702
9935	5.2	5.3	0.	4761.9
9936	5.3	5.2	0.	4718.
9937	5.2	5.2	5.e-002	12.717
9938	5.2	5.5	0.	4791.5
9939	5.3	5.4	0.	4745.9
9940	5.2	5.4	5.e-002	12.717
9941	5.2	5.7	0.	4822.1
9942	5.3	5.6	0.	4774.9
9943	5.2	5.6	5.e-002	12.693
9944	5.3	5.8	0.	4804.8
9945	5.2	5.8	5.e-002	12.684
9946	5.2	5.9	0.	4850.3
9947	5.4	0.3	0.	4757.5
9948	5.5	0.2	0.	4739.3
9949	5.4	0.2	5.e-002	11.696
9950	5.4	0.1	0.	4783.5
9951	5.4	0.5	0.	4729.3
9952	5.5	0.4	0.	4711.8
9953	5.4	0.4	5.e-002	12.357
9954	5.4	0.7	0.	4702.1
9955	5.5	0.6	0.	4685.1
9956	5.4	0.6	5.e-002	12.428
9957	5.4	0.9	0.	4676.
9958	5.5	0.8	0.	4659.5
9959	5.4	0.8	5.e-002	12.433
9960	5.4	1.1	0.	4651.3
9961	5.5	1.	0.	4635.
9962	5.4	1.	5.e-002	12.422
9963	5.4	1.3	0.	4628.2
9964	5.5	1.2	0.	4612.
9965	5.4	1.2	5.e-002	12.399
9966	5.4	1.5	0.	4606.9
9967	5.5	1.4	0.	4590.7
9968	5.4	1.4	5.e-002	12.368
9969	5.4	1.7	0.	4587.8
9970	5.5	1.6	0.	4571.3
9971	5.4	1.6	5.e-002	12.33
9972	5.4	1.9	0.	4570.9
9973	5.5	1.8	0.	4554.
9974	5.4	1.8	5.e-002	12.289
9975	5.4	2.1	0.	4556.6
9976	5.5	2.	0.	4539.
9977	5.4	2.	5.e-002	12.248
9978	5.4	2.3	0.	4545.
9979	5.5	2.2	0.	4526.5
9980	5.4	2.2	5.e-002	12.21
9981	5.4	2.5	0.	4536.1
9982	5.5	2.4	0.	4516.6
9983	5.4	2.4	5.e-002	12.177
9984	5.4	2.7	0.	4530.1
9985	5.5	2.6	0.	4509.5
9986	5.4	2.6	5.e-002	12.151
9987	5.4	2.9	0.	4527.1
9988	5.5	2.8	0.	4505.2
9989	5.4	2.8	5.e-002	12.135
9990	5.4	3.1	0.	4527.1
9991	5.5	3.	0.	4503.7
9992	5.4	3.	5.e-002	12.13
9993	5.4	3.3	0.	4530.1
9994	5.5	3.2	0.	4505.2
9995	5.4	3.2	5.e-002	12.135
9996	5.4	3.5	0.	4536.1
9997	5.5	3.4	0.	4509.5
9998	5.4	3.4	5.e-002	12.151
9999	5.4	3.7	0.	4545.
10000	5.5	3.6	0.	4516.6
10001	5.4	3.6	5.e-002	12.177
10002	5.4	3.9	0.	4556.6
10003	5.5	3.8	0.	4526.5
10004	5.4	3.8	5.e-002	12.21
10005	5.4	4.1	0.	4570.9
10006	5.5	4.	0.	4539.
10007	5.4	4.	5.e-002	12.248
10008	5.4	4.3	0.	4587.8
10009	5.5	4.2	0.	4554.
10010	5.4	4.2	5.e-002	12.289
10011	5.4	4.5	0.	4606.9
10012	5.5	4.4	0.	4571.3
10013	5.4	4.4	5.e-002	12.33
10014	5.4	4.7	0.	4628.2
10015	5.5	4.6	0.	4590.7
10016	5.4	4.6	5.e-002	12.368
10017	5.4	4.9	0.	4651.3
10018	5.5	4.8	0.	4612.
10019	5.4	4.8	5.e-002	12.399
10020	5.4	5.1	0.	4676.
10021	5.5	5.	0.	4635.
10022	5.4	5.	5.e-002	12.422
10023	5.4	5.3	0.	4702.1
10024	5.5	5.2	0.	4659.5
10025	5.4	5.2	5.e-002	12.433
10026	5.4	5.5	0.	4729.3
10027	5.5	5.4	0.	4685.1
10028	5.4	5.4	5.e-002	12.428
10029	5.4	5.7	0.	4757.5
10030	5.5	5.6	0.	4711.8
10031	5.4	5.6	5.e-002	12.357
10032	5.5	5.8	0.	4739.3
10033	5.4	5.8	5.e-002	11.696
10034	5.4	5.9	0.	4783.5
10035	5.6	0.3	0.	4693.5
10036	5.7	0.2	0.	4674.4
10037	5.6	0.2	5.e-002	10.783
10038	5.6	0.1	0.	4717.4
10039	5.6	0.5	0.	4667.6
10040	5.7	0.4	0.	4649.1
10041	5.6	0.4	5.e-002	12.05
10042	5.6	0.7	0.	4642.5
10043	5.7	0.6	0.	4624.6
10044	5.6	0.6	5.e-002	12.166
10045	5.6	0.9	0.	4618.5
10046	5.7	0.8	0.	4601.
10047	5.6	0.8	5.e-002	12.176
10048	5.6	1.1	0.	4595.8
10049	5.7	1.	0.	4578.6
10050	5.6	1.	5.e-002	12.168
10051	5.6	1.3	0.	4574.6
10052	5.7	1.2	0.	4557.4
10053	5.6	1.2	5.e-002	12.15
10054	5.6	1.5	0.	4555.1
10055	5.7	1.4	0.	4537.8
10056	5.6	1.4	5.e-002	12.124
10057	5.6	1.7	0.	4537.5
10058	5.7	1.6	0.	4520.
10059	5.6	1.6	5.e-002	12.093
10060	5.6	1.9	0.	4522.
10061	5.7	1.8	0.	4504.1
10062	5.6	1.8	5.e-002	12.058
10063	5.6	2.1	0.	4508.9
10064	5.7	2.	0.	4490.4
10065	5.6	2.	5.e-002	12.024
10066	5.6	2.3	0.	4498.2
10067	5.7	2.2	0.	4478.9
10068	5.6	2.2	5.e-002	11.992
10069	5.6	2.5	0.	4490.
10070	5.7	2.4	0.	4469.8
10071	5.6	2.4	5.e-002	11.964
10072	5.6	2.7	0.	4484.5
10073	5.7	2.6	0.	4463.3
10074	5.6	2.6	5.e-002	11.942
10075	5.6	2.9	0.	4481.8
10076	5.7	2.8	0.	4459.3
10077	5.6	2.8	5.e-002	11.929
10078	5.6	3.1	0.	4481.8
10079	5.7	3.	0.	4458.
10080	5.6	3.	5.e-002	11.924
10081	5.6	3.3	0.	4484.5
10082	5.7	3.2	0.	4459.3
10083	5.6	3.2	5.e-002	11.929
10084	5.6	3.5	0.	4490.
10085	5.7	3.4	0.	4463.3
10086	5.6	3.4	5.e-002	11.942
10087	5.6	3.7	0.	4498.2
10088	5.7	3.6	0.	4469.8
10089	5.6	3.6	5.e-002	11.964
10090	5.6	3.9	0.	4508.9
10091	5.7	3.8	0.	4478.9
10092	5.6	3.8	5.e-002	11.992
10093	5.6	4.1	0.	4522.
10094	5.7	4.	0.	4490.4
10095	5.6	4.	5.e-002	12.024
10096	5.6	4.3	0.	4537.5
10097	5.7	4.2	0.	4504.1
10098	5.6	4.2	5.e-002	12.058
10099	5.6	4.5	0.	4555.1
10100	5.7	4.4	0.	4520.
10101	5.6	4.4	5.e-002	12.093
10102	5.6	4.7	0.	4574.6
10103	5.7	4.6	0.	4537.8
10104	5.6	4.6	5.e-002	12.124
10105	5.6	4.9	0.	4595.8
10106	5.7	4.8	0.	4557.4
10107	5.6	4.8	5.e-002	12.15
10108	5.6	5.1	0.	4618.5
10109	5.7	5.	0.	4578.6
10110	5.6	5.	5.e-002	12.168
10111	5.6	5.3	0.	4642.5
10112	5.7	5.2	0.	4601.
10113	5.6	5.2	5.e-002	12.176
10114	5.6	5.5	0.	4667.6
10115	5.7	5.4	0.	4624.6
10116	5.6	5.4	5.e-002	12.166
10117	5.6	5.7	0.	4693.5
10118	5.7	5.6	0.	4649.1
10119	5.6	5.6	5.e-002	12.05
10120	5.7	5.8	0.	4674.4
10121	5.6	5.8	5.e-002	10.783
10122	5.6	5.9	0.	4717.4
10123	5.8	0.3	0.	4630.
10124	5.9	0.2	0.	4610.2
10125	5.8	0.2	5.e-002	9.942
10126	5.8	0.1	0.	4651.9
10127	5.8	0.5	0.	4606.1
10128	5.9	0.4	0.	4586.9
10129	5.8	0.4	5.e-002	11.769
10130	5.8	0.7	0.	4583.1
10131	5.9	0.6	0.	4564.3
10132	5.8	0.6	5.e-002	11.927
10133	5.8	0.9	0.	4561.1
10134	5.9	0.8	0.	4542.7
10135	5.8	0.8	5.e-002	11.942
10136	5.8	1.1	0.	4540.2
10137	5.9	1.	0.	4522.
10138	5.8	1.	5.e-002	11.937
10139	5.8	1.3	0.	4520.7
10140	5.9	1.2	0.	4502.6
10141	5.8	1.2	5.e-002	11.923
10142	5.8	1.5	0.	4502.8
10143	5.9	1.4	0.	4484.6
10144	5.8	1.4	5.e-002	11.902
10145	5.8	1.7	0.	4486.6
10146	5.9	1.6	0.	4468.2
10147	5.8	1.6	5.e-002	11.877
10148	5.8	1.9	0.	4472.4
10149	5.9	1.8	0.	4453.7
10150	5.8	1.8	5.e-002	11.848
10151	5.8	2.1	0.	4460.4
10152	5.9	2.	0.	4441.
10153	5.8	2.	5.e-002	11.82
10154	5.8	2.3	0.	4450.6
10155	5.9	2.2	0.	4430.5
10156	5.8	2.2	5.e-002	11.793
10157	5.8	2.5	0.	4443.1
10158	5.9	2.4	0.	4422.2
10159	5.8	2.4	5.e-002	11.769
10160	5.8	2.7	0.	4438.1
10161	5.9	2.6	0.	4416.2
10162	5.8	2.6	5.e-002	11.752
10163	5.8	2.9	0.	4435.5
10164	5.9	2.8	0.	4412.6
10165	5.8	2.8	5.e-002	11.74
10166	5.8	3.1	0.	4435.5
10167	5.9	3.	0.	4411.4
10168	5.8	3.	5.e-002	11.737
10169	5.8	3.3	0.	4438.1
10170	5.9	3.2	0.	4412.6
10171	5.8	3.2	5.e-002	11.74
10172	5.8	3.5	0.	4443.1
10173	5.9	3.4	0.	4416.2
10174	5.8	3.4	5.e-002	11.752
10175	5.8	3.7	0.	4450.6
10176	5.9	3.6	0.	4422.2
10177	5.8	3.6	5.e-002	11.769
10178	5.8	3.9	0.	4460.4
10179	5.9	3.8	0.	4430.5
10180	5.8	3.8	5.e-002	11.793
10181	5.8	4.1	0.	4472.4
10182	5.9	4.	0.	4441.
10183	5.8	4.	5.e-002	11.82
10184	5.8	4.3	0.	4486.6
10185	5.9	4.2	0.	4453.7
10186	5.8	4.2	5.e-002	11.848
10187	5.8	4.5	0.	4502.8
10188	5.9	4.4	0.	4468.2
10189	5.8	4.4	5.e-002	11.877
10190	5.8	4.7	0.	4520.7
10191	5.9	4.6	0.	4484.6
10192	5.8	4.6	5.e-002	11.902
10193	5.8	4.9	0.	4540.2
10194	5.9	4.8	0.	4502.6
10195	5.8	4.8	5.e-002	11.923
10196	5.8	5.1	0.	4561.1
10197	5.9	5.	0.	4522.
10198	5.8	5.	5.e-002	11.937
10199	5.8	5.3	0.	4583.1
10200	5.9	5.2	0.	4542.7
10201	5.8	5.2	5.e-002	11.942
10202	5.8	5.5	0.	4606.1
10203	5.9	5.4	0.	4564.3
10204	5.8	5.4	5.e-002	11.927
10205	5.8	5.7	0.	4630.
10206	5.9	5.6	0.	4586.9
10207	5.8	5.6	5.e-002	11.769
10208	5.9	5.8	0.	4610.2
10209	5.8	5.8	5.e-002	9.942
10210	5.8	5.9	0.	4651.9
10211	6.	0.3	0.	4567.
10212	6.1	0.2	0.	4546.6
10213	6.	0.2	5.e-002	9.1668
10214	6.	0.1	0.	4587.
10215	6.	0.5	0.	4545.
10216	6.1	0.4	0.	4525.
10217	6.	0.4	5.e-002	11.513
10218	6.	0.7	0.	4523.9
10219	6.1	0.6	0.	4504.3
10220	6.	0.6	5.e-002	11.709
10221	6.	0.9	0.	4503.6
10222	6.1	0.8	0.	4484.4
10223	6.	0.8	5.e-002	11.728
10224	6.	1.1	0.	4484.4
10225	6.1	1.	0.	4465.4
10226	6.	1.	5.e-002	11.727
10227	6.	1.3	0.	4466.5
10228	6.1	1.2	0.	4447.6
10229	6.	1.2	5.e-002	11.717
10230	6.	1.5	0.	4450.1
10231	6.1	1.4	0.	4431.1
10232	6.	1.4	5.e-002	11.7
10233	6.	1.7	0.	4435.3
10234	6.1	1.6	0.	4416.1
10235	6.	1.6	5.e-002	11.68
10236	6.	1.9	0.	4422.3
10237	6.1	1.8	0.	4402.7
10238	6.	1.8	5.e-002	11.657
10239	6.	2.1	0.	4411.2
10240	6.1	2.	0.	4391.1
10241	6.	2.	5.e-002	11.633
10242	6.	2.3	0.	4402.2
10243	6.1	2.2	0.	4381.5
10244	6.	2.2	5.e-002	11.611
10245	6.	2.5	0.	4395.3
10246	6.1	2.4	0.	4373.8
10247	6.	2.4	5.e-002	11.592
10248	6.	2.7	0.	4390.7
10249	6.1	2.6	0.	4368.3
10250	6.	2.6	5.e-002	11.577
10251	6.	2.9	0.	4388.4
10252	6.1	2.8	0.	4365.
10253	6.	2.8	5.e-002	11.567
10254	6.	3.1	0.	4388.4
10255	6.1	3.	0.	4363.9
10256	6.	3.	5.e-002	11.564
10257	6.	3.3	0.	4390.7
10258	6.1	3.2	0.	4365.
10259	6.	3.2	5.e-002	11.567
10260	6.	3.5	0.	4395.3
10261	6.1	3.4	0.	4368.3
10262	6.	3.4	5.e-002	11.577
10263	6.	3.7	0.	4402.2
10264	6.1	3.6	0.	4373.8
10265	6.	3.6	5.e-002	11.592
10266	6.	3.9	0.	4411.2
10267	6.1	3.8	0.	4381.5
10268	6.	3.8	5.e-002	11.611
10269	6.	4.1	0.	4422.3
10270	6.1	4.	0.	4391.1
10271	6.	4.	5.e-002	11.633
10272	6.	4.3	0.	4435.3
10273	6.1	4.2	0.	4402.7
10274	6.	4.2	5.e-002	11.657
10275	6.	4.5	0.	4450.1
10276	6.1	4.4	0.	4416.1
10277	6.	4.4	5.e-002	11.68
10278	6.	4.7	0.	4466.5
10279	6.1	4.6	0.	4431.1
10280	6.	4.6	5.e-002	11.7
10281	6.	4.9	0.	4484.4
10282	6.1	4.8	0.	4447.6
10283	6.	4.8	5.e-002	11.717
10284	6.	5.1	0.	4503.6
10285	6.1	5.	0.	4465.4
10286	6.	5.	5.e-002	11.727
10287	6.	5.3	0.	4523.9
10288	6.1	5.2	0.	4484.4
10289	6.	5.2	5.e-002	11.728
10290	6.	5.5	0.	4545.
10291	6.1	5.4	0.	4504.3
10292	6.	5.4	5.e-002	11.709
10293	6.	5.7	0.	4567.
10294	6.1	5.6	0.	4525.
10295	6.	5.6	5.e-002	11.513
10296	6.1	5.8	0.	4546.6
10297	6.	5.8	5.e-002	9.1668
10298	6.	5.9	0.	4587.
10299	6.2	0.3	0.	4504.5
10300	6.3	0.2	0.	4483.4
10301	6.2	0.2	5.e-002	8.4533
10302	6.2	0.1	0.	4522.7
10303	6.2	0.5	0.	4484.3
10304	6.3	0.4	0.	4463.5
10305	6.2	0.4	5.e-002	11.278
10306	6.2	0.7	0.	4464.8
10307	6.3	0.6	0.	4444.5
10308	6.2	0.6	5.e-002	11.51
10309	6.2	0.9	0.	4446.2
10310	6.3	0.8	0.	4426.2
10311	6.2	0.8	5.e-002	11.534
10312	6.2	1.1	0.	4428.6
10313	6.3	1.	0.	4408.8
10314	6.2	1.	5.e-002	11.535
10315	6.2	1.3	0.	4412.1
10316	6.3	1.2	0.	4392.4
10317	6.2	1.2	5.e-002	11.528
10318	6.2	1.5	0.	4397.1
10319	6.3	1.4	0.	4377.3
10320	6.2	1.4	5.e-002	11.516
10321	6.2	1.7	0.	4383.5
10322	6.3	1.6	0.	4363.5
10323	6.2	1.6	5.e-002	11.499
10324	6.2	1.9	0.	4371.5
10325	6.3	1.8	0.	4351.2
10326	6.2	1.8	5.e-002	11.481
10327	6.2	2.1	0.	4361.4
10328	6.3	2.	0.	4340.6
10329	6.2	2.	5.e-002	11.462
10330	6.2	2.3	0.	4353.1
10331	6.3	2.2	0.	4331.8
10332	6.2	2.2	5.e-002	11.444
10333	6.2	2.5	0.	4346.9
10334	6.3	2.4	0.	4324.8
10335	6.2	2.4	5.e-002	11.428
10336	6.2	2.7	0.	4342.6
10337	6.3	2.6	0.	4319.7
10338	6.2	2.6	5.e-002	11.416
10339	6.2	2.9	0.	4340.5
10340	6.3	2.8	0.	4316.7
10341	6.2	2.8	5.e-002	11.408
10342	6.2	3.1	0.	4340.5
10343	6.3	3.	0.	4315.7
10344	6.2	3.	5.e-002	11.405
10345	6.2	3.3	0.	4342.6
10346	6.3	3.2	0.	4316.7
10347	6.2	3.2	5.e-002	11.408
10348	6.2	3.5	0.	4346.9
10349	6.3	3.4	0.	4319.7
10350	6.2	3.4	5.e-002	11.416
10351	6.2	3.7	0.	4353.1
10352	6.3	3.6	0.	4324.8
10353	6.2	3.6	5.e-002	11.428
10354	6.2	3.9	0.	4361.4
10355	6.3	3.8	0.	4331.8
10356	6.2	3.8	5.e-002	11.444
10357	6.2	4.1	0.	4371.5
10358	6.3	4.	0.	4340.6
10359	6.2	4.	5.e-002	11.462
10360	6.2	4.3	0.	4383.5
10361	6.3	4.2	0.	4351.2
10362	6.2	4.2	5.e-002	11.481
10363	6.2	4.5	0.	4397.1
10364	6.3	4.4	0.	4363.5
10365	6.2	4.4	5.e-002	11.499
10366	6.2	4.7	0.	4412.1
10367	6.3	4.6	0.	4377.3
10368	6.2	4.6	5.e-002	11.516
10369	6.2	4.9	0.	4428.6
10370	6.3	4.8	0.	4392.4
10371	6.2	4.8	5.e-002	11.528
10372	6.2	5.1	0.	4446.2
10373	6.3	5.	0.	4408.8
10374	6.2	5.	5.e-002	11.535
10375	6.2	5.3	0.	4464.8
10376	6.3	5.2	0.	4426.2
10377	6.2	5.2	5.e-002	11.534
10378	6.2	5.5	0.	4484.3
10379	6.3	5.4	0.	4444.5
10380	6.2	5.4	5.e-002	11.51
10381	6.2	5.7	0.	4504.5
10382	6.3	5.6	0.	4463.5
10383	6.2	5.6	5.e-002	11.278
10384	6.3	5.8	0.	4483.4
10385	6.2	5.8	5.e-002	8.4533
10386	6.2	5.9	0.	4522.7
10387	6.4	0.3	0.	4442.4
10388	6.5	0.2	0.	4420.8
10389	6.4	0.2	5.e-002	7.7971
10390	6.4	0.1	0.	4459.
10391	6.4	0.5	0.	4423.8
10392	6.5	0.4	0.	4402.4
10393	6.4	0.4	5.e-002	11.064
10394	6.4	0.7	0.	4405.9
10395	6.5	0.6	0.	4384.9
10396	6.4	0.6	5.e-002	11.328
10397	6.4	0.9	0.	4388.8
10398	6.5	0.8	0.	4368.1
10399	6.4	0.8	5.e-002	11.356
10400	6.4	1.1	0.	4372.6
10401	6.5	1.	0.	4352.1
10402	6.4	1.	5.e-002	11.359
10403	6.4	1.3	0.	4357.5
10404	6.5	1.2	0.	4337.1
10405	6.4	1.2	5.e-002	11.355
10406	6.4	1.5	0.	4343.7
10407	6.5	1.4	0.	4323.2
10408	6.4	1.4	5.e-002	11.346
10409	6.4	1.7	0.	4331.2
10410	6.5	1.6	0.	4310.6
10411	6.4	1.6	5.e-002	11.334
10412	6.4	1.9	0.	4320.3
10413	6.5	1.8	0.	4299.3
10414	6.4	1.8	5.e-002	11.319
10415	6.4	2.1	0.	4311.
10416	6.5	2.	0.	4289.6
10417	6.4	2.	5.e-002	11.304
10418	6.4	2.3	0.	4303.4
10419	6.5	2.2	0.	4281.5
10420	6.4	2.2	5.e-002	11.289
10421	6.4	2.5	0.	4297.7
10422	6.5	2.4	0.	4275.1
10423	6.4	2.4	5.e-002	11.277
10424	6.4	2.7	0.	4293.8
10425	6.5	2.6	0.	4270.5
10426	6.4	2.6	5.e-002	11.267
10427	6.4	2.9	0.	4291.9
10428	6.5	2.8	0.	4267.7
10429	6.4	2.8	5.e-002	11.261
10430	6.4	3.1	0.	4291.9
10431	6.5	3.	0.	4266.7
10432	6.4	3.	5.e-002	11.258
10433	6.4	3.3	0.	4293.8
10434	6.5	3.2	0.	4267.7
10435	6.4	3.2	5.e-002	11.261
10436	6.4	3.5	0.	4297.7
10437	6.5	3.4	0.	4270.5
10438	6.4	3.4	5.e-002	11.267
10439	6.4	3.7	0.	4303.4
10440	6.5	3.6	0.	4275.1
10441	6.4	3.6	5.e-002	11.277
10442	6.4	3.9	0.	4311.
10443	6.5	3.8	0.	4281.5
10444	6.4	3.8	5.e-002	11.289
10445	6.4	4.1	0.	4320.3
10446	6.5	4.	0.	4289.6
10447	6.4	4.	5.e-002	11.304
10448	6.4	4.3	0.	4331.2
10449	6.5	4.2	0.	4299.3
10450	6.4	4.2	5.e-002	11.319
10451	6.4	4.5	0.	4343.7
10452	6.5	4.4	0.	4310.6
10453	6.4	4.4	5.e-002	11.334
10454	6.4	4.7	0.	4357.5
10455	6.5	4.6	0.	4323.2
10456	6.4	4.6	5.e-002	11.346
10457	6.4	4.9	0.	4372.6
10458	6.5	4.8	0.	4337.1
10459	6.4	4.8	5.e-002	11.355
10460	6.4	5.1	0.	4388.8
10461	6.5	5.	0.	4352.1
10462	6.4	5.	5.e-002	11.359
10463	6.4	5.3	0.	4405.9
10464	6.5	5.2	0.	4368.1
10465	6.4	5.2	5.e-002	11.356
10466	6.4	5.5	0.	4423.8
10467	6.5	5.4	0.	4384.9
10468	6.4	5.4	5.e-002	11.328
10469	6.4	5.7	0.	4442.4
10470	6.5	5.6	0.	4402.4
10471	6.4	5.6	5.e-002	11.064
10472	6.5	5.8	0.	4420.8
10473	6.4	5.8	5.e-002	7.7971
10474	6.4	5.9	0.	4459.
10475	6.6	0.3	0.	4380.8
10476	6.7	0.2	0.	4358.7
10477	6.6	0.2	5.e-002	7.194
10478	6.6	0.1	0.	4395.7
10479	6.6	0.5	0.	4363.6
10480	6.7	0.4	0.	4341.7
10481	6.6	0.4	5.e-002	10.867
10482	6.6	0.7	0.	4347.2
10483	6.7	0.6	0.	4325.6
10484	6.6	0.6	5.e-002	11.162
10485	6.6	0.9	0.	4331.5
10486	6.7	0.8	0.	4310.2
10487	6.6	0.8	5.e-002	11.193
10488	6.6	1.1	0.	4316.6
10489	6.7	1.	0.	4295.5
10490	6.6	1.	5.e-002	11.198
10491	6.6	1.3	0.	4302.8
10492	6.7	1.2	0.	4281.7
10493	6.6	1.2	5.e-002	11.197
10494	6.6	1.5	0.	4290.1
10495	6.7	1.4	0.	4268.9
10496	6.6	1.4	5.e-002	11.191
10497	6.6	1.7	0.	4278.6
10498	6.7	1.6	0.	4257.3
10499	6.6	1.6	5.e-002	11.182
10500	6.6	1.9	0.	4268.6
10501	6.7	1.8	0.	4247.
10502	6.6	1.8	5.e-002	11.17
10503	6.6	2.1	0.	4260.1
10504	6.7	2.	0.	4238.1
10505	6.6	2.	5.e-002	11.158
10506	6.6	2.3	0.	4253.2
10507	6.7	2.2	0.	4230.7
10508	6.6	2.2	5.e-002	11.147
10509	6.6	2.5	0.	4247.9
10510	6.7	2.4	0.	4224.8
10511	6.6	2.4	5.e-002	11.137
10512	6.6	2.7	0.	4244.3
10513	6.7	2.6	0.	4220.6
10514	6.6	2.6	5.e-002	11.129
10515	6.6	2.9	0.	4242.6
10516	6.7	2.8	0.	4218.
10517	6.6	2.8	5.e-002	11.124
10518	6.6	3.1	0.	4242.6
10519	6.7	3.	0.	4217.2
10520	6.6	3.	5.e-002	11.122
10521	6.6	3.3	0.	4244.3
10522	6.7	3.2	0.	4218.
10523	6.6	3.2	5.e-002	11.124
10524	6.6	3.5	0.	4247.9
10525	6.7	3.4	0.	4220.6
10526	6.6	3.4	5.e-002	11.129
10527	6.6	3.7	0.	4253.2
10528	6.7	3.6	0.	4224.8
10529	6.6	3.6	5.e-002	11.137
10530	6.6	3.9	0.	4260.1
10531	6.7	3.8	0.	4230.7
10532	6.6	3.8	5.e-002	11.147
10533	6.6	4.1	0.	4268.6
10534	6.7	4.	0.	4238.1
10535	6.6	4.	5.e-002	11.158
10536	6.6	4.3	0.	4278.6
10537	6.7	4.2	0.	4247.
10538	6.6	4.2	5.e-002	11.17
10539	6.6	4.5	0.	4290.1
10540	6.7	4.4	0.	4257.3
10541	6.6	4.4	5.e-002	11.182
10542	6.6	4.7	0.	4302.8
10543	6.7	4.6	0.	4268.9
10544	6.6	4.6	5.e-002	11.191
10545	6.6	4.9	0.	4316.6
10546	6.7	4.8	0.	4281.7
10547	6.6	4.8	5.e-002	11.197
10548	6.6	5.1	0.	4331.5
10549	6.7	5.	0.	4295.5
10550	6.6	5.	5.e-002	11.198
10551	6.6	5.3	0.	4347.2
10552	6.7	5.2	0.	4310.2
10553	6.6	5.2	5.e-002	11.193
10554	6.6	5.5	0.	4363.6
10555	6.7	5.4	0.	4325.6
10556	6.6	5.4	5.e-002	11.162
10557	6.6	5.7	0.	4380.8
10558	6.7	5.6	0.	4341.7
10559	6.6	5.6	5.e-002	10.867
10560	6.7	5.8	0.	4358.7
10561	6.6	5.8	5.e-002	7.194
10562	6.6	5.9	0.	4395.7
10563	6.8	0.3	0.	4319.5
10564	6.9	0.2	0.	4297.
10565	6.8	0.2	5.e-002	6.6401
10566	6.8	0.1	0.	4333.
10567	6.8	0.5	0.	4303.7
10568	6.9	0.4	0.	4281.3
10569	6.8	0.4	5.e-002	10.687
10570	6.8	0.7	0.	4288.6
10571	6.9	0.6	0.	4266.5
10572	6.8	0.6	5.e-002	11.01
10573	6.8	0.9	0.	4274.2
10574	6.9	0.8	0.	4252.3
10575	6.8	0.8	5.e-002	11.043
10576	6.8	1.1	0.	4260.5
10577	6.9	1.	0.	4238.8
10578	6.8	1.	5.e-002	11.05
10579	6.8	1.3	0.	4247.8
10580	6.9	1.2	0.	4226.1
10581	6.8	1.2	5.e-002	11.051
10582	6.8	1.5	0.	4236.2
10583	6.9	1.4	0.	4214.4
10584	6.8	1.4	5.e-002	11.047
10585	6.8	1.7	0.	4225.7
10586	6.9	1.6	0.	4203.8
10587	6.8	1.6	5.e-002	11.041
10588	6.8	1.9	0.	4216.5
10589	6.9	1.8	0.	4194.4
10590	6.8	1.8	5.e-002	11.033
10591	6.8	2.1	0.	4208.7
10592	6.9	2.	0.	4186.2
10593	6.8	2.	5.e-002	11.024
10594	6.8	2.3	0.	4202.3
10595	6.9	2.2	0.	4179.4
10596	6.8	2.2	5.e-002	11.014
10597	6.8	2.5	0.	4197.5
10598	6.9	2.4	0.	4174.
10599	6.8	2.4	5.e-002	11.006
10600	6.8	2.7	0.	4194.3
10601	6.9	2.6	0.	4170.1
10602	6.8	2.6	5.e-002	11.
10603	6.8	2.9	0.	4192.6
10604	6.9	2.8	0.	4167.8
10605	6.8	2.8	5.e-002	10.996
10606	6.8	3.1	0.	4192.6
10607	6.9	3.	0.	4167.
10608	6.8	3.	5.e-002	10.995
10609	6.8	3.3	0.	4194.3
10610	6.9	3.2	0.	4167.8
10611	6.8	3.2	5.e-002	10.996
10612	6.8	3.5	0.	4197.5
10613	6.9	3.4	0.	4170.1
10614	6.8	3.4	5.e-002	11.
10615	6.8	3.7	0.	4202.3
10616	6.9	3.6	0.	4174.
10617	6.8	3.6	5.e-002	11.006
10618	6.8	3.9	0.	4208.7
10619	6.9	3.8	0.	4179.4
10620	6.8	3.8	5.e-002	11.014
10621	6.8	4.1	0.	4216.5
10622	6.9	4.	0.	4186.2
10623	6.8	4.	5.e-002	11.024
10624	6.8	4.3	0.	4225.7
10625	6.9	4.2	0.	4194.4
10626	6.8	4.2	5.e-002	11.033
10627	6.8	4.5	0.	4236.2
10628	6.9	4.4	0.	4203.8
10629	6.8	4.4	5.e-002	11.041
10630	6.8	4.7	0.	4247.8
10631	6.9	4.6	0.	4214.4
10632	6.8	4.6	5.e-002	11.047
10633	6.8	4.9	0.	4260.5
10634	6.9	4.8	0.	4226.1
10635	6.8	4.8	5.e-002	11.051
10636	6.8	5.1	0.	4274.2
10637	6.9	5.	0.	4238.8
10638	6.8	5.	5.e-002	11.05
10639	6.8	5.3	0.	4288.6
10640	6.9	5.2	0.	4252.3
10641	6.8	5.2	5.e-002	11.043
10642	6.8	5.5	0.	4303.7
10643	6.9	5.4	0.	4266.5
10644	6.8	5.4	5.e-002	11.01
10645	6.8	5.7	0.	4319.5
10646	6.9	5.6	0.	4281.3
10647	6.8	5.6	5.e-002	10.687
10648	6.9	5.8	0.	4297.
10649	6.8	5.8	5.e-002	6.6401
10650	6.8	5.9	0.	4333.
10651	7.	0.3	0.	4258.7
10652	7.1	0.2	0.	4235.8
10653	7.	0.2	5.e-002	6.1317
10654	7.	0.1	0.	4270.8
10655	7.	0.5	0.	4244.
10656	7.1	0.4	0.	4221.2
10657	7.	0.4	5.e-002	10.522
10658	7.	0.7	0.	4230.2
10659	7.1	0.6	0.	4207.6
10660	7.	0.6	5.e-002	10.87
10661	7.	0.9	0.	4216.9
10662	7.1	0.8	0.	4194.5
10663	7.	0.8	5.e-002	10.906
10664	7.	1.1	0.	4204.4
10665	7.1	1.	0.	4182.1
10666	7.	1.	5.e-002	10.914
10667	7.	1.3	0.	4192.7
10668	7.1	1.2	0.	4170.5
10669	7.	1.2	5.e-002	10.916
10670	7.	1.5	0.	4182.1
10671	7.1	1.4	0.	4159.8
10672	7.	1.4	5.e-002	10.915
10673	7.	1.7	0.	4172.5
10674	7.1	1.6	0.	4150.
10675	7.	1.6	5.e-002	10.911
10676	7.	1.9	0.	4164.
10677	7.1	1.8	0.	4141.4
10678	7.	1.8	5.e-002	10.905
10679	7.	2.1	0.	4156.9
10680	7.1	2.	0.	4133.9
10681	7.	2.	5.e-002	10.898
10682	7.	2.3	0.	4151.1
10683	7.1	2.2	0.	4127.7
10684	7.	2.2	5.e-002	10.891
10685	7.	2.5	0.	4146.6
10686	7.1	2.4	0.	4122.7
10687	7.	2.4	5.e-002	10.885
10688	7.	2.7	0.	4143.7
10689	7.1	2.6	0.	4119.2
10690	7.	2.6	5.e-002	10.88
10691	7.	2.9	0.	4142.2
10692	7.1	2.8	0.	4117.
10693	7.	2.8	5.e-002	10.877
10694	7.	3.1	0.	4142.2
10695	7.1	3.	0.	4116.3
10696	7.	3.	5.e-002	10.876
10697	7.	3.3	0.	4143.7
10698	7.1	3.2	0.	4117.
10699	7.	3.2	5.e-002	10.877
10700	7.	3.5	0.	4146.6
10701	7.1	3.4	0.	4119.2
10702	7.	3.4	5.e-002	10.88
10703	7.	3.7	0.	4151.1
10704	7.1	3.6	0.	4122.7
10705	7.	3.6	5.e-002	10.885
10706	7.	3.9	0.	4156.9
10707	7.1	3.8	0.	4127.7
10708	7.	3.8	5.e-002	10.891
10709	7.	4.1	0.	4164.
10710	7.1	4.	0.	4133.9
10711	7.	4.	5.e-002	10.898
10712	7.	4.3	0.	4172.5
10713	7.1	4.2	0.	4141.4
10714	7.	4.2	5.e-002	10.905
10715	7.	4.5	0.	4182.1
10716	7.1	4.4	0.	4150.
10717	7.	4.4	5.e-002	10.911
10718	7.	4.7	0.	4192.7
10719	7.1	4.6	0.	4159.8
10720	7.	4.6	5.e-002	10.915
10721	7.	4.9	0.	4204.4
10722	7.1	4.8	0.	4170.5
10723	7.	4.8	5.e-002	10.916
10724	7.	5.1	0.	4216.9
10725	7.1	5.	0.	4182.1
10726	7.	5.	5.e-002	10.914
10727	7.	5.3	0.	4230.2
10728	7.1	5.2	0.	4194.5
10729	7.	5.2	5.e-002	10.906
10730	7.	5.5	0.	4244.
10731	7.1	5.4	0.	4207.6
10732	7.	5.4	5.e-002	10.87
10733	7.	5.7	0.	4258.7
10734	7.1	5.6	0.	4221.2
10735	7.	5.6	5.e-002	10.522
10736	7.1	5.8	0.	4235.8
10737	7.	5.8	5.e-002	6.1317
10738	7.	5.9	0.	4270.8
10739	7.2	0.3	0.	4198.2
10740	7.3	0.2	0.	4174.9
10741	7.2	0.2	5.e-002	5.6654
10742	7.2	0.1	0.	4209.1
10743	7.2	0.5	0.	4184.7
10744	7.3	0.4	0.	4161.4
10745	7.2	0.4	5.e-002	10.37
10746	7.2	0.7	0.	4171.9
10747	7.3	0.6	0.	4148.9
10748	7.2	0.6	5.e-002	10.74
10749	7.2	0.9	0.	4159.7
10750	7.3	0.8	0.	4136.9
10751	7.2	0.8	5.e-002	10.778
10752	7.2	1.1	0.	4148.3
10753	7.3	1.	0.	4125.5
10754	7.2	1.	5.e-002	10.788
10755	7.2	1.3	0.	4137.6
10756	7.3	1.2	0.	4114.9
10757	7.2	1.2	5.e-002	10.792
10758	7.2	1.5	0.	4127.8
10759	7.3	1.4	0.	4105.
10760	7.2	1.4	5.e-002	10.792
10761	7.2	1.7	0.	4119.
10762	7.3	1.6	0.	4096.1
10763	7.2	1.6	5.e-002	10.79
10764	7.2	1.9	0.	4111.2
10765	7.3	1.8	0.	4088.1
10766	7.2	1.8	5.e-002	10.786
10767	7.2	2.1	0.	4104.7
10768	7.3	2.	0.	4081.3
10769	7.2	2.	5.e-002	10.781
10770	7.2	2.3	0.	4099.3
10771	7.3	2.2	0.	4075.6
10772	7.2	2.2	5.e-002	10.776
10773	7.2	2.5	0.	4095.3
10774	7.3	2.4	0.	4071.1
10775	7.2	2.4	5.e-002	10.771
10776	7.2	2.7	0.	4092.6
10777	7.3	2.6	0.	4067.8
10778	7.2	2.6	5.e-002	10.768
10779	7.2	2.9	0.	4091.2
10780	7.3	2.8	0.	4065.8
10781	7.2	2.8	5.e-002	10.765
10782	7.2	3.1	0.	4091.2
10783	7.3	3.	0.	4065.2
10784	7.2	3.	5.e-002	10.765
10785	7.2	3.3	0.	4092.6
10786	7.3	3.2	0.	4065.8
10787	7.2	3.2	5.e-002	10.765
10788	7.2	3.5	0.	4095.3
10789	7.3	3.4	0.	4067.8
10790	7.2	3.4	5.e-002	10.768
10791	7.2	3.7	0.	4099.3
10792	7.3	3.6	0.	4071.1
10793	7.2	3.6	5.e-002	10.771
10794	7.2	3.9	0.	4104.7
10795	7.3	3.8	0.	4075.6
10796	7.2	3.8	5.e-002	10.776
10797	7.2	4.1	0.	4111.2
10798	7.3	4.	0.	4081.3
10799	7.2	4.	5.e-002	10.781
10800	7.2	4.3	0.	4119.
10801	7.3	4.2	0.	4088.1
10802	7.2	4.2	5.e-002	10.786
10803	7.2	4.5	0.	4127.8
10804	7.3	4.4	0.	4096.1
10805	7.2	4.4	5.e-002	10.79
10806	7.2	4.7	0.	4137.6
10807	7.3	4.6	0.	4105.
10808	7.2	4.6	5.e-002	10.792
10809	7.2	4.9	0.	4148.3
10810	7.3	4.8	0.	4114.9
10811	7.2	4.8	5.e-002	10.792
10812	7.2	5.1	0.	4159.7
10813	7.3	5.	0.	4125.5
10814	7.2	5.	5.e-002	10.788
10815	7.2	5.3	0.	4171.9
10816	7.3	5.2	0.	4136.9
10817	7.2	5.2	5.e-002	10.778
10818	7.2	5.5	0.	4184.7
10819	7.3	5.4	0.	4148.9
10820	7.2	5.4	5.e-002	10.74
10821	7.2	5.7	0.	4198.2
10822	7.3	5.6	0.	4161.4
10823	7.2	5.6	5.e-002	10.37
10824	7.3	5.8	0.	4174.9
10825	7.2	5.8	5.e-002	5.6654
10826	7.2	5.9	0.	4209.1
10827	7.4	0.3	0.	4138.
10828	7.5	0.2	0.	4114.5
10829	7.4	0.2	5.e-002	5.2379
10830	7.4	0.1	0.	4147.7
10831	7.4	0.5	0.	4125.5
10832	7.5	0.4	0.	4101.9
10833	7.4	0.4	5.e-002	10.23
10834	7.4	0.7	0.	4113.8
10835	7.5	0.6	0.	4090.4
10836	7.4	0.6	5.e-002	10.621
10837	7.4	0.9	0.	4102.6
10838	7.5	0.8	0.	4079.4
10839	7.4	0.8	5.e-002	10.661
10840	7.4	1.1	0.	4092.1
10841	7.5	1.	0.	4068.9
10842	7.4	1.	5.e-002	10.671
10843	7.4	1.3	0.	4082.3
10844	7.5	1.2	0.	4059.1
10845	7.4	1.2	5.e-002	10.676
10846	7.4	1.5	0.	4073.3
10847	7.5	1.4	0.	4050.1
10848	7.4	1.4	5.e-002	10.678
10849	7.4	1.7	0.	4065.2
10850	7.5	1.6	0.	4041.9
10851	7.4	1.6	5.e-002	10.677
10852	7.4	1.9	0.	4058.2
10853	7.5	1.8	0.	4034.6
10854	7.4	1.8	5.e-002	10.675
10855	7.4	2.1	0.	4052.1
10856	7.5	2.	0.	4028.4
10857	7.4	2.	5.e-002	10.672
10858	7.4	2.3	0.	4047.3
10859	7.5	2.2	0.	4023.1
10860	7.4	2.2	5.e-002	10.668
10861	7.4	2.5	0.	4043.6
10862	7.5	2.4	0.	4019.
10863	7.4	2.4	5.e-002	10.665
10864	7.4	2.7	0.	4041.1
10865	7.5	2.6	0.	4016.
10866	7.4	2.6	5.e-002	10.662
10867	7.4	2.9	0.	4039.8
10868	7.5	2.8	0.	4014.2
10869	7.4	2.8	5.e-002	10.66
10870	7.4	3.1	0.	4039.8
10871	7.5	3.	0.	4013.6
10872	7.4	3.	5.e-002	10.66
10873	7.4	3.3	0.	4041.1
10874	7.5	3.2	0.	4014.2
10875	7.4	3.2	5.e-002	10.66
10876	7.4	3.5	0.	4043.6
10877	7.5	3.4	0.	4016.
10878	7.4	3.4	5.e-002	10.662
10879	7.4	3.7	0.	4047.3
10880	7.5	3.6	0.	4019.
10881	7.4	3.6	5.e-002	10.665
10882	7.4	3.9	0.	4052.1
10883	7.5	3.8	0.	4023.1
10884	7.4	3.8	5.e-002	10.668
10885	7.4	4.1	0.	4058.2
10886	7.5	4.	0.	4028.4
10887	7.4	4.	5.e-002	10.672
10888	7.4	4.3	0.	4065.2
10889	7.5	4.2	0.	4034.6
10890	7.4	4.2	5.e-002	10.675
10891	7.4	4.5	0.	4073.3
10892	7.5	4.4	0.	4041.9
10893	7.4	4.4	5.e-002	10.677
10894	7.4	4.7	0.	4082.3
10895	7.5	4.6	0.	4050.1
10896	7.4	4.6	5.e-002	10.678
10897	7.4	4.9	0.	4092.1
10898	7.5	4.8	0.	4059.1
10899	7.4	4.8	5.e-002	10.676
10900	7.4	5.1	0.	4102.6
10901	7.5	5.	0.	4068.9
10902	7.4	5.	5.e-002	10.671
10903	7.4	5.3	0.	4113.8
10904	7.5	5.2	0.	4079.4
10905	7.4	5.2	5.e-002	10.661
10906	7.4	5.5	0.	4125.5
10907	7.5	5.4	0.	4090.4
10908	7.4	5.4	5.e-002	10.621
10909	7.4	5.7	0.	4138.
10910	7.5	5.6	0.	4101.9
10911	7.4	5.6	5.e-002	10.23
10912	7.5	5.8	0.	4114.5
10913	7.4	5.8	5.e-002	5.238
10914	7.4	5.9	0.	4147.7
10915	7.6	0.3	0.	4078.2
10916	7.7	0.2	0.	4054.4
10917	7.6	0.2	5.e-002	4.8464
10918	7.6	0.1	0.	4086.8
10919	7.6	0.5	0.	4066.7
10920	7.7	0.4	0.	4042.7
10921	7.6	0.4	5.e-002	10.101
10922	7.6	0.7	0.	4055.9
10923	7.7	0.6	0.	4032.1
10924	7.6	0.6	5.e-002	10.51
10925	7.6	0.9	0.	4045.6
10926	7.7	0.8	0.	4022.
10927	7.6	0.8	5.e-002	10.552
10928	7.6	1.1	0.	4036.
10929	7.7	1.	0.	4012.4
10930	7.6	1.	5.e-002	10.562
10931	7.6	1.3	0.	4027.
10932	7.7	1.2	0.	4003.4
10933	7.6	1.2	5.e-002	10.568
10934	7.6	1.5	0.	4018.7
10935	7.7	1.4	0.	3995.1
10936	7.6	1.4	5.e-002	10.571
10937	7.6	1.7	0.	4011.3
10938	7.7	1.6	0.	3987.6
10939	7.6	1.6	5.e-002	10.572
10940	7.6	1.9	0.	4004.8
10941	7.7	1.8	0.	3980.9
10942	7.6	1.8	5.e-002	10.571
10943	7.6	2.1	0.	3999.3
10944	7.7	2.	0.	3975.2
10945	7.6	2.	5.e-002	10.569
10946	7.6	2.3	0.	3994.8
10947	7.7	2.2	0.	3970.4
10948	7.6	2.2	5.e-002	10.567
10949	7.6	2.5	0.	3991.5
10950	7.7	2.4	0.	3966.6
10951	7.6	2.4	5.e-002	10.565
10952	7.6	2.7	0.	3989.2
10953	7.7	2.6	0.	3963.9
10954	7.6	2.6	5.e-002	10.563
10955	7.6	2.9	0.	3988.
10956	7.7	2.8	0.	3962.2
10957	7.6	2.8	5.e-002	10.561
10958	7.6	3.1	0.	3988.
10959	7.7	3.	0.	3961.7
10960	7.6	3.	5.e-002	10.561
10961	7.6	3.3	0.	3989.2
10962	7.7	3.2	0.	3962.2
10963	7.6	3.2	5.e-002	10.561
10964	7.6	3.5	0.	3991.5
10965	7.7	3.4	0.	3963.9
10966	7.6	3.4	5.e-002	10.563
10967	7.6	3.7	0.	3994.8
10968	7.7	3.6	0.	3966.6
10969	7.6	3.6	5.e-002	10.565
10970	7.6	3.9	0.	3999.3
10971	7.7	3.8	0.	3970.4
10972	7.6	3.8	5.e-002	10.567
10973	7.6	4.1	0.	4004.8
10974	7.7	4.	0.	3975.2
10975	7.6	4.	5.e-002	10.569
10976	7.6	4.3	0.	4011.3
10977	7.7	4.2	0.	3980.9
10978	7.6	4.2	5.e-002	10.571
10979	7.6	4.5	0.	4018.7
10980	7.7	4.4	0.	3987.6
10981	7.6	4.4	5.e-002	10.572
10982	7.6	4.7	0.	4027.
10983	7.7	4.6	0.	3995.1
10984	7.6	4.6	5.e-002	10.571
10985	7.6	4.9	0.	4036.
10986	7.7	4.8	0.	4003.4
10987	7.6	4.8	5.e-002	10.568
10988	7.6	5.1	0.	4045.6
10989	7.7	5.	0.	4012.4
10990	7.6	5.	5.e-002	10.562
10991	7.6	5.3	0.	4055.9
10992	7.7	5.2	0.	4022.
10993	7.6	5.2	5.e-002	10.552
10994	7.6	5.5	0.	4066.7
10995	7.7	5.4	0.	4032.1
10996	7.6	5.4	5.e-002	10.51
10997	7.6	5.7	0.	4078.2
10998	7.7	5.6	0.	4042.7
10999	7.6	5.6	5.e-002	10.101
11000	7.7	5.8	0.	4054.4
11001	7.6	5.8	5.e-002	4.8464
11002	7.6	5.9	0.	4086.8
11003	7.8	0.3	0.	4018.7
11004	7.9	0.2	0.	3994.6
11005	7.8	0.2	5.e-002	4.4881
11006	7.8	0.1	0.	4026.3
11007	7.8	0.5	0.	4008.
11008	7.9	0.4	0.	3983.7
11009	7.8	0.4	5.e-002	9.9813
11010	7.8	0.7	0.	3998.1
11011	7.9	0.6	0.	3974.
11012	7.8	0.6	5.e-002	10.407
11013	7.8	0.9	0.	3988.7
11014	7.9	0.8	0.	3964.7
11015	7.8	0.8	5.e-002	10.45
11016	7.8	1.1	0.	3979.8
11017	7.9	1.	0.	3955.9
11018	7.8	1.	5.e-002	10.461
11019	7.8	1.3	0.	3971.6
11020	7.9	1.2	0.	3947.7
11021	7.8	1.2	5.e-002	10.467
11022	7.8	1.5	0.	3964.
11023	7.9	1.4	0.	3940.1
11024	7.8	1.4	5.e-002	10.471
11025	7.8	1.7	0.	3957.2
11026	7.9	1.6	0.	3933.2
11027	7.8	1.6	5.e-002	10.473
11028	7.8	1.9	0.	3951.3
11029	7.9	1.8	0.	3927.1
11030	7.8	1.8	5.e-002	10.473
11031	7.8	2.1	0.	3946.2
11032	7.9	2.	0.	3921.8
11033	7.8	2.	5.e-002	10.473
11034	7.8	2.3	0.	3942.1
11035	7.9	2.2	0.	3917.4
11036	7.8	2.2	5.e-002	10.471
11037	7.8	2.5	0.	3939.
11038	7.9	2.4	0.	3913.9
11039	7.8	2.4	5.e-002	10.47
11040	7.8	2.7	0.	3936.9
11041	7.9	2.6	0.	3911.5
11042	7.8	2.6	5.e-002	10.469
11043	7.8	2.9	0.	3935.9
11044	7.9	2.8	0.	3909.9
11045	7.8	2.8	5.e-002	10.468
11046	7.8	3.1	0.	3935.9
11047	7.9	3.	0.	3909.4
11048	7.8	3.	5.e-002	10.468
11049	7.8	3.3	0.	3936.9
11050	7.9	3.2	0.	3909.9
11051	7.8	3.2	5.e-002	10.468
11052	7.8	3.5	0.	3939.
11053	7.9	3.4	0.	3911.5
11054	7.8	3.4	5.e-002	10.469
11055	7.8	3.7	0.	3942.1
11056	7.9	3.6	0.	3913.9
11057	7.8	3.6	5.e-002	10.47
11058	7.8	3.9	0.	3946.2
11059	7.9	3.8	0.	3917.4
11060	7.8	3.8	5.e-002	10.471
11061	7.8	4.1	0.	3951.3
11062	7.9	4.	0.	3921.8
11063	7.8	4.	5.e-002	10.473
11064	7.8	4.3	0.	3957.2
11065	7.9	4.2	0.	3927.1
11066	7.8	4.2	5.e-002	10.473
11067	7.8	4.5	0.	3964.
11068	7.9	4.4	0.	3933.2
11069	7.8	4.4	5.e-002	10.473
11070	7.8	4.7	0.	3971.6
11071	7.9	4.6	0.	3940.1
11072	7.8	4.6	5.e-002	10.471
11073	7.8	4.9	0.	3979.8
11074	7.9	4.8	0.	3947.7
11075	7.8	4.8	5.e-002	10.467
11076	7.8	5.1	0.	3988.7
11077	7.9	5.	0.	3955.9
11078	7.8	5.	5.e-002	10.461
11079	7.8	5.3	0.	3998.1
11080	7.9	5.2	0.	3964.7
11081	7.8	5.2	5.e-002	10.45
11082	7.8	5.5	0.	4008.
11083	7.9	5.4	0.	3974.
11084	7.8	5.4	5.e-002	10.407
11085	7.8	5.7	0.	4018.7
11086	7.9	5.6	0.	3983.7
11087	7.8	5.6	5.e-002	9.9813
11088	7.9	5.8	0.	3994.6
11089	7.8	5.8	5.e-002	4.4881
11090	7.8	5.9	0.	4026.3
11091	8.	0.3	0.	3959.6
11092	8.1	0.2	0.	3935.3
11093	8.	0.2	5.e-002	4.1605
11094	8.	0.1	0.	3966.1
11095	8.	0.5	0.	3949.7
11096	8.1	0.4	0.	3925.1
11097	8.	0.4	5.e-002	9.8704
11098	8.	0.7	0.	3940.5
11099	8.1	0.6	0.	3916.1
11100	8.	0.6	5.e-002	10.311
11101	8.	0.9	0.	3931.9
11102	8.1	0.8	0.	3907.6
11103	8.	0.8	5.e-002	10.355
11104	8.	1.1	0.	3923.7
11105	8.1	1.	0.	3899.5
11106	8.	1.	5.e-002	10.366
11107	8.	1.3	0.	3916.2
11108	8.1	1.2	0.	3891.9
11109	8.	1.2	5.e-002	10.373
11110	8.	1.5	0.	3909.2
11111	8.1	1.4	0.	3885.
11112	8.	1.4	5.e-002	10.377
11113	8.	1.7	0.	3903.
11114	8.1	1.6	0.	3878.7
11115	8.	1.6	5.e-002	10.38
11116	8.	1.9	0.	3897.6
11117	8.1	1.8	0.	3873.1
11118	8.	1.8	5.e-002	10.381
11119	8.	2.1	0.	3893.
11120	8.1	2.	0.	3868.2
11121	8.	2.	5.e-002	10.382
11122	8.	2.3	0.	3889.2
11123	8.1	2.2	0.	3864.2
11124	8.	2.2	5.e-002	10.381
11125	8.	2.5	0.	3886.4
11126	8.1	2.4	0.	3861.
11127	8.	2.4	5.e-002	10.381
11128	8.	2.7	0.	3884.4
11129	8.1	2.6	0.	3858.8
11130	8.	2.6	5.e-002	10.38
11131	8.	2.9	0.	3883.5
11132	8.1	2.8	0.	3857.4
11133	8.	2.8	5.e-002	10.38
11134	8.	3.1	0.	3883.5
11135	8.1	3.	0.	3856.9
11136	8.	3.	5.e-002	10.379
11137	8.	3.3	0.	3884.4
11138	8.1	3.2	0.	3857.4
11139	8.	3.2	5.e-002	10.38
11140	8.	3.5	0.	3886.4
11141	8.1	3.4	0.	3858.8
11142	8.	3.4	5.e-002	10.38
11143	8.	3.7	0.	3889.2
11144	8.1	3.6	0.	3861.
11145	8.	3.6	5.e-002	10.381
11146	8.	3.9	0.	3893.
11147	8.1	3.8	0.	3864.2
11148	8.	3.8	5.e-002	10.381
11149	8.	4.1	0.	3897.6
11150	8.1	4.	0.	3868.2
11151	8.	4.	5.e-002	10.382
11152	8.	4.3	0.	3903.
11153	8.1	4.2	0.	3873.1
11154	8.	4.2	5.e-002	10.381
11155	8.	4.5	0.	3909.2
11156	8.1	4.4	0.	3878.7
11157	8.	4.4	5.e-002	10.38
11158	8.	4.7	0.	3916.2
11159	8.1	4.6	0.	3885.
11160	8.	4.6	5.e-002	10.377
11161	8.	4.9	0.	3923.7
11162	8.1	4.8	0.	3891.9
11163	8.	4.8	5.e-002	10.373
11164	8.	5.1	0.	3931.9
11165	8.1	5.	0.	3899.5
11166	8.	5.	5.e-002	10.366
11167	8.	5.3	0.	3940.5
11168	8.1	5.2	0.	3907.6
11169	8.	5.2	5.e-002	10.355
11170	8.	5.5	0.	3949.7
11171	8.1	5.4	0.	3916.1
11172	8.	5.4	5.e-002	10.311
11173	8.	5.7	0.	3959.6
11174	8.1	5.6	0.	3925.1
11175	8.	5.6	5.e-002	9.8704
11176	8.1	5.8	0.	3935.3
11177	8.	5.8	5.e-002	4.1605
11178	8.	5.9	0.	3966.1
11179	8.2	0.3	0.	3900.7
11180	8.3	0.2	0.	3876.2
11181	8.2	0.2	5.e-002	3.8611
11182	8.2	0.1	0.	3906.4
11183	8.2	0.5	0.	3891.5
11184	8.3	0.4	0.	3866.7
11185	8.2	0.4	5.e-002	9.7673
11186	8.2	0.7	0.	3883.1
11187	8.3	0.6	0.	3858.4
11188	8.2	0.6	5.e-002	10.222
11189	8.2	0.9	0.	3875.2
11190	8.3	0.8	0.	3850.6
11191	8.2	0.8	5.e-002	10.266
11192	8.2	1.1	0.	3867.7
11193	8.3	1.	0.	3843.2
11194	8.2	1.	5.e-002	10.277
11195	8.2	1.3	0.	3860.8
11196	8.3	1.2	0.	3836.3
11197	8.2	1.2	5.e-002	10.284
11198	8.2	1.5	0.	3854.4
11199	8.3	1.4	0.	3829.9
11200	8.2	1.4	5.e-002	10.289
11201	8.2	1.7	0.	3848.7
11202	8.3	1.6	0.	3824.1
11203	8.2	1.6	5.e-002	10.293
11204	8.2	1.9	0.	3843.7
11205	8.3	1.8	0.	3819.
11206	8.2	1.8	5.e-002	10.295
11207	8.2	2.1	0.	3839.5
11208	8.3	2.	0.	3814.5
11209	8.2	2.	5.e-002	10.296
11210	8.2	2.3	0.	3836.1
11211	8.3	2.2	0.	3810.8
11212	8.2	2.2	5.e-002	10.296
11213	8.2	2.5	0.	3833.4
11214	8.3	2.4	0.	3807.9
11215	8.2	2.4	5.e-002	10.296
11216	8.2	2.7	0.	3831.7
11217	8.3	2.6	0.	3805.9
11218	8.2	2.6	5.e-002	10.296
11219	8.2	2.9	0.	3830.8
11220	8.3	2.8	0.	3804.6
11221	8.2	2.8	5.e-002	10.295
11222	8.2	3.1	0.	3830.8
11223	8.3	3.	0.	3804.2
11224	8.2	3.	5.e-002	10.295
11225	8.2	3.3	0.	3831.7
11226	8.3	3.2	0.	3804.6
11227	8.2	3.2	5.e-002	10.295
11228	8.2	3.5	0.	3833.4
11229	8.3	3.4	0.	3805.9
11230	8.2	3.4	5.e-002	10.296
11231	8.2	3.7	0.	3836.1
11232	8.3	3.6	0.	3807.9
11233	8.2	3.6	5.e-002	10.296
11234	8.2	3.9	0.	3839.5
11235	8.3	3.8	0.	3810.8
11236	8.2	3.8	5.e-002	10.296
11237	8.2	4.1	0.	3843.7
11238	8.3	4.	0.	3814.5
11239	8.2	4.	5.e-002	10.296
11240	8.2	4.3	0.	3848.7
11241	8.3	4.2	0.	3819.
11242	8.2	4.2	5.e-002	10.295
11243	8.2	4.5	0.	3854.4
11244	8.3	4.4	0.	3824.1
11245	8.2	4.4	5.e-002	10.293
11246	8.2	4.7	0.	3860.8
11247	8.3	4.6	0.	3829.9
11248	8.2	4.6	5.e-002	10.289
11249	8.2	4.9	0.	3867.7
11250	8.3	4.8	0.	3836.3
11251	8.2	4.8	5.e-002	10.284
11252	8.2	5.1	0.	3875.2
11253	8.3	5.	0.	3843.2
11254	8.2	5.	5.e-002	10.277
11255	8.2	5.3	0.	3883.1
11256	8.3	5.2	0.	3850.6
11257	8.2	5.2	5.e-002	10.266
11258	8.2	5.5	0.	3891.5
11259	8.3	5.4	0.	3858.4
11260	8.2	5.4	5.e-002	10.222
11261	8.2	5.7	0.	3900.7
11262	8.3	5.6	0.	3866.7
11263	8.2	5.6	5.e-002	9.7673
11264	8.3	5.8	0.	3876.2
11265	8.2	5.8	5.e-002	3.8611
11266	8.2	5.9	0.	3906.4
11267	8.4	0.3	0.	3842.1
11268	8.5	0.2	0.	3817.4
11269	8.4	0.2	5.e-002	3.588
11270	8.4	0.1	0.	3847.
11271	8.4	0.5	0.	3833.6
11272	8.5	0.4	0.	3808.6
11273	8.4	0.4	5.e-002	9.6712
11274	8.4	0.7	0.	3825.9
11275	8.5	0.6	0.	3801.
11276	8.4	0.6	5.e-002	10.137
11277	8.4	0.9	0.	3818.6
11278	8.5	0.8	0.	3793.8
11279	8.4	0.8	5.e-002	10.182
11280	8.4	1.1	0.	3811.7
11281	8.5	1.	0.	3787.
11282	8.4	1.	5.e-002	10.194
11283	8.4	1.3	0.	3805.4
11284	8.5	1.2	0.	3780.6
11285	8.4	1.2	5.e-002	10.201
11286	8.4	1.5	0.	3799.5
11287	8.5	1.4	0.	3774.8
11288	8.4	1.4	5.e-002	10.206
11289	8.4	1.7	0.	3794.3
11290	8.5	1.6	0.	3769.5
11291	8.4	1.6	5.e-002	10.21
11292	8.4	1.9	0.	3789.7
11293	8.5	1.8	0.	3764.8
11294	8.4	1.8	5.e-002	10.213
11295	8.4	2.1	0.	3785.9
11296	8.5	2.	0.	3760.7
11297	8.4	2.	5.e-002	10.214
11298	8.4	2.3	0.	3782.7
11299	8.5	2.2	0.	3757.3
11300	8.4	2.2	5.e-002	10.215
11301	8.4	2.5	0.	3780.3
11302	8.5	2.4	0.	3754.7
11303	8.4	2.4	5.e-002	10.215
11304	8.4	2.7	0.	3778.7
11305	8.5	2.6	0.	3752.8
11306	8.4	2.6	5.e-002	10.216
11307	8.4	2.9	0.	3777.9
11308	8.5	2.8	0.	3751.6
11309	8.4	2.8	5.e-002	10.216
11310	8.4	3.1	0.	3777.9
11311	8.5	3.	0.	3751.2
11312	8.4	3.	5.e-002	10.216
11313	8.4	3.3	0.	3778.7
11314	8.5	3.2	0.	3751.6
11315	8.4	3.2	5.e-002	10.216
11316	8.4	3.5	0.	3780.3
11317	8.5	3.4	0.	3752.8
11318	8.4	3.4	5.e-002	10.216
11319	8.4	3.7	0.	3782.7
11320	8.5	3.6	0.	3754.7
11321	8.4	3.6	5.e-002	10.215
11322	8.4	3.9	0.	3785.9
11323	8.5	3.8	0.	3757.3
11324	8.4	3.8	5.e-002	10.215
11325	8.4	4.1	0.	3789.7
11326	8.5	4.	0.	3760.7
11327	8.4	4.	5.e-002	10.214
11328	8.4	4.3	0.	3794.3
11329	8.5	4.2	0.	3764.8
11330	8.4	4.2	5.e-002	10.213
11331	8.4	4.5	0.	3799.5
11332	8.5	4.4	0.	3769.5
11333	8.4	4.4	5.e-002	10.21
11334	8.4	4.7	0.	3805.4
11335	8.5	4.6	0.	3774.8
11336	8.4	4.6	5.e-002	10.206
11337	8.4	4.9	0.	3811.7
11338	8.5	4.8	0.	3780.6
11339	8.4	4.8	5.e-002	10.201
11340	8.4	5.1	0.	3818.6
11341	8.5	5.	0.	3787.
11342	8.4	5.	5.e-002	10.194
11343	8.4	5.3	0.	3825.9
11344	8.5	5.2	0.	3793.8
11345	8.4	5.2	5.e-002	10.182
11346	8.4	5.5	0.	3833.6
11347	8.5	5.4	0.	3801.
11348	8.4	5.4	5.e-002	10.137
11349	8.4	5.7	0.	3842.1
11350	8.5	5.6	0.	3808.6
11351	8.4	5.6	5.e-002	9.6712
11352	8.5	5.8	0.	3817.4
11353	8.4	5.8	5.e-002	3.588
11354	8.4	5.9	0.	3847.
11355	8.6	0.3	0.	3783.8
11356	8.7	0.2	0.	3759.
11357	8.6	0.2	5.e-002	3.339
11358	8.6	0.1	0.	3787.9
11359	8.6	0.5	0.	3775.9
11360	8.7	0.4	0.	3750.7
11361	8.6	0.4	5.e-002	9.5814
11362	8.6	0.7	0.	3768.8
11363	8.7	0.6	0.	3743.7
11364	8.6	0.6	5.e-002	10.058
11365	8.6	0.9	0.	3762.1
11366	8.7	0.8	0.	3737.1
11367	8.6	0.8	5.e-002	10.103
11368	8.6	1.1	0.	3755.8
11369	8.7	1.	0.	3730.8
11370	8.6	1.	5.e-002	10.115
11371	8.6	1.3	0.	3750.
11372	8.7	1.2	0.	3725.
11373	8.6	1.2	5.e-002	10.122
11374	8.6	1.5	0.	3744.7
11375	8.7	1.4	0.	3719.7
11376	8.6	1.4	5.e-002	10.128
11377	8.6	1.7	0.	3739.9
11378	8.7	1.6	0.	3714.8
11379	8.6	1.6	5.e-002	10.132
11380	8.6	1.9	0.	3735.7
11381	8.7	1.8	0.	3710.5
11382	8.6	1.8	5.e-002	10.135
11383	8.6	2.1	0.	3732.2
11384	8.7	2.	0.	3706.8
11385	8.6	2.	5.e-002	10.137
11386	8.6	2.3	0.	3729.3
11387	8.7	2.2	0.	3703.7
11388	8.6	2.2	5.e-002	10.138
11389	8.6	2.5	0.	3727.1
11390	8.7	2.4	0.	3701.3
11391	8.6	2.4	5.e-002	10.139
11392	8.6	2.7	0.	3725.6
11393	8.7	2.6	0.	3699.5
11394	8.6	2.6	5.e-002	10.139
11395	8.6	2.9	0.	3724.9
11396	8.7	2.8	0.	3698.5
11397	8.6	2.8	5.e-002	10.139
11398	8.6	3.1	0.	3724.9
11399	8.7	3.	0.	3698.1
11400	8.6	3.	5.e-002	10.139
11401	8.6	3.3	0.	3725.6
11402	8.7	3.2	0.	3698.5
11403	8.6	3.2	5.e-002	10.139
11404	8.6	3.5	0.	3727.1
11405	8.7	3.4	0.	3699.5
11406	8.6	3.4	5.e-002	10.139
11407	8.6	3.7	0.	3729.3
11408	8.7	3.6	0.	3701.3
11409	8.6	3.6	5.e-002	10.139
11410	8.6	3.9	0.	3732.2
11411	8.7	3.8	0.	3703.7
11412	8.6	3.8	5.e-002	10.138
11413	8.6	4.1	0.	3735.7
11414	8.7	4.	0.	3706.8
11415	8.6	4.	5.e-002	10.137
11416	8.6	4.3	0.	3739.9
11417	8.7	4.2	0.	3710.5
11418	8.6	4.2	5.e-002	10.135
11419	8.6	4.5	0.	3744.7
11420	8.7	4.4	0.	3714.8
11421	8.6	4.4	5.e-002	10.132
11422	8.6	4.7	0.	3750.
11423	8.7	4.6	0.	3719.7
11424	8.6	4.6	5.e-002	10.128
11425	8.6	4.9	0.	3755.8
11426	8.7	4.8	0.	3725.
11427	8.6	4.8	5.e-002	10.122
11428	8.6	5.1	0.	3762.1
11429	8.7	5.	0.	3730.8
11430	8.6	5.	5.e-002	10.115
11431	8.6	5.3	0.	3768.8
11432	8.7	5.2	0.	3737.1
11433	8.6	5.2	5.e-002	10.103
11434	8.6	5.5	0.	3775.9
11435	8.7	5.4	0.	3743.7
11436	8.6	5.4	5.e-002	10.058
11437	8.6	5.7	0.	3783.8
11438	8.7	5.6	0.	3750.7
11439	8.6	5.6	5.e-002	9.5814
11440	8.7	5.8	0.	3759.
11441	8.6	5.8	5.e-002	3.339
11442	8.6	5.9	0.	3787.9
11443	8.8	0.3	0.	3725.8
11444	8.9	0.2	0.	3700.9
11445	8.8	0.2	5.e-002	3.1125
11446	8.8	0.1	0.	3729.1
11447	8.8	0.5	0.	3718.4
11448	8.9	0.4	0.	3693.
11449	8.8	0.4	5.e-002	9.4973
11450	8.8	0.7	0.	3711.9
11451	8.9	0.6	0.	3686.6
11452	8.8	0.6	5.e-002	9.9831
11453	8.8	0.9	0.	3705.8
11454	8.9	0.8	0.	3680.6
11455	8.8	0.8	5.e-002	10.029
11456	8.8	1.1	0.	3700.
11457	8.9	1.	0.	3674.8
11458	8.8	1.	5.e-002	10.04
11459	8.8	1.3	0.	3694.7
11460	8.9	1.2	0.	3669.5
11461	8.8	1.2	5.e-002	10.047
11462	8.8	1.5	0.	3689.8
11463	8.9	1.4	0.	3664.6
11464	8.8	1.4	5.e-002	10.053
11465	8.8	1.7	0.	3685.4
11466	8.9	1.6	0.	3660.1
11467	8.8	1.6	5.e-002	10.057
11468	8.8	1.9	0.	3681.6
11469	8.9	1.8	0.	3656.2
11470	8.8	1.8	5.e-002	10.061
11471	8.8	2.1	0.	3678.3
11472	8.9	2.	0.	3652.8
11473	8.8	2.	5.e-002	10.063
11474	8.8	2.3	0.	3675.7
11475	8.9	2.2	0.	3650.
11476	8.8	2.2	5.e-002	10.065
11477	8.8	2.5	0.	3673.7
11478	8.9	2.4	0.	3647.8
11479	8.8	2.4	5.e-002	10.066
11480	8.8	2.7	0.	3672.4
11481	8.9	2.6	0.	3646.2
11482	8.8	2.6	5.e-002	10.066
11483	8.8	2.9	0.	3671.7
11484	8.9	2.8	0.	3645.2
11485	8.8	2.8	5.e-002	10.067
11486	8.8	3.1	0.	3671.7
11487	8.9	3.	0.	3644.9
11488	8.8	3.	5.e-002	10.067
11489	8.8	3.3	0.	3672.4
11490	8.9	3.2	0.	3645.2
11491	8.8	3.2	5.e-002	10.067
11492	8.8	3.5	0.	3673.7
11493	8.9	3.4	0.	3646.2
11494	8.8	3.4	5.e-002	10.066
11495	8.8	3.7	0.	3675.7
11496	8.9	3.6	0.	3647.8
11497	8.8	3.6	5.e-002	10.066
11498	8.8	3.9	0.	3678.3
11499	8.9	3.8	0.	3650.
11500	8.8	3.8	5.e-002	10.065
11501	8.8	4.1	0.	3681.6
11502	8.9	4.	0.	3652.8
11503	8.8	4.	5.e-002	10.063
11504	8.8	4.3	0.	3685.4
11505	8.9	4.2	0.	3656.2
11506	8.8	4.2	5.e-002	10.061
11507	8.8	4.5	0.	3689.8
11508	8.9	4.4	0.	3660.1
11509	8.8	4.4	5.e-002	10.057
11510	8.8	4.7	0.	3694.7
11511	8.9	4.6	0.	3664.6
11512	8.8	4.6	5.e-002	10.053
11513	8.8	4.9	0.	3700.
11514	8.9	4.8	0.	3669.5
11515	8.8	4.8	5.e-002	10.047
11516	8.8	5.1	0.	3705.8
11517	8.9	5.	0.	3674.8
11518	8.8	5.	5.e-002	10.04
11519	8.8	5.3	0.	3711.9
11520	8.9	5.2	0.	3680.6
11521	8.8	5.2	5.e-002	10.029
11522	8.8	5.5	0.	3718.4
11523	8.9	5.4	0.	3686.6
11524	8.8	5.4	5.e-002	9.9831
11525	8.8	5.7	0.	3725.8
11526	8.9	5.6	0.	3693.
11527	8.8	5.6	5.e-002	9.4973
11528	8.9	5.8	0.	3700.9
11529	8.8	5.8	5.e-002	3.1125
11530	8.8	5.9	0.	3729.1
11531	9.	0.3	0.	3668.
11532	9.1	0.2	0.	3643.
11533	9.	0.2	5.e-002	2.9069
11534	9.	0.1	0.	3670.7
11535	9.	0.5	0.	3661.2
11536	9.1	0.4	0.	3635.7
11537	9.	0.4	5.e-002	9.4184
11538	9.	0.7	0.	3655.2
11539	9.1	0.6	0.	3629.8
11540	9.	0.6	5.e-002	9.9122
11541	9.	0.9	0.	3649.6
11542	9.1	0.8	0.	3624.2
11543	9.	0.8	5.e-002	9.9581
11544	9.	1.1	0.	3644.3
11545	9.1	1.	0.	3619.
11546	9.	1.	5.e-002	9.9692
11547	9.	1.3	0.	3639.4
11548	9.1	1.2	0.	3614.1
11549	9.	1.2	5.e-002	9.9765
11550	9.	1.5	0.	3634.9
11551	9.1	1.4	0.	3609.6
11552	9.	1.4	5.e-002	9.9822
11553	9.	1.7	0.	3630.9
11554	9.1	1.6	0.	3605.5
11555	9.	1.6	5.e-002	9.9866
11556	9.	1.9	0.	3627.4
11557	9.1	1.8	0.	3601.9
11558	9.	1.8	5.e-002	9.99
11559	9.	2.1	0.	3624.5
11560	9.1	2.	0.	3598.8
11561	9.	2.	5.e-002	9.9925
11562	9.	2.3	0.	3622.1
11563	9.1	2.2	0.	3596.3
11564	9.	2.2	5.e-002	9.9944
11565	9.	2.5	0.	3620.3
11566	9.1	2.4	0.	3594.2
11567	9.	2.4	5.e-002	9.9956
11568	9.	2.7	0.	3619.
11569	9.1	2.6	0.	3592.8
11570	9.	2.6	5.e-002	9.9964
11571	9.	2.9	0.	3618.4
11572	9.1	2.8	0.	3591.9
11573	9.	2.8	5.e-002	9.9969
11574	9.	3.1	0.	3618.4
11575	9.1	3.	0.	3591.6
11576	9.	3.	5.e-002	9.997
11577	9.	3.3	0.	3619.
11578	9.1	3.2	0.	3591.9
11579	9.	3.2	5.e-002	9.9969
11580	9.	3.5	0.	3620.3
11581	9.1	3.4	0.	3592.8
11582	9.	3.4	5.e-002	9.9964
11583	9.	3.7	0.	3622.1
11584	9.1	3.6	0.	3594.2
11585	9.	3.6	5.e-002	9.9956
11586	9.	3.9	0.	3624.5
11587	9.1	3.8	0.	3596.3
11588	9.	3.8	5.e-002	9.9944
11589	9.	4.1	0.	3627.4
11590	9.1	4.	0.	3598.8
11591	9.	4.	5.e-002	9.9925
11592	9.	4.3	0.	3630.9
11593	9.1	4.2	0.	3601.9
11594	9.	4.2	5.e-002	9.99
11595	9.	4.5	0.	3634.9
11596	9.1	4.4	0.	3605.5
11597	9.	4.4	5.e-002	9.9866
11598	9.	4.7	0.	3639.4
11599	9.1	4.6	0.	3609.6
11600	9.	4.6	5.e-002	9.9822
11601	9.	4.9	0.	3644.3
11602	9.1	4.8	0.	3614.1
11603	9.	4.8	5.e-002	9.9765
11604	9.	5.1	0.	3649.6
11605	9.1	5.	0.	3619.
11606	9.	5.	5.e-002	9.9692
11607	9.	5.3	0.	3655.2
11608	9.1	5.2	0.	3624.2
11609	9.	5.2	5.e-002	9.9581
11610	9.	5.5	0.	3661.2
11611	9.1	5.4	0.	3629.8
11612	9.	5.4	5.e-002	9.9122
11613	9.	5.7	0.	3668.
11614	9.1	5.6	0.	3635.7
11615	9.	5.6	5.e-002	9.4184
11616	9.1	5.8	0.	3643.
11617	9.	5.8	5.e-002	2.9069
11618	9.	5.9	0.	3670.7
11619	9.2	0.3	0.	3610.5
11620	9.3	0.2	0.	3585.4
11621	9.2	0.2	5.e-002	2.7206
11622	9.2	0.1	0.	3612.6
11623	9.2	0.5	0.	3604.2
11624	9.3	0.4	0.	3578.5
11625	9.2	0.4	5.e-002	9.344
11626	9.2	0.7	0.	3598.7
11627	9.3	0.6	0.	3573.1
11628	9.2	0.6	5.e-002	9.845
11629	9.2	0.9	0.	3593.5
11630	9.3	0.8	0.	3568.
11631	9.2	0.8	5.e-002	9.8909
11632	9.2	1.1	0.	3588.7
11633	9.3	1.	0.	3563.2
11634	9.2	1.	5.e-002	9.9018
11635	9.2	1.3	0.	3584.2
11636	9.3	1.2	0.	3558.7
11637	9.2	1.2	5.e-002	9.9089
11638	9.2	1.5	0.	3580.1
11639	9.3	1.4	0.	3554.6
11640	9.2	1.4	5.e-002	9.9146
11641	9.2	1.7	0.	3576.5
11642	9.3	1.6	0.	3550.9
11643	9.2	1.6	5.e-002	9.9191
11644	9.2	1.9	0.	3573.3
11645	9.3	1.8	0.	3547.6
11646	9.2	1.8	5.e-002	9.9226
11647	9.2	2.1	0.	3570.6
11648	9.3	2.	0.	3544.8
11649	9.2	2.	5.e-002	9.9252
11650	9.2	2.3	0.	3568.4
11651	9.3	2.2	0.	3542.5
11652	9.2	2.2	5.e-002	9.9272
11653	9.2	2.5	0.	3566.7
11654	9.3	2.4	0.	3540.6
11655	9.2	2.4	5.e-002	9.9286
11656	9.2	2.7	0.	3565.6
11657	9.3	2.6	0.	3539.3
11658	9.2	2.6	5.e-002	9.9296
11659	9.2	2.9	0.	3565.1
11660	9.3	2.8	0.	3538.5
11661	9.2	2.8	5.e-002	9.9301
11662	9.2	3.1	0.	3565.1
11663	9.3	3.	0.	3538.2
11664	9.2	3.	5.e-002	9.9303
11665	9.2	3.3	0.	3565.6
11666	9.3	3.2	0.	3538.5
11667	9.2	3.2	5.e-002	9.9301
11668	9.2	3.5	0.	3566.7
11669	9.3	3.4	0.	3539.3
11670	9.2	3.4	5.e-002	9.9296
11671	9.2	3.7	0.	3568.4
11672	9.3	3.6	0.	3540.6
11673	9.2	3.6	5.e-002	9.9286
11674	9.2	3.9	0.	3570.6
11675	9.3	3.8	0.	3542.5
11676	9.2	3.8	5.e-002	9.9272
11677	9.2	4.1	0.	3573.3
11678	9.3	4.	0.	3544.8
11679	9.2	4.	5.e-002	9.9252
11680	9.2	4.3	0.	3576.5
11681	9.3	4.2	0.	3547.6
11682	9.2	4.2	5.e-002	9.9226
11683	9.2	4.5	0.	3580.1
11684	9.3	4.4	0.	3550.9
11685	9.2	4.4	5.e-002	9.9191
11686	9.2	4.7	0.	3584.2
11687	9.3	4.6	0.	3554.6
11688	9.2	4.6	5.e-002	9.9146
11689	9.2	4.9	0.	3588.7
11690	9.3	4.8	0.	3558.7
11691	9.2	4.8	5.e-002	9.9089
11692	9.2	5.1	0.	3593.5
11693	9.3	5.	0.	3563.2
11694	9.2	5.	5.e-002	9.9018
11695	9.2	5.3	0.	3598.7
11696	9.3	5.2	0.	3568.
11697	9.2	5.2	5.e-002	9.8909
11698	9.2	5.5	0.	3604.2
11699	9.3	5.4	0.	3573.1
11700	9.2	5.4	5.e-002	9.845
11701	9.2	5.7	0.	3610.5
11702	9.3	5.6	0.	3578.5
11703	9.2	5.6	5.e-002	9.344
11704	9.3	5.8	0.	3585.4
11705	9.2	5.8	5.e-002	2.7206
11706	9.2	5.9	0.	3612.6
11707	9.4	0.3	0.	3553.3
11708	9.5	0.2	0.	3528.1
11709	9.4	0.2	5.e-002	2.5523
11710	9.4	0.1	0.	3554.8
11711	9.4	0.5	0.	3547.4
11712	9.5	0.4	0.	3521.6
11713	9.4	0.4	5.e-002	9.274
11714	9.4	0.7	0.	3542.4
11715	9.5	0.6	0.	3516.6
11716	9.4	0.6	5.e-002	9.7809
11717	9.4	0.9	0.	3537.6
11718	9.5	0.8	0.	3512.
11719	9.4	0.8	5.e-002	9.8269
11720	9.4	1.1	0.	3533.2
11721	9.5	1.	0.	3507.6
11722	9.4	1.	5.e-002	9.8376
11723	9.4	1.3	0.	3529.1
11724	9.5	1.2	0.	3503.5
11725	9.4	1.2	5.e-002	9.8445
11726	9.4	1.5	0.	3525.4
11727	9.5	1.4	0.	3499.8
11728	9.4	1.4	5.e-002	9.85
11729	9.4	1.7	0.	3522.1
11730	9.5	1.6	0.	3496.4
11731	9.4	1.6	5.e-002	9.8545
11732	9.4	1.9	0.	3519.2
11733	9.5	1.8	0.	3493.4
11734	9.4	1.8	5.e-002	9.858
11735	9.4	2.1	0.	3516.7
11736	9.5	2.	0.	3490.8
11737	9.4	2.	5.e-002	9.8608
11738	9.4	2.3	0.	3514.7
11739	9.5	2.2	0.	3488.7
11740	9.4	2.2	5.e-002	9.8628
11741	9.4	2.5	0.	3513.2
11742	9.5	2.4	0.	3487.
11743	9.4	2.4	5.e-002	9.8643
11744	9.4	2.7	0.	3512.2
11745	9.5	2.6	0.	3485.8
11746	9.4	2.6	5.e-002	9.8653
11747	9.4	2.9	0.	3511.6
11748	9.5	2.8	0.	3485.1
11749	9.4	2.8	5.e-002	9.8659
11750	9.4	3.1	0.	3511.6
11751	9.5	3.	0.	3484.8
11752	9.4	3.	5.e-002	9.8661
11753	9.4	3.3	0.	3512.2
11754	9.5	3.2	0.	3485.1
11755	9.4	3.2	5.e-002	9.8659
11756	9.4	3.5	0.	3513.2
11757	9.5	3.4	0.	3485.8
11758	9.4	3.4	5.e-002	9.8653
11759	9.4	3.7	0.	3514.7
11760	9.5	3.6	0.	3487.
11761	9.4	3.6	5.e-002	9.8643
11762	9.4	3.9	0.	3516.7
11763	9.5	3.8	0.	3488.7
11764	9.4	3.8	5.e-002	9.8628
11765	9.4	4.1	0.	3519.2
11766	9.5	4.	0.	3490.8
11767	9.4	4.	5.e-002	9.8608
11768	9.4	4.3	0.	3522.1
11769	9.5	4.2	0.	3493.4
11770	9.4	4.2	5.e-002	9.858
11771	9.4	4.5	0.	3525.4
11772	9.5	4.4	0.	3496.4
11773	9.4	4.4	5.e-002	9.8545
11774	9.4	4.7	0.	3529.1
11775	9.5	4.6	0.	3499.8
11776	9.4	4.6	5.e-002	9.85
11777	9.4	4.9	0.	3533.2
11778	9.5	4.8	0.	3503.5
11779	9.4	4.8	5.e-002	9.8445
11780	9.4	5.1	0.	3537.6
11781	9.5	5.	0.	3507.6
11782	9.4	5.	5.e-002	9.8376
11783	9.4	5.3	0.	3542.4
11784	9.5	5.2	0.	3512.
11785	9.4	5.2	5.e-002	9.8269
11786	9.4	5.5	0.	3547.4
11787	9.5	5.4	0.	3516.6
11788	9.4	5.4	5.e-002	9.7809
11789	9.4	5.7	0.	3553.3
11790	9.5	5.6	0.	3521.6
11791	9.4	5.6	5.e-002	9.274
11792	9.5	5.8	0.	3528.1
11793	9.4	5.8	5.e-002	2.5523
11794	9.4	5.9	0.	3554.8
11795	9.6	0.3	0.	3496.3
11796	9.7	0.2	0.	3471.1
11797	9.6	0.2	5.e-002	2.4009
11798	9.6	0.1	0.	3497.3
11799	9.6	0.5	0.	3490.8
11800	9.7	0.4	0.	3465.
11801	9.6	0.4	5.e-002	9.2078
11802	9.6	0.7	0.	3486.2
11803	9.7	0.6	0.	3460.4
11804	9.6	0.6	5.e-002	9.7199
11805	9.6	0.9	0.	3481.9
11806	9.7	0.8	0.	3456.1
11807	9.6	0.8	5.e-002	9.7658
11808	9.6	1.1	0.	3477.9
11809	9.7	1.	0.	3452.1
11810	9.6	1.	5.e-002	9.7761
11811	9.6	1.3	0.	3474.1
11812	9.7	1.2	0.	3448.4
11813	9.6	1.2	5.e-002	9.7828
11814	9.6	1.5	0.	3470.7
11815	9.7	1.4	0.	3445.
11816	9.6	1.4	5.e-002	9.7882
11817	9.6	1.7	0.	3467.7
11818	9.7	1.6	0.	3441.9
11819	9.6	1.6	5.e-002	9.7926
11820	9.6	1.9	0.	3465.
11821	9.7	1.8	0.	3439.2
11822	9.6	1.8	5.e-002	9.7961
11823	9.6	2.1	0.	3462.8
11824	9.7	2.	0.	3436.9
11825	9.6	2.	5.e-002	9.7988
11826	9.6	2.3	0.	3461.
11827	9.7	2.2	0.	3434.9
11828	9.6	2.2	5.e-002	9.8009
11829	9.6	2.5	0.	3459.6
11830	9.7	2.4	0.	3433.4
11831	9.6	2.4	5.e-002	9.8025
11832	9.6	2.7	0.	3458.7
11833	9.7	2.6	0.	3432.3
11834	9.6	2.6	5.e-002	9.8035
11835	9.6	2.9	0.	3458.2
11836	9.7	2.8	0.	3431.6
11837	9.6	2.8	5.e-002	9.8041
11838	9.6	3.1	0.	3458.2
11839	9.7	3.	0.	3431.4
11840	9.6	3.	5.e-002	9.8043
11841	9.6	3.3	0.	3458.7
11842	9.7	3.2	0.	3431.6
11843	9.6	3.2	5.e-002	9.8041
11844	9.6	3.5	0.	3459.6
11845	9.7	3.4	0.	3432.3
11846	9.6	3.4	5.e-002	9.8035
11847	9.6	3.7	0.	3461.
11848	9.7	3.6	0.	3433.4
11849	9.6	3.6	5.e-002	9.8025
11850	9.6	3.9	0.	3462.8
11851	9.7	3.8	0.	3434.9
11852	9.6	3.8	5.e-002	9.8009
11853	9.6	4.1	0.	3465.
11854	9.7	4.	0.	3436.9
11855	9.6	4.	5.e-002	9.7988
11856	9.6	4.3	0.	3467.7
11857	9.7	4.2	0.	3439.2
11858	9.6	4.2	5.e-002	9.7961
11859	9.6	4.5	0.	3470.7
11860	9.7	4.4	0.	3441.9
11861	9.6	4.4	5.e-002	9.7926
11862	9.6	4.7	0.	3474.1
11863	9.7	4.6	0.	3445.
11864	9.6	4.6	5.e-002	9.7882
11865	9.6	4.9	0.	3477.9
11866	9.7	4.8	0.	3448.4
11867	9.6	4.8	5.e-002	9.7828
11868	9.6	5.1	0.	3481.9
11869	9.7	5.	0.	3452.1
11870	9.6	5.	5.e-002	9.7761
11871	9.6	5.3	0.	3486.2
11872	9.7	5.2	0.	3456.1
11873	9.6	5.2	5.e-002	9.7658
11874	9.6	5.5	0.	3490.8
11875	9.7	5.4	0.	3460.4
11876	9.6	5.4	5.e-002	9.7199
11877	9.6	5.7	0.	3496.3
11878	9.7	5.6	0.	3465.
11879	9.6	5.6	5.e-002	9.2078
11880	9.7	5.8	0.	3471.1
11881	9.6	5.8	5.e-002	2.4009
11882	9.6	5.9	0.	3497.3
11883	9.8	0.3	0.	3439.6
11884	9.9	0.2	0.	3414.3
11885	9.8	0.2	5.e-002	2.2654
11886	9.8	0.1	0.	3440.
11887	9.8	0.5	0.	3434.5
11888	9.9	0.4	0.	3408.5
11889	9.8	0.4	5.e-002	9.1451
11890	9.8	0.7	0.	3430.3
11891	9.9	0.6	0.	3404.3
11892	9.8	0.6	5.e-002	9.6615
11893	9.8	0.9	0.	3426.3
11894	9.9	0.8	0.	3400.5
11895	9.8	0.8	5.e-002	9.7073
11896	9.8	1.1	0.	3422.7
11897	9.9	1.	0.	3396.8
11898	9.8	1.	5.e-002	9.7174
11899	9.8	1.3	0.	3419.3
11900	9.9	1.2	0.	3393.4
11901	9.8	1.2	5.e-002	9.7237
11902	9.8	1.5	0.	3416.2
11903	9.9	1.4	0.	3390.3
11904	9.8	1.4	5.e-002	9.7289
11905	9.8	1.7	0.	3413.4
11906	9.9	1.6	0.	3387.6
11907	9.8	1.6	5.e-002	9.7332
11908	9.8	1.9	0.	3411.
11909	9.9	1.8	0.	3385.1
11910	9.8	1.8	5.e-002	9.7366
11911	9.8	2.1	0.	3409.
11912	9.9	2.	0.	3383.
11913	9.8	2.	5.e-002	9.7393
11914	9.8	2.3	0.	3407.3
11915	9.9	2.2	0.	3381.2
11916	9.8	2.2	5.e-002	9.7414
11917	9.8	2.5	0.	3406.1
11918	9.9	2.4	0.	3379.8
11919	9.8	2.4	5.e-002	9.7429
11920	9.8	2.7	0.	3405.2
11921	9.9	2.6	0.	3378.8
11922	9.8	2.6	5.e-002	9.7439
11923	9.8	2.9	0.	3404.8
11924	9.9	2.8	0.	3378.2
11925	9.8	2.8	5.e-002	9.7445
11926	9.8	3.1	0.	3404.8
11927	9.9	3.	0.	3378.
11928	9.8	3.	5.e-002	9.7447
11929	9.8	3.3	0.	3405.2
11930	9.9	3.2	0.	3378.2
11931	9.8	3.2	5.e-002	9.7445
11932	9.8	3.5	0.	3406.1
11933	9.9	3.4	0.	3378.8
11934	9.8	3.4	5.e-002	9.7439
11935	9.8	3.7	0.	3407.3
11936	9.9	3.6	0.	3379.8
11937	9.8	3.6	5.e-002	9.7429
11938	9.8	3.9	0.	3409.
11939	9.9	3.8	0.	3381.2
11940	9.8	3.8	5.e-002	9.7414
11941	9.8	4.1	0.	3411.
11942	9.9	4.	0.	3383.
11943	9.8	4.	5.e-002	9.7393
11944	9.8	4.3	0.	3413.4
11945	9.9	4.2	0.	3385.1
11946	9.8	4.2	5.e-002	9.7366
11947	9.8	4.5	0.	3416.2
11948	9.9	4.4	0.	3387.6
11949	9.8	4.4	5.e-002	9.7332
11950	9.8	4.7	0.	3419.3
11951	9.9	4.6	0.	3390.3
11952	9.8	4.6	5.e-002	9.7289
11953	9.8	4.9	0.	3422.7
11954	9.9	4.8	0.	3393.4
11955	9.8	4.8	5.e-002	9.7237
11956	9.8	5.1	0.	3426.3
11957	9.9	5.	0.	3396.8
11958	9.8	5.	5.e-002	9.7174
11959	9.8	5.3	0.	3430.3
11960	9.9	5.2	0.	3400.5
11961	9.8	5.2	5.e-002	9.7073
11962	9.8	5.5	0.	3434.5
11963	9.9	5.4	0.	3404.3
11964	9.8	5.4	5.e-002	9.6615
11965	9.8	5.7	0.	3439.6
11966	9.9	5.6	0.	3408.5
11967	9.8	5.6	5.e-002	9.1451
11968	9.9	5.8	0.	3414.3
11969	9.8	5.8	5.e-002	2.2654
11970	9.8	5.9	0.	3440.
11971	10.	0.3	0.	3383.1
11972	10.1	0.2	0.	3357.8
11973	10.	0.2	5.e-002	2.1447
11974	10.	0.1	0.	3383.
11975	10.	0.5	0.	3378.4
11976	10.1	0.4	0.	3352.3
11977	10.	0.4	5.e-002	9.0858
11978	10.	0.7	0.	3374.5
11979	10.1	0.6	0.	3348.5
11980	10.	0.6	5.e-002	9.6057
11981	10.	0.9	0.	3370.9
11982	10.1	0.8	0.	3345.
11983	10.	0.8	5.e-002	9.6514
11984	10.	1.1	0.	3367.6
11985	10.1	1.	0.	3341.7
11986	10.	1.	5.e-002	9.661
11987	10.	1.3	0.	3364.5
11988	10.1	1.2	0.	3338.6
11989	10.	1.2	5.e-002	9.6671
11990	10.	1.5	0.	3361.7
11991	10.1	1.4	0.	3335.8
11992	10.	1.4	5.e-002	9.672
11993	10.	1.7	0.	3359.2
11994	10.1	1.6	0.	3333.3
11995	10.	1.6	5.e-002	9.676
11996	10.	1.9	0.	3357.
11997	10.1	1.8	0.	3331.
11998	10.	1.8	5.e-002	9.6793
11999	10.	2.1	0.	3355.2
12000	10.1	2.	0.	3329.1
12001	10.	2.	5.e-002	9.6819
12002	10.	2.3	0.	3353.7
12003	10.1	2.2	0.	3327.5
12004	10.	2.2	5.e-002	9.6839
12005	10.	2.5	0.	3352.5
12006	10.1	2.4	0.	3326.3
12007	10.	2.4	5.e-002	9.6853
12008	10.	2.7	0.	3351.8
12009	10.1	2.6	0.	3325.4
12010	10.	2.6	5.e-002	9.6863
12011	10.	2.9	0.	3351.4
12012	10.1	2.8	0.	3324.8
12013	10.	2.8	5.e-002	9.6869
12014	10.	3.1	0.	3351.4
12015	10.1	3.	0.	3324.6
12016	10.	3.	5.e-002	9.6871
12017	10.	3.3	0.	3351.8
12018	10.1	3.2	0.	3324.8
12019	10.	3.2	5.e-002	9.6869
12020	10.	3.5	0.	3352.5
12021	10.1	3.4	0.	3325.4
12022	10.	3.4	5.e-002	9.6863
12023	10.	3.7	0.	3353.7
12024	10.1	3.6	0.	3326.3
12025	10.	3.6	5.e-002	9.6853
12026	10.	3.9	0.	3355.2
12027	10.1	3.8	0.	3327.5
12028	10.	3.8	5.e-002	9.6839
12029	10.	4.1	0.	3357.
12030	10.1	4.	0.	3329.1
12031	10.	4.	5.e-002	9.6819
12032	10.	4.3	0.	3359.2
12033	10.1	4.2	0.	3331.
12034	10.	4.2	5.e-002	9.6793
12035	10.	4.5	0.	3361.7
12036	10.1	4.4	0.	3333.3
12037	10.	4.4	5.e-002	9.676
12038	10.	4.7	0.	3364.5
12039	10.1	4.6	0.	3335.8
12040	10.	4.6	5.e-002	9.672
12041	10.	4.9	0.	3367.6
12042	10.1	4.8	0.	3338.6
12043	10.	4.8	5.e-002	9.6671
12044	10.	5.1	0.	3370.9
12045	10.1	5.	0.	3341.7
12046	10.	5.	5.e-002	9.661
12047	10.	5.3	0.	3374.5
12048	10.1	5.2	0.	3345.
12049	10.	5.2	5.e-002	9.6514
12050	10.	5.5	0.	3378.4
12051	10.1	5.4	0.	3348.5
12052	10.	5.4	5.e-002	9.6057
12053	10.	5.7	0.	3383.1
12054	10.1	5.6	0.	3352.3
12055	10.	5.6	5.e-002	9.0858
12056	10.1	5.8	0.	3357.8
12057	10.	5.8	5.e-002	2.1447
12058	10.	5.9	0.	3383.
12059	10.2	0.3	0.	3326.9
12060	10.3	0.2	0.	3301.5
12061	10.2	0.2	5.e-002	2.0382
12062	10.2	0.1	0.	3326.4
12063	10.2	0.5	0.	3322.4
12064	10.3	0.4	0.	3296.4
12065	10.2	0.4	5.e-002	9.0295
12066	10.2	0.7	0.	3319.
12067	10.3	0.6	0.	3292.9
12068	10.2	0.6	5.e-002	9.5522
12069	10.2	0.9	0.	3315.7
12070	10.3	0.8	0.	3289.7
12071	10.2	0.8	5.e-002	9.5976
12072	10.2	1.1	0.	3312.7
12073	10.3	1.	0.	3286.7
12074	10.2	1.	5.e-002	9.6069
12075	10.2	1.3	0.	3309.9
12076	10.3	1.2	0.	3283.9
12077	10.2	1.2	5.e-002	9.6126
12078	10.2	1.5	0.	3307.4
12079	10.3	1.4	0.	3281.4
12080	10.2	1.4	5.e-002	9.6172
12081	10.2	1.7	0.	3305.1
12082	10.3	1.6	0.	3279.1
12083	10.2	1.6	5.e-002	9.621
12084	10.2	1.9	0.	3303.1
12085	10.3	1.8	0.	3277.1
12086	10.2	1.8	5.e-002	9.6241
12087	10.2	2.1	0.	3301.5
12088	10.3	2.	0.	3275.4
12089	10.2	2.	5.e-002	9.6265
12090	10.2	2.3	0.	3300.1
12091	10.3	2.2	0.	3273.9
12092	10.2	2.2	5.e-002	9.6283
12093	10.2	2.5	0.	3299.1
12094	10.3	2.4	0.	3272.8
12095	10.2	2.4	5.e-002	9.6297
12096	10.2	2.7	0.	3298.4
12097	10.3	2.6	0.	3272.
12098	10.2	2.6	5.e-002	9.6306
12099	10.2	2.9	0.	3298.
12100	10.3	2.8	0.	3271.5
12101	10.2	2.8	5.e-002	9.6312
12102	10.2	3.1	0.	3298.
12103	10.3	3.	0.	3271.3
12104	10.2	3.	5.e-002	9.6313
12105	10.2	3.3	0.	3298.4
12106	10.3	3.2	0.	3271.5
12107	10.2	3.2	5.e-002	9.6312
12108	10.2	3.5	0.	3299.1
12109	10.3	3.4	0.	3272.
12110	10.2	3.4	5.e-002	9.6306
12111	10.2	3.7	0.	3300.1
12112	10.3	3.6	0.	3272.8
12113	10.2	3.6	5.e-002	9.6297
12114	10.2	3.9	0.	3301.5
12115	10.3	3.8	0.	3273.9
12116	10.2	3.8	5.e-002	9.6283
12117	10.2	4.1	0.	3303.1
12118	10.3	4.	0.	3275.4
12119	10.2	4.	5.e-002	9.6265
12120	10.2	4.3	0.	3305.1
12121	10.3	4.2	0.	3277.1
12122	10.2	4.2	5.e-002	9.6241
12123	10.2	4.5	0.	3307.4
12124	10.3	4.4	0.	3279.1
12125	10.2	4.4	5.e-002	9.621
12126	10.2	4.7	0.	3309.9
12127	10.3	4.6	0.	3281.4
12128	10.2	4.6	5.e-002	9.6172
12129	10.2	4.9	0.	3312.7
12130	10.3	4.8	0.	3283.9
12131	10.2	4.8	5.e-002	9.6126
12132	10.2	5.1	0.	3315.7
12133	10.3	5.	0.	3286.7
12134	10.2	5.	5.e-002	9.6069
12135	10.2	5.3	0.	3319.
12136	10.3	5.2	0.	3289.7
12137	10.2	5.2	5.e-002	9.5976
12138	10.2	5.5	0.	3322.4
12139	10.3	5.4	0.	3292.9
12140	10.2	5.4	5.e-002	9.5522
12141	10.2	5.7	0.	3326.9
12142	10.3	5.6	0.	3296.4
12143	10.2	5.6	5.e-002	9.0295
12144	10.3	5.8	0.	3301.5
12145	10.2	5.8	5.e-002	2.0382
12146	10.2	5.9	0.	3326.4
12147	10.4	0.3	0.	3270.8
12148	10.5	0.2	0.	3245.4
12149	10.4	0.2	5.e-002	1.9451
12150	10.4	0.1	0.	3269.9
12151	10.4	0.5	0.	3266.8
12152	10.5	0.4	0.	3240.6
12153	10.4	0.4	5.e-002	8.9762
12154	10.4	0.7	0.	3263.6
12155	10.5	0.6	0.	3237.5
12156	10.4	0.6	5.e-002	9.501
12157	10.4	0.9	0.	3260.7
12158	10.5	0.8	0.	3234.6
12159	10.4	0.8	5.e-002	9.5461
12160	10.4	1.1	0.	3257.9
12161	10.5	1.	0.	3231.9
12162	10.4	1.	5.e-002	9.5549
12163	10.4	1.3	0.	3255.4
12164	10.5	1.2	0.	3229.4
12165	10.4	1.2	5.e-002	9.5602
12166	10.4	1.5	0.	3253.1
12167	10.5	1.4	0.	3227.2
12168	10.4	1.4	5.e-002	9.5645
12169	10.4	1.7	0.	3251.1
12170	10.5	1.6	0.	3225.1
12171	10.4	1.6	5.e-002	9.5679
12172	10.4	1.9	0.	3249.3
12173	10.5	1.8	0.	3223.3
12174	10.4	1.8	5.e-002	9.5707
12175	10.4	2.1	0.	3247.8
12176	10.5	2.	0.	3221.7
12177	10.4	2.	5.e-002	9.5729
12178	10.4	2.3	0.	3246.6
12179	10.5	2.2	0.	3220.5
12180	10.4	2.2	5.e-002	9.5745
12181	10.4	2.5	0.	3245.7
12182	10.5	2.4	0.	3219.4
12183	10.4	2.4	5.e-002	9.5758
12184	10.4	2.7	0.	3245.1
12185	10.5	2.6	0.	3218.7
12186	10.4	2.6	5.e-002	9.5766
12187	10.4	2.9	0.	3244.8
12188	10.5	2.8	0.	3218.3
12189	10.4	2.8	5.e-002	9.5771
12190	10.4	3.1	0.	3244.8
12191	10.5	3.	0.	3218.1
12192	10.4	3.	5.e-002	9.5772
12193	10.4	3.3	0.	3245.1
12194	10.5	3.2	0.	3218.3
12195	10.4	3.2	5.e-002	9.5771
12196	10.4	3.5	0.	3245.7
12197	10.5	3.4	0.	3218.7
12198	10.4	3.4	5.e-002	9.5766
12199	10.4	3.7	0.	3246.6
12200	10.5	3.6	0.	3219.4
12201	10.4	3.6	5.e-002	9.5758
12202	10.4	3.9	0.	3247.8
12203	10.5	3.8	0.	3220.5
12204	10.4	3.8	5.e-002	9.5745
12205	10.4	4.1	0.	3249.3
12206	10.5	4.	0.	3221.7
12207	10.4	4.	5.e-002	9.5729
12208	10.4	4.3	0.	3251.1
12209	10.5	4.2	0.	3223.3
12210	10.4	4.2	5.e-002	9.5707
12211	10.4	4.5	0.	3253.1
12212	10.5	4.4	0.	3225.1
12213	10.4	4.4	5.e-002	9.5679
12214	10.4	4.7	0.	3255.4
12215	10.5	4.6	0.	3227.2
12216	10.4	4.6	5.e-002	9.5645
12217	10.4	4.9	0.	3257.9
12218	10.5	4.8	0.	3229.4
12219	10.4	4.8	5.e-002	9.5602
12220	10.4	5.1	0.	3260.7
12221	10.5	5.	0.	3231.9
12222	10.4	5.	5.e-002	9.5549
12223	10.4	5.3	0.	3263.6
12224	10.5	5.2	0.	3234.6
12225	10.4	5.2	5.e-002	9.5461
12226	10.4	5.5	0.	3266.8
12227	10.5	5.4	0.	3237.5
12228	10.4	5.4	5.e-002	9.501
12229	10.4	5.7	0.	3270.8
12230	10.5	5.6	0.	3240.6
12231	10.4	5.6	5.e-002	8.9762
12232	10.5	5.8	0.	3245.4
12233	10.4	5.8	5.e-002	1.9451
12234	10.4	5.9	0.	3269.9
12235	10.6	0.3	0.	3215.1
12236	10.7	0.2	0.	3189.6
12237	10.6	0.2	5.e-002	1.865
12238	10.6	0.1	0.	3213.7
12239	10.6	0.5	0.	3211.3
12240	10.7	0.4	0.	3185.1
12241	10.6	0.4	5.e-002	8.9257
12242	10.6	0.7	0.	3208.4
12243	10.7	0.6	0.	3182.3
12244	10.6	0.6	5.e-002	9.4519
12245	10.6	0.9	0.	3205.8
12246	10.7	0.8	0.	3179.7
12247	10.6	0.8	5.e-002	9.4966
12248	10.6	1.1	0.	3203.4
12249	10.7	1.	0.	3177.3
12250	10.6	1.	5.e-002	9.505
12251	10.6	1.3	0.	3201.1
12252	10.7	1.2	0.	3175.1
12253	10.6	1.2	5.e-002	9.5098
12254	10.6	1.5	0.	3199.1
12255	10.7	1.4	0.	3173.1
12256	10.6	1.4	5.e-002	9.5136
12257	10.6	1.7	0.	3197.3
12258	10.7	1.6	0.	3171.2
12259	10.6	1.6	5.e-002	9.5167
12260	10.6	1.9	0.	3195.7
12261	10.7	1.8	0.	3169.6
12262	10.6	1.8	5.e-002	9.5191
12263	10.6	2.1	0.	3194.3
12264	10.7	2.	0.	3168.2
12265	10.6	2.	5.e-002	9.521
12266	10.6	2.3	0.	3193.2
12267	10.7	2.2	0.	3167.1
12268	10.6	2.2	5.e-002	9.5224
12269	10.6	2.5	0.	3192.4
12270	10.7	2.4	0.	3166.2
12271	10.6	2.4	5.e-002	9.5234
12272	10.6	2.7	0.	3191.9
12273	10.7	2.6	0.	3165.5
12274	10.6	2.6	5.e-002	9.524
12275	10.6	2.9	0.	3191.6
12276	10.7	2.8	0.	3165.1
12277	10.6	2.8	5.e-002	9.5244
12278	10.6	3.1	0.	3191.6
12279	10.7	3.	0.	3165.
12280	10.6	3.	5.e-002	9.5245
12281	10.6	3.3	0.	3191.9
12282	10.7	3.2	0.	3165.1
12283	10.6	3.2	5.e-002	9.5244
12284	10.6	3.5	0.	3192.4
12285	10.7	3.4	0.	3165.5
12286	10.6	3.4	5.e-002	9.524
12287	10.6	3.7	0.	3193.2
12288	10.7	3.6	0.	3166.2
12289	10.6	3.6	5.e-002	9.5234
12290	10.6	3.9	0.	3194.3
12291	10.7	3.8	0.	3167.1
12292	10.6	3.8	5.e-002	9.5224
12293	10.6	4.1	0.	3195.7
12294	10.7	4.	0.	3168.2
12295	10.6	4.	5.e-002	9.521
12296	10.6	4.3	0.	3197.3
12297	10.7	4.2	0.	3169.6
12298	10.6	4.2	5.e-002	9.5191
12299	10.6	4.5	0.	3199.1
12300	10.7	4.4	0.	3171.2
12301	10.6	4.4	5.e-002	9.5167
12302	10.6	4.7	0.	3201.1
12303	10.7	4.6	0.	3173.1
12304	10.6	4.6	5.e-002	9.5136
12305	10.6	4.9	0.	3203.4
12306	10.7	4.8	0.	3175.1
12307	10.6	4.8	5.e-002	9.5098
12308	10.6	5.1	0.	3205.8
12309	10.7	5.	0.	3177.3
12310	10.6	5.	5.e-002	9.505
12311	10.6	5.3	0.	3208.4
12312	10.7	5.2	0.	3179.7
12313	10.6	5.2	5.e-002	9.4966
12314	10.6	5.5	0.	3211.3
12315	10.7	5.4	0.	3182.3
12316	10.6	5.4	5.e-002	9.4519
12317	10.6	5.7	0.	3215.1
12318	10.7	5.6	0.	3185.1
12319	10.6	5.6	5.e-002	8.9257
12320	10.7	5.8	0.	3189.6
12321	10.6	5.8	5.e-002	1.865
12322	10.6	5.9	0.	3213.7
12323	10.8	0.3	0.	3159.5
12324	10.9	0.2	0.	3134.
12325	10.8	0.2	5.e-002	1.7974
12326	10.8	0.1	0.	3157.8
12327	10.8	0.5	0.	3156.
12328	10.9	0.4	0.	3129.8
12329	10.8	0.4	5.e-002	8.8779
12330	10.8	0.7	0.	3153.5
12331	10.9	0.6	0.	3127.3
12332	10.8	0.6	5.e-002	9.4049
12333	10.8	0.9	0.	3151.1
12334	10.9	0.8	0.	3125.
12335	10.8	0.8	5.e-002	9.4492
12336	10.8	1.1	0.	3149.
12337	10.9	1.	0.	3122.9
12338	10.8	1.	5.e-002	9.457
12339	10.8	1.3	0.	3147.
12340	10.9	1.2	0.	3120.9
12341	10.8	1.2	5.e-002	9.4613
12342	10.8	1.5	0.	3145.2
12343	10.9	1.4	0.	3119.1
12344	10.8	1.4	5.e-002	9.4646
12345	10.8	1.7	0.	3143.6
12346	10.9	1.6	0.	3117.5
12347	10.8	1.6	5.e-002	9.4672
12348	10.8	1.9	0.	3142.2
12349	10.9	1.8	0.	3116.1
12350	10.8	1.8	5.e-002	9.4691
12351	10.8	2.1	0.	3141.
12352	10.9	2.	0.	3114.9
12353	10.8	2.	5.e-002	9.4706
12354	10.8	2.3	0.	3140.
12355	10.9	2.2	0.	3113.9
12356	10.8	2.2	5.e-002	9.4716
12357	10.8	2.5	0.	3139.3
12358	10.9	2.4	0.	3113.1
12359	10.8	2.4	5.e-002	9.4723
12360	10.8	2.7	0.	3138.8
12361	10.9	2.6	0.	3112.5
12362	10.8	2.6	5.e-002	9.4728
12363	10.8	2.9	0.	3138.5
12364	10.9	2.8	0.	3112.1
12365	10.8	2.8	5.e-002	9.4731
12366	10.8	3.1	0.	3138.5
12367	10.9	3.	0.	3112.
12368	10.8	3.	5.e-002	9.4731
12369	10.8	3.3	0.	3138.8
12370	10.9	3.2	0.	3112.1
12371	10.8	3.2	5.e-002	9.4731
12372	10.8	3.5	0.	3139.3
12373	10.9	3.4	0.	3112.5
12374	10.8	3.4	5.e-002	9.4728
12375	10.8	3.7	0.	3140.
12376	10.9	3.6	0.	3113.1
12377	10.8	3.6	5.e-002	9.4723
12378	10.8	3.9	0.	3141.
12379	10.9	3.8	0.	3113.9
12380	10.8	3.8	5.e-002	9.4716
12381	10.8	4.1	0.	3142.2
12382	10.9	4.	0.	3114.9
12383	10.8	4.	5.e-002	9.4706
12384	10.8	4.3	0.	3143.6
12385	10.9	4.2	0.	3116.1
12386	10.8	4.2	5.e-002	9.4691
12387	10.8	4.5	0.	3145.2
12388	10.9	4.4	0.	3117.5
12389	10.8	4.4	5.e-002	9.4672
12390	10.8	4.7	0.	3147.
12391	10.9	4.6	0.	3119.1
12392	10.8	4.6	5.e-002	9.4646
12393	10.8	4.9	0.	3149.
12394	10.9	4.8	0.	3120.9
12395	10.8	4.8	5.e-002	9.4613
12396	10.8	5.1	0.	3151.1
12397	10.9	5.	0.	3122.9
12398	10.8	5.	5.e-002	9.457
12399	10.8	5.3	0.	3153.5
12400	10.9	5.2	0.	3125.
12401	10.8	5.2	5.e-002	9.4492
12402	10.8	5.5	0.	3156.
12403	10.9	5.4	0.	3127.3
12404	10.8	5.4	5.e-002	9.4049
12405	10.8	5.7	0.	3159.5
12406	10.9	5.6	0.	3129.8
12407	10.8	5.6	5.e-002	8.8779
12408	10.9	5.8	0.	3134.
12409	10.8	5.8	5.e-002	1.7974
12410	10.8	5.9	0.	3157.8
12411	11.	0.3	0.	3104.2
12412	11.1	0.2	0.	3078.7
12413	11.	0.2	5.e-002	1.7421
12414	11.	0.1	0.	3102.1
12415	11.	0.5	0.	3101.
12416	11.1	0.4	0.	3074.7
12417	11.	0.4	5.e-002	8.833
12418	11.	0.7	0.	3098.7
12419	11.1	0.6	0.	3072.5
12420	11.	0.6	5.e-002	9.3601
12421	11.	0.9	0.	3096.7
12422	11.1	0.8	0.	3070.5
12423	11.	0.8	5.e-002	9.4038
12424	11.	1.1	0.	3094.8
12425	11.1	1.	0.	3068.6
12426	11.	1.	5.e-002	9.411
12427	11.	1.3	0.	3093.
12428	11.1	1.2	0.	3066.9
12429	11.	1.2	5.e-002	9.4147
12430	11.	1.5	0.	3091.4
12431	11.1	1.4	0.	3065.4
12432	11.	1.4	5.e-002	9.4173
12433	11.	1.7	0.	3090.
12434	11.1	1.6	0.	3064.
12435	11.	1.6	5.e-002	9.4193
12436	11.	1.9	0.	3088.8
12437	11.1	1.8	0.	3062.7
12438	11.	1.8	5.e-002	9.4206
12439	11.	2.1	0.	3087.7
12440	11.1	2.	0.	3061.7
12441	11.	2.	5.e-002	9.4216
12442	11.	2.3	0.	3086.9
12443	11.1	2.2	0.	3060.8
12444	11.	2.2	5.e-002	9.4222
12445	11.	2.5	0.	3086.2
12446	11.1	2.4	0.	3060.1
12447	11.	2.4	5.e-002	9.4225
12448	11.	2.7	0.	3085.8
12449	11.1	2.6	0.	3059.6
12450	11.	2.6	5.e-002	9.4227
12451	11.	2.9	0.	3085.6
12452	11.1	2.8	0.	3059.3
12453	11.	2.8	5.e-002	9.4228
12454	11.	3.1	0.	3085.6
12455	11.1	3.	0.	3059.1
12456	11.	3.	5.e-002	9.4228
12457	11.	3.3	0.	3085.8
12458	11.1	3.2	0.	3059.3
12459	11.	3.2	5.e-002	9.4228
12460	11.	3.5	0.	3086.2
12461	11.1	3.4	0.	3059.6
12462	11.	3.4	5.e-002	9.4227
12463	11.	3.7	0.	3086.9
12464	11.1	3.6	0.	3060.1
12465	11.	3.6	5.e-002	9.4225
12466	11.	3.9	0.	3087.7
12467	11.1	3.8	0.	3060.8
12468	11.	3.8	5.e-002	9.4222
12469	11.	4.1	0.	3088.8
12470	11.1	4.	0.	3061.7
12471	11.	4.	5.e-002	9.4216
12472	11.	4.3	0.	3090.
12473	11.1	4.2	0.	3062.7
12474	11.	4.2	5.e-002	9.4206
12475	11.	4.5	0.	3091.4
12476	11.1	4.4	0.	3064.
12477	11.	4.4	5.e-002	9.4193
12478	11.	4.7	0.	3093.
12479	11.1	4.6	0.	3065.4
12480	11.	4.6	5.e-002	9.4173
12481	11.	4.9	0.	3094.8
12482	11.1	4.8	0.	3066.9
12483	11.	4.8	5.e-002	9.4147
12484	11.	5.1	0.	3096.7
12485	11.1	5.	0.	3068.6
12486	11.	5.	5.e-002	9.411
12487	11.	5.3	0.	3098.7
12488	11.1	5.2	0.	3070.5
12489	11.	5.2	5.e-002	9.4038
12490	11.	5.5	0.	3101.
12491	11.1	5.4	0.	3072.5
12492	11.	5.4	5.e-002	9.3601
12493	11.	5.7	0.	3104.2
12494	11.1	5.6	0.	3074.7
12495	11.	5.6	5.e-002	8.833
12496	11.1	5.8	0.	3078.7
12497	11.	5.8	5.e-002	1.7421
12498	11.	5.9	0.	3102.1
12499	11.2	0.3	0.	3049.1
12500	11.3	0.2	0.	3023.5
12501	11.2	0.2	5.e-002	1.6989
12502	11.2	0.1	0.	3046.6
12503	11.2	0.5	0.	3046.1
12504	11.3	0.4	0.	3019.8
12505	11.2	0.4	5.e-002	8.7908
12506	11.2	0.7	0.	3044.2
12507	11.3	0.6	0.	3017.9
12508	11.2	0.6	5.e-002	9.3174
12509	11.2	0.9	0.	3042.4
12510	11.3	0.8	0.	3016.2
12511	11.2	0.8	5.e-002	9.3605
12512	11.2	1.1	0.	3040.7
12513	11.3	1.	0.	3014.6
12514	11.2	1.	5.e-002	9.367
12515	11.2	1.3	0.	3039.2
12516	11.3	1.2	0.	3013.1
12517	11.2	1.2	5.e-002	9.3699
12518	11.2	1.5	0.	3037.9
12519	11.3	1.4	0.	3011.8
12520	11.2	1.4	5.e-002	9.3717
12521	11.2	1.7	0.	3036.6
12522	11.3	1.6	0.	3010.6
12523	11.2	1.6	5.e-002	9.3729
12524	11.2	1.9	0.	3035.6
12525	11.3	1.8	0.	3009.5
12526	11.2	1.8	5.e-002	9.3735
12527	11.2	2.1	0.	3034.7
12528	11.3	2.	0.	3008.6
12529	11.2	2.	5.e-002	9.3738
12530	11.2	2.3	0.	3033.9
12531	11.3	2.2	0.	3007.8
12532	11.2	2.2	5.e-002	9.3738
12533	11.2	2.5	0.	3033.4
12534	11.3	2.4	0.	3007.2
12535	11.2	2.4	5.e-002	9.3737
12536	11.2	2.7	0.	3033.
12537	11.3	2.6	0.	3006.8
12538	11.2	2.6	5.e-002	9.3735
12539	11.2	2.9	0.	3032.8
12540	11.3	2.8	0.	3006.5
12541	11.2	2.8	5.e-002	9.3734
12542	11.2	3.1	0.	3032.8
12543	11.3	3.	0.	3006.4
12544	11.2	3.	5.e-002	9.3733
12545	11.2	3.3	0.	3033.
12546	11.3	3.2	0.	3006.5
12547	11.2	3.2	5.e-002	9.3734
12548	11.2	3.5	0.	3033.4
12549	11.3	3.4	0.	3006.8
12550	11.2	3.4	5.e-002	9.3735
12551	11.2	3.7	0.	3033.9
12552	11.3	3.6	0.	3007.2
12553	11.2	3.6	5.e-002	9.3737
12554	11.2	3.9	0.	3034.7
12555	11.3	3.8	0.	3007.8
12556	11.2	3.8	5.e-002	9.3738
12557	11.2	4.1	0.	3035.6
12558	11.3	4.	0.	3008.6
12559	11.2	4.	5.e-002	9.3738
12560	11.2	4.3	0.	3036.6
12561	11.3	4.2	0.	3009.5
12562	11.2	4.2	5.e-002	9.3735
12563	11.2	4.5	0.	3037.9
12564	11.3	4.4	0.	3010.6
12565	11.2	4.4	5.e-002	9.3729
12566	11.2	4.7	0.	3039.2
12567	11.3	4.6	0.	3011.8
12568	11.2	4.6	5.e-002	9.3717
12569	11.2	4.9	0.	3040.7
12570	11.3	4.8	0.	3013.1
12571	11.2	4.8	5.e-002	9.3699
12572	11.2	5.1	0.	3042.4
12573	11.3	5.	0.	3014.6
12574	11.2	5.	5.e-002	9.367
12575	11.2	5.3	0.	3044.2
12576	11.3	5.2	0.	3016.2
12577	11.2	5.2	5.e-002	9.3605
12578	11.2	5.5	0.	3046.1
12579	11.3	5.4	0.	3017.9
12580	11.2	5.4	5.e-002	9.3174
12581	11.2	5.7	0.	3049.1
12582	11.3	5.6	0.	3019.8
12583	11.2	5.6	5.e-002	8.7908
12584	11.3	5.8	0.	3023.5
12585	11.2	5.8	5.e-002	1.699
12586	11.2	5.9	0.	3046.6
12587	11.4	0.3	0.	2994.2
12588	11.5	0.2	0.	2968.6
12589	11.4	0.2	5.e-002	1.668
12590	11.4	0.1	0.	2991.4
12591	11.4	0.5	0.	2991.5
12592	11.5	0.4	0.	2965.2
12593	11.4	0.4	5.e-002	8.7516
12594	11.4	0.7	0.	2989.8
12595	11.5	0.6	0.	2963.5
12596	11.4	0.6	5.e-002	9.2771
12597	11.4	0.9	0.	2988.3
12598	11.5	0.8	0.	2962.1
12599	11.4	0.8	5.e-002	9.3194
12600	11.4	1.1	0.	2986.9
12601	11.5	1.	0.	2960.7
12602	11.4	1.	5.e-002	9.325
12603	11.4	1.3	0.	2985.7
12604	11.5	1.2	0.	2959.5
12605	11.4	1.2	5.e-002	9.3269
12606	11.4	1.5	0.	2984.5
12607	11.5	1.4	0.	2958.4
12608	11.4	1.4	5.e-002	9.3278
12609	11.4	1.7	0.	2983.5
12610	11.5	1.6	0.	2957.4
12611	11.4	1.6	5.e-002	9.328
12612	11.4	1.9	0.	2982.5
12613	11.5	1.8	0.	2956.5
12614	11.4	1.8	5.e-002	9.3277
12615	11.4	2.1	0.	2981.8
12616	11.5	2.	0.	2955.8
12617	11.4	2.	5.e-002	9.3271
12618	11.4	2.3	0.	2981.1
12619	11.5	2.2	0.	2955.1
12620	11.4	2.2	5.e-002	9.3263
12621	11.4	2.5	0.	2980.7
12622	11.5	2.4	0.	2954.6
12623	11.4	2.4	5.e-002	9.3256
12624	11.4	2.7	0.	2980.3
12625	11.5	2.6	0.	2954.2
12626	11.4	2.6	5.e-002	9.325
12627	11.4	2.9	0.	2980.2
12628	11.5	2.8	0.	2954.
12629	11.4	2.8	5.e-002	9.3245
12630	11.4	3.1	0.	2980.2
12631	11.5	3.	0.	2953.9
12632	11.4	3.	5.e-002	9.3244
12633	11.4	3.3	0.	2980.3
12634	11.5	3.2	0.	2954.
12635	11.4	3.2	5.e-002	9.3245
12636	11.4	3.5	0.	2980.7
12637	11.5	3.4	0.	2954.2
12638	11.4	3.4	5.e-002	9.325
12639	11.4	3.7	0.	2981.1
12640	11.5	3.6	0.	2954.6
12641	11.4	3.6	5.e-002	9.3256
12642	11.4	3.9	0.	2981.8
12643	11.5	3.8	0.	2955.1
12644	11.4	3.8	5.e-002	9.3263
12645	11.4	4.1	0.	2982.5
12646	11.5	4.	0.	2955.8
12647	11.4	4.	5.e-002	9.3271
12648	11.4	4.3	0.	2983.5
12649	11.5	4.2	0.	2956.5
12650	11.4	4.2	5.e-002	9.3277
12651	11.4	4.5	0.	2984.5
12652	11.5	4.4	0.	2957.4
12653	11.4	4.4	5.e-002	9.328
12654	11.4	4.7	0.	2985.7
12655	11.5	4.6	0.	2958.4
12656	11.4	4.6	5.e-002	9.3278
12657	11.4	4.9	0.	2986.9
12658	11.5	4.8	0.	2959.5
12659	11.4	4.8	5.e-002	9.3269
12660	11.4	5.1	0.	2988.3
12661	11.5	5.	0.	2960.7
12662	11.4	5.	5.e-002	9.325
12663	11.4	5.3	0.	2989.8
12664	11.5	5.2	0.	2962.1
12665	11.4	5.2	5.e-002	9.3194
12666	11.4	5.5	0.	2991.5
12667	11.5	5.4	0.	2963.5
12668	11.4	5.4	5.e-002	9.2771
12669	11.4	5.7	0.	2994.2
12670	11.5	5.6	0.	2965.2
12671	11.4	5.6	5.e-002	8.7516
12672	11.5	5.8	0.	2968.6
12673	11.4	5.8	5.e-002	1.668
12674	11.4	5.9	0.	2991.4
12675	11.6	0.3	0.	2939.5
12676	11.7	0.2	0.	2913.9
12677	11.6	0.2	5.e-002	1.6494
12678	11.6	0.1	0.	2936.3
12679	11.6	0.5	0.	2937.1
12680	11.7	0.4	0.	2910.7
12681	11.6	0.4	5.e-002	8.7157
12682	11.6	0.7	0.	2935.7
12683	11.7	0.6	0.	2909.3
12684	11.6	0.6	5.e-002	9.2394
12685	11.6	0.9	0.	2934.5
12686	11.7	0.8	0.	2908.2
12687	11.6	0.8	5.e-002	9.2807
12688	11.6	1.1	0.	2933.3
12689	11.7	1.	0.	2907.1
12690	11.6	1.	5.e-002	9.2852
12691	11.6	1.3	0.	2932.3
12692	11.7	1.2	0.	2906.2
12693	11.6	1.2	5.e-002	9.2859
12694	11.6	1.5	0.	2931.3
12695	11.7	1.4	0.	2905.3
12696	11.6	1.4	5.e-002	9.2856
12697	11.6	1.7	0.	2930.5
12698	11.7	1.6	0.	2904.5
12699	11.6	1.6	5.e-002	9.2845
12700	11.6	1.9	0.	2929.7
12701	11.7	1.8	0.	2903.7
12702	11.6	1.8	5.e-002	9.283
12703	11.6	2.1	0.	2929.1
12704	11.7	2.	0.	2903.1
12705	11.6	2.	5.e-002	9.2813
12706	11.6	2.3	0.	2928.5
12707	11.7	2.2	0.	2902.6
12708	11.6	2.2	5.e-002	9.2796
12709	11.6	2.5	0.	2928.1
12710	11.7	2.4	0.	2902.1
12711	11.6	2.4	5.e-002	9.278
12712	11.6	2.7	0.	2927.9
12713	11.7	2.6	0.	2901.8
12714	11.6	2.6	5.e-002	9.2768
12715	11.6	2.9	0.	2927.7
12716	11.7	2.8	0.	2901.6
12717	11.6	2.8	5.e-002	9.276
12718	11.6	3.1	0.	2927.7
12719	11.7	3.	0.	2901.6
12720	11.6	3.	5.e-002	9.2757
12721	11.6	3.3	0.	2927.9
12722	11.7	3.2	0.	2901.6
12723	11.6	3.2	5.e-002	9.276
12724	11.6	3.5	0.	2928.1
12725	11.7	3.4	0.	2901.8
12726	11.6	3.4	5.e-002	9.2768
12727	11.6	3.7	0.	2928.5
12728	11.7	3.6	0.	2902.1
12729	11.6	3.6	5.e-002	9.278
12730	11.6	3.9	0.	2929.1
12731	11.7	3.8	0.	2902.6
12732	11.6	3.8	5.e-002	9.2796
12733	11.6	4.1	0.	2929.7
12734	11.7	4.	0.	2903.1
12735	11.6	4.	5.e-002	9.2813
12736	11.6	4.3	0.	2930.5
12737	11.7	4.2	0.	2903.7
12738	11.6	4.2	5.e-002	9.283
12739	11.6	4.5	0.	2931.3
12740	11.7	4.4	0.	2904.5
12741	11.6	4.4	5.e-002	9.2845
12742	11.6	4.7	0.	2932.3
12743	11.7	4.6	0.	2905.3
12744	11.6	4.6	5.e-002	9.2856
12745	11.6	4.9	0.	2933.3
12746	11.7	4.8	0.	2906.2
12747	11.6	4.8	5.e-002	9.2859
12748	11.6	5.1	0.	2934.5
12749	11.7	5.	0.	2907.1
12750	11.6	5.	5.e-002	9.2852
12751	11.6	5.3	0.	2935.7
12752	11.7	5.2	0.	2908.2
12753	11.6	5.2	5.e-002	9.2807
12754	11.6	5.5	0.	2937.1
12755	11.7	5.4	0.	2909.3
12756	11.6	5.4	5.e-002	9.2394
12757	11.6	5.7	0.	2939.5
12758	11.7	5.6	0.	2910.7
12759	11.6	5.6	5.e-002	8.7157
12760	11.7	5.8	0.	2913.9
12761	11.6	5.8	5.e-002	1.6494
12762	11.6	5.9	0.	2936.3
12763	11.8	0.3	0.	2884.9
12764	11.9	0.2	0.	2859.3
12765	11.8	0.2	5.e-002	1.6437
12766	11.8	0.1	0.	2881.5
12767	11.8	0.5	0.	2882.9
12768	11.9	0.4	0.	2856.4
12769	11.8	0.4	5.e-002	8.6834
12770	11.8	0.7	0.	2881.8
12771	11.9	0.6	0.	2855.3
12772	11.8	0.6	5.e-002	9.2045
12773	11.8	0.9	0.	2880.8
12774	11.9	0.8	0.	2854.5
12775	11.8	0.8	5.e-002	9.2446
12776	11.8	1.1	0.	2879.9
12777	11.9	1.	0.	2853.7
12778	11.8	1.	5.e-002	9.2477
12779	11.8	1.3	0.	2879.1
12780	11.9	1.2	0.	2853.
12781	11.8	1.2	5.e-002	9.247
12782	11.8	1.5	0.	2878.4
12783	11.9	1.4	0.	2852.3
12784	11.8	1.4	5.e-002	9.245
12785	11.8	1.7	0.	2877.7
12786	11.9	1.6	0.	2851.7
12787	11.8	1.6	5.e-002	9.2424
12788	11.8	1.9	0.	2877.1
12789	11.9	1.8	0.	2851.2
12790	11.8	1.8	5.e-002	9.2393
12791	11.8	2.1	0.	2876.6
12792	11.9	2.	0.	2850.7
12793	11.8	2.	5.e-002	9.2362
12794	11.8	2.3	0.	2876.1
12795	11.9	2.2	0.	2850.3
12796	11.8	2.2	5.e-002	9.2332
12797	11.8	2.5	0.	2875.8
12798	11.9	2.4	0.	2849.9
12799	11.8	2.4	5.e-002	9.2306
12800	11.8	2.7	0.	2875.6
12801	11.9	2.6	0.	2849.7
12802	11.8	2.6	5.e-002	9.2286
12803	11.8	2.9	0.	2875.5
12804	11.9	2.8	0.	2849.5
12805	11.8	2.8	5.e-002	9.2274
12806	11.8	3.1	0.	2875.5
12807	11.9	3.	0.	2849.5
12808	11.8	3.	5.e-002	9.2269
12809	11.8	3.3	0.	2875.6
12810	11.9	3.2	0.	2849.5
12811	11.8	3.2	5.e-002	9.2274
12812	11.8	3.5	0.	2875.8
12813	11.9	3.4	0.	2849.7
12814	11.8	3.4	5.e-002	9.2286
12815	11.8	3.7	0.	2876.1
12816	11.9	3.6	0.	2849.9
12817	11.8	3.6	5.e-002	9.2306
12818	11.8	3.9	0.	2876.6
12819	11.9	3.8	0.	2850.3
12820	11.8	3.8	5.e-002	9.2332
12821	11.8	4.1	0.	2877.1
12822	11.9	4.	0.	2850.7
12823	11.8	4.	5.e-002	9.2362
12824	11.8	4.3	0.	2877.7
12825	11.9	4.2	0.	2851.2
12826	11.8	4.2	5.e-002	9.2393
12827	11.8	4.5	0.	2878.4
12828	11.9	4.4	0.	2851.7
12829	11.8	4.4	5.e-002	9.2424
12830	11.8	4.7	0.	2879.1
12831	11.9	4.6	0.	2852.3
12832	11.8	4.6	5.e-002	9.245
12833	11.8	4.9	0.	2879.9
12834	11.9	4.8	0.	2853.
12835	11.8	4.8	5.e-002	9.247
12836	11.8	5.1	0.	2880.8
12837	11.9	5.	0.	2853.7
12838	11.8	5.	5.e-002	9.2477
12839	11.8	5.3	0.	2881.8
12840	11.9	5.2	0.	2854.5
12841	11.8	5.2	5.e-002	9.2446
12842	11.8	5.5	0.	2882.9
12843	11.9	5.4	0.	2855.3
12844	11.8	5.4	5.e-002	9.2045
12845	11.8	5.7	0.	2884.9
12846	11.9	5.6	0.	2856.4
12847	11.8	5.6	5.e-002	8.6834
12848	11.9	5.8	0.	2859.3
12849	11.8	5.8	5.e-002	1.6437
12850	11.8	5.9	0.	2881.5
12851	12.	0.3	0.	2830.6
12852	12.1	0.2	0.	2804.9
12853	12.	0.2	5.e-002	1.6515
12854	12.	0.1	0.	2826.8
12855	12.	0.5	0.	2828.8
12856	12.1	0.4	0.	2802.3
12857	12.	0.4	5.e-002	8.6551
12858	12.	0.7	0.	2828.
12859	12.1	0.6	0.	2801.6
12860	12.	0.6	5.e-002	9.173
12861	12.	0.9	0.	2827.4
12862	12.1	0.8	0.	2801.
12863	12.	0.8	5.e-002	9.2114
12864	12.	1.1	0.	2826.7
12865	12.1	1.	0.	2800.5
12866	12.	1.	5.e-002	9.2128
12867	12.	1.3	0.	2826.2
12868	12.1	1.2	0.	2800.
12869	12.	1.2	5.e-002	9.2102
12870	12.	1.5	0.	2825.6
12871	12.1	1.4	0.	2799.6
12872	12.	1.4	5.e-002	9.2063
12873	12.	1.7	0.	2825.2
12874	12.1	1.6	0.	2799.2
12875	12.	1.6	5.e-002	9.2016
12876	12.	1.9	0.	2824.7
12877	12.1	1.8	0.	2798.8
12878	12.	1.8	5.e-002	9.1966
12879	12.	2.1	0.	2824.3
12880	12.1	2.	0.	2798.5
12881	12.	2.	5.e-002	9.1916
12882	12.	2.3	0.	2824.
12883	12.1	2.2	0.	2798.2
12884	12.	2.2	5.e-002	9.187
12885	12.	2.5	0.	2823.7
12886	12.1	2.4	0.	2797.9
12887	12.	2.4	5.e-002	9.183
12888	12.	2.7	0.	2823.6
12889	12.1	2.6	0.	2797.7
12890	12.	2.6	5.e-002	9.18
12891	12.	2.9	0.	2823.5
12892	12.1	2.8	0.	2797.6
12893	12.	2.8	5.e-002	9.1782
12894	12.	3.1	0.	2823.5
12895	12.1	3.	0.	2797.6
12896	12.	3.	5.e-002	9.1775
12897	12.	3.3	0.	2823.6
12898	12.1	3.2	0.	2797.6
12899	12.	3.2	5.e-002	9.1782
12900	12.	3.5	0.	2823.7
12901	12.1	3.4	0.	2797.7
12902	12.	3.4	5.e-002	9.18
12903	12.	3.7	0.	2824.
12904	12.1	3.6	0.	2797.9
12905	12.	3.6	5.e-002	9.183
12906	12.	3.9	0.	2824.3
12907	12.1	3.8	0.	2798.2
12908	12.	3.8	5.e-002	9.187
12909	12.	4.1	0.	2824.7
12910	12.1	4.	0.	2798.5
12911	12.	4.	5.e-002	9.1916
12912	12.	4.3	0.	2825.2
12913	12.1	4.2	0.	2798.8
12914	12.	4.2	5.e-002	9.1966
12915	12.	4.5	0.	2825.6
12916	12.1	4.4	0.	2799.2
12917	12.	4.4	5.e-002	9.2016
12918	12.	4.7	0.	2826.2
12919	12.1	4.6	0.	2799.6
12920	12.	4.6	5.e-002	9.2063
12921	12.	4.9	0.	2826.7
12922	12.1	4.8	0.	2800.
12923	12.	4.8	5.e-002	9.2102
12924	12.	5.1	0.	2827.4
12925	12.1	5.	0.	2800.5
12926	12.	5.	5.e-002	9.2128
12927	12.	5.3	0.	2828.
12928	12.1	5.2	0.	2801.
12929	12.	5.2	5.e-002	9.2114
12930	12.	5.5	0.	2828.8
12931	12.1	5.4	0.	2801.6
12932	12.	5.4	5.e-002	9.173
12933	12.	5.7	0.	2830.6
12934	12.1	5.6	0.	2802.3
12935	12.	5.6	5.e-002	8.6551
12936	12.1	5.8	0.	2804.9
12937	12.	5.8	5.e-002	1.6515
12938	12.	5.9	0.	2826.8
12939	12.2	0.3	0.	2776.4
12940	12.3	0.2	0.	2750.6
12941	12.2	0.2	5.e-002	1.6738
12942	12.2	0.1	0.	2772.3
12943	12.2	0.5	0.	2775.
12944	12.3	0.4	0.	2748.4
12945	12.2	0.4	5.e-002	8.6316
12946	12.2	0.7	0.	2774.5
12947	12.3	0.6	0.	2748.
12948	12.2	0.6	5.e-002	9.1453
12949	12.2	0.9	0.	2774.1
12950	12.3	0.8	0.	2747.7
12951	12.2	0.8	5.e-002	9.1817
12952	12.2	1.1	0.	2773.8
12953	12.3	1.	0.	2747.5
12954	12.2	1.	5.e-002	9.181
12955	12.2	1.3	0.	2773.5
12956	12.3	1.2	0.	2747.3
12957	12.2	1.2	5.e-002	9.1759
12958	12.2	1.5	0.	2773.2
12959	12.3	1.4	0.	2747.2
12960	12.2	1.4	5.e-002	9.1694
12961	12.2	1.7	0.	2772.9
12962	12.3	1.6	0.	2747.
12963	12.2	1.6	5.e-002	9.1621
12964	12.2	1.9	0.	2772.6
12965	12.3	1.8	0.	2746.8
12966	12.2	1.8	5.e-002	9.1545
12967	12.2	2.1	0.	2772.3
12968	12.3	2.	0.	2746.5
12969	12.2	2.	5.e-002	9.1471
12970	12.2	2.3	0.	2772.1
12971	12.3	2.2	0.	2746.4
12972	12.2	2.2	5.e-002	9.1404
12973	12.2	2.5	0.	2771.9
12974	12.3	2.4	0.	2746.2
12975	12.2	2.4	5.e-002	9.1347
12976	12.2	2.7	0.	2771.8
12977	12.3	2.6	0.	2746.1
12978	12.2	2.6	5.e-002	9.1304
12979	12.2	2.9	0.	2771.7
12980	12.3	2.8	0.	2746.
12981	12.2	2.8	5.e-002	9.1278
12982	12.2	3.1	0.	2771.7
12983	12.3	3.	0.	2746.
12984	12.2	3.	5.e-002	9.1269
12985	12.2	3.3	0.	2771.8
12986	12.3	3.2	0.	2746.
12987	12.2	3.2	5.e-002	9.1278
12988	12.2	3.5	0.	2771.9
12989	12.3	3.4	0.	2746.1
12990	12.2	3.4	5.e-002	9.1304
12991	12.2	3.7	0.	2772.1
12992	12.3	3.6	0.	2746.2
12993	12.2	3.6	5.e-002	9.1347
12994	12.2	3.9	0.	2772.3
12995	12.3	3.8	0.	2746.4
12996	12.2	3.8	5.e-002	9.1404
12997	12.2	4.1	0.	2772.6
12998	12.3	4.	0.	2746.5
12999	12.2	4.	5.e-002	9.1471
13000	12.2	4.3	0.	2772.9
13001	12.3	4.2	0.	2746.8
13002	12.2	4.2	5.e-002	9.1545
13003	12.2	4.5	0.	2773.2
13004	12.3	4.4	0.	2747.
13005	12.2	4.4	5.e-002	9.1621
13006	12.2	4.7	0.	2773.5
13007	12.3	4.6	0.	2747.2
13008	12.2	4.6	5.e-002	9.1694
13009	12.2	4.9	0.	2773.8
13010	12.3	4.8	0.	2747.3
13011	12.2	4.8	5.e-002	9.1759
13012	12.2	5.1	0.	2774.1
13013	12.3	5.	0.	2747.5
13014	12.2	5.	5.e-002	9.181
13015	12.2	5.3	0.	2774.5
13016	12.3	5.2	0.	2747.7
13017	12.2	5.2	5.e-002	9.1817
13018	12.2	5.5	0.	2775.
13019	12.3	5.4	0.	2748.
13020	12.2	5.4	5.e-002	9.1453
13021	12.2	5.7	0.	2776.4
13022	12.3	5.6	0.	2748.4
13023	12.2	5.6	5.e-002	8.6316
13024	12.3	5.8	0.	2750.6
13025	12.2	5.8	5.e-002	1.6738
13026	12.2	5.9	0.	2772.3
13027	12.4	0.3	0.	2722.4
13028	12.5	0.2	0.	2696.5
13029	12.4	0.2	5.e-002	1.7119
13030	12.4	0.1	0.	2717.9
13031	12.4	0.5	0.	2721.3
13032	12.5	0.4	0.	2694.6
13033	12.4	0.4	5.e-002	8.6138
13034	12.4	0.7	0.	2721.1
13035	12.5	0.6	0.	2694.5
13036	12.4	0.6	5.e-002	9.1223
13037	12.4	0.9	0.	2721.1
13038	12.5	0.8	0.	2694.6
13039	12.4	0.8	5.e-002	9.1562
13040	12.4	1.1	0.	2721.
13041	12.5	1.	0.	2694.8
13042	12.4	1.	5.e-002	9.1526
13043	12.4	1.3	0.	2721.
13044	12.5	1.2	0.	2694.9
13045	12.4	1.2	5.e-002	9.1444
13046	12.4	1.5	0.	2720.9
13047	12.5	1.4	0.	2694.9
13048	12.4	1.4	5.e-002	9.1346
13049	12.4	1.7	0.	2720.8
13050	12.5	1.6	0.	2695.
13051	12.4	1.6	5.e-002	9.1238
13052	12.4	1.9	0.	2720.7
13053	12.5	1.8	0.	2694.9
13054	12.4	1.8	5.e-002	9.1129
13055	12.4	2.1	0.	2720.6
13056	12.5	2.	0.	2694.9
13057	12.4	2.	5.e-002	9.1025
13058	12.4	2.3	0.	2720.4
13059	12.5	2.2	0.	2694.8
13060	12.4	2.2	5.e-002	9.093
13061	12.4	2.5	0.	2720.3
13062	12.5	2.4	0.	2694.7
13063	12.4	2.4	5.e-002	9.0851
13064	12.4	2.7	0.	2720.2
13065	12.5	2.6	0.	2694.7
13066	12.4	2.6	5.e-002	9.0791
13067	12.4	2.9	0.	2720.2
13068	12.5	2.8	0.	2694.6
13069	12.4	2.8	5.e-002	9.0754
13070	12.4	3.1	0.	2720.2
13071	12.5	3.	0.	2694.6
13072	12.4	3.	5.e-002	9.0742
13073	12.4	3.3	0.	2720.2
13074	12.5	3.2	0.	2694.6
13075	12.4	3.2	5.e-002	9.0754
13076	12.4	3.5	0.	2720.3
13077	12.5	3.4	0.	2694.7
13078	12.4	3.4	5.e-002	9.0791
13079	12.4	3.7	0.	2720.4
13080	12.5	3.6	0.	2694.7
13081	12.4	3.6	5.e-002	9.0851
13082	12.4	3.9	0.	2720.6
13083	12.5	3.8	0.	2694.8
13084	12.4	3.8	5.e-002	9.093
13085	12.4	4.1	0.	2720.7
13086	12.5	4.	0.	2694.9
13087	12.4	4.	5.e-002	9.1025
13088	12.4	4.3	0.	2720.8
13089	12.5	4.2	0.	2694.9
13090	12.4	4.2	5.e-002	9.1129
13091	12.4	4.5	0.	2720.9
13092	12.5	4.4	0.	2695.
13093	12.4	4.4	5.e-002	9.1238
13094	12.4	4.7	0.	2721.
13095	12.5	4.6	0.	2694.9
13096	12.4	4.6	5.e-002	9.1346
13097	12.4	4.9	0.	2721.
13098	12.5	4.8	0.	2694.9
13099	12.4	4.8	5.e-002	9.1444
13100	12.4	5.1	0.	2721.1
13101	12.5	5.	0.	2694.8
13102	12.4	5.	5.e-002	9.1526
13103	12.4	5.3	0.	2721.1
13104	12.5	5.2	0.	2694.6
13105	12.4	5.2	5.e-002	9.1562
13106	12.4	5.5	0.	2721.3
13107	12.5	5.4	0.	2694.5
13108	12.4	5.4	5.e-002	9.1223
13109	12.4	5.7	0.	2722.4
13110	12.5	5.6	0.	2694.6
13111	12.4	5.6	5.e-002	8.6138
13112	12.5	5.8	0.	2696.5
13113	12.4	5.8	5.e-002	1.7119
13114	12.4	5.9	0.	2717.9
13115	12.6	0.3	0.	2668.5
13116	12.7	0.2	0.	2642.4
13117	12.6	0.2	5.e-002	1.7676
13118	12.6	0.1	0.	2663.7
13119	12.6	0.5	0.	2667.8
13120	12.7	0.4	0.	2640.9
13121	12.6	0.4	5.e-002	8.6028
13122	12.6	0.7	0.	2668.
13123	12.7	0.6	0.	2641.3
13124	12.6	0.6	5.e-002	9.1049
13125	12.6	0.9	0.	2668.3
13126	12.7	0.8	0.	2641.7
13127	12.6	0.8	5.e-002	9.1356
13128	12.6	1.1	0.	2668.5
13129	12.7	1.	0.	2642.2
13130	12.6	1.	5.e-002	9.1284
13131	12.6	1.3	0.	2668.8
13132	12.7	1.2	0.	2642.6
13133	12.6	1.2	5.e-002	9.1162
13134	12.6	1.5	0.	2669.
13135	12.7	1.4	0.	2643.
13136	12.6	1.4	5.e-002	9.102
13137	12.6	1.7	0.	2669.1
13138	12.7	1.6	0.	2643.3
13139	12.6	1.6	5.e-002	9.0869
13140	12.6	1.9	0.	2669.1
13141	12.7	1.8	0.	2643.4
13142	12.6	1.8	5.e-002	9.0717
13143	12.6	2.1	0.	2669.1
13144	12.7	2.	0.	2643.6
13145	12.6	2.	5.e-002	9.0572
13146	12.6	2.3	0.	2669.1
13147	12.7	2.2	0.	2643.6
13148	12.6	2.2	5.e-002	9.0442
13149	12.6	2.5	0.	2669.1
13150	12.7	2.4	0.	2643.6
13151	12.6	2.4	5.e-002	9.0334
13152	12.6	2.7	0.	2669.
13153	12.7	2.6	0.	2643.6
13154	12.6	2.6	5.e-002	9.0252
13155	12.6	2.9	0.	2669.
13156	12.7	2.8	0.	2643.6
13157	12.6	2.8	5.e-002	9.0201
13158	12.6	3.1	0.	2669.
13159	12.7	3.	0.	2643.6
13160	12.6	3.	5.e-002	9.0184
13161	12.6	3.3	0.	2669.
13162	12.7	3.2	0.	2643.6
13163	12.6	3.2	5.e-002	9.0201
13164	12.6	3.5	0.	2669.1
13165	12.7	3.4	0.	2643.6
13166	12.6	3.4	5.e-002	9.0252
13167	12.6	3.7	0.	2669.1
13168	12.7	3.6	0.	2643.6
13169	12.6	3.6	5.e-002	9.0334
13170	12.6	3.9	0.	2669.1
13171	12.7	3.8	0.	2643.6
13172	12.6	3.8	5.e-002	9.0442
13173	12.6	4.1	0.	2669.1
13174	12.7	4.	0.	2643.6
13175	12.6	4.	5.e-002	9.0572
13176	12.6	4.3	0.	2669.1
13177	12.7	4.2	0.	2643.4
13178	12.6	4.2	5.e-002	9.0717
13179	12.6	4.5	0.	2669.
13180	12.7	4.4	0.	2643.3
13181	12.6	4.4	5.e-002	9.0869
13182	12.6	4.7	0.	2668.8
13183	12.7	4.6	0.	2643.
13184	12.6	4.6	5.e-002	9.102
13185	12.6	4.9	0.	2668.5
13186	12.7	4.8	0.	2642.6
13187	12.6	4.8	5.e-002	9.1162
13188	12.6	5.1	0.	2668.3
13189	12.7	5.	0.	2642.2
13190	12.6	5.	5.e-002	9.1284
13191	12.6	5.3	0.	2668.
13192	12.7	5.2	0.	2641.7
13193	12.6	5.2	5.e-002	9.1356
13194	12.6	5.5	0.	2667.8
13195	12.7	5.4	0.	2641.3
13196	12.6	5.4	5.e-002	9.1049
13197	12.6	5.7	0.	2668.5
13198	12.7	5.6	0.	2640.9
13199	12.6	5.6	5.e-002	8.6028
13200	12.7	5.8	0.	2642.4
13201	12.6	5.8	5.e-002	1.7676
13202	12.6	5.9	0.	2663.7
13203	12.8	0.3	0.	2614.7
13204	12.9	0.2	0.	2588.3
13205	12.8	0.2	5.e-002	1.8432
13206	12.8	0.1	0.	2609.5
13207	12.8	0.5	0.	2614.4
13208	12.9	0.4	0.	2587.3
13209	12.8	0.4	5.e-002	8.6002
13210	12.8	0.7	0.	2615.
13211	12.9	0.6	0.	2588.1
13212	12.8	0.6	5.e-002	9.0946
13213	12.8	0.9	0.	2615.7
13214	12.9	0.8	0.	2589.
13215	12.8	0.8	5.e-002	9.121
13216	12.8	1.1	0.	2616.3
13217	12.9	1.	0.	2589.9
13218	12.8	1.	5.e-002	9.1092
13219	12.8	1.3	0.	2616.8
13220	12.9	1.2	0.	2590.7
13221	12.8	1.2	5.e-002	9.0917
13222	12.8	1.5	0.	2617.3
13223	12.9	1.4	0.	2591.3
13224	12.8	1.4	5.e-002	9.0719
13225	12.8	1.7	0.	2617.6
13226	12.9	1.6	0.	2591.9
13227	12.8	1.6	5.e-002	9.0511
13228	12.8	1.9	0.	2617.8
13229	12.9	1.8	0.	2592.3
13230	12.8	1.8	5.e-002	9.0304
13231	12.8	2.1	0.	2618.
13232	12.9	2.	0.	2592.5
13233	12.8	2.	5.e-002	9.0107
13234	12.8	2.3	0.	2618.1
13235	12.9	2.2	0.	2592.7
13236	12.8	2.2	5.e-002	8.9932
13237	12.8	2.5	0.	2618.1
13238	12.9	2.4	0.	2592.8
13239	12.8	2.4	5.e-002	8.9785
13240	12.8	2.7	0.	2618.2
13241	12.9	2.6	0.	2592.9
13242	12.8	2.6	5.e-002	8.9675
13243	12.8	2.9	0.	2618.2
13244	12.9	2.8	0.	2592.9
13245	12.8	2.8	5.e-002	8.9606
13246	12.8	3.1	0.	2618.2
13247	12.9	3.	0.	2593.
13248	12.8	3.	5.e-002	8.9583
13249	12.8	3.3	0.	2618.2
13250	12.9	3.2	0.	2592.9
13251	12.8	3.2	5.e-002	8.9606
13252	12.8	3.5	0.	2618.1
13253	12.9	3.4	0.	2592.9
13254	12.8	3.4	5.e-002	8.9675
13255	12.8	3.7	0.	2618.1
13256	12.9	3.6	0.	2592.8
13257	12.8	3.6	5.e-002	8.9785
13258	12.8	3.9	0.	2618.
13259	12.9	3.8	0.	2592.7
13260	12.8	3.8	5.e-002	8.9932
13261	12.8	4.1	0.	2617.8
13262	12.9	4.	0.	2592.5
13263	12.8	4.	5.e-002	9.0107
13264	12.8	4.3	0.	2617.6
13265	12.9	4.2	0.	2592.3
13266	12.8	4.2	5.e-002	9.0304
13267	12.8	4.5	0.	2617.3
13268	12.9	4.4	0.	2591.9
13269	12.8	4.4	5.e-002	9.0511
13270	12.8	4.7	0.	2616.8
13271	12.9	4.6	0.	2591.3
13272	12.8	4.6	5.e-002	9.0719
13273	12.8	4.9	0.	2616.3
13274	12.9	4.8	0.	2590.7
13275	12.8	4.8	5.e-002	9.0917
13276	12.8	5.1	0.	2615.7
13277	12.9	5.	0.	2589.9
13278	12.8	5.	5.e-002	9.1092
13279	12.8	5.3	0.	2615.
13280	12.9	5.2	0.	2589.
13281	12.8	5.2	5.e-002	9.121
13282	12.8	5.5	0.	2614.4
13283	12.9	5.4	0.	2588.1
13284	12.8	5.4	5.e-002	9.0946
13285	12.8	5.7	0.	2614.7
13286	12.9	5.6	0.	2587.3
13287	12.8	5.6	5.e-002	8.6002
13288	12.9	5.8	0.	2588.3
13289	12.8	5.8	5.e-002	1.8432
13290	12.8	5.9	0.	2609.5
13291	13.	0.3	0.	2560.9
13292	13.1	0.2	0.	2534.3
13293	13.	0.2	5.e-002	1.9417
13294	13.	0.1	0.	2555.3
13295	13.	0.5	0.	2561.
13296	13.1	0.4	0.	2533.8
13297	13.	0.4	5.e-002	8.608
13298	13.	0.7	0.	2562.1
13299	13.1	0.6	0.	2535.1
13300	13.	0.6	5.e-002	9.0929
13301	13.	0.9	0.	2563.2
13302	13.1	0.8	0.	2536.5
13303	13.	0.8	5.e-002	9.1139
13304	13.	1.1	0.	2564.3
13305	13.1	1.	0.	2537.8
13306	13.	1.	5.e-002	9.096
13307	13.	1.3	0.	2565.2
13308	13.1	1.2	0.	2539.
13309	13.	1.2	5.e-002	9.0718
13310	13.	1.5	0.	2565.9
13311	13.1	1.4	0.	2540.
13312	13.	1.4	5.e-002	9.0448
13313	13.	1.7	0.	2566.5
13314	13.1	1.6	0.	2540.8
13315	13.	1.6	5.e-002	9.0166
13316	13.	1.9	0.	2566.9
13317	13.1	1.8	0.	2541.4
13318	13.	1.8	5.e-002	8.9887
13319	13.	2.1	0.	2567.2
13320	13.1	2.	0.	2541.9
13321	13.	2.	5.e-002	8.9623
13322	13.	2.3	0.	2567.5
13323	13.1	2.2	0.	2542.3
13324	13.	2.2	5.e-002	8.9388
13325	13.	2.5	0.	2567.6
13326	13.1	2.4	0.	2542.5
13327	13.	2.4	5.e-002	8.9191
13328	13.	2.7	0.	2567.7
13329	13.1	2.6	0.	2542.6
13330	13.	2.6	5.e-002	8.9044
13331	13.	2.9	0.	2567.7
13332	13.1	2.8	0.	2542.7
13333	13.	2.8	5.e-002	8.8953
13334	13.	3.1	0.	2567.7
13335	13.1	3.	0.	2542.7
13336	13.	3.	5.e-002	8.8922
13337	13.	3.3	0.	2567.7
13338	13.1	3.2	0.	2542.7
13339	13.	3.2	5.e-002	8.8953
13340	13.	3.5	0.	2567.6
13341	13.1	3.4	0.	2542.6
13342	13.	3.4	5.e-002	8.9044
13343	13.	3.7	0.	2567.5
13344	13.1	3.6	0.	2542.5
13345	13.	3.6	5.e-002	8.9191
13346	13.	3.9	0.	2567.2
13347	13.1	3.8	0.	2542.3
13348	13.	3.8	5.e-002	8.9388
13349	13.	4.1	0.	2566.9
13350	13.1	4.	0.	2541.9
13351	13.	4.	5.e-002	8.9623
13352	13.	4.3	0.	2566.5
13353	13.1	4.2	0.	2541.4
13354	13.	4.2	5.e-002	8.9887
13355	13.	4.5	0.	2565.9
13356	13.1	4.4	0.	2540.8
13357	13.	4.4	5.e-002	9.0166
13358	13.	4.7	0.	2565.2
13359	13.1	4.6	0.	2540.
13360	13.	4.6	5.e-002	9.0448
13361	13.	4.9	0.	2564.3
13362	13.1	4.8	0.	2539.
13363	13.	4.8	5.e-002	9.0718
13364	13.	5.1	0.	2563.2
13365	13.1	5.	0.	2537.8
13366	13.	5.	5.e-002	9.096
13367	13.	5.3	0.	2562.1
13368	13.1	5.2	0.	2536.5
13369	13.	5.2	5.e-002	9.1139
13370	13.	5.5	0.	2561.
13371	13.1	5.4	0.	2535.1
13372	13.	5.4	5.e-002	9.0929
13373	13.	5.7	0.	2560.9
13374	13.1	5.6	0.	2533.8
13375	13.	5.6	5.e-002	8.608
13376	13.1	5.8	0.	2534.3
13377	13.	5.8	5.e-002	1.9417
13378	13.	5.9	0.	2555.3
13379	13.2	0.3	0.	2507.1
13380	13.3	0.2	0.	2480.2
13381	13.2	0.2	5.e-002	2.0669
13382	13.2	0.1	0.	2501.
13383	13.2	0.5	0.	2507.8
13384	13.3	0.4	0.	2480.3
13385	13.2	0.4	5.e-002	8.6286
13386	13.2	0.7	0.	2509.4
13387	13.3	0.6	0.	2482.1
13388	13.2	0.6	5.e-002	9.102
13389	13.2	0.9	0.	2511.
13390	13.3	0.8	0.	2484.1
13391	13.2	0.8	5.e-002	9.1161
13392	13.2	1.1	0.	2512.5
13393	13.3	1.	0.	2485.9
13394	13.2	1.	5.e-002	9.0903
13395	13.2	1.3	0.	2513.8
13396	13.3	1.2	0.	2487.5
13397	13.2	1.2	5.e-002	9.0573
13398	13.2	1.5	0.	2514.8
13399	13.3	1.4	0.	2488.9
13400	13.2	1.4	5.e-002	9.021
13401	13.2	1.7	0.	2515.7
13402	13.3	1.6	0.	2490.1
13403	13.2	1.6	5.e-002	8.9833
13404	13.2	1.9	0.	2516.4
13405	13.3	1.8	0.	2491.
13406	13.2	1.8	5.e-002	8.9461
13407	13.2	2.1	0.	2516.9
13408	13.3	2.	0.	2491.7
13409	13.2	2.	5.e-002	8.911
13410	13.2	2.3	0.	2517.2
13411	13.3	2.2	0.	2492.2
13412	13.2	2.2	5.e-002	8.8797
13413	13.2	2.5	0.	2517.5
13414	13.3	2.4	0.	2492.6
13415	13.2	2.4	5.e-002	8.8536
13416	13.2	2.7	0.	2517.6
13417	13.3	2.6	0.	2492.8
13418	13.2	2.6	5.e-002	8.8341
13419	13.2	2.9	0.	2517.7
13420	13.3	2.8	0.	2492.9
13421	13.2	2.8	5.e-002	8.8219
13422	13.2	3.1	0.	2517.7
13423	13.3	3.	0.	2492.9
13424	13.2	3.	5.e-002	8.8178
13425	13.2	3.3	0.	2517.6
13426	13.3	3.2	0.	2492.9
13427	13.2	3.2	5.e-002	8.8219
13428	13.2	3.5	0.	2517.5
13429	13.3	3.4	0.	2492.8
13430	13.2	3.4	5.e-002	8.8341
13431	13.2	3.7	0.	2517.2
13432	13.3	3.6	0.	2492.6
13433	13.2	3.6	5.e-002	8.8536
13434	13.2	3.9	0.	2516.9
13435	13.3	3.8	0.	2492.2
13436	13.2	3.8	5.e-002	8.8797
13437	13.2	4.1	0.	2516.4
13438	13.3	4.	0.	2491.7
13439	13.2	4.	5.e-002	8.911
13440	13.2	4.3	0.	2515.7
13441	13.3	4.2	0.	2491.
13442	13.2	4.2	5.e-002	8.9461
13443	13.2	4.5	0.	2514.8
13444	13.3	4.4	0.	2490.1
13445	13.2	4.4	5.e-002	8.9833
13446	13.2	4.7	0.	2513.8
13447	13.3	4.6	0.	2488.9
13448	13.2	4.6	5.e-002	9.021
13449	13.2	4.9	0.	2512.5
13450	13.3	4.8	0.	2487.5
13451	13.2	4.8	5.e-002	9.0573
13452	13.2	5.1	0.	2511.
13453	13.3	5.	0.	2485.9
13454	13.2	5.	5.e-002	9.0903
13455	13.2	5.3	0.	2509.4
13456	13.3	5.2	0.	2484.1
13457	13.2	5.2	5.e-002	9.1161
13458	13.2	5.5	0.	2507.8
13459	13.3	5.4	0.	2482.1
13460	13.2	5.4	5.e-002	9.102
13461	13.2	5.7	0.	2507.1
13462	13.3	5.6	0.	2480.3
13463	13.2	5.6	5.e-002	8.6286
13464	13.3	5.8	0.	2480.2
13465	13.2	5.8	5.e-002	2.0669
13466	13.2	5.9	0.	2501.
13467	13.4	0.3	0.	2453.2
13468	13.5	0.2	0.	2425.9
13469	13.4	0.2	5.e-002	2.2235
13470	13.4	0.1	0.	2446.7
13471	13.4	0.5	0.	2454.6
13472	13.5	0.4	0.	2426.7
13473	13.4	0.4	5.e-002	8.6654
13474	13.4	0.7	0.	2456.8
13475	13.5	0.6	0.	2429.2
13476	13.4	0.6	5.e-002	9.1248
13477	13.4	0.9	0.	2458.9
13478	13.5	0.8	0.	2431.8
13479	13.4	0.8	5.e-002	9.1298
13480	13.4	1.1	0.	2460.9
13481	13.5	1.	0.	2434.2
13482	13.4	1.	5.e-002	9.0939
13483	13.4	1.3	0.	2462.7
13484	13.5	1.2	0.	2436.3
13485	13.4	1.2	5.e-002	9.0496
13486	13.4	1.5	0.	2464.1
13487	13.5	1.4	0.	2438.2
13488	13.4	1.4	5.e-002	9.0012
13489	13.4	1.7	0.	2465.3
13490	13.5	1.6	0.	2439.8
13491	13.4	1.6	5.e-002	8.9513
13492	13.4	1.9	0.	2466.3
13493	13.5	1.8	0.	2441.
13494	13.4	1.8	5.e-002	8.902
13495	13.4	2.1	0.	2467.
13496	13.5	2.	0.	2442.
13497	13.4	2.	5.e-002	8.8556
13498	13.4	2.3	0.	2467.5
13499	13.5	2.2	0.	2442.7
13500	13.4	2.2	5.e-002	8.8142
13501	13.4	2.5	0.	2467.8
13502	13.5	2.4	0.	2443.2
13503	13.4	2.4	5.e-002	8.7798
13504	13.4	2.7	0.	2468.
13505	13.5	2.6	0.	2443.5
13506	13.4	2.6	5.e-002	8.7539
13507	13.4	2.9	0.	2468.1
13508	13.5	2.8	0.	2443.6
13509	13.4	2.8	5.e-002	8.7378
13510	13.4	3.1	0.	2468.1
13511	13.5	3.	0.	2443.7
13512	13.4	3.	5.e-002	8.7324
13513	13.4	3.3	0.	2468.
13514	13.5	3.2	0.	2443.6
13515	13.4	3.2	5.e-002	8.7378
13516	13.4	3.5	0.	2467.8
13517	13.5	3.4	0.	2443.5
13518	13.4	3.4	5.e-002	8.7539
13519	13.4	3.7	0.	2467.5
13520	13.5	3.6	0.	2443.2
13521	13.4	3.6	5.e-002	8.7798
13522	13.4	3.9	0.	2467.
13523	13.5	3.8	0.	2442.7
13524	13.4	3.8	5.e-002	8.8142
13525	13.4	4.1	0.	2466.3
13526	13.5	4.	0.	2442.
13527	13.4	4.	5.e-002	8.8556
13528	13.4	4.3	0.	2465.3
13529	13.5	4.2	0.	2441.
13530	13.4	4.2	5.e-002	8.902
13531	13.4	4.5	0.	2464.1
13532	13.5	4.4	0.	2439.8
13533	13.4	4.4	5.e-002	8.9513
13534	13.4	4.7	0.	2462.7
13535	13.5	4.6	0.	2438.2
13536	13.4	4.6	5.e-002	9.0012
13537	13.4	4.9	0.	2460.9
13538	13.5	4.8	0.	2436.3
13539	13.4	4.8	5.e-002	9.0496
13540	13.4	5.1	0.	2458.9
13541	13.5	5.	0.	2434.2
13542	13.4	5.	5.e-002	9.0939
13543	13.4	5.3	0.	2456.8
13544	13.5	5.2	0.	2431.8
13545	13.4	5.2	5.e-002	9.1298
13546	13.4	5.5	0.	2454.6
13547	13.5	5.4	0.	2429.2
13548	13.4	5.4	5.e-002	9.1248
13549	13.4	5.7	0.	2453.2
13550	13.5	5.6	0.	2426.7
13551	13.4	5.6	5.e-002	8.6654
13552	13.5	5.8	0.	2425.9
13553	13.4	5.8	5.e-002	2.2235
13554	13.4	5.9	0.	2446.7
13555	13.6	0.3	0.	2399.2
13556	13.7	0.2	0.	2371.3
13557	13.6	0.2	5.e-002	2.4178
13558	13.6	0.1	0.	2392.1
13559	13.6	0.5	0.	2401.3
13560	13.7	0.4	0.	2372.9
13561	13.6	0.4	5.e-002	8.7225
13562	13.6	0.7	0.	2404.2
13563	13.7	0.6	0.	2376.2
13564	13.6	0.6	5.e-002	9.1646
13565	13.6	0.9	0.	2407.
13566	13.7	0.8	0.	2379.5
13567	13.6	0.8	5.e-002	9.1581
13568	13.6	1.1	0.	2409.6
13569	13.7	1.	0.	2382.6
13570	13.6	1.	5.e-002	9.109
13571	13.6	1.3	0.	2411.9
13572	13.7	1.2	0.	2385.4
13573	13.6	1.2	5.e-002	9.0501
13574	13.6	1.5	0.	2413.8
13575	13.7	1.4	0.	2387.9
13576	13.6	1.4	5.e-002	8.9863
13577	13.6	1.7	0.	2415.4
13578	13.7	1.6	0.	2389.9
13579	13.6	1.6	5.e-002	8.9205
13580	13.6	1.9	0.	2416.7
13581	13.7	1.8	0.	2391.5
13582	13.6	1.8	5.e-002	8.8557
13583	13.6	2.1	0.	2417.6
13584	13.7	2.	0.	2392.8
13585	13.6	2.	5.e-002	8.7947
13586	13.6	2.3	0.	2418.3
13587	13.7	2.2	0.	2393.7
13588	13.6	2.2	5.e-002	8.7402
13589	13.6	2.5	0.	2418.8
13590	13.7	2.4	0.	2394.4
13591	13.6	2.4	5.e-002	8.6948
13592	13.6	2.7	0.	2419.
13593	13.7	2.6	0.	2394.8
13594	13.6	2.6	5.e-002	8.6606
13595	13.6	2.9	0.	2419.2
13596	13.7	2.8	0.	2395.
13597	13.6	2.8	5.e-002	8.6394
13598	13.6	3.1	0.	2419.2
13599	13.7	3.	0.	2395.1
13600	13.6	3.	5.e-002	8.6322
13601	13.6	3.3	0.	2419.
13602	13.7	3.2	0.	2395.
13603	13.6	3.2	5.e-002	8.6394
13604	13.6	3.5	0.	2418.8
13605	13.7	3.4	0.	2394.8
13606	13.6	3.4	5.e-002	8.6606
13607	13.6	3.7	0.	2418.3
13608	13.7	3.6	0.	2394.4
13609	13.6	3.6	5.e-002	8.6948
13610	13.6	3.9	0.	2417.6
13611	13.7	3.8	0.	2393.7
13612	13.6	3.8	5.e-002	8.7402
13613	13.6	4.1	0.	2416.7
13614	13.7	4.	0.	2392.8
13615	13.6	4.	5.e-002	8.7947
13616	13.6	4.3	0.	2415.4
13617	13.7	4.2	0.	2391.5
13618	13.6	4.2	5.e-002	8.8557
13619	13.6	4.5	0.	2413.8
13620	13.7	4.4	0.	2389.9
13621	13.6	4.4	5.e-002	8.9205
13622	13.6	4.7	0.	2411.9
13623	13.7	4.6	0.	2387.9
13624	13.6	4.6	5.e-002	8.9863
13625	13.6	4.9	0.	2409.6
13626	13.7	4.8	0.	2385.4
13627	13.6	4.8	5.e-002	9.0501
13628	13.6	5.1	0.	2407.
13629	13.7	5.	0.	2382.6
13630	13.6	5.	5.e-002	9.109
13631	13.6	5.3	0.	2404.2
13632	13.7	5.2	0.	2379.5
13633	13.6	5.2	5.e-002	9.1581
13634	13.6	5.5	0.	2401.3
13635	13.7	5.4	0.	2376.2
13636	13.6	5.4	5.e-002	9.1646
13637	13.6	5.7	0.	2399.2
13638	13.7	5.6	0.	2372.9
13639	13.6	5.6	5.e-002	8.7225
13640	13.7	5.8	0.	2371.3
13641	13.6	5.8	5.e-002	2.4178
13642	13.6	5.9	0.	2392.1
13643	13.8	0.3	0.	2344.9
13644	13.9	0.2	0.	2316.4
13645	13.8	0.2	5.e-002	2.6572
13646	13.8	0.1	0.	2337.2
13647	13.8	0.5	0.	2347.8
13648	13.9	0.4	0.	2318.9
13649	13.8	0.4	5.e-002	8.8052
13650	13.8	0.7	0.	2351.6
13651	13.9	0.6	0.	2323.1
13652	13.8	0.6	5.e-002	9.2262
13653	13.8	0.9	0.	2355.2
13654	13.9	0.8	0.	2327.3
13655	13.8	0.8	5.e-002	9.2046
13656	13.8	1.1	0.	2358.5
13657	13.9	1.	0.	2331.2
13658	13.8	1.	5.e-002	9.1387
13659	13.8	1.3	0.	2361.4
13660	13.9	1.2	0.	2334.8
13661	13.8	1.2	5.e-002	9.061
13662	13.8	1.5	0.	2363.9
13663	13.9	1.4	0.	2337.9
13664	13.8	1.4	5.e-002	8.9772
13665	13.8	1.7	0.	2365.9
13666	13.9	1.6	0.	2340.5
13667	13.8	1.6	5.e-002	8.8911
13668	13.8	1.9	0.	2367.6
13669	13.9	1.8	0.	2342.6
13670	13.8	1.8	5.e-002	8.8062
13671	13.8	2.1	0.	2368.8
13672	13.9	2.	0.	2344.2
13673	13.8	2.	5.e-002	8.7262
13674	13.8	2.3	0.	2369.7
13675	13.9	2.2	0.	2345.4
13676	13.8	2.2	5.e-002	8.6547
13677	13.8	2.5	0.	2370.4
13678	13.9	2.4	0.	2346.3
13679	13.8	2.4	5.e-002	8.595
13680	13.8	2.7	0.	2370.7
13681	13.9	2.6	0.	2346.9
13682	13.8	2.6	5.e-002	8.5501
13683	13.8	2.9	0.	2370.9
13684	13.9	2.8	0.	2347.2
13685	13.8	2.8	5.e-002	8.5221
13686	13.8	3.1	0.	2370.9
13687	13.9	3.	0.	2347.3
13688	13.8	3.	5.e-002	8.5126
13689	13.8	3.3	0.	2370.7
13690	13.9	3.2	0.	2347.2
13691	13.8	3.2	5.e-002	8.5221
13692	13.8	3.5	0.	2370.4
13693	13.9	3.4	0.	2346.9
13694	13.8	3.4	5.e-002	8.5501
13695	13.8	3.7	0.	2369.7
13696	13.9	3.6	0.	2346.3
13697	13.8	3.6	5.e-002	8.595
13698	13.8	3.9	0.	2368.8
13699	13.9	3.8	0.	2345.4
13700	13.8	3.8	5.e-002	8.6547
13701	13.8	4.1	0.	2367.6
13702	13.9	4.	0.	2344.2
13703	13.8	4.	5.e-002	8.7262
13704	13.8	4.3	0.	2365.9
13705	13.9	4.2	0.	2342.6
13706	13.8	4.2	5.e-002	8.8062
13707	13.8	4.5	0.	2363.9
13708	13.9	4.4	0.	2340.5
13709	13.8	4.4	5.e-002	8.8911
13710	13.8	4.7	0.	2361.4
13711	13.9	4.6	0.	2337.9
13712	13.8	4.6	5.e-002	8.9772
13713	13.8	4.9	0.	2358.5
13714	13.9	4.8	0.	2334.8
13715	13.8	4.8	5.e-002	9.061
13716	13.8	5.1	0.	2355.2
13717	13.9	5.	0.	2331.2
13718	13.8	5.	5.e-002	9.1387
13719	13.8	5.3	0.	2351.6
13720	13.9	5.2	0.	2327.3
13721	13.8	5.2	5.e-002	9.2046
13722	13.8	5.5	0.	2347.8
13723	13.9	5.4	0.	2323.1
13724	13.8	5.4	5.e-002	9.2262
13725	13.8	5.7	0.	2344.9
13726	13.9	5.6	0.	2318.9
13727	13.8	5.6	5.e-002	8.8052
13728	13.9	5.8	0.	2316.4
13729	13.8	5.8	5.e-002	2.6572
13730	13.8	5.9	0.	2337.2
13731	14.	0.3	0.	2290.2
13732	14.1	0.2	0.	2260.8
13733	14.	0.2	5.e-002	2.9514
13734	14.	0.1	0.	2281.7
13735	14.	0.5	0.	2294.1
13736	14.1	0.4	0.	2264.5
13737	14.	0.4	5.e-002	8.9201
13738	14.	0.7	0.	2298.8
13739	14.1	0.6	0.	2269.8
13740	14.	0.6	5.e-002	9.3151
13741	14.	0.9	0.	2303.4
13742	14.1	0.8	0.	2275.
13743	14.	0.8	5.e-002	9.2742
13744	14.	1.1	0.	2307.5
13745	14.1	1.	0.	2279.9
13746	14.	1.	5.e-002	9.1866
13747	14.	1.3	0.	2311.2
13748	14.1	1.2	0.	2284.4
13749	14.	1.2	5.e-002	9.0849
13750	14.	1.5	0.	2314.4
13751	14.1	1.4	0.	2288.3
13752	14.	1.4	5.e-002	8.9755
13753	14.	1.7	0.	2317.
13754	14.1	1.6	0.	2291.6
13755	14.	1.6	5.e-002	8.8632
13756	14.	1.9	0.	2319.1
13757	14.1	1.8	0.	2294.2
13758	14.	1.8	5.e-002	8.7525
13759	14.	2.1	0.	2320.8
13760	14.1	2.	0.	2296.3
13761	14.	2.	5.e-002	8.648
13762	14.	2.3	0.	2321.9
13763	14.1	2.2	0.	2297.9
13764	14.	2.2	5.e-002	8.5543
13765	14.	2.5	0.	2322.8
13766	14.1	2.4	0.	2299.1
13767	14.	2.4	5.e-002	8.476
13768	14.	2.7	0.	2323.3
13769	14.1	2.6	0.	2299.8
13770	14.	2.6	5.e-002	8.4168
13771	14.	2.9	0.	2323.5
13772	14.1	2.8	0.	2300.3
13773	14.	2.8	5.e-002	8.3799
13774	14.	3.1	0.	2323.5
13775	14.1	3.	0.	2300.4
13776	14.	3.	5.e-002	8.3674
13777	14.	3.3	0.	2323.3
13778	14.1	3.2	0.	2300.3
13779	14.	3.2	5.e-002	8.3799
13780	14.	3.5	0.	2322.8
13781	14.1	3.4	0.	2299.8
13782	14.	3.4	5.e-002	8.4168
13783	14.	3.7	0.	2321.9
13784	14.1	3.6	0.	2299.1
13785	14.	3.6	5.e-002	8.476
13786	14.	3.9	0.	2320.8
13787	14.1	3.8	0.	2297.9
13788	14.	3.8	5.e-002	8.5543
13789	14.	4.1	0.	2319.1
13790	14.1	4.	0.	2296.3
13791	14.	4.	5.e-002	8.648
13792	14.	4.3	0.	2317.
13793	14.1	4.2	0.	2294.2
13794	14.	4.2	5.e-002	8.7525
13795	14.	4.5	0.	2314.4
13796	14.1	4.4	0.	2291.6
13797	14.	4.4	5.e-002	8.8632
13798	14.	4.7	0.	2311.2
13799	14.1	4.6	0.	2288.3
13800	14.	4.6	5.e-002	8.9755
13801	14.	4.9	0.	2307.5
13802	14.1	4.8	0.	2284.4
13803	14.	4.8	5.e-002	9.0849
13804	14.	5.1	0.	2303.4
13805	14.1	5.	0.	2279.9
13806	14.	5.	5.e-002	9.1866
13807	14.	5.3	0.	2298.8
13808	14.1	5.2	0.	2275.
13809	14.	5.2	5.e-002	9.2742
13810	14.	5.5	0.	2294.1
13811	14.1	5.4	0.	2269.8
13812	14.	5.4	5.e-002	9.3151
13813	14.	5.7	0.	2290.2
13814	14.1	5.6	0.	2264.5
13815	14.	5.6	5.e-002	8.9201
13816	14.1	5.8	0.	2260.8
13817	14.	5.8	5.e-002	2.9514
13818	14.	5.9	0.	2281.7
13819	14.2	0.3	0.	2234.9
13820	14.3	0.2	0.	2204.4
13821	14.2	0.2	5.e-002	3.3122
13822	14.2	0.1	0.	2225.6
13823	14.2	0.5	0.	2240.
13824	14.3	0.4	0.	2209.4
13825	14.2	0.4	5.e-002	9.0757
13826	14.2	0.7	0.	2245.9
13827	14.3	0.6	0.	2216.
13828	14.2	0.6	5.e-002	9.4386
13829	14.2	0.9	0.	2251.5
13830	14.3	0.8	0.	2222.5
13831	14.2	0.8	5.e-002	9.3731
13832	14.2	1.1	0.	2256.7
13833	14.3	1.	0.	2228.6
13834	14.2	1.	5.e-002	9.2576
13835	14.2	1.3	0.	2261.4
13836	14.3	1.2	0.	2234.2
13837	14.2	1.2	5.e-002	9.1252
13838	14.2	1.5	0.	2265.4
13839	14.3	1.4	0.	2239.1
13840	14.2	1.4	5.e-002	8.9832
13841	14.2	1.7	0.	2268.7
13842	14.3	1.6	0.	2243.2
13843	14.2	1.6	5.e-002	8.8373
13844	14.2	1.9	0.	2271.4
13845	14.3	1.8	0.	2246.7
13846	14.2	1.8	5.e-002	8.6933
13847	14.2	2.1	0.	2273.5
13848	14.3	2.	0.	2249.4
13849	14.2	2.	5.e-002	8.557
13850	14.2	2.3	0.	2275.1
13851	14.3	2.2	0.	2251.4
13852	14.2	2.2	5.e-002	8.4346
13853	14.2	2.5	0.	2276.1
13854	14.3	2.4	0.	2252.9
13855	14.2	2.4	5.e-002	8.3317
13856	14.2	2.7	0.	2276.8
13857	14.3	2.6	0.	2253.9
13858	14.2	2.6	5.e-002	8.2538
13859	14.2	2.9	0.	2277.1
13860	14.3	2.8	0.	2254.5
13861	14.2	2.8	5.e-002	8.2052
13862	14.2	3.1	0.	2277.1
13863	14.3	3.	0.	2254.7
13864	14.2	3.	5.e-002	8.1886
13865	14.2	3.3	0.	2276.8
13866	14.3	3.2	0.	2254.5
13867	14.2	3.2	5.e-002	8.2052
13868	14.2	3.5	0.	2276.1
13869	14.3	3.4	0.	2253.9
13870	14.2	3.4	5.e-002	8.2538
13871	14.2	3.7	0.	2275.1
13872	14.3	3.6	0.	2252.9
13873	14.2	3.6	5.e-002	8.3317
13874	14.2	3.9	0.	2273.5
13875	14.3	3.8	0.	2251.4
13876	14.2	3.8	5.e-002	8.4346
13877	14.2	4.1	0.	2271.4
13878	14.3	4.	0.	2249.4
13879	14.2	4.	5.e-002	8.557
13880	14.2	4.3	0.	2268.7
13881	14.3	4.2	0.	2246.7
13882	14.2	4.2	5.e-002	8.6933
13883	14.2	4.5	0.	2265.4
13884	14.3	4.4	0.	2243.2
13885	14.2	4.4	5.e-002	8.8373
13886	14.2	4.7	0.	2261.4
13887	14.3	4.6	0.	2239.1
13888	14.2	4.6	5.e-002	8.9832
13889	14.2	4.9	0.	2256.7
13890	14.3	4.8	0.	2234.2
13891	14.2	4.8	5.e-002	9.1252
13892	14.2	5.1	0.	2251.5
13893	14.3	5.	0.	2228.6
13894	14.2	5.	5.e-002	9.2576
13895	14.2	5.3	0.	2245.9
13896	14.3	5.2	0.	2222.5
13897	14.2	5.2	5.e-002	9.3731
13898	14.2	5.5	0.	2240.
13899	14.3	5.4	0.	2216.
13900	14.2	5.4	5.e-002	9.4386
13901	14.2	5.7	0.	2234.9
13902	14.3	5.6	0.	2209.4
13903	14.2	5.6	5.e-002	9.0757
13904	14.3	5.8	0.	2204.4
13905	14.2	5.8	5.e-002	3.3122
13906	14.2	5.9	0.	2225.6
13907	14.4	0.3	0.	2178.8
13908	14.5	0.2	0.	2146.9
13909	14.4	0.2	5.e-002	3.7542
13910	14.4	0.1	0.	2168.5
13911	14.4	0.5	0.	2185.3
13912	14.5	0.4	0.	2153.5
13913	14.4	0.4	5.e-002	9.2826
13914	14.4	0.7	0.	2192.6
13915	14.5	0.6	0.	2161.7
13916	14.4	0.6	5.e-002	9.6057
13917	14.4	0.9	0.	2199.6
13918	14.5	0.8	0.	2169.7
13919	14.4	0.8	5.e-002	9.5088
13920	14.4	1.1	0.	2206.1
13921	14.5	1.	0.	2177.3
13922	14.4	1.	5.e-002	9.358
13923	14.4	1.3	0.	2211.9
13924	14.5	1.2	0.	2184.2
13925	14.4	1.2	5.e-002	9.1865
13926	14.4	1.5	0.	2216.9
13927	14.5	1.4	0.	2190.4
13928	14.4	1.4	5.e-002	9.0029
13929	14.4	1.7	0.	2221.2
13930	14.5	1.6	0.	2195.6
13931	14.4	1.6	5.e-002	8.8142
13932	14.4	1.9	0.	2224.6
13933	14.5	1.8	0.	2200.
13934	14.4	1.8	5.e-002	8.6274
13935	14.4	2.1	0.	2227.3
13936	14.5	2.	0.	2203.4
13937	14.4	2.	5.e-002	8.4501
13938	14.4	2.3	0.	2229.3
13939	14.5	2.2	0.	2206.1
13940	14.4	2.2	5.e-002	8.29
13941	14.4	2.5	0.	2230.7
13942	14.5	2.4	0.	2208.1
13943	14.4	2.4	5.e-002	8.155
13944	14.4	2.7	0.	2231.6
13945	14.5	2.6	0.	2209.4
13946	14.4	2.6	5.e-002	8.0523
13947	14.4	2.9	0.	2232.
13948	14.5	2.8	0.	2210.1
13949	14.4	2.8	5.e-002	7.9879
13950	14.4	3.1	0.	2232.
13951	14.5	3.	0.	2210.4
13952	14.4	3.	5.e-002	7.966
13953	14.4	3.3	0.	2231.6
13954	14.5	3.2	0.	2210.1
13955	14.4	3.2	5.e-002	7.9879
13956	14.4	3.5	0.	2230.7
13957	14.5	3.4	0.	2209.4
13958	14.4	3.4	5.e-002	8.0523
13959	14.4	3.7	0.	2229.3
13960	14.5	3.6	0.	2208.1
13961	14.4	3.6	5.e-002	8.155
13962	14.4	3.9	0.	2227.3
13963	14.5	3.8	0.	2206.1
13964	14.4	3.8	5.e-002	8.29
13965	14.4	4.1	0.	2224.6
13966	14.5	4.	0.	2203.4
13967	14.4	4.	5.e-002	8.4501
13968	14.4	4.3	0.	2221.2
13969	14.5	4.2	0.	2200.
13970	14.4	4.2	5.e-002	8.6274
13971	14.4	4.5	0.	2216.9
13972	14.5	4.4	0.	2195.6
13973	14.4	4.4	5.e-002	8.8142
13974	14.4	4.7	0.	2211.9
13975	14.5	4.6	0.	2190.4
13976	14.4	4.6	5.e-002	9.0029
13977	14.4	4.9	0.	2206.1
13978	14.5	4.8	0.	2184.2
13979	14.4	4.8	5.e-002	9.1865
13980	14.4	5.1	0.	2199.6
13981	14.5	5.	0.	2177.3
13982	14.4	5.	5.e-002	9.358
13983	14.4	5.3	0.	2192.6
13984	14.5	5.2	0.	2169.7
13985	14.4	5.2	5.e-002	9.5088
13986	14.4	5.5	0.	2185.3
13987	14.5	5.4	0.	2161.7
13988	14.4	5.4	5.e-002	9.6057
13989	14.4	5.7	0.	2178.8
13990	14.5	5.6	0.	2153.5
13991	14.4	5.6	5.e-002	9.2826
13992	14.5	5.8	0.	2146.9
13993	14.4	5.8	5.e-002	3.7542
13994	14.4	5.9	0.	2168.5
13995	14.6	0.3	0.	2121.5
13996	14.7	0.2	0.	2088.
13997	14.6	0.2	5.e-002	4.2955
13998	14.6	0.1	0.	2110.1
13999	14.6	0.5	0.	2129.8
14000	14.7	0.4	0.	2096.5
14001	14.6	0.4	5.e-002	9.5538
14002	14.6	0.7	0.	2138.7
14003	14.7	0.6	0.	2106.5
14004	14.6	0.6	5.e-002	9.8281
14005	14.6	0.9	0.	2147.4
14006	14.7	0.8	0.	2116.3
14007	14.6	0.8	5.e-002	9.6913
14008	14.6	1.1	0.	2155.4
14009	14.7	1.	0.	2125.7
14010	14.6	1.	5.e-002	9.4957
14011	14.6	1.3	0.	2162.7
14012	14.7	1.2	0.	2134.4
14013	14.6	1.2	5.e-002	9.2749
14014	14.6	1.5	0.	2169.
14015	14.7	1.4	0.	2142.1
14016	14.6	1.4	5.e-002	9.0385
14017	14.6	1.7	0.	2174.4
14018	14.7	1.6	0.	2148.7
14019	14.6	1.6	5.e-002	8.7952
14020	14.6	1.9	0.	2178.8
14021	14.7	1.8	0.	2154.3
14022	14.6	1.8	5.e-002	8.5537
14023	14.6	2.1	0.	2182.3
14024	14.7	2.	0.	2158.8
14025	14.6	2.	5.e-002	8.3233
14026	14.6	2.3	0.	2184.9
14027	14.7	2.2	0.	2162.2
14028	14.6	2.2	5.e-002	8.1141
14029	14.6	2.5	0.	2186.7
14030	14.7	2.4	0.	2164.8
14031	14.6	2.4	5.e-002	7.9366
14032	14.6	2.7	0.	2187.9
14033	14.7	2.6	0.	2166.5
14034	14.6	2.6	5.e-002	7.8007
14035	14.6	2.9	0.	2188.5
14036	14.7	2.8	0.	2167.5
14037	14.6	2.8	5.e-002	7.7153
14038	14.6	3.1	0.	2188.5
14039	14.7	3.	0.	2167.9
14040	14.6	3.	5.e-002	7.6861
14041	14.6	3.3	0.	2187.9
14042	14.7	3.2	0.	2167.5
14043	14.6	3.2	5.e-002	7.7153
14044	14.6	3.5	0.	2186.7
14045	14.7	3.4	0.	2166.5
14046	14.6	3.4	5.e-002	7.8007
14047	14.6	3.7	0.	2184.9
14048	14.7	3.6	0.	2164.8
14049	14.6	3.6	5.e-002	7.9366
14050	14.6	3.9	0.	2182.3
14051	14.7	3.8	0.	2162.2
14052	14.6	3.8	5.e-002	8.1141
14053	14.6	4.1	0.	2178.8
14054	14.7	4.	0.	2158.8
14055	14.6	4.	5.e-002	8.3233
14056	14.6	4.3	0.	2174.4
14057	14.7	4.2	0.	2154.3
14058	14.6	4.2	5.e-002	8.5537
14059	14.6	4.5	0.	2169.
14060	14.7	4.4	0.	2148.7
14061	14.6	4.4	5.e-002	8.7952
14062	14.6	4.7	0.	2162.7
14063	14.7	4.6	0.	2142.1
14064	14.6	4.6	5.e-002	9.0385
14065	14.6	4.9	0.	2155.4
14066	14.7	4.8	0.	2134.4
14067	14.6	4.8	5.e-002	9.2749
14068	14.6	5.1	0.	2147.4
14069	14.7	5.	0.	2125.7
14070	14.6	5.	5.e-002	9.4957
14071	14.6	5.3	0.	2138.7
14072	14.7	5.2	0.	2116.3
14073	14.6	5.2	5.e-002	9.6913
14074	14.6	5.5	0.	2129.8
14075	14.7	5.4	0.	2106.5
14076	14.6	5.4	5.e-002	9.8281
14077	14.6	5.7	0.	2121.5
14078	14.7	5.6	0.	2096.5
14079	14.6	5.6	5.e-002	9.5538
14080	14.7	5.8	0.	2088.
14081	14.6	5.8	5.e-002	4.2955
14082	14.6	5.9	0.	2110.1
14083	14.8	0.3	0.	2062.8
14084	14.9	0.2	0.	2027.1
14085	14.8	0.2	5.e-002	4.9581
14086	14.8	0.1	0.	2050.
14087	14.8	0.5	0.	2073.1
14088	14.9	0.4	0.	2037.9
14089	14.8	0.4	5.e-002	9.9058
14090	14.8	0.7	0.	2084.1
14091	14.9	0.6	0.	2050.1
14092	14.8	0.6	5.e-002	10.12
14093	14.8	0.9	0.	2094.7
14094	14.9	0.8	0.	2062.2
14095	14.8	0.8	5.e-002	9.9331
14096	14.8	1.1	0.	2104.7
14097	14.9	1.	0.	2073.8
14098	14.8	1.	5.e-002	9.6812
14099	14.8	1.3	0.	2113.8
14100	14.9	1.2	0.	2084.6
14101	14.8	1.2	5.e-002	9.3982
14102	14.8	1.5	0.	2121.8
14103	14.9	1.4	0.	2094.3
14104	14.8	1.4	5.e-002	9.0954
14105	14.8	1.7	0.	2128.6
14106	14.9	1.6	0.	2102.7
14107	14.8	1.6	5.e-002	8.7829
14108	14.8	1.9	0.	2134.3
14109	14.9	1.8	0.	2109.9
14110	14.8	1.8	5.e-002	8.4714
14111	14.8	2.1	0.	2138.7
14112	14.9	2.	0.	2115.7
14113	14.8	2.	5.e-002	8.1725
14114	14.8	2.3	0.	2142.2
14115	14.9	2.2	0.	2120.2
14116	14.8	2.2	5.e-002	7.8991
14117	14.8	2.5	0.	2144.6
14118	14.9	2.4	0.	2123.6
14119	14.8	2.4	5.e-002	7.6652
14120	14.8	2.7	0.	2146.2
14121	14.9	2.6	0.	2125.9
14122	14.8	2.6	5.e-002	7.4848
14123	14.8	2.9	0.	2146.9
14124	14.9	2.8	0.	2127.2
14125	14.8	2.8	5.e-002	7.3707
14126	14.8	3.1	0.	2146.9
14127	14.9	3.	0.	2127.6
14128	14.8	3.	5.e-002	7.3316
14129	14.8	3.3	0.	2146.2
14130	14.9	3.2	0.	2127.2
14131	14.8	3.2	5.e-002	7.3707
14132	14.8	3.5	0.	2144.6
14133	14.9	3.4	0.	2125.9
14134	14.8	3.4	5.e-002	7.4848
14135	14.8	3.7	0.	2142.2
14136	14.9	3.6	0.	2123.6
14137	14.8	3.6	5.e-002	7.6652
14138	14.8	3.9	0.	2138.7
14139	14.9	3.8	0.	2120.2
14140	14.8	3.8	5.e-002	7.8991
14141	14.8	4.1	0.	2134.3
14142	14.9	4.	0.	2115.7
14143	14.8	4.	5.e-002	8.1725
14144	14.8	4.3	0.	2128.6
14145	14.9	4.2	0.	2109.9
14146	14.8	4.2	5.e-002	8.4714
14147	14.8	4.5	0.	2121.8
14148	14.9	4.4	0.	2102.7
14149	14.8	4.4	5.e-002	8.7829
14150	14.8	4.7	0.	2113.8
14151	14.9	4.6	0.	2094.3
14152	14.8	4.6	5.e-002	9.0954
14153	14.8	4.9	0.	2104.7
14154	14.9	4.8	0.	2084.6
14155	14.8	4.8	5.e-002	9.3982
14156	14.8	5.1	0.	2094.7
14157	14.9	5.	0.	2073.8
14158	14.8	5.	5.e-002	9.6812
14159	14.8	5.3	0.	2084.1
14160	14.9	5.2	0.	2062.2
14161	14.8	5.2	5.e-002	9.9331
14162	14.8	5.5	0.	2073.1
14163	14.9	5.4	0.	2050.1
14164	14.8	5.4	5.e-002	10.12
14165	14.8	5.7	0.	2062.8
14166	14.9	5.6	0.	2037.9
14167	14.8	5.6	5.e-002	9.9058
14168	14.9	5.8	0.	2027.1
14169	14.8	5.8	5.e-002	4.9581
14170	14.8	5.9	0.	2050.
14171	15.	0.3	0.	2002.1
14172	15.1	0.2	0.	1963.8
14173	15.	0.2	5.e-002	5.7683
14174	15.	0.1	0.	1987.6
14175	15.	0.5	0.	2014.8
14176	15.1	0.4	0.	1977.2
14177	15.	0.4	5.e-002	10.358
14178	15.	0.7	0.	2028.2
14179	15.1	0.6	0.	1992.1
14180	15.	0.6	5.e-002	10.499
14181	15.	0.9	0.	2041.3
14182	15.1	0.8	0.	2006.9
14183	15.	0.8	5.e-002	10.25
14184	15.	1.1	0.	2053.7
14185	15.1	1.	0.	2021.3
14186	15.	1.	5.e-002	9.9281
14187	15.	1.3	0.	2065.1
14188	15.1	1.2	0.	2034.8
14189	15.	1.2	5.e-002	9.5674
14190	15.	1.5	0.	2075.2
14191	15.1	1.4	0.	2047.
14192	15.	1.4	5.e-002	9.1812
14193	15.	1.7	0.	2084.
14194	15.1	1.6	0.	2057.8
14195	15.	1.6	5.e-002	8.7815
14196	15.	1.9	0.	2091.3
14197	15.1	1.8	0.	2066.9
14198	15.	1.8	5.e-002	8.3811
14199	15.	2.1	0.	2097.1
14200	15.1	2.	0.	2074.5
14201	15.	2.	5.e-002	7.994
14202	15.	2.3	0.	2101.6
14203	15.1	2.2	0.	2080.4
14204	15.	2.2	5.e-002	7.6365
14205	15.	2.5	0.	2104.8
14206	15.1	2.4	0.	2084.9
14207	15.	2.4	5.e-002	7.3273
14208	15.	2.7	0.	2106.9
14209	15.1	2.6	0.	2087.9
14210	15.	2.6	5.e-002	7.0865
14211	15.	2.9	0.	2107.9
14212	15.1	2.8	0.	2089.7
14213	15.	2.8	5.e-002	6.9327
14214	15.	3.1	0.	2107.9
14215	15.1	3.	0.	2090.3
14216	15.	3.	5.e-002	6.8798
14217	15.	3.3	0.	2106.9
14218	15.1	3.2	0.	2089.7
14219	15.	3.2	5.e-002	6.9327
14220	15.	3.5	0.	2104.8
14221	15.1	3.4	0.	2087.9
14222	15.	3.4	5.e-002	7.0865
14223	15.	3.7	0.	2101.6
14224	15.1	3.6	0.	2084.9
14225	15.	3.6	5.e-002	7.3273
14226	15.	3.9	0.	2097.1
14227	15.1	3.8	0.	2080.4
14228	15.	3.8	5.e-002	7.6365
14229	15.	4.1	0.	2091.3
14230	15.1	4.	0.	2074.5
14231	15.	4.	5.e-002	7.994
14232	15.	4.3	0.	2084.
14233	15.1	4.2	0.	2066.9
14234	15.	4.2	5.e-002	8.3811
14235	15.	4.5	0.	2075.2
14236	15.1	4.4	0.	2057.8
14237	15.	4.4	5.e-002	8.7815
14238	15.	4.7	0.	2065.1
14239	15.1	4.6	0.	2047.
14240	15.	4.6	5.e-002	9.1812
14241	15.	4.9	0.	2053.7
14242	15.1	4.8	0.	2034.8
14243	15.	4.8	5.e-002	9.5674
14244	15.	5.1	0.	2041.3
14245	15.1	5.	0.	2021.3
14246	15.	5.	5.e-002	9.9281
14247	15.	5.3	0.	2028.2
14248	15.1	5.2	0.	2006.9
14249	15.	5.2	5.e-002	10.25
14250	15.	5.5	0.	2014.8
14251	15.1	5.4	0.	1992.1
14252	15.	5.4	5.e-002	10.499
14253	15.	5.7	0.	2002.1
14254	15.1	5.6	0.	1977.2
14255	15.	5.6	5.e-002	10.358
14256	15.1	5.8	0.	1963.8
14257	15.	5.8	5.e-002	5.7683
14258	15.	5.9	0.	1987.6
14259	15.2	0.3	0.	1938.7
14260	15.3	0.2	0.	1897.2
14261	15.2	0.2	5.e-002	6.7577
14262	15.2	0.1	0.	1922.4
14263	15.2	0.5	0.	1954.4
14264	15.3	0.4	0.	1913.8
14265	15.2	0.4	5.e-002	10.936
14266	15.2	0.7	0.	1970.8
14267	15.3	0.6	0.	1931.8
14268	15.2	0.6	5.e-002	10.988
14269	15.2	0.9	0.	1986.9
14270	15.3	0.8	0.	1950.1
14271	15.2	0.8	5.e-002	10.663
14272	15.2	1.1	0.	2002.4
14273	15.3	1.	0.	1967.9
14274	15.2	1.	5.e-002	10.254
14275	15.2	1.3	0.	2016.7
14276	15.3	1.2	0.	1984.8
14277	15.2	1.2	5.e-002	9.797
14278	15.2	1.5	0.	2029.5
14279	15.3	1.4	0.	2000.3
14280	15.2	1.4	5.e-002	9.3069
14281	15.2	1.7	0.	2040.7
14282	15.3	1.6	0.	2014.
14283	15.2	1.6	5.e-002	8.7981
14284	15.2	1.9	0.	2050.2
14285	15.3	1.8	0.	2025.9
14286	15.2	1.8	5.e-002	8.2855
14287	15.2	2.1	0.	2057.8
14288	15.3	2.	0.	2035.7
14289	15.2	2.	5.e-002	7.7855
14290	15.2	2.3	0.	2063.7
14291	15.3	2.2	0.	2043.5
14292	15.2	2.2	5.e-002	7.3181
14293	15.2	2.5	0.	2068.
14294	15.3	2.4	0.	2049.4
14295	15.2	2.4	5.e-002	6.9079
14296	15.2	2.7	0.	2070.8
14297	15.3	2.6	0.	2053.6
14298	15.2	2.6	5.e-002	6.5835
14299	15.2	2.9	0.	2072.1
14300	15.3	2.8	0.	2056.
14301	15.2	2.8	5.e-002	6.3739
14302	15.2	3.1	0.	2072.1
14303	15.3	3.	0.	2056.8
14304	15.2	3.	5.e-002	6.3013
14305	15.2	3.3	0.	2070.8
14306	15.3	3.2	0.	2056.
14307	15.2	3.2	5.e-002	6.3739
14308	15.2	3.5	0.	2068.
14309	15.3	3.4	0.	2053.6
14310	15.2	3.4	5.e-002	6.5835
14311	15.2	3.7	0.	2063.7
14312	15.3	3.6	0.	2049.4
14313	15.2	3.6	5.e-002	6.9079
14314	15.2	3.9	0.	2057.8
14315	15.3	3.8	0.	2043.5
14316	15.2	3.8	5.e-002	7.3181
14317	15.2	4.1	0.	2050.2
14318	15.3	4.	0.	2035.7
14319	15.2	4.	5.e-002	7.7855
14320	15.2	4.3	0.	2040.7
14321	15.3	4.2	0.	2025.9
14322	15.2	4.2	5.e-002	8.2855
14323	15.2	4.5	0.	2029.5
14324	15.3	4.4	0.	2014.
14325	15.2	4.4	5.e-002	8.7981
14326	15.2	4.7	0.	2016.7
14327	15.3	4.6	0.	2000.3
14328	15.2	4.6	5.e-002	9.3069
14329	15.2	4.9	0.	2002.4
14330	15.3	4.8	0.	1984.8
14331	15.2	4.8	5.e-002	9.797
14332	15.2	5.1	0.	1986.9
14333	15.3	5.	0.	1967.9
14334	15.2	5.	5.e-002	10.254
14335	15.2	5.3	0.	1970.8
14336	15.3	5.2	0.	1950.1
14337	15.2	5.2	5.e-002	10.663
14338	15.2	5.5	0.	1954.4
14339	15.3	5.4	0.	1931.8
14340	15.2	5.4	5.e-002	10.988
14341	15.2	5.7	0.	1938.7
14342	15.3	5.6	0.	1913.8
14343	15.2	5.6	5.e-002	10.936
14344	15.3	5.8	0.	1897.2
14345	15.2	5.8	5.e-002	6.7577
14346	15.2	5.9	0.	1922.4
14347	15.4	0.3	0.	1872.1
14348	15.5	0.2	0.	1826.6
14349	15.4	0.2	5.e-002	7.9627
14350	15.4	0.1	0.	1853.4
14351	15.4	0.5	0.	1891.2
14352	15.5	0.4	0.	1846.8
14353	15.4	0.4	5.e-002	11.667
14354	15.4	0.7	0.	1911.1
14355	15.5	0.6	0.	1868.7
14356	15.4	0.6	5.e-002	11.615
14357	15.4	0.9	0.	1931.1
14358	15.5	0.8	0.	1891.
14359	15.4	0.8	5.e-002	11.197
14360	15.4	1.1	0.	1950.3
14361	15.5	1.	0.	1913.2
14362	15.4	1.	5.e-002	10.682
14363	15.4	1.3	0.	1968.4
14364	15.5	1.2	0.	1934.4
14365	15.4	1.2	5.e-002	10.107
14366	15.4	1.5	0.	1984.8
14367	15.5	1.4	0.	1954.1
14368	15.4	1.4	5.e-002	9.4884
14369	15.4	1.7	0.	1999.2
14370	15.5	1.6	0.	1971.8
14371	15.4	1.6	5.e-002	8.8443
14372	15.4	1.9	0.	2011.4
14373	15.5	1.8	0.	1987.1
14374	15.4	1.8	5.e-002	8.1916
14375	15.4	2.1	0.	2021.4
14376	15.5	2.	0.	2000.
14377	15.4	2.	5.e-002	7.5486
14378	15.4	2.3	0.	2029.3
14379	15.5	2.2	0.	2010.3
14380	15.4	2.2	5.e-002	6.9382
14381	15.4	2.5	0.	2035.
14382	15.5	2.4	0.	2018.2
14383	15.4	2.4	5.e-002	6.3919
14384	15.4	2.7	0.	2038.7
14385	15.5	2.6	0.	2023.7
14386	15.4	2.6	5.e-002	5.9503
14387	15.4	2.9	0.	2040.6
14388	15.5	2.8	0.	2027.
14389	15.4	2.8	5.e-002	5.6594
14390	15.4	3.1	0.	2040.6
14391	15.5	3.	0.	2028.1
14392	15.4	3.	5.e-002	5.5573
14393	15.4	3.3	0.	2038.7
14394	15.5	3.2	0.	2027.
14395	15.4	3.2	5.e-002	5.6594
14396	15.4	3.5	0.	2035.
14397	15.5	3.4	0.	2023.7
14398	15.4	3.4	5.e-002	5.9503
14399	15.4	3.7	0.	2029.3
14400	15.5	3.6	0.	2018.2
14401	15.4	3.6	5.e-002	6.3919
14402	15.4	3.9	0.	2021.4
14403	15.5	3.8	0.	2010.3
14404	15.4	3.8	5.e-002	6.9382
14405	15.4	4.1	0.	2011.4
14406	15.5	4.	0.	2000.
14407	15.4	4.	5.e-002	7.5486
14408	15.4	4.3	0.	1999.2
14409	15.5	4.2	0.	1987.1
14410	15.4	4.2	5.e-002	8.1916
14411	15.4	4.5	0.	1984.8
14412	15.5	4.4	0.	1971.8
14413	15.4	4.4	5.e-002	8.8443
14414	15.4	4.7	0.	1968.4
14415	15.5	4.6	0.	1954.1
14416	15.4	4.6	5.e-002	9.4884
14417	15.4	4.9	0.	1950.3
14418	15.5	4.8	0.	1934.4
14419	15.4	4.8	5.e-002	10.107
14420	15.4	5.1	0.	1931.1
14421	15.5	5.	0.	1913.2
14422	15.4	5.	5.e-002	10.682
14423	15.4	5.3	0.	1911.1
14424	15.5	5.2	0.	1891.
14425	15.4	5.2	5.e-002	11.197
14426	15.4	5.5	0.	1891.2
14427	15.5	5.4	0.	1868.7
14428	15.4	5.4	5.e-002	11.615
14429	15.4	5.7	0.	1872.1
14430	15.5	5.6	0.	1846.8
14431	15.4	5.6	5.e-002	11.667
14432	15.5	5.8	0.	1826.6
14433	15.4	5.8	5.e-002	7.9627
14434	15.4	5.9	0.	1853.4
14435	15.6	0.3	0.	1801.1
14436	15.7	0.2	0.	1750.8
14437	15.6	0.2	5.e-002	9.4243
14438	15.6	0.1	0.	1779.8
14439	15.6	0.5	0.	1824.3
14440	15.7	0.4	0.	1775.2
14441	15.6	0.4	5.e-002	12.586
14442	15.6	0.7	0.	1848.6
14443	15.7	0.6	0.	1801.6
14444	15.6	0.6	5.e-002	12.412
14445	15.6	0.9	0.	1873.2
14446	15.7	0.8	0.	1829.1
14447	15.6	0.8	5.e-002	11.885
14448	15.6	1.1	0.	1897.3
14449	15.7	1.	0.	1856.6
14450	15.6	1.	5.e-002	11.244
14451	15.6	1.3	0.	1920.2
14452	15.7	1.2	0.	1883.4
14453	15.6	1.2	5.e-002	10.524
14454	15.6	1.5	0.	1941.2
14455	15.7	1.4	0.	1908.6
14456	15.6	1.4	5.e-002	9.7484
14457	15.6	1.7	0.	1959.8
14458	15.7	1.6	0.	1931.4
14459	15.6	1.6	5.e-002	8.9387
14460	15.6	1.9	0.	1975.7
14461	15.7	1.8	0.	1951.4
14462	15.6	1.8	5.e-002	8.1143
14463	15.6	2.1	0.	1988.9
14464	15.7	2.	0.	1968.2
14465	15.6	2.	5.e-002	7.2937
14466	15.6	2.3	0.	1999.3
14467	15.7	2.2	0.	1981.9
14468	15.6	2.2	5.e-002	6.5005
14469	15.6	2.5	0.	2006.9
14470	15.7	2.4	0.	1992.4
14471	15.6	2.4	5.e-002	5.7711
14472	15.6	2.7	0.	2012.
14473	15.7	2.6	0.	1999.9
14474	15.6	2.6	5.e-002	5.1616
14475	15.6	2.9	0.	2014.5
14476	15.7	2.8	0.	2004.3
14477	15.6	2.8	5.e-002	4.7462
14478	15.6	3.1	0.	2014.5
14479	15.7	3.	0.	2005.8
14480	15.6	3.	5.e-002	4.5972
14481	15.6	3.3	0.	2012.
14482	15.7	3.2	0.	2004.3
14483	15.6	3.2	5.e-002	4.7462
14484	15.6	3.5	0.	2006.9
14485	15.7	3.4	0.	1999.9
14486	15.6	3.4	5.e-002	5.1616
14487	15.6	3.7	0.	1999.3
14488	15.7	3.6	0.	1992.4
14489	15.6	3.6	5.e-002	5.7711
14490	15.6	3.9	0.	1988.9
14491	15.7	3.8	0.	1981.9
14492	15.6	3.8	5.e-002	6.5005
14493	15.6	4.1	0.	1975.7
14494	15.7	4.	0.	1968.2
14495	15.6	4.	5.e-002	7.2937
14496	15.6	4.3	0.	1959.8
14497	15.7	4.2	0.	1951.4
14498	15.6	4.2	5.e-002	8.1143
14499	15.6	4.5	0.	1941.2
14500	15.7	4.4	0.	1931.4
14501	15.6	4.4	5.e-002	8.9387
14502	15.6	4.7	0.	1920.2
14503	15.7	4.6	0.	1908.6
14504	15.6	4.6	5.e-002	9.7484
14505	15.6	4.9	0.	1897.3
14506	15.7	4.8	0.	1883.4
14507	15.6	4.8	5.e-002	10.524
14508	15.6	5.1	0.	1873.2
14509	15.7	5.	0.	1856.6
14510	15.6	5.	5.e-002	11.244
14511	15.6	5.3	0.	1848.6
14512	15.7	5.2	0.	1829.1
14513	15.6	5.2	5.e-002	11.885
14514	15.6	5.5	0.	1824.3
14515	15.7	5.4	0.	1801.6
14516	15.6	5.4	5.e-002	12.412
14517	15.6	5.7	0.	1801.1
14518	15.7	5.6	0.	1775.2
14519	15.6	5.6	5.e-002	12.586
14520	15.7	5.8	0.	1750.8
14521	15.6	5.8	5.e-002	9.4243
14522	15.6	5.9	0.	1779.8
14523	15.8	0.3	0.	1724.7
14524	15.9	0.2	0.	1668.4
14525	15.8	0.2	5.e-002	11.186
14526	15.8	0.1	0.	1700.2
14527	15.8	0.5	0.	1752.6
14528	15.9	0.4	0.	1697.7
14529	15.8	0.4	5.e-002	13.731
14530	15.8	0.7	0.	1782.2
14531	15.9	0.6	0.	1729.6
14532	15.8	0.6	5.e-002	13.421
14533	15.8	0.9	0.	1812.6
14534	15.9	0.8	0.	1763.2
14535	15.8	0.8	5.e-002	12.77
14536	15.8	1.1	0.	1842.8
14537	15.9	1.	0.	1797.6
14538	15.8	1.	5.e-002	11.979
14539	15.8	1.3	0.	1871.9
14540	15.9	1.2	0.	1831.5
14541	15.8	1.2	5.e-002	11.086
14542	15.8	1.5	0.	1898.9
14543	15.9	1.4	0.	1863.8
14544	15.8	1.4	5.e-002	10.12
14545	15.8	1.7	0.	1923.1
14546	15.9	1.6	0.	1893.3
14547	15.8	1.6	5.e-002	9.1103
14548	15.8	1.9	0.	1943.9
14549	15.9	1.8	0.	1919.4
14550	15.8	1.8	5.e-002	8.0811
14551	15.8	2.1	0.	1961.2
14552	15.9	2.	0.	1941.5
14553	15.8	2.	5.e-002	7.0489
14554	15.8	2.3	0.	1975.
14555	15.9	2.2	0.	1959.6
14556	15.8	2.2	5.e-002	6.0317
14557	15.8	2.5	0.	1985.3
14558	15.9	2.4	0.	1973.7
14559	15.8	2.4	5.e-002	5.0633
14560	15.8	2.7	0.	1992.2
14561	15.9	2.6	0.	1983.7
14562	15.8	2.6	5.e-002	4.2102
14563	15.8	2.9	0.	1995.6
14564	15.9	2.8	0.	1989.8
14565	15.8	2.8	5.e-002	3.5894
14566	15.8	3.1	0.	1995.6
14567	15.9	3.	0.	1991.8
14568	15.8	3.	5.e-002	3.3548
14569	15.8	3.3	0.	1992.2
14570	15.9	3.2	0.	1989.8
14571	15.8	3.2	5.e-002	3.5894
14572	15.8	3.5	0.	1985.3
14573	15.9	3.4	0.	1983.7
14574	15.8	3.4	5.e-002	4.2102
14575	15.8	3.7	0.	1975.
14576	15.9	3.6	0.	1973.7
14577	15.8	3.6	5.e-002	5.0633
14578	15.8	3.9	0.	1961.2
14579	15.9	3.8	0.	1959.6
14580	15.8	3.8	5.e-002	6.0317
14581	15.8	4.1	0.	1943.9
14582	15.9	4.	0.	1941.5
14583	15.8	4.	5.e-002	7.0489
14584	15.8	4.3	0.	1923.1
14585	15.9	4.2	0.	1919.4
14586	15.8	4.2	5.e-002	8.0811
14587	15.8	4.5	0.	1898.9
14588	15.9	4.4	0.	1893.3
14589	15.8	4.4	5.e-002	9.1103
14590	15.8	4.7	0.	1871.9
14591	15.9	4.6	0.	1863.8
14592	15.8	4.6	5.e-002	10.12
14593	15.8	4.9	0.	1842.8
14594	15.9	4.8	0.	1831.5
14595	15.8	4.8	5.e-002	11.086
14596	15.8	5.1	0.	1812.6
14597	15.9	5.	0.	1797.6
14598	15.8	5.	5.e-002	11.979
14599	15.8	5.3	0.	1782.2
14600	15.9	5.2	0.	1763.2
14601	15.8	5.2	5.e-002	12.77
14602	15.8	5.5	0.	1752.6
14603	15.9	5.4	0.	1729.6
14604	15.8	5.4	5.e-002	13.421
14605	15.8	5.7	0.	1724.7
14606	15.9	5.6	0.	1697.7
14607	15.8	5.6	5.e-002	13.731
14608	15.9	5.8	0.	1668.4
14609	15.8	5.8	5.e-002	11.186
14610	15.8	5.9	0.	1700.2
14611	16.	0.3	0.	1641.3
14612	16.1	0.2	0.	1578.1
14613	16.	0.2	5.e-002	13.292
14614	16.	0.1	0.	1613.3
14615	16.	0.5	0.	1674.7
14616	16.1	0.4	0.	1612.7
14617	16.	0.4	5.e-002	15.145
14618	16.	0.7	0.	1710.7
14619	16.1	0.6	0.	1651.
14620	16.	0.6	5.e-002	14.69
14621	16.	0.9	0.	1748.4
14622	16.1	0.8	0.	1692.2
14623	16.	0.8	5.e-002	13.904
14624	16.	1.1	0.	1786.5
14625	16.1	1.	0.	1735.2
14626	16.	1.	5.e-002	12.942
14627	16.	1.3	0.	1823.6
14628	16.1	1.2	0.	1778.4
14629	16.	1.2	5.e-002	11.843
14630	16.	1.5	0.	1858.4
14631	16.1	1.4	0.	1820.
14632	16.	1.4	5.e-002	10.649
14633	16.	1.7	0.	1889.8
14634	16.1	1.6	0.	1858.4
14635	16.	1.6	5.e-002	9.4031
14636	16.	1.9	0.	1917.1
14637	16.1	1.8	0.	1892.4
14638	16.	1.8	5.e-002	8.1404
14639	16.	2.1	0.	1940.
14640	16.1	2.	0.	1921.5
14641	16.	2.	5.e-002	6.8757
14642	16.	2.3	0.	1958.3
14643	16.1	2.2	0.	1945.4
14644	16.	2.2	5.e-002	5.6144
14645	16.	2.5	0.	1972.1
14646	16.1	2.4	0.	1964.2
14647	16.	2.4	5.e-002	4.3704
14648	16.	2.7	0.	1981.4
14649	16.1	2.6	0.	1977.8
14650	16.	2.6	5.e-002	3.1887
14651	16.	2.9	0.	1986.1
14652	16.1	2.8	0.	1986.1
14653	16.	2.8	5.e-002	2.1946
14654	16.	3.1	0.	1986.1
14655	16.1	3.	0.	1988.9
14656	16.	3.	5.e-002	1.7435
14657	16.	3.3	0.	1981.4
14658	16.1	3.2	0.	1986.1
14659	16.	3.2	5.e-002	2.1946
14660	16.	3.5	0.	1972.1
14661	16.1	3.4	0.	1977.8
14662	16.	3.4	5.e-002	3.1887
14663	16.	3.7	0.	1958.3
14664	16.1	3.6	0.	1964.2
14665	16.	3.6	5.e-002	4.3704
14666	16.	3.9	0.	1940.
14667	16.1	3.8	0.	1945.4
14668	16.	3.8	5.e-002	5.6144
14669	16.	4.1	0.	1917.1
14670	16.1	4.	0.	1921.5
14671	16.	4.	5.e-002	6.8757
14672	16.	4.3	0.	1889.8
14673	16.1	4.2	0.	1892.4
14674	16.	4.2	5.e-002	8.1404
14675	16.	4.5	0.	1858.4
14676	16.1	4.4	0.	1858.4
14677	16.	4.4	5.e-002	9.4031
14678	16.	4.7	0.	1823.6
14679	16.1	4.6	0.	1820.
14680	16.	4.6	5.e-002	10.649
14681	16.	4.9	0.	1786.5
14682	16.1	4.8	0.	1778.4
14683	16.	4.8	5.e-002	11.843
14684	16.	5.1	0.	1748.4
14685	16.1	5.	0.	1735.2
14686	16.	5.	5.e-002	12.942
14687	16.	5.3	0.	1710.7
14688	16.1	5.2	0.	1692.2
14689	16.	5.2	5.e-002	13.904
14690	16.	5.5	0.	1674.7
14691	16.1	5.4	0.	1651.
14692	16.	5.4	5.e-002	14.69
14693	16.	5.7	0.	1641.3
14694	16.1	5.6	0.	1612.7
14695	16.	5.6	5.e-002	15.145
14696	16.1	5.8	0.	1578.1
14697	16.	5.8	5.e-002	13.292
14698	16.	5.9	0.	1613.3
14699	16.2	0.3	0.	1549.4
14700	16.3	0.2	0.	1478.1
14701	16.2	0.2	5.e-002	15.775
14702	16.2	0.1	0.	1517.3
14703	16.2	0.5	0.	1589.1
14704	16.3	0.4	0.	1518.5
14705	16.2	0.4	5.e-002	16.869
14706	16.2	0.7	0.	1632.7
14707	16.3	0.6	0.	1564.1
14708	16.2	0.6	5.e-002	16.274
14709	16.2	0.9	0.	1679.4
14710	16.3	0.8	0.	1614.6
14711	16.2	0.8	5.e-002	15.354
14712	16.2	1.1	0.	1727.5
14713	16.3	1.	0.	1668.5
14714	16.2	1.	5.e-002	14.208
14715	16.2	1.3	0.	1775.2
14716	16.3	1.2	0.	1723.7
14717	16.2	1.2	5.e-002	12.871
14718	16.2	1.5	0.	1820.3
14719	16.3	1.4	0.	1777.6
14720	16.2	1.4	5.e-002	11.403
14721	16.2	1.7	0.	1861.3
14722	16.3	1.6	0.	1827.7
14723	16.2	1.6	5.e-002	9.8826
14724	16.2	1.9	0.	1897.
14725	16.3	1.8	0.	1872.3
14726	16.2	1.8	5.e-002	8.3714
14727	16.2	2.1	0.	1927.1
14728	16.3	2.	0.	1910.4
14729	16.2	2.	5.e-002	6.8937
14730	16.2	2.3	0.	1951.4
14731	16.3	2.2	0.	1942.
14732	16.2	2.2	5.e-002	5.4448
14733	16.2	2.5	0.	1969.9
14734	16.3	2.4	0.	1967.
14735	16.2	2.4	5.e-002	4.0235
14736	16.2	2.7	0.	1982.5
14737	16.3	2.6	0.	1985.3
14738	16.2	2.6	5.e-002	2.6466
14739	16.2	2.9	0.	1988.9
14740	16.3	2.8	0.	1996.6
14741	16.2	2.8	5.e-002	1.3379
14742	16.2	3.1	0.	1988.9
14743	16.3	3.	0.	2000.5
14744	16.2	3.	5.e-002	0.34786
14745	16.2	3.3	0.	1982.5
14746	16.3	3.2	0.	1996.6
14747	16.2	3.2	5.e-002	1.3379
14748	16.2	3.5	0.	1969.9
14749	16.3	3.4	0.	1985.3
14750	16.2	3.4	5.e-002	2.6466
14751	16.2	3.7	0.	1951.4
14752	16.3	3.6	0.	1967.
14753	16.2	3.6	5.e-002	4.0235
14754	16.2	3.9	0.	1927.1
14755	16.3	3.8	0.	1942.
14756	16.2	3.8	5.e-002	5.4448
14757	16.2	4.1	0.	1897.
14758	16.3	4.	0.	1910.4
14759	16.2	4.	5.e-002	6.8937
14760	16.2	4.3	0.	1861.3
14761	16.3	4.2	0.	1872.3
14762	16.2	4.2	5.e-002	8.3714
14763	16.2	4.5	0.	1820.3
14764	16.3	4.4	0.	1827.7
14765	16.2	4.4	5.e-002	9.8826
14766	16.2	4.7	0.	1775.2
14767	16.3	4.6	0.	1777.6
14768	16.2	4.6	5.e-002	11.403
14769	16.2	4.9	0.	1727.5
14770	16.3	4.8	0.	1723.7
14771	16.2	4.8	5.e-002	12.871
14772	16.2	5.1	0.	1679.4
14773	16.3	5.	0.	1668.5
14774	16.2	5.	5.e-002	14.208
14775	16.2	5.3	0.	1632.7
14776	16.3	5.2	0.	1614.6
14777	16.2	5.2	5.e-002	15.354
14778	16.2	5.5	0.	1589.1
14779	16.3	5.4	0.	1564.1
14780	16.2	5.4	5.e-002	16.274
14781	16.2	5.7	0.	1549.4
14782	16.3	5.6	0.	1518.5
14783	16.2	5.6	5.e-002	16.869
14784	16.3	5.8	0.	1478.1
14785	16.2	5.8	5.e-002	15.775
14786	16.2	5.9	0.	1517.3
14787	16.4	0.3	0.	1447.
14788	16.5	0.2	0.	1366.4
14789	16.4	0.2	5.e-002	18.653
14790	16.4	0.1	0.	1410.4
14791	16.4	0.5	0.	1493.7
14792	16.5	0.4	0.	1412.8
14793	16.4	0.4	5.e-002	18.938
14794	16.4	0.7	0.	1546.5
14795	16.5	0.6	0.	1467.
14796	16.4	0.6	5.e-002	18.23
14797	16.4	0.9	0.	1604.4
14798	16.5	0.8	0.	1528.7
14799	16.4	0.8	5.e-002	17.203
14800	16.4	1.1	0.	1665.5
14801	16.5	1.	0.	1596.5
14802	16.4	1.	5.e-002	15.877
14803	16.4	1.3	0.	1726.9
14804	16.5	1.2	0.	1667.3
14805	16.4	1.2	5.e-002	14.276
14806	16.4	1.5	0.	1785.6
14807	16.5	1.4	0.	1737.4
14808	16.4	1.4	5.e-002	12.484
14809	16.4	1.7	0.	1839.2
14810	16.5	1.6	0.	1803.2
14811	16.4	1.6	5.e-002	10.645
14812	16.4	1.9	0.	1886.1
14813	16.5	1.8	0.	1861.6
14814	16.4	1.8	5.e-002	8.8959
14815	16.4	2.1	0.	1925.6
14816	16.5	2.	0.	1911.6
14817	16.4	2.	5.e-002	7.3038
14818	16.4	2.3	0.	1957.7
14819	16.5	2.2	0.	1953.
14820	16.4	2.2	5.e-002	5.878
14821	16.4	2.5	0.	1982.4
14822	16.5	2.4	0.	1986.2
14823	16.4	2.4	5.e-002	4.6574
14824	16.4	2.7	0.	1999.5
14825	16.5	2.6	0.	2010.8
14826	16.4	2.6	5.e-002	3.7441
14827	16.4	2.9	0.	2008.2
14828	16.5	2.8	0.	2026.1
14829	16.4	2.8	5.e-002	3.218
14830	16.4	3.1	0.	2008.2
14831	16.5	3.	0.	2031.3
14832	16.4	3.	5.e-002	3.056
14833	16.4	3.3	0.	1999.5
14834	16.5	3.2	0.	2026.1
14835	16.4	3.2	5.e-002	3.218
14836	16.4	3.5	0.	1982.4
14837	16.5	3.4	0.	2010.8
14838	16.4	3.4	5.e-002	3.7441
14839	16.4	3.7	0.	1957.7
14840	16.5	3.6	0.	1986.2
14841	16.4	3.6	5.e-002	4.6574
14842	16.4	3.9	0.	1925.6
14843	16.5	3.8	0.	1953.
14844	16.4	3.8	5.e-002	5.878
14845	16.4	4.1	0.	1886.1
14846	16.5	4.	0.	1911.6
14847	16.4	4.	5.e-002	7.3038
14848	16.4	4.3	0.	1839.2
14849	16.5	4.2	0.	1861.6
14850	16.4	4.2	5.e-002	8.8959
14851	16.4	4.5	0.	1785.6
14852	16.5	4.4	0.	1803.2
14853	16.4	4.4	5.e-002	10.645
14854	16.4	4.7	0.	1726.9
14855	16.5	4.6	0.	1737.4
14856	16.4	4.6	5.e-002	12.484
14857	16.4	4.9	0.	1665.5
14858	16.5	4.8	0.	1667.3
14859	16.4	4.8	5.e-002	14.276
14860	16.4	5.1	0.	1604.4
14861	16.5	5.	0.	1596.5
14862	16.4	5.	5.e-002	15.877
14863	16.4	5.3	0.	1546.5
14864	16.5	5.2	0.	1528.7
14865	16.4	5.2	5.e-002	17.203
14866	16.4	5.5	0.	1493.7
14867	16.5	5.4	0.	1467.
14868	16.4	5.4	5.e-002	18.23
14869	16.4	5.7	0.	1447.
14870	16.5	5.6	0.	1412.8
14871	16.4	5.6	5.e-002	18.938
14872	16.5	5.8	0.	1366.4
14873	16.4	5.8	5.e-002	18.653
14874	16.4	5.9	0.	1410.4
14875	16.6	0.3	0.	1332.1
14876	16.7	0.2	0.	1241.1
14877	16.6	0.2	5.e-002	21.903
14878	16.6	0.1	0.	1290.5
14879	16.6	0.5	0.	1386.4
14880	16.7	0.4	0.	1293.4
14881	16.6	0.4	5.e-002	21.366
14882	16.6	0.7	0.	1450.
14883	16.7	0.6	0.	1357.2
14884	16.6	0.6	5.e-002	20.609
14885	16.6	0.9	0.	1522.
14886	16.7	0.8	0.	1432.7
14887	16.6	0.8	5.e-002	19.545
14888	16.6	1.1	0.	1599.7
14889	16.7	1.	0.	1518.1
14890	16.6	1.	5.e-002	18.091
14891	16.6	1.3	0.	1679.3
14892	16.7	1.2	0.	1609.3
14893	16.6	1.2	5.e-002	16.225
14894	16.6	1.5	0.	1756.2
14895	16.7	1.4	0.	1701.2
14896	16.6	1.4	5.e-002	14.049
14897	16.6	1.7	0.	1826.5
14898	16.7	1.6	0.	1787.9
14899	16.6	1.6	5.e-002	11.832
14900	16.6	1.9	0.	1887.8
14901	16.7	1.8	0.	1864.9
14902	16.6	1.8	5.e-002	9.8884
14903	16.6	2.1	0.	1939.5
14904	16.7	2.	0.	1930.1
14905	16.6	2.	5.e-002	8.3909
14906	16.6	2.3	0.	1981.7
14907	16.7	2.2	0.	1984.1
14908	16.6	2.2	5.e-002	7.3275
14909	16.6	2.5	0.	2014.5
14910	16.7	2.4	0.	2027.5
14911	16.6	2.4	5.e-002	6.6941
14912	16.6	2.7	0.	2037.4
14913	16.7	2.6	0.	2060.2
14914	16.6	2.6	5.e-002	6.4716
14915	16.6	2.9	0.	2049.2
14916	16.7	2.8	0.	2080.6
14917	16.6	2.8	5.e-002	6.4938
14918	16.6	3.1	0.	2049.2
14919	16.7	3.	0.	2087.6
14920	16.6	3.	5.e-002	6.533
14921	16.6	3.3	0.	2037.4
14922	16.7	3.2	0.	2080.6
14923	16.6	3.2	5.e-002	6.4938
14924	16.6	3.5	0.	2014.5
14925	16.7	3.4	0.	2060.2
14926	16.6	3.4	5.e-002	6.4716
14927	16.6	3.7	0.	1981.7
14928	16.7	3.6	0.	2027.5
14929	16.6	3.6	5.e-002	6.6941
14930	16.6	3.9	0.	1939.5
14931	16.7	3.8	0.	1984.1
14932	16.6	3.8	5.e-002	7.3275
14933	16.6	4.1	0.	1887.8
14934	16.7	4.	0.	1930.1
14935	16.6	4.	5.e-002	8.3909
14936	16.6	4.3	0.	1826.5
14937	16.7	4.2	0.	1864.9
14938	16.6	4.2	5.e-002	9.8884
14939	16.6	4.5	0.	1756.2
14940	16.7	4.4	0.	1787.9
14941	16.6	4.4	5.e-002	11.832
14942	16.6	4.7	0.	1679.3
14943	16.7	4.6	0.	1701.2
14944	16.6	4.6	5.e-002	14.049
14945	16.6	4.9	0.	1599.7
14946	16.7	4.8	0.	1609.3
14947	16.6	4.8	5.e-002	16.225
14948	16.6	5.1	0.	1522.
14949	16.7	5.	0.	1518.1
14950	16.6	5.	5.e-002	18.091
14951	16.6	5.3	0.	1450.
14952	16.7	5.2	0.	1432.7
14953	16.6	5.2	5.e-002	19.545
14954	16.6	5.5	0.	1386.4
14955	16.7	5.4	0.	1357.2
14956	16.6	5.4	5.e-002	20.609
14957	16.6	5.7	0.	1332.1
14958	16.7	5.6	0.	1293.4
14959	16.6	5.6	5.e-002	21.366
14960	16.7	5.8	0.	1241.1
14961	16.6	5.8	5.e-002	21.903
14962	16.6	5.9	0.	1290.5
14963	16.8	0.3	0.	1202.5
14964	16.9	0.2	0.	1100.5
14965	16.8	0.2	5.e-002	25.445
14966	16.8	0.1	0.	1155.8
14967	16.8	0.5	0.	1264.9
14968	16.9	0.4	0.	1158.3
14969	16.8	0.4	5.e-002	24.127
14970	16.8	0.7	0.	1341.4
14971	16.9	0.6	0.	1233.
14972	16.8	0.6	5.e-002	23.432
14973	16.8	0.9	0.	1430.8
14974	16.9	0.8	0.	1325.1
14975	16.8	0.8	5.e-002	22.478
14976	16.8	1.1	0.	1530.1
14977	16.9	1.	0.	1432.5
14978	16.8	1.	5.e-002	21.041
14979	16.8	1.3	0.	1633.7
14980	16.9	1.2	0.	1550.5
14981	16.8	1.2	5.e-002	18.987
14982	16.8	1.5	0.	1735.
14983	16.9	1.4	0.	1671.8
14984	16.8	1.4	5.e-002	16.384
14985	16.8	1.7	0.	1827.8
14986	16.9	1.6	0.	1787.2
14987	16.8	1.6	5.e-002	13.671
14988	16.8	1.9	0.	1908.1
14989	16.9	1.8	0.	1889.1
14990	16.8	1.8	5.e-002	11.605
14991	16.8	2.1	0.	1975.3
14992	16.9	2.	0.	1974.2
14993	16.8	2.	5.e-002	10.52
14994	16.8	2.3	0.	2030.2
14995	16.9	2.2	0.	2043.7
14996	16.8	2.2	5.e-002	10.149
14997	16.8	2.5	0.	2073.1
14998	16.9	2.4	0.	2099.6
14999	16.8	2.4	5.e-002	10.192
15000	16.8	2.7	0.	2103.2
15001	16.9	2.6	0.	2141.7
15002	16.8	2.6	5.e-002	10.487
15003	16.8	2.9	0.	2118.8
15004	16.9	2.8	0.	2168.
15005	16.8	2.8	5.e-002	10.783
15006	16.8	3.1	0.	2118.8
15007	16.9	3.	0.	2176.9
15008	16.8	3.	5.e-002	10.9
15009	16.8	3.3	0.	2103.2
15010	16.9	3.2	0.	2168.
15011	16.8	3.2	5.e-002	10.783
15012	16.8	3.5	0.	2073.1
15013	16.9	3.4	0.	2141.7
15014	16.8	3.4	5.e-002	10.487
15015	16.8	3.7	0.	2030.2
15016	16.9	3.6	0.	2099.6
15017	16.8	3.6	5.e-002	10.192
15018	16.8	3.9	0.	1975.3
15019	16.9	3.8	0.	2043.7
15020	16.8	3.8	5.e-002	10.149
15021	16.8	4.1	0.	1908.1
15022	16.9	4.	0.	1974.2
15023	16.8	4.	5.e-002	10.52
15024	16.8	4.3	0.	1827.8
15025	16.9	4.2	0.	1889.1
15026	16.8	4.2	5.e-002	11.605
15027	16.8	4.5	0.	1735.
15028	16.9	4.4	0.	1787.2
15029	16.8	4.4	5.e-002	13.671
15030	16.8	4.7	0.	1633.7
15031	16.9	4.6	0.	1671.8
15032	16.8	4.6	5.e-002	16.384
15033	16.8	4.9	0.	1530.1
15034	16.9	4.8	0.	1550.5
15035	16.8	4.8	5.e-002	18.987
15036	16.8	5.1	0.	1430.8
15037	16.9	5.	0.	1432.5
15038	16.8	5.	5.e-002	21.041
15039	16.8	5.3	0.	1341.4
15040	16.9	5.2	0.	1325.1
15041	16.8	5.2	5.e-002	22.478
15042	16.8	5.5	0.	1264.9
15043	16.9	5.4	0.	1233.
15044	16.8	5.4	5.e-002	23.432
15045	16.8	5.7	0.	1202.5
15046	16.9	5.6	0.	1158.3
15047	16.8	5.6	5.e-002	24.127
15048	16.9	5.8	0.	1100.5
15049	16.8	5.8	5.e-002	25.445
15050	16.8	5.9	0.	1155.8
15051	17.	0.3	0.	1056.7
15052	17.1	0.2	0.	943.65
15053	17.	0.2	5.e-002	29.107
15054	17.	0.1	0.	1004.7
15055	17.	0.5	0.	1127.7
15056	17.1	0.4	0.	1006.4
15057	17.	0.4	5.e-002	27.118
15058	17.	0.7	0.	1219.2
15059	17.1	0.6	0.	1093.6
15060	17.	0.6	5.e-002	26.649
15061	17.	0.9	0.	1330.4
15062	17.1	0.8	0.	1205.7
15063	17.	0.8	5.e-002	26.056
15064	17.	1.1	0.	1457.3
15065	17.1	1.	0.	1340.5
15066	17.	1.	5.e-002	24.955
15067	17.	1.3	0.	1593.
15068	17.1	1.2	0.	1492.9
15069	17.	1.2	5.e-002	23.013
15070	17.	1.5	0.	1727.6
15071	17.1	1.4	0.	1654.
15072	17.	1.4	5.e-002	20.031
15073	17.	1.7	0.	1851.
15074	17.1	1.6	0.	1810.6
15075	17.	1.6	5.e-002	16.617
15076	17.	1.9	0.	1956.6
15077	17.1	1.8	0.	1947.4
15078	17.	1.8	5.e-002	14.411
15079	17.	2.1	0.	2043.2
15080	17.1	2.	0.	2058.4
15081	17.	2.	5.e-002	14.257
15082	17.	2.3	0.	2113.3
15083	17.1	2.2	0.	2146.4
15084	17.	2.2	5.e-002	14.895
15085	17.	2.5	0.	2168.1
15086	17.1	2.4	0.	2215.7
15087	17.	2.4	5.e-002	15.47
15088	17.	2.7	0.	2206.
15089	17.1	2.6	0.	2266.6
15090	17.	2.6	5.e-002	15.916
15091	17.	2.9	0.	2225.4
15092	17.1	2.8	0.	2297.
15093	17.	2.8	5.e-002	16.08
15094	17.	3.1	0.	2225.4
15095	17.1	3.	0.	2306.9
15096	17.	3.	5.e-002	16.116
15097	17.	3.3	0.	2206.
15098	17.1	3.2	0.	2297.
15099	17.	3.2	5.e-002	16.08
15100	17.	3.5	0.	2168.1
15101	17.1	3.4	0.	2266.6
15102	17.	3.4	5.e-002	15.916
15103	17.	3.7	0.	2113.3
15104	17.1	3.6	0.	2215.7
15105	17.	3.6	5.e-002	15.47
15106	17.	3.9	0.	2043.2
15107	17.1	3.8	0.	2146.4
15108	17.	3.8	5.e-002	14.895
15109	17.	4.1	0.	1956.6
15110	17.1	4.	0.	2058.4
15111	17.	4.	5.e-002	14.257
15112	17.	4.3	0.	1851.
15113	17.1	4.2	0.	1947.4
15114	17.	4.2	5.e-002	14.411
15115	17.	4.5	0.	1727.6
15116	17.1	4.4	0.	1810.6
15117	17.	4.4	5.e-002	16.617
15118	17.	4.7	0.	1593.
15119	17.1	4.6	0.	1654.
15120	17.	4.6	5.e-002	20.031
15121	17.	4.9	0.	1457.3
15122	17.1	4.8	0.	1492.9
15123	17.	4.8	5.e-002	23.013
15124	17.	5.1	0.	1330.4
15125	17.1	5.	0.	1340.5
15126	17.	5.	5.e-002	24.955
15127	17.	5.3	0.	1219.2
15128	17.1	5.2	0.	1205.7
15129	17.	5.2	5.e-002	26.056
15130	17.	5.5	0.	1127.7
15131	17.1	5.4	0.	1093.6
15132	17.	5.4	5.e-002	26.649
15133	17.	5.7	0.	1056.7
15134	17.1	5.6	0.	1006.4
15135	17.	5.6	5.e-002	27.118
15136	17.1	5.8	0.	943.65
15137	17.	5.8	5.e-002	29.107
15138	17.	5.9	0.	1004.7
15139	17.2	0.3	0.	894.07
15140	17.3	0.2	0.	770.47
15141	17.2	0.2	5.e-002	32.621
15142	17.2	0.1	0.	836.61
15143	17.2	0.5	0.	974.6
15144	17.3	0.4	0.	838.62
15145	17.2	0.4	5.e-002	30.13
15146	17.2	0.7	0.	1084.6
15147	17.3	0.6	0.	941.77
15148	17.2	0.6	5.e-002	30.065
15149	17.2	0.9	0.	1222.4
15150	17.3	0.8	0.	1078.4
15151	17.2	0.8	5.e-002	30.194
15152	17.2	1.1	0.	1384.
15153	17.3	1.	0.	1245.9
15154	17.2	1.	5.e-002	30.028
15155	17.2	1.3	0.	1561.9
15156	17.3	1.2	0.	1440.5
15157	17.2	1.2	5.e-002	28.94
15158	17.2	1.5	0.	1743.6
15159	17.3	1.4	0.	1655.5
15160	17.2	1.4	5.e-002	26.251
15161	17.2	1.7	0.	1911.
15162	17.3	1.6	0.	1872.2
15163	17.2	1.6	5.e-002	21.631
15164	17.2	1.9	0.	2051.1
15165	17.3	1.8	0.	2064.2
15166	17.2	1.8	5.e-002	19.109
15167	17.2	2.1	0.	2162.2
15168	17.3	2.	0.	2210.9
15169	17.2	2.	5.e-002	20.868
15170	17.2	2.3	0.	2248.7
15171	17.3	2.2	0.	2317.7
15172	17.2	2.2	5.e-002	22.717
15173	17.2	2.5	0.	2313.7
15174	17.3	2.4	0.	2398.3
15175	17.2	2.4	5.e-002	23.611
15176	17.2	2.7	0.	2356.6
15177	17.3	2.6	0.	2449.
15178	17.2	2.6	5.e-002	22.999
15179	17.2	2.9	0.	2377.3
15180	17.3	2.8	0.	2474.6
15181	17.2	2.8	5.e-002	22.098
15182	17.2	3.1	0.	2377.3
15183	17.3	3.	0.	2482.1
15184	17.2	3.	5.e-002	21.669
15185	17.2	3.3	0.	2356.6
15186	17.3	3.2	0.	2474.6
15187	17.2	3.2	5.e-002	22.098
15188	17.2	3.5	0.	2313.7
15189	17.3	3.4	0.	2449.
15190	17.2	3.4	5.e-002	22.999
15191	17.2	3.7	0.	2248.7
15192	17.3	3.6	0.	2398.3
15193	17.2	3.6	5.e-002	23.611
15194	17.2	3.9	0.	2162.2
15195	17.3	3.8	0.	2317.7
15196	17.2	3.8	5.e-002	22.717
15197	17.2	4.1	0.	2051.1
15198	17.3	4.	0.	2210.9
15199	17.2	4.	5.e-002	20.868
15200	17.2	4.3	0.	1911.
15201	17.3	4.2	0.	2064.2
15202	17.2	4.2	5.e-002	19.109
15203	17.2	4.5	0.	1743.6
15204	17.3	4.4	0.	1872.2
15205	17.2	4.4	5.e-002	21.631
15206	17.2	4.7	0.	1561.9
15207	17.3	4.6	0.	1655.5
15208	17.2	4.6	5.e-002	26.251
15209	17.2	4.9	0.	1384.
15210	17.3	4.8	0.	1440.5
15211	17.2	4.8	5.e-002	28.94
15212	17.2	5.1	0.	1222.4
15213	17.3	5.	0.	1245.9
15214	17.2	5.	5.e-002	30.028
15215	17.2	5.3	0.	1084.6
15216	17.3	5.2	0.	1078.4
15217	17.2	5.2	5.e-002	30.194
15218	17.2	5.5	0.	974.6
15219	17.3	5.4	0.	941.77
15220	17.2	5.4	5.e-002	30.065
15221	17.2	5.7	0.	894.07
15222	17.3	5.6	0.	838.62
15223	17.2	5.6	5.e-002	30.13
15224	17.3	5.8	0.	770.47
15225	17.2	5.8	5.e-002	32.621
15226	17.2	5.9	0.	836.61
15227	17.4	0.3	0.	716.54
15228	17.5	0.2	0.	583.28
15229	17.4	0.2	5.e-002	35.628
15230	17.4	0.1	0.	651.92
15231	17.4	0.5	0.	810.27
15232	17.5	0.4	0.	662.29
15233	17.4	0.4	5.e-002	32.825
15234	17.4	0.7	0.	943.95
15235	17.5	0.6	0.	789.47
15236	17.4	0.6	5.e-002	33.276
15237	17.4	0.9	0.	1113.6
15238	17.5	0.8	0.	956.52
15239	17.4	0.8	5.e-002	34.505
15240	17.4	1.1	0.	1316.4
15241	17.5	1.	0.	1160.3
15242	17.4	1.	5.e-002	36.18
15243	17.4	1.3	0.	1548.6
15244	17.5	1.2	0.	1402.4
15245	17.4	1.2	5.e-002	37.439
15246	17.4	1.5	0.	1796.5
15247	17.5	1.4	0.	1683.5
15248	17.4	1.4	5.e-002	36.314
15249	17.4	1.7	0.	2032.2
15250	17.5	1.6	0.	2001.4
15251	17.4	1.6	5.e-002	34.324
15252	17.4	1.9	0.	2225.9
15253	17.5	1.8	0.	2301.6
15254	17.4	1.8	5.e-002	26.953
15255	17.4	2.1	0.	2365.9
15256	17.5	2.	0.	2501.1
15257	17.4	2.	5.e-002	34.313
15258	17.4	2.3	0.	2466.
15259	17.5	2.2	0.	2624.
15260	17.4	2.2	5.e-002	38.268
15261	17.4	2.5	0.	2531.9
15262	17.5	2.4	0.	2685.1
15263	17.4	2.4	5.e-002	37.255
15264	17.4	2.7	0.	2565.1
15265	17.5	2.6	0.	2700.6
15266	17.4	2.6	5.e-002	31.666
15267	17.4	2.9	0.	2577.4
15268	17.5	2.8	0.	2696.7
15269	17.4	2.8	5.e-002	27.59
15270	17.4	3.1	0.	2577.4
15271	17.5	3.	0.	2693.6
15272	17.4	3.	5.e-002	26.072
15273	17.4	3.3	0.	2565.1
15274	17.5	3.2	0.	2696.7
15275	17.4	3.2	5.e-002	27.59
15276	17.4	3.5	0.	2531.9
15277	17.5	3.4	0.	2700.6
15278	17.4	3.4	5.e-002	31.666
15279	17.4	3.7	0.	2466.
15280	17.5	3.6	0.	2685.1
15281	17.4	3.6	5.e-002	37.255
15282	17.4	3.9	0.	2365.9
15283	17.5	3.8	0.	2624.
15284	17.4	3.8	5.e-002	38.268
15285	17.4	4.1	0.	2225.9
15286	17.5	4.	0.	2501.1
15287	17.4	4.	5.e-002	34.313
15288	17.4	4.3	0.	2032.2
15289	17.5	4.2	0.	2301.6
15290	17.4	4.2	5.e-002	26.953
15291	17.4	4.5	0.	1796.5
15292	17.5	4.4	0.	2001.4
15293	17.4	4.4	5.e-002	34.324
15294	17.4	4.7	0.	1548.6
15295	17.5	4.6	0.	1683.5
15296	17.4	4.6	5.e-002	36.314
15297	17.4	4.9	0.	1316.4
15298	17.5	4.8	0.	1402.4
15299	17.4	4.8	5.e-002	37.439
15300	17.4	5.1	0.	1113.6
15301	17.5	5.	0.	1160.3
15302	17.4	5.	5.e-002	36.18
15303	17.4	5.3	0.	943.95
15304	17.5	5.2	0.	956.52
15305	17.4	5.2	5.e-002	34.505
15306	17.4	5.5	0.	810.27
15307	17.5	5.4	0.	789.47
15308	17.4	5.4	5.e-002	33.276
15309	17.4	5.7	0.	716.54
15310	17.5	5.6	0.	662.29
15311	17.4	5.6	5.e-002	32.825
15312	17.5	5.8	0.	583.28
15313	17.4	5.8	5.e-002	35.628
15314	17.4	5.9	0.	651.92
15315	17.6	0.3	0.	533.1
15316	17.7	0.2	0.	392.33
15317	17.6	0.2	5.e-002	37.73
15318	17.6	0.1	0.	453.59
15319	17.6	0.5	0.	651.82
15320	17.7	0.4	0.	508.91
15321	17.6	0.4	5.e-002	34.514
15322	17.6	0.7	0.	818.
15323	17.7	0.6	0.	678.96
15324	17.6	0.6	5.e-002	35.46
15325	17.6	0.9	0.	1023.3
15326	17.7	0.8	0.	885.2
15327	17.6	0.8	5.e-002	37.949
15328	17.6	1.1	0.	1269.9
15329	17.7	1.	0.	1128.7
15330	17.6	1.	5.e-002	41.931
15331	17.6	1.3	0.	1563.7
15332	17.7	1.2	0.	1420.7
15333	17.6	1.2	5.e-002	47.198
15334	17.6	1.5	0.	1912.6
15335	17.7	1.4	0.	1780.
15336	17.6	1.4	5.e-002	56.949
15337	17.6	1.7	0.	2286.3
15338	17.7	1.6	0.	2242.9
15339	17.6	1.6	5.e-002	51.364
15340	17.6	1.9	0.	2573.6
15341	17.7	1.8	0.	2858.1
15342	17.6	1.8	5.e-002	70.366
15343	17.6	2.1	0.	2753.8
15344	17.7	2.	0.	3257.3
15345	17.6	2.	5.e-002	59.291
15346	17.6	2.3	0.	2838.
15347	17.7	2.2	0.	3221.8
15348	17.6	2.2	5.e-002	80.599
15349	17.6	2.5	0.	2849.9
15350	17.7	2.4	0.	3120.9
15351	17.6	2.4	5.e-002	54.198
15352	17.6	2.7	0.	2829.3
15353	17.7	2.6	0.	3001.6
15354	17.6	2.6	5.e-002	40.447
15355	17.6	2.9	0.	2810.5
15356	17.7	2.8	0.	2929.9
15357	17.6	2.8	5.e-002	29.484
15358	17.6	3.1	0.	2810.5
15359	17.7	3.	0.	2905.6
15360	17.6	3.	5.e-002	26.338
15361	17.6	3.3	0.	2829.3
15362	17.7	3.2	0.	2929.9
15363	17.6	3.2	5.e-002	29.484
15364	17.6	3.5	0.	2849.9
15365	17.7	3.4	0.	3001.6
15366	17.6	3.4	5.e-002	40.447
15367	17.6	3.7	0.	2838.
15368	17.7	3.6	0.	3120.9
15369	17.6	3.6	5.e-002	54.198
15370	17.6	3.9	0.	2753.8
15371	17.7	3.8	0.	3221.8
15372	17.6	3.8	5.e-002	80.599
15373	17.6	4.1	0.	2573.6
15374	17.7	4.	0.	3257.3
15375	17.6	4.	5.e-002	59.291
15376	17.6	4.3	0.	2286.3
15377	17.7	4.2	0.	2858.1
15378	17.6	4.2	5.e-002	70.366
15379	17.6	4.5	0.	1912.6
15380	17.7	4.4	0.	2242.9
15381	17.6	4.4	5.e-002	51.364
15382	17.6	4.7	0.	1563.7
15383	17.7	4.6	0.	1780.
15384	17.6	4.6	5.e-002	56.949
15385	17.6	4.9	0.	1269.9
15386	17.7	4.8	0.	1420.7
15387	17.6	4.8	5.e-002	47.198
15388	17.6	5.1	0.	1023.3
15389	17.7	5.	0.	1128.7
15390	17.6	5.	5.e-002	41.931
15391	17.6	5.3	0.	818.
15392	17.7	5.2	0.	885.2
15393	17.6	5.2	5.e-002	37.949
15394	17.6	5.5	0.	651.82
15395	17.7	5.4	0.	678.96
15396	17.6	5.4	5.e-002	35.46
15397	17.6	5.7	0.	533.1
15398	17.7	5.6	0.	508.91
15399	17.6	5.6	5.e-002	34.514
15400	17.7	5.8	0.	392.33
15401	17.6	5.8	5.e-002	37.73
15402	17.6	5.9	0.	453.59
15403	17.8	0.3	0.	386.71
15404	17.8	0.2	5.e-002	40.344
15405	17.8	0.1	0.	250.79
15406	17.9	0.2	0.	216.92
15407	17.8	0.5	0.	563.87
15408	17.8	0.4	5.e-002	37.13
15409	17.9	0.4	0.	364.03
15410	17.8	0.7	0.	776.94
15411	17.8	0.6	5.e-002	39.433
15412	17.9	0.6	0.	531.84
15413	17.8	0.9	0.	1024.
15414	17.8	0.8	5.e-002	44.104
15415	17.9	0.8	0.	721.01
15416	17.8	1.1	0.	1317.7
15417	17.8	1.	5.e-002	51.228
15418	17.9	1.	0.	940.53
15419	17.8	1.3	0.	1683.9
15420	17.8	1.2	5.e-002	62.887
15421	17.9	1.2	0.	1206.9
15422	17.8	1.5	0.	2177.6
15423	17.8	1.4	5.e-002	76.753
15424	17.9	1.4	0.	1554.9
15425	17.8	1.7	0.	2872.
15426	17.8	1.6	5.e-002	117.17
15427	17.9	1.6	0.	2017.
15428	17.8	1.9	0.	3529.
15429	17.8	1.8	5.e-002	227.06
15430	17.9	1.8	0.	2949.8
15431	17.8	2.1	0.	3676.
15432	17.8	2.	5.e-002	404.9
15433	17.9	2.	0.	5495.7
15434	17.8	2.3	0.	3492.8
15435	17.8	2.2	5.e-002	174.16
15436	17.8	2.5	0.	3268.6
15437	17.8	2.4	5.e-002	71.223
15438	17.8	2.7	0.	3100.3
15439	17.8	2.6	5.e-002	37.746
15440	17.8	2.9	0.	3023.5
15441	17.8	2.8	5.e-002	23.046
15442	17.8	3.1	0.	3023.5
15443	17.8	3.	5.e-002	19.483
15444	17.8	3.3	0.	3100.3
15445	17.8	3.2	5.e-002	23.046
15446	17.8	3.5	0.	3268.6
15447	17.8	3.4	5.e-002	37.746
15448	17.8	3.7	0.	3492.8
15449	17.8	3.6	5.e-002	71.223
15450	17.8	3.9	0.	3676.
15451	17.8	3.8	5.e-002	174.16
15452	17.8	4.1	0.	3529.
15453	17.8	4.	5.e-002	404.9
15454	17.9	4.	0.	5495.7
15455	17.8	4.3	0.	2872.
15456	17.8	4.2	5.e-002	227.06
15457	17.9	4.2	0.	2949.8
15458	17.8	4.5	0.	2177.6
15459	17.8	4.4	5.e-002	117.17
15460	17.9	4.4	0.	2017.
15461	17.8	4.7	0.	1683.9
15462	17.8	4.6	5.e-002	76.753
15463	17.9	4.6	0.	1554.9
15464	17.8	4.9	0.	1317.7
15465	17.8	4.8	5.e-002	62.887
15466	17.9	4.8	0.	1206.9
15467	17.8	5.1	0.	1024.
15468	17.8	5.	5.e-002	51.228
15469	17.9	5.	0.	940.53
15470	17.8	5.3	0.	776.94
15471	17.8	5.2	5.e-002	44.104
15472	17.9	5.2	0.	721.01
15473	17.8	5.5	0.	563.87
15474	17.8	5.4	5.e-002	39.433
15475	17.9	5.4	0.	531.84
15476	17.8	5.7	0.	386.71
15477	17.8	5.6	5.e-002	37.13
15478	17.9	5.6	0.	364.03
15479	17.8	5.8	5.e-002	40.344
15480	17.8	5.9	0.	250.79
15481	17.9	5.8	0.	216.92
15482	18.361	0.3	0.	283.6
15483	18.458	0.2	0.	276.31
15484	18.361	0.2	5.e-002	29.048
15485	18.361	0.1	0.	178.77
15486	18.264	0.2	0.	164.74
15487	18.361	0.5	0.	411.38
15488	18.458	0.4	0.	357.64
15489	18.361	0.4	5.e-002	26.955
15490	18.264	0.4	0.	275.53
15491	18.361	0.7	0.	563.75
15492	18.458	0.6	0.	477.93
15493	18.361	0.6	5.e-002	29.729
15494	18.264	0.6	0.	397.77
15495	18.361	0.9	0.	742.41
15496	18.458	0.8	0.	623.76
15497	18.361	0.8	5.e-002	34.787
15498	18.264	0.8	0.	534.83
15499	18.361	1.1	0.	960.56
15500	18.458	1.	0.	798.52
15501	18.361	1.	5.e-002	42.281
15502	18.264	1.	0.	695.84
15503	18.361	1.3	0.	1241.3
15504	18.458	1.2	0.	1013.9
15505	18.361	1.2	5.e-002	53.959
15506	18.264	1.2	0.	896.15
15507	18.361	1.5	0.	1638.7
15508	18.458	1.4	0.	1288.2
15509	18.361	1.4	5.e-002	68.969
15510	18.264	1.4	0.	1165.2
15511	18.361	1.7	0.	2223.5
15512	18.458	1.6	0.	1661.2
15513	18.361	1.6	5.e-002	103.93
15514	18.264	1.6	0.	1532.8
15515	18.361	1.9	0.	2915.9
15516	18.458	1.8	0.	2199.1
15517	18.361	1.8	5.e-002	189.87
15518	18.264	1.8	0.	2267.4
15519	18.361	2.1	0.	3308.1
15520	18.458	2.	0.	2728.8
15521	18.361	2.	5.e-002	329.7
15522	18.264	2.	0.	4984.3
15523	18.361	2.3	0.	3299.2
15524	18.458	2.2	0.	2936.9
15525	18.361	2.2	5.e-002	215.72
15526	18.361	2.5	0.	3107.5
15527	18.458	2.4	0.	2897.2
15528	18.361	2.4	5.e-002	85.235
15529	18.361	2.7	0.	2932.
15530	18.458	2.6	0.	2778.9
15531	18.361	2.6	5.e-002	46.704
15532	18.361	2.9	0.	2852.3
15533	18.458	2.8	0.	2703.8
15534	18.361	2.8	5.e-002	30.445
15535	18.361	3.1	0.	2852.3
15536	18.458	3.	0.	2678.3
15537	18.361	3.	5.e-002	26.557
15538	18.361	3.3	0.	2932.
15539	18.458	3.2	0.	2703.8
15540	18.361	3.2	5.e-002	30.445
15541	18.361	3.5	0.	3107.5
15542	18.458	3.4	0.	2778.9
15543	18.361	3.4	5.e-002	46.704
15544	18.361	3.7	0.	3299.2
15545	18.458	3.6	0.	2897.2
15546	18.361	3.6	5.e-002	85.235
15547	18.361	3.9	0.	3308.1
15548	18.458	3.8	0.	2936.9
15549	18.361	3.8	5.e-002	215.72
15550	18.361	4.1	0.	2915.9
15551	18.458	4.	0.	2728.8
15552	18.361	4.	5.e-002	329.7
15553	18.264	4.	0.	4984.3
15554	18.361	4.3	0.	2223.5
15555	18.458	4.2	0.	2199.1
15556	18.361	4.2	5.e-002	189.87
15557	18.264	4.2	0.	2267.4
15558	18.361	4.5	0.	1638.7
15559	18.458	4.4	0.	1661.2
15560	18.361	4.4	5.e-002	103.93
15561	18.264	4.4	0.	1532.8
15562	18.361	4.7	0.	1241.3
15563	18.458	4.6	0.	1288.2
15564	18.361	4.6	5.e-002	68.969
15565	18.264	4.6	0.	1165.2
15566	18.361	4.9	0.	960.56
15567	18.458	4.8	0.	1013.9
15568	18.361	4.8	5.e-002	53.959
15569	18.264	4.8	0.	896.15
15570	18.361	5.1	0.	742.41
15571	18.458	5.	0.	798.52
15572	18.361	5.	5.e-002	42.281
15573	18.264	5.	0.	695.84
15574	18.361	5.3	0.	563.75
15575	18.458	5.2	0.	623.76
15576	18.361	5.2	5.e-002	34.787
15577	18.264	5.2	0.	534.83
15578	18.361	5.5	0.	411.38
15579	18.458	5.4	0.	477.93
15580	18.361	5.4	5.e-002	29.729
15581	18.264	5.4	0.	397.77
15582	18.361	5.7	0.	283.6
15583	18.458	5.6	0.	357.64
15584	18.361	5.6	5.e-002	26.955
15585	18.264	5.6	0.	275.53
15586	18.458	5.8	0.	276.31
15587	18.361	5.8	5.e-002	29.048
15588	18.361	5.9	0.	178.77
15589	18.264	5.8	0.	164.74
15590	18.556	0.3	0.	360.93
15591	18.653	0.2	0.	385.7
15592	18.556	0.2	5.e-002	24.623
15593	18.556	0.1	0.	302.84
15594	18.556	0.5	0.	440.66
15595	18.653	0.4	0.	431.11
15596	18.556	0.4	5.e-002	21.412
15597	18.556	0.7	0.	556.04
15598	18.653	0.6	0.	516.02
15599	18.556	0.6	5.e-002	22.065
15600	18.556	0.9	0.	699.85
15601	18.653	0.8	0.	629.99
15602	18.556	0.8	5.e-002	23.978
15603	18.556	1.1	0.	875.6
15604	18.653	1.	0.	771.19
15605	18.556	1.	5.e-002	27.186
15606	18.556	1.3	0.	1091.
15607	18.653	1.2	0.	942.96
15608	18.556	1.2	5.e-002	31.293
15609	18.556	1.5	0.	1355.5
15610	18.653	1.4	0.	1150.
15611	18.556	1.4	5.e-002	39.42
15612	18.556	1.7	0.	1677.8
15613	18.653	1.6	0.	1396.9
15614	18.556	1.6	5.e-002	42.538
15615	18.556	1.9	0.	2009.9
15616	18.653	1.8	0.	1681.9
15617	18.556	1.8	5.e-002	64.097
15618	18.556	2.1	0.	2313.9
15619	18.653	2.	0.	1955.6
15620	18.556	2.	5.e-002	65.627
15621	18.556	2.3	0.	2504.
15622	18.653	2.2	0.	2200.
15623	18.556	2.2	5.e-002	97.071
15624	18.556	2.5	0.	2556.2
15625	18.653	2.4	0.	2322.6
15626	18.556	2.4	5.e-002	71.499
15627	18.556	2.7	0.	2543.6
15628	18.653	2.6	0.	2356.8
15629	18.556	2.6	5.e-002	53.566
15630	18.556	2.9	0.	2524.
15631	18.653	2.8	0.	2355.5
15632	18.556	2.8	5.e-002	40.063
15633	18.556	3.1	0.	2524.
15634	18.653	3.	0.	2352.5
15635	18.556	3.	5.e-002	36.198
15636	18.556	3.3	0.	2543.6
15637	18.653	3.2	0.	2355.5
15638	18.556	3.2	5.e-002	40.063
15639	18.556	3.5	0.	2556.2
15640	18.653	3.4	0.	2356.8
15641	18.556	3.4	5.e-002	53.566
15642	18.556	3.7	0.	2504.
15643	18.653	3.6	0.	2322.6
15644	18.556	3.6	5.e-002	71.499
15645	18.556	3.9	0.	2313.9
15646	18.653	3.8	0.	2200.
15647	18.556	3.8	5.e-002	97.071
15648	18.556	4.1	0.	2009.9
15649	18.653	4.	0.	1955.6
15650	18.556	4.	5.e-002	65.627
15651	18.556	4.3	0.	1677.8
15652	18.653	4.2	0.	1681.9
15653	18.556	4.2	5.e-002	64.097
15654	18.556	4.5	0.	1355.5
15655	18.653	4.4	0.	1396.9
15656	18.556	4.4	5.e-002	42.538
15657	18.556	4.7	0.	1091.
15658	18.653	4.6	0.	1150.
15659	18.556	4.6	5.e-002	39.42
15660	18.556	4.9	0.	875.6
15661	18.653	4.8	0.	942.96
15662	18.556	4.8	5.e-002	31.293
15663	18.556	5.1	0.	699.85
15664	18.653	5.	0.	771.19
15665	18.556	5.	5.e-002	27.186
15666	18.556	5.3	0.	556.04
15667	18.653	5.2	0.	629.99
15668	18.556	5.2	5.e-002	23.978
15669	18.556	5.5	0.	440.66
15670	18.653	5.4	0.	516.02
15671	18.556	5.4	5.e-002	22.065
15672	18.556	5.7	0.	360.93
15673	18.653	5.6	0.	431.11
15674	18.556	5.6	5.e-002	21.412
15675	18.653	5.8	0.	385.7
15676	18.556	5.8	5.e-002	24.623
15677	18.556	5.9	0.	302.84
15678	18.75	0.3	0.	458.12
15679	18.847	0.2	0.	483.99
15680	18.75	0.2	5.e-002	21.748
15681	18.75	0.1	0.	414.24
15682	18.75	0.5	0.	513.29
15683	18.847	0.4	0.	516.09
15684	18.75	0.4	5.e-002	18.306
15685	18.75	0.7	0.	600.47
15686	18.847	0.6	0.	578.77
15687	18.75	0.6	5.e-002	18.594
15688	18.75	0.9	0.	714.45
15689	18.847	0.8	0.	666.85
15690	18.75	0.8	5.e-002	19.554
15691	18.75	1.1	0.	853.95
15692	18.847	1.	0.	778.28
15693	18.75	1.	5.e-002	20.94
15694	18.75	1.3	0.	1019.4
15695	18.847	1.2	0.	912.01
15696	18.75	1.2	5.e-002	22.639
15697	18.75	1.5	0.	1207.6
15698	18.847	1.4	0.	1067.2
15699	18.75	1.4	5.e-002	23.861
15700	18.75	1.7	0.	1413.3
15701	18.847	1.6	0.	1238.6
15702	18.75	1.6	5.e-002	25.827
15703	18.75	1.9	0.	1629.5
15704	18.847	1.8	0.	1421.5
15705	18.75	1.8	5.e-002	32.583
15706	18.75	2.1	0.	1837.
15707	18.847	2.	0.	1608.2
15708	18.75	2.	5.e-002	42.203
15709	18.75	2.3	0.	2006.3
15710	18.847	2.2	0.	1780.2
15711	18.75	2.2	5.e-002	50.25
15712	18.75	2.5	0.	2112.1
15713	18.847	2.4	0.	1911.
15714	18.75	2.4	5.e-002	53.911
15715	18.75	2.7	0.	2160.5
15716	18.847	2.6	0.	1985.7
15717	18.75	2.6	5.e-002	46.606
15718	18.75	2.9	0.	2177.1
15719	18.847	2.8	0.	2020.1
15720	18.75	2.8	5.e-002	41.129
15721	18.75	3.1	0.	2177.1
15722	18.847	3.	0.	2029.6
15723	18.75	3.	5.e-002	38.95
15724	18.75	3.3	0.	2160.5
15725	18.847	3.2	0.	2020.1
15726	18.75	3.2	5.e-002	41.129
15727	18.75	3.5	0.	2112.1
15728	18.847	3.4	0.	1985.7
15729	18.75	3.4	5.e-002	46.606
15730	18.75	3.7	0.	2006.3
15731	18.847	3.6	0.	1911.
15732	18.75	3.6	5.e-002	53.911
15733	18.75	3.9	0.	1837.
15734	18.847	3.8	0.	1780.2
15735	18.75	3.8	5.e-002	50.25
15736	18.75	4.1	0.	1629.5
15737	18.847	4.	0.	1608.2
15738	18.75	4.	5.e-002	42.203
15739	18.75	4.3	0.	1413.3
15740	18.847	4.2	0.	1421.5
15741	18.75	4.2	5.e-002	32.583
15742	18.75	4.5	0.	1207.6
15743	18.847	4.4	0.	1238.6
15744	18.75	4.4	5.e-002	25.827
15745	18.75	4.7	0.	1019.4
15746	18.847	4.6	0.	1067.2
15747	18.75	4.6	5.e-002	23.861
15748	18.75	4.9	0.	853.95
15749	18.847	4.8	0.	912.01
15750	18.75	4.8	5.e-002	22.639
15751	18.75	5.1	0.	714.45
15752	18.847	5.	0.	778.28
15753	18.75	5.	5.e-002	20.94
15754	18.75	5.3	0.	600.47
15755	18.847	5.2	0.	666.85
15756	18.75	5.2	5.e-002	19.554
15757	18.75	5.5	0.	513.29
15758	18.847	5.4	0.	578.77
15759	18.75	5.4	5.e-002	18.594
15760	18.75	5.7	0.	458.12
15761	18.847	5.6	0.	516.09
15762	18.75	5.6	5.e-002	18.306
15763	18.847	5.8	0.	483.99
15764	18.75	5.8	5.e-002	21.748
15765	18.75	5.9	0.	414.24
15766	18.944	0.3	0.	542.98
15767	19.042	0.2	0.	563.21
15768	18.944	0.2	5.e-002	18.587
15769	18.944	0.1	0.	506.36
15770	18.944	0.5	0.	584.58
15771	19.042	0.4	0.	588.68
15772	18.944	0.4	5.e-002	14.845
15773	18.944	0.7	0.	650.75
15774	19.042	0.6	0.	636.58
15775	18.944	0.6	5.e-002	14.882
15776	18.944	0.9	0.	738.43
15777	19.042	0.8	0.	703.94
15778	18.944	0.8	5.e-002	15.256
15779	18.944	1.1	0.	845.48
15780	19.042	1.	0.	789.31
15781	18.944	1.	5.e-002	15.71
15782	18.944	1.3	0.	969.32
15783	19.042	1.2	0.	890.61
15784	18.944	1.2	5.e-002	16.203
15785	18.944	1.5	0.	1106.6
15786	19.042	1.4	0.	1005.
15787	18.944	1.4	5.e-002	17.288
15788	18.944	1.7	0.	1252.7
15789	19.042	1.6	0.	1128.8
15790	18.944	1.6	5.e-002	19.995
15791	18.944	1.9	0.	1403.6
15792	19.042	1.8	0.	1258.
15793	18.944	1.8	5.e-002	24.211
15794	18.944	2.1	0.	1551.6
15795	19.042	2.	0.	1389.8
15796	18.944	2.	5.e-002	29.965
15797	18.944	2.3	0.	1681.3
15798	19.042	2.2	0.	1514.6
15799	18.944	2.2	5.e-002	35.733
15800	18.944	2.5	0.	1778.8
15801	19.042	2.4	0.	1618.9
15802	18.944	2.4	5.e-002	39.084
15803	18.944	2.7	0.	1839.2
15804	19.042	2.6	0.	1692.5
15805	18.944	2.6	5.e-002	39.057
15806	18.944	2.9	0.	1866.8
15807	19.042	2.8	0.	1733.9
15808	18.944	2.8	5.e-002	37.592
15809	18.944	3.1	0.	1866.8
15810	19.042	3.	0.	1747.
15811	18.944	3.	5.e-002	36.882
15812	18.944	3.3	0.	1839.2
15813	19.042	3.2	0.	1733.9
15814	18.944	3.2	5.e-002	37.592
15815	18.944	3.5	0.	1778.8
15816	19.042	3.4	0.	1692.5
15817	18.944	3.4	5.e-002	39.057
15818	18.944	3.7	0.	1681.3
15819	19.042	3.6	0.	1618.9
15820	18.944	3.6	5.e-002	39.084
15821	18.944	3.9	0.	1551.6
15822	19.042	3.8	0.	1514.6
15823	18.944	3.8	5.e-002	35.733
15824	18.944	4.1	0.	1403.6
15825	19.042	4.	0.	1389.8
15826	18.944	4.	5.e-002	29.965
15827	18.944	4.3	0.	1252.7
15828	19.042	4.2	0.	1258.
15829	18.944	4.2	5.e-002	24.211
15830	18.944	4.5	0.	1106.6
15831	19.042	4.4	0.	1128.8
15832	18.944	4.4	5.e-002	19.995
15833	18.944	4.7	0.	969.32
15834	19.042	4.6	0.	1005.
15835	18.944	4.6	5.e-002	17.288
15836	18.944	4.9	0.	845.48
15837	19.042	4.8	0.	890.61
15838	18.944	4.8	5.e-002	16.203
15839	18.944	5.1	0.	738.43
15840	19.042	5.	0.	789.31
15841	18.944	5.	5.e-002	15.71
15842	18.944	5.3	0.	650.75
15843	19.042	5.2	0.	703.94
15844	18.944	5.2	5.e-002	15.256
15845	18.944	5.5	0.	584.58
15846	19.042	5.4	0.	636.58
15847	18.944	5.4	5.e-002	14.882
15848	18.944	5.7	0.	542.98
15849	19.042	5.6	0.	588.68
15850	18.944	5.6	5.e-002	14.845
15851	19.042	5.8	0.	563.21
15852	18.944	5.8	5.e-002	18.587
15853	18.944	5.9	0.	506.36
15854	19.139	0.3	0.	609.59
15855	19.236	0.2	0.	622.98
15856	19.139	0.2	5.e-002	15.313
15857	19.139	0.1	0.	578.39
15858	19.139	0.5	0.	642.24
15859	19.236	0.4	0.	643.88
15860	19.139	0.4	5.e-002	11.426
15861	19.139	0.7	0.	692.76
15862	19.236	0.6	0.	681.02
15863	19.139	0.6	5.e-002	11.32
15864	19.139	0.9	0.	759.11
15865	19.236	0.8	0.	732.19
15866	19.139	0.8	5.e-002	11.476
15867	19.139	1.1	0.	839.53
15868	19.236	1.	0.	796.42
15869	19.139	1.	5.e-002	11.727
15870	19.139	1.3	0.	931.44
15871	19.236	1.2	0.	871.85
15872	19.139	1.2	5.e-002	12.314
15873	19.139	1.5	0.	1031.7
15874	19.236	1.4	0.	955.97
15875	19.139	1.4	5.e-002	13.695
15876	19.139	1.7	0.	1137.7
15877	19.236	1.6	0.	1046.1
15878	19.139	1.6	5.e-002	16.317
15879	19.139	1.9	0.	1246.6
15880	19.236	1.8	0.	1140.
15881	19.139	1.8	5.e-002	19.929
15882	19.139	2.1	0.	1353.7
15883	19.236	2.	0.	1234.9
15884	19.139	2.	5.e-002	23.864
15885	19.139	2.3	0.	1451.3
15886	19.236	2.2	0.	1326.1
15887	19.139	2.2	5.e-002	27.698
15888	19.139	2.5	0.	1530.
15889	19.236	2.4	0.	1405.6
15890	19.139	2.4	5.e-002	30.758
15891	19.139	2.7	0.	1583.6
15892	19.236	2.6	0.	1465.8
15893	19.139	2.6	5.e-002	32.359
15894	19.139	2.9	0.	1610.2
15895	19.236	2.8	0.	1502.5
15896	19.139	2.8	5.e-002	32.743
15897	19.139	3.1	0.	1610.2
15898	19.236	3.	0.	1514.7
15899	19.139	3.	5.e-002	32.757
15900	19.139	3.3	0.	1583.6
15901	19.236	3.2	0.	1502.5
15902	19.139	3.2	5.e-002	32.743
15903	19.139	3.5	0.	1530.
15904	19.236	3.4	0.	1465.8
15905	19.139	3.4	5.e-002	32.359
15906	19.139	3.7	0.	1451.3
15907	19.236	3.6	0.	1405.6
15908	19.139	3.6	5.e-002	30.758
15909	19.139	3.9	0.	1353.7
15910	19.236	3.8	0.	1326.1
15911	19.139	3.8	5.e-002	27.698
15912	19.139	4.1	0.	1246.6
15913	19.236	4.	0.	1234.9
15914	19.139	4.	5.e-002	23.864
15915	19.139	4.3	0.	1137.7
15916	19.236	4.2	0.	1140.
15917	19.139	4.2	5.e-002	19.929
15918	19.139	4.5	0.	1031.7
15919	19.236	4.4	0.	1046.1
15920	19.139	4.4	5.e-002	16.317
15921	19.139	4.7	0.	931.44
15922	19.236	4.6	0.	955.97
15923	19.139	4.6	5.e-002	13.695
15924	19.139	4.9	0.	839.53
15925	19.236	4.8	0.	871.85
15926	19.139	4.8	5.e-002	12.314
15927	19.139	5.1	0.	759.12
15928	19.236	5.	0.	796.42
15929	19.139	5.	5.e-002	11.727
15930	19.139	5.3	0.	692.76
15931	19.236	5.2	0.	732.19
15932	19.139	5.2	5.e-002	11.476
15933	19.139	5.5	0.	642.24
15934	19.236	5.4	0.	681.02
15935	19.139	5.4	5.e-002	11.32
15936	19.139	5.7	0.	609.59
15937	19.236	5.6	0.	643.88
15938	19.139	5.6	5.e-002	11.426
15939	19.236	5.8	0.	622.98
15940	19.139	5.8	5.e-002	15.313
15941	19.139	5.9	0.	578.39
15942	19.333	0.3	0.	657.75
15943	19.431	0.2	0.	664.76
15944	19.333	0.2	5.e-002	12.149
15945	19.333	0.1	0.	631.39
15946	19.333	0.5	0.	683.55
15947	19.431	0.4	0.	681.74
15948	19.333	0.4	5.e-002	8.2769
15949	19.333	0.7	0.	722.07
15950	19.431	0.6	0.	710.48
15951	19.333	0.6	5.e-002	8.1906
15952	19.333	0.9	0.	771.81
15953	19.431	0.8	0.	749.07
15954	19.333	0.8	5.e-002	8.4467
15955	19.333	1.1	0.	831.48
15956	19.431	1.	0.	796.82
15957	19.333	1.	5.e-002	8.9519
15958	19.333	1.3	0.	899.19
15959	19.431	1.2	0.	852.42
15960	19.333	1.2	5.e-002	9.9589
15961	19.333	1.5	0.	972.83
15962	19.431	1.4	0.	914.08
15963	19.333	1.4	5.e-002	11.706
15964	19.333	1.7	0.	1050.4
15965	19.431	1.6	0.	980.03
15966	19.333	1.6	5.e-002	14.146
15967	19.333	1.9	0.	1129.9
15968	19.431	1.8	0.	1048.6
15969	19.333	1.8	5.e-002	16.985
15970	19.333	2.1	0.	1208.2
15971	19.431	2.	0.	1117.9
15972	19.333	2.	5.e-002	19.941
15973	19.333	2.3	0.	1280.3
15974	19.431	2.2	0.	1184.4
15975	19.333	2.2	5.e-002	22.834
15976	19.333	2.5	0.	1340.2
15977	19.431	2.4	0.	1243.3
15978	19.333	2.4	5.e-002	25.339
15979	19.333	2.7	0.	1382.7
15980	19.431	2.6	0.	1289.3
15981	19.333	2.6	5.e-002	27.093
15982	19.333	2.9	0.	1404.6
15983	19.431	2.8	0.	1318.3
15984	19.333	2.8	5.e-002	28.014
15985	19.333	3.1	0.	1404.6
15986	19.431	3.	0.	1328.2
15987	19.333	3.	5.e-002	28.283
15988	19.333	3.3	0.	1382.7
15989	19.431	3.2	0.	1318.3
15990	19.333	3.2	5.e-002	28.014
15991	19.333	3.5	0.	1340.2
15992	19.431	3.4	0.	1289.3
15993	19.333	3.4	5.e-002	27.093
15994	19.333	3.7	0.	1280.3
15995	19.431	3.6	0.	1243.3
15996	19.333	3.6	5.e-002	25.339
15997	19.333	3.9	0.	1208.2
15998	19.431	3.8	0.	1184.4
15999	19.333	3.8	5.e-002	22.834
16000	19.333	4.1	0.	1129.9
16001	19.431	4.	0.	1117.9
16002	19.333	4.	5.e-002	19.941
16003	19.333	4.3	0.	1050.4
16004	19.431	4.2	0.	1048.6
16005	19.333	4.2	5.e-002	16.985
16006	19.333	4.5	0.	972.83
16007	19.431	4.4	0.	980.03
16008	19.333	4.4	5.e-002	14.146
16009	19.333	4.7	0.	899.19
16010	19.431	4.6	0.	914.08
16011	19.333	4.6	5.e-002	11.706
16012	19.333	4.9	0.	831.48
16013	19.431	4.8	0.	852.42
16014	19.333	4.8	5.e-002	9.9589
16015	19.333	5.1	0.	771.81
16016	19.431	5.	0.	796.82
16017	19.333	5.	5.e-002	8.9519
16018	19.333	5.3	0.	722.07
16019	19.431	5.2	0.	749.07
16020	19.333	5.2	5.e-002	8.4467
16021	19.333	5.5	0.	683.55
16022	19.431	5.4	0.	710.48
16023	19.333	5.4	5.e-002	8.1906
16024	19.333	5.7	0.	657.75
16025	19.431	5.6	0.	681.74
16026	19.333	5.6	5.e-002	8.2769
16027	19.431	5.8	0.	664.76
16028	19.333	5.8	5.e-002	12.149
16029	19.333	5.9	0.	631.39
16030	19.528	0.3	0.	689.06
16031	19.625	0.2	0.	690.64
16032	19.528	0.2	5.e-002	9.251
16033	19.528	0.1	0.	667.14
16034	19.528	0.5	0.	709.21
16035	19.625	0.4	0.	704.05
16036	19.528	0.4	5.e-002	5.5388
16037	19.528	0.7	0.	738.37
16038	19.625	0.6	0.	726.04
16039	19.528	0.6	5.e-002	5.6591
16040	19.528	0.9	0.	775.31
16041	19.625	0.8	0.	754.84
16042	19.528	0.8	5.e-002	6.2494
16043	19.528	1.1	0.	819.21
16044	19.625	1.	0.	790.
16045	19.528	1.	5.e-002	7.1875
16046	19.528	1.3	0.	868.81
16047	19.625	1.2	0.	830.65
16048	19.528	1.2	5.e-002	8.5739
16049	19.528	1.5	0.	922.7
16050	19.625	1.4	0.	875.64
16051	19.528	1.4	5.e-002	10.418
16052	19.528	1.7	0.	979.48
16053	19.625	1.6	0.	923.76
16054	19.528	1.6	5.e-002	12.594
16055	19.528	1.9	0.	1037.6
16056	19.625	1.8	0.	973.81
16057	19.528	1.8	5.e-002	14.914
16058	19.528	2.1	0.	1094.7
16059	19.625	2.	0.	1024.2
16060	19.528	2.	5.e-002	17.241
16061	19.528	2.3	0.	1147.5
16062	19.625	2.2	0.	1072.6
16063	19.528	2.2	5.e-002	19.479
16064	19.528	2.5	0.	1191.9
16065	19.625	2.4	0.	1115.6
16066	19.528	2.4	5.e-002	21.467
16067	19.528	2.7	0.	1223.9
16068	19.625	2.6	0.	1149.6
16069	19.528	2.6	5.e-002	22.993
16070	19.528	2.9	0.	1240.6
16071	19.625	2.8	0.	1171.3
16072	19.528	2.8	5.e-002	23.922
16073	19.528	3.1	0.	1240.6
16074	19.625	3.	0.	1178.7
16075	19.528	3.	5.e-002	24.227
16076	19.528	3.3	0.	1223.9
16077	19.625	3.2	0.	1171.3
16078	19.528	3.2	5.e-002	23.922
16079	19.528	3.5	0.	1191.9
16080	19.625	3.4	0.	1149.6
16081	19.528	3.4	5.e-002	22.993
16082	19.528	3.7	0.	1147.5
16083	19.625	3.6	0.	1115.6
16084	19.528	3.6	5.e-002	21.467
16085	19.528	3.9	0.	1094.7
16086	19.625	3.8	0.	1072.6
16087	19.528	3.8	5.e-002	19.479
16088	19.528	4.1	0.	1037.6
16089	19.625	4.	0.	1024.2
16090	19.528	4.	5.e-002	17.241
16091	19.528	4.3	0.	979.48
16092	19.625	4.2	0.	973.81
16093	19.528	4.2	5.e-002	14.914
16094	19.528	4.5	0.	922.7
16095	19.625	4.4	0.	923.76
16096	19.528	4.4	5.e-002	12.594
16097	19.528	4.7	0.	868.81
16098	19.625	4.6	0.	875.64
16099	19.528	4.6	5.e-002	10.418
16100	19.528	4.9	0.	819.21
16101	19.625	4.8	0.	830.65
16102	19.528	4.8	5.e-002	8.5739
16103	19.528	5.1	0.	775.31
16104	19.625	5.	0.	790.
16105	19.528	5.	5.e-002	7.1875
16106	19.528	5.3	0.	738.37
16107	19.625	5.2	0.	754.84
16108	19.528	5.2	5.e-002	6.2494
16109	19.528	5.5	0.	709.21
16110	19.625	5.4	0.	726.04
16111	19.528	5.4	5.e-002	5.6591
16112	19.528	5.7	0.	689.06
16113	19.625	5.6	0.	704.05
16114	19.528	5.6	5.e-002	5.5388
16115	19.625	5.8	0.	690.64
16116	19.528	5.8	5.e-002	9.251
16117	19.528	5.9	0.	667.14
16118	19.722	0.3	0.	705.81
16119	19.819	0.2	0.	702.96
16120	19.722	0.2	5.e-002	6.706
16121	19.722	0.1	0.	687.89
16122	19.722	0.5	0.	721.2
16123	19.819	0.4	0.	713.14
16124	19.722	0.4	5.e-002	3.315
16125	19.722	0.7	0.	743.
16126	19.819	0.6	0.	729.67
16127	19.722	0.6	5.e-002	3.8728
16128	19.722	0.9	0.	770.17
16129	19.819	0.8	0.	750.89
16130	19.722	0.8	5.e-002	4.9147
16131	19.722	1.1	0.	802.19
16132	19.819	1.	0.	776.5
16133	19.722	1.	5.e-002	6.222
16134	19.722	1.3	0.	838.26
16135	19.819	1.2	0.	805.96
16136	19.722	1.2	5.e-002	7.7848
16137	19.722	1.5	0.	877.46
16138	19.819	1.4	0.	838.53
16139	19.722	1.4	5.e-002	9.5566
16140	19.722	1.7	0.	918.78
16141	19.819	1.6	0.	873.4
16142	19.722	1.6	5.e-002	11.447
16143	19.722	1.9	0.	961.03
16144	19.819	1.8	0.	909.67
16145	19.722	1.8	5.e-002	13.36
16146	19.722	2.1	0.	1002.5
16147	19.819	2.	0.	946.11
16148	19.722	2.	5.e-002	15.227
16149	19.722	2.3	0.	1040.8
16150	19.819	2.2	0.	980.99
16151	19.722	2.2	5.e-002	16.987
16152	19.722	2.5	0.	1073.
16153	19.819	2.4	0.	1012.
16154	19.722	2.4	5.e-002	18.548
16155	19.722	2.7	0.	1096.4
16156	19.819	2.6	0.	1036.5
16157	19.722	2.6	5.e-002	19.777
16158	19.722	2.9	0.	1108.7
16159	19.819	2.8	0.	1052.3
16160	19.722	2.8	5.e-002	20.557
16161	19.722	3.1	0.	1108.7
16162	19.819	3.	0.	1057.8
16163	19.722	3.	5.e-002	20.823
16164	19.722	3.3	0.	1096.4
16165	19.819	3.2	0.	1052.3
16166	19.722	3.2	5.e-002	20.557
16167	19.722	3.5	0.	1073.
16168	19.819	3.4	0.	1036.5
16169	19.722	3.4	5.e-002	19.777
16170	19.722	3.7	0.	1040.8
16171	19.819	3.6	0.	1012.
16172	19.722	3.6	5.e-002	18.548
16173	19.722	3.9	0.	1002.5
16174	19.819	3.8	0.	980.99
16175	19.722	3.8	5.e-002	16.987
16176	19.722	4.1	0.	961.03
16177	19.819	4.	0.	946.11
16178	19.722	4.	5.e-002	15.227
16179	19.722	4.3	0.	918.78
16180	19.819	4.2	0.	909.67
16181	19.722	4.2	5.e-002	13.36
16182	19.722	4.5	0.	877.46
16183	19.819	4.4	0.	873.4
16184	19.722	4.4	5.e-002	11.447
16185	19.722	4.7	0.	838.26
16186	19.819	4.6	0.	838.53
16187	19.722	4.6	5.e-002	9.5566
16188	19.722	4.9	0.	802.19
16189	19.819	4.8	0.	805.96
16190	19.722	4.8	5.e-002	7.7848
16191	19.722	5.1	0.	770.17
16192	19.819	5.	0.	776.5
16193	19.722	5.	5.e-002	6.222
16194	19.722	5.3	0.	743.
16195	19.819	5.2	0.	750.89
16196	19.722	5.2	5.e-002	4.9147
16197	19.722	5.5	0.	721.2
16198	19.819	5.4	0.	729.67
16199	19.722	5.4	5.e-002	3.8728
16200	19.722	5.7	0.	705.81
16201	19.819	5.6	0.	713.14
16202	19.722	5.6	5.e-002	3.315
16203	19.819	5.8	0.	702.96
16204	19.722	5.8	5.e-002	6.706
16205	19.722	5.9	0.	687.89
16206	19.917	0.3	0.	710.36
16207	20.014	0.2	0.	704.
16208	19.917	0.2	5.e-002	4.54
16209	19.917	0.1	0.	695.93
16210	19.917	0.5	0.	721.78
16211	20.014	0.4	0.	711.32
16212	19.917	0.4	5.e-002	1.8571
16213	19.917	0.7	0.	737.81
16214	20.014	0.6	0.	723.47
16215	19.917	0.6	5.e-002	3.0475
16216	19.917	0.9	0.	757.54
16217	20.014	0.8	0.	738.86
16218	19.917	0.8	5.e-002	4.395
16219	19.917	1.1	0.	780.64
16220	20.014	1.	0.	757.27
16221	19.917	1.	5.e-002	5.8325
16222	19.917	1.3	0.	806.62
16223	20.014	1.2	0.	778.37
16224	19.917	1.2	5.e-002	7.3638
16225	19.917	1.5	0.	834.86
16226	20.014	1.4	0.	801.69
16227	19.917	1.4	5.e-002	8.9617
16228	19.917	1.7	0.	864.64
16229	20.014	1.6	0.	826.68
16230	19.917	1.6	5.e-002	10.577
16231	19.917	1.9	0.	895.06
16232	20.014	1.8	0.	852.66
16233	19.917	1.8	5.e-002	12.158
16234	19.917	2.1	0.	924.84
16235	20.014	2.	0.	878.72
16236	19.917	2.	5.e-002	13.666
16237	19.917	2.3	0.	952.28
16238	20.014	2.2	0.	903.59
16239	19.917	2.2	5.e-002	15.061
16240	19.917	2.5	0.	975.39
16241	20.014	2.4	0.	925.64
16242	19.917	2.4	5.e-002	16.28
16243	19.917	2.7	0.	992.15
16244	20.014	2.6	0.	943.09
16245	19.917	2.6	5.e-002	17.24
16246	19.917	2.9	0.	1001.
16247	20.014	2.8	0.	954.32
16248	19.917	2.8	5.e-002	17.855
16249	19.917	3.1	0.	1001.
16250	20.014	3.	0.	958.2
16251	19.917	3.	5.e-002	18.067
16252	19.917	3.3	0.	992.15
16253	20.014	3.2	0.	954.32
16254	19.917	3.2	5.e-002	17.855
16255	19.917	3.5	0.	975.39
16256	20.014	3.4	0.	943.09
16257	19.917	3.4	5.e-002	17.24
16258	19.917	3.7	0.	952.28
16259	20.014	3.6	0.	925.64
16260	19.917	3.6	5.e-002	16.28
16261	19.917	3.9	0.	924.84
16262	20.014	3.8	0.	903.59
16263	19.917	3.8	5.e-002	15.061
16264	19.917	4.1	0.	895.06
16265	20.014	4.	0.	878.72
16266	19.917	4.	5.e-002	13.666
16267	19.917	4.3	0.	864.64
16268	20.014	4.2	0.	852.66
16269	19.917	4.2	5.e-002	12.158
16270	19.917	4.5	0.	834.86
16271	20.014	4.4	0.	826.68
16272	19.917	4.4	5.e-002	10.577
16273	19.917	4.7	0.	806.62
16274	20.014	4.6	0.	801.69
16275	19.917	4.6	5.e-002	8.9617
16276	19.917	4.9	0.	780.64
16277	20.014	4.8	0.	778.37
16278	19.917	4.8	5.e-002	7.3638
16279	19.917	5.1	0.	757.54
16280	20.014	5.	0.	757.27
16281	19.917	5.	5.e-002	5.8325
16282	19.917	5.3	0.	737.81
16283	20.014	5.2	0.	738.86
16284	19.917	5.2	5.e-002	4.395
16285	19.917	5.5	0.	721.78
16286	20.014	5.4	0.	723.47
16287	19.917	5.4	5.e-002	3.0475
16288	19.917	5.7	0.	710.36
16289	20.014	5.6	0.	711.32
16290	19.917	5.6	5.e-002	1.8571
16291	20.014	5.8	0.	704.
16292	19.917	5.8	5.e-002	4.54
16293	19.917	5.9	0.	695.93
16294	20.111	0.3	0.	704.95
16295	20.208	0.2	0.	695.83
16296	20.111	0.2	5.e-002	2.7407
16297	20.111	0.1	0.	693.47
16298	20.111	0.5	0.	713.09
16299	20.208	0.4	0.	700.72
16300	20.111	0.4	5.e-002	1.8091
16301	20.111	0.7	0.	724.63
16302	20.208	0.6	0.	709.39
16303	20.111	0.6	5.e-002	3.1714
16304	20.111	0.9	0.	738.72
16305	20.208	0.8	0.	720.31
16306	20.111	0.8	5.e-002	4.4637
16307	20.111	1.1	0.	755.15
16308	20.208	1.	0.	733.31
16309	20.111	1.	5.e-002	5.7973
16310	20.111	1.3	0.	773.6
16311	20.208	1.2	0.	748.19
16312	20.111	1.2	5.e-002	7.1667
16313	20.111	1.5	0.	793.68
16314	20.208	1.4	0.	764.64
16315	20.111	1.4	5.e-002	8.5471
16316	20.111	1.7	0.	814.86
16317	20.208	1.6	0.	782.28
16318	20.111	1.6	5.e-002	9.9052
16319	20.111	1.9	0.	836.47
16320	20.208	1.8	0.	800.62
16321	20.111	1.8	5.e-002	11.209
16322	20.111	2.1	0.	857.58
16323	20.208	2.	0.	818.98
16324	20.111	2.	5.e-002	12.43
16325	20.111	2.3	0.	876.98
16326	20.208	2.2	0.	836.45
16327	20.111	2.2	5.e-002	13.538
16328	20.111	2.5	0.	893.28
16329	20.208	2.4	0.	851.9
16330	20.111	2.4	5.e-002	14.492
16331	20.111	2.7	0.	905.1
16332	20.208	2.6	0.	864.1
16333	20.111	2.6	5.e-002	15.235
16334	20.111	2.9	0.	911.32
16335	20.208	2.8	0.	871.94
16336	20.111	2.8	5.e-002	15.709
16337	20.111	3.1	0.	911.32
16338	20.208	3.	0.	874.65
16339	20.111	3.	5.e-002	15.872
16340	20.111	3.3	0.	905.1
16341	20.208	3.2	0.	871.94
16342	20.111	3.2	5.e-002	15.709
16343	20.111	3.5	0.	893.28
16344	20.208	3.4	0.	864.1
16345	20.111	3.4	5.e-002	15.235
16346	20.111	3.7	0.	876.98
16347	20.208	3.6	0.	851.9
16348	20.111	3.6	5.e-002	14.492
16349	20.111	3.9	0.	857.58
16350	20.208	3.8	0.	836.45
16351	20.111	3.8	5.e-002	13.538
16352	20.111	4.1	0.	836.47
16353	20.208	4.	0.	818.98
16354	20.111	4.	5.e-002	12.43
16355	20.111	4.3	0.	814.86
16356	20.208	4.2	0.	800.62
16357	20.111	4.2	5.e-002	11.209
16358	20.111	4.5	0.	793.68
16359	20.208	4.4	0.	782.28
16360	20.111	4.4	5.e-002	9.9052
16361	20.111	4.7	0.	773.6
16362	20.208	4.6	0.	764.64
16363	20.111	4.6	5.e-002	8.5471
16364	20.111	4.9	0.	755.15
16365	20.208	4.8	0.	748.19
16366	20.111	4.8	5.e-002	7.1667
16367	20.111	5.1	0.	738.72
16368	20.208	5.	0.	733.31
16369	20.111	5.	5.e-002	5.7973
16370	20.111	5.3	0.	724.63
16371	20.208	5.2	0.	720.31
16372	20.111	5.2	5.e-002	4.4637
16373	20.111	5.5	0.	713.09
16374	20.208	5.4	0.	709.39
16375	20.111	5.4	5.e-002	3.1714
16376	20.111	5.7	0.	704.95
16377	20.208	5.6	0.	700.72
16378	20.111	5.6	5.e-002	1.8091
16379	20.208	5.8	0.	695.83
16380	20.111	5.8	5.e-002	2.7407
16381	20.111	5.9	0.	693.47
16382	20.306	0.3	0.	691.53
16383	20.403	0.2	0.	680.27
16384	20.306	0.2	5.e-002	1.2766
16385	20.306	0.1	0.	682.46
16386	20.306	0.5	0.	697.02
16387	20.403	0.4	0.	683.13
16388	20.306	0.4	5.e-002	2.6583
16389	20.306	0.7	0.	705.09
16390	20.403	0.6	0.	689.08
16391	20.306	0.6	5.e-002	3.7587
16392	20.306	0.9	0.	714.93
16393	20.403	0.8	0.	696.62
16394	20.306	0.8	5.e-002	4.8164
16395	20.306	1.1	0.	726.39
16396	20.403	1.	0.	705.59
16397	20.306	1.	5.e-002	5.9405
16398	20.306	1.3	0.	739.27
16399	20.403	1.2	0.	715.87
16400	20.306	1.2	5.e-002	7.0984
16401	20.306	1.5	0.	753.29
16402	20.403	1.4	0.	727.24
16403	20.306	1.4	5.e-002	8.2562
16404	20.306	1.7	0.	768.09
16405	20.403	1.6	0.	739.45
16406	20.306	1.6	5.e-002	9.383
16407	20.306	1.9	0.	783.18
16408	20.403	1.8	0.	752.14
16409	20.306	1.8	5.e-002	10.452
16410	20.306	2.1	0.	797.89
16411	20.403	2.	0.	764.83
16412	20.306	2.	5.e-002	11.441
16413	20.306	2.3	0.	811.37
16414	20.403	2.2	0.	776.87
16415	20.306	2.2	5.e-002	12.324
16416	20.306	2.5	0.	822.68
16417	20.403	2.4	0.	787.49
16418	20.306	2.4	5.e-002	13.072
16419	20.306	2.7	0.	830.86
16420	20.403	2.6	0.	795.87
16421	20.306	2.6	5.e-002	13.647
16422	20.306	2.9	0.	835.16
16423	20.403	2.8	0.	801.24
16424	20.306	2.8	5.e-002	14.012
16425	20.306	3.1	0.	835.16
16426	20.403	3.	0.	803.1
16427	20.306	3.	5.e-002	14.136
16428	20.306	3.3	0.	830.86
16429	20.403	3.2	0.	801.24
16430	20.306	3.2	5.e-002	14.012
16431	20.306	3.5	0.	822.68
16432	20.403	3.4	0.	795.87
16433	20.306	3.4	5.e-002	13.647
16434	20.306	3.7	0.	811.37
16435	20.403	3.6	0.	787.49
16436	20.306	3.6	5.e-002	13.072
16437	20.306	3.9	0.	797.89
16438	20.403	3.8	0.	776.87
16439	20.306	3.8	5.e-002	12.324
16440	20.306	4.1	0.	783.18
16441	20.403	4.	0.	764.83
16442	20.306	4.	5.e-002	11.441
16443	20.306	4.3	0.	768.09
16444	20.403	4.2	0.	752.14
16445	20.306	4.2	5.e-002	10.452
16446	20.306	4.5	0.	753.29
16447	20.403	4.4	0.	739.45
16448	20.306	4.4	5.e-002	9.383
16449	20.306	4.7	0.	739.27
16450	20.403	4.6	0.	727.24
16451	20.306	4.6	5.e-002	8.2562
16452	20.306	4.9	0.	726.39
16453	20.403	4.8	0.	715.87
16454	20.306	4.8	5.e-002	7.0984
16455	20.306	5.1	0.	714.93
16456	20.403	5.	0.	705.59
16457	20.306	5.	5.e-002	5.9405
16458	20.306	5.3	0.	705.09
16459	20.403	5.2	0.	696.62
16460	20.306	5.2	5.e-002	4.8164
16461	20.306	5.5	0.	697.02
16462	20.403	5.4	0.	689.08
16463	20.306	5.4	5.e-002	3.7587
16464	20.306	5.7	0.	691.53
16465	20.403	5.6	0.	683.13
16466	20.306	5.6	5.e-002	2.6583
16467	20.403	5.8	0.	680.27
16468	20.306	5.8	5.e-002	1.2766
16469	20.306	5.9	0.	682.46
16470	20.5	0.3	0.	671.76
16471	20.597	0.2	0.	658.84
16472	20.5	0.2	5.e-002	0.1917
16473	20.5	0.1	0.	664.6
16474	20.5	0.5	0.	675.15
16475	20.597	0.4	0.	660.06
16476	20.5	0.4	5.e-002	3.5527
16477	20.5	0.7	0.	680.58
16478	20.597	0.6	0.	663.92
16479	20.5	0.6	5.e-002	4.4203
16480	20.5	0.9	0.	687.25
16481	20.597	0.8	0.	668.94
16482	20.5	0.8	5.e-002	5.2453
16483	20.5	1.1	0.	695.05
16484	20.597	1.	0.	674.95
16485	20.5	1.	5.e-002	6.1513
16486	20.5	1.3	0.	703.82
16487	20.597	1.2	0.	681.85
16488	20.5	1.2	5.e-002	7.0992
16489	20.5	1.5	0.	713.39
16490	20.597	1.4	0.	689.52
16491	20.5	1.4	5.e-002	8.0508
16492	20.5	1.7	0.	723.5
16493	20.597	1.6	0.	697.75
16494	20.5	1.6	5.e-002	8.9753
16495	20.5	1.9	0.	733.79
16496	20.597	1.8	0.	706.31
16497	20.5	1.8	5.e-002	9.8476
16498	20.5	2.1	0.	743.82
16499	20.597	2.	0.	714.87
16500	20.5	2.	5.e-002	10.647
16501	20.5	2.3	0.	752.99
16502	20.597	2.2	0.	722.97
16503	20.5	2.2	5.e-002	11.353
16504	20.5	2.5	0.	760.67
16505	20.597	2.4	0.	730.1
16506	20.5	2.4	5.e-002	11.942
16507	20.5	2.7	0.	766.21
16508	20.597	2.6	0.	735.71
16509	20.5	2.6	5.e-002	12.39
16510	20.5	2.9	0.	769.13
16511	20.597	2.8	0.	739.31
16512	20.5	2.8	5.e-002	12.671
16513	20.5	3.1	0.	769.13
16514	20.597	3.	0.	740.55
16515	20.5	3.	5.e-002	12.767
16516	20.5	3.3	0.	766.21
16517	20.597	3.2	0.	739.31
16518	20.5	3.2	5.e-002	12.671
16519	20.5	3.5	0.	760.67
16520	20.597	3.4	0.	735.71
16521	20.5	3.4	5.e-002	12.39
16522	20.5	3.7	0.	752.99
16523	20.597	3.6	0.	730.1
16524	20.5	3.6	5.e-002	11.942
16525	20.5	3.9	0.	743.82
16526	20.597	3.8	0.	722.97
16527	20.5	3.8	5.e-002	11.353
16528	20.5	4.1	0.	733.79
16529	20.597	4.	0.	714.87
16530	20.5	4.	5.e-002	10.647
16531	20.5	4.3	0.	723.5
16532	20.597	4.2	0.	706.31
16533	20.5	4.2	5.e-002	9.8476
16534	20.5	4.5	0.	713.39
16535	20.597	4.4	0.	697.75
16536	20.5	4.4	5.e-002	8.9753
16537	20.5	4.7	0.	703.82
16538	20.597	4.6	0.	689.52
16539	20.5	4.6	5.e-002	8.0508
16540	20.5	4.9	0.	695.05
16541	20.597	4.8	0.	681.85
16542	20.5	4.8	5.e-002	7.0992
16543	20.5	5.1	0.	687.25
16544	20.597	5.	0.	674.95
16545	20.5	5.	5.e-002	6.1513
16546	20.5	5.3	0.	680.58
16547	20.597	5.2	0.	668.94
16548	20.5	5.2	5.e-002	5.2453
16549	20.5	5.5	0.	675.15
16550	20.597	5.4	0.	663.92
16551	20.5	5.4	5.e-002	4.4203
16552	20.5	5.7	0.	671.76
16553	20.597	5.6	0.	660.06
16554	20.5	5.6	5.e-002	3.5527
16555	20.597	5.8	0.	658.84
16556	20.5	5.8	5.e-002	0.19169
16557	20.5	5.9	0.	664.6
16558	20.694	0.3	0.	647.
16559	20.792	0.2	0.	632.79
16560	20.694	0.2	5.e-002	0.87979
16561	20.694	0.1	0.	641.3
16562	20.694	0.5	0.	648.77
16563	20.792	0.4	0.	632.74
16564	20.694	0.4	5.e-002	4.3138
16565	20.694	0.7	0.	652.23
16566	20.792	0.6	0.	635.04
16567	20.694	0.6	5.e-002	5.016
16568	20.694	0.9	0.	656.58
16569	20.792	0.8	0.	638.21
16570	20.694	0.8	5.e-002	5.654
16571	20.694	1.1	0.	661.71
16572	20.792	1.	0.	642.09
16573	20.694	1.	5.e-002	6.3703
16574	20.694	1.3	0.	667.5
16575	20.792	1.2	0.	646.57
16576	20.694	1.2	5.e-002	7.1325
16577	20.694	1.5	0.	673.84
16578	20.792	1.4	0.	651.56
16579	20.694	1.4	5.e-002	7.9042
16580	20.694	1.7	0.	680.54
16581	20.792	1.6	0.	656.93
16582	20.694	1.6	5.e-002	8.656
16583	20.694	1.9	0.	687.37
16584	20.792	1.8	0.	662.52
16585	20.694	1.8	5.e-002	9.3644
16586	20.694	2.1	0.	694.01
16587	20.792	2.	0.	668.1
16588	20.694	2.	5.e-002	10.01
16589	20.694	2.3	0.	700.07
16590	20.792	2.2	0.	673.38
16591	20.694	2.2	5.e-002	10.575
16592	20.694	2.5	0.	705.14
16593	20.792	2.4	0.	678.02
16594	20.694	2.4	5.e-002	11.042
16595	20.694	2.7	0.	708.8
16596	20.792	2.6	0.	681.67
16597	20.694	2.6	5.e-002	11.393
16598	20.694	2.9	0.	710.72
16599	20.792	2.8	0.	684.
16600	20.694	2.8	5.e-002	11.612
16601	20.694	3.1	0.	710.72
16602	20.792	3.	0.	684.81
16603	20.694	3.	5.e-002	11.686
16604	20.694	3.3	0.	708.8
16605	20.792	3.2	0.	684.
16606	20.694	3.2	5.e-002	11.612
16607	20.694	3.5	0.	705.14
16608	20.792	3.4	0.	681.67
16609	20.694	3.4	5.e-002	11.393
16610	20.694	3.7	0.	700.07
16611	20.792	3.6	0.	678.02
16612	20.694	3.6	5.e-002	11.042
16613	20.694	3.9	0.	694.01
16614	20.792	3.8	0.	673.38
16615	20.694	3.8	5.e-002	10.575
16616	20.694	4.1	0.	687.37
16617	20.792	4.	0.	668.1
16618	20.694	4.	5.e-002	10.01
16619	20.694	4.3	0.	680.54
16620	20.792	4.2	0.	662.52
16621	20.694	4.2	5.e-002	9.3644
16622	20.694	4.5	0.	673.84
16623	20.792	4.4	0.	656.93
16624	20.694	4.4	5.e-002	8.656
16625	20.694	4.7	0.	667.51
16626	20.792	4.6	0.	651.56
16627	20.694	4.6	5.e-002	7.9042
16628	20.694	4.9	0.	661.71
16629	20.792	4.8	0.	646.57
16630	20.694	4.8	5.e-002	7.1325
16631	20.694	5.1	0.	656.58
16632	20.792	5.	0.	642.09
16633	20.694	5.	5.e-002	6.3703
16634	20.694	5.3	0.	652.23
16635	20.792	5.2	0.	638.21
16636	20.694	5.2	5.e-002	5.654
16637	20.694	5.5	0.	648.77
16638	20.792	5.4	0.	635.04
16639	20.694	5.4	5.e-002	5.016
16640	20.694	5.7	0.	647.
16641	20.792	5.6	0.	632.74
16642	20.694	5.6	5.e-002	4.3138
16643	20.792	5.8	0.	632.79
16644	20.694	5.8	5.e-002	0.87979
16645	20.694	5.9	0.	641.3
16646	20.889	0.3	0.	618.36
16647	20.986	0.2	0.	603.16
16648	20.889	0.2	5.e-002	1.6182
16649	20.889	0.1	0.	613.73
16650	20.889	0.5	0.	618.93
16651	20.986	0.4	0.	602.15
16652	20.889	0.4	5.e-002	4.929
16653	20.889	0.7	0.	620.96
16654	20.986	0.6	0.	603.34
16655	20.889	0.6	5.e-002	5.513
16656	20.889	0.9	0.	623.65
16657	20.986	0.8	0.	605.21
16658	20.889	0.8	5.e-002	6.0078
16659	20.889	1.1	0.	626.88
16660	20.986	1.	0.	607.58
16661	20.889	1.	5.e-002	6.5702
16662	20.889	1.3	0.	630.57
16663	20.986	1.2	0.	610.36
16664	20.889	1.2	5.e-002	7.1772
16665	20.889	1.5	0.	634.6
16666	20.986	1.4	0.	613.48
16667	20.889	1.4	5.e-002	7.7978
16668	20.889	1.7	0.	638.88
16669	20.986	1.6	0.	616.84
16670	20.889	1.6	5.e-002	8.4055
16671	20.889	1.9	0.	643.23
16672	20.986	1.8	0.	620.34
16673	20.889	1.8	5.e-002	8.9787
16674	20.889	2.1	0.	647.46
16675	20.986	2.	0.	623.82
16676	20.889	2.	5.e-002	9.4997
16677	20.889	2.3	0.	651.32
16678	20.986	2.2	0.	627.11
16679	20.889	2.2	5.e-002	9.9533
16680	20.889	2.5	0.	654.54
16681	20.986	2.4	0.	630.
16682	20.889	2.4	5.e-002	10.325
16683	20.889	2.7	0.	656.87
16684	20.986	2.6	0.	632.26
16685	20.889	2.6	5.e-002	10.603
16686	20.889	2.9	0.	658.09
16687	20.986	2.8	0.	633.71
16688	20.889	2.8	5.e-002	10.775
16689	20.889	3.1	0.	658.09
16690	20.986	3.	0.	634.21
16691	20.889	3.	5.e-002	10.833
16692	20.889	3.3	0.	656.87
16693	20.986	3.2	0.	633.71
16694	20.889	3.2	5.e-002	10.775
16695	20.889	3.5	0.	654.54
16696	20.986	3.4	0.	632.26
16697	20.889	3.4	5.e-002	10.603
16698	20.889	3.7	0.	651.32
16699	20.986	3.6	0.	630.
16700	20.889	3.6	5.e-002	10.325
16701	20.889	3.9	0.	647.46
16702	20.986	3.8	0.	627.11
16703	20.889	3.8	5.e-002	9.9533
16704	20.889	4.1	0.	643.23
16705	20.986	4.	0.	623.82
16706	20.889	4.	5.e-002	9.4997
16707	20.889	4.3	0.	638.88
16708	20.986	4.2	0.	620.34
16709	20.889	4.2	5.e-002	8.9787
16710	20.889	4.5	0.	634.6
16711	20.986	4.4	0.	616.84
16712	20.889	4.4	5.e-002	8.4055
16713	20.889	4.7	0.	630.57
16714	20.986	4.6	0.	613.48
16715	20.889	4.6	5.e-002	7.7978
16716	20.889	4.9	0.	626.88
16717	20.986	4.8	0.	610.36
16718	20.889	4.8	5.e-002	7.1772
16719	20.889	5.1	0.	623.65
16720	20.986	5.	0.	607.58
16721	20.889	5.	5.e-002	6.5702
16722	20.889	5.3	0.	620.96
16723	20.986	5.2	0.	605.21
16724	20.889	5.2	5.e-002	6.0078
16725	20.889	5.5	0.	618.93
16726	20.986	5.4	0.	603.34
16727	20.889	5.4	5.e-002	5.513
16728	20.889	5.7	0.	618.36
16729	20.986	5.6	0.	602.15
16730	20.889	5.6	5.e-002	4.929
16731	20.986	5.8	0.	603.16
16732	20.889	5.8	5.e-002	1.6182
16733	20.889	5.9	0.	613.73
16734	21.083	0.3	0.	586.74
16735	21.181	0.2	0.	570.76
16736	21.083	0.2	5.e-002	2.2046
16737	21.083	0.1	0.	582.85
16738	21.083	0.5	0.	586.46
16739	21.181	0.4	0.	569.07
16740	21.083	0.4	5.e-002	5.4158
16741	21.083	0.7	0.	587.5
16742	21.181	0.6	0.	569.51
16743	21.083	0.6	5.e-002	5.9132
16744	21.083	0.9	0.	589.06
16745	21.181	0.8	0.	570.51
16746	21.083	0.8	5.e-002	6.2996
16747	21.083	1.1	0.	590.99
16748	21.181	1.	0.	571.89
16749	21.083	1.	5.e-002	6.7407
16750	21.083	1.3	0.	593.22
16751	21.181	1.2	0.	573.54
16752	21.083	1.2	5.e-002	7.2223
16753	21.083	1.5	0.	595.68
16754	21.181	1.4	0.	575.4
16755	21.083	1.4	5.e-002	7.7191
16756	21.083	1.7	0.	598.27
16757	21.181	1.6	0.	577.39
16758	21.083	1.6	5.e-002	8.2084
16759	21.083	1.9	0.	600.9
16760	21.181	1.8	0.	579.45
16761	21.083	1.8	5.e-002	8.6713
16762	21.083	2.1	0.	603.45
16763	21.181	2.	0.	581.49
16764	21.083	2.	5.e-002	9.0918
16765	21.083	2.3	0.	605.78
16766	21.181	2.2	0.	583.42
16767	21.083	2.2	5.e-002	9.4569
16768	21.083	2.5	0.	607.72
16769	21.181	2.4	0.	585.1
16770	21.083	2.4	5.e-002	9.755
16771	21.083	2.7	0.	609.12
16772	21.181	2.6	0.	586.42
16773	21.083	2.6	5.e-002	9.9761
16774	21.083	2.9	0.	609.85
16775	21.181	2.8	0.	587.26
16776	21.083	2.8	5.e-002	10.112
16777	21.083	3.1	0.	609.85
16778	21.181	3.	0.	587.55
16779	21.083	3.	5.e-002	10.158
16780	21.083	3.3	0.	609.12
16781	21.181	3.2	0.	587.26
16782	21.083	3.2	5.e-002	10.112
16783	21.083	3.5	0.	607.72
16784	21.181	3.4	0.	586.42
16785	21.083	3.4	5.e-002	9.9761
16786	21.083	3.7	0.	605.78
16787	21.181	3.6	0.	585.1
16788	21.083	3.6	5.e-002	9.755
16789	21.083	3.9	0.	603.45
16790	21.181	3.8	0.	583.42
16791	21.083	3.8	5.e-002	9.4569
16792	21.083	4.1	0.	600.9
16793	21.181	4.	0.	581.49
16794	21.083	4.	5.e-002	9.0918
16795	21.083	4.3	0.	598.27
16796	21.181	4.2	0.	579.45
16797	21.083	4.2	5.e-002	8.6713
16798	21.083	4.5	0.	595.68
16799	21.181	4.4	0.	577.39
16800	21.083	4.4	5.e-002	8.2084
16801	21.083	4.7	0.	593.22
16802	21.181	4.6	0.	575.4
16803	21.083	4.6	5.e-002	7.7191
16804	21.083	4.9	0.	590.99
16805	21.181	4.8	0.	573.54
16806	21.083	4.8	5.e-002	7.2223
16807	21.083	5.1	0.	589.06
16808	21.181	5.	0.	571.89
16809	21.083	5.	5.e-002	6.7407
16810	21.083	5.3	0.	587.5
16811	21.181	5.2	0.	570.51
16812	21.083	5.2	5.e-002	6.2996
16813	21.083	5.5	0.	586.46
16814	21.181	5.4	0.	569.51
16815	21.083	5.4	5.e-002	5.9132
16816	21.083	5.7	0.	586.74
16817	21.181	5.6	0.	569.07
16818	21.083	5.6	5.e-002	5.4158
16819	21.181	5.8	0.	570.76
16820	21.083	5.8	5.e-002	2.2046
16821	21.083	5.9	0.	582.85
16822	21.278	0.3	0.	552.86
16823	21.375	0.2	0.	536.24
16824	21.278	0.2	5.e-002	2.669
16825	21.278	0.1	0.	549.41
16826	21.278	0.5	0.	552.02
16827	21.375	0.4	0.	534.12
16828	21.278	0.4	5.e-002	5.796
16829	21.278	0.7	0.	552.43
16830	21.375	0.6	0.	534.12
16831	21.278	0.6	5.e-002	6.2288
16832	21.278	0.9	0.	553.27
16833	21.375	0.8	0.	534.61
16834	21.278	0.8	5.e-002	6.5333
16835	21.278	1.1	0.	554.37
16836	21.375	1.	0.	535.39
16837	21.278	1.	5.e-002	6.8802
16838	21.278	1.3	0.	555.66
16839	21.375	1.2	0.	536.34
16840	21.278	1.2	5.e-002	7.2622
16841	21.278	1.5	0.	557.07
16842	21.375	1.4	0.	537.4
16843	21.278	1.4	5.e-002	7.6595
16844	21.278	1.7	0.	558.54
16845	21.375	1.6	0.	538.52
16846	21.278	1.6	5.e-002	8.0531
16847	21.278	1.9	0.	560.03
16848	21.375	1.8	0.	539.64
16849	21.278	1.8	5.e-002	8.4267
16850	21.278	2.1	0.	561.45
16851	21.375	2.	0.	540.74
16852	21.278	2.	5.e-002	8.7666
16853	21.278	2.3	0.	562.74
16854	21.375	2.2	0.	541.75
16855	21.278	2.2	5.e-002	9.0612
16856	21.278	2.5	0.	563.81
16857	21.375	2.4	0.	542.64
16858	21.278	2.4	5.e-002	9.3012
16859	21.278	2.7	0.	564.58
16860	21.375	2.6	0.	543.33
16861	21.278	2.6	5.e-002	9.4787
16862	21.278	2.9	0.	564.99
16863	21.375	2.8	0.	543.76
16864	21.278	2.8	5.e-002	9.5877
16865	21.278	3.1	0.	564.99
16866	21.375	3.	0.	543.92
16867	21.278	3.	5.e-002	9.6245
16868	21.278	3.3	0.	564.58
16869	21.375	3.2	0.	543.76
16870	21.278	3.2	5.e-002	9.5877
16871	21.278	3.5	0.	563.81
16872	21.375	3.4	0.	543.33
16873	21.278	3.4	5.e-002	9.4787
16874	21.278	3.7	0.	562.74
16875	21.375	3.6	0.	542.64
16876	21.278	3.6	5.e-002	9.3012
16877	21.278	3.9	0.	561.45
16878	21.375	3.8	0.	541.75
16879	21.278	3.8	5.e-002	9.0612
16880	21.278	4.1	0.	560.03
16881	21.375	4.	0.	540.74
16882	21.278	4.	5.e-002	8.7666
16883	21.278	4.3	0.	558.54
16884	21.375	4.2	0.	539.64
16885	21.278	4.2	5.e-002	8.4267
16886	21.278	4.5	0.	557.07
16887	21.375	4.4	0.	538.52
16888	21.278	4.4	5.e-002	8.0531
16889	21.278	4.7	0.	555.66
16890	21.375	4.6	0.	537.4
16891	21.278	4.6	5.e-002	7.6595
16892	21.278	4.9	0.	554.37
16893	21.375	4.8	0.	536.34
16894	21.278	4.8	5.e-002	7.2622
16895	21.278	5.1	0.	553.27
16896	21.375	5.	0.	535.39
16897	21.278	5.	5.e-002	6.8802
16898	21.278	5.3	0.	552.43
16899	21.375	5.2	0.	534.61
16900	21.278	5.2	5.e-002	6.5333
16901	21.278	5.5	0.	552.02
16902	21.375	5.4	0.	534.12
16903	21.278	5.4	5.e-002	6.2288
16904	21.278	5.7	0.	552.86
16905	21.375	5.6	0.	534.12
16906	21.278	5.6	5.e-002	5.796
16907	21.375	5.8	0.	536.24
16908	21.278	5.8	5.e-002	2.669
16909	21.278	5.9	0.	549.41
16910	21.472	0.3	0.	517.27
16911	21.569	0.2	0.	500.14
16912	21.472	0.2	5.e-002	3.0396
16913	21.472	0.1	0.	514.01
16914	21.472	0.5	0.	516.12
16915	21.569	0.4	0.	497.8
16916	21.472	0.4	5.e-002	6.0902
16917	21.472	0.7	0.	516.21
16918	21.569	0.6	0.	497.61
16919	21.472	0.6	5.e-002	6.474
16920	21.472	0.9	0.	516.66
16921	21.569	0.8	0.	497.88
16922	21.472	0.8	5.e-002	6.7166
16923	21.472	1.1	0.	517.3
16924	21.569	1.	0.	498.37
16925	21.472	1.	5.e-002	6.991
16926	21.472	1.3	0.	518.04
16927	21.569	1.2	0.	498.96
16928	21.472	1.2	5.e-002	7.295
16929	21.472	1.5	0.	518.81
16930	21.569	1.4	0.	499.59
16931	21.472	1.4	5.e-002	7.6133
16932	21.472	1.7	0.	519.59
16933	21.569	1.6	0.	500.19
16934	21.472	1.6	5.e-002	7.9304
16935	21.472	1.9	0.	520.35
16936	21.569	1.8	0.	500.76
16937	21.472	1.8	5.e-002	8.2325
16938	21.472	2.1	0.	521.05
16939	21.569	2.	0.	501.27
16940	21.472	2.	5.e-002	8.5078
16941	21.472	2.3	0.	521.67
16942	21.569	2.2	0.	501.72
16943	21.472	2.2	5.e-002	8.7465
16944	21.472	2.5	0.	522.17
16945	21.569	2.4	0.	502.09
16946	21.472	2.4	5.e-002	8.9407
16947	21.472	2.7	0.	522.54
16948	21.569	2.6	0.	502.38
16949	21.472	2.6	5.e-002	9.0841
16950	21.472	2.9	0.	522.72
16951	21.569	2.8	0.	502.56
16952	21.472	2.8	5.e-002	9.1721
16953	21.472	3.1	0.	522.72
16954	21.569	3.	0.	502.62
16955	21.472	3.	5.e-002	9.2017
16956	21.472	3.3	0.	522.54
16957	21.569	3.2	0.	502.56
16958	21.472	3.2	5.e-002	9.1721
16959	21.472	3.5	0.	522.17
16960	21.569	3.4	0.	502.38
16961	21.472	3.4	5.e-002	9.0841
16962	21.472	3.7	0.	521.67
16963	21.569	3.6	0.	502.09
16964	21.472	3.6	5.e-002	8.9407
16965	21.472	3.9	0.	521.05
16966	21.569	3.8	0.	501.72
16967	21.472	3.8	5.e-002	8.7465
16968	21.472	4.1	0.	520.35
16969	21.569	4.	0.	501.27
16970	21.472	4.	5.e-002	8.5078
16971	21.472	4.3	0.	519.59
16972	21.569	4.2	0.	500.76
16973	21.472	4.2	5.e-002	8.2325
16974	21.472	4.5	0.	518.82
16975	21.569	4.4	0.	500.19
16976	21.472	4.4	5.e-002	7.9304
16977	21.472	4.7	0.	518.04
16978	21.569	4.6	0.	499.59
16979	21.472	4.6	5.e-002	7.6133
16980	21.472	4.9	0.	517.3
16981	21.569	4.8	0.	498.96
16982	21.472	4.8	5.e-002	7.295
16983	21.472	5.1	0.	516.66
16984	21.569	5.	0.	498.37
16985	21.472	5.	5.e-002	6.991
16986	21.472	5.3	0.	516.21
16987	21.569	5.2	0.	497.88
16988	21.472	5.2	5.e-002	6.7166
16989	21.472	5.5	0.	516.12
16990	21.569	5.4	0.	497.61
16991	21.472	5.4	5.e-002	6.474
16992	21.472	5.7	0.	517.27
16993	21.569	5.6	0.	497.8
16994	21.472	5.6	5.e-002	6.0902
16995	21.569	5.8	0.	500.14
16996	21.472	5.8	5.e-002	3.0396
16997	21.472	5.9	0.	514.01
16998	21.667	0.3	0.	480.41
16999	21.764	0.2	0.	462.85
17000	21.667	0.2	5.e-002	3.341
17001	21.667	0.1	0.	477.15
17002	21.667	0.5	0.	479.17
17003	21.764	0.4	0.	460.48
17004	21.667	0.4	5.e-002	6.3161
17005	21.667	0.7	0.	479.18
17006	21.764	0.6	0.	460.32
17007	21.667	0.6	5.e-002	6.6623
17008	21.667	0.9	0.	479.51
17009	21.764	0.8	0.	460.6
17010	21.667	0.8	5.e-002	6.8583
17011	21.667	1.1	0.	479.98
17012	21.764	1.	0.	461.06
17013	21.667	1.	5.e-002	7.0773
17014	21.667	1.3	0.	480.47
17015	21.764	1.2	0.	461.57
17016	21.667	1.2	5.e-002	7.3209
17017	21.667	1.5	0.	480.94
17018	21.764	1.4	0.	462.02
17019	21.667	1.4	5.e-002	7.5772
17020	21.667	1.7	0.	481.34
17021	21.764	1.6	0.	462.4
17022	21.667	1.6	5.e-002	7.8337
17023	21.667	1.9	0.	481.68
17024	21.764	1.8	0.	462.68
17025	21.667	1.8	5.e-002	8.0788
17026	21.667	2.1	0.	481.95
17027	21.764	2.	0.	462.87
17028	21.667	2.	5.e-002	8.3027
17029	21.667	2.3	0.	482.17
17030	21.764	2.2	0.	463.
17031	21.667	2.2	5.e-002	8.497
17032	21.667	2.5	0.	482.33
17033	21.764	2.4	0.	463.09
17034	21.667	2.4	5.e-002	8.6551
17035	21.667	2.7	0.	482.44
17036	21.764	2.6	0.	463.13
17037	21.667	2.6	5.e-002	8.7717
17038	21.667	2.9	0.	482.5
17039	21.764	2.8	0.	463.16
17040	21.667	2.8	5.e-002	8.8432
17041	21.667	3.1	0.	482.5
17042	21.764	3.	0.	463.17
17043	21.667	3.	5.e-002	8.8673
17044	21.667	3.3	0.	482.44
17045	21.764	3.2	0.	463.16
17046	21.667	3.2	5.e-002	8.8432
17047	21.667	3.5	0.	482.33
17048	21.764	3.4	0.	463.13
17049	21.667	3.4	5.e-002	8.7717
17050	21.667	3.7	0.	482.17
17051	21.764	3.6	0.	463.09
17052	21.667	3.6	5.e-002	8.6551
17053	21.667	3.9	0.	481.95
17054	21.764	3.8	0.	463.
17055	21.667	3.8	5.e-002	8.497
17056	21.667	4.1	0.	481.68
17057	21.764	4.	0.	462.87
17058	21.667	4.	5.e-002	8.3027
17059	21.667	4.3	0.	481.34
17060	21.764	4.2	0.	462.68
17061	21.667	4.2	5.e-002	8.0788
17062	21.667	4.5	0.	480.94
17063	21.764	4.4	0.	462.4
17064	21.667	4.4	5.e-002	7.8337
17065	21.667	4.7	0.	480.47
17066	21.764	4.6	0.	462.02
17067	21.667	4.6	5.e-002	7.5772
17068	21.667	4.9	0.	479.98
17069	21.764	4.8	0.	461.57
17070	21.667	4.8	5.e-002	7.3209
17071	21.667	5.1	0.	479.51
17072	21.764	5.	0.	461.06
17073	21.667	5.	5.e-002	7.0773
17074	21.667	5.3	0.	479.18
17075	21.764	5.2	0.	460.6
17076	21.667	5.2	5.e-002	6.8583
17077	21.667	5.5	0.	479.17
17078	21.764	5.4	0.	460.32
17079	21.667	5.4	5.e-002	6.6623
17080	21.667	5.7	0.	480.41
17081	21.764	5.6	0.	460.48
17082	21.667	5.6	5.e-002	6.3161
17083	21.764	5.8	0.	462.85
17084	21.667	5.8	5.e-002	3.341
17085	21.667	5.9	0.	477.15
17086	21.861	0.3	0.	442.64
17087	21.958	0.2	0.	424.7
17088	21.861	0.2	5.e-002	3.5935
17089	21.861	0.1	0.	439.21
17090	21.861	0.5	0.	441.5
17091	21.958	0.4	0.	422.47
17092	21.861	0.4	5.e-002	6.4886
17093	21.861	0.7	0.	441.64
17094	21.958	0.6	0.	422.53
17095	21.861	0.6	5.e-002	6.8055
17096	21.861	0.9	0.	442.08
17097	21.958	0.8	0.	423.03
17098	21.861	0.8	5.e-002	6.9666
17099	21.861	1.1	0.	442.6
17100	21.958	1.	0.	423.67
17101	21.861	1.	5.e-002	7.1437
17102	21.861	1.3	0.	443.08
17103	21.958	1.2	0.	424.28
17104	21.861	1.2	5.e-002	7.3409
17105	21.861	1.5	0.	443.47
17106	21.958	1.4	0.	424.79
17107	21.861	1.4	5.e-002	7.549
17108	21.861	1.7	0.	443.74
17109	21.958	1.6	0.	425.14
17110	21.861	1.6	5.e-002	7.7579
17111	21.861	1.9	0.	443.89
17112	21.958	1.8	0.	425.34
17113	21.861	1.8	5.e-002	7.9581
17114	21.861	2.1	0.	443.95
17115	21.958	2.	0.	425.42
17116	21.861	2.	5.e-002	8.1412
17117	21.861	2.3	0.	443.96
17118	21.958	2.2	0.	425.4
17119	21.861	2.2	5.e-002	8.3003
17120	21.861	2.5	0.	443.93
17121	21.958	2.4	0.	425.34
17122	21.861	2.4	5.e-002	8.4297
17123	21.861	2.7	0.	443.9
17124	21.958	2.6	0.	425.27
17125	21.861	2.6	5.e-002	8.5251
17126	21.861	2.9	0.	443.88
17127	21.958	2.8	0.	425.21
17128	21.861	2.8	5.e-002	8.5835
17129	21.861	3.1	0.	443.88
17130	21.958	3.	0.	425.19
17131	21.861	3.	5.e-002	8.6032
17132	21.861	3.3	0.	443.9
17133	21.958	3.2	0.	425.21
17134	21.861	3.2	5.e-002	8.5835
17135	21.861	3.5	0.	443.93
17136	21.958	3.4	0.	425.27
17137	21.861	3.4	5.e-002	8.5251
17138	21.861	3.7	0.	443.96
17139	21.958	3.6	0.	425.34
17140	21.861	3.6	5.e-002	8.4297
17141	21.861	3.9	0.	443.95
17142	21.958	3.8	0.	425.4
17143	21.861	3.8	5.e-002	8.3003
17144	21.861	4.1	0.	443.89
17145	21.958	4.	0.	425.42
17146	21.861	4.	5.e-002	8.1412
17147	21.861	4.3	0.	443.74
17148	21.958	4.2	0.	425.34
17149	21.861	4.2	5.e-002	7.9581
17150	21.861	4.5	0.	443.47
17151	21.958	4.4	0.	425.14
17152	21.861	4.4	5.e-002	7.7579
17153	21.861	4.7	0.	443.08
17154	21.958	4.6	0.	424.79
17155	21.861	4.6	5.e-002	7.549
17156	21.861	4.9	0.	442.6
17157	21.958	4.8	0.	424.28
17158	21.861	4.8	5.e-002	7.3409
17159	21.861	5.1	0.	442.08
17160	21.958	5.	0.	423.67
17161	21.861	5.	5.e-002	7.1437
17162	21.861	5.3	0.	441.64
17163	21.958	5.2	0.	423.03
17164	21.861	5.2	5.e-002	6.9666
17165	21.861	5.5	0.	441.5
17166	21.958	5.4	0.	422.53
17167	21.861	5.4	5.e-002	6.8055
17168	21.861	5.7	0.	442.64
17169	21.958	5.6	0.	422.47
17170	21.861	5.6	5.e-002	6.4886
17171	21.958	5.8	0.	424.7
17172	21.861	5.8	5.e-002	3.5935
17173	21.861	5.9	0.	439.21
17174	22.056	0.3	0.	404.22
17175	22.153	0.2	0.	385.93
17176	22.056	0.2	5.e-002	3.8143
17177	22.056	0.1	0.	400.47
17178	22.056	0.5	0.	403.36
17179	22.153	0.4	0.	384.
17180	22.056	0.4	5.e-002	6.6201
17181	22.056	0.7	0.	403.82
17182	22.153	0.6	0.	384.46
17183	22.056	0.6	5.e-002	6.9137
17184	22.056	0.9	0.	404.55
17185	22.153	0.8	0.	385.35
17186	22.056	0.8	5.e-002	7.049
17187	22.056	1.1	0.	405.31
17188	22.153	1.	0.	386.34
17189	22.056	1.	5.e-002	7.1948
17190	22.056	1.3	0.	405.97
17191	22.153	1.2	0.	387.24
17192	22.056	1.2	5.e-002	7.3568
17193	22.056	1.5	0.	406.46
17194	22.153	1.4	0.	387.96
17195	22.056	1.4	5.e-002	7.5278
17196	22.056	1.7	0.	406.76
17197	22.153	1.6	0.	388.44
17198	22.056	1.6	5.e-002	7.6996
17199	22.056	1.9	0.	406.9
17200	22.153	1.8	0.	388.71
17201	22.056	1.8	5.e-002	7.8644
17202	22.056	2.1	0.	406.9
17203	22.153	2.	0.	388.8
17204	22.056	2.	5.e-002	8.0153
17205	22.056	2.3	0.	406.84
17206	22.153	2.2	0.	388.77
17207	22.056	2.2	5.e-002	8.1463
17208	22.056	2.5	0.	406.73
17209	22.153	2.4	0.	388.67
17210	22.056	2.4	5.e-002	8.2529
17211	22.056	2.7	0.	406.64
17212	22.153	2.6	0.	388.56
17213	22.056	2.6	5.e-002	8.3314
17214	22.056	2.9	0.	406.59
17215	22.153	2.8	0.	388.48
17216	22.056	2.8	5.e-002	8.3796
17217	22.056	3.1	0.	406.59
17218	22.153	3.	0.	388.45
17219	22.056	3.	5.e-002	8.3958
17220	22.056	3.3	0.	406.64
17221	22.153	3.2	0.	388.48
17222	22.056	3.2	5.e-002	8.3796
17223	22.056	3.5	0.	406.73
17224	22.153	3.4	0.	388.56
17225	22.056	3.4	5.e-002	8.3314
17226	22.056	3.7	0.	406.84
17227	22.153	3.6	0.	388.67
17228	22.056	3.6	5.e-002	8.2529
17229	22.056	3.9	0.	406.91
17230	22.153	3.8	0.	388.77
17231	22.056	3.8	5.e-002	8.1463
17232	22.056	4.1	0.	406.9
17233	22.153	4.	0.	388.8
17234	22.056	4.	5.e-002	8.0153
17235	22.056	4.3	0.	406.76
17236	22.153	4.2	0.	388.71
17237	22.056	4.2	5.e-002	7.8644
17238	22.056	4.5	0.	406.46
17239	22.153	4.4	0.	388.44
17240	22.056	4.4	5.e-002	7.6996
17241	22.056	4.7	0.	405.97
17242	22.153	4.6	0.	387.96
17243	22.056	4.6	5.e-002	7.5278
17244	22.056	4.9	0.	405.31
17245	22.153	4.8	0.	387.24
17246	22.056	4.8	5.e-002	7.3568
17247	22.056	5.1	0.	404.55
17248	22.153	5.	0.	386.34
17249	22.056	5.	5.e-002	7.1948
17250	22.056	5.3	0.	403.82
17251	22.153	5.2	0.	385.35
17252	22.056	5.2	5.e-002	7.049
17253	22.056	5.5	0.	403.36
17254	22.153	5.4	0.	384.46
17255	22.056	5.4	5.e-002	6.9137
17256	22.056	5.7	0.	404.22
17257	22.153	5.6	0.	384.
17258	22.056	5.6	5.e-002	6.6201
17259	22.153	5.8	0.	385.93
17260	22.056	5.8	5.e-002	3.8143
17261	22.056	5.9	0.	400.47
17262	22.25	0.3	0.	365.38
17263	22.347	0.2	0.	346.74
17264	22.25	0.2	5.e-002	4.018
17265	22.25	0.1	0.	361.19
17266	22.25	0.5	0.	364.95
17267	22.347	0.4	0.	345.27
17268	22.25	0.4	5.e-002	6.7208
17269	22.25	0.7	0.	365.9
17270	22.347	0.6	0.	346.3
17271	22.25	0.6	5.e-002	6.9953
17272	22.25	0.9	0.	367.09
17273	22.347	0.8	0.	347.76
17274	22.25	0.8	5.e-002	7.1121
17275	22.25	1.1	0.	368.24
17276	22.347	1.	0.	349.25
17277	22.25	1.	5.e-002	7.235
17278	22.25	1.3	0.	369.22
17279	22.347	1.2	0.	350.57
17280	22.25	1.2	5.e-002	7.3707
17281	22.25	1.5	0.	369.95
17282	22.347	1.4	0.	351.61
17283	22.25	1.4	5.e-002	7.5135
17284	22.25	1.7	0.	370.42
17285	22.347	1.6	0.	352.34
17286	22.25	1.6	5.e-002	7.6566
17287	22.25	1.9	0.	370.66
17288	22.347	1.8	0.	352.78
17289	22.25	1.8	5.e-002	7.7937
17290	22.25	2.1	0.	370.72
17291	22.347	2.	0.	352.98
17292	22.25	2.	5.e-002	7.9189
17293	22.25	2.3	0.	370.67
17294	22.347	2.2	0.	353.02
17295	22.25	2.2	5.e-002	8.0276
17296	22.25	2.5	0.	370.57
17297	22.347	2.4	0.	352.96
17298	22.25	2.4	5.e-002	8.1158
17299	22.25	2.7	0.	370.47
17300	22.347	2.6	0.	352.87
17301	22.25	2.6	5.e-002	8.1809
17302	22.25	2.9	0.	370.42
17303	22.347	2.8	0.	352.79
17304	22.25	2.8	5.e-002	8.2207
17305	22.25	3.1	0.	370.42
17306	22.347	3.	0.	352.76
17307	22.25	3.	5.e-002	8.234
17308	22.25	3.3	0.	370.47
17309	22.347	3.2	0.	352.79
17310	22.25	3.2	5.e-002	8.2207
17311	22.25	3.5	0.	370.57
17312	22.347	3.4	0.	352.87
17313	22.25	3.4	5.e-002	8.1809
17314	22.25	3.7	0.	370.67
17315	22.347	3.6	0.	352.96
17316	22.25	3.6	5.e-002	8.1158
17317	22.25	3.9	0.	370.72
17318	22.347	3.8	0.	353.02
17319	22.25	3.8	5.e-002	8.0276
17320	22.25	4.1	0.	370.66
17321	22.347	4.	0.	352.98
17322	22.25	4.	5.e-002	7.9189
17323	22.25	4.3	0.	370.42
17324	22.347	4.2	0.	352.78
17325	22.25	4.2	5.e-002	7.7937
17326	22.25	4.5	0.	369.95
17327	22.347	4.4	0.	352.34
17328	22.25	4.4	5.e-002	7.6566
17329	22.25	4.7	0.	369.22
17330	22.347	4.6	0.	351.61
17331	22.25	4.6	5.e-002	7.5135
17332	22.25	4.9	0.	368.24
17333	22.347	4.8	0.	350.57
17334	22.25	4.8	5.e-002	7.3707
17335	22.25	5.1	0.	367.09
17336	22.347	5.	0.	349.25
17337	22.25	5.	5.e-002	7.235
17338	22.25	5.3	0.	365.9
17339	22.347	5.2	0.	347.76
17340	22.25	5.2	5.e-002	7.1121
17341	22.25	5.5	0.	364.95
17342	22.347	5.4	0.	346.3
17343	22.25	5.4	5.e-002	6.9953
17344	22.25	5.7	0.	365.38
17345	22.347	5.6	0.	345.27
17346	22.25	5.6	5.e-002	6.7208
17347	22.347	5.8	0.	346.74
17348	22.25	5.8	5.e-002	4.018
17349	22.25	5.9	0.	361.19
17350	22.444	0.3	0.	326.27
17351	22.542	0.2	0.	307.27
17352	22.444	0.2	5.e-002	4.217
17353	22.444	0.1	0.	321.54
17354	22.444	0.5	0.	326.46
17355	22.542	0.4	0.	306.45
17356	22.444	0.4	5.e-002	6.7989
17357	22.444	0.7	0.	328.06
17358	22.542	0.6	0.	308.23
17359	22.444	0.6	5.e-002	7.0577
17360	22.444	0.9	0.	329.86
17361	22.542	0.8	0.	310.42
17362	22.444	0.8	5.e-002	7.1619
17363	22.444	1.1	0.	331.55
17364	22.542	1.	0.	312.55
17365	22.444	1.	5.e-002	7.2687
17366	22.444	1.3	0.	332.96
17367	22.542	1.2	0.	314.4
17368	22.444	1.2	5.e-002	7.3852
17369	22.444	1.5	0.	334.03
17370	22.542	1.4	0.	315.86
17371	22.444	1.4	5.e-002	7.5067
17372	22.444	1.7	0.	334.75
17373	22.542	1.6	0.	316.91
17374	22.444	1.6	5.e-002	7.6276
17375	22.444	1.9	0.	335.17
17376	22.542	1.8	0.	317.59
17377	22.444	1.8	5.e-002	7.7427
17378	22.444	2.1	0.	335.37
17379	22.542	2.	0.	317.98
17380	22.444	2.	5.e-002	7.8475
17381	22.444	2.3	0.	335.4
17382	22.542	2.2	0.	318.14
17383	22.444	2.2	5.e-002	7.9381
17384	22.444	2.5	0.	335.36
17385	22.542	2.4	0.	318.17
17386	22.444	2.4	5.e-002	8.0115
17387	22.444	2.7	0.	335.29
17388	22.542	2.6	0.	318.13
17389	22.444	2.6	5.e-002	8.0655
17390	22.444	2.9	0.	335.24
17391	22.542	2.8	0.	318.08
17392	22.444	2.8	5.e-002	8.0985
17393	22.444	3.1	0.	335.24
17394	22.542	3.	0.	318.06
17395	22.444	3.	5.e-002	8.1096
17396	22.444	3.3	0.	335.29
17397	22.542	3.2	0.	318.08
17398	22.444	3.2	5.e-002	8.0985
17399	22.444	3.5	0.	335.36
17400	22.542	3.4	0.	318.13
17401	22.444	3.4	5.e-002	8.0655
17402	22.444	3.7	0.	335.4
17403	22.542	3.6	0.	318.17
17404	22.444	3.6	5.e-002	8.0115
17405	22.444	3.9	0.	335.37
17406	22.542	3.8	0.	318.14
17407	22.444	3.8	5.e-002	7.9381
17408	22.444	4.1	0.	335.17
17409	22.542	4.	0.	317.98
17410	22.444	4.	5.e-002	7.8475
17411	22.444	4.3	0.	334.75
17412	22.542	4.2	0.	317.59
17413	22.444	4.2	5.e-002	7.7427
17414	22.444	4.5	0.	334.03
17415	22.542	4.4	0.	316.91
17416	22.444	4.4	5.e-002	7.6276
17417	22.444	4.7	0.	332.96
17418	22.542	4.6	0.	315.86
17419	22.444	4.6	5.e-002	7.5067
17420	22.444	4.9	0.	331.55
17421	22.542	4.8	0.	314.4
17422	22.444	4.8	5.e-002	7.3852
17423	22.444	5.1	0.	329.86
17424	22.542	5.	0.	312.55
17425	22.444	5.	5.e-002	7.2687
17426	22.444	5.3	0.	328.06
17427	22.542	5.2	0.	310.42
17428	22.444	5.2	5.e-002	7.1619
17429	22.444	5.5	0.	326.46
17430	22.542	5.4	0.	308.23
17431	22.444	5.4	5.e-002	7.0577
17432	22.444	5.7	0.	326.27
17433	22.542	5.6	0.	306.45
17434	22.444	5.6	5.e-002	6.7989
17435	22.542	5.8	0.	307.27
17436	22.444	5.8	5.e-002	4.217
17437	22.444	5.9	0.	321.54
17438	22.639	0.3	0.	287.06
17439	22.736	0.2	0.	267.67
17440	22.639	0.2	5.e-002	4.4221
17441	22.639	0.1	0.	281.69
17442	22.639	0.5	0.	288.06
17443	22.736	0.4	0.	267.72
17444	22.639	0.4	5.e-002	6.8617
17445	22.639	0.7	0.	290.49
17446	22.736	0.6	0.	270.45
17447	22.639	0.6	5.e-002	7.1074
17448	22.639	0.9	0.	293.05
17449	22.736	0.8	0.	273.53
17450	22.639	0.8	5.e-002	7.204
17451	22.639	1.1	0.	295.39
17452	22.736	1.	0.	276.42
17453	22.639	1.	5.e-002	7.3002
17454	22.639	1.3	0.	297.32
17455	22.736	1.2	0.	278.89
17456	22.639	1.2	5.e-002	7.403
17457	22.639	1.5	0.	298.8
17458	22.736	1.4	0.	280.83
17459	22.639	1.4	5.e-002	7.5084
17460	22.639	1.7	0.	299.83
17461	22.736	1.6	0.	282.27
17462	22.639	1.6	5.e-002	7.612
17463	22.639	1.9	0.	300.5
17464	22.736	1.8	0.	283.24
17465	22.639	1.8	5.e-002	7.7096
17466	22.639	2.1	0.	300.86
17467	22.736	2.	0.	283.84
17468	22.639	2.	5.e-002	7.7976
17469	22.639	2.3	0.	301.03
17470	22.736	2.2	0.	284.17
17471	22.639	2.2	5.e-002	7.8733
17472	22.639	2.5	0.	301.07
17473	22.736	2.4	0.	284.31
17474	22.639	2.4	5.e-002	7.9343
17475	22.639	2.7	0.	301.06
17476	22.736	2.6	0.	284.35
17477	22.639	2.6	5.e-002	7.9791
17478	22.639	2.9	0.	301.04
17479	22.736	2.8	0.	284.35
17480	22.639	2.8	5.e-002	8.0063
17481	22.639	3.1	0.	301.04
17482	22.736	3.	0.	284.35
17483	22.639	3.	5.e-002	8.0155
17484	22.639	3.3	0.	301.06
17485	22.736	3.2	0.	284.35
17486	22.639	3.2	5.e-002	8.0063
17487	22.639	3.5	0.	301.07
17488	22.736	3.4	0.	284.35
17489	22.639	3.4	5.e-002	7.9791
17490	22.639	3.7	0.	301.03
17491	22.736	3.6	0.	284.31
17492	22.639	3.6	5.e-002	7.9343
17493	22.639	3.9	0.	300.86
17494	22.736	3.8	0.	284.17
17495	22.639	3.8	5.e-002	7.8733
17496	22.639	4.1	0.	300.5
17497	22.736	4.	0.	283.84
17498	22.639	4.	5.e-002	7.7976
17499	22.639	4.3	0.	299.83
17500	22.736	4.2	0.	283.24
17501	22.639	4.2	5.e-002	7.7096
17502	22.639	4.5	0.	298.8
17503	22.736	4.4	0.	282.27
17504	22.639	4.4	5.e-002	7.612
17505	22.639	4.7	0.	297.32
17506	22.736	4.6	0.	280.83
17507	22.639	4.6	5.e-002	7.5084
17508	22.639	4.9	0.	295.39
17509	22.736	4.8	0.	278.89
17510	22.639	4.8	5.e-002	7.403
17511	22.639	5.1	0.	293.05
17512	22.736	5.	0.	276.42
17513	22.639	5.	5.e-002	7.3002
17514	22.639	5.3	0.	290.49
17515	22.736	5.2	0.	273.53
17516	22.639	5.2	5.e-002	7.204
17517	22.639	5.5	0.	288.06
17518	22.736	5.4	0.	270.45
17519	22.639	5.4	5.e-002	7.1074
17520	22.639	5.7	0.	287.06
17521	22.736	5.6	0.	267.72
17522	22.639	5.6	5.e-002	6.8617
17523	22.736	5.8	0.	267.67
17524	22.639	5.8	5.e-002	4.4221
17525	22.639	5.9	0.	281.69
17526	22.833	0.3	0.	247.88
17527	22.931	0.2	0.	228.04
17528	22.833	0.2	5.e-002	4.6435
17529	22.833	0.1	0.	241.76
17530	22.833	0.5	0.	249.93
17531	22.931	0.4	0.	229.24
17532	22.833	0.4	5.e-002	6.9155
17533	22.833	0.7	0.	253.39
17534	22.931	0.6	0.	233.18
17535	22.833	0.6	5.e-002	7.1507
17536	22.833	0.9	0.	256.86
17537	22.931	0.8	0.	237.33
17538	22.833	0.8	5.e-002	7.2444
17539	22.833	1.1	0.	259.94
17540	22.931	1.	0.	241.1
17541	22.833	1.	5.e-002	7.3346
17542	22.833	1.3	0.	262.47
17543	22.931	1.2	0.	244.26
17544	22.833	1.2	5.e-002	7.4278
17545	22.833	1.5	0.	264.41
17546	22.931	1.4	0.	246.74
17547	22.833	1.4	5.e-002	7.5207
17548	22.833	1.7	0.	265.8
17549	22.931	1.6	0.	248.59
17550	22.833	1.6	5.e-002	7.6101
17551	22.833	1.9	0.	266.74
17552	22.931	1.8	0.	249.88
17553	22.833	1.8	5.e-002	7.6929
17554	22.833	2.1	0.	267.31
17555	22.931	2.	0.	250.73
17556	22.833	2.	5.e-002	7.7667
17557	22.833	2.3	0.	267.63
17558	22.931	2.2	0.	251.25
17559	22.833	2.2	5.e-002	7.8296
17560	22.833	2.5	0.	267.78
17561	22.931	2.4	0.	251.53
17562	22.833	2.4	5.e-002	7.8799
17563	22.833	2.7	0.	267.84
17564	22.931	2.6	0.	251.67
17565	22.833	2.6	5.e-002	7.9166
17566	22.833	2.9	0.	267.86
17567	22.931	2.8	0.	251.72
17568	22.833	2.8	5.e-002	7.9389
17569	22.833	3.1	0.	267.86
17570	22.931	3.	0.	251.74
17571	22.833	3.	5.e-002	7.9464
17572	22.833	3.3	0.	267.84
17573	22.931	3.2	0.	251.72
17574	22.833	3.2	5.e-002	7.9389
17575	22.833	3.5	0.	267.78
17576	22.931	3.4	0.	251.67
17577	22.833	3.4	5.e-002	7.9166
17578	22.833	3.7	0.	267.63
17579	22.931	3.6	0.	251.53
17580	22.833	3.6	5.e-002	7.8799
17581	22.833	3.9	0.	267.31
17582	22.931	3.8	0.	251.25
17583	22.833	3.8	5.e-002	7.8296
17584	22.833	4.1	0.	266.74
17585	22.931	4.	0.	250.73
17586	22.833	4.	5.e-002	7.7667
17587	22.833	4.3	0.	265.8
17588	22.931	4.2	0.	249.88
17589	22.833	4.2	5.e-002	7.6929
17590	22.833	4.5	0.	264.41
17591	22.931	4.4	0.	248.59
17592	22.833	4.4	5.e-002	7.6101
17593	22.833	4.7	0.	262.47
17594	22.931	4.6	0.	246.74
17595	22.833	4.6	5.e-002	7.5207
17596	22.833	4.9	0.	259.94
17597	22.931	4.8	0.	244.26
17598	22.833	4.8	5.e-002	7.4278
17599	22.833	5.1	0.	256.86
17600	22.931	5.	0.	241.1
17601	22.833	5.	5.e-002	7.3346
17602	22.833	5.3	0.	253.39
17603	22.931	5.2	0.	237.33
17604	22.833	5.2	5.e-002	7.2444
17605	22.833	5.5	0.	249.93
17606	22.931	5.4	0.	233.18
17607	22.833	5.4	5.e-002	7.1507
17608	22.833	5.7	0.	247.88
17609	22.931	5.6	0.	229.24
17610	22.833	5.6	5.e-002	6.9155
17611	22.931	5.8	0.	228.04
17612	22.833	5.8	5.e-002	4.6436
17613	22.833	5.9	0.	241.76
17614	23.028	0.3	0.	208.89
17615	23.125	0.2	0.	188.51
17616	23.028	0.2	5.e-002	4.8915
17617	23.028	0.1	0.	201.89
17618	23.028	0.5	0.	212.3
17619	23.125	0.4	0.	191.29
17620	23.028	0.4	5.e-002	6.9672
17621	23.028	0.7	0.	217.05
17622	23.125	0.6	0.	196.76
17623	23.028	0.6	5.e-002	7.1949
17624	23.028	0.9	0.	221.58
17625	23.125	0.8	0.	202.17
17626	23.028	0.8	5.e-002	7.2902
17627	23.028	1.1	0.	225.49
17628	23.125	1.	0.	206.92
17629	23.028	1.	5.e-002	7.3776
17630	23.028	1.3	0.	228.66
17631	23.125	1.2	0.	210.82
17632	23.028	1.2	5.e-002	7.4635
17633	23.028	1.5	0.	231.09
17634	23.125	1.4	0.	213.87
17635	23.028	1.4	5.e-002	7.5458
17636	23.028	1.7	0.	232.87
17637	23.125	1.6	0.	216.16
17638	23.028	1.6	5.e-002	7.6225
17639	23.028	1.9	0.	234.1
17640	23.125	1.8	0.	217.79
17641	23.028	1.8	5.e-002	7.6919
17642	23.028	2.1	0.	234.91
17643	23.125	2.	0.	218.91
17644	23.028	2.	5.e-002	7.7527
17645	23.028	2.3	0.	235.4
17646	23.125	2.2	0.	219.64
17647	23.028	2.2	5.e-002	7.8038
17648	23.028	2.5	0.	235.68
17649	23.125	2.4	0.	220.08
17650	23.028	2.4	5.e-002	7.8444
17651	23.028	2.7	0.	235.82
17652	23.125	2.6	0.	220.33
17653	23.028	2.6	5.e-002	7.8738
17654	23.028	2.9	0.	235.88
17655	23.125	2.8	0.	220.45
17656	23.028	2.8	5.e-002	7.8915
17657	23.028	3.1	0.	235.88
17658	23.125	3.	0.	220.48
17659	23.028	3.	5.e-002	7.8975
17660	23.028	3.3	0.	235.82
17661	23.125	3.2	0.	220.45
17662	23.028	3.2	5.e-002	7.8915
17663	23.028	3.5	0.	235.68
17664	23.125	3.4	0.	220.33
17665	23.028	3.4	5.e-002	7.8738
17666	23.028	3.7	0.	235.4
17667	23.125	3.6	0.	220.08
17668	23.028	3.6	5.e-002	7.8444
17669	23.028	3.9	0.	234.91
17670	23.125	3.8	0.	219.64
17671	23.028	3.8	5.e-002	7.8038
17672	23.028	4.1	0.	234.1
17673	23.125	4.	0.	218.91
17674	23.028	4.	5.e-002	7.7527
17675	23.028	4.3	0.	232.87
17676	23.125	4.2	0.	217.79
17677	23.028	4.2	5.e-002	7.6919
17678	23.028	4.5	0.	231.09
17679	23.125	4.4	0.	216.16
17680	23.028	4.4	5.e-002	7.6225
17681	23.028	4.7	0.	228.66
17682	23.125	4.6	0.	213.87
17683	23.028	4.6	5.e-002	7.5458
17684	23.028	4.9	0.	225.49
17685	23.125	4.8	0.	210.82
17686	23.028	4.8	5.e-002	7.4635
17687	23.028	5.1	0.	221.58
17688	23.125	5.	0.	206.92
17689	23.028	5.	5.e-002	7.3776
17690	23.028	5.3	0.	217.05
17691	23.125	5.2	0.	202.17
17692	23.028	5.2	5.e-002	7.2902
17693	23.028	5.5	0.	212.3
17694	23.125	5.4	0.	196.76
17695	23.028	5.4	5.e-002	7.1949
17696	23.028	5.7	0.	208.89
17697	23.125	5.6	0.	191.29
17698	23.028	5.6	5.e-002	6.9672
17699	23.125	5.8	0.	188.51
17700	23.028	5.8	5.e-002	4.8915
17701	23.028	5.9	0.	201.89
17702	23.222	0.3	0.	170.32
17703	23.319	0.2	0.	149.28
17704	23.222	0.2	5.e-002	5.1784
17705	23.222	0.1	0.	162.22
17706	23.222	0.5	0.	175.57
17707	23.319	0.4	0.	154.31
17708	23.222	0.4	5.e-002	7.025
17709	23.222	0.7	0.	181.88
17710	23.319	0.6	0.	161.72
17711	23.222	0.6	5.e-002	7.2511
17712	23.222	0.9	0.	187.62
17713	23.319	0.8	0.	168.58
17714	23.222	0.8	5.e-002	7.3512
17715	23.222	1.1	0.	192.44
17716	23.319	1.	0.	174.39
17717	23.222	1.	5.e-002	7.4368
17718	23.222	1.3	0.	196.28
17719	23.319	1.2	0.	179.07
17720	23.222	1.2	5.e-002	7.5152
17721	23.222	1.5	0.	199.23
17722	23.319	1.4	0.	182.71
17723	23.222	1.4	5.e-002	7.5864
17724	23.222	1.7	0.	201.41
17725	23.319	1.6	0.	185.45
17726	23.222	1.6	5.e-002	7.65
17727	23.222	1.9	0.	202.96
17728	23.319	1.8	0.	187.46
17729	23.222	1.8	5.e-002	7.706
17730	23.222	2.1	0.	204.02
17731	23.319	2.	0.	188.87
17732	23.222	2.	5.e-002	7.7539
17733	23.222	2.3	0.	204.71
17734	23.319	2.2	0.	189.83
17735	23.222	2.2	5.e-002	7.7936
17736	23.222	2.5	0.	205.13
17737	23.319	2.4	0.	190.44
17738	23.222	2.4	5.e-002	7.8247
17739	23.222	2.7	0.	205.36
17740	23.319	2.6	0.	190.81
17741	23.222	2.6	5.e-002	7.847
17742	23.222	2.9	0.	205.46
17743	23.319	2.8	0.	191.
17744	23.222	2.8	5.e-002	7.8604
17745	23.222	3.1	0.	205.46
17746	23.319	3.	0.	191.06
17747	23.222	3.	5.e-002	7.8649
17748	23.222	3.3	0.	205.36
17749	23.319	3.2	0.	191.
17750	23.222	3.2	5.e-002	7.8604
17751	23.222	3.5	0.	205.13
17752	23.319	3.4	0.	190.81
17753	23.222	3.4	5.e-002	7.847
17754	23.222	3.7	0.	204.71
17755	23.319	3.6	0.	190.44
17756	23.222	3.6	5.e-002	7.8247
17757	23.222	3.9	0.	204.02
17758	23.319	3.8	0.	189.83
17759	23.222	3.8	5.e-002	7.7936
17760	23.222	4.1	0.	202.96
17761	23.319	4.	0.	188.87
17762	23.222	4.	5.e-002	7.7539
17763	23.222	4.3	0.	201.41
17764	23.319	4.2	0.	187.46
17765	23.222	4.2	5.e-002	7.706
17766	23.222	4.5	0.	199.23
17767	23.319	4.4	0.	185.45
17768	23.222	4.4	5.e-002	7.65
17769	23.222	4.7	0.	196.28
17770	23.319	4.6	0.	182.71
17771	23.222	4.6	5.e-002	7.5864
17772	23.222	4.9	0.	192.44
17773	23.319	4.8	0.	179.07
17774	23.222	4.8	5.e-002	7.5152
17775	23.222	5.1	0.	187.62
17776	23.319	5.	0.	174.39
17777	23.222	5.	5.e-002	7.4368
17778	23.222	5.3	0.	181.88
17779	23.319	5.2	0.	168.58
17780	23.222	5.2	5.e-002	7.3512
17781	23.222	5.5	0.	175.57
17782	23.319	5.4	0.	161.72
17783	23.222	5.4	5.e-002	7.2511
17784	23.222	5.7	0.	170.32
17785	23.319	5.6	0.	154.31
17786	23.222	5.6	5.e-002	7.025
17787	23.319	5.8	0.	149.28
17788	23.222	5.8	5.e-002	5.1784
17789	23.222	5.9	0.	162.22
17790	23.417	0.3	0.	132.58
17791	23.514	0.2	0.	110.79
17792	23.417	0.2	5.e-002	5.5157
17793	23.417	0.1	0.	122.95
17794	23.417	0.5	0.	140.35
17795	23.514	0.4	0.	119.23
17796	23.417	0.4	5.e-002	7.1072
17797	23.417	0.7	0.	148.56
17798	23.514	0.6	0.	129.01
17799	23.417	0.6	5.e-002	7.3377
17800	23.417	0.9	0.	155.64
17801	23.514	0.8	0.	137.46
17802	23.417	0.8	5.e-002	7.4411
17803	23.417	1.1	0.	161.4
17804	23.514	1.	0.	144.36
17805	23.417	1.	5.e-002	7.521
17806	23.417	1.3	0.	165.95
17807	23.514	1.2	0.	149.83
17808	23.417	1.2	5.e-002	7.5877
17809	23.417	1.5	0.	169.43
17810	23.514	1.4	0.	154.09
17811	23.417	1.4	5.e-002	7.6444
17812	23.417	1.7	0.	172.04
17813	23.514	1.6	0.	157.33
17814	23.417	1.6	5.e-002	7.6928
17815	23.417	1.9	0.	173.94
17816	23.514	1.8	0.	159.73
17817	23.417	1.8	5.e-002	7.7337
17818	23.417	2.1	0.	175.27
17819	23.514	2.	0.	161.46
17820	23.417	2.	5.e-002	7.7679
17821	23.417	2.3	0.	176.17
17822	23.514	2.2	0.	162.67
17823	23.417	2.2	5.e-002	7.7956
17824	23.417	2.5	0.	176.75
17825	23.514	2.4	0.	163.48
17826	23.417	2.4	5.e-002	7.8169
17827	23.417	2.7	0.	177.08
17828	23.514	2.6	0.	163.99
17829	23.417	2.6	5.e-002	7.8321
17830	23.417	2.9	0.	177.24
17831	23.514	2.8	0.	164.26
17832	23.417	2.8	5.e-002	7.8411
17833	23.417	3.1	0.	177.24
17834	23.514	3.	0.	164.35
17835	23.417	3.	5.e-002	7.8441
17836	23.417	3.3	0.	177.08
17837	23.514	3.2	0.	164.26
17838	23.417	3.2	5.e-002	7.8411
17839	23.417	3.5	0.	176.75
17840	23.514	3.4	0.	163.99
17841	23.417	3.4	5.e-002	7.8321
17842	23.417	3.7	0.	176.17
17843	23.514	3.6	0.	163.48
17844	23.417	3.6	5.e-002	7.8169
17845	23.417	3.9	0.	175.27
17846	23.514	3.8	0.	162.67
17847	23.417	3.8	5.e-002	7.7956
17848	23.417	4.1	0.	173.94
17849	23.514	4.	0.	161.46
17850	23.417	4.	5.e-002	7.7679
17851	23.417	4.3	0.	172.04
17852	23.514	4.2	0.	159.73
17853	23.417	4.2	5.e-002	7.7337
17854	23.417	4.5	0.	169.43
17855	23.514	4.4	0.	157.33
17856	23.417	4.4	5.e-002	7.6928
17857	23.417	4.7	0.	165.95
17858	23.514	4.6	0.	154.09
17859	23.417	4.6	5.e-002	7.6444
17860	23.417	4.9	0.	161.4
17861	23.514	4.8	0.	149.83
17862	23.417	4.8	5.e-002	7.5877
17863	23.417	5.1	0.	155.64
17864	23.514	5.	0.	144.36
17865	23.417	5.	5.e-002	7.521
17866	23.417	5.3	0.	148.56
17867	23.514	5.2	0.	137.46
17868	23.417	5.2	5.e-002	7.4411
17869	23.417	5.5	0.	140.35
17870	23.514	5.4	0.	129.01
17871	23.417	5.4	5.e-002	7.3377
17872	23.417	5.7	0.	132.58
17873	23.514	5.6	0.	119.23
17874	23.417	5.6	5.e-002	7.1072
17875	23.514	5.8	0.	110.79
17876	23.417	5.8	5.e-002	5.5157
17877	23.417	5.9	0.	122.95
17878	23.611	0.3	0.	96.724
17879	23.708	0.2	0.	74.597
17880	23.611	0.2	5.e-002	5.9607
17881	23.611	0.1	0.	84.6
17882	23.611	0.5	0.	108.05
17883	23.708	0.4	0.	88.045
17884	23.611	0.4	5.e-002	7.2738
17885	23.611	0.7	0.	118.4
17886	23.708	0.6	0.	100.39
17887	23.611	0.6	5.e-002	7.4921
17888	23.611	0.9	0.	126.84
17889	23.708	0.8	0.	110.39
17890	23.611	0.8	5.e-002	7.5838
17891	23.611	1.1	0.	133.56
17892	23.708	1.	0.	118.35
17893	23.611	1.	5.e-002	7.6433
17894	23.611	1.3	0.	138.81
17895	23.708	1.2	0.	124.62
17896	23.611	1.2	5.e-002	7.6885
17897	23.611	1.5	0.	142.86
17898	23.708	1.4	0.	129.49
17899	23.611	1.4	5.e-002	7.7241
17900	23.611	1.7	0.	145.92
17901	23.708	1.6	0.	133.22
17902	23.611	1.6	5.e-002	7.7528
17903	23.611	1.9	0.	148.18
17904	23.708	1.8	0.	136.03
17905	23.611	1.8	5.e-002	7.776
17906	23.611	2.1	0.	149.81
17907	23.708	2.	0.	138.1
17908	23.611	2.	5.e-002	7.7946
17909	23.611	2.3	0.	150.94
17910	23.708	2.2	0.	139.57
17911	23.611	2.2	5.e-002	7.8092
17912	23.611	2.5	0.	151.69
17913	23.708	2.4	0.	140.58
17914	23.611	2.4	5.e-002	7.8201
17915	23.611	2.7	0.	152.14
17916	23.708	2.6	0.	141.24
17917	23.611	2.6	5.e-002	7.8277
17918	23.611	2.9	0.	152.35
17919	23.708	2.8	0.	141.6
17920	23.611	2.8	5.e-002	7.8321
17921	23.611	3.1	0.	152.35
17922	23.708	3.	0.	141.71
17923	23.611	3.	5.e-002	7.8336
17924	23.611	3.3	0.	152.14
17925	23.708	3.2	0.	141.6
17926	23.611	3.2	5.e-002	7.8321
17927	23.611	3.5	0.	151.69
17928	23.708	3.4	0.	141.24
17929	23.611	3.4	5.e-002	7.8277
17930	23.611	3.7	0.	150.94
17931	23.708	3.6	0.	140.58
17932	23.611	3.6	5.e-002	7.8201
17933	23.611	3.9	0.	149.81
17934	23.708	3.8	0.	139.57
17935	23.611	3.8	5.e-002	7.8092
17936	23.611	4.1	0.	148.18
17937	23.708	4.	0.	138.1
17938	23.611	4.	5.e-002	7.7946
17939	23.611	4.3	0.	145.92
17940	23.708	4.2	0.	136.03
17941	23.611	4.2	5.e-002	7.776
17942	23.611	4.5	0.	142.86
17943	23.708	4.4	0.	133.22
17944	23.611	4.4	5.e-002	7.7528
17945	23.611	4.7	0.	138.81
17946	23.708	4.6	0.	129.49
17947	23.611	4.6	5.e-002	7.7241
17948	23.611	4.9	0.	133.56
17949	23.708	4.8	0.	124.62
17950	23.611	4.8	5.e-002	7.6885
17951	23.611	5.1	0.	126.84
17952	23.708	5.	0.	118.35
17953	23.611	5.	5.e-002	7.6433
17954	23.611	5.3	0.	118.4
17955	23.708	5.2	0.	110.39
17956	23.611	5.2	5.e-002	7.5838
17957	23.611	5.5	0.	108.05
17958	23.708	5.4	0.	100.39
17959	23.611	5.4	5.e-002	7.4921
17960	23.611	5.7	0.	96.724
17961	23.708	5.6	0.	88.045
17962	23.611	5.6	5.e-002	7.2738
17963	23.708	5.8	0.	74.597
17964	23.611	5.8	5.e-002	5.9607
17965	23.611	5.9	0.	84.6
17966	23.806	0.3	0.	65.862
17967	23.806	0.2	5.e-002	6.8567
17968	23.806	0.1	0.	48.439
17969	23.903	0.2	0.	45.051
17970	23.806	0.5	0.	81.46
17971	23.806	0.4	5.e-002	7.7633
17972	23.903	0.4	0.	64.553
17973	23.806	0.7	0.	93.745
17974	23.806	0.6	5.e-002	7.8456
17975	23.903	0.6	0.	79.3
17976	23.806	0.9	0.	103.38
17977	23.806	0.8	5.e-002	7.8543
17978	23.903	0.8	0.	90.737
17979	23.806	1.1	0.	110.94
17980	23.806	1.	5.e-002	7.8548
17981	23.903	1.	0.	99.677
17982	23.806	1.3	0.	116.85
17983	23.806	1.2	5.e-002	7.851
17984	23.903	1.2	0.	106.68
17985	23.806	1.5	0.	121.42
17986	23.806	1.4	5.e-002	7.8463
17987	23.903	1.4	0.	112.13
17988	23.806	1.7	0.	124.91
17989	23.806	1.6	5.e-002	7.8417
17990	23.903	1.6	0.	116.32
17991	23.806	1.9	0.	127.52
17992	23.806	1.8	5.e-002	7.8375
17993	23.903	1.8	0.	119.5
17994	23.806	2.1	0.	129.43
17995	23.806	2.	5.e-002	7.8337
17996	23.903	2.	0.	121.87
17997	23.806	2.3	0.	130.79
17998	23.806	2.2	5.e-002	7.8304
17999	23.903	2.2	0.	123.58
18000	23.806	2.5	0.	131.7
18001	23.806	2.4	5.e-002	7.8277
18002	23.903	2.4	0.	124.77
18003	23.806	2.7	0.	132.26
18004	23.806	2.6	5.e-002	7.8257
18005	23.903	2.6	0.	125.55
18006	23.806	2.9	0.	132.53
18007	23.806	2.8	5.e-002	7.8244
18008	23.903	2.8	0.	125.99
18009	23.806	3.1	0.	132.53
18010	23.806	3.	5.e-002	7.824
18011	23.903	3.	0.	126.13
18012	23.806	3.3	0.	132.26
18013	23.806	3.2	5.e-002	7.8244
18014	23.903	3.2	0.	125.99
18015	23.806	3.5	0.	131.7
18016	23.806	3.4	5.e-002	7.8257
18017	23.903	3.4	0.	125.55
18018	23.806	3.7	0.	130.79
18019	23.806	3.6	5.e-002	7.8278
18020	23.903	3.6	0.	124.77
18021	23.806	3.9	0.	129.43
18022	23.806	3.8	5.e-002	7.8304
18023	23.903	3.8	0.	123.58
18024	23.806	4.1	0.	127.52
18025	23.806	4.	5.e-002	7.8337
18026	23.903	4.	0.	121.87
18027	23.806	4.3	0.	124.91
18028	23.806	4.2	5.e-002	7.8375
18029	23.903	4.2	0.	119.5
18030	23.806	4.5	0.	121.42
18031	23.806	4.4	5.e-002	7.8417
18032	23.903	4.4	0.	116.32
18033	23.806	4.7	0.	116.85
18034	23.806	4.6	5.e-002	7.8463
18035	23.903	4.6	0.	112.13
18036	23.806	4.9	0.	110.94
18037	23.806	4.8	5.e-002	7.851
18038	23.903	4.8	0.	106.68
18039	23.806	5.1	0.	103.38
18040	23.806	5.	5.e-002	7.8548
18041	23.903	5.	0.	99.677
18042	23.806	5.3	0.	93.745
18043	23.806	5.2	5.e-002	7.8543
18044	23.903	5.2	0.	90.737
18045	23.806	5.5	0.	81.46
18046	23.806	5.4	5.e-002	7.8456
18047	23.903	5.4	0.	79.3
18048	23.806	5.7	0.	65.862
18049	23.806	5.6	5.e-002	7.7633
18050	23.903	5.6	0.	64.553
18051	23.806	5.8	5.e-002	6.8567
18052	23.903	5.8	0.	45.051
18053	23.806	5.9	0.	48.439
18054	23.806	5.7	0.1	65.862
18055	23.708	5.8	0.1	74.597
18056	23.806	5.9	0.1	48.439
18057	23.903	5.8	0.1	45.051
18058	23.806	5.5	0.1	81.46
18059	23.708	5.6	0.1	88.045
18060	23.903	5.6	0.1	64.553
18061	23.806	5.3	0.1	93.745
18062	23.708	5.4	0.1	100.39
18063	23.903	5.4	0.1	79.3
18064	23.806	5.1	0.1	103.38
18065	23.708	5.2	0.1	110.39
18066	23.903	5.2	0.1	90.737
18067	23.806	4.9	0.1	110.94
18068	23.708	5.	0.1	118.35
18069	23.903	5.	0.1	99.677
18070	23.806	4.7	0.1	116.85
18071	23.708	4.8	0.1	124.62
18072	23.903	4.8	0.1	106.68
18073	23.806	4.5	0.1	121.42
18074	23.708	4.6	0.1	129.49
18075	23.903	4.6	0.1	112.13
18076	23.806	4.3	0.1	124.91
18077	23.708	4.4	0.1	133.22
18078	23.903	4.4	0.1	116.32
18079	23.806	4.1	0.1	127.52
18080	23.708	4.2	0.1	136.03
18081	23.903	4.2	0.1	119.5
18082	23.806	3.9	0.1	129.43
18083	23.708	4.	0.1	138.1
18084	23.903	4.	0.1	121.87
18085	23.806	3.7	0.1	130.79
18086	23.708	3.8	0.1	139.57
18087	23.903	3.8	0.1	123.58
18088	23.806	3.5	0.1	131.7
18089	23.708	3.6	0.1	140.58
18090	23.903	3.6	0.1	124.77
18091	23.806	3.3	0.1	132.26
18092	23.708	3.4	0.1	141.24
18093	23.903	3.4	0.1	125.55
18094	23.806	3.1	0.1	132.53
18095	23.708	3.2	0.1	141.6
18096	23.903	3.2	0.1	125.99
18097	23.806	2.9	0.1	132.53
18098	23.708	3.	0.1	141.71
18099	23.903	3.	0.1	126.13
18100	23.806	2.7	0.1	132.26
18101	23.708	2.8	0.1	141.6
18102	23.903	2.8	0.1	125.99
18103	23.806	2.5	0.1	131.7
18104	23.708	2.6	0.1	141.24
18105	23.903	2.6	0.1	125.55
18106	23.806	2.3	0.1	130.79
18107	23.708	2.4	0.1	140.58
18108	23.903	2.4	0.1	124.77
18109	23.806	2.1	0.1	129.43
18110	23.708	2.2	0.1	139.57
18111	23.903	2.2	0.1	123.58
18112	23.806	1.9	0.1	127.52
18113	23.708	2.	0.1	138.1
18114	23.903	2.	0.1	121.87
18115	23.806	1.7	0.1	124.91
18116	23.708	1.8	0.1	136.03
18117	23.903	1.8	0.1	119.5
18118	23.806	1.5	0.1	121.42
18119	23.708	1.6	0.1	133.22
18120	23.903	1.6	0.1	116.32
18121	23.806	1.3	0.1	116.85
18122	23.708	1.4	0.1	129.49
18123	23.903	1.4	0.1	112.13
18124	23.806	1.1	0.1	110.94
18125	23.708	1.2	0.1	124.62
18126	23.903	1.2	0.1	106.68
18127	23.806	0.9	0.1	103.38
18128	23.708	1.	0.1	118.35
18129	23.903	1.	0.1	99.677
18130	23.806	0.7	0.1	93.745
18131	23.708	0.8	0.1	110.39
18132	23.903	0.8	0.1	90.737
18133	23.806	0.5	0.1	81.46
18134	23.708	0.6	0.1	100.39
18135	23.903	0.6	0.1	79.3
18136	23.806	0.3	0.1	65.862
18137	23.708	0.4	0.1	88.045
18138	23.903	0.4	0.1	64.553
18139	23.708	0.2	0.1	74.597
18140	23.903	0.2	0.1	45.051
18141	23.806	0.1	0.1	48.439
18142	23.611	5.7	0.1	96.724
18143	23.514	5.8	0.1	110.79
18144	23.611	5.9	0.1	84.6
18145	23.611	5.5	0.1	108.05
18146	23.514	5.6	0.1	119.23
18147	23.611	5.3	0.1	118.4
18148	23.514	5.4	0.1	129.01
18149	23.611	5.1	0.1	126.84
18150	23.514	5.2	0.1	137.46
18151	23.611	4.9	0.1	133.56
18152	23.514	5.	0.1	144.36
18153	23.611	4.7	0.1	138.81
18154	23.514	4.8	0.1	149.83
18155	23.611	4.5	0.1	142.86
18156	23.514	4.6	0.1	154.09
18157	23.611	4.3	0.1	145.92
18158	23.514	4.4	0.1	157.33
18159	23.611	4.1	0.1	148.18
18160	23.514	4.2	0.1	159.73
18161	23.611	3.9	0.1	149.81
18162	23.514	4.	0.1	161.46
18163	23.611	3.7	0.1	150.94
18164	23.514	3.8	0.1	162.67
18165	23.611	3.5	0.1	151.69
18166	23.514	3.6	0.1	163.48
18167	23.611	3.3	0.1	152.14
18168	23.514	3.4	0.1	163.99
18169	23.611	3.1	0.1	152.35
18170	23.514	3.2	0.1	164.26
18171	23.611	2.9	0.1	152.35
18172	23.514	3.	0.1	164.35
18173	23.611	2.7	0.1	152.14
18174	23.514	2.8	0.1	164.26
18175	23.611	2.5	0.1	151.69
18176	23.514	2.6	0.1	163.99
18177	23.611	2.3	0.1	150.94
18178	23.514	2.4	0.1	163.48
18179	23.611	2.1	0.1	149.81
18180	23.514	2.2	0.1	162.67
18181	23.611	1.9	0.1	148.18
18182	23.514	2.	0.1	161.46
18183	23.611	1.7	0.1	145.92
18184	23.514	1.8	0.1	159.73
18185	23.611	1.5	0.1	142.86
18186	23.514	1.6	0.1	157.33
18187	23.611	1.3	0.1	138.81
18188	23.514	1.4	0.1	154.09
18189	23.611	1.1	0.1	133.56
18190	23.514	1.2	0.1	149.83
18191	23.611	0.9	0.1	126.84
18192	23.514	1.	0.1	144.36
18193	23.611	0.7	0.1	118.4
18194	23.514	0.8	0.1	137.46
18195	23.611	0.5	0.1	108.05
18196	23.514	0.6	0.1	129.01
18197	23.611	0.3	0.1	96.724
18198	23.514	0.4	0.1	119.23
18199	23.514	0.2	0.1	110.79
18200	23.611	0.1	0.1	84.6
18201	23.417	5.7	0.1	132.58
18202	23.319	5.8	0.1	149.28
18203	23.417	5.9	0.1	122.95
18204	23.417	5.5	0.1	140.35
18205	23.319	5.6	0.1	154.31
18206	23.417	5.3	0.1	148.56
18207	23.319	5.4	0.1	161.72
18208	23.417	5.1	0.1	155.64
18209	23.319	5.2	0.1	168.58
18210	23.417	4.9	0.1	161.4
18211	23.319	5.	0.1	174.39
18212	23.417	4.7	0.1	165.95
18213	23.319	4.8	0.1	179.07
18214	23.417	4.5	0.1	169.43
18215	23.319	4.6	0.1	182.71
18216	23.417	4.3	0.1	172.04
18217	23.319	4.4	0.1	185.45
18218	23.417	4.1	0.1	173.94
18219	23.319	4.2	0.1	187.46
18220	23.417	3.9	0.1	175.27
18221	23.319	4.	0.1	188.87
18222	23.417	3.7	0.1	176.17
18223	23.319	3.8	0.1	189.83
18224	23.417	3.5	0.1	176.75
18225	23.319	3.6	0.1	190.44
18226	23.417	3.3	0.1	177.08
18227	23.319	3.4	0.1	190.81
18228	23.417	3.1	0.1	177.24
18229	23.319	3.2	0.1	191.
18230	23.417	2.9	0.1	177.24
18231	23.319	3.	0.1	191.06
18232	23.417	2.7	0.1	177.08
18233	23.319	2.8	0.1	191.
18234	23.417	2.5	0.1	176.75
18235	23.319	2.6	0.1	190.81
18236	23.417	2.3	0.1	176.17
18237	23.319	2.4	0.1	190.44
18238	23.417	2.1	0.1	175.27
18239	23.319	2.2	0.1	189.83
18240	23.417	1.9	0.1	173.94
18241	23.319	2.	0.1	188.87
18242	23.417	1.7	0.1	172.04
18243	23.319	1.8	0.1	187.46
18244	23.417	1.5	0.1	169.43
18245	23.319	1.6	0.1	185.45
18246	23.417	1.3	0.1	165.95
18247	23.319	1.4	0.1	182.71
18248	23.417	1.1	0.1	161.4
18249	23.319	1.2	0.1	179.07
18250	23.417	0.9	0.1	155.64
18251	23.319	1.	0.1	174.39
18252	23.417	0.7	0.1	148.56
18253	23.319	0.8	0.1	168.58
18254	23.417	0.5	0.1	140.35
18255	23.319	0.6	0.1	161.72
18256	23.417	0.3	0.1	132.58
18257	23.319	0.4	0.1	154.31
18258	23.319	0.2	0.1	149.28
18259	23.417	0.1	0.1	122.95
18260	23.222	5.7	0.1	170.32
18261	23.125	5.8	0.1	188.51
18262	23.222	5.9	0.1	162.22
18263	23.222	5.5	0.1	175.57
18264	23.125	5.6	0.1	191.29
18265	23.222	5.3	0.1	181.88
18266	23.125	5.4	0.1	196.76
18267	23.222	5.1	0.1	187.62
18268	23.125	5.2	0.1	202.17
18269	23.222	4.9	0.1	192.44
18270	23.125	5.	0.1	206.92
18271	23.222	4.7	0.1	196.28
18272	23.125	4.8	0.1	210.82
18273	23.222	4.5	0.1	199.23
18274	23.125	4.6	0.1	213.87
18275	23.222	4.3	0.1	201.41
18276	23.125	4.4	0.1	216.16
18277	23.222	4.1	0.1	202.96
18278	23.125	4.2	0.1	217.79
18279	23.222	3.9	0.1	204.02
18280	23.125	4.	0.1	218.91
18281	23.222	3.7	0.1	204.71
18282	23.125	3.8	0.1	219.64
18283	23.222	3.5	0.1	205.13
18284	23.125	3.6	0.1	220.08
18285	23.222	3.3	0.1	205.36
18286	23.125	3.4	0.1	220.33
18287	23.222	3.1	0.1	205.46
18288	23.125	3.2	0.1	220.45
18289	23.222	2.9	0.1	205.46
18290	23.125	3.	0.1	220.48
18291	23.222	2.7	0.1	205.36
18292	23.125	2.8	0.1	220.45
18293	23.222	2.5	0.1	205.13
18294	23.125	2.6	0.1	220.33
18295	23.222	2.3	0.1	204.71
18296	23.125	2.4	0.1	220.08
18297	23.222	2.1	0.1	204.02
18298	23.125	2.2	0.1	219.64
18299	23.222	1.9	0.1	202.96
18300	23.125	2.	0.1	218.91
18301	23.222	1.7	0.1	201.41
18302	23.125	1.8	0.1	217.79
18303	23.222	1.5	0.1	199.23
18304	23.125	1.6	0.1	216.16
18305	23.222	1.3	0.1	196.28
18306	23.125	1.4	0.1	213.87
18307	23.222	1.1	0.1	192.44
18308	23.125	1.2	0.1	210.82
18309	23.222	0.9	0.1	187.62
18310	23.125	1.	0.1	206.92
18311	23.222	0.7	0.1	181.88
18312	23.125	0.8	0.1	202.17
18313	23.222	0.5	0.1	175.57
18314	23.125	0.6	0.1	196.76
18315	23.222	0.3	0.1	170.32
18316	23.125	0.4	0.1	191.29
18317	23.125	0.2	0.1	188.51
18318	23.222	0.1	0.1	162.22
18319	23.028	5.7	0.1	208.89
18320	22.931	5.8	0.1	228.04
18321	23.028	5.9	0.1	201.89
18322	23.028	5.5	0.1	212.3
18323	22.931	5.6	0.1	229.24
18324	23.028	5.3	0.1	217.05
18325	22.931	5.4	0.1	233.18
18326	23.028	5.1	0.1	221.58
18327	22.931	5.2	0.1	237.33
18328	23.028	4.9	0.1	225.49
18329	22.931	5.	0.1	241.1
18330	23.028	4.7	0.1	228.66
18331	22.931	4.8	0.1	244.26
18332	23.028	4.5	0.1	231.09
18333	22.931	4.6	0.1	246.74
18334	23.028	4.3	0.1	232.87
18335	22.931	4.4	0.1	248.59
18336	23.028	4.1	0.1	234.1
18337	22.931	4.2	0.1	249.88
18338	23.028	3.9	0.1	234.91
18339	22.931	4.	0.1	250.73
18340	23.028	3.7	0.1	235.4
18341	22.931	3.8	0.1	251.25
18342	23.028	3.5	0.1	235.68
18343	22.931	3.6	0.1	251.53
18344	23.028	3.3	0.1	235.82
18345	22.931	3.4	0.1	251.67
18346	23.028	3.1	0.1	235.88
18347	22.931	3.2	0.1	251.72
18348	23.028	2.9	0.1	235.88
18349	22.931	3.	0.1	251.74
18350	23.028	2.7	0.1	235.82
18351	22.931	2.8	0.1	251.72
18352	23.028	2.5	0.1	235.68
18353	22.931	2.6	0.1	251.67
18354	23.028	2.3	0.1	235.4
18355	22.931	2.4	0.1	251.53
18356	23.028	2.1	0.1	234.91
18357	22.931	2.2	0.1	251.25
18358	23.028	1.9	0.1	234.1
18359	22.931	2.	0.1	250.73
18360	23.028	1.7	0.1	232.87
18361	22.931	1.8	0.1	249.88
18362	23.028	1.5	0.1	231.09
18363	22.931	1.6	0.1	248.59
18364	23.028	1.3	0.1	228.66
18365	22.931	1.4	0.1	246.74
18366	23.028	1.1	0.1	225.49
18367	22.931	1.2	0.1	244.26
18368	23.028	0.9	0.1	221.58
18369	22.931	1.	0.1	241.1
18370	23.028	0.7	0.1	217.05
18371	22.931	0.8	0.1	237.33
18372	23.028	0.5	0.1	212.3
18373	22.931	0.6	0.1	233.18
18374	23.028	0.3	0.1	208.89
18375	22.931	0.4	0.1	229.24
18376	22.931	0.2	0.1	228.04
18377	23.028	0.1	0.1	201.89
18378	22.833	5.7	0.1	247.88
18379	22.736	5.8	0.1	267.67
18380	22.833	5.9	0.1	241.76
18381	22.833	5.5	0.1	249.93
18382	22.736	5.6	0.1	267.72
18383	22.833	5.3	0.1	253.39
18384	22.736	5.4	0.1	270.45
18385	22.833	5.1	0.1	256.86
18386	22.736	5.2	0.1	273.53
18387	22.833	4.9	0.1	259.94
18388	22.736	5.	0.1	276.42
18389	22.833	4.7	0.1	262.47
18390	22.736	4.8	0.1	278.89
18391	22.833	4.5	0.1	264.41
18392	22.736	4.6	0.1	280.83
18393	22.833	4.3	0.1	265.8
18394	22.736	4.4	0.1	282.27
18395	22.833	4.1	0.1	266.74
18396	22.736	4.2	0.1	283.24
18397	22.833	3.9	0.1	267.31
18398	22.736	4.	0.1	283.84
18399	22.833	3.7	0.1	267.63
18400	22.736	3.8	0.1	284.17
18401	22.833	3.5	0.1	267.78
18402	22.736	3.6	0.1	284.31
18403	22.833	3.3	0.1	267.84
18404	22.736	3.4	0.1	284.35
18405	22.833	3.1	0.1	267.86
18406	22.736	3.2	0.1	284.35
18407	22.833	2.9	0.1	267.86
18408	22.736	3.	0.1	284.35
18409	22.833	2.7	0.1	267.84
18410	22.736	2.8	0.1	284.35
18411	22.833	2.5	0.1	267.78
18412	22.736	2.6	0.1	284.35
18413	22.833	2.3	0.1	267.63
18414	22.736	2.4	0.1	284.31
18415	22.833	2.1	0.1	267.31
18416	22.736	2.2	0.1	284.17
18417	22.833	1.9	0.1	266.74
18418	22.736	2.	0.1	283.84
18419	22.833	1.7	0.1	265.8
18420	22.736	1.8	0.1	283.24
18421	22.833	1.5	0.1	264.41
18422	22.736	1.6	0.1	282.27
18423	22.833	1.3	0.1	262.47
18424	22.736	1.4	0.1	280.83
18425	22.833	1.1	0.1	259.94
18426	22.736	1.2	0.1	278.89
18427	22.833	0.9	0.1	256.86
18428	22.736	1.	0.1	276.42
18429	22.833	0.7	0.1	253.39
18430	22.736	0.8	0.1	273.53
18431	22.833	0.5	0.1	249.93
18432	22.736	0.6	0.1	270.45
18433	22.833	0.3	0.1	247.88
18434	22.736	0.4	0.1	267.72
18435	22.736	0.2	0.1	267.67
18436	22.833	0.1	0.1	241.76
18437	22.639	5.7	0.1	287.06
18438	22.542	5.8	0.1	307.27
18439	22.639	5.9	0.1	281.69
18440	22.639	5.5	0.1	288.06
18441	22.542	5.6	0.1	306.45
18442	22.639	5.3	0.1	290.49
18443	22.542	5.4	0.1	308.23
18444	22.639	5.1	0.1	293.05
18445	22.542	5.2	0.1	310.42
18446	22.639	4.9	0.1	295.39
18447	22.542	5.	0.1	312.55
18448	22.639	4.7	0.1	297.32
18449	22.542	4.8	0.1	314.4
18450	22.639	4.5	0.1	298.8
18451	22.542	4.6	0.1	315.86
18452	22.639	4.3	0.1	299.83
18453	22.542	4.4	0.1	316.91
18454	22.639	4.1	0.1	300.5
18455	22.542	4.2	0.1	317.59
18456	22.639	3.9	0.1	300.86
18457	22.542	4.	0.1	317.98
18458	22.639	3.7	0.1	301.03
18459	22.542	3.8	0.1	318.14
18460	22.639	3.5	0.1	301.07
18461	22.542	3.6	0.1	318.17
18462	22.639	3.3	0.1	301.06
18463	22.542	3.4	0.1	318.13
18464	22.639	3.1	0.1	301.04
18465	22.542	3.2	0.1	318.08
18466	22.639	2.9	0.1	301.04
18467	22.542	3.	0.1	318.06
18468	22.639	2.7	0.1	301.06
18469	22.542	2.8	0.1	318.08
18470	22.639	2.5	0.1	301.07
18471	22.542	2.6	0.1	318.13
18472	22.639	2.3	0.1	301.03
18473	22.542	2.4	0.1	318.17
18474	22.639	2.1	0.1	300.86
18475	22.542	2.2	0.1	318.14
18476	22.639	1.9	0.1	300.5
18477	22.542	2.	0.1	317.98
18478	22.639	1.7	0.1	299.83
18479	22.542	1.8	0.1	317.59
18480	22.639	1.5	0.1	298.8
18481	22.542	1.6	0.1	316.91
18482	22.639	1.3	0.1	297.32
18483	22.542	1.4	0.1	315.86
18484	22.639	1.1	0.1	295.39
18485	22.542	1.2	0.1	314.4
18486	22.639	0.9	0.1	293.05
18487	22.542	1.	0.1	312.55
18488	22.639	0.7	0.1	290.49
18489	22.542	0.8	0.1	310.42
18490	22.639	0.5	0.1	288.06
18491	22.542	0.6	0.1	308.23
18492	22.639	0.3	0.1	287.06
18493	22.542	0.4	0.1	306.45
18494	22.542	0.2	0.1	307.27
18495	22.639	0.1	0.1	281.69
18496	22.444	5.7	0.1	326.27
18497	22.347	5.8	0.1	346.74
18498	22.444	5.9	0.1	321.54
18499	22.444	5.5	0.1	326.46
18500	22.347	5.6	0.1	345.27
18501	22.444	5.3	0.1	328.06
18502	22.347	5.4	0.1	346.3
18503	22.444	5.1	0.1	329.86
18504	22.347	5.2	0.1	347.76
18505	22.444	4.9	0.1	331.55
18506	22.347	5.	0.1	349.25
18507	22.444	4.7	0.1	332.96
18508	22.347	4.8	0.1	350.57
18509	22.444	4.5	0.1	334.03
18510	22.347	4.6	0.1	351.61
18511	22.444	4.3	0.1	334.75
18512	22.347	4.4	0.1	352.34
18513	22.444	4.1	0.1	335.17
18514	22.347	4.2	0.1	352.78
18515	22.444	3.9	0.1	335.37
18516	22.347	4.	0.1	352.98
18517	22.444	3.7	0.1	335.4
18518	22.347	3.8	0.1	353.02
18519	22.444	3.5	0.1	335.36
18520	22.347	3.6	0.1	352.96
18521	22.444	3.3	0.1	335.29
18522	22.347	3.4	0.1	352.87
18523	22.444	3.1	0.1	335.24
18524	22.347	3.2	0.1	352.79
18525	22.444	2.9	0.1	335.24
18526	22.347	3.	0.1	352.76
18527	22.444	2.7	0.1	335.29
18528	22.347	2.8	0.1	352.79
18529	22.444	2.5	0.1	335.36
18530	22.347	2.6	0.1	352.87
18531	22.444	2.3	0.1	335.4
18532	22.347	2.4	0.1	352.96
18533	22.444	2.1	0.1	335.37
18534	22.347	2.2	0.1	353.02
18535	22.444	1.9	0.1	335.17
18536	22.347	2.	0.1	352.98
18537	22.444	1.7	0.1	334.75
18538	22.347	1.8	0.1	352.78
18539	22.444	1.5	0.1	334.03
18540	22.347	1.6	0.1	352.34
18541	22.444	1.3	0.1	332.96
18542	22.347	1.4	0.1	351.61
18543	22.444	1.1	0.1	331.55
18544	22.347	1.2	0.1	350.57
18545	22.444	0.9	0.1	329.86
18546	22.347	1.	0.1	349.25
18547	22.444	0.7	0.1	328.06
18548	22.347	0.8	0.1	347.76
18549	22.444	0.5	0.1	326.46
18550	22.347	0.6	0.1	346.3
18551	22.444	0.3	0.1	326.27
18552	22.347	0.4	0.1	345.27
18553	22.347	0.2	0.1	346.74
18554	22.444	0.1	0.1	321.54
18555	22.25	5.7	0.1	365.38
18556	22.153	5.8	0.1	385.93
18557	22.25	5.9	0.1	361.19
18558	22.25	5.5	0.1	364.95
18559	22.153	5.6	0.1	384.
18560	22.25	5.3	0.1	365.9
18561	22.153	5.4	0.1	384.46
18562	22.25	5.1	0.1	367.09
18563	22.153	5.2	0.1	385.35
18564	22.25	4.9	0.1	368.24
18565	22.153	5.	0.1	386.34
18566	22.25	4.7	0.1	369.22
18567	22.153	4.8	0.1	387.24
18568	22.25	4.5	0.1	369.95
18569	22.153	4.6	0.1	387.96
18570	22.25	4.3	0.1	370.42
18571	22.153	4.4	0.1	388.44
18572	22.25	4.1	0.1	370.66
18573	22.153	4.2	0.1	388.71
18574	22.25	3.9	0.1	370.72
18575	22.153	4.	0.1	388.8
18576	22.25	3.7	0.1	370.67
18577	22.153	3.8	0.1	388.77
18578	22.25	3.5	0.1	370.57
18579	22.153	3.6	0.1	388.67
18580	22.25	3.3	0.1	370.47
18581	22.153	3.4	0.1	388.56
18582	22.25	3.1	0.1	370.42
18583	22.153	3.2	0.1	388.48
18584	22.25	2.9	0.1	370.42
18585	22.153	3.	0.1	388.45
18586	22.25	2.7	0.1	370.47
18587	22.153	2.8	0.1	388.48
18588	22.25	2.5	0.1	370.57
18589	22.153	2.6	0.1	388.56
18590	22.25	2.3	0.1	370.67
18591	22.153	2.4	0.1	388.67
18592	22.25	2.1	0.1	370.72
18593	22.153	2.2	0.1	388.77
18594	22.25	1.9	0.1	370.66
18595	22.153	2.	0.1	388.8
18596	22.25	1.7	0.1	370.42
18597	22.153	1.8	0.1	388.71
18598	22.25	1.5	0.1	369.95
18599	22.153	1.6	0.1	388.44
18600	22.25	1.3	0.1	369.22
18601	22.153	1.4	0.1	387.96
18602	22.25	1.1	0.1	368.24
18603	22.153	1.2	0.1	387.24
18604	22.25	0.9	0.1	367.09
18605	22.153	1.	0.1	386.34
18606	22.25	0.7	0.1	365.9
18607	22.153	0.8	0.1	385.35
18608	22.25	0.5	0.1	364.95
18609	22.153	0.6	0.1	384.46
18610	22.25	0.3	0.1	365.38
18611	22.153	0.4	0.1	384.
18612	22.153	0.2	0.1	385.93
18613	22.25	0.1	0.1	361.19
18614	22.056	5.7	0.1	404.22
18615	21.958	5.8	0.1	424.7
18616	22.056	5.9	0.1	400.47
18617	22.056	5.5	0.1	403.36
18618	21.958	5.6	0.1	422.47
18619	22.056	5.3	0.1	403.82
18620	21.958	5.4	0.1	422.53
18621	22.056	5.1	0.1	404.55
18622	21.958	5.2	0.1	423.03
18623	22.056	4.9	0.1	405.31
18624	21.958	5.	0.1	423.67
18625	22.056	4.7	0.1	405.97
18626	21.958	4.8	0.1	424.28
18627	22.056	4.5	0.1	406.46
18628	21.958	4.6	0.1	424.79
18629	22.056	4.3	0.1	406.76
18630	21.958	4.4	0.1	425.14
18631	22.056	4.1	0.1	406.9
18632	21.958	4.2	0.1	425.34
18633	22.056	3.9	0.1	406.9
18634	21.958	4.	0.1	425.42
18635	22.056	3.7	0.1	406.84
18636	21.958	3.8	0.1	425.4
18637	22.056	3.5	0.1	406.73
18638	21.958	3.6	0.1	425.34
18639	22.056	3.3	0.1	406.64
18640	21.958	3.4	0.1	425.27
18641	22.056	3.1	0.1	406.59
18642	21.958	3.2	0.1	425.21
18643	22.056	2.9	0.1	406.59
18644	21.958	3.	0.1	425.19
18645	22.056	2.7	0.1	406.64
18646	21.958	2.8	0.1	425.21
18647	22.056	2.5	0.1	406.73
18648	21.958	2.6	0.1	425.27
18649	22.056	2.3	0.1	406.84
18650	21.958	2.4	0.1	425.34
18651	22.056	2.1	0.1	406.9
18652	21.958	2.2	0.1	425.4
18653	22.056	1.9	0.1	406.9
18654	21.958	2.	0.1	425.42
18655	22.056	1.7	0.1	406.76
18656	21.958	1.8	0.1	425.34
18657	22.056	1.5	0.1	406.46
18658	21.958	1.6	0.1	425.14
18659	22.056	1.3	0.1	405.97
18660	21.958	1.4	0.1	424.79
18661	22.056	1.1	0.1	405.31
18662	21.958	1.2	0.1	424.28
18663	22.056	0.9	0.1	404.55
18664	21.958	1.	0.1	423.67
18665	22.056	0.7	0.1	403.82
18666	21.958	0.8	0.1	423.03
18667	22.056	0.5	0.1	403.36
18668	21.958	0.6	0.1	422.53
18669	22.056	0.3	0.1	404.22
18670	21.958	0.4	0.1	422.47
18671	21.958	0.2	0.1	424.7
18672	22.056	0.1	0.1	400.47
18673	21.861	5.7	0.1	442.64
18674	21.764	5.8	0.1	462.85
18675	21.861	5.9	0.1	439.21
18676	21.861	5.5	0.1	441.5
18677	21.764	5.6	0.1	460.48
18678	21.861	5.3	0.1	441.64
18679	21.764	5.4	0.1	460.32
18680	21.861	5.1	0.1	442.08
18681	21.764	5.2	0.1	460.6
18682	21.861	4.9	0.1	442.6
18683	21.764	5.	0.1	461.06
18684	21.861	4.7	0.1	443.08
18685	21.764	4.8	0.1	461.57
18686	21.861	4.5	0.1	443.47
18687	21.764	4.6	0.1	462.02
18688	21.861	4.3	0.1	443.74
18689	21.764	4.4	0.1	462.4
18690	21.861	4.1	0.1	443.89
18691	21.764	4.2	0.1	462.68
18692	21.861	3.9	0.1	443.95
18693	21.764	4.	0.1	462.87
18694	21.861	3.7	0.1	443.96
18695	21.764	3.8	0.1	463.
18696	21.861	3.5	0.1	443.93
18697	21.764	3.6	0.1	463.09
18698	21.861	3.3	0.1	443.9
18699	21.764	3.4	0.1	463.13
18700	21.861	3.1	0.1	443.88
18701	21.764	3.2	0.1	463.16
18702	21.861	2.9	0.1	443.88
18703	21.764	3.	0.1	463.17
18704	21.861	2.7	0.1	443.9
18705	21.764	2.8	0.1	463.16
18706	21.861	2.5	0.1	443.93
18707	21.764	2.6	0.1	463.13
18708	21.861	2.3	0.1	443.96
18709	21.764	2.4	0.1	463.09
18710	21.861	2.1	0.1	443.95
18711	21.764	2.2	0.1	463.
18712	21.861	1.9	0.1	443.89
18713	21.764	2.	0.1	462.87
18714	21.861	1.7	0.1	443.74
18715	21.764	1.8	0.1	462.68
18716	21.861	1.5	0.1	443.47
18717	21.764	1.6	0.1	462.4
18718	21.861	1.3	0.1	443.08
18719	21.764	1.4	0.1	462.02
18720	21.861	1.1	0.1	442.6
18721	21.764	1.2	0.1	461.57
18722	21.861	0.9	0.1	442.08
18723	21.764	1.	0.1	461.06
18724	21.861	0.7	0.1	441.64
18725	21.764	0.8	0.1	460.6
18726	21.861	0.5	0.1	441.5
18727	21.764	0.6	0.1	460.32
18728	21.861	0.3	0.1	442.64
18729	21.764	0.4	0.1	460.48
18730	21.764	0.2	0.1	462.85
18731	21.861	0.1	0.1	439.21
18732	21.667	5.7	0.1	480.41
18733	21.569	5.8	0.1	500.14
18734	21.667	5.9	0.1	477.15
18735	21.667	5.5	0.1	479.17
18736	21.569	5.6	0.1	497.8
18737	21.667	5.3	0.1	479.18
18738	21.569	5.4	0.1	497.61
18739	21.667	5.1	0.1	479.51
18740	21.569	5.2	0.1	497.88
18741	21.667	4.9	0.1	479.98
18742	21.569	5.	0.1	498.37
18743	21.667	4.7	0.1	480.47
18744	21.569	4.8	0.1	498.96
18745	21.667	4.5	0.1	480.94
18746	21.569	4.6	0.1	499.59
18747	21.667	4.3	0.1	481.34
18748	21.569	4.4	0.1	500.19
18749	21.667	4.1	0.1	481.68
18750	21.569	4.2	0.1	500.76
18751	21.667	3.9	0.1	481.95
18752	21.569	4.	0.1	501.27
18753	21.667	3.7	0.1	482.17
18754	21.569	3.8	0.1	501.72
18755	21.667	3.5	0.1	482.33
18756	21.569	3.6	0.1	502.09
18757	21.667	3.3	0.1	482.44
18758	21.569	3.4	0.1	502.38
18759	21.667	3.1	0.1	482.49
18760	21.569	3.2	0.1	502.56
18761	21.667	2.9	0.1	482.49
18762	21.569	3.	0.1	502.62
18763	21.667	2.7	0.1	482.44
18764	21.569	2.8	0.1	502.56
18765	21.667	2.5	0.1	482.33
18766	21.569	2.6	0.1	502.38
18767	21.667	2.3	0.1	482.17
18768	21.569	2.4	0.1	502.09
18769	21.667	2.1	0.1	481.95
18770	21.569	2.2	0.1	501.72
18771	21.667	1.9	0.1	481.68
18772	21.569	2.	0.1	501.27
18773	21.667	1.7	0.1	481.34
18774	21.569	1.8	0.1	500.76
18775	21.667	1.5	0.1	480.94
18776	21.569	1.6	0.1	500.19
18777	21.667	1.3	0.1	480.47
18778	21.569	1.4	0.1	499.59
18779	21.667	1.1	0.1	479.98
18780	21.569	1.2	0.1	498.96
18781	21.667	0.9	0.1	479.51
18782	21.569	1.	0.1	498.37
18783	21.667	0.7	0.1	479.18
18784	21.569	0.8	0.1	497.88
18785	21.667	0.5	0.1	479.17
18786	21.569	0.6	0.1	497.61
18787	21.667	0.3	0.1	480.41
18788	21.569	0.4	0.1	497.8
18789	21.569	0.2	0.1	500.14
18790	21.667	0.1	0.1	477.15
18791	21.472	5.7	0.1	517.27
18792	21.375	5.8	0.1	536.24
18793	21.472	5.9	0.1	514.01
18794	21.472	5.5	0.1	516.12
18795	21.375	5.6	0.1	534.12
18796	21.472	5.3	0.1	516.21
18797	21.375	5.4	0.1	534.12
18798	21.472	5.1	0.1	516.66
18799	21.375	5.2	0.1	534.61
18800	21.472	4.9	0.1	517.3
18801	21.375	5.	0.1	535.39
18802	21.472	4.7	0.1	518.04
18803	21.375	4.8	0.1	536.34
18804	21.472	4.5	0.1	518.81
18805	21.375	4.6	0.1	537.4
18806	21.472	4.3	0.1	519.59
18807	21.375	4.4	0.1	538.52
18808	21.472	4.1	0.1	520.35
18809	21.375	4.2	0.1	539.64
18810	21.472	3.9	0.1	521.05
18811	21.375	4.	0.1	540.74
18812	21.472	3.7	0.1	521.67
18813	21.375	3.8	0.1	541.75
18814	21.472	3.5	0.1	522.17
18815	21.375	3.6	0.1	542.64
18816	21.472	3.3	0.1	522.54
18817	21.375	3.4	0.1	543.33
18818	21.472	3.1	0.1	522.72
18819	21.375	3.2	0.1	543.76
18820	21.472	2.9	0.1	522.72
18821	21.375	3.	0.1	543.92
18822	21.472	2.7	0.1	522.54
18823	21.375	2.8	0.1	543.76
18824	21.472	2.5	0.1	522.17
18825	21.375	2.6	0.1	543.33
18826	21.472	2.3	0.1	521.67
18827	21.375	2.4	0.1	542.64
18828	21.472	2.1	0.1	521.05
18829	21.375	2.2	0.1	541.75
18830	21.472	1.9	0.1	520.35
18831	21.375	2.	0.1	540.74
18832	21.472	1.7	0.1	519.59
18833	21.375	1.8	0.1	539.64
18834	21.472	1.5	0.1	518.81
18835	21.375	1.6	0.1	538.52
18836	21.472	1.3	0.1	518.04
18837	21.375	1.4	0.1	537.4
18838	21.472	1.1	0.1	517.3
18839	21.375	1.2	0.1	536.34
18840	21.472	0.9	0.1	516.66
18841	21.375	1.	0.1	535.39
18842	21.472	0.7	0.1	516.21
18843	21.375	0.8	0.1	534.61
18844	21.472	0.5	0.1	516.12
18845	21.375	0.6	0.1	534.12
18846	21.472	0.3	0.1	517.27
18847	21.375	0.4	0.1	534.12
18848	21.375	0.2	0.1	536.24
18849	21.472	0.1	0.1	514.01
18850	21.278	5.7	0.1	552.86
18851	21.181	5.8	0.1	570.76
18852	21.278	5.9	0.1	549.41
18853	21.278	5.5	0.1	552.02
18854	21.181	5.6	0.1	569.07
18855	21.278	5.3	0.1	552.43
18856	21.181	5.4	0.1	569.51
18857	21.278	5.1	0.1	553.27
18858	21.181	5.2	0.1	570.51
18859	21.278	4.9	0.1	554.37
18860	21.181	5.	0.1	571.89
18861	21.278	4.7	0.1	555.66
18862	21.181	4.8	0.1	573.54
18863	21.278	4.5	0.1	557.07
18864	21.181	4.6	0.1	575.4
18865	21.278	4.3	0.1	558.54
18866	21.181	4.4	0.1	577.39
18867	21.278	4.1	0.1	560.03
18868	21.181	4.2	0.1	579.45
18869	21.278	3.9	0.1	561.45
18870	21.181	4.	0.1	581.49
18871	21.278	3.7	0.1	562.74
18872	21.181	3.8	0.1	583.42
18873	21.278	3.5	0.1	563.81
18874	21.181	3.6	0.1	585.1
18875	21.278	3.3	0.1	564.58
18876	21.181	3.4	0.1	586.42
18877	21.278	3.1	0.1	564.99
18878	21.181	3.2	0.1	587.26
18879	21.278	2.9	0.1	564.99
18880	21.181	3.	0.1	587.55
18881	21.278	2.7	0.1	564.58
18882	21.181	2.8	0.1	587.26
18883	21.278	2.5	0.1	563.81
18884	21.181	2.6	0.1	586.42
18885	21.278	2.3	0.1	562.74
18886	21.181	2.4	0.1	585.1
18887	21.278	2.1	0.1	561.45
18888	21.181	2.2	0.1	583.42
18889	21.278	1.9	0.1	560.03
18890	21.181	2.	0.1	581.49
18891	21.278	1.7	0.1	558.54
18892	21.181	1.8	0.1	579.45
18893	21.278	1.5	0.1	557.07
18894	21.181	1.6	0.1	577.39
18895	21.278	1.3	0.1	555.66
18896	21.181	1.4	0.1	575.4
18897	21.278	1.1	0.1	554.37
18898	21.181	1.2	0.1	573.54
18899	21.278	0.9	0.1	553.27
18900	21.181	1.	0.1	571.89
18901	21.278	0.7	0.1	552.43
18902	21.181	0.8	0.1	570.51
18903	21.278	0.5	0.1	552.02
18904	21.181	0.6	0.1	569.51
18905	21.278	0.3	0.1	552.86
18906	21.181	0.4	0.1	569.07
18907	21.181	0.2	0.1	570.76
18908	21.278	0.1	0.1	549.41
18909	21.083	5.7	0.1	586.74
18910	20.986	5.8	0.1	603.16
18911	21.083	5.9	0.1	582.85
18912	21.083	5.5	0.1	586.46
18913	20.986	5.6	0.1	602.15
18914	21.083	5.3	0.1	587.5
18915	20.986	5.4	0.1	603.34
18916	21.083	5.1	0.1	589.06
18917	20.986	5.2	0.1	605.21
18918	21.083	4.9	0.1	590.99
18919	20.986	5.	0.1	607.58
18920	21.083	4.7	0.1	593.22
18921	20.986	4.8	0.1	610.36
18922	21.083	4.5	0.1	595.68
18923	20.986	4.6	0.1	613.48
18924	21.083	4.3	0.1	598.27
18925	20.986	4.4	0.1	616.84
18926	21.083	4.1	0.1	600.9
18927	20.986	4.2	0.1	620.34
18928	21.083	3.9	0.1	603.45
18929	20.986	4.	0.1	623.82
18930	21.083	3.7	0.1	605.78
18931	20.986	3.8	0.1	627.11
18932	21.083	3.5	0.1	607.72
18933	20.986	3.6	0.1	630.
18934	21.083	3.3	0.1	609.12
18935	20.986	3.4	0.1	632.26
18936	21.083	3.1	0.1	609.85
18937	20.986	3.2	0.1	633.71
18938	21.083	2.9	0.1	609.85
18939	20.986	3.	0.1	634.21
18940	21.083	2.7	0.1	609.12
18941	20.986	2.8	0.1	633.71
18942	21.083	2.5	0.1	607.72
18943	20.986	2.6	0.1	632.26
18944	21.083	2.3	0.1	605.78
18945	20.986	2.4	0.1	630.
18946	21.083	2.1	0.1	603.45
18947	20.986	2.2	0.1	627.11
18948	21.083	1.9	0.1	600.9
18949	20.986	2.	0.1	623.82
18950	21.083	1.7	0.1	598.27
18951	20.986	1.8	0.1	620.34
18952	21.083	1.5	0.1	595.68
18953	20.986	1.6	0.1	616.84
18954	21.083	1.3	0.1	593.22
18955	20.986	1.4	0.1	613.48
18956	21.083	1.1	0.1	590.99
18957	20.986	1.2	0.1	610.36
18958	21.083	0.9	0.1	589.06
18959	20.986	1.	0.1	607.58
18960	21.083	0.7	0.1	587.5
18961	20.986	0.8	0.1	605.21
18962	21.083	0.5	0.1	586.46
18963	20.986	0.6	0.1	603.34
18964	21.083	0.3	0.1	586.74
18965	20.986	0.4	0.1	602.15
18966	20.986	0.2	0.1	603.16
18967	21.083	0.1	0.1	582.85
18968	20.889	5.7	0.1	618.36
18969	20.792	5.8	0.1	632.79
18970	20.889	5.9	0.1	613.73
18971	20.889	5.5	0.1	618.93
18972	20.792	5.6	0.1	632.74
18973	20.889	5.3	0.1	620.96
18974	20.792	5.4	0.1	635.04
18975	20.889	5.1	0.1	623.65
18976	20.792	5.2	0.1	638.21
18977	20.889	4.9	0.1	626.88
18978	20.792	5.	0.1	642.09
18979	20.889	4.7	0.1	630.57
18980	20.792	4.8	0.1	646.57
18981	20.889	4.5	0.1	634.6
18982	20.792	4.6	0.1	651.56
18983	20.889	4.3	0.1	638.88
18984	20.792	4.4	0.1	656.93
18985	20.889	4.1	0.1	643.23
18986	20.792	4.2	0.1	662.52
18987	20.889	3.9	0.1	647.46
18988	20.792	4.	0.1	668.1
18989	20.889	3.7	0.1	651.32
18990	20.792	3.8	0.1	673.38
18991	20.889	3.5	0.1	654.54
18992	20.792	3.6	0.1	678.02
18993	20.889	3.3	0.1	656.87
18994	20.792	3.4	0.1	681.67
18995	20.889	3.1	0.1	658.09
18996	20.792	3.2	0.1	684.
18997	20.889	2.9	0.1	658.09
18998	20.792	3.	0.1	684.81
18999	20.889	2.7	0.1	656.87
19000	20.792	2.8	0.1	684.
19001	20.889	2.5	0.1	654.54
19002	20.792	2.6	0.1	681.67
19003	20.889	2.3	0.1	651.32
19004	20.792	2.4	0.1	678.02
19005	20.889	2.1	0.1	647.46
19006	20.792	2.2	0.1	673.38
19007	20.889	1.9	0.1	643.23
19008	20.792	2.	0.1	668.1
19009	20.889	1.7	0.1	638.88
19010	20.792	1.8	0.1	662.52
19011	20.889	1.5	0.1	634.6
19012	20.792	1.6	0.1	656.93
19013	20.889	1.3	0.1	630.57
19014	20.792	1.4	0.1	651.56
19015	20.889	1.1	0.1	626.88
19016	20.792	1.2	0.1	646.57
19017	20.889	0.9	0.1	623.65
19018	20.792	1.	0.1	642.09
19019	20.889	0.7	0.1	620.96
19020	20.792	0.8	0.1	638.21
19021	20.889	0.5	0.1	618.93
19022	20.792	0.6	0.1	635.04
19023	20.889	0.3	0.1	618.36
19024	20.792	0.4	0.1	632.74
19025	20.792	0.2	0.1	632.79
19026	20.889	0.1	0.1	613.73
19027	20.694	5.7	0.1	647.
19028	20.597	5.8	0.1	658.84
19029	20.694	5.9	0.1	641.3
19030	20.694	5.5	0.1	648.77
19031	20.597	5.6	0.1	660.06
19032	20.694	5.3	0.1	652.23
19033	20.597	5.4	0.1	663.92
19034	20.694	5.1	0.1	656.58
19035	20.597	5.2	0.1	668.94
19036	20.694	4.9	0.1	661.71
19037	20.597	5.	0.1	674.95
19038	20.694	4.7	0.1	667.5
19039	20.597	4.8	0.1	681.85
19040	20.694	4.5	0.1	673.84
19041	20.597	4.6	0.1	689.52
19042	20.694	4.3	0.1	680.54
19043	20.597	4.4	0.1	697.75
19044	20.694	4.1	0.1	687.37
19045	20.597	4.2	0.1	706.31
19046	20.694	3.9	0.1	694.01
19047	20.597	4.	0.1	714.87
19048	20.694	3.7	0.1	700.07
19049	20.597	3.8	0.1	722.97
19050	20.694	3.5	0.1	705.14
19051	20.597	3.6	0.1	730.1
19052	20.694	3.3	0.1	708.8
19053	20.597	3.4	0.1	735.71
19054	20.694	3.1	0.1	710.72
19055	20.597	3.2	0.1	739.31
19056	20.694	2.9	0.1	710.72
19057	20.597	3.	0.1	740.55
19058	20.694	2.7	0.1	708.8
19059	20.597	2.8	0.1	739.31
19060	20.694	2.5	0.1	705.14
19061	20.597	2.6	0.1	735.71
19062	20.694	2.3	0.1	700.07
19063	20.597	2.4	0.1	730.1
19064	20.694	2.1	0.1	694.01
19065	20.597	2.2	0.1	722.97
19066	20.694	1.9	0.1	687.37
19067	20.597	2.	0.1	714.87
19068	20.694	1.7	0.1	680.54
19069	20.597	1.8	0.1	706.31
19070	20.694	1.5	0.1	673.84
19071	20.597	1.6	0.1	697.75
19072	20.694	1.3	0.1	667.5
19073	20.597	1.4	0.1	689.52
19074	20.694	1.1	0.1	661.71
19075	20.597	1.2	0.1	681.85
19076	20.694	0.9	0.1	656.58
19077	20.597	1.	0.1	674.95
19078	20.694	0.7	0.1	652.23
19079	20.597	0.8	0.1	668.94
19080	20.694	0.5	0.1	648.77
19081	20.597	0.6	0.1	663.92
19082	20.694	0.3	0.1	647.
19083	20.597	0.4	0.1	660.06
19084	20.597	0.2	0.1	658.84
19085	20.694	0.1	0.1	641.3
19086	20.5	5.7	0.1	671.76
19087	20.403	5.8	0.1	680.27
19088	20.5	5.9	0.1	664.6
19089	20.5	5.5	0.1	675.15
19090	20.403	5.6	0.1	683.13
19091	20.5	5.3	0.1	680.58
19092	20.403	5.4	0.1	689.08
19093	20.5	5.1	0.1	687.25
19094	20.403	5.2	0.1	696.62
19095	20.5	4.9	0.1	695.05
19096	20.403	5.	0.1	705.59
19097	20.5	4.7	0.1	703.82
19098	20.403	4.8	0.1	715.87
19099	20.5	4.5	0.1	713.39
19100	20.403	4.6	0.1	727.24
19101	20.5	4.3	0.1	723.5
19102	20.403	4.4	0.1	739.45
19103	20.5	4.1	0.1	733.79
19104	20.403	4.2	0.1	752.14
19105	20.5	3.9	0.1	743.82
19106	20.403	4.	0.1	764.83
19107	20.5	3.7	0.1	752.99
19108	20.403	3.8	0.1	776.87
19109	20.5	3.5	0.1	760.67
19110	20.403	3.6	0.1	787.49
19111	20.5	3.3	0.1	766.21
19112	20.403	3.4	0.1	795.87
19113	20.5	3.1	0.1	769.13
19114	20.403	3.2	0.1	801.24
19115	20.5	2.9	0.1	769.13
19116	20.403	3.	0.1	803.1
19117	20.5	2.7	0.1	766.21
19118	20.403	2.8	0.1	801.24
19119	20.5	2.5	0.1	760.67
19120	20.403	2.6	0.1	795.87
19121	20.5	2.3	0.1	752.99
19122	20.403	2.4	0.1	787.49
19123	20.5	2.1	0.1	743.82
19124	20.403	2.2	0.1	776.87
19125	20.5	1.9	0.1	733.79
19126	20.403	2.	0.1	764.83
19127	20.5	1.7	0.1	723.5
19128	20.403	1.8	0.1	752.14
19129	20.5	1.5	0.1	713.39
19130	20.403	1.6	0.1	739.45
19131	20.5	1.3	0.1	703.82
19132	20.403	1.4	0.1	727.24
19133	20.5	1.1	0.1	695.05
19134	20.403	1.2	0.1	715.87
19135	20.5	0.9	0.1	687.25
19136	20.403	1.	0.1	705.59
19137	20.5	0.7	0.1	680.58
19138	20.403	0.8	0.1	696.62
19139	20.5	0.5	0.1	675.15
19140	20.403	0.6	0.1	689.08
19141	20.5	0.3	0.1	671.76
19142	20.403	0.4	0.1	683.13
19143	20.403	0.2	0.1	680.27
19144	20.5	0.1	0.1	664.6
19145	20.306	5.7	0.1	691.53
19146	20.208	5.8	0.1	695.83
19147	20.306	5.9	0.1	682.46
19148	20.306	5.5	0.1	697.02
19149	20.208	5.6	0.1	700.72
19150	20.306	5.3	0.1	705.09
19151	20.208	5.4	0.1	709.39
19152	20.306	5.1	0.1	714.93
19153	20.208	5.2	0.1	720.31
19154	20.306	4.9	0.1	726.39
19155	20.208	5.	0.1	733.31
19156	20.306	4.7	0.1	739.27
19157	20.208	4.8	0.1	748.19
19158	20.306	4.5	0.1	753.29
19159	20.208	4.6	0.1	764.64
19160	20.306	4.3	0.1	768.09
19161	20.208	4.4	0.1	782.28
19162	20.306	4.1	0.1	783.18
19163	20.208	4.2	0.1	800.62
19164	20.306	3.9	0.1	797.89
19165	20.208	4.	0.1	818.98
19166	20.306	3.7	0.1	811.37
19167	20.208	3.8	0.1	836.45
19168	20.306	3.5	0.1	822.68
19169	20.208	3.6	0.1	851.9
19170	20.306	3.3	0.1	830.86
19171	20.208	3.4	0.1	864.1
19172	20.306	3.1	0.1	835.16
19173	20.208	3.2	0.1	871.94
19174	20.306	2.9	0.1	835.16
19175	20.208	3.	0.1	874.65
19176	20.306	2.7	0.1	830.86
19177	20.208	2.8	0.1	871.94
19178	20.306	2.5	0.1	822.68
19179	20.208	2.6	0.1	864.1
19180	20.306	2.3	0.1	811.37
19181	20.208	2.4	0.1	851.9
19182	20.306	2.1	0.1	797.89
19183	20.208	2.2	0.1	836.45
19184	20.306	1.9	0.1	783.18
19185	20.208	2.	0.1	818.98
19186	20.306	1.7	0.1	768.09
19187	20.208	1.8	0.1	800.62
19188	20.306	1.5	0.1	753.29
19189	20.208	1.6	0.1	782.28
19190	20.306	1.3	0.1	739.27
19191	20.208	1.4	0.1	764.64
19192	20.306	1.1	0.1	726.39
19193	20.208	1.2	0.1	748.19
19194	20.306	0.9	0.1	714.93
19195	20.208	1.	0.1	733.31
19196	20.306	0.7	0.1	705.09
19197	20.208	0.8	0.1	720.31
19198	20.306	0.5	0.1	697.02
19199	20.208	0.6	0.1	709.39
19200	20.306	0.3	0.1	691.53
19201	20.208	0.4	0.1	700.72
19202	20.208	0.2	0.1	695.83
19203	20.306	0.1	0.1	682.46
19204	20.111	5.7	0.1	704.95
19205	20.014	5.8	0.1	704.
19206	20.111	5.9	0.1	693.47
19207	20.111	5.5	0.1	713.09
19208	20.014	5.6	0.1	711.32
19209	20.111	5.3	0.1	724.63
19210	20.014	5.4	0.1	723.47
19211	20.111	5.1	0.1	738.72
19212	20.014	5.2	0.1	738.86
19213	20.111	4.9	0.1	755.15
19214	20.014	5.	0.1	757.27
19215	20.111	4.7	0.1	773.6
19216	20.014	4.8	0.1	778.37
19217	20.111	4.5	0.1	793.68
19218	20.014	4.6	0.1	801.69
19219	20.111	4.3	0.1	814.86
19220	20.014	4.4	0.1	826.68
19221	20.111	4.1	0.1	836.47
19222	20.014	4.2	0.1	852.66
19223	20.111	3.9	0.1	857.58
19224	20.014	4.	0.1	878.72
19225	20.111	3.7	0.1	876.98
19226	20.014	3.8	0.1	903.59
19227	20.111	3.5	0.1	893.28
19228	20.014	3.6	0.1	925.64
19229	20.111	3.3	0.1	905.1
19230	20.014	3.4	0.1	943.09
19231	20.111	3.1	0.1	911.32
19232	20.014	3.2	0.1	954.32
19233	20.111	2.9	0.1	911.32
19234	20.014	3.	0.1	958.2
19235	20.111	2.7	0.1	905.1
19236	20.014	2.8	0.1	954.32
19237	20.111	2.5	0.1	893.28
19238	20.014	2.6	0.1	943.09
19239	20.111	2.3	0.1	876.98
19240	20.014	2.4	0.1	925.64
19241	20.111	2.1	0.1	857.58
19242	20.014	2.2	0.1	903.59
19243	20.111	1.9	0.1	836.47
19244	20.014	2.	0.1	878.72
19245	20.111	1.7	0.1	814.86
19246	20.014	1.8	0.1	852.66
19247	20.111	1.5	0.1	793.68
19248	20.014	1.6	0.1	826.68
19249	20.111	1.3	0.1	773.6
19250	20.014	1.4	0.1	801.69
19251	20.111	1.1	0.1	755.15
19252	20.014	1.2	0.1	778.37
19253	20.111	0.9	0.1	738.72
19254	20.014	1.	0.1	757.27
19255	20.111	0.7	0.1	724.63
19256	20.014	0.8	0.1	738.86
19257	20.111	0.5	0.1	713.09
19258	20.014	0.6	0.1	723.47
19259	20.111	0.3	0.1	704.95
19260	20.014	0.4	0.1	711.32
19261	20.014	0.2	0.1	704.
19262	20.111	0.1	0.1	693.47
19263	19.917	5.7	0.1	710.36
19264	19.819	5.8	0.1	702.96
19265	19.917	5.9	0.1	695.93
19266	19.917	5.5	0.1	721.78
19267	19.819	5.6	0.1	713.14
19268	19.917	5.3	0.1	737.81
19269	19.819	5.4	0.1	729.67
19270	19.917	5.1	0.1	757.54
19271	19.819	5.2	0.1	750.89
19272	19.917	4.9	0.1	780.64
19273	19.819	5.	0.1	776.5
19274	19.917	4.7	0.1	806.62
19275	19.819	4.8	0.1	805.96
19276	19.917	4.5	0.1	834.86
19277	19.819	4.6	0.1	838.53
19278	19.917	4.3	0.1	864.64
19279	19.819	4.4	0.1	873.4
19280	19.917	4.1	0.1	895.06
19281	19.819	4.2	0.1	909.67
19282	19.917	3.9	0.1	924.84
19283	19.819	4.	0.1	946.11
19284	19.917	3.7	0.1	952.28
19285	19.819	3.8	0.1	980.99
19286	19.917	3.5	0.1	975.39
19287	19.819	3.6	0.1	1012.
19288	19.917	3.3	0.1	992.15
19289	19.819	3.4	0.1	1036.5
19290	19.917	3.1	0.1	1001.
19291	19.819	3.2	0.1	1052.3
19292	19.917	2.9	0.1	1001.
19293	19.819	3.	0.1	1057.8
19294	19.917	2.7	0.1	992.15
19295	19.819	2.8	0.1	1052.3
19296	19.917	2.5	0.1	975.39
19297	19.819	2.6	0.1	1036.5
19298	19.917	2.3	0.1	952.28
19299	19.819	2.4	0.1	1012.
19300	19.917	2.1	0.1	924.84
19301	19.819	2.2	0.1	980.99
19302	19.917	1.9	0.1	895.06
19303	19.819	2.	0.1	946.11
19304	19.917	1.7	0.1	864.64
19305	19.819	1.8	0.1	909.67
19306	19.917	1.5	0.1	834.86
19307	19.819	1.6	0.1	873.4
19308	19.917	1.3	0.1	806.62
19309	19.819	1.4	0.1	838.53
19310	19.917	1.1	0.1	780.64
19311	19.819	1.2	0.1	805.96
19312	19.917	0.9	0.1	757.54
19313	19.819	1.	0.1	776.5
19314	19.917	0.7	0.1	737.81
19315	19.819	0.8	0.1	750.89
19316	19.917	0.5	0.1	721.78
19317	19.819	0.6	0.1	729.67
19318	19.917	0.3	0.1	710.36
19319	19.819	0.4	0.1	713.14
19320	19.819	0.2	0.1	702.96
19321	19.917	0.1	0.1	695.93
19322	19.722	5.7	0.1	705.81
19323	19.625	5.8	0.1	690.64
19324	19.722	5.9	0.1	687.89
19325	19.722	5.5	0.1	721.2
19326	19.625	5.6	0.1	704.05
19327	19.722	5.3	0.1	743.
19328	19.625	5.4	0.1	726.04
19329	19.722	5.1	0.1	770.17
19330	19.625	5.2	0.1	754.84
19331	19.722	4.9	0.1	802.19
19332	19.625	5.	0.1	790.
19333	19.722	4.7	0.1	838.26
19334	19.625	4.8	0.1	830.65
19335	19.722	4.5	0.1	877.46
19336	19.625	4.6	0.1	875.64
19337	19.722	4.3	0.1	918.78
19338	19.625	4.4	0.1	923.76
19339	19.722	4.1	0.1	961.03
19340	19.625	4.2	0.1	973.81
19341	19.722	3.9	0.1	1002.5
19342	19.625	4.	0.1	1024.2
19343	19.722	3.7	0.1	1040.8
19344	19.625	3.8	0.1	1072.6
19345	19.722	3.5	0.1	1073.
19346	19.625	3.6	0.1	1115.6
19347	19.722	3.3	0.1	1096.4
19348	19.625	3.4	0.1	1149.6
19349	19.722	3.1	0.1	1108.7
19350	19.625	3.2	0.1	1171.3
19351	19.722	2.9	0.1	1108.7
19352	19.625	3.	0.1	1178.7
19353	19.722	2.7	0.1	1096.4
19354	19.625	2.8	0.1	1171.3
19355	19.722	2.5	0.1	1073.
19356	19.625	2.6	0.1	1149.6
19357	19.722	2.3	0.1	1040.8
19358	19.625	2.4	0.1	1115.6
19359	19.722	2.1	0.1	1002.5
19360	19.625	2.2	0.1	1072.6
19361	19.722	1.9	0.1	961.03
19362	19.625	2.	0.1	1024.2
19363	19.722	1.7	0.1	918.78
19364	19.625	1.8	0.1	973.81
19365	19.722	1.5	0.1	877.46
19366	19.625	1.6	0.1	923.76
19367	19.722	1.3	0.1	838.26
19368	19.625	1.4	0.1	875.64
19369	19.722	1.1	0.1	802.19
19370	19.625	1.2	0.1	830.65
19371	19.722	0.9	0.1	770.17
19372	19.625	1.	0.1	790.
19373	19.722	0.7	0.1	743.
19374	19.625	0.8	0.1	754.84
19375	19.722	0.5	0.1	721.2
19376	19.625	0.6	0.1	726.04
19377	19.722	0.3	0.1	705.81
19378	19.625	0.4	0.1	704.05
19379	19.625	0.2	0.1	690.64
19380	19.722	0.1	0.1	687.89
19381	19.528	5.7	0.1	689.06
19382	19.431	5.8	0.1	664.76
19383	19.528	5.9	0.1	667.14
19384	19.528	5.5	0.1	709.21
19385	19.431	5.6	0.1	681.74
19386	19.528	5.3	0.1	738.37
19387	19.431	5.4	0.1	710.48
19388	19.528	5.1	0.1	775.31
19389	19.431	5.2	0.1	749.07
19390	19.528	4.9	0.1	819.21
19391	19.431	5.	0.1	796.82
19392	19.528	4.7	0.1	868.81
19393	19.431	4.8	0.1	852.42
19394	19.528	4.5	0.1	922.7
19395	19.431	4.6	0.1	914.08
19396	19.528	4.3	0.1	979.48
19397	19.431	4.4	0.1	980.03
19398	19.528	4.1	0.1	1037.6
19399	19.431	4.2	0.1	1048.6
19400	19.528	3.9	0.1	1094.7
19401	19.431	4.	0.1	1117.9
19402	19.528	3.7	0.1	1147.5
19403	19.431	3.8	0.1	1184.4
19404	19.528	3.5	0.1	1191.9
19405	19.431	3.6	0.1	1243.3
19406	19.528	3.3	0.1	1223.9
19407	19.431	3.4	0.1	1289.3
19408	19.528	3.1	0.1	1240.6
19409	19.431	3.2	0.1	1318.3
19410	19.528	2.9	0.1	1240.6
19411	19.431	3.	0.1	1328.2
19412	19.528	2.7	0.1	1223.9
19413	19.431	2.8	0.1	1318.3
19414	19.528	2.5	0.1	1191.9
19415	19.431	2.6	0.1	1289.3
19416	19.528	2.3	0.1	1147.5
19417	19.431	2.4	0.1	1243.3
19418	19.528	2.1	0.1	1094.7
19419	19.431	2.2	0.1	1184.4
19420	19.528	1.9	0.1	1037.6
19421	19.431	2.	0.1	1117.9
19422	19.528	1.7	0.1	979.48
19423	19.431	1.8	0.1	1048.6
19424	19.528	1.5	0.1	922.7
19425	19.431	1.6	0.1	980.03
19426	19.528	1.3	0.1	868.81
19427	19.431	1.4	0.1	914.08
19428	19.528	1.1	0.1	819.21
19429	19.431	1.2	0.1	852.42
19430	19.528	0.9	0.1	775.31
19431	19.431	1.	0.1	796.82
19432	19.528	0.7	0.1	738.37
19433	19.431	0.8	0.1	749.07
19434	19.528	0.5	0.1	709.21
19435	19.431	0.6	0.1	710.48
19436	19.528	0.3	0.1	689.06
19437	19.431	0.4	0.1	681.74
19438	19.431	0.2	0.1	664.76
19439	19.528	0.1	0.1	667.14
19440	19.333	5.7	0.1	657.75
19441	19.236	5.8	0.1	622.98
19442	19.333	5.9	0.1	631.39
19443	19.333	5.5	0.1	683.55
19444	19.236	5.6	0.1	643.88
19445	19.333	5.3	0.1	722.07
19446	19.236	5.4	0.1	681.02
19447	19.333	5.1	0.1	771.81
19448	19.236	5.2	0.1	732.19
19449	19.333	4.9	0.1	831.48
19450	19.236	5.	0.1	796.42
19451	19.333	4.7	0.1	899.19
19452	19.236	4.8	0.1	871.85
19453	19.333	4.5	0.1	972.83
19454	19.236	4.6	0.1	955.97
19455	19.333	4.3	0.1	1050.4
19456	19.236	4.4	0.1	1046.1
19457	19.333	4.1	0.1	1129.9
19458	19.236	4.2	0.1	1140.
19459	19.333	3.9	0.1	1208.2
19460	19.236	4.	0.1	1234.9
19461	19.333	3.7	0.1	1280.3
19462	19.236	3.8	0.1	1326.1
19463	19.333	3.5	0.1	1340.2
19464	19.236	3.6	0.1	1405.6
19465	19.333	3.3	0.1	1382.7
19466	19.236	3.4	0.1	1465.8
19467	19.333	3.1	0.1	1404.6
19468	19.236	3.2	0.1	1502.5
19469	19.333	2.9	0.1	1404.6
19470	19.236	3.	0.1	1514.7
19471	19.333	2.7	0.1	1382.7
19472	19.236	2.8	0.1	1502.5
19473	19.333	2.5	0.1	1340.2
19474	19.236	2.6	0.1	1465.8
19475	19.333	2.3	0.1	1280.3
19476	19.236	2.4	0.1	1405.6
19477	19.333	2.1	0.1	1208.2
19478	19.236	2.2	0.1	1326.1
19479	19.333	1.9	0.1	1129.9
19480	19.236	2.	0.1	1234.9
19481	19.333	1.7	0.1	1050.4
19482	19.236	1.8	0.1	1140.
19483	19.333	1.5	0.1	972.83
19484	19.236	1.6	0.1	1046.1
19485	19.333	1.3	0.1	899.19
19486	19.236	1.4	0.1	955.97
19487	19.333	1.1	0.1	831.48
19488	19.236	1.2	0.1	871.85
19489	19.333	0.9	0.1	771.81
19490	19.236	1.	0.1	796.42
19491	19.333	0.7	0.1	722.07
19492	19.236	0.8	0.1	732.19
19493	19.333	0.5	0.1	683.55
19494	19.236	0.6	0.1	681.02
19495	19.333	0.3	0.1	657.75
19496	19.236	0.4	0.1	643.88
19497	19.236	0.2	0.1	622.98
19498	19.333	0.1	0.1	631.39
19499	19.139	5.7	0.1	609.59
19500	19.042	5.8	0.1	563.21
19501	19.139	5.9	0.1	578.39
19502	19.139	5.5	0.1	642.24
19503	19.042	5.6	0.1	588.68
19504	19.139	5.3	0.1	692.76
19505	19.042	5.4	0.1	636.58
19506	19.139	5.1	0.1	759.11
19507	19.042	5.2	0.1	703.94
19508	19.139	4.9	0.1	839.53
19509	19.042	5.	0.1	789.31
19510	19.139	4.7	0.1	931.44
19511	19.042	4.8	0.1	890.61
19512	19.139	4.5	0.1	1031.7
19513	19.042	4.6	0.1	1005.
19514	19.139	4.3	0.1	1137.7
19515	19.042	4.4	0.1	1128.8
19516	19.139	4.1	0.1	1246.6
19517	19.042	4.2	0.1	1258.
19518	19.139	3.9	0.1	1353.7
19519	19.042	4.	0.1	1389.8
19520	19.139	3.7	0.1	1451.3
19521	19.042	3.8	0.1	1514.6
19522	19.139	3.5	0.1	1530.
19523	19.042	3.6	0.1	1618.9
19524	19.139	3.3	0.1	1583.6
19525	19.042	3.4	0.1	1692.5
19526	19.139	3.1	0.1	1610.2
19527	19.042	3.2	0.1	1733.9
19528	19.139	2.9	0.1	1610.2
19529	19.042	3.	0.1	1747.
19530	19.139	2.7	0.1	1583.6
19531	19.042	2.8	0.1	1733.9
19532	19.139	2.5	0.1	1530.
19533	19.042	2.6	0.1	1692.5
19534	19.139	2.3	0.1	1451.3
19535	19.042	2.4	0.1	1618.9
19536	19.139	2.1	0.1	1353.7
19537	19.042	2.2	0.1	1514.6
19538	19.139	1.9	0.1	1246.6
19539	19.042	2.	0.1	1389.8
19540	19.139	1.7	0.1	1137.7
19541	19.042	1.8	0.1	1258.
19542	19.139	1.5	0.1	1031.7
19543	19.042	1.6	0.1	1128.8
19544	19.139	1.3	0.1	931.44
19545	19.042	1.4	0.1	1005.
19546	19.139	1.1	0.1	839.53
19547	19.042	1.2	0.1	890.61
19548	19.139	0.9	0.1	759.11
19549	19.042	1.	0.1	789.31
19550	19.139	0.7	0.1	692.76
19551	19.042	0.8	0.1	703.94
19552	19.139	0.5	0.1	642.24
19553	19.042	0.6	0.1	636.58
19554	19.139	0.3	0.1	609.59
19555	19.042	0.4	0.1	588.68
19556	19.042	0.2	0.1	563.21
19557	19.139	0.1	0.1	578.39
19558	18.944	5.7	0.1	542.98
19559	18.847	5.8	0.1	483.99
19560	18.944	5.9	0.1	506.36
19561	18.944	5.5	0.1	584.58
19562	18.847	5.6	0.1	516.09
19563	18.944	5.3	0.1	650.75
19564	18.847	5.4	0.1	578.77
19565	18.944	5.1	0.1	738.43
19566	18.847	5.2	0.1	666.85
19567	18.944	4.9	0.1	845.48
19568	18.847	5.	0.1	778.28
19569	18.944	4.7	0.1	969.32
19570	18.847	4.8	0.1	912.01
19571	18.944	4.5	0.1	1106.6
19572	18.847	4.6	0.1	1067.2
19573	18.944	4.3	0.1	1252.7
19574	18.847	4.4	0.1	1238.6
19575	18.944	4.1	0.1	1403.6
19576	18.847	4.2	0.1	1421.5
19577	18.944	3.9	0.1	1551.6
19578	18.847	4.	0.1	1608.2
19579	18.944	3.7	0.1	1681.3
19580	18.847	3.8	0.1	1780.2
19581	18.944	3.5	0.1	1778.8
19582	18.847	3.6	0.1	1911.
19583	18.944	3.3	0.1	1839.2
19584	18.847	3.4	0.1	1985.7
19585	18.944	3.1	0.1	1866.8
19586	18.847	3.2	0.1	2020.1
19587	18.944	2.9	0.1	1866.8
19588	18.847	3.	0.1	2029.6
19589	18.944	2.7	0.1	1839.2
19590	18.847	2.8	0.1	2020.1
19591	18.944	2.5	0.1	1778.8
19592	18.847	2.6	0.1	1985.7
19593	18.944	2.3	0.1	1681.3
19594	18.847	2.4	0.1	1911.
19595	18.944	2.1	0.1	1551.6
19596	18.847	2.2	0.1	1780.2
19597	18.944	1.9	0.1	1403.6
19598	18.847	2.	0.1	1608.2
19599	18.944	1.7	0.1	1252.7
19600	18.847	1.8	0.1	1421.5
19601	18.944	1.5	0.1	1106.6
19602	18.847	1.6	0.1	1238.6
19603	18.944	1.3	0.1	969.32
19604	18.847	1.4	0.1	1067.2
19605	18.944	1.1	0.1	845.48
19606	18.847	1.2	0.1	912.01
19607	18.944	0.9	0.1	738.43
19608	18.847	1.	0.1	778.28
19609	18.944	0.7	0.1	650.75
19610	18.847	0.8	0.1	666.85
19611	18.944	0.5	0.1	584.58
19612	18.847	0.6	0.1	578.77
19613	18.944	0.3	0.1	542.98
19614	18.847	0.4	0.1	516.09
19615	18.847	0.2	0.1	483.99
19616	18.944	0.1	0.1	506.36
19617	18.75	5.7	0.1	458.12
19618	18.653	5.8	0.1	385.7
19619	18.75	5.9	0.1	414.24
19620	18.75	5.5	0.1	513.29
19621	18.653	5.6	0.1	431.11
19622	18.75	5.3	0.1	600.47
19623	18.653	5.4	0.1	516.02
19624	18.75	5.1	0.1	714.45
19625	18.653	5.2	0.1	629.99
19626	18.75	4.9	0.1	853.95
19627	18.653	5.	0.1	771.19
19628	18.75	4.7	0.1	1019.4
19629	18.653	4.8	0.1	942.96
19630	18.75	4.5	0.1	1207.6
19631	18.653	4.6	0.1	1150.
19632	18.75	4.3	0.1	1413.3
19633	18.653	4.4	0.1	1396.9
19634	18.75	4.1	0.1	1629.5
19635	18.653	4.2	0.1	1681.9
19636	18.75	3.9	0.1	1837.
19637	18.653	4.	0.1	1955.6
19638	18.75	3.7	0.1	2006.3
19639	18.653	3.8	0.1	2200.
19640	18.75	3.5	0.1	2112.1
19641	18.653	3.6	0.1	2322.6
19642	18.75	3.3	0.1	2160.5
19643	18.653	3.4	0.1	2356.8
19644	18.75	3.1	0.1	2177.1
19645	18.653	3.2	0.1	2355.5
19646	18.75	2.9	0.1	2177.1
19647	18.653	3.	0.1	2352.5
19648	18.75	2.7	0.1	2160.5
19649	18.653	2.8	0.1	2355.5
19650	18.75	2.5	0.1	2112.1
19651	18.653	2.6	0.1	2356.8
19652	18.75	2.3	0.1	2006.3
19653	18.653	2.4	0.1	2322.6
19654	18.75	2.1	0.1	1837.
19655	18.653	2.2	0.1	2200.
19656	18.75	1.9	0.1	1629.5
19657	18.653	2.	0.1	1955.6
19658	18.75	1.7	0.1	1413.3
19659	18.653	1.8	0.1	1681.9
19660	18.75	1.5	0.1	1207.6
19661	18.653	1.6	0.1	1396.9
19662	18.75	1.3	0.1	1019.4
19663	18.653	1.4	0.1	1150.
19664	18.75	1.1	0.1	853.95
19665	18.653	1.2	0.1	942.96
19666	18.75	0.9	0.1	714.45
19667	18.653	1.	0.1	771.19
19668	18.75	0.7	0.1	600.47
19669	18.653	0.8	0.1	629.99
19670	18.75	0.5	0.1	513.29
19671	18.653	0.6	0.1	516.02
19672	18.75	0.3	0.1	458.12
19673	18.653	0.4	0.1	431.11
19674	18.653	0.2	0.1	385.7
19675	18.75	0.1	0.1	414.24
19676	18.556	5.7	0.1	360.93
19677	18.458	5.8	0.1	276.31
19678	18.556	5.9	0.1	302.84
19679	18.556	5.5	0.1	440.66
19680	18.458	5.6	0.1	357.64
19681	18.556	5.3	0.1	556.04
19682	18.458	5.4	0.1	477.93
19683	18.556	5.1	0.1	699.85
19684	18.458	5.2	0.1	623.76
19685	18.556	4.9	0.1	875.6
19686	18.458	5.	0.1	798.52
19687	18.556	4.7	0.1	1091.
19688	18.458	4.8	0.1	1013.9
19689	18.556	4.5	0.1	1355.5
19690	18.458	4.6	0.1	1288.2
19691	18.556	4.3	0.1	1677.8
19692	18.458	4.4	0.1	1661.2
19693	18.556	4.1	0.1	2009.9
19694	18.458	4.2	0.1	2199.1
19695	18.556	3.9	0.1	2313.9
19696	18.458	4.	0.1	2728.8
19697	18.556	3.7	0.1	2504.
19698	18.458	3.8	0.1	2936.9
19699	18.556	3.5	0.1	2556.2
19700	18.458	3.6	0.1	2897.2
19701	18.556	3.3	0.1	2543.6
19702	18.458	3.4	0.1	2778.9
19703	18.556	3.1	0.1	2524.
19704	18.458	3.2	0.1	2703.8
19705	18.556	2.9	0.1	2524.
19706	18.458	3.	0.1	2678.3
19707	18.556	2.7	0.1	2543.6
19708	18.458	2.8	0.1	2703.8
19709	18.556	2.5	0.1	2556.2
19710	18.458	2.6	0.1	2778.9
19711	18.556	2.3	0.1	2504.
19712	18.458	2.4	0.1	2897.2
19713	18.556	2.1	0.1	2313.9
19714	18.458	2.2	0.1	2936.9
19715	18.556	1.9	0.1	2009.9
19716	18.458	2.	0.1	2728.8
19717	18.556	1.7	0.1	1677.8
19718	18.458	1.8	0.1	2199.1
19719	18.556	1.5	0.1	1355.5
19720	18.458	1.6	0.1	1661.2
19721	18.556	1.3	0.1	1091.
19722	18.458	1.4	0.1	1288.2
19723	18.556	1.1	0.1	875.6
19724	18.458	1.2	0.1	1013.9
19725	18.556	0.9	0.1	699.85
19726	18.458	1.	0.1	798.52
19727	18.556	0.7	0.1	556.04
19728	18.458	0.8	0.1	623.76
19729	18.556	0.5	0.1	440.66
19730	18.458	0.6	0.1	477.93
19731	18.556	0.3	0.1	360.93
19732	18.458	0.4	0.1	357.64
19733	18.458	0.2	0.1	276.31
19734	18.556	0.1	0.1	302.84
19735	18.361	5.7	0.1	283.6
19736	18.264	5.8	0.1	164.74
19737	18.361	5.9	0.1	178.77
19738	18.361	5.5	0.1	411.38
19739	18.264	5.6	0.1	275.53
19740	18.361	5.3	0.1	563.75
19741	18.264	5.4	0.1	397.77
19742	18.361	5.1	0.1	742.41
19743	18.264	5.2	0.1	534.83
19744	18.361	4.9	0.1	960.56
19745	18.264	5.	0.1	695.84
19746	18.361	4.7	0.1	1241.3
19747	18.264	4.8	0.1	896.15
19748	18.361	4.5	0.1	1638.7
19749	18.264	4.6	0.1	1165.2
19750	18.361	4.3	0.1	2223.5
19751	18.264	4.4	0.1	1532.8
19752	18.361	4.1	0.1	2915.9
19753	18.264	4.2	0.1	2267.4
19754	18.361	3.9	0.1	3308.1
19755	18.264	4.	0.1	4984.3
19756	18.361	3.7	0.1	3299.2
19757	18.264	3.8	0.1	4024.1
19758	18.361	3.5	0.1	3107.5
19759	18.264	3.6	0.1	3467.9
19760	18.361	3.3	0.1	2932.
19761	18.264	3.4	0.1	3146.5
19762	18.361	3.1	0.1	2852.3
19763	18.264	3.2	0.1	2987.9
19764	18.361	2.9	0.1	2852.3
19765	18.264	3.	0.1	2939.3
19766	18.361	2.7	0.1	2932.
19767	18.264	2.8	0.1	2987.9
19768	18.361	2.5	0.1	3107.5
19769	18.264	2.6	0.1	3146.5
19770	18.361	2.3	0.1	3299.2
19771	18.264	2.4	0.1	3467.9
19772	18.361	2.1	0.1	3308.1
19773	18.264	2.2	0.1	4024.1
19774	18.361	1.9	0.1	2915.9
19775	18.264	2.	0.1	4984.3
19776	18.361	1.7	0.1	2223.5
19777	18.264	1.8	0.1	2267.4
19778	18.361	1.5	0.1	1638.7
19779	18.264	1.6	0.1	1532.8
19780	18.361	1.3	0.1	1241.3
19781	18.264	1.4	0.1	1165.2
19782	18.361	1.1	0.1	960.56
19783	18.264	1.2	0.1	896.15
19784	18.361	0.9	0.1	742.41
19785	18.264	1.	0.1	695.84
19786	18.361	0.7	0.1	563.75
19787	18.264	0.8	0.1	534.83
19788	18.361	0.5	0.1	411.38
19789	18.264	0.6	0.1	397.77
19790	18.361	0.3	0.1	283.6
19791	18.264	0.4	0.1	275.53
19792	18.264	0.2	0.1	164.74
19793	18.361	0.1	0.1	178.77
19794	17.8	5.7	0.1	386.71
19795	17.7	5.8	0.1	392.33
19796	17.9	5.8	0.1	216.92
19797	17.8	5.9	0.1	250.79
19798	17.8	5.5	0.1	563.87
19799	17.7	5.6	0.1	508.91
19800	17.9	5.6	0.1	364.03
19801	17.8	5.3	0.1	776.94
19802	17.7	5.4	0.1	678.96
19803	17.9	5.4	0.1	531.84
19804	17.8	5.1	0.1	1024.
19805	17.7	5.2	0.1	885.2
19806	17.9	5.2	0.1	721.01
19807	17.8	4.9	0.1	1317.7
19808	17.7	5.	0.1	1128.7
19809	17.9	5.	0.1	940.53
19810	17.8	4.7	0.1	1683.9
19811	17.7	4.8	0.1	1420.7
19812	17.9	4.8	0.1	1206.9
19813	17.8	4.5	0.1	2177.6
19814	17.7	4.6	0.1	1780.
19815	17.9	4.6	0.1	1554.9
19816	17.8	4.3	0.1	2872.
19817	17.7	4.4	0.1	2242.9
19818	17.9	4.4	0.1	2017.
19819	17.8	4.1	0.1	3529.
19820	17.7	4.2	0.1	2858.1
19821	17.9	4.2	0.1	2949.8
19822	17.8	3.9	0.1	3676.
19823	17.7	4.	0.1	3257.3
19824	17.9	4.	0.1	5495.7
19825	17.8	3.7	0.1	3492.8
19826	17.7	3.8	0.1	3221.8
19827	17.9	3.8	0.1	4158.8
19828	17.8	3.5	0.1	3268.6
19829	17.7	3.6	0.1	3120.9
19830	17.9	3.6	0.1	3567.6
19831	17.8	3.3	0.1	3100.3
19832	17.7	3.4	0.1	3001.6
19833	17.9	3.4	0.1	3254.2
19834	17.8	3.1	0.1	3023.5
19835	17.7	3.2	0.1	2929.9
19836	17.9	3.2	0.1	3098.7
19837	17.8	2.9	0.1	3023.5
19838	17.7	3.	0.1	2905.6
19839	17.9	3.	0.1	3051.2
19840	17.8	2.7	0.1	3100.3
19841	17.7	2.8	0.1	2929.9
19842	17.9	2.8	0.1	3098.7
19843	17.8	2.5	0.1	3268.6
19844	17.7	2.6	0.1	3001.6
19845	17.9	2.6	0.1	3254.2
19846	17.8	2.3	0.1	3492.8
19847	17.7	2.4	0.1	3120.9
19848	17.9	2.4	0.1	3567.6
19849	17.8	2.1	0.1	3676.
19850	17.7	2.2	0.1	3221.8
19851	17.9	2.2	0.1	4158.8
19852	17.8	1.9	0.1	3529.
19853	17.7	2.	0.1	3257.3
19854	17.9	2.	0.1	5495.7
19855	17.8	1.7	0.1	2872.
19856	17.7	1.8	0.1	2858.1
19857	17.9	1.8	0.1	2949.8
19858	17.8	1.5	0.1	2177.6
19859	17.7	1.6	0.1	2242.9
19860	17.9	1.6	0.1	2017.
19861	17.8	1.3	0.1	1683.9
19862	17.7	1.4	0.1	1780.
19863	17.9	1.4	0.1	1554.9
19864	17.8	1.1	0.1	1317.7
19865	17.7	1.2	0.1	1420.7
19866	17.9	1.2	0.1	1206.9
19867	17.8	0.9	0.1	1024.
19868	17.7	1.	0.1	1128.7
19869	17.9	1.	0.1	940.53
19870	17.8	0.7	0.1	776.94
19871	17.7	0.8	0.1	885.2
19872	17.9	0.8	0.1	721.01
19873	17.8	0.5	0.1	563.87
19874	17.7	0.6	0.1	678.96
19875	17.9	0.6	0.1	531.84
19876	17.8	0.3	0.1	386.71
19877	17.7	0.4	0.1	508.91
19878	17.9	0.4	0.1	364.03
19879	17.7	0.2	0.1	392.33
19880	17.9	0.2	0.1	216.92
19881	17.8	0.1	0.1	250.79
19882	17.6	5.7	0.1	533.1
19883	17.5	5.8	0.1	583.28
19884	17.6	5.9	0.1	453.59
19885	17.6	5.5	0.1	651.82
19886	17.5	5.6	0.1	662.29
19887	17.6	5.3	0.1	818.
19888	17.5	5.4	0.1	789.47
19889	17.6	5.1	0.1	1023.3
19890	17.5	5.2	0.1	956.52
19891	17.6	4.9	0.1	1269.9
19892	17.5	5.	0.1	1160.3
19893	17.6	4.7	0.1	1563.7
19894	17.5	4.8	0.1	1402.4
19895	17.6	4.5	0.1	1912.6
19896	17.5	4.6	0.1	1683.5
19897	17.6	4.3	0.1	2286.3
19898	17.5	4.4	0.1	2001.4
19899	17.6	4.1	0.1	2573.6
19900	17.5	4.2	0.1	2301.6
19901	17.6	3.9	0.1	2753.8
19902	17.5	4.	0.1	2501.1
19903	17.6	3.7	0.1	2838.
19904	17.5	3.8	0.1	2624.
19905	17.6	3.5	0.1	2849.9
19906	17.5	3.6	0.1	2685.1
19907	17.6	3.3	0.1	2829.3
19908	17.5	3.4	0.1	2700.6
19909	17.6	3.1	0.1	2810.5
19910	17.5	3.2	0.1	2696.7
19911	17.6	2.9	0.1	2810.5
19912	17.5	3.	0.1	2693.6
19913	17.6	2.7	0.1	2829.3
19914	17.5	2.8	0.1	2696.7
19915	17.6	2.5	0.1	2849.9
19916	17.5	2.6	0.1	2700.6
19917	17.6	2.3	0.1	2838.
19918	17.5	2.4	0.1	2685.1
19919	17.6	2.1	0.1	2753.8
19920	17.5	2.2	0.1	2624.
19921	17.6	1.9	0.1	2573.6
19922	17.5	2.	0.1	2501.1
19923	17.6	1.7	0.1	2286.3
19924	17.5	1.8	0.1	2301.6
19925	17.6	1.5	0.1	1912.6
19926	17.5	1.6	0.1	2001.4
19927	17.6	1.3	0.1	1563.7
19928	17.5	1.4	0.1	1683.5
19929	17.6	1.1	0.1	1269.9
19930	17.5	1.2	0.1	1402.4
19931	17.6	0.9	0.1	1023.3
19932	17.5	1.	0.1	1160.3
19933	17.6	0.7	0.1	818.
19934	17.5	0.8	0.1	956.52
19935	17.6	0.5	0.1	651.82
19936	17.5	0.6	0.1	789.47
19937	17.6	0.3	0.1	533.1
19938	17.5	0.4	0.1	662.29
19939	17.5	0.2	0.1	583.28
19940	17.6	0.1	0.1	453.59
19941	17.4	5.7	0.1	716.54
19942	17.3	5.8	0.1	770.47
19943	17.4	5.9	0.1	651.92
19944	17.4	5.5	0.1	810.27
19945	17.3	5.6	0.1	838.62
19946	17.4	5.3	0.1	943.95
19947	17.3	5.4	0.1	941.77
19948	17.4	5.1	0.1	1113.6
19949	17.3	5.2	0.1	1078.4
19950	17.4	4.9	0.1	1316.4
19951	17.3	5.	0.1	1245.9
19952	17.4	4.7	0.1	1548.6
19953	17.3	4.8	0.1	1440.5
19954	17.4	4.5	0.1	1796.5
19955	17.3	4.6	0.1	1655.5
19956	17.4	4.3	0.1	2032.2
19957	17.3	4.4	0.1	1872.2
19958	17.4	4.1	0.1	2225.9
19959	17.3	4.2	0.1	2064.2
19960	17.4	3.9	0.1	2365.9
19961	17.3	4.	0.1	2210.9
19962	17.4	3.7	0.1	2466.
19963	17.3	3.8	0.1	2317.7
19964	17.4	3.5	0.1	2531.9
19965	17.3	3.6	0.1	2398.3
19966	17.4	3.3	0.1	2565.1
19967	17.3	3.4	0.1	2449.
19968	17.4	3.1	0.1	2577.4
19969	17.3	3.2	0.1	2474.6
19970	17.4	2.9	0.1	2577.4
19971	17.3	3.	0.1	2482.1
19972	17.4	2.7	0.1	2565.1
19973	17.3	2.8	0.1	2474.6
19974	17.4	2.5	0.1	2531.9
19975	17.3	2.6	0.1	2449.
19976	17.4	2.3	0.1	2466.
19977	17.3	2.4	0.1	2398.3
19978	17.4	2.1	0.1	2365.9
19979	17.3	2.2	0.1	2317.7
19980	17.4	1.9	0.1	2225.9
19981	17.3	2.	0.1	2210.9
19982	17.4	1.7	0.1	2032.2
19983	17.3	1.8	0.1	2064.2
19984	17.4	1.5	0.1	1796.5
19985	17.3	1.6	0.1	1872.2
19986	17.4	1.3	0.1	1548.6
19987	17.3	1.4	0.1	1655.5
19988	17.4	1.1	0.1	1316.4
19989	17.3	1.2	0.1	1440.5
19990	17.4	0.9	0.1	1113.6
19991	17.3	1.	0.1	1245.9
19992	17.4	0.7	0.1	943.95
19993	17.3	0.8	0.1	1078.4
19994	17.4	0.5	0.1	810.27
19995	17.3	0.6	0.1	941.77
19996	17.4	0.3	0.1	716.54
19997	17.3	0.4	0.1	838.62
19998	17.3	0.2	0.1	770.47
19999	17.4	0.1	0.1	651.92
20000	17.2	5.7	0.1	894.07
20001	17.1	5.8	0.1	943.65
20002	17.2	5.9	0.1	836.61
20003	17.2	5.5	0.1	974.6
20004	17.1	5.6	0.1	1006.4
20005	17.2	5.3	0.1	1084.6
20006	17.1	5.4	0.1	1093.6
20007	17.2	5.1	0.1	1222.4
20008	17.1	5.2	0.1	1205.7
20009	17.2	4.9	0.1	1384.
20010	17.1	5.	0.1	1340.5
20011	17.2	4.7	0.1	1561.9
20012	17.1	4.8	0.1	1492.9
20013	17.2	4.5	0.1	1743.6
20014	17.1	4.6	0.1	1654.
20015	17.2	4.3	0.1	1911.
20016	17.1	4.4	0.1	1810.6
20017	17.2	4.1	0.1	2051.1
20018	17.1	4.2	0.1	1947.4
20019	17.2	3.9	0.1	2162.2
20020	17.1	4.	0.1	2058.4
20021	17.2	3.7	0.1	2248.7
20022	17.1	3.8	0.1	2146.4
20023	17.2	3.5	0.1	2313.7
20024	17.1	3.6	0.1	2215.7
20025	17.2	3.3	0.1	2356.6
20026	17.1	3.4	0.1	2266.6
20027	17.2	3.1	0.1	2377.3
20028	17.1	3.2	0.1	2297.
20029	17.2	2.9	0.1	2377.3
20030	17.1	3.	0.1	2306.9
20031	17.2	2.7	0.1	2356.6
20032	17.1	2.8	0.1	2297.
20033	17.2	2.5	0.1	2313.7
20034	17.1	2.6	0.1	2266.6
20035	17.2	2.3	0.1	2248.7
20036	17.1	2.4	0.1	2215.7
20037	17.2	2.1	0.1	2162.2
20038	17.1	2.2	0.1	2146.4
20039	17.2	1.9	0.1	2051.1
20040	17.1	2.	0.1	2058.4
20041	17.2	1.7	0.1	1911.
20042	17.1	1.8	0.1	1947.4
20043	17.2	1.5	0.1	1743.6
20044	17.1	1.6	0.1	1810.6
20045	17.2	1.3	0.1	1561.9
20046	17.1	1.4	0.1	1654.
20047	17.2	1.1	0.1	1384.
20048	17.1	1.2	0.1	1492.9
20049	17.2	0.9	0.1	1222.4
20050	17.1	1.	0.1	1340.5
20051	17.2	0.7	0.1	1084.6
20052	17.1	0.8	0.1	1205.7
20053	17.2	0.5	0.1	974.6
20054	17.1	0.6	0.1	1093.6
20055	17.2	0.3	0.1	894.07
20056	17.1	0.4	0.1	1006.4
20057	17.1	0.2	0.1	943.65
20058	17.2	0.1	0.1	836.61
20059	17.	5.7	0.1	1056.7
20060	16.9	5.8	0.1	1100.5
20061	17.	5.9	0.1	1004.7
20062	17.	5.5	0.1	1127.7
20063	16.9	5.6	0.1	1158.3
20064	17.	5.3	0.1	1219.2
20065	16.9	5.4	0.1	1233.
20066	17.	5.1	0.1	1330.4
20067	16.9	5.2	0.1	1325.1
20068	17.	4.9	0.1	1457.3
20069	16.9	5.	0.1	1432.5
20070	17.	4.7	0.1	1593.
20071	16.9	4.8	0.1	1550.5
20072	17.	4.5	0.1	1727.6
20073	16.9	4.6	0.1	1671.8
20074	17.	4.3	0.1	1851.
20075	16.9	4.4	0.1	1787.2
20076	17.	4.1	0.1	1956.6
20077	16.9	4.2	0.1	1889.1
20078	17.	3.9	0.1	2043.2
20079	16.9	4.	0.1	1974.2
20080	17.	3.7	0.1	2113.3
20081	16.9	3.8	0.1	2043.7
20082	17.	3.5	0.1	2168.1
20083	16.9	3.6	0.1	2099.6
20084	17.	3.3	0.1	2206.
20085	16.9	3.4	0.1	2141.7
20086	17.	3.1	0.1	2225.4
20087	16.9	3.2	0.1	2168.
20088	17.	2.9	0.1	2225.4
20089	16.9	3.	0.1	2176.9
20090	17.	2.7	0.1	2206.
20091	16.9	2.8	0.1	2168.
20092	17.	2.5	0.1	2168.1
20093	16.9	2.6	0.1	2141.7
20094	17.	2.3	0.1	2113.3
20095	16.9	2.4	0.1	2099.6
20096	17.	2.1	0.1	2043.2
20097	16.9	2.2	0.1	2043.7
20098	17.	1.9	0.1	1956.6
20099	16.9	2.	0.1	1974.2
20100	17.	1.7	0.1	1851.
20101	16.9	1.8	0.1	1889.1
20102	17.	1.5	0.1	1727.6
20103	16.9	1.6	0.1	1787.2
20104	17.	1.3	0.1	1593.
20105	16.9	1.4	0.1	1671.8
20106	17.	1.1	0.1	1457.3
20107	16.9	1.2	0.1	1550.5
20108	17.	0.9	0.1	1330.4
20109	16.9	1.	0.1	1432.5
20110	17.	0.7	0.1	1219.2
20111	16.9	0.8	0.1	1325.1
20112	17.	0.5	0.1	1127.7
20113	16.9	0.6	0.1	1233.
20114	17.	0.3	0.1	1056.7
20115	16.9	0.4	0.1	1158.3
20116	16.9	0.2	0.1	1100.5
20117	17.	0.1	0.1	1004.7
20118	16.8	5.7	0.1	1202.5
20119	16.7	5.8	0.1	1241.1
20120	16.8	5.9	0.1	1155.8
20121	16.8	5.5	0.1	1264.9
20122	16.7	5.6	0.1	1293.4
20123	16.8	5.3	0.1	1341.4
20124	16.7	5.4	0.1	1357.2
20125	16.8	5.1	0.1	1430.8
20126	16.7	5.2	0.1	1432.7
20127	16.8	4.9	0.1	1530.1
20128	16.7	5.	0.1	1518.1
20129	16.8	4.7	0.1	1633.7
20130	16.7	4.8	0.1	1609.3
20131	16.8	4.5	0.1	1735.
20132	16.7	4.6	0.1	1701.2
20133	16.8	4.3	0.1	1827.8
20134	16.7	4.4	0.1	1787.9
20135	16.8	4.1	0.1	1908.1
20136	16.7	4.2	0.1	1864.9
20137	16.8	3.9	0.1	1975.3
20138	16.7	4.	0.1	1930.1
20139	16.8	3.7	0.1	2030.2
20140	16.7	3.8	0.1	1984.1
20141	16.8	3.5	0.1	2073.1
20142	16.7	3.6	0.1	2027.5
20143	16.8	3.3	0.1	2103.2
20144	16.7	3.4	0.1	2060.2
20145	16.8	3.1	0.1	2118.8
20146	16.7	3.2	0.1	2080.6
20147	16.8	2.9	0.1	2118.8
20148	16.7	3.	0.1	2087.6
20149	16.8	2.7	0.1	2103.2
20150	16.7	2.8	0.1	2080.6
20151	16.8	2.5	0.1	2073.1
20152	16.7	2.6	0.1	2060.2
20153	16.8	2.3	0.1	2030.2
20154	16.7	2.4	0.1	2027.5
20155	16.8	2.1	0.1	1975.3
20156	16.7	2.2	0.1	1984.1
20157	16.8	1.9	0.1	1908.1
20158	16.7	2.	0.1	1930.1
20159	16.8	1.7	0.1	1827.8
20160	16.7	1.8	0.1	1864.9
20161	16.8	1.5	0.1	1735.
20162	16.7	1.6	0.1	1787.9
20163	16.8	1.3	0.1	1633.7
20164	16.7	1.4	0.1	1701.2
20165	16.8	1.1	0.1	1530.1
20166	16.7	1.2	0.1	1609.3
20167	16.8	0.9	0.1	1430.8
20168	16.7	1.	0.1	1518.1
20169	16.8	0.7	0.1	1341.4
20170	16.7	0.8	0.1	1432.7
20171	16.8	0.5	0.1	1264.9
20172	16.7	0.6	0.1	1357.2
20173	16.8	0.3	0.1	1202.5
20174	16.7	0.4	0.1	1293.4
20175	16.7	0.2	0.1	1241.1
20176	16.8	0.1	0.1	1155.8
20177	16.6	5.7	0.1	1332.1
20178	16.5	5.8	0.1	1366.4
20179	16.6	5.9	0.1	1290.5
20180	16.6	5.5	0.1	1386.4
20181	16.5	5.6	0.1	1412.8
20182	16.6	5.3	0.1	1450.
20183	16.5	5.4	0.1	1467.
20184	16.6	5.1	0.1	1522.
20185	16.5	5.2	0.1	1528.7
20186	16.6	4.9	0.1	1599.7
20187	16.5	5.	0.1	1596.5
20188	16.6	4.7	0.1	1679.3
20189	16.5	4.8	0.1	1667.3
20190	16.6	4.5	0.1	1756.2
20191	16.5	4.6	0.1	1737.4
20192	16.6	4.3	0.1	1826.5
20193	16.5	4.4	0.1	1803.2
20194	16.6	4.1	0.1	1887.8
20195	16.5	4.2	0.1	1861.6
20196	16.6	3.9	0.1	1939.5
20197	16.5	4.	0.1	1911.6
20198	16.6	3.7	0.1	1981.7
20199	16.5	3.8	0.1	1953.
20200	16.6	3.5	0.1	2014.5
20201	16.5	3.6	0.1	1986.2
20202	16.6	3.3	0.1	2037.4
20203	16.5	3.4	0.1	2010.8
20204	16.6	3.1	0.1	2049.2
20205	16.5	3.2	0.1	2026.1
20206	16.6	2.9	0.1	2049.2
20207	16.5	3.	0.1	2031.3
20208	16.6	2.7	0.1	2037.4
20209	16.5	2.8	0.1	2026.1
20210	16.6	2.5	0.1	2014.5
20211	16.5	2.6	0.1	2010.8
20212	16.6	2.3	0.1	1981.7
20213	16.5	2.4	0.1	1986.2
20214	16.6	2.1	0.1	1939.5
20215	16.5	2.2	0.1	1953.
20216	16.6	1.9	0.1	1887.8
20217	16.5	2.	0.1	1911.6
20218	16.6	1.7	0.1	1826.5
20219	16.5	1.8	0.1	1861.6
20220	16.6	1.5	0.1	1756.2
20221	16.5	1.6	0.1	1803.2
20222	16.6	1.3	0.1	1679.3
20223	16.5	1.4	0.1	1737.4
20224	16.6	1.1	0.1	1599.7
20225	16.5	1.2	0.1	1667.3
20226	16.6	0.9	0.1	1522.
20227	16.5	1.	0.1	1596.5
20228	16.6	0.7	0.1	1450.
20229	16.5	0.8	0.1	1528.7
20230	16.6	0.5	0.1	1386.4
20231	16.5	0.6	0.1	1467.
20232	16.6	0.3	0.1	1332.1
20233	16.5	0.4	0.1	1412.8
20234	16.5	0.2	0.1	1366.4
20235	16.6	0.1	0.1	1290.5
20236	16.4	5.7	0.1	1447.
20237	16.3	5.8	0.1	1478.1
20238	16.4	5.9	0.1	1410.4
20239	16.4	5.5	0.1	1493.7
20240	16.3	5.6	0.1	1518.5
20241	16.4	5.3	0.1	1546.5
20242	16.3	5.4	0.1	1564.1
20243	16.4	5.1	0.1	1604.4
20244	16.3	5.2	0.1	1614.6
20245	16.4	4.9	0.1	1665.5
20246	16.3	5.	0.1	1668.5
20247	16.4	4.7	0.1	1726.9
20248	16.3	4.8	0.1	1723.7
20249	16.4	4.5	0.1	1785.6
20250	16.3	4.6	0.1	1777.6
20251	16.4	4.3	0.1	1839.2
20252	16.3	4.4	0.1	1827.7
20253	16.4	4.1	0.1	1886.1
20254	16.3	4.2	0.1	1872.3
20255	16.4	3.9	0.1	1925.6
20256	16.3	4.	0.1	1910.4
20257	16.4	3.7	0.1	1957.7
20258	16.3	3.8	0.1	1942.
20259	16.4	3.5	0.1	1982.4
20260	16.3	3.6	0.1	1967.
20261	16.4	3.3	0.1	1999.5
20262	16.3	3.4	0.1	1985.3
20263	16.4	3.1	0.1	2008.2
20264	16.3	3.2	0.1	1996.6
20265	16.4	2.9	0.1	2008.2
20266	16.3	3.	0.1	2000.5
20267	16.4	2.7	0.1	1999.5
20268	16.3	2.8	0.1	1996.6
20269	16.4	2.5	0.1	1982.4
20270	16.3	2.6	0.1	1985.3
20271	16.4	2.3	0.1	1957.7
20272	16.3	2.4	0.1	1967.
20273	16.4	2.1	0.1	1925.6
20274	16.3	2.2	0.1	1942.
20275	16.4	1.9	0.1	1886.1
20276	16.3	2.	0.1	1910.4
20277	16.4	1.7	0.1	1839.2
20278	16.3	1.8	0.1	1872.3
20279	16.4	1.5	0.1	1785.6
20280	16.3	1.6	0.1	1827.7
20281	16.4	1.3	0.1	1726.9
20282	16.3	1.4	0.1	1777.6
20283	16.4	1.1	0.1	1665.5
20284	16.3	1.2	0.1	1723.7
20285	16.4	0.9	0.1	1604.4
20286	16.3	1.	0.1	1668.5
20287	16.4	0.7	0.1	1546.5
20288	16.3	0.8	0.1	1614.6
20289	16.4	0.5	0.1	1493.7
20290	16.3	0.6	0.1	1564.1
20291	16.4	0.3	0.1	1447.
20292	16.3	0.4	0.1	1518.5
20293	16.3	0.2	0.1	1478.1
20294	16.4	0.1	0.1	1410.4
20295	16.2	5.7	0.1	1549.4
20296	16.1	5.8	0.1	1578.1
20297	16.2	5.9	0.1	1517.3
20298	16.2	5.5	0.1	1589.1
20299	16.1	5.6	0.1	1612.7
20300	16.2	5.3	0.1	1632.7
20301	16.1	5.4	0.1	1651.
20302	16.2	5.1	0.1	1679.4
20303	16.1	5.2	0.1	1692.2
20304	16.2	4.9	0.1	1727.5
20305	16.1	5.	0.1	1735.2
20306	16.2	4.7	0.1	1775.2
20307	16.1	4.8	0.1	1778.4
20308	16.2	4.5	0.1	1820.3
20309	16.1	4.6	0.1	1820.
20310	16.2	4.3	0.1	1861.3
20311	16.1	4.4	0.1	1858.4
20312	16.2	4.1	0.1	1897.
20313	16.1	4.2	0.1	1892.4
20314	16.2	3.9	0.1	1927.1
20315	16.1	4.	0.1	1921.5
20316	16.2	3.7	0.1	1951.4
20317	16.1	3.8	0.1	1945.4
20318	16.2	3.5	0.1	1969.9
20319	16.1	3.6	0.1	1964.2
20320	16.2	3.3	0.1	1982.5
20321	16.1	3.4	0.1	1977.8
20322	16.2	3.1	0.1	1988.9
20323	16.1	3.2	0.1	1986.1
20324	16.2	2.9	0.1	1988.9
20325	16.1	3.	0.1	1988.9
20326	16.2	2.7	0.1	1982.5
20327	16.1	2.8	0.1	1986.1
20328	16.2	2.5	0.1	1969.9
20329	16.1	2.6	0.1	1977.8
20330	16.2	2.3	0.1	1951.4
20331	16.1	2.4	0.1	1964.2
20332	16.2	2.1	0.1	1927.1
20333	16.1	2.2	0.1	1945.4
20334	16.2	1.9	0.1	1897.
20335	16.1	2.	0.1	1921.5
20336	16.2	1.7	0.1	1861.3
20337	16.1	1.8	0.1	1892.4
20338	16.2	1.5	0.1	1820.3
20339	16.1	1.6	0.1	1858.4
20340	16.2	1.3	0.1	1775.2
20341	16.1	1.4	0.1	1820.
20342	16.2	1.1	0.1	1727.5
20343	16.1	1.2	0.1	1778.4
20344	16.2	0.9	0.1	1679.4
20345	16.1	1.	0.1	1735.2
20346	16.2	0.7	0.1	1632.7
20347	16.1	0.8	0.1	1692.2
20348	16.2	0.5	0.1	1589.1
20349	16.1	0.6	0.1	1651.
20350	16.2	0.3	0.1	1549.4
20351	16.1	0.4	0.1	1612.7
20352	16.1	0.2	0.1	1578.1
20353	16.2	0.1	0.1	1517.3
20354	16.	5.7	0.1	1641.3
20355	15.9	5.8	0.1	1668.4
20356	16.	5.9	0.1	1613.3
20357	16.	5.5	0.1	1674.7
20358	15.9	5.6	0.1	1697.7
20359	16.	5.3	0.1	1710.7
20360	15.9	5.4	0.1	1729.6
20361	16.	5.1	0.1	1748.4
20362	15.9	5.2	0.1	1763.2
20363	16.	4.9	0.1	1786.5
20364	15.9	5.	0.1	1797.6
20365	16.	4.7	0.1	1823.6
20366	15.9	4.8	0.1	1831.5
20367	16.	4.5	0.1	1858.4
20368	15.9	4.6	0.1	1863.8
20369	16.	4.3	0.1	1889.8
20370	15.9	4.4	0.1	1893.3
20371	16.	4.1	0.1	1917.1
20372	15.9	4.2	0.1	1919.4
20373	16.	3.9	0.1	1940.
20374	15.9	4.	0.1	1941.5
20375	16.	3.7	0.1	1958.3
20376	15.9	3.8	0.1	1959.6
20377	16.	3.5	0.1	1972.1
20378	15.9	3.6	0.1	1973.7
20379	16.	3.3	0.1	1981.4
20380	15.9	3.4	0.1	1983.7
20381	16.	3.1	0.1	1986.1
20382	15.9	3.2	0.1	1989.8
20383	16.	2.9	0.1	1986.1
20384	15.9	3.	0.1	1991.8
20385	16.	2.7	0.1	1981.4
20386	15.9	2.8	0.1	1989.8
20387	16.	2.5	0.1	1972.1
20388	15.9	2.6	0.1	1983.7
20389	16.	2.3	0.1	1958.3
20390	15.9	2.4	0.1	1973.7
20391	16.	2.1	0.1	1940.
20392	15.9	2.2	0.1	1959.6
20393	16.	1.9	0.1	1917.1
20394	15.9	2.	0.1	1941.5
20395	16.	1.7	0.1	1889.8
20396	15.9	1.8	0.1	1919.4
20397	16.	1.5	0.1	1858.4
20398	15.9	1.6	0.1	1893.3
20399	16.	1.3	0.1	1823.6
20400	15.9	1.4	0.1	1863.8
20401	16.	1.1	0.1	1786.5
20402	15.9	1.2	0.1	1831.5
20403	16.	0.9	0.1	1748.4
20404	15.9	1.	0.1	1797.6
20405	16.	0.7	0.1	1710.7
20406	15.9	0.8	0.1	1763.2
20407	16.	0.5	0.1	1674.7
20408	15.9	0.6	0.1	1729.6
20409	16.	0.3	0.1	1641.3
20410	15.9	0.4	0.1	1697.7
20411	15.9	0.2	0.1	1668.4
20412	16.	0.1	0.1	1613.3
20413	15.8	5.7	0.1	1724.7
20414	15.7	5.8	0.1	1750.8
20415	15.8	5.9	0.1	1700.2
20416	15.8	5.5	0.1	1752.6
20417	15.7	5.6	0.1	1775.2
20418	15.8	5.3	0.1	1782.2
20419	15.7	5.4	0.1	1801.6
20420	15.8	5.1	0.1	1812.6
20421	15.7	5.2	0.1	1829.1
20422	15.8	4.9	0.1	1842.8
20423	15.7	5.	0.1	1856.6
20424	15.8	4.7	0.1	1871.9
20425	15.7	4.8	0.1	1883.4
20426	15.8	4.5	0.1	1898.9
20427	15.7	4.6	0.1	1908.6
20428	15.8	4.3	0.1	1923.1
20429	15.7	4.4	0.1	1931.4
20430	15.8	4.1	0.1	1943.9
20431	15.7	4.2	0.1	1951.4
20432	15.8	3.9	0.1	1961.2
20433	15.7	4.	0.1	1968.2
20434	15.8	3.7	0.1	1975.
20435	15.7	3.8	0.1	1981.9
20436	15.8	3.5	0.1	1985.3
20437	15.7	3.6	0.1	1992.4
20438	15.8	3.3	0.1	1992.2
20439	15.7	3.4	0.1	1999.9
20440	15.8	3.1	0.1	1995.6
20441	15.7	3.2	0.1	2004.3
20442	15.8	2.9	0.1	1995.6
20443	15.7	3.	0.1	2005.8
20444	15.8	2.7	0.1	1992.2
20445	15.7	2.8	0.1	2004.3
20446	15.8	2.5	0.1	1985.3
20447	15.7	2.6	0.1	1999.9
20448	15.8	2.3	0.1	1975.
20449	15.7	2.4	0.1	1992.4
20450	15.8	2.1	0.1	1961.2
20451	15.7	2.2	0.1	1981.9
20452	15.8	1.9	0.1	1943.9
20453	15.7	2.	0.1	1968.2
20454	15.8	1.7	0.1	1923.1
20455	15.7	1.8	0.1	1951.4
20456	15.8	1.5	0.1	1898.9
20457	15.7	1.6	0.1	1931.4
20458	15.8	1.3	0.1	1871.9
20459	15.7	1.4	0.1	1908.6
20460	15.8	1.1	0.1	1842.8
20461	15.7	1.2	0.1	1883.4
20462	15.8	0.9	0.1	1812.6
20463	15.7	1.	0.1	1856.6
20464	15.8	0.7	0.1	1782.2
20465	15.7	0.8	0.1	1829.1
20466	15.8	0.5	0.1	1752.6
20467	15.7	0.6	0.1	1801.6
20468	15.8	0.3	0.1	1724.7
20469	15.7	0.4	0.1	1775.2
20470	15.7	0.2	0.1	1750.8
20471	15.8	0.1	0.1	1700.2
20472	15.6	5.7	0.1	1801.1
20473	15.5	5.8	0.1	1826.6
20474	15.6	5.9	0.1	1779.8
20475	15.6	5.5	0.1	1824.3
20476	15.5	5.6	0.1	1846.8
20477	15.6	5.3	0.1	1848.6
20478	15.5	5.4	0.1	1868.7
20479	15.6	5.1	0.1	1873.2
20480	15.5	5.2	0.1	1891.
20481	15.6	4.9	0.1	1897.3
20482	15.5	5.	0.1	1913.2
20483	15.6	4.7	0.1	1920.2
20484	15.5	4.8	0.1	1934.4
20485	15.6	4.5	0.1	1941.2
20486	15.5	4.6	0.1	1954.1
20487	15.6	4.3	0.1	1959.8
20488	15.5	4.4	0.1	1971.8
20489	15.6	4.1	0.1	1975.7
20490	15.5	4.2	0.1	1987.1
20491	15.6	3.9	0.1	1988.9
20492	15.5	4.	0.1	2000.
20493	15.6	3.7	0.1	1999.3
20494	15.5	3.8	0.1	2010.3
20495	15.6	3.5	0.1	2006.9
20496	15.5	3.6	0.1	2018.2
20497	15.6	3.3	0.1	2012.
20498	15.5	3.4	0.1	2023.7
20499	15.6	3.1	0.1	2014.5
20500	15.5	3.2	0.1	2027.
20501	15.6	2.9	0.1	2014.5
20502	15.5	3.	0.1	2028.1
20503	15.6	2.7	0.1	2012.
20504	15.5	2.8	0.1	2027.
20505	15.6	2.5	0.1	2006.9
20506	15.5	2.6	0.1	2023.7
20507	15.6	2.3	0.1	1999.3
20508	15.5	2.4	0.1	2018.2
20509	15.6	2.1	0.1	1988.9
20510	15.5	2.2	0.1	2010.3
20511	15.6	1.9	0.1	1975.7
20512	15.5	2.	0.1	2000.
20513	15.6	1.7	0.1	1959.8
20514	15.5	1.8	0.1	1987.1
20515	15.6	1.5	0.1	1941.2
20516	15.5	1.6	0.1	1971.8
20517	15.6	1.3	0.1	1920.2
20518	15.5	1.4	0.1	1954.1
20519	15.6	1.1	0.1	1897.3
20520	15.5	1.2	0.1	1934.4
20521	15.6	0.9	0.1	1873.2
20522	15.5	1.	0.1	1913.2
20523	15.6	0.7	0.1	1848.6
20524	15.5	0.8	0.1	1891.
20525	15.6	0.5	0.1	1824.3
20526	15.5	0.6	0.1	1868.7
20527	15.6	0.3	0.1	1801.1
20528	15.5	0.4	0.1	1846.8
20529	15.5	0.2	0.1	1826.6
20530	15.6	0.1	0.1	1779.8
20531	15.4	5.7	0.1	1872.1
20532	15.3	5.8	0.1	1897.2
20533	15.4	5.9	0.1	1853.4
20534	15.4	5.5	0.1	1891.2
20535	15.3	5.6	0.1	1913.8
20536	15.4	5.3	0.1	1911.1
20537	15.3	5.4	0.1	1931.8
20538	15.4	5.1	0.1	1931.1
20539	15.3	5.2	0.1	1950.1
20540	15.4	4.9	0.1	1950.3
20541	15.3	5.	0.1	1967.9
20542	15.4	4.7	0.1	1968.4
20543	15.3	4.8	0.1	1984.8
20544	15.4	4.5	0.1	1984.8
20545	15.3	4.6	0.1	2000.3
20546	15.4	4.3	0.1	1999.2
20547	15.3	4.4	0.1	2014.
20548	15.4	4.1	0.1	2011.4
20549	15.3	4.2	0.1	2025.9
20550	15.4	3.9	0.1	2021.4
20551	15.3	4.	0.1	2035.7
20552	15.4	3.7	0.1	2029.3
20553	15.3	3.8	0.1	2043.5
20554	15.4	3.5	0.1	2035.
20555	15.3	3.6	0.1	2049.4
20556	15.4	3.3	0.1	2038.7
20557	15.3	3.4	0.1	2053.6
20558	15.4	3.1	0.1	2040.6
20559	15.3	3.2	0.1	2056.
20560	15.4	2.9	0.1	2040.6
20561	15.3	3.	0.1	2056.8
20562	15.4	2.7	0.1	2038.7
20563	15.3	2.8	0.1	2056.
20564	15.4	2.5	0.1	2035.
20565	15.3	2.6	0.1	2053.6
20566	15.4	2.3	0.1	2029.3
20567	15.3	2.4	0.1	2049.4
20568	15.4	2.1	0.1	2021.4
20569	15.3	2.2	0.1	2043.5
20570	15.4	1.9	0.1	2011.4
20571	15.3	2.	0.1	2035.7
20572	15.4	1.7	0.1	1999.2
20573	15.3	1.8	0.1	2025.9
20574	15.4	1.5	0.1	1984.8
20575	15.3	1.6	0.1	2014.
20576	15.4	1.3	0.1	1968.4
20577	15.3	1.4	0.1	2000.3
20578	15.4	1.1	0.1	1950.3
20579	15.3	1.2	0.1	1984.8
20580	15.4	0.9	0.1	1931.1
20581	15.3	1.	0.1	1967.9
20582	15.4	0.7	0.1	1911.1
20583	15.3	0.8	0.1	1950.1
20584	15.4	0.5	0.1	1891.2
20585	15.3	0.6	0.1	1931.8
20586	15.4	0.3	0.1	1872.1
20587	15.3	0.4	0.1	1913.8
20588	15.3	0.2	0.1	1897.2
20589	15.4	0.1	0.1	1853.4
20590	15.2	5.7	0.1	1938.7
20591	15.1	5.8	0.1	1963.8
20592	15.2	5.9	0.1	1922.4
20593	15.2	5.5	0.1	1954.4
20594	15.1	5.6	0.1	1977.2
20595	15.2	5.3	0.1	1970.8
20596	15.1	5.4	0.1	1992.1
20597	15.2	5.1	0.1	1986.9
20598	15.1	5.2	0.1	2006.9
20599	15.2	4.9	0.1	2002.4
20600	15.1	5.	0.1	2021.3
20601	15.2	4.7	0.1	2016.7
20602	15.1	4.8	0.1	2034.8
20603	15.2	4.5	0.1	2029.5
20604	15.1	4.6	0.1	2047.
20605	15.2	4.3	0.1	2040.7
20606	15.1	4.4	0.1	2057.8
20607	15.2	4.1	0.1	2050.2
20608	15.1	4.2	0.1	2066.9
20609	15.2	3.9	0.1	2057.8
20610	15.1	4.	0.1	2074.5
20611	15.2	3.7	0.1	2063.7
20612	15.1	3.8	0.1	2080.4
20613	15.2	3.5	0.1	2068.
20614	15.1	3.6	0.1	2084.9
20615	15.2	3.3	0.1	2070.8
20616	15.1	3.4	0.1	2087.9
20617	15.2	3.1	0.1	2072.1
20618	15.1	3.2	0.1	2089.7
20619	15.2	2.9	0.1	2072.1
20620	15.1	3.	0.1	2090.3
20621	15.2	2.7	0.1	2070.8
20622	15.1	2.8	0.1	2089.7
20623	15.2	2.5	0.1	2068.
20624	15.1	2.6	0.1	2087.9
20625	15.2	2.3	0.1	2063.7
20626	15.1	2.4	0.1	2084.9
20627	15.2	2.1	0.1	2057.8
20628	15.1	2.2	0.1	2080.4
20629	15.2	1.9	0.1	2050.2
20630	15.1	2.	0.1	2074.5
20631	15.2	1.7	0.1	2040.7
20632	15.1	1.8	0.1	2066.9
20633	15.2	1.5	0.1	2029.5
20634	15.1	1.6	0.1	2057.8
20635	15.2	1.3	0.1	2016.7
20636	15.1	1.4	0.1	2047.
20637	15.2	1.1	0.1	2002.4
20638	15.1	1.2	0.1	2034.8
20639	15.2	0.9	0.1	1986.9
20640	15.1	1.	0.1	2021.3
20641	15.2	0.7	0.1	1970.8
20642	15.1	0.8	0.1	2006.9
20643	15.2	0.5	0.1	1954.4
20644	15.1	0.6	0.1	1992.1
20645	15.2	0.3	0.1	1938.7
20646	15.1	0.4	0.1	1977.2
20647	15.1	0.2	0.1	1963.8
20648	15.2	0.1	0.1	1922.4
20649	15.	5.7	0.1	2002.1
20650	14.9	5.8	0.1	2027.1
20651	15.	5.9	0.1	1987.6
20652	15.	5.5	0.1	2014.8
20653	14.9	5.6	0.1	2037.9
20654	15.	5.3	0.1	2028.2
20655	14.9	5.4	0.1	2050.1
20656	15.	5.1	0.1	2041.3
20657	14.9	5.2	0.1	2062.2
20658	15.	4.9	0.1	2053.7
20659	14.9	5.	0.1	2073.8
20660	15.	4.7	0.1	2065.1
20661	14.9	4.8	0.1	2084.6
20662	15.	4.5	0.1	2075.2
20663	14.9	4.6	0.1	2094.3
20664	15.	4.3	0.1	2084.
20665	14.9	4.4	0.1	2102.7
20666	15.	4.1	0.1	2091.3
20667	14.9	4.2	0.1	2109.9
20668	15.	3.9	0.1	2097.1
20669	14.9	4.	0.1	2115.7
20670	15.	3.7	0.1	2101.6
20671	14.9	3.8	0.1	2120.2
20672	15.	3.5	0.1	2104.8
20673	14.9	3.6	0.1	2123.6
20674	15.	3.3	0.1	2106.9
20675	14.9	3.4	0.1	2125.9
20676	15.	3.1	0.1	2107.9
20677	14.9	3.2	0.1	2127.2
20678	15.	2.9	0.1	2107.9
20679	14.9	3.	0.1	2127.6
20680	15.	2.7	0.1	2106.9
20681	14.9	2.8	0.1	2127.2
20682	15.	2.5	0.1	2104.8
20683	14.9	2.6	0.1	2125.9
20684	15.	2.3	0.1	2101.6
20685	14.9	2.4	0.1	2123.6
20686	15.	2.1	0.1	2097.1
20687	14.9	2.2	0.1	2120.2
20688	15.	1.9	0.1	2091.3
20689	14.9	2.	0.1	2115.7
20690	15.	1.7	0.1	2084.
20691	14.9	1.8	0.1	2109.9
20692	15.	1.5	0.1	2075.2
20693	14.9	1.6	0.1	2102.7
20694	15.	1.3	0.1	2065.1
20695	14.9	1.4	0.1	2094.3
20696	15.	1.1	0.1	2053.7
20697	14.9	1.2	0.1	2084.6
20698	15.	0.9	0.1	2041.3
20699	14.9	1.	0.1	2073.8
20700	15.	0.7	0.1	2028.2
20701	14.9	0.8	0.1	2062.2
20702	15.	0.5	0.1	2014.8
20703	14.9	0.6	0.1	2050.1
20704	15.	0.3	0.1	2002.1
20705	14.9	0.4	0.1	2037.9
20706	14.9	0.2	0.1	2027.1
20707	15.	0.1	0.1	1987.6
20708	14.8	5.7	0.1	2062.8
20709	14.7	5.8	0.1	2088.
20710	14.8	5.9	0.1	2050.
20711	14.8	5.5	0.1	2073.1
20712	14.7	5.6	0.1	2096.5
20713	14.8	5.3	0.1	2084.1
20714	14.7	5.4	0.1	2106.5
20715	14.8	5.1	0.1	2094.7
20716	14.7	5.2	0.1	2116.3
20717	14.8	4.9	0.1	2104.7
20718	14.7	5.	0.1	2125.7
20719	14.8	4.7	0.1	2113.8
20720	14.7	4.8	0.1	2134.4
20721	14.8	4.5	0.1	2121.8
20722	14.7	4.6	0.1	2142.1
20723	14.8	4.3	0.1	2128.6
20724	14.7	4.4	0.1	2148.7
20725	14.8	4.1	0.1	2134.3
20726	14.7	4.2	0.1	2154.3
20727	14.8	3.9	0.1	2138.7
20728	14.7	4.	0.1	2158.8
20729	14.8	3.7	0.1	2142.2
20730	14.7	3.8	0.1	2162.2
20731	14.8	3.5	0.1	2144.6
20732	14.7	3.6	0.1	2164.8
20733	14.8	3.3	0.1	2146.2
20734	14.7	3.4	0.1	2166.5
20735	14.8	3.1	0.1	2146.9
20736	14.7	3.2	0.1	2167.5
20737	14.8	2.9	0.1	2146.9
20738	14.7	3.	0.1	2167.9
20739	14.8	2.7	0.1	2146.2
20740	14.7	2.8	0.1	2167.5
20741	14.8	2.5	0.1	2144.6
20742	14.7	2.6	0.1	2166.5
20743	14.8	2.3	0.1	2142.2
20744	14.7	2.4	0.1	2164.8
20745	14.8	2.1	0.1	2138.7
20746	14.7	2.2	0.1	2162.2
20747	14.8	1.9	0.1	2134.3
20748	14.7	2.	0.1	2158.8
20749	14.8	1.7	0.1	2128.6
20750	14.7	1.8	0.1	2154.3
20751	14.8	1.5	0.1	2121.8
20752	14.7	1.6	0.1	2148.7
20753	14.8	1.3	0.1	2113.8
20754	14.7	1.4	0.1	2142.1
20755	14.8	1.1	0.1	2104.7
20756	14.7	1.2	0.1	2134.4
20757	14.8	0.9	0.1	2094.7
20758	14.7	1.	0.1	2125.7
20759	14.8	0.7	0.1	2084.1
20760	14.7	0.8	0.1	2116.3
20761	14.8	0.5	0.1	2073.1
20762	14.7	0.6	0.1	2106.5
20763	14.8	0.3	0.1	2062.8
20764	14.7	0.4	0.1	2096.5
20765	14.7	0.2	0.1	2088.
20766	14.8	0.1	0.1	2050.
20767	14.6	5.7	0.1	2121.5
20768	14.5	5.8	0.1	2146.9
20769	14.6	5.9	0.1	2110.1
20770	14.6	5.5	0.1	2129.8
20771	14.5	5.6	0.1	2153.5
20772	14.6	5.3	0.1	2138.7
20773	14.5	5.4	0.1	2161.7
20774	14.6	5.1	0.1	2147.4
20775	14.5	5.2	0.1	2169.7
20776	14.6	4.9	0.1	2155.4
20777	14.5	5.	0.1	2177.3
20778	14.6	4.7	0.1	2162.7
20779	14.5	4.8	0.1	2184.2
20780	14.6	4.5	0.1	2169.
20781	14.5	4.6	0.1	2190.4
20782	14.6	4.3	0.1	2174.4
20783	14.5	4.4	0.1	2195.6
20784	14.6	4.1	0.1	2178.8
20785	14.5	4.2	0.1	2200.
20786	14.6	3.9	0.1	2182.3
20787	14.5	4.	0.1	2203.4
20788	14.6	3.7	0.1	2184.9
20789	14.5	3.8	0.1	2206.1
20790	14.6	3.5	0.1	2186.7
20791	14.5	3.6	0.1	2208.1
20792	14.6	3.3	0.1	2187.9
20793	14.5	3.4	0.1	2209.4
20794	14.6	3.1	0.1	2188.5
20795	14.5	3.2	0.1	2210.1
20796	14.6	2.9	0.1	2188.5
20797	14.5	3.	0.1	2210.4
20798	14.6	2.7	0.1	2187.9
20799	14.5	2.8	0.1	2210.1
20800	14.6	2.5	0.1	2186.7
20801	14.5	2.6	0.1	2209.4
20802	14.6	2.3	0.1	2184.9
20803	14.5	2.4	0.1	2208.1
20804	14.6	2.1	0.1	2182.3
20805	14.5	2.2	0.1	2206.1
20806	14.6	1.9	0.1	2178.8
20807	14.5	2.	0.1	2203.4
20808	14.6	1.7	0.1	2174.4
20809	14.5	1.8	0.1	2200.
20810	14.6	1.5	0.1	2169.
20811	14.5	1.6	0.1	2195.6
20812	14.6	1.3	0.1	2162.7
20813	14.5	1.4	0.1	2190.4
20814	14.6	1.1	0.1	2155.4
20815	14.5	1.2	0.1	2184.2
20816	14.6	0.9	0.1	2147.4
20817	14.5	1.	0.1	2177.3
20818	14.6	0.7	0.1	2138.7
20819	14.5	0.8	0.1	2169.7
20820	14.6	0.5	0.1	2129.8
20821	14.5	0.6	0.1	2161.7
20822	14.6	0.3	0.1	2121.5
20823	14.5	0.4	0.1	2153.5
20824	14.5	0.2	0.1	2146.9
20825	14.6	0.1	0.1	2110.1
20826	14.4	5.7	0.1	2178.8
20827	14.3	5.8	0.1	2204.4
20828	14.4	5.9	0.1	2168.5
20829	14.4	5.5	0.1	2185.3
20830	14.3	5.6	0.1	2209.4
20831	14.4	5.3	0.1	2192.6
20832	14.3	5.4	0.1	2216.
20833	14.4	5.1	0.1	2199.6
20834	14.3	5.2	0.1	2222.5
20835	14.4	4.9	0.1	2206.1
20836	14.3	5.	0.1	2228.6
20837	14.4	4.7	0.1	2211.9
20838	14.3	4.8	0.1	2234.2
20839	14.4	4.5	0.1	2216.9
20840	14.3	4.6	0.1	2239.1
20841	14.4	4.3	0.1	2221.2
20842	14.3	4.4	0.1	2243.2
20843	14.4	4.1	0.1	2224.6
20844	14.3	4.2	0.1	2246.7
20845	14.4	3.9	0.1	2227.3
20846	14.3	4.	0.1	2249.4
20847	14.4	3.7	0.1	2229.3
20848	14.3	3.8	0.1	2251.4
20849	14.4	3.5	0.1	2230.7
20850	14.3	3.6	0.1	2252.9
20851	14.4	3.3	0.1	2231.6
20852	14.3	3.4	0.1	2253.9
20853	14.4	3.1	0.1	2232.
20854	14.3	3.2	0.1	2254.5
20855	14.4	2.9	0.1	2232.
20856	14.3	3.	0.1	2254.7
20857	14.4	2.7	0.1	2231.6
20858	14.3	2.8	0.1	2254.5
20859	14.4	2.5	0.1	2230.7
20860	14.3	2.6	0.1	2253.9
20861	14.4	2.3	0.1	2229.3
20862	14.3	2.4	0.1	2252.9
20863	14.4	2.1	0.1	2227.3
20864	14.3	2.2	0.1	2251.4
20865	14.4	1.9	0.1	2224.6
20866	14.3	2.	0.1	2249.4
20867	14.4	1.7	0.1	2221.2
20868	14.3	1.8	0.1	2246.7
20869	14.4	1.5	0.1	2216.9
20870	14.3	1.6	0.1	2243.2
20871	14.4	1.3	0.1	2211.9
20872	14.3	1.4	0.1	2239.1
20873	14.4	1.1	0.1	2206.1
20874	14.3	1.2	0.1	2234.2
20875	14.4	0.9	0.1	2199.6
20876	14.3	1.	0.1	2228.6
20877	14.4	0.7	0.1	2192.6
20878	14.3	0.8	0.1	2222.5
20879	14.4	0.5	0.1	2185.3
20880	14.3	0.6	0.1	2216.
20881	14.4	0.3	0.1	2178.8
20882	14.3	0.4	0.1	2209.4
20883	14.3	0.2	0.1	2204.4
20884	14.4	0.1	0.1	2168.5
20885	14.2	5.7	0.1	2234.9
20886	14.1	5.8	0.1	2260.8
20887	14.2	5.9	0.1	2225.6
20888	14.2	5.5	0.1	2240.
20889	14.1	5.6	0.1	2264.5
20890	14.2	5.3	0.1	2245.9
20891	14.1	5.4	0.1	2269.8
20892	14.2	5.1	0.1	2251.5
20893	14.1	5.2	0.1	2275.
20894	14.2	4.9	0.1	2256.7
20895	14.1	5.	0.1	2279.9
20896	14.2	4.7	0.1	2261.4
20897	14.1	4.8	0.1	2284.4
20898	14.2	4.5	0.1	2265.4
20899	14.1	4.6	0.1	2288.3
20900	14.2	4.3	0.1	2268.7
20901	14.1	4.4	0.1	2291.6
20902	14.2	4.1	0.1	2271.4
20903	14.1	4.2	0.1	2294.2
20904	14.2	3.9	0.1	2273.5
20905	14.1	4.	0.1	2296.3
20906	14.2	3.7	0.1	2275.1
20907	14.1	3.8	0.1	2297.9
20908	14.2	3.5	0.1	2276.1
20909	14.1	3.6	0.1	2299.1
20910	14.2	3.3	0.1	2276.8
20911	14.1	3.4	0.1	2299.8
20912	14.2	3.1	0.1	2277.1
20913	14.1	3.2	0.1	2300.3
20914	14.2	2.9	0.1	2277.1
20915	14.1	3.	0.1	2300.4
20916	14.2	2.7	0.1	2276.8
20917	14.1	2.8	0.1	2300.3
20918	14.2	2.5	0.1	2276.1
20919	14.1	2.6	0.1	2299.8
20920	14.2	2.3	0.1	2275.1
20921	14.1	2.4	0.1	2299.1
20922	14.2	2.1	0.1	2273.5
20923	14.1	2.2	0.1	2297.9
20924	14.2	1.9	0.1	2271.4
20925	14.1	2.	0.1	2296.3
20926	14.2	1.7	0.1	2268.7
20927	14.1	1.8	0.1	2294.2
20928	14.2	1.5	0.1	2265.4
20929	14.1	1.6	0.1	2291.6
20930	14.2	1.3	0.1	2261.4
20931	14.1	1.4	0.1	2288.3
20932	14.2	1.1	0.1	2256.7
20933	14.1	1.2	0.1	2284.4
20934	14.2	0.9	0.1	2251.5
20935	14.1	1.	0.1	2279.9
20936	14.2	0.7	0.1	2245.9
20937	14.1	0.8	0.1	2275.
20938	14.2	0.5	0.1	2240.
20939	14.1	0.6	0.1	2269.8
20940	14.2	0.3	0.1	2234.9
20941	14.1	0.4	0.1	2264.5
20942	14.1	0.2	0.1	2260.8
20943	14.2	0.1	0.1	2225.6
20944	14.	5.7	0.1	2290.2
20945	13.9	5.8	0.1	2316.4
20946	14.	5.9	0.1	2281.7
20947	14.	5.5	0.1	2294.1
20948	13.9	5.6	0.1	2318.9
20949	14.	5.3	0.1	2298.8
20950	13.9	5.4	0.1	2323.1
20951	14.	5.1	0.1	2303.4
20952	13.9	5.2	0.1	2327.3
20953	14.	4.9	0.1	2307.5
20954	13.9	5.	0.1	2331.2
20955	14.	4.7	0.1	2311.2
20956	13.9	4.8	0.1	2334.8
20957	14.	4.5	0.1	2314.4
20958	13.9	4.6	0.1	2337.9
20959	14.	4.3	0.1	2317.
20960	13.9	4.4	0.1	2340.5
20961	14.	4.1	0.1	2319.1
20962	13.9	4.2	0.1	2342.6
20963	14.	3.9	0.1	2320.8
20964	13.9	4.	0.1	2344.2
20965	14.	3.7	0.1	2321.9
20966	13.9	3.8	0.1	2345.4
20967	14.	3.5	0.1	2322.8
20968	13.9	3.6	0.1	2346.3
20969	14.	3.3	0.1	2323.3
20970	13.9	3.4	0.1	2346.9
20971	14.	3.1	0.1	2323.5
20972	13.9	3.2	0.1	2347.2
20973	14.	2.9	0.1	2323.5
20974	13.9	3.	0.1	2347.3
20975	14.	2.7	0.1	2323.3
20976	13.9	2.8	0.1	2347.2
20977	14.	2.5	0.1	2322.8
20978	13.9	2.6	0.1	2346.9
20979	14.	2.3	0.1	2321.9
20980	13.9	2.4	0.1	2346.3
20981	14.	2.1	0.1	2320.8
20982	13.9	2.2	0.1	2345.4
20983	14.	1.9	0.1	2319.1
20984	13.9	2.	0.1	2344.2
20985	14.	1.7	0.1	2317.
20986	13.9	1.8	0.1	2342.6
20987	14.	1.5	0.1	2314.4
20988	13.9	1.6	0.1	2340.5
20989	14.	1.3	0.1	2311.2
20990	13.9	1.4	0.1	2337.9
20991	14.	1.1	0.1	2307.5
20992	13.9	1.2	0.1	2334.8
20993	14.	0.9	0.1	2303.4
20994	13.9	1.	0.1	2331.2
20995	14.	0.7	0.1	2298.8
20996	13.9	0.8	0.1	2327.3
20997	14.	0.5	0.1	2294.1
20998	13.9	0.6	0.1	2323.1
20999	14.	0.3	0.1	2290.2
21000	13.9	0.4	0.1	2318.9
21001	13.9	0.2	0.1	2316.4
21002	14.	0.1	0.1	2281.7
21003	13.8	5.7	0.1	2344.9
21004	13.7	5.8	0.1	2371.3
21005	13.8	5.9	0.1	2337.2
21006	13.8	5.5	0.1	2347.8
21007	13.7	5.6	0.1	2372.9
21008	13.8	5.3	0.1	2351.6
21009	13.7	5.4	0.1	2376.2
21010	13.8	5.1	0.1	2355.2
21011	13.7	5.2	0.1	2379.5
21012	13.8	4.9	0.1	2358.5
21013	13.7	5.	0.1	2382.6
21014	13.8	4.7	0.1	2361.4
21015	13.7	4.8	0.1	2385.4
21016	13.8	4.5	0.1	2363.9
21017	13.7	4.6	0.1	2387.9
21018	13.8	4.3	0.1	2365.9
21019	13.7	4.4	0.1	2389.9
21020	13.8	4.1	0.1	2367.6
21021	13.7	4.2	0.1	2391.5
21022	13.8	3.9	0.1	2368.8
21023	13.7	4.	0.1	2392.8
21024	13.8	3.7	0.1	2369.7
21025	13.7	3.8	0.1	2393.7
21026	13.8	3.5	0.1	2370.4
21027	13.7	3.6	0.1	2394.4
21028	13.8	3.3	0.1	2370.7
21029	13.7	3.4	0.1	2394.8
21030	13.8	3.1	0.1	2370.9
21031	13.7	3.2	0.1	2395.
21032	13.8	2.9	0.1	2370.9
21033	13.7	3.	0.1	2395.1
21034	13.8	2.7	0.1	2370.7
21035	13.7	2.8	0.1	2395.
21036	13.8	2.5	0.1	2370.4
21037	13.7	2.6	0.1	2394.8
21038	13.8	2.3	0.1	2369.7
21039	13.7	2.4	0.1	2394.4
21040	13.8	2.1	0.1	2368.8
21041	13.7	2.2	0.1	2393.7
21042	13.8	1.9	0.1	2367.6
21043	13.7	2.	0.1	2392.8
21044	13.8	1.7	0.1	2365.9
21045	13.7	1.8	0.1	2391.5
21046	13.8	1.5	0.1	2363.9
21047	13.7	1.6	0.1	2389.9
21048	13.8	1.3	0.1	2361.4
21049	13.7	1.4	0.1	2387.9
21050	13.8	1.1	0.1	2358.5
21051	13.7	1.2	0.1	2385.4
21052	13.8	0.9	0.1	2355.2
21053	13.7	1.	0.1	2382.6
21054	13.8	0.7	0.1	2351.6
21055	13.7	0.8	0.1	2379.5
21056	13.8	0.5	0.1	2347.8
21057	13.7	0.6	0.1	2376.2
21058	13.8	0.3	0.1	2344.9
21059	13.7	0.4	0.1	2372.9
21060	13.7	0.2	0.1	2371.3
21061	13.8	0.1	0.1	2337.2
21062	13.6	5.7	0.1	2399.2
21063	13.5	5.8	0.1	2425.9
21064	13.6	5.9	0.1	2392.1
21065	13.6	5.5	0.1	2401.3
21066	13.5	5.6	0.1	2426.7
21067	13.6	5.3	0.1	2404.2
21068	13.5	5.4	0.1	2429.2
21069	13.6	5.1	0.1	2407.
21070	13.5	5.2	0.1	2431.8
21071	13.6	4.9	0.1	2409.6
21072	13.5	5.	0.1	2434.2
21073	13.6	4.7	0.1	2411.9
21074	13.5	4.8	0.1	2436.3
21075	13.6	4.5	0.1	2413.8
21076	13.5	4.6	0.1	2438.2
21077	13.6	4.3	0.1	2415.4
21078	13.5	4.4	0.1	2439.8
21079	13.6	4.1	0.1	2416.7
21080	13.5	4.2	0.1	2441.
21081	13.6	3.9	0.1	2417.6
21082	13.5	4.	0.1	2442.
21083	13.6	3.7	0.1	2418.3
21084	13.5	3.8	0.1	2442.7
21085	13.6	3.5	0.1	2418.8
21086	13.5	3.6	0.1	2443.2
21087	13.6	3.3	0.1	2419.
21088	13.5	3.4	0.1	2443.5
21089	13.6	3.1	0.1	2419.2
21090	13.5	3.2	0.1	2443.6
21091	13.6	2.9	0.1	2419.2
21092	13.5	3.	0.1	2443.7
21093	13.6	2.7	0.1	2419.
21094	13.5	2.8	0.1	2443.6
21095	13.6	2.5	0.1	2418.8
21096	13.5	2.6	0.1	2443.5
21097	13.6	2.3	0.1	2418.3
21098	13.5	2.4	0.1	2443.2
21099	13.6	2.1	0.1	2417.6
21100	13.5	2.2	0.1	2442.7
21101	13.6	1.9	0.1	2416.7
21102	13.5	2.	0.1	2442.
21103	13.6	1.7	0.1	2415.4
21104	13.5	1.8	0.1	2441.
21105	13.6	1.5	0.1	2413.8
21106	13.5	1.6	0.1	2439.8
21107	13.6	1.3	0.1	2411.9
21108	13.5	1.4	0.1	2438.2
21109	13.6	1.1	0.1	2409.6
21110	13.5	1.2	0.1	2436.3
21111	13.6	0.9	0.1	2407.
21112	13.5	1.	0.1	2434.2
21113	13.6	0.7	0.1	2404.2
21114	13.5	0.8	0.1	2431.8
21115	13.6	0.5	0.1	2401.3
21116	13.5	0.6	0.1	2429.2
21117	13.6	0.3	0.1	2399.2
21118	13.5	0.4	0.1	2426.7
21119	13.5	0.2	0.1	2425.9
21120	13.6	0.1	0.1	2392.1
21121	13.4	5.7	0.1	2453.2
21122	13.3	5.8	0.1	2480.2
21123	13.4	5.9	0.1	2446.7
21124	13.4	5.5	0.1	2454.6
21125	13.3	5.6	0.1	2480.3
21126	13.4	5.3	0.1	2456.8
21127	13.3	5.4	0.1	2482.1
21128	13.4	5.1	0.1	2458.9
21129	13.3	5.2	0.1	2484.1
21130	13.4	4.9	0.1	2460.9
21131	13.3	5.	0.1	2485.9
21132	13.4	4.7	0.1	2462.7
21133	13.3	4.8	0.1	2487.5
21134	13.4	4.5	0.1	2464.1
21135	13.3	4.6	0.1	2488.9
21136	13.4	4.3	0.1	2465.3
21137	13.3	4.4	0.1	2490.1
21138	13.4	4.1	0.1	2466.3
21139	13.3	4.2	0.1	2491.
21140	13.4	3.9	0.1	2467.
21141	13.3	4.	0.1	2491.7
21142	13.4	3.7	0.1	2467.5
21143	13.3	3.8	0.1	2492.2
21144	13.4	3.5	0.1	2467.8
21145	13.3	3.6	0.1	2492.6
21146	13.4	3.3	0.1	2468.
21147	13.3	3.4	0.1	2492.8
21148	13.4	3.1	0.1	2468.1
21149	13.3	3.2	0.1	2492.9
21150	13.4	2.9	0.1	2468.1
21151	13.3	3.	0.1	2492.9
21152	13.4	2.7	0.1	2468.
21153	13.3	2.8	0.1	2492.9
21154	13.4	2.5	0.1	2467.8
21155	13.3	2.6	0.1	2492.8
21156	13.4	2.3	0.1	2467.5
21157	13.3	2.4	0.1	2492.6
21158	13.4	2.1	0.1	2467.
21159	13.3	2.2	0.1	2492.2
21160	13.4	1.9	0.1	2466.3
21161	13.3	2.	0.1	2491.7
21162	13.4	1.7	0.1	2465.3
21163	13.3	1.8	0.1	2491.
21164	13.4	1.5	0.1	2464.1
21165	13.3	1.6	0.1	2490.1
21166	13.4	1.3	0.1	2462.7
21167	13.3	1.4	0.1	2488.9
21168	13.4	1.1	0.1	2460.9
21169	13.3	1.2	0.1	2487.5
21170	13.4	0.9	0.1	2458.9
21171	13.3	1.	0.1	2485.9
21172	13.4	0.7	0.1	2456.8
21173	13.3	0.8	0.1	2484.1
21174	13.4	0.5	0.1	2454.6
21175	13.3	0.6	0.1	2482.1
21176	13.4	0.3	0.1	2453.2
21177	13.3	0.4	0.1	2480.3
21178	13.3	0.2	0.1	2480.2
21179	13.4	0.1	0.1	2446.7
21180	13.2	5.7	0.1	2507.1
21181	13.1	5.8	0.1	2534.3
21182	13.2	5.9	0.1	2501.
21183	13.2	5.5	0.1	2507.8
21184	13.1	5.6	0.1	2533.8
21185	13.2	5.3	0.1	2509.4
21186	13.1	5.4	0.1	2535.1
21187	13.2	5.1	0.1	2511.
21188	13.1	5.2	0.1	2536.5
21189	13.2	4.9	0.1	2512.5
21190	13.1	5.	0.1	2537.8
21191	13.2	4.7	0.1	2513.8
21192	13.1	4.8	0.1	2539.
21193	13.2	4.5	0.1	2514.8
21194	13.1	4.6	0.1	2540.
21195	13.2	4.3	0.1	2515.7
21196	13.1	4.4	0.1	2540.8
21197	13.2	4.1	0.1	2516.4
21198	13.1	4.2	0.1	2541.4
21199	13.2	3.9	0.1	2516.9
21200	13.1	4.	0.1	2541.9
21201	13.2	3.7	0.1	2517.2
21202	13.1	3.8	0.1	2542.3
21203	13.2	3.5	0.1	2517.5
21204	13.1	3.6	0.1	2542.5
21205	13.2	3.3	0.1	2517.6
21206	13.1	3.4	0.1	2542.6
21207	13.2	3.1	0.1	2517.7
21208	13.1	3.2	0.1	2542.7
21209	13.2	2.9	0.1	2517.7
21210	13.1	3.	0.1	2542.7
21211	13.2	2.7	0.1	2517.6
21212	13.1	2.8	0.1	2542.7
21213	13.2	2.5	0.1	2517.5
21214	13.1	2.6	0.1	2542.6
21215	13.2	2.3	0.1	2517.2
21216	13.1	2.4	0.1	2542.5
21217	13.2	2.1	0.1	2516.9
21218	13.1	2.2	0.1	2542.3
21219	13.2	1.9	0.1	2516.4
21220	13.1	2.	0.1	2541.9
21221	13.2	1.7	0.1	2515.7
21222	13.1	1.8	0.1	2541.4
21223	13.2	1.5	0.1	2514.8
21224	13.1	1.6	0.1	2540.8
21225	13.2	1.3	0.1	2513.8
21226	13.1	1.4	0.1	2540.
21227	13.2	1.1	0.1	2512.5
21228	13.1	1.2	0.1	2539.
21229	13.2	0.9	0.1	2511.
21230	13.1	1.	0.1	2537.8
21231	13.2	0.7	0.1	2509.4
21232	13.1	0.8	0.1	2536.5
21233	13.2	0.5	0.1	2507.8
21234	13.1	0.6	0.1	2535.1
21235	13.2	0.3	0.1	2507.1
21236	13.1	0.4	0.1	2533.8
21237	13.1	0.2	0.1	2534.3
21238	13.2	0.1	0.1	2501.
21239	13.	5.7	0.1	2560.9
21240	12.9	5.8	0.1	2588.3
21241	13.	5.9	0.1	2555.3
21242	13.	5.5	0.1	2561.
21243	12.9	5.6	0.1	2587.3
21244	13.	5.3	0.1	2562.1
21245	12.9	5.4	0.1	2588.1
21246	13.	5.1	0.1	2563.2
21247	12.9	5.2	0.1	2589.
21248	13.	4.9	0.1	2564.3
21249	12.9	5.	0.1	2589.9
21250	13.	4.7	0.1	2565.2
21251	12.9	4.8	0.1	2590.7
21252	13.	4.5	0.1	2565.9
21253	12.9	4.6	0.1	2591.3
21254	13.	4.3	0.1	2566.5
21255	12.9	4.4	0.1	2591.9
21256	13.	4.1	0.1	2566.9
21257	12.9	4.2	0.1	2592.3
21258	13.	3.9	0.1	2567.2
21259	12.9	4.	0.1	2592.5
21260	13.	3.7	0.1	2567.5
21261	12.9	3.8	0.1	2592.7
21262	13.	3.5	0.1	2567.6
21263	12.9	3.6	0.1	2592.8
21264	13.	3.3	0.1	2567.7
21265	12.9	3.4	0.1	2592.9
21266	13.	3.1	0.1	2567.7
21267	12.9	3.2	0.1	2592.9
21268	13.	2.9	0.1	2567.7
21269	12.9	3.	0.1	2593.
21270	13.	2.7	0.1	2567.7
21271	12.9	2.8	0.1	2592.9
21272	13.	2.5	0.1	2567.6
21273	12.9	2.6	0.1	2592.9
21274	13.	2.3	0.1	2567.5
21275	12.9	2.4	0.1	2592.8
21276	13.	2.1	0.1	2567.2
21277	12.9	2.2	0.1	2592.7
21278	13.	1.9	0.1	2566.9
21279	12.9	2.	0.1	2592.5
21280	13.	1.7	0.1	2566.5
21281	12.9	1.8	0.1	2592.3
21282	13.	1.5	0.1	2565.9
21283	12.9	1.6	0.1	2591.9
21284	13.	1.3	0.1	2565.2
21285	12.9	1.4	0.1	2591.3
21286	13.	1.1	0.1	2564.3
21287	12.9	1.2	0.1	2590.7
21288	13.	0.9	0.1	2563.2
21289	12.9	1.	0.1	2589.9
21290	13.	0.7	0.1	2562.1
21291	12.9	0.8	0.1	2589.
21292	13.	0.5	0.1	2561.
21293	12.9	0.6	0.1	2588.1
21294	13.	0.3	0.1	2560.9
21295	12.9	0.4	0.1	2587.3
21296	12.9	0.2	0.1	2588.3
21297	13.	0.1	0.1	2555.3
21298	12.8	5.7	0.1	2614.7
21299	12.7	5.8	0.1	2642.4
21300	12.8	5.9	0.1	2609.5
21301	12.8	5.5	0.1	2614.4
21302	12.7	5.6	0.1	2640.9
21303	12.8	5.3	0.1	2615.
21304	12.7	5.4	0.1	2641.3
21305	12.8	5.1	0.1	2615.7
21306	12.7	5.2	0.1	2641.7
21307	12.8	4.9	0.1	2616.3
21308	12.7	5.	0.1	2642.2
21309	12.8	4.7	0.1	2616.8
21310	12.7	4.8	0.1	2642.6
21311	12.8	4.5	0.1	2617.3
21312	12.7	4.6	0.1	2643.
21313	12.8	4.3	0.1	2617.6
21314	12.7	4.4	0.1	2643.3
21315	12.8	4.1	0.1	2617.8
21316	12.7	4.2	0.1	2643.4
21317	12.8	3.9	0.1	2618.
21318	12.7	4.	0.1	2643.6
21319	12.8	3.7	0.1	2618.1
21320	12.7	3.8	0.1	2643.6
21321	12.8	3.5	0.1	2618.1
21322	12.7	3.6	0.1	2643.6
21323	12.8	3.3	0.1	2618.2
21324	12.7	3.4	0.1	2643.6
21325	12.8	3.1	0.1	2618.2
21326	12.7	3.2	0.1	2643.6
21327	12.8	2.9	0.1	2618.2
21328	12.7	3.	0.1	2643.6
21329	12.8	2.7	0.1	2618.2
21330	12.7	2.8	0.1	2643.6
21331	12.8	2.5	0.1	2618.1
21332	12.7	2.6	0.1	2643.6
21333	12.8	2.3	0.1	2618.1
21334	12.7	2.4	0.1	2643.6
21335	12.8	2.1	0.1	2618.
21336	12.7	2.2	0.1	2643.6
21337	12.8	1.9	0.1	2617.8
21338	12.7	2.	0.1	2643.6
21339	12.8	1.7	0.1	2617.6
21340	12.7	1.8	0.1	2643.4
21341	12.8	1.5	0.1	2617.3
21342	12.7	1.6	0.1	2643.3
21343	12.8	1.3	0.1	2616.8
21344	12.7	1.4	0.1	2643.
21345	12.8	1.1	0.1	2616.3
21346	12.7	1.2	0.1	2642.6
21347	12.8	0.9	0.1	2615.7
21348	12.7	1.	0.1	2642.2
21349	12.8	0.7	0.1	2615.
21350	12.7	0.8	0.1	2641.7
21351	12.8	0.5	0.1	2614.4
21352	12.7	0.6	0.1	2641.3
21353	12.8	0.3	0.1	2614.7
21354	12.7	0.4	0.1	2640.9
21355	12.7	0.2	0.1	2642.4
21356	12.8	0.1	0.1	2609.5
21357	12.6	5.7	0.1	2668.5
21358	12.5	5.8	0.1	2696.5
21359	12.6	5.9	0.1	2663.7
21360	12.6	5.5	0.1	2667.8
21361	12.5	5.6	0.1	2694.6
21362	12.6	5.3	0.1	2668.
21363	12.5	5.4	0.1	2694.5
21364	12.6	5.1	0.1	2668.3
21365	12.5	5.2	0.1	2694.6
21366	12.6	4.9	0.1	2668.5
21367	12.5	5.	0.1	2694.8
21368	12.6	4.7	0.1	2668.8
21369	12.5	4.8	0.1	2694.9
21370	12.6	4.5	0.1	2669.
21371	12.5	4.6	0.1	2694.9
21372	12.6	4.3	0.1	2669.1
21373	12.5	4.4	0.1	2695.
21374	12.6	4.1	0.1	2669.1
21375	12.5	4.2	0.1	2694.9
21376	12.6	3.9	0.1	2669.1
21377	12.5	4.	0.1	2694.9
21378	12.6	3.7	0.1	2669.1
21379	12.5	3.8	0.1	2694.8
21380	12.6	3.5	0.1	2669.1
21381	12.5	3.6	0.1	2694.7
21382	12.6	3.3	0.1	2669.
21383	12.5	3.4	0.1	2694.7
21384	12.6	3.1	0.1	2669.
21385	12.5	3.2	0.1	2694.6
21386	12.6	2.9	0.1	2669.
21387	12.5	3.	0.1	2694.6
21388	12.6	2.7	0.1	2669.
21389	12.5	2.8	0.1	2694.6
21390	12.6	2.5	0.1	2669.1
21391	12.5	2.6	0.1	2694.7
21392	12.6	2.3	0.1	2669.1
21393	12.5	2.4	0.1	2694.7
21394	12.6	2.1	0.1	2669.1
21395	12.5	2.2	0.1	2694.8
21396	12.6	1.9	0.1	2669.1
21397	12.5	2.	0.1	2694.9
21398	12.6	1.7	0.1	2669.1
21399	12.5	1.8	0.1	2694.9
21400	12.6	1.5	0.1	2669.
21401	12.5	1.6	0.1	2695.
21402	12.6	1.3	0.1	2668.8
21403	12.5	1.4	0.1	2694.9
21404	12.6	1.1	0.1	2668.5
21405	12.5	1.2	0.1	2694.9
21406	12.6	0.9	0.1	2668.3
21407	12.5	1.	0.1	2694.8
21408	12.6	0.7	0.1	2668.
21409	12.5	0.8	0.1	2694.6
21410	12.6	0.5	0.1	2667.8
21411	12.5	0.6	0.1	2694.5
21412	12.6	0.3	0.1	2668.5
21413	12.5	0.4	0.1	2694.6
21414	12.5	0.2	0.1	2696.5
21415	12.6	0.1	0.1	2663.7
21416	12.4	5.7	0.1	2722.4
21417	12.3	5.8	0.1	2750.6
21418	12.4	5.9	0.1	2717.9
21419	12.4	5.5	0.1	2721.3
21420	12.3	5.6	0.1	2748.4
21421	12.4	5.3	0.1	2721.1
21422	12.3	5.4	0.1	2748.
21423	12.4	5.1	0.1	2721.1
21424	12.3	5.2	0.1	2747.7
21425	12.4	4.9	0.1	2721.
21426	12.3	5.	0.1	2747.5
21427	12.4	4.7	0.1	2721.
21428	12.3	4.8	0.1	2747.3
21429	12.4	4.5	0.1	2720.9
21430	12.3	4.6	0.1	2747.2
21431	12.4	4.3	0.1	2720.8
21432	12.3	4.4	0.1	2747.
21433	12.4	4.1	0.1	2720.7
21434	12.3	4.2	0.1	2746.8
21435	12.4	3.9	0.1	2720.6
21436	12.3	4.	0.1	2746.5
21437	12.4	3.7	0.1	2720.4
21438	12.3	3.8	0.1	2746.4
21439	12.4	3.5	0.1	2720.3
21440	12.3	3.6	0.1	2746.2
21441	12.4	3.3	0.1	2720.2
21442	12.3	3.4	0.1	2746.1
21443	12.4	3.1	0.1	2720.2
21444	12.3	3.2	0.1	2746.
21445	12.4	2.9	0.1	2720.2
21446	12.3	3.	0.1	2746.
21447	12.4	2.7	0.1	2720.2
21448	12.3	2.8	0.1	2746.
21449	12.4	2.5	0.1	2720.3
21450	12.3	2.6	0.1	2746.1
21451	12.4	2.3	0.1	2720.4
21452	12.3	2.4	0.1	2746.2
21453	12.4	2.1	0.1	2720.6
21454	12.3	2.2	0.1	2746.4
21455	12.4	1.9	0.1	2720.7
21456	12.3	2.	0.1	2746.5
21457	12.4	1.7	0.1	2720.8
21458	12.3	1.8	0.1	2746.8
21459	12.4	1.5	0.1	2720.9
21460	12.3	1.6	0.1	2747.
21461	12.4	1.3	0.1	2721.
21462	12.3	1.4	0.1	2747.2
21463	12.4	1.1	0.1	2721.
21464	12.3	1.2	0.1	2747.3
21465	12.4	0.9	0.1	2721.1
21466	12.3	1.	0.1	2747.5
21467	12.4	0.7	0.1	2721.1
21468	12.3	0.8	0.1	2747.7
21469	12.4	0.5	0.1	2721.3
21470	12.3	0.6	0.1	2748.
21471	12.4	0.3	0.1	2722.4
21472	12.3	0.4	0.1	2748.4
21473	12.3	0.2	0.1	2750.6
21474	12.4	0.1	0.1	2717.9
21475	12.2	5.7	0.1	2776.4
21476	12.1	5.8	0.1	2804.9
21477	12.2	5.9	0.1	2772.3
21478	12.2	5.5	0.1	2775.
21479	12.1	5.6	0.1	2802.3
21480	12.2	5.3	0.1	2774.5
21481	12.1	5.4	0.1	2801.6
21482	12.2	5.1	0.1	2774.1
21483	12.1	5.2	0.1	2801.
21484	12.2	4.9	0.1	2773.8
21485	12.1	5.	0.1	2800.5
21486	12.2	4.7	0.1	2773.5
21487	12.1	4.8	0.1	2800.
21488	12.2	4.5	0.1	2773.2
21489	12.1	4.6	0.1	2799.6
21490	12.2	4.3	0.1	2772.9
21491	12.1	4.4	0.1	2799.2
21492	12.2	4.1	0.1	2772.6
21493	12.1	4.2	0.1	2798.8
21494	12.2	3.9	0.1	2772.3
21495	12.1	4.	0.1	2798.5
21496	12.2	3.7	0.1	2772.1
21497	12.1	3.8	0.1	2798.2
21498	12.2	3.5	0.1	2771.9
21499	12.1	3.6	0.1	2797.9
21500	12.2	3.3	0.1	2771.8
21501	12.1	3.4	0.1	2797.7
21502	12.2	3.1	0.1	2771.7
21503	12.1	3.2	0.1	2797.6
21504	12.2	2.9	0.1	2771.7
21505	12.1	3.	0.1	2797.6
21506	12.2	2.7	0.1	2771.8
21507	12.1	2.8	0.1	2797.6
21508	12.2	2.5	0.1	2771.9
21509	12.1	2.6	0.1	2797.7
21510	12.2	2.3	0.1	2772.1
21511	12.1	2.4	0.1	2797.9
21512	12.2	2.1	0.1	2772.3
21513	12.1	2.2	0.1	2798.2
21514	12.2	1.9	0.1	2772.6
21515	12.1	2.	0.1	2798.5
21516	12.2	1.7	0.1	2772.9
21517	12.1	1.8	0.1	2798.8
21518	12.2	1.5	0.1	2773.2
21519	12.1	1.6	0.1	2799.2
21520	12.2	1.3	0.1	2773.5
21521	12.1	1.4	0.1	2799.6
21522	12.2	1.1	0.1	2773.8
21523	12.1	1.2	0.1	2800.
21524	12.2	0.9	0.1	2774.1
21525	12.1	1.	0.1	2800.5
21526	12.2	0.7	0.1	2774.5
21527	12.1	0.8	0.1	2801.
21528	12.2	0.5	0.1	2775.
21529	12.1	0.6	0.1	2801.6
21530	12.2	0.3	0.1	2776.4
21531	12.1	0.4	0.1	2802.3
21532	12.1	0.2	0.1	2804.9
21533	12.2	0.1	0.1	2772.3
21534	12.	5.7	0.1	2830.6
21535	11.9	5.8	0.1	2859.3
21536	12.	5.9	0.1	2826.8
21537	12.	5.5	0.1	2828.8
21538	11.9	5.6	0.1	2856.4
21539	12.	5.3	0.1	2828.
21540	11.9	5.4	0.1	2855.3
21541	12.	5.1	0.1	2827.4
21542	11.9	5.2	0.1	2854.5
21543	12.	4.9	0.1	2826.7
21544	11.9	5.	0.1	2853.7
21545	12.	4.7	0.1	2826.2
21546	11.9	4.8	0.1	2853.
21547	12.	4.5	0.1	2825.6
21548	11.9	4.6	0.1	2852.3
21549	12.	4.3	0.1	2825.2
21550	11.9	4.4	0.1	2851.7
21551	12.	4.1	0.1	2824.7
21552	11.9	4.2	0.1	2851.2
21553	12.	3.9	0.1	2824.3
21554	11.9	4.	0.1	2850.7
21555	12.	3.7	0.1	2824.
21556	11.9	3.8	0.1	2850.3
21557	12.	3.5	0.1	2823.7
21558	11.9	3.6	0.1	2849.9
21559	12.	3.3	0.1	2823.6
21560	11.9	3.4	0.1	2849.7
21561	12.	3.1	0.1	2823.5
21562	11.9	3.2	0.1	2849.5
21563	12.	2.9	0.1	2823.5
21564	11.9	3.	0.1	2849.5
21565	12.	2.7	0.1	2823.6
21566	11.9	2.8	0.1	2849.5
21567	12.	2.5	0.1	2823.7
21568	11.9	2.6	0.1	2849.7
21569	12.	2.3	0.1	2824.
21570	11.9	2.4	0.1	2849.9
21571	12.	2.1	0.1	2824.3
21572	11.9	2.2	0.1	2850.3
21573	12.	1.9	0.1	2824.7
21574	11.9	2.	0.1	2850.7
21575	12.	1.7	0.1	2825.2
21576	11.9	1.8	0.1	2851.2
21577	12.	1.5	0.1	2825.6
21578	11.9	1.6	0.1	2851.7
21579	12.	1.3	0.1	2826.2
21580	11.9	1.4	0.1	2852.3
21581	12.	1.1	0.1	2826.7
21582	11.9	1.2	0.1	2853.
21583	12.	0.9	0.1	2827.4
21584	11.9	1.	0.1	2853.7
21585	12.	0.7	0.1	2828.
21586	11.9	0.8	0.1	2854.5
21587	12.	0.5	0.1	2828.8
21588	11.9	0.6	0.1	2855.3
21589	12.	0.3	0.1	2830.6
21590	11.9	0.4	0.1	2856.4
21591	11.9	0.2	0.1	2859.3
21592	12.	0.1	0.1	2826.8
21593	11.8	5.7	0.1	2884.9
21594	11.7	5.8	0.1	2913.9
21595	11.8	5.9	0.1	2881.5
21596	11.8	5.5	0.1	2882.9
21597	11.7	5.6	0.1	2910.7
21598	11.8	5.3	0.1	2881.8
21599	11.7	5.4	0.1	2909.3
21600	11.8	5.1	0.1	2880.8
21601	11.7	5.2	0.1	2908.2
21602	11.8	4.9	0.1	2879.9
21603	11.7	5.	0.1	2907.1
21604	11.8	4.7	0.1	2879.1
21605	11.7	4.8	0.1	2906.2
21606	11.8	4.5	0.1	2878.4
21607	11.7	4.6	0.1	2905.3
21608	11.8	4.3	0.1	2877.7
21609	11.7	4.4	0.1	2904.5
21610	11.8	4.1	0.1	2877.1
21611	11.7	4.2	0.1	2903.7
21612	11.8	3.9	0.1	2876.6
21613	11.7	4.	0.1	2903.1
21614	11.8	3.7	0.1	2876.1
21615	11.7	3.8	0.1	2902.6
21616	11.8	3.5	0.1	2875.8
21617	11.7	3.6	0.1	2902.1
21618	11.8	3.3	0.1	2875.6
21619	11.7	3.4	0.1	2901.8
21620	11.8	3.1	0.1	2875.5
21621	11.7	3.2	0.1	2901.6
21622	11.8	2.9	0.1	2875.5
21623	11.7	3.	0.1	2901.6
21624	11.8	2.7	0.1	2875.6
21625	11.7	2.8	0.1	2901.6
21626	11.8	2.5	0.1	2875.8
21627	11.7	2.6	0.1	2901.8
21628	11.8	2.3	0.1	2876.1
21629	11.7	2.4	0.1	2902.1
21630	11.8	2.1	0.1	2876.6
21631	11.7	2.2	0.1	2902.6
21632	11.8	1.9	0.1	2877.1
21633	11.7	2.	0.1	2903.1
21634	11.8	1.7	0.1	2877.7
21635	11.7	1.8	0.1	2903.7
21636	11.8	1.5	0.1	2878.4
21637	11.7	1.6	0.1	2904.5
21638	11.8	1.3	0.1	2879.1
21639	11.7	1.4	0.1	2905.3
21640	11.8	1.1	0.1	2879.9
21641	11.7	1.2	0.1	2906.2
21642	11.8	0.9	0.1	2880.8
21643	11.7	1.	0.1	2907.1
21644	11.8	0.7	0.1	2881.8
21645	11.7	0.8	0.1	2908.2
21646	11.8	0.5	0.1	2882.9
21647	11.7	0.6	0.1	2909.3
21648	11.8	0.3	0.1	2884.9
21649	11.7	0.4	0.1	2910.7
21650	11.7	0.2	0.1	2913.9
21651	11.8	0.1	0.1	2881.5
21652	11.6	5.7	0.1	2939.5
21653	11.5	5.8	0.1	2968.6
21654	11.6	5.9	0.1	2936.3
21655	11.6	5.5	0.1	2937.1
21656	11.5	5.6	0.1	2965.2
21657	11.6	5.3	0.1	2935.7
21658	11.5	5.4	0.1	2963.5
21659	11.6	5.1	0.1	2934.5
21660	11.5	5.2	0.1	2962.1
21661	11.6	4.9	0.1	2933.3
21662	11.5	5.	0.1	2960.7
21663	11.6	4.7	0.1	2932.3
21664	11.5	4.8	0.1	2959.5
21665	11.6	4.5	0.1	2931.3
21666	11.5	4.6	0.1	2958.4
21667	11.6	4.3	0.1	2930.5
21668	11.5	4.4	0.1	2957.4
21669	11.6	4.1	0.1	2929.7
21670	11.5	4.2	0.1	2956.5
21671	11.6	3.9	0.1	2929.1
21672	11.5	4.	0.1	2955.8
21673	11.6	3.7	0.1	2928.5
21674	11.5	3.8	0.1	2955.1
21675	11.6	3.5	0.1	2928.1
21676	11.5	3.6	0.1	2954.6
21677	11.6	3.3	0.1	2927.9
21678	11.5	3.4	0.1	2954.2
21679	11.6	3.1	0.1	2927.7
21680	11.5	3.2	0.1	2954.
21681	11.6	2.9	0.1	2927.7
21682	11.5	3.	0.1	2953.9
21683	11.6	2.7	0.1	2927.9
21684	11.5	2.8	0.1	2954.
21685	11.6	2.5	0.1	2928.1
21686	11.5	2.6	0.1	2954.2
21687	11.6	2.3	0.1	2928.5
21688	11.5	2.4	0.1	2954.6
21689	11.6	2.1	0.1	2929.1
21690	11.5	2.2	0.1	2955.1
21691	11.6	1.9	0.1	2929.7
21692	11.5	2.	0.1	2955.8
21693	11.6	1.7	0.1	2930.5
21694	11.5	1.8	0.1	2956.5
21695	11.6	1.5	0.1	2931.3
21696	11.5	1.6	0.1	2957.4
21697	11.6	1.3	0.1	2932.3
21698	11.5	1.4	0.1	2958.4
21699	11.6	1.1	0.1	2933.3
21700	11.5	1.2	0.1	2959.5
21701	11.6	0.9	0.1	2934.5
21702	11.5	1.	0.1	2960.7
21703	11.6	0.7	0.1	2935.7
21704	11.5	0.8	0.1	2962.1
21705	11.6	0.5	0.1	2937.1
21706	11.5	0.6	0.1	2963.5
21707	11.6	0.3	0.1	2939.5
21708	11.5	0.4	0.1	2965.2
21709	11.5	0.2	0.1	2968.6
21710	11.6	0.1	0.1	2936.3
21711	11.4	5.7	0.1	2994.2
21712	11.3	5.8	0.1	3023.5
21713	11.4	5.9	0.1	2991.4
21714	11.4	5.5	0.1	2991.5
21715	11.3	5.6	0.1	3019.8
21716	11.4	5.3	0.1	2989.8
21717	11.3	5.4	0.1	3017.9
21718	11.4	5.1	0.1	2988.3
21719	11.3	5.2	0.1	3016.2
21720	11.4	4.9	0.1	2986.9
21721	11.3	5.	0.1	3014.6
21722	11.4	4.7	0.1	2985.7
21723	11.3	4.8	0.1	3013.1
21724	11.4	4.5	0.1	2984.5
21725	11.3	4.6	0.1	3011.8
21726	11.4	4.3	0.1	2983.5
21727	11.3	4.4	0.1	3010.6
21728	11.4	4.1	0.1	2982.5
21729	11.3	4.2	0.1	3009.5
21730	11.4	3.9	0.1	2981.8
21731	11.3	4.	0.1	3008.6
21732	11.4	3.7	0.1	2981.1
21733	11.3	3.8	0.1	3007.8
21734	11.4	3.5	0.1	2980.7
21735	11.3	3.6	0.1	3007.2
21736	11.4	3.3	0.1	2980.3
21737	11.3	3.4	0.1	3006.8
21738	11.4	3.1	0.1	2980.2
21739	11.3	3.2	0.1	3006.5
21740	11.4	2.9	0.1	2980.2
21741	11.3	3.	0.1	3006.4
21742	11.4	2.7	0.1	2980.3
21743	11.3	2.8	0.1	3006.5
21744	11.4	2.5	0.1	2980.7
21745	11.3	2.6	0.1	3006.8
21746	11.4	2.3	0.1	2981.1
21747	11.3	2.4	0.1	3007.2
21748	11.4	2.1	0.1	2981.8
21749	11.3	2.2	0.1	3007.8
21750	11.4	1.9	0.1	2982.5
21751	11.3	2.	0.1	3008.6
21752	11.4	1.7	0.1	2983.5
21753	11.3	1.8	0.1	3009.5
21754	11.4	1.5	0.1	2984.5
21755	11.3	1.6	0.1	3010.6
21756	11.4	1.3	0.1	2985.7
21757	11.3	1.4	0.1	3011.8
21758	11.4	1.1	0.1	2986.9
21759	11.3	1.2	0.1	3013.1
21760	11.4	0.9	0.1	2988.3
21761	11.3	1.	0.1	3014.6
21762	11.4	0.7	0.1	2989.8
21763	11.3	0.8	0.1	3016.2
21764	11.4	0.5	0.1	2991.5
21765	11.3	0.6	0.1	3017.9
21766	11.4	0.3	0.1	2994.2
21767	11.3	0.4	0.1	3019.8
21768	11.3	0.2	0.1	3023.5
21769	11.4	0.1	0.1	2991.4
21770	11.2	5.7	0.1	3049.1
21771	11.1	5.8	0.1	3078.7
21772	11.2	5.9	0.1	3046.6
21773	11.2	5.5	0.1	3046.1
21774	11.1	5.6	0.1	3074.7
21775	11.2	5.3	0.1	3044.2
21776	11.1	5.4	0.1	3072.5
21777	11.2	5.1	0.1	3042.4
21778	11.1	5.2	0.1	3070.5
21779	11.2	4.9	0.1	3040.7
21780	11.1	5.	0.1	3068.6
21781	11.2	4.7	0.1	3039.2
21782	11.1	4.8	0.1	3066.9
21783	11.2	4.5	0.1	3037.9
21784	11.1	4.6	0.1	3065.4
21785	11.2	4.3	0.1	3036.6
21786	11.1	4.4	0.1	3064.
21787	11.2	4.1	0.1	3035.6
21788	11.1	4.2	0.1	3062.7
21789	11.2	3.9	0.1	3034.7
21790	11.1	4.	0.1	3061.7
21791	11.2	3.7	0.1	3033.9
21792	11.1	3.8	0.1	3060.8
21793	11.2	3.5	0.1	3033.4
21794	11.1	3.6	0.1	3060.1
21795	11.2	3.3	0.1	3033.
21796	11.1	3.4	0.1	3059.6
21797	11.2	3.1	0.1	3032.8
21798	11.1	3.2	0.1	3059.3
21799	11.2	2.9	0.1	3032.8
21800	11.1	3.	0.1	3059.1
21801	11.2	2.7	0.1	3033.
21802	11.1	2.8	0.1	3059.3
21803	11.2	2.5	0.1	3033.4
21804	11.1	2.6	0.1	3059.6
21805	11.2	2.3	0.1	3033.9
21806	11.1	2.4	0.1	3060.1
21807	11.2	2.1	0.1	3034.7
21808	11.1	2.2	0.1	3060.8
21809	11.2	1.9	0.1	3035.6
21810	11.1	2.	0.1	3061.7
21811	11.2	1.7	0.1	3036.6
21812	11.1	1.8	0.1	3062.7
21813	11.2	1.5	0.1	3037.9
21814	11.1	1.6	0.1	3064.
21815	11.2	1.3	0.1	3039.2
21816	11.1	1.4	0.1	3065.4
21817	11.2	1.1	0.1	3040.7
21818	11.1	1.2	0.1	3066.9
21819	11.2	0.9	0.1	3042.4
21820	11.1	1.	0.1	3068.6
21821	11.2	0.7	0.1	3044.2
21822	11.1	0.8	0.1	3070.5
21823	11.2	0.5	0.1	3046.1
21824	11.1	0.6	0.1	3072.5
21825	11.2	0.3	0.1	3049.1
21826	11.1	0.4	0.1	3074.7
21827	11.1	0.2	0.1	3078.7
21828	11.2	0.1	0.1	3046.6
21829	11.	5.7	0.1	3104.2
21830	10.9	5.8	0.1	3134.
21831	11.	5.9	0.1	3102.1
21832	11.	5.5	0.1	3101.
21833	10.9	5.6	0.1	3129.8
21834	11.	5.3	0.1	3098.7
21835	10.9	5.4	0.1	3127.3
21836	11.	5.1	0.1	3096.7
21837	10.9	5.2	0.1	3125.
21838	11.	4.9	0.1	3094.8
21839	10.9	5.	0.1	3122.9
21840	11.	4.7	0.1	3093.
21841	10.9	4.8	0.1	3120.9
21842	11.	4.5	0.1	3091.4
21843	10.9	4.6	0.1	3119.1
21844	11.	4.3	0.1	3090.
21845	10.9	4.4	0.1	3117.5
21846	11.	4.1	0.1	3088.8
21847	10.9	4.2	0.1	3116.1
21848	11.	3.9	0.1	3087.7
21849	10.9	4.	0.1	3114.9
21850	11.	3.7	0.1	3086.9
21851	10.9	3.8	0.1	3113.9
21852	11.	3.5	0.1	3086.2
21853	10.9	3.6	0.1	3113.1
21854	11.	3.3	0.1	3085.8
21855	10.9	3.4	0.1	3112.5
21856	11.	3.1	0.1	3085.6
21857	10.9	3.2	0.1	3112.1
21858	11.	2.9	0.1	3085.6
21859	10.9	3.	0.1	3112.
21860	11.	2.7	0.1	3085.8
21861	10.9	2.8	0.1	3112.1
21862	11.	2.5	0.1	3086.2
21863	10.9	2.6	0.1	3112.5
21864	11.	2.3	0.1	3086.9
21865	10.9	2.4	0.1	3113.1
21866	11.	2.1	0.1	3087.7
21867	10.9	2.2	0.1	3113.9
21868	11.	1.9	0.1	3088.8
21869	10.9	2.	0.1	3114.9
21870	11.	1.7	0.1	3090.
21871	10.9	1.8	0.1	3116.1
21872	11.	1.5	0.1	3091.4
21873	10.9	1.6	0.1	3117.5
21874	11.	1.3	0.1	3093.
21875	10.9	1.4	0.1	3119.1
21876	11.	1.1	0.1	3094.8
21877	10.9	1.2	0.1	3120.9
21878	11.	0.9	0.1	3096.7
21879	10.9	1.	0.1	3122.9
21880	11.	0.7	0.1	3098.7
21881	10.9	0.8	0.1	3125.
21882	11.	0.5	0.1	3101.
21883	10.9	0.6	0.1	3127.3
21884	11.	0.3	0.1	3104.2
21885	10.9	0.4	0.1	3129.8
21886	10.9	0.2	0.1	3134.
21887	11.	0.1	0.1	3102.1
21888	10.8	5.7	0.1	3159.5
21889	10.7	5.8	0.1	3189.6
21890	10.8	5.9	0.1	3157.8
21891	10.8	5.5	0.1	3156.
21892	10.7	5.6	0.1	3185.1
21893	10.8	5.3	0.1	3153.5
21894	10.7	5.4	0.1	3182.3
21895	10.8	5.1	0.1	3151.1
21896	10.7	5.2	0.1	3179.7
21897	10.8	4.9	0.1	3149.
21898	10.7	5.	0.1	3177.3
21899	10.8	4.7	0.1	3147.
21900	10.7	4.8	0.1	3175.1
21901	10.8	4.5	0.1	3145.2
21902	10.7	4.6	0.1	3173.1
21903	10.8	4.3	0.1	3143.6
21904	10.7	4.4	0.1	3171.2
21905	10.8	4.1	0.1	3142.2
21906	10.7	4.2	0.1	3169.6
21907	10.8	3.9	0.1	3141.
21908	10.7	4.	0.1	3168.2
21909	10.8	3.7	0.1	3140.
21910	10.7	3.8	0.1	3167.1
21911	10.8	3.5	0.1	3139.3
21912	10.7	3.6	0.1	3166.2
21913	10.8	3.3	0.1	3138.8
21914	10.7	3.4	0.1	3165.5
21915	10.8	3.1	0.1	3138.5
21916	10.7	3.2	0.1	3165.1
21917	10.8	2.9	0.1	3138.5
21918	10.7	3.	0.1	3165.
21919	10.8	2.7	0.1	3138.8
21920	10.7	2.8	0.1	3165.1
21921	10.8	2.5	0.1	3139.3
21922	10.7	2.6	0.1	3165.5
21923	10.8	2.3	0.1	3140.
21924	10.7	2.4	0.1	3166.2
21925	10.8	2.1	0.1	3141.
21926	10.7	2.2	0.1	3167.1
21927	10.8	1.9	0.1	3142.2
21928	10.7	2.	0.1	3168.2
21929	10.8	1.7	0.1	3143.6
21930	10.7	1.8	0.1	3169.6
21931	10.8	1.5	0.1	3145.2
21932	10.7	1.6	0.1	3171.2
21933	10.8	1.3	0.1	3147.
21934	10.7	1.4	0.1	3173.1
21935	10.8	1.1	0.1	3149.
21936	10.7	1.2	0.1	3175.1
21937	10.8	0.9	0.1	3151.1
21938	10.7	1.	0.1	3177.3
21939	10.8	0.7	0.1	3153.5
21940	10.7	0.8	0.1	3179.7
21941	10.8	0.5	0.1	3156.
21942	10.7	0.6	0.1	3182.3
21943	10.8	0.3	0.1	3159.5
21944	10.7	0.4	0.1	3185.1
21945	10.7	0.2	0.1	3189.6
21946	10.8	0.1	0.1	3157.8
21947	10.6	5.7	0.1	3215.1
21948	10.5	5.8	0.1	3245.4
21949	10.6	5.9	0.1	3213.7
21950	10.6	5.5	0.1	3211.3
21951	10.5	5.6	0.1	3240.6
21952	10.6	5.3	0.1	3208.4
21953	10.5	5.4	0.1	3237.5
21954	10.6	5.1	0.1	3205.8
21955	10.5	5.2	0.1	3234.6
21956	10.6	4.9	0.1	3203.4
21957	10.5	5.	0.1	3231.9
21958	10.6	4.7	0.1	3201.1
21959	10.5	4.8	0.1	3229.4
21960	10.6	4.5	0.1	3199.1
21961	10.5	4.6	0.1	3227.2
21962	10.6	4.3	0.1	3197.3
21963	10.5	4.4	0.1	3225.1
21964	10.6	4.1	0.1	3195.7
21965	10.5	4.2	0.1	3223.3
21966	10.6	3.9	0.1	3194.3
21967	10.5	4.	0.1	3221.7
21968	10.6	3.7	0.1	3193.2
21969	10.5	3.8	0.1	3220.5
21970	10.6	3.5	0.1	3192.4
21971	10.5	3.6	0.1	3219.4
21972	10.6	3.3	0.1	3191.9
21973	10.5	3.4	0.1	3218.7
21974	10.6	3.1	0.1	3191.6
21975	10.5	3.2	0.1	3218.3
21976	10.6	2.9	0.1	3191.6
21977	10.5	3.	0.1	3218.1
21978	10.6	2.7	0.1	3191.9
21979	10.5	2.8	0.1	3218.3
21980	10.6	2.5	0.1	3192.4
21981	10.5	2.6	0.1	3218.7
21982	10.6	2.3	0.1	3193.2
21983	10.5	2.4	0.1	3219.4
21984	10.6	2.1	0.1	3194.3
21985	10.5	2.2	0.1	3220.5
21986	10.6	1.9	0.1	3195.7
21987	10.5	2.	0.1	3221.7
21988	10.6	1.7	0.1	3197.3
21989	10.5	1.8	0.1	3223.3
21990	10.6	1.5	0.1	3199.1
21991	10.5	1.6	0.1	3225.1
21992	10.6	1.3	0.1	3201.1
21993	10.5	1.4	0.1	3227.2
21994	10.6	1.1	0.1	3203.4
21995	10.5	1.2	0.1	3229.4
21996	10.6	0.9	0.1	3205.8
21997	10.5	1.	0.1	3231.9
21998	10.6	0.7	0.1	3208.4
21999	10.5	0.8	0.1	3234.6
22000	10.6	0.5	0.1	3211.3
22001	10.5	0.6	0.1	3237.5
22002	10.6	0.3	0.1	3215.1
22003	10.5	0.4	0.1	3240.6
22004	10.5	0.2	0.1	3245.4
22005	10.6	0.1	0.1	3213.7
22006	10.4	5.7	0.1	3270.8
22007	10.3	5.8	0.1	3301.5
22008	10.4	5.9	0.1	3269.9
22009	10.4	5.5	0.1	3266.8
22010	10.3	5.6	0.1	3296.4
22011	10.4	5.3	0.1	3263.6
22012	10.3	5.4	0.1	3292.9
22013	10.4	5.1	0.1	3260.7
22014	10.3	5.2	0.1	3289.7
22015	10.4	4.9	0.1	3257.9
22016	10.3	5.	0.1	3286.7
22017	10.4	4.7	0.1	3255.4
22018	10.3	4.8	0.1	3283.9
22019	10.4	4.5	0.1	3253.1
22020	10.3	4.6	0.1	3281.4
22021	10.4	4.3	0.1	3251.1
22022	10.3	4.4	0.1	3279.1
22023	10.4	4.1	0.1	3249.3
22024	10.3	4.2	0.1	3277.1
22025	10.4	3.9	0.1	3247.8
22026	10.3	4.	0.1	3275.4
22027	10.4	3.7	0.1	3246.6
22028	10.3	3.8	0.1	3273.9
22029	10.4	3.5	0.1	3245.7
22030	10.3	3.6	0.1	3272.8
22031	10.4	3.3	0.1	3245.1
22032	10.3	3.4	0.1	3272.
22033	10.4	3.1	0.1	3244.8
22034	10.3	3.2	0.1	3271.5
22035	10.4	2.9	0.1	3244.8
22036	10.3	3.	0.1	3271.3
22037	10.4	2.7	0.1	3245.1
22038	10.3	2.8	0.1	3271.5
22039	10.4	2.5	0.1	3245.7
22040	10.3	2.6	0.1	3272.
22041	10.4	2.3	0.1	3246.6
22042	10.3	2.4	0.1	3272.8
22043	10.4	2.1	0.1	3247.8
22044	10.3	2.2	0.1	3273.9
22045	10.4	1.9	0.1	3249.3
22046	10.3	2.	0.1	3275.4
22047	10.4	1.7	0.1	3251.1
22048	10.3	1.8	0.1	3277.1
22049	10.4	1.5	0.1	3253.1
22050	10.3	1.6	0.1	3279.1
22051	10.4	1.3	0.1	3255.4
22052	10.3	1.4	0.1	3281.4
22053	10.4	1.1	0.1	3257.9
22054	10.3	1.2	0.1	3283.9
22055	10.4	0.9	0.1	3260.7
22056	10.3	1.	0.1	3286.7
22057	10.4	0.7	0.1	3263.6
22058	10.3	0.8	0.1	3289.7
22059	10.4	0.5	0.1	3266.8
22060	10.3	0.6	0.1	3292.9
22061	10.4	0.3	0.1	3270.8
22062	10.3	0.4	0.1	3296.4
22063	10.3	0.2	0.1	3301.5
22064	10.4	0.1	0.1	3269.9
22065	10.2	5.7	0.1	3326.9
22066	10.1	5.8	0.1	3357.8
22067	10.2	5.9	0.1	3326.4
22068	10.2	5.5	0.1	3322.4
22069	10.1	5.6	0.1	3352.3
22070	10.2	5.3	0.1	3319.
22071	10.1	5.4	0.1	3348.5
22072	10.2	5.1	0.1	3315.7
22073	10.1	5.2	0.1	3345.
22074	10.2	4.9	0.1	3312.7
22075	10.1	5.	0.1	3341.7
22076	10.2	4.7	0.1	3309.9
22077	10.1	4.8	0.1	3338.6
22078	10.2	4.5	0.1	3307.4
22079	10.1	4.6	0.1	3335.8
22080	10.2	4.3	0.1	3305.1
22081	10.1	4.4	0.1	3333.3
22082	10.2	4.1	0.1	3303.1
22083	10.1	4.2	0.1	3331.
22084	10.2	3.9	0.1	3301.5
22085	10.1	4.	0.1	3329.1
22086	10.2	3.7	0.1	3300.1
22087	10.1	3.8	0.1	3327.5
22088	10.2	3.5	0.1	3299.1
22089	10.1	3.6	0.1	3326.3
22090	10.2	3.3	0.1	3298.4
22091	10.1	3.4	0.1	3325.4
22092	10.2	3.1	0.1	3298.
22093	10.1	3.2	0.1	3324.8
22094	10.2	2.9	0.1	3298.
22095	10.1	3.	0.1	3324.6
22096	10.2	2.7	0.1	3298.4
22097	10.1	2.8	0.1	3324.8
22098	10.2	2.5	0.1	3299.1
22099	10.1	2.6	0.1	3325.4
22100	10.2	2.3	0.1	3300.1
22101	10.1	2.4	0.1	3326.3
22102	10.2	2.1	0.1	3301.5
22103	10.1	2.2	0.1	3327.5
22104	10.2	1.9	0.1	3303.1
22105	10.1	2.	0.1	3329.1
22106	10.2	1.7	0.1	3305.1
22107	10.1	1.8	0.1	3331.
22108	10.2	1.5	0.1	3307.4
22109	10.1	1.6	0.1	3333.3
22110	10.2	1.3	0.1	3309.9
22111	10.1	1.4	0.1	3335.8
22112	10.2	1.1	0.1	3312.7
22113	10.1	1.2	0.1	3338.6
22114	10.2	0.9	0.1	3315.7
22115	10.1	1.	0.1	3341.7
22116	10.2	0.7	0.1	3319.
22117	10.1	0.8	0.1	3345.
22118	10.2	0.5	0.1	3322.4
22119	10.1	0.6	0.1	3348.5
22120	10.2	0.3	0.1	3326.9
22121	10.1	0.4	0.1	3352.3
22122	10.1	0.2	0.1	3357.8
22123	10.2	0.1	0.1	3326.4
22124	10.	5.7	0.1	3383.1
22125	9.9	5.8	0.1	3414.3
22126	10.	5.9	0.1	3383.
22127	10.	5.5	0.1	3378.4
22128	9.9	5.6	0.1	3408.5
22129	10.	5.3	0.1	3374.5
22130	9.9	5.4	0.1	3404.3
22131	10.	5.1	0.1	3370.9
22132	9.9	5.2	0.1	3400.5
22133	10.	4.9	0.1	3367.6
22134	9.9	5.	0.1	3396.8
22135	10.	4.7	0.1	3364.5
22136	9.9	4.8	0.1	3393.4
22137	10.	4.5	0.1	3361.7
22138	9.9	4.6	0.1	3390.3
22139	10.	4.3	0.1	3359.2
22140	9.9	4.4	0.1	3387.6
22141	10.	4.1	0.1	3357.
22142	9.9	4.2	0.1	3385.1
22143	10.	3.9	0.1	3355.2
22144	9.9	4.	0.1	3383.
22145	10.	3.7	0.1	3353.7
22146	9.9	3.8	0.1	3381.2
22147	10.	3.5	0.1	3352.5
22148	9.9	3.6	0.1	3379.8
22149	10.	3.3	0.1	3351.8
22150	9.9	3.4	0.1	3378.8
22151	10.	3.1	0.1	3351.4
22152	9.9	3.2	0.1	3378.2
22153	10.	2.9	0.1	3351.4
22154	9.9	3.	0.1	3378.
22155	10.	2.7	0.1	3351.8
22156	9.9	2.8	0.1	3378.2
22157	10.	2.5	0.1	3352.5
22158	9.9	2.6	0.1	3378.8
22159	10.	2.3	0.1	3353.7
22160	9.9	2.4	0.1	3379.8
22161	10.	2.1	0.1	3355.2
22162	9.9	2.2	0.1	3381.2
22163	10.	1.9	0.1	3357.
22164	9.9	2.	0.1	3383.
22165	10.	1.7	0.1	3359.2
22166	9.9	1.8	0.1	3385.1
22167	10.	1.5	0.1	3361.7
22168	9.9	1.6	0.1	3387.6
22169	10.	1.3	0.1	3364.5
22170	9.9	1.4	0.1	3390.3
22171	10.	1.1	0.1	3367.6
22172	9.9	1.2	0.1	3393.4
22173	10.	0.9	0.1	3370.9
22174	9.9	1.	0.1	3396.8
22175	10.	0.7	0.1	3374.5
22176	9.9	0.8	0.1	3400.5
22177	10.	0.5	0.1	3378.4
22178	9.9	0.6	0.1	3404.3
22179	10.	0.3	0.1	3383.1
22180	9.9	0.4	0.1	3408.5
22181	9.9	0.2	0.1	3414.3
22182	10.	0.1	0.1	3383.
22183	9.8	5.7	0.1	3439.6
22184	9.7	5.8	0.1	3471.1
22185	9.8	5.9	0.1	3440.
22186	9.8	5.5	0.1	3434.5
22187	9.7	5.6	0.1	3465.
22188	9.8	5.3	0.1	3430.3
22189	9.7	5.4	0.1	3460.4
22190	9.8	5.1	0.1	3426.3
22191	9.7	5.2	0.1	3456.1
22192	9.8	4.9	0.1	3422.7
22193	9.7	5.	0.1	3452.1
22194	9.8	4.7	0.1	3419.3
22195	9.7	4.8	0.1	3448.4
22196	9.8	4.5	0.1	3416.2
22197	9.7	4.6	0.1	3445.
22198	9.8	4.3	0.1	3413.4
22199	9.7	4.4	0.1	3441.9
22200	9.8	4.1	0.1	3411.
22201	9.7	4.2	0.1	3439.2
22202	9.8	3.9	0.1	3409.
22203	9.7	4.	0.1	3436.9
22204	9.8	3.7	0.1	3407.3
22205	9.7	3.8	0.1	3434.9
22206	9.8	3.5	0.1	3406.1
22207	9.7	3.6	0.1	3433.4
22208	9.8	3.3	0.1	3405.2
22209	9.7	3.4	0.1	3432.3
22210	9.8	3.1	0.1	3404.8
22211	9.7	3.2	0.1	3431.6
22212	9.8	2.9	0.1	3404.8
22213	9.7	3.	0.1	3431.4
22214	9.8	2.7	0.1	3405.2
22215	9.7	2.8	0.1	3431.6
22216	9.8	2.5	0.1	3406.1
22217	9.7	2.6	0.1	3432.3
22218	9.8	2.3	0.1	3407.3
22219	9.7	2.4	0.1	3433.4
22220	9.8	2.1	0.1	3409.
22221	9.7	2.2	0.1	3434.9
22222	9.8	1.9	0.1	3411.
22223	9.7	2.	0.1	3436.9
22224	9.8	1.7	0.1	3413.4
22225	9.7	1.8	0.1	3439.2
22226	9.8	1.5	0.1	3416.2
22227	9.7	1.6	0.1	3441.9
22228	9.8	1.3	0.1	3419.3
22229	9.7	1.4	0.1	3445.
22230	9.8	1.1	0.1	3422.7
22231	9.7	1.2	0.1	3448.4
22232	9.8	0.9	0.1	3426.3
22233	9.7	1.	0.1	3452.1
22234	9.8	0.7	0.1	3430.3
22235	9.7	0.8	0.1	3456.1
22236	9.8	0.5	0.1	3434.5
22237	9.7	0.6	0.1	3460.4
22238	9.8	0.3	0.1	3439.6
22239	9.7	0.4	0.1	3465.
22240	9.7	0.2	0.1	3471.1
22241	9.8	0.1	0.1	3440.
22242	9.6	5.7	0.1	3496.3
22243	9.5	5.8	0.1	3528.1
22244	9.6	5.9	0.1	3497.3
22245	9.6	5.5	0.1	3490.8
22246	9.5	5.6	0.1	3521.6
22247	9.6	5.3	0.1	3486.2
22248	9.5	5.4	0.1	3516.6
22249	9.6	5.1	0.1	3481.9
22250	9.5	5.2	0.1	3512.
22251	9.6	4.9	0.1	3477.9
22252	9.5	5.	0.1	3507.6
22253	9.6	4.7	0.1	3474.1
22254	9.5	4.8	0.1	3503.5
22255	9.6	4.5	0.1	3470.7
22256	9.5	4.6	0.1	3499.8
22257	9.6	4.3	0.1	3467.7
22258	9.5	4.4	0.1	3496.4
22259	9.6	4.1	0.1	3465.
22260	9.5	4.2	0.1	3493.4
22261	9.6	3.9	0.1	3462.8
22262	9.5	4.	0.1	3490.8
22263	9.6	3.7	0.1	3461.
22264	9.5	3.8	0.1	3488.7
22265	9.6	3.5	0.1	3459.6
22266	9.5	3.6	0.1	3487.
22267	9.6	3.3	0.1	3458.7
22268	9.5	3.4	0.1	3485.8
22269	9.6	3.1	0.1	3458.2
22270	9.5	3.2	0.1	3485.1
22271	9.6	2.9	0.1	3458.2
22272	9.5	3.	0.1	3484.8
22273	9.6	2.7	0.1	3458.7
22274	9.5	2.8	0.1	3485.1
22275	9.6	2.5	0.1	3459.6
22276	9.5	2.6	0.1	3485.8
22277	9.6	2.3	0.1	3461.
22278	9.5	2.4	0.1	3487.
22279	9.6	2.1	0.1	3462.8
22280	9.5	2.2	0.1	3488.7
22281	9.6	1.9	0.1	3465.
22282	9.5	2.	0.1	3490.8
22283	9.6	1.7	0.1	3467.7
22284	9.5	1.8	0.1	3493.4
22285	9.6	1.5	0.1	3470.7
22286	9.5	1.6	0.1	3496.4
22287	9.6	1.3	0.1	3474.1
22288	9.5	1.4	0.1	3499.8
22289	9.6	1.1	0.1	3477.9
22290	9.5	1.2	0.1	3503.5
22291	9.6	0.9	0.1	3481.9
22292	9.5	1.	0.1	3507.6
22293	9.6	0.7	0.1	3486.2
22294	9.5	0.8	0.1	3512.
22295	9.6	0.5	0.1	3490.8
22296	9.5	0.6	0.1	3516.6
22297	9.6	0.3	0.1	3496.3
22298	9.5	0.4	0.1	3521.6
22299	9.5	0.2	0.1	3528.1
22300	9.6	0.1	0.1	3497.3
22301	9.4	5.7	0.1	3553.3
22302	9.3	5.8	0.1	3585.4
22303	9.4	5.9	0.1	3554.8
22304	9.4	5.5	0.1	3547.4
22305	9.3	5.6	0.1	3578.5
22306	9.4	5.3	0.1	3542.4
22307	9.3	5.4	0.1	3573.1
22308	9.4	5.1	0.1	3537.6
22309	9.3	5.2	0.1	3568.
22310	9.4	4.9	0.1	3533.2
22311	9.3	5.	0.1	3563.2
22312	9.4	4.7	0.1	3529.1
22313	9.3	4.8	0.1	3558.7
22314	9.4	4.5	0.1	3525.4
22315	9.3	4.6	0.1	3554.6
22316	9.4	4.3	0.1	3522.1
22317	9.3	4.4	0.1	3550.9
22318	9.4	4.1	0.1	3519.2
22319	9.3	4.2	0.1	3547.6
22320	9.4	3.9	0.1	3516.7
22321	9.3	4.	0.1	3544.8
22322	9.4	3.7	0.1	3514.7
22323	9.3	3.8	0.1	3542.5
22324	9.4	3.5	0.1	3513.2
22325	9.3	3.6	0.1	3540.6
22326	9.4	3.3	0.1	3512.2
22327	9.3	3.4	0.1	3539.3
22328	9.4	3.1	0.1	3511.6
22329	9.3	3.2	0.1	3538.5
22330	9.4	2.9	0.1	3511.6
22331	9.3	3.	0.1	3538.2
22332	9.4	2.7	0.1	3512.2
22333	9.3	2.8	0.1	3538.5
22334	9.4	2.5	0.1	3513.2
22335	9.3	2.6	0.1	3539.3
22336	9.4	2.3	0.1	3514.7
22337	9.3	2.4	0.1	3540.6
22338	9.4	2.1	0.1	3516.7
22339	9.3	2.2	0.1	3542.5
22340	9.4	1.9	0.1	3519.2
22341	9.3	2.	0.1	3544.8
22342	9.4	1.7	0.1	3522.1
22343	9.3	1.8	0.1	3547.6
22344	9.4	1.5	0.1	3525.4
22345	9.3	1.6	0.1	3550.9
22346	9.4	1.3	0.1	3529.1
22347	9.3	1.4	0.1	3554.6
22348	9.4	1.1	0.1	3533.2
22349	9.3	1.2	0.1	3558.7
22350	9.4	0.9	0.1	3537.6
22351	9.3	1.	0.1	3563.2
22352	9.4	0.7	0.1	3542.4
22353	9.3	0.8	0.1	3568.
22354	9.4	0.5	0.1	3547.4
22355	9.3	0.6	0.1	3573.1
22356	9.4	0.3	0.1	3553.3
22357	9.3	0.4	0.1	3578.5
22358	9.3	0.2	0.1	3585.4
22359	9.4	0.1	0.1	3554.8
22360	9.2	5.7	0.1	3610.5
22361	9.1	5.8	0.1	3643.
22362	9.2	5.9	0.1	3612.6
22363	9.2	5.5	0.1	3604.2
22364	9.1	5.6	0.1	3635.7
22365	9.2	5.3	0.1	3598.7
22366	9.1	5.4	0.1	3629.8
22367	9.2	5.1	0.1	3593.5
22368	9.1	5.2	0.1	3624.2
22369	9.2	4.9	0.1	3588.7
22370	9.1	5.	0.1	3619.
22371	9.2	4.7	0.1	3584.2
22372	9.1	4.8	0.1	3614.1
22373	9.2	4.5	0.1	3580.1
22374	9.1	4.6	0.1	3609.6
22375	9.2	4.3	0.1	3576.5
22376	9.1	4.4	0.1	3605.5
22377	9.2	4.1	0.1	3573.3
22378	9.1	4.2	0.1	3601.9
22379	9.2	3.9	0.1	3570.6
22380	9.1	4.	0.1	3598.8
22381	9.2	3.7	0.1	3568.4
22382	9.1	3.8	0.1	3596.3
22383	9.2	3.5	0.1	3566.7
22384	9.1	3.6	0.1	3594.2
22385	9.2	3.3	0.1	3565.6
22386	9.1	3.4	0.1	3592.8
22387	9.2	3.1	0.1	3565.1
22388	9.1	3.2	0.1	3591.9
22389	9.2	2.9	0.1	3565.1
22390	9.1	3.	0.1	3591.6
22391	9.2	2.7	0.1	3565.6
22392	9.1	2.8	0.1	3591.9
22393	9.2	2.5	0.1	3566.7
22394	9.1	2.6	0.1	3592.8
22395	9.2	2.3	0.1	3568.4
22396	9.1	2.4	0.1	3594.2
22397	9.2	2.1	0.1	3570.6
22398	9.1	2.2	0.1	3596.3
22399	9.2	1.9	0.1	3573.3
22400	9.1	2.	0.1	3598.8
22401	9.2	1.7	0.1	3576.5
22402	9.1	1.8	0.1	3601.9
22403	9.2	1.5	0.1	3580.1
22404	9.1	1.6	0.1	3605.5
22405	9.2	1.3	0.1	3584.2
22406	9.1	1.4	0.1	3609.6
22407	9.2	1.1	0.1	3588.7
22408	9.1	1.2	0.1	3614.1
22409	9.2	0.9	0.1	3593.5
22410	9.1	1.	0.1	3619.
22411	9.2	0.7	0.1	3598.7
22412	9.1	0.8	0.1	3624.2
22413	9.2	0.5	0.1	3604.2
22414	9.1	0.6	0.1	3629.8
22415	9.2	0.3	0.1	3610.5
22416	9.1	0.4	0.1	3635.7
22417	9.1	0.2	0.1	3643.
22418	9.2	0.1	0.1	3612.6
22419	9.	5.7	0.1	3668.
22420	8.9	5.8	0.1	3700.9
22421	9.	5.9	0.1	3670.7
22422	9.	5.5	0.1	3661.2
22423	8.9	5.6	0.1	3693.
22424	9.	5.3	0.1	3655.2
22425	8.9	5.4	0.1	3686.6
22426	9.	5.1	0.1	3649.6
22427	8.9	5.2	0.1	3680.6
22428	9.	4.9	0.1	3644.3
22429	8.9	5.	0.1	3674.8
22430	9.	4.7	0.1	3639.4
22431	8.9	4.8	0.1	3669.5
22432	9.	4.5	0.1	3634.9
22433	8.9	4.6	0.1	3664.6
22434	9.	4.3	0.1	3630.9
22435	8.9	4.4	0.1	3660.1
22436	9.	4.1	0.1	3627.4
22437	8.9	4.2	0.1	3656.2
22438	9.	3.9	0.1	3624.5
22439	8.9	4.	0.1	3652.8
22440	9.	3.7	0.1	3622.1
22441	8.9	3.8	0.1	3650.
22442	9.	3.5	0.1	3620.3
22443	8.9	3.6	0.1	3647.8
22444	9.	3.3	0.1	3619.
22445	8.9	3.4	0.1	3646.2
22446	9.	3.1	0.1	3618.4
22447	8.9	3.2	0.1	3645.2
22448	9.	2.9	0.1	3618.4
22449	8.9	3.	0.1	3644.9
22450	9.	2.7	0.1	3619.
22451	8.9	2.8	0.1	3645.2
22452	9.	2.5	0.1	3620.3
22453	8.9	2.6	0.1	3646.2
22454	9.	2.3	0.1	3622.1
22455	8.9	2.4	0.1	3647.8
22456	9.	2.1	0.1	3624.5
22457	8.9	2.2	0.1	3650.
22458	9.	1.9	0.1	3627.4
22459	8.9	2.	0.1	3652.8
22460	9.	1.7	0.1	3630.9
22461	8.9	1.8	0.1	3656.2
22462	9.	1.5	0.1	3634.9
22463	8.9	1.6	0.1	3660.1
22464	9.	1.3	0.1	3639.4
22465	8.9	1.4	0.1	3664.6
22466	9.	1.1	0.1	3644.3
22467	8.9	1.2	0.1	3669.5
22468	9.	0.9	0.1	3649.6
22469	8.9	1.	0.1	3674.8
22470	9.	0.7	0.1	3655.2
22471	8.9	0.8	0.1	3680.6
22472	9.	0.5	0.1	3661.2
22473	8.9	0.6	0.1	3686.6
22474	9.	0.3	0.1	3668.
22475	8.9	0.4	0.1	3693.
22476	8.9	0.2	0.1	3700.9
22477	9.	0.1	0.1	3670.7
22478	8.8	5.7	0.1	3725.8
22479	8.7	5.8	0.1	3759.
22480	8.8	5.9	0.1	3729.1
22481	8.8	5.5	0.1	3718.4
22482	8.7	5.6	0.1	3750.7
22483	8.8	5.3	0.1	3711.9
22484	8.7	5.4	0.1	3743.7
22485	8.8	5.1	0.1	3705.8
22486	8.7	5.2	0.1	3737.1
22487	8.8	4.9	0.1	3700.
22488	8.7	5.	0.1	3730.8
22489	8.8	4.7	0.1	3694.7
22490	8.7	4.8	0.1	3725.
22491	8.8	4.5	0.1	3689.8
22492	8.7	4.6	0.1	3719.7
22493	8.8	4.3	0.1	3685.4
22494	8.7	4.4	0.1	3714.8
22495	8.8	4.1	0.1	3681.6
22496	8.7	4.2	0.1	3710.5
22497	8.8	3.9	0.1	3678.3
22498	8.7	4.	0.1	3706.8
22499	8.8	3.7	0.1	3675.7
22500	8.7	3.8	0.1	3703.7
22501	8.8	3.5	0.1	3673.7
22502	8.7	3.6	0.1	3701.3
22503	8.8	3.3	0.1	3672.4
22504	8.7	3.4	0.1	3699.5
22505	8.8	3.1	0.1	3671.7
22506	8.7	3.2	0.1	3698.5
22507	8.8	2.9	0.1	3671.7
22508	8.7	3.	0.1	3698.1
22509	8.8	2.7	0.1	3672.4
22510	8.7	2.8	0.1	3698.5
22511	8.8	2.5	0.1	3673.7
22512	8.7	2.6	0.1	3699.5
22513	8.8	2.3	0.1	3675.7
22514	8.7	2.4	0.1	3701.3
22515	8.8	2.1	0.1	3678.3
22516	8.7	2.2	0.1	3703.7
22517	8.8	1.9	0.1	3681.6
22518	8.7	2.	0.1	3706.8
22519	8.8	1.7	0.1	3685.4
22520	8.7	1.8	0.1	3710.5
22521	8.8	1.5	0.1	3689.8
22522	8.7	1.6	0.1	3714.8
22523	8.8	1.3	0.1	3694.7
22524	8.7	1.4	0.1	3719.7
22525	8.8	1.1	0.1	3700.
22526	8.7	1.2	0.1	3725.
22527	8.8	0.9	0.1	3705.8
22528	8.7	1.	0.1	3730.8
22529	8.8	0.7	0.1	3711.9
22530	8.7	0.8	0.1	3737.1
22531	8.8	0.5	0.1	3718.4
22532	8.7	0.6	0.1	3743.7
22533	8.8	0.3	0.1	3725.8
22534	8.7	0.4	0.1	3750.7
22535	8.7	0.2	0.1	3759.
22536	8.8	0.1	0.1	3729.1
22537	8.6	5.7	0.1	3783.8
22538	8.5	5.8	0.1	3817.4
22539	8.6	5.9	0.1	3787.9
22540	8.6	5.5	0.1	3775.9
22541	8.5	5.6	0.1	3808.6
22542	8.6	5.3	0.1	3768.8
22543	8.5	5.4	0.1	3801.
22544	8.6	5.1	0.1	3762.1
22545	8.5	5.2	0.1	3793.8
22546	8.6	4.9	0.1	3755.8
22547	8.5	5.	0.1	3787.
22548	8.6	4.7	0.1	3750.
22549	8.5	4.8	0.1	3780.6
22550	8.6	4.5	0.1	3744.7
22551	8.5	4.6	0.1	3774.8
22552	8.6	4.3	0.1	3739.9
22553	8.5	4.4	0.1	3769.5
22554	8.6	4.1	0.1	3735.7
22555	8.5	4.2	0.1	3764.8
22556	8.6	3.9	0.1	3732.2
22557	8.5	4.	0.1	3760.7
22558	8.6	3.7	0.1	3729.3
22559	8.5	3.8	0.1	3757.3
22560	8.6	3.5	0.1	3727.1
22561	8.5	3.6	0.1	3754.7
22562	8.6	3.3	0.1	3725.6
22563	8.5	3.4	0.1	3752.8
22564	8.6	3.1	0.1	3724.9
22565	8.5	3.2	0.1	3751.6
22566	8.6	2.9	0.1	3724.9
22567	8.5	3.	0.1	3751.2
22568	8.6	2.7	0.1	3725.6
22569	8.5	2.8	0.1	3751.6
22570	8.6	2.5	0.1	3727.1
22571	8.5	2.6	0.1	3752.8
22572	8.6	2.3	0.1	3729.3
22573	8.5	2.4	0.1	3754.7
22574	8.6	2.1	0.1	3732.2
22575	8.5	2.2	0.1	3757.3
22576	8.6	1.9	0.1	3735.7
22577	8.5	2.	0.1	3760.7
22578	8.6	1.7	0.1	3739.9
22579	8.5	1.8	0.1	3764.8
22580	8.6	1.5	0.1	3744.7
22581	8.5	1.6	0.1	3769.5
22582	8.6	1.3	0.1	3750.
22583	8.5	1.4	0.1	3774.8
22584	8.6	1.1	0.1	3755.8
22585	8.5	1.2	0.1	3780.6
22586	8.6	0.9	0.1	3762.1
22587	8.5	1.	0.1	3787.
22588	8.6	0.7	0.1	3768.8
22589	8.5	0.8	0.1	3793.8
22590	8.6	0.5	0.1	3775.9
22591	8.5	0.6	0.1	3801.
22592	8.6	0.3	0.1	3783.8
22593	8.5	0.4	0.1	3808.6
22594	8.5	0.2	0.1	3817.4
22595	8.6	0.1	0.1	3787.9
22596	8.4	5.7	0.1	3842.1
22597	8.3	5.8	0.1	3876.2
22598	8.4	5.9	0.1	3847.
22599	8.4	5.5	0.1	3833.6
22600	8.3	5.6	0.1	3866.7
22601	8.4	5.3	0.1	3825.9
22602	8.3	5.4	0.1	3858.4
22603	8.4	5.1	0.1	3818.6
22604	8.3	5.2	0.1	3850.6
22605	8.4	4.9	0.1	3811.7
22606	8.3	5.	0.1	3843.2
22607	8.4	4.7	0.1	3805.4
22608	8.3	4.8	0.1	3836.3
22609	8.4	4.5	0.1	3799.5
22610	8.3	4.6	0.1	3829.9
22611	8.4	4.3	0.1	3794.3
22612	8.3	4.4	0.1	3824.1
22613	8.4	4.1	0.1	3789.7
22614	8.3	4.2	0.1	3819.
22615	8.4	3.9	0.1	3785.9
22616	8.3	4.	0.1	3814.5
22617	8.4	3.7	0.1	3782.7
22618	8.3	3.8	0.1	3810.8
22619	8.4	3.5	0.1	3780.3
22620	8.3	3.6	0.1	3807.9
22621	8.4	3.3	0.1	3778.7
22622	8.3	3.4	0.1	3805.9
22623	8.4	3.1	0.1	3777.9
22624	8.3	3.2	0.1	3804.6
22625	8.4	2.9	0.1	3777.9
22626	8.3	3.	0.1	3804.2
22627	8.4	2.7	0.1	3778.7
22628	8.3	2.8	0.1	3804.6
22629	8.4	2.5	0.1	3780.3
22630	8.3	2.6	0.1	3805.9
22631	8.4	2.3	0.1	3782.7
22632	8.3	2.4	0.1	3807.9
22633	8.4	2.1	0.1	3785.9
22634	8.3	2.2	0.1	3810.8
22635	8.4	1.9	0.1	3789.7
22636	8.3	2.	0.1	3814.5
22637	8.4	1.7	0.1	3794.3
22638	8.3	1.8	0.1	3819.
22639	8.4	1.5	0.1	3799.5
22640	8.3	1.6	0.1	3824.1
22641	8.4	1.3	0.1	3805.4
22642	8.3	1.4	0.1	3829.9
22643	8.4	1.1	0.1	3811.7
22644	8.3	1.2	0.1	3836.3
22645	8.4	0.9	0.1	3818.6
22646	8.3	1.	0.1	3843.2
22647	8.4	0.7	0.1	3825.9
22648	8.3	0.8	0.1	3850.6
22649	8.4	0.5	0.1	3833.6
22650	8.3	0.6	0.1	3858.4
22651	8.4	0.3	0.1	3842.1
22652	8.3	0.4	0.1	3866.7
22653	8.3	0.2	0.1	3876.2
22654	8.4	0.1	0.1	3847.
22655	8.2	5.7	0.1	3900.7
22656	8.1	5.8	0.1	3935.3
22657	8.2	5.9	0.1	3906.4
22658	8.2	5.5	0.1	3891.5
22659	8.1	5.6	0.1	3925.1
22660	8.2	5.3	0.1	3883.1
22661	8.1	5.4	0.1	3916.1
22662	8.2	5.1	0.1	3875.2
22663	8.1	5.2	0.1	3907.6
22664	8.2	4.9	0.1	3867.7
22665	8.1	5.	0.1	3899.5
22666	8.2	4.7	0.1	3860.8
22667	8.1	4.8	0.1	3891.9
22668	8.2	4.5	0.1	3854.4
22669	8.1	4.6	0.1	3885.
22670	8.2	4.3	0.1	3848.7
22671	8.1	4.4	0.1	3878.7
22672	8.2	4.1	0.1	3843.7
22673	8.1	4.2	0.1	3873.1
22674	8.2	3.9	0.1	3839.5
22675	8.1	4.	0.1	3868.2
22676	8.2	3.7	0.1	3836.1
22677	8.1	3.8	0.1	3864.2
22678	8.2	3.5	0.1	3833.4
22679	8.1	3.6	0.1	3861.
22680	8.2	3.3	0.1	3831.7
22681	8.1	3.4	0.1	3858.8
22682	8.2	3.1	0.1	3830.8
22683	8.1	3.2	0.1	3857.4
22684	8.2	2.9	0.1	3830.8
22685	8.1	3.	0.1	3856.9
22686	8.2	2.7	0.1	3831.7
22687	8.1	2.8	0.1	3857.4
22688	8.2	2.5	0.1	3833.4
22689	8.1	2.6	0.1	3858.8
22690	8.2	2.3	0.1	3836.1
22691	8.1	2.4	0.1	3861.
22692	8.2	2.1	0.1	3839.5
22693	8.1	2.2	0.1	3864.2
22694	8.2	1.9	0.1	3843.7
22695	8.1	2.	0.1	3868.2
22696	8.2	1.7	0.1	3848.7
22697	8.1	1.8	0.1	3873.1
22698	8.2	1.5	0.1	3854.4
22699	8.1	1.6	0.1	3878.7
22700	8.2	1.3	0.1	3860.8
22701	8.1	1.4	0.1	3885.
22702	8.2	1.1	0.1	3867.7
22703	8.1	1.2	0.1	3891.9
22704	8.2	0.9	0.1	3875.2
22705	8.1	1.	0.1	3899.5
22706	8.2	0.7	0.1	3883.1
22707	8.1	0.8	0.1	3907.6
22708	8.2	0.5	0.1	3891.5
22709	8.1	0.6	0.1	3916.1
22710	8.2	0.3	0.1	3900.7
22711	8.1	0.4	0.1	3925.1
22712	8.1	0.2	0.1	3935.3
22713	8.2	0.1	0.1	3906.4
22714	8.	5.7	0.1	3959.6
22715	7.9	5.8	0.1	3994.6
22716	8.	5.9	0.1	3966.1
22717	8.	5.5	0.1	3949.7
22718	7.9	5.6	0.1	3983.7
22719	8.	5.3	0.1	3940.5
22720	7.9	5.4	0.1	3974.
22721	8.	5.1	0.1	3931.9
22722	7.9	5.2	0.1	3964.7
22723	8.	4.9	0.1	3923.7
22724	7.9	5.	0.1	3955.9
22725	8.	4.7	0.1	3916.2
22726	7.9	4.8	0.1	3947.7
22727	8.	4.5	0.1	3909.2
22728	7.9	4.6	0.1	3940.1
22729	8.	4.3	0.1	3903.
22730	7.9	4.4	0.1	3933.2
22731	8.	4.1	0.1	3897.6
22732	7.9	4.2	0.1	3927.1
22733	8.	3.9	0.1	3893.
22734	7.9	4.	0.1	3921.8
22735	8.	3.7	0.1	3889.2
22736	7.9	3.8	0.1	3917.4
22737	8.	3.5	0.1	3886.4
22738	7.9	3.6	0.1	3913.9
22739	8.	3.3	0.1	3884.4
22740	7.9	3.4	0.1	3911.5
22741	8.	3.1	0.1	3883.5
22742	7.9	3.2	0.1	3909.9
22743	8.	2.9	0.1	3883.5
22744	7.9	3.	0.1	3909.4
22745	8.	2.7	0.1	3884.4
22746	7.9	2.8	0.1	3909.9
22747	8.	2.5	0.1	3886.4
22748	7.9	2.6	0.1	3911.5
22749	8.	2.3	0.1	3889.2
22750	7.9	2.4	0.1	3913.9
22751	8.	2.1	0.1	3893.
22752	7.9	2.2	0.1	3917.4
22753	8.	1.9	0.1	3897.6
22754	7.9	2.	0.1	3921.8
22755	8.	1.7	0.1	3903.
22756	7.9	1.8	0.1	3927.1
22757	8.	1.5	0.1	3909.2
22758	7.9	1.6	0.1	3933.2
22759	8.	1.3	0.1	3916.2
22760	7.9	1.4	0.1	3940.1
22761	8.	1.1	0.1	3923.7
22762	7.9	1.2	0.1	3947.7
22763	8.	0.9	0.1	3931.9
22764	7.9	1.	0.1	3955.9
22765	8.	0.7	0.1	3940.5
22766	7.9	0.8	0.1	3964.7
22767	8.	0.5	0.1	3949.7
22768	7.9	0.6	0.1	3974.
22769	8.	0.3	0.1	3959.6
22770	7.9	0.4	0.1	3983.7
22771	7.9	0.2	0.1	3994.6
22772	8.	0.1	0.1	3966.1
22773	7.8	5.7	0.1	4018.7
22774	7.7	5.8	0.1	4054.4
22775	7.8	5.9	0.1	4026.3
22776	7.8	5.5	0.1	4008.
22777	7.7	5.6	0.1	4042.7
22778	7.8	5.3	0.1	3998.1
22779	7.7	5.4	0.1	4032.1
22780	7.8	5.1	0.1	3988.7
22781	7.7	5.2	0.1	4022.
22782	7.8	4.9	0.1	3979.8
22783	7.7	5.	0.1	4012.4
22784	7.8	4.7	0.1	3971.6
22785	7.7	4.8	0.1	4003.4
22786	7.8	4.5	0.1	3964.
22787	7.7	4.6	0.1	3995.1
22788	7.8	4.3	0.1	3957.2
22789	7.7	4.4	0.1	3987.6
22790	7.8	4.1	0.1	3951.3
22791	7.7	4.2	0.1	3980.9
22792	7.8	3.9	0.1	3946.2
22793	7.7	4.	0.1	3975.2
22794	7.8	3.7	0.1	3942.1
22795	7.7	3.8	0.1	3970.4
22796	7.8	3.5	0.1	3939.
22797	7.7	3.6	0.1	3966.6
22798	7.8	3.3	0.1	3936.9
22799	7.7	3.4	0.1	3963.9
22800	7.8	3.1	0.1	3935.9
22801	7.7	3.2	0.1	3962.2
22802	7.8	2.9	0.1	3935.9
22803	7.7	3.	0.1	3961.7
22804	7.8	2.7	0.1	3936.9
22805	7.7	2.8	0.1	3962.2
22806	7.8	2.5	0.1	3939.
22807	7.7	2.6	0.1	3963.9
22808	7.8	2.3	0.1	3942.1
22809	7.7	2.4	0.1	3966.6
22810	7.8	2.1	0.1	3946.2
22811	7.7	2.2	0.1	3970.4
22812	7.8	1.9	0.1	3951.3
22813	7.7	2.	0.1	3975.2
22814	7.8	1.7	0.1	3957.2
22815	7.7	1.8	0.1	3980.9
22816	7.8	1.5	0.1	3964.
22817	7.7	1.6	0.1	3987.6
22818	7.8	1.3	0.1	3971.6
22819	7.7	1.4	0.1	3995.1
22820	7.8	1.1	0.1	3979.8
22821	7.7	1.2	0.1	4003.4
22822	7.8	0.9	0.1	3988.7
22823	7.7	1.	0.1	4012.4
22824	7.8	0.7	0.1	3998.1
22825	7.7	0.8	0.1	4022.
22826	7.8	0.5	0.1	4008.
22827	7.7	0.6	0.1	4032.1
22828	7.8	0.3	0.1	4018.7
22829	7.7	0.4	0.1	4042.7
22830	7.7	0.2	0.1	4054.4
22831	7.8	0.1	0.1	4026.3
22832	7.6	5.7	0.1	4078.2
22833	7.5	5.8	0.1	4114.5
22834	7.6	5.9	0.1	4086.8
22835	7.6	5.5	0.1	4066.7
22836	7.5	5.6	0.1	4101.9
22837	7.6	5.3	0.1	4055.9
22838	7.5	5.4	0.1	4090.4
22839	7.6	5.1	0.1	4045.6
22840	7.5	5.2	0.1	4079.4
22841	7.6	4.9	0.1	4036.
22842	7.5	5.	0.1	4068.9
22843	7.6	4.7	0.1	4027.
22844	7.5	4.8	0.1	4059.1
22845	7.6	4.5	0.1	4018.7
22846	7.5	4.6	0.1	4050.1
22847	7.6	4.3	0.1	4011.3
22848	7.5	4.4	0.1	4041.9
22849	7.6	4.1	0.1	4004.8
22850	7.5	4.2	0.1	4034.6
22851	7.6	3.9	0.1	3999.3
22852	7.5	4.	0.1	4028.4
22853	7.6	3.7	0.1	3994.8
22854	7.5	3.8	0.1	4023.1
22855	7.6	3.5	0.1	3991.5
22856	7.5	3.6	0.1	4019.
22857	7.6	3.3	0.1	3989.2
22858	7.5	3.4	0.1	4016.
22859	7.6	3.1	0.1	3988.
22860	7.5	3.2	0.1	4014.2
22861	7.6	2.9	0.1	3988.
22862	7.5	3.	0.1	4013.6
22863	7.6	2.7	0.1	3989.2
22864	7.5	2.8	0.1	4014.2
22865	7.6	2.5	0.1	3991.5
22866	7.5	2.6	0.1	4016.
22867	7.6	2.3	0.1	3994.8
22868	7.5	2.4	0.1	4019.
22869	7.6	2.1	0.1	3999.3
22870	7.5	2.2	0.1	4023.1
22871	7.6	1.9	0.1	4004.8
22872	7.5	2.	0.1	4028.4
22873	7.6	1.7	0.1	4011.3
22874	7.5	1.8	0.1	4034.6
22875	7.6	1.5	0.1	4018.7
22876	7.5	1.6	0.1	4041.9
22877	7.6	1.3	0.1	4027.
22878	7.5	1.4	0.1	4050.1
22879	7.6	1.1	0.1	4036.
22880	7.5	1.2	0.1	4059.1
22881	7.6	0.9	0.1	4045.6
22882	7.5	1.	0.1	4068.9
22883	7.6	0.7	0.1	4055.9
22884	7.5	0.8	0.1	4079.4
22885	7.6	0.5	0.1	4066.7
22886	7.5	0.6	0.1	4090.4
22887	7.6	0.3	0.1	4078.2
22888	7.5	0.4	0.1	4101.9
22889	7.5	0.2	0.1	4114.5
22890	7.6	0.1	0.1	4086.8
22891	7.4	5.7	0.1	4138.
22892	7.3	5.8	0.1	4174.9
22893	7.4	5.9	0.1	4147.7
22894	7.4	5.5	0.1	4125.5
22895	7.3	5.6	0.1	4161.4
22896	7.4	5.3	0.1	4113.8
22897	7.3	5.4	0.1	4148.9
22898	7.4	5.1	0.1	4102.6
22899	7.3	5.2	0.1	4136.9
22900	7.4	4.9	0.1	4092.1
22901	7.3	5.	0.1	4125.5
22902	7.4	4.7	0.1	4082.3
22903	7.3	4.8	0.1	4114.9
22904	7.4	4.5	0.1	4073.3
22905	7.3	4.6	0.1	4105.
22906	7.4	4.3	0.1	4065.2
22907	7.3	4.4	0.1	4096.1
22908	7.4	4.1	0.1	4058.2
22909	7.3	4.2	0.1	4088.1
22910	7.4	3.9	0.1	4052.1
22911	7.3	4.	0.1	4081.3
22912	7.4	3.7	0.1	4047.3
22913	7.3	3.8	0.1	4075.6
22914	7.4	3.5	0.1	4043.6
22915	7.3	3.6	0.1	4071.1
22916	7.4	3.3	0.1	4041.1
22917	7.3	3.4	0.1	4067.8
22918	7.4	3.1	0.1	4039.8
22919	7.3	3.2	0.1	4065.8
22920	7.4	2.9	0.1	4039.8
22921	7.3	3.	0.1	4065.2
22922	7.4	2.7	0.1	4041.1
22923	7.3	2.8	0.1	4065.8
22924	7.4	2.5	0.1	4043.6
22925	7.3	2.6	0.1	4067.8
22926	7.4	2.3	0.1	4047.3
22927	7.3	2.4	0.1	4071.1
22928	7.4	2.1	0.1	4052.1
22929	7.3	2.2	0.1	4075.6
22930	7.4	1.9	0.1	4058.2
22931	7.3	2.	0.1	4081.3
22932	7.4	1.7	0.1	4065.2
22933	7.3	1.8	0.1	4088.1
22934	7.4	1.5	0.1	4073.3
22935	7.3	1.6	0.1	4096.1
22936	7.4	1.3	0.1	4082.3
22937	7.3	1.4	0.1	4105.
22938	7.4	1.1	0.1	4092.1
22939	7.3	1.2	0.1	4114.9
22940	7.4	0.9	0.1	4102.6
22941	7.3	1.	0.1	4125.5
22942	7.4	0.7	0.1	4113.8
22943	7.3	0.8	0.1	4136.9
22944	7.4	0.5	0.1	4125.5
22945	7.3	0.6	0.1	4148.9
22946	7.4	0.3	0.1	4138.
22947	7.3	0.4	0.1	4161.4
22948	7.3	0.2	0.1	4174.9
22949	7.4	0.1	0.1	4147.7
22950	7.2	5.7	0.1	4198.2
22951	7.1	5.8	0.1	4235.8
22952	7.2	5.9	0.1	4209.1
22953	7.2	5.5	0.1	4184.7
22954	7.1	5.6	0.1	4221.2
22955	7.2	5.3	0.1	4171.9
22956	7.1	5.4	0.1	4207.6
22957	7.2	5.1	0.1	4159.7
22958	7.1	5.2	0.1	4194.5
22959	7.2	4.9	0.1	4148.3
22960	7.1	5.	0.1	4182.1
22961	7.2	4.7	0.1	4137.6
22962	7.1	4.8	0.1	4170.5
22963	7.2	4.5	0.1	4127.8
22964	7.1	4.6	0.1	4159.8
22965	7.2	4.3	0.1	4119.
22966	7.1	4.4	0.1	4150.
22967	7.2	4.1	0.1	4111.2
22968	7.1	4.2	0.1	4141.4
22969	7.2	3.9	0.1	4104.7
22970	7.1	4.	0.1	4133.9
22971	7.2	3.7	0.1	4099.3
22972	7.1	3.8	0.1	4127.7
22973	7.2	3.5	0.1	4095.3
22974	7.1	3.6	0.1	4122.7
22975	7.2	3.3	0.1	4092.6
22976	7.1	3.4	0.1	4119.2
22977	7.2	3.1	0.1	4091.2
22978	7.1	3.2	0.1	4117.
22979	7.2	2.9	0.1	4091.2
22980	7.1	3.	0.1	4116.3
22981	7.2	2.7	0.1	4092.6
22982	7.1	2.8	0.1	4117.
22983	7.2	2.5	0.1	4095.3
22984	7.1	2.6	0.1	4119.2
22985	7.2	2.3	0.1	4099.3
22986	7.1	2.4	0.1	4122.7
22987	7.2	2.1	0.1	4104.7
22988	7.1	2.2	0.1	4127.7
22989	7.2	1.9	0.1	4111.2
22990	7.1	2.	0.1	4133.9
22991	7.2	1.7	0.1	4119.
22992	7.1	1.8	0.1	4141.4
22993	7.2	1.5	0.1	4127.8
22994	7.1	1.6	0.1	4150.
22995	7.2	1.3	0.1	4137.6
22996	7.1	1.4	0.1	4159.8
22997	7.2	1.1	0.1	4148.3
22998	7.1	1.2	0.1	4170.5
22999	7.2	0.9	0.1	4159.7
23000	7.1	1.	0.1	4182.1
23001	7.2	0.7	0.1	4171.9
23002	7.1	0.8	0.1	4194.5
23003	7.2	0.5	0.1	4184.7
23004	7.1	0.6	0.1	4207.6
23005	7.2	0.3	0.1	4198.2
23006	7.1	0.4	0.1	4221.2
23007	7.1	0.2	0.1	4235.8
23008	7.2	0.1	0.1	4209.1
23009	7.	5.7	0.1	4258.7
23010	6.9	5.8	0.1	4297.
23011	7.	5.9	0.1	4270.8
23012	7.	5.5	0.1	4244.
23013	6.9	5.6	0.1	4281.3
23014	7.	5.3	0.1	4230.2
23015	6.9	5.4	0.1	4266.5
23016	7.	5.1	0.1	4216.9
23017	6.9	5.2	0.1	4252.3
23018	7.	4.9	0.1	4204.4
23019	6.9	5.	0.1	4238.8
23020	7.	4.7	0.1	4192.7
23021	6.9	4.8	0.1	4226.1
23022	7.	4.5	0.1	4182.1
23023	6.9	4.6	0.1	4214.4
23024	7.	4.3	0.1	4172.5
23025	6.9	4.4	0.1	4203.8
23026	7.	4.1	0.1	4164.
23027	6.9	4.2	0.1	4194.4
23028	7.	3.9	0.1	4156.9
23029	6.9	4.	0.1	4186.2
23030	7.	3.7	0.1	4151.1
23031	6.9	3.8	0.1	4179.4
23032	7.	3.5	0.1	4146.6
23033	6.9	3.6	0.1	4174.
23034	7.	3.3	0.1	4143.7
23035	6.9	3.4	0.1	4170.1
23036	7.	3.1	0.1	4142.2
23037	6.9	3.2	0.1	4167.8
23038	7.	2.9	0.1	4142.2
23039	6.9	3.	0.1	4167.
23040	7.	2.7	0.1	4143.7
23041	6.9	2.8	0.1	4167.8
23042	7.	2.5	0.1	4146.6
23043	6.9	2.6	0.1	4170.1
23044	7.	2.3	0.1	4151.1
23045	6.9	2.4	0.1	4174.
23046	7.	2.1	0.1	4156.9
23047	6.9	2.2	0.1	4179.4
23048	7.	1.9	0.1	4164.
23049	6.9	2.	0.1	4186.2
23050	7.	1.7	0.1	4172.5
23051	6.9	1.8	0.1	4194.4
23052	7.	1.5	0.1	4182.1
23053	6.9	1.6	0.1	4203.8
23054	7.	1.3	0.1	4192.7
23055	6.9	1.4	0.1	4214.4
23056	7.	1.1	0.1	4204.4
23057	6.9	1.2	0.1	4226.1
23058	7.	0.9	0.1	4216.9
23059	6.9	1.	0.1	4238.8
23060	7.	0.7	0.1	4230.2
23061	6.9	0.8	0.1	4252.3
23062	7.	0.5	0.1	4244.
23063	6.9	0.6	0.1	4266.5
23064	7.	0.3	0.1	4258.7
23065	6.9	0.4	0.1	4281.3
23066	6.9	0.2	0.1	4297.
23067	7.	0.1	0.1	4270.8
23068	6.8	5.7	0.1	4319.5
23069	6.7	5.8	0.1	4358.7
23070	6.8	5.9	0.1	4333.
23071	6.8	5.5	0.1	4303.7
23072	6.7	5.6	0.1	4341.7
23073	6.8	5.3	0.1	4288.6
23074	6.7	5.4	0.1	4325.6
23075	6.8	5.1	0.1	4274.2
23076	6.7	5.2	0.1	4310.2
23077	6.8	4.9	0.1	4260.5
23078	6.7	5.	0.1	4295.5
23079	6.8	4.7	0.1	4247.8
23080	6.7	4.8	0.1	4281.7
23081	6.8	4.5	0.1	4236.2
23082	6.7	4.6	0.1	4268.9
23083	6.8	4.3	0.1	4225.7
23084	6.7	4.4	0.1	4257.3
23085	6.8	4.1	0.1	4216.5
23086	6.7	4.2	0.1	4247.
23087	6.8	3.9	0.1	4208.7
23088	6.7	4.	0.1	4238.1
23089	6.8	3.7	0.1	4202.3
23090	6.7	3.8	0.1	4230.7
23091	6.8	3.5	0.1	4197.5
23092	6.7	3.6	0.1	4224.8
23093	6.8	3.3	0.1	4194.3
23094	6.7	3.4	0.1	4220.6
23095	6.8	3.1	0.1	4192.6
23096	6.7	3.2	0.1	4218.
23097	6.8	2.9	0.1	4192.6
23098	6.7	3.	0.1	4217.2
23099	6.8	2.7	0.1	4194.3
23100	6.7	2.8	0.1	4218.
23101	6.8	2.5	0.1	4197.5
23102	6.7	2.6	0.1	4220.6
23103	6.8	2.3	0.1	4202.3
23104	6.7	2.4	0.1	4224.8
23105	6.8	2.1	0.1	4208.7
23106	6.7	2.2	0.1	4230.7
23107	6.8	1.9	0.1	4216.5
23108	6.7	2.	0.1	4238.1
23109	6.8	1.7	0.1	4225.7
23110	6.7	1.8	0.1	4247.
23111	6.8	1.5	0.1	4236.2
23112	6.7	1.6	0.1	4257.3
23113	6.8	1.3	0.1	4247.8
23114	6.7	1.4	0.1	4268.9
23115	6.8	1.1	0.1	4260.5
23116	6.7	1.2	0.1	4281.7
23117	6.8	0.9	0.1	4274.2
23118	6.7	1.	0.1	4295.5
23119	6.8	0.7	0.1	4288.6
23120	6.7	0.8	0.1	4310.2
23121	6.8	0.5	0.1	4303.7
23122	6.7	0.6	0.1	4325.6
23123	6.8	0.3	0.1	4319.5
23124	6.7	0.4	0.1	4341.7
23125	6.7	0.2	0.1	4358.7
23126	6.8	0.1	0.1	4333.
23127	6.6	5.7	0.1	4380.8
23128	6.5	5.8	0.1	4420.8
23129	6.6	5.9	0.1	4395.7
23130	6.6	5.5	0.1	4363.6
23131	6.5	5.6	0.1	4402.4
23132	6.6	5.3	0.1	4347.2
23133	6.5	5.4	0.1	4384.9
23134	6.6	5.1	0.1	4331.5
23135	6.5	5.2	0.1	4368.1
23136	6.6	4.9	0.1	4316.6
23137	6.5	5.	0.1	4352.1
23138	6.6	4.7	0.1	4302.8
23139	6.5	4.8	0.1	4337.1
23140	6.6	4.5	0.1	4290.1
23141	6.5	4.6	0.1	4323.2
23142	6.6	4.3	0.1	4278.6
23143	6.5	4.4	0.1	4310.6
23144	6.6	4.1	0.1	4268.6
23145	6.5	4.2	0.1	4299.3
23146	6.6	3.9	0.1	4260.1
23147	6.5	4.	0.1	4289.6
23148	6.6	3.7	0.1	4253.2
23149	6.5	3.8	0.1	4281.5
23150	6.6	3.5	0.1	4247.9
23151	6.5	3.6	0.1	4275.1
23152	6.6	3.3	0.1	4244.3
23153	6.5	3.4	0.1	4270.5
23154	6.6	3.1	0.1	4242.6
23155	6.5	3.2	0.1	4267.7
23156	6.6	2.9	0.1	4242.6
23157	6.5	3.	0.1	4266.7
23158	6.6	2.7	0.1	4244.3
23159	6.5	2.8	0.1	4267.7
23160	6.6	2.5	0.1	4247.9
23161	6.5	2.6	0.1	4270.5
23162	6.6	2.3	0.1	4253.2
23163	6.5	2.4	0.1	4275.1
23164	6.6	2.1	0.1	4260.1
23165	6.5	2.2	0.1	4281.5
23166	6.6	1.9	0.1	4268.6
23167	6.5	2.	0.1	4289.6
23168	6.6	1.7	0.1	4278.6
23169	6.5	1.8	0.1	4299.3
23170	6.6	1.5	0.1	4290.1
23171	6.5	1.6	0.1	4310.6
23172	6.6	1.3	0.1	4302.8
23173	6.5	1.4	0.1	4323.2
23174	6.6	1.1	0.1	4316.6
23175	6.5	1.2	0.1	4337.1
23176	6.6	0.9	0.1	4331.5
23177	6.5	1.	0.1	4352.1
23178	6.6	0.7	0.1	4347.2
23179	6.5	0.8	0.1	4368.1
23180	6.6	0.5	0.1	4363.6
23181	6.5	0.6	0.1	4384.9
23182	6.6	0.3	0.1	4380.8
23183	6.5	0.4	0.1	4402.4
23184	6.5	0.2	0.1	4420.8
23185	6.6	0.1	0.1	4395.7
23186	6.4	5.7	0.1	4442.4
23187	6.3	5.8	0.1	4483.4
23188	6.4	5.9	0.1	4459.
23189	6.4	5.5	0.1	4423.8
23190	6.3	5.6	0.1	4463.5
23191	6.4	5.3	0.1	4405.9
23192	6.3	5.4	0.1	4444.5
23193	6.4	5.1	0.1	4388.8
23194	6.3	5.2	0.1	4426.2
23195	6.4	4.9	0.1	4372.6
23196	6.3	5.	0.1	4408.8
23197	6.4	4.7	0.1	4357.5
23198	6.3	4.8	0.1	4392.4
23199	6.4	4.5	0.1	4343.7
23200	6.3	4.6	0.1	4377.3
23201	6.4	4.3	0.1	4331.2
23202	6.3	4.4	0.1	4363.5
23203	6.4	4.1	0.1	4320.3
23204	6.3	4.2	0.1	4351.2
23205	6.4	3.9	0.1	4311.
23206	6.3	4.	0.1	4340.6
23207	6.4	3.7	0.1	4303.4
23208	6.3	3.8	0.1	4331.8
23209	6.4	3.5	0.1	4297.7
23210	6.3	3.6	0.1	4324.8
23211	6.4	3.3	0.1	4293.8
23212	6.3	3.4	0.1	4319.7
23213	6.4	3.1	0.1	4291.9
23214	6.3	3.2	0.1	4316.7
23215	6.4	2.9	0.1	4291.9
23216	6.3	3.	0.1	4315.7
23217	6.4	2.7	0.1	4293.8
23218	6.3	2.8	0.1	4316.7
23219	6.4	2.5	0.1	4297.7
23220	6.3	2.6	0.1	4319.7
23221	6.4	2.3	0.1	4303.4
23222	6.3	2.4	0.1	4324.8
23223	6.4	2.1	0.1	4311.
23224	6.3	2.2	0.1	4331.8
23225	6.4	1.9	0.1	4320.3
23226	6.3	2.	0.1	4340.6
23227	6.4	1.7	0.1	4331.2
23228	6.3	1.8	0.1	4351.2
23229	6.4	1.5	0.1	4343.7
23230	6.3	1.6	0.1	4363.5
23231	6.4	1.3	0.1	4357.5
23232	6.3	1.4	0.1	4377.3
23233	6.4	1.1	0.1	4372.6
23234	6.3	1.2	0.1	4392.4
23235	6.4	0.9	0.1	4388.8
23236	6.3	1.	0.1	4408.8
23237	6.4	0.7	0.1	4405.9
23238	6.3	0.8	0.1	4426.2
23239	6.4	0.5	0.1	4423.8
23240	6.3	0.6	0.1	4444.5
23241	6.4	0.3	0.1	4442.4
23242	6.3	0.4	0.1	4463.5
23243	6.3	0.2	0.1	4483.4
23244	6.4	0.1	0.1	4459.
23245	6.2	5.7	0.1	4504.5
23246	6.1	5.8	0.1	4546.6
23247	6.2	5.9	0.1	4522.7
23248	6.2	5.5	0.1	4484.3
23249	6.1	5.6	0.1	4525.
23250	6.2	5.3	0.1	4464.8
23251	6.1	5.4	0.1	4504.3
23252	6.2	5.1	0.1	4446.2
23253	6.1	5.2	0.1	4484.4
23254	6.2	4.9	0.1	4428.6
23255	6.1	5.	0.1	4465.4
23256	6.2	4.7	0.1	4412.1
23257	6.1	4.8	0.1	4447.6
23258	6.2	4.5	0.1	4397.1
23259	6.1	4.6	0.1	4431.1
23260	6.2	4.3	0.1	4383.5
23261	6.1	4.4	0.1	4416.1
23262	6.2	4.1	0.1	4371.5
23263	6.1	4.2	0.1	4402.7
23264	6.2	3.9	0.1	4361.4
23265	6.1	4.	0.1	4391.1
23266	6.2	3.7	0.1	4353.1
23267	6.1	3.8	0.1	4381.5
23268	6.2	3.5	0.1	4346.9
23269	6.1	3.6	0.1	4373.8
23270	6.2	3.3	0.1	4342.6
23271	6.1	3.4	0.1	4368.3
23272	6.2	3.1	0.1	4340.5
23273	6.1	3.2	0.1	4365.
23274	6.2	2.9	0.1	4340.5
23275	6.1	3.	0.1	4363.9
23276	6.2	2.7	0.1	4342.6
23277	6.1	2.8	0.1	4365.
23278	6.2	2.5	0.1	4346.9
23279	6.1	2.6	0.1	4368.3
23280	6.2	2.3	0.1	4353.1
23281	6.1	2.4	0.1	4373.8
23282	6.2	2.1	0.1	4361.4
23283	6.1	2.2	0.1	4381.5
23284	6.2	1.9	0.1	4371.5
23285	6.1	2.	0.1	4391.1
23286	6.2	1.7	0.1	4383.5
23287	6.1	1.8	0.1	4402.7
23288	6.2	1.5	0.1	4397.1
23289	6.1	1.6	0.1	4416.1
23290	6.2	1.3	0.1	4412.1
23291	6.1	1.4	0.1	4431.1
23292	6.2	1.1	0.1	4428.6
23293	6.1	1.2	0.1	4447.6
23294	6.2	0.9	0.1	4446.2
23295	6.1	1.	0.1	4465.4
23296	6.2	0.7	0.1	4464.8
23297	6.1	0.8	0.1	4484.4
23298	6.2	0.5	0.1	4484.3
23299	6.1	0.6	0.1	4504.3
23300	6.2	0.3	0.1	4504.5
23301	6.1	0.4	0.1	4525.
23302	6.1	0.2	0.1	4546.6
23303	6.2	0.1	0.1	4522.7
23304	6.	5.7	0.1	4567.
23305	5.9	5.8	0.1	4610.2
23306	6.	5.9	0.1	4587.
23307	6.	5.5	0.1	4545.
23308	5.9	5.6	0.1	4586.9
23309	6.	5.3	0.1	4523.9
23310	5.9	5.4	0.1	4564.3
23311	6.	5.1	0.1	4503.6
23312	5.9	5.2	0.1	4542.7
23313	6.	4.9	0.1	4484.4
23314	5.9	5.	0.1	4522.
23315	6.	4.7	0.1	4466.5
23316	5.9	4.8	0.1	4502.6
23317	6.	4.5	0.1	4450.1
23318	5.9	4.6	0.1	4484.6
23319	6.	4.3	0.1	4435.3
23320	5.9	4.4	0.1	4468.2
23321	6.	4.1	0.1	4422.3
23322	5.9	4.2	0.1	4453.7
23323	6.	3.9	0.1	4411.2
23324	5.9	4.	0.1	4441.
23325	6.	3.7	0.1	4402.2
23326	5.9	3.8	0.1	4430.5
23327	6.	3.5	0.1	4395.3
23328	5.9	3.6	0.1	4422.2
23329	6.	3.3	0.1	4390.7
23330	5.9	3.4	0.1	4416.2
23331	6.	3.1	0.1	4388.4
23332	5.9	3.2	0.1	4412.6
23333	6.	2.9	0.1	4388.4
23334	5.9	3.	0.1	4411.4
23335	6.	2.7	0.1	4390.7
23336	5.9	2.8	0.1	4412.6
23337	6.	2.5	0.1	4395.3
23338	5.9	2.6	0.1	4416.2
23339	6.	2.3	0.1	4402.2
23340	5.9	2.4	0.1	4422.2
23341	6.	2.1	0.1	4411.2
23342	5.9	2.2	0.1	4430.5
23343	6.	1.9	0.1	4422.3
23344	5.9	2.	0.1	4441.
23345	6.	1.7	0.1	4435.3
23346	5.9	1.8	0.1	4453.7
23347	6.	1.5	0.1	4450.1
23348	5.9	1.6	0.1	4468.2
23349	6.	1.3	0.1	4466.5
23350	5.9	1.4	0.1	4484.6
23351	6.	1.1	0.1	4484.4
23352	5.9	1.2	0.1	4502.6
23353	6.	0.9	0.1	4503.6
23354	5.9	1.	0.1	4522.
23355	6.	0.7	0.1	4523.9
23356	5.9	0.8	0.1	4542.7
23357	6.	0.5	0.1	4545.
23358	5.9	0.6	0.1	4564.3
23359	6.	0.3	0.1	4567.
23360	5.9	0.4	0.1	4586.9
23361	5.9	0.2	0.1	4610.2
23362	6.	0.1	0.1	4587.
23363	5.8	5.7	0.1	4630.
23364	5.7	5.8	0.1	4674.4
23365	5.8	5.9	0.1	4651.9
23366	5.8	5.5	0.1	4606.1
23367	5.7	5.6	0.1	4649.1
23368	5.8	5.3	0.1	4583.1
23369	5.7	5.4	0.1	4624.6
23370	5.8	5.1	0.1	4561.1
23371	5.7	5.2	0.1	4601.
23372	5.8	4.9	0.1	4540.2
23373	5.7	5.	0.1	4578.6
23374	5.8	4.7	0.1	4520.7
23375	5.7	4.8	0.1	4557.4
23376	5.8	4.5	0.1	4502.8
23377	5.7	4.6	0.1	4537.8
23378	5.8	4.3	0.1	4486.6
23379	5.7	4.4	0.1	4520.
23380	5.8	4.1	0.1	4472.4
23381	5.7	4.2	0.1	4504.1
23382	5.8	3.9	0.1	4460.4
23383	5.7	4.	0.1	4490.4
23384	5.8	3.7	0.1	4450.6
23385	5.7	3.8	0.1	4478.9
23386	5.8	3.5	0.1	4443.1
23387	5.7	3.6	0.1	4469.8
23388	5.8	3.3	0.1	4438.1
23389	5.7	3.4	0.1	4463.3
23390	5.8	3.1	0.1	4435.5
23391	5.7	3.2	0.1	4459.3
23392	5.8	2.9	0.1	4435.5
23393	5.7	3.	0.1	4458.
23394	5.8	2.7	0.1	4438.1
23395	5.7	2.8	0.1	4459.3
23396	5.8	2.5	0.1	4443.1
23397	5.7	2.6	0.1	4463.3
23398	5.8	2.3	0.1	4450.6
23399	5.7	2.4	0.1	4469.8
23400	5.8	2.1	0.1	4460.4
23401	5.7	2.2	0.1	4478.9
23402	5.8	1.9	0.1	4472.4
23403	5.7	2.	0.1	4490.4
23404	5.8	1.7	0.1	4486.6
23405	5.7	1.8	0.1	4504.1
23406	5.8	1.5	0.1	4502.8
23407	5.7	1.6	0.1	4520.
23408	5.8	1.3	0.1	4520.7
23409	5.7	1.4	0.1	4537.8
23410	5.8	1.1	0.1	4540.2
23411	5.7	1.2	0.1	4557.4
23412	5.8	0.9	0.1	4561.1
23413	5.7	1.	0.1	4578.6
23414	5.8	0.7	0.1	4583.1
23415	5.7	0.8	0.1	4601.
23416	5.8	0.5	0.1	4606.1
23417	5.7	0.6	0.1	4624.6
23418	5.8	0.3	0.1	4630.
23419	5.7	0.4	0.1	4649.1
23420	5.7	0.2	0.1	4674.4
23421	5.8	0.1	0.1	4651.9
23422	5.6	5.7	0.1	4693.5
23423	5.5	5.8	0.1	4739.3
23424	5.6	5.9	0.1	4717.4
23425	5.6	5.5	0.1	4667.6
23426	5.5	5.6	0.1	4711.8
23427	5.6	5.3	0.1	4642.5
23428	5.5	5.4	0.1	4685.1
23429	5.6	5.1	0.1	4618.5
23430	5.5	5.2	0.1	4659.5
23431	5.6	4.9	0.1	4595.8
23432	5.5	5.	0.1	4635.
23433	5.6	4.7	0.1	4574.6
23434	5.5	4.8	0.1	4612.
23435	5.6	4.5	0.1	4555.1
23436	5.5	4.6	0.1	4590.7
23437	5.6	4.3	0.1	4537.5
23438	5.5	4.4	0.1	4571.3
23439	5.6	4.1	0.1	4522.
23440	5.5	4.2	0.1	4554.
23441	5.6	3.9	0.1	4508.9
23442	5.5	4.	0.1	4539.
23443	5.6	3.7	0.1	4498.2
23444	5.5	3.8	0.1	4526.5
23445	5.6	3.5	0.1	4490.
23446	5.5	3.6	0.1	4516.6
23447	5.6	3.3	0.1	4484.5
23448	5.5	3.4	0.1	4509.5
23449	5.6	3.1	0.1	4481.8
23450	5.5	3.2	0.1	4505.2
23451	5.6	2.9	0.1	4481.8
23452	5.5	3.	0.1	4503.7
23453	5.6	2.7	0.1	4484.5
23454	5.5	2.8	0.1	4505.2
23455	5.6	2.5	0.1	4490.
23456	5.5	2.6	0.1	4509.5
23457	5.6	2.3	0.1	4498.2
23458	5.5	2.4	0.1	4516.6
23459	5.6	2.1	0.1	4508.9
23460	5.5	2.2	0.1	4526.5
23461	5.6	1.9	0.1	4522.
23462	5.5	2.	0.1	4539.
23463	5.6	1.7	0.1	4537.5
23464	5.5	1.8	0.1	4554.
23465	5.6	1.5	0.1	4555.1
23466	5.5	1.6	0.1	4571.3
23467	5.6	1.3	0.1	4574.6
23468	5.5	1.4	0.1	4590.7
23469	5.6	1.1	0.1	4595.8
23470	5.5	1.2	0.1	4612.
23471	5.6	0.9	0.1	4618.5
23472	5.5	1.	0.1	4635.
23473	5.6	0.7	0.1	4642.5
23474	5.5	0.8	0.1	4659.5
23475	5.6	0.5	0.1	4667.6
23476	5.5	0.6	0.1	4685.1
23477	5.6	0.3	0.1	4693.5
23478	5.5	0.4	0.1	4711.8
23479	5.5	0.2	0.1	4739.3
23480	5.6	0.1	0.1	4717.4
23481	5.4	5.7	0.1	4757.5
23482	5.3	5.8	0.1	4804.8
23483	5.4	5.9	0.1	4783.5
23484	5.4	5.5	0.1	4729.3
23485	5.3	5.6	0.1	4774.9
23486	5.4	5.3	0.1	4702.1
23487	5.3	5.4	0.1	4745.9
23488	5.4	5.1	0.1	4676.
23489	5.3	5.2	0.1	4718.
23490	5.4	4.9	0.1	4651.3
23491	5.3	5.	0.1	4691.4
23492	5.4	4.7	0.1	4628.2
23493	5.3	4.8	0.1	4666.4
23494	5.4	4.5	0.1	4606.9
23495	5.3	4.6	0.1	4643.2
23496	5.4	4.3	0.1	4587.8
23497	5.3	4.4	0.1	4622.
23498	5.4	4.1	0.1	4570.9
23499	5.3	4.2	0.1	4603.2
23500	5.4	3.9	0.1	4556.6
23501	5.3	4.	0.1	4586.9
23502	5.4	3.7	0.1	4545.
23503	5.3	3.8	0.1	4573.3
23504	5.4	3.5	0.1	4536.1
23505	5.3	3.6	0.1	4562.5
23506	5.4	3.3	0.1	4530.1
23507	5.3	3.4	0.1	4554.8
23508	5.4	3.1	0.1	4527.1
23509	5.3	3.2	0.1	4550.1
23510	5.4	2.9	0.1	4527.1
23511	5.3	3.	0.1	4548.5
23512	5.4	2.7	0.1	4530.1
23513	5.3	2.8	0.1	4550.1
23514	5.4	2.5	0.1	4536.1
23515	5.3	2.6	0.1	4554.8
23516	5.4	2.3	0.1	4545.
23517	5.3	2.4	0.1	4562.5
23518	5.4	2.1	0.1	4556.6
23519	5.3	2.2	0.1	4573.3
23520	5.4	1.9	0.1	4570.9
23521	5.3	2.	0.1	4586.9
23522	5.4	1.7	0.1	4587.8
23523	5.3	1.8	0.1	4603.2
23524	5.4	1.5	0.1	4606.9
23525	5.3	1.6	0.1	4622.
23526	5.4	1.3	0.1	4628.2
23527	5.3	1.4	0.1	4643.2
23528	5.4	1.1	0.1	4651.3
23529	5.3	1.2	0.1	4666.4
23530	5.4	0.9	0.1	4676.
23531	5.3	1.	0.1	4691.4
23532	5.4	0.7	0.1	4702.1
23533	5.3	0.8	0.1	4718.
23534	5.4	0.5	0.1	4729.3
23535	5.3	0.6	0.1	4745.9
23536	5.4	0.3	0.1	4757.5
23537	5.3	0.4	0.1	4774.9
23538	5.3	0.2	0.1	4804.8
23539	5.4	0.1	0.1	4783.5
23540	5.2	5.7	0.1	4822.1
23541	5.1	5.8	0.1	4870.9
23542	5.2	5.9	0.1	4850.3
23543	5.2	5.5	0.1	4791.5
23544	5.1	5.6	0.1	4838.4
23545	5.2	5.3	0.1	4761.9
23546	5.1	5.4	0.1	4807.
23547	5.2	5.1	0.1	4733.5
23548	5.1	5.2	0.1	4776.7
23549	5.2	4.9	0.1	4706.6
23550	5.1	5.	0.1	4747.7
23551	5.2	4.7	0.1	4681.4
23552	5.1	4.8	0.1	4720.5
23553	5.2	4.5	0.1	4658.3
23554	5.1	4.6	0.1	4695.2
23555	5.2	4.3	0.1	4637.5
23556	5.1	4.4	0.1	4672.2
23557	5.2	4.1	0.1	4619.2
23558	5.1	4.2	0.1	4651.8
23559	5.2	3.9	0.1	4603.6
23560	5.1	4.	0.1	4634.
23561	5.2	3.7	0.1	4590.9
23562	5.1	3.8	0.1	4619.2
23563	5.2	3.5	0.1	4581.3
23564	5.1	3.6	0.1	4607.6
23565	5.2	3.3	0.1	4574.8
23566	5.1	3.4	0.1	4599.1
23567	5.2	3.1	0.1	4571.5
23568	5.1	3.2	0.1	4594.
23569	5.2	2.9	0.1	4571.5
23570	5.1	3.	0.1	4592.3
23571	5.2	2.7	0.1	4574.8
23572	5.1	2.8	0.1	4594.
23573	5.2	2.5	0.1	4581.3
23574	5.1	2.6	0.1	4599.1
23575	5.2	2.3	0.1	4590.9
23576	5.1	2.4	0.1	4607.6
23577	5.2	2.1	0.1	4603.6
23578	5.1	2.2	0.1	4619.2
23579	5.2	1.9	0.1	4619.2
23580	5.1	2.	0.1	4634.
23581	5.2	1.7	0.1	4637.5
23582	5.1	1.8	0.1	4651.8
23583	5.2	1.5	0.1	4658.3
23584	5.1	1.6	0.1	4672.2
23585	5.2	1.3	0.1	4681.4
23586	5.1	1.4	0.1	4695.2
23587	5.2	1.1	0.1	4706.6
23588	5.1	1.2	0.1	4720.5
23589	5.2	0.9	0.1	4733.5
23590	5.1	1.	0.1	4747.7
23591	5.2	0.7	0.1	4761.9
23592	5.1	0.8	0.1	4776.7
23593	5.2	0.5	0.1	4791.5
23594	5.1	0.6	0.1	4807.
23595	5.2	0.3	0.1	4822.1
23596	5.1	0.4	0.1	4838.4
23597	5.1	0.2	0.1	4870.9
23598	5.2	0.1	0.1	4850.3
23599	5.	5.7	0.1	4887.2
23600	4.9	5.8	0.1	4937.8
23601	5.	5.9	0.1	4917.8
23602	5.	5.5	0.1	4853.9
23603	4.9	5.6	0.1	4902.5
23604	5.	5.3	0.1	4821.8
23605	4.9	5.4	0.1	4868.3
23606	5.	5.1	0.1	4790.9
23607	4.9	5.2	0.1	4835.3
23608	5.	4.9	0.1	4761.7
23609	4.9	5.	0.1	4803.9
23610	5.	4.7	0.1	4734.3
23611	4.9	4.8	0.1	4774.3
23612	5.	4.5	0.1	4709.2
23613	4.9	4.6	0.1	4746.9
23614	5.	4.3	0.1	4686.6
23615	4.9	4.4	0.1	4721.9
23616	5.	4.1	0.1	4666.7
23617	4.9	4.2	0.1	4699.6
23618	5.	3.9	0.1	4649.7
23619	4.9	4.	0.1	4680.4
23620	5.	3.7	0.1	4635.9
23621	4.9	3.8	0.1	4664.3
23622	5.	3.5	0.1	4625.5
23623	4.9	3.6	0.1	4651.6
23624	5.	3.3	0.1	4618.4
23625	4.9	3.4	0.1	4642.5
23626	5.	3.1	0.1	4614.9
23627	4.9	3.2	0.1	4636.9
23628	5.	2.9	0.1	4614.9
23629	4.9	3.	0.1	4635.1
23630	5.	2.7	0.1	4618.4
23631	4.9	2.8	0.1	4636.9
23632	5.	2.5	0.1	4625.5
23633	4.9	2.6	0.1	4642.5
23634	5.	2.3	0.1	4635.9
23635	4.9	2.4	0.1	4651.6
23636	5.	2.1	0.1	4649.7
23637	4.9	2.2	0.1	4664.3
23638	5.	1.9	0.1	4666.7
23639	4.9	2.	0.1	4680.4
23640	5.	1.7	0.1	4686.6
23641	4.9	1.8	0.1	4699.6
23642	5.	1.5	0.1	4709.2
23643	4.9	1.6	0.1	4721.9
23644	5.	1.3	0.1	4734.3
23645	4.9	1.4	0.1	4746.9
23646	5.	1.1	0.1	4761.7
23647	4.9	1.2	0.1	4774.3
23648	5.	0.9	0.1	4790.9
23649	4.9	1.	0.1	4803.9
23650	5.	0.7	0.1	4821.8
23651	4.9	0.8	0.1	4835.3
23652	5.	0.5	0.1	4853.9
23653	4.9	0.6	0.1	4868.3
23654	5.	0.3	0.1	4887.3
23655	4.9	0.4	0.1	4902.5
23656	4.9	0.2	0.1	4937.8
23657	5.	0.1	0.1	4917.8
23658	4.8	5.7	0.1	4953.
23659	4.7	5.8	0.1	5005.4
23660	4.8	5.9	0.1	4986.
23661	4.8	5.5	0.1	4916.8
23662	4.7	5.6	0.1	4967.
23663	4.8	5.3	0.1	4881.8
23664	4.7	5.4	0.1	4929.9
23665	4.8	5.1	0.1	4848.3
23666	4.7	5.2	0.1	4894.1
23667	4.8	4.9	0.1	4816.5
23668	4.7	5.	0.1	4859.9
23669	4.8	4.7	0.1	4786.8
23670	4.7	4.8	0.1	4827.8
23671	4.8	4.5	0.1	4759.5
23672	4.7	4.6	0.1	4798.
23673	4.8	4.3	0.1	4735.
23674	4.7	4.4	0.1	4770.9
23675	4.8	4.1	0.1	4713.4
23676	4.7	4.2	0.1	4746.7
23677	4.8	3.9	0.1	4695.
23678	4.7	4.	0.1	4725.9
23679	4.8	3.7	0.1	4680.
23680	4.7	3.8	0.1	4708.5
23681	4.8	3.5	0.1	4668.7
23682	4.7	3.6	0.1	4694.7
23683	4.8	3.3	0.1	4661.
23684	4.7	3.4	0.1	4684.8
23685	4.8	3.1	0.1	4657.2
23686	4.7	3.2	0.1	4678.8
23687	4.8	2.9	0.1	4657.2
23688	4.7	3.	0.1	4676.8
23689	4.8	2.7	0.1	4661.
23690	4.7	2.8	0.1	4678.8
23691	4.8	2.5	0.1	4668.7
23692	4.7	2.6	0.1	4684.8
23693	4.8	2.3	0.1	4680.
23694	4.7	2.4	0.1	4694.7
23695	4.8	2.1	0.1	4695.
23696	4.7	2.2	0.1	4708.5
23697	4.8	1.9	0.1	4713.4
23698	4.7	2.	0.1	4725.9
23699	4.8	1.7	0.1	4735.
23700	4.7	1.8	0.1	4746.7
23701	4.8	1.5	0.1	4759.5
23702	4.7	1.6	0.1	4770.9
23703	4.8	1.3	0.1	4786.8
23704	4.7	1.4	0.1	4798.
23705	4.8	1.1	0.1	4816.5
23706	4.7	1.2	0.1	4827.8
23707	4.8	0.9	0.1	4848.3
23708	4.7	1.	0.1	4859.9
23709	4.8	0.7	0.1	4881.8
23710	4.7	0.8	0.1	4894.1
23711	4.8	0.5	0.1	4916.8
23712	4.7	0.6	0.1	4929.9
23713	4.8	0.3	0.1	4953.
23714	4.7	0.4	0.1	4967.
23715	4.7	0.2	0.1	5005.4
23716	4.8	0.1	0.1	4986.
23717	4.6	5.7	0.1	5019.4
23718	4.5	5.8	0.1	5073.8
23719	4.6	5.9	0.1	5054.9
23720	4.6	5.5	0.1	4980.
23721	4.5	5.6	0.1	5032.
23722	4.6	5.3	0.1	4942.1
23723	4.5	5.4	0.1	4991.7
23724	4.6	5.1	0.1	4905.7
23725	4.5	5.2	0.1	4952.8
23726	4.6	4.9	0.1	4871.2
23727	4.5	5.	0.1	4915.8
23728	4.6	4.7	0.1	4838.9
23729	4.5	4.8	0.1	4880.9
23730	4.6	4.5	0.1	4809.3
23731	4.5	4.6	0.1	4848.6
23732	4.6	4.3	0.1	4782.7
23733	4.5	4.4	0.1	4819.2
23734	4.6	4.1	0.1	4759.2
23735	4.5	4.2	0.1	4793.1
23736	4.6	3.9	0.1	4739.3
23737	4.5	4.	0.1	4770.5
23738	4.6	3.7	0.1	4723.2
23739	4.5	3.8	0.1	4751.7
23740	4.6	3.5	0.1	4710.9
23741	4.5	3.6	0.1	4736.8
23742	4.6	3.3	0.1	4702.6
23743	4.5	3.4	0.1	4726.1
23744	4.6	3.1	0.1	4698.5
23745	4.5	3.2	0.1	4719.6
23746	4.6	2.9	0.1	4698.5
23747	4.5	3.	0.1	4717.5
23748	4.6	2.7	0.1	4702.6
23749	4.5	2.8	0.1	4719.6
23750	4.6	2.5	0.1	4710.9
23751	4.5	2.6	0.1	4726.1
23752	4.6	2.3	0.1	4723.2
23753	4.5	2.4	0.1	4736.8
23754	4.6	2.1	0.1	4739.3
23755	4.5	2.2	0.1	4751.7
23756	4.6	1.9	0.1	4759.2
23757	4.5	2.	0.1	4770.5
23758	4.6	1.7	0.1	4782.7
23759	4.5	1.8	0.1	4793.1
23760	4.6	1.5	0.1	4809.3
23761	4.5	1.6	0.1	4819.2
23762	4.6	1.3	0.1	4838.9
23763	4.5	1.4	0.1	4848.6
23764	4.6	1.1	0.1	4871.2
23765	4.5	1.2	0.1	4880.9
23766	4.6	0.9	0.1	4905.7
23767	4.5	1.	0.1	4915.8
23768	4.6	0.7	0.1	4942.1
23769	4.5	0.8	0.1	4952.8
23770	4.6	0.5	0.1	4980.
23771	4.5	0.6	0.1	4991.7
23772	4.6	0.3	0.1	5019.4
23773	4.5	0.4	0.1	5032.
23774	4.5	0.2	0.1	5073.8
23775	4.6	0.1	0.1	5054.9
23776	4.4	5.7	0.1	5086.4
23777	4.3	5.8	0.1	5143.
23778	4.4	5.9	0.1	5124.6
23779	4.4	5.5	0.1	5043.6
23780	4.3	5.6	0.1	5097.4
23781	4.4	5.3	0.1	5002.4
23782	4.3	5.4	0.1	5053.7
23783	4.4	5.1	0.1	4962.9
23784	4.3	5.2	0.1	5011.5
23785	4.4	4.9	0.1	4925.5
23786	4.3	5.	0.1	4971.4
23787	4.4	4.7	0.1	4890.5
23788	4.3	4.8	0.1	4933.6
23789	4.4	4.5	0.1	4858.5
23790	4.3	4.6	0.1	4898.6
23791	4.4	4.3	0.1	4829.6
23792	4.3	4.4	0.1	4866.8
23793	4.4	4.1	0.1	4804.3
23794	4.3	4.2	0.1	4838.6
23795	4.4	3.9	0.1	4782.8
23796	4.3	4.	0.1	4814.2
23797	4.4	3.7	0.1	4765.3
23798	4.3	3.8	0.1	4793.9
23799	4.4	3.5	0.1	4752.1
23800	4.3	3.6	0.1	4778.
23801	4.4	3.3	0.1	4743.2
23802	4.3	3.4	0.1	4766.4
23803	4.4	3.1	0.1	4738.7
23804	4.3	3.2	0.1	4759.5
23805	4.4	2.9	0.1	4738.7
23806	4.3	3.	0.1	4757.2
23807	4.4	2.7	0.1	4743.2
23808	4.3	2.8	0.1	4759.5
23809	4.4	2.5	0.1	4752.1
23810	4.3	2.6	0.1	4766.4
23811	4.4	2.3	0.1	4765.3
23812	4.3	2.4	0.1	4778.
23813	4.4	2.1	0.1	4782.8
23814	4.3	2.2	0.1	4793.9
23815	4.4	1.9	0.1	4804.3
23816	4.3	2.	0.1	4814.2
23817	4.4	1.7	0.1	4829.6
23818	4.3	1.8	0.1	4838.6
23819	4.4	1.5	0.1	4858.5
23820	4.3	1.6	0.1	4866.8
23821	4.4	1.3	0.1	4890.5
23822	4.3	1.4	0.1	4898.6
23823	4.4	1.1	0.1	4925.5
23824	4.3	1.2	0.1	4933.6
23825	4.4	0.9	0.1	4962.9
23826	4.3	1.	0.1	4971.4
23827	4.4	0.7	0.1	5002.4
23828	4.3	0.8	0.1	5011.5
23829	4.4	0.5	0.1	5043.6
23830	4.3	0.6	0.1	5053.7
23831	4.4	0.3	0.1	5086.4
23832	4.3	0.4	0.1	5097.4
23833	4.3	0.2	0.1	5143.
23834	4.4	0.1	0.1	5124.6
23835	4.2	5.7	0.1	5154.
23836	4.1	5.8	0.1	5213.
23837	4.2	5.9	0.1	5195.
23838	4.2	5.5	0.1	5107.5
23839	4.1	5.6	0.1	5163.3
23840	4.2	5.3	0.1	5062.8
23841	4.1	5.4	0.1	5115.9
23842	4.2	5.1	0.1	5020.
23843	4.1	5.2	0.1	5070.2
23844	4.2	4.9	0.1	4979.5
23845	4.1	5.	0.1	5026.7
23846	4.2	4.7	0.1	4941.6
23847	4.1	4.8	0.1	4985.8
23848	4.2	4.5	0.1	4907.
23849	4.1	4.6	0.1	4948.
23850	4.2	4.3	0.1	4875.8
23851	4.1	4.4	0.1	4913.7
23852	4.2	4.1	0.1	4848.5
23853	4.1	4.2	0.1	4883.3
23854	4.2	3.9	0.1	4825.4
23855	4.1	4.	0.1	4857.1
23856	4.2	3.7	0.1	4806.6
23857	4.1	3.8	0.1	4835.3
23858	4.2	3.5	0.1	4792.3
23859	4.1	3.6	0.1	4818.2
23860	4.2	3.3	0.1	4782.8
23861	4.1	3.4	0.1	4805.8
23862	4.2	3.1	0.1	4777.9
23863	4.1	3.2	0.1	4798.4
23864	4.2	2.9	0.1	4777.9
23865	4.1	3.	0.1	4795.9
23866	4.2	2.7	0.1	4782.8
23867	4.1	2.8	0.1	4798.4
23868	4.2	2.5	0.1	4792.3
23869	4.1	2.6	0.1	4805.8
23870	4.2	2.3	0.1	4806.6
23871	4.1	2.4	0.1	4818.2
23872	4.2	2.1	0.1	4825.4
23873	4.1	2.2	0.1	4835.3
23874	4.2	1.9	0.1	4848.5
23875	4.1	2.	0.1	4857.1
23876	4.2	1.7	0.1	4875.8
23877	4.1	1.8	0.1	4883.3
23878	4.2	1.5	0.1	4907.
23879	4.1	1.6	0.1	4913.7
23880	4.2	1.3	0.1	4941.6
23881	4.1	1.4	0.1	4948.
23882	4.2	1.1	0.1	4979.5
23883	4.1	1.2	0.1	4985.8
23884	4.2	0.9	0.1	5020.
23885	4.1	1.	0.1	5026.7
23886	4.2	0.7	0.1	5062.8
23887	4.1	0.8	0.1	5070.2
23888	4.2	0.5	0.1	5107.5
23889	4.1	0.6	0.1	5115.9
23890	4.2	0.3	0.1	5154.
23891	4.1	0.4	0.1	5163.3
23892	4.1	0.2	0.1	5213.
23893	4.2	0.1	0.1	5195.
23894	4.	5.7	0.1	5222.3
23895	3.9	5.8	0.1	5283.7
23896	4.	5.9	0.1	5266.
23897	4.	5.5	0.1	5171.7
23898	3.9	5.6	0.1	5229.6
23899	4.	5.3	0.1	5123.2
23900	3.9	5.4	0.1	5178.1
23901	4.	5.1	0.1	5076.9
23902	3.9	5.2	0.1	5128.7
23903	4.	4.9	0.1	5033.
23904	3.9	5.	0.1	5081.6
23905	4.	4.7	0.1	4992.2
23906	3.9	4.8	0.1	5037.5
23907	4.	4.5	0.1	4954.8
23908	3.9	4.6	0.1	4996.8
23909	4.	4.3	0.1	4921.2
23910	3.9	4.4	0.1	4959.9
23911	4.	4.1	0.1	4891.9
23912	3.9	4.2	0.1	4927.2
23913	4.	3.9	0.1	4867.1
23914	3.9	4.	0.1	4899.1
23915	4.	3.7	0.1	4846.9
23916	3.9	3.8	0.1	4875.9
23917	4.	3.5	0.1	4831.7
23918	3.9	3.6	0.1	4857.6
23919	4.	3.3	0.1	4821.5
23920	3.9	3.4	0.1	4844.4
23921	4.	3.1	0.1	4816.3
23922	3.9	3.2	0.1	4836.5
23923	4.	2.9	0.1	4816.3
23924	3.9	3.	0.1	4833.8
23925	4.	2.7	0.1	4821.5
23926	3.9	2.8	0.1	4836.5
23927	4.	2.5	0.1	4831.7
23928	3.9	2.6	0.1	4844.4
23929	4.	2.3	0.1	4846.9
23930	3.9	2.4	0.1	4857.6
23931	4.	2.1	0.1	4867.1
23932	3.9	2.2	0.1	4875.9
23933	4.	1.9	0.1	4891.9
23934	3.9	2.	0.1	4899.1
23935	4.	1.7	0.1	4921.2
23936	3.9	1.8	0.1	4927.2
23937	4.	1.5	0.1	4954.8
23938	3.9	1.6	0.1	4959.9
23939	4.	1.3	0.1	4992.2
23940	3.9	1.4	0.1	4996.8
23941	4.	1.1	0.1	5033.
23942	3.9	1.2	0.1	5037.5
23943	4.	0.9	0.1	5076.9
23944	3.9	1.	0.1	5081.6
23945	4.	0.7	0.1	5123.2
23946	3.9	0.8	0.1	5128.7
23947	4.	0.5	0.1	5171.7
23948	3.9	0.6	0.1	5178.1
23949	4.	0.3	0.1	5222.3
23950	3.9	0.4	0.1	5229.6
23951	3.9	0.2	0.1	5283.7
23952	4.	0.1	0.1	5266.
23953	3.8	5.7	0.1	5291.
23954	3.7	5.8	0.1	5355.1
23955	3.8	5.9	0.1	5337.6
23956	3.8	5.5	0.1	5236.
23957	3.7	5.6	0.1	5296.2
23958	3.8	5.3	0.1	5183.6
23959	3.7	5.4	0.1	5240.4
23960	3.8	5.1	0.1	5133.4
23961	3.7	5.2	0.1	5186.9
23962	3.8	4.9	0.1	5086.1
23963	3.7	5.	0.1	5136.1
23964	3.8	4.7	0.1	5042.1
23965	3.7	4.8	0.1	5088.5
23966	3.8	4.5	0.1	5001.8
23967	3.7	4.6	0.1	5044.8
23968	3.8	4.3	0.1	4965.9
23969	3.7	4.4	0.1	5005.2
23970	3.8	4.1	0.1	4934.5
23971	3.7	4.2	0.1	4970.3
23972	3.8	3.9	0.1	4907.9
23973	3.7	4.	0.1	4940.4
23974	3.8	3.7	0.1	4886.5
23975	3.7	3.8	0.1	4915.7
23976	3.8	3.5	0.1	4870.3
23977	3.7	3.6	0.1	4896.3
23978	3.8	3.3	0.1	4859.4
23979	3.7	3.4	0.1	4882.4
23980	3.8	3.1	0.1	4854.
23981	3.7	3.2	0.1	4874.
23982	3.8	2.9	0.1	4854.
23983	3.7	3.	0.1	4871.2
23984	3.8	2.7	0.1	4859.4
23985	3.7	2.8	0.1	4874.
23986	3.8	2.5	0.1	4870.3
23987	3.7	2.6	0.1	4882.4
23988	3.8	2.3	0.1	4886.5
23989	3.7	2.4	0.1	4896.3
23990	3.8	2.1	0.1	4907.9
23991	3.7	2.2	0.1	4915.7
23992	3.8	1.9	0.1	4934.5
23993	3.7	2.	0.1	4940.4
23994	3.8	1.7	0.1	4965.9
23995	3.7	1.8	0.1	4970.3
23996	3.8	1.5	0.1	5001.8
23997	3.7	1.6	0.1	5005.2
23998	3.8	1.3	0.1	5042.1
23999	3.7	1.4	0.1	5044.8
24000	3.8	1.1	0.1	5086.1
24001	3.7	1.2	0.1	5088.5
24002	3.8	0.9	0.1	5133.4
24003	3.7	1.	0.1	5136.1
24004	3.8	0.7	0.1	5183.6
24005	3.7	0.8	0.1	5186.9
24006	3.8	0.5	0.1	5236.
24007	3.7	0.6	0.1	5240.4
24008	3.8	0.3	0.1	5291.
24009	3.7	0.4	0.1	5296.2
24010	3.7	0.2	0.1	5355.1
24011	3.8	0.1	0.1	5337.6
24012	3.6	5.7	0.1	5360.2
24013	3.5	5.8	0.1	5427.1
24014	3.6	5.9	0.1	5409.7
24015	3.6	5.5	0.1	5300.5
24016	3.5	5.6	0.1	5362.8
24017	3.6	5.3	0.1	5243.7
24018	3.5	5.4	0.1	5302.5
24019	3.6	5.1	0.1	5189.5
24020	3.5	5.2	0.1	5244.7
24021	3.6	4.9	0.1	5138.5
24022	3.5	5.	0.1	5189.9
24023	3.6	4.7	0.1	5091.2
24024	3.5	4.8	0.1	5138.8
24025	3.6	4.5	0.1	5048.1
24026	3.5	4.6	0.1	5091.9
24027	3.6	4.3	0.1	5009.7
24028	3.5	4.4	0.1	5049.8
24029	3.6	4.1	0.1	4976.3
24030	3.5	4.2	0.1	5012.7
24031	3.6	3.9	0.1	4948.1
24032	3.5	4.	0.1	4981.
24033	3.6	3.7	0.1	4925.5
24034	3.5	3.8	0.1	4955.
24035	3.6	3.5	0.1	4908.4
24036	3.5	3.6	0.1	4934.6
24037	3.6	3.3	0.1	4897.
24038	3.5	3.4	0.1	4920.
24039	3.6	3.1	0.1	4891.2
24040	3.5	3.2	0.1	4911.3
24041	3.6	2.9	0.1	4891.2
24042	3.5	3.	0.1	4908.4
24043	3.6	2.7	0.1	4897.
24044	3.5	2.8	0.1	4911.3
24045	3.6	2.5	0.1	4908.4
24046	3.5	2.6	0.1	4920.
24047	3.6	2.3	0.1	4925.5
24048	3.5	2.4	0.1	4934.6
24049	3.6	2.1	0.1	4948.1
24050	3.5	2.2	0.1	4955.
24051	3.6	1.9	0.1	4976.3
24052	3.5	2.	0.1	4981.
24053	3.6	1.7	0.1	5009.7
24054	3.5	1.8	0.1	5012.7
24055	3.6	1.5	0.1	5048.1
24056	3.5	1.6	0.1	5049.8
24057	3.6	1.3	0.1	5091.2
24058	3.5	1.4	0.1	5091.9
24059	3.6	1.1	0.1	5138.5
24060	3.5	1.2	0.1	5138.8
24061	3.6	0.9	0.1	5189.5
24062	3.5	1.	0.1	5189.9
24063	3.6	0.7	0.1	5243.7
24064	3.5	0.8	0.1	5244.7
24065	3.6	0.5	0.1	5300.5
24066	3.5	0.6	0.1	5302.5
24067	3.6	0.3	0.1	5360.2
24068	3.5	0.4	0.1	5362.8
24069	3.5	0.2	0.1	5427.1
24070	3.6	0.1	0.1	5409.7
24071	3.4	5.7	0.1	5429.7
24072	3.3	5.8	0.1	5499.5
24073	3.4	5.9	0.1	5482.
24074	3.4	5.5	0.1	5364.8
24075	3.3	5.6	0.1	5429.4
24076	3.4	5.3	0.1	5303.4
24077	3.3	5.4	0.1	5364.1
24078	3.4	5.1	0.1	5245.
24079	3.3	5.2	0.1	5301.7
24080	3.4	4.9	0.1	5190.1
24081	3.3	5.	0.1	5242.9
24082	3.4	4.7	0.1	5139.5
24083	3.3	4.8	0.1	5188.1
24084	3.4	4.5	0.1	5093.5
24085	3.3	4.6	0.1	5138.1
24086	3.4	4.3	0.1	5052.7
24087	3.3	4.4	0.1	5093.4
24088	3.4	4.1	0.1	5017.4
24089	3.3	4.2	0.1	5054.3
24090	3.4	3.9	0.1	4987.8
24091	3.3	4.	0.1	5021.1
24092	3.4	3.7	0.1	4964.1
24093	3.3	3.8	0.1	4993.9
24094	3.4	3.5	0.1	4946.2
24095	3.3	3.6	0.1	4972.8
24096	3.4	3.3	0.1	4934.3
24097	3.3	3.4	0.1	4957.7
24098	3.4	3.1	0.1	4928.4
24099	3.3	3.2	0.1	4948.7
24100	3.4	2.9	0.1	4928.4
24101	3.3	3.	0.1	4945.7
24102	3.4	2.7	0.1	4934.3
24103	3.3	2.8	0.1	4948.7
24104	3.4	2.5	0.1	4946.2
24105	3.3	2.6	0.1	4957.7
24106	3.4	2.3	0.1	4964.1
24107	3.3	2.4	0.1	4972.8
24108	3.4	2.1	0.1	4987.8
24109	3.3	2.2	0.1	4993.9
24110	3.4	1.9	0.1	5017.4
24111	3.3	2.	0.1	5021.1
24112	3.4	1.7	0.1	5052.7
24113	3.3	1.8	0.1	5054.3
24114	3.4	1.5	0.1	5093.5
24115	3.3	1.6	0.1	5093.4
24116	3.4	1.3	0.1	5139.5
24117	3.3	1.4	0.1	5138.1
24118	3.4	1.1	0.1	5190.1
24119	3.3	1.2	0.1	5188.1
24120	3.4	0.9	0.1	5245.
24121	3.3	1.	0.1	5242.9
24122	3.4	0.7	0.1	5303.4
24123	3.3	0.8	0.1	5301.7
24124	3.4	0.5	0.1	5364.8
24125	3.3	0.6	0.1	5364.1
24126	3.4	0.3	0.1	5429.7
24127	3.3	0.4	0.1	5429.4
24128	3.3	0.2	0.1	5499.5
24129	3.4	0.1	0.1	5482.
24130	3.2	5.7	0.1	5499.2
24131	3.1	5.8	0.1	5572.1
24132	3.2	5.9	0.1	5554.4
24133	3.2	5.5	0.1	5428.6
24134	3.1	5.6	0.1	5495.5
24135	3.2	5.3	0.1	5362.4
24136	3.1	5.4	0.1	5424.9
24137	3.2	5.1	0.1	5299.5
24138	3.1	5.2	0.1	5357.8
24139	3.2	4.9	0.1	5240.8
24140	3.1	5.	0.1	5294.6
24141	3.2	4.7	0.1	5186.7
24142	3.1	4.8	0.1	5236.2
24143	3.2	4.5	0.1	5138.
24144	3.1	4.6	0.1	5183.3
24145	3.2	4.3	0.1	5095.
24146	3.1	4.4	0.1	5136.2
24147	3.2	4.1	0.1	5058.
24148	3.1	4.2	0.1	5095.4
24149	3.2	3.9	0.1	5027.2
24150	3.1	4.	0.1	5061.
24151	3.2	3.7	0.1	5002.6
24152	3.1	3.8	0.1	5032.9
24153	3.2	3.5	0.1	4984.2
24154	3.1	3.6	0.1	5011.3
24155	3.2	3.3	0.1	4972.
24156	3.1	3.4	0.1	4995.9
24157	3.2	3.1	0.1	4965.9
24158	3.1	3.2	0.1	4986.8
24159	3.2	2.9	0.1	4965.9
24160	3.1	3.	0.1	4983.7
24161	3.2	2.7	0.1	4972.
24162	3.1	2.8	0.1	4986.8
24163	3.2	2.5	0.1	4984.2
24164	3.1	2.6	0.1	4995.9
24165	3.2	2.3	0.1	5002.6
24166	3.1	2.4	0.1	5011.3
24167	3.2	2.1	0.1	5027.2
24168	3.1	2.2	0.1	5032.9
24169	3.2	1.9	0.1	5058.
24170	3.1	2.	0.1	5061.
24171	3.2	1.7	0.1	5095.
24172	3.1	1.8	0.1	5095.4
24173	3.2	1.5	0.1	5138.
24174	3.1	1.6	0.1	5136.2
24175	3.2	1.3	0.1	5186.7
24176	3.1	1.4	0.1	5183.3
24177	3.2	1.1	0.1	5240.8
24178	3.1	1.2	0.1	5236.2
24179	3.2	0.9	0.1	5299.5
24180	3.1	1.	0.1	5294.6
24181	3.2	0.7	0.1	5362.4
24182	3.1	0.8	0.1	5357.8
24183	3.2	0.5	0.1	5428.6
24184	3.1	0.6	0.1	5424.9
24185	3.2	0.3	0.1	5499.2
24186	3.1	0.4	0.1	5495.5
24187	3.1	0.2	0.1	5572.1
24188	3.2	0.1	0.1	5554.4
24189	3.	5.7	0.1	5568.3
24190	2.9	5.8	0.1	5644.3
24191	3.	5.9	0.1	5626.3
24192	3.	5.5	0.1	5491.7
24193	2.9	5.6	0.1	5560.7
24194	3.	5.3	0.1	5420.2
24195	2.9	5.4	0.1	5484.4
24196	3.	5.1	0.1	5352.8
24197	2.9	5.2	0.1	5412.3
24198	3.	4.9	0.1	5290.
24199	2.9	5.	0.1	5344.8
24200	3.	4.7	0.1	5232.7
24201	2.9	4.8	0.1	5282.8
24202	3.	4.5	0.1	5181.4
24203	2.9	4.6	0.1	5227.1
24204	3.	4.3	0.1	5136.5
24205	2.9	4.4	0.1	5178.1
24206	3.	4.1	0.1	5098.3
24207	2.9	4.2	0.1	5136.
24208	3.	3.9	0.1	5066.6
24209	2.9	4.	0.1	5100.8
24210	3.	3.7	0.1	5041.6
24211	2.9	3.8	0.1	5072.5
24212	3.	3.5	0.1	5023.
24213	2.9	3.6	0.1	5050.7
24214	3.	3.3	0.1	5010.6
24215	2.9	3.4	0.1	5035.4
24216	3.	3.1	0.1	5004.5
24217	2.9	3.2	0.1	5026.4
24218	3.	2.9	0.1	5004.5
24219	2.9	3.	0.1	5023.3
24220	3.	2.7	0.1	5010.6
24221	2.9	2.8	0.1	5026.4
24222	3.	2.5	0.1	5023.
24223	2.9	2.6	0.1	5035.4
24224	3.	2.3	0.1	5041.6
24225	2.9	2.4	0.1	5050.7
24226	3.	2.1	0.1	5066.6
24227	2.9	2.2	0.1	5072.5
24228	3.	1.9	0.1	5098.3
24229	2.9	2.	0.1	5100.8
24230	3.	1.7	0.1	5136.5
24231	2.9	1.8	0.1	5136.
24232	3.	1.5	0.1	5181.4
24233	2.9	1.6	0.1	5178.1
24234	3.	1.3	0.1	5232.7
24235	2.9	1.4	0.1	5227.1
24236	3.	1.1	0.1	5290.
24237	2.9	1.2	0.1	5282.8
24238	3.	0.9	0.1	5352.8
24239	2.9	1.	0.1	5344.8
24240	3.	0.7	0.1	5420.2
24241	2.9	0.8	0.1	5412.3
24242	3.	0.5	0.1	5491.7
24243	2.9	0.6	0.1	5484.4
24244	3.	0.3	0.1	5568.3
24245	2.9	0.4	0.1	5560.7
24246	2.9	0.2	0.1	5644.3
24247	3.	0.1	0.1	5626.3
24248	2.8	5.7	0.1	5636.6
24249	2.7	5.8	0.1	5715.8
24250	2.8	5.9	0.1	5697.3
24251	2.8	5.5	0.1	5553.4
24252	2.7	5.6	0.1	5624.3
24253	2.8	5.3	0.1	5476.4
24254	2.7	5.4	0.1	5542.
24255	2.8	5.1	0.1	5404.2
24256	2.7	5.2	0.1	5464.6
24257	2.8	4.9	0.1	5337.5
24258	2.7	5.	0.1	5392.8
24259	2.8	4.7	0.1	5277.1
24260	2.7	4.8	0.1	5327.5
24261	2.8	4.5	0.1	5223.7
24262	2.7	4.6	0.1	5269.5
24263	2.8	4.3	0.1	5177.4
24264	2.7	4.4	0.1	5219.
24265	2.8	4.1	0.1	5138.4
24266	2.7	4.2	0.1	5176.3
24267	2.8	3.9	0.1	5106.5
24268	2.7	4.	0.1	5141.1
24269	2.8	3.7	0.1	5081.5
24270	2.7	3.8	0.1	5113.1
24271	2.8	3.5	0.1	5063.1
24272	2.7	3.6	0.1	5091.9
24273	2.8	3.3	0.1	5051.1
24274	2.7	3.4	0.1	5077.1
24275	2.8	3.1	0.1	5045.1
24276	2.7	3.2	0.1	5068.4
24277	2.8	2.9	0.1	5045.1
24278	2.7	3.	0.1	5065.5
24279	2.8	2.7	0.1	5051.1
24280	2.7	2.8	0.1	5068.4
24281	2.8	2.5	0.1	5063.1
24282	2.7	2.6	0.1	5077.1
24283	2.8	2.3	0.1	5081.5
24284	2.7	2.4	0.1	5091.9
24285	2.8	2.1	0.1	5106.5
24286	2.7	2.2	0.1	5113.1
24287	2.8	1.9	0.1	5138.4
24288	2.7	2.	0.1	5141.1
24289	2.8	1.7	0.1	5177.4
24290	2.7	1.8	0.1	5176.3
24291	2.8	1.5	0.1	5223.7
24292	2.7	1.6	0.1	5219.
24293	2.8	1.3	0.1	5277.1
24294	2.7	1.4	0.1	5269.5
24295	2.8	1.1	0.1	5337.5
24296	2.7	1.2	0.1	5327.5
24297	2.8	0.9	0.1	5404.2
24298	2.7	1.	0.1	5392.8
24299	2.8	0.7	0.1	5476.4
24300	2.7	0.8	0.1	5464.6
24301	2.8	0.5	0.1	5553.4
24302	2.7	0.6	0.1	5542.
24303	2.8	0.3	0.1	5636.6
24304	2.7	0.4	0.1	5624.3
24305	2.7	0.2	0.1	5715.8
24306	2.8	0.1	0.1	5697.3
24307	2.6	5.7	0.1	5703.3
24308	2.5	5.8	0.1	5785.5
24309	2.6	5.9	0.1	5766.6
24310	2.6	5.5	0.1	5612.8
24311	2.5	5.6	0.1	5685.5
24312	2.6	5.3	0.1	5530.1
24313	2.5	5.4	0.1	5596.6
24314	2.6	5.1	0.1	5453.
24315	2.5	5.2	0.1	5513.8
24316	2.6	4.9	0.1	5382.6
24317	2.5	5.	0.1	5437.8
24318	2.6	4.7	0.1	5319.7
24319	2.5	4.8	0.1	5369.7
24320	2.6	4.5	0.1	5264.7
24321	2.5	4.6	0.1	5310.
24322	2.6	4.3	0.1	5217.8
24323	2.5	4.4	0.1	5259.1
24324	2.6	4.1	0.1	5178.9
24325	2.5	4.2	0.1	5216.7
24326	2.6	3.9	0.1	5147.5
24327	2.5	4.	0.1	5182.5
24328	2.6	3.7	0.1	5123.3
24329	2.5	3.8	0.1	5155.7
24330	2.6	3.5	0.1	5105.7
24331	2.5	3.6	0.1	5135.8
24332	2.6	3.3	0.1	5094.3
24333	2.5	3.4	0.1	5122.
24334	2.6	3.1	0.1	5088.6
24335	2.5	3.2	0.1	5114.
24336	2.6	2.9	0.1	5088.6
24337	2.5	3.	0.1	5111.4
24338	2.6	2.7	0.1	5094.3
24339	2.5	2.8	0.1	5114.
24340	2.6	2.5	0.1	5105.7
24341	2.5	2.6	0.1	5122.
24342	2.6	2.3	0.1	5123.3
24343	2.5	2.4	0.1	5135.8
24344	2.6	2.1	0.1	5147.5
24345	2.5	2.2	0.1	5155.7
24346	2.6	1.9	0.1	5178.9
24347	2.5	2.	0.1	5182.5
24348	2.6	1.7	0.1	5217.8
24349	2.5	1.8	0.1	5216.7
24350	2.6	1.5	0.1	5264.7
24351	2.5	1.6	0.1	5259.1
24352	2.6	1.3	0.1	5319.7
24353	2.5	1.4	0.1	5310.
24354	2.6	1.1	0.1	5382.6
24355	2.5	1.2	0.1	5369.7
24356	2.6	0.9	0.1	5453.
24357	2.5	1.	0.1	5437.8
24358	2.6	0.7	0.1	5530.1
24359	2.5	0.8	0.1	5513.8
24360	2.6	0.5	0.1	5612.8
24361	2.5	0.6	0.1	5596.6
24362	2.6	0.3	0.1	5703.3
24363	2.5	0.4	0.1	5685.5
24364	2.5	0.2	0.1	5785.5
24365	2.6	0.1	0.1	5766.6
24366	2.4	5.7	0.1	5767.4
24367	2.3	5.8	0.1	5852.4
24368	2.4	5.9	0.1	5833.1
24369	2.4	5.5	0.1	5669.1
24370	2.3	5.6	0.1	5742.7
24371	2.4	5.3	0.1	5580.2
24372	2.3	5.4	0.1	5647.
24373	2.4	5.1	0.1	5498.4
24374	2.3	5.2	0.1	5558.8
24375	2.4	4.9	0.1	5424.6
24376	2.3	5.	0.1	5478.9
24377	2.4	4.7	0.1	5359.8
24378	2.3	4.8	0.1	5408.6
24379	2.4	4.5	0.1	5304.2
24380	2.3	4.6	0.1	5348.4
24381	2.4	4.3	0.1	5257.8
24382	2.3	4.4	0.1	5298.2
24383	2.4	4.1	0.1	5220.1
24384	2.3	4.2	0.1	5257.6
24385	2.4	3.9	0.1	5190.4
24386	2.3	4.	0.1	5225.6
24387	2.4	3.7	0.1	5168.
24388	2.3	3.8	0.1	5201.3
24389	2.4	3.5	0.1	5151.9
24390	2.3	3.6	0.1	5183.6
24391	2.4	3.3	0.1	5141.6
24392	2.3	3.4	0.1	5171.7
24393	2.4	3.1	0.1	5136.6
24394	2.3	3.2	0.1	5164.8
24395	2.4	2.9	0.1	5136.6
24396	2.3	3.	0.1	5162.6
24397	2.4	2.7	0.1	5141.6
24398	2.3	2.8	0.1	5164.8
24399	2.4	2.5	0.1	5151.9
24400	2.3	2.6	0.1	5171.7
24401	2.4	2.3	0.1	5168.
24402	2.3	2.4	0.1	5183.6
24403	2.4	2.1	0.1	5190.4
24404	2.3	2.2	0.1	5201.3
24405	2.4	1.9	0.1	5220.1
24406	2.3	2.	0.1	5225.6
24407	2.4	1.7	0.1	5257.8
24408	2.3	1.8	0.1	5257.6
24409	2.4	1.5	0.1	5304.2
24410	2.3	1.6	0.1	5298.2
24411	2.4	1.3	0.1	5359.8
24412	2.3	1.4	0.1	5348.4
24413	2.4	1.1	0.1	5424.6
24414	2.3	1.2	0.1	5408.6
24415	2.4	0.9	0.1	5498.4
24416	2.3	1.	0.1	5478.9
24417	2.4	0.7	0.1	5580.2
24418	2.3	0.8	0.1	5558.8
24419	2.4	0.5	0.1	5669.1
24420	2.3	0.6	0.1	5647.
24421	2.4	0.3	0.1	5767.4
24422	2.3	0.4	0.1	5742.7
24423	2.3	0.2	0.1	5852.4
24424	2.4	0.1	0.1	5833.1
24425	2.2	5.7	0.1	5827.5
24426	2.1	5.8	0.1	5914.8
24427	2.2	5.9	0.1	5895.2
24428	2.2	5.5	0.1	5720.4
24429	2.1	5.6	0.1	5794.3
24430	2.2	5.3	0.1	5625.3
24431	2.1	5.4	0.1	5691.3
24432	2.2	5.1	0.1	5539.
24433	2.1	5.2	0.1	5597.7
24434	2.2	4.9	0.1	5462.6
24435	2.1	5.	0.1	5514.7
24436	2.2	4.7	0.1	5396.9
24437	2.1	4.8	0.1	5443.4
24438	2.2	4.5	0.1	5342.1
24439	2.1	4.6	0.1	5384.3
24440	2.2	4.3	0.1	5297.7
24441	2.1	4.4	0.1	5336.7
24442	2.2	4.1	0.1	5262.8
24443	2.1	4.2	0.1	5299.6
24444	2.2	3.9	0.1	5236.3
24445	2.1	4.	0.1	5271.7
24446	2.2	3.7	0.1	5216.8
24447	2.1	3.8	0.1	5251.3
24448	2.2	3.5	0.1	5203.2
24449	2.1	3.6	0.1	5237.1
24450	2.2	3.3	0.1	5194.7
24451	2.1	3.4	0.1	5227.8
24452	2.2	3.1	0.1	5190.6
24453	2.1	3.2	0.1	5222.6
24454	2.2	2.9	0.1	5190.6
24455	2.1	3.	0.1	5220.9
24456	2.2	2.7	0.1	5194.7
24457	2.1	2.8	0.1	5222.6
24458	2.2	2.5	0.1	5203.2
24459	2.1	2.6	0.1	5227.8
24460	2.2	2.3	0.1	5216.8
24461	2.1	2.4	0.1	5237.1
24462	2.2	2.1	0.1	5236.3
24463	2.1	2.2	0.1	5251.3
24464	2.2	1.9	0.1	5262.8
24465	2.1	2.	0.1	5271.7
24466	2.2	1.7	0.1	5297.7
24467	2.1	1.8	0.1	5299.6
24468	2.2	1.5	0.1	5342.1
24469	2.1	1.6	0.1	5336.7
24470	2.2	1.3	0.1	5396.9
24471	2.1	1.4	0.1	5384.3
24472	2.2	1.1	0.1	5462.6
24473	2.1	1.2	0.1	5443.4
24474	2.2	0.9	0.1	5539.
24475	2.1	1.	0.1	5514.7
24476	2.2	0.7	0.1	5625.3
24477	2.1	0.8	0.1	5597.7
24478	2.2	0.5	0.1	5720.4
24479	2.1	0.6	0.1	5691.3
24480	2.2	0.3	0.1	5827.5
24481	2.1	0.4	0.1	5794.3
24482	2.1	0.2	0.1	5914.8
24483	2.2	0.1	0.1	5895.2
24484	2.	5.7	0.1	5881.3
24485	1.9	5.8	0.1	5970.3
24486	2.	5.9	0.1	5951.
24487	2.	5.5	0.1	5764.8
24488	1.9	5.6	0.1	5837.6
24489	2.	5.3	0.1	5663.3
24490	1.9	5.4	0.1	5726.9
24491	2.	5.1	0.1	5573.
24492	1.9	5.2	0.1	5628.4
24493	2.	4.9	0.1	5495.1
24494	1.9	5.	0.1	5543.4
24495	2.	4.7	0.1	5430.3
24496	1.9	4.8	0.1	5473.1
24497	2.	4.5	0.1	5378.4
24498	1.9	4.6	0.1	5417.3
24499	2.	4.3	0.1	5338.2
24500	1.9	4.4	0.1	5374.9
24501	2.	4.1	0.1	5308.1
24502	1.9	4.2	0.1	5343.8
24503	2.	3.9	0.1	5286.4
24504	1.9	4.	0.1	5322.1
24505	2.	3.7	0.1	5271.4
24506	1.9	3.8	0.1	5307.4
24507	2.	3.5	0.1	5261.4
24508	1.9	3.6	0.1	5298.
24509	2.	3.3	0.1	5255.5
24510	1.9	3.4	0.1	5292.4
24511	2.	3.1	0.1	5252.7
24512	1.9	3.2	0.1	5289.5
24513	2.	2.9	0.1	5252.7
24514	1.9	3.	0.1	5288.6
24515	2.	2.7	0.1	5255.5
24516	1.9	2.8	0.1	5289.5
24517	2.	2.5	0.1	5261.4
24518	1.9	2.6	0.1	5292.4
24519	2.	2.3	0.1	5271.4
24520	1.9	2.4	0.1	5298.
24521	2.	2.1	0.1	5286.4
24522	1.9	2.2	0.1	5307.4
24523	2.	1.9	0.1	5308.1
24524	1.9	2.	0.1	5322.1
24525	2.	1.7	0.1	5338.2
24526	1.9	1.8	0.1	5343.8
24527	2.	1.5	0.1	5378.4
24528	1.9	1.6	0.1	5374.9
24529	2.	1.3	0.1	5430.3
24530	1.9	1.4	0.1	5417.3
24531	2.	1.1	0.1	5495.1
24532	1.9	1.2	0.1	5473.1
24533	2.	0.9	0.1	5573.
24534	1.9	1.	0.1	5543.4
24535	2.	0.7	0.1	5663.3
24536	1.9	0.8	0.1	5628.4
24537	2.	0.5	0.1	5764.8
24538	1.9	0.6	0.1	5726.9
24539	2.	0.3	0.1	5881.3
24540	1.9	0.4	0.1	5837.6
24541	1.9	0.2	0.1	5970.3
24542	2.	0.1	0.1	5951.
24543	1.8	5.7	0.1	5926.1
24544	1.7	5.8	0.1	6015.3
24545	1.8	5.9	0.1	5997.4
24546	1.8	5.5	0.1	5799.2
24547	1.7	5.6	0.1	5868.9
24548	1.8	5.3	0.1	5691.4
24549	1.7	5.4	0.1	5750.2
24550	1.8	5.1	0.1	5598.2
24551	1.7	5.2	0.1	5647.8
24552	1.8	4.9	0.1	5520.8
24553	1.7	5.	0.1	5562.9
24554	1.8	4.7	0.1	5459.5
24555	1.7	4.8	0.1	5496.6
24556	1.8	4.5	0.1	5413.3
24557	1.7	4.6	0.1	5447.6
24558	1.8	4.3	0.1	5380.1
24559	1.7	4.4	0.1	5413.7
24560	1.8	4.1	0.1	5357.4
24561	1.7	4.2	0.1	5391.7
24562	1.8	3.9	0.1	5342.8
24563	1.7	4.	0.1	5378.8
24564	1.8	3.7	0.1	5333.9
24565	1.7	3.8	0.1	5371.9
24566	1.8	3.5	0.1	5328.8
24567	1.7	3.6	0.1	5368.9
24568	1.8	3.3	0.1	5326.3
24569	1.7	3.4	0.1	5368.
24570	1.8	3.1	0.1	5325.2
24571	1.7	3.2	0.1	5367.9
24572	1.8	2.9	0.1	5325.2
24573	1.7	3.	0.1	5368.
24574	1.8	2.7	0.1	5326.3
24575	1.7	2.8	0.1	5367.9
24576	1.8	2.5	0.1	5328.8
24577	1.7	2.6	0.1	5368.
24578	1.8	2.3	0.1	5333.9
24579	1.7	2.4	0.1	5368.9
24580	1.8	2.1	0.1	5342.8
24581	1.7	2.2	0.1	5371.9
24582	1.8	1.9	0.1	5357.4
24583	1.7	2.	0.1	5378.8
24584	1.8	1.7	0.1	5380.1
24585	1.7	1.8	0.1	5391.8
24586	1.8	1.5	0.1	5413.3
24587	1.7	1.6	0.1	5413.7
24588	1.8	1.3	0.1	5459.5
24589	1.7	1.4	0.1	5447.6
24590	1.8	1.1	0.1	5520.8
24591	1.7	1.2	0.1	5496.6
24592	1.8	0.9	0.1	5598.2
24593	1.7	1.	0.1	5562.9
24594	1.8	0.7	0.1	5691.4
24595	1.7	0.8	0.1	5647.8
24596	1.8	0.5	0.1	5799.2
24597	1.7	0.6	0.1	5750.2
24598	1.8	0.3	0.1	5926.1
24599	1.7	0.4	0.1	5868.9
24600	1.7	0.2	0.1	6015.3
24601	1.8	0.1	0.1	5997.4
24602	1.6	5.7	0.1	5957.5
24603	1.5	5.8	0.1	6044.9
24604	1.6	5.9	0.1	6030.1
24605	1.6	5.5	0.1	5819.3
24606	1.5	5.6	0.1	5882.8
24607	1.6	5.3	0.1	5705.8
24608	1.5	5.4	0.1	5756.4
24609	1.6	5.1	0.1	5611.6
24610	1.5	5.2	0.1	5651.9
24611	1.6	4.9	0.1	5537.8
24612	1.5	5.	0.1	5570.8
24613	1.6	4.7	0.1	5483.9
24614	1.5	4.8	0.1	5513.
24615	1.6	4.5	0.1	5447.3
24616	1.5	4.6	0.1	5475.8
24617	1.6	4.3	0.1	5424.8
24618	1.5	4.4	0.1	5454.9
24619	1.6	4.1	0.1	5412.7
24620	1.5	4.2	0.1	5445.9
24621	1.6	3.9	0.1	5407.6
24622	1.5	4.	0.1	5444.6
24623	1.6	3.7	0.1	5406.7
24624	1.5	3.8	0.1	5447.8
24625	1.6	3.5	0.1	5407.9
24626	1.5	3.6	0.1	5452.6
24627	1.6	3.3	0.1	5409.5
24628	1.5	3.4	0.1	5457.4
24629	1.6	3.1	0.1	5410.5
24630	1.5	3.2	0.1	5460.7
24631	1.6	2.9	0.1	5410.5
24632	1.5	3.	0.1	5461.9
24633	1.6	2.7	0.1	5409.5
24634	1.5	2.8	0.1	5460.7
24635	1.6	2.5	0.1	5407.9
24636	1.5	2.6	0.1	5457.4
24637	1.6	2.3	0.1	5406.7
24638	1.5	2.4	0.1	5452.6
24639	1.6	2.1	0.1	5407.6
24640	1.5	2.2	0.1	5447.8
24641	1.6	1.9	0.1	5412.7
24642	1.5	2.	0.1	5444.6
24643	1.6	1.7	0.1	5424.8
24644	1.5	1.8	0.1	5445.9
24645	1.6	1.5	0.1	5447.3
24646	1.5	1.6	0.1	5454.9
24647	1.6	1.3	0.1	5483.9
24648	1.5	1.4	0.1	5475.8
24649	1.6	1.1	0.1	5537.8
24650	1.5	1.2	0.1	5513.
24651	1.6	0.9	0.1	5611.6
24652	1.5	1.	0.1	5570.8
24653	1.6	0.7	0.1	5705.8
24654	1.5	0.8	0.1	5651.9
24655	1.6	0.5	0.1	5819.3
24656	1.5	0.6	0.1	5756.4
24657	1.6	0.3	0.1	5957.5
24658	1.5	0.4	0.1	5882.8
24659	1.5	0.2	0.1	6044.9
24660	1.6	0.1	0.1	6030.1
24661	1.4	5.7	0.1	5969.3
24662	1.3	5.8	0.1	6051.
24663	1.4	5.9	0.1	6042.8
24664	1.4	5.5	0.1	5819.
24665	1.3	5.6	0.1	5871.1
24666	1.4	5.3	0.1	5701.4
24667	1.3	5.4	0.1	5737.8
24668	1.4	5.1	0.1	5609.9
24669	1.3	5.2	0.1	5635.3
24670	1.4	4.9	0.1	5544.9
24671	1.3	5.	0.1	5564.2
24672	1.4	4.7	0.1	5504.
24673	1.3	4.8	0.1	5522.2
24674	1.4	4.5	0.1	5482.6
24675	1.3	4.6	0.1	5503.4
24676	1.4	4.3	0.1	5475.4
24677	1.3	4.4	0.1	5501.1
24678	1.4	4.1	0.1	5477.4
24679	1.3	4.2	0.1	5509.3
24680	1.4	3.9	0.1	5484.5
24681	1.3	4.	0.1	5522.8
24682	1.4	3.7	0.1	5493.4
24683	1.3	3.8	0.1	5537.9
24684	1.4	3.5	0.1	5501.9
24685	1.3	3.6	0.1	5551.9
24686	1.4	3.3	0.1	5508.4
24687	1.3	3.4	0.1	5563.
24688	1.4	3.1	0.1	5511.8
24689	1.3	3.2	0.1	5570.1
24690	1.4	2.9	0.1	5511.8
24691	1.3	3.	0.1	5572.5
24692	1.4	2.7	0.1	5508.4
24693	1.3	2.8	0.1	5570.1
24694	1.4	2.5	0.1	5501.9
24695	1.3	2.6	0.1	5563.
24696	1.4	2.3	0.1	5493.4
24697	1.3	2.4	0.1	5551.9
24698	1.4	2.1	0.1	5484.5
24699	1.3	2.2	0.1	5537.9
24700	1.4	1.9	0.1	5477.4
24701	1.3	2.	0.1	5522.8
24702	1.4	1.7	0.1	5475.4
24703	1.3	1.8	0.1	5509.3
24704	1.4	1.5	0.1	5482.6
24705	1.3	1.6	0.1	5501.1
24706	1.4	1.3	0.1	5504.
24707	1.3	1.4	0.1	5503.4
24708	1.4	1.1	0.1	5544.9
24709	1.3	1.2	0.1	5522.2
24710	1.4	0.9	0.1	5609.9
24711	1.3	1.	0.1	5564.2
24712	1.4	0.7	0.1	5701.4
24713	1.3	0.8	0.1	5635.3
24714	1.4	0.5	0.1	5819.
24715	1.3	0.6	0.1	5737.8
24716	1.4	0.3	0.1	5969.3
24717	1.3	0.4	0.1	5871.1
24718	1.3	0.2	0.1	6051.
24719	1.4	0.1	0.1	6042.8
24720	1.2	5.7	0.1	5951.4
24721	1.1	5.8	0.1	6021.5
24722	1.2	5.9	0.1	6025.5
24723	1.2	5.5	0.1	5788.5
24724	1.1	5.6	0.1	5822.
24725	1.2	5.3	0.1	5670.1
24726	1.1	5.4	0.1	5685.7
24727	1.2	5.1	0.1	5588.
24728	1.1	5.2	0.1	5593.5
24729	1.2	4.9	0.1	5540.1
24730	1.1	5.	0.1	5543.5
24731	1.2	4.7	0.1	5520.5
24732	1.1	4.8	0.1	5528.
24733	1.2	4.5	0.1	5521.1
24734	1.1	4.6	0.1	5536.6
24735	1.2	4.3	0.1	5534.5
24736	1.1	4.4	0.1	5559.5
24737	1.2	4.1	0.1	5554.3
24738	1.1	4.2	0.1	5589.1
24739	1.2	3.9	0.1	5575.9
24740	1.1	4.	0.1	5619.9
24741	1.2	3.7	0.1	5596.1
24742	1.1	3.8	0.1	5648.4
24743	1.2	3.5	0.1	5612.8
24744	1.1	3.6	0.1	5672.2
24745	1.2	3.3	0.1	5624.5
24746	1.1	3.4	0.1	5690.
24747	1.2	3.1	0.1	5630.6
24748	1.1	3.2	0.1	5701.
24749	1.2	2.9	0.1	5630.6
24750	1.1	3.	0.1	5704.7
24751	1.2	2.7	0.1	5624.5
24752	1.1	2.8	0.1	5701.
24753	1.2	2.5	0.1	5612.8
24754	1.1	2.6	0.1	5690.
24755	1.2	2.3	0.1	5596.1
24756	1.1	2.4	0.1	5672.2
24757	1.2	2.1	0.1	5575.9
24758	1.1	2.2	0.1	5648.4
24759	1.2	1.9	0.1	5554.3
24760	1.1	2.	0.1	5619.9
24761	1.2	1.7	0.1	5534.5
24762	1.1	1.8	0.1	5589.1
24763	1.2	1.5	0.1	5521.1
24764	1.1	1.6	0.1	5559.5
24765	1.2	1.3	0.1	5520.5
24766	1.1	1.4	0.1	5536.6
24767	1.2	1.1	0.1	5540.1
24768	1.1	1.2	0.1	5528.
24769	1.2	0.9	0.1	5588.
24770	1.1	1.	0.1	5543.5
24771	1.2	0.7	0.1	5670.1
24772	1.1	0.8	0.1	5593.5
24773	1.2	0.5	0.1	5788.5
24774	1.1	0.6	0.1	5685.7
24775	1.2	0.3	0.1	5951.4
24776	1.1	0.4	0.1	5822.
24777	1.1	0.2	0.1	6021.5
24778	1.2	0.1	0.1	6025.5
24779	1.	5.7	0.1	5890.1
24780	0.9	5.8	0.1	5933.5
24781	1.	5.9	0.1	5962.8
24782	1.	5.5	0.1	5717.1
24783	0.9	5.6	0.1	5712.
24784	1.	5.3	0.1	5606.7
24785	0.9	5.4	0.1	5580.9
24786	1.	5.1	0.1	5546.8
24787	0.9	5.2	0.1	5515.5
24788	1.	4.9	0.1	5529.8
24789	0.9	5.	0.1	5504.5
24790	1.	4.7	0.1	5543.1
24791	0.9	4.8	0.1	5530.5
24792	1.	4.5	0.1	5574.3
24793	0.9	4.6	0.1	5576.6
24794	1.	4.3	0.1	5613.7
24795	0.9	4.4	0.1	5630.5
24796	1.	4.1	0.1	5654.5
24797	0.9	4.2	0.1	5684.5
24798	1.	3.9	0.1	5692.2
24799	0.9	4.	0.1	5733.8
24800	1.	3.7	0.1	5724.4
24801	0.9	3.8	0.1	5775.8
24802	1.	3.5	0.1	5749.4
24803	0.9	3.6	0.1	5809.2
24804	1.	3.3	0.1	5766.4
24805	0.9	3.4	0.1	5833.2
24806	1.	3.1	0.1	5775.
24807	0.9	3.2	0.1	5847.8
24808	1.	2.9	0.1	5775.
24809	0.9	3.	0.1	5852.6
24810	1.	2.7	0.1	5766.4
24811	0.9	2.8	0.1	5847.8
24812	1.	2.5	0.1	5749.4
24813	0.9	2.6	0.1	5833.2
24814	1.	2.3	0.1	5724.4
24815	0.9	2.4	0.1	5809.2
24816	1.	2.1	0.1	5692.2
24817	0.9	2.2	0.1	5775.8
24818	1.	1.9	0.1	5654.5
24819	0.9	2.	0.1	5733.8
24820	1.	1.7	0.1	5613.7
24821	0.9	1.8	0.1	5684.5
24822	1.	1.5	0.1	5574.3
24823	0.9	1.6	0.1	5630.5
24824	1.	1.3	0.1	5543.1
24825	0.9	1.4	0.1	5576.6
24826	1.	1.1	0.1	5529.8
24827	0.9	1.2	0.1	5530.5
24828	1.	0.9	0.1	5546.8
24829	0.9	1.	0.1	5504.5
24830	1.	0.7	0.1	5606.7
24831	0.9	0.8	0.1	5515.5
24832	1.	0.5	0.1	5717.1
24833	0.9	0.6	0.1	5580.9
24834	1.	0.3	0.1	5890.1
24835	0.9	0.4	0.1	5712.
24836	0.9	0.2	0.1	5933.5
24837	1.	0.1	0.1	5962.8
24838	0.8	5.7	0.1	5752.
24839	0.7	5.8	0.1	5753.3
24840	0.8	5.9	0.1	5825.1
24841	0.8	5.5	0.1	5572.2
24842	0.7	5.6	0.1	5522.9
24843	0.8	5.3	0.1	5486.1
24844	0.7	5.4	0.1	5428.2
24845	0.8	5.1	0.1	5470.4
24846	0.7	5.2	0.1	5427.3
24847	0.8	4.9	0.1	5503.5
24848	0.7	5.	0.1	5486.4
24849	0.8	4.7	0.1	5563.1
24850	0.7	4.8	0.1	5573.3
24851	0.8	4.5	0.1	5632.4
24852	0.7	4.6	0.1	5667.1
24853	0.8	4.3	0.1	5701.2
24854	0.7	4.4	0.1	5756.3
24855	0.8	4.1	0.1	5763.8
24856	0.7	4.2	0.1	5835.6
24857	0.8	3.9	0.1	5817.3
24858	0.7	4.	0.1	5902.6
24859	0.8	3.7	0.1	5860.5
24860	0.7	3.8	0.1	5956.8
24861	0.8	3.5	0.1	5893.
24862	0.7	3.6	0.1	5998.4
24863	0.8	3.3	0.1	5914.5
24864	0.7	3.4	0.1	6027.8
24865	0.8	3.1	0.1	5925.3
24866	0.7	3.2	0.1	6045.2
24867	0.8	2.9	0.1	5925.3
24868	0.7	3.	0.1	6051.
24869	0.8	2.7	0.1	5914.5
24870	0.7	2.8	0.1	6045.2
24871	0.8	2.5	0.1	5893.
24872	0.7	2.6	0.1	6027.8
24873	0.8	2.3	0.1	5860.5
24874	0.7	2.4	0.1	5998.4
24875	0.8	2.1	0.1	5817.3
24876	0.7	2.2	0.1	5956.8
24877	0.8	1.9	0.1	5763.8
24878	0.7	2.	0.1	5902.6
24879	0.8	1.7	0.1	5701.2
24880	0.7	1.8	0.1	5835.6
24881	0.8	1.5	0.1	5632.4
24882	0.7	1.6	0.1	5756.3
24883	0.8	1.3	0.1	5563.1
24884	0.7	1.4	0.1	5667.1
24885	0.8	1.1	0.1	5503.5
24886	0.7	1.2	0.1	5573.3
24887	0.8	0.9	0.1	5470.4
24888	0.7	1.	0.1	5486.4
24889	0.8	0.7	0.1	5486.1
24890	0.7	0.8	0.1	5427.3
24891	0.8	0.5	0.1	5572.2
24892	0.7	0.6	0.1	5428.2
24893	0.8	0.3	0.1	5752.
24894	0.7	0.4	0.1	5522.9
24895	0.7	0.2	0.1	5753.3
24896	0.8	0.1	0.1	5825.1
24897	0.6	5.7	0.1	5517.2
24898	0.5	5.8	0.1	5374.7
24899	0.6	5.9	0.1	5567.4
24900	0.6	5.5	0.1	5372.6
24901	0.5	5.6	0.1	5137.2
24902	0.6	5.3	0.1	5365.
24903	0.5	5.4	0.1	5136.6
24904	0.6	5.1	0.1	5441.4
24905	0.5	5.2	0.1	5255.6
24906	0.6	4.9	0.1	5556.
24907	0.5	5.	0.1	5413.
24908	0.6	4.7	0.1	5677.9
24909	0.5	4.8	0.1	5569.5
24910	0.6	4.5	0.1	5791.8
24911	0.5	4.6	0.1	5709.4
24912	0.6	4.3	0.1	5891.3
24913	0.5	4.4	0.1	5828.4
24914	0.6	4.1	0.1	5974.9
24915	0.5	4.2	0.1	5926.6
24916	0.6	3.9	0.1	6042.5
24917	0.5	4.	0.1	6005.6
24918	0.6	3.7	0.1	6095.
24919	0.5	3.8	0.1	6067.4
24920	0.6	3.5	0.1	6133.4
24921	0.5	3.6	0.1	6113.5
24922	0.6	3.3	0.1	6158.5
24923	0.5	3.4	0.1	6145.5
24924	0.6	3.1	0.1	6170.9
24925	0.5	3.2	0.1	6164.4
24926	0.6	2.9	0.1	6170.9
24927	0.5	3.	0.1	6170.6
24928	0.6	2.7	0.1	6158.5
24929	0.5	2.8	0.1	6164.4
24930	0.6	2.5	0.1	6133.4
24931	0.5	2.6	0.1	6145.5
24932	0.6	2.3	0.1	6095.
24933	0.5	2.4	0.1	6113.5
24934	0.6	2.1	0.1	6042.5
24935	0.5	2.2	0.1	6067.4
24936	0.6	1.9	0.1	5974.9
24937	0.5	2.	0.1	6005.6
24938	0.6	1.7	0.1	5891.3
24939	0.5	1.8	0.1	5926.6
24940	0.6	1.5	0.1	5791.8
24941	0.5	1.6	0.1	5828.4
24942	0.6	1.3	0.1	5677.9
24943	0.5	1.4	0.1	5709.4
24944	0.6	1.1	0.1	5556.
24945	0.5	1.2	0.1	5569.5
24946	0.6	0.9	0.1	5441.4
24947	0.5	1.	0.1	5413.
24948	0.6	0.7	0.1	5365.
24949	0.5	0.8	0.1	5255.6
24950	0.6	0.5	0.1	5372.6
24951	0.5	0.6	0.1	5136.6
24952	0.6	0.3	0.1	5517.2
24953	0.5	0.4	0.1	5137.2
24954	0.5	0.2	0.1	5374.7
24955	0.6	0.1	0.1	5567.4
24956	0.4	5.7	0.1	4979.3
24957	0.3	5.8	0.1	4650.2
24958	0.4	5.9	0.1	5051.
24959	0.4	5.5	0.1	4887.9
24960	0.3	5.6	0.1	4771.9
24961	0.4	5.3	0.1	5020.6
24962	0.3	5.4	0.1	5135.1
24963	0.4	5.1	0.1	5225.2
24964	0.3	5.2	0.1	5490.1
24965	0.4	4.9	0.1	5426.4
24966	0.3	5.	0.1	5785.7
24967	0.4	4.7	0.1	5601.4
24968	0.3	4.8	0.1	6021.4
24969	0.4	4.5	0.1	5746.6
24970	0.3	4.6	0.1	6207.
24971	0.4	4.3	0.1	5864.2
24972	0.3	4.4	0.1	6352.7
24973	0.4	4.1	0.1	5957.8
24974	0.3	4.2	0.1	6466.5
24975	0.4	3.9	0.1	6030.8
24976	0.3	4.	0.1	6554.7
24977	0.4	3.7	0.1	6086.2
24978	0.3	3.8	0.1	6621.8
24979	0.4	3.5	0.1	6125.9
24980	0.3	3.6	0.1	6671.
24981	0.4	3.3	0.1	6151.6
24982	0.3	3.4	0.1	6704.7
24983	0.4	3.1	0.1	6164.2
24984	0.3	3.2	0.1	6724.3
24985	0.4	2.9	0.1	6164.2
24986	0.3	3.	0.1	6730.8
24987	0.4	2.7	0.1	6151.6
24988	0.3	2.8	0.1	6724.3
24989	0.4	2.5	0.1	6125.9
24990	0.3	2.6	0.1	6704.7
24991	0.4	2.3	0.1	6086.2
24992	0.3	2.4	0.1	6671.
24993	0.4	2.1	0.1	6030.8
24994	0.3	2.2	0.1	6621.8
24995	0.4	1.9	0.1	5957.8
24996	0.3	2.	0.1	6554.7
24997	0.4	1.7	0.1	5864.2
24998	0.3	1.8	0.1	6466.5
24999	0.4	1.5	0.1	5746.6
25000	0.3	1.6	0.1	6352.7
25001	0.4	1.3	0.1	5601.4
25002	0.3	1.4	0.1	6207.
25003	0.4	1.1	0.1	5426.4
25004	0.3	1.2	0.1	6021.4
25005	0.4	0.9	0.1	5225.2
25006	0.3	1.	0.1	5785.7
25007	0.4	0.7	0.1	5020.6
25008	0.3	0.8	0.1	5490.1
25009	0.4	0.5	0.1	4887.9
25010	0.3	0.6	0.1	5135.1
25011	0.4	0.3	0.1	4979.3
25012	0.3	0.4	0.1	4771.9
25013	0.3	0.2	0.1	4650.2
25014	0.4	0.1	0.1	5051.
25015	0.2	5.7	0.1	4411.4
25016	0.1	5.8	0.1	2839.2
25017	0.2	5.9	0.1	4009.4
25018	0.2	5.5	0.1	5045.6
25019	0.1	5.6	0.1	3560.5
25020	0.2	5.3	0.1	5633.6
25021	0.1	5.4	0.1	4129.5
25022	0.2	5.1	0.1	6072.6
25023	0.1	5.2	0.1	4529.8
25024	0.2	4.9	0.1	6396.9
25025	0.1	5.	0.1	4813.8
25026	0.2	4.7	0.1	6639.6
25027	0.1	4.8	0.1	5021.4
25028	0.2	4.5	0.1	6823.5
25029	0.1	4.6	0.1	5176.3
25030	0.2	4.3	0.1	6964.1
25031	0.1	4.4	0.1	5293.8
25032	0.2	4.1	0.1	7071.7
25033	0.1	4.2	0.1	5383.4
25034	0.2	3.9	0.1	7153.4
25035	0.1	4.	0.1	5451.6
25036	0.2	3.7	0.1	7214.1
25037	0.1	3.8	0.1	5502.9
25038	0.2	3.5	0.1	7257.
25039	0.1	3.6	0.1	5540.1
25040	0.2	3.3	0.1	7284.5
25041	0.1	3.4	0.1	5565.5
25042	0.2	3.1	0.1	7298.
25043	0.1	3.2	0.1	5580.2
25044	0.2	2.9	0.1	7298.
25045	0.1	3.	0.1	5585.
25046	0.2	2.7	0.1	7284.5
25047	0.1	2.8	0.1	5580.2
25048	0.2	2.5	0.1	7257.
25049	0.1	2.6	0.1	5565.5
25050	0.2	2.3	0.1	7214.1
25051	0.1	2.4	0.1	5540.1
25052	0.2	2.1	0.1	7153.4
25053	0.1	2.2	0.1	5502.9
25054	0.2	1.9	0.1	7071.7
25055	0.1	2.	0.1	5451.6
25056	0.2	1.7	0.1	6964.1
25057	0.1	1.8	0.1	5383.4
25058	0.2	1.5	0.1	6823.5
25059	0.1	1.6	0.1	5293.8
25060	0.2	1.3	0.1	6639.6
25061	0.1	1.4	0.1	5176.3
25062	0.2	1.1	0.1	6396.9
25063	0.1	1.2	0.1	5021.4
25064	0.2	0.9	0.1	6072.6
25065	0.1	1.	0.1	4813.8
25066	0.2	0.7	0.1	5633.6
25067	0.1	0.8	0.1	4529.8
25068	0.2	0.5	0.1	5045.6
25069	0.1	0.6	0.1	4129.5
25070	0.2	0.3	0.1	4411.4
25071	0.1	0.4	0.1	3560.5
25072	0.1	0.2	0.1	2839.2
25073	0.2	0.1	0.1	4009.4
25074	18.167	3.7	0.1	4210.9
25075	18.083	3.8	0.1	4688.2
25076	18.167	3.9	0.1	5585.7
25077	18.167	3.5	0.1	3513.1
25078	18.083	3.6	0.1	3736.
25079	18.167	3.3	0.1	3202.3
25080	18.083	3.4	0.1	3326.
25081	18.167	3.1	0.1	3072.4
25082	18.083	3.2	0.1	3128.5
25083	18.167	2.9	0.1	3072.4
25084	18.083	3.	0.1	3070.4
25085	18.167	2.7	0.1	3202.3
25086	18.083	2.8	0.1	3128.5
25087	18.167	2.5	0.1	3513.1
25088	18.083	2.6	0.1	3326.
25089	18.167	2.3	0.1	4210.9
25090	18.083	2.4	0.1	3736.
25091	18.083	2.2	0.1	4688.2
25092	18.167	2.1	0.1	5585.7
25093	18.	3.7	0.1	4280.6
25094	18.	3.9	0.1	5909.
25095	18.	3.5	0.1	3565.3
25096	18.	3.3	0.1	3255.6
25097	18.	3.1	0.1	3126.5
25098	18.	2.9	0.1	3126.5
25099	18.	2.7	0.1	3255.6
25100	18.	2.5	0.1	3565.3
25101	18.	2.3	0.1	4280.6
25102	18.	2.1	0.1	5909.
25103	18.167	0.3	0.1	191.04
25104	18.167	0.1	0.1	70.269
25105	18.167	0.2	5.e-002	43.557
25106	18.167	0.5	0.1	302.86
25107	18.167	0.4	5.e-002	93.588
25108	18.167	0.7	0.1	418.57
25109	18.167	0.6	5.e-002	143.97
25110	18.167	0.9	0.1	550.13
25111	18.167	0.8	5.e-002	200.18
25112	18.167	1.1	0.1	710.05
25113	18.167	1.	5.e-002	266.54
25114	18.167	1.3	0.1	923.22
25115	18.167	1.2	5.e-002	350.32
25116	18.167	1.5	0.1	1201.
25117	18.167	1.4	5.e-002	463.1
25118	18.167	1.7	0.1	1877.6
25119	18.167	1.6	5.e-002	642.74
25120	18.167	1.9	0.1	4003.8
25121	18.167	1.8	5.e-002	1118.7
25122	18.083	2.	0.1	5947.1
25123	18.167	2.	5.e-002	1025.5
25124	18.	1.9	0.1	4490.3
25125	18.	2.	5.e-002	1341.3
25126	18.	1.7	0.1	2398.1
25127	18.	1.8	5.e-002	1447.6
25128	18.	1.5	0.1	1546.9
25129	18.	1.6	5.e-002	899.28
25130	18.	1.3	0.1	1194.4
25131	18.	1.4	5.e-002	660.06
25132	18.	1.1	0.1	923.11
25133	18.	1.2	5.e-002	512.72
25134	18.	0.9	0.1	713.95
25135	18.	1.	5.e-002	397.24
25136	18.	0.7	0.1	539.62
25137	18.	0.8	5.e-002	302.18
25138	18.	0.5	0.1	386.47
25139	18.	0.6	5.e-002	218.99
25140	18.	0.3	0.1	241.7
25141	18.	0.4	5.e-002	142.93
25142	18.	0.1	0.1	89.219
25143	18.	0.2	5.e-002	68.279
25144	18.167	5.7	0.1	191.04
25145	18.167	5.9	0.1	70.269
25146	18.167	5.8	5.e-002	43.557
25147	18.167	5.5	0.1	302.86
25148	18.167	5.6	5.e-002	93.588
25149	18.167	5.3	0.1	418.57
25150	18.167	5.4	5.e-002	143.97
25151	18.167	5.1	0.1	550.13
25152	18.167	5.2	5.e-002	200.18
25153	18.167	4.9	0.1	710.05
25154	18.167	5.	5.e-002	266.54
25155	18.167	4.7	0.1	923.22
25156	18.167	4.8	5.e-002	350.32
25157	18.167	4.5	0.1	1201.
25158	18.167	4.6	5.e-002	463.1
25159	18.167	4.3	0.1	1877.6
25160	18.167	4.4	5.e-002	642.74
25161	18.167	4.1	0.1	4003.8
25162	18.167	4.2	5.e-002	1118.7
25163	18.083	4.	0.1	5947.1
25164	18.167	4.	5.e-002	1025.5
25165	18.	4.1	0.1	4490.3
25166	18.	4.	5.e-002	1341.3
25167	18.	4.3	0.1	2398.1
25168	18.	4.2	5.e-002	1447.6
25169	18.	4.5	0.1	1546.9
25170	18.	4.4	5.e-002	899.28
25171	18.	4.7	0.1	1194.4
25172	18.	4.6	5.e-002	660.06
25173	18.	4.9	0.1	923.11
25174	18.	4.8	5.e-002	512.72
25175	18.	5.1	0.1	713.95
25176	18.	5.	5.e-002	397.24
25177	18.	5.3	0.1	539.62
25178	18.	5.2	5.e-002	302.18
25179	18.	5.5	0.1	386.47
25180	18.	5.4	5.e-002	218.99
25181	18.	5.7	0.1	241.7
25182	18.	5.6	5.e-002	142.93
25183	18.	5.9	0.1	89.219
25184	18.	5.8	5.e-002	68.279
25185	18.264	6.	0.1	78.951
25186	18.167	6.	5.e-002	14.862
25187	18.458	6.	0.1	218.54
25188	18.361	6.	5.e-002	12.665
25189	18.653	6.	0.1	342.81
25190	18.556	6.	5.e-002	31.328
25191	18.847	6.	0.1	445.62
25192	18.75	6.	5.e-002	42.113
25193	19.042	6.	0.1	528.66
25194	18.944	6.	5.e-002	48.824
25195	19.236	6.	0.1	592.45
25196	19.139	6.	5.e-002	52.608
25197	19.431	6.	0.1	638.32
25198	19.333	6.	5.e-002	54.508
25199	19.625	6.	0.1	668.11
25200	19.528	6.	5.e-002	55.241
25201	19.819	6.	0.1	683.98
25202	19.722	6.	5.e-002	55.319
25203	20.014	6.	0.1	688.08
25204	19.917	6.	5.e-002	55.076
25205	20.208	6.	0.1	682.46
25206	20.111	6.	5.e-002	54.715
25207	20.403	6.	0.1	668.94
25208	20.306	6.	5.e-002	54.341
25209	20.597	6.	0.1	649.07
25210	20.5	6.	5.e-002	54.
25211	20.792	6.	0.1	624.17
25212	20.694	6.	5.e-002	53.693
25213	20.986	6.	0.1	595.31
25214	20.889	6.	5.e-002	53.402
25215	21.181	6.	0.1	563.37
25216	21.083	6.	5.e-002	53.09
25217	21.375	6.	0.1	529.06
25218	21.278	6.	5.e-002	52.717
25219	21.569	6.	0.1	492.94
25220	21.472	6.	5.e-002	52.241
25221	21.764	6.	0.1	455.46
25222	21.667	6.	5.e-002	51.619
25223	21.958	6.	0.1	416.97
25224	21.861	6.	5.e-002	50.807
25225	22.153	6.	0.1	377.76
25226	22.056	6.	5.e-002	49.764
25227	22.347	6.	0.1	338.06
25228	22.25	6.	5.e-002	48.447
25229	22.542	6.	0.1	298.04
25230	22.444	6.	5.e-002	46.81
25231	22.736	6.	0.1	257.86
25232	22.639	6.	5.e-002	44.801
25233	22.931	6.	0.1	217.67
25234	22.833	6.	5.e-002	42.361
25235	23.125	6.	0.1	177.59
25236	23.028	6.	5.e-002	39.412
25237	23.319	6.	0.1	137.8
25238	23.222	6.	5.e-002	35.843
25239	23.514	6.	0.1	98.595
25240	23.417	6.	5.e-002	31.493
25241	23.708	6.	0.1	60.263
25242	23.611	6.	5.e-002	26.021
25243	23.903	6.	0.1	25.217
25244	23.806	6.	5.e-002	18.537
25245	24.	5.9	0.1	22.118
25246	24.	6.	5.e-002	8.1602
25247	24.	5.7	0.1	46.792
25248	24.	5.8	5.e-002	7.5104
25249	24.	5.5	0.1	65.334
25250	24.	5.6	5.e-002	7.8191
25251	24.	5.3	0.1	78.949
25252	24.	5.4	5.e-002	8.1825
25253	24.	5.1	0.1	89.463
25254	24.	5.2	5.e-002	8.3155
25255	24.	4.9	0.1	97.672
25256	24.	5.	5.e-002	8.3319
25257	24.	4.7	0.1	104.09
25258	24.	4.8	5.e-002	8.2842
25259	24.	4.5	0.1	109.06
25260	24.	4.6	5.e-002	8.2048
25261	24.	4.3	0.1	112.87
25262	24.	4.4	5.e-002	8.1142
25263	24.	4.1	0.1	115.75
25264	24.	4.2	5.e-002	8.0249
25265	24.	3.9	0.1	117.88
25266	24.	4.	5.e-002	7.9444
25267	24.	3.7	0.1	119.4
25268	24.	3.8	5.e-002	7.8767
25269	24.	3.5	0.1	120.43
25270	24.	3.6	5.e-002	7.8235
25271	24.	3.3	0.1	121.07
25272	24.	3.4	5.e-002	7.7856
25273	24.	3.1	0.1	121.38
25274	24.	3.2	5.e-002	7.763
25275	24.	2.9	0.1	121.38
25276	24.	3.	5.e-002	7.7555
25277	24.	2.7	0.1	121.07
25278	24.	2.8	5.e-002	7.763
25279	24.	2.5	0.1	120.43
25280	24.	2.6	5.e-002	7.7856
25281	24.	2.3	0.1	119.4
25282	24.	2.4	5.e-002	7.8235
25283	24.	2.1	0.1	117.88
25284	24.	2.2	5.e-002	7.8767
25285	24.	1.9	0.1	115.75
25286	24.	2.	5.e-002	7.9444
25287	24.	1.7	0.1	112.87
25288	24.	1.8	5.e-002	8.0249
25289	24.	1.5	0.1	109.06
25290	24.	1.6	5.e-002	8.1142
25291	24.	1.3	0.1	104.08
25292	24.	1.4	5.e-002	8.2048
25293	24.	1.1	0.1	97.672
25294	24.	1.2	5.e-002	8.2842
25295	24.	0.9	0.1	89.463
25296	24.	1.	5.e-002	8.3319
25297	24.	0.7	0.1	78.949
25298	24.	0.8	5.e-002	8.3155
25299	24.	0.5	0.1	65.334
25300	24.	0.6	5.e-002	8.1825
25301	24.	0.3	0.1	46.792
25302	24.	0.4	5.e-002	7.8191
25303	24.	0.1	0.1	22.118
25304	24.	0.2	5.e-002	7.5104
25305	2.6226e-015	0.3	0.1	1978.
25306	8.7419e-016	0.1	0.1	1394.8
25307	1.772e-015	0.2	5.e-002	133.23
25308	4.371e-015	0.5	0.1	2754.7
25309	3.5441e-015	0.4	5.e-002	80.133
25310	6.1193e-015	0.7	0.1	3161.2
25311	5.3161e-015	0.6	5.e-002	65.15
25312	7.8677e-015	0.9	0.1	3421.8
25313	7.0881e-015	0.8	5.e-002	54.279
25314	9.6161e-015	1.1	0.1	3598.6
25315	8.8602e-015	1.	5.e-002	43.171
25316	1.1364e-014	1.3	0.1	3725.3
25317	1.0632e-014	1.2	5.e-002	33.995
25318	1.3113e-014	1.5	0.1	3818.8
25319	1.2404e-014	1.4	5.e-002	26.732
25320	1.4861e-014	1.7	0.1	3888.9
25321	1.4176e-014	1.6	5.e-002	20.941
25322	1.661e-014	1.9	0.1	3941.9
25323	1.5948e-014	1.8	5.e-002	16.353
25324	1.8358e-014	2.1	0.1	3981.8
25325	1.772e-014	2.	5.e-002	12.75
25326	2.0106e-014	2.3	0.1	4011.1
25327	1.9492e-014	2.2	5.e-002	9.9729
25328	2.1855e-014	2.5	0.1	4031.8
25329	2.1264e-014	2.4	5.e-002	7.9055
25330	2.3603e-014	2.7	0.1	4045.
25331	2.3036e-014	2.6	5.e-002	6.4703
25332	2.5352e-014	2.9	0.1	4051.5
25333	2.4809e-014	2.8	5.e-002	5.6218
25334	2.71e-014	3.1	0.1	4051.5
25335	2.6581e-014	3.	5.e-002	5.3404
25336	2.8848e-014	3.3	0.1	4045.
25337	2.8353e-014	3.2	5.e-002	5.6218
25338	3.0597e-014	3.5	0.1	4031.8
25339	3.0125e-014	3.4	5.e-002	6.4703
25340	3.2345e-014	3.7	0.1	4011.1
25341	3.1897e-014	3.6	5.e-002	7.9055
25342	3.4093e-014	3.9	0.1	3981.8
25343	3.3669e-014	3.8	5.e-002	9.9729
25344	3.5842e-014	4.1	0.1	3941.9
25345	3.5441e-014	4.	5.e-002	12.75
25346	3.759e-014	4.3	0.1	3888.9
25347	3.7213e-014	4.2	5.e-002	16.353
25348	3.9339e-014	4.5	0.1	3818.8
25349	3.8985e-014	4.4	5.e-002	20.941
25350	4.1087e-014	4.7	0.1	3725.3
25351	4.0757e-014	4.6	5.e-002	26.732
25352	4.2835e-014	4.9	0.1	3598.6
25353	4.2529e-014	4.8	5.e-002	33.995
25354	4.4584e-014	5.1	0.1	3421.8
25355	4.4301e-014	5.	5.e-002	43.171
25356	4.6332e-014	5.3	0.1	3161.2
25357	4.6073e-014	5.2	5.e-002	54.279
25358	4.8081e-014	5.5	0.1	2754.7
25359	4.7845e-014	5.4	5.e-002	65.15
25360	4.9829e-014	5.7	0.1	1978.
25361	4.9617e-014	5.6	5.e-002	80.133
25362	5.1577e-014	5.9	0.1	1394.8
25363	5.1389e-014	5.8	5.e-002	133.23
25364	0.1	6.	0.1	2634.3
25365	5.2451e-014	6.	5.e-002	1928.6
25366	0.3	6.	0.1	4490.4
25367	0.2	6.	5.e-002	1398.3
25368	0.5	6.	0.1	5312.6
25369	0.4	6.	5.e-002	1082.1
25370	0.7	6.	0.1	5699.8
25371	0.6	6.	5.e-002	919.56
25372	0.9	6.	0.1	5905.6
25373	0.8	6.	5.e-002	803.41
25374	1.1	6.	0.1	6009.4
25375	1.	6.	5.e-002	707.82
25376	1.3	6.	0.1	6052.7
25377	1.2	6.	5.e-002	627.22
25378	1.5	6.	0.1	6057.3
25379	1.4	6.	5.e-002	557.
25380	1.7	6.	0.1	6036.3
25381	1.6	6.	5.e-002	494.97
25382	1.9	6.	0.1	5997.9
25383	1.8	6.	5.e-002	439.52
25384	2.1	6.	0.1	5947.6
25385	2.	6.	5.e-002	389.59
25386	2.3	6.	0.1	5888.9
25387	2.2	6.	5.e-002	344.38
25388	2.5	6.	0.1	5824.6
25389	2.4	6.	5.e-002	303.27
25390	2.7	6.	0.1	5756.5
25391	2.6	6.	5.e-002	265.79
25392	2.9	6.	0.1	5685.9
25393	2.8	6.	5.e-002	231.55
25394	3.1	6.	0.1	5613.8
25395	3.	6.	5.e-002	200.21
25396	3.3	6.	0.1	5540.9
25397	3.2	6.	5.e-002	171.52
25398	3.5	6.	0.1	5467.6
25399	3.4	6.	5.e-002	145.22
25400	3.7	6.	0.1	5394.4
25401	3.6	6.	5.e-002	121.11
25402	3.9	6.	0.1	5321.5
25403	3.8	6.	5.e-002	99.01
25404	4.1	6.	0.1	5249.1
25405	4.	6.	5.e-002	78.756
25406	4.3	6.	0.1	5177.3
25407	4.2	6.	5.e-002	60.202
25408	4.5	6.	0.1	5106.2
25409	4.4	6.	5.e-002	43.223
25410	4.7	6.	0.1	5035.8
25411	4.6	6.	5.e-002	27.725
25412	4.9	6.	0.1	4966.1
25413	4.8	6.	5.e-002	13.742
25414	5.1	6.	0.1	4897.2
25415	5.	6.	5.e-002	3.9758
25416	5.3	6.	0.1	4829.
25417	5.2	6.	5.e-002	12.523
25418	5.5	6.	0.1	4761.6
25419	5.4	6.	5.e-002	23.149
25420	5.7	6.	0.1	4694.8
25421	5.6	6.	5.e-002	33.029
25422	5.9	6.	0.1	4628.7
25423	5.8	6.	5.e-002	42.09
25424	6.1	6.	0.1	4563.3
25425	6.	6.	5.e-002	50.371
25426	6.3	6.	0.1	4498.4
25427	6.2	6.	5.e-002	57.925
25428	6.5	6.	0.1	4434.2
25429	6.4	6.	5.e-002	64.807
25430	6.7	6.	0.1	4370.5
25431	6.6	6.	5.e-002	71.068
25432	6.9	6.	0.1	4307.3
25433	6.8	6.	5.e-002	76.759
25434	7.1	6.	0.1	4244.7
25435	7.	6.	5.e-002	81.923
25436	7.3	6.	0.1	4182.5
25437	7.2	6.	5.e-002	86.603
25438	7.5	6.	0.1	4120.9
25439	7.4	6.	5.e-002	90.837
25440	7.7	6.	0.1	4059.6
25441	7.6	6.	5.e-002	94.66
25442	7.9	6.	0.1	3998.8
25443	7.8	6.	5.e-002	98.106
25444	8.1	6.	0.1	3938.4
25445	8.	6.	5.e-002	101.2
25446	8.3	6.	0.1	3878.3
25447	8.2	6.	5.e-002	103.98
25448	8.5	6.	0.1	3818.7
25449	8.4	6.	5.e-002	106.46
25450	8.7	6.	0.1	3759.4
25451	8.6	6.	5.e-002	108.67
25452	8.9	6.	0.1	3700.4
25453	8.8	6.	5.e-002	110.63
25454	9.1	6.	0.1	3641.8
25455	9.	6.	5.e-002	112.35
25456	9.3	6.	0.1	3583.6
25457	9.2	6.	5.e-002	113.86
25458	9.5	6.	0.1	3525.6
25459	9.4	6.	5.e-002	115.16
25460	9.7	6.	0.1	3467.9
25461	9.6	6.	5.e-002	116.28
25462	9.9	6.	0.1	3410.6
25463	9.8	6.	5.e-002	117.23
25464	10.1	6.	0.1	3353.5
25465	10.	6.	5.e-002	118.02
25466	10.3	6.	0.1	3296.7
25467	10.2	6.	5.e-002	118.65
25468	10.5	6.	0.1	3240.2
25469	10.4	6.	5.e-002	119.13
25470	10.7	6.	0.1	3183.9
25471	10.6	6.	5.e-002	119.49
25472	10.9	6.	0.1	3127.9
25473	10.8	6.	5.e-002	119.71
25474	11.1	6.	0.1	3072.1
25475	11.	6.	5.e-002	119.8
25476	11.3	6.	0.1	3016.6
25477	11.2	6.	5.e-002	119.77
25478	11.5	6.	0.1	2961.3
25479	11.4	6.	5.e-002	119.63
25480	11.7	6.	0.1	2906.2
25481	11.6	6.	5.e-002	119.37
25482	11.9	6.	0.1	2851.3
25483	11.8	6.	5.e-002	118.99
25484	12.1	6.	0.1	2796.5
25485	12.	6.	5.e-002	118.49
25486	12.3	6.	0.1	2741.9
25487	12.2	6.	5.e-002	117.87
25488	12.5	6.	0.1	2687.4
25489	12.4	6.	5.e-002	117.12
25490	12.7	6.	0.1	2633.
25491	12.6	6.	5.e-002	116.23
25492	12.9	6.	0.1	2578.6
25493	12.8	6.	5.e-002	115.2
25494	13.1	6.	0.1	2524.2
25495	13.	6.	5.e-002	114.02
25496	13.3	6.	0.1	2469.7
25497	13.2	6.	5.e-002	112.66
25498	13.5	6.	0.1	2415.1
25499	13.4	6.	5.e-002	111.11
25500	13.7	6.	0.1	2360.1
25501	13.6	6.	5.e-002	109.34
25502	13.9	6.	0.1	2304.6
25503	13.8	6.	5.e-002	107.33
25504	14.1	6.	0.1	2248.5
25505	14.	6.	5.e-002	105.03
25506	14.3	6.	0.1	2191.6
25507	14.2	6.	5.e-002	102.41
25508	14.5	6.	0.1	2133.4
25509	14.4	6.	5.e-002	99.414
25510	14.7	6.	0.1	2073.7
25511	14.6	6.	5.e-002	95.984
25512	14.9	6.	0.1	2011.9
25513	14.8	6.	5.e-002	92.055
25514	15.1	6.	0.1	1947.5
25515	15.	6.	5.e-002	87.549
25516	15.3	6.	0.1	1879.6
25517	15.2	6.	5.e-002	82.384
25518	15.5	6.	0.1	1807.5
25519	15.4	6.	5.e-002	76.474
25520	15.7	6.	0.1	1729.9
25521	15.6	6.	5.e-002	69.735
25522	15.9	6.	0.1	1645.5
25523	15.8	6.	5.e-002	62.098
25524	16.1	6.	0.1	1552.7
25525	16.	6.	5.e-002	53.525
25526	16.3	6.	0.1	1449.8
25527	16.2	6.	5.e-002	44.037
25528	16.5	6.	0.1	1334.8
25529	16.4	6.	5.e-002	33.756
25530	16.7	6.	0.1	1205.9
25531	16.6	6.	5.e-002	22.971
25532	16.9	6.	0.1	1061.6
25533	16.8	6.	5.e-002	12.293
25534	17.1	6.	0.1	900.72
25535	17.	6.	5.e-002	4.1665
25536	17.3	6.	0.1	723.39
25537	17.2	6.	5.e-002	8.2587
25538	17.5	6.	0.1	530.73
25539	17.4	6.	5.e-002	13.018
25540	17.7	6.	0.1	322.79
25541	17.6	6.	5.e-002	12.839
25542	17.9	6.	0.1	113.33
25543	17.8	6.	5.e-002	3.5533
25544	18.	6.	5.e-002	19.901
25545	23.903	0.	0.1	25.217
25546	24.	0.	5.e-002	8.1602
25547	23.708	0.	0.1	60.263
25548	23.806	0.	5.e-002	18.537
25549	23.514	0.	0.1	98.595
25550	23.611	0.	5.e-002	26.021
25551	23.319	0.	0.1	137.8
25552	23.417	0.	5.e-002	31.493
25553	23.125	0.	0.1	177.59
25554	23.222	0.	5.e-002	35.843
25555	22.931	0.	0.1	217.67
25556	23.028	0.	5.e-002	39.412
25557	22.736	0.	0.1	257.86
25558	22.833	0.	5.e-002	42.361
25559	22.542	0.	0.1	298.04
25560	22.639	0.	5.e-002	44.801
25561	22.347	0.	0.1	338.06
25562	22.444	0.	5.e-002	46.81
25563	22.153	0.	0.1	377.76
25564	22.25	0.	5.e-002	48.447
25565	21.958	0.	0.1	416.97
25566	22.056	0.	5.e-002	49.764
25567	21.764	0.	0.1	455.46
25568	21.861	0.	5.e-002	50.807
25569	21.569	0.	0.1	492.94
25570	21.667	0.	5.e-002	51.619
25571	21.375	0.	0.1	529.06
25572	21.472	0.	5.e-002	52.241
25573	21.181	0.	0.1	563.37
25574	21.278	0.	5.e-002	52.717
25575	20.986	0.	0.1	595.31
25576	21.083	0.	5.e-002	53.09
25577	20.792	0.	0.1	624.17
25578	20.889	0.	5.e-002	53.402
25579	20.597	0.	0.1	649.07
25580	20.694	0.	5.e-002	53.693
25581	20.403	0.	0.1	668.94
25582	20.5	0.	5.e-002	54.
25583	20.208	0.	0.1	682.46
25584	20.306	0.	5.e-002	54.341
25585	20.014	0.	0.1	688.08
25586	20.111	0.	5.e-002	54.715
25587	19.819	0.	0.1	683.98
25588	19.917	0.	5.e-002	55.077
25589	19.625	0.	0.1	668.11
25590	19.722	0.	5.e-002	55.32
25591	19.431	0.	0.1	638.32
25592	19.528	0.	5.e-002	55.241
25593	19.236	0.	0.1	592.45
25594	19.333	0.	5.e-002	54.508
25595	19.042	0.	0.1	528.66
25596	19.139	0.	5.e-002	52.608
25597	18.847	0.	0.1	445.62
25598	18.944	0.	5.e-002	48.824
25599	18.653	0.	0.1	342.81
25600	18.75	0.	5.e-002	42.113
25601	18.458	0.	0.1	218.54
25602	18.556	0.	5.e-002	31.328
25603	18.264	0.	0.1	78.951
25604	18.361	0.	5.e-002	12.665
25605	18.167	0.	5.e-002	14.862
25606	17.9	2.7748e-030	0.1	113.33
25607	18.	2.7903e-030	5.e-002	19.901
25608	17.7	2.7438e-030	0.1	322.79
25609	17.8	0.	5.e-002	3.5533
25610	17.5	2.7128e-030	0.1	530.73
25611	17.6	0.	5.e-002	12.839
25612	17.3	2.6818e-030	0.1	723.39
25613	17.4	0.	5.e-002	13.018
25614	17.1	2.6508e-030	0.1	900.72
25615	17.2	0.	5.e-002	8.2587
25616	16.9	2.6198e-030	0.1	1061.6
25617	17.	0.	5.e-002	4.1665
25618	16.7	2.5888e-030	0.1	1205.9
25619	16.8	0.	5.e-002	12.293
25620	16.5	2.5578e-030	0.1	1334.8
25621	16.6	0.	5.e-002	22.971
25622	16.3	2.5268e-030	0.1	1449.8
25623	16.4	0.	5.e-002	33.756
25624	16.1	2.4958e-030	0.1	1552.7
25625	16.2	0.	5.e-002	44.037
25626	15.9	2.4648e-030	0.1	1645.5
25627	16.	0.	5.e-002	53.525
25628	15.7	2.4338e-030	0.1	1729.9
25629	15.8	0.	5.e-002	62.098
25630	15.5	2.4028e-030	0.1	1807.5
25631	15.6	0.	5.e-002	69.735
25632	15.3	2.3718e-030	0.1	1879.6
25633	15.4	0.	5.e-002	76.474
25634	15.1	2.3408e-030	0.1	1947.5
25635	15.2	0.	5.e-002	82.384
25636	14.9	2.3098e-030	0.1	2011.9
25637	15.	0.	5.e-002	87.549
25638	14.7	2.2788e-030	0.1	2073.7
25639	14.8	0.	5.e-002	92.055
25640	14.5	2.2478e-030	0.1	2133.4
25641	14.6	0.	5.e-002	95.985
25642	14.3	2.2168e-030	0.1	2191.6
25643	14.4	0.	5.e-002	99.414
25644	14.1	2.1858e-030	0.1	2248.5
25645	14.2	0.	5.e-002	102.41
25646	13.9	2.1547e-030	0.1	2304.6
25647	14.	0.	5.e-002	105.03
25648	13.7	2.1237e-030	0.1	2360.1
25649	13.8	0.	5.e-002	107.33
25650	13.5	2.0927e-030	0.1	2415.1
25651	13.6	0.	5.e-002	109.34
25652	13.3	2.0617e-030	0.1	2469.7
25653	13.4	0.	5.e-002	111.11
25654	13.1	2.0307e-030	0.1	2524.2
25655	13.2	0.	5.e-002	112.66
25656	12.9	1.9997e-030	0.1	2578.6
25657	13.	0.	5.e-002	114.02
25658	12.7	1.9687e-030	0.1	2633.
25659	12.8	0.	5.e-002	115.2
25660	12.5	1.9377e-030	0.1	2687.4
25661	12.6	0.	5.e-002	116.23
25662	12.3	1.9067e-030	0.1	2741.9
25663	12.4	0.	5.e-002	117.12
25664	12.1	1.8757e-030	0.1	2796.5
25665	12.2	0.	5.e-002	117.87
25666	11.9	1.8447e-030	0.1	2851.3
25667	12.	0.	5.e-002	118.49
25668	11.7	1.8137e-030	0.1	2906.2
25669	11.8	0.	5.e-002	118.99
25670	11.5	1.7827e-030	0.1	2961.3
25671	11.6	0.	5.e-002	119.37
25672	11.3	1.7517e-030	0.1	3016.6
25673	11.4	0.	5.e-002	119.63
25674	11.1	1.7207e-030	0.1	3072.1
25675	11.2	0.	5.e-002	119.77
25676	10.9	1.6897e-030	0.1	3127.9
25677	11.	0.	5.e-002	119.8
25678	10.7	1.6587e-030	0.1	3183.9
25679	10.8	0.	5.e-002	119.71
25680	10.5	1.6277e-030	0.1	3240.2
25681	10.6	0.	5.e-002	119.49
25682	10.3	1.5967e-030	0.1	3296.7
25683	10.4	0.	5.e-002	119.13
25684	10.1	1.5657e-030	0.1	3353.5
25685	10.2	0.	5.e-002	118.65
25686	9.9	1.5347e-030	0.1	3410.6
25687	10.	0.	5.e-002	118.02
25688	9.7	1.5037e-030	0.1	3467.9
25689	9.8	0.	5.e-002	117.23
25690	9.5	1.4727e-030	0.1	3525.6
25691	9.6	0.	5.e-002	116.28
25692	9.3	1.4417e-030	0.1	3583.6
25693	9.4	0.	5.e-002	115.16
25694	9.1	1.4107e-030	0.1	3641.8
25695	9.2	0.	5.e-002	113.86
25696	8.9	1.3797e-030	0.1	3700.4
25697	9.	0.	5.e-002	112.35
25698	8.7	1.3487e-030	0.1	3759.4
25699	8.8	0.	5.e-002	110.63
25700	8.5	1.3177e-030	0.1	3818.7
25701	8.6	0.	5.e-002	108.67
25702	8.3	1.2866e-030	0.1	3878.3
25703	8.4	0.	5.e-002	106.46
25704	8.1	1.2556e-030	0.1	3938.4
25705	8.2	0.	5.e-002	103.98
25706	7.9	1.2246e-030	0.1	3998.8
25707	8.	0.	5.e-002	101.2
25708	7.7	1.1936e-030	0.1	4059.6
25709	7.8	0.	5.e-002	98.106
25710	7.5	1.1626e-030	0.1	4120.9
25711	7.6	0.	5.e-002	94.66
25712	7.3	1.1316e-030	0.1	4182.5
25713	7.4	0.	5.e-002	90.837
25714	7.1	1.1006e-030	0.1	4244.7
25715	7.2	0.	5.e-002	86.603
25716	6.9	1.0696e-030	0.1	4307.3
25717	7.	0.	5.e-002	81.923
25718	6.7	1.0386e-030	0.1	4370.5
25719	6.8	0.	5.e-002	76.759
25720	6.5	1.0076e-030	0.1	4434.2
25721	6.6	0.	5.e-002	71.068
25722	6.3	9.7661e-031	0.1	4498.4
25723	6.4	0.	5.e-002	64.807
25724	6.1	9.4561e-031	0.1	4563.3
25725	6.2	0.	5.e-002	57.925
25726	5.9	9.1461e-031	0.1	4628.7
25727	6.	0.	5.e-002	50.371
25728	5.7	8.836e-031	0.1	4694.8
25729	5.8	0.	5.e-002	42.09
25730	5.5	8.526e-031	0.1	4761.6
25731	5.6	0.	5.e-002	33.029
25732	5.3	8.216e-031	0.1	4829.
25733	5.4	0.	5.e-002	23.149
25734	5.1	7.9059e-031	0.1	4897.2
25735	5.2	0.	5.e-002	12.523
25736	4.9	7.5959e-031	0.1	4966.1
25737	5.	0.	5.e-002	3.9758
25738	4.7	7.2858e-031	0.1	5035.8
25739	4.8	0.	5.e-002	13.742
25740	4.5	6.9758e-031	0.1	5106.2
25741	4.6	0.	5.e-002	27.725
25742	4.3	6.6658e-031	0.1	5177.3
25743	4.4	0.	5.e-002	43.223
25744	4.1	6.3557e-031	0.1	5249.1
25745	4.2	0.	5.e-002	60.202
25746	3.9	6.0457e-031	0.1	5321.5
25747	4.	0.	5.e-002	78.756
25748	3.7	5.7357e-031	0.1	5394.4
25749	3.8	0.	5.e-002	99.01
25750	3.5	5.4256e-031	0.1	5467.6
25751	3.6	0.	5.e-002	121.11
25752	3.3	5.1156e-031	0.1	5540.9
25753	3.4	0.	5.e-002	145.22
25754	3.1	4.8056e-031	0.1	5613.8
25755	3.2	0.	5.e-002	171.52
25756	2.9	4.4955e-031	0.1	5685.9
25757	3.	0.	5.e-002	200.21
25758	2.7	4.1855e-031	0.1	5756.5
25759	2.8	0.	5.e-002	231.55
25760	2.5	3.8754e-031	0.1	5824.6
25761	2.6	0.	5.e-002	265.79
25762	2.3	3.5654e-031	0.1	5888.9
25763	2.4	0.	5.e-002	303.27
25764	2.1	3.2554e-031	0.1	5947.6
25765	2.2	0.	5.e-002	344.38
25766	1.9	2.9453e-031	0.1	5997.9
25767	2.	0.	5.e-002	389.59
25768	1.7	2.6353e-031	0.1	6036.3
25769	1.8	0.	5.e-002	439.52
25770	1.5	2.3253e-031	0.1	6057.3
25771	1.6	0.	5.e-002	494.97
25772	1.3	2.0152e-031	0.1	6052.7
25773	1.4	0.	5.e-002	557.
25774	1.1	1.7052e-031	0.1	6009.4
25775	1.2	0.	5.e-002	627.22
25776	0.9	1.3952e-031	0.1	5905.6
25777	1.	0.	5.e-002	707.82
25778	0.7	1.0851e-031	0.1	5699.8
25779	0.8	0.	5.e-002	803.41
25780	0.5	7.7509e-032	0.1	5312.6
25781	0.6	0.	5.e-002	919.56
25782	0.3	4.6505e-032	0.1	4490.4
25783	0.4	0.	5.e-002	1082.1
25784	0.1	1.5502e-032	0.1	2634.3
25785	0.2	0.	5.e-002	1398.3
25786	0.	0.	5.e-002	1928.6
25787	0.3	4.6505e-032	0.	4490.4
25788	0.1	1.5502e-032	0.	2634.3
25789	0.5	7.7509e-032	0.	5312.6
25790	0.7	1.0851e-031	0.	5699.8
25791	0.9	1.3952e-031	0.	5905.6
25792	1.1	1.7052e-031	0.	6009.4
25793	1.3	2.0152e-031	0.	6052.7
25794	1.5	2.3253e-031	0.	6057.3
25795	1.7	2.6353e-031	0.	6036.3
25796	1.9	2.9453e-031	0.	5997.9
25797	2.1	3.2554e-031	0.	5947.6
25798	2.3	3.5654e-031	0.	5888.9
25799	2.5	3.8754e-031	0.	5824.6
25800	2.7	4.1855e-031	0.	5756.5
25801	2.9	4.4955e-031	0.	5685.9
25802	3.1	4.8056e-031	0.	5613.8
25803	3.3	5.1156e-031	0.	5540.9
25804	3.5	5.4256e-031	0.	5467.6
25805	3.7	5.7357e-031	0.	5394.4
25806	3.9	6.0457e-031	0.	5321.5
25807	4.1	6.3557e-031	0.	5249.1
25808	4.3	6.6658e-031	0.	5177.3
25809	4.5	6.9758e-031	0.	5106.2
25810	4.7	7.2858e-031	0.	5035.8
25811	4.9	7.5959e-031	0.	4966.1
25812	5.1	7.9059e-031	0.	4897.2
25813	5.3	8.216e-031	0.	4829.
25814	5.5	8.526e-031	0.	4761.6
25815	5.7	8.836e-031	0.	4694.8
25816	5.9	9.1461e-031	0.	4628.7
25817	6.1	9.4561e-031	0.	4563.3
25818	6.3	9.7661e-031	0.	4498.4
25819	6.5	1.0076e-030	0.	4434.2
25820	6.7	1.0386e-030	0.	4370.5
25821	6.9	1.0696e-030	0.	4307.3
25822	7.1	1.1006e-030	0.	4244.7
25823	7.3	1.1316e-030	0.	4182.5
25824	7.5	1.1626e-030	0.	4120.9
25825	7.7	1.1936e-030	0.	4059.6
25826	7.9	1.2246e-030	0.	3998.8
25827	8.1	1.2556e-030	0.	3938.4
25828	8.3	1.2866e-030	0.	3878.3
25829	8.5	1.3177e-030	0.	3818.7
25830	8.7	1.3487e-030	0.	3759.4
25831	8.9	1.3797e-030	0.	3700.4
25832	9.1	1.4107e-030	0.	3641.8
25833	9.3	1.4417e-030	0.	3583.6
25834	9.5	1.4727e-030	0.	3525.6
25835	9.7	1.5037e-030	0.	3467.9
25836	9.9	1.5347e-030	0.	3410.6
25837	10.1	1.5657e-030	0.	3353.5
25838	10.3	1.5967e-030	0.	3296.7
25839	10.5	1.6277e-030	0.	3240.2
25840	10.7	1.6587e-030	0.	3183.9
25841	10.9	1.6897e-030	0.	3127.9
25842	11.1	1.7207e-030	0.	3072.1
25843	11.3	1.7517e-030	0.	3016.6
25844	11.5	1.7827e-030	0.	2961.3
25845	11.7	1.8137e-030	0.	2906.2
25846	11.9	1.8447e-030	0.	2851.3
25847	12.1	1.8757e-030	0.	2796.5
25848	12.3	1.9067e-030	0.	2741.9
25849	12.5	1.9377e-030	0.	2687.4
25850	12.7	1.9687e-030	0.	2633.
25851	12.9	1.9997e-030	0.	2578.6
25852	13.1	2.0307e-030	0.	2524.2
25853	13.3	2.0617e-030	0.	2469.7
25854	13.5	2.0927e-030	0.	2415.1
25855	13.7	2.1237e-030	0.	2360.1
25856	13.9	2.1547e-030	0.	2304.6
25857	14.1	2.1858e-030	0.	2248.5
25858	14.3	2.2168e-030	0.	2191.6
25859	14.5	2.2478e-030	0.	2133.4
25860	14.7	2.2788e-030	0.	2073.7
25861	14.9	2.3098e-030	0.	2011.9
25862	15.1	2.3408e-030	0.	1947.5
25863	15.3	2.3718e-030	0.	1879.6
25864	15.5	2.4028e-030	0.	1807.5
25865	15.7	2.4338e-030	0.	1729.9
25866	15.9	2.4648e-030	0.	1645.5
25867	16.1	2.4958e-030	0.	1552.7
25868	16.3	2.5268e-030	0.	1449.8
25869	16.5	2.5578e-030	0.	1334.8
25870	16.7	2.5888e-030	0.	1205.9
25871	16.9	2.6198e-030	0.	1061.6
25872	17.1	2.6508e-030	0.	900.72
25873	17.3	2.6818e-030	0.	723.39
25874	17.5	2.7128e-030	0.	530.73
25875	17.7	2.7438e-030	0.	322.79
25876	17.9	2.7748e-030	0.	113.33
25877	18.	0.1	0.	89.219
25878	8.7419e-016	0.1	0.	1394.8
25879	18.458	0.	0.	218.54
25880	18.264	0.	0.	78.951
25881	18.653	0.	0.	342.81
25882	18.847	0.	0.	445.62
25883	19.042	0.	0.	528.66
25884	19.236	0.	0.	592.45
25885	19.431	0.	0.	638.32
25886	19.625	0.	0.	668.11
25887	19.819	0.	0.	683.98
25888	20.014	0.	0.	688.08
25889	20.208	0.	0.	682.46
25890	20.403	0.	0.	668.94
25891	20.597	0.	0.	649.07
25892	20.792	0.	0.	624.17
25893	20.986	0.	0.	595.31
25894	21.181	0.	0.	563.37
25895	21.375	0.	0.	529.06
25896	21.569	0.	0.	492.94
25897	21.764	0.	0.	455.46
25898	21.958	0.	0.	416.97
25899	22.153	0.	0.	377.76
25900	22.347	0.	0.	338.06
25901	22.542	0.	0.	298.04
25902	22.736	0.	0.	257.86
25903	22.931	0.	0.	217.67
25904	23.125	0.	0.	177.59
25905	23.319	0.	0.	137.8
25906	23.514	0.	0.	98.595
25907	23.708	0.	0.	60.263
25908	23.903	0.	0.	25.217
25909	18.167	0.1	0.	70.269
25910	24.	0.1	0.	22.118
25911	17.7	6.	0.	322.79
25912	17.9	6.	0.	113.33
25913	17.5	6.	0.	530.73
25914	17.3	6.	0.	723.39
25915	17.1	6.	0.	900.72
25916	16.9	6.	0.	1061.6
25917	16.7	6.	0.	1205.9
25918	16.5	6.	0.	1334.8
25919	16.3	6.	0.	1449.8
25920	16.1	6.	0.	1552.7
25921	15.9	6.	0.	1645.5
25922	15.7	6.	0.	1729.9
25923	15.5	6.	0.	1807.5
25924	15.3	6.	0.	1879.6
25925	15.1	6.	0.	1947.5
25926	14.9	6.	0.	2011.9
25927	14.7	6.	0.	2073.7
25928	14.5	6.	0.	2133.4
25929	14.3	6.	0.	2191.6
25930	14.1	6.	0.	2248.5
25931	13.9	6.	0.	2304.6
25932	13.7	6.	0.	2360.1
25933	13.5	6.	0.	2415.1
25934	13.3	6.	0.	2469.7
25935	13.1	6.	0.	2524.2
25936	12.9	6.	0.	2578.6
25937	12.7	6.	0.	2633.
25938	12.5	6.	0.	2687.4
25939	12.3	6.	0.	2741.9
25940	12.1	6.	0.	2796.5
25941	11.9	6.	0.	2851.3
25942	11.7	6.	0.	2906.2
25943	11.5	6.	0.	2961.3
25944	11.3	6.	0.	3016.6
25945	11.1	6.	0.	3072.1
25946	10.9	6.	0.	3127.9
25947	10.7	6.	0.	3183.9
25948	10.5	6.	0.	3240.2
25949	10.3	6.	0.	3296.7
25950	10.1	6.	0.	3353.5
25951	9.9	6.	0.	3410.6
25952	9.7	6.	0.	3467.9
25953	9.5	6.	0.	3525.6
25954	9.3	6.	0.	3583.6
25955	9.1	6.	0.	3641.8
25956	8.9	6.	0.	3700.4
25957	8.7	6.	0.	3759.4
25958	8.5	6.	0.	3818.7
25959	8.3	6.	0.	3878.3
25960	8.1	6.	0.	3938.4
25961	7.9	6.	0.	3998.8
25962	7.7	6.	0.	4059.6
25963	7.5	6.	0.	4120.9
25964	7.3	6.	0.	4182.5
25965	7.1	6.	0.	4244.7
25966	6.9	6.	0.	4307.3
25967	6.7	6.	0.	4370.5
25968	6.5	6.	0.	4434.2
25969	6.3	6.	0.	4498.4
25970	6.1	6.	0.	4563.3
25971	5.9	6.	0.	4628.7
25972	5.7	6.	0.	4694.8
25973	5.5	6.	0.	4761.6
25974	5.3	6.	0.	4829.
25975	5.1	6.	0.	4897.2
25976	4.9	6.	0.	4966.1
25977	4.7	6.	0.	5035.8
25978	4.5	6.	0.	5106.2
25979	4.3	6.	0.	5177.3
25980	4.1	6.	0.	5249.1
25981	3.9	6.	0.	5321.5
25982	3.7	6.	0.	5394.4
25983	3.5	6.	0.	5467.6
25984	3.3	6.	0.	5540.9
25985	3.1	6.	0.	5613.8
25986	2.9	6.	0.	5685.9
25987	2.7	6.	0.	5756.5
25988	2.5	6.	0.	5824.6
25989	2.3	6.	0.	5888.9
25990	2.1	6.	0.	5947.6
25991	1.9	6.	0.	5997.9
25992	1.7	6.	0.	6036.3
25993	1.5	6.	0.	6057.3
25994	1.3	6.	0.	6052.7
25995	1.1	6.	0.	6009.4
25996	0.9	6.	0.	5905.6
25997	0.7	6.	0.	5699.8
25998	0.5	6.	0.	5312.6
25999	0.3	6.	0.	4490.4
26000	0.1	6.	0.	2634.3
26001	18.	5.9	0.	89.219
26002	5.1577e-014	5.9	0.	1394.8
26003	4.9829e-014	5.7	0.	1978.
26004	4.8081e-014	5.5	0.	2754.7
26005	4.6332e-014	5.3	0.	3161.2
26006	4.4584e-014	5.1	0.	3421.8
26007	4.2835e-014	4.9	0.	3598.6
26008	4.1087e-014	4.7	0.	3725.3
26009	3.9339e-014	4.5	0.	3818.8
26010	3.759e-014	4.3	0.	3888.9
26011	3.5842e-014	4.1	0.	3941.9
26012	3.4093e-014	3.9	0.	3981.8
26013	3.2345e-014	3.7	0.	4011.1
26014	3.0597e-014	3.5	0.	4031.8
26015	2.8848e-014	3.3	0.	4045.
26016	2.71e-014	3.1	0.	4051.5
26017	2.5352e-014	2.9	0.	4051.5
26018	2.3603e-014	2.7	0.	4045.
26019	2.1855e-014	2.5	0.	4031.8
26020	2.0106e-014	2.3	0.	4011.1
26021	1.8358e-014	2.1	0.	3981.8
26022	1.661e-014	1.9	0.	3941.9
26023	1.4861e-014	1.7	0.	3888.9
26024	1.3113e-014	1.5	0.	3818.8
26025	1.1364e-014	1.3	0.	3725.3
26026	9.6161e-015	1.1	0.	3598.6
26027	7.8677e-015	0.9	0.	3421.8
26028	6.1193e-015	0.7	0.	3161.2
26029	4.371e-015	0.5	0.	2754.7
26030	2.6226e-015	0.3	0.	1978.
26031	24.	0.3	0.	46.792
26032	24.	0.5	0.	65.334
26033	24.	0.7	0.	78.949
26034	24.	0.9	0.	89.463
26035	24.	1.1	0.	97.672
26036	24.	1.3	0.	104.08
26037	24.	1.5	0.	109.06
26038	24.	1.7	0.	112.87
26039	24.	1.9	0.	115.75
26040	24.	2.1	0.	117.88
26041	24.	2.3	0.	119.4
26042	24.	2.5	0.	120.43
26043	24.	2.7	0.	121.07
26044	24.	2.9	0.	121.38
26045	24.	3.1	0.	121.38
26046	24.	3.3	0.	121.07
26047	24.	3.5	0.	120.43
26048	24.	3.7	0.	119.4
26049	24.	3.9	0.	117.88
26050	24.	4.1	0.	115.75
26051	24.	4.3	0.	112.87
26052	24.	4.5	0.	109.06
26053	24.	4.7	0.	104.09
26054	24.	4.9	0.	97.672
26055	24.	5.1	0.	89.464
26056	24.	5.3	0.	78.949
26057	24.	5.5	0.	65.334
26058	24.	5.7	0.	46.792
26059	24.	5.9	0.	22.118
26060	23.903	6.	0.	25.217
26061	23.708	6.	0.	60.263
26062	23.514	6.	0.	98.595
26063	23.319	6.	0.	137.8
26064	23.125	6.	0.	177.59
26065	22.931	6.	0.	217.67
26066	22.736	6.	0.	257.86
26067	22.542	6.	0.	298.04
26068	22.347	6.	0.	338.06
26069	22.153	6.	0.	377.76
26070	21.958	6.	0.	416.97
26071	21.764	6.	0.	455.46
26072	21.569	6.	0.	492.94
26073	21.375	6.	0.	529.06
26074	21.181	6.	0.	563.37
26075	20.986	6.	0.	595.31
26076	20.792	6.	0.	624.17
26077	20.597	6.	0.	649.07
26078	20.403	6.	0.	668.94
26079	20.208	6.	0.	682.46
26080	20.014	6.	0.	688.08
26081	19.819	6.	0.	683.98
26082	19.625	6.	0.	668.11
26083	19.431	6.	0.	638.32
26084	19.236	6.	0.	592.45
26085	19.042	6.	0.	528.66
26086	18.847	6.	0.	445.62
26087	18.653	6.	0.	342.81
26088	18.458	6.	0.	218.54
26089	18.264	6.	0.	78.951
26090	18.167	5.9	0.	70.269
26091	18.	4.3	0.	2398.1
26092	18.	4.1	0.	4490.3
26093	18.	4.5	0.	1546.9
26094	18.	4.7	0.	1194.4
26095	18.	4.9	0.	923.11
26096	18.	5.1	0.	713.95
26097	18.	5.3	0.	539.62
26098	18.	5.5	0.	386.47
26099	18.	5.7	0.	241.7
26100	18.083	4.	0.	5947.1
26101	18.167	5.7	0.	191.04
26102	18.167	5.5	0.	302.86
26103	18.167	5.3	0.	418.57
26104	18.167	5.1	0.	550.13
26105	18.167	4.9	0.	710.05
26106	18.167	4.7	0.	923.22
26107	18.167	4.5	0.	1201.
26108	18.167	4.3	0.	1877.6
26109	18.167	4.1	0.	4003.8
26110	18.	1.7	0.	2398.1
26111	18.	1.9	0.	4490.3
26112	18.	1.5	0.	1546.9
26113	18.	1.3	0.	1194.4
26114	18.	1.1	0.	923.11
26115	18.	0.9	0.	713.95
26116	18.	0.7	0.	539.62
26117	18.	0.5	0.	386.47
26118	18.	0.3	0.	241.7
26119	18.083	2.	0.	5947.1
26120	18.167	0.3	0.	191.04
26121	18.167	0.5	0.	302.86
26122	18.167	0.7	0.	418.57
26123	18.167	0.9	0.	550.13
26124	18.167	1.1	0.	710.05
26125	18.167	1.3	0.	923.22
26126	18.167	1.5	0.	1201.
26127	18.167	1.7	0.	1877.6
26128	18.167	1.9	0.	4003.8
