Node Number	X Location (in)	Y Location (in)	Z Location (in)	Maximum Principal Stress (psi)
1	12.2	2.1818	0.	1291.2
2	12.2	2.3636	0.	1009.4
3	12.2	2.5455	0.	849.04
4	12.2	2.7273	0.	764.13
5	12.2	2.9091	0.	726.02
6	12.2	3.0909	0.	726.02
7	12.2	3.2727	0.	764.13
8	12.2	3.4545	0.	849.04
9	12.2	3.6364	0.	1009.4
10	12.2	3.8182	0.	1291.2
11	12.367	2.1818	0.	1014.3
12	12.367	2.3636	0.	923.02
13	12.367	2.5455	0.	791.81
14	12.367	2.7273	0.	719.84
15	12.367	2.9091	0.	686.26
16	12.367	3.0909	0.	686.26
17	12.367	3.2727	0.	719.84
18	12.367	3.4545	0.	791.81
19	12.367	3.6364	0.	923.02
20	12.367	3.8182	0.	1014.3
21	12.015	5.8182	0.	94.273
22	12.015	5.6364	0.	213.15
23	12.015	5.4545	0.	393.76
24	12.015	5.2727	0.	609.15
25	12.015	5.0909	0.	859.11
26	12.015	4.9091	0.	1151.4
27	12.015	4.7273	0.	1503.1
28	12.015	4.5455	0.	1931.9
29	12.015	4.3636	0.	2522.1
30	12.015	4.1818	0.	2942.2
31	12.015	4.	0.	2163.
32	12.015	3.8182	0.	1081.1
33	12.015	3.6364	0.	867.59
34	12.015	3.4545	0.	744.51
35	12.015	3.2727	0.	691.95
36	12.015	3.0909	0.	666.4
37	12.015	2.9091	0.	666.4
38	12.015	2.7273	0.	691.95
39	12.015	2.5455	0.	744.52
40	12.015	2.3636	0.	867.59
41	12.015	2.1818	0.	1081.1
42	12.015	2.	0.	2163.
43	12.015	1.8182	0.	2942.2
44	12.015	1.6364	0.	2522.1
45	12.015	1.4545	0.	1931.9
46	12.015	1.2727	0.	1503.1
47	12.015	1.0909	0.	1151.4
48	12.015	0.90909	0.	859.11
49	12.015	0.72727	0.	609.15
50	12.015	0.54545	0.	393.76
51	12.015	0.36364	0.	213.15
52	12.015	0.18182	0.	94.274
53	11.83	5.8182	0.	69.31
54	11.83	5.6364	0.	133.86
55	11.83	5.4545	0.	258.91
56	11.83	5.2727	0.	421.73
57	11.83	5.0909	0.	612.86
58	11.83	4.9091	0.	828.62
59	11.83	4.7273	0.	1066.9
60	11.83	4.5455	0.	1305.2
61	11.83	4.3636	0.	1500.7
62	11.83	4.1818	0.	1495.8
63	11.83	4.	0.	1102.6
64	11.83	3.8182	0.	752.48
65	11.83	3.6364	0.	605.13
66	11.83	3.4545	0.	565.57
67	11.83	3.2727	0.	544.8
68	11.83	3.0909	0.	536.58
69	11.83	2.9091	0.	536.58
70	11.83	2.7273	0.	544.8
71	11.83	2.5455	0.	565.57
72	11.83	2.3636	0.	605.13
73	11.83	2.1818	0.	752.48
74	11.83	2.	0.	1102.6
75	11.83	1.8182	0.	1495.8
76	11.83	1.6364	0.	1500.7
77	11.83	1.4545	0.	1305.2
78	11.83	1.2727	0.	1066.9
79	11.83	1.0909	0.	828.62
80	11.83	0.90909	0.	612.86
81	11.83	0.72727	0.	421.73
82	11.83	0.54545	0.	258.91
83	11.83	0.36364	0.	133.86
84	11.83	0.18182	0.	69.31
85	11.645	5.8182	0.	68.872
86	11.645	5.6364	0.	123.61
87	11.645	5.4545	0.	216.51
88	11.645	5.2727	0.	338.83
89	11.645	5.0909	0.	482.12
90	11.645	4.9091	0.	637.39
91	11.645	4.7273	0.	790.78
92	11.645	4.5455	0.	918.8
93	11.645	4.3636	0.	969.53
94	11.645	4.1818	0.	890.27
95	11.645	4.	0.	705.38
96	11.645	3.8182	0.	521.82
97	11.645	3.6364	0.	427.88
98	11.645	3.4545	0.	399.18
99	11.645	3.2727	0.	392.51
100	11.645	3.0909	0.	391.74
101	11.645	2.9091	0.	391.74
102	11.645	2.7273	0.	392.51
103	11.645	2.5455	0.	399.18
104	11.645	2.3636	0.	427.88
105	11.645	2.1818	0.	521.82
106	11.645	2.	0.	705.38
107	11.645	1.8182	0.	890.27
108	11.645	1.6364	0.	969.53
109	11.645	1.4545	0.	918.8
110	11.645	1.2727	0.	790.78
111	11.645	1.0909	0.	637.39
112	11.645	0.90909	0.	482.12
113	11.645	0.72727	0.	338.83
114	11.645	0.54545	0.	216.51
115	11.645	0.36364	0.	123.61
116	11.645	0.18182	0.	68.872
117	11.461	5.8182	0.	68.989
118	11.461	5.6364	0.	123.87
119	11.461	5.4545	0.	198.51
120	11.461	5.2727	0.	290.3
121	11.461	5.0909	0.	393.8
122	11.461	4.9091	0.	499.74
123	11.461	4.7273	0.	594.24
124	11.461	4.5455	0.	657.19
125	11.461	4.3636	0.	663.84
126	11.461	4.1818	0.	598.64
127	11.461	4.	0.	486.09
128	11.461	3.8182	0.	375.76
129	11.461	3.6364	0.	304.91
130	11.461	3.4545	0.	275.3
131	11.461	3.2727	0.	267.51
132	11.461	3.0909	0.	266.59
133	11.461	2.9091	0.	266.59
134	11.461	2.7273	0.	267.51
135	11.461	2.5455	0.	275.3
136	11.461	2.3636	0.	304.91
137	11.461	2.1818	0.	375.76
138	11.461	2.	0.	486.09
139	11.461	1.8182	0.	598.64
140	11.461	1.6364	0.	663.84
141	11.461	1.4545	0.	657.19
142	11.461	1.2727	0.	594.24
143	11.461	1.0909	0.	499.74
144	11.461	0.90909	0.	393.79
145	11.461	0.72727	0.	290.3
146	11.461	0.54545	0.	198.51
147	11.461	0.36364	0.	123.87
148	11.461	0.18182	0.	68.989
149	11.276	5.8182	0.	66.676
150	11.276	5.6364	0.	122.62
151	11.276	5.4545	0.	185.81
152	11.276	5.2727	0.	255.88
153	11.276	5.0909	0.	329.48
154	11.276	4.9091	0.	399.39
155	11.276	4.7273	0.	455.04
156	11.276	4.5455	0.	483.41
157	11.276	4.3636	0.	472.89
158	11.276	4.1818	0.	422.54
159	11.276	4.	0.	346.88
160	11.276	3.8182	0.	271.78
161	11.276	3.6364	0.	217.38
162	11.276	3.4545	0.	187.66
163	11.276	3.2727	0.	175.43
164	11.276	3.0909	0.	171.78
165	11.276	2.9091	0.	171.78
166	11.276	2.7273	0.	175.43
167	11.276	2.5455	0.	187.66
168	11.276	2.3636	0.	217.38
169	11.276	2.1818	0.	271.78
170	11.276	2.	0.	346.88
171	11.276	1.8182	0.	422.53
172	11.276	1.6364	0.	472.89
173	11.276	1.4545	0.	483.41
174	11.276	1.2727	0.	455.04
175	11.276	1.0909	0.	399.39
176	11.276	0.90909	0.	329.48
177	11.276	0.72727	0.	255.88
178	11.276	0.54545	0.	185.81
179	11.276	0.36364	0.	122.62
180	11.276	0.18182	0.	66.676
181	11.091	5.8182	0.	62.598
182	11.091	5.6364	0.	118.04
183	11.091	5.4545	0.	172.88
184	11.091	5.2727	0.	227.5
185	11.091	5.0909	0.	279.92
186	11.091	4.9091	0.	325.21
187	11.091	4.7273	0.	356.44
188	11.091	4.5455	0.	366.27
189	11.091	4.3636	0.	350.03
190	11.091	4.1818	0.	309.41
191	11.091	4.	0.	254.25
192	11.091	3.8182	0.	198.73
193	11.091	3.6364	0.	154.49
194	11.091	3.4545	0.	125.89
195	11.091	3.2727	0.	110.78
196	11.091	3.0909	0.	104.73
197	11.091	2.9091	0.	104.73
198	11.091	2.7273	0.	110.78
199	11.091	2.5455	0.	125.89
200	11.091	2.3636	0.	154.49
201	11.091	2.1818	0.	198.73
202	11.091	2.	0.	254.25
203	11.091	1.8182	0.	309.41
204	11.091	1.6364	0.	350.03
205	11.091	1.4545	0.	366.27
206	11.091	1.2727	0.	356.44
207	11.091	1.0909	0.	325.21
208	11.091	0.90909	0.	279.92
209	11.091	0.72727	0.	227.5
210	11.091	0.54545	0.	172.88
211	11.091	0.36364	0.	118.04
212	11.091	0.18182	0.	62.598
213	10.906	5.8182	0.	57.422
214	10.906	5.6364	0.	110.52
215	10.906	5.4545	0.	158.47
216	10.906	5.2727	0.	201.86
217	10.906	5.0909	0.	239.61
218	10.906	4.9091	0.	268.67
219	10.906	4.7273	0.	284.96
220	10.906	4.5455	0.	284.76
221	10.906	4.3636	0.	266.52
222	10.906	4.1818	0.	232.62
223	10.906	4.	0.	189.53
224	10.906	3.8182	0.	145.86
225	10.906	3.6364	0.	108.93
226	10.906	3.4545	0.	82.377
227	10.906	3.2727	0.	66.278
228	10.906	3.0909	0.	58.939
229	10.906	2.9091	0.	58.939
230	10.906	2.7273	0.	66.277
231	10.906	2.5455	0.	82.376
232	10.906	2.3636	0.	108.93
233	10.906	2.1818	0.	145.86
234	10.906	2.	0.	189.53
235	10.906	1.8182	0.	232.62
236	10.906	1.6364	0.	266.52
237	10.906	1.4545	0.	284.76
238	10.906	1.2727	0.	284.96
239	10.906	1.0909	0.	268.67
240	10.906	0.90909	0.	239.61
241	10.906	0.72727	0.	201.86
242	10.906	0.54545	0.	158.47
243	10.906	0.36364	0.	110.52
244	10.906	0.18182	0.	57.422
245	10.721	5.8182	0.	51.758
246	10.721	5.6364	0.	101.06
247	10.721	5.4545	0.	142.91
248	10.721	5.2727	0.	177.89
249	10.721	5.0909	0.	205.51
250	10.721	4.9091	0.	224.03
251	10.721	4.7273	0.	231.33
252	10.721	4.5455	0.	225.77
253	10.721	4.3636	0.	207.29
254	10.721	4.1818	0.	178.16
255	10.721	4.	0.	142.91
256	10.721	3.8182	0.	107.1
257	10.721	3.6364	0.	75.664
258	10.721	3.4545	0.	51.603
259	10.721	3.2727	0.	35.847
260	10.721	3.0909	0.	28.145
261	10.721	2.9091	0.	28.145
262	10.721	2.7273	0.	35.847
263	10.721	2.5455	0.	51.602
264	10.721	2.3636	0.	75.663
265	10.721	2.1818	0.	107.1
266	10.721	2.	0.	142.91
267	10.721	1.8182	0.	178.16
268	10.721	1.6364	0.	207.29
269	10.721	1.4545	0.	225.77
270	10.721	1.2727	0.	231.33
271	10.721	1.0909	0.	224.03
272	10.721	0.90909	0.	205.51
273	10.721	0.72727	0.	177.89
274	10.721	0.54545	0.	142.91
275	10.721	0.36364	0.	101.06
276	10.721	0.18182	0.	51.758
277	10.536	5.8182	0.	46.037
278	10.536	5.6364	0.	90.611
279	10.536	5.4545	0.	126.91
280	10.536	5.2727	0.	155.4
281	10.536	5.0909	0.	175.92
282	10.536	4.9091	0.	187.62
283	10.536	4.7273	0.	189.57
284	10.536	4.5455	0.	181.3
285	10.536	4.3636	0.	163.42
286	10.536	4.1818	0.	137.97
287	10.536	4.	0.	108.23
288	10.536	3.8182	0.	78.094
289	10.536	3.6364	0.	51.092
290	10.536	3.4545	0.	29.684
291	10.536	3.2727	0.	15.065
292	10.536	3.0909	0.	7.5246
293	10.536	2.9091	0.	7.5245
294	10.536	2.7273	0.	15.065
295	10.536	2.5455	0.	29.684
296	10.536	2.3636	0.	51.091
297	10.536	2.1818	0.	78.093
298	10.536	2.	0.	108.23
299	10.536	1.8182	0.	137.96
300	10.536	1.6364	0.	163.42
301	10.536	1.4545	0.	181.3
302	10.536	1.2727	0.	189.57
303	10.536	1.0909	0.	187.62
304	10.536	0.90909	0.	175.92
305	10.536	0.72727	0.	155.4
306	10.536	0.54545	0.	126.91
307	10.536	0.36364	0.	90.611
308	10.536	0.18182	0.	46.037
309	10.352	5.8182	0.	40.538
310	10.352	5.6364	0.	79.925
311	10.352	5.4545	0.	111.12
312	10.352	5.2727	0.	134.43
313	10.352	5.0909	0.	149.87
314	10.352	4.9091	0.	157.12
315	10.352	4.7273	0.	155.93
316	10.352	4.5455	0.	146.48
317	10.352	4.3636	0.	129.64
318	10.352	4.1818	0.	107.2
319	10.352	4.	0.	81.67
320	10.352	3.8182	0.	55.924
321	10.352	3.6364	0.	32.644
322	10.352	3.4545	0.	13.964
323	10.352	3.2727	0.	2.156
324	10.352	3.0909	0.	0.17466
325	10.352	2.9091	0.	0.17466
326	10.352	2.7273	0.	2.1559
327	10.352	2.5455	0.	13.964
328	10.352	2.3636	0.	32.644
329	10.352	2.1818	0.	55.924
330	10.352	2.	0.	81.67
331	10.352	1.8182	0.	107.2
332	10.352	1.6364	0.	129.64
333	10.352	1.4545	0.	146.47
334	10.352	1.2727	0.	155.93
335	10.352	1.0909	0.	157.12
336	10.352	0.90909	0.	149.87
337	10.352	0.72727	0.	134.43
338	10.352	0.54545	0.	111.12
339	10.352	0.36364	0.	79.925
340	10.352	0.18182	0.	40.538
341	10.167	5.8182	0.	35.417
342	10.167	5.6364	0.	69.519
343	10.167	5.4545	0.	96.033
344	10.167	5.2727	0.	115.07
345	10.167	5.0909	0.	126.75
346	10.167	4.9091	0.	131.04
347	10.167	4.7273	0.	128.06
348	10.167	4.5455	0.	118.29
349	10.167	4.3636	0.	102.7
350	10.167	4.1818	0.	82.84
351	10.167	4.	0.	60.715
352	10.167	3.8182	0.	38.546
353	10.167	3.6364	0.	18.515
354	10.167	3.4545	0.	3.499
355	10.167	3.2727	0.	0.3463
356	10.167	3.0909	0.	9.1266e-002
357	10.167	2.9091	0.	9.1266e-002
358	10.167	2.7273	0.	0.34629
359	10.167	2.5455	0.	3.4989
360	10.167	2.3636	0.	18.515
361	10.167	2.1818	0.	38.546
362	10.167	2.	0.	60.715
363	10.167	1.8182	0.	82.84
364	10.167	1.6364	0.	102.7
365	10.167	1.4545	0.	118.29
366	10.167	1.2727	0.	128.06
367	10.167	1.0909	0.	131.04
368	10.167	0.90909	0.	126.75
369	10.167	0.72727	0.	115.07
370	10.167	0.54545	0.	96.033
371	10.167	0.36364	0.	69.519
372	10.167	0.18182	0.	35.417
373	9.9818	5.8182	0.	30.742
374	9.9818	5.6364	0.	59.709
375	9.9818	5.4545	0.	81.94
376	9.9818	5.2727	0.	97.384
377	9.9818	5.0909	0.	106.17
378	9.9818	4.9091	0.	108.42
379	9.9818	4.7273	0.	104.44
380	9.9818	4.5455	0.	94.829
381	9.9818	4.3636	0.	80.555
382	9.9818	4.1818	0.	62.96
383	9.9818	4.	0.	43.685
384	9.9818	3.8182	0.	24.539
385	9.9818	3.6364	0.	7.6414
386	9.9818	3.4545	0.	0.65481
387	9.9818	3.2727	0.	0.15816
388	9.9818	3.0909	0.	5.8512e-002
389	9.9818	2.9091	0.	5.8512e-002
390	9.9818	2.7273	0.	0.15816
391	9.9818	2.5455	0.	0.6548
392	9.9818	2.3636	0.	7.6412
393	9.9818	2.1818	0.	24.539
394	9.9818	2.	0.	43.685
395	9.9818	1.8182	0.	62.96
396	9.9818	1.6364	0.	80.555
397	9.9818	1.4545	0.	94.828
398	9.9818	1.2727	0.	104.44
399	9.9818	1.0909	0.	108.42
400	9.9818	0.90909	0.	106.17
401	9.9818	0.72727	0.	97.384
402	9.9818	0.54545	0.	81.94
403	9.9818	0.36364	0.	59.708
404	9.9818	0.18182	0.	30.742
405	9.797	5.8182	0.	26.525
406	9.797	5.6364	0.	50.657
407	9.797	5.4545	0.	68.996
408	9.797	5.2727	0.	81.346
409	9.797	5.0909	0.	87.822
410	9.797	4.9091	0.	88.603
411	9.797	4.7273	0.	84.074
412	9.797	4.5455	0.	74.864
413	9.797	4.3636	0.	61.874
414	9.797	4.1818	0.	46.272
415	9.797	4.	0.	29.438
416	9.797	3.8182	0.	12.959
417	9.797	3.6364	0.	1.4367
418	9.797	3.4545	0.	0.25699
419	9.797	3.2727	0.	8.9088e-002
420	9.797	3.0909	0.	3.9007e-002
421	9.797	2.9091	0.	3.9007e-002
422	9.797	2.7273	0.	8.9088e-002
423	9.797	2.5455	0.	0.25698
424	9.797	2.3636	0.	1.4367
425	9.797	2.1818	0.	12.959
426	9.797	2.	0.	29.438
427	9.797	1.8182	0.	46.272
428	9.797	1.6364	0.	61.874
429	9.797	1.4545	0.	74.864
430	9.797	1.2727	0.	84.074
431	9.797	1.0909	0.	88.603
432	9.797	0.90909	0.	87.822
433	9.797	0.72727	0.	81.346
434	9.797	0.54545	0.	68.995
435	9.797	0.36364	0.	50.657
436	9.797	0.18182	0.	26.525
437	9.6121	5.8182	0.	22.743
438	9.6121	5.6364	0.	42.422
439	9.6121	5.4545	0.	57.241
440	9.6121	5.2727	0.	66.886
441	9.6121	5.0909	0.	71.444
442	9.6121	4.9091	0.	71.108
443	9.6121	4.7273	0.	66.276
444	9.6121	4.5455	0.	57.552
445	9.6121	4.3636	0.	45.755
446	9.6121	4.1818	0.	31.902
447	9.6121	4.	0.	17.196
448	9.6121	3.8182	0.	3.7215
449	9.6121	3.6364	0.	0.38421
450	9.6121	3.4545	0.	0.13053
451	9.6121	3.2727	0.	5.4161e-002
452	9.6121	3.0909	0.	2.6417e-002
453	9.6121	2.9091	0.	2.6417e-002
454	9.6121	2.7273	0.	5.4161e-002
455	9.6121	2.5455	0.	0.13053
456	9.6121	2.3636	0.	0.38421
457	9.6121	2.1818	0.	3.7214
458	9.6121	2.	0.	17.195
459	9.6121	1.8182	0.	31.902
460	9.6121	1.6364	0.	45.755
461	9.6121	1.4545	0.	57.552
462	9.6121	1.2727	0.	66.276
463	9.6121	1.0909	0.	71.108
464	9.6121	0.90909	0.	71.444
465	9.6121	0.72727	0.	66.886
466	9.6121	0.54545	0.	57.24
467	9.6121	0.36364	0.	42.422
468	9.6121	0.18182	0.	22.743
469	9.4273	5.8182	0.	19.356
470	9.4273	5.6364	0.	34.996
471	9.4273	5.4545	0.	46.641
472	9.4273	5.2727	0.	53.892
473	9.4273	5.0909	0.	56.804
474	9.4273	4.9091	0.	55.561
475	9.4273	4.7273	0.	50.541
476	9.4273	4.5455	0.	42.3
477	9.4273	4.3636	0.	31.568
478	9.4273	4.1818	0.	19.245
479	9.4273	4.	0.	6.5843
480	9.4273	3.8182	0.	0.54274
481	9.4273	3.6364	0.	0.16668
482	9.4273	3.4545	0.	7.3655e-002
483	9.4273	3.2727	0.	3.4174e-002
484	9.4273	3.0909	0.	1.8002e-002
485	9.4273	2.9091	0.	1.8002e-002
486	9.4273	2.7273	0.	3.4174e-002
487	9.4273	2.5455	0.	7.3655e-002
488	9.4273	2.3636	0.	0.16668
489	9.4273	2.1818	0.	0.54273
490	9.4273	2.	0.	6.5842
491	9.4273	1.8182	0.	19.245
492	9.4273	1.6364	0.	31.568
493	9.4273	1.4545	0.	42.3
494	9.4273	1.2727	0.	50.541
495	9.4273	1.0909	0.	55.561
496	9.4273	0.90909	0.	56.803
497	9.4273	0.72727	0.	53.892
498	9.4273	0.54545	0.	46.641
499	9.4273	0.36364	0.	34.996
500	9.4273	0.18182	0.	19.356
501	9.2424	5.8182	0.	16.317
502	9.2424	5.6364	0.	28.325
503	9.2424	5.4545	0.	37.115
504	9.2424	5.2727	0.	42.225
505	9.2424	5.0909	0.	43.682
506	9.2424	4.9091	0.	41.654
507	9.2424	4.7273	0.	36.482
508	9.2424	4.5455	0.	28.667
509	9.2424	4.3636	0.	18.862
510	9.2424	4.1818	0.	7.9564
511	9.2424	4.	0.	0.68872
512	9.2424	3.8182	0.	0.18505
513	9.2424	3.6364	0.	8.67e-002
514	9.2424	3.4545	0.	4.4029e-002
515	9.2424	3.2727	0.	2.2046e-002
516	9.2424	3.0909	0.	1.229e-002
517	9.2424	2.9091	0.	1.229e-002
518	9.2424	2.7273	0.	2.2046e-002
519	9.2424	2.5455	0.	4.4029e-002
520	9.2424	2.3636	0.	8.67e-002
521	9.2424	2.1818	0.	0.18505
522	9.2424	2.	0.	0.6887
523	9.2424	1.8182	0.	7.9563
524	9.2424	1.6364	0.	18.862
525	9.2424	1.4545	0.	28.667
526	9.2424	1.2727	0.	36.482
527	9.2424	1.0909	0.	41.654
528	9.2424	0.90909	0.	43.682
529	9.2424	0.72727	0.	42.225
530	9.2424	0.54545	0.	37.115
531	9.2424	0.36364	0.	28.325
532	9.2424	0.18182	0.	16.317
533	9.0576	5.8182	0.	13.574
534	9.0576	5.6364	0.	22.334
535	9.0576	5.4545	0.	28.554
536	9.0576	5.2727	0.	31.731
537	9.0576	5.0909	0.	31.872
538	9.0576	4.9091	0.	29.123
539	9.0576	4.7273	0.	23.791
540	9.0576	4.5455	0.	16.323
541	9.0576	4.3636	0.	7.3747
542	9.0576	4.1818	0.	0.65985
543	9.0576	4.	0.	0.17542
544	9.0576	3.8182	0.	8.8472e-002
545	9.0576	3.6364	0.	4.9545e-002
546	9.0576	3.4545	0.	2.7339e-002
547	9.0576	3.2727	0.	1.4411e-002
548	9.0576	3.0909	0.	8.3465e-003
549	9.0576	2.9091	0.	8.3465e-003
550	9.0576	2.7273	0.	1.4411e-002
551	9.0576	2.5455	0.	2.7338e-002
552	9.0576	2.3636	0.	4.9545e-002
553	9.0576	2.1818	0.	8.8472e-002
554	9.0576	2.	0.	0.17542
555	9.0576	1.8182	0.	0.65984
556	9.0576	1.6364	0.	7.3746
557	9.0576	1.4545	0.	16.323
558	9.0576	1.2727	0.	23.79
559	9.0576	1.0909	0.	29.123
560	9.0576	0.90909	0.	31.872
561	9.0576	0.72727	0.	31.731
562	9.0576	0.54545	0.	28.554
563	9.0576	0.36364	0.	22.334
564	9.0576	0.18182	0.	13.574
565	8.8727	5.8182	0.	11.082
566	8.8727	5.6364	0.	16.94
567	8.8727	5.4545	0.	20.839
568	8.8727	5.2727	0.	22.254
569	8.8727	5.0909	0.	21.177
570	8.8727	4.9091	0.	17.74
571	8.8727	4.7273	0.	12.218
572	8.8727	4.5455	0.	5.105
573	8.8727	4.3636	0.	0.40976
574	8.8727	4.1818	0.	0.13997
575	8.8727	4.	0.	7.9158e-002
576	8.8727	3.8182	0.	4.9047e-002
577	8.8727	3.6364	0.	3.0104e-002
578	8.8727	3.4545	0.	1.7449e-002
579	8.8727	3.2727	0.	9.4689e-003
580	8.8727	3.0909	0.	5.5776e-003
581	8.8727	2.9091	0.	5.5777e-003
582	8.8727	2.7273	0.	9.4692e-003
583	8.8727	2.5455	0.	1.7449e-002
584	8.8727	2.3636	0.	3.0104e-002
585	8.8727	2.1818	0.	4.9048e-002
586	8.8727	2.	0.	7.9158e-002
587	8.8727	1.8182	0.	0.13997
588	8.8727	1.6364	0.	0.40975
589	8.8727	1.4545	0.	5.1049
590	8.8727	1.2727	0.	12.218
591	8.8727	1.0909	0.	17.74
592	8.8727	0.90909	0.	21.177
593	8.8727	0.72727	0.	22.254
594	8.8727	0.54545	0.	20.839
595	8.8727	0.36364	0.	16.94
596	8.8727	0.18182	0.	11.082
597	8.6879	5.8182	0.	8.7933
598	8.6879	5.6364	0.	12.054
599	8.6879	5.4545	0.	13.846
600	8.6879	5.2727	0.	13.639
601	8.6879	5.0909	0.	11.419
602	8.6879	4.9091	0.	7.3173
603	8.6879	4.7273	0.	1.8547
604	8.6879	4.5455	0.	0.18997
605	8.6879	4.3636	0.	9.6653e-002
606	8.6879	4.1818	0.	6.3525e-002
607	8.6879	4.	0.	4.3814e-002
608	8.6879	3.8182	0.	2.9732e-002
609	8.6879	3.6364	0.	1.9134e-002
610	8.6879	3.4545	0.	1.1349e-002
611	8.6879	3.2727	0.	6.1792e-003
612	8.6879	3.0909	0.	3.5907e-003
613	8.6879	2.9091	0.	3.5913e-003
614	8.6879	2.7273	0.	6.1789e-003
615	8.6879	2.5455	0.	1.1349e-002
616	8.6879	2.3636	0.	1.9134e-002
617	8.6879	2.1818	0.	2.9732e-002
618	8.6879	2.	0.	4.3815e-002
619	8.6879	1.8182	0.	6.3526e-002
620	8.6879	1.6364	0.	9.6654e-002
621	8.6879	1.4545	0.	0.18996
622	8.6879	1.2727	0.	1.8546
623	8.6879	1.0909	0.	7.3172
624	8.6879	0.90909	0.	11.419
625	8.6879	0.72727	0.	13.639
626	8.6879	0.54545	0.	13.846
627	8.6879	0.36364	0.	12.054
628	8.6879	0.18182	0.	8.7933
629	8.503	5.8182	0.	6.6696
630	8.503	5.6364	0.	7.5918
631	8.503	5.4545	0.	7.4576
632	8.503	5.2727	0.	5.7452
633	8.503	5.0909	0.	2.4918
634	8.503	4.9091	0.	0.18694
635	8.503	4.7273	0.	8.7486e-002
636	8.503	4.5455	0.	6.2247e-002
637	8.503	4.3636	0.	4.7656e-002
638	8.503	4.1818	0.	3.652e-002
639	8.503	4.	0.	2.717e-002
640	8.503	3.8182	0.	1.9192e-002
641	8.503	3.6364	0.	1.2576e-002
642	8.503	3.4545	0.	7.4381e-003
643	8.503	3.2727	0.	3.9161e-003
644	8.503	3.0909	0.	2.1237e-003
645	8.503	2.9091	0.	2.1238e-003
646	8.503	2.7273	0.	3.9163e-003
647	8.503	2.5455	0.	7.4383e-003
648	8.503	2.3636	0.	1.2576e-002
649	8.503	2.1818	0.	1.9192e-002
650	8.503	2.	0.	2.717e-002
651	8.503	1.8182	0.	3.6521e-002
652	8.503	1.6364	0.	4.7656e-002
653	8.503	1.4545	0.	6.2248e-002
654	8.503	1.2727	0.	8.7486e-002
655	8.503	1.0909	0.	0.18694
656	8.503	0.90909	0.	2.4918
657	8.503	0.72727	0.	5.7451
658	8.503	0.54545	0.	7.4575
659	8.503	0.36364	0.	7.5917
660	8.503	0.18182	0.	6.6696
661	8.3182	5.8182	0.	4.6756
662	8.3182	5.6364	0.	3.4744
663	8.3182	5.4545	0.	1.5775
664	8.3182	5.2727	0.	8.6492e-002
665	8.3182	5.0909	0.	5.421e-002
666	8.3182	4.9091	0.	4.6347e-002
667	8.3182	4.7273	0.	4.0759e-002
668	8.3182	4.5455	0.	3.5256e-002
669	8.3182	4.3636	0.	2.9568e-002
670	8.3182	4.1818	0.	2.3801e-002
671	8.3182	4.	0.	1.8183e-002
672	8.3182	3.8182	0.	1.2978e-002
673	8.3182	3.6364	0.	8.4477e-003
674	8.3182	3.4545	0.	4.8268e-003
675	8.3182	3.2727	0.	2.3011e-003
676	8.3182	3.0909	0.	1.0037e-003
677	8.3182	2.9091	0.	1.0035e-003
678	8.3182	2.7273	0.	2.3012e-003
679	8.3182	2.5455	0.	4.827e-003
680	8.3182	2.3636	0.	8.4481e-003
681	8.3182	2.1818	0.	1.2978e-002
682	8.3182	2.	0.	1.8183e-002
683	8.3182	1.8182	0.	2.3801e-002
684	8.3182	1.6364	0.	2.9569e-002
685	8.3182	1.4545	0.	3.5257e-002
686	8.3182	1.2727	0.	4.0759e-002
687	8.3182	1.0909	0.	4.6348e-002
688	8.3182	0.90909	0.	5.421e-002
689	8.3182	0.72727	0.	8.6491e-002
690	8.3182	0.54545	0.	1.5774
691	8.3182	0.36364	0.	3.4744
692	8.3182	0.18182	0.	4.6756
693	8.1333	5.8182	0.	2.7847
694	8.1333	5.6364	0.	5.3626e-002
695	8.1333	5.4545	0.	2.7428e-002
696	8.1333	5.2727	0.	2.9119e-002
697	8.1333	5.0909	0.	2.9658e-002
698	8.1333	4.9091	0.	2.8961e-002
699	8.1333	4.7273	0.	2.705e-002
700	8.1333	4.5455	0.	2.4201e-002
701	8.1333	4.3636	0.	2.0688e-002
702	8.1333	4.1818	0.	1.6807e-002
703	8.1333	4.	0.	1.284e-002
704	8.1333	3.8182	0.	9.0566e-003
705	8.1333	3.6364	0.	5.7027e-003
706	8.1333	3.4545	0.	2.9904e-003
707	8.1333	3.2727	0.	1.0845e-003
708	8.1333	3.0909	0.	1.0131e-004
709	8.1333	2.9091	0.	1.0131e-004
710	8.1333	2.7273	0.	1.0848e-003
711	8.1333	2.5455	0.	2.9906e-003
712	8.1333	2.3636	0.	5.7028e-003
713	8.1333	2.1818	0.	9.0567e-003
714	8.1333	2.	0.	1.2841e-002
715	8.1333	1.8182	0.	1.6807e-002
716	8.1333	1.6364	0.	2.0689e-002
717	8.1333	1.4545	0.	2.4201e-002
718	8.1333	1.2727	0.	2.7051e-002
719	8.1333	1.0909	0.	2.8962e-002
720	8.1333	0.90909	0.	2.966e-002
721	8.1333	0.72727	0.	2.912e-002
722	8.1333	0.54545	0.	2.7427e-002
723	8.1333	0.36364	0.	5.3626e-002
724	8.1333	0.18182	0.	2.7847
725	7.9485	5.8182	0.	1.0122
726	7.9485	5.6364	0.	3.0187e-002
727	7.9485	5.4545	0.	2.1607e-002
728	7.9485	5.2727	0.	2.3487e-002
729	7.9485	5.0909	0.	2.3123e-002
730	7.9485	4.9091	0.	2.2352e-002
731	7.9485	4.7273	0.	2.0691e-002
732	7.9485	4.5455	0.	1.8391e-002
733	7.9485	4.3636	0.	1.5601e-002
734	7.9485	4.1818	0.	1.2536e-002
735	7.9485	4.	0.	9.4063e-003
736	7.9485	3.8182	0.	6.418e-003
737	7.9485	3.6364	0.	3.7664e-003
738	7.9485	3.4545	0.	1.6198e-003
739	7.9485	3.2727	0.	1.0977e-004
740	7.9485	3.0909	0.	-6.6945e-004
741	7.9485	2.9091	0.	-6.6945e-004
742	7.9485	2.7273	0.	1.0994e-004
743	7.9485	2.5455	0.	1.6199e-003
744	7.9485	2.3636	0.	3.7666e-003
745	7.9485	2.1818	0.	6.4184e-003
746	7.9485	2.	0.	9.4065e-003
747	7.9485	1.8182	0.	1.2537e-002
748	7.9485	1.6364	0.	1.5602e-002
749	7.9485	1.4545	0.	1.8392e-002
750	7.9485	1.2727	0.	2.0692e-002
751	7.9485	1.0909	0.	2.2353e-002
752	7.9485	0.90909	0.	2.3124e-002
753	7.9485	0.72727	0.	2.3488e-002
754	7.9485	0.54545	0.	2.1607e-002
755	7.9485	0.36364	0.	3.0188e-002
756	7.9485	0.18182	0.	1.0122
757	7.7636	5.8182	0.	0.14518
758	7.7636	5.6364	0.	3.7517e-002
759	7.7636	5.4545	0.	2.0766e-002
760	7.7636	5.2727	0.	2.1914e-002
761	7.7636	5.0909	0.	2.0259e-002
762	7.7636	4.9091	0.	1.8986e-002
763	7.7636	4.7273	0.	1.7115e-002
764	7.7636	4.5455	0.	1.4897e-002
765	7.7636	4.3636	0.	1.2378e-002
766	7.7636	4.1818	0.	9.711e-003
767	7.7636	4.	0.	7.0425e-003
768	7.7636	3.8182	0.	4.5265e-003
769	7.7636	3.6364	0.	2.3114e-003
770	7.7636	3.4545	0.	5.2799e-004
771	7.7636	3.2727	0.	-7.2422e-004
772	7.7636	3.0909	0.	-1.3689e-003
773	7.7636	2.9091	0.	-1.3689e-003
774	7.7636	2.7273	0.	-7.2368e-004
775	7.7636	2.5455	0.	5.2745e-004
776	7.7636	2.3636	0.	2.3119e-003
777	7.7636	2.1818	0.	4.5268e-003
778	7.7636	2.	0.	7.043e-003
779	7.7636	1.8182	0.	9.7116e-003
780	7.7636	1.6364	0.	1.2379e-002
781	7.7636	1.4545	0.	1.4897e-002
782	7.7636	1.2727	0.	1.7116e-002
783	7.7636	1.0909	0.	1.8986e-002
784	7.7636	0.90909	0.	2.026e-002
785	7.7636	0.72727	0.	2.1915e-002
786	7.7636	0.54545	0.	2.0766e-002
787	7.7636	0.36364	0.	3.7519e-002
788	7.7636	0.18182	0.	0.14518
789	7.5788	5.8182	0.	9.1939e-002
790	7.5788	5.6364	0.	4.5915e-002
791	7.5788	5.4545	0.	2.1138e-002
792	7.5788	5.2727	0.	2.1684e-002
793	7.5788	5.0909	0.	1.8849e-002
794	7.5788	4.9091	0.	1.7064e-002
795	7.5788	4.7273	0.	1.4896e-002
796	7.5788	4.5455	0.	1.261e-002
797	7.5788	4.3636	0.	1.0179e-002
798	7.5788	4.1818	0.	7.7101e-003
799	7.5788	4.	0.	5.3051e-003
800	7.5788	3.8182	0.	3.0781e-003
801	7.5788	3.6364	0.	1.1405e-003
802	7.5788	3.4545	0.	-4.077e-004
803	7.5788	3.2727	0.	-1.4881e-003
804	7.5788	3.0909	0.	-2.0436e-003
805	7.5788	2.9091	0.	-2.0434e-003
806	7.5788	2.7273	0.	-1.4883e-003
807	7.5788	2.5455	0.	-4.0692e-004
808	7.5788	2.3636	0.	1.1404e-003
809	7.5788	2.1818	0.	3.0785e-003
810	7.5788	2.	0.	5.3058e-003
811	7.5788	1.8182	0.	7.7104e-003
812	7.5788	1.6364	0.	1.018e-002
813	7.5788	1.4545	0.	1.2611e-002
814	7.5788	1.2727	0.	1.4896e-002
815	7.5788	1.0909	0.	1.7064e-002
816	7.5788	0.90909	0.	1.8851e-002
817	7.5788	0.72727	0.	2.1685e-002
818	7.5788	0.54545	0.	2.1138e-002
819	7.5788	0.36364	0.	4.5917e-002
820	7.5788	0.18182	0.	9.194e-002
821	7.3939	5.8182	0.	8.4973e-002
822	7.3939	5.6364	0.	5.4668e-002
823	7.3939	5.4545	0.	2.2142e-002
824	7.3939	5.2727	0.	2.2173e-002
825	7.3939	5.0909	0.	1.8239e-002
826	7.3939	4.9091	0.	1.596e-002
827	7.3939	4.7273	0.	1.3465e-002
828	7.3939	4.5455	0.	1.1044e-002
829	7.3939	4.3636	0.	8.604e-003
830	7.3939	4.1818	0.	6.2207e-003
831	7.3939	4.	0.	3.9608e-003
832	7.3939	3.8182	0.	1.9067e-003
833	7.3939	3.6364	0.	1.4404e-004
834	7.3939	3.4545	0.	-1.2518e-003
835	7.3939	3.2727	0.	-2.2196e-003
836	7.3939	3.0909	0.	-2.7158e-003
837	7.3939	2.9091	0.	-2.716e-003
838	7.3939	2.7273	0.	-2.2195e-003
839	7.3939	2.5455	0.	-1.2515e-003
840	7.3939	2.3636	0.	1.4405e-004
841	7.3939	2.1818	0.	1.9074e-003
842	7.3939	2.	0.	3.961e-003
843	7.3939	1.8182	0.	6.2213e-003
844	7.3939	1.6364	0.	8.6043e-003
845	7.3939	1.4545	0.	1.1044e-002
846	7.3939	1.2727	0.	1.3466e-002
847	7.3939	1.0909	0.	1.596e-002
848	7.3939	0.90909	0.	1.824e-002
849	7.3939	0.72727	0.	2.2174e-002
850	7.3939	0.54545	0.	2.2143e-002
851	7.3939	0.36364	0.	5.467e-002
852	7.3939	0.18182	0.	8.4974e-002
853	7.2091	5.8182	0.	8.5992e-002
854	7.2091	5.6364	0.	6.3722e-002
855	7.2091	5.4545	0.	2.3608e-002
856	7.2091	5.2727	0.	2.3161e-002
857	7.2091	5.0909	0.	1.8166e-002
858	7.2091	4.9091	0.	1.5399e-002
859	7.2091	4.7273	0.	1.2557e-002
860	7.2091	4.5455	0.	9.9553e-003
861	7.2091	4.3636	0.	7.4432e-003
862	7.2091	4.1818	0.	5.0705e-003
863	7.2091	4.	0.	2.8754e-003
864	7.2091	3.8182	0.	9.1591e-004
865	7.2091	3.6364	0.	-7.4349e-004
866	7.2091	3.4545	0.	-2.0442e-003
867	7.2091	3.2727	0.	-2.9411e-003
868	7.2091	3.0909	0.	-3.3988e-003
869	7.2091	2.9091	0.	-3.3988e-003
870	7.2091	2.7273	0.	-2.941e-003
871	7.2091	2.5455	0.	-2.0439e-003
872	7.2091	2.3636	0.	-7.4284e-004
873	7.2091	2.1818	0.	9.1651e-004
874	7.2091	2.	0.	2.8753e-003
875	7.2091	1.8182	0.	5.0712e-003
876	7.2091	1.6364	0.	7.4439e-003
877	7.2091	1.4545	0.	9.956e-003
878	7.2091	1.2727	0.	1.2557e-002
879	7.2091	1.0909	0.	1.54e-002
880	7.2091	0.90909	0.	1.8168e-002
881	7.2091	0.72727	0.	2.3162e-002
882	7.2091	0.54545	0.	2.3609e-002
883	7.2091	0.36364	0.	6.3723e-002
884	7.2091	0.18182	0.	8.5994e-002
885	7.0242	5.8182	0.	9.0004e-002
886	7.0242	5.6364	0.	7.3125e-002
887	7.0242	5.4545	0.	2.5456e-002
888	7.0242	5.2727	0.	2.4544e-002
889	7.0242	5.0909	0.	1.8495e-002
890	7.0242	4.9091	0.	1.5231e-002
891	7.0242	4.7273	0.	1.2017e-002
892	7.0242	4.5455	0.	9.1969e-003
893	7.0242	4.3636	0.	6.5632e-003
894	7.0242	4.1818	0.	4.1445e-003
895	7.0242	4.	0.	1.9538e-003
896	7.0242	3.8182	0.	3.0997e-005
897	7.0242	3.6364	0.	-1.5767e-003
898	7.0242	3.4545	0.	-2.826e-003
899	7.0242	3.2727	0.	-3.682e-003
900	7.0242	3.0909	0.	-4.1173e-003
901	7.0242	2.9091	0.	-4.1172e-003
902	7.0242	2.7273	0.	-3.682e-003
903	7.0242	2.5455	0.	-2.8258e-003
904	7.0242	2.3636	0.	-1.5767e-003
905	7.0242	2.1818	0.	3.1533e-005
906	7.0242	2.	0.	1.9541e-003
907	7.0242	1.8182	0.	4.1445e-003
908	7.0242	1.6364	0.	6.5641e-003
909	7.0242	1.4545	0.	9.1971e-003
910	7.0242	1.2727	0.	1.2018e-002
911	7.0242	1.0909	0.	1.5232e-002
912	7.0242	0.90909	0.	1.8497e-002
913	7.0242	0.72727	0.	2.4545e-002
914	7.0242	0.54545	0.	2.5456e-002
915	7.0242	0.36364	0.	7.3126e-002
916	7.0242	0.18182	0.	9.0005e-002
917	6.8394	5.8182	0.	9.5746e-002
918	6.8394	5.6364	0.	8.2962e-002
919	6.8394	5.4545	0.	2.7655e-002
920	6.8394	5.2727	0.	2.6274e-002
921	6.8394	5.0909	0.	1.9156e-002
922	6.8394	4.9091	0.	1.5374e-002
923	6.8394	4.7273	0.	1.176e-002
924	6.8394	4.5455	0.	8.6854e-003
925	6.8394	4.3636	0.	5.8874e-003
926	6.8394	4.1818	0.	3.375e-003
927	6.8394	4.	0.	1.141e-003
928	6.8394	3.8182	0.	-7.9095e-004
929	6.8394	3.6364	0.	-2.389e-003
930	6.8394	3.4545	0.	-3.62e-003
931	6.8394	3.2727	0.	-4.4587e-003
932	6.8394	3.0909	0.	-4.8837e-003
933	6.8394	2.9091	0.	-4.8837e-003
934	6.8394	2.7273	0.	-4.4584e-003
935	6.8394	2.5455	0.	-3.6199e-003
936	6.8394	2.3636	0.	-2.3887e-003
937	6.8394	2.1818	0.	-7.9053e-004
938	6.8394	2.	0.	1.1413e-003
939	6.8394	1.8182	0.	3.3758e-003
940	6.8394	1.6364	0.	5.8879e-003
941	6.8394	1.4545	0.	8.6861e-003
942	6.8394	1.2727	0.	1.1761e-002
943	6.8394	1.0909	0.	1.5375e-002
944	6.8394	0.90909	0.	1.9157e-002
945	6.8394	0.72727	0.	2.6275e-002
946	6.8394	0.54545	0.	2.7655e-002
947	6.8394	0.36364	0.	8.2964e-002
948	6.8394	0.18182	0.	9.5747e-002
949	6.6545	5.8182	0.	0.10285
950	6.6545	5.6364	0.	9.3332e-002
951	6.6545	5.4545	0.	3.0196e-002
952	6.6545	5.2727	0.	2.8329e-002
953	6.6545	5.0909	0.	2.0107e-002
954	6.6545	4.9091	0.	1.5781e-002
955	6.6545	4.7273	0.	1.1734e-002
956	6.6545	4.5455	0.	8.3673e-003
957	6.6545	4.3636	0.	5.3653e-003
958	6.6545	4.1818	0.	2.7179e-003
959	6.6545	4.	0.	3.9958e-004
960	6.6545	3.8182	0.	-1.581e-003
961	6.6545	3.6364	0.	-3.2025e-003
962	6.6545	3.4545	0.	-4.4429e-003
963	6.6545	3.2727	0.	-5.2839e-003
964	6.6545	3.0909	0.	-5.7085e-003
965	6.6545	2.9091	0.	-5.7083e-003
966	6.6545	2.7273	0.	-5.2839e-003
967	6.6545	2.5455	0.	-4.4425e-003
968	6.6545	2.3636	0.	-3.2025e-003
969	6.6545	2.1818	0.	-1.5804e-003
970	6.6545	2.	0.	3.9976e-004
971	6.6545	1.8182	0.	2.7186e-003
972	6.6545	1.6364	0.	5.3658e-003
973	6.6545	1.4545	0.	8.3682e-003
974	6.6545	1.2727	0.	1.1735e-002
975	6.6545	1.0909	0.	1.5782e-002
976	6.6545	0.90909	0.	2.0108e-002
977	6.6545	0.72727	0.	2.833e-002
978	6.6545	0.54545	0.	3.0196e-002
979	6.6545	0.36364	0.	9.3334e-002
980	6.6545	0.18182	0.	0.10285
981	6.4697	5.8182	0.	0.11127
982	6.4697	5.6364	0.	0.10434
983	6.4697	5.4545	0.	3.3083e-002
984	6.4697	5.2727	0.	3.0702e-002
985	6.4697	5.0909	0.	2.1328e-002
986	6.4697	4.9091	0.	1.6422e-002
987	6.4697	4.7273	0.	1.1906e-002
988	6.4697	4.5455	0.	8.2101e-003
989	6.4697	4.3636	0.	4.965e-003
990	6.4697	4.1818	0.	2.145e-003
991	6.4697	4.	0.	-2.9524e-004
992	6.4697	3.8182	0.	-2.3575e-003
993	6.4697	3.6364	0.	-4.0333e-003
994	6.4697	3.4545	0.	-5.3059e-003
995	6.4697	3.2727	0.	-6.1652e-003
996	6.4697	3.0909	0.	-6.5981e-003
997	6.4697	2.9091	0.	-6.5981e-003
998	6.4697	2.7273	0.	-6.1648e-003
999	6.4697	2.5455	0.	-5.3059e-003
1000	6.4697	2.3636	0.	-4.0327e-003
1001	6.4697	2.1818	0.	-2.3574e-003
1002	6.4697	2.	0.	-2.9482e-004
1003	6.4697	1.8182	0.	2.1453e-003
1004	6.4697	1.6364	0.	4.9655e-003
1005	6.4697	1.4545	0.	8.2108e-003
1006	6.4697	1.2727	0.	1.1907e-002
1007	6.4697	1.0909	0.	1.6423e-002
1008	6.4697	0.90909	0.	2.1329e-002
1009	6.4697	0.72727	0.	3.0703e-002
1010	6.4697	0.54545	0.	3.3084e-002
1011	6.4697	0.36364	0.	0.10434
1012	6.4697	0.18182	0.	0.11127
1013	6.2848	5.8182	0.	0.1211
1014	6.2848	5.6364	0.	0.11609
1015	6.2848	5.4545	0.	3.6332e-002
1016	6.2848	5.2727	0.	3.34e-002
1017	6.2848	5.0909	0.	2.281e-002
1018	6.2848	4.9091	0.	1.7283e-002
1019	6.2848	4.7273	0.	1.2256e-002
1020	6.2848	4.5455	0.	8.1926e-003
1021	6.2848	4.3636	0.	4.6671e-003
1022	6.2848	4.1818	0.	1.6369e-003
1023	6.2848	4.	0.	-9.5836e-004
1024	6.2848	3.8182	0.	-3.1341e-003
1025	6.2848	3.6364	0.	-4.889e-003
1026	6.2848	3.4545	0.	-6.2157e-003
1027	6.2848	3.2727	0.	-7.1076e-003
1028	6.2848	3.0909	0.	-7.556e-003
1029	6.2848	2.9091	0.	-7.5562e-003
1030	6.2848	2.7273	0.	-7.1075e-003
1031	6.2848	2.5455	0.	-6.2155e-003
1032	6.2848	2.3636	0.	-4.8888e-003
1033	6.2848	2.1818	0.	-3.1338e-003
1034	6.2848	2.	0.	-9.5815e-004
1035	6.2848	1.8182	0.	1.6376e-003
1036	6.2848	1.6364	0.	4.6677e-003
1037	6.2848	1.4545	0.	8.1933e-003
1038	6.2848	1.2727	0.	1.2257e-002
1039	6.2848	1.0909	0.	1.7284e-002
1040	6.2848	0.90909	0.	2.2811e-002
1041	6.2848	0.72727	0.	3.3401e-002
1042	6.2848	0.54545	0.	3.6332e-002
1043	6.2848	0.36364	0.	0.1161
1044	6.2848	0.18182	0.	0.1211
1045	6.1	5.8182	0.	0.1325
1046	6.1	5.6364	0.	0.12871
1047	6.1	5.4545	0.	3.9964e-002
1048	6.1	5.2727	0.	3.6434e-002
1049	6.1	5.0909	0.	2.4553e-002
1050	6.1	4.9091	0.	1.8357e-002
1051	6.1	4.7273	0.	1.2774e-002
1052	6.1	4.5455	0.	8.3025e-003
1053	6.1	4.3636	0.	4.4581e-003
1054	6.1	4.1818	0.	1.1829e-003
1055	6.1	4.	0.	-1.6009e-003
1056	6.1	3.8182	0.	-3.9183e-003
1057	6.1	3.6364	0.	-5.7773e-003
1058	6.1	3.4545	0.	-7.1763e-003
1059	6.1	3.2727	0.	-8.114e-003
1060	6.1	3.0909	0.	-8.5846e-003
1061	6.1	2.9091	0.	-8.5845e-003
1062	6.1	2.7273	0.	-8.1139e-003
1063	6.1	2.5455	0.	-7.1762e-003
1064	6.1	2.3636	0.	-5.7772e-003
1065	6.1	2.1818	0.	-3.9179e-003
1066	6.1	2.	0.	-1.6005e-003
1067	6.1	1.8182	0.	1.1833e-003
1068	6.1	1.6364	0.	4.4587e-003
1069	6.1	1.4545	0.	8.3033e-003
1070	6.1	1.2727	0.	1.2775e-002
1071	6.1	1.0909	0.	1.8358e-002
1072	6.1	0.90909	0.	2.4554e-002
1073	6.1	0.72727	0.	3.6435e-002
1074	6.1	0.54545	0.	3.9964e-002
1075	6.1	0.36364	0.	0.12871
1076	6.1	0.18182	0.	0.1325
1077	5.9152	5.8182	0.	0.14572
1078	5.9152	5.6364	0.	0.14233
1079	5.9152	5.4545	0.	4.4016e-002
1080	5.9152	5.2727	0.	3.983e-002
1081	5.9152	5.0909	0.	2.6568e-002
1082	5.9152	4.9091	0.	1.965e-002
1083	5.9152	4.7273	0.	1.3462e-002
1084	5.9152	4.5455	0.	8.5391e-003
1085	5.9152	4.3636	0.	4.3367e-003
1086	5.9152	4.1818	0.	7.8072e-004
1087	5.9152	4.	0.	-2.223e-003
1088	5.9152	3.8182	0.	-4.7096e-003
1089	5.9152	3.6364	0.	-6.6954e-003
1090	5.9152	3.4545	0.	-8.1845e-003
1091	5.9152	3.2727	0.	-9.1798e-003
1092	5.9152	3.0909	0.	-9.6786e-003
1093	5.9152	2.9091	0.	-9.6785e-003
1094	5.9152	2.7273	0.	-9.1798e-003
1095	5.9152	2.5455	0.	-8.1843e-003
1096	5.9152	2.3636	0.	-6.6952e-003
1097	5.9152	2.1818	0.	-4.7094e-003
1098	5.9152	2.	0.	-2.2224e-003
1099	5.9152	1.8182	0.	7.812e-004
1100	5.9152	1.6364	0.	4.3373e-003
1101	5.9152	1.4545	0.	8.5397e-003
1102	5.9152	1.2727	0.	1.3463e-002
1103	5.9152	1.0909	0.	1.965e-002
1104	5.9152	0.90909	0.	2.657e-002
1105	5.9152	0.72727	0.	3.9831e-002
1106	5.9152	0.54545	0.	4.4017e-002
1107	5.9152	0.36364	0.	0.14233
1108	5.9152	0.18182	0.	0.14573
1109	5.7303	5.8182	0.	0.16107
1110	5.7303	5.6364	0.	0.15705
1111	5.7303	5.4545	0.	4.8517e-002
1112	5.7303	5.2727	0.	4.3605e-002
1113	5.7303	5.0909	0.	2.8859e-002
1114	5.7303	4.9091	0.	2.1157e-002
1115	5.7303	4.7273	0.	1.4311e-002
1116	5.7303	4.5455	0.	8.891e-003
1117	5.7303	4.3636	0.	4.2897e-003
1118	5.7303	4.1818	0.	4.1769e-004
1119	5.7303	4.	0.	-2.8372e-003
1120	5.7303	3.8182	0.	-5.5197e-003
1121	5.7303	3.6364	0.	-7.6539e-003
1122	5.7303	3.4545	0.	-9.2497e-003
1123	5.7303	3.2727	0.	-1.0314e-002
1124	5.7303	3.0909	0.	-1.0847e-002
1125	5.7303	2.9091	0.	-1.0847e-002
1126	5.7303	2.7273	0.	-1.0314e-002
1127	5.7303	2.5455	0.	-9.2496e-003
1128	5.7303	2.3636	0.	-7.6537e-003
1129	5.7303	2.1818	0.	-5.5194e-003
1130	5.7303	2.	0.	-2.8367e-003
1131	5.7303	1.8182	0.	4.1817e-004
1132	5.7303	1.6364	0.	4.2906e-003
1133	5.7303	1.4545	0.	8.8918e-003
1134	5.7303	1.2727	0.	1.4311e-002
1135	5.7303	1.0909	0.	2.1158e-002
1136	5.7303	0.90909	0.	2.886e-002
1137	5.7303	0.72727	0.	4.3606e-002
1138	5.7303	0.54545	0.	4.8517e-002
1139	5.7303	0.36364	0.	0.15705
1140	5.7303	0.18182	0.	0.16107
1141	5.5455	5.8182	0.	0.17891
1142	5.5455	5.6364	0.	0.17303
1143	5.5455	5.4545	0.	5.3507e-002
1144	5.5455	5.2727	0.	4.7786e-002
1145	5.5455	5.0909	0.	3.144e-002
1146	5.5455	4.9091	0.	2.2886e-002
1147	5.5455	4.7273	0.	1.5321e-002
1148	5.5455	4.5455	0.	9.3562e-003
1149	5.5455	4.3636	0.	4.3147e-003
1150	5.5455	4.1818	0.	8.9394e-005
1151	5.5455	4.	0.	-3.4476e-003
1152	5.5455	3.8182	0.	-6.3521e-003
1153	5.5455	3.6364	0.	-8.6556e-003
1154	5.5455	3.4545	0.	-1.0374e-002
1155	5.5455	3.2727	0.	-1.1517e-002
1156	5.5455	3.0909	0.	-1.2089e-002
1157	5.5455	2.9091	0.	-1.2089e-002
1158	5.5455	2.7273	0.	-1.1517e-002
1159	5.5455	2.5455	0.	-1.0374e-002
1160	5.5455	2.3636	0.	-8.6554e-003
1161	5.5455	2.1818	0.	-6.3516e-003
1162	5.5455	2.	0.	-3.4471e-003
1163	5.5455	1.8182	0.	8.9932e-005
1164	5.5455	1.6364	0.	4.3153e-003
1165	5.5455	1.4545	0.	9.3568e-003
1166	5.5455	1.2727	0.	1.5322e-002
1167	5.5455	1.0909	0.	2.2886e-002
1168	5.5455	0.90909	0.	3.1441e-002
1169	5.5455	0.72727	0.	4.7787e-002
1170	5.5455	0.54545	0.	5.3507e-002
1171	5.5455	0.36364	0.	0.17303
1172	5.5455	0.18182	0.	0.17891
1173	5.3606	5.8182	0.	0.1997
1174	5.3606	5.6364	0.	0.19042
1175	5.3606	5.4545	0.	5.9034e-002
1176	5.3606	5.2727	0.	5.2407e-002
1177	5.3606	5.0909	0.	3.4328e-002
1178	5.3606	4.9091	0.	2.4846e-002
1179	5.3606	4.7273	0.	1.6499e-002
1180	5.3606	4.5455	0.	9.9362e-003
1181	5.3606	4.3636	0.	4.4096e-003
1182	5.3606	4.1818	0.	-2.0576e-004
1183	5.3606	4.	0.	-4.0562e-003
1184	5.3606	3.8182	0.	-7.208e-003
1185	5.3606	3.6364	0.	-9.7012e-003
1186	5.3606	3.4545	0.	-1.1557e-002
1187	5.3606	3.2727	0.	-1.279e-002
1188	5.3606	3.0909	0.	-1.3405e-002
1189	5.3606	2.9091	0.	-1.3405e-002
1190	5.3606	2.7273	0.	-1.2789e-002
1191	5.3606	2.5455	0.	-1.1556e-002
1192	5.3606	2.3636	0.	-9.7007e-003
1193	5.3606	2.1818	0.	-7.2078e-003
1194	5.3606	2.	0.	-4.0558e-003
1195	5.3606	1.8182	0.	-2.0501e-004
1196	5.3606	1.6364	0.	4.4105e-003
1197	5.3606	1.4545	0.	9.9368e-003
1198	5.3606	1.2727	0.	1.6499e-002
1199	5.3606	1.0909	0.	2.4847e-002
1200	5.3606	0.90909	0.	3.4329e-002
1201	5.3606	0.72727	0.	5.2408e-002
1202	5.3606	0.54545	0.	5.9034e-002
1203	5.3606	0.36364	0.	0.19042
1204	5.3606	0.18182	0.	0.1997
1205	5.1758	5.8182	0.	0.22399
1206	5.1758	5.6364	0.	0.20938
1207	5.1758	5.4545	0.	6.5157e-002
1208	5.1758	5.2727	0.	5.751e-002
1209	5.1758	5.0909	0.	3.7548e-002
1210	5.1758	4.9091	0.	2.7054e-002
1211	5.1758	4.7273	0.	1.7853e-002
1212	5.1758	4.5455	0.	1.0636e-002
1213	5.1758	4.3636	0.	4.5782e-003
1214	5.1758	4.1818	0.	-4.6577e-004
1215	5.1758	4.	0.	-4.6611e-003
1216	5.1758	3.8182	0.	-8.0855e-003
1217	5.1758	3.6364	0.	-1.0787e-002
1218	5.1758	3.4545	0.	-1.2794e-002
1219	5.1758	3.2727	0.	-1.4126e-002
1220	5.1758	3.0909	0.	-1.479e-002
1221	5.1758	2.9091	0.	-1.4789e-002
1222	5.1758	2.7273	0.	-1.4125e-002
1223	5.1758	2.5455	0.	-1.2794e-002
1224	5.1758	2.3636	0.	-1.0787e-002
1225	5.1758	2.1818	0.	-8.0853e-003
1226	5.1758	2.	0.	-4.6606e-003
1227	5.1758	1.8182	0.	-4.652e-004
1228	5.1758	1.6364	0.	4.5788e-003
1229	5.1758	1.4545	0.	1.0637e-002
1230	5.1758	1.2727	0.	1.7853e-002
1231	5.1758	1.0909	0.	2.7054e-002
1232	5.1758	0.90909	0.	3.7549e-002
1233	5.1758	0.72727	0.	5.7511e-002
1234	5.1758	0.54545	0.	6.5157e-002
1235	5.1758	0.36364	0.	0.20938
1236	5.1758	0.18182	0.	0.22399
1237	4.9909	5.8182	0.	0.25247
1238	4.9909	5.6364	0.	0.2301
1239	4.9909	5.4545	0.	7.1947e-002
1240	4.9909	5.2727	0.	6.3144e-002
1241	4.9909	5.0909	0.	4.1133e-002
1242	4.9909	4.9091	0.	2.9531e-002
1243	4.9909	4.7273	0.	1.9398e-002
1244	4.9909	4.5455	0.	1.1467e-002
1245	4.9909	4.3636	0.	4.8283e-003
1246	4.9909	4.1818	0.	-6.838e-004
1247	4.9909	4.	0.	-5.2554e-003
1248	4.9909	3.8182	0.	-8.9765e-003
1249	4.9909	3.6364	0.	-1.1905e-002
1250	4.9909	3.4545	0.	-1.4076e-002
1251	4.9909	3.2727	0.	-1.5515e-002
1252	4.9909	3.0909	0.	-1.6231e-002
1253	4.9909	2.9091	0.	-1.6231e-002
1254	4.9909	2.7273	0.	-1.5514e-002
1255	4.9909	2.5455	0.	-1.4076e-002
1256	4.9909	2.3636	0.	-1.1905e-002
1257	4.9909	2.1818	0.	-8.9763e-003
1258	4.9909	2.	0.	-5.2549e-003
1259	4.9909	1.8182	0.	-6.8326e-004
1260	4.9909	1.6364	0.	4.8288e-003
1261	4.9909	1.4545	0.	1.1468e-002
1262	4.9909	1.2727	0.	1.9398e-002
1263	4.9909	1.0909	0.	2.9532e-002
1264	4.9909	0.90909	0.	4.1134e-002
1265	4.9909	0.72727	0.	6.3145e-002
1266	4.9909	0.54545	0.	7.1948e-002
1267	4.9909	0.36364	0.	0.2301
1268	4.9909	0.18182	0.	0.25247
1269	4.8061	5.8182	0.	0.28599
1270	4.8061	5.6364	0.	0.25279
1271	4.8061	5.4545	0.	7.9484e-002
1272	4.8061	5.2727	0.	6.9366e-002
1273	4.8061	5.0909	0.	4.5118e-002
1274	4.8061	4.9091	0.	3.2303e-002
1275	4.8061	4.7273	0.	2.1151e-002
1276	4.8061	4.5455	0.	1.244e-002
1277	4.8061	4.3636	0.	5.1683e-003
1278	4.8061	4.1818	0.	-8.5201e-004
1279	4.8061	4.	0.	-5.8306e-003
1280	4.8061	3.8182	0.	-9.8717e-003
1281	4.8061	3.6364	0.	-1.3044e-002
1282	4.8061	3.4545	0.	-1.5391e-002
1283	4.8061	3.2727	0.	-1.6942e-002
1284	4.8061	3.0909	0.	-1.7714e-002
1285	4.8061	2.9091	0.	-1.7714e-002
1286	4.8061	2.7273	0.	-1.6942e-002
1287	4.8061	2.5455	0.	-1.539e-002
1288	4.8061	2.3636	0.	-1.3044e-002
1289	4.8061	2.1818	0.	-9.8713e-003
1290	4.8061	2.	0.	-5.8302e-003
1291	4.8061	1.8182	0.	-8.5135e-004
1292	4.8061	1.6364	0.	5.1688e-003
1293	4.8061	1.4545	0.	1.244e-002
1294	4.8061	1.2727	0.	2.1151e-002
1295	4.8061	1.0909	0.	3.2304e-002
1296	4.8061	0.90909	0.	4.5119e-002
1297	4.8061	0.72727	0.	6.9366e-002
1298	4.8061	0.54545	0.	7.9485e-002
1299	4.8061	0.36364	0.	0.25279
1300	4.8061	0.18182	0.	0.28599
1301	4.6212	5.8182	0.	0.32562
1302	4.6212	5.6364	0.	0.2777
1303	4.6212	5.4545	0.	8.787e-002
1304	4.6212	5.2727	0.	7.6249e-002
1305	4.6212	5.0909	0.	4.9554e-002
1306	4.6212	4.9091	0.	3.5406e-002
1307	4.6212	4.7273	0.	2.314e-002
1308	4.6212	4.5455	0.	1.3579e-002
1309	4.6212	4.3636	0.	5.6199e-003
1310	4.6212	4.1818	0.	-9.4946e-004
1311	4.6212	4.	0.	-6.365e-003
1312	4.6212	3.8182	0.	-1.0747e-002
1313	4.6212	3.6364	0.	-1.4177e-002
1314	4.6212	3.4545	0.	-1.6708e-002
1315	4.6212	3.2727	0.	-1.8378e-002
1316	4.6212	3.0909	0.	-1.9208e-002
1317	4.6212	2.9091	0.	-1.9208e-002
1318	4.6212	2.7273	0.	-1.8378e-002
1319	4.6212	2.5455	0.	-1.6708e-002
1320	4.6212	2.3636	0.	-1.4176e-002
1321	4.6212	2.1818	0.	-1.0747e-002
1322	4.6212	2.	0.	-6.3646e-003
1323	4.6212	1.8182	0.	-9.4899e-004
1324	4.6212	1.6364	0.	5.6206e-003
1325	4.6212	1.4545	0.	1.3579e-002
1326	4.6212	1.2727	0.	2.3141e-002
1327	4.6212	1.0909	0.	3.5407e-002
1328	4.6212	0.90909	0.	4.9555e-002
1329	4.6212	0.72727	0.	7.625e-002
1330	4.6212	0.54545	0.	8.787e-002
1331	4.6212	0.36364	0.	0.2777
1332	4.6212	0.18182	0.	0.32562
1333	4.4364	5.8182	0.	0.37269
1334	4.4364	5.6364	0.	0.3051
1335	4.4364	5.4545	0.	9.7199e-002
1336	4.4364	5.2727	0.	8.3856e-002
1337	4.4364	5.0909	0.	5.4477e-002
1338	4.4364	4.9091	0.	3.8863e-002
1339	4.4364	4.7273	0.	2.5378e-002
1340	4.4364	4.5455	0.	1.489e-002
1341	4.4364	4.3636	0.	6.1869e-003
1342	4.4364	4.1818	0.	-9.7206e-004
1343	4.4364	4.	0.	-6.8521e-003
1344	4.4364	3.8182	0.	-1.1592e-002
1345	4.4364	3.6364	0.	-1.529e-002
1346	4.4364	3.4545	0.	-1.8011e-002
1347	4.4364	3.2727	0.	-1.9803e-002
1348	4.4364	3.0909	0.	-2.0692e-002
1349	4.4364	2.9091	0.	-2.0692e-002
1350	4.4364	2.7273	0.	-1.9803e-002
1351	4.4364	2.5455	0.	-1.8011e-002
1352	4.4364	2.3636	0.	-1.529e-002
1353	4.4364	2.1818	0.	-1.1592e-002
1354	4.4364	2.	0.	-6.8518e-003
1355	4.4364	1.8182	0.	-9.7158e-004
1356	4.4364	1.6364	0.	6.1876e-003
1357	4.4364	1.4545	0.	1.489e-002
1358	4.4364	1.2727	0.	2.5379e-002
1359	4.4364	1.0909	0.	3.8864e-002
1360	4.4364	0.90909	0.	5.4479e-002
1361	4.4364	0.72727	0.	8.3857e-002
1362	4.4364	0.54545	0.	9.7199e-002
1363	4.4364	0.36364	0.	0.3051
1364	4.4364	0.18182	0.	0.37269
1365	4.2515	5.8182	0.	0.42889
1366	4.2515	5.6364	0.	0.33528
1367	4.2515	5.4545	0.	0.10758
1368	4.2515	5.2727	0.	9.2259e-002
1369	4.2515	5.0909	0.	5.9928e-002
1370	4.2515	4.9091	0.	4.2698e-002
1371	4.2515	4.7273	0.	2.7878e-002
1372	4.2515	4.5455	0.	1.638e-002
1373	4.2515	4.3636	0.	6.8749e-003
1374	4.2515	4.1818	0.	-9.1274e-004
1375	4.2515	4.	0.	-7.2814e-003
1376	4.2515	3.8182	0.	-1.2393e-002
1377	4.2515	3.6364	0.	-1.6364e-002
1378	4.2515	3.4545	0.	-1.9276e-002
1379	4.2515	3.2727	0.	-2.1187e-002
1380	4.2515	3.0909	0.	-2.2134e-002
1381	4.2515	2.9091	0.	-2.2134e-002
1382	4.2515	2.7273	0.	-2.1187e-002
1383	4.2515	2.5455	0.	-1.9275e-002
1384	4.2515	2.3636	0.	-1.6364e-002
1385	4.2515	2.1818	0.	-1.2392e-002
1386	4.2515	2.	0.	-7.2809e-003
1387	4.2515	1.8182	0.	-9.1238e-004
1388	4.2515	1.6364	0.	6.8755e-003
1389	4.2515	1.4545	0.	1.6381e-002
1390	4.2515	1.2727	0.	2.7879e-002
1391	4.2515	1.0909	0.	4.2698e-002
1392	4.2515	0.90909	0.	5.993e-002
1393	4.2515	0.72727	0.	9.2259e-002
1394	4.2515	0.54545	0.	0.10758
1395	4.2515	0.36364	0.	0.33528
1396	4.2515	0.18182	0.	0.42889
1397	4.0667	5.8182	0.	0.49641
1398	4.0667	5.6364	0.	0.36861
1399	4.0667	5.4545	0.	0.11917
1400	4.0667	5.2727	0.	0.10155
1401	4.0667	5.0909	0.	6.597e-002
1402	4.0667	4.9091	0.	4.6952e-002
1403	4.0667	4.7273	0.	3.0669e-002
1404	4.0667	4.5455	0.	1.8073e-002
1405	4.0667	4.3636	0.	7.7071e-003
1406	4.0667	4.1818	0.	-7.4475e-004
1407	4.0667	4.	0.	-7.6199e-003
1408	4.0667	3.8182	0.	-1.3108e-002
1409	4.0667	3.6364	0.	-1.735e-002
1410	4.0667	3.4545	0.	-2.0447e-002
1411	4.0667	3.2727	0.	-2.2473e-002
1412	4.0667	3.0909	0.	-2.3474e-002
1413	4.0667	2.9091	0.	-2.3474e-002
1414	4.0667	2.7273	0.	-2.2473e-002
1415	4.0667	2.5455	0.	-2.0447e-002
1416	4.0667	2.3636	0.	-1.735e-002
1417	4.0667	2.1818	0.	-1.3108e-002
1418	4.0667	2.	0.	-7.6196e-003
1419	4.0667	1.8182	0.	-7.4427e-004
1420	4.0667	1.6364	0.	7.7077e-003
1421	4.0667	1.4545	0.	1.8074e-002
1422	4.0667	1.2727	0.	3.067e-002
1423	4.0667	1.0909	0.	4.6953e-002
1424	4.0667	0.90909	0.	6.5971e-002
1425	4.0667	0.72727	0.	0.10155
1426	4.0667	0.54545	0.	0.11917
1427	4.0667	0.36364	0.	0.36861
1428	4.0667	0.18182	0.	0.49641
1429	3.8818	5.8182	0.	0.5781
1430	3.8818	5.6364	0.	0.40551
1431	3.8818	5.4545	0.	0.13212
1432	3.8818	5.2727	0.	0.11185
1433	3.8818	5.0909	0.	7.2663e-002
1434	3.8818	4.9091	0.	5.1665e-002
1435	3.8818	4.7273	0.	3.3776e-002
1436	3.8818	4.5455	0.	1.999e-002
1437	3.8818	4.3636	0.	8.7036e-003
1438	3.8818	4.1818	0.	-4.4262e-004
1439	3.8818	4.	0.	-7.8333e-003
1440	3.8818	3.8182	0.	-1.3693e-002
1441	3.8818	3.6364	0.	-1.8194e-002
1442	3.8818	3.4545	0.	-2.1461e-002
1443	3.8818	3.2727	0.	-2.3589e-002
1444	3.8818	3.0909	0.	-2.4639e-002
1445	3.8818	2.9091	0.	-2.4639e-002
1446	3.8818	2.7273	0.	-2.3589e-002
1447	3.8818	2.5455	0.	-2.1461e-002
1448	3.8818	2.3636	0.	-1.8194e-002
1449	3.8818	2.1818	0.	-1.3693e-002
1450	3.8818	2.	0.	-7.8329e-003
1451	3.8818	1.8182	0.	-4.4211e-004
1452	3.8818	1.6364	0.	8.7041e-003
1453	3.8818	1.4545	0.	1.999e-002
1454	3.8818	1.2727	0.	3.3776e-002
1455	3.8818	1.0909	0.	5.1665e-002
1456	3.8818	0.90909	0.	7.2665e-002
1457	3.8818	0.72727	0.	0.11185
1458	3.8818	0.54545	0.	0.13212
1459	3.8818	0.36364	0.	0.40551
1460	3.8818	0.18182	0.	0.5781
1461	3.697	5.8182	0.	0.67774
1462	3.697	5.6364	0.	0.44647
1463	3.697	5.4545	0.	0.14662
1464	3.697	5.2727	0.	0.12325
1465	3.697	5.0909	0.	8.0077e-002
1466	3.697	4.9091	0.	5.6877e-002
1467	3.697	4.7273	0.	3.7224e-002
1468	3.697	4.5455	0.	2.2149e-002
1469	3.697	4.3636	0.	9.8883e-003
1470	3.697	4.1818	0.	2.719e-005
1471	3.697	4.	0.	-7.8756e-003
1472	3.697	3.8182	0.	-1.4089e-002
1473	3.697	3.6364	0.	-1.8822e-002
1474	3.697	3.4545	0.	-2.2234e-002
1475	3.697	3.2727	0.	-2.4444e-002
1476	3.697	3.0909	0.	-2.553e-002
1477	3.697	2.9091	0.	-2.553e-002
1478	3.697	2.7273	0.	-2.4444e-002
1479	3.697	2.5455	0.	-2.2234e-002
1480	3.697	2.3636	0.	-1.8822e-002
1481	3.697	2.1818	0.	-1.4088e-002
1482	3.697	2.	0.	-7.8753e-003
1483	3.697	1.8182	0.	2.7561e-005
1484	3.697	1.6364	0.	9.889e-003
1485	3.697	1.4545	0.	2.215e-002
1486	3.697	1.2727	0.	3.7225e-002
1487	3.697	1.0909	0.	5.6877e-002
1488	3.697	0.90909	0.	8.0078e-002
1489	3.697	0.72727	0.	0.12325
1490	3.697	0.54545	0.	0.14662
1491	3.697	0.36364	0.	0.44648
1492	3.697	0.18182	0.	0.67774
1493	3.5121	5.8182	0.	0.80043
1494	3.5121	5.6364	0.	0.4921
1495	3.5121	5.4545	0.	0.16289
1496	3.5121	5.2727	0.	0.13591
1497	3.5121	5.0909	0.	8.8291e-002
1498	3.5121	4.9091	0.	6.2636e-002
1499	3.5121	4.7273	0.	4.1046e-002
1500	3.5121	4.5455	0.	2.458e-002
1501	3.5121	4.3636	0.	1.1296e-002
1502	3.5121	4.1818	0.	7.1276e-004
1503	3.5121	4.	0.	-7.6809e-003
1504	3.5121	3.8182	0.	-1.4209e-002
1505	3.5121	3.6364	0.	-1.9132e-002
1506	3.5121	3.4545	0.	-2.2648e-002
1507	3.5121	3.2727	0.	-2.491e-002
1508	3.5121	3.0909	0.	-2.6016e-002
1509	3.5121	2.9091	0.	-2.6016e-002
1510	3.5121	2.7273	0.	-2.491e-002
1511	3.5121	2.5455	0.	-2.2648e-002
1512	3.5121	2.3636	0.	-1.9132e-002
1513	3.5121	2.1818	0.	-1.4209e-002
1514	3.5121	2.	0.	-7.6806e-003
1515	3.5121	1.8182	0.	7.1324e-004
1516	3.5121	1.6364	0.	1.1296e-002
1517	3.5121	1.4545	0.	2.4581e-002
1518	3.5121	1.2727	0.	4.1046e-002
1519	3.5121	1.0909	0.	6.2637e-002
1520	3.5121	0.90909	0.	8.8292e-002
1521	3.5121	0.72727	0.	0.13591
1522	3.5121	0.54545	0.	0.16289
1523	3.5121	0.36364	0.	0.4921
1524	3.5121	0.18182	0.	0.80043
1525	3.3273	5.8182	0.	0.95314
1526	3.3273	5.6364	0.	0.54307
1527	3.3273	5.4545	0.	0.18119
1528	3.3273	5.2727	0.	0.14996
1529	3.3273	5.0909	0.	9.7371e-002
1530	3.3273	4.9091	0.	6.897e-002
1531	3.3273	4.7273	0.	4.5249e-002
1532	3.3273	4.5455	0.	2.7291e-002
1533	3.3273	4.3636	0.	1.2948e-002
1534	3.3273	4.1818	0.	1.6558e-003
1535	3.3273	4.	0.	-7.1833e-003
1536	3.3273	3.8182	0.	-1.3965e-002
1537	3.3273	3.6364	0.	-1.9012e-002
1538	3.3273	3.4545	0.	-2.2575e-002
1539	3.3273	3.2727	0.	-2.4845e-002
1540	3.3273	3.0909	0.	-2.5949e-002
1541	3.3273	2.9091	0.	-2.5949e-002
1542	3.3273	2.7273	0.	-2.4845e-002
1543	3.3273	2.5455	0.	-2.2574e-002
1544	3.3273	2.3636	0.	-1.9011e-002
1545	3.3273	2.1818	0.	-1.3964e-002
1546	3.3273	2.	0.	-7.1829e-003
1547	3.3273	1.8182	0.	1.6561e-003
1548	3.3273	1.6364	0.	1.2948e-002
1549	3.3273	1.4545	0.	2.7291e-002
1550	3.3273	1.2727	0.	4.525e-002
1551	3.3273	1.0909	0.	6.8971e-002
1552	3.3273	0.90909	0.	9.7372e-002
1553	3.3273	0.72727	0.	0.14996
1554	3.3273	0.54545	0.	0.18119
1555	3.3273	0.36364	0.	0.54307
1556	3.3273	0.18182	0.	0.95314
1557	3.1424	5.8182	0.	1.1457
1558	3.1424	5.6364	0.	0.60023
1559	3.1424	5.4545	0.	0.20181
1560	3.1424	5.2727	0.	0.16557
1561	3.1424	5.0909	0.	0.10739
1562	3.1424	4.9091	0.	7.591e-002
1563	3.1424	4.7273	0.	4.9849e-002
1564	3.1424	4.5455	0.	3.0299e-002
1565	3.1424	4.3636	0.	1.488e-002
1566	3.1424	4.1818	0.	2.9213e-003
1567	3.1424	4.	0.	-6.2858e-003
1568	3.1424	3.8182	0.	-1.3228e-002
1569	3.1424	3.6364	0.	-1.8307e-002
1570	3.1424	3.4545	0.	-2.1838e-002
1571	3.1424	3.2727	0.	-2.4061e-002
1572	3.1424	3.0909	0.	-2.5133e-002
1573	3.1424	2.9091	0.	-2.5133e-002
1574	3.1424	2.7273	0.	-2.4061e-002
1575	3.1424	2.5455	0.	-2.1838e-002
1576	3.1424	2.3636	0.	-1.8307e-002
1577	3.1424	2.1818	0.	-1.3228e-002
1578	3.1424	2.	0.	-6.2855e-003
1579	3.1424	1.8182	0.	2.9217e-003
1580	3.1424	1.6364	0.	1.4881e-002
1581	3.1424	1.4545	0.	3.03e-002
1582	3.1424	1.2727	0.	4.9849e-002
1583	3.1424	1.0909	0.	7.5911e-002
1584	3.1424	0.90909	0.	0.10739
1585	3.1424	0.72727	0.	0.16557
1586	3.1424	0.54545	0.	0.20181
1587	3.1424	0.36364	0.	0.60023
1588	3.1424	0.18182	0.	1.1457
1589	2.9576	5.8182	0.	1.3921
1590	2.9576	5.6364	0.	0.6646
1591	2.9576	5.4545	0.	0.2251
1592	2.9576	5.2727	0.	0.18291
1593	2.9576	5.0909	0.	0.11843
1594	2.9576	4.9091	0.	8.3478e-002
1595	2.9576	4.7273	0.	5.4849e-002
1596	2.9576	4.5455	0.	3.3622e-002
1597	2.9576	4.3636	0.	1.714e-002
1598	2.9576	4.1818	0.	4.5949e-003
1599	2.9576	4.	0.	-4.8629e-003
1600	2.9576	3.8182	0.	-1.1837e-002
1601	2.9576	3.6364	0.	-1.6827e-002
1602	2.9576	3.4545	0.	-2.0226e-002
1603	2.9576	3.2727	0.	-2.233e-002
1604	2.9576	3.0909	0.	-2.3333e-002
1605	2.9576	2.9091	0.	-2.3333e-002
1606	2.9576	2.7273	0.	-2.233e-002
1607	2.9576	2.5455	0.	-2.0226e-002
1608	2.9576	2.3636	0.	-1.6827e-002
1609	2.9576	2.1818	0.	-1.1836e-002
1610	2.9576	2.	0.	-4.8626e-003
1611	2.9576	1.8182	0.	4.5953e-003
1612	2.9576	1.6364	0.	1.714e-002
1613	2.9576	1.4545	0.	3.3622e-002
1614	2.9576	1.2727	0.	5.4849e-002
1615	2.9576	1.0909	0.	8.3479e-002
1616	2.9576	0.90909	0.	0.11843
1617	2.9576	0.72727	0.	0.18291
1618	2.9576	0.54545	0.	0.2251
1619	2.9576	0.36364	0.	0.6646
1620	2.9576	0.18182	0.	1.3921
1621	2.7727	5.8182	0.	1.7135
1622	2.7727	5.6364	0.	0.73745
1623	2.7727	5.4545	0.	0.25148
1624	2.7727	5.2727	0.	0.2022
1625	2.7727	5.0909	0.	0.13057
1626	2.7727	4.9091	0.	9.17e-002
1627	2.7727	4.7273	0.	6.0264e-002
1628	2.7727	4.5455	0.	3.7297e-002
1629	2.7727	4.3636	0.	1.9809e-002
1630	2.7727	4.1818	0.	6.8102e-003
1631	2.7727	4.	0.	-2.7316e-003
1632	2.7727	3.8182	0.	-9.5663e-003
1633	2.7727	3.6364	0.	-1.4315e-002
1634	2.7727	3.4545	0.	-1.746e-002
1635	2.7727	3.2727	0.	-1.9362e-002
1636	2.7727	3.0909	0.	-2.0255e-002
1637	2.7727	2.9091	0.	-2.0255e-002
1638	2.7727	2.7273	0.	-1.9362e-002
1639	2.7727	2.5455	0.	-1.746e-002
1640	2.7727	2.3636	0.	-1.4315e-002
1641	2.7727	2.1818	0.	-9.5661e-003
1642	2.7727	2.	0.	-2.7312e-003
1643	2.7727	1.8182	0.	6.8105e-003
1644	2.7727	1.6364	0.	1.981e-002
1645	2.7727	1.4545	0.	3.7297e-002
1646	2.7727	1.2727	0.	6.0264e-002
1647	2.7727	1.0909	0.	9.1701e-002
1648	2.7727	0.90909	0.	0.13057
1649	2.7727	0.72727	0.	0.2022
1650	2.7727	0.54545	0.	0.25148
1651	2.7727	0.36364	0.	0.73745
1652	2.7727	0.18182	0.	1.7135
1653	2.5879	5.8182	0.	2.1417
1654	2.5879	5.6364	0.	0.82033
1655	2.5879	5.4545	0.	0.28144
1656	2.5879	5.2727	0.	0.22366
1657	2.5879	5.0909	0.	0.14385
1658	2.5879	4.9091	0.	0.10056
1659	2.5879	4.7273	0.	6.6074e-002
1660	2.5879	4.5455	0.	4.1345e-002
1661	2.5879	4.3636	0.	2.2972e-002
1662	2.5879	4.1818	0.	9.7152e-003
1663	2.5879	4.	0.	3.1171e-004
1664	2.5879	3.8182	0.	-6.1726e-003
1665	2.5879	3.6364	0.	-1.05e-002
1666	2.5879	3.4545	0.	-1.3255e-002
1667	2.5879	3.2727	0.	-1.4863e-002
1668	2.5879	3.0909	0.	-1.5599e-002
1669	2.5879	2.9091	0.	-1.5599e-002
1670	2.5879	2.7273	0.	-1.4863e-002
1671	2.5879	2.5455	0.	-1.3255e-002
1672	2.5879	2.3636	0.	-1.05e-002
1673	2.5879	2.1818	0.	-6.1724e-003
1674	2.5879	2.	0.	3.1196e-004
1675	2.5879	1.8182	0.	9.7156e-003
1676	2.5879	1.6364	0.	2.2972e-002
1677	2.5879	1.4545	0.	4.1345e-002
1678	2.5879	1.2727	0.	6.6074e-002
1679	2.5879	1.0909	0.	0.10056
1680	2.5879	0.90909	0.	0.14385
1681	2.5879	0.72727	0.	0.22366
1682	2.5879	0.54545	0.	0.28144
1683	2.5879	0.36364	0.	0.82033
1684	2.5879	0.18182	0.	2.1417
1685	2.403	5.8182	0.	2.728
1686	2.403	5.6364	0.	0.91527
1687	2.403	5.4545	0.	0.31568
1688	2.403	5.2727	0.	0.24767
1689	2.403	5.0909	0.	0.15848
1690	2.403	4.9091	0.	0.11019
1691	2.403	4.7273	0.	7.2437e-002
1692	2.403	4.5455	0.	4.6e-002
1693	2.403	4.3636	0.	2.6948e-002
1694	2.403	4.1818	0.	1.3711e-002
1695	2.403	4.	0.	4.7259e-003
1696	2.403	3.8182	0.	-1.1616e-003
1697	2.403	3.6364	0.	-4.8729e-003
1698	2.403	3.4545	0.	-7.0961e-003
1699	2.403	3.2727	0.	-8.3214e-003
1700	2.403	3.0909	0.	-8.8589e-003
1701	2.403	2.9091	0.	-8.8589e-003
1702	2.403	2.7273	0.	-8.3213e-003
1703	2.403	2.5455	0.	-7.096e-003
1704	2.403	2.3636	0.	-4.8727e-003
1705	2.403	2.1818	0.	-1.1614e-003
1706	2.403	2.	0.	4.7261e-003
1707	2.403	1.8182	0.	1.3711e-002
1708	2.403	1.6364	0.	2.6948e-002
1709	2.403	1.4545	0.	4.6e-002
1710	2.403	1.2727	0.	7.2438e-002
1711	2.403	1.0909	0.	0.11019
1712	2.403	0.90909	0.	0.15848
1713	2.403	0.72727	0.	0.24767
1714	2.403	0.54545	0.	0.31568
1715	2.403	0.36364	0.	0.91527
1716	2.403	0.18182	0.	2.728
1717	2.2182	5.8182	0.	3.5572
1718	2.2182	5.6364	0.	1.0245
1719	2.2182	5.4545	0.	0.35459
1720	2.2182	5.2727	0.	0.27413
1721	2.2182	5.0909	0.	0.17408
1722	2.2182	4.9091	0.	0.12014
1723	2.2182	4.7273	0.	7.895e-002
1724	2.2182	4.5455	0.	5.0952e-002
1725	2.2182	4.3636	0.	3.153e-002
1726	2.2182	4.1818	0.	1.8663e-002
1727	2.2182	4.	0.	1.0416e-002
1728	2.2182	3.8182	0.	5.3796e-003
1729	2.2182	3.6364	0.	2.4661e-003
1730	2.2182	3.4545	0.	8.9212e-004
1731	2.2182	3.2727	0.	1.1746e-004
1732	2.2182	3.0909	0.	-1.9055e-004
1733	2.2182	2.9091	0.	-1.9049e-004
1734	2.2182	2.7273	0.	1.1764e-004
1735	2.2182	2.5455	0.	8.9219e-004
1736	2.2182	2.3636	0.	2.4663e-003
1737	2.2182	2.1818	0.	5.3798e-003
1738	2.2182	2.	0.	1.0416e-002
1739	2.2182	1.8182	0.	1.8663e-002
1740	2.2182	1.6364	0.	3.153e-002
1741	2.2182	1.4545	0.	5.0952e-002
1742	2.2182	1.2727	0.	7.8951e-002
1743	2.2182	1.0909	0.	0.12014
1744	2.2182	0.90909	0.	0.17408
1745	2.2182	0.72727	0.	0.27413
1746	2.2182	0.54545	0.	0.35459
1747	2.2182	0.36364	0.	1.0245
1748	2.2182	0.18182	0.	3.5572
1749	2.0333	5.8182	0.	4.7776
1750	2.0333	5.6364	0.	1.1523
1751	2.0333	5.4545	0.	0.40065
1752	2.0333	5.2727	0.	0.30515
1753	2.0333	5.0909	0.	0.19261
1754	2.0333	4.9091	0.	0.13246
1755	2.0333	4.7273	0.	8.7822e-002
1756	2.0333	4.5455	0.	5.8615e-002
1757	2.0333	4.3636	0.	3.9295e-002
1758	2.0333	4.1818	0.	2.7246e-002
1759	2.0333	4.	0.	2.0087e-002
1760	2.0333	3.8182	0.	1.6138e-002
1761	2.0333	3.6364	0.	1.4162e-002
1762	2.0333	3.4545	0.	1.3307e-002
1763	2.0333	3.2727	0.	1.3012e-002
1764	2.0333	3.0909	0.	1.2942e-002
1765	2.0333	2.9091	0.	1.2942e-002
1766	2.0333	2.7273	0.	1.3012e-002
1767	2.0333	2.5455	0.	1.3307e-002
1768	2.0333	2.3636	0.	1.4162e-002
1769	2.0333	2.1818	0.	1.6139e-002
1770	2.0333	2.	0.	2.0087e-002
1771	2.0333	1.8182	0.	2.7246e-002
1772	2.0333	1.6364	0.	3.9295e-002
1773	2.0333	1.4545	0.	5.8615e-002
1774	2.0333	1.2727	0.	8.7823e-002
1775	2.0333	1.0909	0.	0.13246
1776	2.0333	0.90909	0.	0.19261
1777	2.0333	0.72727	0.	0.30515
1778	2.0333	0.54545	0.	0.40065
1779	2.0333	0.36364	0.	1.1523
1780	2.0333	0.18182	0.	4.7776
1781	1.8485	5.8182	0.	6.6544
1782	1.8485	5.6364	0.	1.2984
1783	1.8485	5.4545	0.	0.44921
1784	1.8485	5.2727	0.	0.33453
1785	1.8485	5.0909	0.	0.20706
1786	1.8485	4.9091	0.	0.1398
1787	1.8485	4.7273	0.	9.1669e-002
1788	1.8485	4.5455	0.	6.161e-002
1789	1.8485	4.3636	0.	4.2828e-002
1790	1.8485	4.1818	0.	3.1939e-002
1791	1.8485	4.	0.	2.6063e-002
1792	1.8485	3.8182	0.	2.3259e-002
1793	1.8485	3.6364	0.	2.2188e-002
1794	1.8485	3.4545	0.	2.1979e-002
1795	1.8485	3.2727	0.	2.2091e-002
1796	1.8485	3.0909	0.	2.2216e-002
1797	1.8485	2.9091	0.	2.2216e-002
1798	1.8485	2.7273	0.	2.2091e-002
1799	1.8485	2.5455	0.	2.1979e-002
1800	1.8485	2.3636	0.	2.2188e-002
1801	1.8485	2.1818	0.	2.326e-002
1802	1.8485	2.	0.	2.6063e-002
1803	1.8485	1.8182	0.	3.194e-002
1804	1.8485	1.6364	0.	4.2828e-002
1805	1.8485	1.4545	0.	6.1611e-002
1806	1.8485	1.2727	0.	9.1669e-002
1807	1.8485	1.0909	0.	0.1398
1808	1.8485	0.90909	0.	0.20706
1809	1.8485	0.72727	0.	0.33453
1810	1.8485	0.54545	0.	0.44921
1811	1.8485	0.36364	0.	1.2984
1812	1.8485	0.18182	0.	6.6544
1813	1.6636	5.8182	0.	9.6845
1814	1.6636	5.6364	0.	1.4857
1815	1.6636	5.4545	0.	0.52571
1816	1.6636	5.2727	0.	0.38998
1817	1.6636	5.0909	0.	0.24683
1818	1.6636	4.9091	0.	0.17316
1819	1.6636	4.7273	0.	0.12276
1820	1.6636	4.5455	0.	9.315e-002
1821	1.6636	4.3636	0.	7.5941e-002
1822	1.6636	4.1818	0.	6.6877e-002
1823	1.6636	4.	0.	6.2612e-002
1824	1.6636	3.8182	0.	6.1045e-002
1825	1.6636	3.6364	0.	6.0831e-002
1826	1.6636	3.4545	0.	6.1167e-002
1827	1.6636	3.2727	0.	6.1589e-002
1828	1.6636	3.0909	0.	6.1853e-002
1829	1.6636	2.9091	0.	6.1853e-002
1830	1.6636	2.7273	0.	6.1589e-002
1831	1.6636	2.5455	0.	6.1167e-002
1832	1.6636	2.3636	0.	6.0831e-002
1833	1.6636	2.1818	0.	6.1045e-002
1834	1.6636	2.	0.	6.2612e-002
1835	1.6636	1.8182	0.	6.6878e-002
1836	1.6636	1.6364	0.	7.5941e-002
1837	1.6636	1.4545	0.	9.3151e-002
1838	1.6636	1.2727	0.	0.12276
1839	1.6636	1.0909	0.	0.17316
1840	1.6636	0.90909	0.	0.24683
1841	1.6636	0.72727	0.	0.38998
1842	1.6636	0.54545	0.	0.52571
1843	1.6636	0.36364	0.	1.4857
1844	1.6636	0.18182	0.	9.6845
1845	1.4788	5.8182	0.	14.681
1846	1.4788	5.6364	0.	1.6522
1847	1.4788	5.4545	0.	0.53945
1848	1.4788	5.2727	0.	0.367
1849	1.4788	5.0909	0.	0.1993
1850	1.4788	4.9091	0.	0.11473
1851	1.4788	4.7273	0.	5.9629e-002
1852	1.4788	4.5455	0.	2.8835e-002
1853	1.4788	4.3636	0.	1.1725e-002
1854	1.4788	4.1818	0.	3.0069e-003
1855	1.4788	4.	0.	-1.1018e-003
1856	1.4788	3.8182	0.	-2.7695e-003
1857	1.4788	3.6364	0.	-3.2613e-003
1858	1.4788	3.4545	0.	-3.261e-003
1859	1.4788	3.2727	0.	-3.1248e-003
1860	1.4788	3.0909	0.	-3.0234e-003
1861	1.4788	2.9091	0.	-3.0233e-003
1862	1.4788	2.7273	0.	-3.1248e-003
1863	1.4788	2.5455	0.	-3.2609e-003
1864	1.4788	2.3636	0.	-3.2611e-003
1865	1.4788	2.1818	0.	-2.7694e-003
1866	1.4788	2.	0.	-1.1017e-003
1867	1.4788	1.8182	0.	3.0071e-003
1868	1.4788	1.6364	0.	1.1725e-002
1869	1.4788	1.4545	0.	2.8835e-002
1870	1.4788	1.2727	0.	5.9629e-002
1871	1.4788	1.0909	0.	0.11473
1872	1.4788	0.90909	0.	0.1993
1873	1.4788	0.72727	0.	0.367
1874	1.4788	0.54545	0.	0.53944
1875	1.4788	0.36364	0.	1.6522
1876	1.4788	0.18182	0.	14.681
1877	1.2939	5.8182	0.	22.898
1878	1.2939	5.6364	0.	2.0859
1879	1.2939	5.4545	0.	0.86753
1880	1.2939	5.2727	0.	0.68981
1881	1.2939	5.0909	0.	0.51932
1882	1.2939	4.9091	0.	0.44112
1883	1.2939	4.7273	0.	0.39445
1884	1.2939	4.5455	0.	0.37214
1885	1.2939	4.3636	0.	0.36192
1886	1.2939	4.1818	0.	0.35822
1887	1.2939	4.	0.	0.35749
1888	1.2939	3.8182	0.	0.35795
1889	1.2939	3.6364	0.	0.35872
1890	1.2939	3.4545	0.	0.35944
1891	1.2939	3.2727	0.	0.35994
1892	1.2939	3.0909	0.	0.3602
1893	1.2939	2.9091	0.	0.3602
1894	1.2939	2.7273	0.	0.35994
1895	1.2939	2.5455	0.	0.35944
1896	1.2939	2.3636	0.	0.35872
1897	1.2939	2.1818	0.	0.35795
1898	1.2939	2.	0.	0.35749
1899	1.2939	1.8182	0.	0.35822
1900	1.2939	1.6364	0.	0.36192
1901	1.2939	1.4545	0.	0.37214
1902	1.2939	1.2727	0.	0.39445
1903	1.2939	1.0909	0.	0.44112
1904	1.2939	0.90909	0.	0.51932
1905	1.2939	0.72727	0.	0.68981
1906	1.2939	0.54545	0.	0.86753
1907	1.2939	0.36364	0.	2.0859
1908	1.2939	0.18182	0.	22.898
1909	1.1091	5.8182	0.	35.062
1910	1.1091	5.6364	0.	1.699
1911	1.1091	5.4545	0.	4.4103e-002
1912	1.1091	5.2727	0.	-0.29965
1913	1.1091	5.0909	0.	-0.57242
1914	1.1091	4.9091	0.	-0.71195
1915	1.1091	4.7273	0.	-0.79951
1916	1.1091	4.5455	0.	-0.85155
1917	1.1091	4.3636	0.	-0.88513
1918	1.1091	4.1818	0.	-0.90783
1919	1.1091	4.	0.	-0.9241
1920	1.1091	3.8182	0.	-0.93613
1921	1.1091	3.6364	0.	-0.94505
1922	1.1091	3.4545	0.	-0.95143
1923	1.1091	3.2727	0.	-0.95556
1924	1.1091	3.0909	0.	-0.9576
1925	1.1091	2.9091	0.	-0.9576
1926	1.1091	2.7273	0.	-0.95556
1927	1.1091	2.5455	0.	-0.95143
1928	1.1091	2.3636	0.	-0.94505
1929	1.1091	2.1818	0.	-0.93613
1930	1.1091	2.	0.	-0.9241
1931	1.1091	1.8182	0.	-0.90783
1932	1.1091	1.6364	0.	-0.88513
1933	1.1091	1.4545	0.	-0.85155
1934	1.1091	1.2727	0.	-0.79951
1935	1.1091	1.0909	0.	-0.71195
1936	1.1091	0.90909	0.	-0.57242
1937	1.1091	0.72727	0.	-0.29965
1938	1.1091	0.54545	0.	4.4102e-002
1939	1.1091	0.36364	0.	1.699
1940	1.1091	0.18182	0.	35.062
1941	0.92424	5.8182	0.	52.689
1942	0.92424	5.6364	0.	4.9367
1943	0.92424	5.4545	0.	3.9656
1944	0.92424	5.2727	0.	4.0204
1945	0.92424	5.0909	0.	4.0128
1946	0.92424	4.9091	0.	4.0713
1947	0.92424	4.7273	0.	4.1318
1948	0.92424	4.5455	0.	4.1909
1949	0.92424	4.3636	0.	4.2411
1950	0.92424	4.1818	0.	4.2817
1951	0.92424	4.	0.	4.3135
1952	0.92424	3.8182	0.	4.3378
1953	0.92424	3.6364	0.	4.3559
1954	0.92424	3.4545	0.	4.3686
1955	0.92424	3.2727	0.	4.3767
1956	0.92424	3.0909	0.	4.3806
1957	0.92424	2.9091	0.	4.3806
1958	0.92424	2.7273	0.	4.3767
1959	0.92424	2.5455	0.	4.3686
1960	0.92424	2.3636	0.	4.3559
1961	0.92424	2.1818	0.	4.3378
1962	0.92424	2.	0.	4.3135
1963	0.92424	1.8182	0.	4.2817
1964	0.92424	1.6364	0.	4.2411
1965	0.92424	1.4545	0.	4.1909
1966	0.92424	1.2727	0.	4.1318
1967	0.92424	1.0909	0.	4.0713
1968	0.92424	0.90909	0.	4.0128
1969	0.92424	0.72727	0.	4.0204
1970	0.92424	0.54545	0.	3.9656
1971	0.92424	0.36364	0.	4.9367
1972	0.92424	0.18182	0.	52.689
1973	0.73939	5.8182	0.	71.965
1974	0.73939	5.6364	0.	-5.7278
1975	0.73939	5.4545	0.	-10.63
1976	0.73939	5.2727	0.	-12.446
1977	0.73939	5.0909	0.	-13.696
1978	0.73939	4.9091	0.	-14.489
1979	0.73939	4.7273	0.	-15.054
1980	0.73939	4.5455	0.	-15.466
1981	0.73939	4.3636	0.	-15.779
1982	0.73939	4.1818	0.	-16.02
1983	0.73939	4.	0.	-16.207
1984	0.73939	3.8182	0.	-16.35
1985	0.73939	3.6364	0.	-16.457
1986	0.73939	3.4545	0.	-16.533
1987	0.73939	3.2727	0.	-16.582
1988	0.73939	3.0909	0.	-16.606
1989	0.73939	2.9091	0.	-16.606
1990	0.73939	2.7273	0.	-16.582
1991	0.73939	2.5455	0.	-16.533
1992	0.73939	2.3636	0.	-16.457
1993	0.73939	2.1818	0.	-16.35
1994	0.73939	2.	0.	-16.207
1995	0.73939	1.8182	0.	-16.02
1996	0.73939	1.6364	0.	-15.779
1997	0.73939	1.4545	0.	-15.466
1998	0.73939	1.2727	0.	-15.054
1999	0.73939	1.0909	0.	-14.489
2000	0.73939	0.90909	0.	-13.696
2001	0.73939	0.72727	0.	-12.446
2002	0.73939	0.54545	0.	-10.63
2003	0.73939	0.36364	0.	-5.7278
2004	0.73939	0.18182	0.	71.965
2005	0.55455	5.8182	0.	103.92
2006	0.55455	5.6364	0.	40.53
2007	0.55455	5.4545	0.	49.252
2008	0.55455	5.2727	0.	53.903
2009	0.55455	5.0909	0.	57.142
2010	0.55455	4.9091	0.	59.536
2011	0.55455	4.7273	0.	61.321
2012	0.55455	4.5455	0.	62.68
2013	0.55455	4.3636	0.	63.727
2014	0.55455	4.1818	0.	64.539
2015	0.55455	4.	0.	65.168
2016	0.55455	3.8182	0.	65.651
2017	0.55455	3.6364	0.	66.012
2018	0.55455	3.4545	0.	66.27
2019	0.55455	3.2727	0.	66.436
2020	0.55455	3.0909	0.	66.517
2021	0.55455	2.9091	0.	66.517
2022	0.55455	2.7273	0.	66.436
2023	0.55455	2.5455	0.	66.27
2024	0.55455	2.3636	0.	66.012
2025	0.55455	2.1818	0.	65.651
2026	0.55455	2.	0.	65.168
2027	0.55455	1.8182	0.	64.539
2028	0.55455	1.6364	0.	63.727
2029	0.55455	1.4545	0.	62.68
2030	0.55455	1.2727	0.	61.321
2031	0.55455	1.0909	0.	59.536
2032	0.55455	0.90909	0.	57.142
2033	0.55455	0.72727	0.	53.903
2034	0.55455	0.54545	0.	49.252
2035	0.55455	0.36364	0.	40.53
2036	0.55455	0.18182	0.	103.92
2037	0.3697	5.8182	0.	93.061
2038	0.3697	5.6364	0.	-138.03
2039	0.3697	5.4545	0.	-184.
2040	0.3697	5.2727	0.	-207.2
2041	0.3697	5.0909	0.	-222.11
2042	0.3697	4.9091	0.	-232.59
2043	0.3697	4.7273	0.	-240.24
2044	0.3697	4.5455	0.	-246.01
2045	0.3697	4.3636	0.	-250.44
2046	0.3697	4.1818	0.	-253.86
2047	0.3697	4.	0.	-256.5
2048	0.3697	3.8182	0.	-258.53
2049	0.3697	3.6364	0.	-260.04
2050	0.3697	3.4545	0.	-261.12
2051	0.3697	3.2727	0.	-261.81
2052	0.3697	3.0909	0.	-262.15
2053	0.3697	2.9091	0.	-262.15
2054	0.3697	2.7273	0.	-261.81
2055	0.3697	2.5455	0.	-261.12
2056	0.3697	2.3636	0.	-260.04
2057	0.3697	2.1818	0.	-258.53
2058	0.3697	2.	0.	-256.5
2059	0.3697	1.8182	0.	-253.86
2060	0.3697	1.6364	0.	-250.44
2061	0.3697	1.4545	0.	-246.01
2062	0.3697	1.2727	0.	-240.24
2063	0.3697	1.0909	0.	-232.59
2064	0.3697	0.90909	0.	-222.11
2065	0.3697	0.72727	0.	-207.2
2066	0.3697	0.54545	0.	-184.
2067	0.3697	0.36364	0.	-138.03
2068	0.3697	0.18182	0.	93.061
2069	0.18485	5.8182	0.	314.41
2070	0.18485	5.6364	0.	610.74
2071	0.18485	5.4545	0.	743.92
2072	0.18485	5.2727	0.	829.59
2073	0.18485	5.0909	0.	884.55
2074	0.18485	4.9091	0.	924.25
2075	0.18485	4.7273	0.	953.4
2076	0.18485	4.5455	0.	975.53
2077	0.18485	4.3636	0.	992.55
2078	0.18485	4.1818	0.	1005.7
2079	0.18485	4.	0.	1016.
2080	0.18485	3.8182	0.	1023.8
2081	0.18485	3.6364	0.	1029.7
2082	0.18485	3.4545	0.	1033.8
2083	0.18485	3.2727	0.	1036.5
2084	0.18485	3.0909	0.	1037.9
2085	0.18485	2.9091	0.	1037.9
2086	0.18485	2.7273	0.	1036.5
2087	0.18485	2.5455	0.	1033.8
2088	0.18485	2.3636	0.	1029.7
2089	0.18485	2.1818	0.	1023.8
2090	0.18485	2.	0.	1016.
2091	0.18485	1.8182	0.	1005.7
2092	0.18485	1.6364	0.	992.55
2093	0.18485	1.4545	0.	975.53
2094	0.18485	1.2727	0.	953.4
2095	0.18485	1.0909	0.	924.25
2096	0.18485	0.90909	0.	884.55
2097	0.18485	0.72727	0.	829.59
2098	0.18485	0.54545	0.	743.92
2099	0.18485	0.36364	0.	610.74
2100	0.18485	0.18182	0.	314.41
2101	12.551	5.8182	0.	76.459
2102	12.736	5.8182	0.	56.906
2103	12.921	5.8182	0.	57.712
2104	13.105	5.8182	0.	58.278
2105	13.29	5.8182	0.	56.012
2106	13.475	5.8182	0.	51.706
2107	13.659	5.8182	0.	46.197
2108	13.844	5.8182	0.	40.225
2109	14.029	5.8182	0.	34.316
2110	14.213	5.8182	0.	28.806
2111	14.398	5.8182	0.	23.881
2112	14.583	5.8182	0.	19.62
2113	14.767	5.8182	0.	16.035
2114	14.952	5.8182	0.	13.1
2115	15.137	5.8182	0.	10.762
2116	15.321	5.8182	0.	8.9607
2117	15.506	5.8182	0.	7.6313
2118	15.69	5.8182	0.	6.7108
2119	15.875	5.8182	0.	6.1402
2120	16.06	5.8182	0.	5.8655
2121	16.244	5.8182	0.	5.8386
2122	16.429	5.8182	0.	6.0178
2123	16.614	5.8182	0.	6.3667
2124	16.798	5.8182	0.	6.8538
2125	16.983	5.8182	0.	7.4525
2126	17.168	5.8182	0.	8.1398
2127	17.352	5.8182	0.	8.8964
2128	17.537	5.8182	0.	9.7062
2129	17.722	5.8182	0.	10.556
2130	17.906	5.8182	0.	11.434
2131	18.091	5.8182	0.	12.332
2132	18.276	5.8182	0.	13.243
2133	18.46	5.8182	0.	14.161
2134	18.645	5.8182	0.	15.082
2135	18.83	5.8182	0.	16.001
2136	19.014	5.8182	0.	16.917
2137	19.199	5.8182	0.	17.827
2138	19.384	5.8182	0.	18.73
2139	19.568	5.8182	0.	19.623
2140	19.753	5.8182	0.	20.507
2141	19.938	5.8182	0.	21.38
2142	20.122	5.8182	0.	22.242
2143	20.307	5.8182	0.	23.09
2144	20.492	5.8182	0.	23.924
2145	20.676	5.8182	0.	24.743
2146	20.861	5.8182	0.	25.544
2147	21.046	5.8182	0.	26.325
2148	21.23	5.8182	0.	27.084
2149	21.415	5.8182	0.	27.817
2150	21.599	5.8182	0.	28.52
2151	21.784	5.8182	0.	29.188
2152	21.969	5.8182	0.	29.814
2153	22.153	5.8182	0.	30.39
2154	22.338	5.8182	0.	30.908
2155	22.523	5.8182	0.	31.356
2156	22.707	5.8182	0.	31.719
2157	22.892	5.8182	0.	31.981
2158	23.077	5.8182	0.	32.123
2159	23.261	5.8182	0.	32.132
2160	23.446	5.8182	0.	32.013
2161	23.631	5.8182	0.	31.917
2162	23.815	5.8182	0.	33.107
2163	12.551	5.6364	0.	150.64
2164	12.736	5.6364	0.	79.715
2165	12.921	5.6364	0.	68.284
2166	13.105	5.6364	0.	67.325
2167	13.29	5.6364	0.	66.062
2168	13.475	5.6364	0.	62.541
2169	13.659	5.6364	0.	56.93
2170	13.844	5.6364	0.	50.007
2171	14.029	5.6364	0.	42.544
2172	14.213	5.6364	0.	35.143
2173	14.398	5.6364	0.	28.214
2174	14.583	5.6364	0.	21.994
2175	14.767	5.6364	0.	16.601
2176	14.952	5.6364	0.	12.064
2177	15.137	5.6364	0.	8.3598
2178	15.321	5.6364	0.	5.431
2179	15.506	5.6364	0.	3.2072
2180	15.69	5.6364	0.	1.619
2181	15.875	5.6364	0.	0.6306
2182	16.06	5.6364	0.	0.2287
2183	16.244	5.6364	0.	0.12813
2184	16.429	5.6364	0.	0.10452
2185	16.614	5.6364	0.	0.14016
2186	16.798	5.6364	0.	0.48081
2187	16.983	5.6364	0.	1.1581
2188	17.168	5.6364	0.	1.9903
2189	17.352	5.6364	0.	2.9291
2190	17.537	5.6364	0.	3.9467
2191	17.722	5.6364	0.	5.0221
2192	17.906	5.6364	0.	6.1387
2193	18.091	5.6364	0.	7.2833
2194	18.276	5.6364	0.	8.4458
2195	18.46	5.6364	0.	9.6186
2196	18.645	5.6364	0.	10.796
2197	18.83	5.6364	0.	11.973
2198	19.014	5.6364	0.	13.149
2199	19.199	5.6364	0.	14.32
2200	19.384	5.6364	0.	15.487
2201	19.568	5.6364	0.	16.649
2202	19.753	5.6364	0.	17.806
2203	19.938	5.6364	0.	18.96
2204	20.122	5.6364	0.	20.112
2205	20.307	5.6364	0.	21.263
2206	20.492	5.6364	0.	22.415
2207	20.676	5.6364	0.	23.568
2208	20.861	5.6364	0.	24.726
2209	21.046	5.6364	0.	25.889
2210	21.23	5.6364	0.	27.06
2211	21.415	5.6364	0.	28.242
2212	21.599	5.6364	0.	29.436
2213	21.784	5.6364	0.	30.646
2214	21.969	5.6364	0.	31.876
2215	22.153	5.6364	0.	33.133
2216	22.338	5.6364	0.	34.426
2217	22.523	5.6364	0.	35.77
2218	22.707	5.6364	0.	37.189
2219	22.892	5.6364	0.	38.722
2220	23.077	5.6364	0.	40.444
2221	23.261	5.6364	0.	42.495
2222	23.446	5.6364	0.	45.151
2223	23.631	5.6364	0.	49.104
2224	23.815	5.6364	0.	55.663
2225	12.551	5.4545	0.	271.51
2226	12.736	5.4545	0.	149.94
2227	12.921	5.4545	0.	108.77
2228	13.105	5.4545	0.	91.466
2229	13.29	5.4545	0.	81.006
2230	13.475	5.4545	0.	71.937
2231	13.659	5.4545	0.	62.661
2232	13.844	5.4545	0.	53.092
2233	14.029	5.4545	0.	43.581
2234	14.213	5.4545	0.	34.52
2235	14.398	5.4545	0.	26.212
2236	14.583	5.4545	0.	18.849
2237	14.767	5.4545	0.	12.524
2238	14.952	5.4545	0.	7.2685
2239	15.137	5.4545	0.	3.1257
2240	15.321	5.4545	0.	0.67771
2241	15.506	5.4545	0.	0.19615
2242	15.69	5.4545	0.	9.8263e-002
2243	15.875	5.4545	0.	6.1296e-002
2244	16.06	5.4545	0.	4.2752e-002
2245	16.244	5.4545	0.	3.187e-002
2246	16.429	5.4545	0.	2.4803e-002
2247	16.614	5.4545	0.	1.9867e-002
2248	16.798	5.4545	0.	1.622e-002
2249	16.983	5.4545	0.	1.3465e-002
2250	17.168	5.4545	0.	1.1397e-002
2251	17.352	5.4545	0.	1.0094e-002
2252	17.537	5.4545	0.	1.2267e-002
2253	17.722	5.4545	0.	0.86661
2254	17.906	5.4545	0.	2.3221
2255	18.091	5.4545	0.	3.807
2256	18.276	5.4545	0.	5.3084
2257	18.46	5.4545	0.	6.8176
2258	18.645	5.4545	0.	8.3286
2259	18.83	5.4545	0.	9.8376
2260	19.014	5.4545	0.	11.343
2261	19.199	5.4545	0.	12.843
2262	19.384	5.4545	0.	14.339
2263	19.568	5.4545	0.	15.832
2264	19.753	5.4545	0.	17.324
2265	19.938	5.4545	0.	18.819
2266	20.122	5.4545	0.	20.319
2267	20.307	5.4545	0.	21.828
2268	20.492	5.4545	0.	23.351
2269	20.676	5.4545	0.	24.893
2270	20.861	5.4545	0.	26.458
2271	21.046	5.4545	0.	28.053
2272	21.23	5.4545	0.	29.684
2273	21.415	5.4545	0.	31.358
2274	21.599	5.4545	0.	33.086
2275	21.784	5.4545	0.	34.878
2276	21.969	5.4545	0.	36.749
2277	22.153	5.4545	0.	38.719
2278	22.338	5.4545	0.	40.815
2279	22.523	5.4545	0.	43.073
2280	22.707	5.4545	0.	45.549
2281	22.892	5.4545	0.	48.328
2282	23.077	5.4545	0.	51.54
2283	23.261	5.4545	0.	55.399
2284	23.446	5.4545	0.	60.233
2285	23.631	5.4545	0.	66.616
2286	23.815	5.4545	0.	75.119
2287	12.551	5.2727	0.	415.94
2288	12.736	5.2727	0.	246.38
2289	12.921	5.2727	0.	168.67
2290	13.105	5.2727	0.	125.14
2291	13.29	5.2727	0.	97.56
2292	13.475	5.2727	0.	77.78
2293	13.659	5.2727	0.	61.96
2294	13.844	5.2727	0.	48.477
2295	14.029	5.2727	0.	36.682
2296	14.213	5.2727	0.	26.344
2297	14.398	5.2727	0.	17.395
2298	14.583	5.2727	0.	9.8502
2299	14.767	5.2727	0.	3.9571
2300	14.952	5.2727	0.	0.9916
2301	15.137	5.2727	0.	0.35525
2302	15.321	5.2727	0.	0.18157
2303	15.506	5.2727	0.	0.1103
2304	15.69	5.2727	0.	7.4183e-002
2305	15.875	5.2727	0.	5.3437e-002
2306	16.06	5.2727	0.	4.046e-002
2307	16.244	5.2727	0.	3.1807e-002
2308	16.429	5.2727	0.	2.576e-002
2309	16.614	5.2727	0.	2.136e-002
2310	16.798	5.2727	0.	1.8057e-002
2311	16.983	5.2727	0.	1.5572e-002
2312	17.168	5.2727	0.	1.372e-002
2313	17.352	5.2727	0.	1.243e-002
2314	17.537	5.2727	0.	1.182e-002
2315	17.722	5.2727	0.	1.2485e-002
2316	17.906	5.2727	0.	1.8456e-002
2317	18.091	5.2727	0.	0.48887
2318	18.276	5.2727	0.	2.3284
2319	18.46	5.2727	0.	4.1934
2320	18.645	5.2727	0.	6.0551
2321	18.83	5.2727	0.	7.9092
2322	19.014	5.2727	0.	9.755
2323	19.199	5.2727	0.	11.593
2324	19.384	5.2727	0.	13.426
2325	19.568	5.2727	0.	15.257
2326	19.753	5.2727	0.	17.091
2327	19.938	5.2727	0.	18.932
2328	20.122	5.2727	0.	20.786
2329	20.307	5.2727	0.	22.661
2330	20.492	5.2727	0.	24.563
2331	20.676	5.2727	0.	26.5
2332	20.861	5.2727	0.	28.481
2333	21.046	5.2727	0.	30.516
2334	21.23	5.2727	0.	32.616
2335	21.415	5.2727	0.	34.794
2336	21.599	5.2727	0.	37.067
2337	21.784	5.2727	0.	39.452
2338	21.969	5.2727	0.	41.975
2339	22.153	5.2727	0.	44.665
2340	22.338	5.2727	0.	47.564
2341	22.523	5.2727	0.	50.724
2342	22.707	5.2727	0.	54.221
2343	22.892	5.2727	0.	58.16
2344	23.077	5.2727	0.	62.685
2345	23.261	5.2727	0.	68.005
2346	23.446	5.2727	0.	74.369
2347	23.631	5.2727	0.	82.142
2348	23.815	5.2727	0.	91.509
2349	12.551	5.0909	0.	583.49
2350	12.736	5.0909	0.	359.56
2351	12.921	5.0909	0.	239.58
2352	13.105	5.0909	0.	163.05
2353	13.29	5.0909	0.	112.71
2354	13.475	5.0909	0.	78.634
2355	13.659	5.0909	0.	54.45
2356	13.844	5.0909	0.	36.482
2357	14.029	5.0909	0.	22.668
2358	14.213	5.0909	0.	12.001
2359	14.398	5.0909	0.	4.6038
2360	14.583	5.0909	0.	1.4811
2361	14.767	5.0909	0.	0.63413
2362	14.952	5.0909	0.	0.33878
2363	15.137	5.0909	0.	0.20505
2364	15.321	5.0909	0.	0.13449
2365	15.506	5.0909	0.	9.3457e-002
2366	15.69	5.0909	0.	6.7922e-002
2367	15.875	5.0909	0.	5.1195e-002
2368	16.06	5.0909	0.	3.9783e-002
2369	16.244	5.0909	0.	3.1734e-002
2370	16.429	5.0909	0.	2.5917e-002
2371	16.614	5.0909	0.	2.1617e-002
2372	16.798	5.0909	0.	1.8376e-002
2373	16.983	5.0909	0.	1.5953e-002
2374	17.168	5.0909	0.	1.4155e-002
2375	17.352	5.0909	0.	1.2872e-002
2376	17.537	5.0909	0.	1.2087e-002
2377	17.722	5.0909	0.	1.19e-002
2378	17.906	5.0909	0.	1.2718e-002
2379	18.091	5.0909	0.	1.6398e-002
2380	18.276	5.0909	0.	5.0255e-002
2381	18.46	5.0909	0.	1.663
2382	18.645	5.0909	0.	3.8797
2383	18.83	5.0909	0.	6.086
2384	19.014	5.0909	0.	8.2777
2385	19.199	5.0909	0.	10.457
2386	19.384	5.0909	0.	12.629
2387	19.568	5.0909	0.	14.799
2388	19.753	5.0909	0.	16.973
2389	19.938	5.0909	0.	19.16
2390	20.122	5.0909	0.	21.368
2391	20.307	5.0909	0.	23.606
2392	20.492	5.0909	0.	25.885
2393	20.676	5.0909	0.	28.216
2394	20.861	5.0909	0.	30.611
2395	21.046	5.0909	0.	33.085
2396	21.23	5.0909	0.	35.652
2397	21.415	5.0909	0.	38.331
2398	21.599	5.0909	0.	41.143
2399	21.784	5.0909	0.	44.113
2400	21.969	5.0909	0.	47.273
2401	22.153	5.0909	0.	50.66
2402	22.338	5.0909	0.	54.324
2403	22.523	5.0909	0.	58.327
2404	22.707	5.0909	0.	62.749
2405	22.892	5.0909	0.	67.696
2406	23.077	5.0909	0.	73.298
2407	23.261	5.0909	0.	79.72
2408	23.446	5.0909	0.	87.123
2409	23.631	5.0909	0.	95.729
2410	23.815	5.0909	0.	105.54
2411	12.551	4.9091	0.	779.94
2412	12.736	4.9091	0.	484.84
2413	12.921	4.9091	0.	312.76
2414	13.105	4.9091	0.	197.23
2415	13.29	4.9091	0.	121.02
2416	13.475	4.9091	0.	71.472
2417	13.659	4.9091	0.	39.093
2418	13.844	4.9091	0.	18.046
2419	14.029	4.9091	0.	6.1934
2420	14.213	4.9091	0.	2.1727
2421	14.398	4.9091	0.	1.0218
2422	14.583	4.9091	0.	0.57249
2423	14.767	4.9091	0.	0.35354
2424	14.952	4.9091	0.	0.23248
2425	15.137	4.9091	0.	0.16003
2426	15.321	4.9091	0.	0.11424
2427	15.506	4.9091	0.	8.4082e-002
2428	15.69	4.9091	0.	6.3566e-002
2429	15.875	4.9091	0.	4.9228e-002
2430	16.06	4.9091	0.	3.8979e-002
2431	16.244	4.9091	0.	3.1513e-002
2432	16.429	4.9091	0.	2.5997e-002
2433	16.614	4.9091	0.	2.1869e-002
2434	16.798	4.9091	0.	1.874e-002
2435	16.983	4.9091	0.	1.6395e-002
2436	17.168	4.9091	0.	1.4653e-002
2437	17.352	4.9091	0.	1.3387e-002
2438	17.537	4.9091	0.	1.2553e-002
2439	17.722	4.9091	0.	1.2152e-002
2440	17.906	4.9091	0.	1.229e-002
2441	18.091	4.9091	0.	1.3365e-002
2442	18.276	4.9091	0.	1.7099e-002
2443	18.46	4.9091	0.	4.6047e-002
2444	18.645	4.9091	0.	1.8053
2445	18.83	4.9091	0.	4.3607
2446	19.014	4.9091	0.	6.8981
2447	19.199	4.9091	0.	9.4173
2448	19.384	4.9091	0.	11.925
2449	19.568	4.9091	0.	14.428
2450	19.753	4.9091	0.	16.938
2451	19.938	4.9091	0.	19.465
2452	20.122	4.9091	0.	22.019
2453	20.307	4.9091	0.	24.614
2454	20.492	4.9091	0.	27.261
2455	20.676	4.9091	0.	29.977
2456	20.861	4.9091	0.	32.776
2457	21.046	4.9091	0.	35.676
2458	21.23	4.9091	0.	38.697
2459	21.415	4.9091	0.	41.86
2460	21.599	4.9091	0.	45.191
2461	21.784	4.9091	0.	48.719
2462	21.969	4.9091	0.	52.481
2463	22.153	4.9091	0.	56.518
2464	22.338	4.9091	0.	60.883
2465	22.523	4.9091	0.	65.638
2466	22.707	4.9091	0.	70.862
2467	22.892	4.9091	0.	76.646
2468	23.077	4.9091	0.	83.096
2469	23.261	4.9091	0.	90.33
2470	23.446	4.9091	0.	98.442
2471	23.631	4.9091	0.	107.58
2472	23.815	4.9091	0.	117.64
2473	12.551	4.7273	0.	1018.
2474	12.736	4.7273	0.	617.86
2475	12.921	4.7273	0.	375.68
2476	13.105	4.7273	0.	216.77
2477	13.29	4.7273	0.	115.39
2478	13.475	4.7273	0.	52.882
2479	13.659	4.7273	0.	17.004
2480	13.844	4.7273	0.	4.2289
2481	14.029	4.7273	0.	1.7147
2482	14.213	4.7273	0.	0.9289
2483	14.398	4.7273	0.	0.57164
2484	14.583	4.7273	0.	0.37689
2485	14.767	4.7273	0.	0.25961
2486	14.952	4.7273	0.	0.18457
2487	15.137	4.7273	0.	0.13457
2488	15.321	4.7273	0.	0.10027
2489	15.506	4.7273	0.	7.6184e-002
2490	15.69	4.7273	0.	5.8966e-002
2491	15.875	4.7273	0.	4.6462e-002
2492	16.06	4.7273	0.	3.7266e-002
2493	16.244	4.7273	0.	3.0426e-002
2494	16.429	4.7273	0.	2.5308e-002
2495	16.614	4.7273	0.	2.1446e-002
2496	16.798	4.7273	0.	1.8512e-002
2497	16.983	4.7273	0.	1.6318e-002
2498	17.168	4.7273	0.	1.4693e-002
2499	17.352	4.7273	0.	1.3512e-002
2500	17.537	4.7273	0.	1.2721e-002
2501	17.722	4.7273	0.	1.2286e-002
2502	17.906	4.7273	0.	1.223e-002
2503	18.091	4.7273	0.	1.2694e-002
2504	18.276	4.7273	0.	1.4156e-002
2505	18.46	4.7273	0.	1.9005e-002
2506	18.645	4.7273	0.	0.11459
2507	18.83	4.7273	0.	2.7371
2508	19.014	4.7273	0.	5.6137
2509	19.199	4.7273	0.	8.4657
2510	19.384	4.7273	0.	11.301
2511	19.568	4.7273	0.	14.129
2512	19.753	4.7273	0.	16.964
2513	19.938	4.7273	0.	19.819
2514	20.122	4.7273	0.	22.707
2515	20.307	4.7273	0.	25.644
2516	20.492	4.7273	0.	28.646
2517	20.676	4.7273	0.	31.731
2518	20.861	4.7273	0.	34.916
2519	21.046	4.7273	0.	38.223
2520	21.23	4.7273	0.	41.674
2521	21.415	4.7273	0.	45.293
2522	21.599	4.7273	0.	49.11
2523	21.784	4.7273	0.	53.157
2524	21.969	4.7273	0.	57.472
2525	22.153	4.7273	0.	62.097
2526	22.338	4.7273	0.	67.084
2527	22.523	4.7273	0.	72.492
2528	22.707	4.7273	0.	78.39
2529	22.892	4.7273	0.	84.852
2530	23.077	4.7273	0.	91.959
2531	23.261	4.7273	0.	99.792
2532	23.446	4.7273	0.	108.4
2533	23.631	4.7273	0.	117.88
2534	23.815	4.7273	0.	128.11
2535	12.551	4.5455	0.	1306.1
2536	12.736	4.5455	0.	736.2
2537	12.921	4.5455	0.	409.13
2538	13.105	4.5455	0.	208.12
2539	13.29	4.5455	0.	88.991
2540	13.475	4.5455	0.	23.229
2541	13.659	4.5455	0.	4.2101
2542	13.844	4.5455	0.	1.6852
2543	14.029	4.5455	0.	0.93571
2544	14.213	4.5455	0.	0.59391
2545	14.398	4.5455	0.	0.40317
2546	14.583	4.5455	0.	0.28498
2547	14.767	4.5455	0.	0.20693
2548	14.952	4.5455	0.	0.1533
2549	15.137	4.5455	0.	0.11545
2550	15.321	4.5455	0.	8.825e-002
2551	15.506	4.5455	0.	6.8414e-002
2552	15.69	4.5455	0.	5.379e-002
2553	15.875	4.5455	0.	4.2916e-002
2554	16.06	4.5455	0.	3.4772e-002
2555	16.244	4.5455	0.	2.8642e-002
2556	16.429	4.5455	0.	2.4017e-002
2557	16.614	4.5455	0.	2.0519e-002
2558	16.798	4.5455	0.	1.7862e-002
2559	16.983	4.5455	0.	1.5888e-002
2560	17.168	4.5455	0.	1.4434e-002
2561	17.352	4.5455	0.	1.3391e-002
2562	17.537	4.5455	0.	1.2694e-002
2563	17.722	4.5455	0.	1.2304e-002
2564	17.906	4.5455	0.	1.2212e-002
2565	18.091	4.5455	0.	1.2469e-002
2566	18.276	4.5455	0.	1.3266e-002
2567	18.46	4.5455	0.	1.5332e-002
2568	18.645	4.5455	0.	2.4086e-002
2569	18.83	4.5455	0.	1.2283
2570	19.014	4.5455	0.	4.4256
2571	19.199	4.5455	0.	7.5984
2572	19.384	4.5455	0.	10.748
2573	19.568	4.5455	0.	13.887
2574	19.753	4.5455	0.	17.032
2575	19.938	4.5455	0.	20.198
2576	20.122	4.5455	0.	23.402
2577	20.307	4.5455	0.	26.663
2578	20.492	4.5455	0.	29.999
2579	20.676	4.5455	0.	33.43
2580	20.861	4.5455	0.	36.977
2581	21.046	4.5455	0.	40.664
2582	21.23	4.5455	0.	44.514
2583	21.415	4.5455	0.	48.555
2584	21.599	4.5455	0.	52.818
2585	21.784	4.5455	0.	57.335
2586	21.969	4.5455	0.	62.145
2587	22.153	4.5455	0.	67.29
2588	22.338	4.5455	0.	72.816
2589	22.523	4.5455	0.	78.778
2590	22.707	4.5455	0.	85.231
2591	22.892	4.5455	0.	92.236
2592	23.077	4.5455	0.	99.85
2593	23.261	4.5455	0.	108.13
2594	23.446	4.5455	0.	117.09
2595	23.631	4.5455	0.	126.82
2596	23.815	4.5455	0.	137.15
2597	12.551	4.3636	0.	1716.1
2598	12.736	4.3636	0.	796.36
2599	12.921	4.3636	0.	377.1
2600	13.105	4.3636	0.	159.41
2601	13.29	4.3636	0.	41.243
2602	13.475	4.3636	0.	5.1889
2603	13.659	4.3636	0.	1.8035
2604	13.844	4.3636	0.	0.98592
2605	14.029	4.3636	0.	0.62503
2606	14.213	4.3636	0.	0.42977
2607	14.398	4.3636	0.	0.30805
2608	14.583	4.3636	0.	0.22686
2609	14.767	4.3636	0.	0.17007
2610	14.952	4.3636	0.	0.12923
2611	15.137	4.3636	0.	9.9328e-002
2612	15.321	4.3636	0.	7.7169e-002
2613	15.506	4.3636	0.	6.061e-002
2614	15.69	4.3636	0.	4.8168e-002
2615	15.875	4.3636	0.	3.878e-002
2616	16.06	4.3636	0.	3.168e-002
2617	16.244	4.3636	0.	2.6298e-002
2618	16.429	4.3636	0.	2.2234e-002
2619	16.614	4.3636	0.	1.9165e-002
2620	16.798	4.3636	0.	1.6846e-002
2621	16.983	4.3636	0.	1.5138e-002
2622	17.168	4.3636	0.	1.3905e-002
2623	17.352	4.3636	0.	1.3039e-002
2624	17.537	4.3636	0.	1.2479e-002
2625	17.722	4.3636	0.	1.2183e-002
2626	17.906	4.3636	0.	1.2131e-002
2627	18.091	4.3636	0.	1.2334e-002
2628	18.276	4.3636	0.	1.2882e-002
2629	18.46	4.3636	0.	1.4075e-002
2630	18.645	4.3636	0.	1.7433e-002
2631	18.83	4.3636	0.	9.5071e-002
2632	19.014	4.3636	0.	3.3381
2633	19.199	4.3636	0.	6.814
2634	19.384	4.3636	0.	10.259
2635	19.568	4.3636	0.	13.69
2636	19.753	4.3636	0.	17.124
2637	19.938	4.3636	0.	20.58
2638	20.122	4.3636	0.	24.079
2639	20.307	4.3636	0.	27.639
2640	20.492	4.3636	0.	31.284
2641	20.676	4.3636	0.	35.034
2642	20.861	4.3636	0.	38.913
2643	21.046	4.3636	0.	42.947
2644	21.23	4.3636	0.	47.16
2645	21.415	4.3636	0.	51.582
2646	21.599	4.3636	0.	56.244
2647	21.784	4.3636	0.	61.179
2648	21.969	4.3636	0.	66.424
2649	22.153	4.3636	0.	72.018
2650	22.338	4.3636	0.	78.003
2651	22.523	4.3636	0.	84.425
2652	22.707	4.3636	0.	91.331
2653	22.892	4.3636	0.	98.766
2654	23.077	4.3636	0.	106.77
2655	23.261	4.3636	0.	115.38
2656	23.446	4.3636	0.	124.61
2657	23.631	4.3636	0.	134.52
2658	23.815	4.3636	0.	144.92
2659	12.551	4.1818	0.	1877.7
2660	12.736	4.1818	0.	713.77
2661	12.921	4.1818	0.	260.76
2662	13.105	4.1818	0.	74.311
2663	13.29	4.1818	0.	6.6838
2664	13.475	4.1818	0.	2.0091
2665	13.659	4.1818	0.	1.0206
2666	13.844	4.1818	0.	0.65642
2667	14.029	4.1818	0.	0.45138
2668	14.213	4.1818	0.	0.32833
2669	14.398	4.1818	0.	0.24442
2670	14.583	4.1818	0.	0.18519
2671	14.767	4.1818	0.	0.1418
2672	14.952	4.1818	0.	0.10952
2673	15.137	4.1818	0.	8.5248e-002
2674	15.321	4.1818	0.	6.689e-002
2675	15.506	4.1818	0.	5.2964e-002
2676	15.69	4.1818	0.	4.2384e-002
2677	15.875	4.1818	0.	3.4343e-002
2678	16.06	4.1818	0.	2.8242e-002
2679	16.244	4.1818	0.	2.3618e-002
2680	16.429	4.1818	0.	2.0139e-002
2681	16.614	4.1818	0.	1.753e-002
2682	16.798	4.1818	0.	1.5582e-002
2683	16.983	4.1818	0.	1.4177e-002
2684	17.168	4.1818	0.	1.319e-002
2685	17.352	4.1818	0.	1.2524e-002
2686	17.537	4.1818	0.	1.2126e-002
2687	17.722	4.1818	0.	1.1952e-002
2688	17.906	4.1818	0.	1.1979e-002
2689	18.091	4.1818	0.	1.2203e-002
2690	18.276	4.1818	0.	1.2663e-002
2691	18.46	4.1818	0.	1.3501e-002
2692	18.645	4.1818	0.	1.5326e-002
2693	18.83	4.1818	0.	2.5036e-002
2694	19.014	4.1818	0.	2.3583
2695	19.199	4.1818	0.	6.1137
2696	19.384	4.1818	0.	9.8312
2697	19.568	4.1818	0.	13.529
2698	19.753	4.1818	0.	17.227
2699	19.938	4.1818	0.	20.948
2700	20.122	4.1818	0.	24.714
2701	20.307	4.1818	0.	28.546
2702	20.492	4.1818	0.	32.47
2703	20.676	4.1818	0.	36.507
2704	20.861	4.1818	0.	40.685
2705	21.046	4.1818	0.	45.028
2706	21.23	4.1818	0.	49.564
2707	21.415	4.1818	0.	54.323
2708	21.599	4.1818	0.	59.335
2709	21.784	4.1818	0.	64.632
2710	21.969	4.1818	0.	70.25
2711	22.153	4.1818	0.	76.225
2712	22.338	4.1818	0.	82.593
2713	22.523	4.1818	0.	89.394
2714	22.707	4.1818	0.	96.664
2715	22.892	4.1818	0.	104.44
2716	23.077	4.1818	0.	112.75
2717	23.261	4.1818	0.	121.61
2718	23.446	4.1818	0.	131.03
2719	23.631	4.1818	0.	141.07
2720	23.815	4.1818	0.	151.52
2721	12.551	4.	0.	1200.5
2722	12.736	4.	0.	385.91
2723	12.921	4.	0.	117.4
2724	13.105	4.	0.	10.283
2725	13.29	4.	0.	1.4873
2726	13.475	4.	0.	1.1407
2727	13.659	4.	0.	0.63443
2728	13.844	4.	0.	0.47521
2729	14.029	4.	0.	0.34416
2730	14.213	4.	0.	0.26212
2731	14.398	4.	0.	0.20032
2732	14.583	4.	0.	0.15466
2733	14.767	4.	0.	0.1199
2734	14.952	4.	0.	9.3399e-002
2735	15.137	4.	0.	7.3127e-002
2736	15.321	4.	0.	5.7624e-002
2737	15.506	4.	0.	4.5785e-002
2738	15.69	4.	0.	3.6763e-002
2739	15.875	4.	0.	2.9908e-002
2740	16.06	4.	0.	2.4724e-002
2741	16.244	4.	0.	2.082e-002
2742	16.429	4.	0.	1.7914e-002
2743	16.614	4.	0.	1.5768e-002
2744	16.798	4.	0.	1.4196e-002
2745	16.983	4.	0.	1.31e-002
2746	17.168	4.	0.	1.2367e-002
2747	17.352	4.	0.	1.1912e-002
2748	17.537	4.	0.	1.1684e-002
2749	17.722	4.	0.	1.1647e-002
2750	17.906	4.	0.	1.1773e-002
2751	18.091	4.	0.	1.2053e-002
2752	18.276	4.	0.	1.2503e-002
2753	18.46	4.	0.	1.319e-002
2754	18.645	4.	0.	1.4397e-002
2755	18.83	4.	0.	1.8199e-002
2756	19.014	4.	0.	1.4949
2757	19.199	4.	0.	5.5008
2758	19.384	4.	0.	9.4622
2759	19.568	4.	0.	13.398
2760	19.753	4.	0.	17.332
2761	19.938	4.	0.	21.287
2762	20.122	4.	0.	25.289
2763	20.307	4.	0.	29.362
2764	20.492	4.	0.	33.53
2765	20.676	4.	0.	37.82
2766	20.861	4.	0.	42.258
2767	21.046	4.	0.	46.871
2768	21.23	4.	0.	51.687
2769	21.415	4.	0.	56.735
2770	21.599	4.	0.	62.046
2771	21.784	4.	0.	67.651
2772	21.969	4.	0.	73.583
2773	22.153	4.	0.	79.873
2774	22.338	4.	0.	86.556
2775	22.523	4.	0.	93.662
2776	22.707	4.	0.	101.22
2777	22.892	4.	0.	109.26
2778	23.077	4.	0.	117.8
2779	23.261	4.	0.	126.86
2780	23.446	4.	0.	136.43
2781	23.631	4.	0.	146.57
2782	23.815	4.	0.	157.05
2783	12.551	3.8182	0.	593.61
2784	12.736	3.8182	0.	238.8
2785	12.921	3.8182	0.	33.178
2786	13.105	3.8182	0.	3.5463
2787	13.29	3.8182	0.	0.48971
2788	13.475	3.8182	0.	0.78172
2789	13.659	3.8182	0.	0.46297
2790	13.844	3.8182	0.	0.37832
2791	14.029	3.8182	0.	0.28467
2792	14.213	3.8182	0.	0.22197
2793	14.398	3.8182	0.	0.17176
2794	14.583	3.8182	0.	0.13341
2795	14.767	3.8182	0.	0.10365
2796	14.952	3.8182	0.	8.0725e-002
2797	15.137	3.8182	0.	6.3116e-002
2798	15.321	3.8182	0.	4.9649e-002
2799	15.506	3.8182	0.	3.9394e-002
2800	15.69	3.8182	0.	3.1622e-002
2801	15.875	3.8182	0.	2.5762e-002
2802	16.06	3.8182	0.	2.1376e-002
2803	16.244	3.8182	0.	1.8119e-002
2804	16.429	3.8182	0.	1.5743e-002
2805	16.614	3.8182	0.	1.4027e-002
2806	16.798	3.8182	0.	1.2813e-002
2807	16.983	3.8182	0.	1.2011e-002
2808	17.168	3.8182	0.	1.1523e-002
2809	17.352	3.8182	0.	1.1268e-002
2810	17.537	3.8182	0.	1.1211e-002
2811	17.722	3.8182	0.	1.1306e-002
2812	17.906	3.8182	0.	1.1537e-002
2813	18.091	3.8182	0.	1.1887e-002
2814	18.276	3.8182	0.	1.2362e-002
2815	18.46	3.8182	0.	1.2993e-002
2816	18.645	3.8182	0.	1.3917e-002
2817	18.83	3.8182	0.	1.5949e-002
2818	19.014	3.8182	0.	0.75852
2819	19.199	3.8182	0.	4.9793
2820	19.384	3.8182	0.	9.1518
2821	19.568	3.8182	0.	13.293
2822	19.753	3.8182	0.	17.429
2823	19.938	3.8182	0.	21.586
2824	20.122	3.8182	0.	25.79
2825	20.307	3.8182	0.	30.067
2826	20.492	3.8182	0.	34.445
2827	20.676	3.8182	0.	38.948
2828	20.861	3.8182	0.	43.607
2829	21.046	3.8182	0.	48.447
2830	21.23	3.8182	0.	53.497
2831	21.415	3.8182	0.	58.787
2832	21.599	3.8182	0.	64.347
2833	21.784	3.8182	0.	70.205
2834	21.969	3.8182	0.	76.392
2835	22.153	3.8182	0.	82.938
2836	22.338	3.8182	0.	89.871
2837	22.523	3.8182	0.	97.219
2838	22.707	3.8182	0.	105.01
2839	22.892	3.8182	0.	113.25
2840	23.077	3.8182	0.	121.97
2841	23.261	3.8182	0.	131.17
2842	23.446	3.8182	0.	140.85
2843	23.631	3.8182	0.	151.06
2844	23.815	3.8182	0.	161.57
2845	12.551	3.6364	0.	617.71
2846	12.736	3.6364	0.	258.68
2847	12.921	3.6364	0.	46.087
2848	13.105	3.6364	0.	0.86613
2849	13.29	3.6364	0.	0.81737
2850	13.475	3.6364	0.	0.58334
2851	13.659	3.6364	0.	0.43714
2852	13.844	3.6364	0.	0.34069
2853	14.029	3.6364	0.	0.2623
2854	14.213	3.6364	0.	0.20282
2855	14.398	3.6364	0.	0.15617
2856	14.583	3.6364	0.	0.12021
2857	14.767	3.6364	0.	9.254e-002
2858	14.952	3.6364	0.	7.1404e-002
2859	15.137	3.6364	0.	5.5339e-002
2860	15.321	3.6364	0.	4.3194e-002
2861	15.506	3.6364	0.	3.4057e-002
2862	15.69	3.6364	0.	2.7227e-002
2863	15.875	3.6364	0.	2.2156e-002
2864	16.06	3.6364	0.	1.8425e-002
2865	16.244	3.6364	0.	1.5714e-002
2866	16.429	3.6364	0.	1.3787e-002
2867	16.614	3.6364	0.	1.2451e-002
2868	16.798	3.6364	0.	1.1548e-002
2869	16.983	3.6364	0.	1.1009e-002
2870	17.168	3.6364	0.	1.0737e-002
2871	17.352	3.6364	0.	1.0665e-002
2872	17.537	3.6364	0.	1.0756e-002
2873	17.722	3.6364	0.	1.0976e-002
2874	17.906	3.6364	0.	1.1303e-002
2875	18.091	3.6364	0.	1.1724e-002
2876	18.276	3.6364	0.	1.2237e-002
2877	18.46	3.6364	0.	1.2855e-002
2878	18.645	3.6364	0.	1.3643e-002
2879	18.83	3.6364	0.	1.4947e-002
2880	19.014	3.6364	0.	0.17646
2881	19.199	3.6364	0.	4.5542
2882	19.384	3.6364	0.	8.9008
2883	19.568	3.6364	0.	13.211
2884	19.753	3.6364	0.	17.513
2885	19.938	3.6364	0.	21.835
2886	20.122	3.6364	0.	26.204
2887	20.307	3.6364	0.	30.648
2888	20.492	3.6364	0.	35.195
2889	20.676	3.6364	0.	39.873
2890	20.861	3.6364	0.	44.709
2891	21.046	3.6364	0.	49.732
2892	21.23	3.6364	0.	54.971
2893	21.415	3.6364	0.	60.455
2894	21.599	3.6364	0.	66.211
2895	21.784	3.6364	0.	72.269
2896	21.969	3.6364	0.	78.657
2897	22.153	3.6364	0.	85.402
2898	22.338	3.6364	0.	92.53
2899	22.523	3.6364	0.	100.06
2900	22.707	3.6364	0.	108.02
2901	22.892	3.6364	0.	116.42
2902	23.077	3.6364	0.	125.27
2903	23.261	3.6364	0.	134.58
2904	23.446	3.6364	0.	144.34
2905	23.631	3.6364	0.	154.6
2906	23.815	3.6364	0.	165.13
2907	12.551	3.4545	0.	573.38
2908	12.736	3.4545	0.	308.09
2909	12.921	3.4545	0.	87.859
2910	13.105	3.4545	0.	1.4831
2911	13.29	3.4545	0.	0.85335
2912	13.475	3.4545	0.	0.59663
2913	13.659	3.4545	0.	0.45976
2914	13.844	3.4545	0.	0.34701
2915	14.029	3.4545	0.	0.26319
2916	14.213	3.4545	0.	0.19888
2917	14.398	3.4545	0.	0.15014
2918	14.583	3.4545	0.	0.11337
2919	14.767	3.4545	0.	8.5764e-002
2920	14.952	3.4545	0.	6.5134e-002
2921	15.137	3.4545	0.	4.977e-002
2922	15.321	3.4545	0.	3.8374e-002
2923	15.506	3.4545	0.	2.996e-002
2924	15.69	3.4545	0.	2.3784e-002
2925	15.875	3.4545	0.	1.9287e-002
2926	16.06	3.4545	0.	1.6052e-002
2927	16.244	3.4545	0.	1.3762e-002
2928	16.429	3.4545	0.	1.2194e-002
2929	16.614	3.4545	0.	1.1157e-002
2930	16.798	3.4545	0.	1.0505e-002
2931	16.983	3.4545	0.	1.0176e-002
2932	17.168	3.4545	0.	1.0082e-002
2933	17.352	3.4545	0.	1.0156e-002
2934	17.537	3.4545	0.	1.037e-002
2935	17.722	3.4545	0.	1.069e-002
2936	17.906	3.4545	0.	1.11e-002
2937	18.091	3.4545	0.	1.1582e-002
2938	18.276	3.4545	0.	1.2133e-002
2939	18.46	3.4545	0.	1.2757e-002
2940	18.645	3.4545	0.	1.3481e-002
2941	18.83	3.4545	0.	1.4444e-002
2942	19.014	3.4545	0.	2.3262e-002
2943	19.199	3.4545	0.	4.2304
2944	19.384	3.4545	0.	8.7106
2945	19.568	3.4545	0.	13.15
2946	19.753	3.4545	0.	17.579
2947	19.938	3.4545	0.	22.027
2948	20.122	3.4545	0.	26.522
2949	20.307	3.4545	0.	31.093
2950	20.492	3.4545	0.	35.769
2951	20.676	3.4545	0.	40.578
2952	20.861	3.4545	0.	45.549
2953	21.046	3.4545	0.	50.711
2954	21.23	3.4545	0.	56.091
2955	21.415	3.4545	0.	61.72
2956	21.599	3.4545	0.	67.623
2957	21.784	3.4545	0.	73.83
2958	21.969	3.4545	0.	80.366
2959	22.153	3.4545	0.	87.257
2960	22.338	3.4545	0.	94.525
2961	22.523	3.4545	0.	102.19
2962	22.707	3.4545	0.	110.27
2963	22.892	3.4545	0.	118.78
2964	23.077	3.4545	0.	127.73
2965	23.261	3.4545	0.	137.12
2966	23.446	3.4545	0.	146.93
2967	23.631	3.4545	0.	157.23
2968	23.815	3.4545	0.	167.77
2969	12.551	3.2727	0.	553.55
2970	12.736	3.2727	0.	329.15
2971	12.921	3.2727	0.	121.29
2972	13.105	3.2727	0.	1.384
2973	13.29	3.2727	0.	0.83473
2974	13.475	3.2727	0.	0.65357
2975	13.659	3.2727	0.	0.49376
2976	13.844	3.2727	0.	0.36937
2977	14.029	3.2727	0.	0.27393
2978	14.213	3.2727	0.	0.20243
2979	14.398	3.2727	0.	0.14953
2980	14.583	3.2727	0.	0.11066
2981	14.767	3.2727	0.	8.2207e-002
2982	14.952	3.2727	0.	6.1414e-002
2983	15.137	3.2727	0.	4.6246e-002
2984	15.321	3.2727	0.	3.5204e-002
2985	15.506	3.2727	0.	2.7197e-002
2986	15.69	3.2727	0.	2.1424e-002
2987	15.875	3.2727	0.	1.73e-002
2988	16.06	3.2727	0.	1.4395e-002
2989	16.244	3.2727	0.	1.2393e-002
2990	16.429	3.2727	0.	1.1068e-002
2991	16.614	3.2727	0.	1.0239e-002
2992	16.798	3.2727	0.	9.7629e-003
2993	16.983	3.2727	0.	9.5818e-003
2994	17.168	3.2727	0.	9.6106e-003
2995	17.352	3.2727	0.	9.7901e-003
2996	17.537	3.2727	0.	1.0088e-002
2997	17.722	3.2727	0.	1.0483e-002
2998	17.906	3.2727	0.	1.0948e-002
2999	18.091	3.2727	0.	1.1474e-002
3000	18.276	3.2727	0.	1.2057e-002
3001	18.46	3.2727	0.	1.2693e-002
3002	18.645	3.2727	0.	1.3387e-002
3003	18.83	3.2727	0.	1.4185e-002
3004	19.014	3.2727	0.	1.6398e-002
3005	19.199	3.2727	0.	4.0119
3006	19.384	3.2727	0.	8.5828
3007	19.568	3.2727	0.	13.11
3008	19.753	3.2727	0.	17.625
3009	19.938	3.2727	0.	22.158
3010	20.122	3.2727	0.	26.737
3011	20.307	3.2727	0.	31.394
3012	20.492	3.2727	0.	36.157
3013	20.676	3.2727	0.	41.054
3014	20.861	3.2727	0.	46.116
3015	21.046	3.2727	0.	51.37
3016	21.23	3.2727	0.	56.845
3017	21.415	3.2727	0.	62.569
3018	21.599	3.2727	0.	68.57
3019	21.784	3.2727	0.	74.875
3020	21.969	3.2727	0.	81.509
3021	22.153	3.2727	0.	88.496
3022	22.338	3.2727	0.	95.857
3023	22.523	3.2727	0.	103.61
3024	22.707	3.2727	0.	111.77
3025	22.892	3.2727	0.	120.35
3026	23.077	3.2727	0.	129.36
3027	23.261	3.2727	0.	138.8
3028	23.446	3.2727	0.	148.65
3029	23.631	3.2727	0.	158.97
3030	23.815	3.2727	0.	169.51
3031	12.551	3.0909	0.	541.2
3032	12.736	3.0909	0.	338.46
3033	12.921	3.0909	0.	138.27
3034	13.105	3.0909	0.	0.97072
3035	13.29	3.0909	0.	0.83046
3036	13.475	3.0909	0.	0.67414
3037	13.659	3.0909	0.	0.51813
3038	13.844	3.0909	0.	0.38557
3039	14.029	3.0909	0.	0.2828
3040	14.213	3.0909	0.	0.20629
3041	14.398	3.0909	0.	0.15042
3042	14.583	3.0909	0.	0.10996
3043	14.767	3.0909	0.	8.077e-002
3044	14.952	3.0909	0.	5.9721e-002
3045	15.137	3.0909	0.	4.4555e-002
3046	15.321	3.0909	0.	3.3641e-002
3047	15.506	3.0909	0.	2.5812e-002
3048	15.69	3.0909	0.	2.0228e-002
3049	15.875	3.0909	0.	1.6283e-002
3050	16.06	3.0909	0.	1.3545e-002
3051	16.244	3.0909	0.	1.1685e-002
3052	16.429	3.0909	0.	1.0488e-002
3053	16.614	3.0909	0.	9.7632e-003
3054	16.798	3.0909	0.	9.3792e-003
3055	16.983	3.0909	0.	9.2709e-003
3056	17.168	3.0909	0.	9.3657e-003
3057	17.352	3.0909	0.	9.597e-003
3058	17.537	3.0909	0.	9.9413e-003
3059	17.722	3.0909	0.	1.0371e-002
3060	17.906	3.0909	0.	1.0866e-002
3061	18.091	3.0909	0.	1.1419e-002
3062	18.276	3.0909	0.	1.2018e-002
3063	18.46	3.0909	0.	1.266e-002
3064	18.645	3.0909	0.	1.3344e-002
3065	18.83	3.0909	0.	1.4076e-002
3066	19.014	3.0909	0.	1.4967e-002
3067	19.199	3.0909	0.	3.9018
3068	19.384	3.0909	0.	8.5185
3069	19.568	3.0909	0.	13.09
3070	19.753	3.0909	0.	17.648
3071	19.938	3.0909	0.	22.224
3072	20.122	3.0909	0.	26.846
3073	20.307	3.0909	0.	31.546
3074	20.492	3.0909	0.	36.352
3075	20.676	3.0909	0.	41.294
3076	20.861	3.0909	0.	46.401
3077	21.046	3.0909	0.	51.701
3078	21.23	3.0909	0.	57.223
3079	21.415	3.0909	0.	62.996
3080	21.599	3.0909	0.	69.046
3081	21.784	3.0909	0.	75.399
3082	21.969	3.0909	0.	82.082
3083	22.153	3.0909	0.	89.116
3084	22.338	3.0909	0.	96.522
3085	22.523	3.0909	0.	104.32
3086	22.707	3.0909	0.	112.52
3087	22.892	3.0909	0.	121.13
3088	23.077	3.0909	0.	130.17
3089	23.261	3.0909	0.	139.63
3090	23.446	3.0909	0.	149.5
3091	23.631	3.0909	0.	159.84
3092	23.815	3.0909	0.	170.38
3093	12.551	2.9091	0.	541.2
3094	12.736	2.9091	0.	338.46
3095	12.921	2.9091	0.	138.27
3096	13.105	2.9091	0.	0.97072
3097	13.29	2.9091	0.	0.83046
3098	13.475	2.9091	0.	0.67414
3099	13.659	2.9091	0.	0.51813
3100	13.844	2.9091	0.	0.38556
3101	14.029	2.9091	0.	0.2828
3102	14.213	2.9091	0.	0.2063
3103	14.398	2.9091	0.	0.15042
3104	14.583	2.9091	0.	0.10997
3105	14.767	2.9091	0.	8.077e-002
3106	14.952	2.9091	0.	5.9721e-002
3107	15.137	2.9091	0.	4.4555e-002
3108	15.321	2.9091	0.	3.3641e-002
3109	15.506	2.9091	0.	2.581e-002
3110	15.69	2.9091	0.	2.0228e-002
3111	15.875	2.9091	0.	1.6284e-002
3112	16.06	2.9091	0.	1.3543e-002
3113	16.244	2.9091	0.	1.1685e-002
3114	16.429	2.9091	0.	1.0486e-002
3115	16.614	2.9091	0.	9.763e-003
3116	16.798	2.9091	0.	9.3766e-003
3117	16.983	2.9091	0.	9.2712e-003
3118	17.168	2.9091	0.	9.3659e-003
3119	17.352	2.9091	0.	9.5969e-003
3120	17.537	2.9091	0.	9.9434e-003
3121	17.722	2.9091	0.	1.0371e-002
3122	17.906	2.9091	0.	1.0868e-002
3123	18.091	2.9091	0.	1.1418e-002
3124	18.276	2.9091	0.	1.2016e-002
3125	18.46	2.9091	0.	1.266e-002
3126	18.645	2.9091	0.	1.3344e-002
3127	18.83	2.9091	0.	1.4075e-002
3128	19.014	2.9091	0.	1.4969e-002
3129	19.199	2.9091	0.	3.9018
3130	19.384	2.9091	0.	8.5185
3131	19.568	2.9091	0.	13.09
3132	19.753	2.9091	0.	17.648
3133	19.938	2.9091	0.	22.224
3134	20.122	2.9091	0.	26.846
3135	20.307	2.9091	0.	31.546
3136	20.492	2.9091	0.	36.352
3137	20.676	2.9091	0.	41.294
3138	20.861	2.9091	0.	46.401
3139	21.046	2.9091	0.	51.701
3140	21.23	2.9091	0.	57.223
3141	21.415	2.9091	0.	62.996
3142	21.599	2.9091	0.	69.046
3143	21.784	2.9091	0.	75.399
3144	21.969	2.9091	0.	82.082
3145	22.153	2.9091	0.	89.116
3146	22.338	2.9091	0.	96.522
3147	22.523	2.9091	0.	104.32
3148	22.707	2.9091	0.	112.52
3149	22.892	2.9091	0.	121.13
3150	23.077	2.9091	0.	130.17
3151	23.261	2.9091	0.	139.63
3152	23.446	2.9091	0.	149.5
3153	23.631	2.9091	0.	159.84
3154	23.815	2.9091	0.	170.38
3155	12.551	2.7273	0.	553.55
3156	12.736	2.7273	0.	329.15
3157	12.921	2.7273	0.	121.29
3158	13.105	2.7273	0.	1.384
3159	13.29	2.7273	0.	0.83473
3160	13.475	2.7273	0.	0.65357
3161	13.659	2.7273	0.	0.49376
3162	13.844	2.7273	0.	0.36937
3163	14.029	2.7273	0.	0.27393
3164	14.213	2.7273	0.	0.20243
3165	14.398	2.7273	0.	0.14953
3166	14.583	2.7273	0.	0.11066
3167	14.767	2.7273	0.	8.2207e-002
3168	14.952	2.7273	0.	6.1414e-002
3169	15.137	2.7273	0.	4.6245e-002
3170	15.321	2.7273	0.	3.5205e-002
3171	15.506	2.7273	0.	2.7198e-002
3172	15.69	2.7273	0.	2.1425e-002
3173	15.875	2.7273	0.	1.7299e-002
3174	16.06	2.7273	0.	1.4395e-002
3175	16.244	2.7273	0.	1.2392e-002
3176	16.429	2.7273	0.	1.1068e-002
3177	16.614	2.7273	0.	1.0238e-002
3178	16.798	2.7273	0.	9.7622e-003
3179	16.983	2.7273	0.	9.5809e-003
3180	17.168	2.7273	0.	9.6122e-003
3181	17.352	2.7273	0.	9.7891e-003
3182	17.537	2.7273	0.	1.0089e-002
3183	17.722	2.7273	0.	1.0481e-002
3184	17.906	2.7273	0.	1.0948e-002
3185	18.091	2.7273	0.	1.1475e-002
3186	18.276	2.7273	0.	1.2057e-002
3187	18.46	2.7273	0.	1.2692e-002
3188	18.645	2.7273	0.	1.3387e-002
3189	18.83	2.7273	0.	1.4186e-002
3190	19.014	2.7273	0.	1.6397e-002
3191	19.199	2.7273	0.	4.0119
3192	19.384	2.7273	0.	8.5828
3193	19.568	2.7273	0.	13.11
3194	19.753	2.7273	0.	17.625
3195	19.938	2.7273	0.	22.158
3196	20.122	2.7273	0.	26.737
3197	20.307	2.7273	0.	31.394
3198	20.492	2.7273	0.	36.157
3199	20.676	2.7273	0.	41.054
3200	20.861	2.7273	0.	46.116
3201	21.046	2.7273	0.	51.37
3202	21.23	2.7273	0.	56.845
3203	21.415	2.7273	0.	62.569
3204	21.599	2.7273	0.	68.57
3205	21.784	2.7273	0.	74.875
3206	21.969	2.7273	0.	81.509
3207	22.153	2.7273	0.	88.496
3208	22.338	2.7273	0.	95.857
3209	22.523	2.7273	0.	103.61
3210	22.707	2.7273	0.	111.77
3211	22.892	2.7273	0.	120.35
3212	23.077	2.7273	0.	129.36
3213	23.261	2.7273	0.	138.8
3214	23.446	2.7273	0.	148.65
3215	23.631	2.7273	0.	158.97
3216	23.815	2.7273	0.	169.51
3217	12.551	2.5455	0.	573.38
3218	12.736	2.5455	0.	308.09
3219	12.921	2.5455	0.	87.859
3220	13.105	2.5455	0.	1.4831
3221	13.29	2.5455	0.	0.85335
3222	13.475	2.5455	0.	0.59662
3223	13.659	2.5455	0.	0.45976
3224	13.844	2.5455	0.	0.34701
3225	14.029	2.5455	0.	0.26319
3226	14.213	2.5455	0.	0.19888
3227	14.398	2.5455	0.	0.15014
3228	14.583	2.5455	0.	0.11337
3229	14.767	2.5455	0.	8.5763e-002
3230	14.952	2.5455	0.	6.5133e-002
3231	15.137	2.5455	0.	4.977e-002
3232	15.321	2.5455	0.	3.8374e-002
3233	15.506	2.5455	0.	2.996e-002
3234	15.69	2.5455	0.	2.3784e-002
3235	15.875	2.5455	0.	1.9287e-002
3236	16.06	2.5455	0.	1.6053e-002
3237	16.244	2.5455	0.	1.3763e-002
3238	16.429	2.5455	0.	1.2194e-002
3239	16.614	2.5455	0.	1.1157e-002
3240	16.798	2.5455	0.	1.0505e-002
3241	16.983	2.5455	0.	1.0176e-002
3242	17.168	2.5455	0.	1.0082e-002
3243	17.352	2.5455	0.	1.0158e-002
3244	17.537	2.5455	0.	1.0369e-002
3245	17.722	2.5455	0.	1.0691e-002
3246	17.906	2.5455	0.	1.1098e-002
3247	18.091	2.5455	0.	1.1582e-002
3248	18.276	2.5455	0.	1.2133e-002
3249	18.46	2.5455	0.	1.2756e-002
3250	18.645	2.5455	0.	1.3481e-002
3251	18.83	2.5455	0.	1.4443e-002
3252	19.014	2.5455	0.	2.3261e-002
3253	19.199	2.5455	0.	4.2304
3254	19.384	2.5455	0.	8.7106
3255	19.568	2.5455	0.	13.15
3256	19.753	2.5455	0.	17.579
3257	19.938	2.5455	0.	22.027
3258	20.122	2.5455	0.	26.522
3259	20.307	2.5455	0.	31.093
3260	20.492	2.5455	0.	35.769
3261	20.676	2.5455	0.	40.578
3262	20.861	2.5455	0.	45.549
3263	21.046	2.5455	0.	50.711
3264	21.23	2.5455	0.	56.091
3265	21.415	2.5455	0.	61.719
3266	21.599	2.5455	0.	67.623
3267	21.784	2.5455	0.	73.83
3268	21.969	2.5455	0.	80.366
3269	22.153	2.5455	0.	87.257
3270	22.338	2.5455	0.	94.525
3271	22.523	2.5455	0.	102.19
3272	22.707	2.5455	0.	110.27
3273	22.892	2.5455	0.	118.78
3274	23.077	2.5455	0.	127.73
3275	23.261	2.5455	0.	137.12
3276	23.446	2.5455	0.	146.93
3277	23.631	2.5455	0.	157.23
3278	23.815	2.5455	0.	167.77
3279	12.551	2.3636	0.	617.71
3280	12.736	2.3636	0.	258.68
3281	12.921	2.3636	0.	46.087
3282	13.105	2.3636	0.	0.86613
3283	13.29	2.3636	0.	0.81737
3284	13.475	2.3636	0.	0.58334
3285	13.659	2.3636	0.	0.43714
3286	13.844	2.3636	0.	0.34068
3287	14.029	2.3636	0.	0.2623
3288	14.213	2.3636	0.	0.20283
3289	14.398	2.3636	0.	0.15617
3290	14.583	2.3636	0.	0.12021
3291	14.767	2.3636	0.	9.254e-002
3292	14.952	2.3636	0.	7.1404e-002
3293	15.137	2.3636	0.	5.534e-002
3294	15.321	2.3636	0.	4.3193e-002
3295	15.506	2.3636	0.	3.4058e-002
3296	15.69	2.3636	0.	2.7227e-002
3297	15.875	2.3636	0.	2.2155e-002
3298	16.06	2.3636	0.	1.8425e-002
3299	16.244	2.3636	0.	1.5715e-002
3300	16.429	2.3636	0.	1.3788e-002
3301	16.614	2.3636	0.	1.2451e-002
3302	16.798	2.3636	0.	1.1549e-002
3303	16.983	2.3636	0.	1.1007e-002
3304	17.168	2.3636	0.	1.0737e-002
3305	17.352	2.3636	0.	1.0665e-002
3306	17.537	2.3636	0.	1.0756e-002
3307	17.722	2.3636	0.	1.0977e-002
3308	17.906	2.3636	0.	1.1303e-002
3309	18.091	2.3636	0.	1.1724e-002
3310	18.276	2.3636	0.	1.2237e-002
3311	18.46	2.3636	0.	1.2856e-002
3312	18.645	2.3636	0.	1.3643e-002
3313	18.83	2.3636	0.	1.4947e-002
3314	19.014	2.3636	0.	0.17643
3315	19.199	2.3636	0.	4.5542
3316	19.384	2.3636	0.	8.9007
3317	19.568	2.3636	0.	13.211
3318	19.753	2.3636	0.	17.513
3319	19.938	2.3636	0.	21.835
3320	20.122	2.3636	0.	26.204
3321	20.307	2.3636	0.	30.648
3322	20.492	2.3636	0.	35.195
3323	20.676	2.3636	0.	39.873
3324	20.861	2.3636	0.	44.709
3325	21.046	2.3636	0.	49.732
3326	21.23	2.3636	0.	54.971
3327	21.415	2.3636	0.	60.455
3328	21.599	2.3636	0.	66.211
3329	21.784	2.3636	0.	72.269
3330	21.969	2.3636	0.	78.657
3331	22.153	2.3636	0.	85.402
3332	22.338	2.3636	0.	92.529
3333	22.523	2.3636	0.	100.06
3334	22.707	2.3636	0.	108.02
3335	22.892	2.3636	0.	116.42
3336	23.077	2.3636	0.	125.27
3337	23.261	2.3636	0.	134.58
3338	23.446	2.3636	0.	144.34
3339	23.631	2.3636	0.	154.6
3340	23.815	2.3636	0.	165.13
3341	12.551	2.1818	0.	593.61
3342	12.736	2.1818	0.	238.8
3343	12.921	2.1818	0.	33.179
3344	13.105	2.1818	0.	3.5463
3345	13.29	2.1818	0.	0.48971
3346	13.475	2.1818	0.	0.78172
3347	13.659	2.1818	0.	0.46297
3348	13.844	2.1818	0.	0.37832
3349	14.029	2.1818	0.	0.28467
3350	14.213	2.1818	0.	0.22197
3351	14.398	2.1818	0.	0.17176
3352	14.583	2.1818	0.	0.13341
3353	14.767	2.1818	0.	0.10365
3354	14.952	2.1818	0.	8.0726e-002
3355	15.137	2.1818	0.	6.3115e-002
3356	15.321	2.1818	0.	4.9649e-002
3357	15.506	2.1818	0.	3.9394e-002
3358	15.69	2.1818	0.	3.1621e-002
3359	15.875	2.1818	0.	2.5762e-002
3360	16.06	2.1818	0.	2.1377e-002
3361	16.244	2.1818	0.	1.812e-002
3362	16.429	2.1818	0.	1.5743e-002
3363	16.614	2.1818	0.	1.4028e-002
3364	16.798	2.1818	0.	1.2813e-002
3365	16.983	2.1818	0.	1.2012e-002
3366	17.168	2.1818	0.	1.1523e-002
3367	17.352	2.1818	0.	1.127e-002
3368	17.537	2.1818	0.	1.121e-002
3369	17.722	2.1818	0.	1.1307e-002
3370	17.906	2.1818	0.	1.1538e-002
3371	18.091	2.1818	0.	1.1888e-002
3372	18.276	2.1818	0.	1.2362e-002
3373	18.46	2.1818	0.	1.2993e-002
3374	18.645	2.1818	0.	1.3917e-002
3375	18.83	2.1818	0.	1.5948e-002
3376	19.014	2.1818	0.	0.75847
3377	19.199	2.1818	0.	4.9793
3378	19.384	2.1818	0.	9.1517
3379	19.568	2.1818	0.	13.293
3380	19.753	2.1818	0.	17.429
3381	19.938	2.1818	0.	21.586
3382	20.122	2.1818	0.	25.79
3383	20.307	2.1818	0.	30.067
3384	20.492	2.1818	0.	34.444
3385	20.676	2.1818	0.	38.948
3386	20.861	2.1818	0.	43.607
3387	21.046	2.1818	0.	48.447
3388	21.23	2.1818	0.	53.497
3389	21.415	2.1818	0.	58.787
3390	21.599	2.1818	0.	64.346
3391	21.784	2.1818	0.	70.205
3392	21.969	2.1818	0.	76.392
3393	22.153	2.1818	0.	82.938
3394	22.338	2.1818	0.	89.871
3395	22.523	2.1818	0.	97.219
3396	22.707	2.1818	0.	105.01
3397	22.892	2.1818	0.	113.25
3398	23.077	2.1818	0.	121.97
3399	23.261	2.1818	0.	131.17
3400	23.446	2.1818	0.	140.85
3401	23.631	2.1818	0.	151.06
3402	23.815	2.1818	0.	161.57
3403	12.551	2.	0.	1200.5
3404	12.736	2.	0.	385.91
3405	12.921	2.	0.	117.4
3406	13.105	2.	0.	10.283
3407	13.29	2.	0.	1.4873
3408	13.475	2.	0.	1.1407
3409	13.659	2.	0.	0.63443
3410	13.844	2.	0.	0.47521
3411	14.029	2.	0.	0.34416
3412	14.213	2.	0.	0.26212
3413	14.398	2.	0.	0.20032
3414	14.583	2.	0.	0.15466
3415	14.767	2.	0.	0.1199
3416	14.952	2.	0.	9.34e-002
3417	15.137	2.	0.	7.3128e-002
3418	15.321	2.	0.	5.7624e-002
3419	15.506	2.	0.	4.5786e-002
3420	15.69	2.	0.	3.6762e-002
3421	15.875	2.	0.	2.991e-002
3422	16.06	2.	0.	2.4723e-002
3423	16.244	2.	0.	2.0819e-002
3424	16.429	2.	0.	1.7913e-002
3425	16.614	2.	0.	1.577e-002
3426	16.798	2.	0.	1.4195e-002
3427	16.983	2.	0.	1.3099e-002
3428	17.168	2.	0.	1.2368e-002
3429	17.352	2.	0.	1.191e-002
3430	17.537	2.	0.	1.1685e-002
3431	17.722	2.	0.	1.1648e-002
3432	17.906	2.	0.	1.1773e-002
3433	18.091	2.	0.	1.2053e-002
3434	18.276	2.	0.	1.2502e-002
3435	18.46	2.	0.	1.319e-002
3436	18.645	2.	0.	1.4398e-002
3437	18.83	2.	0.	1.8198e-002
3438	19.014	2.	0.	1.4948
3439	19.199	2.	0.	5.5007
3440	19.384	2.	0.	9.4621
3441	19.568	2.	0.	13.398
3442	19.753	2.	0.	17.332
3443	19.938	2.	0.	21.287
3444	20.122	2.	0.	25.289
3445	20.307	2.	0.	29.362
3446	20.492	2.	0.	33.53
3447	20.676	2.	0.	37.82
3448	20.861	2.	0.	42.258
3449	21.046	2.	0.	46.871
3450	21.23	2.	0.	51.687
3451	21.415	2.	0.	56.735
3452	21.599	2.	0.	62.046
3453	21.784	2.	0.	67.651
3454	21.969	2.	0.	73.583
3455	22.153	2.	0.	79.873
3456	22.338	2.	0.	86.556
3457	22.523	2.	0.	93.662
3458	22.707	2.	0.	101.22
3459	22.892	2.	0.	109.26
3460	23.077	2.	0.	117.8
3461	23.261	2.	0.	126.86
3462	23.446	2.	0.	136.43
3463	23.631	2.	0.	146.57
3464	23.815	2.	0.	157.05
3465	12.551	1.8182	0.	1877.7
3466	12.736	1.8182	0.	713.77
3467	12.921	1.8182	0.	260.76
3468	13.105	1.8182	0.	74.311
3469	13.29	1.8182	0.	6.6838
3470	13.475	1.8182	0.	2.0091
3471	13.659	1.8182	0.	1.0206
3472	13.844	1.8182	0.	0.65642
3473	14.029	1.8182	0.	0.45138
3474	14.213	1.8182	0.	0.32833
3475	14.398	1.8182	0.	0.24442
3476	14.583	1.8182	0.	0.18519
3477	14.767	1.8182	0.	0.1418
3478	14.952	1.8182	0.	0.10952
3479	15.137	1.8182	0.	8.5247e-002
3480	15.321	1.8182	0.	6.689e-002
3481	15.506	1.8182	0.	5.2964e-002
3482	15.69	1.8182	0.	4.2384e-002
3483	15.875	1.8182	0.	3.4343e-002
3484	16.06	1.8182	0.	2.8243e-002
3485	16.244	1.8182	0.	2.3618e-002
3486	16.429	1.8182	0.	2.0139e-002
3487	16.614	1.8182	0.	1.7531e-002
3488	16.798	1.8182	0.	1.5582e-002
3489	16.983	1.8182	0.	1.4178e-002
3490	17.168	1.8182	0.	1.3189e-002
3491	17.352	1.8182	0.	1.2523e-002
3492	17.537	1.8182	0.	1.2126e-002
3493	17.722	1.8182	0.	1.1952e-002
3494	17.906	1.8182	0.	1.198e-002
3495	18.091	1.8182	0.	1.2204e-002
3496	18.276	1.8182	0.	1.2663e-002
3497	18.46	1.8182	0.	1.3503e-002
3498	18.645	1.8182	0.	1.5325e-002
3499	18.83	1.8182	0.	2.5038e-002
3500	19.014	1.8182	0.	2.3582
3501	19.199	1.8182	0.	6.1137
3502	19.384	1.8182	0.	9.8312
3503	19.568	1.8182	0.	13.529
3504	19.753	1.8182	0.	17.227
3505	19.938	1.8182	0.	20.948
3506	20.122	1.8182	0.	24.714
3507	20.307	1.8182	0.	28.546
3508	20.492	1.8182	0.	32.47
3509	20.676	1.8182	0.	36.507
3510	20.861	1.8182	0.	40.685
3511	21.046	1.8182	0.	45.028
3512	21.23	1.8182	0.	49.564
3513	21.415	1.8182	0.	54.323
3514	21.599	1.8182	0.	59.335
3515	21.784	1.8182	0.	64.632
3516	21.969	1.8182	0.	70.25
3517	22.153	1.8182	0.	76.225
3518	22.338	1.8182	0.	82.593
3519	22.523	1.8182	0.	89.394
3520	22.707	1.8182	0.	96.664
3521	22.892	1.8182	0.	104.44
3522	23.077	1.8182	0.	112.75
3523	23.261	1.8182	0.	121.61
3524	23.446	1.8182	0.	131.03
3525	23.631	1.8182	0.	141.07
3526	23.815	1.8182	0.	151.52
3527	12.551	1.6364	0.	1716.1
3528	12.736	1.6364	0.	796.36
3529	12.921	1.6364	0.	377.1
3530	13.105	1.6364	0.	159.41
3531	13.29	1.6364	0.	41.243
3532	13.475	1.6364	0.	5.1889
3533	13.659	1.6364	0.	1.8035
3534	13.844	1.6364	0.	0.98592
3535	14.029	1.6364	0.	0.62503
3536	14.213	1.6364	0.	0.42977
3537	14.398	1.6364	0.	0.30805
3538	14.583	1.6364	0.	0.22686
3539	14.767	1.6364	0.	0.17007
3540	14.952	1.6364	0.	0.12923
3541	15.137	1.6364	0.	9.933e-002
3542	15.321	1.6364	0.	7.7168e-002
3543	15.506	1.6364	0.	6.0611e-002
3544	15.69	1.6364	0.	4.8169e-002
3545	15.875	1.6364	0.	3.8781e-002
3546	16.06	1.6364	0.	3.168e-002
3547	16.244	1.6364	0.	2.6299e-002
3548	16.429	1.6364	0.	2.2234e-002
3549	16.614	1.6364	0.	1.9164e-002
3550	16.798	1.6364	0.	1.6845e-002
3551	16.983	1.6364	0.	1.514e-002
3552	17.168	1.6364	0.	1.3906e-002
3553	17.352	1.6364	0.	1.3038e-002
3554	17.537	1.6364	0.	1.2479e-002
3555	17.722	1.6364	0.	1.2184e-002
3556	17.906	1.6364	0.	1.2131e-002
3557	18.091	1.6364	0.	1.2335e-002
3558	18.276	1.6364	0.	1.2882e-002
3559	18.46	1.6364	0.	1.4074e-002
3560	18.645	1.6364	0.	1.7432e-002
3561	18.83	1.6364	0.	9.5055e-002
3562	19.014	1.6364	0.	3.3381
3563	19.199	1.6364	0.	6.8139
3564	19.384	1.6364	0.	10.259
3565	19.568	1.6364	0.	13.689
3566	19.753	1.6364	0.	17.123
3567	19.938	1.6364	0.	20.58
3568	20.122	1.6364	0.	24.078
3569	20.307	1.6364	0.	27.639
3570	20.492	1.6364	0.	31.284
3571	20.676	1.6364	0.	35.034
3572	20.861	1.6364	0.	38.913
3573	21.046	1.6364	0.	42.947
3574	21.23	1.6364	0.	47.16
3575	21.415	1.6364	0.	51.582
3576	21.599	1.6364	0.	56.244
3577	21.784	1.6364	0.	61.179
3578	21.969	1.6364	0.	66.424
3579	22.153	1.6364	0.	72.017
3580	22.338	1.6364	0.	78.003
3581	22.523	1.6364	0.	84.425
3582	22.707	1.6364	0.	91.331
3583	22.892	1.6364	0.	98.766
3584	23.077	1.6364	0.	106.77
3585	23.261	1.6364	0.	115.38
3586	23.446	1.6364	0.	124.61
3587	23.631	1.6364	0.	134.52
3588	23.815	1.6364	0.	144.92
3589	12.551	1.4545	0.	1306.1
3590	12.736	1.4545	0.	736.2
3591	12.921	1.4545	0.	409.13
3592	13.105	1.4545	0.	208.12
3593	13.29	1.4545	0.	88.991
3594	13.475	1.4545	0.	23.229
3595	13.659	1.4545	0.	4.2101
3596	13.844	1.4545	0.	1.6852
3597	14.029	1.4545	0.	0.93571
3598	14.213	1.4545	0.	0.59391
3599	14.398	1.4545	0.	0.40317
3600	14.583	1.4545	0.	0.28498
3601	14.767	1.4545	0.	0.20692
3602	14.952	1.4545	0.	0.1533
3603	15.137	1.4545	0.	0.11546
3604	15.321	1.4545	0.	8.825e-002
3605	15.506	1.4545	0.	6.8413e-002
3606	15.69	1.4545	0.	5.3791e-002
3607	15.875	1.4545	0.	4.2916e-002
3608	16.06	1.4545	0.	3.4773e-002
3609	16.244	1.4545	0.	2.8642e-002
3610	16.429	1.4545	0.	2.4018e-002
3611	16.614	1.4545	0.	2.052e-002
3612	16.798	1.4545	0.	1.7863e-002
3613	16.983	1.4545	0.	1.5886e-002
3614	17.168	1.4545	0.	1.4434e-002
3615	17.352	1.4545	0.	1.3391e-002
3616	17.537	1.4545	0.	1.2696e-002
3617	17.722	1.4545	0.	1.2304e-002
3618	17.906	1.4545	0.	1.2213e-002
3619	18.091	1.4545	0.	1.2468e-002
3620	18.276	1.4545	0.	1.3265e-002
3621	18.46	1.4545	0.	1.5333e-002
3622	18.645	1.4545	0.	2.4086e-002
3623	18.83	1.4545	0.	1.2282
3624	19.014	1.4545	0.	4.4255
3625	19.199	1.4545	0.	7.5983
3626	19.384	1.4545	0.	10.747
3627	19.568	1.4545	0.	13.887
3628	19.753	1.4545	0.	17.031
3629	19.938	1.4545	0.	20.198
3630	20.122	1.4545	0.	23.402
3631	20.307	1.4545	0.	26.663
3632	20.492	1.4545	0.	29.999
3633	20.676	1.4545	0.	33.43
3634	20.861	1.4545	0.	36.977
3635	21.046	1.4545	0.	40.664
3636	21.23	1.4545	0.	44.514
3637	21.415	1.4545	0.	48.555
3638	21.599	1.4545	0.	52.818
3639	21.784	1.4545	0.	57.335
3640	21.969	1.4545	0.	62.145
3641	22.153	1.4545	0.	67.29
3642	22.338	1.4545	0.	72.816
3643	22.523	1.4545	0.	78.778
3644	22.707	1.4545	0.	85.231
3645	22.892	1.4545	0.	92.236
3646	23.077	1.4545	0.	99.849
3647	23.261	1.4545	0.	108.13
3648	23.446	1.4545	0.	117.09
3649	23.631	1.4545	0.	126.82
3650	23.815	1.4545	0.	137.15
3651	12.551	1.2727	0.	1018.
3652	12.736	1.2727	0.	617.86
3653	12.921	1.2727	0.	375.68
3654	13.105	1.2727	0.	216.77
3655	13.29	1.2727	0.	115.39
3656	13.475	1.2727	0.	52.882
3657	13.659	1.2727	0.	17.004
3658	13.844	1.2727	0.	4.2289
3659	14.029	1.2727	0.	1.7147
3660	14.213	1.2727	0.	0.9289
3661	14.398	1.2727	0.	0.57164
3662	14.583	1.2727	0.	0.37689
3663	14.767	1.2727	0.	0.25961
3664	14.952	1.2727	0.	0.18457
3665	15.137	1.2727	0.	0.13457
3666	15.321	1.2727	0.	0.10026
3667	15.506	1.2727	0.	7.6184e-002
3668	15.69	1.2727	0.	5.8966e-002
3669	15.875	1.2727	0.	4.6462e-002
3670	16.06	1.2727	0.	3.7267e-002
3671	16.244	1.2727	0.	3.0427e-002
3672	16.429	1.2727	0.	2.5308e-002
3673	16.614	1.2727	0.	2.1446e-002
3674	16.798	1.2727	0.	1.8513e-002
3675	16.983	1.2727	0.	1.6319e-002
3676	17.168	1.2727	0.	1.4693e-002
3677	17.352	1.2727	0.	1.3513e-002
3678	17.537	1.2727	0.	1.272e-002
3679	17.722	1.2727	0.	1.2286e-002
3680	17.906	1.2727	0.	1.2231e-002
3681	18.091	1.2727	0.	1.2694e-002
3682	18.276	1.2727	0.	1.4157e-002
3683	18.46	1.2727	0.	1.9006e-002
3684	18.645	1.2727	0.	0.11457
3685	18.83	1.2727	0.	2.737
3686	19.014	1.2727	0.	5.6136
3687	19.199	1.2727	0.	8.4656
3688	19.384	1.2727	0.	11.3
3689	19.568	1.2727	0.	14.129
3690	19.753	1.2727	0.	16.964
3691	19.938	1.2727	0.	19.819
3692	20.122	1.2727	0.	22.707
3693	20.307	1.2727	0.	25.644
3694	20.492	1.2727	0.	28.646
3695	20.676	1.2727	0.	31.731
3696	20.861	1.2727	0.	34.916
3697	21.046	1.2727	0.	38.223
3698	21.23	1.2727	0.	41.673
3699	21.415	1.2727	0.	45.293
3700	21.599	1.2727	0.	49.11
3701	21.784	1.2727	0.	53.157
3702	21.969	1.2727	0.	57.471
3703	22.153	1.2727	0.	62.097
3704	22.338	1.2727	0.	67.084
3705	22.523	1.2727	0.	72.492
3706	22.707	1.2727	0.	78.39
3707	22.892	1.2727	0.	84.852
3708	23.077	1.2727	0.	91.959
3709	23.261	1.2727	0.	99.792
3710	23.446	1.2727	0.	108.4
3711	23.631	1.2727	0.	117.88
3712	23.815	1.2727	0.	128.11
3713	12.551	1.0909	0.	779.94
3714	12.736	1.0909	0.	484.84
3715	12.921	1.0909	0.	312.76
3716	13.105	1.0909	0.	197.23
3717	13.29	1.0909	0.	121.02
3718	13.475	1.0909	0.	71.472
3719	13.659	1.0909	0.	39.093
3720	13.844	1.0909	0.	18.046
3721	14.029	1.0909	0.	6.1934
3722	14.213	1.0909	0.	2.1727
3723	14.398	1.0909	0.	1.0218
3724	14.583	1.0909	0.	0.57248
3725	14.767	1.0909	0.	0.35354
3726	14.952	1.0909	0.	0.23248
3727	15.137	1.0909	0.	0.16003
3728	15.321	1.0909	0.	0.11424
3729	15.506	1.0909	0.	8.4082e-002
3730	15.69	1.0909	0.	6.3567e-002
3731	15.875	1.0909	0.	4.9227e-002
3732	16.06	1.0909	0.	3.898e-002
3733	16.244	1.0909	0.	3.1513e-002
3734	16.429	1.0909	0.	2.5999e-002
3735	16.614	1.0909	0.	2.1868e-002
3736	16.798	1.0909	0.	1.8741e-002
3737	16.983	1.0909	0.	1.6395e-002
3738	17.168	1.0909	0.	1.4652e-002
3739	17.352	1.0909	0.	1.3387e-002
3740	17.537	1.0909	0.	1.2554e-002
3741	17.722	1.0909	0.	1.2152e-002
3742	17.906	1.0909	0.	1.229e-002
3743	18.091	1.0909	0.	1.3365e-002
3744	18.276	1.0909	0.	1.71e-002
3745	18.46	1.0909	0.	4.6043e-002
3746	18.645	1.0909	0.	1.8052
3747	18.83	1.0909	0.	4.3606
3748	19.014	1.0909	0.	6.898
3749	19.199	1.0909	0.	9.4171
3750	19.384	1.0909	0.	11.924
3751	19.568	1.0909	0.	14.428
3752	19.753	1.0909	0.	16.938
3753	19.938	1.0909	0.	19.465
3754	20.122	1.0909	0.	22.019
3755	20.307	1.0909	0.	24.613
3756	20.492	1.0909	0.	27.261
3757	20.676	1.0909	0.	29.977
3758	20.861	1.0909	0.	32.776
3759	21.046	1.0909	0.	35.676
3760	21.23	1.0909	0.	38.697
3761	21.415	1.0909	0.	41.86
3762	21.599	1.0909	0.	45.19
3763	21.784	1.0909	0.	48.719
3764	21.969	1.0909	0.	52.48
3765	22.153	1.0909	0.	56.518
3766	22.338	1.0909	0.	60.883
3767	22.523	1.0909	0.	65.638
3768	22.707	1.0909	0.	70.862
3769	22.892	1.0909	0.	76.646
3770	23.077	1.0909	0.	83.096
3771	23.261	1.0909	0.	90.33
3772	23.446	1.0909	0.	98.442
3773	23.631	1.0909	0.	107.58
3774	23.815	1.0909	0.	117.64
3775	12.551	0.90909	0.	583.49
3776	12.736	0.90909	0.	359.56
3777	12.921	0.90909	0.	239.58
3778	13.105	0.90909	0.	163.05
3779	13.29	0.90909	0.	112.71
3780	13.475	0.90909	0.	78.634
3781	13.659	0.90909	0.	54.45
3782	13.844	0.90909	0.	36.482
3783	14.029	0.90909	0.	22.668
3784	14.213	0.90909	0.	12.001
3785	14.398	0.90909	0.	4.6037
3786	14.583	0.90909	0.	1.4811
3787	14.767	0.90909	0.	0.63413
3788	14.952	0.90909	0.	0.33878
3789	15.137	0.90909	0.	0.20505
3790	15.321	0.90909	0.	0.13449
3791	15.506	0.90909	0.	9.3459e-002
3792	15.69	0.90909	0.	6.7923e-002
3793	15.875	0.90909	0.	5.1197e-002
3794	16.06	0.90909	0.	3.9785e-002
3795	16.244	0.90909	0.	3.1736e-002
3796	16.429	0.90909	0.	2.5919e-002
3797	16.614	0.90909	0.	2.1617e-002
3798	16.798	0.90909	0.	1.8378e-002
3799	16.983	0.90909	0.	1.5955e-002
3800	17.168	0.90909	0.	1.4155e-002
3801	17.352	0.90909	0.	1.2872e-002
3802	17.537	0.90909	0.	1.2089e-002
3803	17.722	0.90909	0.	1.1902e-002
3804	17.906	0.90909	0.	1.2719e-002
3805	18.091	0.90909	0.	1.6399e-002
3806	18.276	0.90909	0.	5.0252e-002
3807	18.46	0.90909	0.	1.6629
3808	18.645	0.90909	0.	3.8796
3809	18.83	0.90909	0.	6.0859
3810	19.014	0.90909	0.	8.2776
3811	19.199	0.90909	0.	10.457
3812	19.384	0.90909	0.	12.629
3813	19.568	0.90909	0.	14.798
3814	19.753	0.90909	0.	16.973
3815	19.938	0.90909	0.	19.16
3816	20.122	0.90909	0.	21.368
3817	20.307	0.90909	0.	23.606
3818	20.492	0.90909	0.	25.885
3819	20.676	0.90909	0.	28.216
3820	20.861	0.90909	0.	30.611
3821	21.046	0.90909	0.	33.084
3822	21.23	0.90909	0.	35.652
3823	21.415	0.90909	0.	38.331
3824	21.599	0.90909	0.	41.143
3825	21.784	0.90909	0.	44.113
3826	21.969	0.90909	0.	47.273
3827	22.153	0.90909	0.	50.66
3828	22.338	0.90909	0.	54.324
3829	22.523	0.90909	0.	58.327
3830	22.707	0.90909	0.	62.749
3831	22.892	0.90909	0.	67.696
3832	23.077	0.90909	0.	73.298
3833	23.261	0.90909	0.	79.72
3834	23.446	0.90909	0.	87.123
3835	23.631	0.90909	0.	95.729
3836	23.815	0.90909	0.	105.54
3837	12.551	0.72727	0.	415.94
3838	12.736	0.72727	0.	246.38
3839	12.921	0.72727	0.	168.67
3840	13.105	0.72727	0.	125.14
3841	13.29	0.72727	0.	97.56
3842	13.475	0.72727	0.	77.78
3843	13.659	0.72727	0.	61.96
3844	13.844	0.72727	0.	48.477
3845	14.029	0.72727	0.	36.682
3846	14.213	0.72727	0.	26.344
3847	14.398	0.72727	0.	17.395
3848	14.583	0.72727	0.	9.8501
3849	14.767	0.72727	0.	3.957
3850	14.952	0.72727	0.	0.99158
3851	15.137	0.72727	0.	0.35525
3852	15.321	0.72727	0.	0.18157
3853	15.506	0.72727	0.	0.1103
3854	15.69	0.72727	0.	7.4185e-002
3855	15.875	0.72727	0.	5.3438e-002
3856	16.06	0.72727	0.	4.046e-002
3857	16.244	0.72727	0.	3.1809e-002
3858	16.429	0.72727	0.	2.576e-002
3859	16.614	0.72727	0.	2.1361e-002
3860	16.798	0.72727	0.	1.8059e-002
3861	16.983	0.72727	0.	1.5574e-002
3862	17.168	0.72727	0.	1.3722e-002
3863	17.352	0.72727	0.	1.2432e-002
3864	17.537	0.72727	0.	1.1822e-002
3865	17.722	0.72727	0.	1.2487e-002
3866	17.906	0.72727	0.	1.8457e-002
3867	18.091	0.72727	0.	0.4888
3868	18.276	0.72727	0.	2.3283
3869	18.46	0.72727	0.	4.1933
3870	18.645	0.72727	0.	6.055
3871	18.83	0.72727	0.	7.9092
3872	19.014	0.72727	0.	9.7549
3873	19.199	0.72727	0.	11.593
3874	19.384	0.72727	0.	13.426
3875	19.568	0.72727	0.	15.257
3876	19.753	0.72727	0.	17.091
3877	19.938	0.72727	0.	18.932
3878	20.122	0.72727	0.	20.786
3879	20.307	0.72727	0.	22.661
3880	20.492	0.72727	0.	24.563
3881	20.676	0.72727	0.	26.5
3882	20.861	0.72727	0.	28.481
3883	21.046	0.72727	0.	30.515
3884	21.23	0.72727	0.	32.616
3885	21.415	0.72727	0.	34.794
3886	21.599	0.72727	0.	37.067
3887	21.784	0.72727	0.	39.452
3888	21.969	0.72727	0.	41.975
3889	22.153	0.72727	0.	44.665
3890	22.338	0.72727	0.	47.563
3891	22.523	0.72727	0.	50.724
3892	22.707	0.72727	0.	54.221
3893	22.892	0.72727	0.	58.16
3894	23.077	0.72727	0.	62.685
3895	23.261	0.72727	0.	68.004
3896	23.446	0.72727	0.	74.369
3897	23.631	0.72727	0.	82.142
3898	23.815	0.72727	0.	91.509
3899	12.551	0.54545	0.	271.51
3900	12.736	0.54545	0.	149.94
3901	12.921	0.54545	0.	108.77
3902	13.105	0.54545	0.	91.466
3903	13.29	0.54545	0.	81.006
3904	13.475	0.54545	0.	71.937
3905	13.659	0.54545	0.	62.661
3906	13.844	0.54545	0.	53.092
3907	14.029	0.54545	0.	43.581
3908	14.213	0.54545	0.	34.52
3909	14.398	0.54545	0.	26.212
3910	14.583	0.54545	0.	18.849
3911	14.767	0.54545	0.	12.524
3912	14.952	0.54545	0.	7.2685
3913	15.137	0.54545	0.	3.1257
3914	15.321	0.54545	0.	0.6777
3915	15.506	0.54545	0.	0.19615
3916	15.69	0.54545	0.	9.8263e-002
3917	15.875	0.54545	0.	6.1295e-002
3918	16.06	0.54545	0.	4.2752e-002
3919	16.244	0.54545	0.	3.1869e-002
3920	16.429	0.54545	0.	2.4806e-002
3921	16.614	0.54545	0.	1.9868e-002
3922	16.798	0.54545	0.	1.6218e-002
3923	16.983	0.54545	0.	1.3466e-002
3924	17.168	0.54545	0.	1.1399e-002
3925	17.352	0.54545	0.	1.0095e-002
3926	17.537	0.54545	0.	1.2269e-002
3927	17.722	0.54545	0.	0.86655
3928	17.906	0.54545	0.	2.322
3929	18.091	0.54545	0.	3.8069
3930	18.276	0.54545	0.	5.3083
3931	18.46	0.54545	0.	6.8175
3932	18.645	0.54545	0.	8.3285
3933	18.83	0.54545	0.	9.8375
3934	19.014	0.54545	0.	11.342
3935	19.199	0.54545	0.	12.843
3936	19.384	0.54545	0.	14.338
3937	19.568	0.54545	0.	15.831
3938	19.753	0.54545	0.	17.324
3939	19.938	0.54545	0.	18.818
3940	20.122	0.54545	0.	20.319
3941	20.307	0.54545	0.	21.828
3942	20.492	0.54545	0.	23.351
3943	20.676	0.54545	0.	24.893
3944	20.861	0.54545	0.	26.458
3945	21.046	0.54545	0.	28.053
3946	21.23	0.54545	0.	29.684
3947	21.415	0.54545	0.	31.358
3948	21.599	0.54545	0.	33.086
3949	21.784	0.54545	0.	34.878
3950	21.969	0.54545	0.	36.749
3951	22.153	0.54545	0.	38.719
3952	22.338	0.54545	0.	40.815
3953	22.523	0.54545	0.	43.073
3954	22.707	0.54545	0.	45.549
3955	22.892	0.54545	0.	48.328
3956	23.077	0.54545	0.	51.54
3957	23.261	0.54545	0.	55.399
3958	23.446	0.54545	0.	60.233
3959	23.631	0.54545	0.	66.616
3960	23.815	0.54545	0.	75.119
3961	12.551	0.36364	0.	150.64
3962	12.736	0.36364	0.	79.715
3963	12.921	0.36364	0.	68.284
3964	13.105	0.36364	0.	67.325
3965	13.29	0.36364	0.	66.062
3966	13.475	0.36364	0.	62.541
3967	13.659	0.36364	0.	56.93
3968	13.844	0.36364	0.	50.007
3969	14.029	0.36364	0.	42.544
3970	14.213	0.36364	0.	35.143
3971	14.398	0.36364	0.	28.214
3972	14.583	0.36364	0.	21.994
3973	14.767	0.36364	0.	16.601
3974	14.952	0.36364	0.	12.064
3975	15.137	0.36364	0.	8.3597
3976	15.321	0.36364	0.	5.431
3977	15.506	0.36364	0.	3.2072
3978	15.69	0.36364	0.	1.6189
3979	15.875	0.36364	0.	0.63058
3980	16.06	0.36364	0.	0.22869
3981	16.244	0.36364	0.	0.12813
3982	16.429	0.36364	0.	0.10451
3983	16.614	0.36364	0.	0.14015
3984	16.798	0.36364	0.	0.48078
3985	16.983	0.36364	0.	1.1581
3986	17.168	0.36364	0.	1.9902
3987	17.352	0.36364	0.	2.929
3988	17.537	0.36364	0.	3.9467
3989	17.722	0.36364	0.	5.0221
3990	17.906	0.36364	0.	6.1386
3991	18.091	0.36364	0.	7.2833
3992	18.276	0.36364	0.	8.4458
3993	18.46	0.36364	0.	9.6185
3994	18.645	0.36364	0.	10.796
3995	18.83	0.36364	0.	11.973
3996	19.014	0.36364	0.	13.149
3997	19.199	0.36364	0.	14.32
3998	19.384	0.36364	0.	15.487
3999	19.568	0.36364	0.	16.649
4000	19.753	0.36364	0.	17.806
4001	19.938	0.36364	0.	18.96
4002	20.122	0.36364	0.	20.112
4003	20.307	0.36364	0.	21.263
4004	20.492	0.36364	0.	22.415
4005	20.676	0.36364	0.	23.568
4006	20.861	0.36364	0.	24.726
4007	21.046	0.36364	0.	25.889
4008	21.23	0.36364	0.	27.06
4009	21.415	0.36364	0.	28.242
4010	21.599	0.36364	0.	29.436
4011	21.784	0.36364	0.	30.645
4012	21.969	0.36364	0.	31.876
4013	22.153	0.36364	0.	33.133
4014	22.338	0.36364	0.	34.426
4015	22.523	0.36364	0.	35.77
4016	22.707	0.36364	0.	37.189
4017	22.892	0.36364	0.	38.722
4018	23.077	0.36364	0.	40.444
4019	23.261	0.36364	0.	42.495
4020	23.446	0.36364	0.	45.151
4021	23.631	0.36364	0.	49.104
4022	23.815	0.36364	0.	55.663
4023	12.551	0.18182	0.	76.459
4024	12.736	0.18182	0.	56.906
4025	12.921	0.18182	0.	57.712
4026	13.105	0.18182	0.	58.278
4027	13.29	0.18182	0.	56.012
4028	13.475	0.18182	0.	51.706
4029	13.659	0.18182	0.	46.197
4030	13.844	0.18182	0.	40.225
4031	14.029	0.18182	0.	34.316
4032	14.213	0.18182	0.	28.806
4033	14.398	0.18182	0.	23.881
4034	14.583	0.18182	0.	19.619
4035	14.767	0.18182	0.	16.035
4036	14.952	0.18182	0.	13.1
4037	15.137	0.18182	0.	10.762
4038	15.321	0.18182	0.	8.9607
4039	15.506	0.18182	0.	7.6312
4040	15.69	0.18182	0.	6.7108
4041	15.875	0.18182	0.	6.1402
4042	16.06	0.18182	0.	5.8654
4043	16.244	0.18182	0.	5.8386
4044	16.429	0.18182	0.	6.0178
4045	16.614	0.18182	0.	6.3667
4046	16.798	0.18182	0.	6.8538
4047	16.983	0.18182	0.	7.4525
4048	17.168	0.18182	0.	8.1398
4049	17.352	0.18182	0.	8.8964
4050	17.537	0.18182	0.	9.7062
4051	17.722	0.18182	0.	10.556
4052	17.906	0.18182	0.	11.434
4053	18.091	0.18182	0.	12.332
4054	18.276	0.18182	0.	13.243
4055	18.46	0.18182	0.	14.161
4056	18.645	0.18182	0.	15.082
4057	18.83	0.18182	0.	16.001
4058	19.014	0.18182	0.	16.917
4059	19.199	0.18182	0.	17.827
4060	19.384	0.18182	0.	18.73
4061	19.568	0.18182	0.	19.623
4062	19.753	0.18182	0.	20.507
4063	19.938	0.18182	0.	21.38
4064	20.122	0.18182	0.	22.241
4065	20.307	0.18182	0.	23.09
4066	20.492	0.18182	0.	23.924
4067	20.676	0.18182	0.	24.743
4068	20.861	0.18182	0.	25.544
4069	21.046	0.18182	0.	26.325
4070	21.23	0.18182	0.	27.084
4071	21.415	0.18182	0.	27.817
4072	21.599	0.18182	0.	28.52
4073	21.784	0.18182	0.	29.188
4074	21.969	0.18182	0.	29.814
4075	22.153	0.18182	0.	30.39
4076	22.338	0.18182	0.	30.908
4077	22.523	0.18182	0.	31.356
4078	22.707	0.18182	0.	31.719
4079	22.892	0.18182	0.	31.981
4080	23.077	0.18182	0.	32.123
4081	23.261	0.18182	0.	32.132
4082	23.446	0.18182	0.	32.013
4083	23.631	0.18182	0.	31.917
4084	23.815	0.18182	0.	33.107
4085	23.815	0.18182	0.1	37.135
4086	23.631	0.18182	0.1	73.045
4087	23.446	0.18182	0.1	111.
4088	23.261	0.18182	0.1	149.59
4089	23.077	0.18182	0.1	188.56
4090	22.892	0.18182	0.1	227.79
4091	22.707	0.18182	0.1	267.23
4092	22.523	0.18182	0.1	306.83
4093	22.338	0.18182	0.1	346.59
4094	22.153	0.18182	0.1	386.48
4095	21.969	0.18182	0.1	426.5
4096	21.784	0.18182	0.1	466.65
4097	21.599	0.18182	0.1	506.92
4098	21.415	0.18182	0.1	547.33
4099	21.23	0.18182	0.1	587.86
4100	21.046	0.18182	0.1	628.53
4101	20.861	0.18182	0.1	669.34
4102	20.676	0.18182	0.1	710.3
4103	20.492	0.18182	0.1	751.4
4104	20.307	0.18182	0.1	792.65
4105	20.122	0.18182	0.1	834.07
4106	19.938	0.18182	0.1	875.64
4107	19.753	0.18182	0.1	917.37
4108	19.568	0.18182	0.1	959.28
4109	19.384	0.18182	0.1	1001.3
4110	19.199	0.18182	0.1	1043.6
4111	19.014	0.18182	0.1	1086.
4112	18.83	0.18182	0.1	1128.6
4113	18.645	0.18182	0.1	1171.3
4114	18.46	0.18182	0.1	1214.2
4115	18.276	0.18182	0.1	1257.2
4116	18.091	0.18182	0.1	1300.3
4117	17.906	0.18182	0.1	1343.6
4118	17.722	0.18182	0.1	1386.8
4119	17.537	0.18182	0.1	1430.1
4120	17.352	0.18182	0.1	1473.4
4121	17.168	0.18182	0.1	1516.5
4122	16.983	0.18182	0.1	1559.4
4123	16.798	0.18182	0.1	1601.9
4124	16.614	0.18182	0.1	1643.9
4125	16.429	0.18182	0.1	1685.1
4126	16.244	0.18182	0.1	1725.3
4127	16.06	0.18182	0.1	1764.2
4128	15.875	0.18182	0.1	1801.2
4129	15.69	0.18182	0.1	1835.9
4130	15.506	0.18182	0.1	1867.5
4131	15.321	0.18182	0.1	1895.1
4132	15.137	0.18182	0.1	1917.7
4133	14.952	0.18182	0.1	1933.9
4134	14.767	0.18182	0.1	1942.2
4135	14.583	0.18182	0.1	1940.4
4136	14.398	0.18182	0.1	1926.3
4137	14.213	0.18182	0.1	1897.1
4138	14.029	0.18182	0.1	1849.5
4139	13.844	0.18182	0.1	1779.9
4140	13.659	0.18182	0.1	1684.6
4141	13.475	0.18182	0.1	1559.9
4142	13.29	0.18182	0.1	1402.6
4143	13.105	0.18182	0.1	1210.6
4144	12.921	0.18182	0.1	984.24
4145	12.736	0.18182	0.1	727.25
4146	12.551	0.18182	0.1	469.5
4147	23.815	0.36364	0.1	38.14
4148	23.631	0.36364	0.1	73.177
4149	23.446	0.36364	0.1	110.01
4150	23.261	0.36364	0.1	147.83
4151	23.077	0.36364	0.1	186.26
4152	22.892	0.36364	0.1	225.1
4153	22.707	0.36364	0.1	264.24
4154	22.523	0.36364	0.1	303.62
4155	22.338	0.36364	0.1	343.19
4156	22.153	0.36364	0.1	382.94
4157	21.969	0.36364	0.1	422.85
4158	21.784	0.36364	0.1	462.91
4159	21.599	0.36364	0.1	503.11
4160	21.415	0.36364	0.1	543.45
4161	21.23	0.36364	0.1	583.94
4162	21.046	0.36364	0.1	624.58
4163	20.861	0.36364	0.1	665.36
4164	20.676	0.36364	0.1	706.29
4165	20.492	0.36364	0.1	747.38
4166	20.307	0.36364	0.1	788.62
4167	20.122	0.36364	0.1	830.03
4168	19.938	0.36364	0.1	871.6
4169	19.753	0.36364	0.1	913.34
4170	19.568	0.36364	0.1	955.24
4171	19.384	0.36364	0.1	997.32
4172	19.199	0.36364	0.1	1039.6
4173	19.014	0.36364	0.1	1082.
4174	18.83	0.36364	0.1	1124.6
4175	18.645	0.36364	0.1	1167.3
4176	18.46	0.36364	0.1	1210.2
4177	18.276	0.36364	0.1	1253.3
4178	18.091	0.36364	0.1	1296.4
4179	17.906	0.36364	0.1	1339.7
4180	17.722	0.36364	0.1	1383.
4181	17.537	0.36364	0.1	1426.4
4182	17.352	0.36364	0.1	1469.8
4183	17.168	0.36364	0.1	1513.
4184	16.983	0.36364	0.1	1556.
4185	16.798	0.36364	0.1	1598.8
4186	16.614	0.36364	0.1	1641.1
4187	16.429	0.36364	0.1	1682.7
4188	16.244	0.36364	0.1	1723.3
4189	16.06	0.36364	0.1	1762.8
4190	15.875	0.36364	0.1	1800.5
4191	15.69	0.36364	0.1	1836.1
4192	15.506	0.36364	0.1	1868.9
4193	15.321	0.36364	0.1	1897.9
4194	15.137	0.36364	0.1	1922.3
4195	14.952	0.36364	0.1	1940.8
4196	14.767	0.36364	0.1	1951.6
4197	14.583	0.36364	0.1	1953.1
4198	14.398	0.36364	0.1	1942.7
4199	14.213	0.36364	0.1	1917.8
4200	14.029	0.36364	0.1	1875.2
4201	13.844	0.36364	0.1	1811.2
4202	13.659	0.36364	0.1	1722.
4203	13.475	0.36364	0.1	1603.8
4204	13.29	0.36364	0.1	1453.5
4205	13.105	0.36364	0.1	1270.3
4206	12.921	0.36364	0.1	1057.6
4207	12.736	0.36364	0.1	830.52
4208	12.551	0.36364	0.1	652.44
4209	23.815	0.54545	0.1	38.957
4210	23.631	0.54545	0.1	74.673
4211	23.446	0.54545	0.1	111.38
4212	23.261	0.54545	0.1	148.84
4213	23.077	0.54545	0.1	186.9
4214	22.892	0.54545	0.1	225.42
4215	22.707	0.54545	0.1	264.29
4216	22.523	0.54545	0.1	303.44
4217	22.338	0.54545	0.1	342.83
4218	22.153	0.54545	0.1	382.41
4219	21.969	0.54545	0.1	422.17
4220	21.784	0.54545	0.1	462.09
4221	21.599	0.54545	0.1	502.18
4222	21.415	0.54545	0.1	542.42
4223	21.23	0.54545	0.1	582.81
4224	21.046	0.54545	0.1	623.35
4225	20.861	0.54545	0.1	664.05
4226	20.676	0.54545	0.1	704.9
4227	20.492	0.54545	0.1	745.92
4228	20.307	0.54545	0.1	787.09
4229	20.122	0.54545	0.1	828.43
4230	19.938	0.54545	0.1	869.94
4231	19.753	0.54545	0.1	911.61
4232	19.568	0.54545	0.1	953.46
4233	19.384	0.54545	0.1	995.48
4234	19.199	0.54545	0.1	1037.7
4235	19.014	0.54545	0.1	1080.
4236	18.83	0.54545	0.1	1122.6
4237	18.645	0.54545	0.1	1165.3
4238	18.46	0.54545	0.1	1208.1
4239	18.276	0.54545	0.1	1251.1
4240	18.091	0.54545	0.1	1294.3
4241	17.906	0.54545	0.1	1337.5
4242	17.722	0.54545	0.1	1380.9
4243	17.537	0.54545	0.1	1424.3
4244	17.352	0.54545	0.1	1467.7
4245	17.168	0.54545	0.1	1511.
4246	16.983	0.54545	0.1	1554.2
4247	16.798	0.54545	0.1	1597.2
4248	16.614	0.54545	0.1	1639.7
4249	16.429	0.54545	0.1	1681.7
4250	16.244	0.54545	0.1	1723.
4251	16.06	0.54545	0.1	1763.1
4252	15.875	0.54545	0.1	1801.8
4253	15.69	0.54545	0.1	1838.5
4254	15.506	0.54545	0.1	1872.8
4255	15.321	0.54545	0.1	1903.8
4256	15.137	0.54545	0.1	1930.5
4257	14.952	0.54545	0.1	1951.9
4258	14.767	0.54545	0.1	1966.5
4259	14.583	0.54545	0.1	1972.4
4260	14.398	0.54545	0.1	1967.6
4261	14.213	0.54545	0.1	1949.3
4262	14.029	0.54545	0.1	1914.5
4263	13.844	0.54545	0.1	1859.8
4264	13.659	0.54545	0.1	1781.3
4265	13.475	0.54545	0.1	1675.5
4266	13.29	0.54545	0.1	1539.5
4267	13.105	0.54545	0.1	1373.7
4268	12.921	0.54545	0.1	1184.9
4269	12.736	0.54545	0.1	993.76
4270	12.551	0.54545	0.1	867.87
4271	23.815	0.72727	0.1	39.444
4272	23.631	0.72727	0.1	75.857
4273	23.446	0.72727	0.1	112.81
4274	23.261	0.72727	0.1	150.2
4275	23.077	0.72727	0.1	188.07
4276	22.892	0.72727	0.1	226.35
4277	22.707	0.72727	0.1	264.98
4278	22.523	0.72727	0.1	303.9
4279	22.338	0.72727	0.1	343.08
4280	22.153	0.72727	0.1	382.47
4281	21.969	0.72727	0.1	422.06
4282	21.784	0.72727	0.1	461.83
4283	21.599	0.72727	0.1	501.78
4284	21.415	0.72727	0.1	541.89
4285	21.23	0.72727	0.1	582.16
4286	21.046	0.72727	0.1	622.59
4287	20.861	0.72727	0.1	663.19
4288	20.676	0.72727	0.1	703.95
4289	20.492	0.72727	0.1	744.87
4290	20.307	0.72727	0.1	785.96
4291	20.122	0.72727	0.1	827.21
4292	19.938	0.72727	0.1	868.64
4293	19.753	0.72727	0.1	910.24
4294	19.568	0.72727	0.1	952.01
4295	19.384	0.72727	0.1	993.96
4296	19.199	0.72727	0.1	1036.1
4297	19.014	0.72727	0.1	1078.4
4298	18.83	0.72727	0.1	1120.9
4299	18.645	0.72727	0.1	1163.5
4300	18.46	0.72727	0.1	1206.3
4301	18.276	0.72727	0.1	1249.3
4302	18.091	0.72727	0.1	1292.4
4303	17.906	0.72727	0.1	1335.7
4304	17.722	0.72727	0.1	1379.
4305	17.537	0.72727	0.1	1422.4
4306	17.352	0.72727	0.1	1465.9
4307	17.168	0.72727	0.1	1509.4
4308	16.983	0.72727	0.1	1552.7
4309	16.798	0.72727	0.1	1595.9
4310	16.614	0.72727	0.1	1638.9
4311	16.429	0.72727	0.1	1681.3
4312	16.244	0.72727	0.1	1723.2
4313	16.06	0.72727	0.1	1764.2
4314	15.875	0.72727	0.1	1804.
4315	15.69	0.72727	0.1	1842.2
4316	15.506	0.72727	0.1	1878.2
4317	15.321	0.72727	0.1	1911.5
4318	15.137	0.72727	0.1	1941.3
4319	14.952	0.72727	0.1	1966.4
4320	14.767	0.72727	0.1	1985.5
4321	14.583	0.72727	0.1	1997.2
4322	14.398	0.72727	0.1	1999.5
4323	14.213	0.72727	0.1	1990.
4324	14.029	0.72727	0.1	1965.9
4325	13.844	0.72727	0.1	1924.
4326	13.659	0.72727	0.1	1860.8
4327	13.475	0.72727	0.1	1773.
4328	13.29	0.72727	0.1	1658.1
4329	13.105	0.72727	0.1	1516.8
4330	12.921	0.72727	0.1	1356.5
4331	12.736	0.72727	0.1	1196.7
4332	12.551	0.72727	0.1	1104.2
4333	23.815	0.90909	0.1	39.69
4334	23.631	0.90909	0.1	76.684
4335	23.446	0.90909	0.1	113.98
4336	23.261	0.90909	0.1	151.48
4337	23.077	0.90909	0.1	189.3
4338	22.892	0.90909	0.1	227.45
4339	22.707	0.90909	0.1	265.91
4340	22.523	0.90909	0.1	304.64
4341	22.338	0.90909	0.1	343.63
4342	22.153	0.90909	0.1	382.84
4343	21.969	0.90909	0.1	422.26
4344	21.784	0.90909	0.1	461.88
4345	21.599	0.90909	0.1	501.67
4346	21.415	0.90909	0.1	541.64
4347	21.23	0.90909	0.1	581.79
4348	21.046	0.90909	0.1	622.1
4349	20.861	0.90909	0.1	662.58
4350	20.676	0.90909	0.1	703.23
4351	20.492	0.90909	0.1	744.06
4352	20.307	0.90909	0.1	785.05
4353	20.122	0.90909	0.1	826.22
4354	19.938	0.90909	0.1	867.56
4355	19.753	0.90909	0.1	909.08
4356	19.568	0.90909	0.1	950.77
4357	19.384	0.90909	0.1	992.65
4358	19.199	0.90909	0.1	1034.7
4359	19.014	0.90909	0.1	1076.9
4360	18.83	0.90909	0.1	1119.3
4361	18.645	0.90909	0.1	1161.9
4362	18.46	0.90909	0.1	1204.7
4363	18.276	0.90909	0.1	1247.6
4364	18.091	0.90909	0.1	1290.7
4365	17.906	0.90909	0.1	1334.
4366	17.722	0.90909	0.1	1377.3
4367	17.537	0.90909	0.1	1420.8
4368	17.352	0.90909	0.1	1464.3
4369	17.168	0.90909	0.1	1507.9
4370	16.983	0.90909	0.1	1551.5
4371	16.798	0.90909	0.1	1595.
4372	16.614	0.90909	0.1	1638.3
4373	16.429	0.90909	0.1	1681.3
4374	16.244	0.90909	0.1	1723.9
4375	16.06	0.90909	0.1	1765.9
4376	15.875	0.90909	0.1	1806.9
4377	15.69	0.90909	0.1	1846.7
4378	15.506	0.90909	0.1	1884.9
4379	15.321	0.90909	0.1	1920.9
4380	15.137	0.90909	0.1	1954.1
4381	14.952	0.90909	0.1	1983.5
4382	14.767	0.90909	0.1	2008.2
4383	14.583	0.90909	0.1	2026.9
4384	14.398	0.90909	0.1	2037.8
4385	14.213	0.90909	0.1	2039.1
4386	14.029	0.90909	0.1	2028.3
4387	13.844	0.90909	0.1	2002.9
4388	13.659	0.90909	0.1	1959.7
4389	13.475	0.90909	0.1	1895.8
4390	13.29	0.90909	0.1	1808.9
4391	13.105	0.90909	0.1	1699.
4392	12.921	0.90909	0.1	1571.2
4393	12.736	0.90909	0.1	1439.7
4394	12.551	0.90909	0.1	1372.5
4395	23.815	1.0909	0.1	39.809
4396	23.631	1.0909	0.1	77.26
4397	23.446	1.0909	0.1	114.89
4398	23.261	1.0909	0.1	152.57
4399	23.077	1.0909	0.1	190.45
4400	22.892	1.0909	0.1	228.55
4401	22.707	1.0909	0.1	266.91
4402	22.523	1.0909	0.1	305.51
4403	22.338	1.0909	0.1	344.35
4404	22.153	1.0909	0.1	383.4
4405	21.969	1.0909	0.1	422.67
4406	21.784	1.0909	0.1	462.13
4407	21.599	1.0909	0.1	501.78
4408	21.415	1.0909	0.1	541.61
4409	21.23	1.0909	0.1	581.62
4410	21.046	1.0909	0.1	621.81
4411	20.861	1.0909	0.1	662.18
4412	20.676	1.0909	0.1	702.72
4413	20.492	1.0909	0.1	743.44
4414	20.307	1.0909	0.1	784.34
4415	20.122	1.0909	0.1	825.41
4416	19.938	1.0909	0.1	866.66
4417	19.753	1.0909	0.1	908.09
4418	19.568	1.0909	0.1	949.71
4419	19.384	1.0909	0.1	991.51
4420	19.199	1.0909	0.1	1033.5
4421	19.014	1.0909	0.1	1075.7
4422	18.83	1.0909	0.1	1118.
4423	18.645	1.0909	0.1	1160.5
4424	18.46	1.0909	0.1	1203.2
4425	18.276	1.0909	0.1	1246.1
4426	18.091	1.0909	0.1	1289.2
4427	17.906	1.0909	0.1	1332.4
4428	17.722	1.0909	0.1	1375.8
4429	17.537	1.0909	0.1	1419.3
4430	17.352	1.0909	0.1	1463.
4431	17.168	1.0909	0.1	1506.7
4432	16.983	1.0909	0.1	1550.5
4433	16.798	1.0909	0.1	1594.3
4434	16.614	1.0909	0.1	1638.
4435	16.429	1.0909	0.1	1681.7
4436	16.244	1.0909	0.1	1725.
4437	16.06	1.0909	0.1	1768.
4438	15.875	1.0909	0.1	1810.4
4439	15.69	1.0909	0.1	1852.1
4440	15.506	1.0909	0.1	1892.6
4441	15.321	1.0909	0.1	1931.6
4442	15.137	1.0909	0.1	1968.6
4443	14.952	1.0909	0.1	2003.
4444	14.767	1.0909	0.1	2034.
4445	14.583	1.0909	0.1	2060.5
4446	14.398	1.0909	0.1	2081.5
4447	14.213	1.0909	0.1	2095.4
4448	14.029	1.0909	0.1	2100.5
4449	13.844	1.0909	0.1	2094.9
4450	13.659	1.0909	0.1	2076.4
4451	13.475	1.0909	0.1	2042.5
4452	13.29	1.0909	0.1	1991.2
4453	13.105	1.0909	0.1	1921.3
4454	12.921	1.0909	0.1	1833.5
4455	12.736	1.0909	0.1	1733.2
4456	12.551	1.0909	0.1	1691.4
4457	23.815	1.2727	0.1	39.855
4458	23.631	1.2727	0.1	77.663
4459	23.446	1.2727	0.1	115.58
4460	23.261	1.2727	0.1	153.47
4461	23.077	1.2727	0.1	191.44
4462	22.892	1.2727	0.1	229.57
4463	22.707	1.2727	0.1	267.88
4464	22.523	1.2727	0.1	306.4
4465	22.338	1.2727	0.1	345.12
4466	22.153	1.2727	0.1	384.05
4467	21.969	1.2727	0.1	423.18
4468	21.784	1.2727	0.1	462.51
4469	21.599	1.2727	0.1	502.03
4470	21.415	1.2727	0.1	541.73
4471	21.23	1.2727	0.1	581.62
4472	21.046	1.2727	0.1	621.69
4473	20.861	1.2727	0.1	661.94
4474	20.676	1.2727	0.1	702.37
4475	20.492	1.2727	0.1	742.98
4476	20.307	1.2727	0.1	783.78
4477	20.122	1.2727	0.1	824.76
4478	19.938	1.2727	0.1	865.92
4479	19.753	1.2727	0.1	907.27
4480	19.568	1.2727	0.1	948.8
4481	19.384	1.2727	0.1	990.52
4482	19.199	1.2727	0.1	1032.4
4483	19.014	1.2727	0.1	1074.5
4484	18.83	1.2727	0.1	1116.8
4485	18.645	1.2727	0.1	1159.3
4486	18.46	1.2727	0.1	1201.9
4487	18.276	1.2727	0.1	1244.8
4488	18.091	1.2727	0.1	1287.8
4489	17.906	1.2727	0.1	1331.
4490	17.722	1.2727	0.1	1374.4
4491	17.537	1.2727	0.1	1418.
4492	17.352	1.2727	0.1	1461.7
4493	17.168	1.2727	0.1	1505.6
4494	16.983	1.2727	0.1	1549.6
4495	16.798	1.2727	0.1	1593.8
4496	16.614	1.2727	0.1	1638.
4497	16.429	1.2727	0.1	1682.2
4498	16.244	1.2727	0.1	1726.4
4499	16.06	1.2727	0.1	1770.5
4500	15.875	1.2727	0.1	1814.4
4501	15.69	1.2727	0.1	1857.9
4502	15.506	1.2727	0.1	1901.
4503	15.321	1.2727	0.1	1943.2
4504	15.137	1.2727	0.1	1984.4
4505	14.952	1.2727	0.1	2024.1
4506	14.767	1.2727	0.1	2061.9
4507	14.583	1.2727	0.1	2097.2
4508	14.398	1.2727	0.1	2129.3
4509	14.213	1.2727	0.1	2157.4
4510	14.029	1.2727	0.1	2180.5
4511	13.844	1.2727	0.1	2197.7
4512	13.659	1.2727	0.1	2207.9
4513	13.475	1.2727	0.1	2210.
4514	13.29	1.2727	0.1	2203.
4515	13.105	1.2727	0.1	2185.
4516	12.921	1.2727	0.1	2152.1
4517	12.736	1.2727	0.1	2098.8
4518	12.551	1.2727	0.1	2090.9
4519	23.815	1.4545	0.1	39.857
4520	23.631	1.4545	0.1	77.947
4521	23.446	1.4545	0.1	116.1
4522	23.261	1.4545	0.1	154.18
4523	23.077	1.4545	0.1	192.28
4524	22.892	1.4545	0.1	230.46
4525	22.707	1.4545	0.1	268.77
4526	22.523	1.4545	0.1	307.24
4527	22.338	1.4545	0.1	345.89
4528	22.153	1.4545	0.1	384.73
4529	21.969	1.4545	0.1	423.75
4530	21.784	1.4545	0.1	462.96
4531	21.599	1.4545	0.1	502.36
4532	21.415	1.4545	0.1	541.94
4533	21.23	1.4545	0.1	581.71
4534	21.046	1.4545	0.1	621.67
4535	20.861	1.4545	0.1	661.81
4536	20.676	1.4545	0.1	702.14
4537	20.492	1.4545	0.1	742.65
4538	20.307	1.4545	0.1	783.35
4539	20.122	1.4545	0.1	824.24
4540	19.938	1.4545	0.1	865.32
4541	19.753	1.4545	0.1	906.58
4542	19.568	1.4545	0.1	948.03
4543	19.384	1.4545	0.1	989.67
4544	19.199	1.4545	0.1	1031.5
4545	19.014	1.4545	0.1	1073.5
4546	18.83	1.4545	0.1	1115.8
4547	18.645	1.4545	0.1	1158.2
4548	18.46	1.4545	0.1	1200.8
4549	18.276	1.4545	0.1	1243.6
4550	18.091	1.4545	0.1	1286.6
4551	17.906	1.4545	0.1	1329.8
4552	17.722	1.4545	0.1	1373.2
4553	17.537	1.4545	0.1	1416.8
4554	17.352	1.4545	0.1	1460.7
4555	17.168	1.4545	0.1	1504.7
4556	16.983	1.4545	0.1	1548.9
4557	16.798	1.4545	0.1	1593.4
4558	16.614	1.4545	0.1	1638.1
4559	16.429	1.4545	0.1	1682.9
4560	16.244	1.4545	0.1	1728.
4561	16.06	1.4545	0.1	1773.2
4562	15.875	1.4545	0.1	1818.6
4563	15.69	1.4545	0.1	1864.1
4564	15.506	1.4545	0.1	1909.7
4565	15.321	1.4545	0.1	1955.3
4566	15.137	1.4545	0.1	2000.9
4567	14.952	1.4545	0.1	2046.3
4568	14.767	1.4545	0.1	2091.3
4569	14.583	1.4545	0.1	2135.9
4570	14.398	1.4545	0.1	2179.9
4571	14.213	1.4545	0.1	2223.2
4572	14.029	1.4545	0.1	2265.9
4573	13.844	1.4545	0.1	2308.1
4574	13.659	1.4545	0.1	2350.4
4575	13.475	1.4545	0.1	2393.9
4576	13.29	1.4545	0.1	2440.
4577	13.105	1.4545	0.1	2489.1
4578	12.921	1.4545	0.1	2538.9
4579	12.736	1.4545	0.1	2567.5
4580	12.551	1.4545	0.1	2636.3
4581	23.815	1.6364	0.1	39.836
4582	23.631	1.6364	0.1	78.147
4583	23.446	1.6364	0.1	116.5
4584	23.261	1.6364	0.1	154.75
4585	23.077	1.6364	0.1	192.97
4586	22.892	1.6364	0.1	231.22
4587	22.707	1.6364	0.1	269.56
4588	22.523	1.6364	0.1	308.01
4589	22.338	1.6364	0.1	346.62
4590	22.153	1.6364	0.1	385.38
4591	21.969	1.6364	0.1	424.32
4592	21.784	1.6364	0.1	463.44
4593	21.599	1.6364	0.1	502.73
4594	21.415	1.6364	0.1	542.21
4595	21.23	1.6364	0.1	581.88
4596	21.046	1.6364	0.1	621.73
4597	20.861	1.6364	0.1	661.78
4598	20.676	1.6364	0.1	702.01
4599	20.492	1.6364	0.1	742.43
4600	20.307	1.6364	0.1	783.03
4601	20.122	1.6364	0.1	823.83
4602	19.938	1.6364	0.1	864.83
4603	19.753	1.6364	0.1	906.01
4604	19.568	1.6364	0.1	947.38
4605	19.384	1.6364	0.1	988.95
4606	19.199	1.6364	0.1	1030.7
4607	19.014	1.6364	0.1	1072.7
4608	18.83	1.6364	0.1	1114.8
4609	18.645	1.6364	0.1	1157.2
4610	18.46	1.6364	0.1	1199.8
4611	18.276	1.6364	0.1	1242.5
4612	18.091	1.6364	0.1	1285.5
4613	17.906	1.6364	0.1	1328.7
4614	17.722	1.6364	0.1	1372.1
4615	17.537	1.6364	0.1	1415.8
4616	17.352	1.6364	0.1	1459.7
4617	17.168	1.6364	0.1	1503.9
4618	16.983	1.6364	0.1	1548.4
4619	16.798	1.6364	0.1	1593.1
4620	16.614	1.6364	0.1	1638.2
4621	16.429	1.6364	0.1	1683.7
4622	16.244	1.6364	0.1	1729.6
4623	16.06	1.6364	0.1	1776.
4624	15.875	1.6364	0.1	1822.9
4625	15.69	1.6364	0.1	1870.4
4626	15.506	1.6364	0.1	1918.6
4627	15.321	1.6364	0.1	1967.6
4628	15.137	1.6364	0.1	2017.6
4629	14.952	1.6364	0.1	2068.7
4630	14.767	1.6364	0.1	2121.2
4631	14.583	1.6364	0.1	2175.3
4632	14.398	1.6364	0.1	2231.7
4633	14.213	1.6364	0.1	2290.8
4634	14.029	1.6364	0.1	2353.9
4635	13.844	1.6364	0.1	2422.5
4636	13.659	1.6364	0.1	2499.2
4637	13.475	1.6364	0.1	2587.9
4638	13.29	1.6364	0.1	2694.5
4639	13.105	1.6364	0.1	2827.1
4640	12.921	1.6364	0.1	2993.1
4641	12.736	1.6364	0.1	3188.4
4642	12.551	1.6364	0.1	3429.1
4643	23.815	1.8182	0.1	39.802
4644	23.631	1.8182	0.1	78.288
4645	23.446	1.8182	0.1	116.81
4646	23.261	1.8182	0.1	155.19
4647	23.077	1.8182	0.1	193.53
4648	22.892	1.8182	0.1	231.85
4649	22.707	1.8182	0.1	270.23
4650	22.523	1.8182	0.1	308.69
4651	22.338	1.8182	0.1	347.27
4652	22.153	1.8182	0.1	385.99
4653	21.969	1.8182	0.1	424.86
4654	21.784	1.8182	0.1	463.9
4655	21.599	1.8182	0.1	503.11
4656	21.415	1.8182	0.1	542.51
4657	21.23	1.8182	0.1	582.08
4658	21.046	1.8182	0.1	621.84
4659	20.861	1.8182	0.1	661.8
4660	20.676	1.8182	0.1	701.94
4661	20.492	1.8182	0.1	742.27
4662	20.307	1.8182	0.1	782.8
4663	20.122	1.8182	0.1	823.52
4664	19.938	1.8182	0.1	864.43
4665	19.753	1.8182	0.1	905.54
4666	19.568	1.8182	0.1	946.85
4667	19.384	1.8182	0.1	988.35
4668	19.199	1.8182	0.1	1030.
4669	19.014	1.8182	0.1	1071.9
4670	18.83	1.8182	0.1	1114.
4671	18.645	1.8182	0.1	1156.4
4672	18.46	1.8182	0.1	1198.9
4673	18.276	1.8182	0.1	1241.6
4674	18.091	1.8182	0.1	1284.6
4675	17.906	1.8182	0.1	1327.8
4676	17.722	1.8182	0.1	1371.2
4677	17.537	1.8182	0.1	1414.9
4678	17.352	1.8182	0.1	1458.9
4679	17.168	1.8182	0.1	1503.2
4680	16.983	1.8182	0.1	1547.9
4681	16.798	1.8182	0.1	1593.
4682	16.614	1.8182	0.1	1638.5
4683	16.429	1.8182	0.1	1684.6
4684	16.244	1.8182	0.1	1731.3
4685	16.06	1.8182	0.1	1778.7
4686	15.875	1.8182	0.1	1827.1
4687	15.69	1.8182	0.1	1876.5
4688	15.506	1.8182	0.1	1927.2
4689	15.321	1.8182	0.1	1979.6
4690	15.137	1.8182	0.1	2033.9
4691	14.952	1.8182	0.1	2090.7
4692	14.767	1.8182	0.1	2150.5
4693	14.583	1.8182	0.1	2214.2
4694	14.398	1.8182	0.1	2282.9
4695	14.213	1.8182	0.1	2358.
4696	14.029	1.8182	0.1	2441.7
4697	13.844	1.8182	0.1	2537.1
4698	13.659	1.8182	0.1	2648.9
4699	13.475	1.8182	0.1	2784.5
4700	13.29	1.8182	0.1	2955.7
4701	13.105	1.8182	0.1	3181.7
4702	12.921	1.8182	0.1	3497.1
4703	12.736	1.8182	0.1	3980.2
4704	12.551	1.8182	0.1	4988.1
4705	23.815	2.	0.1	39.764
4706	23.631	2.	0.1	78.387
4707	23.446	2.	0.1	117.03
4708	23.261	2.	0.1	155.54
4709	23.077	2.	0.1	193.97
4710	22.892	2.	0.1	232.37
4711	22.707	2.	0.1	270.79
4712	22.523	2.	0.1	309.26
4713	22.338	2.	0.1	347.83
4714	22.153	2.	0.1	386.52
4715	21.969	2.	0.1	425.35
4716	21.784	2.	0.1	464.33
4717	21.599	2.	0.1	503.47
4718	21.415	2.	0.1	542.79
4719	21.23	2.	0.1	582.29
4720	21.046	2.	0.1	621.98
4721	20.861	2.	0.1	661.85
4722	20.676	2.	0.1	701.92
4723	20.492	2.	0.1	742.18
4724	20.307	2.	0.1	782.63
4725	20.122	2.	0.1	823.28
4726	19.938	2.	0.1	864.12
4727	19.753	2.	0.1	905.16
4728	19.568	2.	0.1	946.4
4729	19.384	2.	0.1	987.84
4730	19.199	2.	0.1	1029.5
4731	19.014	2.	0.1	1071.3
4732	18.83	2.	0.1	1113.4
4733	18.645	2.	0.1	1155.6
4734	18.46	2.	0.1	1198.1
4735	18.276	2.	0.1	1240.8
4736	18.091	2.	0.1	1283.8
4737	17.906	2.	0.1	1326.9
4738	17.722	2.	0.1	1370.4
4739	17.537	2.	0.1	1414.2
4740	17.352	2.	0.1	1458.2
4741	17.168	2.	0.1	1502.7
4742	16.983	2.	0.1	1547.5
4743	16.798	2.	0.1	1592.9
4744	16.614	2.	0.1	1638.8
4745	16.429	2.	0.1	1685.4
4746	16.244	2.	0.1	1732.9
4747	16.06	2.	0.1	1781.3
4748	15.875	2.	0.1	1831.
4749	15.69	2.	0.1	1882.2
4750	15.506	2.	0.1	1935.4
4751	15.321	2.	0.1	1990.9
4752	15.137	2.	0.1	2049.3
4753	14.952	2.	0.1	2111.5
4754	14.767	2.	0.1	2178.4
4755	14.583	2.	0.1	2251.3
4756	14.398	2.	0.1	2331.8
4757	14.213	2.	0.1	2422.4
4758	14.029	2.	0.1	2526.2
4759	13.844	2.	0.1	2647.7
4760	13.659	2.	0.1	2793.9
4761	13.475	2.	0.1	2975.3
4762	13.29	2.	0.1	3209.7
4763	13.105	2.	0.1	3528.5
4764	12.921	2.	0.1	3999.8
4765	12.736	2.	0.1	4749.3
4766	12.551	2.	0.1	6955.5
4767	23.815	2.1818	0.1	39.727
4768	23.631	2.1818	0.1	78.456
4769	23.446	2.1818	0.1	117.2
4770	23.261	2.1818	0.1	155.81
4771	23.077	2.1818	0.1	194.32
4772	22.892	2.1818	0.1	232.78
4773	22.707	2.1818	0.1	271.24
4774	22.523	2.1818	0.1	309.74
4775	22.338	2.1818	0.1	348.3
4776	22.153	2.1818	0.1	386.97
4777	21.969	2.1818	0.1	425.77
4778	21.784	2.1818	0.1	464.7
4779	21.599	2.1818	0.1	503.8
4780	21.415	2.1818	0.1	543.06
4781	21.23	2.1818	0.1	582.49
4782	21.046	2.1818	0.1	622.12
4783	20.861	2.1818	0.1	661.92
4784	20.676	2.1818	0.1	701.92
4785	20.492	2.1818	0.1	742.12
4786	20.307	2.1818	0.1	782.51
4787	20.122	2.1818	0.1	823.1
4788	19.938	2.1818	0.1	863.88
4789	19.753	2.1818	0.1	904.87
4790	19.568	2.1818	0.1	946.05
4791	19.384	2.1818	0.1	987.44
4792	19.199	2.1818	0.1	1029.
4793	19.014	2.1818	0.1	1070.8
4794	18.83	2.1818	0.1	1112.8
4795	18.645	2.1818	0.1	1155.
4796	18.46	2.1818	0.1	1197.5
4797	18.276	2.1818	0.1	1240.2
4798	18.091	2.1818	0.1	1283.1
4799	17.906	2.1818	0.1	1326.3
4800	17.722	2.1818	0.1	1369.7
4801	17.537	2.1818	0.1	1413.5
4802	17.352	2.1818	0.1	1457.7
4803	17.168	2.1818	0.1	1502.2
4804	16.983	2.1818	0.1	1547.2
4805	16.798	2.1818	0.1	1592.8
4806	16.614	2.1818	0.1	1639.1
4807	16.429	2.1818	0.1	1686.2
4808	16.244	2.1818	0.1	1734.3
4809	16.06	2.1818	0.1	1783.7
4810	15.875	2.1818	0.1	1834.6
4811	15.69	2.1818	0.1	1887.4
4812	15.506	2.1818	0.1	1942.7
4813	15.321	2.1818	0.1	2001.
4814	15.137	2.1818	0.1	2063.2
4815	14.952	2.1818	0.1	2130.4
4816	14.767	2.1818	0.1	2203.7
4817	14.583	2.1818	0.1	2285.1
4818	14.398	2.1818	0.1	2376.7
4819	14.213	2.1818	0.1	2481.6
4820	14.029	2.1818	0.1	2604.1
4821	13.844	2.1818	0.1	2749.9
4822	13.659	2.1818	0.1	2927.7
4823	13.475	2.1818	0.1	3150.6
4824	13.29	2.1818	0.1	3440.5
4825	13.105	2.1818	0.1	3835.3
4826	12.921	2.1818	0.1	4412.8
4827	12.736	2.1818	0.1	5367.2
4828	12.551	2.1818	0.1	7191.8
4829	23.815	2.3636	0.1	39.694
4830	23.631	2.3636	0.1	78.503
4831	23.446	2.3636	0.1	117.33
4832	23.261	2.3636	0.1	156.
4833	23.077	2.3636	0.1	194.58
4834	22.892	2.3636	0.1	233.1
4835	22.707	2.3636	0.1	271.59
4836	22.523	2.3636	0.1	310.11
4837	22.338	2.3636	0.1	348.68
4838	22.153	2.3636	0.1	387.34
4839	21.969	2.3636	0.1	426.11
4840	21.784	2.3636	0.1	465.01
4841	21.599	2.3636	0.1	504.07
4842	21.415	2.3636	0.1	543.28
4843	21.23	2.3636	0.1	582.67
4844	21.046	2.3636	0.1	622.24
4845	20.861	2.3636	0.1	662.
4846	20.676	2.3636	0.1	701.94
4847	20.492	2.3636	0.1	742.09
4848	20.307	2.3636	0.1	782.43
4849	20.122	2.3636	0.1	822.96
4850	19.938	2.3636	0.1	863.7
4851	19.753	2.3636	0.1	904.64
4852	19.568	2.3636	0.1	945.78
4853	19.384	2.3636	0.1	987.12
4854	19.199	2.3636	0.1	1028.7
4855	19.014	2.3636	0.1	1070.4
4856	18.83	2.3636	0.1	1112.4
4857	18.645	2.3636	0.1	1154.6
4858	18.46	2.3636	0.1	1197.
4859	18.276	2.3636	0.1	1239.6
4860	18.091	2.3636	0.1	1282.5
4861	17.906	2.3636	0.1	1325.7
4862	17.722	2.3636	0.1	1369.2
4863	17.537	2.3636	0.1	1413.
4864	17.352	2.3636	0.1	1457.2
4865	17.168	2.3636	0.1	1501.8
4866	16.983	2.3636	0.1	1547.
4867	16.798	2.3636	0.1	1592.8
4868	16.614	2.3636	0.1	1639.4
4869	16.429	2.3636	0.1	1686.9
4870	16.244	2.3636	0.1	1735.5
4871	16.06	2.3636	0.1	1785.6
4872	15.875	2.3636	0.1	1837.6
4873	15.69	2.3636	0.1	1891.8
4874	15.506	2.3636	0.1	1948.9
4875	15.321	2.3636	0.1	2009.7
4876	15.137	2.3636	0.1	2075.2
4877	14.952	2.3636	0.1	2146.6
4878	14.767	2.3636	0.1	2225.5
4879	14.583	2.3636	0.1	2314.3
4880	14.398	2.3636	0.1	2415.6
4881	14.213	2.3636	0.1	2533.1
4882	14.029	2.3636	0.1	2672.
4883	13.844	2.3636	0.1	2838.9
4884	13.659	2.3636	0.1	3043.7
4885	13.475	2.3636	0.1	3300.7
4886	13.29	2.3636	0.1	3631.7
4887	13.105	2.3636	0.1	4072.5
4888	12.921	2.3636	0.1	4685.
4889	12.736	2.3636	0.1	5567.7
4890	12.551	2.3636	0.1	6795.9
4891	23.815	2.5455	0.1	39.668
4892	23.631	2.5455	0.1	78.534
4893	23.446	2.5455	0.1	117.41
4894	23.261	2.5455	0.1	156.14
4895	23.077	2.5455	0.1	194.77
4896	22.892	2.5455	0.1	233.32
4897	22.707	2.5455	0.1	271.85
4898	22.523	2.5455	0.1	310.38
4899	22.338	2.5455	0.1	348.96
4900	22.153	2.5455	0.1	387.61
4901	21.969	2.5455	0.1	426.37
4902	21.784	2.5455	0.1	465.25
4903	21.599	2.5455	0.1	504.28
4904	21.415	2.5455	0.1	543.46
4905	21.23	2.5455	0.1	582.81
4906	21.046	2.5455	0.1	622.34
4907	20.861	2.5455	0.1	662.06
4908	20.676	2.5455	0.1	701.97
4909	20.492	2.5455	0.1	742.07
4910	20.307	2.5455	0.1	782.37
4911	20.122	2.5455	0.1	822.87
4912	19.938	2.5455	0.1	863.57
4913	19.753	2.5455	0.1	904.47
4914	19.568	2.5455	0.1	945.58
4915	19.384	2.5455	0.1	986.89
4916	19.199	2.5455	0.1	1028.4
4917	19.014	2.5455	0.1	1070.1
4918	18.83	2.5455	0.1	1112.1
4919	18.645	2.5455	0.1	1154.2
4920	18.46	2.5455	0.1	1196.6
4921	18.276	2.5455	0.1	1239.2
4922	18.091	2.5455	0.1	1282.1
4923	17.906	2.5455	0.1	1325.3
4924	17.722	2.5455	0.1	1368.8
4925	17.537	2.5455	0.1	1412.6
4926	17.352	2.5455	0.1	1456.9
4927	17.168	2.5455	0.1	1501.6
4928	16.983	2.5455	0.1	1546.8
4929	16.798	2.5455	0.1	1592.8
4930	16.614	2.5455	0.1	1639.6
4931	16.429	2.5455	0.1	1687.4
4932	16.244	2.5455	0.1	1736.5
4933	16.06	2.5455	0.1	1787.2
4934	15.875	2.5455	0.1	1840.
4935	15.69	2.5455	0.1	1895.3
4936	15.506	2.5455	0.1	1953.8
4937	15.321	2.5455	0.1	2016.5
4938	15.137	2.5455	0.1	2084.6
4939	14.952	2.5455	0.1	2159.4
4940	14.767	2.5455	0.1	2242.9
4941	14.583	2.5455	0.1	2337.6
4942	14.398	2.5455	0.1	2446.7
4943	14.213	2.5455	0.1	2574.4
4944	14.029	2.5455	0.1	2726.5
4945	13.844	2.5455	0.1	2910.2
4946	13.659	2.5455	0.1	3135.9
4947	13.475	2.5455	0.1	3417.1
4948	13.29	2.5455	0.1	3772.8
4949	13.105	2.5455	0.1	4228.2
4950	12.921	2.5455	0.1	4811.8
4951	12.736	2.5455	0.1	5535.8
4952	12.551	2.5455	0.1	6301.3
4953	23.815	2.7273	0.1	39.649
4954	23.631	2.7273	0.1	78.552
4955	23.446	2.7273	0.1	117.47
4956	23.261	2.7273	0.1	156.23
4957	23.077	2.7273	0.1	194.89
4958	22.892	2.7273	0.1	233.47
4959	22.707	2.7273	0.1	272.02
4960	22.523	2.7273	0.1	310.56
4961	22.338	2.7273	0.1	349.15
4962	22.153	2.7273	0.1	387.8
4963	21.969	2.7273	0.1	426.55
4964	21.784	2.7273	0.1	465.41
4965	21.599	2.7273	0.1	504.42
4966	21.415	2.7273	0.1	543.58
4967	21.23	2.7273	0.1	582.91
4968	21.046	2.7273	0.1	622.42
4969	20.861	2.7273	0.1	662.11
4970	20.676	2.7273	0.1	701.99
4971	20.492	2.7273	0.1	742.07
4972	20.307	2.7273	0.1	782.34
4973	20.122	2.7273	0.1	822.81
4974	19.938	2.7273	0.1	863.49
4975	19.753	2.7273	0.1	904.36
4976	19.568	2.7273	0.1	945.45
4977	19.384	2.7273	0.1	986.73
4978	19.199	2.7273	0.1	1028.2
4979	19.014	2.7273	0.1	1069.9
4980	18.83	2.7273	0.1	1111.8
4981	18.645	2.7273	0.1	1154.
4982	18.46	2.7273	0.1	1196.4
4983	18.276	2.7273	0.1	1239.
4984	18.091	2.7273	0.1	1281.9
4985	17.906	2.7273	0.1	1325.
4986	17.722	2.7273	0.1	1368.5
4987	17.537	2.7273	0.1	1412.4
4988	17.352	2.7273	0.1	1456.6
4989	17.168	2.7273	0.1	1501.4
4990	16.983	2.7273	0.1	1546.7
4991	16.798	2.7273	0.1	1592.8
4992	16.614	2.7273	0.1	1639.7
4993	16.429	2.7273	0.1	1687.8
4994	16.244	2.7273	0.1	1737.2
4995	16.06	2.7273	0.1	1788.3
4996	15.875	2.7273	0.1	1841.6
4997	15.69	2.7273	0.1	1897.6
4998	15.506	2.7273	0.1	1957.2
4999	15.321	2.7273	0.1	2021.3
5000	15.137	2.7273	0.1	2091.1
5001	14.952	2.7273	0.1	2168.3
5002	14.767	2.7273	0.1	2255.
5003	14.583	2.7273	0.1	2353.8
5004	14.398	2.7273	0.1	2468.4
5005	14.213	2.7273	0.1	2603.4
5006	14.029	2.7273	0.1	2764.6
5007	13.844	2.7273	0.1	2960.
5008	13.659	2.7273	0.1	3199.4
5009	13.475	2.7273	0.1	3495.4
5010	13.29	2.7273	0.1	3862.5
5011	13.105	2.7273	0.1	4314.1
5012	12.921	2.7273	0.1	4854.
5013	12.736	2.7273	0.1	5453.
5014	12.551	2.7273	0.1	6012.1
5015	23.815	2.9091	0.1	39.64
5016	23.631	2.9091	0.1	78.561
5017	23.446	2.9091	0.1	117.5
5018	23.261	2.9091	0.1	156.28
5019	23.077	2.9091	0.1	194.95
5020	22.892	2.9091	0.1	233.55
5021	22.707	2.9091	0.1	272.1
5022	22.523	2.9091	0.1	310.65
5023	22.338	2.9091	0.1	349.24
5024	22.153	2.9091	0.1	387.89
5025	21.969	2.9091	0.1	426.63
5026	21.784	2.9091	0.1	465.49
5027	21.599	2.9091	0.1	504.49
5028	21.415	2.9091	0.1	543.64
5029	21.23	2.9091	0.1	582.96
5030	21.046	2.9091	0.1	622.45
5031	20.861	2.9091	0.1	662.13
5032	20.676	2.9091	0.1	702.
5033	20.492	2.9091	0.1	742.06
5034	20.307	2.9091	0.1	782.32
5035	20.122	2.9091	0.1	822.79
5036	19.938	2.9091	0.1	863.45
5037	19.753	2.9091	0.1	904.31
5038	19.568	2.9091	0.1	945.38
5039	19.384	2.9091	0.1	986.65
5040	19.199	2.9091	0.1	1028.1
5041	19.014	2.9091	0.1	1069.8
5042	18.83	2.9091	0.1	1111.7
5043	18.645	2.9091	0.1	1153.9
5044	18.46	2.9091	0.1	1196.2
5045	18.276	2.9091	0.1	1238.8
5046	18.091	2.9091	0.1	1281.7
5047	17.906	2.9091	0.1	1324.9
5048	17.722	2.9091	0.1	1368.4
5049	17.537	2.9091	0.1	1412.2
5050	17.352	2.9091	0.1	1456.5
5051	17.168	2.9091	0.1	1501.3
5052	16.983	2.9091	0.1	1546.7
5053	16.798	2.9091	0.1	1592.8
5054	16.614	2.9091	0.1	1639.8
5055	16.429	2.9091	0.1	1688.
5056	16.244	2.9091	0.1	1737.5
5057	16.06	2.9091	0.1	1788.8
5058	15.875	2.9091	0.1	1842.4
5059	15.69	2.9091	0.1	1898.9
5060	15.506	2.9091	0.1	1958.9
5061	15.321	2.9091	0.1	2023.7
5062	15.137	2.9091	0.1	2094.4
5063	14.952	2.9091	0.1	2172.9
5064	14.767	2.9091	0.1	2261.2
5065	14.583	2.9091	0.1	2362.2
5066	14.398	2.9091	0.1	2479.6
5067	14.213	2.9091	0.1	2618.3
5068	14.029	2.9091	0.1	2784.3
5069	13.844	2.9091	0.1	2985.5
5070	13.659	2.9091	0.1	3231.8
5071	13.475	2.9091	0.1	3534.5
5072	13.29	2.9091	0.1	3905.1
5073	13.105	2.9091	0.1	4350.7
5074	12.921	2.9091	0.1	4863.
5075	12.736	2.9091	0.1	5400.6
5076	12.551	2.9091	0.1	5874.2
5077	23.815	3.0909	0.1	39.64
5078	23.631	3.0909	0.1	78.561
5079	23.446	3.0909	0.1	117.5
5080	23.261	3.0909	0.1	156.28
5081	23.077	3.0909	0.1	194.95
5082	22.892	3.0909	0.1	233.55
5083	22.707	3.0909	0.1	272.1
5084	22.523	3.0909	0.1	310.65
5085	22.338	3.0909	0.1	349.24
5086	22.153	3.0909	0.1	387.89
5087	21.969	3.0909	0.1	426.63
5088	21.784	3.0909	0.1	465.49
5089	21.599	3.0909	0.1	504.49
5090	21.415	3.0909	0.1	543.64
5091	21.23	3.0909	0.1	582.96
5092	21.046	3.0909	0.1	622.45
5093	20.861	3.0909	0.1	662.13
5094	20.676	3.0909	0.1	702.
5095	20.492	3.0909	0.1	742.06
5096	20.307	3.0909	0.1	782.32
5097	20.122	3.0909	0.1	822.79
5098	19.938	3.0909	0.1	863.45
5099	19.753	3.0909	0.1	904.31
5100	19.568	3.0909	0.1	945.38
5101	19.384	3.0909	0.1	986.65
5102	19.199	3.0909	0.1	1028.1
5103	19.014	3.0909	0.1	1069.8
5104	18.83	3.0909	0.1	1111.7
5105	18.645	3.0909	0.1	1153.9
5106	18.46	3.0909	0.1	1196.2
5107	18.276	3.0909	0.1	1238.8
5108	18.091	3.0909	0.1	1281.7
5109	17.906	3.0909	0.1	1324.9
5110	17.722	3.0909	0.1	1368.4
5111	17.537	3.0909	0.1	1412.2
5112	17.352	3.0909	0.1	1456.5
5113	17.168	3.0909	0.1	1501.3
5114	16.983	3.0909	0.1	1546.7
5115	16.798	3.0909	0.1	1592.8
5116	16.614	3.0909	0.1	1639.8
5117	16.429	3.0909	0.1	1688.
5118	16.244	3.0909	0.1	1737.5
5119	16.06	3.0909	0.1	1788.8
5120	15.875	3.0909	0.1	1842.4
5121	15.69	3.0909	0.1	1898.9
5122	15.506	3.0909	0.1	1958.9
5123	15.321	3.0909	0.1	2023.7
5124	15.137	3.0909	0.1	2094.4
5125	14.952	3.0909	0.1	2172.9
5126	14.767	3.0909	0.1	2261.2
5127	14.583	3.0909	0.1	2362.2
5128	14.398	3.0909	0.1	2479.6
5129	14.213	3.0909	0.1	2618.3
5130	14.029	3.0909	0.1	2784.3
5131	13.844	3.0909	0.1	2985.5
5132	13.659	3.0909	0.1	3231.8
5133	13.475	3.0909	0.1	3534.5
5134	13.29	3.0909	0.1	3905.1
5135	13.105	3.0909	0.1	4350.7
5136	12.921	3.0909	0.1	4863.
5137	12.736	3.0909	0.1	5400.6
5138	12.551	3.0909	0.1	5874.2
5139	23.815	3.2727	0.1	39.649
5140	23.631	3.2727	0.1	78.552
5141	23.446	3.2727	0.1	117.47
5142	23.261	3.2727	0.1	156.23
5143	23.077	3.2727	0.1	194.89
5144	22.892	3.2727	0.1	233.47
5145	22.707	3.2727	0.1	272.02
5146	22.523	3.2727	0.1	310.56
5147	22.338	3.2727	0.1	349.15
5148	22.153	3.2727	0.1	387.8
5149	21.969	3.2727	0.1	426.55
5150	21.784	3.2727	0.1	465.41
5151	21.599	3.2727	0.1	504.42
5152	21.415	3.2727	0.1	543.58
5153	21.23	3.2727	0.1	582.91
5154	21.046	3.2727	0.1	622.42
5155	20.861	3.2727	0.1	662.11
5156	20.676	3.2727	0.1	701.99
5157	20.492	3.2727	0.1	742.07
5158	20.307	3.2727	0.1	782.34
5159	20.122	3.2727	0.1	822.81
5160	19.938	3.2727	0.1	863.49
5161	19.753	3.2727	0.1	904.36
5162	19.568	3.2727	0.1	945.45
5163	19.384	3.2727	0.1	986.73
5164	19.199	3.2727	0.1	1028.2
5165	19.014	3.2727	0.1	1069.9
5166	18.83	3.2727	0.1	1111.8
5167	18.645	3.2727	0.1	1154.
5168	18.46	3.2727	0.1	1196.4
5169	18.276	3.2727	0.1	1239.
5170	18.091	3.2727	0.1	1281.9
5171	17.906	3.2727	0.1	1325.
5172	17.722	3.2727	0.1	1368.5
5173	17.537	3.2727	0.1	1412.4
5174	17.352	3.2727	0.1	1456.6
5175	17.168	3.2727	0.1	1501.4
5176	16.983	3.2727	0.1	1546.7
5177	16.798	3.2727	0.1	1592.8
5178	16.614	3.2727	0.1	1639.7
5179	16.429	3.2727	0.1	1687.8
5180	16.244	3.2727	0.1	1737.2
5181	16.06	3.2727	0.1	1788.3
5182	15.875	3.2727	0.1	1841.6
5183	15.69	3.2727	0.1	1897.6
5184	15.506	3.2727	0.1	1957.2
5185	15.321	3.2727	0.1	2021.3
5186	15.137	3.2727	0.1	2091.1
5187	14.952	3.2727	0.1	2168.3
5188	14.767	3.2727	0.1	2255.
5189	14.583	3.2727	0.1	2353.8
5190	14.398	3.2727	0.1	2468.4
5191	14.213	3.2727	0.1	2603.4
5192	14.029	3.2727	0.1	2764.6
5193	13.844	3.2727	0.1	2960.
5194	13.659	3.2727	0.1	3199.4
5195	13.475	3.2727	0.1	3495.4
5196	13.29	3.2727	0.1	3862.5
5197	13.105	3.2727	0.1	4314.1
5198	12.921	3.2727	0.1	4854.
5199	12.736	3.2727	0.1	5453.
5200	12.551	3.2727	0.1	6012.1
5201	23.815	3.4545	0.1	39.668
5202	23.631	3.4545	0.1	78.534
5203	23.446	3.4545	0.1	117.41
5204	23.261	3.4545	0.1	156.14
5205	23.077	3.4545	0.1	194.77
5206	22.892	3.4545	0.1	233.32
5207	22.707	3.4545	0.1	271.85
5208	22.523	3.4545	0.1	310.38
5209	22.338	3.4545	0.1	348.96
5210	22.153	3.4545	0.1	387.61
5211	21.969	3.4545	0.1	426.37
5212	21.784	3.4545	0.1	465.25
5213	21.599	3.4545	0.1	504.28
5214	21.415	3.4545	0.1	543.46
5215	21.23	3.4545	0.1	582.81
5216	21.046	3.4545	0.1	622.34
5217	20.861	3.4545	0.1	662.06
5218	20.676	3.4545	0.1	701.97
5219	20.492	3.4545	0.1	742.07
5220	20.307	3.4545	0.1	782.37
5221	20.122	3.4545	0.1	822.87
5222	19.938	3.4545	0.1	863.57
5223	19.753	3.4545	0.1	904.47
5224	19.568	3.4545	0.1	945.58
5225	19.384	3.4545	0.1	986.89
5226	19.199	3.4545	0.1	1028.4
5227	19.014	3.4545	0.1	1070.1
5228	18.83	3.4545	0.1	1112.1
5229	18.645	3.4545	0.1	1154.2
5230	18.46	3.4545	0.1	1196.6
5231	18.276	3.4545	0.1	1239.2
5232	18.091	3.4545	0.1	1282.1
5233	17.906	3.4545	0.1	1325.3
5234	17.722	3.4545	0.1	1368.8
5235	17.537	3.4545	0.1	1412.6
5236	17.352	3.4545	0.1	1456.9
5237	17.168	3.4545	0.1	1501.6
5238	16.983	3.4545	0.1	1546.8
5239	16.798	3.4545	0.1	1592.8
5240	16.614	3.4545	0.1	1639.6
5241	16.429	3.4545	0.1	1687.4
5242	16.244	3.4545	0.1	1736.5
5243	16.06	3.4545	0.1	1787.2
5244	15.875	3.4545	0.1	1840.
5245	15.69	3.4545	0.1	1895.3
5246	15.506	3.4545	0.1	1953.8
5247	15.321	3.4545	0.1	2016.5
5248	15.137	3.4545	0.1	2084.6
5249	14.952	3.4545	0.1	2159.4
5250	14.767	3.4545	0.1	2242.9
5251	14.583	3.4545	0.1	2337.6
5252	14.398	3.4545	0.1	2446.7
5253	14.213	3.4545	0.1	2574.4
5254	14.029	3.4545	0.1	2726.5
5255	13.844	3.4545	0.1	2910.2
5256	13.659	3.4545	0.1	3135.9
5257	13.475	3.4545	0.1	3417.1
5258	13.29	3.4545	0.1	3772.8
5259	13.105	3.4545	0.1	4228.2
5260	12.921	3.4545	0.1	4811.8
5261	12.736	3.4545	0.1	5535.8
5262	12.551	3.4545	0.1	6301.3
5263	23.815	3.6364	0.1	39.694
5264	23.631	3.6364	0.1	78.503
5265	23.446	3.6364	0.1	117.33
5266	23.261	3.6364	0.1	156.
5267	23.077	3.6364	0.1	194.58
5268	22.892	3.6364	0.1	233.1
5269	22.707	3.6364	0.1	271.59
5270	22.523	3.6364	0.1	310.11
5271	22.338	3.6364	0.1	348.68
5272	22.153	3.6364	0.1	387.34
5273	21.969	3.6364	0.1	426.11
5274	21.784	3.6364	0.1	465.01
5275	21.599	3.6364	0.1	504.07
5276	21.415	3.6364	0.1	543.28
5277	21.23	3.6364	0.1	582.67
5278	21.046	3.6364	0.1	622.24
5279	20.861	3.6364	0.1	662.
5280	20.676	3.6364	0.1	701.94
5281	20.492	3.6364	0.1	742.09
5282	20.307	3.6364	0.1	782.43
5283	20.122	3.6364	0.1	822.96
5284	19.938	3.6364	0.1	863.7
5285	19.753	3.6364	0.1	904.64
5286	19.568	3.6364	0.1	945.78
5287	19.384	3.6364	0.1	987.12
5288	19.199	3.6364	0.1	1028.7
5289	19.014	3.6364	0.1	1070.4
5290	18.83	3.6364	0.1	1112.4
5291	18.645	3.6364	0.1	1154.6
5292	18.46	3.6364	0.1	1197.
5293	18.276	3.6364	0.1	1239.6
5294	18.091	3.6364	0.1	1282.5
5295	17.906	3.6364	0.1	1325.7
5296	17.722	3.6364	0.1	1369.2
5297	17.537	3.6364	0.1	1413.
5298	17.352	3.6364	0.1	1457.2
5299	17.168	3.6364	0.1	1501.8
5300	16.983	3.6364	0.1	1547.
5301	16.798	3.6364	0.1	1592.8
5302	16.614	3.6364	0.1	1639.4
5303	16.429	3.6364	0.1	1686.9
5304	16.244	3.6364	0.1	1735.5
5305	16.06	3.6364	0.1	1785.6
5306	15.875	3.6364	0.1	1837.6
5307	15.69	3.6364	0.1	1891.8
5308	15.506	3.6364	0.1	1948.9
5309	15.321	3.6364	0.1	2009.7
5310	15.137	3.6364	0.1	2075.2
5311	14.952	3.6364	0.1	2146.6
5312	14.767	3.6364	0.1	2225.5
5313	14.583	3.6364	0.1	2314.3
5314	14.398	3.6364	0.1	2415.6
5315	14.213	3.6364	0.1	2533.1
5316	14.029	3.6364	0.1	2672.
5317	13.844	3.6364	0.1	2838.9
5318	13.659	3.6364	0.1	3043.7
5319	13.475	3.6364	0.1	3300.7
5320	13.29	3.6364	0.1	3631.7
5321	13.105	3.6364	0.1	4072.5
5322	12.921	3.6364	0.1	4685.
5323	12.736	3.6364	0.1	5567.7
5324	12.551	3.6364	0.1	6795.9
5325	23.815	3.8182	0.1	39.727
5326	23.631	3.8182	0.1	78.456
5327	23.446	3.8182	0.1	117.2
5328	23.261	3.8182	0.1	155.81
5329	23.077	3.8182	0.1	194.32
5330	22.892	3.8182	0.1	232.78
5331	22.707	3.8182	0.1	271.24
5332	22.523	3.8182	0.1	309.74
5333	22.338	3.8182	0.1	348.3
5334	22.153	3.8182	0.1	386.97
5335	21.969	3.8182	0.1	425.77
5336	21.784	3.8182	0.1	464.7
5337	21.599	3.8182	0.1	503.8
5338	21.415	3.8182	0.1	543.06
5339	21.23	3.8182	0.1	582.49
5340	21.046	3.8182	0.1	622.12
5341	20.861	3.8182	0.1	661.92
5342	20.676	3.8182	0.1	701.92
5343	20.492	3.8182	0.1	742.12
5344	20.307	3.8182	0.1	782.51
5345	20.122	3.8182	0.1	823.1
5346	19.938	3.8182	0.1	863.88
5347	19.753	3.8182	0.1	904.87
5348	19.568	3.8182	0.1	946.05
5349	19.384	3.8182	0.1	987.44
5350	19.199	3.8182	0.1	1029.
5351	19.014	3.8182	0.1	1070.8
5352	18.83	3.8182	0.1	1112.8
5353	18.645	3.8182	0.1	1155.
5354	18.46	3.8182	0.1	1197.5
5355	18.276	3.8182	0.1	1240.2
5356	18.091	3.8182	0.1	1283.1
5357	17.906	3.8182	0.1	1326.3
5358	17.722	3.8182	0.1	1369.7
5359	17.537	3.8182	0.1	1413.5
5360	17.352	3.8182	0.1	1457.7
5361	17.168	3.8182	0.1	1502.2
5362	16.983	3.8182	0.1	1547.2
5363	16.798	3.8182	0.1	1592.8
5364	16.614	3.8182	0.1	1639.1
5365	16.429	3.8182	0.1	1686.2
5366	16.244	3.8182	0.1	1734.3
5367	16.06	3.8182	0.1	1783.7
5368	15.875	3.8182	0.1	1834.6
5369	15.69	3.8182	0.1	1887.4
5370	15.506	3.8182	0.1	1942.7
5371	15.321	3.8182	0.1	2001.
5372	15.137	3.8182	0.1	2063.2
5373	14.952	3.8182	0.1	2130.4
5374	14.767	3.8182	0.1	2203.7
5375	14.583	3.8182	0.1	2285.1
5376	14.398	3.8182	0.1	2376.7
5377	14.213	3.8182	0.1	2481.6
5378	14.029	3.8182	0.1	2604.1
5379	13.844	3.8182	0.1	2749.9
5380	13.659	3.8182	0.1	2927.7
5381	13.475	3.8182	0.1	3150.6
5382	13.29	3.8182	0.1	3440.5
5383	13.105	3.8182	0.1	3835.3
5384	12.921	3.8182	0.1	4412.8
5385	12.736	3.8182	0.1	5367.2
5386	12.551	3.8182	0.1	7191.8
5387	23.815	4.	0.1	39.764
5388	23.631	4.	0.1	78.387
5389	23.446	4.	0.1	117.03
5390	23.261	4.	0.1	155.54
5391	23.077	4.	0.1	193.97
5392	22.892	4.	0.1	232.37
5393	22.707	4.	0.1	270.79
5394	22.523	4.	0.1	309.26
5395	22.338	4.	0.1	347.83
5396	22.153	4.	0.1	386.52
5397	21.969	4.	0.1	425.35
5398	21.784	4.	0.1	464.33
5399	21.599	4.	0.1	503.47
5400	21.415	4.	0.1	542.79
5401	21.23	4.	0.1	582.29
5402	21.046	4.	0.1	621.98
5403	20.861	4.	0.1	661.85
5404	20.676	4.	0.1	701.92
5405	20.492	4.	0.1	742.18
5406	20.307	4.	0.1	782.63
5407	20.122	4.	0.1	823.28
5408	19.938	4.	0.1	864.12
5409	19.753	4.	0.1	905.16
5410	19.568	4.	0.1	946.4
5411	19.384	4.	0.1	987.84
5412	19.199	4.	0.1	1029.5
5413	19.014	4.	0.1	1071.3
5414	18.83	4.	0.1	1113.4
5415	18.645	4.	0.1	1155.6
5416	18.46	4.	0.1	1198.1
5417	18.276	4.	0.1	1240.8
5418	18.091	4.	0.1	1283.8
5419	17.906	4.	0.1	1326.9
5420	17.722	4.	0.1	1370.4
5421	17.537	4.	0.1	1414.2
5422	17.352	4.	0.1	1458.2
5423	17.168	4.	0.1	1502.7
5424	16.983	4.	0.1	1547.5
5425	16.798	4.	0.1	1592.9
5426	16.614	4.	0.1	1638.8
5427	16.429	4.	0.1	1685.4
5428	16.244	4.	0.1	1732.9
5429	16.06	4.	0.1	1781.3
5430	15.875	4.	0.1	1831.
5431	15.69	4.	0.1	1882.2
5432	15.506	4.	0.1	1935.4
5433	15.321	4.	0.1	1990.9
5434	15.137	4.	0.1	2049.3
5435	14.952	4.	0.1	2111.5
5436	14.767	4.	0.1	2178.4
5437	14.583	4.	0.1	2251.3
5438	14.398	4.	0.1	2331.8
5439	14.213	4.	0.1	2422.4
5440	14.029	4.	0.1	2526.2
5441	13.844	4.	0.1	2647.7
5442	13.659	4.	0.1	2793.9
5443	13.475	4.	0.1	2975.3
5444	13.29	4.	0.1	3209.7
5445	13.105	4.	0.1	3528.5
5446	12.921	4.	0.1	3999.8
5447	12.736	4.	0.1	4749.3
5448	12.551	4.	0.1	6955.5
5449	23.815	4.1818	0.1	39.802
5450	23.631	4.1818	0.1	78.288
5451	23.446	4.1818	0.1	116.81
5452	23.261	4.1818	0.1	155.19
5453	23.077	4.1818	0.1	193.53
5454	22.892	4.1818	0.1	231.85
5455	22.707	4.1818	0.1	270.23
5456	22.523	4.1818	0.1	308.69
5457	22.338	4.1818	0.1	347.27
5458	22.153	4.1818	0.1	385.99
5459	21.969	4.1818	0.1	424.86
5460	21.784	4.1818	0.1	463.9
5461	21.599	4.1818	0.1	503.11
5462	21.415	4.1818	0.1	542.51
5463	21.23	4.1818	0.1	582.08
5464	21.046	4.1818	0.1	621.84
5465	20.861	4.1818	0.1	661.8
5466	20.676	4.1818	0.1	701.94
5467	20.492	4.1818	0.1	742.27
5468	20.307	4.1818	0.1	782.8
5469	20.122	4.1818	0.1	823.52
5470	19.938	4.1818	0.1	864.43
5471	19.753	4.1818	0.1	905.54
5472	19.568	4.1818	0.1	946.85
5473	19.384	4.1818	0.1	988.35
5474	19.199	4.1818	0.1	1030.
5475	19.014	4.1818	0.1	1071.9
5476	18.83	4.1818	0.1	1114.
5477	18.645	4.1818	0.1	1156.4
5478	18.46	4.1818	0.1	1198.9
5479	18.276	4.1818	0.1	1241.6
5480	18.091	4.1818	0.1	1284.6
5481	17.906	4.1818	0.1	1327.8
5482	17.722	4.1818	0.1	1371.2
5483	17.537	4.1818	0.1	1414.9
5484	17.352	4.1818	0.1	1458.9
5485	17.168	4.1818	0.1	1503.2
5486	16.983	4.1818	0.1	1547.9
5487	16.798	4.1818	0.1	1593.
5488	16.614	4.1818	0.1	1638.5
5489	16.429	4.1818	0.1	1684.6
5490	16.244	4.1818	0.1	1731.3
5491	16.06	4.1818	0.1	1778.7
5492	15.875	4.1818	0.1	1827.1
5493	15.69	4.1818	0.1	1876.5
5494	15.506	4.1818	0.1	1927.2
5495	15.321	4.1818	0.1	1979.6
5496	15.137	4.1818	0.1	2033.9
5497	14.952	4.1818	0.1	2090.7
5498	14.767	4.1818	0.1	2150.5
5499	14.583	4.1818	0.1	2214.2
5500	14.398	4.1818	0.1	2282.9
5501	14.213	4.1818	0.1	2358.
5502	14.029	4.1818	0.1	2441.7
5503	13.844	4.1818	0.1	2537.1
5504	13.659	4.1818	0.1	2648.9
5505	13.475	4.1818	0.1	2784.5
5506	13.29	4.1818	0.1	2955.7
5507	13.105	4.1818	0.1	3181.7
5508	12.921	4.1818	0.1	3497.1
5509	12.736	4.1818	0.1	3980.2
5510	12.551	4.1818	0.1	4988.1
5511	23.815	4.3636	0.1	39.836
5512	23.631	4.3636	0.1	78.147
5513	23.446	4.3636	0.1	116.5
5514	23.261	4.3636	0.1	154.75
5515	23.077	4.3636	0.1	192.97
5516	22.892	4.3636	0.1	231.22
5517	22.707	4.3636	0.1	269.56
5518	22.523	4.3636	0.1	308.01
5519	22.338	4.3636	0.1	346.62
5520	22.153	4.3636	0.1	385.38
5521	21.969	4.3636	0.1	424.32
5522	21.784	4.3636	0.1	463.44
5523	21.599	4.3636	0.1	502.73
5524	21.415	4.3636	0.1	542.21
5525	21.23	4.3636	0.1	581.88
5526	21.046	4.3636	0.1	621.73
5527	20.861	4.3636	0.1	661.78
5528	20.676	4.3636	0.1	702.01
5529	20.492	4.3636	0.1	742.42
5530	20.307	4.3636	0.1	783.03
5531	20.122	4.3636	0.1	823.83
5532	19.938	4.3636	0.1	864.82
5533	19.753	4.3636	0.1	906.01
5534	19.568	4.3636	0.1	947.38
5535	19.384	4.3636	0.1	988.95
5536	19.199	4.3636	0.1	1030.7
5537	19.014	4.3636	0.1	1072.7
5538	18.83	4.3636	0.1	1114.8
5539	18.645	4.3636	0.1	1157.2
5540	18.46	4.3636	0.1	1199.8
5541	18.276	4.3636	0.1	1242.5
5542	18.091	4.3636	0.1	1285.5
5543	17.906	4.3636	0.1	1328.7
5544	17.722	4.3636	0.1	1372.1
5545	17.537	4.3636	0.1	1415.8
5546	17.352	4.3636	0.1	1459.7
5547	17.168	4.3636	0.1	1503.9
5548	16.983	4.3636	0.1	1548.4
5549	16.798	4.3636	0.1	1593.1
5550	16.614	4.3636	0.1	1638.2
5551	16.429	4.3636	0.1	1683.7
5552	16.244	4.3636	0.1	1729.6
5553	16.06	4.3636	0.1	1776.
5554	15.875	4.3636	0.1	1822.9
5555	15.69	4.3636	0.1	1870.4
5556	15.506	4.3636	0.1	1918.6
5557	15.321	4.3636	0.1	1967.6
5558	15.137	4.3636	0.1	2017.6
5559	14.952	4.3636	0.1	2068.7
5560	14.767	4.3636	0.1	2121.2
5561	14.583	4.3636	0.1	2175.3
5562	14.398	4.3636	0.1	2231.7
5563	14.213	4.3636	0.1	2290.8
5564	14.029	4.3636	0.1	2353.9
5565	13.844	4.3636	0.1	2422.5
5566	13.659	4.3636	0.1	2499.2
5567	13.475	4.3636	0.1	2587.9
5568	13.29	4.3636	0.1	2694.5
5569	13.105	4.3636	0.1	2827.1
5570	12.921	4.3636	0.1	2993.
5571	12.736	4.3636	0.1	3188.4
5572	12.551	4.3636	0.1	3429.1
5573	23.815	4.5455	0.1	39.857
5574	23.631	4.5455	0.1	77.947
5575	23.446	4.5455	0.1	116.1
5576	23.261	4.5455	0.1	154.18
5577	23.077	4.5455	0.1	192.28
5578	22.892	4.5455	0.1	230.46
5579	22.707	4.5455	0.1	268.77
5580	22.523	4.5455	0.1	307.24
5581	22.338	4.5455	0.1	345.89
5582	22.153	4.5455	0.1	384.73
5583	21.969	4.5455	0.1	423.75
5584	21.784	4.5455	0.1	462.96
5585	21.599	4.5455	0.1	502.36
5586	21.415	4.5455	0.1	541.94
5587	21.23	4.5455	0.1	581.71
5588	21.046	4.5455	0.1	621.67
5589	20.861	4.5455	0.1	661.81
5590	20.676	4.5455	0.1	702.14
5591	20.492	4.5455	0.1	742.65
5592	20.307	4.5455	0.1	783.35
5593	20.122	4.5455	0.1	824.24
5594	19.938	4.5455	0.1	865.32
5595	19.753	4.5455	0.1	906.58
5596	19.568	4.5455	0.1	948.03
5597	19.384	4.5455	0.1	989.67
5598	19.199	4.5455	0.1	1031.5
5599	19.014	4.5455	0.1	1073.5
5600	18.83	4.5455	0.1	1115.8
5601	18.645	4.5455	0.1	1158.2
5602	18.46	4.5455	0.1	1200.8
5603	18.276	4.5455	0.1	1243.6
5604	18.091	4.5455	0.1	1286.6
5605	17.906	4.5455	0.1	1329.8
5606	17.722	4.5455	0.1	1373.2
5607	17.537	4.5455	0.1	1416.8
5608	17.352	4.5455	0.1	1460.7
5609	17.168	4.5455	0.1	1504.7
5610	16.983	4.5455	0.1	1548.9
5611	16.798	4.5455	0.1	1593.4
5612	16.614	4.5455	0.1	1638.1
5613	16.429	4.5455	0.1	1682.9
5614	16.244	4.5455	0.1	1728.
5615	16.06	4.5455	0.1	1773.2
5616	15.875	4.5455	0.1	1818.6
5617	15.69	4.5455	0.1	1864.1
5618	15.506	4.5455	0.1	1909.7
5619	15.321	4.5455	0.1	1955.3
5620	15.137	4.5455	0.1	2000.9
5621	14.952	4.5455	0.1	2046.3
5622	14.767	4.5455	0.1	2091.3
5623	14.583	4.5455	0.1	2135.9
5624	14.398	4.5455	0.1	2179.9
5625	14.213	4.5455	0.1	2223.2
5626	14.029	4.5455	0.1	2265.9
5627	13.844	4.5455	0.1	2308.1
5628	13.659	4.5455	0.1	2350.4
5629	13.475	4.5455	0.1	2393.9
5630	13.29	4.5455	0.1	2440.
5631	13.105	4.5455	0.1	2489.1
5632	12.921	4.5455	0.1	2538.9
5633	12.736	4.5455	0.1	2567.5
5634	12.551	4.5455	0.1	2636.3
5635	23.815	4.7273	0.1	39.855
5636	23.631	4.7273	0.1	77.663
5637	23.446	4.7273	0.1	115.58
5638	23.261	4.7273	0.1	153.47
5639	23.077	4.7273	0.1	191.44
5640	22.892	4.7273	0.1	229.57
5641	22.707	4.7273	0.1	267.88
5642	22.523	4.7273	0.1	306.4
5643	22.338	4.7273	0.1	345.12
5644	22.153	4.7273	0.1	384.05
5645	21.969	4.7273	0.1	423.18
5646	21.784	4.7273	0.1	462.51
5647	21.599	4.7273	0.1	502.03
5648	21.415	4.7273	0.1	541.73
5649	21.23	4.7273	0.1	581.62
5650	21.046	4.7273	0.1	621.69
5651	20.861	4.7273	0.1	661.94
5652	20.676	4.7273	0.1	702.37
5653	20.492	4.7273	0.1	742.98
5654	20.307	4.7273	0.1	783.78
5655	20.122	4.7273	0.1	824.76
5656	19.938	4.7273	0.1	865.92
5657	19.753	4.7273	0.1	907.27
5658	19.568	4.7273	0.1	948.8
5659	19.384	4.7273	0.1	990.52
5660	19.199	4.7273	0.1	1032.4
5661	19.014	4.7273	0.1	1074.5
5662	18.83	4.7273	0.1	1116.8
5663	18.645	4.7273	0.1	1159.3
5664	18.46	4.7273	0.1	1201.9
5665	18.276	4.7273	0.1	1244.8
5666	18.091	4.7273	0.1	1287.8
5667	17.906	4.7273	0.1	1331.
5668	17.722	4.7273	0.1	1374.4
5669	17.537	4.7273	0.1	1418.
5670	17.352	4.7273	0.1	1461.7
5671	17.168	4.7273	0.1	1505.6
5672	16.983	4.7273	0.1	1549.6
5673	16.798	4.7273	0.1	1593.8
5674	16.614	4.7273	0.1	1638.
5675	16.429	4.7273	0.1	1682.2
5676	16.244	4.7273	0.1	1726.4
5677	16.06	4.7273	0.1	1770.5
5678	15.875	4.7273	0.1	1814.4
5679	15.69	4.7273	0.1	1857.9
5680	15.506	4.7273	0.1	1901.
5681	15.321	4.7273	0.1	1943.2
5682	15.137	4.7273	0.1	1984.4
5683	14.952	4.7273	0.1	2024.1
5684	14.767	4.7273	0.1	2061.9
5685	14.583	4.7273	0.1	2097.2
5686	14.398	4.7273	0.1	2129.3
5687	14.213	4.7273	0.1	2157.4
5688	14.029	4.7273	0.1	2180.5
5689	13.844	4.7273	0.1	2197.7
5690	13.659	4.7273	0.1	2207.9
5691	13.475	4.7273	0.1	2210.
5692	13.29	4.7273	0.1	2203.
5693	13.105	4.7273	0.1	2185.
5694	12.921	4.7273	0.1	2152.1
5695	12.736	4.7273	0.1	2098.8
5696	12.551	4.7273	0.1	2090.9
5697	23.815	4.9091	0.1	39.809
5698	23.631	4.9091	0.1	77.26
5699	23.446	4.9091	0.1	114.89
5700	23.261	4.9091	0.1	152.57
5701	23.077	4.9091	0.1	190.45
5702	22.892	4.9091	0.1	228.55
5703	22.707	4.9091	0.1	266.91
5704	22.523	4.9091	0.1	305.51
5705	22.338	4.9091	0.1	344.35
5706	22.153	4.9091	0.1	383.4
5707	21.969	4.9091	0.1	422.67
5708	21.784	4.9091	0.1	462.13
5709	21.599	4.9091	0.1	501.78
5710	21.415	4.9091	0.1	541.61
5711	21.23	4.9091	0.1	581.62
5712	21.046	4.9091	0.1	621.81
5713	20.861	4.9091	0.1	662.18
5714	20.676	4.9091	0.1	702.72
5715	20.492	4.9091	0.1	743.44
5716	20.307	4.9091	0.1	784.33
5717	20.122	4.9091	0.1	825.41
5718	19.938	4.9091	0.1	866.66
5719	19.753	4.9091	0.1	908.09
5720	19.568	4.9091	0.1	949.71
5721	19.384	4.9091	0.1	991.51
5722	19.199	4.9091	0.1	1033.5
5723	19.014	4.9091	0.1	1075.7
5724	18.83	4.9091	0.1	1118.
5725	18.645	4.9091	0.1	1160.5
5726	18.46	4.9091	0.1	1203.2
5727	18.276	4.9091	0.1	1246.1
5728	18.091	4.9091	0.1	1289.2
5729	17.906	4.9091	0.1	1332.4
5730	17.722	4.9091	0.1	1375.8
5731	17.537	4.9091	0.1	1419.3
5732	17.352	4.9091	0.1	1463.
5733	17.168	4.9091	0.1	1506.7
5734	16.983	4.9091	0.1	1550.5
5735	16.798	4.9091	0.1	1594.3
5736	16.614	4.9091	0.1	1638.
5737	16.429	4.9091	0.1	1681.7
5738	16.244	4.9091	0.1	1725.
5739	16.06	4.9091	0.1	1768.
5740	15.875	4.9091	0.1	1810.4
5741	15.69	4.9091	0.1	1852.1
5742	15.506	4.9091	0.1	1892.6
5743	15.321	4.9091	0.1	1931.6
5744	15.137	4.9091	0.1	1968.6
5745	14.952	4.9091	0.1	2003.
5746	14.767	4.9091	0.1	2034.
5747	14.583	4.9091	0.1	2060.5
5748	14.398	4.9091	0.1	2081.5
5749	14.213	4.9091	0.1	2095.4
5750	14.029	4.9091	0.1	2100.5
5751	13.844	4.9091	0.1	2094.9
5752	13.659	4.9091	0.1	2076.4
5753	13.475	4.9091	0.1	2042.5
5754	13.29	4.9091	0.1	1991.2
5755	13.105	4.9091	0.1	1921.3
5756	12.921	4.9091	0.1	1833.5
5757	12.736	4.9091	0.1	1733.2
5758	12.551	4.9091	0.1	1691.4
5759	23.815	5.0909	0.1	39.69
5760	23.631	5.0909	0.1	76.684
5761	23.446	5.0909	0.1	113.98
5762	23.261	5.0909	0.1	151.48
5763	23.077	5.0909	0.1	189.3
5764	22.892	5.0909	0.1	227.45
5765	22.707	5.0909	0.1	265.91
5766	22.523	5.0909	0.1	304.64
5767	22.338	5.0909	0.1	343.63
5768	22.153	5.0909	0.1	382.84
5769	21.969	5.0909	0.1	422.26
5770	21.784	5.0909	0.1	461.88
5771	21.599	5.0909	0.1	501.67
5772	21.415	5.0909	0.1	541.64
5773	21.23	5.0909	0.1	581.79
5774	21.046	5.0909	0.1	622.1
5775	20.861	5.0909	0.1	662.58
5776	20.676	5.0909	0.1	703.23
5777	20.492	5.0909	0.1	744.06
5778	20.307	5.0909	0.1	785.05
5779	20.122	5.0909	0.1	826.22
5780	19.938	5.0909	0.1	867.56
5781	19.753	5.0909	0.1	909.08
5782	19.568	5.0909	0.1	950.77
5783	19.384	5.0909	0.1	992.65
5784	19.199	5.0909	0.1	1034.7
5785	19.014	5.0909	0.1	1076.9
5786	18.83	5.0909	0.1	1119.3
5787	18.645	5.0909	0.1	1161.9
5788	18.46	5.0909	0.1	1204.7
5789	18.276	5.0909	0.1	1247.6
5790	18.091	5.0909	0.1	1290.7
5791	17.906	5.0909	0.1	1334.
5792	17.722	5.0909	0.1	1377.3
5793	17.537	5.0909	0.1	1420.8
5794	17.352	5.0909	0.1	1464.3
5795	17.168	5.0909	0.1	1507.9
5796	16.983	5.0909	0.1	1551.5
5797	16.798	5.0909	0.1	1595.
5798	16.614	5.0909	0.1	1638.3
5799	16.429	5.0909	0.1	1681.3
5800	16.244	5.0909	0.1	1723.9
5801	16.06	5.0909	0.1	1765.9
5802	15.875	5.0909	0.1	1806.9
5803	15.69	5.0909	0.1	1846.7
5804	15.506	5.0909	0.1	1884.9
5805	15.321	5.0909	0.1	1920.9
5806	15.137	5.0909	0.1	1954.1
5807	14.952	5.0909	0.1	1983.5
5808	14.767	5.0909	0.1	2008.2
5809	14.583	5.0909	0.1	2026.9
5810	14.398	5.0909	0.1	2037.8
5811	14.213	5.0909	0.1	2039.1
5812	14.029	5.0909	0.1	2028.3
5813	13.844	5.0909	0.1	2002.9
5814	13.659	5.0909	0.1	1959.7
5815	13.475	5.0909	0.1	1895.8
5816	13.29	5.0909	0.1	1808.9
5817	13.105	5.0909	0.1	1699.
5818	12.921	5.0909	0.1	1571.2
5819	12.736	5.0909	0.1	1439.7
5820	12.551	5.0909	0.1	1372.5
5821	23.815	5.2727	0.1	39.444
5822	23.631	5.2727	0.1	75.857
5823	23.446	5.2727	0.1	112.81
5824	23.261	5.2727	0.1	150.2
5825	23.077	5.2727	0.1	188.07
5826	22.892	5.2727	0.1	226.35
5827	22.707	5.2727	0.1	264.98
5828	22.523	5.2727	0.1	303.9
5829	22.338	5.2727	0.1	343.08
5830	22.153	5.2727	0.1	382.47
5831	21.969	5.2727	0.1	422.06
5832	21.784	5.2727	0.1	461.83
5833	21.599	5.2727	0.1	501.78
5834	21.415	5.2727	0.1	541.89
5835	21.23	5.2727	0.1	582.16
5836	21.046	5.2727	0.1	622.59
5837	20.861	5.2727	0.1	663.19
5838	20.676	5.2727	0.1	703.95
5839	20.492	5.2727	0.1	744.87
5840	20.307	5.2727	0.1	785.96
5841	20.122	5.2727	0.1	827.21
5842	19.938	5.2727	0.1	868.64
5843	19.753	5.2727	0.1	910.24
5844	19.568	5.2727	0.1	952.01
5845	19.384	5.2727	0.1	993.96
5846	19.199	5.2727	0.1	1036.1
5847	19.014	5.2727	0.1	1078.4
5848	18.83	5.2727	0.1	1120.9
5849	18.645	5.2727	0.1	1163.5
5850	18.46	5.2727	0.1	1206.3
5851	18.276	5.2727	0.1	1249.3
5852	18.091	5.2727	0.1	1292.4
5853	17.906	5.2727	0.1	1335.7
5854	17.722	5.2727	0.1	1379.
5855	17.537	5.2727	0.1	1422.4
5856	17.352	5.2727	0.1	1465.9
5857	17.168	5.2727	0.1	1509.4
5858	16.983	5.2727	0.1	1552.7
5859	16.798	5.2727	0.1	1595.9
5860	16.614	5.2727	0.1	1638.9
5861	16.429	5.2727	0.1	1681.3
5862	16.244	5.2727	0.1	1723.2
5863	16.06	5.2727	0.1	1764.2
5864	15.875	5.2727	0.1	1804.
5865	15.69	5.2727	0.1	1842.2
5866	15.506	5.2727	0.1	1878.2
5867	15.321	5.2727	0.1	1911.5
5868	15.137	5.2727	0.1	1941.3
5869	14.952	5.2727	0.1	1966.4
5870	14.767	5.2727	0.1	1985.5
5871	14.583	5.2727	0.1	1997.2
5872	14.398	5.2727	0.1	1999.5
5873	14.213	5.2727	0.1	1990.
5874	14.029	5.2727	0.1	1965.9
5875	13.844	5.2727	0.1	1924.
5876	13.659	5.2727	0.1	1860.8
5877	13.475	5.2727	0.1	1773.
5878	13.29	5.2727	0.1	1658.1
5879	13.105	5.2727	0.1	1516.8
5880	12.921	5.2727	0.1	1356.5
5881	12.736	5.2727	0.1	1196.7
5882	12.551	5.2727	0.1	1104.2
5883	23.815	5.4545	0.1	38.957
5884	23.631	5.4545	0.1	74.673
5885	23.446	5.4545	0.1	111.38
5886	23.261	5.4545	0.1	148.84
5887	23.077	5.4545	0.1	186.9
5888	22.892	5.4545	0.1	225.42
5889	22.707	5.4545	0.1	264.29
5890	22.523	5.4545	0.1	303.44
5891	22.338	5.4545	0.1	342.83
5892	22.153	5.4545	0.1	382.41
5893	21.969	5.4545	0.1	422.17
5894	21.784	5.4545	0.1	462.09
5895	21.599	5.4545	0.1	502.18
5896	21.415	5.4545	0.1	542.42
5897	21.23	5.4545	0.1	582.81
5898	21.046	5.4545	0.1	623.35
5899	20.861	5.4545	0.1	664.05
5900	20.676	5.4545	0.1	704.9
5901	20.492	5.4545	0.1	745.92
5902	20.307	5.4545	0.1	787.09
5903	20.122	5.4545	0.1	828.43
5904	19.938	5.4545	0.1	869.94
5905	19.753	5.4545	0.1	911.61
5906	19.568	5.4545	0.1	953.46
5907	19.384	5.4545	0.1	995.48
5908	19.199	5.4545	0.1	1037.7
5909	19.014	5.4545	0.1	1080.
5910	18.83	5.4545	0.1	1122.6
5911	18.645	5.4545	0.1	1165.3
5912	18.46	5.4545	0.1	1208.1
5913	18.276	5.4545	0.1	1251.1
5914	18.091	5.4545	0.1	1294.3
5915	17.906	5.4545	0.1	1337.5
5916	17.722	5.4545	0.1	1380.9
5917	17.537	5.4545	0.1	1424.3
5918	17.352	5.4545	0.1	1467.7
5919	17.168	5.4545	0.1	1511.
5920	16.983	5.4545	0.1	1554.2
5921	16.798	5.4545	0.1	1597.2
5922	16.614	5.4545	0.1	1639.7
5923	16.429	5.4545	0.1	1681.7
5924	16.244	5.4545	0.1	1723.
5925	16.06	5.4545	0.1	1763.1
5926	15.875	5.4545	0.1	1801.8
5927	15.69	5.4545	0.1	1838.5
5928	15.506	5.4545	0.1	1872.8
5929	15.321	5.4545	0.1	1903.8
5930	15.137	5.4545	0.1	1930.5
5931	14.952	5.4545	0.1	1951.9
5932	14.767	5.4545	0.1	1966.5
5933	14.583	5.4545	0.1	1972.4
5934	14.398	5.4545	0.1	1967.6
5935	14.213	5.4545	0.1	1949.3
5936	14.029	5.4545	0.1	1914.5
5937	13.844	5.4545	0.1	1859.8
5938	13.659	5.4545	0.1	1781.3
5939	13.475	5.4545	0.1	1675.5
5940	13.29	5.4545	0.1	1539.5
5941	13.105	5.4545	0.1	1373.7
5942	12.921	5.4545	0.1	1184.9
5943	12.736	5.4545	0.1	993.76
5944	12.551	5.4545	0.1	867.87
5945	23.815	5.6364	0.1	38.14
5946	23.631	5.6364	0.1	73.177
5947	23.446	5.6364	0.1	110.01
5948	23.261	5.6364	0.1	147.83
5949	23.077	5.6364	0.1	186.26
5950	22.892	5.6364	0.1	225.1
5951	22.707	5.6364	0.1	264.24
5952	22.523	5.6364	0.1	303.62
5953	22.338	5.6364	0.1	343.19
5954	22.153	5.6364	0.1	382.94
5955	21.969	5.6364	0.1	422.85
5956	21.784	5.6364	0.1	462.91
5957	21.599	5.6364	0.1	503.11
5958	21.415	5.6364	0.1	543.45
5959	21.23	5.6364	0.1	583.94
5960	21.046	5.6364	0.1	624.58
5961	20.861	5.6364	0.1	665.36
5962	20.676	5.6364	0.1	706.29
5963	20.492	5.6364	0.1	747.38
5964	20.307	5.6364	0.1	788.62
5965	20.122	5.6364	0.1	830.03
5966	19.938	5.6364	0.1	871.6
5967	19.753	5.6364	0.1	913.33
5968	19.568	5.6364	0.1	955.24
5969	19.384	5.6364	0.1	997.32
5970	19.199	5.6364	0.1	1039.6
5971	19.014	5.6364	0.1	1082.
5972	18.83	5.6364	0.1	1124.6
5973	18.645	5.6364	0.1	1167.3
5974	18.46	5.6364	0.1	1210.2
5975	18.276	5.6364	0.1	1253.3
5976	18.091	5.6364	0.1	1296.4
5977	17.906	5.6364	0.1	1339.7
5978	17.722	5.6364	0.1	1383.
5979	17.537	5.6364	0.1	1426.4
5980	17.352	5.6364	0.1	1469.7
5981	17.168	5.6364	0.1	1513.
5982	16.983	5.6364	0.1	1556.
5983	16.798	5.6364	0.1	1598.8
5984	16.614	5.6364	0.1	1641.1
5985	16.429	5.6364	0.1	1682.7
5986	16.244	5.6364	0.1	1723.3
5987	16.06	5.6364	0.1	1762.8
5988	15.875	5.6364	0.1	1800.5
5989	15.69	5.6364	0.1	1836.1
5990	15.506	5.6364	0.1	1868.9
5991	15.321	5.6364	0.1	1897.9
5992	15.137	5.6364	0.1	1922.3
5993	14.952	5.6364	0.1	1940.8
5994	14.767	5.6364	0.1	1951.6
5995	14.583	5.6364	0.1	1953.1
5996	14.398	5.6364	0.1	1942.7
5997	14.213	5.6364	0.1	1917.8
5998	14.029	5.6364	0.1	1875.2
5999	13.844	5.6364	0.1	1811.2
6000	13.659	5.6364	0.1	1722.
6001	13.475	5.6364	0.1	1603.8
6002	13.29	5.6364	0.1	1453.5
6003	13.105	5.6364	0.1	1270.3
6004	12.921	5.6364	0.1	1057.6
6005	12.736	5.6364	0.1	830.52
6006	12.551	5.6364	0.1	652.44
6007	23.815	5.8182	0.1	37.135
6008	23.631	5.8182	0.1	73.045
6009	23.446	5.8182	0.1	111.
6010	23.261	5.8182	0.1	149.59
6011	23.077	5.8182	0.1	188.56
6012	22.892	5.8182	0.1	227.79
6013	22.707	5.8182	0.1	267.23
6014	22.523	5.8182	0.1	306.83
6015	22.338	5.8182	0.1	346.59
6016	22.153	5.8182	0.1	386.48
6017	21.969	5.8182	0.1	426.5
6018	21.784	5.8182	0.1	466.65
6019	21.599	5.8182	0.1	506.92
6020	21.415	5.8182	0.1	547.33
6021	21.23	5.8182	0.1	587.86
6022	21.046	5.8182	0.1	628.53
6023	20.861	5.8182	0.1	669.34
6024	20.676	5.8182	0.1	710.3
6025	20.492	5.8182	0.1	751.4
6026	20.307	5.8182	0.1	792.65
6027	20.122	5.8182	0.1	834.07
6028	19.938	5.8182	0.1	875.64
6029	19.753	5.8182	0.1	917.37
6030	19.568	5.8182	0.1	959.28
6031	19.384	5.8182	0.1	1001.3
6032	19.199	5.8182	0.1	1043.6
6033	19.014	5.8182	0.1	1086.
6034	18.83	5.8182	0.1	1128.6
6035	18.645	5.8182	0.1	1171.3
6036	18.46	5.8182	0.1	1214.2
6037	18.276	5.8182	0.1	1257.2
6038	18.091	5.8182	0.1	1300.3
6039	17.906	5.8182	0.1	1343.6
6040	17.722	5.8182	0.1	1386.8
6041	17.537	5.8182	0.1	1430.1
6042	17.352	5.8182	0.1	1473.4
6043	17.168	5.8182	0.1	1516.5
6044	16.983	5.8182	0.1	1559.4
6045	16.798	5.8182	0.1	1601.9
6046	16.614	5.8182	0.1	1643.9
6047	16.429	5.8182	0.1	1685.1
6048	16.244	5.8182	0.1	1725.3
6049	16.06	5.8182	0.1	1764.2
6050	15.875	5.8182	0.1	1801.2
6051	15.69	5.8182	0.1	1835.9
6052	15.506	5.8182	0.1	1867.5
6053	15.321	5.8182	0.1	1895.1
6054	15.137	5.8182	0.1	1917.7
6055	14.952	5.8182	0.1	1933.9
6056	14.767	5.8182	0.1	1942.2
6057	14.583	5.8182	0.1	1940.4
6058	14.398	5.8182	0.1	1926.3
6059	14.213	5.8182	0.1	1897.1
6060	14.029	5.8182	0.1	1849.5
6061	13.844	5.8182	0.1	1779.9
6062	13.659	5.8182	0.1	1684.6
6063	13.475	5.8182	0.1	1559.9
6064	13.29	5.8182	0.1	1402.6
6065	13.105	5.8182	0.1	1210.6
6066	12.921	5.8182	0.1	984.24
6067	12.736	5.8182	0.1	727.25
6068	12.551	5.8182	0.1	469.5
6069	0.18485	0.18182	0.1	3896.1
6070	0.18485	0.36364	0.1	4491.1
6071	0.18485	0.54545	0.1	5182.8
6072	0.18485	0.72727	0.1	5712.8
6073	0.18485	0.90909	0.1	6111.6
6074	0.18485	1.0909	0.1	6412.
6075	0.18485	1.2727	0.1	6642.1
6076	0.18485	1.4545	0.1	6820.6
6077	0.18485	1.6364	0.1	6960.2
6078	0.18485	1.8182	0.1	7069.7
6079	0.18485	2.	0.1	7155.4
6080	0.18485	2.1818	0.1	7221.5
6081	0.18485	2.3636	0.1	7271.3
6082	0.18485	2.5455	0.1	7307.
6083	0.18485	2.7273	0.1	7329.9
6084	0.18485	2.9091	0.1	7341.2
6085	0.18485	3.0909	0.1	7341.2
6086	0.18485	3.2727	0.1	7329.9
6087	0.18485	3.4545	0.1	7307.
6088	0.18485	3.6364	0.1	7271.3
6089	0.18485	3.8182	0.1	7221.5
6090	0.18485	4.	0.1	7155.4
6091	0.18485	4.1818	0.1	7069.7
6092	0.18485	4.3636	0.1	6960.2
6093	0.18485	4.5455	0.1	6820.6
6094	0.18485	4.7273	0.1	6642.1
6095	0.18485	4.9091	0.1	6412.
6096	0.18485	5.0909	0.1	6111.6
6097	0.18485	5.2727	0.1	5712.8
6098	0.18485	5.4545	0.1	5182.8
6099	0.18485	5.6364	0.1	4491.1
6100	0.18485	5.8182	0.1	3896.1
6101	0.3697	0.18182	0.1	5037.7
6102	0.3697	0.36364	0.1	5166.6
6103	0.3697	0.54545	0.1	5458.6
6104	0.3697	0.72727	0.1	5783.9
6105	0.3697	0.90909	0.1	6083.
6106	0.3697	1.0909	0.1	6338.3
6107	0.3697	1.2727	0.1	6549.6
6108	0.3697	1.4545	0.1	6722.1
6109	0.3697	1.6364	0.1	6861.9
6110	0.3697	1.8182	0.1	6974.5
6111	0.3697	2.	0.1	7064.1
6112	0.3697	2.1818	0.1	7134.4
6113	0.3697	2.3636	0.1	7187.8
6114	0.3697	2.5455	0.1	7226.3
6115	0.3697	2.7273	0.1	7251.2
6116	0.3697	2.9091	0.1	7263.5
6117	0.3697	3.0909	0.1	7263.5
6118	0.3697	3.2727	0.1	7251.2
6119	0.3697	3.4545	0.1	7226.3
6120	0.3697	3.6364	0.1	7187.8
6121	0.3697	3.8182	0.1	7134.4
6122	0.3697	4.	0.1	7064.1
6123	0.3697	4.1818	0.1	6974.5
6124	0.3697	4.3636	0.1	6861.9
6125	0.3697	4.5455	0.1	6722.1
6126	0.3697	4.7273	0.1	6549.6
6127	0.3697	4.9091	0.1	6338.3
6128	0.3697	5.0909	0.1	6083.
6129	0.3697	5.2727	0.1	5783.9
6130	0.3697	5.4545	0.1	5458.6
6131	0.3697	5.6364	0.1	5166.6
6132	0.3697	5.8182	0.1	5037.7
6133	0.55455	0.18182	0.1	5532.9
6134	0.55455	0.36364	0.1	5527.3
6135	0.55455	0.54545	0.1	5638.3
6136	0.55455	0.72727	0.1	5802.6
6137	0.55455	0.90909	0.1	5987.3
6138	0.55455	1.0909	0.1	6168.4
6139	0.55455	1.2727	0.1	6333.6
6140	0.55455	1.4545	0.1	6478.1
6141	0.55455	1.6364	0.1	6601.1
6142	0.55455	1.8182	0.1	6703.8
6143	0.55455	2.	0.1	6787.8
6144	0.55455	2.1818	0.1	6854.9
6145	0.55455	2.3636	0.1	6906.7
6146	0.55455	2.5455	0.1	6944.4
6147	0.55455	2.7273	0.1	6969.1
6148	0.55455	2.9091	0.1	6981.3
6149	0.55455	3.0909	0.1	6981.3
6150	0.55455	3.2727	0.1	6969.1
6151	0.55455	3.4545	0.1	6944.4
6152	0.55455	3.6364	0.1	6906.7
6153	0.55455	3.8182	0.1	6854.9
6154	0.55455	4.	0.1	6787.8
6155	0.55455	4.1818	0.1	6703.8
6156	0.55455	4.3636	0.1	6601.1
6157	0.55455	4.5455	0.1	6478.1
6158	0.55455	4.7273	0.1	6333.6
6159	0.55455	4.9091	0.1	6168.4
6160	0.55455	5.0909	0.1	5987.3
6161	0.55455	5.2727	0.1	5802.6
6162	0.55455	5.4545	0.1	5638.3
6163	0.55455	5.6364	0.1	5527.3
6164	0.55455	5.8182	0.1	5532.9
6165	0.73939	0.18182	0.1	5816.
6166	0.73939	0.36364	0.1	5773.1
6167	0.73939	0.54545	0.1	5810.2
6168	0.73939	0.72727	0.1	5888.5
6169	0.73939	0.90909	0.1	5993.8
6170	0.73939	1.0909	0.1	6111.3
6171	0.73939	1.2727	0.1	6229.5
6172	0.73939	1.4545	0.1	6340.7
6173	0.73939	1.6364	0.1	6440.9
6174	0.73939	1.8182	0.1	6528.
6175	0.73939	2.	0.1	6601.6
6176	0.73939	2.1818	0.1	6661.9
6177	0.73939	2.3636	0.1	6709.2
6178	0.73939	2.5455	0.1	6744.1
6179	0.73939	2.7273	0.1	6767.2
6180	0.73939	2.9091	0.1	6778.6
6181	0.73939	3.0909	0.1	6778.6
6182	0.73939	3.2727	0.1	6767.2
6183	0.73939	3.4545	0.1	6744.1
6184	0.73939	3.6364	0.1	6709.2
6185	0.73939	3.8182	0.1	6661.9
6186	0.73939	4.	0.1	6601.6
6187	0.73939	4.1818	0.1	6528.
6188	0.73939	4.3636	0.1	6440.9
6189	0.73939	4.5455	0.1	6340.7
6190	0.73939	4.7273	0.1	6229.5
6191	0.73939	4.9091	0.1	6111.3
6192	0.73939	5.0909	0.1	5993.8
6193	0.73939	5.2727	0.1	5888.5
6194	0.73939	5.4545	0.1	5810.2
6195	0.73939	5.6364	0.1	5773.1
6196	0.73939	5.8182	0.1	5816.
6197	0.92424	0.18182	0.1	5967.4
6198	0.92424	0.36364	0.1	5910.9
6199	0.92424	0.54545	0.1	5912.3
6200	0.92424	0.72727	0.1	5943.4
6201	0.92424	0.90909	0.1	5997.9
6202	0.92424	1.0909	0.1	6068.2
6203	0.92424	1.2727	0.1	6146.5
6204	0.92424	1.4545	0.1	6225.9
6205	0.92424	1.6364	0.1	6301.7
6206	0.92424	1.8182	0.1	6370.7
6207	0.92424	2.	0.1	6431.1
6208	0.92424	2.1818	0.1	6481.8
6209	0.92424	2.3636	0.1	6522.5
6210	0.92424	2.5455	0.1	6553.
6211	0.92424	2.7273	0.1	6573.3
6212	0.92424	2.9091	0.1	6583.4
6213	0.92424	3.0909	0.1	6583.4
6214	0.92424	3.2727	0.1	6573.3
6215	0.92424	3.4545	0.1	6553.
6216	0.92424	3.6364	0.1	6522.5
6217	0.92424	3.8182	0.1	6481.8
6218	0.92424	4.	0.1	6431.1
6219	0.92424	4.1818	0.1	6370.7
6220	0.92424	4.3636	0.1	6301.7
6221	0.92424	4.5455	0.1	6225.9
6222	0.92424	4.7273	0.1	6146.5
6223	0.92424	4.9091	0.1	6068.2
6224	0.92424	5.0909	0.1	5997.9
6225	0.92424	5.2727	0.1	5943.4
6226	0.92424	5.4545	0.1	5912.3
6227	0.92424	5.6364	0.1	5910.9
6228	0.92424	5.8182	0.1	5967.4
6229	1.1091	0.18182	0.1	6045.5
6230	1.1091	0.36364	0.1	5986.3
6231	1.1091	0.54545	0.1	5970.3
6232	1.1091	0.72727	0.1	5975.3
6233	1.1091	0.90909	0.1	5998.8
6234	1.1091	1.0909	0.1	6036.7
6235	1.1091	1.2727	0.1	6084.5
6236	1.1091	1.4545	0.1	6137.3
6237	1.1091	1.6364	0.1	6190.9
6238	1.1091	1.8182	0.1	6242.2
6239	1.1091	2.	0.1	6288.8
6240	1.1091	2.1818	0.1	6329.2
6241	1.1091	2.3636	0.1	6362.3
6242	1.1091	2.5455	0.1	6387.4
6243	1.1091	2.7273	0.1	6404.4
6244	1.1091	2.9091	0.1	6412.9
6245	1.1091	3.0909	0.1	6412.9
6246	1.1091	3.2727	0.1	6404.4
6247	1.1091	3.4545	0.1	6387.4
6248	1.1091	3.6364	0.1	6362.3
6249	1.1091	3.8182	0.1	6329.2
6250	1.1091	4.	0.1	6288.8
6251	1.1091	4.1818	0.1	6242.2
6252	1.1091	4.3636	0.1	6190.9
6253	1.1091	4.5455	0.1	6137.3
6254	1.1091	4.7273	0.1	6084.5
6255	1.1091	4.9091	0.1	6036.7
6256	1.1091	5.0909	0.1	5998.8
6257	1.1091	5.2727	0.1	5975.3
6258	1.1091	5.4545	0.1	5970.3
6259	1.1091	5.6364	0.1	5986.3
6260	1.1091	5.8182	0.1	6045.5
6261	1.2939	0.18182	0.1	6076.
6262	1.2939	0.36364	0.1	6017.9
6263	1.2939	0.54545	0.1	5992.9
6264	1.2939	0.72727	0.1	5983.1
6265	1.2939	0.90909	0.1	5987.2
6266	1.2939	1.0909	0.1	6003.5
6267	1.2939	1.2727	0.1	6029.1
6268	1.2939	1.4545	0.1	6061.1
6269	1.2939	1.6364	0.1	6096.2
6270	1.2939	1.8182	0.1	6131.8
6271	1.2939	2.	0.1	6165.5
6272	1.2939	2.1818	0.1	6195.6
6273	1.2939	2.3636	0.1	6220.9
6274	1.2939	2.5455	0.1	6240.5
6275	1.2939	2.7273	0.1	6253.8
6276	1.2939	2.9091	0.1	6260.6
6277	1.2939	3.0909	0.1	6260.6
6278	1.2939	3.2727	0.1	6253.8
6279	1.2939	3.4545	0.1	6240.5
6280	1.2939	3.6364	0.1	6220.9
6281	1.2939	3.8182	0.1	6195.6
6282	1.2939	4.	0.1	6165.5
6283	1.2939	4.1818	0.1	6131.8
6284	1.2939	4.3636	0.1	6096.2
6285	1.2939	4.5455	0.1	6061.1
6286	1.2939	4.7273	0.1	6029.1
6287	1.2939	4.9091	0.1	6003.5
6288	1.2939	5.0909	0.1	5987.2
6289	1.2939	5.2727	0.1	5983.1
6290	1.2939	5.4545	0.1	5992.9
6291	1.2939	5.6364	0.1	6017.9
6292	1.2939	5.8182	0.1	6076.
6293	1.4788	0.18182	0.1	6075.3
6294	1.4788	0.36364	0.1	6020.
6295	1.4788	0.54545	0.1	5990.6
6296	1.4788	0.72727	0.1	5972.2
6297	1.4788	0.90909	0.1	5964.3
6298	1.4788	1.0909	0.1	5966.1
6299	1.4788	1.2727	0.1	5976.1
6300	1.4788	1.4545	0.1	5992.5
6301	1.4788	1.6364	0.1	6012.9
6302	1.4788	1.8182	0.1	6035.3
6303	1.4788	2.	0.1	6057.7
6304	1.4788	2.1818	0.1	6078.5
6305	1.4788	2.3636	0.1	6096.6
6306	1.4788	2.5455	0.1	6110.9
6307	1.4788	2.7273	0.1	6120.7
6308	1.4788	2.9091	0.1	6125.8
6309	1.4788	3.0909	0.1	6125.8
6310	1.4788	3.2727	0.1	6120.7
6311	1.4788	3.4545	0.1	6110.9
6312	1.4788	3.6364	0.1	6096.6
6313	1.4788	3.8182	0.1	6078.5
6314	1.4788	4.	0.1	6057.7
6315	1.4788	4.1818	0.1	6035.3
6316	1.4788	4.3636	0.1	6012.9
6317	1.4788	4.5455	0.1	5992.5
6318	1.4788	4.7273	0.1	5976.1
6319	1.4788	4.9091	0.1	5966.1
6320	1.4788	5.0909	0.1	5964.3
6321	1.4788	5.2727	0.1	5972.2
6322	1.4788	5.4545	0.1	5990.6
6323	1.4788	5.6364	0.1	6020.
6324	1.4788	5.8182	0.1	6075.3
6325	1.6636	0.18182	0.1	6053.2
6326	1.6636	0.36364	0.1	6001.3
6327	1.6636	0.54545	0.1	5969.9
6328	1.6636	0.72727	0.1	5946.6
6329	1.6636	0.90909	0.1	5931.2
6330	1.6636	1.0909	0.1	5923.5
6331	1.6636	1.2727	0.1	5922.7
6332	1.6636	1.4545	0.1	5927.6
6333	1.6636	1.6364	0.1	5936.7
6334	1.6636	1.8182	0.1	5948.6
6335	1.6636	2.	0.1	5961.6
6336	1.6636	2.1818	0.1	5974.6
6337	1.6636	2.3636	0.1	5986.2
6338	1.6636	2.5455	0.1	5995.7
6339	1.6636	2.7273	0.1	6002.4
6340	1.6636	2.9091	0.1	6005.9
6341	1.6636	3.0909	0.1	6005.9
6342	1.6636	3.2727	0.1	6002.4
6343	1.6636	3.4545	0.1	5995.7
6344	1.6636	3.6364	0.1	5986.2
6345	1.6636	3.8182	0.1	5974.6
6346	1.6636	4.	0.1	5961.6
6347	1.6636	4.1818	0.1	5948.6
6348	1.6636	4.3636	0.1	5936.7
6349	1.6636	4.5455	0.1	5927.6
6350	1.6636	4.7273	0.1	5922.7
6351	1.6636	4.9091	0.1	5923.5
6352	1.6636	5.0909	0.1	5931.2
6353	1.6636	5.2727	0.1	5946.6
6354	1.6636	5.4545	0.1	5969.9
6355	1.6636	5.6364	0.1	6001.3
6356	1.6636	5.8182	0.1	6053.2
6357	1.8485	0.18182	0.1	6016.4
6358	1.8485	0.36364	0.1	5968.
6359	1.8485	0.54545	0.1	5936.
6360	1.8485	0.72727	0.1	5910.
6361	1.8485	0.90909	0.1	5890.1
6362	1.8485	1.0909	0.1	5876.1
6363	1.8485	1.2727	0.1	5867.9
6364	1.8485	1.4545	0.1	5864.6
6365	1.8485	1.6364	0.1	5865.3
6366	1.8485	1.8182	0.1	5869.1
6367	1.8485	2.	0.1	5874.7
6368	1.8485	2.1818	0.1	5881.1
6369	1.8485	2.3636	0.1	5887.4
6370	1.8485	2.5455	0.1	5892.8
6371	1.8485	2.7273	0.1	5896.8
6372	1.8485	2.9091	0.1	5898.8
6373	1.8485	3.0909	0.1	5898.8
6374	1.8485	3.2727	0.1	5896.8
6375	1.8485	3.4545	0.1	5892.8
6376	1.8485	3.6364	0.1	5887.4
6377	1.8485	3.8182	0.1	5881.1
6378	1.8485	4.	0.1	5874.7
6379	1.8485	4.1818	0.1	5869.1
6380	1.8485	4.3636	0.1	5865.3
6381	1.8485	4.5455	0.1	5864.6
6382	1.8485	4.7273	0.1	5867.9
6383	1.8485	4.9091	0.1	5876.1
6384	1.8485	5.0909	0.1	5890.1
6385	1.8485	5.2727	0.1	5910.
6386	1.8485	5.4545	0.1	5936.
6387	1.8485	5.6364	0.1	5968.
6388	1.8485	5.8182	0.1	6016.4
6389	2.0333	0.18182	0.1	5969.1
6390	2.0333	0.36364	0.1	5924.3
6391	2.0333	0.54545	0.1	5892.5
6392	2.0333	0.72727	0.1	5865.3
6393	2.0333	0.90909	0.1	5842.7
6394	2.0333	1.0909	0.1	5824.8
6395	2.0333	1.2727	0.1	5811.5
6396	2.0333	1.4545	0.1	5802.4
6397	2.0333	1.6364	0.1	5797.1
6398	2.0333	1.8182	0.1	5794.8
6399	2.0333	2.	0.1	5794.7
6400	2.0333	2.1818	0.1	5796.
6401	2.0333	2.3636	0.1	5798.
6402	2.0333	2.5455	0.1	5800.1
6403	2.0333	2.7273	0.1	5801.7
6404	2.0333	2.9091	0.1	5802.6
6405	2.0333	3.0909	0.1	5802.6
6406	2.0333	3.2727	0.1	5801.7
6407	2.0333	3.4545	0.1	5800.1
6408	2.0333	3.6364	0.1	5798.
6409	2.0333	3.8182	0.1	5796.
6410	2.0333	4.	0.1	5794.7
6411	2.0333	4.1818	0.1	5794.8
6412	2.0333	4.3636	0.1	5797.1
6413	2.0333	4.5455	0.1	5802.4
6414	2.0333	4.7273	0.1	5811.5
6415	2.0333	4.9091	0.1	5824.8
6416	2.0333	5.0909	0.1	5842.7
6417	2.0333	5.2727	0.1	5865.3
6418	2.0333	5.4545	0.1	5892.5
6419	2.0333	5.6364	0.1	5924.3
6420	2.0333	5.8182	0.1	5969.1
6421	2.2182	0.18182	0.1	5914.6
6422	2.2182	0.36364	0.1	5873.1
6423	2.2182	0.54545	0.1	5842.1
6424	2.2182	0.72727	0.1	5814.5
6425	2.2182	0.90909	0.1	5790.5
6426	2.2182	1.0909	0.1	5770.2
6427	2.2182	1.2727	0.1	5753.6
6428	2.2182	1.4545	0.1	5740.7
6429	2.2182	1.6364	0.1	5731.1
6430	2.2182	1.8182	0.1	5724.4
6431	2.2182	2.	0.1	5720.
6432	2.2182	2.1818	0.1	5717.4
6433	2.2182	2.3636	0.1	5716.1
6434	2.2182	2.5455	0.1	5715.5
6435	2.2182	2.7273	0.1	5715.4
6436	2.2182	2.9091	0.1	5715.4
6437	2.2182	3.0909	0.1	5715.4
6438	2.2182	3.2727	0.1	5715.4
6439	2.2182	3.4545	0.1	5715.5
6440	2.2182	3.6364	0.1	5716.1
6441	2.2182	3.8182	0.1	5717.4
6442	2.2182	4.	0.1	5720.
6443	2.2182	4.1818	0.1	5724.4
6444	2.2182	4.3636	0.1	5731.1
6445	2.2182	4.5455	0.1	5740.7
6446	2.2182	4.7273	0.1	5753.6
6447	2.2182	4.9091	0.1	5770.2
6448	2.2182	5.0909	0.1	5790.5
6449	2.2182	5.2727	0.1	5814.5
6450	2.2182	5.4545	0.1	5842.1
6451	2.2182	5.6364	0.1	5873.1
6452	2.2182	5.8182	0.1	5914.6
6453	2.403	0.18182	0.1	5855.
6454	2.403	0.36364	0.1	5816.6
6455	2.403	0.54545	0.1	5786.7
6456	2.403	0.72727	0.1	5759.4
6457	2.403	0.90909	0.1	5734.8
6458	2.403	1.0909	0.1	5713.2
6459	2.403	1.2727	0.1	5694.7
6460	2.403	1.4545	0.1	5679.3
6461	2.403	1.6364	0.1	5666.8
6462	2.403	1.8182	0.1	5657.
6463	2.403	2.	0.1	5649.5
6464	2.403	2.1818	0.1	5644.1
6465	2.403	2.3636	0.1	5640.2
6466	2.403	2.5455	0.1	5637.7
6467	2.403	2.7273	0.1	5636.2
6468	2.403	2.9091	0.1	5635.5
6469	2.403	3.0909	0.1	5635.5
6470	2.403	3.2727	0.1	5636.2
6471	2.403	3.4545	0.1	5637.7
6472	2.403	3.6364	0.1	5640.2
6473	2.403	3.8182	0.1	5644.1
6474	2.403	4.	0.1	5649.5
6475	2.403	4.1818	0.1	5657.
6476	2.403	4.3636	0.1	5666.8
6477	2.403	4.5455	0.1	5679.3
6478	2.403	4.7273	0.1	5694.7
6479	2.403	4.9091	0.1	5713.2
6480	2.403	5.0909	0.1	5734.8
6481	2.403	5.2727	0.1	5759.4
6482	2.403	5.4545	0.1	5786.7
6483	2.403	5.6364	0.1	5816.6
6484	2.403	5.8182	0.1	5855.
6485	2.5879	0.18182	0.1	5791.9
6486	2.5879	0.36364	0.1	5756.5
6487	2.5879	0.54545	0.1	5727.8
6488	2.5879	0.72727	0.1	5701.2
6489	2.5879	0.90909	0.1	5676.7
6490	2.5879	1.0909	0.1	5654.6
6491	2.5879	1.2727	0.1	5635.
6492	2.5879	1.4545	0.1	5618.
6493	2.5879	1.6364	0.1	5603.7
6494	2.5879	1.8182	0.1	5591.8
6495	2.5879	2.	0.1	5582.2
6496	2.5879	2.1818	0.1	5574.8
6497	2.5879	2.3636	0.1	5569.2
6498	2.5879	2.5455	0.1	5565.2
6499	2.5879	2.7273	0.1	5562.7
6500	2.5879	2.9091	0.1	5561.4
6501	2.5879	3.0909	0.1	5561.4
6502	2.5879	3.2727	0.1	5562.7
6503	2.5879	3.4545	0.1	5565.2
6504	2.5879	3.6364	0.1	5569.2
6505	2.5879	3.8182	0.1	5574.8
6506	2.5879	4.	0.1	5582.2
6507	2.5879	4.1818	0.1	5591.8
6508	2.5879	4.3636	0.1	5603.7
6509	2.5879	4.5455	0.1	5618.
6510	2.5879	4.7273	0.1	5635.
6511	2.5879	4.9091	0.1	5654.6
6512	2.5879	5.0909	0.1	5676.7
6513	2.5879	5.2727	0.1	5701.2
6514	2.5879	5.4545	0.1	5727.8
6515	2.5879	5.6364	0.1	5756.5
6516	2.5879	5.8182	0.1	5791.9
6517	2.7727	0.18182	0.1	5726.5
6518	2.7727	0.36364	0.1	5693.8
6519	2.7727	0.54545	0.1	5666.6
6520	2.7727	0.72727	0.1	5640.8
6521	2.7727	0.90909	0.1	5616.8
6522	2.7727	1.0909	0.1	5594.7
6523	2.7727	1.2727	0.1	5574.7
6524	2.7727	1.4545	0.1	5557.
6525	2.7727	1.6364	0.1	5541.6
6526	2.7727	1.8182	0.1	5528.4
6527	2.7727	2.	0.1	5517.5
6528	2.7727	2.1818	0.1	5508.7
6529	2.7727	2.3636	0.1	5501.9
6530	2.7727	2.5455	0.1	5497.
6531	2.7727	2.7273	0.1	5493.7
6532	2.7727	2.9091	0.1	5492.2
6533	2.7727	3.0909	0.1	5492.2
6534	2.7727	3.2727	0.1	5493.7
6535	2.7727	3.4545	0.1	5497.
6536	2.7727	3.6364	0.1	5501.9
6537	2.7727	3.8182	0.1	5508.7
6538	2.7727	4.	0.1	5517.5
6539	2.7727	4.1818	0.1	5528.4
6540	2.7727	4.3636	0.1	5541.6
6541	2.7727	4.5455	0.1	5557.
6542	2.7727	4.7273	0.1	5574.7
6543	2.7727	4.9091	0.1	5594.7
6544	2.7727	5.0909	0.1	5616.8
6545	2.7727	5.2727	0.1	5640.8
6546	2.7727	5.4545	0.1	5666.6
6547	2.7727	5.6364	0.1	5693.8
6548	2.7727	5.8182	0.1	5726.5
6549	2.9576	0.18182	0.1	5659.7
6550	2.9576	0.36364	0.1	5629.5
6551	2.9576	0.54545	0.1	5603.7
6552	2.9576	0.72727	0.1	5579.
6553	2.9576	0.90909	0.1	5555.8
6554	2.9576	1.0909	0.1	5534.1
6555	2.9576	1.2727	0.1	5514.1
6556	2.9576	1.4545	0.1	5496.2
6557	2.9576	1.6364	0.1	5480.3
6558	2.9576	1.8182	0.1	5466.5
6559	2.9576	2.	0.1	5454.8
6560	2.9576	2.1818	0.1	5445.2
6561	2.9576	2.3636	0.1	5437.7
6562	2.9576	2.5455	0.1	5432.1
6563	2.9576	2.7273	0.1	5428.4
6564	2.9576	2.9091	0.1	5426.6
6565	2.9576	3.0909	0.1	5426.6
6566	2.9576	3.2727	0.1	5428.4
6567	2.9576	3.4545	0.1	5432.1
6568	2.9576	3.6364	0.1	5437.7
6569	2.9576	3.8182	0.1	5445.2
6570	2.9576	4.	0.1	5454.8
6571	2.9576	4.1818	0.1	5466.5
6572	2.9576	4.3636	0.1	5480.3
6573	2.9576	4.5455	0.1	5496.2
6574	2.9576	4.7273	0.1	5514.1
6575	2.9576	4.9091	0.1	5534.1
6576	2.9576	5.0909	0.1	5555.8
6577	2.9576	5.2727	0.1	5579.
6578	2.9576	5.4545	0.1	5603.7
6579	2.9576	5.6364	0.1	5629.5
6580	2.9576	5.8182	0.1	5659.7
6581	3.1424	0.18182	0.1	5592.1
6582	3.1424	0.36364	0.1	5564.2
6583	3.1424	0.54545	0.1	5539.9
6584	3.1424	0.72727	0.1	5516.4
6585	3.1424	0.90909	0.1	5494.
6586	3.1424	1.0909	0.1	5473.
6587	3.1424	1.2727	0.1	5453.5
6588	3.1424	1.4545	0.1	5435.7
6589	3.1424	1.6364	0.1	5419.7
6590	3.1424	1.8182	0.1	5405.7
6591	3.1424	2.	0.1	5393.7
6592	3.1424	2.1818	0.1	5383.8
6593	3.1424	2.3636	0.1	5375.8
6594	3.1424	2.5455	0.1	5369.9
6595	3.1424	2.7273	0.1	5365.9
6596	3.1424	2.9091	0.1	5364.
6597	3.1424	3.0909	0.1	5364.
6598	3.1424	3.2727	0.1	5365.9
6599	3.1424	3.4545	0.1	5369.9
6600	3.1424	3.6364	0.1	5375.8
6601	3.1424	3.8182	0.1	5383.8
6602	3.1424	4.	0.1	5393.7
6603	3.1424	4.1818	0.1	5405.7
6604	3.1424	4.3636	0.1	5419.7
6605	3.1424	4.5455	0.1	5435.7
6606	3.1424	4.7273	0.1	5453.5
6607	3.1424	4.9091	0.1	5473.
6608	3.1424	5.0909	0.1	5494.
6609	3.1424	5.2727	0.1	5516.4
6610	3.1424	5.4545	0.1	5539.9
6611	3.1424	5.6364	0.1	5564.2
6612	3.1424	5.8182	0.1	5592.1
6613	3.3273	0.18182	0.1	5524.1
6614	3.3273	0.36364	0.1	5498.4
6615	3.3273	0.54545	0.1	5475.5
6616	3.3273	0.72727	0.1	5453.2
6617	3.3273	0.90909	0.1	5431.9
6618	3.3273	1.0909	0.1	5411.7
6619	3.3273	1.2727	0.1	5392.9
6620	3.3273	1.4545	0.1	5375.5
6621	3.3273	1.6364	0.1	5359.8
6622	3.3273	1.8182	0.1	5345.9
6623	3.3273	2.	0.1	5333.9
6624	3.3273	2.1818	0.1	5323.8
6625	3.3273	2.3636	0.1	5315.8
6626	3.3273	2.5455	0.1	5309.7
6627	3.3273	2.7273	0.1	5305.6
6628	3.3273	2.9091	0.1	5303.6
6629	3.3273	3.0909	0.1	5303.6
6630	3.3273	3.2727	0.1	5305.6
6631	3.3273	3.4545	0.1	5309.7
6632	3.3273	3.6364	0.1	5315.8
6633	3.3273	3.8182	0.1	5323.8
6634	3.3273	4.	0.1	5333.9
6635	3.3273	4.1818	0.1	5345.9
6636	3.3273	4.3636	0.1	5359.8
6637	3.3273	4.5455	0.1	5375.5
6638	3.3273	4.7273	0.1	5392.9
6639	3.3273	4.9091	0.1	5411.7
6640	3.3273	5.0909	0.1	5431.9
6641	3.3273	5.2727	0.1	5453.2
6642	3.3273	5.4545	0.1	5475.5
6643	3.3273	5.6364	0.1	5498.4
6644	3.3273	5.8182	0.1	5524.1
6645	3.5121	0.18182	0.1	5456.1
6646	3.5121	0.36364	0.1	5432.4
6647	3.5121	0.54545	0.1	5410.9
6648	3.5121	0.72727	0.1	5389.9
6649	3.5121	0.90909	0.1	5369.7
6650	3.5121	1.0909	0.1	5350.5
6651	3.5121	1.2727	0.1	5332.4
6652	3.5121	1.4545	0.1	5315.7
6653	3.5121	1.6364	0.1	5300.4
6654	3.5121	1.8182	0.1	5286.9
6655	3.5121	2.	0.1	5275.1
6656	3.5121	2.1818	0.1	5265.1
6657	3.5121	2.3636	0.1	5257.1
6658	3.5121	2.5455	0.1	5251.1
6659	3.5121	2.7273	0.1	5247.
6660	3.5121	2.9091	0.1	5245.
6661	3.5121	3.0909	0.1	5245.
6662	3.5121	3.2727	0.1	5247.
6663	3.5121	3.4545	0.1	5251.1
6664	3.5121	3.6364	0.1	5257.1
6665	3.5121	3.8182	0.1	5265.1
6666	3.5121	4.	0.1	5275.1
6667	3.5121	4.1818	0.1	5286.9
6668	3.5121	4.3636	0.1	5300.4
6669	3.5121	4.5455	0.1	5315.7
6670	3.5121	4.7273	0.1	5332.4
6671	3.5121	4.9091	0.1	5350.5
6672	3.5121	5.0909	0.1	5369.7
6673	3.5121	5.2727	0.1	5389.9
6674	3.5121	5.4545	0.1	5410.9
6675	3.5121	5.6364	0.1	5432.4
6676	3.5121	5.8182	0.1	5456.1
6677	3.697	0.18182	0.1	5388.3
6678	3.697	0.36364	0.1	5366.4
6679	3.697	0.54545	0.1	5346.3
6680	3.697	0.72727	0.1	5326.6
6681	3.697	0.90909	0.1	5307.5
6682	3.697	1.0909	0.1	5289.3
6683	3.697	1.2727	0.1	5272.1
6684	3.697	1.4545	0.1	5256.2
6685	3.697	1.6364	0.1	5241.6
6686	3.697	1.8182	0.1	5228.5
6687	3.697	2.	0.1	5217.1
6688	3.697	2.1818	0.1	5207.4
6689	3.697	2.3636	0.1	5199.6
6690	3.697	2.5455	0.1	5193.7
6691	3.697	2.7273	0.1	5189.7
6692	3.697	2.9091	0.1	5187.7
6693	3.697	3.0909	0.1	5187.7
6694	3.697	3.2727	0.1	5189.7
6695	3.697	3.4545	0.1	5193.7
6696	3.697	3.6364	0.1	5199.6
6697	3.697	3.8182	0.1	5207.4
6698	3.697	4.	0.1	5217.1
6699	3.697	4.1818	0.1	5228.5
6700	3.697	4.3636	0.1	5241.6
6701	3.697	4.5455	0.1	5256.2
6702	3.697	4.7273	0.1	5272.1
6703	3.697	4.9091	0.1	5289.3
6704	3.697	5.0909	0.1	5307.5
6705	3.697	5.2727	0.1	5326.6
6706	3.697	5.4545	0.1	5346.3
6707	3.697	5.6364	0.1	5366.4
6708	3.697	5.8182	0.1	5388.3
6709	3.8818	0.18182	0.1	5321.
6710	3.8818	0.36364	0.1	5300.7
6711	3.8818	0.54545	0.1	5281.9
6712	3.8818	0.72727	0.1	5263.4
6713	3.8818	0.90909	0.1	5245.5
6714	3.8818	1.0909	0.1	5228.4
6715	3.8818	1.2727	0.1	5212.1
6716	3.8818	1.4545	0.1	5197.
6717	3.8818	1.6364	0.1	5183.1
6718	3.8818	1.8182	0.1	5170.6
6719	3.8818	2.	0.1	5159.7
6720	3.8818	2.1818	0.1	5150.4
6721	3.8818	2.3636	0.1	5142.9
6722	3.8818	2.5455	0.1	5137.2
6723	3.8818	2.7273	0.1	5133.4
6724	3.8818	2.9091	0.1	5131.5
6725	3.8818	3.0909	0.1	5131.5
6726	3.8818	3.2727	0.1	5133.4
6727	3.8818	3.4545	0.1	5137.2
6728	3.8818	3.6364	0.1	5142.9
6729	3.8818	3.8182	0.1	5150.4
6730	3.8818	4.	0.1	5159.7
6731	3.8818	4.1818	0.1	5170.6
6732	3.8818	4.3636	0.1	5183.1
6733	3.8818	4.5455	0.1	5197.
6734	3.8818	4.7273	0.1	5212.1
6735	3.8818	4.9091	0.1	5228.4
6736	3.8818	5.0909	0.1	5245.5
6737	3.8818	5.2727	0.1	5263.4
6738	3.8818	5.4545	0.1	5281.9
6739	3.8818	5.6364	0.1	5300.7
6740	3.8818	5.8182	0.1	5321.
6741	4.0667	0.18182	0.1	5254.1
6742	4.0667	0.36364	0.1	5235.4
6743	4.0667	0.54545	0.1	5217.9
6744	4.0667	0.72727	0.1	5200.6
6745	4.0667	0.90909	0.1	5183.8
6746	4.0667	1.0909	0.1	5167.7
6747	4.0667	1.2727	0.1	5152.4
6748	4.0667	1.4545	0.1	5138.2
6749	4.0667	1.6364	0.1	5125.
6750	4.0667	1.8182	0.1	5113.2
6751	4.0667	2.	0.1	5102.9
6752	4.0667	2.1818	0.1	5094.1
6753	4.0667	2.3636	0.1	5086.9
6754	4.0667	2.5455	0.1	5081.4
6755	4.0667	2.7273	0.1	5077.8
6756	4.0667	2.9091	0.1	5075.9
6757	4.0667	3.0909	0.1	5075.9
6758	4.0667	3.2727	0.1	5077.8
6759	4.0667	3.4545	0.1	5081.4
6760	4.0667	3.6364	0.1	5086.9
6761	4.0667	3.8182	0.1	5094.1
6762	4.0667	4.	0.1	5102.9
6763	4.0667	4.1818	0.1	5113.2
6764	4.0667	4.3636	0.1	5125.
6765	4.0667	4.5455	0.1	5138.2
6766	4.0667	4.7273	0.1	5152.4
6767	4.0667	4.9091	0.1	5167.7
6768	4.0667	5.0909	0.1	5183.8
6769	4.0667	5.2727	0.1	5200.6
6770	4.0667	5.4545	0.1	5217.9
6771	4.0667	5.6364	0.1	5235.4
6772	4.0667	5.8182	0.1	5254.1
6773	4.2515	0.18182	0.1	5187.8
6774	4.2515	0.36364	0.1	5170.6
6775	4.2515	0.54545	0.1	5154.2
6776	4.2515	0.72727	0.1	5138.1
6777	4.2515	0.90909	0.1	5122.4
6778	4.2515	1.0909	0.1	5107.4
6779	4.2515	1.2727	0.1	5093.
6780	4.2515	1.4545	0.1	5079.7
6781	4.2515	1.6364	0.1	5067.3
6782	4.2515	1.8182	0.1	5056.2
6783	4.2515	2.	0.1	5046.4
6784	4.2515	2.1818	0.1	5038.1
6785	4.2515	2.3636	0.1	5031.3
6786	4.2515	2.5455	0.1	5026.2
6787	4.2515	2.7273	0.1	5022.7
6788	4.2515	2.9091	0.1	5021.
6789	4.2515	3.0909	0.1	5021.
6790	4.2515	3.2727	0.1	5022.7
6791	4.2515	3.4545	0.1	5026.2
6792	4.2515	3.6364	0.1	5031.3
6793	4.2515	3.8182	0.1	5038.1
6794	4.2515	4.	0.1	5046.4
6795	4.2515	4.1818	0.1	5056.2
6796	4.2515	4.3636	0.1	5067.3
6797	4.2515	4.5455	0.1	5079.7
6798	4.2515	4.7273	0.1	5093.
6799	4.2515	4.9091	0.1	5107.4
6800	4.2515	5.0909	0.1	5122.4
6801	4.2515	5.2727	0.1	5138.1
6802	4.2515	5.4545	0.1	5154.2
6803	4.2515	5.6364	0.1	5170.6
6804	4.2515	5.8182	0.1	5187.8
6805	4.4364	0.18182	0.1	5122.1
6806	4.4364	0.36364	0.1	5106.2
6807	4.4364	0.54545	0.1	5091.
6808	4.4364	0.72727	0.1	5076.
6809	4.4364	0.90909	0.1	5061.4
6810	4.4364	1.0909	0.1	5047.3
6811	4.4364	1.2727	0.1	5034.
6812	4.4364	1.4545	0.1	5021.5
6813	4.4364	1.6364	0.1	5009.9
6814	4.4364	1.8182	0.1	4999.5
6815	4.4364	2.	0.1	4990.4
6816	4.4364	2.1818	0.1	4982.5
6817	4.4364	2.3636	0.1	4976.2
6818	4.4364	2.5455	0.1	4971.3
6819	4.4364	2.7273	0.1	4968.1
6820	4.4364	2.9091	0.1	4966.4
6821	4.4364	3.0909	0.1	4966.4
6822	4.4364	3.2727	0.1	4968.1
6823	4.4364	3.4545	0.1	4971.3
6824	4.4364	3.6364	0.1	4976.2
6825	4.4364	3.8182	0.1	4982.5
6826	4.4364	4.	0.1	4990.4
6827	4.4364	4.1818	0.1	4999.5
6828	4.4364	4.3636	0.1	5009.9
6829	4.4364	4.5455	0.1	5021.5
6830	4.4364	4.7273	0.1	5034.
6831	4.4364	4.9091	0.1	5047.3
6832	4.4364	5.0909	0.1	5061.4
6833	4.4364	5.2727	0.1	5076.
6834	4.4364	5.4545	0.1	5091.
6835	4.4364	5.6364	0.1	5106.2
6836	4.4364	5.8182	0.1	5122.1
6837	4.6212	0.18182	0.1	5057.1
6838	4.6212	0.36364	0.1	5042.4
6839	4.6212	0.54545	0.1	5028.3
6840	4.6212	0.72727	0.1	5014.3
6841	4.6212	0.90909	0.1	5000.7
6842	4.6212	1.0909	0.1	4987.7
6843	4.6212	1.2727	0.1	4975.2
6844	4.6212	1.4545	0.1	4963.6
6845	4.6212	1.6364	0.1	4952.8
6846	4.6212	1.8182	0.1	4943.1
6847	4.6212	2.	0.1	4934.6
6848	4.6212	2.1818	0.1	4927.3
6849	4.6212	2.3636	0.1	4921.3
6850	4.6212	2.5455	0.1	4916.8
6851	4.6212	2.7273	0.1	4913.7
6852	4.6212	2.9091	0.1	4912.2
6853	4.6212	3.0909	0.1	4912.2
6854	4.6212	3.2727	0.1	4913.7
6855	4.6212	3.4545	0.1	4916.8
6856	4.6212	3.6364	0.1	4921.3
6857	4.6212	3.8182	0.1	4927.3
6858	4.6212	4.	0.1	4934.6
6859	4.6212	4.1818	0.1	4943.1
6860	4.6212	4.3636	0.1	4952.8
6861	4.6212	4.5455	0.1	4963.6
6862	4.6212	4.7273	0.1	4975.2
6863	4.6212	4.9091	0.1	4987.7
6864	4.6212	5.0909	0.1	5000.7
6865	4.6212	5.2727	0.1	5014.3
6866	4.6212	5.4545	0.1	5028.3
6867	4.6212	5.6364	0.1	5042.4
6868	4.6212	5.8182	0.1	5057.1
6869	4.8061	0.18182	0.1	4992.7
6870	4.8061	0.36364	0.1	4979.1
6871	4.8061	0.54545	0.1	4966.
6872	4.8061	0.72727	0.1	4953.1
6873	4.8061	0.90909	0.1	4940.5
6874	4.8061	1.0909	0.1	4928.3
6875	4.8061	1.2727	0.1	4916.8
6876	4.8061	1.4545	0.1	4906.
6877	4.8061	1.6364	0.1	4896.
6878	4.8061	1.8182	0.1	4886.9
6879	4.8061	2.	0.1	4879.
6880	4.8061	2.1818	0.1	4872.2
6881	4.8061	2.3636	0.1	4866.6
6882	4.8061	2.5455	0.1	4862.4
6883	4.8061	2.7273	0.1	4859.6
6884	4.8061	2.9091	0.1	4858.1
6885	4.8061	3.0909	0.1	4858.1
6886	4.8061	3.2727	0.1	4859.6
6887	4.8061	3.4545	0.1	4862.4
6888	4.8061	3.6364	0.1	4866.6
6889	4.8061	3.8182	0.1	4872.2
6890	4.8061	4.	0.1	4879.
6891	4.8061	4.1818	0.1	4886.9
6892	4.8061	4.3636	0.1	4896.
6893	4.8061	4.5455	0.1	4906.
6894	4.8061	4.7273	0.1	4916.8
6895	4.8061	4.9091	0.1	4928.3
6896	4.8061	5.0909	0.1	4940.5
6897	4.8061	5.2727	0.1	4953.1
6898	4.8061	5.4545	0.1	4966.
6899	4.8061	5.6364	0.1	4979.1
6900	4.8061	5.8182	0.1	4992.7
6901	4.9909	0.18182	0.1	4929.
6902	4.9909	0.36364	0.1	4916.4
6903	4.9909	0.54545	0.1	4904.3
6904	4.9909	0.72727	0.1	4892.3
6905	4.9909	0.90909	0.1	4880.6
6906	4.9909	1.0909	0.1	4869.4
6907	4.9909	1.2727	0.1	4858.7
6908	4.9909	1.4545	0.1	4848.6
6909	4.9909	1.6364	0.1	4839.4
6910	4.9909	1.8182	0.1	4831.
6911	4.9909	2.	0.1	4823.6
6912	4.9909	2.1818	0.1	4817.3
6913	4.9909	2.3636	0.1	4812.2
6914	4.9909	2.5455	0.1	4808.2
6915	4.9909	2.7273	0.1	4805.6
6916	4.9909	2.9091	0.1	4804.3
6917	4.9909	3.0909	0.1	4804.3
6918	4.9909	3.2727	0.1	4805.6
6919	4.9909	3.4545	0.1	4808.2
6920	4.9909	3.6364	0.1	4812.2
6921	4.9909	3.8182	0.1	4817.3
6922	4.9909	4.	0.1	4823.6
6923	4.9909	4.1818	0.1	4831.
6924	4.9909	4.3636	0.1	4839.4
6925	4.9909	4.5455	0.1	4848.6
6926	4.9909	4.7273	0.1	4858.7
6927	4.9909	4.9091	0.1	4869.4
6928	4.9909	5.0909	0.1	4880.6
6929	4.9909	5.2727	0.1	4892.3
6930	4.9909	5.4545	0.1	4904.3
6931	4.9909	5.6364	0.1	4916.4
6932	4.9909	5.8182	0.1	4929.
6933	5.1758	0.18182	0.1	4865.9
6934	5.1758	0.36364	0.1	4854.3
6935	5.1758	0.54545	0.1	4843.
6936	5.1758	0.72727	0.1	4831.9
6937	5.1758	0.90909	0.1	4821.1
6938	5.1758	1.0909	0.1	4810.7
6939	5.1758	1.2727	0.1	4800.8
6940	5.1758	1.4545	0.1	4791.5
6941	5.1758	1.6364	0.1	4783.
6942	5.1758	1.8182	0.1	4775.2
6943	5.1758	2.	0.1	4768.4
6944	5.1758	2.1818	0.1	4762.6
6945	5.1758	2.3636	0.1	4757.8
6946	5.1758	2.5455	0.1	4754.2
6947	5.1758	2.7273	0.1	4751.7
6948	5.1758	2.9091	0.1	4750.5
6949	5.1758	3.0909	0.1	4750.5
6950	5.1758	3.2727	0.1	4751.7
6951	5.1758	3.4545	0.1	4754.2
6952	5.1758	3.6364	0.1	4757.8
6953	5.1758	3.8182	0.1	4762.6
6954	5.1758	4.	0.1	4768.4
6955	5.1758	4.1818	0.1	4775.2
6956	5.1758	4.3636	0.1	4783.
6957	5.1758	4.5455	0.1	4791.5
6958	5.1758	4.7273	0.1	4800.8
6959	5.1758	4.9091	0.1	4810.7
6960	5.1758	5.0909	0.1	4821.1
6961	5.1758	5.2727	0.1	4831.9
6962	5.1758	5.4545	0.1	4843.
6963	5.1758	5.6364	0.1	4854.3
6964	5.1758	5.8182	0.1	4865.9
6965	5.3606	0.18182	0.1	4803.4
6966	5.3606	0.36364	0.1	4792.6
6967	5.3606	0.54545	0.1	4782.3
6968	5.3606	0.72727	0.1	4772.
6969	5.3606	0.90909	0.1	4762.
6970	5.3606	1.0909	0.1	4752.4
6971	5.3606	1.2727	0.1	4743.3
6972	5.3606	1.4545	0.1	4734.7
6973	5.3606	1.6364	0.1	4726.8
6974	5.3606	1.8182	0.1	4719.7
6975	5.3606	2.	0.1	4713.4
6976	5.3606	2.1818	0.1	4708.
6977	5.3606	2.3636	0.1	4703.6
6978	5.3606	2.5455	0.1	4700.2
6979	5.3606	2.7273	0.1	4698.
6980	5.3606	2.9091	0.1	4696.8
6981	5.3606	3.0909	0.1	4696.8
6982	5.3606	3.2727	0.1	4698.
6983	5.3606	3.4545	0.1	4700.2
6984	5.3606	3.6364	0.1	4703.6
6985	5.3606	3.8182	0.1	4708.
6986	5.3606	4.	0.1	4713.4
6987	5.3606	4.1818	0.1	4719.7
6988	5.3606	4.3636	0.1	4726.8
6989	5.3606	4.5455	0.1	4734.7
6990	5.3606	4.7273	0.1	4743.3
6991	5.3606	4.9091	0.1	4752.4
6992	5.3606	5.0909	0.1	4762.
6993	5.3606	5.2727	0.1	4772.
6994	5.3606	5.4545	0.1	4782.3
6995	5.3606	5.6364	0.1	4792.6
6996	5.3606	5.8182	0.1	4803.4
6997	5.5455	0.18182	0.1	4741.4
6998	5.5455	0.36364	0.1	4731.5
6999	5.5455	0.54545	0.1	4721.9
7000	5.5455	0.72727	0.1	4712.5
7001	5.5455	0.90909	0.1	4703.3
7002	5.5455	1.0909	0.1	4694.4
7003	5.5455	1.2727	0.1	4686.
7004	5.5455	1.4545	0.1	4678.1
7005	5.5455	1.6364	0.1	4670.8
7006	5.5455	1.8182	0.1	4664.3
7007	5.5455	2.	0.1	4658.5
7008	5.5455	2.1818	0.1	4653.5
7009	5.5455	2.3636	0.1	4649.5
7010	5.5455	2.5455	0.1	4646.4
7011	5.5455	2.7273	0.1	4644.3
7012	5.5455	2.9091	0.1	4643.3
7013	5.5455	3.0909	0.1	4643.3
7014	5.5455	3.2727	0.1	4644.3
7015	5.5455	3.4545	0.1	4646.4
7016	5.5455	3.6364	0.1	4649.5
7017	5.5455	3.8182	0.1	4653.5
7018	5.5455	4.	0.1	4658.5
7019	5.5455	4.1818	0.1	4664.3
7020	5.5455	4.3636	0.1	4670.8
7021	5.5455	4.5455	0.1	4678.1
7022	5.5455	4.7273	0.1	4686.
7023	5.5455	4.9091	0.1	4694.4
7024	5.5455	5.0909	0.1	4703.3
7025	5.5455	5.2727	0.1	4712.5
7026	5.5455	5.4545	0.1	4721.9
7027	5.5455	5.6364	0.1	4731.5
7028	5.5455	5.8182	0.1	4741.4
7029	5.7303	0.18182	0.1	4680.
7030	5.7303	0.36364	0.1	4670.9
7031	5.7303	0.54545	0.1	4662.
7032	5.7303	0.72727	0.1	4653.3
7033	5.7303	0.90909	0.1	4644.9
7034	5.7303	1.0909	0.1	4636.7
7035	5.7303	1.2727	0.1	4629.
7036	5.7303	1.4545	0.1	4621.8
7037	5.7303	1.6364	0.1	4615.1
7038	5.7303	1.8182	0.1	4609.
7039	5.7303	2.	0.1	4603.7
7040	5.7303	2.1818	0.1	4599.2
7041	5.7303	2.3636	0.1	4595.4
7042	5.7303	2.5455	0.1	4592.6
7043	5.7303	2.7273	0.1	4590.7
7044	5.7303	2.9091	0.1	4589.7
7045	5.7303	3.0909	0.1	4589.7
7046	5.7303	3.2727	0.1	4590.7
7047	5.7303	3.4545	0.1	4592.6
7048	5.7303	3.6364	0.1	4595.4
7049	5.7303	3.8182	0.1	4599.2
7050	5.7303	4.	0.1	4603.7
7051	5.7303	4.1818	0.1	4609.
7052	5.7303	4.3636	0.1	4615.1
7053	5.7303	4.5455	0.1	4621.8
7054	5.7303	4.7273	0.1	4629.
7055	5.7303	4.9091	0.1	4636.7
7056	5.7303	5.0909	0.1	4644.9
7057	5.7303	5.2727	0.1	4653.3
7058	5.7303	5.4545	0.1	4662.
7059	5.7303	5.6364	0.1	4670.9
7060	5.7303	5.8182	0.1	4680.
7061	5.9152	0.18182	0.1	4619.1
7062	5.9152	0.36364	0.1	4610.6
7063	5.9152	0.54545	0.1	4602.5
7064	5.9152	0.72727	0.1	4594.5
7065	5.9152	0.90909	0.1	4586.8
7066	5.9152	1.0909	0.1	4579.4
7067	5.9152	1.2727	0.1	4572.3
7068	5.9152	1.4545	0.1	4565.6
7069	5.9152	1.6364	0.1	4559.5
7070	5.9152	1.8182	0.1	4554.
7071	5.9152	2.	0.1	4549.1
7072	5.9152	2.1818	0.1	4544.9
7073	5.9152	2.3636	0.1	4541.5
7074	5.9152	2.5455	0.1	4538.9
7075	5.9152	2.7273	0.1	4537.2
7076	5.9152	2.9091	0.1	4536.3
7077	5.9152	3.0909	0.1	4536.3
7078	5.9152	3.2727	0.1	4537.2
7079	5.9152	3.4545	0.1	4538.9
7080	5.9152	3.6364	0.1	4541.5
7081	5.9152	3.8182	0.1	4544.9
7082	5.9152	4.	0.1	4549.1
7083	5.9152	4.1818	0.1	4554.
7084	5.9152	4.3636	0.1	4559.5
7085	5.9152	4.5455	0.1	4565.6
7086	5.9152	4.7273	0.1	4572.3
7087	5.9152	4.9091	0.1	4579.4
7088	5.9152	5.0909	0.1	4586.8
7089	5.9152	5.2727	0.1	4594.5
7090	5.9152	5.4545	0.1	4602.5
7091	5.9152	5.6364	0.1	4610.6
7092	5.9152	5.8182	0.1	4619.1
7093	6.1	0.18182	0.1	4558.6
7094	6.1	0.36364	0.1	4550.8
7095	6.1	0.54545	0.1	4543.4
7096	6.1	0.72727	0.1	4536.1
7097	6.1	0.90909	0.1	4529.
7098	6.1	1.0909	0.1	4522.2
7099	6.1	1.2727	0.1	4515.8
7100	6.1	1.4545	0.1	4509.7
7101	6.1	1.6364	0.1	4504.1
7102	6.1	1.8182	0.1	4499.1
7103	6.1	2.	0.1	4494.6
7104	6.1	2.1818	0.1	4490.8
7105	6.1	2.3636	0.1	4487.7
7106	6.1	2.5455	0.1	4485.3
7107	6.1	2.7273	0.1	4483.8
7108	6.1	2.9091	0.1	4482.9
7109	6.1	3.0909	0.1	4482.9
7110	6.1	3.2727	0.1	4483.8
7111	6.1	3.4545	0.1	4485.3
7112	6.1	3.6364	0.1	4487.7
7113	6.1	3.8182	0.1	4490.8
7114	6.1	4.	0.1	4494.6
7115	6.1	4.1818	0.1	4499.1
7116	6.1	4.3636	0.1	4504.1
7117	6.1	4.5455	0.1	4509.7
7118	6.1	4.7273	0.1	4515.8
7119	6.1	4.9091	0.1	4522.2
7120	6.1	5.0909	0.1	4529.
7121	6.1	5.2727	0.1	4536.1
7122	6.1	5.4545	0.1	4543.4
7123	6.1	5.6364	0.1	4550.8
7124	6.1	5.8182	0.1	4558.6
7125	6.2848	0.18182	0.1	4498.5
7126	6.2848	0.36364	0.1	4491.4
7127	6.2848	0.54545	0.1	4484.6
7128	6.2848	0.72727	0.1	4478.
7129	6.2848	0.90909	0.1	4471.5
7130	6.2848	1.0909	0.1	4465.4
7131	6.2848	1.2727	0.1	4459.5
7132	6.2848	1.4545	0.1	4454.
7133	6.2848	1.6364	0.1	4449.
7134	6.2848	1.8182	0.1	4444.4
7135	6.2848	2.	0.1	4440.3
7136	6.2848	2.1818	0.1	4436.9
7137	6.2848	2.3636	0.1	4434.
7138	6.2848	2.5455	0.1	4431.9
7139	6.2848	2.7273	0.1	4430.4
7140	6.2848	2.9091	0.1	4429.7
7141	6.2848	3.0909	0.1	4429.7
7142	6.2848	3.2727	0.1	4430.4
7143	6.2848	3.4545	0.1	4431.9
7144	6.2848	3.6364	0.1	4434.
7145	6.2848	3.8182	0.1	4436.9
7146	6.2848	4.	0.1	4440.3
7147	6.2848	4.1818	0.1	4444.4
7148	6.2848	4.3636	0.1	4449.
7149	6.2848	4.5455	0.1	4454.
7150	6.2848	4.7273	0.1	4459.5
7151	6.2848	4.9091	0.1	4465.4
7152	6.2848	5.0909	0.1	4471.5
7153	6.2848	5.2727	0.1	4478.
7154	6.2848	5.4545	0.1	4484.6
7155	6.2848	5.6364	0.1	4491.4
7156	6.2848	5.8182	0.1	4498.5
7157	6.4697	0.18182	0.1	4438.8
7158	6.4697	0.36364	0.1	4432.2
7159	6.4697	0.54545	0.1	4426.1
7160	6.4697	0.72727	0.1	4420.1
7161	6.4697	0.90909	0.1	4414.3
7162	6.4697	1.0909	0.1	4408.8
7163	6.4697	1.2727	0.1	4403.5
7164	6.4697	1.4545	0.1	4398.5
7165	6.4697	1.6364	0.1	4394.
7166	6.4697	1.8182	0.1	4389.8
7167	6.4697	2.	0.1	4386.2
7168	6.4697	2.1818	0.1	4383.1
7169	6.4697	2.3636	0.1	4380.5
7170	6.4697	2.5455	0.1	4378.6
7171	6.4697	2.7273	0.1	4377.3
7172	6.4697	2.9091	0.1	4376.6
7173	6.4697	3.0909	0.1	4376.6
7174	6.4697	3.2727	0.1	4377.3
7175	6.4697	3.4545	0.1	4378.6
7176	6.4697	3.6364	0.1	4380.5
7177	6.4697	3.8182	0.1	4383.1
7178	6.4697	4.	0.1	4386.2
7179	6.4697	4.1818	0.1	4389.8
7180	6.4697	4.3636	0.1	4394.
7181	6.4697	4.5455	0.1	4398.5
7182	6.4697	4.7273	0.1	4403.5
7183	6.4697	4.9091	0.1	4408.8
7184	6.4697	5.0909	0.1	4414.3
7185	6.4697	5.2727	0.1	4420.1
7186	6.4697	5.4545	0.1	4426.1
7187	6.4697	5.6364	0.1	4432.2
7188	6.4697	5.8182	0.1	4438.8
7189	6.6545	0.18182	0.1	4379.4
7190	6.6545	0.36364	0.1	4373.4
7191	6.6545	0.54545	0.1	4367.9
7192	6.6545	0.72727	0.1	4362.5
7193	6.6545	0.90909	0.1	4357.3
7194	6.6545	1.0909	0.1	4352.4
7195	6.6545	1.2727	0.1	4347.7
7196	6.6545	1.4545	0.1	4343.3
7197	6.6545	1.6364	0.1	4339.2
7198	6.6545	1.8182	0.1	4335.5
7199	6.6545	2.	0.1	4332.2
7200	6.6545	2.1818	0.1	4329.4
7201	6.6545	2.3636	0.1	4327.2
7202	6.6545	2.5455	0.1	4325.4
7203	6.6545	2.7273	0.1	4324.2
7204	6.6545	2.9091	0.1	4323.7
7205	6.6545	3.0909	0.1	4323.7
7206	6.6545	3.2727	0.1	4324.2
7207	6.6545	3.4545	0.1	4325.4
7208	6.6545	3.6364	0.1	4327.2
7209	6.6545	3.8182	0.1	4329.4
7210	6.6545	4.	0.1	4332.2
7211	6.6545	4.1818	0.1	4335.5
7212	6.6545	4.3636	0.1	4339.2
7213	6.6545	4.5455	0.1	4343.3
7214	6.6545	4.7273	0.1	4347.7
7215	6.6545	4.9091	0.1	4352.4
7216	6.6545	5.0909	0.1	4357.3
7217	6.6545	5.2727	0.1	4362.5
7218	6.6545	5.4545	0.1	4367.9
7219	6.6545	5.6364	0.1	4373.4
7220	6.6545	5.8182	0.1	4379.4
7221	6.8394	0.18182	0.1	4320.1
7222	6.8394	0.36364	0.1	4314.7
7223	6.8394	0.54545	0.1	4309.8
7224	6.8394	0.72727	0.1	4305.1
7225	6.8394	0.90909	0.1	4300.5
7226	6.8394	1.0909	0.1	4296.2
7227	6.8394	1.2727	0.1	4292.1
7228	6.8394	1.4545	0.1	4288.2
7229	6.8394	1.6364	0.1	4284.6
7230	6.8394	1.8182	0.1	4281.4
7231	6.8394	2.	0.1	4278.5
7232	6.8394	2.1818	0.1	4276.
7233	6.8394	2.3636	0.1	4274.
7234	6.8394	2.5455	0.1	4272.5
7235	6.8394	2.7273	0.1	4271.4
7236	6.8394	2.9091	0.1	4270.9
7237	6.8394	3.0909	0.1	4270.9
7238	6.8394	3.2727	0.1	4271.4
7239	6.8394	3.4545	0.1	4272.5
7240	6.8394	3.6364	0.1	4274.
7241	6.8394	3.8182	0.1	4276.
7242	6.8394	4.	0.1	4278.5
7243	6.8394	4.1818	0.1	4281.4
7244	6.8394	4.3636	0.1	4284.6
7245	6.8394	4.5455	0.1	4288.2
7246	6.8394	4.7273	0.1	4292.1
7247	6.8394	4.9091	0.1	4296.2
7248	6.8394	5.0909	0.1	4300.5
7249	6.8394	5.2727	0.1	4305.1
7250	6.8394	5.4545	0.1	4309.8
7251	6.8394	5.6364	0.1	4314.7
7252	6.8394	5.8182	0.1	4320.1
7253	7.0242	0.18182	0.1	4261.
7254	7.0242	0.36364	0.1	4256.2
7255	7.0242	0.54545	0.1	4251.9
7256	7.0242	0.72727	0.1	4247.8
7257	7.0242	0.90909	0.1	4243.9
7258	7.0242	1.0909	0.1	4240.2
7259	7.0242	1.2727	0.1	4236.6
7260	7.0242	1.4545	0.1	4233.3
7261	7.0242	1.6364	0.1	4230.2
7262	7.0242	1.8182	0.1	4227.5
7263	7.0242	2.	0.1	4225.
7264	7.0242	2.1818	0.1	4222.9
7265	7.0242	2.3636	0.1	4221.1
7266	7.0242	2.5455	0.1	4219.8
7267	7.0242	2.7273	0.1	4218.9
7268	7.0242	2.9091	0.1	4218.5
7269	7.0242	3.0909	0.1	4218.5
7270	7.0242	3.2727	0.1	4218.9
7271	7.0242	3.4545	0.1	4219.8
7272	7.0242	3.6364	0.1	4221.1
7273	7.0242	3.8182	0.1	4222.9
7274	7.0242	4.	0.1	4225.
7275	7.0242	4.1818	0.1	4227.5
7276	7.0242	4.3636	0.1	4230.2
7277	7.0242	4.5455	0.1	4233.3
7278	7.0242	4.7273	0.1	4236.6
7279	7.0242	4.9091	0.1	4240.2
7280	7.0242	5.0909	0.1	4243.9
7281	7.0242	5.2727	0.1	4247.8
7282	7.0242	5.4545	0.1	4251.9
7283	7.0242	5.6364	0.1	4256.2
7284	7.0242	5.8182	0.1	4261.
7285	7.2091	0.18182	0.1	4202.
7286	7.2091	0.36364	0.1	4197.8
7287	7.2091	0.54545	0.1	4194.1
7288	7.2091	0.72727	0.1	4190.7
7289	7.2091	0.90909	0.1	4187.4
7290	7.2091	1.0909	0.1	4184.3
7291	7.2091	1.2727	0.1	4181.4
7292	7.2091	1.4545	0.1	4178.6
7293	7.2091	1.6364	0.1	4176.1
7294	7.2091	1.8182	0.1	4173.8
7295	7.2091	2.	0.1	4171.8
7296	7.2091	2.1818	0.1	4170.
7297	7.2091	2.3636	0.1	4168.6
7298	7.2091	2.5455	0.1	4167.5
7299	7.2091	2.7273	0.1	4166.7
7300	7.2091	2.9091	0.1	4166.3
7301	7.2091	3.0909	0.1	4166.3
7302	7.2091	3.2727	0.1	4166.7
7303	7.2091	3.4545	0.1	4167.5
7304	7.2091	3.6364	0.1	4168.6
7305	7.2091	3.8182	0.1	4170.
7306	7.2091	4.	0.1	4171.8
7307	7.2091	4.1818	0.1	4173.8
7308	7.2091	4.3636	0.1	4176.1
7309	7.2091	4.5455	0.1	4178.6
7310	7.2091	4.7273	0.1	4181.4
7311	7.2091	4.9091	0.1	4184.3
7312	7.2091	5.0909	0.1	4187.4
7313	7.2091	5.2727	0.1	4190.7
7314	7.2091	5.4545	0.1	4194.1
7315	7.2091	5.6364	0.1	4197.8
7316	7.2091	5.8182	0.1	4202.
7317	7.3939	0.18182	0.1	4142.9
7318	7.3939	0.36364	0.1	4139.2
7319	7.3939	0.54545	0.1	4136.3
7320	7.3939	0.72727	0.1	4133.5
7321	7.3939	0.90909	0.1	4131.
7322	7.3939	1.0909	0.1	4128.6
7323	7.3939	1.2727	0.1	4126.3
7324	7.3939	1.4545	0.1	4124.2
7325	7.3939	1.6364	0.1	4122.2
7326	7.3939	1.8182	0.1	4120.4
7327	7.3939	2.	0.1	4118.9
7328	7.3939	2.1818	0.1	4117.5
7329	7.3939	2.3636	0.1	4116.4
7330	7.3939	2.5455	0.1	4115.5
7331	7.3939	2.7273	0.1	4114.9
7332	7.3939	2.9091	0.1	4114.6
7333	7.3939	3.0909	0.1	4114.6
7334	7.3939	3.2727	0.1	4114.9
7335	7.3939	3.4545	0.1	4115.5
7336	7.3939	3.6364	0.1	4116.4
7337	7.3939	3.8182	0.1	4117.5
7338	7.3939	4.	0.1	4118.9
7339	7.3939	4.1818	0.1	4120.4
7340	7.3939	4.3636	0.1	4122.2
7341	7.3939	4.5455	0.1	4124.2
7342	7.3939	4.7273	0.1	4126.3
7343	7.3939	4.9091	0.1	4128.6
7344	7.3939	5.0909	0.1	4131.
7345	7.3939	5.2727	0.1	4133.5
7346	7.3939	5.4545	0.1	4136.3
7347	7.3939	5.6364	0.1	4139.2
7348	7.3939	5.8182	0.1	4142.9
7349	7.5788	0.18182	0.1	4083.5
7350	7.5788	0.36364	0.1	4080.6
7351	7.5788	0.54545	0.1	4078.3
7352	7.5788	0.72727	0.1	4076.3
7353	7.5788	0.90909	0.1	4074.5
7354	7.5788	1.0909	0.1	4072.9
7355	7.5788	1.2727	0.1	4071.3
7356	7.5788	1.4545	0.1	4069.9
7357	7.5788	1.6364	0.1	4068.6
7358	7.5788	1.8182	0.1	4067.4
7359	7.5788	2.	0.1	4066.3
7360	7.5788	2.1818	0.1	4065.4
7361	7.5788	2.3636	0.1	4064.7
7362	7.5788	2.5455	0.1	4064.1
7363	7.5788	2.7273	0.1	4063.7
7364	7.5788	2.9091	0.1	4063.4
7365	7.5788	3.0909	0.1	4063.4
7366	7.5788	3.2727	0.1	4063.7
7367	7.5788	3.4545	0.1	4064.1
7368	7.5788	3.6364	0.1	4064.7
7369	7.5788	3.8182	0.1	4065.4
7370	7.5788	4.	0.1	4066.3
7371	7.5788	4.1818	0.1	4067.4
7372	7.5788	4.3636	0.1	4068.6
7373	7.5788	4.5455	0.1	4069.9
7374	7.5788	4.7273	0.1	4071.3
7375	7.5788	4.9091	0.1	4072.9
7376	7.5788	5.0909	0.1	4074.5
7377	7.5788	5.2727	0.1	4076.3
7378	7.5788	5.4545	0.1	4078.3
7379	7.5788	5.6364	0.1	4080.6
7380	7.5788	5.8182	0.1	4083.5
7381	7.7636	0.18182	0.1	4023.8
7382	7.7636	0.36364	0.1	4021.6
7383	7.7636	0.54545	0.1	4020.1
7384	7.7636	0.72727	0.1	4018.9
7385	7.7636	0.90909	0.1	4018.
7386	7.7636	1.0909	0.1	4017.2
7387	7.7636	1.2727	0.1	4016.5
7388	7.7636	1.4545	0.1	4015.9
7389	7.7636	1.6364	0.1	4015.3
7390	7.7636	1.8182	0.1	4014.8
7391	7.7636	2.	0.1	4014.3
7392	7.7636	2.1818	0.1	4013.9
7393	7.7636	2.3636	0.1	4013.5
7394	7.7636	2.5455	0.1	4013.2
7395	7.7636	2.7273	0.1	4013.
7396	7.7636	2.9091	0.1	4012.9
7397	7.7636	3.0909	0.1	4012.9
7398	7.7636	3.2727	0.1	4013.
7399	7.7636	3.4545	0.1	4013.2
7400	7.7636	3.6364	0.1	4013.5
7401	7.7636	3.8182	0.1	4013.9
7402	7.7636	4.	0.1	4014.3
7403	7.7636	4.1818	0.1	4014.8
7404	7.7636	4.3636	0.1	4015.3
7405	7.7636	4.5455	0.1	4015.9
7406	7.7636	4.7273	0.1	4016.5
7407	7.7636	4.9091	0.1	4017.2
7408	7.7636	5.0909	0.1	4018.
7409	7.7636	5.2727	0.1	4018.9
7410	7.7636	5.4545	0.1	4020.1
7411	7.7636	5.6364	0.1	4021.6
7412	7.7636	5.8182	0.1	4023.8
7413	7.9485	0.18182	0.1	3963.5
7414	7.9485	0.36364	0.1	3962.1
7415	7.9485	0.54545	0.1	3961.5
7416	7.9485	0.72727	0.1	3961.3
7417	7.9485	0.90909	0.1	3961.3
7418	7.9485	1.0909	0.1	3961.4
7419	7.9485	1.2727	0.1	3961.7
7420	7.9485	1.4545	0.1	3962.
7421	7.9485	1.6364	0.1	3962.3
7422	7.9485	1.8182	0.1	3962.5
7423	7.9485	2.	0.1	3962.8
7424	7.9485	2.1818	0.1	3963.
7425	7.9485	2.3636	0.1	3963.1
7426	7.9485	2.5455	0.1	3963.2
7427	7.9485	2.7273	0.1	3963.3
7428	7.9485	2.9091	0.1	3963.3
7429	7.9485	3.0909	0.1	3963.3
7430	7.9485	3.2727	0.1	3963.3
7431	7.9485	3.4545	0.1	3963.2
7432	7.9485	3.6364	0.1	3963.1
7433	7.9485	3.8182	0.1	3963.
7434	7.9485	4.	0.1	3962.8
7435	7.9485	4.1818	0.1	3962.5
7436	7.9485	4.3636	0.1	3962.3
7437	7.9485	4.5455	0.1	3962.
7438	7.9485	4.7273	0.1	3961.7
7439	7.9485	4.9091	0.1	3961.4
7440	7.9485	5.0909	0.1	3961.3
7441	7.9485	5.2727	0.1	3961.3
7442	7.9485	5.4545	0.1	3961.5
7443	7.9485	5.6364	0.1	3962.1
7444	7.9485	5.8182	0.1	3963.5
7445	8.1333	0.18182	0.1	3902.4
7446	8.1333	0.36364	0.1	3901.8
7447	8.1333	0.54545	0.1	3902.2
7448	8.1333	0.72727	0.1	3903.1
7449	8.1333	0.90909	0.1	3904.2
7450	8.1333	1.0909	0.1	3905.5
7451	8.1333	1.2727	0.1	3906.9
7452	8.1333	1.4545	0.1	3908.3
7453	8.1333	1.6364	0.1	3909.6
7454	8.1333	1.8182	0.1	3910.9
7455	8.1333	2.	0.1	3911.9
7456	8.1333	2.1818	0.1	3912.8
7457	8.1333	2.3636	0.1	3913.6
7458	8.1333	2.5455	0.1	3914.1
7459	8.1333	2.7273	0.1	3914.5
7460	8.1333	2.9091	0.1	3914.7
7461	8.1333	3.0909	0.1	3914.7
7462	8.1333	3.2727	0.1	3914.5
7463	8.1333	3.4545	0.1	3914.1
7464	8.1333	3.6364	0.1	3913.6
7465	8.1333	3.8182	0.1	3912.8
7466	8.1333	4.	0.1	3911.9
7467	8.1333	4.1818	0.1	3910.9
7468	8.1333	4.3636	0.1	3909.6
7469	8.1333	4.5455	0.1	3908.3
7470	8.1333	4.7273	0.1	3906.9
7471	8.1333	4.9091	0.1	3905.5
7472	8.1333	5.0909	0.1	3904.2
7473	8.1333	5.2727	0.1	3903.1
7474	8.1333	5.4545	0.1	3902.2
7475	8.1333	5.6364	0.1	3901.8
7476	8.1333	5.8182	0.1	3902.4
7477	8.3182	0.18182	0.1	3840.1
7478	8.3182	0.36364	0.1	3840.5
7479	8.3182	0.54545	0.1	3842.1
7480	8.3182	0.72727	0.1	3844.2
7481	8.3182	0.90909	0.1	3846.7
7482	8.3182	1.0909	0.1	3849.3
7483	8.3182	1.2727	0.1	3852.1
7484	8.3182	1.4545	0.1	3854.8
7485	8.3182	1.6364	0.1	3857.4
7486	8.3182	1.8182	0.1	3859.8
7487	8.3182	2.	0.1	3861.9
7488	8.3182	2.1818	0.1	3863.7
7489	8.3182	2.3636	0.1	3865.2
7490	8.3182	2.5455	0.1	3866.3
7491	8.3182	2.7273	0.1	3867.1
7492	8.3182	2.9091	0.1	3867.5
7493	8.3182	3.0909	0.1	3867.5
7494	8.3182	3.2727	0.1	3867.1
7495	8.3182	3.4545	0.1	3866.3
7496	8.3182	3.6364	0.1	3865.2
7497	8.3182	3.8182	0.1	3863.7
7498	8.3182	4.	0.1	3861.9
7499	8.3182	4.1818	0.1	3859.8
7500	8.3182	4.3636	0.1	3857.4
7501	8.3182	4.5455	0.1	3854.8
7502	8.3182	4.7273	0.1	3852.1
7503	8.3182	4.9091	0.1	3849.3
7504	8.3182	5.0909	0.1	3846.7
7505	8.3182	5.2727	0.1	3844.2
7506	8.3182	5.4545	0.1	3842.1
7507	8.3182	5.6364	0.1	3840.5
7508	8.3182	5.8182	0.1	3840.1
7509	8.503	0.18182	0.1	3776.2
7510	8.503	0.36364	0.1	3777.8
7511	8.503	0.54545	0.1	3780.8
7512	8.503	0.72727	0.1	3784.4
7513	8.503	0.90909	0.1	3788.4
7514	8.503	1.0909	0.1	3792.7
7515	8.503	1.2727	0.1	3797.1
7516	8.503	1.4545	0.1	3801.5
7517	8.503	1.6364	0.1	3805.6
7518	8.503	1.8182	0.1	3809.5
7519	8.503	2.	0.1	3812.9
7520	8.503	2.1818	0.1	3815.8
7521	8.503	2.3636	0.1	3818.3
7522	8.503	2.5455	0.1	3820.1
7523	8.503	2.7273	0.1	3821.3
7524	8.503	2.9091	0.1	3822.
7525	8.503	3.0909	0.1	3822.
7526	8.503	3.2727	0.1	3821.3
7527	8.503	3.4545	0.1	3820.1
7528	8.503	3.6364	0.1	3818.3
7529	8.503	3.8182	0.1	3815.8
7530	8.503	4.	0.1	3812.9
7531	8.503	4.1818	0.1	3809.4
7532	8.503	4.3636	0.1	3805.6
7533	8.503	4.5455	0.1	3801.5
7534	8.503	4.7273	0.1	3797.1
7535	8.503	4.9091	0.1	3792.7
7536	8.503	5.0909	0.1	3788.4
7537	8.503	5.2727	0.1	3784.4
7538	8.503	5.4545	0.1	3780.8
7539	8.503	5.6364	0.1	3777.8
7540	8.503	5.8182	0.1	3776.2
7541	8.6879	0.18182	0.1	3710.3
7542	8.6879	0.36364	0.1	3713.3
7543	8.6879	0.54545	0.1	3717.8
7544	8.6879	0.72727	0.1	3723.2
7545	8.6879	0.90909	0.1	3729.2
7546	8.6879	1.0909	0.1	3735.5
7547	8.6879	1.2727	0.1	3741.9
7548	8.6879	1.4545	0.1	3748.3
7549	8.6879	1.6364	0.1	3754.4
7550	8.6879	1.8182	0.1	3760.
7551	8.6879	2.	0.1	3765.1
7552	8.6879	2.1818	0.1	3769.5
7553	8.6879	2.3636	0.1	3773.1
7554	8.6879	2.5455	0.1	3775.9
7555	8.6879	2.7273	0.1	3777.7
7556	8.6879	2.9091	0.1	3778.7
7557	8.6879	3.0909	0.1	3778.7
7558	8.6879	3.2727	0.1	3777.7
7559	8.6879	3.4545	0.1	3775.9
7560	8.6879	3.6364	0.1	3773.1
7561	8.6879	3.8182	0.1	3769.5
7562	8.6879	4.	0.1	3765.1
7563	8.6879	4.1818	0.1	3760.
7564	8.6879	4.3636	0.1	3754.4
7565	8.6879	4.5455	0.1	3748.3
7566	8.6879	4.7273	0.1	3741.9
7567	8.6879	4.9091	0.1	3735.5
7568	8.6879	5.0909	0.1	3729.2
7569	8.6879	5.2727	0.1	3723.2
7570	8.6879	5.4545	0.1	3717.8
7571	8.6879	5.6364	0.1	3713.3
7572	8.6879	5.8182	0.1	3710.3
7573	8.8727	0.18182	0.1	3641.7
7574	8.8727	0.36364	0.1	3646.4
7575	8.8727	0.54545	0.1	3652.8
7576	8.8727	0.72727	0.1	3660.3
7577	8.8727	0.90909	0.1	3668.6
7578	8.8727	1.0909	0.1	3677.4
7579	8.8727	1.2727	0.1	3686.3
7580	8.8727	1.4545	0.1	3695.2
7581	8.8727	1.6364	0.1	3703.7
7582	8.8727	1.8182	0.1	3711.7
7583	8.8727	2.	0.1	3718.8
7584	8.8727	2.1818	0.1	3725.1
7585	8.8727	2.3636	0.1	3730.2
7586	8.8727	2.5455	0.1	3734.1
7587	8.8727	2.7273	0.1	3736.8
7588	8.8727	2.9091	0.1	3738.2
7589	8.8727	3.0909	0.1	3738.2
7590	8.8727	3.2727	0.1	3736.8
7591	8.8727	3.4545	0.1	3734.1
7592	8.8727	3.6364	0.1	3730.2
7593	8.8727	3.8182	0.1	3725.1
7594	8.8727	4.	0.1	3718.8
7595	8.8727	4.1818	0.1	3711.7
7596	8.8727	4.3636	0.1	3703.7
7597	8.8727	4.5455	0.1	3695.2
7598	8.8727	4.7273	0.1	3686.3
7599	8.8727	4.9091	0.1	3677.4
7600	8.8727	5.0909	0.1	3668.6
7601	8.8727	5.2727	0.1	3660.3
7602	8.8727	5.4545	0.1	3652.8
7603	8.8727	5.6364	0.1	3646.4
7604	8.8727	5.8182	0.1	3641.7
7605	9.0576	0.18182	0.1	3569.7
7606	9.0576	0.36364	0.1	3576.3
7607	9.0576	0.54545	0.1	3584.9
7608	9.0576	0.72727	0.1	3595.1
7609	9.0576	0.90909	0.1	3606.2
7610	9.0576	1.0909	0.1	3618.1
7611	9.0576	1.2727	0.1	3630.2
7612	9.0576	1.4545	0.1	3642.2
7613	9.0576	1.6364	0.1	3653.8
7614	9.0576	1.8182	0.1	3664.7
7615	9.0576	2.	0.1	3674.5
7616	9.0576	2.1818	0.1	3683.1
7617	9.0576	2.3636	0.1	3690.2
7618	9.0576	2.5455	0.1	3695.6
7619	9.0576	2.7273	0.1	3699.3
7620	9.0576	2.9091	0.1	3701.2
7621	9.0576	3.0909	0.1	3701.2
7622	9.0576	3.2727	0.1	3699.3
7623	9.0576	3.4545	0.1	3695.6
7624	9.0576	3.6364	0.1	3690.2
7625	9.0576	3.8182	0.1	3683.1
7626	9.0576	4.	0.1	3674.5
7627	9.0576	4.1818	0.1	3664.7
7628	9.0576	4.3636	0.1	3653.8
7629	9.0576	4.5455	0.1	3642.2
7630	9.0576	4.7273	0.1	3630.2
7631	9.0576	4.9091	0.1	3618.1
7632	9.0576	5.0909	0.1	3606.2
7633	9.0576	5.2727	0.1	3595.1
7634	9.0576	5.4545	0.1	3584.9
7635	9.0576	5.6364	0.1	3576.3
7636	9.0576	5.8182	0.1	3569.7
7637	9.2424	0.18182	0.1	3493.4
7638	9.2424	0.36364	0.1	3502.2
7639	9.2424	0.54545	0.1	3513.6
7640	9.2424	0.72727	0.1	3526.9
7641	9.2424	0.90909	0.1	3541.5
7642	9.2424	1.0909	0.1	3557.2
7643	9.2424	1.2727	0.1	3573.2
7644	9.2424	1.4545	0.1	3589.2
7645	9.2424	1.6364	0.1	3604.7
7646	9.2424	1.8182	0.1	3619.3
7647	9.2424	2.	0.1	3632.6
7648	9.2424	2.1818	0.1	3644.1
7649	9.2424	2.3636	0.1	3653.8
7650	9.2424	2.5455	0.1	3661.2
7651	9.2424	2.7273	0.1	3666.3
7652	9.2424	2.9091	0.1	3668.8
7653	9.2424	3.0909	0.1	3668.8
7654	9.2424	3.2727	0.1	3666.3
7655	9.2424	3.4545	0.1	3661.2
7656	9.2424	3.6364	0.1	3653.8
7657	9.2424	3.8182	0.1	3644.1
7658	9.2424	4.	0.1	3632.6
7659	9.2424	4.1818	0.1	3619.3
7660	9.2424	4.3636	0.1	3604.7
7661	9.2424	4.5455	0.1	3589.2
7662	9.2424	4.7273	0.1	3573.2
7663	9.2424	4.9091	0.1	3557.1
7664	9.2424	5.0909	0.1	3541.5
7665	9.2424	5.2727	0.1	3526.9
7666	9.2424	5.4545	0.1	3513.6
7667	9.2424	5.6364	0.1	3502.2
7668	9.2424	5.8182	0.1	3493.4
7669	9.4273	0.18182	0.1	3411.5
7670	9.4273	0.36364	0.1	3423.1
7671	9.4273	0.54545	0.1	3437.7
7672	9.4273	0.72727	0.1	3454.8
7673	9.4273	0.90909	0.1	3473.8
7674	9.4273	1.0909	0.1	3494.1
7675	9.4273	1.2727	0.1	3515.1
7676	9.4273	1.4545	0.1	3536.2
7677	9.4273	1.6364	0.1	3556.7
7678	9.4273	1.8182	0.1	3576.
7679	9.4273	2.	0.1	3593.6
7680	9.4273	2.1818	0.1	3609.1
7681	9.4273	2.3636	0.1	3622.
7682	9.4273	2.5455	0.1	3632.
7683	9.4273	2.7273	0.1	3638.8
7684	9.4273	2.9091	0.1	3642.2
7685	9.4273	3.0909	0.1	3642.2
7686	9.4273	3.2727	0.1	3638.8
7687	9.4273	3.4545	0.1	3632.
7688	9.4273	3.6364	0.1	3622.
7689	9.4273	3.8182	0.1	3609.1
7690	9.4273	4.	0.1	3593.6
7691	9.4273	4.1818	0.1	3576.
7692	9.4273	4.3636	0.1	3556.7
7693	9.4273	4.5455	0.1	3536.2
7694	9.4273	4.7273	0.1	3515.1
7695	9.4273	4.9091	0.1	3494.1
7696	9.4273	5.0909	0.1	3473.8
7697	9.4273	5.2727	0.1	3454.8
7698	9.4273	5.4545	0.1	3437.7
7699	9.4273	5.6364	0.1	3423.1
7700	9.4273	5.8182	0.1	3411.5
7701	9.6121	0.18182	0.1	3322.8
7702	9.6121	0.36364	0.1	3337.6
7703	9.6121	0.54545	0.1	3356.1
7704	9.6121	0.72727	0.1	3377.8
7705	9.6121	0.90909	0.1	3402.2
7706	9.6121	1.0909	0.1	3428.4
7707	9.6121	1.2727	0.1	3455.6
7708	9.6121	1.4545	0.1	3483.
7709	9.6121	1.6364	0.1	3509.8
7710	9.6121	1.8182	0.1	3535.2
7711	9.6121	2.	0.1	3558.4
7712	9.6121	2.1818	0.1	3578.9
7713	9.6121	2.3636	0.1	3596.1
7714	9.6121	2.5455	0.1	3609.4
7715	9.6121	2.7273	0.1	3618.5
7716	9.6121	2.9091	0.1	3623.1
7717	9.6121	3.0909	0.1	3623.1
7718	9.6121	3.2727	0.1	3618.5
7719	9.6121	3.4545	0.1	3609.4
7720	9.6121	3.6364	0.1	3596.1
7721	9.6121	3.8182	0.1	3578.9
7722	9.6121	4.	0.1	3558.4
7723	9.6121	4.1818	0.1	3535.2
7724	9.6121	4.3636	0.1	3509.8
7725	9.6121	4.5455	0.1	3483.
7726	9.6121	4.7273	0.1	3455.6
7727	9.6121	4.9091	0.1	3428.4
7728	9.6121	5.0909	0.1	3402.2
7729	9.6121	5.2727	0.1	3377.8
7730	9.6121	5.4545	0.1	3356.1
7731	9.6121	5.6364	0.1	3337.6
7732	9.6121	5.8182	0.1	3322.8
7733	9.797	0.18182	0.1	3225.5
7734	9.797	0.36364	0.1	3244.
7735	9.797	0.54545	0.1	3267.2
7736	9.797	0.72727	0.1	3294.6
7737	9.797	0.90909	0.1	3325.5
7738	9.797	1.0909	0.1	3359.
7739	9.797	1.2727	0.1	3394.
7740	9.797	1.4545	0.1	3429.5
7741	9.797	1.6364	0.1	3464.4
7742	9.797	1.8182	0.1	3497.5
7743	9.797	2.	0.1	3528.1
7744	9.797	2.1818	0.1	3555.
7745	9.797	2.3636	0.1	3577.7
7746	9.797	2.5455	0.1	3595.3
7747	9.797	2.7273	0.1	3607.4
7748	9.797	2.9091	0.1	3613.6
7749	9.797	3.0909	0.1	3613.6
7750	9.797	3.2727	0.1	3607.4
7751	9.797	3.4545	0.1	3595.3
7752	9.797	3.6364	0.1	3577.7
7753	9.797	3.8182	0.1	3555.
7754	9.797	4.	0.1	3528.
7755	9.797	4.1818	0.1	3497.5
7756	9.797	4.3636	0.1	3464.4
7757	9.797	4.5455	0.1	3429.5
7758	9.797	4.7273	0.1	3394.
7759	9.797	4.9091	0.1	3359.
7760	9.797	5.0909	0.1	3325.5
7761	9.797	5.2727	0.1	3294.6
7762	9.797	5.4545	0.1	3267.2
7763	9.797	5.6364	0.1	3244.
7764	9.797	5.8182	0.1	3225.5
7765	9.9818	0.18182	0.1	3117.7
7766	9.9818	0.36364	0.1	3140.5
7767	9.9818	0.54545	0.1	3169.2
7768	9.9818	0.72727	0.1	3203.5
7769	9.9818	0.90909	0.1	3242.5
7770	9.9818	1.0909	0.1	3285.1
7771	9.9818	1.2727	0.1	3330.
7772	9.9818	1.4545	0.1	3375.7
7773	9.9818	1.6364	0.1	3420.8
7774	9.9818	1.8182	0.1	3463.9
7775	9.9818	2.	0.1	3503.7
7776	9.9818	2.1818	0.1	3539.1
7777	9.9818	2.3636	0.1	3568.8
7778	9.9818	2.5455	0.1	3592.1
7779	9.9818	2.7273	0.1	3608.1
7780	9.9818	2.9091	0.1	3616.3
7781	9.9818	3.0909	0.1	3616.3
7782	9.9818	3.2727	0.1	3608.1
7783	9.9818	3.4545	0.1	3592.1
7784	9.9818	3.6364	0.1	3568.8
7785	9.9818	3.8182	0.1	3539.1
7786	9.9818	4.	0.1	3503.7
7787	9.9818	4.1818	0.1	3463.9
7788	9.9818	4.3636	0.1	3420.8
7789	9.9818	4.5455	0.1	3375.7
7790	9.9818	4.7273	0.1	3330.
7791	9.9818	4.9091	0.1	3285.1
7792	9.9818	5.0909	0.1	3242.5
7793	9.9818	5.2727	0.1	3203.5
7794	9.9818	5.4545	0.1	3169.2
7795	9.9818	5.6364	0.1	3140.5
7796	9.9818	5.8182	0.1	3117.7
7797	10.167	0.18182	0.1	2996.8
7798	10.167	0.36364	0.1	3024.6
7799	10.167	0.54545	0.1	3059.8
7800	10.167	0.72727	0.1	3102.5
7801	10.167	0.90909	0.1	3151.5
7802	10.167	1.0909	0.1	3205.4
7803	10.167	1.2727	0.1	3262.6
7804	10.167	1.4545	0.1	3321.3
7805	10.167	1.6364	0.1	3379.5
7806	10.167	1.8182	0.1	3435.4
7807	10.167	2.	0.1	3487.2
7808	10.167	2.1818	0.1	3533.3
7809	10.167	2.3636	0.1	3572.3
7810	10.167	2.5455	0.1	3602.9
7811	10.167	2.7273	0.1	3624.1
7812	10.167	2.9091	0.1	3634.8
7813	10.167	3.0909	0.1	3634.8
7814	10.167	3.2727	0.1	3624.1
7815	10.167	3.4545	0.1	3602.9
7816	10.167	3.6364	0.1	3572.3
7817	10.167	3.8182	0.1	3533.3
7818	10.167	4.	0.1	3487.2
7819	10.167	4.1818	0.1	3435.4
7820	10.167	4.3636	0.1	3379.5
7821	10.167	4.5455	0.1	3321.3
7822	10.167	4.7273	0.1	3262.6
7823	10.167	4.9091	0.1	3205.4
7824	10.167	5.0909	0.1	3151.5
7825	10.167	5.2727	0.1	3102.5
7826	10.167	5.4545	0.1	3059.8
7827	10.167	5.6364	0.1	3024.6
7828	10.167	5.8182	0.1	2996.8
7829	10.352	0.18182	0.1	2860.3
7830	10.352	0.36364	0.1	2893.6
7831	10.352	0.54545	0.1	2936.6
7832	10.352	0.72727	0.1	2989.2
7833	10.352	0.90909	0.1	3050.3
7834	10.352	1.0909	0.1	3118.3
7835	10.352	1.2727	0.1	3191.1
7836	10.352	1.4545	0.1	3266.3
7837	10.352	1.6364	0.1	3341.2
7838	10.352	1.8182	0.1	3413.4
7839	10.352	2.	0.1	3480.6
7840	10.352	2.1818	0.1	3540.6
7841	10.352	2.3636	0.1	3591.6
7842	10.352	2.5455	0.1	3631.8
7843	10.352	2.7273	0.1	3659.6
7844	10.352	2.9091	0.1	3673.8
7845	10.352	3.0909	0.1	3673.8
7846	10.352	3.2727	0.1	3659.6
7847	10.352	3.4545	0.1	3631.8
7848	10.352	3.6364	0.1	3591.6
7849	10.352	3.8182	0.1	3540.6
7850	10.352	4.	0.1	3480.6
7851	10.352	4.1818	0.1	3413.4
7852	10.352	4.3636	0.1	3341.2
7853	10.352	4.5455	0.1	3266.3
7854	10.352	4.7273	0.1	3191.1
7855	10.352	4.9091	0.1	3118.3
7856	10.352	5.0909	0.1	3050.3
7857	10.352	5.2727	0.1	2989.2
7858	10.352	5.4545	0.1	2936.6
7859	10.352	5.6364	0.1	2893.6
7860	10.352	5.8182	0.1	2860.3
7861	10.536	0.18182	0.1	2705.
7862	10.536	0.36364	0.1	2744.4
7863	10.536	0.54545	0.1	2796.3
7864	10.536	0.72727	0.1	2860.8
7865	10.536	0.90909	0.1	2936.7
7866	10.536	1.0909	0.1	3022.1
7867	10.536	1.2727	0.1	3114.5
7868	10.536	1.4545	0.1	3210.5
7869	10.536	1.6364	0.1	3306.9
7870	10.536	1.8182	0.1	3400.1
7871	10.536	2.	0.1	3487.1
7872	10.536	2.1818	0.1	3565.1
7873	10.536	2.3636	0.1	3631.6
7874	10.536	2.5455	0.1	3684.
7875	10.536	2.7273	0.1	3720.3
7876	10.536	2.9091	0.1	3739.
7877	10.536	3.0909	0.1	3739.
7878	10.536	3.2727	0.1	3720.3
7879	10.536	3.4545	0.1	3684.
7880	10.536	3.6364	0.1	3631.6
7881	10.536	3.8182	0.1	3565.1
7882	10.536	4.	0.1	3487.1
7883	10.536	4.1818	0.1	3400.1
7884	10.536	4.3636	0.1	3306.9
7885	10.536	4.5455	0.1	3210.5
7886	10.536	4.7273	0.1	3114.5
7887	10.536	4.9091	0.1	3022.1
7888	10.536	5.0909	0.1	2936.7
7889	10.536	5.2727	0.1	2860.8
7890	10.536	5.4545	0.1	2796.3
7891	10.536	5.6364	0.1	2744.4
7892	10.536	5.8182	0.1	2705.
7893	10.721	0.18182	0.1	2527.7
7894	10.721	0.36364	0.1	2573.6
7895	10.721	0.54545	0.1	2635.5
7896	10.721	0.72727	0.1	2714.
7897	10.721	0.90909	0.1	2807.7
7898	10.721	1.0909	0.1	2914.7
7899	10.721	1.2727	0.1	3031.6
7900	10.721	1.4545	0.1	3154.2
7901	10.721	1.6364	0.1	3278.
7902	10.721	1.8182	0.1	3398.4
7903	10.721	2.	0.1	3511.
7904	10.721	2.1818	0.1	3612.2
7905	10.721	2.3636	0.1	3698.5
7906	10.721	2.5455	0.1	3766.6
7907	10.721	2.7273	0.1	3813.8
7908	10.721	2.9091	0.1	3838.
7909	10.721	3.0909	0.1	3838.
7910	10.721	3.2727	0.1	3813.8
7911	10.721	3.4545	0.1	3766.6
7912	10.721	3.6364	0.1	3698.5
7913	10.721	3.8182	0.1	3612.2
7914	10.721	4.	0.1	3511.
7915	10.721	4.1818	0.1	3398.4
7916	10.721	4.3636	0.1	3278.
7917	10.721	4.5455	0.1	3154.2
7918	10.721	4.7273	0.1	3031.6
7919	10.721	4.9091	0.1	2914.7
7920	10.721	5.0909	0.1	2807.7
7921	10.721	5.2727	0.1	2714.
7922	10.721	5.4545	0.1	2635.5
7923	10.721	5.6364	0.1	2573.6
7924	10.721	5.8182	0.1	2527.7
7925	10.906	0.18182	0.1	2325.
7926	10.906	0.36364	0.1	2377.5
7927	10.906	0.54545	0.1	2450.8
7928	10.906	0.72727	0.1	2545.4
7929	10.906	0.90909	0.1	2660.4
7930	10.906	1.0909	0.1	2793.6
7931	10.906	1.2727	0.1	2941.
7932	10.906	1.4545	0.1	3097.6
7933	10.906	1.6364	0.1	3257.
7934	10.906	1.8182	0.1	3412.7
7935	10.906	2.	0.1	3558.7
7936	10.906	2.1818	0.1	3689.8
7937	10.906	2.3636	0.1	3801.3
7938	10.906	2.5455	0.1	3889.
7939	10.906	2.7273	0.1	3949.5
7940	10.906	2.9091	0.1	3980.2
7941	10.906	3.0909	0.1	3980.2
7942	10.906	3.2727	0.1	3949.5
7943	10.906	3.4545	0.1	3889.
7944	10.906	3.6364	0.1	3801.3
7945	10.906	3.8182	0.1	3689.8
7946	10.906	4.	0.1	3558.7
7947	10.906	4.1818	0.1	3412.7
7948	10.906	4.3636	0.1	3257.
7949	10.906	4.5455	0.1	3097.6
7950	10.906	4.7273	0.1	2941.
7951	10.906	4.9091	0.1	2793.6
7952	10.906	5.0909	0.1	2660.4
7953	10.906	5.2727	0.1	2545.4
7954	10.906	5.4545	0.1	2450.8
7955	10.906	5.6364	0.1	2377.5
7956	10.906	5.8182	0.1	2325.
7957	11.091	0.18182	0.1	2093.9
7958	11.091	0.36364	0.1	2153.2
7959	11.091	0.54545	0.1	2238.9
7960	11.091	0.72727	0.1	2351.9
7961	11.091	0.90909	0.1	2491.7
7962	11.091	1.0909	0.1	2656.2
7963	11.091	1.2727	0.1	2841.5
7964	11.091	1.4545	0.1	3041.3
7965	11.091	1.6364	0.1	3247.3
7966	11.091	1.8182	0.1	3449.9
7967	11.091	2.	0.1	3640.
7968	11.091	2.1818	0.1	3810.
7969	11.091	2.3636	0.1	3953.2
7970	11.091	2.5455	0.1	4064.2
7971	11.091	2.7273	0.1	4139.2
7972	11.091	2.9091	0.1	4176.8
7973	11.091	3.0909	0.1	4176.8
7974	11.091	3.2727	0.1	4139.2
7975	11.091	3.4545	0.1	4064.2
7976	11.091	3.6364	0.1	3953.2
7977	11.091	3.8182	0.1	3810.
7978	11.091	4.	0.1	3640.
7979	11.091	4.1818	0.1	3449.9
7980	11.091	4.3636	0.1	3247.3
7981	11.091	4.5455	0.1	3041.3
7982	11.091	4.7273	0.1	2841.5
7983	11.091	4.9091	0.1	2656.2
7984	11.091	5.0909	0.1	2491.7
7985	11.091	5.2727	0.1	2351.9
7986	11.091	5.4545	0.1	2238.9
7987	11.091	5.6364	0.1	2153.2
7988	11.091	5.8182	0.1	2093.9
7989	11.276	0.18182	0.1	1832.5
7990	11.276	0.36364	0.1	1898.3
7991	11.276	0.54545	0.1	1997.9
7992	11.276	0.72727	0.1	2131.8
7993	11.276	0.90909	0.1	2299.7
7994	11.276	1.0909	0.1	2500.5
7995	11.276	1.2727	0.1	2731.2
7996	11.276	1.4545	0.1	2986.
7997	11.276	1.6364	0.1	3253.9
7998	11.276	1.8182	0.1	3520.6
7999	11.276	2.	0.1	3771.1
8000	11.276	2.1818	0.1	3992.5
8001	11.276	2.3636	0.1	4174.3
8002	11.276	2.5455	0.1	4309.6
8003	11.276	2.7273	0.1	4397.1
8004	11.276	2.9091	0.1	4439.4
8005	11.276	3.0909	0.1	4439.4
8006	11.276	3.2727	0.1	4397.1
8007	11.276	3.4545	0.1	4309.6
8008	11.276	3.6364	0.1	4174.3
8009	11.276	3.8182	0.1	3992.5
8010	11.276	4.	0.1	3771.1
8011	11.276	4.1818	0.1	3520.6
8012	11.276	4.3636	0.1	3253.9
8013	11.276	4.5455	0.1	2986.
8014	11.276	4.7273	0.1	2731.2
8015	11.276	4.9091	0.1	2500.5
8016	11.276	5.0909	0.1	2299.7
8017	11.276	5.2727	0.1	2131.8
8018	11.276	5.4545	0.1	1997.9
8019	11.276	5.6364	0.1	1898.3
8020	11.276	5.8182	0.1	1832.5
8021	11.461	0.18182	0.1	1540.1
8022	11.461	0.36364	0.1	1613.4
8023	11.461	0.54545	0.1	1729.5
8024	11.461	0.72727	0.1	1886.8
8025	11.461	0.90909	0.1	2085.2
8026	11.461	1.0909	0.1	2325.3
8027	11.461	1.2727	0.1	2607.8
8028	11.461	1.4545	0.1	2930.7
8029	11.461	1.6364	0.1	3283.6
8030	11.461	1.8182	0.1	3643.
8031	11.461	2.	0.1	3981.3
8032	11.461	2.1818	0.1	4272.3
8033	11.461	2.3636	0.1	4497.5
8034	11.461	2.5455	0.1	4649.7
8035	11.461	2.7273	0.1	4737.3
8036	11.461	2.9091	0.1	4775.8
8037	11.461	3.0909	0.1	4775.8
8038	11.461	3.2727	0.1	4737.3
8039	11.461	3.4545	0.1	4649.7
8040	11.461	3.6364	0.1	4497.5
8041	11.461	3.8182	0.1	4272.3
8042	11.461	4.	0.1	3981.3
8043	11.461	4.1818	0.1	3643.
8044	11.461	4.3636	0.1	3283.6
8045	11.461	4.5455	0.1	2930.7
8046	11.461	4.7273	0.1	2607.8
8047	11.461	4.9091	0.1	2325.3
8048	11.461	5.0909	0.1	2085.2
8049	11.461	5.2727	0.1	1886.8
8050	11.461	5.4545	0.1	1729.5
8051	11.461	5.6364	0.1	1613.4
8052	11.461	5.8182	0.1	1540.1
8053	11.645	0.18182	0.1	1218.8
8054	11.645	0.36364	0.1	1304.
8055	11.645	0.54545	0.1	1442.7
8056	11.645	0.72727	0.1	1627.1
8057	11.645	0.90909	0.1	1855.6
8058	11.645	1.0909	0.1	2132.7
8059	11.645	1.2727	0.1	2467.3
8060	11.645	1.4545	0.1	2871.3
8061	11.645	1.6364	0.1	3340.7
8062	11.645	1.8182	0.1	3849.
8063	11.645	2.	0.1	4334.1
8064	11.645	2.1818	0.1	4720.5
8065	11.645	2.3636	0.1	4982.
8066	11.645	2.5455	0.1	5114.3
8067	11.645	2.7273	0.1	5165.5
8068	11.645	2.9091	0.1	5180.2
8069	11.645	3.0909	0.1	5180.2
8070	11.645	3.2727	0.1	5165.5
8071	11.645	3.4545	0.1	5114.3
8072	11.645	3.6364	0.1	4982.
8073	11.645	3.8182	0.1	4720.5
8074	11.645	4.	0.1	4334.1
8075	11.645	4.1818	0.1	3849.
8076	11.645	4.3636	0.1	3340.7
8077	11.645	4.5455	0.1	2871.3
8078	11.645	4.7273	0.1	2467.3
8079	11.645	4.9091	0.1	2132.7
8080	11.645	5.0909	0.1	1855.6
8081	11.645	5.2727	0.1	1627.1
8082	11.645	5.4545	0.1	1442.7
8083	11.645	5.6364	0.1	1304.
8084	11.645	5.8182	0.1	1218.8
8085	11.83	0.18182	0.1	874.62
8086	11.83	0.36364	0.1	988.18
8087	11.83	0.54545	0.1	1162.4
8088	11.83	0.72727	0.1	1376.7
8089	11.83	0.90909	0.1	1630.2
8090	11.83	1.0909	0.1	1932.7
8091	11.83	1.2727	0.1	2306.4
8092	11.83	1.4545	0.1	2782.4
8093	11.83	1.6364	0.1	3418.4
8094	11.83	1.8182	0.1	4207.4
8095	11.83	2.	0.1	4952.5
8096	11.83	2.1818	0.1	5525.4
8097	11.83	2.3636	0.1	5730.3
8098	11.83	2.5455	0.1	5721.
8099	11.83	2.7273	0.1	5658.
8100	11.83	2.9091	0.1	5615.
8101	11.83	3.0909	0.1	5615.
8102	11.83	3.2727	0.1	5658.
8103	11.83	3.4545	0.1	5721.
8104	11.83	3.6364	0.1	5730.3
8105	11.83	3.8182	0.1	5525.4
8106	11.83	4.	0.1	4952.5
8107	11.83	4.1818	0.1	4207.4
8108	11.83	4.3636	0.1	3418.4
8109	11.83	4.5455	0.1	2782.4
8110	11.83	4.7273	0.1	2306.4
8111	11.83	4.9091	0.1	1932.7
8112	11.83	5.0909	0.1	1630.2
8113	11.83	5.2727	0.1	1376.7
8114	11.83	5.4545	0.1	1162.4
8115	11.83	5.6364	0.1	988.18
8116	11.83	5.8182	0.1	874.62
8117	12.015	0.18182	0.1	542.52
8118	12.015	0.36364	0.1	740.39
8119	12.015	0.54545	0.1	970.56
8120	12.015	0.72727	0.1	1218.7
8121	12.015	0.90909	0.1	1494.6
8122	12.015	1.0909	0.1	1815.8
8123	12.015	1.2727	0.1	2210.3
8124	12.015	1.4545	0.1	2743.4
8125	12.015	1.6364	0.1	3507.6
8126	12.015	1.8182	0.1	5043.4
8127	12.015	2.	0.1	7038.4
8128	12.015	2.1818	0.1	7177.1
8129	12.015	2.3636	0.1	6836.3
8130	12.015	2.5455	0.1	6389.1
8131	12.015	2.7273	0.1	6123.2
8132	12.015	2.9091	0.1	5995.
8133	12.015	3.0909	0.1	5995.
8134	12.015	3.2727	0.1	6123.2
8135	12.015	3.4545	0.1	6389.1
8136	12.015	3.6364	0.1	6836.3
8137	12.015	3.8182	0.1	7177.1
8138	12.015	4.	0.1	7038.4
8139	12.015	4.1818	0.1	5043.4
8140	12.015	4.3636	0.1	3507.6
8141	12.015	4.5455	0.1	2743.4
8142	12.015	4.7273	0.1	2210.3
8143	12.015	4.9091	0.1	1815.8
8144	12.015	5.0909	0.1	1494.6
8145	12.015	5.2727	0.1	1218.7
8146	12.015	5.4545	0.1	970.56
8147	12.015	5.6364	0.1	740.39
8148	12.015	5.8182	0.1	542.52
8149	12.367	3.8182	0.1	9755.3
8150	12.367	3.6364	0.1	7746.2
8151	12.367	3.4545	0.1	6826.1
8152	12.367	3.2727	0.1	6362.8
8153	12.367	3.0909	0.1	6164.8
8154	12.367	2.9091	0.1	6164.8
8155	12.367	2.7273	0.1	6362.8
8156	12.367	2.5455	0.1	6826.1
8157	12.367	2.3636	0.1	7746.3
8158	12.367	2.1818	0.1	9755.3
8159	12.2	3.8182	0.1	9708.4
8160	12.2	3.6364	0.1	7743.8
8161	12.2	3.4545	0.1	6851.5
8162	12.2	3.2727	0.1	6396.8
8163	12.2	3.0909	0.1	6202.6
8164	12.2	2.9091	0.1	6202.6
8165	12.2	2.7273	0.1	6396.8
8166	12.2	2.5455	0.1	6851.5
8167	12.2	2.3636	0.1	7743.8
8168	12.2	2.1818	0.1	9708.4
8169	12.367	5.8182	0.1	251.11
8170	12.367	5.6364	0.1	442.04
8171	12.367	5.4545	0.1	611.57
8172	12.367	5.2727	0.1	783.09
8173	12.367	5.0909	0.1	969.75
8174	12.367	4.9091	0.1	1186.4
8175	12.367	4.7273	0.1	1453.7
8176	12.367	4.5455	0.1	1819.
8177	12.367	4.3636	0.1	2323.4
8178	12.367	4.1818	0.1	3532.2
8179	12.367	4.	0.1	14082
8180	12.2	4.	0.1	13799
8181	12.2	4.1818	0.1	3261.
8182	12.2	4.3636	0.1	2167.9
8183	12.2	4.5455	0.1	1729.9
8184	12.2	4.7273	0.1	1410.1
8185	12.2	4.9091	0.1	1173.8
8186	12.2	5.0909	0.1	977.2
8187	12.2	5.2727	0.1	803.34
8188	12.2	5.4545	0.1	638.66
8189	12.2	5.6364	0.1	470.66
8190	12.2	5.8182	0.1	274.23
8191	12.367	0.18182	0.1	251.11
8192	12.367	0.36364	0.1	442.04
8193	12.367	0.54545	0.1	611.57
8194	12.367	0.72727	0.1	783.09
8195	12.367	0.90909	0.1	969.75
8196	12.367	1.0909	0.1	1186.4
8197	12.367	1.2727	0.1	1453.7
8198	12.367	1.4545	0.1	1819.
8199	12.367	1.6364	0.1	2323.4
8200	12.367	1.8182	0.1	3532.2
8201	12.367	2.	0.1	14082
8202	12.2	2.	0.1	13799
8203	12.2	1.8182	0.1	3261.
8204	12.2	1.6364	0.1	2167.9
8205	12.2	1.4545	0.1	1729.9
8206	12.2	1.2727	0.1	1410.1
8207	12.2	1.0909	0.1	1173.8
8208	12.2	0.90909	0.1	977.2
8209	12.2	0.72727	0.1	803.34
8210	12.2	0.54545	0.1	638.66
8211	12.2	0.36364	0.1	470.66
8212	12.2	0.18182	0.1	274.23
8213	12.367	6.	0.1	32.244
8214	12.551	6.	0.1	329.75
8215	12.736	6.	0.1	641.19
8216	12.921	6.	0.1	913.58
8217	13.105	6.	0.1	1150.4
8218	13.29	6.	0.1	1351.4
8219	13.475	6.	0.1	1516.8
8220	13.659	6.	0.1	1648.7
8221	13.844	6.	0.1	1750.3
8222	14.029	6.	0.1	1825.2
8223	14.213	6.	0.1	1877.3
8224	14.398	6.	0.1	1910.3
8225	14.583	6.	0.1	1927.4
8226	14.767	6.	0.1	1931.6
8227	14.952	6.	0.1	1925.3
8228	15.137	6.	0.1	1910.6
8229	15.321	6.	0.1	1889.1
8230	15.506	6.	0.1	1862.3
8231	15.69	6.	0.1	1831.4
8232	15.875	6.	0.1	1797.2
8233	16.06	6.	0.1	1760.4
8234	16.244	6.	0.1	1721.7
8235	16.429	6.	0.1	1681.5
8236	16.614	6.	0.1	1640.2
8237	16.798	6.	0.1	1598.
8238	16.983	6.	0.1	1555.3
8239	17.168	6.	0.1	1512.2
8240	17.352	6.	0.1	1468.8
8241	17.537	6.	0.1	1425.2
8242	17.722	6.	0.1	1381.6
8243	17.906	6.	0.1	1337.9
8244	18.091	6.	0.1	1294.3
8245	18.276	6.	0.1	1250.8
8246	18.46	6.	0.1	1207.5
8247	18.645	6.	0.1	1164.2
8248	18.83	6.	0.1	1121.1
8249	19.014	6.	0.1	1078.2
8250	19.199	6.	0.1	1035.4
8251	19.384	6.	0.1	992.81
8252	19.568	6.	0.1	950.4
8253	19.753	6.	0.1	908.16
8254	19.938	6.	0.1	866.1
8255	20.122	6.	0.1	824.22
8256	20.307	6.	0.1	782.52
8257	20.492	6.	0.1	740.99
8258	20.676	6.	0.1	699.63
8259	20.861	6.	0.1	658.44
8260	21.046	6.	0.1	617.43
8261	21.23	6.	0.1	576.58
8262	21.415	6.	0.1	535.9
8263	21.599	6.	0.1	495.39
8264	21.784	6.	0.1	455.05
8265	21.969	6.	0.1	414.9
8266	22.153	6.	0.1	374.94
8267	22.338	6.	0.1	335.19
8268	22.523	6.	0.1	295.68
8269	22.707	6.	0.1	256.44
8270	22.892	6.	0.1	217.52
8271	23.077	6.	0.1	179.
8272	23.261	6.	0.1	141.01
8273	23.446	6.	0.1	103.76
8274	23.631	6.	0.1	67.648
8275	23.815	6.	0.1	33.586
8276	24.	6.	0.1	5.2425
8277	24.	5.8182	0.1	6.7463
8278	24.	5.6364	0.1	7.1144
8279	24.	5.4545	0.1	7.2274
8280	24.	5.2727	0.1	7.262
8281	24.	5.0909	0.1	7.2397
8282	24.	4.9091	0.1	7.2003
8283	24.	4.7273	0.1	7.152
8284	24.	4.5455	0.1	7.1022
8285	24.	4.3636	0.1	7.0542
8286	24.	4.1818	0.1	7.01
8287	24.	4.	0.1	6.9709
8288	24.	3.8182	0.1	6.9377
8289	24.	3.6364	0.1	6.9107
8290	24.	3.4545	0.1	6.8903
8291	24.	3.2727	0.1	6.8767
8292	24.	3.0909	0.1	6.8698
8293	24.	2.9091	0.1	6.8698
8294	24.	2.7273	0.1	6.8767
8295	24.	2.5455	0.1	6.8903
8296	24.	2.3636	0.1	6.9107
8297	24.	2.1818	0.1	6.9377
8298	24.	2.	0.1	6.9709
8299	24.	1.8182	0.1	7.01
8300	24.	1.6364	0.1	7.0542
8301	24.	1.4545	0.1	7.1022
8302	24.	1.2727	0.1	7.152
8303	24.	1.0909	0.1	7.2003
8304	24.	0.90909	0.1	7.2397
8305	24.	0.72727	0.1	7.262
8306	24.	0.54545	0.1	7.2274
8307	24.	0.36364	0.1	7.1144
8308	24.	0.18182	0.1	6.7463
8309	1.5894e-015	0.18182	0.1	2498.8
8310	3.1789e-015	0.36364	0.1	4638.6
8311	4.7683e-015	0.54545	0.1	5689.5
8312	6.3578e-015	0.72727	0.1	6335.8
8313	7.9472e-015	0.90909	0.1	6767.3
8314	9.5366e-015	1.0909	0.1	7075.4
8315	1.1126e-014	1.2727	0.1	7303.5
8316	1.2716e-014	1.4545	0.1	7476.6
8317	1.4305e-014	1.6364	0.1	7609.9
8318	1.5894e-014	1.8182	0.1	7713.3
8319	1.7484e-014	2.	0.1	7793.5
8320	1.9073e-014	2.1818	0.1	7855.
8321	2.0663e-014	2.3636	0.1	7901.
8322	2.2252e-014	2.5455	0.1	7933.8
8323	2.3842e-014	2.7273	0.1	7954.9
8324	2.5431e-014	2.9091	0.1	7965.3
8325	2.702e-014	3.0909	0.1	7965.3
8326	2.861e-014	3.2727	0.1	7954.9
8327	3.0199e-014	3.4545	0.1	7933.8
8328	3.1789e-014	3.6364	0.1	7901.
8329	3.3378e-014	3.8182	0.1	7855.
8330	3.4968e-014	4.	0.1	7793.5
8331	3.6557e-014	4.1818	0.1	7713.3
8332	3.8147e-014	4.3636	0.1	7609.9
8333	3.9736e-014	4.5455	0.1	7476.6
8334	4.1325e-014	4.7273	0.1	7303.5
8335	4.2915e-014	4.9091	0.1	7075.4
8336	4.4504e-014	5.0909	0.1	6767.3
8337	4.6094e-014	5.2727	0.1	6335.8
8338	4.7683e-014	5.4545	0.1	5689.5
8339	4.9273e-014	5.6364	0.1	4638.6
8340	5.0862e-014	5.8182	0.1	2498.8
8341	24.	0.	0.1	5.2425
8342	23.815	0.	0.1	33.586
8343	23.631	0.	0.1	67.648
8344	23.446	0.	0.1	103.76
8345	23.261	0.	0.1	141.01
8346	23.077	0.	0.1	179.
8347	22.892	0.	0.1	217.52
8348	22.707	0.	0.1	256.44
8349	22.523	0.	0.1	295.68
8350	22.338	0.	0.1	335.19
8351	22.153	0.	0.1	374.94
8352	21.969	0.	0.1	414.9
8353	21.784	0.	0.1	455.05
8354	21.599	0.	0.1	495.39
8355	21.415	0.	0.1	535.9
8356	21.23	0.	0.1	576.58
8357	21.046	0.	0.1	617.43
8358	20.861	0.	0.1	658.45
8359	20.676	0.	0.1	699.63
8360	20.492	0.	0.1	740.99
8361	20.307	0.	0.1	782.52
8362	20.122	0.	0.1	824.22
8363	19.938	0.	0.1	866.1
8364	19.753	0.	0.1	908.16
8365	19.568	0.	0.1	950.4
8366	19.384	0.	0.1	992.81
8367	19.199	0.	0.1	1035.4
8368	19.014	0.	0.1	1078.2
8369	18.83	0.	0.1	1121.1
8370	18.645	0.	0.1	1164.2
8371	18.46	0.	0.1	1207.5
8372	18.276	0.	0.1	1250.8
8373	18.091	0.	0.1	1294.3
8374	17.906	0.	0.1	1337.9
8375	17.722	0.	0.1	1381.6
8376	17.537	0.	0.1	1425.2
8377	17.352	0.	0.1	1468.8
8378	17.168	0.	0.1	1512.2
8379	16.983	0.	0.1	1555.3
8380	16.798	0.	0.1	1598.
8381	16.614	0.	0.1	1640.2
8382	16.429	0.	0.1	1681.5
8383	16.244	0.	0.1	1721.7
8384	16.06	0.	0.1	1760.4
8385	15.875	0.	0.1	1797.2
8386	15.69	0.	0.1	1831.4
8387	15.506	0.	0.1	1862.3
8388	15.321	0.	0.1	1889.1
8389	15.137	0.	0.1	1910.6
8390	14.952	0.	0.1	1925.3
8391	14.767	0.	0.1	1931.6
8392	14.583	0.	0.1	1927.4
8393	14.398	0.	0.1	1910.3
8394	14.213	0.	0.1	1877.3
8395	14.029	0.	0.1	1825.2
8396	13.844	0.	0.1	1750.3
8397	13.659	0.	0.1	1648.7
8398	13.475	0.	0.1	1516.8
8399	13.29	0.	0.1	1351.4
8400	13.105	0.	0.1	1150.4
8401	12.921	0.	0.1	913.58
8402	12.736	0.	0.1	641.19
8403	12.551	0.	0.1	329.75
8404	12.367	0.	0.1	32.244
8405	12.2	0.	0.1	37.249
8406	12.015	5.0182e-030	0.1	394.11
8407	11.83	4.941e-030	0.1	788.08
8408	11.645	4.8638e-030	0.1	1150.7
8409	11.461	4.7866e-030	0.1	1483.9
8410	11.276	4.7094e-030	0.1	1785.8
8411	11.091	4.6322e-030	0.1	2055.1
8412	10.906	4.555e-030	0.1	2292.8
8413	10.721	4.4778e-030	0.1	2501.1
8414	10.536	4.4006e-030	0.1	2683.
8415	10.352	4.3233e-030	0.1	2842.
8416	10.167	4.2461e-030	0.1	2981.5
8417	9.9818	4.1689e-030	0.1	3104.8
8418	9.797	4.0917e-030	0.1	3214.7
8419	9.6121	4.0145e-030	0.1	3313.6
8420	9.4273	3.9373e-030	0.1	3403.8
8421	9.2424	3.8601e-030	0.1	3486.8
8422	9.0576	3.7829e-030	0.1	3564.2
8423	8.8727	3.7057e-030	0.1	3637.1
8424	8.6879	3.6285e-030	0.1	3706.5
8425	8.503	3.5513e-030	0.1	3773.2
8426	8.3182	3.4741e-030	0.1	3837.7
8427	8.1333	3.3969e-030	0.1	3900.7
8428	7.9485	3.3197e-030	0.1	3962.5
8429	7.7636	3.2425e-030	0.1	4023.4
8430	7.5788	3.1653e-030	0.1	4083.8
8431	7.3939	3.0881e-030	0.1	4143.7
8432	7.2091	3.0109e-030	0.1	4203.5
8433	7.0242	2.9337e-030	0.1	4263.2
8434	6.8394	2.8565e-030	0.1	4322.9
8435	6.6545	2.7793e-030	0.1	4382.8
8436	6.4697	2.7021e-030	0.1	4442.8
8437	6.2848	2.6249e-030	0.1	4503.2
8438	6.1	2.5477e-030	0.1	4564.
8439	5.9152	2.4705e-030	0.1	4625.1
8440	5.7303	2.3933e-030	0.1	4686.7
8441	5.5455	2.3161e-030	0.1	4748.8
8442	5.3606	2.2389e-030	0.1	4811.4
8443	5.1758	2.1617e-030	0.1	4874.5
8444	4.9909	2.0845e-030	0.1	4938.2
8445	4.8061	2.0073e-030	0.1	5002.4
8446	4.6212	1.9301e-030	0.1	5067.2
8447	4.4364	1.8529e-030	0.1	5132.5
8448	4.2515	1.7757e-030	0.1	5198.4
8449	4.0667	1.6985e-030	0.1	5264.8
8450	3.8818	1.6213e-030	0.1	5331.5
8451	3.697	1.5441e-030	0.1	5398.5
8452	3.5121	1.4669e-030	0.1	5465.6
8453	3.3273	1.3896e-030	0.1	5532.6
8454	3.1424	1.3124e-030	0.1	5599.2
8455	2.9576	1.2352e-030	0.1	5664.9
8456	2.7727	1.158e-030	0.1	5729.3
8457	2.5879	1.0808e-030	0.1	5791.5
8458	2.403	1.0036e-030	0.1	5850.6
8459	2.2182	9.2643e-031	0.1	5905.3
8460	2.0333	8.4923e-031	0.1	5953.8
8461	1.8485	7.7203e-031	0.1	5993.7
8462	1.6636	6.9482e-031	0.1	6021.6
8463	1.4788	6.1762e-031	0.1	6032.6
8464	1.2939	5.4042e-031	0.1	6019.7
8465	1.1091	4.6322e-031	0.1	5972.2
8466	0.92424	3.8601e-031	0.1	5872.3
8467	0.73939	3.0881e-031	0.1	5691.4
8468	0.55455	2.3161e-031	0.1	5367.7
8469	0.3697	1.5441e-031	0.1	4792.5
8470	0.18485	7.7203e-032	0.1	3580.3
8471	0.	0.	0.1	765.23
8472	3.937e-014	6.	0.1	765.23
8473	0.18485	6.	0.1	3580.3
8474	0.3697	6.	0.1	4792.5
8475	0.55455	6.	0.1	5367.7
8476	0.73939	6.	0.1	5691.4
8477	0.92424	6.	0.1	5872.3
8478	1.1091	6.	0.1	5972.2
8479	1.2939	6.	0.1	6019.7
8480	1.4788	6.	0.1	6032.6
8481	1.6636	6.	0.1	6021.6
8482	1.8485	6.	0.1	5993.7
8483	2.0333	6.	0.1	5953.8
8484	2.2182	6.	0.1	5905.3
8485	2.403	6.	0.1	5850.6
8486	2.5879	6.	0.1	5791.5
8487	2.7727	6.	0.1	5729.3
8488	2.9576	6.	0.1	5664.9
8489	3.1424	6.	0.1	5599.2
8490	3.3273	6.	0.1	5532.6
8491	3.5121	6.	0.1	5465.6
8492	3.697	6.	0.1	5398.5
8493	3.8818	6.	0.1	5331.5
8494	4.0667	6.	0.1	5264.8
8495	4.2515	6.	0.1	5198.4
8496	4.4364	6.	0.1	5132.5
8497	4.6212	6.	0.1	5067.2
8498	4.8061	6.	0.1	5002.4
8499	4.9909	6.	0.1	4938.2
8500	5.1758	6.	0.1	4874.5
8501	5.3606	6.	0.1	4811.4
8502	5.5455	6.	0.1	4748.8
8503	5.7303	6.	0.1	4686.7
8504	5.9152	6.	0.1	4625.1
8505	6.1	6.	0.1	4564.
8506	6.2848	6.	0.1	4503.2
8507	6.4697	6.	0.1	4442.8
8508	6.6545	6.	0.1	4382.8
8509	6.8394	6.	0.1	4322.9
8510	7.0242	6.	0.1	4263.2
8511	7.2091	6.	0.1	4203.5
8512	7.3939	6.	0.1	4143.7
8513	7.5788	6.	0.1	4083.8
8514	7.7636	6.	0.1	4023.4
8515	7.9485	6.	0.1	3962.5
8516	8.1333	6.	0.1	3900.7
8517	8.3182	6.	0.1	3837.7
8518	8.503	6.	0.1	3773.2
8519	8.6879	6.	0.1	3706.5
8520	8.8727	6.	0.1	3637.1
8521	9.0576	6.	0.1	3564.2
8522	9.2424	6.	0.1	3486.8
8523	9.4273	6.	0.1	3403.8
8524	9.6121	6.	0.1	3313.6
8525	9.797	6.	0.1	3214.7
8526	9.9818	6.	0.1	3104.8
8527	10.167	6.	0.1	2981.5
8528	10.352	6.	0.1	2842.
8529	10.536	6.	0.1	2683.
8530	10.721	6.	0.1	2501.1
8531	10.906	6.	0.1	2292.8
8532	11.091	6.	0.1	2055.1
8533	11.276	6.	0.1	1785.8
8534	11.461	6.	0.1	1483.9
8535	11.645	6.	0.1	1150.7
8536	11.83	6.	0.1	788.08
8537	12.015	6.	0.1	394.11
8538	12.2	6.	0.1	37.249
8539	12.015	6.	0.	11.138
8540	11.83	6.	0.	11.345
8541	11.645	6.	0.	11.383
8542	11.461	6.	0.	10.554
8543	11.276	6.	0.	9.2275
8544	11.091	6.	0.	7.9064
8545	10.906	6.	0.	6.7461
8546	10.721	6.	0.	5.8153
8547	10.536	6.	0.	5.1067
8548	10.352	6.	0.	4.5859
8549	10.167	6.	0.	4.2091
8550	9.9818	6.	0.	3.9344
8551	9.797	6.	0.	3.7266
8552	9.6121	6.	0.	3.5583
8553	9.4273	6.	0.	3.409
8554	9.2424	6.	0.	3.2644
8555	9.0576	6.	0.	3.1151
8556	8.8727	6.	0.	2.9548
8557	8.6879	6.	0.	2.7799
8558	8.503	6.	0.	2.5884
8559	8.3182	6.	0.	2.3794
8560	8.1333	6.	0.	2.1528
8561	7.9485	6.	0.	1.9087
8562	7.7636	6.	0.	1.6479
8563	7.5788	6.	0.	1.3712
8564	7.3939	6.	0.	1.0794
8565	7.2091	6.	0.	0.77388
8566	7.0242	6.	0.	0.45595
8567	6.8394	6.	0.	0.41182
8568	6.6545	6.	0.	0.46554
8569	6.4697	6.	0.	0.52134
8570	6.2848	6.	0.	0.57976
8571	6.1	6.	0.	0.64135
8572	5.9152	6.	0.	0.70664
8573	5.7303	6.	0.	0.77617
8574	5.5455	6.	0.	0.85045
8575	5.3606	6.	0.	0.93006
8576	5.1758	6.	0.	1.0156
8577	4.9909	6.	0.	1.1076
8578	4.8061	6.	0.	1.2069
8579	4.6212	6.	0.	1.3143
8580	4.4364	6.	0.	1.4308
8581	4.2515	6.	0.	1.5576
8582	4.0667	6.	0.	1.6965
8583	3.8818	6.	0.	1.8503
8584	3.697	6.	0.	2.0239
8585	3.5121	6.	0.	2.2283
8586	3.3273	6.	0.	2.4946
8587	3.1424	6.	0.	2.9502
8588	2.9576	6.	0.	4.0722
8589	2.7727	6.	0.	6.163
8590	2.5879	6.	0.	9.0046
8591	2.403	6.	0.	12.588
8592	2.2182	6.	0.	17.023
8593	2.0333	6.	0.	22.481
8594	1.8485	6.	0.	29.192
8595	1.6636	6.	0.	37.472
8596	1.4788	6.	0.	47.751
8597	1.2939	6.	0.	60.706
8598	1.1091	6.	0.	77.237
8599	0.92424	6.	0.	99.343
8600	0.73939	6.	0.	129.3
8601	0.55455	6.	0.	175.83
8602	0.3697	6.	0.	255.96
8603	0.18485	6.	0.	442.4
8604	12.2	6.	0.	8.3951
8605	3.937e-014	6.	0.	1820.9
8606	0.18485	7.7203e-032	0.	442.4
8607	0.3697	1.5441e-031	0.	255.96
8608	0.55455	2.3161e-031	0.	175.83
8609	0.73939	3.0881e-031	0.	129.31
8610	0.92424	3.8601e-031	0.	99.343
8611	1.1091	4.6322e-031	0.	77.237
8612	1.2939	5.4042e-031	0.	60.706
8613	1.4788	6.1762e-031	0.	47.751
8614	1.6636	6.9482e-031	0.	37.472
8615	1.8485	7.7203e-031	0.	29.192
8616	2.0333	8.4923e-031	0.	22.481
8617	2.2182	9.2643e-031	0.	17.023
8618	2.403	1.0036e-030	0.	12.588
8619	2.5879	1.0808e-030	0.	9.0047
8620	2.7727	1.158e-030	0.	6.163
8621	2.9576	1.2352e-030	0.	4.0722
8622	3.1424	1.3124e-030	0.	2.9502
8623	3.3273	1.3896e-030	0.	2.4946
8624	3.5121	1.4669e-030	0.	2.2283
8625	3.697	1.5441e-030	0.	2.0239
8626	3.8818	1.6213e-030	0.	1.8503
8627	4.0667	1.6985e-030	0.	1.6965
8628	4.2515	1.7757e-030	0.	1.5576
8629	4.4364	1.8529e-030	0.	1.4308
8630	4.6212	1.9301e-030	0.	1.3143
8631	4.8061	2.0073e-030	0.	1.2069
8632	4.9909	2.0845e-030	0.	1.1076
8633	5.1758	2.1617e-030	0.	1.0156
8634	5.3606	2.2389e-030	0.	0.93006
8635	5.5455	2.3161e-030	0.	0.85045
8636	5.7303	2.3933e-030	0.	0.77617
8637	5.9152	2.4705e-030	0.	0.70664
8638	6.1	2.5477e-030	0.	0.64135
8639	6.2848	2.6249e-030	0.	0.57976
8640	6.4697	2.7021e-030	0.	0.52134
8641	6.6545	2.7793e-030	0.	0.46554
8642	6.8394	2.8565e-030	0.	0.41182
8643	7.0242	2.9337e-030	0.	0.45595
8644	7.2091	3.0109e-030	0.	0.77388
8645	7.3939	3.0881e-030	0.	1.0794
8646	7.5788	3.1653e-030	0.	1.3712
8647	7.7636	3.2425e-030	0.	1.6479
8648	7.9485	3.3197e-030	0.	1.9087
8649	8.1333	3.3969e-030	0.	2.1527
8650	8.3182	3.4741e-030	0.	2.3794
8651	8.503	3.5513e-030	0.	2.5884
8652	8.6879	3.6285e-030	0.	2.7799
8653	8.8727	3.7057e-030	0.	2.9548
8654	9.0576	3.7829e-030	0.	3.1151
8655	9.2424	3.8601e-030	0.	3.2644
8656	9.4273	3.9373e-030	0.	3.409
8657	9.6121	4.0145e-030	0.	3.5583
8658	9.797	4.0917e-030	0.	3.7266
8659	9.9818	4.1689e-030	0.	3.9344
8660	10.167	4.2461e-030	0.	4.2091
8661	10.352	4.3233e-030	0.	4.5859
8662	10.536	4.4006e-030	0.	5.1067
8663	10.721	4.4778e-030	0.	5.8153
8664	10.906	4.555e-030	0.	6.7461
8665	11.091	4.6322e-030	0.	7.9064
8666	11.276	4.7094e-030	0.	9.2275
8667	11.461	4.7866e-030	0.	10.554
8668	11.645	4.8638e-030	0.	11.383
8669	11.83	4.941e-030	0.	11.345
8670	12.015	5.0182e-030	0.	11.138
8671	12.2	0.	0.	8.3951
8672	0.	0.	0.	1820.9
8673	12.551	0.	0.	12.412
8674	12.736	0.	0.	15.024
8675	12.921	0.	0.	16.668
8676	13.105	0.	0.	16.663
8677	13.29	0.	0.	15.546
8678	13.475	0.	0.	13.977
8679	13.659	0.	0.	12.275
8680	13.844	0.	0.	10.641
8681	14.029	0.	0.	9.1725
8682	14.213	0.	0.	7.9112
8683	14.398	0.	0.	6.8632
8684	14.583	0.	0.	6.017
8685	14.767	0.	0.	5.3535
8686	14.952	0.	0.	4.8509
8687	15.137	0.	0.	4.488
8688	15.321	0.	0.	4.2452
8689	15.506	0.	0.	4.1051
8690	15.69	0.	0.	4.0523
8691	15.875	0.	0.	4.0735
8692	16.06	0.	0.	4.1572
8693	16.244	0.	0.	4.2934
8694	16.429	0.	0.	4.4733
8695	16.614	0.	0.	4.6896
8696	16.798	0.	0.	4.9356
8697	16.983	0.	0.	5.2061
8698	17.168	0.	0.	5.4961
8699	17.352	0.	0.	5.8017
8700	17.537	0.	0.	6.1195
8701	17.722	0.	0.	6.4466
8702	17.906	0.	0.	6.7806
8703	18.091	0.	0.	7.1195
8704	18.276	0.	0.	7.4617
8705	18.46	0.	0.	7.8058
8706	18.645	0.	0.	8.1509
8707	18.83	0.	0.	8.4958
8708	19.014	0.	0.	8.8399
8709	19.199	0.	0.	9.1826
8710	19.384	0.	0.	9.5233
8711	19.568	0.	0.	9.8614
8712	19.753	0.	0.	10.197
8713	19.938	0.	0.	10.528
8714	20.122	0.	0.	10.856
8715	20.307	0.	0.	11.178
8716	20.492	0.	0.	11.496
8717	20.676	0.	0.	11.807
8718	20.861	0.	0.	12.111
8719	21.046	0.	0.	12.406
8720	21.23	0.	0.	12.692
8721	21.415	0.	0.	12.966
8722	21.599	0.	0.	13.226
8723	21.784	0.	0.	13.469
8724	21.969	0.	0.	13.693
8725	22.153	0.	0.	13.892
8726	22.338	0.	0.	14.063
8727	22.523	0.	0.	14.197
8728	22.707	0.	0.	14.285
8729	22.892	0.	0.	14.315
8730	23.077	0.	0.	14.265
8731	23.261	0.	0.	14.107
8732	23.446	0.	0.	13.757
8733	23.631	0.	0.	13.216
8734	23.815	0.	0.	11.104
8735	12.367	0.	0.	7.1928
8736	24.	0.	0.	5.6592
8737	5.0862e-014	5.8182	0.	-1061.8
8738	4.9273e-014	5.6364	0.	-2242.7
8739	4.7683e-014	5.4545	0.	-2786.6
8740	4.6094e-014	5.2727	0.	-3111.4
8741	4.4504e-014	5.0909	0.	-3327.
8742	4.2915e-014	4.9091	0.	-3480.5
8743	4.1325e-014	4.7273	0.	-3593.9
8744	3.9736e-014	4.5455	0.	-3680.
8745	3.8147e-014	4.3636	0.	-3746.2
8746	3.6557e-014	4.1818	0.	-3797.6
8747	3.4968e-014	4.	0.	-3837.5
8748	3.3378e-014	3.8182	0.	-3868.
8749	3.1789e-014	3.6364	0.	-3891.
8750	3.0199e-014	3.4545	0.	-3907.4
8751	2.861e-014	3.2727	0.	-3918.
8752	2.702e-014	3.0909	0.	-3923.2
8753	2.5431e-014	2.9091	0.	-3923.2
8754	2.3842e-014	2.7273	0.	-3918.
8755	2.2252e-014	2.5455	0.	-3907.4
8756	2.0663e-014	2.3636	0.	-3891.
8757	1.9073e-014	2.1818	0.	-3868.
8758	1.7484e-014	2.	0.	-3837.5
8759	1.5894e-014	1.8182	0.	-3797.6
8760	1.4305e-014	1.6364	0.	-3746.2
8761	1.2716e-014	1.4545	0.	-3680.
8762	1.1126e-014	1.2727	0.	-3593.9
8763	9.5366e-015	1.0909	0.	-3480.5
8764	7.9472e-015	0.90909	0.	-3327.
8765	6.3578e-015	0.72727	0.	-3111.4
8766	4.7683e-015	0.54545	0.	-2786.6
8767	3.1789e-015	0.36364	0.	-2242.7
8768	1.5894e-015	0.18182	0.	-1061.8
8769	24.	0.18182	0.	35.836
8770	24.	0.36364	0.	62.493
8771	24.	0.54545	0.	82.972
8772	24.	0.72727	0.	99.908
8773	24.	0.90909	0.	114.3
8774	24.	1.0909	0.	126.67
8775	24.	1.2727	0.	137.36
8776	24.	1.4545	0.	146.57
8777	24.	1.6364	0.	154.49
8778	24.	1.8182	0.	161.21
8779	24.	2.	0.	166.84
8780	24.	2.1818	0.	171.45
8781	24.	2.3636	0.	175.07
8782	24.	2.5455	0.	177.76
8783	24.	2.7273	0.	179.54
8784	24.	2.9091	0.	180.42
8785	24.	3.0909	0.	180.42
8786	24.	3.2727	0.	179.54
8787	24.	3.4545	0.	177.76
8788	24.	3.6364	0.	175.07
8789	24.	3.8182	0.	171.45
8790	24.	4.	0.	166.84
8791	24.	4.1818	0.	161.21
8792	24.	4.3636	0.	154.49
8793	24.	4.5455	0.	146.58
8794	24.	4.7273	0.	137.36
8795	24.	4.9091	0.	126.67
8796	24.	5.0909	0.	114.3
8797	24.	5.2727	0.	99.909
8798	24.	5.4545	0.	82.972
8799	24.	5.6364	0.	62.493
8800	24.	5.8182	0.	35.836
8801	24.	6.	0.	5.6592
8802	23.815	6.	0.	11.104
8803	23.631	6.	0.	13.216
8804	23.446	6.	0.	13.757
8805	23.261	6.	0.	14.107
8806	23.077	6.	0.	14.265
8807	22.892	6.	0.	14.315
8808	22.707	6.	0.	14.285
8809	22.523	6.	0.	14.197
8810	22.338	6.	0.	14.063
8811	22.153	6.	0.	13.892
8812	21.969	6.	0.	13.693
8813	21.784	6.	0.	13.469
8814	21.599	6.	0.	13.226
8815	21.415	6.	0.	12.966
8816	21.23	6.	0.	12.692
8817	21.046	6.	0.	12.406
8818	20.861	6.	0.	12.111
8819	20.676	6.	0.	11.807
8820	20.492	6.	0.	11.496
8821	20.307	6.	0.	11.178
8822	20.122	6.	0.	10.856
8823	19.938	6.	0.	10.528
8824	19.753	6.	0.	10.197
8825	19.568	6.	0.	9.8614
8826	19.384	6.	0.	9.5233
8827	19.199	6.	0.	9.1826
8828	19.014	6.	0.	8.8399
8829	18.83	6.	0.	8.4958
8830	18.645	6.	0.	8.1509
8831	18.46	6.	0.	7.8059
8832	18.276	6.	0.	7.4617
8833	18.091	6.	0.	7.1195
8834	17.906	6.	0.	6.7806
8835	17.722	6.	0.	6.4466
8836	17.537	6.	0.	6.1195
8837	17.352	6.	0.	5.8017
8838	17.168	6.	0.	5.4961
8839	16.983	6.	0.	5.2061
8840	16.798	6.	0.	4.9356
8841	16.614	6.	0.	4.6896
8842	16.429	6.	0.	4.4733
8843	16.244	6.	0.	4.2934
8844	16.06	6.	0.	4.1572
8845	15.875	6.	0.	4.0735
8846	15.69	6.	0.	4.0523
8847	15.506	6.	0.	4.1051
8848	15.321	6.	0.	4.2452
8849	15.137	6.	0.	4.488
8850	14.952	6.	0.	4.8509
8851	14.767	6.	0.	5.3535
8852	14.583	6.	0.	6.017
8853	14.398	6.	0.	6.8632
8854	14.213	6.	0.	7.9112
8855	14.029	6.	0.	9.1725
8856	13.844	6.	0.	10.641
8857	13.659	6.	0.	12.275
8858	13.475	6.	0.	13.977
8859	13.29	6.	0.	15.546
8860	13.105	6.	0.	16.663
8861	12.921	6.	0.	16.668
8862	12.736	6.	0.	15.024
8863	12.551	6.	0.	12.412
8864	12.367	6.	0.	7.1928
8865	12.2	1.8182	0.	3926.7
8866	12.2	1.6364	0.	1986.1
8867	12.2	1.4545	0.	1528.1
8868	12.2	1.2727	0.	1136.5
8869	12.2	1.0909	0.	855.28
8870	12.2	0.90909	0.	633.55
8871	12.2	0.72727	0.	451.46
8872	12.2	0.54545	0.	298.91
8873	12.2	0.36364	0.	170.92
8874	12.2	0.18182	0.	65.796
8875	12.2	2.	0.	3187.6
8876	12.367	0.18182	0.	46.872
8877	12.367	0.36364	0.	117.21
8878	12.367	0.54545	0.	200.5
8879	12.367	0.72727	0.	298.27
8880	12.367	0.90909	0.	414.51
8881	12.367	1.0909	0.	556.85
8882	12.367	1.2727	0.	739.12
8883	12.367	1.4545	0.	1003.3
8884	12.367	1.6364	0.	1268.3
8885	12.367	1.8182	0.	2832.3
8886	12.367	2.	0.	1828.4
8887	12.2	4.1818	0.	3926.7
8888	12.2	4.3636	0.	1986.1
8889	12.2	4.5455	0.	1528.1
8890	12.2	4.7273	0.	1136.5
8891	12.2	4.9091	0.	855.28
8892	12.2	5.0909	0.	633.55
8893	12.2	5.2727	0.	451.46
8894	12.2	5.4545	0.	298.91
8895	12.2	5.6364	0.	170.92
8896	12.2	5.8182	0.	65.796
8897	12.2	4.	0.	3187.6
8898	12.367	5.8182	0.	46.872
8899	12.367	5.6364	0.	117.21
8900	12.367	5.4545	0.	200.5
8901	12.367	5.2727	0.	298.27
8902	12.367	5.0909	0.	414.51
8903	12.367	4.9091	0.	556.85
8904	12.367	4.7273	0.	739.12
8905	12.367	4.5455	0.	1003.3
8906	12.367	4.3636	0.	1268.3
8907	12.367	4.1818	0.	2832.3
8908	12.367	4.	0.	1828.4
8909	12.2	2.2727	0.	1149.9
8910	12.283	2.1818	0.	1057.8
8911	12.108	2.1818	0.	1121.5
8912	12.2	2.1818	5.e-002	365.49
8913	12.2	2.0909	0.	2079.3
8914	12.2	2.4545	0.	928.48
8915	12.283	2.3636	0.	937.86
8916	12.108	2.3636	0.	921.16
8917	12.2	2.3636	5.e-002	60.863
8918	12.2	2.6364	0.	806.47
8919	12.283	2.5455	0.	813.04
8920	12.108	2.5455	0.	790.82
8921	12.2	2.5455	5.e-002	29.291
8922	12.2	2.8182	0.	745.02
8923	12.283	2.7273	0.	740.06
8924	12.108	2.7273	0.	726.46
8925	12.2	2.7273	5.e-002	15.08
8926	12.2	3.	0.	725.99
8927	12.283	2.9091	0.	705.96
8928	12.108	2.9091	0.	696.06
8929	12.2	2.9091	5.e-002	8.5021
8930	12.2	3.1818	0.	745.02
8931	12.283	3.0909	0.	705.96
8932	12.108	3.0909	0.	696.06
8933	12.2	3.0909	5.e-002	8.502
8934	12.2	3.3636	0.	806.47
8935	12.283	3.2727	0.	740.06
8936	12.108	3.2727	0.	726.45
8937	12.2	3.2727	5.e-002	15.079
8938	12.2	3.5455	0.	928.48
8939	12.283	3.4545	0.	813.04
8940	12.108	3.4545	0.	790.82
8941	12.2	3.4545	5.e-002	29.29
8942	12.2	3.7273	0.	1149.9
8943	12.283	3.6364	0.	937.86
8944	12.108	3.6364	0.	921.16
8945	12.2	3.6364	5.e-002	60.862
8946	12.283	3.8182	0.	1057.8
8947	12.108	3.8182	0.	1121.5
8948	12.2	3.8182	5.e-002	365.49
8949	12.2	3.9091	0.	2079.3
8950	12.367	2.2727	0.	957.22
8951	12.459	2.1818	0.	748.87
8952	12.367	2.1818	5.e-002	323.31
8953	12.367	2.0909	0.	1262.9
8954	12.367	2.4545	0.	854.59
8955	12.459	2.3636	0.	751.89
8956	12.367	2.3636	5.e-002	65.863
8957	12.367	2.6364	0.	754.94
8958	12.459	2.5455	0.	675.97
8959	12.367	2.5455	5.e-002	31.747
8960	12.367	2.8182	0.	702.48
8961	12.459	2.7273	0.	634.96
8962	12.367	2.7273	5.e-002	17.652
8963	12.367	3.	0.	685.78
8964	12.459	2.9091	0.	613.56
8965	12.367	2.9091	5.e-002	11.664
8966	12.367	3.1818	0.	702.48
8967	12.459	3.0909	0.	613.56
8968	12.367	3.0909	5.e-002	11.663
8969	12.367	3.3636	0.	754.94
8970	12.459	3.2727	0.	634.96
8971	12.367	3.2727	5.e-002	17.651
8972	12.367	3.5455	0.	854.59
8973	12.459	3.4545	0.	675.97
8974	12.367	3.4545	5.e-002	31.746
8975	12.367	3.7273	0.	957.22
8976	12.459	3.6364	0.	751.89
8977	12.367	3.6364	5.e-002	65.862
8978	12.459	3.8182	0.	748.87
8979	12.367	3.8182	5.e-002	323.31
8980	12.367	3.9091	0.	1262.9
8981	12.015	5.7273	0.	150.25
8982	11.923	5.8182	0.	72.353
8983	12.015	5.8182	5.e-002	45.271
8984	12.015	5.9091	0.	36.158
8985	12.108	5.8182	0.	47.371
8986	12.015	5.5455	0.	302.85
8987	11.923	5.6364	0.	158.67
8988	12.015	5.6364	5.e-002	40.894
8989	12.108	5.6364	0.	160.91
8990	12.015	5.3636	0.	501.36
8991	11.923	5.4545	0.	311.25
8992	12.015	5.4545	5.e-002	43.116
8993	12.108	5.4545	0.	312.28
8994	12.015	5.1818	0.	734.09
8995	11.923	5.2727	0.	500.58
8996	12.015	5.2727	5.e-002	47.767
8997	12.108	5.2727	0.	490.54
8998	12.015	5.	0.	1005.2
8999	11.923	5.0909	0.	720.53
9000	12.015	5.0909	5.e-002	54.833
9001	12.108	5.0909	0.	698.85
9002	12.015	4.8182	0.	1327.
9003	11.923	4.9091	0.	972.73
9004	12.015	4.9091	5.e-002	64.913
9005	12.108	4.9091	0.	946.24
9006	12.015	4.6364	0.	1716.8
9007	11.923	4.7273	0.	1263.7
9008	12.015	4.7273	5.e-002	80.599
9009	12.108	4.7273	0.	1249.3
9010	12.015	4.4545	0.	2225.6
9011	11.923	4.5455	0.	1590.8
9012	12.015	4.5455	5.e-002	100.4
9013	12.108	4.5455	0.	1645.2
9014	12.015	4.2727	0.	2712.7
9015	11.923	4.3636	0.	1965.5
9016	12.015	4.3636	5.e-002	152.42
9017	12.108	4.3636	0.	2126.
9018	12.015	4.0909	0.	2497.5
9019	11.923	4.1818	0.	2182.
9020	12.015	4.1818	5.e-002	286.43
9021	12.108	4.1818	0.	3214.5
9022	12.015	3.9091	0.	1547.4
9023	11.923	4.	0.	1616.
9024	12.015	4.	5.e-002	518.09
9025	12.108	4.	0.	2396.1
9026	12.015	3.7273	0.	958.95
9027	11.923	3.8182	0.	914.56
9028	12.015	3.8182	5.e-002	232.5
9029	12.015	3.5455	0.	801.07
9030	11.923	3.6364	0.	734.98
9031	12.015	3.6364	5.e-002	100.8
9032	12.015	3.3636	0.	716.18
9033	11.923	3.4545	0.	653.92
9034	12.015	3.4545	5.e-002	55.458
9035	12.015	3.1818	0.	678.07
9036	11.923	3.2727	0.	617.93
9037	12.015	3.2727	5.e-002	32.935
9038	12.015	3.	0.	665.51
9039	11.923	3.0909	0.	601.44
9040	12.015	3.0909	5.e-002	25.059
9041	12.015	2.8182	0.	678.07
9042	11.923	2.9091	0.	601.44
9043	12.015	2.9091	5.e-002	25.059
9044	12.015	2.6364	0.	716.18
9045	11.923	2.7273	0.	617.93
9046	12.015	2.7273	5.e-002	32.935
9047	12.015	2.4545	0.	801.07
9048	11.923	2.5455	0.	653.92
9049	12.015	2.5455	5.e-002	55.458
9050	12.015	2.2727	0.	958.95
9051	11.923	2.3636	0.	734.98
9052	12.015	2.3636	5.e-002	100.8
9053	12.015	2.0909	0.	1547.4
9054	11.923	2.1818	0.	914.56
9055	12.015	2.1818	5.e-002	232.5
9056	12.015	1.9091	0.	2497.5
9057	11.923	2.	0.	1616.
9058	12.015	2.	5.e-002	518.09
9059	12.108	2.	0.	2396.1
9060	12.015	1.7273	0.	2712.7
9061	11.923	1.8182	0.	2182.
9062	12.015	1.8182	5.e-002	286.43
9063	12.108	1.8182	0.	3214.5
9064	12.015	1.5455	0.	2225.6
9065	11.923	1.6364	0.	1965.5
9066	12.015	1.6364	5.e-002	152.42
9067	12.108	1.6364	0.	2126.
9068	12.015	1.3636	0.	1716.8
9069	11.923	1.4545	0.	1590.8
9070	12.015	1.4545	5.e-002	100.4
9071	12.108	1.4545	0.	1645.2
9072	12.015	1.1818	0.	1327.
9073	11.923	1.2727	0.	1263.7
9074	12.015	1.2727	5.e-002	80.599
9075	12.108	1.2727	0.	1249.3
9076	12.015	1.	0.	1005.2
9077	11.923	1.0909	0.	972.73
9078	12.015	1.0909	5.e-002	64.913
9079	12.108	1.0909	0.	946.24
9080	12.015	0.81818	0.	734.09
9081	11.923	0.90909	0.	720.53
9082	12.015	0.90909	5.e-002	54.833
9083	12.108	0.90909	0.	698.85
9084	12.015	0.63636	0.	501.35
9085	11.923	0.72727	0.	500.58
9086	12.015	0.72727	5.e-002	47.767
9087	12.108	0.72727	0.	490.54
9088	12.015	0.45455	0.	302.85
9089	11.923	0.54545	0.	311.25
9090	12.015	0.54545	5.e-002	43.116
9091	12.108	0.54545	0.	312.28
9092	12.015	0.27273	0.	150.25
9093	11.923	0.36364	0.	158.67
9094	12.015	0.36364	5.e-002	40.894
9095	12.108	0.36364	0.	160.91
9096	11.923	0.18182	0.	72.353
9097	12.015	0.18182	5.e-002	45.271
9098	12.015	9.0909e-002	0.	36.158
9099	12.108	0.18182	0.	47.371
9100	11.83	5.7273	0.	98.831
9101	11.738	5.8182	0.	65.976
9102	11.83	5.8182	5.e-002	41.654
9103	11.83	5.9091	0.	29.471
9104	11.83	5.5455	0.	194.81
9105	11.738	5.6364	0.	122.63
9106	11.83	5.6364	5.e-002	36.775
9107	11.83	5.3636	0.	339.8
9108	11.738	5.4545	0.	229.32
9109	11.83	5.4545	5.e-002	37.206
9110	11.83	5.1818	0.	517.19
9111	11.738	5.2727	0.	370.56
9112	11.83	5.2727	5.e-002	39.213
9113	11.83	5.	0.	720.73
9114	11.738	5.0909	0.	536.75
9115	11.83	5.0909	5.e-002	42.68
9116	11.83	4.8182	0.	947.56
9117	11.738	4.9091	0.	721.06
9118	11.83	4.9091	5.e-002	47.805
9119	11.83	4.6364	0.	1185.2
9120	11.738	4.7273	0.	915.38
9121	11.83	4.7273	5.e-002	54.313
9122	11.83	4.4545	0.	1399.4
9123	11.738	4.5455	0.	1097.
9124	11.83	4.5455	5.e-002	66.353
9125	11.83	4.2727	0.	1491.3
9126	11.738	4.3636	0.	1221.4
9127	11.83	4.3636	5.e-002	62.417
9128	11.83	4.0909	0.	1286.4
9129	11.738	4.1818	0.	1182.
9130	11.83	4.1818	5.e-002	90.732
9131	11.83	3.9091	0.	920.26
9132	11.738	4.	0.	900.49
9133	11.83	4.	5.e-002	77.924
9134	11.83	3.7273	0.	671.92
9135	11.738	3.8182	0.	635.87
9136	11.83	3.8182	5.e-002	109.68
9137	11.83	3.5455	0.	580.78
9138	11.738	3.6364	0.	516.31
9139	11.83	3.6364	5.e-002	76.393
9140	11.83	3.3636	0.	552.29
9141	11.738	3.4545	0.	482.35
9142	11.83	3.4545	5.e-002	57.122
9143	11.83	3.1818	0.	538.63
9144	11.738	3.2727	0.	468.64
9145	11.83	3.2727	5.e-002	40.954
9146	11.83	3.	0.	534.78
9147	11.738	3.0909	0.	464.16
9148	11.83	3.0909	5.e-002	34.023
9149	11.83	2.8182	0.	538.63
9150	11.738	2.9091	0.	464.16
9151	11.83	2.9091	5.e-002	34.023
9152	11.83	2.6364	0.	552.29
9153	11.738	2.7273	0.	468.64
9154	11.83	2.7273	5.e-002	40.954
9155	11.83	2.4545	0.	580.78
9156	11.738	2.5455	0.	482.35
9157	11.83	2.5455	5.e-002	57.122
9158	11.83	2.2727	0.	671.92
9159	11.738	2.3636	0.	516.31
9160	11.83	2.3636	5.e-002	76.394
9161	11.83	2.0909	0.	920.26
9162	11.738	2.1818	0.	635.87
9163	11.83	2.1818	5.e-002	109.68
9164	11.83	1.9091	0.	1286.4
9165	11.738	2.	0.	900.49
9166	11.83	2.	5.e-002	77.925
9167	11.83	1.7273	0.	1491.3
9168	11.738	1.8182	0.	1182.
9169	11.83	1.8182	5.e-002	90.732
9170	11.83	1.5455	0.	1399.4
9171	11.738	1.6364	0.	1221.4
9172	11.83	1.6364	5.e-002	62.417
9173	11.83	1.3636	0.	1185.2
9174	11.738	1.4545	0.	1097.
9175	11.83	1.4545	5.e-002	66.353
9176	11.83	1.1818	0.	947.56
9177	11.738	1.2727	0.	915.38
9178	11.83	1.2727	5.e-002	54.313
9179	11.83	1.	0.	720.73
9180	11.738	1.0909	0.	721.06
9181	11.83	1.0909	5.e-002	47.805
9182	11.83	0.81818	0.	517.19
9183	11.738	0.90909	0.	536.75
9184	11.83	0.90909	5.e-002	42.68
9185	11.83	0.63636	0.	339.8
9186	11.738	0.72727	0.	370.56
9187	11.83	0.72727	5.e-002	39.213
9188	11.83	0.45455	0.	194.81
9189	11.738	0.54545	0.	229.32
9190	11.83	0.54545	5.e-002	37.206
9191	11.83	0.27273	0.	98.831
9192	11.738	0.36364	0.	122.63
9193	11.83	0.36364	5.e-002	36.775
9194	11.738	0.18182	0.	65.976
9195	11.83	0.18182	5.e-002	41.654
9196	11.83	9.0909e-002	0.	29.471
9197	11.645	5.7273	0.	94.787
9198	11.553	5.8182	0.	67.358
9199	11.645	5.8182	5.e-002	39.369
9200	11.645	5.9091	0.	32.835
9201	11.645	5.5455	0.	168.73
9202	11.553	5.6364	0.	120.81
9203	11.645	5.6364	5.e-002	34.775
9204	11.645	5.3636	0.	276.99
9205	11.553	5.4545	0.	202.98
9206	11.645	5.4545	5.e-002	34.934
9207	11.645	5.1818	0.	410.26
9208	11.553	5.2727	0.	308.66
9209	11.645	5.2727	5.e-002	36.042
9210	11.645	5.	0.	559.74
9211	11.553	5.0909	0.	430.98
9212	11.645	5.0909	5.e-002	37.774
9213	11.645	4.8182	0.	713.97
9214	11.553	4.9091	0.	560.77
9215	11.645	4.9091	5.e-002	39.914
9216	11.645	4.6364	0.	854.13
9217	11.553	4.7273	0.	684.22
9218	11.645	4.7273	5.e-002	41.667
9219	11.645	4.4545	0.	942.37
9220	11.553	4.5455	0.	779.86
9221	11.645	4.5455	5.e-002	40.863
9222	11.645	4.2727	0.	926.66
9223	11.553	4.3636	0.	809.79
9224	11.645	4.3636	5.e-002	39.889
9225	11.645	4.0909	0.	794.59
9226	11.553	4.1818	0.	739.93
9227	11.645	4.1818	5.e-002	37.485
9228	11.645	3.9091	0.	610.72
9229	11.553	4.	0.	593.06
9230	11.645	4.	5.e-002	48.448
9231	11.645	3.7273	0.	472.1
9232	11.553	3.8182	0.	447.4
9233	11.645	3.8182	5.e-002	52.807
9234	11.645	3.5455	0.	410.89
9235	11.553	3.6364	0.	365.77
9236	11.645	3.6364	5.e-002	53.019
9237	11.645	3.3636	0.	393.53
9238	11.553	3.4545	0.	337.05
9239	11.645	3.4545	5.e-002	45.219
9240	11.645	3.1818	0.	390.1
9241	11.553	3.2727	0.	329.97
9242	11.645	3.2727	5.e-002	38.86
9243	11.645	3.	0.	389.82
9244	11.553	3.0909	0.	329.16
9245	11.645	3.0909	5.e-002	35.129
9246	11.645	2.8182	0.	390.1
9247	11.553	2.9091	0.	329.16
9248	11.645	2.9091	5.e-002	35.129
9249	11.645	2.6364	0.	393.53
9250	11.553	2.7273	0.	329.97
9251	11.645	2.7273	5.e-002	38.86
9252	11.645	2.4545	0.	410.89
9253	11.553	2.5455	0.	337.05
9254	11.645	2.5455	5.e-002	45.22
9255	11.645	2.2727	0.	472.1
9256	11.553	2.3636	0.	365.77
9257	11.645	2.3636	5.e-002	53.02
9258	11.645	2.0909	0.	610.72
9259	11.553	2.1818	0.	447.4
9260	11.645	2.1818	5.e-002	52.808
9261	11.645	1.9091	0.	794.59
9262	11.553	2.	0.	593.06
9263	11.645	2.	5.e-002	48.449
9264	11.645	1.7273	0.	926.66
9265	11.553	1.8182	0.	739.93
9266	11.645	1.8182	5.e-002	37.485
9267	11.645	1.5455	0.	942.37
9268	11.553	1.6364	0.	809.79
9269	11.645	1.6364	5.e-002	39.889
9270	11.645	1.3636	0.	854.13
9271	11.553	1.4545	0.	779.86
9272	11.645	1.4545	5.e-002	40.863
9273	11.645	1.1818	0.	713.97
9274	11.553	1.2727	0.	684.22
9275	11.645	1.2727	5.e-002	41.667
9276	11.645	1.	0.	559.74
9277	11.553	1.0909	0.	560.77
9278	11.645	1.0909	5.e-002	39.914
9279	11.645	0.81818	0.	410.26
9280	11.553	0.90909	0.	430.98
9281	11.645	0.90909	5.e-002	37.774
9282	11.645	0.63636	0.	276.99
9283	11.553	0.72727	0.	308.66
9284	11.645	0.72727	5.e-002	36.042
9285	11.645	0.45455	0.	168.73
9286	11.553	0.54545	0.	202.98
9287	11.645	0.54545	5.e-002	34.934
9288	11.645	0.27273	0.	94.787
9289	11.553	0.36364	0.	120.81
9290	11.645	0.36364	5.e-002	34.775
9291	11.553	0.18182	0.	67.358
9292	11.645	0.18182	5.e-002	39.369
9293	11.645	9.0909e-002	0.	32.835
9294	11.461	5.7273	0.	95.641
9295	11.368	5.8182	0.	66.882
9296	11.461	5.8182	5.e-002	36.226
9297	11.461	5.9091	0.	34.792
9298	11.461	5.5455	0.	160.33
9299	11.368	5.6364	0.	121.62
9300	11.461	5.6364	5.e-002	31.825
9301	11.461	5.3636	0.	243.88
9302	11.368	5.4545	0.	189.61
9303	11.461	5.4545	5.e-002	31.654
9304	11.461	5.1818	0.	341.84
9305	11.368	5.2727	0.	269.6
9306	11.461	5.2727	5.e-002	31.927
9307	11.461	5.	0.	446.75
9308	11.368	5.0909	0.	357.37
9309	11.461	5.0909	5.e-002	32.233
9310	11.461	4.8182	0.	546.95
9311	11.368	4.9091	0.	444.79
9312	11.461	4.9091	5.e-002	32.192
9313	11.461	4.6364	0.	625.38
9314	11.368	4.7273	0.	519.71
9315	11.461	4.7273	5.e-002	31.204
9316	11.461	4.4545	0.	659.67
9317	11.368	4.5455	0.	565.7
9318	11.461	4.5455	5.e-002	28.958
9319	11.461	4.2727	0.	629.96
9320	11.368	4.3636	0.	564.6
9321	11.461	4.3636	5.e-002	26.058
9322	11.461	4.0909	0.	541.
9323	11.368	4.1818	0.	507.89
9324	11.461	4.1818	5.e-002	26.183
9325	11.461	3.9091	0.	429.66
9326	11.368	4.	0.	414.72
9327	11.461	4.	5.e-002	30.152
9328	11.461	3.7273	0.	339.07
9329	11.368	3.8182	0.	322.66
9330	11.461	3.8182	5.e-002	33.554
9331	11.461	3.5455	0.	288.7
9332	11.368	3.6364	0.	260.5
9333	11.461	3.6364	5.e-002	35.036
9334	11.461	3.3636	0.	269.93
9335	11.368	3.4545	0.	231.18
9336	11.461	3.4545	5.e-002	34.301
9337	11.461	3.1818	0.	265.57
9338	11.368	3.2727	0.	221.37
9339	11.461	3.2727	5.e-002	32.585
9340	11.461	3.	0.	265.12
9341	11.368	3.0909	0.	219.18
9342	11.461	3.0909	5.e-002	31.333
9343	11.461	2.8182	0.	265.57
9344	11.368	2.9091	0.	219.18
9345	11.461	2.9091	5.e-002	31.333
9346	11.461	2.6364	0.	269.93
9347	11.368	2.7273	0.	221.37
9348	11.461	2.7273	5.e-002	32.585
9349	11.461	2.4545	0.	288.7
9350	11.368	2.5455	0.	231.18
9351	11.461	2.5455	5.e-002	34.301
9352	11.461	2.2727	0.	339.07
9353	11.368	2.3636	0.	260.5
9354	11.461	2.3636	5.e-002	35.036
9355	11.461	2.0909	0.	429.66
9356	11.368	2.1818	0.	322.66
9357	11.461	2.1818	5.e-002	33.554
9358	11.461	1.9091	0.	541.
9359	11.368	2.	0.	414.72
9360	11.461	2.	5.e-002	30.152
9361	11.461	1.7273	0.	629.96
9362	11.368	1.8182	0.	507.89
9363	11.461	1.8182	5.e-002	26.183
9364	11.461	1.5455	0.	659.67
9365	11.368	1.6364	0.	564.6
9366	11.461	1.6364	5.e-002	26.058
9367	11.461	1.3636	0.	625.38
9368	11.368	1.4545	0.	565.7
9369	11.461	1.4545	5.e-002	28.958
9370	11.461	1.1818	0.	546.95
9371	11.368	1.2727	0.	519.71
9372	11.461	1.2727	5.e-002	31.204
9373	11.461	1.	0.	446.75
9374	11.368	1.0909	0.	444.79
9375	11.461	1.0909	5.e-002	32.192
9376	11.461	0.81818	0.	341.84
9377	11.368	0.90909	0.	357.37
9378	11.461	0.90909	5.e-002	32.233
9379	11.461	0.63636	0.	243.88
9380	11.368	0.72727	0.	269.6
9381	11.461	0.72727	5.e-002	31.927
9382	11.461	0.45455	0.	160.33
9383	11.368	0.54545	0.	189.61
9384	11.461	0.54545	5.e-002	31.655
9385	11.461	0.27273	0.	95.641
9386	11.368	0.36364	0.	121.62
9387	11.461	0.36364	5.e-002	31.825
9388	11.368	0.18182	0.	66.882
9389	11.461	0.18182	5.e-002	36.226
9390	11.461	9.0909e-002	0.	34.792
9391	11.276	5.7273	0.	94.193
9392	11.183	5.8182	0.	64.019
9393	11.276	5.8182	5.e-002	32.532
9394	11.276	5.9091	0.	34.508
9395	11.276	5.5455	0.	153.7
9396	11.183	5.6364	0.	119.36
9397	11.276	5.6364	5.e-002	28.531
9398	11.276	5.3636	0.	220.5
9399	11.183	5.4545	0.	177.84
9400	11.276	5.4545	5.e-002	28.051
9401	11.276	5.1818	0.	292.53
9402	11.183	5.2727	0.	239.63
9403	11.276	5.2727	5.e-002	27.708
9404	11.276	5.	0.	364.41
9405	11.183	5.0909	0.	302.17
9406	11.276	5.0909	5.e-002	27.116
9407	11.276	4.8182	0.	427.19
9408	11.183	4.9091	0.	359.47
9409	11.276	4.9091	5.e-002	25.996
9410	11.276	4.6364	0.	469.07
9411	11.183	4.7273	0.	402.86
9412	11.276	4.7273	5.e-002	24.13
9413	11.276	4.4545	0.	477.77
9414	11.183	4.5455	0.	422.2
9415	11.276	4.5455	5.e-002	21.599
9416	11.276	4.2727	0.	447.16
9417	11.183	4.3636	0.	409.28
9418	11.276	4.3636	5.e-002	19.5
9419	11.276	4.0909	0.	384.09
9420	11.183	4.1818	0.	364.33
9421	11.276	4.1818	5.e-002	19.478
9422	11.276	3.9091	0.	308.72
9423	11.183	4.	0.	299.4
9424	11.276	4.	5.e-002	21.194
9425	11.276	3.7273	0.	243.92
9426	11.183	3.8182	0.	234.46
9427	11.276	3.8182	5.e-002	23.169
9428	11.276	3.5455	0.	201.76
9429	11.183	3.6364	0.	185.43
9430	11.276	3.6364	5.e-002	24.685
9431	11.276	3.3636	0.	180.68
9432	11.183	3.4545	0.	156.51
9433	11.276	3.4545	5.e-002	25.554
9434	11.276	3.1818	0.	172.68
9435	11.183	3.2727	0.	143.
9436	11.276	3.2727	5.e-002	25.744
9437	11.276	3.	0.	170.83
9438	11.183	3.0909	0.	138.25
9439	11.276	3.0909	5.e-002	25.682
9440	11.276	2.8182	0.	172.68
9441	11.183	2.9091	0.	138.25
9442	11.276	2.9091	5.e-002	25.682
9443	11.276	2.6364	0.	180.68
9444	11.183	2.7273	0.	143.
9445	11.276	2.7273	5.e-002	25.744
9446	11.276	2.4545	0.	201.76
9447	11.183	2.5455	0.	156.51
9448	11.276	2.5455	5.e-002	25.555
9449	11.276	2.2727	0.	243.92
9450	11.183	2.3636	0.	185.43
9451	11.276	2.3636	5.e-002	24.685
9452	11.276	2.0909	0.	308.72
9453	11.183	2.1818	0.	234.46
9454	11.276	2.1818	5.e-002	23.169
9455	11.276	1.9091	0.	384.09
9456	11.183	2.	0.	299.4
9457	11.276	2.	5.e-002	21.194
9458	11.276	1.7273	0.	447.16
9459	11.183	1.8182	0.	364.33
9460	11.276	1.8182	5.e-002	19.478
9461	11.276	1.5455	0.	477.77
9462	11.183	1.6364	0.	409.28
9463	11.276	1.6364	5.e-002	19.5
9464	11.276	1.3636	0.	469.07
9465	11.183	1.4545	0.	422.2
9466	11.276	1.4545	5.e-002	21.599
9467	11.276	1.1818	0.	427.19
9468	11.183	1.2727	0.	402.86
9469	11.276	1.2727	5.e-002	24.13
9470	11.276	1.	0.	364.41
9471	11.183	1.0909	0.	359.47
9472	11.276	1.0909	5.e-002	25.996
9473	11.276	0.81818	0.	292.53
9474	11.183	0.90909	0.	302.17
9475	11.276	0.90909	5.e-002	27.116
9476	11.276	0.63636	0.	220.5
9477	11.183	0.72727	0.	239.63
9478	11.276	0.72727	5.e-002	27.708
9479	11.276	0.45455	0.	153.7
9480	11.183	0.54545	0.	177.84
9481	11.276	0.54545	5.e-002	28.051
9482	11.276	0.27273	0.	94.193
9483	11.183	0.36364	0.	119.36
9484	11.276	0.36364	5.e-002	28.531
9485	11.183	0.18182	0.	64.019
9486	11.276	0.18182	5.e-002	32.532
9487	11.276	9.0909e-002	0.	34.508
9488	11.091	5.7273	0.	90.029
9489	10.998	5.8182	0.	59.596
9490	11.091	5.8182	5.e-002	28.623
9491	11.091	5.9091	0.	32.843
9492	11.091	5.5455	0.	145.16
9493	10.998	5.6364	0.	113.67
9494	11.091	5.6364	5.e-002	25.205
9495	11.091	5.3636	0.	199.98
9496	10.998	5.4545	0.	164.76
9497	11.091	5.4545	5.e-002	24.516
9498	11.091	5.1818	0.	253.62
9499	10.998	5.2727	0.	213.45
9500	11.091	5.2727	5.e-002	23.808
9501	11.091	5.	0.	302.55
9502	10.998	5.0909	0.	258.27
9503	11.091	5.0909	5.e-002	22.775
9504	11.091	4.8182	0.	340.82
9505	10.998	4.9091	0.	295.29
9506	11.091	4.9091	5.e-002	21.281
9507	11.091	4.6364	0.	361.29
9508	10.998	4.7273	0.	319.03
9509	11.091	4.7273	5.e-002	19.304
9510	11.091	4.4545	0.	357.98
9511	10.998	4.5455	0.	323.98
9512	11.091	4.5455	5.e-002	17.132
9513	11.091	4.2727	0.	329.47
9514	10.998	4.3636	0.	306.99
9515	11.091	4.3636	5.e-002	15.462
9516	11.091	4.0909	0.	281.54
9517	10.998	4.1818	0.	270.01
9518	11.091	4.1818	5.e-002	14.998
9519	11.091	3.9091	0.	226.18
9520	10.998	4.	0.	221.14
9521	11.091	4.	5.e-002	15.617
9522	11.091	3.7273	0.	176.26
9523	10.998	3.8182	0.	171.77
9524	11.091	3.8182	5.e-002	16.71
9525	11.091	3.5455	0.	139.78
9526	10.998	3.6364	0.	131.36
9527	11.091	3.6364	5.e-002	17.887
9528	11.091	3.3636	0.	117.86
9529	10.998	3.4545	0.	103.94
9530	11.091	3.4545	5.e-002	18.922
9531	11.091	3.1818	0.	107.22
9532	10.998	3.2727	0.	88.451
9533	11.091	3.2727	5.e-002	19.621
9534	11.091	3.	0.	104.18
9535	10.998	3.0909	0.	81.825
9536	11.091	3.0909	5.e-002	19.948
9537	11.091	2.8182	0.	107.22
9538	10.998	2.9091	0.	81.825
9539	11.091	2.9091	5.e-002	19.948
9540	11.091	2.6364	0.	117.86
9541	10.998	2.7273	0.	88.451
9542	11.091	2.7273	5.e-002	19.621
9543	11.091	2.4545	0.	139.78
9544	10.998	2.5455	0.	103.94
9545	11.091	2.5455	5.e-002	18.922
9546	11.091	2.2727	0.	176.26
9547	10.998	2.3636	0.	131.36
9548	11.091	2.3636	5.e-002	17.887
9549	11.091	2.0909	0.	226.18
9550	10.998	2.1818	0.	171.77
9551	11.091	2.1818	5.e-002	16.71
9552	11.091	1.9091	0.	281.54
9553	10.998	2.	0.	221.14
9554	11.091	2.	5.e-002	15.617
9555	11.091	1.7273	0.	329.47
9556	10.998	1.8182	0.	270.01
9557	11.091	1.8182	5.e-002	14.998
9558	11.091	1.5455	0.	357.98
9559	10.998	1.6364	0.	306.99
9560	11.091	1.6364	5.e-002	15.462
9561	11.091	1.3636	0.	361.29
9562	10.998	1.4545	0.	323.98
9563	11.091	1.4545	5.e-002	17.132
9564	11.091	1.1818	0.	340.82
9565	10.998	1.2727	0.	319.03
9566	11.091	1.2727	5.e-002	19.304
9567	11.091	1.	0.	302.55
9568	10.998	1.0909	0.	295.29
9569	11.091	1.0909	5.e-002	21.281
9570	11.091	0.81818	0.	253.62
9571	10.998	0.90909	0.	258.27
9572	11.091	0.90909	5.e-002	22.775
9573	11.091	0.63636	0.	199.98
9574	10.998	0.72727	0.	213.45
9575	11.091	0.72727	5.e-002	23.808
9576	11.091	0.45455	0.	145.16
9577	10.998	0.54545	0.	164.76
9578	11.091	0.54545	5.e-002	24.516
9579	11.091	0.27273	0.	90.029
9580	10.998	0.36364	0.	113.67
9581	11.091	0.36364	5.e-002	25.205
9582	10.998	0.18182	0.	59.596
9583	11.091	0.18182	5.e-002	28.623
9584	11.091	9.0909e-002	0.	32.843
9585	10.906	5.7273	0.	83.767
9586	10.814	5.8182	0.	54.31
9587	10.906	5.8182	5.e-002	24.774
9588	10.906	5.9091	0.	30.372
9589	10.906	5.5455	0.	134.31
9590	10.814	5.6364	0.	105.4
9591	10.906	5.6364	5.e-002	22.063
9592	10.906	5.3636	0.	180.04
9593	10.814	5.4545	0.	150.13
9594	10.906	5.4545	5.e-002	21.286
9595	10.906	5.1818	0.	220.68
9596	10.814	5.2727	0.	189.14
9597	10.906	5.2727	5.e-002	20.415
9598	10.906	5.	0.	254.13
9599	10.814	5.0909	0.	221.68
9600	10.906	5.0909	5.e-002	19.244
9601	10.906	4.8182	0.	276.81
9602	10.814	4.9091	0.	245.39
9603	10.906	4.9091	5.e-002	17.726
9604	10.906	4.6364	0.	284.83
9605	10.814	4.7273	0.	257.18
9606	10.906	4.7273	5.e-002	15.928
9607	10.906	4.4545	0.	275.56
9608	10.814	4.5455	0.	254.37
9609	10.906	4.5455	5.e-002	14.093
9610	10.906	4.2727	0.	249.45
9611	10.814	4.3636	0.	236.14
9612	10.906	4.3636	5.e-002	12.637
9613	10.906	4.0909	0.	210.93
9614	10.814	4.1818	0.	204.78
9615	10.906	4.1818	5.e-002	11.903
9616	10.906	3.9091	0.	167.53
9617	10.814	4.	0.	165.75
9618	10.906	4.	5.e-002	11.885
9619	10.906	3.7273	0.	127.21
9620	10.814	3.8182	0.	126.14
9621	10.906	3.8182	5.e-002	12.345
9622	10.906	3.5455	0.	95.437
9623	10.814	3.6364	0.	92.071
9624	10.906	3.6364	5.e-002	13.071
9625	10.906	3.3636	0.	74.071
9626	10.814	3.4545	0.	66.858
9627	10.906	3.4545	5.e-002	13.866
9628	10.906	3.1818	0.	62.315
9629	10.814	3.2727	0.	51.004
9630	10.906	3.2727	5.e-002	14.52
9631	10.906	3.	0.	58.631
9632	10.814	3.0909	0.	43.534
9633	10.906	3.0909	5.e-002	14.879
9634	10.906	2.8182	0.	62.315
9635	10.814	2.9091	0.	43.534
9636	10.906	2.9091	5.e-002	14.879
9637	10.906	2.6364	0.	74.071
9638	10.814	2.7273	0.	51.004
9639	10.906	2.7273	5.e-002	14.52
9640	10.906	2.4545	0.	95.437
9641	10.814	2.5455	0.	66.858
9642	10.906	2.5455	5.e-002	13.866
9643	10.906	2.2727	0.	127.21
9644	10.814	2.3636	0.	92.071
9645	10.906	2.3636	5.e-002	13.072
9646	10.906	2.0909	0.	167.53
9647	10.814	2.1818	0.	126.14
9648	10.906	2.1818	5.e-002	12.345
9649	10.906	1.9091	0.	210.93
9650	10.814	2.	0.	165.75
9651	10.906	2.	5.e-002	11.885
9652	10.906	1.7273	0.	249.45
9653	10.814	1.8182	0.	204.78
9654	10.906	1.8182	5.e-002	11.902
9655	10.906	1.5455	0.	275.56
9656	10.814	1.6364	0.	236.14
9657	10.906	1.6364	5.e-002	12.637
9658	10.906	1.3636	0.	284.83
9659	10.814	1.4545	0.	254.37
9660	10.906	1.4545	5.e-002	14.093
9661	10.906	1.1818	0.	276.81
9662	10.814	1.2727	0.	257.18
9663	10.906	1.2727	5.e-002	15.928
9664	10.906	1.	0.	254.13
9665	10.814	1.0909	0.	245.39
9666	10.906	1.0909	5.e-002	17.726
9667	10.906	0.81818	0.	220.68
9668	10.814	0.90909	0.	221.68
9669	10.906	0.90909	5.e-002	19.244
9670	10.906	0.63636	0.	180.04
9671	10.814	0.72727	0.	189.14
9672	10.906	0.72727	5.e-002	20.415
9673	10.906	0.45455	0.	134.31
9674	10.814	0.54545	0.	150.13
9675	10.906	0.54545	5.e-002	21.286
9676	10.906	0.27273	0.	83.767
9677	10.814	0.36364	0.	105.4
9678	10.906	0.36364	5.e-002	22.063
9679	10.814	0.18182	0.	54.31
9680	10.906	0.18182	5.e-002	24.774
9681	10.906	9.0909e-002	0.	30.372
9682	10.721	5.7273	0.	76.249
9683	10.629	5.8182	0.	48.709
9684	10.721	5.8182	5.e-002	21.173
9685	10.721	5.9091	0.	27.535
9686	10.721	5.5455	0.	121.87
9687	10.629	5.6364	0.	95.58
9688	10.721	5.6364	5.e-002	19.226
9689	10.721	5.3636	0.	160.33
9690	10.629	5.4545	0.	134.56
9691	10.721	5.4545	5.e-002	18.457
9692	10.721	5.1818	0.	191.67
9693	10.629	5.2727	0.	166.2
9694	10.721	5.2727	5.e-002	17.561
9695	10.721	5.	0.	214.76
9696	10.629	5.0909	0.	190.19
9697	10.721	5.0909	5.e-002	16.418
9698	10.721	4.8182	0.	227.68
9699	10.629	4.9091	0.	205.27
9700	10.721	4.9091	5.e-002	15.027
9701	10.721	4.6364	0.	228.53
9702	10.629	4.7273	0.	209.89
9703	10.721	4.7273	5.e-002	13.468
9704	10.721	4.4545	0.	216.49
9705	10.629	4.5455	0.	203.01
9706	10.721	4.5455	5.e-002	11.913
9707	10.721	4.2727	0.	192.67
9708	10.629	4.3636	0.	184.9
9709	10.721	4.3636	5.e-002	10.591
9710	10.721	4.0909	0.	160.46
9711	10.629	4.1818	0.	157.7
9712	10.721	4.1818	5.e-002	9.6915
9713	10.721	3.9091	0.	124.92
9714	10.629	4.	0.	125.29
9715	10.721	4.	5.e-002	9.2611
9716	10.721	3.7273	0.	91.283
9717	10.629	3.8182	0.	92.391
9718	10.721	3.8182	5.e-002	9.2374
9719	10.721	3.5455	0.	63.523
9720	10.629	3.6364	0.	63.239
9721	10.721	3.6364	5.e-002	9.5202
9722	10.721	3.3636	0.	43.596
9723	10.629	3.4545	0.	40.552
9724	10.721	3.4545	5.e-002	9.9701
9725	10.721	3.1818	0.	31.839
9726	10.629	3.2727	0.	25.391
9727	10.721	3.2727	5.e-002	10.406
9728	10.721	3.	0.	27.967
9729	10.629	3.0909	0.	17.814
9730	10.721	3.0909	5.e-002	10.668
9731	10.721	2.8182	0.	31.839
9732	10.629	2.9091	0.	17.814
9733	10.721	2.9091	5.e-002	10.669
9734	10.721	2.6364	0.	43.596
9735	10.629	2.7273	0.	25.39
9736	10.721	2.7273	5.e-002	10.406
9737	10.721	2.4545	0.	63.523
9738	10.629	2.5455	0.	40.552
9739	10.721	2.5455	5.e-002	9.9702
9740	10.721	2.2727	0.	91.283
9741	10.629	2.3636	0.	63.239
9742	10.721	2.3636	5.e-002	9.5203
9743	10.721	2.0909	0.	124.91
9744	10.629	2.1818	0.	92.391
9745	10.721	2.1818	5.e-002	9.2373
9746	10.721	1.9091	0.	160.46
9747	10.629	2.	0.	125.29
9748	10.721	2.	5.e-002	9.261
9749	10.721	1.7273	0.	192.67
9750	10.629	1.8182	0.	157.7
9751	10.721	1.8182	5.e-002	9.6914
9752	10.721	1.5455	0.	216.49
9753	10.629	1.6364	0.	184.9
9754	10.721	1.6364	5.e-002	10.591
9755	10.721	1.3636	0.	228.53
9756	10.629	1.4545	0.	203.01
9757	10.721	1.4545	5.e-002	11.913
9758	10.721	1.1818	0.	227.68
9759	10.629	1.2727	0.	209.89
9760	10.721	1.2727	5.e-002	13.468
9761	10.721	1.	0.	214.76
9762	10.629	1.0909	0.	205.27
9763	10.721	1.0909	5.e-002	15.028
9764	10.721	0.81818	0.	191.67
9765	10.629	0.90909	0.	190.19
9766	10.721	0.90909	5.e-002	16.418
9767	10.721	0.63636	0.	160.33
9768	10.629	0.72727	0.	166.2
9769	10.721	0.72727	5.e-002	17.562
9770	10.721	0.45455	0.	121.87
9771	10.629	0.54545	0.	134.56
9772	10.721	0.54545	5.e-002	18.457
9773	10.721	0.27273	0.	76.249
9774	10.629	0.36364	0.	95.58
9775	10.721	0.36364	5.e-002	19.226
9776	10.629	0.18182	0.	48.709
9777	10.721	0.18182	5.e-002	21.173
9778	10.721	9.0909e-002	0.	27.535
9779	10.536	5.7273	0.	68.192
9780	10.444	5.8182	0.	43.161
9781	10.536	5.8182	5.e-002	17.926
9782	10.536	5.9091	0.	24.619
9783	10.536	5.5455	0.	108.68
9784	10.444	5.6364	0.	85.103
9785	10.536	5.6364	5.e-002	16.747
9786	10.536	5.3636	0.	141.11
9787	10.444	5.4545	0.	118.8
9788	10.536	5.4545	5.e-002	16.048
9789	10.536	5.1818	0.	165.64
9790	10.444	5.2727	0.	144.64
9791	10.536	5.2727	5.e-002	15.207
9792	10.536	5.	0.	181.77
9793	10.444	5.0909	0.	162.58
9794	10.536	5.0909	5.e-002	14.169
9795	10.536	4.8182	0.	188.6
9796	10.444	4.9091	0.	172.04
9797	10.536	4.9091	5.e-002	12.954
9798	10.536	4.6364	0.	185.43
9799	10.444	4.7273	0.	172.43
9800	10.536	4.7273	5.e-002	11.626
9801	10.536	4.4545	0.	172.34
9802	10.444	4.5455	0.	163.58
9803	10.536	4.5455	5.e-002	10.296
9804	10.536	4.2727	0.	150.66
9805	10.444	4.3636	0.	146.27
9806	10.536	4.3636	5.e-002	9.0888
9807	10.536	4.0909	0.	123.06
9808	10.444	4.1818	0.	122.37
9809	10.536	4.1818	5.e-002	8.1091
9810	10.536	3.9091	0.	93.114
9811	10.444	4.	0.	94.783
9812	10.536	4.	5.e-002	7.4098
9813	10.536	3.7273	0.	64.538
9814	10.444	3.8182	0.	66.887
9815	10.536	3.8182	5.e-002	7.0053
9816	10.536	3.5455	0.	40.327
9817	10.444	3.6364	0.	41.781
9818	10.536	3.6364	5.e-002	6.8812
9819	10.536	3.3636	0.	22.31
9820	10.444	3.4545	0.	21.73
9821	10.536	3.4545	5.e-002	6.9698
9822	10.536	3.1818	0.	11.222
9823	10.444	3.2727	0.	7.9983
9824	10.536	3.2727	5.e-002	7.1453
9825	10.536	3.	0.	7.3641
9826	10.444	3.0909	0.	1.0483
9827	10.536	3.0909	5.e-002	7.274
9828	10.536	2.8182	0.	11.222
9829	10.444	2.9091	0.	1.0483
9830	10.536	2.9091	5.e-002	7.274
9831	10.536	2.6364	0.	22.31
9832	10.444	2.7273	0.	7.9982
9833	10.536	2.7273	5.e-002	7.1453
9834	10.536	2.4545	0.	40.326
9835	10.444	2.5455	0.	21.73
9836	10.536	2.5455	5.e-002	6.9698
9837	10.536	2.2727	0.	64.538
9838	10.444	2.3636	0.	41.781
9839	10.536	2.3636	5.e-002	6.8812
9840	10.536	2.0909	0.	93.114
9841	10.444	2.1818	0.	66.887
9842	10.536	2.1818	5.e-002	7.0053
9843	10.536	1.9091	0.	123.06
9844	10.444	2.	0.	94.783
9845	10.536	2.	5.e-002	7.4097
9846	10.536	1.7273	0.	150.66
9847	10.444	1.8182	0.	122.37
9848	10.536	1.8182	5.e-002	8.109
9849	10.536	1.5455	0.	172.34
9850	10.444	1.6364	0.	146.27
9851	10.536	1.6364	5.e-002	9.0888
9852	10.536	1.3636	0.	185.43
9853	10.444	1.4545	0.	163.58
9854	10.536	1.4545	5.e-002	10.296
9855	10.536	1.1818	0.	188.6
9856	10.444	1.2727	0.	172.43
9857	10.536	1.2727	5.e-002	11.626
9858	10.536	1.	0.	181.77
9859	10.444	1.0909	0.	172.04
9860	10.536	1.0909	5.e-002	12.954
9861	10.536	0.81818	0.	165.64
9862	10.444	0.90909	0.	162.58
9863	10.536	0.90909	5.e-002	14.169
9864	10.536	0.63636	0.	141.11
9865	10.444	0.72727	0.	144.64
9866	10.536	0.72727	5.e-002	15.207
9867	10.536	0.45455	0.	108.68
9868	10.444	0.54545	0.	118.8
9869	10.536	0.54545	5.e-002	16.048
9870	10.536	0.27273	0.	68.192
9871	10.444	0.36364	0.	85.103
9872	10.536	0.36364	5.e-002	16.747
9873	10.444	0.18182	0.	43.161
9874	10.536	0.18182	5.e-002	17.926
9875	10.536	9.0909e-002	0.	24.619
9876	10.352	5.7273	0.	60.12
9877	10.259	5.8182	0.	37.894
9878	10.352	5.8182	5.e-002	15.08
9879	10.352	5.9091	0.	21.799
9880	10.352	5.5455	0.	95.472
9881	10.259	5.6364	0.	74.616
9882	10.352	5.6364	5.e-002	14.629
9883	10.352	5.3636	0.	122.75
9884	10.259	5.4545	0.	103.44
9885	10.352	5.4545	5.e-002	14.035
9886	10.352	5.1818	0.	142.13
9887	10.259	5.2727	0.	124.59
9888	10.352	5.2727	5.e-002	13.286
9889	10.352	5.	0.	153.49
9890	10.259	5.0909	0.	138.12
9891	10.352	5.0909	5.e-002	12.382
9892	10.352	4.8182	0.	156.52
9893	10.259	4.9091	0.	143.88
9894	10.352	4.9091	5.e-002	11.346
9895	10.352	4.6364	0.	151.2
9896	10.259	4.7273	0.	141.81
9897	10.352	4.7273	5.e-002	10.224
9898	10.352	4.4545	0.	138.05
9899	10.259	4.5455	0.	132.21
9900	10.352	4.5455	5.e-002	9.0832
9901	10.352	4.2727	0.	118.4
9902	10.259	4.3636	0.	116.02
9903	10.352	4.3636	5.e-002	7.9901
9904	10.352	4.0909	0.	94.412
9905	10.259	4.1818	0.	94.893
9906	10.352	4.1818	5.e-002	6.9987
9907	10.352	3.9091	0.	68.769
9908	10.259	4.	0.	71.096
9909	10.352	4.	5.e-002	6.1451
9910	10.352	3.7273	0.	44.245
9911	10.259	3.8182	0.	47.163
9912	10.352	3.8182	5.e-002	5.4609
9913	10.352	3.5455	0.	23.228
9914	10.259	3.6364	0.	25.514
9915	10.352	3.6364	5.e-002	4.9784
9916	10.352	3.3636	0.	7.5688
9917	10.259	3.4545	0.	8.3166
9918	10.352	3.4545	5.e-002	4.7063
9919	10.352	3.1818	0.	0.59459
9920	10.259	3.2727	0.	0.69985
9921	10.352	3.2727	5.e-002	4.5999
9922	10.352	3.	0.	0.10229
9923	10.259	3.0909	0.	0.12173
9924	10.352	3.0909	5.e-002	4.5777
9925	10.352	2.8182	0.	0.59458
9926	10.259	2.9091	0.	0.12173
9927	10.352	2.9091	5.e-002	4.5777
9928	10.352	2.6364	0.	7.5687
9929	10.259	2.7273	0.	0.69984
9930	10.352	2.7273	5.e-002	4.5999
9931	10.352	2.4545	0.	23.228
9932	10.259	2.5455	0.	8.3164
9933	10.352	2.5455	5.e-002	4.7063
9934	10.352	2.2727	0.	44.245
9935	10.259	2.3636	0.	25.514
9936	10.352	2.3636	5.e-002	4.9783
9937	10.352	2.0909	0.	68.769
9938	10.259	2.1818	0.	47.163
9939	10.352	2.1818	5.e-002	5.4609
9940	10.352	1.9091	0.	94.411
9941	10.259	2.	0.	71.095
9942	10.352	2.	5.e-002	6.1451
9943	10.352	1.7273	0.	118.4
9944	10.259	1.8182	0.	94.893
9945	10.352	1.8182	5.e-002	6.9986
9946	10.352	1.5455	0.	138.05
9947	10.259	1.6364	0.	116.02
9948	10.352	1.6364	5.e-002	7.9901
9949	10.352	1.3636	0.	151.2
9950	10.259	1.4545	0.	132.21
9951	10.352	1.4545	5.e-002	9.0833
9952	10.352	1.1818	0.	156.52
9953	10.259	1.2727	0.	141.81
9954	10.352	1.2727	5.e-002	10.224
9955	10.352	1.	0.	153.49
9956	10.259	1.0909	0.	143.88
9957	10.352	1.0909	5.e-002	11.346
9958	10.352	0.81818	0.	142.13
9959	10.259	0.90909	0.	138.12
9960	10.352	0.90909	5.e-002	12.382
9961	10.352	0.63636	0.	122.75
9962	10.259	0.72727	0.	124.59
9963	10.352	0.72727	5.e-002	13.286
9964	10.352	0.45455	0.	95.472
9965	10.259	0.54545	0.	103.44
9966	10.352	0.54545	5.e-002	14.035
9967	10.352	0.27273	0.	60.12
9968	10.259	0.36364	0.	74.616
9969	10.352	0.36364	5.e-002	14.63
9970	10.259	0.18182	0.	37.894
9971	10.352	0.18182	5.e-002	15.08
9972	10.352	9.0909e-002	0.	21.799
9973	10.167	5.7273	0.	52.372
9974	10.074	5.8182	0.	33.026
9975	10.167	5.8182	5.e-002	12.636
9976	10.167	5.9091	0.	19.169
9977	10.167	5.5455	0.	82.738
9978	10.074	5.6364	0.	64.546
9979	10.167	5.6364	5.e-002	12.852
9980	10.167	5.3636	0.	105.53
9981	10.074	5.4545	0.	88.902
9982	10.167	5.4545	5.e-002	12.374
9983	10.167	5.1818	0.	120.9
9984	10.074	5.2727	0.	106.13
9985	10.167	5.2727	5.e-002	11.732
9986	10.167	5.	0.	128.89
9987	10.074	5.0909	0.	116.35
9988	10.167	5.0909	5.e-002	10.963
9989	10.167	4.8182	0.	129.55
9990	10.074	4.9091	0.	119.62
9991	10.167	4.9091	5.e-002	10.092
9992	10.167	4.6364	0.	123.17
9993	10.074	4.7273	0.	116.14
9994	10.167	4.7273	5.e-002	9.15
9995	10.167	4.4545	0.	110.49
9996	10.074	4.5455	0.	106.46
9997	10.167	4.5455	5.e-002	8.1742
9998	10.167	4.2727	0.	92.76
9999	10.074	4.3636	0.	91.54
10000	10.167	4.3636	5.e-002	7.1998
10001	10.167	4.0909	0.	71.764
10002	10.074	4.1818	0.	72.828
10003	10.167	4.1818	5.e-002	6.2516
10004	10.167	3.9091	0.	49.608
10005	10.074	4.	0.	52.144
10006	10.167	4.	5.e-002	5.346
10007	10.167	3.7273	0.	28.476
10008	10.074	3.8182	0.	31.496
10009	10.167	3.8182	5.e-002	4.5006
10010	10.167	3.5455	0.	10.502
10011	10.074	3.6364	0.	12.955
10012	10.167	3.6364	5.e-002	3.7455
10013	10.167	3.3636	0.	0.98282
10014	10.074	3.4545	0.	1.404
10015	10.167	3.4545	5.e-002	3.1245
10016	10.167	3.1818	0.	0.1678
10017	10.074	3.2727	0.	0.22892
10018	10.167	3.2727	5.e-002	2.6841
10019	10.167	3.	0.	7.0438e-002
10020	10.074	3.0909	0.	7.3623e-002
10021	10.167	3.0909	5.e-002	2.4571
10022	10.167	2.8182	0.	0.1678
10023	10.074	2.9091	0.	7.3623e-002
10024	10.167	2.9091	5.e-002	2.4571
10025	10.167	2.6364	0.	0.98281
10026	10.074	2.7273	0.	0.22892
10027	10.167	2.7273	5.e-002	2.684
10028	10.167	2.4545	0.	10.502
10029	10.074	2.5455	0.	1.404
10030	10.167	2.5455	5.e-002	3.1245
10031	10.167	2.2727	0.	28.476
10032	10.074	2.3636	0.	12.955
10033	10.167	2.3636	5.e-002	3.7454
10034	10.167	2.0909	0.	49.608
10035	10.074	2.1818	0.	31.496
10036	10.167	2.1818	5.e-002	4.5005
10037	10.167	1.9091	0.	71.764
10038	10.074	2.	0.	52.144
10039	10.167	2.	5.e-002	5.346
10040	10.167	1.7273	0.	92.76
10041	10.074	1.8182	0.	72.828
10042	10.167	1.8182	5.e-002	6.2516
10043	10.167	1.5455	0.	110.49
10044	10.074	1.6364	0.	91.539
10045	10.167	1.6364	5.e-002	7.1998
10046	10.167	1.3636	0.	123.17
10047	10.074	1.4545	0.	106.46
10048	10.167	1.4545	5.e-002	8.1743
10049	10.167	1.1818	0.	129.55
10050	10.074	1.2727	0.	116.14
10051	10.167	1.2727	5.e-002	9.1501
10052	10.167	1.	0.	128.89
10053	10.074	1.0909	0.	119.62
10054	10.167	1.0909	5.e-002	10.092
10055	10.167	0.81818	0.	120.9
10056	10.074	0.90909	0.	116.35
10057	10.167	0.90909	5.e-002	10.964
10058	10.167	0.63636	0.	105.53
10059	10.074	0.72727	0.	106.13
10060	10.167	0.72727	5.e-002	11.732
10061	10.167	0.45455	0.	82.738
10062	10.074	0.54545	0.	88.902
10063	10.167	0.54545	5.e-002	12.375
10064	10.167	0.27273	0.	52.372
10065	10.074	0.36364	0.	64.546
10066	10.167	0.36364	5.e-002	12.852
10067	10.074	0.18182	0.	33.026
10068	10.167	0.18182	5.e-002	12.636
10069	10.167	9.0909e-002	0.	19.169
10070	9.9818	5.7273	0.	45.142
10071	9.8894	5.8182	0.	28.599
10072	9.9818	5.8182	5.e-002	10.571
10073	9.9818	5.9091	0.	16.766
10074	9.9818	5.5455	0.	70.795
10075	9.8894	5.6364	0.	55.14
10076	9.9818	5.6364	5.e-002	11.378
10077	9.9818	5.3636	0.	89.647
10078	9.8894	5.4545	0.	75.416
10079	9.9818	5.4545	5.e-002	11.018
10080	9.9818	5.1818	0.	101.77
10081	9.8894	5.2727	0.	89.306
10082	9.9818	5.2727	5.e-002	10.481
10083	9.9818	5.	0.	107.29
10084	9.8894	5.0909	0.	96.932
10085	9.9818	5.0909	5.e-002	9.8391
10086	9.9818	4.8182	0.	106.43
10087	9.8894	4.9091	0.	98.445
10088	9.9818	4.9091	5.e-002	9.1141
10089	9.9818	4.6364	0.	99.631
10090	9.8894	4.7273	0.	94.193
10091	9.9818	4.7273	5.e-002	8.3263
10092	9.9818	4.4545	0.	87.688
10093	9.8894	4.5455	0.	84.789
10094	9.9818	4.5455	5.e-002	7.4974
10095	9.9818	4.2727	0.	71.751
10096	9.8894	4.3636	0.	71.165
10097	9.9818	4.3636	5.e-002	6.6452
10098	9.9818	4.0909	0.	53.312
10099	9.8894	4.1818	0.	54.576
10100	9.9818	4.1818	5.e-002	5.7802
10101	9.9818	3.9091	0.	34.085
10102	9.8894	4.	0.	36.528
10103	9.9818	4.	5.e-002	4.9071
10104	9.9818	3.7273	0.	15.91
10105	9.8894	3.8182	0.	18.702
10106	9.9818	3.8182	5.e-002	4.0295
10107	9.9818	3.5455	0.	2.3296
10108	9.8894	3.6364	0.	3.7638
10109	9.9818	3.6364	5.e-002	3.1553
10110	9.9818	3.3636	0.	0.3047
10111	9.8894	3.4545	0.	0.39791
10112	9.9818	3.4545	5.e-002	2.2994
10113	9.9818	3.1818	0.	9.1475e-002
10114	9.8894	3.2727	0.	0.11888
10115	9.9818	3.2727	5.e-002	1.4924
10116	9.9818	3.	0.	4.855e-002
10117	9.8894	3.0909	0.	4.8335e-002
10118	9.9818	3.0909	5.e-002	0.85012
10119	9.9818	2.8182	0.	9.1475e-002
10120	9.8894	2.9091	0.	4.8335e-002
10121	9.9818	2.9091	5.e-002	0.85008
10122	9.9818	2.6364	0.	0.30469
10123	9.8894	2.7273	0.	0.11888
10124	9.9818	2.7273	5.e-002	1.4923
10125	9.9818	2.4545	0.	2.3296
10126	9.8894	2.5455	0.	0.39791
10127	9.9818	2.5455	5.e-002	2.2993
10128	9.9818	2.2727	0.	15.91
10129	9.8894	2.3636	0.	3.7637
10130	9.9818	2.3636	5.e-002	3.1552
10131	9.9818	2.0909	0.	34.085
10132	9.8894	2.1818	0.	18.702
10133	9.9818	2.1818	5.e-002	4.0295
10134	9.9818	1.9091	0.	53.311
10135	9.8894	2.	0.	36.528
10136	9.9818	2.	5.e-002	4.9071
10137	9.9818	1.7273	0.	71.751
10138	9.8894	1.8182	0.	54.575
10139	9.9818	1.8182	5.e-002	5.7802
10140	9.9818	1.5455	0.	87.688
10141	9.8894	1.6364	0.	71.165
10142	9.9818	1.6364	5.e-002	6.6452
10143	9.9818	1.3636	0.	99.631
10144	9.8894	1.4545	0.	84.789
10145	9.9818	1.4545	5.e-002	7.4975
10146	9.9818	1.1818	0.	106.43
10147	9.8894	1.2727	0.	94.193
10148	9.9818	1.2727	5.e-002	8.3264
10149	9.9818	1.	0.	107.29
10150	9.8894	1.0909	0.	98.445
10151	9.9818	1.0909	5.e-002	9.1143
10152	9.9818	0.81818	0.	101.77
10153	9.8894	0.90909	0.	96.932
10154	9.9818	0.90909	5.e-002	9.8393
10155	9.9818	0.63636	0.	89.647
10156	9.8894	0.72727	0.	89.306
10157	9.9818	0.72727	5.e-002	10.481
10158	9.9818	0.45455	0.	70.795
10159	9.8894	0.54545	0.	75.416
10160	9.9818	0.54545	5.e-002	11.018
10161	9.9818	0.27273	0.	45.142
10162	9.8894	0.36364	0.	55.14
10163	9.9818	0.36364	5.e-002	11.378
10164	9.8894	0.18182	0.	28.599
10165	9.9818	0.18182	5.e-002	10.571
10166	9.9818	9.0909e-002	0.	16.766
10167	9.797	5.7273	0.	38.519
10168	9.7045	5.8182	0.	24.612
10169	9.797	5.8182	5.e-002	8.8498
10170	9.797	5.9091	0.	14.598
10171	9.797	5.5455	0.	59.802
10172	9.7045	5.6364	0.	46.513
10173	9.797	5.6364	5.e-002	10.17
10174	9.797	5.3636	0.	75.158
10175	9.7045	5.4545	0.	63.087
10176	9.797	5.4545	5.e-002	9.9177
10177	9.797	5.1818	0.	84.578
10178	9.7045	5.2727	0.	74.081
10179	9.797	5.2727	5.e-002	9.4782
10180	9.797	5.	0.	88.209
10181	9.7045	5.0909	0.	79.595
10182	9.797	5.0909	5.e-002	8.9498
10183	9.797	4.8182	0.	86.337
10184	9.7045	4.9091	0.	79.818
10185	9.797	4.9091	5.e-002	8.3513
10186	9.797	4.6364	0.	79.467
10187	9.7045	4.7273	0.	75.14
10188	9.797	4.7273	5.e-002	7.6966
10189	9.797	4.4545	0.	68.366
10190	9.7045	4.5455	0.	66.176
10191	9.797	4.5455	5.e-002	6.9989
10192	9.797	4.2727	0.	54.068
10193	9.7045	4.3636	0.	53.787
10194	9.797	4.3636	5.e-002	6.2678
10195	9.797	4.0909	0.	37.842
10196	9.7045	4.1818	0.	39.064
10197	9.797	4.1818	5.e-002	5.5088
10198	9.797	3.9091	0.	21.137
10199	9.7045	4.	0.	23.29
10200	9.797	4.	5.e-002	4.7244
10201	9.797	3.7273	0.	5.9125
10202	9.7045	3.8182	0.	8.0951
10203	9.797	3.8182	5.e-002	3.9167
10204	9.797	3.5455	0.	0.52141
10205	9.7045	3.6364	0.	0.68944
10206	9.797	3.6364	5.e-002	3.0911
10207	9.797	3.3636	0.	0.1486
10208	9.7045	3.4545	0.	0.18242
10209	9.797	3.4545	5.e-002	2.2584
10210	9.797	3.1818	0.	5.6293e-002
10211	9.7045	3.2727	0.	6.9938e-002
10212	9.797	3.2727	5.e-002	1.4428
10213	9.797	3.	0.	3.3557e-002
10214	9.7045	3.0909	0.	3.2511e-002
10215	9.797	3.0909	5.e-002	0.74852
10216	9.797	2.8182	0.	5.6293e-002
10217	9.7045	2.9091	0.	3.2511e-002
10218	9.797	2.9091	5.e-002	0.74858
10219	9.797	2.6364	0.	0.1486
10220	9.7045	2.7273	0.	6.9938e-002
10221	9.797	2.7273	5.e-002	1.4428
10222	9.797	2.4545	0.	0.5214
10223	9.7045	2.5455	0.	0.18242
10224	9.797	2.5455	5.e-002	2.2584
10225	9.797	2.2727	0.	5.9124
10226	9.7045	2.3636	0.	0.68943
10227	9.797	2.3636	5.e-002	3.0912
10228	9.797	2.0909	0.	21.137
10229	9.7045	2.1818	0.	8.0949
10230	9.797	2.1818	5.e-002	3.9168
10231	9.797	1.9091	0.	37.842
10232	9.7045	2.	0.	23.29
10233	9.797	2.	5.e-002	4.7245
10234	9.797	1.7273	0.	54.068
10235	9.7045	1.8182	0.	39.064
10236	9.797	1.8182	5.e-002	5.5089
10237	9.797	1.5455	0.	68.366
10238	9.7045	1.6364	0.	53.787
10239	9.797	1.6364	5.e-002	6.2679
10240	9.797	1.3636	0.	79.467
10241	9.7045	1.4545	0.	66.176
10242	9.797	1.4545	5.e-002	6.999
10243	9.797	1.1818	0.	86.337
10244	9.7045	1.2727	0.	75.14
10245	9.797	1.2727	5.e-002	7.6967
10246	9.797	1.	0.	88.209
10247	9.7045	1.0909	0.	79.818
10248	9.797	1.0909	5.e-002	8.3515
10249	9.797	0.81818	0.	84.577
10250	9.7045	0.90909	0.	79.595
10251	9.797	0.90909	5.e-002	8.95
10252	9.797	0.63636	0.	75.158
10253	9.7045	0.72727	0.	74.081
10254	9.797	0.72727	5.e-002	9.4785
10255	9.797	0.45455	0.	59.802
10256	9.7045	0.54545	0.	63.087
10257	9.797	0.54545	5.e-002	9.918
10258	9.797	0.27273	0.	38.519
10259	9.7045	0.36364	0.	46.513
10260	9.797	0.36364	5.e-002	10.17
10261	9.7045	0.18182	0.	24.612
10262	9.797	0.18182	5.e-002	8.85
10263	9.797	9.0909e-002	0.	14.598
10264	9.6121	5.7273	0.	32.521
10265	9.5197	5.8182	0.	21.037
10266	9.6121	5.8182	5.e-002	7.4308
10267	9.6121	5.9091	0.	12.652
10268	9.6121	5.5455	0.	49.812
10269	9.5197	5.6364	0.	38.693
10270	9.6121	5.6364	5.e-002	9.188
10271	9.6121	5.3636	0.	62.053
10272	9.5197	5.4545	0.	51.922
10273	9.6121	5.4545	5.e-002	9.0317
10274	9.6121	5.1818	0.	69.159
10275	9.5197	5.2727	0.	60.369
10276	9.6121	5.2727	5.e-002	8.6786
10277	9.6121	5.	0.	71.273
10278	9.5197	5.0909	0.	64.102
10279	9.6121	5.0909	5.e-002	8.2482
10280	9.6121	4.8182	0.	68.69
10281	9.5197	4.9091	0.	63.314
10282	9.6121	4.9091	5.e-002	7.7579
10283	9.6121	4.6364	0.	61.912
10284	9.5197	4.7273	0.	58.389
10285	9.6121	4.7273	5.e-002	7.2177
10286	9.6121	4.4545	0.	51.651
10287	9.5197	4.5455	0.	49.909
10288	9.6121	4.5455	5.e-002	6.6362
10289	9.6121	4.2727	0.	38.822
10290	9.5197	4.3636	0.	38.646
10291	9.6121	4.3636	5.e-002	6.0201
10292	9.6121	4.0909	0.	24.523
10293	9.5197	4.1818	0.	25.557
10294	9.6121	4.1818	5.e-002	5.3743
10295	9.6121	3.9091	0.	10.101
10296	9.5197	4.	0.	11.81
10297	9.6121	4.	5.e-002	4.7036
10298	9.6121	3.7273	0.	0.93823
10299	9.5197	3.8182	0.	1.3191
10300	9.6121	3.8182	5.e-002	4.0156
10301	9.6121	3.5455	0.	0.21412
10302	9.5197	3.6364	0.	0.24845
10303	9.6121	3.6364	5.e-002	3.325
10304	9.6121	3.3636	0.	8.3477e-002
10305	9.5197	3.4545	0.	9.8342e-002
10306	9.6121	3.4545	5.e-002	2.6615
10307	9.6121	3.1818	0.	3.6252e-002
10308	9.5197	3.2727	0.	4.3398e-002
10309	9.6121	3.2727	5.e-002	2.0859
10310	9.6121	3.	0.	2.3266e-002
10311	9.5197	3.0909	0.	2.21e-002
10312	9.6121	3.0909	5.e-002	1.7202
10313	9.6121	2.8182	0.	3.6252e-002
10314	9.5197	2.9091	0.	2.21e-002
10315	9.6121	2.9091	5.e-002	1.7202
10316	9.6121	2.6364	0.	8.3477e-002
10317	9.5197	2.7273	0.	4.3398e-002
10318	9.6121	2.7273	5.e-002	2.086
10319	9.6121	2.4545	0.	0.21412
10320	9.5197	2.5455	0.	9.8341e-002
10321	9.6121	2.5455	5.e-002	2.6615
10322	9.6121	2.2727	0.	0.93821
10323	9.5197	2.3636	0.	0.24844
10324	9.6121	2.3636	5.e-002	3.3251
10325	9.6121	2.0909	0.	10.101
10326	9.5197	2.1818	0.	1.3191
10327	9.6121	2.1818	5.e-002	4.0156
10328	9.6121	1.9091	0.	24.523
10329	9.5197	2.	0.	11.81
10330	9.6121	2.	5.e-002	4.7037
10331	9.6121	1.7273	0.	38.822
10332	9.5197	1.8182	0.	25.556
10333	9.6121	1.8182	5.e-002	5.3744
10334	9.6121	1.5455	0.	51.65
10335	9.5197	1.6364	0.	38.646
10336	9.6121	1.6364	5.e-002	6.0202
10337	9.6121	1.3636	0.	61.912
10338	9.5197	1.4545	0.	49.908
10339	9.6121	1.4545	5.e-002	6.6363
10340	9.6121	1.1818	0.	68.69
10341	9.5197	1.2727	0.	58.389
10342	9.6121	1.2727	5.e-002	7.2178
10343	9.6121	1.	0.	71.273
10344	9.5197	1.0909	0.	63.314
10345	9.6121	1.0909	5.e-002	7.7581
10346	9.6121	0.81818	0.	69.159
10347	9.5197	0.90909	0.	64.102
10348	9.6121	0.90909	5.e-002	8.2484
10349	9.6121	0.63636	0.	62.053
10350	9.5197	0.72727	0.	60.368
10351	9.6121	0.72727	5.e-002	8.6788
10352	9.6121	0.45455	0.	49.812
10353	9.5197	0.54545	0.	51.922
10354	9.6121	0.54545	5.e-002	9.032
10355	9.6121	0.27273	0.	32.521
10356	9.5197	0.36364	0.	38.693
10357	9.6121	0.36364	5.e-002	9.1881
10358	9.5197	0.18182	0.	21.037
10359	9.6121	0.18182	5.e-002	7.4311
10360	9.6121	9.0909e-002	0.	12.652
10361	9.4273	5.7273	0.	27.123
10362	9.3348	5.8182	0.	17.829
10363	9.4273	5.8182	5.e-002	6.2736
10364	9.4273	5.9091	0.	10.906
10365	9.4273	5.5455	0.	40.801
10366	9.3348	5.6364	0.	31.651
10367	9.4273	5.6364	5.e-002	8.3963
10368	9.4273	5.3636	0.	50.257
10369	9.3348	5.4545	0.	41.867
10370	9.4273	5.4545	5.e-002	8.3225
10371	9.4273	5.1818	0.	55.342
10372	9.3348	5.2727	0.	48.047
10373	9.4273	5.2727	5.e-002	8.0437
10374	9.4273	5.	0.	56.179
10375	9.3348	5.0909	0.	50.231
10376	9.4273	5.0909	5.e-002	7.6966
10377	9.4273	4.8182	0.	53.049
10378	9.3348	4.9091	0.	48.596
10379	9.4273	4.9091	5.e-002	7.2981
10380	9.4273	4.6364	0.	46.418
10381	9.3348	4.7273	0.	43.501
10382	9.4273	4.7273	5.e-002	6.8557
10383	9.4273	4.4545	0.	36.93
10384	9.3348	4.5455	0.	35.474
10385	9.4273	4.5455	5.e-002	6.3759
10386	9.4273	4.2727	0.	25.393
10387	9.3348	4.3636	0.	25.204
10388	9.4273	4.3636	5.e-002	5.8647
10389	9.4273	4.0909	0.	12.805
10390	9.3348	4.1818	0.	13.557
10391	9.4273	4.1818	5.e-002	5.3277
10392	9.4273	3.9091	0.	1.8374
10393	9.3348	4.	0.	2.4773
10394	9.4273	4.	5.e-002	4.7727
10395	9.4273	3.7273	0.	0.27428
10396	9.3348	3.8182	0.	0.30083
10397	9.4273	3.8182	5.e-002	4.2115
10398	9.4273	3.5455	0.	0.10918
10399	9.3348	3.6364	0.	0.11981
10400	9.4273	3.6364	5.e-002	3.6646
10401	9.4273	3.3636	0.	5.0034e-002
10402	9.3348	3.4545	0.	5.7255e-002
10403	9.4273	3.4545	5.e-002	3.1658
10404	9.4273	3.1818	0.	2.3855e-002
10405	9.3348	3.2727	0.	2.7713e-002
10406	9.4273	3.2727	5.e-002	2.7678
10407	9.4273	3.	0.	1.613e-002
10408	9.3348	3.0909	0.	1.5083e-002
10409	9.4273	3.0909	5.e-002	2.5401
10410	9.4273	2.8182	0.	2.3855e-002
10411	9.3348	2.9091	0.	1.5083e-002
10412	9.4273	2.9091	5.e-002	2.5401
10413	9.4273	2.6364	0.	5.0034e-002
10414	9.3348	2.7273	0.	2.7714e-002
10415	9.4273	2.7273	5.e-002	2.7679
10416	9.4273	2.4545	0.	0.10917
10417	9.3348	2.5455	0.	5.7255e-002
10418	9.4273	2.5455	5.e-002	3.1658
10419	9.4273	2.2727	0.	0.27428
10420	9.3348	2.3636	0.	0.11981
10421	9.4273	2.3636	5.e-002	3.6646
10422	9.4273	2.0909	0.	1.8373
10423	9.3348	2.1818	0.	0.30082
10424	9.4273	2.1818	5.e-002	4.2116
10425	9.4273	1.9091	0.	12.805
10426	9.3348	2.	0.	2.4772
10427	9.4273	2.	5.e-002	4.7727
10428	9.4273	1.7273	0.	25.393
10429	9.3348	1.8182	0.	13.557
10430	9.4273	1.8182	5.e-002	5.3278
10431	9.4273	1.5455	0.	36.929
10432	9.3348	1.6364	0.	25.204
10433	9.4273	1.6364	5.e-002	5.8648
10434	9.4273	1.3636	0.	46.418
10435	9.3348	1.4545	0.	35.474
10436	9.4273	1.4545	5.e-002	6.3761
10437	9.4273	1.1818	0.	53.049
10438	9.3348	1.2727	0.	43.501
10439	9.4273	1.2727	5.e-002	6.8558
10440	9.4273	1.	0.	56.179
10441	9.3348	1.0909	0.	48.596
10442	9.4273	1.0909	5.e-002	7.2983
10443	9.4273	0.81818	0.	55.342
10444	9.3348	0.90909	0.	50.231
10445	9.4273	0.90909	5.e-002	7.6968
10446	9.4273	0.63636	0.	50.257
10447	9.3348	0.72727	0.	48.047
10448	9.4273	0.72727	5.e-002	8.0439
10449	9.4273	0.45455	0.	40.801
10450	9.3348	0.54545	0.	41.867
10451	9.4273	0.54545	5.e-002	8.3227
10452	9.4273	0.27273	0.	27.123
10453	9.3348	0.36364	0.	31.651
10454	9.4273	0.36364	5.e-002	8.3966
10455	9.3348	0.18182	0.	17.829
10456	9.4273	0.18182	5.e-002	6.2738
10457	9.4273	9.0909e-002	0.	10.906
10458	9.2424	5.7273	0.	22.274
10459	9.15	5.8182	0.	14.942
10460	9.2424	5.8182	5.e-002	5.3405
10461	9.2424	5.9091	0.	9.3321
10462	9.2424	5.5455	0.	32.705
10463	9.15	5.6364	0.	25.325
10464	9.2424	5.6364	5.e-002	7.7636
10465	9.2424	5.3636	0.	39.661
10466	9.15	5.4545	0.	32.829
10467	9.2424	5.4545	5.e-002	7.7582
10468	9.2424	5.1818	0.	42.948
10469	9.15	5.2727	0.	36.972
10470	9.2424	5.2727	5.e-002	7.5419
10471	9.2424	5.	0.	42.665
10472	9.15	5.0909	0.	37.771
10473	9.2424	5.0909	5.e-002	7.265
10474	9.2424	4.8182	0.	39.065
10475	9.15	4.9091	0.	35.383
10476	9.2424	4.9091	5.e-002	6.9437
10477	9.2424	4.6364	0.	32.571
10478	9.15	4.7273	0.	30.13
10479	9.2424	4.7273	5.e-002	6.5842
10480	9.2424	4.4545	0.	23.756
10481	9.15	4.5455	0.	22.487
10482	9.2424	4.5455	5.e-002	6.1921
10483	9.2424	4.2727	0.	13.357
10484	9.15	4.3636	0.	13.084
10485	9.2424	4.3636	5.e-002	5.7733
10486	9.2424	4.0909	0.	2.8734
10487	9.15	4.1818	0.	3.155
10488	9.2424	4.1818	5.e-002	5.3342
10489	9.2424	3.9091	0.	0.30719
10490	9.15	4.	0.	0.31118
10491	9.2424	4.	5.e-002	4.8841
10492	9.2424	3.7273	0.	0.1233
10493	9.15	3.8182	0.	0.12628
10494	9.2424	3.8182	5.e-002	4.4365
10495	9.2424	3.5455	0.	6.1542e-002
10496	9.15	3.6364	0.	6.5637e-002
10497	9.2424	3.6364	5.e-002	4.0118
10498	9.2424	3.3636	0.	3.1148e-002
10499	9.15	3.4545	0.	3.4921e-002
10500	9.2424	3.4545	5.e-002	3.6389
10501	9.2424	3.1818	0.	1.5886e-002
10502	9.15	3.2727	0.	1.8011e-002
10503	9.2424	3.2727	5.e-002	3.3551
10504	9.2424	3.	0.	1.1158e-002
10505	9.15	3.0909	0.	1.0282e-002
10506	9.2424	3.0909	5.e-002	3.1997
10507	9.2424	2.8182	0.	1.5886e-002
10508	9.15	2.9091	0.	1.0281e-002
10509	9.2424	2.9091	5.e-002	3.1997
10510	9.2424	2.6364	0.	3.1148e-002
10511	9.15	2.7273	0.	1.8011e-002
10512	9.2424	2.7273	5.e-002	3.3551
10513	9.2424	2.4545	0.	6.1541e-002
10514	9.15	2.5455	0.	3.4921e-002
10515	9.2424	2.5455	5.e-002	3.639
10516	9.2424	2.2727	0.	0.1233
10517	9.15	2.3636	0.	6.5637e-002
10518	9.2424	2.3636	5.e-002	4.0118
10519	9.2424	2.0909	0.	0.30719
10520	9.15	2.1818	0.	0.12628
10521	9.2424	2.1818	5.e-002	4.4366
10522	9.2424	1.9091	0.	2.8733
10523	9.15	2.	0.	0.31118
10524	9.2424	2.	5.e-002	4.8842
10525	9.2424	1.7273	0.	13.357
10526	9.15	1.8182	0.	3.1549
10527	9.2424	1.8182	5.e-002	5.3343
10528	9.2424	1.5455	0.	23.756
10529	9.15	1.6364	0.	13.083
10530	9.2424	1.6364	5.e-002	5.7734
10531	9.2424	1.3636	0.	32.571
10532	9.15	1.4545	0.	22.487
10533	9.2424	1.4545	5.e-002	6.1923
10534	9.2424	1.1818	0.	39.065
10535	9.15	1.2727	0.	30.13
10536	9.2424	1.2727	5.e-002	6.5843
10537	9.2424	1.	0.	42.664
10538	9.15	1.0909	0.	35.383
10539	9.2424	1.0909	5.e-002	6.9439
10540	9.2424	0.81818	0.	42.948
10541	9.15	0.90909	0.	37.771
10542	9.2424	0.90909	5.e-002	7.2652
10543	9.2424	0.63636	0.	39.661
10544	9.15	0.72727	0.	36.972
10545	9.2424	0.72727	5.e-002	7.5422
10546	9.2424	0.45455	0.	32.705
10547	9.15	0.54545	0.	32.829
10548	9.2424	0.54545	5.e-002	7.7585
10549	9.2424	0.27273	0.	22.274
10550	9.15	0.36364	0.	25.325
10551	9.2424	0.36364	5.e-002	7.7638
10552	9.15	0.18182	0.	14.942
10553	9.2424	0.18182	5.e-002	5.3408
10554	9.2424	9.0909e-002	0.	9.3321
10555	9.0576	5.7273	0.	17.914
10556	8.9652	5.8182	0.	12.326
10557	9.0576	5.8182	5.e-002	4.5983
10558	9.0576	5.9091	0.	7.9052
10559	9.0576	5.5455	0.	25.431
10560	8.9652	5.6364	0.	19.635
10561	9.0576	5.6364	5.e-002	7.2621
10562	9.0576	5.3636	0.	30.135
10563	8.9652	5.4545	0.	24.694
10564	9.0576	5.4545	5.e-002	7.3126
10565	9.0576	5.1818	0.	31.796
10566	8.9652	5.2727	0.	26.989
10567	9.0576	5.2727	5.e-002	7.1481
10568	9.0576	5.	0.	30.494
10569	8.9652	5.0909	0.	26.521
10570	9.0576	5.0909	5.e-002	6.9293
10571	9.0576	4.8182	0.	26.453
10572	8.9652	4.9091	0.	23.428
10573	9.0576	4.9091	5.e-002	6.6723
10574	9.0576	4.6364	0.	20.05
10575	8.9652	4.7273	0.	17.997
10576	9.0576	4.7273	5.e-002	6.3825
10577	9.0576	4.4545	0.	11.812
10578	8.9652	4.5455	0.	10.67
10579	9.0576	4.5455	5.e-002	6.065
10580	9.0576	4.2727	0.	2.8354
10581	8.9652	4.3636	0.	2.462
10582	9.0576	4.3636	5.e-002	5.7254
10583	9.0576	4.0909	0.	0.28367
10584	8.9652	4.1818	0.	0.25745
10585	9.0576	4.1818	5.e-002	5.3706
10586	9.0576	3.9091	0.	0.12035
10587	8.9652	4.	0.	0.11502
10588	9.0576	4.	5.e-002	5.0101
10589	9.0576	3.7273	0.	6.5616e-002
10590	8.9652	3.8182	0.	6.5658e-002
10591	9.0576	3.8182	5.e-002	4.6569
10592	9.0576	3.5455	0.	3.685e-002
10593	8.9652	3.6364	0.	3.8753e-002
10594	9.0576	3.6364	5.e-002	4.3288
10595	9.0576	3.3636	0.	1.9886e-002
10596	8.9652	3.4545	0.	2.2001e-002
10597	9.0576	3.4545	5.e-002	4.048
10598	9.0576	3.1818	0.	1.0623e-002
10599	8.9652	3.2727	0.	1.1818e-002
10600	9.0576	3.2727	5.e-002	3.8402
10601	9.0576	3.	0.	7.6531e-003
10602	8.9652	3.0909	0.	6.9405e-003
10603	9.0576	3.0909	5.e-002	3.7289
10604	9.0576	2.8182	0.	1.0623e-002
10605	8.9652	2.9091	0.	6.9405e-003
10606	9.0576	2.9091	5.e-002	3.729
10607	9.0576	2.6364	0.	1.9886e-002
10608	8.9652	2.7273	0.	1.1818e-002
10609	9.0576	2.7273	5.e-002	3.8402
10610	9.0576	2.4545	0.	3.685e-002
10611	8.9652	2.5455	0.	2.2001e-002
10612	9.0576	2.5455	5.e-002	4.0481
10613	9.0576	2.2727	0.	6.5616e-002
10614	8.9652	2.3636	0.	3.8753e-002
10615	9.0576	2.3636	5.e-002	4.3288
10616	9.0576	2.0909	0.	0.12035
10617	8.9652	2.1818	0.	6.5658e-002
10618	9.0576	2.1818	5.e-002	4.657
10619	9.0576	1.9091	0.	0.28367
10620	8.9652	2.	0.	0.11502
10621	9.0576	2.	5.e-002	5.0102
10622	9.0576	1.7273	0.	2.8354
10623	8.9652	1.8182	0.	0.25745
10624	9.0576	1.8182	5.e-002	5.3707
10625	9.0576	1.5455	0.	11.812
10626	8.9652	1.6364	0.	2.4619
10627	9.0576	1.6364	5.e-002	5.7255
10628	9.0576	1.3636	0.	20.05
10629	8.9652	1.4545	0.	10.67
10630	9.0576	1.4545	5.e-002	6.0651
10631	9.0576	1.1818	0.	26.453
10632	8.9652	1.2727	0.	17.997
10633	9.0576	1.2727	5.e-002	6.3827
10634	9.0576	1.	0.	30.494
10635	8.9652	1.0909	0.	23.428
10636	9.0576	1.0909	5.e-002	6.6725
10637	9.0576	0.81818	0.	31.796
10638	8.9652	0.90909	0.	26.521
10639	9.0576	0.90909	5.e-002	6.9295
10640	9.0576	0.63636	0.	30.135
10641	8.9652	0.72727	0.	26.989
10642	9.0576	0.72727	5.e-002	7.1483
10643	9.0576	0.45455	0.	25.431
10644	8.9652	0.54545	0.	24.694
10645	9.0576	0.54545	5.e-002	7.3128
10646	9.0576	0.27273	0.	17.914
10647	8.9652	0.36364	0.	19.635
10648	9.0576	0.36364	5.e-002	7.2624
10649	8.9652	0.18182	0.	12.326
10650	9.0576	0.18182	5.e-002	4.5986
10651	9.0576	9.0909e-002	0.	7.9052
10652	8.8727	5.7273	0.	13.975
10653	8.7803	5.8182	0.	9.9366
10654	8.8727	5.8182	5.e-002	4.0184
10655	8.8727	5.9091	0.	6.5996
10656	8.8727	5.5455	0.	18.877
10657	8.7803	5.6364	0.	14.496
10658	8.8727	5.6364	5.e-002	6.8688
10659	8.8727	5.3636	0.	21.539
10660	8.7803	5.4545	0.	17.342
10661	8.8727	5.4545	5.e-002	6.9636
10662	8.8727	5.1818	0.	21.71
10663	8.7803	5.2727	0.	17.945
10664	8.8727	5.2727	5.e-002	6.8413
10665	8.8727	5.	0.	19.454
10666	8.7803	5.0909	0.	16.296
10667	8.8727	5.0909	5.e-002	6.6704
10668	8.8727	4.8182	0.	14.971
10669	8.7803	4.9091	0.	12.52
10670	8.8727	4.9091	5.e-002	6.4667
10671	8.8727	4.6364	0.	8.6204
10672	8.7803	4.7273	0.	6.9038
10673	8.8727	4.7273	5.e-002	6.2349
10674	8.8727	4.4545	0.	1.5444
10675	8.7803	4.5455	0.	0.90569
10676	8.8727	4.5455	5.e-002	5.9798
10677	8.8727	4.2727	0.	0.2065
10678	8.7803	4.3636	0.	0.16913
10679	8.8727	4.3636	5.e-002	5.7068
10680	8.8727	4.0909	0.	0.10178
10681	8.7803	4.1818	0.	9.1403e-002
10682	8.8727	4.1818	5.e-002	5.4226
10683	8.8727	3.9091	0.	6.1599e-002
10684	8.7803	4.	0.	5.8438e-002
10685	8.8727	4.	5.e-002	5.1361
10686	8.8727	3.7273	0.	3.8359e-002
10687	8.7803	3.8182	0.	3.8199e-002
10688	8.8727	3.8182	5.e-002	4.8587
10689	8.8727	3.5455	0.	2.3025e-002
10690	8.7803	3.6364	0.	2.4109e-002
10691	8.8727	3.6364	5.e-002	4.6051
10692	8.8727	3.3636	0.	1.2911e-002
10693	8.7803	3.4545	0.	1.4159e-002
10694	8.8727	3.4545	5.e-002	4.3919
10695	8.8727	3.1818	0.	7.0655e-003
10696	8.7803	3.2727	0.	7.7543e-003
10697	8.8727	3.2727	5.e-002	4.2368
10698	8.8727	3.	0.	5.1459e-003
10699	8.7803	3.0909	0.	4.5715e-003
10700	8.8727	3.0909	5.e-002	4.1548
10701	8.8727	2.8182	0.	7.0656e-003
10702	8.7803	2.9091	0.	4.5719e-003
10703	8.8727	2.9091	5.e-002	4.1548
10704	8.8727	2.6364	0.	1.2911e-002
10705	8.7803	2.7273	0.	7.7542e-003
10706	8.8727	2.7273	5.e-002	4.2368
10707	8.8727	2.4545	0.	2.3026e-002
10708	8.7803	2.5455	0.	1.4159e-002
10709	8.8727	2.5455	5.e-002	4.392
10710	8.8727	2.2727	0.	3.8359e-002
10711	8.7803	2.3636	0.	2.4109e-002
10712	8.8727	2.3636	5.e-002	4.6052
10713	8.8727	2.0909	0.	6.1599e-002
10714	8.7803	2.1818	0.	3.8199e-002
10715	8.8727	2.1818	5.e-002	4.8588
10716	8.8727	1.9091	0.	0.10178
10717	8.7803	2.	0.	5.8439e-002
10718	8.8727	2.	5.e-002	5.1362
10719	8.8727	1.7273	0.	0.2065
10720	8.7803	1.8182	0.	9.1403e-002
10721	8.8727	1.8182	5.e-002	5.4227
10722	8.8727	1.5455	0.	1.5443
10723	8.7803	1.6364	0.	0.16913
10724	8.8727	1.6364	5.e-002	5.7069
10725	8.8727	1.3636	0.	8.6203
10726	8.7803	1.4545	0.	0.90566
10727	8.8727	1.4545	5.e-002	5.9799
10728	8.8727	1.1818	0.	14.971
10729	8.7803	1.2727	0.	6.9038
10730	8.8727	1.2727	5.e-002	6.2351
10731	8.8727	1.	0.	19.454
10732	8.7803	1.0909	0.	12.52
10733	8.8727	1.0909	5.e-002	6.4669
10734	8.8727	0.81818	0.	21.71
10735	8.7803	0.90909	0.	16.296
10736	8.8727	0.90909	5.e-002	6.6706
10737	8.8727	0.63636	0.	21.539
10738	8.7803	0.72727	0.	17.945
10739	8.8727	0.72727	5.e-002	6.8415
10740	8.8727	0.45455	0.	18.877
10741	8.7803	0.54545	0.	17.341
10742	8.8727	0.54545	5.e-002	6.9639
10743	8.8727	0.27273	0.	13.975
10744	8.7803	0.36364	0.	14.496
10745	8.8727	0.36364	5.e-002	6.8691
10746	8.7803	0.18182	0.	9.9365
10747	8.8727	0.18182	5.e-002	4.0187
10748	8.8727	9.0909e-002	0.	6.5996
10749	8.6879	5.7273	0.	10.391
10750	8.5955	5.8182	0.	7.731
10751	8.6879	5.8182	5.e-002	3.5767
10752	8.6879	5.9091	0.	5.3925
10753	8.6879	5.5455	0.	12.939
10754	8.5955	5.6364	0.	9.8226
10755	8.6879	5.6364	5.e-002	6.5641
10756	8.6879	5.3636	0.	13.735
10757	8.5955	5.4545	0.	10.651
10758	8.6879	5.4545	5.e-002	6.6934
10759	8.6879	5.1818	0.	12.523
10760	8.5955	5.2727	0.	9.6893
10761	8.6879	5.2727	5.e-002	6.6049
10762	8.6879	5.	0.	9.3582
10763	8.5955	5.0909	0.	6.929
10764	8.6879	5.0909	5.e-002	6.4731
10765	8.6879	4.8182	0.	4.4733
10766	8.5955	4.9091	0.	2.5823
10767	8.6879	4.9091	5.e-002	6.313
10768	8.6879	4.6364	0.	0.37913
10769	8.5955	4.7273	0.	0.20715
10770	8.6879	4.7273	5.e-002	6.1292
10771	8.6879	4.4545	0.	0.12484
10772	8.5955	4.5455	0.	9.7418e-002
10773	8.6879	4.5455	5.e-002	5.9258
10774	8.6879	4.2727	0.	7.6365e-002
10775	8.5955	4.3636	0.	6.5821e-002
10776	8.6879	4.3636	5.e-002	5.7079
10777	8.6879	4.0909	0.	5.2185e-002
10778	8.5955	4.1818	0.	4.7666e-002
10779	8.6879	4.1818	5.e-002	5.4817
10780	8.6879	3.9091	0.	3.5966e-002
10781	8.5955	4.	0.	3.4421e-002
10782	8.6879	4.	5.e-002	5.2551
10783	8.6879	3.7273	0.	2.3906e-002
10784	8.5955	3.8182	0.	2.3937e-002
10785	8.6879	3.8182	5.e-002	5.0378
10786	8.6879	3.5455	0.	1.4851e-002
10787	8.5955	3.6364	0.	1.5598e-002
10788	8.6879	3.6364	5.e-002	4.8413
10789	8.6879	3.3636	0.	8.4443e-003
10790	8.5955	3.4545	0.	9.2788e-003
10791	8.6879	3.4545	5.e-002	4.6781
10792	8.6879	3.1818	0.	4.6e-003
10793	8.5955	3.2727	0.	5.0077e-003
10794	8.6879	3.2727	5.e-002	4.5608
10795	8.6879	3.	0.	3.3166e-003
10796	8.5955	3.0909	0.	2.8499e-003
10797	8.6879	3.0909	5.e-002	4.4992
10798	8.6879	2.8182	0.	4.6001e-003
10799	8.5955	2.9091	0.	2.8502e-003
10800	8.6879	2.9091	5.e-002	4.4993
10801	8.6879	2.6364	0.	8.4442e-003
10802	8.5955	2.7273	0.	5.0076e-003
10803	8.6879	2.7273	5.e-002	4.5608
10804	8.6879	2.4545	0.	1.4851e-002
10805	8.5955	2.5455	0.	9.2789e-003
10806	8.6879	2.5455	5.e-002	4.6782
10807	8.6879	2.2727	0.	2.3906e-002
10808	8.5955	2.3636	0.	1.5599e-002
10809	8.6879	2.3636	5.e-002	4.8414
10810	8.6879	2.0909	0.	3.5967e-002
10811	8.5955	2.1818	0.	2.3937e-002
10812	8.6879	2.1818	5.e-002	5.0379
10813	8.6879	1.9091	0.	5.2186e-002
10814	8.5955	2.	0.	3.4422e-002
10815	8.6879	2.	5.e-002	5.2552
10816	8.6879	1.7273	0.	7.6365e-002
10817	8.5955	1.8182	0.	4.7666e-002
10818	8.6879	1.8182	5.e-002	5.4818
10819	8.6879	1.5455	0.	0.12484
10820	8.5955	1.6364	0.	6.5821e-002
10821	8.6879	1.6364	5.e-002	5.708
10822	8.6879	1.3636	0.	0.37912
10823	8.5955	1.4545	0.	9.7418e-002
10824	8.6879	1.4545	5.e-002	5.9259
10825	8.6879	1.1818	0.	4.4732
10826	8.5955	1.2727	0.	0.20715
10827	8.6879	1.2727	5.e-002	6.1293
10828	8.6879	1.	0.	9.3581
10829	8.5955	1.0909	0.	2.5822
10830	8.6879	1.0909	5.e-002	6.3132
10831	8.6879	0.81818	0.	12.522
10832	8.5955	0.90909	0.	6.9289
10833	8.6879	0.90909	5.e-002	6.4733
10834	8.6879	0.63636	0.	13.735
10835	8.5955	0.72727	0.	9.6893
10836	8.6879	0.72727	5.e-002	6.6052
10837	8.6879	0.45455	0.	12.939
10838	8.5955	0.54545	0.	10.651
10839	8.6879	0.54545	5.e-002	6.6937
10840	8.6879	0.27273	0.	10.391
10841	8.5955	0.36364	0.	9.8226
10842	8.6879	0.36364	5.e-002	6.5644
10843	8.5955	0.18182	0.	7.731
10844	8.6879	0.18182	5.e-002	3.577
10845	8.6879	9.0909e-002	0.	5.3925
10846	8.503	5.7273	0.	7.1008
10847	8.4106	5.8182	0.	5.672
10848	8.503	5.8182	5.e-002	3.2532
10849	8.503	5.9091	0.	4.2635
10850	8.503	5.5455	0.	7.5137
10851	8.4106	5.6364	0.	5.5326
10852	8.503	5.6364	5.e-002	6.3319
10853	8.503	5.3636	0.	6.5922
10854	8.4106	5.4545	0.	4.5102
10855	8.503	5.4545	5.e-002	6.4871
10856	8.503	5.1818	0.	4.0941
10857	8.4106	5.2727	0.	2.1162
10858	8.503	5.2727	5.e-002	6.4257
10859	8.503	5.	0.	0.58158
10860	8.4106	5.0909	0.	0.14615
10861	8.503	5.0909	5.e-002	6.3253
10862	8.503	4.8182	0.	0.11044
10863	8.4106	4.9091	0.	7.3236e-002
10864	8.503	4.9091	5.e-002	6.2009
10865	8.503	4.6364	0.	7.1142e-002
10866	8.4106	4.7273	0.	5.6107e-002
10867	8.503	4.7273	5.e-002	6.0562
10868	8.503	4.4545	0.	5.3583e-002
10869	8.4106	4.5455	0.	4.5706e-002
10870	8.503	4.5455	5.e-002	5.8952
10871	8.503	4.2727	0.	4.1365e-002
10872	8.4106	4.3636	0.	3.7138e-002
10873	8.503	4.3636	5.e-002	5.7224
10874	8.503	4.0909	0.	3.1382e-002
10875	8.4106	4.1818	0.	2.9366e-002
10876	8.503	4.1818	5.e-002	5.5433
10877	8.503	3.9091	0.	2.2846e-002
10878	8.4106	4.	0.	2.2229e-002
10879	8.503	4.	5.e-002	5.3647
10880	8.503	3.7273	0.	1.5621e-002
10881	8.4106	3.8182	0.	1.5834e-002
10882	8.503	3.8182	5.e-002	5.1945
10883	8.503	3.5455	0.	9.786e-003
10884	8.4106	3.6364	0.	1.0378e-002
10885	8.503	3.6364	5.e-002	5.0419
10886	8.503	3.3636	0.	5.4807e-003
10887	8.4106	3.4545	0.	6.069e-003
10888	8.503	3.4545	5.e-002	4.9163
10889	8.503	3.1818	0.	2.8367e-003
10890	8.4106	3.2727	0.	3.0858e-003
10891	8.503	3.2727	5.e-002	4.8267
10892	8.503	3.	0.	1.9447e-003
10893	8.4106	3.0909	0.	1.5595e-003
10894	8.503	3.0909	5.e-002	4.7799
10895	8.503	2.8182	0.	2.8368e-003
10896	8.4106	2.9091	0.	1.5594e-003
10897	8.503	2.9091	5.e-002	4.7799
10898	8.503	2.6364	0.	5.4809e-003
10899	8.4106	2.7273	0.	3.0859e-003
10900	8.503	2.7273	5.e-002	4.8267
10901	8.503	2.4545	0.	9.7861e-003
10902	8.4106	2.5455	0.	6.0692e-003
10903	8.503	2.5455	5.e-002	4.9164
10904	8.503	2.2727	0.	1.5621e-002
10905	8.4106	2.3636	0.	1.0378e-002
10906	8.503	2.3636	5.e-002	5.042
10907	8.503	2.0909	0.	2.2847e-002
10908	8.4106	2.1818	0.	1.5834e-002
10909	8.503	2.1818	5.e-002	5.1946
10910	8.503	1.9091	0.	3.1382e-002
10911	8.4106	2.	0.	2.2229e-002
10912	8.503	2.	5.e-002	5.3648
10913	8.503	1.7273	0.	4.1365e-002
10914	8.4106	1.8182	0.	2.9366e-002
10915	8.503	1.8182	5.e-002	5.5434
10916	8.503	1.5455	0.	5.3584e-002
10917	8.4106	1.6364	0.	3.7138e-002
10918	8.503	1.6364	5.e-002	5.7225
10919	8.503	1.3636	0.	7.1142e-002
10920	8.4106	1.4545	0.	4.5706e-002
10921	8.503	1.4545	5.e-002	5.8954
10922	8.503	1.1818	0.	0.11044
10923	8.4106	1.2727	0.	5.6108e-002
10924	8.503	1.2727	5.e-002	6.0564
10925	8.503	1.	0.	0.58155
10926	8.4106	1.0909	0.	7.3236e-002
10927	8.503	1.0909	5.e-002	6.2011
10928	8.503	0.81818	0.	4.094
10929	8.4106	0.90909	0.	0.14615
10930	8.503	0.90909	5.e-002	6.3255
10931	8.503	0.63636	0.	6.5921
10932	8.4106	0.72727	0.	2.1161
10933	8.503	0.72727	5.e-002	6.4259
10934	8.503	0.45455	0.	7.5136
10935	8.4106	0.54545	0.	4.5101
10936	8.503	0.54545	5.e-002	6.4874
10937	8.503	0.27273	0.	7.1008
10938	8.4106	0.36364	0.	5.5326
10939	8.503	0.36364	5.e-002	6.3322
10940	8.4106	0.18182	0.	5.6719
10941	8.503	0.18182	5.e-002	3.2534
10942	8.503	9.0909e-002	0.	4.2635
10943	8.3182	5.7273	0.	4.0465
10944	8.2258	5.8182	0.	3.728
10945	8.3182	5.8182	5.e-002	3.0307
10946	8.3182	5.9091	0.	3.1954
10947	8.3182	5.5455	0.	2.5095
10948	8.2258	5.6364	0.	1.5552
10949	8.3182	5.6364	5.e-002	6.1588
10950	8.3182	5.3636	0.	0.2643
10951	8.2258	5.4545	0.	5.2128e-002
10952	8.3182	5.4545	5.e-002	6.3329
10953	8.3182	5.1818	0.	5.9578e-002
10954	8.2258	5.2727	0.	3.8829e-002
10955	8.3182	5.2727	5.e-002	6.2927
10956	8.3182	5.	0.	4.8558e-002
10957	8.2258	5.0909	0.	3.7328e-002
10958	8.3182	5.0909	5.e-002	6.2176
10959	8.3182	4.8182	0.	4.2808e-002
10960	8.2258	4.9091	0.	3.5466e-002
10961	8.3182	4.9091	5.e-002	6.1219
10962	8.3182	4.6364	0.	3.756e-002
10963	8.2258	4.7273	0.	3.2648e-002
10964	8.3182	4.7273	5.e-002	6.0091
10965	8.3182	4.4545	0.	3.2098e-002
10966	8.2258	4.5455	0.	2.8949e-002
10967	8.3182	4.5455	5.e-002	5.8826
10968	8.3182	4.2727	0.	2.6443e-002
10969	8.2258	4.3636	0.	2.4628e-002
10970	8.3182	4.3636	5.e-002	5.7464
10971	8.3182	4.0909	0.	2.0795e-002
10972	8.2258	4.1818	0.	1.998e-002
10973	8.3182	4.1818	5.e-002	5.6052
10974	8.3182	3.9091	0.	1.5412e-002
10975	8.2258	4.	0.	1.5306e-002
10976	8.3182	4.	5.e-002	5.4647
10977	8.3182	3.7273	0.	1.0564e-002
10978	8.2258	3.8182	0.	1.0891e-002
10979	8.3182	3.8182	5.e-002	5.3315
10980	8.3182	3.5455	0.	6.5015e-003
10981	8.2258	3.6364	0.	7.0036e-003
10982	8.3182	3.6364	5.e-002	5.2127
10983	8.3182	3.3636	0.	3.4367e-003
10984	8.2258	3.4545	0.	3.8734e-003
10985	8.3182	3.4545	5.e-002	5.1156
10986	8.3182	3.1818	0.	1.53e-003
10987	8.2258	3.2727	0.	1.6798e-003
10988	8.3182	3.2727	5.e-002	5.0466
10989	8.3182	3.	0.	8.827e-004
10990	8.2258	3.0909	0.	5.5013e-004
10991	8.3182	3.0909	5.e-002	5.0107
10992	8.3182	2.8182	0.	1.5299e-003
10993	8.2258	2.9091	0.	5.5e-004
10994	8.3182	2.9091	5.e-002	5.0107
10995	8.3182	2.6364	0.	3.4368e-003
10996	8.2258	2.7273	0.	1.68e-003
10997	8.3182	2.7273	5.e-002	5.0466
10998	8.3182	2.4545	0.	6.5018e-003
10999	8.2258	2.5455	0.	3.8735e-003
11000	8.3182	2.5455	5.e-002	5.1156
11001	8.3182	2.2727	0.	1.0564e-002
11002	8.2258	2.3636	0.	7.0039e-003
11003	8.3182	2.3636	5.e-002	5.2128
11004	8.3182	2.0909	0.	1.5412e-002
11005	8.2258	2.1818	0.	1.0892e-002
11006	8.3182	2.1818	5.e-002	5.3316
11007	8.3182	1.9091	0.	2.0795e-002
11008	8.2258	2.	0.	1.5306e-002
11009	8.3182	2.	5.e-002	5.4648
11010	8.3182	1.7273	0.	2.6443e-002
11011	8.2258	1.8182	0.	1.9981e-002
11012	8.3182	1.8182	5.e-002	5.6053
11013	8.3182	1.5455	0.	3.2098e-002
11014	8.2258	1.6364	0.	2.4628e-002
11015	8.3182	1.6364	5.e-002	5.7465
11016	8.3182	1.3636	0.	3.7561e-002
11017	8.2258	1.4545	0.	2.895e-002
11018	8.3182	1.4545	5.e-002	5.8828
11019	8.3182	1.1818	0.	4.2809e-002
11020	8.2258	1.2727	0.	3.2649e-002
11021	8.3182	1.2727	5.e-002	6.0093
11022	8.3182	1.	0.	4.8559e-002
11023	8.2258	1.0909	0.	3.5467e-002
11024	8.3182	1.0909	5.e-002	6.1221
11025	8.3182	0.81818	0.	5.9578e-002
11026	8.2258	0.90909	0.	3.7329e-002
11027	8.3182	0.90909	5.e-002	6.2179
11028	8.3182	0.63636	0.	0.26428
11029	8.2258	0.72727	0.	3.883e-002
11030	8.3182	0.72727	5.e-002	6.293
11031	8.3182	0.45455	0.	2.5095
11032	8.2258	0.54545	0.	5.2127e-002
11033	8.3182	0.54545	5.e-002	6.3331
11034	8.3182	0.27273	0.	4.0465
11035	8.2258	0.36364	0.	1.5551
11036	8.3182	0.36364	5.e-002	6.1591
11037	8.2258	0.18182	0.	3.728
11038	8.3182	0.18182	5.e-002	3.0311
11039	8.3182	9.0909e-002	0.	3.1954
11040	8.1333	5.7273	0.	1.1879
11041	8.0409	5.8182	0.	1.8823
11042	8.1333	5.8182	5.e-002	2.895
11043	8.1333	5.9091	0.	2.1758
11044	8.1333	5.5455	0.	2.7762e-002
11045	8.0409	5.6364	0.	2.8768e-002
11046	8.1333	5.6364	5.e-002	6.0341
11047	8.1333	5.3636	0.	2.765e-002
11048	8.0409	5.4545	0.	2.3325e-002
11049	8.1333	5.4545	5.e-002	6.221
11050	8.1333	5.1818	0.	2.91e-002
11051	8.0409	5.2727	0.	2.5527e-002
11052	8.1333	5.2727	5.e-002	6.1975
11053	8.1333	5.	0.	2.9107e-002
11054	8.0409	5.0909	0.	2.5792e-002
11055	8.1333	5.0909	5.e-002	6.1425
11056	8.1333	4.8182	0.	2.7841e-002
11057	8.0409	4.9091	0.	2.5188e-002
11058	8.1333	4.9091	5.e-002	6.0699
11059	8.1333	4.6364	0.	2.5483e-002
11060	8.0409	4.7273	0.	2.3508e-002
11061	8.1333	4.7273	5.e-002	5.9828
11062	8.1333	4.4545	0.	2.2318e-002
11063	8.0409	4.5455	0.	2.1021e-002
11064	8.1333	4.5455	5.e-002	5.8841
11065	8.1333	4.2727	0.	1.8632e-002
11066	8.0409	4.3636	0.	1.7941e-002
11067	8.1333	4.3636	5.e-002	5.7773
11068	8.1333	4.0909	0.	1.4717e-002
11069	8.0409	4.1818	0.	1.4525e-002
11070	8.1333	4.1818	5.e-002	5.6663
11071	8.1333	3.9091	0.	1.0849e-002
11072	8.0409	4.	0.	1.1022e-002
11073	8.1333	4.	5.e-002	5.5561
11074	8.1333	3.7273	0.	7.2857e-003
11075	8.0409	3.8182	0.	7.6719e-003
11076	8.1333	3.8182	5.e-002	5.4519
11077	8.1333	3.5455	0.	4.2566e-003
11078	8.0409	3.6364	0.	4.6959e-003
11079	8.1333	3.6364	5.e-002	5.3593
11080	8.1333	3.3636	0.	1.9502e-003
11081	8.0409	3.4545	0.	2.2855e-003
11082	8.1333	3.4545	5.e-002	5.2838
11083	8.1333	3.1818	0.	5.0724e-004
11084	8.0409	3.2727	0.	5.8976e-004
11085	8.1333	3.2727	5.e-002	5.2304
11086	8.1333	3.	0.	1.6185e-005
11087	8.0409	3.0909	0.	-2.8542e-004
11088	8.1333	3.0909	5.e-002	5.2027
11089	8.1333	2.8182	0.	5.0741e-004
11090	8.0409	2.9091	0.	-2.8542e-004
11091	8.1333	2.9091	5.e-002	5.2027
11092	8.1333	2.6364	0.	1.9505e-003
11093	8.0409	2.7273	0.	5.9002e-004
11094	8.1333	2.7273	5.e-002	5.2304
11095	8.1333	2.4545	0.	4.2567e-003
11096	8.0409	2.5455	0.	2.2856e-003
11097	8.1333	2.5455	5.e-002	5.2839
11098	8.1333	2.2727	0.	7.2858e-003
11099	8.0409	2.3636	0.	4.696e-003
11100	8.1333	2.3636	5.e-002	5.3594
11101	8.1333	2.0909	0.	1.085e-002
11102	8.0409	2.1818	0.	7.6722e-003
11103	8.1333	2.1818	5.e-002	5.452
11104	8.1333	1.9091	0.	1.4718e-002
11105	8.0409	2.	0.	1.1023e-002
11106	8.1333	2.	5.e-002	5.5562
11107	8.1333	1.7273	0.	1.8633e-002
11108	8.0409	1.8182	0.	1.4526e-002
11109	8.1333	1.8182	5.e-002	5.6665
11110	8.1333	1.5455	0.	2.2318e-002
11111	8.0409	1.6364	0.	1.7942e-002
11112	8.1333	1.6364	5.e-002	5.7774
11113	8.1333	1.3636	0.	2.5484e-002
11114	8.0409	1.4545	0.	2.1022e-002
11115	8.1333	1.4545	5.e-002	5.8843
11116	8.1333	1.1818	0.	2.7842e-002
11117	8.0409	1.2727	0.	2.3509e-002
11118	8.1333	1.2727	5.e-002	5.983
11119	8.1333	1.	0.	2.9108e-002
11120	8.0409	1.0909	0.	2.5189e-002
11121	8.1333	1.0909	5.e-002	6.0701
11122	8.1333	0.81818	0.	2.9102e-002
11123	8.0409	0.90909	0.	2.5794e-002
11124	8.1333	0.90909	5.e-002	6.1427
11125	8.1333	0.63636	0.	2.7651e-002
11126	8.0409	0.72727	0.	2.5528e-002
11127	8.1333	0.72727	5.e-002	6.1978
11128	8.1333	0.45455	0.	2.7763e-002
11129	8.0409	0.54545	0.	2.3325e-002
11130	8.1333	0.54545	5.e-002	6.2213
11131	8.1333	0.27273	0.	1.1879
11132	8.0409	0.36364	0.	2.8769e-002
11133	8.1333	0.36364	5.e-002	6.0344
11134	8.0409	0.18182	0.	1.8823
11135	8.1333	0.18182	5.e-002	2.8953
11136	8.1333	9.0909e-002	0.	2.1758
11137	7.9485	5.7273	0.	4.1193e-002
11138	7.8561	5.8182	0.	0.34343
11139	7.9485	5.8182	5.e-002	2.8336
11140	7.9485	5.9091	0.	1.2056
11141	7.9485	5.5455	0.	2.5004e-002
11142	7.8561	5.6364	0.	3.3598e-002
11143	7.9485	5.6364	5.e-002	5.9489
11144	7.9485	5.3636	0.	2.2322e-002
11145	7.8561	5.4545	0.	2.1036e-002
11146	7.9485	5.4545	5.e-002	6.1439
11147	7.9485	5.1818	0.	2.3177e-002
11148	7.8561	5.2727	0.	2.2542e-002
11149	7.9485	5.2727	5.e-002	6.1332
11150	7.9485	5.	0.	2.264e-002
11151	7.8561	5.0909	0.	2.1531e-002
11152	7.9485	5.0909	5.e-002	6.094
11153	7.9485	4.8182	0.	2.1437e-002
11154	7.8561	4.9091	0.	2.0518e-002
11155	7.9485	4.9091	5.e-002	6.0399
11156	7.9485	4.6364	0.	1.9463e-002
11157	7.8561	4.7273	0.	1.8769e-002
11158	7.9485	4.7273	5.e-002	5.9733
11159	7.9485	4.4545	0.	1.6922e-002
11160	7.8561	4.5455	0.	1.6531e-002
11161	7.9485	4.5455	5.e-002	5.897
11162	7.9485	4.2727	0.	1.3998e-002
11163	7.8561	4.3636	0.	1.3898e-002
11164	7.9485	4.3636	5.e-002	5.8137
11165	7.9485	4.0909	0.	1.0903e-002
11166	7.8561	4.1818	0.	1.1053e-002
11167	7.9485	4.1818	5.e-002	5.7269
11168	7.9485	3.9091	0.	7.8452e-003
11169	7.8561	4.	0.	8.1734e-003
11170	7.9485	4.	5.e-002	5.6405
11171	7.9485	3.7273	0.	5.0267e-003
11172	7.8561	3.8182	0.	5.4377e-003
11173	7.9485	3.8182	5.e-002	5.559
11174	7.9485	3.5455	0.	2.6287e-003
11175	7.8561	3.6364	0.	3.0178e-003
11176	7.9485	3.6364	5.e-002	5.4866
11177	7.9485	3.3636	0.	8.0123e-004
11178	7.8561	3.4545	0.	1.063e-003
11179	7.9485	3.4545	5.e-002	5.4278
11180	7.9485	3.1818	0.	-3.4291e-004
11181	7.8561	3.2727	0.	-3.1137e-004
11182	7.9485	3.2727	5.e-002	5.3862
11183	7.9485	3.	0.	-7.3235e-004
11184	7.8561	3.0909	0.	-1.0199e-003
11185	7.9485	3.0909	5.e-002	5.3647
11186	7.9485	2.8182	0.	-3.4282e-004
11187	7.8561	2.9091	0.	-1.0199e-003
11188	7.9485	2.9091	5.e-002	5.3647
11189	7.9485	2.6364	0.	8.0138e-004
11190	7.8561	2.7273	0.	-3.1102e-004
11191	7.9485	2.7273	5.e-002	5.3863
11192	7.9485	2.4545	0.	2.6289e-003
11193	7.8561	2.5455	0.	1.0628e-003
11194	7.9485	2.5455	5.e-002	5.4278
11195	7.9485	2.2727	0.	5.027e-003
11196	7.8561	2.3636	0.	3.0182e-003
11197	7.9485	2.3636	5.e-002	5.4867
11198	7.9485	2.0909	0.	7.8454e-003
11199	7.8561	2.1818	0.	5.4381e-003
11200	7.9485	2.1818	5.e-002	5.559
11201	7.9485	1.9091	0.	1.0903e-002
11202	7.8561	2.	0.	8.1737e-003
11203	7.9485	2.	5.e-002	5.6406
11204	7.9485	1.7273	0.	1.3998e-002
11205	7.8561	1.8182	0.	1.1054e-002
11206	7.9485	1.8182	5.e-002	5.727
11207	7.9485	1.5455	0.	1.6923e-002
11208	7.8561	1.6364	0.	1.3899e-002
11209	7.9485	1.6364	5.e-002	5.8138
11210	7.9485	1.3636	0.	1.9464e-002
11211	7.8561	1.4545	0.	1.6531e-002
11212	7.9485	1.4545	5.e-002	5.8971
11213	7.9485	1.1818	0.	2.1437e-002
11214	7.8561	1.2727	0.	1.877e-002
11215	7.9485	1.2727	5.e-002	5.9735
11216	7.9485	1.	0.	2.2641e-002
11217	7.8561	1.0909	0.	2.0519e-002
11218	7.9485	1.0909	5.e-002	6.0401
11219	7.9485	0.81818	0.	2.3178e-002
11220	7.8561	0.90909	0.	2.1533e-002
11221	7.9485	0.90909	5.e-002	6.0942
11222	7.9485	0.63636	0.	2.2323e-002
11223	7.8561	0.72727	0.	2.2543e-002
11224	7.9485	0.72727	5.e-002	6.1334
11225	7.9485	0.45455	0.	2.5005e-002
11226	7.8561	0.54545	0.	2.1036e-002
11227	7.9485	0.54545	5.e-002	6.1441
11228	7.9485	0.27273	0.	4.1194e-002
11229	7.8561	0.36364	0.	3.3599e-002
11230	7.9485	0.36364	5.e-002	5.9492
11231	7.8561	0.18182	0.	0.34342
11232	7.9485	0.18182	5.e-002	2.8339
11233	7.9485	9.0909e-002	0.	1.2055
11234	7.7636	5.7273	0.	3.805e-002
11235	7.6712	5.8182	0.	0.10492
11236	7.7636	5.8182	5.e-002	2.8358
11237	7.7636	5.9091	0.	0.39999
11238	7.7636	5.5455	0.	2.8303e-002
11239	7.6712	5.6364	0.	4.1667e-002
11240	7.7636	5.6364	5.e-002	5.8964
11241	7.7636	5.3636	0.	2.1104e-002
11242	7.6712	5.4545	0.	2.0913e-002
11243	7.7636	5.4545	5.e-002	6.0953
11244	7.7636	5.1818	0.	2.0965e-002
11245	7.6712	5.2727	0.	2.1751e-002
11246	7.7636	5.2727	5.e-002	6.0943
11247	7.7636	5.	0.	1.9539e-002
11248	7.6712	5.0909	0.	1.9499e-002
11249	7.7636	5.0909	5.e-002	6.0676
11250	7.7636	4.8182	0.	1.7982e-002
11251	7.6712	4.9091	0.	1.7967e-002
11252	7.7636	4.9091	5.e-002	6.0281
11253	7.7636	4.6364	0.	1.5946e-002
11254	7.6712	4.7273	0.	1.5949e-002
11255	7.7636	4.7273	5.e-002	5.9779
11256	7.7636	4.4545	0.	1.3582e-002
11257	7.6712	4.5455	0.	1.3702e-002
11258	7.7636	4.5455	5.e-002	5.9193
11259	7.7636	4.2727	0.	1.0991e-002
11260	7.6712	4.3636	0.	1.1235e-002
11261	7.7636	4.3636	5.e-002	5.8547
11262	7.7636	4.0909	0.	8.325e-003
11263	7.6712	4.1818	0.	8.6755e-003
11264	7.7636	4.1818	5.e-002	5.7871
11265	7.7636	3.9091	0.	5.7338e-003
11266	7.6712	4.	0.	6.1474e-003
11267	7.7636	4.	5.e-002	5.7195
11268	7.7636	3.7273	0.	3.3689e-003
11269	7.6712	3.8182	0.	3.7838e-003
11270	7.7636	3.8182	5.e-002	5.6557
11271	7.7636	3.5455	0.	1.3701e-003
11272	7.6712	3.6364	0.	1.7144e-003
11273	7.7636	3.6364	5.e-002	5.5991
11274	7.7636	3.3636	0.	-1.4737e-004
11275	7.6712	3.4545	0.	5.408e-005
11276	7.7636	3.4545	5.e-002	5.5531
11277	7.7636	3.1818	0.	-1.0956e-003
11278	7.6712	3.2727	0.	-1.1085e-003
11279	7.7636	3.2727	5.e-002	5.5206
11280	7.7636	3.	0.	-1.4179e-003
11281	7.6712	3.0909	0.	-1.7066e-003
11282	7.7636	3.0909	5.e-002	5.5038
11283	7.7636	2.8182	0.	-1.0954e-003
11284	7.6712	2.9091	0.	-1.7066e-003
11285	7.7636	2.9091	5.e-002	5.5038
11286	7.7636	2.6364	0.	-1.4738e-004
11287	7.6712	2.7273	0.	-1.1083e-003
11288	7.7636	2.7273	5.e-002	5.5206
11289	7.7636	2.4545	0.	1.3701e-003
11290	7.6712	2.5455	0.	5.4198e-005
11291	7.7636	2.5455	5.e-002	5.5531
11292	7.7636	2.2727	0.	3.3693e-003
11293	7.6712	2.3636	0.	1.7147e-003
11294	7.7636	2.3636	5.e-002	5.5991
11295	7.7636	2.0909	0.	5.7341e-003
11296	7.6712	2.1818	0.	3.7842e-003
11297	7.7636	2.1818	5.e-002	5.6558
11298	7.7636	1.9091	0.	8.3255e-003
11299	7.6712	2.	0.	6.148e-003
11300	7.7636	2.	5.e-002	5.7196
11301	7.7636	1.7273	0.	1.0992e-002
11302	7.6712	1.8182	0.	8.676e-003
11303	7.7636	1.8182	5.e-002	5.7872
11304	7.7636	1.5455	0.	1.3582e-002
11305	7.6712	1.6364	0.	1.1236e-002
11306	7.7636	1.6364	5.e-002	5.8549
11307	7.7636	1.3636	0.	1.5947e-002
11308	7.6712	1.4545	0.	1.3703e-002
11309	7.7636	1.4545	5.e-002	5.9195
11310	7.7636	1.1818	0.	1.7983e-002
11311	7.6712	1.2727	0.	1.595e-002
11312	7.7636	1.2727	5.e-002	5.9781
11313	7.7636	1.	0.	1.9539e-002
11314	7.6712	1.0909	0.	1.7967e-002
11315	7.7636	1.0909	5.e-002	6.0283
11316	7.7636	0.81818	0.	2.0966e-002
11317	7.6712	0.90909	0.	1.95e-002
11318	7.7636	0.90909	5.e-002	6.0679
11319	7.7636	0.63636	0.	2.1104e-002
11320	7.6712	0.72727	0.	2.1752e-002
11321	7.7636	0.72727	5.e-002	6.0946
11322	7.7636	0.45455	0.	2.8304e-002
11323	7.6712	0.54545	0.	2.0914e-002
11324	7.7636	0.54545	5.e-002	6.0955
11325	7.7636	0.27273	0.	3.8051e-002
11326	7.6712	0.36364	0.	4.1669e-002
11327	7.7636	0.36364	5.e-002	5.8966
11328	7.6712	0.18182	0.	0.10492
11329	7.7636	0.18182	5.e-002	2.8361
11330	7.7636	9.0909e-002	0.	0.39998
11331	7.5788	5.7273	0.	4.2986e-002
11332	7.4864	5.8182	0.	8.6623e-002
11333	7.5788	5.8182	5.e-002	2.8928
11334	7.5788	5.9091	0.	0.15776
11335	7.5788	5.5455	0.	3.2549e-002
11336	7.4864	5.6364	0.	5.0276e-002
11337	7.5788	5.6364	5.e-002	5.8709
11338	7.5788	5.3636	0.	2.1122e-002
11339	7.4864	5.4545	0.	2.1627e-002
11340	7.5788	5.4545	5.e-002	6.0703
11341	7.5788	5.1818	0.	2.0126e-002
11342	7.4864	5.2727	0.	2.1911e-002
11343	7.5788	5.2727	5.e-002	6.0768
11344	7.5788	5.	0.	1.7868e-002
11345	7.4864	5.0909	0.	1.8522e-002
11346	7.5788	5.0909	5.e-002	6.0598
11347	7.5788	4.8182	0.	1.5913e-002
11348	7.4864	4.9091	0.	1.6487e-002
11349	7.5788	4.9091	5.e-002	6.0317
11350	7.5788	4.6364	0.	1.3697e-002
11351	7.4864	4.7273	0.	1.4155e-002
11352	7.5788	4.7273	5.e-002	5.9945
11353	7.5788	4.4545	0.	1.1345e-002
11354	7.4864	4.5455	0.	1.1803e-002
11355	7.5788	4.5455	5.e-002	5.95
11356	7.5788	4.2727	0.	8.8986e-003
11357	7.4864	4.3636	0.	9.3699e-003
11358	7.5788	4.3636	5.e-002	5.9002
11359	7.5788	4.0909	0.	6.4641e-003
11360	7.4864	4.1818	0.	6.9476e-003
11361	7.5788	4.1818	5.e-002	5.8475
11362	7.5788	3.9091	0.	4.1494e-003
11363	7.4864	4.	0.	4.6191e-003
11364	7.5788	4.	5.e-002	5.7948
11365	7.5788	3.7273	0.	2.0679e-003
11366	7.4864	3.8182	0.	2.4825e-003
11367	7.5788	3.8182	5.e-002	5.7447
11368	7.5788	3.5455	0.	3.255e-004
11369	7.4864	3.6364	0.	6.3599e-004
11370	7.5788	3.6364	5.e-002	5.7003
11371	7.5788	3.3636	0.	-9.8848e-004
11372	7.4864	3.4545	0.	-8.3308e-004
11373	7.5788	3.4545	5.e-002	5.6643
11374	7.5788	3.1818	0.	-1.8062e-003
11375	7.4864	3.2727	0.	-1.8552e-003
11376	7.5788	3.2727	5.e-002	5.6388
11377	7.5788	3.	0.	-2.0838e-003
11378	7.4864	3.0909	0.	-2.3799e-003
11379	7.5788	3.0909	5.e-002	5.6256
11380	7.5788	2.8182	0.	-1.8062e-003
11381	7.4864	2.9091	0.	-2.3799e-003
11382	7.5788	2.9091	5.e-002	5.6256
11383	7.5788	2.6364	0.	-9.8818e-004
11384	7.4864	2.7273	0.	-1.8552e-003
11385	7.5788	2.7273	5.e-002	5.6389
11386	7.5788	2.4545	0.	3.2586e-004
11387	7.4864	2.5455	0.	-8.3257e-004
11388	7.5788	2.5455	5.e-002	5.6643
11389	7.5788	2.2727	0.	2.068e-003
11390	7.4864	2.3636	0.	6.3596e-004
11391	7.5788	2.3636	5.e-002	5.7004
11392	7.5788	2.0909	0.	4.1499e-003
11393	7.4864	2.1818	0.	2.4831e-003
11394	7.5788	2.1818	5.e-002	5.7449
11395	7.5788	1.9091	0.	6.4646e-003
11396	7.4864	2.	0.	4.6196e-003
11397	7.5788	2.	5.e-002	5.7949
11398	7.5788	1.7273	0.	8.8993e-003
11399	7.4864	1.8182	0.	6.9481e-003
11400	7.5788	1.8182	5.e-002	5.8477
11401	7.5788	1.5455	0.	1.1346e-002
11402	7.4864	1.6364	0.	9.3706e-003
11403	7.5788	1.6364	5.e-002	5.9003
11404	7.5788	1.3636	0.	1.3698e-002
11405	7.4864	1.4545	0.	1.1803e-002
11406	7.5788	1.4545	5.e-002	5.9501
11407	7.5788	1.1818	0.	1.5914e-002
11408	7.4864	1.2727	0.	1.4156e-002
11409	7.5788	1.2727	5.e-002	5.9947
11410	7.5788	1.	0.	1.7869e-002
11411	7.4864	1.0909	0.	1.6488e-002
11412	7.5788	1.0909	5.e-002	6.0319
11413	7.5788	0.81818	0.	2.0128e-002
11414	7.4864	0.90909	0.	1.8524e-002
11415	7.5788	0.90909	5.e-002	6.06
11416	7.5788	0.63636	0.	2.1122e-002
11417	7.4864	0.72727	0.	2.1912e-002
11418	7.5788	0.72727	5.e-002	6.077
11419	7.5788	0.45455	0.	3.255e-002
11420	7.4864	0.54545	0.	2.1628e-002
11421	7.5788	0.54545	5.e-002	6.0706
11422	7.5788	0.27273	0.	4.2988e-002
11423	7.4864	0.36364	0.	5.0277e-002
11424	7.5788	0.36364	5.e-002	5.8712
11425	7.4864	0.18182	0.	8.6624e-002
11426	7.5788	0.18182	5.e-002	2.8931
11427	7.5788	9.0909e-002	0.	0.15776
11428	7.3939	5.7273	0.	4.9317e-002
11429	7.3015	5.8182	0.	8.4876e-002
11430	7.3939	5.8182	5.e-002	2.9975
11431	7.3939	5.9091	0.	0.12096
11432	7.3939	5.5455	0.	3.7251e-002
11433	7.3015	5.6364	0.	5.9188e-002
11434	7.3939	5.6364	5.e-002	5.8682
11435	7.3939	5.3636	0.	2.1802e-002
11436	7.3015	5.4545	0.	2.287e-002
11437	7.3939	5.4545	5.e-002	6.0652
11438	7.3939	5.1818	0.	2.0038e-002
11439	7.3015	5.2727	0.	2.266e-002
11440	7.3939	5.2727	5.e-002	6.0772
11441	7.3939	5.	0.	1.6998e-002
11442	7.3015	5.0909	0.	1.8193e-002
11443	7.3939	5.0909	5.e-002	6.0677
11444	7.3939	4.8182	0.	1.4641e-002
11445	7.3015	4.9091	0.	1.5669e-002
11446	7.3939	4.9091	5.e-002	6.0486
11447	7.3939	4.6364	0.	1.2198e-002
11448	7.3015	4.7273	0.	1.2999e-002
11449	7.3939	4.7273	5.e-002	6.0215
11450	7.3939	4.4545	0.	9.776e-003
11451	7.3015	4.5455	0.	1.0488e-002
11452	7.3939	4.5455	5.e-002	5.988
11453	7.3939	4.2727	0.	7.3694e-003
11454	7.3015	4.3636	0.	8.013e-003
11455	7.3939	4.3636	5.e-002	5.9498
11456	7.3939	4.0909	0.	5.0509e-003
11457	7.3015	4.1818	0.	5.6365e-003
11458	7.3939	4.1818	5.e-002	5.909
11459	7.3939	3.9091	0.	2.8958e-003
11460	7.3015	4.	0.	3.4109e-003
11461	7.3939	4.	5.e-002	5.8678
11462	7.3939	3.7273	0.	9.8869e-004
11463	7.3015	3.8182	0.	1.406e-003
11464	7.3939	3.8182	5.e-002	5.8285
11465	7.3939	3.5455	0.	-5.8975e-004
11466	7.3015	3.6364	0.	-3.0311e-004
11467	7.3939	3.6364	5.e-002	5.7936
11468	7.3939	3.3636	0.	-1.7711e-003
11469	7.3015	3.4545	0.	-1.6498e-003
11470	7.3939	3.4545	5.e-002	5.7651
11471	7.3939	3.1818	0.	-2.5029e-003
11472	7.3015	3.2727	0.	-2.5811e-003
11473	7.3939	3.2727	5.e-002	5.7451
11474	7.3939	3.	0.	-2.751e-003
11475	7.3015	3.0909	0.	-3.0574e-003
11476	7.3939	3.0909	5.e-002	5.7347
11477	7.3939	2.8182	0.	-2.5029e-003
11478	7.3015	2.9091	0.	-3.0575e-003
11479	7.3939	2.9091	5.e-002	5.7347
11480	7.3939	2.6364	0.	-1.7709e-003
11481	7.3015	2.7273	0.	-2.581e-003
11482	7.3939	2.7273	5.e-002	5.7451
11483	7.3939	2.4545	0.	-5.8963e-004
11484	7.3015	2.5455	0.	-1.6495e-003
11485	7.3939	2.5455	5.e-002	5.7652
11486	7.3939	2.2727	0.	9.8905e-004
11487	7.3015	2.3636	0.	-3.0278e-004
11488	7.3939	2.3636	5.e-002	5.7937
11489	7.3939	2.0909	0.	2.8963e-003
11490	7.3015	2.1818	0.	1.4067e-003
11491	7.3939	2.1818	5.e-002	5.8286
11492	7.3939	1.9091	0.	5.0513e-003
11493	7.3015	2.	0.	3.4109e-003
11494	7.3939	2.	5.e-002	5.8679
11495	7.3939	1.7273	0.	7.3699e-003
11496	7.3015	1.8182	0.	5.6371e-003
11497	7.3939	1.8182	5.e-002	5.9092
11498	7.3939	1.5455	0.	9.7764e-003
11499	7.3015	1.6364	0.	8.0134e-003
11500	7.3939	1.6364	5.e-002	5.95
11501	7.3939	1.3636	0.	1.2199e-002
11502	7.3015	1.4545	0.	1.0489e-002
11503	7.3939	1.4545	5.e-002	5.9882
11504	7.3939	1.1818	0.	1.4641e-002
11505	7.3015	1.2727	0.	1.3e-002
11506	7.3939	1.2727	5.e-002	6.0217
11507	7.3939	1.	0.	1.6999e-002
11508	7.3015	1.0909	0.	1.5669e-002
11509	7.3939	1.0909	5.e-002	6.0488
11510	7.3939	0.81818	0.	2.0039e-002
11511	7.3015	0.90909	0.	1.8195e-002
11512	7.3939	0.90909	5.e-002	6.068
11513	7.3939	0.63636	0.	2.1803e-002
11514	7.3015	0.72727	0.	2.2661e-002
11515	7.3939	0.72727	5.e-002	6.0774
11516	7.3939	0.45455	0.	3.7252e-002
11517	7.3015	0.54545	0.	2.2871e-002
11518	7.3939	0.54545	5.e-002	6.0655
11519	7.3939	0.27273	0.	4.9319e-002
11520	7.3015	0.36364	0.	5.9189e-002
11521	7.3939	0.36364	5.e-002	5.8685
11522	7.3015	0.18182	0.	8.4877e-002
11523	7.3939	0.18182	5.e-002	2.9978
11524	7.3939	9.0909e-002	0.	0.12096
11525	7.2091	5.7273	0.	5.6284e-002
11526	7.1167	5.8182	0.	8.7696e-002
11527	7.2091	5.8182	5.e-002	3.1444
11528	7.2091	5.9091	0.	0.11163
11529	7.2091	5.5455	0.	4.2321e-002
11530	7.1167	5.6364	0.	6.8418e-002
11531	7.2091	5.6364	5.e-002	5.8849
11532	7.2091	5.3636	0.	2.2958e-002
11533	7.1167	5.4545	0.	2.453e-002
11534	7.2091	5.4545	5.e-002	6.0771
11535	7.2091	5.1818	0.	2.0465e-002
11536	7.1167	5.2727	0.	2.385e-002
11537	7.2091	5.2727	5.e-002	6.093
11538	7.2091	5.	0.	1.6666e-002
11539	7.1167	5.0909	0.	1.8327e-002
11540	7.2091	5.0909	5.e-002	6.0893
11541	7.2091	4.8182	0.	1.3898e-002
11542	7.1167	4.9091	0.	1.531e-002
11543	7.2091	4.9091	5.e-002	6.0771
11544	7.2091	4.6364	0.	1.1196e-002
11545	7.1167	4.7273	0.	1.2281e-002
11546	7.2091	4.7273	5.e-002	6.0579
11547	7.2091	4.4545	0.	8.6498e-003
11548	7.1167	4.5455	0.	9.5705e-003
11549	7.2091	4.5455	5.e-002	6.033
11550	7.2091	4.2727	0.	6.2139e-003
11551	7.1167	4.3636	0.	6.9979e-003
11552	7.2091	4.3636	5.e-002	6.0038
11553	7.2091	4.0909	0.	3.9342e-003
11554	7.1167	4.1818	0.	4.6029e-003
11555	7.2091	4.1818	5.e-002	5.9722
11556	7.2091	3.9091	0.	1.8596e-003
11557	7.1167	4.	0.	2.4108e-003
11558	7.2091	4.	5.e-002	5.9399
11559	7.2091	3.7273	0.	5.1858e-005
11560	7.1167	3.8182	0.	4.7069e-004
11561	7.2091	3.8182	5.e-002	5.9089
11562	7.2091	3.5455	0.	-1.4271e-003
11563	7.1167	3.6364	0.	-1.1619e-003
11564	7.2091	3.6364	5.e-002	5.8813
11565	7.2091	3.3636	0.	-2.5252e-003
11566	7.1167	3.4545	0.	-2.4361e-003
11567	7.2091	3.4545	5.e-002	5.8587
11568	7.2091	3.1818	0.	-3.2021e-003
11569	7.1167	3.2727	0.	-3.3119e-003
11570	7.2091	3.2727	5.e-002	5.8428
11571	7.2091	3.	0.	-3.4308e-003
11572	7.1167	3.0909	0.	-3.7582e-003
11573	7.2091	3.0909	5.e-002	5.8345
11574	7.2091	2.8182	0.	-3.202e-003
11575	7.1167	2.9091	0.	-3.7581e-003
11576	7.2091	2.9091	5.e-002	5.8345
11577	7.2091	2.6364	0.	-2.525e-003
11578	7.1167	2.7273	0.	-3.3119e-003
11579	7.2091	2.7273	5.e-002	5.8428
11580	7.2091	2.4545	0.	-1.4266e-003
11581	7.1167	2.5455	0.	-2.4358e-003
11582	7.2091	2.5455	5.e-002	5.8588
11583	7.2091	2.2727	0.	5.2481e-005
11584	7.1167	2.3636	0.	-1.1616e-003
11585	7.2091	2.3636	5.e-002	5.8813
11586	7.2091	2.0909	0.	1.8598e-003
11587	7.1167	2.1818	0.	4.7125e-004
11588	7.2091	2.1818	5.e-002	5.909
11589	7.2091	1.9091	0.	3.9345e-003
11590	7.1167	2.	0.	2.411e-003
11591	7.2091	2.	5.e-002	5.94
11592	7.2091	1.7273	0.	6.2146e-003
11593	7.1167	1.8182	0.	4.6032e-003
11594	7.2091	1.8182	5.e-002	5.9723
11595	7.2091	1.5455	0.	8.6504e-003
11596	7.1167	1.6364	0.	6.9987e-003
11597	7.2091	1.6364	5.e-002	6.004
11598	7.2091	1.3636	0.	1.1196e-002
11599	7.1167	1.4545	0.	9.5709e-003
11600	7.2091	1.4545	5.e-002	6.0332
11601	7.2091	1.1818	0.	1.3899e-002
11602	7.1167	1.2727	0.	1.2282e-002
11603	7.2091	1.2727	5.e-002	6.0582
11604	7.2091	1.	0.	1.6667e-002
11605	7.1167	1.0909	0.	1.5311e-002
11606	7.2091	1.0909	5.e-002	6.0773
11607	7.2091	0.81818	0.	2.0466e-002
11608	7.1167	0.90909	0.	1.8328e-002
11609	7.2091	0.90909	5.e-002	6.0896
11610	7.2091	0.63636	0.	2.2958e-002
11611	7.1167	0.72727	0.	2.3851e-002
11612	7.2091	0.72727	5.e-002	6.0932
11613	7.2091	0.45455	0.	4.2322e-002
11614	7.1167	0.54545	0.	2.453e-002
11615	7.2091	0.54545	5.e-002	6.0774
11616	7.2091	0.27273	0.	5.6285e-002
11617	7.1167	0.36364	0.	6.8419e-002
11618	7.2091	0.36364	5.e-002	5.8852
11619	7.1167	0.18182	0.	8.7698e-002
11620	7.2091	0.18182	5.e-002	3.1448
11621	7.2091	9.0909e-002	0.	0.11163
11622	7.0242	5.7273	0.	6.3759e-002
11623	6.9318	5.8182	0.	9.2681e-002
11624	7.0242	5.8182	5.e-002	3.3296
11625	7.0242	5.9091	0.	0.10999
11626	7.0242	5.5455	0.	4.7749e-002
11627	6.9318	5.6364	0.	7.8038e-002
11628	7.0242	5.6364	5.e-002	5.9186
11629	7.0242	5.3636	0.	2.4497e-002
11630	6.9318	5.4545	0.	2.6554e-002
11631	7.0242	5.4545	5.e-002	6.1037
11632	7.0242	5.1818	0.	2.1286e-002
11633	6.9318	5.2727	0.	2.5408e-002
11634	7.0242	5.2727	5.e-002	6.1223
11635	7.0242	5.	0.	1.6728e-002
11636	6.9318	5.0909	0.	1.8824e-002
11637	7.0242	5.0909	5.e-002	6.123
11638	7.0242	4.8182	0.	1.3534e-002
11639	6.9318	4.9091	0.	1.53e-002
11640	7.0242	4.9091	5.e-002	6.1161
11641	7.0242	4.6364	0.	1.0541e-002
11642	6.9318	4.7273	0.	1.1886e-002
11643	7.0242	4.7273	5.e-002	6.103
11644	7.0242	4.4545	0.	7.8273e-003
11645	6.9318	4.5455	0.	8.9385e-003
11646	7.0242	4.5455	5.e-002	6.0847
11647	7.0242	4.2727	0.	5.3093e-003
11648	6.9318	4.3636	0.	6.2228e-003
11649	7.0242	4.3636	5.e-002	6.0624
11650	7.0242	4.0909	0.	3.0098e-003
11651	6.9318	4.1818	0.	3.7574e-003
11652	7.0242	4.1818	5.e-002	6.0378
11653	7.0242	3.9091	0.	9.5647e-004
11654	6.9318	4.	0.	1.5455e-003
11655	7.0242	4.	5.e-002	6.0124
11656	7.0242	3.7273	0.	-8.0651e-004
11657	6.9318	3.8182	0.	-3.814e-004
11658	7.0242	3.8182	5.e-002	5.9878
11659	7.0242	3.5455	0.	-2.2335e-003
11660	6.9318	3.6364	0.	-1.9838e-003
11661	7.0242	3.6364	5.e-002	5.9656
11662	7.0242	3.3636	0.	-3.2852e-003
11663	6.9318	3.4545	0.	-3.2235e-003
11664	7.0242	3.4545	5.e-002	5.9476
11665	7.0242	3.1818	0.	-3.9303e-003
11666	6.9318	3.2727	0.	-4.0705e-003
11667	7.0242	3.2727	5.e-002	5.9348
11668	7.0242	3.	0.	-4.1478e-003
11669	6.9318	3.0909	0.	-4.5006e-003
11670	7.0242	3.0909	5.e-002	5.9282
11671	7.0242	2.8182	0.	-3.9303e-003
11672	6.9318	2.9091	0.	-4.5005e-003
11673	7.0242	2.9091	5.e-002	5.9282
11674	7.0242	2.6364	0.	-3.2851e-003
11675	6.9318	2.7273	0.	-4.0704e-003
11676	7.0242	2.7273	5.e-002	5.9349
11677	7.0242	2.4545	0.	-2.2334e-003
11678	6.9318	2.5455	0.	-3.2234e-003
11679	7.0242	2.5455	5.e-002	5.9477
11680	7.0242	2.2727	0.	-8.0624e-004
11681	6.9318	2.3636	0.	-1.9837e-003
11682	7.0242	2.3636	5.e-002	5.9658
11683	7.0242	2.0909	0.	9.5689e-004
11684	6.9318	2.1818	0.	-3.8093e-004
11685	7.0242	2.1818	5.e-002	5.9878
11686	7.0242	1.9091	0.	3.01e-003
11687	6.9318	2.	0.	1.5458e-003
11688	7.0242	2.	5.e-002	6.0125
11689	7.0242	1.7273	0.	5.3098e-003
11690	6.9318	1.8182	0.	3.7578e-003
11691	7.0242	1.8182	5.e-002	6.038
11692	7.0242	1.5455	0.	7.8279e-003
11693	6.9318	1.6364	0.	6.2234e-003
11694	7.0242	1.6364	5.e-002	6.0626
11695	7.0242	1.3636	0.	1.0541e-002
11696	6.9318	1.4545	0.	8.9389e-003
11697	7.0242	1.4545	5.e-002	6.0848
11698	7.0242	1.1818	0.	1.3535e-002
11699	6.9318	1.2727	0.	1.1887e-002
11700	7.0242	1.2727	5.e-002	6.1032
11701	7.0242	1.	0.	1.6729e-002
11702	6.9318	1.0909	0.	1.5301e-002
11703	7.0242	1.0909	5.e-002	6.1164
11704	7.0242	0.81818	0.	2.1287e-002
11705	6.9318	0.90909	0.	1.8825e-002
11706	7.0242	0.90909	5.e-002	6.1232
11707	7.0242	0.63636	0.	2.4497e-002
11708	6.9318	0.72727	0.	2.5409e-002
11709	7.0242	0.72727	5.e-002	6.1226
11710	7.0242	0.45455	0.	4.7749e-002
11711	6.9318	0.54545	0.	2.6554e-002
11712	7.0242	0.54545	5.e-002	6.1039
11713	7.0242	0.27273	0.	6.3759e-002
11714	6.9318	0.36364	0.	7.804e-002
11715	7.0242	0.36364	5.e-002	5.9188
11716	6.9318	0.18182	0.	9.2683e-002
11717	7.0242	0.18182	5.e-002	3.33
11718	7.0242	9.0909e-002	0.	0.10999
11719	6.8394	5.7273	0.	7.1731e-002
11720	6.747	5.8182	0.	9.9151e-002
11721	6.8394	5.8182	5.e-002	3.5504
11722	6.8394	5.9091	0.	0.11172
11723	6.8394	5.5455	0.	5.3561e-002
11724	6.747	5.6364	0.	8.8141e-002
11725	6.8394	5.6364	5.e-002	5.9672
11726	6.8394	5.3636	0.	2.6382e-002
11727	6.747	5.4545	0.	2.8924e-002
11728	6.8394	5.4545	5.e-002	6.1433
11729	6.8394	5.1818	0.	2.2444e-002
11730	6.747	5.2727	0.	2.73e-002
11731	6.8394	5.2727	5.e-002	6.1638
11732	6.8394	5.	0.	1.711e-002
11733	6.747	5.0909	0.	1.963e-002
11734	6.8394	5.0909	5.e-002	6.1678
11735	6.8394	4.8182	0.	1.3466e-002
11736	6.747	4.9091	0.	1.5577e-002
11737	6.8394	4.9091	5.e-002	6.1649
11738	6.8394	4.6364	0.	1.015e-002
11739	6.747	4.7273	0.	1.1746e-002
11740	6.8394	4.7273	5.e-002	6.1562
11741	6.8394	4.4545	0.	7.2291e-003
11742	6.747	4.5455	0.	8.5252e-003
11743	6.8394	4.5455	5.e-002	6.1428
11744	6.8394	4.2727	0.	4.5838e-003
11745	6.747	4.3636	0.	5.6252e-003
11746	6.8394	4.3636	5.e-002	6.1259
11747	6.8394	4.0909	0.	2.2169e-003
11748	6.747	4.1818	0.	3.0454e-003
11749	6.8394	4.1818	5.e-002	6.1066
11750	6.8394	3.9091	0.	1.3816e-004
11751	6.747	4.	0.	7.6937e-004
11752	6.8394	4.	5.e-002	6.0863
11753	6.8394	3.7273	0.	-1.6241e-003
11754	6.747	3.8182	0.	-1.1867e-003
11755	6.8394	3.8182	5.e-002	6.0665
11756	6.8394	3.5455	0.	-3.0367e-003
11757	6.747	3.6364	0.	-2.7962e-003
11758	6.8394	3.6364	5.e-002	6.0486
11759	6.8394	3.3636	0.	-4.0704e-003
11760	6.747	3.4545	0.	-4.0318e-003
11761	6.8394	3.4545	5.e-002	6.034
11762	6.8394	3.1818	0.	-4.7016e-003
11763	6.747	3.2727	0.	-4.8714e-003
11764	6.8394	3.2727	5.e-002	6.0235
11765	6.8394	3.	0.	-4.9139e-003
11766	6.747	3.0909	0.	-5.2961e-003
11767	6.8394	3.0909	5.e-002	6.0182
11768	6.8394	2.8182	0.	-4.7014e-003
11769	6.747	2.9091	0.	-5.296e-003
11770	6.8394	2.9091	5.e-002	6.0182
11771	6.8394	2.6364	0.	-4.0702e-003
11772	6.747	2.7273	0.	-4.8712e-003
11773	6.8394	2.7273	5.e-002	6.0236
11774	6.8394	2.4545	0.	-3.0365e-003
11775	6.747	2.5455	0.	-4.0315e-003
11776	6.8394	2.5455	5.e-002	6.034
11777	6.8394	2.2727	0.	-1.6237e-003
11778	6.747	2.3636	0.	-2.7961e-003
11779	6.8394	2.3636	5.e-002	6.0487
11780	6.8394	2.0909	0.	1.3849e-004
11781	6.747	2.1818	0.	-1.1862e-003
11782	6.8394	2.1818	5.e-002	6.0666
11783	6.8394	1.9091	0.	2.2174e-003
11784	6.747	2.	0.	7.6958e-004
11785	6.8394	2.	5.e-002	6.0864
11786	6.8394	1.7273	0.	4.5844e-003
11787	6.747	1.8182	0.	3.0461e-003
11788	6.8394	1.8182	5.e-002	6.1067
11789	6.8394	1.5455	0.	7.2297e-003
11790	6.747	1.6364	0.	5.6256e-003
11791	6.8394	1.6364	5.e-002	6.1261
11792	6.8394	1.3636	0.	1.015e-002
11793	6.747	1.4545	0.	8.5259e-003
11794	6.8394	1.4545	5.e-002	6.1431
11795	6.8394	1.1818	0.	1.3467e-002
11796	6.747	1.2727	0.	1.1747e-002
11797	6.8394	1.2727	5.e-002	6.1564
11798	6.8394	1.	0.	1.7111e-002
11799	6.747	1.0909	0.	1.5577e-002
11800	6.8394	1.0909	5.e-002	6.1651
11801	6.8394	0.81818	0.	2.2445e-002
11802	6.747	0.90909	0.	1.9632e-002
11803	6.8394	0.90909	5.e-002	6.168
11804	6.8394	0.63636	0.	2.6383e-002
11805	6.747	0.72727	0.	2.7301e-002
11806	6.8394	0.72727	5.e-002	6.1641
11807	6.8394	0.45455	0.	5.3562e-002
11808	6.747	0.54545	0.	2.8924e-002
11809	6.8394	0.54545	5.e-002	6.1436
11810	6.8394	0.27273	0.	7.1732e-002
11811	6.747	0.36364	0.	8.8143e-002
11812	6.8394	0.36364	5.e-002	5.9675
11813	6.747	0.18182	0.	9.9153e-002
11814	6.8394	0.18182	5.e-002	3.5508
11815	6.8394	9.0909e-002	0.	0.11172
11816	6.6545	5.7273	0.	8.0307e-002
11817	6.5621	5.8182	0.	0.10693
11818	6.6545	5.8182	5.e-002	3.8052
11819	6.6545	5.9091	0.	0.11539
11820	6.6545	5.5455	0.	5.98e-002
11821	6.5621	5.6364	0.	9.8828e-002
11822	6.6545	5.6364	5.e-002	6.0297
11823	6.6545	5.3636	0.	2.8596e-002
11824	6.5621	5.4545	0.	3.1637e-002
11825	6.6545	5.4545	5.e-002	6.1948
11826	6.6545	5.1818	0.	2.3908e-002
11827	6.5621	5.2727	0.	2.9515e-002
11828	6.6545	5.2727	5.e-002	6.2164
11829	6.6545	5.	0.	1.7767e-002
11830	6.5621	5.0909	0.	2.0717e-002
11831	6.6545	5.0909	5.e-002	6.2228
11832	6.6545	4.8182	0.	1.3643e-002
11833	6.5621	4.9091	0.	1.6101e-002
11834	6.6545	4.9091	5.e-002	6.2228
11835	6.6545	4.6364	0.	9.969e-003
11836	6.5621	4.7273	0.	1.182e-002
11837	6.6545	4.7273	5.e-002	6.2175
11838	6.6545	4.4545	0.	6.8034e-003
11839	6.5621	4.5455	0.	8.2882e-003
11840	6.6545	4.5455	5.e-002	6.2078
11841	6.6545	4.2727	0.	3.9904e-003
11842	6.5621	4.3636	0.	5.1646e-003
11843	6.6545	4.3636	5.e-002	6.1947
11844	6.6545	4.0909	0.	1.515e-003
11845	6.5621	4.1818	0.	2.431e-003
11846	6.6545	4.1818	5.e-002	6.1793
11847	6.6545	3.9091	0.	-6.2947e-004
11848	6.5621	4.	0.	5.1728e-005
11849	6.6545	4.	5.e-002	6.1628
11850	6.6545	3.7273	0.	-2.4271e-003
11851	6.5621	3.8182	0.	-1.9696e-003
11852	6.6545	3.8182	5.e-002	6.1465
11853	6.6545	3.5455	0.	-3.8559e-003
11854	6.5621	3.6364	0.	-3.6181e-003
11855	6.6545	3.6364	5.e-002	6.1318
11856	6.6545	3.3636	0.	-4.8952e-003
11857	6.5621	3.4545	0.	-4.8746e-003
11858	6.6545	3.4545	5.e-002	6.1195
11859	6.6545	3.1818	0.	-5.5272e-003
11860	6.5621	3.2727	0.	-5.7246e-003
11861	6.6545	3.2727	5.e-002	6.1108
11862	6.6545	3.	0.	-5.7391e-003
11863	6.5621	3.0909	0.	-6.1533e-003
11864	6.6545	3.0909	5.e-002	6.1063
11865	6.6545	2.8182	0.	-5.527e-003
11866	6.5621	2.9091	0.	-6.1532e-003
11867	6.6545	2.9091	5.e-002	6.1063
11868	6.6545	2.6364	0.	-4.8949e-003
11869	6.5621	2.7273	0.	-5.7244e-003
11870	6.6545	2.7273	5.e-002	6.1109
11871	6.6545	2.4545	0.	-3.8557e-003
11872	6.5621	2.5455	0.	-4.8743e-003
11873	6.6545	2.5455	5.e-002	6.1196
11874	6.6545	2.2727	0.	-2.4269e-003
11875	6.5621	2.3636	0.	-3.6178e-003
11876	6.6545	2.3636	5.e-002	6.1318
11877	6.6545	2.0909	0.	-6.2911e-004
11878	6.5621	2.1818	0.	-1.9692e-003
11879	6.6545	2.1818	5.e-002	6.1466
11880	6.6545	1.9091	0.	1.5154e-003
11881	6.5621	2.	0.	5.2027e-005
11882	6.6545	2.	5.e-002	6.1629
11883	6.6545	1.7273	0.	3.9909e-003
11884	6.5621	1.8182	0.	2.4314e-003
11885	6.6545	1.8182	5.e-002	6.1794
11886	6.6545	1.5455	0.	6.8041e-003
11887	6.5621	1.6364	0.	5.1651e-003
11888	6.6545	1.6364	5.e-002	6.1948
11889	6.6545	1.3636	0.	9.9698e-003
11890	6.5621	1.4545	0.	8.2889e-003
11891	6.6545	1.4545	5.e-002	6.208
11892	6.6545	1.1818	0.	1.3644e-002
11893	6.5621	1.2727	0.	1.182e-002
11894	6.6545	1.2727	5.e-002	6.2177
11895	6.6545	1.	0.	1.7768e-002
11896	6.5621	1.0909	0.	1.6102e-002
11897	6.6545	1.0909	5.e-002	6.223
11898	6.6545	0.81818	0.	2.3909e-002
11899	6.5621	0.90909	0.	2.0718e-002
11900	6.6545	0.90909	5.e-002	6.2231
11901	6.6545	0.63636	0.	2.8597e-002
11902	6.5621	0.72727	0.	2.9516e-002
11903	6.6545	0.72727	5.e-002	6.2167
11904	6.6545	0.45455	0.	5.9801e-002
11905	6.5621	0.54545	0.	3.1638e-002
11906	6.6545	0.54545	5.e-002	6.1951
11907	6.6545	0.27273	0.	8.0309e-002
11908	6.5621	0.36364	0.	9.883e-002
11909	6.6545	0.36364	5.e-002	6.03
11910	6.5621	0.18182	0.	0.10694
11911	6.6545	0.18182	5.e-002	3.8055
11912	6.6545	9.0909e-002	0.	0.11539
11913	6.4697	5.7273	0.	8.9581e-002
11914	6.3773	5.8182	0.	0.11606
11915	6.4697	5.8182	5.e-002	4.0933
11916	6.4697	5.9091	0.	0.12044
11917	6.4697	5.5455	0.	6.6517e-002
11918	6.3773	5.6364	0.	0.11021
11919	6.4697	5.6364	5.e-002	6.105
11920	6.4697	5.3636	0.	3.1137e-002
11921	6.3773	5.4545	0.	3.4704e-002
11922	6.4697	5.4545	5.e-002	6.2576
11923	6.4697	5.1818	0.	2.5663e-002
11924	6.3773	5.2727	0.	3.205e-002
11925	6.4697	5.2727	5.e-002	6.2797
11926	6.4697	5.	0.	1.8675e-002
11927	6.3773	5.0909	0.	2.2068e-002
11928	6.4697	5.0909	5.e-002	6.2878
11929	6.4697	4.8182	0.	1.4035e-002
11930	6.3773	4.9091	0.	1.6852e-002
11931	6.4697	4.9091	5.e-002	6.2898
11932	6.4697	4.6364	0.	9.9668e-003
11933	6.3773	4.7273	0.	1.2081e-002
11934	6.4697	4.7273	5.e-002	6.2869
11935	6.4697	4.4545	0.	6.5181e-003
11936	6.3773	4.5455	0.	8.2011e-003
11937	6.4697	4.5455	5.e-002	6.2798
11938	6.4697	4.2727	0.	3.499e-003
11939	6.3773	4.3636	0.	4.8158e-003
11940	6.4697	4.3636	5.e-002	6.2693
11941	6.4697	4.0909	0.	8.7763e-004
11942	6.3773	4.1818	0.	1.8907e-003
11943	6.4697	4.1818	5.e-002	6.2566
11944	6.4697	3.9091	0.	-1.3678e-003
11945	6.3773	4.	0.	-6.27e-004
11946	6.4697	4.	5.e-002	6.2428
11947	6.4697	3.7273	0.	-3.2329e-003
11948	6.3773	3.8182	0.	-2.746e-003
11949	6.4697	3.8182	5.e-002	6.229
11950	6.4697	3.5455	0.	-4.7045e-003
11951	6.3773	3.6364	0.	-4.4612e-003
11952	6.4697	3.6364	5.e-002	6.2164
11953	6.4697	3.3636	0.	-5.7688e-003
11954	6.3773	3.4545	0.	-5.7609e-003
11955	6.4697	3.4545	5.e-002	6.206
11956	6.4697	3.1818	0.	-6.4139e-003
11957	6.3773	3.2727	0.	-6.6364e-003
11958	6.4697	3.2727	5.e-002	6.1985
11959	6.4697	3.	0.	-6.6301e-003
11960	6.3773	3.0909	0.	-7.0771e-003
11961	6.4697	3.0909	5.e-002	6.1946
11962	6.4697	2.8182	0.	-6.4137e-003
11963	6.3773	2.9091	0.	-7.0771e-003
11964	6.4697	2.9091	5.e-002	6.1946
11965	6.4697	2.6364	0.	-5.7686e-003
11966	6.3773	2.7273	0.	-6.6362e-003
11967	6.4697	2.7273	5.e-002	6.1985
11968	6.4697	2.4545	0.	-4.7042e-003
11969	6.3773	2.5455	0.	-5.7608e-003
11970	6.4697	2.5455	5.e-002	6.206
11971	6.4697	2.2727	0.	-3.2326e-003
11972	6.3773	2.3636	0.	-4.4609e-003
11973	6.4697	2.3636	5.e-002	6.2165
11974	6.4697	2.0909	0.	-1.3675e-003
11975	6.3773	2.1818	0.	-2.7457e-003
11976	6.4697	2.1818	5.e-002	6.2292
11977	6.4697	1.9091	0.	8.7798e-004
11978	6.3773	2.	0.	-6.2669e-004
11979	6.4697	2.	5.e-002	6.243
11980	6.4697	1.7273	0.	3.4994e-003
11981	6.3773	1.8182	0.	1.8912e-003
11982	6.4697	1.8182	5.e-002	6.2568
11983	6.4697	1.5455	0.	6.5187e-003
11984	6.3773	1.6364	0.	4.8163e-003
11985	6.4697	1.6364	5.e-002	6.2695
11986	6.4697	1.3636	0.	9.9675e-003
11987	6.3773	1.4545	0.	8.2018e-003
11988	6.4697	1.4545	5.e-002	6.2799
11989	6.4697	1.1818	0.	1.4036e-002
11990	6.3773	1.2727	0.	1.2081e-002
11991	6.4697	1.2727	5.e-002	6.2871
11992	6.4697	1.	0.	1.8676e-002
11993	6.3773	1.0909	0.	1.6853e-002
11994	6.4697	1.0909	5.e-002	6.29
11995	6.4697	0.81818	0.	2.5664e-002
11996	6.3773	0.90909	0.	2.2069e-002
11997	6.4697	0.90909	5.e-002	6.288
11998	6.4697	0.63636	0.	3.1138e-002
11999	6.3773	0.72727	0.	3.2051e-002
12000	6.4697	0.72727	5.e-002	6.2799
12001	6.4697	0.45455	0.	6.6518e-002
12002	6.3773	0.54545	0.	3.4705e-002
12003	6.4697	0.54545	5.e-002	6.2579
12004	6.4697	0.27273	0.	8.9582e-002
12005	6.3773	0.36364	0.	0.11021
12006	6.4697	0.36364	5.e-002	6.1054
12007	6.3773	0.18182	0.	0.11606
12008	6.4697	0.18182	5.e-002	4.0935
12009	6.4697	9.0909e-002	0.	0.12044
12010	6.2848	5.7273	0.	9.9674e-002
12011	6.1924	5.8182	0.	0.12667
12012	6.2848	5.8182	5.e-002	4.4145
12013	6.2848	5.9091	0.	0.12661
12014	6.2848	5.5455	0.	7.377e-002
12015	6.1924	5.6364	0.	0.12239
12016	6.2848	5.6364	5.e-002	6.1929
12017	6.2848	5.3636	0.	3.4015e-002
12018	6.1924	5.4545	0.	3.8144e-002
12019	6.2848	5.4545	5.e-002	6.3311
12020	6.2848	5.1818	0.	2.7707e-002
12021	6.1924	5.2727	0.	3.4915e-002
12022	6.2848	5.2727	5.e-002	6.3532
12023	6.2848	5.	0.	1.9821e-002
12024	6.1924	5.0909	0.	2.368e-002
12025	6.2848	5.0909	5.e-002	6.3624
12026	6.2848	4.8182	0.	1.4625e-002
12027	6.1924	4.9091	0.	1.7819e-002
12028	6.2848	4.9091	5.e-002	6.3659
12029	6.2848	4.6364	0.	1.0123e-002
12030	6.1924	4.7273	0.	1.2515e-002
12031	6.2848	4.7273	5.e-002	6.3644
12032	6.2848	4.4545	0.	6.353e-003
12033	6.1924	4.5455	0.	8.2473e-003
12034	6.2848	4.5455	5.e-002	6.359
12035	6.2848	4.2727	0.	3.0906e-003
12036	6.1924	4.3636	0.	4.5624e-003
12037	6.2848	4.3636	5.e-002	6.3503
12038	6.2848	4.0909	0.	2.8782e-004
12039	6.1924	4.1818	0.	1.4098e-003
12040	6.2848	4.1818	5.e-002	6.3394
12041	6.2848	3.9091	0.	-2.091e-003
12042	6.1924	4.	0.	-1.2797e-003
12043	6.2848	4.	5.e-002	6.3273
12044	6.2848	3.7273	0.	-4.0519e-003
12045	6.1924	3.8182	0.	-3.5263e-003
12046	6.2848	3.8182	5.e-002	6.3152
12047	6.2848	3.5455	0.	-5.5896e-003
12048	6.1924	3.6364	0.	-5.3332e-003
12049	6.2848	3.6364	5.e-002	6.304
12050	6.2848	3.3636	0.	-6.697e-003
12051	6.1924	3.4545	0.	-6.696e-003
12052	6.2848	3.4545	5.e-002	6.2946
12053	6.2848	3.1818	0.	-7.366e-003
12054	6.1924	3.2727	0.	-7.6108e-003
12055	6.2848	3.2727	5.e-002	6.2879
12056	6.2848	3.	0.	-7.59e-003
12057	6.1924	3.0909	0.	-8.0703e-003
12058	6.2848	3.0909	5.e-002	6.2845
12059	6.2848	2.8182	0.	-7.3661e-003
12060	6.1924	2.9091	0.	-8.0704e-003
12061	6.2848	2.9091	5.e-002	6.2845
12062	6.2848	2.6364	0.	-6.6968e-003
12063	6.1924	2.7273	0.	-7.6107e-003
12064	6.2848	2.7273	5.e-002	6.2879
12065	6.2848	2.4545	0.	-5.5894e-003
12066	6.1924	2.5455	0.	-6.6959e-003
12067	6.2848	2.5455	5.e-002	6.2947
12068	6.2848	2.2727	0.	-4.0516e-003
12069	6.1924	2.3636	0.	-5.3331e-003
12070	6.2848	2.3636	5.e-002	6.3041
12071	6.2848	2.0909	0.	-2.0908e-003
12072	6.1924	2.1818	0.	-3.5259e-003
12073	6.2848	2.1818	5.e-002	6.3152
12074	6.2848	1.9091	0.	2.8827e-004
12075	6.1924	2.	0.	-1.2794e-003
12076	6.2848	2.	5.e-002	6.3275
12077	6.2848	1.7273	0.	3.0912e-003
12078	6.1924	1.8182	0.	1.4103e-003
12079	6.2848	1.8182	5.e-002	6.3396
12080	6.2848	1.5455	0.	6.3537e-003
12081	6.1924	1.6364	0.	4.5631e-003
12082	6.2848	1.6364	5.e-002	6.3505
12083	6.2848	1.3636	0.	1.0123e-002
12084	6.1924	1.4545	0.	8.2481e-003
12085	6.2848	1.4545	5.e-002	6.3592
12086	6.2848	1.1818	0.	1.4626e-002
12087	6.1924	1.2727	0.	1.2516e-002
12088	6.2848	1.2727	5.e-002	6.3647
12089	6.2848	1.	0.	1.9822e-002
12090	6.1924	1.0909	0.	1.782e-002
12091	6.2848	1.0909	5.e-002	6.3661
12092	6.2848	0.81818	0.	2.7708e-002
12093	6.1924	0.90909	0.	2.3681e-002
12094	6.2848	0.90909	5.e-002	6.3627
12095	6.2848	0.63636	0.	3.4016e-002
12096	6.1924	0.72727	0.	3.4916e-002
12097	6.2848	0.72727	5.e-002	6.3535
12098	6.2848	0.45455	0.	7.3771e-002
12099	6.1924	0.54545	0.	3.8144e-002
12100	6.2848	0.54545	5.e-002	6.3314
12101	6.2848	0.27273	0.	9.9675e-002
12102	6.1924	0.36364	0.	0.12239
12103	6.2848	0.36364	5.e-002	6.1932
12104	6.1924	0.18182	0.	0.12667
12105	6.2848	0.18182	5.e-002	4.4149
12106	6.2848	9.0909e-002	0.	0.12661
12107	6.1	5.7273	0.	0.11072
12108	6.0076	5.8182	0.	0.13898
12109	6.1	5.8182	5.e-002	4.7696
12110	6.1	5.9091	0.	0.13379
12111	6.1	5.5455	0.	8.1626e-002
12112	6.0076	5.6364	0.	0.13551
12113	6.1	5.6364	5.e-002	6.2929
12114	6.1	5.3636	0.	3.7245e-002
12115	6.0076	5.4545	0.	4.1985e-002
12116	6.1	5.4545	5.e-002	6.4153
12117	6.1	5.1818	0.	3.0046e-002
12118	6.0076	5.2727	0.	3.813e-002
12119	6.1	5.2727	5.e-002	6.437
12120	6.1	5.	0.	2.1202e-002
12121	6.0076	5.0909	0.	2.5559e-002
12122	6.1	5.0909	5.e-002	6.447
12123	6.1	4.8182	0.	1.5404e-002
12124	6.0076	4.9091	0.	1.9002e-002
12125	6.1	4.9091	5.e-002	6.4512
12126	6.1	4.6364	0.	1.0425e-002
12127	6.0076	4.7273	0.	1.3118e-002
12128	6.1	4.7273	5.e-002	6.4507
12129	6.1	4.4545	0.	6.2951e-003
12130	6.0076	4.5455	0.	8.4206e-003
12131	6.1	4.5455	5.e-002	6.4461
12132	6.1	4.2727	0.	2.7527e-003
12133	6.0076	4.3636	0.	4.3972e-003
12134	6.1	4.3636	5.e-002	6.4384
12135	6.1	4.0909	0.	-2.6541e-004
12136	6.0076	4.1818	0.	9.817e-004
12137	6.1	4.1818	5.e-002	6.4284
12138	6.1	3.9091	0.	-2.8084e-003
12139	6.0076	4.	0.	-1.9121e-003
12140	6.1	4.	5.e-002	6.4173
12141	6.1	3.7273	0.	-4.8914e-003
12142	6.0076	3.8182	0.	-4.314e-003
12143	6.1	3.8182	5.e-002	6.406
12144	6.1	3.5455	0.	-6.517e-003
12145	6.0076	3.6364	0.	-6.2364e-003
12146	6.1	3.6364	5.e-002	6.3955
12147	6.1	3.3636	0.	-7.6832e-003
12148	6.0076	3.4545	0.	-7.6804e-003
12149	6.1	3.4545	5.e-002	6.3869
12150	6.1	3.1818	0.	-8.3861e-003
12151	6.0076	3.2727	0.	-8.6469e-003
12152	6.1	3.2727	5.e-002	6.3806
12153	6.1	3.	0.	-8.6209e-003
12154	6.0076	3.0909	0.	-9.1316e-003
12155	6.1	3.0909	5.e-002	6.3774
12156	6.1	2.8182	0.	-8.386e-003
12157	6.0076	2.9091	0.	-9.1315e-003
12158	6.1	2.9091	5.e-002	6.3774
12159	6.1	2.6364	0.	-7.6831e-003
12160	6.0076	2.7273	0.	-8.6469e-003
12161	6.1	2.7273	5.e-002	6.3806
12162	6.1	2.4545	0.	-6.5169e-003
12163	6.0076	2.5455	0.	-7.6803e-003
12164	6.1	2.5455	5.e-002	6.3869
12165	6.1	2.2727	0.	-4.8912e-003
12166	6.0076	2.3636	0.	-6.2363e-003
12167	6.1	2.3636	5.e-002	6.3957
12168	6.1	2.0909	0.	-2.808e-003
12169	6.0076	2.1818	0.	-4.3137e-003
12170	6.1	2.1818	5.e-002	6.4061
12171	6.1	1.9091	0.	-2.6504e-004
12172	6.0076	2.	0.	-1.9116e-003
12173	6.1	2.	5.e-002	6.4174
12174	6.1	1.7273	0.	2.7532e-003
12175	6.0076	1.8182	0.	9.8212e-004
12176	6.1	1.8182	5.e-002	6.4286
12177	6.1	1.5455	0.	6.2958e-003
12178	6.0076	1.6364	0.	4.3978e-003
12179	6.1	1.6364	5.e-002	6.4386
12180	6.1	1.3636	0.	1.0426e-002
12181	6.0076	1.4545	0.	8.4212e-003
12182	6.1	1.4545	5.e-002	6.4463
12183	6.1	1.1818	0.	1.5405e-002
12184	6.0076	1.2727	0.	1.3119e-002
12185	6.1	1.2727	5.e-002	6.4509
12186	6.1	1.	0.	2.1203e-002
12187	6.0076	1.0909	0.	1.9003e-002
12188	6.1	1.0909	5.e-002	6.4514
12189	6.1	0.81818	0.	3.0048e-002
12190	6.0076	0.90909	0.	2.556e-002
12191	6.1	0.90909	5.e-002	6.4472
12192	6.1	0.63636	0.	3.7246e-002
12193	6.0076	0.72727	0.	3.8131e-002
12194	6.1	0.72727	5.e-002	6.4373
12195	6.1	0.45455	0.	8.1627e-002
12196	6.0076	0.54545	0.	4.1986e-002
12197	6.1	0.54545	5.e-002	6.4157
12198	6.1	0.27273	0.	0.11073
12199	6.0076	0.36364	0.	0.13551
12200	6.1	0.36364	5.e-002	6.2932
12201	6.0076	0.18182	0.	0.13898
12202	6.1	0.18182	5.e-002	4.7699
12203	6.1	9.0909e-002	0.	0.13379
12204	5.9152	5.7273	0.	0.12289
12205	5.8227	5.8182	0.	0.15325
12206	5.9152	5.8182	5.e-002	5.1594
12207	5.9152	5.9091	0.	0.14195
12208	5.9152	5.5455	0.	9.0162e-002
12209	5.8227	5.6364	0.	0.14967
12210	5.9152	5.6364	5.e-002	6.4053
12211	5.9152	5.3636	0.	4.0858e-002
12212	5.8227	5.4545	0.	4.626e-002
12213	5.9152	5.4545	5.e-002	6.5103
12214	5.9152	5.1818	0.	3.2699e-002
12215	5.8227	5.2727	0.	4.1715e-002
12216	5.9152	5.2727	5.e-002	6.5312
12217	5.9152	5.	0.	2.2826e-002
12218	5.8227	5.0909	0.	2.7712e-002
12219	5.9152	5.0909	5.e-002	6.5415
12220	5.9152	4.8182	0.	1.6375e-002
12221	5.8227	4.9091	0.	2.0402e-002
12222	5.9152	4.9091	5.e-002	6.5462
12223	5.9152	4.6364	0.	1.0874e-002
12224	5.8227	4.7273	0.	1.3886e-002
12225	5.9152	4.7273	5.e-002	6.5459
12226	5.9152	4.4545	0.	6.3433e-003
12227	5.8227	4.5455	0.	8.7147e-003
12228	5.9152	4.5455	5.e-002	6.5417
12229	5.9152	4.2727	0.	2.4838e-003
12230	5.8227	4.3636	0.	4.313e-003
12231	5.9152	4.3636	5.e-002	6.5342
12232	5.9152	4.0909	0.	-7.8322e-004
12233	5.8227	4.1818	0.	5.9904e-004
12234	5.9152	4.1818	5.e-002	6.5246
12235	5.9152	3.9091	0.	-3.5198e-003
12236	5.8227	4.	0.	-2.5302e-003
12237	5.9152	4.	5.e-002	6.5137
12238	5.9152	3.7273	0.	-5.7502e-003
12239	5.8227	3.8182	0.	-5.1147e-003
12240	5.9152	3.8182	5.e-002	6.5027
12241	5.9152	3.5455	0.	-7.4837e-003
12242	5.8227	3.6364	0.	-7.1747e-003
12243	5.9152	3.6364	5.e-002	6.4924
12244	5.9152	3.3636	0.	-8.7234e-003
12245	5.8227	3.4545	0.	-8.7171e-003
12246	5.9152	3.4545	5.e-002	6.4839
12247	5.9152	3.1818	0.	-9.4691e-003
12248	5.8227	3.2727	0.	-9.7469e-003
12249	5.9152	3.2727	5.e-002	6.4778
12250	5.9152	3.	0.	-9.718e-003
12251	5.8227	3.0909	0.	-1.0263e-002
12252	5.9152	3.0909	5.e-002	6.4746
12253	5.9152	2.8182	0.	-9.469e-003
12254	5.8227	2.9091	0.	-1.0263e-002
12255	5.9152	2.9091	5.e-002	6.4746
12256	5.9152	2.6364	0.	-8.7233e-003
12257	5.8227	2.7273	0.	-9.7468e-003
12258	5.9152	2.7273	5.e-002	6.4778
12259	5.9152	2.4545	0.	-7.4835e-003
12260	5.8227	2.5455	0.	-8.717e-003
12261	5.9152	2.5455	5.e-002	6.484
12262	5.9152	2.2727	0.	-5.75e-003
12263	5.8227	2.3636	0.	-7.1745e-003
12264	5.9152	2.3636	5.e-002	6.4925
12265	5.9152	2.0909	0.	-3.5194e-003
12266	5.8227	2.1818	0.	-5.1145e-003
12267	5.9152	2.1818	5.e-002	6.5027
12268	5.9152	1.9091	0.	-7.827e-004
12269	5.8227	2.	0.	-2.5297e-003
12270	5.9152	2.	5.e-002	6.5138
12271	5.9152	1.7273	0.	2.4844e-003
12272	5.8227	1.8182	0.	5.9952e-004
12273	5.9152	1.8182	5.e-002	6.5247
12274	5.9152	1.5455	0.	6.344e-003
12275	5.8227	1.6364	0.	4.3137e-003
12276	5.9152	1.6364	5.e-002	6.5344
12277	5.9152	1.3636	0.	1.0875e-002
12278	5.8227	1.4545	0.	8.7153e-003
12279	5.9152	1.4545	5.e-002	6.5419
12280	5.9152	1.1818	0.	1.6376e-002
12281	5.8227	1.2727	0.	1.3887e-002
12282	5.9152	1.2727	5.e-002	6.5461
12283	5.9152	1.	0.	2.2827e-002
12284	5.8227	1.0909	0.	2.0403e-002
12285	5.9152	1.0909	5.e-002	6.5464
12286	5.9152	0.81818	0.	3.27e-002
12287	5.8227	0.90909	0.	2.7713e-002
12288	5.9152	0.90909	5.e-002	6.5418
12289	5.9152	0.63636	0.	4.0859e-002
12290	5.8227	0.72727	0.	4.1715e-002
12291	5.9152	0.72727	5.e-002	6.5315
12292	5.9152	0.45455	0.	9.0163e-002
12293	5.8227	0.54545	0.	4.6261e-002
12294	5.9152	0.54545	5.e-002	6.5105
12295	5.9152	0.27273	0.	0.12289
12296	5.8227	0.36364	0.	0.14967
12297	5.9152	0.36364	5.e-002	6.4057
12298	5.8227	0.18182	0.	0.15325
12299	5.9152	0.18182	5.e-002	5.1596
12300	5.9152	9.0909e-002	0.	0.14195
12301	5.7303	5.7273	0.	0.13635
12302	5.6379	5.8182	0.	0.16982
12303	5.7303	5.8182	5.e-002	5.5851
12304	5.7303	5.9091	0.	0.15109
12305	5.7303	5.5455	0.	9.9448e-002
12306	5.6379	5.6364	0.	0.16502
12307	5.7303	5.6364	5.e-002	6.5303
12308	5.7303	5.3636	0.	4.4873e-002
12309	5.6379	5.4545	0.	5.1004e-002
12310	5.7303	5.4545	5.e-002	6.6163
12311	5.7303	5.1818	0.	3.5674e-002
12312	5.6379	5.2727	0.	4.5692e-002
12313	5.7303	5.2727	5.e-002	6.6363
12314	5.7303	5.	0.	2.4692e-002
12315	5.6379	5.0909	0.	3.0147e-002
12316	5.7303	5.0909	5.e-002	6.6467
12317	5.7303	4.8182	0.	1.7532e-002
12318	5.6379	4.9091	0.	2.202e-002
12319	5.7303	4.9091	5.e-002	6.6513
12320	5.7303	4.6364	0.	1.146e-002
12321	5.6379	4.7273	0.	1.4815e-002
12322	5.7303	4.7273	5.e-002	6.6509
12323	5.7303	4.4545	0.	6.4854e-003
12324	5.6379	4.5455	0.	9.123e-003
12325	5.7303	4.5455	5.e-002	6.6465
12326	5.7303	4.2727	0.	2.2709e-003
12327	5.6379	4.3636	0.	4.3018e-003
12328	5.7303	4.3636	5.e-002	6.6387
12329	5.7303	4.0909	0.	-1.2782e-003
12330	5.6379	4.1818	0.	2.5329e-004
12331	5.7303	4.1818	5.e-002	6.6287
12332	5.7303	3.9091	0.	-4.2373e-003
12333	5.6379	4.	0.	-3.1426e-003
12334	5.7303	4.	5.e-002	6.6176
12335	5.7303	3.7273	0.	-6.6391e-003
12336	5.6379	3.8182	0.	-5.936e-003
12337	5.7303	3.8182	5.e-002	6.6061
12338	5.7303	3.5455	0.	-8.4997e-003
12339	5.6379	3.6364	0.	-8.1548e-003
12340	5.7303	3.6364	5.e-002	6.5957
12341	5.7303	3.3636	0.	-9.827e-003
12342	5.6379	3.4545	0.	-9.8118e-003
12343	5.7303	3.4545	5.e-002	6.5869
12344	5.7303	3.1818	0.	-1.0624e-002
12345	5.6379	3.2727	0.	-1.0916e-002
12346	5.7303	3.2727	5.e-002	6.5807
12347	5.7303	3.	0.	-1.089e-002
12348	5.6379	3.0909	0.	-1.1468e-002
12349	5.7303	3.0909	5.e-002	6.5774
12350	5.7303	2.8182	0.	-1.0624e-002
12351	5.6379	2.9091	0.	-1.1468e-002
12352	5.7303	2.9091	5.e-002	6.5775
12353	5.7303	2.6364	0.	-9.8267e-003
12354	5.6379	2.7273	0.	-1.0916e-002
12355	5.7303	2.7273	5.e-002	6.5807
12356	5.7303	2.4545	0.	-8.4996e-003
12357	5.6379	2.5455	0.	-9.8117e-003
12358	5.7303	2.5455	5.e-002	6.587
12359	5.7303	2.2727	0.	-6.6389e-003
12360	5.6379	2.3636	0.	-8.1546e-003
12361	5.7303	2.3636	5.e-002	6.5957
12362	5.7303	2.0909	0.	-4.2369e-003
12363	5.6379	2.1818	0.	-5.9357e-003
12364	5.7303	2.1818	5.e-002	6.6062
12365	5.7303	1.9091	0.	-1.2778e-003
12366	5.6379	2.	0.	-3.1421e-003
12367	5.7303	2.	5.e-002	6.6176
12368	5.7303	1.7273	0.	2.2715e-003
12369	5.6379	1.8182	0.	2.538e-004
12370	5.7303	1.8182	5.e-002	6.6289
12371	5.7303	1.5455	0.	6.4862e-003
12372	5.6379	1.6364	0.	4.3026e-003
12373	5.7303	1.6364	5.e-002	6.6389
12374	5.7303	1.3636	0.	1.1461e-002
12375	5.6379	1.4545	0.	9.1237e-003
12376	5.7303	1.4545	5.e-002	6.6467
12377	5.7303	1.1818	0.	1.7533e-002
12378	5.6379	1.2727	0.	1.4816e-002
12379	5.7303	1.2727	5.e-002	6.6511
12380	5.7303	1.	0.	2.4693e-002
12381	5.6379	1.0909	0.	2.2021e-002
12382	5.7303	1.0909	5.e-002	6.6515
12383	5.7303	0.81818	0.	3.5675e-002
12384	5.6379	0.90909	0.	3.0148e-002
12385	5.7303	0.90909	5.e-002	6.6469
12386	5.7303	0.63636	0.	4.4874e-002
12387	5.6379	0.72727	0.	4.5693e-002
12388	5.7303	0.72727	5.e-002	6.6365
12389	5.7303	0.45455	0.	9.9449e-002
12390	5.6379	0.54545	0.	5.1004e-002
12391	5.7303	0.54545	5.e-002	6.6165
12392	5.7303	0.27273	0.	0.13635
12393	5.6379	0.36364	0.	0.16502
12394	5.7303	0.36364	5.e-002	6.5306
12395	5.6379	0.18182	0.	0.16982
12396	5.7303	0.18182	5.e-002	5.5854
12397	5.7303	9.0909e-002	0.	0.15109
12398	5.5455	5.7273	0.	0.15128
12399	5.453	5.8182	0.	0.1891
12400	5.5455	5.8182	5.e-002	6.0483
12401	5.5455	5.9091	0.	0.16126
12402	5.5455	5.5455	0.	0.10957
12403	5.453	5.6364	0.	0.1817
12404	5.5455	5.6364	5.e-002	6.6683
12405	5.5455	5.3636	0.	4.9324e-002
12406	5.453	5.4545	0.	5.6261e-002
12407	5.5455	5.4545	5.e-002	6.7337
12408	5.5455	5.1818	0.	3.8991e-002
12409	5.453	5.2727	0.	5.0092e-002
12410	5.5455	5.2727	5.e-002	6.7527
12411	5.5455	5.	0.	2.6811e-002
12412	5.453	5.0909	0.	3.2881e-002
12413	5.5455	5.0909	5.e-002	6.763
12414	5.5455	4.8182	0.	1.8879e-002
12415	5.453	4.9091	0.	2.3864e-002
12416	5.5455	4.9091	5.e-002	6.7674
12417	5.5455	4.6364	0.	1.2183e-002
12418	5.453	4.7273	0.	1.5909e-002
12419	5.5455	4.7273	5.e-002	6.7666
12420	5.5455	4.4545	0.	6.719e-003
12421	5.453	4.5455	0.	9.6454e-003
12422	5.5455	4.5455	5.e-002	6.7614
12423	5.5455	4.2727	0.	2.1103e-003
12424	5.453	4.3636	0.	4.3616e-003
12425	5.5455	4.3636	5.e-002	6.7528
12426	5.5455	4.0909	0.	-1.7548e-003
12427	5.453	4.1818	0.	-5.8548e-005
12428	5.5455	4.1818	5.e-002	6.742
12429	5.5455	3.9091	0.	-4.9648e-003
12430	5.453	4.	0.	-3.7522e-003
12431	5.5455	4.	5.e-002	6.73
12432	5.5455	3.7273	0.	-7.5615e-003
12433	5.453	3.8182	0.	-6.7803e-003
12434	5.5455	3.8182	5.e-002	6.7178
12435	5.5455	3.5455	0.	-9.5674e-003
12436	5.453	3.6364	0.	-9.1786e-003
12437	5.5455	3.6364	5.e-002	6.7066
12438	5.5455	3.3636	0.	-1.0995e-002
12439	5.453	3.4545	0.	-1.0965e-002
12440	5.5455	3.4545	5.e-002	6.6973
12441	5.5455	3.1818	0.	-1.1851e-002
12442	5.453	3.2727	0.	-1.2154e-002
12443	5.5455	3.2727	5.e-002	6.6907
12444	5.5455	3.	0.	-1.2136e-002
12445	5.453	3.0909	0.	-1.2747e-002
12446	5.5455	3.0909	5.e-002	6.6872
12447	5.5455	2.8182	0.	-1.1851e-002
12448	5.453	2.9091	0.	-1.2747e-002
12449	5.5455	2.9091	5.e-002	6.6872
12450	5.5455	2.6364	0.	-1.0995e-002
12451	5.453	2.7273	0.	-1.2153e-002
12452	5.5455	2.7273	5.e-002	6.6907
12453	5.5455	2.4545	0.	-9.5672e-003
12454	5.453	2.5455	0.	-1.0965e-002
12455	5.5455	2.5455	5.e-002	6.6973
12456	5.5455	2.2727	0.	-7.5611e-003
12457	5.453	2.3636	0.	-9.1782e-003
12458	5.5455	2.3636	5.e-002	6.7067
12459	5.5455	2.0909	0.	-4.9643e-003
12460	5.453	2.1818	0.	-6.7799e-003
12461	5.5455	2.1818	5.e-002	6.7179
12462	5.5455	1.9091	0.	-1.7543e-003
12463	5.453	2.	0.	-3.7517e-003
12464	5.5455	2.	5.e-002	6.7301
12465	5.5455	1.7273	0.	2.1109e-003
12466	5.453	1.8182	0.	-5.7906e-005
12467	5.5455	1.8182	5.e-002	6.7421
12468	5.5455	1.5455	0.	6.7196e-003
12469	5.453	1.6364	0.	4.3624e-003
12470	5.5455	1.6364	5.e-002	6.753
12471	5.5455	1.3636	0.	1.2183e-002
12472	5.453	1.4545	0.	9.6461e-003
12473	5.5455	1.4545	5.e-002	6.7615
12474	5.5455	1.1818	0.	1.888e-002
12475	5.453	1.2727	0.	1.5909e-002
12476	5.5455	1.2727	5.e-002	6.7667
12477	5.5455	1.	0.	2.6812e-002
12478	5.453	1.0909	0.	2.3865e-002
12479	5.5455	1.0909	5.e-002	6.7676
12480	5.5455	0.81818	0.	3.8992e-002
12481	5.453	0.90909	0.	3.2882e-002
12482	5.5455	0.90909	5.e-002	6.7633
12483	5.5455	0.63636	0.	4.9325e-002
12484	5.453	0.72727	0.	5.0093e-002
12485	5.5455	0.72727	5.e-002	6.7529
12486	5.5455	0.45455	0.	0.10957
12487	5.453	0.54545	0.	5.6261e-002
12488	5.5455	0.54545	5.e-002	6.7341
12489	5.5455	0.27273	0.	0.15128
12490	5.453	0.36364	0.	0.1817
12491	5.5455	0.36364	5.e-002	6.6686
12492	5.453	0.18182	0.	0.1891
12493	5.5455	0.18182	5.e-002	6.0486
12494	5.5455	9.0909e-002	0.	0.16126
12495	5.3606	5.7273	0.	0.16791
12496	5.2682	5.8182	0.	0.2116
12497	5.3606	5.8182	5.e-002	6.551
12498	5.3606	5.9091	0.	0.17251
12499	5.3606	5.5455	0.	0.12061
12500	5.2682	5.6364	0.	0.19987
12501	5.3606	5.6364	5.e-002	6.8199
12502	5.3606	5.3636	0.	5.425e-002
12503	5.2682	5.4545	0.	6.2084e-002
12504	5.3606	5.4545	5.e-002	6.8635
12505	5.3606	5.1818	0.	4.2675e-002
12506	5.2682	5.2727	0.	5.4953e-002
12507	5.3606	5.2727	5.e-002	6.8811
12508	5.3606	5.	0.	2.9195e-002
12509	5.2682	5.0909	0.	3.5934e-002
12510	5.3606	5.0909	5.e-002	6.8913
12511	5.3606	4.8182	0.	2.0423e-002
12512	5.2682	4.9091	0.	2.5947e-002
12513	5.3606	4.9091	5.e-002	6.8952
12514	5.3606	4.6364	0.	1.3044e-002
12515	5.2682	4.7273	0.	1.7174e-002
12516	5.3606	4.7273	5.e-002	6.8936
12517	5.3606	4.4545	0.	7.0436e-003
12518	5.2682	4.5455	0.	1.0285e-002
12519	5.3606	4.5455	5.e-002	6.8874
12520	5.3606	4.2727	0.	2.0002e-003
12521	5.2682	4.3636	0.	4.4932e-003
12522	5.3606	4.3636	5.e-002	6.8776
12523	5.3606	4.0909	0.	-2.2148e-003
12524	5.2682	4.1818	0.	-3.3627e-004
12525	5.3606	4.1818	5.e-002	6.8655
12526	5.3606	3.9091	0.	-5.7039e-003
12527	5.2682	4.	0.	-4.359e-003
12528	5.3606	4.	5.e-002	6.8522
12529	5.3606	3.7273	0.	-8.5182e-003
12530	5.2682	3.8182	0.	-7.647e-003
12531	5.3606	3.8182	5.e-002	6.8388
12532	5.3606	3.5455	0.	-1.0687e-002
12533	5.2682	3.6364	0.	-1.0244e-002
12534	5.3606	3.6364	5.e-002	6.8265
12535	5.3606	3.3636	0.	-1.2228e-002
12536	5.2682	3.4545	0.	-1.2176e-002
12537	5.3606	3.4545	5.e-002	6.8164
12538	5.3606	3.1818	0.	-1.315e-002
12539	5.2682	3.2727	0.	-1.3458e-002
12540	5.3606	3.2727	5.e-002	6.8091
12541	5.3606	3.	0.	-1.3457e-002
12542	5.2682	3.0909	0.	-1.4098e-002
12543	5.3606	3.0909	5.e-002	6.8054
12544	5.3606	2.8182	0.	-1.315e-002
12545	5.2682	2.9091	0.	-1.4097e-002
12546	5.3606	2.9091	5.e-002	6.8054
12547	5.3606	2.6364	0.	-1.2227e-002
12548	5.2682	2.7273	0.	-1.3458e-002
12549	5.3606	2.7273	5.e-002	6.8092
12550	5.3606	2.4545	0.	-1.0687e-002
12551	5.2682	2.5455	0.	-1.2175e-002
12552	5.3606	2.5455	5.e-002	6.8165
12553	5.3606	2.2727	0.	-8.5178e-003
12554	5.2682	2.3636	0.	-1.0244e-002
12555	5.3606	2.3636	5.e-002	6.8267
12556	5.3606	2.0909	0.	-5.7036e-003
12557	5.2682	2.1818	0.	-7.6468e-003
12558	5.3606	2.1818	5.e-002	6.8389
12559	5.3606	1.9091	0.	-2.2142e-003
12560	5.2682	2.	0.	-4.3586e-003
12561	5.3606	2.	5.e-002	6.8523
12562	5.3606	1.7273	0.	2.001e-003
12563	5.2682	1.8182	0.	-3.3562e-004
12564	5.3606	1.8182	5.e-002	6.8657
12565	5.3606	1.5455	0.	7.0444e-003
12566	5.2682	1.6364	0.	4.4939e-003
12567	5.3606	1.6364	5.e-002	6.8778
12568	5.3606	1.3636	0.	1.3045e-002
12569	5.2682	1.4545	0.	1.0286e-002
12570	5.3606	1.4545	5.e-002	6.8876
12571	5.3606	1.1818	0.	2.0424e-002
12572	5.2682	1.2727	0.	1.7175e-002
12573	5.3606	1.2727	5.e-002	6.8938
12574	5.3606	1.	0.	2.9196e-002
12575	5.2682	1.0909	0.	2.5948e-002
12576	5.3606	1.0909	5.e-002	6.8954
12577	5.3606	0.81818	0.	4.2676e-002
12578	5.2682	0.90909	0.	3.5936e-002
12579	5.3606	0.90909	5.e-002	6.8915
12580	5.3606	0.63636	0.	5.425e-002
12581	5.2682	0.72727	0.	5.4954e-002
12582	5.3606	0.72727	5.e-002	6.8814
12583	5.3606	0.45455	0.	0.12062
12584	5.2682	0.54545	0.	6.2084e-002
12585	5.3606	0.54545	5.e-002	6.8637
12586	5.3606	0.27273	0.	0.16792
12587	5.2682	0.36364	0.	0.19987
12588	5.3606	0.36364	5.e-002	6.8202
12589	5.2682	0.18182	0.	0.2116
12590	5.3606	0.18182	5.e-002	6.5513
12591	5.3606	9.0909e-002	0.	0.17251
12592	5.1758	5.7273	0.	0.18652
12593	5.0833	5.8182	0.	0.23793
12594	5.1758	5.8182	5.e-002	7.095
12595	5.1758	5.9091	0.	0.18493
12596	5.1758	5.5455	0.	0.13269
12597	5.0833	5.6364	0.	0.2197
12598	5.1758	5.6364	5.e-002	6.9858
12599	5.1758	5.3636	0.	5.9698e-002
12600	5.0833	5.4545	0.	6.8539e-002
12601	5.1758	5.4545	5.e-002	7.0061
12602	5.1758	5.1818	0.	4.6759e-002
12603	5.0833	5.2727	0.	6.032e-002
12604	5.1758	5.2727	5.e-002	7.0225
12605	5.1758	5.	0.	3.1866e-002
12606	5.0833	5.0909	0.	3.9336e-002
12607	5.1758	5.0909	5.e-002	7.0325
12608	5.1758	4.8182	0.	2.2176e-002
12609	5.0833	4.9091	0.	2.829e-002
12610	5.1758	4.9091	5.e-002	7.0359
12611	5.1758	4.6364	0.	1.4052e-002
12612	5.0833	4.7273	0.	1.8623e-002
12613	5.1758	4.7273	5.e-002	7.0333
12614	5.1758	4.4545	0.	7.4637e-003
12615	5.0833	4.5455	0.	1.105e-002
12616	5.1758	4.5455	5.e-002	7.0258
12617	5.1758	4.2727	0.	1.9434e-003
12618	5.0833	4.3636	0.	4.7023e-003
12619	5.1758	4.3636	5.e-002	7.0145
12620	5.1758	4.0909	0.	-2.6563e-003
12621	5.0833	4.1818	0.	-5.7547e-004
12622	5.1758	4.1818	5.e-002	7.0007
12623	5.1758	3.9091	0.	-6.4527e-003
12624	5.0833	4.	0.	-4.9588e-003
12625	5.1758	4.	5.e-002	6.9856
12626	5.1758	3.7273	0.	-9.5067e-003
12627	5.0833	3.8182	0.	-8.5314e-003
12628	5.1758	3.8182	5.e-002	6.9707
12629	5.1758	3.5455	0.	-1.1855e-002
12630	5.0833	3.6364	0.	-1.1347e-002
12631	5.1758	3.6364	5.e-002	6.957
12632	5.1758	3.3636	0.	-1.352e-002
12633	5.0833	3.4545	0.	-1.3436e-002
12634	5.1758	3.4545	5.e-002	6.9457
12635	5.1758	3.1818	0.	-1.4516e-002
12636	5.0833	3.2727	0.	-1.482e-002
12637	5.1758	3.2727	5.e-002	6.9377
12638	5.1758	3.	0.	-1.4847e-002
12639	5.0833	3.0909	0.	-1.5511e-002
12640	5.1758	3.0909	5.e-002	6.9335
12641	5.1758	2.8182	0.	-1.4515e-002
12642	5.0833	2.9091	0.	-1.551e-002
12643	5.1758	2.9091	5.e-002	6.9335
12644	5.1758	2.6364	0.	-1.352e-002
12645	5.0833	2.7273	0.	-1.482e-002
12646	5.1758	2.7273	5.e-002	6.9377
12647	5.1758	2.4545	0.	-1.1855e-002
12648	5.0833	2.5455	0.	-1.3435e-002
12649	5.1758	2.5455	5.e-002	6.9457
12650	5.1758	2.2727	0.	-9.5065e-003
12651	5.0833	2.3636	0.	-1.1346e-002
12652	5.1758	2.3636	5.e-002	6.957
12653	5.1758	2.0909	0.	-6.4524e-003
12654	5.0833	2.1818	0.	-8.5311e-003
12655	5.1758	2.1818	5.e-002	6.9708
12656	5.1758	1.9091	0.	-2.6558e-003
12657	5.0833	2.	0.	-4.9583e-003
12658	5.1758	2.	5.e-002	6.9858
12659	5.1758	1.7273	0.	1.944e-003
12660	5.0833	1.8182	0.	-5.7492e-004
12661	5.1758	1.8182	5.e-002	7.0008
12662	5.1758	1.5455	0.	7.4644e-003
12663	5.0833	1.6364	0.	4.7029e-003
12664	5.1758	1.6364	5.e-002	7.0147
12665	5.1758	1.3636	0.	1.4052e-002
12666	5.0833	1.4545	0.	1.1051e-002
12667	5.1758	1.4545	5.e-002	7.026
12668	5.1758	1.1818	0.	2.2177e-002
12669	5.0833	1.2727	0.	1.8624e-002
12670	5.1758	1.2727	5.e-002	7.0335
12671	5.1758	1.	0.	3.1867e-002
12672	5.0833	1.0909	0.	2.829e-002
12673	5.1758	1.0909	5.e-002	7.0361
12674	5.1758	0.81818	0.	4.676e-002
12675	5.0833	0.90909	0.	3.9337e-002
12676	5.1758	0.90909	5.e-002	7.0328
12677	5.1758	0.63636	0.	5.9699e-002
12678	5.0833	0.72727	0.	6.0321e-002
12679	5.1758	0.72727	5.e-002	7.0228
12680	5.1758	0.45455	0.	0.1327
12681	5.0833	0.54545	0.	6.8539e-002
12682	5.1758	0.54545	5.e-002	7.0064
12683	5.1758	0.27273	0.	0.18652
12684	5.0833	0.36364	0.	0.2197
12685	5.1758	0.36364	5.e-002	6.9861
12686	5.0833	0.18182	0.	0.23794
12687	5.1758	0.18182	5.e-002	7.0954
12688	5.1758	9.0909e-002	0.	0.18493
12689	4.9909	5.7273	0.	0.20739
12690	4.8985	5.8182	0.	0.26887
12691	4.9909	5.8182	5.e-002	7.6827
12692	4.9909	5.9091	0.	0.19861
12693	4.9909	5.5455	0.	0.14593
12694	4.8985	5.6364	0.	0.2414
12695	4.9909	5.6364	5.e-002	7.1667
12696	4.9909	5.3636	0.	6.5727e-002
12697	4.8985	5.4545	0.	7.5699e-002
12698	4.9909	5.4545	5.e-002	7.1625
12699	4.9909	5.1818	0.	5.1283e-002
12700	4.8985	5.2727	0.	6.6246e-002
12701	4.9909	5.2727	5.e-002	7.1779
12702	4.9909	5.	0.	3.4849e-002
12703	4.8985	5.0909	0.	4.312e-002
12704	4.9909	5.0909	5.e-002	7.1878
12705	4.9909	4.8182	0.	2.4157e-002
12706	4.8985	4.9091	0.	3.0914e-002
12707	4.9909	4.9091	5.e-002	7.1906
12708	4.9909	4.6364	0.	1.5218e-002
12709	4.8985	4.7273	0.	2.0272e-002
12710	4.9909	4.7273	5.e-002	7.1869
12711	4.9909	4.4545	0.	7.9882e-003
12712	4.8985	4.5455	0.	1.1952e-002
12713	4.9909	4.5455	5.e-002	7.1779
12714	4.9909	4.2727	0.	1.9471e-003
12715	4.8985	4.3636	0.	4.9971e-003
12716	4.9909	4.3636	5.e-002	7.1648
12717	4.9909	4.0909	0.	-3.0725e-003
12718	4.8985	4.1818	0.	-7.688e-004
12719	4.9909	4.1818	5.e-002	7.149
12720	4.9909	3.9091	0.	-7.204e-003
12721	4.8985	4.	0.	-5.5437e-003
12722	4.9909	4.	5.e-002	7.1319
12723	4.9909	3.7273	0.	-1.0519e-002
12724	4.8985	3.8182	0.	-9.4246e-003
12725	4.9909	3.8182	5.e-002	7.115
12726	4.9909	3.5455	0.	-1.3062e-002
12727	4.8985	3.6364	0.	-1.2475e-002
12728	4.9909	3.6364	5.e-002	7.0996
12729	4.9909	3.3636	0.	-1.4862e-002
12730	4.8985	3.4545	0.	-1.4734e-002
12731	4.9909	3.4545	5.e-002	7.0869
12732	4.9909	3.1818	0.	-1.5937e-002
12733	4.8985	3.2727	0.	-1.6229e-002
12734	4.9909	3.2727	5.e-002	7.0779
12735	4.9909	3.	0.	-1.6294e-002
12736	4.8985	3.0909	0.	-1.6973e-002
12737	4.9909	3.0909	5.e-002	7.0732
12738	4.9909	2.8182	0.	-1.5937e-002
12739	4.8985	2.9091	0.	-1.6973e-002
12740	4.9909	2.9091	5.e-002	7.0732
12741	4.9909	2.6364	0.	-1.4862e-002
12742	4.8985	2.7273	0.	-1.6229e-002
12743	4.9909	2.7273	5.e-002	7.0779
12744	4.9909	2.4545	0.	-1.3062e-002
12745	4.8985	2.5455	0.	-1.4734e-002
12746	4.9909	2.5455	5.e-002	7.0869
12747	4.9909	2.2727	0.	-1.0519e-002
12748	4.8985	2.3636	0.	-1.2475e-002
12749	4.9909	2.3636	5.e-002	7.0997
12750	4.9909	2.0909	0.	-7.2036e-003
12751	4.8985	2.1818	0.	-9.4243e-003
12752	4.9909	2.1818	5.e-002	7.115
12753	4.9909	1.9091	0.	-3.072e-003
12754	4.8985	2.	0.	-5.5432e-003
12755	4.9909	2.	5.e-002	7.132
12756	4.9909	1.7273	0.	1.9476e-003
12757	4.8985	1.8182	0.	-7.682e-004
12758	4.9909	1.8182	5.e-002	7.1491
12759	4.9909	1.5455	0.	7.9889e-003
12760	4.8985	1.6364	0.	4.9976e-003
12761	4.9909	1.6364	5.e-002	7.165
12762	4.9909	1.3636	0.	1.5219e-002
12763	4.8985	1.4545	0.	1.1952e-002
12764	4.9909	1.4545	5.e-002	7.1781
12765	4.9909	1.1818	0.	2.4157e-002
12766	4.8985	1.2727	0.	2.0273e-002
12767	4.9909	1.2727	5.e-002	7.1871
12768	4.9909	1.	0.	3.4849e-002
12769	4.8985	1.0909	0.	3.0914e-002
12770	4.9909	1.0909	5.e-002	7.1908
12771	4.9909	0.81818	0.	5.1284e-002
12772	4.8985	0.90909	0.	4.3122e-002
12773	4.9909	0.90909	5.e-002	7.188
12774	4.9909	0.63636	0.	6.5728e-002
12775	4.8985	0.72727	0.	6.6247e-002
12776	4.9909	0.72727	5.e-002	7.1781
12777	4.9909	0.45455	0.	0.14593
12778	4.8985	0.54545	0.	7.57e-002
12779	4.9909	0.54545	5.e-002	7.1628
12780	4.9909	0.27273	0.	0.20739
12781	4.8985	0.36364	0.	0.2414
12782	4.9909	0.36364	5.e-002	7.167
12783	4.8985	0.18182	0.	0.26887
12784	4.9909	0.18182	5.e-002	7.6829
12785	4.9909	9.0909e-002	0.	0.19862
12786	4.8061	5.7273	0.	0.23089
12787	4.7136	5.8182	0.	0.30536
12788	4.8061	5.8182	5.e-002	8.316
12789	4.8061	5.9091	0.	0.2137
12790	4.8061	5.5455	0.	0.16045
12791	4.7136	5.6364	0.	0.26519
12792	4.8061	5.6364	5.e-002	7.3636
12793	4.8061	5.3636	0.	7.2401e-002
12794	4.7136	5.4545	0.	8.3657e-002
12795	4.8061	5.4545	5.e-002	7.3338
12796	4.8061	5.1818	0.	5.6291e-002
12797	4.7136	5.2727	0.	7.2797e-002
12798	4.8061	5.2727	5.e-002	7.3484
12799	4.8061	5.	0.	3.8173e-002
12800	4.7136	5.0909	0.	4.733e-002
12801	4.8061	5.0909	5.e-002	7.3585
12802	4.8061	4.8182	0.	2.6385e-002
12803	4.7136	4.9091	0.	3.385e-002
12804	4.8061	4.9091	5.e-002	7.3608
12805	4.8061	4.6364	0.	1.6557e-002
12806	4.7136	4.7273	0.	2.2142e-002
12807	4.8061	4.7273	5.e-002	7.356
12808	4.8061	4.4545	0.	8.6272e-003
12809	4.7136	4.5455	0.	1.3007e-002
12810	4.8061	4.5455	5.e-002	7.3454
12811	4.8061	4.2727	0.	2.0192e-003
12812	4.7136	4.3636	0.	5.3926e-003
12813	4.8061	4.3636	5.e-002	7.3302
12814	4.8061	4.0909	0.	-3.4556e-003
12815	4.7136	4.1818	0.	-9.0188e-004
12816	4.8061	4.1818	5.e-002	7.3121
12817	4.8061	3.9091	0.	-7.9488e-003
12818	4.7136	4.	0.	-6.0987e-003
12819	4.8061	4.	5.e-002	7.2927
12820	4.8061	3.7273	0.	-1.1544e-002
12821	4.7136	3.8182	0.	-1.031e-002
12822	4.8061	3.8182	5.e-002	7.2735
12823	4.8061	3.5455	0.	-1.4296e-002
12824	4.7136	3.6364	0.	-1.3611e-002
12825	4.8061	3.6364	5.e-002	7.2562
12826	4.8061	3.3636	0.	-1.624e-002
12827	4.7136	3.4545	0.	-1.605e-002
12828	4.8061	3.4545	5.e-002	7.2419
12829	4.8061	3.1818	0.	-1.7399e-002
12830	4.7136	3.2727	0.	-1.7661e-002
12831	4.8061	3.2727	5.e-002	7.2318
12832	4.8061	3.	0.	-1.7784e-002
12833	4.7136	3.0909	0.	-1.8462e-002
12834	4.8061	3.0909	5.e-002	7.2266
12835	4.8061	2.8182	0.	-1.7399e-002
12836	4.7136	2.9091	0.	-1.8462e-002
12837	4.8061	2.9091	5.e-002	7.2266
12838	4.8061	2.6364	0.	-1.624e-002
12839	4.7136	2.7273	0.	-1.7661e-002
12840	4.8061	2.7273	5.e-002	7.2318
12841	4.8061	2.4545	0.	-1.4296e-002
12842	4.7136	2.5455	0.	-1.605e-002
12843	4.8061	2.5455	5.e-002	7.242
12844	4.8061	2.2727	0.	-1.1544e-002
12845	4.7136	2.3636	0.	-1.3611e-002
12846	4.8061	2.3636	5.e-002	7.2563
12847	4.8061	2.0909	0.	-7.9484e-003
12848	4.7136	2.1818	0.	-1.031e-002
12849	4.8061	2.1818	5.e-002	7.2737
12850	4.8061	1.9091	0.	-3.455e-003
12851	4.7136	2.	0.	-6.0983e-003
12852	4.8061	2.	5.e-002	7.2928
12853	4.8061	1.7273	0.	2.0198e-003
12854	4.7136	1.8182	0.	-9.0132e-004
12855	4.8061	1.8182	5.e-002	7.3123
12856	4.8061	1.5455	0.	8.6278e-003
12857	4.7136	1.6364	0.	5.3932e-003
12858	4.8061	1.6364	5.e-002	7.3304
12859	4.8061	1.3636	0.	1.6558e-002
12860	4.7136	1.4545	0.	1.3008e-002
12861	4.8061	1.4545	5.e-002	7.3455
12862	4.8061	1.1818	0.	2.6385e-002
12863	4.7136	1.2727	0.	2.2143e-002
12864	4.8061	1.2727	5.e-002	7.3562
12865	4.8061	1.	0.	3.8174e-002
12866	4.7136	1.0909	0.	3.3851e-002
12867	4.8061	1.0909	5.e-002	7.361
12868	4.8061	0.81818	0.	5.6292e-002
12869	4.7136	0.90909	0.	4.7331e-002
12870	4.8061	0.90909	5.e-002	7.3587
12871	4.8061	0.63636	0.	7.2402e-002
12872	4.7136	0.72727	0.	7.2798e-002
12873	4.8061	0.72727	5.e-002	7.3486
12874	4.8061	0.45455	0.	0.16045
12875	4.7136	0.54545	0.	8.3657e-002
12876	4.8061	0.54545	5.e-002	7.3341
12877	4.8061	0.27273	0.	0.23089
12878	4.7136	0.36364	0.	0.26519
12879	4.8061	0.36364	5.e-002	7.3638
12880	4.7136	0.18182	0.	0.30537
12881	4.8061	0.18182	5.e-002	8.3163
12882	4.8061	9.0909e-002	0.	0.2137
12883	4.6212	5.7273	0.	0.25745
12884	4.5288	5.8182	0.	0.34861
12885	4.6212	5.8182	5.e-002	8.9974
12886	4.6212	5.9091	0.	0.23034
12887	4.6212	5.5455	0.	0.17642
12888	4.5288	5.6364	0.	0.29134
12889	4.6212	5.6364	5.e-002	7.5772
12890	4.6212	5.3636	0.	7.9806e-002
12891	4.5288	5.4545	0.	9.2511e-002
12892	4.6212	5.4545	5.e-002	7.5212
12893	4.6212	5.1818	0.	6.1844e-002
12894	4.5288	5.2727	0.	8.004e-002
12895	4.6212	5.2727	5.e-002	7.5352
12896	4.6212	5.	0.	4.1883e-002
12897	4.5288	5.0909	0.	5.2008e-002
12898	4.6212	5.0909	5.e-002	7.5459
12899	4.6212	4.8182	0.	2.8893e-002
12900	4.5288	4.9091	0.	3.713e-002
12901	4.6212	4.9091	5.e-002	7.548
12902	4.6212	4.6364	0.	1.8095e-002
12903	4.5288	4.7273	0.	2.4256e-002
12904	4.6212	4.7273	5.e-002	7.5423
12905	4.6212	4.4545	0.	9.4028e-003
12906	4.5288	4.5455	0.	1.4232e-002
12907	4.6212	4.5455	5.e-002	7.53
12908	4.6212	4.2727	0.	2.1809e-003
12909	4.5288	4.3636	0.	5.9015e-003
12910	4.6212	4.3636	5.e-002	7.5126
12911	4.6212	4.0909	0.	-3.7841e-003
12912	4.5288	4.1818	0.	-9.6222e-004
12913	4.6212	4.1818	5.e-002	7.4921
12914	4.6212	3.9091	0.	-8.6644e-003
12915	4.5288	4.	0.	-6.6097e-003
12916	4.6212	4.	5.e-002	7.4702
12917	4.6212	3.7273	0.	-1.2558e-002
12918	4.5288	3.8182	0.	-1.1171e-002
12919	4.6212	3.8182	5.e-002	7.4486
12920	4.6212	3.5455	0.	-1.553e-002
12921	4.5288	3.6364	0.	-1.4734e-002
12922	4.6212	3.6364	5.e-002	7.4291
12923	4.6212	3.3636	0.	-1.7625e-002
12924	4.5288	3.4545	0.	-1.736e-002
12925	4.6212	3.4545	5.e-002	7.4131
12926	4.6212	3.1818	0.	-1.8872e-002
12927	4.5288	3.2727	0.	-1.9091e-002
12928	4.6212	3.2727	5.e-002	7.4017
12929	4.6212	3.	0.	-1.9286e-002
12930	4.5288	3.0909	0.	-1.9951e-002
12931	4.6212	3.0909	5.e-002	7.3958
12932	4.6212	2.8182	0.	-1.8872e-002
12933	4.5288	2.9091	0.	-1.9951e-002
12934	4.6212	2.9091	5.e-002	7.3958
12935	4.6212	2.6364	0.	-1.7625e-002
12936	4.5288	2.7273	0.	-1.9091e-002
12937	4.6212	2.7273	5.e-002	7.4018
12938	4.6212	2.4545	0.	-1.5529e-002
12939	4.5288	2.5455	0.	-1.736e-002
12940	4.6212	2.5455	5.e-002	7.4131
12941	4.6212	2.2727	0.	-1.2557e-002
12942	4.5288	2.3636	0.	-1.4734e-002
12943	4.6212	2.3636	5.e-002	7.4291
12944	4.6212	2.0909	0.	-8.664e-003
12945	4.5288	2.1818	0.	-1.117e-002
12946	4.6212	2.1818	5.e-002	7.4486
12947	4.6212	1.9091	0.	-3.7837e-003
12948	4.5288	2.	0.	-6.6093e-003
12949	4.6212	2.	5.e-002	7.4703
12950	4.6212	1.7273	0.	2.1815e-003
12951	4.5288	1.8182	0.	-9.6174e-004
12952	4.6212	1.8182	5.e-002	7.4922
12953	4.6212	1.5455	0.	9.4034e-003
12954	4.5288	1.6364	0.	5.9022e-003
12955	4.6212	1.6364	5.e-002	7.5128
12956	4.6212	1.3636	0.	1.8096e-002
12957	4.5288	1.4545	0.	1.4232e-002
12958	4.6212	1.4545	5.e-002	7.5302
12959	4.6212	1.1818	0.	2.8894e-002
12960	4.5288	1.2727	0.	2.4256e-002
12961	4.6212	1.2727	5.e-002	7.5425
12962	4.6212	1.	0.	4.1884e-002
12963	4.5288	1.0909	0.	3.7131e-002
12964	4.6212	1.0909	5.e-002	7.5482
12965	4.6212	0.81818	0.	6.1845e-002
12966	4.5288	0.90909	0.	5.2009e-002
12967	4.6212	0.90909	5.e-002	7.5461
12968	4.6212	0.63636	0.	7.9806e-002
12969	4.5288	0.72727	0.	8.0041e-002
12970	4.6212	0.72727	5.e-002	7.5355
12971	4.6212	0.45455	0.	0.17642
12972	4.5288	0.54545	0.	9.2511e-002
12973	4.6212	0.54545	5.e-002	7.5214
12974	4.6212	0.27273	0.	0.25745
12975	4.5288	0.36364	0.	0.29134
12976	4.6212	0.36364	5.e-002	7.5774
12977	4.5288	0.18182	0.	0.34861
12978	4.6212	0.18182	5.e-002	8.9977
12979	4.6212	9.0909e-002	0.	0.23034
12980	4.4364	5.7273	0.	0.28757
12981	4.3439	5.8182	0.	0.4001
12982	4.4364	5.8182	5.e-002	9.729
12983	4.4364	5.9091	0.	0.24872
12984	4.4364	5.5455	0.	0.194
12985	4.3439	5.6364	0.	0.32011
12986	4.4364	5.6364	5.e-002	7.8084
12987	4.4364	5.3636	0.	8.8015e-002
12988	4.3439	5.4545	0.	0.10236
12989	4.4364	5.4545	5.e-002	7.7256
12990	4.4364	5.1818	0.	6.799e-002
12991	4.3439	5.2727	0.	8.8043e-002
12992	4.4364	5.2727	5.e-002	7.7399
12993	4.4364	5.	0.	4.6007e-002
12994	4.3439	5.0909	0.	5.7194e-002
12995	4.4364	5.0909	5.e-002	7.7518
12996	4.4364	4.8182	0.	3.1699e-002
12997	4.3439	4.9091	0.	4.0775e-002
12998	4.4364	4.9091	5.e-002	7.7541
12999	4.4364	4.6364	0.	1.9841e-002
13000	4.3439	4.7273	0.	2.6624e-002
13001	4.4364	4.7273	5.e-002	7.7476
13002	4.4364	4.4545	0.	1.032e-002
13003	4.3439	4.5455	0.	1.5632e-002
13004	4.4364	4.5455	5.e-002	7.7338
13005	4.4364	4.2727	0.	2.4358e-003
13006	4.3439	4.3636	0.	6.5285e-003
13007	4.4364	4.3636	5.e-002	7.7143
13008	4.4364	4.0909	0.	-4.0532e-003
13009	4.3439	4.1818	0.	-9.4423e-004
13010	4.4364	4.1818	5.e-002	7.6913
13011	4.4364	3.9091	0.	-9.3427e-003
13012	4.3439	4.	0.	-7.0682e-003
13013	4.4364	4.	5.e-002	7.6667
13014	4.4364	3.7273	0.	-1.3548e-002
13015	4.3439	3.8182	0.	-1.1994e-002
13016	4.4364	3.8182	5.e-002	7.6425
13017	4.4364	3.5455	0.	-1.6748e-002
13018	4.3439	3.6364	0.	-1.5828e-002
13019	4.4364	3.6364	5.e-002	7.6207
13020	4.4364	3.3636	0.	-1.8998e-002
13021	4.3439	3.4545	0.	-1.8644e-002
13022	4.4364	3.4545	5.e-002	7.6029
13023	4.4364	3.1818	0.	-2.0335e-002
13024	4.3439	3.2727	0.	-2.0496e-002
13025	4.4364	3.2727	5.e-002	7.5902
13026	4.4364	3.	0.	-2.0778e-002
13027	4.3439	3.0909	0.	-2.1414e-002
13028	4.4364	3.0909	5.e-002	7.5837
13029	4.4364	2.8182	0.	-2.0335e-002
13030	4.3439	2.9091	0.	-2.1414e-002
13031	4.4364	2.9091	5.e-002	7.5838
13032	4.4364	2.6364	0.	-1.8998e-002
13033	4.3439	2.7273	0.	-2.0496e-002
13034	4.4364	2.7273	5.e-002	7.5903
13035	4.4364	2.4545	0.	-1.6748e-002
13036	4.3439	2.5455	0.	-1.8644e-002
13037	4.4364	2.5455	5.e-002	7.6029
13038	4.4364	2.2727	0.	-1.3548e-002
13039	4.3439	2.3636	0.	-1.5828e-002
13040	4.4364	2.3636	5.e-002	7.6209
13041	4.4364	2.0909	0.	-9.3425e-003
13042	4.3439	2.1818	0.	-1.1993e-002
13043	4.4364	2.1818	5.e-002	7.6426
13044	4.4364	1.9091	0.	-4.0527e-003
13045	4.3439	2.	0.	-7.0678e-003
13046	4.4364	2.	5.e-002	7.6667
13047	4.4364	1.7273	0.	2.4364e-003
13048	4.3439	1.8182	0.	-9.4381e-004
13049	4.4364	1.8182	5.e-002	7.6914
13050	4.4364	1.5455	0.	1.0321e-002
13051	4.3439	1.6364	0.	6.5292e-003
13052	4.4364	1.6364	5.e-002	7.7145
13053	4.4364	1.3636	0.	1.9841e-002
13054	4.3439	1.4545	0.	1.5632e-002
13055	4.4364	1.4545	5.e-002	7.7339
13056	4.4364	1.1818	0.	3.1699e-002
13057	4.3439	1.2727	0.	2.6625e-002
13058	4.4364	1.2727	5.e-002	7.7478
13059	4.4364	1.	0.	4.6008e-002
13060	4.3439	1.0909	0.	4.0775e-002
13061	4.4364	1.0909	5.e-002	7.7543
13062	4.4364	0.81818	0.	6.7991e-002
13063	4.3439	0.90909	0.	5.7195e-002
13064	4.4364	0.90909	5.e-002	7.752
13065	4.4364	0.63636	0.	8.8015e-002
13066	4.3439	0.72727	0.	8.8044e-002
13067	4.4364	0.72727	5.e-002	7.7402
13068	4.4364	0.45455	0.	0.194
13069	4.3439	0.54545	0.	0.10236
13070	4.4364	0.54545	5.e-002	7.7259
13071	4.4364	0.27273	0.	0.28757
13072	4.3439	0.36364	0.	0.32012
13073	4.4364	0.36364	5.e-002	7.8087
13074	4.3439	0.18182	0.	0.4001
13075	4.4364	0.18182	5.e-002	9.7294
13076	4.4364	9.0909e-002	0.	0.24872
13077	4.2515	5.7273	0.	0.32184
13078	4.1591	5.8182	0.	0.46176
13079	4.2515	5.8182	5.e-002	10.513
13080	4.2515	5.9091	0.	0.26907
13081	4.2515	5.5455	0.	0.21338
13082	4.1591	5.6364	0.	0.35185
13083	4.2515	5.6364	5.e-002	8.0583
13084	4.2515	5.3636	0.	9.7115e-002
13085	4.1591	5.4545	0.	0.11334
13086	4.2515	5.4545	5.e-002	7.9487
13087	4.2515	5.1818	0.	7.4783e-002
13088	4.1591	5.2727	0.	9.6889e-002
13089	4.2515	5.2727	5.e-002	7.9642
13090	4.2515	5.	0.	5.0575e-002
13091	4.1591	5.0909	0.	6.2939e-002
13092	4.2515	5.0909	5.e-002	7.978
13093	4.2515	4.8182	0.	3.4818e-002
13094	4.1591	4.9091	0.	4.4818e-002
13095	4.2515	4.9091	5.e-002	7.9812
13096	4.2515	4.6364	0.	2.1802e-002
13097	4.1591	4.7273	0.	2.9268e-002
13098	4.2515	4.7273	5.e-002	7.9744
13099	4.2515	4.4545	0.	1.1384e-002
13100	4.1591	4.5455	0.	1.7223e-002
13101	4.2515	4.5455	5.e-002	7.9592
13102	4.2515	4.2727	0.	2.7902e-003
13103	4.1591	4.3636	0.	7.2881e-003
13104	4.2515	4.3636	5.e-002	7.9377
13105	4.2515	4.0909	0.	-4.254e-003
13106	4.1591	4.1818	0.	-8.3102e-004
13107	4.2515	4.1818	5.e-002	7.9121
13108	4.2515	3.9091	0.	-9.9711e-003
13109	4.1591	4.	0.	-7.4525e-003
13110	4.2515	4.	5.e-002	7.8849
13111	4.2515	3.7273	0.	-1.4497e-002
13112	4.1591	3.8182	0.	-1.2752e-002
13113	4.2515	3.8182	5.e-002	7.8582
13114	4.2515	3.5455	0.	-1.7928e-002
13115	4.1591	3.6364	0.	-1.6858e-002
13116	4.2515	3.6364	5.e-002	7.8341
13117	4.2515	3.3636	0.	-2.0332e-002
13118	4.1591	3.4545	0.	-1.9862e-002
13119	4.2515	3.4545	5.e-002	7.8144
13120	4.2515	3.1818	0.	-2.1758e-002
13121	4.1591	3.2727	0.	-2.1831e-002
13122	4.2515	3.2727	5.e-002	7.8005
13123	4.2515	3.	0.	-2.223e-002
13124	4.1591	3.0909	0.	-2.2806e-002
13125	4.2515	3.0909	5.e-002	7.7933
13126	4.2515	2.8182	0.	-2.1758e-002
13127	4.1591	2.9091	0.	-2.2805e-002
13128	4.2515	2.9091	5.e-002	7.7933
13129	4.2515	2.6364	0.	-2.0332e-002
13130	4.1591	2.7273	0.	-2.1831e-002
13131	4.2515	2.7273	5.e-002	7.8006
13132	4.2515	2.4545	0.	-1.7927e-002
13133	4.1591	2.5455	0.	-1.9862e-002
13134	4.2515	2.5455	5.e-002	7.8145
13135	4.2515	2.2727	0.	-1.4496e-002
13136	4.1591	2.3636	0.	-1.6858e-002
13137	4.2515	2.3636	5.e-002	7.8342
13138	4.2515	2.0909	0.	-9.9707e-003
13139	4.1591	2.1818	0.	-1.2752e-002
13140	4.2515	2.1818	5.e-002	7.8583
13141	4.2515	1.9091	0.	-4.2536e-003
13142	4.1591	2.	0.	-7.4521e-003
13143	4.2515	2.	5.e-002	7.885
13144	4.2515	1.7273	0.	2.7907e-003
13145	4.1591	1.8182	0.	-8.306e-004
13146	4.2515	1.8182	5.e-002	7.9123
13147	4.2515	1.5455	0.	1.1385e-002
13148	4.1591	1.6364	0.	7.2887e-003
13149	4.2515	1.6364	5.e-002	7.9379
13150	4.2515	1.3636	0.	2.1803e-002
13151	4.1591	1.4545	0.	1.7224e-002
13152	4.2515	1.4545	5.e-002	7.9594
13153	4.2515	1.1818	0.	3.4819e-002
13154	4.1591	1.2727	0.	2.9269e-002
13155	4.2515	1.2727	5.e-002	7.9746
13156	4.2515	1.	0.	5.0576e-002
13157	4.1591	1.0909	0.	4.4819e-002
13158	4.2515	1.0909	5.e-002	7.9814
13159	4.2515	0.81818	0.	7.4784e-002
13160	4.1591	0.90909	0.	6.294e-002
13161	4.2515	0.90909	5.e-002	7.9782
13162	4.2515	0.63636	0.	9.7115e-002
13163	4.1591	0.72727	0.	9.689e-002
13164	4.2515	0.72727	5.e-002	7.9644
13165	4.2515	0.45455	0.	0.21338
13166	4.1591	0.54545	0.	0.11334
13167	4.2515	0.54545	5.e-002	7.9489
13168	4.2515	0.27273	0.	0.32184
13169	4.1591	0.36364	0.	0.35186
13170	4.2515	0.36364	5.e-002	8.0586
13171	4.1591	0.18182	0.	0.46176
13172	4.2515	0.18182	5.e-002	10.513
13173	4.2515	9.0909e-002	0.	0.26907
13174	4.0667	5.7273	0.	0.36099
13175	3.9742	5.8182	0.	0.5361
13176	4.0667	5.8182	5.e-002	11.352
13177	4.0667	5.9091	0.	0.29167
13178	4.0667	5.5455	0.	0.2348
13179	3.9742	5.6364	0.	0.38695
13180	4.0667	5.6364	5.e-002	8.3277
13181	4.0667	5.3636	0.	0.10722
13182	3.9742	5.4545	0.	0.1256
13183	4.0667	5.4545	5.e-002	8.192
13184	4.0667	5.1818	0.	8.2301e-002
13185	3.9742	5.2727	0.	0.10668
13186	4.0667	5.2727	5.e-002	8.2099
13187	4.0667	5.	0.	5.5638e-002
13188	3.9742	5.0909	0.	6.9304e-002
13189	4.0667	5.0909	5.e-002	8.2269
13190	4.0667	4.8182	0.	3.8287e-002
13191	3.9742	4.9091	0.	4.93e-002
13192	4.0667	4.9091	5.e-002	8.2317
13193	4.0667	4.6364	0.	2.4008e-002
13194	3.9742	4.7273	0.	3.2216e-002
13195	4.0667	4.7273	5.e-002	8.2252
13196	4.0667	4.4545	0.	1.262e-002
13197	3.9742	4.5455	0.	1.9027e-002
13198	4.0667	4.5455	5.e-002	8.209
13199	4.0667	4.2727	0.	3.2685e-003
13200	3.9742	4.3636	0.	8.2019e-003
13201	4.0667	4.3636	5.e-002	8.1858
13202	4.0667	4.0909	0.	-4.3571e-003
13203	3.9742	4.1818	0.	-5.965e-004
13204	4.0667	4.1818	5.e-002	8.1579
13205	4.0667	3.9091	0.	-1.0513e-002
13206	3.9742	4.	0.	-7.7289e-003
13207	4.0667	4.	5.e-002	8.1282
13208	4.0667	3.7273	0.	-1.5361e-002
13209	3.9742	3.8182	0.	-1.3403e-002
13210	4.0667	3.8182	5.e-002	8.099
13211	4.0667	3.5455	0.	-1.9018e-002
13212	3.9742	3.6364	0.	-1.7774e-002
13213	4.0667	3.6364	5.e-002	8.0727
13214	4.0667	3.3636	0.	-2.1572e-002
13215	3.9742	3.4545	0.	-2.0956e-002
13216	4.0667	3.4545	5.e-002	8.0513
13217	4.0667	3.1818	0.	-2.3082e-002
13218	3.9742	3.2727	0.	-2.3033e-002
13219	4.0667	3.2727	5.e-002	8.0362
13220	4.0667	3.	0.	-2.3581e-002
13221	3.9742	3.0909	0.	-2.4058e-002
13222	4.0667	3.0909	5.e-002	8.0284
13223	4.0667	2.8182	0.	-2.3082e-002
13224	3.9742	2.9091	0.	-2.4058e-002
13225	4.0667	2.9091	5.e-002	8.0284
13226	4.0667	2.6364	0.	-2.1572e-002
13227	3.9742	2.7273	0.	-2.3033e-002
13228	4.0667	2.7273	5.e-002	8.0362
13229	4.0667	2.4545	0.	-1.9018e-002
13230	3.9742	2.5455	0.	-2.0955e-002
13231	4.0667	2.5455	5.e-002	8.0514
13232	4.0667	2.2727	0.	-1.536e-002
13233	3.9742	2.3636	0.	-1.7774e-002
13234	4.0667	2.3636	5.e-002	8.0729
13235	4.0667	2.0909	0.	-1.0513e-002
13236	3.9742	2.1818	0.	-1.3402e-002
13237	4.0667	2.1818	5.e-002	8.0992
13238	4.0667	1.9091	0.	-4.3567e-003
13239	3.9742	2.	0.	-7.7286e-003
13240	4.0667	2.	5.e-002	8.1283
13241	4.0667	1.7273	0.	3.269e-003
13242	3.9742	1.8182	0.	-5.96e-004
13243	4.0667	1.8182	5.e-002	8.1581
13244	4.0667	1.5455	0.	1.262e-002
13245	3.9742	1.6364	0.	8.2024e-003
13246	4.0667	1.6364	5.e-002	8.1859
13247	4.0667	1.3636	0.	2.4008e-002
13248	3.9742	1.4545	0.	1.9028e-002
13249	4.0667	1.4545	5.e-002	8.2092
13250	4.0667	1.1818	0.	3.8288e-002
13251	3.9742	1.2727	0.	3.2217e-002
13252	4.0667	1.2727	5.e-002	8.2253
13253	4.0667	1.	0.	5.5639e-002
13254	3.9742	1.0909	0.	4.9301e-002
13255	4.0667	1.0909	5.e-002	8.232
13256	4.0667	0.81818	0.	8.2302e-002
13257	3.9742	0.90909	0.	6.9305e-002
13258	4.0667	0.90909	5.e-002	8.2271
13259	4.0667	0.63636	0.	0.10722
13260	3.9742	0.72727	0.	0.10668
13261	4.0667	0.72727	5.e-002	8.2102
13262	4.0667	0.45455	0.	0.2348
13263	3.9742	0.54545	0.	0.1256
13264	4.0667	0.54545	5.e-002	8.1922
13265	4.0667	0.27273	0.	0.361
13266	3.9742	0.36364	0.	0.38695
13267	4.0667	0.36364	5.e-002	8.328
13268	3.9742	0.18182	0.	0.53611
13269	4.0667	0.18182	5.e-002	11.352
13270	4.0667	9.0909e-002	0.	0.29167
13271	3.8818	5.7273	0.	0.40593
13272	3.7894	5.8182	0.	0.62641
13273	3.8818	5.8182	5.e-002	12.246
13274	3.8818	5.9091	0.	0.31691
13275	3.8818	5.5455	0.	0.2585
13276	3.7894	5.6364	0.	0.42586
13277	3.8818	5.6364	5.e-002	8.6178
13278	3.8818	5.3636	0.	0.11846
13279	3.7894	5.4545	0.	0.13932
13280	3.8818	5.4545	5.e-002	8.4571
13281	3.8818	5.1818	0.	9.0622e-002
13282	3.7894	5.2727	0.	0.11752
13283	3.8818	5.2727	5.e-002	8.4794
13284	3.8818	5.	0.	6.1246e-002
13285	3.7894	5.0909	0.	7.6356e-002
13286	3.8818	5.0909	5.e-002	8.5009
13287	3.8818	4.8182	0.	4.2137e-002
13288	3.7894	4.9091	0.	5.4261e-002
13289	3.8818	4.9091	5.e-002	8.5085
13290	3.8818	4.6364	0.	2.6477e-002
13291	3.7894	4.7273	0.	3.5493e-002
13292	3.8818	4.7273	5.e-002	8.503
13293	3.8818	4.4545	0.	1.4045e-002
13294	3.7894	4.5455	0.	2.1064e-002
13295	3.8818	4.5455	5.e-002	8.4866
13296	3.8818	4.2727	0.	3.8933e-003
13297	3.7894	4.3636	0.	9.2917e-003
13298	3.8818	4.3636	5.e-002	8.4619
13299	3.8818	4.0909	0.	-4.3329e-003
13300	3.7894	4.1818	0.	-2.1118e-004
13301	3.8818	4.1818	5.e-002	8.4321
13302	3.8818	3.9091	0.	-1.093e-002
13303	3.7894	4.	0.	-7.8574e-003
13304	3.8818	4.	5.e-002	8.4002
13305	3.8818	3.7273	0.	-1.609e-002
13306	3.7894	3.8182	0.	-1.3893e-002
13307	3.8818	3.8182	5.e-002	8.3689
13308	3.8818	3.5455	0.	-1.9961e-002
13309	3.7894	3.6364	0.	-1.851e-002
13310	3.8818	3.6364	5.e-002	8.3408
13311	3.8818	3.3636	0.	-2.265e-002
13312	3.7894	3.4545	0.	-2.185e-002
13313	3.8818	3.4545	5.e-002	8.3178
13314	3.8818	3.1818	0.	-2.4234e-002
13315	3.7894	3.2727	0.	-2.4019e-002
13316	3.8818	3.2727	5.e-002	8.3017
13317	3.8818	3.	0.	-2.4757e-002
13318	3.7894	3.0909	0.	-2.5087e-002
13319	3.8818	3.0909	5.e-002	8.2935
13320	3.8818	2.8182	0.	-2.4234e-002
13321	3.7894	2.9091	0.	-2.5086e-002
13322	3.8818	2.9091	5.e-002	8.2935
13323	3.8818	2.6364	0.	-2.265e-002
13324	3.7894	2.7273	0.	-2.4019e-002
13325	3.8818	2.7273	5.e-002	8.3018
13326	3.8818	2.4545	0.	-1.9961e-002
13327	3.7894	2.5455	0.	-2.185e-002
13328	3.8818	2.5455	5.e-002	8.3179
13329	3.8818	2.2727	0.	-1.609e-002
13330	3.7894	2.3636	0.	-1.851e-002
13331	3.8818	2.3636	5.e-002	8.3408
13332	3.8818	2.0909	0.	-1.0929e-002
13333	3.7894	2.1818	0.	-1.3893e-002
13334	3.8818	2.1818	5.e-002	8.369
13335	3.8818	1.9091	0.	-4.3324e-003
13336	3.7894	2.	0.	-7.8571e-003
13337	3.8818	2.	5.e-002	8.4003
13338	3.8818	1.7273	0.	3.8938e-003
13339	3.7894	1.8182	0.	-2.1074e-004
13340	3.8818	1.8182	5.e-002	8.4323
13341	3.8818	1.5455	0.	1.4045e-002
13342	3.7894	1.6364	0.	9.2923e-003
13343	3.8818	1.6364	5.e-002	8.4621
13344	3.8818	1.3636	0.	2.6478e-002
13345	3.7894	1.4545	0.	2.1065e-002
13346	3.8818	1.4545	5.e-002	8.4867
13347	3.8818	1.1818	0.	4.2138e-002
13348	3.7894	1.2727	0.	3.5494e-002
13349	3.8818	1.2727	5.e-002	8.5032
13350	3.8818	1.	0.	6.1247e-002
13351	3.7894	1.0909	0.	5.4262e-002
13352	3.8818	1.0909	5.e-002	8.5087
13353	3.8818	0.81818	0.	9.0623e-002
13354	3.7894	0.90909	0.	7.6357e-002
13355	3.8818	0.90909	5.e-002	8.5011
13356	3.8818	0.63636	0.	0.11846
13357	3.7894	0.72727	0.	0.11753
13358	3.8818	0.72727	5.e-002	8.4796
13359	3.8818	0.45455	0.	0.2585
13360	3.7894	0.54545	0.	0.13932
13361	3.8818	0.54545	5.e-002	8.4574
13362	3.8818	0.27273	0.	0.40594
13363	3.7894	0.36364	0.	0.42586
13364	3.8818	0.36364	5.e-002	8.618
13365	3.7894	0.18182	0.	0.62642
13366	3.8818	0.18182	5.e-002	12.246
13367	3.8818	9.0909e-002	0.	0.31691
13368	3.697	5.7273	0.	0.45775
13369	3.6045	5.8182	0.	0.73708
13370	3.697	5.8182	5.e-002	13.198
13371	3.697	5.9091	0.	0.34528
13372	3.697	5.5455	0.	0.2848
13373	3.6045	5.6364	0.	0.46913
13374	3.697	5.6364	5.e-002	8.9296
13375	3.697	5.3636	0.	0.13098
13376	3.6045	5.4545	0.	0.1547
13377	3.697	5.4545	5.e-002	8.7465
13378	3.697	5.1818	0.	9.9838e-002
13379	3.6045	5.2727	0.	0.12955
13380	3.697	5.2727	5.e-002	8.7753
13381	3.697	5.	0.	6.7452e-002
13382	3.6045	5.0909	0.	8.4167e-002
13383	3.697	5.0909	5.e-002	8.8033
13384	3.697	4.8182	0.	4.6399e-002
13385	3.6045	4.9091	0.	5.9745e-002
13386	3.697	4.9091	5.e-002	8.8151
13387	3.697	4.6364	0.	2.9234e-002
13388	3.6045	4.7273	0.	3.9127e-002
13389	3.697	4.7273	5.e-002	8.8116
13390	3.697	4.4545	0.	1.5682e-002
13391	3.6045	4.5455	0.	2.3358e-002
13392	3.697	4.5455	5.e-002	8.7955
13393	3.697	4.2727	0.	4.6928e-003
13394	3.6045	4.3636	0.	1.0587e-002
13395	3.697	4.3636	5.e-002	8.77
13396	3.697	4.0909	0.	-4.1418e-003
13397	3.6045	4.1818	0.	3.6574e-004
13398	3.697	4.1818	5.e-002	8.7389
13399	3.697	3.9091	0.	-1.1168e-002
13400	3.6045	4.	0.	-7.782e-003
13401	3.697	4.	5.e-002	8.7052
13402	3.697	3.7273	0.	-1.6619e-002
13403	3.6045	3.8182	0.	-1.4152e-002
13404	3.697	3.8182	5.e-002	8.6724
13405	3.697	3.5455	0.	-2.0676e-002
13406	3.6045	3.6364	0.	-1.898e-002
13407	3.697	3.6364	5.e-002	8.6429
13408	3.697	3.3636	0.	-2.3478e-002
13409	3.6045	3.4545	0.	-2.2444e-002
13410	3.697	3.4545	5.e-002	8.619
13411	3.697	3.1818	0.	-2.5121e-002
13412	3.6045	3.2727	0.	-2.468e-002
13413	3.697	3.2727	5.e-002	8.6023
13414	3.697	3.	0.	-2.5662e-002
13415	3.6045	3.0909	0.	-2.5776e-002
13416	3.697	3.0909	5.e-002	8.5937
13417	3.697	2.8182	0.	-2.5121e-002
13418	3.6045	2.9091	0.	-2.5776e-002
13419	3.697	2.9091	5.e-002	8.5937
13420	3.697	2.6364	0.	-2.3478e-002
13421	3.6045	2.7273	0.	-2.468e-002
13422	3.697	2.7273	5.e-002	8.6023
13423	3.697	2.4545	0.	-2.0676e-002
13424	3.6045	2.5455	0.	-2.2444e-002
13425	3.697	2.5455	5.e-002	8.6191
13426	3.697	2.2727	0.	-1.6619e-002
13427	3.6045	2.3636	0.	-1.898e-002
13428	3.697	2.3636	5.e-002	8.643
13429	3.697	2.0909	0.	-1.1167e-002
13430	3.6045	2.1818	0.	-1.4152e-002
13431	3.697	2.1818	5.e-002	8.6724
13432	3.697	1.9091	0.	-4.1415e-003
13433	3.6045	2.	0.	-7.7817e-003
13434	3.697	2.	5.e-002	8.7053
13435	3.697	1.7273	0.	4.6933e-003
13436	3.6045	1.8182	0.	3.6616e-004
13437	3.697	1.8182	5.e-002	8.7389
13438	3.697	1.5455	0.	1.5682e-002
13439	3.6045	1.6364	0.	1.0588e-002
13440	3.697	1.6364	5.e-002	8.7702
13441	3.697	1.3636	0.	2.9234e-002
13442	3.6045	1.4545	0.	2.3359e-002
13443	3.697	1.4545	5.e-002	8.7957
13444	3.697	1.1818	0.	4.64e-002
13445	3.6045	1.2727	0.	3.9127e-002
13446	3.697	1.2727	5.e-002	8.8118
13447	3.697	1.	0.	6.7453e-002
13448	3.6045	1.0909	0.	5.9745e-002
13449	3.697	1.0909	5.e-002	8.8153
13450	3.697	0.81818	0.	9.9839e-002
13451	3.6045	0.90909	0.	8.4168e-002
13452	3.697	0.90909	5.e-002	8.8035
13453	3.697	0.63636	0.	0.13098
13454	3.6045	0.72727	0.	0.12955
13455	3.697	0.72727	5.e-002	8.7755
13456	3.697	0.45455	0.	0.28481
13457	3.6045	0.54545	0.	0.1547
13458	3.697	0.54545	5.e-002	8.7467
13459	3.697	0.27273	0.	0.45776
13460	3.6045	0.36364	0.	0.46913
13461	3.697	0.36364	5.e-002	8.9298
13462	3.6045	0.18182	0.	0.73708
13463	3.697	0.18182	5.e-002	13.198
13464	3.697	9.0909e-002	0.	0.34528
13465	3.5121	5.7273	0.	0.51782
13466	3.4197	5.8182	0.	0.87407
13467	3.5121	5.8182	5.e-002	14.208
13468	3.5121	5.9091	0.	0.37745
13469	3.5121	5.5455	0.	0.31407
13470	3.4197	5.6364	0.	0.51739
13471	3.5121	5.6364	5.e-002	9.2645
13472	3.5121	5.3636	0.	0.14495
13473	3.4197	5.4545	0.	0.17198
13474	3.5121	5.4545	5.e-002	9.0627
13475	3.5121	5.1818	0.	0.11005
13476	3.4197	5.2727	0.	0.1429
13477	3.5121	5.2727	5.e-002	9.1011
13478	3.5121	5.	0.	7.4315e-002
13479	3.4197	5.0909	0.	9.2811e-002
13480	3.5121	5.0909	5.e-002	9.1378
13481	3.5121	4.8182	0.	5.1111e-002
13482	3.4197	4.9091	0.	6.5789e-002
13483	3.5121	4.9091	5.e-002	9.1554
13484	3.5121	4.6364	0.	3.2306e-002
13485	3.4197	4.7273	0.	4.3138e-002
13486	3.5121	4.7273	5.e-002	9.1551
13487	3.5121	4.4545	0.	1.756e-002
13488	3.4197	4.5455	0.	2.5928e-002
13489	3.5121	4.5455	5.e-002	9.1402
13490	3.5121	4.2727	0.	5.7079e-003
13491	3.4197	4.3636	0.	1.2116e-002
13492	3.5121	4.3636	5.e-002	9.1147
13493	3.5121	4.0909	0.	-3.7274e-003
13494	3.4197	4.1818	0.	1.1791e-003
13495	3.5121	4.1818	5.e-002	9.0828
13496	3.5121	3.9091	0.	-1.1152e-002
13497	3.4197	4.	0.	-7.4367e-003
13498	3.5121	4.	5.e-002	9.0483
13499	3.5121	3.7273	0.	-1.6853e-002
13500	3.4197	3.8182	0.	-1.4091e-002
13501	3.5121	3.8182	5.e-002	9.0147
13502	3.5121	3.5455	0.	-2.1056e-002
13503	3.4197	3.6364	0.	-1.9076e-002
13504	3.5121	3.6364	5.e-002	8.9848
13505	3.5121	3.3636	0.	-2.3934e-002
13506	3.4197	3.4545	0.	-2.2615e-002
13507	3.5121	3.4545	5.e-002	8.9607
13508	3.5121	3.1818	0.	-2.5611e-002
13509	3.4197	3.2727	0.	-2.4881e-002
13510	3.5121	3.2727	5.e-002	8.944
13511	3.5121	3.	0.	-2.6162e-002
13512	3.4197	3.0909	0.	-2.5986e-002
13513	3.5121	3.0909	5.e-002	8.9354
13514	3.5121	2.8182	0.	-2.5611e-002
13515	3.4197	2.9091	0.	-2.5986e-002
13516	3.5121	2.9091	5.e-002	8.9354
13517	3.5121	2.6364	0.	-2.3934e-002
13518	3.4197	2.7273	0.	-2.4881e-002
13519	3.5121	2.7273	5.e-002	8.944
13520	3.5121	2.4545	0.	-2.1055e-002
13521	3.4197	2.5455	0.	-2.2615e-002
13522	3.5121	2.5455	5.e-002	8.9608
13523	3.5121	2.2727	0.	-1.6853e-002
13524	3.4197	2.3636	0.	-1.9076e-002
13525	3.5121	2.3636	5.e-002	8.9849
13526	3.5121	2.0909	0.	-1.1152e-002
13527	3.4197	2.1818	0.	-1.4091e-002
13528	3.5121	2.1818	5.e-002	9.0148
13529	3.5121	1.9091	0.	-3.727e-003
13530	3.4197	2.	0.	-7.4363e-003
13531	3.5121	2.	5.e-002	9.0484
13532	3.5121	1.7273	0.	5.7083e-003
13533	3.4197	1.8182	0.	1.1795e-003
13534	3.5121	1.8182	5.e-002	9.0829
13535	3.5121	1.5455	0.	1.7561e-002
13536	3.4197	1.6364	0.	1.2116e-002
13537	3.5121	1.6364	5.e-002	9.1149
13538	3.5121	1.3636	0.	3.2306e-002
13539	3.4197	1.4545	0.	2.5928e-002
13540	3.5121	1.4545	5.e-002	9.1404
13541	3.5121	1.1818	0.	5.1112e-002
13542	3.4197	1.2727	0.	4.3138e-002
13543	3.5121	1.2727	5.e-002	9.1553
13544	3.5121	1.	0.	7.4316e-002
13545	3.4197	1.0909	0.	6.579e-002
13546	3.5121	1.0909	5.e-002	9.1555
13547	3.5121	0.81818	0.	0.11005
13548	3.4197	0.90909	0.	9.2812e-002
13549	3.5121	0.90909	5.e-002	9.138
13550	3.5121	0.63636	0.	0.14495
13551	3.4197	0.72727	0.	0.1429
13552	3.5121	0.72727	5.e-002	9.1013
13553	3.5121	0.45455	0.	0.31407
13554	3.4197	0.54545	0.	0.17198
13555	3.5121	0.54545	5.e-002	9.0629
13556	3.5121	0.27273	0.	0.51782
13557	3.4197	0.36364	0.	0.51739
13558	3.5121	0.36364	5.e-002	9.2647
13559	3.4197	0.18182	0.	0.87407
13560	3.5121	0.18182	5.e-002	14.208
13561	3.5121	9.0909e-002	0.	0.37745
13562	3.3273	5.7273	0.	0.58783
13563	3.2348	5.8182	0.	1.0457
13564	3.3273	5.8182	5.e-002	15.275
13565	3.3273	5.9091	0.	0.41434
13566	3.3273	5.5455	0.	0.3467
13567	3.2348	5.6364	0.	0.57141
13568	3.3273	5.6364	5.e-002	9.6242
13569	3.3273	5.3636	0.	0.16054
13570	3.2348	5.4545	0.	0.19143
13571	3.3273	5.4545	5.e-002	9.4093
13572	3.3273	5.1818	0.	0.12136
13573	3.2348	5.2727	0.	0.15773
13574	3.3273	5.2727	5.e-002	9.461
13575	3.3273	5.	0.	8.1881e-002
13576	3.2348	5.0909	0.	0.10236
13577	3.3273	5.0909	5.e-002	9.5091
13578	3.3273	4.8182	0.	5.6291e-002
13579	3.2348	4.9091	0.	7.2424e-002
13580	3.3273	4.9091	5.e-002	9.5344
13581	3.3273	4.6364	0.	3.5701e-002
13582	3.2348	4.7273	0.	4.7538e-002
13583	3.3273	4.7273	5.e-002	9.5387
13584	3.3273	4.4545	0.	1.9696e-002
13585	3.2348	4.5455	0.	2.8786e-002
13586	3.3273	4.5455	5.e-002	9.5259
13587	3.3273	4.2727	0.	6.9693e-003
13588	3.2348	4.3636	0.	1.3907e-002
13589	3.3273	4.3636	5.e-002	9.5012
13590	3.3273	4.0909	0.	-3.0361e-003
13591	3.2348	4.1818	0.	2.2823e-003
13592	3.3273	4.1818	5.e-002	9.4695
13593	3.3273	3.9091	0.	-1.0805e-002
13594	3.2348	4.	0.	-6.7402e-003
13595	3.3273	4.	5.e-002	9.4353
13596	3.3273	3.7273	0.	-1.6691e-002
13597	3.2348	3.8182	0.	-1.3602e-002
13598	3.3273	3.8182	5.e-002	9.4022
13599	3.3273	3.5455	0.	-2.0977e-002
13600	3.2348	3.6364	0.	-1.8665e-002
13601	3.3273	3.6364	5.e-002	9.3731
13602	3.3273	3.3636	0.	-2.3881e-002
13603	3.2348	3.4545	0.	-2.2212e-002
13604	3.3273	3.4545	5.e-002	9.3499
13605	3.3273	3.1818	0.	-2.5561e-002
13606	3.2348	3.2727	0.	-2.4458e-002
13607	3.3273	3.2727	5.e-002	9.3339
13608	3.3273	3.	0.	-2.6111e-002
13609	3.2348	3.0909	0.	-2.5546e-002
13610	3.3273	3.0909	5.e-002	9.3258
13611	3.3273	2.8182	0.	-2.5561e-002
13612	3.2348	2.9091	0.	-2.5546e-002
13613	3.3273	2.9091	5.e-002	9.3258
13614	3.3273	2.6364	0.	-2.3881e-002
13615	3.2348	2.7273	0.	-2.4458e-002
13616	3.3273	2.7273	5.e-002	9.334
13617	3.3273	2.4545	0.	-2.0977e-002
13618	3.2348	2.5455	0.	-2.2212e-002
13619	3.3273	2.5455	5.e-002	9.35
13620	3.3273	2.2727	0.	-1.6691e-002
13621	3.2348	2.3636	0.	-1.8665e-002
13622	3.3273	2.3636	5.e-002	9.3732
13623	3.3273	2.0909	0.	-1.0805e-002
13624	3.2348	2.1818	0.	-1.3601e-002
13625	3.3273	2.1818	5.e-002	9.4023
13626	3.3273	1.9091	0.	-3.0357e-003
13627	3.2348	2.	0.	-6.7399e-003
13628	3.3273	2.	5.e-002	9.4354
13629	3.3273	1.7273	0.	6.9697e-003
13630	3.2348	1.8182	0.	2.2826e-003
13631	3.3273	1.8182	5.e-002	9.4696
13632	3.3273	1.5455	0.	1.9696e-002
13633	3.2348	1.6364	0.	1.3907e-002
13634	3.3273	1.6364	5.e-002	9.5014
13635	3.3273	1.3636	0.	3.5701e-002
13636	3.2348	1.4545	0.	2.8787e-002
13637	3.3273	1.4545	5.e-002	9.526
13638	3.3273	1.1818	0.	5.6292e-002
13639	3.2348	1.2727	0.	4.7538e-002
13640	3.3273	1.2727	5.e-002	9.5388
13641	3.3273	1.	0.	8.1882e-002
13642	3.2348	1.0909	0.	7.2425e-002
13643	3.3273	1.0909	5.e-002	9.5346
13644	3.3273	0.81818	0.	0.12136
13645	3.2348	0.90909	0.	0.10236
13646	3.3273	0.90909	5.e-002	9.5093
13647	3.3273	0.63636	0.	0.16054
13648	3.2348	0.72727	0.	0.15773
13649	3.3273	0.72727	5.e-002	9.4611
13650	3.3273	0.45455	0.	0.3467
13651	3.2348	0.54545	0.	0.19143
13652	3.3273	0.54545	5.e-002	9.4095
13653	3.3273	0.27273	0.	0.58783
13654	3.2348	0.36364	0.	0.57142
13655	3.3273	0.36364	5.e-002	9.6244
13656	3.2348	0.18182	0.	1.0457
13657	3.3273	0.18182	5.e-002	15.275
13658	3.3273	9.0909e-002	0.	0.41435
13659	3.1424	5.7273	0.	0.66994
13660	3.05	5.8182	0.	1.2636
13661	3.1424	5.8182	5.e-002	16.399
13662	3.1424	5.9091	0.	0.45732
13663	3.1424	5.5455	0.	0.38319
13664	3.05	5.6364	0.	0.63213
13665	3.1424	5.6364	5.e-002	10.011
13666	3.1424	5.3636	0.	0.17798
13667	3.05	5.4545	0.	0.21337
13668	3.1424	5.4545	5.e-002	9.7909
13669	3.1424	5.1818	0.	0.13388
13670	3.05	5.2727	0.	0.17419
13671	3.1424	5.2727	5.e-002	9.8605
13672	3.1424	5.	0.	9.02e-002
13673	3.05	5.0909	0.	0.11288
13674	3.1424	5.0909	5.e-002	9.9234
13675	3.1424	4.8182	0.	6.1958e-002
13676	3.05	4.9091	0.	7.9676e-002
13677	3.1424	4.9091	5.e-002	9.9583
13678	3.1424	4.6364	0.	3.9433e-002
13679	3.05	4.7273	0.	5.2336e-002
13680	3.1424	4.7273	5.e-002	9.9683
13681	3.1424	4.4545	0.	2.2113e-002
13682	3.05	4.5455	0.	3.195e-002
13683	3.1424	4.5455	5.e-002	9.9586
13684	3.1424	4.2727	0.	8.5274e-003
13685	3.05	4.3636	0.	1.6002e-002
13686	3.1424	4.3636	5.e-002	9.9357
13687	3.1424	4.0909	0.	-1.9875e-003
13688	3.05	4.1818	0.	3.7506e-003
13689	3.1424	4.1818	5.e-002	9.9054
13690	3.1424	3.9091	0.	-1.0016e-002
13691	3.05	4.	0.	-5.5814e-003
13692	3.1424	4.	5.e-002	9.8729
13693	3.1424	3.7273	0.	-1.5994e-002
13694	3.05	3.8182	0.	-1.2539e-002
13695	3.1424	3.8182	5.e-002	9.842
13696	3.1424	3.5455	0.	-2.0278e-002
13697	3.05	3.6364	0.	-1.7574e-002
13698	3.1424	3.6364	5.e-002	9.8154
13699	3.1424	3.3636	0.	-2.314e-002
13700	3.05	3.4545	0.	-2.1039e-002
13701	3.1424	3.4545	5.e-002	9.7947
13702	3.1424	3.1818	0.	-2.4779e-002
13703	3.05	3.2727	0.	-2.3203e-002
13704	3.1424	3.2727	5.e-002	9.7806
13705	3.1424	3.	0.	-2.5313e-002
13706	3.05	3.0909	0.	-2.424e-002
13707	3.1424	3.0909	5.e-002	9.7736
13708	3.1424	2.8182	0.	-2.4779e-002
13709	3.05	2.9091	0.	-2.424e-002
13710	3.1424	2.9091	5.e-002	9.7736
13711	3.1424	2.6364	0.	-2.314e-002
13712	3.05	2.7273	0.	-2.3203e-002
13713	3.1424	2.7273	5.e-002	9.7807
13714	3.1424	2.4545	0.	-2.0277e-002
13715	3.05	2.5455	0.	-2.1039e-002
13716	3.1424	2.5455	5.e-002	9.7947
13717	3.1424	2.2727	0.	-1.5994e-002
13718	3.05	2.3636	0.	-1.7574e-002
13719	3.1424	2.3636	5.e-002	9.8155
13720	3.1424	2.0909	0.	-1.0015e-002
13721	3.05	2.1818	0.	-1.2539e-002
13722	3.1424	2.1818	5.e-002	9.8421
13723	3.1424	1.9091	0.	-1.9872e-003
13724	3.05	2.	0.	-5.5811e-003
13725	3.1424	2.	5.e-002	9.873
13726	3.1424	1.7273	0.	8.5278e-003
13727	3.05	1.8182	0.	3.751e-003
13728	3.1424	1.8182	5.e-002	9.9055
13729	3.1424	1.5455	0.	2.2114e-002
13730	3.05	1.6364	0.	1.6002e-002
13731	3.1424	1.6364	5.e-002	9.9359
13732	3.1424	1.3636	0.	3.9434e-002
13733	3.05	1.4545	0.	3.1951e-002
13734	3.1424	1.4545	5.e-002	9.9588
13735	3.1424	1.1818	0.	6.1958e-002
13736	3.05	1.2727	0.	5.2336e-002
13737	3.1424	1.2727	5.e-002	9.9685
13738	3.1424	1.	0.	9.0201e-002
13739	3.05	1.0909	0.	7.9677e-002
13740	3.1424	1.0909	5.e-002	9.9585
13741	3.1424	0.81818	0.	0.13388
13742	3.05	0.90909	0.	0.11288
13743	3.1424	0.90909	5.e-002	9.9235
13744	3.1424	0.63636	0.	0.17798
13745	3.05	0.72727	0.	0.17419
13746	3.1424	0.72727	5.e-002	9.8607
13747	3.1424	0.45455	0.	0.38319
13748	3.05	0.54545	0.	0.21337
13749	3.1424	0.54545	5.e-002	9.7911
13750	3.1424	0.27273	0.	0.66994
13751	3.05	0.36364	0.	0.63213
13752	3.1424	0.36364	5.e-002	10.011
13753	3.05	0.18182	0.	1.2636
13754	3.1424	0.18182	5.e-002	16.4
13755	3.1424	9.0909e-002	0.	0.45732
13756	2.9576	5.7273	0.	0.76689
13757	2.8652	5.8182	0.	1.5451
13758	2.9576	5.8182	5.e-002	17.577
13759	2.9576	5.9091	0.	0.50843
13760	2.9576	5.5455	0.	0.42413
13761	2.8652	5.6364	0.	0.70068
13762	2.9576	5.6364	5.e-002	10.429
13763	2.9576	5.3636	0.	0.1975
13764	2.8652	5.4545	0.	0.23819
13765	2.9576	5.4545	5.e-002	10.214
13766	2.9576	5.1818	0.	0.14773
13767	2.8652	5.2727	0.	0.1925
13768	2.9576	5.2727	5.e-002	10.307
13769	2.9576	5.	0.	9.9313e-002
13770	2.8652	5.0909	0.	0.12447
13771	2.9576	5.0909	5.e-002	10.388
13772	2.9576	4.8182	0.	6.8122e-002
13773	2.8652	4.9091	0.	8.7569e-002
13774	2.9576	4.9091	5.e-002	10.435
13775	2.9576	4.6364	0.	4.3512e-002
13776	2.8652	4.7273	0.	5.7542e-002
13777	2.9576	4.7273	5.e-002	10.452
13778	2.9576	4.4545	0.	2.4843e-002
13779	2.8652	4.5455	0.	3.5448e-002
13780	2.9576	4.5455	5.e-002	10.446
13781	2.9576	4.2727	0.	1.0447e-002
13782	2.8652	4.3636	0.	1.8465e-002
13783	2.9576	4.3636	5.e-002	10.425
13784	2.9576	4.0909	0.	-4.7668e-004
13785	2.8652	4.1818	0.	5.6935e-003
13786	2.9576	4.1818	5.e-002	10.398
13787	2.9576	3.9091	0.	-8.6392e-003
13788	2.8652	4.	0.	-3.806e-003
13789	2.9576	4.	5.e-002	10.369
13790	2.9576	3.7273	0.	-1.4584e-002
13791	2.8652	3.8182	0.	-1.071e-002
13792	2.9576	3.8182	5.e-002	10.342
13793	2.9576	3.5455	0.	-1.8754e-002
13794	2.8652	3.6364	0.	-1.558e-002
13795	2.9576	3.6364	5.e-002	10.321
13796	2.9576	3.3636	0.	-2.1489e-002
13797	2.8652	3.4545	0.	-1.8853e-002
13798	2.9576	3.4545	5.e-002	10.304
13799	2.9576	3.1818	0.	-2.3033e-002
13800	2.8652	3.2727	0.	-2.0856e-002
13801	2.9576	3.2727	5.e-002	10.294
13802	2.9576	3.	0.	-2.3532e-002
13803	2.8652	3.0909	0.	-2.1804e-002
13804	2.9576	3.0909	5.e-002	10.289
13805	2.9576	2.8182	0.	-2.3033e-002
13806	2.8652	2.9091	0.	-2.1804e-002
13807	2.9576	2.9091	5.e-002	10.289
13808	2.9576	2.6364	0.	-2.1489e-002
13809	2.8652	2.7273	0.	-2.0856e-002
13810	2.9576	2.7273	5.e-002	10.294
13811	2.9576	2.4545	0.	-1.8753e-002
13812	2.8652	2.5455	0.	-1.8853e-002
13813	2.9576	2.5455	5.e-002	10.304
13814	2.9576	2.2727	0.	-1.4584e-002
13815	2.8652	2.3636	0.	-1.558e-002
13816	2.9576	2.3636	5.e-002	10.321
13817	2.9576	2.0909	0.	-8.639e-003
13818	2.8652	2.1818	0.	-1.071e-002
13819	2.9576	2.1818	5.e-002	10.343
13820	2.9576	1.9091	0.	-4.7634e-004
13821	2.8652	2.	0.	-3.8057e-003
13822	2.9576	2.	5.e-002	10.369
13823	2.9576	1.7273	0.	1.0448e-002
13824	2.8652	1.8182	0.	5.6939e-003
13825	2.9576	1.8182	5.e-002	10.398
13826	2.9576	1.5455	0.	2.4844e-002
13827	2.8652	1.6364	0.	1.8465e-002
13828	2.9576	1.6364	5.e-002	10.426
13829	2.9576	1.3636	0.	4.3512e-002
13830	2.8652	1.4545	0.	3.5448e-002
13831	2.9576	1.4545	5.e-002	10.446
13832	2.9576	1.1818	0.	6.8123e-002
13833	2.8652	1.2727	0.	5.7542e-002
13834	2.9576	1.2727	5.e-002	10.452
13835	2.9576	1.	0.	9.9314e-002
13836	2.8652	1.0909	0.	8.7569e-002
13837	2.9576	1.0909	5.e-002	10.435
13838	2.9576	0.81818	0.	0.14773
13839	2.8652	0.90909	0.	0.12447
13840	2.9576	0.90909	5.e-002	10.388
13841	2.9576	0.63636	0.	0.1975
13842	2.8652	0.72727	0.	0.1925
13843	2.9576	0.72727	5.e-002	10.308
13844	2.9576	0.45455	0.	0.42413
13845	2.8652	0.54545	0.	0.23819
13846	2.9576	0.54545	5.e-002	10.214
13847	2.9576	0.27273	0.	0.76689
13848	2.8652	0.36364	0.	0.70068
13849	2.9576	0.36364	5.e-002	10.429
13850	2.8652	0.18182	0.	1.5451
13851	2.9576	0.18182	5.e-002	17.578
13852	2.9576	9.0909e-002	0.	0.50843
13853	2.7727	5.7273	0.	0.88226
13854	2.6803	5.8182	0.	1.916
13855	2.7727	5.8182	5.e-002	18.805
13856	2.7727	5.9091	0.	0.571
13857	2.7727	5.5455	0.	0.47022
13858	2.6803	5.6364	0.	0.77846
13859	2.7727	5.6364	5.e-002	10.884
13860	2.7727	5.3636	0.	0.2194
13861	2.6803	5.4545	0.	0.26634
13862	2.7727	5.4545	5.e-002	10.689
13863	2.7727	5.1818	0.	0.16304
13864	2.6803	5.2727	0.	0.21287
13865	2.7727	5.2727	5.e-002	10.812
13866	2.7727	5.	0.	0.10927
13867	2.6803	5.0909	0.	0.13717
13868	2.7727	5.0909	5.e-002	10.914
13869	2.7727	4.8182	0.	7.4801e-002
13870	2.6803	4.9091	0.	9.6106e-002
13871	2.7727	4.9091	5.e-002	10.974
13872	2.7727	4.6364	0.	4.796e-002
13873	2.6803	4.7273	0.	6.3152e-002
13874	2.7727	4.7273	5.e-002	10.998
13875	2.7727	4.4545	0.	2.7945e-002
13876	2.6803	4.5455	0.	3.9308e-002
13877	2.7727	4.5455	5.e-002	10.996
13878	2.7727	4.2727	0.	1.2836e-002
13879	2.6803	4.3636	0.	2.1379e-002
13880	2.7727	4.3636	5.e-002	10.979
13881	2.7727	4.0909	0.	1.6543e-003
13882	2.6803	4.1818	0.	8.2519e-003
13883	2.7727	4.1818	5.e-002	10.956
13884	2.7727	3.9091	0.	-6.4727e-003
13885	2.6803	4.	0.	-1.2208e-003
13886	2.7727	4.	5.e-002	10.933
13887	2.7727	3.7273	0.	-1.2222e-002
13888	2.6803	3.8182	0.	-7.8809e-003
13889	2.7727	3.8182	5.e-002	10.913
13890	2.7727	3.5455	0.	-1.6139e-002
13891	2.6803	3.6364	0.	-1.242e-002
13892	2.7727	3.6364	5.e-002	10.899
13893	2.7727	3.3636	0.	-1.8644e-002
13894	2.6803	3.4545	0.	-1.537e-002
13895	2.7727	3.4545	5.e-002	10.89
13896	2.7727	3.1818	0.	-2.003e-002
13897	2.6803	3.2727	0.	-1.7126e-002
13898	2.7727	3.2727	5.e-002	10.885
13899	2.7727	3.	0.	-2.0473e-002
13900	2.6803	3.0909	0.	-1.794e-002
13901	2.7727	3.0909	5.e-002	10.882
13902	2.7727	2.8182	0.	-2.003e-002
13903	2.6803	2.9091	0.	-1.794e-002
13904	2.7727	2.9091	5.e-002	10.882
13905	2.7727	2.6364	0.	-1.8644e-002
13906	2.6803	2.7273	0.	-1.7126e-002
13907	2.7727	2.7273	5.e-002	10.885
13908	2.7727	2.4545	0.	-1.6139e-002
13909	2.6803	2.5455	0.	-1.537e-002
13910	2.7727	2.5455	5.e-002	10.89
13911	2.7727	2.2727	0.	-1.2222e-002
13912	2.6803	2.3636	0.	-1.242e-002
13913	2.7727	2.3636	5.e-002	10.899
13914	2.7727	2.0909	0.	-6.4724e-003
13915	2.6803	2.1818	0.	-7.8807e-003
13916	2.7727	2.1818	5.e-002	10.913
13917	2.7727	1.9091	0.	1.6547e-003
13918	2.6803	2.	0.	-1.2205e-003
13919	2.7727	2.	5.e-002	10.933
13920	2.7727	1.7273	0.	1.2836e-002
13921	2.6803	1.8182	0.	8.2523e-003
13922	2.7727	1.8182	5.e-002	10.956
13923	2.7727	1.5455	0.	2.7945e-002
13924	2.6803	1.6364	0.	2.138e-002
13925	2.7727	1.6364	5.e-002	10.979
13926	2.7727	1.3636	0.	4.7961e-002
13927	2.6803	1.4545	0.	3.9308e-002
13928	2.7727	1.4545	5.e-002	10.996
13929	2.7727	1.1818	0.	7.4801e-002
13930	2.6803	1.2727	0.	6.3153e-002
13931	2.7727	1.2727	5.e-002	10.998
13932	2.7727	1.	0.	0.10927
13933	2.6803	1.0909	0.	9.6107e-002
13934	2.7727	1.0909	5.e-002	10.974
13935	2.7727	0.81818	0.	0.16304
13936	2.6803	0.90909	0.	0.13717
13937	2.7727	0.90909	5.e-002	10.915
13938	2.7727	0.63636	0.	0.2194
13939	2.6803	0.72727	0.	0.21287
13940	2.7727	0.72727	5.e-002	10.812
13941	2.7727	0.45455	0.	0.47023
13942	2.6803	0.54545	0.	0.26634
13943	2.7727	0.54545	5.e-002	10.689
13944	2.7727	0.27273	0.	0.88226
13945	2.6803	0.36364	0.	0.77846
13946	2.7727	0.36364	5.e-002	10.884
13947	2.6803	0.18182	0.	1.916
13948	2.7727	0.18182	5.e-002	18.805
13949	2.7727	9.0909e-002	0.	0.571
13950	2.5879	5.7273	0.	1.0207
13951	2.4955	5.8182	0.	2.4168
13952	2.5879	5.8182	5.e-002	20.074
13953	2.5879	5.9091	0.	0.65078
13954	2.5879	5.5455	0.	0.52233
13955	2.4955	5.6364	0.	0.86727
13956	2.5879	5.6364	5.e-002	11.385
13957	2.5879	5.3636	0.	0.244
13958	2.4955	5.4545	0.	0.29841
13959	2.5879	5.4545	5.e-002	11.228
13960	2.5879	5.1818	0.	0.17994
13961	2.4955	5.2727	0.	0.2356
13962	2.5879	5.2727	5.e-002	11.389
13963	2.5879	5.	0.	0.12008
13964	2.4955	5.0909	0.	0.15113
13965	2.5879	5.0909	5.e-002	11.516
13966	2.5879	4.8182	0.	8.1969e-002
13967	2.4955	4.9091	0.	0.10535
13968	2.5879	4.9091	5.e-002	11.588
13969	2.5879	4.6364	0.	5.2775e-002
13970	2.4955	4.7273	0.	6.9237e-002
13971	2.5879	4.7273	5.e-002	11.618
13972	2.5879	4.4545	0.	3.1468e-002
13973	2.4955	4.5455	0.	4.3658e-002
13974	2.5879	4.5455	5.e-002	11.619
13975	2.5879	4.2727	0.	1.5807e-002
13976	2.4955	4.3636	0.	2.4947e-002
13977	2.5879	4.3636	5.e-002	11.606
13978	2.5879	4.0909	0.	4.5806e-003
13979	2.4955	4.1818	0.	1.17e-002
13980	2.5879	4.1818	5.e-002	11.589
13981	2.5879	3.9091	0.	-3.2921e-003
13982	2.4955	4.	0.	2.5051e-003
13983	2.5879	4.	5.e-002	11.574
13984	2.5879	3.7273	0.	-8.6485e-003
13985	2.4955	3.8182	0.	-3.6819e-003
13986	2.5879	3.8182	5.e-002	11.566
13987	2.5879	3.5455	0.	-1.2155e-002
13988	2.4955	3.6364	0.	-7.7024e-003
13989	2.5879	3.6364	5.e-002	11.563
13990	2.5879	3.3636	0.	-1.4314e-002
13991	2.4955	3.4545	0.	-1.0192e-002
13992	2.5879	3.4545	5.e-002	11.563
13993	2.5879	3.1818	0.	-1.5474e-002
13994	2.4955	3.2727	0.	-1.161e-002
13995	2.5879	3.2727	5.e-002	11.566
13996	2.5879	3.	0.	-1.5838e-002
13997	2.4955	3.0909	0.	-1.2247e-002
13998	2.5879	3.0909	5.e-002	11.567
13999	2.5879	2.8182	0.	-1.5474e-002
14000	2.4955	2.9091	0.	-1.2247e-002
14001	2.5879	2.9091	5.e-002	11.567
14002	2.5879	2.6364	0.	-1.4314e-002
14003	2.4955	2.7273	0.	-1.161e-002
14004	2.5879	2.7273	5.e-002	11.566
14005	2.5879	2.4545	0.	-1.2155e-002
14006	2.4955	2.5455	0.	-1.0192e-002
14007	2.5879	2.5455	5.e-002	11.563
14008	2.5879	2.2727	0.	-8.6483e-003
14009	2.4955	2.3636	0.	-7.7023e-003
14010	2.5879	2.3636	5.e-002	11.563
14011	2.5879	2.0909	0.	-3.2919e-003
14012	2.4955	2.1818	0.	-3.6816e-003
14013	2.5879	2.1818	5.e-002	11.566
14014	2.5879	1.9091	0.	4.5809e-003
14015	2.4955	2.	0.	2.5053e-003
14016	2.5879	2.	5.e-002	11.575
14017	2.5879	1.7273	0.	1.5808e-002
14018	2.4955	1.8182	0.	1.17e-002
14019	2.5879	1.8182	5.e-002	11.589
14020	2.5879	1.5455	0.	3.1468e-002
14021	2.4955	1.6364	0.	2.4947e-002
14022	2.5879	1.6364	5.e-002	11.606
14023	2.5879	1.3636	0.	5.2776e-002
14024	2.4955	1.4545	0.	4.3658e-002
14025	2.5879	1.4545	5.e-002	11.619
14026	2.5879	1.1818	0.	8.197e-002
14027	2.4955	1.2727	0.	6.9238e-002
14028	2.5879	1.2727	5.e-002	11.618
14029	2.5879	1.	0.	0.12008
14030	2.4955	1.0909	0.	0.10535
14031	2.5879	1.0909	5.e-002	11.588
14032	2.5879	0.81818	0.	0.17994
14033	2.4955	0.90909	0.	0.15113
14034	2.5879	0.90909	5.e-002	11.516
14035	2.5879	0.63636	0.	0.244
14036	2.4955	0.72727	0.	0.2356
14037	2.5879	0.72727	5.e-002	11.389
14038	2.5879	0.45455	0.	0.52233
14039	2.4955	0.54545	0.	0.29841
14040	2.5879	0.54545	5.e-002	11.228
14041	2.5879	0.27273	0.	1.0207
14042	2.4955	0.36364	0.	0.86728
14043	2.5879	0.36364	5.e-002	11.385
14044	2.4955	0.18182	0.	2.4168
14045	2.5879	0.18182	5.e-002	20.075
14046	2.5879	9.0909e-002	0.	0.65079
14047	2.403	5.7273	0.	1.1884
14048	2.3106	5.8182	0.	3.1133
14049	2.403	5.8182	5.e-002	21.375
14050	2.403	5.9091	0.	0.7588
14051	2.403	5.5455	0.	0.58158
14052	2.3106	5.6364	0.	0.96923
14053	2.403	5.6364	5.e-002	11.946
14054	2.403	5.3636	0.	0.27179
14055	2.3106	5.4545	0.	0.33497
14056	2.403	5.4545	5.e-002	11.853
14057	2.403	5.1818	0.	0.19868
14058	2.3106	5.2727	0.	0.26082
14059	2.403	5.2727	5.e-002	12.059
14060	2.403	5.	0.	0.1319
14061	2.3106	5.0909	0.	0.16623
14062	2.403	5.0909	5.e-002	12.211
14063	2.403	4.8182	0.	8.9768e-002
14064	2.3106	4.9091	0.	0.11514
14065	2.403	4.9091	5.e-002	12.294
14066	2.403	4.6364	0.	5.815e-002
14067	2.3106	4.7273	0.	7.5675e-002
14068	2.403	4.7273	5.e-002	12.326
14069	2.403	4.4545	0.	3.5687e-002
14070	2.3106	4.5455	0.	4.846e-002
14071	2.403	4.5455	5.e-002	12.328
14072	2.403	4.2727	0.	1.9722e-002
14073	2.3106	4.3636	0.	2.9224e-002
14074	2.403	4.3636	5.e-002	12.319
14075	2.403	4.0909	0.	8.7316e-003
14076	2.3106	4.1818	0.	1.6171e-002
14077	2.403	4.1818	5.e-002	12.309
14078	2.403	3.9091	0.	1.3788e-003
14079	2.3106	4.	0.	7.5537e-003
14080	2.403	4.	5.e-002	12.307
14081	2.403	3.7273	0.	-3.3624e-003
14082	2.3106	3.8182	0.	2.0898e-003
14083	2.403	3.8182	5.e-002	12.313
14084	2.403	3.5455	0.	-6.2895e-003
14085	2.3106	3.6364	0.	-1.2242e-003
14086	2.403	3.6364	5.e-002	12.325
14087	2.403	3.3636	0.	-7.9875e-003
14088	2.3106	3.4545	0.	-3.1241e-003
14089	2.403	3.4545	5.e-002	12.339
14090	2.403	3.1818	0.	-8.854e-003
14091	2.3106	3.2727	0.	-4.1249e-003
14092	2.403	3.2727	5.e-002	12.351
14093	2.403	3.	0.	-9.118e-003
14094	2.3106	3.0909	0.	-4.5482e-003
14095	2.403	3.0909	5.e-002	12.358
14096	2.403	2.8182	0.	-8.854e-003
14097	2.3106	2.9091	0.	-4.5482e-003
14098	2.403	2.9091	5.e-002	12.358
14099	2.403	2.6364	0.	-7.9874e-003
14100	2.3106	2.7273	0.	-4.1248e-003
14101	2.403	2.7273	5.e-002	12.351
14102	2.403	2.4545	0.	-6.2894e-003
14103	2.3106	2.5455	0.	-3.124e-003
14104	2.403	2.5455	5.e-002	12.339
14105	2.403	2.2727	0.	-3.3622e-003
14106	2.3106	2.3636	0.	-1.224e-003
14107	2.403	2.3636	5.e-002	12.325
14108	2.403	2.0909	0.	1.379e-003
14109	2.3106	2.1818	0.	2.09e-003
14110	2.403	2.1818	5.e-002	12.313
14111	2.403	1.9091	0.	8.7319e-003
14112	2.3106	2.	0.	7.5539e-003
14113	2.403	2.	5.e-002	12.307
14114	2.403	1.7273	0.	1.9722e-002
14115	2.3106	1.8182	0.	1.6171e-002
14116	2.403	1.8182	5.e-002	12.31
14117	2.403	1.5455	0.	3.5687e-002
14118	2.3106	1.6364	0.	2.9224e-002
14119	2.403	1.6364	5.e-002	12.319
14120	2.403	1.3636	0.	5.8151e-002
14121	2.3106	1.4545	0.	4.846e-002
14122	2.403	1.4545	5.e-002	12.329
14123	2.403	1.1818	0.	8.9769e-002
14124	2.3106	1.2727	0.	7.5675e-002
14125	2.403	1.2727	5.e-002	12.326
14126	2.403	1.	0.	0.1319
14127	2.3106	1.0909	0.	0.11514
14128	2.403	1.0909	5.e-002	12.294
14129	2.403	0.81818	0.	0.19868
14130	2.3106	0.90909	0.	0.16624
14131	2.403	0.90909	5.e-002	12.211
14132	2.403	0.63636	0.	0.27179
14133	2.3106	0.72727	0.	0.26082
14134	2.403	0.72727	5.e-002	12.059
14135	2.403	0.45455	0.	0.58158
14136	2.3106	0.54545	0.	0.33497
14137	2.403	0.54545	5.e-002	11.853
14138	2.403	0.27273	0.	1.1884
14139	2.3106	0.36364	0.	0.96924
14140	2.403	0.36364	5.e-002	11.946
14141	2.3106	0.18182	0.	3.1133
14142	2.403	0.18182	5.e-002	21.375
14143	2.403	9.0909e-002	0.	0.75881
14144	2.2182	5.7273	0.	1.3934
14145	2.1258	5.8182	0.	4.1176
14146	2.2182	5.8182	5.e-002	22.691
14147	2.2182	5.9091	0.	0.91887
14148	2.2182	5.5455	0.	0.64898
14149	2.1258	5.6364	0.	1.0876
14150	2.2182	5.6364	5.e-002	12.593
14151	2.2182	5.3636	0.	0.30286
14152	2.1258	5.4545	0.	0.37743
14153	2.2182	5.4545	5.e-002	12.595
14154	2.2182	5.1818	0.	0.21903
14155	2.1258	5.2727	0.	0.28956
14156	2.2182	5.2727	5.e-002	12.851
14157	2.2182	5.	0.	0.1443
14158	2.1258	5.0909	0.	0.1833
14159	2.2182	5.0909	5.e-002	13.025
14160	2.2182	4.8182	0.	9.7766e-002
14161	2.1258	4.9091	0.	0.12627
14162	2.2182	4.9091	5.e-002	13.112
14163	2.2182	4.6364	0.	6.3722e-002
14164	2.1258	4.7273	0.	8.3366e-002
14165	2.2182	4.7273	5.e-002	13.14
14166	2.2182	4.4545	0.	4.0341e-002
14167	2.1258	4.5455	0.	5.4766e-002
14168	2.2182	4.5455	5.e-002	13.139
14169	2.2182	4.2727	0.	2.4408e-002
14170	2.1258	4.3636	0.	3.5395e-002
14171	2.2182	4.3636	5.e-002	13.131
14172	2.2182	4.0909	0.	1.3993e-002
14173	2.1258	4.1818	0.	2.2934e-002
14174	2.2182	4.1818	5.e-002	13.131
14175	2.2182	3.9091	0.	7.4497e-003
14176	2.1258	4.	0.	1.5229e-002
14177	2.2182	4.	5.e-002	13.145
14178	2.2182	3.7273	0.	3.5432e-003
14179	2.1258	3.8182	0.	1.0734e-002
14180	2.2182	3.8182	5.e-002	13.169
14181	2.2182	3.5455	0.	1.3467e-003
14182	2.1258	3.6364	0.	8.2868e-003
14183	2.2182	3.6364	5.e-002	13.2
14184	2.2182	3.3636	0.	2.0312e-004
14185	2.1258	3.4545	0.	7.0708e-003
14186	2.2182	3.4545	5.e-002	13.231
14187	2.2182	3.1818	0.	-3.2083e-004
14188	2.1258	3.2727	0.	6.5348e-003
14189	2.2182	3.2727	5.e-002	13.255
14190	2.2182	3.	0.	-4.6918e-004
14191	2.1258	3.0909	0.	6.3454e-003
14192	2.2182	3.0909	5.e-002	13.268
14193	2.2182	2.8182	0.	-3.2071e-004
14194	2.1258	2.9091	0.	6.3455e-003
14195	2.2182	2.9091	5.e-002	13.268
14196	2.2182	2.6364	0.	2.0324e-004
14197	2.1258	2.7273	0.	6.535e-003
14198	2.2182	2.7273	5.e-002	13.255
14199	2.2182	2.4545	0.	1.3468e-003
14200	2.1258	2.5455	0.	7.0708e-003
14201	2.2182	2.5455	5.e-002	13.231
14202	2.2182	2.2727	0.	3.5434e-003
14203	2.1258	2.3636	0.	8.287e-003
14204	2.2182	2.3636	5.e-002	13.2
14205	2.2182	2.0909	0.	7.4498e-003
14206	2.1258	2.1818	0.	1.0734e-002
14207	2.2182	2.1818	5.e-002	13.169
14208	2.2182	1.9091	0.	1.3993e-002
14209	2.1258	2.	0.	1.5229e-002
14210	2.2182	2.	5.e-002	13.145
14211	2.2182	1.7273	0.	2.4408e-002
14212	2.1258	1.8182	0.	2.2935e-002
14213	2.2182	1.8182	5.e-002	13.132
14214	2.2182	1.5455	0.	4.0341e-002
14215	2.1258	1.6364	0.	3.5395e-002
14216	2.2182	1.6364	5.e-002	13.131
14217	2.2182	1.3636	0.	6.3722e-002
14218	2.1258	1.4545	0.	5.4766e-002
14219	2.2182	1.4545	5.e-002	13.139
14220	2.2182	1.1818	0.	9.7766e-002
14221	2.1258	1.2727	0.	8.3367e-002
14222	2.2182	1.2727	5.e-002	13.14
14223	2.2182	1.	0.	0.1443
14224	2.1258	1.0909	0.	0.12627
14225	2.2182	1.0909	5.e-002	13.112
14226	2.2182	0.81818	0.	0.21903
14227	2.1258	0.90909	0.	0.1833
14228	2.2182	0.90909	5.e-002	13.026
14229	2.2182	0.63636	0.	0.30286
14230	2.1258	0.72727	0.	0.28956
14231	2.2182	0.72727	5.e-002	12.851
14232	2.2182	0.45455	0.	0.64898
14233	2.1258	0.54545	0.	0.37743
14234	2.2182	0.54545	5.e-002	12.595
14235	2.2182	0.27273	0.	1.3934
14236	2.1258	0.36364	0.	1.0876
14237	2.2182	0.36364	5.e-002	12.593
14238	2.1258	0.18182	0.	4.1176
14239	2.2182	0.18182	5.e-002	22.692
14240	2.2182	9.0909e-002	0.	0.91887
14241	2.0333	5.7273	0.	1.6477
14242	1.9409	5.8182	0.	5.6275
14243	2.0333	5.8182	5.e-002	24.001
14244	2.0333	5.9091	0.	1.1947
14245	2.0333	5.5455	0.	0.72747
14246	1.9409	5.6364	0.	1.2243
14247	2.0333	5.6364	5.e-002	13.365
14248	2.0333	5.3636	0.	0.33941
14249	1.9409	5.4545	0.	0.42472
14250	2.0333	5.4545	5.e-002	13.5
14251	2.0333	5.1818	0.	0.24296
14252	1.9409	5.2727	0.	0.31975
14253	2.0333	5.2727	5.e-002	13.808
14254	2.0333	5.	0.	0.15926
14255	1.9409	5.0909	0.	0.19979
14256	2.0333	5.0909	5.e-002	13.994
14257	2.0333	4.8182	0.	0.10807
14258	1.9409	4.9091	0.	0.1361
14259	2.0333	4.9091	5.e-002	14.07
14260	2.0333	4.6364	0.	7.1798e-002
14261	1.9409	4.7273	0.	8.9725e-002
14262	2.0333	4.7273	5.e-002	14.081
14263	2.0333	4.4545	0.	4.7923e-002
14264	1.9409	4.5455	0.	6.0093e-002
14265	2.0333	4.5455	5.e-002	14.068
14266	2.0333	4.2727	0.	3.2489e-002
14267	1.9409	4.3636	0.	4.1039e-002
14268	2.0333	4.3636	5.e-002	14.061
14269	2.0333	4.0909	0.	2.3054e-002
14270	1.9409	4.1818	0.	2.9566e-002
14271	2.0333	4.1818	5.e-002	14.072
14272	2.0333	3.9091	0.	1.7617e-002
14273	1.9409	4.	0.	2.3045e-002
14274	2.0333	4.	5.e-002	14.104
14275	2.0333	3.7273	0.	1.4736e-002
14276	1.9409	3.8182	0.	1.9665e-002
14277	2.0333	3.8182	5.e-002	14.152
14278	2.0333	3.5455	0.	1.3376e-002
14279	1.9409	3.6364	0.	1.8139e-002
14280	2.0333	3.6364	5.e-002	14.205
14281	2.0333	3.3636	0.	1.2837e-002
14282	1.9409	3.4545	0.	1.7606e-002
14283	2.0333	3.4545	5.e-002	14.255
14284	2.0333	3.1818	0.	1.2674e-002
14285	1.9409	3.2727	0.	1.7513e-002
14286	2.0333	3.2727	5.e-002	14.293
14287	2.0333	3.	0.	1.2646e-002
14288	1.9409	3.0909	0.	1.7541e-002
14289	2.0333	3.0909	5.e-002	14.313
14290	2.0333	2.8182	0.	1.2674e-002
14291	1.9409	2.9091	0.	1.7541e-002
14292	2.0333	2.9091	5.e-002	14.313
14293	2.0333	2.6364	0.	1.2837e-002
14294	1.9409	2.7273	0.	1.7513e-002
14295	2.0333	2.7273	5.e-002	14.293
14296	2.0333	2.4545	0.	1.3376e-002
14297	1.9409	2.5455	0.	1.7606e-002
14298	2.0333	2.5455	5.e-002	14.255
14299	2.0333	2.2727	0.	1.4736e-002
14300	1.9409	2.3636	0.	1.8139e-002
14301	2.0333	2.3636	5.e-002	14.205
14302	2.0333	2.0909	0.	1.7617e-002
14303	1.9409	2.1818	0.	1.9666e-002
14304	2.0333	2.1818	5.e-002	14.152
14305	2.0333	1.9091	0.	2.3054e-002
14306	1.9409	2.	0.	2.3045e-002
14307	2.0333	2.	5.e-002	14.105
14308	2.0333	1.7273	0.	3.2489e-002
14309	1.9409	1.8182	0.	2.9567e-002
14310	2.0333	1.8182	5.e-002	14.072
14311	2.0333	1.5455	0.	4.7923e-002
14312	1.9409	1.6364	0.	4.104e-002
14313	2.0333	1.6364	5.e-002	14.061
14314	2.0333	1.3636	0.	7.1798e-002
14315	1.9409	1.4545	0.	6.0094e-002
14316	2.0333	1.4545	5.e-002	14.068
14317	2.0333	1.1818	0.	0.10807
14318	1.9409	1.2727	0.	8.9725e-002
14319	2.0333	1.2727	5.e-002	14.081
14320	2.0333	1.	0.	0.15926
14321	1.9409	1.0909	0.	0.1361
14322	2.0333	1.0909	5.e-002	14.07
14323	2.0333	0.81818	0.	0.24296
14324	1.9409	0.90909	0.	0.19979
14325	2.0333	0.90909	5.e-002	13.994
14326	2.0333	0.63636	0.	0.33941
14327	1.9409	0.72727	0.	0.31975
14328	2.0333	0.72727	5.e-002	13.808
14329	2.0333	0.45455	0.	0.72747
14330	1.9409	0.54545	0.	0.42472
14331	2.0333	0.54545	5.e-002	13.501
14332	2.0333	0.27273	0.	1.6477
14333	1.9409	0.36364	0.	1.2243
14334	2.0333	0.36364	5.e-002	13.365
14335	1.9409	0.18182	0.	5.6275
14336	2.0333	0.18182	5.e-002	24.001
14337	2.0333	9.0909e-002	0.	1.1947
14338	1.8485	5.7273	0.	1.9632
14339	1.7561	5.8182	0.	8.0091
14340	1.8485	5.8182	5.e-002	25.273
14341	1.8485	5.9091	0.	1.8108
14342	1.8485	5.5455	0.	0.81405
14343	1.7561	5.6364	0.	1.3908
14344	1.8485	5.6364	5.e-002	14.328
14345	1.8485	5.3636	0.	0.37592
14346	1.7561	5.4545	0.	0.48723
14347	1.8485	5.4545	5.e-002	14.639
14348	1.8485	5.1818	0.	0.26383
14349	1.7561	5.2727	0.	0.36216
14350	1.8485	5.2727	5.e-002	14.988
14351	1.8485	5.	0.	0.16958
14352	1.7561	5.0909	0.	0.2269
14353	1.8485	5.0909	5.e-002	15.162
14354	1.8485	4.8182	0.	0.11331
14355	1.7561	4.9091	0.	0.15646
14356	1.8485	4.9091	5.e-002	15.2
14357	1.8485	4.6364	0.	7.4987e-002
14358	1.7561	4.7273	0.	0.10719
14359	1.8485	4.7273	5.e-002	15.174
14360	1.8485	4.4545	0.	5.1033e-002
14361	1.7561	4.5455	0.	7.7356e-002
14362	1.8485	4.5455	5.e-002	15.14
14363	1.8485	4.2727	0.	3.6499e-002
14364	1.7561	4.3636	0.	5.9354e-002
14365	1.8485	4.3636	5.e-002	15.129
14366	1.8485	4.0909	0.	2.8318e-002
14367	1.7561	4.1818	0.	4.9372e-002
14368	1.8485	4.1818	5.e-002	15.153
14369	1.8485	3.9091	0.	2.4118e-002
14370	1.7561	4.	0.	4.4296e-002
14371	1.8485	4.	5.e-002	15.207
14372	1.8485	3.7273	0.	2.2276e-002
14373	1.7561	3.8182	0.	4.2108e-002
14374	1.8485	3.8182	5.e-002	15.281
14375	1.8485	3.5455	0.	2.17e-002
14376	1.7561	3.6364	0.	4.1463e-002
14377	1.8485	3.6364	5.e-002	15.358
14378	1.8485	3.3636	0.	2.1694e-002
14379	1.7561	3.4545	0.	4.1526e-002
14380	1.8485	3.4545	5.e-002	15.428
14381	1.8485	3.1818	0.	2.1836e-002
14382	1.7561	3.2727	0.	4.1793e-002
14383	1.8485	3.2727	5.e-002	15.479
14384	1.8485	3.	0.	2.1906e-002
14385	1.7561	3.0909	0.	4.1987e-002
14386	1.8485	3.0909	5.e-002	15.506
14387	1.8485	2.8182	0.	2.1836e-002
14388	1.7561	2.9091	0.	4.1987e-002
14389	1.8485	2.9091	5.e-002	15.506
14390	1.8485	2.6364	0.	2.1694e-002
14391	1.7561	2.7273	0.	4.1793e-002
14392	1.8485	2.7273	5.e-002	15.479
14393	1.8485	2.4545	0.	2.1701e-002
14394	1.7561	2.5455	0.	4.1526e-002
14395	1.8485	2.5455	5.e-002	15.427
14396	1.8485	2.2727	0.	2.2276e-002
14397	1.7561	2.3636	0.	4.1463e-002
14398	1.8485	2.3636	5.e-002	15.358
14399	1.8485	2.0909	0.	2.4118e-002
14400	1.7561	2.1818	0.	4.2108e-002
14401	1.8485	2.1818	5.e-002	15.281
14402	1.8485	1.9091	0.	2.8319e-002
14403	1.7561	2.	0.	4.4296e-002
14404	1.8485	2.	5.e-002	15.208
14405	1.8485	1.7273	0.	3.6499e-002
14406	1.7561	1.8182	0.	4.9372e-002
14407	1.8485	1.8182	5.e-002	15.153
14408	1.8485	1.5455	0.	5.1033e-002
14409	1.7561	1.6364	0.	5.9355e-002
14410	1.8485	1.6364	5.e-002	15.129
14411	1.8485	1.3636	0.	7.4987e-002
14412	1.7561	1.4545	0.	7.7357e-002
14413	1.8485	1.4545	5.e-002	15.14
14414	1.8485	1.1818	0.	0.11331
14415	1.7561	1.2727	0.	0.10719
14416	1.8485	1.2727	5.e-002	15.174
14417	1.8485	1.	0.	0.16958
14418	1.7561	1.0909	0.	0.15646
14419	1.8485	1.0909	5.e-002	15.2
14420	1.8485	0.81818	0.	0.26383
14421	1.7561	0.90909	0.	0.2269
14422	1.8485	0.90909	5.e-002	15.162
14423	1.8485	0.63636	0.	0.37592
14424	1.7561	0.72727	0.	0.36216
14425	1.8485	0.72727	5.e-002	14.989
14426	1.8485	0.45455	0.	0.81405
14427	1.7561	0.54545	0.	0.48722
14428	1.8485	0.54545	5.e-002	14.639
14429	1.8485	0.27273	0.	1.9632
14430	1.7561	0.36364	0.	1.3908
14431	1.8485	0.36364	5.e-002	14.328
14432	1.7561	0.18182	0.	8.0092
14433	1.8485	0.18182	5.e-002	25.273
14434	1.8485	9.0909e-002	0.	1.8108
14435	1.6636	5.7273	0.	2.3732
14436	1.5712	5.8182	0.	11.903
14437	1.6636	5.8182	5.e-002	26.465
14438	1.6636	5.9091	0.	3.8997
14439	1.6636	5.5455	0.	0.93211
14440	1.5712	5.6364	0.	1.5676
14441	1.6636	5.6364	5.e-002	15.593
14442	1.6636	5.3636	0.	0.43878
14443	1.5712	5.4545	0.	0.53232
14444	1.6636	5.4545	5.e-002	16.117
14445	1.6636	5.1818	0.	0.3101
14446	1.5712	5.2727	0.	0.37839
14447	1.6636	5.2727	5.e-002	16.476
14448	1.6636	5.	0.	0.20541
14449	1.5712	5.0909	0.	0.22302
14450	1.6636	5.0909	5.e-002	16.588
14451	1.6636	4.8182	0.	0.14509
14452	1.5712	4.9091	0.	0.14392
14453	1.6636	4.9091	5.e-002	16.545
14454	1.6636	4.6364	0.	0.10602
14455	1.5712	4.7273	0.	9.1167e-002
14456	1.6636	4.7273	5.e-002	16.452
14457	1.6636	4.4545	0.	8.3182e-002
14458	1.5712	4.5455	0.	6.0959e-002
14459	1.6636	4.5455	5.e-002	16.38
14460	1.6636	4.2727	0.	7.0411e-002
14461	1.5712	4.3636	0.	4.3788e-002
14462	1.6636	4.3636	5.e-002	16.362
14463	1.6636	4.0909	0.	6.399e-002
14464	1.5712	4.1818	0.	3.4889e-002
14465	1.6636	4.1818	5.e-002	16.4
14466	1.6636	3.9091	0.	6.1239e-002
14467	1.5712	4.	0.	3.0697e-002
14468	1.6636	4.	5.e-002	16.478
14469	1.6636	3.7273	0.	6.0461e-002
14470	1.5712	3.8182	0.	2.9078e-002
14471	1.6636	3.8182	5.e-002	16.576
14472	1.6636	3.5455	0.	6.0597e-002
14473	1.5712	3.6364	0.	2.8725e-002
14474	1.6636	3.6364	5.e-002	16.676
14475	1.6636	3.3636	0.	6.1024e-002
14476	1.5712	3.4545	0.	2.8894e-002
14477	1.6636	3.4545	5.e-002	16.763
14478	1.6636	3.1818	0.	6.1394e-002
14479	1.5712	3.2727	0.	2.9175e-002
14480	1.6636	3.2727	5.e-002	16.826
14481	1.6636	3.	0.	6.1535e-002
14482	1.5712	3.0909	0.	2.9358e-002
14483	1.6636	3.0909	5.e-002	16.858
14484	1.6636	2.8182	0.	6.1394e-002
14485	1.5712	2.9091	0.	2.9358e-002
14486	1.6636	2.9091	5.e-002	16.858
14487	1.6636	2.6364	0.	6.1025e-002
14488	1.5712	2.7273	0.	2.9175e-002
14489	1.6636	2.7273	5.e-002	16.826
14490	1.6636	2.4545	0.	6.0597e-002
14491	1.5712	2.5455	0.	2.8895e-002
14492	1.6636	2.5455	5.e-002	16.763
14493	1.6636	2.2727	0.	6.0461e-002
14494	1.5712	2.3636	0.	2.8725e-002
14495	1.6636	2.3636	5.e-002	16.676
14496	1.6636	2.0909	0.	6.1239e-002
14497	1.5712	2.1818	0.	2.9078e-002
14498	1.6636	2.1818	5.e-002	16.576
14499	1.6636	1.9091	0.	6.399e-002
14500	1.5712	2.	0.	3.0697e-002
14501	1.6636	2.	5.e-002	16.478
14502	1.6636	1.7273	0.	7.0411e-002
14503	1.5712	1.8182	0.	3.489e-002
14504	1.6636	1.8182	5.e-002	16.4
14505	1.6636	1.5455	0.	8.3183e-002
14506	1.5712	1.6364	0.	4.3788e-002
14507	1.6636	1.6364	5.e-002	16.362
14508	1.6636	1.3636	0.	0.10602
14509	1.5712	1.4545	0.	6.0959e-002
14510	1.6636	1.4545	5.e-002	16.38
14511	1.6636	1.1818	0.	0.14509
14512	1.5712	1.2727	0.	9.1168e-002
14513	1.6636	1.2727	5.e-002	16.452
14514	1.6636	1.	0.	0.20541
14515	1.5712	1.0909	0.	0.14392
14516	1.6636	1.0909	5.e-002	16.545
14517	1.6636	0.81818	0.	0.3101
14518	1.5712	0.90909	0.	0.22302
14519	1.6636	0.90909	5.e-002	16.588
14520	1.6636	0.63636	0.	0.43878
14521	1.5712	0.72727	0.	0.37839
14522	1.6636	0.72727	5.e-002	16.476
14523	1.6636	0.45455	0.	0.93211
14524	1.5712	0.54545	0.	0.53232
14525	1.6636	0.54545	5.e-002	16.117
14526	1.6636	0.27273	0.	2.3732
14527	1.5712	0.36364	0.	1.5676
14528	1.6636	0.36364	5.e-002	15.593
14529	1.5712	0.18182	0.	11.904
14530	1.6636	0.18182	5.e-002	26.465
14531	1.6636	9.0909e-002	0.	3.8998
14532	1.4788	5.7273	0.	2.8546
14533	1.3864	5.8182	0.	18.371
14534	1.4788	5.8182	5.e-002	27.526
14535	1.4788	5.9091	0.	10.169
14536	1.4788	5.5455	0.	1.0042
14537	1.3864	5.6364	0.	1.8675
14538	1.4788	5.6364	5.e-002	17.34
14539	1.4788	5.3636	0.	0.43015
14540	1.3864	5.4545	0.	0.70323
14541	1.4788	5.4545	5.e-002	18.092
14542	1.4788	5.1818	0.	0.27312
14543	1.3864	5.2727	0.	0.52831
14544	1.4788	5.2727	5.e-002	18.384
14545	1.4788	5.	0.	0.15149
14546	1.3864	5.0909	0.	0.35927
14547	1.4788	5.0909	5.e-002	18.347
14548	1.4788	4.8182	0.	8.376e-002
14549	1.3864	4.9091	0.	0.2779
14550	1.4788	4.9091	5.e-002	18.153
14551	1.4788	4.6364	0.	4.197e-002
14552	1.3864	4.7273	0.	0.227
14553	1.4788	4.7273	5.e-002	17.952
14554	1.4788	4.4545	0.	1.8718e-002
14555	1.3864	4.5455	0.	0.20043
14556	1.4788	4.5455	5.e-002	17.827
14557	1.4788	4.2727	0.	6.2503e-003
14558	1.3864	4.3636	0.	0.18675
14559	1.4788	4.3636	5.e-002	17.798
14560	1.4788	4.0909	0.	1.3006e-004
14561	1.3864	4.1818	0.	0.18054
14562	1.4788	4.1818	5.e-002	17.847
14563	1.4788	3.9091	0.	-2.5632e-003
14564	1.3864	4.	0.	0.17811
14565	1.4788	4.	5.e-002	17.945
14566	1.4788	3.7273	0.	-3.5131e-003
14567	1.3864	3.8182	0.	0.17751
14568	1.4788	3.8182	5.e-002	18.063
14569	1.4788	3.5455	0.	-3.6735e-003
14570	1.3864	3.6364	0.	0.17766
14571	1.4788	3.6364	5.e-002	18.177
14572	1.4788	3.3636	0.	-3.5517e-003
14573	1.3864	3.4545	0.	0.17802
14574	1.4788	3.4545	5.e-002	18.273
14575	1.4788	3.1818	0.	-3.4034e-003
14576	1.3864	3.2727	0.	0.17834
14577	1.4788	3.2727	5.e-002	18.341
14578	1.4788	3.	0.	-3.3433e-003
14579	1.3864	3.0909	0.	0.17852
14580	1.4788	3.0909	5.e-002	18.376
14581	1.4788	2.8182	0.	-3.4034e-003
14582	1.3864	2.9091	0.	0.17852
14583	1.4788	2.9091	5.e-002	18.376
14584	1.4788	2.6364	0.	-3.5516e-003
14585	1.3864	2.7273	0.	0.17834
14586	1.4788	2.7273	5.e-002	18.341
14587	1.4788	2.4545	0.	-3.6733e-003
14588	1.3864	2.5455	0.	0.17802
14589	1.4788	2.5455	5.e-002	18.273
14590	1.4788	2.2727	0.	-3.5129e-003
14591	1.3864	2.3636	0.	0.17766
14592	1.4788	2.3636	5.e-002	18.177
14593	1.4788	2.0909	0.	-2.5632e-003
14594	1.3864	2.1818	0.	0.17751
14595	1.4788	2.1818	5.e-002	18.063
14596	1.4788	1.9091	0.	1.3022e-004
14597	1.3864	2.	0.	0.17811
14598	1.4788	2.	5.e-002	17.946
14599	1.4788	1.7273	0.	6.2506e-003
14600	1.3864	1.8182	0.	0.18054
14601	1.4788	1.8182	5.e-002	17.847
14602	1.4788	1.5455	0.	1.8718e-002
14603	1.3864	1.6364	0.	0.18675
14604	1.4788	1.6364	5.e-002	17.798
14605	1.4788	1.3636	0.	4.1971e-002
14606	1.3864	1.4545	0.	0.20043
14607	1.4788	1.4545	5.e-002	17.827
14608	1.4788	1.1818	0.	8.376e-002
14609	1.3864	1.2727	0.	0.227
14610	1.4788	1.2727	5.e-002	17.952
14611	1.4788	1.	0.	0.15149
14612	1.3864	1.0909	0.	0.2779
14613	1.4788	1.0909	5.e-002	18.153
14614	1.4788	0.81818	0.	0.27312
14615	1.3864	0.90909	0.	0.35927
14616	1.4788	0.90909	5.e-002	18.347
14617	1.4788	0.63636	0.	0.43015
14618	1.3864	0.72727	0.	0.52831
14619	1.4788	0.72727	5.e-002	18.384
14620	1.4788	0.45455	0.	1.0042
14621	1.3864	0.54545	0.	0.70323
14622	1.4788	0.54545	5.e-002	18.092
14623	1.4788	0.27273	0.	2.8546
14624	1.3864	0.36364	0.	1.8675
14625	1.4788	0.36364	5.e-002	17.34
14626	1.3864	0.18182	0.	18.371
14627	1.4788	0.18182	5.e-002	27.526
14628	1.4788	9.0909e-002	0.	10.169
14629	1.2939	5.7273	0.	3.6444
14630	1.2015	5.8182	0.	28.444
14631	1.2939	5.8182	5.e-002	28.396
14632	1.2939	5.9091	0.	20.349
14633	1.2939	5.5455	0.	1.3615
14634	1.2015	5.6364	0.	1.8907
14635	1.2939	5.6364	5.e-002	19.865
14636	1.2939	5.3636	0.	0.75032
14637	1.2015	5.4545	0.	0.45553
14638	1.2939	5.4545	5.e-002	20.794
14639	1.2939	5.1818	0.	0.59223
14640	1.2015	5.2727	0.	0.19499
14641	1.2939	5.2727	5.e-002	20.862
14642	1.2939	5.	0.	0.47348
14643	1.2015	5.0909	0.	-2.658e-002
14644	1.2939	5.0909	5.e-002	20.523
14645	1.2939	4.8182	0.	0.41369
14646	1.2015	4.9091	0.	-0.13545
14647	1.2939	4.9091	5.e-002	20.077
14648	1.2939	4.6364	0.	0.38065
14649	1.2015	4.7273	0.	-0.2026
14650	1.2939	4.7273	5.e-002	19.722
14651	1.2939	4.4545	0.	0.36526
14652	1.2015	4.5455	0.	-0.23981
14653	1.2939	4.5455	5.e-002	19.527
14654	1.2939	4.2727	0.	0.35885
14655	1.2015	4.3636	0.	-0.26173
14656	1.2939	4.3636	5.e-002	19.481
14657	1.2939	4.0909	0.	0.35698
14658	1.2015	4.1818	0.	-0.27493
14659	1.2939	4.1818	5.e-002	19.534
14660	1.2939	3.9091	0.	0.35706
14661	1.2015	4.	0.	-0.28342
14662	1.2939	4.	5.e-002	19.638
14663	1.2939	3.7273	0.	0.35783
14664	1.2015	3.8182	0.	-0.2892
14665	1.2939	3.8182	5.e-002	19.758
14666	1.2939	3.5455	0.	0.35867
14667	1.2015	3.6364	0.	-0.29326
14668	1.2939	3.6364	5.e-002	19.869
14669	1.2939	3.3636	0.	0.35934
14670	1.2015	3.4545	0.	-0.29608
14671	1.2939	3.4545	5.e-002	19.959
14672	1.2939	3.1818	0.	0.35975
14673	1.2015	3.2727	0.	-0.29788
14674	1.2939	3.2727	5.e-002	20.021
14675	1.2939	3.	0.	0.35989
14676	1.2015	3.0909	0.	-0.29877
14677	1.2939	3.0909	5.e-002	20.053
14678	1.2939	2.8182	0.	0.35975
14679	1.2015	2.9091	0.	-0.29877
14680	1.2939	2.9091	5.e-002	20.053
14681	1.2939	2.6364	0.	0.35934
14682	1.2015	2.7273	0.	-0.29788
14683	1.2939	2.7273	5.e-002	20.021
14684	1.2939	2.4545	0.	0.35867
14685	1.2015	2.5455	0.	-0.29608
14686	1.2939	2.5455	5.e-002	19.959
14687	1.2939	2.2727	0.	0.35783
14688	1.2015	2.3636	0.	-0.29326
14689	1.2939	2.3636	5.e-002	19.869
14690	1.2939	2.0909	0.	0.35706
14691	1.2015	2.1818	0.	-0.2892
14692	1.2939	2.1818	5.e-002	19.758
14693	1.2939	1.9091	0.	0.35698
14694	1.2015	2.	0.	-0.28342
14695	1.2939	2.	5.e-002	19.639
14696	1.2939	1.7273	0.	0.35885
14697	1.2015	1.8182	0.	-0.27493
14698	1.2939	1.8182	5.e-002	19.534
14699	1.2939	1.5455	0.	0.36526
14700	1.2015	1.6364	0.	-0.26173
14701	1.2939	1.6364	5.e-002	19.481
14702	1.2939	1.3636	0.	0.38065
14703	1.2015	1.4545	0.	-0.23981
14704	1.2939	1.4545	5.e-002	19.527
14705	1.2939	1.1818	0.	0.41369
14706	1.2015	1.2727	0.	-0.2026
14707	1.2939	1.2727	5.e-002	19.722
14708	1.2939	1.	0.	0.47348
14709	1.2015	1.0909	0.	-0.13545
14710	1.2939	1.0909	5.e-002	20.077
14711	1.2939	0.81818	0.	0.59223
14712	1.2015	0.90909	0.	-2.6579e-002
14713	1.2939	0.90909	5.e-002	20.523
14714	1.2939	0.63636	0.	0.75032
14715	1.2015	0.72727	0.	0.19499
14716	1.2939	0.72727	5.e-002	20.862
14717	1.2939	0.45455	0.	1.3615
14718	1.2015	0.54545	0.	0.45553
14719	1.2939	0.54545	5.e-002	20.794
14720	1.2939	0.27273	0.	3.6444
14721	1.2015	0.36364	0.	1.8907
14722	1.2939	0.36364	5.e-002	19.865
14723	1.2015	0.18182	0.	28.444
14724	1.2939	0.18182	5.e-002	28.396
14725	1.2939	9.0909e-002	0.	20.349
14726	1.1091	5.7273	0.	3.986
14727	1.0167	5.8182	0.	43.29
14728	1.1091	5.8182	5.e-002	29.086
14729	1.1091	5.9091	0.	33.675
14730	1.1091	5.5455	0.	0.72406
14731	1.0167	5.6364	0.	3.3167
14732	1.1091	5.6364	5.e-002	23.661
14733	1.1091	5.3636	0.	-0.16349
14734	1.0167	5.4545	0.	2.0047
14735	1.1091	5.4545	5.e-002	24.554
14736	1.1091	5.1818	0.	-0.45157
14737	1.0167	5.2727	0.	1.8603
14738	1.1091	5.2727	5.e-002	24.09
14739	1.1091	5.	0.	-0.65055
14740	1.0167	5.0909	0.	1.7201
14741	1.1091	5.0909	5.e-002	23.212
14742	1.1091	4.8182	0.	-0.76066
14743	1.0167	4.9091	0.	1.6796
14744	1.1091	4.9091	5.e-002	22.391
14745	1.1091	4.6364	0.	-0.82859
14746	1.0167	4.7273	0.	1.666
14747	1.1091	4.7273	5.e-002	21.839
14748	1.1091	4.4545	0.	-0.87031
14749	1.0167	4.5455	0.	1.6695
14750	1.1091	4.5455	5.e-002	21.565
14751	1.1091	4.2727	0.	-0.89779
14752	1.0167	4.3636	0.	1.6778
14753	1.1091	4.3636	5.e-002	21.489
14754	1.1091	4.0909	0.	-0.91688
14755	1.0167	4.1818	0.	1.6868
14756	1.1091	4.1818	5.e-002	21.524
14757	1.1091	3.9091	0.	-0.93078
14758	1.0167	4.	0.	1.6946
14759	1.1091	4.	5.e-002	21.605
14760	1.1091	3.7273	0.	-0.94109
14761	1.0167	3.8182	0.	1.7007
14762	1.1091	3.8182	5.e-002	21.694
14763	1.1091	3.5455	0.	-0.94864
14764	1.0167	3.6364	0.	1.7053
14765	1.1091	3.6364	5.e-002	21.773
14766	1.1091	3.3636	0.	-0.95383
14767	1.0167	3.4545	0.	1.7085
14768	1.1091	3.4545	5.e-002	21.834
14769	1.1091	3.1818	0.	-0.95689
14770	1.0167	3.2727	0.	1.7105
14771	1.1091	3.2727	5.e-002	21.874
14772	1.1091	3.	0.	-0.95789
14773	1.0167	3.0909	0.	1.7114
14774	1.1091	3.0909	5.e-002	21.894
14775	1.1091	2.8182	0.	-0.95689
14776	1.0167	2.9091	0.	1.7114
14777	1.1091	2.9091	5.e-002	21.894
14778	1.1091	2.6364	0.	-0.95383
14779	1.0167	2.7273	0.	1.7105
14780	1.1091	2.7273	5.e-002	21.874
14781	1.1091	2.4545	0.	-0.94864
14782	1.0167	2.5455	0.	1.7085
14783	1.1091	2.5455	5.e-002	21.834
14784	1.1091	2.2727	0.	-0.94109
14785	1.0167	2.3636	0.	1.7053
14786	1.1091	2.3636	5.e-002	21.773
14787	1.1091	2.0909	0.	-0.93078
14788	1.0167	2.1818	0.	1.7007
14789	1.1091	2.1818	5.e-002	21.694
14790	1.1091	1.9091	0.	-0.91688
14791	1.0167	2.	0.	1.6946
14792	1.1091	2.	5.e-002	21.605
14793	1.1091	1.7273	0.	-0.89779
14794	1.0167	1.8182	0.	1.6868
14795	1.1091	1.8182	5.e-002	21.524
14796	1.1091	1.5455	0.	-0.87031
14797	1.0167	1.6364	0.	1.6778
14798	1.1091	1.6364	5.e-002	21.489
14799	1.1091	1.3636	0.	-0.82859
14800	1.0167	1.4545	0.	1.6695
14801	1.1091	1.4545	5.e-002	21.565
14802	1.1091	1.1818	0.	-0.76066
14803	1.0167	1.2727	0.	1.666
14804	1.1091	1.2727	5.e-002	21.839
14805	1.1091	1.	0.	-0.65055
14806	1.0167	1.0909	0.	1.6796
14807	1.1091	1.0909	5.e-002	22.391
14808	1.1091	0.81818	0.	-0.45157
14809	1.0167	0.90909	0.	1.7201
14810	1.1091	0.90909	5.e-002	23.212
14811	1.1091	0.63636	0.	-0.16349
14812	1.0167	0.72727	0.	1.8603
14813	1.1091	0.72727	5.e-002	24.09
14814	1.1091	0.45455	0.	0.72406
14815	1.0167	0.54545	0.	2.0047
14816	1.1091	0.54545	5.e-002	24.554
14817	1.1091	0.27273	0.	3.986
14818	1.0167	0.36364	0.	3.3167
14819	1.1091	0.36364	5.e-002	23.661
14820	1.0167	0.18182	0.	43.29
14821	1.1091	0.18182	5.e-002	29.086
14822	1.1091	9.0909e-002	0.	33.675
14823	0.92424	5.7273	0.	7.07
14824	0.83182	5.8182	0.	61.533
14825	0.92424	5.8182	5.e-002	29.79
14826	0.92424	5.9091	0.	51.403
14827	0.92424	5.5455	0.	4.2637
14828	0.83182	5.6364	0.	-0.39853
14829	0.92424	5.6364	5.e-002	29.511
14830	0.92424	5.3636	0.	3.9472
14831	0.83182	5.4545	0.	-3.3329
14832	0.92424	5.4545	5.e-002	29.83
14833	0.92424	5.1818	0.	3.9967
14834	0.83182	5.2727	0.	-4.2128
14835	0.92424	5.2727	5.e-002	28.248
14836	0.92424	5.	0.	4.0317
14837	0.83182	5.0909	0.	-4.8416
14838	0.92424	5.0909	5.e-002	26.477
14839	0.92424	4.8182	0.	4.0957
14840	0.83182	4.9091	0.	-5.2093
14841	0.92424	4.9091	5.e-002	25.152
14842	0.92424	4.6364	0.	4.1579
14843	0.83182	4.7273	0.	-5.4613
14844	0.92424	4.7273	5.e-002	24.373
14845	0.92424	4.4545	0.	4.2139
14846	0.83182	4.5455	0.	-5.6378
14847	0.92424	4.5455	5.e-002	23.997
14848	0.92424	4.2727	0.	4.26
14849	0.83182	4.3636	0.	-5.7693
14850	0.92424	4.3636	5.e-002	23.85
14851	0.92424	4.0909	0.	4.2967
14852	0.83182	4.1818	0.	-5.8695
14853	0.92424	4.1818	5.e-002	23.809
14854	0.92424	3.9091	0.	4.325
14855	0.83182	4.	0.	-5.9468
14856	0.92424	4.	5.e-002	23.806
14857	0.92424	3.7273	0.	4.3464
14858	0.83182	3.8182	0.	-6.0061
14859	0.92424	3.8182	5.e-002	23.811
14860	0.92424	3.5455	0.	4.3618
14861	0.83182	3.6364	0.	-6.0506
14862	0.92424	3.6364	5.e-002	23.812
14863	0.92424	3.3636	0.	4.3723
14864	0.83182	3.4545	0.	-6.0824
14865	0.92424	3.4545	5.e-002	23.81
14866	0.92424	3.1818	0.	4.3783
14867	0.83182	3.2727	0.	-6.103
14868	0.92424	3.2727	5.e-002	23.806
14869	0.92424	3.	0.	4.3803
14870	0.83182	3.0909	0.	-6.113
14871	0.92424	3.0909	5.e-002	23.803
14872	0.92424	2.8182	0.	4.3783
14873	0.83182	2.9091	0.	-6.113
14874	0.92424	2.9091	5.e-002	23.803
14875	0.92424	2.6364	0.	4.3723
14876	0.83182	2.7273	0.	-6.103
14877	0.92424	2.7273	5.e-002	23.806
14878	0.92424	2.4545	0.	4.3618
14879	0.83182	2.5455	0.	-6.0824
14880	0.92424	2.5455	5.e-002	23.81
14881	0.92424	2.2727	0.	4.3464
14882	0.83182	2.3636	0.	-6.0506
14883	0.92424	2.3636	5.e-002	23.812
14884	0.92424	2.0909	0.	4.325
14885	0.83182	2.1818	0.	-6.0061
14886	0.92424	2.1818	5.e-002	23.811
14887	0.92424	1.9091	0.	4.2967
14888	0.83182	2.	0.	-5.9468
14889	0.92424	2.	5.e-002	23.806
14890	0.92424	1.7273	0.	4.26
14891	0.83182	1.8182	0.	-5.8695
14892	0.92424	1.8182	5.e-002	23.809
14893	0.92424	1.5455	0.	4.2139
14894	0.83182	1.6364	0.	-5.7693
14895	0.92424	1.6364	5.e-002	23.85
14896	0.92424	1.3636	0.	4.1579
14897	0.83182	1.4545	0.	-5.6378
14898	0.92424	1.4545	5.e-002	23.997
14899	0.92424	1.1818	0.	4.0957
14900	0.83182	1.2727	0.	-5.4613
14901	0.92424	1.2727	5.e-002	24.373
14902	0.92424	1.	0.	4.0317
14903	0.83182	1.0909	0.	-5.2093
14904	0.92424	1.0909	5.e-002	25.152
14905	0.92424	0.81818	0.	3.9967
14906	0.83182	0.90909	0.	-4.8416
14907	0.92424	0.90909	5.e-002	26.477
14908	0.92424	0.63636	0.	3.9472
14909	0.83182	0.72727	0.	-4.2128
14910	0.92424	0.72727	5.e-002	28.248
14911	0.92424	0.45455	0.	4.2637
14912	0.83182	0.54545	0.	-3.3329
14913	0.92424	0.54545	5.e-002	29.831
14914	0.92424	0.27273	0.	7.07
14915	0.83182	0.36364	0.	-0.39853
14916	0.92424	0.36364	5.e-002	29.511
14917	0.83182	0.18182	0.	61.533
14918	0.92424	0.18182	5.e-002	29.79
14919	0.92424	9.0909e-002	0.	51.403
14920	0.73939	5.7273	0.	0.42208
14921	0.64697	5.8182	0.	87.074
14922	0.73939	5.8182	5.e-002	32.066
14923	0.73939	5.9091	0.	72.69
14924	0.73939	5.5455	0.	-8.4383
14925	0.64697	5.6364	0.	17.398
14926	0.73939	5.6364	5.e-002	38.786
14927	0.73939	5.3636	0.	-11.602
14928	0.64697	5.4545	0.	19.31
14929	0.73939	5.4545	5.e-002	37.157
14930	0.73939	5.1818	0.	-13.098
14931	0.64697	5.2727	0.	20.728
14932	0.73939	5.2727	5.e-002	33.491
14933	0.73939	5.	0.	-14.106
14934	0.64697	5.0909	0.	21.722
14935	0.73939	5.0909	5.e-002	30.506
14936	0.73939	4.8182	0.	-14.778
14937	0.64697	4.9091	0.	22.522
14938	0.73939	4.9091	5.e-002	28.668
14939	0.73939	4.6364	0.	-15.263
14940	0.64697	4.7273	0.	23.133
14941	0.73939	4.7273	5.e-002	27.685
14942	0.73939	4.4545	0.	-15.624
14943	0.64697	4.5455	0.	23.606
14944	0.73939	4.5455	5.e-002	27.172
14945	0.73939	4.2727	0.	-15.901
14946	0.64697	4.3636	0.	23.973
14947	0.73939	4.3636	5.e-002	26.875
14948	0.73939	4.0909	0.	-16.114
14949	0.64697	4.1818	0.	24.259
14950	0.73939	4.1818	5.e-002	26.667
14951	0.73939	3.9091	0.	-16.279
14952	0.64697	4.	0.	24.481
14953	0.73939	4.	5.e-002	26.496
14954	0.73939	3.7273	0.	-16.404
14955	0.64697	3.8182	0.	24.651
14956	0.73939	3.8182	5.e-002	26.347
14957	0.73939	3.5455	0.	-16.495
14958	0.64697	3.6364	0.	24.778
14959	0.73939	3.6364	5.e-002	26.22
14960	0.73939	3.3636	0.	-16.558
14961	0.64697	3.4545	0.	24.868
14962	0.73939	3.4545	5.e-002	26.119
14963	0.73939	3.1818	0.	-16.595
14964	0.64697	3.2727	0.	24.927
14965	0.73939	3.2727	5.e-002	26.048
14966	0.73939	3.	0.	-16.607
14967	0.64697	3.0909	0.	24.955
14968	0.73939	3.0909	5.e-002	26.012
14969	0.73939	2.8182	0.	-16.595
14970	0.64697	2.9091	0.	24.955
14971	0.73939	2.9091	5.e-002	26.012
14972	0.73939	2.6364	0.	-16.558
14973	0.64697	2.7273	0.	24.927
14974	0.73939	2.7273	5.e-002	26.048
14975	0.73939	2.4545	0.	-16.495
14976	0.64697	2.5455	0.	24.868
14977	0.73939	2.5455	5.e-002	26.119
14978	0.73939	2.2727	0.	-16.404
14979	0.64697	2.3636	0.	24.778
14980	0.73939	2.3636	5.e-002	26.22
14981	0.73939	2.0909	0.	-16.279
14982	0.64697	2.1818	0.	24.651
14983	0.73939	2.1818	5.e-002	26.347
14984	0.73939	1.9091	0.	-16.114
14985	0.64697	2.	0.	24.481
14986	0.73939	2.	5.e-002	26.496
14987	0.73939	1.7273	0.	-15.901
14988	0.64697	1.8182	0.	24.259
14989	0.73939	1.8182	5.e-002	26.667
14990	0.73939	1.5455	0.	-15.624
14991	0.64697	1.6364	0.	23.973
14992	0.73939	1.6364	5.e-002	26.875
14993	0.73939	1.3636	0.	-15.263
14994	0.64697	1.4545	0.	23.606
14995	0.73939	1.4545	5.e-002	27.172
14996	0.73939	1.1818	0.	-14.778
14997	0.64697	1.2727	0.	23.133
14998	0.73939	1.2727	5.e-002	27.685
14999	0.73939	1.	0.	-14.106
15000	0.64697	1.0909	0.	22.522
15001	0.73939	1.0909	5.e-002	28.668
15002	0.73939	0.81818	0.	-13.098
15003	0.64697	0.90909	0.	21.722
15004	0.73939	0.90909	5.e-002	30.506
15005	0.73939	0.63636	0.	-11.602
15006	0.64697	0.72727	0.	20.728
15007	0.73939	0.72727	5.e-002	33.491
15008	0.73939	0.45455	0.	-8.4383
15009	0.64697	0.54545	0.	19.31
15010	0.73939	0.54545	5.e-002	37.157
15011	0.73939	0.27273	0.	0.42209
15012	0.64697	0.36364	0.	17.398
15013	0.73939	0.36364	5.e-002	38.787
15014	0.64697	0.18182	0.	87.075
15015	0.73939	0.18182	5.e-002	32.066
15016	0.73939	9.0909e-002	0.	72.69
15017	0.55455	5.7273	0.	33.801
15018	0.46212	5.8182	0.	96.392
15019	0.55455	5.8182	5.e-002	40.053
15020	0.55455	5.9091	0.	107.47
15021	0.55455	5.5455	0.	44.585
15022	0.46212	5.6364	0.	-48.871
15023	0.55455	5.6364	5.e-002	53.81
15024	0.55455	5.3636	0.	51.494
15025	0.46212	5.4545	0.	-67.389
15026	0.55455	5.4545	5.e-002	46.879
15027	0.55455	5.1818	0.	55.489
15028	0.46212	5.2727	0.	-76.653
15029	0.55455	5.2727	5.e-002	39.648
15030	0.55455	5.	0.	58.324
15031	0.46212	5.0909	0.	-82.49
15032	0.55455	5.0909	5.e-002	35.179
15033	0.55455	4.8182	0.	60.422
15034	0.46212	4.9091	0.	-86.53
15035	0.55455	4.9091	5.e-002	32.705
15036	0.55455	4.6364	0.	61.997
15037	0.46212	4.7273	0.	-89.463
15038	0.55455	4.7273	5.e-002	31.308
15039	0.55455	4.4545	0.	63.201
15040	0.46212	4.5455	0.	-91.668
15041	0.55455	4.5455	5.e-002	30.391
15042	0.55455	4.2727	0.	64.132
15043	0.46212	4.3636	0.	-93.356
15044	0.55455	4.3636	5.e-002	29.695
15045	0.55455	4.0909	0.	64.853
15046	0.46212	4.1818	0.	-94.66
15047	0.55455	4.1818	5.e-002	29.12
15048	0.55455	3.9091	0.	65.409
15049	0.46212	4.	0.	-95.667
15050	0.55455	4.	5.e-002	28.631
15051	0.55455	3.7273	0.	65.831
15052	0.46212	3.8182	0.	-96.439
15053	0.55455	3.8182	5.e-002	28.221
15054	0.55455	3.5455	0.	66.141
15055	0.46212	3.6364	0.	-97.015
15056	0.55455	3.6364	5.e-002	27.89
15057	0.55455	3.3636	0.	66.353
15058	0.46212	3.4545	0.	-97.426
15059	0.55455	3.4545	5.e-002	27.639
15060	0.55455	3.1818	0.	66.476
15061	0.46212	3.2727	0.	-97.69
15062	0.55455	3.2727	5.e-002	27.471
15063	0.55455	3.	0.	66.517
15064	0.46212	3.0909	0.	-97.819
15065	0.55455	3.0909	5.e-002	27.387
15066	0.55455	2.8182	0.	66.476
15067	0.46212	2.9091	0.	-97.819
15068	0.55455	2.9091	5.e-002	27.387
15069	0.55455	2.6364	0.	66.353
15070	0.46212	2.7273	0.	-97.69
15071	0.55455	2.7273	5.e-002	27.471
15072	0.55455	2.4545	0.	66.141
15073	0.46212	2.5455	0.	-97.426
15074	0.55455	2.5455	5.e-002	27.639
15075	0.55455	2.2727	0.	65.831
15076	0.46212	2.3636	0.	-97.015
15077	0.55455	2.3636	5.e-002	27.89
15078	0.55455	2.0909	0.	65.409
15079	0.46212	2.1818	0.	-96.439
15080	0.55455	2.1818	5.e-002	28.221
15081	0.55455	1.9091	0.	64.853
15082	0.46212	2.	0.	-95.667
15083	0.55455	2.	5.e-002	28.631
15084	0.55455	1.7273	0.	64.132
15085	0.46212	1.8182	0.	-94.66
15086	0.55455	1.8182	5.e-002	29.12
15087	0.55455	1.5455	0.	63.201
15088	0.46212	1.6364	0.	-93.356
15089	0.55455	1.6364	5.e-002	29.696
15090	0.55455	1.3636	0.	61.997
15091	0.46212	1.4545	0.	-91.668
15092	0.55455	1.4545	5.e-002	30.391
15093	0.55455	1.1818	0.	60.422
15094	0.46212	1.2727	0.	-89.463
15095	0.55455	1.2727	5.e-002	31.308
15096	0.55455	1.	0.	58.324
15097	0.46212	1.0909	0.	-86.53
15098	0.55455	1.0909	5.e-002	32.705
15099	0.55455	0.81818	0.	55.489
15100	0.46212	0.90909	0.	-82.49
15101	0.55455	0.90909	5.e-002	35.179
15102	0.55455	0.63636	0.	51.494
15103	0.46212	0.72727	0.	-76.653
15104	0.55455	0.72727	5.e-002	39.648
15105	0.55455	0.45455	0.	44.585
15106	0.46212	0.54545	0.	-67.389
15107	0.55455	0.54545	5.e-002	46.879
15108	0.55455	0.27273	0.	33.801
15109	0.46212	0.36364	0.	-48.871
15110	0.55455	0.36364	5.e-002	53.81
15111	0.46212	0.18182	0.	96.392
15112	0.55455	0.18182	5.e-002	40.053
15113	0.55455	9.0909e-002	0.	107.47
15114	0.3697	5.7273	0.	-90.372
15115	0.27727	5.8182	0.	165.02
15116	0.3697	5.8182	5.e-002	70.04
15117	0.3697	5.9091	0.	132.57
15118	0.3697	5.5455	0.	-161.83
15119	0.27727	5.6364	0.	235.82
15120	0.3697	5.6364	5.e-002	78.007
15121	0.3697	5.3636	0.	-195.75
15122	0.27727	5.4545	0.	279.81
15123	0.3697	5.4545	5.e-002	59.431
15124	0.3697	5.1818	0.	-214.71
15125	0.27727	5.2727	0.	311.12
15126	0.3697	5.2727	5.e-002	48.92
15127	0.3697	5.	0.	-227.37
15128	0.27727	5.0909	0.	331.18
15129	0.3697	5.0909	5.e-002	43.534
15130	0.3697	4.8182	0.	-236.42
15131	0.27727	4.9091	0.	345.81
15132	0.3697	4.9091	5.e-002	40.681
15133	0.3697	4.6364	0.	-243.13
15134	0.27727	4.7273	0.	356.56
15135	0.3697	4.7273	5.e-002	38.758
15136	0.3697	4.4545	0.	-248.23
15137	0.27727	4.5455	0.	364.75
15138	0.3697	4.5455	5.e-002	37.267
15139	0.3697	4.2727	0.	-252.15
15140	0.27727	4.3636	0.	371.05
15141	0.3697	4.3636	5.e-002	36.037
15142	0.3697	4.0909	0.	-255.18
15143	0.27727	4.1818	0.	375.93
15144	0.3697	4.1818	5.e-002	35.007
15145	0.3697	3.9091	0.	-257.51
15146	0.27727	4.	0.	379.72
15147	0.3697	4.	5.e-002	34.15
15148	0.3697	3.7273	0.	-259.28
15149	0.27727	3.8182	0.	382.63
15150	0.3697	3.8182	5.e-002	33.453
15151	0.3697	3.5455	0.	-260.58
15152	0.27727	3.6364	0.	384.81
15153	0.3697	3.6364	5.e-002	32.905
15154	0.3697	3.3636	0.	-261.47
15155	0.27727	3.4545	0.	386.36
15156	0.3697	3.4545	5.e-002	32.501
15157	0.3697	3.1818	0.	-261.98
15158	0.27727	3.2727	0.	387.35
15159	0.3697	3.2727	5.e-002	32.234
15160	0.3697	3.	0.	-262.15
15161	0.27727	3.0909	0.	387.84
15162	0.3697	3.0909	5.e-002	32.101
15163	0.3697	2.8182	0.	-261.98
15164	0.27727	2.9091	0.	387.84
15165	0.3697	2.9091	5.e-002	32.101
15166	0.3697	2.6364	0.	-261.47
15167	0.27727	2.7273	0.	387.35
15168	0.3697	2.7273	5.e-002	32.234
15169	0.3697	2.4545	0.	-260.58
15170	0.27727	2.5455	0.	386.36
15171	0.3697	2.5455	5.e-002	32.501
15172	0.3697	2.2727	0.	-259.28
15173	0.27727	2.3636	0.	384.81
15174	0.3697	2.3636	5.e-002	32.905
15175	0.3697	2.0909	0.	-257.51
15176	0.27727	2.1818	0.	382.63
15177	0.3697	2.1818	5.e-002	33.453
15178	0.3697	1.9091	0.	-255.18
15179	0.27727	2.	0.	379.72
15180	0.3697	2.	5.e-002	34.15
15181	0.3697	1.7273	0.	-252.15
15182	0.27727	1.8182	0.	375.93
15183	0.3697	1.8182	5.e-002	35.007
15184	0.3697	1.5455	0.	-248.23
15185	0.27727	1.6364	0.	371.05
15186	0.3697	1.6364	5.e-002	36.037
15187	0.3697	1.3636	0.	-243.13
15188	0.27727	1.4545	0.	364.75
15189	0.3697	1.4545	5.e-002	37.267
15190	0.3697	1.1818	0.	-236.42
15191	0.27727	1.2727	0.	356.56
15192	0.3697	1.2727	5.e-002	38.758
15193	0.3697	1.	0.	-227.37
15194	0.27727	1.0909	0.	345.81
15195	0.3697	1.0909	5.e-002	40.681
15196	0.3697	0.81818	0.	-214.71
15197	0.27727	0.90909	0.	331.18
15198	0.3697	0.90909	5.e-002	43.534
15199	0.3697	0.63636	0.	-195.75
15200	0.27727	0.72727	0.	311.12
15201	0.3697	0.72727	5.e-002	48.92
15202	0.3697	0.45455	0.	-161.83
15203	0.27727	0.54545	0.	279.81
15204	0.3697	0.54545	5.e-002	59.431
15205	0.3697	0.27273	0.	-90.371
15206	0.27727	0.36364	0.	235.82
15207	0.3697	0.36364	5.e-002	78.007
15208	0.27727	0.18182	0.	165.02
15209	0.3697	0.18182	5.e-002	70.04
15210	0.3697	9.0909e-002	0.	132.57
15211	0.18485	5.7273	0.	448.25
15212	0.18485	5.8182	5.e-002	169.71
15213	0.18485	5.9091	0.	224.32
15214	9.2424e-002	5.8182	0.	-400.22
15215	0.18485	5.5455	0.	676.74
15216	0.18485	5.6364	5.e-002	108.29
15217	9.2424e-002	5.6364	0.	-831.75
15218	0.18485	5.3636	0.	786.63
15219	0.18485	5.4545	5.e-002	73.466
15220	9.2424e-002	5.4545	0.	-1029.2
15221	0.18485	5.1818	0.	857.04
15222	0.18485	5.2727	5.e-002	56.22
15223	9.2424e-002	5.2727	0.	-1145.8
15224	0.18485	5.	0.	904.39
15225	0.18485	5.0909	5.e-002	47.272
15226	9.2424e-002	5.0909	0.	-1224.5
15227	0.18485	4.8182	0.	938.82
15228	0.18485	4.9091	5.e-002	41.163
15229	9.2424e-002	4.9091	0.	-1280.5
15230	0.18485	4.6364	0.	964.46
15231	0.18485	4.7273	5.e-002	36.708
15232	9.2424e-002	4.7273	0.	-1322.1
15233	0.18485	4.4545	0.	984.04
15234	0.18485	4.5455	5.e-002	33.306
15235	9.2424e-002	4.5455	0.	-1353.6
15236	0.18485	4.2727	0.	999.14
15237	0.18485	4.3636	5.e-002	30.651
15238	9.2424e-002	4.3636	0.	-1377.9
15239	0.18485	4.0909	0.	1010.8
15240	0.18485	4.1818	5.e-002	28.56
15241	9.2424e-002	4.1818	0.	-1396.8
15242	0.18485	3.9091	0.	1019.9
15243	0.18485	4.	5.e-002	26.915
15244	9.2424e-002	4.	0.	-1411.4
15245	0.18485	3.7273	0.	1026.7
15246	0.18485	3.8182	5.e-002	25.635
15247	9.2424e-002	3.8182	0.	-1422.6
15248	0.18485	3.5455	0.	1031.8
15249	0.18485	3.6364	5.e-002	24.666
15250	9.2424e-002	3.6364	0.	-1431.
15251	0.18485	3.3636	0.	1035.2
15252	0.18485	3.4545	5.e-002	23.968
15253	9.2424e-002	3.4545	0.	-1437.
15254	0.18485	3.1818	0.	1037.2
15255	0.18485	3.2727	5.e-002	23.516
15256	9.2424e-002	3.2727	0.	-1440.8
15257	0.18485	3.	0.	1037.9
15258	0.18485	3.0909	5.e-002	23.294
15259	9.2424e-002	3.0909	0.	-1442.7
15260	0.18485	2.8182	0.	1037.2
15261	0.18485	2.9091	5.e-002	23.294
15262	9.2424e-002	2.9091	0.	-1442.7
15263	0.18485	2.6364	0.	1035.2
15264	0.18485	2.7273	5.e-002	23.516
15265	9.2424e-002	2.7273	0.	-1440.8
15266	0.18485	2.4545	0.	1031.8
15267	0.18485	2.5455	5.e-002	23.968
15268	9.2424e-002	2.5455	0.	-1437.
15269	0.18485	2.2727	0.	1026.7
15270	0.18485	2.3636	5.e-002	24.666
15271	9.2424e-002	2.3636	0.	-1431.
15272	0.18485	2.0909	0.	1019.9
15273	0.18485	2.1818	5.e-002	25.636
15274	9.2424e-002	2.1818	0.	-1422.6
15275	0.18485	1.9091	0.	1010.8
15276	0.18485	2.	5.e-002	26.915
15277	9.2424e-002	2.	0.	-1411.4
15278	0.18485	1.7273	0.	999.14
15279	0.18485	1.8182	5.e-002	28.56
15280	9.2424e-002	1.8182	0.	-1396.8
15281	0.18485	1.5455	0.	984.04
15282	0.18485	1.6364	5.e-002	30.651
15283	9.2424e-002	1.6364	0.	-1377.9
15284	0.18485	1.3636	0.	964.46
15285	0.18485	1.4545	5.e-002	33.306
15286	9.2424e-002	1.4545	0.	-1353.6
15287	0.18485	1.1818	0.	938.82
15288	0.18485	1.2727	5.e-002	36.708
15289	9.2424e-002	1.2727	0.	-1322.1
15290	0.18485	1.	0.	904.39
15291	0.18485	1.0909	5.e-002	41.164
15292	9.2424e-002	1.0909	0.	-1280.5
15293	0.18485	0.81818	0.	857.04
15294	0.18485	0.90909	5.e-002	47.272
15295	9.2424e-002	0.90909	0.	-1224.5
15296	0.18485	0.63636	0.	786.63
15297	0.18485	0.72727	5.e-002	56.22
15298	9.2424e-002	0.72727	0.	-1145.8
15299	0.18485	0.45455	0.	676.74
15300	0.18485	0.54545	5.e-002	73.467
15301	9.2424e-002	0.54545	0.	-1029.2
15302	0.18485	0.27273	0.	448.25
15303	0.18485	0.36364	5.e-002	108.29
15304	9.2424e-002	0.36364	0.	-831.75
15305	0.18485	0.18182	5.e-002	169.71
15306	0.18485	9.0909e-002	0.	224.33
15307	9.2424e-002	0.18182	0.	-400.22
15308	12.644	5.8182	0.	59.786
15309	12.551	5.7273	0.	110.43
15310	12.551	5.8182	5.e-002	38.366
15311	12.551	5.9091	0.	28.764
15312	12.459	5.8182	0.	33.191
15313	12.828	5.8182	0.	55.018
15314	12.736	5.7273	0.	66.063
15315	12.736	5.8182	5.e-002	33.668
15316	12.736	5.9091	0.	24.03
15317	13.013	5.8182	0.	56.876
15318	12.921	5.7273	0.	61.906
15319	12.921	5.8182	5.e-002	30.82
15320	12.921	5.9091	0.	28.35
15321	13.198	5.8182	0.	56.497
15322	13.105	5.7273	0.	62.304
15323	13.105	5.8182	5.e-002	27.472
15324	13.105	5.9091	0.	30.826
15325	13.382	5.8182	0.	53.457
15326	13.29	5.7273	0.	60.825
15327	13.29	5.8182	5.e-002	23.821
15328	13.29	5.9091	0.	30.696
15329	13.567	5.8182	0.	48.695
15330	13.475	5.7273	0.	57.042
15331	13.475	5.8182	5.e-002	20.138
15332	13.475	5.9091	0.	28.905
15333	13.752	5.8182	0.	43.048
15334	13.659	5.7273	0.	51.536
15335	13.659	5.8182	5.e-002	16.637
15336	13.659	5.9091	0.	26.157
15337	13.936	5.8182	0.	37.168
15338	13.844	5.7273	0.	45.107
15339	13.844	5.8182	5.e-002	13.457
15340	13.844	5.9091	0.	22.999
15341	14.121	5.8182	0.	31.499
15342	14.029	5.7273	0.	38.425
15343	14.029	5.8182	5.e-002	10.666
15344	14.029	5.9091	0.	19.795
15345	14.306	5.8182	0.	26.307
15346	14.213	5.7273	0.	31.967
15347	14.213	5.8182	5.e-002	8.2801
15348	14.213	5.9091	0.	16.774
15349	14.49	5.8182	0.	21.729
15350	14.398	5.7273	0.	26.034
15351	14.398	5.8182	5.e-002	6.2839
15352	14.398	5.9091	0.	14.06
15353	14.675	5.8182	0.	17.817
15354	14.583	5.7273	0.	20.788
15355	14.583	5.8182	5.e-002	4.6425
15356	14.583	5.9091	0.	11.71
15357	14.86	5.8182	0.	14.563
15358	14.767	5.7273	0.	16.294
15359	14.767	5.8182	5.e-002	3.3134
15360	14.767	5.9091	0.	9.7375
15361	15.044	5.8182	0.	11.929
15362	14.952	5.7273	0.	12.554
15363	14.952	5.8182	5.e-002	2.253
15364	14.952	5.9091	0.	8.1295
15365	15.229	5.8182	0.	9.8608
15366	15.137	5.7273	0.	9.5278
15367	15.137	5.8182	5.e-002	1.4215
15368	15.137	5.9091	0.	6.8592
15369	15.413	5.8182	0.	8.2958
15370	15.321	5.7273	0.	7.1572
15371	15.321	5.8182	5.e-002	0.78906
15372	15.321	5.9091	0.	5.8931
15373	15.598	5.8182	0.	7.1708
15374	15.506	5.7273	0.	5.3721
15375	15.506	5.8182	5.e-002	0.3653
15376	15.506	5.9091	0.	5.1956
15377	15.783	5.8182	0.	6.4249
15378	15.69	5.7273	0.	4.0994
15379	15.69	5.8182	5.e-002	0.31732
15380	15.69	5.9091	0.	4.7311
15381	15.967	5.8182	0.	6.0017
15382	15.875	5.7273	0.	3.2676
15383	15.875	5.8182	5.e-002	0.51261
15384	15.875	5.9091	0.	4.466
15385	16.152	5.8182	0.	5.8503
15386	16.06	5.7273	0.	2.8087
15387	16.06	5.8182	5.e-002	0.69093
15388	16.06	5.9091	0.	4.3692
15389	16.337	5.8182	0.	5.9259
15390	16.244	5.7273	0.	2.6619
15391	16.244	5.8182	5.e-002	0.82101
15392	16.244	5.9091	0.	4.413
15393	16.521	5.8182	0.	6.1894
15394	16.429	5.7273	0.	2.7749
15395	16.429	5.8182	5.e-002	0.9076
15396	16.429	5.9091	0.	4.5731
15397	16.706	5.8182	0.	6.6069
15398	16.614	5.7273	0.	3.1033
15399	16.614	5.8182	5.e-002	0.95921
15400	16.614	5.9091	0.	4.8288
15401	16.891	5.8182	0.	7.1494
15402	16.798	5.7273	0.	3.6078
15403	16.798	5.8182	5.e-002	0.9837
15404	16.798	5.9091	0.	5.1623
15405	17.075	5.8182	0.	7.7921
15406	16.983	5.7273	0.	4.2541
15407	16.983	5.8182	5.e-002	0.98784
15408	16.983	5.9091	0.	5.5586
15409	17.26	5.8182	0.	8.5138
15410	17.168	5.7273	0.	5.0124
15411	17.168	5.8182	5.e-002	0.97727
15412	17.168	5.9091	0.	6.0049
15413	17.445	5.8182	0.	9.2968
15414	17.352	5.7273	0.	5.8576
15415	17.352	5.8182	5.e-002	0.95646
15416	17.352	5.9091	0.	6.4906
15417	17.629	5.8182	0.	10.126
15418	17.537	5.7273	0.	6.7687
15419	17.537	5.8182	5.e-002	0.92906
15420	17.537	5.9091	0.	7.0066
15421	17.814	5.8182	0.	10.99
15422	17.722	5.7273	0.	7.7288
15423	17.722	5.8182	5.e-002	0.89801
15424	17.722	5.9091	0.	7.5456
15425	17.999	5.8182	0.	11.878
15426	17.906	5.7273	0.	8.724
15427	17.906	5.8182	5.e-002	0.86567
15428	17.906	5.9091	0.	8.1013
15429	18.183	5.8182	0.	12.783
15430	18.091	5.7273	0.	9.7432
15431	18.091	5.8182	5.e-002	0.83393
15432	18.091	5.9091	0.	8.6689
15433	18.368	5.8182	0.	13.697
15434	18.276	5.7273	0.	10.778
15435	18.276	5.8182	5.e-002	0.80433
15436	18.276	5.9091	0.	9.2443
15437	18.553	5.8182	0.	14.616
15438	18.46	5.7273	0.	11.821
15439	18.46	5.8182	5.e-002	0.77809
15440	18.46	5.9091	0.	9.8242
15441	18.737	5.8182	0.	15.536
15442	18.645	5.7273	0.	12.868
15443	18.645	5.8182	5.e-002	0.75623
15444	18.645	5.9091	0.	10.406
15445	18.922	5.8182	0.	16.454
15446	18.83	5.7273	0.	13.914
15447	18.83	5.8182	5.e-002	0.73951
15448	18.83	5.9091	0.	10.988
15449	19.107	5.8182	0.	17.367
15450	19.014	5.7273	0.	14.957
15451	19.014	5.8182	5.e-002	0.72862
15452	19.014	5.9091	0.	11.569
15453	19.291	5.8182	0.	18.273
15454	19.199	5.7273	0.	15.995
15455	19.199	5.8182	5.e-002	0.72394
15456	19.199	5.9091	0.	12.147
15457	19.476	5.8182	0.	19.171
15458	19.384	5.7273	0.	17.027
15459	19.384	5.8182	5.e-002	0.7259
15460	19.384	5.9091	0.	12.722
15461	19.661	5.8182	0.	20.059
15462	19.568	5.7273	0.	18.053
15463	19.568	5.8182	5.e-002	0.73467
15464	19.568	5.9091	0.	13.292
15465	19.845	5.8182	0.	20.938
15466	19.753	5.7273	0.	19.071
15467	19.753	5.8182	5.e-002	0.75041
15468	19.753	5.9091	0.	13.858
15469	20.03	5.8182	0.	21.805
15470	19.938	5.7273	0.	20.081
15471	19.938	5.8182	5.e-002	0.7732
15472	19.938	5.9091	0.	14.418
15473	20.215	5.8182	0.	22.659
15474	20.122	5.7273	0.	21.085
15475	20.122	5.8182	5.e-002	0.80305
15476	20.122	5.9091	0.	14.972
15477	20.399	5.8182	0.	23.5
15478	20.307	5.7273	0.	22.081
15479	20.307	5.8182	5.e-002	0.84001
15480	20.307	5.9091	0.	15.52
15481	20.584	5.8182	0.	24.326
15482	20.492	5.7273	0.	23.07
15483	20.492	5.8182	5.e-002	0.88415
15484	20.492	5.9091	0.	16.06
15485	20.769	5.8182	0.	25.136
15486	20.676	5.7273	0.	24.053
15487	20.676	5.8182	5.e-002	0.93558
15488	20.676	5.9091	0.	16.593
15489	20.953	5.8182	0.	25.927
15490	20.861	5.7273	0.	25.028
15491	20.861	5.8182	5.e-002	0.99445
15492	20.861	5.9091	0.	17.116
15493	21.138	5.8182	0.	26.697
15494	21.046	5.7273	0.	25.996
15495	21.046	5.8182	5.e-002	1.061
15496	21.046	5.9091	0.	17.629
15497	21.322	5.8182	0.	27.442
15498	21.23	5.7273	0.	26.956
15499	21.23	5.8182	5.e-002	1.1355
15500	21.23	5.9091	0.	18.13
15501	21.507	5.8182	0.	28.16
15502	21.415	5.7273	0.	27.908
15503	21.415	5.8182	5.e-002	1.2184
15504	21.415	5.9091	0.	18.617
15505	21.692	5.8182	0.	28.845
15506	21.599	5.7273	0.	28.85
15507	21.599	5.8182	5.e-002	1.3101
15508	21.599	5.9091	0.	19.088
15509	21.876	5.8182	0.	29.491
15510	21.784	5.7273	0.	29.782
15511	21.784	5.8182	5.e-002	1.4112
15512	21.784	5.9091	0.	19.538
15513	22.061	5.8182	0.	30.092
15514	21.969	5.7273	0.	30.702
15515	21.969	5.8182	5.e-002	1.5224
15516	21.969	5.9091	0.	19.965
15517	22.246	5.8182	0.	30.638
15518	22.153	5.7273	0.	31.609
15519	22.153	5.8182	5.e-002	1.6446
15520	22.153	5.9091	0.	20.364
15521	22.43	5.8182	0.	31.12
15522	22.338	5.7273	0.	32.503
15523	22.338	5.8182	5.e-002	1.7788
15524	22.338	5.9091	0.	20.728
15525	22.615	5.8182	0.	31.525
15526	22.523	5.7273	0.	33.385
15527	22.523	5.8182	5.e-002	1.9262
15528	22.523	5.9091	0.	21.05
15529	22.8	5.8182	0.	31.837
15530	22.707	5.7273	0.	34.258
15531	22.707	5.8182	5.e-002	2.0885
15532	22.707	5.9091	0.	21.319
15533	22.984	5.8182	0.	32.039
15534	22.892	5.7273	0.	35.134
15535	22.892	5.8182	5.e-002	2.268
15536	22.892	5.9091	0.	21.523
15537	23.169	5.8182	0.	32.115
15538	23.077	5.7273	0.	36.037
15539	23.077	5.8182	5.e-002	2.4678
15540	23.077	5.9091	0.	21.641
15541	23.354	5.8182	0.	32.063
15542	23.261	5.7273	0.	37.031
15543	23.261	5.8182	5.e-002	2.6934
15544	23.261	5.9091	0.	21.651
15545	23.538	5.8182	0.	31.961
15546	23.446	5.7273	0.	38.256
15547	23.446	5.8182	5.e-002	2.9519
15548	23.446	5.9091	0.	21.505
15549	23.723	5.8182	0.	32.505
15550	23.631	5.7273	0.	40.154
15551	23.631	5.8182	5.e-002	3.2769
15552	23.631	5.9091	0.	21.241
15553	23.815	5.7273	0.	44.101
15554	23.815	5.8182	5.e-002	3.9676
15555	23.908	5.8182	0.	34.007
15556	23.815	5.9091	0.	20.753
15557	12.644	5.6364	0.	103.94
15558	12.551	5.5455	0.	210.41
15559	12.551	5.6364	5.e-002	34.755
15560	12.459	5.6364	0.	105.97
15561	12.828	5.6364	0.	69.214
15562	12.736	5.5455	0.	113.27
15563	12.736	5.6364	5.e-002	28.903
15564	13.013	5.6364	0.	65.503
15565	12.921	5.5455	0.	87.359
15566	12.921	5.6364	5.e-002	25.883
15567	13.198	5.6364	0.	65.458
15568	13.105	5.5455	0.	78.725
15569	13.105	5.6364	5.e-002	22.284
15570	13.382	5.6364	0.	63.593
15571	13.29	5.5455	0.	73.187
15572	13.29	5.6364	5.e-002	18.565
15573	13.567	5.6364	0.	59.314
15574	13.475	5.5455	0.	67.071
15575	13.475	5.6364	5.e-002	14.985
15576	13.752	5.6364	0.	53.215
15577	13.659	5.5455	0.	59.719
15578	13.659	5.6364	5.e-002	11.712
15579	13.936	5.6364	0.	46.123
15580	13.844	5.5455	0.	51.515
15581	13.844	5.6364	5.e-002	8.8327
15582	14.121	5.6364	0.	38.753
15583	14.029	5.5455	0.	43.045
15584	14.029	5.6364	5.e-002	6.3695
15585	14.306	5.6364	0.	31.626
15586	14.213	5.5455	0.	34.82
15587	14.213	5.6364	5.e-002	4.3114
15588	14.49	5.6364	0.	25.074
15589	14.398	5.5455	0.	27.2
15590	14.398	5.6364	5.e-002	2.6362
15591	14.675	5.6364	0.	19.282
15592	14.583	5.5455	0.	20.405
15593	14.583	5.6364	5.e-002	1.3598
15594	14.86	5.6364	0.	14.325
15595	14.767	5.5455	0.	14.538
15596	14.767	5.6364	5.e-002	0.79726
15597	15.044	5.6364	0.	10.208
15598	14.952	5.5455	0.	9.6257
15599	14.952	5.6364	5.e-002	1.2475
15600	15.229	5.6364	0.	6.8932
15601	15.137	5.5455	0.	5.6446
15602	15.137	5.6364	5.e-002	1.8719
15603	15.413	5.6364	0.	4.3166
15604	15.321	5.5455	0.	2.569
15605	15.321	5.6364	5.e-002	2.411
15606	15.598	5.6364	0.	2.4068
15607	15.506	5.5455	0.	0.62087
15608	15.506	5.6364	5.e-002	2.8471
15609	15.783	5.6364	0.	1.1035
15610	15.69	5.5455	0.	0.1618
15611	15.69	5.6364	5.e-002	3.192
15612	15.967	5.6364	0.	0.39509
15613	15.875	5.5455	0.	8.162e-002
15614	15.875	5.6364	5.e-002	3.4609
15615	16.152	5.6364	0.	0.17153
15616	16.06	5.5455	0.	5.3634e-002
15617	16.06	5.6364	5.e-002	3.6679
15618	16.337	5.6364	0.	0.11608
15619	16.244	5.5455	0.	3.9934e-002
15620	16.244	5.6364	5.e-002	3.8251
15621	16.521	5.6364	0.	0.11546
15622	16.429	5.5455	0.	3.1818e-002
15623	16.429	5.6364	5.e-002	3.9426
15624	16.706	5.6364	0.	0.26351
15625	16.614	5.5455	0.	2.6328e-002
15626	16.614	5.6364	5.e-002	4.0286
15627	16.891	5.6364	0.	0.81049
15628	16.798	5.5455	0.	2.2225e-002
15629	16.798	5.6364	5.e-002	4.0896
15630	17.075	5.6364	0.	1.5702
15631	16.983	5.5455	0.	1.8988e-002
15632	16.983	5.6364	5.e-002	4.1312
15633	17.26	5.6364	0.	2.4561
15634	17.168	5.5455	0.	1.6547e-002
15635	17.168	5.6364	5.e-002	4.1575
15636	17.445	5.6364	0.	3.4343
15637	17.352	5.5455	0.	0.49357
15638	17.352	5.6364	5.e-002	4.1722
15639	17.629	5.6364	0.	4.4808
15640	17.537	5.5455	0.	1.6784
15641	17.537	5.6364	5.e-002	4.1778
15642	17.814	5.6364	0.	5.5767
15643	17.722	5.5455	0.	2.9233
15644	17.722	5.6364	5.e-002	4.1766
15645	17.999	5.6364	0.	6.7072
15646	17.906	5.5455	0.	4.2101
15647	17.906	5.6364	5.e-002	4.1703
15648	18.183	5.6364	0.	7.8607
15649	18.091	5.5455	0.	5.5247
15650	18.091	5.6364	5.e-002	4.1603
15651	18.368	5.6364	0.	9.0282
15652	18.276	5.5455	0.	6.8562
15653	18.276	5.6364	5.e-002	4.1475
15654	18.553	5.6364	0.	10.203
15655	18.46	5.5455	0.	8.1966
15656	18.46	5.6364	5.e-002	4.133
15657	18.737	5.6364	0.	11.38
15658	18.645	5.5455	0.	9.5401
15659	18.645	5.6364	5.e-002	4.1173
15660	18.922	5.6364	0.	12.557
15661	18.83	5.5455	0.	10.883
15662	18.83	5.6364	5.e-002	4.1009
15663	19.107	5.6364	0.	13.73
15664	19.014	5.5455	0.	12.222
15665	19.014	5.6364	5.e-002	4.0842
15666	19.291	5.6364	0.	14.899
15667	19.199	5.5455	0.	13.557
15668	19.199	5.6364	5.e-002	4.0676
15669	19.476	5.6364	0.	16.063
15670	19.384	5.5455	0.	14.887
15671	19.384	5.6364	5.e-002	4.0513
15672	19.661	5.6364	0.	17.223
15673	19.568	5.5455	0.	16.214
15674	19.568	5.6364	5.e-002	4.0356
15675	19.845	5.6364	0.	18.379
15676	19.753	5.5455	0.	17.538
15677	19.753	5.6364	5.e-002	4.0205
15678	20.03	5.6364	0.	19.532
15679	19.938	5.5455	0.	18.861
15680	19.938	5.6364	5.e-002	4.0062
15681	20.215	5.6364	0.	20.683
15682	20.122	5.5455	0.	20.186
15683	20.122	5.6364	5.e-002	3.9928
15684	20.399	5.6364	0.	21.834
15685	20.307	5.5455	0.	21.514
15686	20.307	5.6364	5.e-002	3.9804
15687	20.584	5.6364	0.	22.987
15688	20.492	5.5455	0.	22.85
15689	20.492	5.6364	5.e-002	3.9691
15690	20.769	5.6364	0.	24.142
15691	20.676	5.5455	0.	24.196
15692	20.676	5.6364	5.e-002	3.959
15693	20.953	5.6364	0.	25.303
15694	20.861	5.5455	0.	25.555
15695	20.861	5.6364	5.e-002	3.95
15696	21.138	5.6364	0.	26.47
15697	21.046	5.5455	0.	26.932
15698	21.046	5.6364	5.e-002	3.9423
15699	21.322	5.6364	0.	27.646
15700	21.23	5.5455	0.	28.33
15701	21.23	5.6364	5.e-002	3.9359
15702	21.507	5.6364	0.	28.833
15703	21.415	5.5455	0.	29.755
15704	21.415	5.6364	5.e-002	3.9309
15705	21.692	5.6364	0.	30.035
15706	21.599	5.5455	0.	31.213
15707	21.599	5.6364	5.e-002	3.9274
15708	21.876	5.6364	0.	31.255
15709	21.784	5.5455	0.	32.71
15710	21.784	5.6364	5.e-002	3.9254
15711	22.061	5.6364	0.	32.499
15712	21.969	5.5455	0.	34.257
15713	21.969	5.6364	5.e-002	3.925
15714	22.246	5.6364	0.	33.775
15715	22.153	5.5455	0.	35.865
15716	22.153	5.6364	5.e-002	3.9263
15717	22.43	5.6364	0.	35.094
15718	22.338	5.5455	0.	37.553
15719	22.338	5.6364	5.e-002	3.9296
15720	22.615	5.6364	0.	36.475
15721	22.523	5.5455	0.	39.347
15722	22.523	5.6364	5.e-002	3.935
15723	22.8	5.6364	0.	37.952
15724	22.707	5.5455	0.	41.287
15725	22.707	5.6364	5.e-002	3.9431
15726	22.984	5.6364	0.	39.581
15727	22.892	5.5455	0.	43.434
15728	22.892	5.6364	5.e-002	3.9547
15729	23.169	5.6364	0.	41.468
15730	23.077	5.5455	0.	45.891
15731	23.077	5.6364	5.e-002	3.9714
15732	23.354	5.6364	0.	43.823
15733	23.261	5.5455	0.	48.838
15734	23.261	5.6364	5.e-002	3.9967
15735	23.538	5.6364	0.	47.125
15736	23.446	5.5455	0.	52.583
15737	23.446	5.6364	5.e-002	4.0409
15738	23.723	5.6364	0.	52.377
15739	23.631	5.5455	0.	57.768
15740	23.631	5.6364	5.e-002	4.1437
15741	23.815	5.5455	0.	65.335
15742	23.815	5.6364	5.e-002	4.5086
15743	23.908	5.6364	0.	58.775
15744	12.644	5.4545	0.	199.26
15745	12.551	5.3636	0.	343.6
15746	12.551	5.4545	5.e-002	37.249
15747	12.459	5.4545	0.	205.56
15748	12.828	5.4545	0.	122.56
15749	12.736	5.3636	0.	197.63
15750	12.736	5.4545	5.e-002	29.227
15751	13.013	5.4545	0.	96.448
15752	12.921	5.3636	0.	138.09
15753	12.921	5.4545	5.e-002	25.967
15754	13.198	5.4545	0.	84.215
15755	13.105	5.3636	0.	107.87
15756	13.105	5.4545	5.e-002	22.129
15757	13.382	5.4545	0.	75.328
15758	13.29	5.3636	0.	89.041
15759	13.29	5.4545	5.e-002	18.188
15760	13.567	5.4545	0.	66.639
15761	13.475	5.3636	0.	74.738
15762	13.475	5.4545	5.e-002	14.474
15763	13.752	5.4545	0.	57.491
15764	13.659	5.3636	0.	62.251
15765	13.659	5.4545	5.e-002	11.17
15766	13.936	5.4545	0.	48.112
15767	13.844	5.3636	0.	50.751
15768	13.844	5.4545	5.e-002	8.3417
15769	14.121	5.4545	0.	38.92
15770	14.029	5.3636	0.	40.104
15771	14.029	5.4545	5.e-002	5.9925
15772	14.306	5.4545	0.	30.291
15773	14.213	5.3636	0.	30.399
15774	14.213	5.4545	5.e-002	4.1072
15775	14.49	5.4545	0.	22.488
15776	14.398	5.3636	0.	21.753
15777	14.398	5.4545	5.e-002	2.6941
15778	14.675	5.4545	0.	15.662
15779	14.583	5.3636	0.	14.253
15780	14.583	5.4545	5.e-002	1.8491
15781	14.86	5.4545	0.	9.8785
15782	14.767	5.3636	0.	7.959
15783	14.767	5.4545	5.e-002	1.706
15784	15.044	5.4545	0.	5.1606
15785	14.952	5.3636	0.	3.0612
15786	14.952	5.4545	5.e-002	2.0412
15787	15.229	5.4545	0.	1.6734
15788	15.137	5.3636	0.	0.67701
15789	15.137	5.4545	5.e-002	2.4946
15790	15.413	5.4545	0.	0.34254
15791	15.321	5.3636	0.	0.23883
15792	15.321	5.4545	5.e-002	2.918
15793	15.598	5.4545	0.	0.13668
15794	15.506	5.3636	0.	0.12491
15795	15.506	5.4545	5.e-002	3.2753
15796	15.783	5.4545	0.	7.7435e-002
15797	15.69	5.3636	0.	7.8071e-002
15798	15.69	5.4545	5.e-002	3.5647
15799	15.967	5.4545	0.	5.1259e-002
15800	15.875	5.3636	0.	5.3982e-002
15801	15.875	5.4545	5.e-002	3.7935
15802	16.152	5.4545	0.	3.7001e-002
15803	16.06	5.3636	0.	3.9851e-002
15804	16.06	5.4545	5.e-002	3.9714
15805	16.337	5.4545	0.	2.8191e-002
15806	16.244	5.3636	0.	3.0789e-002
15807	16.244	5.4545	5.e-002	4.1072
15808	16.521	5.4545	0.	2.2256e-002
15809	16.429	5.3636	0.	2.4595e-002
15810	16.429	5.4545	5.e-002	4.209
15811	16.706	5.4545	0.	1.7993e-002
15812	16.614	5.3636	0.	2.0144e-002
15813	16.614	5.4545	5.e-002	4.2836
15814	16.891	5.4545	0.	1.4801e-002
15815	16.798	5.3636	0.	1.6819e-002
15816	16.798	5.4545	5.e-002	4.3364
15817	17.075	5.4545	0.	1.2382e-002
15818	16.983	5.3636	0.	1.4322e-002
15819	16.983	5.4545	5.e-002	4.3722
15820	17.26	5.4545	0.	1.0634e-002
15821	17.168	5.3636	0.	1.2474e-002
15822	17.168	5.4545	5.e-002	4.3945
15823	17.445	5.4545	0.	1.0086e-002
15824	17.352	5.3636	0.	1.1257e-002
15825	17.352	5.4545	5.e-002	4.4063
15826	17.629	5.4545	0.	0.17073
15827	17.537	5.3636	0.	1.104e-002
15828	17.537	5.4545	5.e-002	4.41
15829	17.814	5.4545	0.	1.5906
15830	17.722	5.3636	0.	1.463e-002
15831	17.722	5.4545	5.e-002	4.4076
15832	17.999	5.4545	0.	3.0612
15833	17.906	5.3636	0.	0.46205
15834	17.906	5.4545	5.e-002	4.4004
15835	18.183	5.4545	0.	4.5543
15836	18.091	5.3636	0.	2.117
15837	18.091	5.4545	5.e-002	4.3897
15838	18.368	5.4545	0.	6.0596
15839	18.276	5.3636	0.	3.7996
15840	18.276	5.4545	5.e-002	4.3765
15841	18.553	5.4545	0.	7.5697
15842	18.46	5.3636	0.	5.487
15843	18.46	5.4545	5.e-002	4.3615
15844	18.737	5.4545	0.	9.0797
15845	18.645	5.3636	0.	7.173
15846	18.645	5.4545	5.e-002	4.3452
15847	18.922	5.4545	0.	10.587
15848	18.83	5.3636	0.	8.854
15849	18.83	5.4545	5.e-002	4.3281
15850	19.107	5.4545	0.	12.089
15851	19.014	5.3636	0.	10.529
15852	19.014	5.4545	5.e-002	4.3106
15853	19.291	5.4545	0.	13.587
15854	19.199	5.3636	0.	12.197
15855	19.199	5.4545	5.e-002	4.2929
15856	19.476	5.4545	0.	15.082
15857	19.384	5.3636	0.	13.861
15858	19.384	5.4545	5.e-002	4.2754
15859	19.661	5.4545	0.	16.574
15860	19.568	5.3636	0.	15.522
15861	19.568	5.4545	5.e-002	4.2581
15862	19.845	5.4545	0.	18.068
15863	19.753	5.3636	0.	17.184
15864	19.753	5.4545	5.e-002	4.2412
15865	20.03	5.4545	0.	19.565
15866	19.938	5.3636	0.	18.851
15867	19.938	5.4545	5.e-002	4.2249
15868	20.215	5.4545	0.	21.07
15869	20.122	5.3636	0.	20.527
15870	20.122	5.4545	5.e-002	4.2091
15871	20.399	5.4545	0.	22.586
15872	20.307	5.3636	0.	22.218
15873	20.307	5.4545	5.e-002	4.194
15874	20.584	5.4545	0.	24.119
15875	20.492	5.3636	0.	23.929
15876	20.492	5.4545	5.e-002	4.1797
15877	20.769	5.4545	0.	25.672
15878	20.676	5.3636	0.	25.667
15879	20.676	5.4545	5.e-002	4.1662
15880	20.953	5.4545	0.	27.252
15881	20.861	5.3636	0.	27.439
15882	20.861	5.4545	5.e-002	4.1536
15883	21.138	5.4545	0.	28.865
15884	21.046	5.3636	0.	29.252
15885	21.046	5.4545	5.e-002	4.142
15886	21.322	5.4545	0.	30.518
15887	21.23	5.3636	0.	31.115
15888	21.23	5.4545	5.e-002	4.1313
15889	21.507	5.4545	0.	32.219
15890	21.415	5.3636	0.	33.04
15891	21.415	5.4545	5.e-002	4.1216
15892	21.692	5.4545	0.	33.979
15893	21.599	5.3636	0.	35.038
15894	21.599	5.4545	5.e-002	4.113
15895	21.876	5.4545	0.	35.811
15896	21.784	5.3636	0.	37.124
15897	21.784	5.4545	5.e-002	4.1057
15898	22.061	5.4545	0.	37.732
15899	21.969	5.3636	0.	39.318
15900	21.969	5.4545	5.e-002	4.0996
15901	22.246	5.4545	0.	39.765
15902	22.153	5.3636	0.	41.645
15903	22.153	5.4545	5.e-002	4.095
15904	22.43	5.4545	0.	41.942
15905	22.338	5.3636	0.	44.138
15906	22.338	5.4545	5.e-002	4.0921
15907	22.615	5.4545	0.	44.31
15908	22.523	5.3636	0.	46.844
15909	22.523	5.4545	5.e-002	4.0914
15910	22.8	5.4545	0.	46.938
15911	22.707	5.3636	0.	49.828
15912	22.707	5.4545	5.e-002	4.0935
15913	22.984	5.4545	0.	49.934
15914	22.892	5.3636	0.	53.183
15915	22.892	5.4545	5.e-002	4.0998
15916	23.169	5.4545	0.	53.47
15917	23.077	5.3636	0.	57.051
15918	23.077	5.4545	5.e-002	4.1126
15919	23.354	5.4545	0.	57.815
15920	23.261	5.3636	0.	61.642
15921	23.261	5.4545	5.e-002	4.1371
15922	23.538	5.4545	0.	63.421
15923	23.446	5.3636	0.	67.248
15924	23.446	5.4545	5.e-002	4.1837
15925	23.723	5.4545	0.	70.866
15926	23.631	5.3636	0.	74.34
15927	23.631	5.4545	5.e-002	4.2787
15928	23.815	5.3636	0.	83.289
15929	23.815	5.4545	5.e-002	4.5653
15930	23.908	5.4545	0.	78.811
15931	12.644	5.2727	0.	319.88
15932	12.551	5.1818	0.	499.68
15933	12.551	5.2727	5.e-002	42.112
15934	12.459	5.2727	0.	321.45
15935	12.828	5.2727	0.	199.57
15936	12.736	5.1818	0.	302.86
15937	12.736	5.2727	5.e-002	30.958
15938	13.013	5.2727	0.	142.04
15939	12.921	5.1818	0.	203.92
15940	12.921	5.2727	5.e-002	26.884
15941	13.198	5.2727	0.	108.53
15942	13.105	5.1818	0.	143.92
15943	13.105	5.2727	5.e-002	22.416
15944	13.382	5.2727	0.	86.054
15945	13.29	5.1818	0.	105.03
15946	13.29	5.2727	5.e-002	18.071
15947	13.567	5.2727	0.	68.946
15948	13.475	5.1818	0.	78.148
15949	13.475	5.2727	5.e-002	14.18
15950	13.752	5.2727	0.	54.689
15951	13.659	5.1818	0.	58.16
15952	13.659	5.2727	5.e-002	10.872
15953	13.936	5.2727	0.	42.276
15954	13.844	5.1818	0.	42.419
15955	13.844	5.2727	5.e-002	8.1575
15956	14.121	5.2727	0.	31.338
15957	14.029	5.1818	0.	29.563
15958	14.029	5.2727	5.e-002	5.9999
15959	14.306	5.2727	0.	21.766
15960	14.213	5.1818	0.	18.916
15961	14.213	5.2727	5.e-002	4.3679
15962	14.49	5.2727	0.	13.548
15963	14.398	5.1818	0.	10.221
15964	14.398	5.2727	5.e-002	3.2593
15965	14.675	5.2727	0.	6.7702
15966	14.583	5.1818	0.	3.8484
15967	14.583	5.2727	5.e-002	2.6878
15968	14.86	5.2727	0.	2.0824
15969	14.767	5.1818	0.	1.112
15970	14.767	5.2727	5.e-002	2.5877
15971	15.044	5.2727	0.	0.57292
15972	14.952	5.1818	0.	0.45365
15973	14.952	5.2727	5.e-002	2.7705
15974	15.229	5.2727	0.	0.25152
15975	15.137	5.1818	0.	0.24032
15976	15.137	5.2727	5.e-002	3.0555
15977	15.413	5.2727	0.	0.14135
15978	15.321	5.1818	0.	0.14646
15979	15.321	5.2727	5.e-002	3.3463
15980	15.598	5.2727	0.	9.0583e-002
15981	15.506	5.1818	0.	9.7476e-002
15982	15.506	5.2727	5.e-002	3.605
15983	15.783	5.2727	0.	6.3093e-002
15984	15.69	5.1818	0.	6.9041e-002
15985	15.69	5.2727	5.e-002	3.8211
15986	15.967	5.2727	0.	4.6599e-002
15987	15.875	5.1818	0.	5.1267e-002
15988	15.875	5.2727	5.e-002	3.9951
15989	16.152	5.2727	0.	3.5946e-002
15990	16.06	5.1818	0.	3.9518e-002
15991	16.06	5.2727	5.e-002	4.1313
15992	16.337	5.2727	0.	2.8673e-002
15993	16.244	5.1818	0.	3.1399e-002
15994	16.244	5.2727	5.e-002	4.2355
15995	16.521	5.2727	0.	2.3488e-002
15996	16.429	5.1818	0.	2.56e-002
15997	16.429	5.2727	5.e-002	4.313
15998	16.706	5.2727	0.	1.9656e-002
15999	16.614	5.1818	0.	2.1333e-002
16000	16.614	5.2727	5.e-002	4.3689
16001	16.891	5.2727	0.	1.6771e-002
16002	16.798	5.1818	0.	1.8119e-002
16003	16.798	5.2727	5.e-002	4.4073
16004	17.075	5.2727	0.	1.4602e-002
16005	16.983	5.1818	0.	1.5707e-002
16006	16.983	5.2727	5.e-002	4.4318
16007	17.26	5.2727	0.	1.3019e-002
16008	17.168	5.1818	0.	1.3914e-002
16009	17.168	5.2727	5.e-002	4.4455
16010	17.445	5.2727	0.	1.2029e-002
16011	17.352	5.1818	0.	1.2646e-002
16012	17.352	5.2727	5.e-002	4.4506
16013	17.629	5.2727	0.	1.1905e-002
16014	17.537	5.1818	0.	1.1935e-002
16015	17.537	5.2727	5.e-002	4.4491
16016	17.814	5.2727	0.	1.403e-002
16017	17.722	5.1818	0.	1.2011e-002
16018	17.722	5.2727	5.e-002	4.4426
16019	17.999	5.2727	0.	3.9724e-002
16020	17.906	5.1818	0.	1.3861e-002
16021	17.906	5.2727	5.e-002	4.4322
16022	18.183	5.2727	0.	1.3962
16023	18.091	5.1818	0.	2.5274e-002
16024	18.091	5.2727	5.e-002	4.4191
16025	18.368	5.2727	0.	3.2575
16026	18.276	5.1818	0.	0.87295
16027	18.276	5.2727	5.e-002	4.4039
16028	18.553	5.2727	0.	5.1212
16029	18.46	5.1818	0.	2.9089
16030	18.46	5.2727	5.e-002	4.3873
16031	18.737	5.2727	0.	6.9792
16032	18.645	5.1818	0.	4.9496
16033	18.645	5.2727	5.e-002	4.3698
16034	18.922	5.2727	0.	8.8293
16035	18.83	5.1818	0.	6.9795
16036	18.83	5.2727	5.e-002	4.3518
16037	19.107	5.2727	0.	10.671
16038	19.014	5.1818	0.	8.9977
16039	19.014	5.2727	5.e-002	4.3335
16040	19.291	5.2727	0.	12.507
16041	19.199	5.1818	0.	11.006
16042	19.199	5.2727	5.e-002	4.3153
16043	19.476	5.2727	0.	14.339
16044	19.384	5.1818	0.	13.008
16045	19.384	5.2727	5.e-002	4.2972
16046	19.661	5.2727	0.	16.171
16047	19.568	5.1818	0.	15.007
16048	19.568	5.2727	5.e-002	4.2796
16049	19.845	5.2727	0.	18.009
16050	19.753	5.1818	0.	17.01
16051	19.753	5.2727	5.e-002	4.2624
16052	20.03	5.2727	0.	19.856
16053	19.938	5.1818	0.	19.023
16054	19.938	5.2727	5.e-002	4.2458
16055	20.215	5.2727	0.	21.721
16056	20.122	5.1818	0.	21.054
16057	20.122	5.2727	5.e-002	4.2299
16058	20.399	5.2727	0.	23.609
16059	20.307	5.1818	0.	23.109
16060	20.307	5.2727	5.e-002	4.2147
16061	20.584	5.2727	0.	25.529
16062	20.492	5.1818	0.	25.199
16063	20.492	5.2727	5.e-002	4.2003
16064	20.769	5.2727	0.	27.488
16065	20.676	5.1818	0.	27.331
16066	20.676	5.2727	5.e-002	4.1869
16067	20.953	5.2727	0.	29.496
16068	20.861	5.1818	0.	29.518
16069	20.861	5.2727	5.e-002	4.1743
16070	21.138	5.2727	0.	31.563
16071	21.046	5.1818	0.	31.771
16072	21.046	5.2727	5.e-002	4.1628
16073	21.322	5.2727	0.	33.703
16074	21.23	5.1818	0.	34.103
16075	21.23	5.2727	5.e-002	4.1524
16076	21.507	5.2727	0.	35.928
16077	21.415	5.1818	0.	36.531
16078	21.415	5.2727	5.e-002	4.1431
16079	21.692	5.2727	0.	38.258
16080	21.599	5.1818	0.	39.071
16081	21.599	5.2727	5.e-002	4.135
16082	21.876	5.2727	0.	40.712
16083	21.784	5.1818	0.	41.748
16084	21.784	5.2727	5.e-002	4.1284
16085	22.061	5.2727	0.	43.319
16086	21.969	5.1818	0.	44.587
16087	21.969	5.2727	5.e-002	4.1233
16088	22.246	5.2727	0.	46.114
16089	22.153	5.1818	0.	47.624
16090	22.153	5.2727	5.e-002	4.1201
16091	22.43	5.2727	0.	49.143
16092	22.338	5.1818	0.	50.904
16093	22.338	5.2727	5.e-002	4.119
16094	22.615	5.2727	0.	52.472
16095	22.523	5.1818	0.	54.484
16096	22.523	5.2727	5.e-002	4.1208
16097	22.8	5.2727	0.	56.19
16098	22.707	5.1818	0.	58.443
16099	22.707	5.2727	5.e-002	4.1263
16100	22.984	5.2727	0.	60.422
16101	22.892	5.1818	0.	62.886
16102	22.892	5.2727	5.e-002	4.1371
16103	23.169	5.2727	0.	65.344
16104	23.077	5.1818	0.	67.951
16105	23.077	5.2727	5.e-002	4.156
16106	23.354	5.2727	0.	71.185
16107	23.261	5.1818	0.	73.826
16108	23.261	5.2727	5.e-002	4.1878
16109	23.538	5.2727	0.	78.253
16110	23.446	5.1818	0.	80.716
16111	23.446	5.2727	5.e-002	4.2404
16112	23.723	5.2727	0.	86.825
16113	23.631	5.1818	0.	88.914
16114	23.631	5.2727	5.e-002	4.3318
16115	23.815	5.1818	0.	98.511
16116	23.815	5.2727	5.e-002	4.5704
16117	23.908	5.2727	0.	95.522
16118	12.644	5.0909	0.	459.68
16119	12.551	5.	0.	681.66
16120	12.551	5.0909	5.e-002	49.356
16121	12.459	5.0909	0.	456.07
16122	12.828	5.0909	0.	290.72
16123	12.736	5.	0.	422.19
16124	12.736	5.0909	5.e-002	33.998
16125	13.013	5.0909	0.	195.51
16126	12.921	5.	0.	276.15
16127	12.921	5.0909	5.e-002	28.349
16128	13.198	5.0909	0.	134.37
16129	13.105	5.	0.	180.12
16130	13.105	5.0909	5.e-002	22.786
16131	13.382	5.0909	0.	93.637
16132	13.29	5.	0.	116.85
16133	13.29	5.0909	5.e-002	17.873
16134	13.567	5.0909	0.	65.376
16135	13.475	5.	0.	75.025
16136	13.475	5.0909	5.e-002	13.821
16137	13.752	5.0909	0.	44.798
16138	13.659	5.	0.	46.673
16139	13.659	5.0909	5.e-002	10.603
16140	13.936	5.0909	0.	29.182
16141	13.844	5.	0.	26.895
16142	13.844	5.0909	5.e-002	8.1093
16143	14.121	5.0909	0.	17.06
16144	14.029	5.	0.	13.045
16145	14.029	5.0909	5.e-002	6.2328
16146	14.306	5.0909	0.	7.9224
16147	14.213	5.	0.	4.6905
16148	14.213	5.0909	5.e-002	4.8968
16149	14.49	5.0909	0.	2.6138
16150	14.398	5.	0.	1.6662
16151	14.398	5.0909	5.e-002	4.0437
16152	14.675	5.0909	0.	0.95215
16153	14.583	5.	0.	0.77593
16154	14.583	5.0909	5.e-002	3.6042
16155	14.86	5.0909	0.	0.46143
16156	14.767	5.	0.	0.4307
16157	14.767	5.0909	5.e-002	3.4722
16158	15.044	5.0909	0.	0.26384
16159	14.952	5.	0.	0.26484
16160	14.952	5.0909	5.e-002	3.5241
16161	15.229	5.0909	0.	0.16656
16162	15.137	5.	0.	0.17431
16163	15.137	5.0909	5.e-002	3.6607
16164	15.413	5.0909	0.	0.11251
16165	15.321	5.	0.	0.12064
16166	15.321	5.0909	5.e-002	3.8214
16167	15.598	5.0909	0.	7.9956e-002
16168	15.506	5.	0.	8.6908e-002
16169	15.506	5.0909	5.e-002	3.9755
16170	15.783	5.0909	0.	5.9163e-002
16171	15.69	5.	0.	6.4734e-002
16172	15.69	5.0909	5.e-002	4.1099
16173	15.967	5.0909	0.	4.5262e-002
16174	15.875	5.	0.	4.9625e-002
16175	15.875	5.0909	5.e-002	4.2206
16176	16.152	5.0909	0.	3.5621e-002
16177	16.06	5.	0.	3.9022e-002
16178	16.06	5.0909	5.e-002	4.308
16179	16.337	5.0909	0.	2.8737e-002
16180	16.244	5.	0.	3.1395e-002
16181	16.244	5.0909	5.e-002	4.3743
16182	16.521	5.0909	0.	2.3706e-002
16183	16.429	5.	0.	2.5809e-002
16184	16.429	5.0909	5.e-002	4.4226
16185	16.706	5.0909	0.	1.9951e-002
16186	16.614	5.	0.	2.1647e-002
16187	16.614	5.0909	5.e-002	4.4558
16188	16.891	5.0909	0.	1.7127e-002
16189	16.798	5.	0.	1.8497e-002
16190	16.798	5.0909	5.e-002	4.4765
16191	17.075	5.0909	0.	1.5019e-002
16192	16.983	5.	0.	1.6138e-002
16193	16.983	5.0909	5.e-002	4.4874
16194	17.26	5.0909	0.	1.3475e-002
16195	17.168	5.	0.	1.4386e-002
16196	17.168	5.0909	5.e-002	4.4903
16197	17.445	5.0909	0.	1.2429e-002
16198	17.352	5.	0.	1.3123e-002
16199	17.352	5.0909	5.e-002	4.4871
16200	17.629	5.0909	0.	1.1911e-002
16201	17.537	5.	0.	1.2317e-002
16202	17.537	5.0909	5.e-002	4.4791
16203	17.814	5.0909	0.	1.2128e-002
16204	17.722	5.	0.	1.2005e-002
16205	17.722	5.0909	5.e-002	4.4674
16206	17.999	5.0909	0.	1.3898e-002
16207	17.906	5.	0.	1.239e-002
16208	17.906	5.0909	5.e-002	4.4531
16209	18.183	5.0909	0.	2.2455e-002
16210	18.091	5.	0.	1.4248e-002
16211	18.091	5.0909	5.e-002	4.4368
16212	18.368	5.0909	0.	0.57198
16213	18.276	5.	0.	2.2189e-002
16214	18.276	5.0909	5.e-002	4.4192
16215	18.553	5.0909	0.	2.7669
16216	18.46	5.	0.	0.47083
16217	18.46	5.0909	5.e-002	4.4007
16218	18.737	5.0909	0.	4.9802
16219	18.645	5.	0.	2.8245
16220	18.645	5.0909	5.e-002	4.3817
16221	18.922	5.0909	0.	7.1794
16222	18.83	5.	0.	5.2063
16223	18.83	5.0909	5.e-002	4.3625
16224	19.107	5.0909	0.	9.3651
16225	19.014	5.	0.	7.5704
16226	19.014	5.0909	5.e-002	4.3434
16227	19.291	5.0909	0.	11.541
16228	19.199	5.	0.	9.9191
16229	19.199	5.0909	5.e-002	4.3244
16230	19.476	5.0909	0.	13.711
16231	19.384	5.	0.	12.258
16232	19.384	5.0909	5.e-002	4.3059
16233	19.661	5.0909	0.	15.884
16234	19.568	5.	0.	14.594
16235	19.568	5.0909	5.e-002	4.2878
16236	19.845	5.0909	0.	18.064
16237	19.753	5.	0.	16.936
16238	19.753	5.0909	5.e-002	4.2704
16239	20.03	5.0909	0.	20.262
16240	19.938	5.	0.	19.292
16241	19.938	5.0909	5.e-002	4.2536
16242	20.215	5.0909	0.	22.485
16243	20.122	5.	0.	21.672
16244	20.122	5.0909	5.e-002	4.2377
16245	20.399	5.0909	0.	24.744
16246	20.307	5.	0.	24.087
16247	20.307	5.0909	5.e-002	4.2225
16248	20.584	5.0909	0.	27.049
16249	20.492	5.	0.	26.55
16250	20.492	5.0909	5.e-002	4.2083
16251	20.769	5.0909	0.	29.412
16252	20.676	5.	0.	29.072
16253	20.676	5.0909	5.e-002	4.195
16254	20.953	5.0909	0.	31.846
16255	20.861	5.	0.	31.669
16256	20.861	5.0909	5.e-002	4.1828
16257	21.138	5.0909	0.	34.367
16258	21.046	5.	0.	34.355
16259	21.046	5.0909	5.e-002	4.1717
16260	21.322	5.0909	0.	36.99
16261	21.23	5.	0.	37.147
16262	21.23	5.0909	5.e-002	4.1618
16263	21.507	5.0909	0.	39.736
16264	21.415	5.	0.	40.067
16265	21.415	5.0909	5.e-002	4.1533
16266	21.692	5.0909	0.	42.627
16267	21.599	5.	0.	43.138
16268	21.599	5.0909	5.e-002	4.1462
16269	21.876	5.0909	0.	45.692
16270	21.784	5.	0.	46.386
16271	21.784	5.0909	5.e-002	4.1407
16272	22.061	5.0909	0.	48.966
16273	21.969	5.	0.	49.846
16274	21.969	5.0909	5.e-002	4.137
16275	22.246	5.0909	0.	52.492
16276	22.153	5.	0.	53.558
16277	22.153	5.0909	5.e-002	4.1356
16278	22.43	5.0909	0.	56.325
16279	22.338	5.	0.	57.572
16280	22.338	5.0909	5.e-002	4.1368
16281	22.615	5.0909	0.	60.538
16282	22.523	5.	0.	61.951
16283	22.523	5.0909	5.e-002	4.1413
16284	22.8	5.0909	0.	65.223
16285	22.707	5.	0.	66.774
16286	22.707	5.0909	5.e-002	4.1504
16287	22.984	5.0909	0.	70.497
16288	22.892	5.	0.	72.141
16289	22.892	5.0909	5.e-002	4.1655
16290	23.169	5.0909	0.	76.508
16291	23.077	5.	0.	78.17
16292	23.077	5.0909	5.e-002	4.1893
16293	23.354	5.0909	0.	83.42
16294	23.261	5.	0.	85.001
16295	23.261	5.0909	5.e-002	4.2258
16296	23.538	5.0909	0.	91.424
16297	23.446	5.	0.	92.764
16298	23.446	5.0909	5.e-002	4.2801
16299	23.723	5.0909	0.	100.64
16300	23.631	5.	0.	101.64
16301	23.631	5.0909	5.e-002	4.3639
16302	23.815	5.	0.	111.58
16303	23.815	5.0909	5.e-002	4.5674
16304	23.908	5.0909	0.	109.77
16305	12.644	4.9091	0.	618.93
16306	12.551	4.8182	0.	898.82
16307	12.551	4.9091	5.e-002	59.604
16308	12.459	4.9091	0.	616.05
16309	12.828	4.9091	0.	388.91
16310	12.736	4.8182	0.	551.2
16311	12.736	4.9091	5.e-002	38.553
16312	13.013	4.9091	0.	248.49
16313	12.921	4.8182	0.	344.14
16314	12.921	4.9091	5.e-002	30.219
16315	13.198	4.9091	0.	155.14
16316	13.105	4.8182	0.	206.97
16317	13.105	4.9091	5.e-002	23.072
16318	13.382	4.9091	0.	93.898
16319	13.29	4.8182	0.	118.18
16320	13.29	4.9091	5.e-002	17.557
16321	13.567	4.9091	0.	53.897
16322	13.475	4.8182	0.	62.071
16323	13.475	4.9091	5.e-002	13.492
16324	13.752	4.9091	0.	27.645
16325	13.659	4.8182	0.	27.268
16326	13.659	4.9091	5.e-002	10.515
16327	13.936	4.9091	0.	11.137
16328	13.844	4.8182	0.	8.4597
16329	13.844	4.9091	5.e-002	8.341
16330	14.121	4.9091	0.	3.5985
16331	14.029	4.8182	0.	2.7055
16332	14.029	4.9091	5.e-002	6.7738
16333	14.306	4.9091	0.	1.4689
16334	14.213	4.8182	0.	1.2562
16335	14.213	4.9091	5.e-002	5.6851
16336	14.49	4.9091	0.	0.7628
16337	14.398	4.8182	0.	0.70879
16338	14.398	4.9091	5.e-002	4.9775
16339	14.675	4.9091	0.	0.45078
16340	14.583	4.8182	0.	0.44165
16341	14.583	4.9091	5.e-002	4.5629
16342	14.86	4.9091	0.	0.28778
16343	14.767	4.8182	0.	0.29224
16344	14.767	4.9091	5.e-002	4.3564
16345	15.044	4.9091	0.	0.19374
16346	14.952	4.8182	0.	0.20167
16347	14.952	4.9091	5.e-002	4.2826
16348	15.229	4.9091	0.	0.13582
16349	15.137	4.8182	0.	0.14378
16350	15.137	4.9091	5.e-002	4.2841
16351	15.413	4.9091	0.	9.8433e-002
16352	15.321	4.8182	0.	0.10533
16353	15.321	4.9091	5.e-002	4.3219
16354	15.598	4.9091	0.	7.3403e-002
16355	15.506	4.8182	0.	7.9029e-002
16356	15.506	4.9091	5.e-002	4.3726
16357	15.783	4.9091	0.	5.6142e-002
16358	15.69	4.8182	0.	6.0604e-002
16359	15.69	4.9091	5.e-002	4.4232
16360	15.967	4.9091	0.	4.3944e-002
16361	15.875	4.8182	0.	4.7433e-002
16362	15.875	4.9091	5.e-002	4.4672
16363	16.152	4.9091	0.	3.5142e-002
16364	16.06	4.8182	0.	3.7858e-002
16365	16.06	4.9091	5.e-002	4.5021
16366	16.337	4.9091	0.	2.8684e-002
16367	16.244	4.8182	0.	3.0796e-002
16368	16.244	4.9091	5.e-002	4.5274
16369	16.521	4.9091	0.	2.3882e-002
16370	16.429	4.8182	0.	2.5537e-002
16371	16.429	4.9091	5.e-002	4.5434
16372	16.706	4.9091	0.	2.0266e-002
16373	16.614	4.8182	0.	2.1581e-002
16374	16.614	4.9091	5.e-002	4.5515
16375	16.891	4.9091	0.	1.7536e-002
16376	16.798	4.8182	0.	1.8577e-002
16377	16.798	4.9091	5.e-002	4.5526
16378	17.075	4.9091	0.	1.5495e-002
16379	16.983	4.8182	0.	1.6326e-002
16380	16.983	4.9091	5.e-002	4.548
16381	17.26	4.9091	0.	1.399e-002
16382	17.168	4.8182	0.	1.4656e-002
16383	17.168	4.9091	5.e-002	4.539
16384	17.445	4.9091	0.	1.2936e-002
16385	17.352	4.8182	0.	1.3442e-002
16386	17.352	4.9091	5.e-002	4.5263
16387	17.629	4.9091	0.	1.2306e-002
16388	17.537	4.8182	0.	1.2635e-002
16389	17.537	4.9091	5.e-002	4.511
16390	17.814	4.9091	0.	1.2143e-002
16391	17.722	4.8182	0.	1.2215e-002
16392	17.722	4.9091	5.e-002	4.4935
16393	17.999	4.9091	0.	1.2656e-002
16394	17.906	4.8182	0.	1.2237e-002
16395	17.906	4.9091	5.e-002	4.4747
16396	18.183	4.9091	0.	1.4622e-002
16397	18.091	4.8182	0.	1.2934e-002
16398	18.091	4.9091	5.e-002	4.4549
16399	18.368	4.9091	0.	2.274e-002
16400	18.276	4.8182	0.	1.5158e-002
16401	18.276	4.9091	5.e-002	4.4345
16402	18.553	4.9091	0.	0.54778
16403	18.46	4.8182	0.	2.4599e-002
16404	18.46	4.9091	5.e-002	4.4138
16405	18.737	4.9091	0.	3.0788
16406	18.645	4.8182	0.	0.82153
16407	18.645	4.9091	5.e-002	4.3931
16408	18.922	4.9091	0.	5.6272
16409	18.83	4.8182	0.	3.5327
16410	18.83	4.9091	5.e-002	4.3726
16411	19.107	4.9091	0.	8.1557
16412	19.014	4.8182	0.	6.2396
16413	19.014	4.9091	5.e-002	4.3524
16414	19.291	4.9091	0.	10.669
16415	19.199	4.8182	0.	8.9246
16416	19.199	4.9091	5.e-002	4.3327
16417	19.476	4.9091	0.	13.175
16418	19.384	4.8182	0.	11.595
16419	19.384	4.9091	5.e-002	4.3136
16420	19.661	4.9091	0.	15.682
16421	19.568	4.8182	0.	14.261
16422	19.568	4.9091	5.e-002	4.2951
16423	19.845	4.9091	0.	18.2
16424	19.753	4.8182	0.	16.933
16425	19.753	4.9091	5.e-002	4.2774
16426	20.03	4.9091	0.	20.74
16427	19.938	4.8182	0.	19.623
16428	19.938	4.9091	5.e-002	4.2604
16429	20.215	4.9091	0.	23.315
16430	20.122	4.8182	0.	22.343
16431	20.122	4.9091	5.e-002	4.2444
16432	20.399	4.9091	0.	25.936
16433	20.307	4.8182	0.	25.108
16434	20.307	4.9091	5.e-002	4.2293
16435	20.584	4.9091	0.	28.618
16436	20.492	4.8182	0.	27.933
16437	20.492	4.9091	5.e-002	4.2152
16438	20.769	4.9091	0.	31.375
16439	20.676	4.8182	0.	30.832
16440	20.676	4.9091	5.e-002	4.2021
16441	20.953	4.9091	0.	34.225
16442	20.861	4.8182	0.	33.824
16443	20.861	4.9091	5.e-002	4.1903
16444	21.138	4.9091	0.	37.186
16445	21.046	4.8182	0.	36.926
16446	21.046	4.9091	5.e-002	4.1796
16447	21.322	4.9091	0.	40.277
16448	21.23	4.8182	0.	40.161
16449	21.23	4.9091	5.e-002	4.1703
16450	21.507	4.9091	0.	43.524
16451	21.415	4.8182	0.	43.552
16452	21.415	4.9091	5.e-002	4.1625
16453	21.692	4.9091	0.	46.954
16454	21.599	4.8182	0.	47.126
16455	21.599	4.9091	5.e-002	4.1563
16456	21.876	4.9091	0.	50.599
16457	21.784	4.8182	0.	50.913
16458	21.784	4.9091	5.e-002	4.1519
16459	22.061	4.9091	0.	54.499
16460	21.969	4.8182	0.	54.95
16461	21.969	4.9091	5.e-002	4.1497
16462	22.246	4.9091	0.	58.7
16463	22.153	4.8182	0.	59.282
16464	22.153	4.9091	5.e-002	4.15
16465	22.43	4.9091	0.	63.261
16466	22.338	4.8182	0.	63.958
16467	22.338	4.9091	5.e-002	4.1533
16468	22.615	4.9091	0.	68.25
16469	22.523	4.8182	0.	69.041
16470	22.523	4.9091	5.e-002	4.1604
16471	22.8	4.9091	0.	73.754
16472	22.707	4.8182	0.	74.602
16473	22.707	4.9091	5.e-002	4.1724
16474	22.984	4.9091	0.	79.871
16475	22.892	4.8182	0.	80.727
16476	22.892	4.9091	5.e-002	4.1909
16477	23.169	4.9091	0.	86.712
16478	23.077	4.8182	0.	87.508
16479	23.077	4.9091	5.e-002	4.218
16480	23.354	4.9091	0.	94.385
16481	23.261	4.8182	0.	95.044
16482	23.261	4.9091	5.e-002	4.2566
16483	23.538	4.9091	0.	103.01
16484	23.446	4.8182	0.	103.41
16485	23.446	4.9091	5.e-002	4.3101
16486	23.723	4.9091	0.	112.61
16487	23.631	4.8182	0.	112.72
16488	23.631	4.9091	5.e-002	4.3861
16489	23.815	4.8182	0.	122.87
16490	23.815	4.9091	5.e-002	4.5598
16491	23.908	4.9091	0.	122.04
16492	12.644	4.7273	0.	801.1
16493	12.551	4.6364	0.	1161.5
16494	12.551	4.7273	5.e-002	75.27
16495	12.459	4.7273	0.	812.65
16496	12.828	4.7273	0.	485.58
16497	12.736	4.6364	0.	676.35
16498	12.736	4.7273	5.e-002	44.253
16499	13.013	4.7273	0.	289.28
16500	12.921	4.6364	0.	391.94
16501	12.921	4.7273	5.e-002	32.175
16502	13.198	4.7273	0.	161.89
16503	13.105	4.6364	0.	212.21
16504	13.105	4.7273	5.e-002	23.078
16505	13.382	4.7273	0.	81.567
16506	13.29	4.6364	0.	102.01
16507	13.29	4.7273	5.e-002	17.319
16508	13.567	4.7273	0.	32.828
16509	13.475	4.6364	0.	37.087
16510	13.475	4.7273	5.e-002	13.498
16511	13.752	4.7273	0.	8.4504
16512	13.659	4.6364	0.	7.6763
16513	13.659	4.7273	5.e-002	10.882
16514	13.936	4.7273	0.	2.6052
16515	13.844	4.6364	0.	2.3774
16516	13.844	4.7273	5.e-002	9.0177
16517	14.121	4.7273	0.	1.2522
16518	14.029	4.6364	0.	1.186
16519	14.029	4.7273	5.e-002	7.6688
16520	14.306	4.7273	0.	0.72902
16521	14.213	4.6364	0.	0.7108
16522	14.213	4.7273	5.e-002	6.6977
16523	14.49	4.7273	0.	0.46575
16524	14.398	4.6364	0.	0.46474
16525	14.398	4.7273	5.e-002	6.012
16526	14.675	4.7273	0.	0.31424
16527	14.583	4.6364	0.	0.31957
16528	14.583	4.7273	5.e-002	5.5417
16529	14.86	4.7273	0.	0.21999
16530	14.767	4.6364	0.	0.22715
16531	14.767	4.7273	5.e-002	5.2294
16532	15.044	4.7273	0.	0.1584
16533	14.952	4.6364	0.	0.16548
16534	14.952	4.7273	5.e-002	5.0285
16535	15.229	4.7273	0.	0.11673
16536	15.137	4.6364	0.	0.12298
16537	15.137	4.7273	5.e-002	4.9026
16538	15.413	4.7273	0.	8.78e-002
16539	15.321	4.6364	0.	9.3023e-002
16540	15.321	4.7273	5.e-002	4.8249
16541	15.598	4.7273	0.	6.7307e-002
16542	15.506	4.6364	0.	7.1527e-002
16543	15.506	4.7273	5.e-002	4.7767
16544	15.783	4.7273	0.	5.2541e-002
16545	15.69	4.6364	0.	5.5884e-002
16546	15.69	4.7273	5.e-002	4.7454
16547	15.967	4.7273	0.	4.1749e-002
16548	15.875	4.6364	0.	4.4365e-002
16549	15.875	4.7273	5.e-002	4.7231
16550	16.152	4.7273	0.	3.3767e-002
16551	16.06	4.6364	0.	3.5803e-002
16552	16.06	4.7273	5.e-002	4.7049
16553	16.337	4.7273	0.	2.7811e-002
16554	16.244	4.6364	0.	2.9388e-002
16555	16.244	4.7273	5.e-002	4.6879
16556	16.521	4.7273	0.	2.3336e-002
16557	16.429	4.6364	0.	2.4563e-002
16558	16.429	4.7273	5.e-002	4.6706
16559	16.706	4.7273	0.	1.9947e-002
16560	16.614	4.6364	0.	2.0915e-002
16561	16.614	4.7273	5.e-002	4.6524
16562	16.891	4.7273	0.	1.7389e-002
16563	16.798	4.6364	0.	1.8143e-002
16564	16.798	4.7273	5.e-002	4.6328
16565	17.075	4.7273	0.	1.5482e-002
16566	16.983	4.6364	0.	1.6074e-002
16567	16.983	4.7273	5.e-002	4.6121
16568	17.26	4.7273	0.	1.408e-002
16569	17.168	4.6364	0.	1.4547e-002
16570	17.168	4.7273	5.e-002	4.5902
16571	17.445	4.7273	0.	1.3092e-002
16572	17.352	4.6364	0.	1.3443e-002
16573	17.352	4.7273	5.e-002	4.5676
16574	17.629	4.7273	0.	1.2473e-002
16575	17.537	4.6364	0.	1.2705e-002
16576	17.537	4.7273	5.e-002	4.5444
16577	17.814	4.7273	0.	1.2213e-002
16578	17.722	4.6364	0.	1.2294e-002
16579	17.722	4.7273	5.e-002	4.5208
16580	17.999	4.7273	0.	1.2382e-002
16581	17.906	4.6364	0.	1.2215e-002
16582	17.906	4.7273	5.e-002	4.4971
16583	18.183	4.7273	0.	1.3232e-002
16584	18.091	4.6364	0.	1.2557e-002
16585	18.091	4.7273	5.e-002	4.4735
16586	18.368	4.7273	0.	1.5746e-002
16587	18.276	4.6364	0.	1.3614e-002
16588	18.276	4.7273	5.e-002	4.4501
16589	18.553	4.7273	0.	2.7826e-002
16590	18.46	4.6364	0.	1.6641e-002
16591	18.46	4.7273	5.e-002	4.4271
16592	18.737	4.7273	0.	1.2885
16593	18.645	4.6364	0.	3.6127e-002
16594	18.645	4.7273	5.e-002	4.4046
16595	18.922	4.7273	0.	4.1727
16596	18.83	4.6364	0.	1.9659
16597	18.83	4.7273	5.e-002	4.3827
16598	19.107	4.7273	0.	7.038
16599	19.014	4.6364	0.	5.0043
16600	19.014	4.7273	5.e-002	4.3614
16601	19.291	4.7273	0.	9.8816
16602	19.199	4.6364	0.	8.0162
16603	19.199	4.7273	5.e-002	4.3408
16604	19.476	4.7273	0.	12.714
16605	19.384	4.6364	0.	11.008
16606	19.384	4.7273	5.e-002	4.321
16607	19.661	4.7273	0.	15.546
16608	19.568	4.6364	0.	13.991
16609	19.568	4.7273	5.e-002	4.3021
16610	19.845	4.7273	0.	18.39
16611	19.753	4.6364	0.	16.981
16612	19.753	4.7273	5.e-002	4.284
16613	20.03	4.7273	0.	21.262
16614	19.938	4.6364	0.	19.99
16615	19.938	4.7273	5.e-002	4.2669
16616	20.215	4.7273	0.	24.175
16617	20.122	4.6364	0.	23.036
16618	20.122	4.7273	5.e-002	4.2508
16619	20.399	4.7273	0.	27.144
16620	20.307	4.6364	0.	26.135
16621	20.307	4.7273	5.e-002	4.2357
16622	20.584	4.7273	0.	30.188
16623	20.492	4.6364	0.	29.303
16624	20.492	4.7273	5.e-002	4.2217
16625	20.769	4.7273	0.	33.323
16626	20.676	4.6364	0.	32.561
16627	20.676	4.7273	5.e-002	4.2089
16628	20.953	4.7273	0.	36.569
16629	20.861	4.6364	0.	35.926
16630	20.861	4.7273	5.e-002	4.1973
16631	21.138	4.7273	0.	39.948
16632	21.046	4.6364	0.	39.423
16633	21.046	4.7273	5.e-002	4.1871
16634	21.322	4.7273	0.	43.483
16635	21.23	4.6364	0.	43.073
16636	21.23	4.7273	5.e-002	4.1784
16637	21.507	4.7273	0.	47.201
16638	21.415	4.6364	0.	46.903
16639	21.415	4.7273	5.e-002	4.1713
16640	21.692	4.7273	0.	51.134
16641	21.599	4.6364	0.	50.942
16642	21.599	4.7273	5.e-002	4.166
16643	21.876	4.7273	0.	55.314
16644	21.784	4.6364	0.	55.225
16645	21.784	4.7273	5.e-002	4.1627
16646	22.061	4.7273	0.	59.784
16647	21.969	4.6364	0.	59.787
16648	21.969	4.7273	5.e-002	4.1618
16649	22.246	4.7273	0.	64.59
16650	22.153	4.6364	0.	64.672
16651	22.153	4.7273	5.e-002	4.1637
16652	22.43	4.7273	0.	69.788
16653	22.338	4.6364	0.	69.93
16654	22.338	4.7273	5.e-002	4.1689
16655	22.615	4.7273	0.	75.441
16656	22.523	4.6364	0.	75.615
16657	22.523	4.7273	5.e-002	4.1782
16658	22.8	4.7273	0.	81.621
16659	22.707	4.6364	0.	81.792
16660	22.707	4.7273	5.e-002	4.1926
16661	22.984	4.7273	0.	88.405
16662	22.892	4.6364	0.	88.527
16663	22.892	4.7273	5.e-002	4.2135
16664	23.169	4.7273	0.	95.875
16665	23.077	4.6364	0.	95.89
16666	23.077	4.7273	5.e-002	4.2425
16667	23.354	4.7273	0.	104.1
16668	23.261	4.6364	0.	103.95
16669	23.261	4.7273	5.e-002	4.2817
16670	23.538	4.7273	0.	113.14
16671	23.446	4.6364	0.	112.74
16672	23.446	4.7273	5.e-002	4.3331
16673	23.723	4.7273	0.	123.
16674	23.631	4.6364	0.	122.35
16675	23.631	4.7273	5.e-002	4.4019
16676	23.815	4.6364	0.	132.63
16677	23.815	4.7273	5.e-002	4.5502
16678	23.908	4.7273	0.	132.64
16679	12.644	4.5455	0.	998.97
16680	12.551	4.4545	0.	1510.
16681	12.551	4.5455	5.e-002	95.493
16682	12.459	4.5455	0.	1073.1
16683	12.828	4.5455	0.	560.17
16684	12.736	4.4545	0.	763.58
16685	12.736	4.5455	5.e-002	55.038
16686	13.013	4.5455	0.	301.74
16687	12.921	4.4545	0.	391.89
16688	12.921	4.5455	5.e-002	32.918
16689	13.198	4.5455	0.	144.43
16690	13.105	4.4545	0.	183.15
16691	13.105	4.5455	5.e-002	23.33
16692	13.382	4.5455	0.	52.537
16693	13.29	4.4545	0.	64.133
16694	13.29	4.5455	5.e-002	17.716
16695	13.567	4.5455	0.	9.5624
16696	13.475	4.4545	0.	10.024
16697	13.475	4.5455	5.e-002	14.316
16698	13.752	4.5455	0.	2.5625
16699	13.659	4.4545	0.	2.5175
16700	13.659	4.5455	5.e-002	11.937
16701	13.936	4.5455	0.	1.2473
16702	13.844	4.4545	0.	1.2299
16703	13.844	4.5455	5.e-002	10.195
16704	14.121	4.5455	0.	0.74625
16705	14.029	4.4545	0.	0.74099
16706	14.029	4.5455	5.e-002	8.8765
16707	14.306	4.5455	0.	0.49119
16708	14.213	4.4545	0.	0.49315
16709	14.213	4.5455	5.e-002	7.8699
16710	14.49	4.5455	0.	0.3406
16711	14.398	4.4545	0.	0.34558
16712	14.398	4.5455	5.e-002	7.1013
16713	14.675	4.5455	0.	0.24411
16714	14.583	4.4545	0.	0.25015
16715	14.583	4.5455	5.e-002	6.5175
16716	14.86	4.5455	0.	0.17905
16717	14.767	4.4545	0.	0.18502
16718	14.767	4.5455	5.e-002	6.077
16719	15.044	4.5455	0.	0.13373
16720	14.952	4.4545	0.	0.1391
16721	14.952	4.5455	5.e-002	5.7465
16722	15.229	4.5455	0.	0.10144
16723	15.137	4.4545	0.	0.10602
16724	15.137	4.5455	5.e-002	5.499
16725	15.413	4.5455	0.	7.8066e-002
16726	15.321	4.4545	0.	8.1815e-002
16727	15.321	4.5455	5.e-002	5.313
16728	15.598	4.5455	0.	6.0924e-002
16729	15.506	4.4545	0.	6.392e-002
16730	15.506	4.5455	5.e-002	5.1718
16731	15.783	4.5455	0.	4.8232e-002
16732	15.69	4.4545	0.	5.0581e-002
16733	15.69	4.5455	5.e-002	5.0629
16734	15.967	4.5455	0.	3.8761e-002
16735	15.875	4.4545	0.	4.0577e-002
16736	15.875	4.5455	5.e-002	4.977
16737	16.152	4.5455	0.	3.1648e-002
16738	16.06	4.4545	0.	3.3039e-002
16739	16.06	4.5455	5.e-002	4.9073
16740	16.337	4.5455	0.	2.6286e-002
16741	16.244	4.4545	0.	2.734e-002
16742	16.244	4.5455	5.e-002	4.8489
16743	16.521	4.5455	0.	2.2236e-002
16744	16.429	4.4545	0.	2.3035e-002
16745	16.429	4.5455	5.e-002	4.7987
16746	16.706	4.5455	0.	1.9165e-002
16747	16.614	4.4545	0.	1.978e-002
16748	16.614	4.5455	5.e-002	4.7543
16749	16.891	4.5455	0.	1.6854e-002
16750	16.798	4.4545	0.	1.7311e-002
16751	16.798	4.5455	5.e-002	4.7141
16752	17.075	4.5455	0.	1.5142e-002
16753	16.983	4.4545	0.	1.5485e-002
16754	16.983	4.5455	5.e-002	4.677
16755	17.26	4.5455	0.	1.3895e-002
16756	17.168	4.4545	0.	1.4152e-002
16757	17.168	4.5455	5.e-002	4.6423
16758	17.445	4.5455	0.	1.3024e-002
16759	17.352	4.4545	0.	1.3205e-002
16760	17.352	4.5455	5.e-002	4.6095
16761	17.629	4.5455	0.	1.2478e-002
16762	17.537	4.4545	0.	1.2582e-002
16763	17.537	4.5455	5.e-002	4.5782
16764	17.814	4.5455	0.	1.2229e-002
16765	17.722	4.4545	0.	1.2243e-002
16766	17.722	4.5455	5.e-002	4.5484
16767	17.999	4.5455	0.	1.2295e-002
16768	17.906	4.4545	0.	1.217e-002
16769	17.906	4.5455	5.e-002	4.5197
16770	18.183	4.5455	0.	1.2775e-002
16771	18.091	4.4545	0.	1.2394e-002
16772	18.091	4.5455	5.e-002	4.4922
16773	18.368	4.5455	0.	1.4029e-002
16774	18.276	4.4545	0.	1.3045e-002
16775	18.276	4.5455	5.e-002	4.4658
16776	18.553	4.5455	0.	1.7756e-002
16777	18.46	4.4545	0.	1.4582e-002
16778	18.46	4.5455	5.e-002	4.4404
16779	18.737	4.5455	0.	6.8989e-002
16780	18.645	4.4545	0.	1.9707e-002
16781	18.645	4.5455	5.e-002	4.4159
16782	18.922	4.5455	0.	2.8207
16783	18.83	4.4545	0.	0.54003
16784	18.83	4.5455	5.e-002	4.3925
16785	19.107	4.5455	0.	6.0104
16786	19.014	4.4545	0.	3.8675
16787	19.014	4.5455	5.e-002	4.3701
16788	19.291	4.5455	0.	9.1717
16789	19.199	4.4545	0.	7.1913
16790	19.199	4.5455	5.e-002	4.3486
16791	19.476	4.5455	0.	12.316
16792	19.384	4.4545	0.	10.488
16793	19.384	4.5455	5.e-002	4.3282
16794	19.661	4.5455	0.	15.458
16795	19.568	4.4545	0.	13.772
16796	19.568	4.5455	5.e-002	4.3088
16797	19.845	4.5455	0.	18.614
16798	19.753	4.4545	0.	17.061
16799	19.753	4.5455	5.e-002	4.2904
16800	20.03	4.5455	0.	21.799
16801	19.938	4.4545	0.	20.372
16802	19.938	4.5455	5.e-002	4.273
16803	20.215	4.5455	0.	25.032
16804	20.122	4.4545	0.	23.723
16805	20.122	4.5455	5.e-002	4.2568
16806	20.399	4.5455	0.	28.33
16807	20.307	4.4545	0.	27.134
16808	20.307	4.5455	5.e-002	4.2417
16809	20.584	4.5455	0.	31.714
16810	20.492	4.4545	0.	30.624
16811	20.492	4.5455	5.e-002	4.2278
16812	20.769	4.5455	0.	35.203
16813	20.676	4.4545	0.	34.214
16814	20.676	4.5455	5.e-002	4.2152
16815	20.953	4.5455	0.	38.82
16816	20.861	4.4545	0.	37.927
16817	20.861	4.5455	5.e-002	4.2039
16818	21.138	4.5455	0.	42.588
16819	21.046	4.4545	0.	41.786
16820	21.046	4.5455	5.e-002	4.1941
16821	21.322	4.5455	0.	46.534
16822	21.23	4.4545	0.	45.818
16823	21.23	4.5455	5.e-002	4.1859
16824	21.507	4.5455	0.	50.686
16825	21.415	4.4545	0.	50.05
16826	21.415	4.5455	5.e-002	4.1795
16827	21.692	4.5455	0.	55.076
16828	21.599	4.4545	0.	54.512
16829	21.599	4.5455	5.e-002	4.1751
16830	21.876	4.5455	0.	59.74
16831	21.784	4.4545	0.	59.239
16832	21.784	4.5455	5.e-002	4.1729
16833	22.061	4.5455	0.	64.717
16834	21.969	4.4545	0.	64.266
16835	21.969	4.5455	5.e-002	4.1732
16836	22.246	4.5455	0.	70.053
16837	22.153	4.4545	0.	69.636
16838	22.153	4.5455	5.e-002	4.1765
16839	22.43	4.5455	0.	75.797
16840	22.338	4.4545	0.	75.393
16841	22.338	4.5455	5.e-002	4.1834
16842	22.615	4.5455	0.	82.004
16843	22.523	4.4545	0.	81.586
16844	22.523	4.5455	5.e-002	4.1945
16845	22.8	4.5455	0.	88.733
16846	22.707	4.4545	0.	88.266
16847	22.707	4.5455	5.e-002	4.2107
16848	22.984	4.5455	0.	96.042
16849	22.892	4.4545	0.	95.488
16850	22.892	4.5455	5.e-002	4.2331
16851	23.169	4.5455	0.	103.99
16852	23.077	4.4545	0.	103.3
16853	23.077	4.5455	5.e-002	4.2631
16854	23.354	4.5455	0.	112.61
16855	23.261	4.4545	0.	111.75
16856	23.261	4.5455	5.e-002	4.302
16857	23.538	4.5455	0.	121.96
16858	23.446	4.4545	0.	120.84
16859	23.446	4.5455	5.e-002	4.3509
16860	23.723	4.5455	0.	131.99
16861	23.631	4.4545	0.	130.66
16862	23.631	4.5455	5.e-002	4.4135
16863	23.815	4.4545	0.	141.03
16864	23.815	4.5455	5.e-002	4.5401
16865	23.908	4.5455	0.	141.79
16866	12.644	4.3636	0.	1219.6
16867	12.551	4.2727	0.	1781.5
16868	12.551	4.3636	5.e-002	145.1
16869	12.459	4.3636	0.	1365.3
16870	12.828	4.3636	0.	575.43
16871	12.736	4.2727	0.	750.17
16872	12.736	4.3636	5.e-002	56.648
16873	13.013	4.3636	0.	262.11
16874	12.921	4.2727	0.	316.74
16875	12.921	4.3636	5.e-002	34.531
16876	13.198	4.3636	0.	95.802
16877	13.105	4.2727	0.	115.52
16878	13.105	4.3636	5.e-002	25.239
16879	13.382	4.3636	0.	14.863
16880	13.29	4.2727	0.	16.643
16881	13.29	4.3636	5.e-002	19.616
16882	13.567	4.3636	0.	2.9177
16883	13.475	4.2727	0.	2.9411
16884	13.475	4.3636	5.e-002	16.189
16885	13.752	4.3636	0.	1.3217
16886	13.659	4.2727	0.	1.3017
16887	13.659	4.3636	5.e-002	13.671
16888	13.936	4.3636	0.	0.78631
16889	13.844	4.2727	0.	0.78291
16890	13.844	4.3636	5.e-002	11.769
16891	14.121	4.3636	0.	0.52029
16892	14.029	4.2727	0.	0.52029
16893	14.029	4.3636	5.e-002	10.291
16894	14.306	4.3636	0.	0.36568
16895	14.213	4.2727	0.	0.3693
16896	14.213	4.3636	5.e-002	9.1257
16897	14.49	4.3636	0.	0.26577
16898	14.398	4.2727	0.	0.27046
16899	14.398	4.3636	5.e-002	8.2011
16900	14.675	4.3636	0.	0.1975
16901	14.583	4.2727	0.	0.20243
16902	14.583	4.3636	5.e-002	7.4666
16903	14.86	4.3636	0.	0.14906
16904	14.767	4.2727	0.	0.15362
16905	14.767	4.3636	5.e-002	6.8841
16906	15.044	4.3636	0.	0.1139
16907	14.952	4.2727	0.	0.11785
16908	14.952	4.3636	5.e-002	6.4233
16909	15.229	4.3636	0.	8.7995e-002
16910	15.137	4.2727	0.	9.1263e-002
16911	15.137	4.3636	5.e-002	6.0597
16912	15.413	4.3636	0.	6.8717e-002
16913	15.321	4.2727	0.	7.1331e-002
16914	15.321	4.3636	5.e-002	5.7726
16915	15.598	4.3636	0.	5.427e-002
16916	15.506	4.2727	0.	5.6305e-002
16917	15.506	4.3636	5.e-002	5.5455
16918	15.783	4.3636	0.	4.339e-002
16919	15.69	4.2727	0.	4.494e-002
16920	15.69	4.3636	5.e-002	5.3648
16921	15.967	4.3636	0.	3.517e-002
16922	15.875	4.2727	0.	3.6326e-002
16923	15.875	4.3636	5.e-002	5.2196
16924	16.152	4.3636	0.	2.8945e-002
16925	16.06	4.2727	0.	2.9793e-002
16926	16.06	4.3636	5.e-002	5.1017
16927	16.337	4.3636	0.	2.4234e-002
16928	16.244	4.2727	0.	2.4839e-002
16929	16.244	4.3636	5.e-002	5.0044
16930	16.521	4.3636	0.	2.0675e-002
16931	16.429	4.2727	0.	2.1102e-002
16932	16.429	4.3636	5.e-002	4.9229
16933	16.706	4.3636	0.	1.7986e-002
16934	16.614	4.2727	0.	1.8288e-002
16935	16.614	4.3636	5.e-002	4.8534
16936	16.891	4.3636	0.	1.5976e-002
16937	16.798	4.2727	0.	1.6172e-002
16938	16.798	4.3636	5.e-002	4.7933
16939	17.075	4.3636	0.	1.4508e-002
16940	16.983	4.2727	0.	1.4629e-002
16941	16.983	4.3636	5.e-002	4.7404
16942	17.26	4.3636	0.	1.3459e-002
16943	17.168	4.2727	0.	1.3529e-002
16944	17.168	4.3636	5.e-002	4.6931
16945	17.445	4.3636	0.	1.2745e-002
16946	17.352	4.2727	0.	1.277e-002
16947	17.352	4.3636	5.e-002	4.6504
16948	17.629	4.3636	0.	1.2316e-002
16949	17.537	4.2727	0.	1.2297e-002
16950	17.537	4.3636	5.e-002	4.6113
16951	17.814	4.3636	0.	1.2137e-002
16952	17.722	4.2727	0.	1.2066e-002
16953	17.722	4.3636	5.e-002	4.5753
16954	17.999	4.3636	0.	1.2203e-002
16955	17.906	4.2727	0.	1.2055e-002
16956	17.906	4.3636	5.e-002	4.5418
16957	18.183	4.3636	0.	1.2557e-002
16958	18.091	4.2727	0.	1.2267e-002
16959	18.091	4.3636	5.e-002	4.5104
16960	18.368	4.3636	0.	1.3355e-002
16961	18.276	4.2727	0.	1.2763e-002
16962	18.276	4.3636	5.e-002	4.4809
16963	18.553	4.3636	0.	1.5219e-002
16964	18.46	4.2727	0.	1.3748e-002
16965	18.46	4.3636	5.e-002	4.4531
16966	18.737	4.3636	0.	2.3263e-002
16967	18.645	4.2727	0.	1.6168e-002
16968	18.645	4.3636	5.e-002	4.4268
16969	18.922	4.3636	0.	1.5803
16970	18.83	4.2727	0.	3.6699e-002
16971	18.83	4.3636	5.e-002	4.402
16972	19.107	4.3636	0.	5.0745
16973	19.014	4.2727	0.	2.8347
16974	19.014	4.3636	5.e-002	4.3784
16975	19.291	4.3636	0.	8.5355
16976	19.199	4.2727	0.	6.4499
16977	19.199	4.3636	5.e-002	4.3561
16978	19.476	4.3636	0.	11.973
16979	19.384	4.2727	0.	10.031
16980	19.384	4.3636	5.e-002	4.335
16981	19.661	4.3636	0.	15.406
16982	19.568	4.2727	0.	13.594
16983	19.568	4.3636	5.e-002	4.315
16984	19.845	4.3636	0.	18.851
16985	19.753	4.2727	0.	17.16
16986	19.753	4.3636	5.e-002	4.2963
16987	20.03	4.3636	0.	22.329
16988	19.938	4.2727	0.	20.748
16989	19.938	4.3636	5.e-002	4.2787
16990	20.215	4.3636	0.	25.858
16991	20.122	4.2727	0.	24.38
16992	20.122	4.3636	5.e-002	4.2624
16993	20.399	4.3636	0.	29.461
16994	20.307	4.2727	0.	28.077
16995	20.307	4.3636	5.e-002	4.2472
16996	20.584	4.3636	0.	33.159
16997	20.492	4.2727	0.	31.86
16998	20.492	4.3636	5.e-002	4.2334
16999	20.769	4.3636	0.	36.973
17000	20.676	4.2727	0.	35.754
17001	20.676	4.3636	5.e-002	4.221
17002	20.953	4.3636	0.	40.93
17003	20.861	4.2727	0.	39.782
17004	20.861	4.3636	5.e-002	4.21
17005	21.138	4.3636	0.	45.053
17006	21.046	4.2727	0.	43.97
17007	21.046	4.3636	5.e-002	4.2007
17008	21.322	4.3636	0.	49.371
17009	21.23	4.2727	0.	48.345
17010	21.23	4.3636	5.e-002	4.193
17011	21.507	4.3636	0.	53.913
17012	21.415	4.2727	0.	52.936
17013	21.415	4.3636	5.e-002	4.1872
17014	21.692	4.3636	0.	58.712
17015	21.599	4.2727	0.	57.773
17016	21.599	4.3636	5.e-002	4.1836
17017	21.876	4.3636	0.	63.802
17018	21.784	4.2727	0.	62.89
17019	21.784	4.3636	5.e-002	4.1823
17020	22.061	4.3636	0.	69.221
17021	21.969	4.2727	0.	68.321
17022	21.969	4.3636	5.e-002	4.1837
17023	22.246	4.3636	0.	75.01
17024	22.153	4.2727	0.	74.106
17025	22.153	4.3636	5.e-002	4.1883
17026	22.43	4.3636	0.	81.214
17027	22.338	4.2727	0.	80.284
17028	22.338	4.3636	5.e-002	4.1965
17029	22.615	4.3636	0.	87.878
17030	22.523	4.2727	0.	86.896
17031	22.523	4.3636	5.e-002	4.209
17032	22.8	4.3636	0.	95.049
17033	22.707	4.2727	0.	93.986
17034	22.707	4.3636	5.e-002	4.2266
17035	22.984	4.3636	0.	102.77
17036	22.892	4.2727	0.	101.59
17037	22.892	4.3636	5.e-002	4.25
17038	23.169	4.3636	0.	111.08
17039	23.077	4.2727	0.	109.75
17040	23.077	4.3636	5.e-002	4.2803
17041	23.354	4.3636	0.	120.
17042	23.261	4.2727	0.	118.49
17043	23.261	4.3636	5.e-002	4.3184
17044	23.538	4.3636	0.	129.56
17045	23.446	4.2727	0.	127.82
17046	23.446	4.3636	5.e-002	4.3647
17047	23.723	4.3636	0.	139.72
17048	23.631	4.2727	0.	137.79
17049	23.631	4.3636	5.e-002	4.422
17050	23.815	4.2727	0.	148.21
17051	23.815	4.3636	5.e-002	4.5301
17052	23.908	4.3636	0.	149.64
17053	12.644	4.1818	0.	1266.5
17054	12.551	4.0909	0.	1495.9
17055	12.551	4.1818	5.e-002	256.79
17056	12.459	4.1818	0.	2126.9
17057	12.828	4.1818	0.	477.95
17058	12.736	4.0909	0.	540.56
17059	12.736	4.1818	5.e-002	86.538
17060	13.013	4.1818	0.	162.42
17061	12.921	4.0909	0.	186.68
17062	12.921	4.1818	5.e-002	40.572
17063	13.198	4.1818	0.	27.393
17064	13.105	4.0909	0.	32.577
17065	13.105	4.1818	5.e-002	29.332
17066	13.382	4.1818	0.	3.3548
17067	13.29	4.0909	0.	2.9677
17068	13.29	4.1818	5.e-002	23.12
17069	13.567	4.1818	0.	1.427
17070	13.475	4.0909	0.	1.4365
17071	13.475	4.1818	5.e-002	18.843
17072	13.752	4.1818	0.	0.81838
17073	13.659	4.0909	0.	0.78432
17074	13.659	4.1818	5.e-002	15.826
17075	13.936	4.1818	0.	0.54701
17076	13.844	4.0909	0.	0.54655
17077	13.844	4.1818	5.e-002	13.556
17078	14.121	4.1818	0.	0.38687
17079	14.029	4.0909	0.	0.38748
17080	14.029	4.1818	5.e-002	11.794
17081	14.306	4.1818	0.	0.28487
17082	14.213	4.0909	0.	0.28914
17083	14.213	4.1818	5.e-002	10.396
17084	14.49	4.1818	0.	0.21395
17085	14.398	4.0909	0.	0.21853
17086	14.398	4.1818	5.e-002	9.2727
17087	14.675	4.1818	0.	0.16297
17088	14.583	4.0909	0.	0.1674
17089	14.583	4.1818	5.e-002	8.367
17090	14.86	4.1818	0.	0.12532
17091	14.767	4.0909	0.	0.12915
17092	14.767	4.1818	5.e-002	7.6363
17093	15.044	4.1818	0.	9.7155e-002
17094	14.952	4.0909	0.	0.10029
17095	14.952	4.1818	5.e-002	7.0475
17096	15.229	4.1818	0.	7.591e-002
17097	15.137	4.0909	0.	7.8373e-002
17098	15.137	4.1818	5.e-002	6.574
17099	15.413	4.1818	0.	5.9833e-002
17100	15.321	4.0909	0.	6.1683e-002
17101	15.321	4.1818	5.e-002	6.1938
17102	15.598	4.1818	0.	4.7594e-002
17103	15.506	4.0909	0.	4.8966e-002
17104	15.506	4.1818	5.e-002	5.8884
17105	15.783	4.1818	0.	3.8306e-002
17106	15.69	4.0909	0.	3.9281e-002
17107	15.69	4.1818	5.e-002	5.6425
17108	15.967	4.1818	0.	3.125e-002
17109	15.875	4.0909	0.	3.1914e-002
17110	15.875	4.1818	5.e-002	5.4437
17111	16.152	4.1818	0.	2.5899e-002
17112	16.06	4.0909	0.	2.6329e-002
17113	16.06	4.1818	5.e-002	5.2818
17114	16.337	4.1818	0.	2.1855e-002
17115	16.244	4.0909	0.	2.2108e-002
17116	16.244	4.1818	5.e-002	5.149
17117	16.521	4.1818	0.	1.8816e-002
17118	16.429	4.0909	0.	1.8946e-002
17119	16.429	4.1818	5.e-002	5.0388
17120	16.706	4.1818	0.	1.6541e-002
17121	16.614	4.0909	0.	1.6591e-002
17122	16.614	4.1818	5.e-002	4.9463
17123	16.891	4.1818	0.	1.4867e-002
17124	16.798	4.0909	0.	1.4847e-002
17125	16.798	4.1818	5.e-002	4.8677
17126	17.075	4.1818	0.	1.3673e-002
17127	16.983	4.0909	0.	1.3609e-002
17128	16.983	4.1818	5.e-002	4.8001
17129	17.26	4.1818	0.	1.2847e-002
17130	17.168	4.0909	0.	1.2759e-002
17131	17.168	4.1818	5.e-002	4.7411
17132	17.445	4.1818	0.	1.2315e-002
17133	17.352	4.0909	0.	1.2205e-002
17134	17.352	4.1818	5.e-002	4.6891
17135	17.629	4.1818	0.	1.2028e-002
17136	17.537	4.0909	0.	1.1898e-002
17137	17.537	4.1818	5.e-002	4.6426
17138	17.814	4.1818	0.	1.1952e-002
17139	17.722	4.0909	0.	1.1797e-002
17140	17.722	4.1818	5.e-002	4.6007
17141	17.999	4.1818	0.	1.2072e-002
17142	17.906	4.0909	0.	1.1875e-002
17143	17.906	4.1818	5.e-002	4.5626
17144	18.183	4.1818	0.	1.2402e-002
17145	18.091	4.0909	0.	1.2128e-002
17146	18.091	4.1818	5.e-002	4.5276
17147	18.368	4.1818	0.	1.3016e-002
17148	18.276	4.0909	0.	1.258e-002
17149	18.276	4.1818	5.e-002	4.4952
17150	18.553	4.1818	0.	1.4194e-002
17151	18.46	4.0909	0.	1.333e-002
17152	18.46	4.1818	5.e-002	4.4651
17153	18.737	4.1818	0.	1.7523e-002
17154	18.645	4.0909	0.	1.4794e-002
17155	18.645	4.1818	5.e-002	4.4371
17156	18.922	4.1818	0.	0.47912
17157	18.83	4.0909	0.	2.0587e-002
17158	18.83	4.1818	5.e-002	4.4108
17159	19.107	4.1818	0.	4.2342
17160	19.014	4.0909	0.	1.9138
17161	19.014	4.1818	5.e-002	4.3861
17162	19.291	4.1818	0.	7.9717
17163	19.199	4.0909	0.	5.7941
17164	19.199	4.1818	5.e-002	4.3629
17165	19.476	4.1818	0.	11.679
17166	19.384	4.0909	0.	9.6331
17167	19.384	4.1818	5.e-002	4.3412
17168	19.661	4.1818	0.	15.377
17169	19.568	4.0909	0.	13.449
17170	19.568	4.1818	5.e-002	4.3208
17171	19.845	4.1818	0.	19.087
17172	19.753	4.0909	0.	17.265
17173	19.753	4.1818	5.e-002	4.3017
17174	20.03	4.1818	0.	22.83
17175	19.938	4.0909	0.	21.103
17176	19.938	4.1818	5.e-002	4.2839
17177	20.215	4.1818	0.	26.63
17178	20.122	4.0909	0.	24.986
17179	20.122	4.1818	5.e-002	4.2674
17180	20.399	4.1818	0.	30.508
17181	20.307	4.0909	0.	28.939
17182	20.307	4.1818	5.e-002	4.2523
17183	20.584	4.1818	0.	34.488
17184	20.492	4.0909	0.	32.985
17185	20.492	4.1818	5.e-002	4.2386
17186	20.769	4.1818	0.	38.596
17187	20.676	4.0909	0.	37.148
17188	20.676	4.1818	5.e-002	4.2263
17189	20.953	4.1818	0.	42.856
17190	20.861	4.0909	0.	41.456
17191	20.861	4.1818	5.e-002	4.2156
17192	21.138	4.1818	0.	47.296
17193	21.046	4.0909	0.	45.934
17194	21.046	4.1818	5.e-002	4.2066
17195	21.322	4.1818	0.	51.943
17196	21.23	4.0909	0.	50.61
17197	21.23	4.1818	5.e-002	4.1994
17198	21.507	4.1818	0.	56.829
17199	21.415	4.0909	0.	55.514
17200	21.415	4.1818	5.e-002	4.1942
17201	21.692	4.1818	0.	61.984
17202	21.599	4.0909	0.	60.676
17203	21.599	4.1818	5.e-002	4.1913
17204	21.876	4.1818	0.	67.441
17205	21.784	4.0909	0.	66.127
17206	21.784	4.1818	5.e-002	4.1908
17207	22.061	4.1818	0.	73.238
17208	21.969	4.0909	0.	71.903
17209	21.969	4.1818	5.e-002	4.1932
17210	22.246	4.1818	0.	79.409
17211	22.153	4.0909	0.	78.036
17212	22.153	4.1818	5.e-002	4.1988
17213	22.43	4.1818	0.	85.994
17214	22.338	4.0909	0.	84.562
17215	22.338	4.1818	5.e-002	4.2081
17216	22.615	4.1818	0.	93.029
17217	22.523	4.0909	0.	91.517
17218	22.523	4.1818	5.e-002	4.2217
17219	22.8	4.1818	0.	100.55
17220	22.707	4.0909	0.	98.933
17221	22.707	4.1818	5.e-002	4.2402
17222	22.984	4.1818	0.	108.59
17223	22.892	4.0909	0.	106.84
17224	22.892	4.1818	5.e-002	4.2643
17225	23.169	4.1818	0.	117.18
17226	23.077	4.0909	0.	115.27
17227	23.077	4.1818	5.e-002	4.2945
17228	23.354	4.1818	0.	126.32
17229	23.261	4.0909	0.	124.23
17230	23.261	4.1818	5.e-002	4.3315
17231	23.538	4.1818	0.	136.05
17232	23.446	4.0909	0.	133.73
17233	23.446	4.1818	5.e-002	4.3756
17234	23.723	4.1818	0.	146.3
17235	23.631	4.0909	0.	143.81
17236	23.631	4.1818	5.e-002	4.4283
17237	23.815	4.0909	0.	154.28
17238	23.815	4.1818	5.e-002	4.5207
17239	23.908	4.1818	0.	156.32
17240	12.644	4.	0.	782.28
17241	12.551	3.9091	0.	807.57
17242	12.551	4.	5.e-002	457.19
17243	12.459	4.	0.	1191.3
17244	12.828	4.	0.	247.39
17245	12.736	3.9091	0.	303.29
17246	12.736	4.	5.e-002	81.106
17247	13.013	4.	0.	48.588
17248	12.921	3.9091	0.	72.219
17249	12.921	4.	5.e-002	52.579
17250	13.198	4.	0.	4.3496
17251	13.105	3.9091	0.	5.0106
17252	13.105	4.	5.e-002	35.477
17253	13.382	4.	0.	1.2277
17254	13.29	3.9091	0.	0.81491
17255	13.29	4.	5.e-002	27.129
17256	13.567	4.	0.	0.87035
17257	13.475	3.9091	0.	0.91039
17258	13.475	4.	5.e-002	21.79
17259	13.752	4.	0.	0.54916
17260	13.659	3.9091	0.	0.52698
17261	13.659	4.	5.e-002	18.124
17262	13.936	4.	0.	0.40728
17263	13.844	3.9091	0.	0.41548
17264	13.844	4.	5.e-002	15.401
17265	14.121	4.	0.	0.30192
17266	14.029	3.9091	0.	0.3078
17267	14.029	4.	5.e-002	13.296
17268	14.306	4.	0.	0.23052
17269	14.213	3.9091	0.	0.23787
17270	14.213	4.	5.e-002	11.627
17271	14.49	4.	0.	0.17705
17272	14.398	3.9091	0.	0.18327
17273	14.398	4.	5.e-002	10.285
17274	14.675	4.	0.	0.13699
17275	14.583	3.9091	0.	0.14214
17276	14.583	4.	5.e-002	9.1998
17277	14.86	4.	0.	0.10645
17278	14.767	3.9091	0.	0.11045
17279	14.767	4.	5.e-002	8.3208
17280	15.044	4.	0.	8.3122e-002
17281	14.952	3.9091	0.	8.6121e-002
17282	14.952	4.	5.e-002	7.6091
17283	15.229	4.	0.	6.5274e-002
17284	15.137	3.9091	0.	6.7445e-002
17285	15.137	4.	5.e-002	7.0336
17286	15.413	4.	0.	5.1631e-002
17287	15.321	3.9091	0.	5.3146e-002
17288	15.321	4.	5.e-002	6.5688
17289	15.598	4.	0.	4.1221e-002
17290	15.506	3.9091	0.	4.2232e-002
17291	15.506	4.	5.e-002	6.1933
17292	15.783	4.	0.	3.3297e-002
17293	15.69	3.9091	0.	3.393e-002
17294	15.69	4.	5.e-002	5.8897
17295	15.967	4.	0.	2.7287e-002
17296	15.875	3.9091	0.	2.7642e-002
17297	15.875	4.	5.e-002	5.6435
17298	16.152	4.	0.	2.2751e-002
17299	16.06	3.9091	0.	2.2907e-002
17300	16.06	4.	5.e-002	5.443
17301	16.337	4.	0.	1.9351e-002
17302	16.244	3.9091	0.	1.9364e-002
17303	16.244	4.	5.e-002	5.2787
17304	16.521	4.	0.	1.6828e-002
17305	16.429	3.9091	0.	1.6751e-002
17306	16.429	4.	5.e-002	5.1431
17307	16.706	4.	0.	1.4972e-002
17308	16.614	3.9091	0.	1.484e-002
17309	16.614	4.	5.e-002	5.0301
17310	16.891	4.	0.	1.3639e-002
17311	16.798	3.9091	0.	1.3463e-002
17312	16.798	4.	5.e-002	4.9351
17313	17.075	4.	0.	1.2726e-002
17314	16.983	3.9091	0.	1.2526e-002
17315	16.983	4.	5.e-002	4.8542
17316	17.26	4.	0.	1.2132e-002
17317	17.168	3.9091	0.	1.1925e-002
17318	17.168	4.	5.e-002	4.7847
17319	17.445	4.	0.	1.1791e-002
17320	17.352	3.9091	0.	1.1577e-002
17321	17.352	4.	5.e-002	4.7243
17322	17.629	4.	0.	1.1658e-002
17323	17.537	3.9091	0.	1.144e-002
17324	17.537	4.	5.e-002	4.6712
17325	17.814	4.	0.	1.17e-002
17326	17.722	3.9091	0.	1.1473e-002
17327	17.722	4.	5.e-002	4.624
17328	17.999	4.	0.	1.19e-002
17329	17.906	3.9091	0.	1.1653e-002
17330	17.906	4.	5.e-002	4.5816
17331	18.183	4.	0.	1.2258e-002
17332	18.091	3.9091	0.	1.197e-002
17333	18.091	4.	5.e-002	4.5432
17334	18.368	4.	0.	1.2809e-002
17335	18.276	3.9091	0.	1.2431e-002
17336	18.276	4.	5.e-002	4.5082
17337	18.553	4.	0.	1.3687e-002
17338	18.46	3.9091	0.	1.3085e-002
17339	18.46	4.	5.e-002	4.476
17340	18.737	4.	0.	1.5544e-002
17341	18.645	3.9091	0.	1.413e-002
17342	18.645	4.	5.e-002	4.4463
17343	18.922	4.	0.	3.6841e-002
17344	18.83	3.9091	0.	1.6855e-002
17345	18.83	4.	5.e-002	4.4187
17346	19.107	4.	0.	3.4953
17347	19.014	3.9091	0.	1.1142
17348	19.014	4.	5.e-002	4.3931
17349	19.291	4.	0.	7.4809
17350	19.199	3.9091	0.	5.2275
17351	19.199	4.	5.e-002	4.3691
17352	19.476	4.	0.	11.43
17353	19.384	3.9091	0.	9.2941
17354	19.384	4.	5.e-002	4.3468
17355	19.661	4.	0.	15.364
17356	19.568	3.9091	0.	13.332
17357	19.568	4.	5.e-002	4.3259
17358	19.845	4.	0.	19.309
17359	19.753	3.9091	0.	17.367
17360	19.753	4.	5.e-002	4.3065
17361	20.03	4.	0.	23.288
17362	19.938	3.9091	0.	21.423
17363	19.938	4.	5.e-002	4.2885
17364	20.215	4.	0.	27.325
17365	20.122	3.9091	0.	25.525
17366	20.122	4.	5.e-002	4.272
17367	20.399	4.	0.	31.446
17368	20.307	3.9091	0.	29.7
17369	20.307	4.	5.e-002	4.2568
17370	20.584	4.	0.	35.675
17371	20.492	3.9091	0.	33.973
17372	20.492	4.	5.e-002	4.2431
17373	20.769	4.	0.	40.039
17374	20.676	3.9091	0.	38.37
17375	20.676	4.	5.e-002	4.231
17376	20.953	4.	0.	44.564
17377	20.861	3.9091	0.	42.918
17378	20.861	4.	5.e-002	4.2206
17379	21.138	4.	0.	49.279
17380	21.046	3.9091	0.	47.644
17381	21.046	4.	5.e-002	4.2119
17382	21.322	4.	0.	54.211
17383	21.23	3.9091	0.	52.578
17384	21.23	4.	5.e-002	4.2051
17385	21.507	4.	0.	59.391
17386	21.415	3.9091	0.	57.747
17387	21.415	4.	5.e-002	4.2004
17388	21.692	4.	0.	64.849
17389	21.599	3.9091	0.	63.183
17390	21.599	4.	5.e-002	4.1981
17391	21.876	4.	0.	70.617
17392	21.784	3.9091	0.	68.915
17393	21.784	4.	5.e-002	4.1983
17394	22.061	4.	0.	76.728
17395	21.969	3.9091	0.	74.975
17396	21.969	4.	5.e-002	4.2015
17397	22.246	4.	0.	83.214
17398	22.153	3.9091	0.	81.394
17399	22.153	4.	5.e-002	4.208
17400	22.43	4.	0.	90.109
17401	22.338	3.9091	0.	88.202
17402	22.338	4.	5.e-002	4.2182
17403	22.615	4.	0.	97.442
17404	22.523	3.9091	0.	95.43
17405	22.523	4.	5.e-002	4.2326
17406	22.8	4.	0.	105.24
17407	22.707	3.9091	0.	103.1
17408	22.707	4.	5.e-002	4.2517
17409	22.984	4.	0.	113.53
17410	22.892	3.9091	0.	111.25
17411	22.892	4.	5.e-002	4.2761
17412	23.169	4.	0.	122.33
17413	23.077	3.9091	0.	119.88
17414	23.077	4.	5.e-002	4.306
17415	23.354	4.	0.	131.65
17416	23.261	3.9091	0.	129.01
17417	23.261	4.	5.e-002	4.342
17418	23.538	4.	0.	141.5
17419	23.446	3.9091	0.	138.64
17420	23.446	4.	5.e-002	4.384
17421	23.723	4.	0.	151.81
17422	23.631	3.9091	0.	148.81
17423	23.631	4.	5.e-002	4.4331
17424	23.815	3.9091	0.	159.3
17425	23.815	4.	5.e-002	4.5124
17426	23.908	4.	0.	161.91
17427	12.644	3.8182	0.	413.54
17428	12.551	3.7273	0.	576.14
17429	12.551	3.8182	5.e-002	258.29
17430	12.828	3.8182	0.	133.93
17431	12.736	3.7273	0.	237.88
17432	12.736	3.8182	5.e-002	117.6
17433	13.013	3.8182	0.	0.21876
17434	12.921	3.7273	0.	34.137
17435	12.921	3.8182	5.e-002	59.538
17436	13.198	3.8182	0.	2.0043
17437	13.105	3.7273	0.	2.0396
17438	13.105	3.8182	5.e-002	41.193
17439	13.382	3.8182	0.	0.6298
17440	13.29	3.7273	0.	0.60061
17441	13.29	3.8182	5.e-002	30.942
17442	13.567	3.8182	0.	0.62005
17443	13.475	3.7273	0.	0.66031
17444	13.475	3.8182	5.e-002	24.691
17445	13.752	3.8182	0.	0.41945
17446	13.659	3.7273	0.	0.43839
17447	13.659	3.8182	5.e-002	20.384
17448	13.936	3.8182	0.	0.33078
17449	13.844	3.7273	0.	0.35258
17450	13.844	3.8182	5.e-002	17.195
17451	14.121	3.8182	0.	0.25286
17452	14.029	3.7273	0.	0.26905
17453	14.029	3.8182	5.e-002	14.73
17454	14.306	3.8182	0.	0.19655
17455	14.213	3.7273	0.	0.20941
17456	14.213	3.8182	5.e-002	12.777
17457	14.49	3.8182	0.	0.15236
17458	14.398	3.7273	0.	0.16188
17459	14.398	3.8182	5.e-002	11.211
17460	14.675	3.8182	0.	0.11836
17461	14.583	3.7273	0.	0.12533
17462	14.583	3.8182	5.e-002	9.9473
17463	14.86	3.8182	0.	9.2063e-002
17464	14.767	3.7273	0.	9.7016e-002
17465	14.767	3.8182	5.e-002	8.9256
17466	15.044	3.8182	0.	7.1831e-002
17467	14.952	3.7273	0.	7.5277e-002
17468	14.952	3.8182	5.e-002	8.0993
17469	15.229	3.8182	0.	5.6317e-002
17470	15.137	3.7273	0.	5.8647e-002
17471	15.137	3.8182	5.e-002	7.4313
17472	15.413	3.8182	0.	4.4474e-002
17473	15.321	3.7273	0.	4.5991e-002
17474	15.321	3.8182	5.e-002	6.8914
17475	15.598	3.8182	0.	3.5473e-002
17476	15.506	3.7273	0.	3.6405e-002
17477	15.506	3.8182	5.e-002	6.4548
17478	15.783	3.8182	0.	2.8666e-002
17479	15.69	3.7273	0.	2.9184e-002
17480	15.69	3.8182	5.e-002	6.1015
17481	15.967	3.8182	0.	2.355e-002
17482	15.875	3.7273	0.	2.3779e-002
17483	15.875	3.8182	5.e-002	5.8149
17484	16.152	3.8182	0.	1.9733e-002
17485	16.06	3.7273	0.	1.9766e-002
17486	16.06	3.8182	5.e-002	5.5814
17487	16.337	3.8182	0.	1.692e-002
17488	16.244	3.7273	0.	1.6816e-002
17489	16.244	3.8182	5.e-002	5.3904
17490	16.521	3.8182	0.	1.4877e-002
17491	16.429	3.7273	0.	1.469e-002
17492	16.429	3.8182	5.e-002	5.2331
17493	16.706	3.8182	0.	1.3413e-002
17494	16.614	3.7273	0.	1.3183e-002
17495	16.614	3.8182	5.e-002	5.1027
17496	16.891	3.8182	0.	1.2406e-002
17497	16.798	3.7273	0.	1.2139e-002
17498	16.798	3.8182	5.e-002	4.9935
17499	17.075	3.8182	0.	1.1762e-002
17500	16.983	3.7273	0.	1.148e-002
17501	16.983	3.8182	5.e-002	4.9014
17502	17.26	3.8182	0.	1.139e-002
17503	17.168	3.7273	0.	1.1109e-002
17504	17.168	3.8182	5.e-002	4.8228
17505	17.445	3.8182	0.	1.1235e-002
17506	17.352	3.7273	0.	1.0952e-002
17507	17.352	3.8182	5.e-002	4.7551
17508	17.629	3.8182	0.	1.1253e-002
17509	17.537	3.7273	0.	1.0974e-002
17510	17.537	3.8182	5.e-002	4.6961
17511	17.814	3.8182	0.	1.1415e-002
17512	17.722	3.7273	0.	1.1136e-002
17513	17.722	3.8182	5.e-002	4.6443
17514	17.999	3.8182	0.	1.1704e-002
17515	17.906	3.7273	0.	1.1418e-002
17516	17.906	3.8182	5.e-002	4.5982
17517	18.183	3.8182	0.	1.2112e-002
17518	18.091	3.7273	0.	1.1805e-002
17519	18.091	3.8182	5.e-002	4.5569
17520	18.368	3.8182	0.	1.2655e-002
17521	18.276	3.7273	0.	1.2299e-002
17522	18.276	3.8182	5.e-002	4.5196
17523	18.553	3.8182	0.	1.34e-002
17524	18.46	3.7273	0.	1.2922e-002
17525	18.46	3.8182	5.e-002	4.4856
17526	18.737	3.8182	0.	1.464e-002
17527	18.645	3.7273	0.	1.3768e-002
17528	18.645	3.8182	5.e-002	4.4544
17529	18.922	3.8182	0.	2.027e-002
17530	18.83	3.7273	0.	1.5373e-002
17531	18.83	3.8182	5.e-002	4.4257
17532	19.107	3.8182	0.	2.8645
17533	19.014	3.7273	0.	0.44909
17534	19.014	3.8182	5.e-002	4.3991
17535	19.291	3.8182	0.	7.0651
17536	19.199	3.7273	0.	4.7548
17537	19.199	3.8182	5.e-002	4.3745
17538	19.476	3.8182	0.	11.222
17539	19.384	3.7273	0.	9.0139
17540	19.384	3.8182	5.e-002	4.3516
17541	19.661	3.8182	0.	15.361
17542	19.568	3.7273	0.	13.239
17543	19.568	3.8182	5.e-002	4.3304
17544	19.845	3.8182	0.	19.507
17545	19.753	3.7273	0.	17.458
17546	19.753	3.8182	5.e-002	4.3107
17547	20.03	3.8182	0.	23.688
17548	19.938	3.7273	0.	21.697
17549	19.938	3.8182	5.e-002	4.2925
17550	20.215	3.8182	0.	27.928
17551	20.122	3.7273	0.	25.983
17552	20.122	3.8182	5.e-002	4.2758
17553	20.399	3.8182	0.	32.256
17554	20.307	3.7273	0.	30.344
17555	20.307	3.8182	5.e-002	4.2607
17556	20.584	3.8182	0.	36.696
17557	20.492	3.7273	0.	34.806
17558	20.492	3.8182	5.e-002	4.2471
17559	20.769	3.8182	0.	41.277
17560	20.676	3.7273	0.	39.397
17561	20.676	3.8182	5.e-002	4.2351
17562	20.953	3.8182	0.	46.027
17563	20.861	3.7273	0.	44.144
17564	20.861	3.8182	5.e-002	4.2248
17565	21.138	3.8182	0.	50.972
17566	21.046	3.7273	0.	49.076
17567	21.046	3.8182	5.e-002	4.2164
17568	21.322	3.8182	0.	56.142
17569	21.23	3.7273	0.	54.221
17570	21.23	3.8182	5.e-002	4.21
17571	21.507	3.8182	0.	61.567
17572	21.415	3.7273	0.	59.608
17573	21.415	3.8182	5.e-002	4.2057
17574	21.692	3.8182	0.	67.276
17575	21.599	3.7273	0.	65.266
17576	21.599	3.8182	5.e-002	4.2039
17577	21.876	3.8182	0.	73.298
17578	21.784	3.7273	0.	71.225
17579	21.784	3.8182	5.e-002	4.2048
17580	22.061	3.8182	0.	79.665
17581	21.969	3.7273	0.	77.513
17582	21.969	3.8182	5.e-002	4.2086
17583	22.246	3.8182	0.	86.404
17584	22.153	3.7273	0.	84.159
17585	22.153	3.8182	5.e-002	4.2158
17586	22.43	3.8182	0.	93.545
17587	22.338	3.7273	0.	91.191
17588	22.338	3.8182	5.e-002	4.2266
17589	22.615	3.8182	0.	101.11
17590	22.523	3.7273	0.	98.632
17591	22.523	3.8182	5.e-002	4.2416
17592	22.8	3.8182	0.	109.13
17593	22.707	3.7273	0.	106.5
17594	22.707	3.8182	5.e-002	4.2612
17595	22.984	3.8182	0.	117.61
17596	22.892	3.7273	0.	114.83
17597	22.892	3.8182	5.e-002	4.2856
17598	23.169	3.8182	0.	126.57
17599	23.077	3.7273	0.	123.61
17600	23.077	3.8182	5.e-002	4.3152
17601	23.354	3.8182	0.	136.01
17602	23.261	3.7273	0.	132.87
17603	23.261	3.8182	5.e-002	4.3502
17604	23.538	3.8182	0.	145.96
17605	23.446	3.7273	0.	142.59
17606	23.446	3.8182	5.e-002	4.3904
17607	23.723	3.8182	0.	156.31
17608	23.631	3.7273	0.	152.83
17609	23.631	3.8182	5.e-002	4.4366
17610	23.815	3.7273	0.	163.34
17611	23.815	3.8182	5.e-002	4.5052
17612	23.908	3.8182	0.	166.49
17613	12.644	3.6364	0.	436.32
17614	12.551	3.5455	0.	586.38
17615	12.551	3.6364	5.e-002	111.09
17616	12.828	3.6364	0.	151.87
17617	12.736	3.5455	0.	275.16
17618	12.736	3.6364	5.e-002	87.738
17619	13.013	3.6364	0.	4.1736
17620	12.921	3.5455	0.	62.157
17621	12.921	3.6364	5.e-002	62.972
17622	13.198	3.6364	0.	0.81523
17623	13.105	3.5455	0.	1.1083
17624	13.105	3.6364	5.e-002	44.344
17625	13.382	3.6364	0.	0.6994
17626	13.29	3.5455	0.	0.82058
17627	13.29	3.6364	5.e-002	33.974
17628	13.567	3.6364	0.	0.5101
17629	13.475	3.5455	0.	0.58121
17630	13.475	3.6364	5.e-002	27.237
17631	13.752	3.6364	0.	0.38872
17632	13.659	3.5455	0.	0.44251
17633	13.659	3.6364	5.e-002	22.445
17634	13.936	3.6364	0.	0.30127
17635	13.844	3.5455	0.	0.33968
17636	13.844	3.6364	5.e-002	18.837
17637	14.121	3.6364	0.	0.23235
17638	14.029	3.5455	0.	0.25975
17639	14.029	3.6364	5.e-002	16.029
17640	14.306	3.6364	0.	0.17932
17641	14.213	3.5455	0.	0.19867
17642	14.213	3.6364	5.e-002	13.802
17643	14.49	3.6364	0.	0.13805
17644	14.398	3.5455	0.	0.15154
17645	14.398	3.6364	5.e-002	12.021
17646	14.675	3.6364	0.	0.10627
17647	14.583	3.5455	0.	0.11558
17648	14.583	3.6364	5.e-002	10.59
17649	14.86	3.6364	0.	8.1891e-002
17650	14.767	3.5455	0.	8.8248e-002
17651	14.767	3.6364	5.e-002	9.4374
17652	15.044	3.6364	0.	6.3312e-002
17653	14.952	3.5455	0.	6.7589e-002
17654	14.952	3.6364	5.e-002	8.509
17655	15.229	3.6364	0.	4.9223e-002
17656	15.137	3.5455	0.	5.2041e-002
17657	15.137	3.6364	5.e-002	7.7604
17658	15.413	3.6364	0.	3.8594e-002
17659	15.321	3.5455	0.	4.0396e-002
17660	15.321	3.6364	5.e-002	7.1566
17661	15.598	3.6364	0.	3.0619e-002
17662	15.506	3.5455	0.	3.1714e-002
17663	15.506	3.6364	5.e-002	6.6691
17664	15.783	3.6364	0.	2.4675e-002
17665	15.69	3.5455	0.	2.5282e-002
17666	15.69	3.6364	5.e-002	6.2747
17667	15.967	3.6364	0.	2.0279e-002
17668	15.875	3.5455	0.	2.0551e-002
17669	15.875	3.6364	5.e-002	5.9549
17670	16.152	3.6364	0.	1.7061e-002
17671	16.06	3.5455	0.	1.711e-002
17672	16.06	3.6364	5.e-002	5.6946
17673	16.337	3.6364	0.	1.4744e-002
17674	16.244	3.5455	0.	1.464e-002
17675	16.244	3.6364	5.e-002	5.4819
17676	16.521	3.6364	0.	1.3114e-002
17677	16.429	3.5455	0.	1.2917e-002
17678	16.429	3.6364	5.e-002	5.307
17679	16.706	3.6364	0.	1.1995e-002
17680	16.614	3.5455	0.	1.1748e-002
17681	16.614	3.6364	5.e-002	5.1623
17682	16.891	3.6364	0.	1.1275e-002
17683	16.798	3.5455	0.	1.0985e-002
17684	16.798	3.6364	5.e-002	5.0417
17685	17.075	3.6364	0.	1.087e-002
17686	16.983	3.5455	0.	1.0562e-002
17687	16.983	3.6364	5.e-002	4.9403
17688	17.26	3.6364	0.	1.0698e-002
17689	17.168	3.5455	0.	1.0388e-002
17690	17.168	3.6364	5.e-002	4.8542
17691	17.445	3.6364	0.	1.0707e-002
17692	17.352	3.5455	0.	1.0396e-002
17693	17.352	3.6364	5.e-002	4.7806
17694	17.629	3.6364	0.	1.0862e-002
17695	17.537	3.5455	0.	1.0553e-002
17696	17.537	3.6364	5.e-002	4.7168
17697	17.814	3.6364	0.	1.1135e-002
17698	17.722	3.5455	0.	1.0827e-002
17699	17.722	3.6364	5.e-002	4.6611
17700	17.999	3.6364	0.	1.1508e-002
17701	17.906	3.5455	0.	1.1198e-002
17702	17.906	3.6364	5.e-002	4.612
17703	18.183	3.6364	0.	1.1973e-002
17704	18.091	3.5455	0.	1.1652e-002
17705	18.091	3.6364	5.e-002	4.5683
17706	18.368	3.6364	0.	1.2533e-002
17707	18.276	3.5455	0.	1.2185e-002
17708	18.276	3.6364	5.e-002	4.5291
17709	18.553	3.6364	0.	1.322e-002
17710	18.46	3.5455	0.	1.2805e-002
17711	18.46	3.6364	5.e-002	4.4935
17712	18.737	3.6364	0.	1.4169e-002
17713	18.645	3.5455	0.	1.3556e-002
17714	18.645	3.6364	5.e-002	4.4611
17715	18.922	3.6364	0.	1.6685e-002
17716	18.83	3.5455	0.	1.4662e-002
17717	18.83	3.6364	5.e-002	4.4314
17718	19.107	3.6364	0.	2.3489
17719	19.014	3.5455	0.	4.417e-002
17720	19.014	3.6364	5.e-002	4.4041
17721	19.291	3.6364	0.	6.7272
17722	19.199	3.5455	0.	4.3808
17723	19.199	3.6364	5.e-002	4.3789
17724	19.476	3.6364	0.	11.056
17725	19.384	3.5455	0.	8.7938
17726	19.384	3.6364	5.e-002	4.3556
17727	19.661	3.6364	0.	15.362
17728	19.568	3.5455	0.	13.168
17729	19.568	3.6364	5.e-002	4.334
17730	19.845	3.6364	0.	19.674
17731	19.753	3.5455	0.	17.534
17732	19.753	3.6364	5.e-002	4.3141
17733	20.03	3.6364	0.	24.019
17734	19.938	3.5455	0.	21.918
17735	19.938	3.6364	5.e-002	4.2958
17736	20.215	3.6364	0.	28.426
17737	20.122	3.5455	0.	26.35
17738	20.122	3.6364	5.e-002	4.279
17739	20.399	3.6364	0.	32.922
17740	20.307	3.5455	0.	30.858
17741	20.307	3.6364	5.e-002	4.2638
17742	20.584	3.6364	0.	37.534
17743	20.492	3.5455	0.	35.469
17744	20.492	3.6364	5.e-002	4.2503
17745	20.769	3.6364	0.	42.291
17746	20.676	3.5455	0.	40.212
17747	20.676	3.6364	5.e-002	4.2384
17748	20.953	3.6364	0.	47.221
17749	20.861	3.5455	0.	45.116
17750	20.861	3.6364	5.e-002	4.2283
17751	21.138	3.6364	0.	52.352
17752	21.046	3.5455	0.	50.209
17753	21.046	3.6364	5.e-002	4.2201
17754	21.322	3.6364	0.	57.713
17755	21.23	3.5455	0.	55.519
17756	21.23	3.6364	5.e-002	4.2139
17757	21.507	3.6364	0.	63.333
17758	21.415	3.5455	0.	61.075
17759	21.415	3.6364	5.e-002	4.2101
17760	21.692	3.6364	0.	69.24
17761	21.599	3.5455	0.	66.905
17762	21.599	3.6364	5.e-002	4.2087
17763	21.876	3.6364	0.	75.463
17764	21.784	3.5455	0.	73.038
17765	21.784	3.6364	5.e-002	4.21
17766	22.061	3.6364	0.	82.03
17767	21.969	3.5455	0.	79.501
17768	21.969	3.6364	5.e-002	4.2143
17769	22.246	3.6364	0.	88.966
17770	22.153	3.5455	0.	86.32
17771	22.153	3.6364	5.e-002	4.222
17772	22.43	3.6364	0.	96.296
17773	22.338	3.5455	0.	93.518
17774	22.338	3.6364	5.e-002	4.2334
17775	22.615	3.6364	0.	104.04
17776	22.523	3.5455	0.	101.12
17777	22.523	3.6364	5.e-002	4.2488
17778	22.8	3.6364	0.	112.22
17779	22.707	3.5455	0.	109.14
17780	22.707	3.6364	5.e-002	4.2686
17781	22.984	3.6364	0.	120.85
17782	22.892	3.5455	0.	117.59
17783	22.892	3.6364	5.e-002	4.293
17784	23.169	3.6364	0.	129.93
17785	23.077	3.5455	0.	126.49
17786	23.077	3.6364	5.e-002	4.3222
17787	23.354	3.6364	0.	139.46
17788	23.261	3.5455	0.	135.85
17789	23.261	3.6364	5.e-002	4.3564
17790	23.538	3.6364	0.	149.47
17791	23.446	3.5455	0.	145.63
17792	23.446	3.6364	5.e-002	4.3953
17793	23.723	3.6364	0.	159.87
17794	23.631	3.5455	0.	155.92
17795	23.631	3.6364	5.e-002	4.4391
17796	23.815	3.5455	0.	166.44
17797	23.815	3.6364	5.e-002	4.4993
17798	23.908	3.6364	0.	170.09
17799	12.644	3.4545	0.	439.31
17800	12.551	3.3636	0.	559.16
17801	12.551	3.4545	5.e-002	62.029
17802	12.828	3.4545	0.	197.82
17803	12.736	3.3636	0.	313.23
17804	12.736	3.4545	5.e-002	65.898
17805	13.013	3.4545	0.	15.699
17806	12.921	3.3636	0.	100.23
17807	12.921	3.4545	5.e-002	54.776
17808	13.198	3.4545	0.	1.0603
17809	13.105	3.3636	0.	1.3995
17810	13.105	3.4545	5.e-002	44.231
17811	13.382	3.4545	0.	0.7196
17812	13.29	3.3636	0.	0.84235
17813	13.29	3.4545	5.e-002	35.625
17814	13.567	3.4545	0.	0.52745
17815	13.475	3.3636	0.	0.62261
17816	13.475	3.4545	5.e-002	29.111
17817	13.752	3.4545	0.	0.40312
17818	13.659	3.3636	0.	0.47406
17819	13.659	3.4545	5.e-002	24.113
17820	13.936	3.4545	0.	0.30489
17821	13.844	3.3636	0.	0.35575
17822	13.844	3.4545	5.e-002	20.204
17823	14.121	3.4545	0.	0.23085
17824	14.029	3.3636	0.	0.26651
17825	14.029	3.4545	5.e-002	17.111
17826	14.306	3.4545	0.	0.17436
17827	14.213	3.3636	0.	0.19901
17828	14.213	3.4545	5.e-002	14.647
17829	14.49	3.4545	0.	0.13164
17830	14.398	3.3636	0.	0.14853
17831	14.398	3.4545	5.e-002	12.679
17832	14.675	3.4545	0.	9.9477e-002
17833	14.583	3.3636	0.	0.111
17834	14.583	3.4545	5.e-002	11.104
17835	14.86	3.4545	0.	7.5384e-002
17836	14.767	3.3636	0.	8.3198e-002
17837	14.767	3.4545	5.e-002	9.8415
17838	15.044	3.4545	0.	5.7406e-002
17839	14.952	3.3636	0.	6.2666e-002
17840	14.952	3.4545	5.e-002	8.8285
17841	15.229	3.4545	0.	4.404e-002
17842	15.137	3.3636	0.	4.754e-002
17843	15.137	3.4545	5.e-002	8.0148
17844	15.413	3.4545	0.	3.4145e-002
17845	15.321	3.3636	0.	3.643e-002
17846	15.321	3.4545	5.e-002	7.3602
17847	15.598	3.4545	0.	2.6857e-002
17848	15.506	3.3636	0.	2.8302e-002
17849	15.506	3.4545	5.e-002	6.8327
17850	15.783	3.4545	0.	2.1525e-002
17851	15.69	3.3636	0.	2.2392e-002
17852	15.69	3.4545	5.e-002	6.4067
17853	15.967	3.4545	0.	1.7663e-002
17854	15.875	3.3636	0.	1.813e-002
17855	15.875	3.4545	5.e-002	6.0615
17856	16.152	3.4545	0.	1.4902e-002
17857	16.06	3.3636	0.	1.5099e-002
17858	16.06	3.4545	5.e-002	5.7808
17859	16.337	3.4545	0.	1.2975e-002
17860	16.244	3.3636	0.	1.2982e-002
17861	16.244	3.4545	5.e-002	5.5516
17862	16.521	3.4545	0.	1.1673e-002
17863	16.429	3.3636	0.	1.1558e-002
17864	16.429	3.4545	5.e-002	5.3634
17865	16.706	3.4545	0.	1.0829e-002
17866	16.614	3.3636	0.	1.0643e-002
17867	16.614	3.4545	5.e-002	5.208
17868	16.891	3.4545	0.	1.0339e-002
17869	16.798	3.3636	0.	1.0093e-002
17870	16.798	3.4545	5.e-002	5.0786
17871	17.075	3.4545	0.	1.0127e-002
17872	16.983	3.3636	0.	9.8482e-003
17873	16.983	3.4545	5.e-002	4.9701
17874	17.26	3.4545	0.	1.0117e-002
17875	17.168	3.3636	0.	9.8243e-003
17876	17.168	3.4545	5.e-002	4.8784
17877	17.445	3.4545	0.	1.0261e-002
17878	17.352	3.3636	0.	9.9575e-003
17879	17.352	3.4545	5.e-002	4.8002
17880	17.629	3.4545	0.	1.0528e-002
17881	17.537	3.3636	0.	1.0219e-002
17882	17.537	3.4545	5.e-002	4.7328
17883	17.814	3.4545	0.	1.0892e-002
17884	17.722	3.3636	0.	1.058e-002
17885	17.722	3.4545	5.e-002	4.6742
17886	17.999	3.4545	0.	1.1337e-002
17887	17.906	3.3636	0.	1.1021e-002
17888	17.906	3.4545	5.e-002	4.6227
17889	18.183	3.4545	0.	1.1852e-002
17890	18.091	3.3636	0.	1.1527e-002
17891	18.091	3.4545	5.e-002	4.5771
17892	18.368	3.4545	0.	1.2437e-002
17893	18.276	3.3636	0.	1.2095e-002
17894	18.276	3.4545	5.e-002	4.5363
17895	18.553	3.4545	0.	1.3104e-002
17896	18.46	3.3636	0.	1.2725e-002
17897	18.46	3.4545	5.e-002	4.4996
17898	18.737	3.4545	0.	1.3909e-002
17899	18.645	3.3636	0.	1.3431e-002
17900	18.645	3.4545	5.e-002	4.4663
17901	18.922	3.4545	0.	1.532e-002
17902	18.83	3.3636	0.	1.4297e-002
17903	18.83	3.4545	5.e-002	4.4359
17904	19.107	3.4545	0.	1.9552
17905	19.014	3.3636	0.	1.8472e-002
17906	19.014	3.4545	5.e-002	4.408
17907	19.291	3.4545	0.	6.4703
17908	19.199	3.3636	0.	4.1099
17909	19.199	3.4545	5.e-002	4.3823
17910	19.476	3.4545	0.	10.93
17911	19.384	3.3636	0.	8.6351
17912	19.384	3.4545	5.e-002	4.3587
17913	19.661	3.4545	0.	15.365
17914	19.568	3.3636	0.	13.118
17915	19.568	3.4545	5.e-002	4.3368
17916	19.845	3.4545	0.	19.803
17917	19.753	3.3636	0.	17.59
17918	19.753	3.4545	5.e-002	4.3167
17919	20.03	3.4545	0.	24.274
17920	19.938	3.3636	0.	22.08
17921	19.938	3.4545	5.e-002	4.2983
17922	20.215	3.4545	0.	28.807
17923	20.122	3.3636	0.	26.617
17924	20.122	3.4545	5.e-002	4.2815
17925	20.399	3.4545	0.	33.431
17926	20.307	3.3636	0.	31.231
17927	20.307	3.4545	5.e-002	4.2663
17928	20.584	3.4545	0.	38.174
17929	20.492	3.3636	0.	35.95
17930	20.492	3.4545	5.e-002	4.2527
17931	20.769	3.4545	0.	43.064
17932	20.676	3.3636	0.	40.804
17933	20.676	3.4545	5.e-002	4.2409
17934	20.953	3.4545	0.	48.13
17935	20.861	3.3636	0.	45.82
17936	20.861	3.4545	5.e-002	4.2309
17937	21.138	3.4545	0.	53.401
17938	21.046	3.3636	0.	51.028
17939	21.046	3.4545	5.e-002	4.2229
17940	21.322	3.4545	0.	58.905
17941	21.23	3.3636	0.	56.456
17942	21.23	3.4545	5.e-002	4.217
17943	21.507	3.4545	0.	64.671
17944	21.415	3.3636	0.	62.133
17945	21.415	3.4545	5.e-002	4.2134
17946	21.692	3.4545	0.	70.726
17947	21.599	3.3636	0.	68.086
17948	21.599	3.4545	5.e-002	4.2123
17949	21.876	3.4545	0.	77.098
17950	21.784	3.3636	0.	74.342
17951	21.784	3.4545	5.e-002	4.214
17952	22.061	3.4545	0.	83.811
17953	21.969	3.3636	0.	80.928
17954	21.969	3.4545	5.e-002	4.2187
17955	22.246	3.4545	0.	90.891
17956	22.153	3.3636	0.	87.867
17957	22.153	3.4545	5.e-002	4.2267
17958	22.43	3.4545	0.	98.359
17959	22.338	3.3636	0.	95.182
17960	22.338	3.4545	5.e-002	4.2385
17961	22.615	3.4545	0.	106.23
17962	22.523	3.3636	0.	102.89
17963	22.523	3.4545	5.e-002	4.2542
17964	22.8	3.4545	0.	114.53
17965	22.707	3.3636	0.	111.02
17966	22.707	3.4545	5.e-002	4.2741
17967	22.984	3.4545	0.	123.26
17968	22.892	3.3636	0.	119.56
17969	22.892	3.4545	5.e-002	4.2984
17970	23.169	3.4545	0.	132.42
17971	23.077	3.3636	0.	128.54
17972	23.077	3.4545	5.e-002	4.3274
17973	23.354	3.4545	0.	142.03
17974	23.261	3.3636	0.	137.95
17975	23.261	3.4545	5.e-002	4.3609
17976	23.538	3.4545	0.	152.08
17977	23.446	3.3636	0.	147.79
17978	23.446	3.4545	5.e-002	4.3987
17979	23.723	3.4545	0.	162.5
17980	23.631	3.3636	0.	158.1
17981	23.631	3.4545	5.e-002	4.4409
17982	23.815	3.3636	0.	168.64
17983	23.815	3.4545	5.e-002	4.4949
17984	23.908	3.4545	0.	172.76
17985	12.644	3.2727	0.	440.77
17986	12.551	3.1818	0.	544.81
17987	12.551	3.2727	5.e-002	38.045
17988	12.828	3.2727	0.	225.15
17989	12.736	3.1818	0.	329.84
17990	12.736	3.2727	5.e-002	48.233
17991	13.013	3.2727	0.	42.14
17992	12.921	3.1818	0.	125.98
17993	12.921	3.2727	5.e-002	47.644
17994	13.198	3.2727	0.	0.97811
17995	13.105	3.1818	0.	1.145
17996	13.105	3.2727	5.e-002	42.295
17997	13.382	3.2727	0.	0.73939
17998	13.29	3.1818	0.	0.83212
17999	13.29	3.2727	5.e-002	36.015
18000	13.567	3.2727	0.	0.57279
18001	13.475	3.1818	0.	0.66346
18002	13.475	3.2727	5.e-002	30.196
18003	13.752	3.2727	0.	0.43116
18004	13.659	3.1818	0.	0.50474
18005	13.659	3.2727	5.e-002	25.244
18006	13.936	3.2727	0.	0.32136
18007	13.844	3.1818	0.	0.37594
18008	13.844	3.2727	5.e-002	21.176
18009	14.121	3.2727	0.	0.23795
18010	14.029	3.1818	0.	0.27685
18011	14.029	3.2727	5.e-002	17.889
18012	14.306	3.2727	0.	0.17581
18013	14.213	3.1818	0.	0.20302
18014	14.213	3.2727	5.e-002	15.254
18015	14.49	3.2727	0.	0.12997
18016	14.398	3.1818	0.	0.14886
18017	14.398	3.2727	5.e-002	13.147
18018	14.675	3.2727	0.	9.6348e-002
18019	14.583	3.1818	0.	0.10941
18020	14.583	3.2727	5.e-002	11.465
18021	14.86	3.2727	0.	7.1751e-002
18022	14.767	3.1818	0.	8.077e-002
18023	14.767	3.2727	5.e-002	10.122
18024	15.044	3.2727	0.	5.379e-002
18025	14.952	3.1818	0.	6.0003e-002
18026	14.952	3.2727	5.e-002	9.0484
18027	15.229	3.2727	0.	4.0699e-002
18028	15.137	3.1818	0.	4.4959e-002
18029	15.137	3.2727	5.e-002	8.1884
18030	15.413	3.2727	0.	3.1184e-002
18031	15.321	3.1818	0.	3.408e-002
18032	15.321	3.2727	5.e-002	7.4984
18033	15.598	3.2727	0.	2.4301e-002
18034	15.506	3.1818	0.	2.6239e-002
18035	15.506	3.2727	5.e-002	6.9433
18036	15.783	3.2727	0.	1.9356e-002
18037	15.69	3.1818	0.	2.0621e-002
18038	15.69	3.2727	5.e-002	6.4956
18039	15.967	3.2727	0.	1.5844e-002
18040	15.875	3.1818	0.	1.6632e-002
18041	15.875	3.2727	5.e-002	6.1333
18042	16.152	3.2727	0.	1.3392e-002
18043	16.06	3.1818	0.	1.3848e-002
18044	16.06	3.2727	5.e-002	5.8389
18045	16.337	3.2727	0.	1.1729e-002
18046	16.244	3.1818	0.	1.1945e-002
18047	16.244	3.2727	5.e-002	5.5986
18048	16.521	3.2727	0.	1.0652e-002
18049	16.429	3.1818	0.	1.0706e-002
18050	16.429	3.2727	5.e-002	5.4014
18051	16.706	3.2727	0.	1.e-002
18052	16.614	3.1818	0.	9.9461e-003
18053	16.614	3.2727	5.e-002	5.2387
18054	16.891	3.2727	0.	9.6716e-003
18055	16.798	3.1818	0.	9.5297e-003
18056	16.798	3.2727	5.e-002	5.1035
18057	17.075	3.2727	0.	9.5953e-003
18058	16.983	3.1818	0.	9.3955e-003
18059	16.983	3.2727	5.e-002	4.9903
18060	17.26	3.2727	0.	9.6992e-003
18061	17.168	3.1818	0.	9.4656e-003
18062	17.168	3.2727	5.e-002	4.8948
18063	17.445	3.2727	0.	9.9377e-003
18064	17.352	3.1818	0.	9.6776e-003
18065	17.352	3.2727	5.e-002	4.8135
18066	17.629	3.2727	0.	1.0284e-002
18067	17.537	3.1818	0.	1.0004e-002
18068	17.537	3.2727	5.e-002	4.7436
18069	17.814	3.2727	0.	1.0713e-002
18070	17.722	3.1818	0.	1.042e-002
18071	17.722	3.2727	5.e-002	4.683
18072	17.999	3.2727	0.	1.1209e-002
18073	17.906	3.1818	0.	1.0903e-002
18074	17.906	3.2727	5.e-002	4.63
18075	18.183	3.2727	0.	1.1762e-002
18076	18.091	3.1818	0.	1.1445e-002
18077	18.091	3.2727	5.e-002	4.5831
18078	18.368	3.2727	0.	1.237e-002
18079	18.276	3.1818	0.	1.2037e-002
18080	18.276	3.2727	5.e-002	4.5413
18081	18.553	3.2727	0.	1.3033e-002
18082	18.46	3.1818	0.	1.2676e-002
18083	18.46	3.2727	5.e-002	4.5038
18084	18.737	3.2727	0.	1.3767e-002
18085	18.645	3.1818	0.	1.3363e-002
18086	18.645	3.2727	5.e-002	4.4698
18087	18.922	3.2727	0.	1.4712e-002
18088	18.83	3.1818	0.	1.4119e-002
18089	18.83	3.2727	5.e-002	4.4389
18090	19.107	3.2727	0.	1.689
18091	19.014	3.1818	0.	1.5443e-002
18092	19.014	3.2727	5.e-002	4.4106
18093	19.291	3.2727	0.	6.2973
18094	19.199	3.1818	0.	3.9458
18095	19.199	3.2727	5.e-002	4.3846
18096	19.476	3.2727	0.	10.846
18097	19.384	3.1818	0.	8.5393
18098	19.384	3.2727	5.e-002	4.3607
18099	19.661	3.2727	0.	15.368
18100	19.568	3.1818	0.	13.088
18101	19.568	3.2727	5.e-002	4.3387
18102	19.845	3.2727	0.	19.891
18103	19.753	3.1818	0.	17.625
18104	19.753	3.2727	5.e-002	4.3185
18105	20.03	3.2727	0.	24.447
18106	19.938	3.1818	0.	22.178
18107	19.938	3.2727	5.e-002	4.3
18108	20.215	3.2727	0.	29.066
18109	20.122	3.1818	0.	26.779
18110	20.122	3.2727	5.e-002	4.2831
18111	20.399	3.2727	0.	33.775
18112	20.307	3.1818	0.	31.458
18113	20.307	3.2727	5.e-002	4.2679
18114	20.584	3.2727	0.	38.606
18115	20.492	3.1818	0.	36.242
18116	20.492	3.2727	5.e-002	4.2544
18117	20.769	3.2727	0.	43.585
18118	20.676	3.1818	0.	41.162
18119	20.676	3.2727	5.e-002	4.2426
18120	20.953	3.2727	0.	48.743
18121	20.861	3.1818	0.	46.246
18122	20.861	3.2727	5.e-002	4.2327
18123	21.138	3.2727	0.	54.107
18124	21.046	3.1818	0.	51.523
18125	21.046	3.2727	5.e-002	4.2248
18126	21.322	3.2727	0.	59.707
18127	21.23	3.1818	0.	57.022
18128	21.23	3.2727	5.e-002	4.219
18129	21.507	3.2727	0.	65.57
18130	21.415	3.1818	0.	62.771
18131	21.415	3.2727	5.e-002	4.2156
18132	21.692	3.2727	0.	71.723
18133	21.599	3.1818	0.	68.797
18134	21.599	3.2727	5.e-002	4.2147
18135	21.876	3.2727	0.	78.192
18136	21.784	3.1818	0.	75.127
18137	21.784	3.2727	5.e-002	4.2166
18138	22.061	3.2727	0.	85.002
18139	21.969	3.1818	0.	81.786
18140	21.969	3.2727	5.e-002	4.2216
18141	22.246	3.2727	0.	92.176
18142	22.153	3.1818	0.	88.797
18143	22.153	3.2727	5.e-002	4.2299
18144	22.43	3.2727	0.	99.733
18145	22.338	3.1818	0.	96.181
18146	22.338	3.2727	5.e-002	4.2418
18147	22.615	3.2727	0.	107.69
18148	22.523	3.1818	0.	103.96
18149	22.523	3.2727	5.e-002	4.2577
18150	22.8	3.2727	0.	116.06
18151	22.707	3.1818	0.	112.14
18152	22.707	3.2727	5.e-002	4.2777
18153	22.984	3.2727	0.	124.85
18154	22.892	3.1818	0.	120.74
18155	22.892	3.2727	5.e-002	4.302
18156	23.169	3.2727	0.	134.08
18157	23.077	3.1818	0.	129.76
18158	23.077	3.2727	5.e-002	4.3307
18159	23.354	3.2727	0.	143.72
18160	23.261	3.1818	0.	139.21
18161	23.261	3.2727	5.e-002	4.3638
18162	23.538	3.2727	0.	153.81
18163	23.446	3.1818	0.	149.07
18164	23.446	3.2727	5.e-002	4.4009
18165	23.723	3.2727	0.	164.24
18166	23.631	3.1818	0.	159.4
18167	23.631	3.2727	5.e-002	4.442
18168	23.815	3.1818	0.	169.95
18169	23.815	3.2727	5.e-002	4.4919
18170	23.908	3.2727	0.	174.52
18171	12.644	3.0909	0.	439.76
18172	12.551	3.	0.	539.03
18173	12.551	3.0909	5.e-002	29.788
18174	12.828	3.0909	0.	238.36
18175	12.736	3.	0.	334.94
18176	12.736	3.0909	5.e-002	40.536
18177	13.013	3.0909	0.	57.581
18178	12.921	3.	0.	134.67
18179	12.921	3.0909	5.e-002	43.342
18180	13.198	3.0909	0.	0.86697
18181	13.105	3.	0.	0.88191
18182	13.105	3.0909	5.e-002	40.798
18183	13.382	3.0909	0.	0.75133
18184	13.29	3.	0.	0.8288
18185	13.29	3.0909	5.e-002	35.936
18186	13.567	3.0909	0.	0.59566
18187	13.475	3.	0.	0.67406
18188	13.475	3.0909	5.e-002	30.647
18189	13.752	3.0909	0.	0.45144
18190	13.659	3.	0.	0.51733
18191	13.659	3.0909	5.e-002	25.8
18192	13.936	3.0909	0.	0.33384
18193	13.844	3.	0.	0.38431
18194	13.844	3.0909	5.e-002	21.678
18195	14.121	3.0909	0.	0.24429
18196	14.029	3.	0.	0.28146
18197	14.029	3.0909	5.e-002	18.297
18198	14.306	3.0909	0.	0.17817
18199	14.213	3.	0.	0.20506
18200	14.213	3.0909	5.e-002	15.571
18201	14.49	3.0909	0.	0.13006
18202	14.398	3.	0.	0.14936
18203	14.398	3.0909	5.e-002	13.391
18204	14.675	3.0909	0.	9.5278e-002
18205	14.583	3.	0.	0.1091
18206	14.583	3.0909	5.e-002	11.652
18207	14.86	3.0909	0.	7.0187e-002
18208	14.767	3.	0.	8.0074e-002
18209	14.767	3.0909	5.e-002	10.266
18210	15.044	3.0909	0.	5.21e-002
18211	14.952	3.	0.	5.9171e-002
18212	14.952	3.0909	5.e-002	9.1606
18213	15.229	3.0909	0.	3.9074e-002
18214	15.137	3.	0.	4.4123e-002
18215	15.137	3.0909	5.e-002	8.2766
18216	15.413	3.0909	0.	2.9712e-002
18217	15.321	3.	0.	3.3304e-002
18218	15.321	3.0909	5.e-002	7.5683
18219	15.598	3.0909	0.	2.3012e-002
18220	15.506	3.	0.	2.5549e-002
18221	15.506	3.0909	5.e-002	6.9992
18222	15.783	3.0909	0.	1.8251e-002
18223	15.69	3.	0.	2.0025e-002
18224	15.69	3.0909	5.e-002	6.5404
18225	15.967	3.0909	0.	1.4912e-002
18226	15.875	3.	0.	1.6126e-002
18227	15.875	3.0909	5.e-002	6.1694
18228	16.152	3.0909	0.	1.2614e-002
18229	16.06	3.	0.	1.3423e-002
18230	16.06	3.0909	5.e-002	5.8681
18231	16.337	3.0909	0.	1.1086e-002
18232	16.244	3.	0.	1.1592e-002
18233	16.244	3.0909	5.e-002	5.6222
18234	16.521	3.0909	0.	1.0125e-002
18235	16.429	3.	0.	1.0415e-002
18236	16.429	3.0909	5.e-002	5.4206
18237	16.706	3.0909	0.	9.5711e-003
18238	16.614	3.	0.	9.7083e-003
18239	16.614	3.0909	5.e-002	5.2542
18240	16.891	3.0909	0.	9.3248e-003
18241	16.798	3.	0.	9.3365e-003
18242	16.798	3.0909	5.e-002	5.1161
18243	17.075	3.0909	0.	9.3178e-003
18244	16.983	3.	0.	9.2401e-003
18245	16.983	3.0909	5.e-002	5.0005
18246	17.26	3.0909	0.	9.4806e-003
18247	17.168	3.	0.	9.3432e-003
18248	17.168	3.0909	5.e-002	4.9031
18249	17.445	3.0909	0.	9.7681e-003
18250	17.352	3.	0.	9.5809e-003
18251	17.352	3.0909	5.e-002	4.8202
18252	17.629	3.0909	0.	1.0155e-002
18253	17.537	3.	0.	9.9314e-003
18254	17.537	3.0909	5.e-002	4.7491
18255	17.814	3.0909	0.	1.0617e-002
18256	17.722	3.	0.	1.0364e-002
18257	17.722	3.0909	5.e-002	4.6875
18258	17.999	3.0909	0.	1.114e-002
18259	17.906	3.	0.	1.0863e-002
18260	17.906	3.0909	5.e-002	4.6336
18261	18.183	3.0909	0.	1.1716e-002
18262	18.091	3.	0.	1.1417e-002
18263	18.091	3.0909	5.e-002	4.5861
18264	18.368	3.0909	0.	1.2336e-002
18265	18.276	3.	0.	1.2017e-002
18266	18.276	3.0909	5.e-002	4.5438
18267	18.553	3.0909	0.	1.2998e-002
18268	18.46	3.	0.	1.266e-002
18269	18.46	3.0909	5.e-002	4.5059
18270	18.737	3.0909	0.	1.3705e-002
18271	18.645	3.	0.	1.3342e-002
18272	18.645	3.0909	5.e-002	4.4716
18273	18.922	3.0909	0.	1.4469e-002
18274	18.83	3.	0.	1.4065e-002
18275	18.83	3.0909	5.e-002	4.4404
18276	19.107	3.0909	0.	1.5548
18277	19.014	3.	0.	1.4831e-002
18278	19.014	3.0909	5.e-002	4.412
18279	19.291	3.0909	0.	6.2102
18280	19.199	3.	0.	3.8909
18281	19.199	3.0909	5.e-002	4.3858
18282	19.476	3.0909	0.	10.804
18283	19.384	3.	0.	8.5072
18284	19.384	3.0909	5.e-002	4.3618
18285	19.661	3.0909	0.	15.369
18286	19.568	3.	0.	13.079
18287	19.568	3.0909	5.e-002	4.3397
18288	19.845	3.0909	0.	19.936
18289	19.753	3.	0.	17.636
18290	19.753	3.0909	5.e-002	4.3194
18291	20.03	3.0909	0.	24.535
18292	19.938	3.	0.	22.211
18293	19.938	3.0909	5.e-002	4.3008
18294	20.215	3.0909	0.	29.196
18295	20.122	3.	0.	26.834
18296	20.122	3.0909	5.e-002	4.2839
18297	20.399	3.0909	0.	33.949
18298	20.307	3.	0.	31.534
18299	20.307	3.0909	5.e-002	4.2687
18300	20.584	3.0909	0.	38.823
18301	20.492	3.	0.	36.34
18302	20.492	3.0909	5.e-002	4.2552
18303	20.769	3.0909	0.	43.847
18304	20.676	3.	0.	41.282
18305	20.676	3.0909	5.e-002	4.2435
18306	20.953	3.0909	0.	49.051
18307	20.861	3.	0.	46.389
18308	20.861	3.0909	5.e-002	4.2336
18309	21.138	3.0909	0.	54.462
18310	21.046	3.	0.	51.689
18311	21.046	3.0909	5.e-002	4.2258
18312	21.322	3.0909	0.	60.11
18313	21.23	3.	0.	57.212
18314	21.23	3.0909	5.e-002	4.2201
18315	21.507	3.0909	0.	66.021
18316	21.415	3.	0.	62.985
18317	21.415	3.0909	5.e-002	4.2167
18318	21.692	3.0909	0.	72.223
18319	21.599	3.	0.	69.035
18320	21.599	3.0909	5.e-002	4.216
18321	21.876	3.0909	0.	78.741
18322	21.784	3.	0.	75.389
18323	21.784	3.0909	5.e-002	4.218
18324	22.061	3.0909	0.	85.599
18325	21.969	3.	0.	82.072
18326	21.969	3.0909	5.e-002	4.2231
18327	22.246	3.0909	0.	92.819
18328	22.153	3.	0.	89.107
18329	22.153	3.0909	5.e-002	4.2315
18330	22.43	3.0909	0.	100.42
18331	22.338	3.	0.	96.514
18332	22.338	3.0909	5.e-002	4.2435
18333	22.615	3.0909	0.	108.42
18334	22.523	3.	0.	104.31
18335	22.523	3.0909	5.e-002	4.2595
18336	22.8	3.0909	0.	116.83
18337	22.707	3.	0.	112.51
18338	22.707	3.0909	5.e-002	4.2795
18339	22.984	3.0909	0.	125.65
18340	22.892	3.	0.	121.13
18341	22.892	3.0909	5.e-002	4.3038
18342	23.169	3.0909	0.	134.9
18343	23.077	3.	0.	130.16
18344	23.077	3.0909	5.e-002	4.3324
18345	23.354	3.0909	0.	144.57
18346	23.261	3.	0.	139.63
18347	23.261	3.0909	5.e-002	4.3652
18348	23.538	3.0909	0.	154.67
18349	23.446	3.	0.	149.5
18350	23.446	3.0909	5.e-002	4.402
18351	23.723	3.0909	0.	165.11
18352	23.631	3.	0.	159.83
18353	23.631	3.0909	5.e-002	4.4425
18354	23.815	3.	0.	170.38
18355	23.815	3.0909	5.e-002	4.4904
18356	23.908	3.0909	0.	175.4
18357	12.644	2.9091	0.	439.76
18358	12.551	2.8182	0.	544.81
18359	12.551	2.9091	5.e-002	29.789
18360	12.828	2.9091	0.	238.36
18361	12.736	2.8182	0.	329.84
18362	12.736	2.9091	5.e-002	40.536
18363	13.013	2.9091	0.	57.581
18364	12.921	2.8182	0.	125.98
18365	12.921	2.9091	5.e-002	43.342
18366	13.198	2.9091	0.	0.86697
18367	13.105	2.8182	0.	1.145
18368	13.105	2.9091	5.e-002	40.798
18369	13.382	2.9091	0.	0.75133
18370	13.29	2.8182	0.	0.83212
18371	13.29	2.9091	5.e-002	35.936
18372	13.567	2.9091	0.	0.59566
18373	13.475	2.8182	0.	0.66346
18374	13.475	2.9091	5.e-002	30.647
18375	13.752	2.9091	0.	0.45144
18376	13.659	2.8182	0.	0.50474
18377	13.659	2.9091	5.e-002	25.8
18378	13.936	2.9091	0.	0.33384
18379	13.844	2.8182	0.	0.37594
18380	13.844	2.9091	5.e-002	21.678
18381	14.121	2.9091	0.	0.24429
18382	14.029	2.8182	0.	0.27685
18383	14.029	2.9091	5.e-002	18.297
18384	14.306	2.9091	0.	0.17817
18385	14.213	2.8182	0.	0.20302
18386	14.213	2.9091	5.e-002	15.571
18387	14.49	2.9091	0.	0.13006
18388	14.398	2.8182	0.	0.14886
18389	14.398	2.9091	5.e-002	13.391
18390	14.675	2.9091	0.	9.5279e-002
18391	14.583	2.8182	0.	0.10941
18392	14.583	2.9091	5.e-002	11.652
18393	14.86	2.9091	0.	7.0187e-002
18394	14.767	2.8182	0.	8.077e-002
18395	14.767	2.9091	5.e-002	10.266
18396	15.044	2.9091	0.	5.2101e-002
18397	14.952	2.8182	0.	6.0003e-002
18398	14.952	2.9091	5.e-002	9.1606
18399	15.229	2.9091	0.	3.9074e-002
18400	15.137	2.8182	0.	4.4959e-002
18401	15.137	2.9091	5.e-002	8.2766
18402	15.413	2.9091	0.	2.9711e-002
18403	15.321	2.8182	0.	3.408e-002
18404	15.321	2.9091	5.e-002	7.5683
18405	15.598	2.9091	0.	2.3011e-002
18406	15.506	2.8182	0.	2.6238e-002
18407	15.506	2.9091	5.e-002	6.9992
18408	15.783	2.9091	0.	1.8252e-002
18409	15.69	2.8182	0.	2.0621e-002
18410	15.69	2.9091	5.e-002	6.5404
18411	15.967	2.9091	0.	1.4911e-002
18412	15.875	2.8182	0.	1.6633e-002
18413	15.875	2.9091	5.e-002	6.1694
18414	16.152	2.9091	0.	1.2613e-002
18415	16.06	2.8182	0.	1.3846e-002
18416	16.06	2.9091	5.e-002	5.8681
18417	16.337	2.9091	0.	1.1085e-002
18418	16.244	2.8182	0.	1.1944e-002
18419	16.244	2.9091	5.e-002	5.6222
18420	16.521	2.9091	0.	1.0124e-002
18421	16.429	2.8182	0.	1.0705e-002
18422	16.429	2.9091	5.e-002	5.4206
18423	16.706	2.9091	0.	9.5697e-003
18424	16.614	2.8182	0.	9.9457e-003
18425	16.614	2.9091	5.e-002	5.2542
18426	16.891	2.9091	0.	9.3236e-003
18427	16.798	2.8182	0.	9.528e-003
18428	16.798	2.9091	5.e-002	5.1161
18429	17.075	2.9091	0.	9.3181e-003
18430	16.983	2.8182	0.	9.3952e-003
18431	16.983	2.9091	5.e-002	5.0005
18432	17.26	2.9091	0.	9.4807e-003
18433	17.168	2.8182	0.	9.4665e-003
18434	17.168	2.9091	5.e-002	4.9031
18435	17.445	2.9091	0.	9.7691e-003
18436	17.352	2.8182	0.	9.6771e-003
18437	17.352	2.9091	5.e-002	4.8202
18438	17.629	2.9091	0.	1.0156e-002
18439	17.537	2.8182	0.	1.0005e-002
18440	17.537	2.9091	5.e-002	4.7491
18441	17.814	2.9091	0.	1.0618e-002
18442	17.722	2.8182	0.	1.042e-002
18443	17.722	2.9091	5.e-002	4.6875
18444	17.999	2.9091	0.	1.1141e-002
18445	17.906	2.8182	0.	1.0904e-002
18446	17.906	2.9091	5.e-002	4.6336
18447	18.183	2.9091	0.	1.1715e-002
18448	18.091	2.8182	0.	1.1445e-002
18449	18.091	2.9091	5.e-002	4.5861
18450	18.368	2.9091	0.	1.2335e-002
18451	18.276	2.8182	0.	1.2036e-002
18452	18.276	2.9091	5.e-002	4.5438
18453	18.553	2.9091	0.	1.2998e-002
18454	18.46	2.8182	0.	1.2676e-002
18455	18.46	2.9091	5.e-002	4.5059
18456	18.737	2.9091	0.	1.3704e-002
18457	18.645	2.8182	0.	1.3363e-002
18458	18.645	2.9091	5.e-002	4.4716
18459	18.922	2.9091	0.	1.4469e-002
18460	18.83	2.8182	0.	1.4119e-002
18461	18.83	2.9091	5.e-002	4.4404
18462	19.107	2.9091	0.	1.5548
18463	19.014	2.8182	0.	1.5444e-002
18464	19.014	2.9091	5.e-002	4.412
18465	19.291	2.9091	0.	6.2102
18466	19.199	2.8182	0.	3.9458
18467	19.199	2.9091	5.e-002	4.3858
18468	19.476	2.9091	0.	10.804
18469	19.384	2.8182	0.	8.5392
18470	19.384	2.9091	5.e-002	4.3618
18471	19.661	2.9091	0.	15.369
18472	19.568	2.8182	0.	13.088
18473	19.568	2.9091	5.e-002	4.3397
18474	19.845	2.9091	0.	19.936
18475	19.753	2.8182	0.	17.625
18476	19.753	2.9091	5.e-002	4.3194
18477	20.03	2.9091	0.	24.535
18478	19.938	2.8182	0.	22.178
18479	19.938	2.9091	5.e-002	4.3008
18480	20.215	2.9091	0.	29.196
18481	20.122	2.8182	0.	26.779
18482	20.122	2.9091	5.e-002	4.2839
18483	20.399	2.9091	0.	33.949
18484	20.307	2.8182	0.	31.458
18485	20.307	2.9091	5.e-002	4.2687
18486	20.584	2.9091	0.	38.823
18487	20.492	2.8182	0.	36.242
18488	20.492	2.9091	5.e-002	4.2552
18489	20.769	2.9091	0.	43.847
18490	20.676	2.8182	0.	41.162
18491	20.676	2.9091	5.e-002	4.2435
18492	20.953	2.9091	0.	49.051
18493	20.861	2.8182	0.	46.246
18494	20.861	2.9091	5.e-002	4.2336
18495	21.138	2.9091	0.	54.462
18496	21.046	2.8182	0.	51.523
18497	21.046	2.9091	5.e-002	4.2258
18498	21.322	2.9091	0.	60.11
18499	21.23	2.8182	0.	57.022
18500	21.23	2.9091	5.e-002	4.2201
18501	21.507	2.9091	0.	66.021
18502	21.415	2.8182	0.	62.771
18503	21.415	2.9091	5.e-002	4.2167
18504	21.692	2.9091	0.	72.223
18505	21.599	2.8182	0.	68.797
18506	21.599	2.9091	5.e-002	4.216
18507	21.876	2.9091	0.	78.741
18508	21.784	2.8182	0.	75.127
18509	21.784	2.9091	5.e-002	4.218
18510	22.061	2.9091	0.	85.599
18511	21.969	2.8182	0.	81.786
18512	21.969	2.9091	5.e-002	4.2231
18513	22.246	2.9091	0.	92.819
18514	22.153	2.8182	0.	88.797
18515	22.153	2.9091	5.e-002	4.2315
18516	22.43	2.9091	0.	100.42
18517	22.338	2.8182	0.	96.181
18518	22.338	2.9091	5.e-002	4.2435
18519	22.615	2.9091	0.	108.42
18520	22.523	2.8182	0.	103.96
18521	22.523	2.9091	5.e-002	4.2595
18522	22.8	2.9091	0.	116.83
18523	22.707	2.8182	0.	112.14
18524	22.707	2.9091	5.e-002	4.2795
18525	22.984	2.9091	0.	125.65
18526	22.892	2.8182	0.	120.74
18527	22.892	2.9091	5.e-002	4.3038
18528	23.169	2.9091	0.	134.9
18529	23.077	2.8182	0.	129.76
18530	23.077	2.9091	5.e-002	4.3324
18531	23.354	2.9091	0.	144.57
18532	23.261	2.8182	0.	139.21
18533	23.261	2.9091	5.e-002	4.3652
18534	23.538	2.9091	0.	154.67
18535	23.446	2.8182	0.	149.07
18536	23.446	2.9091	5.e-002	4.402
18537	23.723	2.9091	0.	165.11
18538	23.631	2.8182	0.	159.4
18539	23.631	2.9091	5.e-002	4.4425
18540	23.815	2.8182	0.	169.95
18541	23.815	2.9091	5.e-002	4.4904
18542	23.908	2.9091	0.	175.4
18543	12.644	2.7273	0.	440.77
18544	12.551	2.6364	0.	559.16
18545	12.551	2.7273	5.e-002	38.046
18546	12.828	2.7273	0.	225.15
18547	12.736	2.6364	0.	313.23
18548	12.736	2.7273	5.e-002	48.234
18549	13.013	2.7273	0.	42.14
18550	12.921	2.6364	0.	100.23
18551	12.921	2.7273	5.e-002	47.644
18552	13.198	2.7273	0.	0.97811
18553	13.105	2.6364	0.	1.3995
18554	13.105	2.7273	5.e-002	42.295
18555	13.382	2.7273	0.	0.73939
18556	13.29	2.6364	0.	0.84235
18557	13.29	2.7273	5.e-002	36.015
18558	13.567	2.7273	0.	0.57279
18559	13.475	2.6364	0.	0.62261
18560	13.475	2.7273	5.e-002	30.196
18561	13.752	2.7273	0.	0.43116
18562	13.659	2.6364	0.	0.47406
18563	13.659	2.7273	5.e-002	25.244
18564	13.936	2.7273	0.	0.32136
18565	13.844	2.6364	0.	0.35575
18566	13.844	2.7273	5.e-002	21.176
18567	14.121	2.7273	0.	0.23795
18568	14.029	2.6364	0.	0.26651
18569	14.029	2.7273	5.e-002	17.89
18570	14.306	2.7273	0.	0.17581
18571	14.213	2.6364	0.	0.199
18572	14.213	2.7273	5.e-002	15.254
18573	14.49	2.7273	0.	0.12997
18574	14.398	2.6364	0.	0.14853
18575	14.398	2.7273	5.e-002	13.147
18576	14.675	2.7273	0.	9.6348e-002
18577	14.583	2.6364	0.	0.111
18578	14.583	2.7273	5.e-002	11.465
18579	14.86	2.7273	0.	7.1751e-002
18580	14.767	2.6364	0.	8.3198e-002
18581	14.767	2.7273	5.e-002	10.122
18582	15.044	2.7273	0.	5.379e-002
18583	14.952	2.6364	0.	6.2666e-002
18584	14.952	2.7273	5.e-002	9.0484
18585	15.229	2.7273	0.	4.0699e-002
18586	15.137	2.6364	0.	4.754e-002
18587	15.137	2.7273	5.e-002	8.1884
18588	15.413	2.7273	0.	3.1185e-002
18589	15.321	2.6364	0.	3.643e-002
18590	15.321	2.7273	5.e-002	7.4984
18591	15.598	2.7273	0.	2.4301e-002
18592	15.506	2.6364	0.	2.8303e-002
18593	15.506	2.7273	5.e-002	6.9434
18594	15.783	2.7273	0.	1.9355e-002
18595	15.69	2.6364	0.	2.2392e-002
18596	15.69	2.7273	5.e-002	6.4957
18597	15.967	2.7273	0.	1.5843e-002
18598	15.875	2.6364	0.	1.813e-002
18599	15.875	2.7273	5.e-002	6.1333
18600	16.152	2.7273	0.	1.3391e-002
18601	16.06	2.6364	0.	1.5099e-002
18602	16.06	2.7273	5.e-002	5.8389
18603	16.337	2.7273	0.	1.1729e-002
18604	16.244	2.6364	0.	1.2982e-002
18605	16.244	2.7273	5.e-002	5.5986
18606	16.521	2.7273	0.	1.0652e-002
18607	16.429	2.6364	0.	1.1558e-002
18608	16.429	2.7273	5.e-002	5.4015
18609	16.706	2.7273	0.	9.9995e-003
18610	16.614	2.6364	0.	1.0642e-002
18611	16.614	2.7273	5.e-002	5.2388
18612	16.891	2.7273	0.	9.6708e-003
18613	16.798	2.6364	0.	1.0092e-002
18614	16.798	2.7273	5.e-002	5.1036
18615	17.075	2.7273	0.	9.5956e-003
18616	16.983	2.6364	0.	9.8476e-003
18617	16.983	2.7273	5.e-002	4.9903
18618	17.26	2.7273	0.	9.6995e-003
18619	17.168	2.6364	0.	9.8247e-003
18620	17.168	2.7273	5.e-002	4.8948
18621	17.445	2.7273	0.	9.9375e-003
18622	17.352	2.6364	0.	9.9577e-003
18623	17.352	2.7273	5.e-002	4.8135
18624	17.629	2.7273	0.	1.0283e-002
18625	17.537	2.6364	0.	1.0219e-002
18626	17.537	2.7273	5.e-002	4.7436
18627	17.814	2.7273	0.	1.0712e-002
18628	17.722	2.6364	0.	1.058e-002
18629	17.722	2.7273	5.e-002	4.683
18630	17.999	2.7273	0.	1.1209e-002
18631	17.906	2.6364	0.	1.102e-002
18632	17.906	2.7273	5.e-002	4.63
18633	18.183	2.7273	0.	1.1763e-002
18634	18.091	2.6364	0.	1.1527e-002
18635	18.091	2.7273	5.e-002	4.5831
18636	18.368	2.7273	0.	1.237e-002
18637	18.276	2.6364	0.	1.2095e-002
18638	18.276	2.7273	5.e-002	4.5413
18639	18.553	2.7273	0.	1.3032e-002
18640	18.46	2.6364	0.	1.2724e-002
18641	18.46	2.7273	5.e-002	4.5038
18642	18.737	2.7273	0.	1.3767e-002
18643	18.645	2.6364	0.	1.343e-002
18644	18.645	2.7273	5.e-002	4.4698
18645	18.922	2.7273	0.	1.4712e-002
18646	18.83	2.6364	0.	1.4297e-002
18647	18.83	2.7273	5.e-002	4.4389
18648	19.107	2.7273	0.	1.689
18649	19.014	2.6364	0.	1.8472e-002
18650	19.014	2.7273	5.e-002	4.4106
18651	19.291	2.7273	0.	6.2973
18652	19.199	2.6364	0.	4.1099
18653	19.199	2.7273	5.e-002	4.3847
18654	19.476	2.7273	0.	10.846
18655	19.384	2.6364	0.	8.6351
18656	19.384	2.7273	5.e-002	4.3608
18657	19.661	2.7273	0.	15.368
18658	19.568	2.6364	0.	13.118
18659	19.568	2.7273	5.e-002	4.3387
18660	19.845	2.7273	0.	19.891
18661	19.753	2.6364	0.	17.59
18662	19.753	2.7273	5.e-002	4.3185
18663	20.03	2.7273	0.	24.447
18664	19.938	2.6364	0.	22.08
18665	19.938	2.7273	5.e-002	4.3
18666	20.215	2.7273	0.	29.066
18667	20.122	2.6364	0.	26.617
18668	20.122	2.7273	5.e-002	4.2831
18669	20.399	2.7273	0.	33.775
18670	20.307	2.6364	0.	31.231
18671	20.307	2.7273	5.e-002	4.2679
18672	20.584	2.7273	0.	38.606
18673	20.492	2.6364	0.	35.95
18674	20.492	2.7273	5.e-002	4.2544
18675	20.769	2.7273	0.	43.585
18676	20.676	2.6364	0.	40.804
18677	20.676	2.7273	5.e-002	4.2426
18678	20.953	2.7273	0.	48.743
18679	20.861	2.6364	0.	45.82
18680	20.861	2.7273	5.e-002	4.2327
18681	21.138	2.7273	0.	54.107
18682	21.046	2.6364	0.	51.028
18683	21.046	2.7273	5.e-002	4.2248
18684	21.322	2.7273	0.	59.707
18685	21.23	2.6364	0.	56.456
18686	21.23	2.7273	5.e-002	4.2191
18687	21.507	2.7273	0.	65.57
18688	21.415	2.6364	0.	62.133
18689	21.415	2.7273	5.e-002	4.2156
18690	21.692	2.7273	0.	71.723
18691	21.599	2.6364	0.	68.086
18692	21.599	2.7273	5.e-002	4.2147
18693	21.876	2.7273	0.	78.192
18694	21.784	2.6364	0.	74.342
18695	21.784	2.7273	5.e-002	4.2166
18696	22.061	2.7273	0.	85.002
18697	21.969	2.6364	0.	80.928
18698	21.969	2.7273	5.e-002	4.2216
18699	22.246	2.7273	0.	92.176
18700	22.153	2.6364	0.	87.867
18701	22.153	2.7273	5.e-002	4.2299
18702	22.43	2.7273	0.	99.733
18703	22.338	2.6364	0.	95.182
18704	22.338	2.7273	5.e-002	4.2418
18705	22.615	2.7273	0.	107.69
18706	22.523	2.6364	0.	102.89
18707	22.523	2.7273	5.e-002	4.2577
18708	22.8	2.7273	0.	116.06
18709	22.707	2.6364	0.	111.02
18710	22.707	2.7273	5.e-002	4.2777
18711	22.984	2.7273	0.	124.85
18712	22.892	2.6364	0.	119.56
18713	22.892	2.7273	5.e-002	4.302
18714	23.169	2.7273	0.	134.08
18715	23.077	2.6364	0.	128.54
18716	23.077	2.7273	5.e-002	4.3307
18717	23.354	2.7273	0.	143.72
18718	23.261	2.6364	0.	137.95
18719	23.261	2.7273	5.e-002	4.3638
18720	23.538	2.7273	0.	153.81
18721	23.446	2.6364	0.	147.79
18722	23.446	2.7273	5.e-002	4.4009
18723	23.723	2.7273	0.	164.24
18724	23.631	2.6364	0.	158.1
18725	23.631	2.7273	5.e-002	4.442
18726	23.815	2.6364	0.	168.64
18727	23.815	2.7273	5.e-002	4.4919
18728	23.908	2.7273	0.	174.52
18729	12.644	2.5455	0.	439.31
18730	12.551	2.4545	0.	586.38
18731	12.551	2.5455	5.e-002	62.03
18732	12.828	2.5455	0.	197.82
18733	12.736	2.4545	0.	275.16
18734	12.736	2.5455	5.e-002	65.899
18735	13.013	2.5455	0.	15.699
18736	12.921	2.4545	0.	62.157
18737	12.921	2.5455	5.e-002	54.776
18738	13.198	2.5455	0.	1.0603
18739	13.105	2.4545	0.	1.1083
18740	13.105	2.5455	5.e-002	44.231
18741	13.382	2.5455	0.	0.7196
18742	13.29	2.4545	0.	0.82058
18743	13.29	2.5455	5.e-002	35.626
18744	13.567	2.5455	0.	0.52745
18745	13.475	2.4545	0.	0.58121
18746	13.475	2.5455	5.e-002	29.111
18747	13.752	2.5455	0.	0.40312
18748	13.659	2.4545	0.	0.44251
18749	13.659	2.5455	5.e-002	24.113
18750	13.936	2.5455	0.	0.30489
18751	13.844	2.4545	0.	0.33968
18752	13.844	2.5455	5.e-002	20.204
18753	14.121	2.5455	0.	0.23085
18754	14.029	2.4545	0.	0.25975
18755	14.029	2.5455	5.e-002	17.111
18756	14.306	2.5455	0.	0.17436
18757	14.213	2.4545	0.	0.19867
18758	14.213	2.5455	5.e-002	14.647
18759	14.49	2.5455	0.	0.13164
18760	14.398	2.4545	0.	0.15154
18761	14.398	2.5455	5.e-002	12.679
18762	14.675	2.5455	0.	9.9476e-002
18763	14.583	2.4545	0.	0.11558
18764	14.583	2.5455	5.e-002	11.104
18765	14.86	2.5455	0.	7.5384e-002
18766	14.767	2.4545	0.	8.8248e-002
18767	14.767	2.5455	5.e-002	9.8415
18768	15.044	2.5455	0.	5.7406e-002
18769	14.952	2.4545	0.	6.7589e-002
18770	14.952	2.5455	5.e-002	8.8285
18771	15.229	2.5455	0.	4.404e-002
18772	15.137	2.4545	0.	5.2042e-002
18773	15.137	2.5455	5.e-002	8.0148
18774	15.413	2.5455	0.	3.4145e-002
18775	15.321	2.4545	0.	4.0396e-002
18776	15.321	2.5455	5.e-002	7.3602
18777	15.598	2.5455	0.	2.6858e-002
18778	15.506	2.4545	0.	3.1715e-002
18779	15.506	2.5455	5.e-002	6.8328
18780	15.783	2.5455	0.	2.1525e-002
18781	15.69	2.4545	0.	2.5282e-002
18782	15.69	2.5455	5.e-002	6.4067
18783	15.967	2.5455	0.	1.7663e-002
18784	15.875	2.4545	0.	2.0551e-002
18785	15.875	2.5455	5.e-002	6.0615
18786	16.152	2.5455	0.	1.4904e-002
18787	16.06	2.4545	0.	1.711e-002
18788	16.06	2.5455	5.e-002	5.7809
18789	16.337	2.5455	0.	1.2976e-002
18790	16.244	2.4545	0.	1.4641e-002
18791	16.244	2.5455	5.e-002	5.5516
18792	16.521	2.5455	0.	1.1673e-002
18793	16.429	2.4545	0.	1.2917e-002
18794	16.429	2.5455	5.e-002	5.3634
18795	16.706	2.5455	0.	1.0829e-002
18796	16.614	2.4545	0.	1.1749e-002
18797	16.614	2.5455	5.e-002	5.208
18798	16.891	2.5455	0.	1.0338e-002
18799	16.798	2.4545	0.	1.0985e-002
18800	16.798	2.5455	5.e-002	5.0786
18801	17.075	2.5455	0.	1.0127e-002
18802	16.983	2.4545	0.	1.0561e-002
18803	16.983	2.5455	5.e-002	4.9701
18804	17.26	2.5455	0.	1.0118e-002
18805	17.168	2.4545	0.	1.0388e-002
18806	17.168	2.5455	5.e-002	4.8784
18807	17.445	2.5455	0.	1.0261e-002
18808	17.352	2.4545	0.	1.0396e-002
18809	17.352	2.5455	5.e-002	4.8002
18810	17.629	2.5455	0.	1.0528e-002
18811	17.537	2.4545	0.	1.0553e-002
18812	17.537	2.5455	5.e-002	4.7328
18813	17.814	2.5455	0.	1.0892e-002
18814	17.722	2.4545	0.	1.0828e-002
18815	17.722	2.5455	5.e-002	4.6742
18816	17.999	2.5455	0.	1.1336e-002
18817	17.906	2.4545	0.	1.1198e-002
18818	17.906	2.5455	5.e-002	4.6227
18819	18.183	2.5455	0.	1.1853e-002
18820	18.091	2.4545	0.	1.1652e-002
18821	18.091	2.5455	5.e-002	4.5771
18822	18.368	2.5455	0.	1.2437e-002
18823	18.276	2.4545	0.	1.2185e-002
18824	18.276	2.5455	5.e-002	4.5364
18825	18.553	2.5455	0.	1.3104e-002
18826	18.46	2.4545	0.	1.2805e-002
18827	18.46	2.5455	5.e-002	4.4996
18828	18.737	2.5455	0.	1.3909e-002
18829	18.645	2.4545	0.	1.3556e-002
18830	18.645	2.5455	5.e-002	4.4663
18831	18.922	2.5455	0.	1.5319e-002
18832	18.83	2.4545	0.	1.4662e-002
18833	18.83	2.5455	5.e-002	4.4359
18834	19.107	2.5455	0.	1.9551
18835	19.014	2.4545	0.	4.4165e-002
18836	19.014	2.5455	5.e-002	4.408
18837	19.291	2.5455	0.	6.4703
18838	19.199	2.4545	0.	4.3808
18839	19.199	2.5455	5.e-002	4.3823
18840	19.476	2.5455	0.	10.93
18841	19.384	2.4545	0.	8.7937
18842	19.384	2.5455	5.e-002	4.3587
18843	19.661	2.5455	0.	15.365
18844	19.568	2.4545	0.	13.168
18845	19.568	2.5455	5.e-002	4.3368
18846	19.845	2.5455	0.	19.803
18847	19.753	2.4545	0.	17.534
18848	19.753	2.5455	5.e-002	4.3167
18849	20.03	2.5455	0.	24.274
18850	19.938	2.4545	0.	21.918
18851	19.938	2.5455	5.e-002	4.2983
18852	20.215	2.5455	0.	28.807
18853	20.122	2.4545	0.	26.35
18854	20.122	2.5455	5.e-002	4.2815
18855	20.399	2.5455	0.	33.431
18856	20.307	2.4545	0.	30.858
18857	20.307	2.5455	5.e-002	4.2663
18858	20.584	2.5455	0.	38.174
18859	20.492	2.4545	0.	35.469
18860	20.492	2.5455	5.e-002	4.2527
18861	20.769	2.5455	0.	43.064
18862	20.676	2.4545	0.	40.212
18863	20.676	2.5455	5.e-002	4.2409
18864	20.953	2.5455	0.	48.13
18865	20.861	2.4545	0.	45.116
18866	20.861	2.5455	5.e-002	4.2309
18867	21.138	2.5455	0.	53.401
18868	21.046	2.4545	0.	50.209
18869	21.046	2.5455	5.e-002	4.2229
18870	21.322	2.5455	0.	58.905
18871	21.23	2.4545	0.	55.519
18872	21.23	2.5455	5.e-002	4.217
18873	21.507	2.5455	0.	64.671
18874	21.415	2.4545	0.	61.075
18875	21.415	2.5455	5.e-002	4.2134
18876	21.692	2.5455	0.	70.726
18877	21.599	2.4545	0.	66.905
18878	21.599	2.5455	5.e-002	4.2123
18879	21.876	2.5455	0.	77.098
18880	21.784	2.4545	0.	73.038
18881	21.784	2.5455	5.e-002	4.214
18882	22.061	2.5455	0.	83.811
18883	21.969	2.4545	0.	79.501
18884	21.969	2.5455	5.e-002	4.2187
18885	22.246	2.5455	0.	90.891
18886	22.153	2.4545	0.	86.32
18887	22.153	2.5455	5.e-002	4.2267
18888	22.43	2.5455	0.	98.359
18889	22.338	2.4545	0.	93.518
18890	22.338	2.5455	5.e-002	4.2385
18891	22.615	2.5455	0.	106.23
18892	22.523	2.4545	0.	101.12
18893	22.523	2.5455	5.e-002	4.2542
18894	22.8	2.5455	0.	114.53
18895	22.707	2.4545	0.	109.14
18896	22.707	2.5455	5.e-002	4.2741
18897	22.984	2.5455	0.	123.26
18898	22.892	2.4545	0.	117.59
18899	22.892	2.5455	5.e-002	4.2984
18900	23.169	2.5455	0.	132.42
18901	23.077	2.4545	0.	126.49
18902	23.077	2.5455	5.e-002	4.3274
18903	23.354	2.5455	0.	142.03
18904	23.261	2.4545	0.	135.85
18905	23.261	2.5455	5.e-002	4.3609
18906	23.538	2.5455	0.	152.08
18907	23.446	2.4545	0.	145.63
18908	23.446	2.5455	5.e-002	4.3987
18909	23.723	2.5455	0.	162.5
18910	23.631	2.4545	0.	155.92
18911	23.631	2.5455	5.e-002	4.4409
18912	23.815	2.4545	0.	166.44
18913	23.815	2.5455	5.e-002	4.4949
18914	23.908	2.5455	0.	172.76
18915	12.644	2.3636	0.	436.32
18916	12.551	2.2727	0.	576.14
18917	12.551	2.3636	5.e-002	111.09
18918	12.828	2.3636	0.	151.87
18919	12.736	2.2727	0.	237.88
18920	12.736	2.3636	5.e-002	87.739
18921	13.013	2.3636	0.	4.1736
18922	12.921	2.2727	0.	34.137
18923	12.921	2.3636	5.e-002	62.973
18924	13.198	2.3636	0.	0.81523
18925	13.105	2.2727	0.	2.0396
18926	13.105	2.3636	5.e-002	44.345
18927	13.382	2.3636	0.	0.6994
18928	13.29	2.2727	0.	0.60061
18929	13.29	2.3636	5.e-002	33.974
18930	13.567	2.3636	0.	0.5101
18931	13.475	2.2727	0.	0.66031
18932	13.475	2.3636	5.e-002	27.237
18933	13.752	2.3636	0.	0.38872
18934	13.659	2.2727	0.	0.43839
18935	13.659	2.3636	5.e-002	22.445
18936	13.936	2.3636	0.	0.30127
18937	13.844	2.2727	0.	0.35258
18938	13.844	2.3636	5.e-002	18.837
18939	14.121	2.3636	0.	0.23235
18940	14.029	2.2727	0.	0.26905
18941	14.029	2.3636	5.e-002	16.029
18942	14.306	2.3636	0.	0.17932
18943	14.213	2.2727	0.	0.20941
18944	14.213	2.3636	5.e-002	13.802
18945	14.49	2.3636	0.	0.13805
18946	14.398	2.2727	0.	0.16188
18947	14.398	2.3636	5.e-002	12.021
18948	14.675	2.3636	0.	0.10627
18949	14.583	2.2727	0.	0.12533
18950	14.583	2.3636	5.e-002	10.59
18951	14.86	2.3636	0.	8.189e-002
18952	14.767	2.2727	0.	9.7017e-002
18953	14.767	2.3636	5.e-002	9.4375
18954	15.044	2.3636	0.	6.3312e-002
18955	14.952	2.2727	0.	7.5277e-002
18956	14.952	2.3636	5.e-002	8.509
18957	15.229	2.3636	0.	4.9223e-002
18958	15.137	2.2727	0.	5.8647e-002
18959	15.137	2.3636	5.e-002	7.7605
18960	15.413	2.3636	0.	3.8594e-002
18961	15.321	2.2727	0.	4.5991e-002
18962	15.321	2.3636	5.e-002	7.1567
18963	15.598	2.3636	0.	3.062e-002
18964	15.506	2.2727	0.	3.6405e-002
18965	15.506	2.3636	5.e-002	6.6691
18966	15.783	2.3636	0.	2.4675e-002
18967	15.69	2.2727	0.	2.9184e-002
18968	15.69	2.3636	5.e-002	6.2747
18969	15.967	2.3636	0.	2.0278e-002
18970	15.875	2.2727	0.	2.3779e-002
18971	15.875	2.3636	5.e-002	5.9549
18972	16.152	2.3636	0.	1.7061e-002
18973	16.06	2.2727	0.	1.9766e-002
18974	16.06	2.3636	5.e-002	5.6947
18975	16.337	2.3636	0.	1.4745e-002
18976	16.244	2.2727	0.	1.6817e-002
18977	16.244	2.3636	5.e-002	5.4819
18978	16.521	2.3636	0.	1.3115e-002
18979	16.429	2.2727	0.	1.469e-002
18980	16.429	2.3636	5.e-002	5.307
18981	16.706	2.3636	0.	1.1996e-002
18982	16.614	2.2727	0.	1.3183e-002
18983	16.614	2.3636	5.e-002	5.1624
18984	16.891	2.3636	0.	1.1274e-002
18985	16.798	2.2727	0.	1.2139e-002
18986	16.798	2.3636	5.e-002	5.0417
18987	17.075	2.3636	0.	1.0869e-002
18988	16.983	2.2727	0.	1.1479e-002
18989	16.983	2.3636	5.e-002	4.9403
18990	17.26	2.3636	0.	1.0698e-002
18991	17.168	2.2727	0.	1.1109e-002
18992	17.168	2.3636	5.e-002	4.8543
18993	17.445	2.3636	0.	1.0707e-002
18994	17.352	2.2727	0.	1.0953e-002
18995	17.352	2.3636	5.e-002	4.7806
18996	17.629	2.3636	0.	1.0862e-002
18997	17.537	2.2727	0.	1.0974e-002
18998	17.537	2.3636	5.e-002	4.7168
18999	17.814	2.3636	0.	1.1135e-002
19000	17.722	2.2727	0.	1.1137e-002
19001	17.722	2.3636	5.e-002	4.6612
19002	17.999	2.3636	0.	1.1508e-002
19003	17.906	2.2727	0.	1.1418e-002
19004	17.906	2.3636	5.e-002	4.6121
19005	18.183	2.3636	0.	1.1972e-002
19006	18.091	2.2727	0.	1.1805e-002
19007	18.091	2.3636	5.e-002	4.5683
19008	18.368	2.3636	0.	1.2533e-002
19009	18.276	2.2727	0.	1.2299e-002
19010	18.276	2.3636	5.e-002	4.5291
19011	18.553	2.3636	0.	1.3221e-002
19012	18.46	2.2727	0.	1.2922e-002
19013	18.46	2.3636	5.e-002	4.4935
19014	18.737	2.3636	0.	1.4169e-002
19015	18.645	2.2727	0.	1.3768e-002
19016	18.645	2.3636	5.e-002	4.4611
19017	18.922	2.3636	0.	1.6685e-002
19018	18.83	2.2727	0.	1.5373e-002
19019	18.83	2.3636	5.e-002	4.4315
19020	19.107	2.3636	0.	2.3489
19021	19.014	2.2727	0.	0.44905
19022	19.014	2.3636	5.e-002	4.4041
19023	19.291	2.3636	0.	6.7272
19024	19.199	2.2727	0.	4.7548
19025	19.199	2.3636	5.e-002	4.3789
19026	19.476	2.3636	0.	11.056
19027	19.384	2.2727	0.	9.0139
19028	19.384	2.3636	5.e-002	4.3556
19029	19.661	2.3636	0.	15.362
19030	19.568	2.2727	0.	13.239
19031	19.568	2.3636	5.e-002	4.334
19032	19.845	2.3636	0.	19.674
19033	19.753	2.2727	0.	17.458
19034	19.753	2.3636	5.e-002	4.3141
19035	20.03	2.3636	0.	24.019
19036	19.938	2.2727	0.	21.697
19037	19.938	2.3636	5.e-002	4.2958
19038	20.215	2.3636	0.	28.426
19039	20.122	2.2727	0.	25.983
19040	20.122	2.3636	5.e-002	4.279
19041	20.399	2.3636	0.	32.922
19042	20.307	2.2727	0.	30.344
19043	20.307	2.3636	5.e-002	4.2639
19044	20.584	2.3636	0.	37.534
19045	20.492	2.2727	0.	34.806
19046	20.492	2.3636	5.e-002	4.2503
19047	20.769	2.3636	0.	42.291
19048	20.676	2.2727	0.	39.397
19049	20.676	2.3636	5.e-002	4.2384
19050	20.953	2.3636	0.	47.221
19051	20.861	2.2727	0.	44.144
19052	20.861	2.3636	5.e-002	4.2283
19053	21.138	2.3636	0.	52.352
19054	21.046	2.2727	0.	49.076
19055	21.046	2.3636	5.e-002	4.2201
19056	21.322	2.3636	0.	57.713
19057	21.23	2.2727	0.	54.221
19058	21.23	2.3636	5.e-002	4.214
19059	21.507	2.3636	0.	63.333
19060	21.415	2.2727	0.	59.608
19061	21.415	2.3636	5.e-002	4.2101
19062	21.692	2.3636	0.	69.24
19063	21.599	2.2727	0.	65.266
19064	21.599	2.3636	5.e-002	4.2087
19065	21.876	2.3636	0.	75.463
19066	21.784	2.2727	0.	71.225
19067	21.784	2.3636	5.e-002	4.21
19068	22.061	2.3636	0.	82.03
19069	21.969	2.2727	0.	77.513
19070	21.969	2.3636	5.e-002	4.2143
19071	22.246	2.3636	0.	88.966
19072	22.153	2.2727	0.	84.159
19073	22.153	2.3636	5.e-002	4.222
19074	22.43	2.3636	0.	96.296
19075	22.338	2.2727	0.	91.19
19076	22.338	2.3636	5.e-002	4.2334
19077	22.615	2.3636	0.	104.04
19078	22.523	2.2727	0.	98.632
19079	22.523	2.3636	5.e-002	4.2488
19080	22.8	2.3636	0.	112.22
19081	22.707	2.2727	0.	106.5
19082	22.707	2.3636	5.e-002	4.2686
19083	22.984	2.3636	0.	120.85
19084	22.892	2.2727	0.	114.83
19085	22.892	2.3636	5.e-002	4.293
19086	23.169	2.3636	0.	129.93
19087	23.077	2.2727	0.	123.61
19088	23.077	2.3636	5.e-002	4.3222
19089	23.354	2.3636	0.	139.46
19090	23.261	2.2727	0.	132.87
19091	23.261	2.3636	5.e-002	4.3564
19092	23.538	2.3636	0.	149.47
19093	23.446	2.2727	0.	142.59
19094	23.446	2.3636	5.e-002	4.3953
19095	23.723	2.3636	0.	159.87
19096	23.631	2.2727	0.	152.83
19097	23.631	2.3636	5.e-002	4.4391
19098	23.815	2.2727	0.	163.34
19099	23.815	2.3636	5.e-002	4.4993
19100	23.908	2.3636	0.	170.09
19101	12.644	2.1818	0.	413.54
19102	12.551	2.0909	0.	807.57
19103	12.551	2.1818	5.e-002	258.29
19104	12.828	2.1818	0.	133.93
19105	12.736	2.0909	0.	303.29
19106	12.736	2.1818	5.e-002	117.6
19107	13.013	2.1818	0.	0.21876
19108	12.921	2.0909	0.	72.219
19109	12.921	2.1818	5.e-002	59.539
19110	13.198	2.1818	0.	2.0043
19111	13.105	2.0909	0.	5.0106
19112	13.105	2.1818	5.e-002	41.193
19113	13.382	2.1818	0.	0.6298
19114	13.29	2.0909	0.	0.81491
19115	13.29	2.1818	5.e-002	30.943
19116	13.567	2.1818	0.	0.62005
19117	13.475	2.0909	0.	0.91039
19118	13.475	2.1818	5.e-002	24.691
19119	13.752	2.1818	0.	0.41945
19120	13.659	2.0909	0.	0.52698
19121	13.659	2.1818	5.e-002	20.384
19122	13.936	2.1818	0.	0.33078
19123	13.844	2.0909	0.	0.41548
19124	13.844	2.1818	5.e-002	17.195
19125	14.121	2.1818	0.	0.25286
19126	14.029	2.0909	0.	0.3078
19127	14.029	2.1818	5.e-002	14.73
19128	14.306	2.1818	0.	0.19655
19129	14.213	2.0909	0.	0.23787
19130	14.213	2.1818	5.e-002	12.777
19131	14.49	2.1818	0.	0.15236
19132	14.398	2.0909	0.	0.18327
19133	14.398	2.1818	5.e-002	11.211
19134	14.675	2.1818	0.	0.11836
19135	14.583	2.0909	0.	0.14214
19136	14.583	2.1818	5.e-002	9.9473
19137	14.86	2.1818	0.	9.2064e-002
19138	14.767	2.0909	0.	0.11045
19139	14.767	2.1818	5.e-002	8.9257
19140	15.044	2.1818	0.	7.1831e-002
19141	14.952	2.0909	0.	8.6121e-002
19142	14.952	2.1818	5.e-002	8.0994
19143	15.229	2.1818	0.	5.6317e-002
19144	15.137	2.0909	0.	6.7445e-002
19145	15.137	2.1818	5.e-002	7.4313
19146	15.413	2.1818	0.	4.4474e-002
19147	15.321	2.0909	0.	5.3147e-002
19148	15.321	2.1818	5.e-002	6.8914
19149	15.598	2.1818	0.	3.5472e-002
19150	15.506	2.0909	0.	4.2232e-002
19151	15.506	2.1818	5.e-002	6.4549
19152	15.783	2.1818	0.	2.8666e-002
19153	15.69	2.0909	0.	3.3929e-002
19154	15.69	2.1818	5.e-002	6.1016
19155	15.967	2.1818	0.	2.3551e-002
19156	15.875	2.0909	0.	2.7643e-002
19157	15.875	2.1818	5.e-002	5.8149
19158	16.152	2.1818	0.	1.9735e-002
19159	16.06	2.0909	0.	2.2908e-002
19160	16.06	2.1818	5.e-002	5.5815
19161	16.337	2.1818	0.	1.6921e-002
19162	16.244	2.0909	0.	1.9364e-002
19163	16.244	2.1818	5.e-002	5.3905
19164	16.521	2.1818	0.	1.4877e-002
19165	16.429	2.0909	0.	1.675e-002
19166	16.429	2.1818	5.e-002	5.2332
19167	16.706	2.1818	0.	1.3413e-002
19168	16.614	2.0909	0.	1.4842e-002
19169	16.614	2.1818	5.e-002	5.1027
19170	16.891	2.1818	0.	1.2406e-002
19171	16.798	2.0909	0.	1.3463e-002
19172	16.798	2.1818	5.e-002	4.9936
19173	17.075	2.1818	0.	1.1762e-002
19174	16.983	2.0909	0.	1.2526e-002
19175	16.983	2.1818	5.e-002	4.9014
19176	17.26	2.1818	0.	1.1392e-002
19177	17.168	2.0909	0.	1.1925e-002
19178	17.168	2.1818	5.e-002	4.8228
19179	17.445	2.1818	0.	1.1235e-002
19180	17.352	2.0909	0.	1.1576e-002
19181	17.352	2.1818	5.e-002	4.7551
19182	17.629	2.1818	0.	1.1253e-002
19183	17.537	2.0909	0.	1.144e-002
19184	17.537	2.1818	5.e-002	4.6961
19185	17.814	2.1818	0.	1.1416e-002
19186	17.722	2.0909	0.	1.1473e-002
19187	17.722	2.1818	5.e-002	4.6443
19188	17.999	2.1818	0.	1.1704e-002
19189	17.906	2.0909	0.	1.1654e-002
19190	17.906	2.1818	5.e-002	4.5982
19191	18.183	2.1818	0.	1.2112e-002
19192	18.091	2.0909	0.	1.197e-002
19193	18.091	2.1818	5.e-002	4.5569
19194	18.368	2.1818	0.	1.2655e-002
19195	18.276	2.0909	0.	1.2431e-002
19196	18.276	2.1818	5.e-002	4.5196
19197	18.553	2.1818	0.	1.34e-002
19198	18.46	2.0909	0.	1.3086e-002
19199	18.46	2.1818	5.e-002	4.4856
19200	18.737	2.1818	0.	1.4639e-002
19201	18.645	2.0909	0.	1.413e-002
19202	18.645	2.1818	5.e-002	4.4544
19203	18.922	2.1818	0.	2.0269e-002
19204	18.83	2.0909	0.	1.6854e-002
19205	18.83	2.1818	5.e-002	4.4257
19206	19.107	2.1818	0.	2.8645
19207	19.014	2.0909	0.	1.1141
19208	19.014	2.1818	5.e-002	4.3992
19209	19.291	2.1818	0.	7.0651
19210	19.199	2.0909	0.	5.2275
19211	19.199	2.1818	5.e-002	4.3745
19212	19.476	2.1818	0.	11.222
19213	19.384	2.0909	0.	9.294
19214	19.384	2.1818	5.e-002	4.3516
19215	19.661	2.1818	0.	15.361
19216	19.568	2.0909	0.	13.332
19217	19.568	2.1818	5.e-002	4.3304
19218	19.845	2.1818	0.	19.507
19219	19.753	2.0909	0.	17.367
19220	19.753	2.1818	5.e-002	4.3107
19221	20.03	2.1818	0.	23.688
19222	19.938	2.0909	0.	21.423
19223	19.938	2.1818	5.e-002	4.2925
19224	20.215	2.1818	0.	27.928
19225	20.122	2.0909	0.	25.525
19226	20.122	2.1818	5.e-002	4.2759
19227	20.399	2.1818	0.	32.256
19228	20.307	2.0909	0.	29.7
19229	20.307	2.1818	5.e-002	4.2607
19230	20.584	2.1818	0.	36.696
19231	20.492	2.0909	0.	33.973
19232	20.492	2.1818	5.e-002	4.2471
19233	20.769	2.1818	0.	41.277
19234	20.676	2.0909	0.	38.37
19235	20.676	2.1818	5.e-002	4.2351
19236	20.953	2.1818	0.	46.027
19237	20.861	2.0909	0.	42.918
19238	20.861	2.1818	5.e-002	4.2248
19239	21.138	2.1818	0.	50.972
19240	21.046	2.0909	0.	47.644
19241	21.046	2.1818	5.e-002	4.2164
19242	21.322	2.1818	0.	56.142
19243	21.23	2.0909	0.	52.578
19244	21.23	2.1818	5.e-002	4.21
19245	21.507	2.1818	0.	61.567
19246	21.415	2.0909	0.	57.747
19247	21.415	2.1818	5.e-002	4.2057
19248	21.692	2.1818	0.	67.276
19249	21.599	2.0909	0.	63.183
19250	21.599	2.1818	5.e-002	4.2039
19251	21.876	2.1818	0.	73.298
19252	21.784	2.0909	0.	68.915
19253	21.784	2.1818	5.e-002	4.2048
19254	22.061	2.1818	0.	79.665
19255	21.969	2.0909	0.	74.975
19256	21.969	2.1818	5.e-002	4.2086
19257	22.246	2.1818	0.	86.404
19258	22.153	2.0909	0.	81.394
19259	22.153	2.1818	5.e-002	4.2158
19260	22.43	2.1818	0.	93.545
19261	22.338	2.0909	0.	88.202
19262	22.338	2.1818	5.e-002	4.2266
19263	22.615	2.1818	0.	101.11
19264	22.523	2.0909	0.	95.43
19265	22.523	2.1818	5.e-002	4.2416
19266	22.8	2.1818	0.	109.13
19267	22.707	2.0909	0.	103.1
19268	22.707	2.1818	5.e-002	4.2612
19269	22.984	2.1818	0.	117.61
19270	22.892	2.0909	0.	111.25
19271	22.892	2.1818	5.e-002	4.2856
19272	23.169	2.1818	0.	126.57
19273	23.077	2.0909	0.	119.88
19274	23.077	2.1818	5.e-002	4.3152
19275	23.354	2.1818	0.	136.01
19276	23.261	2.0909	0.	129.01
19277	23.261	2.1818	5.e-002	4.3502
19278	23.538	2.1818	0.	145.96
19279	23.446	2.0909	0.	138.64
19280	23.446	2.1818	5.e-002	4.3904
19281	23.723	2.1818	0.	156.31
19282	23.631	2.0909	0.	148.81
19283	23.631	2.1818	5.e-002	4.4366
19284	23.815	2.0909	0.	159.3
19285	23.815	2.1818	5.e-002	4.5052
19286	23.908	2.1818	0.	166.49
19287	12.644	2.	0.	782.28
19288	12.551	1.9091	0.	1495.9
19289	12.551	2.	5.e-002	457.19
19290	12.459	2.	0.	1191.3
19291	12.828	2.	0.	247.39
19292	12.736	1.9091	0.	540.56
19293	12.736	2.	5.e-002	81.107
19294	13.013	2.	0.	48.588
19295	12.921	1.9091	0.	186.68
19296	12.921	2.	5.e-002	52.579
19297	13.198	2.	0.	4.3496
19298	13.105	1.9091	0.	32.577
19299	13.105	2.	5.e-002	35.477
19300	13.382	2.	0.	1.2276
19301	13.29	1.9091	0.	2.9677
19302	13.29	2.	5.e-002	27.129
19303	13.567	2.	0.	0.87035
19304	13.475	1.9091	0.	1.4365
19305	13.475	2.	5.e-002	21.79
19306	13.752	2.	0.	0.54916
19307	13.659	1.9091	0.	0.78432
19308	13.659	2.	5.e-002	18.124
19309	13.936	2.	0.	0.40728
19310	13.844	1.9091	0.	0.54655
19311	13.844	2.	5.e-002	15.401
19312	14.121	2.	0.	0.30192
19313	14.029	1.9091	0.	0.38748
19314	14.029	2.	5.e-002	13.296
19315	14.306	2.	0.	0.23052
19316	14.213	1.9091	0.	0.28914
19317	14.213	2.	5.e-002	11.627
19318	14.49	2.	0.	0.17705
19319	14.398	1.9091	0.	0.21853
19320	14.398	2.	5.e-002	10.285
19321	14.675	2.	0.	0.13699
19322	14.583	1.9091	0.	0.1674
19323	14.583	2.	5.e-002	9.1999
19324	14.86	2.	0.	0.10645
19325	14.767	1.9091	0.	0.12915
19326	14.767	2.	5.e-002	8.3209
19327	15.044	2.	0.	8.3122e-002
19328	14.952	1.9091	0.	0.10029
19329	14.952	2.	5.e-002	7.6092
19330	15.229	2.	0.	6.5275e-002
19331	15.137	1.9091	0.	7.8373e-002
19332	15.137	2.	5.e-002	7.0337
19333	15.413	2.	0.	5.1632e-002
19334	15.321	1.9091	0.	6.1683e-002
19335	15.321	2.	5.e-002	6.5688
19336	15.598	2.	0.	4.1221e-002
19337	15.506	1.9091	0.	4.8966e-002
19338	15.506	2.	5.e-002	6.1933
19339	15.783	2.	0.	3.3297e-002
19340	15.69	1.9091	0.	3.928e-002
19341	15.69	2.	5.e-002	5.8897
19342	15.967	2.	0.	2.7288e-002
19343	15.875	1.9091	0.	3.1915e-002
19344	15.875	2.	5.e-002	5.6435
19345	16.152	2.	0.	2.275e-002
19346	16.06	1.9091	0.	2.633e-002
19347	16.06	2.	5.e-002	5.443
19348	16.337	2.	0.	1.935e-002
19349	16.244	1.9091	0.	2.2107e-002
19350	16.244	2.	5.e-002	5.2787
19351	16.521	2.	0.	1.6829e-002
19352	16.429	1.9091	0.	1.8946e-002
19353	16.429	2.	5.e-002	5.1431
19354	16.706	2.	0.	1.4973e-002
19355	16.614	1.9091	0.	1.6592e-002
19356	16.614	2.	5.e-002	5.0302
19357	16.891	2.	0.	1.3639e-002
19358	16.798	1.9091	0.	1.4847e-002
19359	16.798	2.	5.e-002	4.9351
19360	17.075	2.	0.	1.2726e-002
19361	16.983	1.9091	0.	1.361e-002
19362	16.983	2.	5.e-002	4.8543
19363	17.26	2.	0.	1.2132e-002
19364	17.168	1.9091	0.	1.2759e-002
19365	17.168	2.	5.e-002	4.7848
19366	17.445	2.	0.	1.179e-002
19367	17.352	1.9091	0.	1.2204e-002
19368	17.352	2.	5.e-002	4.7243
19369	17.629	2.	0.	1.1659e-002
19370	17.537	1.9091	0.	1.1898e-002
19371	17.537	2.	5.e-002	4.6712
19372	17.814	2.	0.	1.1701e-002
19373	17.722	1.9091	0.	1.1797e-002
19374	17.722	2.	5.e-002	4.624
19375	17.999	2.	0.	1.19e-002
19376	17.906	1.9091	0.	1.1876e-002
19377	17.906	2.	5.e-002	4.5816
19378	18.183	2.	0.	1.2258e-002
19379	18.091	1.9091	0.	1.2128e-002
19380	18.091	2.	5.e-002	4.5433
19381	18.368	2.	0.	1.2808e-002
19382	18.276	1.9091	0.	1.2579e-002
19383	18.276	2.	5.e-002	4.5082
19384	18.553	2.	0.	1.3688e-002
19385	18.46	1.9091	0.	1.3331e-002
19386	18.46	2.	5.e-002	4.4761
19387	18.737	2.	0.	1.5544e-002
19388	18.645	1.9091	0.	1.4793e-002
19389	18.645	2.	5.e-002	4.4464
19390	18.922	2.	0.	3.6839e-002
19391	18.83	1.9091	0.	2.0587e-002
19392	18.83	2.	5.e-002	4.4188
19393	19.107	2.	0.	3.4952
19394	19.014	1.9091	0.	1.9137
19395	19.014	2.	5.e-002	4.3931
19396	19.291	2.	0.	7.4808
19397	19.199	1.9091	0.	5.794
19398	19.199	2.	5.e-002	4.3691
19399	19.476	2.	0.	11.43
19400	19.384	1.9091	0.	9.633
19401	19.384	2.	5.e-002	4.3468
19402	19.661	2.	0.	15.364
19403	19.568	1.9091	0.	13.449
19404	19.568	2.	5.e-002	4.3259
19405	19.845	2.	0.	19.309
19406	19.753	1.9091	0.	17.265
19407	19.753	2.	5.e-002	4.3065
19408	20.03	2.	0.	23.288
19409	19.938	1.9091	0.	21.103
19410	19.938	2.	5.e-002	4.2886
19411	20.215	2.	0.	27.325
19412	20.122	1.9091	0.	24.986
19413	20.122	2.	5.e-002	4.272
19414	20.399	2.	0.	31.446
19415	20.307	1.9091	0.	28.939
19416	20.307	2.	5.e-002	4.2568
19417	20.584	2.	0.	35.675
19418	20.492	1.9091	0.	32.984
19419	20.492	2.	5.e-002	4.2432
19420	20.769	2.	0.	40.039
19421	20.676	1.9091	0.	37.148
19422	20.676	2.	5.e-002	4.231
19423	20.953	2.	0.	44.564
19424	20.861	1.9091	0.	41.456
19425	20.861	2.	5.e-002	4.2206
19426	21.138	2.	0.	49.279
19427	21.046	1.9091	0.	45.934
19428	21.046	2.	5.e-002	4.2119
19429	21.322	2.	0.	54.211
19430	21.23	1.9091	0.	50.61
19431	21.23	2.	5.e-002	4.2051
19432	21.507	2.	0.	59.391
19433	21.415	1.9091	0.	55.514
19434	21.415	2.	5.e-002	4.2004
19435	21.692	2.	0.	64.849
19436	21.599	1.9091	0.	60.676
19437	21.599	2.	5.e-002	4.1981
19438	21.876	2.	0.	70.617
19439	21.784	1.9091	0.	66.127
19440	21.784	2.	5.e-002	4.1983
19441	22.061	2.	0.	76.728
19442	21.969	1.9091	0.	71.903
19443	21.969	2.	5.e-002	4.2015
19444	22.246	2.	0.	83.214
19445	22.153	1.9091	0.	78.036
19446	22.153	2.	5.e-002	4.208
19447	22.43	2.	0.	90.109
19448	22.338	1.9091	0.	84.562
19449	22.338	2.	5.e-002	4.2182
19450	22.615	2.	0.	97.442
19451	22.523	1.9091	0.	91.516
19452	22.523	2.	5.e-002	4.2326
19453	22.8	2.	0.	105.24
19454	22.707	1.9091	0.	98.933
19455	22.707	2.	5.e-002	4.2517
19456	22.984	2.	0.	113.53
19457	22.892	1.9091	0.	106.84
19458	22.892	2.	5.e-002	4.2761
19459	23.169	2.	0.	122.33
19460	23.077	1.9091	0.	115.27
19461	23.077	2.	5.e-002	4.306
19462	23.354	2.	0.	131.65
19463	23.261	1.9091	0.	124.23
19464	23.261	2.	5.e-002	4.342
19465	23.538	2.	0.	141.5
19466	23.446	1.9091	0.	133.73
19467	23.446	2.	5.e-002	4.384
19468	23.723	2.	0.	151.81
19469	23.631	1.9091	0.	143.81
19470	23.631	2.	5.e-002	4.4331
19471	23.815	1.9091	0.	154.28
19472	23.815	2.	5.e-002	4.5124
19473	23.908	2.	0.	161.91
19474	12.644	1.8182	0.	1266.5
19475	12.551	1.7273	0.	1781.5
19476	12.551	1.8182	5.e-002	256.79
19477	12.459	1.8182	0.	2126.9
19478	12.828	1.8182	0.	477.95
19479	12.736	1.7273	0.	750.17
19480	12.736	1.8182	5.e-002	86.538
19481	13.013	1.8182	0.	162.42
19482	12.921	1.7273	0.	316.75
19483	12.921	1.8182	5.e-002	40.572
19484	13.198	1.8182	0.	27.393
19485	13.105	1.7273	0.	115.52
19486	13.105	1.8182	5.e-002	29.332
19487	13.382	1.8182	0.	3.3548
19488	13.29	1.7273	0.	16.643
19489	13.29	1.8182	5.e-002	23.12
19490	13.567	1.8182	0.	1.427
19491	13.475	1.7273	0.	2.9411
19492	13.475	1.8182	5.e-002	18.843
19493	13.752	1.8182	0.	0.81838
19494	13.659	1.7273	0.	1.3017
19495	13.659	1.8182	5.e-002	15.826
19496	13.936	1.8182	0.	0.54701
19497	13.844	1.7273	0.	0.78291
19498	13.844	1.8182	5.e-002	13.556
19499	14.121	1.8182	0.	0.38687
19500	14.029	1.7273	0.	0.52029
19501	14.029	1.8182	5.e-002	11.795
19502	14.306	1.8182	0.	0.28487
19503	14.213	1.7273	0.	0.3693
19504	14.213	1.8182	5.e-002	10.396
19505	14.49	1.8182	0.	0.21395
19506	14.398	1.7273	0.	0.27046
19507	14.398	1.8182	5.e-002	9.2727
19508	14.675	1.8182	0.	0.16297
19509	14.583	1.7273	0.	0.20243
19510	14.583	1.8182	5.e-002	8.3671
19511	14.86	1.8182	0.	0.12532
19512	14.767	1.7273	0.	0.15362
19513	14.767	1.8182	5.e-002	7.6363
19514	15.044	1.8182	0.	9.7154e-002
19515	14.952	1.7273	0.	0.11785
19516	14.952	1.8182	5.e-002	7.0476
19517	15.229	1.8182	0.	7.5909e-002
19518	15.137	1.7273	0.	9.1263e-002
19519	15.137	1.8182	5.e-002	6.5741
19520	15.413	1.8182	0.	5.9833e-002
19521	15.321	1.7273	0.	7.133e-002
19522	15.321	1.8182	5.e-002	6.1939
19523	15.598	1.8182	0.	4.7594e-002
19524	15.506	1.7273	0.	5.6306e-002
19525	15.506	1.8182	5.e-002	5.8885
19526	15.783	1.8182	0.	3.8306e-002
19527	15.69	1.7273	0.	4.494e-002
19528	15.69	1.8182	5.e-002	5.6426
19529	15.967	1.8182	0.	3.1251e-002
19530	15.875	1.7273	0.	3.6326e-002
19531	15.875	1.8182	5.e-002	5.4437
19532	16.152	1.8182	0.	2.5899e-002
19533	16.06	1.7273	0.	2.9794e-002
19534	16.06	1.8182	5.e-002	5.2819
19535	16.337	1.8182	0.	2.1855e-002
19536	16.244	1.7273	0.	2.4839e-002
19537	16.244	1.8182	5.e-002	5.149
19538	16.521	1.8182	0.	1.8817e-002
19539	16.429	1.7273	0.	2.1102e-002
19540	16.429	1.8182	5.e-002	5.0388
19541	16.706	1.8182	0.	1.6542e-002
19542	16.614	1.7273	0.	1.8287e-002
19543	16.614	1.8182	5.e-002	4.9464
19544	16.891	1.8182	0.	1.4868e-002
19545	16.798	1.7273	0.	1.6171e-002
19546	16.798	1.8182	5.e-002	4.8678
19547	17.075	1.8182	0.	1.3673e-002
19548	16.983	1.7273	0.	1.463e-002
19549	16.983	1.8182	5.e-002	4.8001
19550	17.26	1.8182	0.	1.2846e-002
19551	17.168	1.7273	0.	1.3529e-002
19552	17.168	1.8182	5.e-002	4.7412
19553	17.445	1.8182	0.	1.2314e-002
19554	17.352	1.7273	0.	1.277e-002
19555	17.352	1.8182	5.e-002	4.6891
19556	17.629	1.8182	0.	1.2028e-002
19557	17.537	1.7273	0.	1.2297e-002
19558	17.537	1.8182	5.e-002	4.6427
19559	17.814	1.8182	0.	1.1952e-002
19560	17.722	1.7273	0.	1.2066e-002
19561	17.722	1.8182	5.e-002	4.6008
19562	17.999	1.8182	0.	1.2073e-002
19563	17.906	1.7273	0.	1.2055e-002
19564	17.906	1.8182	5.e-002	4.5626
19565	18.183	1.8182	0.	1.2402e-002
19566	18.091	1.7273	0.	1.2267e-002
19567	18.091	1.8182	5.e-002	4.5276
19568	18.368	1.8182	0.	1.3017e-002
19569	18.276	1.7273	0.	1.2763e-002
19570	18.276	1.8182	5.e-002	4.4952
19571	18.553	1.8182	0.	1.4195e-002
19572	18.46	1.7273	0.	1.3749e-002
19573	18.46	1.8182	5.e-002	4.4652
19574	18.737	1.8182	0.	1.7523e-002
19575	18.645	1.7273	0.	1.6167e-002
19576	18.645	1.8182	5.e-002	4.4371
19577	18.922	1.8182	0.	0.47905
19578	18.83	1.7273	0.	3.67e-002
19579	18.83	1.8182	5.e-002	4.4108
19580	19.107	1.8182	0.	4.2341
19581	19.014	1.7273	0.	2.8347
19582	19.014	1.8182	5.e-002	4.3861
19583	19.291	1.8182	0.	7.9716
19584	19.199	1.7273	0.	6.4498
19585	19.199	1.8182	5.e-002	4.363
19586	19.476	1.8182	0.	11.679
19587	19.384	1.7273	0.	10.031
19588	19.384	1.8182	5.e-002	4.3412
19589	19.661	1.8182	0.	15.377
19590	19.568	1.7273	0.	13.594
19591	19.568	1.8182	5.e-002	4.3208
19592	19.845	1.8182	0.	19.087
19593	19.753	1.7273	0.	17.16
19594	19.753	1.8182	5.e-002	4.3017
19595	20.03	1.8182	0.	22.83
19596	19.938	1.7273	0.	20.748
19597	19.938	1.8182	5.e-002	4.2839
19598	20.215	1.8182	0.	26.63
19599	20.122	1.7273	0.	24.38
19600	20.122	1.8182	5.e-002	4.2675
19601	20.399	1.8182	0.	30.508
19602	20.307	1.7273	0.	28.077
19603	20.307	1.8182	5.e-002	4.2523
19604	20.584	1.8182	0.	34.488
19605	20.492	1.7273	0.	31.86
19606	20.492	1.8182	5.e-002	4.2386
19607	20.769	1.8182	0.	38.596
19608	20.676	1.7273	0.	35.754
19609	20.676	1.8182	5.e-002	4.2263
19610	20.953	1.8182	0.	42.856
19611	20.861	1.7273	0.	39.782
19612	20.861	1.8182	5.e-002	4.2156
19613	21.138	1.8182	0.	47.296
19614	21.046	1.7273	0.	43.97
19615	21.046	1.8182	5.e-002	4.2066
19616	21.322	1.8182	0.	51.943
19617	21.23	1.7273	0.	48.345
19618	21.23	1.8182	5.e-002	4.1994
19619	21.507	1.8182	0.	56.829
19620	21.415	1.7273	0.	52.936
19621	21.415	1.8182	5.e-002	4.1942
19622	21.692	1.8182	0.	61.983
19623	21.599	1.7273	0.	57.773
19624	21.599	1.8182	5.e-002	4.1913
19625	21.876	1.8182	0.	67.441
19626	21.784	1.7273	0.	62.889
19627	21.784	1.8182	5.e-002	4.1908
19628	22.061	1.8182	0.	73.237
19629	21.969	1.7273	0.	68.321
19630	21.969	1.8182	5.e-002	4.1932
19631	22.246	1.8182	0.	79.409
19632	22.153	1.7273	0.	74.106
19633	22.153	1.8182	5.e-002	4.1988
19634	22.43	1.8182	0.	85.993
19635	22.338	1.7273	0.	80.284
19636	22.338	1.8182	5.e-002	4.2082
19637	22.615	1.8182	0.	93.029
19638	22.523	1.7273	0.	86.896
19639	22.523	1.8182	5.e-002	4.2218
19640	22.8	1.8182	0.	100.55
19641	22.707	1.7273	0.	93.985
19642	22.707	1.8182	5.e-002	4.2402
19643	22.984	1.8182	0.	108.59
19644	22.892	1.7273	0.	101.59
19645	22.892	1.8182	5.e-002	4.2643
19646	23.169	1.8182	0.	117.18
19647	23.077	1.7273	0.	109.75
19648	23.077	1.8182	5.e-002	4.2945
19649	23.354	1.8182	0.	126.32
19650	23.261	1.7273	0.	118.49
19651	23.261	1.8182	5.e-002	4.3315
19652	23.538	1.8182	0.	136.05
19653	23.446	1.7273	0.	127.82
19654	23.446	1.8182	5.e-002	4.3756
19655	23.723	1.8182	0.	146.29
19656	23.631	1.7273	0.	137.79
19657	23.631	1.8182	5.e-002	4.4283
19658	23.815	1.7273	0.	148.21
19659	23.815	1.8182	5.e-002	4.5207
19660	23.908	1.8182	0.	156.32
19661	12.644	1.6364	0.	1219.6
19662	12.551	1.5455	0.	1510.
19663	12.551	1.6364	5.e-002	145.1
19664	12.459	1.6364	0.	1365.3
19665	12.828	1.6364	0.	575.43
19666	12.736	1.5455	0.	763.58
19667	12.736	1.6364	5.e-002	56.648
19668	13.013	1.6364	0.	262.11
19669	12.921	1.5455	0.	391.89
19670	12.921	1.6364	5.e-002	34.531
19671	13.198	1.6364	0.	95.802
19672	13.105	1.5455	0.	183.15
19673	13.105	1.6364	5.e-002	25.239
19674	13.382	1.6364	0.	14.863
19675	13.29	1.5455	0.	64.133
19676	13.29	1.6364	5.e-002	19.616
19677	13.567	1.6364	0.	2.9177
19678	13.475	1.5455	0.	10.024
19679	13.475	1.6364	5.e-002	16.189
19680	13.752	1.6364	0.	1.3217
19681	13.659	1.5455	0.	2.5175
19682	13.659	1.6364	5.e-002	13.671
19683	13.936	1.6364	0.	0.78631
19684	13.844	1.5455	0.	1.2299
19685	13.844	1.6364	5.e-002	11.769
19686	14.121	1.6364	0.	0.52029
19687	14.029	1.5455	0.	0.74099
19688	14.029	1.6364	5.e-002	10.291
19689	14.306	1.6364	0.	0.36568
19690	14.213	1.5455	0.	0.49315
19691	14.213	1.6364	5.e-002	9.1257
19692	14.49	1.6364	0.	0.26577
19693	14.398	1.5455	0.	0.34558
19694	14.398	1.6364	5.e-002	8.2012
19695	14.675	1.6364	0.	0.1975
19696	14.583	1.5455	0.	0.25015
19697	14.583	1.6364	5.e-002	7.4667
19698	14.86	1.6364	0.	0.14906
19699	14.767	1.5455	0.	0.18502
19700	14.767	1.6364	5.e-002	6.8841
19701	15.044	1.6364	0.	0.1139
19702	14.952	1.5455	0.	0.1391
19703	14.952	1.6364	5.e-002	6.4234
19704	15.229	1.6364	0.	8.7995e-002
19705	15.137	1.5455	0.	0.10602
19706	15.137	1.6364	5.e-002	6.0597
19707	15.413	1.6364	0.	6.8717e-002
19708	15.321	1.5455	0.	8.1815e-002
19709	15.321	1.6364	5.e-002	5.7727
19710	15.598	1.6364	0.	5.4271e-002
19711	15.506	1.5455	0.	6.3921e-002
19712	15.506	1.6364	5.e-002	5.5456
19713	15.783	1.6364	0.	4.3391e-002
19714	15.69	1.5455	0.	5.0582e-002
19715	15.69	1.6364	5.e-002	5.3649
19716	15.967	1.6364	0.	3.517e-002
19717	15.875	1.5455	0.	4.0577e-002
19718	15.875	1.6364	5.e-002	5.2197
19719	16.152	1.6364	0.	2.8946e-002
19720	16.06	1.5455	0.	3.3039e-002
19721	16.06	1.6364	5.e-002	5.1017
19722	16.337	1.6364	0.	2.4234e-002
19723	16.244	1.5455	0.	2.7341e-002
19724	16.244	1.6364	5.e-002	5.0044
19725	16.521	1.6364	0.	2.0674e-002
19726	16.429	1.5455	0.	2.3036e-002
19727	16.429	1.6364	5.e-002	4.9229
19728	16.706	1.6364	0.	1.7985e-002
19729	16.614	1.5455	0.	1.9779e-002
19730	16.614	1.6364	5.e-002	4.8535
19731	16.891	1.6364	0.	1.5976e-002
19732	16.798	1.5455	0.	1.7311e-002
19733	16.798	1.6364	5.e-002	4.7934
19734	17.075	1.6364	0.	1.4509e-002
19735	16.983	1.5455	0.	1.5485e-002
19736	16.983	1.6364	5.e-002	4.7404
19737	17.26	1.6364	0.	1.3459e-002
19738	17.168	1.5455	0.	1.4153e-002
19739	17.168	1.6364	5.e-002	4.6932
19740	17.445	1.6364	0.	1.2745e-002
19741	17.352	1.5455	0.	1.3205e-002
19742	17.352	1.6364	5.e-002	4.6504
19743	17.629	1.6364	0.	1.2316e-002
19744	17.537	1.5455	0.	1.2583e-002
19745	17.537	1.6364	5.e-002	4.6114
19746	17.814	1.6364	0.	1.2138e-002
19747	17.722	1.5455	0.	1.2242e-002
19748	17.722	1.6364	5.e-002	4.5753
19749	17.999	1.6364	0.	1.2204e-002
19750	17.906	1.5455	0.	1.2171e-002
19751	17.906	1.6364	5.e-002	4.5418
19752	18.183	1.6364	0.	1.2557e-002
19753	18.091	1.5455	0.	1.2395e-002
19754	18.091	1.6364	5.e-002	4.5105
19755	18.368	1.6364	0.	1.3355e-002
19756	18.276	1.5455	0.	1.3044e-002
19757	18.276	1.6364	5.e-002	4.481
19758	18.553	1.6364	0.	1.5219e-002
19759	18.46	1.5455	0.	1.4583e-002
19760	18.46	1.6364	5.e-002	4.4532
19761	18.737	1.6364	0.	2.3263e-002
19762	18.645	1.5455	0.	1.9706e-002
19763	18.645	1.6364	5.e-002	4.4269
19764	18.922	1.6364	0.	1.5802
19765	18.83	1.5455	0.	0.53995
19766	18.83	1.6364	5.e-002	4.402
19767	19.107	1.6364	0.	5.0744
19768	19.014	1.5455	0.	3.8674
19769	19.014	1.6364	5.e-002	4.3784
19770	19.291	1.6364	0.	8.5354
19771	19.199	1.5455	0.	7.1912
19772	19.199	1.6364	5.e-002	4.3561
19773	19.476	1.6364	0.	11.973
19774	19.384	1.5455	0.	10.488
19775	19.384	1.6364	5.e-002	4.335
19776	19.661	1.6364	0.	15.406
19777	19.568	1.5455	0.	13.772
19778	19.568	1.6364	5.e-002	4.315
19779	19.845	1.6364	0.	18.851
19780	19.753	1.5455	0.	17.061
19781	19.753	1.6364	5.e-002	4.2963
19782	20.03	1.6364	0.	22.329
19783	19.938	1.5455	0.	20.372
19784	19.938	1.6364	5.e-002	4.2787
19785	20.215	1.6364	0.	25.858
19786	20.122	1.5455	0.	23.723
19787	20.122	1.6364	5.e-002	4.2624
19788	20.399	1.6364	0.	29.461
19789	20.307	1.5455	0.	27.134
19790	20.307	1.6364	5.e-002	4.2473
19791	20.584	1.6364	0.	33.158
19792	20.492	1.5455	0.	30.624
19793	20.492	1.6364	5.e-002	4.2335
19794	20.769	1.6364	0.	36.973
19795	20.676	1.5455	0.	34.214
19796	20.676	1.6364	5.e-002	4.221
19797	20.953	1.6364	0.	40.93
19798	20.861	1.5455	0.	37.927
19799	20.861	1.6364	5.e-002	4.2101
19800	21.138	1.6364	0.	45.053
19801	21.046	1.5455	0.	41.786
19802	21.046	1.6364	5.e-002	4.2007
19803	21.322	1.6364	0.	49.371
19804	21.23	1.5455	0.	45.818
19805	21.23	1.6364	5.e-002	4.193
19806	21.507	1.6364	0.	53.913
19807	21.415	1.5455	0.	50.05
19808	21.415	1.6364	5.e-002	4.1872
19809	21.692	1.6364	0.	58.712
19810	21.599	1.5455	0.	54.512
19811	21.599	1.6364	5.e-002	4.1836
19812	21.876	1.6364	0.	63.801
19813	21.784	1.5455	0.	59.238
19814	21.784	1.6364	5.e-002	4.1823
19815	22.061	1.6364	0.	69.221
19816	21.969	1.5455	0.	64.266
19817	21.969	1.6364	5.e-002	4.1837
19818	22.246	1.6364	0.	75.01
19819	22.153	1.5455	0.	69.636
19820	22.153	1.6364	5.e-002	4.1883
19821	22.43	1.6364	0.	81.214
19822	22.338	1.5455	0.	75.393
19823	22.338	1.6364	5.e-002	4.1965
19824	22.615	1.6364	0.	87.878
19825	22.523	1.5455	0.	81.585
19826	22.523	1.6364	5.e-002	4.209
19827	22.8	1.6364	0.	95.048
19828	22.707	1.5455	0.	88.266
19829	22.707	1.6364	5.e-002	4.2266
19830	22.984	1.6364	0.	102.77
19831	22.892	1.5455	0.	95.488
19832	22.892	1.6364	5.e-002	4.25
19833	23.169	1.6364	0.	111.08
19834	23.077	1.5455	0.	103.3
19835	23.077	1.6364	5.e-002	4.2803
19836	23.354	1.6364	0.	120.
19837	23.261	1.5455	0.	111.75
19838	23.261	1.6364	5.e-002	4.3184
19839	23.538	1.6364	0.	129.56
19840	23.446	1.5455	0.	120.84
19841	23.446	1.6364	5.e-002	4.3647
19842	23.723	1.6364	0.	139.72
19843	23.631	1.5455	0.	130.66
19844	23.631	1.6364	5.e-002	4.422
19845	23.815	1.5455	0.	141.03
19846	23.815	1.6364	5.e-002	4.5301
19847	23.908	1.6364	0.	149.64
19848	12.644	1.4545	0.	998.97
19849	12.551	1.3636	0.	1161.5
19850	12.551	1.4545	5.e-002	95.493
19851	12.459	1.4545	0.	1073.1
19852	12.828	1.4545	0.	560.17
19853	12.736	1.3636	0.	676.35
19854	12.736	1.4545	5.e-002	55.038
19855	13.013	1.4545	0.	301.74
19856	12.921	1.3636	0.	391.94
19857	12.921	1.4545	5.e-002	32.918
19858	13.198	1.4545	0.	144.43
19859	13.105	1.3636	0.	212.21
19860	13.105	1.4545	5.e-002	23.33
19861	13.382	1.4545	0.	52.537
19862	13.29	1.3636	0.	102.01
19863	13.29	1.4545	5.e-002	17.716
19864	13.567	1.4545	0.	9.5624
19865	13.475	1.3636	0.	37.087
19866	13.475	1.4545	5.e-002	14.316
19867	13.752	1.4545	0.	2.5625
19868	13.659	1.3636	0.	7.6763
19869	13.659	1.4545	5.e-002	11.937
19870	13.936	1.4545	0.	1.2473
19871	13.844	1.3636	0.	2.3774
19872	13.844	1.4545	5.e-002	10.195
19873	14.121	1.4545	0.	0.74625
19874	14.029	1.3636	0.	1.186
19875	14.029	1.4545	5.e-002	8.8765
19876	14.306	1.4545	0.	0.49119
19877	14.213	1.3636	0.	0.7108
19878	14.213	1.4545	5.e-002	7.8699
19879	14.49	1.4545	0.	0.3406
19880	14.398	1.3636	0.	0.46474
19881	14.398	1.4545	5.e-002	7.1014
19882	14.675	1.4545	0.	0.24411
19883	14.583	1.3636	0.	0.31957
19884	14.583	1.4545	5.e-002	6.5175
19885	14.86	1.4545	0.	0.17905
19886	14.767	1.3636	0.	0.22715
19887	14.767	1.4545	5.e-002	6.0771
19888	15.044	1.4545	0.	0.13373
19889	14.952	1.3636	0.	0.16547
19890	14.952	1.4545	5.e-002	5.7466
19891	15.229	1.4545	0.	0.10144
19892	15.137	1.3636	0.	0.12298
19893	15.137	1.4545	5.e-002	5.499
19894	15.413	1.4545	0.	7.8065e-002
19895	15.321	1.3636	0.	9.3023e-002
19896	15.321	1.4545	5.e-002	5.313
19897	15.598	1.4545	0.	6.0925e-002
19898	15.506	1.3636	0.	7.1528e-002
19899	15.506	1.4545	5.e-002	5.1719
19900	15.783	1.4545	0.	4.8233e-002
19901	15.69	1.3636	0.	5.5884e-002
19902	15.69	1.4545	5.e-002	5.063
19903	15.967	1.4545	0.	3.8761e-002
19904	15.875	1.3636	0.	4.4365e-002
19905	15.875	1.4545	5.e-002	4.9771
19906	16.152	1.4545	0.	3.1648e-002
19907	16.06	1.3636	0.	3.5804e-002
19908	16.06	1.4545	5.e-002	4.9073
19909	16.337	1.4545	0.	2.6287e-002
19910	16.244	1.3636	0.	2.9388e-002
19911	16.244	1.4545	5.e-002	4.849
19912	16.521	1.4545	0.	2.2237e-002
19913	16.429	1.3636	0.	2.4564e-002
19914	16.429	1.4545	5.e-002	4.7988
19915	16.706	1.4545	0.	1.9166e-002
19916	16.614	1.3636	0.	2.0916e-002
19917	16.614	1.4545	5.e-002	4.7544
19918	16.891	1.4545	0.	1.6854e-002
19919	16.798	1.3636	0.	1.8143e-002
19920	16.798	1.4545	5.e-002	4.7142
19921	17.075	1.4545	0.	1.5142e-002
19922	16.983	1.3636	0.	1.6074e-002
19923	16.983	1.4545	5.e-002	4.677
19924	17.26	1.4545	0.	1.3895e-002
19925	17.168	1.3636	0.	1.4547e-002
19926	17.168	1.4545	5.e-002	4.6423
19927	17.445	1.4545	0.	1.3025e-002
19928	17.352	1.3636	0.	1.3444e-002
19929	17.352	1.4545	5.e-002	4.6095
19930	17.629	1.4545	0.	1.2478e-002
19931	17.537	1.3636	0.	1.2705e-002
19932	17.537	1.4545	5.e-002	4.5783
19933	17.814	1.4545	0.	1.2229e-002
19934	17.722	1.3636	0.	1.2294e-002
19935	17.722	1.4545	5.e-002	4.5484
19936	17.999	1.4545	0.	1.2295e-002
19937	17.906	1.3636	0.	1.2217e-002
19938	17.906	1.4545	5.e-002	4.5198
19939	18.183	1.4545	0.	1.2775e-002
19940	18.091	1.3636	0.	1.2557e-002
19941	18.091	1.4545	5.e-002	4.4923
19942	18.368	1.4545	0.	1.4029e-002
19943	18.276	1.3636	0.	1.3614e-002
19944	18.276	1.4545	5.e-002	4.4658
19945	18.553	1.4545	0.	1.7756e-002
19946	18.46	1.3636	0.	1.6642e-002
19947	18.46	1.4545	5.e-002	4.4404
19948	18.737	1.4545	0.	6.8981e-002
19949	18.645	1.3636	0.	3.6126e-002
19950	18.645	1.4545	5.e-002	4.416
19951	18.922	1.4545	0.	2.8206
19952	18.83	1.3636	0.	1.9658
19953	18.83	1.4545	5.e-002	4.3926
19954	19.107	1.4545	0.	6.0103
19955	19.014	1.3636	0.	5.0042
19956	19.014	1.4545	5.e-002	4.3701
19957	19.291	1.4545	0.	9.1716
19958	19.199	1.3636	0.	8.0161
19959	19.199	1.4545	5.e-002	4.3487
19960	19.476	1.4545	0.	12.316
19961	19.384	1.3636	0.	11.008
19962	19.384	1.4545	5.e-002	4.3282
19963	19.661	1.4545	0.	15.458
19964	19.568	1.3636	0.	13.991
19965	19.568	1.4545	5.e-002	4.3088
19966	19.845	1.4545	0.	18.614
19967	19.753	1.3636	0.	16.98
19968	19.753	1.4545	5.e-002	4.2904
19969	20.03	1.4545	0.	21.799
19970	19.938	1.3636	0.	19.99
19971	19.938	1.4545	5.e-002	4.2731
19972	20.215	1.4545	0.	25.032
19973	20.122	1.3636	0.	23.036
19974	20.122	1.4545	5.e-002	4.2568
19975	20.399	1.4545	0.	28.33
19976	20.307	1.3636	0.	26.135
19977	20.307	1.4545	5.e-002	4.2417
19978	20.584	1.4545	0.	31.714
19979	20.492	1.3636	0.	29.303
19980	20.492	1.4545	5.e-002	4.2278
19981	20.769	1.4545	0.	35.203
19982	20.676	1.3636	0.	32.56
19983	20.676	1.4545	5.e-002	4.2152
19984	20.953	1.4545	0.	38.82
19985	20.861	1.3636	0.	35.926
19986	20.861	1.4545	5.e-002	4.2039
19987	21.138	1.4545	0.	42.588
19988	21.046	1.3636	0.	39.422
19989	21.046	1.4545	5.e-002	4.1941
19990	21.322	1.4545	0.	46.534
19991	21.23	1.3636	0.	43.072
19992	21.23	1.4545	5.e-002	4.186
19993	21.507	1.4545	0.	50.686
19994	21.415	1.3636	0.	46.903
19995	21.415	1.4545	5.e-002	4.1795
19996	21.692	1.4545	0.	55.076
19997	21.599	1.3636	0.	50.942
19998	21.599	1.4545	5.e-002	4.1751
19999	21.876	1.4545	0.	59.74
20000	21.784	1.3636	0.	55.224
20001	21.784	1.4545	5.e-002	4.1729
20002	22.061	1.4545	0.	64.717
20003	21.969	1.3636	0.	59.787
20004	21.969	1.4545	5.e-002	4.1732
20005	22.246	1.4545	0.	70.053
20006	22.153	1.3636	0.	64.672
20007	22.153	1.4545	5.e-002	4.1765
20008	22.43	1.4545	0.	75.797
20009	22.338	1.3636	0.	69.929
20010	22.338	1.4545	5.e-002	4.1834
20011	22.615	1.4545	0.	82.004
20012	22.523	1.3636	0.	75.615
20013	22.523	1.4545	5.e-002	4.1945
20014	22.8	1.4545	0.	88.733
20015	22.707	1.3636	0.	81.792
20016	22.707	1.4545	5.e-002	4.2107
20017	22.984	1.4545	0.	96.042
20018	22.892	1.3636	0.	88.527
20019	22.892	1.4545	5.e-002	4.2331
20020	23.169	1.4545	0.	103.99
20021	23.077	1.3636	0.	95.89
20022	23.077	1.4545	5.e-002	4.2631
20023	23.354	1.4545	0.	112.61
20024	23.261	1.3636	0.	103.95
20025	23.261	1.4545	5.e-002	4.302
20026	23.538	1.4545	0.	121.96
20027	23.446	1.3636	0.	112.74
20028	23.446	1.4545	5.e-002	4.3509
20029	23.723	1.4545	0.	131.99
20030	23.631	1.3636	0.	122.35
20031	23.631	1.4545	5.e-002	4.4135
20032	23.815	1.3636	0.	132.62
20033	23.815	1.4545	5.e-002	4.5401
20034	23.908	1.4545	0.	141.79
20035	12.644	1.2727	0.	801.1
20036	12.551	1.1818	0.	898.82
20037	12.551	1.2727	5.e-002	75.27
20038	12.459	1.2727	0.	812.65
20039	12.828	1.2727	0.	485.58
20040	12.736	1.1818	0.	551.2
20041	12.736	1.2727	5.e-002	44.253
20042	13.013	1.2727	0.	289.28
20043	12.921	1.1818	0.	344.14
20044	12.921	1.2727	5.e-002	32.175
20045	13.198	1.2727	0.	161.89
20046	13.105	1.1818	0.	206.97
20047	13.105	1.2727	5.e-002	23.078
20048	13.382	1.2727	0.	81.567
20049	13.29	1.1818	0.	118.18
20050	13.29	1.2727	5.e-002	17.319
20051	13.567	1.2727	0.	32.828
20052	13.475	1.1818	0.	62.071
20053	13.475	1.2727	5.e-002	13.498
20054	13.752	1.2727	0.	8.4504
20055	13.659	1.1818	0.	27.268
20056	13.659	1.2727	5.e-002	10.882
20057	13.936	1.2727	0.	2.6052
20058	13.844	1.1818	0.	8.4597
20059	13.844	1.2727	5.e-002	9.0176
20060	14.121	1.2727	0.	1.2522
20061	14.029	1.1818	0.	2.7055
20062	14.029	1.2727	5.e-002	7.6688
20063	14.306	1.2727	0.	0.72902
20064	14.213	1.1818	0.	1.2562
20065	14.213	1.2727	5.e-002	6.6977
20066	14.49	1.2727	0.	0.46575
20067	14.398	1.1818	0.	0.70879
20068	14.398	1.2727	5.e-002	6.012
20069	14.675	1.2727	0.	0.31424
20070	14.583	1.1818	0.	0.44165
20071	14.583	1.2727	5.e-002	5.5417
20072	14.86	1.2727	0.	0.21999
20073	14.767	1.1818	0.	0.29224
20074	14.767	1.2727	5.e-002	5.2294
20075	15.044	1.2727	0.	0.15839
20076	14.952	1.1818	0.	0.20167
20077	14.952	1.2727	5.e-002	5.0286
20078	15.229	1.2727	0.	0.11672
20079	15.137	1.1818	0.	0.14378
20080	15.137	1.2727	5.e-002	4.9027
20081	15.413	1.2727	0.	8.78e-002
20082	15.321	1.1818	0.	0.10533
20083	15.321	1.2727	5.e-002	4.825
20084	15.598	1.2727	0.	6.7307e-002
20085	15.506	1.1818	0.	7.9029e-002
20086	15.506	1.2727	5.e-002	4.7768
20087	15.783	1.2727	0.	5.254e-002
20088	15.69	1.1818	0.	6.0604e-002
20089	15.69	1.2727	5.e-002	4.7455
20090	15.967	1.2727	0.	4.1749e-002
20091	15.875	1.1818	0.	4.7433e-002
20092	15.875	1.2727	5.e-002	4.7232
20093	16.152	1.2727	0.	3.3768e-002
20094	16.06	1.1818	0.	3.7859e-002
20095	16.06	1.2727	5.e-002	4.7049
20096	16.337	1.2727	0.	2.7811e-002
20097	16.244	1.1818	0.	3.0796e-002
20098	16.244	1.2727	5.e-002	4.688
20099	16.521	1.2727	0.	2.3336e-002
20100	16.429	1.1818	0.	2.5538e-002
20101	16.429	1.2727	5.e-002	4.6707
20102	16.706	1.2727	0.	1.9948e-002
20103	16.614	1.1818	0.	2.1581e-002
20104	16.614	1.2727	5.e-002	4.6524
20105	16.891	1.2727	0.	1.739e-002
20106	16.798	1.1818	0.	1.8577e-002
20107	16.798	1.2727	5.e-002	4.6329
20108	17.075	1.2727	0.	1.5483e-002
20109	16.983	1.1818	0.	1.6327e-002
20110	16.983	1.2727	5.e-002	4.6121
20111	17.26	1.2727	0.	1.408e-002
20112	17.168	1.1818	0.	1.4656e-002
20113	17.168	1.2727	5.e-002	4.5903
20114	17.445	1.2727	0.	1.3092e-002
20115	17.352	1.1818	0.	1.3443e-002
20116	17.352	1.2727	5.e-002	4.5677
20117	17.629	1.2727	0.	1.2472e-002
20118	17.537	1.1818	0.	1.2635e-002
20119	17.537	1.2727	5.e-002	4.5444
20120	17.814	1.2727	0.	1.2214e-002
20121	17.722	1.1818	0.	1.2215e-002
20122	17.722	1.2727	5.e-002	4.5209
20123	17.999	1.2727	0.	1.2383e-002
20124	17.906	1.1818	0.	1.2238e-002
20125	17.906	1.2727	5.e-002	4.4972
20126	18.183	1.2727	0.	1.3232e-002
20127	18.091	1.1818	0.	1.2934e-002
20128	18.091	1.2727	5.e-002	4.4736
20129	18.368	1.2727	0.	1.5747e-002
20130	18.276	1.1818	0.	1.5158e-002
20131	18.276	1.2727	5.e-002	4.4502
20132	18.553	1.2727	0.	2.7826e-002
20133	18.46	1.1818	0.	2.4598e-002
20134	18.46	1.2727	5.e-002	4.4272
20135	18.737	1.2727	0.	1.2884
20136	18.645	1.1818	0.	0.82144
20137	18.645	1.2727	5.e-002	4.4047
20138	18.922	1.2727	0.	4.1726
20139	18.83	1.1818	0.	3.5326
20140	18.83	1.2727	5.e-002	4.3827
20141	19.107	1.2727	0.	7.0379
20142	19.014	1.1818	0.	6.2394
20143	19.014	1.2727	5.e-002	4.3614
20144	19.291	1.2727	0.	9.8815
20145	19.199	1.1818	0.	8.9245
20146	19.199	1.2727	5.e-002	4.3409
20147	19.476	1.2727	0.	12.713
20148	19.384	1.1818	0.	11.595
20149	19.384	1.2727	5.e-002	4.3211
20150	19.661	1.2727	0.	15.545
20151	19.568	1.1818	0.	14.261
20152	19.568	1.2727	5.e-002	4.3021
20153	19.845	1.2727	0.	18.39
20154	19.753	1.1818	0.	16.933
20155	19.753	1.2727	5.e-002	4.284
20156	20.03	1.2727	0.	21.262
20157	19.938	1.1818	0.	19.622
20158	19.938	1.2727	5.e-002	4.2669
20159	20.215	1.2727	0.	24.175
20160	20.122	1.1818	0.	22.343
20161	20.122	1.2727	5.e-002	4.2508
20162	20.399	1.2727	0.	27.144
20163	20.307	1.1818	0.	25.108
20164	20.307	1.2727	5.e-002	4.2357
20165	20.584	1.2727	0.	30.188
20166	20.492	1.1818	0.	27.933
20167	20.492	1.2727	5.e-002	4.2217
20168	20.769	1.2727	0.	33.323
20169	20.676	1.1818	0.	30.832
20170	20.676	1.2727	5.e-002	4.2089
20171	20.953	1.2727	0.	36.569
20172	20.861	1.1818	0.	33.824
20173	20.861	1.2727	5.e-002	4.1973
20174	21.138	1.2727	0.	39.948
20175	21.046	1.1818	0.	36.926
20176	21.046	1.2727	5.e-002	4.1871
20177	21.322	1.2727	0.	43.483
20178	21.23	1.1818	0.	40.161
20179	21.23	1.2727	5.e-002	4.1784
20180	21.507	1.2727	0.	47.201
20181	21.415	1.1818	0.	43.552
20182	21.415	1.2727	5.e-002	4.1713
20183	21.692	1.2727	0.	51.133
20184	21.599	1.1818	0.	47.125
20185	21.599	1.2727	5.e-002	4.166
20186	21.876	1.2727	0.	55.314
20187	21.784	1.1818	0.	50.913
20188	21.784	1.2727	5.e-002	4.1627
20189	22.061	1.2727	0.	59.784
20190	21.969	1.1818	0.	54.95
20191	21.969	1.2727	5.e-002	4.1618
20192	22.246	1.2727	0.	64.59
20193	22.153	1.1818	0.	59.282
20194	22.153	1.2727	5.e-002	4.1637
20195	22.43	1.2727	0.	69.788
20196	22.338	1.1818	0.	63.958
20197	22.338	1.2727	5.e-002	4.1689
20198	22.615	1.2727	0.	75.441
20199	22.523	1.1818	0.	69.04
20200	22.523	1.2727	5.e-002	4.1782
20201	22.8	1.2727	0.	81.621
20202	22.707	1.1818	0.	74.602
20203	22.707	1.2727	5.e-002	4.1926
20204	22.984	1.2727	0.	88.405
20205	22.892	1.1818	0.	80.727
20206	22.892	1.2727	5.e-002	4.2135
20207	23.169	1.2727	0.	95.875
20208	23.077	1.1818	0.	87.508
20209	23.077	1.2727	5.e-002	4.2425
20210	23.354	1.2727	0.	104.1
20211	23.261	1.1818	0.	95.044
20212	23.261	1.2727	5.e-002	4.2817
20213	23.538	1.2727	0.	113.14
20214	23.446	1.1818	0.	103.41
20215	23.446	1.2727	5.e-002	4.3331
20216	23.723	1.2727	0.	123.
20217	23.631	1.1818	0.	112.72
20218	23.631	1.2727	5.e-002	4.4019
20219	23.815	1.1818	0.	122.87
20220	23.815	1.2727	5.e-002	4.5502
20221	23.908	1.2727	0.	132.64
20222	12.644	1.0909	0.	618.93
20223	12.551	1.	0.	681.66
20224	12.551	1.0909	5.e-002	59.604
20225	12.459	1.0909	0.	616.05
20226	12.828	1.0909	0.	388.91
20227	12.736	1.	0.	422.19
20228	12.736	1.0909	5.e-002	38.553
20229	13.013	1.0909	0.	248.49
20230	12.921	1.	0.	276.15
20231	12.921	1.0909	5.e-002	30.219
20232	13.198	1.0909	0.	155.14
20233	13.105	1.	0.	180.12
20234	13.105	1.0909	5.e-002	23.072
20235	13.382	1.0909	0.	93.898
20236	13.29	1.	0.	116.85
20237	13.29	1.0909	5.e-002	17.557
20238	13.567	1.0909	0.	53.897
20239	13.475	1.	0.	75.025
20240	13.475	1.0909	5.e-002	13.492
20241	13.752	1.0909	0.	27.645
20242	13.659	1.	0.	46.673
20243	13.659	1.0909	5.e-002	10.515
20244	13.936	1.0909	0.	11.137
20245	13.844	1.	0.	26.895
20246	13.844	1.0909	5.e-002	8.3409
20247	14.121	1.0909	0.	3.5985
20248	14.029	1.	0.	13.045
20249	14.029	1.0909	5.e-002	6.7738
20250	14.306	1.0909	0.	1.4689
20251	14.213	1.	0.	4.6905
20252	14.213	1.0909	5.e-002	5.685
20253	14.49	1.0909	0.	0.76279
20254	14.398	1.	0.	1.6662
20255	14.398	1.0909	5.e-002	4.9775
20256	14.675	1.0909	0.	0.45078
20257	14.583	1.	0.	0.77593
20258	14.583	1.0909	5.e-002	4.563
20259	14.86	1.0909	0.	0.28778
20260	14.767	1.	0.	0.4307
20261	14.767	1.0909	5.e-002	4.3564
20262	15.044	1.0909	0.	0.19374
20263	14.952	1.	0.	0.26484
20264	14.952	1.0909	5.e-002	4.2827
20265	15.229	1.0909	0.	0.13582
20266	15.137	1.	0.	0.17431
20267	15.137	1.0909	5.e-002	4.2841
20268	15.413	1.0909	0.	9.8433e-002
20269	15.321	1.	0.	0.12064
20270	15.321	1.0909	5.e-002	4.322
20271	15.598	1.0909	0.	7.3403e-002
20272	15.506	1.	0.	8.6909e-002
20273	15.506	1.0909	5.e-002	4.3726
20274	15.783	1.0909	0.	5.6143e-002
20275	15.69	1.	0.	6.4735e-002
20276	15.69	1.0909	5.e-002	4.4232
20277	15.967	1.0909	0.	4.3944e-002
20278	15.875	1.	0.	4.9626e-002
20279	15.875	1.0909	5.e-002	4.4673
20280	16.152	1.0909	0.	3.5142e-002
20281	16.06	1.	0.	3.9024e-002
20282	16.06	1.0909	5.e-002	4.5022
20283	16.337	1.0909	0.	2.8685e-002
20284	16.244	1.	0.	3.1396e-002
20285	16.244	1.0909	5.e-002	4.5274
20286	16.521	1.0909	0.	2.3883e-002
20287	16.429	1.	0.	2.5811e-002
20288	16.429	1.0909	5.e-002	4.5435
20289	16.706	1.0909	0.	2.0265e-002
20290	16.614	1.	0.	2.1646e-002
20291	16.614	1.0909	5.e-002	4.5515
20292	16.891	1.0909	0.	1.7536e-002
20293	16.798	1.	0.	1.8498e-002
20294	16.798	1.0909	5.e-002	4.5527
20295	17.075	1.0909	0.	1.5495e-002
20296	16.983	1.	0.	1.6139e-002
20297	16.983	1.0909	5.e-002	4.5481
20298	17.26	1.0909	0.	1.399e-002
20299	17.168	1.	0.	1.4386e-002
20300	17.168	1.0909	5.e-002	4.539
20301	17.445	1.0909	0.	1.2936e-002
20302	17.352	1.	0.	1.3124e-002
20303	17.352	1.0909	5.e-002	4.5264
20304	17.629	1.0909	0.	1.2307e-002
20305	17.537	1.	0.	1.2318e-002
20306	17.537	1.0909	5.e-002	4.511
20307	17.814	1.0909	0.	1.2144e-002
20308	17.722	1.	0.	1.2006e-002
20309	17.722	1.0909	5.e-002	4.4936
20310	17.999	1.0909	0.	1.2656e-002
20311	17.906	1.	0.	1.239e-002
20312	17.906	1.0909	5.e-002	4.4748
20313	18.183	1.0909	0.	1.4622e-002
20314	18.091	1.	0.	1.4248e-002
20315	18.091	1.0909	5.e-002	4.455
20316	18.368	1.0909	0.	2.274e-002
20317	18.276	1.	0.	2.219e-002
20318	18.276	1.0909	5.e-002	4.4346
20319	18.553	1.0909	0.	0.5477
20320	18.46	1.	0.	0.47075
20321	18.46	1.0909	5.e-002	4.4139
20322	18.737	1.0909	0.	3.0787
20323	18.645	1.	0.	2.8244
20324	18.645	1.0909	5.e-002	4.3932
20325	18.922	1.0909	0.	5.6271
20326	18.83	1.	0.	5.2062
20327	18.83	1.0909	5.e-002	4.3727
20328	19.107	1.0909	0.	8.1556
20329	19.014	1.	0.	7.5703
20330	19.014	1.0909	5.e-002	4.3525
20331	19.291	1.0909	0.	10.669
20332	19.199	1.	0.	9.919
20333	19.199	1.0909	5.e-002	4.3328
20334	19.476	1.0909	0.	13.175
20335	19.384	1.	0.	12.258
20336	19.384	1.0909	5.e-002	4.3136
20337	19.661	1.0909	0.	15.682
20338	19.568	1.	0.	14.594
20339	19.568	1.0909	5.e-002	4.2951
20340	19.845	1.0909	0.	18.2
20341	19.753	1.	0.	16.936
20342	19.753	1.0909	5.e-002	4.2774
20343	20.03	1.0909	0.	20.74
20344	19.938	1.	0.	19.291
20345	19.938	1.0909	5.e-002	4.2605
20346	20.215	1.0909	0.	23.315
20347	20.122	1.	0.	21.672
20348	20.122	1.0909	5.e-002	4.2444
20349	20.399	1.0909	0.	25.936
20350	20.307	1.	0.	24.087
20351	20.307	1.0909	5.e-002	4.2293
20352	20.584	1.0909	0.	28.618
20353	20.492	1.	0.	26.55
20354	20.492	1.0909	5.e-002	4.2152
20355	20.769	1.0909	0.	31.375
20356	20.676	1.	0.	29.072
20357	20.676	1.0909	5.e-002	4.2022
20358	20.953	1.0909	0.	34.225
20359	20.861	1.	0.	31.669
20360	20.861	1.0909	5.e-002	4.1903
20361	21.138	1.0909	0.	37.186
20362	21.046	1.	0.	34.354
20363	21.046	1.0909	5.e-002	4.1796
20364	21.322	1.0909	0.	40.277
20365	21.23	1.	0.	37.147
20366	21.23	1.0909	5.e-002	4.1703
20367	21.507	1.0909	0.	43.524
20368	21.415	1.	0.	40.067
20369	21.415	1.0909	5.e-002	4.1625
20370	21.692	1.0909	0.	46.954
20371	21.599	1.	0.	43.138
20372	21.599	1.0909	5.e-002	4.1563
20373	21.876	1.0909	0.	50.599
20374	21.784	1.	0.	46.386
20375	21.784	1.0909	5.e-002	4.152
20376	22.061	1.0909	0.	54.499
20377	21.969	1.	0.	49.846
20378	21.969	1.0909	5.e-002	4.1497
20379	22.246	1.0909	0.	58.7
20380	22.153	1.	0.	53.558
20381	22.153	1.0909	5.e-002	4.15
20382	22.43	1.0909	0.	63.26
20383	22.338	1.	0.	57.571
20384	22.338	1.0909	5.e-002	4.1533
20385	22.615	1.0909	0.	68.25
20386	22.523	1.	0.	61.951
20387	22.523	1.0909	5.e-002	4.1604
20388	22.8	1.0909	0.	73.754
20389	22.707	1.	0.	66.774
20390	22.707	1.0909	5.e-002	4.1725
20391	22.984	1.0909	0.	79.871
20392	22.892	1.	0.	72.141
20393	22.892	1.0909	5.e-002	4.1909
20394	23.169	1.0909	0.	86.712
20395	23.077	1.	0.	78.17
20396	23.077	1.0909	5.e-002	4.218
20397	23.354	1.0909	0.	94.385
20398	23.261	1.	0.	85.001
20399	23.261	1.0909	5.e-002	4.2566
20400	23.538	1.0909	0.	103.01
20401	23.446	1.	0.	92.764
20402	23.446	1.0909	5.e-002	4.3101
20403	23.723	1.0909	0.	112.61
20404	23.631	1.	0.	101.64
20405	23.631	1.0909	5.e-002	4.3861
20406	23.815	1.	0.	111.58
20407	23.815	1.0909	5.e-002	4.5598
20408	23.908	1.0909	0.	122.04
20409	12.644	0.90909	0.	459.68
20410	12.551	0.81818	0.	499.68
20411	12.551	0.90909	5.e-002	49.356
20412	12.459	0.90909	0.	456.07
20413	12.828	0.90909	0.	290.72
20414	12.736	0.81818	0.	302.86
20415	12.736	0.90909	5.e-002	33.998
20416	13.013	0.90909	0.	195.51
20417	12.921	0.81818	0.	203.92
20418	12.921	0.90909	5.e-002	28.349
20419	13.198	0.90909	0.	134.37
20420	13.105	0.81818	0.	143.92
20421	13.105	0.90909	5.e-002	22.786
20422	13.382	0.90909	0.	93.637
20423	13.29	0.81818	0.	105.03
20424	13.29	0.90909	5.e-002	17.873
20425	13.567	0.90909	0.	65.376
20426	13.475	0.81818	0.	78.148
20427	13.475	0.90909	5.e-002	13.821
20428	13.752	0.90909	0.	44.798
20429	13.659	0.81818	0.	58.16
20430	13.659	0.90909	5.e-002	10.603
20431	13.936	0.90909	0.	29.182
20432	13.844	0.81818	0.	42.419
20433	13.844	0.90909	5.e-002	8.1093
20434	14.121	0.90909	0.	17.06
20435	14.029	0.81818	0.	29.563
20436	14.029	0.90909	5.e-002	6.2328
20437	14.306	0.90909	0.	7.9224
20438	14.213	0.81818	0.	18.916
20439	14.213	0.90909	5.e-002	4.8967
20440	14.49	0.90909	0.	2.6138
20441	14.398	0.81818	0.	10.221
20442	14.398	0.90909	5.e-002	4.0436
20443	14.675	0.90909	0.	0.95214
20444	14.583	0.81818	0.	3.8484
20445	14.583	0.90909	5.e-002	3.6043
20446	14.86	0.90909	0.	0.46143
20447	14.767	0.81818	0.	1.112
20448	14.767	0.90909	5.e-002	3.4722
20449	15.044	0.90909	0.	0.26384
20450	14.952	0.81818	0.	0.45364
20451	14.952	0.90909	5.e-002	3.5241
20452	15.229	0.90909	0.	0.16656
20453	15.137	0.81818	0.	0.24032
20454	15.137	0.90909	5.e-002	3.6608
20455	15.413	0.90909	0.	0.11251
20456	15.321	0.81818	0.	0.14646
20457	15.321	0.90909	5.e-002	3.8215
20458	15.598	0.90909	0.	7.9957e-002
20459	15.506	0.81818	0.	9.7477e-002
20460	15.506	0.90909	5.e-002	3.9756
20461	15.783	0.90909	0.	5.9164e-002
20462	15.69	0.81818	0.	6.9042e-002
20463	15.69	0.90909	5.e-002	4.11
20464	15.967	0.90909	0.	4.5264e-002
20465	15.875	0.81818	0.	5.1268e-002
20466	15.875	0.90909	5.e-002	4.2207
20467	16.152	0.90909	0.	3.5623e-002
20468	16.06	0.81818	0.	3.9519e-002
20469	16.06	0.90909	5.e-002	4.308
20470	16.337	0.90909	0.	2.8738e-002
20471	16.244	0.81818	0.	3.14e-002
20472	16.244	0.90909	5.e-002	4.3744
20473	16.521	0.90909	0.	2.3707e-002
20474	16.429	0.81818	0.	2.56e-002
20475	16.429	0.90909	5.e-002	4.4227
20476	16.706	0.90909	0.	1.9952e-002
20477	16.614	0.81818	0.	2.1334e-002
20478	16.614	0.90909	5.e-002	4.4558
20479	16.891	0.90909	0.	1.7128e-002
20480	16.798	0.81818	0.	1.8121e-002
20481	16.798	0.90909	5.e-002	4.4766
20482	17.075	0.90909	0.	1.5019e-002
20483	16.983	0.81818	0.	1.5709e-002
20484	16.983	0.90909	5.e-002	4.4874
20485	17.26	0.90909	0.	1.3475e-002
20486	17.168	0.81818	0.	1.3915e-002
20487	17.168	0.90909	5.e-002	4.4904
20488	17.445	0.90909	0.	1.243e-002
20489	17.352	0.81818	0.	1.2648e-002
20490	17.352	0.90909	5.e-002	4.4871
20491	17.629	0.90909	0.	1.1913e-002
20492	17.537	0.81818	0.	1.1937e-002
20493	17.537	0.90909	5.e-002	4.4791
20494	17.814	0.90909	0.	1.213e-002
20495	17.722	0.81818	0.	1.2013e-002
20496	17.722	0.90909	5.e-002	4.4675
20497	17.999	0.90909	0.	1.3899e-002
20498	17.906	0.81818	0.	1.3862e-002
20499	17.906	0.90909	5.e-002	4.4532
20500	18.183	0.90909	0.	2.2457e-002
20501	18.091	0.81818	0.	2.5275e-002
20502	18.091	0.90909	5.e-002	4.4369
20503	18.368	0.90909	0.	0.5719
20504	18.276	0.81818	0.	0.87286
20505	18.276	0.90909	5.e-002	4.4193
20506	18.553	0.90909	0.	2.7668
20507	18.46	0.81818	0.	2.9088
20508	18.46	0.90909	5.e-002	4.4008
20509	18.737	0.90909	0.	4.9801
20510	18.645	0.81818	0.	4.9495
20511	18.645	0.90909	5.e-002	4.3818
20512	18.922	0.90909	0.	7.1793
20513	18.83	0.81818	0.	6.9794
20514	18.83	0.90909	5.e-002	4.3626
20515	19.107	0.90909	0.	9.3649
20516	19.014	0.81818	0.	8.9976
20517	19.014	0.90909	5.e-002	4.3434
20518	19.291	0.90909	0.	11.541
20519	19.199	0.81818	0.	11.006
20520	19.199	0.90909	5.e-002	4.3245
20521	19.476	0.90909	0.	13.711
20522	19.384	0.81818	0.	13.007
20523	19.384	0.90909	5.e-002	4.3059
20524	19.661	0.90909	0.	15.883
20525	19.568	0.81818	0.	15.007
20526	19.568	0.90909	5.e-002	4.2879
20527	19.845	0.90909	0.	18.064
20528	19.753	0.81818	0.	17.01
20529	19.753	0.90909	5.e-002	4.2704
20530	20.03	0.90909	0.	20.262
20531	19.938	0.81818	0.	19.023
20532	19.938	0.90909	5.e-002	4.2537
20533	20.215	0.90909	0.	22.485
20534	20.122	0.81818	0.	21.054
20535	20.122	0.90909	5.e-002	4.2377
20536	20.399	0.90909	0.	24.743
20537	20.307	0.81818	0.	23.109
20538	20.307	0.90909	5.e-002	4.2226
20539	20.584	0.90909	0.	27.048
20540	20.492	0.81818	0.	25.198
20541	20.492	0.90909	5.e-002	4.2083
20542	20.769	0.90909	0.	29.412
20543	20.676	0.81818	0.	27.331
20544	20.676	0.90909	5.e-002	4.1951
20545	20.953	0.90909	0.	31.846
20546	20.861	0.81818	0.	29.518
20547	20.861	0.90909	5.e-002	4.1828
20548	21.138	0.90909	0.	34.366
20549	21.046	0.81818	0.	31.771
20550	21.046	0.90909	5.e-002	4.1718
20551	21.322	0.90909	0.	36.99
20552	21.23	0.81818	0.	34.103
20553	21.23	0.90909	5.e-002	4.1619
20554	21.507	0.90909	0.	39.735
20555	21.415	0.81818	0.	36.531
20556	21.415	0.90909	5.e-002	4.1533
20557	21.692	0.90909	0.	42.627
20558	21.599	0.81818	0.	39.071
20559	21.599	0.90909	5.e-002	4.1462
20560	21.876	0.90909	0.	45.692
20561	21.784	0.81818	0.	41.748
20562	21.784	0.90909	5.e-002	4.1407
20563	22.061	0.90909	0.	48.966
20564	21.969	0.81818	0.	44.587
20565	21.969	0.90909	5.e-002	4.137
20566	22.246	0.90909	0.	52.492
20567	22.153	0.81818	0.	47.624
20568	22.153	0.90909	5.e-002	4.1356
20569	22.43	0.90909	0.	56.325
20570	22.338	0.81818	0.	50.904
20571	22.338	0.90909	5.e-002	4.1368
20572	22.615	0.90909	0.	60.538
20573	22.523	0.81818	0.	54.484
20574	22.523	0.90909	5.e-002	4.1413
20575	22.8	0.90909	0.	65.222
20576	22.707	0.81818	0.	58.443
20577	22.707	0.90909	5.e-002	4.1504
20578	22.984	0.90909	0.	70.497
20579	22.892	0.81818	0.	62.886
20580	22.892	0.90909	5.e-002	4.1655
20581	23.169	0.90909	0.	76.508
20582	23.077	0.81818	0.	67.951
20583	23.077	0.90909	5.e-002	4.1893
20584	23.354	0.90909	0.	83.42
20585	23.261	0.81818	0.	73.826
20586	23.261	0.90909	5.e-002	4.2258
20587	23.538	0.90909	0.	91.424
20588	23.446	0.81818	0.	80.716
20589	23.446	0.90909	5.e-002	4.2801
20590	23.723	0.90909	0.	100.64
20591	23.631	0.81818	0.	88.914
20592	23.631	0.90909	5.e-002	4.3639
20593	23.815	0.81818	0.	98.511
20594	23.815	0.90909	5.e-002	4.5674
20595	23.908	0.90909	0.	109.77
20596	12.644	0.72727	0.	319.88
20597	12.551	0.63636	0.	343.6
20598	12.551	0.72727	5.e-002	42.112
20599	12.459	0.72727	0.	321.45
20600	12.828	0.72727	0.	199.57
20601	12.736	0.63636	0.	197.63
20602	12.736	0.72727	5.e-002	30.958
20603	13.013	0.72727	0.	142.04
20604	12.921	0.63636	0.	138.09
20605	12.921	0.72727	5.e-002	26.884
20606	13.198	0.72727	0.	108.53
20607	13.105	0.63636	0.	107.87
20608	13.105	0.72727	5.e-002	22.416
20609	13.382	0.72727	0.	86.054
20610	13.29	0.63636	0.	89.041
20611	13.29	0.72727	5.e-002	18.071
20612	13.567	0.72727	0.	68.946
20613	13.475	0.63636	0.	74.738
20614	13.475	0.72727	5.e-002	14.18
20615	13.752	0.72727	0.	54.689
20616	13.659	0.63636	0.	62.251
20617	13.659	0.72727	5.e-002	10.872
20618	13.936	0.72727	0.	42.275
20619	13.844	0.63636	0.	50.751
20620	13.844	0.72727	5.e-002	8.1575
20621	14.121	0.72727	0.	31.338
20622	14.029	0.63636	0.	40.104
20623	14.029	0.72727	5.e-002	5.9999
20624	14.306	0.72727	0.	21.766
20625	14.213	0.63636	0.	30.399
20626	14.213	0.72727	5.e-002	4.3679
20627	14.49	0.72727	0.	13.548
20628	14.398	0.63636	0.	21.753
20629	14.398	0.72727	5.e-002	3.2593
20630	14.675	0.72727	0.	6.7701
20631	14.583	0.63636	0.	14.253
20632	14.583	0.72727	5.e-002	2.6878
20633	14.86	0.72727	0.	2.0824
20634	14.767	0.63636	0.	7.9589
20635	14.767	0.72727	5.e-002	2.5877
20636	15.044	0.72727	0.	0.57291
20637	14.952	0.63636	0.	3.0612
20638	14.952	0.72727	5.e-002	2.7705
20639	15.229	0.72727	0.	0.25152
20640	15.137	0.63636	0.	0.677
20641	15.137	0.72727	5.e-002	3.0556
20642	15.413	0.72727	0.	0.14135
20643	15.321	0.63636	0.	0.23882
20644	15.321	0.72727	5.e-002	3.3464
20645	15.598	0.72727	0.	9.0583e-002
20646	15.506	0.63636	0.	0.12491
20647	15.506	0.72727	5.e-002	3.6051
20648	15.783	0.72727	0.	6.3095e-002
20649	15.69	0.63636	0.	7.8072e-002
20650	15.69	0.72727	5.e-002	3.8212
20651	15.967	0.72727	0.	4.66e-002
20652	15.875	0.63636	0.	5.3982e-002
20653	15.875	0.72727	5.e-002	3.9952
20654	16.152	0.72727	0.	3.5947e-002
20655	16.06	0.63636	0.	3.9852e-002
20656	16.06	0.72727	5.e-002	4.1314
20657	16.337	0.72727	0.	2.8674e-002
20658	16.244	0.63636	0.	3.079e-002
20659	16.244	0.72727	5.e-002	4.2356
20660	16.521	0.72727	0.	2.3489e-002
20661	16.429	0.63636	0.	2.4596e-002
20662	16.429	0.72727	5.e-002	4.3131
20663	16.706	0.72727	0.	1.9658e-002
20664	16.614	0.63636	0.	2.0144e-002
20665	16.614	0.72727	5.e-002	4.369
20666	16.891	0.72727	0.	1.6773e-002
20667	16.798	0.63636	0.	1.6819e-002
20668	16.798	0.72727	5.e-002	4.4074
20669	17.075	0.72727	0.	1.4604e-002
20670	16.983	0.63636	0.	1.4323e-002
20671	16.983	0.72727	5.e-002	4.4319
20672	17.26	0.72727	0.	1.3021e-002
20673	17.168	0.63636	0.	1.2476e-002
20674	17.168	0.72727	5.e-002	4.4456
20675	17.445	0.72727	0.	1.2031e-002
20676	17.352	0.63636	0.	1.1259e-002
20677	17.352	0.72727	5.e-002	4.4507
20678	17.629	0.72727	0.	1.1907e-002
20679	17.537	0.63636	0.	1.1042e-002
20680	17.537	0.72727	5.e-002	4.4492
20681	17.814	0.72727	0.	1.4032e-002
20682	17.722	0.63636	0.	1.463e-002
20683	17.722	0.72727	5.e-002	4.4427
20684	17.999	0.72727	0.	3.9722e-002
20685	17.906	0.63636	0.	0.46198
20686	17.906	0.72727	5.e-002	4.4323
20687	18.183	0.72727	0.	1.3961
20688	18.091	0.63636	0.	2.1169
20689	18.091	0.72727	5.e-002	4.4192
20690	18.368	0.72727	0.	3.2575
20691	18.276	0.63636	0.	3.7995
20692	18.276	0.72727	5.e-002	4.404
20693	18.553	0.72727	0.	5.1212
20694	18.46	0.63636	0.	5.4869
20695	18.46	0.72727	5.e-002	4.3874
20696	18.737	0.72727	0.	6.9791
20697	18.645	0.63636	0.	7.1729
20698	18.645	0.72727	5.e-002	4.3699
20699	18.922	0.72727	0.	8.8292
20700	18.83	0.63636	0.	8.854
20701	18.83	0.72727	5.e-002	4.3518
20702	19.107	0.72727	0.	10.671
20703	19.014	0.63636	0.	10.529
20704	19.014	0.72727	5.e-002	4.3336
20705	19.291	0.72727	0.	12.507
20706	19.199	0.63636	0.	12.197
20707	19.199	0.72727	5.e-002	4.3153
20708	19.476	0.72727	0.	14.339
20709	19.384	0.63636	0.	13.861
20710	19.384	0.72727	5.e-002	4.2973
20711	19.661	0.72727	0.	16.171
20712	19.568	0.63636	0.	15.522
20713	19.568	0.72727	5.e-002	4.2796
20714	19.845	0.72727	0.	18.008
20715	19.753	0.63636	0.	17.184
20716	19.753	0.72727	5.e-002	4.2624
20717	20.03	0.72727	0.	19.856
20718	19.938	0.63636	0.	18.851
20719	19.938	0.72727	5.e-002	4.2458
20720	20.215	0.72727	0.	21.721
20721	20.122	0.63636	0.	20.527
20722	20.122	0.72727	5.e-002	4.2299
20723	20.399	0.72727	0.	23.609
20724	20.307	0.63636	0.	22.218
20725	20.307	0.72727	5.e-002	4.2147
20726	20.584	0.72727	0.	25.528
20727	20.492	0.63636	0.	23.929
20728	20.492	0.72727	5.e-002	4.2004
20729	20.769	0.72727	0.	27.487
20730	20.676	0.63636	0.	25.667
20731	20.676	0.72727	5.e-002	4.1869
20732	20.953	0.72727	0.	29.495
20733	20.861	0.63636	0.	27.439
20734	20.861	0.72727	5.e-002	4.1744
20735	21.138	0.72727	0.	31.563
20736	21.046	0.63636	0.	29.252
20737	21.046	0.72727	5.e-002	4.1628
20738	21.322	0.72727	0.	33.703
20739	21.23	0.63636	0.	31.115
20740	21.23	0.72727	5.e-002	4.1524
20741	21.507	0.72727	0.	35.928
20742	21.415	0.63636	0.	33.04
20743	21.415	0.72727	5.e-002	4.1431
20744	21.692	0.72727	0.	38.258
20745	21.599	0.63636	0.	35.037
20746	21.599	0.72727	5.e-002	4.1351
20747	21.876	0.72727	0.	40.712
20748	21.784	0.63636	0.	37.124
20749	21.784	0.72727	5.e-002	4.1284
20750	22.061	0.72727	0.	43.319
20751	21.969	0.63636	0.	39.318
20752	21.969	0.72727	5.e-002	4.1233
20753	22.246	0.72727	0.	46.113
20754	22.153	0.63636	0.	41.645
20755	22.153	0.72727	5.e-002	4.1201
20756	22.43	0.72727	0.	49.143
20757	22.338	0.63636	0.	44.138
20758	22.338	0.72727	5.e-002	4.119
20759	22.615	0.72727	0.	52.472
20760	22.523	0.63636	0.	46.844
20761	22.523	0.72727	5.e-002	4.1208
20762	22.8	0.72727	0.	56.19
20763	22.707	0.63636	0.	49.827
20764	22.707	0.72727	5.e-002	4.1263
20765	22.984	0.72727	0.	60.422
20766	22.892	0.63636	0.	53.183
20767	22.892	0.72727	5.e-002	4.1371
20768	23.169	0.72727	0.	65.344
20769	23.077	0.63636	0.	57.051
20770	23.077	0.72727	5.e-002	4.156
20771	23.354	0.72727	0.	71.185
20772	23.261	0.63636	0.	61.642
20773	23.261	0.72727	5.e-002	4.1878
20774	23.538	0.72727	0.	78.253
20775	23.446	0.63636	0.	67.248
20776	23.446	0.72727	5.e-002	4.2404
20777	23.723	0.72727	0.	86.825
20778	23.631	0.63636	0.	74.34
20779	23.631	0.72727	5.e-002	4.3318
20780	23.815	0.63636	0.	83.289
20781	23.815	0.72727	5.e-002	4.5704
20782	23.908	0.72727	0.	95.522
20783	12.644	0.54545	0.	199.26
20784	12.551	0.45455	0.	210.41
20785	12.551	0.54545	5.e-002	37.249
20786	12.459	0.54545	0.	205.56
20787	12.828	0.54545	0.	122.56
20788	12.736	0.45455	0.	113.27
20789	12.736	0.54545	5.e-002	29.227
20790	13.013	0.54545	0.	96.448
20791	12.921	0.45455	0.	87.359
20792	12.921	0.54545	5.e-002	25.967
20793	13.198	0.54545	0.	84.215
20794	13.105	0.45455	0.	78.725
20795	13.105	0.54545	5.e-002	22.129
20796	13.382	0.54545	0.	75.328
20797	13.29	0.45455	0.	73.187
20798	13.29	0.54545	5.e-002	18.188
20799	13.567	0.54545	0.	66.639
20800	13.475	0.45455	0.	67.071
20801	13.475	0.54545	5.e-002	14.474
20802	13.752	0.54545	0.	57.491
20803	13.659	0.45455	0.	59.719
20804	13.659	0.54545	5.e-002	11.17
20805	13.936	0.54545	0.	48.112
20806	13.844	0.45455	0.	51.515
20807	13.844	0.54545	5.e-002	8.3417
20808	14.121	0.54545	0.	38.92
20809	14.029	0.45455	0.	43.045
20810	14.029	0.54545	5.e-002	5.9925
20811	14.306	0.54545	0.	30.291
20812	14.213	0.45455	0.	34.82
20813	14.213	0.54545	5.e-002	4.1072
20814	14.49	0.54545	0.	22.488
20815	14.398	0.45455	0.	27.2
20816	14.398	0.54545	5.e-002	2.6941
20817	14.675	0.54545	0.	15.662
20818	14.583	0.45455	0.	20.405
20819	14.583	0.54545	5.e-002	1.8491
20820	14.86	0.54545	0.	9.8784
20821	14.767	0.45455	0.	14.538
20822	14.767	0.54545	5.e-002	1.706
20823	15.044	0.54545	0.	5.1606
20824	14.952	0.45455	0.	9.6256
20825	14.952	0.54545	5.e-002	2.0412
20826	15.229	0.54545	0.	1.6734
20827	15.137	0.45455	0.	5.6446
20828	15.137	0.54545	5.e-002	2.4947
20829	15.413	0.54545	0.	0.34253
20830	15.321	0.45455	0.	2.5689
20831	15.321	0.54545	5.e-002	2.9181
20832	15.598	0.54545	0.	0.13668
20833	15.506	0.45455	0.	0.62084
20834	15.506	0.54545	5.e-002	3.2754
20835	15.783	0.54545	0.	7.7434e-002
20836	15.69	0.45455	0.	0.1618
20837	15.69	0.54545	5.e-002	3.5648
20838	15.967	0.54545	0.	5.1259e-002
20839	15.875	0.45455	0.	8.1618e-002
20840	15.875	0.54545	5.e-002	3.7936
20841	16.152	0.54545	0.	3.7001e-002
20842	16.06	0.45455	0.	5.3634e-002
20843	16.06	0.54545	5.e-002	3.9715
20844	16.337	0.54545	0.	2.8191e-002
20845	16.244	0.45455	0.	3.9933e-002
20846	16.244	0.54545	5.e-002	4.1073
20847	16.521	0.54545	0.	2.2258e-002
20848	16.429	0.45455	0.	3.1818e-002
20849	16.429	0.54545	5.e-002	4.2091
20850	16.706	0.54545	0.	1.7993e-002
20851	16.614	0.45455	0.	2.6326e-002
20852	16.614	0.54545	5.e-002	4.2837
20853	16.891	0.54545	0.	1.4801e-002
20854	16.798	0.45455	0.	2.2224e-002
20855	16.798	0.54545	5.e-002	4.3365
20856	17.075	0.54545	0.	1.2383e-002
20857	16.983	0.45455	0.	1.8989e-002
20858	16.983	0.54545	5.e-002	4.3723
20859	17.26	0.54545	0.	1.0636e-002
20860	17.168	0.45455	0.	1.6547e-002
20861	17.168	0.54545	5.e-002	4.3946
20862	17.445	0.54545	0.	1.0088e-002
20863	17.352	0.45455	0.	0.49352
20864	17.352	0.54545	5.e-002	4.4064
20865	17.629	0.54545	0.	0.17068
20866	17.537	0.45455	0.	1.6783
20867	17.537	0.54545	5.e-002	4.4101
20868	17.814	0.54545	0.	1.5905
20869	17.722	0.45455	0.	2.9233
20870	17.722	0.54545	5.e-002	4.4077
20871	17.999	0.54545	0.	3.0611
20872	17.906	0.45455	0.	4.2101
20873	17.906	0.54545	5.e-002	4.4005
20874	18.183	0.54545	0.	4.5543
20875	18.091	0.45455	0.	5.5246
20876	18.091	0.54545	5.e-002	4.3898
20877	18.368	0.54545	0.	6.0595
20878	18.276	0.45455	0.	6.8562
20879	18.276	0.54545	5.e-002	4.3766
20880	18.553	0.54545	0.	7.5696
20881	18.46	0.45455	0.	8.1966
20882	18.46	0.54545	5.e-002	4.3615
20883	18.737	0.54545	0.	9.0796
20884	18.645	0.45455	0.	9.5401
20885	18.645	0.54545	5.e-002	4.3452
20886	18.922	0.54545	0.	10.587
20887	18.83	0.45455	0.	10.883
20888	18.83	0.54545	5.e-002	4.3281
20889	19.107	0.54545	0.	12.089
20890	19.014	0.45455	0.	12.222
20891	19.014	0.54545	5.e-002	4.3106
20892	19.291	0.54545	0.	13.587
20893	19.199	0.45455	0.	13.557
20894	19.199	0.54545	5.e-002	4.293
20895	19.476	0.54545	0.	15.081
20896	19.384	0.45455	0.	14.887
20897	19.384	0.54545	5.e-002	4.2754
20898	19.661	0.54545	0.	16.574
20899	19.568	0.45455	0.	16.214
20900	19.568	0.54545	5.e-002	4.2581
20901	19.845	0.54545	0.	18.068
20902	19.753	0.45455	0.	17.538
20903	19.753	0.54545	5.e-002	4.2413
20904	20.03	0.54545	0.	19.565
20905	19.938	0.45455	0.	18.861
20906	19.938	0.54545	5.e-002	4.2249
20907	20.215	0.54545	0.	21.07
20908	20.122	0.45455	0.	20.185
20909	20.122	0.54545	5.e-002	4.2091
20910	20.399	0.54545	0.	22.586
20911	20.307	0.45455	0.	21.514
20912	20.307	0.54545	5.e-002	4.1941
20913	20.584	0.54545	0.	24.119
20914	20.492	0.45455	0.	22.85
20915	20.492	0.54545	5.e-002	4.1798
20916	20.769	0.54545	0.	25.672
20917	20.676	0.45455	0.	24.196
20918	20.676	0.54545	5.e-002	4.1663
20919	20.953	0.54545	0.	27.252
20920	20.861	0.45455	0.	25.555
20921	20.861	0.54545	5.e-002	4.1537
20922	21.138	0.54545	0.	28.865
20923	21.046	0.45455	0.	26.932
20924	21.046	0.54545	5.e-002	4.142
20925	21.322	0.54545	0.	30.517
20926	21.23	0.45455	0.	28.33
20927	21.23	0.54545	5.e-002	4.1313
20928	21.507	0.54545	0.	32.219
20929	21.415	0.45455	0.	29.755
20930	21.415	0.54545	5.e-002	4.1216
20931	21.692	0.54545	0.	33.979
20932	21.599	0.45455	0.	31.213
20933	21.599	0.54545	5.e-002	4.113
20934	21.876	0.54545	0.	35.811
20935	21.784	0.45455	0.	32.71
20936	21.784	0.54545	5.e-002	4.1057
20937	22.061	0.54545	0.	37.732
20938	21.969	0.45455	0.	34.257
20939	21.969	0.54545	5.e-002	4.0996
20940	22.246	0.54545	0.	39.765
20941	22.153	0.45455	0.	35.865
20942	22.153	0.54545	5.e-002	4.095
20943	22.43	0.54545	0.	41.942
20944	22.338	0.45455	0.	37.553
20945	22.338	0.54545	5.e-002	4.0921
20946	22.615	0.54545	0.	44.31
20947	22.523	0.45455	0.	39.347
20948	22.523	0.54545	5.e-002	4.0914
20949	22.8	0.54545	0.	46.938
20950	22.707	0.45455	0.	41.287
20951	22.707	0.54545	5.e-002	4.0935
20952	22.984	0.54545	0.	49.934
20953	22.892	0.45455	0.	43.434
20954	22.892	0.54545	5.e-002	4.0998
20955	23.169	0.54545	0.	53.47
20956	23.077	0.45455	0.	45.891
20957	23.077	0.54545	5.e-002	4.1126
20958	23.354	0.54545	0.	57.815
20959	23.261	0.45455	0.	48.838
20960	23.261	0.54545	5.e-002	4.1371
20961	23.538	0.54545	0.	63.421
20962	23.446	0.45455	0.	52.583
20963	23.446	0.54545	5.e-002	4.1837
20964	23.723	0.54545	0.	70.866
20965	23.631	0.45455	0.	57.768
20966	23.631	0.54545	5.e-002	4.2787
20967	23.815	0.45455	0.	65.335
20968	23.815	0.54545	5.e-002	4.5654
20969	23.908	0.54545	0.	78.811
20970	12.644	0.36364	0.	103.94
20971	12.551	0.27273	0.	110.43
20972	12.551	0.36364	5.e-002	34.755
20973	12.459	0.36364	0.	105.97
20974	12.828	0.36364	0.	69.214
20975	12.736	0.27273	0.	66.063
20976	12.736	0.36364	5.e-002	28.903
20977	13.013	0.36364	0.	65.503
20978	12.921	0.27273	0.	61.906
20979	12.921	0.36364	5.e-002	25.883
20980	13.198	0.36364	0.	65.458
20981	13.105	0.27273	0.	62.304
20982	13.105	0.36364	5.e-002	22.284
20983	13.382	0.36364	0.	63.593
20984	13.29	0.27273	0.	60.825
20985	13.29	0.36364	5.e-002	18.565
20986	13.567	0.36364	0.	59.314
20987	13.475	0.27273	0.	57.042
20988	13.475	0.36364	5.e-002	14.985
20989	13.752	0.36364	0.	53.215
20990	13.659	0.27273	0.	51.536
20991	13.659	0.36364	5.e-002	11.712
20992	13.936	0.36364	0.	46.123
20993	13.844	0.27273	0.	45.107
20994	13.844	0.36364	5.e-002	8.8328
20995	14.121	0.36364	0.	38.753
20996	14.029	0.27273	0.	38.425
20997	14.029	0.36364	5.e-002	6.3695
20998	14.306	0.36364	0.	31.626
20999	14.213	0.27273	0.	31.966
21000	14.213	0.36364	5.e-002	4.3114
21001	14.49	0.36364	0.	25.074
21002	14.398	0.27273	0.	26.034
21003	14.398	0.36364	5.e-002	2.6363
21004	14.675	0.36364	0.	19.282
21005	14.583	0.27273	0.	20.788
21006	14.583	0.36364	5.e-002	1.3599
21007	14.86	0.36364	0.	14.325
21008	14.767	0.27273	0.	16.294
21009	14.767	0.36364	5.e-002	0.79726
21010	15.044	0.36364	0.	10.208
21011	14.952	0.27273	0.	12.554
21012	14.952	0.36364	5.e-002	1.2476
21013	15.229	0.36364	0.	6.8932
21014	15.137	0.27273	0.	9.5278
21015	15.137	0.36364	5.e-002	1.872
21016	15.413	0.36364	0.	4.3166
21017	15.321	0.27273	0.	7.1572
21018	15.321	0.36364	5.e-002	2.4111
21019	15.598	0.36364	0.	2.4068
21020	15.506	0.27273	0.	5.372
21021	15.506	0.36364	5.e-002	2.8472
21022	15.783	0.36364	0.	1.1034
21023	15.69	0.27273	0.	4.0994
21024	15.69	0.36364	5.e-002	3.1921
21025	15.967	0.36364	0.	0.39508
21026	15.875	0.27273	0.	3.2675
21027	15.875	0.36364	5.e-002	3.461
21028	16.152	0.36364	0.	0.17153
21029	16.06	0.27273	0.	2.8086
21030	16.06	0.36364	5.e-002	3.668
21031	16.337	0.36364	0.	0.11608
21032	16.244	0.27273	0.	2.6618
21033	16.244	0.36364	5.e-002	3.8253
21034	16.521	0.36364	0.	0.11545
21035	16.429	0.27273	0.	2.7749
21036	16.429	0.36364	5.e-002	3.9427
21037	16.706	0.36364	0.	0.26349
21038	16.614	0.27273	0.	3.1033
21039	16.614	0.36364	5.e-002	4.0287
21040	16.891	0.36364	0.	0.81045
21041	16.798	0.27273	0.	3.6078
21042	16.798	0.36364	5.e-002	4.0897
21043	17.075	0.36364	0.	1.5701
21044	16.983	0.27273	0.	4.2541
21045	16.983	0.36364	5.e-002	4.1313
21046	17.26	0.36364	0.	2.4561
21047	17.168	0.27273	0.	5.0124
21048	17.168	0.36364	5.e-002	4.1577
21049	17.445	0.36364	0.	3.4343
21050	17.352	0.27273	0.	5.8575
21051	17.352	0.36364	5.e-002	4.1723
21052	17.629	0.36364	0.	4.4807
21053	17.537	0.27273	0.	6.7687
21054	17.537	0.36364	5.e-002	4.1779
21055	17.814	0.36364	0.	5.5766
21056	17.722	0.27273	0.	7.7288
21057	17.722	0.36364	5.e-002	4.1767
21058	17.999	0.36364	0.	6.7071
21059	17.906	0.27273	0.	8.724
21060	17.906	0.36364	5.e-002	4.1704
21061	18.183	0.36364	0.	7.8606
21062	18.091	0.27273	0.	9.7432
21063	18.091	0.36364	5.e-002	4.1604
21064	18.368	0.36364	0.	9.0282
21065	18.276	0.27273	0.	10.778
21066	18.276	0.36364	5.e-002	4.1476
21067	18.553	0.36364	0.	10.203
21068	18.46	0.27273	0.	11.821
21069	18.46	0.36364	5.e-002	4.1331
21070	18.737	0.36364	0.	11.38
21071	18.645	0.27273	0.	12.868
21072	18.645	0.36364	5.e-002	4.1173
21073	18.922	0.36364	0.	12.557
21074	18.83	0.27273	0.	13.914
21075	18.83	0.36364	5.e-002	4.1009
21076	19.107	0.36364	0.	13.73
21077	19.014	0.27273	0.	14.957
21078	19.014	0.36364	5.e-002	4.0843
21079	19.291	0.36364	0.	14.899
21080	19.199	0.27273	0.	15.995
21081	19.199	0.36364	5.e-002	4.0677
21082	19.476	0.36364	0.	16.063
21083	19.384	0.27273	0.	17.027
21084	19.384	0.36364	5.e-002	4.0514
21085	19.661	0.36364	0.	17.223
21086	19.568	0.27273	0.	18.052
21087	19.568	0.36364	5.e-002	4.0356
21088	19.845	0.36364	0.	18.379
21089	19.753	0.27273	0.	19.07
21090	19.753	0.36364	5.e-002	4.0205
21091	20.03	0.36364	0.	19.532
21092	19.938	0.27273	0.	20.081
21093	19.938	0.36364	5.e-002	4.0063
21094	20.215	0.36364	0.	20.683
21095	20.122	0.27273	0.	21.085
21096	20.122	0.36364	5.e-002	3.9929
21097	20.399	0.36364	0.	21.834
21098	20.307	0.27273	0.	22.081
21099	20.307	0.36364	5.e-002	3.9805
21100	20.584	0.36364	0.	22.987
21101	20.492	0.27273	0.	23.07
21102	20.492	0.36364	5.e-002	3.9692
21103	20.769	0.36364	0.	24.142
21104	20.676	0.27273	0.	24.053
21105	20.676	0.36364	5.e-002	3.959
21106	20.953	0.36364	0.	25.302
21107	20.861	0.27273	0.	25.028
21108	20.861	0.36364	5.e-002	3.95
21109	21.138	0.36364	0.	26.47
21110	21.046	0.27273	0.	25.996
21111	21.046	0.36364	5.e-002	3.9423
21112	21.322	0.36364	0.	27.646
21113	21.23	0.27273	0.	26.956
21114	21.23	0.36364	5.e-002	3.9359
21115	21.507	0.36364	0.	28.833
21116	21.415	0.27273	0.	27.908
21117	21.415	0.36364	5.e-002	3.931
21118	21.692	0.36364	0.	30.035
21119	21.599	0.27273	0.	28.85
21120	21.599	0.36364	5.e-002	3.9274
21121	21.876	0.36364	0.	31.255
21122	21.784	0.27273	0.	29.782
21123	21.784	0.36364	5.e-002	3.9254
21124	22.061	0.36364	0.	32.499
21125	21.969	0.27273	0.	30.702
21126	21.969	0.36364	5.e-002	3.925
21127	22.246	0.36364	0.	33.775
21128	22.153	0.27273	0.	31.609
21129	22.153	0.36364	5.e-002	3.9263
21130	22.43	0.36364	0.	35.094
21131	22.338	0.27273	0.	32.503
21132	22.338	0.36364	5.e-002	3.9296
21133	22.615	0.36364	0.	36.475
21134	22.523	0.27273	0.	33.385
21135	22.523	0.36364	5.e-002	3.935
21136	22.8	0.36364	0.	37.952
21137	22.707	0.27273	0.	34.258
21138	22.707	0.36364	5.e-002	3.9431
21139	22.984	0.36364	0.	39.581
21140	22.892	0.27273	0.	35.134
21141	22.892	0.36364	5.e-002	3.9547
21142	23.169	0.36364	0.	41.468
21143	23.077	0.27273	0.	36.037
21144	23.077	0.36364	5.e-002	3.9714
21145	23.354	0.36364	0.	43.823
21146	23.261	0.27273	0.	37.031
21147	23.261	0.36364	5.e-002	3.9967
21148	23.538	0.36364	0.	47.125
21149	23.446	0.27273	0.	38.256
21150	23.446	0.36364	5.e-002	4.0409
21151	23.723	0.36364	0.	52.377
21152	23.631	0.27273	0.	40.154
21153	23.631	0.36364	5.e-002	4.1437
21154	23.815	0.27273	0.	44.101
21155	23.815	0.36364	5.e-002	4.5086
21156	23.908	0.36364	0.	58.775
21157	12.644	0.18182	0.	59.786
21158	12.551	0.18182	5.e-002	38.366
21159	12.551	9.0909e-002	0.	28.764
21160	12.459	0.18182	0.	33.191
21161	12.828	0.18182	0.	55.018
21162	12.736	0.18182	5.e-002	33.668
21163	12.736	9.0909e-002	0.	24.03
21164	13.013	0.18182	0.	56.876
21165	12.921	0.18182	5.e-002	30.82
21166	12.921	9.0909e-002	0.	28.35
21167	13.198	0.18182	0.	56.497
21168	13.105	0.18182	5.e-002	27.472
21169	13.105	9.0909e-002	0.	30.826
21170	13.382	0.18182	0.	53.457
21171	13.29	0.18182	5.e-002	23.821
21172	13.29	9.0909e-002	0.	30.696
21173	13.567	0.18182	0.	48.695
21174	13.475	0.18182	5.e-002	20.138
21175	13.475	9.0909e-002	0.	28.905
21176	13.752	0.18182	0.	43.048
21177	13.659	0.18182	5.e-002	16.637
21178	13.659	9.0909e-002	0.	26.157
21179	13.936	0.18182	0.	37.168
21180	13.844	0.18182	5.e-002	13.457
21181	13.844	9.0909e-002	0.	22.999
21182	14.121	0.18182	0.	31.499
21183	14.029	0.18182	5.e-002	10.666
21184	14.029	9.0909e-002	0.	19.795
21185	14.306	0.18182	0.	26.307
21186	14.213	0.18182	5.e-002	8.2802
21187	14.213	9.0909e-002	0.	16.774
21188	14.49	0.18182	0.	21.729
21189	14.398	0.18182	5.e-002	6.284
21190	14.398	9.0909e-002	0.	14.06
21191	14.675	0.18182	0.	17.817
21192	14.583	0.18182	5.e-002	4.6426
21193	14.583	9.0909e-002	0.	11.71
21194	14.86	0.18182	0.	14.563
21195	14.767	0.18182	5.e-002	3.3135
21196	14.767	9.0909e-002	0.	9.7375
21197	15.044	0.18182	0.	11.929
21198	14.952	0.18182	5.e-002	2.2531
21199	14.952	9.0909e-002	0.	8.1295
21200	15.229	0.18182	0.	9.8608
21201	15.137	0.18182	5.e-002	1.4217
21202	15.137	9.0909e-002	0.	6.8592
21203	15.413	0.18182	0.	8.2958
21204	15.321	0.18182	5.e-002	0.78918
21205	15.321	9.0909e-002	0.	5.8931
21206	15.598	0.18182	0.	7.1708
21207	15.506	0.18182	5.e-002	0.36536
21208	15.506	9.0909e-002	0.	5.1956
21209	15.783	0.18182	0.	6.4249
21210	15.69	0.18182	5.e-002	0.31734
21211	15.69	9.0909e-002	0.	4.7311
21212	15.967	0.18182	0.	6.0017
21213	15.875	0.18182	5.e-002	0.51268
21214	15.875	9.0909e-002	0.	4.466
21215	16.152	0.18182	0.	5.8503
21216	16.06	0.18182	5.e-002	0.69102
21217	16.06	9.0909e-002	0.	4.3692
21218	16.337	0.18182	0.	5.9259
21219	16.244	0.18182	5.e-002	0.8211
21220	16.244	9.0909e-002	0.	4.413
21221	16.521	0.18182	0.	6.1893
21222	16.429	0.18182	5.e-002	0.90771
21223	16.429	9.0909e-002	0.	4.5731
21224	16.706	0.18182	0.	6.6069
21225	16.614	0.18182	5.e-002	0.95932
21226	16.614	9.0909e-002	0.	4.8288
21227	16.891	0.18182	0.	7.1494
21228	16.798	0.18182	5.e-002	0.98381
21229	16.798	9.0909e-002	0.	5.1623
21230	17.075	0.18182	0.	7.792
21231	16.983	0.18182	5.e-002	0.98796
21232	16.983	9.0909e-002	0.	5.5586
21233	17.26	0.18182	0.	8.5137
21234	17.168	0.18182	5.e-002	0.97737
21235	17.168	9.0909e-002	0.	6.0049
21236	17.445	0.18182	0.	9.2967
21237	17.352	0.18182	5.e-002	0.95655
21238	17.352	9.0909e-002	0.	6.4906
21239	17.629	0.18182	0.	10.126
21240	17.537	0.18182	5.e-002	0.92915
21241	17.537	9.0909e-002	0.	7.0066
21242	17.814	0.18182	0.	10.99
21243	17.722	0.18182	5.e-002	0.89811
21244	17.722	9.0909e-002	0.	7.5456
21245	17.999	0.18182	0.	11.878
21246	17.906	0.18182	5.e-002	0.86577
21247	17.906	9.0909e-002	0.	8.1013
21248	18.183	0.18182	0.	12.783
21249	18.091	0.18182	5.e-002	0.83403
21250	18.091	9.0909e-002	0.	8.6689
21251	18.368	0.18182	0.	13.697
21252	18.276	0.18182	5.e-002	0.80442
21253	18.276	9.0909e-002	0.	9.2442
21254	18.553	0.18182	0.	14.616
21255	18.46	0.18182	5.e-002	0.77818
21256	18.46	9.0909e-002	0.	9.8242
21257	18.737	0.18182	0.	15.536
21258	18.645	0.18182	5.e-002	0.75631
21259	18.645	9.0909e-002	0.	10.406
21260	18.922	0.18182	0.	16.454
21261	18.83	0.18182	5.e-002	0.73961
21262	18.83	9.0909e-002	0.	10.988
21263	19.107	0.18182	0.	17.367
21264	19.014	0.18182	5.e-002	0.72869
21265	19.014	9.0909e-002	0.	11.569
21266	19.291	0.18182	0.	18.273
21267	19.199	0.18182	5.e-002	0.72403
21268	19.199	9.0909e-002	0.	12.147
21269	19.476	0.18182	0.	19.171
21270	19.384	0.18182	5.e-002	0.72596
21271	19.384	9.0909e-002	0.	12.722
21272	19.661	0.18182	0.	20.059
21273	19.568	0.18182	5.e-002	0.73474
21274	19.568	9.0909e-002	0.	13.292
21275	19.845	0.18182	0.	20.938
21276	19.753	0.18182	5.e-002	0.75046
21277	19.753	9.0909e-002	0.	13.858
21278	20.03	0.18182	0.	21.804
21279	19.938	0.18182	5.e-002	0.77325
21280	19.938	9.0909e-002	0.	14.418
21281	20.215	0.18182	0.	22.659
21282	20.122	0.18182	5.e-002	0.8031
21283	20.122	9.0909e-002	0.	14.972
21284	20.399	0.18182	0.	23.5
21285	20.307	0.18182	5.e-002	0.84005
21286	20.307	9.0909e-002	0.	15.52
21287	20.584	0.18182	0.	24.326
21288	20.492	0.18182	5.e-002	0.88419
21289	20.492	9.0909e-002	0.	16.06
21290	20.769	0.18182	0.	25.136
21291	20.676	0.18182	5.e-002	0.9356
21292	20.676	9.0909e-002	0.	16.593
21293	20.953	0.18182	0.	25.927
21294	20.861	0.18182	5.e-002	0.99447
21295	20.861	9.0909e-002	0.	17.116
21296	21.138	0.18182	0.	26.697
21297	21.046	0.18182	5.e-002	1.061
21298	21.046	9.0909e-002	0.	17.629
21299	21.322	0.18182	0.	27.442
21300	21.23	0.18182	5.e-002	1.1355
21301	21.23	9.0909e-002	0.	18.13
21302	21.507	0.18182	0.	28.16
21303	21.415	0.18182	5.e-002	1.2184
21304	21.415	9.0909e-002	0.	18.617
21305	21.692	0.18182	0.	28.845
21306	21.599	0.18182	5.e-002	1.3101
21307	21.599	9.0909e-002	0.	19.088
21308	21.876	0.18182	0.	29.491
21309	21.784	0.18182	5.e-002	1.4112
21310	21.784	9.0909e-002	0.	19.538
21311	22.061	0.18182	0.	30.091
21312	21.969	0.18182	5.e-002	1.5225
21313	21.969	9.0909e-002	0.	19.965
21314	22.246	0.18182	0.	30.638
21315	22.153	0.18182	5.e-002	1.6446
21316	22.153	9.0909e-002	0.	20.364
21317	22.43	0.18182	0.	31.12
21318	22.338	0.18182	5.e-002	1.7788
21319	22.338	9.0909e-002	0.	20.728
21320	22.615	0.18182	0.	31.525
21321	22.523	0.18182	5.e-002	1.9262
21322	22.523	9.0909e-002	0.	21.05
21323	22.8	0.18182	0.	31.837
21324	22.707	0.18182	5.e-002	2.0885
21325	22.707	9.0909e-002	0.	21.319
21326	22.984	0.18182	0.	32.039
21327	22.892	0.18182	5.e-002	2.268
21328	22.892	9.0909e-002	0.	21.523
21329	23.169	0.18182	0.	32.115
21330	23.077	0.18182	5.e-002	2.4678
21331	23.077	9.0909e-002	0.	21.641
21332	23.354	0.18182	0.	32.063
21333	23.261	0.18182	5.e-002	2.6934
21334	23.261	9.0909e-002	0.	21.651
21335	23.538	0.18182	0.	31.961
21336	23.446	0.18182	5.e-002	2.9519
21337	23.446	9.0909e-002	0.	21.505
21338	23.723	0.18182	0.	32.505
21339	23.631	0.18182	5.e-002	3.2769
21340	23.631	9.0909e-002	0.	21.241
21341	23.815	0.18182	5.e-002	3.9676
21342	23.815	9.0909e-002	0.	20.753
21343	23.908	0.18182	0.	34.007
21344	23.723	0.18182	0.1	55.081
21345	23.815	0.27273	0.1	37.367
21346	23.908	0.18182	0.1	20.623
21347	23.815	9.0909e-002	0.1	34.714
21348	23.538	0.18182	0.1	92.017
21349	23.631	0.27273	0.1	72.754
21350	23.631	9.0909e-002	0.1	69.56
21351	23.354	0.18182	0.1	130.28
21352	23.446	0.27273	0.1	110.17
21353	23.446	9.0909e-002	0.1	106.41
21354	23.169	0.18182	0.1	169.06
21355	23.261	0.27273	0.1	148.42
21356	23.261	9.0909e-002	0.1	144.17
21357	22.984	0.18182	0.1	208.16
21358	23.077	0.27273	0.1	187.15
21359	23.077	9.0909e-002	0.1	182.51
21360	22.8	0.18182	0.1	247.49
21361	22.892	0.27273	0.1	226.22
21362	22.892	9.0909e-002	0.1	221.27
21363	22.615	0.18182	0.1	287.02
21364	22.707	0.27273	0.1	265.53
21365	22.707	9.0909e-002	0.1	260.36
21366	22.43	0.18182	0.1	326.7
21367	22.523	0.27273	0.1	305.04
21368	22.523	9.0909e-002	0.1	299.72
21369	22.246	0.18182	0.1	366.52
21370	22.338	0.27273	0.1	344.72
21371	22.338	9.0909e-002	0.1	339.3
21372	22.061	0.18182	0.1	406.48
21373	22.153	0.27273	0.1	384.55
21374	22.153	9.0909e-002	0.1	379.08
21375	21.876	0.18182	0.1	446.56
21376	21.969	0.27273	0.1	424.53
21377	21.969	9.0909e-002	0.1	419.04
21378	21.692	0.18182	0.1	486.77
21379	21.784	0.27273	0.1	464.64
21380	21.784	9.0909e-002	0.1	459.18
21381	21.507	0.18182	0.1	527.12
21382	21.599	0.27273	0.1	504.88
21383	21.599	9.0909e-002	0.1	499.48
21384	21.322	0.18182	0.1	567.59
21385	21.415	0.27273	0.1	545.26
21386	21.415	9.0909e-002	0.1	539.93
21387	21.138	0.18182	0.1	608.19
21388	21.23	0.27273	0.1	585.78
21389	21.23	9.0909e-002	0.1	580.55
21390	20.953	0.18182	0.1	648.93
21391	21.046	0.27273	0.1	626.44
21392	21.046	9.0909e-002	0.1	621.32
21393	20.769	0.18182	0.1	689.81
21394	20.861	0.27273	0.1	667.24
21395	20.861	9.0909e-002	0.1	662.25
21396	20.584	0.18182	0.1	730.84
21397	20.676	0.27273	0.1	708.19
21398	20.676	9.0909e-002	0.1	703.35
21399	20.399	0.18182	0.1	772.02
21400	20.492	0.27273	0.1	749.29
21401	20.492	9.0909e-002	0.1	744.6
21402	20.215	0.18182	0.1	813.35
21403	20.307	0.27273	0.1	790.54
21404	20.307	9.0909e-002	0.1	786.02
21405	20.03	0.18182	0.1	854.85
21406	20.122	0.27273	0.1	831.95
21407	20.122	9.0909e-002	0.1	827.61
21408	19.845	0.18182	0.1	896.5
21409	19.938	0.27273	0.1	873.53
21410	19.938	9.0909e-002	0.1	869.37
21411	19.661	0.18182	0.1	938.32
21412	19.753	0.27273	0.1	915.27
21413	19.753	9.0909e-002	0.1	911.3
21414	19.476	0.18182	0.1	980.31
21415	19.568	0.27273	0.1	957.18
21416	19.568	9.0909e-002	0.1	953.41
21417	19.291	0.18182	0.1	1022.5
21418	19.384	0.27273	0.1	999.25
21419	19.384	9.0909e-002	0.1	995.69
21420	19.107	0.18182	0.1	1064.8
21421	19.199	0.27273	0.1	1041.5
21422	19.199	9.0909e-002	0.1	1038.2
21423	18.922	0.18182	0.1	1107.3
21424	19.014	0.27273	0.1	1083.9
21425	19.014	9.0909e-002	0.1	1080.8
21426	18.737	0.18182	0.1	1149.9
21427	18.83	0.27273	0.1	1126.5
21428	18.83	9.0909e-002	0.1	1123.6
21429	18.553	0.18182	0.1	1192.7
21430	18.645	0.27273	0.1	1169.2
21431	18.645	9.0909e-002	0.1	1166.5
21432	18.368	0.18182	0.1	1235.7
21433	18.46	0.27273	0.1	1212.1
21434	18.46	9.0909e-002	0.1	1209.7
21435	18.183	0.18182	0.1	1278.8
21436	18.276	0.27273	0.1	1255.2
21437	18.276	9.0909e-002	0.1	1252.9
21438	17.999	0.18182	0.1	1321.9
21439	18.091	0.27273	0.1	1298.3
21440	18.091	9.0909e-002	0.1	1296.3
21441	17.814	0.18182	0.1	1365.2
21442	17.906	0.27273	0.1	1341.6
21443	17.906	9.0909e-002	0.1	1339.7
21444	17.629	0.18182	0.1	1408.5
21445	17.722	0.27273	0.1	1384.9
21446	17.722	9.0909e-002	0.1	1383.2
21447	17.445	0.18182	0.1	1451.7
21448	17.537	0.27273	0.1	1428.2
21449	17.537	9.0909e-002	0.1	1426.7
21450	17.26	0.18182	0.1	1494.9
21451	17.352	0.27273	0.1	1471.5
21452	17.352	9.0909e-002	0.1	1470.2
21453	17.075	0.18182	0.1	1537.9
21454	17.168	0.27273	0.1	1514.7
21455	17.168	9.0909e-002	0.1	1513.5
21456	16.891	0.18182	0.1	1580.6
21457	16.983	0.27273	0.1	1557.7
21458	16.983	9.0909e-002	0.1	1556.5
21459	16.706	0.18182	0.1	1622.9
21460	16.798	0.27273	0.1	1600.3
21461	16.798	9.0909e-002	0.1	1599.2
21462	16.521	0.18182	0.1	1664.5
21463	16.614	0.27273	0.1	1642.4
21464	16.614	9.0909e-002	0.1	1641.3
21465	16.337	0.18182	0.1	1705.2
21466	16.429	0.27273	0.1	1683.8
21467	16.429	9.0909e-002	0.1	1682.6
21468	16.152	0.18182	0.1	1744.8
21469	16.244	0.27273	0.1	1724.3
21470	16.244	9.0909e-002	0.1	1722.8
21471	15.967	0.18182	0.1	1782.7
21472	16.06	0.27273	0.1	1763.4
21473	16.06	9.0909e-002	0.1	1761.6
21474	15.783	0.18182	0.1	1818.5
21475	15.875	0.27273	0.1	1800.8
21476	15.875	9.0909e-002	0.1	1798.6
21477	15.598	0.18182	0.1	1851.7
21478	15.69	0.27273	0.1	1836.
21479	15.69	9.0909e-002	0.1	1833.
21480	15.413	0.18182	0.1	1881.3
21481	15.506	0.27273	0.1	1868.1
21482	15.506	9.0909e-002	0.1	1864.3
21483	15.229	0.18182	0.1	1906.4
21484	15.321	0.27273	0.1	1896.5
21485	15.321	9.0909e-002	0.1	1891.5
21486	15.044	0.18182	0.1	1925.8
21487	15.137	0.27273	0.1	1920.
21488	15.137	9.0909e-002	0.1	1913.5
21489	14.86	0.18182	0.1	1938.1
21490	14.952	0.27273	0.1	1937.3
21491	14.952	9.0909e-002	0.1	1928.9
21492	14.675	0.18182	0.1	1941.3
21493	14.767	0.27273	0.1	1946.9
21494	14.767	9.0909e-002	0.1	1936.1
21495	14.49	0.18182	0.1	1933.4
21496	14.583	0.27273	0.1	1946.7
21497	14.583	9.0909e-002	0.1	1933.
21498	14.306	0.18182	0.1	1911.7
21499	14.398	0.27273	0.1	1934.5
21500	14.398	9.0909e-002	0.1	1917.2
21501	14.121	0.18182	0.1	1873.2
21502	14.213	0.27273	0.1	1907.4
21503	14.213	9.0909e-002	0.1	1885.9
21504	13.936	0.18182	0.1	1814.6
21505	14.029	0.27273	0.1	1862.3
21506	14.029	9.0909e-002	0.1	1835.7
21507	13.752	0.18182	0.1	1732.1
21508	13.844	0.27273	0.1	1795.5
21509	13.844	9.0909e-002	0.1	1763.
21510	13.567	0.18182	0.1	1622.
21511	13.659	0.27273	0.1	1703.2
21512	13.659	9.0909e-002	0.1	1663.9
21513	13.382	0.18182	0.1	1480.8
21514	13.475	0.27273	0.1	1581.7
21515	13.475	9.0909e-002	0.1	1534.7
21516	13.198	0.18182	0.1	1306.
21517	13.29	0.27273	0.1	1427.8
21518	13.29	9.0909e-002	0.1	1372.2
21519	13.013	0.18182	0.1	1096.4
21520	13.105	0.27273	0.1	1239.9
21521	13.105	9.0909e-002	0.1	1174.3
21522	12.828	0.18182	0.1	853.59
21523	12.921	0.27273	0.1	1019.7
21524	12.921	9.0909e-002	0.1	940.78
21525	12.644	0.18182	0.1	590.57
21526	12.736	0.27273	0.1	776.38
21527	12.736	9.0909e-002	0.1	673.37
21528	12.551	0.27273	0.1	558.44
21529	12.459	0.18182	0.1	335.95
21530	12.551	9.0909e-002	0.1	383.69
21531	23.723	0.36364	0.1	55.63
21532	23.815	0.45455	0.1	38.501
21533	23.908	0.36364	0.1	21.538
21534	23.538	0.36364	0.1	91.588
21535	23.631	0.45455	0.1	73.839
21536	23.354	0.36364	0.1	128.92
21537	23.446	0.45455	0.1	110.59
21538	23.169	0.36364	0.1	167.04
21539	23.261	0.45455	0.1	148.23
21540	22.984	0.36364	0.1	205.68
21541	23.077	0.45455	0.1	186.48
21542	22.8	0.36364	0.1	244.67
21543	22.892	0.45455	0.1	225.17
21544	22.615	0.36364	0.1	283.93
21545	22.707	0.45455	0.1	264.19
21546	22.43	0.36364	0.1	323.4
21547	22.523	0.45455	0.1	303.46
21548	22.246	0.36364	0.1	363.06
21549	22.338	0.45455	0.1	342.94
21550	22.061	0.36364	0.1	402.89
21551	22.153	0.45455	0.1	382.61
21552	21.876	0.36364	0.1	442.87
21553	21.969	0.45455	0.1	422.45
21554	21.692	0.36364	0.1	483.
21555	21.784	0.45455	0.1	462.45
21556	21.507	0.36364	0.1	523.27
21557	21.599	0.45455	0.1	502.59
21558	21.322	0.36364	0.1	563.69
21559	21.415	0.45455	0.1	542.89
21560	21.138	0.36364	0.1	604.25
21561	21.23	0.45455	0.1	583.33
21562	20.953	0.36364	0.1	644.96
21563	21.046	0.45455	0.1	623.92
21564	20.769	0.36364	0.1	685.82
21565	20.861	0.45455	0.1	664.67
21566	20.584	0.36364	0.1	726.83
21567	20.676	0.45455	0.1	705.56
21568	20.399	0.36364	0.1	767.99
21569	20.492	0.45455	0.1	746.61
21570	20.215	0.36364	0.1	809.32
21571	20.307	0.45455	0.1	787.82
21572	20.03	0.36364	0.1	850.81
21573	20.122	0.45455	0.1	829.2
21574	19.845	0.36364	0.1	892.46
21575	19.938	0.45455	0.1	870.74
21576	19.661	0.36364	0.1	934.28
21577	19.753	0.45455	0.1	912.45
21578	19.476	0.36364	0.1	976.28
21579	19.568	0.45455	0.1	954.32
21580	19.291	0.36364	0.1	1018.4
21581	19.384	0.45455	0.1	996.37
21582	19.107	0.36364	0.1	1060.8
21583	19.199	0.45455	0.1	1038.6
21584	18.922	0.36364	0.1	1103.3
21585	19.014	0.45455	0.1	1081.
21586	18.737	0.36364	0.1	1145.9
21587	18.83	0.45455	0.1	1123.5
21588	18.553	0.36364	0.1	1188.8
21589	18.645	0.45455	0.1	1166.3
21590	18.368	0.36364	0.1	1231.7
21591	18.46	0.45455	0.1	1209.2
21592	18.183	0.36364	0.1	1274.8
21593	18.276	0.45455	0.1	1252.2
21594	17.999	0.36364	0.1	1318.1
21595	18.091	0.45455	0.1	1295.3
21596	17.814	0.36364	0.1	1361.4
21597	17.906	0.45455	0.1	1338.6
21598	17.629	0.36364	0.1	1404.7
21599	17.722	0.45455	0.1	1381.9
21600	17.445	0.36364	0.1	1448.1
21601	17.537	0.45455	0.1	1425.3
21602	17.26	0.36364	0.1	1491.4
21603	17.352	0.45455	0.1	1468.7
21604	17.075	0.36364	0.1	1534.5
21605	17.168	0.45455	0.1	1512.
21606	16.891	0.36364	0.1	1577.4
21607	16.983	0.45455	0.1	1555.1
21608	16.706	0.36364	0.1	1619.9
21609	16.798	0.45455	0.1	1598.
21610	16.521	0.36364	0.1	1661.8
21611	16.614	0.45455	0.1	1640.4
21612	16.337	0.36364	0.1	1703.
21613	16.429	0.45455	0.1	1682.2
21614	16.152	0.36364	0.1	1743.
21615	16.244	0.45455	0.1	1723.1
21616	15.967	0.36364	0.1	1781.6
21617	16.06	0.45455	0.1	1762.9
21618	15.783	0.36364	0.1	1818.3
21619	15.875	0.45455	0.1	1801.1
21620	15.598	0.36364	0.1	1852.5
21621	15.69	0.45455	0.1	1837.3
21622	15.413	0.36364	0.1	1883.4
21623	15.506	0.45455	0.1	1870.8
21624	15.229	0.36364	0.1	1910.1
21625	15.321	0.45455	0.1	1900.9
21626	15.044	0.36364	0.1	1931.5
21627	15.137	0.45455	0.1	1926.4
21628	14.86	0.36364	0.1	1946.2
21629	14.952	0.45455	0.1	1946.3
21630	14.675	0.36364	0.1	1952.3
21631	14.767	0.45455	0.1	1959.1
21632	14.49	0.36364	0.1	1947.9
21633	14.583	0.45455	0.1	1962.7
21634	14.306	0.36364	0.1	1930.2
21635	14.398	0.45455	0.1	1955.1
21636	14.121	0.36364	0.1	1896.4
21637	14.213	0.45455	0.1	1933.5
21638	13.936	0.36364	0.1	1843.
21639	14.029	0.45455	0.1	1894.8
21640	13.752	0.36364	0.1	1766.3
21641	13.844	0.45455	0.1	1835.5
21642	13.567	0.36364	0.1	1662.4
21643	13.659	0.45455	0.1	1751.6
21644	13.382	0.36364	0.1	1528.
21645	13.475	0.45455	0.1	1639.4
21646	13.198	0.36364	0.1	1360.7
21647	13.29	0.45455	0.1	1496.2
21648	13.013	0.36364	0.1	1161.7
21649	13.105	0.45455	0.1	1321.3
21650	12.828	0.36364	0.1	939.14
21651	12.921	0.45455	0.1	1120.1
21652	12.644	0.36364	0.1	729.43
21653	12.736	0.45455	0.1	910.8
21654	12.551	0.45455	0.1	759.82
21655	12.459	0.36364	0.1	520.36
21656	23.723	0.54545	0.1	56.786
21657	23.815	0.63636	0.1	39.178
21658	23.908	0.54545	0.1	22.038
21659	23.538	0.54545	0.1	93.017
21660	23.631	0.63636	0.1	75.228
21661	23.354	0.54545	0.1	130.11
21662	23.446	0.63636	0.1	112.05
21663	23.169	0.54545	0.1	167.87
21664	23.261	0.63636	0.1	149.46
21665	22.984	0.54545	0.1	206.16
21666	23.077	0.63636	0.1	187.42
21667	22.8	0.54545	0.1	244.86
21668	22.892	0.63636	0.1	225.83
21669	22.615	0.54545	0.1	283.87
21670	22.707	0.63636	0.1	264.58
21671	22.43	0.54545	0.1	323.13
21672	22.523	0.63636	0.1	303.62
21673	22.246	0.54545	0.1	362.61
21674	22.338	0.63636	0.1	342.9
21675	22.061	0.54545	0.1	402.28
21676	22.153	0.63636	0.1	382.39
21677	21.876	0.54545	0.1	442.13
21678	21.969	0.63636	0.1	422.07
21679	21.692	0.54545	0.1	482.13
21680	21.784	0.63636	0.1	461.92
21681	21.507	0.54545	0.1	522.29
21682	21.599	0.63636	0.1	501.94
21683	21.322	0.54545	0.1	562.61
21684	21.415	0.63636	0.1	542.12
21685	21.138	0.54545	0.1	603.08
21686	21.23	0.63636	0.1	582.45
21687	20.953	0.54545	0.1	643.7
21688	21.046	0.63636	0.1	622.94
21689	20.769	0.54545	0.1	684.47
21690	20.861	0.63636	0.1	663.59
21691	20.584	0.54545	0.1	725.41
21692	20.676	0.63636	0.1	704.4
21693	20.399	0.54545	0.1	766.5
21694	20.492	0.63636	0.1	745.36
21695	20.215	0.54545	0.1	807.76
21696	20.307	0.63636	0.1	786.5
21697	20.03	0.54545	0.1	849.18
21698	20.122	0.63636	0.1	827.8
21699	19.845	0.54545	0.1	890.77
21700	19.938	0.63636	0.1	869.26
21701	19.661	0.54545	0.1	932.53
21702	19.753	0.63636	0.1	910.9
21703	19.476	0.54545	0.1	974.46
21704	19.568	0.63636	0.1	952.71
21705	19.291	0.54545	0.1	1016.6
21706	19.384	0.63636	0.1	994.7
21707	19.107	0.54545	0.1	1058.8
21708	19.199	0.63636	0.1	1036.9
21709	18.922	0.54545	0.1	1101.3
21710	19.014	0.63636	0.1	1079.2
21711	18.737	0.54545	0.1	1143.9
21712	18.83	0.63636	0.1	1121.7
21713	18.553	0.54545	0.1	1186.7
21714	18.645	0.63636	0.1	1164.4
21715	18.368	0.54545	0.1	1229.6
21716	18.46	0.63636	0.1	1207.2
21717	18.183	0.54545	0.1	1272.7
21718	18.276	0.63636	0.1	1250.2
21719	17.999	0.54545	0.1	1315.9
21720	18.091	0.63636	0.1	1293.3
21721	17.814	0.54545	0.1	1359.2
21722	17.906	0.63636	0.1	1336.6
21723	17.629	0.54545	0.1	1402.6
21724	17.722	0.63636	0.1	1379.9
21725	17.445	0.54545	0.1	1446.
21726	17.537	0.63636	0.1	1423.3
21727	17.26	0.54545	0.1	1489.3
21728	17.352	0.63636	0.1	1466.8
21729	17.075	0.54545	0.1	1532.6
21730	17.168	0.63636	0.1	1510.2
21731	16.891	0.54545	0.1	1575.7
21732	16.983	0.63636	0.1	1553.5
21733	16.706	0.54545	0.1	1618.4
21734	16.798	0.63636	0.1	1596.5
21735	16.521	0.54545	0.1	1660.7
21736	16.614	0.63636	0.1	1639.3
21737	16.337	0.54545	0.1	1702.3
21738	16.429	0.63636	0.1	1681.5
21739	16.152	0.54545	0.1	1743.
21740	16.244	0.63636	0.1	1723.1
21741	15.967	0.54545	0.1	1782.4
21742	16.06	0.63636	0.1	1763.6
21743	15.783	0.54545	0.1	1820.2
21744	15.875	0.63636	0.1	1802.9
21745	15.598	0.54545	0.1	1855.7
21746	15.69	0.63636	0.1	1840.3
21747	15.413	0.54545	0.1	1888.3
21748	15.506	0.63636	0.1	1875.5
21749	15.229	0.54545	0.1	1917.2
21750	15.321	0.63636	0.1	1907.6
21751	15.044	0.54545	0.1	1941.2
21752	15.137	0.63636	0.1	1935.9
21753	14.86	0.54545	0.1	1959.2
21754	14.952	0.63636	0.1	1959.1
21755	14.675	0.54545	0.1	1969.4
21756	14.767	0.63636	0.1	1976.
21757	14.49	0.54545	0.1	1969.9
21758	14.583	0.63636	0.1	1984.8
21759	14.306	0.54545	0.1	1958.3
21760	14.398	0.63636	0.1	1983.5
21761	14.121	0.54545	0.1	1931.8
21762	14.213	0.63636	0.1	1969.6
21763	13.936	0.54545	0.1	1886.9
21764	14.029	0.63636	0.1	1940.2
21765	13.752	0.54545	0.1	1820.2
21766	13.844	0.63636	0.1	1891.9
21767	13.567	0.54545	0.1	1727.7
21768	13.659	0.63636	0.1	1821.
21769	13.382	0.54545	0.1	1606.4
21770	13.475	0.63636	0.1	1724.1
21771	13.198	0.54545	0.1	1454.6
21772	13.29	0.63636	0.1	1598.6
21773	13.013	0.54545	0.1	1275.6
21774	13.105	0.63636	0.1	1444.8
21775	12.828	0.54545	0.1	1082.4
21776	12.921	0.63636	0.1	1270.1
21777	12.644	0.54545	0.1	918.98
21778	12.736	0.63636	0.1	1094.8
21779	12.551	0.63636	0.1	986.02
21780	12.459	0.54545	0.1	708.58
21781	23.723	0.72727	0.1	57.619
21782	23.815	0.81818	0.1	39.553
21783	23.908	0.72727	0.1	22.316
21784	23.538	0.72727	0.1	94.325
21785	23.631	0.81818	0.1	76.25
21786	23.354	0.72727	0.1	131.5
21787	23.446	0.81818	0.1	113.37
21788	23.169	0.72727	0.1	169.14
21789	23.261	0.81818	0.1	150.81
21790	22.984	0.72727	0.1	207.21
21791	23.077	0.81818	0.1	188.65
21792	22.8	0.72727	0.1	245.66
21793	22.892	0.81818	0.1	226.86
21794	22.615	0.72727	0.1	284.44
21795	22.707	0.81818	0.1	265.4
21796	22.43	0.72727	0.1	323.49
21797	22.523	0.81818	0.1	304.23
21798	22.246	0.72727	0.1	362.77
21799	22.338	0.81818	0.1	343.31
21800	22.061	0.72727	0.1	402.26
21801	22.153	0.81818	0.1	382.62
21802	21.876	0.72727	0.1	441.95
21803	21.969	0.81818	0.1	422.13
21804	21.692	0.72727	0.1	481.8
21805	21.784	0.81818	0.1	461.82
21806	21.507	0.72727	0.1	521.83
21807	21.599	0.81818	0.1	501.69
21808	21.322	0.72727	0.1	562.02
21809	21.415	0.81818	0.1	541.73
21810	21.138	0.72727	0.1	602.37
21811	21.23	0.81818	0.1	581.94
21812	20.953	0.72727	0.1	642.89
21813	21.046	0.81818	0.1	622.32
21814	20.769	0.72727	0.1	683.56
21815	20.861	0.81818	0.1	662.86
21816	20.584	0.72727	0.1	724.4
21817	20.676	0.81818	0.1	703.56
21818	20.399	0.72727	0.1	765.41
21819	20.492	0.81818	0.1	744.44
21820	20.215	0.72727	0.1	806.58
21821	20.307	0.81818	0.1	785.48
21822	20.03	0.72727	0.1	847.92
21823	20.122	0.81818	0.1	826.69
21824	19.845	0.72727	0.1	889.44
21825	19.938	0.81818	0.1	868.08
21826	19.661	0.72727	0.1	931.12
21827	19.753	0.81818	0.1	909.64
21828	19.476	0.72727	0.1	972.99
21829	19.568	0.81818	0.1	951.37
21830	19.291	0.72727	0.1	1015.
21831	19.384	0.81818	0.1	993.29
21832	19.107	0.72727	0.1	1057.2
21833	19.199	0.81818	0.1	1035.4
21834	18.922	0.72727	0.1	1099.6
21835	19.014	0.81818	0.1	1077.6
21836	18.737	0.72727	0.1	1142.2
21837	18.83	0.81818	0.1	1120.1
21838	18.553	0.72727	0.1	1184.9
21839	18.645	0.81818	0.1	1162.7
21840	18.368	0.72727	0.1	1227.8
21841	18.46	0.81818	0.1	1205.5
21842	18.183	0.72727	0.1	1270.8
21843	18.276	0.81818	0.1	1248.4
21844	17.999	0.72727	0.1	1314.
21845	18.091	0.81818	0.1	1291.5
21846	17.814	0.72727	0.1	1357.3
21847	17.906	0.81818	0.1	1334.8
21848	17.629	0.72727	0.1	1400.7
21849	17.722	0.81818	0.1	1378.1
21850	17.445	0.72727	0.1	1444.2
21851	17.537	0.81818	0.1	1421.6
21852	17.26	0.72727	0.1	1487.6
21853	17.352	0.81818	0.1	1465.1
21854	17.075	0.72727	0.1	1531.
21855	17.168	0.81818	0.1	1508.6
21856	16.891	0.72727	0.1	1574.3
21857	16.983	0.81818	0.1	1552.1
21858	16.706	0.72727	0.1	1617.4
21859	16.798	0.81818	0.1	1595.5
21860	16.521	0.72727	0.1	1660.1
21861	16.614	0.81818	0.1	1638.6
21862	16.337	0.72727	0.1	1702.3
21863	16.429	0.81818	0.1	1681.3
21864	16.152	0.72727	0.1	1743.7
21865	16.244	0.81818	0.1	1723.6
21866	15.967	0.72727	0.1	1784.1
21867	16.06	0.81818	0.1	1765.
21868	15.783	0.72727	0.1	1823.1
21869	15.875	0.81818	0.1	1805.4
21870	15.598	0.72727	0.1	1860.2
21871	15.69	0.81818	0.1	1844.4
21872	15.413	0.72727	0.1	1894.9
21873	15.506	0.81818	0.1	1881.6
21874	15.229	0.72727	0.1	1926.4
21875	15.321	0.81818	0.1	1916.2
21876	15.044	0.72727	0.1	1953.8
21877	15.137	0.81818	0.1	1947.7
21878	14.86	0.72727	0.1	1975.9
21879	14.952	0.81818	0.1	1974.9
21880	14.675	0.72727	0.1	1991.4
21881	14.767	0.81818	0.1	1996.9
21882	14.49	0.72727	0.1	1998.3
21883	14.583	0.81818	0.1	2012.
21884	14.306	0.72727	0.1	1994.6
21885	14.398	0.81818	0.1	2018.6
21886	14.121	0.72727	0.1	1977.8
21887	14.213	0.81818	0.1	2014.5
21888	13.936	0.72727	0.1	1944.6
21889	14.029	0.81818	0.1	1997.1
21890	13.752	0.72727	0.1	1891.9
21891	13.844	0.81818	0.1	1963.5
21892	13.567	0.72727	0.1	1816.
21893	13.659	0.81818	0.1	1910.3
21894	13.382	0.72727	0.1	1713.9
21895	13.475	0.81818	0.1	1834.4
21896	13.198	0.72727	0.1	1584.6
21897	13.29	0.81818	0.1	1733.4
21898	13.013	0.72727	0.1	1431.7
21899	13.105	0.81818	0.1	1607.7
21900	12.828	0.72727	0.1	1268.6
21901	12.921	0.81818	0.1	1463.7
21902	12.644	0.72727	0.1	1138.9
21903	12.736	0.81818	0.1	1318.1
21904	12.551	0.81818	0.1	1238.4
21905	12.459	0.72727	0.1	906.38
21906	23.723	0.90909	0.1	58.153
21907	23.815	1.	0.1	39.74
21908	23.908	0.90909	0.1	22.443
21909	23.538	0.90909	0.1	95.323
21910	23.631	1.	0.1	76.959
21911	23.354	0.90909	0.1	132.73
21912	23.446	1.	0.1	114.41
21913	23.169	0.90909	0.1	170.39
21914	23.261	1.	0.1	152.01
21915	22.984	0.90909	0.1	208.38
21916	23.077	1.	0.1	189.85
21917	22.8	0.90909	0.1	246.68
21918	22.892	1.	0.1	227.97
21919	22.615	0.90909	0.1	285.28
21920	22.707	1.	0.1	266.38
21921	22.43	0.90909	0.1	324.14
21922	22.523	1.	0.1	305.05
21923	22.246	0.90909	0.1	363.24
21924	22.338	1.	0.1	343.96
21925	22.061	0.90909	0.1	402.55
21926	22.153	1.	0.1	383.09
21927	21.876	0.90909	0.1	442.07
21928	21.969	1.	0.1	422.44
21929	21.692	0.90909	0.1	481.77
21930	21.784	1.	0.1	461.97
21931	21.507	0.90909	0.1	521.66
21932	21.599	1.	0.1	501.7
21933	21.322	0.90909	0.1	561.71
21934	21.415	1.	0.1	541.6
21935	21.138	0.90909	0.1	601.94
21936	21.23	1.	0.1	581.68
21937	20.953	0.90909	0.1	642.34
21938	21.046	1.	0.1	621.93
21939	20.769	0.90909	0.1	682.91
21940	20.861	1.	0.1	662.36
21941	20.584	0.90909	0.1	723.64
21942	20.676	1.	0.1	702.95
21943	20.399	0.90909	0.1	764.55
21944	20.492	1.	0.1	743.73
21945	20.215	0.90909	0.1	805.63
21946	20.307	1.	0.1	784.67
21947	20.03	0.90909	0.1	846.89
21948	20.122	1.	0.1	825.79
21949	19.845	0.90909	0.1	888.31
21950	19.938	1.	0.1	867.09
21951	19.661	0.90909	0.1	929.92
21952	19.753	1.	0.1	908.56
21953	19.476	0.90909	0.1	971.71
21954	19.568	1.	0.1	950.22
21955	19.291	0.90909	0.1	1013.7
21956	19.384	1.	0.1	992.06
21957	19.107	0.90909	0.1	1055.8
21958	19.199	1.	0.1	1034.1
21959	18.922	0.90909	0.1	1098.1
21960	19.014	1.	0.1	1076.3
21961	18.737	0.90909	0.1	1140.6
21962	18.83	1.	0.1	1118.7
21963	18.553	0.90909	0.1	1183.3
21964	18.645	1.	0.1	1161.2
21965	18.368	0.90909	0.1	1226.2
21966	18.46	1.	0.1	1204.
21967	18.183	0.90909	0.1	1269.2
21968	18.276	1.	0.1	1246.9
21969	17.999	0.90909	0.1	1312.3
21970	18.091	1.	0.1	1289.9
21971	17.814	0.90909	0.1	1355.6
21972	17.906	1.	0.1	1333.2
21973	17.629	0.90909	0.1	1399.
21974	17.722	1.	0.1	1376.5
21975	17.445	0.90909	0.1	1442.6
21976	17.537	1.	0.1	1420.
21977	17.26	0.90909	0.1	1486.1
21978	17.352	1.	0.1	1463.6
21979	17.075	0.90909	0.1	1529.7
21980	17.168	1.	0.1	1507.3
21981	16.891	0.90909	0.1	1573.2
21982	16.983	1.	0.1	1551.
21983	16.706	0.90909	0.1	1616.7
21984	16.798	1.	0.1	1594.6
21985	16.521	0.90909	0.1	1659.8
21986	16.614	1.	0.1	1638.2
21987	16.337	0.90909	0.1	1702.6
21988	16.429	1.	0.1	1681.5
21989	16.152	0.90909	0.1	1744.9
21990	16.244	1.	0.1	1724.5
21991	15.967	0.90909	0.1	1786.4
21992	16.06	1.	0.1	1766.9
21993	15.783	0.90909	0.1	1826.8
21994	15.875	1.	0.1	1808.7
21995	15.598	0.90909	0.1	1865.8
21996	15.69	1.	0.1	1849.4
21997	15.413	0.90909	0.1	1902.9
21998	15.506	1.	0.1	1888.7
21999	15.229	0.90909	0.1	1937.5
22000	15.321	1.	0.1	1926.3
22001	15.044	0.90909	0.1	1968.8
22002	15.137	1.	0.1	1961.3
22003	14.86	0.90909	0.1	1995.9
22004	14.952	1.	0.1	1993.3
22005	14.675	0.90909	0.1	2017.5
22006	14.767	1.	0.1	2021.1
22007	14.49	0.90909	0.1	2032.3
22008	14.583	1.	0.1	2043.7
22009	14.306	0.90909	0.1	2038.3
22010	14.398	1.	0.1	2059.6
22011	14.121	0.90909	0.1	2033.5
22012	14.213	1.	0.1	2067.2
22013	13.936	0.90909	0.1	2015.3
22014	14.029	1.	0.1	2064.4
22015	13.752	0.90909	0.1	1980.7
22016	13.844	1.	0.1	2048.9
22017	13.567	0.90909	0.1	1926.6
22018	13.659	1.	0.1	2018.
22019	13.382	0.90909	0.1	1850.3
22020	13.475	1.	0.1	1969.2
22021	13.198	0.90909	0.1	1750.5
22022	13.29	1.	0.1	1900.1
22023	13.013	0.90909	0.1	1629.3
22024	13.105	1.	0.1	1810.2
22025	12.828	0.90909	0.1	1496.6
22026	12.921	1.	0.1	1702.3
22027	12.644	0.90909	0.1	1394.1
22028	12.736	1.	0.1	1586.5
22029	12.551	1.	0.1	1531.9
22030	12.459	0.90909	0.1	1125.9
22031	23.723	1.0909	0.1	58.499
22032	23.815	1.1818	0.1	39.825
22033	23.908	1.0909	0.1	22.497
22034	23.538	1.0909	0.1	96.064
22035	23.631	1.1818	0.1	77.452
22036	23.354	1.0909	0.1	133.73
22037	23.446	1.1818	0.1	115.22
22038	23.169	1.0909	0.1	171.51
22039	23.261	1.1818	0.1	153.
22040	22.984	1.0909	0.1	209.5
22041	23.077	1.1818	0.1	190.93
22042	22.8	1.0909	0.1	247.73
22043	22.892	1.1818	0.1	229.04
22044	22.615	1.0909	0.1	286.21
22045	22.707	1.1818	0.1	267.37
22046	22.43	1.0909	0.1	324.93
22047	22.523	1.1818	0.1	305.93
22048	22.246	1.0909	0.1	363.87
22049	22.338	1.1818	0.1	344.71
22050	22.061	1.0909	0.1	403.03
22051	22.153	1.1818	0.1	383.7
22052	21.876	1.0909	0.1	442.4
22053	21.969	1.1818	0.1	422.9
22054	21.692	1.0909	0.1	481.95
22055	21.784	1.1818	0.1	462.29
22056	21.507	1.0909	0.1	521.69
22057	21.599	1.1818	0.1	501.88
22058	21.322	1.0909	0.1	561.62
22059	21.415	1.1818	0.1	541.65
22060	21.138	1.0909	0.1	601.72
22061	21.23	1.1818	0.1	581.6
22062	20.953	1.0909	0.1	642.
22063	21.046	1.1818	0.1	621.73
22064	20.769	1.0909	0.1	682.45
22065	20.861	1.1818	0.1	662.04
22066	20.584	1.0909	0.1	723.08
22067	20.676	1.1818	0.1	702.52
22068	20.399	1.0909	0.1	763.89
22069	20.492	1.1818	0.1	743.19
22070	20.215	1.0909	0.1	804.87
22071	20.307	1.1818	0.1	784.04
22072	20.03	1.0909	0.1	846.03
22073	20.122	1.1818	0.1	825.06
22074	19.845	1.0909	0.1	887.38
22075	19.938	1.1818	0.1	866.27
22076	19.661	1.0909	0.1	928.9
22077	19.753	1.1818	0.1	907.66
22078	19.476	1.0909	0.1	970.61
22079	19.568	1.1818	0.1	949.24
22080	19.291	1.0909	0.1	1012.5
22081	19.384	1.1818	0.1	991.
22082	19.107	1.0909	0.1	1054.6
22083	19.199	1.1818	0.1	1032.9
22084	18.922	1.0909	0.1	1096.8
22085	19.014	1.1818	0.1	1075.1
22086	18.737	1.0909	0.1	1139.3
22087	18.83	1.1818	0.1	1117.4
22088	18.553	1.0909	0.1	1181.9
22089	18.645	1.1818	0.1	1159.9
22090	18.368	1.0909	0.1	1224.7
22091	18.46	1.1818	0.1	1202.6
22092	18.183	1.0909	0.1	1267.7
22093	18.276	1.1818	0.1	1245.4
22094	17.999	1.0909	0.1	1310.8
22095	18.091	1.1818	0.1	1288.5
22096	17.814	1.0909	0.1	1354.1
22097	17.906	1.1818	0.1	1331.7
22098	17.629	1.0909	0.1	1397.6
22099	17.722	1.1818	0.1	1375.1
22100	17.445	1.0909	0.1	1441.1
22101	17.537	1.1818	0.1	1418.6
22102	17.26	1.0909	0.1	1484.8
22103	17.352	1.1818	0.1	1462.3
22104	17.075	1.0909	0.1	1528.6
22105	17.168	1.1818	0.1	1506.1
22106	16.891	1.0909	0.1	1572.4
22107	16.983	1.1818	0.1	1550.
22108	16.706	1.0909	0.1	1616.2
22109	16.798	1.1818	0.1	1594.
22110	16.521	1.0909	0.1	1659.8
22111	16.614	1.1818	0.1	1638.
22112	16.337	1.0909	0.1	1703.3
22113	16.429	1.1818	0.1	1681.9
22114	16.152	1.0909	0.1	1746.5
22115	16.244	1.1818	0.1	1725.7
22116	15.967	1.0909	0.1	1789.2
22117	16.06	1.1818	0.1	1769.3
22118	15.783	1.0909	0.1	1831.3
22119	15.875	1.1818	0.1	1812.4
22120	15.598	1.0909	0.1	1872.3
22121	15.69	1.1818	0.1	1855.
22122	15.413	1.0909	0.1	1912.1
22123	15.506	1.1818	0.1	1896.8
22124	15.229	1.0909	0.1	1950.1
22125	15.321	1.1818	0.1	1937.4
22126	15.044	1.0909	0.1	1985.8
22127	15.137	1.1818	0.1	1976.5
22128	14.86	1.0909	0.1	2018.5
22129	14.952	1.1818	0.1	2013.5
22130	14.675	1.0909	0.1	2047.2
22131	14.767	1.1818	0.1	2047.9
22132	14.49	1.0909	0.1	2070.9
22133	14.583	1.1818	0.1	2078.9
22134	14.306	1.0909	0.1	2088.3
22135	14.398	1.1818	0.1	2105.4
22136	14.121	1.0909	0.1	2097.7
22137	14.213	1.1818	0.1	2126.4
22138	13.936	1.0909	0.1	2097.3
22139	14.029	1.1818	0.1	2140.5
22140	13.752	1.0909	0.1	2084.9
22141	13.844	1.1818	0.1	2146.3
22142	13.567	1.0909	0.1	2058.1
22143	13.659	1.1818	0.1	2142.1
22144	13.382	1.0909	0.1	2014.5
22145	13.475	1.1818	0.1	2126.2
22146	13.198	1.0909	0.1	1952.3
22147	13.29	1.1818	0.1	2097.1
22148	13.013	1.0909	0.1	1870.9
22149	13.105	1.1818	0.1	2053.1
22150	12.828	1.0909	0.1	1773.4
22151	12.921	1.1818	0.1	1992.7
22152	12.644	1.0909	0.1	1698.7
22153	12.736	1.1818	0.1	1915.9
22154	12.551	1.1818	0.1	1891.
22155	12.459	1.0909	0.1	1383.1
22156	23.723	1.2727	0.1	58.722
22157	23.815	1.3636	0.1	39.85
22158	23.908	1.2727	0.1	22.508
22159	23.538	1.2727	0.1	96.612
22160	23.631	1.3636	0.1	77.798
22161	23.354	1.2727	0.1	134.52
22162	23.446	1.3636	0.1	115.83
22163	23.169	1.2727	0.1	172.45
22164	23.261	1.3636	0.1	153.81
22165	22.984	1.2727	0.1	210.5
22166	23.077	1.3636	0.1	191.85
22167	22.8	1.2727	0.1	248.72
22168	22.892	1.3636	0.1	230.
22169	22.615	1.2727	0.1	287.14
22170	22.707	1.3636	0.1	268.31
22171	22.43	1.2727	0.1	325.76
22172	22.523	1.3636	0.1	306.8
22173	22.246	1.2727	0.1	364.59
22174	22.338	1.3636	0.1	345.49
22175	22.061	1.2727	0.1	403.62
22176	22.153	1.3636	0.1	384.37
22177	21.876	1.2727	0.1	442.85
22178	21.969	1.3636	0.1	423.45
22179	21.692	1.2727	0.1	482.27
22180	21.784	1.3636	0.1	462.71
22181	21.507	1.2727	0.1	521.88
22182	21.599	1.3636	0.1	502.17
22183	21.322	1.2727	0.1	561.67
22184	21.415	1.3636	0.1	541.81
22185	21.138	1.2727	0.1	601.65
22186	21.23	1.3636	0.1	581.64
22187	20.953	1.2727	0.1	641.81
22188	21.046	1.3636	0.1	621.66
22189	20.769	1.2727	0.1	682.15
22190	20.861	1.3636	0.1	661.85
22191	20.584	1.2727	0.1	722.68
22192	20.676	1.3636	0.1	702.24
22193	20.399	1.2727	0.1	763.38
22194	20.492	1.3636	0.1	742.8
22195	20.215	1.2727	0.1	804.27
22196	20.307	1.3636	0.1	783.55
22197	20.03	1.2727	0.1	845.34
22198	20.122	1.3636	0.1	824.48
22199	19.845	1.2727	0.1	886.59
22200	19.938	1.3636	0.1	865.6
22201	19.661	1.2727	0.1	928.03
22202	19.753	1.3636	0.1	906.91
22203	19.476	1.2727	0.1	969.66
22204	19.568	1.3636	0.1	948.4
22205	19.291	1.2727	0.1	1011.5
22206	19.384	1.3636	0.1	990.08
22207	19.107	1.2727	0.1	1053.5
22208	19.199	1.3636	0.1	1032.
22209	18.922	1.2727	0.1	1095.7
22210	19.014	1.3636	0.1	1074.
22211	18.737	1.2727	0.1	1138.
22212	18.83	1.3636	0.1	1116.3
22213	18.553	1.2727	0.1	1180.6
22214	18.645	1.3636	0.1	1158.7
22215	18.368	1.2727	0.1	1223.4
22216	18.46	1.3636	0.1	1201.3
22217	18.183	1.2727	0.1	1266.3
22218	18.276	1.3636	0.1	1244.2
22219	17.999	1.2727	0.1	1309.4
22220	18.091	1.3636	0.1	1287.2
22221	17.814	1.2727	0.1	1352.7
22222	17.906	1.3636	0.1	1330.4
22223	17.629	1.2727	0.1	1396.2
22224	17.722	1.3636	0.1	1373.8
22225	17.445	1.2727	0.1	1439.9
22226	17.537	1.3636	0.1	1417.4
22227	17.26	1.2727	0.1	1483.7
22228	17.352	1.3636	0.1	1461.2
22229	17.075	1.2727	0.1	1527.6
22230	17.168	1.3636	0.1	1505.1
22231	16.891	1.2727	0.1	1571.7
22232	16.983	1.3636	0.1	1549.3
22233	16.706	1.2727	0.1	1615.9
22234	16.798	1.3636	0.1	1593.6
22235	16.521	1.2727	0.1	1660.1
22236	16.614	1.3636	0.1	1638.
22237	16.337	1.2727	0.1	1704.3
22238	16.429	1.3636	0.1	1682.5
22239	16.152	1.2727	0.1	1748.5
22240	16.244	1.3636	0.1	1727.2
22241	15.967	1.2727	0.1	1792.5
22242	16.06	1.3636	0.1	1771.8
22243	15.783	1.2727	0.1	1836.2
22244	15.875	1.3636	0.1	1816.5
22245	15.598	1.2727	0.1	1879.4
22246	15.69	1.3636	0.1	1861.
22247	15.413	1.2727	0.1	1922.1
22248	15.506	1.3636	0.1	1905.3
22249	15.229	1.2727	0.1	1963.8
22250	15.321	1.3636	0.1	1949.3
22251	15.044	1.2727	0.1	2004.2
22252	15.137	1.3636	0.1	1992.6
22253	14.86	1.2727	0.1	2043.
22254	14.952	1.3636	0.1	2035.2
22255	14.675	1.2727	0.1	2079.5
22256	14.767	1.3636	0.1	2076.6
22257	14.49	1.2727	0.1	2113.2
22258	14.583	1.3636	0.1	2116.6
22259	14.306	1.2727	0.1	2143.2
22260	14.398	1.3636	0.1	2154.6
22261	14.121	1.2727	0.1	2168.7
22262	14.213	1.3636	0.1	2190.3
22263	13.936	1.2727	0.1	2188.6
22264	14.029	1.3636	0.1	2223.2
22265	13.752	1.2727	0.1	2202.
22266	13.844	1.3636	0.1	2252.9
22267	13.567	1.2727	0.1	2207.5
22268	13.659	1.3636	0.1	2279.1
22269	13.382	1.2727	0.1	2204.1
22270	13.475	1.3636	0.1	2301.9
22271	13.198	1.2727	0.1	2189.9
22272	13.29	1.3636	0.1	2321.4
22273	13.013	1.2727	0.1	2161.6
22274	13.105	1.3636	0.1	2336.9
22275	12.828	1.2727	0.1	2114.3
22276	12.921	1.3636	0.1	2345.
22277	12.644	1.2727	0.1	2077.9
22278	12.736	1.3636	0.1	2332.5
22279	12.551	1.3636	0.1	2363.
22280	12.459	1.2727	0.1	1702.5
22281	23.723	1.4545	0.1	58.864
22282	23.815	1.5455	0.1	39.841
22283	23.908	1.4545	0.1	22.495
22284	23.538	1.4545	0.1	97.017
22285	23.631	1.5455	0.1	78.041
22286	23.354	1.4545	0.1	135.14
22287	23.446	1.5455	0.1	116.3
22288	23.169	1.4545	0.1	173.23
22289	23.261	1.5455	0.1	154.45
22290	22.984	1.4545	0.1	211.37
22291	23.077	1.5455	0.1	192.61
22292	22.8	1.4545	0.1	249.62
22293	22.892	1.5455	0.1	230.83
22294	22.615	1.4545	0.1	288.01
22295	22.707	1.5455	0.1	269.15
22296	22.43	1.4545	0.1	326.57
22297	22.523	1.5455	0.1	307.61
22298	22.246	1.4545	0.1	365.31
22299	22.338	1.5455	0.1	346.24
22300	22.061	1.4545	0.1	404.24
22301	22.153	1.5455	0.1	385.04
22302	21.876	1.4545	0.1	443.36
22303	21.969	1.5455	0.1	424.02
22304	21.692	1.4545	0.1	482.66
22305	21.784	1.5455	0.1	463.18
22306	21.507	1.4545	0.1	522.15
22307	21.599	1.5455	0.1	502.53
22308	21.322	1.4545	0.1	561.83
22309	21.415	1.5455	0.1	542.06
22310	21.138	1.4545	0.1	601.69
22311	21.23	1.5455	0.1	581.78
22312	20.953	1.4545	0.1	641.74
22313	21.046	1.5455	0.1	621.68
22314	20.769	1.4545	0.1	681.98
22315	20.861	1.5455	0.1	661.78
22316	20.584	1.4545	0.1	722.4
22317	20.676	1.5455	0.1	702.05
22318	20.399	1.4545	0.1	763.
22319	20.492	1.5455	0.1	742.52
22320	20.215	1.4545	0.1	803.8
22321	20.307	1.5455	0.1	783.18
22322	20.03	1.4545	0.1	844.78
22323	20.122	1.5455	0.1	824.02
22324	19.845	1.4545	0.1	885.95
22325	19.938	1.5455	0.1	865.05
22326	19.661	1.4545	0.1	927.3
22327	19.753	1.5455	0.1	906.28
22328	19.476	1.4545	0.1	968.85
22329	19.568	1.5455	0.1	947.69
22330	19.291	1.4545	0.1	1010.6
22331	19.384	1.5455	0.1	989.3
22332	19.107	1.4545	0.1	1052.5
22333	19.199	1.5455	0.1	1031.1
22334	18.922	1.4545	0.1	1094.6
22335	19.014	1.5455	0.1	1073.1
22336	18.737	1.4545	0.1	1137.
22337	18.83	1.5455	0.1	1115.3
22338	18.553	1.4545	0.1	1179.5
22339	18.645	1.5455	0.1	1157.7
22340	18.368	1.4545	0.1	1222.2
22341	18.46	1.5455	0.1	1200.3
22342	18.183	1.4545	0.1	1265.1
22343	18.276	1.5455	0.1	1243.1
22344	17.999	1.4545	0.1	1308.2
22345	18.091	1.5455	0.1	1286.
22346	17.814	1.4545	0.1	1351.5
22347	17.906	1.5455	0.1	1329.3
22348	17.629	1.4545	0.1	1395.
22349	17.722	1.5455	0.1	1372.7
22350	17.445	1.4545	0.1	1438.8
22351	17.537	1.5455	0.1	1416.3
22352	17.26	1.4545	0.1	1482.7
22353	17.352	1.5455	0.1	1460.2
22354	17.075	1.4545	0.1	1526.8
22355	17.168	1.5455	0.1	1504.3
22356	16.891	1.4545	0.1	1571.2
22357	16.983	1.5455	0.1	1548.6
22358	16.706	1.4545	0.1	1615.7
22359	16.798	1.5455	0.1	1593.3
22360	16.521	1.4545	0.1	1660.5
22361	16.614	1.5455	0.1	1638.1
22362	16.337	1.4545	0.1	1705.4
22363	16.429	1.5455	0.1	1683.3
22364	16.152	1.4545	0.1	1750.6
22365	16.244	1.5455	0.1	1728.8
22366	15.967	1.4545	0.1	1795.9
22367	16.06	1.5455	0.1	1774.6
22368	15.783	1.4545	0.1	1841.4
22369	15.875	1.5455	0.1	1820.7
22370	15.598	1.4545	0.1	1886.9
22371	15.69	1.5455	0.1	1867.2
22372	15.413	1.4545	0.1	1932.5
22373	15.506	1.5455	0.1	1914.1
22374	15.229	1.4545	0.1	1978.1
22375	15.321	1.5455	0.1	1961.5
22376	15.044	1.4545	0.1	2023.6
22377	15.137	1.5455	0.1	2009.2
22378	14.86	1.4545	0.1	2068.8
22379	14.952	1.5455	0.1	2057.5
22380	14.675	1.4545	0.1	2113.6
22381	14.767	1.5455	0.1	2106.2
22382	14.49	1.4545	0.1	2157.8
22383	14.583	1.5455	0.1	2155.6
22384	14.306	1.4545	0.1	2201.4
22385	14.398	1.5455	0.1	2205.8
22386	14.121	1.4545	0.1	2244.3
22387	14.213	1.5455	0.1	2257.
22388	13.936	1.4545	0.1	2286.5
22389	14.029	1.5455	0.1	2309.9
22390	13.752	1.4545	0.1	2328.4
22391	13.844	1.5455	0.1	2365.2
22392	13.567	1.4545	0.1	2370.8
22393	13.659	1.5455	0.1	2424.7
22394	13.382	1.4545	0.1	2414.6
22395	13.475	1.5455	0.1	2490.8
22396	13.198	1.4545	0.1	2460.6
22397	13.29	1.5455	0.1	2567.
22398	13.013	1.4545	0.1	2507.2
22399	13.105	1.5455	0.1	2657.6
22400	12.828	1.4545	0.1	2540.7
22401	12.921	1.5455	0.1	2764.8
22402	12.644	1.4545	0.1	2579.5
22403	12.736	1.5455	0.1	2875.2
22404	12.551	1.5455	0.1	3031.6
22405	12.459	1.4545	0.1	2134.5
22406	23.723	1.6364	0.1	58.952
22407	23.815	1.7273	0.1	39.815
22408	23.908	1.6364	0.1	22.47
22409	23.538	1.6364	0.1	97.317
22410	23.631	1.7273	0.1	78.213
22411	23.354	1.6364	0.1	135.62
22412	23.446	1.7273	0.1	116.65
22413	23.169	1.6364	0.1	173.86
22414	23.261	1.7273	0.1	154.96
22415	22.984	1.6364	0.1	212.09
22416	23.077	1.7273	0.1	193.24
22417	22.8	1.6364	0.1	250.39
22418	22.892	1.7273	0.1	231.53
22419	22.615	1.6364	0.1	288.79
22420	22.707	1.7273	0.1	269.88
22421	22.43	1.6364	0.1	327.32
22422	22.523	1.7273	0.1	308.34
22423	22.246	1.6364	0.1	366.
22424	22.338	1.7273	0.1	346.93
22425	22.061	1.6364	0.1	404.85
22426	22.153	1.7273	0.1	385.67
22427	21.876	1.6364	0.1	443.88
22428	21.969	1.7273	0.1	424.57
22429	21.692	1.6364	0.1	483.08
22430	21.784	1.7273	0.1	463.65
22431	21.507	1.6364	0.1	522.47
22432	21.599	1.7273	0.1	502.91
22433	21.322	1.6364	0.1	562.05
22434	21.415	1.7273	0.1	542.34
22435	21.138	1.6364	0.1	601.81
22436	21.23	1.7273	0.1	581.96
22437	20.953	1.6364	0.1	641.75
22438	21.046	1.7273	0.1	621.77
22439	20.769	1.6364	0.1	681.89
22440	20.861	1.7273	0.1	661.77
22441	20.584	1.6364	0.1	722.21
22442	20.676	1.7273	0.1	701.96
22443	20.399	1.6364	0.1	762.73
22444	20.492	1.7273	0.1	742.33
22445	20.215	1.6364	0.1	803.43
22446	20.307	1.7273	0.1	782.9
22447	20.03	1.6364	0.1	844.33
22448	20.122	1.7273	0.1	823.66
22449	19.845	1.6364	0.1	885.42
22450	19.938	1.7273	0.1	864.61
22451	19.661	1.6364	0.1	926.7
22452	19.753	1.7273	0.1	905.76
22453	19.476	1.6364	0.1	968.17
22454	19.568	1.7273	0.1	947.1
22455	19.291	1.6364	0.1	1009.8
22456	19.384	1.7273	0.1	988.64
22457	19.107	1.6364	0.1	1051.7
22458	19.199	1.7273	0.1	1030.4
22459	18.922	1.6364	0.1	1093.8
22460	19.014	1.7273	0.1	1072.3
22461	18.737	1.6364	0.1	1136.
22462	18.83	1.7273	0.1	1114.4
22463	18.553	1.6364	0.1	1178.5
22464	18.645	1.7273	0.1	1156.8
22465	18.368	1.6364	0.1	1221.1
22466	18.46	1.7273	0.1	1199.3
22467	18.183	1.6364	0.1	1264.
22468	18.276	1.7273	0.1	1242.1
22469	17.999	1.6364	0.1	1307.1
22470	18.091	1.7273	0.1	1285.
22471	17.814	1.6364	0.1	1350.4
22472	17.906	1.7273	0.1	1328.2
22473	17.629	1.6364	0.1	1394.
22474	17.722	1.7273	0.1	1371.7
22475	17.445	1.6364	0.1	1437.8
22476	17.537	1.7273	0.1	1415.4
22477	17.26	1.6364	0.1	1481.8
22478	17.352	1.7273	0.1	1459.3
22479	17.075	1.6364	0.1	1526.1
22480	17.168	1.7273	0.1	1503.6
22481	16.891	1.6364	0.1	1570.8
22482	16.983	1.7273	0.1	1548.1
22483	16.706	1.6364	0.1	1615.7
22484	16.798	1.7273	0.1	1593.1
22485	16.521	1.6364	0.1	1661.
22486	16.614	1.7273	0.1	1638.4
22487	16.337	1.6364	0.1	1706.7
22488	16.429	1.7273	0.1	1684.1
22489	16.152	1.6364	0.1	1752.8
22490	16.244	1.7273	0.1	1730.4
22491	15.967	1.6364	0.1	1799.4
22492	16.06	1.7273	0.1	1777.4
22493	15.783	1.6364	0.1	1846.6
22494	15.875	1.7273	0.1	1825.
22495	15.598	1.6364	0.1	1894.5
22496	15.69	1.7273	0.1	1873.4
22497	15.413	1.6364	0.1	1943.1
22498	15.506	1.7273	0.1	1922.9
22499	15.229	1.6364	0.1	1992.6
22500	15.321	1.7273	0.1	1973.6
22501	15.044	1.6364	0.1	2043.1
22502	15.137	1.7273	0.1	2025.7
22503	14.86	1.6364	0.1	2094.9
22504	14.952	1.7273	0.1	2079.7
22505	14.675	1.6364	0.1	2148.2
22506	14.767	1.7273	0.1	2135.8
22507	14.49	1.6364	0.1	2203.4
22508	14.583	1.7273	0.1	2194.8
22509	14.306	1.6364	0.1	2261.1
22510	14.398	1.7273	0.1	2257.3
22511	14.121	1.6364	0.1	2322.1
22512	14.213	1.7273	0.1	2324.4
22513	13.936	1.6364	0.1	2387.8
22514	14.029	1.7273	0.1	2397.8
22515	13.752	1.6364	0.1	2460.1
22516	13.844	1.7273	0.1	2479.7
22517	13.567	1.6364	0.1	2542.3
22518	13.659	1.7273	0.1	2573.9
22519	13.382	1.6364	0.1	2639.2
22520	13.475	1.7273	0.1	2686.
22521	13.198	1.6364	0.1	2757.4
22522	13.29	1.7273	0.1	2824.7
22523	13.013	1.6364	0.1	2904.1
22524	13.105	1.7273	0.1	3003.6
22525	12.828	1.6364	0.1	3079.4
22526	12.921	1.7273	0.1	3243.
22527	12.644	1.6364	0.1	3272.1
22528	12.736	1.7273	0.1	3579.8
22529	12.551	1.7273	0.1	4193.1
22530	12.459	1.6364	0.1	2754.1
22531	23.723	1.8182	0.1	59.005
22532	23.815	1.9091	0.1	39.779
22533	23.908	1.8182	0.1	22.44
22534	23.538	1.8182	0.1	97.539
22535	23.631	1.9091	0.1	78.333
22536	23.354	1.8182	0.1	136.
22537	23.446	1.9091	0.1	116.91
22538	23.169	1.8182	0.1	174.36
22539	23.261	1.9091	0.1	155.36
22540	22.984	1.8182	0.1	212.69
22541	23.077	1.9091	0.1	193.74
22542	22.8	1.8182	0.1	251.04
22543	22.892	1.9091	0.1	232.1
22544	22.615	1.8182	0.1	289.46
22545	22.707	1.9091	0.1	270.5
22546	22.43	1.8182	0.1	327.98
22547	22.523	1.9091	0.1	308.97
22548	22.246	1.8182	0.1	366.63
22549	22.338	1.9091	0.1	347.54
22550	22.061	1.8182	0.1	405.42
22551	22.153	1.9091	0.1	386.24
22552	21.876	1.8182	0.1	444.38
22553	21.969	1.9091	0.1	425.09
22554	21.692	1.8182	0.1	483.51
22555	21.784	1.9091	0.1	464.1
22556	21.507	1.8182	0.1	522.81
22557	21.599	1.9091	0.1	503.28
22558	21.322	1.8182	0.1	562.29
22559	21.415	1.9091	0.1	542.63
22560	21.138	1.8182	0.1	601.96
22561	21.23	1.9091	0.1	582.17
22562	20.953	1.8182	0.1	641.82
22563	21.046	1.9091	0.1	621.9
22564	20.769	1.8182	0.1	681.87
22565	20.861	1.9091	0.1	661.81
22566	20.584	1.8182	0.1	722.1
22567	20.676	1.9091	0.1	701.91
22568	20.399	1.8182	0.1	762.53
22569	20.492	1.9091	0.1	742.21
22570	20.215	1.8182	0.1	803.16
22571	20.307	1.9091	0.1	782.7
22572	20.03	1.8182	0.1	843.97
22573	20.122	1.9091	0.1	823.38
22574	19.845	1.8182	0.1	884.99
22575	19.938	1.9091	0.1	864.26
22576	19.661	1.8182	0.1	926.19
22577	19.753	1.9091	0.1	905.34
22578	19.476	1.8182	0.1	967.6
22579	19.568	1.9091	0.1	946.61
22580	19.291	1.8182	0.1	1009.2
22581	19.384	1.9091	0.1	988.08
22582	19.107	1.8182	0.1	1051.
22583	19.199	1.9091	0.1	1029.8
22584	18.922	1.8182	0.1	1093.
22585	19.014	1.9091	0.1	1071.6
22586	18.737	1.8182	0.1	1135.2
22587	18.83	1.9091	0.1	1113.7
22588	18.553	1.8182	0.1	1177.6
22589	18.645	1.9091	0.1	1156.
22590	18.368	1.8182	0.1	1220.2
22591	18.46	1.9091	0.1	1198.5
22592	18.183	1.8182	0.1	1263.1
22593	18.276	1.9091	0.1	1241.2
22594	17.999	1.8182	0.1	1306.2
22595	18.091	1.9091	0.1	1284.2
22596	17.814	1.8182	0.1	1349.5
22597	17.906	1.9091	0.1	1327.3
22598	17.629	1.8182	0.1	1393.1
22599	17.722	1.9091	0.1	1370.8
22600	17.445	1.8182	0.1	1436.9
22601	17.537	1.9091	0.1	1414.5
22602	17.26	1.8182	0.1	1481.1
22603	17.352	1.9091	0.1	1458.6
22604	17.075	1.8182	0.1	1525.6
22605	17.168	1.9091	0.1	1502.9
22606	16.891	1.8182	0.1	1570.4
22607	16.983	1.9091	0.1	1547.7
22608	16.706	1.8182	0.1	1615.7
22609	16.798	1.9091	0.1	1592.9
22610	16.521	1.8182	0.1	1661.5
22611	16.614	1.9091	0.1	1638.7
22612	16.337	1.8182	0.1	1707.9
22613	16.429	1.9091	0.1	1685.
22614	16.152	1.8182	0.1	1755.
22615	16.244	1.9091	0.1	1732.1
22616	15.967	1.8182	0.1	1802.9
22617	16.06	1.9091	0.1	1780.
22618	15.783	1.8182	0.1	1851.8
22619	15.875	1.9091	0.1	1829.
22620	15.598	1.8182	0.1	1901.9
22621	15.69	1.9091	0.1	1879.4
22622	15.413	1.8182	0.1	1953.4
22623	15.506	1.9091	0.1	1931.3
22624	15.229	1.8182	0.1	2006.7
22625	15.321	1.9091	0.1	1985.2
22626	15.044	1.8182	0.1	2062.3
22627	15.137	1.9091	0.1	2041.6
22628	14.86	1.8182	0.1	2120.6
22629	14.952	1.9091	0.1	2101.1
22630	14.675	1.8182	0.1	2182.4
22631	14.767	1.9091	0.1	2164.5
22632	14.49	1.8182	0.1	2248.5
22633	14.583	1.9091	0.1	2232.7
22634	14.306	1.8182	0.1	2320.3
22635	14.398	1.9091	0.1	2307.4
22636	14.121	1.8182	0.1	2399.6
22637	14.213	1.9091	0.1	2390.2
22638	13.936	1.8182	0.1	2489.
22639	14.029	1.9091	0.1	2483.9
22640	13.752	1.8182	0.1	2592.3
22641	13.844	1.9091	0.1	2592.3
22642	13.567	1.8182	0.1	2715.7
22643	13.659	1.9091	0.1	2721.3
22644	13.382	1.8182	0.1	2868.4
22645	13.475	1.9091	0.1	2879.7
22646	13.198	1.8182	0.1	3066.
22647	13.29	1.9091	0.1	3082.2
22648	13.013	1.8182	0.1	3335.1
22649	13.105	1.9091	0.1	3354.1
22650	12.828	1.8182	0.1	3729.2
22651	12.921	1.9091	0.1	3746.1
22652	12.644	1.8182	0.1	4454.8
22653	12.736	1.9091	0.1	4355.8
22654	12.551	1.9091	0.1	5924.6
22655	12.459	1.8182	0.1	3890.7
22656	23.723	2.	0.1	59.034
22657	23.815	2.0909	0.1	39.742
22658	23.908	2.	0.1	22.409
22659	23.538	2.	0.1	97.703
22660	23.631	2.0909	0.1	78.418
22661	23.354	2.	0.1	136.28
22662	23.446	2.0909	0.1	117.11
22663	23.169	2.	0.1	174.75
22664	23.261	2.0909	0.1	155.67
22665	22.984	2.	0.1	213.17
22666	23.077	2.0909	0.1	194.14
22667	22.8	2.	0.1	251.58
22668	22.892	2.0909	0.1	232.57
22669	22.615	2.	0.1	290.03
22670	22.707	2.0909	0.1	271.
22671	22.43	2.	0.1	328.55
22672	22.523	2.0909	0.1	309.49
22673	22.246	2.	0.1	367.18
22674	22.338	2.0909	0.1	348.06
22675	22.061	2.	0.1	405.93
22676	22.153	2.0909	0.1	386.74
22677	21.876	2.	0.1	444.84
22678	21.969	2.0909	0.1	425.55
22679	21.692	2.	0.1	483.9
22680	21.784	2.0909	0.1	464.5
22681	21.507	2.	0.1	523.13
22682	21.599	2.0909	0.1	503.62
22683	21.322	2.	0.1	562.54
22684	21.415	2.0909	0.1	542.91
22685	21.138	2.	0.1	602.14
22686	21.23	2.0909	0.1	582.38
22687	20.953	2.	0.1	641.91
22688	21.046	2.0909	0.1	622.03
22689	20.769	2.	0.1	681.88
22690	20.861	2.0909	0.1	661.87
22691	20.584	2.	0.1	722.05
22692	20.676	2.0909	0.1	701.91
22693	20.399	2.	0.1	762.4
22694	20.492	2.0909	0.1	742.13
22695	20.215	2.	0.1	802.95
22696	20.307	2.0909	0.1	782.55
22697	20.03	2.	0.1	843.7
22698	20.122	2.0909	0.1	823.17
22699	19.845	2.	0.1	884.64
22700	19.938	2.0909	0.1	863.99
22701	19.661	2.	0.1	925.78
22702	19.753	2.0909	0.1	905.
22703	19.476	2.	0.1	967.12
22704	19.568	2.0909	0.1	946.21
22705	19.291	2.	0.1	1008.7
22706	19.384	2.0909	0.1	987.63
22707	19.107	2.	0.1	1050.4
22708	19.199	2.0909	0.1	1029.2
22709	18.922	2.	0.1	1092.4
22710	19.014	2.0909	0.1	1071.1
22711	18.737	2.	0.1	1134.5
22712	18.83	2.0909	0.1	1113.1
22713	18.553	2.	0.1	1176.9
22714	18.645	2.0909	0.1	1155.3
22715	18.368	2.	0.1	1219.5
22716	18.46	2.0909	0.1	1197.8
22717	18.183	2.	0.1	1262.3
22718	18.276	2.0909	0.1	1240.5
22719	17.999	2.	0.1	1305.4
22720	18.091	2.0909	0.1	1283.4
22721	17.814	2.	0.1	1348.7
22722	17.906	2.0909	0.1	1326.6
22723	17.629	2.	0.1	1392.3
22724	17.722	2.0909	0.1	1370.1
22725	17.445	2.	0.1	1436.2
22726	17.537	2.0909	0.1	1413.8
22727	17.26	2.	0.1	1480.5
22728	17.352	2.0909	0.1	1457.9
22729	17.075	2.	0.1	1525.1
22730	17.168	2.0909	0.1	1502.4
22731	16.891	2.	0.1	1570.2
22732	16.983	2.0909	0.1	1547.4
22733	16.706	2.	0.1	1615.8
22734	16.798	2.0909	0.1	1592.9
22735	16.521	2.	0.1	1662.1
22736	16.614	2.0909	0.1	1639.
22737	16.337	2.	0.1	1709.1
22738	16.429	2.0909	0.1	1685.8
22739	16.152	2.	0.1	1757.1
22740	16.244	2.0909	0.1	1733.6
22741	15.967	2.	0.1	1806.2
22742	16.06	2.0909	0.1	1782.5
22743	15.783	2.	0.1	1856.6
22744	15.875	2.0909	0.1	1832.8
22745	15.598	2.	0.1	1908.8
22746	15.69	2.0909	0.1	1884.8
22747	15.413	2.	0.1	1963.1
22748	15.506	2.0909	0.1	1939.
22749	15.229	2.	0.1	2020.1
22750	15.321	2.0909	0.1	1995.9
22751	15.044	2.	0.1	2080.4
22752	15.137	2.0909	0.1	2056.3
22753	14.86	2.	0.1	2144.9
22754	14.952	2.0909	0.1	2120.9
22755	14.675	2.	0.1	2214.8
22756	14.767	2.0909	0.1	2191.
22757	14.49	2.	0.1	2291.5
22758	14.583	2.0909	0.1	2268.2
22759	14.306	2.	0.1	2377.
22760	14.398	2.0909	0.1	2354.2
22761	14.121	2.	0.1	2474.1
22762	14.213	2.0909	0.1	2452.
22763	13.936	2.	0.1	2586.6
22764	14.029	2.0909	0.1	2565.1
22765	13.752	2.	0.1	2720.2
22766	13.844	2.0909	0.1	2698.7
22767	13.567	2.	0.1	2883.7
22768	13.659	2.0909	0.1	2860.6
22769	13.382	2.	0.1	3091.1
22770	13.475	2.0909	0.1	3062.6
22771	13.198	2.	0.1	3367.
22772	13.29	2.0909	0.1	3324.4
22773	13.013	2.	0.1	3761.1
22774	13.105	2.0909	0.1	3680.6
22775	12.828	2.	0.1	4370.6
22776	12.921	2.0909	0.1	4203.2
22777	12.644	2.	0.1	5838.5
22778	12.736	2.0909	0.1	5050.3
22779	12.551	2.0909	0.1	7016.9
22780	12.459	2.	0.1	10479
22781	23.723	2.1818	0.1	59.05
22782	23.815	2.2727	0.1	39.707
22783	23.908	2.1818	0.1	22.38
22784	23.538	2.1818	0.1	97.822
22785	23.631	2.2727	0.1	78.476
22786	23.354	2.1818	0.1	136.5
22787	23.446	2.2727	0.1	117.26
22788	23.169	2.1818	0.1	175.06
22789	23.261	2.2727	0.1	155.9
22790	22.984	2.1818	0.1	213.55
22791	23.077	2.2727	0.1	194.44
22792	22.8	2.1818	0.1	252.01
22793	22.892	2.2727	0.1	232.93
22794	22.615	2.1818	0.1	290.49
22795	22.707	2.2727	0.1	271.41
22796	22.43	2.1818	0.1	329.02
22797	22.523	2.2727	0.1	309.91
22798	22.246	2.1818	0.1	367.64
22799	22.338	2.2727	0.1	348.48
22800	22.061	2.1818	0.1	406.37
22801	22.153	2.2727	0.1	387.15
22802	21.876	2.1818	0.1	445.24
22803	21.969	2.2727	0.1	425.93
22804	21.692	2.1818	0.1	484.25
22805	21.784	2.2727	0.1	464.85
22806	21.507	2.1818	0.1	523.43
22807	21.599	2.2727	0.1	503.92
22808	21.322	2.1818	0.1	562.78
22809	21.415	2.2727	0.1	543.16
22810	21.138	2.1818	0.1	602.3
22811	21.23	2.2727	0.1	582.57
22812	20.953	2.1818	0.1	642.02
22813	21.046	2.2727	0.1	622.16
22814	20.769	2.1818	0.1	681.92
22815	20.861	2.2727	0.1	661.95
22816	20.584	2.1818	0.1	722.02
22817	20.676	2.2727	0.1	701.92
22818	20.399	2.1818	0.1	762.31
22819	20.492	2.2727	0.1	742.09
22820	20.215	2.1818	0.1	802.8
22821	20.307	2.2727	0.1	782.45
22822	20.03	2.1818	0.1	843.49
22823	20.122	2.2727	0.1	823.02
22824	19.845	2.1818	0.1	884.37
22825	19.938	2.2727	0.1	863.78
22826	19.661	2.1818	0.1	925.46
22827	19.753	2.2727	0.1	904.74
22828	19.476	2.1818	0.1	966.74
22829	19.568	2.2727	0.1	945.9
22830	19.291	2.1818	0.1	1008.2
22831	19.384	2.2727	0.1	987.27
22832	19.107	2.1818	0.1	1049.9
22833	19.199	2.2727	0.1	1028.8
22834	18.922	2.1818	0.1	1091.8
22835	19.014	2.2727	0.1	1070.6
22836	18.737	2.1818	0.1	1133.9
22837	18.83	2.2727	0.1	1112.6
22838	18.553	2.1818	0.1	1176.3
22839	18.645	2.2727	0.1	1154.8
22840	18.368	2.1818	0.1	1218.8
22841	18.46	2.2727	0.1	1197.2
22842	18.183	2.1818	0.1	1261.6
22843	18.276	2.2727	0.1	1239.9
22844	17.999	2.1818	0.1	1304.7
22845	18.091	2.2727	0.1	1282.8
22846	17.814	2.1818	0.1	1348.
22847	17.906	2.2727	0.1	1326.
22848	17.629	2.1818	0.1	1391.6
22849	17.722	2.2727	0.1	1369.5
22850	17.445	2.1818	0.1	1435.6
22851	17.537	2.2727	0.1	1413.3
22852	17.26	2.1818	0.1	1479.9
22853	17.352	2.2727	0.1	1457.4
22854	17.075	2.1818	0.1	1524.7
22855	17.168	2.2727	0.1	1502.
22856	16.891	2.1818	0.1	1570.
22857	16.983	2.2727	0.1	1547.1
22858	16.706	2.1818	0.1	1616.
22859	16.798	2.2727	0.1	1592.8
22860	16.521	2.1818	0.1	1662.7
22861	16.614	2.2727	0.1	1639.2
22862	16.337	2.1818	0.1	1710.3
22863	16.429	2.2727	0.1	1686.5
22864	16.152	2.1818	0.1	1759.
22865	16.244	2.2727	0.1	1734.9
22866	15.967	2.1818	0.1	1809.1
22867	16.06	2.2727	0.1	1784.7
22868	15.783	2.1818	0.1	1861.
22869	15.875	2.2727	0.1	1836.1
22870	15.598	2.1818	0.1	1915.
22871	15.69	2.2727	0.1	1889.6
22872	15.413	2.1818	0.1	1971.9
22873	15.506	2.2727	0.1	1945.8
22874	15.229	2.1818	0.1	2032.1
22875	15.321	2.2727	0.1	2005.4
22876	15.044	2.1818	0.1	2096.8
22877	15.137	2.2727	0.1	2069.2
22878	14.86	2.1818	0.1	2167.
22879	14.952	2.2727	0.1	2138.4
22880	14.675	2.1818	0.1	2244.4
22881	14.767	2.2727	0.1	2214.6
22882	14.49	2.1818	0.1	2330.8
22883	14.583	2.2727	0.1	2299.7
22884	14.306	2.1818	0.1	2429.1
22885	14.398	2.2727	0.1	2396.1
22886	14.121	2.1818	0.1	2542.7
22887	14.213	2.2727	0.1	2507.3
22888	13.936	2.1818	0.1	2676.7
22889	14.029	2.2727	0.1	2637.9
22890	13.752	2.1818	0.1	2838.3
22891	13.844	2.2727	0.1	2794.2
22892	13.567	2.1818	0.1	3038.5
22893	13.659	2.2727	0.1	2985.4
22894	13.382	2.1818	0.1	3294.6
22895	13.475	2.2727	0.1	3225.1
22896	13.198	2.1818	0.1	3636.5
22897	13.29	2.2727	0.1	3535.1
22898	13.013	2.1818	0.1	4122.3
22899	13.105	2.2727	0.1	3952.
22900	12.828	2.1818	0.1	4888.4
22901	12.921	2.2727	0.1	4544.8
22902	12.644	2.1818	0.1	6279.4
22903	12.736	2.2727	0.1	5456.8
22904	12.551	2.2727	0.1	6968.6
22905	12.459	2.1818	0.1	8416.7
22906	23.723	2.3636	0.1	59.056
22907	23.815	2.4545	0.1	39.678
22908	23.908	2.3636	0.1	22.355
22909	23.538	2.3636	0.1	97.907
22910	23.631	2.4545	0.1	78.515
22911	23.354	2.3636	0.1	136.66
22912	23.446	2.4545	0.1	117.37
22913	23.169	2.3636	0.1	175.29
22914	23.261	2.4545	0.1	156.07
22915	22.984	2.3636	0.1	213.84
22916	23.077	2.4545	0.1	194.67
22917	22.8	2.3636	0.1	252.34
22918	22.892	2.4545	0.1	233.2
22919	22.615	2.3636	0.1	290.85
22920	22.707	2.4545	0.1	271.71
22921	22.43	2.3636	0.1	329.39
22922	22.523	2.4545	0.1	310.24
22923	22.246	2.3636	0.1	368.01
22924	22.338	2.4545	0.1	348.81
22925	22.061	2.3636	0.1	406.72
22926	22.153	2.4545	0.1	387.47
22927	21.876	2.3636	0.1	445.56
22928	21.969	2.4545	0.1	426.23
22929	21.692	2.3636	0.1	484.54
22930	21.784	2.4545	0.1	465.12
22931	21.507	2.3636	0.1	523.67
22932	21.599	2.4545	0.1	504.16
22933	21.322	2.3636	0.1	562.98
22934	21.415	2.4545	0.1	543.36
22935	21.138	2.3636	0.1	602.46
22936	21.23	2.4545	0.1	582.73
22937	20.953	2.3636	0.1	642.12
22938	21.046	2.4545	0.1	622.28
22939	20.769	2.3636	0.1	681.97
22940	20.861	2.4545	0.1	662.02
22941	20.584	2.3636	0.1	722.02
22942	20.676	2.4545	0.1	701.94
22943	20.399	2.3636	0.1	762.26
22944	20.492	2.4545	0.1	742.07
22945	20.215	2.3636	0.1	802.69
22946	20.307	2.4545	0.1	782.39
22947	20.03	2.3636	0.1	843.33
22948	20.122	2.4545	0.1	822.9
22949	19.845	2.3636	0.1	884.17
22950	19.938	2.4545	0.1	863.62
22951	19.661	2.3636	0.1	925.21
22952	19.753	2.4545	0.1	904.54
22953	19.476	2.3636	0.1	966.45
22954	19.568	2.4545	0.1	945.66
22955	19.291	2.3636	0.1	1007.9
22956	19.384	2.4545	0.1	986.99
22957	19.107	2.3636	0.1	1049.5
22958	19.199	2.4545	0.1	1028.5
22959	18.922	2.3636	0.1	1091.4
22960	19.014	2.4545	0.1	1070.3
22961	18.737	2.3636	0.1	1133.5
22962	18.83	2.4545	0.1	1112.2
22963	18.553	2.3636	0.1	1175.8
22964	18.645	2.4545	0.1	1154.4
22965	18.368	2.3636	0.1	1218.3
22966	18.46	2.4545	0.1	1196.8
22967	18.183	2.3636	0.1	1261.1
22968	18.276	2.4545	0.1	1239.4
22969	17.999	2.3636	0.1	1304.1
22970	18.091	2.4545	0.1	1282.3
22971	17.814	2.3636	0.1	1347.5
22972	17.906	2.4545	0.1	1325.5
22973	17.629	2.3636	0.1	1391.1
22974	17.722	2.4545	0.1	1369.
22975	17.445	2.3636	0.1	1435.1
22976	17.537	2.4545	0.1	1412.8
22977	17.26	2.3636	0.1	1479.5
22978	17.352	2.4545	0.1	1457.
22979	17.075	2.3636	0.1	1524.4
22980	17.168	2.4545	0.1	1501.7
22981	16.891	2.3636	0.1	1569.9
22982	16.983	2.4545	0.1	1546.9
22983	16.706	2.3636	0.1	1616.1
22984	16.798	2.4545	0.1	1592.8
22985	16.521	2.3636	0.1	1663.1
22986	16.614	2.4545	0.1	1639.5
22987	16.337	2.3636	0.1	1711.2
22988	16.429	2.4545	0.1	1687.1
22989	16.152	2.3636	0.1	1760.6
22990	16.244	2.4545	0.1	1736.
22991	15.967	2.3636	0.1	1811.6
22992	16.06	2.4545	0.1	1786.4
22993	15.783	2.3636	0.1	1864.7
22994	15.875	2.4545	0.1	1838.8
22995	15.598	2.3636	0.1	1920.4
22996	15.69	2.4545	0.1	1893.5
22997	15.413	2.3636	0.1	1979.3
22998	15.506	2.4545	0.1	1951.4
22999	15.229	2.3636	0.1	2042.4
23000	15.321	2.4545	0.1	2013.1
23001	15.044	2.3636	0.1	2110.8
23002	15.137	2.4545	0.1	2079.9
23003	14.86	2.3636	0.1	2186.
23004	14.952	2.4545	0.1	2153.
23005	14.675	2.3636	0.1	2269.9
23006	14.767	2.4545	0.1	2234.2
23007	14.49	2.3636	0.1	2364.9
23008	14.583	2.4545	0.1	2325.9
23009	14.306	2.3636	0.1	2474.3
23010	14.398	2.4545	0.1	2431.1
23011	14.121	2.3636	0.1	2602.4
23012	14.213	2.4545	0.1	2553.7
23013	13.936	2.3636	0.1	2755.2
23014	14.029	2.4545	0.1	2699.1
23015	13.752	2.3636	0.1	2941.
23016	13.844	2.4545	0.1	2874.4
23017	13.567	2.3636	0.1	3171.7
23018	13.659	2.4545	0.1	3089.4
23019	13.382	2.3636	0.1	3465.5
23020	13.475	2.4545	0.1	3358.2
23021	13.198	2.3636	0.1	3851.3
23022	13.29	2.4545	0.1	3700.9
23023	13.013	2.3636	0.1	4378.
23024	13.105	2.4545	0.1	4147.9
23025	12.828	2.3636	0.1	5126.2
23026	12.921	2.4545	0.1	4743.7
23027	12.644	2.3636	0.1	6180.
23028	12.736	2.4545	0.1	5543.7
23029	12.551	2.4545	0.1	6539.6
23030	12.459	2.3636	0.1	7252.7
23031	23.723	2.5455	0.1	59.058
23032	23.815	2.6364	0.1	39.656
23033	23.908	2.5455	0.1	22.335
23034	23.538	2.5455	0.1	97.966
23035	23.631	2.6364	0.1	78.54
23036	23.354	2.5455	0.1	136.78
23037	23.446	2.6364	0.1	117.44
23038	23.169	2.5455	0.1	175.46
23039	23.261	2.6364	0.1	156.18
23040	22.984	2.5455	0.1	214.05
23041	23.077	2.6364	0.1	194.83
23042	22.8	2.5455	0.1	252.59
23043	22.892	2.6364	0.1	233.39
23044	22.615	2.5455	0.1	291.12
23045	22.707	2.6364	0.1	271.93
23046	22.43	2.5455	0.1	329.67
23047	22.523	2.6364	0.1	310.47
23048	22.246	2.5455	0.1	368.29
23049	22.338	2.6364	0.1	349.04
23050	22.061	2.5455	0.1	406.99
23051	22.153	2.6364	0.1	387.7
23052	21.876	2.5455	0.1	445.81
23053	21.969	2.6364	0.1	426.45
23054	21.692	2.5455	0.1	484.76
23055	21.784	2.6364	0.1	465.32
23056	21.507	2.5455	0.1	523.87
23057	21.599	2.6364	0.1	504.34
23058	21.322	2.5455	0.1	563.14
23059	21.415	2.6364	0.1	543.51
23060	21.138	2.5455	0.1	602.58
23061	21.23	2.6364	0.1	582.85
23062	20.953	2.5455	0.1	642.2
23063	21.046	2.6364	0.1	622.37
23064	20.769	2.5455	0.1	682.02
23065	20.861	2.6364	0.1	662.07
23066	20.584	2.5455	0.1	722.02
23067	20.676	2.6364	0.1	701.97
23068	20.399	2.5455	0.1	762.22
23069	20.492	2.6364	0.1	742.06
23070	20.215	2.5455	0.1	802.62
23071	20.307	2.6364	0.1	782.34
23072	20.03	2.5455	0.1	843.22
23073	20.122	2.6364	0.1	822.83
23074	19.845	2.5455	0.1	884.02
23075	19.938	2.6364	0.1	863.52
23076	19.661	2.5455	0.1	925.02
23077	19.753	2.6364	0.1	904.41
23078	19.476	2.5455	0.1	966.23
23079	19.568	2.6364	0.1	945.5
23080	19.291	2.5455	0.1	1007.6
23081	19.384	2.6364	0.1	986.8
23082	19.107	2.5455	0.1	1049.3
23083	19.199	2.6364	0.1	1028.3
23084	18.922	2.5455	0.1	1091.1
23085	19.014	2.6364	0.1	1070.
23086	18.737	2.5455	0.1	1133.1
23087	18.83	2.6364	0.1	1111.9
23088	18.553	2.5455	0.1	1175.4
23089	18.645	2.6364	0.1	1154.1
23090	18.368	2.5455	0.1	1217.9
23091	18.46	2.6364	0.1	1196.5
23092	18.183	2.5455	0.1	1260.7
23093	18.276	2.6364	0.1	1239.1
23094	17.999	2.5455	0.1	1303.7
23095	18.091	2.6364	0.1	1282.
23096	17.814	2.5455	0.1	1347.
23097	17.906	2.6364	0.1	1325.2
23098	17.629	2.5455	0.1	1390.7
23099	17.722	2.6364	0.1	1368.6
23100	17.445	2.5455	0.1	1434.7
23101	17.537	2.6364	0.1	1412.5
23102	17.26	2.5455	0.1	1479.2
23103	17.352	2.6364	0.1	1456.7
23104	17.075	2.5455	0.1	1524.2
23105	17.168	2.6364	0.1	1501.5
23106	16.891	2.5455	0.1	1569.8
23107	16.983	2.6364	0.1	1546.8
23108	16.706	2.5455	0.1	1616.2
23109	16.798	2.6364	0.1	1592.8
23110	16.521	2.5455	0.1	1663.5
23111	16.614	2.6364	0.1	1639.7
23112	16.337	2.5455	0.1	1712.
23113	16.429	2.6364	0.1	1687.6
23114	16.152	2.5455	0.1	1761.9
23115	16.244	2.6364	0.1	1736.8
23116	15.967	2.5455	0.1	1813.6
23117	16.06	2.6364	0.1	1787.8
23118	15.783	2.5455	0.1	1867.6
23119	15.875	2.6364	0.1	1840.8
23120	15.598	2.5455	0.1	1924.5
23121	15.69	2.6364	0.1	1896.4
23122	15.413	2.5455	0.1	1985.2
23123	15.506	2.6364	0.1	1955.5
23124	15.229	2.5455	0.1	2050.6
23125	15.321	2.6364	0.1	2018.9
23126	15.044	2.5455	0.1	2122.
23127	15.137	2.6364	0.1	2087.8
23128	14.86	2.5455	0.1	2201.1
23129	14.952	2.6364	0.1	2163.8
23130	14.675	2.5455	0.1	2290.2
23131	14.767	2.6364	0.1	2248.9
23132	14.49	2.5455	0.1	2392.1
23133	14.583	2.6364	0.1	2345.7
23134	14.306	2.5455	0.1	2510.5
23135	14.398	2.6364	0.1	2457.5
23136	14.121	2.5455	0.1	2650.4
23137	14.213	2.6364	0.1	2588.8
23138	13.936	2.5455	0.1	2818.2
23139	14.029	2.6364	0.1	2745.4
23140	13.752	2.5455	0.1	3022.9
23141	13.844	2.6364	0.1	2934.8
23142	13.567	2.5455	0.1	3276.2
23143	13.659	2.6364	0.1	3167.1
23144	13.382	2.5455	0.1	3594.6
23145	13.475	2.6364	0.1	3455.3
23146	13.198	2.5455	0.1	4000.2
23147	13.29	2.6364	0.1	3816.
23148	13.013	2.5455	0.1	4519.8
23149	13.105	2.6364	0.1	4268.4
23150	12.828	2.5455	0.1	5173.8
23151	12.921	2.6364	0.1	4828.7
23152	12.644	2.5455	0.1	5917.2
23153	12.736	2.6364	0.1	5489.2
23154	12.551	2.6364	0.1	6152.6
23155	12.459	2.5455	0.1	6557.2
23156	23.723	2.7273	0.1	59.058
23157	23.815	2.8182	0.1	39.642
23158	23.908	2.7273	0.1	22.322
23159	23.538	2.7273	0.1	98.002
23160	23.631	2.8182	0.1	78.553
23161	23.354	2.7273	0.1	136.85
23162	23.446	2.8182	0.1	117.48
23163	23.169	2.7273	0.1	175.56
23164	23.261	2.8182	0.1	156.25
23165	22.984	2.7273	0.1	214.18
23166	23.077	2.8182	0.1	194.92
23167	22.8	2.7273	0.1	252.74
23168	22.892	2.8182	0.1	233.5
23169	22.615	2.7273	0.1	291.29
23170	22.707	2.8182	0.1	272.05
23171	22.43	2.7273	0.1	329.85
23172	22.523	2.8182	0.1	310.6
23173	22.246	2.7273	0.1	368.47
23174	22.338	2.8182	0.1	349.18
23175	22.061	2.7273	0.1	407.17
23176	22.153	2.8182	0.1	387.83
23177	21.876	2.7273	0.1	445.98
23178	21.969	2.8182	0.1	426.58
23179	21.692	2.7273	0.1	484.92
23180	21.784	2.8182	0.1	465.44
23181	21.507	2.7273	0.1	524.
23182	21.599	2.8182	0.1	504.45
23183	21.322	2.7273	0.1	563.25
23184	21.415	2.8182	0.1	543.6
23185	21.138	2.7273	0.1	602.66
23186	21.23	2.8182	0.1	582.92
23187	20.953	2.7273	0.1	642.26
23188	21.046	2.8182	0.1	622.42
23189	20.769	2.7273	0.1	682.05
23190	20.861	2.8182	0.1	662.11
23191	20.584	2.7273	0.1	722.03
23192	20.676	2.8182	0.1	701.98
23193	20.399	2.7273	0.1	762.2
23194	20.492	2.8182	0.1	742.05
23195	20.215	2.7273	0.1	802.58
23196	20.307	2.8182	0.1	782.32
23197	20.03	2.7273	0.1	843.15
23198	20.122	2.8182	0.1	822.79
23199	19.845	2.7273	0.1	883.93
23200	19.938	2.8182	0.1	863.46
23201	19.661	2.7273	0.1	924.9
23202	19.753	2.8182	0.1	904.33
23203	19.476	2.7273	0.1	966.09
23204	19.568	2.8182	0.1	945.4
23205	19.291	2.7273	0.1	1007.5
23206	19.384	2.8182	0.1	986.68
23207	19.107	2.7273	0.1	1049.1
23208	19.199	2.8182	0.1	1028.2
23209	18.922	2.7273	0.1	1090.9
23210	19.014	2.8182	0.1	1069.9
23211	18.737	2.7273	0.1	1132.9
23212	18.83	2.8182	0.1	1111.8
23213	18.553	2.7273	0.1	1175.2
23214	18.645	2.8182	0.1	1153.9
23215	18.368	2.7273	0.1	1217.7
23216	18.46	2.8182	0.1	1196.3
23217	18.183	2.7273	0.1	1260.4
23218	18.276	2.8182	0.1	1238.9
23219	17.999	2.7273	0.1	1303.4
23220	18.091	2.8182	0.1	1281.8
23221	17.814	2.7273	0.1	1346.8
23222	17.906	2.8182	0.1	1324.9
23223	17.629	2.7273	0.1	1390.4
23224	17.722	2.8182	0.1	1368.4
23225	17.445	2.7273	0.1	1434.5
23226	17.537	2.8182	0.1	1412.3
23227	17.26	2.7273	0.1	1479.
23228	17.352	2.8182	0.1	1456.6
23229	17.075	2.7273	0.1	1524.1
23230	17.168	2.8182	0.1	1501.3
23231	16.891	2.7273	0.1	1569.8
23232	16.983	2.8182	0.1	1546.7
23233	16.706	2.7273	0.1	1616.3
23234	16.798	2.8182	0.1	1592.8
23235	16.521	2.7273	0.1	1663.8
23236	16.614	2.8182	0.1	1639.8
23237	16.337	2.7273	0.1	1712.5
23238	16.429	2.8182	0.1	1687.9
23239	16.152	2.7273	0.1	1762.7
23240	16.244	2.8182	0.1	1737.3
23241	15.967	2.7273	0.1	1814.9
23242	16.06	2.8182	0.1	1788.6
23243	15.783	2.7273	0.1	1869.6
23244	15.875	2.8182	0.1	1842.
23245	15.598	2.7273	0.1	1927.4
23246	15.69	2.8182	0.1	1898.2
23247	15.413	2.7273	0.1	1989.2
23248	15.506	2.8182	0.1	1958.1
23249	15.229	2.7273	0.1	2056.2
23250	15.321	2.8182	0.1	2022.5
23251	15.044	2.7273	0.1	2129.7
23252	15.137	2.8182	0.1	2092.8
23253	14.86	2.7273	0.1	2211.6
23254	14.952	2.8182	0.1	2170.6
23255	14.675	2.7273	0.1	2304.4
23256	14.767	2.8182	0.1	2258.
23257	14.49	2.7273	0.1	2411.1
23258	14.583	2.8182	0.1	2358.
23259	14.306	2.7273	0.1	2535.9
23260	14.398	2.8182	0.1	2474.
23261	14.121	2.7273	0.1	2684.
23262	14.213	2.8182	0.1	2610.7
23263	13.936	2.7273	0.1	2862.3
23264	14.029	2.8182	0.1	2774.3
23265	13.752	2.7273	0.1	3079.6
23266	13.844	2.8182	0.1	2972.4
23267	13.567	2.7273	0.1	3347.3
23268	13.659	2.8182	0.1	3215.
23269	13.382	2.7273	0.1	3678.8
23270	13.475	2.8182	0.1	3513.9
23271	13.198	2.7273	0.1	4088.2
23272	13.29	2.8182	0.1	3882.
23273	13.013	2.7273	0.1	4584.
23274	13.105	2.8182	0.1	4329.6
23275	12.828	2.7273	0.1	5153.5
23276	12.921	2.8182	0.1	4854.7
23277	12.644	2.7273	0.1	5732.
23278	12.736	2.8182	0.1	5422.9
23279	12.551	2.8182	0.1	5940.6
23280	12.459	2.7273	0.1	6185.7
23281	23.723	2.9091	0.1	59.057
23282	23.815	3.	0.1	39.637
23283	23.908	2.9091	0.1	22.315
23284	23.538	2.9091	0.1	98.02
23285	23.631	3.	0.1	78.558
23286	23.354	2.9091	0.1	136.88
23287	23.446	3.	0.1	117.49
23288	23.169	2.9091	0.1	175.61
23289	23.261	3.	0.1	156.27
23290	22.984	2.9091	0.1	214.25
23291	23.077	3.	0.1	194.95
23292	22.8	2.9091	0.1	252.82
23293	22.892	3.	0.1	233.54
23294	22.615	2.9091	0.1	291.38
23295	22.707	3.	0.1	272.09
23296	22.43	2.9091	0.1	329.95
23297	22.523	3.	0.1	310.65
23298	22.246	2.9091	0.1	368.56
23299	22.338	3.	0.1	349.23
23300	22.061	2.9091	0.1	407.26
23301	22.153	3.	0.1	387.88
23302	21.876	2.9091	0.1	446.06
23303	21.969	3.	0.1	426.62
23304	21.692	2.9091	0.1	484.99
23305	21.784	3.	0.1	465.48
23306	21.507	2.9091	0.1	524.07
23307	21.599	3.	0.1	504.48
23308	21.322	2.9091	0.1	563.3
23309	21.415	3.	0.1	543.63
23310	21.138	2.9091	0.1	602.71
23311	21.23	3.	0.1	582.95
23312	20.953	2.9091	0.1	642.29
23313	21.046	3.	0.1	622.44
23314	20.769	2.9091	0.1	682.07
23315	20.861	3.	0.1	662.12
23316	20.584	2.9091	0.1	722.03
23317	20.676	3.	0.1	701.99
23318	20.399	2.9091	0.1	762.19
23319	20.492	3.	0.1	742.05
23320	20.215	2.9091	0.1	802.56
23321	20.307	3.	0.1	782.31
23322	20.03	2.9091	0.1	843.12
23323	20.122	3.	0.1	822.77
23324	19.845	2.9091	0.1	883.88
23325	19.938	3.	0.1	863.43
23326	19.661	2.9091	0.1	924.85
23327	19.753	3.	0.1	904.3
23328	19.476	2.9091	0.1	966.02
23329	19.568	3.	0.1	945.37
23330	19.291	2.9091	0.1	1007.4
23331	19.384	3.	0.1	986.64
23332	19.107	2.9091	0.1	1049.
23333	19.199	3.	0.1	1028.1
23334	18.922	2.9091	0.1	1090.8
23335	19.014	3.	0.1	1069.8
23336	18.737	2.9091	0.1	1132.8
23337	18.83	3.	0.1	1111.7
23338	18.553	2.9091	0.1	1175.1
23339	18.645	3.	0.1	1153.9
23340	18.368	2.9091	0.1	1217.5
23341	18.46	3.	0.1	1196.2
23342	18.183	2.9091	0.1	1260.3
23343	18.276	3.	0.1	1238.8
23344	17.999	2.9091	0.1	1303.3
23345	18.091	3.	0.1	1281.7
23346	17.814	2.9091	0.1	1346.6
23347	17.906	3.	0.1	1324.9
23348	17.629	2.9091	0.1	1390.3
23349	17.722	3.	0.1	1368.4
23350	17.445	2.9091	0.1	1434.4
23351	17.537	3.	0.1	1412.2
23352	17.26	2.9091	0.1	1478.9
23353	17.352	3.	0.1	1456.5
23354	17.075	2.9091	0.1	1524.
23355	17.168	3.	0.1	1501.3
23356	16.891	2.9091	0.1	1569.7
23357	16.983	3.	0.1	1546.7
23358	16.706	2.9091	0.1	1616.3
23359	16.798	3.	0.1	1592.8
23360	16.521	2.9091	0.1	1663.9
23361	16.614	3.	0.1	1639.8
23362	16.337	2.9091	0.1	1712.7
23363	16.429	3.	0.1	1688.
23364	16.152	2.9091	0.1	1763.2
23365	16.244	3.	0.1	1737.5
23366	15.967	2.9091	0.1	1815.6
23367	16.06	3.	0.1	1788.8
23368	15.783	2.9091	0.1	1870.6
23369	15.875	3.	0.1	1842.4
23370	15.598	2.9091	0.1	1928.9
23371	15.69	3.	0.1	1898.9
23372	15.413	2.9091	0.1	1991.3
23373	15.506	3.	0.1	1958.9
23374	15.229	2.9091	0.1	2059.1
23375	15.321	3.	0.1	2023.7
23376	15.044	2.9091	0.1	2133.6
23377	15.137	3.	0.1	2094.4
23378	14.86	2.9091	0.1	2217.
23379	14.952	3.	0.1	2172.9
23380	14.675	2.9091	0.1	2311.7
23381	14.767	3.	0.1	2261.1
23382	14.49	2.9091	0.1	2420.9
23383	14.583	3.	0.1	2362.2
23384	14.306	2.9091	0.1	2548.9
23385	14.398	3.	0.1	2479.6
23386	14.121	2.9091	0.1	2701.3
23387	14.213	3.	0.1	2618.2
23388	13.936	2.9091	0.1	2884.9
23389	14.029	3.	0.1	2784.1
23390	13.752	2.9091	0.1	3108.6
23391	13.844	3.	0.1	2985.2
23392	13.567	2.9091	0.1	3383.1
23393	13.659	3.	0.1	3231.1
23394	13.382	2.9091	0.1	3719.8
23395	13.475	3.	0.1	3533.3
23396	13.198	2.9091	0.1	4127.9
23397	13.29	3.	0.1	3903.3
23398	13.013	2.9091	0.1	4606.8
23399	13.105	3.	0.1	4347.9
23400	12.828	2.9091	0.1	5131.8
23401	12.921	3.	0.1	4859.4
23402	12.644	2.9091	0.1	5637.3
23403	12.736	3.	0.1	5397.1
23404	12.551	3.	0.1	5872.
23405	12.459	2.9091	0.1	6019.3
23406	23.723	3.0909	0.1	59.057
23407	23.815	3.1818	0.1	39.642
23408	23.908	3.0909	0.1	22.315
23409	23.538	3.0909	0.1	98.02
23410	23.631	3.1818	0.1	78.553
23411	23.354	3.0909	0.1	136.88
23412	23.446	3.1818	0.1	117.48
23413	23.169	3.0909	0.1	175.61
23414	23.261	3.1818	0.1	156.25
23415	22.984	3.0909	0.1	214.25
23416	23.077	3.1818	0.1	194.92
23417	22.8	3.0909	0.1	252.82
23418	22.892	3.1818	0.1	233.5
23419	22.615	3.0909	0.1	291.38
23420	22.707	3.1818	0.1	272.05
23421	22.43	3.0909	0.1	329.95
23422	22.523	3.1818	0.1	310.6
23423	22.246	3.0909	0.1	368.56
23424	22.338	3.1818	0.1	349.18
23425	22.061	3.0909	0.1	407.26
23426	22.153	3.1818	0.1	387.83
23427	21.876	3.0909	0.1	446.06
23428	21.969	3.1818	0.1	426.58
23429	21.692	3.0909	0.1	484.99
23430	21.784	3.1818	0.1	465.44
23431	21.507	3.0909	0.1	524.07
23432	21.599	3.1818	0.1	504.45
23433	21.322	3.0909	0.1	563.3
23434	21.415	3.1818	0.1	543.6
23435	21.138	3.0909	0.1	602.71
23436	21.23	3.1818	0.1	582.92
23437	20.953	3.0909	0.1	642.29
23438	21.046	3.1818	0.1	622.42
23439	20.769	3.0909	0.1	682.07
23440	20.861	3.1818	0.1	662.11
23441	20.584	3.0909	0.1	722.03
23442	20.676	3.1818	0.1	701.98
23443	20.399	3.0909	0.1	762.19
23444	20.492	3.1818	0.1	742.05
23445	20.215	3.0909	0.1	802.56
23446	20.307	3.1818	0.1	782.32
23447	20.03	3.0909	0.1	843.12
23448	20.122	3.1818	0.1	822.79
23449	19.845	3.0909	0.1	883.88
23450	19.938	3.1818	0.1	863.46
23451	19.661	3.0909	0.1	924.85
23452	19.753	3.1818	0.1	904.33
23453	19.476	3.0909	0.1	966.02
23454	19.568	3.1818	0.1	945.4
23455	19.291	3.0909	0.1	1007.4
23456	19.384	3.1818	0.1	986.68
23457	19.107	3.0909	0.1	1049.
23458	19.199	3.1818	0.1	1028.2
23459	18.922	3.0909	0.1	1090.8
23460	19.014	3.1818	0.1	1069.9
23461	18.737	3.0909	0.1	1132.8
23462	18.83	3.1818	0.1	1111.8
23463	18.553	3.0909	0.1	1175.1
23464	18.645	3.1818	0.1	1153.9
23465	18.368	3.0909	0.1	1217.5
23466	18.46	3.1818	0.1	1196.3
23467	18.183	3.0909	0.1	1260.3
23468	18.276	3.1818	0.1	1238.9
23469	17.999	3.0909	0.1	1303.3
23470	18.091	3.1818	0.1	1281.8
23471	17.814	3.0909	0.1	1346.6
23472	17.906	3.1818	0.1	1324.9
23473	17.629	3.0909	0.1	1390.3
23474	17.722	3.1818	0.1	1368.4
23475	17.445	3.0909	0.1	1434.4
23476	17.537	3.1818	0.1	1412.3
23477	17.26	3.0909	0.1	1478.9
23478	17.352	3.1818	0.1	1456.6
23479	17.075	3.0909	0.1	1524.
23480	17.168	3.1818	0.1	1501.3
23481	16.891	3.0909	0.1	1569.7
23482	16.983	3.1818	0.1	1546.7
23483	16.706	3.0909	0.1	1616.3
23484	16.798	3.1818	0.1	1592.8
23485	16.521	3.0909	0.1	1663.9
23486	16.614	3.1818	0.1	1639.8
23487	16.337	3.0909	0.1	1712.7
23488	16.429	3.1818	0.1	1687.9
23489	16.152	3.0909	0.1	1763.2
23490	16.244	3.1818	0.1	1737.3
23491	15.967	3.0909	0.1	1815.6
23492	16.06	3.1818	0.1	1788.6
23493	15.783	3.0909	0.1	1870.6
23494	15.875	3.1818	0.1	1842.
23495	15.598	3.0909	0.1	1928.9
23496	15.69	3.1818	0.1	1898.2
23497	15.413	3.0909	0.1	1991.3
23498	15.506	3.1818	0.1	1958.1
23499	15.229	3.0909	0.1	2059.1
23500	15.321	3.1818	0.1	2022.5
23501	15.044	3.0909	0.1	2133.6
23502	15.137	3.1818	0.1	2092.8
23503	14.86	3.0909	0.1	2217.
23504	14.952	3.1818	0.1	2170.6
23505	14.675	3.0909	0.1	2311.7
23506	14.767	3.1818	0.1	2258.
23507	14.49	3.0909	0.1	2420.9
23508	14.583	3.1818	0.1	2358.
23509	14.306	3.0909	0.1	2548.9
23510	14.398	3.1818	0.1	2474.
23511	14.121	3.0909	0.1	2701.3
23512	14.213	3.1818	0.1	2610.7
23513	13.936	3.0909	0.1	2884.9
23514	14.029	3.1818	0.1	2774.3
23515	13.752	3.0909	0.1	3108.6
23516	13.844	3.1818	0.1	2972.4
23517	13.567	3.0909	0.1	3383.1
23518	13.659	3.1818	0.1	3215.
23519	13.382	3.0909	0.1	3719.8
23520	13.475	3.1818	0.1	3513.9
23521	13.198	3.0909	0.1	4127.9
23522	13.29	3.1818	0.1	3882.
23523	13.013	3.0909	0.1	4606.8
23524	13.105	3.1818	0.1	4329.6
23525	12.828	3.0909	0.1	5131.8
23526	12.921	3.1818	0.1	4854.7
23527	12.644	3.0909	0.1	5637.3
23528	12.736	3.1818	0.1	5422.9
23529	12.551	3.1818	0.1	5940.6
23530	12.459	3.0909	0.1	6019.3
23531	23.723	3.2727	0.1	59.058
23532	23.815	3.3636	0.1	39.656
23533	23.908	3.2727	0.1	22.322
23534	23.538	3.2727	0.1	98.002
23535	23.631	3.3636	0.1	78.54
23536	23.354	3.2727	0.1	136.85
23537	23.446	3.3636	0.1	117.44
23538	23.169	3.2727	0.1	175.56
23539	23.261	3.3636	0.1	156.18
23540	22.984	3.2727	0.1	214.18
23541	23.077	3.3636	0.1	194.83
23542	22.8	3.2727	0.1	252.74
23543	22.892	3.3636	0.1	233.39
23544	22.615	3.2727	0.1	291.29
23545	22.707	3.3636	0.1	271.93
23546	22.43	3.2727	0.1	329.85
23547	22.523	3.3636	0.1	310.46
23548	22.246	3.2727	0.1	368.47
23549	22.338	3.3636	0.1	349.04
23550	22.061	3.2727	0.1	407.17
23551	22.153	3.3636	0.1	387.7
23552	21.876	3.2727	0.1	445.98
23553	21.969	3.3636	0.1	426.45
23554	21.692	3.2727	0.1	484.92
23555	21.784	3.3636	0.1	465.32
23556	21.507	3.2727	0.1	524.
23557	21.599	3.3636	0.1	504.34
23558	21.322	3.2727	0.1	563.25
23559	21.415	3.3636	0.1	543.51
23560	21.138	3.2727	0.1	602.66
23561	21.23	3.3636	0.1	582.85
23562	20.953	3.2727	0.1	642.26
23563	21.046	3.3636	0.1	622.37
23564	20.769	3.2727	0.1	682.05
23565	20.861	3.3636	0.1	662.07
23566	20.584	3.2727	0.1	722.03
23567	20.676	3.3636	0.1	701.97
23568	20.399	3.2727	0.1	762.2
23569	20.492	3.3636	0.1	742.06
23570	20.215	3.2727	0.1	802.58
23571	20.307	3.3636	0.1	782.34
23572	20.03	3.2727	0.1	843.15
23573	20.122	3.3636	0.1	822.83
23574	19.845	3.2727	0.1	883.93
23575	19.938	3.3636	0.1	863.52
23576	19.661	3.2727	0.1	924.9
23577	19.753	3.3636	0.1	904.41
23578	19.476	3.2727	0.1	966.09
23579	19.568	3.3636	0.1	945.5
23580	19.291	3.2727	0.1	1007.5
23581	19.384	3.3636	0.1	986.8
23582	19.107	3.2727	0.1	1049.1
23583	19.199	3.3636	0.1	1028.3
23584	18.922	3.2727	0.1	1090.9
23585	19.014	3.3636	0.1	1070.
23586	18.737	3.2727	0.1	1132.9
23587	18.83	3.3636	0.1	1111.9
23588	18.553	3.2727	0.1	1175.2
23589	18.645	3.3636	0.1	1154.1
23590	18.368	3.2727	0.1	1217.7
23591	18.46	3.3636	0.1	1196.5
23592	18.183	3.2727	0.1	1260.4
23593	18.276	3.3636	0.1	1239.1
23594	17.999	3.2727	0.1	1303.4
23595	18.091	3.3636	0.1	1282.
23596	17.814	3.2727	0.1	1346.8
23597	17.906	3.3636	0.1	1325.2
23598	17.629	3.2727	0.1	1390.4
23599	17.722	3.3636	0.1	1368.6
23600	17.445	3.2727	0.1	1434.5
23601	17.537	3.3636	0.1	1412.5
23602	17.26	3.2727	0.1	1479.
23603	17.352	3.3636	0.1	1456.7
23604	17.075	3.2727	0.1	1524.1
23605	17.168	3.3636	0.1	1501.5
23606	16.891	3.2727	0.1	1569.8
23607	16.983	3.3636	0.1	1546.8
23608	16.706	3.2727	0.1	1616.3
23609	16.798	3.3636	0.1	1592.8
23610	16.521	3.2727	0.1	1663.8
23611	16.614	3.3636	0.1	1639.7
23612	16.337	3.2727	0.1	1712.5
23613	16.429	3.3636	0.1	1687.6
23614	16.152	3.2727	0.1	1762.7
23615	16.244	3.3636	0.1	1736.8
23616	15.967	3.2727	0.1	1814.9
23617	16.06	3.3636	0.1	1787.8
23618	15.783	3.2727	0.1	1869.6
23619	15.875	3.3636	0.1	1840.8
23620	15.598	3.2727	0.1	1927.4
23621	15.69	3.3636	0.1	1896.4
23622	15.413	3.2727	0.1	1989.2
23623	15.506	3.3636	0.1	1955.5
23624	15.229	3.2727	0.1	2056.2
23625	15.321	3.3636	0.1	2018.9
23626	15.044	3.2727	0.1	2129.7
23627	15.137	3.3636	0.1	2087.8
23628	14.86	3.2727	0.1	2211.6
23629	14.952	3.3636	0.1	2163.8
23630	14.675	3.2727	0.1	2304.4
23631	14.767	3.3636	0.1	2248.9
23632	14.49	3.2727	0.1	2411.1
23633	14.583	3.3636	0.1	2345.7
23634	14.306	3.2727	0.1	2535.9
23635	14.398	3.3636	0.1	2457.5
23636	14.121	3.2727	0.1	2684.
23637	14.213	3.3636	0.1	2588.8
23638	13.936	3.2727	0.1	2862.3
23639	14.029	3.3636	0.1	2745.4
23640	13.752	3.2727	0.1	3079.6
23641	13.844	3.3636	0.1	2934.8
23642	13.567	3.2727	0.1	3347.3
23643	13.659	3.3636	0.1	3167.1
23644	13.382	3.2727	0.1	3678.8
23645	13.475	3.3636	0.1	3455.3
23646	13.198	3.2727	0.1	4088.2
23647	13.29	3.3636	0.1	3816.
23648	13.013	3.2727	0.1	4584.
23649	13.105	3.3636	0.1	4268.4
23650	12.828	3.2727	0.1	5153.5
23651	12.921	3.3636	0.1	4828.7
23652	12.644	3.2727	0.1	5732.
23653	12.736	3.3636	0.1	5489.2
23654	12.551	3.3636	0.1	6152.6
23655	12.459	3.2727	0.1	6185.7
23656	23.723	3.4545	0.1	59.058
23657	23.815	3.5455	0.1	39.678
23658	23.908	3.4545	0.1	22.335
23659	23.538	3.4545	0.1	97.966
23660	23.631	3.5455	0.1	78.515
23661	23.354	3.4545	0.1	136.78
23662	23.446	3.5455	0.1	117.37
23663	23.169	3.4545	0.1	175.46
23664	23.261	3.5455	0.1	156.07
23665	22.984	3.4545	0.1	214.05
23666	23.077	3.5455	0.1	194.67
23667	22.8	3.4545	0.1	252.59
23668	22.892	3.5455	0.1	233.2
23669	22.615	3.4545	0.1	291.12
23670	22.707	3.5455	0.1	271.71
23671	22.43	3.4545	0.1	329.67
23672	22.523	3.5455	0.1	310.24
23673	22.246	3.4545	0.1	368.29
23674	22.338	3.5455	0.1	348.81
23675	22.061	3.4545	0.1	406.99
23676	22.153	3.5455	0.1	387.47
23677	21.876	3.4545	0.1	445.81
23678	21.969	3.5455	0.1	426.23
23679	21.692	3.4545	0.1	484.76
23680	21.784	3.5455	0.1	465.12
23681	21.507	3.4545	0.1	523.87
23682	21.599	3.5455	0.1	504.16
23683	21.322	3.4545	0.1	563.14
23684	21.415	3.5455	0.1	543.36
23685	21.138	3.4545	0.1	602.58
23686	21.23	3.5455	0.1	582.73
23687	20.953	3.4545	0.1	642.2
23688	21.046	3.5455	0.1	622.28
23689	20.769	3.4545	0.1	682.02
23690	20.861	3.5455	0.1	662.02
23691	20.584	3.4545	0.1	722.02
23692	20.676	3.5455	0.1	701.94
23693	20.399	3.4545	0.1	762.22
23694	20.492	3.5455	0.1	742.07
23695	20.215	3.4545	0.1	802.62
23696	20.307	3.5455	0.1	782.39
23697	20.03	3.4545	0.1	843.22
23698	20.122	3.5455	0.1	822.9
23699	19.845	3.4545	0.1	884.02
23700	19.938	3.5455	0.1	863.62
23701	19.661	3.4545	0.1	925.02
23702	19.753	3.5455	0.1	904.54
23703	19.476	3.4545	0.1	966.23
23704	19.568	3.5455	0.1	945.66
23705	19.291	3.4545	0.1	1007.6
23706	19.384	3.5455	0.1	986.99
23707	19.107	3.4545	0.1	1049.3
23708	19.199	3.5455	0.1	1028.5
23709	18.922	3.4545	0.1	1091.1
23710	19.014	3.5455	0.1	1070.3
23711	18.737	3.4545	0.1	1133.1
23712	18.83	3.5455	0.1	1112.2
23713	18.553	3.4545	0.1	1175.4
23714	18.645	3.5455	0.1	1154.4
23715	18.368	3.4545	0.1	1217.9
23716	18.46	3.5455	0.1	1196.8
23717	18.183	3.4545	0.1	1260.7
23718	18.276	3.5455	0.1	1239.4
23719	17.999	3.4545	0.1	1303.7
23720	18.091	3.5455	0.1	1282.3
23721	17.814	3.4545	0.1	1347.
23722	17.906	3.5455	0.1	1325.5
23723	17.629	3.4545	0.1	1390.7
23724	17.722	3.5455	0.1	1369.
23725	17.445	3.4545	0.1	1434.7
23726	17.537	3.5455	0.1	1412.8
23727	17.26	3.4545	0.1	1479.2
23728	17.352	3.5455	0.1	1457.
23729	17.075	3.4545	0.1	1524.2
23730	17.168	3.5455	0.1	1501.7
23731	16.891	3.4545	0.1	1569.8
23732	16.983	3.5455	0.1	1546.9
23733	16.706	3.4545	0.1	1616.2
23734	16.798	3.5455	0.1	1592.8
23735	16.521	3.4545	0.1	1663.5
23736	16.614	3.5455	0.1	1639.5
23737	16.337	3.4545	0.1	1712.
23738	16.429	3.5455	0.1	1687.1
23739	16.152	3.4545	0.1	1761.9
23740	16.244	3.5455	0.1	1736.
23741	15.967	3.4545	0.1	1813.6
23742	16.06	3.5455	0.1	1786.4
23743	15.783	3.4545	0.1	1867.6
23744	15.875	3.5455	0.1	1838.8
23745	15.598	3.4545	0.1	1924.5
23746	15.69	3.5455	0.1	1893.5
23747	15.413	3.4545	0.1	1985.2
23748	15.506	3.5455	0.1	1951.4
23749	15.229	3.4545	0.1	2050.6
23750	15.321	3.5455	0.1	2013.1
23751	15.044	3.4545	0.1	2122.
23752	15.137	3.5455	0.1	2079.9
23753	14.86	3.4545	0.1	2201.1
23754	14.952	3.5455	0.1	2153.
23755	14.675	3.4545	0.1	2290.2
23756	14.767	3.5455	0.1	2234.2
23757	14.49	3.4545	0.1	2392.1
23758	14.583	3.5455	0.1	2325.9
23759	14.306	3.4545	0.1	2510.5
23760	14.398	3.5455	0.1	2431.1
23761	14.121	3.4545	0.1	2650.4
23762	14.213	3.5455	0.1	2553.7
23763	13.936	3.4545	0.1	2818.2
23764	14.029	3.5455	0.1	2699.1
23765	13.752	3.4545	0.1	3022.9
23766	13.844	3.5455	0.1	2874.4
23767	13.567	3.4545	0.1	3276.2
23768	13.659	3.5455	0.1	3089.4
23769	13.382	3.4545	0.1	3594.6
23770	13.475	3.5455	0.1	3358.2
23771	13.198	3.4545	0.1	4000.2
23772	13.29	3.5455	0.1	3700.9
23773	13.013	3.4545	0.1	4519.8
23774	13.105	3.5455	0.1	4147.9
23775	12.828	3.4545	0.1	5173.8
23776	12.921	3.5455	0.1	4743.7
23777	12.644	3.4545	0.1	5917.2
23778	12.736	3.5455	0.1	5543.7
23779	12.551	3.5455	0.1	6539.6
23780	12.459	3.4545	0.1	6557.2
23781	23.723	3.6364	0.1	59.056
23782	23.815	3.7273	0.1	39.707
23783	23.908	3.6364	0.1	22.355
23784	23.538	3.6364	0.1	97.907
23785	23.631	3.7273	0.1	78.476
23786	23.354	3.6364	0.1	136.66
23787	23.446	3.7273	0.1	117.26
23788	23.169	3.6364	0.1	175.29
23789	23.261	3.7273	0.1	155.9
23790	22.984	3.6364	0.1	213.84
23791	23.077	3.7273	0.1	194.44
23792	22.8	3.6364	0.1	252.34
23793	22.892	3.7273	0.1	232.93
23794	22.615	3.6364	0.1	290.85
23795	22.707	3.7273	0.1	271.41
23796	22.43	3.6364	0.1	329.39
23797	22.523	3.7273	0.1	309.91
23798	22.246	3.6364	0.1	368.01
23799	22.338	3.7273	0.1	348.48
23800	22.061	3.6364	0.1	406.72
23801	22.153	3.7273	0.1	387.15
23802	21.876	3.6364	0.1	445.56
23803	21.969	3.7273	0.1	425.93
23804	21.692	3.6364	0.1	484.54
23805	21.784	3.7273	0.1	464.85
23806	21.507	3.6364	0.1	523.67
23807	21.599	3.7273	0.1	503.92
23808	21.322	3.6364	0.1	562.98
23809	21.415	3.7273	0.1	543.16
23810	21.138	3.6364	0.1	602.46
23811	21.23	3.7273	0.1	582.57
23812	20.953	3.6364	0.1	642.12
23813	21.046	3.7273	0.1	622.16
23814	20.769	3.6364	0.1	681.97
23815	20.861	3.7273	0.1	661.95
23816	20.584	3.6364	0.1	722.02
23817	20.676	3.7273	0.1	701.92
23818	20.399	3.6364	0.1	762.26
23819	20.492	3.7273	0.1	742.09
23820	20.215	3.6364	0.1	802.69
23821	20.307	3.7273	0.1	782.45
23822	20.03	3.6364	0.1	843.33
23823	20.122	3.7273	0.1	823.02
23824	19.845	3.6364	0.1	884.17
23825	19.938	3.7273	0.1	863.78
23826	19.661	3.6364	0.1	925.21
23827	19.753	3.7273	0.1	904.74
23828	19.476	3.6364	0.1	966.45
23829	19.568	3.7273	0.1	945.9
23830	19.291	3.6364	0.1	1007.9
23831	19.384	3.7273	0.1	987.27
23832	19.107	3.6364	0.1	1049.5
23833	19.199	3.7273	0.1	1028.8
23834	18.922	3.6364	0.1	1091.4
23835	19.014	3.7273	0.1	1070.6
23836	18.737	3.6364	0.1	1133.5
23837	18.83	3.7273	0.1	1112.6
23838	18.553	3.6364	0.1	1175.8
23839	18.645	3.7273	0.1	1154.8
23840	18.368	3.6364	0.1	1218.3
23841	18.46	3.7273	0.1	1197.2
23842	18.183	3.6364	0.1	1261.1
23843	18.276	3.7273	0.1	1239.9
23844	17.999	3.6364	0.1	1304.1
23845	18.091	3.7273	0.1	1282.8
23846	17.814	3.6364	0.1	1347.5
23847	17.906	3.7273	0.1	1326.
23848	17.629	3.6364	0.1	1391.1
23849	17.722	3.7273	0.1	1369.5
23850	17.445	3.6364	0.1	1435.1
23851	17.537	3.7273	0.1	1413.3
23852	17.26	3.6364	0.1	1479.5
23853	17.352	3.7273	0.1	1457.4
23854	17.075	3.6364	0.1	1524.4
23855	17.168	3.7273	0.1	1502.
23856	16.891	3.6364	0.1	1569.9
23857	16.983	3.7273	0.1	1547.1
23858	16.706	3.6364	0.1	1616.1
23859	16.798	3.7273	0.1	1592.8
23860	16.521	3.6364	0.1	1663.1
23861	16.614	3.7273	0.1	1639.2
23862	16.337	3.6364	0.1	1711.2
23863	16.429	3.7273	0.1	1686.5
23864	16.152	3.6364	0.1	1760.6
23865	16.244	3.7273	0.1	1734.9
23866	15.967	3.6364	0.1	1811.6
23867	16.06	3.7273	0.1	1784.7
23868	15.783	3.6364	0.1	1864.7
23869	15.875	3.7273	0.1	1836.1
23870	15.598	3.6364	0.1	1920.4
23871	15.69	3.7273	0.1	1889.6
23872	15.413	3.6364	0.1	1979.3
23873	15.506	3.7273	0.1	1945.8
23874	15.229	3.6364	0.1	2042.4
23875	15.321	3.7273	0.1	2005.4
23876	15.044	3.6364	0.1	2110.8
23877	15.137	3.7273	0.1	2069.2
23878	14.86	3.6364	0.1	2186.
23879	14.952	3.7273	0.1	2138.4
23880	14.675	3.6364	0.1	2269.9
23881	14.767	3.7273	0.1	2214.6
23882	14.49	3.6364	0.1	2364.9
23883	14.583	3.7273	0.1	2299.7
23884	14.306	3.6364	0.1	2474.3
23885	14.398	3.7273	0.1	2396.1
23886	14.121	3.6364	0.1	2602.4
23887	14.213	3.7273	0.1	2507.3
23888	13.936	3.6364	0.1	2755.2
23889	14.029	3.7273	0.1	2637.9
23890	13.752	3.6364	0.1	2941.
23891	13.844	3.7273	0.1	2794.2
23892	13.567	3.6364	0.1	3171.7
23893	13.659	3.7273	0.1	2985.4
23894	13.382	3.6364	0.1	3465.5
23895	13.475	3.7273	0.1	3225.1
23896	13.198	3.6364	0.1	3851.3
23897	13.29	3.7273	0.1	3535.1
23898	13.013	3.6364	0.1	4378.
23899	13.105	3.7273	0.1	3952.
23900	12.828	3.6364	0.1	5126.2
23901	12.921	3.7273	0.1	4544.8
23902	12.644	3.6364	0.1	6180.
23903	12.736	3.7273	0.1	5456.8
23904	12.551	3.7273	0.1	6968.6
23905	12.459	3.6364	0.1	7252.7
23906	23.723	3.8182	0.1	59.05
23907	23.815	3.9091	0.1	39.742
23908	23.908	3.8182	0.1	22.38
23909	23.538	3.8182	0.1	97.822
23910	23.631	3.9091	0.1	78.418
23911	23.354	3.8182	0.1	136.5
23912	23.446	3.9091	0.1	117.11
23913	23.169	3.8182	0.1	175.06
23914	23.261	3.9091	0.1	155.67
23915	22.984	3.8182	0.1	213.55
23916	23.077	3.9091	0.1	194.14
23917	22.8	3.8182	0.1	252.01
23918	22.892	3.9091	0.1	232.57
23919	22.615	3.8182	0.1	290.49
23920	22.707	3.9091	0.1	271.
23921	22.43	3.8182	0.1	329.02
23922	22.523	3.9091	0.1	309.49
23923	22.246	3.8182	0.1	367.64
23924	22.338	3.9091	0.1	348.06
23925	22.061	3.8182	0.1	406.37
23926	22.153	3.9091	0.1	386.74
23927	21.876	3.8182	0.1	445.24
23928	21.969	3.9091	0.1	425.55
23929	21.692	3.8182	0.1	484.25
23930	21.784	3.9091	0.1	464.5
23931	21.507	3.8182	0.1	523.43
23932	21.599	3.9091	0.1	503.62
23933	21.322	3.8182	0.1	562.78
23934	21.415	3.9091	0.1	542.91
23935	21.138	3.8182	0.1	602.3
23936	21.23	3.9091	0.1	582.38
23937	20.953	3.8182	0.1	642.02
23938	21.046	3.9091	0.1	622.03
23939	20.769	3.8182	0.1	681.92
23940	20.861	3.9091	0.1	661.87
23941	20.584	3.8182	0.1	722.02
23942	20.676	3.9091	0.1	701.91
23943	20.399	3.8182	0.1	762.31
23944	20.492	3.9091	0.1	742.13
23945	20.215	3.8182	0.1	802.8
23946	20.307	3.9091	0.1	782.55
23947	20.03	3.8182	0.1	843.49
23948	20.122	3.9091	0.1	823.17
23949	19.845	3.8182	0.1	884.37
23950	19.938	3.9091	0.1	863.99
23951	19.661	3.8182	0.1	925.46
23952	19.753	3.9091	0.1	905.
23953	19.476	3.8182	0.1	966.74
23954	19.568	3.9091	0.1	946.21
23955	19.291	3.8182	0.1	1008.2
23956	19.384	3.9091	0.1	987.63
23957	19.107	3.8182	0.1	1049.9
23958	19.199	3.9091	0.1	1029.2
23959	18.922	3.8182	0.1	1091.8
23960	19.014	3.9091	0.1	1071.1
23961	18.737	3.8182	0.1	1133.9
23962	18.83	3.9091	0.1	1113.1
23963	18.553	3.8182	0.1	1176.3
23964	18.645	3.9091	0.1	1155.3
23965	18.368	3.8182	0.1	1218.8
23966	18.46	3.9091	0.1	1197.8
23967	18.183	3.8182	0.1	1261.6
23968	18.276	3.9091	0.1	1240.5
23969	17.999	3.8182	0.1	1304.7
23970	18.091	3.9091	0.1	1283.4
23971	17.814	3.8182	0.1	1348.
23972	17.906	3.9091	0.1	1326.6
23973	17.629	3.8182	0.1	1391.6
23974	17.722	3.9091	0.1	1370.1
23975	17.445	3.8182	0.1	1435.6
23976	17.537	3.9091	0.1	1413.8
23977	17.26	3.8182	0.1	1479.9
23978	17.352	3.9091	0.1	1457.9
23979	17.075	3.8182	0.1	1524.7
23980	17.168	3.9091	0.1	1502.4
23981	16.891	3.8182	0.1	1570.
23982	16.983	3.9091	0.1	1547.4
23983	16.706	3.8182	0.1	1616.
23984	16.798	3.9091	0.1	1592.9
23985	16.521	3.8182	0.1	1662.7
23986	16.614	3.9091	0.1	1639.
23987	16.337	3.8182	0.1	1710.3
23988	16.429	3.9091	0.1	1685.8
23989	16.152	3.8182	0.1	1759.
23990	16.244	3.9091	0.1	1733.6
23991	15.967	3.8182	0.1	1809.1
23992	16.06	3.9091	0.1	1782.5
23993	15.783	3.8182	0.1	1861.
23994	15.875	3.9091	0.1	1832.8
23995	15.598	3.8182	0.1	1915.
23996	15.69	3.9091	0.1	1884.8
23997	15.413	3.8182	0.1	1971.9
23998	15.506	3.9091	0.1	1939.
23999	15.229	3.8182	0.1	2032.1
24000	15.321	3.9091	0.1	1995.9
24001	15.044	3.8182	0.1	2096.8
24002	15.137	3.9091	0.1	2056.3
24003	14.86	3.8182	0.1	2167.
24004	14.952	3.9091	0.1	2120.9
24005	14.675	3.8182	0.1	2244.4
24006	14.767	3.9091	0.1	2191.
24007	14.49	3.8182	0.1	2330.8
24008	14.583	3.9091	0.1	2268.2
24009	14.306	3.8182	0.1	2429.1
24010	14.398	3.9091	0.1	2354.2
24011	14.121	3.8182	0.1	2542.7
24012	14.213	3.9091	0.1	2452.
24013	13.936	3.8182	0.1	2676.7
24014	14.029	3.9091	0.1	2565.
24015	13.752	3.8182	0.1	2838.3
24016	13.844	3.9091	0.1	2698.7
24017	13.567	3.8182	0.1	3038.5
24018	13.659	3.9091	0.1	2860.6
24019	13.382	3.8182	0.1	3294.6
24020	13.475	3.9091	0.1	3062.6
24021	13.198	3.8182	0.1	3636.5
24022	13.29	3.9091	0.1	3324.4
24023	13.013	3.8182	0.1	4122.3
24024	13.105	3.9091	0.1	3680.6
24025	12.828	3.8182	0.1	4888.4
24026	12.921	3.9091	0.1	4203.2
24027	12.644	3.8182	0.1	6279.4
24028	12.736	3.9091	0.1	5050.3
24029	12.551	3.9091	0.1	7016.9
24030	12.459	3.8182	0.1	8416.7
24031	23.723	4.	0.1	59.034
24032	23.815	4.0909	0.1	39.779
24033	23.908	4.	0.1	22.409
24034	23.538	4.	0.1	97.703
24035	23.631	4.0909	0.1	78.333
24036	23.354	4.	0.1	136.28
24037	23.446	4.0909	0.1	116.91
24038	23.169	4.	0.1	174.75
24039	23.261	4.0909	0.1	155.36
24040	22.984	4.	0.1	213.17
24041	23.077	4.0909	0.1	193.74
24042	22.8	4.	0.1	251.58
24043	22.892	4.0909	0.1	232.1
24044	22.615	4.	0.1	290.03
24045	22.707	4.0909	0.1	270.5
24046	22.43	4.	0.1	328.55
24047	22.523	4.0909	0.1	308.97
24048	22.246	4.	0.1	367.18
24049	22.338	4.0909	0.1	347.54
24050	22.061	4.	0.1	405.93
24051	22.153	4.0909	0.1	386.24
24052	21.876	4.	0.1	444.84
24053	21.969	4.0909	0.1	425.09
24054	21.692	4.	0.1	483.9
24055	21.784	4.0909	0.1	464.1
24056	21.507	4.	0.1	523.13
24057	21.599	4.0909	0.1	503.28
24058	21.322	4.	0.1	562.54
24059	21.415	4.0909	0.1	542.63
24060	21.138	4.	0.1	602.14
24061	21.23	4.0909	0.1	582.17
24062	20.953	4.	0.1	641.91
24063	21.046	4.0909	0.1	621.9
24064	20.769	4.	0.1	681.88
24065	20.861	4.0909	0.1	661.81
24066	20.584	4.	0.1	722.05
24067	20.676	4.0909	0.1	701.91
24068	20.399	4.	0.1	762.4
24069	20.492	4.0909	0.1	742.21
24070	20.215	4.	0.1	802.95
24071	20.307	4.0909	0.1	782.7
24072	20.03	4.	0.1	843.7
24073	20.122	4.0909	0.1	823.38
24074	19.845	4.	0.1	884.64
24075	19.938	4.0909	0.1	864.26
24076	19.661	4.	0.1	925.78
24077	19.753	4.0909	0.1	905.34
24078	19.476	4.	0.1	967.12
24079	19.568	4.0909	0.1	946.61
24080	19.291	4.	0.1	1008.7
24081	19.384	4.0909	0.1	988.08
24082	19.107	4.	0.1	1050.4
24083	19.199	4.0909	0.1	1029.8
24084	18.922	4.	0.1	1092.4
24085	19.014	4.0909	0.1	1071.6
24086	18.737	4.	0.1	1134.5
24087	18.83	4.0909	0.1	1113.7
24088	18.553	4.	0.1	1176.9
24089	18.645	4.0909	0.1	1156.
24090	18.368	4.	0.1	1219.5
24091	18.46	4.0909	0.1	1198.5
24092	18.183	4.	0.1	1262.3
24093	18.276	4.0909	0.1	1241.2
24094	17.999	4.	0.1	1305.4
24095	18.091	4.0909	0.1	1284.2
24096	17.814	4.	0.1	1348.7
24097	17.906	4.0909	0.1	1327.3
24098	17.629	4.	0.1	1392.3
24099	17.722	4.0909	0.1	1370.8
24100	17.445	4.	0.1	1436.2
24101	17.537	4.0909	0.1	1414.5
24102	17.26	4.	0.1	1480.5
24103	17.352	4.0909	0.1	1458.6
24104	17.075	4.	0.1	1525.1
24105	17.168	4.0909	0.1	1502.9
24106	16.891	4.	0.1	1570.2
24107	16.983	4.0909	0.1	1547.7
24108	16.706	4.	0.1	1615.8
24109	16.798	4.0909	0.1	1592.9
24110	16.521	4.	0.1	1662.1
24111	16.614	4.0909	0.1	1638.7
24112	16.337	4.	0.1	1709.1
24113	16.429	4.0909	0.1	1685.
24114	16.152	4.	0.1	1757.1
24115	16.244	4.0909	0.1	1732.1
24116	15.967	4.	0.1	1806.2
24117	16.06	4.0909	0.1	1780.
24118	15.783	4.	0.1	1856.6
24119	15.875	4.0909	0.1	1829.
24120	15.598	4.	0.1	1908.8
24121	15.69	4.0909	0.1	1879.4
24122	15.413	4.	0.1	1963.1
24123	15.506	4.0909	0.1	1931.3
24124	15.229	4.	0.1	2020.1
24125	15.321	4.0909	0.1	1985.2
24126	15.044	4.	0.1	2080.4
24127	15.137	4.0909	0.1	2041.6
24128	14.86	4.	0.1	2144.9
24129	14.952	4.0909	0.1	2101.1
24130	14.675	4.	0.1	2214.8
24131	14.767	4.0909	0.1	2164.5
24132	14.49	4.	0.1	2291.5
24133	14.583	4.0909	0.1	2232.7
24134	14.306	4.	0.1	2377.
24135	14.398	4.0909	0.1	2307.4
24136	14.121	4.	0.1	2474.1
24137	14.213	4.0909	0.1	2390.2
24138	13.936	4.	0.1	2586.6
24139	14.029	4.0909	0.1	2483.9
24140	13.752	4.	0.1	2720.2
24141	13.844	4.0909	0.1	2592.3
24142	13.567	4.	0.1	2883.7
24143	13.659	4.0909	0.1	2721.3
24144	13.382	4.	0.1	3091.1
24145	13.475	4.0909	0.1	2879.7
24146	13.198	4.	0.1	3367.
24147	13.29	4.0909	0.1	3082.2
24148	13.013	4.	0.1	3761.1
24149	13.105	4.0909	0.1	3354.1
24150	12.828	4.	0.1	4370.6
24151	12.921	4.0909	0.1	3746.1
24152	12.644	4.	0.1	5838.5
24153	12.736	4.0909	0.1	4355.8
24154	12.551	4.0909	0.1	5924.6
24155	12.459	4.	0.1	10479
24156	23.723	4.1818	0.1	59.005
24157	23.815	4.2727	0.1	39.815
24158	23.908	4.1818	0.1	22.44
24159	23.538	4.1818	0.1	97.539
24160	23.631	4.2727	0.1	78.213
24161	23.354	4.1818	0.1	136.
24162	23.446	4.2727	0.1	116.65
24163	23.169	4.1818	0.1	174.36
24164	23.261	4.2727	0.1	154.96
24165	22.984	4.1818	0.1	212.69
24166	23.077	4.2727	0.1	193.24
24167	22.8	4.1818	0.1	251.04
24168	22.892	4.2727	0.1	231.53
24169	22.615	4.1818	0.1	289.46
24170	22.707	4.2727	0.1	269.88
24171	22.43	4.1818	0.1	327.98
24172	22.523	4.2727	0.1	308.34
24173	22.246	4.1818	0.1	366.63
24174	22.338	4.2727	0.1	346.93
24175	22.061	4.1818	0.1	405.42
24176	22.153	4.2727	0.1	385.67
24177	21.876	4.1818	0.1	444.38
24178	21.969	4.2727	0.1	424.57
24179	21.692	4.1818	0.1	483.51
24180	21.784	4.2727	0.1	463.65
24181	21.507	4.1818	0.1	522.81
24182	21.599	4.2727	0.1	502.91
24183	21.322	4.1818	0.1	562.29
24184	21.415	4.2727	0.1	542.34
24185	21.138	4.1818	0.1	601.96
24186	21.23	4.2727	0.1	581.96
24187	20.953	4.1818	0.1	641.82
24188	21.046	4.2727	0.1	621.77
24189	20.769	4.1818	0.1	681.87
24190	20.861	4.2727	0.1	661.77
24191	20.584	4.1818	0.1	722.1
24192	20.676	4.2727	0.1	701.96
24193	20.399	4.1818	0.1	762.53
24194	20.492	4.2727	0.1	742.33
24195	20.215	4.1818	0.1	803.16
24196	20.307	4.2727	0.1	782.9
24197	20.03	4.1818	0.1	843.97
24198	20.122	4.2727	0.1	823.66
24199	19.845	4.1818	0.1	884.99
24200	19.938	4.2727	0.1	864.61
24201	19.661	4.1818	0.1	926.19
24202	19.753	4.2727	0.1	905.76
24203	19.476	4.1818	0.1	967.6
24204	19.568	4.2727	0.1	947.1
24205	19.291	4.1818	0.1	1009.2
24206	19.384	4.2727	0.1	988.64
24207	19.107	4.1818	0.1	1051.
24208	19.199	4.2727	0.1	1030.4
24209	18.922	4.1818	0.1	1093.
24210	19.014	4.2727	0.1	1072.3
24211	18.737	4.1818	0.1	1135.2
24212	18.83	4.2727	0.1	1114.4
24213	18.553	4.1818	0.1	1177.6
24214	18.645	4.2727	0.1	1156.8
24215	18.368	4.1818	0.1	1220.2
24216	18.46	4.2727	0.1	1199.3
24217	18.183	4.1818	0.1	1263.1
24218	18.276	4.2727	0.1	1242.1
24219	17.999	4.1818	0.1	1306.2
24220	18.091	4.2727	0.1	1285.
24221	17.814	4.1818	0.1	1349.5
24222	17.906	4.2727	0.1	1328.2
24223	17.629	4.1818	0.1	1393.1
24224	17.722	4.2727	0.1	1371.7
24225	17.445	4.1818	0.1	1436.9
24226	17.537	4.2727	0.1	1415.4
24227	17.26	4.1818	0.1	1481.1
24228	17.352	4.2727	0.1	1459.3
24229	17.075	4.1818	0.1	1525.6
24230	17.168	4.2727	0.1	1503.6
24231	16.891	4.1818	0.1	1570.4
24232	16.983	4.2727	0.1	1548.1
24233	16.706	4.1818	0.1	1615.7
24234	16.798	4.2727	0.1	1593.1
24235	16.521	4.1818	0.1	1661.5
24236	16.614	4.2727	0.1	1638.4
24237	16.337	4.1818	0.1	1707.9
24238	16.429	4.2727	0.1	1684.1
24239	16.152	4.1818	0.1	1755.
24240	16.244	4.2727	0.1	1730.4
24241	15.967	4.1818	0.1	1802.9
24242	16.06	4.2727	0.1	1777.4
24243	15.783	4.1818	0.1	1851.8
24244	15.875	4.2727	0.1	1825.
24245	15.598	4.1818	0.1	1901.9
24246	15.69	4.2727	0.1	1873.4
24247	15.413	4.1818	0.1	1953.4
24248	15.506	4.2727	0.1	1922.9
24249	15.229	4.1818	0.1	2006.7
24250	15.321	4.2727	0.1	1973.6
24251	15.044	4.1818	0.1	2062.3
24252	15.137	4.2727	0.1	2025.7
24253	14.86	4.1818	0.1	2120.6
24254	14.952	4.2727	0.1	2079.7
24255	14.675	4.1818	0.1	2182.4
24256	14.767	4.2727	0.1	2135.8
24257	14.49	4.1818	0.1	2248.5
24258	14.583	4.2727	0.1	2194.8
24259	14.306	4.1818	0.1	2320.3
24260	14.398	4.2727	0.1	2257.3
24261	14.121	4.1818	0.1	2399.6
24262	14.213	4.2727	0.1	2324.4
24263	13.936	4.1818	0.1	2489.
24264	14.029	4.2727	0.1	2397.8
24265	13.752	4.1818	0.1	2592.3
24266	13.844	4.2727	0.1	2479.7
24267	13.567	4.1818	0.1	2715.7
24268	13.659	4.2727	0.1	2573.9
24269	13.382	4.1818	0.1	2868.4
24270	13.475	4.2727	0.1	2686.
24271	13.198	4.1818	0.1	3066.
24272	13.29	4.2727	0.1	2824.7
24273	13.013	4.1818	0.1	3335.1
24274	13.105	4.2727	0.1	3003.6
24275	12.828	4.1818	0.1	3729.2
24276	12.921	4.2727	0.1	3243.
24277	12.644	4.1818	0.1	4454.8
24278	12.736	4.2727	0.1	3579.8
24279	12.551	4.2727	0.1	4193.1
24280	12.459	4.1818	0.1	3890.7
24281	23.723	4.3636	0.1	58.952
24282	23.815	4.4545	0.1	39.841
24283	23.908	4.3636	0.1	22.47
24284	23.538	4.3636	0.1	97.317
24285	23.631	4.4545	0.1	78.041
24286	23.354	4.3636	0.1	135.62
24287	23.446	4.4545	0.1	116.3
24288	23.169	4.3636	0.1	173.86
24289	23.261	4.4545	0.1	154.45
24290	22.984	4.3636	0.1	212.09
24291	23.077	4.4545	0.1	192.61
24292	22.8	4.3636	0.1	250.39
24293	22.892	4.4545	0.1	230.83
24294	22.615	4.3636	0.1	288.79
24295	22.707	4.4545	0.1	269.15
24296	22.43	4.3636	0.1	327.32
24297	22.523	4.4545	0.1	307.61
24298	22.246	4.3636	0.1	366.
24299	22.338	4.4545	0.1	346.24
24300	22.061	4.3636	0.1	404.85
24301	22.153	4.4545	0.1	385.04
24302	21.876	4.3636	0.1	443.88
24303	21.969	4.4545	0.1	424.02
24304	21.692	4.3636	0.1	483.08
24305	21.784	4.4545	0.1	463.18
24306	21.507	4.3636	0.1	522.47
24307	21.599	4.4545	0.1	502.53
24308	21.322	4.3636	0.1	562.05
24309	21.415	4.4545	0.1	542.06
24310	21.138	4.3636	0.1	601.81
24311	21.23	4.4545	0.1	581.78
24312	20.953	4.3636	0.1	641.75
24313	21.046	4.4545	0.1	621.68
24314	20.769	4.3636	0.1	681.89
24315	20.861	4.4545	0.1	661.78
24316	20.584	4.3636	0.1	722.21
24317	20.676	4.4545	0.1	702.05
24318	20.399	4.3636	0.1	762.73
24319	20.492	4.4545	0.1	742.52
24320	20.215	4.3636	0.1	803.43
24321	20.307	4.4545	0.1	783.18
24322	20.03	4.3636	0.1	844.33
24323	20.122	4.4545	0.1	824.02
24324	19.845	4.3636	0.1	885.42
24325	19.938	4.4545	0.1	865.05
24326	19.661	4.3636	0.1	926.7
24327	19.753	4.4545	0.1	906.28
24328	19.476	4.3636	0.1	968.17
24329	19.568	4.4545	0.1	947.69
24330	19.291	4.3636	0.1	1009.8
24331	19.384	4.4545	0.1	989.3
24332	19.107	4.3636	0.1	1051.7
24333	19.199	4.4545	0.1	1031.1
24334	18.922	4.3636	0.1	1093.8
24335	19.014	4.4545	0.1	1073.1
24336	18.737	4.3636	0.1	1136.
24337	18.83	4.4545	0.1	1115.3
24338	18.553	4.3636	0.1	1178.5
24339	18.645	4.4545	0.1	1157.7
24340	18.368	4.3636	0.1	1221.1
24341	18.46	4.4545	0.1	1200.3
24342	18.183	4.3636	0.1	1264.
24343	18.276	4.4545	0.1	1243.1
24344	17.999	4.3636	0.1	1307.1
24345	18.091	4.4545	0.1	1286.
24346	17.814	4.3636	0.1	1350.4
24347	17.906	4.4545	0.1	1329.3
24348	17.629	4.3636	0.1	1394.
24349	17.722	4.4545	0.1	1372.7
24350	17.445	4.3636	0.1	1437.8
24351	17.537	4.4545	0.1	1416.3
24352	17.26	4.3636	0.1	1481.8
24353	17.352	4.4545	0.1	1460.2
24354	17.075	4.3636	0.1	1526.1
24355	17.168	4.4545	0.1	1504.3
24356	16.891	4.3636	0.1	1570.8
24357	16.983	4.4545	0.1	1548.6
24358	16.706	4.3636	0.1	1615.7
24359	16.798	4.4545	0.1	1593.3
24360	16.521	4.3636	0.1	1661.
24361	16.614	4.4545	0.1	1638.1
24362	16.337	4.3636	0.1	1706.7
24363	16.429	4.4545	0.1	1683.3
24364	16.152	4.3636	0.1	1752.8
24365	16.244	4.4545	0.1	1728.8
24366	15.967	4.3636	0.1	1799.4
24367	16.06	4.4545	0.1	1774.6
24368	15.783	4.3636	0.1	1846.6
24369	15.875	4.4545	0.1	1820.7
24370	15.598	4.3636	0.1	1894.5
24371	15.69	4.4545	0.1	1867.2
24372	15.413	4.3636	0.1	1943.1
24373	15.506	4.4545	0.1	1914.1
24374	15.229	4.3636	0.1	1992.6
24375	15.321	4.4545	0.1	1961.5
24376	15.044	4.3636	0.1	2043.1
24377	15.137	4.4545	0.1	2009.2
24378	14.86	4.3636	0.1	2094.9
24379	14.952	4.4545	0.1	2057.5
24380	14.675	4.3636	0.1	2148.2
24381	14.767	4.4545	0.1	2106.2
24382	14.49	4.3636	0.1	2203.4
24383	14.583	4.4545	0.1	2155.6
24384	14.306	4.3636	0.1	2261.1
24385	14.398	4.4545	0.1	2205.8
24386	14.121	4.3636	0.1	2322.1
24387	14.213	4.4545	0.1	2257.
24388	13.936	4.3636	0.1	2387.8
24389	14.029	4.4545	0.1	2309.9
24390	13.752	4.3636	0.1	2460.1
24391	13.844	4.4545	0.1	2365.2
24392	13.567	4.3636	0.1	2542.3
24393	13.659	4.4545	0.1	2424.7
24394	13.382	4.3636	0.1	2639.2
24395	13.475	4.4545	0.1	2490.8
24396	13.198	4.3636	0.1	2757.4
24397	13.29	4.4545	0.1	2567.
24398	13.013	4.3636	0.1	2904.1
24399	13.105	4.4545	0.1	2657.6
24400	12.828	4.3636	0.1	3079.4
24401	12.921	4.4545	0.1	2764.8
24402	12.644	4.3636	0.1	3272.1
24403	12.736	4.4545	0.1	2875.2
24404	12.551	4.4545	0.1	3031.6
24405	12.459	4.3636	0.1	2754.1
24406	23.723	4.5455	0.1	58.864
24407	23.815	4.6364	0.1	39.85
24408	23.908	4.5455	0.1	22.495
24409	23.538	4.5455	0.1	97.017
24410	23.631	4.6364	0.1	77.798
24411	23.354	4.5455	0.1	135.14
24412	23.446	4.6364	0.1	115.83
24413	23.169	4.5455	0.1	173.23
24414	23.261	4.6364	0.1	153.81
24415	22.984	4.5455	0.1	211.37
24416	23.077	4.6364	0.1	191.85
24417	22.8	4.5455	0.1	249.62
24418	22.892	4.6364	0.1	230.
24419	22.615	4.5455	0.1	288.01
24420	22.707	4.6364	0.1	268.31
24421	22.43	4.5455	0.1	326.57
24422	22.523	4.6364	0.1	306.8
24423	22.246	4.5455	0.1	365.31
24424	22.338	4.6364	0.1	345.49
24425	22.061	4.5455	0.1	404.24
24426	22.153	4.6364	0.1	384.37
24427	21.876	4.5455	0.1	443.36
24428	21.969	4.6364	0.1	423.45
24429	21.692	4.5455	0.1	482.66
24430	21.784	4.6364	0.1	462.71
24431	21.507	4.5455	0.1	522.15
24432	21.599	4.6364	0.1	502.17
24433	21.322	4.5455	0.1	561.83
24434	21.415	4.6364	0.1	541.81
24435	21.138	4.5455	0.1	601.69
24436	21.23	4.6364	0.1	581.64
24437	20.953	4.5455	0.1	641.74
24438	21.046	4.6364	0.1	621.66
24439	20.769	4.5455	0.1	681.98
24440	20.861	4.6364	0.1	661.85
24441	20.584	4.5455	0.1	722.4
24442	20.676	4.6364	0.1	702.24
24443	20.399	4.5455	0.1	763.
24444	20.492	4.6364	0.1	742.8
24445	20.215	4.5455	0.1	803.8
24446	20.307	4.6364	0.1	783.55
24447	20.03	4.5455	0.1	844.78
24448	20.122	4.6364	0.1	824.48
24449	19.845	4.5455	0.1	885.95
24450	19.938	4.6364	0.1	865.6
24451	19.661	4.5455	0.1	927.3
24452	19.753	4.6364	0.1	906.91
24453	19.476	4.5455	0.1	968.85
24454	19.568	4.6364	0.1	948.4
24455	19.291	4.5455	0.1	1010.6
24456	19.384	4.6364	0.1	990.08
24457	19.107	4.5455	0.1	1052.5
24458	19.199	4.6364	0.1	1032.
24459	18.922	4.5455	0.1	1094.6
24460	19.014	4.6364	0.1	1074.
24461	18.737	4.5455	0.1	1137.
24462	18.83	4.6364	0.1	1116.3
24463	18.553	4.5455	0.1	1179.5
24464	18.645	4.6364	0.1	1158.7
24465	18.368	4.5455	0.1	1222.2
24466	18.46	4.6364	0.1	1201.3
24467	18.183	4.5455	0.1	1265.1
24468	18.276	4.6364	0.1	1244.2
24469	17.999	4.5455	0.1	1308.2
24470	18.091	4.6364	0.1	1287.2
24471	17.814	4.5455	0.1	1351.5
24472	17.906	4.6364	0.1	1330.4
24473	17.629	4.5455	0.1	1395.
24474	17.722	4.6364	0.1	1373.8
24475	17.445	4.5455	0.1	1438.8
24476	17.537	4.6364	0.1	1417.4
24477	17.26	4.5455	0.1	1482.7
24478	17.352	4.6364	0.1	1461.2
24479	17.075	4.5455	0.1	1526.8
24480	17.168	4.6364	0.1	1505.1
24481	16.891	4.5455	0.1	1571.2
24482	16.983	4.6364	0.1	1549.3
24483	16.706	4.5455	0.1	1615.7
24484	16.798	4.6364	0.1	1593.6
24485	16.521	4.5455	0.1	1660.5
24486	16.614	4.6364	0.1	1638.
24487	16.337	4.5455	0.1	1705.4
24488	16.429	4.6364	0.1	1682.5
24489	16.152	4.5455	0.1	1750.6
24490	16.244	4.6364	0.1	1727.2
24491	15.967	4.5455	0.1	1795.9
24492	16.06	4.6364	0.1	1771.8
24493	15.783	4.5455	0.1	1841.4
24494	15.875	4.6364	0.1	1816.5
24495	15.598	4.5455	0.1	1886.9
24496	15.69	4.6364	0.1	1861.
24497	15.413	4.5455	0.1	1932.5
24498	15.506	4.6364	0.1	1905.3
24499	15.229	4.5455	0.1	1978.1
24500	15.321	4.6364	0.1	1949.3
24501	15.044	4.5455	0.1	2023.6
24502	15.137	4.6364	0.1	1992.6
24503	14.86	4.5455	0.1	2068.8
24504	14.952	4.6364	0.1	2035.2
24505	14.675	4.5455	0.1	2113.6
24506	14.767	4.6364	0.1	2076.6
24507	14.49	4.5455	0.1	2157.8
24508	14.583	4.6364	0.1	2116.6
24509	14.306	4.5455	0.1	2201.4
24510	14.398	4.6364	0.1	2154.6
24511	14.121	4.5455	0.1	2244.3
24512	14.213	4.6364	0.1	2190.3
24513	13.936	4.5455	0.1	2286.5
24514	14.029	4.6364	0.1	2223.2
24515	13.752	4.5455	0.1	2328.4
24516	13.844	4.6364	0.1	2252.9
24517	13.567	4.5455	0.1	2370.8
24518	13.659	4.6364	0.1	2279.1
24519	13.382	4.5455	0.1	2414.6
24520	13.475	4.6364	0.1	2301.9
24521	13.198	4.5455	0.1	2460.6
24522	13.29	4.6364	0.1	2321.4
24523	13.013	4.5455	0.1	2507.2
24524	13.105	4.6364	0.1	2336.8
24525	12.828	4.5455	0.1	2540.7
24526	12.921	4.6364	0.1	2345.
24527	12.644	4.5455	0.1	2579.5
24528	12.736	4.6364	0.1	2332.5
24529	12.551	4.6364	0.1	2363.
24530	12.459	4.5455	0.1	2134.5
24531	23.723	4.7273	0.1	58.722
24532	23.815	4.8182	0.1	39.825
24533	23.908	4.7273	0.1	22.508
24534	23.538	4.7273	0.1	96.612
24535	23.631	4.8182	0.1	77.452
24536	23.354	4.7273	0.1	134.52
24537	23.446	4.8182	0.1	115.22
24538	23.169	4.7273	0.1	172.45
24539	23.261	4.8182	0.1	153.
24540	22.984	4.7273	0.1	210.5
24541	23.077	4.8182	0.1	190.93
24542	22.8	4.7273	0.1	248.72
24543	22.892	4.8182	0.1	229.04
24544	22.615	4.7273	0.1	287.14
24545	22.707	4.8182	0.1	267.37
24546	22.43	4.7273	0.1	325.76
24547	22.523	4.8182	0.1	305.93
24548	22.246	4.7273	0.1	364.59
24549	22.338	4.8182	0.1	344.71
24550	22.061	4.7273	0.1	403.62
24551	22.153	4.8182	0.1	383.7
24552	21.876	4.7273	0.1	442.85
24553	21.969	4.8182	0.1	422.9
24554	21.692	4.7273	0.1	482.27
24555	21.784	4.8182	0.1	462.29
24556	21.507	4.7273	0.1	521.88
24557	21.599	4.8182	0.1	501.88
24558	21.322	4.7273	0.1	561.67
24559	21.415	4.8182	0.1	541.65
24560	21.138	4.7273	0.1	601.65
24561	21.23	4.8182	0.1	581.6
24562	20.953	4.7273	0.1	641.81
24563	21.046	4.8182	0.1	621.73
24564	20.769	4.7273	0.1	682.15
24565	20.861	4.8182	0.1	662.04
24566	20.584	4.7273	0.1	722.68
24567	20.676	4.8182	0.1	702.52
24568	20.399	4.7273	0.1	763.38
24569	20.492	4.8182	0.1	743.19
24570	20.215	4.7273	0.1	804.27
24571	20.307	4.8182	0.1	784.04
24572	20.03	4.7273	0.1	845.34
24573	20.122	4.8182	0.1	825.06
24574	19.845	4.7273	0.1	886.59
24575	19.938	4.8182	0.1	866.27
24576	19.661	4.7273	0.1	928.03
24577	19.753	4.8182	0.1	907.66
24578	19.476	4.7273	0.1	969.66
24579	19.568	4.8182	0.1	949.24
24580	19.291	4.7273	0.1	1011.5
24581	19.384	4.8182	0.1	991.
24582	19.107	4.7273	0.1	1053.5
24583	19.199	4.8182	0.1	1032.9
24584	18.922	4.7273	0.1	1095.7
24585	19.014	4.8182	0.1	1075.1
24586	18.737	4.7273	0.1	1138.
24587	18.83	4.8182	0.1	1117.4
24588	18.553	4.7273	0.1	1180.6
24589	18.645	4.8182	0.1	1159.9
24590	18.368	4.7273	0.1	1223.4
24591	18.46	4.8182	0.1	1202.6
24592	18.183	4.7273	0.1	1266.3
24593	18.276	4.8182	0.1	1245.4
24594	17.999	4.7273	0.1	1309.4
24595	18.091	4.8182	0.1	1288.5
24596	17.814	4.7273	0.1	1352.7
24597	17.906	4.8182	0.1	1331.7
24598	17.629	4.7273	0.1	1396.2
24599	17.722	4.8182	0.1	1375.1
24600	17.445	4.7273	0.1	1439.9
24601	17.537	4.8182	0.1	1418.6
24602	17.26	4.7273	0.1	1483.7
24603	17.352	4.8182	0.1	1462.3
24604	17.075	4.7273	0.1	1527.6
24605	17.168	4.8182	0.1	1506.1
24606	16.891	4.7273	0.1	1571.7
24607	16.983	4.8182	0.1	1550.
24608	16.706	4.7273	0.1	1615.9
24609	16.798	4.8182	0.1	1594.
24610	16.521	4.7273	0.1	1660.1
24611	16.614	4.8182	0.1	1638.
24612	16.337	4.7273	0.1	1704.3
24613	16.429	4.8182	0.1	1681.9
24614	16.152	4.7273	0.1	1748.5
24615	16.244	4.8182	0.1	1725.7
24616	15.967	4.7273	0.1	1792.5
24617	16.06	4.8182	0.1	1769.3
24618	15.783	4.7273	0.1	1836.2
24619	15.875	4.8182	0.1	1812.4
24620	15.598	4.7273	0.1	1879.4
24621	15.69	4.8182	0.1	1855.
24622	15.413	4.7273	0.1	1922.1
24623	15.506	4.8182	0.1	1896.8
24624	15.229	4.7273	0.1	1963.8
24625	15.321	4.8182	0.1	1937.4
24626	15.044	4.7273	0.1	2004.2
24627	15.137	4.8182	0.1	1976.5
24628	14.86	4.7273	0.1	2043.
24629	14.952	4.8182	0.1	2013.5
24630	14.675	4.7273	0.1	2079.5
24631	14.767	4.8182	0.1	2047.9
24632	14.49	4.7273	0.1	2113.2
24633	14.583	4.8182	0.1	2078.9
24634	14.306	4.7273	0.1	2143.2
24635	14.398	4.8182	0.1	2105.4
24636	14.121	4.7273	0.1	2168.7
24637	14.213	4.8182	0.1	2126.4
24638	13.936	4.7273	0.1	2188.6
24639	14.029	4.8182	0.1	2140.5
24640	13.752	4.7273	0.1	2202.
24641	13.844	4.8182	0.1	2146.3
24642	13.567	4.7273	0.1	2207.5
24643	13.659	4.8182	0.1	2142.1
24644	13.382	4.7273	0.1	2204.1
24645	13.475	4.8182	0.1	2126.2
24646	13.198	4.7273	0.1	2189.9
24647	13.29	4.8182	0.1	2097.1
24648	13.013	4.7273	0.1	2161.6
24649	13.105	4.8182	0.1	2053.1
24650	12.828	4.7273	0.1	2114.3
24651	12.921	4.8182	0.1	1992.7
24652	12.644	4.7273	0.1	2077.9
24653	12.736	4.8182	0.1	1915.9
24654	12.551	4.8182	0.1	1891.
24655	12.459	4.7273	0.1	1702.5
24656	23.723	4.9091	0.1	58.499
24657	23.815	5.	0.1	39.74
24658	23.908	4.9091	0.1	22.497
24659	23.538	4.9091	0.1	96.064
24660	23.631	5.	0.1	76.959
24661	23.354	4.9091	0.1	133.73
24662	23.446	5.	0.1	114.41
24663	23.169	4.9091	0.1	171.51
24664	23.261	5.	0.1	152.01
24665	22.984	4.9091	0.1	209.5
24666	23.077	5.	0.1	189.85
24667	22.8	4.9091	0.1	247.73
24668	22.892	5.	0.1	227.97
24669	22.615	4.9091	0.1	286.21
24670	22.707	5.	0.1	266.38
24671	22.43	4.9091	0.1	324.93
24672	22.523	5.	0.1	305.05
24673	22.246	4.9091	0.1	363.87
24674	22.338	5.	0.1	343.96
24675	22.061	4.9091	0.1	403.03
24676	22.153	5.	0.1	383.09
24677	21.876	4.9091	0.1	442.4
24678	21.969	5.	0.1	422.44
24679	21.692	4.9091	0.1	481.95
24680	21.784	5.	0.1	461.97
24681	21.507	4.9091	0.1	521.69
24682	21.599	5.	0.1	501.7
24683	21.322	4.9091	0.1	561.62
24684	21.415	5.	0.1	541.6
24685	21.138	4.9091	0.1	601.72
24686	21.23	5.	0.1	581.68
24687	20.953	4.9091	0.1	642.
24688	21.046	5.	0.1	621.93
24689	20.769	4.9091	0.1	682.45
24690	20.861	5.	0.1	662.36
24691	20.584	4.9091	0.1	723.08
24692	20.676	5.	0.1	702.95
24693	20.399	4.9091	0.1	763.89
24694	20.492	5.	0.1	743.73
24695	20.215	4.9091	0.1	804.87
24696	20.307	5.	0.1	784.67
24697	20.03	4.9091	0.1	846.03
24698	20.122	5.	0.1	825.79
24699	19.845	4.9091	0.1	887.37
24700	19.938	5.	0.1	867.09
24701	19.661	4.9091	0.1	928.9
24702	19.753	5.	0.1	908.56
24703	19.476	4.9091	0.1	970.61
24704	19.568	5.	0.1	950.22
24705	19.291	4.9091	0.1	1012.5
24706	19.384	5.	0.1	992.06
24707	19.107	4.9091	0.1	1054.6
24708	19.199	5.	0.1	1034.1
24709	18.922	4.9091	0.1	1096.8
24710	19.014	5.	0.1	1076.3
24711	18.737	4.9091	0.1	1139.3
24712	18.83	5.	0.1	1118.7
24713	18.553	4.9091	0.1	1181.9
24714	18.645	5.	0.1	1161.2
24715	18.368	4.9091	0.1	1224.7
24716	18.46	5.	0.1	1204.
24717	18.183	4.9091	0.1	1267.7
24718	18.276	5.	0.1	1246.9
24719	17.999	4.9091	0.1	1310.8
24720	18.091	5.	0.1	1289.9
24721	17.814	4.9091	0.1	1354.1
24722	17.906	5.	0.1	1333.2
24723	17.629	4.9091	0.1	1397.6
24724	17.722	5.	0.1	1376.5
24725	17.445	4.9091	0.1	1441.1
24726	17.537	5.	0.1	1420.
24727	17.26	4.9091	0.1	1484.8
24728	17.352	5.	0.1	1463.6
24729	17.075	4.9091	0.1	1528.6
24730	17.168	5.	0.1	1507.3
24731	16.891	4.9091	0.1	1572.4
24732	16.983	5.	0.1	1551.
24733	16.706	4.9091	0.1	1616.2
24734	16.798	5.	0.1	1594.6
24735	16.521	4.9091	0.1	1659.8
24736	16.614	5.	0.1	1638.2
24737	16.337	4.9091	0.1	1703.3
24738	16.429	5.	0.1	1681.5
24739	16.152	4.9091	0.1	1746.5
24740	16.244	5.	0.1	1724.5
24741	15.967	4.9091	0.1	1789.2
24742	16.06	5.	0.1	1766.9
24743	15.783	4.9091	0.1	1831.3
24744	15.875	5.	0.1	1808.7
24745	15.598	4.9091	0.1	1872.3
24746	15.69	5.	0.1	1849.4
24747	15.413	4.9091	0.1	1912.1
24748	15.506	5.	0.1	1888.7
24749	15.229	4.9091	0.1	1950.1
24750	15.321	5.	0.1	1926.3
24751	15.044	4.9091	0.1	1985.8
24752	15.137	5.	0.1	1961.3
24753	14.86	4.9091	0.1	2018.5
24754	14.952	5.	0.1	1993.3
24755	14.675	4.9091	0.1	2047.2
24756	14.767	5.	0.1	2021.1
24757	14.49	4.9091	0.1	2070.9
24758	14.583	5.	0.1	2043.7
24759	14.306	4.9091	0.1	2088.3
24760	14.398	5.	0.1	2059.6
24761	14.121	4.9091	0.1	2097.7
24762	14.213	5.	0.1	2067.2
24763	13.936	4.9091	0.1	2097.3
24764	14.029	5.	0.1	2064.4
24765	13.752	4.9091	0.1	2084.9
24766	13.844	5.	0.1	2048.9
24767	13.567	4.9091	0.1	2058.1
24768	13.659	5.	0.1	2018.
24769	13.382	4.9091	0.1	2014.5
24770	13.475	5.	0.1	1969.2
24771	13.198	4.9091	0.1	1952.3
24772	13.29	5.	0.1	1900.1
24773	13.013	4.9091	0.1	1870.9
24774	13.105	5.	0.1	1810.2
24775	12.828	4.9091	0.1	1773.4
24776	12.921	5.	0.1	1702.3
24777	12.644	4.9091	0.1	1698.7
24778	12.736	5.	0.1	1586.5
24779	12.551	5.	0.1	1531.9
24780	12.459	4.9091	0.1	1383.1
24781	23.723	5.0909	0.1	58.153
24782	23.815	5.1818	0.1	39.553
24783	23.908	5.0909	0.1	22.443
24784	23.538	5.0909	0.1	95.323
24785	23.631	5.1818	0.1	76.25
24786	23.354	5.0909	0.1	132.73
24787	23.446	5.1818	0.1	113.37
24788	23.169	5.0909	0.1	170.39
24789	23.261	5.1818	0.1	150.81
24790	22.984	5.0909	0.1	208.38
24791	23.077	5.1818	0.1	188.65
24792	22.8	5.0909	0.1	246.68
24793	22.892	5.1818	0.1	226.86
24794	22.615	5.0909	0.1	285.28
24795	22.707	5.1818	0.1	265.4
24796	22.43	5.0909	0.1	324.14
24797	22.523	5.1818	0.1	304.23
24798	22.246	5.0909	0.1	363.24
24799	22.338	5.1818	0.1	343.31
24800	22.061	5.0909	0.1	402.55
24801	22.153	5.1818	0.1	382.62
24802	21.876	5.0909	0.1	442.07
24803	21.969	5.1818	0.1	422.13
24804	21.692	5.0909	0.1	481.77
24805	21.784	5.1818	0.1	461.82
24806	21.507	5.0909	0.1	521.66
24807	21.599	5.1818	0.1	501.69
24808	21.322	5.0909	0.1	561.71
24809	21.415	5.1818	0.1	541.73
24810	21.138	5.0909	0.1	601.94
24811	21.23	5.1818	0.1	581.94
24812	20.953	5.0909	0.1	642.34
24813	21.046	5.1818	0.1	622.32
24814	20.769	5.0909	0.1	682.91
24815	20.861	5.1818	0.1	662.86
24816	20.584	5.0909	0.1	723.64
24817	20.676	5.1818	0.1	703.56
24818	20.399	5.0909	0.1	764.55
24819	20.492	5.1818	0.1	744.44
24820	20.215	5.0909	0.1	805.63
24821	20.307	5.1818	0.1	785.48
24822	20.03	5.0909	0.1	846.88
24823	20.122	5.1818	0.1	826.69
24824	19.845	5.0909	0.1	888.31
24825	19.938	5.1818	0.1	868.08
24826	19.661	5.0909	0.1	929.92
24827	19.753	5.1818	0.1	909.64
24828	19.476	5.0909	0.1	971.71
24829	19.568	5.1818	0.1	951.37
24830	19.291	5.0909	0.1	1013.7
24831	19.384	5.1818	0.1	993.29
24832	19.107	5.0909	0.1	1055.8
24833	19.199	5.1818	0.1	1035.4
24834	18.922	5.0909	0.1	1098.1
24835	19.014	5.1818	0.1	1077.6
24836	18.737	5.0909	0.1	1140.6
24837	18.83	5.1818	0.1	1120.1
24838	18.553	5.0909	0.1	1183.3
24839	18.645	5.1818	0.1	1162.7
24840	18.368	5.0909	0.1	1226.2
24841	18.46	5.1818	0.1	1205.5
24842	18.183	5.0909	0.1	1269.2
24843	18.276	5.1818	0.1	1248.4
24844	17.999	5.0909	0.1	1312.3
24845	18.091	5.1818	0.1	1291.5
24846	17.814	5.0909	0.1	1355.6
24847	17.906	5.1818	0.1	1334.8
24848	17.629	5.0909	0.1	1399.
24849	17.722	5.1818	0.1	1378.1
24850	17.445	5.0909	0.1	1442.6
24851	17.537	5.1818	0.1	1421.6
24852	17.26	5.0909	0.1	1486.1
24853	17.352	5.1818	0.1	1465.1
24854	17.075	5.0909	0.1	1529.7
24855	17.168	5.1818	0.1	1508.6
24856	16.891	5.0909	0.1	1573.2
24857	16.983	5.1818	0.1	1552.1
24858	16.706	5.0909	0.1	1616.7
24859	16.798	5.1818	0.1	1595.5
24860	16.521	5.0909	0.1	1659.8
24861	16.614	5.1818	0.1	1638.6
24862	16.337	5.0909	0.1	1702.6
24863	16.429	5.1818	0.1	1681.3
24864	16.152	5.0909	0.1	1744.9
24865	16.244	5.1818	0.1	1723.6
24866	15.967	5.0909	0.1	1786.4
24867	16.06	5.1818	0.1	1765.
24868	15.783	5.0909	0.1	1826.8
24869	15.875	5.1818	0.1	1805.4
24870	15.598	5.0909	0.1	1865.8
24871	15.69	5.1818	0.1	1844.4
24872	15.413	5.0909	0.1	1902.9
24873	15.506	5.1818	0.1	1881.6
24874	15.229	5.0909	0.1	1937.5
24875	15.321	5.1818	0.1	1916.2
24876	15.044	5.0909	0.1	1968.8
24877	15.137	5.1818	0.1	1947.7
24878	14.86	5.0909	0.1	1995.9
24879	14.952	5.1818	0.1	1974.9
24880	14.675	5.0909	0.1	2017.5
24881	14.767	5.1818	0.1	1996.9
24882	14.49	5.0909	0.1	2032.3
24883	14.583	5.1818	0.1	2012.
24884	14.306	5.0909	0.1	2038.3
24885	14.398	5.1818	0.1	2018.6
24886	14.121	5.0909	0.1	2033.5
24887	14.213	5.1818	0.1	2014.5
24888	13.936	5.0909	0.1	2015.3
24889	14.029	5.1818	0.1	1997.1
24890	13.752	5.0909	0.1	1980.7
24891	13.844	5.1818	0.1	1963.5
24892	13.567	5.0909	0.1	1926.6
24893	13.659	5.1818	0.1	1910.3
24894	13.382	5.0909	0.1	1850.3
24895	13.475	5.1818	0.1	1834.4
24896	13.198	5.0909	0.1	1750.5
24897	13.29	5.1818	0.1	1733.4
24898	13.013	5.0909	0.1	1629.3
24899	13.105	5.1818	0.1	1607.7
24900	12.828	5.0909	0.1	1496.6
24901	12.921	5.1818	0.1	1463.7
24902	12.644	5.0909	0.1	1394.1
24903	12.736	5.1818	0.1	1318.1
24904	12.551	5.1818	0.1	1238.4
24905	12.459	5.0909	0.1	1125.9
24906	23.723	5.2727	0.1	57.619
24907	23.815	5.3636	0.1	39.178
24908	23.908	5.2727	0.1	22.316
24909	23.538	5.2727	0.1	94.325
24910	23.631	5.3636	0.1	75.228
24911	23.354	5.2727	0.1	131.5
24912	23.446	5.3636	0.1	112.05
24913	23.169	5.2727	0.1	169.14
24914	23.261	5.3636	0.1	149.46
24915	22.984	5.2727	0.1	207.21
24916	23.077	5.3636	0.1	187.42
24917	22.8	5.2727	0.1	245.66
24918	22.892	5.3636	0.1	225.83
24919	22.615	5.2727	0.1	284.44
24920	22.707	5.3636	0.1	264.58
24921	22.43	5.2727	0.1	323.49
24922	22.523	5.3636	0.1	303.62
24923	22.246	5.2727	0.1	362.77
24924	22.338	5.3636	0.1	342.9
24925	22.061	5.2727	0.1	402.26
24926	22.153	5.3636	0.1	382.39
24927	21.876	5.2727	0.1	441.95
24928	21.969	5.3636	0.1	422.07
24929	21.692	5.2727	0.1	481.8
24930	21.784	5.3636	0.1	461.92
24931	21.507	5.2727	0.1	521.83
24932	21.599	5.3636	0.1	501.94
24933	21.322	5.2727	0.1	562.02
24934	21.415	5.3636	0.1	542.12
24935	21.138	5.2727	0.1	602.37
24936	21.23	5.3636	0.1	582.45
24937	20.953	5.2727	0.1	642.89
24938	21.046	5.3636	0.1	622.94
24939	20.769	5.2727	0.1	683.56
24940	20.861	5.3636	0.1	663.59
24941	20.584	5.2727	0.1	724.4
24942	20.676	5.3636	0.1	704.4
24943	20.399	5.2727	0.1	765.41
24944	20.492	5.3636	0.1	745.36
24945	20.215	5.2727	0.1	806.58
24946	20.307	5.3636	0.1	786.5
24947	20.03	5.2727	0.1	847.92
24948	20.122	5.3636	0.1	827.8
24949	19.845	5.2727	0.1	889.44
24950	19.938	5.3636	0.1	869.26
24951	19.661	5.2727	0.1	931.12
24952	19.753	5.3636	0.1	910.9
24953	19.476	5.2727	0.1	972.99
24954	19.568	5.3636	0.1	952.71
24955	19.291	5.2727	0.1	1015.
24956	19.384	5.3636	0.1	994.7
24957	19.107	5.2727	0.1	1057.2
24958	19.199	5.3636	0.1	1036.9
24959	18.922	5.2727	0.1	1099.6
24960	19.014	5.3636	0.1	1079.2
24961	18.737	5.2727	0.1	1142.2
24962	18.83	5.3636	0.1	1121.7
24963	18.553	5.2727	0.1	1184.9
24964	18.645	5.3636	0.1	1164.4
24965	18.368	5.2727	0.1	1227.8
24966	18.46	5.3636	0.1	1207.2
24967	18.183	5.2727	0.1	1270.8
24968	18.276	5.3636	0.1	1250.2
24969	17.999	5.2727	0.1	1314.
24970	18.091	5.3636	0.1	1293.3
24971	17.814	5.2727	0.1	1357.3
24972	17.906	5.3636	0.1	1336.6
24973	17.629	5.2727	0.1	1400.7
24974	17.722	5.3636	0.1	1379.9
24975	17.445	5.2727	0.1	1444.2
24976	17.537	5.3636	0.1	1423.3
24977	17.26	5.2727	0.1	1487.6
24978	17.352	5.3636	0.1	1466.8
24979	17.075	5.2727	0.1	1531.
24980	17.168	5.3636	0.1	1510.2
24981	16.891	5.2727	0.1	1574.3
24982	16.983	5.3636	0.1	1553.5
24983	16.706	5.2727	0.1	1617.4
24984	16.798	5.3636	0.1	1596.5
24985	16.521	5.2727	0.1	1660.1
24986	16.614	5.3636	0.1	1639.3
24987	16.337	5.2727	0.1	1702.3
24988	16.429	5.3636	0.1	1681.5
24989	16.152	5.2727	0.1	1743.7
24990	16.244	5.3636	0.1	1723.1
24991	15.967	5.2727	0.1	1784.1
24992	16.06	5.3636	0.1	1763.6
24993	15.783	5.2727	0.1	1823.1
24994	15.875	5.3636	0.1	1802.9
24995	15.598	5.2727	0.1	1860.2
24996	15.69	5.3636	0.1	1840.3
24997	15.413	5.2727	0.1	1894.9
24998	15.506	5.3636	0.1	1875.5
24999	15.229	5.2727	0.1	1926.4
25000	15.321	5.3636	0.1	1907.6
25001	15.044	5.2727	0.1	1953.8
25002	15.137	5.3636	0.1	1935.9
25003	14.86	5.2727	0.1	1975.9
25004	14.952	5.3636	0.1	1959.1
25005	14.675	5.2727	0.1	1991.4
25006	14.767	5.3636	0.1	1976.
25007	14.49	5.2727	0.1	1998.3
25008	14.583	5.3636	0.1	1984.8
25009	14.306	5.2727	0.1	1994.6
25010	14.398	5.3636	0.1	1983.5
25011	14.121	5.2727	0.1	1977.8
25012	14.213	5.3636	0.1	1969.6
25013	13.936	5.2727	0.1	1944.6
25014	14.029	5.3636	0.1	1940.2
25015	13.752	5.2727	0.1	1891.9
25016	13.844	5.3636	0.1	1891.9
25017	13.567	5.2727	0.1	1816.
25018	13.659	5.3636	0.1	1821.
25019	13.382	5.2727	0.1	1713.9
25020	13.475	5.3636	0.1	1724.1
25021	13.198	5.2727	0.1	1584.6
25022	13.29	5.3636	0.1	1598.6
25023	13.013	5.2727	0.1	1431.7
25024	13.105	5.3636	0.1	1444.8
25025	12.828	5.2727	0.1	1268.6
25026	12.921	5.3636	0.1	1270.1
25027	12.644	5.2727	0.1	1138.9
25028	12.736	5.3636	0.1	1094.8
25029	12.551	5.3636	0.1	986.02
25030	12.459	5.2727	0.1	906.38
25031	23.723	5.4545	0.1	56.786
25032	23.815	5.5455	0.1	38.501
25033	23.908	5.4545	0.1	22.038
25034	23.538	5.4545	0.1	93.017
25035	23.631	5.5455	0.1	73.839
25036	23.354	5.4545	0.1	130.11
25037	23.446	5.5455	0.1	110.59
25038	23.169	5.4545	0.1	167.87
25039	23.261	5.5455	0.1	148.23
25040	22.984	5.4545	0.1	206.16
25041	23.077	5.5455	0.1	186.48
25042	22.8	5.4545	0.1	244.86
25043	22.892	5.5455	0.1	225.17
25044	22.615	5.4545	0.1	283.87
25045	22.707	5.5455	0.1	264.19
25046	22.43	5.4545	0.1	323.13
25047	22.523	5.5455	0.1	303.46
25048	22.246	5.4545	0.1	362.61
25049	22.338	5.5455	0.1	342.94
25050	22.061	5.4545	0.1	402.28
25051	22.153	5.5455	0.1	382.61
25052	21.876	5.4545	0.1	442.13
25053	21.969	5.5455	0.1	422.45
25054	21.692	5.4545	0.1	482.13
25055	21.784	5.5455	0.1	462.45
25056	21.507	5.4545	0.1	522.29
25057	21.599	5.5455	0.1	502.59
25058	21.322	5.4545	0.1	562.61
25059	21.415	5.5455	0.1	542.89
25060	21.138	5.4545	0.1	603.08
25061	21.23	5.5455	0.1	583.33
25062	20.953	5.4545	0.1	643.7
25063	21.046	5.5455	0.1	623.92
25064	20.769	5.4545	0.1	684.47
25065	20.861	5.5455	0.1	664.67
25066	20.584	5.4545	0.1	725.41
25067	20.676	5.5455	0.1	705.56
25068	20.399	5.4545	0.1	766.5
25069	20.492	5.5455	0.1	746.61
25070	20.215	5.4545	0.1	807.76
25071	20.307	5.5455	0.1	787.82
25072	20.03	5.4545	0.1	849.18
25073	20.122	5.5455	0.1	829.2
25074	19.845	5.4545	0.1	890.77
25075	19.938	5.5455	0.1	870.74
25076	19.661	5.4545	0.1	932.53
25077	19.753	5.5455	0.1	912.45
25078	19.476	5.4545	0.1	974.46
25079	19.568	5.5455	0.1	954.32
25080	19.291	5.4545	0.1	1016.6
25081	19.384	5.5455	0.1	996.37
25082	19.107	5.4545	0.1	1058.8
25083	19.199	5.5455	0.1	1038.6
25084	18.922	5.4545	0.1	1101.3
25085	19.014	5.5455	0.1	1081.
25086	18.737	5.4545	0.1	1143.9
25087	18.83	5.5455	0.1	1123.5
25088	18.553	5.4545	0.1	1186.7
25089	18.645	5.5455	0.1	1166.3
25090	18.368	5.4545	0.1	1229.6
25091	18.46	5.5455	0.1	1209.2
25092	18.183	5.4545	0.1	1272.7
25093	18.276	5.5455	0.1	1252.2
25094	17.999	5.4545	0.1	1315.9
25095	18.091	5.5455	0.1	1295.3
25096	17.814	5.4545	0.1	1359.2
25097	17.906	5.5455	0.1	1338.6
25098	17.629	5.4545	0.1	1402.6
25099	17.722	5.5455	0.1	1381.9
25100	17.445	5.4545	0.1	1446.
25101	17.537	5.5455	0.1	1425.3
25102	17.26	5.4545	0.1	1489.3
25103	17.352	5.5455	0.1	1468.7
25104	17.075	5.4545	0.1	1532.6
25105	17.168	5.5455	0.1	1512.
25106	16.891	5.4545	0.1	1575.7
25107	16.983	5.5455	0.1	1555.1
25108	16.706	5.4545	0.1	1618.4
25109	16.798	5.5455	0.1	1598.
25110	16.521	5.4545	0.1	1660.7
25111	16.614	5.5455	0.1	1640.4
25112	16.337	5.4545	0.1	1702.3
25113	16.429	5.5455	0.1	1682.2
25114	16.152	5.4545	0.1	1743.
25115	16.244	5.5455	0.1	1723.1
25116	15.967	5.4545	0.1	1782.4
25117	16.06	5.5455	0.1	1762.9
25118	15.783	5.4545	0.1	1820.2
25119	15.875	5.5455	0.1	1801.1
25120	15.598	5.4545	0.1	1855.7
25121	15.69	5.5455	0.1	1837.3
25122	15.413	5.4545	0.1	1888.3
25123	15.506	5.5455	0.1	1870.8
25124	15.229	5.4545	0.1	1917.2
25125	15.321	5.5455	0.1	1900.9
25126	15.044	5.4545	0.1	1941.2
25127	15.137	5.5455	0.1	1926.4
25128	14.86	5.4545	0.1	1959.2
25129	14.952	5.5455	0.1	1946.3
25130	14.675	5.4545	0.1	1969.4
25131	14.767	5.5455	0.1	1959.1
25132	14.49	5.4545	0.1	1969.9
25133	14.583	5.5455	0.1	1962.7
25134	14.306	5.4545	0.1	1958.3
25135	14.398	5.5455	0.1	1955.1
25136	14.121	5.4545	0.1	1931.8
25137	14.213	5.5455	0.1	1933.5
25138	13.936	5.4545	0.1	1886.9
25139	14.029	5.5455	0.1	1894.8
25140	13.752	5.4545	0.1	1820.2
25141	13.844	5.5455	0.1	1835.5
25142	13.567	5.4545	0.1	1727.7
25143	13.659	5.5455	0.1	1751.6
25144	13.382	5.4545	0.1	1606.4
25145	13.475	5.5455	0.1	1639.4
25146	13.198	5.4545	0.1	1454.6
25147	13.29	5.5455	0.1	1496.2
25148	13.013	5.4545	0.1	1275.6
25149	13.105	5.5455	0.1	1321.3
25150	12.828	5.4545	0.1	1082.4
25151	12.921	5.5455	0.1	1120.1
25152	12.644	5.4545	0.1	918.98
25153	12.736	5.5455	0.1	910.8
25154	12.551	5.5455	0.1	759.82
25155	12.459	5.4545	0.1	708.58
25156	23.723	5.6364	0.1	55.63
25157	23.815	5.7273	0.1	37.367
25158	23.908	5.6364	0.1	21.538
25159	23.538	5.6364	0.1	91.588
25160	23.631	5.7273	0.1	72.754
25161	23.354	5.6364	0.1	128.92
25162	23.446	5.7273	0.1	110.17
25163	23.169	5.6364	0.1	167.04
25164	23.261	5.7273	0.1	148.42
25165	22.984	5.6364	0.1	205.68
25166	23.077	5.7273	0.1	187.15
25167	22.8	5.6364	0.1	244.67
25168	22.892	5.7273	0.1	226.22
25169	22.615	5.6364	0.1	283.93
25170	22.707	5.7273	0.1	265.53
25171	22.43	5.6364	0.1	323.4
25172	22.523	5.7273	0.1	305.04
25173	22.246	5.6364	0.1	363.06
25174	22.338	5.7273	0.1	344.72
25175	22.061	5.6364	0.1	402.89
25176	22.153	5.7273	0.1	384.55
25177	21.876	5.6364	0.1	442.87
25178	21.969	5.7273	0.1	424.53
25179	21.692	5.6364	0.1	483.
25180	21.784	5.7273	0.1	464.64
25181	21.507	5.6364	0.1	523.27
25182	21.599	5.7273	0.1	504.88
25183	21.322	5.6364	0.1	563.69
25184	21.415	5.7273	0.1	545.26
25185	21.138	5.6364	0.1	604.25
25186	21.23	5.7273	0.1	585.78
25187	20.953	5.6364	0.1	644.96
25188	21.046	5.7273	0.1	626.44
25189	20.769	5.6364	0.1	685.82
25190	20.861	5.7273	0.1	667.24
25191	20.584	5.6364	0.1	726.83
25192	20.676	5.7273	0.1	708.19
25193	20.399	5.6364	0.1	767.99
25194	20.492	5.7273	0.1	749.29
25195	20.215	5.6364	0.1	809.32
25196	20.307	5.7273	0.1	790.54
25197	20.03	5.6364	0.1	850.81
25198	20.122	5.7273	0.1	831.95
25199	19.845	5.6364	0.1	892.46
25200	19.938	5.7273	0.1	873.53
25201	19.661	5.6364	0.1	934.28
25202	19.753	5.7273	0.1	915.27
25203	19.476	5.6364	0.1	976.28
25204	19.568	5.7273	0.1	957.18
25205	19.291	5.6364	0.1	1018.4
25206	19.384	5.7273	0.1	999.25
25207	19.107	5.6364	0.1	1060.8
25208	19.199	5.7273	0.1	1041.5
25209	18.922	5.6364	0.1	1103.3
25210	19.014	5.7273	0.1	1083.9
25211	18.737	5.6364	0.1	1145.9
25212	18.83	5.7273	0.1	1126.5
25213	18.553	5.6364	0.1	1188.8
25214	18.645	5.7273	0.1	1169.2
25215	18.368	5.6364	0.1	1231.7
25216	18.46	5.7273	0.1	1212.1
25217	18.183	5.6364	0.1	1274.8
25218	18.276	5.7273	0.1	1255.2
25219	17.999	5.6364	0.1	1318.1
25220	18.091	5.7273	0.1	1298.3
25221	17.814	5.6364	0.1	1361.4
25222	17.906	5.7273	0.1	1341.6
25223	17.629	5.6364	0.1	1404.7
25224	17.722	5.7273	0.1	1384.9
25225	17.445	5.6364	0.1	1448.1
25226	17.537	5.7273	0.1	1428.2
25227	17.26	5.6364	0.1	1491.4
25228	17.352	5.7273	0.1	1471.5
25229	17.075	5.6364	0.1	1534.5
25230	17.168	5.7273	0.1	1514.7
25231	16.891	5.6364	0.1	1577.4
25232	16.983	5.7273	0.1	1557.7
25233	16.706	5.6364	0.1	1619.9
25234	16.798	5.7273	0.1	1600.3
25235	16.521	5.6364	0.1	1661.8
25236	16.614	5.7273	0.1	1642.4
25237	16.337	5.6364	0.1	1703.
25238	16.429	5.7273	0.1	1683.8
25239	16.152	5.6364	0.1	1743.
25240	16.244	5.7273	0.1	1724.3
25241	15.967	5.6364	0.1	1781.6
25242	16.06	5.7273	0.1	1763.4
25243	15.783	5.6364	0.1	1818.3
25244	15.875	5.7273	0.1	1800.8
25245	15.598	5.6364	0.1	1852.5
25246	15.69	5.7273	0.1	1836.
25247	15.413	5.6364	0.1	1883.4
25248	15.506	5.7273	0.1	1868.1
25249	15.229	5.6364	0.1	1910.1
25250	15.321	5.7273	0.1	1896.5
25251	15.044	5.6364	0.1	1931.5
25252	15.137	5.7273	0.1	1920.
25253	14.86	5.6364	0.1	1946.2
25254	14.952	5.7273	0.1	1937.3
25255	14.675	5.6364	0.1	1952.3
25256	14.767	5.7273	0.1	1946.9
25257	14.49	5.6364	0.1	1947.9
25258	14.583	5.7273	0.1	1946.7
25259	14.306	5.6364	0.1	1930.2
25260	14.398	5.7273	0.1	1934.5
25261	14.121	5.6364	0.1	1896.4
25262	14.213	5.7273	0.1	1907.4
25263	13.936	5.6364	0.1	1843.
25264	14.029	5.7273	0.1	1862.3
25265	13.752	5.6364	0.1	1766.3
25266	13.844	5.7273	0.1	1795.5
25267	13.567	5.6364	0.1	1662.4
25268	13.659	5.7273	0.1	1703.2
25269	13.382	5.6364	0.1	1528.
25270	13.475	5.7273	0.1	1581.7
25271	13.198	5.6364	0.1	1360.7
25272	13.29	5.7273	0.1	1427.8
25273	13.013	5.6364	0.1	1161.7
25274	13.105	5.7273	0.1	1239.9
25275	12.828	5.6364	0.1	939.14
25276	12.921	5.7273	0.1	1019.7
25277	12.644	5.6364	0.1	729.43
25278	12.736	5.7273	0.1	776.38
25279	12.551	5.7273	0.1	558.44
25280	12.459	5.6364	0.1	520.36
25281	23.723	5.8182	0.1	55.082
25282	23.815	5.9091	0.1	34.714
25283	23.908	5.8182	0.1	20.623
25284	23.538	5.8182	0.1	92.017
25285	23.631	5.9091	0.1	69.56
25286	23.354	5.8182	0.1	130.28
25287	23.446	5.9091	0.1	106.41
25288	23.169	5.8182	0.1	169.06
25289	23.261	5.9091	0.1	144.17
25290	22.984	5.8182	0.1	208.16
25291	23.077	5.9091	0.1	182.51
25292	22.8	5.8182	0.1	247.49
25293	22.892	5.9091	0.1	221.27
25294	22.615	5.8182	0.1	287.02
25295	22.707	5.9091	0.1	260.36
25296	22.43	5.8182	0.1	326.7
25297	22.523	5.9091	0.1	299.72
25298	22.246	5.8182	0.1	366.52
25299	22.338	5.9091	0.1	339.3
25300	22.061	5.8182	0.1	406.48
25301	22.153	5.9091	0.1	379.08
25302	21.876	5.8182	0.1	446.56
25303	21.969	5.9091	0.1	419.04
25304	21.692	5.8182	0.1	486.77
25305	21.784	5.9091	0.1	459.18
25306	21.507	5.8182	0.1	527.12
25307	21.599	5.9091	0.1	499.48
25308	21.322	5.8182	0.1	567.59
25309	21.415	5.9091	0.1	539.93
25310	21.138	5.8182	0.1	608.19
25311	21.23	5.9091	0.1	580.55
25312	20.953	5.8182	0.1	648.93
25313	21.046	5.9091	0.1	621.32
25314	20.769	5.8182	0.1	689.81
25315	20.861	5.9091	0.1	662.25
25316	20.584	5.8182	0.1	730.84
25317	20.676	5.9091	0.1	703.35
25318	20.399	5.8182	0.1	772.02
25319	20.492	5.9091	0.1	744.6
25320	20.215	5.8182	0.1	813.35
25321	20.307	5.9091	0.1	786.02
25322	20.03	5.8182	0.1	854.84
25323	20.122	5.9091	0.1	827.61
25324	19.845	5.8182	0.1	896.5
25325	19.938	5.9091	0.1	869.37
25326	19.661	5.8182	0.1	938.32
25327	19.753	5.9091	0.1	911.3
25328	19.476	5.8182	0.1	980.31
25329	19.568	5.9091	0.1	953.41
25330	19.291	5.8182	0.1	1022.5
25331	19.384	5.9091	0.1	995.69
25332	19.107	5.8182	0.1	1064.8
25333	19.199	5.9091	0.1	1038.2
25334	18.922	5.8182	0.1	1107.3
25335	19.014	5.9091	0.1	1080.8
25336	18.737	5.8182	0.1	1149.9
25337	18.83	5.9091	0.1	1123.6
25338	18.553	5.8182	0.1	1192.7
25339	18.645	5.9091	0.1	1166.5
25340	18.368	5.8182	0.1	1235.7
25341	18.46	5.9091	0.1	1209.7
25342	18.183	5.8182	0.1	1278.8
25343	18.276	5.9091	0.1	1252.9
25344	17.999	5.8182	0.1	1321.9
25345	18.091	5.9091	0.1	1296.3
25346	17.814	5.8182	0.1	1365.2
25347	17.906	5.9091	0.1	1339.7
25348	17.629	5.8182	0.1	1408.5
25349	17.722	5.9091	0.1	1383.2
25350	17.445	5.8182	0.1	1451.7
25351	17.537	5.9091	0.1	1426.7
25352	17.26	5.8182	0.1	1494.9
25353	17.352	5.9091	0.1	1470.2
25354	17.075	5.8182	0.1	1537.9
25355	17.168	5.9091	0.1	1513.5
25356	16.891	5.8182	0.1	1580.6
25357	16.983	5.9091	0.1	1556.5
25358	16.706	5.8182	0.1	1622.9
25359	16.798	5.9091	0.1	1599.2
25360	16.521	5.8182	0.1	1664.5
25361	16.614	5.9091	0.1	1641.3
25362	16.337	5.8182	0.1	1705.2
25363	16.429	5.9091	0.1	1682.6
25364	16.152	5.8182	0.1	1744.8
25365	16.244	5.9091	0.1	1722.8
25366	15.967	5.8182	0.1	1782.7
25367	16.06	5.9091	0.1	1761.6
25368	15.783	5.8182	0.1	1818.5
25369	15.875	5.9091	0.1	1798.6
25370	15.598	5.8182	0.1	1851.7
25371	15.69	5.9091	0.1	1833.
25372	15.413	5.8182	0.1	1881.3
25373	15.506	5.9091	0.1	1864.3
25374	15.229	5.8182	0.1	1906.4
25375	15.321	5.9091	0.1	1891.5
25376	15.044	5.8182	0.1	1925.8
25377	15.137	5.9091	0.1	1913.5
25378	14.86	5.8182	0.1	1938.1
25379	14.952	5.9091	0.1	1928.9
25380	14.675	5.8182	0.1	1941.3
25381	14.767	5.9091	0.1	1936.1
25382	14.49	5.8182	0.1	1933.4
25383	14.583	5.9091	0.1	1933.
25384	14.306	5.8182	0.1	1911.7
25385	14.398	5.9091	0.1	1917.2
25386	14.121	5.8182	0.1	1873.2
25387	14.213	5.9091	0.1	1885.9
25388	13.936	5.8182	0.1	1814.6
25389	14.029	5.9091	0.1	1835.7
25390	13.752	5.8182	0.1	1732.1
25391	13.844	5.9091	0.1	1763.
25392	13.567	5.8182	0.1	1622.
25393	13.659	5.9091	0.1	1663.9
25394	13.382	5.8182	0.1	1480.8
25395	13.475	5.9091	0.1	1534.7
25396	13.198	5.8182	0.1	1306.
25397	13.29	5.9091	0.1	1372.2
25398	13.013	5.8182	0.1	1096.4
25399	13.105	5.9091	0.1	1174.3
25400	12.828	5.8182	0.1	853.59
25401	12.921	5.9091	0.1	940.78
25402	12.644	5.8182	0.1	590.57
25403	12.736	5.9091	0.1	673.37
25404	12.459	5.8182	0.1	335.95
25405	12.551	5.9091	0.1	383.69
25406	0.18485	0.27273	0.1	4177.9
25407	0.27727	0.18182	0.1	4465.9
25408	9.2424e-002	0.18182	0.1	3195.9
25409	0.18485	9.0909e-002	0.1	3697.2
25410	0.18485	0.45455	0.1	4830.8
25411	0.27727	0.36364	0.1	4826.
25412	9.2424e-002	0.36364	0.1	4549.3
25413	0.18485	0.63636	0.1	5446.
25414	0.27727	0.54545	0.1	5314.5
25415	9.2424e-002	0.54545	0.1	5428.7
25416	0.18485	0.81818	0.1	5911.6
25417	0.27727	0.72727	0.1	5743.1
25418	9.2424e-002	0.72727	0.1	6020.9
25419	0.18485	1.	0.1	6261.6
25420	0.27727	0.90909	0.1	6093.8
25421	9.2424e-002	0.90909	0.1	6437.7
25422	0.18485	1.1818	0.1	6527.
25423	0.27727	1.0909	0.1	6373.
25424	9.2424e-002	1.0909	0.1	6742.8
25425	0.18485	1.3636	0.1	6731.3
25426	0.27727	1.2727	0.1	6594.5
25427	9.2424e-002	1.2727	0.1	6972.3
25428	0.18485	1.5455	0.1	6890.4
25429	0.27727	1.4545	0.1	6770.5
25430	9.2424e-002	1.4545	0.1	7148.3
25431	0.18485	1.7273	0.1	7015.
25432	0.27727	1.6364	0.1	6910.6
25433	9.2424e-002	1.6364	0.1	7284.9
25434	0.18485	1.9091	0.1	7112.6
25435	0.27727	1.8182	0.1	7021.8
25436	9.2424e-002	1.8182	0.1	7391.4
25437	0.18485	2.0909	0.1	7188.5
25438	0.27727	2.	0.1	7109.6
25439	9.2424e-002	2.	0.1	7474.4
25440	0.18485	2.2727	0.1	7246.4
25441	0.27727	2.1818	0.1	7177.8
25442	9.2424e-002	2.1818	0.1	7538.2
25443	0.18485	2.4545	0.1	7289.1
25444	0.27727	2.3636	0.1	7229.5
25445	9.2424e-002	2.3636	0.1	7586.1
25446	0.18485	2.6364	0.1	7318.4
25447	0.27727	2.5455	0.1	7266.6
25448	9.2424e-002	2.5455	0.1	7620.4
25449	0.18485	2.8182	0.1	7335.6
25450	0.27727	2.7273	0.1	7290.6
25451	9.2424e-002	2.7273	0.1	7642.4
25452	0.18485	3.	0.1	7341.2
25453	0.27727	2.9091	0.1	7302.3
25454	9.2424e-002	2.9091	0.1	7653.2
25455	0.18485	3.1818	0.1	7335.6
25456	0.27727	3.0909	0.1	7302.3
25457	9.2424e-002	3.0909	0.1	7653.2
25458	0.18485	3.3636	0.1	7318.4
25459	0.27727	3.2727	0.1	7290.6
25460	9.2424e-002	3.2727	0.1	7642.4
25461	0.18485	3.5455	0.1	7289.1
25462	0.27727	3.4545	0.1	7266.6
25463	9.2424e-002	3.4545	0.1	7620.4
25464	0.18485	3.7273	0.1	7246.4
25465	0.27727	3.6364	0.1	7229.5
25466	9.2424e-002	3.6364	0.1	7586.1
25467	0.18485	3.9091	0.1	7188.5
25468	0.27727	3.8182	0.1	7177.8
25469	9.2424e-002	3.8182	0.1	7538.2
25470	0.18485	4.0909	0.1	7112.6
25471	0.27727	4.	0.1	7109.6
25472	9.2424e-002	4.	0.1	7474.4
25473	0.18485	4.2727	0.1	7015.
25474	0.27727	4.1818	0.1	7021.8
25475	9.2424e-002	4.1818	0.1	7391.4
25476	0.18485	4.4545	0.1	6890.4
25477	0.27727	4.3636	0.1	6910.6
25478	9.2424e-002	4.3636	0.1	7284.9
25479	0.18485	4.6364	0.1	6731.3
25480	0.27727	4.5455	0.1	6770.5
25481	9.2424e-002	4.5455	0.1	7148.3
25482	0.18485	4.8182	0.1	6527.
25483	0.27727	4.7273	0.1	6594.5
25484	9.2424e-002	4.7273	0.1	6972.3
25485	0.18485	5.	0.1	6261.6
25486	0.27727	4.9091	0.1	6373.
25487	9.2424e-002	4.9091	0.1	6742.8
25488	0.18485	5.1818	0.1	5911.6
25489	0.27727	5.0909	0.1	6093.8
25490	9.2424e-002	5.0909	0.1	6437.7
25491	0.18485	5.3636	0.1	5446.
25492	0.27727	5.2727	0.1	5743.1
25493	9.2424e-002	5.2727	0.1	6020.9
25494	0.18485	5.5455	0.1	4830.8
25495	0.27727	5.4545	0.1	5314.5
25496	9.2424e-002	5.4545	0.1	5428.7
25497	0.18485	5.7273	0.1	4177.9
25498	0.27727	5.6364	0.1	4826.
25499	9.2424e-002	5.6364	0.1	4549.3
25500	0.27727	5.8182	0.1	4465.9
25501	9.2424e-002	5.8182	0.1	3195.9
25502	0.18485	5.9091	0.1	3697.2
25503	0.3697	0.27273	0.1	5099.
25504	0.46212	0.18182	0.1	5283.
25505	0.3697	9.0909e-002	0.1	4882.
25506	0.3697	0.45455	0.1	5309.3
25507	0.46212	0.36364	0.1	5346.6
25508	0.3697	0.63636	0.1	5618.7
25509	0.46212	0.54545	0.1	5548.3
25510	0.3697	0.81818	0.1	5931.9
25511	0.46212	0.72727	0.1	5792.6
25512	0.3697	1.	0.1	6209.9
25513	0.46212	0.90909	0.1	6034.2
25514	0.3697	1.1818	0.1	6443.6
25515	0.46212	1.0909	0.1	6252.5
25516	0.3697	1.3636	0.1	6635.6
25517	0.46212	1.2727	0.1	6440.9
25518	0.3697	1.5455	0.1	6791.9
25519	0.46212	1.4545	0.1	6599.6
25520	0.3697	1.7273	0.1	6918.1
25521	0.46212	1.6364	0.1	6731.2
25522	0.3697	1.9091	0.1	7019.3
25523	0.46212	1.8182	0.1	6838.9
25524	0.3697	2.0909	0.1	7099.2
25525	0.46212	2.	0.1	6925.8
25526	0.3697	2.2727	0.1	7161.
25527	0.46212	2.1818	0.1	6994.5
25528	0.3697	2.4545	0.1	7207.
25529	0.46212	2.3636	0.1	7047.2
25530	0.3697	2.6364	0.1	7238.7
25531	0.46212	2.5455	0.1	7085.3
25532	0.3697	2.8182	0.1	7257.4
25533	0.46212	2.7273	0.1	7110.2
25534	0.3697	3.	0.1	7263.5
25535	0.46212	2.9091	0.1	7122.4
25536	0.3697	3.1818	0.1	7257.4
25537	0.46212	3.0909	0.1	7122.4
25538	0.3697	3.3636	0.1	7238.7
25539	0.46212	3.2727	0.1	7110.2
25540	0.3697	3.5455	0.1	7207.
25541	0.46212	3.4545	0.1	7085.3
25542	0.3697	3.7273	0.1	7161.
25543	0.46212	3.6364	0.1	7047.2
25544	0.3697	3.9091	0.1	7099.2
25545	0.46212	3.8182	0.1	6994.5
25546	0.3697	4.0909	0.1	7019.3
25547	0.46212	4.	0.1	6925.8
25548	0.3697	4.2727	0.1	6918.1
25549	0.46212	4.1818	0.1	6838.9
25550	0.3697	4.4545	0.1	6791.9
25551	0.46212	4.3636	0.1	6731.2
25552	0.3697	4.6364	0.1	6635.6
25553	0.46212	4.5455	0.1	6599.6
25554	0.3697	4.8182	0.1	6443.6
25555	0.46212	4.7273	0.1	6440.9
25556	0.3697	5.	0.1	6209.9
25557	0.46212	4.9091	0.1	6252.5
25558	0.3697	5.1818	0.1	5931.9
25559	0.46212	5.0909	0.1	6034.2
25560	0.3697	5.3636	0.1	5618.7
25561	0.46212	5.2727	0.1	5792.6
25562	0.3697	5.5455	0.1	5309.3
25563	0.46212	5.4545	0.1	5548.3
25564	0.3697	5.7273	0.1	5099.
25565	0.46212	5.6364	0.1	5346.6
25566	0.46212	5.8182	0.1	5283.
25567	0.3697	5.9091	0.1	4882.
25568	0.55455	0.27273	0.1	5529.1
25569	0.64697	0.18182	0.1	5673.3
25570	0.55455	9.0909e-002	0.1	5422.2
25571	0.55455	0.45455	0.1	5581.8
25572	0.64697	0.36364	0.1	5649.8
25573	0.55455	0.63636	0.1	5719.1
25574	0.64697	0.54545	0.1	5724.2
25575	0.55455	0.81818	0.1	5893.7
25576	0.64697	0.72727	0.1	5845.5
25577	0.55455	1.	0.1	6077.
25578	0.64697	0.90909	0.1	5990.3
25579	0.55455	1.1818	0.1	6250.5
25580	0.64697	1.0909	0.1	6139.5
25581	0.55455	1.3636	0.1	6405.5
25582	0.64697	1.2727	0.1	6281.2
25583	0.55455	1.5455	0.1	6539.4
25584	0.64697	1.4545	0.1	6409.1
25585	0.55455	1.7273	0.1	6652.3
25586	0.64697	1.6364	0.1	6520.7
25587	0.55455	1.9091	0.1	6745.7
25588	0.64697	1.8182	0.1	6615.7
25589	0.55455	2.0909	0.1	6821.3
25590	0.64697	2.	0.1	6694.6
25591	0.55455	2.2727	0.1	6880.7
25592	0.64697	2.1818	0.1	6758.3
25593	0.55455	2.4545	0.1	6925.5
25594	0.64697	2.3636	0.1	6807.9
25595	0.55455	2.6364	0.1	6956.7
25596	0.64697	2.5455	0.1	6844.3
25597	0.55455	2.8182	0.1	6975.1
25598	0.64697	2.7273	0.1	6868.1
25599	0.55455	3.	0.1	6981.2
25600	0.64697	2.9091	0.1	6879.9
25601	0.55455	3.1818	0.1	6975.1
25602	0.64697	3.0909	0.1	6879.9
25603	0.55455	3.3636	0.1	6956.7
25604	0.64697	3.2727	0.1	6868.1
25605	0.55455	3.5455	0.1	6925.5
25606	0.64697	3.4545	0.1	6844.3
25607	0.55455	3.7273	0.1	6880.7
25608	0.64697	3.6364	0.1	6807.9
25609	0.55455	3.9091	0.1	6821.3
25610	0.64697	3.8182	0.1	6758.3
25611	0.55455	4.0909	0.1	6745.7
25612	0.64697	4.	0.1	6694.6
25613	0.55455	4.2727	0.1	6652.3
25614	0.64697	4.1818	0.1	6615.7
25615	0.55455	4.4545	0.1	6539.4
25616	0.64697	4.3636	0.1	6520.7
25617	0.55455	4.6364	0.1	6405.5
25618	0.64697	4.5455	0.1	6409.1
25619	0.55455	4.8182	0.1	6250.5
25620	0.64697	4.7273	0.1	6281.2
25621	0.55455	5.	0.1	6077.
25622	0.64697	4.9091	0.1	6139.5
25623	0.55455	5.1818	0.1	5893.7
25624	0.64697	5.0909	0.1	5990.3
25625	0.55455	5.3636	0.1	5719.1
25626	0.64697	5.2727	0.1	5845.5
25627	0.55455	5.5455	0.1	5581.8
25628	0.64697	5.4545	0.1	5724.2
25629	0.55455	5.7273	0.1	5529.1
25630	0.64697	5.6364	0.1	5649.8
25631	0.64697	5.8182	0.1	5673.3
25632	0.55455	5.9091	0.1	5422.2
25633	0.73939	0.27273	0.1	5794.1
25634	0.83182	0.18182	0.1	5890.9
25635	0.73939	9.0909e-002	0.1	5729.8
25636	0.73939	0.45455	0.1	5791.4
25637	0.83182	0.36364	0.1	5841.5
25638	0.73939	0.63636	0.1	5848.8
25639	0.83182	0.54545	0.1	5861.1
25640	0.73939	0.81818	0.1	5940.4
25641	0.83182	0.72727	0.1	5915.9
25642	0.73939	1.	0.1	6051.8
25643	0.83182	0.90909	0.1	5995.8
25644	0.73939	1.1818	0.1	6169.8
25645	0.83182	1.0909	0.1	6089.7
25646	0.73939	1.3636	0.1	6284.7
25647	0.83182	1.2727	0.1	6187.8
25648	0.73939	1.5455	0.1	6390.5
25649	0.83182	1.4545	0.1	6283.2
25650	0.73939	1.7273	0.1	6484.2
25651	0.83182	1.6364	0.1	6371.1
25652	0.73939	1.9091	0.1	6564.6
25653	0.83182	1.8182	0.1	6449.2
25654	0.73939	2.0909	0.1	6631.6
25655	0.83182	2.	0.1	6516.2
25656	0.73939	2.2727	0.1	6685.4
25657	0.83182	2.1818	0.1	6571.8
25658	0.73939	2.4545	0.1	6726.6
25659	0.83182	2.3636	0.1	6615.8
25660	0.73939	2.6364	0.1	6755.6
25661	0.83182	2.5455	0.1	6648.6
25662	0.73939	2.8182	0.1	6772.8
25663	0.83182	2.7273	0.1	6670.2
25664	0.73939	3.	0.1	6778.5
25665	0.83182	2.9091	0.1	6681.
25666	0.73939	3.1818	0.1	6772.8
25667	0.83182	3.0909	0.1	6681.
25668	0.73939	3.3636	0.1	6755.6
25669	0.83182	3.2727	0.1	6670.2
25670	0.73939	3.5455	0.1	6726.6
25671	0.83182	3.4545	0.1	6648.6
25672	0.73939	3.7273	0.1	6685.4
25673	0.83182	3.6364	0.1	6615.8
25674	0.73939	3.9091	0.1	6631.6
25675	0.83182	3.8182	0.1	6571.8
25676	0.73939	4.0909	0.1	6564.6
25677	0.83182	4.	0.1	6516.2
25678	0.73939	4.2727	0.1	6484.2
25679	0.83182	4.1818	0.1	6449.2
25680	0.73939	4.4545	0.1	6390.5
25681	0.83182	4.3636	0.1	6371.1
25682	0.73939	4.6364	0.1	6284.7
25683	0.83182	4.5455	0.1	6283.2
25684	0.73939	4.8182	0.1	6169.8
25685	0.83182	4.7273	0.1	6187.8
25686	0.73939	5.	0.1	6051.8
25687	0.83182	4.9091	0.1	6089.7
25688	0.73939	5.1818	0.1	5940.4
25689	0.83182	5.0909	0.1	5995.8
25690	0.73939	5.3636	0.1	5848.8
25691	0.83182	5.2727	0.1	5915.9
25692	0.73939	5.5455	0.1	5791.4
25693	0.83182	5.4545	0.1	5861.1
25694	0.73939	5.7273	0.1	5794.1
25695	0.83182	5.6364	0.1	5841.5
25696	0.83182	5.8182	0.1	5890.9
25697	0.73939	5.9091	0.1	5729.8
25698	0.92424	0.27273	0.1	5938.9
25699	1.0167	0.18182	0.1	6005.9
25700	0.92424	9.0909e-002	0.1	5899.8
25701	0.92424	0.45455	0.1	5911.5
25702	1.0167	0.36364	0.1	5948.2
25703	0.92424	0.63636	0.1	5927.6
25704	1.0167	0.54545	0.1	5941.1
25705	0.92424	0.81818	0.1	5970.3
25706	1.0167	0.72727	0.1	5959.3
25707	0.92424	1.	0.1	6032.6
25708	1.0167	0.90909	0.1	5998.3
25709	0.92424	1.1818	0.1	6106.9
25710	1.0167	1.0909	0.1	6052.5
25711	0.92424	1.3636	0.1	6185.8
25712	1.0167	1.2727	0.1	6115.4
25713	0.92424	1.5455	0.1	6263.5
25714	1.0167	1.4545	0.1	6181.5
25715	0.92424	1.7273	0.1	6335.9
25716	1.0167	1.6364	0.1	6246.2
25717	0.92424	1.9091	0.1	6400.7
25718	1.0167	1.8182	0.1	6306.4
25719	0.92424	2.0909	0.1	6456.3
25720	1.0167	2.	0.1	6359.9
25721	0.92424	2.2727	0.1	6502.1
25722	1.0167	2.1818	0.1	6405.5
25723	0.92424	2.4545	0.1	6537.7
25724	1.0167	2.3636	0.1	6442.4
25725	0.92424	2.6364	0.1	6563.1
25726	1.0167	2.5455	0.1	6470.2
25727	0.92424	2.8182	0.1	6578.3
25728	1.0167	2.7273	0.1	6488.8
25729	0.92424	3.	0.1	6583.4
25730	1.0167	2.9091	0.1	6498.2
25731	0.92424	3.1818	0.1	6578.3
25732	1.0167	3.0909	0.1	6498.2
25733	0.92424	3.3636	0.1	6563.1
25734	1.0167	3.2727	0.1	6488.8
25735	0.92424	3.5455	0.1	6537.7
25736	1.0167	3.4545	0.1	6470.2
25737	0.92424	3.7273	0.1	6502.1
25738	1.0167	3.6364	0.1	6442.4
25739	0.92424	3.9091	0.1	6456.3
25740	1.0167	3.8182	0.1	6405.5
25741	0.92424	4.0909	0.1	6400.7
25742	1.0167	4.	0.1	6359.9
25743	0.92424	4.2727	0.1	6335.9
25744	1.0167	4.1818	0.1	6306.4
25745	0.92424	4.4545	0.1	6263.5
25746	1.0167	4.3636	0.1	6246.2
25747	0.92424	4.6364	0.1	6185.8
25748	1.0167	4.5455	0.1	6181.5
25749	0.92424	4.8182	0.1	6106.9
25750	1.0167	4.7273	0.1	6115.4
25751	0.92424	5.	0.1	6032.6
25752	1.0167	4.9091	0.1	6052.5
25753	0.92424	5.1818	0.1	5970.3
25754	1.0167	5.0909	0.1	5998.3
25755	0.92424	5.3636	0.1	5927.6
25756	1.0167	5.2727	0.1	5959.3
25757	0.92424	5.5455	0.1	5911.5
25758	1.0167	5.4545	0.1	5941.1
25759	0.92424	5.7273	0.1	5938.9
25760	1.0167	5.6364	0.1	5948.2
25761	1.0167	5.8182	0.1	6005.9
25762	0.92424	5.9091	0.1	5899.7
25763	1.1091	0.27273	0.1	6015.7
25764	1.2015	0.18182	0.1	6060.3
25765	1.1091	9.0909e-002	0.1	5992.
25766	1.1091	0.45455	0.1	5978.2
25767	1.2015	0.36364	0.1	6001.8
25768	1.1091	0.63636	0.1	5972.7
25769	1.2015	0.54545	0.1	5981.4
25770	1.1091	0.81818	0.1	5986.9
25771	1.2015	0.72727	0.1	5979.1
25772	1.1091	1.	0.1	6017.5
25773	1.2015	0.90909	0.1	5993.
25774	1.1091	1.1818	0.1	6060.3
25775	1.2015	1.0909	0.1	6020.1
25776	1.1091	1.3636	0.1	6110.6
25777	1.2015	1.2727	0.1	6056.8
25778	1.1091	1.5455	0.1	6163.8
25779	1.2015	1.4545	0.1	6099.2
25780	1.1091	1.7273	0.1	6216.4
25781	1.2015	1.6364	0.1	6143.6
25782	1.1091	1.9091	0.1	6265.3
25783	1.2015	1.8182	0.1	6187.
25784	1.1091	2.0909	0.1	6308.8
25785	1.2015	2.	0.1	6227.1
25786	1.1091	2.2727	0.1	6345.6
25787	1.2015	2.1818	0.1	6262.4
25788	1.1091	2.4545	0.1	6374.7
25789	1.2015	2.3636	0.1	6291.5
25790	1.1091	2.6364	0.1	6395.8
25791	1.2015	2.5455	0.1	6314.
25792	1.1091	2.8182	0.1	6408.5
25793	1.2015	2.7273	0.1	6329.1
25794	1.1091	3.	0.1	6412.8
25795	1.2015	2.9091	0.1	6336.7
25796	1.1091	3.1818	0.1	6408.5
25797	1.2015	3.0909	0.1	6336.7
25798	1.1091	3.3636	0.1	6395.8
25799	1.2015	3.2727	0.1	6329.1
25800	1.1091	3.5455	0.1	6374.7
25801	1.2015	3.4545	0.1	6314.
25802	1.1091	3.7273	0.1	6345.6
25803	1.2015	3.6364	0.1	6291.5
25804	1.1091	3.9091	0.1	6308.8
25805	1.2015	3.8182	0.1	6262.4
25806	1.1091	4.0909	0.1	6265.3
25807	1.2015	4.	0.1	6227.1
25808	1.1091	4.2727	0.1	6216.4
25809	1.2015	4.1818	0.1	6187.
25810	1.1091	4.4545	0.1	6163.8
25811	1.2015	4.3636	0.1	6143.6
25812	1.1091	4.6364	0.1	6110.6
25813	1.2015	4.5455	0.1	6099.2
25814	1.1091	4.8182	0.1	6060.3
25815	1.2015	4.7273	0.1	6056.8
25816	1.1091	5.	0.1	6017.5
25817	1.2015	4.9091	0.1	6020.1
25818	1.1091	5.1818	0.1	5986.9
25819	1.2015	5.0909	0.1	5993.
25820	1.1091	5.3636	0.1	5972.7
25821	1.2015	5.2727	0.1	5979.1
25822	1.1091	5.5455	0.1	5978.2
25823	1.2015	5.4545	0.1	5981.4
25824	1.1091	5.7273	0.1	6015.7
25825	1.2015	5.6364	0.1	6001.8
25826	1.2015	5.8182	0.1	6060.3
25827	1.1091	5.9091	0.1	5992.
25828	1.2939	0.27273	0.1	6046.8
25829	1.3864	0.18182	0.1	6075.3
25830	1.2939	9.0909e-002	0.1	6033.7
25831	1.2939	0.45455	0.1	6005.4
25832	1.3864	0.36364	0.1	6018.7
25833	1.2939	0.63636	0.1	5988.
25834	1.3864	0.54545	0.1	5991.5
25835	1.2939	0.81818	0.1	5985.1
25836	1.3864	0.72727	0.1	5977.5
25837	1.2939	1.	0.1	5995.2
25838	1.3864	0.90909	0.1	5975.7
25839	1.2939	1.1818	0.1	6016.1
25840	1.3864	1.0909	0.1	5984.7
25841	1.2939	1.3636	0.1	6044.9
25842	1.3864	1.2727	0.1	6002.6
25843	1.2939	1.5455	0.1	6078.4
25844	1.3864	1.4545	0.1	6026.8
25845	1.2939	1.7273	0.1	6113.8
25846	1.3864	1.6364	0.1	6054.6
25847	1.2939	1.9091	0.1	6148.4
25848	1.3864	1.8182	0.1	6083.5
25849	1.2939	2.0909	0.1	6180.3
25850	1.3864	2.	0.1	6111.6
25851	1.2939	2.2727	0.1	6208.1
25852	1.3864	2.1818	0.1	6137.
25853	1.2939	2.4545	0.1	6230.5
25854	1.3864	2.3636	0.1	6158.7
25855	1.2939	2.6364	0.1	6247.
25856	1.3864	2.5455	0.1	6175.7
25857	1.2939	2.8182	0.1	6257.1
25858	1.3864	2.7273	0.1	6187.3
25859	1.2939	3.	0.1	6260.5
25860	1.3864	2.9091	0.1	6193.2
25861	1.2939	3.1818	0.1	6257.1
25862	1.3864	3.0909	0.1	6193.2
25863	1.2939	3.3636	0.1	6247.
25864	1.3864	3.2727	0.1	6187.3
25865	1.2939	3.5455	0.1	6230.5
25866	1.3864	3.4545	0.1	6175.7
25867	1.2939	3.7273	0.1	6208.1
25868	1.3864	3.6364	0.1	6158.7
25869	1.2939	3.9091	0.1	6180.3
25870	1.3864	3.8182	0.1	6137.
25871	1.2939	4.0909	0.1	6148.4
25872	1.3864	4.	0.1	6111.6
25873	1.2939	4.2727	0.1	6113.8
25874	1.3864	4.1818	0.1	6083.5
25875	1.2939	4.4545	0.1	6078.4
25876	1.3864	4.3636	0.1	6054.6
25877	1.2939	4.6364	0.1	6044.9
25878	1.3864	4.5455	0.1	6026.8
25879	1.2939	4.8182	0.1	6016.1
25880	1.3864	4.7273	0.1	6002.6
25881	1.2939	5.	0.1	5995.2
25882	1.3864	4.9091	0.1	5984.7
25883	1.2939	5.1818	0.1	5985.1
25884	1.3864	5.0909	0.1	5975.7
25885	1.2939	5.3636	0.1	5988.
25886	1.3864	5.2727	0.1	5977.5
25887	1.2939	5.5455	0.1	6005.4
25888	1.3864	5.4545	0.1	5991.5
25889	1.2939	5.7273	0.1	6046.8
25890	1.3864	5.6364	0.1	6018.7
25891	1.3864	5.8182	0.1	6075.3
25892	1.2939	5.9091	0.1	6033.7
25893	1.4788	0.27273	0.1	6047.6
25894	1.5712	0.18182	0.1	6064.
25895	1.4788	9.0909e-002	0.1	6042.1
25896	1.4788	0.45455	0.1	6005.3
25897	1.5712	0.36364	0.1	6010.4
25898	1.4788	0.63636	0.1	5981.3
25899	1.5712	0.54545	0.1	5980.
25900	1.4788	0.81818	0.1	5968.2
25901	1.5712	0.72727	0.1	5959.3
25902	1.4788	1.	0.1	5965.1
25903	1.5712	0.90909	0.1	5947.7
25904	1.4788	1.1818	0.1	5971.
25905	1.5712	1.0909	0.1	5944.7
25906	1.4788	1.3636	0.1	5984.1
25907	1.5712	1.2727	0.1	5949.4
25908	1.4788	1.5455	0.1	6002.5
25909	1.5712	1.4545	0.1	5960.
25910	1.4788	1.7273	0.1	6023.9
25911	1.5712	1.6364	0.1	5974.8
25912	1.4788	1.9091	0.1	6046.3
25913	1.5712	1.8182	0.1	5991.9
25914	1.4788	2.0909	0.1	6067.9
25915	1.5712	2.	0.1	6009.7
25916	1.4788	2.2727	0.1	6087.4
25917	1.5712	2.1818	0.1	6026.5
25918	1.4788	2.4545	0.1	6103.6
25919	1.5712	2.3636	0.1	6041.4
25920	1.4788	2.6364	0.1	6115.6
25921	1.5712	2.5455	0.1	6053.3
25922	1.4788	2.8182	0.1	6123.1
25923	1.5712	2.7273	0.1	6061.6
25924	1.4788	3.	0.1	6125.6
25925	1.5712	2.9091	0.1	6065.8
25926	1.4788	3.1818	0.1	6123.1
25927	1.5712	3.0909	0.1	6065.8
25928	1.4788	3.3636	0.1	6115.6
25929	1.5712	3.2727	0.1	6061.6
25930	1.4788	3.5455	0.1	6103.6
25931	1.5712	3.4545	0.1	6053.3
25932	1.4788	3.7273	0.1	6087.4
25933	1.5712	3.6364	0.1	6041.4
25934	1.4788	3.9091	0.1	6067.9
25935	1.5712	3.8182	0.1	6026.5
25936	1.4788	4.0909	0.1	6046.3
25937	1.5712	4.	0.1	6009.7
25938	1.4788	4.2727	0.1	6023.9
25939	1.5712	4.1818	0.1	5991.9
25940	1.4788	4.4545	0.1	6002.5
25941	1.5712	4.3636	0.1	5974.8
25942	1.4788	4.6364	0.1	5984.1
25943	1.5712	4.5455	0.1	5960.
25944	1.4788	4.8182	0.1	5971.
25945	1.5712	4.7273	0.1	5949.4
25946	1.4788	5.	0.1	5965.1
25947	1.5712	4.9091	0.1	5944.7
25948	1.4788	5.1818	0.1	5968.2
25949	1.5712	5.0909	0.1	5947.7
25950	1.4788	5.3636	0.1	5981.3
25951	1.5712	5.2727	0.1	5959.3
25952	1.4788	5.5455	0.1	6005.3
25953	1.5712	5.4545	0.1	5980.
25954	1.4788	5.7273	0.1	6047.6
25955	1.5712	5.6364	0.1	6010.4
25956	1.5712	5.8182	0.1	6064.
25957	1.4788	5.9091	0.1	6042.1
25958	1.6636	0.27273	0.1	6027.2
25959	1.7561	0.18182	0.1	6034.6
25960	1.6636	9.0909e-002	0.1	6027.6
25961	1.6636	0.45455	0.1	5985.6
25962	1.7561	0.36364	0.1	5984.5
25963	1.6636	0.63636	0.1	5958.2
25964	1.7561	0.54545	0.1	5952.8
25965	1.6636	0.81818	0.1	5938.9
25966	1.7561	0.72727	0.1	5928.2
25967	1.6636	1.	0.1	5927.3
25968	1.7561	0.90909	0.1	5910.6
25969	1.6636	1.1818	0.1	5923.
25970	1.7561	1.0909	0.1	5899.8
25971	1.6636	1.3636	0.1	5925.
25972	1.7561	1.2727	0.1	5895.2
25973	1.6636	1.5455	0.1	5932.
25974	1.7561	1.4545	0.1	5896.
25975	1.6636	1.7273	0.1	5942.5
25976	1.7561	1.6364	0.1	5901.
25977	1.6636	1.9091	0.1	5954.9
25978	1.7561	1.8182	0.1	5908.8
25979	1.6636	2.0909	0.1	5967.9
25980	1.7561	2.	0.1	5918.2
25981	1.6636	2.2727	0.1	5980.2
25982	1.7561	2.1818	0.1	5927.8
25983	1.6636	2.4545	0.1	5990.8
25984	1.7561	2.3636	0.1	5936.8
25985	1.6636	2.6364	0.1	5998.9
25986	1.7561	2.5455	0.1	5944.3
25987	1.6636	2.8182	0.1	6004.
25988	1.7561	2.7273	0.1	5949.6
25989	1.6636	3.	0.1	6005.7
25990	1.7561	2.9091	0.1	5952.4
25991	1.6636	3.1818	0.1	6004.
25992	1.7561	3.0909	0.1	5952.4
25993	1.6636	3.3636	0.1	5998.9
25994	1.7561	3.2727	0.1	5949.6
25995	1.6636	3.5455	0.1	5990.8
25996	1.7561	3.4545	0.1	5944.3
25997	1.6636	3.7273	0.1	5980.2
25998	1.7561	3.6364	0.1	5936.8
25999	1.6636	3.9091	0.1	5967.9
26000	1.7561	3.8182	0.1	5927.8
26001	1.6636	4.0909	0.1	5954.9
26002	1.7561	4.	0.1	5918.2
26003	1.6636	4.2727	0.1	5942.5
26004	1.7561	4.1818	0.1	5908.8
26005	1.6636	4.4545	0.1	5932.
26006	1.7561	4.3636	0.1	5901.
26007	1.6636	4.6364	0.1	5925.
26008	1.7561	4.5455	0.1	5896.
26009	1.6636	4.8182	0.1	5923.
26010	1.7561	4.7273	0.1	5895.2
26011	1.6636	5.	0.1	5927.3
26012	1.7561	4.9091	0.1	5899.8
26013	1.6636	5.1818	0.1	5938.9
26014	1.7561	5.0909	0.1	5910.6
26015	1.6636	5.3636	0.1	5958.2
26016	1.7561	5.2727	0.1	5928.2
26017	1.6636	5.5455	0.1	5985.6
26018	1.7561	5.4545	0.1	5952.8
26019	1.6636	5.7273	0.1	6027.2
26020	1.7561	5.6364	0.1	5984.5
26021	1.7561	5.8182	0.1	6034.6
26022	1.6636	5.9091	0.1	6027.6
26023	1.8485	0.27273	0.1	5992.2
26024	1.9409	0.18182	0.1	5992.5
26025	1.8485	9.0909e-002	0.1	5996.9
26026	1.8485	0.45455	0.1	5952.
26027	1.9409	0.36364	0.1	5946.
26028	1.8485	0.63636	0.1	5923.
26029	1.9409	0.54545	0.1	5914.1
26030	1.8485	0.81818	0.1	5900.1
26031	1.9409	0.72727	0.1	5887.5
26032	1.8485	1.	0.1	5883.1
26033	1.9409	0.90909	0.1	5866.3
26034	1.8485	1.1818	0.1	5871.9
26035	1.9409	1.0909	0.1	5850.4
26036	1.8485	1.3636	0.1	5866.1
26037	1.9409	1.2727	0.1	5839.6
26038	1.8485	1.5455	0.1	5864.8
26039	1.9409	1.4545	0.1	5833.5
26040	1.8485	1.7273	0.1	5867.1
26041	1.9409	1.6364	0.1	5831.2
26042	1.8485	1.9091	0.1	5871.7
26043	1.9409	1.8182	0.1	5831.9
26044	1.8485	2.0909	0.1	5877.8
26045	1.9409	2.	0.1	5834.7
26046	1.8485	2.2727	0.1	5884.1
26047	1.9409	2.1818	0.1	5838.6
26048	1.8485	2.4545	0.1	5890.
26049	1.9409	2.3636	0.1	5842.7
26050	1.8485	2.6364	0.1	5894.7
26051	1.9409	2.5455	0.1	5846.5
26052	1.8485	2.8182	0.1	5897.7
26053	1.9409	2.7273	0.1	5849.2
26054	1.8485	3.	0.1	5898.7
26055	1.9409	2.9091	0.1	5850.7
26056	1.8485	3.1818	0.1	5897.7
26057	1.9409	3.0909	0.1	5850.7
26058	1.8485	3.3636	0.1	5894.7
26059	1.9409	3.2727	0.1	5849.2
26060	1.8485	3.5455	0.1	5890.
26061	1.9409	3.4545	0.1	5846.5
26062	1.8485	3.7273	0.1	5884.1
26063	1.9409	3.6364	0.1	5842.7
26064	1.8485	3.9091	0.1	5877.8
26065	1.9409	3.8182	0.1	5838.6
26066	1.8485	4.0909	0.1	5871.7
26067	1.9409	4.	0.1	5834.7
26068	1.8485	4.2727	0.1	5867.1
26069	1.9409	4.1818	0.1	5831.9
26070	1.8485	4.4545	0.1	5864.8
26071	1.9409	4.3636	0.1	5831.2
26072	1.8485	4.6364	0.1	5866.1
26073	1.9409	4.5455	0.1	5833.5
26074	1.8485	4.8182	0.1	5871.9
26075	1.9409	4.7273	0.1	5839.6
26076	1.8485	5.	0.1	5883.1
26077	1.9409	4.9091	0.1	5850.4
26078	1.8485	5.1818	0.1	5900.1
26079	1.9409	5.0909	0.1	5866.3
26080	1.8485	5.3636	0.1	5923.
26081	1.9409	5.2727	0.1	5887.5
26082	1.8485	5.5455	0.1	5952.
26083	1.9409	5.4545	0.1	5914.1
26084	1.8485	5.7273	0.1	5992.2
26085	1.9409	5.6364	0.1	5946.
26086	1.9409	5.8182	0.1	5992.5
26087	1.8485	5.9091	0.1	5996.9
26088	2.0333	0.27273	0.1	5946.7
26089	2.1258	0.18182	0.1	5941.7
26090	2.0333	9.0909e-002	0.1	5954.7
26091	2.0333	0.45455	0.1	5908.4
26092	2.1258	0.36364	0.1	5898.5
26093	2.0333	0.63636	0.1	5878.9
26094	2.1258	0.54545	0.1	5867.2
26095	2.0333	0.81818	0.1	5854.
26096	2.1258	0.72727	0.1	5839.8
26097	2.0333	1.	0.1	5833.7
26098	2.1258	0.90909	0.1	5816.5
26099	2.0333	1.1818	0.1	5818.1
26100	2.1258	1.0909	0.1	5797.4
26101	2.0333	1.3636	0.1	5806.9
26102	2.1258	1.2727	0.1	5782.5
26103	2.0333	1.5455	0.1	5799.7
26104	2.1258	1.4545	0.1	5771.5
26105	2.0333	1.7273	0.1	5795.8
26106	2.1258	1.6364	0.1	5764.1
26107	2.0333	1.9091	0.1	5794.6
26108	2.1258	1.8182	0.1	5759.6
26109	2.0333	2.0909	0.1	5795.2
26110	2.1258	2.	0.1	5757.3
26111	2.0333	2.2727	0.1	5796.8
26112	2.1258	2.1818	0.1	5756.7
26113	2.0333	2.4545	0.1	5798.9
26114	2.1258	2.3636	0.1	5757.
26115	2.0333	2.6364	0.1	5800.7
26116	2.1258	2.5455	0.1	5757.8
26117	2.0333	2.8182	0.1	5802.
26118	2.1258	2.7273	0.1	5758.6
26119	2.0333	3.	0.1	5802.5
26120	2.1258	2.9091	0.1	5759.
26121	2.0333	3.1818	0.1	5802.
26122	2.1258	3.0909	0.1	5759.
26123	2.0333	3.3636	0.1	5800.7
26124	2.1258	3.2727	0.1	5758.6
26125	2.0333	3.5455	0.1	5798.9
26126	2.1258	3.4545	0.1	5757.8
26127	2.0333	3.7273	0.1	5796.8
26128	2.1258	3.6364	0.1	5757.
26129	2.0333	3.9091	0.1	5795.2
26130	2.1258	3.8182	0.1	5756.7
26131	2.0333	4.0909	0.1	5794.6
26132	2.1258	4.	0.1	5757.3
26133	2.0333	4.2727	0.1	5795.8
26134	2.1258	4.1818	0.1	5759.6
26135	2.0333	4.4545	0.1	5799.7
26136	2.1258	4.3636	0.1	5764.1
26137	2.0333	4.6364	0.1	5806.9
26138	2.1258	4.5455	0.1	5771.5
26139	2.0333	4.8182	0.1	5818.1
26140	2.1258	4.7273	0.1	5782.5
26141	2.0333	5.	0.1	5833.7
26142	2.1258	4.9091	0.1	5797.4
26143	2.0333	5.1818	0.1	5854.
26144	2.1258	5.0909	0.1	5816.5
26145	2.0333	5.3636	0.1	5878.9
26146	2.1258	5.2727	0.1	5839.8
26147	2.0333	5.5455	0.1	5908.4
26148	2.1258	5.4545	0.1	5867.2
26149	2.0333	5.7273	0.1	5946.7
26150	2.1258	5.6364	0.1	5898.5
26151	2.1258	5.8182	0.1	5941.7
26152	2.0333	5.9091	0.1	5954.7
26153	2.2182	0.27273	0.1	5893.8
26154	2.3106	0.18182	0.1	5884.6
26155	2.2182	9.0909e-002	0.1	5904.4
26156	2.2182	0.45455	0.1	5857.6
26157	2.3106	0.36364	0.1	5844.7
26158	2.2182	0.63636	0.1	5828.3
26159	2.3106	0.54545	0.1	5814.3
26160	2.2182	0.81818	0.1	5802.5
26161	2.3106	0.72727	0.1	5786.8
26162	2.2182	1.	0.1	5780.3
26163	2.3106	0.90909	0.1	5762.6
26164	2.2182	1.1818	0.1	5761.9
26165	2.3106	1.0909	0.1	5741.6
26166	2.2182	1.3636	0.1	5747.1
26167	2.3106	1.2727	0.1	5724.1
26168	2.2182	1.5455	0.1	5735.9
26169	2.3106	1.4545	0.1	5710.
26170	2.2182	1.7273	0.1	5727.7
26171	2.3106	1.6364	0.1	5698.9
26172	2.2182	1.9091	0.1	5722.1
26173	2.3106	1.8182	0.1	5690.7
26174	2.2182	2.0909	0.1	5718.6
26175	2.3106	2.	0.1	5684.7
26176	2.2182	2.2727	0.1	5716.6
26177	2.3106	2.1818	0.1	5680.7
26178	2.2182	2.4545	0.1	5715.7
26179	2.3106	2.3636	0.1	5678.2
26180	2.2182	2.6364	0.1	5715.3
26181	2.3106	2.5455	0.1	5676.6
26182	2.2182	2.8182	0.1	5715.2
26183	2.3106	2.7273	0.1	5675.8
26184	2.2182	3.	0.1	5715.2
26185	2.3106	2.9091	0.1	5675.4
26186	2.2182	3.1818	0.1	5715.2
26187	2.3106	3.0909	0.1	5675.4
26188	2.2182	3.3636	0.1	5715.3
26189	2.3106	3.2727	0.1	5675.8
26190	2.2182	3.5455	0.1	5715.7
26191	2.3106	3.4545	0.1	5676.6
26192	2.2182	3.7273	0.1	5716.6
26193	2.3106	3.6364	0.1	5678.2
26194	2.2182	3.9091	0.1	5718.6
26195	2.3106	3.8182	0.1	5680.7
26196	2.2182	4.0909	0.1	5722.1
26197	2.3106	4.	0.1	5684.7
26198	2.2182	4.2727	0.1	5727.7
26199	2.3106	4.1818	0.1	5690.7
26200	2.2182	4.4545	0.1	5735.9
26201	2.3106	4.3636	0.1	5698.9
26202	2.2182	4.6364	0.1	5747.1
26203	2.3106	4.5455	0.1	5710.
26204	2.2182	4.8182	0.1	5761.9
26205	2.3106	4.7273	0.1	5724.1
26206	2.2182	5.	0.1	5780.3
26207	2.3106	4.9091	0.1	5741.6
26208	2.2182	5.1818	0.1	5802.5
26209	2.3106	5.0909	0.1	5762.6
26210	2.2182	5.3636	0.1	5828.3
26211	2.3106	5.2727	0.1	5786.8
26212	2.2182	5.5455	0.1	5857.6
26213	2.3106	5.4545	0.1	5814.3
26214	2.2182	5.7273	0.1	5893.8
26215	2.3106	5.6364	0.1	5844.7
26216	2.3106	5.8182	0.1	5884.6
26217	2.2182	5.9091	0.1	5904.4
26218	2.403	0.27273	0.1	5835.8
26219	2.4955	0.18182	0.1	5823.3
26220	2.403	9.0909e-002	0.1	5848.2
26221	2.403	0.45455	0.1	5801.7
26222	2.4955	0.36364	0.1	5786.5
26223	2.403	0.63636	0.1	5773.
26224	2.4955	0.54545	0.1	5757.2
26225	2.403	0.81818	0.1	5747.1
26226	2.4955	0.72727	0.1	5730.2
26227	2.403	1.	0.1	5724.
26228	2.4955	0.90909	0.1	5705.7
26229	2.403	1.1818	0.1	5704.
26230	2.4955	1.0909	0.1	5683.8
26231	2.403	1.3636	0.1	5687.
26232	2.4955	1.2727	0.1	5664.8
26233	2.403	1.5455	0.1	5673.
26234	2.4955	1.4545	0.1	5648.6
26235	2.403	1.7273	0.1	5661.8
26236	2.4955	1.6364	0.1	5635.2
26237	2.403	1.9091	0.1	5653.1
26238	2.4955	1.8182	0.1	5624.4
26239	2.403	2.0909	0.1	5646.7
26240	2.4955	2.	0.1	5615.9
26241	2.403	2.2727	0.1	5642.
26242	2.4955	2.1818	0.1	5609.4
26243	2.403	2.4545	0.1	5638.8
26244	2.4955	2.3636	0.1	5604.7
26245	2.403	2.6364	0.1	5636.8
26246	2.4955	2.5455	0.1	5601.4
26247	2.403	2.8182	0.1	5635.7
26248	2.4955	2.7273	0.1	5599.4
26249	2.403	3.	0.1	5635.3
26250	2.4955	2.9091	0.1	5598.5
26251	2.403	3.1818	0.1	5635.7
26252	2.4955	3.0909	0.1	5598.5
26253	2.403	3.3636	0.1	5636.8
26254	2.4955	3.2727	0.1	5599.4
26255	2.403	3.5455	0.1	5638.8
26256	2.4955	3.4545	0.1	5601.4
26257	2.403	3.7273	0.1	5642.
26258	2.4955	3.6364	0.1	5604.7
26259	2.403	3.9091	0.1	5646.7
26260	2.4955	3.8182	0.1	5609.4
26261	2.403	4.0909	0.1	5653.1
26262	2.4955	4.	0.1	5615.9
26263	2.403	4.2727	0.1	5661.8
26264	2.4955	4.1818	0.1	5624.4
26265	2.403	4.4545	0.1	5673.
26266	2.4955	4.3636	0.1	5635.2
26267	2.403	4.6364	0.1	5687.
26268	2.4955	4.5455	0.1	5648.6
26269	2.403	4.8182	0.1	5704.
26270	2.4955	4.7273	0.1	5664.8
26271	2.403	5.	0.1	5724.
26272	2.4955	4.9091	0.1	5683.8
26273	2.403	5.1818	0.1	5747.1
26274	2.4955	5.0909	0.1	5705.7
26275	2.403	5.3636	0.1	5773.
26276	2.4955	5.2727	0.1	5730.2
26277	2.403	5.5455	0.1	5801.7
26278	2.4955	5.4545	0.1	5757.2
26279	2.403	5.7273	0.1	5835.8
26280	2.4955	5.6364	0.1	5786.4
26281	2.4955	5.8182	0.1	5823.3
26282	2.403	5.9091	0.1	5848.2
26283	2.5879	0.27273	0.1	5774.2
26284	2.6803	0.18182	0.1	5759.1
26285	2.5879	9.0909e-002	0.1	5788.
26286	2.5879	0.45455	0.1	5742.2
26287	2.6803	0.36364	0.1	5725.1
26288	2.5879	0.63636	0.1	5714.5
26289	2.6803	0.54545	0.1	5697.1
26290	2.5879	0.81818	0.1	5688.9
26291	2.6803	0.72727	0.1	5670.9
26292	2.5879	1.	0.1	5665.6
26293	2.6803	0.90909	0.1	5646.7
26294	2.5879	1.1818	0.1	5644.7
26295	2.6803	1.0909	0.1	5624.6
26296	2.5879	1.3636	0.1	5626.5
26297	2.6803	1.2727	0.1	5604.8
26298	2.5879	1.5455	0.1	5610.8
26299	2.6803	1.4545	0.1	5587.5
26300	2.5879	1.7273	0.1	5597.7
26301	2.6803	1.6364	0.1	5572.6
26302	2.5879	1.9091	0.1	5586.9
26303	2.6803	1.8182	0.1	5560.1
26304	2.5879	2.0909	0.1	5578.4
26305	2.6803	2.	0.1	5549.9
26306	2.5879	2.2727	0.1	5571.9
26307	2.6803	2.1818	0.1	5541.8
26308	2.5879	2.4545	0.1	5567.1
26309	2.6803	2.3636	0.1	5535.6
26310	2.5879	2.6364	0.1	5563.8
26311	2.6803	2.5455	0.1	5531.1
26312	2.5879	2.8182	0.1	5561.9
26313	2.6803	2.7273	0.1	5528.2
26314	2.5879	3.	0.1	5561.3
26315	2.6803	2.9091	0.1	5526.8
26316	2.5879	3.1818	0.1	5561.9
26317	2.6803	3.0909	0.1	5526.8
26318	2.5879	3.3636	0.1	5563.8
26319	2.6803	3.2727	0.1	5528.2
26320	2.5879	3.5455	0.1	5567.1
26321	2.6803	3.4545	0.1	5531.1
26322	2.5879	3.7273	0.1	5571.9
26323	2.6803	3.6364	0.1	5535.6
26324	2.5879	3.9091	0.1	5578.4
26325	2.6803	3.8182	0.1	5541.8
26326	2.5879	4.0909	0.1	5586.9
26327	2.6803	4.	0.1	5549.9
26328	2.5879	4.2727	0.1	5597.7
26329	2.6803	4.1818	0.1	5560.1
26330	2.5879	4.4545	0.1	5610.8
26331	2.6803	4.3636	0.1	5572.6
26332	2.5879	4.6364	0.1	5626.5
26333	2.6803	4.5455	0.1	5587.5
26334	2.5879	4.8182	0.1	5644.7
26335	2.6803	4.7273	0.1	5604.8
26336	2.5879	5.	0.1	5665.6
26337	2.6803	4.9091	0.1	5624.6
26338	2.5879	5.1818	0.1	5688.9
26339	2.6803	5.0909	0.1	5646.7
26340	2.5879	5.3636	0.1	5714.5
26341	2.6803	5.2727	0.1	5670.9
26342	2.5879	5.5455	0.1	5742.2
26343	2.6803	5.4545	0.1	5697.1
26344	2.5879	5.7273	0.1	5774.2
26345	2.6803	5.6364	0.1	5725.1
26346	2.6803	5.8182	0.1	5759.1
26347	2.5879	5.9091	0.1	5788.
26348	2.7727	0.27273	0.1	5710.2
26349	2.8652	0.18182	0.1	5693.
26350	2.7727	9.0909e-002	0.1	5724.9
26351	2.7727	0.45455	0.1	5680.2
26352	2.8652	0.36364	0.1	5661.6
26353	2.7727	0.63636	0.1	5653.7
26354	2.8652	0.54545	0.1	5635.1
26355	2.7727	0.81818	0.1	5628.8
26356	2.8652	0.72727	0.1	5609.9
26357	2.7727	1.	0.1	5605.7
26358	2.8652	0.90909	0.1	5586.2
26359	2.7727	1.1818	0.1	5584.7
26360	2.8652	1.0909	0.1	5564.3
26361	2.7727	1.3636	0.1	5565.8
26362	2.8652	1.2727	0.1	5544.4
26363	2.7727	1.5455	0.1	5549.2
26364	2.8652	1.4545	0.1	5526.5
26365	2.7727	1.7273	0.1	5534.9
26366	2.8652	1.6364	0.1	5510.9
26367	2.7727	1.9091	0.1	5522.9
26368	2.8652	1.8182	0.1	5497.4
26369	2.7727	2.0909	0.1	5513.1
26370	2.8652	2.	0.1	5486.2
26371	2.7727	2.2727	0.1	5505.3
26372	2.8652	2.1818	0.1	5477.
26373	2.7727	2.4545	0.1	5499.4
26374	2.8652	2.3636	0.1	5469.8
26375	2.7727	2.6364	0.1	5495.3
26376	2.8652	2.5455	0.1	5464.5
26377	2.7727	2.8182	0.1	5492.8
26378	2.8652	2.7273	0.1	5461.1
26379	2.7727	3.	0.1	5492.
26380	2.8652	2.9091	0.1	5459.4
26381	2.7727	3.1818	0.1	5492.8
26382	2.8652	3.0909	0.1	5459.4
26383	2.7727	3.3636	0.1	5495.3
26384	2.8652	3.2727	0.1	5461.1
26385	2.7727	3.5455	0.1	5499.4
26386	2.8652	3.4545	0.1	5464.5
26387	2.7727	3.7273	0.1	5505.3
26388	2.8652	3.6364	0.1	5469.8
26389	2.7727	3.9091	0.1	5513.1
26390	2.8652	3.8182	0.1	5477.
26391	2.7727	4.0909	0.1	5522.9
26392	2.8652	4.	0.1	5486.2
26393	2.7727	4.2727	0.1	5534.9
26394	2.8652	4.1818	0.1	5497.4
26395	2.7727	4.4545	0.1	5549.2
26396	2.8652	4.3636	0.1	5510.9
26397	2.7727	4.6364	0.1	5565.8
26398	2.8652	4.5455	0.1	5526.5
26399	2.7727	4.8182	0.1	5584.7
26400	2.8652	4.7273	0.1	5544.4
26401	2.7727	5.	0.1	5605.7
26402	2.8652	4.9091	0.1	5564.3
26403	2.7727	5.1818	0.1	5628.8
26404	2.8652	5.0909	0.1	5586.2
26405	2.7727	5.3636	0.1	5653.7
26406	2.8652	5.2727	0.1	5609.9
26407	2.7727	5.5455	0.1	5680.2
26408	2.8652	5.4545	0.1	5635.1
26409	2.7727	5.7273	0.1	5710.2
26410	2.8652	5.6364	0.1	5661.6
26411	2.8652	5.8182	0.1	5693.
26412	2.7727	5.9091	0.1	5724.9
26413	2.9576	0.27273	0.1	5644.6
26414	3.05	0.18182	0.1	5625.8
26415	2.9576	9.0909e-002	0.1	5659.9
26416	2.9576	0.45455	0.1	5616.6
26417	3.05	0.36364	0.1	5596.8
26418	2.9576	0.63636	0.1	5591.4
26419	3.05	0.54545	0.1	5571.7
26420	2.9576	0.81818	0.1	5567.4
26421	3.05	0.72727	0.1	5547.6
26422	2.9576	1.	0.1	5544.9
26423	3.05	0.90909	0.1	5524.8
26424	2.9576	1.1818	0.1	5524.1
26425	3.05	1.0909	0.1	5503.5
26426	2.9576	1.3636	0.1	5505.2
26427	3.05	1.2727	0.1	5483.8
26428	2.9576	1.5455	0.1	5488.2
26429	3.05	1.4545	0.1	5465.9
26430	2.9576	1.7273	0.1	5473.4
26431	3.05	1.6364	0.1	5450.
26432	2.9576	1.9091	0.1	5460.6
26433	3.05	1.8182	0.1	5436.1
26434	2.9576	2.0909	0.1	5450.
26435	3.05	2.	0.1	5424.3
26436	2.9576	2.2727	0.1	5441.4
26437	3.05	2.1818	0.1	5414.5
26438	2.9576	2.4545	0.1	5434.8
26439	3.05	2.3636	0.1	5406.7
26440	2.9576	2.6364	0.1	5430.2
26441	3.05	2.5455	0.1	5401.
26442	2.9576	2.8182	0.1	5427.4
26443	3.05	2.7273	0.1	5397.2
26444	2.9576	3.	0.1	5426.5
26445	3.05	2.9091	0.1	5395.3
26446	2.9576	3.1818	0.1	5427.4
26447	3.05	3.0909	0.1	5395.3
26448	2.9576	3.3636	0.1	5430.2
26449	3.05	3.2727	0.1	5397.2
26450	2.9576	3.5455	0.1	5434.8
26451	3.05	3.4545	0.1	5401.
26452	2.9576	3.7273	0.1	5441.4
26453	3.05	3.6364	0.1	5406.7
26454	2.9576	3.9091	0.1	5450.
26455	3.05	3.8182	0.1	5414.5
26456	2.9576	4.0909	0.1	5460.6
26457	3.05	4.	0.1	5424.3
26458	2.9576	4.2727	0.1	5473.4
26459	3.05	4.1818	0.1	5436.1
26460	2.9576	4.4545	0.1	5488.2
26461	3.05	4.3636	0.1	5450.
26462	2.9576	4.6364	0.1	5505.2
26463	3.05	4.5455	0.1	5465.9
26464	2.9576	4.8182	0.1	5524.1
26465	3.05	4.7273	0.1	5483.8
26466	2.9576	5.	0.1	5544.9
26467	3.05	4.9091	0.1	5503.5
26468	2.9576	5.1818	0.1	5567.4
26469	3.05	5.0909	0.1	5524.8
26470	2.9576	5.3636	0.1	5591.4
26471	3.05	5.2727	0.1	5547.6
26472	2.9576	5.5455	0.1	5616.6
26473	3.05	5.4545	0.1	5571.7
26474	2.9576	5.7273	0.1	5644.6
26475	3.05	5.6364	0.1	5596.8
26476	3.05	5.8182	0.1	5625.8
26477	2.9576	5.9091	0.1	5659.9
26478	3.1424	0.27273	0.1	5578.2
26479	3.2348	0.18182	0.1	5558.
26480	3.1424	9.0909e-002	0.1	5593.7
26481	3.1424	0.45455	0.1	5552.
26482	3.2348	0.36364	0.1	5531.3
26483	3.1424	0.63636	0.1	5528.1
26484	3.2348	0.54545	0.1	5507.6
26485	3.1424	0.81818	0.1	5505.2
26486	3.2348	0.72727	0.1	5484.7
26487	3.1424	1.	0.1	5483.5
26488	3.2348	0.90909	0.1	5462.9
26489	3.1424	1.1818	0.1	5463.2
26490	3.2348	1.0909	0.1	5442.3
26491	3.1424	1.3636	0.1	5444.6
26492	3.2348	1.2727	0.1	5423.1
26493	3.1424	1.5455	0.1	5427.7
26494	3.2348	1.4545	0.1	5405.6
26495	3.1424	1.7273	0.1	5412.7
26496	3.2348	1.6364	0.1	5389.8
26497	3.1424	1.9091	0.1	5399.7
26498	3.2348	1.8182	0.1	5375.8
26499	3.1424	2.0909	0.1	5388.7
26500	3.2348	2.	0.1	5363.8
26501	3.1424	2.2727	0.1	5379.7
26502	3.2348	2.1818	0.1	5353.8
26503	3.1424	2.4545	0.1	5372.8
26504	3.2348	2.3636	0.1	5345.8
26505	3.1424	2.6364	0.1	5367.8
26506	3.2348	2.5455	0.1	5339.8
26507	3.1424	2.8182	0.1	5364.9
26508	3.2348	2.7273	0.1	5335.8
26509	3.1424	3.	0.1	5363.9
26510	3.2348	2.9091	0.1	5333.8
26511	3.1424	3.1818	0.1	5364.9
26512	3.2348	3.0909	0.1	5333.8
26513	3.1424	3.3636	0.1	5367.8
26514	3.2348	3.2727	0.1	5335.8
26515	3.1424	3.5455	0.1	5372.8
26516	3.2348	3.4545	0.1	5339.8
26517	3.1424	3.7273	0.1	5379.7
26518	3.2348	3.6364	0.1	5345.8
26519	3.1424	3.9091	0.1	5388.7
26520	3.2348	3.8182	0.1	5353.8
26521	3.1424	4.0909	0.1	5399.7
26522	3.2348	4.	0.1	5363.8
26523	3.1424	4.2727	0.1	5412.7
26524	3.2348	4.1818	0.1	5375.8
26525	3.1424	4.4545	0.1	5427.7
26526	3.2348	4.3636	0.1	5389.8
26527	3.1424	4.6364	0.1	5444.6
26528	3.2348	4.5455	0.1	5405.6
26529	3.1424	4.8182	0.1	5463.2
26530	3.2348	4.7273	0.1	5423.1
26531	3.1424	5.	0.1	5483.5
26532	3.2348	4.9091	0.1	5442.3
26533	3.1424	5.1818	0.1	5505.2
26534	3.2348	5.0909	0.1	5462.9
26535	3.1424	5.3636	0.1	5528.1
26536	3.2348	5.2727	0.1	5484.7
26537	3.1424	5.5455	0.1	5552.
26538	3.2348	5.4545	0.1	5507.6
26539	3.1424	5.7273	0.1	5578.2
26540	3.2348	5.6364	0.1	5531.3
26541	3.2348	5.8182	0.1	5558.
26542	3.1424	5.9091	0.1	5593.7
26543	3.3273	0.27273	0.1	5511.3
26544	3.4197	0.18182	0.1	5490.1
26545	3.3273	9.0909e-002	0.1	5526.9
26546	3.3273	0.45455	0.1	5486.9
26547	3.4197	0.36364	0.1	5465.3
26548	3.3273	0.63636	0.1	5464.3
26549	3.4197	0.54545	0.1	5443.1
26550	3.3273	0.81818	0.1	5442.6
26551	3.4197	0.72727	0.1	5421.5
26552	3.3273	1.	0.1	5421.8
26553	3.4197	0.90909	0.1	5400.8
26554	3.3273	1.1818	0.1	5402.3
26555	3.4197	1.0909	0.1	5381.1
26556	3.3273	1.3636	0.1	5384.2
26557	3.4197	1.2727	0.1	5362.6
26558	3.3273	1.5455	0.1	5367.6
26559	3.4197	1.4545	0.1	5345.6
26560	3.3273	1.7273	0.1	5352.8
26561	3.4197	1.6364	0.1	5330.1
26562	3.3273	1.9091	0.1	5339.9
26563	3.4197	1.8182	0.1	5316.4
26564	3.3273	2.0909	0.1	5328.8
26565	3.4197	2.	0.1	5304.5
26566	3.3273	2.2727	0.1	5319.7
26567	3.4197	2.1818	0.1	5294.5
26568	3.3273	2.4545	0.1	5312.7
26569	3.4197	2.3636	0.1	5286.4
26570	3.3273	2.6364	0.1	5307.6
26571	3.4197	2.5455	0.1	5280.4
26572	3.3273	2.8182	0.1	5304.6
26573	3.4197	2.7273	0.1	5276.3
26574	3.3273	3.	0.1	5303.5
26575	3.4197	2.9091	0.1	5274.3
26576	3.3273	3.1818	0.1	5304.6
26577	3.4197	3.0909	0.1	5274.3
26578	3.3273	3.3636	0.1	5307.6
26579	3.4197	3.2727	0.1	5276.3
26580	3.3273	3.5455	0.1	5312.7
26581	3.4197	3.4545	0.1	5280.4
26582	3.3273	3.7273	0.1	5319.7
26583	3.4197	3.6364	0.1	5286.4
26584	3.3273	3.9091	0.1	5328.8
26585	3.4197	3.8182	0.1	5294.5
26586	3.3273	4.0909	0.1	5339.9
26587	3.4197	4.	0.1	5304.5
26588	3.3273	4.2727	0.1	5352.8
26589	3.4197	4.1818	0.1	5316.4
26590	3.3273	4.4545	0.1	5367.6
26591	3.4197	4.3636	0.1	5330.1
26592	3.3273	4.6364	0.1	5384.2
26593	3.4197	4.5455	0.1	5345.6
26594	3.3273	4.8182	0.1	5402.3
26595	3.4197	4.7273	0.1	5362.6
26596	3.3273	5.	0.1	5421.8
26597	3.4197	4.9091	0.1	5381.1
26598	3.3273	5.1818	0.1	5442.6
26599	3.4197	5.0909	0.1	5400.8
26600	3.3273	5.3636	0.1	5464.3
26601	3.4197	5.2727	0.1	5421.5
26602	3.3273	5.5455	0.1	5486.9
26603	3.4197	5.4545	0.1	5443.1
26604	3.3273	5.7273	0.1	5511.3
26605	3.4197	5.6364	0.1	5465.3
26606	3.4197	5.8182	0.1	5490.1
26607	3.3273	5.9091	0.1	5526.9
26608	3.5121	0.27273	0.1	5444.2
26609	3.6045	0.18182	0.1	5422.2
26610	3.5121	9.0909e-002	0.1	5459.7
26611	3.5121	0.45455	0.1	5421.6
26612	3.6045	0.36364	0.1	5399.4
26613	3.5121	0.63636	0.1	5400.4
26614	3.6045	0.54545	0.1	5378.5
26615	3.5121	0.81818	0.1	5379.8
26616	3.6045	0.72727	0.1	5358.2
26617	3.5121	1.	0.1	5360.1
26618	3.6045	0.90909	0.1	5338.6
26619	3.5121	1.1818	0.1	5341.4
26620	3.6045	1.0909	0.1	5319.8
26621	3.5121	1.3636	0.1	5324.
26622	3.6045	1.2727	0.1	5302.2
26623	3.5121	1.5455	0.1	5308.
26624	3.6045	1.4545	0.1	5285.9
26625	3.5121	1.7273	0.1	5293.6
26626	3.6045	1.6364	0.1	5271.
26627	3.5121	1.9091	0.1	5281.
26628	3.6045	1.8182	0.1	5257.7
26629	3.5121	2.0909	0.1	5270.1
26630	3.6045	2.	0.1	5246.1
26631	3.5121	2.2727	0.1	5261.1
26632	3.6045	2.1818	0.1	5236.3
26633	3.5121	2.4545	0.1	5254.1
26634	3.6045	2.3636	0.1	5228.4
26635	3.5121	2.6364	0.1	5249.
26636	3.6045	2.5455	0.1	5222.4
26637	3.5121	2.8182	0.1	5246.
26638	3.6045	2.7273	0.1	5218.4
26639	3.5121	3.	0.1	5244.9
26640	3.6045	2.9091	0.1	5216.4
26641	3.5121	3.1818	0.1	5246.
26642	3.6045	3.0909	0.1	5216.4
26643	3.5121	3.3636	0.1	5249.
26644	3.6045	3.2727	0.1	5218.4
26645	3.5121	3.5455	0.1	5254.1
26646	3.6045	3.4545	0.1	5222.4
26647	3.5121	3.7273	0.1	5261.1
26648	3.6045	3.6364	0.1	5228.4
26649	3.5121	3.9091	0.1	5270.1
26650	3.6045	3.8182	0.1	5236.3
26651	3.5121	4.0909	0.1	5281.
26652	3.6045	4.	0.1	5246.1
26653	3.5121	4.2727	0.1	5293.6
26654	3.6045	4.1818	0.1	5257.7
26655	3.5121	4.4545	0.1	5308.
26656	3.6045	4.3636	0.1	5271.
26657	3.5121	4.6364	0.1	5324.
26658	3.6045	4.5455	0.1	5285.9
26659	3.5121	4.8182	0.1	5341.4
26660	3.6045	4.7273	0.1	5302.2
26661	3.5121	5.	0.1	5360.1
26662	3.6045	4.9091	0.1	5319.8
26663	3.5121	5.1818	0.1	5379.8
26664	3.6045	5.0909	0.1	5338.6
26665	3.5121	5.3636	0.1	5400.4
26666	3.6045	5.2727	0.1	5358.2
26667	3.5121	5.5455	0.1	5421.6
26668	3.6045	5.4545	0.1	5378.5
26669	3.5121	5.7273	0.1	5444.2
26670	3.6045	5.6364	0.1	5399.4
26671	3.6045	5.8182	0.1	5422.2
26672	3.5121	5.9091	0.1	5459.7
26673	3.697	0.27273	0.1	5377.4
26674	3.7894	0.18182	0.1	5354.6
26675	3.697	9.0909e-002	0.1	5392.6
26676	3.697	0.45455	0.1	5356.4
26677	3.7894	0.36364	0.1	5333.5
26678	3.697	0.63636	0.1	5336.4
26679	3.7894	0.54545	0.1	5314.1
26680	3.697	0.81818	0.1	5317.1
26681	3.7894	0.72727	0.1	5295.
26682	3.697	1.	0.1	5298.4
26683	3.7894	0.90909	0.1	5276.5
26684	3.697	1.1818	0.1	5280.7
26685	3.7894	1.0909	0.1	5258.8
26686	3.697	1.3636	0.1	5264.1
26687	3.7894	1.2727	0.1	5242.1
26688	3.697	1.5455	0.1	5248.9
26689	3.7894	1.4545	0.1	5226.5
26690	3.697	1.7273	0.1	5235.
26691	3.7894	1.6364	0.1	5212.3
26692	3.697	1.9091	0.1	5222.8
26693	3.7894	1.8182	0.1	5199.6
26694	3.697	2.0909	0.1	5212.2
26695	3.7894	2.	0.1	5188.4
26696	3.697	2.2727	0.1	5203.5
26697	3.7894	2.1818	0.1	5178.9
26698	3.697	2.4545	0.1	5196.6
26699	3.7894	2.3636	0.1	5171.3
26700	3.697	2.6364	0.1	5191.7
26701	3.7894	2.5455	0.1	5165.4
26702	3.697	2.8182	0.1	5188.7
26703	3.7894	2.7273	0.1	5161.5
26704	3.697	3.	0.1	5187.7
26705	3.7894	2.9091	0.1	5159.6
26706	3.697	3.1818	0.1	5188.7
26707	3.7894	3.0909	0.1	5159.6
26708	3.697	3.3636	0.1	5191.7
26709	3.7894	3.2727	0.1	5161.5
26710	3.697	3.5455	0.1	5196.6
26711	3.7894	3.4545	0.1	5165.4
26712	3.697	3.7273	0.1	5203.5
26713	3.7894	3.6364	0.1	5171.3
26714	3.697	3.9091	0.1	5212.2
26715	3.7894	3.8182	0.1	5178.9
26716	3.697	4.0909	0.1	5222.8
26717	3.7894	4.	0.1	5188.4
26718	3.697	4.2727	0.1	5235.
26719	3.7894	4.1818	0.1	5199.6
26720	3.697	4.4545	0.1	5248.8
26721	3.7894	4.3636	0.1	5212.3
26722	3.697	4.6364	0.1	5264.1
26723	3.7894	4.5455	0.1	5226.5
26724	3.697	4.8182	0.1	5280.7
26725	3.7894	4.7273	0.1	5242.1
26726	3.697	5.	0.1	5298.4
26727	3.7894	4.9091	0.1	5258.8
26728	3.697	5.1818	0.1	5317.
26729	3.7894	5.0909	0.1	5276.5
26730	3.697	5.3636	0.1	5336.4
26731	3.7894	5.2727	0.1	5295.
26732	3.697	5.5455	0.1	5356.4
26733	3.7894	5.4545	0.1	5314.1
26734	3.697	5.7273	0.1	5377.4
26735	3.7894	5.6364	0.1	5333.5
26736	3.7894	5.8182	0.1	5354.6
26737	3.697	5.9091	0.1	5392.6
26738	3.8818	0.27273	0.1	5310.8
26739	3.9742	0.18182	0.1	5287.5
26740	3.8818	9.0909e-002	0.1	5325.6
26741	3.8818	0.45455	0.1	5291.3
26742	3.9742	0.36364	0.1	5268.
26743	3.8818	0.63636	0.1	5272.7
26744	3.9742	0.54545	0.1	5249.9
26745	3.8818	0.81818	0.1	5254.5
26746	3.9742	0.72727	0.1	5232.
26747	3.8818	1.	0.1	5237.
26748	3.9742	0.90909	0.1	5214.6
26749	3.8818	1.1818	0.1	5220.3
26750	3.9742	1.0909	0.1	5198.
26751	3.8818	1.3636	0.1	5204.6
26752	3.9742	1.2727	0.1	5182.3
26753	3.8818	1.5455	0.1	5190.
26754	3.9742	1.4545	0.1	5167.6
26755	3.8818	1.7273	0.1	5176.9
26756	3.9742	1.6364	0.1	5154.1
26757	3.8818	1.9091	0.1	5165.2
26758	3.9742	1.8182	0.1	5141.9
26759	3.8818	2.0909	0.1	5155.1
26760	3.9742	2.	0.1	5131.3
26761	3.8818	2.2727	0.1	5146.7
26762	3.9742	2.1818	0.1	5122.2
26763	3.8818	2.4545	0.1	5140.
26764	3.9742	2.3636	0.1	5114.9
26765	3.8818	2.6364	0.1	5135.3
26766	3.9742	2.5455	0.1	5109.3
26767	3.8818	2.8182	0.1	5132.4
26768	3.9742	2.7273	0.1	5105.6
26769	3.8818	3.	0.1	5131.4
26770	3.9742	2.9091	0.1	5103.7
26771	3.8818	3.1818	0.1	5132.4
26772	3.9742	3.0909	0.1	5103.7
26773	3.8818	3.3636	0.1	5135.3
26774	3.9742	3.2727	0.1	5105.6
26775	3.8818	3.5455	0.1	5140.
26776	3.9742	3.4545	0.1	5109.3
26777	3.8818	3.7273	0.1	5146.7
26778	3.9742	3.6364	0.1	5114.9
26779	3.8818	3.9091	0.1	5155.1
26780	3.9742	3.8182	0.1	5122.2
26781	3.8818	4.0909	0.1	5165.2
26782	3.9742	4.	0.1	5131.3
26783	3.8818	4.2727	0.1	5176.9
26784	3.9742	4.1818	0.1	5141.9
26785	3.8818	4.4545	0.1	5190.
26786	3.9742	4.3636	0.1	5154.1
26787	3.8818	4.6364	0.1	5204.6
26788	3.9742	4.5455	0.1	5167.6
26789	3.8818	4.8182	0.1	5220.3
26790	3.9742	4.7273	0.1	5182.3
26791	3.8818	5.	0.1	5237.
26792	3.9742	4.9091	0.1	5198.
26793	3.8818	5.1818	0.1	5254.5
26794	3.9742	5.0909	0.1	5214.6
26795	3.8818	5.3636	0.1	5272.7
26796	3.9742	5.2727	0.1	5232.
26797	3.8818	5.5455	0.1	5291.3
26798	3.9742	5.4545	0.1	5249.9
26799	3.8818	5.7273	0.1	5310.8
26800	3.9742	5.6364	0.1	5268.
26801	3.9742	5.8182	0.1	5287.5
26802	3.8818	5.9091	0.1	5325.6
26803	4.0667	0.27273	0.1	5244.7
26804	4.1591	0.18182	0.1	5220.9
26805	4.0667	9.0909e-002	0.1	5259.
26806	4.0667	0.45455	0.1	5226.6
26807	4.1591	0.36364	0.1	5203.
26808	4.0667	0.63636	0.1	5209.2
26809	4.1591	0.54545	0.1	5186.
26810	4.0667	0.81818	0.1	5192.2
26811	4.1591	0.72727	0.1	5169.3
26812	4.0667	1.	0.1	5175.8
26813	4.1591	0.90909	0.1	5153.1
26814	4.0667	1.1818	0.1	5160.1
26815	4.1591	1.0909	0.1	5137.5
26816	4.0667	1.3636	0.1	5145.3
26817	4.1591	1.2727	0.1	5122.7
26818	4.0667	1.5455	0.1	5131.6
26819	4.1591	1.4545	0.1	5108.9
26820	4.0667	1.7273	0.1	5119.1
26821	4.1591	1.6364	0.1	5096.2
26822	4.0667	1.9091	0.1	5108.
26823	4.1591	1.8182	0.1	5084.7
26824	4.0667	2.0909	0.1	5098.4
26825	4.1591	2.	0.1	5074.7
26826	4.0667	2.2727	0.1	5090.4
26827	4.1591	2.1818	0.1	5066.1
26828	4.0667	2.4545	0.1	5084.1
26829	4.1591	2.3636	0.1	5059.1
26830	4.0667	2.6364	0.1	5079.6
26831	4.1591	2.5455	0.1	5053.8
26832	4.0667	2.8182	0.1	5076.8
26833	4.1591	2.7273	0.1	5050.2
26834	4.0667	3.	0.1	5075.9
26835	4.1591	2.9091	0.1	5048.5
26836	4.0667	3.1818	0.1	5076.8
26837	4.1591	3.0909	0.1	5048.5
26838	4.0667	3.3636	0.1	5079.6
26839	4.1591	3.2727	0.1	5050.2
26840	4.0667	3.5455	0.1	5084.1
26841	4.1591	3.4545	0.1	5053.8
26842	4.0667	3.7273	0.1	5090.4
26843	4.1591	3.6364	0.1	5059.1
26844	4.0667	3.9091	0.1	5098.4
26845	4.1591	3.8182	0.1	5066.1
26846	4.0667	4.0909	0.1	5108.
26847	4.1591	4.	0.1	5074.6
26848	4.0667	4.2727	0.1	5119.1
26849	4.1591	4.1818	0.1	5084.7
26850	4.0667	4.4545	0.1	5131.6
26851	4.1591	4.3636	0.1	5096.2
26852	4.0667	4.6364	0.1	5145.3
26853	4.1591	4.5455	0.1	5108.9
26854	4.0667	4.8182	0.1	5160.1
26855	4.1591	4.7273	0.1	5122.7
26856	4.0667	5.	0.1	5175.8
26857	4.1591	4.9091	0.1	5137.5
26858	4.0667	5.1818	0.1	5192.2
26859	4.1591	5.0909	0.1	5153.1
26860	4.0667	5.3636	0.1	5209.2
26861	4.1591	5.2727	0.1	5169.3
26862	4.0667	5.5455	0.1	5226.6
26863	4.1591	5.4545	0.1	5186.
26864	4.0667	5.7273	0.1	5244.7
26865	4.1591	5.6364	0.1	5203.
26866	4.1591	5.8182	0.1	5220.9
26867	4.0667	5.9091	0.1	5259.
26868	4.2515	0.27273	0.1	5179.2
26869	4.3439	0.18182	0.1	5154.9
26870	4.2515	9.0909e-002	0.1	5192.8
26871	4.2515	0.45455	0.1	5162.4
26872	4.3439	0.36364	0.1	5138.4
26873	4.2515	0.63636	0.1	5146.1
26874	4.3439	0.54545	0.1	5122.6
26875	4.2515	0.81818	0.1	5130.3
26876	4.3439	0.72727	0.1	5107.
26877	4.2515	1.	0.1	5114.9
26878	4.3439	0.90909	0.1	5091.9
26879	4.2515	1.1818	0.1	5100.2
26880	4.3439	1.0909	0.1	5077.3
26881	4.2515	1.3636	0.1	5086.3
26882	4.3439	1.2727	0.1	5063.5
26883	4.2515	1.5455	0.1	5073.5
26884	4.3439	1.4545	0.1	5050.5
26885	4.2515	1.7273	0.1	5061.8
26886	4.3439	1.6364	0.1	5038.6
26887	4.2515	1.9091	0.1	5051.3
26888	4.3439	1.8182	0.1	5027.9
26889	4.2515	2.0909	0.1	5042.3
26890	4.3439	2.	0.1	5018.4
26891	4.2515	2.2727	0.1	5034.7
26892	4.3439	2.1818	0.1	5010.3
26893	4.2515	2.4545	0.1	5028.7
26894	4.3439	2.3636	0.1	5003.8
26895	4.2515	2.6364	0.1	5024.4
26896	4.3439	2.5455	0.1	4998.8
26897	4.2515	2.8182	0.1	5021.8
26898	4.3439	2.7273	0.1	4995.4
26899	4.2515	3.	0.1	5021.
26900	4.3439	2.9091	0.1	4993.7
26901	4.2515	3.1818	0.1	5021.8
26902	4.3439	3.0909	0.1	4993.7
26903	4.2515	3.3636	0.1	5024.4
26904	4.3439	3.2727	0.1	4995.4
26905	4.2515	3.5455	0.1	5028.7
26906	4.3439	3.4545	0.1	4998.8
26907	4.2515	3.7273	0.1	5034.7
26908	4.3439	3.6364	0.1	5003.8
26909	4.2515	3.9091	0.1	5042.3
26910	4.3439	3.8182	0.1	5010.3
26911	4.2515	4.0909	0.1	5051.3
26912	4.3439	4.	0.1	5018.4
26913	4.2515	4.2727	0.1	5061.8
26914	4.3439	4.1818	0.1	5027.9
26915	4.2515	4.4545	0.1	5073.5
26916	4.3439	4.3636	0.1	5038.6
26917	4.2515	4.6364	0.1	5086.3
26918	4.3439	4.5455	0.1	5050.5
26919	4.2515	4.8182	0.1	5100.2
26920	4.3439	4.7273	0.1	5063.5
26921	4.2515	5.	0.1	5114.9
26922	4.3439	4.9091	0.1	5077.3
26923	4.2515	5.1818	0.1	5130.3
26924	4.3439	5.0909	0.1	5091.9
26925	4.2515	5.3636	0.1	5146.1
26926	4.3439	5.2727	0.1	5107.
26927	4.2515	5.5455	0.1	5162.4
26928	4.3439	5.4545	0.1	5122.6
26929	4.2515	5.7273	0.1	5179.2
26930	4.3439	5.6364	0.1	5138.3
26931	4.3439	5.8182	0.1	5154.9
26932	4.2515	5.9091	0.1	5192.8
26933	4.4364	0.27273	0.1	5114.2
26934	4.5288	0.18182	0.1	5089.6
26935	4.4364	9.0909e-002	0.1	5127.1
26936	4.4364	0.45455	0.1	5098.6
26937	4.5288	0.36364	0.1	5074.3
26938	4.4364	0.63636	0.1	5083.5
26939	4.5288	0.54545	0.1	5059.6
26940	4.4364	0.81818	0.1	5068.7
26941	4.5288	0.72727	0.1	5045.1
26942	4.4364	1.	0.1	5054.4
26943	4.5288	0.90909	0.1	5031.
26944	4.4364	1.1818	0.1	5040.7
26945	4.5288	1.0909	0.1	5017.5
26946	4.4364	1.3636	0.1	5027.7
26947	4.5288	1.2727	0.1	5004.6
26948	4.4364	1.5455	0.1	5015.7
26949	4.5288	1.4545	0.1	4992.5
26950	4.4364	1.7273	0.1	5004.7
26951	4.5288	1.6364	0.1	4981.4
26952	4.4364	1.9091	0.1	4994.9
26953	4.5288	1.8182	0.1	4971.3
26954	4.4364	2.0909	0.1	4986.4
26955	4.5288	2.	0.1	4962.4
26956	4.4364	2.2727	0.1	4979.4
26957	4.5288	2.1818	0.1	4954.9
26958	4.4364	2.4545	0.1	4973.7
26959	4.5288	2.3636	0.1	4948.7
26960	4.4364	2.6364	0.1	4969.7
26961	4.5288	2.5455	0.1	4944.1
26962	4.4364	2.8182	0.1	4967.2
26963	4.5288	2.7273	0.1	4940.9
26964	4.4364	3.	0.1	4966.4
26965	4.5288	2.9091	0.1	4939.3
26966	4.4364	3.1818	0.1	4967.2
26967	4.5288	3.0909	0.1	4939.3
26968	4.4364	3.3636	0.1	4969.7
26969	4.5288	3.2727	0.1	4940.9
26970	4.4364	3.5455	0.1	4973.7
26971	4.5288	3.4545	0.1	4944.1
26972	4.4364	3.7273	0.1	4979.4
26973	4.5288	3.6364	0.1	4948.7
26974	4.4364	3.9091	0.1	4986.4
26975	4.5288	3.8182	0.1	4954.9
26976	4.4364	4.0909	0.1	4994.9
26977	4.5288	4.	0.1	4962.4
26978	4.4364	4.2727	0.1	5004.7
26979	4.5288	4.1818	0.1	4971.3
26980	4.4364	4.4545	0.1	5015.7
26981	4.5288	4.3636	0.1	4981.4
26982	4.4364	4.6364	0.1	5027.7
26983	4.5288	4.5455	0.1	4992.5
26984	4.4364	4.8182	0.1	5040.7
26985	4.5288	4.7273	0.1	5004.6
26986	4.4364	5.	0.1	5054.4
26987	4.5288	4.9091	0.1	5017.5
26988	4.4364	5.1818	0.1	5068.7
26989	4.5288	5.0909	0.1	5031.
26990	4.4364	5.3636	0.1	5083.5
26991	4.5288	5.2727	0.1	5045.1
26992	4.4364	5.5455	0.1	5098.6
26993	4.5288	5.4545	0.1	5059.6
26994	4.4364	5.7273	0.1	5114.2
26995	4.5288	5.6364	0.1	5074.3
26996	4.5288	5.8182	0.1	5089.6
26997	4.4364	5.9091	0.1	5127.1
26998	4.6212	0.27273	0.1	5049.7
26999	4.7136	0.18182	0.1	5024.9
27000	4.6212	9.0909e-002	0.1	5062.
27001	4.6212	0.45455	0.1	5035.3
27002	4.7136	0.36364	0.1	5010.7
27003	4.6212	0.63636	0.1	5021.3
27004	4.7136	0.54545	0.1	4997.1
27005	4.6212	0.81818	0.1	5007.5
27006	4.7136	0.72727	0.1	4983.7
27007	4.6212	1.	0.1	4994.2
27008	4.7136	0.90909	0.1	4970.6
27009	4.6212	1.1818	0.1	4981.4
27010	4.7136	1.0909	0.1	4958.
27011	4.6212	1.3636	0.1	4969.4
27012	4.7136	1.2727	0.1	4946.
27013	4.6212	1.5455	0.1	4958.2
27014	4.7136	1.4545	0.1	4934.8
27015	4.6212	1.7273	0.1	4948.
27016	4.7136	1.6364	0.1	4924.4
27017	4.6212	1.9091	0.1	4938.8
27018	4.7136	1.8182	0.1	4915.
27019	4.6212	2.0909	0.1	4930.9
27020	4.7136	2.	0.1	4906.8
27021	4.6212	2.2727	0.1	4924.3
27022	4.7136	2.1818	0.1	4899.7
27023	4.6212	2.4545	0.1	4919.
27024	4.7136	2.3636	0.1	4894.
27025	4.6212	2.6364	0.1	4915.2
27026	4.7136	2.5455	0.1	4889.6
27027	4.6212	2.8182	0.1	4912.9
27028	4.7136	2.7273	0.1	4886.6
27029	4.6212	3.	0.1	4912.2
27030	4.7136	2.9091	0.1	4885.2
27031	4.6212	3.1818	0.1	4912.9
27032	4.7136	3.0909	0.1	4885.2
27033	4.6212	3.3636	0.1	4915.2
27034	4.7136	3.2727	0.1	4886.6
27035	4.6212	3.5455	0.1	4919.
27036	4.7136	3.4545	0.1	4889.6
27037	4.6212	3.7273	0.1	4924.3
27038	4.7136	3.6364	0.1	4894.
27039	4.6212	3.9091	0.1	4930.9
27040	4.7136	3.8182	0.1	4899.7
27041	4.6212	4.0909	0.1	4938.8
27042	4.7136	4.	0.1	4906.8
27043	4.6212	4.2727	0.1	4948.
27044	4.7136	4.1818	0.1	4915.
27045	4.6212	4.4545	0.1	4958.2
27046	4.7136	4.3636	0.1	4924.4
27047	4.6212	4.6364	0.1	4969.4
27048	4.7136	4.5455	0.1	4934.8
27049	4.6212	4.8182	0.1	4981.4
27050	4.7136	4.7273	0.1	4946.
27051	4.6212	5.	0.1	4994.2
27052	4.7136	4.9091	0.1	4958.
27053	4.6212	5.1818	0.1	5007.5
27054	4.7136	5.0909	0.1	4970.6
27055	4.6212	5.3636	0.1	5021.3
27056	4.7136	5.2727	0.1	4983.7
27057	4.6212	5.5455	0.1	5035.3
27058	4.7136	5.4545	0.1	4997.1
27059	4.6212	5.7273	0.1	5049.7
27060	4.7136	5.6364	0.1	5010.7
27061	4.7136	5.8182	0.1	5024.9
27062	4.6212	5.9091	0.1	5062.
27063	4.8061	0.27273	0.1	4985.9
27064	4.8985	0.18182	0.1	4960.8
27065	4.8061	9.0909e-002	0.1	4997.5
27066	4.8061	0.45455	0.1	4972.6
27067	4.8985	0.36364	0.1	4947.8
27068	4.8061	0.63636	0.1	4959.6
27069	4.8985	0.54545	0.1	4935.1
27070	4.8061	0.81818	0.1	4946.8
27071	4.8985	0.72727	0.1	4922.7
27072	4.8061	1.	0.1	4934.4
27073	4.8985	0.90909	0.1	4910.5
27074	4.8061	1.1818	0.1	4922.6
27075	4.8985	1.0909	0.1	4898.8
27076	4.8061	1.3636	0.1	4911.4
27077	4.8985	1.2727	0.1	4887.7
27078	4.8061	1.5455	0.1	4901.
27079	4.8985	1.4545	0.1	4877.3
27080	4.8061	1.7273	0.1	4891.5
27081	4.8985	1.6364	0.1	4867.7
27082	4.8061	1.9091	0.1	4883.
27083	4.8985	1.8182	0.1	4859.
27084	4.8061	2.0909	0.1	4875.6
27085	4.8985	2.	0.1	4851.3
27086	4.8061	2.2727	0.1	4869.4
27087	4.8985	2.1818	0.1	4844.7
27088	4.8061	2.4545	0.1	4864.5
27089	4.8985	2.3636	0.1	4839.4
27090	4.8061	2.6364	0.1	4861.
27091	4.8985	2.5455	0.1	4835.3
27092	4.8061	2.8182	0.1	4858.9
27093	4.8985	2.7273	0.1	4832.6
27094	4.8061	3.	0.1	4858.1
27095	4.8985	2.9091	0.1	4831.2
27096	4.8061	3.1818	0.1	4858.9
27097	4.8985	3.0909	0.1	4831.2
27098	4.8061	3.3636	0.1	4861.
27099	4.8985	3.2727	0.1	4832.6
27100	4.8061	3.5455	0.1	4864.5
27101	4.8985	3.4545	0.1	4835.3
27102	4.8061	3.7273	0.1	4869.4
27103	4.8985	3.6364	0.1	4839.4
27104	4.8061	3.9091	0.1	4875.6
27105	4.8985	3.8182	0.1	4844.7
27106	4.8061	4.0909	0.1	4883.
27107	4.8985	4.	0.1	4851.3
27108	4.8061	4.2727	0.1	4891.5
27109	4.8985	4.1818	0.1	4859.
27110	4.8061	4.4545	0.1	4901.
27111	4.8985	4.3636	0.1	4867.7
27112	4.8061	4.6364	0.1	4911.4
27113	4.8985	4.5455	0.1	4877.3
27114	4.8061	4.8182	0.1	4922.6
27115	4.8985	4.7273	0.1	4887.7
27116	4.8061	5.	0.1	4934.4
27117	4.8985	4.9091	0.1	4898.8
27118	4.8061	5.1818	0.1	4946.8
27119	4.8985	5.0909	0.1	4910.5
27120	4.8061	5.3636	0.1	4959.6
27121	4.8985	5.2727	0.1	4922.7
27122	4.8061	5.5455	0.1	4972.6
27123	4.8985	5.4545	0.1	4935.1
27124	4.8061	5.7273	0.1	4985.9
27125	4.8985	5.6364	0.1	4947.8
27126	4.8985	5.8182	0.1	4960.8
27127	4.8061	5.9091	0.1	4997.5
27128	4.9909	0.27273	0.1	4922.7
27129	5.0833	0.18182	0.1	4897.4
27130	4.9909	9.0909e-002	0.1	4933.5
27131	4.9909	0.45455	0.1	4910.4
27132	5.0833	0.36364	0.1	4885.3
27133	4.9909	0.63636	0.1	4898.3
27134	5.0833	0.54545	0.1	4873.7
27135	4.9909	0.81818	0.1	4886.5
27136	5.0833	0.72727	0.1	4862.1
27137	4.9909	1.	0.1	4875.
27138	5.0833	0.90909	0.1	4850.9
27139	4.9909	1.1818	0.1	4864.
27140	5.0833	1.0909	0.1	4840.
27141	4.9909	1.3636	0.1	4853.6
27142	5.0833	1.2727	0.1	4829.7
27143	4.9909	1.5455	0.1	4844.
27144	5.0833	1.4545	0.1	4820.1
27145	4.9909	1.7273	0.1	4835.2
27146	5.0833	1.6364	0.1	4811.2
27147	4.9909	1.9091	0.1	4827.3
27148	5.0833	1.8182	0.1	4803.1
27149	4.9909	2.0909	0.1	4820.4
27150	5.0833	2.	0.1	4796.
27151	4.9909	2.2727	0.1	4814.7
27152	5.0833	2.1818	0.1	4789.9
27153	4.9909	2.4545	0.1	4810.2
27154	5.0833	2.3636	0.1	4785.
27155	4.9909	2.6364	0.1	4806.9
27156	5.0833	2.5455	0.1	4781.2
27157	4.9909	2.8182	0.1	4804.9
27158	5.0833	2.7273	0.1	4778.7
27159	4.9909	3.	0.1	4804.3
27160	5.0833	2.9091	0.1	4777.4
27161	4.9909	3.1818	0.1	4804.9
27162	5.0833	3.0909	0.1	4777.4
27163	4.9909	3.3636	0.1	4806.9
27164	5.0833	3.2727	0.1	4778.7
27165	4.9909	3.5455	0.1	4810.2
27166	5.0833	3.4545	0.1	4781.2
27167	4.9909	3.7273	0.1	4814.7
27168	5.0833	3.6364	0.1	4785.
27169	4.9909	3.9091	0.1	4820.4
27170	5.0833	3.8182	0.1	4789.9
27171	4.9909	4.0909	0.1	4827.3
27172	5.0833	4.	0.1	4796.
27173	4.9909	4.2727	0.1	4835.2
27174	5.0833	4.1818	0.1	4803.1
27175	4.9909	4.4545	0.1	4844.
27176	5.0833	4.3636	0.1	4811.2
27177	4.9909	4.6364	0.1	4853.6
27178	5.0833	4.5455	0.1	4820.1
27179	4.9909	4.8182	0.1	4864.
27180	5.0833	4.7273	0.1	4829.7
27181	4.9909	5.	0.1	4875.
27182	5.0833	4.9091	0.1	4840.
27183	4.9909	5.1818	0.1	4886.5
27184	5.0833	5.0909	0.1	4850.9
27185	4.9909	5.3636	0.1	4898.3
27186	5.0833	5.2727	0.1	4862.1
27187	4.9909	5.5455	0.1	4910.4
27188	5.0833	5.4545	0.1	4873.7
27189	4.9909	5.7273	0.1	4922.7
27190	5.0833	5.6364	0.1	4885.3
27191	5.0833	5.8182	0.1	4897.4
27192	4.9909	5.9091	0.1	4933.5
27193	5.1758	0.27273	0.1	4860.1
27194	5.2682	0.18182	0.1	4834.6
27195	5.1758	9.0909e-002	0.1	4870.2
27196	5.1758	0.45455	0.1	4848.7
27197	5.2682	0.36364	0.1	4823.4
27198	5.1758	0.63636	0.1	4837.5
27199	5.2682	0.54545	0.1	4812.6
27200	5.1758	0.81818	0.1	4826.5
27201	5.2682	0.72727	0.1	4802.
27202	5.1758	1.	0.1	4815.9
27203	5.2682	0.90909	0.1	4791.6
27204	5.1758	1.1818	0.1	4805.8
27205	5.2682	1.0909	0.1	4781.6
27206	5.1758	1.3636	0.1	4796.2
27207	5.2682	1.2727	0.1	4772.
27208	5.1758	1.5455	0.1	4787.3
27209	5.2682	1.4545	0.1	4763.1
27210	5.1758	1.7273	0.1	4779.1
27211	5.2682	1.6364	0.1	4754.9
27212	5.1758	1.9091	0.1	4771.8
27213	5.2682	1.8182	0.1	4747.4
27214	5.1758	2.0909	0.1	4765.5
27215	5.2682	2.	0.1	4740.9
27216	5.1758	2.2727	0.1	4760.2
27217	5.2682	2.1818	0.1	4735.3
27218	5.1758	2.4545	0.1	4756.
27219	5.2682	2.3636	0.1	4730.7
27220	5.1758	2.6364	0.1	4753.
27221	5.2682	2.5455	0.1	4727.2
27222	5.1758	2.8182	0.1	4751.1
27223	5.2682	2.7273	0.1	4724.9
27224	5.1758	3.	0.1	4750.5
27225	5.2682	2.9091	0.1	4723.7
27226	5.1758	3.1818	0.1	4751.1
27227	5.2682	3.0909	0.1	4723.7
27228	5.1758	3.3636	0.1	4753.
27229	5.2682	3.2727	0.1	4724.9
27230	5.1758	3.5455	0.1	4756.
27231	5.2682	3.4545	0.1	4727.2
27232	5.1758	3.7273	0.1	4760.2
27233	5.2682	3.6364	0.1	4730.7
27234	5.1758	3.9091	0.1	4765.5
27235	5.2682	3.8182	0.1	4735.3
27236	5.1758	4.0909	0.1	4771.8
27237	5.2682	4.	0.1	4740.9
27238	5.1758	4.2727	0.1	4779.1
27239	5.2682	4.1818	0.1	4747.4
27240	5.1758	4.4545	0.1	4787.3
27241	5.2682	4.3636	0.1	4754.9
27242	5.1758	4.6364	0.1	4796.2
27243	5.2682	4.5455	0.1	4763.1
27244	5.1758	4.8182	0.1	4805.8
27245	5.2682	4.7273	0.1	4772.
27246	5.1758	5.	0.1	4815.9
27247	5.2682	4.9091	0.1	4781.6
27248	5.1758	5.1818	0.1	4826.5
27249	5.2682	5.0909	0.1	4791.6
27250	5.1758	5.3636	0.1	4837.5
27251	5.2682	5.2727	0.1	4802.
27252	5.1758	5.5455	0.1	4848.7
27253	5.2682	5.4545	0.1	4812.6
27254	5.1758	5.7273	0.1	4860.1
27255	5.2682	5.6364	0.1	4823.4
27256	5.2682	5.8182	0.1	4834.6
27257	5.1758	5.9091	0.1	4870.2
27258	5.3606	0.27273	0.1	4798.
27259	5.453	0.18182	0.1	4772.4
27260	5.3606	9.0909e-002	0.1	4807.4
27261	5.3606	0.45455	0.1	4787.4
27262	5.453	0.36364	0.1	4762.1
27263	5.3606	0.63636	0.1	4777.1
27264	5.453	0.54545	0.1	4752.1
27265	5.3606	0.81818	0.1	4767.
27266	5.453	0.72727	0.1	4742.2
27267	5.3606	1.	0.1	4757.2
27268	5.453	0.90909	0.1	4732.6
27269	5.3606	1.1818	0.1	4747.9
27270	5.453	1.0909	0.1	4723.4
27271	5.3606	1.3636	0.1	4739.
27272	5.453	1.2727	0.1	4714.6
27273	5.3606	1.5455	0.1	4730.8
27274	5.453	1.4545	0.1	4706.4
27275	5.3606	1.7273	0.1	4723.2
27276	5.453	1.6364	0.1	4698.8
27277	5.3606	1.9091	0.1	4716.5
27278	5.453	1.8182	0.1	4692.
27279	5.3606	2.0909	0.1	4710.7
27280	5.453	2.	0.1	4685.9
27281	5.3606	2.2727	0.1	4705.8
27282	5.453	2.1818	0.1	4680.7
27283	5.3606	2.4545	0.1	4701.9
27284	5.453	2.3636	0.1	4676.5
27285	5.3606	2.6364	0.1	4699.1
27286	5.453	2.5455	0.1	4673.3
27287	5.3606	2.8182	0.1	4697.4
27288	5.453	2.7273	0.1	4671.1
27289	5.3606	3.	0.1	4696.8
27290	5.453	2.9091	0.1	4670.
27291	5.3606	3.1818	0.1	4697.4
27292	5.453	3.0909	0.1	4670.
27293	5.3606	3.3636	0.1	4699.1
27294	5.453	3.2727	0.1	4671.1
27295	5.3606	3.5455	0.1	4701.9
27296	5.453	3.4545	0.1	4673.3
27297	5.3606	3.7273	0.1	4705.8
27298	5.453	3.6364	0.1	4676.5
27299	5.3606	3.9091	0.1	4710.7
27300	5.453	3.8182	0.1	4680.7
27301	5.3606	4.0909	0.1	4716.5
27302	5.453	4.	0.1	4685.9
27303	5.3606	4.2727	0.1	4723.2
27304	5.453	4.1818	0.1	4692.
27305	5.3606	4.4545	0.1	4730.8
27306	5.453	4.3636	0.1	4698.8
27307	5.3606	4.6364	0.1	4739.
27308	5.453	4.5455	0.1	4706.4
27309	5.3606	4.8182	0.1	4747.9
27310	5.453	4.7273	0.1	4714.6
27311	5.3606	5.	0.1	4757.2
27312	5.453	4.9091	0.1	4723.4
27313	5.3606	5.1818	0.1	4767.
27314	5.453	5.0909	0.1	4732.6
27315	5.3606	5.3636	0.1	4777.1
27316	5.453	5.2727	0.1	4742.2
27317	5.3606	5.5455	0.1	4787.4
27318	5.453	5.4545	0.1	4752.1
27319	5.3606	5.7273	0.1	4798.
27320	5.453	5.6364	0.1	4762.1
27321	5.453	5.8182	0.1	4772.4
27322	5.3606	5.9091	0.1	4807.4
27323	5.5455	0.27273	0.1	4736.5
27324	5.6379	0.18182	0.1	4710.7
27325	5.5455	9.0909e-002	0.1	4745.1
27326	5.5455	0.45455	0.1	4726.7
27327	5.6379	0.36364	0.1	4701.2
27328	5.5455	0.63636	0.1	4717.2
27329	5.6379	0.54545	0.1	4692.
27330	5.5455	0.81818	0.1	4707.9
27331	5.6379	0.72727	0.1	4682.9
27332	5.5455	1.	0.1	4698.9
27333	5.6379	0.90909	0.1	4674.1
27334	5.5455	1.1818	0.1	4690.2
27335	5.6379	1.0909	0.1	4665.6
27336	5.5455	1.3636	0.1	4682.1
27337	5.6379	1.2727	0.1	4657.5
27338	5.5455	1.5455	0.1	4674.5
27339	5.6379	1.4545	0.1	4649.9
27340	5.5455	1.7273	0.1	4667.6
27341	5.6379	1.6364	0.1	4643.
27342	5.5455	1.9091	0.1	4661.4
27343	5.6379	1.8182	0.1	4636.7
27344	5.5455	2.0909	0.1	4656.
27345	5.6379	2.	0.1	4631.1
27346	5.5455	2.2727	0.1	4651.5
27347	5.6379	2.1818	0.1	4626.3
27348	5.5455	2.4545	0.1	4647.9
27349	5.6379	2.3636	0.1	4622.4
27350	5.5455	2.6364	0.1	4645.3
27351	5.6379	2.5455	0.1	4619.5
27352	5.5455	2.8182	0.1	4643.8
27353	5.6379	2.7273	0.1	4617.5
27354	5.5455	3.	0.1	4643.3
27355	5.6379	2.9091	0.1	4616.5
27356	5.5455	3.1818	0.1	4643.8
27357	5.6379	3.0909	0.1	4616.5
27358	5.5455	3.3636	0.1	4645.3
27359	5.6379	3.2727	0.1	4617.5
27360	5.5455	3.5455	0.1	4647.9
27361	5.6379	3.4545	0.1	4619.5
27362	5.5455	3.7273	0.1	4651.5
27363	5.6379	3.6364	0.1	4622.4
27364	5.5455	3.9091	0.1	4656.
27365	5.6379	3.8182	0.1	4626.3
27366	5.5455	4.0909	0.1	4661.4
27367	5.6379	4.	0.1	4631.1
27368	5.5455	4.2727	0.1	4667.6
27369	5.6379	4.1818	0.1	4636.7
27370	5.5455	4.4545	0.1	4674.5
27371	5.6379	4.3636	0.1	4643.
27372	5.5455	4.6364	0.1	4682.1
27373	5.6379	4.5455	0.1	4649.9
27374	5.5455	4.8182	0.1	4690.2
27375	5.6379	4.7273	0.1	4657.5
27376	5.5455	5.	0.1	4698.9
27377	5.6379	4.9091	0.1	4665.6
27378	5.5455	5.1818	0.1	4707.9
27379	5.6379	5.0909	0.1	4674.1
27380	5.5455	5.3636	0.1	4717.2
27381	5.6379	5.2727	0.1	4682.9
27382	5.5455	5.5455	0.1	4726.7
27383	5.6379	5.4545	0.1	4692.
27384	5.5455	5.7273	0.1	4736.5
27385	5.6379	5.6364	0.1	4701.2
27386	5.6379	5.8182	0.1	4710.7
27387	5.5455	5.9091	0.1	4745.1
27388	5.7303	0.27273	0.1	4675.4
27389	5.8227	0.18182	0.1	4649.5
27390	5.7303	9.0909e-002	0.1	4683.3
27391	5.7303	0.45455	0.1	4666.4
27392	5.8227	0.36364	0.1	4640.7
27393	5.7303	0.63636	0.1	4657.7
27394	5.8227	0.54545	0.1	4632.3
27395	5.7303	0.81818	0.1	4649.1
27396	5.8227	0.72727	0.1	4623.9
27397	5.7303	1.	0.1	4640.8
27398	5.8227	0.90909	0.1	4615.8
27399	5.7303	1.1818	0.1	4632.9
27400	5.8227	1.0909	0.1	4608.
27401	5.7303	1.3636	0.1	4625.4
27402	5.8227	1.2727	0.1	4600.6
27403	5.7303	1.5455	0.1	4618.4
27404	5.8227	1.4545	0.1	4593.7
27405	5.7303	1.7273	0.1	4612.1
27406	5.8227	1.6364	0.1	4587.3
27407	5.7303	1.9091	0.1	4606.4
27408	5.8227	1.8182	0.1	4581.5
27409	5.7303	2.0909	0.1	4601.4
27410	5.8227	2.	0.1	4576.4
27411	5.7303	2.2727	0.1	4597.3
27412	5.8227	2.1818	0.1	4572.
27413	5.7303	2.4545	0.1	4594.
27414	5.8227	2.3636	0.1	4568.5
27415	5.7303	2.6364	0.1	4591.7
27416	5.8227	2.5455	0.1	4565.8
27417	5.7303	2.8182	0.1	4590.2
27418	5.8227	2.7273	0.1	4563.9
27419	5.7303	3.	0.1	4589.7
27420	5.8227	2.9091	0.1	4563.
27421	5.7303	3.1818	0.1	4590.2
27422	5.8227	3.0909	0.1	4563.
27423	5.7303	3.3636	0.1	4591.7
27424	5.8227	3.2727	0.1	4563.9
27425	5.7303	3.5455	0.1	4594.
27426	5.8227	3.4545	0.1	4565.8
27427	5.7303	3.7273	0.1	4597.3
27428	5.8227	3.6364	0.1	4568.5
27429	5.7303	3.9091	0.1	4601.4
27430	5.8227	3.8182	0.1	4572.
27431	5.7303	4.0909	0.1	4606.4
27432	5.8227	4.	0.1	4576.4
27433	5.7303	4.2727	0.1	4612.1
27434	5.8227	4.1818	0.1	4581.5
27435	5.7303	4.4545	0.1	4618.4
27436	5.8227	4.3636	0.1	4587.3
27437	5.7303	4.6364	0.1	4625.4
27438	5.8227	4.5455	0.1	4593.7
27439	5.7303	4.8182	0.1	4632.9
27440	5.8227	4.7273	0.1	4600.6
27441	5.7303	5.	0.1	4640.8
27442	5.8227	4.9091	0.1	4608.
27443	5.7303	5.1818	0.1	4649.1
27444	5.8227	5.0909	0.1	4615.8
27445	5.7303	5.3636	0.1	4657.7
27446	5.8227	5.2727	0.1	4623.9
27447	5.7303	5.5455	0.1	4666.4
27448	5.8227	5.4545	0.1	4632.3
27449	5.7303	5.7273	0.1	4675.4
27450	5.8227	5.6364	0.1	4640.7
27451	5.8227	5.8182	0.1	4649.5
27452	5.7303	5.9091	0.1	4683.3
27453	5.9152	0.27273	0.1	4614.8
27454	6.0076	0.18182	0.1	4588.8
27455	5.9152	9.0909e-002	0.1	4622.1
27456	5.9152	0.45455	0.1	4606.6
27457	6.0076	0.36364	0.1	4580.7
27458	5.9152	0.63636	0.1	4598.5
27459	6.0076	0.54545	0.1	4573.
27460	5.9152	0.81818	0.1	4590.7
27461	6.0076	0.72727	0.1	4565.3
27462	5.9152	1.	0.1	4583.1
27463	6.0076	0.90909	0.1	4557.9
27464	5.9152	1.1818	0.1	4575.8
27465	6.0076	1.0909	0.1	4550.8
27466	5.9152	1.3636	0.1	4569.
27467	6.0076	1.2727	0.1	4544.
27468	5.9152	1.5455	0.1	4562.6
27469	6.0076	1.4545	0.1	4537.7
27470	5.9152	1.7273	0.1	4556.7
27471	6.0076	1.6364	0.1	4531.8
27472	5.9152	1.9091	0.1	4551.5
27473	6.0076	1.8182	0.1	4526.5
27474	5.9152	2.0909	0.1	4547.
27475	6.0076	2.	0.1	4521.9
27476	5.9152	2.2727	0.1	4543.2
27477	6.0076	2.1818	0.1	4517.9
27478	5.9152	2.4545	0.1	4540.2
27479	6.0076	2.3636	0.1	4514.6
27480	5.9152	2.6364	0.1	4538.1
27481	6.0076	2.5455	0.1	4512.1
27482	5.9152	2.8182	0.1	4536.7
27483	6.0076	2.7273	0.1	4510.5
27484	5.9152	3.	0.1	4536.3
27485	6.0076	2.9091	0.1	4509.6
27486	5.9152	3.1818	0.1	4536.7
27487	6.0076	3.0909	0.1	4509.6
27488	5.9152	3.3636	0.1	4538.1
27489	6.0076	3.2727	0.1	4510.5
27490	5.9152	3.5455	0.1	4540.2
27491	6.0076	3.4545	0.1	4512.1
27492	5.9152	3.7273	0.1	4543.2
27493	6.0076	3.6364	0.1	4514.6
27494	5.9152	3.9091	0.1	4547.
27495	6.0076	3.8182	0.1	4517.9
27496	5.9152	4.0909	0.1	4551.5
27497	6.0076	4.	0.1	4521.9
27498	5.9152	4.2727	0.1	4556.7
27499	6.0076	4.1818	0.1	4526.5
27500	5.9152	4.4545	0.1	4562.6
27501	6.0076	4.3636	0.1	4531.8
27502	5.9152	4.6364	0.1	4569.
27503	6.0076	4.5455	0.1	4537.7
27504	5.9152	4.8182	0.1	4575.8
27505	6.0076	4.7273	0.1	4544.
27506	5.9152	5.	0.1	4583.1
27507	6.0076	4.9091	0.1	4550.8
27508	5.9152	5.1818	0.1	4590.7
27509	6.0076	5.0909	0.1	4557.9
27510	5.9152	5.3636	0.1	4598.5
27511	6.0076	5.2727	0.1	4565.3
27512	5.9152	5.5455	0.1	4606.6
27513	6.0076	5.4545	0.1	4573.
27514	5.9152	5.7273	0.1	4614.8
27515	6.0076	5.6364	0.1	4580.7
27516	6.0076	5.8182	0.1	4588.8
27517	5.9152	5.9091	0.1	4622.1
27518	6.1	0.27273	0.1	4554.7
27519	6.1924	0.18182	0.1	4528.6
27520	6.1	9.0909e-002	0.1	4561.2
27521	6.1	0.45455	0.1	4547.1
27522	6.1924	0.36364	0.1	4521.1
27523	6.1	0.63636	0.1	4539.7
27524	6.1924	0.54545	0.1	4514.
27525	6.1	0.81818	0.1	4532.6
27526	6.1924	0.72727	0.1	4507.
27527	6.1	1.	0.1	4525.6
27528	6.1924	0.90909	0.1	4500.3
27529	6.1	1.1818	0.1	4519.
27530	6.1924	1.0909	0.1	4493.8
27531	6.1	1.3636	0.1	4512.8
27532	6.1924	1.2727	0.1	4487.6
27533	6.1	1.5455	0.1	4506.9
27534	6.1924	1.4545	0.1	4481.9
27535	6.1	1.7273	0.1	4501.6
27536	6.1924	1.6364	0.1	4476.5
27537	6.1	1.9091	0.1	4496.9
27538	6.1924	1.8182	0.1	4471.7
27539	6.1	2.0909	0.1	4492.7
27540	6.1924	2.	0.1	4467.5
27541	6.1	2.2727	0.1	4489.3
27542	6.1924	2.1818	0.1	4463.8
27543	6.1	2.4545	0.1	4486.5
27544	6.1924	2.3636	0.1	4460.9
27545	6.1	2.6364	0.1	4484.5
27546	6.1924	2.5455	0.1	4458.6
27547	6.1	2.8182	0.1	4483.3
27548	6.1924	2.7273	0.1	4457.1
27549	6.1	3.	0.1	4482.9
27550	6.1924	2.9091	0.1	4456.3
27551	6.1	3.1818	0.1	4483.3
27552	6.1924	3.0909	0.1	4456.3
27553	6.1	3.3636	0.1	4484.5
27554	6.1924	3.2727	0.1	4457.1
27555	6.1	3.5455	0.1	4486.5
27556	6.1924	3.4545	0.1	4458.6
27557	6.1	3.7273	0.1	4489.3
27558	6.1924	3.6364	0.1	4460.9
27559	6.1	3.9091	0.1	4492.7
27560	6.1924	3.8182	0.1	4463.8
27561	6.1	4.0909	0.1	4496.9
27562	6.1924	4.	0.1	4467.5
27563	6.1	4.2727	0.1	4501.6
27564	6.1924	4.1818	0.1	4471.7
27565	6.1	4.4545	0.1	4506.9
27566	6.1924	4.3636	0.1	4476.5
27567	6.1	4.6364	0.1	4512.8
27568	6.1924	4.5455	0.1	4481.9
27569	6.1	4.8182	0.1	4519.
27570	6.1924	4.7273	0.1	4487.6
27571	6.1	5.	0.1	4525.6
27572	6.1924	4.9091	0.1	4493.8
27573	6.1	5.1818	0.1	4532.6
27574	6.1924	5.0909	0.1	4500.3
27575	6.1	5.3636	0.1	4539.7
27576	6.1924	5.2727	0.1	4507.
27577	6.1	5.5455	0.1	4547.1
27578	6.1924	5.4545	0.1	4514.
27579	6.1	5.7273	0.1	4554.7
27580	6.1924	5.6364	0.1	4521.1
27581	6.1924	5.8182	0.1	4528.6
27582	6.1	5.9091	0.1	4561.2
27583	6.2848	0.27273	0.1	4494.9
27584	6.3773	0.18182	0.1	4468.7
27585	6.2848	9.0909e-002	0.1	4500.8
27586	6.2848	0.45455	0.1	4488.
27587	6.3773	0.36364	0.1	4461.8
27588	6.2848	0.63636	0.1	4481.3
27589	6.3773	0.54545	0.1	4455.4
27590	6.2848	0.81818	0.1	4474.8
27591	6.3773	0.72727	0.1	4449.
27592	6.2848	1.	0.1	4468.5
27593	6.3773	0.90909	0.1	4442.9
27594	6.2848	1.1818	0.1	4462.4
27595	6.3773	1.0909	0.1	4437.1
27596	6.2848	1.3636	0.1	4456.8
27597	6.3773	1.2727	0.1	4431.5
27598	6.2848	1.5455	0.1	4451.5
27599	6.3773	1.4545	0.1	4426.3
27600	6.2848	1.7273	0.1	4446.7
27601	6.3773	1.6364	0.1	4421.5
27602	6.2848	1.9091	0.1	4442.3
27603	6.3773	1.8182	0.1	4417.1
27604	6.2848	2.0909	0.1	4438.6
27605	6.3773	2.	0.1	4413.3
27606	6.2848	2.2727	0.1	4435.5
27607	6.3773	2.1818	0.1	4410.
27608	6.2848	2.4545	0.1	4433.
27609	6.3773	2.3636	0.1	4407.3
27610	6.2848	2.6364	0.1	4431.2
27611	6.3773	2.5455	0.1	4405.2
27612	6.2848	2.8182	0.1	4430.1
27613	6.3773	2.7273	0.1	4403.8
27614	6.2848	3.	0.1	4429.7
27615	6.3773	2.9091	0.1	4403.1
27616	6.2848	3.1818	0.1	4430.1
27617	6.3773	3.0909	0.1	4403.1
27618	6.2848	3.3636	0.1	4431.2
27619	6.3773	3.2727	0.1	4403.8
27620	6.2848	3.5455	0.1	4433.
27621	6.3773	3.4545	0.1	4405.2
27622	6.2848	3.7273	0.1	4435.5
27623	6.3773	3.6364	0.1	4407.3
27624	6.2848	3.9091	0.1	4438.6
27625	6.3773	3.8182	0.1	4410.
27626	6.2848	4.0909	0.1	4442.3
27627	6.3773	4.	0.1	4413.3
27628	6.2848	4.2727	0.1	4446.7
27629	6.3773	4.1818	0.1	4417.1
27630	6.2848	4.4545	0.1	4451.5
27631	6.3773	4.3636	0.1	4421.5
27632	6.2848	4.6364	0.1	4456.8
27633	6.3773	4.5455	0.1	4426.3
27634	6.2848	4.8182	0.1	4462.4
27635	6.3773	4.7273	0.1	4431.5
27636	6.2848	5.	0.1	4468.5
27637	6.3773	4.9091	0.1	4437.1
27638	6.2848	5.1818	0.1	4474.8
27639	6.3773	5.0909	0.1	4442.9
27640	6.2848	5.3636	0.1	4481.3
27641	6.3773	5.2727	0.1	4449.
27642	6.2848	5.5455	0.1	4488.
27643	6.3773	5.4545	0.1	4455.4
27644	6.2848	5.7273	0.1	4494.9
27645	6.3773	5.6364	0.1	4461.8
27646	6.3773	5.8182	0.1	4468.7
27647	6.2848	5.9091	0.1	4500.8
27648	6.4697	0.27273	0.1	4435.5
27649	6.5621	0.18182	0.1	4409.1
27650	6.4697	9.0909e-002	0.1	4440.7
27651	6.4697	0.45455	0.1	4429.2
27652	6.5621	0.36364	0.1	4402.8
27653	6.4697	0.63636	0.1	4423.1
27654	6.5621	0.54545	0.1	4397.
27655	6.4697	0.81818	0.1	4417.2
27656	6.5621	0.72727	0.1	4391.3
27657	6.4697	1.	0.1	4411.5
27658	6.5621	0.90909	0.1	4385.8
27659	6.4697	1.1818	0.1	4406.1
27660	6.5621	1.0909	0.1	4380.6
27661	6.4697	1.3636	0.1	4401.
27662	6.5621	1.2727	0.1	4375.6
27663	6.4697	1.5455	0.1	4396.3
27664	6.5621	1.4545	0.1	4370.9
27665	6.4697	1.7273	0.1	4391.9
27666	6.5621	1.6364	0.1	4366.6
27667	6.4697	1.9091	0.1	4388.
27668	6.5621	1.8182	0.1	4362.7
27669	6.4697	2.0909	0.1	4384.6
27670	6.5621	2.	0.1	4359.2
27671	6.4697	2.2727	0.1	4381.8
27672	6.5621	2.1818	0.1	4356.3
27673	6.4697	2.4545	0.1	4379.5
27674	6.5621	2.3636	0.1	4353.8
27675	6.4697	2.6364	0.1	4377.9
27676	6.5621	2.5455	0.1	4352.
27677	6.4697	2.8182	0.1	4376.9
27678	6.5621	2.7273	0.1	4350.7
27679	6.4697	3.	0.1	4376.6
27680	6.5621	2.9091	0.1	4350.1
27681	6.4697	3.1818	0.1	4376.9
27682	6.5621	3.0909	0.1	4350.1
27683	6.4697	3.3636	0.1	4377.9
27684	6.5621	3.2727	0.1	4350.7
27685	6.4697	3.5455	0.1	4379.5
27686	6.5621	3.4545	0.1	4352.
27687	6.4697	3.7273	0.1	4381.8
27688	6.5621	3.6364	0.1	4353.8
27689	6.4697	3.9091	0.1	4384.6
27690	6.5621	3.8182	0.1	4356.3
27691	6.4697	4.0909	0.1	4388.
27692	6.5621	4.	0.1	4359.2
27693	6.4697	4.2727	0.1	4391.9
27694	6.5621	4.1818	0.1	4362.7
27695	6.4697	4.4545	0.1	4396.3
27696	6.5621	4.3636	0.1	4366.6
27697	6.4697	4.6364	0.1	4401.
27698	6.5621	4.5455	0.1	4370.9
27699	6.4697	4.8182	0.1	4406.1
27700	6.5621	4.7273	0.1	4375.6
27701	6.4697	5.	0.1	4411.5
27702	6.5621	4.9091	0.1	4380.6
27703	6.4697	5.1818	0.1	4417.2
27704	6.5621	5.0909	0.1	4385.8
27705	6.4697	5.3636	0.1	4423.1
27706	6.5621	5.2727	0.1	4391.3
27707	6.4697	5.5455	0.1	4429.2
27708	6.5621	5.4545	0.1	4397.
27709	6.4697	5.7273	0.1	4435.5
27710	6.5621	5.6364	0.1	4402.8
27711	6.5621	5.8182	0.1	4409.1
27712	6.4697	5.9091	0.1	4440.7
27713	6.6545	0.27273	0.1	4376.4
27714	6.747	0.18182	0.1	4349.7
27715	6.6545	9.0909e-002	0.1	4380.9
27716	6.6545	0.45455	0.1	4370.6
27717	6.747	0.36364	0.1	4344.1
27718	6.6545	0.63636	0.1	4365.2
27719	6.747	0.54545	0.1	4338.9
27720	6.6545	0.81818	0.1	4359.9
27721	6.747	0.72727	0.1	4333.8
27722	6.6545	1.	0.1	4354.8
27723	6.747	0.90909	0.1	4328.9
27724	6.6545	1.1818	0.1	4350.
27725	6.747	1.0909	0.1	4324.3
27726	6.6545	1.3636	0.1	4345.5
27727	6.747	1.2727	0.1	4319.9
27728	6.6545	1.5455	0.1	4341.2
27729	6.747	1.4545	0.1	4315.7
27730	6.6545	1.7273	0.1	4337.3
27731	6.747	1.6364	0.1	4311.9
27732	6.6545	1.9091	0.1	4333.9
27733	6.747	1.8182	0.1	4308.4
27734	6.6545	2.0909	0.1	4330.8
27735	6.747	2.	0.1	4305.4
27736	6.6545	2.2727	0.1	4328.3
27737	6.747	2.1818	0.1	4302.7
27738	6.6545	2.4545	0.1	4326.3
27739	6.747	2.3636	0.1	4300.6
27740	6.6545	2.6364	0.1	4324.8
27741	6.747	2.5455	0.1	4299.
27742	6.6545	2.8182	0.1	4323.9
27743	6.747	2.7273	0.1	4297.8
27744	6.6545	3.	0.1	4323.7
27745	6.747	2.9091	0.1	4297.3
27746	6.6545	3.1818	0.1	4323.9
27747	6.747	3.0909	0.1	4297.3
27748	6.6545	3.3636	0.1	4324.8
27749	6.747	3.2727	0.1	4297.8
27750	6.6545	3.5455	0.1	4326.3
27751	6.747	3.4545	0.1	4299.
27752	6.6545	3.7273	0.1	4328.3
27753	6.747	3.6364	0.1	4300.6
27754	6.6545	3.9091	0.1	4330.8
27755	6.747	3.8182	0.1	4302.7
27756	6.6545	4.0909	0.1	4333.9
27757	6.747	4.	0.1	4305.4
27758	6.6545	4.2727	0.1	4337.3
27759	6.747	4.1818	0.1	4308.4
27760	6.6545	4.4545	0.1	4341.2
27761	6.747	4.3636	0.1	4311.9
27762	6.6545	4.6364	0.1	4345.5
27763	6.747	4.5455	0.1	4315.7
27764	6.6545	4.8182	0.1	4350.
27765	6.747	4.7273	0.1	4319.9
27766	6.6545	5.	0.1	4354.8
27767	6.747	4.9091	0.1	4324.3
27768	6.6545	5.1818	0.1	4359.9
27769	6.747	5.0909	0.1	4328.9
27770	6.6545	5.3636	0.1	4365.2
27771	6.747	5.2727	0.1	4333.8
27772	6.6545	5.5455	0.1	4370.6
27773	6.747	5.4545	0.1	4338.9
27774	6.6545	5.7273	0.1	4376.4
27775	6.747	5.6364	0.1	4344.1
27776	6.747	5.8182	0.1	4349.7
27777	6.6545	5.9091	0.1	4380.9
27778	6.8394	0.27273	0.1	4317.4
27779	6.9318	0.18182	0.1	4290.6
27780	6.8394	9.0909e-002	0.1	4321.4
27781	6.8394	0.45455	0.1	4312.3
27782	6.9318	0.36364	0.1	4285.5
27783	6.8394	0.63636	0.1	4307.5
27784	6.9318	0.54545	0.1	4280.9
27785	6.8394	0.81818	0.1	4302.8
27786	6.9318	0.72727	0.1	4276.5
27787	6.8394	1.	0.1	4298.4
27788	6.9318	0.90909	0.1	4272.2
27789	6.8394	1.1818	0.1	4294.1
27790	6.9318	1.0909	0.1	4268.2
27791	6.8394	1.3636	0.1	4290.1
27792	6.9318	1.2727	0.1	4264.3
27793	6.8394	1.5455	0.1	4286.4
27794	6.9318	1.4545	0.1	4260.7
27795	6.8394	1.7273	0.1	4283.
27796	6.9318	1.6364	0.1	4257.4
27797	6.8394	1.9091	0.1	4279.9
27798	6.9318	1.8182	0.1	4254.4
27799	6.8394	2.0909	0.1	4277.3
27800	6.9318	2.	0.1	4251.7
27801	6.8394	2.2727	0.1	4275.
27802	6.9318	2.1818	0.1	4249.5
27803	6.8394	2.4545	0.1	4273.3
27804	6.9318	2.3636	0.1	4247.6
27805	6.8394	2.6364	0.1	4272.
27806	6.9318	2.5455	0.1	4246.1
27807	6.8394	2.8182	0.1	4271.2
27808	6.9318	2.7273	0.1	4245.2
27809	6.8394	3.	0.1	4270.9
27810	6.9318	2.9091	0.1	4244.7
27811	6.8394	3.1818	0.1	4271.2
27812	6.9318	3.0909	0.1	4244.7
27813	6.8394	3.3636	0.1	4272.
27814	6.9318	3.2727	0.1	4245.2
27815	6.8394	3.5455	0.1	4273.3
27816	6.9318	3.4545	0.1	4246.1
27817	6.8394	3.7273	0.1	4275.
27818	6.9318	3.6364	0.1	4247.6
27819	6.8394	3.9091	0.1	4277.3
27820	6.9318	3.8182	0.1	4249.5
27821	6.8394	4.0909	0.1	4279.9
27822	6.9318	4.	0.1	4251.7
27823	6.8394	4.2727	0.1	4283.
27824	6.9318	4.1818	0.1	4254.4
27825	6.8394	4.4545	0.1	4286.4
27826	6.9318	4.3636	0.1	4257.4
27827	6.8394	4.6364	0.1	4290.1
27828	6.9318	4.5455	0.1	4260.7
27829	6.8394	4.8182	0.1	4294.1
27830	6.9318	4.7273	0.1	4264.3
27831	6.8394	5.	0.1	4298.4
27832	6.9318	4.9091	0.1	4268.2
27833	6.8394	5.1818	0.1	4302.8
27834	6.9318	5.0909	0.1	4272.2
27835	6.8394	5.3636	0.1	4307.5
27836	6.9318	5.2727	0.1	4276.5
27837	6.8394	5.5455	0.1	4312.3
27838	6.9318	5.4545	0.1	4280.9
27839	6.8394	5.7273	0.1	4317.4
27840	6.9318	5.6364	0.1	4285.5
27841	6.9318	5.8182	0.1	4290.6
27842	6.8394	5.9091	0.1	4321.4
27843	7.0242	0.27273	0.1	4258.6
27844	7.1167	0.18182	0.1	4231.5
27845	7.0242	9.0909e-002	0.1	4261.9
27846	7.0242	0.45455	0.1	4254.1
27847	7.1167	0.36364	0.1	4227.
27848	7.0242	0.63636	0.1	4249.9
27849	7.1167	0.54545	0.1	4223.
27850	7.0242	0.81818	0.1	4245.9
27851	7.1167	0.72727	0.1	4219.3
27852	7.0242	1.	0.1	4242.
27853	7.1167	0.90909	0.1	4215.7
27854	7.0242	1.1818	0.1	4238.4
27855	7.1167	1.0909	0.1	4212.2
27856	7.0242	1.3636	0.1	4235.
27857	7.1167	1.2727	0.1	4209.
27858	7.0242	1.5455	0.1	4231.8
27859	7.1167	1.4545	0.1	4206.
27860	7.0242	1.7273	0.1	4228.8
27861	7.1167	1.6364	0.1	4203.2
27862	7.0242	1.9091	0.1	4226.2
27863	7.1167	1.8182	0.1	4200.6
27864	7.0242	2.0909	0.1	4223.9
27865	7.1167	2.	0.1	4198.4
27866	7.0242	2.2727	0.1	4222.
27867	7.1167	2.1818	0.1	4196.4
27868	7.0242	2.4545	0.1	4220.5
27869	7.1167	2.3636	0.1	4194.8
27870	7.0242	2.6364	0.1	4219.4
27871	7.1167	2.5455	0.1	4193.6
27872	7.0242	2.8182	0.1	4218.7
27873	7.1167	2.7273	0.1	4192.8
27874	7.0242	3.	0.1	4218.5
27875	7.1167	2.9091	0.1	4192.4
27876	7.0242	3.1818	0.1	4218.7
27877	7.1167	3.0909	0.1	4192.4
27878	7.0242	3.3636	0.1	4219.4
27879	7.1167	3.2727	0.1	4192.8
27880	7.0242	3.5455	0.1	4220.5
27881	7.1167	3.4545	0.1	4193.6
27882	7.0242	3.7273	0.1	4222.
27883	7.1167	3.6364	0.1	4194.8
27884	7.0242	3.9091	0.1	4223.9
27885	7.1167	3.8182	0.1	4196.4
27886	7.0242	4.0909	0.1	4226.2
27887	7.1167	4.	0.1	4198.4
27888	7.0242	4.2727	0.1	4228.8
27889	7.1167	4.1818	0.1	4200.6
27890	7.0242	4.4545	0.1	4231.8
27891	7.1167	4.3636	0.1	4203.2
27892	7.0242	4.6364	0.1	4235.
27893	7.1167	4.5455	0.1	4206.
27894	7.0242	4.8182	0.1	4238.4
27895	7.1167	4.7273	0.1	4209.
27896	7.0242	5.	0.1	4242.
27897	7.1167	4.9091	0.1	4212.2
27898	7.0242	5.1818	0.1	4245.9
27899	7.1167	5.0909	0.1	4215.7
27900	7.0242	5.3636	0.1	4249.9
27901	7.1167	5.2727	0.1	4219.3
27902	7.0242	5.5455	0.1	4254.1
27903	7.1167	5.4545	0.1	4223.
27904	7.0242	5.7273	0.1	4258.6
27905	7.1167	5.6364	0.1	4227.
27906	7.1167	5.8182	0.1	4231.5
27907	7.0242	5.9091	0.1	4261.9
27908	7.2091	0.27273	0.1	4199.9
27909	7.3015	0.18182	0.1	4172.4
27910	7.2091	9.0909e-002	0.1	4202.5
27911	7.2091	0.45455	0.1	4195.9
27912	7.3015	0.36364	0.1	4168.5
27913	7.2091	0.63636	0.1	4192.4
27914	7.3015	0.54545	0.1	4165.2
27915	7.2091	0.81818	0.1	4189.
27916	7.3015	0.72727	0.1	4162.1
27917	7.2091	1.	0.1	4185.9
27918	7.3015	0.90909	0.1	4159.2
27919	7.2091	1.1818	0.1	4182.8
27920	7.3015	1.0909	0.1	4156.4
27921	7.2091	1.3636	0.1	4180.
27922	7.3015	1.2727	0.1	4153.8
27923	7.2091	1.5455	0.1	4177.4
27924	7.3015	1.4545	0.1	4151.4
27925	7.2091	1.7273	0.1	4175.
27926	7.3015	1.6364	0.1	4149.2
27927	7.2091	1.9091	0.1	4172.8
27928	7.3015	1.8182	0.1	4147.1
27929	7.2091	2.0909	0.1	4170.9
27930	7.3015	2.	0.1	4145.3
27931	7.2091	2.2727	0.1	4169.3
27932	7.3015	2.1818	0.1	4143.8
27933	7.2091	2.4545	0.1	4168.
27934	7.3015	2.3636	0.1	4142.5
27935	7.2091	2.6364	0.1	4167.1
27936	7.3015	2.5455	0.1	4141.5
27937	7.2091	2.8182	0.1	4166.5
27938	7.3015	2.7273	0.1	4140.8
27939	7.2091	3.	0.1	4166.3
27940	7.3015	2.9091	0.1	4140.5
27941	7.2091	3.1818	0.1	4166.5
27942	7.3015	3.0909	0.1	4140.5
27943	7.2091	3.3636	0.1	4167.1
27944	7.3015	3.2727	0.1	4140.8
27945	7.2091	3.5455	0.1	4168.
27946	7.3015	3.4545	0.1	4141.5
27947	7.2091	3.7273	0.1	4169.3
27948	7.3015	3.6364	0.1	4142.5
27949	7.2091	3.9091	0.1	4170.9
27950	7.3015	3.8182	0.1	4143.8
27951	7.2091	4.0909	0.1	4172.8
27952	7.3015	4.	0.1	4145.3
27953	7.2091	4.2727	0.1	4175.
27954	7.3015	4.1818	0.1	4147.1
27955	7.2091	4.4545	0.1	4177.4
27956	7.3015	4.3636	0.1	4149.2
27957	7.2091	4.6364	0.1	4180.
27958	7.3015	4.5455	0.1	4151.4
27959	7.2091	4.8182	0.1	4182.8
27960	7.3015	4.7273	0.1	4153.8
27961	7.2091	5.	0.1	4185.9
27962	7.3015	4.9091	0.1	4156.4
27963	7.2091	5.1818	0.1	4189.
27964	7.3015	5.0909	0.1	4159.2
27965	7.2091	5.3636	0.1	4192.4
27966	7.3015	5.2727	0.1	4162.1
27967	7.2091	5.5455	0.1	4195.9
27968	7.3015	5.4545	0.1	4165.2
27969	7.2091	5.7273	0.1	4199.9
27970	7.3015	5.6364	0.1	4168.5
27971	7.3015	5.8182	0.1	4172.4
27972	7.2091	5.9091	0.1	4202.5
27973	7.3939	0.27273	0.1	4141.
27974	7.4864	0.18182	0.1	4113.2
27975	7.3939	9.0909e-002	0.1	4143.1
27976	7.3939	0.45455	0.1	4137.8
27977	7.4864	0.36364	0.1	4109.9
27978	7.3939	0.63636	0.1	4134.9
27979	7.4864	0.54545	0.1	4107.3
27980	7.3939	0.81818	0.1	4132.2
27981	7.4864	0.72727	0.1	4104.9
27982	7.3939	1.	0.1	4129.8
27983	7.4864	0.90909	0.1	4102.7
27984	7.3939	1.1818	0.1	4127.4
27985	7.4864	1.0909	0.1	4100.7
27986	7.3939	1.3636	0.1	4125.2
27987	7.4864	1.2727	0.1	4098.8
27988	7.3939	1.5455	0.1	4123.2
27989	7.4864	1.4545	0.1	4097.
27990	7.3939	1.7273	0.1	4121.3
27991	7.4864	1.6364	0.1	4095.4
27992	7.3939	1.9091	0.1	4119.7
27993	7.4864	1.8182	0.1	4093.9
27994	7.3939	2.0909	0.1	4118.2
27995	7.4864	2.	0.1	4092.6
27996	7.3939	2.2727	0.1	4116.9
27997	7.4864	2.1818	0.1	4091.5
27998	7.3939	2.4545	0.1	4115.9
27999	7.4864	2.3636	0.1	4090.5
28000	7.3939	2.6364	0.1	4115.2
28001	7.4864	2.5455	0.1	4089.8
28002	7.3939	2.8182	0.1	4114.8
28003	7.4864	2.7273	0.1	4089.3
28004	7.3939	3.	0.1	4114.6
28005	7.4864	2.9091	0.1	4089.
28006	7.3939	3.1818	0.1	4114.8
28007	7.4864	3.0909	0.1	4089.
28008	7.3939	3.3636	0.1	4115.2
28009	7.4864	3.2727	0.1	4089.3
28010	7.3939	3.5455	0.1	4115.9
28011	7.4864	3.4545	0.1	4089.8
28012	7.3939	3.7273	0.1	4116.9
28013	7.4864	3.6364	0.1	4090.5
28014	7.3939	3.9091	0.1	4118.2
28015	7.4864	3.8182	0.1	4091.5
28016	7.3939	4.0909	0.1	4119.7
28017	7.4864	4.	0.1	4092.6
28018	7.3939	4.2727	0.1	4121.3
28019	7.4864	4.1818	0.1	4093.9
28020	7.3939	4.4545	0.1	4123.2
28021	7.4864	4.3636	0.1	4095.4
28022	7.3939	4.6364	0.1	4125.2
28023	7.4864	4.5455	0.1	4097.
28024	7.3939	4.8182	0.1	4127.4
28025	7.4864	4.7273	0.1	4098.8
28026	7.3939	5.	0.1	4129.8
28027	7.4864	4.9091	0.1	4100.7
28028	7.3939	5.1818	0.1	4132.2
28029	7.4864	5.0909	0.1	4102.7
28030	7.3939	5.3636	0.1	4134.9
28031	7.4864	5.2727	0.1	4104.9
28032	7.3939	5.5455	0.1	4137.8
28033	7.4864	5.4545	0.1	4107.3
28034	7.3939	5.7273	0.1	4141.
28035	7.4864	5.6364	0.1	4109.9
28036	7.4864	5.8182	0.1	4113.2
28037	7.3939	5.9091	0.1	4143.1
28038	7.5788	0.27273	0.1	4082.
28039	7.6712	0.18182	0.1	4053.7
28040	7.5788	9.0909e-002	0.1	4083.4
28041	7.5788	0.45455	0.1	4079.4
28042	7.6712	0.36364	0.1	4051.1
28043	7.5788	0.63636	0.1	4077.3
28044	7.6712	0.54545	0.1	4049.2
28045	7.5788	0.81818	0.1	4075.4
28046	7.6712	0.72727	0.1	4047.6
28047	7.5788	1.	0.1	4073.7
28048	7.6712	0.90909	0.1	4046.3
28049	7.5788	1.1818	0.1	4072.1
28050	7.6712	1.0909	0.1	4045.
28051	7.5788	1.3636	0.1	4070.6
28052	7.6712	1.2727	0.1	4043.9
28053	7.5788	1.5455	0.1	4069.3
28054	7.6712	1.4545	0.1	4042.9
28055	7.5788	1.7273	0.1	4068.
28056	7.6712	1.6364	0.1	4041.9
28057	7.5788	1.9091	0.1	4066.9
28058	7.6712	1.8182	0.1	4041.1
28059	7.5788	2.0909	0.1	4065.9
28060	7.6712	2.	0.1	4040.3
28061	7.5788	2.2727	0.1	4065.
28062	7.6712	2.1818	0.1	4039.6
28063	7.5788	2.4545	0.1	4064.4
28064	7.6712	2.3636	0.1	4039.1
28065	7.5788	2.6364	0.1	4063.9
28066	7.6712	2.5455	0.1	4038.6
28067	7.5788	2.8182	0.1	4063.5
28068	7.6712	2.7273	0.1	4038.3
28069	7.5788	3.	0.1	4063.4
28070	7.6712	2.9091	0.1	4038.2
28071	7.5788	3.1818	0.1	4063.5
28072	7.6712	3.0909	0.1	4038.2
28073	7.5788	3.3636	0.1	4063.9
28074	7.6712	3.2727	0.1	4038.3
28075	7.5788	3.5455	0.1	4064.4
28076	7.6712	3.4545	0.1	4038.6
28077	7.5788	3.7273	0.1	4065.
28078	7.6712	3.6364	0.1	4039.1
28079	7.5788	3.9091	0.1	4065.9
28080	7.6712	3.8182	0.1	4039.6
28081	7.5788	4.0909	0.1	4066.9
28082	7.6712	4.	0.1	4040.3
28083	7.5788	4.2727	0.1	4068.
28084	7.6712	4.1818	0.1	4041.1
28085	7.5788	4.4545	0.1	4069.3
28086	7.6712	4.3636	0.1	4041.9
28087	7.5788	4.6364	0.1	4070.6
28088	7.6712	4.5455	0.1	4042.9
28089	7.5788	4.8182	0.1	4072.1
28090	7.6712	4.7273	0.1	4043.9
28091	7.5788	5.	0.1	4073.7
28092	7.6712	4.9091	0.1	4045.
28093	7.5788	5.1818	0.1	4075.4
28094	7.6712	5.0909	0.1	4046.3
28095	7.5788	5.3636	0.1	4077.3
28096	7.6712	5.2727	0.1	4047.6
28097	7.5788	5.5455	0.1	4079.4
28098	7.6712	5.4545	0.1	4049.2
28099	7.5788	5.7273	0.1	4082.
28100	7.6712	5.6364	0.1	4051.1
28101	7.6712	5.8182	0.1	4053.7
28102	7.5788	5.9091	0.1	4083.4
28103	7.7636	0.27273	0.1	4022.7
28104	7.8561	0.18182	0.1	3993.7
28105	7.7636	9.0909e-002	0.1	4023.4
28106	7.7636	0.45455	0.1	4020.8
28107	7.8561	0.36364	0.1	3991.8
28108	7.7636	0.63636	0.1	4019.5
28109	7.8561	0.54545	0.1	3990.8
28110	7.7636	0.81818	0.1	4018.5
28111	7.8561	0.72727	0.1	3990.1
28112	7.7636	1.	0.1	4017.6
28113	7.8561	0.90909	0.1	3989.6
28114	7.7636	1.1818	0.1	4016.8
28115	7.8561	1.0909	0.1	3989.3
28116	7.7636	1.3636	0.1	4016.2
28117	7.8561	1.2727	0.1	3989.1
28118	7.7636	1.5455	0.1	4015.6
28119	7.8561	1.4545	0.1	3988.9
28120	7.7636	1.7273	0.1	4015.
28121	7.8561	1.6364	0.1	3988.8
28122	7.7636	1.9091	0.1	4014.5
28123	7.8561	1.8182	0.1	3988.7
28124	7.7636	2.0909	0.1	4014.1
28125	7.8561	2.	0.1	3988.5
28126	7.7636	2.2727	0.1	4013.7
28127	7.8561	2.1818	0.1	3988.4
28128	7.7636	2.4545	0.1	4013.4
28129	7.8561	2.3636	0.1	3988.3
28130	7.7636	2.6364	0.1	4013.1
28131	7.8561	2.5455	0.1	3988.2
28132	7.7636	2.8182	0.1	4013.
28133	7.8561	2.7273	0.1	3988.1
28134	7.7636	3.	0.1	4012.9
28135	7.8561	2.9091	0.1	3988.1
28136	7.7636	3.1818	0.1	4013.
28137	7.8561	3.0909	0.1	3988.1
28138	7.7636	3.3636	0.1	4013.1
28139	7.8561	3.2727	0.1	3988.1
28140	7.7636	3.5455	0.1	4013.4
28141	7.8561	3.4545	0.1	3988.2
28142	7.7636	3.7273	0.1	4013.7
28143	7.8561	3.6364	0.1	3988.3
28144	7.7636	3.9091	0.1	4014.1
28145	7.8561	3.8182	0.1	3988.4
28146	7.7636	4.0909	0.1	4014.5
28147	7.8561	4.	0.1	3988.5
28148	7.7636	4.2727	0.1	4015.
28149	7.8561	4.1818	0.1	3988.7
28150	7.7636	4.4545	0.1	4015.6
28151	7.8561	4.3636	0.1	3988.8
28152	7.7636	4.6364	0.1	4016.2
28153	7.8561	4.5455	0.1	3988.9
28154	7.7636	4.8182	0.1	4016.8
28155	7.8561	4.7273	0.1	3989.1
28156	7.7636	5.	0.1	4017.6
28157	7.8561	4.9091	0.1	3989.3
28158	7.7636	5.1818	0.1	4018.5
28159	7.8561	5.0909	0.1	3989.6
28160	7.7636	5.3636	0.1	4019.5
28161	7.8561	5.2727	0.1	3990.1
28162	7.7636	5.5455	0.1	4020.8
28163	7.8561	5.4545	0.1	3990.8
28164	7.7636	5.7273	0.1	4022.7
28165	7.8561	5.6364	0.1	3991.8
28166	7.8561	5.8182	0.1	3993.7
28167	7.7636	5.9091	0.1	4023.4
28168	7.9485	0.27273	0.1	3962.8
28169	8.0409	0.18182	0.1	3933.
28170	7.9485	9.0909e-002	0.1	3962.7
28171	7.9485	0.45455	0.1	3961.8
28172	8.0409	0.36364	0.1	3931.9
28173	7.9485	0.63636	0.1	3961.4
28174	8.0409	0.54545	0.1	3931.9
28175	7.9485	0.81818	0.1	3961.3
28176	8.0409	0.72727	0.1	3932.2
28177	7.9485	1.	0.1	3961.3
28178	8.0409	0.90909	0.1	3932.7
28179	7.9485	1.1818	0.1	3961.6
28180	8.0409	1.0909	0.1	3933.5
28181	7.9485	1.3636	0.1	3961.8
28182	8.0409	1.2727	0.1	3934.3
28183	7.9485	1.5455	0.1	3962.1
28184	8.0409	1.4545	0.1	3935.1
28185	7.9485	1.7273	0.1	3962.4
28186	8.0409	1.6364	0.1	3936.
28187	7.9485	1.9091	0.1	3962.7
28188	8.0409	1.8182	0.1	3936.7
28189	7.9485	2.0909	0.1	3962.9
28190	8.0409	2.	0.1	3937.4
28191	7.9485	2.2727	0.1	3963.
28192	8.0409	2.1818	0.1	3937.9
28193	7.9485	2.4545	0.1	3963.1
28194	8.0409	2.3636	0.1	3938.3
28195	7.9485	2.6364	0.1	3963.2
28196	8.0409	2.5455	0.1	3938.7
28197	7.9485	2.8182	0.1	3963.3
28198	8.0409	2.7273	0.1	3938.9
28199	7.9485	3.	0.1	3963.3
28200	8.0409	2.9091	0.1	3939.
28201	7.9485	3.1818	0.1	3963.3
28202	8.0409	3.0909	0.1	3939.
28203	7.9485	3.3636	0.1	3963.2
28204	8.0409	3.2727	0.1	3938.9
28205	7.9485	3.5455	0.1	3963.1
28206	8.0409	3.4545	0.1	3938.7
28207	7.9485	3.7273	0.1	3963.
28208	8.0409	3.6364	0.1	3938.3
28209	7.9485	3.9091	0.1	3962.9
28210	8.0409	3.8182	0.1	3937.9
28211	7.9485	4.0909	0.1	3962.7
28212	8.0409	4.	0.1	3937.4
28213	7.9485	4.2727	0.1	3962.4
28214	8.0409	4.1818	0.1	3936.7
28215	7.9485	4.4545	0.1	3962.1
28216	8.0409	4.3636	0.1	3936.
28217	7.9485	4.6364	0.1	3961.8
28218	8.0409	4.5455	0.1	3935.1
28219	7.9485	4.8182	0.1	3961.6
28220	8.0409	4.7273	0.1	3934.3
28221	7.9485	5.	0.1	3961.3
28222	8.0409	4.9091	0.1	3933.5
28223	7.9485	5.1818	0.1	3961.3
28224	8.0409	5.0909	0.1	3932.7
28225	7.9485	5.3636	0.1	3961.4
28226	8.0409	5.2727	0.1	3932.2
28227	7.9485	5.5455	0.1	3961.8
28228	8.0409	5.4545	0.1	3931.9
28229	7.9485	5.7273	0.1	3962.8
28230	8.0409	5.6364	0.1	3931.9
28231	8.0409	5.8182	0.1	3933.
28232	7.9485	5.9091	0.1	3962.7
28233	8.1333	0.27273	0.1	3902.1
28234	8.2258	0.18182	0.1	3871.2
28235	8.1333	9.0909e-002	0.1	3901.3
28236	8.1333	0.45455	0.1	3902.
28237	8.2258	0.36364	0.1	3871.2
28238	8.1333	0.63636	0.1	3902.6
28239	8.2258	0.54545	0.1	3872.2
28240	8.1333	0.81818	0.1	3903.6
28241	8.2258	0.72727	0.1	3873.6
28242	8.1333	1.	0.1	3904.9
28243	8.2258	0.90909	0.1	3875.4
28244	8.1333	1.1818	0.1	3906.2
28245	8.2258	1.0909	0.1	3877.4
28246	8.1333	1.3636	0.1	3907.6
28247	8.2258	1.2727	0.1	3879.5
28248	8.1333	1.5455	0.1	3909.
28249	8.2258	1.4545	0.1	3881.6
28250	8.1333	1.7273	0.1	3910.2
28251	8.2258	1.6364	0.1	3883.5
28252	8.1333	1.9091	0.1	3911.4
28253	8.2258	1.8182	0.1	3885.3
28254	8.1333	2.0909	0.1	3912.4
28255	8.2258	2.	0.1	3886.9
28256	8.1333	2.2727	0.1	3913.2
28257	8.2258	2.1818	0.1	3888.3
28258	8.1333	2.4545	0.1	3913.9
28259	8.2258	2.3636	0.1	3889.4
28260	8.1333	2.6364	0.1	3914.3
28261	8.2258	2.5455	0.1	3890.2
28262	8.1333	2.8182	0.1	3914.6
28263	8.2258	2.7273	0.1	3890.8
28264	8.1333	3.	0.1	3914.7
28265	8.2258	2.9091	0.1	3891.1
28266	8.1333	3.1818	0.1	3914.6
28267	8.2258	3.0909	0.1	3891.1
28268	8.1333	3.3636	0.1	3914.3
28269	8.2258	3.2727	0.1	3890.8
28270	8.1333	3.5455	0.1	3913.9
28271	8.2258	3.4545	0.1	3890.2
28272	8.1333	3.7273	0.1	3913.2
28273	8.2258	3.6364	0.1	3889.4
28274	8.1333	3.9091	0.1	3912.4
28275	8.2258	3.8182	0.1	3888.3
28276	8.1333	4.0909	0.1	3911.4
28277	8.2258	4.	0.1	3886.9
28278	8.1333	4.2727	0.1	3910.2
28279	8.2258	4.1818	0.1	3885.3
28280	8.1333	4.4545	0.1	3909.
28281	8.2258	4.3636	0.1	3883.5
28282	8.1333	4.6364	0.1	3907.6
28283	8.2258	4.5455	0.1	3881.6
28284	8.1333	4.8182	0.1	3906.2
28285	8.2258	4.7273	0.1	3879.5
28286	8.1333	5.	0.1	3904.9
28287	8.2258	4.9091	0.1	3877.4
28288	8.1333	5.1818	0.1	3903.6
28289	8.2258	5.0909	0.1	3875.4
28290	8.1333	5.3636	0.1	3902.6
28291	8.2258	5.2727	0.1	3873.6
28292	8.1333	5.5455	0.1	3902.
28293	8.2258	5.4545	0.1	3872.2
28294	8.1333	5.7273	0.1	3902.1
28295	8.2258	5.6364	0.1	3871.2
28296	8.2258	5.8182	0.1	3871.2
28297	8.1333	5.9091	0.1	3901.3
28298	8.3182	0.27273	0.1	3840.3
28299	8.4106	0.18182	0.1	3808.1
28300	8.3182	9.0909e-002	0.1	3838.6
28301	8.3182	0.45455	0.1	3841.3
28302	8.4106	0.36364	0.1	3809.2
28303	8.3182	0.63636	0.1	3843.1
28304	8.4106	0.54545	0.1	3811.4
28305	8.3182	0.81818	0.1	3845.4
28306	8.4106	0.72727	0.1	3814.3
28307	8.3182	1.	0.1	3848.
28308	8.4106	0.90909	0.1	3817.5
28309	8.3182	1.1818	0.1	3850.7
28310	8.4106	1.0909	0.1	3821.
28311	8.3182	1.3636	0.1	3853.4
28312	8.4106	1.2727	0.1	3824.6
28313	8.3182	1.5455	0.1	3856.1
28314	8.4106	1.4545	0.1	3828.1
28315	8.3182	1.7273	0.1	3858.6
28316	8.4106	1.6364	0.1	3831.5
28317	8.3182	1.9091	0.1	3860.8
28318	8.4106	1.8182	0.1	3834.6
28319	8.3182	2.0909	0.1	3862.8
28320	8.4106	2.	0.1	3837.4
28321	8.3182	2.2727	0.1	3864.5
28322	8.4106	2.1818	0.1	3839.8
28323	8.3182	2.4545	0.1	3865.8
28324	8.4106	2.3636	0.1	3841.7
28325	8.3182	2.6364	0.1	3866.7
28326	8.4106	2.5455	0.1	3843.2
28327	8.3182	2.8182	0.1	3867.3
28328	8.4106	2.7273	0.1	3844.2
28329	8.3182	3.	0.1	3867.5
28330	8.4106	2.9091	0.1	3844.7
28331	8.3182	3.1818	0.1	3867.3
28332	8.4106	3.0909	0.1	3844.7
28333	8.3182	3.3636	0.1	3866.7
28334	8.4106	3.2727	0.1	3844.2
28335	8.3182	3.5455	0.1	3865.8
28336	8.4106	3.4545	0.1	3843.2
28337	8.3182	3.7273	0.1	3864.5
28338	8.4106	3.6364	0.1	3841.7
28339	8.3182	3.9091	0.1	3862.8
28340	8.4106	3.8182	0.1	3839.8
28341	8.3182	4.0909	0.1	3860.8
28342	8.4106	4.	0.1	3837.4
28343	8.3182	4.2727	0.1	3858.6
28344	8.4106	4.1818	0.1	3834.6
28345	8.3182	4.4545	0.1	3856.1
28346	8.4106	4.3636	0.1	3831.5
28347	8.3182	4.6364	0.1	3853.4
28348	8.4106	4.5455	0.1	3828.1
28349	8.3182	4.8182	0.1	3850.7
28350	8.4106	4.7273	0.1	3824.6
28351	8.3182	5.	0.1	3848.
28352	8.4106	4.9091	0.1	3821.
28353	8.3182	5.1818	0.1	3845.4
28354	8.4106	5.0909	0.1	3817.5
28355	8.3182	5.3636	0.1	3843.1
28356	8.4106	5.2727	0.1	3814.3
28357	8.3182	5.5455	0.1	3841.3
28358	8.4106	5.4545	0.1	3811.4
28359	8.3182	5.7273	0.1	3840.3
28360	8.4106	5.6364	0.1	3809.2
28361	8.4106	5.8182	0.1	3808.1
28362	8.3182	5.9091	0.1	3838.6
28363	8.503	0.27273	0.1	3777.
28364	8.5955	0.18182	0.1	3743.2
28365	8.503	9.0909e-002	0.1	3774.4
28366	8.503	0.45455	0.1	3779.3
28367	8.5955	0.36364	0.1	3745.6
28368	8.503	0.63636	0.1	3782.5
28369	8.5955	0.54545	0.1	3749.3
28370	8.503	0.81818	0.1	3786.4
28371	8.5955	0.72727	0.1	3753.8
28372	8.503	1.	0.1	3790.6
28373	8.5955	0.90909	0.1	3758.8
28374	8.503	1.1818	0.1	3794.9
28375	8.5955	1.0909	0.1	3764.1
28376	8.503	1.3636	0.1	3799.3
28377	8.5955	1.2727	0.1	3769.5
28378	8.503	1.5455	0.1	3803.5
28379	8.5955	1.4545	0.1	3774.9
28380	8.503	1.7273	0.1	3807.5
28381	8.5955	1.6364	0.1	3780.
28382	8.503	1.9091	0.1	3811.2
28383	8.5955	1.8182	0.1	3784.7
28384	8.503	2.0909	0.1	3814.4
28385	8.5955	2.	0.1	3789.
28386	8.503	2.2727	0.1	3817.
28387	8.5955	2.1818	0.1	3792.7
28388	8.503	2.4545	0.1	3819.2
28389	8.5955	2.3636	0.1	3795.7
28390	8.503	2.6364	0.1	3820.7
28391	8.5955	2.5455	0.1	3798.
28392	8.503	2.8182	0.1	3821.7
28393	8.5955	2.7273	0.1	3799.5
28394	8.503	3.	0.1	3822.
28395	8.5955	2.9091	0.1	3800.3
28396	8.503	3.1818	0.1	3821.7
28397	8.5955	3.0909	0.1	3800.3
28398	8.503	3.3636	0.1	3820.7
28399	8.5955	3.2727	0.1	3799.5
28400	8.503	3.5455	0.1	3819.2
28401	8.5955	3.4545	0.1	3798.
28402	8.503	3.7273	0.1	3817.
28403	8.5955	3.6364	0.1	3795.7
28404	8.503	3.9091	0.1	3814.4
28405	8.5955	3.8182	0.1	3792.7
28406	8.503	4.0909	0.1	3811.2
28407	8.5955	4.	0.1	3789.
28408	8.503	4.2727	0.1	3807.5
28409	8.5955	4.1818	0.1	3784.7
28410	8.503	4.4545	0.1	3803.5
28411	8.5955	4.3636	0.1	3780.
28412	8.503	4.6364	0.1	3799.3
28413	8.5955	4.5455	0.1	3774.9
28414	8.503	4.8182	0.1	3794.9
28415	8.5955	4.7273	0.1	3769.5
28416	8.503	5.	0.1	3790.6
28417	8.5955	4.9091	0.1	3764.1
28418	8.503	5.1818	0.1	3786.4
28419	8.5955	5.0909	0.1	3758.8
28420	8.503	5.3636	0.1	3782.5
28421	8.5955	5.2727	0.1	3753.8
28422	8.503	5.5455	0.1	3779.3
28423	8.5955	5.4545	0.1	3749.3
28424	8.503	5.7273	0.1	3777.
28425	8.5955	5.6364	0.1	3745.6
28426	8.5955	5.8182	0.1	3743.2
28427	8.503	5.9091	0.1	3774.4
28428	8.6879	0.27273	0.1	3711.8
28429	8.7803	0.18182	0.1	3676.
28430	8.6879	9.0909e-002	0.1	3708.1
28431	8.6879	0.45455	0.1	3715.5
28432	8.7803	0.36364	0.1	3679.8
28433	8.6879	0.63636	0.1	3720.5
28434	8.7803	0.54545	0.1	3685.3
28435	8.6879	0.81818	0.1	3726.2
28436	8.7803	0.72727	0.1	3691.7
28437	8.6879	1.	0.1	3732.3
28438	8.7803	0.90909	0.1	3698.9
28439	8.6879	1.1818	0.1	3738.7
28440	8.7803	1.0909	0.1	3706.4
28441	8.6879	1.3636	0.1	3745.1
28442	8.7803	1.2727	0.1	3714.1
28443	8.6879	1.5455	0.1	3751.3
28444	8.7803	1.4545	0.1	3721.7
28445	8.6879	1.7273	0.1	3757.2
28446	8.7803	1.6364	0.1	3729.
28447	8.6879	1.9091	0.1	3762.6
28448	8.7803	1.8182	0.1	3735.8
28449	8.6879	2.0909	0.1	3767.3
28450	8.7803	2.	0.1	3742.
28451	8.6879	2.2727	0.1	3771.3
28452	8.7803	2.1818	0.1	3747.3
28453	8.6879	2.4545	0.1	3774.5
28454	8.7803	2.3636	0.1	3751.6
28455	8.6879	2.6364	0.1	3776.8
28456	8.7803	2.5455	0.1	3755.
28457	8.6879	2.8182	0.1	3778.2
28458	8.7803	2.7273	0.1	3757.3
28459	8.6879	3.	0.1	3778.7
28460	8.7803	2.9091	0.1	3758.4
28461	8.6879	3.1818	0.1	3778.2
28462	8.7803	3.0909	0.1	3758.4
28463	8.6879	3.3636	0.1	3776.8
28464	8.7803	3.2727	0.1	3757.3
28465	8.6879	3.5455	0.1	3774.5
28466	8.7803	3.4545	0.1	3755.
28467	8.6879	3.7273	0.1	3771.3
28468	8.7803	3.6364	0.1	3751.6
28469	8.6879	3.9091	0.1	3767.3
28470	8.7803	3.8182	0.1	3747.3
28471	8.6879	4.0909	0.1	3762.6
28472	8.7803	4.	0.1	3742.
28473	8.6879	4.2727	0.1	3757.2
28474	8.7803	4.1818	0.1	3735.8
28475	8.6879	4.4545	0.1	3751.3
28476	8.7803	4.3636	0.1	3729.
28477	8.6879	4.6364	0.1	3745.1
28478	8.7803	4.5455	0.1	3721.7
28479	8.6879	4.8182	0.1	3738.7
28480	8.7803	4.7273	0.1	3714.1
28481	8.6879	5.	0.1	3732.3
28482	8.7803	4.9091	0.1	3706.4
28483	8.6879	5.1818	0.1	3726.2
28484	8.7803	5.0909	0.1	3698.9
28485	8.6879	5.3636	0.1	3720.5
28486	8.7803	5.2727	0.1	3691.7
28487	8.6879	5.5455	0.1	3715.5
28488	8.7803	5.4545	0.1	3685.3
28489	8.6879	5.7273	0.1	3711.8
28490	8.7803	5.6364	0.1	3679.8
28491	8.7803	5.8182	0.1	3676.
28492	8.6879	5.9091	0.1	3708.1
28493	8.8727	0.27273	0.1	3644.
28494	8.9652	0.18182	0.1	3605.7
28495	8.8727	9.0909e-002	0.1	3639.1
28496	8.8727	0.45455	0.1	3649.5
28497	8.9652	0.36364	0.1	3611.3
28498	8.8727	0.63636	0.1	3656.5
28499	8.9652	0.54545	0.1	3618.8
28500	8.8727	0.81818	0.1	3664.4
28501	8.9652	0.72727	0.1	3627.7
28502	8.8727	1.	0.1	3673.
28503	8.9652	0.90909	0.1	3637.4
28504	8.8727	1.1818	0.1	3681.8
28505	8.9652	1.0909	0.1	3647.7
28506	8.8727	1.3636	0.1	3690.8
28507	8.9652	1.2727	0.1	3658.3
28508	8.8727	1.5455	0.1	3699.5
28509	8.9652	1.4545	0.1	3668.7
28510	8.8727	1.7273	0.1	3707.7
28511	8.9652	1.6364	0.1	3678.8
28512	8.8727	1.9091	0.1	3715.3
28513	8.9652	1.8182	0.1	3688.2
28514	8.8727	2.0909	0.1	3721.9
28515	8.9652	2.	0.1	3696.7
28516	8.8727	2.2727	0.1	3727.6
28517	8.9652	2.1818	0.1	3704.1
28518	8.8727	2.4545	0.1	3732.2
28519	8.9652	2.3636	0.1	3710.2
28520	8.8727	2.6364	0.1	3735.5
28521	8.9652	2.5455	0.1	3714.9
28522	8.8727	2.8182	0.1	3737.5
28523	8.9652	2.7273	0.1	3718.1
28524	8.8727	3.	0.1	3738.2
28525	8.9652	2.9091	0.1	3719.7
28526	8.8727	3.1818	0.1	3737.5
28527	8.9652	3.0909	0.1	3719.7
28528	8.8727	3.3636	0.1	3735.5
28529	8.9652	3.2727	0.1	3718.1
28530	8.8727	3.5455	0.1	3732.2
28531	8.9652	3.4545	0.1	3714.9
28532	8.8727	3.7273	0.1	3727.6
28533	8.9652	3.6364	0.1	3710.2
28534	8.8727	3.9091	0.1	3721.9
28535	8.9652	3.8182	0.1	3704.1
28536	8.8727	4.0909	0.1	3715.3
28537	8.9652	4.	0.1	3696.7
28538	8.8727	4.2727	0.1	3707.7
28539	8.9652	4.1818	0.1	3688.2
28540	8.8727	4.4545	0.1	3699.5
28541	8.9652	4.3636	0.1	3678.8
28542	8.8727	4.6364	0.1	3690.8
28543	8.9652	4.5455	0.1	3668.7
28544	8.8727	4.8182	0.1	3681.8
28545	8.9652	4.7273	0.1	3658.3
28546	8.8727	5.	0.1	3673.
28547	8.9652	4.9091	0.1	3647.7
28548	8.8727	5.1818	0.1	3664.4
28549	8.9652	5.0909	0.1	3637.4
28550	8.8727	5.3636	0.1	3656.5
28551	8.9652	5.2727	0.1	3627.7
28552	8.8727	5.5455	0.1	3649.5
28553	8.9652	5.4545	0.1	3618.8
28554	8.8727	5.7273	0.1	3644.
28555	8.9652	5.6364	0.1	3611.3
28556	8.9652	5.8182	0.1	3605.7
28557	8.8727	5.9091	0.1	3639.1
28558	9.0576	0.27273	0.1	3573.
28559	9.15	0.18182	0.1	3531.5
28560	9.0576	9.0909e-002	0.1	3566.7
28561	9.0576	0.45455	0.1	3580.6
28562	9.15	0.36364	0.1	3539.3
28563	9.0576	0.63636	0.1	3590.
28564	9.15	0.54545	0.1	3549.3
28565	9.0576	0.81818	0.1	3600.6
28566	9.15	0.72727	0.1	3561.
28567	9.0576	1.	0.1	3612.1
28568	9.15	0.90909	0.1	3573.9
28569	9.0576	1.1818	0.1	3624.1
28570	9.15	1.0909	0.1	3587.6
28571	9.0576	1.3636	0.1	3636.2
28572	9.15	1.2727	0.1	3601.7
28573	9.0576	1.5455	0.1	3648.
28574	9.15	1.4545	0.1	3615.7
28575	9.0576	1.7273	0.1	3659.2
28576	9.15	1.6364	0.1	3629.3
28577	9.0576	1.9091	0.1	3669.6
28578	9.15	1.8182	0.1	3642.
28579	9.0576	2.0909	0.1	3678.8
28580	9.15	2.	0.1	3653.5
28581	9.0576	2.2727	0.1	3686.6
28582	9.15	2.1818	0.1	3663.6
28583	9.0576	2.4545	0.1	3692.9
28584	9.15	2.3636	0.1	3672.
28585	9.0576	2.6364	0.1	3697.5
28586	9.15	2.5455	0.1	3678.4
28587	9.0576	2.8182	0.1	3700.3
28588	9.15	2.7273	0.1	3682.8
28589	9.0576	3.	0.1	3701.2
28590	9.15	2.9091	0.1	3685.
28591	9.0576	3.1818	0.1	3700.3
28592	9.15	3.0909	0.1	3685.
28593	9.0576	3.3636	0.1	3697.5
28594	9.15	3.2727	0.1	3682.8
28595	9.0576	3.5455	0.1	3692.9
28596	9.15	3.4545	0.1	3678.4
28597	9.0576	3.7273	0.1	3686.6
28598	9.15	3.6364	0.1	3672.
28599	9.0576	3.9091	0.1	3678.8
28600	9.15	3.8182	0.1	3663.6
28601	9.0576	4.0909	0.1	3669.6
28602	9.15	4.	0.1	3653.5
28603	9.0576	4.2727	0.1	3659.2
28604	9.15	4.1818	0.1	3642.
28605	9.0576	4.4545	0.1	3648.
28606	9.15	4.3636	0.1	3629.3
28607	9.0576	4.6364	0.1	3636.2
28608	9.15	4.5455	0.1	3615.7
28609	9.0576	4.8182	0.1	3624.1
28610	9.15	4.7273	0.1	3601.7
28611	9.0576	5.	0.1	3612.1
28612	9.15	4.9091	0.1	3587.6
28613	9.0576	5.1818	0.1	3600.6
28614	9.15	5.0909	0.1	3573.9
28615	9.0576	5.3636	0.1	3590.
28616	9.15	5.2727	0.1	3561.
28617	9.0576	5.5455	0.1	3580.6
28618	9.15	5.4545	0.1	3549.3
28619	9.0576	5.7273	0.1	3573.
28620	9.15	5.6364	0.1	3539.3
28621	9.15	5.8182	0.1	3531.5
28622	9.0576	5.9091	0.1	3566.7
28623	9.2424	0.27273	0.1	3497.8
28624	9.3348	0.18182	0.1	3452.4
28625	9.2424	9.0909e-002	0.1	3489.9
28626	9.2424	0.45455	0.1	3507.9
28627	9.3348	0.36364	0.1	3462.7
28628	9.2424	0.63636	0.1	3520.2
28629	9.3348	0.54545	0.1	3475.6
28630	9.2424	0.81818	0.1	3534.2
28631	9.3348	0.72727	0.1	3490.8
28632	9.2424	1.	0.1	3549.3
28633	9.3348	0.90909	0.1	3507.7
28634	9.2424	1.1818	0.1	3565.2
28635	9.3348	1.0909	0.1	3525.6
28636	9.2424	1.3636	0.1	3581.2
28637	9.3348	1.2727	0.1	3544.2
28638	9.2424	1.5455	0.1	3597.
28639	9.3348	1.4545	0.1	3562.7
28640	9.2424	1.7273	0.1	3612.
28641	9.3348	1.6364	0.1	3580.7
28642	9.2424	1.9091	0.1	3625.9
28643	9.3348	1.8182	0.1	3597.6
28644	9.2424	2.0909	0.1	3638.3
28645	9.3348	2.	0.1	3613.1
28646	9.2424	2.2727	0.1	3648.9
28647	9.3348	2.1818	0.1	3626.6
28648	9.2424	2.4545	0.1	3657.5
28649	9.3348	2.3636	0.1	3637.9
28650	9.2424	2.6364	0.1	3663.7
28651	9.3348	2.5455	0.1	3646.6
28652	9.2424	2.8182	0.1	3667.5
28653	9.3348	2.7273	0.1	3652.5
28654	9.2424	3.	0.1	3668.8
28655	9.3348	2.9091	0.1	3655.5
28656	9.2424	3.1818	0.1	3667.5
28657	9.3348	3.0909	0.1	3655.5
28658	9.2424	3.3636	0.1	3663.7
28659	9.3348	3.2727	0.1	3652.5
28660	9.2424	3.5455	0.1	3657.5
28661	9.3348	3.4545	0.1	3646.6
28662	9.2424	3.7273	0.1	3648.9
28663	9.3348	3.6364	0.1	3637.9
28664	9.2424	3.9091	0.1	3638.3
28665	9.3348	3.8182	0.1	3626.6
28666	9.2424	4.0909	0.1	3625.9
28667	9.3348	4.	0.1	3613.1
28668	9.2424	4.2727	0.1	3612.
28669	9.3348	4.1818	0.1	3597.6
28670	9.2424	4.4545	0.1	3597.
28671	9.3348	4.3636	0.1	3580.7
28672	9.2424	4.6364	0.1	3581.2
28673	9.3348	4.5455	0.1	3562.7
28674	9.2424	4.8182	0.1	3565.2
28675	9.3348	4.7273	0.1	3544.2
28676	9.2424	5.	0.1	3549.3
28677	9.3348	4.9091	0.1	3525.6
28678	9.2424	5.1818	0.1	3534.2
28679	9.3348	5.0909	0.1	3507.7
28680	9.2424	5.3636	0.1	3520.2
28681	9.3348	5.2727	0.1	3490.8
28682	9.2424	5.5455	0.1	3507.9
28683	9.3348	5.4545	0.1	3475.6
28684	9.2424	5.7273	0.1	3497.8
28685	9.3348	5.6364	0.1	3462.7
28686	9.3348	5.8182	0.1	3452.4
28687	9.2424	5.9091	0.1	3489.9
28688	9.4273	0.27273	0.1	3417.3
28689	9.5197	0.18182	0.1	3367.2
28690	9.4273	9.0909e-002	0.1	3407.5
28691	9.4273	0.45455	0.1	3430.4
28692	9.5197	0.36364	0.1	3380.3
28693	9.4273	0.63636	0.1	3446.3
28694	9.5197	0.54545	0.1	3396.9
28695	9.4273	0.81818	0.1	3464.3
28696	9.5197	0.72727	0.1	3416.3
28697	9.4273	1.	0.1	3484.
28698	9.5197	0.90909	0.1	3438.
28699	9.4273	1.1818	0.1	3504.6
28700	9.5197	1.0909	0.1	3461.2
28701	9.4273	1.3636	0.1	3525.7
28702	9.5197	1.2727	0.1	3485.3
28703	9.4273	1.5455	0.1	3546.4
28704	9.5197	1.4545	0.1	3509.6
28705	9.4273	1.7273	0.1	3566.3
28706	9.5197	1.6364	0.1	3533.2
28707	9.4273	1.9091	0.1	3584.8
28708	9.5197	1.8182	0.1	3555.6
28709	9.4273	2.0909	0.1	3601.3
28710	9.5197	2.	0.1	3576.
28711	9.4273	2.2727	0.1	3615.5
28712	9.5197	2.1818	0.1	3594.
28713	9.4273	2.4545	0.1	3627.
28714	9.5197	2.3636	0.1	3609.
28715	9.4273	2.6364	0.1	3635.4
28716	9.5197	2.5455	0.1	3620.7
28717	9.4273	2.8182	0.1	3640.5
28718	9.5197	2.7273	0.1	3628.6
28719	9.4273	3.	0.1	3642.2
28720	9.5197	2.9091	0.1	3632.7
28721	9.4273	3.1818	0.1	3640.5
28722	9.5197	3.0909	0.1	3632.7
28723	9.4273	3.3636	0.1	3635.4
28724	9.5197	3.2727	0.1	3628.6
28725	9.4273	3.5455	0.1	3627.
28726	9.5197	3.4545	0.1	3620.7
28727	9.4273	3.7273	0.1	3615.5
28728	9.5197	3.6364	0.1	3609.
28729	9.4273	3.9091	0.1	3601.3
28730	9.5197	3.8182	0.1	3594.
28731	9.4273	4.0909	0.1	3584.8
28732	9.5197	4.	0.1	3576.
28733	9.4273	4.2727	0.1	3566.3
28734	9.5197	4.1818	0.1	3555.6
28735	9.4273	4.4545	0.1	3546.4
28736	9.5197	4.3636	0.1	3533.2
28737	9.4273	4.6364	0.1	3525.7
28738	9.5197	4.5455	0.1	3509.6
28739	9.4273	4.8182	0.1	3504.6
28740	9.5197	4.7273	0.1	3485.3
28741	9.4273	5.	0.1	3484.
28742	9.5197	4.9091	0.1	3461.2
28743	9.4273	5.1818	0.1	3464.3
28744	9.5197	5.0909	0.1	3438.
28745	9.4273	5.3636	0.1	3446.3
28746	9.5197	5.2727	0.1	3416.3
28747	9.4273	5.5455	0.1	3430.4
28748	9.5197	5.4545	0.1	3396.9
28749	9.4273	5.7273	0.1	3417.3
28750	9.5197	5.6364	0.1	3380.3
28751	9.5197	5.8182	0.1	3367.2
28752	9.4273	5.9091	0.1	3407.5
28753	9.6121	0.27273	0.1	3330.2
28754	9.7045	0.18182	0.1	3274.2
28755	9.6121	9.0909e-002	0.1	3318.1
28756	9.6121	0.45455	0.1	3346.8
28757	9.7045	0.36364	0.1	3290.8
28758	9.6121	0.63636	0.1	3367.
28759	9.7045	0.54545	0.1	3311.6
28760	9.6121	0.81818	0.1	3390.
28761	9.7045	0.72727	0.1	3336.2
28762	9.6121	1.	0.1	3415.3
28763	9.7045	0.90909	0.1	3363.8
28764	9.6121	1.1818	0.1	3442.
28765	9.7045	1.0909	0.1	3393.7
28766	9.6121	1.3636	0.1	3469.3
28767	9.7045	1.2727	0.1	3424.8
28768	9.6121	1.5455	0.1	3496.4
28769	9.7045	1.4545	0.1	3456.2
28770	9.6121	1.7273	0.1	3522.5
28771	9.7045	1.6364	0.1	3487.1
28772	9.6121	1.9091	0.1	3546.8
28773	9.7045	1.8182	0.1	3516.3
28774	9.6121	2.0909	0.1	3568.7
28775	9.7045	2.	0.1	3543.2
28776	9.6121	2.2727	0.1	3587.5
28777	9.7045	2.1818	0.1	3567.
28778	9.6121	2.4545	0.1	3602.7
28779	9.7045	2.3636	0.1	3586.9
28780	9.6121	2.6364	0.1	3613.9
28781	9.7045	2.5455	0.1	3602.3
28782	9.6121	2.8182	0.1	3620.8
28783	9.7045	2.7273	0.1	3612.9
28784	9.6121	3.	0.1	3623.1
28785	9.7045	2.9091	0.1	3618.3
28786	9.6121	3.1818	0.1	3620.8
28787	9.7045	3.0909	0.1	3618.3
28788	9.6121	3.3636	0.1	3613.9
28789	9.7045	3.2727	0.1	3612.9
28790	9.6121	3.5455	0.1	3602.7
28791	9.7045	3.4545	0.1	3602.3
28792	9.6121	3.7273	0.1	3587.5
28793	9.7045	3.6364	0.1	3586.9
28794	9.6121	3.9091	0.1	3568.7
28795	9.7045	3.8182	0.1	3567.
28796	9.6121	4.0909	0.1	3546.8
28797	9.7045	4.	0.1	3543.2
28798	9.6121	4.2727	0.1	3522.5
28799	9.7045	4.1818	0.1	3516.3
28800	9.6121	4.4545	0.1	3496.4
28801	9.7045	4.3636	0.1	3487.1
28802	9.6121	4.6364	0.1	3469.3
28803	9.7045	4.5455	0.1	3456.2
28804	9.6121	4.8182	0.1	3442.
28805	9.7045	4.7273	0.1	3424.8
28806	9.6121	5.	0.1	3415.3
28807	9.7045	4.9091	0.1	3393.7
28808	9.6121	5.1818	0.1	3390.
28809	9.7045	5.0909	0.1	3363.8
28810	9.6121	5.3636	0.1	3367.
28811	9.7045	5.2727	0.1	3336.2
28812	9.6121	5.5455	0.1	3346.8
28813	9.7045	5.4545	0.1	3311.6
28814	9.6121	5.7273	0.1	3330.2
28815	9.7045	5.6364	0.1	3290.8
28816	9.7045	5.8182	0.1	3274.2
28817	9.6121	5.9091	0.1	3318.1
28818	9.797	0.27273	0.1	3234.7
28819	9.8894	0.18182	0.1	3171.6
28820	9.797	9.0909e-002	0.1	3220.1
28821	9.797	0.45455	0.1	3255.6
28822	9.8894	0.36364	0.1	3192.2
28823	9.797	0.63636	0.1	3280.9
28824	9.8894	0.54545	0.1	3218.1
28825	9.797	0.81818	0.1	3310.1
28826	9.8894	0.72727	0.1	3249.
28827	9.797	1.	0.1	3342.3
28828	9.8894	0.90909	0.1	3284.
28829	9.797	1.1818	0.1	3376.5
28830	9.8894	1.0909	0.1	3322.
28831	9.797	1.3636	0.1	3411.8
28832	9.8894	1.2727	0.1	3361.9
28833	9.797	1.5455	0.1	3447.
28834	9.8894	1.4545	0.1	3402.5
28835	9.797	1.7273	0.1	3481.
28836	9.8894	1.6364	0.1	3442.5
28837	9.797	1.9091	0.1	3512.8
28838	9.8894	1.8182	0.1	3480.7
28839	9.797	2.0909	0.1	3541.5
28840	9.8894	2.	0.1	3515.9
28841	9.797	2.2727	0.1	3566.3
28842	9.8894	2.1818	0.1	3547.
28843	9.797	2.4545	0.1	3586.5
28844	9.8894	2.3636	0.1	3573.2
28845	9.797	2.6364	0.1	3601.4
28846	9.8894	2.5455	0.1	3593.7
28847	9.797	2.8182	0.1	3610.5
28848	9.8894	2.7273	0.1	3607.8
28849	9.797	3.	0.1	3613.6
28850	9.8894	2.9091	0.1	3614.9
28851	9.797	3.1818	0.1	3610.5
28852	9.8894	3.0909	0.1	3614.9
28853	9.797	3.3636	0.1	3601.4
28854	9.8894	3.2727	0.1	3607.8
28855	9.797	3.5455	0.1	3586.5
28856	9.8894	3.4545	0.1	3593.7
28857	9.797	3.7273	0.1	3566.3
28858	9.8894	3.6364	0.1	3573.2
28859	9.797	3.9091	0.1	3541.5
28860	9.8894	3.8182	0.1	3547.
28861	9.797	4.0909	0.1	3512.8
28862	9.8894	4.	0.1	3515.9
28863	9.797	4.2727	0.1	3481.
28864	9.8894	4.1818	0.1	3480.7
28865	9.797	4.4545	0.1	3447.
28866	9.8894	4.3636	0.1	3442.5
28867	9.797	4.6364	0.1	3411.8
28868	9.8894	4.5455	0.1	3402.5
28869	9.797	4.8182	0.1	3376.5
28870	9.8894	4.7273	0.1	3361.9
28871	9.797	5.	0.1	3342.3
28872	9.8894	4.9091	0.1	3322.
28873	9.797	5.1818	0.1	3310.1
28874	9.8894	5.0909	0.1	3284.
28875	9.797	5.3636	0.1	3280.9
28876	9.8894	5.2727	0.1	3249.
28877	9.797	5.5455	0.1	3255.6
28878	9.8894	5.4545	0.1	3218.1
28879	9.797	5.7273	0.1	3234.7
28880	9.8894	5.6364	0.1	3192.2
28881	9.8894	5.8182	0.1	3171.6
28882	9.797	5.9091	0.1	3220.1
28883	9.9818	0.27273	0.1	3129.
28884	10.074	0.18182	0.1	3057.2
28885	9.9818	9.0909e-002	0.1	3111.2
28886	9.9818	0.45455	0.1	3154.8
28887	10.074	0.36364	0.1	3082.4
28888	9.9818	0.63636	0.1	3186.3
28889	10.074	0.54545	0.1	3114.4
28890	9.9818	0.81818	0.1	3223.
28891	10.074	0.72727	0.1	3152.9
28892	9.9818	1.	0.1	3263.8
28893	10.074	0.90909	0.1	3196.9
28894	9.9818	1.1818	0.1	3307.5
28895	10.074	1.0909	0.1	3245.1
28896	9.9818	1.3636	0.1	3352.8
28897	10.074	1.2727	0.1	3296.2
28898	9.9818	1.5455	0.1	3398.2
28899	10.074	1.4545	0.1	3348.4
28900	9.9818	1.7273	0.1	3442.4
28901	10.074	1.6364	0.1	3400.1
28902	9.9818	1.9091	0.1	3483.8
28903	10.074	1.8182	0.1	3449.6
28904	9.9818	2.0909	0.1	3521.4
28905	10.074	2.	0.1	3495.4
28906	9.9818	2.2727	0.1	3553.9
28907	10.074	2.1818	0.1	3536.1
28908	9.9818	2.4545	0.1	3580.5
28909	10.074	2.3636	0.1	3570.5
28910	9.9818	2.6364	0.1	3600.1
28911	10.074	2.5455	0.1	3597.5
28912	9.9818	2.8182	0.1	3612.2
28913	10.074	2.7273	0.1	3616.1
28914	9.9818	3.	0.1	3616.3
28915	10.074	2.9091	0.1	3625.6
28916	9.9818	3.1818	0.1	3612.2
28917	10.074	3.0909	0.1	3625.6
28918	9.9818	3.3636	0.1	3600.1
28919	10.074	3.2727	0.1	3616.1
28920	9.9818	3.5455	0.1	3580.5
28921	10.074	3.4545	0.1	3597.5
28922	9.9818	3.7273	0.1	3553.9
28923	10.074	3.6364	0.1	3570.5
28924	9.9818	3.9091	0.1	3521.4
28925	10.074	3.8182	0.1	3536.1
28926	9.9818	4.0909	0.1	3483.8
28927	10.074	4.	0.1	3495.4
28928	9.9818	4.2727	0.1	3442.4
28929	10.074	4.1818	0.1	3449.6
28930	9.9818	4.4545	0.1	3398.2
28931	10.074	4.3636	0.1	3400.1
28932	9.9818	4.6364	0.1	3352.8
28933	10.074	4.5455	0.1	3348.4
28934	9.9818	4.8182	0.1	3307.5
28935	10.074	4.7273	0.1	3296.2
28936	9.9818	5.	0.1	3263.8
28937	10.074	4.9091	0.1	3245.1
28938	9.9818	5.1818	0.1	3223.
28939	10.074	5.0909	0.1	3196.9
28940	9.9818	5.3636	0.1	3186.3
28941	10.074	5.2727	0.1	3152.9
28942	9.9818	5.5455	0.1	3154.8
28943	10.074	5.4545	0.1	3114.4
28944	9.9818	5.7273	0.1	3129.
28945	10.074	5.6364	0.1	3082.4
28946	10.074	5.8182	0.1	3057.2
28947	9.9818	5.9091	0.1	3111.2
28948	10.167	0.27273	0.1	3010.6
28949	10.259	0.18182	0.1	2928.5
28950	10.167	9.0909e-002	0.1	2989.1
28951	10.167	0.45455	0.1	3042.2
28952	10.259	0.36364	0.1	2959.
28953	10.167	0.63636	0.1	3081.2
28954	10.259	0.54545	0.1	2998.1
28955	10.167	0.81818	0.1	3127.
28956	10.259	0.72727	0.1	3045.7
28957	10.167	1.	0.1	3178.4
28958	10.259	0.90909	0.1	3100.7
28959	10.167	1.1818	0.1	3234.
28960	10.259	1.0909	0.1	3161.7
28961	10.167	1.3636	0.1	3292.
28962	10.259	1.2727	0.1	3226.7
28963	10.167	1.5455	0.1	3350.4
28964	10.259	1.4545	0.1	3293.6
28965	10.167	1.7273	0.1	3407.4
28966	10.259	1.6364	0.1	3360.2
28967	10.167	1.9091	0.1	3461.3
28968	10.259	1.8182	0.1	3424.3
28969	10.167	2.0909	0.1	3510.2
28970	10.259	2.	0.1	3483.8
28971	10.167	2.2727	0.1	3552.8
28972	10.259	2.1818	0.1	3536.9
28973	10.167	2.4545	0.1	3587.6
28974	10.259	2.3636	0.1	3581.9
28975	10.167	2.6364	0.1	3613.5
28976	10.259	2.5455	0.1	3617.3
28977	10.167	2.8182	0.1	3629.4
28978	10.259	2.7273	0.1	3641.8
28979	10.167	3.	0.1	3634.8
28980	10.259	2.9091	0.1	3654.3
28981	10.167	3.1818	0.1	3629.4
28982	10.259	3.0909	0.1	3654.3
28983	10.167	3.3636	0.1	3613.5
28984	10.259	3.2727	0.1	3641.8
28985	10.167	3.5455	0.1	3587.6
28986	10.259	3.4545	0.1	3617.3
28987	10.167	3.7273	0.1	3552.8
28988	10.259	3.6364	0.1	3581.9
28989	10.167	3.9091	0.1	3510.2
28990	10.259	3.8182	0.1	3536.9
28991	10.167	4.0909	0.1	3461.3
28992	10.259	4.	0.1	3483.8
28993	10.167	4.2727	0.1	3407.4
28994	10.259	4.1818	0.1	3424.3
28995	10.167	4.4545	0.1	3350.4
28996	10.259	4.3636	0.1	3360.2
28997	10.167	4.6364	0.1	3292.
28998	10.259	4.5455	0.1	3293.6
28999	10.167	4.8182	0.1	3234.
29000	10.259	4.7273	0.1	3226.7
29001	10.167	5.	0.1	3178.4
29002	10.259	4.9091	0.1	3161.7
29003	10.167	5.1818	0.1	3127.
29004	10.259	5.0909	0.1	3100.7
29005	10.167	5.3636	0.1	3081.2
29006	10.259	5.2727	0.1	3045.7
29007	10.167	5.5455	0.1	3042.2
29008	10.259	5.4545	0.1	2998.1
29009	10.167	5.7273	0.1	3010.6
29010	10.259	5.6364	0.1	2959.
29011	10.259	5.8182	0.1	2928.5
29012	10.167	5.9091	0.1	2989.1
29013	10.352	0.27273	0.1	2876.9
29014	10.444	0.18182	0.1	2782.5
29015	10.352	9.0909e-002	0.1	2851.
29016	10.352	0.45455	0.1	2915.
29017	10.444	0.36364	0.1	2818.8
29018	10.352	0.63636	0.1	2962.8
29019	10.444	0.54545	0.1	2866.2
29020	10.352	0.81818	0.1	3019.7
29021	10.444	0.72727	0.1	2924.7
29022	10.352	1.	0.1	3084.3
29023	10.444	0.90909	0.1	2993.2
29024	10.352	1.1818	0.1	3154.7
29025	10.444	1.0909	0.1	3069.9
29026	10.352	1.3636	0.1	3228.7
29027	10.444	1.2727	0.1	3152.5
29028	10.352	1.5455	0.1	3303.7
29029	10.444	1.4545	0.1	3238.1
29030	10.352	1.7273	0.1	3377.3
29031	10.444	1.6364	0.1	3323.8
29032	10.352	1.9091	0.1	3447.
29033	10.444	1.8182	0.1	3406.5
29034	10.352	2.0909	0.1	3510.6
29035	10.444	2.	0.1	3483.7
29036	10.352	2.2727	0.1	3566.1
29037	10.444	2.1818	0.1	3552.8
29038	10.352	2.4545	0.1	3611.7
29039	10.444	2.3636	0.1	3611.5
29040	10.352	2.6364	0.1	3645.6
29041	10.444	2.5455	0.1	3657.9
29042	10.352	2.8182	0.1	3666.6
29043	10.444	2.7273	0.1	3689.9
29044	10.352	3.	0.1	3673.7
29045	10.444	2.9091	0.1	3706.4
29046	10.352	3.1818	0.1	3666.6
29047	10.444	3.0909	0.1	3706.4
29048	10.352	3.3636	0.1	3645.6
29049	10.444	3.2727	0.1	3689.9
29050	10.352	3.5455	0.1	3611.7
29051	10.444	3.4545	0.1	3657.9
29052	10.352	3.7273	0.1	3566.1
29053	10.444	3.6364	0.1	3611.5
29054	10.352	3.9091	0.1	3510.6
29055	10.444	3.8182	0.1	3552.8
29056	10.352	4.0909	0.1	3447.
29057	10.444	4.	0.1	3483.7
29058	10.352	4.2727	0.1	3377.3
29059	10.444	4.1818	0.1	3406.5
29060	10.352	4.4545	0.1	3303.7
29061	10.444	4.3636	0.1	3323.8
29062	10.352	4.6364	0.1	3228.7
29063	10.444	4.5455	0.1	3238.1
29064	10.352	4.8182	0.1	3154.7
29065	10.444	4.7273	0.1	3152.5
29066	10.352	5.	0.1	3084.3
29067	10.444	4.9091	0.1	3069.9
29068	10.352	5.1818	0.1	3019.7
29069	10.444	5.0909	0.1	2993.2
29070	10.352	5.3636	0.1	2962.8
29071	10.444	5.2727	0.1	2924.7
29072	10.352	5.5455	0.1	2915.
29073	10.444	5.4545	0.1	2866.2
29074	10.352	5.7273	0.1	2876.9
29075	10.444	5.6364	0.1	2818.8
29076	10.444	5.8182	0.1	2782.5
29077	10.352	5.9091	0.1	2851.
29078	10.536	0.27273	0.1	2724.6
29079	10.629	0.18182	0.1	2616.2
29080	10.536	9.0909e-002	0.1	2693.7
29081	10.536	0.45455	0.1	2770.3
29082	10.629	0.36364	0.1	2658.7
29083	10.536	0.63636	0.1	2828.5
29084	10.629	0.54545	0.1	2715.5
29085	10.536	0.81818	0.1	2898.7
29086	10.629	0.72727	0.1	2786.9
29087	10.536	1.	0.1	2979.4
29088	10.629	0.90909	0.1	2871.7
29089	10.536	1.1818	0.1	3068.3
29090	10.629	1.0909	0.1	2967.9
29091	10.536	1.3636	0.1	3162.5
29092	10.629	1.2727	0.1	3072.5
29093	10.536	1.5455	0.1	3258.7
29094	10.629	1.4545	0.1	3181.9
29095	10.536	1.7273	0.1	3353.5
29096	10.629	1.6364	0.1	3292.
29097	10.536	1.9091	0.1	3443.6
29098	10.629	1.8182	0.1	3398.9
29099	10.536	2.0909	0.1	3526.1
29100	10.629	2.	0.1	3498.8
29101	10.536	2.2727	0.1	3598.3
29102	10.629	2.1818	0.1	3588.5
29103	10.536	2.4545	0.1	3657.7
29104	10.629	2.3636	0.1	3664.9
29105	10.536	2.6364	0.1	3702.1
29106	10.629	2.5455	0.1	3725.2
29107	10.536	2.8182	0.1	3729.6
29108	10.629	2.7273	0.1	3767.1
29109	10.536	3.	0.1	3738.9
29110	10.629	2.9091	0.1	3788.5
29111	10.536	3.1818	0.1	3729.6
29112	10.629	3.0909	0.1	3788.5
29113	10.536	3.3636	0.1	3702.1
29114	10.629	3.2727	0.1	3767.1
29115	10.536	3.5455	0.1	3657.7
29116	10.629	3.4545	0.1	3725.2
29117	10.536	3.7273	0.1	3598.3
29118	10.629	3.6364	0.1	3664.9
29119	10.536	3.9091	0.1	3526.1
29120	10.629	3.8182	0.1	3588.5
29121	10.536	4.0909	0.1	3443.6
29122	10.629	4.	0.1	3498.8
29123	10.536	4.2727	0.1	3353.5
29124	10.629	4.1818	0.1	3398.9
29125	10.536	4.4545	0.1	3258.7
29126	10.629	4.3636	0.1	3292.
29127	10.536	4.6364	0.1	3162.5
29128	10.629	4.5455	0.1	3181.9
29129	10.536	4.8182	0.1	3068.3
29130	10.629	4.7273	0.1	3072.5
29131	10.536	5.	0.1	2979.4
29132	10.629	4.9091	0.1	2967.9
29133	10.536	5.1818	0.1	2898.7
29134	10.629	5.0909	0.1	2871.7
29135	10.536	5.3636	0.1	2828.5
29136	10.629	5.2727	0.1	2786.9
29137	10.536	5.5455	0.1	2770.3
29138	10.629	5.4545	0.1	2715.5
29139	10.536	5.7273	0.1	2724.6
29140	10.629	5.6364	0.1	2658.7
29141	10.629	5.8182	0.1	2616.2
29142	10.536	5.9091	0.1	2693.7
29143	10.721	0.27273	0.1	2550.5
29144	10.814	0.18182	0.1	2426.
29145	10.721	9.0909e-002	0.1	2513.8
29146	10.721	0.45455	0.1	2604.4
29147	10.814	0.36364	0.1	2475.2
29148	10.721	0.63636	0.1	2674.7
29149	10.814	0.54545	0.1	2542.6
29150	10.721	0.81818	0.1	2760.8
29151	10.814	0.72727	0.1	2629.
29152	10.721	1.	0.1	2861.2
29153	10.814	0.90909	0.1	2733.2
29154	10.721	1.1818	0.1	2973.1
29155	10.814	1.0909	0.1	2853.2
29156	10.721	1.3636	0.1	3092.9
29157	10.814	1.2727	0.1	2985.3
29158	10.721	1.5455	0.1	3216.1
29159	10.814	1.4545	0.1	3125.
29160	10.721	1.7273	0.1	3338.2
29161	10.814	1.6364	0.1	3266.8
29162	10.721	1.9091	0.1	3454.6
29163	10.814	1.8182	0.1	3404.9
29164	10.721	2.0909	0.1	3561.5
29165	10.814	2.	0.1	3534.4
29166	10.721	2.2727	0.1	3655.2
29167	10.814	2.1818	0.1	3650.7
29168	10.721	2.4545	0.1	3732.4
29169	10.814	2.3636	0.1	3749.7
29170	10.721	2.6364	0.1	3790.1
29171	10.814	2.5455	0.1	3827.7
29172	10.721	2.8182	0.1	3825.8
29173	10.814	2.7273	0.1	3881.6
29174	10.721	3.	0.1	3837.8
29175	10.814	2.9091	0.1	3909.1
29176	10.721	3.1818	0.1	3825.8
29177	10.814	3.0909	0.1	3909.1
29178	10.721	3.3636	0.1	3790.1
29179	10.814	3.2727	0.1	3881.6
29180	10.721	3.5455	0.1	3732.4
29181	10.814	3.4545	0.1	3827.7
29182	10.721	3.7273	0.1	3655.2
29183	10.814	3.6364	0.1	3749.7
29184	10.721	3.9091	0.1	3561.5
29185	10.814	3.8182	0.1	3650.7
29186	10.721	4.0909	0.1	3454.6
29187	10.814	4.	0.1	3534.4
29188	10.721	4.2727	0.1	3338.2
29189	10.814	4.1818	0.1	3404.9
29190	10.721	4.4545	0.1	3216.1
29191	10.814	4.3636	0.1	3266.8
29192	10.721	4.6364	0.1	3092.9
29193	10.814	4.5455	0.1	3125.
29194	10.721	4.8182	0.1	2973.1
29195	10.814	4.7273	0.1	2985.3
29196	10.721	5.	0.1	2861.2
29197	10.814	4.9091	0.1	2853.2
29198	10.721	5.1818	0.1	2760.8
29199	10.814	5.0909	0.1	2733.2
29200	10.721	5.3636	0.1	2674.7
29201	10.814	5.2727	0.1	2629.
29202	10.721	5.5455	0.1	2604.4
29203	10.814	5.4545	0.1	2542.6
29204	10.721	5.7273	0.1	2550.5
29205	10.814	5.6364	0.1	2475.2
29206	10.814	5.8182	0.1	2426.
29207	10.721	5.9091	0.1	2513.8
29208	10.906	0.27273	0.1	2351.1
29209	10.998	0.18182	0.1	2209.
29210	10.906	9.0909e-002	0.1	2307.8
29211	10.906	0.45455	0.1	2414.
29212	10.998	0.36364	0.1	2264.7
29213	10.906	0.63636	0.1	2498.
29214	10.998	0.54545	0.1	2343.9
29215	10.906	0.81818	0.1	2602.9
29216	10.998	0.72727	0.1	2447.5
29217	10.906	1.	0.1	2727.
29218	10.998	0.90909	0.1	2574.6
29219	10.906	1.1818	0.1	2867.3
29220	10.998	1.0909	0.1	2723.3
29221	10.906	1.3636	0.1	3019.3
29222	10.998	1.2727	0.1	2889.6
29223	10.906	1.5455	0.1	3177.2
29224	10.998	1.4545	0.1	3067.9
29225	10.906	1.7273	0.1	3334.7
29226	10.998	1.6364	0.1	3250.8
29227	10.906	1.9091	0.1	3485.6
29228	10.998	1.8182	0.1	3430.3
29229	10.906	2.0909	0.1	3624.1
29230	10.998	2.	0.1	3598.6
29231	10.906	2.2727	0.1	3745.4
29232	10.998	2.1818	0.1	3749.4
29233	10.906	2.4545	0.1	3845.
29234	10.998	2.3636	0.1	3876.9
29235	10.906	2.6364	0.1	3919.
29236	10.998	2.5455	0.1	3976.4
29237	10.906	2.8182	0.1	3964.6
29238	10.998	2.7273	0.1	4044.3
29239	10.906	3.	0.1	3979.9
29240	10.998	2.9091	0.1	4078.5
29241	10.906	3.1818	0.1	3964.6
29242	10.998	3.0909	0.1	4078.5
29243	10.906	3.3636	0.1	3919.
29244	10.998	3.2727	0.1	4044.3
29245	10.906	3.5455	0.1	3845.
29246	10.998	3.4545	0.1	3976.4
29247	10.906	3.7273	0.1	3745.4
29248	10.998	3.6364	0.1	3876.9
29249	10.906	3.9091	0.1	3624.1
29250	10.998	3.8182	0.1	3749.4
29251	10.906	4.0909	0.1	3485.6
29252	10.998	4.	0.1	3598.6
29253	10.906	4.2727	0.1	3334.7
29254	10.998	4.1818	0.1	3430.3
29255	10.906	4.4545	0.1	3177.2
29256	10.998	4.3636	0.1	3250.8
29257	10.906	4.6364	0.1	3019.3
29258	10.998	4.5455	0.1	3067.9
29259	10.906	4.8182	0.1	2867.3
29260	10.998	4.7273	0.1	2889.6
29261	10.906	5.	0.1	2727.
29262	10.998	4.9091	0.1	2723.2
29263	10.906	5.1818	0.1	2602.9
29264	10.998	5.0909	0.1	2574.6
29265	10.906	5.3636	0.1	2498.
29266	10.998	5.2727	0.1	2447.5
29267	10.906	5.5455	0.1	2414.
29268	10.998	5.4545	0.1	2343.9
29269	10.906	5.7273	0.1	2351.1
29270	10.998	5.6364	0.1	2264.7
29271	10.998	5.8182	0.1	2209.
29272	10.906	5.9091	0.1	2307.8
29273	11.091	0.27273	0.1	2123.3
29274	11.183	0.18182	0.1	1962.6
29275	11.091	9.0909e-002	0.1	2072.7
29276	11.091	0.45455	0.1	2195.7
29277	11.183	0.36364	0.1	2024.8
29278	11.091	0.63636	0.1	2295.2
29279	11.183	0.54545	0.1	2116.9
29280	11.091	0.81818	0.1	2421.8
29281	11.183	0.72727	0.1	2239.8
29282	11.091	1.	0.1	2574.
29283	11.183	0.90909	0.1	2393.2
29284	11.091	1.1818	0.1	2748.9
29285	11.183	1.0909	0.1	2575.5
29286	11.091	1.3636	0.1	2941.3
29287	11.183	1.2727	0.1	2783.5
29288	11.091	1.5455	0.1	3144.1
29289	11.183	1.4545	0.1	3011.
29290	11.091	1.7273	0.1	3348.3
29291	11.183	1.6364	0.1	3248.4
29292	11.091	1.9091	0.1	3544.6
29293	11.183	1.8182	0.1	3483.6
29294	11.091	2.0909	0.1	3724.7
29295	11.183	2.	0.1	3704.4
29296	11.091	2.2727	0.1	3881.3
29297	11.183	2.1818	0.1	3900.5
29298	11.091	2.4545	0.1	4008.3
29299	11.183	2.3636	0.1	4063.3
29300	11.091	2.6364	0.1	4101.2
29301	11.183	2.5455	0.1	4186.6
29302	11.091	2.8182	0.1	4157.5
29303	11.183	2.7273	0.1	4268.1
29304	11.091	3.	0.1	4176.3
29305	11.183	2.9091	0.1	4308.1
29306	11.091	3.1818	0.1	4157.5
29307	11.183	3.0909	0.1	4308.1
29308	11.091	3.3636	0.1	4101.2
29309	11.183	3.2727	0.1	4268.1
29310	11.091	3.5455	0.1	4008.3
29311	11.183	3.4545	0.1	4186.6
29312	11.091	3.7273	0.1	3881.3
29313	11.183	3.6364	0.1	4063.3
29314	11.091	3.9091	0.1	3724.7
29315	11.183	3.8182	0.1	3900.5
29316	11.091	4.0909	0.1	3544.6
29317	11.183	4.	0.1	3704.4
29318	11.091	4.2727	0.1	3348.3
29319	11.183	4.1818	0.1	3483.6
29320	11.091	4.4545	0.1	3144.1
29321	11.183	4.3636	0.1	3248.4
29322	11.091	4.6364	0.1	2941.3
29323	11.183	4.5455	0.1	3011.
29324	11.091	4.8182	0.1	2748.9
29325	11.183	4.7273	0.1	2783.5
29326	11.091	5.	0.1	2574.
29327	11.183	4.9091	0.1	2575.5
29328	11.091	5.1818	0.1	2421.8
29329	11.183	5.0909	0.1	2393.2
29330	11.091	5.3636	0.1	2295.2
29331	11.183	5.2727	0.1	2239.8
29332	11.091	5.5455	0.1	2195.7
29333	11.183	5.4545	0.1	2116.9
29334	11.091	5.7273	0.1	2123.3
29335	11.183	5.6364	0.1	2024.8
29336	11.183	5.8182	0.1	1962.6
29337	11.091	5.9091	0.1	2072.7
29338	11.276	0.27273	0.1	1864.9
29339	11.368	0.18182	0.1	1685.4
29340	11.276	9.0909e-002	0.1	1806.1
29341	11.276	0.45455	0.1	1947.6
29342	11.368	0.36364	0.1	1754.2
29343	11.276	0.63636	0.1	2064.5
29344	11.368	0.54545	0.1	1861.2
29345	11.276	0.81818	0.1	2215.6
29346	11.368	0.72727	0.1	2005.8
29347	11.276	1.	0.1	2400.1
29348	11.368	0.90909	0.1	2188.2
29349	11.276	1.1818	0.1	2615.8
29350	11.368	1.0909	0.1	2408.1
29351	11.276	1.3636	0.1	2858.5
29352	11.368	1.2727	0.1	2664.6
29353	11.276	1.5455	0.1	3119.5
29354	11.368	1.4545	0.1	2953.7
29355	11.276	1.7273	0.1	3386.7
29356	11.368	1.6364	0.1	3265.
29357	11.276	1.9091	0.1	3645.3
29358	11.368	1.8182	0.1	3579.1
29359	11.276	2.0909	0.1	3881.2
29360	11.368	2.	0.1	3874.4
29361	11.276	2.2727	0.1	4082.8
29362	11.368	2.1818	0.1	4131.3
29363	11.276	2.4545	0.1	4241.2
29364	11.368	2.3636	0.1	4335.2
29365	11.276	2.6364	0.1	4352.5
29366	11.368	2.5455	0.1	4479.4
29367	11.276	2.8182	0.1	4417.4
29368	11.368	2.7273	0.1	4567.1
29369	11.276	3.	0.1	4438.5
29370	11.368	2.9091	0.1	4607.6
29371	11.276	3.1818	0.1	4417.4
29372	11.368	3.0909	0.1	4607.6
29373	11.276	3.3636	0.1	4352.5
29374	11.368	3.2727	0.1	4567.1
29375	11.276	3.5455	0.1	4241.2
29376	11.368	3.4545	0.1	4479.4
29377	11.276	3.7273	0.1	4082.8
29378	11.368	3.6364	0.1	4335.2
29379	11.276	3.9091	0.1	3881.2
29380	11.368	3.8182	0.1	4131.3
29381	11.276	4.0909	0.1	3645.3
29382	11.368	4.	0.1	3874.4
29383	11.276	4.2727	0.1	3386.7
29384	11.368	4.1818	0.1	3579.1
29385	11.276	4.4545	0.1	3119.5
29386	11.368	4.3636	0.1	3265.
29387	11.276	4.6364	0.1	2858.5
29388	11.368	4.5455	0.1	2953.7
29389	11.276	4.8182	0.1	2615.8
29390	11.368	4.7273	0.1	2664.6
29391	11.276	5.	0.1	2400.1
29392	11.368	4.9091	0.1	2408.1
29393	11.276	5.1818	0.1	2215.6
29394	11.368	5.0909	0.1	2188.2
29395	11.276	5.3636	0.1	2064.5
29396	11.368	5.2727	0.1	2005.8
29397	11.276	5.5455	0.1	1947.6
29398	11.368	5.4545	0.1	1861.2
29399	11.276	5.7273	0.1	1864.9
29400	11.368	5.6364	0.1	1754.2
29401	11.368	5.8182	0.1	1685.4
29402	11.276	5.9091	0.1	1806.1
29403	11.461	0.27273	0.1	1575.9
29404	11.553	0.18182	0.1	1378.
29405	11.461	9.0909e-002	0.1	1507.2
29406	11.461	0.45455	0.1	1670.5
29407	11.553	0.36364	0.1	1455.8
29408	11.461	0.63636	0.1	1807.6
29409	11.553	0.54545	0.1	1581.5
29410	11.461	0.81818	0.1	1985.8
29411	11.553	0.72727	0.1	1751.
29412	11.461	1.	0.1	2205.2
29413	11.553	0.90909	0.1	1963.4
29414	11.461	1.1818	0.1	2466.5
29415	11.553	1.0909	0.1	2221.2
29416	11.461	1.3636	0.1	2768.9
29417	11.553	1.2727	0.1	2529.3
29418	11.461	1.5455	0.1	3106.3
29419	11.553	1.4545	0.1	2892.9
29420	11.461	1.7273	0.1	3462.1
29421	11.553	1.6364	0.1	3305.3
29422	11.461	1.9091	0.1	3810.8
29423	11.553	1.8182	0.1	3741.5
29424	11.461	2.0909	0.1	4125.6
29425	11.553	2.	0.1	4155.
29426	11.461	2.2727	0.1	4383.7
29427	11.553	2.1818	0.1	4495.
29428	11.461	2.4545	0.1	4572.2
29429	11.553	2.3636	0.1	4739.1
29430	11.461	2.6364	0.1	4692.
29431	11.553	2.5455	0.1	4881.8
29432	11.461	2.8182	0.1	4755.1
29433	11.553	2.7273	0.1	4951.3
29434	11.461	3.	0.1	4774.4
29435	11.553	2.9091	0.1	4978.
29436	11.461	3.1818	0.1	4755.1
29437	11.553	3.0909	0.1	4978.
29438	11.461	3.3636	0.1	4692.
29439	11.553	3.2727	0.1	4951.3
29440	11.461	3.5455	0.1	4572.2
29441	11.553	3.4545	0.1	4881.8
29442	11.461	3.7273	0.1	4383.7
29443	11.553	3.6364	0.1	4739.1
29444	11.461	3.9091	0.1	4125.6
29445	11.553	3.8182	0.1	4495.
29446	11.461	4.0909	0.1	3810.8
29447	11.553	4.	0.1	4155.
29448	11.461	4.2727	0.1	3462.1
29449	11.553	4.1818	0.1	3741.5
29450	11.461	4.4545	0.1	3106.3
29451	11.553	4.3636	0.1	3305.3
29452	11.461	4.6364	0.1	2768.9
29453	11.553	4.5455	0.1	2892.9
29454	11.461	4.8182	0.1	2466.5
29455	11.553	4.7273	0.1	2529.3
29456	11.461	5.	0.1	2205.2
29457	11.553	4.9091	0.1	2221.2
29458	11.461	5.1818	0.1	1985.8
29459	11.553	5.0909	0.1	1963.4
29460	11.461	5.3636	0.1	1807.6
29461	11.553	5.2727	0.1	1751.
29462	11.461	5.5455	0.1	1670.5
29463	11.553	5.4545	0.1	1581.5
29464	11.461	5.7273	0.1	1575.9
29465	11.553	5.6364	0.1	1455.8
29466	11.553	5.8182	0.1	1378.
29467	11.461	5.9091	0.1	1507.2
29468	11.645	0.27273	0.1	1259.9
29469	11.738	0.18182	0.1	1043.8
29470	11.645	9.0909e-002	0.1	1177.6
29471	11.645	0.45455	0.1	1372.
29472	11.738	0.36364	0.1	1140.
29473	11.645	0.63636	0.1	1534.2
29474	11.738	0.54545	0.1	1294.2
29475	11.645	0.81818	0.1	1741.1
29476	11.738	0.72727	0.1	1492.2
29477	11.645	1.	0.1	1994.2
29478	11.738	0.90909	0.1	1732.2
29479	11.645	1.1818	0.1	2299.9
29480	11.738	1.0909	0.1	2020.8
29481	11.645	1.3636	0.1	2668.6
29482	11.738	1.2727	0.1	2373.4
29483	11.645	1.5455	0.1	3104.2
29484	11.738	1.4545	0.1	2811.8
29485	11.645	1.7273	0.1	3591.6
29486	11.738	1.6364	0.1	3365.9
29487	11.645	1.9091	0.1	4088.3
29488	11.738	1.8182	0.1	4017.3
29489	11.645	2.0909	0.1	4524.4
29490	11.738	2.	0.1	4639.8
29491	11.645	2.2727	0.1	4848.6
29492	11.738	2.1818	0.1	5121.6
29493	11.645	2.4545	0.1	5045.5
29494	11.738	2.3636	0.1	5356.
29495	11.645	2.6364	0.1	5137.5
29496	11.738	2.5455	0.1	5417.7
29497	11.645	2.8182	0.1	5170.8
29498	11.738	2.7273	0.1	5411.7
29499	11.645	3.	0.1	5178.2
29500	11.738	2.9091	0.1	5397.6
29501	11.645	3.1818	0.1	5170.8
29502	11.738	3.0909	0.1	5397.6
29503	11.645	3.3636	0.1	5137.5
29504	11.738	3.2727	0.1	5411.7
29505	11.645	3.5455	0.1	5045.5
29506	11.738	3.4545	0.1	5417.7
29507	11.645	3.7273	0.1	4848.6
29508	11.738	3.6364	0.1	5356.
29509	11.645	3.9091	0.1	4524.4
29510	11.738	3.8182	0.1	5121.6
29511	11.645	4.0909	0.1	4088.3
29512	11.738	4.	0.1	4639.8
29513	11.645	4.2727	0.1	3591.6
29514	11.738	4.1818	0.1	4017.3
29515	11.645	4.4545	0.1	3104.2
29516	11.738	4.3636	0.1	3365.9
29517	11.645	4.6364	0.1	2668.6
29518	11.738	4.5455	0.1	2811.8
29519	11.645	4.8182	0.1	2299.9
29520	11.738	4.7273	0.1	2373.4
29521	11.645	5.	0.1	1994.2
29522	11.738	4.9091	0.1	2020.8
29523	11.645	5.1818	0.1	1741.1
29524	11.738	5.0909	0.1	1732.2
29525	11.645	5.3636	0.1	1534.2
29526	11.738	5.2727	0.1	1492.2
29527	11.645	5.5455	0.1	1372.
29528	11.738	5.4545	0.1	1294.2
29529	11.645	5.7273	0.1	1259.9
29530	11.738	5.6364	0.1	1140.
29531	11.738	5.8182	0.1	1043.8
29532	11.645	5.9091	0.1	1177.6
29533	11.83	0.27273	0.1	928.75
29534	11.923	0.18182	0.1	698.6
29535	11.83	9.0909e-002	0.1	820.82
29536	11.83	0.45455	0.1	1073.9
29537	11.923	0.36364	0.1	849.02
29538	11.83	0.63636	0.1	1269.1
29539	11.923	0.54545	0.1	1051.2
29540	11.83	0.81818	0.1	1503.4
29541	11.923	0.72727	0.1	1282.8
29542	11.83	1.	0.1	1781.4
29543	11.923	0.90909	0.1	1546.9
29544	11.83	1.1818	0.1	2119.3
29545	11.923	1.0909	0.1	1857.
29546	11.83	1.3636	0.1	2543.5
29547	11.923	1.2727	0.1	2237.1
29548	11.83	1.5455	0.1	3096.8
29549	11.923	1.4545	0.1	2735.2
29550	11.83	1.7273	0.1	3806.2
29551	11.923	1.6364	0.1	3417.4
29552	11.83	1.9091	0.1	4567.2
29553	11.923	1.8182	0.1	4587.9
29554	11.83	2.0909	0.1	5231.7
29555	11.923	2.	0.1	5977.8
29556	11.83	2.2727	0.1	5621.1
29557	11.923	2.1818	0.1	6351.
29558	11.83	2.4545	0.1	5721.1
29559	11.923	2.3636	0.1	6282.
29560	11.83	2.6364	0.1	5686.6
29561	11.923	2.5455	0.1	6054.
29562	11.83	2.8182	0.1	5634.4
29563	11.923	2.7273	0.1	5890.2
29564	11.83	3.	0.1	5613.2
29565	11.923	2.9091	0.1	5804.9
29566	11.83	3.1818	0.1	5634.4
29567	11.923	3.0909	0.1	5804.9
29568	11.83	3.3636	0.1	5686.6
29569	11.923	3.2727	0.1	5890.2
29570	11.83	3.5455	0.1	5721.1
29571	11.923	3.4545	0.1	6054.
29572	11.83	3.7273	0.1	5621.1
29573	11.923	3.6364	0.1	6282.
29574	11.83	3.9091	0.1	5231.7
29575	11.923	3.8182	0.1	6351.
29576	11.83	4.0909	0.1	4567.2
29577	11.923	4.	0.1	5977.8
29578	11.83	4.2727	0.1	3806.2
29579	11.923	4.1818	0.1	4587.9
29580	11.83	4.4545	0.1	3096.8
29581	11.923	4.3636	0.1	3417.4
29582	11.83	4.6364	0.1	2543.5
29583	11.923	4.5455	0.1	2735.2
29584	11.83	4.8182	0.1	2119.3
29585	11.923	4.7273	0.1	2237.1
29586	11.83	5.	0.1	1781.4
29587	11.923	4.9091	0.1	1857.
29588	11.83	5.1818	0.1	1503.4
29589	11.923	5.0909	0.1	1546.9
29590	11.83	5.3636	0.1	1269.1
29591	11.923	5.2727	0.1	1282.8
29592	11.83	5.5455	0.1	1073.9
29593	11.923	5.4545	0.1	1051.2
29594	11.83	5.7273	0.1	928.75
29595	11.923	5.6364	0.1	849.02
29596	11.923	5.8182	0.1	698.6
29597	11.83	5.9091	0.1	820.82
29598	12.015	0.27273	0.1	638.92
29599	12.108	0.18182	0.1	379.6
29600	12.015	9.0909e-002	0.1	451.31
29601	12.015	0.45455	0.1	855.16
29602	12.108	0.36364	0.1	573.83
29603	12.015	0.63636	0.1	1094.6
29604	12.108	0.54545	0.1	768.31
29605	12.015	0.81818	0.1	1356.7
29606	12.108	0.72727	0.1	968.09
29607	12.015	1.	0.1	1655.1
29608	12.108	0.90909	0.1	1184.5
29609	12.015	1.1818	0.1	2012.8
29610	12.108	1.0909	0.1	1432.4
29611	12.015	1.3636	0.1	2476.1
29612	12.108	1.2727	0.1	1733.9
29613	12.015	1.5455	0.1	3124.1
29614	12.108	1.4545	0.1	2136.9
29615	12.015	1.7273	0.1	4255.6
29616	12.108	1.6364	0.1	2712.6
29617	12.015	1.9091	0.1	5980.6
29618	12.108	1.8182	0.1	3758.3
29619	12.015	2.0909	0.1	7046.7
29620	12.108	2.	0.1	10351
29621	12.015	2.2727	0.1	6991.7
29622	12.108	2.1818	0.1	8377.7
29623	12.015	2.4545	0.1	6607.7
29624	12.108	2.3636	0.1	7272.7
29625	12.015	2.6364	0.1	6254.1
29626	12.108	2.5455	0.1	6614.3
29627	12.015	2.8182	0.1	6058.
29628	12.108	2.7273	0.1	6258.4
29629	12.015	3.	0.1	5994.1
29630	12.108	2.9091	0.1	6098.6
29631	12.015	3.1818	0.1	6058.
29632	12.108	3.0909	0.1	6098.6
29633	12.015	3.3636	0.1	6254.1
29634	12.108	3.2727	0.1	6258.4
29635	12.015	3.5455	0.1	6607.7
29636	12.108	3.4545	0.1	6614.3
29637	12.015	3.7273	0.1	6991.6
29638	12.108	3.6364	0.1	7272.7
29639	12.015	3.9091	0.1	7046.7
29640	12.108	3.8182	0.1	8377.7
29641	12.015	4.0909	0.1	5980.6
29642	12.108	4.	0.1	10351
29643	12.015	4.2727	0.1	4255.6
29644	12.108	4.1818	0.1	3758.3
29645	12.015	4.4545	0.1	3124.1
29646	12.108	4.3636	0.1	2712.6
29647	12.015	4.6364	0.1	2476.1
29648	12.108	4.5455	0.1	2136.9
29649	12.015	4.8182	0.1	2012.8
29650	12.108	4.7273	0.1	1733.9
29651	12.015	5.	0.1	1655.1
29652	12.108	4.9091	0.1	1432.4
29653	12.015	5.1818	0.1	1356.7
29654	12.108	5.0909	0.1	1184.5
29655	12.015	5.3636	0.1	1094.6
29656	12.108	5.2727	0.1	968.09
29657	12.015	5.5455	0.1	855.16
29658	12.108	5.4545	0.1	768.31
29659	12.015	5.7273	0.1	638.92
29660	12.108	5.6364	0.1	573.83
29661	12.108	5.8182	0.1	379.6
29662	12.015	5.9091	0.1	451.31
29663	12.367	3.7273	0.1	8743.3
29664	12.283	3.8182	0.1	9638.1
29665	12.367	3.9091	0.1	11737
29666	12.367	3.5455	0.1	7283.7
29667	12.283	3.6364	0.1	7716.7
29668	12.367	3.3636	0.1	6593.6
29669	12.283	3.4545	0.1	6831.4
29670	12.367	3.1818	0.1	6263.2
29671	12.283	3.2727	0.1	6377.8
29672	12.367	3.	0.1	6164.3
29673	12.283	3.0909	0.1	6183.5
29674	12.367	2.8182	0.1	6263.2
29675	12.283	2.9091	0.1	6183.5
29676	12.367	2.6364	0.1	6593.6
29677	12.283	2.7273	0.1	6377.8
29678	12.367	2.4545	0.1	7283.7
29679	12.283	2.5455	0.1	6831.4
29680	12.367	2.2727	0.1	8743.3
29681	12.283	2.3636	0.1	7716.7
29682	12.283	2.1818	0.1	9638.1
29683	12.367	2.0909	0.1	11737
29684	12.2	3.7273	0.1	8723.6
29685	12.2	3.9091	0.1	11566
29686	12.2	3.5455	0.1	7297.
29687	12.2	3.3636	0.1	6624.
29688	12.2	3.1818	0.1	6299.7
29689	12.2	3.	0.1	6202.6
29690	12.2	2.8182	0.1	6299.7
29691	12.2	2.6364	0.1	6624.
29692	12.2	2.4545	0.1	7297.
29693	12.2	2.2727	0.1	8723.6
29694	12.2	2.0909	0.1	11567
29695	12.367	5.7273	0.1	346.47
29696	12.367	5.9091	0.1	135.92
29697	12.367	5.8182	5.e-002	57.232
29698	12.367	5.5455	0.1	526.67
29699	12.367	5.6364	5.e-002	122.38
29700	12.367	5.3636	0.1	697.18
29701	12.367	5.4545	5.e-002	186.75
29702	12.367	5.1818	0.1	876.27
29703	12.367	5.2727	5.e-002	256.42
29704	12.367	5.	0.1	1077.9
29705	12.367	5.0909	5.e-002	335.21
29706	12.367	4.8182	0.1	1319.9
29707	12.367	4.9091	5.e-002	428.65
29708	12.367	4.6364	0.1	1636.1
29709	12.367	4.7273	5.e-002	546.14
29710	12.367	4.4545	0.1	2070.3
29711	12.367	4.5455	5.e-002	703.93
29712	12.367	4.2727	0.1	2920.3
29713	12.367	4.3636	5.e-002	954.25
29714	12.367	4.0909	0.1	7949.8
29715	12.367	4.1818	5.e-002	1598.1
29716	12.283	4.	0.1	12416
29717	12.367	4.	5.e-002	1361.
29718	12.2	4.0909	0.1	7607.3
29719	12.2	4.	5.e-002	1649.5
29720	12.2	4.2727	0.1	2703.5
29721	12.2	4.1818	5.e-002	1838.9
29722	12.2	4.4545	0.1	1947.6
29723	12.2	4.3636	5.e-002	1139.6
29724	12.2	4.6364	0.1	1569.6
29725	12.2	4.5455	5.e-002	850.78
29726	12.2	4.8182	0.1	1291.6
29727	12.2	4.7273	5.e-002	668.85
29728	12.2	5.	0.1	1075.1
29729	12.2	4.9091	5.e-002	530.14
29730	12.2	5.1818	0.1	889.94
29731	12.2	5.0909	5.e-002	417.59
29732	12.2	5.3636	0.1	720.66
29733	12.2	5.2727	5.e-002	320.93
29734	12.2	5.5455	0.1	554.34
29735	12.2	5.4545	5.e-002	234.29
29736	12.2	5.7273	0.1	372.25
29737	12.2	5.6364	5.e-002	153.69
29738	12.2	5.9091	0.1	149.41
29739	12.2	5.8182	5.e-002	72.774
29740	12.367	0.27273	0.1	346.47
29741	12.367	9.0909e-002	0.1	135.92
29742	12.367	0.18182	5.e-002	57.232
29743	12.367	0.45455	0.1	526.67
29744	12.367	0.36364	5.e-002	122.38
29745	12.367	0.63636	0.1	697.18
29746	12.367	0.54545	5.e-002	186.75
29747	12.367	0.81818	0.1	876.27
29748	12.367	0.72727	5.e-002	256.42
29749	12.367	1.	0.1	1077.9
29750	12.367	0.90909	5.e-002	335.21
29751	12.367	1.1818	0.1	1319.9
29752	12.367	1.0909	5.e-002	428.65
29753	12.367	1.3636	0.1	1636.1
29754	12.367	1.2727	5.e-002	546.14
29755	12.367	1.5455	0.1	2070.3
29756	12.367	1.4545	5.e-002	703.93
29757	12.367	1.7273	0.1	2920.3
29758	12.367	1.6364	5.e-002	954.25
29759	12.367	1.9091	0.1	7949.8
29760	12.367	1.8182	5.e-002	1598.1
29761	12.283	2.	0.1	12416
29762	12.367	2.	5.e-002	1361.
29763	12.2	1.9091	0.1	7607.3
29764	12.2	2.	5.e-002	1649.5
29765	12.2	1.7273	0.1	2703.5
29766	12.2	1.8182	5.e-002	1838.9
29767	12.2	1.5455	0.1	1947.6
29768	12.2	1.6364	5.e-002	1139.6
29769	12.2	1.3636	0.1	1569.6
29770	12.2	1.4545	5.e-002	850.78
29771	12.2	1.1818	0.1	1291.6
29772	12.2	1.2727	5.e-002	668.85
29773	12.2	1.	0.1	1075.1
29774	12.2	1.0909	5.e-002	530.14
29775	12.2	0.81818	0.1	889.94
29776	12.2	0.90909	5.e-002	417.59
29777	12.2	0.63636	0.1	720.66
29778	12.2	0.72727	5.e-002	320.93
29779	12.2	0.45455	0.1	554.34
29780	12.2	0.54545	5.e-002	234.29
29781	12.2	0.27273	0.1	372.25
29782	12.2	0.36364	5.e-002	153.69
29783	12.2	9.0909e-002	0.1	149.41
29784	12.2	0.18182	5.e-002	72.774
29785	12.459	6.	0.1	175.95
29786	12.367	6.	5.e-002	18.314
29787	12.644	6.	0.1	484.94
29788	12.551	6.	5.e-002	15.071
29789	12.828	6.	0.1	777.17
29790	12.736	6.	5.e-002	38.248
29791	13.013	6.	0.1	1031.9
29792	12.921	6.	5.e-002	50.351
29793	13.198	6.	0.1	1250.8
29794	13.105	6.	5.e-002	57.013
29795	13.382	6.	0.1	1434.
29796	13.29	6.	5.e-002	59.781
29797	13.567	6.	0.1	1582.7
29798	13.475	6.	5.e-002	60.093
29799	13.752	6.	0.1	1699.5
29800	13.659	6.	5.e-002	58.945
29801	13.936	6.	0.1	1787.7
29802	13.844	6.	5.e-002	57.066
29803	14.121	6.	0.1	1851.3
29804	14.029	6.	5.e-002	54.95
29805	14.306	6.	0.1	1893.8
29806	14.213	6.	5.e-002	52.909
29807	14.49	6.	0.1	1918.9
29808	14.398	6.	5.e-002	51.126
29809	14.675	6.	0.1	1929.5
29810	14.583	6.	5.e-002	49.686
29811	14.86	6.	0.1	1928.5
29812	14.767	6.	5.e-002	48.615
29813	15.044	6.	0.1	1917.9
29814	14.952	6.	5.e-002	47.901
29815	15.229	6.	0.1	1899.8
29816	15.137	6.	5.e-002	47.508
29817	15.413	6.	0.1	1875.7
29818	15.321	6.	5.e-002	47.392
29819	15.598	6.	0.1	1846.9
29820	15.506	6.	5.e-002	47.504
29821	15.783	6.	0.1	1814.3
29822	15.69	6.	5.e-002	47.797
29823	15.967	6.	0.1	1778.8
29824	15.875	6.	5.e-002	48.228
29825	16.152	6.	0.1	1741.
29826	16.06	6.	5.e-002	48.756
29827	16.337	6.	0.1	1701.6
29828	16.244	6.	5.e-002	49.349
29829	16.521	6.	0.1	1660.8
29830	16.429	6.	5.e-002	49.977
29831	16.706	6.	0.1	1619.1
29832	16.614	6.	5.e-002	50.616
29833	16.891	6.	0.1	1576.7
29834	16.798	6.	5.e-002	51.247
29835	17.075	6.	0.1	1533.7
29836	16.983	6.	5.e-002	51.854
29837	17.26	6.	0.1	1490.5
29838	17.168	6.	5.e-002	52.424
29839	17.445	6.	0.1	1447.
29840	17.352	6.	5.e-002	52.947
29841	17.629	6.	0.1	1403.4
29842	17.537	6.	5.e-002	53.415
29843	17.814	6.	0.1	1359.7
29844	17.722	6.	5.e-002	53.824
29845	17.999	6.	0.1	1316.1
29846	17.906	6.	5.e-002	54.167
29847	18.183	6.	0.1	1272.6
29848	18.091	6.	5.e-002	54.443
29849	18.368	6.	0.1	1229.1
29850	18.276	6.	5.e-002	54.649
29851	18.553	6.	0.1	1185.8
29852	18.46	6.	5.e-002	54.784
29853	18.737	6.	0.1	1142.7
29854	18.645	6.	5.e-002	54.846
29855	18.922	6.	0.1	1099.6
29856	18.83	6.	5.e-002	54.834
29857	19.107	6.	0.1	1056.8
29858	19.014	6.	5.e-002	54.748
29859	19.291	6.	0.1	1014.1
29860	19.199	6.	5.e-002	54.586
29861	19.476	6.	0.1	971.6
29862	19.384	6.	5.e-002	54.349
29863	19.661	6.	0.1	929.28
29864	19.568	6.	5.e-002	54.036
29865	19.845	6.	0.1	887.13
29866	19.753	6.	5.e-002	53.644
29867	20.03	6.	0.1	845.16
29868	19.938	6.	5.e-002	53.173
29869	20.215	6.	0.1	803.37
29870	20.122	6.	5.e-002	52.621
29871	20.399	6.	0.1	761.75
29872	20.307	6.	5.e-002	51.985
29873	20.584	6.	0.1	720.31
29874	20.492	6.	5.e-002	51.263
29875	20.769	6.	0.1	679.03
29876	20.676	6.	5.e-002	50.452
29877	20.953	6.	0.1	637.93
29878	20.861	6.	5.e-002	49.547
29879	21.138	6.	0.1	597.
29880	21.046	6.	5.e-002	48.545
29881	21.322	6.	0.1	556.23
29882	21.23	6.	5.e-002	47.439
29883	21.507	6.	0.1	515.63
29884	21.415	6.	5.e-002	46.223
29885	21.692	6.	0.1	475.21
29886	21.599	6.	5.e-002	44.89
29887	21.876	6.	0.1	434.97
29888	21.784	6.	5.e-002	43.431
29889	22.061	6.	0.1	394.91
29890	21.969	6.	5.e-002	41.835
29891	22.246	6.	0.1	355.05
29892	22.153	6.	5.e-002	40.089
29893	22.43	6.	0.1	315.42
29894	22.338	6.	5.e-002	38.178
29895	22.615	6.	0.1	276.04
29896	22.523	6.	5.e-002	36.082
29897	22.8	6.	0.1	236.96
29898	22.707	6.	5.e-002	33.777
29899	22.984	6.	0.1	198.23
29900	22.892	6.	5.e-002	31.229
29901	23.169	6.	0.1	159.97
29902	23.077	6.	5.e-002	28.395
29903	23.354	6.	0.1	122.34
29904	23.261	6.	5.e-002	25.208
29905	23.538	6.	0.1	85.635
29906	23.446	6.	5.e-002	21.565
29907	23.723	6.	0.1	50.509
29908	23.631	6.	5.e-002	17.27
29909	23.908	6.	0.1	18.767
29910	23.815	6.	5.e-002	11.702
29911	24.	5.9091	0.1	5.9284
29912	24.	6.	5.e-002	4.5479
29913	24.	5.7273	0.1	6.9263
29914	24.	5.8182	5.e-002	4.0586
29915	24.	5.5455	0.1	7.1671
29916	24.	5.6364	5.e-002	4.5886
29917	24.	5.3636	0.1	7.2419
29918	24.	5.4545	5.e-002	5.0566
29919	24.	5.1818	0.1	7.2484
29920	24.	5.2727	5.e-002	5.3046
29921	24.	5.	0.1	7.2179
29922	24.	5.0909	5.e-002	5.4135
29923	24.	4.8182	0.1	7.1743
29924	24.	4.9091	5.e-002	5.4277
29925	24.	4.6364	0.1	7.1255
29926	24.	4.7273	5.e-002	5.3768
29927	24.	4.4545	0.1	7.0768
29928	24.	4.5455	5.e-002	5.2827
29929	24.	4.2727	0.1	7.0308
29930	24.	4.3636	5.e-002	5.1618
29931	24.	4.0909	0.1	6.9893
29932	24.	4.1818	5.e-002	5.0275
29933	24.	3.9091	0.1	6.9532
29934	24.	4.	5.e-002	4.8907
29935	24.	3.7273	0.1	6.9231
29936	24.	3.8182	5.e-002	4.7609
29937	24.	3.5455	0.1	6.8995
29938	24.	3.6364	5.e-002	4.6463
29939	24.	3.3636	0.1	6.8825
29940	24.	3.4545	5.e-002	4.5538
29941	24.	3.1818	0.1	6.8722
29942	24.	3.2727	5.e-002	4.4889
29943	24.	3.	0.1	6.8688
29944	24.	3.0909	5.e-002	4.4555
29945	24.	2.8182	0.1	6.8722
29946	24.	2.9091	5.e-002	4.4555
29947	24.	2.6364	0.1	6.8825
29948	24.	2.7273	5.e-002	4.4889
29949	24.	2.4545	0.1	6.8995
29950	24.	2.5455	5.e-002	4.5538
29951	24.	2.2727	0.1	6.9231
29952	24.	2.3636	5.e-002	4.6463
29953	24.	2.0909	0.1	6.9532
29954	24.	2.1818	5.e-002	4.7609
29955	24.	1.9091	0.1	6.9893
29956	24.	2.	5.e-002	4.8906
29957	24.	1.7273	0.1	7.0308
29958	24.	1.8182	5.e-002	5.0275
29959	24.	1.5455	0.1	7.0768
29960	24.	1.6364	5.e-002	5.1618
29961	24.	1.3636	0.1	7.1255
29962	24.	1.4545	5.e-002	5.2827
29963	24.	1.1818	0.1	7.1743
29964	24.	1.2727	5.e-002	5.3768
29965	24.	1.	0.1	7.2179
29966	24.	1.0909	5.e-002	5.4277
29967	24.	0.81818	0.1	7.2484
29968	24.	0.90909	5.e-002	5.4135
29969	24.	0.63636	0.1	7.2419
29970	24.	0.72727	5.e-002	5.3046
29971	24.	0.45455	0.1	7.1671
29972	24.	0.54545	5.e-002	5.0566
29973	24.	0.27273	0.1	6.9263
29974	24.	0.36364	5.e-002	4.5886
29975	24.	9.0909e-002	0.1	5.9284
29976	24.	0.18182	5.e-002	4.0586
29977	2.3842e-015	0.27273	0.1	3543.4
29978	7.9472e-016	9.0909e-002	0.1	1438.9
29979	1.6109e-015	0.18182	5.e-002	96.301
29980	3.9736e-015	0.45455	0.1	5163.5
29981	3.2219e-015	0.36364	5.e-002	49.505
29982	5.563e-015	0.63636	0.1	6012.6
29983	4.8328e-015	0.54545	5.e-002	44.645
29984	7.1525e-015	0.81818	0.1	6551.6
29985	6.4438e-015	0.72727	5.e-002	39.186
29986	8.7419e-015	1.	0.1	6921.3
29987	8.0547e-015	0.90909	5.e-002	33.277
29988	1.0331e-014	1.1818	0.1	7189.5
29989	9.6657e-015	1.0909	5.e-002	28.184
29990	1.1921e-014	1.3636	0.1	7390.1
29991	1.1277e-014	1.2727	5.e-002	24.054
29992	1.351e-014	1.5455	0.1	7543.3
29993	1.2888e-014	1.4545	5.e-002	20.698
29994	1.51e-014	1.7273	0.1	7661.6
29995	1.4498e-014	1.6364	5.e-002	17.981
29996	1.6689e-014	1.9091	0.1	7753.4
29997	1.6109e-014	1.8182	5.e-002	15.789
29998	1.8279e-014	2.0909	0.1	7824.2
29999	1.772e-014	2.	5.e-002	14.036
30000	1.9868e-014	2.2727	0.1	7878.
30001	1.9331e-014	2.1818	5.e-002	12.658
30002	2.1457e-014	2.4545	0.1	7917.4
30003	2.0942e-014	2.3636	5.e-002	11.605
30004	2.3047e-014	2.6364	0.1	7944.4
30005	2.2553e-014	2.5455	5.e-002	10.843
30006	2.4636e-014	2.8182	0.1	7960.1
30007	2.4164e-014	2.7273	5.e-002	10.348
30008	2.6226e-014	3.	0.1	7965.3
30009	2.5775e-014	2.9091	5.e-002	10.103
30010	2.7815e-014	3.1818	0.1	7960.1
30011	2.7386e-014	3.0909	5.e-002	10.103
30012	2.9405e-014	3.3636	0.1	7944.4
30013	2.8997e-014	3.2727	5.e-002	10.347
30014	3.0994e-014	3.5455	0.1	7917.4
30015	3.0608e-014	3.4545	5.e-002	10.843
30016	3.2583e-014	3.7273	0.1	7878.
30017	3.2219e-014	3.6364	5.e-002	11.605
30018	3.4173e-014	3.9091	0.1	7824.2
30019	3.383e-014	3.8182	5.e-002	12.657
30020	3.5762e-014	4.0909	0.1	7753.4
30021	3.5441e-014	4.	5.e-002	14.036
30022	3.7352e-014	4.2727	0.1	7661.6
30023	3.7052e-014	4.1818	5.e-002	15.788
30024	3.8941e-014	4.4545	0.1	7543.3
30025	3.8663e-014	4.3636	5.e-002	17.98
30026	4.0531e-014	4.6364	0.1	7390.1
30027	4.0274e-014	4.5455	5.e-002	20.698
30028	4.212e-014	4.8182	0.1	7189.5
30029	4.1885e-014	4.7273	5.e-002	24.054
30030	4.371e-014	5.	0.1	6921.3
30031	4.3495e-014	4.9091	5.e-002	28.184
30032	4.5299e-014	5.1818	0.1	6551.6
30033	4.5106e-014	5.0909	5.e-002	33.277
30034	4.6888e-014	5.3636	0.1	6012.6
30035	4.6717e-014	5.2727	5.e-002	39.186
30036	4.8478e-014	5.5455	0.1	5163.5
30037	4.8328e-014	5.4545	5.e-002	44.644
30038	5.0067e-014	5.7273	0.1	3543.4
30039	4.9939e-014	5.6364	5.e-002	49.505
30040	5.1657e-014	5.9091	0.1	1438.9
30041	5.155e-014	5.8182	5.e-002	96.3
30042	23.908	0.	0.1	18.767
30043	24.	0.	5.e-002	4.5479
30044	23.723	0.	0.1	50.509
30045	23.815	0.	5.e-002	11.702
30046	23.538	0.	0.1	85.635
30047	23.631	0.	5.e-002	17.27
30048	23.354	0.	0.1	122.34
30049	23.446	0.	5.e-002	21.565
30050	23.169	0.	0.1	159.97
30051	23.261	0.	5.e-002	25.208
30052	22.984	0.	0.1	198.23
30053	23.077	0.	5.e-002	28.395
30054	22.8	0.	0.1	236.96
30055	22.892	0.	5.e-002	31.229
30056	22.615	0.	0.1	276.04
30057	22.707	0.	5.e-002	33.777
30058	22.43	0.	0.1	315.42
30059	22.523	0.	5.e-002	36.082
30060	22.246	0.	0.1	355.05
30061	22.338	0.	5.e-002	38.178
30062	22.061	0.	0.1	394.91
30063	22.153	0.	5.e-002	40.089
30064	21.876	0.	0.1	434.97
30065	21.969	0.	5.e-002	41.835
30066	21.692	0.	0.1	475.21
30067	21.784	0.	5.e-002	43.431
30068	21.507	0.	0.1	515.63
30069	21.599	0.	5.e-002	44.89
30070	21.322	0.	0.1	556.23
30071	21.415	0.	5.e-002	46.223
30072	21.138	0.	0.1	597.
30073	21.23	0.	5.e-002	47.439
30074	20.953	0.	0.1	637.93
30075	21.046	0.	5.e-002	48.545
30076	20.769	0.	0.1	679.03
30077	20.861	0.	5.e-002	49.547
30078	20.584	0.	0.1	720.31
30079	20.676	0.	5.e-002	50.452
30080	20.399	0.	0.1	761.75
30081	20.492	0.	5.e-002	51.263
30082	20.215	0.	0.1	803.37
30083	20.307	0.	5.e-002	51.985
30084	20.03	0.	0.1	845.16
30085	20.122	0.	5.e-002	52.621
30086	19.845	0.	0.1	887.13
30087	19.938	0.	5.e-002	53.173
30088	19.661	0.	0.1	929.28
30089	19.753	0.	5.e-002	53.644
30090	19.476	0.	0.1	971.6
30091	19.568	0.	5.e-002	54.036
30092	19.291	0.	0.1	1014.1
30093	19.384	0.	5.e-002	54.349
30094	19.107	0.	0.1	1056.8
30095	19.199	0.	5.e-002	54.586
30096	18.922	0.	0.1	1099.6
30097	19.014	0.	5.e-002	54.748
30098	18.737	0.	0.1	1142.7
30099	18.83	0.	5.e-002	54.834
30100	18.553	0.	0.1	1185.8
30101	18.645	0.	5.e-002	54.846
30102	18.368	0.	0.1	1229.1
30103	18.46	0.	5.e-002	54.784
30104	18.183	0.	0.1	1272.6
30105	18.276	0.	5.e-002	54.649
30106	17.999	0.	0.1	1316.1
30107	18.091	0.	5.e-002	54.443
30108	17.814	0.	0.1	1359.7
30109	17.906	0.	5.e-002	54.167
30110	17.629	0.	0.1	1403.4
30111	17.722	0.	5.e-002	53.824
30112	17.445	0.	0.1	1447.
30113	17.537	0.	5.e-002	53.415
30114	17.26	0.	0.1	1490.5
30115	17.352	0.	5.e-002	52.947
30116	17.075	0.	0.1	1533.7
30117	17.168	0.	5.e-002	52.424
30118	16.891	0.	0.1	1576.7
30119	16.983	0.	5.e-002	51.854
30120	16.706	0.	0.1	1619.1
30121	16.798	0.	5.e-002	51.247
30122	16.521	0.	0.1	1660.8
30123	16.614	0.	5.e-002	50.616
30124	16.337	0.	0.1	1701.6
30125	16.429	0.	5.e-002	49.977
30126	16.152	0.	0.1	1741.
30127	16.244	0.	5.e-002	49.349
30128	15.967	0.	0.1	1778.8
30129	16.06	0.	5.e-002	48.756
30130	15.783	0.	0.1	1814.3
30131	15.875	0.	5.e-002	48.228
30132	15.598	0.	0.1	1846.9
30133	15.69	0.	5.e-002	47.797
30134	15.413	0.	0.1	1875.7
30135	15.506	0.	5.e-002	47.504
30136	15.229	0.	0.1	1899.8
30137	15.321	0.	5.e-002	47.392
30138	15.044	0.	0.1	1917.9
30139	15.137	0.	5.e-002	47.508
30140	14.86	0.	0.1	1928.5
30141	14.952	0.	5.e-002	47.901
30142	14.675	0.	0.1	1929.5
30143	14.767	0.	5.e-002	48.615
30144	14.49	0.	0.1	1918.9
30145	14.583	0.	5.e-002	49.686
30146	14.306	0.	0.1	1893.8
30147	14.398	0.	5.e-002	51.126
30148	14.121	0.	0.1	1851.3
30149	14.213	0.	5.e-002	52.909
30150	13.936	0.	0.1	1787.7
30151	14.029	0.	5.e-002	54.95
30152	13.752	0.	0.1	1699.5
30153	13.844	0.	5.e-002	57.066
30154	13.567	0.	0.1	1582.7
30155	13.659	0.	5.e-002	58.945
30156	13.382	0.	0.1	1434.
30157	13.475	0.	5.e-002	60.093
30158	13.198	0.	0.1	1250.8
30159	13.29	0.	5.e-002	59.781
30160	13.013	0.	0.1	1031.9
30161	13.105	0.	5.e-002	57.013
30162	12.828	0.	0.1	777.17
30163	12.921	0.	5.e-002	50.351
30164	12.644	0.	0.1	484.94
30165	12.736	0.	5.e-002	38.248
30166	12.459	0.	0.1	175.95
30167	12.551	0.	5.e-002	15.071
30168	12.367	0.	5.e-002	18.314
30169	12.108	5.0568e-030	0.1	209.98
30170	12.2	5.0954e-030	5.e-002	21.162
30171	11.923	4.9796e-030	0.1	590.38
30172	12.015	0.	5.e-002	8.9687
30173	11.738	4.9024e-030	0.1	969.06
30174	11.83	0.	5.e-002	27.283
30175	11.553	4.8252e-030	0.1	1317.1
30176	11.645	0.	5.e-002	32.878
30177	11.368	4.748e-030	0.1	1634.7
30178	11.461	0.	5.e-002	32.25
30179	11.183	4.6708e-030	0.1	1920.3
30180	11.276	0.	5.e-002	27.356
30181	10.998	4.5936e-030	0.1	2173.9
30182	11.091	0.	5.e-002	20.001
30183	10.814	4.5164e-030	0.1	2396.9
30184	10.906	0.	5.e-002	11.507
30185	10.629	4.4392e-030	0.1	2592.
30186	10.721	0.	5.e-002	3.7906
30187	10.444	4.3619e-030	0.1	2762.4
30188	10.536	0.	5.e-002	7.5972
30189	10.259	4.2847e-030	0.1	2911.7
30190	10.352	0.	5.e-002	15.461
30191	10.074	4.2075e-030	0.1	3043.1
30192	10.167	0.	5.e-002	22.788
30193	9.8894	4.1303e-030	0.1	3159.7
30194	9.9818	0.	5.e-002	29.275
30195	9.7045	4.0531e-030	0.1	3264.2
30196	9.797	0.	5.e-002	34.871
30197	9.5197	3.9759e-030	0.1	3358.7
30198	9.6121	0.	5.e-002	39.596
30199	9.3348	3.8987e-030	0.1	3445.3
30200	9.4273	0.	5.e-002	43.502
30201	9.15	3.8215e-030	0.1	3525.5
30202	9.2424	0.	5.e-002	46.657
30203	8.9652	3.7443e-030	0.1	3600.6
30204	9.0576	0.	5.e-002	49.13
30205	8.7803	3.6671e-030	0.1	3671.8
30206	8.8727	0.	5.e-002	50.99
30207	8.5955	3.5899e-030	0.1	3739.8
30208	8.6879	0.	5.e-002	52.299
30209	8.4106	3.5127e-030	0.1	3805.5
30210	8.503	0.	5.e-002	53.113
30211	8.2258	3.4355e-030	0.1	3869.2
30212	8.3182	0.	5.e-002	53.477
30213	8.0409	3.3583e-030	0.1	3931.6
30214	8.1333	0.	5.e-002	53.43
30215	7.8561	3.2811e-030	0.1	3993.
30216	7.9485	0.	5.e-002	53.003
30217	7.6712	3.2039e-030	0.1	4053.6
30218	7.7636	0.	5.e-002	52.22
30219	7.4864	3.1267e-030	0.1	4113.8
30220	7.5788	0.	5.e-002	51.097
30221	7.3015	3.0495e-030	0.1	4173.6
30222	7.3939	0.	5.e-002	49.647
30223	7.1167	2.9723e-030	0.1	4233.3
30224	7.2091	0.	5.e-002	47.874
30225	6.9318	2.8951e-030	0.1	4293.
30226	7.0242	0.	5.e-002	45.78
30227	6.747	2.8179e-030	0.1	4352.8
30228	6.8394	0.	5.e-002	43.36
30229	6.5621	2.7407e-030	0.1	4412.8
30230	6.6545	0.	5.e-002	40.609
30231	6.3773	2.6635e-030	0.1	4473.
30232	6.4697	0.	5.e-002	37.514
30233	6.1924	2.5863e-030	0.1	4533.6
30234	6.2848	0.	5.e-002	34.062
30235	6.0076	2.5091e-030	0.1	4594.5
30236	6.1	0.	5.e-002	30.234
30237	5.8227	2.4319e-030	0.1	4655.9
30238	5.9152	0.	5.e-002	26.011
30239	5.6379	2.3547e-030	0.1	4717.7
30240	5.7303	0.	5.e-002	21.37
30241	5.453	2.2775e-030	0.1	4780.1
30242	5.5455	0.	5.e-002	16.291
30243	5.2682	2.2003e-030	0.1	4842.9
30244	5.3606	0.	5.e-002	10.761
30245	5.0833	2.1231e-030	0.1	4906.3
30246	5.1758	0.	5.e-002	4.8776
30247	4.8985	2.0459e-030	0.1	4970.3
30248	4.9909	0.	5.e-002	2.891
30249	4.7136	1.9687e-030	0.1	5034.8
30250	4.8061	0.	5.e-002	9.6092
30251	4.5288	1.8915e-030	0.1	5099.9
30252	4.6212	0.	5.e-002	17.408
30253	4.3439	1.8143e-030	0.1	5165.5
30254	4.4364	0.	5.e-002	25.945
30255	4.1591	1.7371e-030	0.1	5231.6
30256	4.2515	0.	5.e-002	35.237
30257	3.9742	1.6599e-030	0.1	5298.1
30258	4.0667	0.	5.e-002	45.33
30259	3.7894	1.5827e-030	0.1	5365.
30260	3.8818	0.	5.e-002	56.285
30261	3.6045	1.5055e-030	0.1	5432.
30262	3.697	0.	5.e-002	68.167
30263	3.4197	1.4282e-030	0.1	5499.1
30264	3.5121	0.	5.e-002	81.05
30265	3.2348	1.351e-030	0.1	5565.9
30266	3.3273	0.	5.e-002	95.016
30267	3.05	1.2738e-030	0.1	5632.
30268	3.1424	0.	5.e-002	110.16
30269	2.8652	1.1966e-030	0.1	5697.1
30270	2.9576	0.	5.e-002	126.57
30271	2.6803	1.1194e-030	0.1	5760.3
30272	2.7727	0.	5.e-002	144.38
30273	2.4955	1.0422e-030	0.1	5821.
30274	2.5879	0.	5.e-002	163.71
30275	2.3106	9.6503e-031	0.1	5877.9
30276	2.403	0.	5.e-002	184.72
30277	2.1258	8.8783e-031	0.1	5929.5
30278	2.2182	0.	5.e-002	207.59
30279	1.9409	8.1063e-031	0.1	5973.7
30280	2.0333	0.	5.e-002	232.54
30281	1.7561	7.3343e-031	0.1	6007.5
30282	1.8485	0.	5.e-002	259.85
30283	1.5712	6.5622e-031	0.1	6026.9
30284	1.6636	0.	5.e-002	289.86
30285	1.3864	5.7902e-031	0.1	6026.
30286	1.4788	0.	5.e-002	323.02
30287	1.2015	5.0182e-031	0.1	5995.7
30288	1.2939	0.	5.e-002	359.95
30289	1.0167	4.2461e-031	0.1	5921.9
30290	1.1091	0.	5.e-002	401.52
30291	0.83182	3.4741e-031	0.1	5781.3
30292	0.92424	0.	5.e-002	448.98
30293	0.64697	2.7021e-031	0.1	5528.5
30294	0.73939	0.	5.e-002	504.84
30295	0.46212	1.9301e-031	0.1	5077.3
30296	0.55455	0.	5.e-002	572.49
30297	0.27727	1.158e-031	0.1	4170.7
30298	0.3697	0.	5.e-002	663.82
30299	9.2424e-002	3.8601e-032	0.1	1953.8
30300	0.18485	0.	5.e-002	845.14
30301	0.	0.	5.e-002	1120.3
30302	9.2424e-002	6.	0.1	1953.8
30303	5.2451e-014	6.	5.e-002	1120.3
30304	0.27727	6.	0.1	4170.7
30305	0.18485	6.	5.e-002	845.14
30306	0.46212	6.	0.1	5077.3
30307	0.3697	6.	5.e-002	663.82
30308	0.64697	6.	0.1	5528.5
30309	0.55455	6.	5.e-002	572.49
30310	0.83182	6.	0.1	5781.3
30311	0.73939	6.	5.e-002	504.84
30312	1.0167	6.	0.1	5921.9
30313	0.92424	6.	5.e-002	448.98
30314	1.2015	6.	0.1	5995.7
30315	1.1091	6.	5.e-002	401.52
30316	1.3864	6.	0.1	6026.
30317	1.2939	6.	5.e-002	359.94
30318	1.5712	6.	0.1	6026.9
30319	1.4788	6.	5.e-002	323.02
30320	1.7561	6.	0.1	6007.5
30321	1.6636	6.	5.e-002	289.86
30322	1.9409	6.	0.1	5973.7
30323	1.8485	6.	5.e-002	259.85
30324	2.1258	6.	0.1	5929.5
30325	2.0333	6.	5.e-002	232.54
30326	2.3106	6.	0.1	5877.9
30327	2.2182	6.	5.e-002	207.59
30328	2.4955	6.	0.1	5821.
30329	2.403	6.	5.e-002	184.72
30330	2.6803	6.	0.1	5760.3
30331	2.5879	6.	5.e-002	163.71
30332	2.8652	6.	0.1	5697.1
30333	2.7727	6.	5.e-002	144.38
30334	3.05	6.	0.1	5632.
30335	2.9576	6.	5.e-002	126.57
30336	3.2348	6.	0.1	5565.9
30337	3.1424	6.	5.e-002	110.15
30338	3.4197	6.	0.1	5499.1
30339	3.3273	6.	5.e-002	95.015
30340	3.6045	6.	0.1	5432.
30341	3.5121	6.	5.e-002	81.05
30342	3.7894	6.	0.1	5365.
30343	3.697	6.	5.e-002	68.166
30344	3.9742	6.	0.1	5298.1
30345	3.8818	6.	5.e-002	56.284
30346	4.1591	6.	0.1	5231.6
30347	4.0667	6.	5.e-002	45.33
30348	4.3439	6.	0.1	5165.5
30349	4.2515	6.	5.e-002	35.236
30350	4.5288	6.	0.1	5099.9
30351	4.4364	6.	5.e-002	25.945
30352	4.7136	6.	0.1	5034.8
30353	4.6212	6.	5.e-002	17.408
30354	4.8985	6.	0.1	4970.3
30355	4.8061	6.	5.e-002	9.6088
30356	5.0833	6.	0.1	4906.3
30357	4.9909	6.	5.e-002	2.8908
30358	5.2682	6.	0.1	4842.9
30359	5.1758	6.	5.e-002	4.8773
30360	5.453	6.	0.1	4780.1
30361	5.3606	6.	5.e-002	10.761
30362	5.6379	6.	0.1	4717.7
30363	5.5455	6.	5.e-002	16.29
30364	5.8227	6.	0.1	4655.9
30365	5.7303	6.	5.e-002	21.37
30366	6.0076	6.	0.1	4594.5
30367	5.9152	6.	5.e-002	26.01
30368	6.1924	6.	0.1	4533.6
30369	6.1	6.	5.e-002	30.234
30370	6.3773	6.	0.1	4473.
30371	6.2848	6.	5.e-002	34.061
30372	6.5621	6.	0.1	4412.8
30373	6.4697	6.	5.e-002	37.514
30374	6.747	6.	0.1	4352.8
30375	6.6545	6.	5.e-002	40.609
30376	6.9318	6.	0.1	4293.
30377	6.8394	6.	5.e-002	43.36
30378	7.1167	6.	0.1	4233.3
30379	7.0242	6.	5.e-002	45.779
30380	7.3015	6.	0.1	4173.6
30381	7.2091	6.	5.e-002	47.874
30382	7.4864	6.	0.1	4113.8
30383	7.3939	6.	5.e-002	49.647
30384	7.6712	6.	0.1	4053.6
30385	7.5788	6.	5.e-002	51.097
30386	7.8561	6.	0.1	3993.
30387	7.7636	6.	5.e-002	52.22
30388	8.0409	6.	0.1	3931.6
30389	7.9485	6.	5.e-002	53.003
30390	8.2258	6.	0.1	3869.2
30391	8.1333	6.	5.e-002	53.429
30392	8.4106	6.	0.1	3805.5
30393	8.3182	6.	5.e-002	53.476
30394	8.5955	6.	0.1	3739.8
30395	8.503	6.	5.e-002	53.112
30396	8.7803	6.	0.1	3671.8
30397	8.6879	6.	5.e-002	52.299
30398	8.9652	6.	0.1	3600.6
30399	8.8727	6.	5.e-002	50.99
30400	9.15	6.	0.1	3525.5
30401	9.0576	6.	5.e-002	49.13
30402	9.3348	6.	0.1	3445.3
30403	9.2424	6.	5.e-002	46.656
30404	9.5197	6.	0.1	3358.7
30405	9.4273	6.	5.e-002	43.502
30406	9.7045	6.	0.1	3264.2
30407	9.6121	6.	5.e-002	39.596
30408	9.8894	6.	0.1	3159.7
30409	9.797	6.	5.e-002	34.871
30410	10.074	6.	0.1	3043.1
30411	9.9818	6.	5.e-002	29.275
30412	10.259	6.	0.1	2911.7
30413	10.167	6.	5.e-002	22.788
30414	10.444	6.	0.1	2762.4
30415	10.352	6.	5.e-002	15.461
30416	10.629	6.	0.1	2592.
30417	10.536	6.	5.e-002	7.5971
30418	10.814	6.	0.1	2396.9
30419	10.721	6.	5.e-002	3.7905
30420	10.998	6.	0.1	2173.9
30421	10.906	6.	5.e-002	11.507
30422	11.183	6.	0.1	1920.3
30423	11.091	6.	5.e-002	20.001
30424	11.368	6.	0.1	1634.7
30425	11.276	6.	5.e-002	27.356
30426	11.553	6.	0.1	1317.1
30427	11.461	6.	5.e-002	32.25
30428	11.738	6.	0.1	969.06
30429	11.645	6.	5.e-002	32.878
30430	11.923	6.	0.1	590.38
30431	11.83	6.	5.e-002	27.283
30432	12.108	6.	0.1	209.98
30433	12.015	6.	5.e-002	8.9687
30434	12.2	6.	5.e-002	21.162
30435	11.923	6.	0.	10.182
30436	12.108	6.	0.	3.4099
30437	11.738	6.	0.	10.944
30438	11.553	6.	0.	10.732
30439	11.368	6.	0.	9.724
30440	11.183	6.	0.	8.445
30441	10.998	6.	0.	7.2375
30442	10.814	6.	0.	6.2171
30443	10.629	6.	0.	5.4162
30444	10.444	6.	0.	4.8154
30445	10.259	6.	0.	4.3766
30446	10.074	6.	0.	4.0579
30447	9.8894	6.	0.	3.8216
30448	9.7045	6.	0.	3.6369
30449	9.5197	6.	0.	3.4804
30450	9.3348	6.	0.	3.3349
30451	9.15	6.	0.	3.1889
30452	8.9652	6.	0.	3.0346
30453	8.7803	6.	0.	2.8673
30454	8.5955	6.	0.	2.6842
30455	8.4106	6.	0.	2.4839
30456	8.2258	6.	0.	2.266
30457	8.0409	6.	0.	2.0305
30458	7.8561	6.	0.	1.7778
30459	7.6712	6.	0.	1.5088
30460	7.4864	6.	0.	1.2243
30461	7.3015	6.	0.	0.92542
30462	7.1167	6.	0.	0.61339
30463	6.9318	6.	0.	0.3857
30464	6.747	6.	0.	0.43867
30465	6.5621	6.	0.	0.49344
30466	6.3773	6.	0.	0.55054
30467	6.1924	6.	0.	0.61054
30468	6.0076	6.	0.	0.67399
30469	5.8227	6.	0.	0.74139
30470	5.6379	6.	0.	0.81329
30471	5.453	6.	0.	0.89023
30472	5.2682	6.	0.	0.97277
30473	5.0833	6.	0.	1.0615
30474	4.8985	6.	0.	1.1572
30475	4.7136	6.	0.	1.2605
30476	4.5288	6.	0.	1.3724
30477	4.3439	6.	0.	1.4939
30478	4.1591	6.	0.	1.6266
30479	3.9742	6.	0.	1.7727
30480	3.7894	6.	0.	1.9358
30481	3.6045	6.	0.	2.1231
30482	3.4197	6.	0.	2.3525
30483	3.2348	6.	0.	2.6854
30484	3.05	6.	0.	3.3967
30485	2.8652	6.	0.	5.0361
30486	2.6803	6.	0.	7.5259
30487	2.4955	6.	0.	10.738
30488	2.3106	6.	0.	14.739
30489	2.1258	6.	0.	19.675
30490	1.9409	6.	0.	25.744
30491	1.7561	6.	0.	33.219
30492	1.5712	6.	0.	42.47
30493	1.3864	6.	0.	54.045
30494	1.2015	6.	0.	68.721
30495	1.0167	6.	0.	87.926
30496	0.83182	6.	0.	113.73
30497	0.64697	6.	0.	151.49
30498	0.46212	6.	0.	213.04
30499	0.27727	6.	0.	334.98
30500	9.2424e-002	6.	0.	897.89
30501	12.2	5.9091	0.	19.705
30502	5.1657e-014	5.9091	0.	143.74
30503	0.27727	1.158e-031	0.	334.98
30504	9.2424e-002	3.8601e-032	0.	897.9
30505	0.46212	1.9301e-031	0.	213.04
30506	0.64697	2.7021e-031	0.	151.49
30507	0.83182	3.4741e-031	0.	113.73
30508	1.0167	4.2461e-031	0.	87.926
30509	1.2015	5.0182e-031	0.	68.721
30510	1.3864	5.7902e-031	0.	54.045
30511	1.5712	6.5622e-031	0.	42.47
30512	1.7561	7.3343e-031	0.	33.219
30513	1.9409	8.1063e-031	0.	25.744
30514	2.1258	8.8783e-031	0.	19.675
30515	2.3106	9.6503e-031	0.	14.74
30516	2.4955	1.0422e-030	0.	10.738
30517	2.6803	1.1194e-030	0.	7.5259
30518	2.8652	1.1966e-030	0.	5.0361
30519	3.05	1.2738e-030	0.	3.3967
30520	3.2348	1.351e-030	0.	2.6854
30521	3.4197	1.4282e-030	0.	2.3525
30522	3.6045	1.5055e-030	0.	2.1231
30523	3.7894	1.5827e-030	0.	1.9358
30524	3.9742	1.6599e-030	0.	1.7727
30525	4.1591	1.7371e-030	0.	1.6267
30526	4.3439	1.8143e-030	0.	1.4939
30527	4.5288	1.8915e-030	0.	1.3724
30528	4.7136	1.9687e-030	0.	1.2605
30529	4.8985	2.0459e-030	0.	1.1572
30530	5.0833	2.1231e-030	0.	1.0615
30531	5.2682	2.2003e-030	0.	0.97278
30532	5.453	2.2775e-030	0.	0.89023
30533	5.6379	2.3547e-030	0.	0.81329
30534	5.8227	2.4319e-030	0.	0.74139
30535	6.0076	2.5091e-030	0.	0.67399
30536	6.1924	2.5863e-030	0.	0.61055
30537	6.3773	2.6635e-030	0.	0.55054
30538	6.5621	2.7407e-030	0.	0.49344
30539	6.747	2.8179e-030	0.	0.43868
30540	6.9318	2.8951e-030	0.	0.3857
30541	7.1167	2.9723e-030	0.	0.61338
30542	7.3015	3.0495e-030	0.	0.92542
30543	7.4864	3.1267e-030	0.	1.2243
30544	7.6712	3.2039e-030	0.	1.5088
30545	7.8561	3.2811e-030	0.	1.7778
30546	8.0409	3.3583e-030	0.	2.0305
30547	8.2258	3.4355e-030	0.	2.2659
30548	8.4106	3.5127e-030	0.	2.4839
30549	8.5955	3.5899e-030	0.	2.6842
30550	8.7803	3.6671e-030	0.	2.8673
30551	8.9652	3.7443e-030	0.	3.0346
30552	9.15	3.8215e-030	0.	3.1889
30553	9.3348	3.8987e-030	0.	3.3349
30554	9.5197	3.9759e-030	0.	3.4803
30555	9.7045	4.0531e-030	0.	3.6369
30556	9.8894	4.1303e-030	0.	3.8216
30557	10.074	4.2075e-030	0.	4.0579
30558	10.259	4.2847e-030	0.	4.3766
30559	10.444	4.3619e-030	0.	4.8154
30560	10.629	4.4392e-030	0.	5.4162
30561	10.814	4.5164e-030	0.	6.2171
30562	10.998	4.5936e-030	0.	7.2375
30563	11.183	4.6708e-030	0.	8.445
30564	11.368	4.748e-030	0.	9.724
30565	11.553	4.8252e-030	0.	10.732
30566	11.738	4.9024e-030	0.	10.944
30567	11.923	4.9796e-030	0.	10.182
30568	12.108	5.0568e-030	0.	3.4099
30569	12.2	9.0909e-002	0.	19.705
30570	7.9472e-016	9.0909e-002	0.	143.74
30571	12.644	0.	0.	12.757
30572	12.459	0.	0.	4.0866
30573	12.828	0.	0.	15.556
30574	13.013	0.	0.	16.513
30575	13.198	0.	0.	16.002
30576	13.382	0.	0.	14.69
30577	13.567	0.	0.	13.077
30578	13.752	0.	0.	11.425
30579	13.936	0.	0.	9.8853
30580	14.121	0.	0.	8.5288
30581	14.306	0.	0.	7.3796
30582	14.49	0.	0.	6.436
30583	14.675	0.	0.	5.6833
30584	14.86	0.	0.	5.1014
30585	15.044	0.	0.	4.6693
30586	15.229	0.	0.	4.3666
30587	15.413	0.	0.	4.175
30588	15.598	0.	0.	4.0784
30589	15.783	0.	0.	4.0623
30590	15.967	0.	0.	4.1145
30591	16.152	0.	0.	4.2241
30592	16.337	0.	0.	4.3819
30593	16.521	0.	0.	4.5798
30594	16.706	0.	0.	4.8108
30595	16.891	0.	0.	5.0689
30596	17.075	0.	0.	5.349
30597	17.26	0.	0.	5.6467
30598	17.445	0.	0.	5.9582
30599	17.629	0.	0.	6.2806
30600	17.814	0.	0.	6.611
30601	17.999	0.	0.	6.9474
30602	18.183	0.	0.	7.2879
30603	18.368	0.	0.	7.631
30604	18.553	0.	0.	7.9755
30605	18.737	0.	0.	8.3204
30606	18.922	0.	0.	8.6648
30607	19.107	0.	0.	9.0081
30608	19.291	0.	0.	9.3497
30609	19.476	0.	0.	9.6889
30610	19.661	0.	0.	10.025
30611	19.845	0.	0.	10.359
30612	20.03	0.	0.	10.688
30613	20.215	0.	0.	11.013
30614	20.399	0.	0.	11.333
30615	20.584	0.	0.	11.647
30616	20.769	0.	0.	11.954
30617	20.953	0.	0.	12.253
30618	21.138	0.	0.	12.543
30619	21.322	0.	0.	12.823
30620	21.507	0.	0.	13.089
30621	21.692	0.	0.	13.34
30622	21.876	0.	0.	13.572
30623	22.061	0.	0.	13.783
30624	22.246	0.	0.	13.966
30625	22.43	0.	0.	14.116
30626	22.615	0.	0.	14.225
30627	22.8	0.	0.	14.281
30628	22.984	0.	0.	14.265
30629	23.169	0.	0.	14.153
30630	23.354	0.	0.	13.886
30631	23.538	0.	0.	13.416
30632	23.723	0.	0.	12.054
30633	23.908	0.	0.	8.3784
30634	12.367	9.0909e-002	0.	13.658
30635	24.	9.0909e-002	0.	19.897
30636	5.0067e-014	5.7273	0.	-1664.9
30637	4.8478e-014	5.5455	0.	-2515.2
30638	4.6888e-014	5.3636	0.	-2949.1
30639	4.5299e-014	5.1818	0.	-3219.2
30640	4.371e-014	5.	0.	-3403.7
30641	4.212e-014	4.8182	0.	-3537.2
30642	4.0531e-014	4.6364	0.	-3637.
30643	3.8941e-014	4.4545	0.	-3713.1
30644	3.7352e-014	4.2727	0.	-3771.9
30645	3.5762e-014	4.0909	0.	-3817.5
30646	3.4173e-014	3.9091	0.	-3852.8
30647	3.2583e-014	3.7273	0.	-3879.5
30648	3.0994e-014	3.5455	0.	-3899.2
30649	2.9405e-014	3.3636	0.	-3912.7
30650	2.7815e-014	3.1818	0.	-3920.6
30651	2.6226e-014	3.	0.	-3923.3
30652	2.4636e-014	2.8182	0.	-3920.6
30653	2.3047e-014	2.6364	0.	-3912.7
30654	2.1457e-014	2.4545	0.	-3899.2
30655	1.9868e-014	2.2727	0.	-3879.5
30656	1.8279e-014	2.0909	0.	-3852.8
30657	1.6689e-014	1.9091	0.	-3817.5
30658	1.51e-014	1.7273	0.	-3771.9
30659	1.351e-014	1.5455	0.	-3713.1
30660	1.1921e-014	1.3636	0.	-3637.
30661	1.0331e-014	1.1818	0.	-3537.2
30662	8.7419e-015	1.	0.	-3403.7
30663	7.1525e-015	0.81818	0.	-3219.2
30664	5.563e-015	0.63636	0.	-2949.1
30665	3.9736e-015	0.45455	0.	-2515.2
30666	2.3842e-015	0.27273	0.	-1664.9
30667	24.	0.27273	0.	49.131
30668	24.	0.45455	0.	72.725
30669	24.	0.63636	0.	91.436
30670	24.	0.81818	0.	107.1
30671	24.	1.	0.	120.49
30672	24.	1.1818	0.	132.01
30673	24.	1.3636	0.	141.96
30674	24.	1.5455	0.	150.53
30675	24.	1.7273	0.	157.85
30676	24.	1.9091	0.	164.03
30677	24.	2.0909	0.	169.14
30678	24.	2.2727	0.	173.26
30679	24.	2.4545	0.	176.41
30680	24.	2.6364	0.	178.65
30681	24.	2.8182	0.	179.98
30682	24.	3.	0.	180.42
30683	24.	3.1818	0.	179.98
30684	24.	3.3636	0.	178.65
30685	24.	3.5455	0.	176.41
30686	24.	3.7273	0.	173.26
30687	24.	3.9091	0.	169.14
30688	24.	4.0909	0.	164.03
30689	24.	4.2727	0.	157.85
30690	24.	4.4545	0.	150.53
30691	24.	4.6364	0.	141.96
30692	24.	4.8182	0.	132.01
30693	24.	5.	0.	120.49
30694	24.	5.1818	0.	107.1
30695	24.	5.3636	0.	91.436
30696	24.	5.5455	0.	72.725
30697	24.	5.7273	0.	49.131
30698	24.	5.9091	0.	19.897
30699	23.908	6.	0.	8.3784
30700	23.723	6.	0.	12.054
30701	23.538	6.	0.	13.416
30702	23.354	6.	0.	13.886
30703	23.169	6.	0.	14.153
30704	22.984	6.	0.	14.265
30705	22.8	6.	0.	14.281
30706	22.615	6.	0.	14.225
30707	22.43	6.	0.	14.116
30708	22.246	6.	0.	13.966
30709	22.061	6.	0.	13.783
30710	21.876	6.	0.	13.572
30711	21.692	6.	0.	13.34
30712	21.507	6.	0.	13.089
30713	21.322	6.	0.	12.823
30714	21.138	6.	0.	12.544
30715	20.953	6.	0.	12.253
30716	20.769	6.	0.	11.954
30717	20.584	6.	0.	11.647
30718	20.399	6.	0.	11.333
30719	20.215	6.	0.	11.013
30720	20.03	6.	0.	10.688
30721	19.845	6.	0.	10.359
30722	19.661	6.	0.	10.025
30723	19.476	6.	0.	9.689
30724	19.291	6.	0.	9.3497
30725	19.107	6.	0.	9.0082
30726	18.922	6.	0.	8.6649
30727	18.737	6.	0.	8.3204
30728	18.553	6.	0.	7.9755
30729	18.368	6.	0.	7.631
30730	18.183	6.	0.	7.2879
30731	17.999	6.	0.	6.9474
30732	17.814	6.	0.	6.611
30733	17.629	6.	0.	6.2806
30734	17.445	6.	0.	5.9582
30735	17.26	6.	0.	5.6467
30736	17.075	6.	0.	5.349
30737	16.891	6.	0.	5.0689
30738	16.706	6.	0.	4.8108
30739	16.521	6.	0.	4.5798
30740	16.337	6.	0.	4.3819
30741	16.152	6.	0.	4.2242
30742	15.967	6.	0.	4.1145
30743	15.783	6.	0.	4.0623
30744	15.598	6.	0.	4.0784
30745	15.413	6.	0.	4.175
30746	15.229	6.	0.	4.3666
30747	15.044	6.	0.	4.6693
30748	14.86	6.	0.	5.1014
30749	14.675	6.	0.	5.6833
30750	14.49	6.	0.	6.436
30751	14.306	6.	0.	7.3796
30752	14.121	6.	0.	8.5288
30753	13.936	6.	0.	9.8853
30754	13.752	6.	0.	11.425
30755	13.567	6.	0.	13.077
30756	13.382	6.	0.	14.69
30757	13.198	6.	0.	16.002
30758	13.013	6.	0.	16.513
30759	12.828	6.	0.	15.556
30760	12.644	6.	0.	12.757
30761	12.459	6.	0.	4.0866
30762	12.367	5.9091	0.	13.658
30763	12.2	1.7273	0.	2940.1
30764	12.2	1.9091	0.	3094.2
30765	12.2	1.5455	0.	1754.3
30766	12.2	1.3636	0.	1331.8
30767	12.2	1.1818	0.	995.56
30768	12.2	1.	0.	744.08
30769	12.2	0.81818	0.	542.17
30770	12.2	0.63636	0.	374.85
30771	12.2	0.45455	0.	234.58
30772	12.2	0.27273	0.	117.82
30773	12.283	2.	0.	1622.
30774	12.367	0.27273	0.	81.55
30775	12.367	0.45455	0.	158.71
30776	12.367	0.63636	0.	249.23
30777	12.367	0.81818	0.	356.24
30778	12.367	1.	0.	485.52
30779	12.367	1.1818	0.	647.8
30780	12.367	1.3636	0.	870.88
30781	12.367	1.5455	0.	1133.
30782	12.367	1.7273	0.	2031.6
30783	12.367	1.9091	0.	1913.8
30784	12.2	4.2727	0.	2940.1
30785	12.2	4.0909	0.	3094.2
30786	12.2	4.4545	0.	1754.3
30787	12.2	4.6364	0.	1331.8
30788	12.2	4.8182	0.	995.56
30789	12.2	5.	0.	744.08
30790	12.2	5.1818	0.	542.17
30791	12.2	5.3636	0.	374.85
30792	12.2	5.5455	0.	234.58
30793	12.2	5.7273	0.	117.82
30794	12.283	4.	0.	1622.
30795	12.367	5.7273	0.	81.55
30796	12.367	5.5455	0.	158.71
30797	12.367	5.3636	0.	249.23
30798	12.367	5.1818	0.	356.24
30799	12.367	5.	0.	485.52
30800	12.367	4.8182	0.	647.8
30801	12.367	4.6364	0.	870.88
30802	12.367	4.4545	0.	1133.
30803	12.367	4.2727	0.	2031.6
30804	12.367	4.0909	0.	1913.8
