Node Number	X Location (in)	Y Location (in)	Z Location (in)	Middle Principal Stress (psi)
1	23.1	2.1818	0.	15.397
2	23.1	2.3636	0.	-1.5623
3	23.1	2.5455	0.	-0.26432
4	23.1	2.7273	0.	-0.21342
5	23.1	2.9091	0.	-0.16005
6	23.1	3.0909	0.	-0.16004
7	23.1	3.2727	0.	-0.21342
8	23.1	3.4545	0.	-0.26432
9	23.1	3.6364	0.	-1.5623
10	23.1	3.8182	0.	15.397
11	23.45	2.	0.	-34.889
12	23.633	2.	0.	-2.5119
13	23.817	2.	0.	-2.9149
14	23.817	4.	0.	-2.9149
15	23.633	4.	0.	-2.5119
16	23.45	4.	0.	-34.889
17	22.915	5.8182	0.	-0.11121
18	22.915	5.6364	0.	-2.3882e-002
19	22.915	5.4545	0.	-3.5424e-002
20	22.915	5.2727	0.	-5.2766e-002
21	22.915	5.0909	0.	-4.3019e-002
22	22.915	4.9091	0.	-0.14982
23	22.915	4.7273	0.	0.19805
24	22.915	4.5455	0.	-1.1261
25	22.915	4.3636	0.	3.3383
26	22.915	4.1818	0.	-3.2738
27	22.915	4.	0.	-30.129
28	22.915	3.8182	0.	1.2345
29	22.915	3.6364	0.	-2.4826
30	22.915	3.4545	0.	-4.9187e-002
31	22.915	3.2727	0.	-0.35991
32	22.915	3.0909	0.	-0.1685
33	22.915	2.9091	0.	-0.1685
34	22.915	2.7273	0.	-0.35991
35	22.915	2.5455	0.	-4.9188e-002
36	22.915	2.3636	0.	-2.4826
37	22.915	2.1818	0.	1.2345
38	22.915	2.	0.	-30.129
39	22.915	1.8182	0.	-3.2737
40	22.915	1.6364	0.	3.3383
41	22.915	1.4545	0.	-1.1261
42	22.915	1.2727	0.	0.19805
43	22.915	1.0909	0.	-0.14982
44	22.915	0.90909	0.	-4.3019e-002
45	22.915	0.72727	0.	-5.2764e-002
46	22.915	0.54545	0.	-3.5421e-002
47	22.915	0.36364	0.	-2.3883e-002
48	22.915	0.18182	0.	-0.11121
49	22.73	5.8182	0.	0.41992
50	22.73	5.6364	0.	0.33413
51	22.73	5.4545	0.	0.34931
52	22.73	5.2727	0.	0.35236
53	22.73	5.0909	0.	0.36285
54	22.73	4.9091	0.	0.3981
55	22.73	4.7273	0.	0.40457
56	22.73	4.5455	0.	0.47431
57	22.73	4.3636	0.	1.162
58	22.73	4.1818	0.	2.3005
59	22.73	4.	0.	1.9136
60	22.73	3.8182	0.	1.7572
61	22.73	3.6364	0.	-0.49615
62	22.73	3.4545	0.	-0.18547
63	22.73	3.2727	0.	-0.15172
64	22.73	3.0909	0.	-7.5318e-002
65	22.73	2.9091	0.	-7.5315e-002
66	22.73	2.7273	0.	-0.15172
67	22.73	2.5455	0.	-0.18547
68	22.73	2.3636	0.	-0.49615
69	22.73	2.1818	0.	1.7572
70	22.73	2.	0.	1.9136
71	22.73	1.8182	0.	2.3005
72	22.73	1.6364	0.	1.162
73	22.73	1.4545	0.	0.47431
74	22.73	1.2727	0.	0.40457
75	22.73	1.0909	0.	0.39811
76	22.73	0.90909	0.	0.36285
77	22.73	0.72727	0.	0.35236
78	22.73	0.54545	0.	0.34931
79	22.73	0.36364	0.	0.33412
80	22.73	0.18182	0.	0.41992
81	22.546	5.8182	0.	0.10782
82	22.546	5.6364	0.	8.4433e-002
83	22.546	5.4545	0.	0.12745
84	22.546	5.2727	0.	0.1127
85	22.546	5.0909	0.	0.11032
86	22.546	4.9091	0.	9.1634e-002
87	22.546	4.7273	0.	0.10605
88	22.546	4.5455	0.	0.19417
89	22.546	4.3636	0.	-0.40382
90	22.546	4.1818	0.	0.11325
91	22.546	4.	0.	-3.842e-002
92	22.546	3.8182	0.	-0.60035
93	22.546	3.6364	0.	-5.7568e-004
94	22.546	3.4545	0.	-0.1133
95	22.546	3.2727	0.	-8.9347e-002
96	22.546	3.0909	0.	-7.1307e-002
97	22.546	2.9091	0.	-7.1307e-002
98	22.546	2.7273	0.	-8.9347e-002
99	22.546	2.5455	0.	-0.1133
100	22.546	2.3636	0.	-5.7664e-004
101	22.546	2.1818	0.	-0.60036
102	22.546	2.	0.	-3.8419e-002
103	22.546	1.8182	0.	0.11325
104	22.546	1.6364	0.	-0.40382
105	22.546	1.4545	0.	0.19417
106	22.546	1.2727	0.	0.10605
107	22.546	1.0909	0.	9.1636e-002
108	22.546	0.90909	0.	0.11032
109	22.546	0.72727	0.	0.1127
110	22.546	0.54545	0.	0.12744
111	22.546	0.36364	0.	8.443e-002
112	22.546	0.18182	0.	0.10782
113	22.361	5.8182	0.	6.3198e-003
114	22.361	5.6364	0.	3.3092e-002
115	22.361	5.4545	0.	0.1007
116	22.361	5.2727	0.	9.3323e-002
117	22.361	5.0909	0.	9.4323e-002
118	22.361	4.9091	0.	9.6542e-002
119	22.361	4.7273	0.	9.4612e-002
120	22.361	4.5455	0.	9.5871e-002
121	22.361	4.3636	0.	0.30254
122	22.361	4.1818	0.	0.17247
123	22.361	4.	0.	0.16377
124	22.361	3.8182	0.	0.26073
125	22.361	3.6364	0.	-5.4136e-003
126	22.361	3.4545	0.	-5.5587e-002
127	22.361	3.2727	0.	-3.9983e-002
128	22.361	3.0909	0.	-3.7188e-002
129	22.361	2.9091	0.	-3.7187e-002
130	22.361	2.7273	0.	-3.9982e-002
131	22.361	2.5455	0.	-5.5588e-002
132	22.361	2.3636	0.	-5.4146e-003
133	22.361	2.1818	0.	0.26073
134	22.361	2.	0.	0.16377
135	22.361	1.8182	0.	0.17247
136	22.361	1.6364	0.	0.30254
137	22.361	1.4545	0.	9.5872e-002
138	22.361	1.2727	0.	9.4614e-002
139	22.361	1.0909	0.	9.6544e-002
140	22.361	0.90909	0.	9.4326e-002
141	22.361	0.72727	0.	9.3325e-002
142	22.361	0.54545	0.	0.10069
143	22.361	0.36364	0.	3.309e-002
144	22.361	0.18182	0.	6.3199e-003
145	22.176	5.8182	0.	-7.7189e-002
146	22.176	5.6364	0.	-2.7133e-002
147	22.176	5.4545	0.	5.664e-002
148	22.176	5.2727	0.	5.4455e-002
149	22.176	5.0909	0.	5.9998e-002
150	22.176	4.9091	0.	6.3503e-002
151	22.176	4.7273	0.	7.5635e-002
152	22.176	4.5455	0.	8.9935e-002
153	22.176	4.3636	0.	7.5831e-002
154	22.176	4.1818	0.	0.12015
155	22.176	4.	0.	9.7874e-002
156	22.176	3.8182	0.	1.6097e-002
157	22.176	3.6364	0.	8.5786e-003
158	22.176	3.4545	0.	-4.4924e-003
159	22.176	3.2727	0.	-1.853e-002
160	22.176	3.0909	0.	-1.759e-002
161	22.176	2.9091	0.	-1.759e-002
162	22.176	2.7273	0.	-1.8529e-002
163	22.176	2.5455	0.	-4.4906e-003
164	22.176	2.3636	0.	8.5802e-003
165	22.176	2.1818	0.	1.6096e-002
166	22.176	2.	0.	9.7874e-002
167	22.176	1.8182	0.	0.12015
168	22.176	1.6364	0.	7.5831e-002
169	22.176	1.4545	0.	8.9935e-002
170	22.176	1.2727	0.	7.5634e-002
171	22.176	1.0909	0.	6.3503e-002
172	22.176	0.90909	0.	5.9999e-002
173	22.176	0.72727	0.	5.4455e-002
174	22.176	0.54545	0.	5.6641e-002
175	22.176	0.36364	0.	-2.7139e-002
176	22.176	0.18182	0.	-7.7195e-002
177	21.991	5.8182	0.	-0.11195
178	21.991	5.6364	0.	-5.8579e-002
179	21.991	5.4545	0.	3.4841e-002
180	21.991	5.2727	0.	3.7619e-002
181	21.991	5.0909	0.	4.8162e-002
182	21.991	4.9091	0.	5.5732e-002
183	21.991	4.7273	0.	6.6213e-002
184	21.991	4.5455	0.	8.1459e-002
185	21.991	4.3636	0.	0.10006
186	21.991	4.1818	0.	9.5183e-002
187	21.991	4.	0.	8.2292e-002
188	21.991	3.8182	0.	6.4129e-002
189	21.991	3.6364	0.	3.0216e-002
190	21.991	3.4545	0.	7.5402e-003
191	21.991	3.2727	0.	3.6753e-004
192	21.991	3.0909	0.	-2.4452e-003
193	21.991	2.9091	0.	-2.445e-003
194	21.991	2.7273	0.	3.6594e-004
195	21.991	2.5455	0.	7.5429e-003
196	21.991	2.3636	0.	3.0214e-002
197	21.991	2.1818	0.	6.413e-002
198	21.991	2.	0.	8.2292e-002
199	21.991	1.8182	0.	9.5183e-002
200	21.991	1.6364	0.	0.10006
201	21.991	1.4545	0.	8.146e-002
202	21.991	1.2727	0.	6.6214e-002
203	21.991	1.0909	0.	5.5731e-002
204	21.991	0.90909	0.	4.8163e-002
205	21.991	0.72727	0.	3.7621e-002
206	21.991	0.54545	0.	3.4844e-002
207	21.991	0.36364	0.	-5.858e-002
208	21.991	0.18182	0.	-0.11195
209	21.806	5.8182	0.	-0.12201
210	21.806	5.6364	0.	-7.734e-002
211	21.806	5.4545	0.	1.9589e-002
212	21.806	5.2727	0.	2.6005e-002
213	21.806	5.0909	0.	3.9151e-002
214	21.806	4.9091	0.	4.8132e-002
215	21.806	4.7273	0.	5.8472e-002
216	21.806	4.5455	0.	6.8034e-002
217	21.806	4.3636	0.	7.3655e-002
218	21.806	4.1818	0.	7.4612e-002
219	21.806	4.	0.	6.4932e-002
220	21.806	3.8182	0.	4.733e-002
221	21.806	3.6364	0.	3.1428e-002
222	21.806	3.4545	0.	1.9039e-002
223	21.806	3.2727	0.	1.0985e-002
224	21.806	3.0909	0.	7.7214e-003
225	21.806	2.9091	0.	7.7189e-003
226	21.806	2.7273	0.	1.0984e-002
227	21.806	2.5455	0.	1.9038e-002
228	21.806	2.3636	0.	3.1429e-002
229	21.806	2.1818	0.	4.733e-002
230	21.806	2.	0.	6.4932e-002
231	21.806	1.8182	0.	7.4612e-002
232	21.806	1.6364	0.	7.3656e-002
233	21.806	1.4545	0.	6.8033e-002
234	21.806	1.2727	0.	5.8472e-002
235	21.806	1.0909	0.	4.8134e-002
236	21.806	0.90909	0.	3.9153e-002
237	21.806	0.72727	0.	2.6005e-002
238	21.806	0.54545	0.	1.9591e-002
239	21.806	0.36364	0.	-7.7344e-002
240	21.806	0.18182	0.	-0.12202
241	21.622	5.8182	0.	-0.11647
242	21.622	5.6364	0.	-8.5879e-002
243	21.622	5.4545	0.	1.0221e-002
244	21.622	5.2727	0.	1.8881e-002
245	21.622	5.0909	0.	3.3253e-002
246	21.622	4.9091	0.	4.2399e-002
247	21.622	4.7273	0.	5.1345e-002
248	21.622	4.5455	0.	5.8753e-002
249	21.622	4.3636	0.	6.3191e-002
250	21.622	4.1818	0.	6.2102e-002
251	21.622	4.	0.	5.572e-002
252	21.622	3.8182	0.	4.5523e-002
253	21.622	3.6364	0.	3.3794e-002
254	21.622	3.4545	0.	2.3983e-002
255	21.622	3.2727	0.	1.7688e-002
256	21.622	3.0909	0.	1.4721e-002
257	21.622	2.9091	0.	1.4721e-002
258	21.622	2.7273	0.	1.7689e-002
259	21.622	2.5455	0.	2.3984e-002
260	21.622	2.3636	0.	3.3793e-002
261	21.622	2.1818	0.	4.5524e-002
262	21.622	2.	0.	5.5719e-002
263	21.622	1.8182	0.	6.2104e-002
264	21.622	1.6364	0.	6.319e-002
265	21.622	1.4545	0.	5.8753e-002
266	21.622	1.2727	0.	5.1348e-002
267	21.622	1.0909	0.	4.2397e-002
268	21.622	0.90909	0.	3.3251e-002
269	21.622	0.72727	0.	1.8883e-002
270	21.622	0.54545	0.	1.0223e-002
271	21.622	0.36364	0.	-8.5881e-002
272	21.622	0.18182	0.	-0.11647
273	21.437	5.8182	0.	-0.10373
274	21.437	5.6364	0.	-8.8355e-002
275	21.437	5.4545	0.	3.9195e-003
276	21.437	5.2727	0.	1.3707e-002
277	21.437	5.0909	0.	2.8291e-002
278	21.437	4.9091	0.	3.7059e-002
279	21.437	4.7273	0.	4.4724e-002
280	21.437	4.5455	0.	5.0256e-002
281	21.437	4.3636	0.	5.3016e-002
282	21.437	4.1818	0.	5.2288e-002
283	21.437	4.	0.	4.7907e-002
284	21.437	3.8182	0.	4.0922e-002
285	21.437	3.6364	0.	3.3241e-002
286	21.437	3.4545	0.	2.6457e-002
287	21.437	3.2727	0.	2.1625e-002
288	21.437	3.0909	0.	1.9193e-002
289	21.437	2.9091	0.	1.9191e-002
290	21.437	2.7273	0.	2.1627e-002
291	21.437	2.5455	0.	2.6455e-002
292	21.437	2.3636	0.	3.3239e-002
293	21.437	2.1818	0.	4.0922e-002
294	21.437	2.	0.	4.7906e-002
295	21.437	1.8182	0.	5.2291e-002
296	21.437	1.6364	0.	5.3018e-002
297	21.437	1.4545	0.	5.0256e-002
298	21.437	1.2727	0.	4.4726e-002
299	21.437	1.0909	0.	3.706e-002
300	21.437	0.90909	0.	2.8292e-002
301	21.437	0.72727	0.	1.3708e-002
302	21.437	0.54545	0.	3.9227e-003
303	21.437	0.36364	0.	-8.8357e-002
304	21.437	0.18182	0.	-0.10373
305	21.252	5.8182	0.	-8.8494e-002
306	21.252	5.6364	0.	-8.7067e-002
307	21.252	5.4545	0.	-3.8676e-004
308	21.252	5.2727	0.	9.7612e-003
309	21.252	5.0909	0.	2.3998e-002
310	21.252	4.9091	0.	3.2212e-002
311	21.252	4.7273	0.	3.889e-002
312	21.252	4.5455	0.	4.3365e-002
313	21.252	4.3636	0.	4.5536e-002
314	21.252	4.1818	0.	4.5066e-002
315	21.252	4.	0.	4.2154e-002
316	21.252	3.8182	0.	3.7505e-002
317	21.252	3.6364	0.	3.2188e-002
318	21.252	3.4545	0.	2.7331e-002
319	21.252	3.2727	0.	2.3756e-002
320	21.252	3.0909	0.	2.1891e-002
321	21.252	2.9091	0.	2.1893e-002
322	21.252	2.7273	0.	2.3758e-002
323	21.252	2.5455	0.	2.733e-002
324	21.252	2.3636	0.	3.2188e-002
325	21.252	2.1818	0.	3.7507e-002
326	21.252	2.	0.	4.2153e-002
327	21.252	1.8182	0.	4.5066e-002
328	21.252	1.6364	0.	4.5536e-002
329	21.252	1.4545	0.	4.3366e-002
330	21.252	1.2727	0.	3.8891e-002
331	21.252	1.0909	0.	3.2211e-002
332	21.252	0.90909	0.	2.3997e-002
333	21.252	0.72727	0.	9.7632e-003
334	21.252	0.54545	0.	-3.8915e-004
335	21.252	0.36364	0.	-8.7068e-002
336	21.252	0.18182	0.	-8.8493e-002
337	21.067	5.8182	0.	-7.3444e-002
338	21.067	5.6364	0.	-8.366e-002
339	21.067	5.4545	0.	-3.4534e-003
340	21.067	5.2727	0.	6.5719e-003
341	21.067	5.0909	0.	2.0169e-002
342	21.067	4.9091	0.	2.7829e-002
343	21.067	4.7273	0.	3.3772e-002
344	21.067	4.5455	0.	3.7584e-002
345	21.067	4.3636	0.	3.9451e-002
346	21.067	4.1818	0.	3.933e-002
347	21.067	4.	0.	3.7454e-002
348	21.067	3.8182	0.	3.4334e-002
349	21.067	3.6364	0.	3.0705e-002
350	21.067	3.4545	0.	2.7299e-002
351	21.067	3.2727	0.	2.4715e-002
352	21.067	3.0909	0.	2.3339e-002
353	21.067	2.9091	0.	2.3338e-002
354	21.067	2.7273	0.	2.4714e-002
355	21.067	2.5455	0.	2.7299e-002
356	21.067	2.3636	0.	3.0703e-002
357	21.067	2.1818	0.	3.4335e-002
358	21.067	2.	0.	3.7454e-002
359	21.067	1.8182	0.	3.9332e-002
360	21.067	1.6364	0.	3.945e-002
361	21.067	1.4545	0.	3.7584e-002
362	21.067	1.2727	0.	3.3772e-002
363	21.067	1.0909	0.	2.7828e-002
364	21.067	0.90909	0.	2.0172e-002
365	21.067	0.72727	0.	6.5744e-003
366	21.067	0.54545	0.	-3.455e-003
367	21.067	0.36364	0.	-8.3663e-002
368	21.067	0.18182	0.	-7.3445e-002
369	20.882	5.8182	0.	-5.9859e-002
370	20.882	5.6364	0.	-7.915e-002
371	20.882	5.4545	0.	-5.6734e-003
372	20.882	5.2727	0.	3.9532e-003
373	20.882	5.0909	0.	1.6788e-002
374	20.882	4.9091	0.	2.3936e-002
375	20.882	4.7273	0.	2.9345e-002
376	20.882	4.5455	0.	3.2767e-002
377	20.882	4.3636	0.	3.4536e-002
378	20.882	4.1818	0.	3.4738e-002
379	20.882	4.	0.	3.3623e-002
380	20.882	3.8182	0.	3.1581e-002
381	20.882	3.6364	0.	2.9118e-002
382	20.882	3.4545	0.	2.6749e-002
383	20.882	3.2727	0.	2.492e-002
384	20.882	3.0909	0.	2.3928e-002
385	20.882	2.9091	0.	2.3929e-002
386	20.882	2.7273	0.	2.4918e-002
387	20.882	2.5455	0.	2.675e-002
388	20.882	2.3636	0.	2.9117e-002
389	20.882	2.1818	0.	3.1584e-002
390	20.882	2.	0.	3.3623e-002
391	20.882	1.8182	0.	3.4737e-002
392	20.882	1.6364	0.	3.4536e-002
393	20.882	1.4545	0.	3.2767e-002
394	20.882	1.2727	0.	2.9346e-002
395	20.882	1.0909	0.	2.3937e-002
396	20.882	0.90909	0.	1.6787e-002
397	20.882	0.72727	0.	3.956e-003
398	20.882	0.54545	0.	-5.6708e-003
399	20.882	0.36364	0.	-7.9152e-002
400	20.882	0.18182	0.	-5.9861e-002
401	20.698	5.8182	0.	-4.8198e-002
402	20.698	5.6364	0.	-7.4178e-002
403	20.698	5.4545	0.	-7.2806e-003
404	20.698	5.2727	0.	1.7868e-003
405	20.698	5.0909	0.	1.3822e-002
406	20.698	4.9091	0.	2.0522e-002
407	20.698	4.7273	0.	2.5537e-002
408	20.698	4.5455	0.	2.8721e-002
409	20.698	4.3636	0.	3.048e-002
410	20.698	4.1818	0.	3.0966e-002
411	20.698	4.	0.	3.0419e-002
412	20.698	3.8182	0.	2.915e-002
413	20.698	3.6364	0.	2.752e-002
414	20.698	3.4545	0.	2.5911e-002
415	20.698	3.2727	0.	2.4644e-002
416	20.698	3.0909	0.	2.395e-002
417	20.698	2.9091	0.	2.395e-002
418	20.698	2.7273	0.	2.4643e-002
419	20.698	2.5455	0.	2.5912e-002
420	20.698	2.3636	0.	2.7521e-002
421	20.698	2.1818	0.	2.9149e-002
422	20.698	2.	0.	3.042e-002
423	20.698	1.8182	0.	3.0966e-002
424	20.698	1.6364	0.	3.048e-002
425	20.698	1.4545	0.	2.8722e-002
426	20.698	1.2727	0.	2.5537e-002
427	20.698	1.0909	0.	2.0522e-002
428	20.698	0.90909	0.	1.3823e-002
429	20.698	0.72727	0.	1.7917e-003
430	20.698	0.54545	0.	-7.2819e-003
431	20.698	0.36364	0.	-7.4179e-002
432	20.698	0.18182	0.	-4.8197e-002
433	20.513	5.8182	0.	-3.8493e-002
434	20.513	5.6364	0.	-6.9126e-002
435	20.513	5.4545	0.	-8.4319e-003
436	20.513	5.2727	0.	1.6605e-005
437	20.513	5.0909	0.	1.1255e-002
438	20.513	4.9091	0.	1.7559e-002
439	20.513	4.7273	0.	2.2274e-002
440	20.513	4.5455	0.	2.5311e-002
441	20.513	4.3636	0.	2.7103e-002
442	20.513	4.1818	0.	2.7826e-002
443	20.513	4.	0.	2.7709e-002
444	20.513	3.8182	0.	2.7001e-002
445	20.513	3.6364	0.	2.5981e-002
446	20.513	3.4545	0.	2.4925e-002
447	20.513	3.2727	0.	2.4073e-002
448	20.513	3.0909	0.	2.36e-002
449	20.513	2.9091	0.	2.3601e-002
450	20.513	2.7273	0.	2.4073e-002
451	20.513	2.5455	0.	2.4925e-002
452	20.513	2.3636	0.	2.5981e-002
453	20.513	2.1818	0.	2.7002e-002
454	20.513	2.	0.	2.771e-002
455	20.513	1.8182	0.	2.7826e-002
456	20.513	1.6364	0.	2.7104e-002
457	20.513	1.4545	0.	2.5311e-002
458	20.513	1.2727	0.	2.2272e-002
459	20.513	1.0909	0.	1.7561e-002
460	20.513	0.90909	0.	1.1258e-002
461	20.513	0.72727	0.	1.6023e-005
462	20.513	0.54545	0.	-8.4337e-003
463	20.513	0.36364	0.	-6.9129e-002
464	20.513	0.18182	0.	-3.8489e-002
465	20.328	5.8182	0.	-3.0571e-002
466	20.328	5.6364	0.	-6.4218e-002
467	20.328	5.4545	0.	-9.226e-003
468	20.328	5.2727	0.	-1.4238e-003
469	20.328	5.0909	0.	9.0568e-003
470	20.328	4.9091	0.	1.5009e-002
471	20.328	4.7273	0.	1.9477e-002
472	20.328	4.5455	0.	2.2425e-002
473	20.328	4.3636	0.	2.4261e-002
474	20.328	4.1818	0.	2.5179e-002
475	20.328	4.	0.	2.5391e-002
476	20.328	3.8182	0.	2.51e-002
477	20.328	3.6364	0.	2.4525e-002
478	20.328	3.4545	0.	2.3875e-002
479	20.328	3.2727	0.	2.3329e-002
480	20.328	3.0909	0.	2.3023e-002
481	20.328	2.9091	0.	2.3021e-002
482	20.328	2.7273	0.	2.3329e-002
483	20.328	2.5455	0.	2.3875e-002
484	20.328	2.3636	0.	2.4524e-002
485	20.328	2.1818	0.	2.5099e-002
486	20.328	2.	0.	2.5391e-002
487	20.328	1.8182	0.	2.5179e-002
488	20.328	1.6364	0.	2.4261e-002
489	20.328	1.4545	0.	2.2423e-002
490	20.328	1.2727	0.	1.9481e-002
491	20.328	1.0909	0.	1.501e-002
492	20.328	0.90909	0.	9.0607e-003
493	20.328	0.72727	0.	-1.4238e-003
494	20.328	0.54545	0.	-9.229e-003
495	20.328	0.36364	0.	-6.422e-002
496	20.328	0.18182	0.	-3.057e-002
497	20.143	5.8182	0.	-2.418e-002
498	20.143	5.6364	0.	-5.9575e-002
499	20.143	5.4545	0.	-9.747e-003
500	20.143	5.2727	0.	-2.572e-003
501	20.143	5.0909	0.	7.1955e-003
502	20.143	4.9091	0.	1.2824e-002
503	20.143	4.7273	0.	1.7095e-002
504	20.143	4.5455	0.	1.9967e-002
505	20.143	4.3636	0.	2.1852e-002
506	20.143	4.1818	0.	2.2928e-002
507	20.143	4.	0.	2.3389e-002
508	20.143	3.8182	0.	2.3408e-002
509	20.143	3.6364	0.	2.3163e-002
510	20.143	3.4545	0.	2.2812e-002
511	20.143	3.2727	0.	2.2492e-002
512	20.143	3.0909	0.	2.2306e-002
513	20.143	2.9091	0.	2.2307e-002
514	20.143	2.7273	0.	2.2494e-002
515	20.143	2.5455	0.	2.2812e-002
516	20.143	2.3636	0.	2.3164e-002
517	20.143	2.1818	0.	2.341e-002
518	20.143	2.	0.	2.339e-002
519	20.143	1.8182	0.	2.2929e-002
520	20.143	1.6364	0.	2.1852e-002
521	20.143	1.4545	0.	1.9969e-002
522	20.143	1.2727	0.	1.7095e-002
523	20.143	1.0909	0.	1.2826e-002
524	20.143	0.90909	0.	7.195e-003
525	20.143	0.72727	0.	-2.5704e-003
526	20.143	0.54545	0.	-9.7521e-003
527	20.143	0.36364	0.	-5.9577e-002
528	20.143	0.18182	0.	-2.4176e-002
529	19.958	5.8182	0.	-1.9062e-002
530	19.958	5.6364	0.	-5.525e-002
531	19.958	5.4545	0.	-1.0052e-002
532	19.958	5.2727	0.	-3.4734e-003
533	19.958	5.0909	0.	5.6282e-003
534	19.958	4.9091	0.	1.0964e-002
535	19.958	4.7273	0.	1.5056e-002
536	19.958	4.5455	0.	1.7873e-002
537	19.958	4.3636	0.	1.9795e-002
538	19.958	4.1818	0.	2.0995e-002
539	19.958	4.	0.	2.1646e-002
540	19.958	3.8182	0.	2.19e-002
541	19.958	3.6364	0.	2.1897e-002
542	19.958	3.4545	0.	2.1769e-002
543	19.958	3.2727	0.	2.1618e-002
544	19.958	3.0909	0.	2.1521e-002
545	19.958	2.9091	0.	2.1522e-002
546	19.958	2.7273	0.	2.1617e-002
547	19.958	2.5455	0.	2.1768e-002
548	19.958	2.3636	0.	2.1898e-002
549	19.958	2.1818	0.	2.19e-002
550	19.958	2.	0.	2.1647e-002
551	19.958	1.8182	0.	2.0994e-002
552	19.958	1.6364	0.	1.9795e-002
553	19.958	1.4545	0.	1.7873e-002
554	19.958	1.2727	0.	1.5057e-002
555	19.958	1.0909	0.	1.0964e-002
556	19.958	0.90909	0.	5.6281e-003
557	19.958	0.72727	0.	-3.4721e-003
558	19.958	0.54545	0.	-1.0054e-002
559	19.958	0.36364	0.	-5.5251e-002
560	19.958	0.18182	0.	-1.9061e-002
561	19.774	5.8182	0.	-1.4983e-002
562	19.774	5.6364	0.	-5.1267e-002
563	19.774	5.4545	0.	-1.0191e-002
564	19.774	5.2727	0.	-4.1669e-003
565	19.774	5.0909	0.	4.3178e-003
566	19.774	4.9091	0.	9.3823e-003
567	19.774	4.7273	0.	1.3314e-002
568	19.774	4.5455	0.	1.6079e-002
569	19.774	4.3636	0.	1.8027e-002
570	19.774	4.1818	0.	1.932e-002
571	19.774	4.	0.	2.0119e-002
572	19.774	3.8182	0.	2.0548e-002
573	19.774	3.6364	0.	2.0727e-002
574	19.774	3.4545	0.	2.0763e-002
575	19.774	3.2727	0.	2.0734e-002
576	19.774	3.0909	0.	2.0708e-002
577	19.774	2.9091	0.	2.0706e-002
578	19.774	2.7273	0.	2.0735e-002
579	19.774	2.5455	0.	2.0762e-002
580	19.774	2.3636	0.	2.0728e-002
581	19.774	2.1818	0.	2.0546e-002
582	19.774	2.	0.	2.0119e-002
583	19.774	1.8182	0.	1.932e-002
584	19.774	1.6364	0.	1.8027e-002
585	19.774	1.4545	0.	1.6079e-002
586	19.774	1.2727	0.	1.3314e-002
587	19.774	1.0909	0.	9.3812e-003
588	19.774	0.90909	0.	4.3192e-003
589	19.774	0.72727	0.	-4.1638e-003
590	19.774	0.54545	0.	-1.019e-002
591	19.774	0.36364	0.	-5.1268e-002
592	19.774	0.18182	0.	-1.4986e-002
593	19.589	5.8182	0.	-1.1737e-002
594	19.589	5.6364	0.	-4.7621e-002
595	19.589	5.4545	0.	-1.0201e-002
596	19.589	5.2727	0.	-4.6888e-003
597	19.589	5.0909	0.	3.229e-003
598	19.589	4.9091	0.	8.039e-003
599	19.589	4.7273	0.	1.182e-002
600	19.589	4.5455	0.	1.4534e-002
601	19.589	4.3636	0.	1.6497e-002
602	19.589	4.1818	0.	1.7864e-002
603	19.589	4.	0.	1.8768e-002
604	19.589	3.8182	0.	1.9331e-002
605	19.589	3.6364	0.	1.9646e-002
606	19.589	3.4545	0.	1.9805e-002
607	19.589	3.2727	0.	1.9869e-002
608	19.589	3.0909	0.	1.9889e-002
609	19.589	2.9091	0.	1.9889e-002
610	19.589	2.7273	0.	1.9869e-002
611	19.589	2.5455	0.	1.9805e-002
612	19.589	2.3636	0.	1.9646e-002
613	19.589	2.1818	0.	1.9331e-002
614	19.589	2.	0.	1.8768e-002
615	19.589	1.8182	0.	1.7862e-002
616	19.589	1.6364	0.	1.6499e-002
617	19.589	1.4545	0.	1.4534e-002
618	19.589	1.2727	0.	1.1822e-002
619	19.589	1.0909	0.	8.0382e-003
620	19.589	0.90909	0.	3.2315e-003
621	19.589	0.72727	0.	-4.6857e-003
622	19.589	0.54545	0.	-1.0203e-002
623	19.589	0.36364	0.	-4.7622e-002
624	19.589	0.18182	0.	-1.1737e-002
625	19.404	5.8182	0.	-9.1581e-003
626	19.404	5.6364	0.	-4.4297e-002
627	19.404	5.4545	0.	-1.0119e-002
628	19.404	5.2727	0.	-5.0658e-003
629	19.404	5.0909	0.	2.3287e-003
630	19.404	4.9091	0.	6.9002e-003
631	19.404	4.7273	0.	1.0543e-002
632	19.404	4.5455	0.	1.3203e-002
633	19.404	4.3636	0.	1.5167e-002
634	19.404	4.1818	0.	1.6583e-002
635	19.404	4.	0.	1.7571e-002
636	19.404	3.8182	0.	1.823e-002
637	19.404	3.6364	0.	1.8649e-002
638	19.404	3.4545	0.	1.8896e-002
639	19.404	3.2727	0.	1.9031e-002
640	19.404	3.0909	0.	1.9087e-002
641	19.404	2.9091	0.	1.9088e-002
642	19.404	2.7273	0.	1.903e-002
643	19.404	2.5455	0.	1.8897e-002
644	19.404	2.3636	0.	1.865e-002
645	19.404	2.1818	0.	1.8229e-002
646	19.404	2.	0.	1.757e-002
647	19.404	1.8182	0.	1.6582e-002
648	19.404	1.6364	0.	1.5168e-002
649	19.404	1.4545	0.	1.3201e-002
650	19.404	1.2727	0.	1.0543e-002
651	19.404	1.0909	0.	6.9021e-003
652	19.404	0.90909	0.	2.3299e-003
653	19.404	0.72727	0.	-5.0648e-003
654	19.404	0.54545	0.	-1.0121e-002
655	19.404	0.36364	0.	-4.4299e-002
656	19.404	0.18182	0.	-9.1573e-003
657	19.219	5.8182	0.	-7.1076e-003
658	19.219	5.6364	0.	-4.1272e-002
659	19.219	5.4545	0.	-9.964e-003
660	19.219	5.2727	0.	-5.3332e-003
661	19.219	5.0909	0.	1.5882e-003
662	19.219	4.9091	0.	5.9361e-003
663	19.219	4.7273	0.	9.4422e-003
664	19.219	4.5455	0.	1.2041e-002
665	19.219	4.3636	0.	1.4006e-002
666	19.219	4.1818	0.	1.5453e-002
667	19.219	4.	0.	1.65e-002
668	19.219	3.8182	0.	1.7232e-002
669	19.219	3.6364	0.	1.7729e-002
670	19.219	3.4545	0.	1.8044e-002
671	19.219	3.2727	0.	1.8229e-002
672	19.219	3.0909	0.	1.8313e-002
673	19.219	2.9091	0.	1.8314e-002
674	19.219	2.7273	0.	1.8228e-002
675	19.219	2.5455	0.	1.8044e-002
676	19.219	2.3636	0.	1.7728e-002
677	19.219	2.1818	0.	1.7232e-002
678	19.219	2.	0.	1.6499e-002
679	19.219	1.8182	0.	1.5453e-002
680	19.219	1.6364	0.	1.4007e-002
681	19.219	1.4545	0.	1.2043e-002
682	19.219	1.2727	0.	9.443e-003
683	19.219	1.0909	0.	5.9375e-003
684	19.219	0.90909	0.	1.5879e-003
685	19.219	0.72727	0.	-5.3291e-003
686	19.219	0.54545	0.	-9.9676e-003
687	19.219	0.36364	0.	-4.1273e-002
688	19.219	0.18182	0.	-7.1044e-003
689	19.034	5.8182	0.	-5.4787e-003
690	19.034	5.6364	0.	-3.8523e-002
691	19.034	5.4545	0.	-9.7603e-003
692	19.034	5.2727	0.	-5.503e-003
693	19.034	5.0909	0.	9.7547e-004
694	19.034	4.9091	0.	5.1172e-003
695	19.034	4.7273	0.	8.4939e-003
696	19.034	4.5455	0.	1.1037e-002
697	19.034	4.3636	0.	1.2985e-002
698	19.034	4.1818	0.	1.4452e-002
699	19.034	4.	0.	1.554e-002
700	19.034	3.8182	0.	1.6325e-002
701	19.034	3.6364	0.	1.6879e-002
702	19.034	3.4545	0.	1.7243e-002
703	19.034	3.2727	0.	1.7467e-002
704	19.034	3.0909	0.	1.757e-002
705	19.034	2.9091	0.	1.7571e-002
706	19.034	2.7273	0.	1.7468e-002
707	19.034	2.5455	0.	1.7244e-002
708	19.034	2.3636	0.	1.6876e-002
709	19.034	2.1818	0.	1.6326e-002
710	19.034	2.	0.	1.554e-002
711	19.034	1.8182	0.	1.4453e-002
712	19.034	1.6364	0.	1.2986e-002
713	19.034	1.4545	0.	1.1038e-002
714	19.034	1.2727	0.	8.4924e-003
715	19.034	1.0909	0.	5.1188e-003
716	19.034	0.90909	0.	9.7786e-004
717	19.034	0.72727	0.	-5.5033e-003
718	19.034	0.54545	0.	-9.763e-003
719	19.034	0.36364	0.	-3.8523e-002
720	19.034	0.18182	0.	-5.4762e-003
721	18.85	5.8182	0.	-4.1852e-003
722	18.85	5.6364	0.	-3.6022e-002
723	18.85	5.4545	0.	-9.5197e-003
724	18.85	5.2727	0.	-5.6034e-003
725	18.85	5.0909	0.	4.7562e-004
726	18.85	4.9091	0.	4.4217e-003
727	18.85	4.7273	0.	7.6724e-003
728	18.85	4.5455	0.	1.0155e-002
729	18.85	4.3636	0.	1.2084e-002
730	18.85	4.1818	0.	1.3559e-002
731	18.85	4.	0.	1.4665e-002
732	18.85	3.8182	0.	1.5499e-002
733	18.85	3.6364	0.	1.6091e-002
734	18.85	3.4545	0.	1.6498e-002
735	18.85	3.2727	0.	1.6747e-002
736	18.85	3.0909	0.	1.6866e-002
737	18.85	2.9091	0.	1.6867e-002
738	18.85	2.7273	0.	1.6745e-002
739	18.85	2.5455	0.	1.6498e-002
740	18.85	2.3636	0.	1.6089e-002
741	18.85	2.1818	0.	1.5499e-002
742	18.85	2.	0.	1.4665e-002
743	18.85	1.8182	0.	1.3559e-002
744	18.85	1.6364	0.	1.2083e-002
745	18.85	1.4545	0.	1.0154e-002
746	18.85	1.2727	0.	7.673e-003
747	18.85	1.0909	0.	4.4213e-003
748	18.85	0.90909	0.	4.7799e-004
749	18.85	0.72727	0.	-5.603e-003
750	18.85	0.54545	0.	-9.5206e-003
751	18.85	0.36364	0.	-3.6025e-002
752	18.85	0.18182	0.	-4.1839e-003
753	18.665	5.8182	0.	-3.1586e-003
754	18.665	5.6364	0.	-3.3748e-002
755	18.665	5.4545	0.	-9.2589e-003
756	18.665	5.2727	0.	-5.646e-003
757	18.665	5.0909	0.	6.704e-005
758	18.665	4.9091	0.	3.8287e-003
759	18.665	4.7273	0.	6.9599e-003
760	18.665	4.5455	0.	9.378e-003
761	18.665	4.3636	0.	1.1283e-002
762	18.665	4.1818	0.	1.2759e-002
763	18.665	4.	0.	1.389e-002
764	18.665	3.8182	0.	1.474e-002
765	18.665	3.6364	0.	1.5363e-002
766	18.665	3.4545	0.	1.5795e-002
767	18.665	3.2727	0.	1.6067e-002
768	18.665	3.0909	0.	1.6196e-002
769	18.665	2.9091	0.	1.6197e-002
770	18.665	2.7273	0.	1.6067e-002
771	18.665	2.5455	0.	1.5795e-002
772	18.665	2.3636	0.	1.5365e-002
773	18.665	2.1818	0.	1.4742e-002
774	18.665	2.	0.	1.3891e-002
775	18.665	1.8182	0.	1.2759e-002
776	18.665	1.6364	0.	1.1283e-002
777	18.665	1.4545	0.	9.3802e-003
778	18.665	1.2727	0.	6.9594e-003
779	18.665	1.0909	0.	3.8295e-003
780	18.665	0.90909	0.	6.8364e-005
781	18.665	0.72727	0.	-5.6447e-003
782	18.665	0.54545	0.	-9.2571e-003
783	18.665	0.36364	0.	-3.375e-002
784	18.665	0.18182	0.	-3.1603e-003
785	18.48	5.8182	0.	-2.3437e-003
786	18.48	5.6364	0.	-3.1677e-002
787	18.48	5.4545	0.	-8.9839e-003
788	18.48	5.2727	0.	-5.644e-003
789	18.48	5.0909	0.	-2.6799e-004
790	18.48	4.9091	0.	3.3206e-003
791	18.48	4.7273	0.	6.3371e-003
792	18.48	4.5455	0.	8.6937e-003
793	18.48	4.3636	0.	1.0569e-002
794	18.48	4.1818	0.	1.2037e-002
795	18.48	4.	0.	1.3179e-002
796	18.48	3.8182	0.	1.4047e-002
797	18.48	3.6364	0.	1.4689e-002
798	18.48	3.4545	0.	1.5141e-002
799	18.48	3.2727	0.	1.5428e-002
800	18.48	3.0909	0.	1.5567e-002
801	18.48	2.9091	0.	1.5566e-002
802	18.48	2.7273	0.	1.5427e-002
803	18.48	2.5455	0.	1.5141e-002
804	18.48	2.3636	0.	1.469e-002
805	18.48	2.1818	0.	1.4046e-002
806	18.48	2.	0.	1.318e-002
807	18.48	1.8182	0.	1.2036e-002
808	18.48	1.6364	0.	1.0569e-002
809	18.48	1.4545	0.	8.6941e-003
810	18.48	1.2727	0.	6.3377e-003
811	18.48	1.0909	0.	3.3199e-003
812	18.48	0.90909	0.	-2.6666e-004
813	18.48	0.72727	0.	-5.6413e-003
814	18.48	0.54545	0.	-8.9836e-003
815	18.48	0.36364	0.	-3.1678e-002
816	18.48	0.18182	0.	-2.3442e-003
817	18.295	5.8182	0.	-1.7002e-003
818	18.295	5.6364	0.	-2.9789e-002
819	18.295	5.4545	0.	-8.7032e-003
820	18.295	5.2727	0.	-5.6083e-003
821	18.295	5.0909	0.	-5.4186e-004
822	18.295	4.9091	0.	2.8861e-003
823	18.295	4.7273	0.	5.7929e-003
824	18.295	4.5455	0.	8.0867e-003
825	18.295	4.3636	0.	9.9273e-003
826	18.295	4.1818	0.	1.1385e-002
827	18.295	4.	0.	1.2529e-002
828	18.295	3.8182	0.	1.3407e-002
829	18.295	3.6364	0.	1.4063e-002
830	18.295	3.4545	0.	1.4529e-002
831	18.295	3.2727	0.	1.4826e-002
832	18.295	3.0909	0.	1.4971e-002
833	18.295	2.9091	0.	1.4972e-002
834	18.295	2.7273	0.	1.4827e-002
835	18.295	2.5455	0.	1.4529e-002
836	18.295	2.3636	0.	1.4064e-002
837	18.295	2.1818	0.	1.3407e-002
838	18.295	2.	0.	1.2528e-002
839	18.295	1.8182	0.	1.1386e-002
840	18.295	1.6364	0.	9.9271e-003
841	18.295	1.4545	0.	8.0866e-003
842	18.295	1.2727	0.	5.7922e-003
843	18.295	1.0909	0.	2.8868e-003
844	18.295	0.90909	0.	-5.4193e-004
845	18.295	0.72727	0.	-5.6066e-003
846	18.295	0.54545	0.	-8.7028e-003
847	18.295	0.36364	0.	-2.9789e-002
848	18.295	0.18182	0.	-1.702e-003
849	18.11	5.8182	0.	-1.1941e-003
850	18.11	5.6364	0.	-2.8063e-002
851	18.11	5.4545	0.	-8.4238e-003
852	18.11	5.2727	0.	-5.5486e-003
853	18.11	5.0909	0.	-7.643e-004
854	18.11	4.9091	0.	2.51e-003
855	18.11	4.7273	0.	5.3118e-003
856	18.11	4.5455	0.	7.5433e-003
857	18.11	4.3636	0.	9.3503e-003
858	18.11	4.1818	0.	1.0793e-002
859	18.11	4.	0.	1.1934e-002
860	18.11	3.8182	0.	1.2816e-002
861	18.11	3.6364	0.	1.3482e-002
862	18.11	3.4545	0.	1.3957e-002
863	18.11	3.2727	0.	1.4261e-002
864	18.11	3.0909	0.	1.441e-002
865	18.11	2.9091	0.	1.441e-002
866	18.11	2.7273	0.	1.4262e-002
867	18.11	2.5455	0.	1.3956e-002
868	18.11	2.3636	0.	1.3482e-002
869	18.11	2.1818	0.	1.2816e-002
870	18.11	2.	0.	1.1933e-002
871	18.11	1.8182	0.	1.0793e-002
872	18.11	1.6364	0.	9.3501e-003
873	18.11	1.4545	0.	7.5439e-003
874	18.11	1.2727	0.	5.3119e-003
875	18.11	1.0909	0.	2.5103e-003
876	18.11	0.90909	0.	-7.6519e-004
877	18.11	0.72727	0.	-5.5463e-003
878	18.11	0.54545	0.	-8.4235e-003
879	18.11	0.36364	0.	-2.8063e-002
880	18.11	0.18182	0.	-1.1947e-003
881	17.926	5.8182	0.	-7.9797e-004
882	17.926	5.6364	0.	-2.6483e-002
883	17.926	5.4545	0.	-8.1473e-003
884	17.926	5.2727	0.	-5.4704e-003
885	17.926	5.0909	0.	-9.4662e-004
886	17.926	4.9091	0.	2.1856e-003
887	17.926	4.7273	0.	4.8863e-003
888	17.926	4.5455	0.	7.0581e-003
889	17.926	4.3636	0.	8.8275e-003
890	17.926	4.1818	0.	1.0252e-002
891	17.926	4.	0.	1.1385e-002
892	17.926	3.8182	0.	1.2271e-002
893	17.926	3.6364	0.	1.2941e-002
894	17.926	3.4545	0.	1.3421e-002
895	17.926	3.2727	0.	1.3732e-002
896	17.926	3.0909	0.	1.3884e-002
897	17.926	2.9091	0.	1.3884e-002
898	17.926	2.7273	0.	1.3731e-002
899	17.926	2.5455	0.	1.3422e-002
900	17.926	2.3636	0.	1.2941e-002
901	17.926	2.1818	0.	1.2271e-002
902	17.926	2.	0.	1.1386e-002
903	17.926	1.8182	0.	1.0252e-002
904	17.926	1.6364	0.	8.8282e-003
905	17.926	1.4545	0.	7.0579e-003
906	17.926	1.2727	0.	4.8873e-003
907	17.926	1.0909	0.	2.1859e-003
908	17.926	0.90909	0.	-9.4528e-004
909	17.926	0.72727	0.	-5.467e-003
910	17.926	0.54545	0.	-8.1474e-003
911	17.926	0.36364	0.	-2.6483e-002
912	17.926	0.18182	0.	-7.97e-004
913	17.741	5.8182	0.	-4.8936e-004
914	17.741	5.6364	0.	-2.5034e-002
915	17.741	5.4545	0.	-7.8762e-003
916	17.741	5.2727	0.	-5.3771e-003
917	17.741	5.0909	0.	-1.0946e-003
918	17.741	4.9091	0.	1.9025e-003
919	17.741	4.7273	0.	4.5099e-003
920	17.741	4.5455	0.	6.6196e-003
921	17.741	4.3636	0.	8.3534e-003
922	17.741	4.1818	0.	9.7566e-003
923	17.741	4.	0.	1.0882e-002
924	17.741	3.8182	0.	1.1764e-002
925	17.741	3.6364	0.	1.2435e-002
926	17.741	3.4545	0.	1.2919e-002
927	17.741	3.2727	0.	1.3234e-002
928	17.741	3.0909	0.	1.3386e-002
929	17.741	2.9091	0.	1.3387e-002
930	17.741	2.7273	0.	1.3232e-002
931	17.741	2.5455	0.	1.292e-002
932	17.741	2.3636	0.	1.2436e-002
933	17.741	2.1818	0.	1.1764e-002
934	17.741	2.	0.	1.088e-002
935	17.741	1.8182	0.	9.7568e-003
936	17.741	1.6364	0.	8.3532e-003
937	17.741	1.4545	0.	6.6198e-003
938	17.741	1.2727	0.	4.5101e-003
939	17.741	1.0909	0.	1.9045e-003
940	17.741	0.90909	0.	-1.0937e-003
941	17.741	0.72727	0.	-5.3758e-003
942	17.741	0.54545	0.	-7.8765e-003
943	17.741	0.36364	0.	-2.5038e-002
944	17.741	0.18182	0.	-4.8898e-004
945	17.556	5.8182	0.	-2.5349e-004
946	17.556	5.6364	0.	-2.3702e-002
947	17.556	5.4545	0.	-7.6143e-003
948	17.556	5.2727	0.	-5.2758e-003
949	17.556	5.0909	0.	-1.2152e-003
950	17.556	4.9091	0.	1.6574e-003
951	17.556	4.7273	0.	4.171e-003
952	17.556	4.5455	0.	6.2248e-003
953	17.556	4.3636	0.	7.9192e-003
954	17.556	4.1818	0.	9.3016e-003
955	17.556	4.	0.	1.0414e-002
956	17.556	3.8182	0.	1.1292e-002
957	17.556	3.6364	0.	1.1965e-002
958	17.556	3.4545	0.	1.245e-002
959	17.556	3.2727	0.	1.2764e-002
960	17.556	3.0909	0.	1.2919e-002
961	17.556	2.9091	0.	1.292e-002
962	17.556	2.7273	0.	1.2765e-002
963	17.556	2.5455	0.	1.245e-002
964	17.556	2.3636	0.	1.1964e-002
965	17.556	2.1818	0.	1.1292e-002
966	17.556	2.	0.	1.0415e-002
967	17.556	1.8182	0.	9.3017e-003
968	17.556	1.6364	0.	7.9193e-003
969	17.556	1.4545	0.	6.2227e-003
970	17.556	1.2727	0.	4.1725e-003
971	17.556	1.0909	0.	1.6579e-003
972	17.556	0.90909	0.	-1.2138e-003
973	17.556	0.72727	0.	-5.2724e-003
974	17.556	0.54545	0.	-7.6142e-003
975	17.556	0.36364	0.	-2.3704e-002
976	17.556	0.18182	0.	-2.5394e-004
977	17.371	5.8182	0.	-7.6465e-005
978	17.371	5.6364	0.	-2.2475e-002
979	17.371	5.4545	0.	-7.3622e-003
980	17.371	5.2727	0.	-5.1683e-003
981	17.371	5.0909	0.	-1.3146e-003
982	17.371	4.9091	0.	1.4416e-003
983	17.371	4.7273	0.	3.8669e-003
984	17.371	4.5455	0.	5.8632e-003
985	17.371	4.3636	0.	7.5219e-003
986	17.371	4.1818	0.	8.8805e-003
987	17.371	4.	0.	9.9823e-003
988	17.371	3.8182	0.	1.0855e-002
989	17.371	3.6364	0.	1.1523e-002
990	17.371	3.4545	0.	1.2008e-002
991	17.371	3.2727	0.	1.2323e-002
992	17.371	3.0909	0.	1.2479e-002
993	17.371	2.9091	0.	1.2479e-002
994	17.371	2.7273	0.	1.2325e-002
995	17.371	2.5455	0.	1.2008e-002
996	17.371	2.3636	0.	1.1524e-002
997	17.371	2.1818	0.	1.0854e-002
998	17.371	2.	0.	9.9821e-003
999	17.371	1.8182	0.	8.8808e-003
1000	17.371	1.6364	0.	7.523e-003
1001	17.371	1.4545	0.	5.8639e-003
1002	17.371	1.2727	0.	3.8689e-003
1003	17.371	1.0909	0.	1.4401e-003
1004	17.371	0.90909	0.	-1.3146e-003
1005	17.371	0.72727	0.	-5.1666e-003
1006	17.371	0.54545	0.	-7.3607e-003
1007	17.371	0.36364	0.	-2.2476e-002
1008	17.371	0.18182	0.	-7.688e-005
1009	17.186	5.8182	0.	5.3589e-005
1010	17.186	5.6364	0.	-2.1341e-002
1011	17.186	5.4545	0.	-7.1184e-003
1012	17.186	5.2727	0.	-5.0576e-003
1013	17.186	5.0909	0.	-1.394e-003
1014	17.186	4.9091	0.	1.2488e-003
1015	17.186	4.7273	0.	3.5942e-003
1016	17.186	4.5455	0.	5.5333e-003
1017	17.186	4.3636	0.	7.1568e-003
1018	17.186	4.1818	0.	8.4929e-003
1019	17.186	4.	0.	9.5788e-003
1020	17.186	3.8182	0.	1.0443e-002
1021	17.186	3.6364	0.	1.1109e-002
1022	17.186	3.4545	0.	1.1594e-002
1023	17.186	3.2727	0.	1.1909e-002
1024	17.186	3.0909	0.	1.2064e-002
1025	17.186	2.9091	0.	1.2064e-002
1026	17.186	2.7273	0.	1.1908e-002
1027	17.186	2.5455	0.	1.1594e-002
1028	17.186	2.3636	0.	1.111e-002
1029	17.186	2.1818	0.	1.0444e-002
1030	17.186	2.	0.	9.5798e-003
1031	17.186	1.8182	0.	8.493e-003
1032	17.186	1.6364	0.	7.1565e-003
1033	17.186	1.4545	0.	5.5338e-003
1034	17.186	1.2727	0.	3.5951e-003
1035	17.186	1.0909	0.	1.2494e-003
1036	17.186	0.90909	0.	-1.3924e-003
1037	17.186	0.72727	0.	-5.0566e-003
1038	17.186	0.54545	0.	-7.1171e-003
1039	17.186	0.36364	0.	-2.1342e-002
1040	17.186	0.18182	0.	5.2858e-005
1041	17.002	5.8182	0.	1.4523e-004
1042	17.002	5.6364	0.	-2.0291e-002
1043	17.002	5.4545	0.	-6.8851e-003
1044	17.002	5.2727	0.	-4.9451e-003
1045	17.002	5.0909	0.	-1.4582e-003
1046	17.002	4.9091	0.	1.0798e-003
1047	17.002	4.7273	0.	3.3448e-003
1048	17.002	4.5455	0.	5.2314e-003
1049	17.002	4.3636	0.	6.8181e-003
1050	17.002	4.1818	0.	8.1315e-003
1051	17.002	4.	0.	9.2036e-003
1052	17.002	3.8182	0.	1.006e-002
1053	17.002	3.6364	0.	1.0721e-002
1054	17.002	3.4545	0.	1.1202e-002
1055	17.002	3.2727	0.	1.1518e-002
1056	17.002	3.0909	0.	1.1673e-002
1057	17.002	2.9091	0.	1.1673e-002
1058	17.002	2.7273	0.	1.1517e-002
1059	17.002	2.5455	0.	1.1203e-002
1060	17.002	2.3636	0.	1.0721e-002
1061	17.002	2.1818	0.	1.0059e-002
1062	17.002	2.	0.	9.2036e-003
1063	17.002	1.8182	0.	8.1311e-003
1064	17.002	1.6364	0.	6.8187e-003
1065	17.002	1.4545	0.	5.2321e-003
1066	17.002	1.2727	0.	3.3447e-003
1067	17.002	1.0909	0.	1.0799e-003
1068	17.002	0.90909	0.	-1.4568e-003
1069	17.002	0.72727	0.	-4.9439e-003
1070	17.002	0.54545	0.	-6.8843e-003
1071	17.002	0.36364	0.	-2.0291e-002
1072	17.002	0.18182	0.	1.4439e-004
1073	16.817	5.8182	0.	2.0404e-004
1074	16.817	5.6364	0.	-1.9315e-002
1075	16.817	5.4545	0.	-6.6623e-003
1076	16.817	5.2727	0.	-4.8322e-003
1077	16.817	5.0909	0.	-1.5108e-003
1078	16.817	4.9091	0.	9.28e-004
1079	16.817	4.7273	0.	3.1183e-003
1080	16.817	4.5455	0.	4.953e-003
1081	16.817	4.3636	0.	6.5047e-003
1082	16.817	4.1818	0.	7.7938e-003
1083	16.817	4.	0.	8.8532e-003
1084	16.817	3.8182	0.	9.6991e-003
1085	16.817	3.6364	0.	1.0355e-002
1086	16.817	3.4545	0.	1.0835e-002
1087	16.817	3.2727	0.	1.1149e-002
1088	16.817	3.0909	0.	1.1303e-002
1089	16.817	2.9091	0.	1.1303e-002
1090	16.817	2.7273	0.	1.1149e-002
1091	16.817	2.5455	0.	1.0835e-002
1092	16.817	2.3636	0.	1.0356e-002
1093	16.817	2.1818	0.	9.7001e-003
1094	16.817	2.	0.	8.851e-003
1095	16.817	1.8182	0.	7.7957e-003
1096	16.817	1.6364	0.	6.5039e-003
1097	16.817	1.4545	0.	4.9549e-003
1098	16.817	1.2727	0.	3.12e-003
1099	16.817	1.0909	0.	9.2812e-004
1100	16.817	0.90909	0.	-1.5091e-003
1101	16.817	0.72727	0.	-4.8302e-003
1102	16.817	0.54545	0.	-6.6619e-003
1103	16.817	0.36364	0.	-1.9313e-002
1104	16.817	0.18182	0.	2.0268e-004
1105	16.632	5.8182	0.	2.3685e-004
1106	16.632	5.6364	0.	-1.8404e-002
1107	16.632	5.4545	0.	-6.4492e-003
1108	16.632	5.2727	0.	-4.7196e-003
1109	16.632	5.0909	0.	-1.5533e-003
1110	16.632	4.9091	0.	7.9168e-004
1111	16.632	4.7273	0.	2.9107e-003
1112	16.632	4.5455	0.	4.6966e-003
1113	16.632	4.3636	0.	6.213e-003
1114	16.632	4.1818	0.	7.4786e-003
1115	16.632	4.	0.	8.5219e-003
1116	16.632	3.8182	0.	9.3607e-003
1117	16.632	3.6364	0.	1.001e-002
1118	16.632	3.4545	0.	1.0487e-002
1119	16.632	3.2727	0.	1.08e-002
1120	16.632	3.0909	0.	1.0953e-002
1121	16.632	2.9091	0.	1.0953e-002
1122	16.632	2.7273	0.	1.0799e-002
1123	16.632	2.5455	0.	1.0487e-002
1124	16.632	2.3636	0.	1.001e-002
1125	16.632	2.1818	0.	9.36e-003
1126	16.632	2.	0.	8.5219e-003
1127	16.632	1.8182	0.	7.4801e-003
1128	16.632	1.6364	0.	6.2125e-003
1129	16.632	1.4545	0.	4.6958e-003
1130	16.632	1.2727	0.	2.9091e-003
1131	16.632	1.0909	0.	7.9401e-004
1132	16.632	0.90909	0.	-1.5501e-003
1133	16.632	0.72727	0.	-4.72e-003
1134	16.632	0.54545	0.	-6.4503e-003
1135	16.632	0.36364	0.	-1.8406e-002
1136	16.632	0.18182	0.	2.3812e-004
1137	16.447	5.8182	0.	2.4793e-004
1138	16.447	5.6364	0.	-1.7552e-002
1139	16.447	5.4545	0.	-6.2457e-003
1140	16.447	5.2727	0.	-4.6085e-003
1141	16.447	5.0909	0.	-1.587e-003
1142	16.447	4.9091	0.	6.6981e-004
1143	16.447	4.7273	0.	2.7186e-003
1144	16.447	4.5455	0.	4.4567e-003
1145	16.447	4.3636	0.	5.9388e-003
1146	16.447	4.1818	0.	7.1837e-003
1147	16.447	4.	0.	8.2112e-003
1148	16.447	3.8182	0.	9.0395e-003
1149	16.447	3.6364	0.	9.6857e-003
1150	16.447	3.4545	0.	1.0159e-002
1151	16.447	3.2727	0.	1.0469e-002
1152	16.447	3.0909	0.	1.0623e-002
1153	16.447	2.9091	0.	1.0623e-002
1154	16.447	2.7273	0.	1.0469e-002
1155	16.447	2.5455	0.	1.0159e-002
1156	16.447	2.3636	0.	9.6849e-003
1157	16.447	2.1818	0.	9.0404e-003
1158	16.447	2.	0.	8.2113e-003
1159	16.447	1.8182	0.	7.1837e-003
1160	16.447	1.6364	0.	5.9391e-003
1161	16.447	1.4545	0.	4.4573e-003
1162	16.447	1.2727	0.	2.7178e-003
1163	16.447	1.0909	0.	6.704e-004
1164	16.447	0.90909	0.	-1.585e-003
1165	16.447	0.72727	0.	-4.6082e-003
1166	16.447	0.54545	0.	-6.2458e-003
1167	16.447	0.36364	0.	-1.7554e-002
1168	16.447	0.18182	0.	2.4928e-004
1169	16.262	5.8182	0.	2.4202e-004
1170	16.262	5.6364	0.	-1.6753e-002
1171	16.262	5.4545	0.	-6.0493e-003
1172	16.262	5.2727	0.	-4.4986e-003
1173	16.262	5.0909	0.	-1.6127e-003
1174	16.262	4.9091	0.	5.5848e-004
1175	16.262	4.7273	0.	2.5409e-003
1176	16.262	4.5455	0.	4.2326e-003
1177	16.262	4.3636	0.	5.6832e-003
1178	16.262	4.1818	0.	6.9054e-003
1179	16.262	4.	0.	7.918e-003
1180	16.262	3.8182	0.	8.7379e-003
1181	16.262	3.6364	0.	9.3779e-003
1182	16.262	3.4545	0.	9.8478e-003
1183	16.262	3.2727	0.	1.0157e-002
1184	16.262	3.0909	0.	1.0309e-002
1185	16.262	2.9091	0.	1.031e-002
1186	16.262	2.7273	0.	1.0156e-002
1187	16.262	2.5455	0.	9.8481e-003
1188	16.262	2.3636	0.	9.3774e-003
1189	16.262	2.1818	0.	8.7388e-003
1190	16.262	2.	0.	7.9192e-003
1191	16.262	1.8182	0.	6.9047e-003
1192	16.262	1.6364	0.	5.6836e-003
1193	16.262	1.4545	0.	4.233e-003
1194	16.262	1.2727	0.	2.5421e-003
1195	16.262	1.0909	0.	5.5866e-004
1196	16.262	0.90909	0.	-1.6114e-003
1197	16.262	0.72727	0.	-4.4973e-003
1198	16.262	0.54545	0.	-6.0498e-003
1199	16.262	0.36364	0.	-1.6753e-002
1200	16.262	0.18182	0.	2.4059e-004
1201	16.078	5.8182	0.	2.2054e-004
1202	16.078	5.6364	0.	-1.6e-002
1203	16.078	5.4545	0.	-5.8623e-003
1204	16.078	5.2727	0.	-4.3914e-003
1205	16.078	5.0909	0.	-1.6346e-003
1206	16.078	4.9091	0.	4.5569e-004
1207	16.078	4.7273	0.	2.3757e-003
1208	16.078	4.5455	0.	4.0227e-003
1209	16.078	4.3636	0.	5.4419e-003
1210	16.078	4.1818	0.	6.6414e-003
1211	16.078	4.	0.	7.6402e-003
1212	16.078	3.8182	0.	8.4523e-003
1213	16.078	3.6364	0.	9.084e-003
1214	16.078	3.4545	0.	9.5518e-003
1215	16.078	3.2727	0.	9.8599e-003
1216	16.078	3.0909	0.	1.0013e-002
1217	16.078	2.9091	0.	1.0011e-002
1218	16.078	2.7273	0.	9.8586e-003
1219	16.078	2.5455	0.	9.5528e-003
1220	16.078	2.3636	0.	9.0843e-003
1221	16.078	2.1818	0.	8.4509e-003
1222	16.078	2.	0.	7.6409e-003
1223	16.078	1.8182	0.	6.6421e-003
1224	16.078	1.6364	0.	5.4412e-003
1225	16.078	1.4545	0.	4.0238e-003
1226	16.078	1.2727	0.	2.3757e-003
1227	16.078	1.0909	0.	4.5608e-004
1228	16.078	0.90909	0.	-1.6327e-003
1229	16.078	0.72727	0.	-4.3898e-003
1230	16.078	0.54545	0.	-5.8617e-003
1231	16.078	0.36364	0.	-1.6e-002
1232	16.078	0.18182	0.	2.1915e-004
1233	15.893	5.8182	0.	1.8534e-004
1234	15.893	5.6364	0.	-1.5286e-002
1235	15.893	5.4545	0.	-5.6815e-003
1236	15.893	5.2727	0.	-4.2856e-003
1237	15.893	5.0909	0.	-1.6501e-003
1238	15.893	4.9091	0.	3.6198e-004
1239	15.893	4.7273	0.	2.2223e-003
1240	15.893	4.5455	0.	3.8249e-003
1241	15.893	4.3636	0.	5.2124e-003
1242	15.893	4.1818	0.	6.3921e-003
1243	15.893	4.	0.	7.3785e-003
1244	15.893	3.8182	0.	8.179e-003
1245	15.893	3.6364	0.	8.8069e-003
1246	15.893	3.4545	0.	9.2723e-003
1247	15.893	3.2727	0.	9.5763e-003
1248	15.893	3.0909	0.	9.7286e-003
1249	15.893	2.9091	0.	9.7287e-003
1250	15.893	2.7273	0.	9.5771e-003
1251	15.893	2.5455	0.	9.2718e-003
1252	15.893	2.3636	0.	8.8075e-003
1253	15.893	2.1818	0.	8.1783e-003
1254	15.893	2.	0.	7.3777e-003
1255	15.893	1.8182	0.	6.392e-003
1256	15.893	1.6364	0.	5.2129e-003
1257	15.893	1.4545	0.	3.8235e-003
1258	15.893	1.2727	0.	2.2217e-003
1259	15.893	1.0909	0.	3.6176e-004
1260	15.893	0.90909	0.	-1.6485e-003
1261	15.893	0.72727	0.	-4.282e-003
1262	15.893	0.54545	0.	-5.6813e-003
1263	15.893	0.36364	0.	-1.5287e-002
1264	15.893	0.18182	0.	1.8634e-004
1265	15.708	5.8182	0.	1.4251e-004
1266	15.708	5.6364	0.	-1.4607e-002
1267	15.708	5.4545	0.	-5.5064e-003
1268	15.708	5.2727	0.	-4.1804e-003
1269	15.708	5.0909	0.	-1.6631e-003
1270	15.708	4.9091	0.	2.7714e-004
1271	15.708	4.7273	0.	2.0766e-003
1272	15.708	4.5455	0.	3.6366e-003
1273	15.708	4.3636	0.	4.9952e-003
1274	15.708	4.1818	0.	6.155e-003
1275	15.708	4.	0.	7.1254e-003
1276	15.708	3.8182	0.	7.9189e-003
1277	15.708	3.6364	0.	8.5416e-003
1278	15.708	3.4545	0.	9.0044e-003
1279	15.708	3.2727	0.	9.3085e-003
1280	15.708	3.0909	0.	9.459e-003
1281	15.708	2.9091	0.	9.4589e-003
1282	15.708	2.7273	0.	9.3076e-003
1283	15.708	2.5455	0.	9.0045e-003
1284	15.708	2.3636	0.	8.5425e-003
1285	15.708	2.1818	0.	7.9199e-003
1286	15.708	2.	0.	7.1252e-003
1287	15.708	1.8182	0.	6.1545e-003
1288	15.708	1.6364	0.	4.9958e-003
1289	15.708	1.4545	0.	3.6384e-003
1290	15.708	1.2727	0.	2.077e-003
1291	15.708	1.0909	0.	2.7709e-004
1292	15.708	0.90909	0.	-1.6618e-003
1293	15.708	0.72727	0.	-4.1793e-003
1294	15.708	0.54545	0.	-5.507e-003
1295	15.708	0.36364	0.	-1.4606e-002
1296	15.708	0.18182	0.	1.4285e-004
1297	15.523	5.8182	0.	8.7771e-005
1298	15.523	5.6364	0.	-1.3956e-002
1299	15.523	5.4545	0.	-5.3395e-003
1300	15.523	5.2727	0.	-4.0762e-003
1301	15.523	5.0909	0.	-1.671e-003
1302	15.523	4.9091	0.	1.9591e-004
1303	15.523	4.7273	0.	1.9382e-003
1304	15.523	4.5455	0.	3.4588e-003
1305	15.523	4.3636	0.	4.7876e-003
1306	15.523	4.1818	0.	5.9268e-003
1307	15.523	4.	0.	6.8853e-003
1308	15.523	3.8182	0.	7.6703e-003
1309	15.523	3.6364	0.	8.2895e-003
1310	15.523	3.4545	0.	8.7491e-003
1311	15.523	3.2727	0.	9.0513e-003
1312	15.523	3.0909	0.	9.2015e-003
1313	15.523	2.9091	0.	9.2012e-003
1314	15.523	2.7273	0.	9.0521e-003
1315	15.523	2.5455	0.	8.7485e-003
1316	15.523	2.3636	0.	8.2883e-003
1317	15.523	2.1818	0.	7.6715e-003
1318	15.523	2.	0.	6.8853e-003
1319	15.523	1.8182	0.	5.9262e-003
1320	15.523	1.6364	0.	4.787e-003
1321	15.523	1.4545	0.	3.459e-003
1322	15.523	1.2727	0.	1.9388e-003
1323	15.523	1.0909	0.	1.9652e-004
1324	15.523	0.90909	0.	-1.6704e-003
1325	15.523	0.72727	0.	-4.0749e-003
1326	15.523	0.54545	0.	-5.3384e-003
1327	15.523	0.36364	0.	-1.3956e-002
1328	15.523	0.18182	0.	8.8259e-005
1329	15.338	5.8182	0.	2.494e-005
1330	15.338	5.6364	0.	-1.3331e-002
1331	15.338	5.4545	0.	-5.1735e-003
1332	15.338	5.2727	0.	-3.9746e-003
1333	15.338	5.0909	0.	-1.6776e-003
1334	15.338	4.9091	0.	1.1992e-004
1335	15.338	4.7273	0.	1.806e-003
1336	15.338	4.5455	0.	3.2889e-003
1337	15.338	4.3636	0.	4.5873e-003
1338	15.338	4.1818	0.	5.708e-003
1339	15.338	4.	0.	6.6551e-003
1340	15.338	3.8182	0.	7.4323e-003
1341	15.338	3.6364	0.	8.0457e-003
1342	15.338	3.4545	0.	8.5043e-003
1343	15.338	3.2727	0.	8.8049e-003
1344	15.338	3.0909	0.	8.956e-003
1345	15.338	2.9091	0.	8.9556e-003
1346	15.338	2.7273	0.	8.8053e-003
1347	15.338	2.5455	0.	8.5036e-003
1348	15.338	2.3636	0.	8.0471e-003
1349	15.338	2.1818	0.	7.4318e-003
1350	15.338	2.	0.	6.6545e-003
1351	15.338	1.8182	0.	5.7088e-003
1352	15.338	1.6364	0.	4.5877e-003
1353	15.338	1.4545	0.	3.2891e-003
1354	15.338	1.2727	0.	1.8062e-003
1355	15.338	1.0909	0.	1.2162e-004
1356	15.338	0.90909	0.	-1.677e-003
1357	15.338	0.72727	0.	-3.9727e-003
1358	15.338	0.54545	0.	-5.1724e-003
1359	15.338	0.36364	0.	-1.3331e-002
1360	15.338	0.18182	0.	2.5875e-005
1361	15.154	5.8182	0.	-4.4852e-005
1362	15.154	5.6364	0.	-1.2727e-002
1363	15.154	5.4545	0.	-5.013e-003
1364	15.154	5.2727	0.	-3.8728e-003
1365	15.154	5.0909	0.	-1.6809e-003
1366	15.154	4.9091	0.	4.8996e-005
1367	15.154	4.7273	0.	1.6805e-003
1368	15.154	4.5455	0.	3.1217e-003
1369	15.154	4.3636	0.	4.3945e-003
1370	15.154	4.1818	0.	5.4958e-003
1371	15.154	4.	0.	6.4313e-003
1372	15.154	3.8182	0.	7.2018e-003
1373	15.154	3.6364	0.	7.8133e-003
1374	15.154	3.4545	0.	8.2682e-003
1375	15.154	3.2727	0.	8.5697e-003
1376	15.154	3.0909	0.	8.7202e-003
1377	15.154	2.9091	0.	8.7197e-003
1378	15.154	2.7273	0.	8.5697e-003
1379	15.154	2.5455	0.	8.2703e-003
1380	15.154	2.3636	0.	7.8131e-003
1381	15.154	2.1818	0.	7.2018e-003
1382	15.154	2.	0.	6.431e-003
1383	15.154	1.8182	0.	5.4953e-003
1384	15.154	1.6364	0.	4.3944e-003
1385	15.154	1.4545	0.	3.1218e-003
1386	15.154	1.2727	0.	1.6799e-003
1387	15.154	1.0909	0.	4.8546e-005
1388	15.154	0.90909	0.	-1.68e-003
1389	15.154	0.72727	0.	-3.8723e-003
1390	15.154	0.54545	0.	-5.0144e-003
1391	15.154	0.36364	0.	-1.2725e-002
1392	15.154	0.18182	0.	-4.3859e-005
1393	14.969	5.8182	0.	-1.214e-004
1394	14.969	5.6364	0.	-1.2137e-002
1395	14.969	5.4545	0.	-4.8563e-003
1396	14.969	5.2727	0.	-3.7728e-003
1397	14.969	5.0909	0.	-1.682e-003
1398	14.969	4.9091	0.	-1.9707e-005
1399	14.969	4.7273	0.	1.5581e-003
1400	14.969	4.5455	0.	2.9601e-003
1401	14.969	4.3636	0.	4.2054e-003
1402	14.969	4.1818	0.	5.29e-003
1403	14.969	4.	0.	6.2132e-003
1404	14.969	3.8182	0.	6.9791e-003
1405	14.969	3.6364	0.	7.5872e-003
1406	14.969	3.4545	0.	8.0423e-003
1407	14.969	3.2727	0.	8.3429e-003
1408	14.969	3.0909	0.	8.4937e-003
1409	14.969	2.9091	0.	8.4935e-003
1410	14.969	2.7273	0.	8.3437e-003
1411	14.969	2.5455	0.	8.0415e-003
1412	14.969	2.3636	0.	7.5879e-003
1413	14.969	2.1818	0.	6.979e-003
1414	14.969	2.	0.	6.2149e-003
1415	14.969	1.8182	0.	5.2898e-003
1416	14.969	1.6364	0.	4.2054e-003
1417	14.969	1.4545	0.	2.9605e-003
1418	14.969	1.2727	0.	1.5578e-003
1419	14.969	1.0909	0.	-1.9537e-005
1420	14.969	0.90909	0.	-1.6815e-003
1421	14.969	0.72727	0.	-3.7711e-003
1422	14.969	0.54545	0.	-4.8551e-003
1423	14.969	0.36364	0.	-1.2138e-002
1424	14.969	0.18182	0.	-1.2154e-004
1425	14.784	5.8182	0.	-2.0468e-004
1426	14.784	5.6364	0.	-1.156e-002
1427	14.784	5.4545	0.	-4.6999e-003
1428	14.784	5.2727	0.	-3.6729e-003
1429	14.784	5.0909	0.	-1.6832e-003
1430	14.784	4.9091	0.	-8.6947e-005
1431	14.784	4.7273	0.	1.4375e-003
1432	14.784	4.5455	0.	2.8008e-003
1433	14.784	4.3636	0.	4.0207e-003
1434	14.784	4.1818	0.	5.0877e-003
1435	14.784	4.	0.	6.0014e-003
1436	14.784	3.8182	0.	6.7617e-003
1437	14.784	3.6364	0.	7.3675e-003
1438	14.784	3.4545	0.	7.8227e-003
1439	14.784	3.2727	0.	8.1253e-003
1440	14.784	3.0909	0.	8.2757e-003
1441	14.784	2.9091	0.	8.2755e-003
1442	14.784	2.7273	0.	8.125e-003
1443	14.784	2.5455	0.	7.8222e-003
1444	14.784	2.3636	0.	7.3682e-003
1445	14.784	2.1818	0.	6.7617e-003
1446	14.784	2.	0.	6.0013e-003
1447	14.784	1.8182	0.	5.0879e-003
1448	14.784	1.6364	0.	4.0209e-003
1449	14.784	1.4545	0.	2.8019e-003
1450	14.784	1.2727	0.	1.4378e-003
1451	14.784	1.0909	0.	-8.689e-005
1452	14.784	0.90909	0.	-1.6826e-003
1453	14.784	0.72727	0.	-3.671e-003
1454	14.784	0.54545	0.	-4.6989e-003
1455	14.784	0.36364	0.	-1.1559e-002
1456	14.784	0.18182	0.	-2.0505e-004
1457	14.599	5.8182	0.	-2.9592e-004
1458	14.599	5.6364	0.	-1.099e-002
1459	14.599	5.4545	0.	-4.5448e-003
1460	14.599	5.2727	0.	-3.571e-003
1461	14.599	5.0909	0.	-1.6827e-003
1462	14.599	4.9091	0.	-1.5219e-004
1463	14.599	4.7273	0.	1.3178e-003
1464	14.599	4.5455	0.	2.6434e-003
1465	14.599	4.3636	0.	3.8368e-003
1466	14.599	4.1818	0.	4.8866e-003
1467	14.599	4.	0.	5.7921e-003
1468	14.599	3.8182	0.	6.5481e-003
1469	14.599	3.6364	0.	7.1546e-003
1470	14.599	3.4545	0.	7.6109e-003
1471	14.599	3.2727	0.	7.9131e-003
1472	14.599	3.0909	0.	8.0649e-003
1473	14.599	2.9091	0.	8.0652e-003
1474	14.599	2.7273	0.	7.9143e-003
1475	14.599	2.5455	0.	7.6112e-003
1476	14.599	2.3636	0.	7.1544e-003
1477	14.599	2.1818	0.	6.5484e-003
1478	14.599	2.	0.	5.7925e-003
1479	14.599	1.8182	0.	4.8885e-003
1480	14.599	1.6364	0.	3.8371e-003
1481	14.599	1.4545	0.	2.6453e-003
1482	14.599	1.2727	0.	1.3182e-003
1483	14.599	1.0909	0.	-1.5122e-004
1484	14.599	0.90909	0.	-1.6814e-003
1485	14.599	0.72727	0.	-3.5696e-003
1486	14.599	0.54545	0.	-4.5455e-003
1487	14.599	0.36364	0.	-1.0991e-002
1488	14.599	0.18182	0.	-2.9649e-004
1489	14.414	5.8182	0.	-3.9331e-004
1490	14.414	5.6364	0.	-1.0425e-002
1491	14.414	5.4545	0.	-4.3893e-003
1492	14.414	5.2727	0.	-3.4713e-003
1493	14.414	5.0909	0.	-1.6812e-003
1494	14.414	4.9091	0.	-2.1727e-004
1495	14.414	4.7273	0.	1.1979e-003
1496	14.414	4.5455	0.	2.4856e-003
1497	14.414	4.3636	0.	3.6522e-003
1498	14.414	4.1818	0.	4.686e-003
1499	14.414	4.	0.	5.5845e-003
1500	14.414	3.8182	0.	6.3377e-003
1501	14.414	3.6364	0.	6.9447e-003
1502	14.414	3.4545	0.	7.4026e-003
1503	14.414	3.2727	0.	7.7088e-003
1504	14.414	3.0909	0.	7.8621e-003
1505	14.414	2.9091	0.	7.862e-003
1506	14.414	2.7273	0.	7.7085e-003
1507	14.414	2.5455	0.	7.403e-003
1508	14.414	2.3636	0.	6.9447e-003
1509	14.414	2.1818	0.	6.3377e-003
1510	14.414	2.	0.	5.5844e-003
1511	14.414	1.8182	0.	4.6864e-003
1512	14.414	1.6364	0.	3.6519e-003
1513	14.414	1.4545	0.	2.486e-003
1514	14.414	1.2727	0.	1.1979e-003
1515	14.414	1.0909	0.	-2.1705e-004
1516	14.414	0.90909	0.	-1.6797e-003
1517	14.414	0.72727	0.	-3.4681e-003
1518	14.414	0.54545	0.	-4.39e-003
1519	14.414	0.36364	0.	-1.0426e-002
1520	14.414	0.18182	0.	-3.93e-004
1521	14.23	5.8182	0.	-4.9795e-004
1522	14.23	5.6364	0.	-9.8599e-003
1523	14.23	5.4545	0.	-4.2342e-003
1524	14.23	5.2727	0.	-3.368e-003
1525	14.23	5.0909	0.	-1.6809e-003
1526	14.23	4.9091	0.	-2.856e-004
1527	14.23	4.7273	0.	1.0745e-003
1528	14.23	4.5455	0.	2.3231e-003
1529	14.23	4.3636	0.	3.462e-003
1530	14.23	4.1818	0.	4.4825e-003
1531	14.23	4.	0.	5.373e-003
1532	14.23	3.8182	0.	6.1268e-003
1533	14.23	3.6364	0.	6.7371e-003
1534	14.23	3.4545	0.	7.1991e-003
1535	14.23	3.2727	0.	7.5083e-003
1536	14.23	3.0909	0.	7.6646e-003
1537	14.23	2.9091	0.	7.6644e-003
1538	14.23	2.7273	0.	7.5093e-003
1539	14.23	2.5455	0.	7.1991e-003
1540	14.23	2.3636	0.	6.7365e-003
1541	14.23	2.1818	0.	6.1269e-003
1542	14.23	2.	0.	5.3738e-003
1543	14.23	1.8182	0.	4.4834e-003
1544	14.23	1.6364	0.	3.4639e-003
1545	14.23	1.4545	0.	2.3231e-003
1546	14.23	1.2727	0.	1.0751e-003
1547	14.23	1.0909	0.	-2.8464e-004
1548	14.23	0.90909	0.	-1.6787e-003
1549	14.23	0.72727	0.	-3.3676e-003
1550	14.23	0.54545	0.	-4.2337e-003
1551	14.23	0.36364	0.	-9.8603e-003
1552	14.23	0.18182	0.	-4.9841e-004
1553	14.045	5.8182	0.	-6.0955e-004
1554	14.045	5.6364	0.	-9.2905e-003
1555	14.045	5.4545	0.	-4.0765e-003
1556	14.045	5.2727	0.	-3.2655e-003
1557	14.045	5.0909	0.	-1.6808e-003
1558	14.045	4.9091	0.	-3.5582e-004
1559	14.045	4.7273	0.	9.4627e-004
1560	14.045	4.5455	0.	2.1539e-003
1561	14.045	4.3636	0.	3.268e-003
1562	14.045	4.1818	0.	4.2728e-003
1563	14.045	4.	0.	5.1588e-003
1564	14.045	3.8182	0.	5.9134e-003
1565	14.045	3.6364	0.	6.5283e-003
1566	14.045	3.4545	0.	6.9982e-003
1567	14.045	3.2727	0.	7.3137e-003
1568	14.045	3.0909	0.	7.4725e-003
1569	14.045	2.9091	0.	7.4719e-003
1570	14.045	2.7273	0.	7.3137e-003
1571	14.045	2.5455	0.	6.9979e-003
1572	14.045	2.3636	0.	6.5283e-003
1573	14.045	2.1818	0.	5.9129e-003
1574	14.045	2.	0.	5.1588e-003
1575	14.045	1.8182	0.	4.2727e-003
1576	14.045	1.6364	0.	3.2686e-003
1577	14.045	1.4545	0.	2.1537e-003
1578	14.045	1.2727	0.	9.4702e-004
1579	14.045	1.0909	0.	-3.5609e-004
1580	14.045	0.90909	0.	-1.6789e-003
1581	14.045	0.72727	0.	-3.2638e-003
1582	14.045	0.54545	0.	-4.0756e-003
1583	14.045	0.36364	0.	-9.2909e-003
1584	14.045	0.18182	0.	-6.0955e-004
1585	13.86	5.8182	0.	-7.3246e-004
1586	13.86	5.6364	0.	-8.7143e-003
1587	13.86	5.4545	0.	-3.9164e-003
1588	13.86	5.2727	0.	-3.1616e-003
1589	13.86	5.0909	0.	-1.6825e-003
1590	13.86	4.9091	0.	-4.3199e-004
1591	13.86	4.7273	0.	8.0884e-004
1592	13.86	4.5455	0.	1.9737e-003
1593	13.86	4.3636	0.	3.0593e-003
1594	13.86	4.1818	0.	4.0512e-003
1595	13.86	4.	0.	4.933e-003
1596	13.86	3.8182	0.	5.6928e-003
1597	13.86	3.6364	0.	6.3174e-003
1598	13.86	3.4545	0.	6.7962e-003
1599	13.86	3.2727	0.	7.1209e-003
1600	13.86	3.0909	0.	7.2841e-003
1601	13.86	2.9091	0.	7.2846e-003
1602	13.86	2.7273	0.	7.1202e-003
1603	13.86	2.5455	0.	6.7967e-003
1604	13.86	2.3636	0.	6.3178e-003
1605	13.86	2.1818	0.	5.6919e-003
1606	13.86	2.	0.	4.9336e-003
1607	13.86	1.8182	0.	4.0516e-003
1608	13.86	1.6364	0.	3.0596e-003
1609	13.86	1.4545	0.	1.9741e-003
1610	13.86	1.2727	0.	8.0968e-004
1611	13.86	1.0909	0.	-4.3204e-004
1612	13.86	0.90909	0.	-1.6818e-003
1613	13.86	0.72727	0.	-3.1599e-003
1614	13.86	0.54545	0.	-3.9155e-003
1615	13.86	0.36364	0.	-8.7148e-003
1616	13.86	0.18182	0.	-7.3304e-004
1617	13.675	5.8182	0.	-8.6391e-004
1618	13.675	5.6364	0.	-8.1266e-003
1619	13.675	5.4545	0.	-3.7519e-003
1620	13.675	5.2727	0.	-3.0552e-003
1621	13.675	5.0909	0.	-1.6875e-003
1622	13.675	4.9091	0.	-5.1616e-004
1623	13.675	4.7273	0.	6.6029e-004
1624	13.675	4.5455	0.	1.7781e-003
1625	13.675	4.3636	0.	2.8338e-003
1626	13.675	4.1818	0.	3.8113e-003
1627	13.675	4.	0.	4.6928e-003
1628	13.675	3.8182	0.	5.4606e-003
1629	13.675	3.6364	0.	6.0995e-003
1630	13.675	3.4545	0.	6.5933e-003
1631	13.675	3.2727	0.	6.9299e-003
1632	13.675	3.0909	0.	7.0998e-003
1633	13.675	2.9091	0.	7.1001e-003
1634	13.675	2.7273	0.	6.93e-003
1635	13.675	2.5455	0.	6.594e-003
1636	13.675	2.3636	0.	6.0989e-003
1637	13.675	2.1818	0.	5.4616e-003
1638	13.675	2.	0.	4.6933e-003
1639	13.675	1.8182	0.	3.8112e-003
1640	13.675	1.6364	0.	2.835e-003
1641	13.675	1.4545	0.	1.7784e-003
1642	13.675	1.2727	0.	6.6113e-004
1643	13.675	1.0909	0.	-5.1614e-004
1644	13.675	0.90909	0.	-1.6867e-003
1645	13.675	0.72727	0.	-3.0537e-003
1646	13.675	0.54545	0.	-3.7513e-003
1647	13.675	0.36364	0.	-8.1262e-003
1648	13.675	0.18182	0.	-8.6397e-004
1649	13.49	5.8182	0.	-1.0061e-003
1650	13.49	5.6364	0.	-7.5222e-003
1651	13.49	5.4545	0.	-3.5834e-003
1652	13.49	5.2727	0.	-2.9478e-003
1653	13.49	5.0909	0.	-1.697e-003
1654	13.49	4.9091	0.	-6.1267e-004
1655	13.49	4.7273	0.	4.9184e-004
1656	13.49	4.5455	0.	1.5568e-003
1657	13.49	4.3636	0.	2.5799e-003
1658	13.49	4.1818	0.	3.5432e-003
1659	13.49	4.	0.	4.4266e-003
1660	13.49	3.8182	0.	5.208e-003
1661	13.49	3.6364	0.	5.8669e-003
1662	13.49	3.4545	0.	6.3836e-003
1663	13.49	3.2727	0.	6.7379e-003
1664	13.49	3.0909	0.	6.9189e-003
1665	13.49	2.9091	0.	6.9192e-003
1666	13.49	2.7273	0.	6.7387e-003
1667	13.49	2.5455	0.	6.3836e-003
1668	13.49	2.3636	0.	5.8668e-003
1669	13.49	2.1818	0.	5.2086e-003
1670	13.49	2.	0.	4.4273e-003
1671	13.49	1.8182	0.	3.543e-003
1672	13.49	1.6364	0.	2.5807e-003
1673	13.49	1.4545	0.	1.5572e-003
1674	13.49	1.2727	0.	4.9162e-004
1675	13.49	1.0909	0.	-6.1216e-004
1676	13.49	0.90909	0.	-1.6967e-003
1677	13.49	0.72727	0.	-2.9464e-003
1678	13.49	0.54545	0.	-3.5832e-003
1679	13.49	0.36364	0.	-7.5242e-003
1680	13.49	0.18182	0.	-1.004e-003
1681	13.306	5.8182	0.	-1.1602e-003
1682	13.306	5.6364	0.	-6.9009e-003
1683	13.306	5.4545	0.	-3.408e-003
1684	13.306	5.2727	0.	-2.8398e-003
1685	13.306	5.0909	0.	-1.7154e-003
1686	13.306	4.9091	0.	-7.2541e-004
1687	13.306	4.7273	0.	2.9648e-004
1688	13.306	4.5455	0.	1.2997e-003
1689	13.306	4.3636	0.	2.2852e-003
1690	13.306	4.1818	0.	3.2301e-003
1691	13.306	4.	0.	4.1185e-003
1692	13.306	3.8182	0.	4.9203e-003
1693	13.306	3.6364	0.	5.6106e-003
1694	13.306	3.4545	0.	6.1605e-003
1695	13.306	3.2727	0.	6.5432e-003
1696	13.306	3.0909	0.	6.7393e-003
1697	13.306	2.9091	0.	6.7393e-003
1698	13.306	2.7273	0.	6.5435e-003
1699	13.306	2.5455	0.	6.1606e-003
1700	13.306	2.3636	0.	5.6105e-003
1701	13.306	2.1818	0.	4.9196e-003
1702	13.306	2.	0.	4.1181e-003
1703	13.306	1.8182	0.	3.2313e-003
1704	13.306	1.6364	0.	2.285e-003
1705	13.306	1.4545	0.	1.3005e-003
1706	13.306	1.2727	0.	2.9649e-004
1707	13.306	1.0909	0.	-7.248e-004
1708	13.306	0.90909	0.	-1.714e-003
1709	13.306	0.72727	0.	-2.8384e-003
1710	13.306	0.54545	0.	-3.4091e-003
1711	13.306	0.36364	0.	-6.9008e-003
1712	13.306	0.18182	0.	-1.1594e-003
1713	13.121	5.8182	0.	-1.3297e-003
1714	13.121	5.6364	0.	-6.2546e-003
1715	13.121	5.4545	0.	-3.2279e-003
1716	13.121	5.2727	0.	-2.7287e-003
1717	13.121	5.0909	0.	-1.7437e-003
1718	13.121	4.9091	0.	-8.6311e-004
1719	13.121	4.7273	0.	6.0911e-005
1720	13.121	4.5455	0.	9.8919e-004
1721	13.121	4.3636	0.	1.9222e-003
1722	13.121	4.1818	0.	2.8459e-003
1723	13.121	4.	0.	3.7376e-003
1724	13.121	3.8182	0.	4.5703e-003
1725	13.121	3.6364	0.	5.307e-003
1726	13.121	3.4545	0.	5.9105e-003
1727	13.121	3.2727	0.	6.3382e-003
1728	13.121	3.0909	0.	6.5607e-003
1729	13.121	2.9091	0.	6.5607e-003
1730	13.121	2.7273	0.	6.3382e-003
1731	13.121	2.5455	0.	5.9102e-003
1732	13.121	2.3636	0.	5.3084e-003
1733	13.121	2.1818	0.	4.5708e-003
1734	13.121	2.	0.	3.7383e-003
1735	13.121	1.8182	0.	2.8458e-003
1736	13.121	1.6364	0.	1.9227e-003
1737	13.121	1.4545	0.	9.8984e-004
1738	13.121	1.2727	0.	6.1389e-005
1739	13.121	1.0909	0.	-8.6274e-004
1740	13.121	0.90909	0.	-1.7424e-003
1741	13.121	0.72727	0.	-2.7283e-003
1742	13.121	0.54545	0.	-3.2274e-003
1743	13.121	0.36364	0.	-6.254e-003
1744	13.121	0.18182	0.	-1.3295e-003
1745	12.936	5.8182	0.	-1.5167e-003
1746	12.936	5.6364	0.	-5.5819e-003
1747	12.936	5.4545	0.	-3.0382e-003
1748	12.936	5.2727	0.	-2.6194e-003
1749	12.936	5.0909	0.	-1.7885e-003
1750	12.936	4.9091	0.	-1.0368e-003
1751	12.936	4.7273	0.	-2.3461e-004
1752	12.936	4.5455	0.	5.9172e-004
1753	12.936	4.3636	0.	1.4494e-003
1754	12.936	4.1818	0.	2.3324e-003
1755	12.936	4.	0.	3.2253e-003
1756	12.936	3.8182	0.	4.098e-003
1757	12.936	3.6364	0.	4.9087e-003
1758	12.936	3.4545	0.	5.6005e-003
1759	12.936	3.2727	0.	6.1094e-003
1760	12.936	3.0909	0.	6.3795e-003
1761	12.936	2.9091	0.	6.3801e-003
1762	12.936	2.7273	0.	6.1093e-003
1763	12.936	2.5455	0.	5.6003e-003
1764	12.936	2.3636	0.	4.9092e-003
1765	12.936	2.1818	0.	4.0982e-003
1766	12.936	2.	0.	3.2257e-003
1767	12.936	1.8182	0.	2.3327e-003
1768	12.936	1.6364	0.	1.4496e-003
1769	12.936	1.4545	0.	5.917e-004
1770	12.936	1.2727	0.	-2.3511e-004
1771	12.936	1.0909	0.	-1.0358e-003
1772	12.936	0.90909	0.	-1.7875e-003
1773	12.936	0.72727	0.	-2.6181e-003
1774	12.936	0.54545	0.	-3.0381e-003
1775	12.936	0.36364	0.	-5.5816e-003
1776	12.936	0.18182	0.	-1.5163e-003
1777	12.751	5.8182	0.	-1.7229e-003
1778	12.751	5.6364	0.	-4.8769e-003
1779	12.751	5.4545	0.	-2.8407e-003
1780	12.751	5.2727	0.	-2.5106e-003
1781	12.751	5.0909	0.	-1.8564e-003
1782	12.751	4.9091	0.	-1.2647e-003
1783	12.751	4.7273	0.	-6.259e-004
1784	12.751	4.5455	0.	4.9662e-005
1785	12.751	4.3636	0.	7.7831e-004
1786	12.751	4.1818	0.	1.5714e-003
1787	12.751	4.	0.	2.4304e-003
1788	12.751	3.8182	0.	3.3426e-003
1789	12.751	3.6364	0.	4.2662e-003
1790	12.751	3.4545	0.	5.1268e-003
1791	12.751	3.2727	0.	5.8084e-003
1792	12.751	3.0909	0.	6.1905e-003
1793	12.751	2.9091	0.	6.1911e-003
1794	12.751	2.7273	0.	5.8088e-003
1795	12.751	2.5455	0.	5.1269e-003
1796	12.751	2.3636	0.	4.2663e-003
1797	12.751	2.1818	0.	3.3421e-003
1798	12.751	2.	0.	2.4316e-003
1799	12.751	1.8182	0.	1.5711e-003
1800	12.751	1.6364	0.	7.7922e-004
1801	12.751	1.4545	0.	4.9635e-005
1802	12.751	1.2727	0.	-6.2492e-004
1803	12.751	1.0909	0.	-1.2639e-003
1804	12.751	0.90909	0.	-1.8552e-003
1805	12.751	0.72727	0.	-2.5096e-003
1806	12.751	0.54545	0.	-2.841e-003
1807	12.751	0.36364	0.	-4.8766e-003
1808	12.751	0.18182	0.	-1.7224e-003
1809	12.566	5.8182	0.	-1.9523e-003
1810	12.566	5.6364	0.	-4.1347e-003
1811	12.566	5.4545	0.	-2.6336e-003
1812	12.566	5.2727	0.	-2.4063e-003
1813	12.566	5.0909	0.	-1.9598e-003
1814	12.566	4.9091	0.	-1.5773e-003
1815	12.566	4.7273	0.	-1.1749e-003
1816	12.566	4.5455	0.	-7.5566e-004
1817	12.566	4.3636	0.	-2.9809e-004
1818	12.566	4.1818	0.	2.2842e-004
1819	12.566	4.	0.	8.6138e-004
1820	12.566	3.8182	0.	1.6486e-003
1821	12.566	3.6364	0.	2.6409e-003
1822	12.566	3.4545	0.	3.8371e-003
1823	12.566	3.2727	0.	5.08e-003
1824	12.566	3.0909	0.	5.9434e-003
1825	12.566	2.9091	0.	5.9436e-003
1826	12.566	2.7273	0.	5.0803e-003
1827	12.566	2.5455	0.	3.8376e-003
1828	12.566	2.3636	0.	2.6407e-003
1829	12.566	2.1818	0.	1.6494e-003
1830	12.566	2.	0.	8.6125e-004
1831	12.566	1.8182	0.	2.2876e-004
1832	12.566	1.6364	0.	-2.9839e-004
1833	12.566	1.4545	0.	-7.5505e-004
1834	12.566	1.2727	0.	-1.1743e-003
1835	12.566	1.0909	0.	-1.5766e-003
1836	12.566	0.90909	0.	-1.9589e-003
1837	12.566	0.72727	0.	-2.405e-003
1838	12.566	0.54545	0.	-2.6339e-003
1839	12.566	0.36364	0.	-4.1344e-003
1840	12.566	0.18182	0.	-1.9516e-003
1841	12.382	5.8182	0.	-2.2107e-003
1842	12.382	5.6364	0.	-3.3525e-003
1843	12.382	5.4545	0.	-2.4157e-003
1844	12.382	5.2727	0.	-2.3113e-003
1845	12.382	5.0909	0.	-2.1194e-003
1846	12.382	4.9091	0.	-2.0293e-003
1847	12.382	4.7273	0.	-2.015e-003
1848	12.382	4.5455	0.	-2.1224e-003
1849	12.382	4.3636	0.	-2.4214e-003
1850	12.382	4.1818	0.	-3.0843e-003
1851	12.382	4.	0.	-4.6373e-003
1852	12.382	3.8182	0.	-9.6444e-003
1853	12.382	3.6364	0.	-6.6615e-002
1854	12.382	3.4545	0.	-0.3528
1855	12.382	3.2727	0.	-0.57458
1856	12.382	3.0909	0.	-0.68691
1857	12.382	2.9091	0.	-0.68692
1858	12.382	2.7273	0.	-0.57459
1859	12.382	2.5455	0.	-0.3528
1860	12.382	2.3636	0.	-6.6616e-002
1861	12.382	2.1818	0.	-9.6444e-003
1862	12.382	2.	0.	-4.6379e-003
1863	12.382	1.8182	0.	-3.084e-003
1864	12.382	1.6364	0.	-2.4206e-003
1865	12.382	1.4545	0.	-2.1222e-003
1866	12.382	1.2727	0.	-2.0143e-003
1867	12.382	1.0909	0.	-2.0286e-003
1868	12.382	0.90909	0.	-2.1181e-003
1869	12.382	0.72727	0.	-2.3097e-003
1870	12.382	0.54545	0.	-2.4155e-003
1871	12.382	0.36364	0.	-3.3521e-003
1872	12.382	0.18182	0.	-2.209e-003
1873	12.197	5.8182	0.	-2.5018e-003
1874	12.197	5.6364	0.	-2.524e-003
1875	12.197	5.4545	0.	-2.1865e-003
1876	12.197	5.2727	0.	-2.2308e-003
1877	12.197	5.0909	0.	-2.3672e-003
1878	12.197	4.9091	0.	-2.7321e-003
1879	12.197	4.7273	0.	-3.4719e-003
1880	12.197	4.5455	0.	-5.0226e-003
1881	12.197	4.3636	0.	-8.9767e-003
1882	12.197	4.1818	0.	-2.8877e-002
1883	12.197	4.	0.	-0.40367
1884	12.197	3.8182	0.	-1.0002
1885	12.197	3.6364	0.	-1.4914
1886	12.197	3.4545	0.	-1.8637
1887	12.197	3.2727	0.	-2.1134
1888	12.197	3.0909	0.	-2.2388
1889	12.197	2.9091	0.	-2.2388
1890	12.197	2.7273	0.	-2.1134
1891	12.197	2.5455	0.	-1.8637
1892	12.197	2.3636	0.	-1.4914
1893	12.197	2.1818	0.	-1.0002
1894	12.197	2.	0.	-0.40367
1895	12.197	1.8182	0.	-2.8878e-002
1896	12.197	1.6364	0.	-8.9763e-003
1897	12.197	1.4545	0.	-5.0214e-003
1898	12.197	1.2727	0.	-3.472e-003
1899	12.197	1.0909	0.	-2.7316e-003
1900	12.197	0.90909	0.	-2.3661e-003
1901	12.197	0.72727	0.	-2.2298e-003
1902	12.197	0.54545	0.	-2.1861e-003
1903	12.197	0.36364	0.	-2.5236e-003
1904	12.197	0.18182	0.	-2.5012e-003
1905	12.012	5.8182	0.	-2.8336e-003
1906	12.012	5.6364	0.	-1.6447e-003
1907	12.012	5.4545	0.	-1.9448e-003
1908	12.012	5.2727	0.	-2.1794e-003
1909	12.012	5.0909	0.	-2.771e-003
1910	12.012	4.9091	0.	-3.9461e-003
1911	12.012	4.7273	0.	-6.6211e-003
1912	12.012	4.5455	0.	-1.5634e-002
1913	12.012	4.3636	0.	-0.19455
1914	12.012	4.1818	0.	-1.0511
1915	12.012	4.	0.	-1.8457
1916	12.012	3.8182	0.	-2.5188
1917	12.012	3.6364	0.	-3.0631
1918	12.012	3.4545	0.	-3.4745
1919	12.012	3.2727	0.	-3.7504
1920	12.012	3.0909	0.	-3.8887
1921	12.012	2.9091	0.	-3.8887
1922	12.012	2.7273	0.	-3.7504
1923	12.012	2.5455	0.	-3.4745
1924	12.012	2.3636	0.	-3.0631
1925	12.012	2.1818	0.	-2.5188
1926	12.012	2.	0.	-1.8457
1927	12.012	1.8182	0.	-1.0511
1928	12.012	1.6364	0.	-0.19455
1929	12.012	1.4545	0.	-1.5633e-002
1930	12.012	1.2727	0.	-6.6211e-003
1931	12.012	1.0909	0.	-3.9456e-003
1932	12.012	0.90909	0.	-2.7692e-003
1933	12.012	0.72727	0.	-2.1778e-003
1934	12.012	0.54545	0.	-1.9452e-003
1935	12.012	0.36364	0.	-1.6432e-003
1936	12.012	0.18182	0.	-2.8322e-003
1937	11.827	5.8182	0.	-3.2142e-003
1938	11.827	5.6364	0.	-7.0902e-004
1939	11.827	5.4545	0.	-1.6919e-003
1940	11.827	5.2727	0.	-2.1786e-003
1941	11.827	5.0909	0.	-3.4718e-003
1942	11.827	4.9091	0.	-6.465e-003
1943	11.827	4.7273	0.	-1.8268e-002
1944	11.827	4.5455	0.	-0.40799
1945	11.827	4.3636	0.	-1.5135
1946	11.827	4.1818	0.	-2.5208
1947	11.827	4.	0.	-3.3989
1948	11.827	3.8182	0.	-4.1401
1949	11.827	3.6364	0.	-4.739
1950	11.827	3.4545	0.	-5.1918
1951	11.827	3.2727	0.	-5.4952
1952	11.827	3.0909	0.	-5.6475
1953	11.827	2.9091	0.	-5.6475
1954	11.827	2.7273	0.	-5.4952
1955	11.827	2.5455	0.	-5.1918
1956	11.827	2.3636	0.	-4.739
1957	11.827	2.1818	0.	-4.1401
1958	11.827	2.	0.	-3.3989
1959	11.827	1.8182	0.	-2.5208
1960	11.827	1.6364	0.	-1.5135
1961	11.827	1.4545	0.	-0.408
1962	11.827	1.2727	0.	-1.8268e-002
1963	11.827	1.0909	0.	-6.4646e-003
1964	11.827	0.90909	0.	-3.4703e-003
1965	11.827	0.72727	0.	-2.1768e-003
1966	11.827	0.54545	0.	-1.6909e-003
1967	11.827	0.36364	0.	-7.094e-004
1968	11.827	0.18182	0.	-3.2134e-003
1969	11.642	5.8182	0.	-3.6549e-003
1970	11.642	5.6364	0.	2.875e-004
1971	11.642	5.4545	0.	-1.4263e-003
1972	11.642	5.2727	0.	-2.2715e-003
1973	11.642	5.0909	0.	-4.8371e-003
1974	11.642	4.9091	0.	-1.4315e-002
1975	11.642	4.7273	0.	-0.40556
1976	11.642	4.5455	0.	-1.7454
1977	11.642	4.3636	0.	-2.9874
1978	11.642	4.1818	0.	-4.0949
1979	11.642	4.	0.	-5.0587
1980	11.642	3.8182	0.	-5.8721
1981	11.642	3.6364	0.	-6.5294
1982	11.642	3.4545	0.	-7.0262
1983	11.642	3.2727	0.	-7.3593
1984	11.642	3.0909	0.	-7.5264
1985	11.642	2.9091	0.	-7.5264
1986	11.642	2.7273	0.	-7.3593
1987	11.642	2.5455	0.	-7.0262
1988	11.642	2.3636	0.	-6.5294
1989	11.642	2.1818	0.	-5.8721
1990	11.642	2.	0.	-5.0587
1991	11.642	1.8182	0.	-4.0949
1992	11.642	1.6364	0.	-2.9874
1993	11.642	1.4545	0.	-1.7454
1994	11.642	1.2727	0.	-0.40557
1995	11.642	1.0909	0.	-1.4315e-002
1996	11.642	0.90909	0.	-4.8357e-003
1997	11.642	0.72727	0.	-2.2705e-003
1998	11.642	0.54545	0.	-1.4262e-003
1999	11.642	0.36364	0.	2.8672e-004
2000	11.642	0.18182	0.	-3.6543e-003
2001	11.458	5.8182	0.	-4.1681e-003
2002	11.458	5.6364	0.	1.3502e-003
2003	11.458	5.4545	0.	-1.1522e-003
2004	11.458	5.2727	0.	-2.5564e-003
2005	11.458	5.0909	0.	-8.2142e-003
2006	11.458	4.9091	0.	-0.16857
2007	11.458	4.7273	0.	-1.7058
2008	11.458	4.5455	0.	-3.2047
2009	11.458	4.3636	0.	-4.5665
2010	11.458	4.1818	0.	-5.7794
2011	11.458	4.	0.	-6.8348
2012	11.458	3.8182	0.	-7.7256
2013	11.458	3.6364	0.	-8.4455
2014	11.458	3.4545	0.	-8.9897
2015	11.458	3.2727	0.	-9.3546
2016	11.458	3.0909	0.	-9.5377
2017	11.458	2.9091	0.	-9.5377
2018	11.458	2.7273	0.	-9.3547
2019	11.458	2.5455	0.	-8.9897
2020	11.458	2.3636	0.	-8.4455
2021	11.458	2.1818	0.	-7.7256
2022	11.458	2.	0.	-6.8348
2023	11.458	1.8182	0.	-5.7794
2024	11.458	1.6364	0.	-4.5665
2025	11.458	1.4545	0.	-3.2047
2026	11.458	1.2727	0.	-1.7058
2027	11.458	1.0909	0.	-0.16858
2028	11.458	0.90909	0.	-8.2136e-003
2029	11.458	0.72727	0.	-2.5557e-003
2030	11.458	0.54545	0.	-1.1517e-003
2031	11.458	0.36364	0.	1.3509e-003
2032	11.458	0.18182	0.	-4.1682e-003
2033	11.273	5.8182	0.	-4.7738e-003
2034	11.273	5.6364	0.	2.4851e-003
2035	11.273	5.4545	0.	-8.7406e-004
2036	11.273	5.2727	0.	-3.2895e-003
2037	11.273	5.0909	0.	-2.5124e-002
2038	11.273	4.9091	0.	-1.3519
2039	11.273	4.7273	0.	-3.1291
2040	11.273	4.5455	0.	-4.7697
2041	11.273	4.3636	0.	-6.2584
2042	11.273	4.1818	0.	-7.5844
2043	11.273	4.	0.	-8.7384
2044	11.273	3.8182	0.	-9.7124
2045	11.273	3.6364	0.	-10.5
2046	11.273	3.4545	0.	-11.095
2047	11.273	3.2727	0.	-11.494
2048	11.273	3.0909	0.	-11.694
2049	11.273	2.9091	0.	-11.694
2050	11.273	2.7273	0.	-11.494
2051	11.273	2.5455	0.	-11.095
2052	11.273	2.3636	0.	-10.5
2053	11.273	2.1818	0.	-9.7124
2054	11.273	2.	0.	-8.7384
2055	11.273	1.8182	0.	-7.5844
2056	11.273	1.6364	0.	-6.2585
2057	11.273	1.4545	0.	-4.7697
2058	11.273	1.2727	0.	-3.1291
2059	11.273	1.0909	0.	-1.3519
2060	11.273	0.90909	0.	-2.5124e-002
2061	11.273	0.72727	0.	-3.2879e-003
2062	11.273	0.54545	0.	-8.7353e-004
2063	11.273	0.36364	0.	2.4861e-003
2064	11.273	0.18182	0.	-4.7734e-003
2065	11.088	5.8182	0.	-5.4946e-003
2066	11.088	5.6364	0.	3.6948e-003
2067	11.088	5.4545	0.	-6.0517e-004
2068	11.088	5.2727	0.	-5.4337e-003
2069	11.088	5.0909	0.	-0.64385
2070	11.088	4.9091	0.	-2.7134
2071	11.088	4.7273	0.	-4.6572
2072	11.088	4.5455	0.	-6.4483
2073	11.088	4.3636	0.	-8.0735
2074	11.088	4.1818	0.	-9.5212
2075	11.088	4.	0.	-10.781
2076	11.088	3.8182	0.	-11.845
2077	11.088	3.6364	0.	-12.705
2078	11.088	3.4545	0.	-13.356
2079	11.088	3.2727	0.	-13.792
2080	11.088	3.0909	0.	-14.011
2081	11.088	2.9091	0.	-14.011
2082	11.088	2.7273	0.	-13.792
2083	11.088	2.5455	0.	-13.356
2084	11.088	2.3636	0.	-12.705
2085	11.088	2.1818	0.	-11.845
2086	11.088	2.	0.	-10.781
2087	11.088	1.8182	0.	-9.5212
2088	11.088	1.6364	0.	-8.0735
2089	11.088	1.4545	0.	-6.4483
2090	11.088	1.2727	0.	-4.6572
2091	11.088	1.0909	0.	-2.7134
2092	11.088	0.90909	0.	-0.64387
2093	11.088	0.72727	0.	-5.4329e-003
2094	11.088	0.54545	0.	-6.0477e-004
2095	11.088	0.36364	0.	3.6959e-003
2096	11.088	0.18182	0.	-5.4941e-003
2097	10.903	5.8182	0.	-6.3622e-003
2098	10.903	5.6364	0.	4.9831e-003
2099	10.903	5.4545	0.	-3.7822e-004
2100	10.903	5.2727	0.	-1.803e-002
2101	10.903	5.0909	0.	-1.9075
2102	10.903	4.9091	0.	-4.1775
2103	10.903	4.7273	0.	-6.2973
2104	10.903	4.5455	0.	-8.2505
2105	10.903	4.3636	0.	-10.023
2106	10.903	4.1818	0.	-11.602
2107	10.903	4.	0.	-12.977
2108	10.903	3.8182	0.	-14.138
2109	10.903	3.6364	0.	-15.077
2110	10.903	3.4545	0.	-15.787
2111	10.903	3.2727	0.	-16.263
2112	10.903	3.0909	0.	-16.501
2113	10.903	2.9091	0.	-16.501
2114	10.903	2.7273	0.	-16.263
2115	10.903	2.5455	0.	-15.787
2116	10.903	2.3636	0.	-15.077
2117	10.903	2.1818	0.	-14.138
2118	10.903	2.	0.	-12.977
2119	10.903	1.8182	0.	-11.602
2120	10.903	1.6364	0.	-10.023
2121	10.903	1.4545	0.	-8.2505
2122	10.903	1.2727	0.	-6.2973
2123	10.903	1.0909	0.	-4.1775
2124	10.903	0.90909	0.	-1.9075
2125	10.903	0.72727	0.	-1.803e-002
2126	10.903	0.54545	0.	-3.7809e-004
2127	10.903	0.36364	0.	4.9831e-003
2128	10.903	0.18182	0.	-6.3615e-003
2129	10.718	5.8182	0.	-7.4186e-003
2130	10.718	5.6364	0.	6.3475e-003
2131	10.718	5.4545	0.	-2.9679e-004
2132	10.718	5.2727	0.	-0.66271
2133	10.718	5.0909	0.	-3.2758
2134	10.718	4.9091	0.	-5.7498
2135	10.718	4.7273	0.	-8.0592
2136	10.718	4.5455	0.	-10.187
2137	10.718	4.3636	0.	-12.119
2138	10.718	4.1818	0.	-13.84
2139	10.718	4.	0.	-15.339
2140	10.718	3.8182	0.	-16.605
2141	10.718	3.6364	0.	-17.629
2142	10.718	3.4545	0.	-18.403
2143	10.718	3.2727	0.	-18.922
2144	10.718	3.0909	0.	-19.183
2145	10.718	2.9091	0.	-19.183
2146	10.718	2.7273	0.	-18.922
2147	10.718	2.5455	0.	-18.403
2148	10.718	2.3636	0.	-17.629
2149	10.718	2.1818	0.	-16.605
2150	10.718	2.	0.	-15.339
2151	10.718	1.8182	0.	-13.84
2152	10.718	1.6364	0.	-12.119
2153	10.718	1.4545	0.	-10.187
2154	10.718	1.2727	0.	-8.0592
2155	10.718	1.0909	0.	-5.7498
2156	10.718	0.90909	0.	-3.2758
2157	10.718	0.72727	0.	-0.66272
2158	10.718	0.54545	0.	-2.965e-004
2159	10.718	0.36364	0.	6.3479e-003
2160	10.718	0.18182	0.	-7.4179e-003
2161	10.534	5.8182	0.	-8.7231e-003
2162	10.534	5.6364	0.	7.7778e-003
2163	10.534	5.4545	0.	-8.6923e-004
2164	10.534	5.2727	0.	-1.8939
2165	10.534	5.0909	0.	-4.746
2166	10.534	4.9091	0.	-7.4392
2167	10.534	4.7273	0.	-9.9536
2168	10.534	4.5455	0.	-12.271
2169	10.534	4.3636	0.	-14.375
2170	10.534	4.1818	0.	-16.25
2171	10.534	4.	0.	-17.883
2172	10.534	3.8182	0.	-19.263
2173	10.534	3.6364	0.	-20.378
2174	10.534	3.4545	0.	-21.222
2175	10.534	3.2727	0.	-21.788
2176	10.534	3.0909	0.	-22.072
2177	10.534	2.9091	0.	-22.072
2178	10.534	2.7273	0.	-21.788
2179	10.534	2.5455	0.	-21.222
2180	10.534	2.3636	0.	-20.378
2181	10.534	2.1818	0.	-19.263
2182	10.534	2.	0.	-17.883
2183	10.534	1.8182	0.	-16.25
2184	10.534	1.6364	0.	-14.375
2185	10.534	1.4545	0.	-12.271
2186	10.534	1.2727	0.	-9.9536
2187	10.534	1.0909	0.	-7.4392
2188	10.534	0.90909	0.	-4.746
2189	10.534	0.72727	0.	-1.8939
2190	10.534	0.54545	0.	-8.6829e-004
2191	10.534	0.36364	0.	7.7784e-003
2192	10.534	0.18182	0.	-8.7219e-003
2193	10.349	5.8182	0.	-1.0356e-002
2194	10.349	5.6364	0.	9.2456e-003
2195	10.349	5.4545	0.	-3.2499e-002
2196	10.349	5.2727	0.	-3.2223
2197	10.349	5.0909	0.	-6.3256
2198	10.349	4.9091	0.	-9.2558
2199	10.349	4.7273	0.	-11.992
2200	10.349	4.5455	0.	-14.514
2201	10.349	4.3636	0.	-16.805
2202	10.349	4.1818	0.	-18.847
2203	10.349	4.	0.	-20.626
2204	10.349	3.8182	0.	-22.128
2205	10.349	3.6364	0.	-23.343
2206	10.349	3.4545	0.	-24.263
2207	10.349	3.2727	0.	-24.879
2208	10.349	3.0909	0.	-25.189
2209	10.349	2.9091	0.	-25.189
2210	10.349	2.7273	0.	-24.879
2211	10.349	2.5455	0.	-24.263
2212	10.349	2.3636	0.	-23.343
2213	10.349	2.1818	0.	-22.128
2214	10.349	2.	0.	-20.626
2215	10.349	1.8182	0.	-18.847
2216	10.349	1.6364	0.	-16.805
2217	10.349	1.4545	0.	-14.514
2218	10.349	1.2727	0.	-11.992
2219	10.349	1.0909	0.	-9.2558
2220	10.349	0.90909	0.	-6.3256
2221	10.349	0.72727	0.	-3.2224
2222	10.349	0.54545	0.	-3.2502e-002
2223	10.349	0.36364	0.	9.2465e-003
2224	10.349	0.18182	0.	-1.0355e-002
2225	10.164	5.8182	0.	-1.2438e-002
2226	10.164	5.6364	0.	1.0659e-002
2227	10.164	5.4545	0.	-1.1089
2228	10.164	5.2727	0.	-4.6494
2229	10.164	5.0909	0.	-8.0238
2230	10.164	4.9091	0.	-11.211
2231	10.164	4.7273	0.	-14.187
2232	10.164	4.5455	0.	-16.932
2233	10.164	4.3636	0.	-19.424
2234	10.164	4.1818	0.	-21.647
2235	10.164	4.	0.	-23.583
2236	10.164	3.8182	0.	-25.219
2237	10.164	3.6364	0.	-26.543
2238	10.164	3.4545	0.	-27.544
2239	10.164	3.2727	0.	-28.215
2240	10.164	3.0909	0.	-28.552
2241	10.164	2.9091	0.	-28.552
2242	10.164	2.7273	0.	-28.215
2243	10.164	2.5455	0.	-27.544
2244	10.164	2.3636	0.	-26.543
2245	10.164	2.1818	0.	-25.219
2246	10.164	2.	0.	-23.583
2247	10.164	1.8182	0.	-21.647
2248	10.164	1.6364	0.	-19.424
2249	10.164	1.4545	0.	-16.932
2250	10.164	1.2727	0.	-14.187
2251	10.164	1.0909	0.	-11.211
2252	10.164	0.90909	0.	-8.0238
2253	10.164	0.72727	0.	-4.6494
2254	10.164	0.54545	0.	-1.1089
2255	10.164	0.36364	0.	1.0661e-002
2256	10.164	0.18182	0.	-1.2437e-002
2257	9.9792	5.8182	0.	-1.5143e-002
2258	9.9792	5.6364	0.	1.1694e-002
2259	9.9792	5.4545	0.	-2.335
2260	9.9792	5.2727	0.	-6.1824
2261	9.9792	5.0909	0.	-9.8504
2262	9.9792	4.9091	0.	-13.315
2263	9.9792	4.7273	0.	-16.552
2264	9.9792	4.5455	0.	-19.538
2265	9.9792	4.3636	0.	-22.25
2266	9.9792	4.1818	0.	-24.669
2267	9.9792	4.	0.	-26.776
2268	9.9792	3.8182	0.	-28.556
2269	9.9792	3.6364	0.	-29.997
2270	9.9792	3.4545	0.	-31.087
2271	9.9792	3.2727	0.	-31.818
2272	9.9792	3.0909	0.	-32.185
2273	9.9792	2.9091	0.	-32.185
2274	9.9792	2.7273	0.	-31.818
2275	9.9792	2.5455	0.	-31.087
2276	9.9792	2.3636	0.	-29.997
2277	9.9792	2.1818	0.	-28.556
2278	9.9792	2.	0.	-26.776
2279	9.9792	1.8182	0.	-24.669
2280	9.9792	1.6364	0.	-22.25
2281	9.9792	1.4545	0.	-19.538
2282	9.9792	1.2727	0.	-16.552
2283	9.9792	1.0909	0.	-13.315
2284	9.9792	0.90909	0.	-9.8505
2285	9.9792	0.72727	0.	-6.1825
2286	9.9792	0.54545	0.	-2.335
2287	9.9792	0.36364	0.	1.1695e-002
2288	9.9792	0.18182	0.	-1.5143e-002
2289	9.7944	5.8182	0.	-1.8746e-002
2290	9.7944	5.6364	0.	1.0166e-002
2291	9.7944	5.4545	0.	-3.6505
2292	9.7944	5.2727	0.	-7.8302
2293	9.7944	5.0909	0.	-11.816
2294	9.7944	4.9091	0.	-15.583
2295	9.7944	4.7273	0.	-19.103
2296	9.7944	4.5455	0.	-22.349
2297	9.7944	4.3636	0.	-25.299
2298	9.7944	4.1818	0.	-27.931
2299	9.7944	4.	0.	-30.223
2300	9.7944	3.8182	0.	-32.161
2301	9.7944	3.6364	0.	-33.729
2302	9.7944	3.4545	0.	-34.915
2303	9.7944	3.2727	0.	-35.711
2304	9.7944	3.0909	0.	-36.11
2305	9.7944	2.9091	0.	-36.11
2306	9.7944	2.7273	0.	-35.711
2307	9.7944	2.5455	0.	-34.915
2308	9.7944	2.3636	0.	-33.729
2309	9.7944	2.1818	0.	-32.161
2310	9.7944	2.	0.	-30.223
2311	9.7944	1.8182	0.	-27.931
2312	9.7944	1.6364	0.	-25.299
2313	9.7944	1.4545	0.	-22.349
2314	9.7944	1.2727	0.	-19.103
2315	9.7944	1.0909	0.	-15.583
2316	9.7944	0.90909	0.	-11.816
2317	9.7944	0.72727	0.	-7.8302
2318	9.7944	0.54545	0.	-3.6505
2319	9.7944	0.36364	0.	1.0167e-002
2320	9.7944	0.18182	0.	-1.8745e-002
2321	9.6096	5.8182	0.	-2.3688e-002
2322	9.6096	5.6364	0.	-0.30016
2323	9.6096	5.4545	0.	-5.0622
2324	9.6096	5.2727	0.	-9.602
2325	9.6096	5.0909	0.	-13.934
2326	9.6096	4.9091	0.	-18.027
2327	9.6096	4.7273	0.	-21.854
2328	9.6096	4.5455	0.	-25.384
2329	9.6096	4.3636	0.	-28.592
2330	9.6096	4.1818	0.	-31.454
2331	9.6096	4.	0.	-33.948
2332	9.6096	3.8182	0.	-36.056
2333	9.6096	3.6364	0.	-37.762
2334	9.6096	3.4545	0.	-39.053
2335	9.6096	3.2727	0.	-39.919
2336	9.6096	3.0909	0.	-40.354
2337	9.6096	2.9091	0.	-40.354
2338	9.6096	2.7273	0.	-39.919
2339	9.6096	2.5455	0.	-39.053
2340	9.6096	2.3636	0.	-37.762
2341	9.6096	2.1818	0.	-36.056
2342	9.6096	2.	0.	-33.948
2343	9.6096	1.8182	0.	-31.454
2344	9.6096	1.6364	0.	-28.592
2345	9.6096	1.4545	0.	-25.384
2346	9.6096	1.2727	0.	-21.854
2347	9.6096	1.0909	0.	-18.027
2348	9.6096	0.90909	0.	-13.934
2349	9.6096	0.72727	0.	-9.602
2350	9.6096	0.54545	0.	-5.0622
2351	9.6096	0.36364	0.	-0.30015
2352	9.6096	0.18182	0.	-2.3688e-002
2353	9.4248	5.8182	0.	-3.0729e-002
2354	9.4248	5.6364	0.	-1.4005
2355	9.4248	5.4545	0.	-6.5775
2356	9.4248	5.2727	0.	-11.508
2357	9.4248	5.0909	0.	-16.214
2358	9.4248	4.9091	0.	-20.663
2359	9.4248	4.7273	0.	-24.822
2360	9.4248	4.5455	0.	-28.66
2361	9.4248	4.3636	0.	-32.149
2362	9.4248	4.1818	0.	-35.261
2363	9.4248	4.	0.	-37.974
2364	9.4248	3.8182	0.	-40.267
2365	9.4248	3.6364	0.	-42.123
2366	9.4248	3.4545	0.	-43.528
2367	9.4248	3.2727	0.	-44.47
2368	9.4248	3.0909	0.	-44.943
2369	9.4248	2.9091	0.	-44.943
2370	9.4248	2.7273	0.	-44.47
2371	9.4248	2.5455	0.	-43.528
2372	9.4248	2.3636	0.	-42.123
2373	9.4248	2.1818	0.	-40.267
2374	9.4248	2.	0.	-37.974
2375	9.4248	1.8182	0.	-35.261
2376	9.4248	1.6364	0.	-32.149
2377	9.4248	1.4545	0.	-28.66
2378	9.4248	1.2727	0.	-24.822
2379	9.4248	1.0909	0.	-20.663
2380	9.4248	0.90909	0.	-16.214
2381	9.4248	0.72727	0.	-11.508
2382	9.4248	0.54545	0.	-6.5776
2383	9.4248	0.36364	0.	-1.4005
2384	9.4248	0.18182	0.	-3.0728e-002
2385	9.24	5.8182	0.	-4.1282e-002
2386	9.24	5.6364	0.	-2.5889
2387	9.24	5.4545	0.	-8.205
2388	9.24	5.2727	0.	-13.56
2389	9.24	5.0909	0.	-18.672
2390	9.24	4.9091	0.	-23.506
2391	9.24	4.7273	0.	-28.027
2392	9.24	4.5455	0.	-32.199
2393	9.24	4.3636	0.	-35.992
2394	9.24	4.1818	0.	-39.376
2395	9.24	4.	0.	-42.327
2396	9.24	3.8182	0.	-44.821
2397	9.24	3.6364	0.	-46.84
2398	9.24	3.4545	0.	-48.368
2399	9.24	3.2727	0.	-49.393
2400	9.24	3.0909	0.	-49.908
2401	9.24	2.9091	0.	-49.908
2402	9.24	2.7273	0.	-49.393
2403	9.24	2.5455	0.	-48.368
2404	9.24	2.3636	0.	-46.84
2405	9.24	2.1818	0.	-44.821
2406	9.24	2.	0.	-42.327
2407	9.24	1.8182	0.	-39.376
2408	9.24	1.6364	0.	-35.992
2409	9.24	1.4545	0.	-32.199
2410	9.24	1.2727	0.	-28.027
2411	9.24	1.0909	0.	-23.506
2412	9.24	0.90909	0.	-18.672
2413	9.24	0.72727	0.	-13.56
2414	9.24	0.54545	0.	-8.205
2415	9.24	0.36364	0.	-2.5889
2416	9.24	0.18182	0.	-4.1281e-002
2417	9.0552	5.8182	0.	-5.8277e-002
2418	9.0552	5.6364	0.	-3.8619
2419	9.0552	5.4545	0.	-9.9534
2420	9.0552	5.2727	0.	-15.768
2421	9.0552	5.0909	0.	-21.322
2422	9.0552	4.9091	0.	-26.574
2423	9.0552	4.7273	0.	-31.487
2424	9.0552	4.5455	0.	-36.022
2425	9.0552	4.3636	0.	-40.145
2426	9.0552	4.1818	0.	-43.825
2427	9.0552	4.	0.	-47.034
2428	9.0552	3.8182	0.	-49.747
2429	9.0552	3.6364	0.	-51.943
2430	9.0552	3.4545	0.	-53.605
2431	9.0552	3.2727	0.	-54.721
2432	9.0552	3.0909	0.	-55.281
2433	9.0552	2.9091	0.	-55.281
2434	9.0552	2.7273	0.	-54.721
2435	9.0552	2.5455	0.	-53.605
2436	9.0552	2.3636	0.	-51.943
2437	9.0552	2.1818	0.	-49.747
2438	9.0552	2.	0.	-47.034
2439	9.0552	1.8182	0.	-43.825
2440	9.0552	1.6364	0.	-40.145
2441	9.0552	1.4545	0.	-36.022
2442	9.0552	1.2727	0.	-31.487
2443	9.0552	1.0909	0.	-26.574
2444	9.0552	0.90909	0.	-21.322
2445	9.0552	0.72727	0.	-15.768
2446	9.0552	0.54545	0.	-9.9534
2447	9.0552	0.36364	0.	-3.8619
2448	9.0552	0.18182	0.	-5.8276e-002
2449	8.8704	5.8182	0.	-8.8778e-002
2450	8.8704	5.6364	0.	-5.2252
2451	8.8704	5.4545	0.	-11.832
2452	8.8704	5.2727	0.	-18.146
2453	8.8704	5.0909	0.	-24.178
2454	8.8704	4.9091	0.	-29.885
2455	8.8704	4.7273	0.	-35.224
2456	8.8704	4.5455	0.	-40.153
2457	8.8704	4.3636	0.	-44.635
2458	8.8704	4.1818	0.	-48.637
2459	8.8704	4.	0.	-52.127
2460	8.8704	3.8182	0.	-55.077
2461	8.8704	3.6364	0.	-57.466
2462	8.8704	3.4545	0.	-59.274
2463	8.8704	3.2727	0.	-60.487
2464	8.8704	3.0909	0.	-61.096
2465	8.8704	2.9091	0.	-61.096
2466	8.8704	2.7273	0.	-60.487
2467	8.8704	2.5455	0.	-59.274
2468	8.8704	2.3636	0.	-57.466
2469	8.8704	2.1818	0.	-55.077
2470	8.8704	2.	0.	-52.127
2471	8.8704	1.8182	0.	-48.637
2472	8.8704	1.6364	0.	-44.635
2473	8.8704	1.4545	0.	-40.153
2474	8.8704	1.2727	0.	-35.224
2475	8.8704	1.0909	0.	-29.885
2476	8.8704	0.90909	0.	-24.178
2477	8.8704	0.72727	0.	-18.146
2478	8.8704	0.54545	0.	-11.832
2479	8.8704	0.36364	0.	-5.2252
2480	8.8704	0.18182	0.	-8.8776e-002
2481	8.6856	5.8182	0.	-0.15401
2482	8.6856	5.6364	0.	-6.6854
2483	8.6856	5.4545	0.	-13.852
2484	8.6856	5.2727	0.	-20.707
2485	8.6856	5.0909	0.	-27.259
2486	8.6856	4.9091	0.	-33.459
2487	8.6856	4.7273	0.	-39.26
2488	8.6856	4.5455	0.	-44.618
2489	8.6856	4.3636	0.	-49.491
2490	8.6856	4.1818	0.	-53.842
2491	8.6856	4.	0.	-57.636
2492	8.6856	3.8182	0.	-60.845
2493	8.6856	3.6364	0.	-63.444
2494	8.6856	3.4545	0.	-65.411
2495	8.6856	3.2727	0.	-66.731
2496	8.6856	3.0909	0.	-67.393
2497	8.6856	2.9091	0.	-67.393
2498	8.6856	2.7273	0.	-66.731
2499	8.6856	2.5455	0.	-65.411
2500	8.6856	2.3636	0.	-63.444
2501	8.6856	2.1818	0.	-60.845
2502	8.6856	2.	0.	-57.636
2503	8.6856	1.8182	0.	-53.842
2504	8.6856	1.6364	0.	-49.491
2505	8.6856	1.4545	0.	-44.618
2506	8.6856	1.2727	0.	-39.26
2507	8.6856	1.0909	0.	-33.459
2508	8.6856	0.90909	0.	-27.259
2509	8.6856	0.72727	0.	-20.707
2510	8.6856	0.54545	0.	-13.852
2511	8.6856	0.36364	0.	-6.6854
2512	8.6856	0.18182	0.	-0.15401
2513	8.5008	5.8182	0.	-0.33688
2514	8.5008	5.6364	0.	-8.2493
2515	8.5008	5.4545	0.	-16.022
2516	8.5008	5.2727	0.	-23.466
2517	8.5008	5.0909	0.	-30.582
2518	8.5008	4.9091	0.	-37.318
2519	8.5008	4.7273	0.	-43.621
2520	8.5008	4.5455	0.	-49.444
2521	8.5008	4.3636	0.	-54.741
2522	8.5008	4.1818	0.	-59.472
2523	8.5008	4.	0.	-63.599
2524	8.5008	3.8182	0.	-67.089
2525	8.5008	3.6364	0.	-69.915
2526	8.5008	3.4545	0.	-72.055
2527	8.5008	3.2727	0.	-73.491
2528	8.5008	3.0909	0.	-74.212
2529	8.5008	2.9091	0.	-74.212
2530	8.5008	2.7273	0.	-73.491
2531	8.5008	2.5455	0.	-72.055
2532	8.5008	2.3636	0.	-69.915
2533	8.5008	2.1818	0.	-67.089
2534	8.5008	2.	0.	-63.599
2535	8.5008	1.8182	0.	-59.472
2536	8.5008	1.6364	0.	-54.741
2537	8.5008	1.4545	0.	-49.444
2538	8.5008	1.2727	0.	-43.621
2539	8.5008	1.0909	0.	-37.318
2540	8.5008	0.90909	0.	-30.582
2541	8.5008	0.72727	0.	-23.466
2542	8.5008	0.54545	0.	-16.022
2543	8.5008	0.36364	0.	-8.2493
2544	8.5008	0.18182	0.	-0.33688
2545	8.316	5.8182	0.	-0.88041
2546	8.316	5.6364	0.	-9.9245
2547	8.316	5.4545	0.	-18.356
2548	8.316	5.2727	0.	-26.438
2549	8.316	5.0909	0.	-34.166
2550	8.316	4.9091	0.	-41.483
2551	8.316	4.7273	0.	-48.333
2552	8.316	4.5455	0.	-54.661
2553	8.316	4.3636	0.	-60.42
2554	8.316	4.1818	0.	-65.564
2555	8.316	4.	0.	-70.052
2556	8.316	3.8182	0.	-73.848
2557	8.316	3.6364	0.	-76.922
2558	8.316	3.4545	0.	-79.25
2559	8.316	3.2727	0.	-80.813
2560	8.316	3.0909	0.	-81.597
2561	8.316	2.9091	0.	-81.597
2562	8.316	2.7273	0.	-80.813
2563	8.316	2.5455	0.	-79.25
2564	8.316	2.3636	0.	-76.922
2565	8.316	2.1818	0.	-73.848
2566	8.316	2.	0.	-70.052
2567	8.316	1.8182	0.	-65.564
2568	8.316	1.6364	0.	-60.42
2569	8.316	1.4545	0.	-54.661
2570	8.316	1.2727	0.	-48.333
2571	8.316	1.0909	0.	-41.483
2572	8.316	0.90909	0.	-34.166
2573	8.316	0.72727	0.	-26.438
2574	8.316	0.54545	0.	-18.356
2575	8.316	0.36364	0.	-9.9245
2576	8.316	0.18182	0.	-0.8804
2577	8.1312	5.8182	0.	-1.8109
2578	8.1312	5.6364	0.	-11.719
2579	8.1312	5.4545	0.	-20.864
2580	8.1312	5.2727	0.	-29.639
2581	8.1312	5.0909	0.	-38.032
2582	8.1312	4.9091	0.	-45.981
2583	8.1312	4.7273	0.	-53.424
2584	8.1312	4.5455	0.	-60.302
2585	8.1312	4.3636	0.	-66.563
2586	8.1312	4.1818	0.	-72.156
2587	8.1312	4.	0.	-77.037
2588	8.1312	3.8182	0.	-81.166
2589	8.1312	3.6364	0.	-84.51
2590	8.1312	3.4545	0.	-87.043
2591	8.1312	3.2727	0.	-88.743
2592	8.1312	3.0909	0.	-89.597
2593	8.1312	2.9091	0.	-89.597
2594	8.1312	2.7273	0.	-88.743
2595	8.1312	2.5455	0.	-87.043
2596	8.1312	2.3636	0.	-84.51
2597	8.1312	2.1818	0.	-81.166
2598	8.1312	2.	0.	-77.037
2599	8.1312	1.8182	0.	-72.156
2600	8.1312	1.6364	0.	-66.563
2601	8.1312	1.4545	0.	-60.302
2602	8.1312	1.2727	0.	-53.424
2603	8.1312	1.0909	0.	-45.981
2604	8.1312	0.90909	0.	-38.032
2605	8.1312	0.72727	0.	-29.639
2606	8.1312	0.54545	0.	-20.864
2607	8.1312	0.36364	0.	-11.719
2608	8.1312	0.18182	0.	-1.8109
2609	7.9464	5.8182	0.	-2.9175
2610	7.9464	5.6364	0.	-13.64
2611	7.9464	5.4545	0.	-23.561
2612	7.9464	5.2727	0.	-33.087
2613	7.9464	5.0909	0.	-42.203
2614	7.9464	4.9091	0.	-50.837
2615	7.9464	4.7273	0.	-58.925
2616	7.9464	4.5455	0.	-66.401
2617	7.9464	4.3636	0.	-73.207
2618	7.9464	4.1818	0.	-79.289
2619	7.9464	4.	0.	-84.598
2620	7.9464	3.8182	0.	-89.09
2621	7.9464	3.6364	0.	-92.729
2622	7.9464	3.4545	0.	-95.484
2623	7.9464	3.2727	0.	-97.334
2624	7.9464	3.0909	0.	-98.263
2625	7.9464	2.9091	0.	-98.263
2626	7.9464	2.7273	0.	-97.334
2627	7.9464	2.5455	0.	-95.484
2628	7.9464	2.3636	0.	-92.729
2629	7.9464	2.1818	0.	-89.09
2630	7.9464	2.	0.	-84.598
2631	7.9464	1.8182	0.	-79.289
2632	7.9464	1.6364	0.	-73.207
2633	7.9464	1.4545	0.	-66.401
2634	7.9464	1.2727	0.	-58.925
2635	7.9464	1.0909	0.	-50.837
2636	7.9464	0.90909	0.	-42.203
2637	7.9464	0.72727	0.	-33.087
2638	7.9464	0.54545	0.	-23.561
2639	7.9464	0.36364	0.	-13.64
2640	7.9464	0.18182	0.	-2.9175
2641	7.7616	5.8182	0.	-4.127
2642	7.7616	5.6364	0.	-15.697
2643	7.7616	5.4545	0.	-26.459
2644	7.7616	5.2727	0.	-36.801
2645	7.7616	5.0909	0.	-46.7
2646	7.7616	4.9091	0.	-56.081
2647	7.7616	4.7273	0.	-64.869
2648	7.7616	4.5455	0.	-72.995
2649	7.7616	4.3636	0.	-80.395
2650	7.7616	4.1818	0.	-87.009
2651	7.7616	4.	0.	-92.783
2652	7.7616	3.8182	0.	-97.67
2653	7.7616	3.6364	0.	-101.63
2654	7.7616	3.4545	0.	-104.63
2655	7.7616	3.2727	0.	-106.64
2656	7.7616	3.0909	0.	-107.65
2657	7.7616	2.9091	0.	-107.65
2658	7.7616	2.7273	0.	-106.64
2659	7.7616	2.5455	0.	-104.63
2660	7.7616	2.3636	0.	-101.63
2661	7.7616	2.1818	0.	-97.67
2662	7.7616	2.	0.	-92.783
2663	7.7616	1.8182	0.	-87.009
2664	7.7616	1.6364	0.	-80.395
2665	7.7616	1.4545	0.	-72.995
2666	7.7616	1.2727	0.	-64.869
2667	7.7616	1.0909	0.	-56.081
2668	7.7616	0.90909	0.	-46.7
2669	7.7616	0.72727	0.	-36.801
2670	7.7616	0.54545	0.	-26.459
2671	7.7616	0.36364	0.	-15.697
2672	7.7616	0.18182	0.	-4.127
2673	7.5768	5.8182	0.	-5.4226
2674	7.5768	5.6364	0.	-17.899
2675	7.5768	5.4545	0.	-29.573
2676	7.5768	5.2727	0.	-40.8
2677	7.5768	5.0909	0.	-51.551
2678	7.5768	4.9091	0.	-61.741
2679	7.5768	4.7273	0.	-71.291
2680	7.5768	4.5455	0.	-80.124
2681	7.5768	4.3636	0.	-88.171
2682	7.5768	4.1818	0.	-95.364
2683	7.5768	4.	0.	-101.65
2684	7.5768	3.8182	0.	-106.96
2685	7.5768	3.6364	0.	-111.27
2686	7.5768	3.4545	0.	-114.54
2687	7.5768	3.2727	0.	-116.73
2688	7.5768	3.0909	0.	-117.83
2689	7.5768	2.9091	0.	-117.83
2690	7.5768	2.7273	0.	-116.73
2691	7.5768	2.5455	0.	-114.54
2692	7.5768	2.3636	0.	-111.27
2693	7.5768	2.1818	0.	-106.96
2694	7.5768	2.	0.	-101.65
2695	7.5768	1.8182	0.	-95.364
2696	7.5768	1.6364	0.	-88.171
2697	7.5768	1.4545	0.	-80.124
2698	7.5768	1.2727	0.	-71.291
2699	7.5768	1.0909	0.	-61.741
2700	7.5768	0.90909	0.	-51.551
2701	7.5768	0.72727	0.	-40.8
2702	7.5768	0.54545	0.	-29.573
2703	7.5768	0.36364	0.	-17.899
2704	7.5768	0.18182	0.	-5.4226
2705	7.392	5.8182	0.	-6.8005
2706	7.392	5.6364	0.	-20.255
2707	7.392	5.4545	0.	-32.918
2708	7.392	5.2727	0.	-45.106
2709	7.392	5.0909	0.	-56.781
2710	7.392	4.9091	0.	-67.851
2711	7.392	4.7273	0.	-78.229
2712	7.392	4.5455	0.	-87.832
2713	7.392	4.3636	0.	-96.582
2714	7.392	4.1818	0.	-104.41
2715	7.392	4.	0.	-111.24
2716	7.392	3.8182	0.	-117.03
2717	7.392	3.6364	0.	-121.72
2718	7.392	3.4545	0.	-125.27
2719	7.392	3.2727	0.	-127.65
2720	7.392	3.0909	0.	-128.85
2721	7.392	2.9091	0.	-128.85
2722	7.392	2.7273	0.	-127.65
2723	7.392	2.5455	0.	-125.27
2724	7.392	2.3636	0.	-121.72
2725	7.392	2.1818	0.	-117.03
2726	7.392	2.	0.	-111.24
2727	7.392	1.8182	0.	-104.41
2728	7.392	1.6364	0.	-96.582
2729	7.392	1.4545	0.	-87.832
2730	7.392	1.2727	0.	-78.229
2731	7.392	1.0909	0.	-67.851
2732	7.392	0.90909	0.	-56.781
2733	7.392	0.72727	0.	-45.106
2734	7.392	0.54545	0.	-32.918
2735	7.392	0.36364	0.	-20.255
2736	7.392	0.18182	0.	-6.8004
2737	7.2072	5.8182	0.	-8.2606
2738	7.2072	5.6364	0.	-22.775
2739	7.2072	5.4545	0.	-36.511
2740	7.2072	5.2727	0.	-49.741
2741	7.2072	5.0909	0.	-62.42
2742	7.2072	4.9091	0.	-74.446
2743	7.2072	4.7273	0.	-85.725
2744	7.2072	4.5455	0.	-96.165
2745	7.2072	4.3636	0.	-105.68
2746	7.2072	4.1818	0.	-114.19
2747	7.2072	4.	0.	-121.63
2748	7.2072	3.8182	0.	-127.93
2749	7.2072	3.6364	0.	-133.03
2750	7.2072	3.4545	0.	-136.9
2751	7.2072	3.2727	0.	-139.5
2752	7.2072	3.0909	0.	-140.8
2753	7.2072	2.9091	0.	-140.8
2754	7.2072	2.7273	0.	-139.5
2755	7.2072	2.5455	0.	-136.9
2756	7.2072	2.3636	0.	-133.03
2757	7.2072	2.1818	0.	-127.93
2758	7.2072	2.	0.	-121.63
2759	7.2072	1.8182	0.	-114.19
2760	7.2072	1.6364	0.	-105.68
2761	7.2072	1.4545	0.	-96.165
2762	7.2072	1.2727	0.	-85.725
2763	7.2072	1.0909	0.	-74.446
2764	7.2072	0.90909	0.	-62.42
2765	7.2072	0.72727	0.	-49.741
2766	7.2072	0.54545	0.	-36.511
2767	7.2072	0.36364	0.	-22.775
2768	7.2072	0.18182	0.	-8.2606
2769	7.0224	5.8182	0.	-9.804
2770	7.0224	5.6364	0.	-25.468
2771	7.0224	5.4545	0.	-40.368
2772	7.0224	5.2727	0.	-54.729
2773	7.0224	5.0909	0.	-68.498
2774	7.0224	4.9091	0.	-81.564
2775	7.0224	4.7273	0.	-93.822
2776	7.0224	4.5455	0.	-105.17
2777	7.0224	4.3636	0.	-115.52
2778	7.0224	4.1818	0.	-124.78
2779	7.0224	4.	0.	-132.87
2780	7.0224	3.8182	0.	-139.73
2781	7.0224	3.6364	0.	-145.29
2782	7.0224	3.4545	0.	-149.5
2783	7.0224	3.2727	0.	-152.33
2784	7.0224	3.0909	0.	-153.75
2785	7.0224	2.9091	0.	-153.75
2786	7.0224	2.7273	0.	-152.33
2787	7.0224	2.5455	0.	-149.5
2788	7.0224	2.3636	0.	-145.29
2789	7.0224	2.1818	0.	-139.73
2790	7.0224	2.	0.	-132.87
2791	7.0224	1.8182	0.	-124.78
2792	7.0224	1.6364	0.	-115.52
2793	7.0224	1.4545	0.	-105.17
2794	7.0224	1.2727	0.	-93.822
2795	7.0224	1.0909	0.	-81.564
2796	7.0224	0.90909	0.	-68.498
2797	7.0224	0.72727	0.	-54.729
2798	7.0224	0.54545	0.	-40.368
2799	7.0224	0.36364	0.	-25.468
2800	7.0224	0.18182	0.	-9.804
2801	6.8376	5.8182	0.	-11.432
2802	6.8376	5.6364	0.	-28.343
2803	6.8376	5.4545	0.	-44.505
2804	6.8376	5.2727	0.	-60.094
2805	6.8376	5.0909	0.	-75.047
2806	6.8376	4.9091	0.	-89.242
2807	6.8376	4.7273	0.	-102.57
2808	6.8376	4.5455	0.	-114.91
2809	6.8376	4.3636	0.	-126.16
2810	6.8376	4.1818	0.	-136.24
2811	6.8376	4.	0.	-145.05
2812	6.8376	3.8182	0.	-152.51
2813	6.8376	3.6364	0.	-158.57
2814	6.8376	3.4545	0.	-163.16
2815	6.8376	3.2727	0.	-166.24
2816	6.8376	3.0909	0.	-167.79
2817	6.8376	2.9091	0.	-167.79
2818	6.8376	2.7273	0.	-166.24
2819	6.8376	2.5455	0.	-163.16
2820	6.8376	2.3636	0.	-158.57
2821	6.8376	2.1818	0.	-152.51
2822	6.8376	2.	0.	-145.05
2823	6.8376	1.8182	0.	-136.24
2824	6.8376	1.6364	0.	-126.16
2825	6.8376	1.4545	0.	-114.91
2826	6.8376	1.2727	0.	-102.57
2827	6.8376	1.0909	0.	-89.242
2828	6.8376	0.90909	0.	-75.047
2829	6.8376	0.72727	0.	-60.094
2830	6.8376	0.54545	0.	-44.505
2831	6.8376	0.36364	0.	-28.343
2832	6.8376	0.18182	0.	-11.432
2833	6.6528	5.8182	0.	-13.145
2834	6.6528	5.6364	0.	-31.412
2835	6.6528	5.4545	0.	-48.943
2836	6.6528	5.2727	0.	-65.864
2837	6.6528	5.0909	0.	-82.102
2838	6.6528	4.9091	0.	-97.525
2839	6.6528	4.7273	0.	-112.01
2840	6.6528	4.5455	0.	-125.43
2841	6.6528	4.3636	0.	-137.68
2842	6.6528	4.1818	0.	-148.64
2843	6.6528	4.	0.	-158.23
2844	6.6528	3.8182	0.	-166.36
2845	6.6528	3.6364	0.	-172.95
2846	6.6528	3.4545	0.	-177.95
2847	6.6528	3.2727	0.	-181.31
2848	6.6528	3.0909	0.	-183.
2849	6.6528	2.9091	0.	-183.
2850	6.6528	2.7273	0.	-181.31
2851	6.6528	2.5455	0.	-177.95
2852	6.6528	2.3636	0.	-172.95
2853	6.6528	2.1818	0.	-166.36
2854	6.6528	2.	0.	-158.23
2855	6.6528	1.8182	0.	-148.64
2856	6.6528	1.6364	0.	-137.68
2857	6.6528	1.4545	0.	-125.43
2858	6.6528	1.2727	0.	-112.01
2859	6.6528	1.0909	0.	-97.525
2860	6.6528	0.90909	0.	-82.102
2861	6.6528	0.72727	0.	-65.864
2862	6.6528	0.54545	0.	-48.943
2863	6.6528	0.36364	0.	-31.412
2864	6.6528	0.18182	0.	-13.145
2865	6.468	5.8182	0.	-14.945
2866	6.468	5.6364	0.	-34.684
2867	6.468	5.4545	0.	-53.699
2868	6.468	5.2727	0.	-72.065
2869	6.468	5.0909	0.	-89.699
2870	6.468	4.9091	0.	-106.46
2871	6.468	4.7273	0.	-122.2
2872	6.468	4.5455	0.	-136.8
2873	6.468	4.3636	0.	-150.12
2874	6.468	4.1818	0.	-162.06
2875	6.468	4.	0.	-172.5
2876	6.468	3.8182	0.	-181.36
2877	6.468	3.6364	0.	-188.54
2878	6.468	3.4545	0.	-193.99
2879	6.468	3.2727	0.	-197.65
2880	6.468	3.0909	0.	-199.49
2881	6.468	2.9091	0.	-199.49
2882	6.468	2.7273	0.	-197.65
2883	6.468	2.5455	0.	-193.99
2884	6.468	2.3636	0.	-188.54
2885	6.468	2.1818	0.	-181.36
2886	6.468	2.	0.	-172.5
2887	6.468	1.8182	0.	-162.06
2888	6.468	1.6364	0.	-150.12
2889	6.468	1.4545	0.	-136.8
2890	6.468	1.2727	0.	-122.2
2891	6.468	1.0909	0.	-106.46
2892	6.468	0.90909	0.	-89.699
2893	6.468	0.72727	0.	-72.065
2894	6.468	0.54545	0.	-53.699
2895	6.468	0.36364	0.	-34.684
2896	6.468	0.18182	0.	-14.945
2897	6.2832	5.8182	0.	-16.829
2898	6.2832	5.6364	0.	-38.169
2899	6.2832	5.4545	0.	-58.792
2900	6.2832	5.2727	0.	-78.726
2901	6.2832	5.0909	0.	-97.877
2902	6.2832	4.9091	0.	-116.09
2903	6.2832	4.7273	0.	-133.2
2904	6.2832	4.5455	0.	-149.08
2905	6.2832	4.3636	0.	-163.58
2906	6.2832	4.1818	0.	-176.58
2907	6.2832	4.	0.	-187.95
2908	6.2832	3.8182	0.	-197.6
2909	6.2832	3.6364	0.	-205.43
2910	6.2832	3.4545	0.	-211.37
2911	6.2832	3.2727	0.	-215.36
2912	6.2832	3.0909	0.	-217.36
2913	6.2832	2.9091	0.	-217.36
2914	6.2832	2.7273	0.	-215.36
2915	6.2832	2.5455	0.	-211.37
2916	6.2832	2.3636	0.	-205.43
2917	6.2832	2.1818	0.	-197.6
2918	6.2832	2.	0.	-187.95
2919	6.2832	1.8182	0.	-176.58
2920	6.2832	1.6364	0.	-163.58
2921	6.2832	1.4545	0.	-149.08
2922	6.2832	1.2727	0.	-133.2
2923	6.2832	1.0909	0.	-116.09
2924	6.2832	0.90909	0.	-97.877
2925	6.2832	0.72727	0.	-78.726
2926	6.2832	0.54545	0.	-58.792
2927	6.2832	0.36364	0.	-38.169
2928	6.2832	0.18182	0.	-16.829
2929	6.0984	5.8182	0.	-18.798
2930	6.0984	5.6364	0.	-41.877
2931	6.0984	5.4545	0.	-64.243
2932	6.0984	5.2727	0.	-85.878
2933	6.0984	5.0909	0.	-106.68
2934	6.0984	4.9091	0.	-126.46
2935	6.0984	4.7273	0.	-145.08
2936	6.0984	4.5455	0.	-162.35
2937	6.0984	4.3636	0.	-178.13
2938	6.0984	4.1818	0.	-192.29
2939	6.0984	4.	0.	-204.68
2940	6.0984	3.8182	0.	-215.19
2941	6.0984	3.6364	0.	-223.72
2942	6.0984	3.4545	0.	-230.2
2943	6.0984	3.2727	0.	-234.55
2944	6.0984	3.0909	0.	-236.74
2945	6.0984	2.9091	0.	-236.74
2946	6.0984	2.7273	0.	-234.55
2947	6.0984	2.5455	0.	-230.2
2948	6.0984	2.3636	0.	-223.72
2949	6.0984	2.1818	0.	-215.19
2950	6.0984	2.	0.	-204.68
2951	6.0984	1.8182	0.	-192.29
2952	6.0984	1.6364	0.	-178.13
2953	6.0984	1.4545	0.	-162.35
2954	6.0984	1.2727	0.	-145.08
2955	6.0984	1.0909	0.	-126.46
2956	6.0984	0.90909	0.	-106.68
2957	6.0984	0.72727	0.	-85.878
2958	6.0984	0.54545	0.	-64.243
2959	6.0984	0.36364	0.	-41.877
2960	6.0984	0.18182	0.	-18.798
2961	5.9136	5.8182	0.	-20.847
2962	5.9136	5.6364	0.	-45.816
2963	5.9136	5.4545	0.	-70.072
2964	5.9136	5.2727	0.	-93.553
2965	5.9136	5.0909	0.	-116.14
2966	5.9136	4.9091	0.	-137.64
2967	5.9136	4.7273	0.	-157.88
2968	5.9136	4.5455	0.	-176.68
2969	5.9136	4.3636	0.	-193.86
2970	5.9136	4.1818	0.	-209.27
2971	5.9136	4.	0.	-222.78
2972	5.9136	3.8182	0.	-234.23
2973	5.9136	3.6364	0.	-243.54
2974	5.9136	3.4545	0.	-250.6
2975	5.9136	3.2727	0.	-255.35
2976	5.9136	3.0909	0.	-257.73
2977	5.9136	2.9091	0.	-257.73
2978	5.9136	2.7273	0.	-255.35
2979	5.9136	2.5455	0.	-250.6
2980	5.9136	2.3636	0.	-243.54
2981	5.9136	2.1818	0.	-234.23
2982	5.9136	2.	0.	-222.78
2983	5.9136	1.8182	0.	-209.27
2984	5.9136	1.6364	0.	-193.86
2985	5.9136	1.4545	0.	-176.68
2986	5.9136	1.2727	0.	-157.88
2987	5.9136	1.0909	0.	-137.64
2988	5.9136	0.90909	0.	-116.14
2989	5.9136	0.72727	0.	-93.553
2990	5.9136	0.54545	0.	-70.072
2991	5.9136	0.36364	0.	-45.816
2992	5.9136	0.18182	0.	-20.847
2993	5.7288	5.8182	0.	-22.973
2994	5.7288	5.6364	0.	-49.995
2995	5.7288	5.4545	0.	-76.299
2996	5.7288	5.2727	0.	-101.78
2997	5.7288	5.0909	0.	-126.31
2998	5.7288	4.9091	0.	-149.69
2999	5.7288	4.7273	0.	-171.69
3000	5.7288	4.5455	0.	-192.15
3001	5.7288	4.3636	0.	-210.86
3002	5.7288	4.1818	0.	-227.65
3003	5.7288	4.	0.	-242.36
3004	5.7288	3.8182	0.	-254.86
3005	5.7288	3.6364	0.	-265.01
3006	5.7288	3.4545	0.	-272.71
3007	5.7288	3.2727	0.	-277.89
3008	5.7288	3.0909	0.	-280.49
3009	5.7288	2.9091	0.	-280.49
3010	5.7288	2.7273	0.	-277.89
3011	5.7288	2.5455	0.	-272.71
3012	5.7288	2.3636	0.	-265.01
3013	5.7288	2.1818	0.	-254.86
3014	5.7288	2.	0.	-242.36
3015	5.7288	1.8182	0.	-227.65
3016	5.7288	1.6364	0.	-210.86
3017	5.7288	1.4545	0.	-192.15
3018	5.7288	1.2727	0.	-171.69
3019	5.7288	1.0909	0.	-149.69
3020	5.7288	0.90909	0.	-126.31
3021	5.7288	0.72727	0.	-101.78
3022	5.7288	0.54545	0.	-76.299
3023	5.7288	0.36364	0.	-49.995
3024	5.7288	0.18182	0.	-22.973
3025	5.544	5.8182	0.	-25.169
3026	5.544	5.6364	0.	-54.421
3027	5.544	5.4545	0.	-82.944
3028	5.544	5.2727	0.	-110.6
3029	5.544	5.0909	0.	-137.24
3030	5.544	4.9091	0.	-162.65
3031	5.544	4.7273	0.	-186.59
3032	5.544	4.5455	0.	-208.85
3033	5.544	4.3636	0.	-229.22
3034	5.544	4.1818	0.	-247.52
3035	5.544	4.	0.	-263.56
3036	5.544	3.8182	0.	-277.19
3037	5.544	3.6364	0.	-288.26
3038	5.544	3.4545	0.	-296.67
3039	5.544	3.2727	0.	-302.32
3040	5.544	3.0909	0.	-305.16
3041	5.544	2.9091	0.	-305.16
3042	5.544	2.7273	0.	-302.32
3043	5.544	2.5455	0.	-296.67
3044	5.544	2.3636	0.	-288.26
3045	5.544	2.1818	0.	-277.19
3046	5.544	2.	0.	-263.56
3047	5.544	1.8182	0.	-247.52
3048	5.544	1.6364	0.	-229.22
3049	5.544	1.4545	0.	-208.85
3050	5.544	1.2727	0.	-186.59
3051	5.544	1.0909	0.	-162.65
3052	5.544	0.90909	0.	-137.24
3053	5.544	0.72727	0.	-110.6
3054	5.544	0.54545	0.	-82.944
3055	5.544	0.36364	0.	-54.421
3056	5.544	0.18182	0.	-25.169
3057	5.3592	5.8182	0.	-27.425
3058	5.3592	5.6364	0.	-59.102
3059	5.3592	5.4545	0.	-90.029
3060	5.3592	5.2727	0.	-120.04
3061	5.3592	5.0909	0.	-148.98
3062	5.3592	4.9091	0.	-176.6
3063	5.3592	4.7273	0.	-202.64
3064	5.3592	4.5455	0.	-226.87
3065	5.3592	4.3636	0.	-249.07
3066	5.3592	4.1818	0.	-269.01
3067	5.3592	4.	0.	-286.5
3068	5.3592	3.8182	0.	-301.36
3069	5.3592	3.6364	0.	-313.44
3070	5.3592	3.4545	0.	-322.62
3071	5.3592	3.2727	0.	-328.79
3072	5.3592	3.0909	0.	-331.89
3073	5.3592	2.9091	0.	-331.89
3074	5.3592	2.7273	0.	-328.79
3075	5.3592	2.5455	0.	-322.62
3076	5.3592	2.3636	0.	-313.44
3077	5.3592	2.1818	0.	-301.36
3078	5.3592	2.	0.	-286.5
3079	5.3592	1.8182	0.	-269.01
3080	5.3592	1.6364	0.	-249.07
3081	5.3592	1.4545	0.	-226.87
3082	5.3592	1.2727	0.	-202.64
3083	5.3592	1.0909	0.	-176.6
3084	5.3592	0.90909	0.	-148.98
3085	5.3592	0.72727	0.	-120.04
3086	5.3592	0.54545	0.	-90.029
3087	5.3592	0.36364	0.	-59.102
3088	5.3592	0.18182	0.	-27.425
3089	5.1744	5.8182	0.	-29.731
3090	5.1744	5.6364	0.	-64.041
3091	5.1744	5.4545	0.	-97.573
3092	5.1744	5.2727	0.	-130.14
3093	5.1744	5.0909	0.	-161.58
3094	5.1744	4.9091	0.	-191.6
3095	5.1744	4.7273	0.	-219.93
3096	5.1744	4.5455	0.	-246.32
3097	5.1744	4.3636	0.	-270.5
3098	5.1744	4.1818	0.	-292.24
3099	5.1744	4.	0.	-311.31
3100	5.1744	3.8182	0.	-327.53
3101	5.1744	3.6364	0.	-340.71
3102	5.1744	3.4545	0.	-350.73
3103	5.1744	3.2727	0.	-357.47
3104	5.1744	3.0909	0.	-360.86
3105	5.1744	2.9091	0.	-360.86
3106	5.1744	2.7273	0.	-357.47
3107	5.1744	2.5455	0.	-350.73
3108	5.1744	2.3636	0.	-340.71
3109	5.1744	2.1818	0.	-327.53
3110	5.1744	2.	0.	-311.31
3111	5.1744	1.8182	0.	-292.24
3112	5.1744	1.6364	0.	-270.5
3113	5.1744	1.4545	0.	-246.32
3114	5.1744	1.2727	0.	-219.93
3115	5.1744	1.0909	0.	-191.6
3116	5.1744	0.90909	0.	-161.58
3117	5.1744	0.72727	0.	-130.14
3118	5.1744	0.54545	0.	-97.573
3119	5.1744	0.36364	0.	-64.041
3120	5.1744	0.18182	0.	-29.731
3121	4.9896	5.8182	0.	-32.071
3122	4.9896	5.6364	0.	-69.243
3123	4.9896	5.4545	0.	-105.6
3124	4.9896	5.2727	0.	-140.95
3125	4.9896	5.0909	0.	-175.09
3126	4.9896	4.9091	0.	-207.73
3127	4.9896	4.7273	0.	-238.56
3128	4.9896	4.5455	0.	-267.29
3129	4.9896	4.3636	0.	-293.64
3130	4.9896	4.1818	0.	-317.34
3131	4.9896	4.	0.	-338.15
3132	4.9896	3.8182	0.	-355.85
3133	4.9896	3.6364	0.	-370.24
3134	4.9896	3.4545	0.	-381.18
3135	4.9896	3.2727	0.	-388.54
3136	4.9896	3.0909	0.	-392.23
3137	4.9896	2.9091	0.	-392.23
3138	4.9896	2.7273	0.	-388.54
3139	4.9896	2.5455	0.	-381.18
3140	4.9896	2.3636	0.	-370.24
3141	4.9896	2.1818	0.	-355.85
3142	4.9896	2.	0.	-338.15
3143	4.9896	1.8182	0.	-317.34
3144	4.9896	1.6364	0.	-293.64
3145	4.9896	1.4545	0.	-267.29
3146	4.9896	1.2727	0.	-238.56
3147	4.9896	1.0909	0.	-207.73
3148	4.9896	0.90909	0.	-175.09
3149	4.9896	0.72727	0.	-140.95
3150	4.9896	0.54545	0.	-105.6
3151	4.9896	0.36364	0.	-69.243
3152	4.9896	0.18182	0.	-32.071
3153	4.8048	5.8182	0.	-34.427
3154	4.8048	5.6364	0.	-74.708
3155	4.8048	5.4545	0.	-114.12
3156	4.8048	5.2727	0.	-152.48
3157	4.8048	5.0909	0.	-189.58
3158	4.8048	4.9091	0.	-225.07
3159	4.8048	4.7273	0.	-258.62
3160	4.8048	4.5455	0.	-289.91
3161	4.8048	4.3636	0.	-318.63
3162	4.8048	4.1818	0.	-344.48
3163	4.8048	4.	0.	-367.18
3164	4.8048	3.8182	0.	-386.49
3165	4.8048	3.6364	0.	-402.2
3166	4.8048	3.4545	0.	-414.15
3167	4.8048	3.2727	0.	-422.18
3168	4.8048	3.0909	0.	-426.22
3169	4.8048	2.9091	0.	-426.22
3170	4.8048	2.7273	0.	-422.18
3171	4.8048	2.5455	0.	-414.15
3172	4.8048	2.3636	0.	-402.2
3173	4.8048	2.1818	0.	-386.49
3174	4.8048	2.	0.	-367.18
3175	4.8048	1.8182	0.	-344.48
3176	4.8048	1.6364	0.	-318.63
3177	4.8048	1.4545	0.	-289.91
3178	4.8048	1.2727	0.	-258.62
3179	4.8048	1.0909	0.	-225.07
3180	4.8048	0.90909	0.	-189.58
3181	4.8048	0.72727	0.	-152.48
3182	4.8048	0.54545	0.	-114.12
3183	4.8048	0.36364	0.	-74.708
3184	4.8048	0.18182	0.	-34.427
3185	4.62	5.8182	0.	-36.775
3186	4.62	5.6364	0.	-80.436
3187	4.62	5.4545	0.	-123.16
3188	4.62	5.2727	0.	-164.8
3189	4.62	5.0909	0.	-205.1
3190	4.62	4.9091	0.	-243.7
3191	4.62	4.7273	0.	-280.22
3192	4.62	4.5455	0.	-314.31
3193	4.62	4.3636	0.	-345.61
3194	4.62	4.1818	0.	-373.8
3195	4.62	4.	0.	-398.57
3196	4.62	3.8182	0.	-419.64
3197	4.62	3.6364	0.	-436.8
3198	4.62	3.4545	0.	-449.83
3199	4.62	3.2727	0.	-458.61
3200	4.62	3.0909	0.	-463.02
3201	4.62	2.9091	0.	-463.02
3202	4.62	2.7273	0.	-458.61
3203	4.62	2.5455	0.	-449.83
3204	4.62	2.3636	0.	-436.8
3205	4.62	2.1818	0.	-419.64
3206	4.62	2.	0.	-398.57
3207	4.62	1.8182	0.	-373.8
3208	4.62	1.6364	0.	-345.61
3209	4.62	1.4545	0.	-314.31
3210	4.62	1.2727	0.	-280.22
3211	4.62	1.0909	0.	-243.7
3212	4.62	0.90909	0.	-205.1
3213	4.62	0.72727	0.	-164.8
3214	4.62	0.54545	0.	-123.16
3215	4.62	0.36364	0.	-80.436
3216	4.62	0.18182	0.	-36.775
3217	4.4352	5.8182	0.	-39.088
3218	4.4352	5.6364	0.	-86.424
3219	4.4352	5.4545	0.	-132.75
3220	4.4352	5.2727	0.	-177.93
3221	4.4352	5.0909	0.	-221.73
3222	4.4352	4.9091	0.	-263.71
3223	4.4352	4.7273	0.	-303.47
3224	4.4352	4.5455	0.	-340.61
3225	4.4352	4.3636	0.	-374.73
3226	4.4352	4.1818	0.	-405.47
3227	4.4352	4.	0.	-432.5
3228	4.4352	3.8182	0.	-455.5
3229	4.4352	3.6364	0.	-474.22
3230	4.4352	3.4545	0.	-488.45
3231	4.4352	3.2727	0.	-498.03
3232	4.4352	3.0909	0.	-502.85
3233	4.4352	2.9091	0.	-502.85
3234	4.4352	2.7273	0.	-498.03
3235	4.4352	2.5455	0.	-488.45
3236	4.4352	2.3636	0.	-474.22
3237	4.4352	2.1818	0.	-455.5
3238	4.4352	2.	0.	-432.5
3239	4.4352	1.8182	0.	-405.47
3240	4.4352	1.6364	0.	-374.73
3241	4.4352	1.4545	0.	-340.61
3242	4.4352	1.2727	0.	-303.47
3243	4.4352	1.0909	0.	-263.71
3244	4.4352	0.90909	0.	-221.73
3245	4.4352	0.72727	0.	-177.93
3246	4.4352	0.54545	0.	-132.75
3247	4.4352	0.36364	0.	-86.424
3248	4.4352	0.18182	0.	-39.088
3249	4.2504	5.8182	0.	-41.333
3250	4.2504	5.6364	0.	-92.664
3251	4.2504	5.4545	0.	-142.88
3252	4.2504	5.2727	0.	-191.93
3253	4.2504	5.0909	0.	-239.53
3254	4.2504	4.9091	0.	-285.2
3255	4.2504	4.7273	0.	-328.5
3256	4.2504	4.5455	0.	-368.96
3257	4.2504	4.3636	0.	-406.17
3258	4.2504	4.1818	0.	-439.69
3259	4.2504	4.	0.	-469.17
3260	4.2504	3.8182	0.	-494.27
3261	4.2504	3.6364	0.	-514.7
3262	4.2504	3.4545	0.	-530.23
3263	4.2504	3.2727	0.	-540.68
3264	4.2504	3.0909	0.	-545.94
3265	4.2504	2.9091	0.	-545.94
3266	4.2504	2.7273	0.	-540.68
3267	4.2504	2.5455	0.	-530.23
3268	4.2504	2.3636	0.	-514.7
3269	4.2504	2.1818	0.	-494.27
3270	4.2504	2.	0.	-469.17
3271	4.2504	1.8182	0.	-439.69
3272	4.2504	1.6364	0.	-406.17
3273	4.2504	1.4545	0.	-368.96
3274	4.2504	1.2727	0.	-328.5
3275	4.2504	1.0909	0.	-285.2
3276	4.2504	0.90909	0.	-239.53
3277	4.2504	0.72727	0.	-191.93
3278	4.2504	0.54545	0.	-142.88
3279	4.2504	0.36364	0.	-92.664
3280	4.2504	0.18182	0.	-41.333
3281	4.0656	5.8182	0.	-43.47
3282	4.0656	5.6364	0.	-99.149
3283	4.0656	5.4545	0.	-153.6
3284	4.0656	5.2727	0.	-206.85
3285	4.0656	5.0909	0.	-258.59
3286	4.0656	4.9091	0.	-308.29
3287	4.0656	4.7273	0.	-355.44
3288	4.0656	4.5455	0.	-399.54
3289	4.0656	4.3636	0.	-440.09
3290	4.0656	4.1818	0.	-476.65
3291	4.0656	4.	0.	-508.8
3292	4.0656	3.8182	0.	-536.18
3293	4.0656	3.6364	0.	-558.46
3294	4.0656	3.4545	0.	-575.39
3295	4.0656	3.2727	0.	-586.79
3296	4.0656	3.0909	0.	-592.52
3297	4.0656	2.9091	0.	-592.52
3298	4.0656	2.7273	0.	-586.79
3299	4.0656	2.5455	0.	-575.39
3300	4.0656	2.3636	0.	-558.46
3301	4.0656	2.1818	0.	-536.18
3302	4.0656	2.	0.	-508.8
3303	4.0656	1.8182	0.	-476.65
3304	4.0656	1.6364	0.	-440.09
3305	4.0656	1.4545	0.	-399.54
3306	4.0656	1.2727	0.	-355.44
3307	4.0656	1.0909	0.	-308.29
3308	4.0656	0.90909	0.	-258.59
3309	4.0656	0.72727	0.	-206.85
3310	4.0656	0.54545	0.	-153.6
3311	4.0656	0.36364	0.	-99.149
3312	4.0656	0.18182	0.	-43.47
3313	3.8808	5.8182	0.	-45.453
3314	3.8808	5.6364	0.	-105.87
3315	3.8808	5.4545	0.	-164.92
3316	3.8808	5.2727	0.	-222.74
3317	3.8808	5.0909	0.	-278.99
3318	3.8808	4.9091	0.	-333.09
3319	3.8808	4.7273	0.	-384.45
3320	3.8808	4.5455	0.	-432.51
3321	3.8808	4.3636	0.	-476.72
3322	3.8808	4.1818	0.	-516.57
3323	3.8808	4.	0.	-551.62
3324	3.8808	3.8182	0.	-581.45
3325	3.8808	3.6364	0.	-605.73
3326	3.8808	3.4545	0.	-624.19
3327	3.8808	3.2727	0.	-636.6
3328	3.8808	3.0909	0.	-642.85
3329	3.8808	2.9091	0.	-642.85
3330	3.8808	2.7273	0.	-636.6
3331	3.8808	2.5455	0.	-624.19
3332	3.8808	2.3636	0.	-605.73
3333	3.8808	2.1818	0.	-581.45
3334	3.8808	2.	0.	-551.62
3335	3.8808	1.8182	0.	-516.57
3336	3.8808	1.6364	0.	-476.72
3337	3.8808	1.4545	0.	-432.51
3338	3.8808	1.2727	0.	-384.45
3339	3.8808	1.0909	0.	-333.09
3340	3.8808	0.90909	0.	-278.99
3341	3.8808	0.72727	0.	-222.74
3342	3.8808	0.54545	0.	-164.92
3343	3.8808	0.36364	0.	-105.87
3344	3.8808	0.18182	0.	-45.453
3345	3.696	5.8182	0.	-47.229
3346	3.696	5.6364	0.	-112.8
3347	3.696	5.4545	0.	-176.85
3348	3.696	5.2727	0.	-239.67
3349	3.696	5.0909	0.	-300.85
3350	3.696	4.9091	0.	-359.75
3351	3.696	4.7273	0.	-415.7
3352	3.696	4.5455	0.	-468.08
3353	3.696	4.3636	0.	-516.26
3354	3.696	4.1818	0.	-559.69
3355	3.696	4.	0.	-597.87
3356	3.696	3.8182	0.	-630.36
3357	3.696	3.6364	0.	-656.78
3358	3.696	3.4545	0.	-676.86
3359	3.696	3.2727	0.	-690.37
3360	3.696	3.0909	0.	-697.15
3361	3.696	2.9091	0.	-697.15
3362	3.696	2.7273	0.	-690.37
3363	3.696	2.5455	0.	-676.86
3364	3.696	2.3636	0.	-656.78
3365	3.696	2.1818	0.	-630.36
3366	3.696	2.	0.	-597.87
3367	3.696	1.8182	0.	-559.69
3368	3.696	1.6364	0.	-516.26
3369	3.696	1.4545	0.	-468.08
3370	3.696	1.2727	0.	-415.7
3371	3.696	1.0909	0.	-359.75
3372	3.696	0.90909	0.	-300.85
3373	3.696	0.72727	0.	-239.67
3374	3.696	0.54545	0.	-176.85
3375	3.696	0.36364	0.	-112.8
3376	3.696	0.18182	0.	-47.229
3377	3.5112	5.8182	0.	-48.736
3378	3.5112	5.6364	0.	-119.94
3379	3.5112	5.4545	0.	-189.44
3380	3.5112	5.2727	0.	-257.71
3381	3.5112	5.0909	0.	-324.29
3382	3.5112	4.9091	0.	-388.44
3383	3.5112	4.7273	0.	-449.41
3384	3.5112	4.5455	0.	-506.48
3385	3.5112	4.3636	0.	-558.97
3386	3.5112	4.1818	0.	-606.26
3387	3.5112	4.	0.	-647.81
3388	3.5112	3.8182	0.	-683.14
3389	3.5112	3.6364	0.	-711.86
3390	3.5112	3.4545	0.	-733.67
3391	3.5112	3.2727	0.	-748.33
3392	3.5112	3.0909	0.	-755.69
3393	3.5112	2.9091	0.	-755.69
3394	3.5112	2.7273	0.	-748.33
3395	3.5112	2.5455	0.	-733.67
3396	3.5112	2.3636	0.	-711.86
3397	3.5112	2.1818	0.	-683.14
3398	3.5112	2.	0.	-647.81
3399	3.5112	1.8182	0.	-606.26
3400	3.5112	1.6364	0.	-558.97
3401	3.5112	1.4545	0.	-506.48
3402	3.5112	1.2727	0.	-449.41
3403	3.5112	1.0909	0.	-388.44
3404	3.5112	0.90909	0.	-324.29
3405	3.5112	0.72727	0.	-257.71
3406	3.5112	0.54545	0.	-189.44
3407	3.5112	0.36364	0.	-119.94
3408	3.5112	0.18182	0.	-48.736
3409	3.3264	5.8182	0.	-49.903
3410	3.3264	5.6364	0.	-127.27
3411	3.3264	5.4545	0.	-202.73
3412	3.3264	5.2727	0.	-276.96
3413	3.3264	5.0909	0.	-349.46
3414	3.3264	4.9091	0.	-419.35
3415	3.3264	4.7273	0.	-485.79
3416	3.3264	4.5455	0.	-547.97
3417	3.3264	4.3636	0.	-605.13
3418	3.3264	4.1818	0.	-656.58
3419	3.3264	4.	0.	-701.73
3420	3.3264	3.8182	0.	-740.08
3421	3.3264	3.6364	0.	-771.23
3422	3.3264	3.4545	0.	-794.85
3423	3.3264	3.2727	0.	-810.73
3424	3.3264	3.0909	0.	-818.7
3425	3.3264	2.9091	0.	-818.7
3426	3.3264	2.7273	0.	-810.73
3427	3.3264	2.5455	0.	-794.85
3428	3.3264	2.3636	0.	-771.23
3429	3.3264	2.1818	0.	-740.08
3430	3.3264	2.	0.	-701.73
3431	3.3264	1.8182	0.	-656.58
3432	3.3264	1.6364	0.	-605.13
3433	3.3264	1.4545	0.	-547.97
3434	3.3264	1.2727	0.	-485.79
3435	3.3264	1.0909	0.	-419.35
3436	3.3264	0.90909	0.	-349.46
3437	3.3264	0.72727	0.	-276.96
3438	3.3264	0.54545	0.	-202.73
3439	3.3264	0.36364	0.	-127.27
3440	3.3264	0.18182	0.	-49.903
3441	3.1416	5.8182	0.	-50.654
3442	3.1416	5.6364	0.	-134.77
3443	3.1416	5.4545	0.	-216.76
3444	3.1416	5.2727	0.	-297.55
3445	3.1416	5.0909	0.	-376.53
3446	3.1416	4.9091	0.	-452.73
3447	3.1416	4.7273	0.	-525.15
3448	3.1416	4.5455	0.	-592.88
3449	3.1416	4.3636	0.	-655.06
3450	3.1416	4.1818	0.	-710.96
3451	3.1416	4.	0.	-759.94
3452	3.1416	3.8182	0.	-801.47
3453	3.1416	3.6364	0.	-835.15
3454	3.1416	3.4545	0.	-860.66
3455	3.1416	3.2727	0.	-877.79
3456	3.1416	3.0909	0.	-886.38
3457	3.1416	2.9091	0.	-886.38
3458	3.1416	2.7273	0.	-877.79
3459	3.1416	2.5455	0.	-860.66
3460	3.1416	2.3636	0.	-835.15
3461	3.1416	2.1818	0.	-801.47
3462	3.1416	2.	0.	-759.94
3463	3.1416	1.8182	0.	-710.96
3464	3.1416	1.6364	0.	-655.06
3465	3.1416	1.4545	0.	-592.88
3466	3.1416	1.2727	0.	-525.15
3467	3.1416	1.0909	0.	-452.73
3468	3.1416	0.90909	0.	-376.53
3469	3.1416	0.72727	0.	-297.55
3470	3.1416	0.54545	0.	-216.76
3471	3.1416	0.36364	0.	-134.77
3472	3.1416	0.18182	0.	-50.654
3473	2.9568	5.8182	0.	-50.899
3474	2.9568	5.6364	0.	-142.43
3475	2.9568	5.4545	0.	-231.6
3476	2.9568	5.2727	0.	-319.62
3477	2.9568	5.0909	0.	-405.77
3478	2.9568	4.9091	0.	-488.88
3479	2.9568	4.7273	0.	-567.82
3480	2.9568	4.5455	0.	-641.56
3481	2.9568	4.3636	0.	-709.14
3482	2.9568	4.1818	0.	-769.76
3483	2.9568	4.	0.	-822.75
3484	2.9568	3.8182	0.	-867.59
3485	2.9568	3.6364	0.	-903.88
3486	2.9568	3.4545	0.	-931.32
3487	2.9568	3.2727	0.	-949.71
3488	2.9568	3.0909	0.	-958.94
3489	2.9568	2.9091	0.	-958.94
3490	2.9568	2.7273	0.	-949.71
3491	2.9568	2.5455	0.	-931.32
3492	2.9568	2.3636	0.	-903.88
3493	2.9568	2.1818	0.	-867.59
3494	2.9568	2.	0.	-822.75
3495	2.9568	1.8182	0.	-769.76
3496	2.9568	1.6364	0.	-709.14
3497	2.9568	1.4545	0.	-641.56
3498	2.9568	1.2727	0.	-567.82
3499	2.9568	1.0909	0.	-488.88
3500	2.9568	0.90909	0.	-405.77
3501	2.9568	0.72727	0.	-319.62
3502	2.9568	0.54545	0.	-231.6
3503	2.9568	0.36364	0.	-142.43
3504	2.9568	0.18182	0.	-50.899
3505	2.772	5.8182	0.	-50.545
3506	2.772	5.6364	0.	-150.26
3507	2.772	5.4545	0.	-247.37
3508	2.772	5.2727	0.	-343.4
3509	2.772	5.0909	0.	-437.46
3510	2.772	4.9091	0.	-528.18
3511	2.772	4.7273	0.	-614.25
3512	2.772	4.5455	0.	-694.47
3513	2.772	4.3636	0.	-767.8
3514	2.772	4.1818	0.	-833.38
3515	2.772	4.	0.	-890.53
3516	2.772	3.8182	0.	-938.75
3517	2.772	3.6364	0.	-977.65
3518	2.772	3.4545	0.	-1007.
3519	2.772	3.2727	0.	-1026.7
3520	2.772	3.0909	0.	-1036.5
3521	2.772	2.9091	0.	-1036.5
3522	2.772	2.7273	0.	-1026.7
3523	2.772	2.5455	0.	-1007.
3524	2.772	2.3636	0.	-977.65
3525	2.772	2.1818	0.	-938.75
3526	2.772	2.	0.	-890.53
3527	2.772	1.8182	0.	-833.38
3528	2.772	1.6364	0.	-767.8
3529	2.772	1.4545	0.	-694.47
3530	2.772	1.2727	0.	-614.25
3531	2.772	1.0909	0.	-528.18
3532	2.772	0.90909	0.	-437.46
3533	2.772	0.72727	0.	-343.4
3534	2.772	0.54545	0.	-247.37
3535	2.772	0.36364	0.	-150.26
3536	2.772	0.18182	0.	-50.545
3537	2.5872	5.8182	0.	-49.49
3538	2.5872	5.6364	0.	-158.25
3539	2.5872	5.4545	0.	-264.22
3540	2.5872	5.2727	0.	-369.18
3541	2.5872	5.0909	0.	-472.03
3542	2.5872	4.9091	0.	-571.14
3543	2.5872	4.7273	0.	-664.97
3544	2.5872	4.5455	0.	-752.15
3545	2.5872	4.3636	0.	-831.55
3546	2.5872	4.1818	0.	-902.27
3547	2.5872	4.	0.	-963.64
3548	2.5872	3.8182	0.	-1015.2
3549	2.5872	3.6364	0.	-1056.7
3550	2.5872	3.4545	0.	-1087.9
3551	2.5872	3.2727	0.	-1108.7
3552	2.5872	3.0909	0.	-1119.1
3553	2.5872	2.9091	0.	-1119.1
3554	2.5872	2.7273	0.	-1108.7
3555	2.5872	2.5455	0.	-1087.9
3556	2.5872	2.3636	0.	-1056.7
3557	2.5872	2.1818	0.	-1015.2
3558	2.5872	2.	0.	-963.64
3559	2.5872	1.8182	0.	-902.27
3560	2.5872	1.6364	0.	-831.55
3561	2.5872	1.4545	0.	-752.15
3562	2.5872	1.2727	0.	-664.97
3563	2.5872	1.0909	0.	-571.14
3564	2.5872	0.90909	0.	-472.03
3565	2.5872	0.72727	0.	-369.18
3566	2.5872	0.54545	0.	-264.22
3567	2.5872	0.36364	0.	-158.25
3568	2.5872	0.18182	0.	-49.49
3569	2.4024	5.8182	0.	-47.634
3570	2.4024	5.6364	0.	-166.46
3571	2.4024	5.4545	0.	-282.37
3572	2.4024	5.2727	0.	-397.36
3573	2.4024	5.0909	0.	-510.03
3574	2.4024	4.9091	0.	-618.4
3575	2.4024	4.7273	0.	-720.67
3576	2.4024	4.5455	0.	-815.27
3577	2.4024	4.3636	0.	-900.99
3578	2.4024	4.1818	0.	-976.92
3579	2.4024	4.	0.	-1042.5
3580	2.4024	3.8182	0.	-1097.3
3581	2.4024	3.6364	0.	-1141.1
3582	2.4024	3.4545	0.	-1174.
3583	2.4024	3.2727	0.	-1195.9
3584	2.4024	3.0909	0.	-1206.9
3585	2.4024	2.9091	0.	-1206.9
3586	2.4024	2.7273	0.	-1195.9
3587	2.4024	2.5455	0.	-1174.
3588	2.4024	2.3636	0.	-1141.1
3589	2.4024	2.1818	0.	-1097.3
3590	2.4024	2.	0.	-1042.5
3591	2.4024	1.8182	0.	-976.92
3592	2.4024	1.6364	0.	-900.99
3593	2.4024	1.4545	0.	-815.27
3594	2.4024	1.2727	0.	-720.67
3595	2.4024	1.0909	0.	-618.4
3596	2.4024	0.90909	0.	-510.03
3597	2.4024	0.72727	0.	-397.36
3598	2.4024	0.54545	0.	-282.37
3599	2.4024	0.36364	0.	-166.46
3600	2.4024	0.18182	0.	-47.635
3601	2.2176	5.8182	0.	-44.889
3602	2.2176	5.6364	0.	-174.96
3603	2.2176	5.4545	0.	-302.14
3604	2.2176	5.2727	0.	-428.5
3605	2.2176	5.0909	0.	-552.2
3606	2.2176	4.9091	0.	-670.82
3607	2.2176	4.7273	0.	-782.22
3608	2.2176	4.5455	0.	-884.64
3609	2.2176	4.3636	0.	-976.82
3610	2.2176	4.1818	0.	-1057.9
3611	2.2176	4.	0.	-1127.4
3612	2.2176	3.8182	0.	-1185.1
3613	2.2176	3.6364	0.	-1231.1
3614	2.2176	3.4545	0.	-1265.4
3615	2.2176	3.2727	0.	-1288.2
3616	2.2176	3.0909	0.	-1299.5
3617	2.2176	2.9091	0.	-1299.5
3618	2.2176	2.7273	0.	-1288.2
3619	2.2176	2.5455	0.	-1265.4
3620	2.2176	2.3636	0.	-1231.1
3621	2.2176	2.1818	0.	-1185.1
3622	2.2176	2.	0.	-1127.4
3623	2.2176	1.8182	0.	-1057.9
3624	2.2176	1.6364	0.	-976.82
3625	2.2176	1.4545	0.	-884.64
3626	2.2176	1.2727	0.	-782.22
3627	2.2176	1.0909	0.	-670.82
3628	2.2176	0.90909	0.	-552.2
3629	2.2176	0.72727	0.	-428.5
3630	2.2176	0.54545	0.	-302.15
3631	2.2176	0.36364	0.	-174.96
3632	2.2176	0.18182	0.	-44.889
3633	2.0328	5.8182	0.	-41.199
3634	2.0328	5.6364	0.	-183.89
3635	2.0328	5.4545	0.	-324.04
3636	2.0328	5.2727	0.	-463.41
3637	2.0328	5.0909	0.	-599.58
3638	2.0328	4.9091	0.	-729.54
3639	2.0328	4.7273	0.	-850.75
3640	2.0328	4.5455	0.	-961.28
3641	2.0328	4.3636	0.	-1059.9
3642	2.0328	4.1818	0.	-1145.8
3643	2.0328	4.	0.	-1218.8
3644	2.0328	3.8182	0.	-1279.
3645	2.0328	3.6364	0.	-1326.6
3646	2.0328	3.4545	0.	-1361.9
3647	2.0328	3.2727	0.	-1385.3
3648	2.0328	3.0909	0.	-1396.9
3649	2.0328	2.9091	0.	-1396.9
3650	2.0328	2.7273	0.	-1385.3
3651	2.0328	2.5455	0.	-1361.9
3652	2.0328	2.3636	0.	-1326.6
3653	2.0328	2.1818	0.	-1279.
3654	2.0328	2.	0.	-1218.8
3655	2.0328	1.8182	0.	-1145.8
3656	2.0328	1.6364	0.	-1059.9
3657	2.0328	1.4545	0.	-961.28
3658	2.0328	1.2727	0.	-850.75
3659	2.0328	1.0909	0.	-729.54
3660	2.0328	0.90909	0.	-599.58
3661	2.0328	0.72727	0.	-463.41
3662	2.0328	0.54545	0.	-324.04
3663	2.0328	0.36364	0.	-183.89
3664	2.0328	0.18182	0.	-41.199
3665	1.848	5.8182	0.	-36.599
3666	1.848	5.6364	0.	-193.52
3667	1.848	5.4545	0.	-348.78
3668	1.848	5.2727	0.	-503.23
3669	1.848	5.0909	0.	-653.59
3670	1.848	4.9091	0.	-796.07
3671	1.848	4.7273	0.	-927.67
3672	1.848	4.5455	0.	-1046.4
3673	1.848	4.3636	0.	-1151.
3674	1.848	4.1818	0.	-1241.2
3675	1.848	4.	0.	-1317.
3676	1.848	3.8182	0.	-1378.9
3677	1.848	3.6364	0.	-1427.5
3678	1.848	3.4545	0.	-1463.3
3679	1.848	3.2727	0.	-1486.9
3680	1.848	3.0909	0.	-1498.5
3681	1.848	2.9091	0.	-1498.5
3682	1.848	2.7273	0.	-1486.9
3683	1.848	2.5455	0.	-1463.3
3684	1.848	2.3636	0.	-1427.5
3685	1.848	2.1818	0.	-1378.9
3686	1.848	2.	0.	-1317.
3687	1.848	1.8182	0.	-1241.2
3688	1.848	1.6364	0.	-1151.
3689	1.848	1.4545	0.	-1046.4
3690	1.848	1.2727	0.	-927.67
3691	1.848	1.0909	0.	-796.07
3692	1.848	0.90909	0.	-653.59
3693	1.848	0.72727	0.	-503.23
3694	1.848	0.54545	0.	-348.78
3695	1.848	0.36364	0.	-193.52
3696	1.848	0.18182	0.	-36.599
3697	1.6632	5.8182	0.	-31.297
3698	1.6632	5.6364	0.	-204.25
3699	1.6632	5.4545	0.	-377.47
3700	1.6632	5.2727	0.	-549.65
3701	1.6632	5.0909	0.	-716.22
3702	1.6632	4.9091	0.	-872.4
3703	1.6632	4.7273	0.	-1014.8
3704	1.6632	4.5455	0.	-1141.3
3705	1.6632	4.3636	0.	-1251.2
3706	1.6632	4.1818	0.	-1344.5
3707	1.6632	4.	0.	-1422.1
3708	1.6632	3.8182	0.	-1484.7
3709	1.6632	3.6364	0.	-1533.4
3710	1.6632	3.4545	0.	-1569.
3711	1.6632	3.2727	0.	-1592.3
3712	1.6632	3.0909	0.	-1603.9
3713	1.6632	2.9091	0.	-1603.9
3714	1.6632	2.7273	0.	-1592.3
3715	1.6632	2.5455	0.	-1569.
3716	1.6632	2.3636	0.	-1533.4
3717	1.6632	2.1818	0.	-1484.7
3718	1.6632	2.	0.	-1422.1
3719	1.6632	1.8182	0.	-1344.5
3720	1.6632	1.6364	0.	-1251.2
3721	1.6632	1.4545	0.	-1141.3
3722	1.6632	1.2727	0.	-1014.8
3723	1.6632	1.0909	0.	-872.4
3724	1.6632	0.90909	0.	-716.22
3725	1.6632	0.72727	0.	-549.65
3726	1.6632	0.54545	0.	-377.47
3727	1.6632	0.36364	0.	-204.25
3728	1.6632	0.18182	0.	-31.297
3729	1.4784	5.8182	0.	-25.832
3730	1.4784	5.6364	0.	-216.82
3731	1.4784	5.4545	0.	-411.89
3732	1.4784	5.2727	0.	-605.2
3733	1.4784	5.0909	0.	-790.3
3734	1.4784	4.9091	0.	-961.21
3735	1.4784	4.7273	0.	-1114.2
3736	1.4784	4.5455	0.	-1247.6
3737	1.4784	4.3636	0.	-1361.3
3738	1.4784	4.1818	0.	-1456.3
3739	1.4784	4.	0.	-1534.1
3740	1.4784	3.8182	0.	-1596.
3741	1.4784	3.6364	0.	-1643.8
3742	1.4784	3.4545	0.	-1678.4
3743	1.4784	3.2727	0.	-1701.
3744	1.4784	3.0909	0.	-1712.2
3745	1.4784	2.9091	0.	-1712.2
3746	1.4784	2.7273	0.	-1701.
3747	1.4784	2.5455	0.	-1678.4
3748	1.4784	2.3636	0.	-1643.8
3749	1.4784	2.1818	0.	-1596.
3750	1.4784	2.	0.	-1534.1
3751	1.4784	1.8182	0.	-1456.3
3752	1.4784	1.6364	0.	-1361.3
3753	1.4784	1.4545	0.	-1247.6
3754	1.4784	1.2727	0.	-1114.2
3755	1.4784	1.0909	0.	-961.21
3756	1.4784	0.90909	0.	-790.3
3757	1.4784	0.72727	0.	-605.2
3758	1.4784	0.54545	0.	-411.89
3759	1.4784	0.36364	0.	-216.82
3760	1.4784	0.18182	0.	-25.832
3761	1.2936	5.8182	0.	-20.919
3762	1.2936	5.6364	0.	-232.39
3763	1.2936	5.4545	0.	-454.69
3764	1.2936	5.2727	0.	-673.48
3765	1.2936	5.0909	0.	-879.57
3766	1.2936	4.9091	0.	-1065.7
3767	1.2936	4.7273	0.	-1228.2
3768	1.2936	4.5455	0.	-1366.5
3769	1.2936	4.3636	0.	-1481.8
3770	1.2936	4.1818	0.	-1576.2
3771	1.2936	4.	0.	-1652.3
3772	1.2936	3.8182	0.	-1712.1
3773	1.2936	3.6364	0.	-1757.6
3774	1.2936	3.4545	0.	-1790.5
3775	1.2936	3.2727	0.	-1811.8
3776	1.2936	3.0909	0.	-1822.2
3777	1.2936	2.9091	0.	-1822.2
3778	1.2936	2.7273	0.	-1811.8
3779	1.2936	2.5455	0.	-1790.5
3780	1.2936	2.3636	0.	-1757.6
3781	1.2936	2.1818	0.	-1712.1
3782	1.2936	2.	0.	-1652.3
3783	1.2936	1.8182	0.	-1576.2
3784	1.2936	1.6364	0.	-1481.8
3785	1.2936	1.4545	0.	-1366.5
3786	1.2936	1.2727	0.	-1228.2
3787	1.2936	1.0909	0.	-1065.7
3788	1.2936	0.90909	0.	-879.57
3789	1.2936	0.72727	0.	-673.48
3790	1.2936	0.54545	0.	-454.69
3791	1.2936	0.36364	0.	-232.39
3792	1.2936	0.18182	0.	-20.919
3793	1.1088	5.8182	0.	-17.626
3794	1.1088	5.6364	0.	-253.63
3795	1.1088	5.4545	0.	-511.03
3796	1.1088	5.2727	0.	-760.84
3797	1.1088	5.0909	0.	-990.01
3798	1.1088	4.9091	0.	-1190.4
3799	1.1088	4.7273	0.	-1359.8
3800	1.1088	4.5455	0.	-1499.7
3801	1.1088	4.3636	0.	-1613.3
3802	1.1088	4.1818	0.	-1704.4
3803	1.1088	4.	0.	-1776.4
3804	1.1088	3.8182	0.	-1832.4
3805	1.1088	3.6364	0.	-1874.6
3806	1.1088	3.4545	0.	-1904.8
3807	1.1088	3.2727	0.	-1924.2
3808	1.1088	3.0909	0.	-1933.8
3809	1.1088	2.9091	0.	-1933.8
3810	1.1088	2.7273	0.	-1924.2
3811	1.1088	2.5455	0.	-1904.8
3812	1.1088	2.3636	0.	-1874.6
3813	1.1088	2.1818	0.	-1832.4
3814	1.1088	2.	0.	-1776.4
3815	1.1088	1.8182	0.	-1704.4
3816	1.1088	1.6364	0.	-1613.3
3817	1.1088	1.4545	0.	-1499.7
3818	1.1088	1.2727	0.	-1359.8
3819	1.1088	1.0909	0.	-1190.4
3820	1.1088	0.90909	0.	-990.01
3821	1.1088	0.72727	0.	-760.84
3822	1.1088	0.54545	0.	-511.03
3823	1.1088	0.36364	0.	-253.63
3824	1.1088	0.18182	0.	-17.626
3825	0.924	5.8182	0.	-14.391
3826	0.924	5.6364	0.	-283.34
3827	0.924	5.4545	0.	-586.83
3828	0.924	5.2727	0.	-873.6
3829	0.924	5.0909	0.	-1125.9
3830	0.924	4.9091	0.	-1336.8
3831	0.924	4.7273	0.	-1507.8
3832	0.924	4.5455	0.	-1644.1
3833	0.924	4.3636	0.	-1751.7
3834	0.924	4.1818	0.	-1836.1
3835	0.924	4.	0.	-1901.9
3836	0.924	3.8182	0.	-1952.3
3837	0.924	3.6364	0.	-1990.
3838	0.924	3.4545	0.	-2016.8
3839	0.924	3.2727	0.	-2034.1
3840	0.924	3.0909	0.	-2042.5
3841	0.924	2.9091	0.	-2042.5
3842	0.924	2.7273	0.	-2034.1
3843	0.924	2.5455	0.	-2016.8
3844	0.924	2.3636	0.	-1990.
3845	0.924	2.1818	0.	-1952.3
3846	0.924	2.	0.	-1901.9
3847	0.924	1.8182	0.	-1836.1
3848	0.924	1.6364	0.	-1751.7
3849	0.924	1.4545	0.	-1644.1
3850	0.924	1.2727	0.	-1507.8
3851	0.924	1.0909	0.	-1336.8
3852	0.924	0.90909	0.	-1125.9
3853	0.924	0.72727	0.	-873.6
3854	0.924	0.54545	0.	-586.83
3855	0.924	0.36364	0.	-283.34
3856	0.924	0.18182	0.	-14.391
3857	0.7392	5.8182	0.	-18.406
3858	0.7392	5.6364	0.	-336.7
3859	0.7392	5.4545	0.	-704.73
3860	0.7392	5.2727	0.	-1034.
3861	0.7392	5.0909	0.	-1305.1
3862	0.7392	4.9091	0.	-1518.2
3863	0.7392	4.7273	0.	-1682.5
3864	0.7392	4.5455	0.	-1808.8
3865	0.7392	4.3636	0.	-1905.9
3866	0.7392	4.1818	0.	-1980.7
3867	0.7392	4.	0.	-2038.2
3868	0.7392	3.8182	0.	-2081.9
3869	0.7392	3.6364	0.	-2114.5
3870	0.7392	3.4545	0.	-2137.6
3871	0.7392	3.2727	0.	-2152.4
3872	0.7392	3.0909	0.	-2159.6
3873	0.7392	2.9091	0.	-2159.6
3874	0.7392	2.7273	0.	-2152.4
3875	0.7392	2.5455	0.	-2137.6
3876	0.7392	2.3636	0.	-2114.5
3877	0.7392	2.1818	0.	-2081.9
3878	0.7392	2.	0.	-2038.2
3879	0.7392	1.8182	0.	-1980.7
3880	0.7392	1.6364	0.	-1905.9
3881	0.7392	1.4545	0.	-1808.8
3882	0.7392	1.2727	0.	-1682.5
3883	0.7392	1.0909	0.	-1518.2
3884	0.7392	0.90909	0.	-1305.1
3885	0.7392	0.72727	0.	-1034.
3886	0.7392	0.54545	0.	-704.73
3887	0.7392	0.36364	0.	-336.7
3888	0.7392	0.18182	0.	-18.406
3889	0.5544	5.8182	0.	-0.68784
3890	0.5544	5.6364	0.	-410.65
3891	0.5544	5.4545	0.	-857.43
3892	0.5544	5.2727	0.	-1220.
3893	0.5544	5.0909	0.	-1491.
3894	0.5544	4.9091	0.	-1688.9
3895	0.5544	4.7273	0.	-1834.3
3896	0.5544	4.5455	0.	-1942.6
3897	0.5544	4.3636	0.	-2024.4
3898	0.5544	4.1818	0.	-2086.8
3899	0.5544	4.	0.	-2134.6
3900	0.5544	3.8182	0.	-2170.8
3901	0.5544	3.6364	0.	-2197.7
3902	0.5544	3.4545	0.	-2216.8
3903	0.5544	3.2727	0.	-2229.1
3904	0.5544	3.0909	0.	-2235.1
3905	0.5544	2.9091	0.	-2235.1
3906	0.5544	2.7273	0.	-2229.1
3907	0.5544	2.5455	0.	-2216.8
3908	0.5544	2.3636	0.	-2197.7
3909	0.5544	2.1818	0.	-2170.8
3910	0.5544	2.	0.	-2134.6
3911	0.5544	1.8182	0.	-2086.8
3912	0.5544	1.6364	0.	-2024.4
3913	0.5544	1.4545	0.	-1942.6
3914	0.5544	1.2727	0.	-1834.3
3915	0.5544	1.0909	0.	-1688.9
3916	0.5544	0.90909	0.	-1491.
3917	0.5544	0.72727	0.	-1220.
3918	0.5544	0.54545	0.	-857.43
3919	0.5544	0.36364	0.	-410.65
3920	0.5544	0.18182	0.	-0.68786
3921	0.3696	5.8182	0.	-81.49
3922	0.3696	5.6364	0.	-657.59
3923	0.3696	5.4545	0.	-1215.8
3924	0.3696	5.2727	0.	-1588.9
3925	0.3696	5.0909	0.	-1837.
3926	0.3696	4.9091	0.	-2007.1
3927	0.3696	4.7273	0.	-2128.7
3928	0.3696	4.5455	0.	-2218.4
3929	0.3696	4.3636	0.	-2286.1
3930	0.3696	4.1818	0.	-2337.8
3931	0.3696	4.	0.	-2377.5
3932	0.3696	3.8182	0.	-2407.8
3933	0.3696	3.6364	0.	-2430.3
3934	0.3696	3.4545	0.	-2446.4
3935	0.3696	3.2727	0.	-2456.7
3936	0.3696	3.0909	0.	-2461.7
3937	0.3696	2.9091	0.	-2461.7
3938	0.3696	2.7273	0.	-2456.7
3939	0.3696	2.5455	0.	-2446.4
3940	0.3696	2.3636	0.	-2430.3
3941	0.3696	2.1818	0.	-2407.8
3942	0.3696	2.	0.	-2377.5
3943	0.3696	1.8182	0.	-2337.8
3944	0.3696	1.6364	0.	-2286.1
3945	0.3696	1.4545	0.	-2218.4
3946	0.3696	1.2727	0.	-2128.7
3947	0.3696	1.0909	0.	-2007.1
3948	0.3696	0.90909	0.	-1837.
3949	0.3696	0.72727	0.	-1588.9
3950	0.3696	0.54545	0.	-1215.8
3951	0.3696	0.36364	0.	-657.59
3952	0.3696	0.18182	0.	-81.49
3953	0.1848	5.8182	0.	2.1343
3954	0.1848	5.6364	0.	-818.62
3955	0.1848	5.4545	0.	-1254.9
3956	0.1848	5.2727	0.	-1504.7
3957	0.1848	5.0909	0.	-1662.1
3958	0.1848	4.9091	0.	-1770.6
3959	0.1848	4.7273	0.	-1849.3
3960	0.1848	4.5455	0.	-1908.4
3961	0.1848	4.3636	0.	-1953.5
3962	0.1848	4.1818	0.	-1988.4
3963	0.1848	4.	0.	-2015.4
3964	0.1848	3.8182	0.	-2036.1
3965	0.1848	3.6364	0.	-2051.6
3966	0.1848	3.4545	0.	-2062.6
3967	0.1848	3.2727	0.	-2069.7
3968	0.1848	3.0909	0.	-2073.2
3969	0.1848	2.9091	0.	-2073.2
3970	0.1848	2.7273	0.	-2069.7
3971	0.1848	2.5455	0.	-2062.6
3972	0.1848	2.3636	0.	-2051.6
3973	0.1848	2.1818	0.	-2036.1
3974	0.1848	2.	0.	-2015.4
3975	0.1848	1.8182	0.	-1988.4
3976	0.1848	1.6364	0.	-1953.5
3977	0.1848	1.4545	0.	-1908.4
3978	0.1848	1.2727	0.	-1849.3
3979	0.1848	1.0909	0.	-1770.6
3980	0.1848	0.90909	0.	-1662.1
3981	0.1848	0.72727	0.	-1504.7
3982	0.1848	0.54545	0.	-1254.9
3983	0.1848	0.36364	0.	-818.62
3984	0.1848	0.18182	0.	2.1342
3985	23.267	2.1818	0.	-15.622
3986	23.267	2.3636	0.	-1.7541
3987	23.267	2.5455	0.	-2.7605e-002
3988	23.267	2.7273	0.	-0.26899
3989	23.267	2.9091	0.	-4.6869e-002
3990	23.267	3.0909	0.	-4.6867e-002
3991	23.267	3.2727	0.	-0.26899
3992	23.267	3.4545	0.	-2.7605e-002
3993	23.267	3.6364	0.	-1.7541
3994	23.267	3.8182	0.	-15.622
3995	23.45	2.1818	0.	-21.902
3996	23.45	2.3636	0.	-7.5465
3997	23.45	2.5455	0.	-5.9526
3998	23.45	2.7273	0.	-7.2471
3999	23.45	2.9091	0.	-9.1806
4000	23.45	3.0909	0.	-9.1806
4001	23.45	3.2727	0.	-7.2471
4002	23.45	3.4545	0.	-5.9526
4003	23.45	3.6364	0.	-7.5465
4004	23.45	3.8182	0.	-21.902
4005	23.633	2.1818	0.	-9.9081
4006	23.633	2.3636	0.	-15.821
4007	23.633	2.5455	0.	-24.575
4008	23.633	2.7273	0.	-37.4
4009	23.633	2.9091	0.	-46.749
4010	23.633	3.0909	0.	-46.749
4011	23.633	3.2727	0.	-37.4
4012	23.633	3.4545	0.	-24.575
4013	23.633	3.6364	0.	-15.821
4014	23.633	3.8182	0.	-9.9081
4015	23.817	2.1818	0.	-4.1941
4016	23.817	2.3636	0.	-6.8528
4017	23.817	2.5455	0.	-13.791
4018	23.817	2.7273	0.	-33.899
4019	23.817	2.9091	0.	-66.623
4020	23.817	3.0909	0.	-66.623
4021	23.817	3.2727	0.	-33.899
4022	23.817	3.4545	0.	-13.791
4023	23.817	3.6364	0.	-6.8528
4024	23.817	3.8182	0.	-4.1941
4025	23.817	4.1818	0.	-1.0769
4026	23.633	4.1818	0.	-4.1579
4027	23.45	4.1818	0.	-27.654
4028	23.817	4.3636	0.	-0.42836
4029	23.633	4.3636	0.	-1.0495
4030	23.45	4.3636	0.	-5.7666
4031	23.817	4.5455	0.	-0.30244
4032	23.633	4.5455	0.	0.16779
4033	23.45	4.5455	0.	-2.5808
4034	23.817	4.7273	0.	-0.19088
4035	23.633	4.7273	0.	7.732e-002
4036	23.45	4.7273	0.	-0.98775
4037	23.817	4.9091	0.	-0.16939
4038	23.633	4.9091	0.	4.6128e-002
4039	23.45	4.9091	0.	-0.61089
4040	23.817	5.0909	0.	-0.15912
4041	23.633	5.0909	0.	3.9075e-002
4042	23.45	5.0909	0.	-0.49973
4043	23.817	5.2727	0.	-0.15682
4044	23.633	5.2727	0.	3.6701e-002
4045	23.45	5.2727	0.	-0.45652
4046	23.817	5.4545	0.	-0.14852
4047	23.633	5.4545	0.	2.5863e-002
4048	23.45	5.4545	0.	-0.47363
4049	23.817	5.6364	0.	-0.19241
4050	23.633	5.6364	0.	1.1783e-002
4051	23.45	5.6364	0.	-0.50546
4052	23.817	5.8182	0.	-0.18397
4053	23.633	5.8182	0.	-8.5051e-002
4054	23.45	5.8182	0.	-0.72445
4055	23.45	1.8182	0.	-27.654
4056	23.633	1.8182	0.	-4.1579
4057	23.817	1.8182	0.	-1.0769
4058	23.45	1.6364	0.	-5.7667
4059	23.633	1.6364	0.	-1.0495
4060	23.817	1.6364	0.	-0.42836
4061	23.45	1.4545	0.	-2.5808
4062	23.633	1.4545	0.	0.16779
4063	23.817	1.4545	0.	-0.30244
4064	23.45	1.2727	0.	-0.98775
4065	23.633	1.2727	0.	7.732e-002
4066	23.817	1.2727	0.	-0.19089
4067	23.45	1.0909	0.	-0.6109
4068	23.633	1.0909	0.	4.613e-002
4069	23.817	1.0909	0.	-0.16939
4070	23.45	0.90909	0.	-0.49974
4071	23.633	0.90909	0.	3.9077e-002
4072	23.817	0.90909	0.	-0.15912
4073	23.45	0.72727	0.	-0.45652
4074	23.633	0.72727	0.	3.67e-002
4075	23.817	0.72727	0.	-0.15681
4076	23.45	0.54545	0.	-0.47364
4077	23.633	0.54545	0.	2.5864e-002
4078	23.817	0.54545	0.	-0.14852
4079	23.45	0.36364	0.	-0.50546
4080	23.633	0.36364	0.	1.178e-002
4081	23.817	0.36364	0.	-0.19242
4082	23.45	0.18182	0.	-0.72445
4083	23.633	0.18182	0.	-8.5057e-002
4084	23.817	0.18182	0.	-0.18397
4085	23.817	0.18182	0.1	0.18398
4086	23.633	0.18182	0.1	8.5054e-002
4087	23.45	0.18182	0.1	0.72445
4088	23.817	0.36364	0.1	0.19242
4089	23.633	0.36364	0.1	-1.1778e-002
4090	23.45	0.36364	0.1	0.50546
4091	23.817	0.54545	0.1	0.14852
4092	23.633	0.54545	0.1	-2.5864e-002
4093	23.45	0.54545	0.1	0.47363
4094	23.817	0.72727	0.1	0.15682
4095	23.633	0.72727	0.1	-3.67e-002
4096	23.45	0.72727	0.1	0.45652
4097	23.817	0.90909	0.1	0.15912
4098	23.633	0.90909	0.1	-3.9076e-002
4099	23.45	0.90909	0.1	0.49973
4100	23.817	1.0909	0.1	0.16939
4101	23.633	1.0909	0.1	-4.6129e-002
4102	23.45	1.0909	0.1	0.61089
4103	23.817	1.2727	0.1	0.19089
4104	23.633	1.2727	0.1	-7.7318e-002
4105	23.45	1.2727	0.1	0.98775
4106	23.817	1.4545	0.1	0.30244
4107	23.633	1.4545	0.1	-0.16779
4108	23.45	1.4545	0.1	2.5808
4109	23.817	1.6364	0.1	0.42836
4110	23.633	1.6364	0.1	1.0495
4111	23.45	1.6364	0.1	5.7667
4112	23.817	1.8182	0.1	1.0769
4113	23.633	1.8182	0.1	4.1579
4114	23.45	1.8182	0.1	27.654
4115	23.45	5.8182	0.1	0.72445
4116	23.633	5.8182	0.1	8.5052e-002
4117	23.817	5.8182	0.1	0.18397
4118	23.45	5.6364	0.1	0.50546
4119	23.633	5.6364	0.1	-1.1782e-002
4120	23.817	5.6364	0.1	0.19241
4121	23.45	5.4545	0.1	0.47363
4122	23.633	5.4545	0.1	-2.5864e-002
4123	23.817	5.4545	0.1	0.14852
4124	23.45	5.2727	0.1	0.45652
4125	23.633	5.2727	0.1	-3.67e-002
4126	23.817	5.2727	0.1	0.15682
4127	23.45	5.0909	0.1	0.49973
4128	23.633	5.0909	0.1	-3.9074e-002
4129	23.817	5.0909	0.1	0.15912
4130	23.45	4.9091	0.1	0.6109
4131	23.633	4.9091	0.1	-4.6128e-002
4132	23.817	4.9091	0.1	0.16939
4133	23.45	4.7273	0.1	0.98775
4134	23.633	4.7273	0.1	-7.732e-002
4135	23.817	4.7273	0.1	0.19088
4136	23.45	4.5455	0.1	2.5808
4137	23.633	4.5455	0.1	-0.16779
4138	23.817	4.5455	0.1	0.30244
4139	23.45	4.3636	0.1	5.7667
4140	23.633	4.3636	0.1	1.0495
4141	23.817	4.3636	0.1	0.42836
4142	23.45	4.1818	0.1	27.654
4143	23.633	4.1818	0.1	4.1579
4144	23.817	4.1818	0.1	1.0769
4145	23.817	3.8182	0.1	4.194
4146	23.817	3.6364	0.1	6.8528
4147	23.817	3.4545	0.1	13.791
4148	23.817	3.2727	0.1	33.899
4149	23.817	3.0909	0.1	66.623
4150	23.817	2.9091	0.1	66.623
4151	23.817	2.7273	0.1	33.899
4152	23.817	2.5455	0.1	13.791
4153	23.817	2.3636	0.1	6.8528
4154	23.817	2.1818	0.1	4.1941
4155	23.633	3.8182	0.1	9.9081
4156	23.633	3.6364	0.1	15.821
4157	23.633	3.4545	0.1	24.575
4158	23.633	3.2727	0.1	37.4
4159	23.633	3.0909	0.1	46.749
4160	23.633	2.9091	0.1	46.749
4161	23.633	2.7273	0.1	37.4
4162	23.633	2.5455	0.1	24.575
4163	23.633	2.3636	0.1	15.821
4164	23.633	2.1818	0.1	9.9081
4165	23.45	3.8182	0.1	21.902
4166	23.45	3.6364	0.1	7.5465
4167	23.45	3.4545	0.1	5.9526
4168	23.45	3.2727	0.1	7.247
4169	23.45	3.0909	0.1	9.1805
4170	23.45	2.9091	0.1	9.1806
4171	23.45	2.7273	0.1	7.2471
4172	23.45	2.5455	0.1	5.9526
4173	23.45	2.3636	0.1	7.5465
4174	23.45	2.1818	0.1	21.902
4175	23.267	3.8182	0.1	15.622
4176	23.267	3.6364	0.1	1.7541
4177	23.267	3.4545	0.1	2.7606e-002
4178	23.267	3.2727	0.1	0.26899
4179	23.267	3.0909	0.1	4.6868e-002
4180	23.267	2.9091	0.1	4.6869e-002
4181	23.267	2.7273	0.1	0.26899
4182	23.267	2.5455	0.1	2.7606e-002
4183	23.267	2.3636	0.1	1.7541
4184	23.267	2.1818	0.1	15.622
4185	0.1848	0.18182	0.1	-2.1342
4186	0.1848	0.36364	0.1	818.62
4187	0.1848	0.54545	0.1	1254.9
4188	0.1848	0.72727	0.1	1504.7
4189	0.1848	0.90909	0.1	1662.1
4190	0.1848	1.0909	0.1	1770.6
4191	0.1848	1.2727	0.1	1849.3
4192	0.1848	1.4545	0.1	1908.4
4193	0.1848	1.6364	0.1	1953.5
4194	0.1848	1.8182	0.1	1988.4
4195	0.1848	2.	0.1	2015.4
4196	0.1848	2.1818	0.1	2036.1
4197	0.1848	2.3636	0.1	2051.6
4198	0.1848	2.5455	0.1	2062.6
4199	0.1848	2.7273	0.1	2069.7
4200	0.1848	2.9091	0.1	2073.2
4201	0.1848	3.0909	0.1	2073.2
4202	0.1848	3.2727	0.1	2069.7
4203	0.1848	3.4545	0.1	2062.6
4204	0.1848	3.6364	0.1	2051.6
4205	0.1848	3.8182	0.1	2036.1
4206	0.1848	4.	0.1	2015.4
4207	0.1848	4.1818	0.1	1988.4
4208	0.1848	4.3636	0.1	1953.5
4209	0.1848	4.5455	0.1	1908.4
4210	0.1848	4.7273	0.1	1849.3
4211	0.1848	4.9091	0.1	1770.6
4212	0.1848	5.0909	0.1	1662.1
4213	0.1848	5.2727	0.1	1504.7
4214	0.1848	5.4545	0.1	1254.9
4215	0.1848	5.6364	0.1	818.62
4216	0.1848	5.8182	0.1	-2.1342
4217	0.3696	0.18182	0.1	81.49
4218	0.3696	0.36364	0.1	657.59
4219	0.3696	0.54545	0.1	1215.8
4220	0.3696	0.72727	0.1	1588.9
4221	0.3696	0.90909	0.1	1837.
4222	0.3696	1.0909	0.1	2007.1
4223	0.3696	1.2727	0.1	2128.7
4224	0.3696	1.4545	0.1	2218.4
4225	0.3696	1.6364	0.1	2286.1
4226	0.3696	1.8182	0.1	2337.8
4227	0.3696	2.	0.1	2377.5
4228	0.3696	2.1818	0.1	2407.8
4229	0.3696	2.3636	0.1	2430.3
4230	0.3696	2.5455	0.1	2446.4
4231	0.3696	2.7273	0.1	2456.7
4232	0.3696	2.9091	0.1	2461.7
4233	0.3696	3.0909	0.1	2461.7
4234	0.3696	3.2727	0.1	2456.7
4235	0.3696	3.4545	0.1	2446.4
4236	0.3696	3.6364	0.1	2430.3
4237	0.3696	3.8182	0.1	2407.8
4238	0.3696	4.	0.1	2377.5
4239	0.3696	4.1818	0.1	2337.8
4240	0.3696	4.3636	0.1	2286.1
4241	0.3696	4.5455	0.1	2218.4
4242	0.3696	4.7273	0.1	2128.7
4243	0.3696	4.9091	0.1	2007.1
4244	0.3696	5.0909	0.1	1837.
4245	0.3696	5.2727	0.1	1588.9
4246	0.3696	5.4545	0.1	1215.8
4247	0.3696	5.6364	0.1	657.59
4248	0.3696	5.8182	0.1	81.49
4249	0.5544	0.18182	0.1	0.68785
4250	0.5544	0.36364	0.1	410.65
4251	0.5544	0.54545	0.1	857.43
4252	0.5544	0.72727	0.1	1220.
4253	0.5544	0.90909	0.1	1491.
4254	0.5544	1.0909	0.1	1688.9
4255	0.5544	1.2727	0.1	1834.3
4256	0.5544	1.4545	0.1	1942.6
4257	0.5544	1.6364	0.1	2024.4
4258	0.5544	1.8182	0.1	2086.8
4259	0.5544	2.	0.1	2134.6
4260	0.5544	2.1818	0.1	2170.8
4261	0.5544	2.3636	0.1	2197.7
4262	0.5544	2.5455	0.1	2216.8
4263	0.5544	2.7273	0.1	2229.1
4264	0.5544	2.9091	0.1	2235.1
4265	0.5544	3.0909	0.1	2235.1
4266	0.5544	3.2727	0.1	2229.1
4267	0.5544	3.4545	0.1	2216.8
4268	0.5544	3.6364	0.1	2197.7
4269	0.5544	3.8182	0.1	2170.8
4270	0.5544	4.	0.1	2134.6
4271	0.5544	4.1818	0.1	2086.8
4272	0.5544	4.3636	0.1	2024.4
4273	0.5544	4.5455	0.1	1942.6
4274	0.5544	4.7273	0.1	1834.3
4275	0.5544	4.9091	0.1	1688.9
4276	0.5544	5.0909	0.1	1491.
4277	0.5544	5.2727	0.1	1220.
4278	0.5544	5.4545	0.1	857.43
4279	0.5544	5.6364	0.1	410.65
4280	0.5544	5.8182	0.1	0.68785
4281	0.7392	0.18182	0.1	18.406
4282	0.7392	0.36364	0.1	336.7
4283	0.7392	0.54545	0.1	704.73
4284	0.7392	0.72727	0.1	1034.
4285	0.7392	0.90909	0.1	1305.1
4286	0.7392	1.0909	0.1	1518.2
4287	0.7392	1.2727	0.1	1682.5
4288	0.7392	1.4545	0.1	1808.8
4289	0.7392	1.6364	0.1	1905.9
4290	0.7392	1.8182	0.1	1980.7
4291	0.7392	2.	0.1	2038.2
4292	0.7392	2.1818	0.1	2081.9
4293	0.7392	2.3636	0.1	2114.5
4294	0.7392	2.5455	0.1	2137.6
4295	0.7392	2.7273	0.1	2152.4
4296	0.7392	2.9091	0.1	2159.6
4297	0.7392	3.0909	0.1	2159.6
4298	0.7392	3.2727	0.1	2152.4
4299	0.7392	3.4545	0.1	2137.6
4300	0.7392	3.6364	0.1	2114.5
4301	0.7392	3.8182	0.1	2081.9
4302	0.7392	4.	0.1	2038.2
4303	0.7392	4.1818	0.1	1980.7
4304	0.7392	4.3636	0.1	1905.9
4305	0.7392	4.5455	0.1	1808.8
4306	0.7392	4.7273	0.1	1682.5
4307	0.7392	4.9091	0.1	1518.2
4308	0.7392	5.0909	0.1	1305.1
4309	0.7392	5.2727	0.1	1034.
4310	0.7392	5.4545	0.1	704.73
4311	0.7392	5.6364	0.1	336.7
4312	0.7392	5.8182	0.1	18.406
4313	0.924	0.18182	0.1	14.391
4314	0.924	0.36364	0.1	283.34
4315	0.924	0.54545	0.1	586.83
4316	0.924	0.72727	0.1	873.6
4317	0.924	0.90909	0.1	1125.9
4318	0.924	1.0909	0.1	1336.8
4319	0.924	1.2727	0.1	1507.8
4320	0.924	1.4545	0.1	1644.1
4321	0.924	1.6364	0.1	1751.7
4322	0.924	1.8182	0.1	1836.1
4323	0.924	2.	0.1	1901.9
4324	0.924	2.1818	0.1	1952.3
4325	0.924	2.3636	0.1	1990.
4326	0.924	2.5455	0.1	2016.8
4327	0.924	2.7273	0.1	2034.1
4328	0.924	2.9091	0.1	2042.5
4329	0.924	3.0909	0.1	2042.5
4330	0.924	3.2727	0.1	2034.1
4331	0.924	3.4545	0.1	2016.8
4332	0.924	3.6364	0.1	1990.
4333	0.924	3.8182	0.1	1952.3
4334	0.924	4.	0.1	1901.9
4335	0.924	4.1818	0.1	1836.1
4336	0.924	4.3636	0.1	1751.7
4337	0.924	4.5455	0.1	1644.1
4338	0.924	4.7273	0.1	1507.8
4339	0.924	4.9091	0.1	1336.8
4340	0.924	5.0909	0.1	1125.9
4341	0.924	5.2727	0.1	873.6
4342	0.924	5.4545	0.1	586.83
4343	0.924	5.6364	0.1	283.34
4344	0.924	5.8182	0.1	14.391
4345	1.1088	0.18182	0.1	17.626
4346	1.1088	0.36364	0.1	253.63
4347	1.1088	0.54545	0.1	511.03
4348	1.1088	0.72727	0.1	760.84
4349	1.1088	0.90909	0.1	990.01
4350	1.1088	1.0909	0.1	1190.4
4351	1.1088	1.2727	0.1	1359.8
4352	1.1088	1.4545	0.1	1499.7
4353	1.1088	1.6364	0.1	1613.3
4354	1.1088	1.8182	0.1	1704.4
4355	1.1088	2.	0.1	1776.4
4356	1.1088	2.1818	0.1	1832.4
4357	1.1088	2.3636	0.1	1874.6
4358	1.1088	2.5455	0.1	1904.8
4359	1.1088	2.7273	0.1	1924.2
4360	1.1088	2.9091	0.1	1933.8
4361	1.1088	3.0909	0.1	1933.8
4362	1.1088	3.2727	0.1	1924.2
4363	1.1088	3.4545	0.1	1904.8
4364	1.1088	3.6364	0.1	1874.6
4365	1.1088	3.8182	0.1	1832.4
4366	1.1088	4.	0.1	1776.4
4367	1.1088	4.1818	0.1	1704.4
4368	1.1088	4.3636	0.1	1613.3
4369	1.1088	4.5455	0.1	1499.7
4370	1.1088	4.7273	0.1	1359.8
4371	1.1088	4.9091	0.1	1190.4
4372	1.1088	5.0909	0.1	990.01
4373	1.1088	5.2727	0.1	760.84
4374	1.1088	5.4545	0.1	511.03
4375	1.1088	5.6364	0.1	253.63
4376	1.1088	5.8182	0.1	17.626
4377	1.2936	0.18182	0.1	20.919
4378	1.2936	0.36364	0.1	232.39
4379	1.2936	0.54545	0.1	454.69
4380	1.2936	0.72727	0.1	673.48
4381	1.2936	0.90909	0.1	879.57
4382	1.2936	1.0909	0.1	1065.7
4383	1.2936	1.2727	0.1	1228.2
4384	1.2936	1.4545	0.1	1366.5
4385	1.2936	1.6364	0.1	1481.8
4386	1.2936	1.8182	0.1	1576.2
4387	1.2936	2.	0.1	1652.3
4388	1.2936	2.1818	0.1	1712.1
4389	1.2936	2.3636	0.1	1757.6
4390	1.2936	2.5455	0.1	1790.5
4391	1.2936	2.7273	0.1	1811.8
4392	1.2936	2.9091	0.1	1822.2
4393	1.2936	3.0909	0.1	1822.2
4394	1.2936	3.2727	0.1	1811.8
4395	1.2936	3.4545	0.1	1790.5
4396	1.2936	3.6364	0.1	1757.6
4397	1.2936	3.8182	0.1	1712.1
4398	1.2936	4.	0.1	1652.3
4399	1.2936	4.1818	0.1	1576.2
4400	1.2936	4.3636	0.1	1481.8
4401	1.2936	4.5455	0.1	1366.5
4402	1.2936	4.7273	0.1	1228.2
4403	1.2936	4.9091	0.1	1065.7
4404	1.2936	5.0909	0.1	879.57
4405	1.2936	5.2727	0.1	673.48
4406	1.2936	5.4545	0.1	454.69
4407	1.2936	5.6364	0.1	232.39
4408	1.2936	5.8182	0.1	20.919
4409	1.4784	0.18182	0.1	25.832
4410	1.4784	0.36364	0.1	216.82
4411	1.4784	0.54545	0.1	411.89
4412	1.4784	0.72727	0.1	605.2
4413	1.4784	0.90909	0.1	790.3
4414	1.4784	1.0909	0.1	961.21
4415	1.4784	1.2727	0.1	1114.2
4416	1.4784	1.4545	0.1	1247.6
4417	1.4784	1.6364	0.1	1361.3
4418	1.4784	1.8182	0.1	1456.3
4419	1.4784	2.	0.1	1534.1
4420	1.4784	2.1818	0.1	1596.
4421	1.4784	2.3636	0.1	1643.8
4422	1.4784	2.5455	0.1	1678.4
4423	1.4784	2.7273	0.1	1701.
4424	1.4784	2.9091	0.1	1712.2
4425	1.4784	3.0909	0.1	1712.2
4426	1.4784	3.2727	0.1	1701.
4427	1.4784	3.4545	0.1	1678.4
4428	1.4784	3.6364	0.1	1643.8
4429	1.4784	3.8182	0.1	1596.
4430	1.4784	4.	0.1	1534.1
4431	1.4784	4.1818	0.1	1456.3
4432	1.4784	4.3636	0.1	1361.3
4433	1.4784	4.5455	0.1	1247.6
4434	1.4784	4.7273	0.1	1114.2
4435	1.4784	4.9091	0.1	961.21
4436	1.4784	5.0909	0.1	790.3
4437	1.4784	5.2727	0.1	605.2
4438	1.4784	5.4545	0.1	411.89
4439	1.4784	5.6364	0.1	216.82
4440	1.4784	5.8182	0.1	25.832
4441	1.6632	0.18182	0.1	31.297
4442	1.6632	0.36364	0.1	204.25
4443	1.6632	0.54545	0.1	377.47
4444	1.6632	0.72727	0.1	549.65
4445	1.6632	0.90909	0.1	716.22
4446	1.6632	1.0909	0.1	872.4
4447	1.6632	1.2727	0.1	1014.8
4448	1.6632	1.4545	0.1	1141.3
4449	1.6632	1.6364	0.1	1251.2
4450	1.6632	1.8182	0.1	1344.5
4451	1.6632	2.	0.1	1422.1
4452	1.6632	2.1818	0.1	1484.7
4453	1.6632	2.3636	0.1	1533.4
4454	1.6632	2.5455	0.1	1569.
4455	1.6632	2.7273	0.1	1592.3
4456	1.6632	2.9091	0.1	1603.9
4457	1.6632	3.0909	0.1	1603.9
4458	1.6632	3.2727	0.1	1592.3
4459	1.6632	3.4545	0.1	1569.
4460	1.6632	3.6364	0.1	1533.4
4461	1.6632	3.8182	0.1	1484.7
4462	1.6632	4.	0.1	1422.1
4463	1.6632	4.1818	0.1	1344.5
4464	1.6632	4.3636	0.1	1251.2
4465	1.6632	4.5455	0.1	1141.3
4466	1.6632	4.7273	0.1	1014.8
4467	1.6632	4.9091	0.1	872.4
4468	1.6632	5.0909	0.1	716.22
4469	1.6632	5.2727	0.1	549.65
4470	1.6632	5.4545	0.1	377.47
4471	1.6632	5.6364	0.1	204.25
4472	1.6632	5.8182	0.1	31.297
4473	1.848	0.18182	0.1	36.599
4474	1.848	0.36364	0.1	193.52
4475	1.848	0.54545	0.1	348.78
4476	1.848	0.72727	0.1	503.23
4477	1.848	0.90909	0.1	653.59
4478	1.848	1.0909	0.1	796.07
4479	1.848	1.2727	0.1	927.67
4480	1.848	1.4545	0.1	1046.4
4481	1.848	1.6364	0.1	1151.
4482	1.848	1.8182	0.1	1241.2
4483	1.848	2.	0.1	1317.
4484	1.848	2.1818	0.1	1378.9
4485	1.848	2.3636	0.1	1427.5
4486	1.848	2.5455	0.1	1463.3
4487	1.848	2.7273	0.1	1486.9
4488	1.848	2.9091	0.1	1498.5
4489	1.848	3.0909	0.1	1498.5
4490	1.848	3.2727	0.1	1486.9
4491	1.848	3.4545	0.1	1463.3
4492	1.848	3.6364	0.1	1427.5
4493	1.848	3.8182	0.1	1378.9
4494	1.848	4.	0.1	1317.
4495	1.848	4.1818	0.1	1241.2
4496	1.848	4.3636	0.1	1151.
4497	1.848	4.5455	0.1	1046.4
4498	1.848	4.7273	0.1	927.67
4499	1.848	4.9091	0.1	796.07
4500	1.848	5.0909	0.1	653.59
4501	1.848	5.2727	0.1	503.23
4502	1.848	5.4545	0.1	348.78
4503	1.848	5.6364	0.1	193.52
4504	1.848	5.8182	0.1	36.599
4505	2.0328	0.18182	0.1	41.199
4506	2.0328	0.36364	0.1	183.89
4507	2.0328	0.54545	0.1	324.04
4508	2.0328	0.72727	0.1	463.41
4509	2.0328	0.90909	0.1	599.58
4510	2.0328	1.0909	0.1	729.54
4511	2.0328	1.2727	0.1	850.75
4512	2.0328	1.4545	0.1	961.28
4513	2.0328	1.6364	0.1	1059.9
4514	2.0328	1.8182	0.1	1145.8
4515	2.0328	2.	0.1	1218.8
4516	2.0328	2.1818	0.1	1279.
4517	2.0328	2.3636	0.1	1326.6
4518	2.0328	2.5455	0.1	1361.9
4519	2.0328	2.7273	0.1	1385.3
4520	2.0328	2.9091	0.1	1396.9
4521	2.0328	3.0909	0.1	1396.9
4522	2.0328	3.2727	0.1	1385.3
4523	2.0328	3.4545	0.1	1361.9
4524	2.0328	3.6364	0.1	1326.6
4525	2.0328	3.8182	0.1	1279.
4526	2.0328	4.	0.1	1218.8
4527	2.0328	4.1818	0.1	1145.8
4528	2.0328	4.3636	0.1	1059.9
4529	2.0328	4.5455	0.1	961.28
4530	2.0328	4.7273	0.1	850.75
4531	2.0328	4.9091	0.1	729.54
4532	2.0328	5.0909	0.1	599.58
4533	2.0328	5.2727	0.1	463.41
4534	2.0328	5.4545	0.1	324.04
4535	2.0328	5.6364	0.1	183.89
4536	2.0328	5.8182	0.1	41.199
4537	2.2176	0.18182	0.1	44.889
4538	2.2176	0.36364	0.1	174.96
4539	2.2176	0.54545	0.1	302.15
4540	2.2176	0.72727	0.1	428.5
4541	2.2176	0.90909	0.1	552.2
4542	2.2176	1.0909	0.1	670.82
4543	2.2176	1.2727	0.1	782.22
4544	2.2176	1.4545	0.1	884.64
4545	2.2176	1.6364	0.1	976.82
4546	2.2176	1.8182	0.1	1057.9
4547	2.2176	2.	0.1	1127.4
4548	2.2176	2.1818	0.1	1185.1
4549	2.2176	2.3636	0.1	1231.1
4550	2.2176	2.5455	0.1	1265.4
4551	2.2176	2.7273	0.1	1288.2
4552	2.2176	2.9091	0.1	1299.5
4553	2.2176	3.0909	0.1	1299.5
4554	2.2176	3.2727	0.1	1288.2
4555	2.2176	3.4545	0.1	1265.4
4556	2.2176	3.6364	0.1	1231.1
4557	2.2176	3.8182	0.1	1185.1
4558	2.2176	4.	0.1	1127.4
4559	2.2176	4.1818	0.1	1057.9
4560	2.2176	4.3636	0.1	976.82
4561	2.2176	4.5455	0.1	884.64
4562	2.2176	4.7273	0.1	782.22
4563	2.2176	4.9091	0.1	670.82
4564	2.2176	5.0909	0.1	552.2
4565	2.2176	5.2727	0.1	428.5
4566	2.2176	5.4545	0.1	302.14
4567	2.2176	5.6364	0.1	174.96
4568	2.2176	5.8182	0.1	44.889
4569	2.4024	0.18182	0.1	47.635
4570	2.4024	0.36364	0.1	166.46
4571	2.4024	0.54545	0.1	282.37
4572	2.4024	0.72727	0.1	397.36
4573	2.4024	0.90909	0.1	510.03
4574	2.4024	1.0909	0.1	618.4
4575	2.4024	1.2727	0.1	720.67
4576	2.4024	1.4545	0.1	815.27
4577	2.4024	1.6364	0.1	900.99
4578	2.4024	1.8182	0.1	976.92
4579	2.4024	2.	0.1	1042.5
4580	2.4024	2.1818	0.1	1097.3
4581	2.4024	2.3636	0.1	1141.1
4582	2.4024	2.5455	0.1	1174.
4583	2.4024	2.7273	0.1	1195.9
4584	2.4024	2.9091	0.1	1206.9
4585	2.4024	3.0909	0.1	1206.9
4586	2.4024	3.2727	0.1	1195.9
4587	2.4024	3.4545	0.1	1174.
4588	2.4024	3.6364	0.1	1141.1
4589	2.4024	3.8182	0.1	1097.3
4590	2.4024	4.	0.1	1042.5
4591	2.4024	4.1818	0.1	976.92
4592	2.4024	4.3636	0.1	900.99
4593	2.4024	4.5455	0.1	815.27
4594	2.4024	4.7273	0.1	720.67
4595	2.4024	4.9091	0.1	618.4
4596	2.4024	5.0909	0.1	510.03
4597	2.4024	5.2727	0.1	397.36
4598	2.4024	5.4545	0.1	282.37
4599	2.4024	5.6364	0.1	166.46
4600	2.4024	5.8182	0.1	47.634
4601	2.5872	0.18182	0.1	49.49
4602	2.5872	0.36364	0.1	158.25
4603	2.5872	0.54545	0.1	264.22
4604	2.5872	0.72727	0.1	369.18
4605	2.5872	0.90909	0.1	472.03
4606	2.5872	1.0909	0.1	571.14
4607	2.5872	1.2727	0.1	664.97
4608	2.5872	1.4545	0.1	752.15
4609	2.5872	1.6364	0.1	831.55
4610	2.5872	1.8182	0.1	902.27
4611	2.5872	2.	0.1	963.64
4612	2.5872	2.1818	0.1	1015.2
4613	2.5872	2.3636	0.1	1056.7
4614	2.5872	2.5455	0.1	1087.9
4615	2.5872	2.7273	0.1	1108.7
4616	2.5872	2.9091	0.1	1119.1
4617	2.5872	3.0909	0.1	1119.1
4618	2.5872	3.2727	0.1	1108.7
4619	2.5872	3.4545	0.1	1087.9
4620	2.5872	3.6364	0.1	1056.7
4621	2.5872	3.8182	0.1	1015.2
4622	2.5872	4.	0.1	963.64
4623	2.5872	4.1818	0.1	902.27
4624	2.5872	4.3636	0.1	831.55
4625	2.5872	4.5455	0.1	752.15
4626	2.5872	4.7273	0.1	664.97
4627	2.5872	4.9091	0.1	571.14
4628	2.5872	5.0909	0.1	472.03
4629	2.5872	5.2727	0.1	369.18
4630	2.5872	5.4545	0.1	264.22
4631	2.5872	5.6364	0.1	158.25
4632	2.5872	5.8182	0.1	49.49
4633	2.772	0.18182	0.1	50.545
4634	2.772	0.36364	0.1	150.26
4635	2.772	0.54545	0.1	247.37
4636	2.772	0.72727	0.1	343.4
4637	2.772	0.90909	0.1	437.46
4638	2.772	1.0909	0.1	528.18
4639	2.772	1.2727	0.1	614.25
4640	2.772	1.4545	0.1	694.47
4641	2.772	1.6364	0.1	767.8
4642	2.772	1.8182	0.1	833.38
4643	2.772	2.	0.1	890.53
4644	2.772	2.1818	0.1	938.75
4645	2.772	2.3636	0.1	977.65
4646	2.772	2.5455	0.1	1007.
4647	2.772	2.7273	0.1	1026.7
4648	2.772	2.9091	0.1	1036.5
4649	2.772	3.0909	0.1	1036.5
4650	2.772	3.2727	0.1	1026.7
4651	2.772	3.4545	0.1	1007.
4652	2.772	3.6364	0.1	977.65
4653	2.772	3.8182	0.1	938.75
4654	2.772	4.	0.1	890.53
4655	2.772	4.1818	0.1	833.38
4656	2.772	4.3636	0.1	767.8
4657	2.772	4.5455	0.1	694.47
4658	2.772	4.7273	0.1	614.25
4659	2.772	4.9091	0.1	528.18
4660	2.772	5.0909	0.1	437.46
4661	2.772	5.2727	0.1	343.4
4662	2.772	5.4545	0.1	247.37
4663	2.772	5.6364	0.1	150.26
4664	2.772	5.8182	0.1	50.545
4665	2.9568	0.18182	0.1	50.899
4666	2.9568	0.36364	0.1	142.43
4667	2.9568	0.54545	0.1	231.6
4668	2.9568	0.72727	0.1	319.62
4669	2.9568	0.90909	0.1	405.77
4670	2.9568	1.0909	0.1	488.88
4671	2.9568	1.2727	0.1	567.82
4672	2.9568	1.4545	0.1	641.56
4673	2.9568	1.6364	0.1	709.14
4674	2.9568	1.8182	0.1	769.76
4675	2.9568	2.	0.1	822.75
4676	2.9568	2.1818	0.1	867.59
4677	2.9568	2.3636	0.1	903.88
4678	2.9568	2.5455	0.1	931.32
4679	2.9568	2.7273	0.1	949.71
4680	2.9568	2.9091	0.1	958.94
4681	2.9568	3.0909	0.1	958.94
4682	2.9568	3.2727	0.1	949.71
4683	2.9568	3.4545	0.1	931.32
4684	2.9568	3.6364	0.1	903.88
4685	2.9568	3.8182	0.1	867.59
4686	2.9568	4.	0.1	822.75
4687	2.9568	4.1818	0.1	769.76
4688	2.9568	4.3636	0.1	709.14
4689	2.9568	4.5455	0.1	641.56
4690	2.9568	4.7273	0.1	567.82
4691	2.9568	4.9091	0.1	488.88
4692	2.9568	5.0909	0.1	405.77
4693	2.9568	5.2727	0.1	319.62
4694	2.9568	5.4545	0.1	231.6
4695	2.9568	5.6364	0.1	142.43
4696	2.9568	5.8182	0.1	50.899
4697	3.1416	0.18182	0.1	50.654
4698	3.1416	0.36364	0.1	134.77
4699	3.1416	0.54545	0.1	216.76
4700	3.1416	0.72727	0.1	297.55
4701	3.1416	0.90909	0.1	376.53
4702	3.1416	1.0909	0.1	452.73
4703	3.1416	1.2727	0.1	525.15
4704	3.1416	1.4545	0.1	592.88
4705	3.1416	1.6364	0.1	655.06
4706	3.1416	1.8182	0.1	710.96
4707	3.1416	2.	0.1	759.94
4708	3.1416	2.1818	0.1	801.47
4709	3.1416	2.3636	0.1	835.15
4710	3.1416	2.5455	0.1	860.66
4711	3.1416	2.7273	0.1	877.79
4712	3.1416	2.9091	0.1	886.38
4713	3.1416	3.0909	0.1	886.38
4714	3.1416	3.2727	0.1	877.79
4715	3.1416	3.4545	0.1	860.66
4716	3.1416	3.6364	0.1	835.15
4717	3.1416	3.8182	0.1	801.47
4718	3.1416	4.	0.1	759.94
4719	3.1416	4.1818	0.1	710.96
4720	3.1416	4.3636	0.1	655.06
4721	3.1416	4.5455	0.1	592.88
4722	3.1416	4.7273	0.1	525.15
4723	3.1416	4.9091	0.1	452.73
4724	3.1416	5.0909	0.1	376.53
4725	3.1416	5.2727	0.1	297.55
4726	3.1416	5.4545	0.1	216.76
4727	3.1416	5.6364	0.1	134.77
4728	3.1416	5.8182	0.1	50.654
4729	3.3264	0.18182	0.1	49.903
4730	3.3264	0.36364	0.1	127.27
4731	3.3264	0.54545	0.1	202.73
4732	3.3264	0.72727	0.1	276.96
4733	3.3264	0.90909	0.1	349.46
4734	3.3264	1.0909	0.1	419.35
4735	3.3264	1.2727	0.1	485.79
4736	3.3264	1.4545	0.1	547.97
4737	3.3264	1.6364	0.1	605.13
4738	3.3264	1.8182	0.1	656.58
4739	3.3264	2.	0.1	701.73
4740	3.3264	2.1818	0.1	740.08
4741	3.3264	2.3636	0.1	771.23
4742	3.3264	2.5455	0.1	794.85
4743	3.3264	2.7273	0.1	810.73
4744	3.3264	2.9091	0.1	818.7
4745	3.3264	3.0909	0.1	818.7
4746	3.3264	3.2727	0.1	810.73
4747	3.3264	3.4545	0.1	794.85
4748	3.3264	3.6364	0.1	771.23
4749	3.3264	3.8182	0.1	740.08
4750	3.3264	4.	0.1	701.73
4751	3.3264	4.1818	0.1	656.58
4752	3.3264	4.3636	0.1	605.13
4753	3.3264	4.5455	0.1	547.97
4754	3.3264	4.7273	0.1	485.79
4755	3.3264	4.9091	0.1	419.35
4756	3.3264	5.0909	0.1	349.46
4757	3.3264	5.2727	0.1	276.96
4758	3.3264	5.4545	0.1	202.73
4759	3.3264	5.6364	0.1	127.27
4760	3.3264	5.8182	0.1	49.903
4761	3.5112	0.18182	0.1	48.736
4762	3.5112	0.36364	0.1	119.94
4763	3.5112	0.54545	0.1	189.44
4764	3.5112	0.72727	0.1	257.71
4765	3.5112	0.90909	0.1	324.29
4766	3.5112	1.0909	0.1	388.44
4767	3.5112	1.2727	0.1	449.41
4768	3.5112	1.4545	0.1	506.48
4769	3.5112	1.6364	0.1	558.97
4770	3.5112	1.8182	0.1	606.26
4771	3.5112	2.	0.1	647.81
4772	3.5112	2.1818	0.1	683.14
4773	3.5112	2.3636	0.1	711.86
4774	3.5112	2.5455	0.1	733.67
4775	3.5112	2.7273	0.1	748.33
4776	3.5112	2.9091	0.1	755.69
4777	3.5112	3.0909	0.1	755.69
4778	3.5112	3.2727	0.1	748.33
4779	3.5112	3.4545	0.1	733.67
4780	3.5112	3.6364	0.1	711.86
4781	3.5112	3.8182	0.1	683.14
4782	3.5112	4.	0.1	647.81
4783	3.5112	4.1818	0.1	606.26
4784	3.5112	4.3636	0.1	558.97
4785	3.5112	4.5455	0.1	506.48
4786	3.5112	4.7273	0.1	449.41
4787	3.5112	4.9091	0.1	388.44
4788	3.5112	5.0909	0.1	324.29
4789	3.5112	5.2727	0.1	257.71
4790	3.5112	5.4545	0.1	189.44
4791	3.5112	5.6364	0.1	119.94
4792	3.5112	5.8182	0.1	48.736
4793	3.696	0.18182	0.1	47.229
4794	3.696	0.36364	0.1	112.8
4795	3.696	0.54545	0.1	176.85
4796	3.696	0.72727	0.1	239.67
4797	3.696	0.90909	0.1	300.85
4798	3.696	1.0909	0.1	359.75
4799	3.696	1.2727	0.1	415.7
4800	3.696	1.4545	0.1	468.08
4801	3.696	1.6364	0.1	516.26
4802	3.696	1.8182	0.1	559.69
4803	3.696	2.	0.1	597.87
4804	3.696	2.1818	0.1	630.36
4805	3.696	2.3636	0.1	656.78
4806	3.696	2.5455	0.1	676.86
4807	3.696	2.7273	0.1	690.37
4808	3.696	2.9091	0.1	697.15
4809	3.696	3.0909	0.1	697.15
4810	3.696	3.2727	0.1	690.37
4811	3.696	3.4545	0.1	676.86
4812	3.696	3.6364	0.1	656.78
4813	3.696	3.8182	0.1	630.36
4814	3.696	4.	0.1	597.87
4815	3.696	4.1818	0.1	559.69
4816	3.696	4.3636	0.1	516.26
4817	3.696	4.5455	0.1	468.08
4818	3.696	4.7273	0.1	415.7
4819	3.696	4.9091	0.1	359.75
4820	3.696	5.0909	0.1	300.85
4821	3.696	5.2727	0.1	239.67
4822	3.696	5.4545	0.1	176.85
4823	3.696	5.6364	0.1	112.8
4824	3.696	5.8182	0.1	47.229
4825	3.8808	0.18182	0.1	45.453
4826	3.8808	0.36364	0.1	105.87
4827	3.8808	0.54545	0.1	164.92
4828	3.8808	0.72727	0.1	222.74
4829	3.8808	0.90909	0.1	278.99
4830	3.8808	1.0909	0.1	333.09
4831	3.8808	1.2727	0.1	384.45
4832	3.8808	1.4545	0.1	432.51
4833	3.8808	1.6364	0.1	476.72
4834	3.8808	1.8182	0.1	516.57
4835	3.8808	2.	0.1	551.62
4836	3.8808	2.1818	0.1	581.45
4837	3.8808	2.3636	0.1	605.73
4838	3.8808	2.5455	0.1	624.19
4839	3.8808	2.7273	0.1	636.6
4840	3.8808	2.9091	0.1	642.85
4841	3.8808	3.0909	0.1	642.85
4842	3.8808	3.2727	0.1	636.6
4843	3.8808	3.4545	0.1	624.19
4844	3.8808	3.6364	0.1	605.73
4845	3.8808	3.8182	0.1	581.45
4846	3.8808	4.	0.1	551.62
4847	3.8808	4.1818	0.1	516.57
4848	3.8808	4.3636	0.1	476.72
4849	3.8808	4.5455	0.1	432.51
4850	3.8808	4.7273	0.1	384.45
4851	3.8808	4.9091	0.1	333.09
4852	3.8808	5.0909	0.1	278.99
4853	3.8808	5.2727	0.1	222.74
4854	3.8808	5.4545	0.1	164.92
4855	3.8808	5.6364	0.1	105.87
4856	3.8808	5.8182	0.1	45.453
4857	4.0656	0.18182	0.1	43.47
4858	4.0656	0.36364	0.1	99.149
4859	4.0656	0.54545	0.1	153.6
4860	4.0656	0.72727	0.1	206.85
4861	4.0656	0.90909	0.1	258.59
4862	4.0656	1.0909	0.1	308.29
4863	4.0656	1.2727	0.1	355.44
4864	4.0656	1.4545	0.1	399.54
4865	4.0656	1.6364	0.1	440.09
4866	4.0656	1.8182	0.1	476.65
4867	4.0656	2.	0.1	508.8
4868	4.0656	2.1818	0.1	536.18
4869	4.0656	2.3636	0.1	558.46
4870	4.0656	2.5455	0.1	575.39
4871	4.0656	2.7273	0.1	586.79
4872	4.0656	2.9091	0.1	592.52
4873	4.0656	3.0909	0.1	592.52
4874	4.0656	3.2727	0.1	586.79
4875	4.0656	3.4545	0.1	575.39
4876	4.0656	3.6364	0.1	558.46
4877	4.0656	3.8182	0.1	536.18
4878	4.0656	4.	0.1	508.8
4879	4.0656	4.1818	0.1	476.65
4880	4.0656	4.3636	0.1	440.09
4881	4.0656	4.5455	0.1	399.54
4882	4.0656	4.7273	0.1	355.44
4883	4.0656	4.9091	0.1	308.29
4884	4.0656	5.0909	0.1	258.59
4885	4.0656	5.2727	0.1	206.85
4886	4.0656	5.4545	0.1	153.6
4887	4.0656	5.6364	0.1	99.149
4888	4.0656	5.8182	0.1	43.47
4889	4.2504	0.18182	0.1	41.333
4890	4.2504	0.36364	0.1	92.664
4891	4.2504	0.54545	0.1	142.88
4892	4.2504	0.72727	0.1	191.93
4893	4.2504	0.90909	0.1	239.53
4894	4.2504	1.0909	0.1	285.2
4895	4.2504	1.2727	0.1	328.5
4896	4.2504	1.4545	0.1	368.96
4897	4.2504	1.6364	0.1	406.17
4898	4.2504	1.8182	0.1	439.69
4899	4.2504	2.	0.1	469.17
4900	4.2504	2.1818	0.1	494.27
4901	4.2504	2.3636	0.1	514.7
4902	4.2504	2.5455	0.1	530.23
4903	4.2504	2.7273	0.1	540.68
4904	4.2504	2.9091	0.1	545.94
4905	4.2504	3.0909	0.1	545.94
4906	4.2504	3.2727	0.1	540.68
4907	4.2504	3.4545	0.1	530.23
4908	4.2504	3.6364	0.1	514.7
4909	4.2504	3.8182	0.1	494.27
4910	4.2504	4.	0.1	469.17
4911	4.2504	4.1818	0.1	439.69
4912	4.2504	4.3636	0.1	406.17
4913	4.2504	4.5455	0.1	368.96
4914	4.2504	4.7273	0.1	328.5
4915	4.2504	4.9091	0.1	285.2
4916	4.2504	5.0909	0.1	239.53
4917	4.2504	5.2727	0.1	191.93
4918	4.2504	5.4545	0.1	142.88
4919	4.2504	5.6364	0.1	92.664
4920	4.2504	5.8182	0.1	41.333
4921	4.4352	0.18182	0.1	39.088
4922	4.4352	0.36364	0.1	86.424
4923	4.4352	0.54545	0.1	132.75
4924	4.4352	0.72727	0.1	177.93
4925	4.4352	0.90909	0.1	221.73
4926	4.4352	1.0909	0.1	263.71
4927	4.4352	1.2727	0.1	303.47
4928	4.4352	1.4545	0.1	340.61
4929	4.4352	1.6364	0.1	374.73
4930	4.4352	1.8182	0.1	405.47
4931	4.4352	2.	0.1	432.5
4932	4.4352	2.1818	0.1	455.5
4933	4.4352	2.3636	0.1	474.22
4934	4.4352	2.5455	0.1	488.45
4935	4.4352	2.7273	0.1	498.03
4936	4.4352	2.9091	0.1	502.85
4937	4.4352	3.0909	0.1	502.85
4938	4.4352	3.2727	0.1	498.03
4939	4.4352	3.4545	0.1	488.45
4940	4.4352	3.6364	0.1	474.22
4941	4.4352	3.8182	0.1	455.5
4942	4.4352	4.	0.1	432.5
4943	4.4352	4.1818	0.1	405.47
4944	4.4352	4.3636	0.1	374.73
4945	4.4352	4.5455	0.1	340.61
4946	4.4352	4.7273	0.1	303.47
4947	4.4352	4.9091	0.1	263.71
4948	4.4352	5.0909	0.1	221.73
4949	4.4352	5.2727	0.1	177.93
4950	4.4352	5.4545	0.1	132.75
4951	4.4352	5.6364	0.1	86.424
4952	4.4352	5.8182	0.1	39.088
4953	4.62	0.18182	0.1	36.775
4954	4.62	0.36364	0.1	80.436
4955	4.62	0.54545	0.1	123.16
4956	4.62	0.72727	0.1	164.8
4957	4.62	0.90909	0.1	205.1
4958	4.62	1.0909	0.1	243.7
4959	4.62	1.2727	0.1	280.22
4960	4.62	1.4545	0.1	314.31
4961	4.62	1.6364	0.1	345.61
4962	4.62	1.8182	0.1	373.8
4963	4.62	2.	0.1	398.57
4964	4.62	2.1818	0.1	419.64
4965	4.62	2.3636	0.1	436.8
4966	4.62	2.5455	0.1	449.83
4967	4.62	2.7273	0.1	458.61
4968	4.62	2.9091	0.1	463.02
4969	4.62	3.0909	0.1	463.02
4970	4.62	3.2727	0.1	458.61
4971	4.62	3.4545	0.1	449.83
4972	4.62	3.6364	0.1	436.8
4973	4.62	3.8182	0.1	419.64
4974	4.62	4.	0.1	398.57
4975	4.62	4.1818	0.1	373.8
4976	4.62	4.3636	0.1	345.61
4977	4.62	4.5455	0.1	314.31
4978	4.62	4.7273	0.1	280.22
4979	4.62	4.9091	0.1	243.7
4980	4.62	5.0909	0.1	205.1
4981	4.62	5.2727	0.1	164.8
4982	4.62	5.4545	0.1	123.16
4983	4.62	5.6364	0.1	80.436
4984	4.62	5.8182	0.1	36.775
4985	4.8048	0.18182	0.1	34.427
4986	4.8048	0.36364	0.1	74.708
4987	4.8048	0.54545	0.1	114.12
4988	4.8048	0.72727	0.1	152.48
4989	4.8048	0.90909	0.1	189.58
4990	4.8048	1.0909	0.1	225.07
4991	4.8048	1.2727	0.1	258.62
4992	4.8048	1.4545	0.1	289.91
4993	4.8048	1.6364	0.1	318.63
4994	4.8048	1.8182	0.1	344.48
4995	4.8048	2.	0.1	367.18
4996	4.8048	2.1818	0.1	386.49
4997	4.8048	2.3636	0.1	402.2
4998	4.8048	2.5455	0.1	414.15
4999	4.8048	2.7273	0.1	422.18
5000	4.8048	2.9091	0.1	426.22
5001	4.8048	3.0909	0.1	426.22
5002	4.8048	3.2727	0.1	422.18
5003	4.8048	3.4545	0.1	414.15
5004	4.8048	3.6364	0.1	402.2
5005	4.8048	3.8182	0.1	386.49
5006	4.8048	4.	0.1	367.18
5007	4.8048	4.1818	0.1	344.48
5008	4.8048	4.3636	0.1	318.63
5009	4.8048	4.5455	0.1	289.91
5010	4.8048	4.7273	0.1	258.62
5011	4.8048	4.9091	0.1	225.07
5012	4.8048	5.0909	0.1	189.58
5013	4.8048	5.2727	0.1	152.48
5014	4.8048	5.4545	0.1	114.12
5015	4.8048	5.6364	0.1	74.708
5016	4.8048	5.8182	0.1	34.427
5017	4.9896	0.18182	0.1	32.071
5018	4.9896	0.36364	0.1	69.243
5019	4.9896	0.54545	0.1	105.6
5020	4.9896	0.72727	0.1	140.95
5021	4.9896	0.90909	0.1	175.09
5022	4.9896	1.0909	0.1	207.73
5023	4.9896	1.2727	0.1	238.56
5024	4.9896	1.4545	0.1	267.29
5025	4.9896	1.6364	0.1	293.64
5026	4.9896	1.8182	0.1	317.34
5027	4.9896	2.	0.1	338.15
5028	4.9896	2.1818	0.1	355.85
5029	4.9896	2.3636	0.1	370.24
5030	4.9896	2.5455	0.1	381.18
5031	4.9896	2.7273	0.1	388.54
5032	4.9896	2.9091	0.1	392.23
5033	4.9896	3.0909	0.1	392.23
5034	4.9896	3.2727	0.1	388.54
5035	4.9896	3.4545	0.1	381.18
5036	4.9896	3.6364	0.1	370.24
5037	4.9896	3.8182	0.1	355.85
5038	4.9896	4.	0.1	338.15
5039	4.9896	4.1818	0.1	317.34
5040	4.9896	4.3636	0.1	293.64
5041	4.9896	4.5455	0.1	267.29
5042	4.9896	4.7273	0.1	238.56
5043	4.9896	4.9091	0.1	207.73
5044	4.9896	5.0909	0.1	175.09
5045	4.9896	5.2727	0.1	140.95
5046	4.9896	5.4545	0.1	105.6
5047	4.9896	5.6364	0.1	69.243
5048	4.9896	5.8182	0.1	32.071
5049	5.1744	0.18182	0.1	29.731
5050	5.1744	0.36364	0.1	64.041
5051	5.1744	0.54545	0.1	97.573
5052	5.1744	0.72727	0.1	130.14
5053	5.1744	0.90909	0.1	161.58
5054	5.1744	1.0909	0.1	191.6
5055	5.1744	1.2727	0.1	219.93
5056	5.1744	1.4545	0.1	246.32
5057	5.1744	1.6364	0.1	270.5
5058	5.1744	1.8182	0.1	292.24
5059	5.1744	2.	0.1	311.31
5060	5.1744	2.1818	0.1	327.53
5061	5.1744	2.3636	0.1	340.71
5062	5.1744	2.5455	0.1	350.73
5063	5.1744	2.7273	0.1	357.47
5064	5.1744	2.9091	0.1	360.86
5065	5.1744	3.0909	0.1	360.86
5066	5.1744	3.2727	0.1	357.47
5067	5.1744	3.4545	0.1	350.73
5068	5.1744	3.6364	0.1	340.71
5069	5.1744	3.8182	0.1	327.53
5070	5.1744	4.	0.1	311.31
5071	5.1744	4.1818	0.1	292.24
5072	5.1744	4.3636	0.1	270.5
5073	5.1744	4.5455	0.1	246.32
5074	5.1744	4.7273	0.1	219.93
5075	5.1744	4.9091	0.1	191.6
5076	5.1744	5.0909	0.1	161.58
5077	5.1744	5.2727	0.1	130.14
5078	5.1744	5.4545	0.1	97.573
5079	5.1744	5.6364	0.1	64.041
5080	5.1744	5.8182	0.1	29.731
5081	5.3592	0.18182	0.1	27.425
5082	5.3592	0.36364	0.1	59.102
5083	5.3592	0.54545	0.1	90.029
5084	5.3592	0.72727	0.1	120.04
5085	5.3592	0.90909	0.1	148.98
5086	5.3592	1.0909	0.1	176.6
5087	5.3592	1.2727	0.1	202.64
5088	5.3592	1.4545	0.1	226.87
5089	5.3592	1.6364	0.1	249.07
5090	5.3592	1.8182	0.1	269.01
5091	5.3592	2.	0.1	286.5
5092	5.3592	2.1818	0.1	301.36
5093	5.3592	2.3636	0.1	313.44
5094	5.3592	2.5455	0.1	322.62
5095	5.3592	2.7273	0.1	328.79
5096	5.3592	2.9091	0.1	331.89
5097	5.3592	3.0909	0.1	331.89
5098	5.3592	3.2727	0.1	328.79
5099	5.3592	3.4545	0.1	322.62
5100	5.3592	3.6364	0.1	313.44
5101	5.3592	3.8182	0.1	301.36
5102	5.3592	4.	0.1	286.5
5103	5.3592	4.1818	0.1	269.01
5104	5.3592	4.3636	0.1	249.07
5105	5.3592	4.5455	0.1	226.87
5106	5.3592	4.7273	0.1	202.64
5107	5.3592	4.9091	0.1	176.6
5108	5.3592	5.0909	0.1	148.98
5109	5.3592	5.2727	0.1	120.04
5110	5.3592	5.4545	0.1	90.029
5111	5.3592	5.6364	0.1	59.102
5112	5.3592	5.8182	0.1	27.425
5113	5.544	0.18182	0.1	25.169
5114	5.544	0.36364	0.1	54.421
5115	5.544	0.54545	0.1	82.944
5116	5.544	0.72727	0.1	110.6
5117	5.544	0.90909	0.1	137.24
5118	5.544	1.0909	0.1	162.65
5119	5.544	1.2727	0.1	186.59
5120	5.544	1.4545	0.1	208.85
5121	5.544	1.6364	0.1	229.22
5122	5.544	1.8182	0.1	247.52
5123	5.544	2.	0.1	263.56
5124	5.544	2.1818	0.1	277.19
5125	5.544	2.3636	0.1	288.26
5126	5.544	2.5455	0.1	296.67
5127	5.544	2.7273	0.1	302.32
5128	5.544	2.9091	0.1	305.16
5129	5.544	3.0909	0.1	305.16
5130	5.544	3.2727	0.1	302.32
5131	5.544	3.4545	0.1	296.67
5132	5.544	3.6364	0.1	288.26
5133	5.544	3.8182	0.1	277.19
5134	5.544	4.	0.1	263.56
5135	5.544	4.1818	0.1	247.52
5136	5.544	4.3636	0.1	229.22
5137	5.544	4.5455	0.1	208.85
5138	5.544	4.7273	0.1	186.59
5139	5.544	4.9091	0.1	162.65
5140	5.544	5.0909	0.1	137.24
5141	5.544	5.2727	0.1	110.6
5142	5.544	5.4545	0.1	82.944
5143	5.544	5.6364	0.1	54.421
5144	5.544	5.8182	0.1	25.169
5145	5.7288	0.18182	0.1	22.973
5146	5.7288	0.36364	0.1	49.995
5147	5.7288	0.54545	0.1	76.299
5148	5.7288	0.72727	0.1	101.78
5149	5.7288	0.90909	0.1	126.31
5150	5.7288	1.0909	0.1	149.69
5151	5.7288	1.2727	0.1	171.69
5152	5.7288	1.4545	0.1	192.15
5153	5.7288	1.6364	0.1	210.86
5154	5.7288	1.8182	0.1	227.65
5155	5.7288	2.	0.1	242.36
5156	5.7288	2.1818	0.1	254.86
5157	5.7288	2.3636	0.1	265.01
5158	5.7288	2.5455	0.1	272.71
5159	5.7288	2.7273	0.1	277.89
5160	5.7288	2.9091	0.1	280.49
5161	5.7288	3.0909	0.1	280.49
5162	5.7288	3.2727	0.1	277.89
5163	5.7288	3.4545	0.1	272.71
5164	5.7288	3.6364	0.1	265.01
5165	5.7288	3.8182	0.1	254.86
5166	5.7288	4.	0.1	242.36
5167	5.7288	4.1818	0.1	227.65
5168	5.7288	4.3636	0.1	210.86
5169	5.7288	4.5455	0.1	192.15
5170	5.7288	4.7273	0.1	171.69
5171	5.7288	4.9091	0.1	149.69
5172	5.7288	5.0909	0.1	126.31
5173	5.7288	5.2727	0.1	101.78
5174	5.7288	5.4545	0.1	76.299
5175	5.7288	5.6364	0.1	49.995
5176	5.7288	5.8182	0.1	22.973
5177	5.9136	0.18182	0.1	20.847
5178	5.9136	0.36364	0.1	45.816
5179	5.9136	0.54545	0.1	70.072
5180	5.9136	0.72727	0.1	93.553
5181	5.9136	0.90909	0.1	116.14
5182	5.9136	1.0909	0.1	137.64
5183	5.9136	1.2727	0.1	157.88
5184	5.9136	1.4545	0.1	176.68
5185	5.9136	1.6364	0.1	193.86
5186	5.9136	1.8182	0.1	209.27
5187	5.9136	2.	0.1	222.78
5188	5.9136	2.1818	0.1	234.23
5189	5.9136	2.3636	0.1	243.54
5190	5.9136	2.5455	0.1	250.6
5191	5.9136	2.7273	0.1	255.35
5192	5.9136	2.9091	0.1	257.73
5193	5.9136	3.0909	0.1	257.73
5194	5.9136	3.2727	0.1	255.35
5195	5.9136	3.4545	0.1	250.6
5196	5.9136	3.6364	0.1	243.54
5197	5.9136	3.8182	0.1	234.23
5198	5.9136	4.	0.1	222.78
5199	5.9136	4.1818	0.1	209.27
5200	5.9136	4.3636	0.1	193.86
5201	5.9136	4.5455	0.1	176.68
5202	5.9136	4.7273	0.1	157.88
5203	5.9136	4.9091	0.1	137.64
5204	5.9136	5.0909	0.1	116.14
5205	5.9136	5.2727	0.1	93.553
5206	5.9136	5.4545	0.1	70.072
5207	5.9136	5.6364	0.1	45.816
5208	5.9136	5.8182	0.1	20.847
5209	6.0984	0.18182	0.1	18.798
5210	6.0984	0.36364	0.1	41.877
5211	6.0984	0.54545	0.1	64.243
5212	6.0984	0.72727	0.1	85.878
5213	6.0984	0.90909	0.1	106.68
5214	6.0984	1.0909	0.1	126.46
5215	6.0984	1.2727	0.1	145.08
5216	6.0984	1.4545	0.1	162.35
5217	6.0984	1.6364	0.1	178.13
5218	6.0984	1.8182	0.1	192.29
5219	6.0984	2.	0.1	204.68
5220	6.0984	2.1818	0.1	215.19
5221	6.0984	2.3636	0.1	223.72
5222	6.0984	2.5455	0.1	230.2
5223	6.0984	2.7273	0.1	234.55
5224	6.0984	2.9091	0.1	236.74
5225	6.0984	3.0909	0.1	236.74
5226	6.0984	3.2727	0.1	234.55
5227	6.0984	3.4545	0.1	230.2
5228	6.0984	3.6364	0.1	223.72
5229	6.0984	3.8182	0.1	215.19
5230	6.0984	4.	0.1	204.68
5231	6.0984	4.1818	0.1	192.29
5232	6.0984	4.3636	0.1	178.13
5233	6.0984	4.5455	0.1	162.35
5234	6.0984	4.7273	0.1	145.08
5235	6.0984	4.9091	0.1	126.46
5236	6.0984	5.0909	0.1	106.68
5237	6.0984	5.2727	0.1	85.878
5238	6.0984	5.4545	0.1	64.243
5239	6.0984	5.6364	0.1	41.877
5240	6.0984	5.8182	0.1	18.798
5241	6.2832	0.18182	0.1	16.829
5242	6.2832	0.36364	0.1	38.169
5243	6.2832	0.54545	0.1	58.792
5244	6.2832	0.72727	0.1	78.726
5245	6.2832	0.90909	0.1	97.877
5246	6.2832	1.0909	0.1	116.09
5247	6.2832	1.2727	0.1	133.2
5248	6.2832	1.4545	0.1	149.08
5249	6.2832	1.6364	0.1	163.58
5250	6.2832	1.8182	0.1	176.58
5251	6.2832	2.	0.1	187.95
5252	6.2832	2.1818	0.1	197.6
5253	6.2832	2.3636	0.1	205.43
5254	6.2832	2.5455	0.1	211.37
5255	6.2832	2.7273	0.1	215.36
5256	6.2832	2.9091	0.1	217.36
5257	6.2832	3.0909	0.1	217.36
5258	6.2832	3.2727	0.1	215.36
5259	6.2832	3.4545	0.1	211.37
5260	6.2832	3.6364	0.1	205.43
5261	6.2832	3.8182	0.1	197.6
5262	6.2832	4.	0.1	187.95
5263	6.2832	4.1818	0.1	176.58
5264	6.2832	4.3636	0.1	163.58
5265	6.2832	4.5455	0.1	149.08
5266	6.2832	4.7273	0.1	133.2
5267	6.2832	4.9091	0.1	116.09
5268	6.2832	5.0909	0.1	97.877
5269	6.2832	5.2727	0.1	78.726
5270	6.2832	5.4545	0.1	58.792
5271	6.2832	5.6364	0.1	38.169
5272	6.2832	5.8182	0.1	16.829
5273	6.468	0.18182	0.1	14.945
5274	6.468	0.36364	0.1	34.684
5275	6.468	0.54545	0.1	53.699
5276	6.468	0.72727	0.1	72.065
5277	6.468	0.90909	0.1	89.699
5278	6.468	1.0909	0.1	106.46
5279	6.468	1.2727	0.1	122.2
5280	6.468	1.4545	0.1	136.8
5281	6.468	1.6364	0.1	150.12
5282	6.468	1.8182	0.1	162.06
5283	6.468	2.	0.1	172.5
5284	6.468	2.1818	0.1	181.36
5285	6.468	2.3636	0.1	188.54
5286	6.468	2.5455	0.1	193.99
5287	6.468	2.7273	0.1	197.65
5288	6.468	2.9091	0.1	199.49
5289	6.468	3.0909	0.1	199.49
5290	6.468	3.2727	0.1	197.65
5291	6.468	3.4545	0.1	193.99
5292	6.468	3.6364	0.1	188.54
5293	6.468	3.8182	0.1	181.36
5294	6.468	4.	0.1	172.5
5295	6.468	4.1818	0.1	162.06
5296	6.468	4.3636	0.1	150.12
5297	6.468	4.5455	0.1	136.8
5298	6.468	4.7273	0.1	122.2
5299	6.468	4.9091	0.1	106.46
5300	6.468	5.0909	0.1	89.699
5301	6.468	5.2727	0.1	72.065
5302	6.468	5.4545	0.1	53.699
5303	6.468	5.6364	0.1	34.684
5304	6.468	5.8182	0.1	14.945
5305	6.6528	0.18182	0.1	13.145
5306	6.6528	0.36364	0.1	31.412
5307	6.6528	0.54545	0.1	48.943
5308	6.6528	0.72727	0.1	65.864
5309	6.6528	0.90909	0.1	82.102
5310	6.6528	1.0909	0.1	97.525
5311	6.6528	1.2727	0.1	112.01
5312	6.6528	1.4545	0.1	125.43
5313	6.6528	1.6364	0.1	137.68
5314	6.6528	1.8182	0.1	148.64
5315	6.6528	2.	0.1	158.23
5316	6.6528	2.1818	0.1	166.36
5317	6.6528	2.3636	0.1	172.95
5318	6.6528	2.5455	0.1	177.95
5319	6.6528	2.7273	0.1	181.31
5320	6.6528	2.9091	0.1	183.
5321	6.6528	3.0909	0.1	183.
5322	6.6528	3.2727	0.1	181.31
5323	6.6528	3.4545	0.1	177.95
5324	6.6528	3.6364	0.1	172.95
5325	6.6528	3.8182	0.1	166.36
5326	6.6528	4.	0.1	158.23
5327	6.6528	4.1818	0.1	148.64
5328	6.6528	4.3636	0.1	137.68
5329	6.6528	4.5455	0.1	125.43
5330	6.6528	4.7273	0.1	112.01
5331	6.6528	4.9091	0.1	97.525
5332	6.6528	5.0909	0.1	82.102
5333	6.6528	5.2727	0.1	65.864
5334	6.6528	5.4545	0.1	48.943
5335	6.6528	5.6364	0.1	31.412
5336	6.6528	5.8182	0.1	13.145
5337	6.8376	0.18182	0.1	11.432
5338	6.8376	0.36364	0.1	28.343
5339	6.8376	0.54545	0.1	44.505
5340	6.8376	0.72727	0.1	60.094
5341	6.8376	0.90909	0.1	75.047
5342	6.8376	1.0909	0.1	89.242
5343	6.8376	1.2727	0.1	102.57
5344	6.8376	1.4545	0.1	114.91
5345	6.8376	1.6364	0.1	126.16
5346	6.8376	1.8182	0.1	136.24
5347	6.8376	2.	0.1	145.05
5348	6.8376	2.1818	0.1	152.51
5349	6.8376	2.3636	0.1	158.57
5350	6.8376	2.5455	0.1	163.16
5351	6.8376	2.7273	0.1	166.24
5352	6.8376	2.9091	0.1	167.79
5353	6.8376	3.0909	0.1	167.79
5354	6.8376	3.2727	0.1	166.24
5355	6.8376	3.4545	0.1	163.16
5356	6.8376	3.6364	0.1	158.57
5357	6.8376	3.8182	0.1	152.51
5358	6.8376	4.	0.1	145.05
5359	6.8376	4.1818	0.1	136.24
5360	6.8376	4.3636	0.1	126.16
5361	6.8376	4.5455	0.1	114.91
5362	6.8376	4.7273	0.1	102.57
5363	6.8376	4.9091	0.1	89.242
5364	6.8376	5.0909	0.1	75.047
5365	6.8376	5.2727	0.1	60.094
5366	6.8376	5.4545	0.1	44.505
5367	6.8376	5.6364	0.1	28.343
5368	6.8376	5.8182	0.1	11.432
5369	7.0224	0.18182	0.1	9.804
5370	7.0224	0.36364	0.1	25.468
5371	7.0224	0.54545	0.1	40.368
5372	7.0224	0.72727	0.1	54.729
5373	7.0224	0.90909	0.1	68.498
5374	7.0224	1.0909	0.1	81.564
5375	7.0224	1.2727	0.1	93.822
5376	7.0224	1.4545	0.1	105.17
5377	7.0224	1.6364	0.1	115.52
5378	7.0224	1.8182	0.1	124.78
5379	7.0224	2.	0.1	132.87
5380	7.0224	2.1818	0.1	139.73
5381	7.0224	2.3636	0.1	145.29
5382	7.0224	2.5455	0.1	149.5
5383	7.0224	2.7273	0.1	152.33
5384	7.0224	2.9091	0.1	153.75
5385	7.0224	3.0909	0.1	153.75
5386	7.0224	3.2727	0.1	152.33
5387	7.0224	3.4545	0.1	149.5
5388	7.0224	3.6364	0.1	145.29
5389	7.0224	3.8182	0.1	139.73
5390	7.0224	4.	0.1	132.87
5391	7.0224	4.1818	0.1	124.78
5392	7.0224	4.3636	0.1	115.52
5393	7.0224	4.5455	0.1	105.17
5394	7.0224	4.7273	0.1	93.822
5395	7.0224	4.9091	0.1	81.564
5396	7.0224	5.0909	0.1	68.498
5397	7.0224	5.2727	0.1	54.729
5398	7.0224	5.4545	0.1	40.368
5399	7.0224	5.6364	0.1	25.468
5400	7.0224	5.8182	0.1	9.804
5401	7.2072	0.18182	0.1	8.2606
5402	7.2072	0.36364	0.1	22.775
5403	7.2072	0.54545	0.1	36.511
5404	7.2072	0.72727	0.1	49.741
5405	7.2072	0.90909	0.1	62.42
5406	7.2072	1.0909	0.1	74.446
5407	7.2072	1.2727	0.1	85.725
5408	7.2072	1.4545	0.1	96.165
5409	7.2072	1.6364	0.1	105.68
5410	7.2072	1.8182	0.1	114.19
5411	7.2072	2.	0.1	121.63
5412	7.2072	2.1818	0.1	127.93
5413	7.2072	2.3636	0.1	133.03
5414	7.2072	2.5455	0.1	136.9
5415	7.2072	2.7273	0.1	139.5
5416	7.2072	2.9091	0.1	140.8
5417	7.2072	3.0909	0.1	140.8
5418	7.2072	3.2727	0.1	139.5
5419	7.2072	3.4545	0.1	136.9
5420	7.2072	3.6364	0.1	133.03
5421	7.2072	3.8182	0.1	127.93
5422	7.2072	4.	0.1	121.63
5423	7.2072	4.1818	0.1	114.19
5424	7.2072	4.3636	0.1	105.68
5425	7.2072	4.5455	0.1	96.165
5426	7.2072	4.7273	0.1	85.725
5427	7.2072	4.9091	0.1	74.446
5428	7.2072	5.0909	0.1	62.42
5429	7.2072	5.2727	0.1	49.741
5430	7.2072	5.4545	0.1	36.511
5431	7.2072	5.6364	0.1	22.775
5432	7.2072	5.8182	0.1	8.2606
5433	7.392	0.18182	0.1	6.8004
5434	7.392	0.36364	0.1	20.255
5435	7.392	0.54545	0.1	32.918
5436	7.392	0.72727	0.1	45.106
5437	7.392	0.90909	0.1	56.781
5438	7.392	1.0909	0.1	67.851
5439	7.392	1.2727	0.1	78.229
5440	7.392	1.4545	0.1	87.832
5441	7.392	1.6364	0.1	96.582
5442	7.392	1.8182	0.1	104.41
5443	7.392	2.	0.1	111.24
5444	7.392	2.1818	0.1	117.03
5445	7.392	2.3636	0.1	121.72
5446	7.392	2.5455	0.1	125.27
5447	7.392	2.7273	0.1	127.65
5448	7.392	2.9091	0.1	128.85
5449	7.392	3.0909	0.1	128.85
5450	7.392	3.2727	0.1	127.65
5451	7.392	3.4545	0.1	125.27
5452	7.392	3.6364	0.1	121.72
5453	7.392	3.8182	0.1	117.03
5454	7.392	4.	0.1	111.24
5455	7.392	4.1818	0.1	104.41
5456	7.392	4.3636	0.1	96.582
5457	7.392	4.5455	0.1	87.832
5458	7.392	4.7273	0.1	78.229
5459	7.392	4.9091	0.1	67.851
5460	7.392	5.0909	0.1	56.781
5461	7.392	5.2727	0.1	45.106
5462	7.392	5.4545	0.1	32.918
5463	7.392	5.6364	0.1	20.255
5464	7.392	5.8182	0.1	6.8005
5465	7.5768	0.18182	0.1	5.4226
5466	7.5768	0.36364	0.1	17.899
5467	7.5768	0.54545	0.1	29.573
5468	7.5768	0.72727	0.1	40.8
5469	7.5768	0.90909	0.1	51.551
5470	7.5768	1.0909	0.1	61.741
5471	7.5768	1.2727	0.1	71.291
5472	7.5768	1.4545	0.1	80.124
5473	7.5768	1.6364	0.1	88.171
5474	7.5768	1.8182	0.1	95.364
5475	7.5768	2.	0.1	101.65
5476	7.5768	2.1818	0.1	106.96
5477	7.5768	2.3636	0.1	111.27
5478	7.5768	2.5455	0.1	114.54
5479	7.5768	2.7273	0.1	116.73
5480	7.5768	2.9091	0.1	117.83
5481	7.5768	3.0909	0.1	117.83
5482	7.5768	3.2727	0.1	116.73
5483	7.5768	3.4545	0.1	114.54
5484	7.5768	3.6364	0.1	111.27
5485	7.5768	3.8182	0.1	106.96
5486	7.5768	4.	0.1	101.65
5487	7.5768	4.1818	0.1	95.364
5488	7.5768	4.3636	0.1	88.171
5489	7.5768	4.5455	0.1	80.124
5490	7.5768	4.7273	0.1	71.291
5491	7.5768	4.9091	0.1	61.741
5492	7.5768	5.0909	0.1	51.551
5493	7.5768	5.2727	0.1	40.8
5494	7.5768	5.4545	0.1	29.573
5495	7.5768	5.6364	0.1	17.9
5496	7.5768	5.8182	0.1	5.4226
5497	7.7616	0.18182	0.1	4.127
5498	7.7616	0.36364	0.1	15.697
5499	7.7616	0.54545	0.1	26.459
5500	7.7616	0.72727	0.1	36.801
5501	7.7616	0.90909	0.1	46.7
5502	7.7616	1.0909	0.1	56.081
5503	7.7616	1.2727	0.1	64.869
5504	7.7616	1.4545	0.1	72.995
5505	7.7616	1.6364	0.1	80.395
5506	7.7616	1.8182	0.1	87.009
5507	7.7616	2.	0.1	92.783
5508	7.7616	2.1818	0.1	97.67
5509	7.7616	2.3636	0.1	101.63
5510	7.7616	2.5455	0.1	104.63
5511	7.7616	2.7273	0.1	106.64
5512	7.7616	2.9091	0.1	107.65
5513	7.7616	3.0909	0.1	107.65
5514	7.7616	3.2727	0.1	106.64
5515	7.7616	3.4545	0.1	104.63
5516	7.7616	3.6364	0.1	101.63
5517	7.7616	3.8182	0.1	97.67
5518	7.7616	4.	0.1	92.783
5519	7.7616	4.1818	0.1	87.009
5520	7.7616	4.3636	0.1	80.395
5521	7.7616	4.5455	0.1	72.995
5522	7.7616	4.7273	0.1	64.869
5523	7.7616	4.9091	0.1	56.081
5524	7.7616	5.0909	0.1	46.7
5525	7.7616	5.2727	0.1	36.801
5526	7.7616	5.4545	0.1	26.459
5527	7.7616	5.6364	0.1	15.697
5528	7.7616	5.8182	0.1	4.127
5529	7.9464	0.18182	0.1	2.9175
5530	7.9464	0.36364	0.1	13.64
5531	7.9464	0.54545	0.1	23.561
5532	7.9464	0.72727	0.1	33.087
5533	7.9464	0.90909	0.1	42.203
5534	7.9464	1.0909	0.1	50.837
5535	7.9464	1.2727	0.1	58.925
5536	7.9464	1.4545	0.1	66.401
5537	7.9464	1.6364	0.1	73.207
5538	7.9464	1.8182	0.1	79.289
5539	7.9464	2.	0.1	84.598
5540	7.9464	2.1818	0.1	89.09
5541	7.9464	2.3636	0.1	92.729
5542	7.9464	2.5455	0.1	95.484
5543	7.9464	2.7273	0.1	97.334
5544	7.9464	2.9091	0.1	98.263
5545	7.9464	3.0909	0.1	98.263
5546	7.9464	3.2727	0.1	97.334
5547	7.9464	3.4545	0.1	95.484
5548	7.9464	3.6364	0.1	92.729
5549	7.9464	3.8182	0.1	89.09
5550	7.9464	4.	0.1	84.598
5551	7.9464	4.1818	0.1	79.289
5552	7.9464	4.3636	0.1	73.207
5553	7.9464	4.5455	0.1	66.401
5554	7.9464	4.7273	0.1	58.925
5555	7.9464	4.9091	0.1	50.837
5556	7.9464	5.0909	0.1	42.203
5557	7.9464	5.2727	0.1	33.087
5558	7.9464	5.4545	0.1	23.561
5559	7.9464	5.6364	0.1	13.64
5560	7.9464	5.8182	0.1	2.9175
5561	8.1312	0.18182	0.1	1.8109
5562	8.1312	0.36364	0.1	11.719
5563	8.1312	0.54545	0.1	20.864
5564	8.1312	0.72727	0.1	29.639
5565	8.1312	0.90909	0.1	38.032
5566	8.1312	1.0909	0.1	45.981
5567	8.1312	1.2727	0.1	53.424
5568	8.1312	1.4545	0.1	60.302
5569	8.1312	1.6364	0.1	66.563
5570	8.1312	1.8182	0.1	72.156
5571	8.1312	2.	0.1	77.037
5572	8.1312	2.1818	0.1	81.166
5573	8.1312	2.3636	0.1	84.51
5574	8.1312	2.5455	0.1	87.043
5575	8.1312	2.7273	0.1	88.743
5576	8.1312	2.9091	0.1	89.597
5577	8.1312	3.0909	0.1	89.597
5578	8.1312	3.2727	0.1	88.743
5579	8.1312	3.4545	0.1	87.043
5580	8.1312	3.6364	0.1	84.51
5581	8.1312	3.8182	0.1	81.166
5582	8.1312	4.	0.1	77.037
5583	8.1312	4.1818	0.1	72.156
5584	8.1312	4.3636	0.1	66.563
5585	8.1312	4.5455	0.1	60.302
5586	8.1312	4.7273	0.1	53.424
5587	8.1312	4.9091	0.1	45.981
5588	8.1312	5.0909	0.1	38.032
5589	8.1312	5.2727	0.1	29.639
5590	8.1312	5.4545	0.1	20.864
5591	8.1312	5.6364	0.1	11.719
5592	8.1312	5.8182	0.1	1.8109
5593	8.316	0.18182	0.1	0.8804
5594	8.316	0.36364	0.1	9.9245
5595	8.316	0.54545	0.1	18.356
5596	8.316	0.72727	0.1	26.438
5597	8.316	0.90909	0.1	34.166
5598	8.316	1.0909	0.1	41.483
5599	8.316	1.2727	0.1	48.333
5600	8.316	1.4545	0.1	54.661
5601	8.316	1.6364	0.1	60.42
5602	8.316	1.8182	0.1	65.564
5603	8.316	2.	0.1	70.052
5604	8.316	2.1818	0.1	73.848
5605	8.316	2.3636	0.1	76.922
5606	8.316	2.5455	0.1	79.25
5607	8.316	2.7273	0.1	80.813
5608	8.316	2.9091	0.1	81.597
5609	8.316	3.0909	0.1	81.597
5610	8.316	3.2727	0.1	80.813
5611	8.316	3.4545	0.1	79.25
5612	8.316	3.6364	0.1	76.922
5613	8.316	3.8182	0.1	73.848
5614	8.316	4.	0.1	70.052
5615	8.316	4.1818	0.1	65.564
5616	8.316	4.3636	0.1	60.42
5617	8.316	4.5455	0.1	54.661
5618	8.316	4.7273	0.1	48.333
5619	8.316	4.9091	0.1	41.483
5620	8.316	5.0909	0.1	34.166
5621	8.316	5.2727	0.1	26.438
5622	8.316	5.4545	0.1	18.356
5623	8.316	5.6364	0.1	9.9245
5624	8.316	5.8182	0.1	0.88041
5625	8.5008	0.18182	0.1	0.33688
5626	8.5008	0.36364	0.1	8.2493
5627	8.5008	0.54545	0.1	16.022
5628	8.5008	0.72727	0.1	23.466
5629	8.5008	0.90909	0.1	30.582
5630	8.5008	1.0909	0.1	37.318
5631	8.5008	1.2727	0.1	43.621
5632	8.5008	1.4545	0.1	49.444
5633	8.5008	1.6364	0.1	54.741
5634	8.5008	1.8182	0.1	59.472
5635	8.5008	2.	0.1	63.599
5636	8.5008	2.1818	0.1	67.089
5637	8.5008	2.3636	0.1	69.915
5638	8.5008	2.5455	0.1	72.055
5639	8.5008	2.7273	0.1	73.491
5640	8.5008	2.9091	0.1	74.212
5641	8.5008	3.0909	0.1	74.212
5642	8.5008	3.2727	0.1	73.491
5643	8.5008	3.4545	0.1	72.055
5644	8.5008	3.6364	0.1	69.915
5645	8.5008	3.8182	0.1	67.089
5646	8.5008	4.	0.1	63.599
5647	8.5008	4.1818	0.1	59.472
5648	8.5008	4.3636	0.1	54.741
5649	8.5008	4.5455	0.1	49.444
5650	8.5008	4.7273	0.1	43.621
5651	8.5008	4.9091	0.1	37.318
5652	8.5008	5.0909	0.1	30.582
5653	8.5008	5.2727	0.1	23.466
5654	8.5008	5.4545	0.1	16.022
5655	8.5008	5.6364	0.1	8.2493
5656	8.5008	5.8182	0.1	0.33688
5657	8.6856	0.18182	0.1	0.15401
5658	8.6856	0.36364	0.1	6.6854
5659	8.6856	0.54545	0.1	13.852
5660	8.6856	0.72727	0.1	20.707
5661	8.6856	0.90909	0.1	27.259
5662	8.6856	1.0909	0.1	33.459
5663	8.6856	1.2727	0.1	39.26
5664	8.6856	1.4545	0.1	44.618
5665	8.6856	1.6364	0.1	49.491
5666	8.6856	1.8182	0.1	53.842
5667	8.6856	2.	0.1	57.636
5668	8.6856	2.1818	0.1	60.845
5669	8.6856	2.3636	0.1	63.444
5670	8.6856	2.5455	0.1	65.411
5671	8.6856	2.7273	0.1	66.731
5672	8.6856	2.9091	0.1	67.393
5673	8.6856	3.0909	0.1	67.393
5674	8.6856	3.2727	0.1	66.731
5675	8.6856	3.4545	0.1	65.411
5676	8.6856	3.6364	0.1	63.444
5677	8.6856	3.8182	0.1	60.845
5678	8.6856	4.	0.1	57.636
5679	8.6856	4.1818	0.1	53.842
5680	8.6856	4.3636	0.1	49.491
5681	8.6856	4.5455	0.1	44.618
5682	8.6856	4.7273	0.1	39.26
5683	8.6856	4.9091	0.1	33.459
5684	8.6856	5.0909	0.1	27.259
5685	8.6856	5.2727	0.1	20.707
5686	8.6856	5.4545	0.1	13.852
5687	8.6856	5.6364	0.1	6.6854
5688	8.6856	5.8182	0.1	0.15402
5689	8.8704	0.18182	0.1	8.8776e-002
5690	8.8704	0.36364	0.1	5.2252
5691	8.8704	0.54545	0.1	11.832
5692	8.8704	0.72727	0.1	18.146
5693	8.8704	0.90909	0.1	24.178
5694	8.8704	1.0909	0.1	29.885
5695	8.8704	1.2727	0.1	35.224
5696	8.8704	1.4545	0.1	40.153
5697	8.8704	1.6364	0.1	44.635
5698	8.8704	1.8182	0.1	48.637
5699	8.8704	2.	0.1	52.127
5700	8.8704	2.1818	0.1	55.077
5701	8.8704	2.3636	0.1	57.466
5702	8.8704	2.5455	0.1	59.274
5703	8.8704	2.7273	0.1	60.487
5704	8.8704	2.9091	0.1	61.096
5705	8.8704	3.0909	0.1	61.096
5706	8.8704	3.2727	0.1	60.487
5707	8.8704	3.4545	0.1	59.274
5708	8.8704	3.6364	0.1	57.466
5709	8.8704	3.8182	0.1	55.077
5710	8.8704	4.	0.1	52.127
5711	8.8704	4.1818	0.1	48.637
5712	8.8704	4.3636	0.1	44.635
5713	8.8704	4.5455	0.1	40.153
5714	8.8704	4.7273	0.1	35.224
5715	8.8704	4.9091	0.1	29.885
5716	8.8704	5.0909	0.1	24.178
5717	8.8704	5.2727	0.1	18.146
5718	8.8704	5.4545	0.1	11.832
5719	8.8704	5.6364	0.1	5.2252
5720	8.8704	5.8182	0.1	8.8777e-002
5721	9.0552	0.18182	0.1	5.8276e-002
5722	9.0552	0.36364	0.1	3.8619
5723	9.0552	0.54545	0.1	9.9534
5724	9.0552	0.72727	0.1	15.768
5725	9.0552	0.90909	0.1	21.322
5726	9.0552	1.0909	0.1	26.574
5727	9.0552	1.2727	0.1	31.487
5728	9.0552	1.4545	0.1	36.022
5729	9.0552	1.6364	0.1	40.145
5730	9.0552	1.8182	0.1	43.825
5731	9.0552	2.	0.1	47.034
5732	9.0552	2.1818	0.1	49.747
5733	9.0552	2.3636	0.1	51.943
5734	9.0552	2.5455	0.1	53.605
5735	9.0552	2.7273	0.1	54.721
5736	9.0552	2.9091	0.1	55.281
5737	9.0552	3.0909	0.1	55.281
5738	9.0552	3.2727	0.1	54.721
5739	9.0552	3.4545	0.1	53.605
5740	9.0552	3.6364	0.1	51.943
5741	9.0552	3.8182	0.1	49.747
5742	9.0552	4.	0.1	47.034
5743	9.0552	4.1818	0.1	43.825
5744	9.0552	4.3636	0.1	40.145
5745	9.0552	4.5455	0.1	36.022
5746	9.0552	4.7273	0.1	31.487
5747	9.0552	4.9091	0.1	26.574
5748	9.0552	5.0909	0.1	21.322
5749	9.0552	5.2727	0.1	15.768
5750	9.0552	5.4545	0.1	9.9534
5751	9.0552	5.6364	0.1	3.8619
5752	9.0552	5.8182	0.1	5.8277e-002
5753	9.24	0.18182	0.1	4.128e-002
5754	9.24	0.36364	0.1	2.5889
5755	9.24	0.54545	0.1	8.205
5756	9.24	0.72727	0.1	13.56
5757	9.24	0.90909	0.1	18.672
5758	9.24	1.0909	0.1	23.506
5759	9.24	1.2727	0.1	28.027
5760	9.24	1.4545	0.1	32.199
5761	9.24	1.6364	0.1	35.992
5762	9.24	1.8182	0.1	39.376
5763	9.24	2.	0.1	42.327
5764	9.24	2.1818	0.1	44.821
5765	9.24	2.3636	0.1	46.84
5766	9.24	2.5455	0.1	48.368
5767	9.24	2.7273	0.1	49.393
5768	9.24	2.9091	0.1	49.908
5769	9.24	3.0909	0.1	49.908
5770	9.24	3.2727	0.1	49.393
5771	9.24	3.4545	0.1	48.368
5772	9.24	3.6364	0.1	46.84
5773	9.24	3.8182	0.1	44.821
5774	9.24	4.	0.1	42.327
5775	9.24	4.1818	0.1	39.376
5776	9.24	4.3636	0.1	35.992
5777	9.24	4.5455	0.1	32.199
5778	9.24	4.7273	0.1	28.027
5779	9.24	4.9091	0.1	23.506
5780	9.24	5.0909	0.1	18.672
5781	9.24	5.2727	0.1	13.56
5782	9.24	5.4545	0.1	8.205
5783	9.24	5.6364	0.1	2.5889
5784	9.24	5.8182	0.1	4.1282e-002
5785	9.4248	0.18182	0.1	3.0728e-002
5786	9.4248	0.36364	0.1	1.4005
5787	9.4248	0.54545	0.1	6.5776
5788	9.4248	0.72727	0.1	11.508
5789	9.4248	0.90909	0.1	16.214
5790	9.4248	1.0909	0.1	20.663
5791	9.4248	1.2727	0.1	24.822
5792	9.4248	1.4545	0.1	28.66
5793	9.4248	1.6364	0.1	32.149
5794	9.4248	1.8182	0.1	35.261
5795	9.4248	2.	0.1	37.974
5796	9.4248	2.1818	0.1	40.267
5797	9.4248	2.3636	0.1	42.123
5798	9.4248	2.5455	0.1	43.528
5799	9.4248	2.7273	0.1	44.47
5800	9.4248	2.9091	0.1	44.943
5801	9.4248	3.0909	0.1	44.943
5802	9.4248	3.2727	0.1	44.47
5803	9.4248	3.4545	0.1	43.528
5804	9.4248	3.6364	0.1	42.123
5805	9.4248	3.8182	0.1	40.267
5806	9.4248	4.	0.1	37.974
5807	9.4248	4.1818	0.1	35.261
5808	9.4248	4.3636	0.1	32.149
5809	9.4248	4.5455	0.1	28.66
5810	9.4248	4.7273	0.1	24.822
5811	9.4248	4.9091	0.1	20.663
5812	9.4248	5.0909	0.1	16.214
5813	9.4248	5.2727	0.1	11.508
5814	9.4248	5.4545	0.1	6.5776
5815	9.4248	5.6364	0.1	1.4005
5816	9.4248	5.8182	0.1	3.0729e-002
5817	9.6096	0.18182	0.1	2.3687e-002
5818	9.6096	0.36364	0.1	0.30015
5819	9.6096	0.54545	0.1	5.0622
5820	9.6096	0.72727	0.1	9.602
5821	9.6096	0.90909	0.1	13.934
5822	9.6096	1.0909	0.1	18.027
5823	9.6096	1.2727	0.1	21.854
5824	9.6096	1.4545	0.1	25.384
5825	9.6096	1.6364	0.1	28.592
5826	9.6096	1.8182	0.1	31.454
5827	9.6096	2.	0.1	33.948
5828	9.6096	2.1818	0.1	36.056
5829	9.6096	2.3636	0.1	37.762
5830	9.6096	2.5455	0.1	39.053
5831	9.6096	2.7273	0.1	39.919
5832	9.6096	2.9091	0.1	40.354
5833	9.6096	3.0909	0.1	40.354
5834	9.6096	3.2727	0.1	39.919
5835	9.6096	3.4545	0.1	39.053
5836	9.6096	3.6364	0.1	37.762
5837	9.6096	3.8182	0.1	36.056
5838	9.6096	4.	0.1	33.948
5839	9.6096	4.1818	0.1	31.454
5840	9.6096	4.3636	0.1	28.592
5841	9.6096	4.5455	0.1	25.384
5842	9.6096	4.7273	0.1	21.854
5843	9.6096	4.9091	0.1	18.027
5844	9.6096	5.0909	0.1	13.934
5845	9.6096	5.2727	0.1	9.602
5846	9.6096	5.4545	0.1	5.0622
5847	9.6096	5.6364	0.1	0.30016
5848	9.6096	5.8182	0.1	2.3688e-002
5849	9.7944	0.18182	0.1	1.8746e-002
5850	9.7944	0.36364	0.1	-1.0167e-002
5851	9.7944	0.54545	0.1	3.6505
5852	9.7944	0.72727	0.1	7.8302
5853	9.7944	0.90909	0.1	11.816
5854	9.7944	1.0909	0.1	15.583
5855	9.7944	1.2727	0.1	19.103
5856	9.7944	1.4545	0.1	22.349
5857	9.7944	1.6364	0.1	25.299
5858	9.7944	1.8182	0.1	27.931
5859	9.7944	2.	0.1	30.223
5860	9.7944	2.1818	0.1	32.161
5861	9.7944	2.3636	0.1	33.729
5862	9.7944	2.5455	0.1	34.915
5863	9.7944	2.7273	0.1	35.711
5864	9.7944	2.9091	0.1	36.11
5865	9.7944	3.0909	0.1	36.11
5866	9.7944	3.2727	0.1	35.711
5867	9.7944	3.4545	0.1	34.915
5868	9.7944	3.6364	0.1	33.729
5869	9.7944	3.8182	0.1	32.161
5870	9.7944	4.	0.1	30.223
5871	9.7944	4.1818	0.1	27.931
5872	9.7944	4.3636	0.1	25.299
5873	9.7944	4.5455	0.1	22.349
5874	9.7944	4.7273	0.1	19.103
5875	9.7944	4.9091	0.1	15.583
5876	9.7944	5.0909	0.1	11.816
5877	9.7944	5.2727	0.1	7.8302
5878	9.7944	5.4545	0.1	3.6505
5879	9.7944	5.6364	0.1	-1.0165e-002
5880	9.7944	5.8182	0.1	1.8746e-002
5881	9.9792	0.18182	0.1	1.5143e-002
5882	9.9792	0.36364	0.1	-1.1695e-002
5883	9.9792	0.54545	0.1	2.335
5884	9.9792	0.72727	0.1	6.1825
5885	9.9792	0.90909	0.1	9.8505
5886	9.9792	1.0909	0.1	13.315
5887	9.9792	1.2727	0.1	16.552
5888	9.9792	1.4545	0.1	19.538
5889	9.9792	1.6364	0.1	22.25
5890	9.9792	1.8182	0.1	24.669
5891	9.9792	2.	0.1	26.776
5892	9.9792	2.1818	0.1	28.556
5893	9.9792	2.3636	0.1	29.997
5894	9.9792	2.5455	0.1	31.087
5895	9.9792	2.7273	0.1	31.818
5896	9.9792	2.9091	0.1	32.185
5897	9.9792	3.0909	0.1	32.185
5898	9.9792	3.2727	0.1	31.818
5899	9.9792	3.4545	0.1	31.087
5900	9.9792	3.6364	0.1	29.997
5901	9.9792	3.8182	0.1	28.556
5902	9.9792	4.	0.1	26.776
5903	9.9792	4.1818	0.1	24.669
5904	9.9792	4.3636	0.1	22.25
5905	9.9792	4.5455	0.1	19.538
5906	9.9792	4.7273	0.1	16.552
5907	9.9792	4.9091	0.1	13.315
5908	9.9792	5.0909	0.1	9.8504
5909	9.9792	5.2727	0.1	6.1824
5910	9.9792	5.4545	0.1	2.335
5911	9.9792	5.6364	0.1	-1.1694e-002
5912	9.9792	5.8182	0.1	1.5143e-002
5913	10.164	0.18182	0.1	1.2437e-002
5914	10.164	0.36364	0.1	-1.0661e-002
5915	10.164	0.54545	0.1	1.1089
5916	10.164	0.72727	0.1	4.6494
5917	10.164	0.90909	0.1	8.0238
5918	10.164	1.0909	0.1	11.211
5919	10.164	1.2727	0.1	14.187
5920	10.164	1.4545	0.1	16.932
5921	10.164	1.6364	0.1	19.424
5922	10.164	1.8182	0.1	21.647
5923	10.164	2.	0.1	23.583
5924	10.164	2.1818	0.1	25.219
5925	10.164	2.3636	0.1	26.543
5926	10.164	2.5455	0.1	27.544
5927	10.164	2.7273	0.1	28.215
5928	10.164	2.9091	0.1	28.552
5929	10.164	3.0909	0.1	28.552
5930	10.164	3.2727	0.1	28.215
5931	10.164	3.4545	0.1	27.544
5932	10.164	3.6364	0.1	26.543
5933	10.164	3.8182	0.1	25.219
5934	10.164	4.	0.1	23.583
5935	10.164	4.1818	0.1	21.647
5936	10.164	4.3636	0.1	19.424
5937	10.164	4.5455	0.1	16.932
5938	10.164	4.7273	0.1	14.187
5939	10.164	4.9091	0.1	11.211
5940	10.164	5.0909	0.1	8.0238
5941	10.164	5.2727	0.1	4.6494
5942	10.164	5.4545	0.1	1.1089
5943	10.164	5.6364	0.1	-1.0659e-002
5944	10.164	5.8182	0.1	1.2438e-002
5945	10.349	0.18182	0.1	1.0355e-002
5946	10.349	0.36364	0.1	-9.2465e-003
5947	10.349	0.54545	0.1	3.2503e-002
5948	10.349	0.72727	0.1	3.2224
5949	10.349	0.90909	0.1	6.3256
5950	10.349	1.0909	0.1	9.2558
5951	10.349	1.2727	0.1	11.992
5952	10.349	1.4545	0.1	14.514
5953	10.349	1.6364	0.1	16.805
5954	10.349	1.8182	0.1	18.847
5955	10.349	2.	0.1	20.626
5956	10.349	2.1818	0.1	22.128
5957	10.349	2.3636	0.1	23.343
5958	10.349	2.5455	0.1	24.263
5959	10.349	2.7273	0.1	24.879
5960	10.349	2.9091	0.1	25.189
5961	10.349	3.0909	0.1	25.189
5962	10.349	3.2727	0.1	24.879
5963	10.349	3.4545	0.1	24.263
5964	10.349	3.6364	0.1	23.343
5965	10.349	3.8182	0.1	22.128
5966	10.349	4.	0.1	20.626
5967	10.349	4.1818	0.1	18.847
5968	10.349	4.3636	0.1	16.805
5969	10.349	4.5455	0.1	14.514
5970	10.349	4.7273	0.1	11.992
5971	10.349	4.9091	0.1	9.2558
5972	10.349	5.0909	0.1	6.3256
5973	10.349	5.2727	0.1	3.2224
5974	10.349	5.4545	0.1	3.2501e-002
5975	10.349	5.6364	0.1	-9.2455e-003
5976	10.349	5.8182	0.1	1.0356e-002
5977	10.534	0.18182	0.1	8.7221e-003
5978	10.534	0.36364	0.1	-7.7786e-003
5979	10.534	0.54545	0.1	8.684e-004
5980	10.534	0.72727	0.1	1.8939
5981	10.534	0.90909	0.1	4.746
5982	10.534	1.0909	0.1	7.4392
5983	10.534	1.2727	0.1	9.9536
5984	10.534	1.4545	0.1	12.271
5985	10.534	1.6364	0.1	14.375
5986	10.534	1.8182	0.1	16.25
5987	10.534	2.	0.1	17.883
5988	10.534	2.1818	0.1	19.263
5989	10.534	2.3636	0.1	20.378
5990	10.534	2.5455	0.1	21.222
5991	10.534	2.7273	0.1	21.788
5992	10.534	2.9091	0.1	22.072
5993	10.534	3.0909	0.1	22.072
5994	10.534	3.2727	0.1	21.788
5995	10.534	3.4545	0.1	21.222
5996	10.534	3.6364	0.1	20.378
5997	10.534	3.8182	0.1	19.263
5998	10.534	4.	0.1	17.883
5999	10.534	4.1818	0.1	16.25
6000	10.534	4.3636	0.1	14.375
6001	10.534	4.5455	0.1	12.271
6002	10.534	4.7273	0.1	9.9536
6003	10.534	4.9091	0.1	7.4392
6004	10.534	5.0909	0.1	4.746
6005	10.534	5.2727	0.1	1.8939
6006	10.534	5.4545	0.1	8.69e-004
6007	10.534	5.6364	0.1	-7.7778e-003
6008	10.534	5.8182	0.1	8.7229e-003
6009	10.718	0.18182	0.1	7.4179e-003
6010	10.718	0.36364	0.1	-6.3482e-003
6011	10.718	0.54545	0.1	2.963e-004
6012	10.718	0.72727	0.1	0.66272
6013	10.718	0.90909	0.1	3.2758
6014	10.718	1.0909	0.1	5.7498
6015	10.718	1.2727	0.1	8.0592
6016	10.718	1.4545	0.1	10.187
6017	10.718	1.6364	0.1	12.119
6018	10.718	1.8182	0.1	13.84
6019	10.718	2.	0.1	15.339
6020	10.718	2.1818	0.1	16.605
6021	10.718	2.3636	0.1	17.629
6022	10.718	2.5455	0.1	18.403
6023	10.718	2.7273	0.1	18.922
6024	10.718	2.9091	0.1	19.183
6025	10.718	3.0909	0.1	19.183
6026	10.718	3.2727	0.1	18.922
6027	10.718	3.4545	0.1	18.403
6028	10.718	3.6364	0.1	17.629
6029	10.718	3.8182	0.1	16.605
6030	10.718	4.	0.1	15.339
6031	10.718	4.1818	0.1	13.84
6032	10.718	4.3636	0.1	12.119
6033	10.718	4.5455	0.1	10.187
6034	10.718	4.7273	0.1	8.0592
6035	10.718	4.9091	0.1	5.7498
6036	10.718	5.0909	0.1	3.2758
6037	10.718	5.2727	0.1	0.66272
6038	10.718	5.4545	0.1	2.9672e-004
6039	10.718	5.6364	0.1	-6.3472e-003
6040	10.718	5.8182	0.1	7.4187e-003
6041	10.903	0.18182	0.1	6.3613e-003
6042	10.903	0.36364	0.1	-4.9832e-003
6043	10.903	0.54545	0.1	3.7786e-004
6044	10.903	0.72727	0.1	1.803e-002
6045	10.903	0.90909	0.1	1.9075
6046	10.903	1.0909	0.1	4.1775
6047	10.903	1.2727	0.1	6.2973
6048	10.903	1.4545	0.1	8.2505
6049	10.903	1.6364	0.1	10.023
6050	10.903	1.8182	0.1	11.602
6051	10.903	2.	0.1	12.977
6052	10.903	2.1818	0.1	14.138
6053	10.903	2.3636	0.1	15.077
6054	10.903	2.5455	0.1	15.787
6055	10.903	2.7273	0.1	16.263
6056	10.903	2.9091	0.1	16.501
6057	10.903	3.0909	0.1	16.501
6058	10.903	3.2727	0.1	16.263
6059	10.903	3.4545	0.1	15.787
6060	10.903	3.6364	0.1	15.077
6061	10.903	3.8182	0.1	14.138
6062	10.903	4.	0.1	12.977
6063	10.903	4.1818	0.1	11.602
6064	10.903	4.3636	0.1	10.023
6065	10.903	4.5455	0.1	8.2505
6066	10.903	4.7273	0.1	6.2973
6067	10.903	4.9091	0.1	4.1775
6068	10.903	5.0909	0.1	1.9075
6069	10.903	5.2727	0.1	1.803e-002
6070	10.903	5.4545	0.1	3.7828e-004
6071	10.903	5.6364	0.1	-4.9827e-003
6072	10.903	5.8182	0.1	6.3623e-003
6073	11.088	0.18182	0.1	5.4943e-003
6074	11.088	0.36364	0.1	-3.6958e-003
6075	11.088	0.54545	0.1	6.0492e-004
6076	11.088	0.72727	0.1	5.4329e-003
6077	11.088	0.90909	0.1	0.64387
6078	11.088	1.0909	0.1	2.7134
6079	11.088	1.2727	0.1	4.6572
6080	11.088	1.4545	0.1	6.4483
6081	11.088	1.6364	0.1	8.0735
6082	11.088	1.8182	0.1	9.5212
6083	11.088	2.	0.1	10.781
6084	11.088	2.1818	0.1	11.845
6085	11.088	2.3636	0.1	12.705
6086	11.088	2.5455	0.1	13.356
6087	11.088	2.7273	0.1	13.792
6088	11.088	2.9091	0.1	14.011
6089	11.088	3.0909	0.1	14.011
6090	11.088	3.2727	0.1	13.792
6091	11.088	3.4545	0.1	13.356
6092	11.088	3.6364	0.1	12.705
6093	11.088	3.8182	0.1	11.845
6094	11.088	4.	0.1	10.781
6095	11.088	4.1818	0.1	9.5212
6096	11.088	4.3636	0.1	8.0735
6097	11.088	4.5455	0.1	6.4483
6098	11.088	4.7273	0.1	4.6572
6099	11.088	4.9091	0.1	2.7134
6100	11.088	5.0909	0.1	0.64386
6101	11.088	5.2727	0.1	5.4342e-003
6102	11.088	5.4545	0.1	6.0545e-004
6103	11.088	5.6364	0.1	-3.6948e-003
6104	11.088	5.8182	0.1	5.4945e-003
6105	11.273	0.18182	0.1	4.773e-003
6106	11.273	0.36364	0.1	-2.4856e-003
6107	11.273	0.54545	0.1	8.7355e-004
6108	11.273	0.72727	0.1	3.2885e-003
6109	11.273	0.90909	0.1	2.5124e-002
6110	11.273	1.0909	0.1	1.3519
6111	11.273	1.2727	0.1	3.1291
6112	11.273	1.4545	0.1	4.7698
6113	11.273	1.6364	0.1	6.2585
6114	11.273	1.8182	0.1	7.5844
6115	11.273	2.	0.1	8.7384
6116	11.273	2.1818	0.1	9.7124
6117	11.273	2.3636	0.1	10.5
6118	11.273	2.5455	0.1	11.095
6119	11.273	2.7273	0.1	11.494
6120	11.273	2.9091	0.1	11.694
6121	11.273	3.0909	0.1	11.694
6122	11.273	3.2727	0.1	11.494
6123	11.273	3.4545	0.1	11.095
6124	11.273	3.6364	0.1	10.5
6125	11.273	3.8182	0.1	9.7124
6126	11.273	4.	0.1	8.7384
6127	11.273	4.1818	0.1	7.5844
6128	11.273	4.3636	0.1	6.2584
6129	11.273	4.5455	0.1	4.7697
6130	11.273	4.7273	0.1	3.1291
6131	11.273	4.9091	0.1	1.3519
6132	11.273	5.0909	0.1	2.5125e-002
6133	11.273	5.2727	0.1	3.2893e-003
6134	11.273	5.4545	0.1	8.7422e-004
6135	11.273	5.6364	0.1	-2.485e-003
6136	11.273	5.8182	0.1	4.7739e-003
6137	11.458	0.18182	0.1	4.1679e-003
6138	11.458	0.36364	0.1	-1.3508e-003
6139	11.458	0.54545	0.1	1.1517e-003
6140	11.458	0.72727	0.1	2.5555e-003
6141	11.458	0.90909	0.1	8.2135e-003
6142	11.458	1.0909	0.1	0.16858
6143	11.458	1.2727	0.1	1.7058
6144	11.458	1.4545	0.1	3.2047
6145	11.458	1.6364	0.1	4.5665
6146	11.458	1.8182	0.1	5.7794
6147	11.458	2.	0.1	6.8348
6148	11.458	2.1818	0.1	7.7256
6149	11.458	2.3636	0.1	8.4455
6150	11.458	2.5455	0.1	8.9897
6151	11.458	2.7273	0.1	9.3547
6152	11.458	2.9091	0.1	9.5377
6153	11.458	3.0909	0.1	9.5377
6154	11.458	3.2727	0.1	9.3546
6155	11.458	3.4545	0.1	8.9897
6156	11.458	3.6364	0.1	8.4455
6157	11.458	3.8182	0.1	7.7256
6158	11.458	4.	0.1	6.8348
6159	11.458	4.1818	0.1	5.7794
6160	11.458	4.3636	0.1	4.5665
6161	11.458	4.5455	0.1	3.2047
6162	11.458	4.7273	0.1	1.7058
6163	11.458	4.9091	0.1	0.16857
6164	11.458	5.0909	0.1	8.2142e-003
6165	11.458	5.2727	0.1	2.5563e-003
6166	11.458	5.4545	0.1	1.1521e-003
6167	11.458	5.6364	0.1	-1.3505e-003
6168	11.458	5.8182	0.1	4.1681e-003
6169	11.642	0.18182	0.1	3.6537e-003
6170	11.642	0.36364	0.1	-2.8681e-004
6171	11.642	0.54545	0.1	1.4263e-003
6172	11.642	0.72727	0.1	2.2703e-003
6173	11.642	0.90909	0.1	4.8356e-003
6174	11.642	1.0909	0.1	1.4315e-002
6175	11.642	1.2727	0.1	0.40557
6176	11.642	1.4545	0.1	1.7454
6177	11.642	1.6364	0.1	2.9874
6178	11.642	1.8182	0.1	4.0949
6179	11.642	2.	0.1	5.0587
6180	11.642	2.1818	0.1	5.8721
6181	11.642	2.3636	0.1	6.5294
6182	11.642	2.5455	0.1	7.0262
6183	11.642	2.7273	0.1	7.3593
6184	11.642	2.9091	0.1	7.5264
6185	11.642	3.0909	0.1	7.5264
6186	11.642	3.2727	0.1	7.3593
6187	11.642	3.4545	0.1	7.0262
6188	11.642	3.6364	0.1	6.5294
6189	11.642	3.8182	0.1	5.8721
6190	11.642	4.	0.1	5.0587
6191	11.642	4.1818	0.1	4.0949
6192	11.642	4.3636	0.1	2.9874
6193	11.642	4.5455	0.1	1.7454
6194	11.642	4.7273	0.1	0.40556
6195	11.642	4.9091	0.1	1.4315e-002
6196	11.642	5.0909	0.1	4.837e-003
6197	11.642	5.2727	0.1	2.2717e-003
6198	11.642	5.4545	0.1	1.4264e-003
6199	11.642	5.6364	0.1	-2.8743e-004
6200	11.642	5.8182	0.1	3.6544e-003
6201	11.827	0.18182	0.1	3.2136e-003
6202	11.827	0.36364	0.1	7.0862e-004
6203	11.827	0.54545	0.1	1.6907e-003
6204	11.827	0.72727	0.1	2.1766e-003
6205	11.827	0.90909	0.1	3.4703e-003
6206	11.827	1.0909	0.1	6.4645e-003
6207	11.827	1.2727	0.1	1.8267e-002
6208	11.827	1.4545	0.1	0.408
6209	11.827	1.6364	0.1	1.5135
6210	11.827	1.8182	0.1	2.5208
6211	11.827	2.	0.1	3.3989
6212	11.827	2.1818	0.1	4.1401
6213	11.827	2.3636	0.1	4.739
6214	11.827	2.5455	0.1	5.1918
6215	11.827	2.7273	0.1	5.4952
6216	11.827	2.9091	0.1	5.6475
6217	11.827	3.0909	0.1	5.6475
6218	11.827	3.2727	0.1	5.4952
6219	11.827	3.4545	0.1	5.1918
6220	11.827	3.6364	0.1	4.739
6221	11.827	3.8182	0.1	4.1401
6222	11.827	4.	0.1	3.3989
6223	11.827	4.1818	0.1	2.5208
6224	11.827	4.3636	0.1	1.5135
6225	11.827	4.5455	0.1	0.40799
6226	11.827	4.7273	0.1	1.8268e-002
6227	11.827	4.9091	0.1	6.4644e-003
6228	11.827	5.0909	0.1	3.4711e-003
6229	11.827	5.2727	0.1	2.1784e-003
6230	11.827	5.4545	0.1	1.6916e-003
6231	11.827	5.6364	0.1	7.0944e-004
6232	11.827	5.8182	0.1	3.214e-003
6233	12.012	0.18182	0.1	2.8322e-003
6234	12.012	0.36364	0.1	1.6439e-003
6235	12.012	0.54545	0.1	1.9455e-003
6236	12.012	0.72727	0.1	2.1781e-003
6237	12.012	0.90909	0.1	2.7697e-003
6238	12.012	1.0909	0.1	3.9457e-003
6239	12.012	1.2727	0.1	6.621e-003
6240	12.012	1.4545	0.1	1.5634e-002
6241	12.012	1.6364	0.1	0.19455
6242	12.012	1.8182	0.1	1.0511
6243	12.012	2.	0.1	1.8457
6244	12.012	2.1818	0.1	2.5188
6245	12.012	2.3636	0.1	3.0631
6246	12.012	2.5455	0.1	3.4745
6247	12.012	2.7273	0.1	3.7504
6248	12.012	2.9091	0.1	3.8887
6249	12.012	3.0909	0.1	3.8887
6250	12.012	3.2727	0.1	3.7504
6251	12.012	3.4545	0.1	3.4745
6252	12.012	3.6364	0.1	3.0631
6253	12.012	3.8182	0.1	2.5188
6254	12.012	4.	0.1	1.8457
6255	12.012	4.1818	0.1	1.0511
6256	12.012	4.3636	0.1	0.19455
6257	12.012	4.5455	0.1	1.5634e-002
6258	12.012	4.7273	0.1	6.6214e-003
6259	12.012	4.9091	0.1	3.9461e-003
6260	12.012	5.0909	0.1	2.7712e-003
6261	12.012	5.2727	0.1	2.1791e-003
6262	12.012	5.4545	0.1	1.9451e-003
6263	12.012	5.6364	0.1	1.6451e-003
6264	12.012	5.8182	0.1	2.8337e-003
6265	12.197	0.18182	0.1	2.5005e-003
6266	12.197	0.36364	0.1	2.5238e-003
6267	12.197	0.54545	0.1	2.187e-003
6268	12.197	0.72727	0.1	2.2294e-003
6269	12.197	0.90909	0.1	2.3665e-003
6270	12.197	1.0909	0.1	2.7311e-003
6271	12.197	1.2727	0.1	3.4718e-003
6272	12.197	1.4545	0.1	5.0213e-003
6273	12.197	1.6364	0.1	8.9763e-003
6274	12.197	1.8182	0.1	2.8878e-002
6275	12.197	2.	0.1	0.40367
6276	12.197	2.1818	0.1	1.0002
6277	12.197	2.3636	0.1	1.4914
6278	12.197	2.5455	0.1	1.8637
6279	12.197	2.7273	0.1	2.1134
6280	12.197	2.9091	0.1	2.2388
6281	12.197	3.0909	0.1	2.2388
6282	12.197	3.2727	0.1	2.1134
6283	12.197	3.4545	0.1	1.8637
6284	12.197	3.6364	0.1	1.4914
6285	12.197	3.8182	0.1	1.0002
6286	12.197	4.	0.1	0.40367
6287	12.197	4.1818	0.1	2.8877e-002
6288	12.197	4.3636	0.1	8.9766e-003
6289	12.197	4.5455	0.1	5.0226e-003
6290	12.197	4.7273	0.1	3.4718e-003
6291	12.197	4.9091	0.1	2.732e-003
6292	12.197	5.0909	0.1	2.3672e-003
6293	12.197	5.2727	0.1	2.2313e-003
6294	12.197	5.4545	0.1	2.1866e-003
6295	12.197	5.6364	0.1	2.5239e-003
6296	12.197	5.8182	0.1	2.502e-003
6297	12.382	0.18182	0.1	2.2092e-003
6298	12.382	0.36364	0.1	3.3518e-003
6299	12.382	0.54545	0.1	2.4149e-003
6300	12.382	0.72727	0.1	2.3093e-003
6301	12.382	0.90909	0.1	2.1184e-003
6302	12.382	1.0909	0.1	2.0286e-003
6303	12.382	1.2727	0.1	2.0145e-003
6304	12.382	1.4545	0.1	2.1221e-003
6305	12.382	1.6364	0.1	2.4206e-003
6306	12.382	1.8182	0.1	3.0839e-003
6307	12.382	2.	0.1	4.637e-003
6308	12.382	2.1818	0.1	9.6446e-003
6309	12.382	2.3636	0.1	6.6616e-002
6310	12.382	2.5455	0.1	0.3528
6311	12.382	2.7273	0.1	0.57459
6312	12.382	2.9091	0.1	0.68692
6313	12.382	3.0909	0.1	0.68692
6314	12.382	3.2727	0.1	0.57458
6315	12.382	3.4545	0.1	0.3528
6316	12.382	3.6364	0.1	6.6616e-002
6317	12.382	3.8182	0.1	9.6444e-003
6318	12.382	4.	0.1	4.6371e-003
6319	12.382	4.1818	0.1	3.0838e-003
6320	12.382	4.3636	0.1	2.4212e-003
6321	12.382	4.5455	0.1	2.1221e-003
6322	12.382	4.7273	0.1	2.0147e-003
6323	12.382	4.9091	0.1	2.0293e-003
6324	12.382	5.0909	0.1	2.1188e-003
6325	12.382	5.2727	0.1	2.3108e-003
6326	12.382	5.4545	0.1	2.4159e-003
6327	12.382	5.6364	0.1	3.3526e-003
6328	12.382	5.8182	0.1	2.2104e-003
6329	12.566	0.18182	0.1	1.9511e-003
6330	12.566	0.36364	0.1	4.1347e-003
6331	12.566	0.54545	0.1	2.6336e-003
6332	12.566	0.72727	0.1	2.4052e-003
6333	12.566	0.90909	0.1	1.959e-003
6334	12.566	1.0909	0.1	1.5769e-003
6335	12.566	1.2727	0.1	1.1743e-003
6336	12.566	1.4545	0.1	7.5614e-004
6337	12.566	1.6364	0.1	2.9806e-004
6338	12.566	1.8182	0.1	-2.2838e-004
6339	12.566	2.	0.1	-8.6116e-004
6340	12.566	2.1818	0.1	-1.6489e-003
6341	12.566	2.3636	0.1	-2.6406e-003
6342	12.566	2.5455	0.1	-3.8375e-003
6343	12.566	2.7273	0.1	-5.0801e-003
6344	12.566	2.9091	0.1	-5.9432e-003
6345	12.566	3.0909	0.1	-5.9434e-003
6346	12.566	3.2727	0.1	-5.0805e-003
6347	12.566	3.4545	0.1	-3.837e-003
6348	12.566	3.6364	0.1	-2.6406e-003
6349	12.566	3.8182	0.1	-1.6485e-003
6350	12.566	4.	0.1	-8.6163e-004
6351	12.566	4.1818	0.1	-2.2826e-004
6352	12.566	4.3636	0.1	2.9791e-004
6353	12.566	4.5455	0.1	7.5665e-004
6354	12.566	4.7273	0.1	1.1749e-003
6355	12.566	4.9091	0.1	1.5769e-003
6356	12.566	5.0909	0.1	1.9599e-003
6357	12.566	5.2727	0.1	2.4072e-003
6358	12.566	5.4545	0.1	2.6338e-003
6359	12.566	5.6364	0.1	4.1351e-003
6360	12.566	5.8182	0.1	1.9523e-003
6361	12.751	0.18182	0.1	1.7225e-003
6362	12.751	0.36364	0.1	4.8762e-003
6363	12.751	0.54545	0.1	2.8403e-003
6364	12.751	0.72727	0.1	2.5102e-003
6365	12.751	0.90909	0.1	1.8547e-003
6366	12.751	1.0909	0.1	1.2638e-003
6367	12.751	1.2727	0.1	6.245e-004
6368	12.751	1.4545	0.1	-4.9754e-005
6369	12.751	1.6364	0.1	-7.7898e-004
6370	12.751	1.8182	0.1	-1.5715e-003
6371	12.751	2.	0.1	-2.4318e-003
6372	12.751	2.1818	0.1	-3.3424e-003
6373	12.751	2.3636	0.1	-4.2664e-003
6374	12.751	2.5455	0.1	-5.127e-003
6375	12.751	2.7273	0.1	-5.8092e-003
6376	12.751	2.9091	0.1	-6.1912e-003
6377	12.751	3.0909	0.1	-6.1913e-003
6378	12.751	3.2727	0.1	-5.8089e-003
6379	12.751	3.4545	0.1	-5.127e-003
6380	12.751	3.6364	0.1	-4.2665e-003
6381	12.751	3.8182	0.1	-3.3421e-003
6382	12.751	4.	0.1	-2.4309e-003
6383	12.751	4.1818	0.1	-1.5715e-003
6384	12.751	4.3636	0.1	-7.7847e-004
6385	12.751	4.5455	0.1	-4.9609e-005
6386	12.751	4.7273	0.1	6.2519e-004
6387	12.751	4.9091	0.1	1.2647e-003
6388	12.751	5.0909	0.1	1.8562e-003
6389	12.751	5.2727	0.1	2.5105e-003
6390	12.751	5.4545	0.1	2.8408e-003
6391	12.751	5.6364	0.1	4.8765e-003
6392	12.751	5.8182	0.1	1.7225e-003
6393	12.936	0.18182	0.1	1.5159e-003
6394	12.936	0.36364	0.1	5.5813e-003
6395	12.936	0.54545	0.1	3.0385e-003
6396	12.936	0.72727	0.1	2.6181e-003
6397	12.936	0.90909	0.1	1.787e-003
6398	12.936	1.0909	0.1	1.0356e-003
6399	12.936	1.2727	0.1	2.3411e-004
6400	12.936	1.4545	0.1	-5.918e-004
6401	12.936	1.6364	0.1	-1.4502e-003
6402	12.936	1.8182	0.1	-2.3329e-003
6403	12.936	2.	0.1	-3.2262e-003
6404	12.936	2.1818	0.1	-4.0986e-003
6405	12.936	2.3636	0.1	-4.9095e-003
6406	12.936	2.5455	0.1	-5.6004e-003
6407	12.936	2.7273	0.1	-6.1098e-003
6408	12.936	2.9091	0.1	-6.38e-003
6409	12.936	3.0909	0.1	-6.3801e-003
6410	12.936	3.2727	0.1	-6.1094e-003
6411	12.936	3.4545	0.1	-5.6002e-003
6412	12.936	3.6364	0.1	-4.9086e-003
6413	12.936	3.8182	0.1	-4.0985e-003
6414	12.936	4.	0.1	-3.2259e-003
6415	12.936	4.1818	0.1	-2.3329e-003
6416	12.936	4.3636	0.1	-1.4494e-003
6417	12.936	4.5455	0.1	-5.9175e-004
6418	12.936	4.7273	0.1	2.3453e-004
6419	12.936	4.9091	0.1	1.0367e-003
6420	12.936	5.0909	0.1	1.7884e-003
6421	12.936	5.2727	0.1	2.6187e-003
6422	12.936	5.4545	0.1	3.0388e-003
6423	12.936	5.6364	0.1	5.5819e-003
6424	12.936	5.8182	0.1	1.5159e-003
6425	13.121	0.18182	0.1	1.3292e-003
6426	13.121	0.36364	0.1	6.2545e-003
6427	13.121	0.54545	0.1	3.2276e-003
6428	13.121	0.72727	0.1	2.7279e-003
6429	13.121	0.90909	0.1	1.7434e-003
6430	13.121	1.0909	0.1	8.6249e-004
6431	13.121	1.2727	0.1	-6.1093e-005
6432	13.121	1.4545	0.1	-9.8978e-004
6433	13.121	1.6364	0.1	-1.9222e-003
6434	13.121	1.8182	0.1	-2.8457e-003
6435	13.121	2.	0.1	-3.7385e-003
6436	13.121	2.1818	0.1	-4.5706e-003
6437	13.121	2.3636	0.1	-5.3077e-003
6438	13.121	2.5455	0.1	-5.9099e-003
6439	13.121	2.7273	0.1	-6.338e-003
6440	13.121	2.9091	0.1	-6.5605e-003
6441	13.121	3.0909	0.1	-6.5604e-003
6442	13.121	3.2727	0.1	-6.3382e-003
6443	13.121	3.4545	0.1	-5.9101e-003
6444	13.121	3.6364	0.1	-5.3068e-003
6445	13.121	3.8182	0.1	-4.5704e-003
6446	13.121	4.	0.1	-3.7379e-003
6447	13.121	4.1818	0.1	-2.8459e-003
6448	13.121	4.3636	0.1	-1.9213e-003
6449	13.121	4.5455	0.1	-9.8943e-004
6450	13.121	4.7273	0.1	-6.096e-005
6451	13.121	4.9091	0.1	8.6283e-004
6452	13.121	5.0909	0.1	1.7438e-003
6453	13.121	5.2727	0.1	2.7288e-003
6454	13.121	5.4545	0.1	3.2276e-003
6455	13.121	5.6364	0.1	6.255e-003
6456	13.121	5.8182	0.1	1.3298e-003
6457	13.306	0.18182	0.1	1.1597e-003
6458	13.306	0.36364	0.1	6.8998e-003
6459	13.306	0.54545	0.1	3.4087e-003
6460	13.306	0.72727	0.1	2.838e-003
6461	13.306	0.90909	0.1	1.714e-003
6462	13.306	1.0909	0.1	7.2453e-004
6463	13.306	1.2727	0.1	-2.9764e-004
6464	13.306	1.4545	0.1	-1.3007e-003
6465	13.306	1.6364	0.1	-2.285e-003
6466	13.306	1.8182	0.1	-3.2313e-003
6467	13.306	2.	0.1	-4.1183e-003
6468	13.306	2.1818	0.1	-4.9203e-003
6469	13.306	2.3636	0.1	-5.6106e-003
6470	13.306	2.5455	0.1	-6.1608e-003
6471	13.306	2.7273	0.1	-6.5433e-003
6472	13.306	2.9091	0.1	-6.7397e-003
6473	13.306	3.0909	0.1	-6.7395e-003
6474	13.306	3.2727	0.1	-6.543e-003
6475	13.306	3.4545	0.1	-6.1604e-003
6476	13.306	3.6364	0.1	-5.6108e-003
6477	13.306	3.8182	0.1	-4.9203e-003
6478	13.306	4.	0.1	-4.119e-003
6479	13.306	4.1818	0.1	-3.2309e-003
6480	13.306	4.3636	0.1	-2.2848e-003
6481	13.306	4.5455	0.1	-1.3e-003
6482	13.306	4.7273	0.1	-2.9658e-004
6483	13.306	4.9091	0.1	7.2545e-004
6484	13.306	5.0909	0.1	1.7153e-003
6485	13.306	5.2727	0.1	2.8393e-003
6486	13.306	5.4545	0.1	3.4085e-003
6487	13.306	5.6364	0.1	6.9006e-003
6488	13.306	5.8182	0.1	1.16e-003
6489	13.49	0.18182	0.1	1.0045e-003
6490	13.49	0.36364	0.1	7.5236e-003
6491	13.49	0.54545	0.1	3.583e-003
6492	13.49	0.72727	0.1	2.9465e-003
6493	13.49	0.90909	0.1	1.6966e-003
6494	13.49	1.0909	0.1	6.1184e-004
6495	13.49	1.2727	0.1	-4.9195e-004
6496	13.49	1.4545	0.1	-1.5578e-003
6497	13.49	1.6364	0.1	-2.5807e-003
6498	13.49	1.8182	0.1	-3.5436e-003
6499	13.49	2.	0.1	-4.4268e-003
6500	13.49	2.1818	0.1	-5.2087e-003
6501	13.49	2.3636	0.1	-5.8671e-003
6502	13.49	2.5455	0.1	-6.3833e-003
6503	13.49	2.7273	0.1	-6.7384e-003
6504	13.49	2.9091	0.1	-6.9188e-003
6505	13.49	3.0909	0.1	-6.9188e-003
6506	13.49	3.2727	0.1	-6.7386e-003
6507	13.49	3.4545	0.1	-6.3835e-003
6508	13.49	3.6364	0.1	-5.8669e-003
6509	13.49	3.8182	0.1	-5.2075e-003
6510	13.49	4.	0.1	-4.4266e-003
6511	13.49	4.1818	0.1	-3.5431e-003
6512	13.49	4.3636	0.1	-2.5808e-003
6513	13.49	4.5455	0.1	-1.5569e-003
6514	13.49	4.7273	0.1	-4.9188e-004
6515	13.49	4.9091	0.1	6.1277e-004
6516	13.49	5.0909	0.1	1.6977e-003
6517	13.49	5.2727	0.1	2.9478e-003
6518	13.49	5.4545	0.1	3.5831e-003
6519	13.49	5.6364	0.1	7.5229e-003
6520	13.49	5.8182	0.1	1.0055e-003
6521	13.675	0.18182	0.1	8.641e-004
6522	13.675	0.36364	0.1	8.1258e-003
6523	13.675	0.54545	0.1	3.7514e-003
6524	13.675	0.72727	0.1	3.054e-003
6525	13.675	0.90909	0.1	1.6869e-003
6526	13.675	1.0909	0.1	5.1637e-004
6527	13.675	1.2727	0.1	-6.6108e-004
6528	13.675	1.4545	0.1	-1.7779e-003
6529	13.675	1.6364	0.1	-2.8343e-003
6530	13.675	1.8182	0.1	-3.8109e-003
6531	13.675	2.	0.1	-4.6935e-003
6532	13.675	2.1818	0.1	-5.4609e-003
6533	13.675	2.3636	0.1	-6.0989e-003
6534	13.675	2.5455	0.1	-6.594e-003
6535	13.675	2.7273	0.1	-6.9294e-003
6536	13.675	2.9091	0.1	-7.1001e-003
6537	13.675	3.0909	0.1	-7.1e-003
6538	13.675	3.2727	0.1	-6.9298e-003
6539	13.675	3.4545	0.1	-6.5931e-003
6540	13.675	3.6364	0.1	-6.0986e-003
6541	13.675	3.8182	0.1	-5.4609e-003
6542	13.675	4.	0.1	-4.6931e-003
6543	13.675	4.1818	0.1	-3.8108e-003
6544	13.675	4.3636	0.1	-2.8338e-003
6545	13.675	4.5455	0.1	-1.7777e-003
6546	13.675	4.7273	0.1	-6.5979e-004
6547	13.675	4.9091	0.1	5.1649e-004
6548	13.675	5.0909	0.1	1.6879e-003
6549	13.675	5.2727	0.1	3.0555e-003
6550	13.675	5.4545	0.1	3.7515e-003
6551	13.675	5.6364	0.1	8.1263e-003
6552	13.675	5.8182	0.1	8.6344e-004
6553	13.86	0.18182	0.1	7.32e-004
6554	13.86	0.36364	0.1	8.7148e-003
6555	13.86	0.54545	0.1	3.9148e-003
6556	13.86	0.72727	0.1	3.1603e-003
6557	13.86	0.90909	0.1	1.6813e-003
6558	13.86	1.0909	0.1	4.3126e-004
6559	13.86	1.2727	0.1	-8.1034e-004
6560	13.86	1.4545	0.1	-1.974e-003
6561	13.86	1.6364	0.1	-3.0601e-003
6562	13.86	1.8182	0.1	-4.0512e-003
6563	13.86	2.	0.1	-4.9334e-003
6564	13.86	2.1818	0.1	-5.6927e-003
6565	13.86	2.3636	0.1	-6.3177e-003
6566	13.86	2.5455	0.1	-6.7971e-003
6567	13.86	2.7273	0.1	-7.1209e-003
6568	13.86	2.9091	0.1	-7.2842e-003
6569	13.86	3.0909	0.1	-7.2844e-003
6570	13.86	3.2727	0.1	-7.1214e-003
6571	13.86	3.4545	0.1	-6.7967e-003
6572	13.86	3.6364	0.1	-6.3175e-003
6573	13.86	3.8182	0.1	-5.6928e-003
6574	13.86	4.	0.1	-4.9338e-003
6575	13.86	4.1818	0.1	-4.0507e-003
6576	13.86	4.3636	0.1	-3.0595e-003
6577	13.86	4.5455	0.1	-1.9744e-003
6578	13.86	4.7273	0.1	-8.0996e-004
6579	13.86	4.9091	0.1	4.3189e-004
6580	13.86	5.0909	0.1	1.6824e-003
6581	13.86	5.2727	0.1	3.1608e-003
6582	13.86	5.4545	0.1	3.9159e-003
6583	13.86	5.6364	0.1	8.7148e-003
6584	13.86	5.8182	0.1	7.3217e-004
6585	14.045	0.18182	0.1	6.0953e-004
6586	14.045	0.36364	0.1	9.2913e-003
6587	14.045	0.54545	0.1	4.0761e-003
6588	14.045	0.72727	0.1	3.2637e-003
6589	14.045	0.90909	0.1	1.679e-003
6590	14.045	1.0909	0.1	3.5633e-004
6591	14.045	1.2727	0.1	-9.4689e-004
6592	14.045	1.4545	0.1	-2.1538e-003
6593	14.045	1.6364	0.1	-3.2681e-003
6594	14.045	1.8182	0.1	-4.2729e-003
6595	14.045	2.	0.1	-5.159e-003
6596	14.045	2.1818	0.1	-5.9128e-003
6597	14.045	2.3636	0.1	-6.5285e-003
6598	14.045	2.5455	0.1	-6.9976e-003
6599	14.045	2.7273	0.1	-7.3136e-003
6600	14.045	2.9091	0.1	-7.4724e-003
6601	14.045	3.0909	0.1	-7.4723e-003
6602	14.045	3.2727	0.1	-7.3137e-003
6603	14.045	3.4545	0.1	-6.9981e-003
6604	14.045	3.6364	0.1	-6.5286e-003
6605	14.045	3.8182	0.1	-5.9131e-003
6606	14.045	4.	0.1	-5.1582e-003
6607	14.045	4.1818	0.1	-4.2726e-003
6608	14.045	4.3636	0.1	-3.2672e-003
6609	14.045	4.5455	0.1	-2.1542e-003
6610	14.045	4.7273	0.1	-9.4635e-004
6611	14.045	4.9091	0.1	3.5637e-004
6612	14.045	5.0909	0.1	1.6806e-003
6613	14.045	5.2727	0.1	3.266e-003
6614	14.045	5.4545	0.1	4.0767e-003
6615	14.045	5.6364	0.1	9.291e-003
6616	14.045	5.8182	0.1	6.0956e-004
6617	14.23	0.18182	0.1	4.9784e-004
6618	14.23	0.36364	0.1	9.8596e-003
6619	14.23	0.54545	0.1	4.2335e-003
6620	14.23	0.72727	0.1	3.3678e-003
6621	14.23	0.90909	0.1	1.6784e-003
6622	14.23	1.0909	0.1	2.8496e-004
6623	14.23	1.2727	0.1	-1.0756e-003
6624	14.23	1.4545	0.1	-2.3235e-003
6625	14.23	1.6364	0.1	-3.464e-003
6626	14.23	1.8182	0.1	-4.4835e-003
6627	14.23	2.	0.1	-5.3742e-003
6628	14.23	2.1818	0.1	-6.1267e-003
6629	14.23	2.3636	0.1	-6.7371e-003
6630	14.23	2.5455	0.1	-7.1993e-003
6631	14.23	2.7273	0.1	-7.5092e-003
6632	14.23	2.9091	0.1	-7.6643e-003
6633	14.23	3.0909	0.1	-7.665e-003
6634	14.23	3.2727	0.1	-7.5091e-003
6635	14.23	3.4545	0.1	-7.1988e-003
6636	14.23	3.6364	0.1	-6.7369e-003
6637	14.23	3.8182	0.1	-6.1261e-003
6638	14.23	4.	0.1	-5.3736e-003
6639	14.23	4.1818	0.1	-4.4829e-003
6640	14.23	4.3636	0.1	-3.4626e-003
6641	14.23	4.5455	0.1	-2.3234e-003
6642	14.23	4.7273	0.1	-1.0751e-003
6643	14.23	4.9091	0.1	2.8519e-004
6644	14.23	5.0909	0.1	1.6805e-003
6645	14.23	5.2727	0.1	3.3683e-003
6646	14.23	5.4545	0.1	4.2337e-003
6647	14.23	5.6364	0.1	9.8596e-003
6648	14.23	5.8182	0.1	4.9795e-004
6649	14.414	0.18182	0.1	3.9345e-004
6650	14.414	0.36364	0.1	1.0427e-002
6651	14.414	0.54545	0.1	4.39e-003
6652	14.414	0.72727	0.1	3.4691e-003
6653	14.414	0.90909	0.1	1.68e-003
6654	14.414	1.0909	0.1	2.1744e-004
6655	14.414	1.2727	0.1	-1.1981e-003
6656	14.414	1.4545	0.1	-2.4859e-003
6657	14.414	1.6364	0.1	-3.6512e-003
6658	14.414	1.8182	0.1	-4.6866e-003
6659	14.414	2.	0.1	-5.5841e-003
6660	14.414	2.1818	0.1	-6.3381e-003
6661	14.414	2.3636	0.1	-6.9443e-003
6662	14.414	2.5455	0.1	-7.4025e-003
6663	14.414	2.7273	0.1	-7.7087e-003
6664	14.414	2.9091	0.1	-7.8617e-003
6665	14.414	3.0909	0.1	-7.8619e-003
6666	14.414	3.2727	0.1	-7.7087e-003
6667	14.414	3.4545	0.1	-7.4026e-003
6668	14.414	3.6364	0.1	-6.9441e-003
6669	14.414	3.8182	0.1	-6.3373e-003
6670	14.414	4.	0.1	-5.5841e-003
6671	14.414	4.1818	0.1	-4.686e-003
6672	14.414	4.3636	0.1	-3.6523e-003
6673	14.414	4.5455	0.1	-2.4851e-003
6674	14.414	4.7273	0.1	-1.1984e-003
6675	14.414	4.9091	0.1	2.1935e-004
6676	14.414	5.0909	0.1	1.6812e-003
6677	14.414	5.2727	0.1	3.4711e-003
6678	14.414	5.4545	0.1	4.3898e-003
6679	14.414	5.6364	0.1	1.0426e-002
6680	14.414	5.8182	0.1	3.9349e-004
6681	14.599	0.18182	0.1	2.9546e-004
6682	14.599	0.36364	0.1	1.0991e-002
6683	14.599	0.54545	0.1	4.5453e-003
6684	14.599	0.72727	0.1	3.5702e-003
6685	14.599	0.90909	0.1	1.6811e-003
6686	14.599	1.0909	0.1	1.5157e-004
6687	14.599	1.2727	0.1	-1.3177e-003
6688	14.599	1.4545	0.1	-2.6447e-003
6689	14.599	1.6364	0.1	-3.837e-003
6690	14.599	1.8182	0.1	-4.8875e-003
6691	14.599	2.	0.1	-5.7929e-003
6692	14.599	2.1818	0.1	-6.5484e-003
6693	14.599	2.3636	0.1	-7.1545e-003
6694	14.599	2.5455	0.1	-7.6104e-003
6695	14.599	2.7273	0.1	-7.9136e-003
6696	14.599	2.9091	0.1	-8.0654e-003
6697	14.599	3.0909	0.1	-8.0656e-003
6698	14.599	3.2727	0.1	-7.9137e-003
6699	14.599	3.4545	0.1	-7.6102e-003
6700	14.599	3.6364	0.1	-7.1549e-003
6701	14.599	3.8182	0.1	-6.5483e-003
6702	14.599	4.	0.1	-5.792e-003
6703	14.599	4.1818	0.1	-4.8873e-003
6704	14.599	4.3636	0.1	-3.8367e-003
6705	14.599	4.5455	0.1	-2.6438e-003
6706	14.599	4.7273	0.1	-1.3179e-003
6707	14.599	4.9091	0.1	1.5198e-004
6708	14.599	5.0909	0.1	1.6824e-003
6709	14.599	5.2727	0.1	3.5715e-003
6710	14.599	5.4545	0.1	4.545e-003
6711	14.599	5.6364	0.1	1.099e-002
6712	14.599	5.8182	0.1	2.9588e-004
6713	14.784	0.18182	0.1	2.0476e-004
6714	14.784	0.36364	0.1	1.1559e-002
6715	14.784	0.54545	0.1	4.6992e-003
6716	14.784	0.72727	0.1	3.6708e-003
6717	14.784	0.90909	0.1	1.6816e-003
6718	14.784	1.0909	0.1	8.6589e-005
6719	14.784	1.2727	0.1	-1.4382e-003
6720	14.784	1.4545	0.1	-2.8024e-003
6721	14.784	1.6364	0.1	-4.0217e-003
6722	14.784	1.8182	0.1	-5.088e-003
6723	14.784	2.	0.1	-6.0019e-003
6724	14.784	2.1818	0.1	-6.7617e-003
6725	14.784	2.3636	0.1	-7.3685e-003
6726	14.784	2.5455	0.1	-7.8232e-003
6727	14.784	2.7273	0.1	-8.1246e-003
6728	14.784	2.9091	0.1	-8.2756e-003
6729	14.784	3.0909	0.1	-8.276e-003
6730	14.784	3.2727	0.1	-8.1252e-003
6731	14.784	3.4545	0.1	-7.8228e-003
6732	14.784	3.6364	0.1	-7.3686e-003
6733	14.784	3.8182	0.1	-6.7615e-003
6734	14.784	4.	0.1	-6.0017e-003
6735	14.784	4.1818	0.1	-5.0878e-003
6736	14.784	4.3636	0.1	-4.021e-003
6737	14.784	4.5455	0.1	-2.8018e-003
6738	14.784	4.7273	0.1	-1.4376e-003
6739	14.784	4.9091	0.1	8.6129e-005
6740	14.784	5.0909	0.1	1.6825e-003
6741	14.784	5.2727	0.1	3.6724e-003
6742	14.784	5.4545	0.1	4.6994e-003
6743	14.784	5.6364	0.1	1.156e-002
6744	14.784	5.8182	0.1	2.054e-004
6745	14.969	0.18182	0.1	1.2158e-004
6746	14.969	0.36364	0.1	1.2138e-002
6747	14.969	0.54545	0.1	4.8551e-003
6748	14.969	0.72727	0.1	3.7705e-003
6749	14.969	0.90909	0.1	1.6809e-003
6750	14.969	1.0909	0.1	1.9416e-005
6751	14.969	1.2727	0.1	-1.5577e-003
6752	14.969	1.4545	0.1	-2.9598e-003
6753	14.969	1.6364	0.1	-4.2062e-003
6754	14.969	1.8182	0.1	-5.29e-003
6755	14.969	2.	0.1	-6.2146e-003
6756	14.969	2.1818	0.1	-6.979e-003
6757	14.969	2.3636	0.1	-7.5873e-003
6758	14.969	2.5455	0.1	-8.0421e-003
6759	14.969	2.7273	0.1	-8.3434e-003
6760	14.969	2.9091	0.1	-8.4939e-003
6761	14.969	3.0909	0.1	-8.4933e-003
6762	14.969	3.2727	0.1	-8.3433e-003
6763	14.969	3.4545	0.1	-8.0419e-003
6764	14.969	3.6364	0.1	-7.5873e-003
6765	14.969	3.8182	0.1	-6.9789e-003
6766	14.969	4.	0.1	-6.2139e-003
6767	14.969	4.1818	0.1	-5.2902e-003
6768	14.969	4.3636	0.1	-4.2061e-003
6769	14.969	4.5455	0.1	-2.9595e-003
6770	14.969	4.7273	0.1	-1.5579e-003
6771	14.969	4.9091	0.1	1.9787e-005
6772	14.969	5.0909	0.1	1.6819e-003
6773	14.969	5.2727	0.1	3.7722e-003
6774	14.969	5.4545	0.1	4.8558e-003
6775	14.969	5.6364	0.1	1.2137e-002
6776	14.969	5.8182	0.1	1.2117e-004
6777	15.154	0.18182	0.1	4.3561e-005
6778	15.154	0.36364	0.1	1.2727e-002
6779	15.154	0.54545	0.1	5.0138e-003
6780	15.154	0.72727	0.1	3.872e-003
6781	15.154	0.90909	0.1	1.6801e-003
6782	15.154	1.0909	0.1	-4.9492e-005
6783	15.154	1.2727	0.1	-1.6801e-003
6784	15.154	1.4545	0.1	-3.1218e-003
6785	15.154	1.6364	0.1	-4.3942e-003
6786	15.154	1.8182	0.1	-5.4966e-003
6787	15.154	2.	0.1	-6.4309e-003
6788	15.154	2.1818	0.1	-7.202e-003
6789	15.154	2.3636	0.1	-7.8127e-003
6790	15.154	2.5455	0.1	-8.2694e-003
6791	15.154	2.7273	0.1	-8.5698e-003
6792	15.154	2.9091	0.1	-8.7201e-003
6793	15.154	3.0909	0.1	-8.72e-003
6794	15.154	3.2727	0.1	-8.5695e-003
6795	15.154	3.4545	0.1	-8.2687e-003
6796	15.154	3.6364	0.1	-7.8124e-003
6797	15.154	3.8182	0.1	-7.2015e-003
6798	15.154	4.	0.1	-6.4311e-003
6799	15.154	4.1818	0.1	-5.496e-003
6800	15.154	4.3636	0.1	-4.394e-003
6801	15.154	4.5455	0.1	-3.1212e-003
6802	15.154	4.7273	0.1	-1.6802e-003
6803	15.154	4.9091	0.1	-4.8256e-005
6804	15.154	5.0909	0.1	1.681e-003
6805	15.154	5.2727	0.1	3.8737e-003
6806	15.154	5.4545	0.1	5.0135e-003
6807	15.154	5.6364	0.1	1.2726e-002
6808	15.154	5.8182	0.1	4.4618e-005
6809	15.338	0.18182	0.1	-2.6002e-005
6810	15.338	0.36364	0.1	1.3332e-002
6811	15.338	0.54545	0.1	5.1744e-003
6812	15.338	0.72727	0.1	3.9728e-003
6813	15.338	0.90909	0.1	1.6765e-003
6814	15.338	1.0909	0.1	-1.2099e-004
6815	15.338	1.2727	0.1	-1.8065e-003
6816	15.338	1.4545	0.1	-3.2877e-003
6817	15.338	1.6364	0.1	-4.5873e-003
6818	15.338	1.8182	0.1	-5.7085e-003
6819	15.338	2.	0.1	-6.6542e-003
6820	15.338	2.1818	0.1	-7.4317e-003
6821	15.338	2.3636	0.1	-8.0466e-003
6822	15.338	2.5455	0.1	-8.5026e-003
6823	15.338	2.7273	0.1	-8.8057e-003
6824	15.338	2.9091	0.1	-8.9557e-003
6825	15.338	3.0909	0.1	-8.9552e-003
6826	15.338	3.2727	0.1	-8.8054e-003
6827	15.338	3.4545	0.1	-8.5031e-003
6828	15.338	3.6364	0.1	-8.0467e-003
6829	15.338	3.8182	0.1	-7.4314e-003
6830	15.338	4.	0.1	-6.6546e-003
6831	15.338	4.1818	0.1	-5.7076e-003
6832	15.338	4.3636	0.1	-4.5872e-003
6833	15.338	4.5455	0.1	-3.2879e-003
6834	15.338	4.7273	0.1	-1.8062e-003
6835	15.338	4.9091	0.1	-1.2039e-004
6836	15.338	5.0909	0.1	1.6771e-003
6837	15.338	5.2727	0.1	3.9745e-003
6838	15.338	5.4545	0.1	5.1741e-003
6839	15.338	5.6364	0.1	1.3331e-002
6840	15.338	5.8182	0.1	-2.4581e-005
6841	15.523	0.18182	0.1	-8.9327e-005
6842	15.523	0.36364	0.1	1.3956e-002
6843	15.523	0.54545	0.1	5.3386e-003
6844	15.523	0.72727	0.1	4.0749e-003
6845	15.523	0.90909	0.1	1.6711e-003
6846	15.523	1.0909	0.1	-1.9711e-004
6847	15.523	1.2727	0.1	-1.9381e-003
6848	15.523	1.4545	0.1	-3.4593e-003
6849	15.523	1.6364	0.1	-4.7873e-003
6850	15.523	1.8182	0.1	-5.9269e-003
6851	15.523	2.	0.1	-6.8858e-003
6852	15.523	2.1818	0.1	-7.6714e-003
6853	15.523	2.3636	0.1	-8.2898e-003
6854	15.523	2.5455	0.1	-8.7482e-003
6855	15.523	2.7273	0.1	-9.0511e-003
6856	15.523	2.9091	0.1	-9.2018e-003
6857	15.523	3.0909	0.1	-9.2013e-003
6858	15.523	3.2727	0.1	-9.0517e-003
6859	15.523	3.4545	0.1	-8.7484e-003
6860	15.523	3.6364	0.1	-8.2887e-003
6861	15.523	3.8182	0.1	-7.67e-003
6862	15.523	4.	0.1	-6.8855e-003
6863	15.523	4.1818	0.1	-5.9265e-003
6864	15.523	4.3636	0.1	-4.7873e-003
6865	15.523	4.5455	0.1	-3.4587e-003
6866	15.523	4.7273	0.1	-1.9379e-003
6867	15.523	4.9091	0.1	-1.9571e-004
6868	15.523	5.0909	0.1	1.6715e-003
6869	15.523	5.2727	0.1	4.0764e-003
6870	15.523	5.4545	0.1	5.3383e-003
6871	15.523	5.6364	0.1	1.3957e-002
6872	15.523	5.8182	0.1	-8.8387e-005
6873	15.708	0.18182	0.1	-1.4306e-004
6874	15.708	0.36364	0.1	1.4606e-002
6875	15.708	0.54545	0.1	5.5077e-003
6876	15.708	0.72727	0.1	4.1788e-003
6877	15.708	0.90909	0.1	1.6615e-003
6878	15.708	1.0909	0.1	-2.7738e-004
6879	15.708	1.2727	0.1	-2.0753e-003
6880	15.708	1.4545	0.1	-3.6374e-003
6881	15.708	1.6364	0.1	-4.995e-003
6882	15.708	1.8182	0.1	-6.1545e-003
6883	15.708	2.	0.1	-7.1258e-003
6884	15.708	2.1818	0.1	-7.9192e-003
6885	15.708	2.3636	0.1	-8.5422e-003
6886	15.708	2.5455	0.1	-9.004e-003
6887	15.708	2.7273	0.1	-9.3081e-003
6888	15.708	2.9091	0.1	-9.4585e-003
6889	15.708	3.0909	0.1	-9.4595e-003
6890	15.708	3.2727	0.1	-9.3077e-003
6891	15.708	3.4545	0.1	-9.0035e-003
6892	15.708	3.6364	0.1	-8.542e-003
6893	15.708	3.8182	0.1	-7.9193e-003
6894	15.708	4.	0.1	-7.1257e-003
6895	15.708	4.1818	0.1	-6.1543e-003
6896	15.708	4.3636	0.1	-4.9955e-003
6897	15.708	4.5455	0.1	-3.637e-003
6898	15.708	4.7273	0.1	-2.0752e-003
6899	15.708	4.9091	0.1	-2.7662e-004
6900	15.708	5.0909	0.1	1.6621e-003
6901	15.708	5.2727	0.1	4.1799e-003
6902	15.708	5.4545	0.1	5.5073e-003
6903	15.708	5.6364	0.1	1.4606e-002
6904	15.708	5.8182	0.1	-1.4173e-004
6905	15.893	0.18182	0.1	-1.8632e-004
6906	15.893	0.36364	0.1	1.5287e-002
6907	15.893	0.54545	0.1	5.6816e-003
6908	15.893	0.72727	0.1	4.2821e-003
6909	15.893	0.90909	0.1	1.6489e-003
6910	15.893	1.0909	0.1	-3.6262e-004
6911	15.893	1.2727	0.1	-2.222e-003
6912	15.893	1.4545	0.1	-3.8246e-003
6913	15.893	1.6364	0.1	-5.2128e-003
6914	15.893	1.8182	0.1	-6.3925e-003
6915	15.893	2.	0.1	-7.3773e-003
6916	15.893	2.1818	0.1	-8.1787e-003
6917	15.893	2.3636	0.1	-8.8074e-003
6918	15.893	2.5455	0.1	-9.2715e-003
6919	15.893	2.7273	0.1	-9.5776e-003
6920	15.893	2.9091	0.1	-9.7287e-003
6921	15.893	3.0909	0.1	-9.7285e-003
6922	15.893	3.2727	0.1	-9.5775e-003
6923	15.893	3.4545	0.1	-9.272e-003
6924	15.893	3.6364	0.1	-8.8065e-003
6925	15.893	3.8182	0.1	-8.1788e-003
6926	15.893	4.	0.1	-7.3776e-003
6927	15.893	4.1818	0.1	-6.3924e-003
6928	15.893	4.3636	0.1	-5.2123e-003
6929	15.893	4.5455	0.1	-3.8244e-003
6930	15.893	4.7273	0.1	-2.2223e-003
6931	15.893	4.9091	0.1	-3.6241e-004
6932	15.893	5.0909	0.1	1.6503e-003
6933	15.893	5.2727	0.1	4.285e-003
6934	15.893	5.4545	0.1	5.6819e-003
6935	15.893	5.6364	0.1	1.5285e-002
6936	15.893	5.8182	0.1	-1.8673e-004
6937	16.078	0.18182	0.1	-2.1849e-004
6938	16.078	0.36364	0.1	1.6e-002
6939	16.078	0.54545	0.1	5.8611e-003
6940	16.078	0.72727	0.1	4.3898e-003
6941	16.078	0.90909	0.1	1.6323e-003
6942	16.078	1.0909	0.1	-4.5679e-004
6943	16.078	1.2727	0.1	-2.3758e-003
6944	16.078	1.4545	0.1	-4.0234e-003
6945	16.078	1.6364	0.1	-5.4415e-003
6946	16.078	1.8182	0.1	-6.6424e-003
6947	16.078	2.	0.1	-7.6414e-003
6948	16.078	2.1818	0.1	-8.4509e-003
6949	16.078	2.3636	0.1	-9.0846e-003
6950	16.078	2.5455	0.1	-9.5526e-003
6951	16.078	2.7273	0.1	-9.8595e-003
6952	16.078	2.9091	0.1	-1.0012e-002
6953	16.078	3.0909	0.1	-1.0012e-002
6954	16.078	3.2727	0.1	-9.8598e-003
6955	16.078	3.4545	0.1	-9.5522e-003
6956	16.078	3.6364	0.1	-9.085e-003
6957	16.078	3.8182	0.1	-8.4514e-003
6958	16.078	4.	0.1	-7.641e-003
6959	16.078	4.1818	0.1	-6.6422e-003
6960	16.078	4.3636	0.1	-5.4412e-003
6961	16.078	4.5455	0.1	-4.0223e-003
6962	16.078	4.7273	0.1	-2.3755e-003
6963	16.078	4.9091	0.1	-4.5675e-004
6964	16.078	5.0909	0.1	1.634e-003
6965	16.078	5.2727	0.1	4.3907e-003
6966	16.078	5.4545	0.1	5.8619e-003
6967	16.078	5.6364	0.1	1.6e-002
6968	16.078	5.8182	0.1	-2.2088e-004
6969	16.262	0.18182	0.1	-2.4136e-004
6970	16.262	0.36364	0.1	1.6754e-002
6971	16.262	0.54545	0.1	6.0503e-003
6972	16.262	0.72727	0.1	4.4973e-003
6973	16.262	0.90909	0.1	1.6112e-003
6974	16.262	1.0909	0.1	-5.5887e-004
6975	16.262	1.2727	0.1	-2.5413e-003
6976	16.262	1.4545	0.1	-4.2327e-003
6977	16.262	1.6364	0.1	-5.6836e-003
6978	16.262	1.8182	0.1	-6.9044e-003
6979	16.262	2.	0.1	-7.919e-003
6980	16.262	2.1818	0.1	-8.7377e-003
6981	16.262	2.3636	0.1	-9.3772e-003
6982	16.262	2.5455	0.1	-9.8477e-003
6983	16.262	2.7273	0.1	-1.0157e-002
6984	16.262	2.9091	0.1	-1.031e-002
6985	16.262	3.0909	0.1	-1.031e-002
6986	16.262	3.2727	0.1	-1.0157e-002
6987	16.262	3.4545	0.1	-9.8475e-003
6988	16.262	3.6364	0.1	-9.3769e-003
6989	16.262	3.8182	0.1	-8.7375e-003
6990	16.262	4.	0.1	-7.9186e-003
6991	16.262	4.1818	0.1	-6.9054e-003
6992	16.262	4.3636	0.1	-5.6832e-003
6993	16.262	4.5455	0.1	-4.2326e-003
6994	16.262	4.7273	0.1	-2.5413e-003
6995	16.262	4.9091	0.1	-5.5796e-004
6996	16.262	5.0909	0.1	1.6132e-003
6997	16.262	5.2727	0.1	4.4987e-003
6998	16.262	5.4545	0.1	6.0502e-003
6999	16.262	5.6364	0.1	1.6753e-002
7000	16.262	5.8182	0.1	-2.4187e-004
7001	16.447	0.18182	0.1	-2.4933e-004
7002	16.447	0.36364	0.1	1.7553e-002
7003	16.447	0.54545	0.1	6.2459e-003
7004	16.447	0.72727	0.1	4.6079e-003
7005	16.447	0.90909	0.1	1.5854e-003
7006	16.447	1.0909	0.1	-6.7089e-004
7007	16.447	1.2727	0.1	-2.7187e-003
7008	16.447	1.4545	0.1	-4.4564e-003
7009	16.447	1.6364	0.1	-5.9396e-003
7010	16.447	1.8182	0.1	-7.1839e-003
7011	16.447	2.	0.1	-8.2121e-003
7012	16.447	2.1818	0.1	-9.0403e-003
7013	16.447	2.3636	0.1	-9.6854e-003
7014	16.447	2.5455	0.1	-1.0159e-002
7015	16.447	2.7273	0.1	-1.047e-002
7016	16.447	2.9091	0.1	-1.0623e-002
7017	16.447	3.0909	0.1	-1.0623e-002
7018	16.447	3.2727	0.1	-1.047e-002
7019	16.447	3.4545	0.1	-1.0159e-002
7020	16.447	3.6364	0.1	-9.685e-003
7021	16.447	3.8182	0.1	-9.0402e-003
7022	16.447	4.	0.1	-8.2114e-003
7023	16.447	4.1818	0.1	-7.1836e-003
7024	16.447	4.3636	0.1	-5.939e-003
7025	16.447	4.5455	0.1	-4.456e-003
7026	16.447	4.7273	0.1	-2.719e-003
7027	16.447	4.9091	0.1	-6.7034e-004
7028	16.447	5.0909	0.1	1.5867e-003
7029	16.447	5.2727	0.1	4.6091e-003
7030	16.447	5.4545	0.1	6.2452e-003
7031	16.447	5.6364	0.1	1.7553e-002
7032	16.447	5.8182	0.1	-2.4783e-004
7033	16.632	0.18182	0.1	-2.3732e-004
7034	16.632	0.36364	0.1	1.8405e-002
7035	16.632	0.54545	0.1	6.4489e-003
7036	16.632	0.72727	0.1	4.7194e-003
7037	16.632	0.90909	0.1	1.551e-003
7038	16.632	1.0909	0.1	-7.9368e-004
7039	16.632	1.2727	0.1	-2.9097e-003
7040	16.632	1.4545	0.1	-4.6954e-003
7041	16.632	1.6364	0.1	-6.2125e-003
7042	16.632	1.8182	0.1	-7.4793e-003
7043	16.632	2.	0.1	-8.5221e-003
7044	16.632	2.1818	0.1	-9.3603e-003
7045	16.632	2.3636	0.1	-1.001e-002
7046	16.632	2.5455	0.1	-1.0488e-002
7047	16.632	2.7273	0.1	-1.0799e-002
7048	16.632	2.9091	0.1	-1.0954e-002
7049	16.632	3.0909	0.1	-1.0954e-002
7050	16.632	3.2727	0.1	-1.0799e-002
7051	16.632	3.4545	0.1	-1.0487e-002
7052	16.632	3.6364	0.1	-1.001e-002
7053	16.632	3.8182	0.1	-9.3599e-003
7054	16.632	4.	0.1	-8.5222e-003
7055	16.632	4.1818	0.1	-7.4793e-003
7056	16.632	4.3636	0.1	-6.2122e-003
7057	16.632	4.5455	0.1	-4.6954e-003
7058	16.632	4.7273	0.1	-2.9108e-003
7059	16.632	4.9091	0.1	-7.9214e-004
7060	16.632	5.0909	0.1	1.553e-003
7061	16.632	5.2727	0.1	4.7192e-003
7062	16.632	5.4545	0.1	6.4494e-003
7063	16.632	5.6364	0.1	1.8404e-002
7064	16.632	5.8182	0.1	-2.3733e-004
7065	16.817	0.18182	0.1	-2.0375e-004
7066	16.817	0.36364	0.1	1.9314e-002
7067	16.817	0.54545	0.1	6.6618e-003
7068	16.817	0.72727	0.1	4.8311e-003
7069	16.817	0.90909	0.1	1.5102e-003
7070	16.817	1.0909	0.1	-9.2849e-004
7071	16.817	1.2727	0.1	-3.1182e-003
7072	16.817	1.4545	0.1	-4.9545e-003
7073	16.817	1.6364	0.1	-6.504e-003
7074	16.817	1.8182	0.1	-7.7949e-003
7075	16.817	2.	0.1	-8.8515e-003
7076	16.817	2.1818	0.1	-9.7004e-003
7077	16.817	2.3636	0.1	-1.0355e-002
7078	16.817	2.5455	0.1	-1.0835e-002
7079	16.817	2.7273	0.1	-1.1149e-002
7080	16.817	2.9091	0.1	-1.1303e-002
7081	16.817	3.0909	0.1	-1.1303e-002
7082	16.817	3.2727	0.1	-1.1149e-002
7083	16.817	3.4545	0.1	-1.0835e-002
7084	16.817	3.6364	0.1	-1.0355e-002
7085	16.817	3.8182	0.1	-9.6993e-003
7086	16.817	4.	0.1	-8.8529e-003
7087	16.817	4.1818	0.1	-7.7938e-003
7088	16.817	4.3636	0.1	-6.5047e-003
7089	16.817	4.5455	0.1	-4.9531e-003
7090	16.817	4.7273	0.1	-3.1179e-003
7091	16.817	4.9091	0.1	-9.2814e-004
7092	16.817	5.0909	0.1	1.5104e-003
7093	16.817	5.2727	0.1	4.8316e-003
7094	16.817	5.4545	0.1	6.6623e-003
7095	16.817	5.6364	0.1	1.9314e-002
7096	16.817	5.8182	0.1	-2.0391e-004
7097	17.002	0.18182	0.1	-1.4372e-004
7098	17.002	0.36364	0.1	2.029e-002
7099	17.002	0.54545	0.1	6.8851e-003
7100	17.002	0.72727	0.1	4.943e-003
7101	17.002	0.90909	0.1	1.4568e-003
7102	17.002	1.0909	0.1	-1.0806e-003
7103	17.002	1.2727	0.1	-3.3456e-003
7104	17.002	1.4545	0.1	-5.2324e-003
7105	17.002	1.6364	0.1	-6.819e-003
7106	17.002	1.8182	0.1	-8.132e-003
7107	17.002	2.	0.1	-9.2047e-003
7108	17.002	2.1818	0.1	-1.006e-002
7109	17.002	2.3636	0.1	-1.0721e-002
7110	17.002	2.5455	0.1	-1.1203e-002
7111	17.002	2.7273	0.1	-1.1518e-002
7112	17.002	2.9091	0.1	-1.1673e-002
7113	17.002	3.0909	0.1	-1.1673e-002
7114	17.002	3.2727	0.1	-1.1518e-002
7115	17.002	3.4545	0.1	-1.1203e-002
7116	17.002	3.6364	0.1	-1.0721e-002
7117	17.002	3.8182	0.1	-1.006e-002
7118	17.002	4.	0.1	-9.2043e-003
7119	17.002	4.1818	0.1	-8.131e-003
7120	17.002	4.3636	0.1	-6.8182e-003
7121	17.002	4.5455	0.1	-5.2317e-003
7122	17.002	4.7273	0.1	-3.3457e-003
7123	17.002	4.9091	0.1	-1.0801e-003
7124	17.002	5.0909	0.1	1.4582e-003
7125	17.002	5.2727	0.1	4.9449e-003
7126	17.002	5.4545	0.1	6.8859e-003
7127	17.002	5.6364	0.1	2.029e-002
7128	17.002	5.8182	0.1	-1.4506e-004
7129	17.186	0.18182	0.1	-5.3102e-005
7130	17.186	0.36364	0.1	2.1342e-002
7131	17.186	0.54545	0.1	7.1168e-003
7132	17.186	0.72727	0.1	5.0554e-003
7133	17.186	0.90909	0.1	1.393e-003
7134	17.186	1.0909	0.1	-1.25e-003
7135	17.186	1.2727	0.1	-3.594e-003
7136	17.186	1.4545	0.1	-5.5344e-003
7137	17.186	1.6364	0.1	-7.1563e-003
7138	17.186	1.8182	0.1	-8.4931e-003
7139	17.186	2.	0.1	-9.5793e-003
7140	17.186	2.1818	0.1	-1.0444e-002
7141	17.186	2.3636	0.1	-1.111e-002
7142	17.186	2.5455	0.1	-1.1594e-002
7143	17.186	2.7273	0.1	-1.1909e-002
7144	17.186	2.9091	0.1	-1.2064e-002
7145	17.186	3.0909	0.1	-1.2065e-002
7146	17.186	3.2727	0.1	-1.1909e-002
7147	17.186	3.4545	0.1	-1.1593e-002
7148	17.186	3.6364	0.1	-1.1109e-002
7149	17.186	3.8182	0.1	-1.0444e-002
7150	17.186	4.	0.1	-9.58e-003
7151	17.186	4.1818	0.1	-8.4925e-003
7152	17.186	4.3636	0.1	-7.1564e-003
7153	17.186	4.5455	0.1	-5.5331e-003
7154	17.186	4.7273	0.1	-3.5946e-003
7155	17.186	4.9091	0.1	-1.2504e-003
7156	17.186	5.0909	0.1	1.3935e-003
7157	17.186	5.2727	0.1	5.0571e-003
7158	17.186	5.4545	0.1	7.1181e-003
7159	17.186	5.6364	0.1	2.1341e-002
7160	17.186	5.8182	0.1	-5.4028e-005
7161	17.371	0.18182	0.1	7.5482e-005
7162	17.371	0.36364	0.1	2.2477e-002
7163	17.371	0.54545	0.1	7.3605e-003
7164	17.371	0.72727	0.1	5.1671e-003
7165	17.371	0.90909	0.1	1.3139e-003
7166	17.371	1.0909	0.1	-1.4416e-003
7167	17.371	1.2727	0.1	-3.8682e-003
7168	17.371	1.4545	0.1	-5.8641e-003
7169	17.371	1.6364	0.1	-7.5222e-003
7170	17.371	1.8182	0.1	-8.8816e-003
7171	17.371	2.	0.1	-9.9821e-003
7172	17.371	2.1818	0.1	-1.0853e-002
7173	17.371	2.3636	0.1	-1.1523e-002
7174	17.371	2.5455	0.1	-1.2008e-002
7175	17.371	2.7273	0.1	-1.2324e-002
7176	17.371	2.9091	0.1	-1.2479e-002
7177	17.371	3.0909	0.1	-1.2479e-002
7178	17.371	3.2727	0.1	-1.2324e-002
7179	17.371	3.4545	0.1	-1.2008e-002
7180	17.371	3.6364	0.1	-1.1523e-002
7181	17.371	3.8182	0.1	-1.0854e-002
7182	17.371	4.	0.1	-9.9811e-003
7183	17.371	4.1818	0.1	-8.8818e-003
7184	17.371	4.3636	0.1	-7.5221e-003
7185	17.371	4.5455	0.1	-5.8627e-003
7186	17.371	4.7273	0.1	-3.868e-003
7187	17.371	4.9091	0.1	-1.4405e-003
7188	17.371	5.0909	0.1	1.3137e-003
7189	17.371	5.2727	0.1	5.1683e-003
7190	17.371	5.4545	0.1	7.3621e-003
7191	17.371	5.6364	0.1	2.2475e-002
7192	17.371	5.8182	0.1	7.627e-005
7193	17.556	0.18182	0.1	2.5341e-004
7194	17.556	0.36364	0.1	2.3704e-002
7195	17.556	0.54545	0.1	7.6147e-003
7196	17.556	0.72727	0.1	5.2732e-003
7197	17.556	0.90909	0.1	1.2151e-003
7198	17.556	1.0909	0.1	-1.6574e-003
7199	17.556	1.2727	0.1	-4.1718e-003
7200	17.556	1.4545	0.1	-6.2227e-003
7201	17.556	1.6364	0.1	-7.9195e-003
7202	17.556	1.8182	0.1	-9.3013e-003
7203	17.556	2.	0.1	-1.0415e-002
7204	17.556	2.1818	0.1	-1.1293e-002
7205	17.556	2.3636	0.1	-1.1964e-002
7206	17.556	2.5455	0.1	-1.245e-002
7207	17.556	2.7273	0.1	-1.2765e-002
7208	17.556	2.9091	0.1	-1.2919e-002
7209	17.556	3.0909	0.1	-1.292e-002
7210	17.556	3.2727	0.1	-1.2764e-002
7211	17.556	3.4545	0.1	-1.245e-002
7212	17.556	3.6364	0.1	-1.1964e-002
7213	17.556	3.8182	0.1	-1.1292e-002
7214	17.556	4.	0.1	-1.0416e-002
7215	17.556	4.1818	0.1	-9.3015e-003
7216	17.556	4.3636	0.1	-7.9186e-003
7217	17.556	4.5455	0.1	-6.2239e-003
7218	17.556	4.7273	0.1	-4.1713e-003
7219	17.556	4.9091	0.1	-1.6569e-003
7220	17.556	5.0909	0.1	1.2155e-003
7221	17.556	5.2727	0.1	5.276e-003
7222	17.556	5.4545	0.1	7.6149e-003
7223	17.556	5.6364	0.1	2.3702e-002
7224	17.556	5.8182	0.1	2.5351e-004
7225	17.741	0.18182	0.1	4.8936e-004
7226	17.741	0.36364	0.1	2.5039e-002
7227	17.741	0.54545	0.1	7.8765e-003
7228	17.741	0.72727	0.1	5.3751e-003
7229	17.741	0.90909	0.1	1.0933e-003
7230	17.741	1.0909	0.1	-1.9035e-003
7231	17.741	1.2727	0.1	-4.5102e-003
7232	17.741	1.4545	0.1	-6.6194e-003
7233	17.741	1.6364	0.1	-8.3531e-003
7234	17.741	1.8182	0.1	-9.7573e-003
7235	17.741	2.	0.1	-1.088e-002
7236	17.741	2.1818	0.1	-1.1765e-002
7237	17.741	2.3636	0.1	-1.2435e-002
7238	17.741	2.5455	0.1	-1.292e-002
7239	17.741	2.7273	0.1	-1.3233e-002
7240	17.741	2.9091	0.1	-1.3386e-002
7241	17.741	3.0909	0.1	-1.3386e-002
7242	17.741	3.2727	0.1	-1.3234e-002
7243	17.741	3.4545	0.1	-1.292e-002
7244	17.741	3.6364	0.1	-1.2434e-002
7245	17.741	3.8182	0.1	-1.1764e-002
7246	17.741	4.	0.1	-1.0881e-002
7247	17.741	4.1818	0.1	-9.7569e-003
7248	17.741	4.3636	0.1	-8.3526e-003
7249	17.741	4.5455	0.1	-6.6182e-003
7250	17.741	4.7273	0.1	-4.5097e-003
7251	17.741	4.9091	0.1	-1.903e-003
7252	17.741	5.0909	0.1	1.0949e-003
7253	17.741	5.2727	0.1	5.3767e-003
7254	17.741	5.4545	0.1	7.8774e-003
7255	17.741	5.6364	0.1	2.5035e-002
7256	17.741	5.8182	0.1	4.8845e-004
7257	17.926	0.18182	0.1	7.9603e-004
7258	17.926	0.36364	0.1	2.6485e-002
7259	17.926	0.54545	0.1	8.147e-003
7260	17.926	0.72727	0.1	5.4673e-003
7261	17.926	0.90909	0.1	9.4654e-004
7262	17.926	1.0909	0.1	-2.1869e-003
7263	17.926	1.2727	0.1	-4.8868e-003
7264	17.926	1.4545	0.1	-7.0577e-003
7265	17.926	1.6364	0.1	-8.829e-003
7266	17.926	1.8182	0.1	-1.0252e-002
7267	17.926	2.	0.1	-1.1387e-002
7268	17.926	2.1818	0.1	-1.2271e-002
7269	17.926	2.3636	0.1	-1.2941e-002
7270	17.926	2.5455	0.1	-1.3421e-002
7271	17.926	2.7273	0.1	-1.3732e-002
7272	17.926	2.9091	0.1	-1.3883e-002
7273	17.926	3.0909	0.1	-1.3883e-002
7274	17.926	3.2727	0.1	-1.3732e-002
7275	17.926	3.4545	0.1	-1.3421e-002
7276	17.926	3.6364	0.1	-1.294e-002
7277	17.926	3.8182	0.1	-1.2271e-002
7278	17.926	4.	0.1	-1.1386e-002
7279	17.926	4.1818	0.1	-1.0253e-002
7280	17.926	4.3636	0.1	-8.8268e-003
7281	17.926	4.5455	0.1	-7.0583e-003
7282	17.926	4.7273	0.1	-4.8878e-003
7283	17.926	4.9091	0.1	-2.1862e-003
7284	17.926	5.0909	0.1	9.4643e-004
7285	17.926	5.2727	0.1	5.469e-003
7286	17.926	5.4545	0.1	8.1468e-003
7287	17.926	5.6364	0.1	2.6484e-002
7288	17.926	5.8182	0.1	7.9664e-004
7289	18.11	0.18182	0.1	1.1939e-003
7290	18.11	0.36364	0.1	2.8061e-002
7291	18.11	0.54545	0.1	8.4222e-003
7292	18.11	0.72727	0.1	5.5462e-003
7293	18.11	0.90909	0.1	7.6348e-004
7294	18.11	1.0909	0.1	-2.5112e-003
7295	18.11	1.2727	0.1	-5.3132e-003
7296	18.11	1.4545	0.1	-7.5439e-003
7297	18.11	1.6364	0.1	-9.351e-003
7298	18.11	1.8182	0.1	-1.0793e-002
7299	18.11	2.	0.1	-1.1933e-002
7300	18.11	2.1818	0.1	-1.2817e-002
7301	18.11	2.3636	0.1	-1.3482e-002
7302	18.11	2.5455	0.1	-1.3958e-002
7303	18.11	2.7273	0.1	-1.4262e-002
7304	18.11	2.9091	0.1	-1.4411e-002
7305	18.11	3.0909	0.1	-1.4412e-002
7306	18.11	3.2727	0.1	-1.4262e-002
7307	18.11	3.4545	0.1	-1.3957e-002
7308	18.11	3.6364	0.1	-1.3482e-002
7309	18.11	3.8182	0.1	-1.2817e-002
7310	18.11	4.	0.1	-1.1932e-002
7311	18.11	4.1818	0.1	-1.0793e-002
7312	18.11	4.3636	0.1	-9.3504e-003
7313	18.11	4.5455	0.1	-7.5437e-003
7314	18.11	4.7273	0.1	-5.3126e-003
7315	18.11	4.9091	0.1	-2.5105e-003
7316	18.11	5.0909	0.1	7.6415e-004
7317	18.11	5.2727	0.1	5.5473e-003
7318	18.11	5.4545	0.1	8.4237e-003
7319	18.11	5.6364	0.1	2.8063e-002
7320	18.11	5.8182	0.1	1.1932e-003
7321	18.295	0.18182	0.1	1.7018e-003
7322	18.295	0.36364	0.1	2.9789e-002
7323	18.295	0.54545	0.1	8.7026e-003
7324	18.295	0.72727	0.1	5.6074e-003
7325	18.295	0.90909	0.1	5.4145e-004
7326	18.295	1.0909	0.1	-2.8859e-003
7327	18.295	1.2727	0.1	-5.7932e-003
7328	18.295	1.4545	0.1	-8.0865e-003
7329	18.295	1.6364	0.1	-9.9273e-003
7330	18.295	1.8182	0.1	-1.1386e-002
7331	18.295	2.	0.1	-1.2529e-002
7332	18.295	2.1818	0.1	-1.3408e-002
7333	18.295	2.3636	0.1	-1.4064e-002
7334	18.295	2.5455	0.1	-1.4529e-002
7335	18.295	2.7273	0.1	-1.4826e-002
7336	18.295	2.9091	0.1	-1.497e-002
7337	18.295	3.0909	0.1	-1.4971e-002
7338	18.295	3.2727	0.1	-1.4826e-002
7339	18.295	3.4545	0.1	-1.4529e-002
7340	18.295	3.6364	0.1	-1.4063e-002
7341	18.295	3.8182	0.1	-1.3407e-002
7342	18.295	4.	0.1	-1.2528e-002
7343	18.295	4.1818	0.1	-1.1386e-002
7344	18.295	4.3636	0.1	-9.9273e-003
7345	18.295	4.5455	0.1	-8.086e-003
7346	18.295	4.7273	0.1	-5.7924e-003
7347	18.295	4.9091	0.1	-2.8861e-003
7348	18.295	5.0909	0.1	5.4168e-004
7349	18.295	5.2727	0.1	5.608e-003
7350	18.295	5.4545	0.1	8.7034e-003
7351	18.295	5.6364	0.1	2.9789e-002
7352	18.295	5.8182	0.1	1.7003e-003
7353	18.48	0.18182	0.1	2.3449e-003
7354	18.48	0.36364	0.1	3.1679e-002
7355	18.48	0.54545	0.1	8.983e-003
7356	18.48	0.72727	0.1	5.6422e-003
7357	18.48	0.90909	0.1	2.6678e-004
7358	18.48	1.0909	0.1	-3.3211e-003
7359	18.48	1.2727	0.1	-6.3373e-003
7360	18.48	1.4545	0.1	-8.6946e-003
7361	18.48	1.6364	0.1	-1.0569e-002
7362	18.48	1.8182	0.1	-1.2038e-002
7363	18.48	2.	0.1	-1.3177e-002
7364	18.48	2.1818	0.1	-1.4048e-002
7365	18.48	2.3636	0.1	-1.4689e-002
7366	18.48	2.5455	0.1	-1.5142e-002
7367	18.48	2.7273	0.1	-1.5427e-002
7368	18.48	2.9091	0.1	-1.5566e-002
7369	18.48	3.0909	0.1	-1.5567e-002
7370	18.48	3.2727	0.1	-1.5427e-002
7371	18.48	3.4545	0.1	-1.514e-002
7372	18.48	3.6364	0.1	-1.4689e-002
7373	18.48	3.8182	0.1	-1.4047e-002
7374	18.48	4.	0.1	-1.3179e-002
7375	18.48	4.1818	0.1	-1.2038e-002
7376	18.48	4.3636	0.1	-1.0569e-002
7377	18.48	4.5455	0.1	-8.6938e-003
7378	18.48	4.7273	0.1	-6.3376e-003
7379	18.48	4.9091	0.1	-3.3207e-003
7380	18.48	5.0909	0.1	2.6808e-004
7381	18.48	5.2727	0.1	5.6439e-003
7382	18.48	5.4545	0.1	8.984e-003
7383	18.48	5.6364	0.1	3.1678e-002
7384	18.48	5.8182	0.1	2.3439e-003
7385	18.665	0.18182	0.1	3.1597e-003
7386	18.665	0.36364	0.1	3.375e-002
7387	18.665	0.54545	0.1	9.258e-003
7388	18.665	0.72727	0.1	5.6443e-003
7389	18.665	0.90909	0.1	-6.7255e-005
7390	18.665	1.0909	0.1	-3.8283e-003
7391	18.665	1.2727	0.1	-6.9597e-003
7392	18.665	1.4545	0.1	-9.3783e-003
7393	18.665	1.6364	0.1	-1.1282e-002
7394	18.665	1.8182	0.1	-1.2758e-002
7395	18.665	2.	0.1	-1.3891e-002
7396	18.665	2.1818	0.1	-1.4742e-002
7397	18.665	2.3636	0.1	-1.5363e-002
7398	18.665	2.5455	0.1	-1.5794e-002
7399	18.665	2.7273	0.1	-1.6067e-002
7400	18.665	2.9091	0.1	-1.6197e-002
7401	18.665	3.0909	0.1	-1.6197e-002
7402	18.665	3.2727	0.1	-1.6067e-002
7403	18.665	3.4545	0.1	-1.5795e-002
7404	18.665	3.6364	0.1	-1.5363e-002
7405	18.665	3.8182	0.1	-1.4741e-002
7406	18.665	4.	0.1	-1.3891e-002
7407	18.665	4.1818	0.1	-1.2758e-002
7408	18.665	4.3636	0.1	-1.1282e-002
7409	18.665	4.5455	0.1	-9.3783e-003
7410	18.665	4.7273	0.1	-6.96e-003
7411	18.665	4.9091	0.1	-3.8282e-003
7412	18.665	5.0909	0.1	-6.5709e-005
7413	18.665	5.2727	0.1	5.6457e-003
7414	18.665	5.4545	0.1	9.2591e-003
7415	18.665	5.6364	0.1	3.3749e-002
7416	18.665	5.8182	0.1	3.1584e-003
7417	18.85	0.18182	0.1	4.1851e-003
7418	18.85	0.36364	0.1	3.6024e-002
7419	18.85	0.54545	0.1	9.5213e-003
7420	18.85	0.72727	0.1	5.6033e-003
7421	18.85	0.90909	0.1	-4.7829e-004
7422	18.85	1.0909	0.1	-4.4215e-003
7423	18.85	1.2727	0.1	-7.6725e-003
7424	18.85	1.4545	0.1	-1.0154e-002
7425	18.85	1.6364	0.1	-1.2084e-002
7426	18.85	1.8182	0.1	-1.3559e-002
7427	18.85	2.	0.1	-1.4665e-002
7428	18.85	2.1818	0.1	-1.5499e-002
7429	18.85	2.3636	0.1	-1.609e-002
7430	18.85	2.5455	0.1	-1.6498e-002
7431	18.85	2.7273	0.1	-1.6745e-002
7432	18.85	2.9091	0.1	-1.6866e-002
7433	18.85	3.0909	0.1	-1.6865e-002
7434	18.85	3.2727	0.1	-1.6746e-002
7435	18.85	3.4545	0.1	-1.6498e-002
7436	18.85	3.6364	0.1	-1.6091e-002
7437	18.85	3.8182	0.1	-1.5499e-002
7438	18.85	4.	0.1	-1.4665e-002
7439	18.85	4.1818	0.1	-1.3558e-002
7440	18.85	4.3636	0.1	-1.2083e-002
7441	18.85	4.5455	0.1	-1.0154e-002
7442	18.85	4.7273	0.1	-7.6724e-003
7443	18.85	4.9091	0.1	-4.4205e-003
7444	18.85	5.0909	0.1	-4.7554e-004
7445	18.85	5.2727	0.1	5.6038e-003
7446	18.85	5.4545	0.1	9.5197e-003
7447	18.85	5.6364	0.1	3.6023e-002
7448	18.85	5.8182	0.1	4.1851e-003
7449	19.034	0.18182	0.1	5.4755e-003
7450	19.034	0.36364	0.1	3.8523e-002
7451	19.034	0.54545	0.1	9.7624e-003
7452	19.034	0.72727	0.1	5.5026e-003
7453	19.034	0.90909	0.1	-9.7848e-004
7454	19.034	1.0909	0.1	-5.1202e-003
7455	19.034	1.2727	0.1	-8.494e-003
7456	19.034	1.4545	0.1	-1.1038e-002
7457	19.034	1.6364	0.1	-1.2986e-002
7458	19.034	1.8182	0.1	-1.4453e-002
7459	19.034	2.	0.1	-1.5541e-002
7460	19.034	2.1818	0.1	-1.6327e-002
7461	19.034	2.3636	0.1	-1.6877e-002
7462	19.034	2.5455	0.1	-1.7244e-002
7463	19.034	2.7273	0.1	-1.7467e-002
7464	19.034	2.9091	0.1	-1.7571e-002
7465	19.034	3.0909	0.1	-1.7571e-002
7466	19.034	3.2727	0.1	-1.7468e-002
7467	19.034	3.4545	0.1	-1.7244e-002
7468	19.034	3.6364	0.1	-1.6877e-002
7469	19.034	3.8182	0.1	-1.6326e-002
7470	19.034	4.	0.1	-1.554e-002
7471	19.034	4.1818	0.1	-1.4454e-002
7472	19.034	4.3636	0.1	-1.2987e-002
7473	19.034	4.5455	0.1	-1.1037e-002
7474	19.034	4.7273	0.1	-8.494e-003
7475	19.034	4.9091	0.1	-5.117e-003
7476	19.034	5.0909	0.1	-9.7685e-004
7477	19.034	5.2727	0.1	5.5032e-003
7478	19.034	5.4545	0.1	9.7598e-003
7479	19.034	5.6364	0.1	3.8522e-002
7480	19.034	5.8182	0.1	5.479e-003
7481	19.219	0.18182	0.1	7.1034e-003
7482	19.219	0.36364	0.1	4.1272e-002
7483	19.219	0.54545	0.1	9.9678e-003
7484	19.219	0.72727	0.1	5.3285e-003
7485	19.219	0.90909	0.1	-1.5885e-003
7486	19.219	1.0909	0.1	-5.9378e-003
7487	19.219	1.2727	0.1	-9.4436e-003
7488	19.219	1.4545	0.1	-1.2043e-002
7489	19.219	1.6364	0.1	-1.4007e-002
7490	19.219	1.8182	0.1	-1.5455e-002
7491	19.219	2.	0.1	-1.6501e-002
7492	19.219	2.1818	0.1	-1.7234e-002
7493	19.219	2.3636	0.1	-1.7729e-002
7494	19.219	2.5455	0.1	-1.8044e-002
7495	19.219	2.7273	0.1	-1.8229e-002
7496	19.219	2.9091	0.1	-1.8313e-002
7497	19.219	3.0909	0.1	-1.8313e-002
7498	19.219	3.2727	0.1	-1.823e-002
7499	19.219	3.4545	0.1	-1.8045e-002
7500	19.219	3.6364	0.1	-1.7728e-002
7501	19.219	3.8182	0.1	-1.7234e-002
7502	19.219	4.	0.1	-1.65e-002
7503	19.219	4.1818	0.1	-1.5454e-002
7504	19.219	4.3636	0.1	-1.4007e-002
7505	19.219	4.5455	0.1	-1.2042e-002
7506	19.219	4.7273	0.1	-9.444e-003
7507	19.219	4.9091	0.1	-5.9375e-003
7508	19.219	5.0909	0.1	-1.5871e-003
7509	19.219	5.2727	0.1	5.3316e-003
7510	19.219	5.4545	0.1	9.964e-003
7511	19.219	5.6364	0.1	4.1272e-002
7512	19.219	5.8182	0.1	7.1064e-003
7513	19.404	0.18182	0.1	9.1571e-003
7514	19.404	0.36364	0.1	4.43e-002
7515	19.404	0.54545	0.1	1.0121e-002
7516	19.404	0.72727	0.1	5.0641e-003
7517	19.404	0.90909	0.1	-2.3307e-003
7518	19.404	1.0909	0.1	-6.9015e-003
7519	19.404	1.2727	0.1	-1.0543e-002
7520	19.404	1.4545	0.1	-1.3201e-002
7521	19.404	1.6364	0.1	-1.5169e-002
7522	19.404	1.8182	0.1	-1.6582e-002
7523	19.404	2.	0.1	-1.757e-002
7524	19.404	2.1818	0.1	-1.8229e-002
7525	19.404	2.3636	0.1	-1.8648e-002
7526	19.404	2.5455	0.1	-1.8897e-002
7527	19.404	2.7273	0.1	-1.903e-002
7528	19.404	2.9091	0.1	-1.9088e-002
7529	19.404	3.0909	0.1	-1.9088e-002
7530	19.404	3.2727	0.1	-1.903e-002
7531	19.404	3.4545	0.1	-1.8897e-002
7532	19.404	3.6364	0.1	-1.8648e-002
7533	19.404	3.8182	0.1	-1.823e-002
7534	19.404	4.	0.1	-1.757e-002
7535	19.404	4.1818	0.1	-1.6583e-002
7536	19.404	4.3636	0.1	-1.5169e-002
7537	19.404	4.5455	0.1	-1.3202e-002
7538	19.404	4.7273	0.1	-1.0543e-002
7539	19.404	4.9091	0.1	-6.9016e-003
7540	19.404	5.0909	0.1	-2.3289e-003
7541	19.404	5.2727	0.1	5.0673e-003
7542	19.404	5.4545	0.1	1.0119e-002
7543	19.404	5.6364	0.1	4.4298e-002
7544	19.404	5.8182	0.1	9.1578e-003
7545	19.589	0.18182	0.1	1.1738e-002
7546	19.589	0.36364	0.1	4.7622e-002
7547	19.589	0.54545	0.1	1.0204e-002
7548	19.589	0.72727	0.1	4.6863e-003
7549	19.589	0.90909	0.1	-3.2313e-003
7550	19.589	1.0909	0.1	-8.0384e-003
7551	19.589	1.2727	0.1	-1.1821e-002
7552	19.589	1.4545	0.1	-1.4534e-002
7553	19.589	1.6364	0.1	-1.6499e-002
7554	19.589	1.8182	0.1	-1.7863e-002
7555	19.589	2.	0.1	-1.8768e-002
7556	19.589	2.1818	0.1	-1.933e-002
7557	19.589	2.3636	0.1	-1.9646e-002
7558	19.589	2.5455	0.1	-1.9804e-002
7559	19.589	2.7273	0.1	-1.987e-002
7560	19.589	2.9091	0.1	-1.9889e-002
7561	19.589	3.0909	0.1	-1.9888e-002
7562	19.589	3.2727	0.1	-1.987e-002
7563	19.589	3.4545	0.1	-1.9804e-002
7564	19.589	3.6364	0.1	-1.9645e-002
7565	19.589	3.8182	0.1	-1.9331e-002
7566	19.589	4.	0.1	-1.8767e-002
7567	19.589	4.1818	0.1	-1.7864e-002
7568	19.589	4.3636	0.1	-1.6497e-002
7569	19.589	4.5455	0.1	-1.4534e-002
7570	19.589	4.7273	0.1	-1.1821e-002
7571	19.589	4.9091	0.1	-8.0389e-003
7572	19.589	5.0909	0.1	-3.2289e-003
7573	19.589	5.2727	0.1	4.6879e-003
7574	19.589	5.4545	0.1	1.0202e-002
7575	19.589	5.6364	0.1	4.7621e-002
7576	19.589	5.8182	0.1	1.1736e-002
7577	19.774	0.18182	0.1	1.4984e-002
7578	19.774	0.36364	0.1	5.1267e-002
7579	19.774	0.54545	0.1	1.019e-002
7580	19.774	0.72727	0.1	4.1643e-003
7581	19.774	0.90909	0.1	-4.3185e-003
7582	19.774	1.0909	0.1	-9.3822e-003
7583	19.774	1.2727	0.1	-1.3314e-002
7584	19.774	1.4545	0.1	-1.6078e-002
7585	19.774	1.6364	0.1	-1.8027e-002
7586	19.774	1.8182	0.1	-1.9321e-002
7587	19.774	2.	0.1	-2.0118e-002
7588	19.774	2.1818	0.1	-2.0547e-002
7589	19.774	2.3636	0.1	-2.0728e-002
7590	19.774	2.5455	0.1	-2.0763e-002
7591	19.774	2.7273	0.1	-2.0735e-002
7592	19.774	2.9091	0.1	-2.0706e-002
7593	19.774	3.0909	0.1	-2.0707e-002
7594	19.774	3.2727	0.1	-2.0735e-002
7595	19.774	3.4545	0.1	-2.0762e-002
7596	19.774	3.6364	0.1	-2.0728e-002
7597	19.774	3.8182	0.1	-2.0547e-002
7598	19.774	4.	0.1	-2.0118e-002
7599	19.774	4.1818	0.1	-1.932e-002
7600	19.774	4.3636	0.1	-1.8026e-002
7601	19.774	4.5455	0.1	-1.6078e-002
7602	19.774	4.7273	0.1	-1.3315e-002
7603	19.774	4.9091	0.1	-9.381e-003
7604	19.774	5.0909	0.1	-4.3174e-003
7605	19.774	5.2727	0.1	4.1672e-003
7606	19.774	5.4545	0.1	1.0191e-002
7607	19.774	5.6364	0.1	5.1268e-002
7608	19.774	5.8182	0.1	1.4983e-002
7609	19.958	0.18182	0.1	1.9061e-002
7610	19.958	0.36364	0.1	5.5252e-002
7611	19.958	0.54545	0.1	1.0054e-002
7612	19.958	0.72727	0.1	3.4718e-003
7613	19.958	0.90909	0.1	-5.6269e-003
7614	19.958	1.0909	0.1	-1.0964e-002
7615	19.958	1.2727	0.1	-1.5058e-002
7616	19.958	1.4545	0.1	-1.7873e-002
7617	19.958	1.6364	0.1	-1.9795e-002
7618	19.958	1.8182	0.1	-2.0994e-002
7619	19.958	2.	0.1	-2.1647e-002
7620	19.958	2.1818	0.1	-2.19e-002
7621	19.958	2.3636	0.1	-2.1898e-002
7622	19.958	2.5455	0.1	-2.1769e-002
7623	19.958	2.7273	0.1	-2.1618e-002
7624	19.958	2.9091	0.1	-2.1521e-002
7625	19.958	3.0909	0.1	-2.1521e-002
7626	19.958	3.2727	0.1	-2.1617e-002
7627	19.958	3.4545	0.1	-2.1769e-002
7628	19.958	3.6364	0.1	-2.1898e-002
7629	19.958	3.8182	0.1	-2.19e-002
7630	19.958	4.	0.1	-2.1647e-002
7631	19.958	4.1818	0.1	-2.0995e-002
7632	19.958	4.3636	0.1	-1.9795e-002
7633	19.958	4.5455	0.1	-1.7873e-002
7634	19.958	4.7273	0.1	-1.5057e-002
7635	19.958	4.9091	0.1	-1.0962e-002
7636	19.958	5.0909	0.1	-5.6285e-003
7637	19.958	5.2727	0.1	3.4728e-003
7638	19.958	5.4545	0.1	1.0052e-002
7639	19.958	5.6364	0.1	5.5252e-002
7640	19.958	5.8182	0.1	1.9063e-002
7641	20.143	0.18182	0.1	2.4175e-002
7642	20.143	0.36364	0.1	5.9576e-002
7643	20.143	0.54545	0.1	9.7507e-003
7644	20.143	0.72727	0.1	2.5701e-003
7645	20.143	0.90909	0.1	-7.197e-003
7646	20.143	1.0909	0.1	-1.2825e-002
7647	20.143	1.2727	0.1	-1.7096e-002
7648	20.143	1.4545	0.1	-1.997e-002
7649	20.143	1.6364	0.1	-2.1852e-002
7650	20.143	1.8182	0.1	-2.2929e-002
7651	20.143	2.	0.1	-2.339e-002
7652	20.143	2.1818	0.1	-2.3409e-002
7653	20.143	2.3636	0.1	-2.3163e-002
7654	20.143	2.5455	0.1	-2.2812e-002
7655	20.143	2.7273	0.1	-2.2494e-002
7656	20.143	2.9091	0.1	-2.2308e-002
7657	20.143	3.0909	0.1	-2.2308e-002
7658	20.143	3.2727	0.1	-2.2494e-002
7659	20.143	3.4545	0.1	-2.2812e-002
7660	20.143	3.6364	0.1	-2.3163e-002
7661	20.143	3.8182	0.1	-2.341e-002
7662	20.143	4.	0.1	-2.339e-002
7663	20.143	4.1818	0.1	-2.2929e-002
7664	20.143	4.3636	0.1	-2.1852e-002
7665	20.143	4.5455	0.1	-1.9967e-002
7666	20.143	4.7273	0.1	-1.7096e-002
7667	20.143	4.9091	0.1	-1.2824e-002
7668	20.143	5.0909	0.1	-7.1948e-003
7669	20.143	5.2727	0.1	2.5705e-003
7670	20.143	5.4545	0.1	9.7468e-003
7671	20.143	5.6364	0.1	5.9575e-002
7672	20.143	5.8182	0.1	2.418e-002
7673	20.328	0.18182	0.1	3.0569e-002
7674	20.328	0.36364	0.1	6.422e-002
7675	20.328	0.54545	0.1	9.2282e-003
7676	20.328	0.72727	0.1	1.4216e-003
7677	20.328	0.90909	0.1	-9.0612e-003
7678	20.328	1.0909	0.1	-1.501e-002
7679	20.328	1.2727	0.1	-1.9481e-002
7680	20.328	1.4545	0.1	-2.2425e-002
7681	20.328	1.6364	0.1	-2.4263e-002
7682	20.328	1.8182	0.1	-2.518e-002
7683	20.328	2.	0.1	-2.5392e-002
7684	20.328	2.1818	0.1	-2.51e-002
7685	20.328	2.3636	0.1	-2.4525e-002
7686	20.328	2.5455	0.1	-2.3875e-002
7687	20.328	2.7273	0.1	-2.3331e-002
7688	20.328	2.9091	0.1	-2.3023e-002
7689	20.328	3.0909	0.1	-2.3023e-002
7690	20.328	3.2727	0.1	-2.333e-002
7691	20.328	3.4545	0.1	-2.3875e-002
7692	20.328	3.6364	0.1	-2.4526e-002
7693	20.328	3.8182	0.1	-2.5101e-002
7694	20.328	4.	0.1	-2.5392e-002
7695	20.328	4.1818	0.1	-2.5181e-002
7696	20.328	4.3636	0.1	-2.4262e-002
7697	20.328	4.5455	0.1	-2.2424e-002
7698	20.328	4.7273	0.1	-1.9481e-002
7699	20.328	4.9091	0.1	-1.5009e-002
7700	20.328	5.0909	0.1	-9.0579e-003
7701	20.328	5.2727	0.1	1.4233e-003
7702	20.328	5.4545	0.1	9.2255e-003
7703	20.328	5.6364	0.1	6.422e-002
7704	20.328	5.8182	0.1	3.057e-002
7705	20.513	0.18182	0.1	3.8489e-002
7706	20.513	0.36364	0.1	6.9131e-002
7707	20.513	0.54545	0.1	8.4333e-003
7708	20.513	0.72727	0.1	-1.6368e-005
7709	20.513	0.90909	0.1	-1.1257e-002
7710	20.513	1.0909	0.1	-1.7561e-002
7711	20.513	1.2727	0.1	-2.2273e-002
7712	20.513	1.4545	0.1	-2.531e-002
7713	20.513	1.6364	0.1	-2.7102e-002
7714	20.513	1.8182	0.1	-2.7827e-002
7715	20.513	2.	0.1	-2.7711e-002
7716	20.513	2.1818	0.1	-2.7001e-002
7717	20.513	2.3636	0.1	-2.5981e-002
7718	20.513	2.5455	0.1	-2.4925e-002
7719	20.513	2.7273	0.1	-2.4073e-002
7720	20.513	2.9091	0.1	-2.3601e-002
7721	20.513	3.0909	0.1	-2.3601e-002
7722	20.513	3.2727	0.1	-2.4074e-002
7723	20.513	3.4545	0.1	-2.4924e-002
7724	20.513	3.6364	0.1	-2.5982e-002
7725	20.513	3.8182	0.1	-2.7002e-002
7726	20.513	4.	0.1	-2.7708e-002
7727	20.513	4.1818	0.1	-2.7827e-002
7728	20.513	4.3636	0.1	-2.7103e-002
7729	20.513	4.5455	0.1	-2.5311e-002
7730	20.513	4.7273	0.1	-2.2273e-002
7731	20.513	4.9091	0.1	-1.756e-002
7732	20.513	5.0909	0.1	-1.1256e-002
7733	20.513	5.2727	0.1	-1.5249e-005
7734	20.513	5.4545	0.1	8.4308e-003
7735	20.513	5.6364	0.1	6.9127e-002
7736	20.513	5.8182	0.1	3.8493e-002
7737	20.698	0.18182	0.1	4.8197e-002
7738	20.698	0.36364	0.1	7.418e-002
7739	20.698	0.54545	0.1	7.2827e-003
7740	20.698	0.72727	0.1	-1.7907e-003
7741	20.698	0.90909	0.1	-1.3823e-002
7742	20.698	1.0909	0.1	-2.0522e-002
7743	20.698	1.2727	0.1	-2.5536e-002
7744	20.698	1.4545	0.1	-2.8722e-002
7745	20.698	1.6364	0.1	-3.048e-002
7746	20.698	1.8182	0.1	-3.0965e-002
7747	20.698	2.	0.1	-3.0418e-002
7748	20.698	2.1818	0.1	-2.9149e-002
7749	20.698	2.3636	0.1	-2.7519e-002
7750	20.698	2.5455	0.1	-2.5911e-002
7751	20.698	2.7273	0.1	-2.4643e-002
7752	20.698	2.9091	0.1	-2.395e-002
7753	20.698	3.0909	0.1	-2.395e-002
7754	20.698	3.2727	0.1	-2.4643e-002
7755	20.698	3.4545	0.1	-2.5911e-002
7756	20.698	3.6364	0.1	-2.752e-002
7757	20.698	3.8182	0.1	-2.9148e-002
7758	20.698	4.	0.1	-3.0419e-002
7759	20.698	4.1818	0.1	-3.0965e-002
7760	20.698	4.3636	0.1	-3.048e-002
7761	20.698	4.5455	0.1	-2.8722e-002
7762	20.698	4.7273	0.1	-2.5536e-002
7763	20.698	4.9091	0.1	-2.0523e-002
7764	20.698	5.0909	0.1	-1.3821e-002
7765	20.698	5.2727	0.1	-1.7872e-003
7766	20.698	5.4545	0.1	7.2811e-003
7767	20.698	5.6364	0.1	7.418e-002
7768	20.698	5.8182	0.1	4.8197e-002
7769	20.882	0.18182	0.1	5.9861e-002
7770	20.882	0.36364	0.1	7.9153e-002
7771	20.882	0.54545	0.1	5.6708e-003
7772	20.882	0.72727	0.1	-3.9559e-003
7773	20.882	0.90909	0.1	-1.6787e-002
7774	20.882	1.0909	0.1	-2.3937e-002
7775	20.882	1.2727	0.1	-2.9344e-002
7776	20.882	1.4545	0.1	-3.2766e-002
7777	20.882	1.6364	0.1	-3.4536e-002
7778	20.882	1.8182	0.1	-3.4738e-002
7779	20.882	2.	0.1	-3.3623e-002
7780	20.882	2.1818	0.1	-3.1582e-002
7781	20.882	2.3636	0.1	-2.9116e-002
7782	20.882	2.5455	0.1	-2.6749e-002
7783	20.882	2.7273	0.1	-2.4918e-002
7784	20.882	2.9091	0.1	-2.3928e-002
7785	20.882	3.0909	0.1	-2.3928e-002
7786	20.882	3.2727	0.1	-2.4919e-002
7787	20.882	3.4545	0.1	-2.6748e-002
7788	20.882	3.6364	0.1	-2.9117e-002
7789	20.882	3.8182	0.1	-3.1581e-002
7790	20.882	4.	0.1	-3.3623e-002
7791	20.882	4.1818	0.1	-3.4737e-002
7792	20.882	4.3636	0.1	-3.4536e-002
7793	20.882	4.5455	0.1	-3.2766e-002
7794	20.882	4.7273	0.1	-2.9346e-002
7795	20.882	4.9091	0.1	-2.3936e-002
7796	20.882	5.0909	0.1	-1.6787e-002
7797	20.882	5.2727	0.1	-3.9533e-003
7798	20.882	5.4545	0.1	5.6736e-003
7799	20.882	5.6364	0.1	7.9151e-002
7800	20.882	5.8182	0.1	5.9859e-002
7801	21.067	0.18182	0.1	7.3445e-002
7802	21.067	0.36364	0.1	8.3662e-002
7803	21.067	0.54545	0.1	3.455e-003
7804	21.067	0.72727	0.1	-6.5754e-003
7805	21.067	0.90909	0.1	-2.0172e-002
7806	21.067	1.0909	0.1	-2.7828e-002
7807	21.067	1.2727	0.1	-3.3772e-002
7808	21.067	1.4545	0.1	-3.7584e-002
7809	21.067	1.6364	0.1	-3.9452e-002
7810	21.067	1.8182	0.1	-3.9331e-002
7811	21.067	2.	0.1	-3.7455e-002
7812	21.067	2.1818	0.1	-3.4336e-002
7813	21.067	2.3636	0.1	-3.0705e-002
7814	21.067	2.5455	0.1	-2.7298e-002
7815	21.067	2.7273	0.1	-2.4716e-002
7816	21.067	2.9091	0.1	-2.3338e-002
7817	21.067	3.0909	0.1	-2.3338e-002
7818	21.067	3.2727	0.1	-2.4715e-002
7819	21.067	3.4545	0.1	-2.7298e-002
7820	21.067	3.6364	0.1	-3.0705e-002
7821	21.067	3.8182	0.1	-3.4336e-002
7822	21.067	4.	0.1	-3.7455e-002
7823	21.067	4.1818	0.1	-3.9332e-002
7824	21.067	4.3636	0.1	-3.945e-002
7825	21.067	4.5455	0.1	-3.7584e-002
7826	21.067	4.7273	0.1	-3.3771e-002
7827	21.067	4.9091	0.1	-2.7829e-002
7828	21.067	5.0909	0.1	-2.0171e-002
7829	21.067	5.2727	0.1	-6.5723e-003
7830	21.067	5.4545	0.1	3.4544e-003
7831	21.067	5.6364	0.1	8.3659e-002
7832	21.067	5.8182	0.1	7.3445e-002
7833	21.252	0.18182	0.1	8.8492e-002
7834	21.252	0.36364	0.1	8.7066e-002
7835	21.252	0.54545	0.1	3.8836e-004
7836	21.252	0.72727	0.1	-9.7635e-003
7837	21.252	0.90909	0.1	-2.3999e-002
7838	21.252	1.0909	0.1	-3.2213e-002
7839	21.252	1.2727	0.1	-3.8891e-002
7840	21.252	1.4545	0.1	-4.3366e-002
7841	21.252	1.6364	0.1	-4.5537e-002
7842	21.252	1.8182	0.1	-4.5067e-002
7843	21.252	2.	0.1	-4.2155e-002
7844	21.252	2.1818	0.1	-3.7507e-002
7845	21.252	2.3636	0.1	-3.2188e-002
7846	21.252	2.5455	0.1	-2.7332e-002
7847	21.252	2.7273	0.1	-2.3757e-002
7848	21.252	2.9091	0.1	-2.1892e-002
7849	21.252	3.0909	0.1	-2.1892e-002
7850	21.252	3.2727	0.1	-2.3755e-002
7851	21.252	3.4545	0.1	-2.7331e-002
7852	21.252	3.6364	0.1	-3.2187e-002
7853	21.252	3.8182	0.1	-3.7507e-002
7854	21.252	4.	0.1	-4.2155e-002
7855	21.252	4.1818	0.1	-4.5066e-002
7856	21.252	4.3636	0.1	-4.5537e-002
7857	21.252	4.5455	0.1	-4.3365e-002
7858	21.252	4.7273	0.1	-3.8891e-002
7859	21.252	4.9091	0.1	-3.2212e-002
7860	21.252	5.0909	0.1	-2.3996e-002
7861	21.252	5.2727	0.1	-9.7626e-003
7862	21.252	5.4545	0.1	3.8715e-004
7863	21.252	5.6364	0.1	8.7067e-002
7864	21.252	5.8182	0.1	8.8493e-002
7865	21.437	0.18182	0.1	0.10373
7866	21.437	0.36364	0.1	8.8358e-002
7867	21.437	0.54545	0.1	-3.9241e-003
7868	21.437	0.72727	0.1	-1.3708e-002
7869	21.437	0.90909	0.1	-2.8292e-002
7870	21.437	1.0909	0.1	-3.706e-002
7871	21.437	1.2727	0.1	-4.4725e-002
7872	21.437	1.4545	0.1	-5.0256e-002
7873	21.437	1.6364	0.1	-5.3017e-002
7874	21.437	1.8182	0.1	-5.2289e-002
7875	21.437	2.	0.1	-4.7906e-002
7876	21.437	2.1818	0.1	-4.0922e-002
7877	21.437	2.3636	0.1	-3.3241e-002
7878	21.437	2.5455	0.1	-2.6456e-002
7879	21.437	2.7273	0.1	-2.1626e-002
7880	21.437	2.9091	0.1	-1.9192e-002
7881	21.437	3.0909	0.1	-1.9192e-002
7882	21.437	3.2727	0.1	-2.1627e-002
7883	21.437	3.4545	0.1	-2.6456e-002
7884	21.437	3.6364	0.1	-3.3239e-002
7885	21.437	3.8182	0.1	-4.0923e-002
7886	21.437	4.	0.1	-4.7907e-002
7887	21.437	4.1818	0.1	-5.2288e-002
7888	21.437	4.3636	0.1	-5.3018e-002
7889	21.437	4.5455	0.1	-5.0256e-002
7890	21.437	4.7273	0.1	-4.4725e-002
7891	21.437	4.9091	0.1	-3.706e-002
7892	21.437	5.0909	0.1	-2.8292e-002
7893	21.437	5.2727	0.1	-1.3707e-002
7894	21.437	5.4545	0.1	-3.922e-003
7895	21.437	5.6364	0.1	8.8356e-002
7896	21.437	5.8182	0.1	0.10373
7897	21.622	0.18182	0.1	0.11647
7898	21.622	0.36364	0.1	8.588e-002
7899	21.622	0.54545	0.1	-1.0223e-002
7900	21.622	0.72727	0.1	-1.8882e-002
7901	21.622	0.90909	0.1	-3.3252e-002
7902	21.622	1.0909	0.1	-4.2397e-002
7903	21.622	1.2727	0.1	-5.1346e-002
7904	21.622	1.4545	0.1	-5.8752e-002
7905	21.622	1.6364	0.1	-6.3191e-002
7906	21.622	1.8182	0.1	-6.2103e-002
7907	21.622	2.	0.1	-5.572e-002
7908	21.622	2.1818	0.1	-4.5524e-002
7909	21.622	2.3636	0.1	-3.3791e-002
7910	21.622	2.5455	0.1	-2.3982e-002
7911	21.622	2.7273	0.1	-1.7688e-002
7912	21.622	2.9091	0.1	-1.4721e-002
7913	21.622	3.0909	0.1	-1.472e-002
7914	21.622	3.2727	0.1	-1.7688e-002
7915	21.622	3.4545	0.1	-2.3981e-002
7916	21.622	3.6364	0.1	-3.3793e-002
7917	21.622	3.8182	0.1	-4.5522e-002
7918	21.622	4.	0.1	-5.5721e-002
7919	21.622	4.1818	0.1	-6.2102e-002
7920	21.622	4.3636	0.1	-6.319e-002
7921	21.622	4.5455	0.1	-5.8752e-002
7922	21.622	4.7273	0.1	-5.1345e-002
7923	21.622	4.9091	0.1	-4.2398e-002
7924	21.622	5.0909	0.1	-3.3252e-002
7925	21.622	5.2727	0.1	-1.8882e-002
7926	21.622	5.4545	0.1	-1.0219e-002
7927	21.622	5.6364	0.1	8.588e-002
7928	21.622	5.8182	0.1	0.11647
7929	21.806	0.18182	0.1	0.12202
7930	21.806	0.36364	0.1	7.7342e-002
7931	21.806	0.54545	0.1	-1.959e-002
7932	21.806	0.72727	0.1	-2.6006e-002
7933	21.806	0.90909	0.1	-3.9152e-002
7934	21.806	1.0909	0.1	-4.8134e-002
7935	21.806	1.2727	0.1	-5.8473e-002
7936	21.806	1.4545	0.1	-6.8035e-002
7937	21.806	1.6364	0.1	-7.3654e-002
7938	21.806	1.8182	0.1	-7.4612e-002
7939	21.806	2.	0.1	-6.4933e-002
7940	21.806	2.1818	0.1	-4.7329e-002
7941	21.806	2.3636	0.1	-3.1428e-002
7942	21.806	2.5455	0.1	-1.9039e-002
7943	21.806	2.7273	0.1	-1.0983e-002
7944	21.806	2.9091	0.1	-7.7192e-003
7945	21.806	3.0909	0.1	-7.7198e-003
7946	21.806	3.2727	0.1	-1.0983e-002
7947	21.806	3.4545	0.1	-1.904e-002
7948	21.806	3.6364	0.1	-3.1428e-002
7949	21.806	3.8182	0.1	-4.733e-002
7950	21.806	4.	0.1	-6.4932e-002
7951	21.806	4.1818	0.1	-7.4612e-002
7952	21.806	4.3636	0.1	-7.3653e-002
7953	21.806	4.5455	0.1	-6.8035e-002
7954	21.806	4.7273	0.1	-5.8473e-002
7955	21.806	4.9091	0.1	-4.8133e-002
7956	21.806	5.0909	0.1	-3.9151e-002
7957	21.806	5.2727	0.1	-2.6006e-002
7958	21.806	5.4545	0.1	-1.9588e-002
7959	21.806	5.6364	0.1	7.734e-002
7960	21.806	5.8182	0.1	0.12202
7961	21.991	0.18182	0.1	0.11195
7962	21.991	0.36364	0.1	5.858e-002
7963	21.991	0.54545	0.1	-3.4842e-002
7964	21.991	0.72727	0.1	-3.762e-002
7965	21.991	0.90909	0.1	-4.8163e-002
7966	21.991	1.0909	0.1	-5.5731e-002
7967	21.991	1.2727	0.1	-6.6214e-002
7968	21.991	1.4545	0.1	-8.1458e-002
7969	21.991	1.6364	0.1	-0.10006
7970	21.991	1.8182	0.1	-9.5183e-002
7971	21.991	2.	0.1	-8.2292e-002
7972	21.991	2.1818	0.1	-6.4129e-002
7973	21.991	2.3636	0.1	-3.0215e-002
7974	21.991	2.5455	0.1	-7.5421e-003
7975	21.991	2.7273	0.1	-3.6669e-004
7976	21.991	2.9091	0.1	2.4444e-003
7977	21.991	3.0909	0.1	2.4451e-003
7978	21.991	3.2727	0.1	-3.6583e-004
7979	21.991	3.4545	0.1	-7.5403e-003
7980	21.991	3.6364	0.1	-3.0215e-002
7981	21.991	3.8182	0.1	-6.4129e-002
7982	21.991	4.	0.1	-8.2292e-002
7983	21.991	4.1818	0.1	-9.5182e-002
7984	21.991	4.3636	0.1	-0.10006
7985	21.991	4.5455	0.1	-8.1458e-002
7986	21.991	4.7273	0.1	-6.6213e-002
7987	21.991	4.9091	0.1	-5.573e-002
7988	21.991	5.0909	0.1	-4.8162e-002
7989	21.991	5.2727	0.1	-3.7619e-002
7990	21.991	5.4545	0.1	-3.4842e-002
7991	21.991	5.6364	0.1	5.8578e-002
7992	21.991	5.8182	0.1	0.11195
7993	22.176	0.18182	0.1	7.7192e-002
7994	22.176	0.36364	0.1	2.7139e-002
7995	22.176	0.54545	0.1	-5.6642e-002
7996	22.176	0.72727	0.1	-5.4454e-002
7997	22.176	0.90909	0.1	-6.0001e-002
7998	22.176	1.0909	0.1	-6.3503e-002
7999	22.176	1.2727	0.1	-7.5635e-002
8000	22.176	1.4545	0.1	-8.9935e-002
8001	22.176	1.6364	0.1	-7.5831e-002
8002	22.176	1.8182	0.1	-0.12015
8003	22.176	2.	0.1	-9.7875e-002
8004	22.176	2.1818	0.1	-1.6097e-002
8005	22.176	2.3636	0.1	-8.5782e-003
8006	22.176	2.5455	0.1	4.491e-003
8007	22.176	2.7273	0.1	1.853e-002
8008	22.176	2.9091	0.1	1.7589e-002
8009	22.176	3.0909	0.1	1.7592e-002
8010	22.176	3.2727	0.1	1.8529e-002
8011	22.176	3.4545	0.1	4.4923e-003
8012	22.176	3.6364	0.1	-8.5795e-003
8013	22.176	3.8182	0.1	-1.6097e-002
8014	22.176	4.	0.1	-9.7874e-002
8015	22.176	4.1818	0.1	-0.12015
8016	22.176	4.3636	0.1	-7.5831e-002
8017	22.176	4.5455	0.1	-8.9934e-002
8018	22.176	4.7273	0.1	-7.5636e-002
8019	22.176	4.9091	0.1	-6.3502e-002
8020	22.176	5.0909	0.1	-5.9998e-002
8021	22.176	5.2727	0.1	-5.4455e-002
8022	22.176	5.4545	0.1	-5.6639e-002
8023	22.176	5.6364	0.1	2.7135e-002
8024	22.176	5.8182	0.1	7.719e-002
8025	22.361	0.18182	0.1	-6.3183e-003
8026	22.361	0.36364	0.1	-3.3091e-002
8027	22.361	0.54545	0.1	-0.10069
8028	22.361	0.72727	0.1	-9.3324e-002
8029	22.361	0.90909	0.1	-9.4326e-002
8030	22.361	1.0909	0.1	-9.6543e-002
8031	22.361	1.2727	0.1	-9.4612e-002
8032	22.361	1.4545	0.1	-9.5872e-002
8033	22.361	1.6364	0.1	-0.30254
8034	22.361	1.8182	0.1	-0.17247
8035	22.361	2.	0.1	-0.16377
8036	22.361	2.1818	0.1	-0.26073
8037	22.361	2.3636	0.1	5.4152e-003
8038	22.361	2.5455	0.1	5.5588e-002
8039	22.361	2.7273	0.1	3.9981e-002
8040	22.361	2.9091	0.1	3.7188e-002
8041	22.361	3.0909	0.1	3.7188e-002
8042	22.361	3.2727	0.1	3.9981e-002
8043	22.361	3.4545	0.1	5.5588e-002
8044	22.361	3.6364	0.1	5.4157e-003
8045	22.361	3.8182	0.1	-0.26073
8046	22.361	4.	0.1	-0.16377
8047	22.361	4.1818	0.1	-0.17247
8048	22.361	4.3636	0.1	-0.30254
8049	22.361	4.5455	0.1	-9.5871e-002
8050	22.361	4.7273	0.1	-9.4612e-002
8051	22.361	4.9091	0.1	-9.6542e-002
8052	22.361	5.0909	0.1	-9.4324e-002
8053	22.361	5.2727	0.1	-9.3323e-002
8054	22.361	5.4545	0.1	-0.10069
8055	22.361	5.6364	0.1	-3.3094e-002
8056	22.361	5.8182	0.1	-6.3173e-003
8057	22.546	0.18182	0.1	-0.10782
8058	22.546	0.36364	0.1	-8.4431e-002
8059	22.546	0.54545	0.1	-0.12745
8060	22.546	0.72727	0.1	-0.1127
8061	22.546	0.90909	0.1	-0.11032
8062	22.546	1.0909	0.1	-9.1635e-002
8063	22.546	1.2727	0.1	-0.10605
8064	22.546	1.4545	0.1	-0.19417
8065	22.546	1.6364	0.1	0.40382
8066	22.546	1.8182	0.1	-0.11325
8067	22.546	2.	0.1	3.842e-002
8068	22.546	2.1818	0.1	0.60036
8069	22.546	2.3636	0.1	5.7647e-004
8070	22.546	2.5455	0.1	0.11329
8071	22.546	2.7273	0.1	8.9347e-002
8072	22.546	2.9091	0.1	7.1307e-002
8073	22.546	3.0909	0.1	7.1308e-002
8074	22.546	3.2727	0.1	8.9347e-002
8075	22.546	3.4545	0.1	0.1133
8076	22.546	3.6364	0.1	5.7786e-004
8077	22.546	3.8182	0.1	0.60035
8078	22.546	4.	0.1	3.8422e-002
8079	22.546	4.1818	0.1	-0.11325
8080	22.546	4.3636	0.1	0.40382
8081	22.546	4.5455	0.1	-0.19417
8082	22.546	4.7273	0.1	-0.10605
8083	22.546	4.9091	0.1	-9.1634e-002
8084	22.546	5.0909	0.1	-0.11032
8085	22.546	5.2727	0.1	-0.1127
8086	22.546	5.4545	0.1	-0.12745
8087	22.546	5.6364	0.1	-8.4433e-002
8088	22.546	5.8182	0.1	-0.10782
8089	22.73	0.18182	0.1	-0.41992
8090	22.73	0.36364	0.1	-0.33412
8091	22.73	0.54545	0.1	-0.34931
8092	22.73	0.72727	0.1	-0.35236
8093	22.73	0.90909	0.1	-0.36285
8094	22.73	1.0909	0.1	-0.3981
8095	22.73	1.2727	0.1	-0.40457
8096	22.73	1.4545	0.1	-0.47431
8097	22.73	1.6364	0.1	-1.162
8098	22.73	1.8182	0.1	-2.3005
8099	22.73	2.	0.1	-1.9136
8100	22.73	2.1818	0.1	-1.7572
8101	22.73	2.3636	0.1	0.49615
8102	22.73	2.5455	0.1	0.18547
8103	22.73	2.7273	0.1	0.15172
8104	22.73	2.9091	0.1	7.5317e-002
8105	22.73	3.0909	0.1	7.5317e-002
8106	22.73	3.2727	0.1	0.15172
8107	22.73	3.4545	0.1	0.18547
8108	22.73	3.6364	0.1	0.49615
8109	22.73	3.8182	0.1	-1.7572
8110	22.73	4.	0.1	-1.9136
8111	22.73	4.1818	0.1	-2.3005
8112	22.73	4.3636	0.1	-1.162
8113	22.73	4.5455	0.1	-0.47431
8114	22.73	4.7273	0.1	-0.40457
8115	22.73	4.9091	0.1	-0.3981
8116	22.73	5.0909	0.1	-0.36285
8117	22.73	5.2727	0.1	-0.35236
8118	22.73	5.4545	0.1	-0.34931
8119	22.73	5.6364	0.1	-0.33413
8120	22.73	5.8182	0.1	-0.41992
8121	22.915	0.18182	0.1	0.11121
8122	22.915	0.36364	0.1	2.3884e-002
8123	22.915	0.54545	0.1	3.5422e-002
8124	22.915	0.72727	0.1	5.2766e-002
8125	22.915	0.90909	0.1	4.3018e-002
8126	22.915	1.0909	0.1	0.14982
8127	22.915	1.2727	0.1	-0.19805
8128	22.915	1.4545	0.1	1.1261
8129	22.915	1.6364	0.1	-3.3383
8130	22.915	1.8182	0.1	3.2737
8131	22.915	2.	0.1	30.129
8132	22.915	2.1818	0.1	-1.2345
8133	22.915	2.3636	0.1	2.4826
8134	22.915	2.5455	0.1	4.9189e-002
8135	22.915	2.7273	0.1	0.35991
8136	22.915	2.9091	0.1	0.1685
8137	22.915	3.0909	0.1	0.1685
8138	22.915	3.2727	0.1	0.35991
8139	22.915	3.4545	0.1	4.9189e-002
8140	22.915	3.6364	0.1	2.4826
8141	22.915	3.8182	0.1	-1.2345
8142	22.915	4.	0.1	30.129
8143	22.915	4.1818	0.1	3.2738
8144	22.915	4.3636	0.1	-3.3383
8145	22.915	4.5455	0.1	1.1261
8146	22.915	4.7273	0.1	-0.19805
8147	22.915	4.9091	0.1	0.14982
8148	22.915	5.0909	0.1	4.3019e-002
8149	22.915	5.2727	0.1	5.2765e-002
8150	22.915	5.4545	0.1	3.5425e-002
8151	22.915	5.6364	0.1	2.3883e-002
8152	22.915	5.8182	0.1	0.11121
8153	23.45	4.	0.1	34.889
8154	23.633	4.	0.1	2.5119
8155	23.817	4.	0.1	2.9149
8156	23.817	2.	0.1	2.9149
8157	23.633	2.	0.1	2.5119
8158	23.45	2.	0.1	34.889
8159	23.1	3.8182	0.1	-15.397
8160	23.1	3.6364	0.1	1.5623
8161	23.1	3.4545	0.1	0.26432
8162	23.1	3.2727	0.1	0.21342
8163	23.1	3.0909	0.1	0.16005
8164	23.1	2.9091	0.1	0.16005
8165	23.1	2.7273	0.1	0.21342
8166	23.1	2.5455	0.1	0.26432
8167	23.1	2.3636	0.1	1.5623
8168	23.1	2.1818	0.1	-15.397
8169	23.267	5.8182	0.1	0.20618
8170	23.267	5.6364	0.1	-3.8928e-002
8171	23.267	5.4545	0.1	-6.217e-002
8172	23.267	5.2727	0.1	-9.4605e-002
8173	23.267	5.0909	0.1	-0.10174
8174	23.267	4.9091	0.1	-0.13058
8175	23.267	4.7273	0.1	-1.0816e-002
8176	23.267	4.5455	0.1	-0.28827
8177	23.267	4.3636	0.1	8.7628
8178	23.267	4.1818	0.1	1.5492
8179	23.267	4.	0.1	203.93
8180	23.1	4.	0.1	-8.45
8181	23.1	4.1818	0.1	5.2438
8182	23.1	4.3636	0.1	-7.7535
8183	23.1	4.5455	0.1	-1.9775
8184	23.1	4.7273	0.1	-2.7806
8185	23.1	4.9091	0.1	-2.0046
8186	23.1	5.0909	0.1	-1.9185
8187	23.1	5.2727	0.1	-1.7347
8188	23.1	5.4545	0.1	-1.6261
8189	23.1	5.6364	0.1	-1.5702
8190	23.1	5.8182	0.1	-1.3995
8191	23.267	0.18182	0.1	0.20618
8192	23.267	0.36364	0.1	-3.8925e-002
8193	23.267	0.54545	0.1	-6.217e-002
8194	23.267	0.72727	0.1	-9.46e-002
8195	23.267	0.90909	0.1	-0.10174
8196	23.267	1.0909	0.1	-0.13058
8197	23.267	1.2727	0.1	-1.0812e-002
8198	23.267	1.4545	0.1	-0.28827
8199	23.267	1.6364	0.1	8.7628
8200	23.267	1.8182	0.1	1.5492
8201	23.267	2.	0.1	203.93
8202	23.1	2.	0.1	-8.45
8203	23.1	1.8182	0.1	5.2438
8204	23.1	1.6364	0.1	-7.7535
8205	23.1	1.4545	0.1	-1.9775
8206	23.1	1.2727	0.1	-2.7806
8207	23.1	1.0909	0.1	-2.0046
8208	23.1	0.90909	0.1	-1.9185
8209	23.1	0.72727	0.1	-1.7347
8210	23.1	0.54545	0.1	-1.6261
8211	23.1	0.36364	0.1	-1.5702
8212	23.1	0.18182	0.1	-1.3995
8213	23.267	6.	0.1	1.0148
8214	23.45	6.	0.1	-0.28167
8215	23.633	6.	0.1	-0.28555
8216	23.817	6.	0.1	9.411e-002
8217	24.	6.	0.1	-1.3179
8218	24.	5.8182	0.1	-1.606
8219	24.	5.6364	0.1	-1.5012
8220	24.	5.4545	0.1	-1.5575
8221	24.	5.2727	0.1	-1.5523
8222	24.	5.0909	0.1	-1.5615
8223	24.	4.9091	0.1	-1.5775
8224	24.	4.7273	0.1	-1.5992
8225	24.	4.5455	0.1	-1.6665
8226	24.	4.3636	0.1	-1.6437
8227	24.	4.1818	0.1	-1.7697
8228	24.	4.	0.1	-2.5114
8229	24.	3.8182	0.1	-3.2224
8230	24.	3.6364	0.1	-3.7249
8231	24.	3.4545	0.1	-3.7385
8232	24.	3.2727	0.1	1.076
8233	24.	3.0909	0.1	11.581
8234	24.	2.9091	0.1	11.581
8235	24.	2.7273	0.1	1.076
8236	24.	2.5455	0.1	-3.7385
8237	24.	2.3636	0.1	-3.7249
8238	24.	2.1818	0.1	-3.2224
8239	24.	2.	0.1	-2.5114
8240	24.	1.8182	0.1	-1.7697
8241	24.	1.6364	0.1	-1.6437
8242	24.	1.4545	0.1	-1.6665
8243	24.	1.2727	0.1	-1.5992
8244	24.	1.0909	0.1	-1.5775
8245	24.	0.90909	0.1	-1.5614
8246	24.	0.72727	0.1	-1.5523
8247	24.	0.54545	0.1	-1.5575
8248	24.	0.36364	0.1	-1.5012
8249	24.	0.18182	0.1	-1.606
8250	1.5894e-015	0.18182	0.1	1194.4
8251	3.1789e-015	0.36364	0.1	2307.3
8252	4.7683e-015	0.54545	0.1	2823.7
8253	6.3578e-015	0.72727	0.1	3132.6
8254	7.9472e-015	0.90909	0.1	3339.8
8255	9.5366e-015	1.0909	0.1	3488.3
8256	1.1126e-014	1.2727	0.1	3598.5
8257	1.2716e-014	1.4545	0.1	3682.2
8258	1.4305e-014	1.6364	0.1	3746.7
8259	1.5894e-014	1.8182	0.1	3796.8
8260	1.7484e-014	2.	0.1	3835.6
8261	1.9073e-014	2.1818	0.1	3865.4
8262	2.0663e-014	2.3636	0.1	3887.6
8263	2.2252e-014	2.5455	0.1	3903.4
8264	2.3842e-014	2.7273	0.1	3913.6
8265	2.5431e-014	2.9091	0.1	3918.4
8266	2.702e-014	3.0909	0.1	3918.4
8267	2.861e-014	3.2727	0.1	3913.6
8268	3.0199e-014	3.4545	0.1	3903.4
8269	3.1789e-014	3.6364	0.1	3887.6
8270	3.3378e-014	3.8182	0.1	3865.4
8271	3.4968e-014	4.	0.1	3835.6
8272	3.6557e-014	4.1818	0.1	3796.8
8273	3.8147e-014	4.3636	0.1	3746.7
8274	3.9736e-014	4.5455	0.1	3682.2
8275	4.1325e-014	4.7273	0.1	3598.5
8276	4.2915e-014	4.9091	0.1	3488.3
8277	4.4504e-014	5.0909	0.1	3339.8
8278	4.6094e-014	5.2727	0.1	3132.6
8279	4.7683e-014	5.4545	0.1	2823.7
8280	4.9273e-014	5.6364	0.1	2307.3
8281	5.0862e-014	5.8182	0.1	1194.4
8282	24.	0.	0.1	-1.318
8283	23.817	0.	0.1	9.4107e-002
8284	23.633	0.	0.1	-0.28555
8285	23.45	0.	0.1	-0.28167
8286	23.267	0.	0.1	1.0149
8287	23.1	0.	0.1	2.1567
8288	22.915	-1.9256e-030	0.1	3.5813e-002
8289	22.73	-1.91e-030	0.1	6.993e-002
8290	22.546	-1.8945e-030	0.1	0.40726
8291	22.361	-1.879e-030	0.1	0.51547
8292	22.176	-1.8635e-030	0.1	0.58728
8293	21.991	-1.8479e-030	0.1	0.60984
8294	21.806	-1.8324e-030	0.1	0.60629
8295	21.622	-1.8169e-030	0.1	0.58463
8296	21.437	-1.8013e-030	0.1	0.55281
8297	21.252	-1.7858e-030	0.1	0.51587
8298	21.067	-1.7703e-030	0.1	0.47732
8299	20.882	-1.7547e-030	0.1	0.43934
8300	20.698	-1.7392e-030	0.1	0.40322
8301	20.513	-1.7237e-030	0.1	0.36965
8302	20.328	-1.7082e-030	0.1	0.3389
8303	20.143	-1.6926e-030	0.1	0.311
8304	19.958	-1.6771e-030	0.1	0.28583
8305	19.774	-1.6616e-030	0.1	0.26319
8306	19.589	-1.646e-030	0.1	0.24286
8307	19.404	-1.6305e-030	0.1	0.22461
8308	19.219	-1.615e-030	0.1	0.20821
8309	19.034	-1.5995e-030	0.1	0.19344
8310	18.85	-1.5839e-030	0.1	0.18012
8311	18.665	-1.5684e-030	0.1	0.16808
8312	18.48	-1.5529e-030	0.1	0.15716
8313	18.295	-1.5373e-030	0.1	0.14724
8314	18.11	-1.5218e-030	0.1	0.13821
8315	17.926	-1.5063e-030	0.1	0.12995
8316	17.741	-1.4908e-030	0.1	0.12237
8317	17.556	-1.4752e-030	0.1	0.11542
8318	17.371	-1.4597e-030	0.1	0.10901
8319	17.186	-1.4442e-030	0.1	0.10308
8320	17.002	-1.4286e-030	0.1	9.7581e-002
8321	16.817	-1.4131e-030	0.1	9.2466e-002
8322	16.632	-1.3976e-030	0.1	8.7687e-002
8323	16.447	-1.3821e-030	0.1	8.3209e-002
8324	16.262	-1.3665e-030	0.1	7.8998e-002
8325	16.078	-1.351e-030	0.1	7.5012e-002
8326	15.893	-1.3355e-030	0.1	7.1232e-002
8327	15.708	-1.3199e-030	0.1	6.7627e-002
8328	15.523	-1.3044e-030	0.1	6.417e-002
8329	15.338	-1.2889e-030	0.1	6.0836e-002
8330	15.154	-1.2734e-030	0.1	5.7601e-002
8331	14.969	-1.2578e-030	0.1	5.4444e-002
8332	14.784	-1.2423e-030	0.1	5.1344e-002
8333	14.599	-1.2268e-030	0.1	4.8278e-002
8334	14.414	-1.2112e-030	0.1	4.5229e-002
8335	14.23	-1.1957e-030	0.1	4.2173e-002
8336	14.045	-1.1802e-030	0.1	3.9092e-002
8337	13.86	-1.1647e-030	0.1	3.5964e-002
8338	13.675	-1.1491e-030	0.1	3.2771e-002
8339	13.49	-1.1336e-030	0.1	2.9489e-002
8340	13.306	-1.1181e-030	0.1	2.6099e-002
8341	13.121	-1.1025e-030	0.1	2.2579e-002
8342	12.936	-1.087e-030	0.1	1.8902e-002
8343	12.751	-1.0715e-030	0.1	1.5048e-002
8344	12.566	-1.056e-030	0.1	1.0992e-002
8345	12.382	-1.0404e-030	0.1	6.7051e-003
8346	12.197	-1.0249e-030	0.1	2.1613e-003
8347	12.012	-1.0094e-030	0.1	-2.6669e-003
8348	11.827	-9.9384e-031	0.1	-7.8185e-003
8349	11.642	-9.7831e-031	0.1	-1.3321e-002
8350	11.458	-9.6278e-031	0.1	-1.9208e-002
8351	11.273	-9.4725e-031	0.1	-2.5522e-002
8352	11.088	-9.3173e-031	0.1	-3.2302e-002
8353	10.903	-9.162e-031	0.1	-3.9593e-002
8354	10.718	-9.0067e-031	0.1	-4.7442e-002
8355	10.534	-8.8514e-031	0.1	-5.59e-002
8356	10.349	-8.6961e-031	0.1	-6.5021e-002
8357	10.164	-8.5408e-031	0.1	-7.4864e-002
8358	9.9792	-8.3855e-031	0.1	-8.5494e-002
8359	9.7944	-8.2302e-031	0.1	-9.6978e-002
8360	9.6096	-8.075e-031	0.1	-0.10939
8361	9.4248	-7.9197e-031	0.1	-0.12281
8362	9.24	-7.7644e-031	0.1	-0.13733
8363	9.0552	-7.6091e-031	0.1	-0.15304
8364	8.8704	-7.4538e-031	0.1	-0.17003
8365	8.6856	-7.2985e-031	0.1	-0.18842
8366	8.5008	-7.1432e-031	0.1	-0.20833
8367	8.316	-6.9879e-031	0.1	-0.22988
8368	8.1312	-6.8327e-031	0.1	-0.25321
8369	7.9464	-6.6774e-031	0.1	-0.27847
8370	7.7616	-6.5221e-031	0.1	-0.30581
8371	7.5768	-6.3668e-031	0.1	-0.3354
8372	7.392	-6.2115e-031	0.1	-0.36743
8373	7.2072	-6.0562e-031	0.1	-0.40204
8374	7.0224	-5.9009e-031	0.1	-0.43869
8375	6.8376	-5.7456e-031	0.1	-0.17269
8376	6.6528	-5.5904e-031	0.1	0.18154
8377	6.468	-5.4351e-031	0.1	0.5403
8378	6.2832	-5.2798e-031	0.1	0.90085
8379	6.0984	-5.1245e-031	0.1	1.2598
8380	5.9136	-4.9692e-031	0.1	1.6131
8381	5.7288	-4.8139e-031	0.1	1.9556
8382	5.544	-4.6586e-031	0.1	2.2811
8383	5.3592	-4.5033e-031	0.1	2.5822
8384	5.1744	-4.3481e-031	0.1	2.8501
8385	4.9896	-4.1928e-031	0.1	3.074
8386	4.8048	-4.0375e-031	0.1	3.2414
8387	4.62	-3.8822e-031	0.1	3.3374
8388	4.4352	-3.7269e-031	0.1	3.3446
8389	4.2504	-3.5716e-031	0.1	3.2427
8390	4.0656	-3.4163e-031	0.1	3.008
8391	3.8808	-3.261e-031	0.1	2.6136
8392	3.696	-3.1058e-031	0.1	2.0296
8393	3.5112	-2.9505e-031	0.1	1.2258
8394	3.3264	-2.7952e-031	0.1	0.18316
8395	3.1416	-2.6399e-031	0.1	-1.039
8396	2.9568	-2.4846e-031	0.1	-2.0481
8397	2.772	-2.3293e-031	0.1	-2.5637
8398	2.5872	-2.174e-031	0.1	-2.9056
8399	2.4024	-2.0187e-031	0.1	-3.2154
8400	2.2176	-1.8635e-031	0.1	-3.5313
8401	2.0328	-1.7082e-031	0.1	-3.8696
8402	1.848	-1.5529e-031	0.1	-4.2405
8403	1.6632	-1.3976e-031	0.1	-4.6589
8404	1.4784	-1.2423e-031	0.1	-5.1253
8405	1.2936	-1.087e-031	0.1	-5.7032
8406	1.1088	-9.3173e-032	0.1	-6.2635
8407	0.924	-7.7644e-032	0.1	-7.3393
8408	0.7392	-6.2115e-032	0.1	-7.5056
8409	0.5544	-4.6586e-032	0.1	-10.32
8410	0.3696	-3.1058e-032	0.1	-16.486
8411	0.1848	-1.5529e-032	0.1	51.315
8412	0.	0.	0.1	-350.56
8413	3.937e-014	6.	0.1	-350.56
8414	0.1848	6.	0.1	51.315
8415	0.3696	6.	0.1	-16.486
8416	0.5544	6.	0.1	-10.32
8417	0.7392	6.	0.1	-7.5056
8418	0.924	6.	0.1	-7.3393
8419	1.1088	6.	0.1	-6.2635
8420	1.2936	6.	0.1	-5.7032
8421	1.4784	6.	0.1	-5.1253
8422	1.6632	6.	0.1	-4.6589
8423	1.848	6.	0.1	-4.2405
8424	2.0328	6.	0.1	-3.8696
8425	2.2176	6.	0.1	-3.5313
8426	2.4024	6.	0.1	-3.2154
8427	2.5872	6.	0.1	-2.9056
8428	2.772	6.	0.1	-2.5637
8429	2.9568	6.	0.1	-2.0481
8430	3.1416	6.	0.1	-1.039
8431	3.3264	6.	0.1	0.18315
8432	3.5112	6.	0.1	1.2258
8433	3.696	6.	0.1	2.0296
8434	3.8808	6.	0.1	2.6136
8435	4.0656	6.	0.1	3.008
8436	4.2504	6.	0.1	3.2427
8437	4.4352	6.	0.1	3.3446
8438	4.62	6.	0.1	3.3374
8439	4.8048	6.	0.1	3.2414
8440	4.9896	6.	0.1	3.074
8441	5.1744	6.	0.1	2.8501
8442	5.3592	6.	0.1	2.5822
8443	5.544	6.	0.1	2.2811
8444	5.7288	6.	0.1	1.9556
8445	5.9136	6.	0.1	1.6131
8446	6.0984	6.	0.1	1.2598
8447	6.2832	6.	0.1	0.90085
8448	6.468	6.	0.1	0.54031
8449	6.6528	6.	0.1	0.18154
8450	6.8376	6.	0.1	-0.17269
8451	7.0224	6.	0.1	-0.43869
8452	7.2072	6.	0.1	-0.40204
8453	7.392	6.	0.1	-0.36743
8454	7.5768	6.	0.1	-0.3354
8455	7.7616	6.	0.1	-0.30581
8456	7.9464	6.	0.1	-0.27847
8457	8.1312	6.	0.1	-0.25321
8458	8.316	6.	0.1	-0.22988
8459	8.5008	6.	0.1	-0.20833
8460	8.6856	6.	0.1	-0.18842
8461	8.8704	6.	0.1	-0.17003
8462	9.0552	6.	0.1	-0.15304
8463	9.24	6.	0.1	-0.13733
8464	9.4248	6.	0.1	-0.12281
8465	9.6096	6.	0.1	-0.10939
8466	9.7944	6.	0.1	-9.6977e-002
8467	9.9792	6.	0.1	-8.5493e-002
8468	10.164	6.	0.1	-7.4864e-002
8469	10.349	6.	0.1	-6.502e-002
8470	10.534	6.	0.1	-5.59e-002
8471	10.718	6.	0.1	-4.7442e-002
8472	10.903	6.	0.1	-3.9592e-002
8473	11.088	6.	0.1	-3.2302e-002
8474	11.273	6.	0.1	-2.5521e-002
8475	11.458	6.	0.1	-1.9207e-002
8476	11.642	6.	0.1	-1.3319e-002
8477	11.827	6.	0.1	-7.8186e-003
8478	12.012	6.	0.1	-2.6689e-003
8479	12.197	6.	0.1	2.1613e-003
8480	12.382	6.	0.1	6.7052e-003
8481	12.566	6.	0.1	1.0992e-002
8482	12.751	6.	0.1	1.5049e-002
8483	12.936	6.	0.1	1.8902e-002
8484	13.121	6.	0.1	2.2578e-002
8485	13.306	6.	0.1	2.6099e-002
8486	13.49	6.	0.1	2.949e-002
8487	13.675	6.	0.1	3.2771e-002
8488	13.86	6.	0.1	3.5965e-002
8489	14.045	6.	0.1	3.9092e-002
8490	14.23	6.	0.1	4.2173e-002
8491	14.414	6.	0.1	4.5228e-002
8492	14.599	6.	0.1	4.8279e-002
8493	14.784	6.	0.1	5.1343e-002
8494	14.969	6.	0.1	5.4444e-002
8495	15.154	6.	0.1	5.76e-002
8496	15.338	6.	0.1	6.0834e-002
8497	15.523	6.	0.1	6.4169e-002
8498	15.708	6.	0.1	6.7628e-002
8499	15.893	6.	0.1	7.1233e-002
8500	16.078	6.	0.1	7.5013e-002
8501	16.262	6.	0.1	7.8996e-002
8502	16.447	6.	0.1	8.3209e-002
8503	16.632	6.	0.1	8.7688e-002
8504	16.817	6.	0.1	9.2464e-002
8505	17.002	6.	0.1	9.7581e-002
8506	17.186	6.	0.1	0.10308
8507	17.371	6.	0.1	0.10901
8508	17.556	6.	0.1	0.11542
8509	17.741	6.	0.1	0.12238
8510	17.926	6.	0.1	0.12994
8511	18.11	6.	0.1	0.1382
8512	18.295	6.	0.1	0.14724
8513	18.48	6.	0.1	0.15716
8514	18.665	6.	0.1	0.16807
8515	18.85	6.	0.1	0.18012
8516	19.034	6.	0.1	0.19344
8517	19.219	6.	0.1	0.2082
8518	19.404	6.	0.1	0.22461
8519	19.589	6.	0.1	0.24286
8520	19.774	6.	0.1	0.26319
8521	19.958	6.	0.1	0.28583
8522	20.143	6.	0.1	0.311
8523	20.328	6.	0.1	0.3389
8524	20.513	6.	0.1	0.36965
8525	20.698	6.	0.1	0.40322
8526	20.882	6.	0.1	0.43933
8527	21.067	6.	0.1	0.47731
8528	21.252	6.	0.1	0.51586
8529	21.437	6.	0.1	0.5528
8530	21.622	6.	0.1	0.58463
8531	21.806	6.	0.1	0.60629
8532	21.991	6.	0.1	0.60984
8533	22.176	6.	0.1	0.58728
8534	22.361	6.	0.1	0.51547
8535	22.546	6.	0.1	0.40727
8536	22.73	6.	0.1	6.9927e-002
8537	22.915	6.	0.1	3.5818e-002
8538	23.1	6.	0.1	2.1567
8539	22.915	6.	0.	-3.5815e-002
8540	22.73	6.	0.	-6.993e-002
8541	22.546	6.	0.	-0.40726
8542	22.361	6.	0.	-0.51547
8543	22.176	6.	0.	-0.58727
8544	21.991	6.	0.	-0.60984
8545	21.806	6.	0.	-0.60629
8546	21.622	6.	0.	-0.58463
8547	21.437	6.	0.	-0.5528
8548	21.252	6.	0.	-0.51586
8549	21.067	6.	0.	-0.47731
8550	20.882	6.	0.	-0.43933
8551	20.698	6.	0.	-0.40322
8552	20.513	6.	0.	-0.36965
8553	20.328	6.	0.	-0.3389
8554	20.143	6.	0.	-0.311
8555	19.958	6.	0.	-0.28582
8556	19.774	6.	0.	-0.26319
8557	19.589	6.	0.	-0.24286
8558	19.404	6.	0.	-0.22461
8559	19.219	6.	0.	-0.2082
8560	19.034	6.	0.	-0.19343
8561	18.85	6.	0.	-0.18012
8562	18.665	6.	0.	-0.16807
8563	18.48	6.	0.	-0.15716
8564	18.295	6.	0.	-0.14724
8565	18.11	6.	0.	-0.1382
8566	17.926	6.	0.	-0.12994
8567	17.741	6.	0.	-0.12237
8568	17.556	6.	0.	-0.11542
8569	17.371	6.	0.	-0.10901
8570	17.186	6.	0.	-0.10308
8571	17.002	6.	0.	-9.7581e-002
8572	16.817	6.	0.	-9.2463e-002
8573	16.632	6.	0.	-8.7687e-002
8574	16.447	6.	0.	-8.3208e-002
8575	16.262	6.	0.	-7.8994e-002
8576	16.078	6.	0.	-7.5012e-002
8577	15.893	6.	0.	-7.1233e-002
8578	15.708	6.	0.	-6.7627e-002
8579	15.523	6.	0.	-6.4168e-002
8580	15.338	6.	0.	-6.0834e-002
8581	15.154	6.	0.	-5.76e-002
8582	14.969	6.	0.	-5.4443e-002
8583	14.784	6.	0.	-5.1342e-002
8584	14.599	6.	0.	-4.8279e-002
8585	14.414	6.	0.	-4.5228e-002
8586	14.23	6.	0.	-4.2173e-002
8587	14.045	6.	0.	-3.9091e-002
8588	13.86	6.	0.	-3.5964e-002
8589	13.675	6.	0.	-3.2771e-002
8590	13.49	6.	0.	-2.9489e-002
8591	13.306	6.	0.	-2.6099e-002
8592	13.121	6.	0.	-2.2577e-002
8593	12.936	6.	0.	-1.8901e-002
8594	12.751	6.	0.	-1.5049e-002
8595	12.566	6.	0.	-1.0992e-002
8596	12.382	6.	0.	-6.7051e-003
8597	12.197	6.	0.	-2.1613e-003
8598	12.012	6.	0.	2.6698e-003
8599	11.827	6.	0.	7.8186e-003
8600	11.642	6.	0.	1.3319e-002
8601	11.458	6.	0.	1.9207e-002
8602	11.273	6.	0.	2.5521e-002
8603	11.088	6.	0.	3.2302e-002
8604	10.903	6.	0.	3.9593e-002
8605	10.718	6.	0.	4.7442e-002
8606	10.534	6.	0.	5.59e-002
8607	10.349	6.	0.	6.5021e-002
8608	10.164	6.	0.	7.4864e-002
8609	9.9792	6.	0.	8.5494e-002
8610	9.7944	6.	0.	9.6978e-002
8611	9.6096	6.	0.	0.10939
8612	9.4248	6.	0.	0.12281
8613	9.24	6.	0.	0.13733
8614	9.0552	6.	0.	0.15304
8615	8.8704	6.	0.	0.17003
8616	8.6856	6.	0.	0.18842
8617	8.5008	6.	0.	0.20833
8618	8.316	6.	0.	0.22988
8619	8.1312	6.	0.	0.25321
8620	7.9464	6.	0.	0.27847
8621	7.7616	6.	0.	0.30581
8622	7.5768	6.	0.	0.3354
8623	7.392	6.	0.	0.36743
8624	7.2072	6.	0.	0.40204
8625	7.0224	6.	0.	0.43869
8626	6.8376	6.	0.	0.17269
8627	6.6528	6.	0.	-0.18154
8628	6.468	6.	0.	-0.5403
8629	6.2832	6.	0.	-0.90085
8630	6.0984	6.	0.	-1.2598
8631	5.9136	6.	0.	-1.6131
8632	5.7288	6.	0.	-1.9556
8633	5.544	6.	0.	-2.2811
8634	5.3592	6.	0.	-2.5822
8635	5.1744	6.	0.	-2.8501
8636	4.9896	6.	0.	-3.074
8637	4.8048	6.	0.	-3.2414
8638	4.62	6.	0.	-3.3374
8639	4.4352	6.	0.	-3.3446
8640	4.2504	6.	0.	-3.2427
8641	4.0656	6.	0.	-3.008
8642	3.8808	6.	0.	-2.6136
8643	3.696	6.	0.	-2.0296
8644	3.5112	6.	0.	-1.2258
8645	3.3264	6.	0.	-0.18315
8646	3.1416	6.	0.	1.039
8647	2.9568	6.	0.	2.0481
8648	2.772	6.	0.	2.5637
8649	2.5872	6.	0.	2.9056
8650	2.4024	6.	0.	3.2154
8651	2.2176	6.	0.	3.5313
8652	2.0328	6.	0.	3.8696
8653	1.848	6.	0.	4.2405
8654	1.6632	6.	0.	4.6589
8655	1.4784	6.	0.	5.1253
8656	1.2936	6.	0.	5.7032
8657	1.1088	6.	0.	6.2635
8658	0.924	6.	0.	7.3393
8659	0.7392	6.	0.	7.5056
8660	0.5544	6.	0.	10.32
8661	0.3696	6.	0.	16.486
8662	0.1848	6.	0.	-51.315
8663	23.1	6.	0.	-2.1567
8664	3.937e-014	6.	0.	350.56
8665	0.1848	-1.5529e-032	0.	-51.315
8666	0.3696	-3.1058e-032	0.	16.486
8667	0.5544	-4.6586e-032	0.	10.32
8668	0.7392	-6.2115e-032	0.	7.5056
8669	0.924	-7.7644e-032	0.	7.3393
8670	1.1088	-9.3173e-032	0.	6.2635
8671	1.2936	-1.087e-031	0.	5.7032
8672	1.4784	-1.2423e-031	0.	5.1253
8673	1.6632	-1.3976e-031	0.	4.6589
8674	1.848	-1.5529e-031	0.	4.2405
8675	2.0328	-1.7082e-031	0.	3.8696
8676	2.2176	-1.8635e-031	0.	3.5313
8677	2.4024	-2.0187e-031	0.	3.2154
8678	2.5872	-2.174e-031	0.	2.9056
8679	2.772	-2.3293e-031	0.	2.5637
8680	2.9568	-2.4846e-031	0.	2.0481
8681	3.1416	-2.6399e-031	0.	1.039
8682	3.3264	-2.7952e-031	0.	-0.18316
8683	3.5112	-2.9505e-031	0.	-1.2258
8684	3.696	-3.1058e-031	0.	-2.0296
8685	3.8808	-3.261e-031	0.	-2.6136
8686	4.0656	-3.4163e-031	0.	-3.008
8687	4.2504	-3.5716e-031	0.	-3.2427
8688	4.4352	-3.7269e-031	0.	-3.3446
8689	4.62	-3.8822e-031	0.	-3.3374
8690	4.8048	-4.0375e-031	0.	-3.2414
8691	4.9896	-4.1928e-031	0.	-3.074
8692	5.1744	-4.3481e-031	0.	-2.8501
8693	5.3592	-4.5033e-031	0.	-2.5822
8694	5.544	-4.6586e-031	0.	-2.2811
8695	5.7288	-4.8139e-031	0.	-1.9556
8696	5.9136	-4.9692e-031	0.	-1.6131
8697	6.0984	-5.1245e-031	0.	-1.2598
8698	6.2832	-5.2798e-031	0.	-0.90084
8699	6.468	-5.4351e-031	0.	-0.5403
8700	6.6528	-5.5904e-031	0.	-0.18154
8701	6.8376	-5.7456e-031	0.	0.17269
8702	7.0224	-5.9009e-031	0.	0.43869
8703	7.2072	-6.0562e-031	0.	0.40204
8704	7.392	-6.2115e-031	0.	0.36743
8705	7.5768	-6.3668e-031	0.	0.3354
8706	7.7616	-6.5221e-031	0.	0.30581
8707	7.9464	-6.6774e-031	0.	0.27847
8708	8.1312	-6.8327e-031	0.	0.25321
8709	8.316	-6.9879e-031	0.	0.22988
8710	8.5008	-7.1432e-031	0.	0.20833
8711	8.6856	-7.2985e-031	0.	0.18842
8712	8.8704	-7.4538e-031	0.	0.17003
8713	9.0552	-7.6091e-031	0.	0.15304
8714	9.24	-7.7644e-031	0.	0.13733
8715	9.4248	-7.9197e-031	0.	0.12281
8716	9.6096	-8.075e-031	0.	0.10939
8717	9.7944	-8.2302e-031	0.	9.6978e-002
8718	9.9792	-8.3855e-031	0.	8.5494e-002
8719	10.164	-8.5408e-031	0.	7.4864e-002
8720	10.349	-8.6961e-031	0.	6.5021e-002
8721	10.534	-8.8514e-031	0.	5.59e-002
8722	10.718	-9.0067e-031	0.	4.7442e-002
8723	10.903	-9.162e-031	0.	3.9594e-002
8724	11.088	-9.3173e-031	0.	3.2302e-002
8725	11.273	-9.4725e-031	0.	2.5523e-002
8726	11.458	-9.6278e-031	0.	1.9207e-002
8727	11.642	-9.7831e-031	0.	1.3322e-002
8728	11.827	-9.9384e-031	0.	7.8182e-003
8729	12.012	-1.0094e-030	0.	2.668e-003
8730	12.197	-1.0249e-030	0.	-2.1605e-003
8731	12.382	-1.0404e-030	0.	-6.7056e-003
8732	12.566	-1.056e-030	0.	-1.0992e-002
8733	12.751	-1.0715e-030	0.	-1.5048e-002
8734	12.936	-1.087e-030	0.	-1.8902e-002
8735	13.121	-1.1025e-030	0.	-2.2577e-002
8736	13.306	-1.1181e-030	0.	-2.61e-002
8737	13.49	-1.1336e-030	0.	-2.949e-002
8738	13.675	-1.1491e-030	0.	-3.277e-002
8739	13.86	-1.1647e-030	0.	-3.5964e-002
8740	14.045	-1.1802e-030	0.	-3.9091e-002
8741	14.23	-1.1957e-030	0.	-4.2172e-002
8742	14.414	-1.2112e-030	0.	-4.5228e-002
8743	14.599	-1.2268e-030	0.	-4.8278e-002
8744	14.784	-1.2423e-030	0.	-5.1344e-002
8745	14.969	-1.2578e-030	0.	-5.4444e-002
8746	15.154	-1.2734e-030	0.	-5.7599e-002
8747	15.338	-1.2889e-030	0.	-6.0835e-002
8748	15.523	-1.3044e-030	0.	-6.417e-002
8749	15.708	-1.3199e-030	0.	-6.7628e-002
8750	15.893	-1.3355e-030	0.	-7.1234e-002
8751	16.078	-1.351e-030	0.	-7.5013e-002
8752	16.262	-1.3665e-030	0.	-7.8995e-002
8753	16.447	-1.3821e-030	0.	-8.321e-002
8754	16.632	-1.3976e-030	0.	-8.7687e-002
8755	16.817	-1.4131e-030	0.	-9.2464e-002
8756	17.002	-1.4286e-030	0.	-9.7581e-002
8757	17.186	-1.4442e-030	0.	-0.10308
8758	17.371	-1.4597e-030	0.	-0.10901
8759	17.556	-1.4752e-030	0.	-0.11542
8760	17.741	-1.4908e-030	0.	-0.12237
8761	17.926	-1.5063e-030	0.	-0.12994
8762	18.11	-1.5218e-030	0.	-0.13821
8763	18.295	-1.5373e-030	0.	-0.14724
8764	18.48	-1.5529e-030	0.	-0.15716
8765	18.665	-1.5684e-030	0.	-0.16807
8766	18.85	-1.5839e-030	0.	-0.18012
8767	19.034	-1.5995e-030	0.	-0.19344
8768	19.219	-1.615e-030	0.	-0.20821
8769	19.404	-1.6305e-030	0.	-0.22461
8770	19.589	-1.646e-030	0.	-0.24286
8771	19.774	-1.6616e-030	0.	-0.26319
8772	19.958	-1.6771e-030	0.	-0.28583
8773	20.143	-1.6926e-030	0.	-0.311
8774	20.328	-1.7082e-030	0.	-0.3389
8775	20.513	-1.7237e-030	0.	-0.36965
8776	20.698	-1.7392e-030	0.	-0.40322
8777	20.882	-1.7547e-030	0.	-0.43933
8778	21.067	-1.7703e-030	0.	-0.47731
8779	21.252	-1.7858e-030	0.	-0.51587
8780	21.437	-1.8013e-030	0.	-0.5528
8781	21.622	-1.8169e-030	0.	-0.58463
8782	21.806	-1.8324e-030	0.	-0.60629
8783	21.991	-1.8479e-030	0.	-0.60984
8784	22.176	-1.8635e-030	0.	-0.58727
8785	22.361	-1.879e-030	0.	-0.51547
8786	22.546	-1.8945e-030	0.	-0.40727
8787	22.73	-1.91e-030	0.	-6.9923e-002
8788	22.915	-1.9256e-030	0.	-3.5812e-002
8789	23.1	0.	0.	-2.1567
8790	0.	0.	0.	350.56
8791	23.45	0.	0.	0.28166
8792	23.633	0.	0.	0.28556
8793	23.817	0.	0.	-9.4109e-002
8794	23.267	0.	0.	-1.0148
8795	24.	0.	0.	1.318
8796	5.0862e-014	5.8182	0.	-1194.4
8797	4.9273e-014	5.6364	0.	-2307.3
8798	4.7683e-014	5.4545	0.	-2823.7
8799	4.6094e-014	5.2727	0.	-3132.6
8800	4.4504e-014	5.0909	0.	-3339.8
8801	4.2915e-014	4.9091	0.	-3488.3
8802	4.1325e-014	4.7273	0.	-3598.5
8803	3.9736e-014	4.5455	0.	-3682.2
8804	3.8147e-014	4.3636	0.	-3746.7
8805	3.6557e-014	4.1818	0.	-3796.8
8806	3.4968e-014	4.	0.	-3835.6
8807	3.3378e-014	3.8182	0.	-3865.4
8808	3.1789e-014	3.6364	0.	-3887.6
8809	3.0199e-014	3.4545	0.	-3903.4
8810	2.861e-014	3.2727	0.	-3913.6
8811	2.702e-014	3.0909	0.	-3918.4
8812	2.5431e-014	2.9091	0.	-3918.4
8813	2.3842e-014	2.7273	0.	-3913.6
8814	2.2252e-014	2.5455	0.	-3903.4
8815	2.0663e-014	2.3636	0.	-3887.6
8816	1.9073e-014	2.1818	0.	-3865.4
8817	1.7484e-014	2.	0.	-3835.6
8818	1.5894e-014	1.8182	0.	-3796.8
8819	1.4305e-014	1.6364	0.	-3746.7
8820	1.2716e-014	1.4545	0.	-3682.2
8821	1.1126e-014	1.2727	0.	-3598.5
8822	9.5366e-015	1.0909	0.	-3488.3
8823	7.9472e-015	0.90909	0.	-3339.8
8824	6.3578e-015	0.72727	0.	-3132.6
8825	4.7683e-015	0.54545	0.	-2823.7
8826	3.1789e-015	0.36364	0.	-2307.3
8827	1.5894e-015	0.18182	0.	-1194.4
8828	24.	0.18182	0.	1.606
8829	24.	0.36364	0.	1.5012
8830	24.	0.54545	0.	1.5575
8831	24.	0.72727	0.	1.5523
8832	24.	0.90909	0.	1.5615
8833	24.	1.0909	0.	1.5775
8834	24.	1.2727	0.	1.5992
8835	24.	1.4545	0.	1.6665
8836	24.	1.6364	0.	1.6437
8837	24.	1.8182	0.	1.7697
8838	24.	2.	0.	2.5114
8839	24.	2.1818	0.	3.2224
8840	24.	2.3636	0.	3.7248
8841	24.	2.5455	0.	3.7385
8842	24.	2.7273	0.	-1.076
8843	24.	2.9091	0.	-11.581
8844	24.	3.0909	0.	-11.581
8845	24.	3.2727	0.	-1.076
8846	24.	3.4545	0.	3.7385
8847	24.	3.6364	0.	3.7248
8848	24.	3.8182	0.	3.2224
8849	24.	4.	0.	2.5114
8850	24.	4.1818	0.	1.7697
8851	24.	4.3636	0.	1.6437
8852	24.	4.5455	0.	1.6665
8853	24.	4.7273	0.	1.5992
8854	24.	4.9091	0.	1.5775
8855	24.	5.0909	0.	1.5615
8856	24.	5.2727	0.	1.5523
8857	24.	5.4545	0.	1.5575
8858	24.	5.6364	0.	1.5012
8859	24.	5.8182	0.	1.606
8860	24.	6.	0.	1.318
8861	23.817	6.	0.	-9.4108e-002
8862	23.633	6.	0.	0.28556
8863	23.45	6.	0.	0.28166
8864	23.267	6.	0.	-1.0148
8865	23.1	1.8182	0.	-5.2438
8866	23.1	1.6364	0.	7.7535
8867	23.1	1.4545	0.	1.9775
8868	23.1	1.2727	0.	2.7806
8869	23.1	1.0909	0.	2.0046
8870	23.1	0.90909	0.	1.9185
8871	23.1	0.72727	0.	1.7347
8872	23.1	0.54545	0.	1.6261
8873	23.1	0.36364	0.	1.5702
8874	23.1	0.18182	0.	1.3995
8875	23.1	2.	0.	8.45
8876	23.267	0.18182	0.	-0.20618
8877	23.267	0.36364	0.	3.8935e-002
8878	23.267	0.54545	0.	6.2173e-002
8879	23.267	0.72727	0.	9.4606e-002
8880	23.267	0.90909	0.	0.10174
8881	23.267	1.0909	0.	0.13058
8882	23.267	1.2727	0.	1.082e-002
8883	23.267	1.4545	0.	0.28828
8884	23.267	1.6364	0.	-8.7628
8885	23.267	1.8182	0.	-1.5492
8886	23.267	2.	0.	-203.93
8887	23.1	4.1818	0.	-5.2438
8888	23.1	4.3636	0.	7.7535
8889	23.1	4.5455	0.	1.9775
8890	23.1	4.7273	0.	2.7806
8891	23.1	4.9091	0.	2.0046
8892	23.1	5.0909	0.	1.9185
8893	23.1	5.2727	0.	1.7347
8894	23.1	5.4545	0.	1.6261
8895	23.1	5.6364	0.	1.5702
8896	23.1	5.8182	0.	1.3995
8897	23.1	4.	0.	8.45
8898	23.267	5.8182	0.	-0.20617
8899	23.267	5.6364	0.	3.8934e-002
8900	23.267	5.4545	0.	6.2175e-002
8901	23.267	5.2727	0.	9.4607e-002
8902	23.267	5.0909	0.	0.10174
8903	23.267	4.9091	0.	0.13058
8904	23.267	4.7273	0.	1.0822e-002
8905	23.267	4.5455	0.	0.28828
8906	23.267	4.3636	0.	-8.7627
8907	23.267	4.1818	0.	-1.5492
8908	23.267	4.	0.	-203.93
8909	23.1	2.2727	0.	7.6968
8910	23.008	2.1818	0.	9.3544
8911	23.183	2.1818	0.	6.431
8912	23.1	2.1818	5.e-002	7.8189e-005
8913	23.1	2.0909	0.	4.62
8914	23.1	2.4545	0.	-0.91493
8915	23.008	2.3636	0.	-2.0008
8916	23.183	2.3636	0.	-1.3558
8917	23.1	2.3636	5.e-002	3.5183e-005
8918	23.1	2.6364	0.	-0.23842
8919	23.008	2.5455	0.	-0.15129
8920	23.183	2.5455	0.	-2.5295e-002
8921	23.1	2.5455	5.e-002	2.516e-005
8922	23.1	2.8182	0.	-0.18701
8923	23.008	2.7273	0.	-0.28202
8924	23.183	2.7273	0.	-0.21
8925	23.1	2.7273	5.e-002	1.8998e-005
8926	23.1	3.	0.	-0.15944
8927	23.008	2.9091	0.	-0.16417
8928	23.183	2.9091	0.	-0.10129
8929	23.1	2.9091	5.e-002	1.499e-005
8930	23.1	3.1818	0.	-0.18702
8931	23.008	3.0909	0.	-0.16417
8932	23.183	3.0909	0.	-0.10129
8933	23.1	3.0909	5.e-002	8.1609e-006
8934	23.1	3.3636	0.	-0.23842
8935	23.008	3.2727	0.	-0.28202
8936	23.183	3.2727	0.	-0.21
8937	23.1	3.2727	5.e-002	2.5433e-006
8938	23.1	3.5455	0.	-0.91493
8939	23.008	3.4545	0.	-0.15129
8940	23.183	3.4545	0.	-2.5295e-002
8941	23.1	3.4545	5.e-002	9.6289e-006
8942	23.1	3.7273	0.	7.6968
8943	23.008	3.6364	0.	-2.0008
8944	23.183	3.6364	0.	-1.3558
8945	23.1	3.6364	5.e-002	1.1643e-005
8946	23.008	3.8182	0.	9.3544
8947	23.183	3.8182	0.	6.431
8948	23.1	3.8182	5.e-002	1.9903e-005
8949	23.1	3.9091	0.	4.62
8950	23.542	2.	0.	-18.833
8951	23.45	2.0909	0.	-32.428
8952	23.45	1.9091	0.	-27.68
8953	23.45	2.	5.e-002	2.2047e-005
8954	23.358	2.	0.	-124.
8955	23.725	2.	0.	-1.494
8956	23.633	2.0909	0.	-7.3783
8957	23.633	1.9091	0.	-3.7556
8958	23.633	2.	5.e-002	-1.0273e-005
8959	23.817	2.0909	0.	-3.4614
8960	23.817	1.9091	0.	-1.9558
8961	23.817	2.	5.e-002	-3.0995e-005
8962	23.908	2.	0.	0.33406
8963	23.725	4.	0.	-1.494
8964	23.817	3.9091	0.	-3.4614
8965	23.817	4.0909	0.	-1.9558
8966	23.817	4.	5.e-002	-7.9565e-006
8967	23.908	4.	0.	0.33406
8968	23.542	4.	0.	-18.833
8969	23.633	3.9091	0.	-7.3783
8970	23.633	4.0909	0.	-3.7556
8971	23.633	4.	5.e-002	-1.0357e-005
8972	23.45	3.9091	0.	-32.428
8973	23.45	4.0909	0.	-27.68
8974	23.45	4.	5.e-002	1.0692e-006
8975	23.358	4.	0.	-124.
8976	22.915	5.7273	0.	-3.9967e-002
8977	22.823	5.8182	0.	0.26471
8978	22.915	5.8182	5.e-002	8.9566e-006
8979	22.915	5.9091	0.	-7.96e-002
8980	23.008	5.8182	0.	0.2194
8981	22.915	5.5455	0.	-2.5782e-002
8982	22.823	5.6364	0.	0.20107
8983	22.915	5.6364	5.e-002	6.7045e-006
8984	23.008	5.6364	0.	0.13563
8985	22.915	5.3636	0.	-4.291e-002
8986	22.823	5.4545	0.	0.1903
8987	22.915	5.4545	5.e-002	4.3028e-006
8988	23.008	5.4545	0.	0.1152
8989	22.915	5.1818	0.	-4.7103e-002
8990	22.823	5.2727	0.	0.17945
8991	22.915	5.2727	5.e-002	4.9387e-008
8992	23.008	5.2727	0.	0.11893
8993	22.915	5.	0.	-9.5651e-002
8994	22.823	5.0909	0.	0.1891
8995	22.915	5.0909	5.e-002	-9.9352e-007
8996	23.008	5.0909	0.	0.16223
8997	22.915	4.8182	0.	2.4531e-002
8998	22.823	4.9091	0.	0.15453
8999	22.915	4.9091	5.e-002	-1.899e-006
9000	23.008	4.9091	0.	2.5317e-002
9001	22.915	4.6364	0.	-0.46317
9002	22.823	4.7273	0.	0.33637
9003	22.915	4.7273	5.e-002	-7.6353e-006
9004	23.008	4.7273	0.	0.54515
9005	22.915	4.4545	0.	1.0964
9006	22.823	4.5455	0.	-0.29595
9007	22.915	4.5455	5.e-002	-5.0992e-006
9008	23.008	4.5455	0.	-1.5098
9009	22.915	4.2727	0.	-6.0189e-002
9010	22.823	4.3636	0.	2.2604
9011	22.915	4.3636	5.e-002	-1.0531e-006
9012	23.008	4.3636	0.	5.4446
9013	22.915	4.0909	0.	-17.234
9014	22.823	4.1818	0.	-0.86589
9015	22.915	4.1818	5.e-002	-2.2102e-007
9016	23.008	4.1818	0.	-23.318
9017	22.915	3.9091	0.	-14.43
9018	22.823	4.	0.	-13.744
9019	22.915	4.	5.e-002	1.5372e-005
9020	23.008	4.	0.	-4.2564
9021	22.915	3.7273	0.	-0.63035
9022	22.823	3.8182	0.	1.499
9023	22.915	3.8182	5.e-002	1.8748e-005
9024	22.915	3.5455	0.	-1.2465
9025	22.823	3.6364	0.	-1.4867
9026	22.915	3.6364	5.e-002	1.6107e-005
9027	22.915	3.3636	0.	-0.20232
9028	22.823	3.4545	0.	-0.11756
9029	22.915	3.4545	5.e-002	9.5589e-006
9030	22.915	3.1818	0.	-0.26346
9031	22.823	3.2727	0.	-0.25551
9032	22.915	3.2727	5.e-002	9.3562e-006
9033	22.915	3.	0.	-0.16814
9034	22.823	3.0909	0.	-0.12185
9035	22.915	3.0909	5.e-002	1.7651e-005
9036	22.915	2.8182	0.	-0.26346
9037	22.823	2.9091	0.	-0.12185
9038	22.915	2.9091	5.e-002	6.0593e-006
9039	22.915	2.6364	0.	-0.20232
9040	22.823	2.7273	0.	-0.25552
9041	22.915	2.7273	5.e-002	2.4658e-005
9042	22.915	2.4545	0.	-1.2465
9043	22.823	2.5455	0.	-0.11756
9044	22.915	2.5455	5.e-002	3.6244e-005
9045	22.915	2.2727	0.	-0.63036
9046	22.823	2.3636	0.	-1.4867
9047	22.915	2.3636	5.e-002	5.1655e-005
9048	22.915	2.0909	0.	-14.43
9049	22.823	2.1818	0.	1.499
9050	22.915	2.1818	5.e-002	5.9017e-005
9051	22.915	1.9091	0.	-17.234
9052	22.823	2.	0.	-13.744
9053	22.915	2.	5.e-002	3.5986e-005
9054	23.008	2.	0.	-4.2564
9055	22.915	1.7273	0.	-6.0186e-002
9056	22.823	1.8182	0.	-0.86589
9057	22.915	1.8182	5.e-002	-5.2407e-007
9058	23.008	1.8182	0.	-23.318
9059	22.915	1.5455	0.	1.0964
9060	22.823	1.6364	0.	2.2604
9061	22.915	1.6364	5.e-002	1.2592e-005
9062	23.008	1.6364	0.	5.4446
9063	22.915	1.3636	0.	-0.46317
9064	22.823	1.4545	0.	-0.29595
9065	22.915	1.4545	5.e-002	4.2813e-006
9066	23.008	1.4545	0.	-1.5098
9067	22.915	1.1818	0.	2.4532e-002
9068	22.823	1.2727	0.	0.33637
9069	22.915	1.2727	5.e-002	3.8266e-006
9070	23.008	1.2727	0.	0.54515
9071	22.915	1.	0.	-9.565e-002
9072	22.823	1.0909	0.	0.15454
9073	22.915	1.0909	5.e-002	1.6415e-006
9074	23.008	1.0909	0.	2.5318e-002
9075	22.915	0.81818	0.	-4.7102e-002
9076	22.823	0.90909	0.	0.1891
9077	22.915	0.90909	5.e-002	5.4201e-006
9078	23.008	0.90909	0.	0.16223
9079	22.915	0.63636	0.	-4.2908e-002
9080	22.823	0.72727	0.	0.17945
9081	22.915	0.72727	5.e-002	6.5585e-006
9082	23.008	0.72727	0.	0.11893
9083	22.915	0.45455	0.	-2.5781e-002
9084	22.823	0.54545	0.	0.1903
9085	22.915	0.54545	5.e-002	4.8341e-006
9086	23.008	0.54545	0.	0.1152
9087	22.915	0.27273	0.	-3.9966e-002
9088	22.823	0.36364	0.	0.20106
9089	22.915	0.36364	5.e-002	5.0728e-006
9090	23.008	0.36364	0.	0.13562
9091	22.823	0.18182	0.	0.26471
9092	22.915	0.18182	5.e-002	6.5721e-006
9093	22.915	9.0909e-002	0.	-7.9597e-002
9094	23.008	0.18182	0.	0.2194
9095	22.73	5.7273	0.	0.37731
9096	22.638	5.8182	0.	0.26304
9097	22.73	5.8182	5.e-002	2.9564e-006
9098	22.73	5.9091	0.	0.34147
9099	22.73	5.5455	0.	0.34132
9100	22.638	5.6364	0.	0.20893
9101	22.73	5.6364	5.e-002	6.3761e-006
9102	22.73	5.3636	0.	0.35062
9103	22.638	5.4545	0.	0.23761
9104	22.73	5.4545	5.e-002	8.79e-006
9105	22.73	5.1818	0.	0.35754
9106	22.638	5.2727	0.	0.2313
9107	22.73	5.2727	5.e-002	3.5043e-006
9108	22.73	5.	0.	0.3805
9109	22.638	5.0909	0.	0.2346
9110	22.73	5.0909	5.e-002	3.4909e-006
9111	22.73	4.8182	0.	0.40146
9112	22.638	4.9091	0.	0.24163
9113	22.73	4.9091	5.e-002	-9.3292e-007
9114	22.73	4.6364	0.	0.43934
9115	22.638	4.7273	0.	0.24893
9116	22.73	4.7273	5.e-002	-1.0382e-006
9117	22.73	4.4545	0.	0.8146
9118	22.638	4.5455	0.	0.32002
9119	22.73	4.5455	5.e-002	2.9589e-007
9120	22.73	4.2727	0.	1.7451
9121	22.638	4.3636	0.	0.37029
9122	22.73	4.3636	5.e-002	-2.6477e-006
9123	22.73	4.0909	0.	2.0729
9124	22.638	4.1818	0.	1.2067
9125	22.73	4.1818	5.e-002	7.2411e-006
9126	22.73	3.9091	0.	1.8459
9127	22.638	4.	0.	0.93745
9128	22.73	4.	5.e-002	2.8274e-005
9129	22.73	3.7273	0.	0.62986
9130	22.638	3.8182	0.	0.5787
9131	22.73	3.8182	5.e-002	2.4446e-005
9132	22.73	3.5455	0.	-0.33594
9133	22.638	3.6364	0.	-0.24515
9134	22.73	3.6364	5.e-002	1.8106e-005
9135	22.73	3.3636	0.	-0.16544
9136	22.638	3.4545	0.	-0.14985
9137	22.73	3.4545	5.e-002	2.0667e-005
9138	22.73	3.1818	0.	-0.11166
9139	22.638	3.2727	0.	-0.12081
9140	22.73	3.2727	5.e-002	2.6239e-005
9141	22.73	3.	0.	-7.3936e-002
9142	22.638	3.0909	0.	-7.3448e-002
9143	22.73	3.0909	5.e-002	2.5683e-005
9144	22.73	2.8182	0.	-0.11166
9145	22.638	2.9091	0.	-7.3447e-002
9146	22.73	2.9091	5.e-002	1.0265e-005
9147	22.73	2.6364	0.	-0.16544
9148	22.638	2.7273	0.	-0.12082
9149	22.73	2.7273	5.e-002	2.031e-005
9150	22.73	2.4545	0.	-0.33594
9151	22.638	2.5455	0.	-0.14985
9152	22.73	2.5455	5.e-002	3.7408e-005
9153	22.73	2.2727	0.	0.62986
9154	22.638	2.3636	0.	-0.24515
9155	22.73	2.3636	5.e-002	3.8507e-005
9156	22.73	2.0909	0.	1.8459
9157	22.638	2.1818	0.	0.5787
9158	22.73	2.1818	5.e-002	4.0259e-005
9159	22.73	1.9091	0.	2.0729
9160	22.638	2.	0.	0.93745
9161	22.73	2.	5.e-002	3.5251e-005
9162	22.73	1.7273	0.	1.7451
9163	22.638	1.8182	0.	1.2067
9164	22.73	1.8182	5.e-002	6.5671e-006
9165	22.73	1.5455	0.	0.8146
9166	22.638	1.6364	0.	0.37029
9167	22.73	1.6364	5.e-002	7.3483e-006
9168	22.73	1.3636	0.	0.43934
9169	22.638	1.4545	0.	0.32003
9170	22.73	1.4545	5.e-002	1.3419e-005
9171	22.73	1.1818	0.	0.40146
9172	22.638	1.2727	0.	0.24893
9173	22.73	1.2727	5.e-002	7.6851e-006
9174	22.73	1.	0.	0.3805
9175	22.638	1.0909	0.	0.24163
9176	22.73	1.0909	5.e-002	1.0915e-005
9177	22.73	0.81818	0.	0.35754
9178	22.638	0.90909	0.	0.2346
9179	22.73	0.90909	5.e-002	1.0153e-005
9180	22.73	0.63636	0.	0.35062
9181	22.638	0.72727	0.	0.2313
9182	22.73	0.72727	5.e-002	8.4561e-006
9183	22.73	0.45455	0.	0.34132
9184	22.638	0.54545	0.	0.23761
9185	22.73	0.54545	5.e-002	4.285e-006
9186	22.73	0.27273	0.	0.3773
9187	22.638	0.36364	0.	0.20892
9188	22.73	0.36364	5.e-002	3.3229e-006
9189	22.638	0.18182	0.	0.26304
9190	22.73	0.18182	5.e-002	6.6307e-006
9191	22.73	9.0909e-002	0.	0.34147
9192	22.546	5.7273	0.	0.11041
9193	22.453	5.8182	0.	4.8852e-002
9194	22.546	5.8182	5.e-002	5.1576e-006
9195	22.546	5.9091	0.	0.14039
9196	22.546	5.5455	0.	0.10757
9197	22.453	5.6364	0.	5.5239e-002
9198	22.546	5.6364	5.e-002	6.0401e-006
9199	22.546	5.3636	0.	0.12045
9200	22.453	5.4545	0.	0.11125
9201	22.546	5.4545	5.e-002	8.0961e-006
9202	22.546	5.1818	0.	0.11159
9203	22.453	5.2727	0.	0.10029
9204	22.546	5.2727	5.e-002	5.0231e-006
9205	22.546	5.	0.	0.10097
9206	22.453	5.0909	0.	9.934e-002
9207	22.546	5.0909	5.e-002	2.8915e-006
9208	22.546	4.8182	0.	9.8779e-002
9209	22.453	4.9091	0.	9.0467e-002
9210	22.546	4.9091	5.e-002	2.273e-006
9211	22.546	4.6364	0.	0.14972
9212	22.453	4.7273	0.	9.6015e-002
9213	22.546	4.7273	5.e-002	-6.7434e-009
9214	22.546	4.4545	0.	-0.10505
9215	22.453	4.5455	0.	0.14052
9216	22.546	4.5455	5.e-002	-3.8158e-007
9217	22.546	4.2727	0.	-0.15031
9218	22.453	4.3636	0.	-5.5864e-002
9219	22.546	4.3636	5.e-002	-1.1218e-006
9220	22.546	4.0909	0.	3.9212e-002
9221	22.453	4.1818	0.	0.14266
9222	22.546	4.1818	5.e-002	5.9899e-006
9223	22.546	3.9091	0.	-0.31664
9224	22.453	4.	0.	6.3898e-002
9225	22.546	4.	5.e-002	2.8768e-005
9226	22.546	3.7273	0.	-0.3008
9227	22.453	3.8182	0.	-0.16638
9228	22.546	3.8182	5.e-002	2.4872e-005
9229	22.546	3.5455	0.	-5.6037e-002
9230	22.453	3.6364	0.	-1.7074e-003
9231	22.546	3.6364	5.e-002	3.1736e-005
9232	22.546	3.3636	0.	-9.9435e-002
9233	22.453	3.4545	0.	-8.4206e-002
9234	22.546	3.4545	5.e-002	2.4549e-005
9235	22.546	3.1818	0.	-7.8578e-002
9236	22.453	3.2727	0.	-6.4839e-002
9237	22.546	3.2727	5.e-002	2.891e-005
9238	22.546	3.	0.	-6.9679e-002
9239	22.453	3.0909	0.	-5.4466e-002
9240	22.546	3.0909	5.e-002	2.3921e-005
9241	22.546	2.8182	0.	-7.8578e-002
9242	22.453	2.9091	0.	-5.4466e-002
9243	22.546	2.9091	5.e-002	8.1144e-006
9244	22.546	2.6364	0.	-9.9435e-002
9245	22.453	2.7273	0.	-6.4838e-002
9246	22.546	2.7273	5.e-002	1.7685e-005
9247	22.546	2.4545	0.	-5.6038e-002
9248	22.453	2.5455	0.	-8.4206e-002
9249	22.546	2.5455	5.e-002	2.7711e-005
9250	22.546	2.2727	0.	-0.3008
9251	22.453	2.3636	0.	-1.7084e-003
9252	22.546	2.3636	5.e-002	2.5462e-005
9253	22.546	2.0909	0.	-0.31664
9254	22.453	2.1818	0.	-0.16638
9255	22.546	2.1818	5.e-002	3.0002e-005
9256	22.546	1.9091	0.	3.9212e-002
9257	22.453	2.	0.	6.3898e-002
9258	22.546	2.	5.e-002	2.1528e-005
9259	22.546	1.7273	0.	-0.15031
9260	22.453	1.8182	0.	0.14266
9261	22.546	1.8182	5.e-002	1.2038e-005
9262	22.546	1.5455	0.	-0.10505
9263	22.453	1.6364	0.	-5.5864e-002
9264	22.546	1.6364	5.e-002	9.0116e-006
9265	22.546	1.3636	0.	0.14972
9266	22.453	1.4545	0.	0.14052
9267	22.546	1.4545	5.e-002	1.2131e-005
9268	22.546	1.1818	0.	9.878e-002
9269	22.453	1.2727	0.	9.6016e-002
9270	22.546	1.2727	5.e-002	1.2029e-005
9271	22.546	1.	0.	0.10097
9272	22.453	1.0909	0.	9.047e-002
9273	22.546	1.0909	5.e-002	1.0359e-005
9274	22.546	0.81818	0.	0.11159
9275	22.453	0.90909	0.	9.9342e-002
9276	22.546	0.90909	5.e-002	9.522e-006
9277	22.546	0.63636	0.	0.12045
9278	22.453	0.72727	0.	0.10029
9279	22.546	0.72727	5.e-002	8.2606e-006
9280	22.546	0.45455	0.	0.10757
9281	22.453	0.54545	0.	0.11125
9282	22.546	0.54545	5.e-002	2.0928e-006
9283	22.546	0.27273	0.	0.11041
9284	22.453	0.36364	0.	5.5237e-002
9285	22.546	0.36364	5.e-002	3.349e-006
9286	22.453	0.18182	0.	4.8853e-002
9287	22.546	0.18182	5.e-002	9.2482e-006
9288	22.546	9.0909e-002	0.	0.14039
9289	22.361	5.7273	0.	4.2024e-002
9290	22.268	5.8182	0.	-4.1806e-002
9291	22.361	5.8182	5.e-002	7.0659e-006
9292	22.361	5.9091	0.	0.11824
9293	22.361	5.5455	0.	7.0021e-002
9294	22.268	5.6364	0.	1.4079e-004
9295	22.361	5.6364	5.e-002	5.5849e-006
9296	22.361	5.3636	0.	9.7931e-002
9297	22.268	5.4545	0.	7.6436e-002
9298	22.361	5.4545	5.e-002	7.3748e-006
9299	22.361	5.1818	0.	9.4154e-002
9300	22.268	5.2727	0.	7.1838e-002
9301	22.361	5.2727	5.e-002	1.9955e-006
9302	22.361	5.	0.	9.5552e-002
9303	22.268	5.0909	0.	7.5114e-002
9304	22.361	5.0909	5.e-002	2.3758e-006
9305	22.361	4.8182	0.	9.5561e-002
9306	22.268	4.9091	0.	7.7922e-002
9307	22.361	4.9091	5.e-002	-5.4529e-007
9308	22.361	4.6364	0.	9.5115e-002
9309	22.268	4.7273	0.	8.3054e-002
9310	22.361	4.7273	5.e-002	-1.3586e-006
9311	22.361	4.4545	0.	0.19883
9312	22.268	4.5455	0.	9.1163e-002
9313	22.361	4.5455	5.e-002	3.2817e-007
9314	22.361	4.2727	0.	0.23745
9315	22.268	4.3636	0.	0.18841
9316	22.361	4.3636	5.e-002	8.6938e-007
9317	22.361	4.0909	0.	0.16872
9318	22.268	4.1818	0.	0.14627
9319	22.361	4.1818	5.e-002	9.1033e-006
9320	22.361	3.9091	0.	0.21253
9321	22.268	4.	0.	0.13139
9322	22.361	4.	5.e-002	2.1957e-005
9323	22.361	3.7273	0.	0.12759
9324	22.268	3.8182	0.	0.13921
9325	22.361	3.8182	5.e-002	3.0375e-005
9326	22.361	3.5455	0.	-3.0286e-002
9327	22.268	3.6364	0.	2.4059e-003
9328	22.361	3.6364	5.e-002	3.3055e-005
9329	22.361	3.3636	0.	-4.6921e-002
9330	22.268	3.4545	0.	-2.9688e-002
9331	22.361	3.4545	5.e-002	2.9076e-005
9332	22.361	3.1818	0.	-3.7399e-002
9333	22.268	3.2727	0.	-2.9277e-002
9334	22.361	3.2727	5.e-002	2.2901e-005
9335	22.361	3.	0.	-3.5939e-002
9336	22.268	3.0909	0.	-2.7541e-002
9337	22.361	3.0909	5.e-002	1.7278e-005
9338	22.361	2.8182	0.	-3.7398e-002
9339	22.268	2.9091	0.	-2.7541e-002
9340	22.361	2.9091	5.e-002	7.5179e-006
9341	22.361	2.6364	0.	-4.6921e-002
9342	22.268	2.7273	0.	-2.9276e-002
9343	22.361	2.7273	5.e-002	4.2644e-006
9344	22.361	2.4545	0.	-3.0287e-002
9345	22.268	2.5455	0.	-2.9688e-002
9346	22.361	2.5455	5.e-002	1.5e-005
9347	22.361	2.2727	0.	0.12759
9348	22.268	2.3636	0.	2.4062e-003
9349	22.361	2.3636	5.e-002	1.6209e-005
9350	22.361	2.0909	0.	0.21252
9351	22.268	2.1818	0.	0.13921
9352	22.361	2.1818	5.e-002	1.4121e-005
9353	22.361	1.9091	0.	0.16872
9354	22.268	2.	0.	0.13139
9355	22.361	2.	5.e-002	7.3254e-006
9356	22.361	1.7273	0.	0.23745
9357	22.268	1.8182	0.	0.14627
9358	22.361	1.8182	5.e-002	2.5119e-006
9359	22.361	1.5455	0.	0.19883
9360	22.268	1.6364	0.	0.18841
9361	22.361	1.6364	5.e-002	6.3205e-006
9362	22.361	1.3636	0.	9.5117e-002
9363	22.268	1.4545	0.	9.1164e-002
9364	22.361	1.4545	5.e-002	8.5648e-006
9365	22.361	1.1818	0.	9.5563e-002
9366	22.268	1.2727	0.	8.3055e-002
9367	22.361	1.2727	5.e-002	1.248e-005
9368	22.361	1.	0.	9.5555e-002
9369	22.268	1.0909	0.	7.7923e-002
9370	22.361	1.0909	5.e-002	1.4894e-005
9371	22.361	0.81818	0.	9.4156e-002
9372	22.268	0.90909	0.	7.5116e-002
9373	22.361	0.90909	5.e-002	9.0984e-006
9374	22.361	0.63636	0.	9.7932e-002
9375	22.268	0.72727	0.	7.1838e-002
9376	22.361	0.72727	5.e-002	1.0283e-005
9377	22.361	0.45455	0.	7.002e-002
9378	22.268	0.54545	0.	7.6436e-002
9379	22.361	0.54545	5.e-002	6.8577e-006
9380	22.361	0.27273	0.	4.2023e-002
9381	22.268	0.36364	0.	1.3692e-004
9382	22.361	0.36364	5.e-002	4.4051e-006
9383	22.268	0.18182	0.	-4.1808e-002
9384	22.361	0.18182	5.e-002	7.6648e-006
9385	22.361	9.0909e-002	0.	0.11825
9386	22.176	5.7273	0.	-2.8326e-002
9387	22.084	5.8182	0.	-9.8636e-002
9388	22.176	5.8182	5.e-002	7.6876e-006
9389	22.176	5.9091	0.	7.608e-002
9390	22.176	5.5455	0.	1.8651e-002
9391	22.084	5.6364	0.	-4.4832e-002
9392	22.176	5.6364	5.e-002	8.5242e-006
9393	22.176	5.3636	0.	5.6823e-002
9394	22.084	5.4545	0.	4.4199e-002
9395	22.176	5.4545	5.e-002	1.0671e-005
9396	22.176	5.1818	0.	5.7757e-002
9397	22.084	5.2727	0.	4.4677e-002
9398	22.176	5.2727	5.e-002	6.3686e-006
9399	22.176	5.	0.	6.2005e-002
9400	22.084	5.0909	0.	5.2822e-002
9401	22.176	5.0909	5.e-002	4.861e-006
9402	22.176	4.8182	0.	6.9691e-002
9403	22.084	4.9091	0.	5.8467e-002
9404	22.176	4.9091	5.e-002	3.6618e-006
9405	22.176	4.6364	0.	8.2826e-002
9406	22.084	4.7273	0.	6.9953e-002
9407	22.176	4.7273	5.e-002	2.4756e-006
9408	22.176	4.4545	0.	8.2925e-002
9409	22.084	4.5455	0.	8.5026e-002
9410	22.176	4.5455	5.e-002	4.334e-006
9411	22.176	4.2727	0.	9.8151e-002
9412	22.084	4.3636	0.	8.7645e-002
9413	22.176	4.3636	5.e-002	1.6456e-006
9414	22.176	4.0909	0.	0.10927
9415	22.084	4.1818	0.	0.10771
9416	22.176	4.1818	5.e-002	4.8569e-006
9417	22.176	3.9091	0.	5.7105e-002
9418	22.084	4.	0.	9.0379e-002
9419	22.176	4.	5.e-002	1.568e-005
9420	22.176	3.7273	0.	1.2258e-002
9421	22.084	3.8182	0.	4.058e-002
9422	22.176	3.8182	5.e-002	1.9696e-005
9423	22.176	3.5455	0.	2.0912e-003
9424	22.084	3.6364	0.	1.9838e-002
9425	22.176	3.6364	5.e-002	2.775e-005
9426	22.176	3.3636	0.	-1.1119e-002
9427	22.084	3.4545	0.	1.7691e-003
9428	22.176	3.4545	5.e-002	2.5889e-005
9429	22.176	3.1818	0.	-1.7382e-002
9430	22.084	3.2727	0.	-9.0381e-003
9431	22.176	3.2727	5.e-002	2.0527e-005
9432	22.176	3.	0.	-1.6812e-002
9433	22.084	3.0909	0.	-1.0087e-002
9434	22.176	3.0909	5.e-002	1.5133e-005
9435	22.176	2.8182	0.	-1.7382e-002
9436	22.084	2.9091	0.	-1.0087e-002
9437	22.176	2.9091	5.e-002	6.8213e-006
9438	22.176	2.6364	0.	-1.1118e-002
9439	22.084	2.7273	0.	-9.0385e-003
9440	22.176	2.7273	5.e-002	7.6162e-006
9441	22.176	2.4545	0.	2.0928e-003
9442	22.084	2.5455	0.	1.7713e-003
9443	22.176	2.5455	5.e-002	7.5936e-006
9444	22.176	2.2727	0.	1.2259e-002
9445	22.084	2.3636	0.	1.9838e-002
9446	22.176	2.3636	5.e-002	8.7245e-006
9447	22.176	2.0909	0.	5.7104e-002
9448	22.084	2.1818	0.	4.058e-002
9449	22.176	2.1818	5.e-002	8.1259e-006
9450	22.176	1.9091	0.	0.10927
9451	22.084	2.	0.	9.0379e-002
9452	22.176	2.	5.e-002	6.5359e-006
9453	22.176	1.7273	0.	9.8152e-002
9454	22.084	1.8182	0.	0.10771
9455	22.176	1.8182	5.e-002	5.1947e-006
9456	22.176	1.5455	0.	8.2925e-002
9457	22.084	1.6364	0.	8.7646e-002
9458	22.176	1.6364	5.e-002	5.8336e-006
9459	22.176	1.3636	0.	8.2826e-002
9460	22.084	1.4545	0.	8.5027e-002
9461	22.176	1.4545	5.e-002	7.6124e-006
9462	22.176	1.1818	0.	6.9691e-002
9463	22.084	1.2727	0.	6.9953e-002
9464	22.176	1.2727	5.e-002	7.261e-006
9465	22.176	1.	0.	6.2006e-002
9466	22.084	1.0909	0.	5.8467e-002
9467	22.176	1.0909	5.e-002	7.6063e-006
9468	22.176	0.81818	0.	5.7758e-002
9469	22.084	0.90909	0.	5.2823e-002
9470	22.176	0.90909	5.e-002	4.7102e-006
9471	22.176	0.63636	0.	5.6823e-002
9472	22.084	0.72727	0.	4.4677e-002
9473	22.176	0.72727	5.e-002	5.6247e-006
9474	22.176	0.45455	0.	1.8648e-002
9475	22.084	0.54545	0.	4.4201e-002
9476	22.176	0.54545	5.e-002	6.2328e-006
9477	22.176	0.27273	0.	-2.8331e-002
9478	22.084	0.36364	0.	-4.4835e-002
9479	22.176	0.36364	5.e-002	4.1564e-006
9480	22.084	0.18182	0.	-9.8639e-002
9481	22.176	0.18182	5.e-002	2.7574e-006
9482	22.176	9.0909e-002	0.	7.608e-002
9483	21.991	5.7273	0.	-6.4189e-002
9484	21.899	5.8182	0.	-0.11932
9485	21.991	5.8182	5.e-002	1.0803e-005
9486	21.991	5.9091	0.	5.2358e-002
9487	21.991	5.5455	0.	-7.7264e-003
9488	21.899	5.6364	0.	-6.9275e-002
9489	21.991	5.6364	5.e-002	1.0153e-005
9490	21.991	5.3636	0.	3.7685e-002
9491	21.899	5.4545	0.	2.6196e-002
9492	21.991	5.4545	5.e-002	1.101e-005
9493	21.991	5.1818	0.	4.3543e-002
9494	21.899	5.2727	0.	3.0944e-002
9495	21.991	5.2727	5.e-002	7.5326e-006
9496	21.991	5.	0.	5.2296e-002
9497	21.899	5.0909	0.	4.2901e-002
9498	21.991	5.0909	5.e-002	6.0405e-006
9499	21.991	4.8182	0.	6.1184e-002
9500	21.899	4.9091	0.	5.1296e-002
9501	21.991	4.9091	5.e-002	3.6071e-006
9502	21.991	4.6364	0.	7.3986e-002
9503	21.899	4.7273	0.	6.1856e-002
9504	21.991	4.7273	5.e-002	9.9521e-007
9505	21.991	4.4545	0.	9.0894e-002
9506	21.899	4.5455	0.	7.4441e-002
9507	21.991	4.5455	5.e-002	4.5886e-006
9508	21.991	4.2727	0.	9.777e-002
9509	21.899	4.3636	0.	8.6735e-002
9510	21.991	4.3636	5.e-002	1.8093e-006
9511	21.991	4.0909	0.	8.8861e-002
9512	21.899	4.1818	0.	8.4936e-002
9513	21.991	4.1818	5.e-002	4.7896e-006
9514	21.991	3.9091	0.	7.3236e-002
9515	21.899	4.	0.	7.3778e-002
9516	21.991	4.	5.e-002	1.0902e-005
9517	21.991	3.7273	0.	4.7124e-002
9518	21.899	3.8182	0.	5.5973e-002
9519	21.991	3.8182	5.e-002	1.1975e-005
9520	21.991	3.5455	0.	1.8887e-002
9521	21.899	3.6364	0.	3.106e-002
9522	21.991	3.6364	5.e-002	2.0184e-005
9523	21.991	3.3636	0.	4.1373e-003
9524	21.899	3.4545	0.	1.3445e-002
9525	21.991	3.4545	5.e-002	1.6162e-005
9526	21.991	3.1818	0.	-6.837e-004
9527	21.899	3.2727	0.	5.7242e-003
9528	21.991	3.2727	5.e-002	1.3711e-005
9529	21.991	3.	0.	-2.0217e-003
9530	21.899	3.0909	0.	2.6171e-003
9531	21.991	3.0909	5.e-002	9.5639e-006
9532	21.991	2.8182	0.	-6.844e-004
9533	21.899	2.9091	0.	2.6159e-003
9534	21.991	2.9091	5.e-002	8.113e-006
9535	21.991	2.6364	0.	4.1378e-003
9536	21.899	2.7273	0.	5.7233e-003
9537	21.991	2.7273	5.e-002	6.8855e-006
9538	21.991	2.4545	0.	1.8888e-002
9539	21.899	2.5455	0.	1.3446e-002
9540	21.991	2.5455	5.e-002	6.737e-006
9541	21.991	2.2727	0.	4.7123e-002
9542	21.899	2.3636	0.	3.1059e-002
9543	21.991	2.3636	5.e-002	6.9115e-006
9544	21.991	2.0909	0.	7.3236e-002
9545	21.899	2.1818	0.	5.5973e-002
9546	21.991	2.1818	5.e-002	4.3093e-006
9547	21.991	1.9091	0.	8.8861e-002
9548	21.899	2.	0.	7.3778e-002
9549	21.991	2.	5.e-002	7.5475e-006
9550	21.991	1.7273	0.	9.7771e-002
9551	21.899	1.8182	0.	8.4937e-002
9552	21.991	1.8182	5.e-002	3.6206e-006
9553	21.991	1.5455	0.	9.0895e-002
9554	21.899	1.6364	0.	8.6737e-002
9555	21.991	1.6364	5.e-002	5.7541e-006
9556	21.991	1.3636	0.	7.3987e-002
9557	21.899	1.4545	0.	7.4441e-002
9558	21.991	1.4545	5.e-002	6.6708e-006
9559	21.991	1.1818	0.	6.1184e-002
9560	21.899	1.2727	0.	6.1857e-002
9561	21.991	1.2727	5.e-002	9.2856e-006
9562	21.991	1.	0.	5.2296e-002
9563	21.899	1.0909	0.	5.1296e-002
9564	21.991	1.0909	5.e-002	8.7879e-006
9565	21.991	0.81818	0.	4.3545e-002
9566	21.899	0.90909	0.	4.2903e-002
9567	21.991	0.90909	5.e-002	6.7069e-006
9568	21.991	0.63636	0.	3.7688e-002
9569	21.899	0.72727	0.	3.0945e-002
9570	21.991	0.72727	5.e-002	4.9379e-006
9571	21.991	0.45455	0.	-7.7257e-003
9572	21.899	0.54545	0.	2.6198e-002
9573	21.991	0.54545	5.e-002	1.7803e-006
9574	21.991	0.27273	0.	-6.419e-002
9575	21.899	0.36364	0.	-6.9278e-002
9576	21.991	0.36364	5.e-002	1.3553e-007
9577	21.899	0.18182	0.	-0.11933
9578	21.991	0.18182	5.e-002	4.3973e-006
9579	21.991	9.0909e-002	0.	5.2357e-002
9580	21.806	5.7273	0.	-8.3309e-002
9581	21.714	5.8182	0.	-0.12047
9582	21.806	5.8182	5.e-002	1.3452e-005
9583	21.806	5.9091	0.	3.3861e-002
9584	21.806	5.5455	0.	-2.4837e-002
9585	21.714	5.6364	0.	-8.2469e-002
9586	21.806	5.6364	5.e-002	9.7087e-006
9587	21.806	5.3636	0.	2.4302e-002
9588	21.714	5.4545	0.	1.4239e-002
9589	21.806	5.4545	5.e-002	1.0489e-005
9590	21.806	5.1818	0.	3.3283e-002
9591	21.714	5.2727	0.	2.1891e-002
9592	21.806	5.2727	5.e-002	5.8052e-006
9593	21.806	5.	0.	4.4035e-002
9594	21.714	5.0909	0.	3.5743e-002
9595	21.806	5.0909	5.e-002	6.5625e-006
9596	21.806	4.8182	0.	5.3553e-002
9597	21.714	4.9091	0.	4.4899e-002
9598	21.806	4.9091	5.e-002	2.2476e-006
9599	21.806	4.6364	0.	6.3433e-002
9600	21.714	4.7273	0.	5.4643e-002
9601	21.806	4.7273	5.e-002	-1.7427e-006
9602	21.806	4.4545	0.	7.0988e-002
9603	21.714	4.5455	0.	6.3234e-002
9604	21.806	4.5455	5.e-002	3.2776e-007
9605	21.806	4.2727	0.	7.4248e-002
9606	21.714	4.3636	0.	6.8364e-002
9607	21.806	4.3636	5.e-002	3.5455e-006
9608	21.806	4.0909	0.	6.9841e-002
9609	21.714	4.1818	0.	6.8385e-002
9610	21.806	4.1818	5.e-002	4.0694e-006
9611	21.806	3.9091	0.	5.614e-002
9612	21.714	4.	0.	6.0421e-002
9613	21.806	4.	5.e-002	5.2031e-006
9614	21.806	3.7273	0.	3.9351e-002
9615	21.714	3.8182	0.	4.656e-002
9616	21.806	3.8182	5.e-002	1.2743e-005
9617	21.806	3.5455	0.	2.5233e-002
9618	21.714	3.6364	0.	3.2743e-002
9619	21.806	3.6364	5.e-002	1.5352e-005
9620	21.806	3.3636	0.	1.5096e-002
9621	21.714	3.4545	0.	2.1603e-002
9622	21.806	3.4545	5.e-002	1.4288e-005
9623	21.806	3.1818	0.	9.5268e-003
9624	21.714	3.2727	0.	1.4373e-002
9625	21.806	3.2727	5.e-002	1.034e-005
9626	21.806	3.	0.	7.9318e-003
9627	21.714	3.0909	0.	1.1219e-002
9628	21.806	3.0909	5.e-002	9.0802e-006
9629	21.806	2.8182	0.	9.5254e-003
9630	21.714	2.9091	0.	1.1218e-002
9631	21.806	2.9091	5.e-002	8.2457e-006
9632	21.806	2.6364	0.	1.5095e-002
9633	21.714	2.7273	0.	1.4373e-002
9634	21.806	2.7273	5.e-002	4.581e-006
9635	21.806	2.4545	0.	2.5233e-002
9636	21.714	2.5455	0.	2.1603e-002
9637	21.806	2.5455	5.e-002	8.4775e-007
9638	21.806	2.2727	0.	3.9351e-002
9639	21.714	2.3636	0.	3.2744e-002
9640	21.806	2.3636	5.e-002	5.2947e-006
9641	21.806	2.0909	0.	5.614e-002
9642	21.714	2.1818	0.	4.6561e-002
9643	21.806	2.1818	5.e-002	5.4054e-006
9644	21.806	1.9091	0.	6.9842e-002
9645	21.714	2.	0.	6.0421e-002
9646	21.806	2.	5.e-002	5.8052e-007
9647	21.806	1.7273	0.	7.4249e-002
9648	21.714	1.8182	0.	6.8386e-002
9649	21.806	1.8182	5.e-002	4.9195e-006
9650	21.806	1.5455	0.	7.0988e-002
9651	21.714	1.6364	0.	6.8364e-002
9652	21.806	1.6364	5.e-002	5.8569e-006
9653	21.806	1.3636	0.	6.3432e-002
9654	21.714	1.4545	0.	6.3233e-002
9655	21.806	1.4545	5.e-002	6.9365e-006
9656	21.806	1.1818	0.	5.3553e-002
9657	21.714	1.2727	0.	5.4644e-002
9658	21.806	1.2727	5.e-002	5.9544e-006
9659	21.806	1.	0.	4.4037e-002
9660	21.714	1.0909	0.	4.4899e-002
9661	21.806	1.0909	5.e-002	7.3083e-006
9662	21.806	0.81818	0.	3.3284e-002
9663	21.714	0.90909	0.	3.5743e-002
9664	21.806	0.90909	5.e-002	8.6859e-006
9665	21.806	0.63636	0.	2.4303e-002
9666	21.714	0.72727	0.	2.1893e-002
9667	21.806	0.72727	5.e-002	9.2775e-006
9668	21.806	0.45455	0.	-2.4838e-002
9669	21.714	0.54545	0.	1.4241e-002
9670	21.806	0.54545	5.e-002	5.9522e-006
9671	21.806	0.27273	0.	-8.3312e-002
9672	21.714	0.36364	0.	-8.2472e-002
9673	21.806	0.36364	5.e-002	4.2323e-006
9674	21.714	0.18182	0.	-0.12047
9675	21.806	0.18182	5.e-002	8.1144e-006
9676	21.806	9.0909e-002	0.	3.3862e-002
9677	21.622	5.7273	0.	-8.9855e-002
9678	21.529	5.8182	0.	-0.11066
9679	21.622	5.8182	5.e-002	6.4895e-006
9680	21.622	5.9091	0.	2.1065e-002
9681	21.622	5.5455	0.	-3.4106e-002
9682	21.529	5.6364	0.	-8.7673e-002
9683	21.622	5.6364	5.e-002	7.9906e-006
9684	21.622	5.3636	0.	1.6017e-002
9685	21.529	5.4545	0.	6.6345e-003
9686	21.622	5.4545	5.e-002	1.0003e-005
9687	21.622	5.1818	0.	2.6774e-002
9688	21.529	5.2727	0.	1.594e-002
9689	21.622	5.2727	5.e-002	4.9365e-006
9690	21.622	5.	0.	3.8228e-002
9691	21.529	5.0909	0.	3.0485e-002
9692	21.622	5.0909	5.e-002	5.54e-006
9693	21.622	4.8182	0.	4.7128e-002
9694	21.529	4.9091	0.	3.9508e-002
9695	21.622	4.9091	5.e-002	2.4337e-006
9696	21.622	4.6364	0.	5.5227e-002
9697	21.529	4.7273	0.	4.7878e-002
9698	21.622	4.7273	5.e-002	1.3343e-006
9699	21.622	4.4545	0.	6.1101e-002
9700	21.529	4.5455	0.	5.4413e-002
9701	21.622	4.5455	5.e-002	2.456e-006
9702	21.622	4.2727	0.	6.2736e-002
9703	21.529	4.3636	0.	5.807e-002
9704	21.622	4.3636	5.e-002	3.3489e-006
9705	21.622	4.0909	0.	5.8959e-002
9706	21.529	4.1818	0.	5.7211e-002
9707	21.622	4.1818	5.e-002	1.057e-006
9708	21.622	3.9091	0.	5.0628e-002
9709	21.529	4.	0.	5.1867e-002
9710	21.622	4.	5.e-002	4.6561e-006
9711	21.622	3.7273	0.	3.9643e-002
9712	21.529	3.8182	0.	4.3296e-002
9713	21.622	3.8182	5.e-002	7.8284e-006
9714	21.622	3.5455	0.	2.8884e-002
9715	21.529	3.6364	0.	3.359e-002
9716	21.622	3.6364	5.e-002	1.1881e-005
9717	21.622	3.3636	0.	2.0871e-002
9718	21.529	3.4545	0.	2.5271e-002
9719	21.622	3.4545	5.e-002	1.1345e-005
9720	21.622	3.1818	0.	1.6283e-002
9721	21.529	3.2727	0.	1.9679e-002
9722	21.622	3.2727	5.e-002	8.3435e-006
9723	21.622	3.	0.	1.4819e-002
9724	21.529	3.0909	0.	1.6959e-002
9725	21.622	3.0909	5.e-002	8.4491e-006
9726	21.622	2.8182	0.	1.6284e-002
9727	21.529	2.9091	0.	1.6959e-002
9728	21.622	2.9091	5.e-002	8.7853e-006
9729	21.622	2.6364	0.	2.0872e-002
9730	21.529	2.7273	0.	1.9681e-002
9731	21.622	2.7273	5.e-002	5.7789e-006
9732	21.622	2.4545	0.	2.8884e-002
9733	21.529	2.5455	0.	2.5271e-002
9734	21.622	2.5455	5.e-002	5.3649e-006
9735	21.622	2.2727	0.	3.9643e-002
9736	21.529	2.3636	0.	3.3589e-002
9737	21.622	2.3636	5.e-002	5.7563e-006
9738	21.622	2.0909	0.	5.0628e-002
9739	21.529	2.1818	0.	4.3297e-002
9740	21.622	2.1818	5.e-002	2.2266e-006
9741	21.622	1.9091	0.	5.8959e-002
9742	21.529	2.	0.	5.1866e-002
9743	21.622	2.	5.e-002	2.7857e-006
9744	21.622	1.7273	0.	6.2737e-002
9745	21.529	1.8182	0.	5.7214e-002
9746	21.622	1.8182	5.e-002	5.3485e-006
9747	21.622	1.5455	0.	6.1101e-002
9748	21.529	1.6364	0.	5.8071e-002
9749	21.622	1.6364	5.e-002	5.8866e-006
9750	21.622	1.3636	0.	5.5228e-002
9751	21.529	1.4545	0.	5.4412e-002
9752	21.622	1.4545	5.e-002	2.6318e-006
9753	21.622	1.1818	0.	4.7128e-002
9754	21.529	1.2727	0.	4.7881e-002
9755	21.622	1.2727	5.e-002	5.1347e-006
9756	21.622	1.	0.	3.8226e-002
9757	21.529	1.0909	0.	3.9507e-002
9758	21.622	1.0909	5.e-002	3.1617e-006
9759	21.622	0.81818	0.	2.6774e-002
9760	21.529	0.90909	0.	3.0485e-002
9761	21.622	0.90909	5.e-002	2.3763e-006
9762	21.622	0.63636	0.	1.6019e-002
9763	21.529	0.72727	0.	1.5941e-002
9764	21.622	0.72727	5.e-002	3.8701e-006
9765	21.622	0.45455	0.	-3.4107e-002
9766	21.529	0.54545	0.	6.637e-003
9767	21.622	0.54545	5.e-002	7.4014e-006
9768	21.622	0.27273	0.	-8.9857e-002
9769	21.529	0.36364	0.	-8.7675e-002
9770	21.622	0.36364	5.e-002	8.734e-006
9771	21.529	0.18182	0.	-0.11066
9772	21.622	0.18182	5.e-002	1.0238e-005
9773	21.622	9.0909e-002	0.	2.1065e-002
9774	21.437	5.7273	0.	-8.9242e-002
9775	21.344	5.8182	0.	-9.631e-002
9776	21.437	5.8182	5.e-002	6.7324e-006
9777	21.437	5.9091	0.	1.1831e-002
9778	21.437	5.5455	0.	-3.8918e-002
9779	21.344	5.6364	0.	-8.8069e-002
9780	21.437	5.6364	5.e-002	4.658e-006
9781	21.437	5.3636	0.	1.0188e-002
9782	21.344	5.4545	0.	1.4791e-003
9783	21.437	5.4545	5.e-002	6.1727e-006
9784	21.437	5.1818	0.	2.1677e-002
9785	21.344	5.2727	0.	1.1503e-002
9786	21.437	5.2727	5.e-002	1.2436e-006
9787	21.437	5.	0.	3.3068e-002
9788	21.344	5.0909	0.	2.596e-002
9789	21.437	5.0909	5.e-002	1.0341e-006
9790	21.437	4.8182	0.	4.1137e-002
9791	21.344	4.9091	0.	3.4496e-002
9792	21.437	4.9091	5.e-002	5.3319e-008
9793	21.437	4.6364	0.	4.7656e-002
9794	21.344	4.7273	0.	4.1709e-002
9795	21.437	4.7273	5.e-002	-2.0098e-006
9796	21.437	4.4545	0.	5.175e-002
9797	21.344	4.5455	0.	4.6753e-002
9798	21.437	4.5455	5.e-002	2.8115e-007
9799	21.437	4.2727	0.	5.2726e-002
9800	21.344	4.3636	0.	4.9254e-002
9801	21.437	4.3636	5.e-002	-2.6879e-006
9802	21.437	4.0909	0.	5.0136e-002
9803	21.344	4.1818	0.	4.8684e-002
9804	21.437	4.1818	5.e-002	-1.5195e-006
9805	21.437	3.9091	0.	4.4424e-002
9806	21.344	4.	0.	4.506e-002
9807	21.437	4.	5.e-002	1.4988e-006
9808	21.437	3.7273	0.	3.7075e-002
9809	21.344	3.8182	0.	3.9253e-002
9810	21.437	3.8182	5.e-002	4.2953e-006
9811	21.437	3.5455	0.	2.9844e-002
9812	21.344	3.6364	0.	3.2753e-002
9813	21.437	3.6364	5.e-002	6.5205e-006
9814	21.437	3.3636	0.	2.4053e-002
9815	21.344	3.4545	0.	2.6921e-002
9816	21.437	3.4545	5.e-002	5.3457e-006
9817	21.437	3.1818	0.	2.0441e-002
9818	21.344	3.2727	0.	2.2702e-002
9819	21.437	3.2727	5.e-002	2.6349e-006
9820	21.437	3.	0.	1.9232e-002
9821	21.344	3.0909	0.	2.0543e-002
9822	21.437	3.0909	5.e-002	5.3116e-006
9823	21.437	2.8182	0.	2.0441e-002
9824	21.344	2.9091	0.	2.0543e-002
9825	21.437	2.9091	5.e-002	3.2993e-006
9826	21.437	2.6364	0.	2.4054e-002
9827	21.344	2.7273	0.	2.2704e-002
9828	21.437	2.7273	5.e-002	2.506e-006
9829	21.437	2.4545	0.	2.9843e-002
9830	21.344	2.5455	0.	2.692e-002
9831	21.437	2.5455	5.e-002	1.2266e-006
9832	21.437	2.2727	0.	3.7074e-002
9833	21.344	2.3636	0.	3.2753e-002
9834	21.437	2.3636	5.e-002	2.1177e-006
9835	21.437	2.0909	0.	4.4423e-002
9836	21.344	2.1818	0.	3.9254e-002
9837	21.437	2.1818	5.e-002	6.2167e-006
9838	21.437	1.9091	0.	5.0137e-002
9839	21.344	2.	0.	4.5059e-002
9840	21.437	2.	5.e-002	-7.9479e-007
9841	21.437	1.7273	0.	5.2728e-002
9842	21.344	1.8182	0.	4.8686e-002
9843	21.437	1.8182	5.e-002	1.7001e-006
9844	21.437	1.5455	0.	5.1751e-002
9845	21.344	1.6364	0.	4.9255e-002
9846	21.437	1.6364	5.e-002	4.3162e-006
9847	21.437	1.3636	0.	4.7657e-002
9848	21.344	1.4545	0.	4.6754e-002
9849	21.437	1.4545	5.e-002	3.1792e-006
9850	21.437	1.1818	0.	4.1139e-002
9851	21.344	1.2727	0.	4.1711e-002
9852	21.437	1.2727	5.e-002	1.9473e-006
9853	21.437	1.	0.	3.3068e-002
9854	21.344	1.0909	0.	3.4496e-002
9855	21.437	1.0909	5.e-002	-1.8313e-006
9856	21.437	0.81818	0.	2.1679e-002
9857	21.344	0.90909	0.	2.596e-002
9858	21.437	0.90909	5.e-002	-1.7545e-006
9859	21.437	0.63636	0.	1.019e-002
9860	21.344	0.72727	0.	1.1504e-002
9861	21.437	0.72727	5.e-002	-3.3034e-006
9862	21.437	0.45455	0.	-3.8917e-002
9863	21.344	0.54545	0.	1.4795e-003
9864	21.437	0.54545	5.e-002	-2.7624e-006
9865	21.437	0.27273	0.	-8.9244e-002
9866	21.344	0.36364	0.	-8.8071e-002
9867	21.437	0.36364	5.e-002	1.3849e-006
9868	21.344	0.18182	0.	-9.631e-002
9869	21.437	0.18182	5.e-002	5.0314e-006
9870	21.437	9.0909e-002	0.	1.1832e-002
9871	21.252	5.7273	0.	-8.4607e-002
9872	21.16	5.8182	0.	-8.0979e-002
9873	21.252	5.8182	5.e-002	7.7711e-006
9874	21.252	5.9091	0.	5.2458e-003
9875	21.252	5.5455	0.	-4.0885e-002
9876	21.16	5.6364	0.	-8.5594e-002
9877	21.252	5.6364	5.e-002	7.5587e-006
9878	21.252	5.3636	0.	5.9409e-003
9879	21.16	5.4545	0.	-2.1115e-003
9880	21.252	5.4545	5.e-002	8.2507e-006
9881	21.252	5.1818	0.	1.7512e-002
9882	21.16	5.2727	0.	8.0124e-003
9883	21.252	5.2727	5.e-002	4.1417e-006
9884	21.252	5.	0.	2.8469e-002
9885	21.16	5.0909	0.	2.1962e-002
9886	21.252	5.0909	5.e-002	4.1763e-006
9887	21.252	4.8182	0.	3.578e-002
9888	21.16	4.9091	0.	2.9929e-002
9889	21.252	4.9091	5.e-002	8.9444e-007
9890	21.252	4.6364	0.	4.1279e-002
9891	21.16	4.7273	0.	3.6267e-002
9892	21.252	4.7273	5.e-002	5.1795e-008
9893	21.252	4.4545	0.	4.4552e-002
9894	21.16	4.5455	0.	4.0436e-002
9895	21.252	4.5455	5.e-002	8.8011e-007
9896	21.252	4.2727	0.	4.5365e-002
9897	21.16	4.3636	0.	4.2477e-002
9898	21.252	4.3636	5.e-002	-1.6559e-006
9899	21.252	4.0909	0.	4.3645e-002
9900	21.16	4.1818	0.	4.2199e-002
9901	21.252	4.1818	5.e-002	-1.0725e-006
9902	21.252	3.9091	0.	3.9842e-002
9903	21.16	4.	0.	3.9818e-002
9904	21.252	4.	5.e-002	4.9019e-007
9905	21.252	3.7273	0.	3.4846e-002
9906	21.16	3.8182	0.	3.594e-002
9907	21.252	3.8182	5.e-002	1.9191e-006
9908	21.252	3.5455	0.	2.9756e-002
9909	21.16	3.6364	0.	3.1465e-002
9910	21.252	3.6364	5.e-002	5.8872e-006
9911	21.252	3.3636	0.	2.5546e-002
9912	21.16	3.4545	0.	2.7327e-002
9913	21.252	3.4545	5.e-002	2.9635e-006
9914	21.252	3.1818	0.	2.2834e-002
9915	21.16	3.2727	0.	2.4239e-002
9916	21.252	3.2727	5.e-002	1.678e-006
9917	21.252	3.	0.	2.1906e-002
9918	21.16	3.0909	0.	2.2613e-002
9919	21.252	3.0909	5.e-002	5.0032e-006
9920	21.252	2.8182	0.	2.2836e-002
9921	21.16	2.9091	0.	2.2614e-002
9922	21.252	2.9091	5.e-002	3.5961e-006
9923	21.252	2.6364	0.	2.5546e-002
9924	21.16	2.7273	0.	2.424e-002
9925	21.252	2.7273	5.e-002	2.3015e-006
9926	21.252	2.4545	0.	2.9756e-002
9927	21.16	2.5455	0.	2.7327e-002
9928	21.252	2.5455	5.e-002	2.1845e-006
9929	21.252	2.2727	0.	3.4847e-002
9930	21.16	2.3636	0.	3.1465e-002
9931	21.252	2.3636	5.e-002	4.1421e-006
9932	21.252	2.0909	0.	3.9842e-002
9933	21.16	2.1818	0.	3.5941e-002
9934	21.252	2.1818	5.e-002	1.4243e-006
9935	21.252	1.9091	0.	4.3644e-002
9936	21.16	2.	0.	3.9818e-002
9937	21.252	2.	5.e-002	3.5968e-006
9938	21.252	1.7273	0.	4.5365e-002
9939	21.16	1.8182	0.	4.2201e-002
9940	21.252	1.8182	5.e-002	1.958e-006
9941	21.252	1.5455	0.	4.4552e-002
9942	21.16	1.6364	0.	4.2476e-002
9943	21.252	1.6364	5.e-002	3.1568e-006
9944	21.252	1.3636	0.	4.128e-002
9945	21.16	1.4545	0.	4.0437e-002
9946	21.252	1.4545	5.e-002	3.3248e-006
9947	21.252	1.1818	0.	3.578e-002
9948	21.16	1.2727	0.	3.6268e-002
9949	21.252	1.2727	5.e-002	3.7581e-006
9950	21.252	1.	0.	2.8469e-002
9951	21.16	1.0909	0.	2.9928e-002
9952	21.252	1.0909	5.e-002	-2.1214e-007
9953	21.252	0.81818	0.	1.7513e-002
9954	21.16	0.90909	0.	2.1963e-002
9955	21.252	0.90909	5.e-002	-2.659e-006
9956	21.252	0.63636	0.	5.9407e-003
9957	21.16	0.72727	0.	8.0146e-003
9958	21.252	0.72727	5.e-002	-3.0923e-006
9959	21.252	0.45455	0.	-4.0886e-002
9960	21.16	0.54545	0.	-2.1135e-003
9961	21.252	0.54545	5.e-002	-5.085e-006
9962	21.252	0.27273	0.	-8.4607e-002
9963	21.16	0.36364	0.	-8.5596e-002
9964	21.252	0.36364	5.e-002	2.9416e-007
9965	21.16	0.18182	0.	-8.0979e-002
9966	21.252	0.18182	5.e-002	8.6746e-006
9967	21.252	9.0909e-002	0.	5.2449e-003
9968	21.067	5.7273	0.	-7.8078e-002
9969	20.975	5.8182	0.	-6.6577e-002
9970	21.067	5.8182	5.e-002	1.2888e-005
9971	21.067	5.9091	0.	5.2733e-004
9972	21.067	5.5455	0.	-4.1161e-002
9973	20.975	5.6364	0.	-8.1553e-002
9974	21.067	5.6364	5.e-002	7.2221e-006
9975	21.067	5.3636	0.	2.6817e-003
9976	20.975	5.4545	0.	-4.6925e-003
9977	21.067	5.4545	5.e-002	9.1638e-006
9978	21.067	5.1818	0.	1.395e-002
9979	20.975	5.2727	0.	5.1579e-003
9980	21.067	5.2727	5.e-002	3.6613e-006
9981	21.067	5.	0.	2.4336e-002
9982	20.975	5.0909	0.	1.8396e-002
9983	21.067	5.0909	5.e-002	3.3911e-006
9984	21.067	4.8182	0.	3.1011e-002
9985	20.975	4.9091	0.	2.582e-002
9986	21.067	4.9091	5.e-002	1.1949e-006
9987	21.067	4.6364	0.	3.5816e-002
9988	20.975	4.7273	0.	3.1514e-002
9989	21.067	4.7273	5.e-002	-2.0071e-006
9990	21.067	4.4545	0.	3.8608e-002
9991	20.975	4.5455	0.	3.5148e-002
9992	21.067	4.5455	5.e-002	3.3341e-006
9993	21.067	4.2727	0.	3.9448e-002
9994	20.975	4.3636	0.	3.698e-002
9995	21.067	4.3636	5.e-002	-2.3088e-006
9996	21.067	4.0909	0.	3.8425e-002
9997	20.975	4.1818	0.	3.7031e-002
9998	21.067	4.1818	5.e-002	-1.1966e-006
9999	21.067	3.9091	0.	3.5909e-002
10000	20.975	4.	0.	3.5543e-002
10001	21.067	4.	5.e-002	2.7617e-008
10002	21.067	3.7273	0.	3.2523e-002
10003	20.975	3.8182	0.	3.2966e-002
10004	21.067	3.8182	5.e-002	2.5661e-007
10005	21.067	3.5455	0.	2.9001e-002
10006	20.975	3.6364	0.	2.9919e-002
10007	21.067	3.6364	5.e-002	3.2362e-006
10008	21.067	3.3636	0.	2.6006e-002
10009	20.975	3.4545	0.	2.7027e-002
10010	21.067	3.4545	5.e-002	1.3217e-006
10011	21.067	3.1818	0.	2.4029e-002
10012	20.975	3.2727	0.	2.4816e-002
10013	21.067	3.2727	5.e-002	1.2025e-006
10014	21.067	3.	0.	2.3342e-002
10015	20.975	3.0909	0.	2.3628e-002
10016	21.067	3.0909	5.e-002	1.9854e-006
10017	21.067	2.8182	0.	2.4028e-002
10018	20.975	2.9091	0.	2.3629e-002
10019	21.067	2.9091	5.e-002	2.7885e-006
10020	21.067	2.6364	0.	2.6006e-002
10021	20.975	2.7273	0.	2.4815e-002
10022	21.067	2.7273	5.e-002	2.684e-006
10023	21.067	2.4545	0.	2.9e-002
10024	20.975	2.5455	0.	2.7028e-002
10025	21.067	2.5455	5.e-002	2.6808e-006
10026	21.067	2.2727	0.	3.2522e-002
10027	20.975	2.3636	0.	2.9917e-002
10028	21.067	2.3636	5.e-002	3.6553e-006
10029	21.067	2.0909	0.	3.5909e-002
10030	20.975	2.1818	0.	3.2967e-002
10031	21.067	2.1818	5.e-002	1.8453e-006
10032	21.067	1.9091	0.	3.8426e-002
10033	20.975	2.	0.	3.5544e-002
10034	21.067	2.	5.e-002	2.8552e-006
10035	21.067	1.7273	0.	3.9449e-002
10036	20.975	1.8182	0.	3.7032e-002
10037	21.067	1.8182	5.e-002	3.8257e-006
10038	21.067	1.5455	0.	3.8608e-002
10039	20.975	1.6364	0.	3.6979e-002
10040	21.067	1.6364	5.e-002	1.9189e-006
10041	21.067	1.3636	0.	3.5816e-002
10042	20.975	1.4545	0.	3.5148e-002
10043	21.067	1.4545	5.e-002	3.7538e-006
10044	21.067	1.1818	0.	3.1011e-002
10045	20.975	1.2727	0.	3.1515e-002
10046	21.067	1.2727	5.e-002	1.9334e-006
10047	21.067	1.	0.	2.4336e-002
10048	20.975	1.0909	0.	2.582e-002
10049	21.067	1.0909	5.e-002	1.2758e-006
10050	21.067	0.81818	0.	1.3953e-002
10051	20.975	0.90909	0.	1.8397e-002
10052	21.067	0.90909	5.e-002	-3.552e-006
10053	21.067	0.63636	0.	2.6822e-003
10054	20.975	0.72727	0.	5.1605e-003
10055	21.067	0.72727	5.e-002	-4.784e-006
10056	21.067	0.45455	0.	-4.1163e-002
10057	20.975	0.54545	0.	-4.692e-003
10058	21.067	0.54545	5.e-002	-8.6516e-006
10059	21.067	0.27273	0.	-7.808e-002
10060	20.975	0.36364	0.	-8.1555e-002
10061	21.067	0.36364	5.e-002	-6.7817e-006
10062	20.975	0.18182	0.	-6.6579e-002
10063	21.067	0.18182	5.e-002	-6.9275e-007
10064	21.067	9.0909e-002	0.	5.2801e-004
10065	20.882	5.7273	0.	-7.0914e-002
10066	20.79	5.8182	0.	-5.3924e-002
10067	20.882	5.8182	5.e-002	1.3548e-005
10068	20.882	5.9091	0.	-2.8352e-003
10069	20.882	5.5455	0.	-4.0424e-002
10070	20.79	5.6364	0.	-7.6759e-002
10071	20.882	5.6364	5.e-002	1.0751e-005
10072	20.882	5.3636	0.	1.3188e-004
10073	20.79	5.4545	0.	-6.5652e-003
10074	20.882	5.4545	5.e-002	9.9283e-006
10075	20.882	5.1818	0.	1.0896e-002
10076	20.79	5.2727	0.	2.7976e-003
10077	20.882	5.2727	5.e-002	6.9514e-006
10078	20.882	5.	0.	2.0671e-002
10079	20.79	5.0909	0.	1.5248e-002
10080	20.882	5.0909	5.e-002	7.3878e-006
10081	20.882	4.8182	0.	2.6835e-002
10082	20.79	4.9091	0.	2.2186e-002
10083	20.882	4.9091	5.e-002	4.5077e-006
10084	20.882	4.6364	0.	3.1183e-002
10085	20.79	4.7273	0.	2.741e-002
10086	20.882	4.7273	5.e-002	1.0222e-006
10087	20.882	4.4545	0.	3.3735e-002
10088	20.79	4.5455	0.	3.0723e-002
10089	20.882	4.5455	5.e-002	3.5191e-006
10090	20.882	4.2727	0.	3.4691e-002
10091	20.79	4.3636	0.	3.2496e-002
10092	20.882	4.3636	5.e-002	-3.2437e-007
10093	20.882	4.0909	0.	3.4213e-002
10094	20.79	4.1818	0.	3.2847e-002
10095	20.882	4.1818	5.e-002	1.6e-006
10096	20.882	3.9091	0.	3.2619e-002
10097	20.79	4.	0.	3.202e-002
10098	20.882	4.	5.e-002	2.7231e-006
10099	20.882	3.7273	0.	3.0357e-002
10100	20.79	3.8182	0.	3.0367e-002
10101	20.882	3.8182	5.e-002	2.8779e-006
10102	20.882	3.5455	0.	2.7935e-002
10103	20.79	3.6364	0.	2.8319e-002
10104	20.882	3.6364	5.e-002	5.8364e-006
10105	20.882	3.3636	0.	2.5834e-002
10106	20.79	3.4545	0.	2.6328e-002
10107	20.882	3.4545	5.e-002	4.9074e-006
10108	20.882	3.1818	0.	2.4424e-002
10109	20.79	3.2727	0.	2.4777e-002
10110	20.882	3.2727	5.e-002	2.9648e-006
10111	20.882	3.	0.	2.3929e-002
10112	20.79	3.0909	0.	2.3932e-002
10113	20.882	3.0909	5.e-002	4.8018e-006
10114	20.882	2.8182	0.	2.4424e-002
10115	20.79	2.9091	0.	2.3933e-002
10116	20.882	2.9091	5.e-002	6.6453e-006
10117	20.882	2.6364	0.	2.5834e-002
10118	20.79	2.7273	0.	2.4776e-002
10119	20.882	2.7273	5.e-002	6.6051e-006
10120	20.882	2.4545	0.	2.7935e-002
10121	20.79	2.5455	0.	2.6329e-002
10122	20.882	2.5455	5.e-002	7.5609e-006
10123	20.882	2.2727	0.	3.0357e-002
10124	20.79	2.3636	0.	2.8319e-002
10125	20.882	2.3636	5.e-002	6.6372e-006
10126	20.882	2.0909	0.	3.2621e-002
10127	20.79	2.1818	0.	3.0367e-002
10128	20.882	2.1818	5.e-002	4.7639e-006
10129	20.882	1.9091	0.	3.4212e-002
10130	20.79	2.	0.	3.2021e-002
10131	20.882	2.	5.e-002	4.7706e-006
10132	20.882	1.7273	0.	3.469e-002
10133	20.79	1.8182	0.	3.2846e-002
10134	20.882	1.8182	5.e-002	5.71e-006
10135	20.882	1.5455	0.	3.3735e-002
10136	20.79	1.6364	0.	3.2496e-002
10137	20.882	1.6364	5.e-002	5.6109e-006
10138	20.882	1.3636	0.	3.1183e-002
10139	20.79	1.4545	0.	3.0723e-002
10140	20.882	1.4545	5.e-002	4.634e-006
10141	20.882	1.1818	0.	2.6835e-002
10142	20.79	1.2727	0.	2.741e-002
10143	20.882	1.2727	5.e-002	4.5656e-006
10144	20.882	1.	0.	2.0671e-002
10145	20.79	1.0909	0.	2.2186e-002
10146	20.882	1.0909	5.e-002	4.0612e-006
10147	20.882	0.81818	0.	1.0897e-002
10148	20.79	0.90909	0.	1.5248e-002
10149	20.882	0.90909	5.e-002	4.6045e-007
10150	20.882	0.63636	0.	1.3462e-004
10151	20.79	0.72727	0.	2.8015e-003
10152	20.882	0.72727	5.e-002	4.6703e-007
10153	20.882	0.45455	0.	-4.0424e-002
10154	20.79	0.54545	0.	-6.5645e-003
10155	20.882	0.54545	5.e-002	-1.6989e-007
10156	20.882	0.27273	0.	-7.0916e-002
10157	20.79	0.36364	0.	-7.676e-002
10158	20.882	0.36364	5.e-002	7.3022e-007
10159	20.79	0.18182	0.	-5.3925e-002
10160	20.882	0.18182	5.e-002	1.0347e-006
10161	20.882	9.0909e-002	0.	-2.8362e-003
10162	20.698	5.7273	0.	-6.3831e-002
10163	20.605	5.8182	0.	-4.3239e-002
10164	20.698	5.8182	5.e-002	1.2018e-005
10165	20.698	5.9091	0.	-5.2125e-003
10166	20.698	5.5455	0.	-3.9102e-002
10167	20.605	5.6364	0.	-7.1713e-002
10168	20.698	5.6364	5.e-002	8.8793e-006
10169	20.698	5.3636	0.	-1.8782e-003
10170	20.605	5.4545	0.	-7.9173e-003
10171	20.698	5.4545	5.e-002	1.1301e-005
10172	20.698	5.1818	0.	8.2766e-003
10173	20.605	5.2727	0.	8.5069e-004
10174	20.698	5.2727	5.e-002	6.1096e-006
10175	20.698	5.	0.	1.7453e-002
10176	20.605	5.0909	0.	1.2498e-002
10177	20.698	5.0909	5.e-002	6.371e-006
10178	20.698	4.8182	0.	2.3207e-002
10179	20.605	4.9091	0.	1.9009e-002
10180	20.698	4.9091	5.e-002	4.0467e-006
10181	20.698	4.6364	0.	2.7245e-002
10182	20.605	4.7273	0.	2.3882e-002
10183	20.698	4.7273	5.e-002	1.7258e-006
10184	20.698	4.4545	0.	2.9678e-002
10185	20.605	4.5455	0.	2.6999e-002
10186	20.698	4.5455	5.e-002	3.2658e-006
10187	20.698	4.2727	0.	3.0774e-002
10188	20.605	4.3636	0.	2.8781e-002
10189	20.698	4.3636	5.e-002	2.3853e-006
10190	20.698	4.0909	0.	3.0724e-002
10191	20.605	4.1818	0.	2.9389e-002
10192	20.698	4.1818	5.e-002	1.512e-006
10193	20.698	3.9091	0.	2.9803e-002
10194	20.605	4.	0.	2.906e-002
10195	20.698	4.	5.e-002	1.6515e-006
10196	20.698	3.7273	0.	2.8345e-002
10197	20.605	3.8182	0.	2.8072e-002
10198	20.698	3.8182	5.e-002	3.6808e-006
10199	20.698	3.5455	0.	2.672e-002
10200	20.605	3.6364	0.	2.6747e-002
10201	20.698	3.6364	5.e-002	5.6942e-006
10202	20.698	3.3636	0.	2.5279e-002
10203	20.605	3.4545	0.	2.5413e-002
10204	20.698	3.4545	5.e-002	5.7468e-006
10205	20.698	3.1818	0.	2.4298e-002
10206	20.605	3.2727	0.	2.4352e-002
10207	20.698	3.2727	5.e-002	4.8014e-006
10208	20.698	3.	0.	2.3951e-002
10209	20.605	3.0909	0.	2.3767e-002
10210	20.698	3.0909	5.e-002	4.7811e-006
10211	20.698	2.8182	0.	2.4298e-002
10212	20.605	2.9091	0.	2.3768e-002
10213	20.698	2.9091	5.e-002	7.6177e-006
10214	20.698	2.6364	0.	2.528e-002
10215	20.605	2.7273	0.	2.4352e-002
10216	20.698	2.7273	5.e-002	7.6049e-006
10217	20.698	2.4545	0.	2.6721e-002
10218	20.605	2.5455	0.	2.5414e-002
10219	20.698	2.5455	5.e-002	7.615e-006
10220	20.698	2.2727	0.	2.8345e-002
10221	20.605	2.3636	0.	2.6748e-002
10222	20.698	2.3636	5.e-002	6.6878e-006
10223	20.698	2.0909	0.	2.9803e-002
10224	20.605	2.1818	0.	2.8073e-002
10225	20.698	2.1818	5.e-002	7.6786e-006
10226	20.698	1.9091	0.	3.0725e-002
10227	20.605	2.	0.	2.9061e-002
10228	20.698	2.	5.e-002	5.7768e-006
10229	20.698	1.7273	0.	3.0774e-002
10230	20.605	1.8182	0.	2.9389e-002
10231	20.698	1.8182	5.e-002	6.7232e-006
10232	20.698	1.5455	0.	2.9678e-002
10233	20.605	1.6364	0.	2.8781e-002
10234	20.698	1.6364	5.e-002	5.7043e-006
10235	20.698	1.3636	0.	2.7246e-002
10236	20.605	1.4545	0.	2.7e-002
10237	20.698	1.4545	5.e-002	5.5802e-006
10238	20.698	1.1818	0.	2.3208e-002
10239	20.605	1.2727	0.	2.3881e-002
10240	20.698	1.2727	5.e-002	7.077e-006
10241	20.698	1.	0.	1.7454e-002
10242	20.605	1.0909	0.	1.901e-002
10243	20.698	1.0909	5.e-002	5.0141e-006
10244	20.698	0.81818	0.	8.2797e-003
10245	20.605	0.90909	0.	1.25e-002
10246	20.698	0.90909	5.e-002	5.2626e-006
10247	20.698	0.63636	0.	-1.8764e-003
10248	20.605	0.72727	0.	8.5288e-004
10249	20.698	0.72727	5.e-002	5.1901e-006
10250	20.698	0.45455	0.	-3.9102e-002
10251	20.605	0.54545	0.	-7.9188e-003
10252	20.698	0.54545	5.e-002	5.7205e-006
10253	20.698	0.27273	0.	-6.383e-002
10254	20.605	0.36364	0.	-7.1715e-002
10255	20.698	0.36364	5.e-002	3.5031e-006
10256	20.605	0.18182	0.	-4.3237e-002
10257	20.698	0.18182	5.e-002	7.9437e-006
10258	20.698	9.0909e-002	0.	-5.2131e-003
10259	20.513	5.7273	0.	-5.7198e-002
10260	20.42	5.8182	0.	-3.4436e-002
10261	20.513	5.8182	5.e-002	1.0665e-005
10262	20.513	5.9091	0.	-6.8645e-003
10263	20.513	5.5455	0.	-3.7459e-002
10264	20.42	5.6364	0.	-6.6711e-002
10265	20.513	5.6364	5.e-002	6.0997e-006
10266	20.513	5.3636	0.	-3.4518e-003
10267	20.42	5.4545	0.	-8.8717e-003
10268	20.513	5.4545	5.e-002	8.6366e-006
10269	20.513	5.1818	0.	6.0584e-003
10270	20.42	5.2727	0.	-7.4016e-004
10271	20.513	5.2727	5.e-002	4.079e-006
10272	20.513	5.	0.	1.4663e-002
10273	20.42	5.0909	0.	1.0126e-002
10274	20.513	5.0909	5.e-002	3.7019e-006
10275	20.513	4.8182	0.	2.008e-002
10276	20.42	4.9091	0.	1.626e-002
10277	20.513	4.9091	5.e-002	2.5887e-006
10278	20.513	4.6364	0.	2.3901e-002
10279	20.42	4.7273	0.	2.0858e-002
10280	20.513	4.7273	5.e-002	-6.5645e-007
10281	20.513	4.4545	0.	2.628e-002
10282	20.42	4.5455	0.	2.3855e-002
10283	20.513	4.5455	5.e-002	-8.2768e-007
10284	20.513	4.2727	0.	2.7513e-002
10285	20.42	4.3636	0.	2.5672e-002
10286	20.513	4.3636	5.e-002	-1.6533e-006
10287	20.513	4.0909	0.	2.78e-002
10288	20.42	4.1818	0.	2.6495e-002
10289	20.513	4.1818	5.e-002	-1.5393e-006
10290	20.513	3.9091	0.	2.7376e-002
10291	20.42	4.	0.	2.6545e-002
10292	20.513	4.	5.e-002	-1.3827e-006
10293	20.513	3.7273	0.	2.6504e-002
10294	20.42	3.8182	0.	2.6045e-002
10295	20.513	3.8182	5.e-002	6.657e-007
10296	20.513	3.5455	0.	2.5461e-002
10297	20.42	3.6364	0.	2.5248e-002
10298	20.513	3.6364	5.e-002	3.6617e-006
10299	20.513	3.3636	0.	2.4504e-002
10300	20.42	3.4545	0.	2.4393e-002
10301	20.513	3.4545	5.e-002	3.7434e-006
10302	20.513	3.1818	0.	2.384e-002
10303	20.42	3.2727	0.	2.3694e-002
10304	20.513	3.2727	5.e-002	-2.6305e-008
10305	20.513	3.	0.	2.3603e-002
10306	20.42	3.0909	0.	2.3303e-002
10307	20.513	3.0909	5.e-002	9.4817e-007
10308	20.513	2.8182	0.	2.384e-002
10309	20.42	2.9091	0.	2.3303e-002
10310	20.513	2.9091	5.e-002	3.8199e-006
10311	20.513	2.6364	0.	2.4504e-002
10312	20.42	2.7273	0.	2.3694e-002
10313	20.513	2.7273	5.e-002	4.79e-006
10314	20.513	2.4545	0.	2.5461e-002
10315	20.42	2.5455	0.	2.4394e-002
10316	20.513	2.5455	5.e-002	3.8646e-006
10317	20.513	2.2727	0.	2.6504e-002
10318	20.42	2.3636	0.	2.5247e-002
10319	20.513	2.3636	5.e-002	4.8615e-006
10320	20.513	2.0909	0.	2.7377e-002
10321	20.42	2.1818	0.	2.6045e-002
10322	20.513	2.1818	5.e-002	3.9588e-006
10323	20.513	1.9091	0.	2.78e-002
10324	20.42	2.	0.	2.6545e-002
10325	20.513	2.	5.e-002	3.0314e-006
10326	20.513	1.7273	0.	2.7514e-002
10327	20.42	1.8182	0.	2.6496e-002
10328	20.513	1.8182	5.e-002	4.9337e-006
10329	20.513	1.5455	0.	2.628e-002
10330	20.42	1.6364	0.	2.5673e-002
10331	20.513	1.6364	5.e-002	6.817e-006
10332	20.513	1.3636	0.	2.39e-002
10333	20.42	1.4545	0.	2.3854e-002
10334	20.513	1.4545	5.e-002	3.9388e-006
10335	20.513	1.1818	0.	2.008e-002
10336	20.42	1.2727	0.	2.0859e-002
10337	20.513	1.2727	5.e-002	3.6278e-006
10338	20.513	1.	0.	1.4666e-002
10339	20.42	1.0909	0.	1.6262e-002
10340	20.513	1.0909	5.e-002	5.6188e-006
10341	20.513	0.81818	0.	6.0597e-003
10342	20.42	0.90909	0.	1.013e-002
10343	20.513	0.90909	5.e-002	5.3924e-006
10344	20.513	0.63636	0.	-3.453e-003
10345	20.42	0.72727	0.	-7.4044e-004
10346	20.513	0.72727	5.e-002	5.2096e-006
10347	20.513	0.45455	0.	-3.7461e-002
10348	20.42	0.54545	0.	-8.8741e-003
10349	20.513	0.54545	5.e-002	7.1403e-006
10350	20.513	0.27273	0.	-5.7197e-002
10351	20.42	0.36364	0.	-6.6714e-002
10352	20.513	0.36364	5.e-002	4.5749e-006
10353	20.42	0.18182	0.	-3.4433e-002
10354	20.513	0.18182	5.e-002	3.5754e-006
10355	20.513	9.0909e-002	0.	-6.8632e-003
10356	20.328	5.7273	0.	-5.1181e-002
10357	20.236	5.8182	0.	-2.7293e-002
10358	20.328	5.8182	5.e-002	1.2221e-005
10359	20.328	5.9091	0.	-7.9818e-003
10360	20.328	5.5455	0.	-3.5659e-002
10361	20.236	5.6364	0.	-6.1921e-002
10362	20.328	5.6364	5.e-002	5.8328e-006
10363	20.328	5.3636	0.	-4.67e-003
10364	20.236	5.4545	0.	-9.5168e-003
10365	20.328	5.4545	5.e-002	5.3536e-006
10366	20.328	5.1818	0.	4.1934e-003
10367	20.236	5.2727	0.	-2.0245e-003
10368	20.328	5.2727	5.e-002	2.9529e-007
10369	20.328	5.	0.	1.2265e-002
10370	20.236	5.0909	0.	8.1041e-003
10371	20.328	5.0909	5.e-002	4.5824e-007
10372	20.328	4.8182	0.	1.7393e-002
10373	20.236	4.9091	0.	1.3899e-002
10374	20.328	4.9091	5.e-002	-5.8126e-007
10375	20.328	4.6364	0.	2.1052e-002
10376	20.236	4.7273	0.	1.8272e-002
10377	20.328	4.7273	5.e-002	-4.4995e-006
10378	20.328	4.4545	0.	2.3412e-002
10379	20.236	4.5455	0.	2.1185e-002
10380	20.328	4.5455	5.e-002	-7.1067e-007
10381	20.328	4.2727	0.	2.4768e-002
10382	20.236	4.3636	0.	2.3048e-002
10383	20.328	4.3636	5.e-002	-3.7016e-006
10384	20.328	4.0909	0.	2.5318e-002
10385	20.236	4.1818	0.	2.4047e-002
10386	20.328	4.1818	5.e-002	-3.5027e-006
10387	20.328	3.9091	0.	2.5268e-002
10388	20.236	4.	0.	2.4384e-002
10389	20.328	4.	5.e-002	-2.4566e-006
10390	20.328	3.7273	0.	2.4827e-002
10391	20.236	3.8182	0.	2.4248e-002
10392	20.328	3.8182	5.e-002	-4.1873e-006
10393	20.328	3.5455	0.	2.421e-002
10394	20.236	3.6364	0.	2.3837e-002
10395	20.328	3.6364	5.e-002	1.6528e-006
10396	20.328	3.3636	0.	2.3609e-002
10397	20.236	3.4545	0.	2.3336e-002
10398	20.328	3.4545	5.e-002	-1.5224e-007
10399	20.328	3.1818	0.	2.3182e-002
10400	20.236	3.2727	0.	2.2903e-002
10401	20.328	3.2727	5.e-002	-7.6722e-008
10402	20.328	3.	0.	2.3027e-002
10403	20.236	3.0909	0.	2.2656e-002
10404	20.328	3.0909	5.e-002	9.3213e-007
10405	20.328	2.8182	0.	2.3181e-002
10406	20.236	2.9091	0.	2.2656e-002
10407	20.328	2.9091	5.e-002	1.9283e-006
10408	20.328	2.6364	0.	2.3609e-002
10409	20.236	2.7273	0.	2.2904e-002
10410	20.328	2.7273	5.e-002	1.9732e-006
10411	20.328	2.4545	0.	2.4209e-002
10412	20.236	2.5455	0.	2.3336e-002
10413	20.328	2.5455	5.e-002	2.0158e-006
10414	20.328	2.2727	0.	2.4826e-002
10415	20.236	2.3636	0.	2.3838e-002
10416	20.328	2.3636	5.e-002	1.1207e-006
10417	20.328	2.0909	0.	2.5267e-002
10418	20.236	2.1818	0.	2.4248e-002
10419	20.328	2.1818	5.e-002	2.1138e-006
10420	20.328	1.9091	0.	2.5318e-002
10421	20.236	2.	0.	2.4384e-002
10422	20.328	2.	5.e-002	2.1419e-006
10423	20.328	1.7273	0.	2.4768e-002
10424	20.236	1.8182	0.	2.4047e-002
10425	20.328	1.8182	5.e-002	2.2015e-006
10426	20.328	1.5455	0.	2.3411e-002
10427	20.236	1.6364	0.	2.3048e-002
10428	20.328	1.6364	5.e-002	2.1342e-006
10429	20.328	1.3636	0.	2.1053e-002
10430	20.236	1.4545	0.	2.1185e-002
10431	20.328	1.4545	5.e-002	1.9755e-006
10432	20.328	1.1818	0.	1.7396e-002
10433	20.236	1.2727	0.	1.8274e-002
10434	20.328	1.2727	5.e-002	3.7729e-006
10435	20.328	1.	0.	1.2268e-002
10436	20.236	1.0909	0.	1.39e-002
10437	20.328	1.0909	5.e-002	3.7633e-006
10438	20.328	0.81818	0.	4.1954e-003
10439	20.236	0.90909	0.	8.1059e-003
10440	20.328	0.90909	5.e-002	3.361e-006
10441	20.328	0.63636	0.	-4.6714e-003
10442	20.236	0.72727	0.	-2.0237e-003
10443	20.328	0.72727	5.e-002	3.0238e-006
10444	20.328	0.45455	0.	-3.5662e-002
10445	20.236	0.54545	0.	-9.5208e-003
10446	20.328	0.54545	5.e-002	2.3131e-006
10447	20.328	0.27273	0.	-5.1181e-002
10448	20.236	0.36364	0.	-6.1923e-002
10449	20.328	0.36364	5.e-002	3.1911e-006
10450	20.236	0.18182	0.	-2.729e-002
10451	20.328	0.18182	5.e-002	5.1554e-006
10452	20.328	9.0909e-002	0.	-7.9834e-003
10453	20.143	5.7273	0.	-4.5824e-002
10454	20.051	5.8182	0.	-2.1552e-002
10455	20.143	5.8182	5.e-002	1.0881e-005
10456	20.143	5.9091	0.	-8.7052e-003
10457	20.143	5.5455	0.	-3.3811e-002
10458	20.051	5.6364	0.	-5.7428e-002
10459	20.143	5.6364	5.e-002	5.4852e-006
10460	20.143	5.3636	0.	-5.5935e-003
10461	20.051	5.4545	0.	-9.9211e-003
10462	20.143	5.4545	5.e-002	6.9936e-006
10463	20.143	5.1818	0.	2.6474e-003
10464	20.051	5.2727	0.	-3.0424e-003
10465	20.143	5.2727	5.e-002	1.0621e-006
10466	20.143	5.	0.	1.0221e-002
10467	20.051	5.0909	0.	6.3952e-003
10468	20.143	5.0909	5.e-002	1.5242e-006
10469	20.143	4.8182	0.	1.5098e-002
10470	20.051	4.9091	0.	1.188e-002
10471	20.143	4.9091	5.e-002	5.8252e-007
10472	20.143	4.6364	0.	1.8625e-002
10473	20.051	4.7273	0.	1.6064e-002
10474	20.143	4.7273	5.e-002	-3.4601e-006
10475	20.143	4.4545	0.	2.0975e-002
10476	20.051	4.5455	0.	1.8911e-002
10477	20.143	4.5455	5.e-002	-9.4018e-007
10478	20.143	4.2727	0.	2.2436e-002
10479	20.051	4.3636	0.	2.0816e-002
10480	20.143	4.3636	5.e-002	-3.6282e-006
10481	20.143	4.0909	0.	2.3191e-002
10482	20.051	4.1818	0.	2.1954e-002
10483	20.143	4.1818	5.e-002	-4.52e-006
10484	20.143	3.9091	0.	2.3422e-002
10485	20.051	4.	0.	2.2511e-002
10486	20.143	4.	5.e-002	-3.4506e-006
10487	20.143	3.7273	0.	2.3302e-002
10488	20.051	3.8182	0.	2.2647e-002
10489	20.143	3.8182	5.e-002	-2.3545e-006
10490	20.143	3.5455	0.	2.3e-002
10491	20.051	3.6364	0.	2.2523e-002
10492	20.143	3.6364	5.e-002	1.5613e-006
10493	20.143	3.3636	0.	2.2661e-002
10494	20.051	3.4545	0.	2.2283e-002
10495	20.143	3.4545	5.e-002	-2.0403e-007
10496	20.143	3.1818	0.	2.2407e-002
10497	20.051	3.2727	0.	2.2047e-002
10498	20.143	3.2727	5.e-002	-1.0665e-006
10499	20.143	3.	0.	2.2314e-002
10500	20.051	3.0909	0.	2.1906e-002
10501	20.143	3.0909	5.e-002	9.195e-007
10502	20.143	2.8182	0.	2.2409e-002
10503	20.051	2.9091	0.	2.1906e-002
10504	20.143	2.9091	5.e-002	2.8942e-006
10505	20.143	2.6364	0.	2.2663e-002
10506	20.051	2.7273	0.	2.2048e-002
10507	20.143	2.7273	5.e-002	2.0021e-006
10508	20.143	2.4545	0.	2.3e-002
10509	20.051	2.5455	0.	2.2283e-002
10510	20.143	2.5455	5.e-002	2.0663e-006
10511	20.143	2.2727	0.	2.3304e-002
10512	20.051	2.3636	0.	2.2524e-002
10513	20.143	2.3636	5.e-002	1.1843e-006
10514	20.143	2.0909	0.	2.3423e-002
10515	20.051	2.1818	0.	2.2649e-002
10516	20.143	2.1818	5.e-002	2.1825e-006
10517	20.143	1.9091	0.	2.3192e-002
10518	20.051	2.	0.	2.2512e-002
10519	20.143	2.	5.e-002	3.1542e-006
10520	20.143	1.7273	0.	2.2436e-002
10521	20.051	1.8182	0.	2.1954e-002
10522	20.143	1.8182	5.e-002	4.0145e-006
10523	20.143	1.5455	0.	2.0976e-002
10524	20.051	1.6364	0.	2.0815e-002
10525	20.143	1.6364	5.e-002	4.099e-006
10526	20.143	1.3636	0.	1.8626e-002
10527	20.051	1.4545	0.	1.8911e-002
10528	20.143	1.4545	5.e-002	3.9487e-006
10529	20.143	1.1818	0.	1.5099e-002
10530	20.051	1.2727	0.	1.6065e-002
10531	20.143	1.2727	5.e-002	4.3436e-006
10532	20.143	1.	0.	1.0222e-002
10533	20.051	1.0909	0.	1.1881e-002
10534	20.143	1.0909	5.e-002	6.1896e-006
10535	20.143	0.81818	0.	2.648e-003
10536	20.051	0.90909	0.	6.3949e-003
10537	20.143	0.90909	5.e-002	6.5901e-006
10538	20.143	0.63636	0.	-5.5952e-003
10539	20.051	0.72727	0.	-3.041e-003
10540	20.143	0.72727	5.e-002	6.3177e-006
10541	20.143	0.45455	0.	-3.3814e-002
10542	20.051	0.54545	0.	-9.9248e-003
10543	20.143	0.54545	5.e-002	1.6422e-006
10544	20.143	0.27273	0.	-4.5823e-002
10545	20.051	0.36364	0.	-5.7429e-002
10546	20.143	0.36364	5.e-002	2.2191e-006
10547	20.051	0.18182	0.	-2.155e-002
10548	20.143	0.18182	5.e-002	6.0863e-006
10549	20.143	9.0909e-002	0.	-8.703e-003
10550	19.958	5.7273	0.	-4.1107e-002
10551	19.866	5.8182	0.	-1.6966e-002
10552	19.958	5.8182	5.e-002	1.2739e-005
10553	19.958	5.9091	0.	-9.1353e-003
10554	19.958	5.5455	0.	-3.1975e-002
10555	19.866	5.6364	0.	-5.3268e-002
10556	19.958	5.6364	5.e-002	5.7802e-006
10557	19.958	5.3636	0.	-6.2742e-003
10558	19.866	5.4545	0.	-1.0137e-002
10559	19.958	5.4545	5.e-002	6.5982e-006
10560	19.958	5.1818	0.	1.376e-003
10561	19.866	5.2727	0.	-3.835e-003
10562	19.958	5.2727	5.e-002	2.8659e-006
10563	19.958	5.	0.	8.488e-003
10564	19.866	5.0909	0.	4.9602e-003
10565	19.958	5.0909	5.e-002	1.6441e-006
10566	19.958	4.8182	0.	1.3138e-002
10567	19.866	4.9091	0.	1.0162e-002
10568	19.958	4.9091	5.e-002	1.0639e-006
10569	19.958	4.6364	0.	1.6553e-002
10570	19.866	4.7273	0.	1.4176e-002
10571	19.958	4.7273	5.e-002	-1.6484e-006
10572	19.958	4.4545	0.	1.8897e-002
10573	19.866	4.5455	0.	1.6968e-002
10574	19.958	4.5455	5.e-002	-3.9122e-007
10575	19.958	4.2727	0.	2.044e-002
10576	19.866	4.3636	0.	1.8904e-002
10577	19.958	4.3636	5.e-002	-1.8618e-006
10578	19.958	4.0909	0.	2.1353e-002
10579	19.866	4.1818	0.	2.0151e-002
10580	19.958	4.1818	5.e-002	-4.5089e-006
10581	19.958	3.9091	0.	2.1797e-002
10582	19.866	4.	0.	2.0876e-002
10583	19.958	4.	5.e-002	-2.5621e-006
10584	19.958	3.7273	0.	2.1917e-002
10585	19.866	3.8182	0.	2.1217e-002
10586	19.958	3.8182	5.e-002	-1.449e-006
10587	19.958	3.5455	0.	2.1847e-002
10588	19.866	3.6364	0.	2.1306e-002
10589	19.958	3.6364	5.e-002	5.7687e-007
10590	19.958	3.3636	0.	2.1705e-002
10591	19.866	3.4545	0.	2.1259e-002
10592	19.958	3.4545	5.e-002	7.0257e-007
10593	19.958	3.1818	0.	2.158e-002
10594	19.866	3.2727	0.	2.1169e-002
10595	19.958	3.2727	5.e-002	-1.4473e-007
10596	19.958	3.	0.	2.1531e-002
10597	19.866	3.0909	0.	2.1107e-002
10598	19.958	3.0909	5.e-002	9.0974e-007
10599	19.958	2.8182	0.	2.158e-002
10600	19.866	2.9091	0.	2.1106e-002
10601	19.958	2.9091	5.e-002	3.8572e-006
10602	19.958	2.6364	0.	2.1704e-002
10603	19.866	2.7273	0.	2.1169e-002
10604	19.958	2.7273	5.e-002	3.9423e-006
10605	19.958	2.4545	0.	2.1847e-002
10606	19.866	2.5455	0.	2.1258e-002
10607	19.958	2.5455	5.e-002	1.1597e-006
10608	19.958	2.2727	0.	2.1917e-002
10609	19.866	2.3636	0.	2.1306e-002
10610	19.958	2.3636	5.e-002	4.081e-006
10611	19.958	2.0909	0.	2.1798e-002
10612	19.866	2.1818	0.	2.1217e-002
10613	19.958	2.1818	5.e-002	3.1971e-006
10614	19.958	1.9091	0.	2.1353e-002
10615	19.866	2.	0.	2.0877e-002
10616	19.958	2.	5.e-002	3.2809e-006
10617	19.958	1.7273	0.	2.0439e-002
10618	19.866	1.8182	0.	2.0151e-002
10619	19.958	1.8182	5.e-002	4.2254e-006
10620	19.958	1.5455	0.	1.8896e-002
10621	19.866	1.6364	0.	1.8904e-002
10622	19.958	1.6364	5.e-002	4.2998e-006
10623	19.958	1.3636	0.	1.6554e-002
10624	19.866	1.4545	0.	1.6968e-002
10625	19.958	1.4545	5.e-002	4.4979e-006
10626	19.958	1.1818	0.	1.3139e-002
10627	19.866	1.2727	0.	1.4176e-002
10628	19.958	1.2727	5.e-002	5.4305e-006
10629	19.958	1.	0.	8.4879e-003
10630	19.866	1.0909	0.	1.0162e-002
10631	19.958	1.0909	5.e-002	6.384e-006
10632	19.958	0.81818	0.	1.3767e-003
10633	19.866	0.90909	0.	4.9608e-003
10634	19.958	0.90909	5.e-002	8.4529e-006
10635	19.958	0.63636	0.	-6.2747e-003
10636	19.866	0.72727	0.	-3.8327e-003
10637	19.958	0.72727	5.e-002	7.3423e-006
10638	19.958	0.45455	0.	-3.1977e-002
10639	19.866	0.54545	0.	-1.0138e-002
10640	19.958	0.54545	5.e-002	8.5097e-006
10641	19.958	0.27273	0.	-4.1108e-002
10642	19.866	0.36364	0.	-5.3269e-002
10643	19.958	0.36364	5.e-002	8.0635e-006
10644	19.866	0.18182	0.	-1.6968e-002
10645	19.958	0.18182	5.e-002	9.853e-006
10646	19.958	9.0909e-002	0.	-9.1348e-003
10647	19.774	5.7273	0.	-3.6982e-002
10648	19.681	5.8182	0.	-1.3315e-002
10649	19.774	5.8182	5.e-002	1.2625e-005
10650	19.774	5.9091	0.	-9.3528e-003
10651	19.774	5.5455	0.	-3.0194e-002
10652	19.681	5.6364	0.	-4.945e-002
10653	19.774	5.6364	5.e-002	5.9273e-006
10654	19.774	5.3636	0.	-6.7575e-003
10655	19.681	5.4545	0.	-1.0207e-002
10656	19.774	5.4545	5.e-002	6.7857e-006
10657	19.774	5.1818	0.	3.4105e-004
10658	19.681	5.2727	0.	-4.4391e-003
10659	19.774	5.2727	5.e-002	2.3351e-006
10660	19.774	5.	0.	7.0245e-003
10661	19.681	5.0909	0.	3.7634e-003
10662	19.774	5.0909	5.e-002	1.555e-006
10663	19.774	4.8182	0.	1.1467e-002
10664	19.681	4.9091	0.	8.702e-003
10665	19.774	4.9091	5.e-002	1.9963e-007
10666	19.774	4.6364	0.	1.478e-002
10667	19.681	4.7273	0.	1.256e-002
10668	19.774	4.7273	5.e-002	-2.7261e-006
10669	19.774	4.4545	0.	1.7113e-002
10670	19.681	4.5455	0.	1.53e-002
10671	19.774	4.5455	5.e-002	3.0702e-008
10672	19.774	4.2727	0.	1.8718e-002
10673	19.681	4.3636	0.	1.7256e-002
10674	19.774	4.3636	5.e-002	-2.8233e-006
10675	19.774	4.0909	0.	1.9752e-002
10676	19.681	4.1818	0.	1.8586e-002
10677	19.774	4.1818	5.e-002	-3.1571e-006
10678	19.774	3.9091	0.	2.0359e-002
10679	19.681	4.	0.	1.9438e-002
10680	19.774	4.	5.e-002	-3.5223e-006
10681	19.774	3.7273	0.	2.0657e-002
10682	19.681	3.8182	0.	1.9933e-002
10683	19.774	3.8182	5.e-002	-2.5032e-006
10684	19.774	3.5455	0.	2.0761e-002
10685	19.681	3.6364	0.	2.018e-002
10686	19.774	3.6364	5.e-002	2.4295e-006
10687	19.774	3.3636	0.	2.0762e-002
10688	19.681	3.4545	0.	2.0277e-002
10689	19.774	3.4545	5.e-002	-2.893e-007
10690	19.774	3.1818	0.	2.0733e-002
10691	19.681	3.2727	0.	2.0295e-002
10692	19.774	3.2727	5.e-002	-1.7342e-007
10693	19.774	3.	0.	2.0718e-002
10694	19.681	3.0909	0.	2.0291e-002
10695	19.774	3.0909	5.e-002	1.8539e-006
10696	19.774	2.8182	0.	2.0732e-002
10697	19.681	2.9091	0.	2.029e-002
10698	19.774	2.9091	5.e-002	3.8671e-006
10699	19.774	2.6364	0.	2.0762e-002
10700	19.681	2.7273	0.	2.0295e-002
10701	19.774	2.7273	5.e-002	3.0152e-006
10702	19.774	2.4545	0.	2.0761e-002
10703	19.681	2.5455	0.	2.0277e-002
10704	19.774	2.5455	5.e-002	2.153e-006
10705	19.774	2.2727	0.	2.0657e-002
10706	19.681	2.3636	0.	2.0181e-002
10707	19.774	2.3636	5.e-002	4.1438e-006
10708	19.774	2.0909	0.	2.0357e-002
10709	19.681	2.1818	0.	1.9932e-002
10710	19.774	2.1818	5.e-002	4.1862e-006
10711	19.774	1.9091	0.	1.9752e-002
10712	19.681	2.	0.	1.9437e-002
10713	19.774	2.	5.e-002	3.3303e-006
10714	19.774	1.7273	0.	1.8718e-002
10715	19.681	1.8182	0.	1.8585e-002
10716	19.774	1.8182	5.e-002	4.3297e-006
10717	19.774	1.5455	0.	1.7113e-002
10718	19.681	1.6364	0.	1.7257e-002
10719	19.774	1.6364	5.e-002	5.6072e-006
10720	19.774	1.3636	0.	1.478e-002
10721	19.681	1.4545	0.	1.5299e-002
10722	19.774	1.4545	5.e-002	6.1138e-006
10723	19.774	1.1818	0.	1.1466e-002
10724	19.681	1.2727	0.	1.256e-002
10725	19.774	1.2727	5.e-002	5.7044e-006
10726	19.774	1.	0.	7.0246e-003
10727	19.681	1.0909	0.	8.701e-003
10728	19.774	1.0909	5.e-002	6.4138e-006
10729	19.774	0.81818	0.	3.4331e-004
10730	19.681	0.90909	0.	3.7654e-003
10731	19.774	0.90909	5.e-002	8.2169e-006
10732	19.774	0.63636	0.	-6.7559e-003
10733	19.681	0.72727	0.	-4.436e-003
10734	19.774	0.72727	5.e-002	8.7048e-006
10735	19.774	0.45455	0.	-3.0195e-002
10736	19.681	0.54545	0.	-1.0208e-002
10737	19.774	0.54545	5.e-002	7.0641e-006
10738	19.774	0.27273	0.	-3.6984e-002
10739	19.681	0.36364	0.	-4.9451e-002
10740	19.774	0.36364	5.e-002	9.0473e-006
10741	19.681	0.18182	0.	-1.3316e-002
10742	19.774	0.18182	5.e-002	8.3911e-006
10743	19.774	9.0909e-002	0.	-9.3543e-003
10744	19.589	5.7273	0.	-3.3383e-002
10745	19.496	5.8182	0.	-1.0411e-002
10746	19.589	5.8182	5.e-002	1.218e-005
10747	19.589	5.9091	0.	-9.4121e-003
10748	19.589	5.5455	0.	-2.8491e-002
10749	19.496	5.6364	0.	-4.5962e-002
10750	19.589	5.6364	5.e-002	6.2607e-006
10751	19.589	5.3636	0.	-7.0817e-003
10752	19.496	5.4545	0.	-1.0169e-002
10753	19.589	5.4545	5.e-002	7.0451e-006
10754	19.589	5.1818	0.	-4.9367e-004
10755	19.496	5.2727	0.	-4.886e-003
10756	19.589	5.2727	5.e-002	3.0542e-006
10757	19.589	5.	0.	5.7926e-003
10758	19.496	5.0909	0.	2.771e-003
10759	19.589	5.0909	5.e-002	1.5871e-006
10760	19.589	4.8182	0.	1.004e-002
10761	19.496	4.9091	0.	7.4626e-003
10762	19.589	4.9091	5.e-002	4.157e-007
10763	19.589	4.6364	0.	1.3256e-002
10764	19.496	4.7273	0.	1.1175e-002
10765	19.589	4.7273	5.e-002	-2.4136e-006
10766	19.589	4.4545	0.	1.5573e-002
10767	19.496	4.5455	0.	1.3863e-002
10768	19.589	4.5455	5.e-002	5.3475e-007
10769	19.589	4.2727	0.	1.7223e-002
10770	19.496	4.3636	0.	1.5826e-002
10771	19.589	4.3636	5.e-002	-2.8301e-006
10772	19.589	4.0909	0.	1.8349e-002
10773	19.496	4.1818	0.	1.7218e-002
10774	19.589	4.1818	5.e-002	-3.2502e-006
10775	19.589	3.9091	0.	1.9075e-002
10776	19.496	4.	0.	1.8164e-002
10777	19.589	4.	5.e-002	-3.0596e-006
10778	19.589	3.7273	0.	1.9509e-002
10779	19.496	3.8182	0.	1.8775e-002
10780	19.589	3.8182	5.e-002	-1.5665e-006
10781	19.589	3.5455	0.	1.9743e-002
10782	19.496	3.6364	0.	1.9142e-002
10783	19.589	3.6364	5.e-002	1.4281e-006
10784	19.589	3.3636	0.	1.9852e-002
10785	19.496	3.4545	0.	1.9344e-002
10786	19.589	3.4545	5.e-002	2.5337e-006
10787	19.589	3.1818	0.	1.9892e-002
10788	19.496	3.2727	0.	1.9444e-002
10789	19.589	3.2727	5.e-002	-1.8588e-007
10790	19.589	3.	0.	1.9902e-002
10791	19.496	3.0909	0.	1.9481e-002
10792	19.589	3.0909	5.e-002	8.9402e-007
10793	19.589	2.8182	0.	1.9892e-002
10794	19.496	2.9091	0.	1.9482e-002
10795	19.589	2.9091	5.e-002	3.8732e-006
10796	19.589	2.6364	0.	1.9852e-002
10797	19.496	2.7273	0.	1.9443e-002
10798	19.589	2.7273	5.e-002	3.9926e-006
10799	19.589	2.4545	0.	1.9742e-002
10800	19.496	2.5455	0.	1.9345e-002
10801	19.589	2.5455	5.e-002	3.1316e-006
10802	19.589	2.2727	0.	1.9509e-002
10803	19.496	2.3636	0.	1.9142e-002
10804	19.589	2.3636	5.e-002	4.1902e-006
10805	19.589	2.0909	0.	1.9075e-002
10806	19.496	2.1818	0.	1.8774e-002
10807	19.589	2.1818	5.e-002	4.2745e-006
10808	19.589	1.9091	0.	1.8348e-002
10809	19.496	2.	0.	1.8163e-002
10810	19.589	2.	5.e-002	4.8416e-006
10811	19.589	1.7273	0.	1.7224e-002
10812	19.496	1.8182	0.	1.7217e-002
10813	19.589	1.8182	5.e-002	5.376e-006
10814	19.589	1.5455	0.	1.5574e-002
10815	19.496	1.6364	0.	1.5828e-002
10816	19.589	1.6364	5.e-002	5.8806e-006
10817	19.589	1.3636	0.	1.3257e-002
10818	19.496	1.4545	0.	1.3862e-002
10819	19.589	1.4545	5.e-002	6.7185e-006
10820	19.589	1.1818	0.	1.004e-002
10821	19.496	1.2727	0.	1.1176e-002
10822	19.589	1.2727	5.e-002	6.7715e-006
10823	19.589	1.	0.	5.7934e-003
10824	19.496	1.0909	0.	7.4631e-003
10825	19.589	1.0909	5.e-002	7.648e-006
10826	19.589	0.81818	0.	-4.9089e-004
10827	19.496	0.90909	0.	2.7728e-003
10828	19.589	0.90909	5.e-002	8.7809e-006
10829	19.589	0.63636	0.	-7.0813e-003
10830	19.496	0.72727	0.	-4.884e-003
10831	19.589	0.72727	5.e-002	9.8556e-006
10832	19.589	0.45455	0.	-2.8493e-002
10833	19.496	0.54545	0.	-1.0171e-002
10834	19.589	0.54545	5.e-002	1.0221e-005
10835	19.589	0.27273	0.	-3.3384e-002
10836	19.496	0.36364	0.	-4.5964e-002
10837	19.589	0.36364	5.e-002	9.3296e-006
10838	19.496	0.18182	0.	-1.0411e-002
10839	19.589	0.18182	5.e-002	4.0313e-006
10840	19.589	9.0909e-002	0.	-9.4131e-003
10841	19.404	5.7273	0.	-3.0248e-002
10842	19.312	5.8182	0.	-8.1039e-003
10843	19.404	5.8182	5.e-002	1.2481e-005
10844	19.404	5.9091	0.	-9.3618e-003
10845	19.404	5.5455	0.	-2.688e-002
10846	19.312	5.6364	0.	-4.2787e-002
10847	19.404	5.6364	5.e-002	5.8793e-006
10848	19.404	5.3636	0.	-7.279e-003
10849	19.312	5.4545	0.	-1.0048e-002
10850	19.404	5.4545	5.e-002	6.2264e-006
10851	19.404	5.1818	0.	-1.1584e-003
10852	19.312	5.2727	0.	-5.2063e-003
10853	19.404	5.2727	5.e-002	2.3569e-006
10854	19.404	5.	0.	4.751e-003
10855	19.312	5.0909	0.	1.9521e-003
10856	19.404	5.0909	5.e-002	1.8608e-006
10857	19.404	4.8182	0.	8.8238e-003
10858	19.312	4.9091	0.	6.4124e-003
10859	19.404	4.9091	5.e-002	-8.251e-007
10860	19.404	4.6364	0.	1.1947e-002
10861	19.312	4.7273	0.	9.9874e-003
10862	19.404	4.7273	5.e-002	-2.1618e-006
10863	19.404	4.4545	0.	1.424e-002
10864	19.312	4.5455	0.	1.2617e-002
10865	19.404	4.5455	5.e-002	-9.5409e-007
10866	19.404	4.2727	0.	1.5917e-002
10867	19.312	4.3636	0.	1.4582e-002
10868	19.404	4.3636	5.e-002	-4.3802e-006
10869	19.404	4.0909	0.	1.7109e-002
10870	19.312	4.1818	0.	1.6013e-002
10871	19.404	4.1818	5.e-002	-3.9021e-006
10872	19.404	3.9091	0.	1.7926e-002
10873	19.312	4.	0.	1.703e-002
10874	19.404	4.	5.e-002	-3.1756e-006
10875	19.404	3.7273	0.	1.8461e-002
10876	19.312	3.8182	0.	1.7726e-002
10877	19.404	3.8182	5.e-002	-2.13e-006
10878	19.404	3.5455	0.	1.8791e-002
10879	19.312	3.6364	0.	1.8183e-002
10880	19.404	3.6364	5.e-002	-4.6491e-008
10881	19.404	3.3636	0.	1.898e-002
10882	19.312	3.4545	0.	1.8464e-002
10883	19.404	3.4545	5.e-002	-3.6203e-007
10884	19.404	3.1818	0.	1.9074e-002
10885	19.312	3.2727	0.	1.8624e-002
10886	19.404	3.2727	5.e-002	-2.207e-007
10887	19.404	3.	0.	1.9102e-002
10888	19.312	3.0909	0.	1.8694e-002
10889	19.404	3.0909	5.e-002	8.8342e-007
10890	19.404	2.8182	0.	1.9074e-002
10891	19.312	2.9091	0.	1.8695e-002
10892	19.404	2.9091	5.e-002	3.4078e-006
10893	19.404	2.6364	0.	1.898e-002
10894	19.312	2.7273	0.	1.8623e-002
10895	19.404	2.7273	5.e-002	4.0221e-006
10896	19.404	2.4545	0.	1.8792e-002
10897	19.312	2.5455	0.	1.8465e-002
10898	19.404	2.5455	5.e-002	3.1829e-006
10899	19.404	2.2727	0.	1.8461e-002
10900	19.312	2.3636	0.	1.8183e-002
10901	19.404	2.3636	5.e-002	4.2677e-006
10902	19.404	2.0909	0.	1.7926e-002
10903	19.312	2.1818	0.	1.7725e-002
10904	19.404	2.1818	5.e-002	4.3793e-006
10905	19.404	1.9091	0.	1.7109e-002
10906	19.312	2.	0.	1.7029e-002
10907	19.404	2.	5.e-002	4.5095e-006
10908	19.404	1.7273	0.	1.5917e-002
10909	19.312	1.8182	0.	1.6013e-002
10910	19.404	1.8182	5.e-002	5.8423e-006
10911	19.404	1.5455	0.	1.424e-002
10912	19.312	1.6364	0.	1.4583e-002
10913	19.404	1.6364	5.e-002	5.9484e-006
10914	19.404	1.3636	0.	1.1946e-002
10915	19.312	1.4545	0.	1.2617e-002
10916	19.404	1.4545	5.e-002	6.5018e-006
10917	19.404	1.1818	0.	8.8244e-003
10918	19.312	1.2727	0.	9.9875e-003
10919	19.404	1.2727	5.e-002	6.3189e-006
10920	19.404	1.	0.	4.751e-003
10921	19.312	1.0909	0.	6.414e-003
10922	19.404	1.0909	5.e-002	7.7552e-006
10923	19.404	0.81818	0.	-1.1573e-003
10924	19.312	0.90909	0.	1.9526e-003
10925	19.404	0.90909	5.e-002	8.5332e-006
10926	19.404	0.63636	0.	-7.2795e-003
10927	19.312	0.72727	0.	-5.2037e-003
10928	19.404	0.72727	5.e-002	9.6871e-006
10929	19.404	0.45455	0.	-2.6882e-002
10930	19.312	0.54545	0.	-1.0051e-002
10931	19.404	0.54545	5.e-002	1.1502e-005
10932	19.404	0.27273	0.	-3.0249e-002
10933	19.312	0.36364	0.	-4.2788e-002
10934	19.404	0.36364	5.e-002	8.4481e-006
10935	19.312	0.18182	0.	-8.1019e-003
10936	19.404	0.18182	5.e-002	2.2221e-006
10937	19.404	9.0909e-002	0.	-9.3603e-003
10938	19.219	5.7273	0.	-2.7513e-002
10939	19.127	5.8182	0.	-6.27e-003
10940	19.219	5.8182	5.e-002	1.2908e-005
10941	19.219	5.9091	0.	-9.2284e-003
10942	19.219	5.5455	0.	-2.5365e-002
10943	19.127	5.6364	0.	-3.9899e-002
10944	19.219	5.6364	5.e-002	4.6903e-006
10945	19.219	5.3636	0.	-7.3779e-003
10946	19.127	5.4545	0.	-9.8669e-003
10947	19.219	5.4545	5.e-002	4.9609e-006
10948	19.219	5.1818	0.	-1.6854e-003
10949	19.127	5.2727	0.	-5.4234e-003
10950	19.219	5.2727	5.e-002	-4.2672e-008
10951	19.219	5.	0.	3.8934e-003
10952	19.127	5.0909	0.	1.2767e-003
10953	19.219	5.0909	5.e-002	-7.0916e-007
10954	19.219	4.8182	0.	7.7837e-003
10955	19.127	4.9091	0.	5.5219e-003
10956	19.219	4.9091	5.e-002	-2.1422e-006
10957	19.219	4.6364	0.	1.0812e-002
10958	19.127	4.7273	0.	8.9664e-003
10959	19.219	4.7273	5.e-002	-4.553e-006
10960	19.219	4.4545	0.	1.3077e-002
10961	19.127	4.5455	0.	1.1535e-002
10962	19.219	4.5455	5.e-002	-1.9421e-006
10963	19.219	4.2727	0.	1.4771e-002
10964	19.127	4.3636	0.	1.3491e-002
10965	19.219	4.3636	5.e-002	-5.824e-006
10966	19.219	4.0909	0.	1.6009e-002
10967	19.127	4.1818	0.	1.4948e-002
10968	19.219	4.1818	5.e-002	-4.7709e-006
10969	19.219	3.9091	0.	1.6892e-002
10970	19.127	4.	0.	1.6015e-002
10971	19.219	4.	5.e-002	-4.2186e-006
10972	19.219	3.7273	0.	1.7502e-002
10973	19.127	3.8182	0.	1.6774e-002
10974	19.219	3.8182	5.e-002	-4.5901e-006
10975	19.219	3.5455	0.	1.7905e-002
10976	19.127	3.6364	0.	1.7298e-002
10977	19.219	3.6364	5.e-002	-1.0418e-006
10978	19.219	3.3636	0.	1.8153e-002
10979	19.127	3.4545	0.	1.7638e-002
10980	19.219	3.4545	5.e-002	-1.346e-006
10981	19.219	3.1818	0.	1.8287e-002
10982	19.127	3.2727	0.	1.7842e-002
10983	19.219	3.2727	5.e-002	-2.1407e-006
10984	19.219	3.	0.	1.8329e-002
10985	19.127	3.0909	0.	1.7936e-002
10986	19.219	3.0909	5.e-002	-7.526e-008
10987	19.219	2.8182	0.	1.8287e-002
10988	19.127	2.9091	0.	1.7937e-002
10989	19.219	2.9091	5.e-002	1.5049e-006
10990	19.219	2.6364	0.	1.8153e-002
10991	19.127	2.7273	0.	1.7842e-002
10992	19.219	2.7273	5.e-002	2.125e-006
10993	19.219	2.4545	0.	1.7905e-002
10994	19.127	2.5455	0.	1.7639e-002
10995	19.219	2.5455	5.e-002	2.2656e-006
10996	19.219	2.2727	0.	1.7502e-002
10997	19.127	2.3636	0.	1.7297e-002
10998	19.219	2.3636	5.e-002	2.3708e-006
10999	19.219	2.0909	0.	1.6892e-002
11000	19.127	2.1818	0.	1.6774e-002
11001	19.219	2.1818	5.e-002	2.5297e-006
11002	19.219	1.9091	0.	1.6009e-002
11003	19.127	2.	0.	1.6015e-002
11004	19.219	2.	5.e-002	2.5591e-006
11005	19.219	1.7273	0.	1.4771e-002
11006	19.127	1.8182	0.	1.4948e-002
11007	19.219	1.8182	5.e-002	3.1878e-006
11008	19.219	1.5455	0.	1.3078e-002
11009	19.127	1.6364	0.	1.3492e-002
11010	19.219	1.6364	5.e-002	4.4963e-006
11011	19.219	1.3636	0.	1.0813e-002
11012	19.127	1.4545	0.	1.1536e-002
11013	19.219	1.4545	5.e-002	4.7307e-006
11014	19.219	1.1818	0.	7.7848e-003
11015	19.127	1.2727	0.	8.9664e-003
11016	19.219	1.2727	5.e-002	4.8489e-006
11017	19.219	1.	0.	3.894e-003
11018	19.127	1.0909	0.	5.5233e-003
11019	19.219	1.0909	5.e-002	5.7426e-006
11020	19.219	0.81818	0.	-1.6835e-003
11021	19.127	0.90909	0.	1.2778e-003
11022	19.219	0.90909	5.e-002	5.5778e-006
11023	19.219	0.63636	0.	-7.3776e-003
11024	19.127	0.72727	0.	-5.4215e-003
11025	19.219	0.72727	5.e-002	8.1959e-006
11026	19.219	0.45455	0.	-2.5367e-002
11027	19.127	0.54545	0.	-9.8701e-003
11028	19.219	0.54545	5.e-002	1.0987e-005
11029	19.219	0.27273	0.	-2.7511e-002
11030	19.127	0.36364	0.	-3.9899e-002
11031	19.219	0.36364	5.e-002	7.2013e-006
11032	19.127	0.18182	0.	-6.2671e-003
11033	19.219	0.18182	5.e-002	7.5508e-006
11034	19.219	9.0909e-002	0.	-9.229e-003
11035	19.034	5.7273	0.	-2.5124e-002
11036	18.942	5.8182	0.	-4.8133e-003
11037	19.034	5.8182	5.e-002	6.619e-006
11038	19.034	5.9091	0.	-9.0389e-003
11039	19.034	5.5455	0.	-2.3948e-002
11040	18.942	5.6364	0.	-3.7273e-002
11041	19.034	5.6364	5.e-002	4.2221e-006
11042	19.034	5.3636	0.	-7.3976e-003
11043	18.942	5.4545	0.	-9.6436e-003
11044	19.034	5.4545	5.e-002	4.4544e-006
11045	19.034	5.1818	0.	-2.0971e-003
11046	18.942	5.2727	0.	-5.5574e-003
11047	19.034	5.2727	5.e-002	2.5466e-007
11048	19.034	5.	0.	3.1659e-003
11049	18.942	5.0909	0.	7.2141e-004
11050	19.034	5.0909	5.e-002	-2.4969e-007
11051	19.034	4.8182	0.	6.8933e-003
11052	18.942	4.9091	0.	4.7655e-003
11053	19.034	4.9091	5.e-002	-2.8233e-006
11054	19.034	4.6364	0.	9.8312e-003
11055	18.942	4.7273	0.	8.0792e-003
11056	19.034	4.7273	5.e-002	-3.6744e-006
11057	19.034	4.4545	0.	1.2062e-002
11058	18.942	4.5455	0.	1.0592e-002
11059	19.034	4.5455	5.e-002	-2.373e-006
11060	19.034	4.2727	0.	1.3759e-002
11061	18.942	4.3636	0.	1.2531e-002
11062	19.034	4.3636	5.e-002	-4.863e-006
11063	19.034	4.0909	0.	1.5028e-002
11064	18.942	4.1818	0.	1.4001e-002
11065	19.034	4.1818	5.e-002	-5.1735e-006
11066	19.034	3.9091	0.	1.5959e-002
11067	18.942	4.	0.	1.5103e-002
11068	19.034	4.	5.e-002	-4.7589e-006
11069	19.034	3.7273	0.	1.6624e-002
11070	18.942	3.8182	0.	1.5908e-002
11071	19.034	3.8182	5.e-002	-3.5588e-006
11072	19.034	3.5455	0.	1.708e-002
11073	18.942	3.6364	0.	1.648e-002
11074	19.034	3.6364	5.e-002	-5.814e-007
11075	19.034	3.3636	0.	1.7373e-002
11076	18.942	3.4545	0.	1.6864e-002
11077	19.034	3.4545	5.e-002	-1.3786e-006
11078	19.034	3.1818	0.	1.7535e-002
11079	18.942	3.2727	0.	1.7102e-002
11080	19.034	3.2727	5.e-002	-2.6284e-006
11081	19.034	3.	0.	1.7587e-002
11082	18.942	3.0909	0.	1.7213e-002
11083	19.034	3.0909	5.e-002	3.9683e-007
11084	19.034	2.8182	0.	1.7536e-002
11085	18.942	2.9091	0.	1.7214e-002
11086	19.034	2.9091	5.e-002	1.9865e-006
11087	19.034	2.6364	0.	1.7374e-002
11088	18.942	2.7273	0.	1.7101e-002
11089	19.034	2.7273	5.e-002	2.1459e-006
11090	19.034	2.4545	0.	1.708e-002
11091	18.942	2.5455	0.	1.6865e-002
11092	19.034	2.5455	5.e-002	2.2886e-006
11093	19.034	2.2727	0.	1.6624e-002
11094	18.942	2.3636	0.	1.6478e-002
11095	19.034	2.3636	5.e-002	3.3625e-006
11096	19.034	2.0909	0.	1.5959e-002
11097	18.942	2.1818	0.	1.5908e-002
11098	19.034	2.1818	5.e-002	2.5618e-006
11099	19.034	1.9091	0.	1.5028e-002
11100	18.942	2.	0.	1.5102e-002
11101	19.034	2.	5.e-002	2.6171e-006
11102	19.034	1.7273	0.	1.3759e-002
11103	18.942	1.8182	0.	1.4002e-002
11104	19.034	1.8182	5.e-002	4.5647e-006
11105	19.034	1.5455	0.	1.2063e-002
11106	18.942	1.6364	0.	1.253e-002
11107	19.034	1.6364	5.e-002	4.6893e-006
11108	19.034	1.3636	0.	9.8312e-003
11109	18.942	1.4545	0.	1.0592e-002
11110	19.034	1.4545	5.e-002	4.6875e-006
11111	19.034	1.1818	0.	6.8933e-003
11112	18.942	1.2727	0.	8.0789e-003
11113	19.034	1.2727	5.e-002	4.6526e-006
11114	19.034	1.	0.	3.1678e-003
11115	18.942	1.0909	0.	4.766e-003
11116	19.034	1.0909	5.e-002	3.559e-006
11117	19.034	0.81818	0.	-2.0961e-003
11118	18.942	0.90909	0.	7.2379e-004
11119	19.034	0.90909	5.e-002	5.0041e-006
11120	19.034	0.63636	0.	-7.3991e-003
11121	18.942	0.72727	0.	-5.5574e-003
11122	19.034	0.72727	5.e-002	7.3192e-006
11123	19.034	0.45455	0.	-2.3949e-002
11124	18.942	0.54545	0.	-9.6454e-003
11125	19.034	0.54545	5.e-002	6.584e-006
11126	19.034	0.27273	0.	-2.5123e-002
11127	18.942	0.36364	0.	-3.7274e-002
11128	19.034	0.36364	5.e-002	7.4791e-006
11129	18.942	0.18182	0.	-4.8114e-003
11130	19.034	0.18182	5.e-002	6.9739e-006
11131	19.034	9.0909e-002	0.	-9.0389e-003
11132	18.85	5.7273	0.	-2.3032e-002
11133	18.757	5.8182	0.	-3.6569e-003
11134	18.85	5.8182	5.e-002	2.2517e-005
11135	18.85	5.9091	0.	-8.8142e-003
11136	18.85	5.5455	0.	-2.2626e-002
11137	18.757	5.6364	0.	-3.4885e-002
11138	18.85	5.6364	5.e-002	3.9102e-006
11139	18.85	5.3636	0.	-7.359e-003
11140	18.757	5.4545	0.	-9.3921e-003
11141	18.85	5.4545	5.e-002	5.1374e-006
11142	18.85	5.1818	0.	-2.4154e-003
11143	18.757	5.2727	0.	-5.628e-003
11144	18.85	5.2727	5.e-002	9.5959e-007
11145	18.85	5.	0.	2.5575e-003
11146	18.757	5.0909	0.	2.6794e-004
11147	18.85	5.0909	5.e-002	9.7225e-007
11148	18.85	4.8182	0.	6.1284e-003
11149	18.757	4.9091	0.	4.1219e-003
11150	18.85	4.9091	5.e-002	-2.5253e-007
11151	18.85	4.6364	0.	8.9757e-003
11152	18.757	4.7273	0.	7.3128e-003
11153	18.85	4.7273	5.e-002	-2.4107e-006
11154	18.85	4.4545	0.	1.1168e-002
11155	18.757	4.5455	0.	9.763e-003
11156	18.85	4.5455	5.e-002	-6.6881e-007
11157	18.85	4.2727	0.	1.286e-002
11158	18.757	4.3636	0.	1.168e-002
11159	18.85	4.3636	5.e-002	-2.5485e-006
11160	18.85	4.0909	0.	1.4159e-002
11161	18.757	4.1818	0.	1.3155e-002
11162	18.85	4.1818	5.e-002	-3.0046e-006
11163	18.85	3.9091	0.	1.5113e-002
11164	18.757	4.	0.	1.4278e-002
11165	18.85	4.	5.e-002	-2.8599e-006
11166	18.85	3.7273	0.	1.5818e-002
11167	18.757	3.8182	0.	1.5116e-002
11168	18.85	3.8182	5.e-002	-1.2472e-006
11169	18.85	3.5455	0.	1.6307e-002
11170	18.757	3.6364	0.	1.5723e-002
11171	18.85	3.6364	5.e-002	7.9633e-007
11172	18.85	3.3636	0.	1.6649e-002
11173	18.757	3.4545	0.	1.6141e-002
11174	18.85	3.4545	5.e-002	9.8752e-007
11175	18.85	3.1818	0.	1.6824e-002
11176	18.757	3.2727	0.	1.6402e-002
11177	18.85	3.2727	5.e-002	6.8156e-007
11178	18.85	3.	0.	1.6883e-002
11179	18.757	3.0909	0.	1.6527e-002
11180	18.85	3.0909	5.e-002	1.8196e-006
11181	18.85	2.8182	0.	1.6823e-002
11182	18.757	2.9091	0.	1.6528e-002
11183	18.85	2.9091	5.e-002	4.8558e-006
11184	18.85	2.6364	0.	1.6649e-002
11185	18.757	2.7273	0.	1.6401e-002
11186	18.85	2.7273	5.e-002	4.0712e-006
11187	18.85	2.4545	0.	1.6307e-002
11188	18.757	2.5455	0.	1.6141e-002
11189	18.85	2.5455	5.e-002	4.7122e-006
11190	18.85	2.2727	0.	1.5817e-002
11191	18.757	2.3636	0.	1.5723e-002
11192	18.85	2.3636	5.e-002	5.3463e-006
11193	18.85	2.0909	0.	1.5113e-002
11194	18.757	2.1818	0.	1.5117e-002
11195	18.85	2.1818	5.e-002	5.4427e-006
11196	18.85	1.9091	0.	1.4159e-002
11197	18.757	2.	0.	1.4278e-002
11198	18.85	2.	5.e-002	5.0848e-006
11199	18.85	1.7273	0.	1.2859e-002
11200	18.757	1.8182	0.	1.3155e-002
11201	18.85	1.8182	5.e-002	5.6666e-006
11202	18.85	1.5455	0.	1.1167e-002
11203	18.757	1.6364	0.	1.1679e-002
11204	18.85	1.6364	5.e-002	6.7564e-006
11205	18.85	1.3636	0.	8.9757e-003
11206	18.757	1.4545	0.	9.7638e-003
11207	18.85	1.4545	5.e-002	6.7854e-006
11208	18.85	1.1818	0.	6.1285e-003
11209	18.757	1.2727	0.	7.3129e-003
11210	18.85	1.2727	5.e-002	8.4134e-006
11211	18.85	1.	0.	2.5585e-003
11212	18.757	1.0909	0.	4.1221e-003
11213	18.85	1.0909	5.e-002	7.0605e-006
11214	18.85	0.81818	0.	-2.414e-003
11215	18.757	0.90909	0.	2.6979e-004
11216	18.85	0.90909	5.e-002	5.9034e-006
11217	18.85	0.63636	0.	-7.3593e-003
11218	18.757	0.72727	0.	-5.6272e-003
11219	18.85	0.72727	5.e-002	7.209e-006
11220	18.85	0.45455	0.	-2.2628e-002
11221	18.757	0.54545	0.	-9.3916e-003
11222	18.85	0.54545	5.e-002	8.5505e-006
11223	18.85	0.27273	0.	-2.3032e-002
11224	18.757	0.36364	0.	-3.4887e-002
11225	18.85	0.36364	5.e-002	7.887e-006
11226	18.757	0.18182	0.	-3.6571e-003
11227	18.85	0.18182	5.e-002	1.4645e-005
11228	18.85	9.0909e-002	0.	-8.8127e-003
11229	18.665	5.7273	0.	-2.1194e-002
11230	18.572	5.8182	0.	-2.739e-003
11231	18.665	5.8182	5.e-002	2.2342e-005
11232	18.665	5.9091	0.	-8.5648e-003
11233	18.665	5.5455	0.	-2.1397e-002
11234	18.572	5.6364	0.	-3.2712e-002
11235	18.665	5.6364	5.e-002	4.4921e-006
11236	18.665	5.3636	0.	-7.277e-003
11237	18.572	5.4545	0.	-9.1235e-003
11238	18.665	5.4545	5.e-002	5.3598e-006
11239	18.665	5.1818	0.	-2.657e-003
11240	18.572	5.2727	0.	-5.6477e-003
11241	18.665	5.2727	5.e-002	1.9553e-006
11242	18.665	5.	0.	2.047e-003
11243	18.572	5.0909	0.	-1.0326e-004
11244	18.665	5.0909	5.e-002	2.0464e-006
11245	18.665	4.8182	0.	5.4698e-003
11246	18.572	4.9091	0.	3.5718e-003
11247	18.665	4.9091	5.e-002	4.032e-007
11248	18.665	4.6364	0.	8.2275e-003
11249	18.572	4.7273	0.	6.6457e-003
11250	18.665	4.7273	5.e-002	-2.1105e-006
11251	18.665	4.4545	0.	1.0377e-002
11252	18.572	4.5455	0.	9.0329e-003
11253	18.665	4.5455	5.e-002	1.075e-007
11254	18.665	4.2727	0.	1.2058e-002
11255	18.572	4.3636	0.	1.0923e-002
11256	18.665	4.3636	5.e-002	-2.1157e-006
11257	18.665	4.0909	0.	1.3355e-002
11258	18.572	4.1818	0.	1.2395e-002
11259	18.665	4.1818	5.e-002	-1.9412e-006
11260	18.665	3.9091	0.	1.4341e-002
11261	18.572	4.	0.	1.3531e-002
11262	18.665	4.	5.e-002	-1.4024e-006
11263	18.665	3.7273	0.	1.5074e-002
11264	18.572	3.8182	0.	1.439e-002
11265	18.665	3.8182	5.e-002	-3.3945e-007
11266	18.665	3.5455	0.	1.5599e-002
11267	18.572	3.6364	0.	1.5022e-002
11268	18.665	3.6364	5.e-002	1.7583e-006
11269	18.665	3.3636	0.	1.595e-002
11270	18.572	3.4545	0.	1.5464e-002
11271	18.665	3.4545	5.e-002	2.4045e-006
11272	18.665	3.1818	0.	1.6149e-002
11273	18.572	3.2727	0.	1.5743e-002
11274	18.665	3.2727	5.e-002	1.151e-006
11275	18.665	3.	0.	1.6214e-002
11276	18.572	3.0909	0.	1.5877e-002
11277	18.665	3.0909	5.e-002	3.7226e-006
11278	18.665	2.8182	0.	1.615e-002
11279	18.572	2.9091	0.	1.5878e-002
11280	18.665	2.9091	5.e-002	5.814e-006
11281	18.665	2.6364	0.	1.595e-002
11282	18.572	2.7273	0.	1.5743e-002
11283	18.665	2.7273	5.e-002	5.5207e-006
11284	18.665	2.4545	0.	1.56e-002
11285	18.572	2.5455	0.	1.5464e-002
11286	18.665	2.5455	5.e-002	6.1694e-006
11287	18.665	2.2727	0.	1.5076e-002
11288	18.572	2.3636	0.	1.5023e-002
11289	18.665	2.3636	5.e-002	6.8093e-006
11290	18.665	2.0909	0.	1.4343e-002
11291	18.572	2.1818	0.	1.439e-002
11292	18.665	2.1818	5.e-002	6.9196e-006
11293	18.665	1.9091	0.	1.3356e-002
11294	18.572	2.	0.	1.3532e-002
11295	18.665	2.	5.e-002	6.5893e-006
11296	18.665	1.7273	0.	1.2058e-002
11297	18.572	1.8182	0.	1.2394e-002
11298	18.665	1.8182	5.e-002	7.7228e-006
11299	18.665	1.5455	0.	1.0378e-002
11300	18.572	1.6364	0.	1.0923e-002
11301	18.665	1.6364	5.e-002	8.5638e-006
11302	18.665	1.3636	0.	8.2284e-003
11303	18.572	1.4545	0.	9.0342e-003
11304	18.665	1.4545	5.e-002	7.7957e-006
11305	18.665	1.1818	0.	5.47e-003
11306	18.572	1.2727	0.	6.6457e-003
11307	18.665	1.2727	5.e-002	8.6294e-006
11308	18.665	1.	0.	2.0481e-003
11309	18.572	1.0909	0.	3.5719e-003
11310	18.665	1.0909	5.e-002	9.6095e-006
11311	18.665	0.81818	0.	-2.6558e-003
11312	18.572	0.90909	0.	-1.0194e-004
11313	18.665	0.90909	5.e-002	8.4393e-006
11314	18.665	0.63636	0.	-7.2754e-003
11315	18.572	0.72727	0.	-5.6457e-003
11316	18.665	0.72727	5.e-002	8.3532e-006
11317	18.665	0.45455	0.	-2.1397e-002
11318	18.572	0.54545	0.	-9.1225e-003
11319	18.665	0.54545	5.e-002	9.2185e-006
11320	18.665	0.27273	0.	-2.1196e-002
11321	18.572	0.36364	0.	-3.2714e-002
11322	18.665	0.36364	5.e-002	7.9056e-006
11323	18.572	0.18182	0.	-2.7401e-003
11324	18.665	0.18182	5.e-002	8.1114e-006
11325	18.665	9.0909e-002	0.	-8.5645e-003
11326	18.48	5.7273	0.	-1.9576e-002
11327	18.388	5.8182	0.	-2.0121e-003
11328	18.48	5.8182	5.e-002	2.483e-005
11329	18.48	5.9091	0.	-8.3027e-003
11330	18.48	5.5455	0.	-2.0255e-002
11331	18.388	5.6364	0.	-3.0732e-002
11332	18.48	5.6364	5.e-002	3.0055e-006
11333	18.48	5.3636	0.	-7.1618e-003
11334	18.388	5.4545	0.	-8.8452e-003
11335	18.48	5.4545	5.e-002	4.153e-006
11336	18.48	5.1818	0.	-2.8378e-003
11337	18.388	5.2727	0.	-5.6284e-003
11338	18.48	5.2727	5.e-002	2.7542e-007
11339	18.48	5.	0.	1.6167e-003
11340	18.388	5.0909	0.	-4.0723e-004
11341	18.48	5.0909	5.e-002	5.2878e-007
11342	18.48	4.8182	0.	4.8989e-003
11343	18.388	4.9091	0.	3.101e-003
11344	18.48	4.9091	5.e-002	-1.1529e-006
11345	18.48	4.6364	0.	7.5706e-003
11346	18.388	4.7273	0.	6.0626e-003
11347	18.48	4.7273	5.e-002	-3.2271e-006
11348	18.48	4.4545	0.	9.6755e-003
11349	18.388	4.5455	0.	8.3876e-003
11350	18.48	4.5455	5.e-002	-6.2671e-007
11351	18.48	4.2727	0.	1.1339e-002
11352	18.388	4.3636	0.	1.0245e-002
11353	18.48	4.3636	5.e-002	-3.0764e-006
11354	18.48	4.0909	0.	1.2638e-002
11355	18.388	4.1818	0.	1.1708e-002
11356	18.48	4.1818	5.e-002	-4.0366e-006
11357	18.48	3.9091	0.	1.3639e-002
11358	18.388	4.	0.	1.2851e-002
11359	18.48	4.	5.e-002	-3.405e-006
11360	18.48	3.7273	0.	1.4391e-002
11361	18.388	3.8182	0.	1.3724e-002
11362	18.48	3.8182	5.e-002	-1.8473e-006
11363	18.48	3.5455	0.	1.4935e-002
11364	18.388	3.6364	0.	1.4372e-002
11365	18.48	3.6364	5.e-002	1.227e-006
11366	18.48	3.3636	0.	1.5303e-002
11367	18.388	3.4545	0.	1.4831e-002
11368	18.48	3.4545	5.e-002	1.4178e-006
11369	18.48	3.1818	0.	1.5515e-002
11370	18.388	3.2727	0.	1.5123e-002
11371	18.48	3.2727	5.e-002	6.5811e-007
11372	18.48	3.	0.	1.5584e-002
11373	18.388	3.0909	0.	1.5265e-002
11374	18.48	3.0909	5.e-002	2.2859e-006
11375	18.48	2.8182	0.	1.5515e-002
11376	18.388	2.9091	0.	1.5265e-002
11377	18.48	2.9091	5.e-002	3.9129e-006
11378	18.48	2.6364	0.	1.5303e-002
11379	18.388	2.7273	0.	1.5123e-002
11380	18.48	2.7273	5.e-002	3.6348e-006
11381	18.48	2.4545	0.	1.4936e-002
11382	18.388	2.5455	0.	1.4832e-002
11383	18.48	2.5455	5.e-002	4.2755e-006
11384	18.48	2.2727	0.	1.439e-002
11385	18.388	2.3636	0.	1.4373e-002
11386	18.48	2.3636	5.e-002	5.4116e-006
11387	18.48	2.0909	0.	1.3639e-002
11388	18.388	2.1818	0.	1.3723e-002
11389	18.48	2.1818	5.e-002	4.6477e-006
11390	18.48	1.9091	0.	1.2638e-002
11391	18.388	2.	0.	1.2851e-002
11392	18.48	2.	5.e-002	5.7019e-006
11393	18.48	1.7273	0.	1.1339e-002
11394	18.388	1.8182	0.	1.1708e-002
11395	18.48	1.8182	5.e-002	5.8738e-006
11396	18.48	1.5455	0.	9.6757e-003
11397	18.388	1.6364	0.	1.0245e-002
11398	18.48	1.6364	5.e-002	6.8533e-006
11399	18.48	1.3636	0.	7.5711e-003
11400	18.388	1.4545	0.	8.3878e-003
11401	18.48	1.4545	5.e-002	7.6076e-006
11402	18.48	1.1818	0.	4.8988e-003
11403	18.388	1.2727	0.	6.0625e-003
11404	18.48	1.2727	5.e-002	7.6201e-006
11405	18.48	1.	0.	1.617e-003
11406	18.388	1.0909	0.	3.101e-003
11407	18.48	1.0909	5.e-002	8.0784e-006
11408	18.48	0.81818	0.	-2.8358e-003
11409	18.388	0.90909	0.	-4.066e-004
11410	18.48	0.90909	5.e-002	8.9249e-006
11411	18.48	0.63636	0.	-7.1603e-003
11412	18.388	0.72727	0.	-5.6261e-003
11413	18.48	0.72727	5.e-002	8.8318e-006
11414	18.48	0.45455	0.	-2.0256e-002
11415	18.388	0.54545	0.	-8.8448e-003
11416	18.48	0.54545	5.e-002	7.2923e-006
11417	18.48	0.27273	0.	-1.9577e-002
11418	18.388	0.36364	0.	-3.0733e-002
11419	18.48	0.36364	5.e-002	4.5544e-006
11420	18.388	0.18182	0.	-2.0132e-003
11421	18.48	0.18182	5.e-002	1.1909e-005
11422	18.48	9.0909e-002	0.	-8.3034e-003
11423	18.295	5.7273	0.	-1.8146e-002
11424	18.203	5.8182	0.	-1.4391e-003
11425	18.295	5.8182	5.e-002	3.0871e-005
11426	18.295	5.9091	0.	-8.0335e-003
11427	18.295	5.5455	0.	-1.9196e-002
11428	18.203	5.6364	0.	-2.8926e-002
11429	18.295	5.6364	5.e-002	3.0632e-006
11430	18.295	5.3636	0.	-7.0237e-003
11431	18.203	5.4545	0.	-8.5647e-003
11432	18.295	5.4545	5.e-002	4.2404e-006
11433	18.295	5.1818	0.	-2.9696e-003
11434	18.203	5.2727	0.	-5.5802e-003
11435	18.295	5.2727	5.e-002	1.665e-007
11436	18.295	5.	0.	1.2545e-003
11437	18.203	5.0909	0.	-6.5499e-004
11438	18.295	5.0909	5.e-002	-2.566e-007
11439	18.295	4.8182	0.	4.4045e-003
11440	18.203	4.9091	0.	2.696e-003
11441	18.295	4.9091	5.e-002	-1.4704e-006
11442	18.295	4.6364	0.	6.9918e-003
11443	18.203	4.7273	0.	5.5502e-003
11444	18.295	4.7273	5.e-002	-2.986e-006
11445	18.295	4.4545	0.	9.0493e-003
11446	18.203	4.5455	0.	7.8128e-003
11447	18.295	4.5455	5.e-002	-1.2282e-006
11448	18.295	4.2727	0.	1.0691e-002
11449	18.203	4.3636	0.	9.6363e-003
11450	18.295	4.3636	5.e-002	-4.0863e-006
11451	18.295	4.0909	0.	1.1986e-002
11452	18.203	4.1818	0.	1.1086e-002
11453	18.295	4.1818	5.e-002	-3.5166e-006
11454	18.295	3.9091	0.	1.2993e-002
11455	18.203	4.	0.	1.2228e-002
11456	18.295	4.	5.e-002	-3.3565e-006
11457	18.295	3.7273	0.	1.3758e-002
11458	18.203	3.8182	0.	1.3108e-002
11459	18.295	3.8182	5.e-002	-1.2782e-006
11460	18.295	3.5455	0.	1.4317e-002
11461	18.203	3.6364	0.	1.3769e-002
11462	18.295	3.6364	5.e-002	3.0959e-007
11463	18.295	3.3636	0.	1.4697e-002
11464	18.203	3.4545	0.	1.4239e-002
11465	18.295	3.4545	5.e-002	4.8181e-007
11466	18.295	3.1818	0.	1.4917e-002
11467	18.203	3.2727	0.	1.454e-002
11468	18.295	3.2727	5.e-002	1.9104e-007
11469	18.295	3.	0.	1.4989e-002
11470	18.203	3.0909	0.	1.4687e-002
11471	18.295	3.0909	5.e-002	1.8135e-006
11472	18.295	2.8182	0.	1.4917e-002
11473	18.203	2.9091	0.	1.4687e-002
11474	18.295	2.9091	5.e-002	3.9097e-006
11475	18.295	2.6364	0.	1.4697e-002
11476	18.203	2.7273	0.	1.4541e-002
11477	18.295	2.7273	5.e-002	4.0983e-006
11478	18.295	2.4545	0.	1.4317e-002
11479	18.203	2.5455	0.	1.4239e-002
11480	18.295	2.5455	5.e-002	4.2742e-006
11481	18.295	2.2727	0.	1.3758e-002
11482	18.203	2.3636	0.	1.3769e-002
11483	18.295	2.3636	5.e-002	5.393e-006
11484	18.295	2.0909	0.	1.2994e-002
11485	18.203	2.1818	0.	1.3109e-002
11486	18.295	2.1818	5.e-002	5.522e-006
11487	18.295	1.9091	0.	1.1987e-002
11488	18.203	2.	0.	1.2228e-002
11489	18.295	2.	5.e-002	5.2322e-006
11490	18.295	1.7273	0.	1.0692e-002
11491	18.203	1.8182	0.	1.1087e-002
11492	18.295	1.8182	5.e-002	6.2552e-006
11493	18.295	1.5455	0.	9.0492e-003
11494	18.203	1.6364	0.	9.6361e-003
11495	18.295	1.6364	5.e-002	6.3638e-006
11496	18.295	1.3636	0.	6.9914e-003
11497	18.203	1.4545	0.	7.813e-003
11498	18.295	1.4545	5.e-002	6.1182e-006
11499	18.295	1.1818	0.	4.4045e-003
11500	18.203	1.2727	0.	5.55e-003
11501	18.295	1.2727	5.e-002	6.6042e-006
11502	18.295	1.	0.	1.2548e-003
11503	18.203	1.0909	0.	2.6966e-003
11504	18.295	1.0909	5.e-002	8.8497e-006
11505	18.295	0.81818	0.	-2.9688e-003
11506	18.203	0.90909	0.	-6.5548e-004
11507	18.295	0.90909	5.e-002	1.0239e-005
11508	18.295	0.63636	0.	-7.0227e-003
11509	18.203	0.72727	0.	-5.5782e-003
11510	18.295	0.72727	5.e-002	1.0268e-005
11511	18.295	0.45455	0.	-1.9196e-002
11512	18.203	0.54545	0.	-8.5644e-003
11513	18.295	0.54545	5.e-002	6.5845e-006
11514	18.295	0.27273	0.	-1.8147e-002
11515	18.203	0.36364	0.	-2.8926e-002
11516	18.295	0.36364	5.e-002	4.7547e-006
11517	18.203	0.18182	0.	-1.4403e-003
11518	18.295	0.18182	5.e-002	2.5154e-006
11519	18.295	9.0909e-002	0.	-8.0339e-003
11520	18.11	5.7273	0.	-1.6878e-002
11521	18.018	5.8182	0.	-9.8945e-004
11522	18.11	5.8182	5.e-002	2.4136e-005
11523	18.11	5.9091	0.	-7.7655e-003
11524	18.11	5.5455	0.	-1.8214e-002
11525	18.018	5.6364	0.	-2.7272e-002
11526	18.11	5.6364	5.e-002	2.2621e-006
11527	18.11	5.3636	0.	-6.8715e-003
11528	18.018	5.4545	0.	-8.2865e-003
11529	18.11	5.4545	5.e-002	2.9468e-006
11530	18.11	5.1818	0.	-3.0622e-003
11531	18.018	5.2727	0.	-5.5109e-003
11532	18.11	5.2727	5.e-002	-8.4187e-007
11533	18.11	5.	0.	9.4794e-004
11534	18.018	5.0909	0.	-8.5706e-004
11535	18.11	5.0909	5.e-002	-1.4196e-006
11536	18.11	4.8182	0.	3.9711e-003
11537	18.018	4.9091	0.	2.3461e-003
11538	18.11	4.9091	5.e-002	-2.5485e-006
11539	18.11	4.6364	0.	6.4765e-003
11540	18.018	4.7273	0.	5.0972e-003
11541	18.11	4.7273	5.e-002	-4.9364e-006
11542	18.11	4.4545	0.	8.4872e-003
11543	18.018	4.5455	0.	7.2988e-003
11544	18.11	4.5455	5.e-002	-2.6834e-006
11545	18.11	4.2727	0.	1.0105e-002
11546	18.018	4.3636	0.	9.0867e-003
11547	18.11	4.3636	5.e-002	-5.2427e-006
11548	18.11	4.0909	0.	1.1392e-002
11549	18.018	4.1818	0.	1.052e-002
11550	18.11	4.1818	5.e-002	-4.8767e-006
11551	18.11	3.9091	0.	1.24e-002
11552	18.018	4.	0.	1.1657e-002
11553	18.11	4.	5.e-002	-3.768e-006
11554	18.11	3.7273	0.	1.3172e-002
11555	18.018	3.8182	0.	1.2541e-002
11556	18.11	3.8182	5.e-002	-4.1621e-006
11557	18.11	3.5455	0.	1.374e-002
11558	18.018	3.6364	0.	1.3208e-002
11559	18.11	3.6364	5.e-002	-1.1198e-006
11560	18.11	3.3636	0.	1.4128e-002
11561	18.018	3.4545	0.	1.3686e-002
11562	18.11	3.4545	5.e-002	-4.7474e-007
11563	18.11	3.1818	0.	1.4354e-002
11564	18.018	3.2727	0.	1.3993e-002
11565	18.11	3.2727	5.e-002	-1.2425e-006
11566	18.11	3.	0.	1.4429e-002
11567	18.018	3.0909	0.	1.4144e-002
11568	18.11	3.0909	5.e-002	3.8214e-007
11569	18.11	2.8182	0.	1.4355e-002
11570	18.018	2.9091	0.	1.4144e-002
11571	18.11	2.9091	5.e-002	2.0019e-006
11572	18.11	2.6364	0.	1.4128e-002
11573	18.018	2.7273	0.	1.3993e-002
11574	18.11	2.7273	5.e-002	2.6643e-006
11575	18.11	2.4545	0.	1.3739e-002
11576	18.018	2.5455	0.	1.3686e-002
11577	18.11	2.5455	5.e-002	2.3671e-006
11578	18.11	2.2727	0.	1.3171e-002
11579	18.018	2.3636	0.	1.3209e-002
11580	18.11	2.3636	5.e-002	3.4697e-006
11581	18.11	2.0909	0.	1.24e-002
11582	18.018	2.1818	0.	1.2541e-002
11583	18.11	2.1818	5.e-002	2.6888e-006
11584	18.11	1.9091	0.	1.1392e-002
11585	18.018	2.	0.	1.1657e-002
11586	18.11	2.	5.e-002	3.8178e-006
11587	18.11	1.7273	0.	1.0105e-002
11588	18.018	1.8182	0.	1.052e-002
11589	18.11	1.8182	5.e-002	4.8487e-006
11590	18.11	1.5455	0.	8.4874e-003
11591	18.018	1.6364	0.	9.087e-003
11592	18.11	1.6364	5.e-002	4.3578e-006
11593	18.11	1.3636	0.	6.4769e-003
11594	18.018	1.4545	0.	7.2989e-003
11595	18.11	1.4545	5.e-002	5.5815e-006
11596	18.11	1.1818	0.	3.9714e-003
11597	18.018	1.2727	0.	5.0978e-003
11598	18.11	1.2727	5.e-002	5.5905e-006
11599	18.11	1.	0.	9.4767e-004
11600	18.018	1.0909	0.	2.3464e-003
11601	18.11	1.0909	5.e-002	6.4072e-006
11602	18.11	0.81818	0.	-3.0615e-003
11603	18.018	0.90909	0.	-8.5683e-004
11604	18.11	0.90909	5.e-002	7.6695e-006
11605	18.11	0.63636	0.	-6.8702e-003
11606	18.018	0.72727	0.	-5.5081e-003
11607	18.11	0.72727	5.e-002	6.9306e-006
11608	18.11	0.45455	0.	-1.8214e-002
11609	18.018	0.54545	0.	-8.2864e-003
11610	18.11	0.54545	5.e-002	4.8534e-006
11611	18.11	0.27273	0.	-1.6878e-002
11612	18.018	0.36364	0.	-2.7273e-002
11613	18.11	0.36364	5.e-002	3.0905e-006
11614	18.018	0.18182	0.	-9.8926e-004
11615	18.11	0.18182	5.e-002	-9.5502e-006
11616	18.11	9.0909e-002	0.	-7.7681e-003
11617	17.926	5.7273	0.	-1.5749e-002
11618	17.833	5.8182	0.	-6.3826e-004
11619	17.926	5.8182	5.e-002	2.898e-005
11620	17.926	5.9091	0.	-7.4992e-003
11621	17.926	5.5455	0.	-1.7302e-002
11622	17.833	5.6364	0.	-2.5758e-002
11623	17.926	5.6364	5.e-002	3.7669e-006
11624	17.926	5.3636	0.	-6.7093e-003
11625	17.833	5.4545	0.	-8.0125e-003
11626	17.926	5.4545	5.e-002	4.0379e-006
11627	17.926	5.1818	0.	-3.1243e-003
11628	17.833	5.2727	0.	-5.4249e-003
11629	17.926	5.2727	5.e-002	-2.2903e-007
11630	17.926	5.	0.	6.8797e-004
11631	17.833	5.0909	0.	-1.022e-003
11632	17.926	5.0909	5.e-002	-1.0222e-006
11633	17.926	4.8182	0.	3.5919e-003
11634	17.833	4.9091	0.	2.0427e-003
11635	17.926	4.9091	5.e-002	-2.3577e-006
11636	17.926	4.6364	0.	6.0184e-003
11637	17.833	4.7273	0.	4.6966e-003
11638	17.926	4.7273	5.e-002	-4.3064e-006
11639	17.926	4.4545	0.	7.9814e-003
11640	17.833	4.5455	0.	6.8372e-003
11641	17.926	4.5455	5.e-002	-2.3751e-006
11642	17.926	4.2727	0.	9.5725e-003
11643	17.833	4.3636	0.	8.5885e-003
11644	17.926	4.3636	5.e-002	-4.0412e-006
11645	17.926	4.0909	0.	1.0847e-002
11646	17.833	4.1818	0.	1.0002e-002
11647	17.926	4.1818	5.e-002	-4.3813e-006
11648	17.926	3.9091	0.	1.1853e-002
11649	17.833	4.	0.	1.1131e-002
11650	17.926	4.	5.e-002	-4.2881e-006
11651	17.926	3.7273	0.	1.2628e-002
11652	17.833	3.8182	0.	1.2015e-002
11653	17.926	3.8182	5.e-002	-2.225e-006
11654	17.926	3.5455	0.	1.3202e-002
11655	17.833	3.6364	0.	1.2685e-002
11656	17.926	3.6364	5.e-002	2.9798e-007
11657	17.926	3.3636	0.	1.3596e-002
11658	17.833	3.4545	0.	1.3167e-002
11659	17.926	3.4545	5.e-002	4.8161e-007
11660	17.926	3.1818	0.	1.3826e-002
11661	17.833	3.2727	0.	1.348e-002
11662	17.926	3.2727	5.e-002	-2.8591e-007
11663	17.926	3.	0.	1.3902e-002
11664	17.833	3.0909	0.	1.3632e-002
11665	17.926	3.0909	5.e-002	1.8123e-006
11666	17.926	2.8182	0.	1.3826e-002
11667	17.833	2.9091	0.	1.3632e-002
11668	17.926	2.9091	5.e-002	3.4325e-006
11669	17.926	2.6364	0.	1.3596e-002
11670	17.833	2.7273	0.	1.3479e-002
11671	17.926	2.7273	5.e-002	3.6217e-006
11672	17.926	2.4545	0.	1.3202e-002
11673	17.833	2.5455	0.	1.3168e-002
11674	17.926	2.5455	5.e-002	3.3249e-006
11675	17.926	2.2727	0.	1.2628e-002
11676	17.833	2.3636	0.	1.2686e-002
11677	17.926	2.3636	5.e-002	4.44e-006
11678	17.926	2.0909	0.	1.1853e-002
11679	17.833	2.1818	0.	1.2015e-002
11680	17.926	2.1818	5.e-002	4.5933e-006
11681	17.926	1.9091	0.	1.0847e-002
11682	17.833	2.	0.	1.1131e-002
11683	17.926	2.	5.e-002	4.2285e-006
11684	17.926	1.7273	0.	9.5728e-003
11685	17.833	1.8182	0.	1.0002e-002
11686	17.926	1.8182	5.e-002	6.04e-006
11687	17.926	1.5455	0.	7.9816e-003
11688	17.833	1.6364	0.	8.5888e-003
11689	17.926	1.6364	5.e-002	5.8917e-006
11690	17.926	1.3636	0.	6.0187e-003
11691	17.833	1.4545	0.	6.8371e-003
11692	17.926	1.4545	5.e-002	6.3278e-006
11693	17.926	1.1818	0.	3.5925e-003
11694	17.833	1.2727	0.	4.6972e-003
11695	17.926	1.2727	5.e-002	6.8202e-006
11696	17.926	1.	0.	6.8876e-004
11697	17.833	1.0909	0.	2.0437e-003
11698	17.926	1.0909	5.e-002	7.5259e-006
11699	17.926	0.81818	0.	-3.122e-003
11700	17.833	0.90909	0.	-1.0208e-003
11701	17.926	0.90909	5.e-002	8.4446e-006
11702	17.926	0.63636	0.	-6.7076e-003
11703	17.833	0.72727	0.	-5.4226e-003
11704	17.926	0.72727	5.e-002	6.837e-006
11705	17.926	0.45455	0.	-1.7303e-002
11706	17.833	0.54545	0.	-8.0127e-003
11707	17.926	0.54545	5.e-002	6.6154e-006
11708	17.926	0.27273	0.	-1.5749e-002
11709	17.833	0.36364	0.	-2.576e-002
11710	17.926	0.36364	5.e-002	3.5718e-006
11711	17.833	0.18182	0.	-6.3758e-004
11712	17.926	0.18182	5.e-002	-1.7251e-005
11713	17.926	9.0909e-002	0.	-7.5004e-003
11714	17.741	5.7273	0.	-1.4741e-002
11715	17.648	5.8182	0.	-3.6695e-004
11716	17.741	5.8182	5.e-002	3.3644e-005
11717	17.741	5.9091	0.	-7.2391e-003
11718	17.741	5.5455	0.	-1.6456e-002
11719	17.648	5.6364	0.	-2.4368e-002
11720	17.741	5.6364	5.e-002	4.7828e-006
11721	17.741	5.3636	0.	-6.5402e-003
11722	17.648	5.4545	0.	-7.7459e-003
11723	17.741	5.4545	5.e-002	5.7944e-006
11724	17.741	5.1818	0.	-3.1607e-003
11725	17.648	5.2727	0.	-5.3274e-003
11726	17.741	5.2727	5.e-002	1.5275e-006
11727	17.741	5.	0.	4.6634e-004
11728	17.648	5.0909	0.	-1.156e-003
11729	17.741	5.0909	5.e-002	9.8972e-007
11730	17.741	4.8182	0.	3.258e-003
11731	17.648	4.9091	0.	1.7788e-003
11732	17.741	4.9091	5.e-002	-6.4106e-007
11733	17.741	4.6364	0.	5.6082e-003
11734	17.648	4.7273	0.	4.3391e-003
11735	17.741	4.7273	5.e-002	-1.9818e-006
11736	17.741	4.4545	0.	7.5233e-003
11737	17.648	4.5455	0.	6.4207e-003
11738	17.741	4.5455	5.e-002	-3.3147e-007
11739	17.741	4.2727	0.	9.0866e-003
11740	17.648	4.3636	0.	8.1346e-003
11741	17.741	4.3636	5.e-002	-2.3382e-006
11742	17.741	4.0909	0.	1.0347e-002
11743	17.648	4.1818	0.	9.5272e-003
11744	17.741	4.1818	5.e-002	-2.4695e-006
11745	17.741	3.9091	0.	1.1347e-002
11746	17.648	4.	0.	1.0646e-002
11747	17.741	4.	5.e-002	-2.3613e-006
11748	17.741	3.7273	0.	1.2122e-002
11749	17.648	3.8182	0.	1.1526e-002
11750	17.741	3.8182	5.e-002	-8.144e-007
11751	17.741	3.5455	0.	1.2698e-002
11752	17.648	3.6364	0.	1.2197e-002
11753	17.741	3.6364	5.e-002	1.2584e-006
11754	17.741	3.3636	0.	1.3096e-002
11755	17.648	3.4545	0.	1.2682e-002
11756	17.741	3.4545	5.e-002	1.4334e-006
11757	17.741	3.1818	0.	1.3329e-002
11758	17.648	3.2727	0.	1.2997e-002
11759	17.741	3.2727	5.e-002	1.6213e-006
11760	17.741	3.	0.	1.3405e-002
11761	17.648	3.0909	0.	1.315e-002
11762	17.741	3.0909	5.e-002	2.2895e-006
11763	17.741	2.8182	0.	1.3328e-002
11764	17.648	2.9091	0.	1.315e-002
11765	17.741	2.9091	5.e-002	4.863e-006
11766	17.741	2.6364	0.	1.3096e-002
11767	17.648	2.7273	0.	1.2996e-002
11768	17.741	2.7273	5.e-002	4.5773e-006
11769	17.741	2.4545	0.	1.2699e-002
11770	17.648	2.5455	0.	1.2682e-002
11771	17.741	2.5455	5.e-002	4.2646e-006
11772	17.741	2.2727	0.	1.2122e-002
11773	17.648	2.3636	0.	1.2197e-002
11774	17.741	2.3636	5.e-002	6.3503e-006
11775	17.741	2.0909	0.	1.1347e-002
11776	17.648	2.1818	0.	1.1526e-002
11777	17.741	2.1818	5.e-002	5.5696e-006
11778	17.741	1.9091	0.	1.0346e-002
11779	17.648	2.	0.	1.0646e-002
11780	17.741	2.	5.e-002	6.3945e-006
11781	17.741	1.7273	0.	9.0866e-003
11782	17.648	1.8182	0.	9.5274e-003
11783	17.741	1.8182	5.e-002	7.2916e-006
11784	17.741	1.5455	0.	7.5232e-003
11785	17.648	1.6364	0.	8.1345e-003
11786	17.741	1.6364	5.e-002	6.858e-006
11787	17.741	1.3636	0.	5.6084e-003
11788	17.648	1.4545	0.	6.4198e-003
11789	17.741	1.4545	5.e-002	7.8427e-006
11790	17.741	1.1818	0.	3.2591e-003
11791	17.648	1.2727	0.	4.34e-003
11792	17.741	1.2727	5.e-002	8.0422e-006
11793	17.741	1.	0.	4.6779e-004
11794	17.648	1.0909	0.	1.78e-003
11795	17.741	1.0909	5.e-002	9.4407e-006
11796	17.741	0.81818	0.	-3.1595e-003
11797	17.648	0.90909	0.	-1.1549e-003
11798	17.741	0.90909	5.e-002	8.48e-006
11799	17.741	0.63636	0.	-6.5397e-003
11800	17.648	0.72727	0.	-5.3251e-003
11801	17.741	0.72727	5.e-002	9.5272e-006
11802	17.741	0.45455	0.	-1.6458e-002
11803	17.648	0.54545	0.	-7.746e-003
11804	17.741	0.54545	5.e-002	9.4501e-006
11805	17.741	0.27273	0.	-1.4742e-002
11806	17.648	0.36364	0.	-2.437e-002
11807	17.741	0.36364	5.e-002	6.0963e-006
11808	17.648	0.18182	0.	-3.6699e-004
11809	17.741	0.18182	5.e-002	-6.7937e-006
11810	17.741	9.0909e-002	0.	-7.2353e-003
11811	17.556	5.7273	0.	-1.3837e-002
11812	17.464	5.8182	0.	-1.6127e-004
11813	17.556	5.8182	5.e-002	4.6233e-005
11814	17.556	5.9091	0.	-6.9874e-003
11815	17.556	5.5455	0.	-1.567e-002
11816	17.464	5.6364	0.	-2.3088e-002
11817	17.556	5.6364	5.e-002	4.5342e-006
11818	17.556	5.3636	0.	-6.37e-003
11819	17.464	5.4545	0.	-7.4887e-003
11820	17.556	5.4545	5.e-002	5.5146e-006
11821	17.556	5.1818	0.	-3.1783e-003
11822	17.464	5.2727	0.	-5.2228e-003
11823	17.556	5.2727	5.e-002	1.6863e-006
11824	17.556	5.	0.	2.7795e-004
11825	17.464	5.0909	0.	-1.2658e-003
11826	17.556	5.0909	5.e-002	1.1108e-006
11827	17.556	4.8182	0.	2.9622e-003
11828	17.464	4.9091	0.	1.5485e-003
11829	17.556	4.9091	5.e-002	-1.0754e-007
11830	17.556	4.6364	0.	5.2387e-003
11831	17.464	4.7273	0.	4.0178e-003
11832	17.556	4.7273	5.e-002	-2.1984e-006
11833	17.556	4.4545	0.	7.1071e-003
11834	17.464	4.5455	0.	6.0427e-003
11835	17.556	4.5455	5.e-002	3.2181e-007
11836	17.556	4.2727	0.	8.6409e-003
11837	17.464	4.3636	0.	7.719e-003
11838	17.556	4.3636	5.e-002	-1.8232e-006
11839	17.556	4.0909	0.	9.8848e-003
11840	17.464	4.1818	0.	9.0893e-003
11841	17.556	4.1818	5.e-002	-2.4775e-006
11842	17.556	3.9091	0.	1.0877e-002
11843	17.464	4.	0.	1.0196e-002
11844	17.556	4.	5.e-002	-1.6265e-006
11845	17.556	3.7273	0.	1.165e-002
11846	17.464	3.8182	0.	1.1071e-002
11847	17.556	3.8182	5.e-002	-5.7676e-007
11848	17.556	3.5455	0.	1.2228e-002
11849	17.464	3.6364	0.	1.1741e-002
11850	17.556	3.6364	5.e-002	2.1965e-006
11851	17.556	3.3636	0.	1.2627e-002
11852	17.464	3.4545	0.	1.2227e-002
11853	17.556	3.4545	5.e-002	1.4279e-006
11854	17.556	3.1818	0.	1.2861e-002
11855	17.464	3.2727	0.	1.2541e-002
11856	17.556	3.2727	5.e-002	1.6171e-006
11857	17.556	3.	0.	1.2938e-002
11858	17.464	3.0909	0.	1.2697e-002
11859	17.556	3.0909	5.e-002	2.7639e-006
11860	17.556	2.8182	0.	1.2861e-002
11861	17.464	2.9091	0.	1.2697e-002
11862	17.556	2.9091	5.e-002	3.9114e-006
11863	17.556	2.6364	0.	1.2627e-002
11864	17.464	2.7273	0.	1.2542e-002
11865	17.556	2.7273	5.e-002	5.0582e-006
11866	17.556	2.4545	0.	1.2227e-002
11867	17.464	2.5455	0.	1.2227e-002
11868	17.556	2.5455	5.e-002	4.7628e-006
11869	17.556	2.2727	0.	1.165e-002
11870	17.464	2.3636	0.	1.1742e-002
11871	17.556	2.3636	5.e-002	5.6542e-006
11872	17.556	2.0909	0.	1.0878e-002
11873	17.464	2.1818	0.	1.1071e-002
11874	17.556	2.1818	5.e-002	5.3529e-006
11875	17.556	1.9091	0.	9.8852e-003
11876	17.464	2.	0.	1.0197e-002
11877	17.556	2.	5.e-002	6.4122e-006
11878	17.556	1.7273	0.	8.641e-003
11879	17.464	1.8182	0.	9.0896e-003
11880	17.556	1.8182	5.e-002	6.7826e-006
11881	17.556	1.5455	0.	7.1061e-003
11882	17.464	1.6364	0.	7.7196e-003
11883	17.556	1.6364	5.e-002	7.1046e-006
11884	17.556	1.3636	0.	5.2384e-003
11885	17.464	1.4545	0.	6.042e-003
11886	17.556	1.4545	5.e-002	7.3232e-006
11887	17.556	1.1818	0.	2.9632e-003
11888	17.464	1.2727	0.	4.0196e-003
11889	17.556	1.2727	5.e-002	7.5919e-006
11890	17.556	1.	0.	2.7888e-004
11891	17.464	1.0909	0.	1.548e-003
11892	17.556	1.0909	5.e-002	8.0356e-006
11893	17.556	0.81818	0.	-3.176e-003
11894	17.464	0.90909	0.	-1.2651e-003
11895	17.556	0.90909	5.e-002	8.1952e-006
11896	17.556	0.63636	0.	-6.3683e-003
11897	17.464	0.72727	0.	-5.2203e-003
11898	17.556	0.72727	5.e-002	9.7076e-006
11899	17.556	0.45455	0.	-1.567e-002
11900	17.464	0.54545	0.	-7.4879e-003
11901	17.556	0.54545	5.e-002	9.7004e-006
11902	17.556	0.27273	0.	-1.3838e-002
11903	17.464	0.36364	0.	-2.3089e-002
11904	17.556	0.36364	5.e-002	5.5494e-006
11905	17.464	0.18182	0.	-1.617e-004
11906	17.556	0.18182	5.e-002	4.5327e-006
11907	17.556	9.0909e-002	0.	-6.9877e-003
11908	17.371	5.7273	0.	-1.3025e-002
11909	17.279	5.8182	0.	-8.3445e-006
11910	17.371	5.8182	5.e-002	1.3214e-005
11911	17.371	5.9091	0.	-6.7431e-003
11912	17.371	5.5455	0.	-1.4939e-002
11913	17.279	5.6364	0.	-2.1908e-002
11914	17.371	5.6364	5.e-002	3.7109e-006
11915	17.371	5.3636	0.	-6.2002e-003
11916	17.279	5.4545	0.	-7.2407e-003
11917	17.371	5.4545	5.e-002	4.7639e-006
11918	17.371	5.1818	0.	-3.1815e-003
11919	17.279	5.2727	0.	-5.1136e-003
11920	17.371	5.2727	5.e-002	1.0214e-006
11921	17.371	5.	0.	1.1525e-004
11922	17.279	5.0909	0.	-1.3551e-003
11923	17.371	5.0909	5.e-002	4.9304e-007
11924	17.371	4.8182	0.	2.6987e-003
11925	17.279	4.9091	0.	1.3443e-003
11926	17.371	4.9091	5.e-002	-4.9171e-007
11927	17.371	4.6364	0.	4.9034e-003
11928	17.279	4.7273	0.	3.7296e-003
11929	17.371	4.7273	5.e-002	-2.7065e-006
11930	17.371	4.4545	0.	6.7259e-003
11931	17.279	4.5455	0.	5.6971e-003
11932	17.371	4.5455	5.e-002	-5.61e-007
11933	17.371	4.2727	0.	8.2305e-003
11934	17.279	4.3636	0.	7.338e-003
11935	17.371	4.3636	5.e-002	-3.0697e-006
11936	17.371	4.0909	0.	9.4575e-003
11937	17.279	4.1818	0.	8.6852e-003
11938	17.371	4.1818	5.e-002	-3.2395e-006
11939	17.371	3.9091	0.	1.0442e-002
11940	17.279	4.	0.	9.7788e-003
11941	17.371	4.	5.e-002	-2.1768e-006
11942	17.371	3.7273	0.	1.121e-002
11943	17.279	3.8182	0.	1.0647e-002
11944	17.371	3.8182	5.e-002	-1.5201e-006
11945	17.371	3.5455	0.	1.1786e-002
11946	17.279	3.6364	0.	1.1314e-002
11947	17.371	3.6364	5.e-002	1.4931e-006
11948	17.371	3.3636	0.	1.2185e-002
11949	17.279	3.4545	0.	1.1799e-002
11950	17.371	3.4545	5.e-002	9.5394e-007
11951	17.371	3.1818	0.	1.242e-002
11952	17.279	3.2727	0.	1.2114e-002
11953	17.371	3.2727	5.e-002	6.6347e-007
11954	17.371	3.	0.	1.2498e-002
11955	17.279	3.0909	0.	1.227e-002
11956	17.371	3.0909	5.e-002	2.7646e-006
11957	17.371	2.8182	0.	1.2421e-002
11958	17.279	2.9091	0.	1.2269e-002
11959	17.371	2.9091	5.e-002	4.1496e-006
11960	17.371	2.6364	0.	1.2186e-002
11961	17.279	2.7273	0.	1.2114e-002
11962	17.371	2.7273	5.e-002	4.3412e-006
11963	17.371	2.4545	0.	1.1786e-002
11964	17.279	2.5455	0.	1.1799e-002
11965	17.371	2.5455	5.e-002	4.9928e-006
11966	17.371	2.2727	0.	1.1211e-002
11967	17.279	2.3636	0.	1.1315e-002
11968	17.371	2.3636	5.e-002	5.182e-006
11969	17.371	2.0909	0.	1.0442e-002
11970	17.279	2.1818	0.	1.0647e-002
11971	17.371	2.1818	5.e-002	4.8644e-006
11972	17.371	1.9091	0.	9.4576e-003
11973	17.279	2.	0.	9.7793e-003
11974	17.371	2.	5.e-002	5.2198e-006
11975	17.371	1.7273	0.	8.2312e-003
11976	17.279	1.8182	0.	8.6854e-003
11977	17.371	1.8182	5.e-002	5.8002e-006
11978	17.371	1.5455	0.	6.7268e-003
11979	17.279	1.6364	0.	7.3384e-003
11980	17.371	1.6364	5.e-002	6.6996e-006
11981	17.371	1.3636	0.	4.9048e-003
11982	17.279	1.4545	0.	5.6977e-003
11983	17.371	1.4545	5.e-002	6.2219e-006
11984	17.371	1.1818	0.	2.699e-003
11985	17.279	1.2727	0.	3.731e-003
11986	17.371	1.2727	5.e-002	6.6586e-006
11987	17.371	1.	0.	1.1453e-004
11988	17.279	1.0909	0.	1.3439e-003
11989	17.371	1.0909	5.e-002	6.5824e-006
11990	17.371	0.81818	0.	-3.1806e-003
11991	17.279	0.90909	0.	-1.3542e-003
11992	17.371	0.90909	5.e-002	7.7598e-006
11993	17.371	0.63636	0.	-6.1986e-003
11994	17.279	0.72727	0.	-5.1122e-003
11995	17.371	0.72727	5.e-002	7.3235e-006
11996	17.371	0.45455	0.	-1.4939e-002
11997	17.279	0.54545	0.	-7.2393e-003
11998	17.371	0.54545	5.e-002	6.3889e-006
11999	17.371	0.27273	0.	-1.3026e-002
12000	17.279	0.36364	0.	-2.1909e-002
12001	17.371	0.36364	5.e-002	5.5919e-006
12002	17.279	0.18182	0.	-8.9168e-006
12003	17.371	0.18182	5.e-002	7.3585e-007
12004	17.371	9.0909e-002	0.	-6.743e-003
12005	17.186	5.7273	0.	-1.2291e-002
12006	17.094	5.8182	0.	1.02e-004
12007	17.186	5.8182	5.e-002	3.7664e-005
12008	17.186	5.9091	0.	-6.5096e-003
12009	17.186	5.5455	0.	-1.4257e-002
12010	17.094	5.6364	0.	-2.0815e-002
12011	17.186	5.6364	5.e-002	2.8129e-006
12012	17.186	5.3636	0.	-6.0317e-003
12013	17.094	5.4545	0.	-7.0021e-003
12014	17.186	5.4545	5.e-002	3.8586e-006
12015	17.186	5.1818	0.	-3.1723e-003
12016	17.094	5.2727	0.	-5.0019e-003
12017	17.186	5.2727	5.e-002	2.8885e-007
12018	17.186	5.	0.	-2.553e-005
12019	17.094	5.0909	0.	-1.4268e-003
12020	17.186	5.0909	5.e-002	-3.88e-007
12021	17.186	4.8182	0.	2.4627e-003
12022	17.094	4.9091	0.	1.1636e-003
12023	17.186	4.9091	5.e-002	-1.395e-006
12024	17.186	4.6364	0.	4.5998e-003
12025	17.094	4.7273	0.	3.4687e-003
12026	17.186	4.7273	5.e-002	-3.3383e-006
12027	17.186	4.4545	0.	6.3769e-003
12028	17.094	4.5455	0.	5.3814e-003
12029	17.186	4.5455	5.e-002	-1.4694e-006
12030	17.186	4.2727	0.	7.8532e-003
12031	17.094	4.3636	0.	6.9863e-003
12032	17.186	4.3636	5.e-002	-3.1805e-006
12033	17.186	4.0909	0.	9.0613e-003
12034	17.094	4.1818	0.	8.3108e-003
12035	17.186	4.1818	5.e-002	-3.5272e-006
12036	17.186	3.9091	0.	1.0034e-002
12037	17.094	4.	0.	9.3897e-003
12038	17.186	4.	5.e-002	-2.8515e-006
12039	17.186	3.7273	0.	1.0797e-002
12040	17.094	3.8182	0.	1.025e-002
12041	17.186	3.8182	5.e-002	-2.4812e-006
12042	17.186	3.5455	0.	1.1371e-002
12043	17.094	3.6364	0.	1.0913e-002
12044	17.186	3.6364	5.e-002	7.9871e-007
12045	17.186	3.3636	0.	1.1771e-002
12046	17.094	3.4545	0.	1.1396e-002
12047	17.186	3.4545	5.e-002	2.4671e-007
12048	17.186	3.1818	0.	1.2006e-002
12049	17.094	3.2727	0.	1.1711e-002
12050	17.186	3.2727	5.e-002	-2.8984e-007
12051	17.186	3.	0.	1.2083e-002
12052	17.094	3.0909	0.	1.1867e-002
12053	17.186	3.0909	5.e-002	1.5729e-006
12054	17.186	2.8182	0.	1.2005e-002
12055	17.094	2.9091	0.	1.1867e-002
12056	17.186	2.9091	5.e-002	3.6731e-006
12057	17.186	2.6364	0.	1.177e-002
12058	17.094	2.7273	0.	1.1711e-002
12059	17.186	2.7273	5.e-002	3.1513e-006
12060	17.186	2.4545	0.	1.1372e-002
12061	17.094	2.5455	0.	1.1396e-002
12062	17.186	2.5455	5.e-002	2.8578e-006
12063	17.186	2.2727	0.	1.0798e-002
12064	17.094	2.3636	0.	1.0914e-002
12065	17.186	2.3636	5.e-002	4.2185e-006
12066	17.186	2.0909	0.	1.0035e-002
12067	17.094	2.1818	0.	1.025e-002
12068	17.186	2.1818	5.e-002	3.898e-006
12069	17.186	1.9091	0.	9.0618e-003
12070	17.094	2.	0.	9.3902e-003
12071	17.186	2.	5.e-002	4.2858e-006
12072	17.186	1.7273	0.	7.853e-003
12073	17.094	1.8182	0.	8.3107e-003
12074	17.186	1.8182	5.e-002	5.3491e-006
12075	17.186	1.5455	0.	6.3769e-003
12076	17.094	1.6364	0.	6.9864e-003
12077	17.186	1.6364	5.e-002	5.8058e-006
12078	17.186	1.3636	0.	4.6005e-003
12079	17.094	1.4545	0.	5.382e-003
12080	17.186	1.4545	5.e-002	5.6761e-006
12081	17.186	1.1818	0.	2.4634e-003
12082	17.094	1.2727	0.	3.4691e-003
12083	17.186	1.2727	5.e-002	6.0366e-006
12084	17.186	1.	0.	-2.4399e-005
12085	17.094	1.0909	0.	1.1639e-003
12086	17.186	1.0909	5.e-002	6.0987e-006
12087	17.186	0.81818	0.	-3.171e-003
12088	17.094	0.90909	0.	-1.4252e-003
12089	17.186	0.90909	5.e-002	5.9705e-006
12090	17.186	0.63636	0.	-6.0306e-003
12091	17.094	0.72727	0.	-5.0008e-003
12092	17.186	0.72727	5.e-002	4.8984e-006
12093	17.186	0.45455	0.	-1.4257e-002
12094	17.094	0.54545	0.	-7.001e-003
12095	17.186	0.54545	5.e-002	4.4759e-006
12096	17.186	0.27273	0.	-1.2292e-002
12097	17.094	0.36364	0.	-2.0816e-002
12098	17.186	0.36364	5.e-002	4.4333e-006
12099	17.094	0.18182	0.	1.0122e-004
12100	17.186	0.18182	5.e-002	-8.0739e-006
12101	17.186	9.0909e-002	0.	-6.5093e-003
12102	17.002	5.7273	0.	-1.1626e-002
12103	16.909	5.8182	0.	1.7682e-004
12104	17.002	5.8182	5.e-002	5.3781e-005
12105	17.002	5.9091	0.	-6.2841e-003
12106	17.002	5.5455	0.	-1.3621e-002
12107	16.909	5.6364	0.	-1.9802e-002
12108	17.002	5.6364	5.e-002	2.7232e-006
12109	17.002	5.3636	0.	-5.8666e-003
12110	16.909	5.4545	0.	-6.774e-003
12111	17.002	5.4545	5.e-002	3.8183e-006
12112	17.002	5.1818	0.	-3.1541e-003
12113	16.909	5.2727	0.	-4.8891e-003
12114	17.002	5.2727	5.e-002	2.0862e-007
12115	17.002	5.	0.	-1.4642e-004
12116	16.909	5.0909	0.	-1.485e-003
12117	17.002	5.0909	5.e-002	1.0689e-007
12118	17.002	4.8182	0.	2.2503e-003
12119	16.909	4.9091	0.	1.0033e-003
12120	17.002	4.9091	5.e-002	-1.5411e-006
12121	17.002	4.6364	0.	4.3219e-003
12122	16.909	4.7273	0.	3.2308e-003
12123	17.002	4.7273	5.e-002	-3.2459e-006
12124	17.002	4.4545	0.	6.055e-003
12125	16.909	4.5455	0.	5.0913e-003
12126	17.002	4.5455	5.e-002	-1.4169e-006
12127	17.002	4.2727	0.	7.502e-003
12128	16.909	4.3636	0.	6.6604e-003
12129	17.002	4.3636	5.e-002	-3.6154e-006
12130	17.002	4.0909	0.	8.6922e-003
12131	16.909	4.1818	0.	7.9614e-003
12132	17.002	4.1818	5.e-002	-3.3595e-006
12133	17.002	3.9091	0.	9.6546e-003
12134	16.909	4.	0.	9.027e-003
12135	17.002	4.	5.e-002	-3.5225e-006
12136	17.002	3.7273	0.	1.0412e-002
12137	16.909	3.8182	0.	9.8781e-003
12138	17.002	3.8182	5.e-002	-1.9163e-006
12139	17.002	3.5455	0.	1.0981e-002
12140	16.909	3.6364	0.	1.0536e-002
12141	17.002	3.6364	5.e-002	3.2511e-007
12142	17.002	3.3636	0.	1.1379e-002
12143	16.909	3.4545	0.	1.1017e-002
12144	17.002	3.4545	5.e-002	3.6477e-008
12145	17.002	3.1818	0.	1.1614e-002
12146	16.909	3.2727	0.	1.1331e-002
12147	17.002	3.2727	5.e-002	-5.1025e-007
12148	17.002	3.	0.	1.1692e-002
12149	16.909	3.0909	0.	1.1486e-002
12150	17.002	3.0909	5.e-002	1.1027e-006
12151	17.002	2.8182	0.	1.1614e-002
12152	16.909	2.9091	0.	1.1486e-002
12153	17.002	2.9091	5.e-002	2.474e-006
12154	17.002	2.6364	0.	1.1379e-002
12155	16.909	2.7273	0.	1.1331e-002
12156	17.002	2.7273	5.e-002	3.3696e-006
12157	17.002	2.4545	0.	1.0982e-002
12158	16.909	2.5455	0.	1.1017e-002
12159	17.002	2.5455	5.e-002	3.2994e-006
12160	17.002	2.2727	0.	1.0411e-002
12161	16.909	2.3636	0.	1.0537e-002
12162	17.002	2.3636	5.e-002	3.7196e-006
12163	17.002	2.0909	0.	9.6538e-003
12164	16.909	2.1818	0.	9.8778e-003
12165	17.002	2.1818	5.e-002	3.596e-006
12166	17.002	1.9091	0.	8.6921e-003
12167	16.909	2.	0.	9.0259e-003
12168	17.002	2.	5.e-002	3.7329e-006
12169	17.002	1.7273	0.	7.5021e-003
12170	16.909	1.8182	0.	7.9622e-003
12171	17.002	1.8182	5.e-002	4.8122e-006
12172	17.002	1.5455	0.	6.0556e-003
12173	16.909	1.6364	0.	6.6603e-003
12174	17.002	1.6364	5.e-002	4.6591e-006
12175	17.002	1.3636	0.	4.3223e-003
12176	16.909	1.4545	0.	5.0926e-003
12177	17.002	1.4545	5.e-002	5.4205e-006
12178	17.002	1.1818	0.	2.2504e-003
12179	16.909	1.2727	0.	3.2317e-003
12180	17.002	1.2727	5.e-002	5.174e-006
12181	17.002	1.	0.	-1.4566e-004
12182	16.909	1.0909	0.	1.0034e-003
12183	17.002	1.0909	5.e-002	5.1958e-006
12184	17.002	0.81818	0.	-3.1527e-003
12185	16.909	0.90909	0.	-1.4835e-003
12186	17.002	0.90909	5.e-002	4.5747e-006
12187	17.002	0.63636	0.	-5.8656e-003
12188	16.909	0.72727	0.	-4.8875e-003
12189	17.002	0.72727	5.e-002	3.3068e-006
12190	17.002	0.45455	0.	-1.3621e-002
12191	16.909	0.54545	0.	-6.7734e-003
12192	17.002	0.54545	5.e-002	3.9632e-006
12193	17.002	0.27273	0.	-1.1627e-002
12194	16.909	0.36364	0.	-1.9802e-002
12195	17.002	0.36364	5.e-002	4.4041e-006
12196	16.909	0.18182	0.	1.7572e-004
12197	17.002	0.18182	5.e-002	2.7449e-006
12198	17.002	9.0909e-002	0.	-6.2842e-003
12199	16.817	5.7273	0.	-1.1022e-002
12200	16.724	5.8182	0.	2.223e-004
12201	16.817	5.8182	5.e-002	5.5632e-005
12202	16.817	5.9091	0.	-6.0681e-003
12203	16.817	5.5455	0.	-1.3026e-002
12204	16.724	5.6364	0.	-1.8859e-002
12205	16.817	5.6364	5.e-002	3.9173e-006
12206	16.817	5.3636	0.	-5.7055e-003
12207	16.724	5.4545	0.	-6.5559e-003
12208	16.817	5.4545	5.e-002	4.6794e-006
12209	16.817	5.1818	0.	-3.1292e-003
12210	16.724	5.2727	0.	-4.7762e-003
12211	16.817	5.2727	5.e-002	1.2602e-006
12212	16.817	5.	0.	-2.5259e-004
12213	16.724	5.0909	0.	-1.5325e-003
12214	16.817	5.0909	5.e-002	9.523e-007
12215	16.817	4.8182	0.	2.0583e-003
12216	16.724	4.9091	0.	8.5933e-004
12217	16.817	4.9091	5.e-002	-7.2214e-008
12218	16.817	4.6364	0.	4.0674e-003
12219	16.724	4.7273	0.	3.0139e-003
12220	16.817	4.7273	5.e-002	-1.6917e-006
12221	16.817	4.4545	0.	5.7576e-003
12222	16.724	4.5455	0.	4.8241e-003
12223	16.817	4.5455	5.e-002	-3.2074e-007
12224	16.817	4.2727	0.	7.1754e-003
12225	16.724	4.3636	0.	6.358e-003
12226	16.817	4.3636	5.e-002	-2.6908e-006
12227	16.817	4.0909	0.	8.3475e-003
12228	16.724	4.1818	0.	7.6352e-003
12229	16.817	4.1818	5.e-002	-2.401e-006
12230	16.817	3.9091	0.	9.2984e-003
12231	16.724	4.	0.	8.6863e-003
12232	16.817	4.	5.e-002	-1.8035e-006
12233	16.817	3.7273	0.	1.0048e-002
12234	16.724	3.8182	0.	9.5285e-003
12235	16.817	3.8182	5.e-002	-1.1726e-006
12236	16.817	3.5455	0.	1.0615e-002
12237	16.724	3.6364	0.	1.0181e-002
12238	16.817	3.6364	5.e-002	1.3446e-006
12239	16.817	3.3636	0.	1.1011e-002
12240	16.724	3.4545	0.	1.066e-002
12241	16.817	3.4545	5.e-002	1.2454e-006
12242	16.817	3.1818	0.	1.1245e-002
12243	16.724	3.2727	0.	1.0973e-002
12244	16.817	3.2727	5.e-002	6.9409e-007
12245	16.817	3.	0.	1.1322e-002
12246	16.724	3.0909	0.	1.1126e-002
12247	16.817	3.0909	5.e-002	2.2985e-006
12248	16.817	2.8182	0.	1.1245e-002
12249	16.724	2.9091	0.	1.1126e-002
12250	16.817	2.9091	5.e-002	3.6628e-006
12251	16.817	2.6364	0.	1.1011e-002
12252	16.724	2.7273	0.	1.0972e-002
12253	16.817	2.7273	5.e-002	4.0764e-006
12254	16.817	2.4545	0.	1.0615e-002
12255	16.724	2.5455	0.	1.066e-002
12256	16.817	2.5455	5.e-002	4.2359e-006
12257	16.817	2.2727	0.	1.0049e-002
12258	16.724	2.3636	0.	1.0181e-002
12259	16.817	2.3636	5.e-002	5.1142e-006
12260	16.817	2.0909	0.	9.2978e-003
12261	16.724	2.1818	0.	9.5286e-003
12262	16.817	2.1818	5.e-002	4.3136e-006
12263	16.817	1.9091	0.	8.3473e-003
12264	16.724	2.	0.	8.6852e-003
12265	16.817	2.	5.e-002	4.4262e-006
12266	16.817	1.7273	0.	7.176e-003
12267	16.724	1.8182	0.	7.6368e-003
12268	16.817	1.8182	5.e-002	5.9211e-006
12269	16.817	1.5455	0.	5.7581e-003
12270	16.724	1.6364	0.	6.3573e-003
12271	16.817	1.6364	5.e-002	5.7875e-006
12272	16.817	1.3636	0.	4.0692e-003
12273	16.724	1.4545	0.	4.8246e-003
12274	16.817	1.4545	5.e-002	5.9136e-006
12275	16.817	1.1818	0.	2.0592e-003
12276	16.724	1.2727	0.	3.014e-003
12277	16.817	1.2727	5.e-002	6.3704e-006
12278	16.817	1.	0.	-2.5167e-004
12279	16.724	1.0909	0.	8.6055e-004
12280	16.817	1.0909	5.e-002	6.2009e-006
12281	16.817	0.81818	0.	-3.1273e-003
12282	16.724	0.90909	0.	-1.53e-003
12283	16.817	0.90909	5.e-002	5.0013e-006
12284	16.817	0.63636	0.	-5.7043e-003
12285	16.724	0.72727	0.	-4.7755e-003
12286	16.817	0.72727	5.e-002	2.9777e-006
12287	16.817	0.45455	0.	-1.3025e-002
12288	16.724	0.54545	0.	-6.5563e-003
12289	16.817	0.54545	5.e-002	2.8682e-006
12290	16.817	0.27273	0.	-1.1022e-002
12291	16.724	0.36364	0.	-1.8859e-002
12292	16.817	0.36364	5.e-002	3.7503e-006
12293	16.724	0.18182	0.	2.2225e-004
12294	16.817	0.18182	5.e-002	-2.6503e-005
12295	16.817	9.0909e-002	0.	-6.0703e-003
12296	16.632	5.7273	0.	-1.047e-002
12297	16.54	5.8182	0.	2.4397e-004
12298	16.632	5.8182	5.e-002	5.7995e-005
12299	16.632	5.9091	0.	-5.8621e-003
12300	16.632	5.5455	0.	-1.2468e-002
12301	16.54	5.6364	0.	-1.7978e-002
12302	16.632	5.6364	5.e-002	4.4927e-006
12303	16.632	5.3636	0.	-5.5487e-003
12304	16.54	5.4545	0.	-6.3476e-003
12305	16.632	5.4545	5.e-002	5.1832e-006
12306	16.632	5.1818	0.	-3.099e-003
12307	16.54	5.2727	0.	-4.6643e-003
12308	16.632	5.2727	5.e-002	1.7731e-006
12309	16.632	5.	0.	-3.457e-004
12310	16.54	5.0909	0.	-1.5705e-003
12311	16.632	5.0909	5.e-002	1.5123e-006
12312	16.632	4.8182	0.	1.8836e-003
12313	16.54	4.9091	0.	7.3033e-004
12314	16.632	4.9091	5.e-002	-5.1621e-008
12315	16.632	4.6364	0.	3.8334e-003
12316	16.54	4.7273	0.	2.8142e-003
12317	16.632	4.7273	5.e-002	-1.468e-006
12318	16.632	4.4545	0.	5.4821e-003
12319	16.54	4.5455	0.	4.5761e-003
12320	16.632	4.5455	5.e-002	4.5151e-007
12321	16.632	4.2727	0.	6.871e-003
12322	16.54	4.3636	0.	6.0752e-003
12323	16.632	4.3636	5.e-002	-1.6957e-006
12324	16.632	4.0909	0.	8.0236e-003
12325	16.54	4.1818	0.	7.3302e-003
12326	16.632	4.1818	5.e-002	-1.9533e-006
12327	16.632	3.9091	0.	8.9631e-003
12328	16.54	4.	0.	8.3654e-003
12329	16.632	4.	5.e-002	-1.8078e-006
12330	16.632	3.7273	0.	9.706e-003
12331	16.54	3.8182	0.	9.1989e-003
12332	16.632	3.8182	5.e-002	-4.996e-007
12333	16.632	3.5455	0.	1.0268e-002
12334	16.54	3.6364	0.	9.8465e-003
12335	16.632	3.6364	5.e-002	1.7873e-006
12336	16.632	3.3636	0.	1.0663e-002
12337	16.54	3.4545	0.	1.0321e-002
12338	16.632	3.4545	5.e-002	1.7147e-006
12339	16.632	3.1818	0.	1.0895e-002
12340	16.54	3.2727	0.	1.0633e-002
12341	16.632	3.2727	5.e-002	1.6449e-006
12342	16.632	3.	0.	1.0972e-002
12343	16.54	3.0909	0.	1.0786e-002
12344	16.632	3.0909	5.e-002	2.2965e-006
12345	16.632	2.8182	0.	1.0895e-002
12346	16.54	2.9091	0.	1.0786e-002
12347	16.632	2.9091	5.e-002	4.1405e-006
12348	16.632	2.6364	0.	1.0662e-002
12349	16.54	2.7273	0.	1.0633e-002
12350	16.632	2.7273	5.e-002	4.5553e-006
12351	16.632	2.4545	0.	1.0268e-002
12352	16.54	2.5455	0.	1.0322e-002
12353	16.632	2.5455	5.e-002	4.0051e-006
12354	16.632	2.2727	0.	9.7057e-003
12355	16.54	2.3636	0.	9.8461e-003
12356	16.632	2.3636	5.e-002	4.8645e-006
12357	16.632	2.0909	0.	8.9627e-003
12358	16.54	2.1818	0.	9.1989e-003
12359	16.632	2.1818	5.e-002	4.7915e-006
12360	16.632	1.9091	0.	8.0243e-003
12361	16.54	2.	0.	8.3655e-003
12362	16.632	2.	5.e-002	4.9059e-006
12363	16.632	1.7273	0.	6.8714e-003
12364	16.54	1.8182	0.	7.3309e-003
12365	16.632	1.8182	5.e-002	6.223e-006
12366	16.632	1.5455	0.	5.4815e-003
12367	16.54	1.6364	0.	6.075e-003
12368	16.632	1.6364	5.e-002	6.55e-006
12369	16.632	1.3636	0.	3.8322e-003
12370	16.54	1.4545	0.	4.576e-003
12371	16.632	1.4545	5.e-002	6.3234e-006
12372	16.632	1.1818	0.	1.884e-003
12373	16.54	1.2727	0.	2.813e-003
12374	16.632	1.2727	5.e-002	6.4722e-006
12375	16.632	1.	0.	-3.429e-004
12376	16.54	1.0909	0.	7.3179e-004
12377	16.632	1.0909	5.e-002	6.6193e-006
12378	16.632	0.81818	0.	-3.0976e-003
12379	16.54	0.90909	0.	-1.5679e-003
12380	16.632	0.90909	5.e-002	5.6401e-006
12381	16.632	0.63636	0.	-5.5495e-003
12382	16.54	0.72727	0.	-4.6644e-003
12383	16.632	0.72727	5.e-002	2.2388e-006
12384	16.632	0.45455	0.	-1.2469e-002
12385	16.54	0.54545	0.	-6.3482e-003
12386	16.632	0.54545	5.e-002	-2.6093e-007
12387	16.632	0.27273	0.	-1.047e-002
12388	16.54	0.36364	0.	-1.798e-002
12389	16.632	0.36364	5.e-002	2.8247e-006
12390	16.54	0.18182	0.	2.4528e-004
12391	16.632	0.18182	5.e-002	-2.8145e-005
12392	16.632	9.0909e-002	0.	-5.8608e-003
12393	16.447	5.7273	0.	-9.9635e-003
12394	16.355	5.8182	0.	2.4633e-004
12395	16.447	5.8182	5.e-002	5.9842e-005
12396	16.447	5.9091	0.	-5.6629e-003
12397	16.447	5.5455	0.	-1.1943e-002
12398	16.355	5.6364	0.	-1.7153e-002
12399	16.447	5.6364	5.e-002	4.0818e-006
12400	16.447	5.3636	0.	-5.3968e-003
12401	16.355	5.4545	0.	-6.1476e-003
12402	16.447	5.4545	5.e-002	4.2669e-006
12403	16.447	5.1818	0.	-3.0647e-003
12404	16.355	5.2727	0.	-4.5538e-003
12405	16.447	5.2727	5.e-002	1.2531e-006
12406	16.447	5.	0.	-4.2689e-004
12407	16.355	5.0909	0.	-1.6002e-003
12408	16.447	5.0909	5.e-002	7.7028e-007
12409	16.447	4.8182	0.	1.724e-003
12410	16.355	4.9091	0.	6.1382e-004
12411	16.447	4.9091	5.e-002	-6.4354e-007
12412	16.447	4.6364	0.	3.6155e-003
12413	16.355	4.7273	0.	2.6294e-003
12414	16.447	4.7273	5.e-002	-1.9697e-006
12415	16.447	4.4545	0.	5.2237e-003
12416	16.355	4.5455	0.	4.3442e-003
12417	16.447	4.5455	5.e-002	-3.2135e-007
12418	16.447	4.2727	0.	6.5854e-003
12419	16.355	4.3636	0.	5.8104e-003
12420	16.447	4.3636	5.e-002	-1.9287e-006
12421	16.447	4.0909	0.	7.7201e-003
12422	16.355	4.1818	0.	7.0437e-003
12423	16.447	4.1818	5.e-002	-2.3725e-006
12424	16.447	3.9091	0.	8.6467e-003
12425	16.355	4.	0.	8.0636e-003
12426	16.447	4.	5.e-002	-1.7586e-006
12427	16.447	3.7273	0.	9.3829e-003
12428	16.355	3.8182	0.	8.8875e-003
12429	16.447	3.8182	5.e-002	-1.1372e-006
12430	16.447	3.5455	0.	9.9417e-003
12431	16.355	3.6364	0.	9.5305e-003
12432	16.447	3.6364	5.e-002	1.1216e-006
12433	16.447	3.3636	0.	1.0333e-002
12434	16.355	3.4545	0.	1.0002e-002
12435	16.447	3.4545	5.e-002	1.2631e-006
12436	16.447	3.1818	0.	1.0564e-002
12437	16.355	3.2727	0.	1.0311e-002
12438	16.447	3.2727	5.e-002	7.0709e-007
12439	16.447	3.	0.	1.0641e-002
12440	16.355	3.0909	0.	1.0464e-002
12441	16.447	3.0909	5.e-002	1.8243e-006
12442	16.447	2.8182	0.	1.0565e-002
12443	16.355	2.9091	0.	1.0465e-002
12444	16.447	2.9091	5.e-002	3.4211e-006
12445	16.447	2.6364	0.	1.0333e-002
12446	16.355	2.7273	0.	1.0311e-002
12447	16.447	2.7273	5.e-002	3.5848e-006
12448	16.447	2.4545	0.	9.9414e-003
12449	16.355	2.5455	0.	1.0002e-002
12450	16.447	2.5455	5.e-002	3.747e-006
12451	16.447	2.2727	0.	9.3829e-003
12452	16.355	2.3636	0.	9.5299e-003
12453	16.447	2.3636	5.e-002	3.8917e-006
12454	16.447	2.0909	0.	8.6472e-003
12455	16.355	2.1818	0.	8.8884e-003
12456	16.447	2.1818	5.e-002	4.0441e-006
12457	16.447	1.9091	0.	7.7201e-003
12458	16.355	2.	0.	8.0643e-003
12459	16.447	2.	5.e-002	4.4095e-006
12460	16.447	1.7273	0.	6.5855e-003
12461	16.355	1.8182	0.	7.0434e-003
12462	16.447	1.8182	5.e-002	4.9301e-006
12463	16.447	1.5455	0.	5.2241e-003
12464	16.355	1.6364	0.	5.8107e-003
12465	16.447	1.6364	5.e-002	5.2962e-006
12466	16.447	1.3636	0.	3.6153e-003
12467	16.355	1.4545	0.	4.3446e-003
12468	16.447	1.4545	5.e-002	5.4266e-006
12469	16.447	1.1818	0.	1.7239e-003
12470	16.355	1.2727	0.	2.6295e-003
12471	16.447	1.2727	5.e-002	5.5188e-006
12472	16.447	1.	0.	-4.2559e-004
12473	16.355	1.0909	0.	6.142e-004
12474	16.447	1.0909	5.e-002	5.9199e-006
12475	16.447	0.81818	0.	-3.0635e-003
12476	16.355	0.90909	0.	-1.5985e-003
12477	16.447	0.90909	5.e-002	3.8966e-006
12478	16.447	0.63636	0.	-5.3968e-003
12479	16.355	0.72727	0.	-4.553e-003
12480	16.447	0.72727	5.e-002	1.9613e-006
12481	16.447	0.45455	0.	-1.1944e-002
12482	16.355	0.54545	0.	-6.1479e-003
12483	16.447	0.54545	5.e-002	5.6106e-007
12484	16.447	0.27273	0.	-9.9637e-003
12485	16.355	0.36364	0.	-1.7153e-002
12486	16.447	0.36364	5.e-002	1.4991e-006
12487	16.355	0.18182	0.	2.4629e-004
12488	16.447	0.18182	5.e-002	-4.5352e-005
12489	16.447	9.0909e-002	0.	-5.6626e-003
12490	16.262	5.7273	0.	-9.4968e-003
12491	16.17	5.8182	0.	2.3245e-004
12492	16.262	5.8182	5.e-002	6.0991e-005
12493	16.262	5.9091	0.	-5.4728e-003
12494	16.262	5.5455	0.	-1.1448e-002
12495	16.17	5.6364	0.	-1.6376e-002
12496	16.262	5.6364	5.e-002	3.9646e-006
12497	16.262	5.3636	0.	-5.2485e-003
12498	16.17	5.4545	0.	-5.9559e-003
12499	16.262	5.4545	5.e-002	5.4876e-006
12500	16.262	5.1818	0.	-3.0266e-003
12501	16.17	5.2727	0.	-4.4451e-003
12502	16.262	5.2727	5.e-002	2.3274e-006
12503	16.262	5.	0.	-4.986e-004
12504	16.17	5.0909	0.	-1.6239e-003
12505	16.262	5.0909	5.e-002	2.3174e-006
12506	16.262	4.8182	0.	1.577e-003
12507	16.17	4.9091	0.	5.0683e-004
12508	16.262	4.9091	5.e-002	7.6802e-007
12509	16.262	4.6364	0.	3.4127e-003
12510	16.17	4.7273	0.	2.458e-003
12511	16.262	4.7273	5.e-002	-7.8068e-007
12512	16.262	4.4545	0.	4.9824e-003
12513	16.17	4.5455	0.	4.1272e-003
12514	16.262	4.5455	5.e-002	8.8762e-007
12515	16.262	4.2727	0.	6.3174e-003
12516	16.17	4.3636	0.	5.562e-003
12517	16.262	4.3636	5.e-002	-8.4773e-007
12518	16.262	4.0909	0.	7.4336e-003
12519	16.17	4.1818	0.	6.7727e-003
12520	16.262	4.1818	5.e-002	-8.8793e-007
12521	16.262	3.9091	0.	8.3488e-003
12522	16.17	4.	0.	7.7782e-003
12523	16.262	4.	5.e-002	-3.3427e-007
12524	16.262	3.7273	0.	9.0779e-003
12525	16.17	3.8182	0.	8.594e-003
12526	16.262	3.8182	5.e-002	2.6674e-007
12527	16.262	3.5455	0.	9.6321e-003
12528	16.17	3.6364	0.	9.2298e-003
12529	16.262	3.6364	5.e-002	2.5463e-006
12530	16.262	3.3636	0.	1.0021e-002
12531	16.17	3.4545	0.	9.6985e-003
12532	16.262	3.4545	5.e-002	2.2328e-006
12533	16.262	3.1818	0.	1.0251e-002
12534	16.17	3.2727	0.	1.0007e-002
12535	16.262	3.2727	5.e-002	1.9046e-006
12536	16.262	3.	0.	1.0328e-002
12537	16.17	3.0909	0.	1.0159e-002
12538	16.262	3.0909	5.e-002	3.0193e-006
12539	16.262	2.8182	0.	1.0252e-002
12540	16.17	2.9091	0.	1.0159e-002
12541	16.262	2.9091	5.e-002	4.849e-006
12542	16.262	2.6364	0.	1.0021e-002
12543	16.17	2.7273	0.	1.0006e-002
12544	16.262	2.7273	5.e-002	4.7718e-006
12545	16.262	2.4545	0.	9.6321e-003
12546	16.17	2.5455	0.	9.6991e-003
12547	16.262	2.5455	5.e-002	4.9277e-006
12548	16.262	2.2727	0.	9.0781e-003
12549	16.17	2.3636	0.	9.2297e-003
12550	16.262	2.3636	5.e-002	5.0595e-006
12551	16.262	2.0909	0.	8.3498e-003
12552	16.17	2.1818	0.	8.5938e-003
12553	16.262	2.1818	5.e-002	5.6884e-006
12554	16.262	1.9091	0.	7.4339e-003
12555	16.17	2.	0.	7.7792e-003
12556	16.262	2.	5.e-002	5.7788e-006
12557	16.262	1.7273	0.	6.3173e-003
12558	16.17	1.8182	0.	6.7727e-003
12559	16.262	1.8182	5.e-002	6.3977e-006
12560	16.262	1.5455	0.	4.9828e-003
12561	16.17	1.6364	0.	5.5618e-003
12562	16.262	1.6364	5.e-002	6.08e-006
12563	16.262	1.3636	0.	3.4135e-003
12564	16.17	1.4545	0.	4.128e-003
12565	16.262	1.4545	5.e-002	6.9151e-006
12566	16.262	1.1818	0.	1.5777e-003
12567	16.17	1.2727	0.	2.4586e-003
12568	16.262	1.2727	5.e-002	6.7193e-006
12569	16.262	1.	0.	-4.9786e-004
12570	16.17	1.0909	0.	5.0712e-004
12571	16.262	1.0909	5.e-002	6.2628e-006
12572	16.262	0.81818	0.	-3.0253e-003
12573	16.17	0.90909	0.	-1.6223e-003
12574	16.262	0.90909	5.e-002	5.9305e-006
12575	16.262	0.63636	0.	-5.2481e-003
12576	16.17	0.72727	0.	-4.4438e-003
12577	16.262	0.72727	5.e-002	4.4172e-006
12578	16.262	0.45455	0.	-1.1448e-002
12579	16.17	0.54545	0.	-5.9558e-003
12580	16.262	0.54545	5.e-002	3.8558e-006
12581	16.262	0.27273	0.	-9.4973e-003
12582	16.17	0.36364	0.	-1.6376e-002
12583	16.262	0.36364	5.e-002	2.7373e-006
12584	16.17	0.18182	0.	2.3104e-004
12585	16.262	0.18182	5.e-002	-1.5181e-005
12586	16.262	9.0909e-002	0.	-5.4739e-003
12587	16.078	5.7273	0.	-9.065e-003
12588	15.985	5.8182	0.	2.0397e-004
12589	16.078	5.8182	5.e-002	6.128e-005
12590	16.078	5.9091	0.	-5.2888e-003
12591	16.078	5.5455	0.	-1.0979e-002
12592	15.985	5.6364	0.	-1.5643e-002
12593	16.078	5.6364	5.e-002	3.2611e-006
12594	16.078	5.3636	0.	-5.1057e-003
12595	15.985	5.4545	0.	-5.7719e-003
12596	16.078	5.4545	5.e-002	4.2157e-006
12597	16.078	5.1818	0.	-2.9876e-003
12598	15.985	5.2727	0.	-4.3386e-003
12599	16.078	5.2727	5.e-002	1.4002e-006
12600	16.078	5.	0.	-5.6392e-004
12601	15.985	5.0909	0.	-1.6425e-003
12602	16.078	5.0909	5.e-002	9.2392e-007
12603	16.078	4.8182	0.	1.4407e-003
12604	15.985	4.9091	0.	4.0865e-004
12605	16.078	4.9091	5.e-002	1.6115e-007
12606	16.078	4.6364	0.	3.2233e-003
12607	15.985	4.7273	0.	2.2988e-003
12608	16.078	4.7273	5.e-002	-1.3816e-006
12609	16.078	4.4545	0.	4.7554e-003
12610	15.985	4.5455	0.	3.9234e-003
12611	16.078	4.5455	5.e-002	5.1967e-007
12612	16.078	4.2727	0.	6.0638e-003
12613	15.985	4.3636	0.	5.3267e-003
12614	16.078	4.3636	5.e-002	-1.0656e-006
12615	16.078	4.0909	0.	7.162e-003
12616	15.985	4.1818	0.	6.5161e-003
12617	16.078	4.1818	5.e-002	-1.5505e-006
12618	16.078	3.9091	0.	8.0666e-003
12619	15.985	4.	0.	7.5086e-003
12620	16.078	4.	5.e-002	-1.2183e-006
12621	16.078	3.7273	0.	8.7878e-003
12622	15.985	3.8182	0.	8.3147e-003
12623	16.078	3.8182	5.e-002	-1.6864e-007
12624	16.078	3.5455	0.	9.3371e-003
12625	15.985	3.6364	0.	8.9444e-003
12626	16.078	3.6364	5.e-002	1.6321e-006
12627	16.078	3.3636	0.	9.7246e-003
12628	15.985	3.4545	0.	9.4108e-003
12629	16.078	3.4545	5.e-002	2.0019e-006
12630	16.078	3.1818	0.	9.9547e-003
12631	15.985	3.2727	0.	9.7168e-003
12632	16.078	3.2727	5.e-002	1.4371e-006
12633	16.078	3.	0.	1.003e-002
12634	15.985	3.0909	0.	9.8693e-003
12635	16.078	3.0909	5.e-002	2.5449e-006
12636	16.078	2.8182	0.	9.9534e-003
12637	15.985	2.9091	0.	9.8686e-003
12638	16.078	2.9091	5.e-002	3.8925e-006
12639	16.078	2.6364	0.	9.7244e-003
12640	15.985	2.7273	0.	9.7166e-003
12641	16.078	2.7273	5.e-002	3.8091e-006
12642	16.078	2.4545	0.	9.3377e-003
12643	15.985	2.5455	0.	9.4111e-003
12644	16.078	2.5455	5.e-002	4.1947e-006
12645	16.078	2.2727	0.	8.7873e-003
12646	15.985	2.3636	0.	8.9448e-003
12647	16.078	2.3636	5.e-002	4.3371e-006
12648	16.078	2.0909	0.	8.0663e-003
12649	15.985	2.1818	0.	8.3137e-003
12650	16.078	2.1818	5.e-002	4.4655e-006
12651	16.078	1.9091	0.	7.1627e-003
12652	15.985	2.	0.	7.5085e-003
12653	16.078	2.	5.e-002	4.6111e-006
12654	16.078	1.7273	0.	6.0638e-003
12655	15.985	1.8182	0.	6.5165e-003
12656	16.078	1.8182	5.e-002	5.1054e-006
12657	16.078	1.5455	0.	4.7556e-003
12658	15.985	1.6364	0.	5.3266e-003
12659	16.078	1.6364	5.e-002	5.5518e-006
12660	16.078	1.3636	0.	3.2239e-003
12661	15.985	1.4545	0.	3.9233e-003
12662	16.078	1.4545	5.e-002	5.8758e-006
12663	16.078	1.1818	0.	1.4409e-003
12664	15.985	1.2727	0.	2.2985e-003
12665	16.078	1.2727	5.e-002	5.7639e-006
12666	16.078	1.	0.	-5.6275e-004
12667	15.985	1.0909	0.	4.0874e-004
12668	16.078	1.0909	5.e-002	5.7945e-006
12669	16.078	0.81818	0.	-2.9859e-003
12670	15.985	0.90909	0.	-1.6408e-003
12671	16.078	0.90909	5.e-002	6.1612e-006
12672	16.078	0.63636	0.	-5.1047e-003
12673	15.985	0.72727	0.	-4.336e-003
12674	16.078	0.72727	5.e-002	5.7671e-006
12675	16.078	0.45455	0.	-1.0979e-002
12676	15.985	0.54545	0.	-5.7716e-003
12677	16.078	0.54545	5.e-002	4.3043e-006
12678	16.078	0.27273	0.	-9.0656e-003
12679	15.985	0.36364	0.	-1.5643e-002
12680	16.078	0.36364	5.e-002	4.229e-006
12681	15.985	0.18182	0.	2.0377e-004
12682	16.078	0.18182	5.e-002	-1.5433e-005
12683	16.078	9.0909e-002	0.	-5.2887e-003
12684	15.893	5.7273	0.	-8.6639e-003
12685	15.8	5.8182	0.	1.6483e-004
12686	15.893	5.8182	5.e-002	9.0103e-005
12687	15.893	5.9091	0.	-5.1132e-003
12688	15.893	5.5455	0.	-1.0533e-002
12689	15.8	5.6364	0.	-1.4946e-002
12690	15.893	5.6364	5.e-002	2.7647e-006
12691	15.893	5.3636	0.	-4.9663e-003
12692	15.8	5.4545	0.	-5.594e-003
12693	15.893	5.4545	5.e-002	4.4675e-006
12694	15.893	5.1818	0.	-2.9459e-003
12695	15.8	5.2727	0.	-4.2331e-003
12696	15.893	5.2727	5.e-002	1.4917e-006
12697	15.893	5.	0.	-6.2131e-004
12698	15.8	5.0909	0.	-1.6567e-003
12699	15.893	5.0909	5.e-002	1.3972e-006
12700	15.893	4.8182	0.	1.3149e-003
12701	15.8	4.9091	0.	3.1944e-004
12702	15.893	4.9091	5.e-002	3.2644e-007
12703	15.893	4.6364	0.	3.046e-003
12704	15.8	4.7273	0.	2.1493e-003
12705	15.893	4.7273	5.e-002	-7.2233e-007
12706	15.893	4.4545	0.	4.5405e-003
12707	15.8	4.5455	0.	3.7305e-003
12708	15.893	4.5455	5.e-002	8.109e-007
12709	15.893	4.2727	0.	5.8235e-003
12710	15.8	4.3636	0.	5.1035e-003
12711	15.893	4.3636	5.e-002	-8.1425e-007
12712	15.893	4.0909	0.	6.9059e-003
12713	15.8	4.1818	0.	6.273e-003
12714	15.893	4.1818	5.e-002	-7.8524e-007
12715	15.893	3.9091	0.	7.7987e-003
12716	15.8	4.	0.	7.2513e-003
12717	15.893	4.	5.e-002	-2.2417e-007
12718	15.893	3.7273	0.	8.5124e-003
12719	15.8	3.8182	0.	8.0481e-003
12720	15.893	3.8182	5.e-002	3.4501e-007
12721	15.893	3.5455	0.	9.0586e-003
12722	15.8	3.6364	0.	8.6732e-003
12723	15.893	3.6364	5.e-002	2.1404e-006
12724	15.893	3.3636	0.	9.4429e-003
12725	15.8	3.4545	0.	9.1372e-003
12726	15.893	3.4545	5.e-002	2.5077e-006
12727	15.893	3.1818	0.	9.6709e-003
12728	15.8	3.2727	0.	9.4412e-003
12729	15.893	3.2727	5.e-002	1.4536e-006
12730	15.893	3.	0.	9.747e-003
12731	15.8	3.0909	0.	9.5926e-003
12732	15.893	3.0909	5.e-002	3.2657e-006
12733	15.893	2.8182	0.	9.6713e-003
12734	15.8	2.9091	0.	9.5926e-003
12735	15.893	2.9091	5.e-002	4.364e-006
12736	15.893	2.6364	0.	9.4431e-003
12737	15.8	2.7273	0.	9.4411e-003
12738	15.893	2.7273	5.e-002	4.509e-006
12739	15.893	2.4545	0.	9.0586e-003
12740	15.8	2.5455	0.	9.1371e-003
12741	15.893	2.5455	5.e-002	4.4103e-006
12742	15.893	2.2727	0.	8.5123e-003
12743	15.8	2.3636	0.	8.674e-003
12744	15.893	2.3636	5.e-002	5.0296e-006
12745	15.893	2.0909	0.	7.7979e-003
12746	15.8	2.1818	0.	8.0483e-003
12747	15.893	2.1818	5.e-002	4.6636e-006
12748	15.893	1.9091	0.	6.9054e-003
12749	15.8	2.	0.	7.2508e-003
12750	15.893	2.	5.e-002	4.7731e-006
12751	15.893	1.7273	0.	5.8237e-003
12752	15.8	1.8182	0.	6.2727e-003
12753	15.893	1.8182	5.e-002	5.455e-006
12754	15.893	1.5455	0.	4.5401e-003
12755	15.8	1.6364	0.	5.104e-003
12756	15.893	1.6364	5.e-002	5.5668e-006
12757	15.893	1.3636	0.	3.045e-003
12758	15.8	1.4545	0.	3.7307e-003
12759	15.893	1.4545	5.e-002	5.3964e-006
12760	15.893	1.1818	0.	1.3145e-003
12761	15.8	1.2727	0.	2.1492e-003
12762	15.893	1.2727	5.e-002	5.8755e-006
12763	15.893	1.	0.	-6.2066e-004
12764	15.8	1.0909	0.	3.193e-004
12765	15.893	1.0909	5.e-002	6.0361e-006
12766	15.893	0.81818	0.	-2.9433e-003
12767	15.8	0.90909	0.	-1.6553e-003
12768	15.893	0.90909	5.e-002	6.4648e-006
12769	15.893	0.63636	0.	-4.9644e-003
12770	15.8	0.72727	0.	-4.2307e-003
12771	15.893	0.72727	5.e-002	7.1511e-006
12772	15.893	0.45455	0.	-1.0534e-002
12773	15.8	0.54545	0.	-5.5942e-003
12774	15.893	0.54545	5.e-002	6.4296e-006
12775	15.893	0.27273	0.	-8.6638e-003
12776	15.8	0.36364	0.	-1.4946e-002
12777	15.893	0.36364	5.e-002	6.8636e-006
12778	15.8	0.18182	0.	1.655e-004
12779	15.893	0.18182	5.e-002	-2.9707e-005
12780	15.893	9.0909e-002	0.	-5.1115e-003
12781	15.708	5.7273	0.	-8.2872e-003
12782	15.616	5.8182	0.	1.1595e-004
12783	15.708	5.8182	5.e-002	1.0324e-004
12784	15.708	5.9091	0.	-4.941e-003
12785	15.708	5.5455	0.	-1.0107e-002
12786	15.616	5.6364	0.	-1.4281e-002
12787	15.708	5.6364	5.e-002	3.4713e-006
12788	15.708	5.3636	0.	-4.8298e-003
12789	15.616	5.4545	0.	-5.423e-003
12790	15.708	5.4545	5.e-002	4.7953e-006
12791	15.708	5.1818	0.	-2.903e-003
12792	15.616	5.2727	0.	-4.1284e-003
12793	15.708	5.2727	5.e-002	2.0091e-006
12794	15.708	5.	0.	-6.729e-004
12795	15.616	5.0909	0.	-1.6671e-003
12796	15.708	5.0909	5.e-002	2.0968e-006
12797	15.708	4.8182	0.	1.1975e-003
12798	15.616	4.9091	0.	2.3647e-004
12799	15.708	4.9091	5.e-002	1.3215e-006
12800	15.708	4.6364	0.	2.8773e-003
12801	15.616	4.7273	0.	2.0073e-003
12802	15.708	4.7273	5.e-002	-7.7761e-008
12803	15.708	4.4545	0.	4.3365e-003
12804	15.616	4.5455	0.	3.5476e-003
12805	15.708	4.5455	5.e-002	1.4134e-006
12806	15.708	4.2727	0.	5.5954e-003
12807	15.616	4.3636	0.	4.8911e-003
12808	15.708	4.3636	5.e-002	1.0854e-007
12809	15.708	4.0909	0.	6.6601e-003
12810	15.616	4.1818	0.	6.0405e-003
12811	15.708	4.1818	5.e-002	-1.0692e-007
12812	15.708	3.9091	0.	7.5416e-003
12813	15.616	4.	0.	7.0048e-003
12814	15.708	4.	5.e-002	3.0707e-007
12815	15.708	3.7273	0.	8.2494e-003
12816	15.616	3.8182	0.	7.7938e-003
12817	15.708	3.8182	5.e-002	9.8417e-007
12818	15.708	3.5455	0.	8.7918e-003
12819	15.616	3.6364	0.	8.4147e-003
12820	15.708	3.6364	5.e-002	2.8767e-006
12821	15.708	3.3636	0.	9.175e-003
12822	15.616	3.4545	0.	8.8757e-003
12823	15.708	3.4545	5.e-002	3.2486e-006
12824	15.708	3.1818	0.	9.4022e-003
12825	15.616	3.2727	0.	9.1787e-003
12826	15.708	3.2727	5.e-002	2.424e-006
12827	15.708	3.	0.	9.4774e-003
12828	15.616	3.0909	0.	9.3291e-003
12829	15.708	3.0909	5.e-002	3.5096e-006
12830	15.708	2.8182	0.	9.4017e-003
12831	15.616	2.9091	0.	9.3289e-003
12832	15.708	2.9091	5.e-002	5.0739e-006
12833	15.708	2.6364	0.	9.1746e-003
12834	15.616	2.7273	0.	9.1787e-003
12835	15.708	2.7273	5.e-002	4.7315e-006
12836	15.708	2.4545	0.	8.7923e-003
12837	15.616	2.5455	0.	8.8755e-003
12838	15.708	2.5455	5.e-002	5.1027e-006
12839	15.708	2.2727	0.	8.2503e-003
12840	15.616	2.3636	0.	8.4145e-003
12841	15.708	2.3636	5.e-002	5.2052e-006
12842	15.708	2.0909	0.	7.542e-003
12843	15.616	2.1818	0.	7.795e-003
12844	15.708	2.1818	5.e-002	5.3306e-006
12845	15.708	1.9091	0.	6.6597e-003
12846	15.616	2.	0.	7.0047e-003
12847	15.708	2.	5.e-002	5.0487e-006
12848	15.708	1.7273	0.	5.5954e-003
12849	15.616	1.8182	0.	6.04e-003
12850	15.708	1.8182	5.e-002	5.7568e-006
12851	15.708	1.5455	0.	4.3377e-003
12852	15.616	1.6364	0.	4.8911e-003
12853	15.708	1.6364	5.e-002	5.908e-006
12854	15.708	1.3636	0.	2.8785e-003
12855	15.616	1.4545	0.	3.5486e-003
12856	15.708	1.4545	5.e-002	6.5137e-006
12857	15.708	1.1818	0.	1.1977e-003
12858	15.616	1.2727	0.	2.0079e-003
12859	15.708	1.2727	5.e-002	6.6702e-006
12860	15.708	1.	0.	-6.723e-004
12861	15.616	1.0909	0.	2.3675e-004
12862	15.708	1.0909	5.e-002	6.3265e-006
12863	15.708	0.81818	0.	-2.9018e-003
12864	15.616	0.90909	0.	-1.6662e-003
12865	15.708	0.90909	5.e-002	7.171e-006
12866	15.708	0.63636	0.	-4.8295e-003
12867	15.616	0.72727	0.	-4.1271e-003
12868	15.708	0.72727	5.e-002	8.4106e-006
12869	15.708	0.45455	0.	-1.0107e-002
12870	15.616	0.54545	0.	-5.4227e-003
12871	15.708	0.54545	5.e-002	9.1812e-006
12872	15.708	0.27273	0.	-8.2865e-003
12873	15.616	0.36364	0.	-1.4281e-002
12874	15.708	0.36364	5.e-002	7.5005e-006
12875	15.616	0.18182	0.	1.1636e-004
12876	15.708	0.18182	5.e-002	-3.126e-005
12877	15.708	9.0909e-002	0.	-4.9414e-003
12878	15.523	5.7273	0.	-7.9333e-003
12879	15.431	5.8182	0.	5.7087e-005
12880	15.523	5.8182	5.e-002	5.7131e-005
12881	15.523	5.9091	0.	-4.7747e-003
12882	15.523	5.5455	0.	-9.6986e-003
12883	15.431	5.6364	0.	-1.3643e-002
12884	15.523	5.6364	5.e-002	3.9191e-006
12885	15.523	5.3636	0.	-4.6975e-003
12886	15.431	5.4545	0.	-5.2565e-003
12887	15.523	5.4545	5.e-002	4.8932e-006
12888	15.523	5.1818	0.	-2.8578e-003
12889	15.431	5.2727	0.	-4.0254e-003
12890	15.523	5.2727	5.e-002	2.5067e-006
12891	15.523	5.	0.	-7.2001e-004
12892	15.431	5.0909	0.	-1.6743e-003
12893	15.523	5.0909	5.e-002	2.6142e-006
12894	15.523	4.8182	0.	1.0856e-003
12895	15.431	4.9091	0.	1.5793e-004
12896	15.523	4.9091	5.e-002	1.6402e-006
12897	15.523	4.6364	0.	2.7175e-003
12898	15.431	4.7273	0.	1.8721e-003
12899	15.523	4.7273	5.e-002	3.7288e-007
12900	15.523	4.4545	0.	4.1425e-003
12901	15.431	4.5455	0.	3.3738e-003
12902	15.523	4.5455	5.e-002	1.9056e-006
12903	15.523	4.2727	0.	5.3765e-003
12904	15.431	4.3636	0.	4.6873e-003
12905	15.523	4.3636	5.e-002	2.7294e-007
12906	15.523	4.0909	0.	6.4253e-003
12907	15.431	4.1818	0.	5.8171e-003
12908	15.523	4.1818	5.e-002	2.9929e-007
12909	15.523	3.9091	0.	7.2968e-003
12910	15.431	4.	0.	6.7697e-003
12911	15.523	4.	5.e-002	3.6833e-007
12912	15.523	3.7273	0.	7.9987e-003
12913	15.431	3.8182	0.	7.5507e-003
12914	15.523	3.8182	5.e-002	1.5218e-006
12915	15.523	3.5455	0.	8.538e-003
12916	15.431	3.6364	0.	8.1668e-003
12917	15.523	3.6364	5.e-002	3.6392e-006
12918	15.523	3.3636	0.	8.9187e-003
12919	15.431	3.4545	0.	8.6258e-003
12920	15.523	3.4545	5.e-002	3.514e-006
12921	15.523	3.1818	0.	9.1448e-003
12922	15.431	3.2727	0.	8.927e-003
12923	15.523	3.2727	5.e-002	2.6785e-006
12924	15.523	3.	0.	9.2198e-003
12925	15.431	3.0909	0.	9.0777e-003
12926	15.523	3.0909	5.e-002	4.231e-006
12927	15.523	2.8182	0.	9.1451e-003
12928	15.431	2.9091	0.	9.0773e-003
12929	15.523	2.9091	5.e-002	5.3064e-006
12930	15.523	2.6364	0.	8.9188e-003
12931	15.431	2.7273	0.	8.9276e-003
12932	15.523	2.7273	5.e-002	5.1899e-006
12933	15.523	2.4545	0.	8.5371e-003
12934	15.431	2.5455	0.	8.6251e-003
12935	15.523	2.5455	5.e-002	5.07e-006
12936	15.523	2.2727	0.	7.9987e-003
12937	15.431	2.3636	0.	8.1669e-003
12938	15.523	2.3636	5.e-002	5.281e-006
12939	15.523	2.0909	0.	7.2974e-003
12940	15.431	2.1818	0.	7.551e-003
12941	15.523	2.1818	5.e-002	5.1502e-006
12942	15.523	1.9091	0.	6.425e-003
12943	15.431	2.	0.	6.7694e-003
12944	15.523	2.	5.e-002	5.3847e-006
12945	15.523	1.7273	0.	5.3759e-003
12946	15.431	1.8182	0.	5.8172e-003
12947	15.523	1.8182	5.e-002	5.7639e-006
12948	15.523	1.5455	0.	4.1423e-003
12949	15.431	1.6364	0.	4.6872e-003
12950	15.523	1.6364	5.e-002	6.0965e-006
12951	15.523	1.3636	0.	2.718e-003
12952	15.431	1.4545	0.	3.374e-003
12953	15.523	1.4545	5.e-002	6.3033e-006
12954	15.523	1.1818	0.	1.0862e-003
12955	15.431	1.2727	0.	1.8725e-003
12956	15.523	1.2727	5.e-002	6.0873e-006
12957	15.523	1.	0.	-7.1938e-004
12958	15.431	1.0909	0.	1.5908e-004
12959	15.523	1.0909	5.e-002	6.4051e-006
12960	15.523	0.81818	0.	-2.8568e-003
12961	15.431	0.90909	0.	-1.6737e-003
12962	15.523	0.90909	5.e-002	6.9398e-006
12963	15.523	0.63636	0.	-4.6963e-003
12964	15.431	0.72727	0.	-4.0238e-003
12965	15.523	0.72727	5.e-002	8.7186e-006
12966	15.523	0.45455	0.	-9.6985e-003
12967	15.431	0.54545	0.	-5.2555e-003
12968	15.523	0.54545	5.e-002	9.4156e-006
12969	15.523	0.27273	0.	-7.9335e-003
12970	15.431	0.36364	0.	-1.3644e-002
12971	15.523	0.36364	5.e-002	6.9592e-006
12972	15.431	0.18182	0.	5.7799e-005
12973	15.523	0.18182	5.e-002	-3.9637e-006
12974	15.523	9.0909e-002	0.	-4.7751e-003
12975	15.338	5.7273	0.	-7.5991e-003
12976	15.246	5.8182	0.	-9.2829e-006
12977	15.338	5.8182	5.e-002	1.081e-004
12978	15.338	5.9091	0.	-4.6131e-003
12979	15.338	5.5455	0.	-9.3035e-003
12980	15.246	5.6364	0.	-1.3028e-002
12981	15.338	5.6364	5.e-002	3.5987e-006
12982	15.338	5.3636	0.	-4.5667e-003
12983	15.246	5.4545	0.	-5.0933e-003
12984	15.338	5.4545	5.e-002	4.4063e-006
12985	15.338	5.1818	0.	-2.8131e-003
12986	15.246	5.2727	0.	-3.9237e-003
12987	15.338	5.2727	5.e-002	2.0631e-006
12988	15.338	5.	0.	-7.637e-004
12989	15.246	5.0909	0.	-1.6792e-003
12990	15.338	5.0909	5.e-002	1.9409e-006
12991	15.338	4.8182	0.	9.7945e-004
12992	15.246	4.9091	0.	8.4534e-005
12993	15.338	4.9091	5.e-002	1.0416e-006
12994	15.338	4.6364	0.	2.5649e-003
12995	15.246	4.7273	0.	1.7433e-003
12996	15.338	4.7273	5.e-002	-6.0789e-008
12997	15.338	4.4545	0.	3.9561e-003
12998	15.246	4.5455	0.	3.2054e-003
12999	15.338	4.5455	5.e-002	1.7123e-006
13000	15.338	4.2727	0.	5.166e-003
13001	15.246	4.3636	0.	4.4909e-003
13002	15.338	4.3636	5.e-002	-2.2359e-007
13003	15.338	4.0909	0.	6.2001e-003
13004	15.246	4.1818	0.	5.6017e-003
13005	15.338	4.1818	5.e-002	-2.6166e-007
13006	15.338	3.9091	0.	7.0623e-003
13007	15.246	4.	0.	6.5428e-003
13008	15.338	4.	5.e-002	1.6568e-007
13009	15.338	3.7273	0.	7.7576e-003
13010	15.246	3.8182	0.	7.3165e-003
13011	15.338	3.8182	5.e-002	8.4866e-007
13012	15.338	3.5455	0.	8.2936e-003
13013	15.246	3.6364	0.	7.9288e-003
13014	15.338	3.6364	5.e-002	2.7112e-006
13015	15.338	3.3636	0.	8.6731e-003
13016	15.246	3.4545	0.	8.3854e-003
13017	15.338	3.4545	5.e-002	3.0587e-006
13018	15.338	3.1818	0.	8.8989e-003
13019	15.246	3.2727	0.	8.6863e-003
13020	15.338	3.2727	5.e-002	2.0959e-006
13021	15.338	3.	0.	8.9742e-003
13022	15.246	3.0909	0.	8.8371e-003
13023	15.338	3.0909	5.e-002	3.2817e-006
13024	15.338	2.8182	0.	8.8989e-003
13025	15.246	2.9091	0.	8.8366e-003
13026	15.338	2.9091	5.e-002	4.4673e-006
13027	15.338	2.6364	0.	8.6729e-003
13028	15.246	2.7273	0.	8.6865e-003
13029	15.338	2.7273	5.e-002	4.8194e-006
13030	15.338	2.4545	0.	8.2939e-003
13031	15.246	2.5455	0.	8.3861e-003
13032	15.338	2.5455	5.e-002	4.5715e-006
13033	15.338	2.2727	0.	7.758e-003
13034	15.246	2.3636	0.	7.9294e-003
13035	15.338	2.3636	5.e-002	4.7914e-006
13036	15.338	2.0909	0.	7.0617e-003
13037	15.246	2.1818	0.	7.3163e-003
13038	15.338	2.1818	5.e-002	4.3946e-006
13039	15.338	1.9091	0.	6.2001e-003
13040	15.246	2.	0.	6.5424e-003
13041	15.338	2.	5.e-002	4.8483e-006
13042	15.338	1.7273	0.	5.1666e-003
13043	15.246	1.8182	0.	5.6019e-003
13044	15.338	1.8182	5.e-002	5.3939e-006
13045	15.338	1.5455	0.	3.9564e-003
13046	15.246	1.6364	0.	4.491e-003
13047	15.338	1.6364	5.e-002	5.3334e-006
13048	15.338	1.3636	0.	2.5651e-003
13049	15.246	1.4545	0.	3.2055e-003
13050	15.338	1.4545	5.e-002	5.5815e-006
13051	15.338	1.1818	0.	9.8041e-004
13052	15.246	1.2727	0.	1.7432e-003
13053	15.338	1.2727	5.e-002	5.6079e-006
13054	15.338	1.	0.	-7.6257e-004
13055	15.246	1.0909	0.	8.5164e-005
13056	15.338	1.0909	5.e-002	5.6397e-006
13057	15.338	0.81818	0.	-2.8119e-003
13058	15.246	0.90909	0.	-1.6785e-003
13059	15.338	0.90909	5.e-002	6.3145e-006
13060	15.338	0.63636	0.	-4.5652e-003
13061	15.246	0.72727	0.	-3.9225e-003
13062	15.338	0.72727	5.e-002	7.9768e-006
13063	15.338	0.45455	0.	-9.3031e-003
13064	15.246	0.54545	0.	-5.0935e-003
13065	15.338	0.54545	5.e-002	7.771e-006
13066	15.338	0.27273	0.	-7.5988e-003
13067	15.246	0.36364	0.	-1.3028e-002
13068	15.338	0.36364	5.e-002	4.4092e-006
13069	15.246	0.18182	0.	-8.318e-006
13070	15.338	0.18182	5.e-002	-4.2103e-005
13071	15.338	9.0909e-002	0.	-4.6132e-003
13072	15.154	5.7273	0.	-7.2808e-003
13073	15.061	5.8182	0.	-8.2495e-005
13074	15.154	5.8182	5.e-002	7.7733e-005
13075	15.154	5.9091	0.	-4.4543e-003
13076	15.154	5.5455	0.	-8.9213e-003
13077	15.061	5.6364	0.	-1.2432e-002
13078	15.154	5.6364	5.e-002	3.7082e-006
13079	15.154	5.3636	0.	-4.4383e-003
13080	15.061	5.4545	0.	-4.9347e-003
13081	15.154	5.4545	5.e-002	5.1866e-006
13082	15.154	5.1818	0.	-2.7665e-003
13083	15.061	5.2727	0.	-3.8228e-003
13084	15.154	5.2727	5.e-002	2.8135e-006
13085	15.154	5.	0.	-8.0318e-004
13086	15.061	5.0909	0.	-1.6814e-003
13087	15.154	5.0909	5.e-002	2.4716e-006
13088	15.154	4.8182	0.	8.7925e-004
13089	15.061	4.9091	0.	1.4795e-005
13090	15.154	4.9091	5.e-002	1.7467e-006
13091	15.154	4.6364	0.	2.4169e-003
13092	15.061	4.7273	0.	1.6195e-003
13093	15.154	4.7273	5.e-002	4.5763e-007
13094	15.154	4.4545	0.	3.7748e-003
13095	15.061	4.5455	0.	3.0411e-003
13096	15.154	4.5455	5.e-002	2.0666e-006
13097	15.154	4.2727	0.	4.9625e-003
13098	15.061	4.3636	0.	4.3001e-003
13099	15.154	4.3636	5.e-002	5.6999e-007
13100	15.154	4.0909	0.	5.9814e-003
13101	15.061	4.1818	0.	5.3928e-003
13102	15.154	4.1818	5.e-002	3.8299e-007
13103	15.154	3.9091	0.	6.8346e-003
13104	15.061	4.	0.	6.322e-003
13105	15.154	4.	5.e-002	3.603e-007
13106	15.154	3.7273	0.	7.5258e-003
13107	15.061	3.8182	0.	7.09e-003
13108	15.154	3.8182	5.e-002	1.2368e-006
13109	15.154	3.5455	0.	8.0591e-003
13110	15.061	3.6364	0.	7.6996e-003
13111	15.154	3.6364	5.e-002	3.5965e-006
13112	15.154	3.3636	0.	8.4374e-003
13113	15.061	3.4545	0.	8.1545e-003
13114	15.154	3.4545	5.e-002	3.2073e-006
13115	15.154	3.1818	0.	8.6634e-003
13116	15.061	3.2727	0.	8.4554e-003
13117	15.154	3.2727	5.e-002	2.7095e-006
13118	15.154	3.	0.	8.7384e-003
13119	15.061	3.0909	0.	8.606e-003
13120	15.154	3.0909	5.e-002	4.1219e-006
13121	15.154	2.8182	0.	8.6632e-003
13122	15.061	2.9091	0.	8.6056e-003
13123	15.154	2.9091	5.e-002	5.0575e-006
13124	15.154	2.6364	0.	8.4384e-003
13125	15.061	2.7273	0.	8.4558e-003
13126	15.154	2.7273	5.e-002	4.5627e-006
13127	15.154	2.4545	0.	8.0601e-003
13128	15.061	2.5455	0.	8.1551e-003
13129	15.154	2.5455	5.e-002	4.7782e-006
13130	15.154	2.2727	0.	7.5258e-003
13131	15.061	2.3636	0.	7.6999e-003
13132	15.154	2.3636	5.e-002	4.8773e-006
13133	15.154	2.0909	0.	6.8346e-003
13134	15.061	2.1818	0.	7.09e-003
13135	15.154	2.1818	5.e-002	4.7166e-006
13136	15.154	1.9091	0.	5.981e-003
13137	15.061	2.	0.	6.3227e-003
13138	15.154	2.	5.e-002	4.8002e-006
13139	15.154	1.7273	0.	4.9623e-003
13140	15.061	1.8182	0.	5.3925e-003
13141	15.154	1.8182	5.e-002	5.2071e-006
13142	15.154	1.5455	0.	3.7748e-003
13143	15.061	1.6364	0.	4.3e-003
13144	15.154	1.6364	5.e-002	4.9206e-006
13145	15.154	1.3636	0.	2.4167e-003
13146	15.061	1.4545	0.	3.0413e-003
13147	15.154	1.4545	5.e-002	5.4517e-006
13148	15.154	1.1818	0.	8.7873e-004
13149	15.061	1.2727	0.	1.619e-003
13150	15.154	1.2727	5.e-002	5.3223e-006
13151	15.154	1.	0.	-8.0294e-004
13152	15.061	1.0909	0.	1.4655e-005
13153	15.154	1.0909	5.e-002	5.3001e-006
13154	15.154	0.81818	0.	-2.7658e-003
13155	15.061	0.90909	0.	-1.6807e-003
13156	15.154	0.90909	5.e-002	6.5349e-006
13157	15.154	0.63636	0.	-4.4387e-003
13158	15.061	0.72727	0.	-3.8217e-003
13159	15.154	0.72727	5.e-002	6.6536e-006
13160	15.154	0.45455	0.	-8.9215e-003
13161	15.061	0.54545	0.	-4.9348e-003
13162	15.154	0.54545	5.e-002	6.3799e-006
13163	15.154	0.27273	0.	-7.2796e-003
13164	15.061	0.36364	0.	-1.2432e-002
13165	15.154	0.36364	5.e-002	5.5822e-006
13166	15.061	0.18182	0.	-8.2069e-005
13167	15.154	0.18182	5.e-002	-2.7598e-005
13168	15.154	9.0909e-002	0.	-4.4526e-003
13169	14.969	5.7273	0.	-6.9747e-003
13170	14.876	5.8182	0.	-1.6244e-004
13171	14.969	5.8182	5.e-002	7.4029e-005
13172	14.969	5.9091	0.	-4.2981e-003
13173	14.969	5.5455	0.	-8.5481e-003
13174	14.876	5.6364	0.	-1.1849e-002
13175	14.969	5.6364	5.e-002	3.3946e-006
13176	14.969	5.3636	0.	-4.3124e-003
13177	14.876	5.4545	0.	-4.7781e-003
13178	14.969	5.4545	5.e-002	4.27e-006
13179	14.969	5.1818	0.	-2.7195e-003
13180	14.876	5.2727	0.	-3.7228e-003
13181	14.969	5.2727	5.e-002	1.4506e-006
13182	14.969	5.	0.	-8.4034e-004
13183	14.876	5.0909	0.	-1.6824e-003
13184	14.969	5.0909	5.e-002	1.7085e-006
13185	14.969	4.8182	0.	7.8175e-004
13186	14.876	4.9091	0.	-5.3096e-005
13187	14.969	4.9091	5.e-002	5.9202e-007
13188	14.969	4.6364	0.	2.2733e-003
13189	14.876	4.7273	0.	1.4981e-003
13190	14.969	4.7273	5.e-002	-5.0846e-007
13191	14.969	4.4545	0.	3.5982e-003
13192	14.876	4.5455	0.	2.8807e-003
13193	14.969	4.5455	5.e-002	1.151e-006
13194	14.969	4.2727	0.	4.7641e-003
13195	14.876	4.3636	0.	4.1133e-003
13196	14.969	4.3636	5.e-002	-9.064e-007
13197	14.969	4.0909	0.	5.7687e-003
13198	14.876	4.1818	0.	5.189e-003
13199	14.969	4.1818	5.e-002	-7.1699e-007
13200	14.969	3.9091	0.	6.6138e-003
13201	14.876	4.	0.	6.1072e-003
13202	14.969	4.	5.e-002	-4.5105e-007
13203	14.969	3.7273	0.	7.3012e-003
13204	14.876	3.8182	0.	6.8701e-003
13205	14.969	3.8182	5.e-002	4.5184e-007
13206	14.969	3.5455	0.	7.833e-003
13207	14.876	3.6364	0.	7.4768e-003
13208	14.969	3.6364	5.e-002	1.8411e-006
13209	14.969	3.3636	0.	8.2111e-003
13210	14.876	3.4545	0.	7.9318e-003
13211	14.969	3.4545	5.e-002	2.4017e-006
13212	14.969	3.1818	0.	8.4369e-003
13213	14.876	3.2727	0.	8.2333e-003
13214	14.969	3.2727	5.e-002	1.2954e-006
13215	14.969	3.	0.	8.5122e-003
13216	14.876	3.0909	0.	8.3838e-003
13217	14.969	3.0909	5.e-002	2.4581e-006
13218	14.969	2.8182	0.	8.4371e-003
13219	14.876	2.9091	0.	8.3836e-003
13220	14.969	2.9091	5.e-002	3.6218e-006
13221	14.969	2.6364	0.	8.211e-003
13222	14.876	2.7273	0.	8.2335e-003
13223	14.969	2.7273	5.e-002	3.4751e-006
13224	14.969	2.4545	0.	7.833e-003
13225	14.876	2.5455	0.	7.9311e-003
13226	14.969	2.5455	5.e-002	3.2022e-006
13227	14.969	2.2727	0.	7.3014e-003
13228	14.876	2.3636	0.	7.4775e-003
13229	14.969	2.3636	5.e-002	3.6324e-006
13230	14.969	2.0909	0.	6.6146e-003
13231	14.876	2.1818	0.	6.87e-003
13232	14.969	2.1818	5.e-002	3.246e-006
13233	14.969	1.9091	0.	5.7694e-003
13234	14.876	2.	0.	6.108e-003
13235	14.969	2.	5.e-002	3.3088e-006
13236	14.969	1.7273	0.	4.764e-003
13237	14.876	1.8182	0.	5.1889e-003
13238	14.969	1.8182	5.e-002	3.5914e-006
13239	14.969	1.5455	0.	3.5983e-003
13240	14.876	1.6364	0.	4.1134e-003
13241	14.969	1.6364	5.e-002	3.6623e-006
13242	14.969	1.3636	0.	2.2733e-003
13243	14.876	1.4545	0.	2.8815e-003
13244	14.969	1.4545	5.e-002	3.6971e-006
13245	14.969	1.1818	0.	7.8164e-004
13246	14.876	1.2727	0.	1.4981e-003
13247	14.969	1.2727	5.e-002	3.8534e-006
13248	14.969	1.	0.	-8.4003e-004
13249	14.876	1.0909	0.	-5.2983e-005
13250	14.969	1.0909	5.e-002	3.8521e-006
13251	14.969	0.81818	0.	-2.7184e-003
13252	14.876	0.90909	0.	-1.682e-003
13253	14.969	0.90909	5.e-002	3.857e-006
13254	14.969	0.63636	0.	-4.311e-003
13255	14.876	0.72727	0.	-3.721e-003
13256	14.969	0.72727	5.e-002	4.1659e-006
13257	14.969	0.45455	0.	-8.5481e-003
13258	14.876	0.54545	0.	-4.777e-003
13259	14.969	0.54545	5.e-002	4.1297e-006
13260	14.969	0.27273	0.	-6.9754e-003
13261	14.876	0.36364	0.	-1.1849e-002
13262	14.969	0.36364	5.e-002	3.818e-006
13263	14.876	0.18182	0.	-1.6269e-004
13264	14.969	0.18182	5.e-002	-3.5057e-005
13265	14.969	9.0909e-002	0.	-4.2989e-003
13266	14.784	5.7273	0.	-6.6798e-003
13267	14.692	5.8182	0.	-2.4972e-004
13268	14.784	5.8182	5.e-002	2.7075e-005
13269	14.784	5.9091	0.	-4.1439e-003
13270	14.784	5.5455	0.	-8.1814e-003
13271	14.692	5.6364	0.	-1.1275e-002
13272	14.784	5.6364	5.e-002	3.172e-006
13273	14.784	5.3636	0.	-4.1868e-003
13274	14.692	5.4545	0.	-4.6224e-003
13275	14.784	5.4545	5.e-002	3.8323e-006
13276	14.784	5.1818	0.	-2.6726e-003
13277	14.692	5.2727	0.	-3.6219e-003
13278	14.784	5.2727	5.e-002	1.1142e-006
13279	14.784	5.	0.	-8.7679e-004
13280	14.692	5.0909	0.	-1.6828e-003
13281	14.784	5.0909	5.e-002	1.0779e-006
13282	14.784	4.8182	0.	6.8582e-004
13283	14.692	4.9091	0.	-1.1925e-004
13284	14.784	4.9091	5.e-002	1.7151e-007
13285	14.784	4.6364	0.	2.1316e-003
13286	14.692	4.7273	0.	1.378e-003
13287	14.784	4.7273	5.e-002	-9.9066e-007
13288	14.784	4.4545	0.	3.4248e-003
13289	14.692	4.5455	0.	2.7225e-003
13290	14.784	4.5455	5.e-002	2.8372e-007
13291	14.784	4.2727	0.	4.5695e-003
13292	14.692	4.3636	0.	3.9291e-003
13293	14.784	4.3636	5.e-002	-1.132e-006
13294	14.784	4.0909	0.	5.5609e-003
13295	14.692	4.1818	0.	4.9874e-003
13296	14.784	4.1818	5.e-002	-1.3059e-006
13297	14.784	3.9091	0.	6.3987e-003
13298	14.692	4.	0.	5.8968e-003
13299	14.784	4.	5.e-002	-7.779e-007
13300	14.784	3.7273	0.	7.0824e-003
13301	14.692	3.8182	0.	6.6547e-003
13302	14.784	3.8182	5.e-002	-1.1235e-007
13303	14.784	3.5455	0.	7.6133e-003
13304	14.692	3.6364	0.	7.2606e-003
13305	14.784	3.6364	5.e-002	1.3836e-006
13306	14.784	3.3636	0.	7.9925e-003
13307	14.692	3.4545	0.	7.7162e-003
13308	14.784	3.4545	5.e-002	1.4641e-006
13309	14.784	3.1818	0.	8.2192e-003
13310	14.692	3.2727	0.	8.0185e-003
13311	14.784	3.2727	5.e-002	8.2653e-007
13312	14.784	3.	0.	8.2943e-003
13313	14.692	3.0909	0.	8.1695e-003
13314	14.784	3.0909	5.e-002	1.8649e-006
13315	14.784	2.8182	0.	8.2189e-003
13316	14.692	2.9091	0.	8.1695e-003
13317	14.784	2.9091	5.e-002	2.9033e-006
13318	14.784	2.6364	0.	7.9921e-003
13319	14.692	2.7273	0.	8.0189e-003
13320	14.784	2.7273	5.e-002	2.9875e-006
13321	14.784	2.4545	0.	7.6134e-003
13322	14.692	2.5455	0.	7.7161e-003
13323	14.784	2.5455	5.e-002	2.3517e-006
13324	14.784	2.2727	0.	7.0827e-003
13325	14.692	2.3636	0.	7.2609e-003
13326	14.784	2.3636	5.e-002	2.9005e-006
13327	14.784	2.0909	0.	6.3987e-003
13328	14.692	2.1818	0.	6.6548e-003
13329	14.784	2.1818	5.e-002	2.384e-006
13330	14.784	1.9091	0.	5.561e-003
13331	14.692	2.	0.	5.897e-003
13332	14.784	2.	5.e-002	2.44e-006
13333	14.784	1.7273	0.	4.5698e-003
13334	14.692	1.8182	0.	4.9885e-003
13335	14.784	1.8182	5.e-002	2.8601e-006
13336	14.784	1.5455	0.	3.4255e-003
13337	14.692	1.6364	0.	3.9294e-003
13338	14.784	1.6364	5.e-002	2.7794e-006
13339	14.784	1.3636	0.	2.1323e-003
13340	14.692	1.4545	0.	2.724e-003
13341	14.784	1.4545	5.e-002	2.6728e-006
13342	14.784	1.1818	0.	6.8601e-004
13343	14.692	1.2727	0.	1.3784e-003
13344	14.784	1.2727	5.e-002	2.5845e-006
13345	14.784	1.	0.	-8.765e-004
13346	14.692	1.0909	0.	-1.1873e-004
13347	14.784	1.0909	5.e-002	2.7173e-006
13348	14.784	0.81818	0.	-2.6714e-003
13349	14.692	0.90909	0.	-1.6818e-003
13350	14.784	0.90909	5.e-002	1.7513e-006
13351	14.784	0.63636	0.	-4.1853e-003
13352	14.692	0.72727	0.	-3.6202e-003
13353	14.784	0.72727	5.e-002	2.5495e-006
13354	14.784	0.45455	0.	-8.1803e-003
13355	14.692	0.54545	0.	-4.6222e-003
13356	14.784	0.54545	5.e-002	3.6418e-006
13357	14.784	0.27273	0.	-6.6794e-003
13358	14.692	0.36364	0.	-1.1275e-002
13359	14.784	0.36364	5.e-002	4.8293e-006
13360	14.692	0.18182	0.	-2.5019e-004
13361	14.784	0.18182	5.e-002	-2.6483e-005
13362	14.784	9.0909e-002	0.	-4.144e-003
13363	14.599	5.7273	0.	-6.3929e-003
13364	14.507	5.8182	0.	-3.4404e-004
13365	14.599	5.8182	5.e-002	4.8995e-005
13366	14.599	5.9091	0.	-3.9917e-003
13367	14.599	5.5455	0.	-7.8182e-003
13368	14.507	5.6364	0.	-1.0707e-002
13369	14.599	5.6364	5.e-002	3.3713e-006
13370	14.599	5.3636	0.	-4.0605e-003
13371	14.507	5.4545	0.	-4.4671e-003
13372	14.599	5.4545	5.e-002	4.2645e-006
13373	14.599	5.1818	0.	-2.6237e-003
13374	14.507	5.2727	0.	-3.5211e-003
13375	14.599	5.2727	5.e-002	1.8348e-006
13376	14.599	5.	0.	-9.1139e-004
13377	14.507	5.0909	0.	-1.6817e-003
13378	14.599	5.0909	5.e-002	1.4809e-006
13379	14.599	4.8182	0.	5.9135e-004
13380	14.507	4.9091	0.	-1.8429e-004
13381	14.599	4.9091	5.e-002	8.7319e-007
13382	14.599	4.6364	0.	1.9913e-003
13383	14.507	4.7273	0.	1.2584e-003
13384	14.599	4.7273	5.e-002	-4.5335e-007
13385	14.599	4.4545	0.	3.2527e-003
13386	14.507	4.5455	0.	2.5651e-003
13387	14.599	4.5455	5.e-002	1.0485e-006
13388	14.599	4.2727	0.	4.3759e-003
13389	14.507	4.3636	0.	3.7451e-003
13390	14.599	4.3636	5.e-002	-5.6278e-007
13391	14.599	4.0909	0.	5.3549e-003
13392	14.507	4.1818	0.	4.7868e-003
13393	14.599	4.1818	5.e-002	-5.5279e-007
13394	14.599	3.9091	0.	6.1868e-003
13395	14.507	4.	0.	5.6886e-003
13396	14.599	4.	5.e-002	-1.4826e-007
13397	14.599	3.7273	0.	6.8689e-003
13398	14.507	3.8182	0.	6.4429e-003
13399	14.599	3.8182	5.e-002	2.6644e-007
13400	14.599	3.5455	0.	7.4008e-003
13401	14.507	3.6364	0.	7.0494e-003
13402	14.599	3.6364	5.e-002	2.0067e-006
13403	14.599	3.3636	0.	7.7806e-003
13404	14.507	3.4545	0.	7.5062e-003
13405	14.599	3.4545	5.e-002	2.0712e-006
13406	14.599	3.1818	0.	8.0079e-003
13407	14.507	3.2727	0.	7.8103e-003
13408	14.599	3.2727	5.e-002	1.3109e-006
13409	14.599	3.	0.	8.084e-003
13410	14.507	3.0909	0.	7.9627e-003
13411	14.599	3.0909	5.e-002	2.3447e-006
13412	14.599	2.8182	0.	8.0085e-003
13413	14.507	2.9091	0.	7.9628e-003
13414	14.599	2.9091	5.e-002	3.2582e-006
13415	14.599	2.6364	0.	7.7813e-003
13416	14.507	2.7273	0.	7.8107e-003
13417	14.599	2.7273	5.e-002	3.4556e-006
13418	14.599	2.4545	0.	7.4009e-003
13419	14.507	2.5455	0.	7.5066e-003
13420	14.599	2.5455	5.e-002	3.0547e-006
13421	14.599	2.2727	0.	6.8689e-003
13422	14.507	2.3636	0.	7.0493e-003
13423	14.599	2.3636	5.e-002	3.1215e-006
13424	14.599	2.0909	0.	6.1871e-003
13425	14.507	2.1818	0.	6.443e-003
13426	14.599	2.1818	5.e-002	3.077e-006
13427	14.599	1.9091	0.	5.3561e-003
13428	14.507	2.	0.	5.6887e-003
13429	14.599	2.	5.e-002	2.6537e-006
13430	14.599	1.7273	0.	4.3771e-003
13431	14.507	1.8182	0.	4.7879e-003
13432	14.599	1.8182	5.e-002	3.342e-006
13433	14.599	1.5455	0.	3.2539e-003
13434	14.507	1.6364	0.	3.7451e-003
13435	14.599	1.6364	5.e-002	3.0764e-006
13436	14.599	1.3636	0.	1.9925e-003
13437	14.507	1.4545	0.	2.5663e-003
13438	14.599	1.4545	5.e-002	3.218e-006
13439	14.599	1.1818	0.	5.9208e-004
13440	14.507	1.2727	0.	1.2587e-003
13441	14.599	1.2727	5.e-002	2.937e-006
13442	14.599	1.	0.	-9.1026e-004
13443	14.507	1.0909	0.	-1.837e-004
13444	14.599	1.0909	5.e-002	2.8176e-006
13445	14.599	0.81818	0.	-2.6224e-003
13446	14.507	0.90909	0.	-1.6803e-003
13447	14.599	0.90909	5.e-002	2.5276e-006
13448	14.599	0.63636	0.	-4.0601e-003
13449	14.507	0.72727	0.	-3.5188e-003
13450	14.599	0.72727	5.e-002	2.4657e-006
13451	14.599	0.45455	0.	-7.8188e-003
13452	14.507	0.54545	0.	-4.4677e-003
13453	14.599	0.54545	5.e-002	3.291e-006
13454	14.599	0.27273	0.	-6.3934e-003
13455	14.507	0.36364	0.	-1.0708e-002
13456	14.599	0.36364	5.e-002	4.7964e-006
13457	14.507	0.18182	0.	-3.4417e-004
13458	14.599	0.18182	5.e-002	-4.5062e-005
13459	14.599	9.0909e-002	0.	-3.9911e-003
13460	14.414	5.7273	0.	-6.1122e-003
13461	14.322	5.8182	0.	-4.4504e-004
13462	14.414	5.8182	5.e-002	6.3537e-005
13463	14.414	5.9091	0.	-3.8392e-003
13464	14.414	5.5455	0.	-7.4572e-003
13465	14.322	5.6364	0.	-1.0142e-002
13466	14.414	5.6364	5.e-002	3.6881e-006
13467	14.414	5.3636	0.	-3.935e-003
13468	14.322	5.4545	0.	-4.3118e-003
13469	14.414	5.4545	5.e-002	4.6826e-006
13470	14.414	5.1818	0.	-2.5754e-003
13471	14.322	5.2727	0.	-3.4196e-003
13472	14.414	5.2727	5.e-002	2.4217e-006
13473	14.414	5.	0.	-9.4536e-004
13474	14.322	5.0909	0.	-1.6807e-003
13475	14.414	5.0909	5.e-002	2.3268e-006
13476	14.414	4.8182	0.	4.9684e-004
13477	14.322	4.9091	0.	-2.5086e-004
13478	14.414	4.9091	5.e-002	1.9053e-006
13479	14.414	4.6364	0.	1.8507e-003
13480	14.322	4.7273	0.	1.1369e-003
13481	14.414	4.7273	5.e-002	3.1325e-007
13482	14.414	4.4545	0.	3.0801e-003
13483	14.322	4.5455	0.	2.4052e-003
13484	14.414	4.5455	5.e-002	1.8049e-006
13485	14.414	4.2727	0.	4.1822e-003
13486	14.322	4.3636	0.	3.558e-003
13487	14.414	4.3636	5.e-002	3.2683e-007
13488	14.414	4.0909	0.	5.15e-003
13489	14.322	4.1818	0.	4.585e-003
13490	14.414	4.1818	5.e-002	7.9064e-009
13491	14.414	3.9091	0.	5.9772e-003
13492	14.322	4.	0.	5.4793e-003
13493	14.414	4.	5.e-002	3.5708e-007
13494	14.414	3.7273	0.	6.6585e-003
13495	14.322	3.8182	0.	6.2325e-003
13496	14.414	3.8182	5.e-002	1.2392e-006
13497	14.414	3.5455	0.	7.1918e-003
13498	14.322	3.6364	0.	6.8408e-003
13499	14.414	3.6364	5.e-002	2.8546e-006
13500	14.414	3.3636	0.	7.5744e-003
13501	14.322	3.4545	0.	7.3005e-003
13502	14.414	3.4545	5.e-002	2.5623e-006
13503	14.414	3.1818	0.	7.8045e-003
13504	14.322	3.2727	0.	7.6079e-003
13505	14.414	3.2727	5.e-002	2.0378e-006
13506	14.414	3.	0.	7.8812e-003
13507	14.322	3.0909	0.	7.7626e-003
13508	14.414	3.0909	5.e-002	3.0631e-006
13509	14.414	2.8182	0.	7.8043e-003
13510	14.322	2.9091	0.	7.7625e-003
13511	14.414	2.9091	5.e-002	3.7318e-006
13512	14.414	2.6364	0.	7.5745e-003
13513	14.322	2.7273	0.	7.6083e-003
13514	14.414	2.7273	5.e-002	3.683e-006
13515	14.414	2.4545	0.	7.192e-003
13516	14.322	2.5455	0.	7.3007e-003
13517	14.414	2.5455	5.e-002	3.5139e-006
13518	14.414	2.2727	0.	6.6585e-003
13519	14.322	2.3636	0.	6.8405e-003
13520	14.414	2.3636	5.e-002	3.5854e-006
13521	14.414	2.0909	0.	5.9772e-003
13522	14.322	2.1818	0.	6.2325e-003
13523	14.414	2.1818	5.e-002	3.2767e-006
13524	14.414	1.9091	0.	5.1501e-003
13525	14.322	2.	0.	5.4796e-003
13526	14.414	2.	5.e-002	3.4536e-006
13527	14.414	1.7273	0.	4.1822e-003
13528	14.322	1.8182	0.	4.5857e-003
13529	14.414	1.8182	5.e-002	3.5184e-006
13530	14.414	1.5455	0.	3.0801e-003
13531	14.322	1.6364	0.	3.5588e-003
13532	14.414	1.6364	5.e-002	3.395e-006
13533	14.414	1.3636	0.	1.8509e-003
13534	14.322	1.4545	0.	2.4054e-003
13535	14.414	1.4545	5.e-002	3.2458e-006
13536	14.414	1.1818	0.	4.9696e-004
13537	14.322	1.2727	0.	1.1373e-003
13538	14.414	1.2727	5.e-002	3.0916e-006
13539	14.414	1.	0.	-9.4449e-004
13540	14.322	1.0909	0.	-2.5028e-004
13541	14.414	1.0909	5.e-002	3.0669e-006
13542	14.414	0.81818	0.	-2.573e-003
13543	14.322	0.90909	0.	-1.6789e-003
13544	14.414	0.90909	5.e-002	3.1493e-006
13545	14.414	0.63636	0.	-3.9337e-003
13546	14.322	0.72727	0.	-3.4177e-003
13547	14.414	0.72727	5.e-002	4.4564e-006
13548	14.414	0.45455	0.	-7.4579e-003
13549	14.322	0.54545	0.	-4.3118e-003
13550	14.414	0.54545	5.e-002	4.1494e-006
13551	14.414	0.27273	0.	-6.1125e-003
13552	14.322	0.36364	0.	-1.0143e-002
13553	14.414	0.36364	5.e-002	2.8385e-006
13554	14.322	0.18182	0.	-4.4512e-004
13555	14.414	0.18182	5.e-002	1.0561e-006
13556	14.414	9.0909e-002	0.	-3.8388e-003
13557	14.23	5.7273	0.	-5.8355e-003
13558	14.137	5.8182	0.	-5.5365e-004
13559	14.23	5.8182	5.e-002	7.9766e-005
13560	14.23	5.9091	0.	-3.6873e-003
13561	14.23	5.5455	0.	-7.0963e-003
13562	14.137	5.6364	0.	-9.5752e-003
13563	14.23	5.6364	5.e-002	2.9229e-006
13564	14.23	5.3636	0.	-3.8078e-003
13565	14.137	5.4545	0.	-4.1554e-003
13566	14.23	5.4545	5.e-002	3.851e-006
13567	14.23	5.1818	0.	-2.5258e-003
13568	14.137	5.2727	0.	-3.3166e-003
13569	14.23	5.2727	5.e-002	1.7323e-006
13570	14.23	5.	0.	-9.8159e-004
13571	14.137	5.0909	0.	-1.6804e-003
13572	14.23	5.0909	5.e-002	1.6059e-006
13573	14.23	4.8182	0.	3.9887e-004
13574	14.137	4.9091	0.	-3.1997e-004
13575	14.23	4.9091	5.e-002	9.5587e-007
13576	14.23	4.6364	0.	1.7059e-003
13577	14.137	4.7273	0.	1.0114e-003
13578	14.23	4.7273	5.e-002	-1.1064e-007
13579	14.23	4.4545	0.	2.9021e-003
13580	14.137	4.5455	0.	2.2397e-003
13581	14.23	4.5455	5.e-002	1.2741e-006
13582	14.23	4.2727	0.	3.984e-003
13583	14.137	4.3636	0.	3.3663e-003
13584	14.23	4.3636	5.e-002	-3.511e-007
13585	14.23	4.0909	0.	4.9415e-003
13586	14.137	4.1818	0.	4.3788e-003
13587	14.23	4.1818	5.e-002	-4.3342e-007
13588	14.23	3.9091	0.	5.7654e-003
13589	14.137	4.	0.	5.2668e-003
13590	14.23	4.	5.e-002	-2.1422e-007
13591	14.23	3.7273	0.	6.4489e-003
13592	14.137	3.8182	0.	6.0206e-003
13593	14.23	3.8182	5.e-002	6.166e-007
13594	14.23	3.5455	0.	6.9862e-003
13595	14.137	3.6364	0.	6.6328e-003
13596	14.23	3.6364	5.e-002	2.0354e-006
13597	14.23	3.3636	0.	7.3726e-003
13598	14.137	3.4545	0.	7.0984e-003
13599	14.23	3.4545	5.e-002	1.9863e-006
13600	14.23	3.1818	0.	7.6058e-003
13601	14.137	3.2727	0.	7.4105e-003
13602	14.23	3.2727	5.e-002	1.3313e-006
13603	14.23	3.	0.	7.6841e-003
13604	14.137	3.0909	0.	7.5679e-003
13605	14.23	3.0909	5.e-002	2.2324e-006
13606	14.23	2.8182	0.	7.6062e-003
13607	14.137	2.9091	0.	7.5675e-003
13608	14.23	2.9091	5.e-002	3.0128e-006
13609	14.23	2.6364	0.	7.3731e-003
13610	14.137	2.7273	0.	7.4109e-003
13611	14.23	2.7273	5.e-002	3.1965e-006
13612	14.23	2.4545	0.	6.9859e-003
13613	14.137	2.5455	0.	7.0983e-003
13614	14.23	2.5455	5.e-002	2.6627e-006
13615	14.23	2.2727	0.	6.4486e-003
13616	14.137	2.3636	0.	6.6326e-003
13617	14.23	2.3636	5.e-002	2.7207e-006
13618	14.23	2.0909	0.	5.7659e-003
13619	14.137	2.1818	0.	6.0204e-003
13620	14.23	2.1818	5.e-002	2.5325e-006
13621	14.23	1.9091	0.	4.9424e-003
13622	14.137	2.	0.	5.2672e-003
13623	14.23	2.	5.e-002	2.3466e-006
13624	14.23	1.7273	0.	3.9854e-003
13625	14.137	1.8182	0.	4.3792e-003
13626	14.23	1.8182	5.e-002	2.8048e-006
13627	14.23	1.5455	0.	2.903e-003
13628	14.137	1.6364	0.	3.3675e-003
13629	14.23	1.6364	5.e-002	2.5217e-006
13630	14.23	1.3636	0.	1.7062e-003
13631	14.137	1.4545	0.	2.2396e-003
13632	14.23	1.4545	5.e-002	2.3707e-006
13633	14.23	1.1818	0.	3.9967e-004
13634	14.137	1.2727	0.	1.0121e-003
13635	14.23	1.2727	5.e-002	2.1487e-006
13636	14.23	1.	0.	-9.8001e-004
13637	14.137	1.0909	0.	-3.1962e-004
13638	14.23	1.0909	5.e-002	2.1648e-006
13639	14.23	0.81818	0.	-2.5245e-003
13640	14.137	0.90909	0.	-1.6784e-003
13641	14.23	0.90909	5.e-002	2.5057e-006
13642	14.23	0.63636	0.	-3.8072e-003
13643	14.137	0.72727	0.	-3.3155e-003
13644	14.23	0.72727	5.e-002	2.9969e-006
13645	14.23	0.45455	0.	-7.0962e-003
13646	14.137	0.54545	0.	-4.1546e-003
13647	14.23	0.54545	5.e-002	2.0994e-006
13648	14.23	0.27273	0.	-5.8358e-003
13649	14.137	0.36364	0.	-9.5755e-003
13650	14.23	0.36364	5.e-002	1.7786e-006
13651	14.137	0.18182	0.	-5.54e-004
13652	14.23	0.18182	5.e-002	-3.9417e-005
13653	14.23	9.0909e-002	0.	-3.6864e-003
13654	14.045	5.7273	0.	-5.5605e-003
13655	13.952	5.8182	0.	-6.7087e-004
13656	14.045	5.8182	5.e-002	6.3582e-005
13657	14.045	5.9091	0.	-3.5346e-003
13658	14.045	5.5455	0.	-6.7316e-003
13659	13.952	5.6364	0.	-9.0023e-003
13660	14.045	5.6364	5.e-002	3.1884e-006
13661	14.045	5.3636	0.	-3.6794e-003
13662	13.952	5.4545	0.	-3.9964e-003
13663	14.045	5.4545	5.e-002	4.5148e-006
13664	14.045	5.1818	0.	-2.4766e-003
13665	13.952	5.2727	0.	-3.2134e-003
13666	14.045	5.2727	5.e-002	2.3261e-006
13667	14.045	5.	0.	-1.0189e-003
13668	13.952	5.0909	0.	-1.6811e-003
13669	14.045	5.0909	5.e-002	2.1787e-006
13670	14.045	4.8182	0.	2.975e-004
13671	13.952	4.9091	0.	-3.9294e-004
13672	14.045	4.9091	5.e-002	1.6463e-006
13673	14.045	4.6364	0.	1.5551e-003
13674	13.952	4.7273	0.	8.7892e-004
13675	14.045	4.7273	5.e-002	4.0979e-007
13676	14.045	4.4545	0.	2.7187e-003
13677	13.952	4.5455	0.	2.0654e-003
13678	14.045	4.5455	5.e-002	1.7726e-006
13679	14.045	4.2727	0.	3.7808e-003
13680	13.952	4.3636	0.	3.1654e-003
13681	14.045	4.3636	5.e-002	5.2222e-007
13682	14.045	4.0909	0.	4.7285e-003
13683	13.952	4.1818	0.	4.1637e-003
13684	14.045	4.1818	5.e-002	4.5611e-007
13685	14.045	3.9091	0.	5.5509e-003
13686	13.952	4.	0.	5.0473e-003
13687	14.045	4.	5.e-002	6.0613e-007
13688	14.045	3.7273	0.	6.2375e-003
13689	13.952	3.8182	0.	5.804e-003
13690	14.045	3.8182	5.e-002	1.0097e-006
13691	14.045	3.5455	0.	6.7814e-003
13692	13.952	3.6364	0.	6.4233e-003
13693	14.045	3.6364	5.e-002	2.4893e-006
13694	14.045	3.3636	0.	7.1751e-003
13695	13.952	3.4545	0.	6.8972e-003
13696	14.045	3.4545	5.e-002	2.3609e-006
13697	14.045	3.1818	0.	7.413e-003
13698	13.952	3.2727	0.	7.2169e-003
13699	14.045	3.2727	5.e-002	1.8222e-006
13700	14.045	3.	0.	7.4923e-003
13701	13.952	3.0909	0.	7.3777e-003
13702	14.045	3.0909	5.e-002	2.6535e-006
13703	14.045	2.8182	0.	7.4126e-003
13704	13.952	2.9091	0.	7.3776e-003
13705	14.045	2.9091	5.e-002	3.4859e-006
13706	14.045	2.6364	0.	7.175e-003
13707	13.952	2.7273	0.	7.2165e-003
13708	14.045	2.7273	5.e-002	3.6032e-006
13709	14.045	2.4545	0.	6.7812e-003
13710	13.952	2.5455	0.	6.8972e-003
13711	14.045	2.5455	5.e-002	3.1807e-006
13712	14.045	2.2727	0.	6.2373e-003
13713	13.952	2.3636	0.	6.4236e-003
13714	14.045	2.3636	5.e-002	3.3482e-006
13715	14.045	2.0909	0.	5.5507e-003
13716	13.952	2.1818	0.	5.8034e-003
13717	14.045	2.1818	5.e-002	2.9095e-006
13718	14.045	1.9091	0.	4.7284e-003
13719	13.952	2.	0.	5.0476e-003
13720	14.045	2.	5.e-002	2.7362e-006
13721	14.045	1.7273	0.	3.781e-003
13722	13.952	1.8182	0.	4.1639e-003
13723	14.045	1.8182	5.e-002	3.1655e-006
13724	14.045	1.5455	0.	2.7189e-003
13725	13.952	1.6364	0.	3.1658e-003
13726	14.045	1.6364	5.e-002	3.1196e-006
13727	14.045	1.3636	0.	1.5554e-003
13728	13.952	1.4545	0.	2.0656e-003
13729	14.045	1.4545	5.e-002	2.9815e-006
13730	14.045	1.1818	0.	2.9774e-004
13731	13.952	1.2727	0.	8.7971e-004
13732	14.045	1.2727	5.e-002	3.0372e-006
13733	14.045	1.	0.	-1.0181e-003
13734	13.952	1.0909	0.	-3.9309e-004
13735	14.045	1.0909	5.e-002	3.0409e-006
13736	14.045	0.81818	0.	-2.4749e-003
13737	13.952	0.90909	0.	-1.6798e-003
13738	14.045	0.90909	5.e-002	3.058e-006
13739	14.045	0.63636	0.	-3.6782e-003
13740	13.952	0.72727	0.	-3.2116e-003
13741	14.045	0.72727	5.e-002	2.95e-006
13742	14.045	0.45455	0.	-6.7313e-003
13743	13.952	0.54545	0.	-3.9955e-003
13744	14.045	0.54545	5.e-002	2.3324e-006
13745	14.045	0.27273	0.	-5.5607e-003
13746	13.952	0.36364	0.	-9.0028e-003
13747	14.045	0.36364	5.e-002	1.4336e-006
13748	13.952	0.18182	0.	-6.7128e-004
13749	14.045	0.18182	5.e-002	-3.9401e-005
13750	14.045	9.0909e-002	0.	-3.5344e-003
13751	13.86	5.7273	0.	-5.2862e-003
13752	13.768	5.8182	0.	-7.9749e-004
13753	13.86	5.8182	5.e-002	5.7772e-005
13754	13.86	5.9091	0.	-3.3811e-003
13755	13.86	5.5455	0.	-6.362e-003
13756	13.768	5.6364	0.	-8.4204e-003
13757	13.86	5.6364	5.e-002	2.7791e-006
13758	13.86	5.3636	0.	-3.5491e-003
13759	13.768	5.4545	0.	-3.8341e-003
13760	13.86	5.4545	5.e-002	3.3799e-006
13761	13.86	5.1818	0.	-2.4276e-003
13762	13.768	5.2727	0.	-3.1081e-003
13763	13.86	5.2727	5.e-002	1.1038e-006
13764	13.86	5.	0.	-1.06e-003
13765	13.768	5.0909	0.	-1.6843e-003
13766	13.86	5.0909	5.e-002	1.2795e-006
13767	13.86	4.8182	0.	1.8842e-004
13768	13.768	4.9091	0.	-4.728e-004
13769	13.86	4.9091	5.e-002	5.9915e-007
13770	13.86	4.6364	0.	1.3941e-003
13771	13.768	4.7273	0.	7.364e-004
13772	13.86	4.7273	5.e-002	-5.764e-007
13773	13.86	4.4545	0.	2.5223e-003
13774	13.768	4.5455	0.	1.8782e-003
13775	13.86	4.5455	5.e-002	5.9693e-007
13776	13.86	4.2727	0.	3.5639e-003
13777	13.768	4.3636	0.	2.9491e-003
13778	13.86	4.3636	5.e-002	-6.6751e-007
13779	13.86	4.0909	0.	4.5035e-003
13780	13.768	4.1818	0.	3.9337e-003
13781	13.86	4.1818	5.e-002	-6.4053e-007
13782	13.86	3.9091	0.	5.3269e-003
13783	13.768	4.	0.	4.8151e-003
13784	13.86	4.	5.e-002	-6.731e-007
13785	13.86	3.7273	0.	6.0214e-003
13786	13.768	3.8182	0.	5.5783e-003
13787	13.86	3.8182	5.e-002	-3.436e-008
13788	13.86	3.5455	0.	6.575e-003
13789	13.768	3.6364	0.	6.2094e-003
13790	13.86	3.6364	5.e-002	1.377e-006
13791	13.86	3.3636	0.	6.9781e-003
13792	13.768	3.4545	0.	6.695e-003
13793	13.86	3.4545	5.e-002	1.1298e-006
13794	13.86	3.1818	0.	7.223e-003
13795	13.768	3.2727	0.	7.0251e-003
13796	13.86	3.2727	5.e-002	7.608e-007
13797	13.86	3.	0.	7.3051e-003
13798	13.768	3.0909	0.	7.1914e-003
13799	13.86	3.0909	5.e-002	1.5249e-006
13800	13.86	2.8182	0.	7.2228e-003
13801	13.768	2.9091	0.	7.1918e-003
13802	13.86	2.9091	5.e-002	2.409e-006
13803	13.86	2.6364	0.	6.978e-003
13804	13.768	2.7273	0.	7.0248e-003
13805	13.86	2.7273	5.e-002	2.2196e-006
13806	13.86	2.4545	0.	6.5754e-003
13807	13.768	2.5455	0.	6.6956e-003
13808	13.86	2.5455	5.e-002	1.7881e-006
13809	13.86	2.2727	0.	6.0212e-003
13810	13.768	2.3636	0.	6.2094e-003
13811	13.86	2.3636	5.e-002	2.0729e-006
13812	13.86	2.0909	0.	5.3268e-003
13813	13.768	2.1818	0.	5.5784e-003
13814	13.86	2.1818	5.e-002	1.704e-006
13815	13.86	1.9091	0.	4.5041e-003
13816	13.768	2.	0.	4.8156e-003
13817	13.86	2.	5.e-002	1.6696e-006
13818	13.86	1.7273	0.	3.5643e-003
13819	13.768	1.8182	0.	3.9339e-003
13820	13.86	1.8182	5.e-002	1.9535e-006
13821	13.86	1.5455	0.	2.5226e-003
13822	13.768	1.6364	0.	2.9498e-003
13823	13.86	1.6364	5.e-002	1.9072e-006
13824	13.86	1.3636	0.	1.3948e-003
13825	13.768	1.4545	0.	1.8786e-003
13826	13.86	1.4545	5.e-002	1.7522e-006
13827	13.86	1.1818	0.	1.8882e-004
13828	13.768	1.2727	0.	7.3724e-004
13829	13.86	1.2727	5.e-002	1.7806e-006
13830	13.86	1.	0.	-1.0597e-003
13831	13.768	1.0909	0.	-4.7281e-004
13832	13.86	1.0909	5.e-002	1.7763e-006
13833	13.86	0.81818	0.	-2.4264e-003
13834	13.768	0.90909	0.	-1.6835e-003
13835	13.86	0.90909	5.e-002	1.8906e-006
13836	13.86	0.63636	0.	-3.5478e-003
13837	13.768	0.72727	0.	-3.1065e-003
13838	13.86	0.72727	5.e-002	1.6473e-006
13839	13.86	0.45455	0.	-6.3619e-003
13840	13.768	0.54545	0.	-3.8333e-003
13841	13.86	0.54545	5.e-002	8.12e-007
13842	13.86	0.27273	0.	-5.2868e-003
13843	13.768	0.36364	0.	-8.4205e-003
13844	13.86	0.36364	5.e-002	2.0657e-006
13845	13.768	0.18182	0.	-7.9781e-004
13846	13.86	0.18182	5.e-002	-3.4147e-005
13847	13.86	9.0909e-002	0.	-3.3804e-003
13848	13.675	5.7273	0.	-5.0104e-003
13849	13.583	5.8182	0.	-9.3423e-004
13850	13.675	5.8182	5.e-002	7.4789e-005
13851	13.675	5.9091	0.	-3.2267e-003
13852	13.675	5.5455	0.	-5.9842e-003
13853	13.583	5.6364	0.	-7.8243e-003
13854	13.675	5.6364	5.e-002	3.107e-006
13855	13.675	5.3636	0.	-3.4152e-003
13856	13.583	5.4545	0.	-3.6676e-003
13857	13.675	5.4545	5.e-002	4.2497e-006
13858	13.675	5.1818	0.	-2.3789e-003
13859	13.583	5.2727	0.	-3.0011e-003
13860	13.675	5.2727	5.e-002	2.2465e-006
13861	13.675	5.	0.	-1.1069e-003
13862	13.583	5.0909	0.	-1.6913e-003
13863	13.675	5.0909	5.e-002	2.2962e-006
13864	13.675	4.8182	0.	6.9665e-005
13865	13.583	4.9091	0.	-5.6271e-004
13866	13.675	4.9091	5.e-002	1.518e-006
13867	13.675	4.6364	0.	1.2197e-003
13868	13.583	4.7273	0.	5.7858e-004
13869	13.675	4.7273	5.e-002	3.6847e-007
13870	13.675	4.4545	0.	2.3095e-003
13871	13.583	4.5455	0.	1.6707e-003
13872	13.675	4.5455	5.e-002	1.7124e-006
13873	13.675	4.2727	0.	3.3293e-003
13874	13.583	4.3636	0.	2.7106e-003
13875	13.675	4.3636	5.e-002	3.1089e-007
13876	13.675	4.0909	0.	4.262e-003
13877	13.583	4.1818	0.	3.6811e-003
13878	13.675	4.1818	5.e-002	2.8353e-007
13879	13.675	3.9091	0.	5.0898e-003
13880	13.583	4.	0.	4.5632e-003
13881	13.675	4.	5.e-002	3.7665e-007
13882	13.675	3.7273	0.	5.7959e-003
13883	13.583	3.8182	0.	5.3371e-003
13884	13.675	3.8182	5.e-002	7.6596e-007
13885	13.675	3.5455	0.	6.3647e-003
13886	13.583	3.6364	0.	5.985e-003
13887	13.675	3.6364	5.e-002	2.352e-006
13888	13.675	3.3636	0.	6.7817e-003
13889	13.583	3.4545	0.	6.4892e-003
13890	13.675	3.4545	5.e-002	1.9216e-006
13891	13.675	3.1818	0.	7.0362e-003
13892	13.583	3.2727	0.	6.8338e-003
13893	13.675	3.2727	5.e-002	1.4847e-006
13894	13.675	3.	0.	7.1217e-003
13895	13.583	3.0909	0.	7.0088e-003
13896	13.675	3.0909	5.e-002	2.3034e-006
13897	13.675	2.8182	0.	7.0364e-003
13898	13.583	2.9091	0.	7.0091e-003
13899	13.675	2.9091	5.e-002	3.061e-006
13900	13.675	2.6364	0.	6.7821e-003
13901	13.583	2.7273	0.	6.8343e-003
13902	13.675	2.7273	5.e-002	3.2213e-006
13903	13.675	2.4545	0.	6.3647e-003
13904	13.583	2.5455	0.	6.4896e-003
13905	13.675	2.5455	5.e-002	2.5456e-006
13906	13.675	2.2727	0.	5.7962e-003
13907	13.583	2.3636	0.	5.9847e-003
13908	13.675	2.3636	5.e-002	2.8175e-006
13909	13.675	2.0909	0.	5.0905e-003
13910	13.583	2.1818	0.	5.3379e-003
13911	13.675	2.1818	5.e-002	2.4443e-006
13912	13.675	1.9091	0.	4.2622e-003
13913	13.583	2.	0.	4.5638e-003
13914	13.675	2.	5.e-002	2.411e-006
13915	13.675	1.7273	0.	3.3298e-003
13916	13.583	1.8182	0.	3.6809e-003
13917	13.675	1.8182	5.e-002	2.4509e-006
13918	13.675	1.5455	0.	2.3102e-003
13919	13.583	1.6364	0.	2.7116e-003
13920	13.675	1.6364	5.e-002	2.7614e-006
13921	13.675	1.3636	0.	1.2202e-003
13922	13.583	1.4545	0.	1.671e-003
13923	13.675	1.4545	5.e-002	2.6351e-006
13924	13.675	1.1818	0.	7.0092e-005
13925	13.583	1.2727	0.	5.7889e-004
13926	13.675	1.2727	5.e-002	2.4415e-006
13927	13.675	1.	0.	-1.1064e-003
13928	13.583	1.0909	0.	-5.6245e-004
13929	13.675	1.0909	5.e-002	2.588e-006
13930	13.675	0.81818	0.	-2.3777e-003
13931	13.583	0.90909	0.	-1.6908e-003
13932	13.675	0.90909	5.e-002	2.6789e-006
13933	13.675	0.63636	0.	-3.4141e-003
13934	13.583	0.72727	0.	-2.9997e-003
13935	13.675	0.72727	5.e-002	2.4167e-006
13936	13.675	0.45455	0.	-5.9837e-003
13937	13.583	0.54545	0.	-3.6672e-003
13938	13.675	0.54545	5.e-002	2.0825e-006
13939	13.675	0.27273	0.	-5.0102e-003
13940	13.583	0.36364	0.	-7.8251e-003
13941	13.675	0.36364	5.e-002	2.4364e-006
13942	13.583	0.18182	0.	-9.332e-004
13943	13.675	0.18182	5.e-002	-1.9485e-005
13944	13.675	9.0909e-002	0.	-3.226e-003
13945	13.49	5.7273	0.	-4.7305e-003
13946	13.398	5.8182	0.	-1.0823e-003
13947	13.49	5.8182	5.e-002	5.4584e-005
13948	13.49	5.9091	0.	-3.0696e-003
13949	13.49	5.5455	0.	-5.5957e-003
13950	13.398	5.6364	0.	-7.2115e-003
13951	13.49	5.6364	5.e-002	2.9219e-006
13952	13.49	5.3636	0.	-3.2785e-003
13953	13.398	5.4545	0.	-3.4957e-003
13954	13.49	5.4545	5.e-002	3.8304e-006
13955	13.49	5.1818	0.	-2.3318e-003
13956	13.398	5.2727	0.	-2.8933e-003
13957	13.49	5.2727	5.e-002	1.7881e-006
13958	13.49	5.	0.	-1.1621e-003
13959	13.398	5.0909	0.	-1.705e-003
13960	13.49	5.0909	5.e-002	1.8389e-006
13961	13.49	4.8182	0.	-6.5333e-005
13962	13.398	4.9091	0.	-6.6672e-004
13963	13.49	4.9091	5.e-002	1.0668e-006
13964	13.49	4.6364	0.	1.0221e-003
13965	13.398	4.7273	0.	3.9771e-004
13966	13.49	4.7273	5.e-002	1.7461e-008
13967	13.49	4.4545	0.	2.0693e-003
13968	13.398	4.5455	0.	1.4329e-003
13969	13.49	4.5455	5.e-002	1.275e-006
13970	13.49	4.2727	0.	3.0659e-003
13971	13.398	4.3636	0.	2.4382e-003
13972	13.49	4.3636	5.e-002	-2.3813e-007
13973	13.49	4.0909	0.	3.9929e-003
13974	13.398	4.1818	0.	3.3927e-003
13975	13.49	4.1818	5.e-002	-4.5469e-007
13976	13.49	3.9091	0.	4.829e-003
13977	13.398	4.	0.	4.2784e-003
13978	13.49	4.	5.e-002	-1.741e-007
13979	13.49	3.7273	0.	5.5528e-003
13980	13.398	3.8182	0.	5.0691e-003
13981	13.49	3.8182	5.e-002	4.4433e-007
13982	13.49	3.5455	0.	6.1437e-003
13983	13.398	3.6364	0.	5.7422e-003
13984	13.49	3.6364	5.e-002	1.5515e-006
13985	13.49	3.3636	0.	6.5817e-003
13986	13.398	3.4545	0.	6.2738e-003
13987	13.49	3.4545	5.e-002	1.2849e-006
13988	13.49	3.1818	0.	6.851e-003
13989	13.398	3.2727	0.	6.641e-003
13990	13.49	3.2727	5.e-002	7.8318e-007
13991	13.49	3.	0.	6.9422e-003
13992	13.398	3.0909	0.	6.8287e-003
13993	13.49	3.0909	5.e-002	1.771e-006
13994	13.49	2.8182	0.	6.8515e-003
13995	13.398	2.9091	0.	6.8288e-003
13996	13.49	2.9091	5.e-002	2.282e-006
13997	13.49	2.6364	0.	6.5821e-003
13998	13.398	2.7273	0.	6.6415e-003
13999	13.49	2.7273	5.e-002	2.4349e-006
14000	13.49	2.4545	0.	6.1436e-003
14001	13.398	2.5455	0.	6.2739e-003
14002	13.49	2.5455	5.e-002	2.0492e-006
14003	13.49	2.2727	0.	5.553e-003
14004	13.398	2.3636	0.	5.7421e-003
14005	13.49	2.3636	5.e-002	1.9598e-006
14006	13.49	2.0909	0.	4.8297e-003
14007	13.398	2.1818	0.	5.069e-003
14008	13.49	2.1818	5.e-002	1.6918e-006
14009	13.49	1.9091	0.	3.9931e-003
14010	13.398	2.	0.	4.2785e-003
14011	13.49	2.	5.e-002	1.781e-006
14012	13.49	1.7273	0.	3.0662e-003
14013	13.398	1.8182	0.	3.3932e-003
14014	13.49	1.8182	5.e-002	1.9242e-006
14015	13.49	1.5455	0.	2.0699e-003
14016	13.398	1.6364	0.	2.4385e-003
14017	13.49	1.6364	5.e-002	1.8325e-006
14018	13.49	1.3636	0.	1.0222e-003
14019	13.398	1.4545	0.	1.4336e-003
14020	13.49	1.4545	5.e-002	1.7731e-006
14021	13.49	1.1818	0.	-6.5187e-005
14022	13.398	1.2727	0.	3.9761e-004
14023	13.49	1.2727	5.e-002	1.8302e-006
14024	13.49	1.	0.	-1.1617e-003
14025	13.398	1.0909	0.	-6.6616e-004
14026	13.49	1.0909	5.e-002	1.7512e-006
14027	13.49	0.81818	0.	-2.331e-003
14028	13.398	0.90909	0.	-1.7041e-003
14029	13.49	0.90909	5.e-002	1.4405e-006
14030	13.49	0.63636	0.	-3.2777e-003
14031	13.398	0.72727	0.	-2.892e-003
14032	13.49	0.72727	5.e-002	1.1358e-006
14033	13.49	0.45455	0.	-5.5965e-003
14034	13.398	0.54545	0.	-3.4961e-003
14035	13.49	0.54545	5.e-002	8.1238e-007
14036	13.49	0.27273	0.	-4.7303e-003
14037	13.398	0.36364	0.	-7.2124e-003
14038	13.49	0.36364	5.e-002	1.874e-006
14039	13.398	0.18182	0.	-1.0808e-003
14040	13.49	0.18182	5.e-002	-3.9509e-005
14041	13.49	9.0909e-002	0.	-3.0683e-003
14042	13.306	5.7273	0.	-4.4468e-003
14043	13.213	5.8182	0.	-1.2439e-003
14044	13.306	5.8182	5.e-002	6.877e-005
14045	13.306	5.9091	0.	-2.9108e-003
14046	13.306	5.5455	0.	-5.1948e-003
14047	13.213	5.6364	0.	-6.5777e-003
14048	13.306	5.6364	5.e-002	2.6944e-006
14049	13.306	5.3636	0.	-3.1377e-003
14050	13.213	5.4545	0.	-3.3179e-003
14051	13.306	5.4545	5.e-002	3.6206e-006
14052	13.306	5.1818	0.	-2.2887e-003
14053	13.213	5.2727	0.	-2.7836e-003
14054	13.306	5.2727	5.e-002	1.4546e-006
14055	13.306	5.	0.	-1.2299e-003
14056	13.213	5.0909	0.	-1.7279e-003
14057	13.306	5.0909	5.e-002	1.3805e-006
14058	13.306	4.8182	0.	-2.22e-004
14059	13.213	4.9091	0.	-7.9102e-004
14060	13.306	4.9091	5.e-002	7.0475e-007
14061	13.306	4.6364	0.	7.9294e-004
14062	13.213	4.7273	0.	1.8387e-004
14063	13.306	4.7273	5.e-002	-4.6375e-007
14064	13.306	4.4545	0.	1.7902e-003
14065	13.213	4.5455	0.	1.1516e-003
14066	13.306	4.5455	5.e-002	7.758e-007
14067	13.306	4.2727	0.	2.759e-003
14068	13.213	4.3636	0.	2.1127e-003
14069	13.306	4.3636	5.e-002	-6.611e-007
14070	13.306	4.0909	0.	3.6797e-003
14071	13.213	4.1818	0.	3.0482e-003
14072	13.306	4.1818	5.e-002	-9.3844e-007
14073	13.306	3.9091	0.	4.5293e-003
14074	13.213	4.	0.	3.9383e-003
14075	13.306	4.	5.e-002	-7.0222e-007
14076	13.306	3.7273	0.	5.2798e-003
14077	13.213	3.8182	0.	4.7544e-003
14078	13.306	3.8182	5.e-002	-3.8322e-007
14079	13.306	3.5455	0.	5.9042e-003
14080	13.213	3.6364	0.	5.4657e-003
14081	13.306	3.6364	5.e-002	9.8046e-007
14082	13.306	3.3636	0.	6.374e-003
14083	13.213	3.4545	0.	6.0395e-003
14084	13.306	3.4545	5.e-002	9.7793e-007
14085	13.306	3.1818	0.	6.6658e-003
14086	13.213	3.2727	0.	6.442e-003
14087	13.306	3.2727	5.e-002	4.6743e-007
14088	13.306	3.	0.	6.7646e-003
14089	13.213	3.0909	0.	6.6497e-003
14090	13.306	3.0909	5.e-002	1.0897e-006
14091	13.306	2.8182	0.	6.6659e-003
14092	13.213	2.9091	0.	6.6497e-003
14093	13.306	2.9091	5.e-002	1.7117e-006
14094	13.306	2.6364	0.	6.3742e-003
14095	13.213	2.7273	0.	6.4422e-003
14096	13.306	2.7273	5.e-002	1.7375e-006
14097	13.306	2.4545	0.	5.9042e-003
14098	13.213	2.5455	0.	6.0394e-003
14099	13.306	2.5455	5.e-002	1.1955e-006
14100	13.306	2.2727	0.	5.2795e-003
14101	13.213	2.3636	0.	5.4663e-003
14102	13.306	2.3636	5.e-002	1.3676e-006
14103	13.306	2.0909	0.	4.5287e-003
14104	13.213	2.1818	0.	4.7544e-003
14105	13.306	2.1818	5.e-002	1.123e-006
14106	13.306	1.9091	0.	3.6801e-003
14107	13.213	2.	0.	3.9385e-003
14108	13.306	2.	5.e-002	9.6439e-007
14109	13.306	1.7273	0.	2.7595e-003
14110	13.213	1.8182	0.	3.0487e-003
14111	13.306	1.8182	5.e-002	1.3193e-006
14112	13.306	1.5455	0.	1.7906e-003
14113	13.213	1.6364	0.	2.1129e-003
14114	13.306	1.6364	5.e-002	1.2788e-006
14115	13.306	1.3636	0.	7.9337e-004
14116	13.213	1.4545	0.	1.1524e-003
14117	13.306	1.4545	5.e-002	1.2244e-006
14118	13.306	1.1818	0.	-2.2168e-004
14119	13.213	1.2727	0.	1.8412e-004
14120	13.306	1.2727	5.e-002	1.1077e-006
14121	13.306	1.	0.	-1.2288e-003
14122	13.213	1.0909	0.	-7.9052e-004
14123	13.306	1.0909	5.e-002	1.2786e-006
14124	13.306	0.81818	0.	-2.2872e-003
14125	13.213	0.90909	0.	-1.7265e-003
14126	13.306	0.90909	5.e-002	7.3353e-007
14127	13.306	0.63636	0.	-3.1376e-003
14128	13.213	0.72727	0.	-2.7828e-003
14129	13.306	0.72727	5.e-002	4.3235e-007
14130	13.306	0.45455	0.	-5.1952e-003
14131	13.213	0.54545	0.	-3.3182e-003
14132	13.306	0.54545	5.e-002	-5.791e-007
14133	13.306	0.27273	0.	-4.4462e-003
14134	13.213	0.36364	0.	-6.5773e-003
14135	13.306	0.36364	5.e-002	5.2218e-007
14136	13.213	0.18182	0.	-1.2435e-003
14137	13.306	0.18182	5.e-002	-3.1514e-005
14138	13.306	9.0909e-002	0.	-2.9102e-003
14139	13.121	5.7273	0.	-4.1567e-003
14140	13.028	5.8182	0.	-1.422e-003
14141	13.121	5.8182	5.e-002	6.7725e-005
14142	13.121	5.9091	0.	-2.7503e-003
14143	13.121	5.5455	0.	-4.7783e-003
14144	13.028	5.6364	0.	-5.9182e-003
14145	13.121	5.6364	5.e-002	3.0924e-006
14146	13.121	5.3636	0.	-2.9926e-003
14147	13.028	5.4545	0.	-3.133e-003
14148	13.121	5.4545	5.e-002	3.8539e-006
14149	13.121	5.1818	0.	-2.2485e-003
14150	13.028	5.2727	0.	-2.6733e-003
14151	13.121	5.2727	5.e-002	1.7854e-006
14152	13.121	5.	0.	-1.3148e-003
14153	13.028	5.0909	0.	-1.7637e-003
14154	13.121	5.0909	5.e-002	1.5693e-006
14155	13.121	4.8182	0.	-4.1123e-004
14156	13.028	4.9091	0.	-9.4527e-004
14157	13.121	4.9091	5.e-002	8.1655e-007
14158	13.121	4.6364	0.	5.1669e-004
14159	13.028	4.7273	0.	-7.8965e-005
14160	13.121	4.7273	5.e-002	-2.4598e-007
14161	13.121	4.4545	0.	1.4498e-003
14162	13.028	4.5455	0.	8.0211e-004
14163	13.121	4.5455	5.e-002	8.7501e-007
14164	13.121	4.2727	0.	2.3815e-003
14165	13.028	4.3636	0.	1.7013e-003
14166	13.121	4.3636	5.e-002	-3.4845e-007
14167	13.121	4.0909	0.	3.2935e-003
14168	13.028	4.1818	0.	2.6079e-003
14169	13.121	4.1818	5.e-002	-6.6245e-007
14170	13.121	3.9091	0.	4.1609e-003
14171	13.028	4.	0.	3.5017e-003
14172	13.121	4.	5.e-002	-5.6718e-007
14173	13.121	3.7273	0.	4.9514e-003
14174	13.028	3.8182	0.	4.3534e-003
14175	13.121	3.8182	5.e-002	-1.8619e-007
14176	13.121	3.5455	0.	5.6275e-003
14177	13.028	3.6364	0.	5.1235e-003
14178	13.121	3.6364	5.e-002	1.0062e-006
14179	13.121	3.3636	0.	6.1483e-003
14180	13.028	3.4545	0.	5.7653e-003
14181	13.121	3.4545	5.e-002	9.6714e-007
14182	13.121	3.1818	0.	6.477e-003
14183	13.028	3.2727	0.	6.2276e-003
14184	13.121	3.2727	5.e-002	4.1906e-007
14185	13.121	3.	0.	6.5896e-003
14186	13.028	3.0909	0.	6.4702e-003
14187	13.121	3.0909	5.e-002	1.1531e-006
14188	13.121	2.8182	0.	6.477e-003
14189	13.028	2.9091	0.	6.4705e-003
14190	13.121	2.9091	5.e-002	1.7675e-006
14191	13.121	2.6364	0.	6.1482e-003
14192	13.028	2.7273	0.	6.2276e-003
14193	13.121	2.7273	5.e-002	1.6966e-006
14194	13.121	2.4545	0.	5.628e-003
14195	13.028	2.5455	0.	5.7651e-003
14196	13.121	2.5455	5.e-002	1.3858e-006
14197	13.121	2.2727	0.	4.9524e-003
14198	13.028	2.3636	0.	5.1244e-003
14199	13.121	2.3636	5.e-002	1.4033e-006
14200	13.121	2.0909	0.	4.1615e-003
14201	13.028	2.1818	0.	4.3538e-003
14202	13.121	2.1818	5.e-002	1.138e-006
14203	13.121	1.9091	0.	3.2938e-003
14204	13.028	2.	0.	3.5023e-003
14205	13.121	2.	5.e-002	8.9794e-007
14206	13.121	1.7273	0.	2.3817e-003
14207	13.028	1.8182	0.	2.6079e-003
14208	13.121	1.8182	5.e-002	1.297e-006
14209	13.121	1.5455	0.	1.4504e-003
14210	13.028	1.6364	0.	1.7017e-003
14211	13.121	1.6364	5.e-002	1.2286e-006
14212	13.121	1.3636	0.	5.1725e-004
14213	13.028	1.4545	0.	8.0243e-004
14214	13.121	1.4545	5.e-002	1.2551e-006
14215	13.121	1.1818	0.	-4.1081e-004
14216	13.028	1.2727	0.	-7.8975e-005
14217	13.121	1.2727	5.e-002	1.1735e-006
14218	13.121	1.	0.	-1.314e-003
14219	13.028	1.0909	0.	-9.446e-004
14220	13.121	1.0909	5.e-002	1.4167e-006
14221	13.121	0.81818	0.	-2.2477e-003
14222	13.028	0.90909	0.	-1.7627e-003
14223	13.121	0.90909	5.e-002	1.1948e-006
14224	13.121	0.63636	0.	-2.9922e-003
14225	13.028	0.72727	0.	-2.6724e-003
14226	13.121	0.72727	5.e-002	7.691e-007
14227	13.121	0.45455	0.	-4.7778e-003
14228	13.028	0.54545	0.	-3.1327e-003
14229	13.121	0.54545	5.e-002	8.3479e-007
14230	13.121	0.27273	0.	-4.1563e-003
14231	13.028	0.36364	0.	-5.9177e-003
14232	13.121	0.36364	5.e-002	4.9114e-007
14233	13.028	0.18182	0.	-1.4218e-003
14234	13.121	0.18182	5.e-002	-3.6137e-005
14235	13.121	9.0909e-002	0.	-2.7507e-003
14236	12.936	5.7273	0.	-3.8602e-003
14237	12.844	5.8182	0.	-1.6184e-003
14238	12.936	5.8182	5.e-002	7.2448e-005
14239	12.936	5.9091	0.	-2.5884e-003
14240	12.936	5.5455	0.	-4.3432e-003
14241	12.844	5.6364	0.	-5.2293e-003
14242	12.936	5.6364	5.e-002	2.9062e-006
14243	12.936	5.3636	0.	-2.8431e-003
14244	12.844	5.4545	0.	-2.9394e-003
14245	12.936	5.4545	5.e-002	3.3664e-006
14246	12.936	5.1818	0.	-2.2169e-003
14247	12.844	5.2727	0.	-2.5639e-003
14248	12.936	5.2727	5.e-002	1.0158e-006
14249	12.936	5.	0.	-1.4254e-003
14250	12.844	5.0909	0.	-1.8191e-003
14251	12.936	5.0909	5.e-002	1.0198e-006
14252	12.936	4.8182	0.	-6.4813e-004
14253	12.844	4.9091	0.	-1.1437e-003
14254	12.936	4.9091	5.e-002	2.0541e-007
14255	12.936	4.6364	0.	1.669e-004
14256	12.844	4.7273	0.	-4.1752e-004
14257	12.936	4.7273	5.e-002	-8.5659e-007
14258	12.936	4.4545	0.	1.0103e-003
14259	12.844	4.5455	0.	3.4106e-004
14260	12.936	4.5455	5.e-002	1.7488e-007
14261	12.936	4.2727	0.	1.8832e-003
14262	12.844	4.3636	0.	1.1435e-003
14263	12.936	4.3636	5.e-002	-1.1875e-006
14264	12.936	4.0909	0.	2.775e-003
14265	12.844	4.1818	0.	1.9913e-003
14266	12.936	4.1818	5.e-002	-1.4839e-006
14267	12.936	3.9091	0.	3.6635e-003
14268	12.844	4.	0.	2.8753e-003
14269	12.936	4.	5.e-002	-1.2333e-006
14270	12.936	3.7273	0.	4.5127e-003
14271	12.844	3.8182	0.	3.7708e-003
14272	12.936	3.8182	5.e-002	-1.0277e-006
14273	12.936	3.5455	0.	5.2726e-003
14274	12.844	3.6364	0.	4.6331e-003
14275	12.936	3.6364	5.e-002	3.4918e-007
14276	12.936	3.3636	0.	5.8815e-003
14277	12.844	3.4545	0.	5.3957e-003
14278	12.936	3.4545	5.e-002	1.7388e-007
14279	12.936	3.1818	0.	6.2774e-003
14280	12.844	3.2727	0.	5.9731e-003
14281	12.936	3.2727	5.e-002	-4.0358e-007
14282	12.936	3.	0.	6.4152e-003
14283	12.844	3.0909	0.	6.2864e-003
14284	12.936	3.0909	5.e-002	9.8948e-008
14285	12.936	2.8182	0.	6.2777e-003
14286	12.844	2.9091	0.	6.287e-003
14287	12.936	2.9091	5.e-002	9.143e-007
14288	12.936	2.6364	0.	5.8814e-003
14289	12.844	2.7273	0.	5.9732e-003
14290	12.936	2.7273	5.e-002	6.6436e-007
14291	12.936	2.4545	0.	5.2728e-003
14292	12.844	2.5455	0.	5.3956e-003
14293	12.936	2.5455	5.e-002	4.7403e-007
14294	12.936	2.2727	0.	4.5131e-003
14295	12.844	2.3636	0.	4.6334e-003
14296	12.936	2.3636	5.e-002	5.7477e-007
14297	12.936	2.0909	0.	3.6638e-003
14298	12.844	2.1818	0.	3.7707e-003
14299	12.936	2.1818	5.e-002	1.6722e-007
14300	12.936	1.9091	0.	2.7754e-003
14301	12.844	2.	0.	2.8761e-003
14302	12.936	2.	5.e-002	6.0491e-008
14303	12.936	1.7273	0.	1.8834e-003
14304	12.844	1.8182	0.	1.9913e-003
14305	12.936	1.8182	5.e-002	4.4841e-007
14306	12.936	1.5455	0.	1.0104e-003
14307	12.844	1.6364	0.	1.144e-003
14308	12.936	1.6364	5.e-002	3.7082e-007
14309	12.936	1.3636	0.	1.6664e-004
14310	12.844	1.4545	0.	3.4104e-004
14311	12.936	1.4545	5.e-002	2.8529e-007
14312	12.936	1.1818	0.	-6.479e-004
14313	12.844	1.2727	0.	-4.1728e-004
14314	12.936	1.2727	5.e-002	1.0845e-007
14315	12.936	1.	0.	-1.4245e-003
14316	12.844	1.0909	0.	-1.1428e-003
14317	12.936	1.0909	5.e-002	-5.1741e-008
14318	12.936	0.81818	0.	-2.2158e-003
14319	12.844	0.90909	0.	-1.818e-003
14320	12.936	0.90909	5.e-002	8.3055e-007
14321	12.936	0.63636	0.	-2.8424e-003
14322	12.844	0.72727	0.	-2.5628e-003
14323	12.936	0.72727	5.e-002	1.7106e-006
14324	12.936	0.45455	0.	-4.343e-003
14325	12.844	0.54545	0.	-2.9395e-003
14326	12.936	0.54545	5.e-002	5.0141e-007
14327	12.936	0.27273	0.	-3.8598e-003
14328	12.844	0.36364	0.	-5.229e-003
14329	12.936	0.36364	5.e-002	3.6678e-007
14330	12.844	0.18182	0.	-1.618e-003
14331	12.936	0.18182	5.e-002	-5.4903e-005
14332	12.936	9.0909e-002	0.	-2.5884e-003
14333	12.751	5.7273	0.	-3.5551e-003
14334	12.659	5.8182	0.	-1.836e-003
14335	12.751	5.8182	5.e-002	7.969e-005
14336	12.751	5.9091	0.	-2.4263e-003
14337	12.751	5.5455	0.	-3.8869e-003
14338	12.659	5.6364	0.	-4.5057e-003
14339	12.751	5.6364	5.e-002	2.3978e-006
14340	12.751	5.3636	0.	-2.6889e-003
14341	12.659	5.4545	0.	-2.737e-003
14342	12.751	5.4545	5.e-002	3.0765e-006
14343	12.751	5.1818	0.	-2.1961e-003
14344	12.659	5.2727	0.	-2.4569e-003
14345	12.751	5.2727	5.e-002	1.1727e-006
14346	12.751	5.	0.	-1.5736e-003
14347	12.659	5.0909	0.	-1.9032e-003
14348	12.751	5.0909	5.e-002	7.7759e-007
14349	12.751	4.8182	0.	-9.5891e-004
14350	12.659	4.9091	0.	-1.4097e-003
14351	12.751	4.9091	5.e-002	1.8289e-007
14352	12.751	4.6364	0.	-3.0227e-004
14353	12.659	4.7273	0.	-8.7811e-004
14354	12.751	4.7273	5.e-002	-9.7103e-007
14355	12.751	4.4545	0.	3.9948e-004
14356	12.659	4.5455	0.	-3.1311e-004
14357	12.751	4.5455	5.e-002	3.0872e-008
14358	12.751	4.2727	0.	1.1606e-003
14359	12.659	4.3636	0.	3.0661e-004
14360	12.751	4.3636	5.e-002	-1.3074e-006
14361	12.751	4.0909	0.	1.9884e-003
14362	12.659	4.1818	0.	1.004e-003
14363	12.751	4.1818	5.e-002	-1.4507e-006
14364	12.751	3.9091	0.	2.8784e-003
14365	12.659	4.	0.	1.7984e-003
14366	12.751	4.	5.e-002	-1.4102e-006
14367	12.751	3.7273	0.	3.8047e-003
14368	12.659	3.8182	0.	2.6996e-003
14369	12.751	3.8182	5.e-002	-9.0431e-007
14370	12.751	3.5455	0.	4.7101e-003
14371	12.659	3.6364	0.	3.6907e-003
14372	12.751	3.6364	5.e-002	9.6064e-008
14373	12.751	3.3636	0.	5.4977e-003
14374	12.659	3.4545	0.	4.6983e-003
14375	12.751	3.4545	5.e-002	-1.118e-007
14376	12.751	3.1818	0.	6.0442e-003
14377	12.659	3.2727	0.	5.5667e-003
14378	12.751	3.2727	5.e-002	-7.5669e-007
14379	12.751	3.	0.	6.2415e-003
14380	12.659	3.0909	0.	6.0842e-003
14381	12.751	3.0909	5.e-002	-1.5775e-007
14382	12.751	2.8182	0.	6.0447e-003
14383	12.659	2.9091	0.	6.0845e-003
14384	12.751	2.9091	5.e-002	6.085e-007
14385	12.751	2.6364	0.	5.4979e-003
14386	12.659	2.7273	0.	5.567e-003
14387	12.751	2.7273	5.e-002	4.6965e-007
14388	12.751	2.4545	0.	4.7102e-003
14389	12.659	2.5455	0.	4.6986e-003
14390	12.751	2.5455	5.e-002	2.6809e-007
14391	12.751	2.2727	0.	3.8045e-003
14392	12.659	2.3636	0.	3.6906e-003
14393	12.751	2.3636	5.e-002	3.0599e-007
14394	12.751	2.0909	0.	2.8787e-003
14395	12.659	2.1818	0.	2.6997e-003
14396	12.751	2.1818	5.e-002	1.6841e-008
14397	12.751	1.9091	0.	1.9888e-003
14398	12.659	2.	0.	1.7989e-003
14399	12.751	2.	5.e-002	-2.835e-008
14400	12.751	1.7273	0.	1.1609e-003
14401	12.659	1.8182	0.	1.0041e-003
14402	12.751	1.8182	5.e-002	1.285e-007
14403	12.751	1.5455	0.	3.9992e-004
14404	12.659	1.6364	0.	3.0691e-004
14405	12.751	1.6364	5.e-002	1.5254e-007
14406	12.751	1.3636	0.	-3.018e-004
14407	12.659	1.4545	0.	-3.1282e-004
14408	12.751	1.4545	5.e-002	1.0857e-007
14409	12.751	1.1818	0.	-9.58e-004
14410	12.659	1.2727	0.	-8.7732e-004
14411	12.751	1.2727	5.e-002	-2.2686e-009
14412	12.751	1.	0.	-1.5726e-003
14413	12.659	1.0909	0.	-1.409e-003
14414	12.751	1.0909	5.e-002	-2.627e-007
14415	12.751	0.81818	0.	-2.195e-003
14416	12.659	0.90909	0.	-1.9022e-003
14417	12.751	0.90909	5.e-002	3.1172e-007
14418	12.751	0.63636	0.	-2.6886e-003
14419	12.659	0.72727	0.	-2.4558e-003
14420	12.751	0.72727	5.e-002	1.153e-006
14421	12.751	0.45455	0.	-3.887e-003
14422	12.659	0.54545	0.	-2.7373e-003
14423	12.751	0.54545	5.e-002	1.2376e-006
14424	12.751	0.27273	0.	-3.5547e-003
14425	12.659	0.36364	0.	-4.5054e-003
14426	12.751	0.36364	5.e-002	1.7622e-006
14427	12.659	0.18182	0.	-1.8354e-003
14428	12.751	0.18182	5.e-002	-2.0244e-005
14429	12.751	9.0909e-002	0.	-2.4248e-003
14430	12.566	5.7273	0.	-3.2408e-003
14431	12.474	5.8182	0.	-2.0795e-003
14432	12.566	5.8182	5.e-002	9.7377e-005
14433	12.566	5.9091	0.	-2.2627e-003
14434	12.566	5.5455	0.	-3.406e-003
14435	12.474	5.6364	0.	-3.7435e-003
14436	12.566	5.6364	5.e-002	3.0386e-006
14437	12.566	5.3636	0.	-2.5308e-003
14438	12.474	5.4545	0.	-2.5244e-003
14439	12.566	5.4545	5.e-002	3.7829e-006
14440	12.566	5.1818	0.	-2.1933e-003
14441	12.474	5.2727	0.	-2.3567e-003
14442	12.566	5.2727	5.e-002	1.9903e-006
14443	12.566	5.	0.	-1.7792e-003
14444	12.474	5.0909	0.	-2.032e-003
14445	12.566	5.0909	5.e-002	1.7441e-006
14446	12.566	4.8182	0.	-1.3875e-003
14447	12.474	4.9091	0.	-1.7839e-003
14448	12.566	4.9091	5.e-002	8.5562e-007
14449	12.566	4.6364	0.	-9.7775e-004
14450	12.474	4.7273	0.	-1.5512e-003
14451	12.566	4.7273	5.e-002	-1.3392e-007
14452	12.566	4.4545	0.	-5.4113e-004
14453	12.474	4.5455	0.	-1.3457e-003
14454	12.566	4.5455	5.e-002	1.024e-006
14455	12.566	4.2727	0.	-5.1844e-005
14456	12.474	4.3636	0.	-1.1621e-003
14457	12.566	4.3636	5.e-002	-3.9758e-007
14458	12.566	4.0909	0.	5.2394e-004
14459	12.474	4.1818	0.	-9.9428e-004
14460	12.566	4.1818	5.e-002	-6.4445e-007
14461	12.566	3.9091	0.	1.2293e-003
14462	12.474	4.	0.	-8.3594e-004
14463	12.566	4.	5.e-002	-5.808e-007
14464	12.566	3.7273	0.	2.1161e-003
14465	12.474	3.8182	0.	-6.7545e-004
14466	12.566	3.8182	5.e-002	-2.8071e-007
14467	12.566	3.5455	0.	3.2184e-003
14468	12.474	3.6364	0.	-4.7903e-004
14469	12.566	3.6364	5.e-002	9.2525e-007
14470	12.566	3.3636	0.	4.4744e-003
14471	12.474	3.4545	0.	-1.5545e-004
14472	12.566	3.4545	5.e-002	7.1303e-007
14473	12.566	3.1818	0.	5.5956e-003
14474	12.474	3.2727	0.	6.6219e-004
14475	12.566	3.2727	5.e-002	8.3152e-009
14476	12.566	3.	0.	6.0685e-003
14477	12.474	3.0909	0.	3.8086e-003
14478	12.566	3.0909	5.e-002	7.4789e-007
14479	12.566	2.8182	0.	5.5958e-003
14480	12.474	2.9091	0.	3.8081e-003
14481	12.566	2.9091	5.e-002	1.4426e-006
14482	12.566	2.6364	0.	4.4748e-003
14483	12.474	2.7273	0.	6.6195e-004
14484	12.566	2.7273	5.e-002	1.3032e-006
14485	12.566	2.4545	0.	3.2186e-003
14486	12.474	2.5455	0.	-1.5487e-004
14487	12.566	2.5455	5.e-002	8.9659e-007
14488	12.566	2.2727	0.	2.1164e-003
14489	12.474	2.3636	0.	-4.7941e-004
14490	12.566	2.3636	5.e-002	1.1024e-006
14491	12.566	2.0909	0.	1.2296e-003
14492	12.474	2.1818	0.	-6.7497e-004
14493	12.566	2.1818	5.e-002	8.3368e-007
14494	12.566	1.9091	0.	5.2404e-004
14495	12.474	2.	0.	-8.3625e-004
14496	12.566	2.	5.e-002	7.7528e-007
14497	12.566	1.7273	0.	-5.1826e-005
14498	12.474	1.8182	0.	-9.9394e-004
14499	12.566	1.8182	5.e-002	1.0468e-006
14500	12.566	1.5455	0.	-5.4098e-004
14501	12.474	1.6364	0.	-1.1619e-003
14502	12.566	1.6364	5.e-002	9.0448e-007
14503	12.566	1.3636	0.	-9.7715e-004
14504	12.474	1.4545	0.	-1.3453e-003
14505	12.566	1.4545	5.e-002	1.1809e-006
14506	12.566	1.1818	0.	-1.3868e-003
14507	12.474	1.2727	0.	-1.5506e-003
14508	12.566	1.2727	5.e-002	1.0998e-006
14509	12.566	1.	0.	-1.7784e-003
14510	12.474	1.0909	0.	-1.7832e-003
14511	12.566	1.0909	5.e-002	1.4355e-006
14512	12.566	0.81818	0.	-2.1923e-003
14513	12.474	0.90909	0.	-2.0309e-003
14514	12.566	0.90909	5.e-002	1.1112e-006
14515	12.566	0.63636	0.	-2.5303e-003
14516	12.474	0.72727	0.	-2.3552e-003
14517	12.566	0.72727	5.e-002	9.7903e-007
14518	12.566	0.45455	0.	-3.4061e-003
14519	12.474	0.54545	0.	-2.5245e-003
14520	12.566	0.54545	5.e-002	1.0311e-006
14521	12.566	0.27273	0.	-3.2403e-003
14522	12.474	0.36364	0.	-3.7431e-003
14523	12.566	0.36364	5.e-002	2.3303e-006
14524	12.474	0.18182	0.	-2.0783e-003
14525	12.566	0.18182	5.e-002	-4.7711e-005
14526	12.566	9.0909e-002	0.	-2.2622e-003
14527	12.382	5.7273	0.	-2.9185e-003
14528	12.289	5.8182	0.	-2.3538e-003
14529	12.382	5.8182	5.e-002	1.1317e-004
14530	12.382	5.9091	0.	-2.1012e-003
14531	12.382	5.5455	0.	-2.898e-003
14532	12.289	5.6364	0.	-2.9381e-003
14533	12.382	5.6364	5.e-002	2.5646e-006
14534	12.382	5.3636	0.	-2.3698e-003
14535	12.289	5.4545	0.	-2.3008e-003
14536	12.382	5.4545	5.e-002	3.0301e-006
14537	12.382	5.1818	0.	-2.2198e-003
14538	12.289	5.2727	0.	-2.2679e-003
14539	12.382	5.2727	5.e-002	1.1011e-006
14540	12.382	5.	0.	-2.0766e-003
14541	12.289	5.0909	0.	-2.2308e-003
14542	12.382	5.0909	5.e-002	9.9304e-007
14543	12.382	4.8182	0.	-2.0206e-003
14544	12.289	4.9091	0.	-2.3437e-003
14545	12.382	4.9091	5.e-002	3.5181e-007
14546	12.382	4.6364	0.	-2.0603e-003
14547	12.289	4.7273	0.	-2.6409e-003
14548	12.382	4.7273	5.e-002	-7.4015e-007
14549	12.382	4.4545	0.	-2.249e-003
14550	12.289	4.5455	0.	-3.2724e-003
14551	12.382	4.5455	5.e-002	2.5477e-007
14552	12.382	4.2727	0.	-2.6941e-003
14553	12.289	4.3636	0.	-4.6082e-003
14554	12.382	4.3636	5.e-002	-1.0146e-006
14555	12.382	4.0909	0.	-3.6836e-003
14556	12.289	4.1818	0.	-7.9888e-003
14557	12.382	4.1818	5.e-002	-1.3097e-006
14558	12.382	3.9091	0.	-6.2711e-003
14559	12.289	4.	0.	-2.3974e-002
14560	12.382	4.	5.e-002	-1.1645e-006
14561	12.382	3.7273	0.	-1.8766e-002
14562	12.289	3.8182	0.	-0.29922
14563	12.382	3.8182	5.e-002	-8.7024e-007
14564	12.382	3.5455	0.	-0.2036
14565	12.289	3.6364	0.	-0.75415
14566	12.382	3.6364	5.e-002	3.1365e-007
14567	12.382	3.3636	0.	-0.4739
14568	12.289	3.4545	0.	-1.1066
14569	12.382	3.4545	5.e-002	-2.5303e-008
14570	12.382	3.1818	0.	-0.64151
14571	12.289	3.2727	0.	-1.3437
14572	12.382	3.2727	5.e-002	-4.2563e-007
14573	12.382	3.	0.	-0.69774
14574	12.289	3.0909	0.	-1.4628
14575	12.382	3.0909	5.e-002	8.1764e-008
14576	12.382	2.8182	0.	-0.64151
14577	12.289	2.9091	0.	-1.4628
14578	12.382	2.9091	5.e-002	6.9313e-007
14579	12.382	2.6364	0.	-0.4739
14580	12.289	2.7273	0.	-1.3437
14581	12.382	2.7273	5.e-002	4.4078e-007
14582	12.382	2.4545	0.	-0.2036
14583	12.289	2.5455	0.	-1.1066
14584	12.382	2.5455	5.e-002	2.7904e-007
14585	12.382	2.2727	0.	-1.8767e-002
14586	12.289	2.3636	0.	-0.75415
14587	12.382	2.3636	5.e-002	2.2389e-007
14588	12.382	2.0909	0.	-6.2714e-003
14589	12.289	2.1818	0.	-0.29922
14590	12.382	2.1818	5.e-002	1.5887e-007
14591	12.382	1.9091	0.	-3.6837e-003
14592	12.289	2.	0.	-2.3974e-002
14593	12.382	2.	5.e-002	-5.7428e-008
14594	12.382	1.7273	0.	-2.6935e-003
14595	12.289	1.8182	0.	-7.9888e-003
14596	12.382	1.8182	5.e-002	3.3251e-007
14597	12.382	1.5455	0.	-2.2485e-003
14598	12.289	1.6364	0.	-4.6076e-003
14599	12.382	1.6364	5.e-002	3.3241e-007
14600	12.382	1.3636	0.	-2.0598e-003
14601	12.289	1.4545	0.	-3.2717e-003
14602	12.382	1.4545	5.e-002	4.0103e-007
14603	12.382	1.1818	0.	-2.0199e-003
14604	12.289	1.2727	0.	-2.6406e-003
14605	12.382	1.2727	5.e-002	5.8872e-007
14606	12.382	1.	0.	-2.0756e-003
14607	12.289	1.0909	0.	-2.3431e-003
14608	12.382	1.0909	5.e-002	1.0508e-006
14609	12.382	0.81818	0.	-2.2184e-003
14610	12.289	0.90909	0.	-2.2296e-003
14611	12.382	0.90909	5.e-002	1.0633e-006
14612	12.382	0.63636	0.	-2.3689e-003
14613	12.289	0.72727	0.	-2.2665e-003
14614	12.382	0.72727	5.e-002	6.2743e-007
14615	12.382	0.45455	0.	-2.8977e-003
14616	12.289	0.54545	0.	-2.3005e-003
14617	12.382	0.54545	5.e-002	4.3034e-007
14618	12.382	0.27273	0.	-2.9174e-003
14619	12.289	0.36364	0.	-2.9377e-003
14620	12.382	0.36364	5.e-002	1.8772e-006
14621	12.289	0.18182	0.	-2.3527e-003
14622	12.382	0.18182	5.e-002	-8.255e-005
14623	12.382	9.0909e-002	0.	-2.1004e-003
14624	12.197	5.7273	0.	-2.5871e-003
14625	12.104	5.8182	0.	-2.6647e-003
14626	12.197	5.8182	5.e-002	2.3794e-006
14627	12.197	5.9091	0.	-1.9426e-003
14628	12.197	5.5455	0.	-2.359e-003
14629	12.104	5.6364	0.	-2.0842e-003
14630	12.197	5.6364	5.e-002	2.6608e-006
14631	12.197	5.3636	0.	-2.2068e-003
14632	12.104	5.4545	0.	-2.0653e-003
14633	12.197	5.4545	5.e-002	3.3612e-006
14634	12.197	5.1818	0.	-2.2905e-003
14635	12.104	5.2727	0.	-2.2001e-003
14636	12.197	5.2727	5.e-002	1.5615e-006
14637	12.197	5.	0.	-2.5278e-003
14638	12.104	5.0909	0.	-2.5467e-003
14639	12.197	5.0909	5.e-002	1.3426e-006
14640	12.197	4.8182	0.	-3.0494e-003
14641	12.104	4.9091	0.	-3.2565e-003
14642	12.197	4.9091	5.e-002	7.1178e-007
14643	12.197	4.6364	0.	-4.1063e-003
14644	12.104	4.7273	0.	-4.7163e-003
14645	12.197	4.7273	5.e-002	-3.414e-007
14646	12.197	4.4545	0.	-6.4798e-003
14647	12.104	4.5455	0.	-8.281e-003
14648	12.197	4.5455	5.e-002	6.2361e-007
14649	12.197	4.2727	0.	-1.4043e-002
14650	12.104	4.3636	0.	-2.3686e-002
14651	12.197	4.3636	5.e-002	-6.1923e-007
14652	12.197	4.0909	0.	-0.11776
14653	12.104	4.1818	0.	-0.37882
14654	12.197	4.1818	5.e-002	-9.0525e-007
14655	12.197	3.9091	0.	-0.70923
14656	12.104	4.	0.	-1.1191
14657	12.197	4.	5.e-002	-7.9143e-007
14658	12.197	3.7273	0.	-1.2562
14659	12.104	3.8182	0.	-1.7587
14660	12.197	3.8182	5.e-002	-4.589e-007
14661	12.197	3.5455	0.	-1.6882
14662	12.104	3.6364	0.	-2.277
14663	12.197	3.6364	5.e-002	4.957e-007
14664	12.197	3.3636	0.	-1.9993
14665	12.104	3.4545	0.	-2.6691
14666	12.197	3.4545	5.e-002	3.8164e-007
14667	12.197	3.1818	0.	-2.1868
14668	12.104	3.2727	0.	-2.9319
14669	12.197	3.2727	5.e-002	-1.8088e-007
14670	12.197	3.	0.	-2.2494
14671	12.104	3.0909	0.	-3.0637
14672	12.197	3.0909	5.e-002	3.2482e-007
14673	12.197	2.8182	0.	-2.1868
14674	12.104	2.9091	0.	-3.0637
14675	12.197	2.9091	5.e-002	9.2322e-007
14676	12.197	2.6364	0.	-1.9993
14677	12.104	2.7273	0.	-2.9319
14678	12.197	2.7273	5.e-002	6.9917e-007
14679	12.197	2.4545	0.	-1.6882
14680	12.104	2.5455	0.	-2.6691
14681	12.197	2.5455	5.e-002	5.598e-007
14682	12.197	2.2727	0.	-1.2562
14683	12.104	2.3636	0.	-2.277
14684	12.197	2.3636	5.e-002	5.5881e-007
14685	12.197	2.0909	0.	-0.70923
14686	12.104	2.1818	0.	-1.7587
14687	12.197	2.1818	5.e-002	3.6456e-007
14688	12.197	1.9091	0.	-0.11776
14689	12.104	2.	0.	-1.1191
14690	12.197	2.	5.e-002	3.5526e-007
14691	12.197	1.7273	0.	-1.4043e-002
14692	12.104	1.8182	0.	-0.37883
14693	12.197	1.8182	5.e-002	7.126e-007
14694	12.197	1.5455	0.	-6.479e-003
14695	12.104	1.6364	0.	-2.3686e-002
14696	12.197	1.6364	5.e-002	6.5825e-007
14697	12.197	1.3636	0.	-4.1057e-003
14698	12.104	1.4545	0.	-8.2802e-003
14699	12.197	1.4545	5.e-002	6.7657e-007
14700	12.197	1.1818	0.	-3.0492e-003
14701	12.104	1.2727	0.	-4.7163e-003
14702	12.197	1.2727	5.e-002	7.5893e-007
14703	12.197	1.	0.	-2.527e-003
14704	12.104	1.0909	0.	-3.2559e-003
14705	12.197	1.0909	5.e-002	8.8503e-007
14706	12.197	0.81818	0.	-2.2894e-003
14707	12.104	0.90909	0.	-2.5452e-003
14708	12.197	0.90909	5.e-002	1.4097e-006
14709	12.197	0.63636	0.	-2.2061e-003
14710	12.104	0.72727	0.	-2.1988e-003
14711	12.197	0.72727	5.e-002	2.1937e-006
14712	12.197	0.45455	0.	-2.3586e-003
14713	12.104	0.54545	0.	-2.0653e-003
14714	12.197	0.54545	5.e-002	3.2127e-006
14715	12.197	0.27273	0.	-2.5866e-003
14716	12.104	0.36364	0.	-2.0832e-003
14717	12.197	0.36364	5.e-002	2.6496e-006
14718	12.104	0.18182	0.	-2.6638e-003
14719	12.197	0.18182	5.e-002	2.0428e-006
14720	12.197	9.0909e-002	0.	-1.9418e-003
14721	12.012	5.7273	0.	-2.2484e-003
14722	11.92	5.8182	0.	-3.0202e-003
14723	12.012	5.8182	5.e-002	1.1719e-005
14724	12.012	5.9091	0.	-1.79e-003
14725	12.012	5.5455	0.	-1.7852e-003
14726	11.92	5.6364	0.	-1.1766e-003
14727	12.012	5.6364	5.e-002	2.7396e-006
14728	12.012	5.3636	0.	-2.046e-003
14729	11.92	5.4545	0.	-1.8178e-003
14730	12.012	5.4545	5.e-002	3.5057e-006
14731	12.012	5.1818	0.	-2.4382e-003
14732	11.92	5.2727	0.	-2.1706e-003
14733	12.012	5.2727	5.e-002	1.6835e-006
14734	12.012	5.	0.	-3.2658e-003
14735	11.92	5.0909	0.	-3.0756e-003
14736	12.012	5.0909	5.e-002	1.5293e-006
14737	12.012	4.8182	0.	-4.9932e-003
14738	11.92	4.9091	0.	-4.9628e-003
14739	12.012	4.9091	5.e-002	8.8947e-007
14740	12.012	4.6364	0.	-9.5056e-003
14741	11.92	4.7273	0.	-1.0193e-002
14742	12.012	4.7273	5.e-002	-5.7171e-008
14743	12.012	4.4545	0.	-3.5479e-002
14744	11.92	4.5455	0.	-5.0629e-002
14745	12.012	4.5455	5.e-002	8.0623e-007
14746	12.012	4.2727	0.	-0.61193
14747	11.92	4.3636	0.	-0.82895
14748	12.012	4.3636	5.e-002	-4.4606e-007
14749	12.012	4.0909	0.	-1.4583
14750	11.92	4.1818	0.	-1.7847
14751	12.012	4.1818	5.e-002	-6.5823e-007
14752	12.012	3.9091	0.	-2.1928
14753	11.92	4.	0.	-2.6221
14754	12.012	4.	5.e-002	-6.2917e-007
14755	12.012	3.7273	0.	-2.8015
14756	11.92	3.8182	0.	-3.3294
14757	12.012	3.8182	5.e-002	-3.9128e-007
14758	12.012	3.5455	0.	-3.2793
14759	11.92	3.6364	0.	-3.9011
14760	12.012	3.6364	5.e-002	6.6312e-007
14761	12.012	3.3636	0.	-3.6229
14762	11.92	3.4545	0.	-4.3332
14763	12.012	3.4545	5.e-002	5.1365e-007
14764	12.012	3.1818	0.	-3.83
14765	11.92	3.2727	0.	-4.6228
14766	12.012	3.2727	5.e-002	-2.4259e-008
14767	12.012	3.	0.	-3.8992
14768	11.92	3.0909	0.	-4.7681
14769	12.012	3.0909	5.e-002	4.9365e-007
14770	12.012	2.8182	0.	-3.83
14771	11.92	2.9091	0.	-4.7681
14772	12.012	2.9091	5.e-002	1.1158e-006
14773	12.012	2.6364	0.	-3.6229
14774	11.92	2.7273	0.	-4.6228
14775	12.012	2.7273	5.e-002	8.5994e-007
14776	12.012	2.4545	0.	-3.2793
14777	11.92	2.5455	0.	-4.3332
14778	12.012	2.5455	5.e-002	7.399e-007
14779	12.012	2.2727	0.	-2.8015
14780	11.92	2.3636	0.	-3.9011
14781	12.012	2.3636	5.e-002	6.6345e-007
14782	12.012	2.0909	0.	-2.1928
14783	11.92	2.1818	0.	-3.3294
14784	12.012	2.1818	5.e-002	5.2291e-007
14785	12.012	1.9091	0.	-1.4583
14786	11.92	2.	0.	-2.6221
14787	12.012	2.	5.e-002	4.8387e-007
14788	12.012	1.7273	0.	-0.61194
14789	11.92	1.8182	0.	-1.7848
14790	12.012	1.8182	5.e-002	6.5317e-007
14791	12.012	1.5455	0.	-3.5479e-002
14792	11.92	1.6364	0.	-0.82895
14793	12.012	1.6364	5.e-002	8.8887e-007
14794	12.012	1.3636	0.	-9.5054e-003
14795	11.92	1.4545	0.	-5.0631e-002
14796	12.012	1.4545	5.e-002	8.4394e-007
14797	12.012	1.1818	0.	-4.9929e-003
14798	11.92	1.2727	0.	-1.0193e-002
14799	12.012	1.2727	5.e-002	9.0453e-007
14800	12.012	1.	0.	-3.2646e-003
14801	11.92	1.0909	0.	-4.9624e-003
14802	12.012	1.0909	5.e-002	9.9933e-007
14803	12.012	0.81818	0.	-2.4366e-003
14804	11.92	0.90909	0.	-3.074e-003
14805	12.012	0.90909	5.e-002	1.6696e-006
14806	12.012	0.63636	0.	-2.0455e-003
14807	11.92	0.72727	0.	-2.1689e-003
14808	12.012	0.72727	5.e-002	2.5377e-006
14809	12.012	0.45455	0.	-1.7846e-003
14810	11.92	0.54545	0.	-1.8175e-003
14811	12.012	0.54545	5.e-002	3.8721e-006
14812	12.012	0.27273	0.	-2.247e-003
14813	11.92	0.36364	0.	-1.176e-003
14814	12.012	0.36364	5.e-002	3.2973e-006
14815	11.92	0.18182	0.	-3.0192e-003
14816	12.012	0.18182	5.e-002	-4.7386e-006
14817	12.012	9.0909e-002	0.	-1.7903e-003
14818	11.827	5.7273	0.	-1.9043e-003
14819	11.735	5.8182	0.	-3.4299e-003
14820	11.827	5.8182	5.e-002	1.8536e-005
14821	11.827	5.9091	0.	-1.6472e-003
14822	11.827	5.5455	0.	-1.1733e-003
14823	11.735	5.6364	0.	-2.1036e-004
14824	11.827	5.6364	5.e-002	2.3483e-006
14825	11.827	5.3636	0.	-1.8942e-003
14826	11.735	5.4545	0.	-1.5582e-003
14827	11.827	5.4545	5.e-002	2.6834e-006
14828	11.827	5.1818	0.	-2.7219e-003
14829	11.735	5.2727	0.	-2.2099e-003
14830	11.827	5.2727	5.e-002	8.2612e-007
14831	11.827	5.	0.	-4.62e-003
14832	11.735	5.0909	0.	-4.0404e-003
14833	11.827	5.0909	5.e-002	5.9803e-007
14834	11.827	4.8182	0.	-9.9401e-003
14835	11.735	4.9091	0.	-9.1074e-003
14836	11.827	4.9091	5.e-002	-1.4356e-007
14837	11.827	4.6364	0.	-5.6893e-002
14838	11.735	4.7273	0.	-5.624e-002
14839	11.827	4.7273	5.e-002	-9.9803e-007
14840	11.827	4.4545	0.	-0.96234
14841	11.735	4.5455	0.	-1.067
14842	11.827	4.5455	5.e-002	-5.6121e-008
14843	11.827	4.2727	0.	-2.0273
14844	11.735	4.3636	0.	-2.2498
14845	11.827	4.3636	5.e-002	-1.2481e-006
14846	11.827	4.0909	0.	-2.9703
14847	11.735	4.1818	0.	-3.3078
14848	11.827	4.1818	5.e-002	-1.4396e-006
14849	11.827	3.9091	0.	-3.7799
14850	11.735	4.	0.	-4.2289
14851	11.827	4.	5.e-002	-1.3444e-006
14852	11.827	3.7273	0.	-4.4499
14853	11.735	3.8182	0.	-5.0061
14854	11.827	3.8182	5.e-002	-1.1696e-006
14855	11.827	3.5455	0.	-4.9757
14856	11.735	3.6364	0.	-5.6342
14857	11.827	3.6364	5.e-002	-9.4135e-008
14858	11.827	3.3636	0.	-5.3537
14859	11.735	3.4545	0.	-6.109
14860	11.827	3.4545	5.e-002	-3.7235e-007
14861	11.827	3.1818	0.	-5.5816
14862	11.735	3.2727	0.	-6.4273
14863	11.827	3.2727	5.e-002	-9.4818e-007
14864	11.827	3.	0.	-5.6577
14865	11.735	3.0909	0.	-6.5869
14866	11.827	3.0909	5.e-002	-3.6589e-007
14867	11.827	2.8182	0.	-5.5816
14868	11.735	2.9091	0.	-6.5869
14869	11.827	2.9091	5.e-002	6.787e-008
14870	11.827	2.6364	0.	-5.3537
14871	11.735	2.7273	0.	-6.4273
14872	11.827	2.7273	5.e-002	-6.3403e-008
14873	11.827	2.4545	0.	-4.9757
14874	11.735	2.5455	0.	-6.109
14875	11.827	2.5455	5.e-002	-3.0946e-007
14876	11.827	2.2727	0.	-4.4499
14877	11.735	2.3636	0.	-5.6342
14878	11.827	2.3636	5.e-002	-1.3352e-007
14879	11.827	2.0909	0.	-3.7799
14880	11.735	2.1818	0.	-5.0061
14881	11.827	2.1818	5.e-002	-4.0571e-007
14882	11.827	1.9091	0.	-2.9703
14883	11.735	2.	0.	-4.2289
14884	11.827	2.	5.e-002	-5.0088e-007
14885	11.827	1.7273	0.	-2.0273
14886	11.735	1.8182	0.	-3.3078
14887	11.827	1.8182	5.e-002	-1.7962e-007
14888	11.827	1.5455	0.	-0.96235
14889	11.735	1.6364	0.	-2.2499
14890	11.827	1.6364	5.e-002	-4.958e-008
14891	11.827	1.3636	0.	-5.6895e-002
14892	11.735	1.4545	0.	-1.067
14893	11.827	1.4545	5.e-002	-9.7336e-009
14894	11.827	1.1818	0.	-9.94e-003
14895	11.735	1.2727	0.	-5.6241e-002
14896	11.827	1.2727	5.e-002	3.8823e-008
14897	11.827	1.	0.	-4.619e-003
14898	11.735	1.0909	0.	-9.1072e-003
14899	11.827	1.0909	5.e-002	2.0667e-007
14900	11.827	0.81818	0.	-2.7202e-003
14901	11.735	0.90909	0.	-4.039e-003
14902	11.827	0.90909	5.e-002	3.1997e-007
14903	11.827	0.63636	0.	-1.8928e-003
14904	11.735	0.72727	0.	-2.2084e-003
14905	11.827	0.72727	5.e-002	1.5566e-006
14906	11.827	0.45455	0.	-1.173e-003
14907	11.735	0.54545	0.	-1.5576e-003
14908	11.827	0.54545	5.e-002	2.3513e-006
14909	11.827	0.27273	0.	-1.9041e-003
14910	11.735	0.36364	0.	-2.1094e-004
14911	11.827	0.36364	5.e-002	1.9145e-006
14912	11.735	0.18182	0.	-3.4292e-003
14913	11.827	0.18182	5.e-002	-1.4976e-005
14914	11.827	9.0909e-002	0.	-1.6472e-003
14915	11.642	5.7273	0.	-1.5591e-003
14916	11.55	5.8182	0.	-3.9056e-003
14917	11.642	5.8182	5.e-002	2.1066e-005
14918	11.642	5.9091	0.	-1.5199e-003
14919	11.642	5.5455	0.	-5.1851e-004
14920	11.55	5.6364	0.	8.1943e-004
14921	11.642	5.6364	5.e-002	2.5414e-006
14922	11.642	5.3636	0.	-1.7616e-003
14923	11.55	5.4545	0.	-1.2878e-003
14924	11.642	5.4545	5.e-002	2.9947e-006
14925	11.642	5.1818	0.	-3.2704e-003
14926	11.55	5.2727	0.	-2.3826e-003
14927	11.642	5.2727	5.e-002	1.2439e-006
14928	11.642	5.	0.	-7.6941e-003
14929	11.55	5.0909	0.	-6.113e-003
14930	11.642	5.0909	5.e-002	1.0892e-006
14931	11.642	4.8182	0.	-4.3027e-002
14932	11.55	4.9091	0.	-3.0795e-002
14933	11.642	4.9091	5.e-002	3.5007e-007
14934	11.642	4.6364	0.	-1.0752
14935	11.55	4.7273	0.	-1.0454
14936	11.642	4.7273	5.e-002	-5.6021e-007
14937	11.642	4.4545	0.	-2.3764
14938	11.55	4.5455	0.	-2.4747
14939	11.642	4.5455	5.e-002	3.9882e-007
14940	11.642	4.2727	0.	-3.5515
14941	11.55	4.3636	0.	-3.777
14942	11.642	4.3636	5.e-002	-7.4274e-007
14943	11.642	4.0909	0.	-4.5871
14944	11.55	4.1818	0.	-4.9373
14945	11.642	4.1818	5.e-002	-6.9332e-007
14946	11.642	3.9091	0.	-5.4756
14947	11.55	4.	0.	-5.9469
14948	11.642	4.	5.e-002	-7.9521e-007
14949	11.642	3.7273	0.	-6.2109
14950	11.55	3.8182	0.	-6.7989
14951	11.642	3.8182	5.e-002	-6.2105e-007
14952	11.642	3.5455	0.	-6.7878
14953	11.55	3.6364	0.	-7.4875
14954	11.642	3.6364	5.e-002	2.3308e-007
14955	11.642	3.3636	0.	-7.2028
14956	11.55	3.4545	0.	-8.008
14957	11.642	3.4545	5.e-002	6.8448e-008
14958	11.642	3.1818	0.	-7.4528
14959	11.55	3.2727	0.	-8.357
14960	11.642	3.2727	5.e-002	-2.7807e-007
14961	11.642	3.	0.	-7.5364
14962	11.55	3.0909	0.	-8.5321
14963	11.642	3.0909	5.e-002	1.4558e-007
14964	11.642	2.8182	0.	-7.4528
14965	11.55	2.9091	0.	-8.5321
14966	11.642	2.9091	5.e-002	6.2939e-007
14967	11.642	2.6364	0.	-7.2028
14968	11.55	2.7273	0.	-8.357
14969	11.642	2.7273	5.e-002	2.7841e-007
14970	11.642	2.4545	0.	-6.7879
14971	11.55	2.5455	0.	-8.008
14972	11.642	2.5455	5.e-002	1.7332e-007
14973	11.642	2.2727	0.	-6.2109
14974	11.55	2.3636	0.	-7.4875
14975	11.642	2.3636	5.e-002	1.305e-007
14976	11.642	2.0909	0.	-5.4756
14977	11.55	2.1818	0.	-6.7989
14978	11.642	2.1818	5.e-002	-2.1256e-008
14979	11.642	1.9091	0.	-4.5871
14980	11.55	2.	0.	-5.9469
14981	11.642	2.	5.e-002	9.3803e-008
14982	11.642	1.7273	0.	-3.5515
14983	11.55	1.8182	0.	-4.9373
14984	11.642	1.8182	5.e-002	3.236e-007
14985	11.642	1.5455	0.	-2.3764
14986	11.55	1.6364	0.	-3.777
14987	11.642	1.6364	5.e-002	1.6462e-007
14988	11.642	1.3636	0.	-1.0752
14989	11.55	1.4545	0.	-2.4747
14990	11.642	1.4545	5.e-002	3.3128e-007
14991	11.642	1.1818	0.	-4.3028e-002
14992	11.55	1.2727	0.	-1.0454
14993	11.642	1.2727	5.e-002	4.0205e-007
14994	11.642	1.	0.	-7.6933e-003
14995	11.55	1.0909	0.	-3.0796e-002
14996	11.642	1.0909	5.e-002	5.1433e-007
14997	11.642	0.81818	0.	-3.2692e-003
14998	11.55	0.90909	0.	-6.112e-003
14999	11.642	0.90909	5.e-002	3.7865e-007
15000	11.642	0.63636	0.	-1.761e-003
15001	11.55	0.72727	0.	-2.3818e-003
15002	11.642	0.72727	5.e-002	1.4728e-006
15003	11.642	0.45455	0.	-5.1883e-004
15004	11.55	0.54545	0.	-1.2875e-003
15005	11.642	0.54545	5.e-002	2.8428e-006
15006	11.642	0.27273	0.	-1.5591e-003
15007	11.55	0.36364	0.	8.1937e-004
15008	11.642	0.36364	5.e-002	3.2898e-006
15009	11.55	0.18182	0.	-3.9054e-003
15010	11.642	0.18182	5.e-002	-1.8287e-005
15011	11.642	9.0909e-002	0.	-1.5171e-003
15012	11.458	5.7273	0.	-1.218e-003
15013	11.365	5.8182	0.	-4.4634e-003
15014	11.458	5.8182	5.e-002	2.543e-005
15015	11.458	5.9091	0.	-1.4135e-003
15016	11.458	5.5455	0.	1.8264e-004
15017	11.365	5.6364	0.	1.9185e-003
15018	11.458	5.6364	5.e-002	2.3514e-006
15019	11.458	5.3636	0.	-1.6734e-003
15020	11.365	5.4545	0.	-1.0106e-003
15021	11.458	5.4545	5.e-002	2.8874e-006
15022	11.458	5.1818	0.	-4.4319e-003
15023	11.365	5.2727	0.	-2.8437e-003
15024	11.458	5.2727	5.e-002	1.4077e-006
15025	11.458	5.	0.	-1.978e-002
15026	11.365	5.0909	0.	-1.2641e-002
15027	11.458	5.0909	5.e-002	1.2701e-006
15028	11.458	4.8182	0.	-0.90885
15029	11.365	4.9091	0.	-0.72488
15030	11.458	4.9091	5.e-002	6.11e-007
15031	11.458	4.6364	0.	-2.4651
15032	11.365	4.7273	0.	-2.4171
15033	11.458	4.7273	5.e-002	-3.8806e-008
15034	11.458	4.4545	0.	-3.8959
15035	11.365	4.5455	0.	-3.9874
15036	11.458	4.5455	5.e-002	6.8025e-007
15037	11.458	4.2727	0.	-5.1831
15038	11.365	4.3636	0.	-5.4126
15039	11.458	4.3636	5.e-002	-4.7786e-007
15040	11.458	4.0909	0.	-6.3172
15041	11.365	4.1818	0.	-6.6821
15042	11.458	4.1818	5.e-002	-7.9468e-007
15043	11.458	3.9091	0.	-7.2902
15044	11.365	4.	0.	-7.7867
15045	11.458	4.	5.e-002	-6.5169e-007
15046	11.458	3.7273	0.	-8.0954
15047	11.365	3.8182	0.	-8.7191
15048	11.458	3.8182	5.e-002	-3.3809e-007
15049	11.458	3.5455	0.	-8.7274
15050	11.365	3.6364	0.	-9.4727
15051	11.458	3.6364	5.e-002	6.9235e-007
15052	11.458	3.3636	0.	-9.1819
15053	11.365	3.4545	0.	-10.042
15054	11.458	3.4545	5.e-002	3.9941e-007
15055	11.458	3.1818	0.	-9.4559
15056	11.365	3.2727	0.	-10.424
15057	11.458	3.2727	5.e-002	-2.589e-007
15058	11.458	3.	0.	-9.5474
15059	11.365	3.0909	0.	-10.616
15060	11.458	3.0909	5.e-002	3.3051e-007
15061	11.458	2.8182	0.	-9.4559
15062	11.365	2.9091	0.	-10.616
15063	11.458	2.9091	5.e-002	8.0179e-007
15064	11.458	2.6364	0.	-9.1819
15065	11.365	2.7273	0.	-10.424
15066	11.458	2.7273	5.e-002	6.7759e-007
15067	11.458	2.4545	0.	-8.7274
15068	11.365	2.5455	0.	-10.042
15069	11.458	2.5455	5.e-002	3.7959e-007
15070	11.458	2.2727	0.	-8.0954
15071	11.365	2.3636	0.	-9.4727
15072	11.458	2.3636	5.e-002	5.0654e-007
15073	11.458	2.0909	0.	-7.2902
15074	11.365	2.1818	0.	-8.7191
15075	11.458	2.1818	5.e-002	9.4648e-008
15076	11.458	1.9091	0.	-6.3172
15077	11.365	2.	0.	-7.7867
15078	11.458	2.	5.e-002	1.3253e-007
15079	11.458	1.7273	0.	-5.1831
15080	11.365	1.8182	0.	-6.6821
15081	11.458	1.8182	5.e-002	6.3853e-007
15082	11.458	1.5455	0.	-3.8959
15083	11.365	1.6364	0.	-5.4127
15084	11.458	1.6364	5.e-002	5.1995e-007
15085	11.458	1.3636	0.	-2.4651
15086	11.365	1.4545	0.	-3.9874
15087	11.458	1.4545	5.e-002	7.3149e-007
15088	11.458	1.1818	0.	-0.90886
15089	11.365	1.2727	0.	-2.4171
15090	11.458	1.2727	5.e-002	7.1676e-007
15091	11.458	1.	0.	-1.978e-002
15092	11.365	1.0909	0.	-0.72489
15093	11.458	1.0909	5.e-002	7.7269e-007
15094	11.458	0.81818	0.	-4.4312e-003
15095	11.365	0.90909	0.	-1.264e-002
15096	11.458	0.90909	5.e-002	8.6942e-007
15097	11.458	0.63636	0.	-1.6728e-003
15098	11.365	0.72727	0.	-2.8425e-003
15099	11.458	0.72727	5.e-002	1.1567e-006
15100	11.458	0.45455	0.	1.8325e-004
15101	11.365	0.54545	0.	-1.0101e-003
15102	11.458	0.54545	5.e-002	2.3014e-006
15103	11.458	0.27273	0.	-1.2177e-003
15104	11.365	0.36364	0.	1.9194e-003
15105	11.458	0.36364	5.e-002	3.3758e-006
15106	11.365	0.18182	0.	-4.4632e-003
15107	11.458	0.18182	5.e-002	-9.4645e-006
15108	11.458	9.0909e-002	0.	-1.4129e-003
15109	11.273	5.7273	0.	-8.9102e-004
15110	11.18	5.8182	0.	-5.1244e-003
15111	11.273	5.8182	5.e-002	3.1922e-005
15112	11.273	5.9091	0.	-1.3388e-003
15113	11.273	5.5455	0.	9.36e-004
15114	11.18	5.6364	0.	3.0912e-003
15115	11.273	5.6364	5.e-002	2.3674e-006
15116	11.273	5.3636	0.	-1.6799e-003
15117	11.18	5.4545	0.	-7.3474e-004
15118	11.273	5.4545	5.e-002	3.2961e-006
15119	11.273	5.1818	0.	-7.528e-003
15120	11.18	5.2727	0.	-4.0663e-003
15121	11.273	5.2727	5.e-002	1.6823e-006
15122	11.273	5.	0.	-0.43226
15123	11.18	5.0909	0.	-0.1369
15124	11.273	5.0909	5.e-002	1.8633e-006
15125	11.273	4.8182	0.	-2.2497
15126	11.18	4.9091	0.	-2.032
15127	11.273	4.9091	5.e-002	1.43e-006
15128	11.273	4.6364	0.	-3.9596
15129	11.18	4.7273	0.	-3.8934
15130	11.273	4.7273	5.e-002	2.4589e-007
15131	11.273	4.4545	0.	-5.5242
15132	11.18	4.5455	0.	-5.6093
15133	11.273	4.5455	5.e-002	1.1437e-006
15134	11.273	4.2727	0.	-6.9314
15135	11.18	4.3636	0.	-7.1662
15136	11.273	4.3636	5.e-002	4.0244e-008
15137	11.273	4.0909	0.	-8.1712
15138	11.18	4.1818	0.	-8.553
15139	11.273	4.1818	5.e-002	-1.1021e-007
15140	11.273	3.9091	0.	-9.2351
15141	11.18	4.	0.	-9.76
15142	11.273	4.	5.e-002	8.7679e-008
15143	11.273	3.7273	0.	-10.116
15144	11.18	3.8182	0.	-10.779
15145	11.273	3.8182	5.e-002	4.4576e-007
15146	11.273	3.5455	0.	-10.807
15147	11.18	3.6364	0.	-11.603
15148	11.273	3.6364	5.e-002	1.0958e-006
15149	11.273	3.3636	0.	-11.304
15150	11.18	3.4545	0.	-12.225
15151	11.273	3.4545	5.e-002	9.049e-007
15152	11.273	3.1818	0.	-11.604
15153	11.18	3.2727	0.	-12.643
15154	11.273	3.2727	5.e-002	1.1826e-007
15155	11.273	3.	0.	-11.704
15156	11.18	3.0909	0.	-12.853
15157	11.273	3.0909	5.e-002	7.5469e-007
15158	11.273	2.8182	0.	-11.604
15159	11.18	2.9091	0.	-12.853
15160	11.273	2.9091	5.e-002	1.2719e-006
15161	11.273	2.6364	0.	-11.304
15162	11.18	2.7273	0.	-12.643
15163	11.273	2.7273	5.e-002	1.3138e-006
15164	11.273	2.4545	0.	-10.807
15165	11.18	2.5455	0.	-12.225
15166	11.273	2.5455	5.e-002	8.8668e-007
15167	11.273	2.2727	0.	-10.116
15168	11.18	2.3636	0.	-11.603
15169	11.273	2.3636	5.e-002	1.0572e-006
15170	11.273	2.0909	0.	-9.2351
15171	11.18	2.1818	0.	-10.779
15172	11.273	2.1818	5.e-002	8.1173e-007
15173	11.273	1.9091	0.	-8.1712
15174	11.18	2.	0.	-9.76
15175	11.273	2.	5.e-002	5.8893e-007
15176	11.273	1.7273	0.	-6.9314
15177	11.18	1.8182	0.	-8.553
15178	11.273	1.8182	5.e-002	9.1282e-007
15179	11.273	1.5455	0.	-5.5243
15180	11.18	1.6364	0.	-7.1662
15181	11.273	1.6364	5.e-002	9.3664e-007
15182	11.273	1.3636	0.	-3.9596
15183	11.18	1.4545	0.	-5.6093
15184	11.273	1.4545	5.e-002	1.1063e-006
15185	11.273	1.1818	0.	-2.2497
15186	11.18	1.2727	0.	-3.8934
15187	11.273	1.2727	5.e-002	1.2589e-006
15188	11.273	1.	0.	-0.43227
15189	11.18	1.0909	0.	-2.032
15190	11.273	1.0909	5.e-002	1.345e-006
15191	11.273	0.81818	0.	-7.5266e-003
15192	11.18	0.90909	0.	-0.1369
15193	11.273	0.90909	5.e-002	1.5704e-006
15194	11.273	0.63636	0.	-1.6789e-003
15195	11.18	0.72727	0.	-4.0651e-003
15196	11.273	0.72727	5.e-002	1.409e-006
15197	11.273	0.45455	0.	9.368e-004
15198	11.18	0.54545	0.	-7.3427e-004
15199	11.273	0.54545	5.e-002	1.6916e-006
15200	11.273	0.27273	0.	-8.9023e-004
15201	11.18	0.36364	0.	3.0924e-003
15202	11.273	0.36364	5.e-002	2.0982e-006
15203	11.18	0.18182	0.	-5.1239e-003
15204	11.273	0.18182	5.e-002	-1.7758e-005
15205	11.273	9.0909e-002	0.	-1.3375e-003
15206	11.088	5.7273	0.	-5.929e-004
15207	10.996	5.8182	0.	-5.9155e-003
15208	11.088	5.8182	5.e-002	2.7433e-005
15209	11.088	5.9091	0.	-1.3071e-003
15210	11.088	5.5455	0.	1.7458e-003
15211	10.996	5.6364	0.	4.341e-003
15212	11.088	5.6364	5.e-002	2.6173e-006
15213	11.088	5.3636	0.	-1.9118e-003
15214	10.996	5.4545	0.	-4.8075e-004
15215	11.088	5.4545	5.e-002	3.4496e-006
15216	11.088	5.1818	0.	-2.5627e-002
15217	10.996	5.2727	0.	-8.5114e-003
15218	11.088	5.2727	5.e-002	2.1168e-006
15219	11.088	5.	0.	-1.684
15220	10.996	5.0909	0.	-1.2723
15221	11.088	5.0909	5.e-002	1.9804e-006
15222	11.088	4.8182	0.	-3.6954
15223	10.996	4.9091	0.	-3.4457
15224	11.088	4.9091	5.e-002	1.6255e-006
15225	11.088	4.6364	0.	-5.5629
15226	10.996	4.7273	0.	-5.4776
15227	11.088	4.7273	5.e-002	7.879e-007
15228	11.088	4.4545	0.	-7.2708
15229	10.996	4.5455	0.	-7.3497
15230	11.088	4.5455	5.e-002	1.6136e-006
15231	11.088	4.2727	0.	-8.8071
15232	10.996	4.3636	0.	-9.0485
15233	11.088	4.3636	5.e-002	6.3963e-007
15234	11.088	4.0909	0.	-10.161
15235	10.996	4.1818	0.	-10.562
15236	11.088	4.1818	5.e-002	3.2869e-007
15237	11.088	3.9091	0.	-11.323
15238	10.996	4.	0.	-11.879
15239	11.088	4.	5.e-002	5.5819e-007
15240	11.088	3.7273	0.	-12.285
15241	10.996	3.8182	0.	-12.992
15242	11.088	3.8182	5.e-002	6.164e-007
15243	11.088	3.5455	0.	-13.04
15244	10.996	3.6364	0.	-13.891
15245	11.088	3.6364	5.e-002	1.5011e-006
15246	11.088	3.3636	0.	-13.583
15247	10.996	3.4545	0.	-14.571
15248	11.088	3.4545	5.e-002	1.5347e-006
15249	11.088	3.1818	0.	-13.91
15250	10.996	3.2727	0.	-15.027
15251	11.088	3.2727	5.e-002	7.3365e-007
15252	11.088	3.	0.	-14.02
15253	10.996	3.0909	0.	-15.256
15254	11.088	3.0909	5.e-002	1.2377e-006
15255	11.088	2.8182	0.	-13.91
15256	10.996	2.9091	0.	-15.256
15257	11.088	2.9091	5.e-002	1.3849e-006
15258	11.088	2.6364	0.	-13.583
15259	10.996	2.7273	0.	-15.027
15260	11.088	2.7273	5.e-002	1.2954e-006
15261	11.088	2.4545	0.	-13.04
15262	10.996	2.5455	0.	-14.571
15263	11.088	2.5455	5.e-002	1.2114e-006
15264	11.088	2.2727	0.	-12.285
15265	10.996	2.3636	0.	-13.891
15266	11.088	2.3636	5.e-002	1.3789e-006
15267	11.088	2.0909	0.	-11.323
15268	10.996	2.1818	0.	-12.992
15269	11.088	2.1818	5.e-002	1.3113e-006
15270	11.088	1.9091	0.	-10.161
15271	10.996	2.	0.	-11.879
15272	11.088	2.	5.e-002	1.1289e-006
15273	11.088	1.7273	0.	-8.8071
15274	10.996	1.8182	0.	-10.562
15275	11.088	1.8182	5.e-002	1.678e-006
15276	11.088	1.5455	0.	-7.2709
15277	10.996	1.6364	0.	-9.0485
15278	11.088	1.6364	5.e-002	1.28e-006
15279	11.088	1.3636	0.	-5.5629
15280	10.996	1.4545	0.	-7.3497
15281	11.088	1.4545	5.e-002	1.4482e-006
15282	11.088	1.1818	0.	-3.6954
15283	10.996	1.2727	0.	-5.4776
15284	11.088	1.2727	5.e-002	1.4712e-006
15285	11.088	1.	0.	-1.684
15286	10.996	1.0909	0.	-3.4457
15287	11.088	1.0909	5.e-002	1.6356e-006
15288	11.088	0.81818	0.	-2.5627e-002
15289	10.996	0.90909	0.	-1.2723
15290	11.088	0.90909	5.e-002	1.635e-006
15291	11.088	0.63636	0.	-1.9112e-003
15292	10.996	0.72727	0.	-8.5105e-003
15293	11.088	0.72727	5.e-002	1.255e-006
15294	11.088	0.45455	0.	1.7466e-003
15295	10.996	0.54545	0.	-4.8048e-004
15296	11.088	0.54545	5.e-002	1.5398e-006
15297	11.088	0.27273	0.	-5.9206e-004
15298	10.996	0.36364	0.	4.3416e-003
15299	11.088	0.36364	5.e-002	1.2724e-006
15300	10.996	0.18182	0.	-5.9149e-003
15301	11.088	0.18182	5.e-002	-9.9584e-006
15302	11.088	9.0909e-002	0.	-1.3068e-003
15303	10.903	5.7273	0.	-3.4573e-004
15304	10.811	5.8182	0.	-6.8731e-003
15305	10.903	5.8182	5.e-002	2.6245e-005
15306	10.903	5.9091	0.	-1.3358e-003
15307	10.903	5.5455	0.	2.6184e-003
15308	10.811	5.6364	0.	5.6688e-003
15309	10.903	5.6364	5.e-002	2.4712e-006
15310	10.903	5.3636	0.	-2.8211e-003
15311	10.811	5.4545	0.	-3.057e-004
15312	10.903	5.4545	5.e-002	2.7174e-006
15313	10.903	5.1818	0.	-0.7232
15314	10.811	5.2727	0.	-0.14073
15315	10.903	5.2727	5.e-002	1.4064e-006
15316	10.903	5.	0.	-3.0523
15317	10.811	5.0909	0.	-2.5918
15318	10.903	5.0909	5.e-002	1.1703e-006
15319	10.903	4.8182	0.	-5.2475
15320	10.811	4.9091	0.	-4.9641
15321	10.903	4.9091	5.e-002	9.6553e-007
15322	10.903	4.6364	0.	-7.2838
15323	10.811	4.7273	0.	-7.1787
15324	10.903	4.7273	5.e-002	1.4793e-008
15325	10.903	4.4545	0.	-9.1464
15326	10.811	4.5455	0.	-9.2193
15327	10.903	4.5455	5.e-002	9.2714e-007
15328	10.903	4.2727	0.	-10.822
15329	10.811	4.3636	0.	-11.071
15330	10.903	4.3636	5.e-002	-1.5514e-007
15331	10.903	4.0909	0.	-12.299
15332	10.811	4.1818	0.	-12.721
15333	10.903	4.1818	5.e-002	-3.6296e-007
15334	10.903	3.9091	0.	-13.567
15335	10.811	4.	0.	-14.158
15336	10.903	4.	5.e-002	-3.4705e-007
15337	10.903	3.7273	0.	-14.616
15338	10.811	3.8182	0.	-15.372
15339	10.903	3.8182	5.e-002	8.3165e-008
15340	10.903	3.5455	0.	-15.441
15341	10.811	3.6364	0.	-16.353
15342	10.903	3.6364	5.e-002	8.2402e-007
15343	10.903	3.3636	0.	-16.033
15344	10.811	3.4545	0.	-17.095
15345	10.903	3.4545	5.e-002	6.0951e-007
15346	10.903	3.1818	0.	-16.391
15347	10.811	3.2727	0.	-17.592
15348	10.903	3.2727	5.e-002	-2.0063e-007
15349	10.903	3.	0.	-16.51
15350	10.811	3.0909	0.	-17.842
15351	10.903	3.0909	5.e-002	2.9101e-007
15352	10.903	2.8182	0.	-16.391
15353	10.811	2.9091	0.	-17.842
15354	10.903	2.9091	5.e-002	9.0119e-007
15355	10.903	2.6364	0.	-16.033
15356	10.811	2.7273	0.	-17.592
15357	10.903	2.7273	5.e-002	7.9846e-007
15358	10.903	2.4545	0.	-15.441
15359	10.811	2.5455	0.	-17.095
15360	10.903	2.5455	5.e-002	3.4234e-007
15361	10.903	2.2727	0.	-14.616
15362	10.811	2.3636	0.	-16.353
15363	10.903	2.3636	5.e-002	4.9166e-007
15364	10.903	2.0909	0.	-13.567
15365	10.811	2.1818	0.	-15.372
15366	10.903	2.1818	5.e-002	4.0077e-007
15367	10.903	1.9091	0.	-12.299
15368	10.811	2.	0.	-14.158
15369	10.903	2.	5.e-002	3.3469e-007
15370	10.903	1.7273	0.	-10.822
15371	10.811	1.8182	0.	-12.721
15372	10.903	1.8182	5.e-002	4.5529e-007
15373	10.903	1.5455	0.	-9.1464
15374	10.811	1.6364	0.	-11.071
15375	10.903	1.6364	5.e-002	4.893e-007
15376	10.903	1.3636	0.	-7.2838
15377	10.811	1.4545	0.	-9.2193
15378	10.903	1.4545	5.e-002	6.5703e-007
15379	10.903	1.1818	0.	-5.2475
15380	10.811	1.2727	0.	-7.1787
15381	10.903	1.2727	5.e-002	5.8266e-007
15382	10.903	1.	0.	-3.0524
15383	10.811	1.0909	0.	-4.9641
15384	10.903	1.0909	5.e-002	7.6203e-007
15385	10.903	0.81818	0.	-0.72321
15386	10.811	0.90909	0.	-2.5918
15387	10.903	0.90909	5.e-002	3.9863e-007
15388	10.903	0.63636	0.	-2.8206e-003
15389	10.811	0.72727	0.	-0.14073
15390	10.903	0.72727	5.e-002	5.1045e-007
15391	10.903	0.45455	0.	2.6184e-003
15392	10.811	0.54545	0.	-3.0548e-004
15393	10.903	0.54545	5.e-002	1.9388e-007
15394	10.903	0.27273	0.	-3.4532e-004
15395	10.811	0.36364	0.	5.6691e-003
15396	10.903	0.36364	5.e-002	4.4019e-007
15397	10.811	0.18182	0.	-6.8724e-003
15398	10.903	0.18182	5.e-002	-2.3613e-005
15399	10.903	9.0909e-002	0.	-1.3349e-003
15400	10.718	5.7273	0.	-1.852e-004
15401	10.626	5.8182	0.	-8.0474e-003
15402	10.718	5.8182	5.e-002	2.6479e-005
15403	10.718	5.9091	0.	-1.4476e-003
15404	10.718	5.5455	0.	3.5586e-003
15405	10.626	5.6364	0.	7.069e-003
15406	10.718	5.6364	5.e-002	2.3802e-006
15407	10.718	5.3636	0.	-7.5908e-003
15408	10.626	5.4545	0.	-4.2196e-004
15409	10.718	5.4545	5.e-002	2.6817e-006
15410	10.718	5.1818	0.	-1.9765
15411	10.626	5.2727	0.	-1.2766
15412	10.718	5.2727	5.e-002	1.378e-006
15413	10.718	5.	0.	-4.5229
15414	10.626	5.0909	0.	-4.0114
15415	10.718	5.0909	5.e-002	1.3062e-006
15416	10.718	4.8182	0.	-6.9144
15417	10.626	4.9091	0.	-6.595
15418	10.718	4.9091	5.e-002	6.4501e-007
15419	10.718	4.6364	0.	-9.133
15420	10.626	4.7273	0.	-9.0068
15421	10.718	4.7273	5.e-002	1.4409e-007
15422	10.718	4.4545	0.	-11.163
15423	10.626	4.5455	0.	-11.23
15424	10.718	4.5455	5.e-002	8.2988e-007
15425	10.718	4.2727	0.	-12.989
15426	10.626	4.3636	0.	-13.247
15427	10.718	4.3636	5.e-002	-3.0765e-007
15428	10.718	4.0909	0.	-14.599
15429	10.626	4.1818	0.	-15.045
15430	10.718	4.1818	5.e-002	-4.4872e-007
15431	10.718	3.9091	0.	-15.981
15432	10.626	4.	0.	-16.612
15433	10.718	4.	5.e-002	-1.4234e-007
15434	10.718	3.7273	0.	-17.126
15435	10.626	3.8182	0.	-17.934
15436	10.718	3.8182	5.e-002	1.1912e-008
15437	10.718	3.5455	0.	-18.025
15438	10.626	3.6364	0.	-19.004
15439	10.718	3.6364	5.e-002	6.3291e-007
15440	10.718	3.3636	0.	-18.671
15441	10.626	3.4545	0.	-19.813
15442	10.718	3.4545	5.e-002	1.7536e-007
15443	10.718	3.1818	0.	-19.061
15444	10.626	3.2727	0.	-20.355
15445	10.718	3.2727	5.e-002	-2.9505e-007
15446	10.718	3.	0.	-19.191
15447	10.626	3.0909	0.	-20.628
15448	10.718	3.0909	5.e-002	6.0591e-008
15449	10.718	2.8182	0.	-19.061
15450	10.626	2.9091	0.	-20.628
15451	10.718	2.9091	5.e-002	8.9316e-007
15452	10.718	2.6364	0.	-18.671
15453	10.626	2.7273	0.	-20.355
15454	10.718	2.7273	5.e-002	7.7447e-007
15455	10.718	2.4545	0.	-18.025
15456	10.626	2.5455	0.	-19.813
15457	10.718	2.5455	5.e-002	-5.1263e-008
15458	10.718	2.2727	0.	-17.126
15459	10.626	2.3636	0.	-19.004
15460	10.718	2.3636	5.e-002	4.2414e-007
15461	10.718	2.0909	0.	-15.981
15462	10.626	2.1818	0.	-17.934
15463	10.718	2.1818	5.e-002	2.2647e-007
15464	10.718	1.9091	0.	-14.599
15465	10.626	2.	0.	-16.612
15466	10.718	2.	5.e-002	1.4906e-007
15467	10.718	1.7273	0.	-12.989
15468	10.626	1.8182	0.	-15.046
15469	10.718	1.8182	5.e-002	4.3772e-008
15470	10.718	1.5455	0.	-11.163
15471	10.626	1.6364	0.	-13.247
15472	10.718	1.6364	5.e-002	1.2645e-007
15473	10.718	1.3636	0.	-9.133
15474	10.626	1.4545	0.	-11.23
15475	10.718	1.4545	5.e-002	1.7715e-007
15476	10.718	1.1818	0.	-6.9144
15477	10.626	1.2727	0.	-9.0069
15478	10.718	1.2727	5.e-002	3.314e-007
15479	10.718	1.	0.	-4.5229
15480	10.626	1.0909	0.	-6.595
15481	10.718	1.0909	5.e-002	-6.3792e-008
15482	10.718	0.81818	0.	-1.9765
15483	10.626	0.90909	0.	-4.0114
15484	10.718	0.90909	5.e-002	-1.3599e-007
15485	10.718	0.63636	0.	-7.5906e-003
15486	10.626	0.72727	0.	-1.2767
15487	10.718	0.72727	5.e-002	7.1906e-008
15488	10.718	0.45455	0.	3.559e-003
15489	10.626	0.54545	0.	-4.2133e-004
15490	10.718	0.54545	5.e-002	3.5371e-007
15491	10.718	0.27273	0.	-1.8461e-004
15492	10.626	0.36364	0.	7.0695e-003
15493	10.718	0.36364	5.e-002	6.0713e-007
15494	10.626	0.18182	0.	-8.0464e-003
15495	10.718	0.18182	5.e-002	-1.1977e-005
15496	10.718	9.0909e-002	0.	-1.4469e-003
15497	10.534	5.7273	0.	-1.6874e-004
15498	10.441	5.8182	0.	-9.5072e-003
15499	10.534	5.8182	5.e-002	3.0513e-005
15500	10.534	5.9091	0.	-1.6736e-003
15501	10.534	5.5455	0.	4.5733e-003
15502	10.441	5.6364	0.	8.5246e-003
15503	10.534	5.6364	5.e-002	2.2974e-006
15504	10.534	5.3636	0.	-0.41581
15505	10.441	5.4545	0.	-2.6624e-003
15506	10.534	5.4545	5.e-002	2.8995e-006
15507	10.534	5.1818	0.	-3.3299
15508	10.441	5.2727	0.	-2.5586
15509	10.534	5.2727	5.e-002	1.514e-006
15510	10.534	5.	0.	-6.1026
15511	10.441	5.0909	0.	-5.5365
15512	10.534	5.0909	5.e-002	1.5982e-006
15513	10.534	4.8182	0.	-8.7061
15514	10.441	4.9091	0.	-8.3481
15515	10.534	4.9091	5.e-002	8.9343e-007
15516	10.534	4.6364	0.	-11.122
15517	10.441	4.7273	0.	-10.973
15518	10.534	4.7273	5.e-002	5.8506e-007
15519	10.534	4.4545	0.	-13.332
15520	10.441	4.5455	0.	-13.393
15521	10.534	4.5455	5.e-002	1.161e-006
15522	10.534	4.2727	0.	-15.321
15523	10.441	4.3636	0.	-15.59
15524	10.534	4.3636	5.e-002	3.3034e-007
15525	10.534	4.0909	0.	-17.076
15526	10.441	4.1818	0.	-17.549
15527	10.534	4.1818	5.e-002	1.0702e-007
15528	10.534	3.9091	0.	-18.582
15529	10.441	4.	0.	-19.255
15530	10.534	4.	5.e-002	2.0042e-007
15531	10.534	3.7273	0.	-19.829
15532	10.441	3.8182	0.	-20.696
15533	10.534	3.8182	5.e-002	3.2993e-007
15534	10.534	3.5455	0.	-20.809
15535	10.441	3.6364	0.	-21.861
15536	10.534	3.6364	5.e-002	1.1696e-006
15537	10.534	3.3636	0.	-21.514
15538	10.441	3.4545	0.	-22.743
15539	10.534	3.4545	5.e-002	8.1266e-007
15540	10.534	3.1818	0.	-21.939
15541	10.441	3.2727	0.	-23.334
15542	10.534	3.2727	5.e-002	2.0709e-007
15543	10.534	3.	0.	-22.081
15544	10.441	3.0909	0.	-23.631
15545	10.534	3.0909	5.e-002	7.8426e-007
15546	10.534	2.8182	0.	-21.939
15547	10.441	2.9091	0.	-23.631
15548	10.534	2.9091	5.e-002	1.3618e-006
15549	10.534	2.6364	0.	-21.514
15550	10.441	2.7273	0.	-23.334
15551	10.534	2.7273	5.e-002	9.8915e-007
15552	10.534	2.4545	0.	-20.809
15553	10.441	2.5455	0.	-22.743
15554	10.534	2.5455	5.e-002	8.6389e-007
15555	10.534	2.2727	0.	-19.829
15556	10.441	2.3636	0.	-21.861
15557	10.534	2.3636	5.e-002	9.8652e-007
15558	10.534	2.0909	0.	-18.582
15559	10.441	2.1818	0.	-20.696
15560	10.534	2.1818	5.e-002	6.5635e-007
15561	10.534	1.9091	0.	-17.076
15562	10.441	2.	0.	-19.255
15563	10.534	2.	5.e-002	5.4802e-007
15564	10.534	1.7273	0.	-15.321
15565	10.441	1.8182	0.	-17.549
15566	10.534	1.8182	5.e-002	2.736e-007
15567	10.534	1.5455	0.	-13.332
15568	10.441	1.6364	0.	-15.59
15569	10.534	1.6364	5.e-002	5.2428e-007
15570	10.534	1.3636	0.	-11.122
15571	10.441	1.4545	0.	-13.393
15572	10.534	1.4545	5.e-002	4.2304e-007
15573	10.534	1.1818	0.	-8.7061
15574	10.441	1.2727	0.	-10.973
15575	10.534	1.2727	5.e-002	2.6935e-007
15576	10.534	1.	0.	-6.1026
15577	10.441	1.0909	0.	-8.3481
15578	10.534	1.0909	5.e-002	1.6613e-007
15579	10.534	0.81818	0.	-3.3299
15580	10.441	0.90909	0.	-5.5365
15581	10.534	0.90909	5.e-002	2.3907e-007
15582	10.534	0.63636	0.	-0.41582
15583	10.441	0.72727	0.	-2.5586
15584	10.534	0.72727	5.e-002	8.6257e-007
15585	10.534	0.45455	0.	4.5741e-003
15586	10.441	0.54545	0.	-2.6618e-003
15587	10.534	0.54545	5.e-002	6.1396e-007
15588	10.534	0.27273	0.	-1.6775e-004
15589	10.441	0.36364	0.	8.5254e-003
15590	10.534	0.36364	5.e-002	8.4931e-007
15591	10.441	0.18182	0.	-9.5062e-003
15592	10.534	0.18182	5.e-002	-1.6235e-005
15593	10.534	9.0909e-002	0.	-1.6727e-003
15594	10.349	5.7273	0.	-3.8903e-004
15595	10.256	5.8182	0.	-1.1351e-002
15596	10.349	5.8182	5.e-002	3.8031e-005
15597	10.349	5.9091	0.	-2.0567e-003
15598	10.349	5.5455	0.	5.6704e-003
15599	10.256	5.6364	0.	9.9835e-003
15600	10.349	5.6364	5.e-002	2.5948e-006
15601	10.349	5.3636	0.	-1.6046
15602	10.256	5.4545	0.	-0.5394
15603	10.349	5.4545	5.e-002	3.1489e-006
15604	10.349	5.1818	0.	-4.7841
15605	10.256	5.2727	0.	-3.9366
15606	10.349	5.2727	5.e-002	1.7983e-006
15607	10.349	5.	0.	-7.8005
15608	10.256	5.0909	0.	-7.1754
15609	10.349	5.0909	5.e-002	1.7728e-006
15610	10.349	4.8182	0.	-10.633
15611	10.256	4.9091	0.	-10.234
15612	10.349	4.9091	5.e-002	1.3095e-006
15613	10.349	4.6364	0.	-13.262
15614	10.256	4.7273	0.	-13.09
15615	10.349	4.7273	5.e-002	5.3155e-007
15616	10.349	4.4545	0.	-15.669
15617	10.256	4.5455	0.	-15.723
15618	10.349	4.5455	5.e-002	1.6114e-006
15619	10.349	4.2727	0.	-17.835
15620	10.256	4.3636	0.	-18.115
15621	10.349	4.3636	5.e-002	3.8003e-007
15622	10.349	4.0909	0.	-19.745
15623	10.256	4.1818	0.	-20.247
15624	10.349	4.1818	5.e-002	6.14e-007
15625	10.349	3.9091	0.	-21.385
15626	10.256	4.	0.	-22.105
15627	10.349	4.	5.e-002	2.9159e-007
15628	10.349	3.7273	0.	-22.744
15629	10.256	3.8182	0.	-23.674
15630	10.349	3.8182	5.e-002	6.412e-007
15631	10.349	3.5455	0.	-23.811
15632	10.256	3.6364	0.	-24.943
15633	10.349	3.6364	5.e-002	1.4912e-006
15634	10.349	3.3636	0.	-24.579
15635	10.256	3.4545	0.	-25.903
15636	10.349	3.4545	5.e-002	8.5713e-007
15637	10.349	3.1818	0.	-25.042
15638	10.256	3.2727	0.	-26.547
15639	10.349	3.2727	5.e-002	2.327e-007
15640	10.349	3.	0.	-25.197
15641	10.256	3.0909	0.	-26.871
15642	10.349	3.0909	5.e-002	1.0311e-006
15643	10.349	2.8182	0.	-25.042
15644	10.256	2.9091	0.	-26.871
15645	10.349	2.9091	5.e-002	1.3533e-006
15646	10.349	2.6364	0.	-24.579
15647	10.256	2.7273	0.	-26.547
15648	10.349	2.7273	5.e-002	1.2005e-006
15649	10.349	2.4545	0.	-23.811
15650	10.256	2.5455	0.	-25.903
15651	10.349	2.5455	5.e-002	8.1843e-007
15652	10.349	2.2727	0.	-22.744
15653	10.256	2.3636	0.	-24.943
15654	10.349	2.3636	5.e-002	4.3247e-007
15655	10.349	2.0909	0.	-21.385
15656	10.256	2.1818	0.	-23.674
15657	10.349	2.1818	5.e-002	8.2693e-007
15658	10.349	1.9091	0.	-19.745
15659	10.256	2.	0.	-22.105
15660	10.349	2.	5.e-002	4.5643e-007
15661	10.349	1.7273	0.	-17.835
15662	10.256	1.8182	0.	-20.247
15663	10.349	1.8182	5.e-002	6.6128e-007
15664	10.349	1.5455	0.	-15.669
15665	10.256	1.6364	0.	-18.115
15666	10.349	1.6364	5.e-002	4.4407e-007
15667	10.349	1.3636	0.	-13.262
15668	10.256	1.4545	0.	-15.723
15669	10.349	1.4545	5.e-002	2.2047e-007
15670	10.349	1.1818	0.	-10.633
15671	10.256	1.2727	0.	-13.09
15672	10.349	1.2727	5.e-002	4.1079e-007
15673	10.349	1.	0.	-7.8005
15674	10.256	1.0909	0.	-10.234
15675	10.349	1.0909	5.e-002	4.7679e-007
15676	10.349	0.81818	0.	-4.7841
15677	10.256	0.90909	0.	-7.1754
15678	10.349	0.90909	5.e-002	3.17e-007
15679	10.349	0.63636	0.	-1.6047
15680	10.256	0.72727	0.	-3.9366
15681	10.349	0.72727	5.e-002	9.2642e-007
15682	10.349	0.45455	0.	5.6712e-003
15683	10.256	0.54545	0.	-0.53941
15684	10.349	0.54545	5.e-002	8.9103e-007
15685	10.349	0.27273	0.	-3.8812e-004
15686	10.256	0.36364	0.	9.9847e-003
15687	10.349	0.36364	5.e-002	1.0216e-006
15688	10.256	0.18182	0.	-1.135e-002
15689	10.349	0.18182	5.e-002	-1.0269e-005
15690	10.349	9.0909e-002	0.	-2.0561e-003
15691	10.164	5.7273	0.	-1.0129e-003
15692	10.072	5.8182	0.	-1.3724e-002
15693	10.164	5.8182	5.e-002	3.212e-005
15694	10.164	5.9091	0.	-2.6582e-003
15695	10.164	5.5455	0.	6.8564e-003
15696	10.072	5.6364	0.	1.1279e-002
15697	10.164	5.6364	5.e-002	2.3664e-006
15698	10.164	5.3636	0.	-2.8894
15699	10.072	5.4545	0.	-1.7227
15700	10.164	5.4545	5.e-002	2.9504e-006
15701	10.164	5.1818	0.	-6.3465
15702	10.072	5.2727	0.	-5.4168
15703	10.164	5.2727	5.e-002	1.7165e-006
15704	10.164	5.	0.	-9.6268
15705	10.072	5.0909	0.	-8.9379
15706	10.164	5.0909	5.e-002	1.6075e-006
15707	10.164	4.8182	0.	-12.708
15708	10.072	4.9091	0.	-12.264
15709	10.164	4.9091	5.e-002	1.3132e-006
15710	10.164	4.6364	0.	-15.568
15711	10.072	4.7273	0.	-15.37
15712	10.164	4.7273	5.e-002	7.769e-007
15713	10.164	4.4545	0.	-18.187
15714	10.072	4.5455	0.	-18.235
15715	10.164	4.5455	5.e-002	1.4366e-006
15716	10.164	4.2727	0.	-20.544
15717	10.072	4.3636	0.	-20.838
15718	10.164	4.3636	5.e-002	5.1631e-007
15719	10.164	4.0909	0.	-22.623
15720	10.072	4.1818	0.	-23.158
15721	10.164	4.1818	5.e-002	4.5297e-007
15722	10.164	3.9091	0.	-24.409
15723	10.072	4.	0.	-25.18
15724	10.164	4.	5.e-002	3.6275e-007
15725	10.164	3.7273	0.	-25.889
15726	10.072	3.8182	0.	-26.888
15727	10.164	3.8182	5.e-002	7.3595e-007
15728	10.164	3.5455	0.	-27.051
15729	10.072	3.6364	0.	-28.27
15730	10.164	3.6364	5.e-002	1.319e-006
15731	10.164	3.3636	0.	-27.887
15732	10.072	3.4545	0.	-29.315
15733	10.164	3.4545	5.e-002	1.3796e-006
15734	10.164	3.1818	0.	-28.391
15735	10.072	3.2727	0.	-30.017
15736	10.164	3.2727	5.e-002	7.3664e-007
15737	10.164	3.	0.	-28.56
15738	10.072	3.0909	0.	-30.369
15739	10.164	3.0909	5.e-002	8.0204e-007
15740	10.164	2.8182	0.	-28.391
15741	10.072	2.9091	0.	-30.369
15742	10.164	2.9091	5.e-002	8.6701e-007
15743	10.164	2.6364	0.	-27.887
15744	10.072	2.7273	0.	-30.017
15745	10.164	2.7273	5.e-002	1.1735e-006
15746	10.164	2.4545	0.	-27.051
15747	10.072	2.5455	0.	-29.315
15748	10.164	2.5455	5.e-002	5.3066e-007
15749	10.164	2.2727	0.	-25.889
15750	10.072	2.3636	0.	-28.27
15751	10.164	2.3636	5.e-002	3.8215e-007
15752	10.164	2.0909	0.	-24.409
15753	10.072	2.1818	0.	-26.888
15754	10.164	2.1818	5.e-002	2.6079e-007
15755	10.164	1.9091	0.	-22.623
15756	10.072	2.	0.	-25.18
15757	10.164	2.	5.e-002	4.2042e-007
15758	10.164	1.7273	0.	-20.544
15759	10.072	1.8182	0.	-23.158
15760	10.164	1.8182	5.e-002	-4.8727e-009
15761	10.164	1.5455	0.	-18.187
15762	10.072	1.6364	0.	-20.838
15763	10.164	1.6364	5.e-002	4.601e-007
15764	10.164	1.3636	0.	-15.568
15765	10.072	1.4545	0.	-18.235
15766	10.164	1.4545	5.e-002	2.1046e-008
15767	10.164	1.1818	0.	-12.708
15768	10.072	1.2727	0.	-15.37
15769	10.164	1.2727	5.e-002	2.7568e-007
15770	10.164	1.	0.	-9.6268
15771	10.072	1.0909	0.	-12.264
15772	10.164	1.0909	5.e-002	3.5362e-007
15773	10.164	0.81818	0.	-6.3465
15774	10.072	0.90909	0.	-8.9379
15775	10.164	0.90909	5.e-002	3.2518e-007
15776	10.164	0.63636	0.	-2.8894
15777	10.072	0.72727	0.	-5.4168
15778	10.164	0.72727	5.e-002	1.0213e-006
15779	10.164	0.45455	0.	6.857e-003
15780	10.072	0.54545	0.	-1.7227
15781	10.164	0.54545	5.e-002	1.0886e-006
15782	10.164	0.27273	0.	-1.0117e-003
15783	10.072	0.36364	0.	1.128e-002
15784	10.164	0.36364	5.e-002	1.2035e-006
15785	10.072	0.18182	0.	-1.3723e-002
15786	10.164	0.18182	5.e-002	-2.3336e-005
15787	10.164	9.0909e-002	0.	-2.6574e-003
15788	9.9792	5.7273	0.	-2.3518e-003
15789	9.8868	5.8182	0.	-1.6844e-002
15790	9.9792	5.8182	5.e-002	2.8946e-005
15791	9.9792	5.9091	0.	-3.5653e-003
15792	9.9792	5.5455	0.	-0.31395
15793	9.8868	5.6364	0.	1.1658e-002
15794	9.9792	5.6364	5.e-002	2.3154e-006
15795	9.9792	5.3636	0.	-4.2689
15796	9.8868	5.4545	0.	-2.9938
15797	9.9792	5.4545	5.e-002	3.0616e-006
15798	9.9792	5.1818	0.	-8.0262
15799	9.8868	5.2727	0.	-7.0072
15800	9.9792	5.2727	5.e-002	1.7172e-006
15801	9.9792	5.	0.	-11.592
15802	9.8868	5.0909	0.	-10.834
15803	9.9792	5.0909	5.e-002	1.5559e-006
15804	9.9792	4.8182	0.	-14.943
15805	9.8868	4.9091	0.	-14.45
15806	9.9792	4.9091	5.e-002	1.286e-006
15807	9.9792	4.6364	0.	-18.054
15808	9.8868	4.7273	0.	-17.828
15809	9.9792	4.7273	5.e-002	6.6462e-007
15810	9.9792	4.4545	0.	-20.902
15811	9.8868	4.5455	0.	-20.944
15812	9.9792	4.5455	5.e-002	1.5891e-006
15813	9.9792	4.2727	0.	-23.467
15814	9.8868	4.3636	0.	-23.775
15815	9.9792	4.3636	5.e-002	6.4476e-007
15816	9.9792	4.0909	0.	-25.73
15817	9.8868	4.1818	0.	-26.3
15818	9.9792	4.1818	5.e-002	6.6432e-007
15819	9.9792	3.9091	0.	-27.674
15820	9.8868	4.	0.	-28.5
15821	9.9792	4.	5.e-002	4.6866e-007
15822	9.9792	3.7273	0.	-29.284
15823	9.8868	3.8182	0.	-30.359
15824	9.9792	3.8182	5.e-002	8.336e-007
15825	9.9792	3.5455	0.	-30.549
15826	9.8868	3.6364	0.	-31.863
15827	9.9792	3.6364	5.e-002	2.0684e-006
15828	9.9792	3.3636	0.	-31.46
15829	9.8868	3.4545	0.	-33.001
15830	9.9792	3.4545	5.e-002	1.194e-006
15831	9.9792	3.1818	0.	-32.009
15832	9.8868	3.2727	0.	-33.764
15833	9.9792	3.2727	5.e-002	5.2621e-007
15834	9.9792	3.	0.	-32.192
15835	9.8868	3.0909	0.	-34.148
15836	9.9792	3.0909	5.e-002	1.0512e-006
15837	9.9792	2.8182	0.	-32.009
15838	9.8868	2.9091	0.	-34.148
15839	9.9792	2.9091	5.e-002	1.0952e-006
15840	9.9792	2.6364	0.	-31.46
15841	9.8868	2.7273	0.	-33.764
15842	9.9792	2.7273	5.e-002	1.3778e-006
15843	9.9792	2.4545	0.	-30.549
15844	9.8868	2.5455	0.	-33.001
15845	9.9792	2.5455	5.e-002	7.2612e-007
15846	9.9792	2.2727	0.	-29.284
15847	9.8868	2.3636	0.	-31.863
15848	9.9792	2.3636	5.e-002	5.5352e-007
15849	9.9792	2.0909	0.	-27.674
15850	9.8868	2.1818	0.	-30.359
15851	9.9792	2.1818	5.e-002	-5.7146e-008
15852	9.9792	1.9091	0.	-25.73
15853	9.8868	2.	0.	-28.5
15854	9.9792	2.	5.e-002	2.6883e-007
15855	9.9792	1.7273	0.	-23.467
15856	9.8868	1.8182	0.	-26.3
15857	9.9792	1.8182	5.e-002	3.5786e-007
15858	9.9792	1.5455	0.	-20.902
15859	9.8868	1.6364	0.	-23.775
15860	9.9792	1.6364	5.e-002	5.4571e-007
15861	9.9792	1.3636	0.	-18.054
15862	9.8868	1.4545	0.	-20.944
15863	9.9792	1.4545	5.e-002	5.5418e-007
15864	9.9792	1.1818	0.	-14.943
15865	9.8868	1.2727	0.	-17.828
15866	9.9792	1.2727	5.e-002	3.7122e-007
15867	9.9792	1.	0.	-11.592
15868	9.8868	1.0909	0.	-14.45
15869	9.9792	1.0909	5.e-002	5.5045e-007
15870	9.9792	0.81818	0.	-8.0262
15871	9.8868	0.90909	0.	-10.834
15872	9.9792	0.90909	5.e-002	2.0266e-007
15873	9.9792	0.63636	0.	-4.269
15874	9.8868	0.72727	0.	-7.0072
15875	9.9792	0.72727	5.e-002	8.5521e-007
15876	9.9792	0.45455	0.	-0.31395
15877	9.8868	0.54545	0.	-2.9938
15878	9.9792	0.54545	5.e-002	1.5214e-006
15879	9.9792	0.27273	0.	-2.3511e-003
15880	9.8868	0.36364	0.	1.1659e-002
15881	9.9792	0.36364	5.e-002	1.4509e-006
15882	9.8868	0.18182	0.	-1.6843e-002
15883	9.9792	0.18182	5.e-002	-2.4637e-005
15884	9.9792	9.0909e-002	0.	-3.564e-003
15885	9.7944	5.7273	0.	-5.0606e-003
15886	9.702	5.8182	0.	-2.1059e-002
15887	9.7944	5.8182	5.e-002	3.5987e-005
15888	9.7944	5.9091	0.	-4.907e-003
15889	9.7944	5.5455	0.	-1.4583
15890	9.702	5.6364	0.	-2.7631e-003
15891	9.7944	5.6364	5.e-002	2.5646e-006
15892	9.7944	5.3636	0.	-5.7503
15893	9.702	5.4545	0.	-4.3575
15894	9.7944	5.4545	5.e-002	3.3812e-006
15895	9.7944	5.1818	0.	-9.8328
15896	9.702	5.2727	0.	-8.7171
15897	9.7944	5.2727	5.e-002	2.463e-006
15898	9.7944	5.	0.	-13.709
15899	9.702	5.0909	0.	-12.876
15900	9.7944	5.0909	5.e-002	2.2731e-006
15901	9.7944	4.8182	0.	-17.352
15902	9.702	4.9091	0.	-16.806
15903	9.7944	4.9091	5.e-002	1.9806e-006
15904	9.7944	4.6364	0.	-20.734
15905	9.702	4.7273	0.	-20.479
15906	9.7944	4.7273	5.e-002	1.0685e-006
15907	9.7944	4.4545	0.	-23.832
15908	9.702	4.5455	0.	-23.867
15909	9.7944	4.5455	5.e-002	2.0782e-006
15910	9.7944	4.2727	0.	-26.623
15911	9.702	4.3636	0.	-26.946
15912	9.7944	4.3636	5.e-002	1.7377e-006
15913	9.7944	4.0909	0.	-29.084
15914	9.702	4.1818	0.	-29.693
15915	9.7944	4.1818	5.e-002	8.9797e-007
15916	9.7944	3.9091	0.	-31.199
15917	9.702	4.	0.	-32.086
15918	9.7944	4.	5.e-002	1.0694e-006
15919	9.7944	3.7273	0.	-32.952
15920	9.702	3.8182	0.	-34.109
15921	9.7944	3.8182	5.e-002	1.9111e-006
15922	9.7944	3.5455	0.	-34.329
15923	9.702	3.6364	0.	-35.746
15924	9.7944	3.6364	5.e-002	2.4043e-006
15925	9.7944	3.3636	0.	-35.32
15926	9.702	3.4545	0.	-36.984
15927	9.7944	3.4545	5.e-002	1.9733e-006
15928	9.7944	3.1818	0.	-35.917
15929	9.702	3.2727	0.	-37.815
15930	9.7944	3.2727	5.e-002	1.7568e-006
15931	9.7944	3.	0.	-36.117
15932	9.702	3.0909	0.	-38.232
15933	9.7944	3.0909	5.e-002	1.0623e-006
15934	9.7944	2.8182	0.	-35.917
15935	9.702	2.9091	0.	-38.232
15936	9.7944	2.9091	5.e-002	1.7988e-006
15937	9.7944	2.6364	0.	-35.32
15938	9.702	2.7273	0.	-37.815
15939	9.7944	2.7273	5.e-002	1.1111e-006
15940	9.7944	2.4545	0.	-34.329
15941	9.702	2.5455	0.	-36.984
15942	9.7944	2.5455	5.e-002	1.3842e-006
15943	9.7944	2.2727	0.	-32.952
15944	9.702	2.3636	0.	-35.746
15945	9.7944	2.3636	5.e-002	1.1892e-006
15946	9.7944	2.0909	0.	-31.199
15947	9.702	2.1818	0.	-34.109
15948	9.7944	2.1818	5.e-002	1.0344e-006
15949	9.7944	1.9091	0.	-29.084
15950	9.702	2.	0.	-32.086
15951	9.7944	2.	5.e-002	9.2545e-007
15952	9.7944	1.7273	0.	-26.623
15953	9.702	1.8182	0.	-29.693
15954	9.7944	1.8182	5.e-002	1.0367e-006
15955	9.7944	1.5455	0.	-23.832
15956	9.702	1.6364	0.	-26.946
15957	9.7944	1.6364	5.e-002	9.5423e-007
15958	9.7944	1.3636	0.	-20.734
15959	9.702	1.4545	0.	-23.867
15960	9.7944	1.4545	5.e-002	6.5713e-007
15961	9.7944	1.1818	0.	-17.352
15962	9.702	1.2727	0.	-20.479
15963	9.7944	1.2727	5.e-002	7.0119e-007
15964	9.7944	1.	0.	-13.709
15965	9.702	1.0909	0.	-16.806
15966	9.7944	1.0909	5.e-002	9.3391e-007
15967	9.7944	0.81818	0.	-9.8328
15968	9.702	0.90909	0.	-12.876
15969	9.7944	0.90909	5.e-002	8.4663e-007
15970	9.7944	0.63636	0.	-5.7503
15971	9.702	0.72727	0.	-8.7171
15972	9.7944	0.72727	5.e-002	1.2469e-006
15973	9.7944	0.45455	0.	-1.4583
15974	9.702	0.54545	0.	-4.3575
15975	9.7944	0.54545	5.e-002	1.3159e-006
15976	9.7944	0.27273	0.	-5.0592e-003
15977	9.702	0.36364	0.	-2.7603e-003
15978	9.7944	0.36364	5.e-002	1.2095e-006
15979	9.702	0.18182	0.	-2.1059e-002
15980	9.7944	0.18182	5.e-002	-2.2938e-005
15981	9.7944	9.0909e-002	0.	-4.9058e-003
15982	9.6096	5.7273	0.	-1.0753e-002
15983	9.5172	5.8182	0.	-2.6946e-002
15984	9.6096	5.8182	5.e-002	3.7124e-005
15985	9.6096	5.9091	0.	-6.8789e-003
15986	9.6096	5.5455	0.	-2.684
15987	9.5172	5.6364	0.	-0.8479
15988	9.6096	5.6364	5.e-002	2.8286e-006
15989	9.6096	5.3636	0.	-7.3418
15990	9.5172	5.4545	0.	-5.821
15991	9.6096	5.4545	5.e-002	3.3378e-006
15992	9.6096	5.1818	0.	-11.777
15993	9.5172	5.2727	0.	-10.556
15994	9.6096	5.2727	5.e-002	2.3115e-006
15995	9.6096	5.	0.	-15.989
15996	9.5172	5.0909	0.	-15.075
15997	9.6096	5.0909	5.e-002	2.3341e-006
15998	9.6096	4.8182	0.	-19.949
15999	9.5172	4.9091	0.	-19.346
16000	9.6096	4.9091	5.e-002	1.9772e-006
16001	9.6096	4.6364	0.	-23.627
16002	9.5172	4.7273	0.	-23.339
16003	9.6096	4.7273	5.e-002	1.5621e-006
16004	9.6096	4.4545	0.	-26.996
16005	9.5172	4.5455	0.	-27.023
16006	9.6096	4.5455	5.e-002	2.2161e-006
16007	9.6096	4.2727	0.	-30.03
16008	9.5172	4.3636	0.	-30.371
16009	9.6096	4.3636	5.e-002	1.3543e-006
16010	9.6096	4.0909	0.	-32.708
16011	9.5172	4.1818	0.	-33.358
16012	9.6096	4.1818	5.e-002	9.2171e-007
16013	9.6096	3.9091	0.	-35.009
16014	9.5172	4.	0.	-35.961
16015	9.6096	4.	5.e-002	1.1392e-006
16016	9.6096	3.7273	0.	-36.916
16017	9.5172	3.8182	0.	-38.162
16018	9.6096	3.8182	5.e-002	1.966e-006
16019	9.6096	3.5455	0.	-38.414
16020	9.5172	3.6364	0.	-39.943
16021	9.6096	3.6364	5.e-002	8.4656e-007
16022	9.6096	3.3636	0.	-39.492
16023	9.5172	3.4545	0.	-41.29
16024	9.6096	3.4545	5.e-002	1.5697e-006
16025	9.6096	3.1818	0.	-40.143
16026	9.5172	3.2727	0.	-42.194
16027	9.6096	3.2727	5.e-002	8.4396e-007
16028	9.6096	3.	0.	-40.36
16029	9.5172	3.0909	0.	-42.648
16030	9.6096	3.0909	5.e-002	1.5529e-006
16031	9.6096	2.8182	0.	-40.143
16032	9.5172	2.9091	0.	-42.648
16033	9.6096	2.9091	5.e-002	1.3084e-006
16034	9.6096	2.6364	0.	-39.492
16035	9.5172	2.7273	0.	-42.194
16036	9.6096	2.7273	5.e-002	1.5463e-006
16037	9.6096	2.4545	0.	-38.414
16038	9.5172	2.5455	0.	-41.29
16039	9.6096	2.5455	5.e-002	8.5117e-007
16040	9.6096	2.2727	0.	-36.916
16041	9.5172	2.3636	0.	-39.943
16042	9.6096	2.3636	5.e-002	1.1047e-006
16043	9.6096	2.0909	0.	-35.009
16044	9.5172	2.1818	0.	-38.162
16045	9.6096	2.1818	5.e-002	9.1648e-007
16046	9.6096	1.9091	0.	-32.708
16047	9.5172	2.	0.	-35.961
16048	9.6096	2.	5.e-002	3.1608e-007
16049	9.6096	1.7273	0.	-30.03
16050	9.5172	1.8182	0.	-33.358
16051	9.6096	1.8182	5.e-002	6.4431e-007
16052	9.6096	1.5455	0.	-26.996
16053	9.5172	1.6364	0.	-30.371
16054	9.6096	1.6364	5.e-002	5.9472e-007
16055	9.6096	1.3636	0.	-23.627
16056	9.5172	1.4545	0.	-27.023
16057	9.6096	1.4545	5.e-002	4.2994e-007
16058	9.6096	1.1818	0.	-19.949
16059	9.5172	1.2727	0.	-23.339
16060	9.6096	1.2727	5.e-002	4.6892e-007
16061	9.6096	1.	0.	-15.989
16062	9.5172	1.0909	0.	-19.346
16063	9.6096	1.0909	5.e-002	6.9178e-007
16064	9.6096	0.81818	0.	-11.777
16065	9.5172	0.90909	0.	-15.075
16066	9.6096	0.90909	5.e-002	1.2379e-006
16067	9.6096	0.63636	0.	-7.3418
16068	9.5172	0.72727	0.	-10.556
16069	9.6096	0.72727	5.e-002	1.3117e-006
16070	9.6096	0.45455	0.	-2.684
16071	9.5172	0.54545	0.	-5.8211
16072	9.6096	0.54545	5.e-002	1.426e-006
16073	9.6096	0.27273	0.	-1.0752e-002
16074	9.5172	0.36364	0.	-0.84789
16075	9.6096	0.36364	5.e-002	1.1201e-006
16076	9.5172	0.18182	0.	-2.6945e-002
16077	9.6096	0.18182	5.e-002	-1.7674e-005
16078	9.6096	9.0909e-002	0.	-6.8785e-003
16079	9.4248	5.7273	0.	-2.4644e-002
16080	9.3324	5.8182	0.	-3.5536e-002
16081	9.4248	5.8182	5.e-002	3.2572e-005
16082	9.4248	5.9091	0.	-9.791e-003
16083	9.4248	5.5455	0.	-3.9977
16084	9.3324	5.6364	0.	-1.9959
16085	9.4248	5.6364	5.e-002	2.0353e-006
16086	9.4248	5.3636	0.	-9.0523
16087	9.3324	5.4545	0.	-7.3926
16088	9.4248	5.4545	5.e-002	3.537e-006
16089	9.4248	5.1818	0.	-13.87
16090	9.3324	5.2727	0.	-12.535
16091	9.4248	5.2727	5.e-002	2.2801e-006
16092	9.4248	5.	0.	-18.447
16093	9.3324	5.0909	0.	-17.444
16094	9.4248	5.0909	5.e-002	1.94e-006
16095	9.4248	4.8182	0.	-22.751
16096	9.3324	4.9091	0.	-22.086
16097	9.4248	4.9091	5.e-002	1.7991e-006
16098	9.4248	4.6364	0.	-26.749
16099	9.3324	4.7273	0.	-26.425
16100	9.4248	4.7273	5.e-002	1.8535e-006
16101	9.4248	4.4545	0.	-30.412
16102	9.3324	4.5455	0.	-30.43
16103	9.4248	4.5455	5.e-002	2.0118e-006
16104	9.4248	4.2727	0.	-33.712
16105	9.3324	4.3636	0.	-34.071
16106	9.4248	4.3636	5.e-002	1.744e-006
16107	9.4248	4.0909	0.	-36.624
16108	9.3324	4.1818	0.	-37.319
16109	9.4248	4.1818	5.e-002	1.0405e-006
16110	9.4248	3.9091	0.	-39.127
16111	9.3324	4.	0.	-40.151
16112	9.4248	4.	5.e-002	8.7685e-007
16113	9.4248	3.7273	0.	-41.202
16114	9.3324	3.8182	0.	-42.544
16115	9.4248	3.8182	5.e-002	1.1887e-006
16116	9.4248	3.5455	0.	-42.832
16117	9.3324	3.6364	0.	-44.482
16118	9.4248	3.6364	5.e-002	1.3812e-006
16119	9.4248	3.3636	0.	-44.005
16120	9.3324	3.4545	0.	-45.948
16121	9.4248	3.4545	5.e-002	1.1575e-006
16122	9.4248	3.1818	0.	-44.712
16123	9.3324	3.2727	0.	-46.932
16124	9.4248	3.2727	5.e-002	4.0468e-007
16125	9.4248	3.	0.	-44.949
16126	9.3324	3.0909	0.	-47.425
16127	9.4248	3.0909	5.e-002	1.3633e-007
16128	9.4248	2.8182	0.	-44.712
16129	9.3324	2.9091	0.	-47.425
16130	9.4248	2.9091	5.e-002	1.2951e-006
16131	9.4248	2.6364	0.	-44.005
16132	9.3324	2.7273	0.	-46.932
16133	9.4248	2.7273	5.e-002	1.0279e-006
16134	9.4248	2.4545	0.	-42.832
16135	9.3324	2.5455	0.	-45.948
16136	9.4248	2.5455	5.e-002	7.7798e-007
16137	9.4248	2.2727	0.	-41.202
16138	9.3324	2.3636	0.	-44.482
16139	9.4248	2.3636	5.e-002	5.4538e-007
16140	9.4248	2.0909	0.	-39.127
16141	9.3324	2.1818	0.	-42.544
16142	9.4248	2.1818	5.e-002	-1.7008e-007
16143	9.4248	1.9091	0.	-36.624
16144	9.3324	2.	0.	-40.151
16145	9.4248	2.	5.e-002	-3.0644e-007
16146	9.4248	1.7273	0.	-33.712
16147	9.3324	1.8182	0.	-37.319
16148	9.4248	1.8182	5.e-002	-2.9509e-009
16149	9.4248	1.5455	0.	-30.412
16150	9.3324	1.6364	0.	-34.071
16151	9.4248	1.6364	5.e-002	-3.1087e-007
16152	9.4248	1.3636	0.	-26.749
16153	9.3324	1.4545	0.	-30.43
16154	9.4248	1.4545	5.e-002	1.789e-007
16155	9.4248	1.1818	0.	-22.751
16156	9.3324	1.2727	0.	-26.425
16157	9.4248	1.2727	5.e-002	6.3606e-008
16158	9.4248	1.	0.	-18.447
16159	9.3324	1.0909	0.	-22.086
16160	9.4248	1.0909	5.e-002	-4.5762e-008
16161	9.4248	0.81818	0.	-13.87
16162	9.3324	0.90909	0.	-17.444
16163	9.4248	0.90909	5.e-002	7.4405e-007
16164	9.4248	0.63636	0.	-9.0524
16165	9.3324	0.72727	0.	-12.535
16166	9.4248	0.72727	5.e-002	1.2627e-006
16167	9.4248	0.45455	0.	-3.9977
16168	9.3324	0.54545	0.	-7.3926
16169	9.4248	0.54545	5.e-002	1.3192e-006
16170	9.4248	0.27273	0.	-2.4643e-002
16171	9.3324	0.36364	0.	-1.9959
16172	9.4248	0.36364	5.e-002	5.9009e-007
16173	9.3324	0.18182	0.	-3.5535e-002
16174	9.4248	0.18182	5.e-002	-1.7405e-005
16175	9.4248	9.0909e-002	0.	-9.7893e-003
16176	9.24	5.7273	0.	-7.5523e-002
16177	9.1476	5.8182	0.	-4.8846e-002
16178	9.24	5.8182	5.e-002	2.5385e-005
16179	9.24	5.9091	0.	-1.4155e-002
16180	9.24	5.5455	0.	-5.4061
16181	9.1476	5.6364	0.	-3.2269
16182	9.24	5.6364	5.e-002	3.0196e-006
16183	9.24	5.3636	0.	-10.892
16184	9.1476	5.4545	0.	-9.0806
16185	9.24	5.4545	5.e-002	3.3886e-006
16186	9.24	5.1818	0.	-16.125
16187	9.1476	5.2727	0.	-14.665
16188	9.24	5.2727	5.e-002	2.2506e-006
16189	9.24	5.	0.	-21.098
16190	9.1476	5.0909	0.	-19.998
16191	9.24	5.0909	5.e-002	2.5203e-006
16192	9.24	4.8182	0.	-25.774
16193	9.1476	4.9091	0.	-25.041
16194	9.24	4.9091	5.e-002	2.0254e-006
16195	9.24	4.6364	0.	-30.12
16196	9.1476	4.7273	0.	-29.757
16197	9.24	4.7273	5.e-002	1.6512e-006
16198	9.24	4.4545	0.	-34.102
16199	9.1476	4.5455	0.	-34.111
16200	9.24	4.5455	5.e-002	2.6345e-006
16201	9.24	4.2727	0.	-37.691
16202	9.1476	4.3636	0.	-38.069
16203	9.24	4.3636	5.e-002	1.2263e-006
16204	9.24	4.0909	0.	-40.858
16205	9.1476	4.1818	0.	-41.601
16206	9.24	4.1818	5.e-002	1.2987e-006
16207	9.24	3.9091	0.	-43.58
16208	9.1476	4.	0.	-44.681
16209	9.24	4.	5.e-002	1.0629e-006
16210	9.24	3.7273	0.	-45.837
16211	9.1476	3.8182	0.	-47.284
16212	9.24	3.8182	5.e-002	8.122e-007
16213	9.24	3.5455	0.	-47.61
16214	9.1476	3.6364	0.	-49.392
16215	9.24	3.6364	5.e-002	1.9975e-006
16216	9.24	3.3636	0.	-48.886
16217	9.1476	3.4545	0.	-50.987
16218	9.24	3.4545	5.e-002	1.6958e-006
16219	9.24	3.1818	0.	-49.656
16220	9.1476	3.2727	0.	-52.057
16221	9.24	3.2727	5.e-002	9.2979e-007
16222	9.24	3.	0.	-49.913
16223	9.1476	3.0909	0.	-52.594
16224	9.24	3.0909	5.e-002	6.276e-007
16225	9.24	2.8182	0.	-49.656
16226	9.1476	2.9091	0.	-52.594
16227	9.24	2.9091	5.e-002	3.2595e-007
16228	9.24	2.6364	0.	-48.886
16229	9.1476	2.7273	0.	-52.057
16230	9.24	2.7273	5.e-002	9.8118e-007
16231	9.24	2.4545	0.	-47.61
16232	9.1476	2.5455	0.	-50.987
16233	9.24	2.5455	5.e-002	6.9682e-007
16234	9.24	2.2727	0.	-45.837
16235	9.1476	2.3636	0.	-49.392
16236	9.24	2.3636	5.e-002	4.2929e-007
16237	9.24	2.0909	0.	-43.58
16238	9.1476	2.1818	0.	-47.284
16239	9.24	2.1818	5.e-002	-2.8281e-007
16240	9.24	1.9091	0.	-40.858
16241	9.1476	2.	0.	-44.681
16242	9.24	2.	5.e-002	-4.7157e-007
16243	9.24	1.7273	0.	-37.691
16244	9.1476	1.8182	0.	-41.601
16245	9.24	1.8182	5.e-002	-1.0081e-007
16246	9.24	1.5455	0.	-34.102
16247	9.1476	1.6364	0.	-38.069
16248	9.24	1.6364	5.e-002	2.6701e-007
16249	9.24	1.3636	0.	-30.12
16250	9.1476	1.4545	0.	-34.111
16251	9.24	1.4545	5.e-002	-4.5616e-007
16252	9.24	1.1818	0.	-25.774
16253	9.1476	1.2727	0.	-29.757
16254	9.24	1.2727	5.e-002	2.1365e-007
16255	9.24	1.	0.	-21.098
16256	9.1476	1.0909	0.	-25.041
16257	9.24	1.0909	5.e-002	-1.2487e-007
16258	9.24	0.81818	0.	-16.125
16259	9.1476	0.90909	0.	-19.998
16260	9.24	0.90909	5.e-002	9.5714e-008
16261	9.24	0.63636	0.	-10.892
16262	9.1476	0.72727	0.	-14.665
16263	9.24	0.72727	5.e-002	7.3038e-007
16264	9.24	0.45455	0.	-5.4061
16265	9.1476	0.54545	0.	-9.0806
16266	9.24	0.54545	5.e-002	5.2702e-007
16267	9.24	0.27273	0.	-7.552e-002
16268	9.1476	0.36364	0.	-3.2269
16269	9.24	0.36364	5.e-002	1.0787e-006
16270	9.1476	0.18182	0.	-4.8845e-002
16271	9.24	0.18182	5.e-002	-2.4548e-005
16272	9.24	9.0909e-002	0.	-1.4155e-002
16273	9.0552	5.7273	0.	-0.47389
16274	8.9628	5.8182	0.	-7.1362e-002
16275	9.0552	5.8182	5.e-002	3.6587e-005
16276	9.0552	5.9091	0.	-2.0884e-002
16277	9.0552	5.5455	0.	-6.9169
16278	8.9628	5.6364	0.	-4.5452
16279	9.0552	5.6364	5.e-002	4.0311e-006
16280	9.0552	5.3636	0.	-12.87
16281	8.9628	5.4545	0.	-10.894
16282	9.0552	5.4545	5.e-002	4.2551e-006
16283	9.0552	5.1818	0.	-18.553
16284	8.9628	5.2727	0.	-16.958
16285	9.0552	5.2727	5.e-002	2.9184e-006
16286	9.0552	5.	0.	-23.956
16287	8.9628	5.0909	0.	-22.751
16288	9.0552	5.0909	5.e-002	2.6752e-006
16289	9.0552	4.8182	0.	-29.038
16290	8.9628	4.9091	0.	-28.231
16291	9.0552	4.9091	5.e-002	2.4012e-006
16292	9.0552	4.6364	0.	-33.761
16293	8.9628	4.7273	0.	-33.356
16294	9.0552	4.7273	5.e-002	2.0895e-006
16295	9.0552	4.4545	0.	-38.09
16296	8.9628	4.5455	0.	-38.088
16297	9.0552	4.5455	5.e-002	2.1184e-006
16298	9.0552	4.2727	0.	-41.992
16299	8.9628	4.3636	0.	-42.391
16300	9.0552	4.3636	5.e-002	1.61e-006
16301	9.0552	4.0909	0.	-45.436
16302	8.9628	4.1818	0.	-46.232
16303	9.0552	4.1818	5.e-002	1.0003e-006
16304	9.0552	3.9091	0.	-48.397
16305	8.9628	4.	0.	-49.581
16306	9.0552	4.	5.e-002	1.249e-006
16307	9.0552	3.7273	0.	-50.851
16308	8.9628	3.8182	0.	-52.412
16309	9.0552	3.8182	5.e-002	1.4829e-006
16310	9.0552	3.5455	0.	-52.78
16311	8.9628	3.6364	0.	-54.705
16312	9.0552	3.6364	5.e-002	1.672e-006
16313	9.0552	3.3636	0.	-54.168
16314	8.9628	3.4545	0.	-56.44
16315	9.0552	3.4545	5.e-002	1.7874e-006
16316	9.0552	3.1818	0.	-55.006
16317	8.9628	3.2727	0.	-57.604
16318	9.0552	3.2727	5.e-002	9.8212e-007
16319	9.0552	3.	0.	-55.286
16320	8.9628	3.0909	0.	-58.189
16321	9.0552	3.0909	5.e-002	1.1209e-006
16322	9.0552	2.8182	0.	-55.006
16323	8.9628	2.9091	0.	-58.189
16324	9.0552	2.9091	5.e-002	1.7387e-006
16325	9.0552	2.6364	0.	-54.168
16326	8.9628	2.7273	0.	-57.604
16327	9.0552	2.7273	5.e-002	1.4093e-006
16328	9.0552	2.4545	0.	-52.78
16329	8.9628	2.5455	0.	-56.44
16330	9.0552	2.5455	5.e-002	1.3989e-007
16331	9.0552	2.2727	0.	-50.851
16332	8.9628	2.3636	0.	-54.705
16333	9.0552	2.3636	5.e-002	-1.5885e-007
16334	9.0552	2.0909	0.	-48.397
16335	8.9628	2.1818	0.	-52.412
16336	9.0552	2.1818	5.e-002	-9.1192e-007
16337	9.0552	1.9091	0.	-45.436
16338	8.9628	2.	0.	-49.581
16339	9.0552	2.	5.e-002	-1.6717e-007
16340	9.0552	1.7273	0.	-41.992
16341	8.9628	1.8182	0.	-46.232
16342	9.0552	1.8182	5.e-002	7.608e-008
16343	9.0552	1.5455	0.	-38.09
16344	8.9628	1.6364	0.	-42.391
16345	9.0552	1.6364	5.e-002	-1.451e-006
16346	9.0552	1.3636	0.	-33.761
16347	8.9628	1.4545	0.	-38.088
16348	9.0552	1.4545	5.e-002	-4.9812e-007
16349	9.0552	1.1818	0.	-29.038
16350	8.9628	1.2727	0.	-33.356
16351	9.0552	1.2727	5.e-002	-3.1211e-007
16352	9.0552	1.	0.	-23.956
16353	8.9628	1.0909	0.	-28.231
16354	9.0552	1.0909	5.e-002	-9.5769e-007
16355	9.0552	0.81818	0.	-18.553
16356	8.9628	0.90909	0.	-22.751
16357	9.0552	0.90909	5.e-002	-9.8735e-007
16358	9.0552	0.63636	0.	-12.87
16359	8.9628	0.72727	0.	-16.958
16360	9.0552	0.72727	5.e-002	4.2416e-008
16361	9.0552	0.45455	0.	-6.9169
16362	8.9628	0.54545	0.	-10.894
16363	9.0552	0.54545	5.e-002	5.7709e-007
16364	9.0552	0.27273	0.	-0.47389
16365	8.9628	0.36364	0.	-4.5452
16366	9.0552	0.36364	5.e-002	4.6432e-007
16367	8.9628	0.18182	0.	-7.136e-002
16368	9.0552	0.18182	5.e-002	-2.4436e-005
16369	9.0552	9.0909e-002	0.	-2.0883e-002
16370	8.8704	5.7273	0.	-1.4838
16371	8.778	5.8182	0.	-0.11506
16372	8.8704	5.8182	5.e-002	2.9278e-005
16373	8.8704	5.9091	0.	-3.1733e-002
16374	8.8704	5.5455	0.	-8.5379
16375	8.778	5.6364	0.	-5.9571
16376	8.8704	5.6364	5.e-002	3.9835e-006
16377	8.8704	5.3636	0.	-14.998
16378	8.778	5.4545	0.	-12.844
16379	8.8704	5.4545	5.e-002	3.8747e-006
16380	8.8704	5.1818	0.	-21.171
16381	8.778	5.2727	0.	-19.428
16382	8.8704	5.2727	5.e-002	2.9379e-006
16383	8.8704	5.	0.	-27.04
16384	8.778	5.0909	0.	-25.72
16385	8.8704	5.0909	5.e-002	2.6875e-006
16386	8.8704	4.8182	0.	-32.562
16387	8.778	4.9091	0.	-31.673
16388	8.8704	4.9091	5.e-002	2.8288e-006
16389	8.8704	4.6364	0.	-37.695
16390	8.778	4.7273	0.	-37.243
16391	8.8704	4.7273	5.e-002	2.7294e-006
16392	8.8704	4.4545	0.	-42.4
16393	8.778	4.5455	0.	-42.386
16394	8.8704	4.5455	5.e-002	2.4705e-006
16395	8.8704	4.2727	0.	-46.642
16396	8.778	4.3636	0.	-47.064
16397	8.8704	4.3636	5.e-002	9.9164e-007
16398	8.8704	4.0909	0.	-50.387
16399	8.778	4.1818	0.	-51.24
16400	8.8704	4.1818	5.e-002	2.0366e-006
16401	8.8704	3.9091	0.	-53.607
16402	8.778	4.	0.	-54.882
16403	8.8704	4.	5.e-002	1.4237e-006
16404	8.8704	3.7273	0.	-56.277
16405	8.778	3.8182	0.	-57.962
16406	8.8704	3.8182	5.e-002	1.5623e-006
16407	8.8704	3.5455	0.	-58.375
16408	8.778	3.6364	0.	-60.455
16409	8.8704	3.6364	5.e-002	1.2465e-006
16410	8.8704	3.3636	0.	-59.886
16411	8.778	3.4545	0.	-62.342
16412	8.8704	3.4545	5.e-002	9.128e-007
16413	8.8704	3.1818	0.	-60.797
16414	8.778	3.2727	0.	-63.609
16415	8.8704	3.2727	5.e-002	1.0348e-006
16416	8.8704	3.	0.	-61.101
16417	8.778	3.0909	0.	-64.245
16418	8.8704	3.0909	5.e-002	1.1402e-006
16419	8.8704	2.8182	0.	-60.797
16420	8.778	2.9091	0.	-64.245
16421	8.8704	2.9091	5.e-002	7.676e-007
16422	8.8704	2.6364	0.	-59.886
16423	8.778	2.7273	0.	-63.609
16424	8.8704	2.7273	5.e-002	8.752e-007
16425	8.8704	2.4545	0.	-58.375
16426	8.778	2.5455	0.	-62.342
16427	8.8704	2.5455	5.e-002	9.9652e-007
16428	8.8704	2.2727	0.	-56.277
16429	8.778	2.3636	0.	-60.455
16430	8.8704	2.3636	5.e-002	-2.9356e-007
16431	8.8704	2.0909	0.	-53.607
16432	8.778	2.1818	0.	-57.962
16433	8.8704	2.1818	5.e-002	3.8546e-007
16434	8.8704	1.9091	0.	-50.387
16435	8.778	2.	0.	-54.882
16436	8.8704	2.	5.e-002	-3.3495e-007
16437	8.8704	1.7273	0.	-46.642
16438	8.778	1.8182	0.	-51.24
16439	8.8704	1.8182	5.e-002	-1.1796e-006
16440	8.8704	1.5455	0.	-42.4
16441	8.778	1.6364	0.	-47.064
16442	8.8704	1.6364	5.e-002	-1.1211e-007
16443	8.8704	1.3636	0.	-37.695
16444	8.778	1.4545	0.	-42.386
16445	8.8704	1.4545	5.e-002	-2.207e-007
16446	8.8704	1.1818	0.	-32.562
16447	8.778	1.2727	0.	-37.243
16448	8.8704	1.2727	5.e-002	-5.6452e-007
16449	8.8704	1.	0.	-27.04
16450	8.778	1.0909	0.	-31.673
16451	8.8704	1.0909	5.e-002	-4.1839e-007
16452	8.8704	0.81818	0.	-21.171
16453	8.778	0.90909	0.	-25.72
16454	8.8704	0.90909	5.e-002	-5.5426e-007
16455	8.8704	0.63636	0.	-14.998
16456	8.778	0.72727	0.	-19.428
16457	8.8704	0.72727	5.e-002	-6.3539e-007
16458	8.8704	0.45455	0.	-8.5379
16459	8.778	0.54545	0.	-12.844
16460	8.8704	0.54545	5.e-002	-1.0333e-006
16461	8.8704	0.27273	0.	-1.4838
16462	8.778	0.36364	0.	-5.9571
16463	8.8704	0.36364	5.e-002	-1.4353e-006
16464	8.778	0.18182	0.	-0.11506
16465	8.8704	0.18182	5.e-002	-2.4455e-005
16466	8.8704	9.0909e-002	0.	-3.1733e-002
16467	8.6856	5.7273	0.	-2.6528
16468	8.5932	5.8182	0.	-0.22136
16469	8.6856	5.8182	5.e-002	4.6029e-005
16470	8.6856	5.9091	0.	-5.0516e-002
16471	8.6856	5.5455	0.	-10.277
16472	8.5932	5.6364	0.	-7.4693
16473	8.6856	5.6364	5.e-002	3.4591e-006
16474	8.6856	5.3636	0.	-17.288
16475	8.5932	5.4545	0.	-14.939
16476	8.6856	5.4545	5.e-002	4.6227e-006
16477	8.6856	5.1818	0.	-23.991
16478	8.5932	5.2727	0.	-22.088
16479	8.6856	5.2727	5.e-002	3.07e-006
16480	8.6856	5.	0.	-30.367
16481	8.5932	5.0909	0.	-28.922
16482	8.6856	5.0909	5.e-002	3.5505e-006
16483	8.6856	4.8182	0.	-36.366
16484	8.5932	4.9091	0.	-35.39
16485	8.6856	4.9091	5.e-002	2.8633e-006
16486	8.6856	4.6364	0.	-41.945
16487	8.5932	4.7273	0.	-41.442
16488	8.6856	4.7273	5.e-002	2.9047e-006
16489	8.6856	4.4545	0.	-47.06
16490	8.5932	4.5455	0.	-47.032
16491	8.6856	4.5455	5.e-002	3.0092e-006
16492	8.6856	4.2727	0.	-51.672
16493	8.5932	4.3636	0.	-52.117
16494	8.6856	4.3636	5.e-002	2.0264e-006
16495	8.6856	4.0909	0.	-55.744
16496	8.5932	4.1818	0.	-56.657
16497	8.6856	4.1818	5.e-002	1.8188e-006
16498	8.6856	3.9091	0.	-59.246
16499	8.5932	4.	0.	-60.618
16500	8.6856	4.	5.e-002	2.0222e-006
16501	8.6856	3.7273	0.	-62.149
16502	8.5932	3.8182	0.	-63.968
16503	8.6856	3.8182	5.e-002	8.923e-007
16504	8.6856	3.5455	0.	-64.432
16505	8.5932	3.6364	0.	-66.68
16506	8.6856	3.6364	5.e-002	1.8845e-006
16507	8.6856	3.3636	0.	-66.075
16508	8.5932	3.4545	0.	-68.733
16509	8.6856	3.4545	5.e-002	1.0201e-006
16510	8.6856	3.1818	0.	-67.066
16511	8.5932	3.2727	0.	-70.111
16512	8.6856	3.2727	5.e-002	6.2704e-007
16513	8.6856	3.	0.	-67.398
16514	8.5932	3.0909	0.	-70.803
16515	8.6856	3.0909	5.e-002	1.1606e-006
16516	8.6856	2.8182	0.	-67.066
16517	8.5932	2.9091	0.	-70.803
16518	8.6856	2.9091	5.e-002	7.4794e-007
16519	8.6856	2.6364	0.	-66.075
16520	8.5932	2.7273	0.	-70.111
16521	8.6856	2.7273	5.e-002	1.7823e-006
16522	8.6856	2.4545	0.	-64.432
16523	8.5932	2.5455	0.	-68.733
16524	8.6856	2.5455	5.e-002	-5.2876e-007
16525	8.6856	2.2727	0.	-62.149
16526	8.5932	2.3636	0.	-66.68
16527	8.6856	2.3636	5.e-002	-1.3513e-006
16528	8.6856	2.0909	0.	-59.246
16529	8.5932	2.1818	0.	-63.968
16530	8.6856	2.1818	5.e-002	-4.073e-007
16531	8.6856	1.9091	0.	-55.744
16532	8.5932	2.	0.	-60.618
16533	8.6856	2.	5.e-002	-1.8669e-006
16534	8.6856	1.7273	0.	-51.672
16535	8.5932	1.8182	0.	-56.657
16536	8.6856	1.8182	5.e-002	-3.5452e-007
16537	8.6856	1.5455	0.	-47.06
16538	8.5932	1.6364	0.	-52.117
16539	8.6856	1.6364	5.e-002	-1.3787e-006
16540	8.6856	1.3636	0.	-41.945
16541	8.5932	1.4545	0.	-47.032
16542	8.6856	1.4545	5.e-002	-1.4453e-006
16543	8.6856	1.1818	0.	-36.367
16544	8.5932	1.2727	0.	-41.442
16545	8.6856	1.2727	5.e-002	-1.1506e-006
16546	8.6856	1.	0.	-30.367
16547	8.5932	1.0909	0.	-35.39
16548	8.6856	1.0909	5.e-002	-1.2113e-006
16549	8.6856	0.81818	0.	-23.991
16550	8.5932	0.90909	0.	-28.922
16551	8.6856	0.90909	5.e-002	-6.5206e-007
16552	8.6856	0.63636	0.	-17.288
16553	8.5932	0.72727	0.	-22.088
16554	8.6856	0.72727	5.e-002	-1.9829e-006
16555	8.6856	0.45455	0.	-10.277
16556	8.5932	0.54545	0.	-14.939
16557	8.6856	0.54545	5.e-002	-1.6667e-006
16558	8.6856	0.27273	0.	-2.6528
16559	8.5932	0.36364	0.	-7.4693
16560	8.6856	0.36364	5.e-002	-1.688e-006
16561	8.5932	0.18182	0.	-0.22136
16562	8.6856	0.18182	5.e-002	-2.4418e-005
16563	8.6856	9.0909e-002	0.	-5.0515e-002
16564	8.5008	5.7273	0.	-3.9152
16565	8.4084	5.8182	0.	-0.55301
16566	8.5008	5.8182	5.e-002	4.6941e-005
16567	8.5008	5.9091	0.	-8.6936e-002
16568	8.5008	5.5455	0.	-12.145
16569	8.4084	5.6364	0.	-9.089
16570	8.5008	5.6364	5.e-002	4.3709e-006
16571	8.5008	5.3636	0.	-19.752
16572	8.4084	5.4545	0.	-17.191
16573	8.5008	5.4545	5.e-002	4.2061e-006
16574	8.5008	5.1818	0.	-27.032
16575	8.4084	5.2727	0.	-24.954
16576	8.5008	5.2727	5.e-002	3.5509e-006
16577	8.5008	5.	0.	-33.957
16578	8.4084	5.0909	0.	-32.376
16579	8.5008	5.0909	5.e-002	4.1792e-006
16580	8.5008	4.8182	0.	-40.476
16581	8.4084	4.9091	0.	-39.402
16582	8.5008	4.9091	5.e-002	3.5346e-006
16583	8.5008	4.6364	0.	-46.538
16584	8.4084	4.7273	0.	-45.978
16585	8.5008	4.7273	5.e-002	2.8747e-006
16586	8.5008	4.4545	0.	-52.098
16587	8.4084	4.5455	0.	-52.054
16588	8.5008	4.5455	5.e-002	3.2021e-006
16589	8.5008	4.2727	0.	-57.112
16590	8.4084	4.3636	0.	-57.582
16591	8.5008	4.3636	5.e-002	1.6029e-006
16592	8.5008	4.0909	0.	-61.54
16593	8.4084	4.1818	0.	-62.519
16594	8.5008	4.1818	5.e-002	2.261e-006
16595	8.5008	3.9091	0.	-65.348
16596	8.4084	4.	0.	-66.826
16597	8.5008	4.	5.e-002	2.421e-006
16598	8.5008	3.7273	0.	-68.506
16599	8.4084	3.8182	0.	-70.469
16600	8.5008	3.8182	5.e-002	2.098e-006
16601	8.5008	3.5455	0.	-70.989
16602	8.4084	3.6364	0.	-73.419
16603	8.5008	3.6364	5.e-002	1.5743e-006
16604	8.5008	3.3636	0.	-72.777
16605	8.4084	3.4545	0.	-75.653
16606	8.5008	3.4545	5.e-002	1.1263e-006
16607	8.5008	3.1818	0.	-73.855
16608	8.4084	3.2727	0.	-77.152
16609	8.5008	3.2727	5.e-002	6.825e-007
16610	8.5008	3.	0.	-74.216
16611	8.4084	3.0909	0.	-77.904
16612	8.5008	3.0909	5.e-002	2.2718e-007
16613	8.5008	2.8182	0.	-73.855
16614	8.4084	2.9091	0.	-77.904
16615	8.5008	2.9091	5.e-002	7.2732e-007
16616	8.5008	2.6364	0.	-72.777
16617	8.4084	2.7273	0.	-77.152
16618	8.5008	2.7273	5.e-002	-6.6921e-007
16619	8.5008	2.4545	0.	-70.989
16620	8.4084	2.5455	0.	-75.653
16621	8.5008	2.5455	5.e-002	-1.0973e-006
16622	8.5008	2.2727	0.	-68.506
16623	8.4084	2.3636	0.	-73.419
16624	8.5008	2.3636	5.e-002	-1.5246e-006
16625	8.5008	2.0909	0.	-65.348
16626	8.4084	2.1818	0.	-70.469
16627	8.5008	2.1818	5.e-002	-1.8276e-006
16628	8.5008	1.9091	0.	-61.54
16629	8.4084	2.	0.	-66.826
16630	8.5008	2.	5.e-002	-1.3421e-006
16631	8.5008	1.7273	0.	-57.112
16632	8.4084	1.8182	0.	-62.519
16633	8.5008	1.8182	5.e-002	-2.16e-006
16634	8.5008	1.5455	0.	-52.098
16635	8.4084	1.6364	0.	-57.582
16636	8.5008	1.6364	5.e-002	-2.4159e-006
16637	8.5008	1.3636	0.	-46.538
16638	8.4084	1.4545	0.	-52.054
16639	8.5008	1.4545	5.e-002	-1.586e-006
16640	8.5008	1.1818	0.	-40.476
16641	8.4084	1.2727	0.	-45.978
16642	8.5008	1.2727	5.e-002	-1.7294e-006
16643	8.5008	1.	0.	-33.957
16644	8.4084	1.0909	0.	-39.402
16645	8.5008	1.0909	5.e-002	-1.3133e-006
16646	8.5008	0.81818	0.	-27.032
16647	8.4084	0.90909	0.	-32.376
16648	8.5008	0.90909	5.e-002	-9.3886e-007
16649	8.5008	0.63636	0.	-19.752
16650	8.4084	0.72727	0.	-24.954
16651	8.5008	0.72727	5.e-002	-1.1962e-006
16652	8.5008	0.45455	0.	-12.145
16653	8.4084	0.54545	0.	-17.191
16654	8.5008	0.54545	5.e-002	-1.7789e-006
16655	8.5008	0.27273	0.	-3.9152
16656	8.4084	0.36364	0.	-9.089
16657	8.5008	0.36364	5.e-002	-1.6742e-006
16658	8.4084	0.18182	0.	-0.553
16659	8.5008	0.18182	5.e-002	-2.3097e-005
16660	8.5008	9.0909e-002	0.	-8.6934e-002
16661	8.316	5.7273	0.	-5.2673
16662	8.2236	5.8182	0.	-1.323
16663	8.316	5.8182	5.e-002	4.514e-005
16664	8.316	5.9091	0.	-0.17097
16665	8.316	5.5455	0.	-14.149
16666	8.2236	5.6364	0.	-10.824
16667	8.316	5.6364	5.e-002	5.2603e-006
16668	8.316	5.3636	0.	-22.405
16669	8.2236	5.4545	0.	-19.612
16670	8.316	5.4545	5.e-002	5.1076e-006
16671	8.316	5.1818	0.	-30.309
16672	8.2236	5.2727	0.	-28.04
16673	8.316	5.2727	5.e-002	4.9925e-006
16674	8.316	5.	0.	-37.832
16675	8.2236	5.0909	0.	-36.101
16676	8.316	5.0909	5.e-002	4.1504e-006
16677	8.316	4.8182	0.	-44.914
16678	8.2236	4.9091	0.	-43.734
16679	8.316	4.9091	5.e-002	3.2302e-006
16680	8.316	4.6364	0.	-51.503
16681	8.2236	4.7273	0.	-50.88
16682	8.316	4.7273	5.e-002	3.3053e-006
16683	8.316	4.4545	0.	-57.546
16684	8.2236	4.5455	0.	-57.483
16685	8.316	4.5455	5.e-002	3.8773e-006
16686	8.316	4.2727	0.	-62.997
16687	8.2236	4.3636	0.	-63.492
16688	8.316	4.3636	5.e-002	2.7169e-006
16689	8.316	4.0909	0.	-67.812
16690	8.2236	4.1818	0.	-68.861
16691	8.316	4.1818	5.e-002	2.4225e-006
16692	8.316	3.9091	0.	-71.954
16693	8.2236	4.	0.	-73.545
16694	8.316	4.	5.e-002	2.6619e-006
16695	8.316	3.7273	0.	-75.389
16696	8.2236	3.8182	0.	-77.507
16697	8.316	3.8182	5.e-002	2.2796e-006
16698	8.316	3.5455	0.	-78.09
16699	8.2236	3.6364	0.	-80.717
16700	8.316	3.6364	5.e-002	2.6976e-006
16701	8.316	3.3636	0.	-80.035
16702	8.2236	3.4545	0.	-83.147
16703	8.316	3.4545	5.e-002	1.2584e-006
16704	8.316	3.1818	0.	-81.208
16705	8.2236	3.2727	0.	-84.778
16706	8.316	3.2727	5.e-002	7.4068e-007
16707	8.316	3.	0.	-81.6
16708	8.2236	3.0909	0.	-85.597
16709	8.316	3.0909	5.e-002	1.2026e-006
16710	8.316	2.8182	0.	-81.208
16711	8.2236	2.9091	0.	-85.597
16712	8.316	2.9091	5.e-002	1.6612e-006
16713	8.316	2.6364	0.	-80.035
16714	8.2236	2.7273	0.	-84.778
16715	8.316	2.7273	5.e-002	2.1386e-006
16716	8.316	2.4545	0.	-78.09
16717	8.2236	2.5455	0.	-83.147
16718	8.316	2.5455	5.e-002	-2.4285e-007
16719	8.316	2.2727	0.	-75.389
16720	8.2236	2.3636	0.	-80.717
16721	8.316	2.3636	5.e-002	-6.723e-007
16722	8.316	2.0909	0.	-71.954
16723	8.2236	2.1818	0.	-77.507
16724	8.316	2.1818	5.e-002	-1.1543e-006
16725	8.316	1.9091	0.	-67.812
16726	8.2236	2.	0.	-73.545
16727	8.316	2.	5.e-002	-2.609e-006
16728	8.316	1.7273	0.	-62.997
16729	8.2236	1.8182	0.	-68.861
16730	8.316	1.8182	5.e-002	-2.23e-006
16731	8.316	1.5455	0.	-57.546
16732	8.2236	1.6364	0.	-63.492
16733	8.316	1.6364	5.e-002	-1.6061e-006
16734	8.316	1.3636	0.	-51.503
16735	8.2236	1.4545	0.	-57.483
16736	8.316	1.4545	5.e-002	-2.5642e-006
16737	8.316	1.1818	0.	-44.914
16738	8.2236	1.2727	0.	-50.88
16739	8.316	1.2727	5.e-002	-1.959e-006
16740	8.316	1.	0.	-37.832
16741	8.2236	1.0909	0.	-43.734
16742	8.316	1.0909	5.e-002	-3.0005e-006
16743	8.316	0.81818	0.	-30.309
16744	8.2236	0.90909	0.	-36.101
16745	8.316	0.90909	5.e-002	-2.7342e-006
16746	8.316	0.63636	0.	-22.405
16747	8.2236	0.72727	0.	-28.04
16748	8.316	0.72727	5.e-002	-1.3343e-006
16749	8.316	0.45455	0.	-14.149
16750	8.2236	0.54545	0.	-19.612
16751	8.316	0.54545	5.e-002	-1.8897e-006
16752	8.316	0.27273	0.	-5.2673
16753	8.2236	0.36364	0.	-10.824
16754	8.316	0.36364	5.e-002	-1.5799e-006
16755	8.2236	0.18182	0.	-1.323
16756	8.316	0.18182	5.e-002	-2.0874e-005
16757	8.316	9.0909e-002	0.	-0.17097
16758	8.1312	5.7273	0.	-6.7124
16759	8.0388	5.8182	0.	-2.36
16760	8.1312	5.8182	5.e-002	3.6689e-005
16761	8.1312	5.9091	0.	-0.39599
16762	8.1312	5.5455	0.	-16.3
16763	8.0388	5.6364	0.	-12.682
16764	8.1312	5.6364	5.e-002	4.8642e-006
16765	8.1312	5.3636	0.	-25.259
16766	8.0388	5.4545	0.	-22.215
16767	8.1312	5.4545	5.e-002	5.5944e-006
16768	8.1312	5.1818	0.	-33.843
16769	8.0388	5.2727	0.	-31.365
16770	8.1312	5.2727	5.e-002	4.9923e-006
16771	8.1312	5.	0.	-42.013
16772	8.0388	5.0909	0.	-40.119
16773	8.1312	5.0909	5.e-002	5.0677e-006
16774	8.1312	4.8182	0.	-49.708
16775	8.0388	4.9091	0.	-48.411
16776	8.1312	4.9091	5.e-002	4.0123e-006
16777	8.1312	4.6364	0.	-56.868
16778	8.0388	4.7273	0.	-56.176
16779	8.1312	4.7273	5.e-002	2.6056e-006
16780	8.1312	4.4545	0.	-63.437
16781	8.0388	4.5455	0.	-63.353
16782	8.1312	4.5455	5.e-002	3.9486e-006
16783	8.1312	4.2727	0.	-69.364
16784	8.0388	4.3636	0.	-69.886
16785	8.1312	4.3636	5.e-002	3.7879e-006
16786	8.1312	4.0909	0.	-74.6
16787	8.0388	4.1818	0.	-75.723
16788	8.1312	4.1818	5.e-002	3.2568e-006
16789	8.1312	3.9091	0.	-79.105
16790	8.0388	4.	0.	-80.818
16791	8.1312	4.	5.e-002	1.0813e-006
16792	8.1312	3.7273	0.	-82.842
16793	8.0388	3.8182	0.	-85.128
16794	8.1312	3.8182	5.e-002	1.401e-006
16795	8.1312	3.5455	0.	-85.78
16796	8.0388	3.6364	0.	-88.62
16797	8.1312	3.6364	5.e-002	1.8346e-006
16798	8.1312	3.3636	0.	-87.896
16799	8.0388	3.4545	0.	-91.264
16800	8.1312	3.4545	5.e-002	2.3038e-006
16801	8.1312	3.1818	0.	-89.173
16802	8.0388	3.2727	0.	-93.039
16803	8.1312	3.2727	5.e-002	8.0199e-007
16804	8.1312	3.	0.	-89.6
16805	8.0388	3.0909	0.	-93.93
16806	8.1312	3.0909	5.e-002	2.1788e-006
16807	8.1312	2.8182	0.	-89.173
16808	8.0388	2.9091	0.	-93.93
16809	8.1312	2.9091	5.e-002	1.6384e-006
16810	8.1312	2.6364	0.	-87.896
16811	8.0388	2.7273	0.	-93.039
16812	8.1312	2.7273	5.e-002	-8.0199e-007
16813	8.1312	2.4545	0.	-85.78
16814	8.0388	2.5455	0.	-91.264
16815	8.1312	2.5455	5.e-002	-3.4865e-007
16816	8.1312	2.2727	0.	-82.842
16817	8.0388	2.3636	0.	-88.62
16818	8.1312	2.3636	5.e-002	-8.3486e-007
16819	8.1312	2.0909	0.	-79.105
16820	8.0388	2.1818	0.	-85.128
16821	8.1312	2.1818	5.e-002	-1.3002e-006
16822	8.1312	1.9091	0.	-74.6
16823	8.0388	2.	0.	-80.818
16824	8.1312	2.	5.e-002	-1.5818e-006
16825	8.1312	1.7273	0.	-69.364
16826	8.0388	1.8182	0.	-75.723
16827	8.1312	1.8182	5.e-002	-2.8054e-006
16828	8.1312	1.5455	0.	-63.437
16829	8.0388	1.6364	0.	-69.886
16830	8.1312	1.6364	5.e-002	-1.9063e-006
16831	8.1312	1.3636	0.	-56.868
16832	8.0388	1.4545	0.	-63.353
16833	8.1312	1.4545	5.e-002	-3.7129e-006
16834	8.1312	1.1818	0.	-49.708
16835	8.0388	1.2727	0.	-56.176
16836	8.1312	1.2727	5.e-002	-3.2713e-006
16837	8.1312	1.	0.	-42.013
16838	8.0388	1.0909	0.	-48.411
16839	8.1312	1.0909	5.e-002	-2.2753e-006
16840	8.1312	0.81818	0.	-33.843
16841	8.0388	0.90909	0.	-40.119
16842	8.1312	0.90909	5.e-002	-2.7117e-006
16843	8.1312	0.63636	0.	-25.259
16844	8.0388	0.72727	0.	-31.365
16845	8.1312	0.72727	5.e-002	-2.2288e-006
16846	8.1312	0.45455	0.	-16.3
16847	8.0388	0.54545	0.	-22.215
16848	8.1312	0.54545	5.e-002	-2.5684e-006
16849	8.1312	0.27273	0.	-6.7123
16850	8.0388	0.36364	0.	-12.682
16851	8.1312	0.36364	5.e-002	-1.8701e-006
16852	8.0388	0.18182	0.	-2.36
16853	8.1312	0.18182	5.e-002	-2.9483e-005
16854	8.1312	9.0909e-002	0.	-0.39599
16855	7.9464	5.7273	0.	-8.2551
16856	7.854	5.8182	0.	-3.5229
16857	7.9464	5.8182	5.e-002	3.6674e-005
16858	7.9464	5.9091	0.	-0.86643
16859	7.9464	5.5455	0.	-18.609
16860	7.854	5.6364	0.	-14.672
16861	7.9464	5.6364	5.e-002	6.2416e-006
16862	7.9464	5.3636	0.	-28.331
16863	7.854	5.4545	0.	-25.012
16864	7.9464	5.4545	5.e-002	6.4215e-006
16865	7.9464	5.1818	0.	-37.651
16866	7.854	5.2727	0.	-34.946
16867	7.9464	5.2727	5.e-002	4.6989e-006
16868	7.9464	5.	0.	-46.526
16869	7.854	5.0909	0.	-44.454
16870	7.9464	5.0909	5.e-002	4.3997e-006
16871	7.9464	4.8182	0.	-54.886
16872	7.854	4.9091	0.	-53.461
16873	7.9464	4.9091	5.e-002	5.3786e-006
16874	7.9464	4.6364	0.	-62.668
16875	7.854	4.7273	0.	-61.898
16876	7.9464	4.7273	5.e-002	4.0074e-006
16877	7.9464	4.4545	0.	-69.809
16878	7.854	4.5455	0.	-69.7
16879	7.9464	4.5455	5.e-002	4.4718e-006
16880	7.9464	4.2727	0.	-76.252
16881	7.854	4.3636	0.	-76.802
16882	7.9464	4.3636	5.e-002	2.7884e-006
16883	7.9464	4.0909	0.	-81.947
16884	7.854	4.1818	0.	-83.15
16885	7.9464	4.1818	5.e-002	2.3837e-006
16886	7.9464	3.9091	0.	-86.847
16887	7.854	4.	0.	-88.691
16888	7.9464	4.	5.e-002	3.1473e-006
16889	7.9464	3.7273	0.	-90.912
16890	7.854	3.8182	0.	-93.38
16891	7.9464	3.8182	5.e-002	2.662e-006
16892	7.9464	3.5455	0.	-94.109
16893	7.854	3.6364	0.	-97.179
16894	7.9464	3.6364	5.e-002	2.971e-006
16895	7.9464	3.3636	0.	-96.412
16896	7.854	3.4545	0.	-100.06
16897	7.9464	3.4545	5.e-002	1.4514e-006
16898	7.9464	3.1818	0.	-97.801
16899	7.854	3.2727	0.	-101.99
16900	7.9464	3.2727	5.e-002	1.842e-006
16901	7.9464	3.	0.	-98.266
16902	7.854	3.0909	0.	-102.96
16903	7.9464	3.0909	5.e-002	1.2451e-006
16904	7.9464	2.8182	0.	-97.801
16905	7.854	2.9091	0.	-102.96
16906	7.9464	2.9091	5.e-002	6.6178e-007
16907	7.9464	2.6364	0.	-96.412
16908	7.854	2.7273	0.	-101.99
16909	7.9464	2.7273	5.e-002	9.6588e-008
16910	7.9464	2.4545	0.	-94.109
16911	7.854	2.5455	0.	-100.06
16912	7.9464	2.5455	5.e-002	-4.6944e-007
16913	7.9464	2.2727	0.	-90.912
16914	7.854	2.3636	0.	-97.179
16915	7.9464	2.3636	5.e-002	-1.8811e-006
16916	7.9464	2.0909	0.	-86.847
16917	7.854	2.1818	0.	-93.38
16918	7.9464	2.1818	5.e-002	-2.3636e-006
16919	7.9464	1.9091	0.	-81.947
16920	7.854	2.	0.	-88.691
16921	7.9464	2.	5.e-002	-2.8836e-006
16922	7.9464	1.7273	0.	-76.252
16923	7.854	1.8182	0.	-83.15
16924	7.9464	1.8182	5.e-002	-2.2058e-006
16925	7.9464	1.5455	0.	-69.809
16926	7.854	1.6364	0.	-76.802
16927	7.9464	1.6364	5.e-002	-2.7064e-006
16928	7.9464	1.3636	0.	-62.668
16929	7.854	1.4545	0.	-69.7
16930	7.9464	1.4545	5.e-002	-4.1023e-006
16931	7.9464	1.1818	0.	-54.886
16932	7.854	1.2727	0.	-61.898
16933	7.9464	1.2727	5.e-002	-4.3461e-006
16934	7.9464	1.	0.	-46.526
16935	7.854	1.0909	0.	-53.461
16936	7.9464	1.0909	5.e-002	-3.6331e-006
16937	7.9464	0.81818	0.	-37.651
16938	7.854	0.90909	0.	-44.454
16939	7.9464	0.90909	5.e-002	-4.1318e-006
16940	7.9464	0.63636	0.	-28.331
16941	7.854	0.72727	0.	-34.946
16942	7.9464	0.72727	5.e-002	-2.8199e-006
16943	7.9464	0.45455	0.	-18.609
16944	7.854	0.54545	0.	-25.012
16945	7.9464	0.54545	5.e-002	-2.5475e-006
16946	7.9464	0.27273	0.	-8.2551
16947	7.854	0.36364	0.	-14.672
16948	7.9464	0.36364	5.e-002	-2.8244e-006
16949	7.854	0.18182	0.	-3.5229
16950	7.9464	0.18182	5.e-002	-2.4218e-005
16951	7.9464	9.0909e-002	0.	-0.86642
16952	7.7616	5.7273	0.	-9.9011
16953	7.6692	5.8182	0.	-4.7772
16954	7.7616	5.8182	5.e-002	4.1918e-005
16955	7.7616	5.9091	0.	-1.5048
16956	7.7616	5.5455	0.	-21.086
16957	7.6692	5.6364	0.	-16.802
16958	7.7616	5.6364	5.e-002	6.8768e-006
16959	7.7616	5.3636	0.	-31.637
16960	7.6692	5.4545	0.	-28.019
16961	7.7616	5.4545	5.e-002	6.0381e-006
16962	7.7616	5.1818	0.	-41.757
16963	7.6692	5.2727	0.	-38.803
16964	7.7616	5.2727	5.e-002	6.2608e-006
16965	7.7616	5.	0.	-51.396
16966	7.6692	5.0909	0.	-49.128
16967	7.7616	5.0909	5.e-002	6.1537e-006
16968	7.7616	4.8182	0.	-60.48
16969	7.6692	4.9091	0.	-58.913
16970	7.7616	4.9091	5.e-002	5.7094e-006
16971	7.7616	4.6364	0.	-68.936
16972	7.6692	4.7273	0.	-68.082
16973	7.7616	4.7273	5.e-002	4.0432e-006
16974	7.7616	4.4545	0.	-76.699
16975	7.6692	4.5455	0.	-76.561
16976	7.7616	4.5455	5.e-002	4.9573e-006
16977	7.7616	4.2727	0.	-83.706
16978	7.6692	4.3636	0.	-84.284
16979	7.7616	4.3636	5.e-002	4.543e-006
16980	7.7616	4.0909	0.	-89.899
16981	7.6692	4.1818	0.	-91.187
16982	7.7616	4.1818	5.e-002	3.859e-006
16983	7.7616	3.9091	0.	-95.229
16984	7.6692	4.	0.	-97.215
16985	7.7616	4.	5.e-002	2.5044e-006
16986	7.7616	3.7273	0.	-99.652
16987	7.6692	3.8182	0.	-102.32
16988	7.7616	3.8182	5.e-002	2.8871e-006
16989	7.7616	3.5455	0.	-103.13
16990	7.6692	3.6364	0.	-106.45
16991	7.7616	3.6364	5.e-002	2.1752e-006
16992	7.7616	3.3636	0.	-105.64
16993	7.6692	3.4545	0.	-109.58
16994	7.7616	3.4545	5.e-002	1.6475e-006
16995	7.7616	3.1818	0.	-107.15
16996	7.6692	3.2727	0.	-111.68
16997	7.7616	3.2727	5.e-002	1.9048e-006
16998	7.7616	3.	0.	-107.65
16999	7.6692	3.0909	0.	-112.74
17000	7.7616	3.0909	5.e-002	3.2054e-007
17001	7.7616	2.8182	0.	-107.15
17002	7.6692	2.9091	0.	-112.74
17003	7.7616	2.9091	5.e-002	6.3689e-007
17004	7.7616	2.6364	0.	-105.64
17005	7.6692	2.7273	0.	-111.68
17006	7.7616	2.7273	5.e-002	-9.4187e-007
17007	7.7616	2.4545	0.	-103.13
17008	7.6692	2.5455	0.	-109.58
17009	7.7616	2.5455	5.e-002	-5.9163e-007
17010	7.7616	2.2727	0.	-99.652
17011	7.6692	2.3636	0.	-106.45
17012	7.7616	2.3636	5.e-002	-2.0867e-006
17013	7.7616	2.0909	0.	-95.229
17014	7.6692	2.1818	0.	-102.32
17015	7.7616	2.1818	5.e-002	-8.0049e-007
17016	7.7616	1.9091	0.	-89.899
17017	7.6692	2.	0.	-97.215
17018	7.7616	2.	5.e-002	-2.9869e-006
17019	7.7616	1.7273	0.	-83.706
17020	7.6692	1.8182	0.	-91.187
17021	7.7616	1.8182	5.e-002	-2.6501e-006
17022	7.7616	1.5455	0.	-76.699
17023	7.6692	1.6364	0.	-84.284
17024	7.7616	1.6364	5.e-002	-4.0958e-006
17025	7.7616	1.3636	0.	-68.936
17026	7.6692	1.4545	0.	-76.561
17027	7.7616	1.4545	5.e-002	-5.2623e-007
17028	7.7616	1.1818	0.	-60.48
17029	7.6692	1.2727	0.	-68.082
17030	7.7616	1.2727	5.e-002	-2.7932e-006
17031	7.7616	1.	0.	-51.396
17032	7.6692	1.0909	0.	-58.913
17033	7.7616	1.0909	5.e-002	-2.4942e-006
17034	7.7616	0.81818	0.	-41.757
17035	7.6692	0.90909	0.	-49.128
17036	7.7616	0.90909	5.e-002	-3.7377e-006
17037	7.7616	0.63636	0.	-31.637
17038	7.6692	0.72727	0.	-38.803
17039	7.7616	0.72727	5.e-002	-3.6198e-006
17040	7.7616	0.45455	0.	-21.086
17041	7.6692	0.54545	0.	-28.019
17042	7.7616	0.54545	5.e-002	-3.4942e-006
17043	7.7616	0.27273	0.	-9.9011
17044	7.6692	0.36364	0.	-16.802
17045	7.7616	0.36364	5.e-002	-3.819e-006
17046	7.6692	0.18182	0.	-4.7772
17047	7.7616	0.18182	5.e-002	-2.3286e-005
17048	7.7616	9.0909e-002	0.	-1.5048
17049	7.5768	5.7273	0.	-11.656
17050	7.4844	5.8182	0.	-6.1149
17051	7.5768	5.8182	5.e-002	4.0974e-005
17052	7.5768	5.9091	0.	-2.2286
17053	7.5768	5.5455	0.	-23.744
17054	7.4844	5.6364	0.	-19.081
17055	7.5768	5.6364	5.e-002	7.3074e-006
17056	7.5768	5.3636	0.	-35.193
17057	7.4844	5.4545	0.	-31.249
17058	7.5768	5.4545	5.e-002	7.0122e-006
17059	7.5768	5.1818	0.	-46.181
17060	7.4844	5.2727	0.	-42.956
17061	7.5768	5.2727	5.e-002	7.426e-006
17062	7.5768	5.	0.	-56.651
17063	7.4844	5.0909	0.	-54.169
17064	7.5768	5.0909	5.e-002	6.5318e-006
17065	7.5768	4.8182	0.	-66.521
17066	7.4844	4.9091	0.	-64.799
17067	7.5768	4.9091	5.e-002	5.8438e-006
17068	7.5768	4.6364	0.	-75.712
17069	7.4844	4.7273	0.	-74.762
17070	7.5768	4.7273	5.e-002	5.5455e-006
17071	7.5768	4.4545	0.	-84.151
17072	7.4844	4.5455	0.	-83.98
17073	7.5768	4.5455	5.e-002	5.3869e-006
17074	7.5768	4.2727	0.	-91.77
17075	7.4844	4.3636	0.	-92.377
17076	7.5768	4.3636	5.e-002	5.1192e-006
17077	7.5768	4.0909	0.	-98.507
17078	7.4844	4.1818	0.	-99.886
17079	7.5768	4.1818	5.e-002	4.3265e-006
17080	7.5768	3.9091	0.	-104.31
17081	7.4844	4.	0.	-106.44
17082	7.5768	4.	5.e-002	3.7868e-006
17083	7.5768	3.7273	0.	-109.12
17084	7.4844	3.8182	0.	-111.99
17085	7.5768	3.8182	5.e-002	3.1908e-006
17086	7.5768	3.5455	0.	-112.91
17087	7.4844	3.6364	0.	-116.49
17088	7.5768	3.6364	5.e-002	3.4185e-006
17089	7.5768	3.3636	0.	-115.63
17090	7.4844	3.4545	0.	-119.9
17091	7.5768	3.4545	5.e-002	2.7257e-006
17092	7.5768	3.1818	0.	-117.28
17093	7.4844	3.2727	0.	-122.19
17094	7.5768	3.2727	5.e-002	1.0322e-006
17095	7.5768	3.	0.	-117.83
17096	7.4844	3.0909	0.	-123.34
17097	7.5768	3.0909	5.e-002	1.3005e-006
17098	7.5768	2.8182	0.	-117.28
17099	7.4844	2.9091	0.	-123.34
17100	7.5768	2.9091	5.e-002	6.0631e-007
17101	7.5768	2.6364	0.	-115.63
17102	7.4844	2.7273	0.	-122.19
17103	7.5768	2.7273	5.e-002	-1.0322e-006
17104	7.5768	2.4545	0.	-112.91
17105	7.4844	2.5455	0.	-119.9
17106	7.5768	2.5455	5.e-002	2.2119e-007
17107	7.5768	2.2727	0.	-109.12
17108	7.4844	2.3636	0.	-116.49
17109	7.5768	2.3636	5.e-002	-2.3892e-006
17110	7.5768	2.0909	0.	-104.31
17111	7.4844	2.1818	0.	-111.99
17112	7.5768	2.1818	5.e-002	-2.9388e-006
17113	7.5768	1.9091	0.	-98.507
17114	7.4844	2.	0.	-106.44
17115	7.5768	2.	5.e-002	-3.6408e-006
17116	7.5768	1.7273	0.	-91.77
17117	7.4844	1.8182	0.	-99.886
17118	7.5768	1.8182	5.e-002	-4.1652e-006
17119	7.5768	1.5455	0.	-84.151
17120	7.4844	1.6364	0.	-92.377
17121	7.5768	1.6364	5.e-002	-4.1731e-006
17122	7.5768	1.3636	0.	-75.712
17123	7.4844	1.4545	0.	-83.98
17124	7.5768	1.4545	5.e-002	-4.2268e-006
17125	7.5768	1.1818	0.	-66.521
17126	7.4844	1.2727	0.	-74.762
17127	7.5768	1.2727	5.e-002	-4.2637e-006
17128	7.5768	1.	0.	-56.651
17129	7.4844	1.0909	0.	-64.799
17130	7.5768	1.0909	5.e-002	-4.1893e-006
17131	7.5768	0.81818	0.	-46.181
17132	7.4844	0.90909	0.	-54.169
17133	7.5768	0.90909	5.e-002	-4.8656e-006
17134	7.5768	0.63636	0.	-35.193
17135	7.4844	0.72727	0.	-42.956
17136	7.5768	0.72727	5.e-002	-3.8747e-006
17137	7.5768	0.45455	0.	-23.744
17138	7.4844	0.54545	0.	-31.249
17139	7.5768	0.54545	5.e-002	-4.6724e-006
17140	7.5768	0.27273	0.	-11.656
17141	7.4844	0.36364	0.	-19.081
17142	7.5768	0.36364	5.e-002	-4.5685e-006
17143	7.4844	0.18182	0.	-6.1149
17144	7.5768	0.18182	5.e-002	-2.1682e-005
17145	7.5768	9.0909e-002	0.	-2.2286
17146	7.392	5.7273	0.	-13.526
17147	7.2996	5.8182	0.	-7.5346
17148	7.392	5.8182	5.e-002	3.5175e-005
17149	7.392	5.9091	0.	-3.0113
17150	7.392	5.5455	0.	-26.594
17151	7.2996	5.6364	0.	-21.519
17152	7.392	5.6364	5.e-002	8.5796e-006
17153	7.392	5.3636	0.	-39.019
17154	7.2996	5.4545	0.	-34.718
17155	7.392	5.4545	5.e-002	6.98e-006
17156	7.392	5.1818	0.	-50.949
17157	7.2996	5.2727	0.	-47.427
17158	7.392	5.2727	5.e-002	7.2927e-006
17159	7.392	5.	0.	-62.321
17160	7.2996	5.0909	0.	-59.604
17161	7.392	5.0909	5.e-002	8.0682e-006
17162	7.392	4.8182	0.	-73.045
17163	7.2996	4.9091	0.	-71.152
17164	7.392	4.9091	5.e-002	7.755e-006
17165	7.392	4.6364	0.	-83.034
17166	7.2996	4.7273	0.	-81.98
17167	7.392	4.7273	5.e-002	6.3065e-006
17168	7.392	4.4545	0.	-92.21
17169	7.2996	4.5455	0.	-92.
17170	7.392	4.5455	5.e-002	5.063e-006
17171	7.392	4.2727	0.	-100.5
17172	7.2996	4.3636	0.	-101.13
17173	7.392	4.3636	5.e-002	4.8114e-006
17174	7.392	4.0909	0.	-107.82
17175	7.2996	4.1818	0.	-109.3
17176	7.392	4.1818	5.e-002	5.0411e-006
17177	7.392	3.9091	0.	-114.13
17178	7.2996	4.	0.	-116.43
17179	7.392	4.	5.e-002	4.3654e-006
17180	7.392	3.7273	0.	-119.37
17181	7.2996	3.8182	0.	-122.48
17182	7.392	3.8182	5.e-002	3.3427e-006
17183	7.392	3.5455	0.	-123.49
17184	7.2996	3.6364	0.	-127.37
17185	7.392	3.6364	5.e-002	3.4287e-006
17186	7.392	3.3636	0.	-126.46
17187	7.2996	3.4545	0.	-131.08
17188	7.392	3.4545	5.e-002	1.9101e-006
17189	7.392	3.1818	0.	-128.25
17190	7.2996	3.2727	0.	-133.58
17191	7.392	3.2727	5.e-002	1.1532e-006
17192	7.392	3.	0.	-128.85
17193	7.2996	3.0909	0.	-134.83
17194	7.392	3.0909	5.e-002	3.7933e-007
17195	7.392	2.8182	0.	-128.25
17196	7.2996	2.9091	0.	-134.83
17197	7.392	2.9091	5.e-002	-3.7546e-007
17198	7.392	2.6364	0.	-126.46
17199	7.2996	2.7273	0.	-133.58
17200	7.392	2.7273	5.e-002	-1.0984e-006
17201	7.392	2.4545	0.	-123.49
17202	7.2996	2.5455	0.	-131.08
17203	7.392	2.5455	5.e-002	-1.8055e-006
17204	7.392	2.2727	0.	-119.37
17205	7.2996	2.3636	0.	-127.37
17206	7.392	2.3636	5.e-002	-2.4779e-006
17207	7.392	2.0909	0.	-114.13
17208	7.2996	2.1818	0.	-122.48
17209	7.392	2.1818	5.e-002	-3.0468e-006
17210	7.392	1.9091	0.	-107.82
17211	7.2996	2.	0.	-116.43
17212	7.392	2.	5.e-002	-2.9892e-006
17213	7.392	1.7273	0.	-100.5
17214	7.2996	1.8182	0.	-109.3
17215	7.392	1.8182	5.e-002	-3.5174e-006
17216	7.392	1.5455	0.	-92.21
17217	7.2996	1.6364	0.	-101.13
17218	7.392	1.6364	5.e-002	-3.9667e-006
17219	7.392	1.3636	0.	-83.034
17220	7.2996	1.4545	0.	-92.
17221	7.392	1.4545	5.e-002	-4.4698e-006
17222	7.392	1.1818	0.	-73.045
17223	7.2996	1.2727	0.	-81.98
17224	7.392	1.2727	5.e-002	-5.2306e-006
17225	7.392	1.	0.	-62.321
17226	7.2996	1.0909	0.	-71.152
17227	7.392	1.0909	5.e-002	-7.755e-006
17228	7.392	0.81818	0.	-50.949
17229	7.2996	0.90909	0.	-59.604
17230	7.392	0.90909	5.e-002	-4.1669e-006
17231	7.392	0.63636	0.	-39.019
17232	7.2996	0.72727	0.	-47.427
17233	7.392	0.72727	5.e-002	-5.724e-006
17234	7.392	0.45455	0.	-26.594
17235	7.2996	0.54545	0.	-34.718
17236	7.392	0.54545	5.e-002	-3.6899e-006
17237	7.392	0.27273	0.	-13.526
17238	7.2996	0.36364	0.	-21.519
17239	7.392	0.36364	5.e-002	-6.8629e-006
17240	7.2996	0.18182	0.	-7.5346
17241	7.392	0.18182	5.e-002	-3.3801e-005
17242	7.392	9.0909e-002	0.	-3.0113
17243	7.2072	5.7273	0.	-15.518
17244	7.1148	5.8182	0.	-9.0371
17245	7.2072	5.8182	5.e-002	4.6638e-005
17246	7.2072	5.9091	0.	-3.8449
17247	7.2072	5.5455	0.	-29.65
17248	7.1148	5.6364	0.	-24.126
17249	7.2072	5.6364	5.e-002	7.2353e-006
17250	7.2072	5.3636	0.	-43.132
17251	7.1148	5.4545	0.	-38.443
17252	7.2072	5.4545	5.e-002	7.9729e-006
17253	7.2072	5.1818	0.	-56.086
17254	7.1148	5.2727	0.	-52.239
17255	7.2072	5.2727	5.e-002	4.1501e-006
17256	7.2072	5.	0.	-68.438
17257	7.1148	5.0909	0.	-65.462
17258	7.2072	5.0909	5.e-002	8.8971e-006
17259	7.2072	4.8182	0.	-80.09
17260	7.1148	4.9091	0.	-78.008
17261	7.2072	4.9091	5.e-002	5.6649e-006
17262	7.2072	4.6364	0.	-90.948
17263	7.1148	4.7273	0.	-89.776
17264	7.2072	4.7273	5.e-002	6.0591e-006
17265	7.2072	4.4545	0.	-100.92
17266	7.1148	4.5455	0.	-100.67
17267	7.2072	4.5455	5.e-002	6.616e-006
17268	7.2072	4.2727	0.	-109.94
17269	7.1148	4.3636	0.	-110.6
17270	7.2072	4.3636	5.e-002	7.0018e-006
17271	7.2072	4.0909	0.	-117.91
17272	7.1148	4.1818	0.	-119.49
17273	7.2072	4.1818	5.e-002	5.5556e-006
17274	7.2072	3.9091	0.	-124.78
17275	7.1148	4.	0.	-127.25
17276	7.2072	4.	5.e-002	4.7995e-006
17277	7.2072	3.7273	0.	-130.48
17278	7.1148	3.8182	0.	-133.83
17279	7.2072	3.8182	5.e-002	3.2969e-006
17280	7.2072	3.5455	0.	-134.97
17281	7.1148	3.6364	0.	-139.16
17282	7.2072	3.6364	5.e-002	4.9979e-006
17283	7.2072	3.3636	0.	-138.2
17284	7.1148	3.4545	0.	-143.2
17285	7.2072	3.4545	5.e-002	2.1878e-006
17286	7.2072	3.1818	0.	-140.15
17287	7.1148	3.2727	0.	-145.91
17288	7.2072	3.2727	5.e-002	1.2456e-006
17289	7.2072	3.	0.	-140.8
17290	7.1148	3.0909	0.	-147.28
17291	7.2072	3.0909	5.e-002	4.1186e-007
17292	7.2072	2.8182	0.	-140.15
17293	7.1148	2.9091	0.	-147.28
17294	7.2072	2.9091	5.e-002	-4.0732e-007
17295	7.2072	2.6364	0.	-138.2
17296	7.1148	2.7273	0.	-145.91
17297	7.2072	2.7273	5.e-002	-1.2111e-006
17298	7.2072	2.4545	0.	-134.97
17299	7.1148	2.5455	0.	-143.2
17300	7.2072	2.5455	5.e-002	-1.9648e-006
17301	7.2072	2.2727	0.	-130.48
17302	7.1148	2.3636	0.	-139.16
17303	7.2072	2.3636	5.e-002	-2.6679e-006
17304	7.2072	2.0909	0.	-124.78
17305	7.1148	2.1818	0.	-133.83
17306	7.2072	2.1818	5.e-002	-3.2969e-006
17307	7.2072	1.9091	0.	-117.91
17308	7.1148	2.	0.	-127.25
17309	7.2072	2.	5.e-002	-4.2965e-006
17310	7.2072	1.7273	0.	-109.94
17311	7.1148	1.8182	0.	-119.49
17312	7.2072	1.8182	5.e-002	-4.199e-006
17313	7.2072	1.5455	0.	-100.92
17314	7.1148	1.6364	0.	-110.6
17315	7.2072	1.6364	5.e-002	-5.0819e-006
17316	7.2072	1.3636	0.	-90.948
17317	7.1148	1.4545	0.	-100.67
17318	7.2072	1.4545	5.e-002	-3.5535e-006
17319	7.2072	1.1818	0.	-80.09
17320	7.1148	1.2727	0.	-89.776
17321	7.2072	1.2727	5.e-002	-4.9351e-006
17322	7.2072	1.	0.	-68.438
17323	7.1148	1.0909	0.	-78.008
17324	7.2072	1.0909	5.e-002	-4.5043e-006
17325	7.2072	0.81818	0.	-56.086
17326	7.1148	0.90909	0.	-65.462
17327	7.2072	0.90909	5.e-002	-8.8971e-006
17328	7.2072	0.63636	0.	-43.132
17329	7.1148	0.72727	0.	-52.239
17330	7.2072	0.72727	5.e-002	-3.0841e-006
17331	7.2072	0.45455	0.	-29.65
17332	7.1148	0.54545	0.	-38.443
17333	7.2072	0.54545	5.e-002	-2.097e-006
17334	7.2072	0.27273	0.	-15.518
17335	7.1148	0.36364	0.	-24.126
17336	7.2072	0.36364	5.e-002	-2.4799e-006
17337	7.1148	0.18182	0.	-9.0371
17338	7.2072	0.18182	5.e-002	-4.3083e-005
17339	7.2072	9.0909e-002	0.	-3.8449
17340	7.0224	5.7273	0.	-17.636
17341	6.93	5.8182	0.	-10.623
17342	7.0224	5.8182	5.e-002	3.5812e-005
17343	7.0224	5.9091	0.	-4.7267
17344	7.0224	5.5455	0.	-32.924
17345	6.93	5.6364	0.	-26.91
17346	7.0224	5.6364	5.e-002	1.2851e-005
17347	7.0224	5.3636	0.	-47.554
17348	6.93	5.4545	0.	-42.441
17349	7.0224	5.4545	5.e-002	1.1107e-005
17350	7.0224	5.1818	0.	-61.618
17351	6.93	5.2727	0.	-57.416
17352	7.0224	5.2727	5.e-002	1.012e-005
17353	7.0224	5.	0.	-75.035
17354	6.93	5.0909	0.	-71.776
17355	7.0224	5.0909	5.e-002	1.2529e-005
17356	7.0224	4.8182	0.	-87.696
17357	6.93	4.9091	0.	-85.406
17358	7.0224	4.9091	5.e-002	6.239e-006
17359	7.0224	4.6364	0.	-99.5
17360	6.93	4.7273	0.	-98.197
17361	7.0224	4.7273	5.e-002	1.0565e-005
17362	7.0224	4.4545	0.	-110.35
17363	6.93	4.5455	0.	-110.04
17364	7.0224	4.5455	5.e-002	7.0224e-006
17365	7.0224	4.2727	0.	-120.15
17366	6.93	4.3636	0.	-120.85
17367	7.0224	4.3636	5.e-002	8.8043e-006
17368	7.0224	4.0909	0.	-128.83
17369	6.93	4.1818	0.	-130.51
17370	7.0224	4.1818	5.e-002	5.3286e-006
17371	7.0224	3.9091	0.	-136.3
17372	6.93	4.	0.	-138.96
17373	7.0224	4.	5.e-002	6.452e-006
17374	7.0224	3.7273	0.	-142.51
17375	6.93	3.8182	0.	-146.12
17376	7.0224	3.8182	5.e-002	5.1667e-006
17377	7.0224	3.5455	0.	-147.4
17378	6.93	3.6364	0.	-151.93
17379	7.0224	3.6364	5.e-002	3.1666e-006
17380	7.0224	3.3636	0.	-150.92
17381	6.93	3.4545	0.	-156.33
17382	7.0224	3.4545	5.e-002	2.2556e-006
17383	7.0224	3.1818	0.	-153.04
17384	6.93	3.2727	0.	-159.28
17385	7.0224	3.2727	5.e-002	1.3577e-006
17386	7.0224	3.	0.	-153.75
17387	6.93	3.0909	0.	-160.77
17388	7.0224	3.0909	5.e-002	4.4571e-007
17389	7.0224	2.8182	0.	-153.04
17390	6.93	2.9091	0.	-160.77
17391	7.0224	2.9091	5.e-002	-4.4039e-007
17392	7.0224	2.6364	0.	-150.92
17393	6.93	2.7273	0.	-159.28
17394	7.0224	2.7273	5.e-002	-1.2626e-006
17395	7.0224	2.4545	0.	-147.4
17396	6.93	2.5455	0.	-156.33
17397	7.0224	2.5455	5.e-002	-2.1362e-006
17398	7.0224	2.2727	0.	-142.51
17399	6.93	2.3636	0.	-151.93
17400	7.0224	2.3636	5.e-002	-9.8539e-007
17401	7.0224	2.0909	0.	-136.3
17402	6.93	2.1818	0.	-146.12
17403	7.0224	2.1818	5.e-002	-4.7999e-006
17404	7.0224	1.9091	0.	-128.83
17405	6.93	2.	0.	-138.96
17406	7.0224	2.	5.e-002	-2.8451e-006
17407	7.0224	1.7273	0.	-120.15
17408	6.93	1.8182	0.	-130.51
17409	7.0224	1.8182	5.e-002	-4.5357e-006
17410	7.0224	1.5455	0.	-110.35
17411	6.93	1.6364	0.	-120.85
17412	7.0224	1.6364	5.e-002	-4.949e-006
17413	7.0224	1.3636	0.	-99.5
17414	6.93	1.4545	0.	-110.04
17415	7.0224	1.4545	5.e-002	-4.8466e-006
17416	7.0224	1.1818	0.	-87.696
17417	6.93	1.2727	0.	-98.197
17418	7.0224	1.2727	5.e-002	-6.1516e-006
17419	7.0224	1.	0.	-75.035
17420	6.93	1.0909	0.	-85.406
17421	7.0224	1.0909	5.e-002	-4.7009e-006
17422	7.0224	0.81818	0.	-61.618
17423	6.93	0.90909	0.	-71.776
17424	7.0224	0.90909	5.e-002	-4.1469e-006
17425	7.0224	0.63636	0.	-47.554
17426	6.93	0.72727	0.	-57.416
17427	7.0224	0.72727	5.e-002	-4.6535e-006
17428	7.0224	0.45455	0.	-32.924
17429	6.93	0.54545	0.	-42.441
17430	7.0224	0.54545	5.e-002	-6.4353e-006
17431	7.0224	0.27273	0.	-17.636
17432	6.93	0.36364	0.	-26.91
17433	7.0224	0.36364	5.e-002	-1.1635e-005
17434	6.93	0.18182	0.	-10.623
17435	7.0224	0.18182	5.e-002	-1.2743e-005
17436	7.0224	9.0909e-002	0.	-4.7267
17437	6.8376	5.7273	0.	-19.888
17438	6.7452	5.8182	0.	-12.295
17439	6.8376	5.8182	5.e-002	1.3553e-005
17440	6.8376	5.9091	0.	-5.6556
17441	6.8376	5.5455	0.	-36.43
17442	6.7452	5.6364	0.	-29.883
17443	6.8376	5.6364	5.e-002	1.2096e-005
17444	6.8376	5.3636	0.	-52.305
17445	6.7452	5.4545	0.	-46.729
17446	6.8376	5.4545	5.e-002	1.4182e-005
17447	6.8376	5.1818	0.	-67.575
17448	6.7452	5.2727	0.	-62.984
17449	6.8376	5.2727	5.e-002	1.3891e-005
17450	6.8376	5.	0.	-82.148
17451	6.7452	5.0909	0.	-78.579
17452	6.8376	5.0909	5.e-002	9.0824e-006
17453	6.8376	4.8182	0.	-95.907
17454	6.7452	4.9091	0.	-93.388
17455	6.8376	4.9091	5.e-002	1.2662e-005
17456	6.8376	4.6364	0.	-108.74
17457	6.7452	4.7273	0.	-107.29
17458	6.8376	4.7273	5.e-002	8.6287e-006
17459	6.8376	4.4545	0.	-120.54
17460	6.7452	4.5455	0.	-120.17
17461	6.8376	4.5455	5.e-002	6.8164e-006
17462	6.8376	4.2727	0.	-131.2
17463	6.7452	4.3636	0.	-131.92
17464	6.8376	4.3636	5.e-002	7.5533e-006
17465	6.8376	4.0909	0.	-140.65
17466	6.7452	4.1818	0.	-142.44
17467	6.8376	4.1818	5.e-002	5.8773e-006
17468	6.8376	3.9091	0.	-148.78
17469	6.7452	4.	0.	-151.64
17470	6.8376	4.	5.e-002	5.162e-006
17471	6.8376	3.7273	0.	-155.54
17472	6.7452	3.8182	0.	-159.44
17473	6.8376	3.8182	5.e-002	2.9035e-006
17474	6.8376	3.5455	0.	-160.86
17475	6.7452	3.6364	0.	-165.76
17476	6.8376	3.6364	5.e-002	3.4596e-006
17477	6.8376	3.3636	0.	-164.7
17478	6.7452	3.4545	0.	-170.56
17479	6.8376	3.4545	5.e-002	2.4669e-006
17480	6.8376	3.1818	0.	-167.01
17481	6.7452	3.2727	0.	-173.78
17482	6.8376	3.2727	5.e-002	1.4162e-006
17483	6.8376	3.	0.	-167.79
17484	6.7452	3.0909	0.	-175.39
17485	6.8376	3.0909	5.e-002	4.8439e-007
17486	6.8376	2.8182	0.	-167.01
17487	6.7452	2.9091	0.	-175.39
17488	6.8376	2.9091	5.e-002	-4.7167e-007
17489	6.8376	2.6364	0.	-164.7
17490	6.7452	2.7273	0.	-173.78
17491	6.8376	2.7273	5.e-002	-1.4215e-006
17492	6.8376	2.4545	0.	-160.86
17493	6.7452	2.5455	0.	-170.56
17494	6.8376	2.5455	5.e-002	-2.3145e-006
17495	6.8376	2.2727	0.	-155.54
17496	6.7452	2.3636	0.	-165.76
17497	6.8376	2.3636	5.e-002	-1.512e-006
17498	6.8376	2.0909	0.	-148.78
17499	6.7452	2.1818	0.	-159.44
17500	6.8376	2.1818	5.e-002	-4.3225e-006
17501	6.8376	1.9091	0.	-140.65
17502	6.7452	2.	0.	-151.64
17503	6.8376	2.	5.e-002	-4.4503e-006
17504	6.8376	1.7273	0.	-131.2
17505	6.7452	1.8182	0.	-142.44
17506	6.8376	1.8182	5.e-002	-4.8939e-006
17507	6.8376	1.5455	0.	-120.54
17508	6.7452	1.6364	0.	-131.92
17509	6.8376	1.6364	5.e-002	-5.1902e-006
17510	6.8376	1.3636	0.	-108.74
17511	6.7452	1.4545	0.	-120.17
17512	6.8376	1.4545	5.e-002	-6.8164e-006
17513	6.8376	1.1818	0.	-95.907
17514	6.7452	1.2727	0.	-107.29
17515	6.8376	1.2727	5.e-002	-8.6287e-006
17516	6.8376	1.	0.	-82.148
17517	6.7452	1.0909	0.	-93.388
17518	6.8376	1.0909	5.e-002	-9.011e-006
17519	6.8376	0.81818	0.	-67.575
17520	6.7452	0.90909	0.	-78.579
17521	6.8376	0.90909	5.e-002	-6.8623e-006
17522	6.8376	0.63636	0.	-52.305
17523	6.7452	0.72727	0.	-62.984
17524	6.8376	0.72727	5.e-002	-7.9001e-006
17525	6.8376	0.45455	0.	-36.43
17526	6.7452	0.54545	0.	-46.729
17527	6.8376	0.54545	5.e-002	-7.0502e-006
17528	6.8376	0.27273	0.	-19.888
17529	6.7452	0.36364	0.	-29.883
17530	6.8376	0.36364	5.e-002	-7.7217e-006
17531	6.7452	0.18182	0.	-12.295
17532	6.8376	0.18182	5.e-002	-1.1648e-005
17533	6.8376	9.0909e-002	0.	-5.6556
17534	6.6528	5.7273	0.	-22.278
17535	6.5604	5.8182	0.	-14.052
17536	6.6528	5.8182	5.e-002	4.5401e-005
17537	6.6528	5.9091	0.	-6.6309
17538	6.6528	5.5455	0.	-40.183
17539	6.5604	5.6364	0.	-33.054
17540	6.6528	5.6364	5.e-002	1.747e-005
17541	6.6528	5.3636	0.	-57.408
17542	6.5604	5.4545	0.	-51.327
17543	6.6528	5.4545	5.e-002	1.7023e-005
17544	6.6528	5.1818	0.	-73.987
17545	6.5604	5.2727	0.	-68.969
17546	6.6528	5.2727	5.e-002	1.603e-005
17547	6.6528	5.	0.	-89.817
17548	6.5604	5.0909	0.	-85.906
17549	6.6528	5.0909	5.e-002	1.5498e-005
17550	6.6528	4.8182	0.	-104.77
17551	6.5604	4.9091	0.	-102.
17552	6.6528	4.9091	5.e-002	1.4441e-005
17553	6.6528	4.6364	0.	-118.72
17554	6.5604	4.7273	0.	-117.11
17555	6.6528	4.7273	5.e-002	9.5808e-006
17556	6.6528	4.4545	0.	-131.55
17557	6.5604	4.5455	0.	-131.12
17558	6.6528	4.5455	5.e-002	9.147e-006
17559	6.6528	4.2727	0.	-143.16
17560	6.5604	4.3636	0.	-143.9
17561	6.6528	4.3636	5.e-002	6.5473e-006
17562	6.6528	4.0909	0.	-153.44
17563	6.5604	4.1818	0.	-155.35
17564	6.6528	4.1818	5.e-002	8.5066e-006
17565	6.6528	3.9091	0.	-162.3
17566	6.5604	4.	0.	-165.37
17567	6.6528	4.	5.e-002	5.6262e-006
17568	6.6528	3.7273	0.	-169.66
17569	6.5604	3.8182	0.	-173.86
17570	6.6528	3.8182	5.e-002	4.1754e-006
17571	6.6528	3.5455	0.	-175.45
17572	6.5604	3.6364	0.	-180.75
17573	6.6528	3.6364	5.e-002	3.7242e-006
17574	6.6528	3.3636	0.	-179.63
17575	6.5604	3.4545	0.	-185.97
17576	6.6528	3.4545	5.e-002	4.5788e-006
17577	6.6528	3.1818	0.	-182.16
17578	6.5604	3.2727	0.	-189.48
17579	6.6528	3.2727	5.e-002	1.5334e-006
17580	6.6528	3.	0.	-183.
17581	6.5604	3.0909	0.	-191.24
17582	6.6528	3.0909	5.e-002	5.2409e-007
17583	6.6528	2.8182	0.	-182.16
17584	6.5604	2.9091	0.	-191.24
17585	6.6528	2.9091	5.e-002	-5.1025e-007
17586	6.6528	2.6364	0.	-179.63
17587	6.5604	2.7273	0.	-189.48
17588	6.6528	2.7273	5.e-002	-1.5373e-006
17589	6.6528	2.4545	0.	-175.45
17590	6.5604	2.5455	0.	-185.97
17591	6.6528	2.5455	5.e-002	-2.5024e-006
17592	6.6528	2.2727	0.	-169.66
17593	6.5604	2.3636	0.	-180.75
17594	6.6528	2.3636	5.e-002	-3.391e-006
17595	6.6528	2.0909	0.	-162.3
17596	6.5604	2.1818	0.	-173.86
17597	6.6528	2.1818	5.e-002	-4.1867e-006
17598	6.6528	1.9091	0.	-153.44
17599	6.5604	2.	0.	-165.37
17600	6.6528	2.	5.e-002	-4.8263e-006
17601	6.6528	1.7273	0.	-143.16
17602	6.5604	1.8182	0.	-155.35
17603	6.6528	1.8182	5.e-002	-6.3832e-006
17604	6.6528	1.5455	0.	-131.55
17605	6.5604	1.6364	0.	-143.9
17606	6.6528	1.6364	5.e-002	-6.8949e-006
17607	6.6528	1.3636	0.	-118.72
17608	6.5604	1.4545	0.	-131.12
17609	6.6528	1.4545	5.e-002	-7.307e-006
17610	6.6528	1.1818	0.	-104.77
17611	6.5604	1.2727	0.	-117.11
17612	6.6528	1.2727	5.e-002	-4.5866e-006
17613	6.6528	1.	0.	-89.817
17614	6.5604	1.0909	0.	-102.
17615	6.6528	1.0909	5.e-002	-1.4259e-005
17616	6.6528	0.81818	0.	-73.987
17617	6.5604	0.90909	0.	-85.906
17618	6.6528	0.90909	5.e-002	-1.2005e-005
17619	6.6528	0.63636	0.	-57.408
17620	6.5604	0.72727	0.	-68.969
17621	6.6528	0.72727	5.e-002	-8.9873e-006
17622	6.6528	0.45455	0.	-40.183
17623	6.5604	0.54545	0.	-51.327
17624	6.6528	0.54545	5.e-002	-1.4759e-005
17625	6.6528	0.27273	0.	-22.278
17626	6.5604	0.36364	0.	-33.054
17627	6.6528	0.36364	5.e-002	-1.5466e-005
17628	6.5604	0.18182	0.	-14.052
17629	6.6528	0.18182	5.e-002	-2.3625e-005
17630	6.6528	9.0909e-002	0.	-6.6309
17631	6.468	5.7273	0.	-24.812
17632	6.3756	5.8182	0.	-15.895
17633	6.468	5.8182	5.e-002	4.4566e-005
17634	6.468	5.9091	0.	-7.652
17635	6.468	5.5455	0.	-44.196
17636	6.3756	5.6364	0.	-36.434
17637	6.468	5.6364	5.e-002	2.0193e-005
17638	6.468	5.3636	0.	-62.886
17639	6.3756	5.4545	0.	-56.252
17640	6.468	5.4545	5.e-002	1.4281e-005
17641	6.468	5.1818	0.	-80.886
17642	6.3756	5.2727	0.	-75.401
17643	6.468	5.2727	5.e-002	1.2003e-005
17644	6.468	5.	0.	-98.081
17645	6.3756	5.0909	0.	-93.794
17646	6.468	5.0909	5.e-002	7.9293e-006
17647	6.468	4.8182	0.	-114.33
17648	6.3756	4.9091	0.	-111.28
17649	6.468	4.9091	5.e-002	1.3728e-005
17650	6.468	4.6364	0.	-129.5
17651	6.3756	4.7273	0.	-127.71
17652	6.468	4.7273	5.e-002	1.2856e-005
17653	6.468	4.4545	0.	-143.46
17654	6.3756	4.5455	0.	-142.94
17655	6.468	4.5455	5.e-002	6.1288e-006
17656	6.468	4.2727	0.	-156.09
17657	6.3756	4.3636	0.	-156.86
17658	6.468	4.3636	5.e-002	9.2472e-006
17659	6.468	4.0909	0.	-167.28
17660	6.3756	4.1818	0.	-169.32
17661	6.468	4.1818	5.e-002	6.9305e-006
17662	6.468	3.9091	0.	-176.93
17663	6.3756	4.	0.	-180.23
17664	6.468	4.	5.e-002	6.0858e-006
17665	6.468	3.7273	0.	-184.95
17666	6.3756	3.8182	0.	-189.48
17667	6.468	3.8182	5.e-002	6.4216e-006
17668	6.468	3.5455	0.	-191.27
17669	6.3756	3.6364	0.	-196.99
17670	6.468	3.6364	5.e-002	4.449e-006
17671	6.468	3.3636	0.	-195.82
17672	6.3756	3.4545	0.	-202.68
17673	6.468	3.4545	5.e-002	5.0166e-006
17674	6.468	3.1818	0.	-198.57
17675	6.3756	3.2727	0.	-206.5
17676	6.468	3.2727	5.e-002	1.7335e-006
17677	6.468	3.	0.	-199.49
17678	6.3756	3.0909	0.	-208.43
17679	6.468	3.0909	5.e-002	5.5817e-007
17680	6.468	2.8182	0.	-198.57
17681	6.3756	2.9091	0.	-208.43
17682	6.468	2.9091	5.e-002	-5.5852e-007
17683	6.468	2.6364	0.	-195.82
17684	6.3756	2.7273	0.	-206.5
17685	6.468	2.7273	5.e-002	-1.5831e-006
17686	6.468	2.4545	0.	-191.27
17687	6.3756	2.5455	0.	-202.68
17688	6.468	2.5455	5.e-002	-8.0072e-007
17689	6.468	2.2727	0.	-184.95
17690	6.3756	2.3636	0.	-196.99
17691	6.468	2.3636	5.e-002	-3.6619e-006
17692	6.468	2.0909	0.	-176.93
17693	6.3756	2.1818	0.	-189.48
17694	6.468	2.1818	5.e-002	-5.7793e-006
17695	6.468	1.9091	0.	-167.28
17696	6.3756	2.	0.	-180.23
17697	6.468	2.	5.e-002	-6.115e-006
17698	6.468	1.7273	0.	-156.09
17699	6.3756	1.8182	0.	-169.32
17700	6.468	1.8182	5.e-002	-5.712e-006
17701	6.468	1.5455	0.	-143.46
17702	6.3756	1.6364	0.	-156.86
17703	6.468	1.6364	5.e-002	-5.976e-006
17704	6.468	1.3636	0.	-129.5
17705	6.3756	1.4545	0.	-142.94
17706	6.468	1.4545	5.e-002	-6.1288e-006
17707	6.468	1.1818	0.	-114.33
17708	6.3756	1.2727	0.	-127.71
17709	6.468	1.2727	5.e-002	-6.1e-006
17710	6.468	1.	0.	-98.081
17711	6.3756	1.0909	0.	-111.28
17712	6.468	1.0909	5.e-002	-1.0252e-005
17713	6.468	0.81818	0.	-80.886
17714	6.3756	0.90909	0.	-93.794
17715	6.468	0.90909	5.e-002	-8.1352e-006
17716	6.468	0.63636	0.	-62.886
17717	6.3756	0.72727	0.	-75.401
17718	6.468	0.72727	5.e-002	-1.0199e-005
17719	6.468	0.45455	0.	-44.196
17720	6.3756	0.54545	0.	-56.252
17721	6.468	0.54545	5.e-002	-1.0265e-005
17722	6.468	0.27273	0.	-24.812
17723	6.3756	0.36364	0.	-36.434
17724	6.468	0.36364	5.e-002	-1.7494e-005
17725	6.3756	0.18182	0.	-15.895
17726	6.468	0.18182	5.e-002	-3.2654e-005
17727	6.468	9.0909e-002	0.	-7.652
17728	6.2832	5.7273	0.	-27.495
17729	6.1908	5.8182	0.	-17.823
17730	6.2832	5.8182	5.e-002	3.3763e-005
17731	6.2832	5.9091	0.	-8.7174
17732	6.2832	5.5455	0.	-48.485
17733	6.1908	5.6364	0.	-40.031
17734	6.2832	5.6364	5.e-002	2.2447e-005
17735	6.2832	5.3636	0.	-68.763
17736	6.1908	5.4545	0.	-61.525
17737	6.2832	5.4545	5.e-002	1.2954e-005
17738	6.2832	5.1818	0.	-88.305
17739	6.1908	5.2727	0.	-82.309
17740	6.2832	5.2727	5.e-002	8.6403e-006
17741	6.2832	5.	0.	-106.98
17742	6.1908	5.0909	0.	-102.28
17743	6.2832	5.0909	5.e-002	1.5768e-005
17744	6.2832	4.8182	0.	-124.65
17745	6.1908	4.9091	0.	-121.28
17746	6.2832	4.9091	5.e-002	1.2313e-005
17747	6.2832	4.6364	0.	-141.14
17748	6.1908	4.7273	0.	-139.14
17749	6.2832	4.7273	5.e-002	1.4477e-005
17750	6.2832	4.4545	0.	-156.33
17751	6.1908	4.5455	0.	-155.72
17752	6.2832	4.5455	5.e-002	1.1108e-005
17753	6.2832	4.2727	0.	-170.08
17754	6.1908	4.3636	0.	-170.86
17755	6.2832	4.3636	5.e-002	1.389e-005
17756	6.2832	4.0909	0.	-182.27
17757	6.1908	4.1818	0.	-184.43
17758	6.2832	4.1818	5.e-002	8.621e-006
17759	6.2832	3.9091	0.	-192.78
17760	6.1908	4.	0.	-196.32
17761	6.2832	4.	5.e-002	7.7336e-006
17762	6.2832	3.7273	0.	-201.51
17763	6.1908	3.8182	0.	-206.39
17764	6.2832	3.8182	5.e-002	5.5899e-006
17765	6.2832	3.5455	0.	-208.4
17766	6.1908	3.6364	0.	-214.58
17767	6.2832	3.6364	5.e-002	4.4063e-006
17768	6.2832	3.3636	0.	-213.36
17769	6.1908	3.4545	0.	-220.78
17770	6.2832	3.4545	5.e-002	3.633e-006
17771	6.2832	3.1818	0.	-216.36
17772	6.1908	3.2727	0.	-224.95
17773	6.2832	3.2727	5.e-002	1.8764e-006
17774	6.2832	3.	0.	-217.36
17775	6.1908	3.0909	0.	-227.05
17776	6.2832	3.0909	5.e-002	6.1199e-007
17777	6.2832	2.8182	0.	-216.36
17778	6.1908	2.9091	0.	-227.05
17779	6.2832	2.9091	5.e-002	-6.0264e-007
17780	6.2832	2.6364	0.	-213.36
17781	6.1908	2.7273	0.	-224.95
17782	6.2832	2.7273	5.e-002	-1.7897e-006
17783	6.2832	2.4545	0.	-208.4
17784	6.1908	2.5455	0.	-220.78
17785	6.2832	2.5455	5.e-002	-1.0145e-006
17786	6.2832	2.2727	0.	-201.51
17787	6.1908	2.3636	0.	-214.58
17788	6.2832	2.3636	5.e-002	-3.9459e-006
17789	6.2832	2.0909	0.	-192.78
17790	6.1908	2.1818	0.	-206.39
17791	6.2832	2.1818	5.e-002	-5.5866e-006
17792	6.2832	1.9091	0.	-182.27
17793	6.1908	2.	0.	-196.32
17794	6.2832	2.	5.e-002	-5.5759e-006
17795	6.2832	1.7273	0.	-170.08
17796	6.1908	1.8182	0.	-184.43
17797	6.2832	1.8182	5.e-002	-9.03e-006
17798	6.2832	1.5455	0.	-156.33
17799	6.1908	1.6364	0.	-170.86
17800	6.2832	1.6364	5.e-002	-6.4617e-006
17801	6.2832	1.3636	0.	-141.14
17802	6.1908	1.4545	0.	-155.72
17803	6.2832	1.4545	5.e-002	-8.8437e-006
17804	6.2832	1.1818	0.	-124.65
17805	6.1908	1.2727	0.	-139.14
17806	6.2832	1.2727	5.e-002	-1.1848e-005
17807	6.2832	1.	0.	-106.98
17808	6.1908	1.0909	0.	-121.28
17809	6.2832	1.0909	5.e-002	-9.2348e-006
17810	6.2832	0.81818	0.	-88.305
17811	6.1908	0.90909	0.	-102.28
17812	6.2832	0.90909	5.e-002	-8.2872e-006
17813	6.2832	0.63636	0.	-68.763
17814	6.1908	0.72727	0.	-82.309
17815	6.2832	0.72727	5.e-002	-9.1012e-006
17816	6.2832	0.45455	0.	-48.485
17817	6.1908	0.54545	0.	-61.525
17818	6.2832	0.54545	5.e-002	-7.5016e-006
17819	6.2832	0.27273	0.	-27.495
17820	6.1908	0.36364	0.	-40.031
17821	6.2832	0.36364	5.e-002	-1.5209e-005
17822	6.1908	0.18182	0.	-17.823
17823	6.2832	0.18182	5.e-002	-3.3928e-005
17824	6.2832	9.0909e-002	0.	-8.7174
17825	6.0984	5.7273	0.	-30.331
17826	6.006	5.8182	0.	-19.833
17827	6.0984	5.8182	5.e-002	3.4883e-005
17828	6.0984	5.9091	0.	-9.8253
17829	6.0984	5.5455	0.	-53.064
17830	6.006	5.6364	0.	-43.855
17831	6.0984	5.6364	5.e-002	2.3916e-005
17832	6.0984	5.3636	0.	-75.065
17833	6.006	5.4545	0.	-67.166
17834	6.0984	5.4545	5.e-002	1.8564e-005
17835	6.0984	5.1818	0.	-96.281
17836	6.006	5.2727	0.	-89.723
17837	6.0984	5.2727	5.e-002	1.4051e-005
17838	6.0984	5.	0.	-116.57
17839	6.006	5.0909	0.	-111.42
17840	6.0984	5.0909	5.e-002	1.7846e-005
17841	6.0984	4.8182	0.	-135.77
17842	6.006	4.9091	0.	-132.06
17843	6.0984	4.9091	5.e-002	1.7188e-005
17844	6.0984	4.6364	0.	-153.71
17845	6.006	4.7273	0.	-151.48
17846	6.0984	4.7273	5.e-002	1.6205e-005
17847	6.0984	4.4545	0.	-170.24
17848	6.006	4.5455	0.	-169.52
17849	6.0984	4.5455	5.e-002	1.2279e-005
17850	6.0984	4.2727	0.	-185.21
17851	6.006	4.3636	0.	-186.
17852	6.0984	4.3636	5.e-002	1.1241e-005
17853	6.0984	4.0909	0.	-198.48
17854	6.006	4.1818	0.	-200.78
17855	6.0984	4.1818	5.e-002	9.9428e-006
17856	6.0984	3.9091	0.	-209.93
17857	6.006	4.	0.	-213.73
17858	6.0984	4.	5.e-002	6.6166e-006
17859	6.0984	3.7273	0.	-219.45
17860	6.006	3.8182	0.	-224.71
17861	6.0984	3.8182	5.e-002	6.0661e-006
17862	6.0984	3.5455	0.	-226.96
17863	6.006	3.6364	0.	-233.63
17864	6.0984	3.6364	5.e-002	4.78e-006
17865	6.0984	3.3636	0.	-232.37
17866	6.006	3.4545	0.	-240.4
17867	6.0984	3.4545	5.e-002	3.4188e-006
17868	6.0984	3.1818	0.	-235.64
17869	6.006	3.2727	0.	-244.95
17870	6.0984	3.2727	5.e-002	2.0275e-006
17871	6.0984	3.	0.	-236.74
17872	6.006	3.0909	0.	-247.23
17873	6.0984	3.0909	5.e-002	2.5681e-006
17874	6.0984	2.8182	0.	-235.64
17875	6.006	2.9091	0.	-247.23
17876	6.0984	2.9091	5.e-002	-6.3892e-007
17877	6.0984	2.6364	0.	-232.37
17878	6.006	2.7273	0.	-244.95
17879	6.0984	2.7273	5.e-002	-1.9279e-006
17880	6.0984	2.4545	0.	-226.96
17881	6.006	2.5455	0.	-240.4
17882	6.0984	2.5455	5.e-002	-3.1393e-006
17883	6.0984	2.2727	0.	-219.45
17884	6.006	2.3636	0.	-233.63
17885	6.0984	2.3636	5.e-002	-4.2315e-006
17886	6.0984	2.0909	0.	-209.93
17887	6.006	2.1818	0.	-224.71
17888	6.0984	2.1818	5.e-002	-5.2148e-006
17889	6.0984	1.9091	0.	-198.48
17890	6.006	2.	0.	-213.73
17891	6.0984	2.	5.e-002	-7.2499e-006
17892	6.0984	1.7273	0.	-185.21
17893	6.006	1.8182	0.	-200.78
17894	6.0984	1.8182	5.e-002	-9.9428e-006
17895	6.0984	1.5455	0.	-170.24
17896	6.006	1.6364	0.	-186.
17897	6.0984	1.6364	5.e-002	-1.1219e-005
17898	6.0984	1.3636	0.	-153.71
17899	6.006	1.4545	0.	-169.52
17900	6.0984	1.4545	5.e-002	-7.8706e-006
17901	6.0984	1.1818	0.	-135.77
17902	6.006	1.2727	0.	-151.48
17903	6.0984	1.2727	5.e-002	-1.6244e-005
17904	6.0984	1.	0.	-116.57
17905	6.006	1.0909	0.	-132.06
17906	6.0984	1.0909	5.e-002	-1.3691e-005
17907	6.0984	0.81818	0.	-96.281
17908	6.006	0.90909	0.	-111.42
17909	6.0984	0.90909	5.e-002	-1.7905e-005
17910	6.0984	0.63636	0.	-75.065
17911	6.006	0.72727	0.	-89.723
17912	6.0984	0.72727	5.e-002	-1.3928e-005
17913	6.0984	0.45455	0.	-53.064
17914	6.006	0.54545	0.	-67.166
17915	6.0984	0.54545	5.e-002	-1.3128e-005
17916	6.0984	0.27273	0.	-30.331
17917	6.006	0.36364	0.	-43.855
17918	6.0984	0.36364	5.e-002	-1.8735e-005
17919	6.006	0.18182	0.	-19.833
17920	6.0984	0.18182	5.e-002	-2.2489e-005
17921	6.0984	9.0909e-002	0.	-9.8253
17922	5.9136	5.7273	0.	-33.323
17923	5.8212	5.8182	0.	-21.922
17924	5.9136	5.8182	5.e-002	3.4374e-005
17925	5.9136	5.9091	0.	-10.973
17926	5.9136	5.5455	0.	-57.947
17927	5.8212	5.6364	0.	-47.915
17928	5.9136	5.6364	5.e-002	2.14e-005
17929	5.9136	5.3636	0.	-81.816
17930	5.8212	5.4545	0.	-73.195
17931	5.9136	5.4545	5.e-002	2.6257e-005
17932	5.9136	5.1818	0.	-104.85
17933	5.8212	5.2727	0.	-97.676
17934	5.9136	5.2727	5.e-002	2.0609e-005
17935	5.9136	5.	0.	-126.89
17936	5.8212	5.0909	0.	-121.24
17937	5.9136	5.0909	5.e-002	2.4713e-005
17938	5.9136	4.8182	0.	-147.76
17939	5.8212	4.9091	0.	-143.67
17940	5.9136	4.9091	5.e-002	1.9266e-005
17941	5.9136	4.6364	0.	-167.28
17942	5.8212	4.7273	0.	-164.8
17943	5.9136	4.7273	5.e-002	1.807e-005
17944	5.9136	4.4545	0.	-185.27
17945	5.8212	4.5455	0.	-184.42
17946	5.9136	4.5455	5.e-002	1.0517e-005
17947	5.9136	4.2727	0.	-201.57
17948	5.8212	4.3636	0.	-202.36
17949	5.9136	4.3636	5.e-002	9.9042e-006
17950	5.9136	4.0909	0.	-216.02
17951	5.8212	4.1818	0.	-218.47
17952	5.9136	4.1818	5.e-002	1.0925e-005
17953	5.9136	3.9091	0.	-228.5
17954	5.8212	4.	0.	-232.57
17955	5.9136	4.	5.e-002	7.8348e-006
17956	5.9136	3.7273	0.	-238.89
17957	5.8212	3.8182	0.	-244.55
17958	5.9136	3.8182	5.e-002	7.609e-006
17959	5.9136	3.5455	0.	-247.07
17960	5.8212	3.6364	0.	-254.27
17961	5.9136	3.6364	5.e-002	5.7967e-006
17962	5.9136	3.3636	0.	-252.98
17963	5.8212	3.4545	0.	-261.66
17964	5.9136	3.4545	5.e-002	3.7115e-006
17965	5.9136	3.1818	0.	-256.54
17966	5.8212	3.2727	0.	-266.62
17967	5.9136	3.2727	5.e-002	2.1993e-006
17968	5.9136	3.	0.	-257.73
17969	5.8212	3.0909	0.	-269.11
17970	5.9136	3.0909	5.e-002	7.0191e-007
17971	5.9136	2.8182	0.	-256.54
17972	5.8212	2.9091	0.	-269.11
17973	5.9136	2.9091	5.e-002	-7.0279e-007
17974	5.9136	2.6364	0.	-252.98
17975	5.8212	2.7273	0.	-266.62
17976	5.9136	2.7273	5.e-002	-1.9681e-006
17977	5.9136	2.4545	0.	-247.07
17978	5.8212	2.5455	0.	-261.66
17979	5.9136	2.5455	5.e-002	-1.5075e-006
17980	5.9136	2.2727	0.	-238.89
17981	5.8212	2.3636	0.	-254.27
17982	5.9136	2.3636	5.e-002	-5.1741e-006
17983	5.9136	2.0909	0.	-228.5
17984	5.8212	2.1818	0.	-244.55
17985	5.9136	2.1818	5.e-002	-6.6675e-006
17986	5.9136	1.9091	0.	-216.02
17987	5.8212	2.	0.	-232.57
17988	5.9136	2.	5.e-002	-7.9436e-006
17989	5.9136	1.7273	0.	-201.57
17990	5.8212	1.8182	0.	-218.47
17991	5.9136	1.8182	5.e-002	-1.0925e-005
17992	5.9136	1.5455	0.	-185.27
17993	5.8212	1.6364	0.	-202.36
17994	5.9136	1.6364	5.e-002	-8.1213e-006
17995	5.9136	1.3636	0.	-167.28
17996	5.8212	1.4545	0.	-184.42
17997	5.9136	1.4545	5.e-002	-8.859e-006
17998	5.9136	1.1818	0.	-147.76
17999	5.8212	1.2727	0.	-164.8
18000	5.9136	1.2727	5.e-002	-1.8153e-005
18001	5.9136	1.	0.	-126.89
18002	5.8212	1.0909	0.	-143.67
18003	5.9136	1.0909	5.e-002	-1.5266e-005
18004	5.9136	0.81818	0.	-104.85
18005	5.8212	0.90909	0.	-121.24
18006	5.9136	0.90909	5.e-002	-2.4839e-005
18007	5.9136	0.63636	0.	-81.816
18008	5.8212	0.72727	0.	-97.676
18009	5.9136	0.72727	5.e-002	-9.7984e-006
18010	5.9136	0.45455	0.	-57.947
18011	5.8212	0.54545	0.	-73.195
18012	5.9136	0.54545	5.e-002	-1.9945e-005
18013	5.9136	0.27273	0.	-33.323
18014	5.8212	0.36364	0.	-47.915
18015	5.9136	0.36364	5.e-002	-1.4484e-005
18016	5.8212	0.18182	0.	-21.922
18017	5.9136	0.18182	5.e-002	-2.3735e-005
18018	5.9136	9.0909e-002	0.	-10.973
18019	5.7288	5.7273	0.	-36.473
18020	5.6364	5.8182	0.	-24.084
18021	5.7288	5.8182	5.e-002	3.4074e-005
18022	5.7288	5.9091	0.	-12.156
18023	5.7288	5.5455	0.	-63.149
18024	5.6364	5.6364	0.	-52.219
18025	5.7288	5.6364	5.e-002	1.7126e-005
18026	5.7288	5.3636	0.	-89.043
18027	5.6364	5.4545	0.	-79.632
18028	5.7288	5.4545	5.e-002	2.3454e-005
18029	5.7288	5.1818	0.	-114.05
18030	5.6364	5.2727	0.	-106.2
18031	5.7288	5.2727	5.e-002	1.2495e-005
18032	5.7288	5.	0.	-138.
18033	5.6364	5.0909	0.	-131.79
18034	5.7288	5.0909	5.e-002	2.2566e-005
18035	5.7288	4.8182	0.	-160.69
18036	5.6364	4.9091	0.	-156.17
18037	5.7288	4.9091	5.e-002	2.6285e-005
18038	5.7288	4.6364	0.	-181.92
18039	5.6364	4.7273	0.	-179.15
18040	5.7288	4.7273	5.e-002	2.0286e-005
18041	5.7288	4.4545	0.	-201.5
18042	5.6364	4.5455	0.	-200.5
18043	5.7288	4.5455	5.e-002	1.1433e-005
18044	5.7288	4.2727	0.	-219.25
18045	5.6364	4.3636	0.	-220.05
18046	5.7288	4.3636	5.e-002	1.0902e-005
18047	5.7288	4.0909	0.	-235.01
18048	5.6364	4.1818	0.	-237.59
18049	5.7288	4.1818	5.e-002	1.4358e-005
18050	5.7288	3.9091	0.	-248.61
18051	5.6364	4.	0.	-252.97
18052	5.7288	4.	5.e-002	1.0273e-005
18053	5.7288	3.7273	0.	-259.93
18054	5.6364	3.8182	0.	-266.02
18055	5.7288	3.8182	5.e-002	7.2087e-006
18056	5.7288	3.5455	0.	-268.86
18057	5.6364	3.6364	0.	-276.63
18058	5.7288	3.6364	5.e-002	5.6113e-006
18059	5.7288	3.3636	0.	-275.3
18060	5.6364	3.4545	0.	-284.69
18061	5.7288	3.4545	5.e-002	3.6333e-006
18062	5.7288	3.1818	0.	-279.19
18063	5.6364	3.2727	0.	-290.1
18064	5.7288	3.2727	5.e-002	2.3815e-006
18065	5.7288	3.	0.	-280.49
18066	5.6364	3.0909	0.	-292.83
18067	5.7288	3.0909	5.e-002	7.7254e-007
18068	5.7288	2.8182	0.	-279.19
18069	5.6364	2.9091	0.	-292.83
18070	5.7288	2.9091	5.e-002	3.0709e-006
18071	5.7288	2.6364	0.	-275.3
18072	5.6364	2.7273	0.	-290.1
18073	5.7288	2.7273	5.e-002	-2.2502e-006
18074	5.7288	2.4545	0.	-268.86
18075	5.6364	2.5455	0.	-284.69
18076	5.7288	2.5455	5.e-002	-3.652e-006
18077	5.7288	2.2727	0.	-259.93
18078	5.6364	2.3636	0.	-276.63
18079	5.7288	2.3636	5.e-002	-4.9427e-006
18080	5.7288	2.0909	0.	-248.61
18081	5.6364	2.1818	0.	-266.02
18082	5.7288	2.1818	5.e-002	-7.2087e-006
18083	5.7288	1.9091	0.	-235.01
18084	5.6364	2.	0.	-252.97
18085	5.7288	2.	5.e-002	-7.0058e-006
18086	5.7288	1.7273	0.	-219.25
18087	5.6364	1.8182	0.	-237.59
18088	5.7288	1.8182	5.e-002	-9.7808e-006
18089	5.7288	1.5455	0.	-201.5
18090	5.6364	1.6364	0.	-220.05
18091	5.7288	1.6364	5.e-002	-8.0506e-006
18092	5.7288	1.3636	0.	-181.92
18093	5.6364	1.4545	0.	-200.5
18094	5.7288	1.4545	5.e-002	-8.067e-006
18095	5.7288	1.1818	0.	-160.69
18096	5.6364	1.2727	0.	-179.15
18097	5.7288	1.2727	5.e-002	-4.5555e-006
18098	5.7288	1.	0.	-138.
18099	5.6364	1.0909	0.	-156.17
18100	5.7288	1.0909	5.e-002	-1.7019e-005
18101	5.7288	0.81818	0.	-114.05
18102	5.6364	0.90909	0.	-131.79
18103	5.7288	0.90909	5.e-002	-1.7475e-005
18104	5.7288	0.63636	0.	-89.043
18105	5.6364	0.72727	0.	-106.2
18106	5.7288	0.72727	5.e-002	-1.e-005
18107	5.7288	0.45455	0.	-63.149
18108	5.6364	0.54545	0.	-79.632
18109	5.7288	0.54545	5.e-002	-2.3526e-005
18110	5.7288	0.27273	0.	-36.473
18111	5.6364	0.36364	0.	-52.219
18112	5.7288	0.36364	5.e-002	-9.8656e-006
18113	5.6364	0.18182	0.	-24.084
18114	5.7288	0.18182	5.e-002	-3.3449e-005
18115	5.7288	9.0909e-002	0.	-12.156
18116	5.544	5.7273	0.	-39.78
18117	5.4516	5.8182	0.	-26.312
18118	5.544	5.8182	5.e-002	3.4216e-005
18119	5.544	5.9091	0.	-13.37
18120	5.544	5.5455	0.	-68.685
18121	5.4516	5.6364	0.	-56.774
18122	5.544	5.6364	5.e-002	2.6713e-005
18123	5.544	5.3636	0.	-96.775
18124	5.4516	5.4545	0.	-86.499
18125	5.544	5.4545	5.e-002	2.7103e-005
18126	5.544	5.1818	0.	-123.92
18127	5.4516	5.2727	0.	-115.33
18128	5.544	5.2727	5.e-002	3.2512e-005
18129	5.544	5.	0.	-149.95
18130	5.4516	5.0909	0.	-143.12
18131	5.544	5.0909	5.e-002	3.1174e-005
18132	5.544	4.8182	0.	-174.62
18133	5.4516	4.9091	0.	-169.63
18134	5.544	4.9091	5.e-002	2.3983e-005
18135	5.544	4.6364	0.	-197.72
18136	5.4516	4.7273	0.	-194.62
18137	5.544	4.7273	5.e-002	1.7789e-005
18138	5.544	4.4545	0.	-219.04
18139	5.4516	4.5455	0.	-217.87
18140	5.544	4.5455	5.e-002	2.0466e-005
18141	5.544	4.2727	0.	-238.37
18142	5.4516	4.3636	0.	-239.15
18143	5.544	4.3636	5.e-002	1.5053e-005
18144	5.544	4.0909	0.	-255.54
18145	5.4516	4.1818	0.	-258.27
18146	5.544	4.1818	5.e-002	1.591e-005
18147	5.544	3.9091	0.	-270.38
18148	5.4516	4.	0.	-275.03
18149	5.544	4.	5.e-002	1.3205e-005
18150	5.544	3.7273	0.	-282.72
18151	5.4516	3.8182	0.	-289.28
18152	5.544	3.8182	5.e-002	7.8255e-006
18153	5.544	3.5455	0.	-292.46
18154	5.4516	3.6364	0.	-300.85
18155	5.544	3.6364	5.e-002	5.3063e-006
18156	5.544	3.3636	0.	-299.49
18157	5.4516	3.4545	0.	-309.64
18158	5.544	3.4545	5.e-002	3.9236e-006
18159	5.544	3.1818	0.	-303.74
18160	5.4516	3.2727	0.	-315.55
18161	5.544	3.2727	5.e-002	2.5711e-006
18162	5.544	3.	0.	-305.16
18163	5.4516	3.0909	0.	-318.53
18164	5.544	3.0909	5.e-002	8.1418e-007
18165	5.544	2.8182	0.	-303.74
18166	5.4516	2.9091	0.	-318.53
18167	5.544	2.9091	5.e-002	-8.1418e-007
18168	5.544	2.6364	0.	-299.49
18169	5.4516	2.7273	0.	-315.55
18170	5.544	2.7273	5.e-002	-2.4128e-006
18171	5.544	2.4545	0.	-292.46
18172	5.4516	2.5455	0.	-309.64
18173	5.544	2.5455	5.e-002	-3.9236e-006
18174	5.544	2.2727	0.	-282.72
18175	5.4516	2.3636	0.	-300.85
18176	5.544	2.3636	5.e-002	-5.3063e-006
18177	5.544	2.0909	0.	-270.38
18178	5.4516	2.1818	0.	-289.28
18179	5.544	2.1818	5.e-002	-6.4892e-006
18180	5.544	1.9091	0.	-255.54
18181	5.4516	2.	0.	-275.03
18182	5.544	2.	5.e-002	-7.5886e-006
18183	5.544	1.7273	0.	-238.37
18184	5.4516	1.8182	0.	-258.27
18185	5.544	1.8182	5.e-002	-1.0743e-005
18186	5.544	1.5455	0.	-219.04
18187	5.4516	1.6364	0.	-239.15
18188	5.544	1.6364	5.e-002	-1.1881e-005
18189	5.544	1.3636	0.	-197.72
18190	5.4516	1.4545	0.	-217.87
18191	5.544	1.4545	5.e-002	-1.6709e-005
18192	5.544	1.1818	0.	-174.62
18193	5.4516	1.2727	0.	-194.62
18194	5.544	1.2727	5.e-002	-1.7916e-005
18195	5.544	1.	0.	-149.95
18196	5.4516	1.0909	0.	-169.63
18197	5.544	1.0909	5.e-002	-2.4253e-005
18198	5.544	0.81818	0.	-123.92
18199	5.4516	0.90909	0.	-143.12
18200	5.544	0.90909	5.e-002	-2.3722e-005
18201	5.544	0.63636	0.	-96.775
18202	5.4516	0.72727	0.	-115.33
18203	5.544	0.72727	5.e-002	-2.5365e-005
18204	5.544	0.45455	0.	-68.685
18205	5.4516	0.54545	0.	-86.499
18206	5.544	0.54545	5.e-002	-2.5571e-005
18207	5.544	0.27273	0.	-39.78
18208	5.4516	0.36364	0.	-56.774
18209	5.544	0.36364	5.e-002	-1.8359e-005
18210	5.4516	0.18182	0.	-26.312
18211	5.544	0.18182	5.e-002	-2.2694e-005
18212	5.544	9.0909e-002	0.	-13.37
18213	5.3592	5.7273	0.	-43.245
18214	5.2668	5.8182	0.	-28.595
18215	5.3592	5.8182	5.e-002	2.3772e-005
18216	5.3592	5.9091	0.	-14.608
18217	5.3592	5.5455	0.	-74.567
18218	5.2668	5.6364	0.	-61.586
18219	5.3592	5.6364	5.e-002	3.8022e-005
18220	5.3592	5.3636	0.	-105.04
18221	5.2668	5.4545	0.	-93.815
18222	5.3592	5.4545	5.e-002	3.0104e-005
18223	5.3592	5.1818	0.	-134.51
18224	5.2668	5.2727	0.	-125.11
18225	5.3592	5.2727	5.e-002	2.8961e-005
18226	5.3592	5.	0.	-162.79
18227	5.2668	5.0909	0.	-155.29
18228	5.3592	5.0909	5.e-002	2.8432e-005
18229	5.3592	4.8182	0.	-189.62
18230	5.2668	4.9091	0.	-184.11
18231	5.3592	4.9091	5.e-002	2.0907e-005
18232	5.3592	4.6364	0.	-214.75
18233	5.2668	4.7273	0.	-211.29
18234	5.3592	4.7273	5.e-002	1.9946e-005
18235	5.3592	4.4545	0.	-237.97
18236	5.2668	4.5455	0.	-236.6
18237	5.3592	4.5455	5.e-002	1.3866e-005
18238	5.3592	4.2727	0.	-259.04
18239	5.2668	4.3636	0.	-259.79
18240	5.3592	4.3636	5.e-002	2.0464e-005
18241	5.3592	4.0909	0.	-277.75
18242	5.2668	4.1818	0.	-280.63
18243	5.3592	4.1818	5.e-002	1.4756e-005
18244	5.3592	3.9091	0.	-293.93
18245	5.2668	4.	0.	-298.91
18246	5.3592	4.	5.e-002	1.0069e-005
18247	5.3592	3.7273	0.	-307.4
18248	5.2668	3.8182	0.	-314.45
18249	5.3592	3.8182	5.e-002	8.4903e-006
18250	5.3592	3.5455	0.	-318.03
18251	5.2668	3.6364	0.	-327.08
18252	5.3592	3.6364	5.e-002	6.6488e-006
18253	5.3592	3.3636	0.	-325.71
18254	5.2668	3.4545	0.	-336.68
18255	5.3592	3.4545	5.e-002	4.2113e-006
18256	5.3592	3.1818	0.	-330.34
18257	5.2668	3.2727	0.	-343.13
18258	5.3592	3.2727	5.e-002	2.6042e-006
18259	5.3592	3.	0.	-331.89
18260	5.2668	3.0909	0.	-346.37
18261	5.3592	3.0909	5.e-002	9.177e-007
18262	5.3592	2.8182	0.	-330.34
18263	5.2668	2.9091	0.	-346.37
18264	5.3592	2.9091	5.e-002	-8.3812e-007
18265	5.3592	2.6364	0.	-325.71
18266	5.2668	2.7273	0.	-343.13
18267	5.3592	2.7273	5.e-002	-2.6172e-006
18268	5.3592	2.4545	0.	-318.03
18269	5.2668	2.5455	0.	-336.68
18270	5.3592	2.5455	5.e-002	-4.1683e-006
18271	5.3592	2.2727	0.	-307.4
18272	5.2668	2.3636	0.	-327.08
18273	5.3592	2.3636	5.e-002	-5.6906e-006
18274	5.3592	2.0909	0.	-293.93
18275	5.2668	2.1818	0.	-314.45
18276	5.3592	2.1818	5.e-002	-6.9517e-006
18277	5.3592	1.9091	0.	-277.75
18278	5.2668	2.	0.	-298.91
18279	5.3592	2.	5.e-002	-4.3537e-006
18280	5.3592	1.7273	0.	-259.04
18281	5.2668	1.8182	0.	-280.63
18282	5.3592	1.8182	5.e-002	-1.1993e-005
18283	5.3592	1.5455	0.	-237.97
18284	5.2668	1.6364	0.	-259.79
18285	5.3592	1.6364	5.e-002	-1.2938e-005
18286	5.3592	1.3636	0.	-214.75
18287	5.2668	1.4545	0.	-236.6
18288	5.3592	1.4545	5.e-002	-9.0402e-006
18289	5.3592	1.1818	0.	-189.62
18290	5.2668	1.2727	0.	-211.29
18291	5.3592	1.2727	5.e-002	-1.7666e-005
18292	5.3592	1.	0.	-162.79
18293	5.2668	1.0909	0.	-184.11
18294	5.3592	1.0909	5.e-002	-1.4472e-005
18295	5.3592	0.81818	0.	-134.51
18296	5.2668	0.90909	0.	-155.29
18297	5.3592	0.90909	5.e-002	-2.1265e-005
18298	5.3592	0.63636	0.	-105.04
18299	5.2668	0.72727	0.	-125.11
18300	5.3592	0.72727	5.e-002	-2.1762e-005
18301	5.3592	0.45455	0.	-74.567
18302	5.2668	0.54545	0.	-93.815
18303	5.3592	0.54545	5.e-002	-1.9695e-005
18304	5.3592	0.27273	0.	-43.245
18305	5.2668	0.36364	0.	-61.586
18306	5.3592	0.36364	5.e-002	-2.9448e-005
18307	5.2668	0.18182	0.	-28.595
18308	5.3592	0.18182	5.e-002	-2.2859e-005
18309	5.3592	9.0909e-002	0.	-14.608
18310	5.1744	5.7273	0.	-46.863
18311	5.082	5.8182	0.	-30.92
18312	5.1744	5.8182	5.e-002	4.4382e-005
18313	5.1744	5.9091	0.	-15.86
18314	5.1744	5.5455	0.	-80.808
18315	5.082	5.6364	0.	-66.658
18316	5.1744	5.6364	5.e-002	4.2222e-005
18317	5.1744	5.3636	0.	-113.86
18318	5.082	5.4545	0.	-101.6
18319	5.1744	5.4545	5.e-002	2.5293e-005
18320	5.1744	5.1818	0.	-145.86
18321	5.082	5.2727	0.	-135.56
18322	5.1744	5.2727	5.e-002	3.2226e-005
18323	5.1744	5.	0.	-176.59
18324	5.082	5.0909	0.	-168.35
18325	5.1744	5.0909	5.e-002	3.1724e-005
18326	5.1744	4.8182	0.	-205.76
18327	5.082	4.9091	0.	-199.68
18328	5.1744	4.9091	5.e-002	3.0142e-005
18329	5.1744	4.6364	0.	-233.12
18330	5.082	4.7273	0.	-229.26
18331	5.1744	4.7273	5.e-002	3.4306e-005
18332	5.1744	4.4545	0.	-258.41
18333	5.082	4.5455	0.	-256.81
18334	5.1744	4.5455	5.e-002	2.0603e-005
18335	5.1744	4.2727	0.	-281.37
18336	5.082	4.3636	0.	-282.08
18337	5.1744	4.3636	5.e-002	1.9149e-005
18338	5.1744	4.0909	0.	-301.77
18339	5.082	4.1818	0.	-304.8
18340	5.1744	4.1818	5.e-002	1.2811e-005
18341	5.1744	3.9091	0.	-319.42
18342	5.082	4.	0.	-324.74
18343	5.1744	4.	5.e-002	1.386e-005
18344	5.1744	3.7273	0.	-334.12
18345	5.082	3.8182	0.	-341.69
18346	5.1744	3.8182	5.e-002	7.1977e-006
18347	5.1744	3.5455	0.	-345.73
18348	5.082	3.6364	0.	-355.48
18349	5.1744	3.6364	5.e-002	6.0956e-006
18350	5.1744	3.3636	0.	-354.1
18351	5.082	3.4545	0.	-365.95
18352	5.1744	3.4545	5.e-002	5.1365e-006
18353	5.1744	3.1818	0.	-359.17
18354	5.082	3.2727	0.	-373.
18355	5.1744	3.2727	5.e-002	2.794e-006
18356	5.1744	3.	0.	-360.86
18357	5.082	3.0909	0.	-376.55
18358	5.1744	3.0909	5.e-002	9.4569e-007
18359	5.1744	2.8182	0.	-359.17
18360	5.082	2.9091	0.	-376.55
18361	5.1744	2.9091	5.e-002	-9.4569e-007
18362	5.1744	2.6364	0.	-354.1
18363	5.082	2.7273	0.	-373.
18364	5.1744	2.7273	5.e-002	-2.794e-006
18365	5.1744	2.4545	0.	-345.73
18366	5.082	2.5455	0.	-365.95
18367	5.1744	2.5455	5.e-002	-4.5613e-006
18368	5.1744	2.2727	0.	-334.12
18369	5.082	2.3636	0.	-355.48
18370	5.1744	2.3636	5.e-002	-6.1591e-006
18371	5.1744	2.0909	0.	-319.42
18372	5.082	2.1818	0.	-341.69
18373	5.1744	2.1818	5.e-002	-7.6775e-006
18374	5.1744	1.9091	0.	-301.77
18375	5.082	2.	0.	-324.74
18376	5.1744	2.	5.e-002	-1.0014e-005
18377	5.1744	1.7273	0.	-281.37
18378	5.082	1.8182	0.	-304.8
18379	5.1744	1.8182	5.e-002	-1.303e-005
18380	5.1744	1.5455	0.	-258.41
18381	5.082	1.6364	0.	-282.08
18382	5.1744	1.6364	5.e-002	-1.8386e-005
18383	5.1744	1.3636	0.	-233.12
18384	5.082	1.4545	0.	-256.81
18385	5.1744	1.4545	5.e-002	-8.1325e-006
18386	5.1744	1.1818	0.	-205.76
18387	5.082	1.2727	0.	-229.26
18388	5.1744	1.2727	5.e-002	-1.5891e-005
18389	5.1744	1.	0.	-176.59
18390	5.082	1.0909	0.	-199.68
18391	5.1744	1.0909	5.e-002	-3.0142e-005
18392	5.1744	0.81818	0.	-145.86
18393	5.082	0.90909	0.	-168.35
18394	5.1744	0.90909	5.e-002	-1.6097e-005
18395	5.1744	0.63636	0.	-113.86
18396	5.082	0.72727	0.	-135.56
18397	5.1744	0.72727	5.e-002	-3.2887e-005
18398	5.1744	0.45455	0.	-80.808
18399	5.082	0.54545	0.	-101.6
18400	5.1744	0.54545	5.e-002	-5.7938e-006
18401	5.1744	0.27273	0.	-46.863
18402	5.082	0.36364	0.	-66.658
18403	5.1744	0.36364	5.e-002	-3.2753e-005
18404	5.082	0.18182	0.	-30.92
18405	5.1744	0.18182	5.e-002	-3.3721e-005
18406	5.1744	9.0909e-002	0.	-15.86
18407	4.9896	5.7273	0.	-50.629
18408	4.8972	5.8182	0.	-33.27
18409	4.9896	5.8182	5.e-002	3.4256e-005
18410	4.9896	5.9091	0.	-17.117
18411	4.9896	5.5455	0.	-87.42
18412	4.8972	5.6364	0.	-71.994
18413	4.9896	5.6364	5.e-002	4.7239e-005
18414	4.9896	5.3636	0.	-123.27
18415	4.8972	5.4545	0.	-109.88
18416	4.9896	5.4545	5.e-002	4.7224e-005
18417	4.9896	5.1818	0.	-158.02
18418	4.8972	5.2727	0.	-146.73
18419	4.9896	5.2727	5.e-002	2.6658e-005
18420	4.9896	5.	0.	-191.41
18421	4.8972	5.0909	0.	-182.35
18422	4.9896	5.0909	5.e-002	2.6471e-005
18423	4.9896	4.8182	0.	-223.14
18424	4.8972	4.9091	0.	-216.41
18425	4.9896	4.9091	5.e-002	2.5567e-005
18426	4.9896	4.6364	0.	-252.93
18427	4.8972	4.7273	0.	-248.6
18428	4.9896	4.7273	5.e-002	2.3695e-005
18429	4.9896	4.4545	0.	-280.47
18430	4.8972	4.5455	0.	-278.61
18431	4.9896	4.5455	5.e-002	2.2688e-005
18432	4.9896	4.2727	0.	-305.49
18433	4.8972	4.3636	0.	-306.15
18434	4.9896	4.3636	5.e-002	2.0225e-005
18435	4.9896	4.0909	0.	-327.75
18436	4.8972	4.1818	0.	-330.92
18437	4.9896	4.1818	5.e-002	1.7803e-005
18438	4.9896	3.9091	0.	-347.
18439	4.8972	4.	0.	-352.67
18440	4.9896	4.	5.e-002	1.2067e-005
18441	4.9896	3.7273	0.	-363.05
18442	4.8972	3.8182	0.	-371.17
18443	4.9896	3.8182	5.e-002	9.8881e-006
18444	4.9896	3.5455	0.	-375.71
18445	4.8972	3.6364	0.	-386.23
18446	4.9896	3.6364	5.e-002	7.7859e-006
18447	4.9896	3.3636	0.	-384.86
18448	4.8972	3.4545	0.	-397.66
18449	4.9896	3.4545	5.e-002	5.5452e-006
18450	4.9896	3.1818	0.	-390.39
18451	4.8972	3.2727	0.	-405.36
18452	4.9896	3.2727	5.e-002	3.2656e-006
18453	4.9896	3.	0.	-392.24
18454	4.8972	3.0909	0.	-409.23
18455	4.9896	3.0909	5.e-002	1.0138e-006
18456	4.9896	2.8182	0.	-390.39
18457	4.8972	2.9091	0.	-409.23
18458	4.9896	2.9091	5.e-002	-1.0163e-006
18459	4.9896	2.6364	0.	-384.86
18460	4.8972	2.7273	0.	-405.36
18461	4.9896	2.7273	5.e-002	-2.9941e-006
18462	4.9896	2.4545	0.	-375.71
18463	4.8972	2.5455	0.	-397.66
18464	4.9896	2.5455	5.e-002	-4.9339e-006
18465	4.9896	2.2727	0.	-363.05
18466	4.8972	2.3636	0.	-386.23
18467	4.9896	2.3636	5.e-002	-7.7859e-006
18468	4.9896	2.0909	0.	-347.
18469	4.8972	2.1818	0.	-371.17
18470	4.9896	2.1818	5.e-002	-8.2028e-006
18471	4.9896	1.9091	0.	-327.75
18472	4.8972	2.	0.	-352.67
18473	4.9896	2.	5.e-002	-9.1517e-006
18474	4.9896	1.7273	0.	-305.49
18475	4.8972	1.8182	0.	-330.92
18476	4.9896	1.8182	5.e-002	-1.0107e-005
18477	4.9896	1.5455	0.	-280.47
18478	4.8972	1.6364	0.	-306.15
18479	4.9896	1.6364	5.e-002	-1.0904e-005
18480	4.9896	1.3636	0.	-252.93
18481	4.8972	1.4545	0.	-278.61
18482	4.9896	1.4545	5.e-002	-1.6724e-005
18483	4.9896	1.1818	0.	-223.14
18484	4.8972	1.2727	0.	-248.6
18485	4.9896	1.2727	5.e-002	-1.0325e-005
18486	4.9896	1.	0.	-191.41
18487	4.8972	1.0909	0.	-216.41
18488	4.9896	1.0909	5.e-002	-1.5944e-005
18489	4.9896	0.81818	0.	-158.02
18490	4.8972	0.90909	0.	-182.35
18491	4.9896	0.90909	5.e-002	-1.8276e-005
18492	4.9896	0.63636	0.	-123.27
18493	4.8972	0.72727	0.	-146.73
18494	4.9896	0.72727	5.e-002	-1.6638e-005
18495	4.9896	0.45455	0.	-87.42
18496	4.8972	0.54545	0.	-109.88
18497	4.9896	0.54545	5.e-002	-3.7567e-005
18498	4.9896	0.27273	0.	-50.629
18499	4.8972	0.36364	0.	-71.994
18500	4.9896	0.36364	5.e-002	-4.6846e-005
18501	4.8972	0.18182	0.	-33.27
18502	4.9896	0.18182	5.e-002	-2.3263e-005
18503	4.9896	9.0909e-002	0.	-17.117
18504	4.8048	5.7273	0.	-54.534
18505	4.7124	5.8182	0.	-35.625
18506	4.8048	5.8182	5.e-002	4.4179e-005
18507	4.8048	5.9091	0.	-18.365
18508	4.8048	5.5455	0.	-94.414
18509	4.7124	5.6364	0.	-77.594
18510	4.8048	5.6364	5.e-002	4.1553e-005
18511	4.8048	5.3636	0.	-133.3
18512	4.7124	5.4545	0.	-118.66
18513	4.8048	5.4545	5.e-002	5.3552e-005
18514	4.8048	5.1818	0.	-171.03
18515	4.7124	5.2727	0.	-158.66
18516	4.8048	5.2727	5.e-002	5.1752e-005
18517	4.8048	5.	0.	-207.32
18518	4.7124	5.0909	0.	-197.36
18519	4.8048	5.0909	5.e-002	3.0673e-005
18520	4.8048	4.8182	0.	-241.84
18521	4.7124	4.9091	0.	-234.4
18522	4.8048	4.9091	5.e-002	3.5892e-005
18523	4.8048	4.6364	0.	-274.27
18524	4.7124	4.7273	0.	-269.44
18525	4.8048	4.7273	5.e-002	1.8201e-005
18526	4.8048	4.4545	0.	-304.27
18527	4.7124	4.5455	0.	-302.12
18528	4.8048	4.5455	5.e-002	3.9125e-005
18529	4.8048	4.2727	0.	-331.56
18530	4.7124	4.3636	0.	-332.13
18531	4.8048	4.3636	5.e-002	1.6071e-005
18532	4.8048	4.0909	0.	-355.83
18533	4.7124	4.1818	0.	-359.15
18534	4.8048	4.1818	5.e-002	2.4218e-005
18535	4.8048	3.9091	0.	-376.84
18536	4.7124	4.	0.	-382.88
18537	4.8048	4.	5.e-002	1.286e-005
18538	4.8048	3.7273	0.	-394.35
18539	4.7124	3.8182	0.	-403.07
18540	4.8048	3.8182	5.e-002	7.2168e-006
18541	4.8048	3.5455	0.	-408.18
18542	4.7124	3.6364	0.	-419.5
18543	4.8048	3.6364	5.e-002	9.8621e-006
18544	4.8048	3.3636	0.	-418.17
18545	4.7124	3.4545	0.	-431.99
18546	4.8048	3.4545	5.e-002	5.2239e-006
18547	4.8048	3.1818	0.	-424.21
18548	4.7124	3.2727	0.	-440.4
18549	4.8048	3.2727	5.e-002	-2.8399e-007
18550	4.8048	3.	0.	-426.23
18551	4.7124	3.0909	0.	-444.62
18552	4.8048	3.0909	5.e-002	1.0881e-006
18553	4.8048	2.8182	0.	-424.21
18554	4.7124	2.9091	0.	-444.62
18555	4.8048	2.9091	5.e-002	-1.0935e-006
18556	4.8048	2.6364	0.	-418.17
18557	4.7124	2.7273	0.	-440.4
18558	4.8048	2.7273	5.e-002	-2.9276e-006
18559	4.8048	2.4545	0.	-408.18
18560	4.7124	2.5455	0.	-431.99
18561	4.8048	2.5455	5.e-002	-5.2766e-006
18562	4.8048	2.2727	0.	-394.35
18563	4.7124	2.3636	0.	-419.5
18564	4.8048	2.3636	5.e-002	-8.4142e-006
18565	4.8048	2.0909	0.	-376.84
18566	4.7124	2.1818	0.	-403.07
18567	4.8048	2.1818	5.e-002	-8.7505e-006
18568	4.8048	1.9091	0.	-355.83
18569	4.7124	2.	0.	-382.88
18570	4.8048	2.	5.e-002	-9.53e-006
18571	4.8048	1.7273	0.	-331.56
18572	4.7124	1.8182	0.	-359.15
18573	4.8048	1.8182	5.e-002	-7.8563e-006
18574	4.8048	1.5455	0.	-304.27
18575	4.7124	1.6364	0.	-332.13
18576	4.8048	1.6364	5.e-002	-1.1017e-005
18577	4.8048	1.3636	0.	-274.27
18578	4.7124	1.4545	0.	-302.12
18579	4.8048	1.4545	5.e-002	-3.9124e-005
18580	4.8048	1.1818	0.	-241.84
18581	4.7124	1.2727	0.	-269.44
18582	4.8048	1.2727	5.e-002	-1.8201e-005
18583	4.8048	1.	0.	-207.32
18584	4.7124	1.0909	0.	-234.4
18585	4.8048	1.0909	5.e-002	-2.7539e-005
18586	4.8048	0.81818	0.	-171.03
18587	4.7124	0.90909	0.	-197.36
18588	4.8048	0.90909	5.e-002	-9.0104e-006
18589	4.8048	0.63636	0.	-133.3
18590	4.7124	0.72727	0.	-158.66
18591	4.8048	0.72727	5.e-002	-5.2484e-005
18592	4.8048	0.45455	0.	-94.414
18593	4.7124	0.54545	0.	-118.66
18594	4.8048	0.54545	5.e-002	-3.0143e-005
18595	4.8048	0.27273	0.	-54.534
18596	4.7124	0.36364	0.	-77.594
18597	4.8048	0.36364	5.e-002	-1.5876e-005
18598	4.7124	0.18182	0.	-35.625
18599	4.8048	0.18182	5.e-002	-4.4079e-005
18600	4.8048	9.0909e-002	0.	-18.365
18601	4.62	5.7273	0.	-58.566
18602	4.5276	5.8182	0.	-37.959
18603	4.62	5.8182	5.e-002	4.5742e-005
18604	4.62	5.9091	0.	-19.586
18605	4.62	5.5455	0.	-101.8
18606	4.5276	5.6364	0.	-83.454
18607	4.62	5.6364	5.e-002	3.0854e-005
18608	4.62	5.3636	0.	-143.98
18609	4.5276	5.4545	0.	-127.98
18610	4.62	5.4545	5.e-002	4.57e-005
18611	4.62	5.1818	0.	-184.95
18612	4.5276	5.2727	0.	-171.39
18613	4.62	5.2727	5.e-002	5.842e-005
18614	4.62	5.	0.	-224.4
18615	4.5276	5.0909	0.	-213.43
18616	4.62	5.0909	5.e-002	5.5677e-005
18617	4.62	4.8182	0.	-261.96
18618	4.5276	4.9091	0.	-253.72
18619	4.62	4.9091	5.e-002	4.1302e-005
18620	4.62	4.6364	0.	-297.26
18621	4.5276	4.7273	0.	-291.86
18622	4.62	4.7273	5.e-002	1.3972e-005
18623	4.62	4.4545	0.	-329.96
18624	4.5276	4.5455	0.	-327.47
18625	4.62	4.5455	5.e-002	3.4482e-005
18626	4.62	4.2727	0.	-359.71
18627	4.5276	4.3636	0.	-360.18
18628	4.62	4.3636	5.e-002	3.6553e-005
18629	4.62	4.0909	0.	-386.19
18630	4.5276	4.1818	0.	-389.65
18631	4.62	4.1818	5.e-002	2.6191e-005
18632	4.62	3.9091	0.	-409.11
18633	4.5276	4.	0.	-415.54
18634	4.62	4.	5.e-002	1.4385e-005
18635	4.62	3.7273	0.	-428.23
18636	4.5276	3.8182	0.	-437.58
18637	4.62	3.8182	5.e-002	1.4607e-005
18638	4.62	3.5455	0.	-443.33
18639	4.5276	3.6364	0.	-455.51
18640	4.62	3.6364	5.e-002	1.0736e-005
18641	4.62	3.3636	0.	-454.23
18642	4.5276	3.4545	0.	-469.15
18643	4.62	3.4545	5.e-002	5.4091e-006
18644	4.62	3.1818	0.	-460.83
18645	4.5276	3.2727	0.	-478.32
18646	4.62	3.2727	5.e-002	3.4245e-006
18647	4.62	3.	0.	-463.03
18648	4.5276	3.0909	0.	-482.94
18649	4.62	3.0909	5.e-002	1.1633e-006
18650	4.62	2.8182	0.	-460.83
18651	4.5276	2.9091	0.	-482.94
18652	4.62	2.9091	5.e-002	-1.1691e-006
18653	4.62	2.6364	0.	-454.23
18654	4.5276	2.7273	0.	-478.32
18655	4.62	2.7273	5.e-002	-3.493e-006
18656	4.62	2.4545	0.	-443.33
18657	4.5276	2.5455	0.	-469.15
18658	4.62	2.5455	5.e-002	-5.4091e-006
18659	4.62	2.2727	0.	-428.23
18660	4.5276	2.3636	0.	-455.51
18661	4.62	2.3636	5.e-002	-7.4301e-006
18662	4.62	2.0909	0.	-409.11
18663	4.5276	2.1818	0.	-437.58
18664	4.62	2.1818	5.e-002	-9.3191e-006
18665	4.62	1.9091	0.	-386.19
18666	4.5276	2.	0.	-415.54
18667	4.62	2.	5.e-002	-1.0591e-005
18668	4.62	1.7273	0.	-359.71
18669	4.5276	1.8182	0.	-389.65
18670	4.62	1.8182	5.e-002	-2.114e-005
18671	4.62	1.5455	0.	-329.96
18672	4.5276	1.6364	0.	-360.18
18673	4.62	1.6364	5.e-002	-3.0767e-005
18674	4.62	1.3636	0.	-297.26
18675	4.5276	1.4545	0.	-327.47
18676	4.62	1.4545	5.e-002	-1.9092e-005
18677	4.62	1.1818	0.	-261.96
18678	4.5276	1.2727	0.	-291.86
18679	4.62	1.2727	5.e-002	-2.0478e-005
18680	4.62	1.	0.	-224.4
18681	4.5276	1.0909	0.	-253.72
18682	4.62	1.0909	5.e-002	-2.0009e-005
18683	4.62	0.81818	0.	-184.95
18684	4.5276	0.90909	0.	-213.43
18685	4.62	0.90909	5.e-002	-5.6418e-005
18686	4.62	0.63636	0.	-143.98
18687	4.5276	0.72727	0.	-171.39
18688	4.62	0.72727	5.e-002	-5.842e-005
18689	4.62	0.45455	0.	-101.8
18690	4.5276	0.54545	0.	-127.98
18691	4.62	0.54545	5.e-002	-2.0199e-005
18692	4.62	0.27273	0.	-58.566
18693	4.5276	0.36364	0.	-83.454
18694	4.62	0.36364	5.e-002	-3.0854e-005
18695	4.5276	0.18182	0.	-37.959
18696	4.62	0.18182	5.e-002	-2.3003e-005
18697	4.62	9.0909e-002	0.	-19.586
18698	4.4352	5.7273	0.	-62.708
18699	4.3428	5.8182	0.	-40.242
18700	4.4352	5.8182	5.e-002	4.5908e-005
18701	4.4352	5.9091	0.	-20.763
18702	4.4352	5.5455	0.	-109.58
18703	4.3428	5.6364	0.	-89.572
18704	4.4352	5.6364	5.e-002	4.8089e-005
18705	4.4352	5.3636	0.	-155.34
18706	4.3428	5.4545	0.	-137.84
18707	4.4352	5.4545	5.e-002	6.5438e-005
18708	4.4352	5.1818	0.	-199.83
18709	4.3428	5.2727	0.	-184.96
18710	4.4352	5.2727	5.e-002	2.2608e-005
18711	4.4352	5.	0.	-242.72
18712	4.3428	5.0909	0.	-230.65
18713	4.4352	5.0909	5.e-002	3.479e-005
18714	4.4352	4.8182	0.	-283.59
18715	4.3428	4.9091	0.	-274.48
18716	4.4352	4.9091	5.e-002	5.4987e-005
18717	4.4352	4.6364	0.	-322.04
18718	4.3428	4.7273	0.	-316.
18719	4.4352	4.7273	5.e-002	4.1815e-005
18720	4.4352	4.4545	0.	-357.67
18721	4.3428	4.5455	0.	-354.8
18722	4.4352	4.5455	5.e-002	3.7453e-005
18723	4.4352	4.2727	0.	-390.11
18724	4.3428	4.3636	0.	-390.46
18725	4.4352	4.3636	5.e-002	1.6167e-005
18726	4.4352	4.0909	0.	-418.99
18727	4.3428	4.1818	0.	-422.6
18728	4.4352	4.1818	5.e-002	1.3957e-005
18729	4.4352	3.9091	0.	-444.01
18730	4.3428	4.	0.	-450.84
18731	4.4352	4.	5.e-002	1.9854e-005
18732	4.4352	3.7273	0.	-464.87
18733	4.3428	3.8182	0.	-474.89
18734	4.4352	3.8182	5.e-002	1.5505e-005
18735	4.4352	3.5455	0.	-481.35
18736	4.3428	3.6364	0.	-494.46
18737	4.4352	3.6364	5.e-002	1.2001e-005
18738	4.4352	3.3636	0.	-493.26
18739	4.3428	3.4545	0.	-509.34
18740	4.4352	3.4545	5.e-002	6.8702e-006
18741	4.4352	3.1818	0.	-500.46
18742	4.3428	3.2727	0.	-519.36
18743	4.4352	3.2727	5.e-002	2.9475e-007
18744	4.4352	3.	0.	-502.87
18745	4.3428	3.0909	0.	-524.4
18746	4.4352	3.0909	5.e-002	1.2447e-006
18747	4.4352	2.8182	0.	-500.46
18748	4.3428	2.9091	0.	-524.4
18749	4.4352	2.9091	5.e-002	-1.2508e-006
18750	4.4352	2.6364	0.	-493.26
18751	4.3428	2.7273	0.	-519.36
18752	4.4352	2.7273	5.e-002	-3.293e-006
18753	4.4352	2.4545	0.	-481.35
18754	4.3428	2.5455	0.	-509.34
18755	4.4352	2.5455	5.e-002	-6.1262e-006
18756	4.4352	2.2727	0.	-464.87
18757	4.3428	2.3636	0.	-494.46
18758	4.4352	2.3636	5.e-002	-7.9104e-006
18759	4.4352	2.0909	0.	-444.01
18760	4.3428	2.1818	0.	-474.89
18761	4.4352	2.1818	5.e-002	-9.285e-006
18762	4.4352	1.9091	0.	-418.99
18763	4.3428	2.	0.	-450.84
18764	4.4352	2.	5.e-002	-1.0748e-005
18765	4.4352	1.7273	0.	-390.11
18766	4.3428	1.8182	0.	-422.6
18767	4.4352	1.8182	5.e-002	-1.797e-005
18768	4.4352	1.5455	0.	-357.67
18769	4.3428	1.6364	0.	-390.46
18770	4.4352	1.6364	5.e-002	-1.2316e-005
18771	4.4352	1.3636	0.	-322.04
18772	4.3428	1.4545	0.	-354.8
18773	4.4352	1.4545	5.e-002	-2.1377e-005
18774	4.4352	1.1818	0.	-283.59
18775	4.3428	1.2727	0.	-316.
18776	4.4352	1.2727	5.e-002	-4.1815e-005
18777	4.4352	1.	0.	-242.72
18778	4.3428	1.0909	0.	-274.48
18779	4.4352	1.0909	5.e-002	-4.5717e-005
18780	4.4352	0.81818	0.	-199.83
18781	4.3428	0.90909	0.	-230.65
18782	4.4352	0.90909	5.e-002	-2.2046e-005
18783	4.4352	0.63636	0.	-155.34
18784	4.3428	0.72727	0.	-184.96
18785	4.4352	0.72727	5.e-002	-7.307e-006
18786	4.4352	0.45455	0.	-109.58
18787	4.3428	0.54545	0.	-137.84
18788	4.4352	0.54545	5.e-002	-6.4807e-005
18789	4.4352	0.27273	0.	-62.708
18790	4.3428	0.36364	0.	-89.572
18791	4.4352	0.36364	5.e-002	-3.3973e-005
18792	4.3428	0.18182	0.	-40.242
18793	4.4352	0.18182	5.e-002	-4.479e-005
18794	4.4352	9.0909e-002	0.	-20.763
18795	4.2504	5.7273	0.	-66.941
18796	4.158	5.8182	0.	-42.437
18797	4.2504	5.8182	5.e-002	4.4347e-005
18798	4.2504	5.9091	0.	-21.871
18799	4.2504	5.5455	0.	-117.77
18800	4.158	5.6364	0.	-95.939
18801	4.2504	5.6364	5.e-002	7.2941e-005
18802	4.2504	5.3636	0.	-167.41
18803	4.158	5.4545	0.	-148.27
18804	4.2504	5.4545	5.e-002	5.6139e-005
18805	4.2504	5.1818	0.	-215.73
18806	4.158	5.2727	0.	-199.42
18807	4.2504	5.2727	5.e-002	5.4759e-005
18808	4.2504	5.	0.	-262.36
18809	4.158	5.0909	0.	-249.08
18810	4.2504	5.0909	5.e-002	3.9913e-005
18811	4.2504	4.8182	0.	-306.85
18812	4.158	4.9091	0.	-296.77
18813	4.2504	4.9091	5.e-002	6.4226e-005
18814	4.2504	4.6364	0.	-348.73
18815	4.158	4.7273	0.	-341.99
18816	4.2504	4.7273	5.e-002	3.4767e-005
18817	4.2504	4.4545	0.	-387.57
18818	4.158	4.5455	0.	-384.27
18819	4.2504	4.5455	5.e-002	3.2249e-005
18820	4.2504	4.2727	0.	-422.94
18821	4.158	4.3636	0.	-423.15
18822	4.2504	4.3636	5.e-002	2.8623e-005
18823	4.2504	4.0909	0.	-454.44
18824	4.158	4.1818	0.	-458.19
18825	4.2504	4.1818	5.e-002	2.5299e-005
18826	4.2504	3.9091	0.	-481.73
18827	4.158	4.	0.	-489.
18828	4.2504	4.	5.e-002	2.2166e-005
18829	4.2504	3.7273	0.	-504.5
18830	4.158	3.8182	0.	-515.23
18831	4.2504	3.8182	5.e-002	1.0507e-005
18832	4.2504	3.5455	0.	-522.48
18833	4.158	3.6364	0.	-536.58
18834	4.2504	3.6364	5.e-002	1.0536e-005
18835	4.2504	3.3636	0.	-535.48
18836	4.158	3.4545	0.	-552.81
18837	4.2504	3.4545	5.e-002	9.8657e-006
18838	4.2504	3.1818	0.	-543.33
18839	4.158	3.2727	0.	-563.74
18840	4.2504	3.2727	5.e-002	3.9676e-006
18841	4.2504	3.	0.	-545.96
18842	4.158	3.0909	0.	-569.23
18843	4.2504	3.0909	5.e-002	1.3323e-006
18844	4.2504	2.8182	0.	-543.33
18845	4.158	2.9091	0.	-569.23
18846	4.2504	2.9091	5.e-002	-1.3323e-006
18847	4.2504	2.6364	0.	-535.48
18848	4.158	2.7273	0.	-563.74
18849	4.2504	2.7273	5.e-002	-3.9287e-006
18850	4.2504	2.4545	0.	-522.48
18851	4.158	2.5455	0.	-552.81
18852	4.2504	2.5455	5.e-002	-6.1337e-006
18853	4.2504	2.2727	0.	-504.5
18854	4.158	2.3636	0.	-536.58
18855	4.2504	2.3636	5.e-002	-1.0415e-006
18856	4.2504	2.0909	0.	-481.73
18857	4.158	2.1818	0.	-515.23
18858	4.2504	2.1818	5.e-002	-1.0507e-005
18859	4.2504	1.9091	0.	-454.44
18860	4.158	2.	0.	-489.
18861	4.2504	2.	5.e-002	-1.1895e-005
18862	4.2504	1.7273	0.	-422.94
18863	4.158	1.8182	0.	-458.19
18864	4.2504	1.8182	5.e-002	-2.4712e-005
18865	4.2504	1.5455	0.	-387.57
18866	4.158	1.6364	0.	-423.15
18867	4.2504	1.6364	5.e-002	-1.2974e-005
18868	4.2504	1.3636	0.	-348.73
18869	4.158	1.4545	0.	-384.27
18870	4.2504	1.4545	5.e-002	-3.3651e-005
18871	4.2504	1.1818	0.	-306.85
18872	4.158	1.2727	0.	-341.99
18873	4.2504	1.2727	5.e-002	-2.6313e-005
18874	4.2504	1.	0.	-262.36
18875	4.158	1.0909	0.	-296.77
18876	4.2504	1.0909	5.e-002	-3.8349e-005
18877	4.2504	0.81818	0.	-215.73
18878	4.158	0.90909	0.	-249.08
18879	4.2504	0.90909	5.e-002	-3.8297e-005
18880	4.2504	0.63636	0.	-167.41
18881	4.158	0.72727	0.	-199.42
18882	4.2504	0.72727	5.e-002	-9.9597e-006
18883	4.2504	0.45455	0.	-117.77
18884	4.158	0.54545	0.	-148.27
18885	4.2504	0.54545	5.e-002	-3.9683e-005
18886	4.2504	0.27273	0.	-66.941
18887	4.158	0.36364	0.	-95.939
18888	4.2504	0.36364	5.e-002	-5.5706e-005
18889	4.158	0.18182	0.	-42.437
18890	4.2504	0.18182	5.e-002	-3.5754e-005
18891	4.2504	9.0909e-002	0.	-21.871
18892	4.0656	5.7273	0.	-71.24
18893	3.9732	5.8182	0.	-44.502
18894	4.0656	5.8182	5.e-002	4.4573e-005
18895	4.0656	5.9091	0.	-22.882
18896	4.0656	5.5455	0.	-126.37
18897	3.9732	5.6364	0.	-102.54
18898	4.0656	5.6364	5.e-002	7.6568e-005
18899	4.0656	5.3636	0.	-180.22
18900	3.9732	5.4545	0.	-159.29
18901	4.0656	5.4545	5.e-002	6.2006e-005
18902	4.0656	5.1818	0.	-232.72
18903	3.9732	5.2727	0.	-214.83
18904	4.0656	5.2727	5.e-002	7.7791e-005
18905	4.0656	5.	0.	-283.44
18906	3.9732	5.0909	0.	-268.82
18907	4.0656	5.0909	5.e-002	5.9759e-005
18908	4.0656	4.8182	0.	-331.86
18909	3.9732	4.9091	0.	-320.72
18910	4.0656	4.9091	5.e-002	4.1997e-005
18911	4.0656	4.6364	0.	-377.49
18912	3.9732	4.7273	0.	-369.97
18913	4.0656	4.7273	5.e-002	3.8103e-005
18914	4.0656	4.4545	0.	-419.82
18915	3.9732	4.5455	0.	-416.04
18916	4.0656	4.5455	5.e-002	4.7796e-005
18917	4.0656	4.2727	0.	-458.38
18918	3.9732	4.3636	0.	-458.42
18919	4.0656	4.3636	5.e-002	3.0612e-005
18920	4.0656	4.0909	0.	-492.74
18921	3.9732	4.1818	0.	-496.63
18922	4.0656	4.1818	5.e-002	2.9458e-005
18923	4.0656	3.9091	0.	-522.51
18924	3.9732	4.	0.	-530.22
18925	4.0656	4.	5.e-002	1.8059e-005
18926	4.0656	3.7273	0.	-547.34
18927	3.9732	3.8182	0.	-558.82
18928	4.0656	3.8182	5.e-002	1.496e-005
18929	4.0656	3.5455	0.	-566.95
18930	3.9732	3.6364	0.	-582.1
18931	4.0656	3.6364	5.e-002	8.9081e-006
18932	4.0656	3.3636	0.	-581.12
18933	3.9732	3.4545	0.	-599.79
18934	4.0656	3.4545	5.e-002	6.5096e-006
18935	4.0656	3.1818	0.	-589.68
18936	3.9732	3.2727	0.	-611.7
18937	4.0656	3.2727	5.e-002	4.2144e-006
18938	4.0656	3.	0.	-592.55
18939	3.9732	3.0909	0.	-617.68
18940	4.0656	3.0909	5.e-002	1.4745e-006
18941	4.0656	2.8182	0.	-589.68
18942	3.9732	2.9091	0.	-617.68
18943	4.0656	2.9091	5.e-002	-1.371e-006
18944	4.0656	2.6364	0.	-581.12
18945	3.9732	2.7273	0.	-611.7
18946	4.0656	2.7273	5.e-002	-4.2144e-006
18947	4.0656	2.4545	0.	-566.95
18948	3.9732	2.5455	0.	-599.79
18949	4.0656	2.5455	5.e-002	-7.0521e-006
18950	4.0656	2.2727	0.	-547.34
18951	3.9732	2.3636	0.	-582.1
18952	4.0656	2.3636	5.e-002	-1.5795e-006
18953	4.0656	2.0909	0.	-522.51
18954	3.9732	2.1818	0.	-558.82
18955	4.0656	2.1818	5.e-002	-1.496e-005
18956	4.0656	1.9091	0.	-492.74
18957	3.9732	2.	0.	-530.22
18958	4.0656	2.	5.e-002	-1.7513e-005
18959	4.0656	1.7273	0.	-458.38
18960	3.9732	1.8182	0.	-496.63
18961	4.0656	1.8182	5.e-002	-1.3617e-005
18962	4.0656	1.5455	0.	-419.82
18963	3.9732	1.6364	0.	-458.42
18964	4.0656	1.6364	5.e-002	-3.1975e-005
18965	4.0656	1.3636	0.	-377.49
18966	3.9732	1.4545	0.	-416.04
18967	4.0656	1.4545	5.e-002	-2.572e-005
18968	4.0656	1.1818	0.	-331.86
18969	3.9732	1.2727	0.	-369.97
18970	4.0656	1.2727	5.e-002	-3.8103e-005
18971	4.0656	1.	0.	-283.44
18972	3.9732	1.0909	0.	-320.72
18973	4.0656	1.0909	5.e-002	-2.4246e-005
18974	4.0656	0.81818	0.	-232.72
18975	3.9732	0.90909	0.	-268.82
18976	4.0656	0.90909	5.e-002	-5.9759e-005
18977	4.0656	0.63636	0.	-180.22
18978	3.9732	0.72727	0.	-214.83
18979	4.0656	0.72727	5.e-002	-7.6424e-005
18980	4.0656	0.45455	0.	-126.37
18981	3.9732	0.54545	0.	-159.29
18982	4.0656	0.54545	5.e-002	-6.0672e-005
18983	4.0656	0.27273	0.	-71.241
18984	3.9732	0.36364	0.	-102.54
18985	4.0656	0.36364	5.e-002	-5.83e-005
18986	3.9732	0.18182	0.	-44.502
18987	4.0656	0.18182	5.e-002	-4.6028e-005
18988	4.0656	9.0909e-002	0.	-22.882
18989	3.8808	5.7273	0.	-75.577
18990	3.7884	5.8182	0.	-46.386
18991	3.8808	5.8182	5.e-002	4.6794e-005
18992	3.8808	5.9091	0.	-23.763
18993	3.8808	5.5455	0.	-135.39
18994	3.7884	5.6364	0.	-109.38
18995	3.8808	5.6364	5.e-002	8.591e-005
18996	3.8808	5.3636	0.	-193.83
18997	3.7884	5.4545	0.	-170.92
18998	3.8808	5.4545	5.e-002	8.8717e-005
18999	3.8808	5.1818	0.	-250.87
19000	3.7884	5.2727	0.	-231.24
19001	3.8808	5.2727	5.e-002	6.6683e-005
19002	3.8808	5.	0.	-306.04
19003	3.7884	5.0909	0.	-289.96
19004	3.8808	5.0909	5.e-002	8.3598e-005
19005	3.8808	4.8182	0.	-358.77
19006	3.7884	4.9091	0.	-346.45
19007	3.8808	4.9091	5.e-002	6.2115e-005
19008	3.8808	4.6364	0.	-408.48
19009	3.7884	4.7273	0.	-400.11
19010	3.8808	4.7273	5.e-002	5.604e-005
19011	3.8808	4.4545	0.	-454.62
19012	3.7884	4.5455	0.	-450.32
19013	3.8808	4.5455	5.e-002	4.9371e-005
19014	3.8808	4.2727	0.	-496.66
19015	3.7884	4.3636	0.	-496.51
19016	3.8808	4.3636	5.e-002	3.3424e-005
19017	3.8808	4.0909	0.	-534.11
19018	3.7884	4.1818	0.	-538.15
19019	3.8808	4.1818	5.e-002	2.1198e-005
19020	3.8808	3.9091	0.	-566.56
19021	3.7884	4.	0.	-574.76
19022	3.8808	4.	5.e-002	1.9976e-005
19023	3.8808	3.7273	0.	-593.62
19024	3.7884	3.8182	0.	-605.91
19025	3.8808	3.8182	5.e-002	2.4187e-005
19026	3.8808	3.5455	0.	-614.99
19027	3.7884	3.6364	0.	-631.26
19028	3.8808	3.6364	5.e-002	1.2119e-005
19029	3.8808	3.3636	0.	-630.43
19030	3.7884	3.4545	0.	-650.53
19031	3.8808	3.4545	5.e-002	1.0008e-005
19032	3.8808	3.1818	0.	-639.76
19033	3.7884	3.2727	0.	-663.49
19034	3.8808	3.2727	5.e-002	4.8952e-006
19035	3.8808	3.	0.	-642.88
19036	3.7884	3.0909	0.	-670.
19037	3.8808	3.0909	5.e-002	1.5003e-006
19038	3.8808	2.8182	0.	-639.76
19039	3.7884	2.9091	0.	-670.
19040	3.8808	2.9091	5.e-002	-1.5076e-006
19041	3.8808	2.6364	0.	-630.43
19042	3.7884	2.7273	0.	-663.49
19043	3.8808	2.7273	5.e-002	-4.3766e-006
19044	3.8808	2.4545	0.	-614.99
19045	3.7884	2.5455	0.	-650.53
19046	3.8808	2.5455	5.e-002	-7.1767e-006
19047	3.8808	2.2727	0.	-593.62
19048	3.7884	2.3636	0.	-631.26
19049	3.8808	2.3636	5.e-002	-1.2511e-005
19050	3.8808	2.0909	0.	-566.56
19051	3.7884	2.1818	0.	-605.91
19052	3.8808	2.1818	5.e-002	-1.9873e-005
19053	3.8808	1.9091	0.	-534.11
19054	3.7884	2.	0.	-574.76
19055	3.8808	2.	5.e-002	-1.7676e-005
19056	3.8808	1.7273	0.	-496.66
19057	3.7884	1.8182	0.	-538.15
19058	3.8808	1.8182	5.e-002	-2.1198e-005
19059	3.8808	1.5455	0.	-454.62
19060	3.7884	1.6364	0.	-496.51
19061	3.8808	1.6364	5.e-002	-2.4566e-005
19062	3.8808	1.3636	0.	-408.48
19063	3.7884	1.4545	0.	-450.32
19064	3.8808	1.4545	5.e-002	-4.007e-005
19065	3.8808	1.1818	0.	-358.77
19066	3.7884	1.2727	0.	-400.11
19067	3.8808	1.2727	5.e-002	-2.7311e-005
19068	3.8808	1.	0.	-306.04
19069	3.7884	1.0909	0.	-346.45
19070	3.8808	1.0909	5.e-002	-4.5903e-005
19071	3.8808	0.81818	0.	-250.87
19072	3.7884	0.90909	0.	-289.96
19073	3.8808	0.90909	5.e-002	-6.5736e-005
19074	3.8808	0.63636	0.	-193.83
19075	3.7884	0.72727	0.	-231.24
19076	3.8808	0.72727	5.e-002	-2.9911e-005
19077	3.8808	0.45455	0.	-135.39
19078	3.7884	0.54545	0.	-170.92
19079	3.8808	0.54545	5.e-002	-2.7576e-005
19080	3.8808	0.27273	0.	-75.577
19081	3.7884	0.36364	0.	-109.38
19082	3.8808	0.36364	5.e-002	-8.2323e-005
19083	3.7884	0.18182	0.	-46.386
19084	3.8808	0.18182	5.e-002	-3.5531e-005
19085	3.8808	9.0909e-002	0.	-23.763
19086	3.696	5.7273	0.	-79.914
19087	3.6036	5.8182	0.	-48.033
19088	3.696	5.8182	5.e-002	4.5412e-005
19089	3.696	5.9091	0.	-24.476
19090	3.696	5.5455	0.	-144.82
19091	3.6036	5.6364	0.	-116.42
19092	3.696	5.6364	5.e-002	9.4076e-005
19093	3.696	5.3636	0.	-208.26
19094	3.6036	5.4545	0.	-183.19
19095	3.696	5.4545	5.e-002	9.7755e-005
19096	3.696	5.1818	0.	-270.26
19097	3.6036	5.2727	0.	-248.73
19098	3.696	5.2727	5.e-002	9.295e-005
19099	3.696	5.	0.	-330.3
19100	3.6036	5.0909	0.	-312.61
19101	3.696	5.0909	5.e-002	7.0371e-005
19102	3.696	4.8182	0.	-387.73
19103	3.6036	4.9091	0.	-374.13
19104	3.696	4.9091	5.e-002	6.8138e-005
19105	3.696	4.6364	0.	-441.9
19106	3.6036	4.7273	0.	-432.59
19107	3.696	4.7273	5.e-002	6.1506e-005
19108	3.696	4.4545	0.	-492.18
19109	3.6036	4.5455	0.	-487.3
19110	3.696	4.5455	5.e-002	7.1195e-005
19111	3.696	4.2727	0.	-537.99
19112	3.6036	4.3636	0.	-537.64
19113	3.696	4.3636	5.e-002	4.9379e-005
19114	3.696	4.0909	0.	-578.8
19115	3.6036	4.1818	0.	-583.
19116	3.696	4.1818	5.e-002	3.0565e-005
19117	3.696	3.9091	0.	-614.14
19118	3.6036	4.	0.	-622.85
19119	3.696	4.	5.e-002	1.8973e-005
19120	3.696	3.7273	0.	-643.6
19121	3.6036	3.8182	0.	-656.76
19122	3.696	3.8182	5.e-002	1.2344e-005
19123	3.696	3.5455	0.	-666.86
19124	3.6036	3.6364	0.	-684.33
19125	3.696	3.6364	5.e-002	1.6371e-005
19126	3.696	3.3636	0.	-683.65
19127	3.6036	3.4545	0.	-705.27
19128	3.696	3.4545	5.e-002	7.5715e-006
19129	3.696	3.1818	0.	-693.8
19130	3.6036	3.2727	0.	-719.35
19131	3.696	3.2727	5.e-002	5.1995e-006
19132	3.696	3.	0.	-697.2
19133	3.6036	3.0909	0.	-726.42
19134	3.696	3.0909	5.e-002	1.5924e-006
19135	3.696	2.8182	0.	-693.8
19136	3.6036	2.9091	0.	-726.42
19137	3.696	2.9091	5.e-002	-1.6079e-006
19138	3.696	2.6364	0.	-683.65
19139	3.6036	2.7273	0.	-719.35
19140	3.696	2.7273	5.e-002	-4.8057e-006
19141	3.696	2.4545	0.	-666.86
19142	3.6036	2.5455	0.	-705.27
19143	3.696	2.5455	5.e-002	-7.5715e-006
19144	3.696	2.2727	0.	-643.6
19145	3.6036	2.3636	0.	-684.33
19146	3.696	2.3636	5.e-002	-1.294e-005
19147	3.696	2.0909	0.	-614.14
19148	3.6036	2.1818	0.	-656.76
19149	3.696	2.1818	5.e-002	-1.2344e-005
19150	3.696	1.9091	0.	-578.8
19151	3.6036	2.	0.	-622.85
19152	3.696	2.	5.e-002	-1.4492e-005
19153	3.696	1.7273	0.	-537.99
19154	3.6036	1.8182	0.	-583.
19155	3.696	1.8182	5.e-002	-2.4135e-005
19156	3.696	1.5455	0.	-492.18
19157	3.6036	1.6364	0.	-537.64
19158	3.696	1.6364	5.e-002	-3.6399e-005
19159	3.696	1.3636	0.	-441.9
19160	3.6036	1.4545	0.	-487.3
19161	3.696	1.4545	5.e-002	-2.9769e-005
19162	3.696	1.1818	0.	-387.73
19163	3.6036	1.2727	0.	-432.59
19164	3.696	1.2727	5.e-002	-1.3429e-005
19165	3.696	1.	0.	-330.3
19166	3.6036	1.0909	0.	-374.13
19167	3.696	1.0909	5.e-002	-3.0259e-005
19168	3.696	0.81818	0.	-270.26
19169	3.6036	0.90909	0.	-312.61
19170	3.696	0.90909	5.e-002	-6.8583e-005
19171	3.696	0.63636	0.	-208.26
19172	3.6036	0.72727	0.	-248.73
19173	3.696	0.72727	5.e-002	-7.5174e-005
19174	3.696	0.45455	0.	-144.82
19175	3.6036	0.54545	0.	-183.19
19176	3.696	0.54545	5.e-002	-7.5158e-005
19177	3.696	0.27273	0.	-79.915
19178	3.6036	0.36364	0.	-116.42
19179	3.696	0.36364	5.e-002	-7.3767e-005
19180	3.6036	0.18182	0.	-48.034
19181	3.696	0.18182	5.e-002	-4.3164e-005
19182	3.696	9.0909e-002	0.	-24.476
19183	3.5112	5.7273	0.	-84.214
19184	3.4188	5.8182	0.	-49.377
19185	3.5112	5.8182	5.e-002	4.6005e-005
19186	3.5112	5.9091	0.	-24.975
19187	3.5112	5.5455	0.	-154.68
19188	3.4188	5.6364	0.	-123.66
19189	3.5112	5.6364	5.e-002	1.0847e-004
19190	3.5112	5.3636	0.	-223.57
19191	3.4188	5.4545	0.	-196.14
19192	3.5112	5.4545	5.e-002	1.1125e-004
19193	3.5112	5.1818	0.	-291.
19194	3.4188	5.2727	0.	-267.39
19195	3.5112	5.2727	5.e-002	8.6106e-005
19196	3.5112	5.	0.	-356.36
19197	3.4188	5.0909	0.	-336.92
19198	3.5112	5.0909	5.e-002	8.0872e-005
19199	3.5112	4.8182	0.	-418.92
19200	3.4188	4.9091	0.	-403.93
19201	3.5112	4.9091	5.e-002	9.4649e-005
19202	3.5112	4.6364	0.	-477.95
19203	3.4188	4.7273	0.	-467.63
19204	3.5112	4.7273	5.e-002	6.7332e-005
19205	3.5112	4.4545	0.	-532.74
19206	3.4188	4.5455	0.	-527.26
19207	3.5112	4.5455	5.e-002	5.9316e-005
19208	3.5112	4.2727	0.	-582.64
19209	3.4188	4.3636	0.	-582.07
19210	3.5112	4.3636	5.e-002	2.8296e-005
19211	3.5112	4.0909	0.	-627.06
19212	3.4188	4.1818	0.	-631.44
19213	3.5112	4.1818	5.e-002	5.776e-005
19214	3.5112	3.9091	0.	-665.51
19215	3.4188	4.	0.	-674.79
19216	3.5112	4.	5.e-002	2.3816e-005
19217	3.5112	3.7273	0.	-697.54
19218	3.4188	3.8182	0.	-711.62
19219	3.5112	3.8182	5.e-002	1.2943e-005
19220	3.5112	3.5455	0.	-722.81
19221	3.4188	3.6364	0.	-741.55
19222	3.5112	3.6364	5.e-002	1.3765e-005
19223	3.5112	3.3636	0.	-741.04
19224	3.4188	3.4545	0.	-764.26
19225	3.5112	3.4545	5.e-002	9.709e-006
19226	3.5112	3.1818	0.	-752.06
19227	3.4188	3.2727	0.	-779.53
19228	3.5112	3.2727	5.e-002	5.6952e-006
19229	3.5112	3.	0.	-755.75
19230	3.4188	3.0909	0.	-787.2
19231	3.5112	3.0909	5.e-002	1.7634e-006
19232	3.5112	2.8182	0.	-752.06
19233	3.4188	2.9091	0.	-787.2
19234	3.5112	2.9091	5.e-002	-1.6198e-006
19235	3.5112	2.6364	0.	-741.04
19236	3.4188	2.7273	0.	-779.53
19237	3.5112	2.7273	5.e-002	-5.0544e-006
19238	3.5112	2.4545	0.	-722.81
19239	3.4188	2.5455	0.	-764.26
19240	3.5112	2.5455	5.e-002	-7.6402e-006
19241	3.5112	2.2727	0.	-697.54
19242	3.4188	2.3636	0.	-741.55
19243	3.5112	2.3636	5.e-002	-1.1288e-005
19244	3.5112	2.0909	0.	-665.51
19245	3.4188	2.1818	0.	-711.62
19246	3.5112	2.1818	5.e-002	-1.2943e-005
19247	3.5112	1.9091	0.	-627.06
19248	3.4188	2.	0.	-674.79
19249	3.5112	2.	5.e-002	-2.2827e-005
19250	3.5112	1.7273	0.	-582.64
19251	3.4188	1.8182	0.	-631.44
19252	3.5112	1.8182	5.e-002	-4.332e-005
19253	3.5112	1.5455	0.	-532.74
19254	3.4188	1.6364	0.	-582.07
19255	3.5112	1.6364	5.e-002	-2.8296e-005
19256	3.5112	1.3636	0.	-477.95
19257	3.4188	1.4545	0.	-527.26
19258	3.5112	1.4545	5.e-002	-5.8572e-005
19259	3.5112	1.1818	0.	-418.92
19260	3.4188	1.2727	0.	-467.64
19261	3.5112	1.2727	5.e-002	-3.1694e-005
19262	3.5112	1.	0.	-356.36
19263	3.4188	1.0909	0.	-403.93
19264	3.5112	1.0909	5.e-002	-7.2779e-005
19265	3.5112	0.81818	0.	-291.
19266	3.4188	0.90909	0.	-336.92
19267	3.5112	0.90909	5.e-002	-5.8802e-005
19268	3.5112	0.63636	0.	-223.57
19269	3.4188	0.72727	0.	-267.39
19270	3.5112	0.72727	5.e-002	-5.1205e-005
19271	3.5112	0.45455	0.	-154.68
19272	3.4188	0.54545	0.	-196.14
19273	3.5112	0.54545	5.e-002	-5.375e-005
19274	3.5112	0.27273	0.	-84.214
19275	3.4188	0.36364	0.	-123.66
19276	3.5112	0.36364	5.e-002	-7.6687e-005
19277	3.4188	0.18182	0.	-49.378
19278	3.5112	0.18182	5.e-002	-2.3739e-005
19279	3.5112	9.0909e-002	0.	-24.975
19280	3.3264	5.7273	0.	-88.431
19281	3.234	5.8182	0.	-50.344
19282	3.3264	5.8182	5.e-002	5.1199e-005
19283	3.3264	5.9091	0.	-25.209
19284	3.3264	5.5455	0.	-164.99
19285	3.234	5.6364	0.	-131.08
19286	3.3264	5.6364	5.e-002	1.067e-004
19287	3.3264	5.3636	0.	-239.84
19288	3.234	5.4545	0.	-209.8
19289	3.3264	5.4545	5.e-002	1.142e-004
19290	3.3264	5.1818	0.	-313.21
19291	3.234	5.2727	0.	-287.31
19292	3.3264	5.2727	5.e-002	1.2015e-004
19293	3.3264	5.	0.	-384.4
19294	3.234	5.0909	0.	-363.05
19295	3.3264	5.0909	5.e-002	3.9386e-005
19296	3.3264	4.8182	0.	-452.57
19297	3.234	4.9091	0.	-436.08
19298	3.3264	4.9091	5.e-002	5.9169e-005
19299	3.3264	4.6364	0.	-516.89
19300	3.234	4.7273	0.	-505.51
19301	3.3264	4.7273	5.e-002	3.4017e-005
19302	3.3264	4.4545	0.	-576.57
19303	3.234	4.5455	0.	-570.46
19304	3.3264	4.5455	5.e-002	5.112e-005
19305	3.3264	4.2727	0.	-630.88
19306	3.234	4.3636	0.	-630.12
19307	3.3264	4.3636	5.e-002	4.1153e-005
19308	3.3264	4.0909	0.	-679.19
19309	3.234	4.1818	0.	-683.79
19310	3.3264	4.1818	5.e-002	4.0239e-005
19311	3.3264	3.9091	0.	-720.95
19312	3.234	4.	0.	-730.85
19313	3.3264	4.	5.e-002	2.4268e-005
19314	3.3264	3.7273	0.	-755.71
19315	3.234	3.8182	0.	-770.79
19316	3.3264	3.8182	5.e-002	1.352e-005
19317	3.3264	3.5455	0.	-783.1
19318	3.234	3.6364	0.	-803.2
19319	3.3264	3.6364	5.e-002	1.5486e-005
19320	3.3264	3.3636	0.	-802.85
19321	3.234	3.4545	0.	-827.76
19322	3.3264	3.4545	5.e-002	1.0919e-005
19323	3.3264	3.1818	0.	-814.77
19324	3.234	3.2727	0.	-844.26
19325	3.3264	3.2727	5.e-002	5.9955e-006
19326	3.3264	3.	0.	-818.76
19327	3.234	3.0909	0.	-852.54
19328	3.3264	3.0909	5.e-002	1.7801e-006
19329	3.3264	2.8182	0.	-814.77
19330	3.234	2.9091	0.	-852.54
19331	3.3264	2.9091	5.e-002	-1.7801e-006
19332	3.3264	2.6364	0.	-802.85
19333	3.234	2.7273	0.	-844.26
19334	3.3264	2.7273	5.e-002	-5.2922e-006
19335	3.3264	2.4545	0.	-783.1
19336	3.234	2.5455	0.	-827.76
19337	3.3264	2.5455	5.e-002	-8.9958e-006
19338	3.3264	2.2727	0.	-755.71
19339	3.234	2.3636	0.	-803.2
19340	3.3264	2.3636	5.e-002	-1.5486e-005
19341	3.3264	2.0909	0.	-720.95
19342	3.234	2.1818	0.	-770.79
19343	3.3264	2.1818	5.e-002	-1.352e-005
19344	3.3264	1.9091	0.	-679.19
19345	3.234	2.	0.	-730.85
19346	3.3264	2.	5.e-002	-2.2951e-005
19347	3.3264	1.7273	0.	-630.88
19348	3.234	1.8182	0.	-683.79
19349	3.3264	1.8182	5.e-002	-1.7747e-005
19350	3.3264	1.5455	0.	-576.57
19351	3.234	1.6364	0.	-630.12
19352	3.3264	1.6364	5.e-002	-3.3451e-005
19353	3.3264	1.3636	0.	-516.89
19354	3.234	1.4545	0.	-570.46
19355	3.3264	1.4545	5.e-002	-3.0691e-005
19356	3.3264	1.1818	0.	-452.57
19357	3.234	1.2727	0.	-505.51
19358	3.3264	1.2727	5.e-002	-3.4017e-005
19359	3.3264	1.	0.	-384.4
19360	3.234	1.0909	0.	-436.08
19361	3.3264	1.0909	5.e-002	-5.5497e-005
19362	3.3264	0.81818	0.	-313.21
19363	3.234	0.90909	0.	-363.05
19364	3.3264	0.90909	5.e-002	-3.191e-005
19365	3.3264	0.63636	0.	-239.84
19366	3.234	0.72727	0.	-287.31
19367	3.3264	0.72727	5.e-002	-8.2554e-005
19368	3.3264	0.45455	0.	-164.99
19369	3.234	0.54545	0.	-209.8
19370	3.3264	0.54545	5.e-002	-9.0394e-005
19371	3.3264	0.27273	0.	-88.431
19372	3.234	0.36364	0.	-131.08
19373	3.3264	0.36364	5.e-002	-1.1048e-004
19374	3.234	0.18182	0.	-50.344
19375	3.3264	0.18182	5.e-002	-3.6528e-005
19376	3.3264	9.0909e-002	0.	-25.209
19377	3.1416	5.7273	0.	-92.515
19378	3.0492	5.8182	0.	-50.85
19379	3.1416	5.8182	5.e-002	5.5162e-005
19380	3.1416	5.9091	0.	-25.117
19381	3.1416	5.5455	0.	-175.75
19382	3.0492	5.6364	0.	-138.67
19383	3.1416	5.6364	5.e-002	1.1695e-004
19384	3.1416	5.3636	0.	-257.15
19385	3.0492	5.4545	0.	-224.25
19386	3.1416	5.4545	5.e-002	1.2165e-004
19387	3.1416	5.1818	0.	-337.04
19388	3.0492	5.2727	0.	-308.65
19389	3.1416	5.2727	5.e-002	1.2352e-004
19390	3.1416	5.	0.	-414.63
19391	3.0492	5.0909	0.	-391.21
19392	3.1416	5.0909	5.e-002	1.2306e-004
19393	3.1416	4.8182	0.	-488.94
19394	3.0492	4.9091	0.	-470.85
19395	3.1416	4.9091	5.e-002	8.8638e-005
19396	3.1416	4.6364	0.	-559.02
19397	3.0492	4.7273	0.	-546.53
19398	3.1416	4.7273	5.e-002	1.0177e-004
19399	3.1416	4.4545	0.	-623.99
19400	3.0492	4.5455	0.	-617.26
19401	3.1416	4.5455	5.e-002	3.2829e-005
19402	3.1416	4.2727	0.	-683.04
19403	3.0492	4.3636	0.	-682.13
19404	3.1416	4.3636	5.e-002	7.7207e-005
19405	3.1416	4.0909	0.	-735.49
19406	3.0492	4.1818	0.	-740.38
19407	3.1416	4.1818	5.e-002	5.2378e-005
19408	3.1416	3.9091	0.	-780.76
19409	3.0492	4.	0.	-791.36
19410	3.1416	4.	5.e-002	2.4318e-005
19411	3.1416	3.7273	0.	-818.37
19412	3.0492	3.8182	0.	-834.54
19413	3.1416	3.8182	5.e-002	2.0502e-005
19414	3.1416	3.5455	0.	-847.97
19415	3.0492	3.6364	0.	-869.52
19416	3.1416	3.6364	5.e-002	1.9368e-005
19417	3.1416	3.3636	0.	-869.3
19418	3.0492	3.4545	0.	-895.99
19419	3.1416	3.4545	5.e-002	9.0216e-006
19420	3.1416	3.1818	0.	-882.16
19421	3.0492	3.2727	0.	-913.75
19422	3.1416	3.2727	5.e-002	5.5124e-006
19423	3.1416	3.	0.	-886.46
19424	3.0492	3.0909	0.	-922.66
19425	3.1416	3.0909	5.e-002	1.9397e-006
19426	3.1416	2.8182	0.	-882.16
19427	3.0492	2.9091	0.	-922.66
19428	3.1416	2.9091	5.e-002	-1.8542e-006
19429	3.1416	2.6364	0.	-869.3
19430	3.0492	2.7273	0.	-913.75
19431	3.1416	2.7273	5.e-002	-5.5124e-006
19432	3.1416	2.4545	0.	-847.97
19433	3.0492	2.5455	0.	-895.99
19434	3.1416	2.5455	5.e-002	-8.3276e-006
19435	3.1416	2.2727	0.	-818.37
19436	3.0492	2.3636	0.	-869.52
19437	3.1416	2.3636	5.e-002	-1.1344e-005
19438	3.1416	2.0909	0.	-780.76
19439	3.0492	2.1818	0.	-834.54
19440	3.1416	2.1818	5.e-002	-2.0502e-005
19441	3.1416	1.9091	0.	-735.49
19442	3.0492	2.	0.	-791.36
19443	3.1416	2.	5.e-002	-2.5686e-005
19444	3.1416	1.7273	0.	-683.04
19445	3.0492	1.8182	0.	-740.38
19446	3.1416	1.8182	5.e-002	-3.0741e-005
19447	3.1416	1.5455	0.	-623.99
19448	3.0492	1.6364	0.	-682.13
19449	3.1416	1.6364	5.e-002	-4.7747e-005
19450	3.1416	1.3636	0.	-559.02
19451	3.0492	1.4545	0.	-617.26
19452	3.1416	1.4545	5.e-002	-3.2829e-005
19453	3.1416	1.1818	0.	-488.94
19454	3.0492	1.2727	0.	-546.53
19455	3.1416	1.2727	5.e-002	-5.8194e-005
19456	3.1416	1.	0.	-414.63
19457	3.0492	1.0909	0.	-470.85
19458	3.1416	1.0909	5.e-002	-6.0339e-005
19459	3.1416	0.81818	0.	-337.04
19460	3.0492	0.90909	0.	-391.21
19461	3.1416	0.90909	5.e-002	-6.9109e-005
19462	3.1416	0.63636	0.	-257.15
19463	3.0492	0.72727	0.	-308.65
19464	3.1416	0.72727	5.e-002	-9.0734e-005
19465	3.1416	0.45455	0.	-175.75
19466	3.0492	0.54545	0.	-224.25
19467	3.1416	0.54545	5.e-002	-9.5054e-005
19468	3.1416	0.27273	0.	-92.515
19469	3.0492	0.36364	0.	-138.67
19470	3.1416	0.36364	5.e-002	-1.2838e-004
19471	3.0492	0.18182	0.	-50.85
19472	3.1416	0.18182	5.e-002	-3.4648e-005
19473	3.1416	9.0909e-002	0.	-25.117
19474	2.9568	5.7273	0.	-96.413
19475	2.8644	5.8182	0.	-50.805
19476	2.9568	5.8182	5.e-002	5.0385e-005
19477	2.9568	5.9091	0.	-24.63
19478	2.9568	5.5455	0.	-187.
19479	2.8644	5.6364	0.	-146.42
19480	2.9568	5.6364	5.e-002	1.2813e-004
19481	2.9568	5.3636	0.	-275.61
19482	2.8644	5.4545	0.	-239.56
19483	2.9568	5.4545	5.e-002	1.4139e-004
19484	2.9568	5.1818	0.	-362.69
19485	2.8644	5.2727	0.	-331.58
19486	2.9568	5.2727	5.e-002	1.1093e-004
19487	2.9568	5.	0.	-447.32
19488	2.8644	5.0909	0.	-421.68
19489	2.9568	5.0909	5.e-002	1.0435e-004
19490	2.9568	4.8182	0.	-528.36
19491	2.8644	4.9091	0.	-508.59
19492	2.9568	4.9091	5.e-002	9.6223e-005
19493	2.9568	4.6364	0.	-604.71
19494	2.8644	4.7273	0.	-591.09
19495	2.9568	4.7273	5.e-002	1.1067e-004
19496	2.9568	4.4545	0.	-675.38
19497	2.8644	4.5455	0.	-668.05
19498	2.9568	4.5455	5.e-002	5.5555e-005
19499	2.9568	4.2727	0.	-739.49
19500	2.8644	4.3636	0.	-738.5
19501	2.9568	4.3636	5.e-002	3.4128e-005
19502	2.9568	4.0909	0.	-796.31
19503	2.8644	4.1818	0.	-801.59
19504	2.9568	4.1818	5.e-002	3.2447e-005
19505	2.9568	3.9091	0.	-845.24
19506	2.8644	4.	0.	-856.66
19507	2.9568	4.	5.e-002	3.7108e-005
19508	2.9568	3.7273	0.	-885.81
19509	2.8644	3.8182	0.	-903.18
19510	2.9568	3.8182	5.e-002	2.8495e-005
19511	2.9568	3.5455	0.	-917.68
19512	2.8644	3.6364	0.	-940.77
19513	2.9568	3.6364	5.e-002	1.6074e-005
19514	2.9568	3.3636	0.	-940.6
19515	2.8644	3.4545	0.	-969.17
19516	2.9568	3.4545	5.e-002	1.1591e-005
19517	2.9568	3.1818	0.	-954.41
19518	2.8644	3.2727	0.	-988.19
19519	2.9568	3.2727	5.e-002	6.4168e-006
19520	2.9568	3.	0.	-959.03
19521	2.8644	3.0909	0.	-997.72
19522	2.9568	3.0909	5.e-002	1.9195e-006
19523	2.9568	2.8182	0.	-954.41
19524	2.8644	2.9091	0.	-997.72
19525	2.9568	2.9091	5.e-002	5.6985e-006
19526	2.9568	2.6364	0.	-940.6
19527	2.8644	2.7273	0.	-988.19
19528	2.9568	2.7273	5.e-002	-5.7071e-006
19529	2.9568	2.4545	0.	-917.68
19530	2.8644	2.5455	0.	-969.17
19531	2.9568	2.5455	5.e-002	-9.3422e-006
19532	2.9568	2.2727	0.	-885.81
19533	2.8644	2.3636	0.	-940.77
19534	2.9568	2.3636	5.e-002	-1.1748e-005
19535	2.9568	2.0909	0.	-845.24
19536	2.8644	2.1818	0.	-903.18
19537	2.9568	2.1818	5.e-002	-2.1526e-005
19538	2.9568	1.9091	0.	-796.31
19539	2.8644	2.	0.	-856.66
19540	2.9568	2.	5.e-002	-1.6985e-005
19541	2.9568	1.7273	0.	-739.49
19542	2.8644	1.8182	0.	-801.59
19543	2.9568	1.8182	5.e-002	-3.2447e-005
19544	2.9568	1.5455	0.	-675.38
19545	2.8644	1.6364	0.	-738.5
19546	2.9568	1.6364	5.e-002	-2.0528e-005
19547	2.9568	1.3636	0.	-604.71
19548	2.8644	1.4545	0.	-668.05
19549	2.9568	1.4545	5.e-002	-2.1637e-005
19550	2.9568	1.1818	0.	-528.36
19551	2.8644	1.2727	0.	-591.09
19552	2.9568	1.2727	5.e-002	-8.6729e-005
19553	2.9568	1.	0.	-447.32
19554	2.8644	1.0909	0.	-508.59
19555	2.9568	1.0909	5.e-002	-4.218e-005
19556	2.9568	0.81818	0.	-362.69
19557	2.8644	0.90909	0.	-421.68
19558	2.9568	0.90909	5.e-002	-9.4766e-005
19559	2.9568	0.63636	0.	-275.61
19560	2.8644	0.72727	0.	-331.58
19561	2.9568	0.72727	5.e-002	-4.7139e-005
19562	2.9568	0.45455	0.	-187.
19563	2.8644	0.54545	0.	-239.56
19564	2.9568	0.54545	5.e-002	-7.4493e-005
19565	2.9568	0.27273	0.	-96.413
19566	2.8644	0.36364	0.	-146.42
19567	2.9568	0.36364	5.e-002	-1.2813e-004
19568	2.8644	0.18182	0.	-50.805
19569	2.9568	0.18182	5.e-002	-3.8543e-005
19570	2.9568	9.0909e-002	0.	-24.63
19571	2.772	5.7273	0.	-100.07
19572	2.6796	5.8182	0.	-50.109
19573	2.772	5.8182	5.e-002	5.1903e-005
19574	2.772	5.9091	0.	-23.666
19575	2.772	5.5455	0.	-198.79
19576	2.6796	5.6364	0.	-154.34
19577	2.772	5.6364	5.e-002	1.4412e-004
19578	2.772	5.3636	0.	-295.38
19579	2.6796	5.4545	0.	-255.88
19580	2.772	5.4545	5.e-002	1.6179e-004
19581	2.772	5.1818	0.	-390.43
19582	2.6796	5.2727	0.	-356.37
19583	2.772	5.2727	5.e-002	1.46e-004
19584	2.772	5.	0.	-482.83
19585	2.6796	5.0909	0.	-454.82
19586	2.772	5.0909	5.e-002	1.456e-004
19587	2.772	4.8182	0.	-571.23
19588	2.6796	4.9091	0.	-549.72
19589	2.772	4.9091	5.e-002	1.3373e-004
19590	2.772	4.6364	0.	-654.38
19591	2.6796	4.7273	0.	-639.66
19592	2.772	4.7273	5.e-002	9.3674e-005
19593	2.772	4.4545	0.	-731.17
19594	2.6796	4.5455	0.	-723.35
19595	2.772	4.5455	5.e-002	6.3245e-005
19596	2.772	4.2727	0.	-800.64
19597	2.6796	4.3636	0.	-799.71
19598	2.772	4.3636	5.e-002	9.6803e-005
19599	2.772	4.0909	0.	-862.02
19600	2.6796	4.1818	0.	-867.85
19601	2.772	4.1818	5.e-002	6.6435e-005
19602	2.772	3.9091	0.	-914.71
19603	2.6796	4.	0.	-927.1
19604	2.772	4.	5.e-002	2.685e-005
19605	2.772	3.7273	0.	-958.28
19606	2.6796	3.8182	0.	-976.99
19607	2.772	3.8182	5.e-002	1.4992e-005
19608	2.772	3.5455	0.	-992.42
19609	2.6796	3.6364	0.	-1017.2
19610	2.772	3.6364	5.e-002	2.2319e-005
19611	2.772	3.3636	0.	-1016.9
19612	2.6796	3.4545	0.	-1047.5
19613	2.772	3.4545	5.e-002	9.2418e-006
19614	2.772	3.1818	0.	-1031.7
19615	2.6796	3.2727	0.	-1067.7
19616	2.772	3.2727	5.e-002	6.7348e-006
19617	2.772	3.	0.	-1036.6
19618	2.6796	3.0909	0.	-1077.8
19619	2.772	3.0909	5.e-002	1.9728e-006
19620	2.772	2.8182	0.	-1031.7
19621	2.6796	2.9091	0.	-1077.8
19622	2.772	2.9091	5.e-002	-1.9728e-006
19623	2.772	2.6364	0.	-1016.9
19624	2.6796	2.7273	0.	-1067.7
19625	2.772	2.7273	5.e-002	-5.8679e-006
19626	2.772	2.4545	0.	-992.42
19627	2.6796	2.5455	0.	-1047.5
19628	2.772	2.5455	5.e-002	-9.6115e-006
19629	2.772	2.2727	0.	-958.28
19630	2.6796	2.3636	0.	-1017.2
19631	2.772	2.3636	5.e-002	-1.2094e-005
19632	2.772	2.0909	0.	-914.71
19633	2.6796	2.1818	0.	-976.99
19634	2.772	2.1818	5.e-002	-1.4992e-005
19635	2.772	1.9091	0.	-862.02
19636	2.6796	2.	0.	-927.1
19637	2.772	2.	5.e-002	-2.685e-005
19638	2.772	1.7273	0.	-800.64
19639	2.6796	1.8182	0.	-867.85
19640	2.772	1.8182	5.e-002	-4.6068e-005
19641	2.772	1.5455	0.	-731.17
19642	2.6796	1.6364	0.	-799.71
19643	2.772	1.6364	5.e-002	-9.1485e-005
19644	2.772	1.3636	0.	-654.38
19645	2.6796	1.4545	0.	-723.35
19646	2.772	1.4545	5.e-002	-6.3245e-005
19647	2.772	1.1818	0.	-571.23
19648	2.6796	1.2727	0.	-639.66
19649	2.772	1.2727	5.e-002	-7.1261e-005
19650	2.772	1.	0.	-482.83
19651	2.6796	1.0909	0.	-549.72
19652	2.772	1.0909	5.e-002	-1.3373e-004
19653	2.772	0.81818	0.	-390.43
19654	2.6796	0.90909	0.	-454.82
19655	2.772	0.90909	5.e-002	-8.041e-005
19656	2.772	0.63636	0.	-295.38
19657	2.6796	0.72727	0.	-356.37
19658	2.772	0.72727	5.e-002	-7.4332e-005
19659	2.772	0.45455	0.	-198.79
19660	2.6796	0.54545	0.	-255.88
19661	2.772	0.54545	5.e-002	-1.6179e-004
19662	2.772	0.27273	0.	-100.07
19663	2.6796	0.36364	0.	-154.34
19664	2.772	0.36364	5.e-002	-1.1281e-004
19665	2.6796	0.18182	0.	-50.109
19666	2.772	0.18182	5.e-002	-5.1903e-005
19667	2.772	9.0909e-002	0.	-23.666
19668	2.5872	5.7273	0.	-103.43
19669	2.4948	5.8182	0.	-48.664
19670	2.5872	5.8182	5.e-002	6.3426e-005
19671	2.5872	5.9091	0.	-22.135
19672	2.5872	5.5455	0.	-211.21
19673	2.4948	5.6364	0.	-162.46
19674	2.5872	5.6364	5.e-002	1.574e-004
19675	2.5872	5.3636	0.	-316.69
19676	2.4948	5.4545	0.	-273.39
19677	2.5872	5.4545	5.e-002	1.2782e-004
19678	2.5872	5.1818	0.	-420.6
19679	2.4948	5.2727	0.	-383.36
19680	2.5872	5.2727	5.e-002	1.607e-004
19681	2.5872	5.	0.	-521.59
19682	2.4948	5.0909	0.	-491.11
19683	2.5872	5.0909	5.e-002	1.2197e-004
19684	2.5872	4.8182	0.	-618.07
19685	2.4948	4.9091	0.	-594.84
19686	2.5872	4.9091	5.e-002	1.4454e-004
19687	2.5872	4.6364	0.	-708.59
19688	2.4948	4.7273	0.	-692.87
19689	2.5872	4.7273	5.e-002	1.0072e-004
19690	2.5872	4.4545	0.	-791.89
19691	2.4948	4.5455	0.	-783.75
19692	2.5872	4.5455	5.e-002	9.904e-005
19693	2.5872	4.2727	0.	-866.97
19694	2.4948	4.3636	0.	-866.3
19695	2.5872	4.3636	5.e-002	1.0474e-004
19696	2.5872	4.0909	0.	-933.03
19697	2.4948	4.1818	0.	-939.62
19698	2.5872	4.1818	5.e-002	6.6732e-005
19699	2.5872	3.9091	0.	-989.51
19700	2.4948	4.	0.	-1003.1
19701	2.5872	4.	5.e-002	3.9439e-005
19702	2.5872	3.7273	0.	-1036.
19703	2.4948	3.8182	0.	-1056.3
19704	2.5872	3.8182	5.e-002	1.5349e-005
19705	2.5872	3.5455	0.	-1072.4
19706	2.4948	3.6364	0.	-1098.9
19707	2.5872	3.6364	5.e-002	2.6887e-005
19708	2.5872	3.3636	0.	-1098.4
19709	2.4948	3.4545	0.	-1131.
19710	2.5872	3.4545	5.e-002	1.2309e-005
19711	2.5872	3.1818	0.	-1114.
19712	2.4948	3.2727	0.	-1152.3
19713	2.5872	3.2727	5.e-002	7.3488e-006
19714	2.5872	3.	0.	-1119.3
19715	2.4948	3.0909	0.	-1163.
19716	2.5872	3.0909	5.e-002	2.1928e-006
19717	2.5872	2.8182	0.	-1114.
19718	2.4948	2.9091	0.	-1163.
19719	2.5872	2.9091	5.e-002	-1.8912e-006
19720	2.5872	2.6364	0.	-1098.4
19721	2.4948	2.7273	0.	-1152.3
19722	2.5872	2.7273	5.e-002	-5.3134e-006
19723	2.5872	2.4545	0.	-1072.4
19724	2.4948	2.5455	0.	-1131.
19725	2.5872	2.5455	5.e-002	-1.2309e-005
19726	2.5872	2.2727	0.	-1036.
19727	2.4948	2.3636	0.	-1098.9
19728	2.5872	2.3636	5.e-002	-2.2047e-005
19729	2.5872	2.0909	0.	-989.51
19730	2.4948	2.1818	0.	-1056.3
19731	2.5872	2.1818	5.e-002	-1.5349e-005
19732	2.5872	1.9091	0.	-933.03
19733	2.4948	2.	0.	-1003.1
19734	2.5872	2.	5.e-002	-1.7908e-005
19735	2.5872	1.7273	0.	-866.97
19736	2.4948	1.8182	0.	-939.62
19737	2.5872	1.8182	5.e-002	-3.2226e-005
19738	2.5872	1.5455	0.	-791.89
19739	2.4948	1.6364	0.	-866.3
19740	2.5872	1.6364	5.e-002	-9.7583e-005
19741	2.5872	1.3636	0.	-708.59
19742	2.4948	1.4545	0.	-783.75
19743	2.5872	1.4545	5.e-002	-9.157e-005
19744	2.5872	1.1818	0.	-618.07
19745	2.4948	1.2727	0.	-692.87
19746	2.5872	1.2727	5.e-002	-7.222e-005
19747	2.5872	1.	0.	-521.59
19748	2.4948	1.0909	0.	-594.84
19749	2.5872	1.0909	5.e-002	-1.1221e-004
19750	2.5872	0.81818	0.	-420.6
19751	2.4948	0.90909	0.	-491.11
19752	2.5872	0.90909	5.e-002	-8.6324e-005
19753	2.5872	0.63636	0.	-316.69
19754	2.4948	0.72727	0.	-383.36
19755	2.5872	0.72727	5.e-002	-8.035e-005
19756	2.5872	0.45455	0.	-211.21
19757	2.4948	0.54545	0.	-273.39
19758	2.5872	0.54545	5.e-002	-1.7034e-004
19759	2.5872	0.27273	0.	-103.43
19760	2.4948	0.36364	0.	-162.46
19761	2.5872	0.36364	5.e-002	-1.574e-004
19762	2.4948	0.18182	0.	-48.664
19763	2.5872	0.18182	5.e-002	-5.6932e-005
19764	2.5872	9.0909e-002	0.	-22.135
19765	2.4024	5.7273	0.	-106.44
19766	2.31	5.8182	0.	-46.371
19767	2.4024	5.8182	5.e-002	6.6469e-005
19768	2.4024	5.9091	0.	-19.93
19769	2.4024	5.5455	0.	-224.38
19770	2.31	5.6364	0.	-170.83
19771	2.4024	5.6364	5.e-002	1.7531e-004
19772	2.4024	5.3636	0.	-339.85
19773	2.31	5.4545	0.	-292.37
19774	2.4024	5.4545	5.e-002	1.8232e-004
19775	2.4024	5.1818	0.	-453.69
19776	2.31	5.2727	0.	-413.03
19777	2.4024	5.2727	5.e-002	1.3602e-004
19778	2.4024	5.	0.	-564.23
19779	2.31	5.0909	0.	-531.2
19780	2.4024	5.0909	5.e-002	1.6991e-004
19781	2.4024	4.8182	0.	-669.56
19782	2.31	4.9091	0.	-644.68
19783	2.4024	4.9091	5.e-002	1.2041e-004
19784	2.4024	4.6364	0.	-768.
19785	2.31	4.7273	0.	-751.5
19786	2.4024	4.7273	5.e-002	1.0772e-004
19787	2.4024	4.4545	0.	-858.18
19788	2.31	4.5455	0.	-850.
19789	2.4024	4.5455	5.e-002	1.234e-004
19790	2.4024	4.2727	0.	-939.03
19791	2.31	4.3636	0.	-938.93
19792	2.4024	4.3636	5.e-002	3.5815e-005
19793	2.4024	4.0909	0.	-1009.8
19794	2.31	4.1818	0.	-1017.4
19795	2.4024	4.1818	5.e-002	4.6575e-005
19796	2.4024	3.9091	0.	-1070.
19797	2.31	4.	0.	-1084.9
19798	2.4024	4.	5.e-002	5.1459e-005
19799	2.4024	3.7273	0.	-1119.3
19800	2.31	3.8182	0.	-1141.2
19801	2.4024	3.8182	5.e-002	1.5613e-005
19802	2.4024	3.5455	0.	-1157.7
19803	2.31	3.6364	0.	-1186.1
19804	2.4024	3.6364	5.e-002	1.2554e-005
19805	2.4024	3.3636	0.	-1185.1
19806	2.31	3.4545	0.	-1219.7
19807	2.4024	3.4545	5.e-002	1.5062e-005
19808	2.4024	3.1818	0.	-1201.5
19809	2.31	3.2727	0.	-1242.1
19810	2.4024	3.2727	5.e-002	8.1304e-006
19811	2.4024	3.	0.	-1207.
19812	2.31	3.0909	0.	-1253.2
19813	2.4024	3.0909	5.e-002	2.1144e-006
19814	2.4024	2.8182	0.	-1201.5
19815	2.31	2.9091	0.	-1253.2
19816	2.4024	2.9091	5.e-002	-2.0118e-006
19817	2.4024	2.6364	0.	-1185.1
19818	2.31	2.7273	0.	-1242.1
19819	2.4024	2.7273	5.e-002	-4.6634e-006
19820	2.4024	2.4545	0.	-1157.7
19821	2.31	2.5455	0.	-1219.7
19822	2.4024	2.5455	5.e-002	-9.1768e-006
19823	2.4024	2.2727	0.	-1119.3
19824	2.31	2.3636	0.	-1186.1
19825	2.4024	2.3636	5.e-002	-1.2554e-005
19826	2.4024	2.0909	0.	-1070.
19827	2.31	2.1818	0.	-1141.2
19828	2.4024	2.1818	5.e-002	-1.5613e-005
19829	2.4024	1.9091	0.	-1009.8
19830	2.31	2.	0.	-1084.9
19831	2.4024	2.	5.e-002	-4.2414e-005
19832	2.4024	1.7273	0.	-939.03
19833	2.31	1.8182	0.	-1017.4
19834	2.4024	1.8182	5.e-002	-4.6575e-005
19835	2.4024	1.5455	0.	-858.18
19836	2.31	1.6364	0.	-938.93
19837	2.4024	1.6364	5.e-002	-4.3086e-005
19838	2.4024	1.3636	0.	-768.
19839	2.31	1.4545	0.	-850.
19840	2.4024	1.4545	5.e-002	-9.3492e-005
19841	2.4024	1.1818	0.	-669.56
19842	2.31	1.2727	0.	-751.5
19843	2.4024	1.2727	5.e-002	-7.69e-005
19844	2.4024	1.	0.	-564.23
19845	2.31	1.0909	0.	-644.68
19846	2.4024	1.0909	5.e-002	-8.1528e-005
19847	2.4024	0.81818	0.	-453.69
19848	2.31	0.90909	0.	-531.2
19849	2.4024	0.90909	5.e-002	-1.6624e-004
19850	2.4024	0.63636	0.	-339.85
19851	2.31	0.72727	0.	-413.03
19852	2.4024	0.72727	5.e-002	-8.7138e-005
19853	2.4024	0.45455	0.	-224.38
19854	2.31	0.54545	0.	-292.37
19855	2.4024	0.54545	5.e-002	-1.8232e-004
19856	2.4024	0.27273	0.	-106.44
19857	2.31	0.36364	0.	-170.83
19858	2.4024	0.36364	5.e-002	-1.7531e-004
19859	2.31	0.18182	0.	-46.371
19860	2.4024	0.18182	5.e-002	-6.2623e-005
19861	2.4024	9.0909e-002	0.	-19.93
19862	2.2176	5.7273	0.	-109.06
19863	2.1252	5.8182	0.	-43.156
19864	2.2176	5.8182	5.e-002	6.2779e-005
19865	2.2176	5.9091	0.	-16.94
19866	2.2176	5.5455	0.	-238.51
19867	2.1252	5.6364	0.	-179.56
19868	2.2176	5.6364	5.e-002	1.8383e-004
19869	2.2176	5.3636	0.	-365.31
19870	2.1252	5.4545	0.	-313.22
19871	2.2176	5.4545	5.e-002	1.9056e-004
19872	2.2176	5.1818	0.	-490.35
19873	2.1252	5.2727	0.	-446.06
19874	2.2176	5.2727	5.e-002	1.8806e-004
19875	2.2176	5.	0.	-611.53
19876	2.1252	5.0909	0.	-575.98
19877	2.2176	5.0909	5.e-002	1.261e-004
19878	2.2176	4.8182	0.	-726.55
19879	2.1252	4.9091	0.	-700.25
19880	2.2176	4.9091	5.e-002	1.6641e-004
19881	2.2176	4.6364	0.	-833.48
19882	2.1252	4.7273	0.	-816.54
19883	2.2176	4.7273	5.e-002	8.9003e-005
19884	2.2176	4.4545	0.	-930.8
19885	2.1252	4.5455	0.	-923.
19886	2.2176	4.5455	5.e-002	7.0909e-005
19887	2.2176	4.2727	0.	-1017.4
19888	2.1252	4.3636	0.	-1018.4
19889	2.2176	4.3636	5.e-002	8.2122e-005
19890	2.2176	4.0909	0.	-1092.8
19891	2.1252	4.1818	0.	-1101.9
19892	2.2176	4.1818	5.e-002	3.787e-005
19893	2.2176	3.9091	0.	-1156.4
19894	2.1252	4.	0.	-1173.1
19895	2.2176	4.	5.e-002	5.868e-005
19896	2.2176	3.7273	0.	-1208.3
19897	2.1252	3.8182	0.	-1232.1
19898	2.2176	3.8182	5.e-002	2.4163e-005
19899	2.2176	3.5455	0.	-1248.4
19900	2.1252	3.6364	0.	-1278.9
19901	2.2176	3.6364	5.e-002	2.8904e-005
19902	2.2176	3.3636	0.	-1276.9
19903	2.1252	3.4545	0.	-1313.7
19904	2.2176	3.4545	5.e-002	9.5912e-006
19905	2.2176	3.1818	0.	-1294.
19906	2.1252	3.2727	0.	-1336.7
19907	2.2176	3.2727	5.e-002	6.9826e-006
19908	2.2176	3.	0.	-1299.7
19909	2.1252	3.0909	0.	-1348.2
19910	2.2176	3.0909	5.e-002	2.1138e-006
19911	2.2176	2.8182	0.	-1294.
19912	2.1252	2.9091	0.	-1348.2
19913	2.2176	2.9091	5.e-002	-2.0113e-006
19914	2.2176	2.6364	0.	-1276.9
19915	2.1252	2.7273	0.	-1336.7
19916	2.2176	2.7273	5.e-002	-5.8249e-006
19917	2.2176	2.4545	0.	-1248.4
19918	2.1252	2.5455	0.	-1313.7
19919	2.2176	2.5455	5.e-002	-9.2076e-006
19920	2.2176	2.2727	0.	-1208.3
19921	2.1252	2.3636	0.	-1278.9
19922	2.2176	2.3636	5.e-002	-2.2779e-005
19923	2.2176	2.0909	0.	-1156.4
19924	2.1252	2.1818	0.	-1232.1
19925	2.2176	2.1818	5.e-002	-1.5767e-005
19926	2.2176	1.9091	0.	-1092.8
19927	2.1252	2.	0.	-1173.1
19928	2.2176	2.	5.e-002	-4.0388e-005
19929	2.2176	1.7273	0.	-1017.4
19930	2.1252	1.8182	0.	-1101.9
19931	2.2176	1.8182	5.e-002	-3.4434e-005
19932	2.2176	1.5455	0.	-930.8
19933	2.1252	1.6364	0.	-1018.4
19934	2.2176	1.6364	5.e-002	-3.7186e-005
19935	2.2176	1.3636	0.	-833.48
19936	2.1252	1.4545	0.	-923.
19937	2.2176	1.4545	5.e-002	-7.0909e-005
19938	2.2176	1.1818	0.	-726.55
19939	2.1252	1.2727	0.	-816.54
19940	2.2176	1.2727	5.e-002	-4.8302e-005
19941	2.2176	1.	0.	-611.53
19942	2.1252	1.0909	0.	-700.25
19943	2.2176	1.0909	5.e-002	-1.2851e-004
19944	2.2176	0.81818	0.	-490.35
19945	2.1252	0.90909	0.	-575.98
19946	2.2176	0.90909	5.e-002	-1.4729e-004
19947	2.2176	0.63636	0.	-365.31
19948	2.1252	0.72727	0.	-446.06
19949	2.2176	0.72727	5.e-002	-1.8139e-004
19950	2.2176	0.45455	0.	-238.51
19951	2.1252	0.54545	0.	-313.22
19952	2.2176	0.54545	5.e-002	-2.032e-004
19953	2.2176	0.27273	0.	-109.06
19954	2.1252	0.36364	0.	-179.56
19955	2.2176	0.36364	5.e-002	-1.8383e-004
19956	2.1252	0.18182	0.	-43.156
19957	2.2176	0.18182	5.e-002	-5.635e-005
19958	2.2176	9.0909e-002	0.	-16.94
19959	2.0328	5.7273	0.	-111.28
19960	1.9404	5.8182	0.	-39.001
19961	2.0328	5.8182	5.e-002	6.7149e-005
19962	2.0328	5.9091	0.	-13.059
19963	2.0328	5.5455	0.	-253.92
19964	1.9404	5.6364	0.	-188.87
19965	2.0328	5.6364	5.e-002	2.0596e-004
19966	2.0328	5.3636	0.	-393.71
19967	1.9404	5.4545	0.	-336.55
19968	2.0328	5.4545	5.e-002	2.0616e-004
19969	2.0328	5.1818	0.	-531.5
19970	1.9404	5.2727	0.	-483.44
19971	2.0328	5.2727	5.e-002	2.138e-004
19972	2.0328	5.	0.	-664.58
19973	1.9404	5.0909	0.	-626.68
19974	2.0328	5.0909	5.e-002	1.8958e-004
19975	2.0328	4.8182	0.	-790.19
19976	1.9404	4.9091	0.	-762.88
19977	2.0328	4.9091	5.e-002	1.6251e-004
19978	2.0328	4.6364	0.	-906.08
19979	1.9404	4.7273	0.	-889.26
19980	2.0328	4.7273	5.e-002	1.5605e-004
19981	2.0328	4.4545	0.	-1010.7
19982	1.9404	4.5455	0.	-1003.8
19983	2.0328	4.5455	5.e-002	7.7823e-005
19984	2.0328	4.2727	0.	-1102.9
19985	1.9404	4.3636	0.	-1105.4
19986	2.0328	4.3636	5.e-002	6.169e-005
19987	2.0328	4.0909	0.	-1182.4
19988	1.9404	4.1818	0.	-1193.5
19989	2.0328	4.1818	5.e-002	3.1621e-005
19990	2.0328	3.9091	0.	-1249.
19991	1.9404	4.	0.	-1267.9
19992	2.0328	4.	5.e-002	5.357e-005
19993	2.0328	3.7273	0.	-1302.9
19994	1.9404	3.8182	0.	-1328.9
19995	2.0328	3.8182	5.e-002	3.2643e-005
19996	2.0328	3.5455	0.	-1344.4
19997	1.9404	3.6364	0.	-1377.
19998	2.0328	3.6364	5.e-002	2.3722e-005
19999	2.0328	3.3636	0.	-1373.8
20000	1.9404	3.4545	0.	-1412.6
20001	2.0328	3.4545	5.e-002	1.5747e-005
20002	2.0328	3.1818	0.	-1391.2
20003	1.9404	3.2727	0.	-1436.1
20004	2.0328	3.2727	5.e-002	5.7667e-006
20005	2.0328	3.	0.	-1397.
20006	1.9404	3.0909	0.	-1447.7
20007	2.0328	3.0909	5.e-002	1.7364e-005
20008	2.0328	2.8182	0.	-1391.2
20009	1.9404	2.9091	0.	-1447.7
20010	2.0328	2.9091	5.e-002	-1.83e-006
20011	2.0328	2.6364	0.	-1373.8
20012	1.9404	2.7273	0.	-1436.1
20013	2.0328	2.7273	5.e-002	-5.7667e-006
20014	2.0328	2.4545	0.	-1344.4
20015	1.9404	2.5455	0.	-1412.6
20016	2.0328	2.5455	5.e-002	-9.1424e-006
20017	2.0328	2.2727	0.	-1302.9
20018	1.9404	2.3636	0.	-1377.
20019	2.0328	2.3636	5.e-002	-1.7635e-005
20020	2.0328	2.0909	0.	-1249.
20021	1.9404	2.1818	0.	-1328.9
20022	2.0328	2.1818	5.e-002	-3.1327e-005
20023	2.0328	1.9091	0.	-1182.4
20024	1.9404	2.	0.	-1267.9
20025	2.0328	2.	5.e-002	-3.4372e-005
20026	2.0328	1.7273	0.	-1102.9
20027	1.9404	1.8182	0.	-1193.5
20028	2.0328	1.8182	5.e-002	-2.0792e-005
20029	2.0328	1.5455	0.	-1010.7
20030	1.9404	1.6364	0.	-1105.4
20031	2.0328	1.6364	5.e-002	-4.9396e-005
20032	2.0328	1.3636	0.	-906.08
20033	1.9404	1.4545	0.	-1003.8
20034	2.0328	1.4545	5.e-002	-4.8442e-005
20035	2.0328	1.1818	0.	-790.19
20036	1.9404	1.2727	0.	-889.26
20037	2.0328	1.2727	5.e-002	-1.2081e-004
20038	2.0328	1.	0.	-664.58
20039	1.9404	1.0909	0.	-762.88
20040	2.0328	1.0909	5.e-002	-1.3628e-004
20041	2.0328	0.81818	0.	-531.5
20042	1.9404	0.90909	0.	-626.68
20043	2.0328	0.90909	5.e-002	-1.9429e-004
20044	2.0328	0.63636	0.	-393.71
20045	1.9404	0.72727	0.	-483.44
20046	2.0328	0.72727	5.e-002	-9.776e-005
20047	2.0328	0.45455	0.	-253.92
20048	1.9404	0.54545	0.	-336.55
20049	2.0328	0.54545	5.e-002	-2.1113e-004
20050	2.0328	0.27273	0.	-111.28
20051	1.9404	0.36364	0.	-188.87
20052	2.0328	0.36364	5.e-002	-1.5007e-004
20053	1.9404	0.18182	0.	-39.001
20054	2.0328	0.18182	5.e-002	-6.0559e-005
20055	2.0328	9.0909e-002	0.	-13.059
20056	1.848	5.7273	0.	-113.11
20057	1.7556	5.8182	0.	-34.015
20058	1.848	5.8182	5.e-002	7.3049e-005
20059	1.848	5.9091	0.	-8.2987
20060	1.848	5.5455	0.	-271.09
20061	1.7556	5.6364	0.	-199.07
20062	1.848	5.6364	5.e-002	2.1615e-004
20063	1.848	5.3636	0.	-425.99
20064	1.7556	5.4545	0.	-363.28
20065	1.848	5.4545	5.e-002	2.2417e-004
20066	1.848	5.1818	0.	-578.42
20067	1.7556	5.2727	0.	-526.57
20068	1.848	5.2727	5.e-002	2.1004e-004
20069	1.848	5.	0.	-724.86
20070	1.7556	5.0909	0.	-685.
20071	1.848	5.0909	5.e-002	1.9933e-004
20072	1.848	4.8182	0.	-861.94
20073	1.7556	4.9091	0.	-834.3
20074	1.848	4.9091	5.e-002	1.8883e-004
20075	1.848	4.6364	0.	-987.11
20076	1.7556	4.7273	0.	-971.25
20077	1.848	4.7273	5.e-002	1.7837e-004
20078	1.848	4.4545	0.	-1098.8
20079	1.7556	4.5455	0.	-1093.8
20080	1.848	4.5455	5.e-002	1.1468e-004
20081	1.848	4.2727	0.	-1196.2
20082	1.7556	4.3636	0.	-1201.1
20083	1.848	4.3636	5.e-002	7.0446e-005
20084	1.848	4.0909	0.	-1279.2
20085	1.7556	4.1818	0.	-1292.9
20086	1.848	4.1818	5.e-002	7.1204e-005
20087	1.848	3.9091	0.	-1348.1
20088	1.7556	4.	0.	-1369.5
20089	1.848	4.	5.e-002	3.1175e-005
20090	1.848	3.7273	0.	-1403.3
20091	1.7556	3.8182	0.	-1431.8
20092	1.848	3.8182	5.e-002	3.2202e-005
20093	1.848	3.5455	0.	-1445.5
20094	1.7556	3.6364	0.	-1480.4
20095	1.848	3.6364	5.e-002	4.5385e-005
20096	1.848	3.3636	0.	-1475.2
20097	1.7556	3.4545	0.	-1516.1
20098	1.848	3.4545	5.e-002	4.3155e-005
20099	1.848	3.1818	0.	-1492.9
20100	1.7556	3.2727	0.	-1539.6
20101	1.848	3.2727	5.e-002	3.595e-005
20102	1.848	3.	0.	-1498.7
20103	1.7556	3.0909	0.	-1551.2
20104	1.848	3.0909	5.e-002	1.7292e-005
20105	1.848	2.8182	0.	-1492.9
20106	1.7556	2.9091	0.	-1551.2
20107	1.848	2.9091	5.e-002	1.356e-005
20108	1.848	2.6364	0.	-1475.2
20109	1.7556	2.7273	0.	-1539.6
20110	1.848	2.7273	5.e-002	-5.4148e-006
20111	1.848	2.4545	0.	-1445.5
20112	1.7556	2.5455	0.	-1516.1
20113	1.848	2.5455	5.e-002	-8.9728e-006
20114	1.848	2.2727	0.	-1403.3
20115	1.7556	2.3636	0.	-1480.4
20116	1.848	2.3636	5.e-002	-1.1388e-005
20117	1.848	2.0909	0.	-1348.1
20118	1.7556	2.1818	0.	-1431.8
20119	1.848	2.1818	5.e-002	-1.436e-005
20120	1.848	1.9091	0.	-1279.2
20121	1.7556	2.	0.	-1369.5
20122	1.848	2.	5.e-002	-2.8084e-005
20123	1.848	1.7273	0.	-1196.2
20124	1.7556	1.8182	0.	-1292.9
20125	1.848	1.8182	5.e-002	-7.1204e-005
20126	1.848	1.5455	0.	-1098.8
20127	1.7556	1.6364	0.	-1201.1
20128	1.848	1.6364	5.e-002	-6.299e-005
20129	1.848	1.3636	0.	-987.11
20130	1.7556	1.4545	0.	-1093.8
20131	1.848	1.4545	5.e-002	-4.967e-005
20132	1.848	1.1818	0.	-861.94
20133	1.7556	1.2727	0.	-971.25
20134	1.848	1.2727	5.e-002	-1.6348e-004
20135	1.848	1.	0.	-724.86
20136	1.7556	1.0909	0.	-834.3
20137	1.848	1.0909	5.e-002	-1.3648e-004
20138	1.848	0.81818	0.	-578.42
20139	1.7556	0.90909	0.	-685.
20140	1.848	0.90909	5.e-002	-1.5105e-004
20141	1.848	0.63636	0.	-425.99
20142	1.7556	0.72727	0.	-526.57
20143	1.848	0.72727	5.e-002	-2.1966e-004
20144	1.848	0.45455	0.	-271.09
20145	1.7556	0.54545	0.	-363.28
20146	1.848	0.54545	5.e-002	-1.1897e-004
20147	1.848	0.27273	0.	-113.11
20148	1.7556	0.36364	0.	-199.07
20149	1.848	0.36364	5.e-002	-1.0808e-004
20150	1.7556	0.18182	0.	-34.015
20151	1.848	0.18182	5.e-002	-4.9698e-005
20152	1.848	9.0909e-002	0.	-8.2987
20153	1.6632	5.7273	0.	-114.66
20154	1.5708	5.8182	0.	-28.561
20155	1.6632	5.8182	5.e-002	1.1131e-004
20156	1.6632	5.9091	0.	-3.4736
20157	1.6632	5.5455	0.	-290.78
20158	1.5708	5.6364	0.	-210.75
20159	1.6632	5.6364	5.e-002	2.3396e-004
20160	1.6632	5.3636	0.	-463.55
20161	1.5708	5.4545	0.	-394.86
20162	1.6632	5.4545	5.e-002	2.4162e-004
20163	1.6632	5.1818	0.	-632.96
20164	1.5708	5.2727	0.	-577.56
20165	1.6632	5.2727	5.e-002	2.3432e-004
20166	1.6632	5.	0.	-794.37
20167	1.5708	5.0909	0.	-753.35
20168	1.6632	5.0909	5.e-002	1.5878e-004
20169	1.6632	4.8182	0.	-943.67
20170	1.5708	4.9091	0.	-916.86
20171	1.6632	4.9091	5.e-002	1.108e-004
20172	1.6632	4.6364	0.	-1078.1
20173	1.5708	4.7273	0.	-1064.5
20174	1.6632	4.7273	5.e-002	1.3802e-004
20175	1.6632	4.4545	0.	-1196.4
20176	1.5708	4.5455	0.	-1194.4
20177	1.6632	4.5455	5.e-002	1.2457e-004
20178	1.6632	4.2727	0.	-1298.
20179	1.5708	4.3636	0.	-1306.2
20180	1.6632	4.3636	5.e-002	8.7508e-005
20181	1.6632	4.0909	0.	-1383.5
20182	1.5708	4.1818	0.	-1400.4
20183	1.6632	4.1818	5.e-002	3.5038e-005
20184	1.6632	3.9091	0.	-1453.5
20185	1.5708	4.	0.	-1478.1
20186	1.6632	4.	5.e-002	4.5917e-005
20187	1.6632	3.7273	0.	-1509.2
20188	1.5708	3.8182	0.	-1540.4
20189	1.6632	3.8182	5.e-002	3.656e-005
20190	1.6632	3.5455	0.	-1551.3
20191	1.5708	3.6364	0.	-1588.6
20192	1.6632	3.6364	5.e-002	1.6722e-005
20193	1.6632	3.3636	0.	-1580.8
20194	1.5708	3.4545	0.	-1623.7
20195	1.6632	3.4545	5.e-002	3.8793e-005
20196	1.6632	3.1818	0.	-1598.3
20197	1.5708	3.2727	0.	-1646.7
20198	1.6632	3.2727	5.e-002	5.2271e-006
20199	1.6632	3.	0.	-1604.
20200	1.5708	3.0909	0.	-1658.
20201	1.6632	3.0909	5.e-002	1.7433e-006
20202	1.6632	2.8182	0.	-1598.3
20203	1.5708	2.9091	0.	-1658.
20204	1.6632	2.9091	5.e-002	-1.7251e-006
20205	1.6632	2.6364	0.	-1580.8
20206	1.5708	2.7273	0.	-1646.7
20207	1.6632	2.7273	5.e-002	9.83e-006
20208	1.6632	2.4545	0.	-1551.3
20209	1.5708	2.5455	0.	-1623.7
20210	1.6632	2.5455	5.e-002	-8.6944e-006
20211	1.6632	2.2727	0.	-1509.2
20212	1.5708	2.3636	0.	-1588.6
20213	1.6632	2.3636	5.e-002	-2.6209e-005
20214	1.6632	2.0909	0.	-1453.5
20215	1.5708	2.1818	0.	-1540.4
20216	1.6632	2.1818	5.e-002	-1.2809e-005
20217	1.6632	1.9091	0.	-1383.5
20218	1.5708	2.	0.	-1478.1
20219	1.6632	2.	5.e-002	-1.5284e-005
20220	1.6632	1.7273	0.	-1298.
20221	1.5708	1.8182	0.	-1400.4
20222	1.6632	1.8182	5.e-002	-2.8144e-005
20223	1.6632	1.5455	0.	-1196.4
20224	1.5708	1.6364	0.	-1306.2
20225	1.6632	1.6364	5.e-002	-2.2391e-005
20226	1.6632	1.3636	0.	-1078.1
20227	1.5708	1.4545	0.	-1194.4
20228	1.6632	1.4545	5.e-002	-1.1313e-004
20229	1.6632	1.1818	0.	-943.67
20230	1.5708	1.2727	0.	-1064.5
20231	1.6632	1.2727	5.e-002	-9.2016e-005
20232	1.6632	1.	0.	-794.37
20233	1.5708	1.0909	0.	-916.86
20234	1.6632	1.0909	5.e-002	-1.0415e-004
20235	1.6632	0.81818	0.	-632.96
20236	1.5708	0.90909	0.	-753.35
20237	1.6632	0.90909	5.e-002	-2.0982e-004
20238	1.6632	0.63636	0.	-463.55
20239	1.5708	0.72727	0.	-577.56
20240	1.6632	0.72727	5.e-002	-1.1044e-004
20241	1.6632	0.45455	0.	-290.78
20242	1.5708	0.54545	0.	-394.86
20243	1.6632	0.54545	5.e-002	-1.7359e-004
20244	1.6632	0.27273	0.	-114.66
20245	1.5708	0.36364	0.	-210.75
20246	1.6632	0.36364	5.e-002	-2.3045e-004
20247	1.5708	0.18182	0.	-28.561
20248	1.6632	0.18182	5.e-002	-7.4207e-005
20249	1.6632	9.0909e-002	0.	-3.4736
20250	1.4784	5.7273	0.	-116.17
20251	1.386	5.8182	0.	-23.297
20252	1.4784	5.8182	5.e-002	1.0706e-004
20253	1.4784	5.9091	0.	-1.0164
20254	1.4784	5.5455	0.	-314.27
20255	1.386	5.6364	0.	-224.87
20256	1.4784	5.6364	5.e-002	3.0082e-004
20257	1.4784	5.3636	0.	-508.54
20258	1.386	5.4545	0.	-433.49
20259	1.4784	5.4545	5.e-002	2.4188e-004
20260	1.4784	5.1818	0.	-697.8
20261	1.386	5.2727	0.	-639.48
20262	1.4784	5.2727	5.e-002	2.3404e-004
20263	1.4784	5.	0.	-875.85
20264	1.386	5.0909	0.	-835.01
20265	1.4784	5.0909	5.e-002	1.7018e-004
20266	1.4784	4.8182	0.	-1037.8
20267	1.386	4.9091	0.	-1013.5
20268	1.4784	4.9091	5.e-002	1.0711e-004
20269	1.4784	4.6364	0.	-1181.
20270	1.386	4.7273	0.	-1171.2
20271	1.4784	4.7273	5.e-002	4.6859e-005
20272	1.4784	4.4545	0.	-1304.6
20273	1.386	4.5455	0.	-1307.
20274	1.4784	4.5455	5.e-002	1.1729e-004
20275	1.4784	4.2727	0.	-1409.
20276	1.386	4.3636	0.	-1421.5
20277	1.4784	4.3636	5.e-002	9.9177e-005
20278	1.4784	4.0909	0.	-1495.4
20279	1.386	4.1818	0.	-1516.3
20280	1.4784	4.1818	5.e-002	5.1167e-005
20281	1.4784	3.9091	0.	-1565.2
20282	1.386	4.	0.	-1593.2
20283	1.4784	4.	5.e-002	6.4982e-005
20284	1.4784	3.7273	0.	-1620.1
20285	1.386	3.8182	0.	-1654.1
20286	1.4784	3.8182	5.e-002	2.2228e-005
20287	1.4784	3.5455	0.	-1661.3
20288	1.386	3.6364	0.	-1700.7
20289	1.4784	3.6364	5.e-002	1.5868e-005
20290	1.4784	3.3636	0.	-1689.9
20291	1.386	3.4545	0.	-1734.5
20292	1.4784	3.4545	5.e-002	9.6952e-006
20293	1.4784	3.1818	0.	-1706.7
20294	1.386	3.2727	0.	-1756.4
20295	1.4784	3.2727	5.e-002	5.7046e-006
20296	1.4784	3.	0.	-1712.3
20297	1.386	3.0909	0.	-1767.2
20298	1.4784	3.0909	5.e-002	1.6843e-006
20299	1.4784	2.8182	0.	-1706.7
20300	1.386	2.9091	0.	-1767.2
20301	1.4784	2.9091	5.e-002	-1.5071e-006
20302	1.4784	2.6364	0.	-1689.9
20303	1.386	2.7273	0.	-1756.4
20304	1.4784	2.7273	5.e-002	-4.0381e-006
20305	1.4784	2.4545	0.	-1661.3
20306	1.386	2.5455	0.	-1734.5
20307	1.4784	2.5455	5.e-002	-7.2683e-006
20308	1.4784	2.2727	0.	-1620.1
20309	1.386	2.3636	0.	-1700.7
20310	1.4784	2.3636	5.e-002	-1.1633e-005
20311	1.4784	2.0909	0.	-1565.2
20312	1.386	2.1818	0.	-1654.1
20313	1.4784	2.1818	5.e-002	-1.4889e-005
20314	1.4784	1.9091	0.	-1495.4
20315	1.386	2.	0.	-1593.2
20316	1.4784	2.	5.e-002	-2.6506e-005
20317	1.4784	1.7273	0.	-1409.
20318	1.386	1.8182	0.	-1516.3
20319	1.4784	1.8182	5.e-002	-5.6141e-005
20320	1.4784	1.5455	0.	-1304.6
20321	1.386	1.6364	0.	-1421.5
20322	1.4784	1.6364	5.e-002	-8.6137e-005
20323	1.4784	1.3636	0.	-1181.
20324	1.386	1.4545	0.	-1307.
20325	1.4784	1.4545	5.e-002	-4.6724e-005
20326	1.4784	1.1818	0.	-1037.8
20327	1.386	1.2727	0.	-1171.2
20328	1.4784	1.2727	5.e-002	-1.4058e-004
20329	1.4784	1.	0.	-875.85
20330	1.386	1.0909	0.	-1013.5
20331	1.4784	1.0909	5.e-002	-2.0143e-004
20332	1.4784	0.81818	0.	-697.8
20333	1.386	0.90909	0.	-835.01
20334	1.4784	0.90909	5.e-002	-1.1683e-004
20335	1.4784	0.63636	0.	-508.54
20336	1.386	0.72727	0.	-639.48
20337	1.4784	0.72727	5.e-002	-1.764e-004
20338	1.4784	0.45455	0.	-314.27
20339	1.386	0.54545	0.	-433.49
20340	1.4784	0.54545	5.e-002	-1.8391e-004
20341	1.4784	0.27273	0.	-116.17
20342	1.386	0.36364	0.	-224.87
20343	1.4784	0.36364	5.e-002	-2.4609e-004
20344	1.386	0.18182	0.	-23.297
20345	1.4784	0.18182	5.e-002	-8.5651e-005
20346	1.4784	9.0909e-002	0.	-1.0164
20347	1.2936	5.7273	0.	-118.03
20348	1.2012	5.8182	0.	-19.168
20349	1.2936	5.8182	5.e-002	1.285e-004
20350	1.2936	5.9091	0.	-0.18315
20351	1.2936	5.5455	0.	-343.44
20352	1.2012	5.6364	0.	-243.33
20353	1.2936	5.6364	5.e-002	2.4396e-004
20354	1.2936	5.3636	0.	-564.1
20355	1.2012	5.4545	0.	-483.08
20356	1.2936	5.4545	5.e-002	2.4438e-004
20357	1.2936	5.1818	0.	-776.62
20358	1.2012	5.2727	0.	-717.28
20359	1.2936	5.2727	5.e-002	2.3986e-004
20360	1.2936	5.	0.	-972.77
20361	1.2012	5.0909	0.	-934.84
20362	1.2936	5.0909	5.e-002	2.3005e-004
20363	1.2936	4.8182	0.	-1147.1
20364	1.2012	4.9091	0.	-1128.1
20365	1.2936	4.9091	5.e-002	1.5703e-004
20366	1.2936	4.6364	0.	-1297.6
20367	1.2012	4.7273	0.	-1294.
20368	1.2936	4.7273	5.e-002	1.858e-004
20369	1.2936	4.4545	0.	-1424.4
20370	1.2012	4.5455	0.	-1433.1
20371	1.2936	4.5455	5.e-002	2.2831e-005
20372	1.2936	4.2727	0.	-1529.2
20373	1.2012	4.3636	0.	-1547.6
20374	1.2936	4.3636	5.e-002	8.9907e-005
20375	1.2936	4.0909	0.	-1614.4
20376	1.2012	4.1818	0.	-1640.3
20377	1.2936	4.1818	5.e-002	4.5024e-005
20378	1.2936	3.9091	0.	-1682.3
20379	1.2012	4.	0.	-1714.4
20380	1.2936	4.	5.e-002	5.0998e-005
20381	1.2936	3.7273	0.	-1735.
20382	1.2012	3.8182	0.	-1772.3
20383	1.2936	3.8182	5.e-002	4.7594e-005
20384	1.2936	3.5455	0.	-1774.2
20385	1.2012	3.6364	0.	-1816.1
20386	1.2936	3.6364	5.e-002	4.0382e-005
20387	1.2936	3.3636	0.	-1801.3
20388	1.2012	3.4545	0.	-1847.6
20389	1.2936	3.4545	5.e-002	2.4985e-005
20390	1.2936	3.1818	0.	-1817.1
20391	1.2012	3.2727	0.	-1868.
20392	1.2936	3.2727	5.e-002	2.021e-005
20393	1.2936	3.	0.	-1822.4
20394	1.2012	3.0909	0.	-1878.
20395	1.2936	3.0909	5.e-002	1.421e-006
20396	1.2936	2.8182	0.	-1817.1
20397	1.2012	2.9091	0.	-1878.
20398	1.2936	2.9091	5.e-002	-1.3726e-006
20399	1.2936	2.6364	0.	-1801.3
20400	1.2012	2.7273	0.	-1868.
20401	1.2936	2.7273	5.e-002	-4.082e-006
20402	1.2936	2.4545	0.	-1774.2
20403	1.2012	2.5455	0.	-1847.6
20404	1.2936	2.5455	5.e-002	-6.5146e-006
20405	1.2936	2.2727	0.	-1735.
20406	1.2012	2.3636	0.	-1816.1
20407	1.2936	2.3636	5.e-002	-1.2021e-005
20408	1.2936	2.0909	0.	-1682.3
20409	1.2012	2.1818	0.	-1772.3
20410	1.2936	2.1818	5.e-002	-1.7248e-005
20411	1.2936	1.9091	0.	-1614.4
20412	1.2012	2.	0.	-1714.4
20413	1.2936	2.	5.e-002	-3.549e-005
20414	1.2936	1.7273	0.	-1529.2
20415	1.2012	1.8182	0.	-1640.3
20416	1.2936	1.8182	5.e-002	-2.9199e-005
20417	1.2936	1.5455	0.	-1424.4
20418	1.2012	1.6364	0.	-1547.6
20419	1.2936	1.6364	5.e-002	-1.1251e-004
20420	1.2936	1.3636	0.	-1297.6
20421	1.2012	1.4545	0.	-1433.1
20422	1.2936	1.4545	5.e-002	-8.0559e-005
20423	1.2936	1.1818	0.	-1147.1
20424	1.2012	1.2727	0.	-1294.
20425	1.2936	1.2727	5.e-002	-9.9211e-005
20426	1.2936	1.	0.	-972.77
20427	1.2012	1.0909	0.	-1128.1
20428	1.2936	1.0909	5.e-002	-1.6325e-004
20429	1.2936	0.81818	0.	-776.62
20430	1.2012	0.90909	0.	-934.84
20431	1.2936	0.90909	5.e-002	-6.4129e-005
20432	1.2936	0.63636	0.	-564.1
20433	1.2012	0.72727	0.	-717.28
20434	1.2936	0.72727	5.e-002	-1.8303e-004
20435	1.2936	0.45455	0.	-343.44
20436	1.2012	0.54545	0.	-483.08
20437	1.2936	0.54545	5.e-002	-1.8394e-004
20438	1.2936	0.27273	0.	-118.03
20439	1.2012	0.36364	0.	-243.33
20440	1.2936	0.36364	5.e-002	-2.4411e-004
20441	1.2012	0.18182	0.	-19.168
20442	1.2936	0.18182	5.e-002	-1.028e-004
20443	1.2936	9.0909e-002	0.	-0.18315
20444	1.1088	5.7273	0.	-121.56
20445	1.0164	5.8182	0.	-15.992
20446	1.1088	5.8182	5.e-002	1.7706e-004
20447	1.1088	5.9091	0.	-2.441e-003
20448	1.1088	5.5455	0.	-382.22
20449	1.0164	5.6364	0.	-268.86
20450	1.1088	5.6364	5.e-002	2.9664e-004
20451	1.1088	5.3636	0.	-636.
20452	1.0164	5.4545	0.	-549.15
20453	1.1088	5.4545	5.e-002	2.4159e-004
20454	1.1088	5.1818	0.	-875.61
20455	1.0164	5.2727	0.	-817.3
20456	1.1088	5.2727	5.e-002	2.4297e-004
20457	1.1088	5.	0.	-1090.5
20458	1.0164	5.0909	0.	-1058.
20459	1.1088	5.0909	5.e-002	2.42e-004
20460	1.1088	4.8182	0.	-1275.4
20461	1.0164	4.9091	0.	-1263.6
20462	1.1088	4.9091	5.e-002	1.9895e-004
20463	1.1088	4.6364	0.	-1430.
20464	1.0164	4.7273	0.	-1433.8
20465	1.1088	4.7273	5.e-002	1.8915e-004
20466	1.1088	4.4545	0.	-1556.8
20467	1.0164	4.5455	0.	-1571.9
20468	1.1088	4.5455	5.e-002	1.1381e-004
20469	1.1088	4.2727	0.	-1659.1
20470	1.0164	4.3636	0.	-1682.6
20471	1.1088	4.3636	5.e-002	9.7256e-005
20472	1.1088	4.0909	0.	-1740.6
20473	1.0164	4.1818	0.	-1770.3
20474	1.1088	4.1818	5.e-002	2.7812e-005
20475	1.1088	3.9091	0.	-1804.6
20476	1.0164	4.	0.	-1839.2
20477	1.1088	4.	5.e-002	1.6395e-005
20478	1.1088	3.7273	0.	-1853.6
20479	1.0164	3.8182	0.	-1892.4
20480	1.1088	3.8182	5.e-002	4.4243e-005
20481	1.1088	3.5455	0.	-1889.8
20482	1.0164	3.6364	0.	-1932.3
20483	1.1088	3.6364	5.e-002	2.2986e-005
20484	1.1088	3.3636	0.	-1914.6
20485	1.0164	3.4545	0.	-1960.8
20486	1.1088	3.4545	5.e-002	2.1197e-005
20487	1.1088	3.1818	0.	-1929.1
20488	1.0164	3.2727	0.	-1979.2
20489	1.1088	3.2727	5.e-002	3.5855e-006
20490	1.1088	3.	0.	-1933.9
20491	1.0164	3.0909	0.	-1988.1
20492	1.1088	3.0909	5.e-002	1.1897e-006
20493	1.1088	2.8182	0.	-1929.1
20494	1.0164	2.9091	0.	-1988.1
20495	1.1088	2.9091	5.e-002	-1.1748e-006
20496	1.1088	2.6364	0.	-1914.6
20497	1.0164	2.7273	0.	-1979.2
20498	1.1088	2.7273	5.e-002	-3.2269e-006
20499	1.1088	2.4545	0.	-1889.8
20500	1.0164	2.5455	0.	-1960.8
20501	1.1088	2.5455	5.e-002	-6.0273e-006
20502	1.1088	2.2727	0.	-1853.6
20503	1.0164	2.3636	0.	-1932.3
20504	1.1088	2.3636	5.e-002	-6.8268e-006
20505	1.1088	2.0909	0.	-1804.6
20506	1.0164	2.1818	0.	-1892.4
20507	1.1088	2.1818	5.e-002	-1.5685e-005
20508	1.1088	1.9091	0.	-1740.6
20509	1.0164	2.	0.	-1839.2
20510	1.1088	2.	5.e-002	-2.3883e-005
20511	1.1088	1.7273	0.	-1659.1
20512	1.0164	1.8182	0.	-1770.3
20513	1.1088	1.8182	5.e-002	-1.9295e-005
20514	1.1088	1.5455	0.	-1556.8
20515	1.0164	1.6364	0.	-1682.6
20516	1.1088	1.6364	5.e-002	-9.0038e-005
20517	1.1088	1.3636	0.	-1430.
20518	1.0164	1.4545	0.	-1571.9
20519	1.1088	1.4545	5.e-002	-5.2179e-005
20520	1.1088	1.1818	0.	-1275.4
20521	1.0164	1.2727	0.	-1433.8
20522	1.1088	1.2727	5.e-002	-1.8352e-004
20523	1.1088	1.	0.	-1090.5
20524	1.0164	1.0909	0.	-1263.6
20525	1.1088	1.0909	5.e-002	-1.1503e-004
20526	1.1088	0.81818	0.	-875.61
20527	1.0164	0.90909	0.	-1058.
20528	1.1088	0.90909	5.e-002	-2.3233e-004
20529	1.1088	0.63636	0.	-636.
20530	1.0164	0.72727	0.	-817.3
20531	1.1088	0.72727	5.e-002	-1.2559e-004
20532	1.1088	0.45455	0.	-382.22
20533	1.0164	0.54545	0.	-549.15
20534	1.1088	0.54545	5.e-002	-2.4339e-004
20535	1.1088	0.27273	0.	-121.56
20536	1.0164	0.36364	0.	-268.86
20537	1.1088	0.36364	5.e-002	-1.1735e-004
20538	1.0164	0.18182	0.	-15.992
20539	1.1088	0.18182	5.e-002	-1.2946e-004
20540	1.1088	9.0909e-002	0.	-2.4411e-003
20541	0.924	5.7273	0.	-127.59
20542	0.8316	5.8182	0.	-16.413
20543	0.924	5.8182	5.e-002	2.562e-004
20544	0.924	5.9091	0.	1.0309
20545	0.924	5.5455	0.	-435.
20546	0.8316	5.6364	0.	-310.48
20547	0.924	5.6364	5.e-002	2.1879e-004
20548	0.924	5.3636	0.	-730.41
20549	0.8316	5.4545	0.	-645.96
20550	0.924	5.4545	5.e-002	2.3573e-004
20551	0.924	5.1818	0.	-1000.1
20552	0.8316	5.2727	0.	-953.84
20553	0.924	5.2727	5.e-002	2.451e-004
20554	0.924	5.	0.	-1231.8
20555	0.8316	5.0909	0.	-1215.5
20556	0.924	5.0909	5.e-002	2.4189e-004
20557	0.924	4.8182	0.	-1422.7
20558	0.8316	4.9091	0.	-1427.6
20559	0.924	4.9091	5.e-002	1.5308e-004
20560	0.924	4.6364	0.	-1576.3
20561	0.8316	4.7273	0.	-1595.3
20562	0.924	4.7273	5.e-002	1.2896e-004
20563	0.924	4.4545	0.	-1698.2
20564	0.8316	4.5455	0.	-1726.6
20565	0.924	4.5455	5.e-002	9.2045e-005
20566	0.924	4.2727	0.	-1794.1
20567	0.8316	4.3636	0.	-1828.9
20568	0.924	4.3636	5.e-002	1.0358e-004
20569	0.924	4.0909	0.	-1869.2
20570	0.8316	4.1818	0.	-1908.5
20571	0.924	4.1818	5.e-002	6.3724e-005
20572	0.924	3.9091	0.	-1927.2
20573	0.8316	4.	0.	-1970.1
20574	0.924	4.	5.e-002	5.3583e-005
20575	0.924	3.7273	0.	-1971.3
20576	0.8316	3.8182	0.	-2017.2
20577	0.924	3.8182	5.e-002	3.3786e-005
20578	0.924	3.5455	0.	-2003.5
20579	0.8316	3.6364	0.	-2052.3
20580	0.924	3.6364	5.e-002	1.1591e-005
20581	0.924	3.3636	0.	-2025.5
20582	0.8316	3.4545	0.	-2077.2
20583	0.924	3.4545	5.e-002	6.5092e-006
20584	0.924	3.1818	0.	-2038.4
20585	0.8316	3.2727	0.	-2093.2
20586	0.924	3.2727	5.e-002	2.9332e-006
20587	0.924	3.	0.	-2042.6
20588	0.8316	3.0909	0.	-2101.1
20589	0.924	3.0909	5.e-002	1.0077e-006
20590	0.924	2.8182	0.	-2038.4
20591	0.8316	2.9091	0.	-2101.1
20592	0.924	2.9091	5.e-002	-9.5869e-007
20593	0.924	2.6364	0.	-2025.5
20594	0.8316	2.7273	0.	-2093.2
20595	0.924	2.7273	5.e-002	1.2213e-005
20596	0.924	2.4545	0.	-2003.5
20597	0.8316	2.5455	0.	-2077.2
20598	0.924	2.5455	5.e-002	-4.6678e-006
20599	0.924	2.2727	0.	-1971.3
20600	0.8316	2.3636	0.	-2052.3
20601	0.924	2.3636	5.e-002	-1.2041e-005
20602	0.924	2.0909	0.	-1927.2
20603	0.8316	2.1818	0.	-2017.2
20604	0.924	2.1818	5.e-002	-4.6836e-005
20605	0.924	1.9091	0.	-1869.2
20606	0.8316	2.	0.	-1970.1
20607	0.924	2.	5.e-002	-2.5672e-005
20608	0.924	1.7273	0.	-1794.1
20609	0.8316	1.8182	0.	-1908.5
20610	0.924	1.8182	5.e-002	-1.2137e-005
20611	0.924	1.5455	0.	-1698.2
20612	0.8316	1.6364	0.	-1828.9
20613	0.924	1.6364	5.e-002	-4.9832e-005
20614	0.924	1.3636	0.	-1576.3
20615	0.8316	1.4545	0.	-1726.6
20616	0.924	1.4545	5.e-002	-1.0543e-004
20617	0.924	1.1818	0.	-1422.7
20618	0.8316	1.2727	0.	-1595.3
20619	0.924	1.2727	5.e-002	-6.4703e-005
20620	0.924	1.	0.	-1231.8
20621	0.8316	1.0909	0.	-1427.6
20622	0.924	1.0909	5.e-002	-1.5308e-004
20623	0.924	0.81818	0.	-1000.1
20624	0.8316	0.90909	0.	-1215.5
20625	0.924	0.90909	5.e-002	-1.8046e-004
20626	0.924	0.63636	0.	-730.41
20627	0.8316	0.72727	0.	-953.84
20628	0.924	0.72727	5.e-002	-1.237e-004
20629	0.924	0.45455	0.	-435.
20630	0.8316	0.54545	0.	-645.96
20631	0.924	0.54545	5.e-002	-2.3789e-004
20632	0.924	0.27273	0.	-127.59
20633	0.8316	0.36364	0.	-310.48
20634	0.924	0.36364	5.e-002	-2.2647e-004
20635	0.8316	0.18182	0.	-16.413
20636	0.924	0.18182	5.e-002	-1.708e-004
20637	0.924	9.0909e-002	0.	1.0309
20638	0.7392	5.7273	0.	-145.57
20639	0.6468	5.8182	0.	-9.8105
20640	0.7392	5.8182	5.e-002	3.3524e-004
20641	0.7392	5.9091	0.	-1.4137
20642	0.7392	5.5455	0.	-520.77
20643	0.6468	5.6364	0.	-374.11
20644	0.7392	5.6364	5.e-002	2.1065e-004
20645	0.7392	5.3636	0.	-869.9
20646	0.6468	5.4545	0.	-781.12
20647	0.7392	5.4545	5.e-002	2.321e-004
20648	0.7392	5.1818	0.	-1170.3
20649	0.6468	5.2727	0.	-1127.1
20650	0.7392	5.2727	5.e-002	2.4638e-004
20651	0.7392	5.	0.	-1412.3
20652	0.6468	5.0909	0.	-1398.3
20653	0.7392	5.0909	5.e-002	2.2735e-004
20654	0.7392	4.8182	0.	-1600.9
20655	0.6468	4.9091	0.	-1603.9
20656	0.7392	4.9091	5.e-002	1.8903e-004
20657	0.7392	4.6364	0.	-1746.1
20658	0.6468	4.7273	0.	-1758.8
20659	0.7392	4.7273	5.e-002	1.1954e-004
20660	0.7392	4.4545	0.	-1857.6
20661	0.6468	4.5455	0.	-1876.
20662	0.7392	4.5455	5.e-002	8.8954e-005
20663	0.7392	4.2727	0.	-1943.5
20664	0.6468	4.3636	0.	-1965.4
20665	0.7392	4.3636	5.e-002	9.1775e-005
20666	0.7392	4.0909	0.	-2009.6
20667	0.6468	4.1818	0.	-2033.9
20668	0.7392	4.1818	5.e-002	2.3424e-005
20669	0.7392	3.9091	0.	-2060.1
20670	0.6468	4.	0.	-2086.5
20671	0.7392	4.	5.e-002	6.3726e-005
20672	0.7392	3.7273	0.	-2098.3
20673	0.6468	3.8182	0.	-2126.5
20674	0.7392	3.8182	5.e-002	4.8972e-005
20675	0.7392	3.5455	0.	-2126.1
20676	0.6468	3.6364	0.	-2156.2
20677	0.7392	3.6364	5.e-002	6.2498e-006
20678	0.7392	3.3636	0.	-2145.
20679	0.6468	3.4545	0.	-2177.2
20680	0.7392	3.4545	5.e-002	4.9079e-006
20681	0.7392	3.1818	0.	-2156.
20682	0.6468	3.2727	0.	-2190.7
20683	0.7392	3.2727	5.e-002	2.5876e-006
20684	0.7392	3.	0.	-2159.7
20685	0.6468	3.0909	0.	-2197.3
20686	0.7392	3.0909	5.e-002	3.1254e-005
20687	0.7392	2.8182	0.	-2156.
20688	0.6468	2.9091	0.	-2197.3
20689	0.7392	2.9091	5.e-002	2.9838e-005
20690	0.7392	2.6364	0.	-2145.
20691	0.6468	2.7273	0.	-2190.7
20692	0.7392	2.7273	5.e-002	-2.092e-006
20693	0.7392	2.4545	0.	-2126.1
20694	0.6468	2.5455	0.	-2177.2
20695	0.7392	2.5455	5.e-002	-3.6527e-006
20696	0.7392	2.2727	0.	-2098.3
20697	0.6468	2.3636	0.	-2156.2
20698	0.7392	2.3636	5.e-002	-6.6081e-006
20699	0.7392	2.0909	0.	-2060.1
20700	0.6468	2.1818	0.	-2126.5
20701	0.7392	2.1818	5.e-002	-1.1036e-005
20702	0.7392	1.9091	0.	-2009.6
20703	0.6468	2.	0.	-2086.5
20704	0.7392	2.	5.e-002	-8.017e-006
20705	0.7392	1.7273	0.	-1943.5
20706	0.6468	1.8182	0.	-2033.9
20707	0.7392	1.8182	5.e-002	-5.4026e-005
20708	0.7392	1.5455	0.	-1857.6
20709	0.6468	1.6364	0.	-1965.4
20710	0.7392	1.6364	5.e-002	-5.6501e-005
20711	0.7392	1.3636	0.	-1746.1
20712	0.6468	1.4545	0.	-1876.
20713	0.7392	1.4545	5.e-002	-7.7341e-005
20714	0.7392	1.1818	0.	-1600.9
20715	0.6468	1.2727	0.	-1758.8
20716	0.7392	1.2727	5.e-002	-8.4743e-005
20717	0.7392	1.	0.	-1412.3
20718	0.6468	1.0909	0.	-1603.9
20719	0.7392	1.0909	5.e-002	-1.3943e-004
20720	0.7392	0.81818	0.	-1170.3
20721	0.6468	0.90909	0.	-1398.3
20722	0.7392	0.90909	5.e-002	-6.5497e-005
20723	0.7392	0.63636	0.	-869.9
20724	0.6468	0.72727	0.	-1127.1
20725	0.7392	0.72727	5.e-002	-2.465e-004
20726	0.7392	0.45455	0.	-520.77
20727	0.6468	0.54545	0.	-781.12
20728	0.7392	0.54545	5.e-002	-2.321e-004
20729	0.7392	0.27273	0.	-145.57
20730	0.6468	0.36364	0.	-374.11
20731	0.7392	0.36364	5.e-002	-1.8965e-004
20732	0.6468	0.18182	0.	-9.8105
20733	0.7392	0.18182	5.e-002	-2.2349e-004
20734	0.7392	9.0909e-002	0.	-1.4137
20735	0.5544	5.7273	0.	-168.56
20736	0.462	5.8182	0.	-41.3
20737	0.5544	5.8182	5.e-002	3.5737e-004
20738	0.5544	5.9091	0.	9.0892
20739	0.5544	5.5455	0.	-634.72
20740	0.462	5.6364	0.	-534.37
20741	0.5544	5.6364	5.e-002	2.3767e-004
20742	0.5544	5.3636	0.	-1039.9
20743	0.462	5.4545	0.	-1036.7
20744	0.5544	5.4545	5.e-002	2.2894e-004
20745	0.5544	5.1818	0.	-1356.6
20746	0.462	5.2727	0.	-1405.1
20747	0.5544	5.2727	5.e-002	2.4833e-004
20748	0.5544	5.	0.	-1590.8
20749	0.462	5.0909	0.	-1664.9
20750	0.5544	5.0909	5.e-002	1.7245e-004
20751	0.5544	4.8182	0.	-1762.1
20752	0.462	4.9091	0.	-1848.9
20753	0.5544	4.9091	5.e-002	1.7692e-004
20754	0.5544	4.6364	0.	-1888.8
20755	0.462	4.7273	0.	-1982.2
20756	0.5544	4.7273	5.e-002	1.2386e-004
20757	0.5544	4.4545	0.	-1983.7
20758	0.462	4.5455	0.	-2081.
20759	0.5544	4.5455	5.e-002	6.3102e-005
20760	0.5544	4.2727	0.	-2055.8
20761	0.462	4.3636	0.	-2155.6
20762	0.5544	4.3636	5.e-002	7.5011e-005
20763	0.5544	4.0909	0.	-2110.8
20764	0.462	4.1818	0.	-2212.6
20765	0.5544	4.1818	5.e-002	6.8232e-005
20766	0.5544	3.9091	0.	-2152.8
20767	0.462	4.	0.	-2256.2
20768	0.5544	4.	5.e-002	7.8951e-005
20769	0.5544	3.7273	0.	-2184.3
20770	0.462	3.8182	0.	-2289.4
20771	0.5544	3.8182	5.e-002	4.1509e-005
20772	0.5544	3.5455	0.	-2207.3
20773	0.462	3.6364	0.	-2314.1
20774	0.5544	3.6364	5.e-002	3.7373e-005
20775	0.5544	3.3636	0.	-2223.
20776	0.462	3.4545	0.	-2331.6
20777	0.5544	3.4545	5.e-002	4.3403e-006
20778	0.5544	3.1818	0.	-2232.1
20779	0.462	3.2727	0.	-2342.9
20780	0.5544	3.2727	5.e-002	2.1116e-006
20781	0.5544	3.	0.	-2235.1
20782	0.462	3.0909	0.	-2348.4
20783	0.5544	3.0909	5.e-002	3.0994e-005
20784	0.5544	2.8182	0.	-2232.1
20785	0.462	2.9091	0.	-2348.4
20786	0.5544	2.9091	5.e-002	-4.8648e-007
20787	0.5544	2.6364	0.	-2223.
20788	0.462	2.7273	0.	-2342.9
20789	0.5544	2.7273	5.e-002	-1.4204e-006
20790	0.5544	2.4545	0.	-2207.3
20791	0.462	2.5455	0.	-2331.6
20792	0.5544	2.5455	5.e-002	-4.1224e-006
20793	0.5544	2.2727	0.	-2184.3
20794	0.462	2.3636	0.	-2314.1
20795	0.5544	2.3636	5.e-002	-3.7314e-006
20796	0.5544	2.0909	0.	-2152.8
20797	0.462	2.1818	0.	-2289.4
20798	0.5544	2.1818	5.e-002	-4.9155e-006
20799	0.5544	1.9091	0.	-2110.8
20800	0.462	2.	0.	-2256.2
20801	0.5544	2.	5.e-002	-2.1722e-005
20802	0.5544	1.7273	0.	-2055.8
20803	0.462	1.8182	0.	-2212.6
20804	0.5544	1.8182	5.e-002	-2.3883e-005
20805	0.5544	1.5455	0.	-1983.7
20806	0.462	1.6364	0.	-2155.6
20807	0.5544	1.6364	5.e-002	-4.5757e-005
20808	0.5544	1.3636	0.	-1888.8
20809	0.462	1.4545	0.	-2081.
20810	0.5544	1.4545	5.e-002	-8.7124e-005
20811	0.5544	1.1818	0.	-1762.1
20812	0.462	1.2727	0.	-1982.2
20813	0.5544	1.2727	5.e-002	-1.0887e-004
20814	0.5544	1.	0.	-1590.8
20815	0.462	1.0909	0.	-1848.9
20816	0.5544	1.0909	5.e-002	-1.1517e-004
20817	0.5544	0.81818	0.	-1356.6
20818	0.462	0.90909	0.	-1664.9
20819	0.5544	0.90909	5.e-002	-2.2464e-004
20820	0.5544	0.63636	0.	-1039.9
20821	0.462	0.72727	0.	-1405.1
20822	0.5544	0.72727	5.e-002	-2.4594e-004
20823	0.5544	0.45455	0.	-634.72
20824	0.462	0.54545	0.	-1036.7
20825	0.5544	0.54545	5.e-002	-1.6995e-004
20826	0.5544	0.27273	0.	-168.56
20827	0.462	0.36364	0.	-534.37
20828	0.5544	0.36364	5.e-002	-1.2404e-004
20829	0.462	0.18182	0.	-41.3
20830	0.5544	0.18182	5.e-002	-2.4073e-004
20831	0.5544	9.0909e-002	0.	9.0892
20832	0.3696	5.7273	0.	-305.12
20833	0.2772	5.8182	0.	-2.0627
20834	0.3696	5.8182	5.e-002	2.8773e-004
20835	0.3696	5.9091	0.	-23.63
20836	0.3696	5.5455	0.	-939.14
20837	0.2772	5.6364	0.	-740.37
20838	0.3696	5.6364	5.e-002	2.6043e-004
20839	0.3696	5.3636	0.	-1404.8
20840	0.2772	5.4545	0.	-1241.4
20841	0.3696	5.4545	5.e-002	2.4568e-004
20842	0.3696	5.1818	0.	-1714.4
20843	0.2772	5.2727	0.	-1552.
20844	0.3696	5.2727	5.e-002	2.4374e-004
20845	0.3696	5.	0.	-1922.8
20846	0.2772	5.0909	0.	-1753.
20847	0.3696	5.0909	5.e-002	1.8251e-004
20848	0.3696	4.8182	0.	-2068.3
20849	0.2772	4.9091	0.	-1891.
20850	0.3696	4.9091	5.e-002	1.2704e-004
20851	0.3696	4.6364	0.	-2173.7
20852	0.2772	4.7273	0.	-1990.3
20853	0.3696	4.7273	5.e-002	1.1028e-004
20854	0.3696	4.4545	0.	-2252.3
20855	0.2772	4.5455	0.	-2064.2
20856	0.3696	4.5455	5.e-002	9.7068e-005
20857	0.3696	4.2727	0.	-2312.
20858	0.2772	4.3636	0.	-2120.3
20859	0.3696	4.3636	5.e-002	8.5097e-005
20860	0.3696	4.0909	0.	-2357.7
20861	0.2772	4.1818	0.	-2163.4
20862	0.3696	4.1818	5.e-002	7.6993e-005
20863	0.3696	3.9091	0.	-2392.7
20864	0.2772	4.	0.	-2196.7
20865	0.3696	4.	5.e-002	4.0785e-005
20866	0.3696	3.7273	0.	-2419.1
20867	0.2772	3.8182	0.	-2222.1
20868	0.3696	3.8182	5.e-002	6.6776e-005
20869	0.3696	3.5455	0.	-2438.4
20870	0.2772	3.6364	0.	-2241.
20871	0.3696	3.6364	5.e-002	3.2462e-005
20872	0.3696	3.3636	0.	-2451.5
20873	0.2772	3.4545	0.	-2254.5
20874	0.3696	3.4545	5.e-002	3.2317e-005
20875	0.3696	3.1818	0.	-2459.2
20876	0.2772	3.2727	0.	-2263.2
20877	0.3696	3.2727	5.e-002	3.1444e-005
20878	0.3696	3.	0.	-2461.7
20879	0.2772	3.0909	0.	-2267.4
20880	0.3696	3.0909	5.e-002	6.1279e-005
20881	0.3696	2.8182	0.	-2459.2
20882	0.2772	2.9091	0.	-2267.4
20883	0.3696	2.9091	5.e-002	-2.526e-007
20884	0.3696	2.6364	0.	-2451.5
20885	0.2772	2.7273	0.	-2263.2
20886	0.3696	2.7273	5.e-002	-7.3783e-007
20887	0.3696	2.4545	0.	-2438.4
20888	0.2772	2.5455	0.	-2254.5
20889	0.3696	2.5455	5.e-002	-1.2045e-006
20890	0.3696	2.2727	0.	-2419.1
20891	0.2772	2.3636	0.	-2241.
20892	0.3696	2.3636	5.e-002	-1.8461e-006
20893	0.3696	2.0909	0.	-2392.7
20894	0.2772	2.1818	0.	-2222.1
20895	0.3696	2.1818	5.e-002	-6.1806e-005
20896	0.3696	1.9091	0.	-2357.7
20897	0.2772	2.	0.	-2196.7
20898	0.3696	2.	5.e-002	-3.5726e-005
20899	0.3696	1.7273	0.	-2312.
20900	0.2772	1.8182	0.	-2163.4
20901	0.3696	1.8182	5.e-002	-5.5827e-006
20902	0.3696	1.5455	0.	-2252.3
20903	0.2772	1.6364	0.	-2120.3
20904	0.3696	1.6364	5.e-002	-1.4481e-005
20905	0.3696	1.3636	0.	-2173.7
20906	0.2772	1.4545	0.	-2064.2
20907	0.3696	1.4545	5.e-002	-3.1673e-005
20908	0.3696	1.1818	0.	-2068.3
20909	0.2772	1.2727	0.	-1990.3
20910	0.3696	1.2727	5.e-002	-8.4492e-005
20911	0.3696	1.	0.	-1922.8
20912	0.2772	1.0909	0.	-1891.
20913	0.3696	1.0909	5.e-002	-1.1416e-004
20914	0.3696	0.81818	0.	-1714.4
20915	0.2772	0.90909	0.	-1753.
20916	0.3696	0.90909	5.e-002	-1.5061e-004
20917	0.3696	0.63636	0.	-1404.8
20918	0.2772	0.72727	0.	-1552.
20919	0.3696	0.72727	5.e-002	-2.3596e-004
20920	0.3696	0.45455	0.	-939.14
20921	0.2772	0.54545	0.	-1241.4
20922	0.3696	0.54545	5.e-002	-2.4569e-004
20923	0.3696	0.27273	0.	-305.12
20924	0.2772	0.36364	0.	-740.37
20925	0.3696	0.36364	5.e-002	-2.0691e-004
20926	0.2772	0.18182	0.	-2.0628
20927	0.3696	0.18182	5.e-002	-1.6109e-004
20928	0.3696	9.0909e-002	0.	-23.63
20929	0.1848	5.7273	0.	-409.66
20930	0.1848	5.8182	5.e-002	2.5613e-004
20931	0.1848	5.9091	0.	88.772
20932	9.24e-002	5.8182	0.	-571.15
20933	0.1848	5.5455	0.	-1042.3
20934	0.1848	5.6364	5.e-002	2.8766e-004
20935	9.24e-002	5.6364	0.	-1562.7
20936	0.1848	5.3636	0.	-1381.4
20937	0.1848	5.4545	5.e-002	3.0862e-004
20938	9.24e-002	5.4545	0.	-2038.9
20939	0.1848	5.1818	0.	-1583.9
20940	0.1848	5.2727	5.e-002	2.1409e-004
20941	9.24e-002	5.2727	0.	-2317.2
20942	0.1848	5.	0.	-1716.5
20943	0.1848	5.0909	5.e-002	1.8004e-004
20944	9.24e-002	5.0909	0.	-2499.3
20945	0.1848	4.8182	0.	-1810.
20946	0.1848	4.9091	5.e-002	1.1803e-004
20947	9.24e-002	4.9091	0.	-2627.9
20948	0.1848	4.6364	0.	-1878.9
20949	0.1848	4.7273	5.e-002	1.1378e-004
20950	9.24e-002	4.7273	0.	-2722.6
20951	0.1848	4.4545	0.	-1931.
20952	0.1848	4.5455	5.e-002	9.6164e-005
20953	9.24e-002	4.5455	0.	-2794.2
20954	0.1848	4.2727	0.	-1971.
20955	0.1848	4.3636	5.e-002	6.806e-005
20956	9.24e-002	4.3636	0.	-2849.3
20957	0.1848	4.0909	0.	-2001.9
20958	0.1848	4.1818	5.e-002	7.1043e-005
20959	9.24e-002	4.1818	0.	-2891.9
20960	0.1848	3.9091	0.	-2025.8
20961	0.1848	4.	5.e-002	5.0812e-005
20962	9.24e-002	4.	0.	-2925.
20963	0.1848	3.7273	0.	-2043.9
20964	0.1848	3.8182	5.e-002	5.2733e-006
20965	9.24e-002	3.8182	0.	-2950.3
20966	0.1848	3.5455	0.	-2057.1
20967	0.1848	3.6364	5.e-002	7.6109e-005
20968	9.24e-002	3.6364	0.	-2969.3
20969	0.1848	3.3636	0.	-2066.2
20970	0.1848	3.4545	5.e-002	1.6771e-005
20971	9.24e-002	3.4545	0.	-2982.8
20972	0.1848	3.1818	0.	-2071.5
20973	0.1848	3.2727	5.e-002	1.5931e-005
20974	9.24e-002	3.2727	0.	-2991.5
20975	0.1848	3.	0.	-2073.2
20976	0.1848	3.0909	5.e-002	1.5385e-005
20977	9.24e-002	3.0909	0.	-2995.8
20978	0.1848	2.8182	0.	-2071.5
20979	0.1848	2.9091	5.e-002	-1.2294e-007
20980	9.24e-002	2.9091	0.	-2995.8
20981	0.1848	2.6364	0.	-2066.2
20982	0.1848	2.7273	5.e-002	1.4862e-005
20983	9.24e-002	2.7273	0.	-2991.5
20984	0.1848	2.4545	0.	-2057.1
20985	0.1848	2.5455	5.e-002	-6.3154e-007
20986	9.24e-002	2.5455	0.	-2982.8
20987	0.1848	2.2727	0.	-2043.9
20988	0.1848	2.3636	5.e-002	-3.0725e-005
20989	9.24e-002	2.3636	0.	-2969.3
20990	0.1848	2.0909	0.	-2025.8
20991	0.1848	2.1818	5.e-002	-3.0762e-005
20992	9.24e-002	2.1818	0.	-2950.3
20993	0.1848	1.9091	0.	-2001.9
20994	0.1848	2.	5.e-002	-2.4684e-005
20995	9.24e-002	2.	0.	-2925.
20996	0.1848	1.7273	0.	-1971.
20997	0.1848	1.8182	5.e-002	-2.3113e-005
20998	9.24e-002	1.8182	0.	-2891.9
20999	0.1848	1.5455	0.	-1931.
21000	0.1848	1.6364	5.e-002	-4.7832e-005
21001	9.24e-002	1.6364	0.	-2849.3
21002	0.1848	1.3636	0.	-1878.9
21003	0.1848	1.4545	5.e-002	-5.5504e-005
21004	9.24e-002	1.4545	0.	-2794.2
21005	0.1848	1.1818	0.	-1810.
21006	0.1848	1.2727	5.e-002	-6.5017e-005
21007	9.24e-002	1.2727	0.	-2722.6
21008	0.1848	1.	0.	-1716.5
21009	0.1848	1.0909	5.e-002	-7.8687e-005
21010	9.24e-002	1.0909	0.	-2627.9
21011	0.1848	0.81818	0.	-1583.9
21012	0.1848	0.90909	5.e-002	-9.5742e-005
21013	9.24e-002	0.90909	0.	-2499.3
21014	0.1848	0.63636	0.	-1381.4
21015	0.1848	0.72727	5.e-002	-1.2302e-004
21016	9.24e-002	0.72727	0.	-2317.2
21017	0.1848	0.45455	0.	-1042.3
21018	0.1848	0.54545	5.e-002	-2.4152e-004
21019	9.24e-002	0.54545	0.	-2038.9
21020	0.1848	0.27273	0.	-409.66
21021	0.1848	0.36364	5.e-002	-2.3079e-004
21022	9.24e-002	0.36364	0.	-1562.7
21023	0.1848	0.18182	5.e-002	-1.6323e-004
21024	0.1848	9.0909e-002	0.	88.772
21025	9.24e-002	0.18182	0.	-571.15
21026	23.267	2.2727	0.	-9.0852
21027	23.358	2.1818	0.	-15.155
21028	23.267	2.1818	5.e-002	1.3166e-005
21029	23.267	2.0909	0.	-86.715
21030	23.267	2.4545	0.	-0.95364
21031	23.358	2.3636	0.	-2.6938
21032	23.267	2.3636	5.e-002	1.9239e-005
21033	23.267	2.6364	0.	-0.15578
21034	23.358	2.5455	0.	-1.0375
21035	23.267	2.5455	5.e-002	1.1809e-005
21036	23.267	2.8182	0.	-0.15114
21037	23.358	2.7273	0.	-0.65736
21038	23.267	2.7273	5.e-002	1.6576e-005
21039	23.267	3.	0.	-3.0388e-002
21040	23.358	2.9091	0.	-5.1339e-002
21041	23.267	2.9091	5.e-002	1.2269e-005
21042	23.267	3.1818	0.	-0.15113
21043	23.358	3.0909	0.	-5.1338e-002
21044	23.267	3.0909	5.e-002	7.6381e-006
21045	23.267	3.3636	0.	-0.15577
21046	23.358	3.2727	0.	-0.65736
21047	23.267	3.2727	5.e-002	7.2788e-006
21048	23.267	3.5455	0.	-0.95364
21049	23.358	3.4545	0.	-1.0375
21050	23.267	3.4545	5.e-002	1.3669e-005
21051	23.267	3.7273	0.	-9.0852
21052	23.358	3.6364	0.	-2.6938
21053	23.267	3.6364	5.e-002	1.5251e-005
21054	23.358	3.8182	0.	-15.155
21055	23.267	3.8182	5.e-002	2.3002e-005
21056	23.267	3.9091	0.	-86.715
21057	23.45	2.2727	0.	-17.009
21058	23.542	2.1818	0.	-16.811
21059	23.45	2.1818	5.e-002	1.5398e-005
21060	23.45	2.4545	0.	-7.5008
21061	23.542	2.3636	0.	-12.605
21062	23.45	2.3636	5.e-002	-1.2089e-006
21063	23.45	2.6364	0.	-7.4896
21064	23.542	2.5455	0.	-16.163
21065	23.45	2.5455	5.e-002	-3.8095e-006
21066	23.45	2.8182	0.	-9.8502
21067	23.542	2.7273	0.	-23.446
21068	23.45	2.7273	5.e-002	-5.2555e-006
21069	23.45	3.	0.	-11.126
21070	23.542	2.9091	0.	-28.174
21071	23.45	2.9091	5.e-002	-3.7751e-006
21072	23.45	3.1818	0.	-9.8502
21073	23.542	3.0909	0.	-28.174
21074	23.45	3.0909	5.e-002	-2.9063e-006
21075	23.45	3.3636	0.	-7.4896
21076	23.542	3.2727	0.	-23.446
21077	23.45	3.2727	5.e-002	-2.0797e-006
21078	23.45	3.5455	0.	-7.5008
21079	23.542	3.4545	0.	-16.163
21080	23.45	3.4545	5.e-002	-1.8279e-015
21081	23.45	3.7273	0.	-17.009
21082	23.542	3.6364	0.	-12.605
21083	23.45	3.6364	5.e-002	-1.1412e-006
21084	23.542	3.8182	0.	-16.811
21085	23.45	3.8182	5.e-002	1.1958e-005
21086	23.633	2.2727	0.	-13.843
21087	23.725	2.1818	0.	-6.4758
21088	23.633	2.1818	5.e-002	-1.9388e-005
21089	23.633	2.4545	0.	-21.142
21090	23.725	2.3636	0.	-11.585
21091	23.633	2.3636	5.e-002	-1.7255e-005
21092	23.633	2.6364	0.	-32.801
21093	23.725	2.5455	0.	-22.031
21094	23.633	2.5455	5.e-002	-2.4152e-005
21095	23.633	2.8182	0.	-45.13
21096	23.725	2.7273	0.	-41.047
21097	23.633	2.7273	5.e-002	-2.5548e-005
21098	23.633	3.	0.	-50.649
21099	23.725	2.9091	0.	-60.372
21100	23.633	2.9091	5.e-002	-1.9233e-005
21101	23.633	3.1818	0.	-45.13
21102	23.725	3.0909	0.	-60.372
21103	23.633	3.0909	5.e-002	-1.2828e-005
21104	23.633	3.3636	0.	-32.801
21105	23.725	3.2727	0.	-41.047
21106	23.633	3.2727	5.e-002	-5.5392e-006
21107	23.633	3.5455	0.	-21.142
21108	23.725	3.4545	0.	-22.031
21109	23.633	3.4545	5.e-002	-1.9991e-006
21110	23.633	3.7273	0.	-13.843
21111	23.725	3.6364	0.	-11.585
21112	23.633	3.6364	5.e-002	8.9277e-007
21113	23.725	3.8182	0.	-6.4758
21114	23.633	3.8182	5.e-002	3.6565e-006
21115	23.817	2.2727	0.	-5.3579
21116	23.817	2.1818	5.e-002	-3.6893e-005
21117	23.908	2.1818	0.	0.54138
21118	23.817	2.4545	0.	-9.6181
21119	23.817	2.3636	5.e-002	-3.9487e-005
21120	23.908	2.3636	0.	0.39289
21121	23.817	2.6364	0.	-22.685
21122	23.817	2.5455	5.e-002	-4.0539e-005
21123	23.908	2.5455	0.	-3.5268
21124	23.817	2.8182	0.	-50.569
21125	23.817	2.7273	5.e-002	-4.4258e-005
21126	23.908	2.7273	0.	-22.982
21127	23.817	3.	0.	-82.972
21128	23.817	2.9091	5.e-002	-3.7436e-005
21129	23.908	2.9091	0.	-47.5
21130	23.817	3.1818	0.	-50.569
21131	23.817	3.0909	5.e-002	-3.0794e-005
21132	23.908	3.0909	0.	-47.5
21133	23.817	3.3636	0.	-22.685
21134	23.817	3.2727	5.e-002	-1.9371e-005
21135	23.908	3.2727	0.	-22.982
21136	23.817	3.5455	0.	-9.6181
21137	23.817	3.4545	5.e-002	-1.2714e-005
21138	23.908	3.4545	0.	-3.5268
21139	23.817	3.7273	0.	-5.3579
21140	23.817	3.6364	5.e-002	-8.4485e-006
21141	23.908	3.6364	0.	0.39289
21142	23.817	3.8182	5.e-002	-5.5024e-006
21143	23.908	3.8182	0.	0.54138
21144	23.725	4.1818	0.	-1.5515
21145	23.817	4.2727	0.	-0.73697
21146	23.817	4.1818	5.e-002	-1.7419e-005
21147	23.908	4.1818	0.	0.54407
21148	23.542	4.1818	0.	-12.661
21149	23.633	4.2727	0.	-2.6698
21150	23.633	4.1818	5.e-002	7.2078e-007
21151	23.45	4.2727	0.	-16.977
21152	23.45	4.1818	5.e-002	6.3295e-006
21153	23.358	4.1818	0.	-3.8029
21154	23.725	4.3636	0.	-0.36387
21155	23.817	4.4545	0.	-0.35352
21156	23.817	4.3636	5.e-002	-1.1492e-005
21157	23.908	4.3636	0.	0.53074
21158	23.542	4.3636	0.	-2.4048
21159	23.633	4.4545	0.	5.0595e-003
21160	23.633	4.3636	5.e-002	3.9102e-006
21161	23.45	4.4545	0.	-3.9698
21162	23.45	4.3636	5.e-002	3.3979e-006
21163	23.358	4.3636	0.	-8.8549
21164	23.725	4.5455	0.	-3.4612e-002
21165	23.817	4.6364	0.	-0.24376
21166	23.817	4.5455	5.e-002	-2.7383e-006
21167	23.908	4.5455	0.	0.38389
21168	23.542	4.5455	0.	-0.77794
21169	23.633	4.6364	0.	0.12313
21170	23.633	4.5455	5.e-002	5.4001e-006
21171	23.45	4.6364	0.	-1.6261
21172	23.45	4.5455	5.e-002	3.7009e-006
21173	23.358	4.5455	0.	-1.0908
21174	23.725	4.7273	0.	-1.1769e-003
21175	23.817	4.8182	0.	-0.17983
21176	23.817	4.7273	5.e-002	1.7147e-008
21177	23.908	4.7273	0.	0.31626
21178	23.542	4.7273	0.	-0.32357
21179	23.633	4.8182	0.	6.1446e-002
21180	23.633	4.7273	5.e-002	4.2702e-006
21181	23.45	4.8182	0.	-0.78777
21182	23.45	4.7273	5.e-002	3.0742e-006
21183	23.358	4.7273	0.	-0.46949
21184	23.725	4.9091	0.	-9.0455e-003
21185	23.817	5.	0.	-0.1645
21186	23.817	4.9091	5.e-002	1.6687e-006
21187	23.908	4.9091	0.	0.29411
21188	23.542	4.9091	0.	-0.2121
21189	23.633	5.	0.	4.2225e-002
21190	23.633	4.9091	5.e-002	5.5178e-006
21191	23.45	5.	0.	-0.55649
21192	23.45	4.9091	5.e-002	3.9881e-006
21193	23.358	4.9091	0.	-0.19356
21194	23.725	5.0909	0.	-1.344e-002
21195	23.817	5.1818	0.	-0.15836
21196	23.817	5.0909	5.e-002	4.9476e-007
21197	23.908	5.0909	0.	0.28841
21198	23.542	5.0909	0.	-0.17766
21199	23.633	5.1818	0.	3.7231e-002
21200	23.633	5.0909	5.e-002	4.8461e-006
21201	23.45	5.1818	0.	-0.48192
21202	23.45	5.0909	5.e-002	3.7007e-006
21203	23.358	5.0909	0.	-0.16758
21204	23.725	5.2727	0.	-1.6482e-002
21205	23.817	5.3636	0.	-0.15314
21206	23.817	5.2727	5.e-002	1.0453e-006
21207	23.908	5.2727	0.	0.2835
21208	23.542	5.2727	0.	-0.1614
21209	23.633	5.3636	0.	3.0057e-002
21210	23.633	5.2727	5.e-002	5.2915e-006
21211	23.45	5.3636	0.	-0.4702
21212	23.45	5.2727	5.e-002	2.508e-006
21213	23.358	5.2727	0.	-0.15369
21214	23.725	5.4545	0.	-1.8018e-002
21215	23.817	5.5455	0.	-0.17064
21216	23.817	5.4545	5.e-002	2.7715e-006
21217	23.908	5.4545	0.	0.28483
21218	23.542	5.4545	0.	-0.1742
21219	23.633	5.5455	0.	1.5508e-002
21220	23.633	5.4545	5.e-002	5.9865e-006
21221	23.45	5.5455	0.	-0.49852
21222	23.45	5.4545	5.e-002	3.1579e-006
21223	23.358	5.4545	0.	-0.17926
21224	23.725	5.6364	0.	-4.5162e-002
21225	23.817	5.7273	0.	-0.19181
21226	23.817	5.6364	5.e-002	3.113e-006
21227	23.908	5.6364	0.	0.2158
21228	23.542	5.6364	0.	-0.18574
21229	23.633	5.7273	0.	-5.1311e-002
21230	23.633	5.6364	5.e-002	6.7783e-006
21231	23.45	5.7273	0.	-0.66825
21232	23.45	5.6364	5.e-002	4.0682e-006
21233	23.358	5.6364	0.	-0.22254
21234	23.725	5.8182	0.	-8.4367e-002
21235	23.817	5.8182	5.e-002	9.244e-006
21236	23.908	5.8182	0.	0.15366
21237	23.817	5.9091	0.	-0.14649
21238	23.542	5.8182	0.	-0.31498
21239	23.633	5.8182	5.e-002	4.4333e-006
21240	23.633	5.9091	0.	0.14587
21241	23.45	5.8182	5.e-002	2.9113e-006
21242	23.45	5.9091	0.	-1.3147e-003
21243	23.358	5.8182	0.	-0.51891
21244	23.542	1.8182	0.	-12.661
21245	23.45	1.7273	0.	-16.977
21246	23.45	1.8182	5.e-002	1.9005e-005
21247	23.358	1.8182	0.	-3.8029
21248	23.725	1.8182	0.	-1.5515
21249	23.633	1.7273	0.	-2.6698
21250	23.633	1.8182	5.e-002	-9.1417e-006
21251	23.817	1.7273	0.	-0.73697
21252	23.817	1.8182	5.e-002	-5.1733e-005
21253	23.908	1.8182	0.	0.54407
21254	23.542	1.6364	0.	-2.4048
21255	23.45	1.5455	0.	-3.9698
21256	23.45	1.6364	5.e-002	2.2004e-006
21257	23.358	1.6364	0.	-8.8549
21258	23.725	1.6364	0.	-0.36387
21259	23.633	1.5455	0.	5.0588e-003
21260	23.633	1.6364	5.e-002	-1.4024e-006
21261	23.817	1.5455	0.	-0.35352
21262	23.817	1.6364	5.e-002	-3.917e-005
21263	23.908	1.6364	0.	0.53074
21264	23.542	1.4545	0.	-0.77794
21265	23.45	1.3636	0.	-1.6261
21266	23.45	1.4545	5.e-002	4.4045e-006
21267	23.358	1.4545	0.	-1.0908
21268	23.725	1.4545	0.	-3.4611e-002
21269	23.633	1.3636	0.	0.12313
21270	23.633	1.4545	5.e-002	5.6584e-006
21271	23.817	1.3636	0.	-0.24375
21272	23.817	1.4545	5.e-002	-1.3336e-005
21273	23.908	1.4545	0.	0.38389
21274	23.542	1.2727	0.	-0.32357
21275	23.45	1.1818	0.	-0.78777
21276	23.45	1.2727	5.e-002	3.8649e-006
21277	23.358	1.2727	0.	-0.4695
21278	23.725	1.2727	0.	-1.1763e-003
21279	23.633	1.1818	0.	6.1447e-002
21280	23.633	1.2727	5.e-002	7.6222e-006
21281	23.817	1.1818	0.	-0.17983
21282	23.817	1.2727	5.e-002	-2.2484e-006
21283	23.908	1.2727	0.	0.31626
21284	23.542	1.0909	0.	-0.2121
21285	23.45	1.	0.	-0.55649
21286	23.45	1.0909	5.e-002	3.6679e-006
21287	23.358	1.0909	0.	-0.19356
21288	23.725	1.0909	0.	-9.0437e-003
21289	23.633	1.	0.	4.2227e-002
21290	23.633	1.0909	5.e-002	9.6128e-006
21291	23.817	1.	0.	-0.1645
21292	23.817	1.0909	5.e-002	1.4221e-006
21293	23.908	1.0909	0.	0.29412
21294	23.542	0.90909	0.	-0.17766
21295	23.45	0.81818	0.	-0.48193
21296	23.45	0.90909	5.e-002	3.8407e-006
21297	23.358	0.90909	0.	-0.16758
21298	23.725	0.90909	0.	-1.3437e-002
21299	23.633	0.81818	0.	3.7231e-002
21300	23.633	0.90909	5.e-002	1.0121e-005
21301	23.817	0.81818	0.	-0.15835
21302	23.817	0.90909	5.e-002	2.135e-006
21303	23.908	0.90909	0.	0.28842
21304	23.542	0.72727	0.	-0.1614
21305	23.45	0.63636	0.	-0.4702
21306	23.45	0.72727	5.e-002	3.7614e-006
21307	23.358	0.72727	0.	-0.15369
21308	23.725	0.72727	0.	-1.6481e-002
21309	23.633	0.63636	0.	3.0056e-002
21310	23.633	0.72727	5.e-002	8.9826e-006
21311	23.817	0.63636	0.	-0.15313
21312	23.817	0.72727	5.e-002	1.2296e-006
21313	23.908	0.72727	0.	0.2835
21314	23.542	0.54545	0.	-0.1742
21315	23.45	0.45455	0.	-0.49853
21316	23.45	0.54545	5.e-002	4.0453e-006
21317	23.358	0.54545	0.	-0.17926
21318	23.725	0.54545	0.	-1.8017e-002
21319	23.633	0.45455	0.	1.5507e-002
21320	23.633	0.54545	5.e-002	7.1737e-006
21321	23.817	0.45455	0.	-0.17064
21322	23.817	0.54545	5.e-002	2.6623e-006
21323	23.908	0.54545	0.	0.28483
21324	23.542	0.36364	0.	-0.18574
21325	23.45	0.27273	0.	-0.66825
21326	23.45	0.36364	5.e-002	3.5334e-006
21327	23.358	0.36364	0.	-0.22254
21328	23.725	0.36364	0.	-4.5164e-002
21329	23.633	0.27273	0.	-5.1316e-002
21330	23.633	0.36364	5.e-002	7.1949e-006
21331	23.817	0.27273	0.	-0.19181
21332	23.817	0.36364	5.e-002	6.9986e-006
21333	23.908	0.36364	0.	0.2158
21334	23.542	0.18182	0.	-0.31498
21335	23.45	0.18182	5.e-002	3.3981e-006
21336	23.45	9.0909e-002	0.	-1.3163e-003
21337	23.358	0.18182	0.	-0.51891
21338	23.725	0.18182	0.	-8.4369e-002
21339	23.633	0.18182	5.e-002	6.6799e-006
21340	23.633	9.0909e-002	0.	0.14587
21341	23.817	0.18182	5.e-002	5.829e-006
21342	23.817	9.0909e-002	0.	-0.14649
21343	23.908	0.18182	0.	0.15366
21344	23.725	0.18182	0.1	8.4369e-002
21345	23.817	0.27273	0.1	0.19182
21346	23.908	0.18182	0.1	-0.15366
21347	23.817	9.0909e-002	0.1	0.14649
21348	23.542	0.18182	0.1	0.31498
21349	23.633	0.27273	0.1	5.1315e-002
21350	23.633	9.0909e-002	0.1	-0.14587
21351	23.45	0.27273	0.1	0.66825
21352	23.358	0.18182	0.1	0.51891
21353	23.45	9.0909e-002	0.1	1.314e-003
21354	23.725	0.36364	0.1	4.5167e-002
21355	23.817	0.45455	0.1	0.17064
21356	23.908	0.36364	0.1	-0.21579
21357	23.542	0.36364	0.1	0.18574
21358	23.633	0.45455	0.1	-1.5506e-002
21359	23.45	0.45455	0.1	0.49852
21360	23.358	0.36364	0.1	0.22255
21361	23.725	0.54545	0.1	1.8018e-002
21362	23.817	0.63636	0.1	0.15314
21363	23.908	0.54545	0.1	-0.28483
21364	23.542	0.54545	0.1	0.1742
21365	23.633	0.63636	0.1	-3.0056e-002
21366	23.45	0.63636	0.1	0.4702
21367	23.358	0.54545	0.1	0.17926
21368	23.725	0.72727	0.1	1.6482e-002
21369	23.817	0.81818	0.1	0.15836
21370	23.908	0.72727	0.1	-0.28349
21371	23.542	0.72727	0.1	0.1614
21372	23.633	0.81818	0.1	-3.7231e-002
21373	23.45	0.81818	0.1	0.48193
21374	23.358	0.72727	0.1	0.15369
21375	23.725	0.90909	0.1	1.3439e-002
21376	23.817	1.	0.1	0.1645
21377	23.908	0.90909	0.1	-0.28841
21378	23.542	0.90909	0.1	0.17766
21379	23.633	1.	0.1	-4.2226e-002
21380	23.45	1.	0.1	0.55649
21381	23.358	0.90909	0.1	0.16758
21382	23.725	1.0909	0.1	9.0454e-003
21383	23.817	1.1818	0.1	0.17983
21384	23.908	1.0909	0.1	-0.29411
21385	23.542	1.0909	0.1	0.2121
21386	23.633	1.1818	0.1	-6.1446e-002
21387	23.45	1.1818	0.1	0.78777
21388	23.358	1.0909	0.1	0.19356
21389	23.725	1.2727	0.1	1.1785e-003
21390	23.817	1.3636	0.1	0.24376
21391	23.908	1.2727	0.1	-0.31626
21392	23.542	1.2727	0.1	0.32357
21393	23.633	1.3636	0.1	-0.12313
21394	23.45	1.3636	0.1	1.6261
21395	23.358	1.2727	0.1	0.4695
21396	23.725	1.4545	0.1	3.4613e-002
21397	23.817	1.5455	0.1	0.35352
21398	23.908	1.4545	0.1	-0.38389
21399	23.542	1.4545	0.1	0.77794
21400	23.633	1.5455	0.1	-5.0558e-003
21401	23.45	1.5455	0.1	3.9698
21402	23.358	1.4545	0.1	1.0908
21403	23.725	1.6364	0.1	0.36387
21404	23.817	1.7273	0.1	0.73697
21405	23.908	1.6364	0.1	-0.53074
21406	23.542	1.6364	0.1	2.4048
21407	23.633	1.7273	0.1	2.6698
21408	23.45	1.7273	0.1	16.977
21409	23.358	1.6364	0.1	8.8549
21410	23.725	1.8182	0.1	1.5515
21411	23.817	1.9091	0.1	1.9558
21412	23.908	1.8182	0.1	-0.54407
21413	23.542	1.8182	0.1	12.661
21414	23.633	1.9091	0.1	3.7556
21415	23.45	1.9091	0.1	27.68
21416	23.358	1.8182	0.1	3.8029
21417	23.542	5.8182	0.1	0.31498
21418	23.45	5.7273	0.1	0.66825
21419	23.358	5.8182	0.1	0.51891
21420	23.45	5.9091	0.1	1.3118e-003
21421	23.725	5.8182	0.1	8.4368e-002
21422	23.633	5.7273	0.1	5.1312e-002
21423	23.633	5.9091	0.1	-0.14587
21424	23.817	5.7273	0.1	0.19181
21425	23.817	5.9091	0.1	0.14649
21426	23.908	5.8182	0.1	-0.15366
21427	23.542	5.6364	0.1	0.18574
21428	23.45	5.5455	0.1	0.49852
21429	23.358	5.6364	0.1	0.22255
21430	23.725	5.6364	0.1	4.5162e-002
21431	23.633	5.5455	0.1	-1.5508e-002
21432	23.817	5.5455	0.1	0.17064
21433	23.908	5.6364	0.1	-0.2158
21434	23.542	5.4545	0.1	0.1742
21435	23.45	5.3636	0.1	0.4702
21436	23.358	5.4545	0.1	0.17926
21437	23.725	5.4545	0.1	1.8018e-002
21438	23.633	5.3636	0.1	-3.0056e-002
21439	23.817	5.3636	0.1	0.15314
21440	23.908	5.4545	0.1	-0.28483
21441	23.542	5.2727	0.1	0.1614
21442	23.45	5.1818	0.1	0.48192
21443	23.358	5.2727	0.1	0.15369
21444	23.725	5.2727	0.1	1.6482e-002
21445	23.633	5.1818	0.1	-3.723e-002
21446	23.817	5.1818	0.1	0.15836
21447	23.908	5.2727	0.1	-0.28349
21448	23.542	5.0909	0.1	0.17766
21449	23.45	5.	0.1	0.55649
21450	23.358	5.0909	0.1	0.16758
21451	23.725	5.0909	0.1	1.344e-002
21452	23.633	5.	0.1	-4.2225e-002
21453	23.817	5.	0.1	0.1645
21454	23.908	5.0909	0.1	-0.28841
21455	23.542	4.9091	0.1	0.2121
21456	23.45	4.8182	0.1	0.78777
21457	23.358	4.9091	0.1	0.19356
21458	23.725	4.9091	0.1	9.0457e-003
21459	23.633	4.8182	0.1	-6.1446e-002
21460	23.817	4.8182	0.1	0.17983
21461	23.908	4.9091	0.1	-0.29411
21462	23.542	4.7273	0.1	0.32357
21463	23.45	4.6364	0.1	1.6261
21464	23.358	4.7273	0.1	0.4695
21465	23.725	4.7273	0.1	1.1763e-003
21466	23.633	4.6364	0.1	-0.12313
21467	23.817	4.6364	0.1	0.24375
21468	23.908	4.7273	0.1	-0.31626
21469	23.542	4.5455	0.1	0.77794
21470	23.45	4.4545	0.1	3.9698
21471	23.358	4.5455	0.1	1.0908
21472	23.725	4.5455	0.1	3.4612e-002
21473	23.633	4.4545	0.1	-5.0584e-003
21474	23.817	4.4545	0.1	0.35352
21475	23.908	4.5455	0.1	-0.38389
21476	23.542	4.3636	0.1	2.4048
21477	23.45	4.2727	0.1	16.977
21478	23.358	4.3636	0.1	8.8549
21479	23.725	4.3636	0.1	0.36387
21480	23.633	4.2727	0.1	2.6698
21481	23.817	4.2727	0.1	0.73697
21482	23.908	4.3636	0.1	-0.53074
21483	23.542	4.1818	0.1	12.661
21484	23.45	4.0909	0.1	27.68
21485	23.358	4.1818	0.1	3.8029
21486	23.725	4.1818	0.1	1.5515
21487	23.633	4.0909	0.1	3.7556
21488	23.817	4.0909	0.1	1.9558
21489	23.908	4.1818	0.1	-0.54407
21490	23.817	3.7273	0.1	5.3579
21491	23.725	3.8182	0.1	6.4758
21492	23.817	3.9091	0.1	3.4614
21493	23.908	3.8182	0.1	-0.54138
21494	23.817	3.5455	0.1	9.6181
21495	23.725	3.6364	0.1	11.585
21496	23.908	3.6364	0.1	-0.39288
21497	23.817	3.3636	0.1	22.685
21498	23.725	3.4545	0.1	22.031
21499	23.908	3.4545	0.1	3.5268
21500	23.817	3.1818	0.1	50.569
21501	23.725	3.2727	0.1	41.047
21502	23.908	3.2727	0.1	22.982
21503	23.817	3.	0.1	82.972
21504	23.725	3.0909	0.1	60.372
21505	23.908	3.0909	0.1	47.5
21506	23.817	2.8182	0.1	50.569
21507	23.725	2.9091	0.1	60.372
21508	23.908	2.9091	0.1	47.5
21509	23.817	2.6364	0.1	22.685
21510	23.725	2.7273	0.1	41.047
21511	23.908	2.7273	0.1	22.982
21512	23.817	2.4545	0.1	9.6181
21513	23.725	2.5455	0.1	22.031
21514	23.908	2.5455	0.1	3.5268
21515	23.817	2.2727	0.1	5.3579
21516	23.725	2.3636	0.1	11.585
21517	23.908	2.3636	0.1	-0.39289
21518	23.725	2.1818	0.1	6.4758
21519	23.817	2.0909	0.1	3.4614
21520	23.908	2.1818	0.1	-0.54138
21521	23.633	3.7273	0.1	13.843
21522	23.542	3.8182	0.1	16.811
21523	23.633	3.9091	0.1	7.3783
21524	23.633	3.5455	0.1	21.142
21525	23.542	3.6364	0.1	12.605
21526	23.633	3.3636	0.1	32.801
21527	23.542	3.4545	0.1	16.163
21528	23.633	3.1818	0.1	45.13
21529	23.542	3.2727	0.1	23.446
21530	23.633	3.	0.1	50.649
21531	23.542	3.0909	0.1	28.174
21532	23.633	2.8182	0.1	45.13
21533	23.542	2.9091	0.1	28.174
21534	23.633	2.6364	0.1	32.801
21535	23.542	2.7273	0.1	23.446
21536	23.633	2.4545	0.1	21.142
21537	23.542	2.5455	0.1	16.163
21538	23.633	2.2727	0.1	13.843
21539	23.542	2.3636	0.1	12.605
21540	23.542	2.1818	0.1	16.811
21541	23.633	2.0909	0.1	7.3783
21542	23.45	3.7273	0.1	17.009
21543	23.358	3.8182	0.1	15.155
21544	23.45	3.9091	0.1	32.428
21545	23.45	3.5455	0.1	7.5008
21546	23.358	3.6364	0.1	2.6938
21547	23.45	3.3636	0.1	7.4896
21548	23.358	3.4545	0.1	1.0375
21549	23.45	3.1818	0.1	9.8502
21550	23.358	3.2727	0.1	0.65736
21551	23.45	3.	0.1	11.126
21552	23.358	3.0909	0.1	5.1338e-002
21553	23.45	2.8182	0.1	9.8502
21554	23.358	2.9091	0.1	5.134e-002
21555	23.45	2.6364	0.1	7.4897
21556	23.358	2.7273	0.1	0.65736
21557	23.45	2.4545	0.1	7.5008
21558	23.358	2.5455	0.1	1.0375
21559	23.45	2.2727	0.1	17.009
21560	23.358	2.3636	0.1	2.6938
21561	23.358	2.1818	0.1	15.155
21562	23.45	2.0909	0.1	32.428
21563	23.267	3.7273	0.1	9.0852
21564	23.183	3.8182	0.1	-6.431
21565	23.267	3.9091	0.1	86.715
21566	23.267	3.5455	0.1	0.95364
21567	23.183	3.6364	0.1	1.3558
21568	23.267	3.3636	0.1	0.15578
21569	23.183	3.4545	0.1	2.5295e-002
21570	23.267	3.1818	0.1	0.15114
21571	23.183	3.2727	0.1	0.21
21572	23.267	3.	0.1	3.0388e-002
21573	23.183	3.0909	0.1	0.10129
21574	23.267	2.8182	0.1	0.15114
21575	23.183	2.9091	0.1	0.10129
21576	23.267	2.6364	0.1	0.15578
21577	23.183	2.7273	0.1	0.21
21578	23.267	2.4545	0.1	0.95364
21579	23.183	2.5455	0.1	2.5295e-002
21580	23.267	2.2727	0.1	9.0852
21581	23.183	2.3636	0.1	1.3558
21582	23.183	2.1818	0.1	-6.431
21583	23.267	2.0909	0.1	86.715
21584	0.1848	0.27273	0.1	409.66
21585	0.2772	0.18182	0.1	2.0628
21586	9.24e-002	0.18182	0.1	571.15
21587	0.1848	9.0909e-002	0.1	-88.772
21588	0.1848	0.45455	0.1	1042.3
21589	0.2772	0.36364	0.1	740.37
21590	9.24e-002	0.36364	0.1	1562.7
21591	0.1848	0.63636	0.1	1381.4
21592	0.2772	0.54545	0.1	1241.4
21593	9.24e-002	0.54545	0.1	2038.9
21594	0.1848	0.81818	0.1	1583.9
21595	0.2772	0.72727	0.1	1552.
21596	9.24e-002	0.72727	0.1	2317.2
21597	0.1848	1.	0.1	1716.5
21598	0.2772	0.90909	0.1	1753.
21599	9.24e-002	0.90909	0.1	2499.3
21600	0.1848	1.1818	0.1	1810.
21601	0.2772	1.0909	0.1	1891.
21602	9.24e-002	1.0909	0.1	2627.9
21603	0.1848	1.3636	0.1	1878.9
21604	0.2772	1.2727	0.1	1990.3
21605	9.24e-002	1.2727	0.1	2722.6
21606	0.1848	1.5455	0.1	1931.
21607	0.2772	1.4545	0.1	2064.2
21608	9.24e-002	1.4545	0.1	2794.2
21609	0.1848	1.7273	0.1	1971.
21610	0.2772	1.6364	0.1	2120.3
21611	9.24e-002	1.6364	0.1	2849.3
21612	0.1848	1.9091	0.1	2001.9
21613	0.2772	1.8182	0.1	2163.4
21614	9.24e-002	1.8182	0.1	2891.9
21615	0.1848	2.0909	0.1	2025.8
21616	0.2772	2.	0.1	2196.7
21617	9.24e-002	2.	0.1	2925.
21618	0.1848	2.2727	0.1	2043.9
21619	0.2772	2.1818	0.1	2222.1
21620	9.24e-002	2.1818	0.1	2950.3
21621	0.1848	2.4545	0.1	2057.1
21622	0.2772	2.3636	0.1	2241.
21623	9.24e-002	2.3636	0.1	2969.3
21624	0.1848	2.6364	0.1	2066.2
21625	0.2772	2.5455	0.1	2254.5
21626	9.24e-002	2.5455	0.1	2982.8
21627	0.1848	2.8182	0.1	2071.5
21628	0.2772	2.7273	0.1	2263.2
21629	9.24e-002	2.7273	0.1	2991.5
21630	0.1848	3.	0.1	2073.2
21631	0.2772	2.9091	0.1	2267.4
21632	9.24e-002	2.9091	0.1	2995.8
21633	0.1848	3.1818	0.1	2071.5
21634	0.2772	3.0909	0.1	2267.4
21635	9.24e-002	3.0909	0.1	2995.8
21636	0.1848	3.3636	0.1	2066.2
21637	0.2772	3.2727	0.1	2263.2
21638	9.24e-002	3.2727	0.1	2991.5
21639	0.1848	3.5455	0.1	2057.1
21640	0.2772	3.4545	0.1	2254.5
21641	9.24e-002	3.4545	0.1	2982.8
21642	0.1848	3.7273	0.1	2043.9
21643	0.2772	3.6364	0.1	2241.
21644	9.24e-002	3.6364	0.1	2969.3
21645	0.1848	3.9091	0.1	2025.8
21646	0.2772	3.8182	0.1	2222.1
21647	9.24e-002	3.8182	0.1	2950.3
21648	0.1848	4.0909	0.1	2001.9
21649	0.2772	4.	0.1	2196.7
21650	9.24e-002	4.	0.1	2925.
21651	0.1848	4.2727	0.1	1971.
21652	0.2772	4.1818	0.1	2163.4
21653	9.24e-002	4.1818	0.1	2891.9
21654	0.1848	4.4545	0.1	1931.
21655	0.2772	4.3636	0.1	2120.3
21656	9.24e-002	4.3636	0.1	2849.3
21657	0.1848	4.6364	0.1	1878.9
21658	0.2772	4.5455	0.1	2064.2
21659	9.24e-002	4.5455	0.1	2794.2
21660	0.1848	4.8182	0.1	1810.
21661	0.2772	4.7273	0.1	1990.3
21662	9.24e-002	4.7273	0.1	2722.6
21663	0.1848	5.	0.1	1716.5
21664	0.2772	4.9091	0.1	1891.
21665	9.24e-002	4.9091	0.1	2627.9
21666	0.1848	5.1818	0.1	1583.9
21667	0.2772	5.0909	0.1	1753.
21668	9.24e-002	5.0909	0.1	2499.3
21669	0.1848	5.3636	0.1	1381.4
21670	0.2772	5.2727	0.1	1552.
21671	9.24e-002	5.2727	0.1	2317.2
21672	0.1848	5.5455	0.1	1042.3
21673	0.2772	5.4545	0.1	1241.4
21674	9.24e-002	5.4545	0.1	2038.9
21675	0.1848	5.7273	0.1	409.66
21676	0.2772	5.6364	0.1	740.37
21677	9.24e-002	5.6364	0.1	1562.7
21678	0.2772	5.8182	0.1	2.0627
21679	9.24e-002	5.8182	0.1	571.15
21680	0.1848	5.9091	0.1	-88.772
21681	0.3696	0.27273	0.1	305.12
21682	0.462	0.18182	0.1	41.3
21683	0.3696	9.0909e-002	0.1	23.63
21684	0.3696	0.45455	0.1	939.14
21685	0.462	0.36364	0.1	534.37
21686	0.3696	0.63636	0.1	1404.8
21687	0.462	0.54545	0.1	1036.7
21688	0.3696	0.81818	0.1	1714.4
21689	0.462	0.72727	0.1	1405.1
21690	0.3696	1.	0.1	1922.8
21691	0.462	0.90909	0.1	1664.9
21692	0.3696	1.1818	0.1	2068.3
21693	0.462	1.0909	0.1	1848.9
21694	0.3696	1.3636	0.1	2173.7
21695	0.462	1.2727	0.1	1982.2
21696	0.3696	1.5455	0.1	2252.3
21697	0.462	1.4545	0.1	2081.
21698	0.3696	1.7273	0.1	2312.
21699	0.462	1.6364	0.1	2155.6
21700	0.3696	1.9091	0.1	2357.7
21701	0.462	1.8182	0.1	2212.6
21702	0.3696	2.0909	0.1	2392.7
21703	0.462	2.	0.1	2256.2
21704	0.3696	2.2727	0.1	2419.1
21705	0.462	2.1818	0.1	2289.4
21706	0.3696	2.4545	0.1	2438.4
21707	0.462	2.3636	0.1	2314.1
21708	0.3696	2.6364	0.1	2451.5
21709	0.462	2.5455	0.1	2331.6
21710	0.3696	2.8182	0.1	2459.2
21711	0.462	2.7273	0.1	2342.9
21712	0.3696	3.	0.1	2461.7
21713	0.462	2.9091	0.1	2348.4
21714	0.3696	3.1818	0.1	2459.2
21715	0.462	3.0909	0.1	2348.4
21716	0.3696	3.3636	0.1	2451.5
21717	0.462	3.2727	0.1	2342.9
21718	0.3696	3.5455	0.1	2438.4
21719	0.462	3.4545	0.1	2331.6
21720	0.3696	3.7273	0.1	2419.1
21721	0.462	3.6364	0.1	2314.1
21722	0.3696	3.9091	0.1	2392.7
21723	0.462	3.8182	0.1	2289.4
21724	0.3696	4.0909	0.1	2357.7
21725	0.462	4.	0.1	2256.2
21726	0.3696	4.2727	0.1	2312.
21727	0.462	4.1818	0.1	2212.6
21728	0.3696	4.4545	0.1	2252.3
21729	0.462	4.3636	0.1	2155.6
21730	0.3696	4.6364	0.1	2173.7
21731	0.462	4.5455	0.1	2081.
21732	0.3696	4.8182	0.1	2068.3
21733	0.462	4.7273	0.1	1982.2
21734	0.3696	5.	0.1	1922.8
21735	0.462	4.9091	0.1	1848.9
21736	0.3696	5.1818	0.1	1714.4
21737	0.462	5.0909	0.1	1664.9
21738	0.3696	5.3636	0.1	1404.8
21739	0.462	5.2727	0.1	1405.1
21740	0.3696	5.5455	0.1	939.14
21741	0.462	5.4545	0.1	1036.7
21742	0.3696	5.7273	0.1	305.12
21743	0.462	5.6364	0.1	534.37
21744	0.462	5.8182	0.1	41.3
21745	0.3696	5.9091	0.1	23.63
21746	0.5544	0.27273	0.1	168.56
21747	0.6468	0.18182	0.1	9.8105
21748	0.5544	9.0909e-002	0.1	-9.0892
21749	0.5544	0.45455	0.1	634.72
21750	0.6468	0.36364	0.1	374.11
21751	0.5544	0.63636	0.1	1039.9
21752	0.6468	0.54545	0.1	781.12
21753	0.5544	0.81818	0.1	1356.6
21754	0.6468	0.72727	0.1	1127.1
21755	0.5544	1.	0.1	1590.8
21756	0.6468	0.90909	0.1	1398.3
21757	0.5544	1.1818	0.1	1762.1
21758	0.6468	1.0909	0.1	1603.9
21759	0.5544	1.3636	0.1	1888.8
21760	0.6468	1.2727	0.1	1758.8
21761	0.5544	1.5455	0.1	1983.7
21762	0.6468	1.4545	0.1	1876.
21763	0.5544	1.7273	0.1	2055.8
21764	0.6468	1.6364	0.1	1965.4
21765	0.5544	1.9091	0.1	2110.8
21766	0.6468	1.8182	0.1	2033.9
21767	0.5544	2.0909	0.1	2152.8
21768	0.6468	2.	0.1	2086.5
21769	0.5544	2.2727	0.1	2184.3
21770	0.6468	2.1818	0.1	2126.5
21771	0.5544	2.4545	0.1	2207.3
21772	0.6468	2.3636	0.1	2156.2
21773	0.5544	2.6364	0.1	2223.
21774	0.6468	2.5455	0.1	2177.2
21775	0.5544	2.8182	0.1	2232.1
21776	0.6468	2.7273	0.1	2190.7
21777	0.5544	3.	0.1	2235.1
21778	0.6468	2.9091	0.1	2197.3
21779	0.5544	3.1818	0.1	2232.1
21780	0.6468	3.0909	0.1	2197.3
21781	0.5544	3.3636	0.1	2223.
21782	0.6468	3.2727	0.1	2190.7
21783	0.5544	3.5455	0.1	2207.3
21784	0.6468	3.4545	0.1	2177.2
21785	0.5544	3.7273	0.1	2184.3
21786	0.6468	3.6364	0.1	2156.2
21787	0.5544	3.9091	0.1	2152.8
21788	0.6468	3.8182	0.1	2126.5
21789	0.5544	4.0909	0.1	2110.8
21790	0.6468	4.	0.1	2086.5
21791	0.5544	4.2727	0.1	2055.8
21792	0.6468	4.1818	0.1	2033.9
21793	0.5544	4.4545	0.1	1983.7
21794	0.6468	4.3636	0.1	1965.4
21795	0.5544	4.6364	0.1	1888.8
21796	0.6468	4.5455	0.1	1876.
21797	0.5544	4.8182	0.1	1762.1
21798	0.6468	4.7273	0.1	1758.8
21799	0.5544	5.	0.1	1590.8
21800	0.6468	4.9091	0.1	1603.9
21801	0.5544	5.1818	0.1	1356.6
21802	0.6468	5.0909	0.1	1398.3
21803	0.5544	5.3636	0.1	1039.9
21804	0.6468	5.2727	0.1	1127.1
21805	0.5544	5.5455	0.1	634.72
21806	0.6468	5.4545	0.1	781.12
21807	0.5544	5.7273	0.1	168.56
21808	0.6468	5.6364	0.1	374.11
21809	0.6468	5.8182	0.1	9.8105
21810	0.5544	5.9091	0.1	-9.0892
21811	0.7392	0.27273	0.1	145.57
21812	0.8316	0.18182	0.1	16.413
21813	0.7392	9.0909e-002	0.1	1.4137
21814	0.7392	0.45455	0.1	520.77
21815	0.8316	0.36364	0.1	310.48
21816	0.7392	0.63636	0.1	869.9
21817	0.8316	0.54545	0.1	645.96
21818	0.7392	0.81818	0.1	1170.3
21819	0.8316	0.72727	0.1	953.84
21820	0.7392	1.	0.1	1412.3
21821	0.8316	0.90909	0.1	1215.5
21822	0.7392	1.1818	0.1	1600.9
21823	0.8316	1.0909	0.1	1427.6
21824	0.7392	1.3636	0.1	1746.1
21825	0.8316	1.2727	0.1	1595.3
21826	0.7392	1.5455	0.1	1857.6
21827	0.8316	1.4545	0.1	1726.6
21828	0.7392	1.7273	0.1	1943.5
21829	0.8316	1.6364	0.1	1828.9
21830	0.7392	1.9091	0.1	2009.6
21831	0.8316	1.8182	0.1	1908.5
21832	0.7392	2.0909	0.1	2060.1
21833	0.8316	2.	0.1	1970.1
21834	0.7392	2.2727	0.1	2098.3
21835	0.8316	2.1818	0.1	2017.2
21836	0.7392	2.4545	0.1	2126.1
21837	0.8316	2.3636	0.1	2052.3
21838	0.7392	2.6364	0.1	2145.
21839	0.8316	2.5455	0.1	2077.2
21840	0.7392	2.8182	0.1	2156.
21841	0.8316	2.7273	0.1	2093.2
21842	0.7392	3.	0.1	2159.7
21843	0.8316	2.9091	0.1	2101.1
21844	0.7392	3.1818	0.1	2156.
21845	0.8316	3.0909	0.1	2101.1
21846	0.7392	3.3636	0.1	2145.
21847	0.8316	3.2727	0.1	2093.2
21848	0.7392	3.5455	0.1	2126.1
21849	0.8316	3.4545	0.1	2077.2
21850	0.7392	3.7273	0.1	2098.3
21851	0.8316	3.6364	0.1	2052.3
21852	0.7392	3.9091	0.1	2060.1
21853	0.8316	3.8182	0.1	2017.2
21854	0.7392	4.0909	0.1	2009.6
21855	0.8316	4.	0.1	1970.1
21856	0.7392	4.2727	0.1	1943.5
21857	0.8316	4.1818	0.1	1908.5
21858	0.7392	4.4545	0.1	1857.6
21859	0.8316	4.3636	0.1	1828.9
21860	0.7392	4.6364	0.1	1746.1
21861	0.8316	4.5455	0.1	1726.6
21862	0.7392	4.8182	0.1	1600.9
21863	0.8316	4.7273	0.1	1595.3
21864	0.7392	5.	0.1	1412.3
21865	0.8316	4.9091	0.1	1427.6
21866	0.7392	5.1818	0.1	1170.3
21867	0.8316	5.0909	0.1	1215.5
21868	0.7392	5.3636	0.1	869.9
21869	0.8316	5.2727	0.1	953.84
21870	0.7392	5.5455	0.1	520.77
21871	0.8316	5.4545	0.1	645.96
21872	0.7392	5.7273	0.1	145.57
21873	0.8316	5.6364	0.1	310.48
21874	0.8316	5.8182	0.1	16.413
21875	0.7392	5.9091	0.1	1.4137
21876	0.924	0.27273	0.1	127.59
21877	1.0164	0.18182	0.1	15.992
21878	0.924	9.0909e-002	0.1	-1.0309
21879	0.924	0.45455	0.1	435.
21880	1.0164	0.36364	0.1	268.86
21881	0.924	0.63636	0.1	730.41
21882	1.0164	0.54545	0.1	549.15
21883	0.924	0.81818	0.1	1000.1
21884	1.0164	0.72727	0.1	817.3
21885	0.924	1.	0.1	1231.8
21886	1.0164	0.90909	0.1	1058.
21887	0.924	1.1818	0.1	1422.7
21888	1.0164	1.0909	0.1	1263.6
21889	0.924	1.3636	0.1	1576.3
21890	1.0164	1.2727	0.1	1433.8
21891	0.924	1.5455	0.1	1698.2
21892	1.0164	1.4545	0.1	1571.9
21893	0.924	1.7273	0.1	1794.1
21894	1.0164	1.6364	0.1	1682.6
21895	0.924	1.9091	0.1	1869.2
21896	1.0164	1.8182	0.1	1770.3
21897	0.924	2.0909	0.1	1927.2
21898	1.0164	2.	0.1	1839.2
21899	0.924	2.2727	0.1	1971.3
21900	1.0164	2.1818	0.1	1892.4
21901	0.924	2.4545	0.1	2003.5
21902	1.0164	2.3636	0.1	1932.3
21903	0.924	2.6364	0.1	2025.5
21904	1.0164	2.5455	0.1	1960.8
21905	0.924	2.8182	0.1	2038.4
21906	1.0164	2.7273	0.1	1979.2
21907	0.924	3.	0.1	2042.6
21908	1.0164	2.9091	0.1	1988.1
21909	0.924	3.1818	0.1	2038.4
21910	1.0164	3.0909	0.1	1988.1
21911	0.924	3.3636	0.1	2025.5
21912	1.0164	3.2727	0.1	1979.2
21913	0.924	3.5455	0.1	2003.5
21914	1.0164	3.4545	0.1	1960.8
21915	0.924	3.7273	0.1	1971.3
21916	1.0164	3.6364	0.1	1932.3
21917	0.924	3.9091	0.1	1927.2
21918	1.0164	3.8182	0.1	1892.4
21919	0.924	4.0909	0.1	1869.2
21920	1.0164	4.	0.1	1839.2
21921	0.924	4.2727	0.1	1794.1
21922	1.0164	4.1818	0.1	1770.3
21923	0.924	4.4545	0.1	1698.2
21924	1.0164	4.3636	0.1	1682.6
21925	0.924	4.6364	0.1	1576.3
21926	1.0164	4.5455	0.1	1571.9
21927	0.924	4.8182	0.1	1422.7
21928	1.0164	4.7273	0.1	1433.8
21929	0.924	5.	0.1	1231.8
21930	1.0164	4.9091	0.1	1263.6
21931	0.924	5.1818	0.1	1000.1
21932	1.0164	5.0909	0.1	1058.
21933	0.924	5.3636	0.1	730.41
21934	1.0164	5.2727	0.1	817.3
21935	0.924	5.5455	0.1	435.
21936	1.0164	5.4545	0.1	549.15
21937	0.924	5.7273	0.1	127.59
21938	1.0164	5.6364	0.1	268.86
21939	1.0164	5.8182	0.1	15.992
21940	0.924	5.9091	0.1	-1.0309
21941	1.1088	0.27273	0.1	121.56
21942	1.2012	0.18182	0.1	19.168
21943	1.1088	9.0909e-002	0.1	2.4408e-003
21944	1.1088	0.45455	0.1	382.22
21945	1.2012	0.36364	0.1	243.33
21946	1.1088	0.63636	0.1	636.
21947	1.2012	0.54545	0.1	483.08
21948	1.1088	0.81818	0.1	875.61
21949	1.2012	0.72727	0.1	717.28
21950	1.1088	1.	0.1	1090.5
21951	1.2012	0.90909	0.1	934.84
21952	1.1088	1.1818	0.1	1275.4
21953	1.2012	1.0909	0.1	1128.1
21954	1.1088	1.3636	0.1	1430.
21955	1.2012	1.2727	0.1	1294.
21956	1.1088	1.5455	0.1	1556.8
21957	1.2012	1.4545	0.1	1433.1
21958	1.1088	1.7273	0.1	1659.1
21959	1.2012	1.6364	0.1	1547.6
21960	1.1088	1.9091	0.1	1740.6
21961	1.2012	1.8182	0.1	1640.3
21962	1.1088	2.0909	0.1	1804.6
21963	1.2012	2.	0.1	1714.4
21964	1.1088	2.2727	0.1	1853.6
21965	1.2012	2.1818	0.1	1772.3
21966	1.1088	2.4545	0.1	1889.8
21967	1.2012	2.3636	0.1	1816.1
21968	1.1088	2.6364	0.1	1914.6
21969	1.2012	2.5455	0.1	1847.6
21970	1.1088	2.8182	0.1	1929.1
21971	1.2012	2.7273	0.1	1868.
21972	1.1088	3.	0.1	1933.9
21973	1.2012	2.9091	0.1	1878.
21974	1.1088	3.1818	0.1	1929.1
21975	1.2012	3.0909	0.1	1878.
21976	1.1088	3.3636	0.1	1914.6
21977	1.2012	3.2727	0.1	1868.
21978	1.1088	3.5455	0.1	1889.8
21979	1.2012	3.4545	0.1	1847.6
21980	1.1088	3.7273	0.1	1853.6
21981	1.2012	3.6364	0.1	1816.1
21982	1.1088	3.9091	0.1	1804.6
21983	1.2012	3.8182	0.1	1772.3
21984	1.1088	4.0909	0.1	1740.6
21985	1.2012	4.	0.1	1714.4
21986	1.1088	4.2727	0.1	1659.1
21987	1.2012	4.1818	0.1	1640.3
21988	1.1088	4.4545	0.1	1556.8
21989	1.2012	4.3636	0.1	1547.6
21990	1.1088	4.6364	0.1	1430.
21991	1.2012	4.5455	0.1	1433.1
21992	1.1088	4.8182	0.1	1275.4
21993	1.2012	4.7273	0.1	1294.
21994	1.1088	5.	0.1	1090.5
21995	1.2012	4.9091	0.1	1128.1
21996	1.1088	5.1818	0.1	875.61
21997	1.2012	5.0909	0.1	934.84
21998	1.1088	5.3636	0.1	636.
21999	1.2012	5.2727	0.1	717.28
22000	1.1088	5.5455	0.1	382.22
22001	1.2012	5.4545	0.1	483.08
22002	1.1088	5.7273	0.1	121.56
22003	1.2012	5.6364	0.1	243.33
22004	1.2012	5.8182	0.1	19.168
22005	1.1088	5.9091	0.1	2.441e-003
22006	1.2936	0.27273	0.1	118.03
22007	1.386	0.18182	0.1	23.297
22008	1.2936	9.0909e-002	0.1	0.18315
22009	1.2936	0.45455	0.1	343.44
22010	1.386	0.36364	0.1	224.87
22011	1.2936	0.63636	0.1	564.1
22012	1.386	0.54545	0.1	433.49
22013	1.2936	0.81818	0.1	776.62
22014	1.386	0.72727	0.1	639.48
22015	1.2936	1.	0.1	972.77
22016	1.386	0.90909	0.1	835.01
22017	1.2936	1.1818	0.1	1147.1
22018	1.386	1.0909	0.1	1013.5
22019	1.2936	1.3636	0.1	1297.6
22020	1.386	1.2727	0.1	1171.2
22021	1.2936	1.5455	0.1	1424.4
22022	1.386	1.4545	0.1	1307.
22023	1.2936	1.7273	0.1	1529.2
22024	1.386	1.6364	0.1	1421.5
22025	1.2936	1.9091	0.1	1614.4
22026	1.386	1.8182	0.1	1516.3
22027	1.2936	2.0909	0.1	1682.3
22028	1.386	2.	0.1	1593.2
22029	1.2936	2.2727	0.1	1735.
22030	1.386	2.1818	0.1	1654.1
22031	1.2936	2.4545	0.1	1774.2
22032	1.386	2.3636	0.1	1700.7
22033	1.2936	2.6364	0.1	1801.3
22034	1.386	2.5455	0.1	1734.5
22035	1.2936	2.8182	0.1	1817.1
22036	1.386	2.7273	0.1	1756.4
22037	1.2936	3.	0.1	1822.4
22038	1.386	2.9091	0.1	1767.2
22039	1.2936	3.1818	0.1	1817.1
22040	1.386	3.0909	0.1	1767.2
22041	1.2936	3.3636	0.1	1801.3
22042	1.386	3.2727	0.1	1756.4
22043	1.2936	3.5455	0.1	1774.2
22044	1.386	3.4545	0.1	1734.5
22045	1.2936	3.7273	0.1	1735.
22046	1.386	3.6364	0.1	1700.7
22047	1.2936	3.9091	0.1	1682.3
22048	1.386	3.8182	0.1	1654.1
22049	1.2936	4.0909	0.1	1614.4
22050	1.386	4.	0.1	1593.2
22051	1.2936	4.2727	0.1	1529.2
22052	1.386	4.1818	0.1	1516.3
22053	1.2936	4.4545	0.1	1424.4
22054	1.386	4.3636	0.1	1421.5
22055	1.2936	4.6364	0.1	1297.6
22056	1.386	4.5455	0.1	1307.
22057	1.2936	4.8182	0.1	1147.1
22058	1.386	4.7273	0.1	1171.2
22059	1.2936	5.	0.1	972.77
22060	1.386	4.9091	0.1	1013.5
22061	1.2936	5.1818	0.1	776.62
22062	1.386	5.0909	0.1	835.01
22063	1.2936	5.3636	0.1	564.1
22064	1.386	5.2727	0.1	639.48
22065	1.2936	5.5455	0.1	343.44
22066	1.386	5.4545	0.1	433.49
22067	1.2936	5.7273	0.1	118.03
22068	1.386	5.6364	0.1	224.87
22069	1.386	5.8182	0.1	23.297
22070	1.2936	5.9091	0.1	0.18315
22071	1.4784	0.27273	0.1	116.17
22072	1.5708	0.18182	0.1	28.561
22073	1.4784	9.0909e-002	0.1	1.0164
22074	1.4784	0.45455	0.1	314.27
22075	1.5708	0.36364	0.1	210.75
22076	1.4784	0.63636	0.1	508.54
22077	1.5708	0.54545	0.1	394.86
22078	1.4784	0.81818	0.1	697.8
22079	1.5708	0.72727	0.1	577.56
22080	1.4784	1.	0.1	875.85
22081	1.5708	0.90909	0.1	753.35
22082	1.4784	1.1818	0.1	1037.8
22083	1.5708	1.0909	0.1	916.86
22084	1.4784	1.3636	0.1	1181.
22085	1.5708	1.2727	0.1	1064.5
22086	1.4784	1.5455	0.1	1304.6
22087	1.5708	1.4545	0.1	1194.4
22088	1.4784	1.7273	0.1	1409.
22089	1.5708	1.6364	0.1	1306.2
22090	1.4784	1.9091	0.1	1495.4
22091	1.5708	1.8182	0.1	1400.4
22092	1.4784	2.0909	0.1	1565.2
22093	1.5708	2.	0.1	1478.1
22094	1.4784	2.2727	0.1	1620.1
22095	1.5708	2.1818	0.1	1540.4
22096	1.4784	2.4545	0.1	1661.3
22097	1.5708	2.3636	0.1	1588.6
22098	1.4784	2.6364	0.1	1689.9
22099	1.5708	2.5455	0.1	1623.7
22100	1.4784	2.8182	0.1	1706.7
22101	1.5708	2.7273	0.1	1646.7
22102	1.4784	3.	0.1	1712.3
22103	1.5708	2.9091	0.1	1658.
22104	1.4784	3.1818	0.1	1706.7
22105	1.5708	3.0909	0.1	1658.
22106	1.4784	3.3636	0.1	1689.9
22107	1.5708	3.2727	0.1	1646.7
22108	1.4784	3.5455	0.1	1661.3
22109	1.5708	3.4545	0.1	1623.7
22110	1.4784	3.7273	0.1	1620.1
22111	1.5708	3.6364	0.1	1588.6
22112	1.4784	3.9091	0.1	1565.2
22113	1.5708	3.8182	0.1	1540.4
22114	1.4784	4.0909	0.1	1495.4
22115	1.5708	4.	0.1	1478.1
22116	1.4784	4.2727	0.1	1409.
22117	1.5708	4.1818	0.1	1400.4
22118	1.4784	4.4545	0.1	1304.6
22119	1.5708	4.3636	0.1	1306.2
22120	1.4784	4.6364	0.1	1181.
22121	1.5708	4.5455	0.1	1194.4
22122	1.4784	4.8182	0.1	1037.8
22123	1.5708	4.7273	0.1	1064.5
22124	1.4784	5.	0.1	875.85
22125	1.5708	4.9091	0.1	916.86
22126	1.4784	5.1818	0.1	697.8
22127	1.5708	5.0909	0.1	753.35
22128	1.4784	5.3636	0.1	508.54
22129	1.5708	5.2727	0.1	577.56
22130	1.4784	5.5455	0.1	314.27
22131	1.5708	5.4545	0.1	394.86
22132	1.4784	5.7273	0.1	116.17
22133	1.5708	5.6364	0.1	210.75
22134	1.5708	5.8182	0.1	28.561
22135	1.4784	5.9091	0.1	1.0164
22136	1.6632	0.27273	0.1	114.66
22137	1.7556	0.18182	0.1	34.015
22138	1.6632	9.0909e-002	0.1	3.4736
22139	1.6632	0.45455	0.1	290.78
22140	1.7556	0.36364	0.1	199.07
22141	1.6632	0.63636	0.1	463.55
22142	1.7556	0.54545	0.1	363.28
22143	1.6632	0.81818	0.1	632.96
22144	1.7556	0.72727	0.1	526.57
22145	1.6632	1.	0.1	794.37
22146	1.7556	0.90909	0.1	685.
22147	1.6632	1.1818	0.1	943.67
22148	1.7556	1.0909	0.1	834.3
22149	1.6632	1.3636	0.1	1078.1
22150	1.7556	1.2727	0.1	971.25
22151	1.6632	1.5455	0.1	1196.4
22152	1.7556	1.4545	0.1	1093.8
22153	1.6632	1.7273	0.1	1298.
22154	1.7556	1.6364	0.1	1201.1
22155	1.6632	1.9091	0.1	1383.5
22156	1.7556	1.8182	0.1	1292.9
22157	1.6632	2.0909	0.1	1453.5
22158	1.7556	2.	0.1	1369.5
22159	1.6632	2.2727	0.1	1509.2
22160	1.7556	2.1818	0.1	1431.8
22161	1.6632	2.4545	0.1	1551.3
22162	1.7556	2.3636	0.1	1480.4
22163	1.6632	2.6364	0.1	1580.8
22164	1.7556	2.5455	0.1	1516.1
22165	1.6632	2.8182	0.1	1598.3
22166	1.7556	2.7273	0.1	1539.6
22167	1.6632	3.	0.1	1604.
22168	1.7556	2.9091	0.1	1551.2
22169	1.6632	3.1818	0.1	1598.3
22170	1.7556	3.0909	0.1	1551.2
22171	1.6632	3.3636	0.1	1580.8
22172	1.7556	3.2727	0.1	1539.6
22173	1.6632	3.5455	0.1	1551.3
22174	1.7556	3.4545	0.1	1516.1
22175	1.6632	3.7273	0.1	1509.2
22176	1.7556	3.6364	0.1	1480.4
22177	1.6632	3.9091	0.1	1453.5
22178	1.7556	3.8182	0.1	1431.8
22179	1.6632	4.0909	0.1	1383.5
22180	1.7556	4.	0.1	1369.5
22181	1.6632	4.2727	0.1	1298.
22182	1.7556	4.1818	0.1	1292.9
22183	1.6632	4.4545	0.1	1196.4
22184	1.7556	4.3636	0.1	1201.1
22185	1.6632	4.6364	0.1	1078.1
22186	1.7556	4.5455	0.1	1093.8
22187	1.6632	4.8182	0.1	943.67
22188	1.7556	4.7273	0.1	971.25
22189	1.6632	5.	0.1	794.37
22190	1.7556	4.9091	0.1	834.3
22191	1.6632	5.1818	0.1	632.96
22192	1.7556	5.0909	0.1	685.
22193	1.6632	5.3636	0.1	463.55
22194	1.7556	5.2727	0.1	526.57
22195	1.6632	5.5455	0.1	290.78
22196	1.7556	5.4545	0.1	363.28
22197	1.6632	5.7273	0.1	114.66
22198	1.7556	5.6364	0.1	199.07
22199	1.7556	5.8182	0.1	34.015
22200	1.6632	5.9091	0.1	3.4736
22201	1.848	0.27273	0.1	113.11
22202	1.9404	0.18182	0.1	39.001
22203	1.848	9.0909e-002	0.1	8.2987
22204	1.848	0.45455	0.1	271.09
22205	1.9404	0.36364	0.1	188.87
22206	1.848	0.63636	0.1	425.99
22207	1.9404	0.54545	0.1	336.55
22208	1.848	0.81818	0.1	578.42
22209	1.9404	0.72727	0.1	483.44
22210	1.848	1.	0.1	724.86
22211	1.9404	0.90909	0.1	626.68
22212	1.848	1.1818	0.1	861.94
22213	1.9404	1.0909	0.1	762.88
22214	1.848	1.3636	0.1	987.11
22215	1.9404	1.2727	0.1	889.26
22216	1.848	1.5455	0.1	1098.8
22217	1.9404	1.4545	0.1	1003.8
22218	1.848	1.7273	0.1	1196.2
22219	1.9404	1.6364	0.1	1105.4
22220	1.848	1.9091	0.1	1279.2
22221	1.9404	1.8182	0.1	1193.5
22222	1.848	2.0909	0.1	1348.1
22223	1.9404	2.	0.1	1267.9
22224	1.848	2.2727	0.1	1403.3
22225	1.9404	2.1818	0.1	1328.9
22226	1.848	2.4545	0.1	1445.5
22227	1.9404	2.3636	0.1	1377.
22228	1.848	2.6364	0.1	1475.2
22229	1.9404	2.5455	0.1	1412.6
22230	1.848	2.8182	0.1	1492.9
22231	1.9404	2.7273	0.1	1436.1
22232	1.848	3.	0.1	1498.7
22233	1.9404	2.9091	0.1	1447.7
22234	1.848	3.1818	0.1	1492.9
22235	1.9404	3.0909	0.1	1447.7
22236	1.848	3.3636	0.1	1475.2
22237	1.9404	3.2727	0.1	1436.1
22238	1.848	3.5455	0.1	1445.5
22239	1.9404	3.4545	0.1	1412.6
22240	1.848	3.7273	0.1	1403.3
22241	1.9404	3.6364	0.1	1377.
22242	1.848	3.9091	0.1	1348.1
22243	1.9404	3.8182	0.1	1328.9
22244	1.848	4.0909	0.1	1279.2
22245	1.9404	4.	0.1	1267.9
22246	1.848	4.2727	0.1	1196.2
22247	1.9404	4.1818	0.1	1193.5
22248	1.848	4.4545	0.1	1098.8
22249	1.9404	4.3636	0.1	1105.4
22250	1.848	4.6364	0.1	987.11
22251	1.9404	4.5455	0.1	1003.8
22252	1.848	4.8182	0.1	861.94
22253	1.9404	4.7273	0.1	889.26
22254	1.848	5.	0.1	724.86
22255	1.9404	4.9091	0.1	762.88
22256	1.848	5.1818	0.1	578.42
22257	1.9404	5.0909	0.1	626.68
22258	1.848	5.3636	0.1	425.99
22259	1.9404	5.2727	0.1	483.44
22260	1.848	5.5455	0.1	271.09
22261	1.9404	5.4545	0.1	336.55
22262	1.848	5.7273	0.1	113.11
22263	1.9404	5.6364	0.1	188.87
22264	1.9404	5.8182	0.1	39.001
22265	1.848	5.9091	0.1	8.2987
22266	2.0328	0.27273	0.1	111.28
22267	2.1252	0.18182	0.1	43.156
22268	2.0328	9.0909e-002	0.1	13.059
22269	2.0328	0.45455	0.1	253.92
22270	2.1252	0.36364	0.1	179.56
22271	2.0328	0.63636	0.1	393.71
22272	2.1252	0.54545	0.1	313.22
22273	2.0328	0.81818	0.1	531.5
22274	2.1252	0.72727	0.1	446.06
22275	2.0328	1.	0.1	664.58
22276	2.1252	0.90909	0.1	575.98
22277	2.0328	1.1818	0.1	790.19
22278	2.1252	1.0909	0.1	700.25
22279	2.0328	1.3636	0.1	906.08
22280	2.1252	1.2727	0.1	816.54
22281	2.0328	1.5455	0.1	1010.7
22282	2.1252	1.4545	0.1	923.
22283	2.0328	1.7273	0.1	1102.9
22284	2.1252	1.6364	0.1	1018.4
22285	2.0328	1.9091	0.1	1182.4
22286	2.1252	1.8182	0.1	1101.9
22287	2.0328	2.0909	0.1	1249.
22288	2.1252	2.	0.1	1173.1
22289	2.0328	2.2727	0.1	1302.9
22290	2.1252	2.1818	0.1	1232.1
22291	2.0328	2.4545	0.1	1344.4
22292	2.1252	2.3636	0.1	1278.9
22293	2.0328	2.6364	0.1	1373.8
22294	2.1252	2.5455	0.1	1313.7
22295	2.0328	2.8182	0.1	1391.2
22296	2.1252	2.7273	0.1	1336.7
22297	2.0328	3.	0.1	1397.
22298	2.1252	2.9091	0.1	1348.2
22299	2.0328	3.1818	0.1	1391.2
22300	2.1252	3.0909	0.1	1348.2
22301	2.0328	3.3636	0.1	1373.8
22302	2.1252	3.2727	0.1	1336.7
22303	2.0328	3.5455	0.1	1344.4
22304	2.1252	3.4545	0.1	1313.7
22305	2.0328	3.7273	0.1	1302.9
22306	2.1252	3.6364	0.1	1278.9
22307	2.0328	3.9091	0.1	1249.
22308	2.1252	3.8182	0.1	1232.1
22309	2.0328	4.0909	0.1	1182.4
22310	2.1252	4.	0.1	1173.1
22311	2.0328	4.2727	0.1	1102.9
22312	2.1252	4.1818	0.1	1101.9
22313	2.0328	4.4545	0.1	1010.7
22314	2.1252	4.3636	0.1	1018.4
22315	2.0328	4.6364	0.1	906.08
22316	2.1252	4.5455	0.1	923.
22317	2.0328	4.8182	0.1	790.19
22318	2.1252	4.7273	0.1	816.54
22319	2.0328	5.	0.1	664.58
22320	2.1252	4.9091	0.1	700.25
22321	2.0328	5.1818	0.1	531.5
22322	2.1252	5.0909	0.1	575.98
22323	2.0328	5.3636	0.1	393.71
22324	2.1252	5.2727	0.1	446.06
22325	2.0328	5.5455	0.1	253.92
22326	2.1252	5.4545	0.1	313.22
22327	2.0328	5.7273	0.1	111.28
22328	2.1252	5.6364	0.1	179.56
22329	2.1252	5.8182	0.1	43.156
22330	2.0328	5.9091	0.1	13.059
22331	2.2176	0.27273	0.1	109.06
22332	2.31	0.18182	0.1	46.371
22333	2.2176	9.0909e-002	0.1	16.94
22334	2.2176	0.45455	0.1	238.51
22335	2.31	0.36364	0.1	170.83
22336	2.2176	0.63636	0.1	365.31
22337	2.31	0.54545	0.1	292.37
22338	2.2176	0.81818	0.1	490.35
22339	2.31	0.72727	0.1	413.03
22340	2.2176	1.	0.1	611.53
22341	2.31	0.90909	0.1	531.2
22342	2.2176	1.1818	0.1	726.55
22343	2.31	1.0909	0.1	644.68
22344	2.2176	1.3636	0.1	833.48
22345	2.31	1.2727	0.1	751.5
22346	2.2176	1.5455	0.1	930.8
22347	2.31	1.4545	0.1	850.
22348	2.2176	1.7273	0.1	1017.4
22349	2.31	1.6364	0.1	938.93
22350	2.2176	1.9091	0.1	1092.8
22351	2.31	1.8182	0.1	1017.4
22352	2.2176	2.0909	0.1	1156.4
22353	2.31	2.	0.1	1084.9
22354	2.2176	2.2727	0.1	1208.3
22355	2.31	2.1818	0.1	1141.2
22356	2.2176	2.4545	0.1	1248.4
22357	2.31	2.3636	0.1	1186.1
22358	2.2176	2.6364	0.1	1276.9
22359	2.31	2.5455	0.1	1219.7
22360	2.2176	2.8182	0.1	1294.
22361	2.31	2.7273	0.1	1242.1
22362	2.2176	3.	0.1	1299.7
22363	2.31	2.9091	0.1	1253.2
22364	2.2176	3.1818	0.1	1294.
22365	2.31	3.0909	0.1	1253.2
22366	2.2176	3.3636	0.1	1276.9
22367	2.31	3.2727	0.1	1242.1
22368	2.2176	3.5455	0.1	1248.4
22369	2.31	3.4545	0.1	1219.7
22370	2.2176	3.7273	0.1	1208.3
22371	2.31	3.6364	0.1	1186.1
22372	2.2176	3.9091	0.1	1156.4
22373	2.31	3.8182	0.1	1141.2
22374	2.2176	4.0909	0.1	1092.8
22375	2.31	4.	0.1	1084.9
22376	2.2176	4.2727	0.1	1017.4
22377	2.31	4.1818	0.1	1017.4
22378	2.2176	4.4545	0.1	930.8
22379	2.31	4.3636	0.1	938.93
22380	2.2176	4.6364	0.1	833.48
22381	2.31	4.5455	0.1	850.
22382	2.2176	4.8182	0.1	726.55
22383	2.31	4.7273	0.1	751.5
22384	2.2176	5.	0.1	611.53
22385	2.31	4.9091	0.1	644.68
22386	2.2176	5.1818	0.1	490.35
22387	2.31	5.0909	0.1	531.2
22388	2.2176	5.3636	0.1	365.31
22389	2.31	5.2727	0.1	413.03
22390	2.2176	5.5455	0.1	238.51
22391	2.31	5.4545	0.1	292.37
22392	2.2176	5.7273	0.1	109.06
22393	2.31	5.6364	0.1	170.83
22394	2.31	5.8182	0.1	46.371
22395	2.2176	5.9091	0.1	16.94
22396	2.4024	0.27273	0.1	106.44
22397	2.4948	0.18182	0.1	48.664
22398	2.4024	9.0909e-002	0.1	19.93
22399	2.4024	0.45455	0.1	224.38
22400	2.4948	0.36364	0.1	162.46
22401	2.4024	0.63636	0.1	339.85
22402	2.4948	0.54545	0.1	273.39
22403	2.4024	0.81818	0.1	453.69
22404	2.4948	0.72727	0.1	383.36
22405	2.4024	1.	0.1	564.23
22406	2.4948	0.90909	0.1	491.11
22407	2.4024	1.1818	0.1	669.56
22408	2.4948	1.0909	0.1	594.84
22409	2.4024	1.3636	0.1	768.
22410	2.4948	1.2727	0.1	692.87
22411	2.4024	1.5455	0.1	858.18
22412	2.4948	1.4545	0.1	783.75
22413	2.4024	1.7273	0.1	939.03
22414	2.4948	1.6364	0.1	866.3
22415	2.4024	1.9091	0.1	1009.8
22416	2.4948	1.8182	0.1	939.62
22417	2.4024	2.0909	0.1	1070.
22418	2.4948	2.	0.1	1003.1
22419	2.4024	2.2727	0.1	1119.3
22420	2.4948	2.1818	0.1	1056.3
22421	2.4024	2.4545	0.1	1157.7
22422	2.4948	2.3636	0.1	1098.9
22423	2.4024	2.6364	0.1	1185.1
22424	2.4948	2.5455	0.1	1131.
22425	2.4024	2.8182	0.1	1201.5
22426	2.4948	2.7273	0.1	1152.3
22427	2.4024	3.	0.1	1207.
22428	2.4948	2.9091	0.1	1163.
22429	2.4024	3.1818	0.1	1201.5
22430	2.4948	3.0909	0.1	1163.
22431	2.4024	3.3636	0.1	1185.1
22432	2.4948	3.2727	0.1	1152.3
22433	2.4024	3.5455	0.1	1157.7
22434	2.4948	3.4545	0.1	1131.
22435	2.4024	3.7273	0.1	1119.3
22436	2.4948	3.6364	0.1	1098.9
22437	2.4024	3.9091	0.1	1070.
22438	2.4948	3.8182	0.1	1056.3
22439	2.4024	4.0909	0.1	1009.8
22440	2.4948	4.	0.1	1003.1
22441	2.4024	4.2727	0.1	939.03
22442	2.4948	4.1818	0.1	939.62
22443	2.4024	4.4545	0.1	858.18
22444	2.4948	4.3636	0.1	866.3
22445	2.4024	4.6364	0.1	768.
22446	2.4948	4.5455	0.1	783.75
22447	2.4024	4.8182	0.1	669.56
22448	2.4948	4.7273	0.1	692.87
22449	2.4024	5.	0.1	564.23
22450	2.4948	4.9091	0.1	594.84
22451	2.4024	5.1818	0.1	453.69
22452	2.4948	5.0909	0.1	491.11
22453	2.4024	5.3636	0.1	339.85
22454	2.4948	5.2727	0.1	383.36
22455	2.4024	5.5455	0.1	224.38
22456	2.4948	5.4545	0.1	273.39
22457	2.4024	5.7273	0.1	106.44
22458	2.4948	5.6364	0.1	162.46
22459	2.4948	5.8182	0.1	48.664
22460	2.4024	5.9091	0.1	19.93
22461	2.5872	0.27273	0.1	103.43
22462	2.6796	0.18182	0.1	50.109
22463	2.5872	9.0909e-002	0.1	22.135
22464	2.5872	0.45455	0.1	211.21
22465	2.6796	0.36364	0.1	154.34
22466	2.5872	0.63636	0.1	316.69
22467	2.6796	0.54545	0.1	255.88
22468	2.5872	0.81818	0.1	420.6
22469	2.6796	0.72727	0.1	356.37
22470	2.5872	1.	0.1	521.59
22471	2.6796	0.90909	0.1	454.82
22472	2.5872	1.1818	0.1	618.07
22473	2.6796	1.0909	0.1	549.72
22474	2.5872	1.3636	0.1	708.59
22475	2.6796	1.2727	0.1	639.66
22476	2.5872	1.5455	0.1	791.89
22477	2.6796	1.4545	0.1	723.35
22478	2.5872	1.7273	0.1	866.97
22479	2.6796	1.6364	0.1	799.71
22480	2.5872	1.9091	0.1	933.03
22481	2.6796	1.8182	0.1	867.85
22482	2.5872	2.0909	0.1	989.51
22483	2.6796	2.	0.1	927.1
22484	2.5872	2.2727	0.1	1036.
22485	2.6796	2.1818	0.1	976.99
22486	2.5872	2.4545	0.1	1072.4
22487	2.6796	2.3636	0.1	1017.2
22488	2.5872	2.6364	0.1	1098.4
22489	2.6796	2.5455	0.1	1047.5
22490	2.5872	2.8182	0.1	1114.
22491	2.6796	2.7273	0.1	1067.7
22492	2.5872	3.	0.1	1119.3
22493	2.6796	2.9091	0.1	1077.8
22494	2.5872	3.1818	0.1	1114.
22495	2.6796	3.0909	0.1	1077.8
22496	2.5872	3.3636	0.1	1098.4
22497	2.6796	3.2727	0.1	1067.7
22498	2.5872	3.5455	0.1	1072.4
22499	2.6796	3.4545	0.1	1047.5
22500	2.5872	3.7273	0.1	1036.
22501	2.6796	3.6364	0.1	1017.2
22502	2.5872	3.9091	0.1	989.51
22503	2.6796	3.8182	0.1	976.99
22504	2.5872	4.0909	0.1	933.03
22505	2.6796	4.	0.1	927.1
22506	2.5872	4.2727	0.1	866.97
22507	2.6796	4.1818	0.1	867.85
22508	2.5872	4.4545	0.1	791.89
22509	2.6796	4.3636	0.1	799.71
22510	2.5872	4.6364	0.1	708.59
22511	2.6796	4.5455	0.1	723.35
22512	2.5872	4.8182	0.1	618.07
22513	2.6796	4.7273	0.1	639.66
22514	2.5872	5.	0.1	521.59
22515	2.6796	4.9091	0.1	549.72
22516	2.5872	5.1818	0.1	420.6
22517	2.6796	5.0909	0.1	454.82
22518	2.5872	5.3636	0.1	316.69
22519	2.6796	5.2727	0.1	356.37
22520	2.5872	5.5455	0.1	211.21
22521	2.6796	5.4545	0.1	255.88
22522	2.5872	5.7273	0.1	103.43
22523	2.6796	5.6364	0.1	154.34
22524	2.6796	5.8182	0.1	50.109
22525	2.5872	5.9091	0.1	22.135
22526	2.772	0.27273	0.1	100.07
22527	2.8644	0.18182	0.1	50.805
22528	2.772	9.0909e-002	0.1	23.666
22529	2.772	0.45455	0.1	198.79
22530	2.8644	0.36364	0.1	146.42
22531	2.772	0.63636	0.1	295.38
22532	2.8644	0.54545	0.1	239.56
22533	2.772	0.81818	0.1	390.43
22534	2.8644	0.72727	0.1	331.58
22535	2.772	1.	0.1	482.83
22536	2.8644	0.90909	0.1	421.68
22537	2.772	1.1818	0.1	571.23
22538	2.8644	1.0909	0.1	508.59
22539	2.772	1.3636	0.1	654.38
22540	2.8644	1.2727	0.1	591.09
22541	2.772	1.5455	0.1	731.17
22542	2.8644	1.4545	0.1	668.05
22543	2.772	1.7273	0.1	800.64
22544	2.8644	1.6364	0.1	738.5
22545	2.772	1.9091	0.1	862.02
22546	2.8644	1.8182	0.1	801.59
22547	2.772	2.0909	0.1	914.71
22548	2.8644	2.	0.1	856.66
22549	2.772	2.2727	0.1	958.28
22550	2.8644	2.1818	0.1	903.18
22551	2.772	2.4545	0.1	992.42
22552	2.8644	2.3636	0.1	940.77
22553	2.772	2.6364	0.1	1016.9
22554	2.8644	2.5455	0.1	969.17
22555	2.772	2.8182	0.1	1031.7
22556	2.8644	2.7273	0.1	988.19
22557	2.772	3.	0.1	1036.6
22558	2.8644	2.9091	0.1	997.72
22559	2.772	3.1818	0.1	1031.7
22560	2.8644	3.0909	0.1	997.72
22561	2.772	3.3636	0.1	1016.9
22562	2.8644	3.2727	0.1	988.19
22563	2.772	3.5455	0.1	992.42
22564	2.8644	3.4545	0.1	969.17
22565	2.772	3.7273	0.1	958.28
22566	2.8644	3.6364	0.1	940.77
22567	2.772	3.9091	0.1	914.71
22568	2.8644	3.8182	0.1	903.18
22569	2.772	4.0909	0.1	862.02
22570	2.8644	4.	0.1	856.66
22571	2.772	4.2727	0.1	800.64
22572	2.8644	4.1818	0.1	801.59
22573	2.772	4.4545	0.1	731.17
22574	2.8644	4.3636	0.1	738.5
22575	2.772	4.6364	0.1	654.38
22576	2.8644	4.5455	0.1	668.05
22577	2.772	4.8182	0.1	571.23
22578	2.8644	4.7273	0.1	591.09
22579	2.772	5.	0.1	482.83
22580	2.8644	4.9091	0.1	508.59
22581	2.772	5.1818	0.1	390.43
22582	2.8644	5.0909	0.1	421.68
22583	2.772	5.3636	0.1	295.38
22584	2.8644	5.2727	0.1	331.58
22585	2.772	5.5455	0.1	198.79
22586	2.8644	5.4545	0.1	239.56
22587	2.772	5.7273	0.1	100.07
22588	2.8644	5.6364	0.1	146.42
22589	2.8644	5.8182	0.1	50.805
22590	2.772	5.9091	0.1	23.666
22591	2.9568	0.27273	0.1	96.413
22592	3.0492	0.18182	0.1	50.85
22593	2.9568	9.0909e-002	0.1	24.63
22594	2.9568	0.45455	0.1	187.
22595	3.0492	0.36364	0.1	138.67
22596	2.9568	0.63636	0.1	275.61
22597	3.0492	0.54545	0.1	224.25
22598	2.9568	0.81818	0.1	362.69
22599	3.0492	0.72727	0.1	308.65
22600	2.9568	1.	0.1	447.32
22601	3.0492	0.90909	0.1	391.21
22602	2.9568	1.1818	0.1	528.36
22603	3.0492	1.0909	0.1	470.85
22604	2.9568	1.3636	0.1	604.71
22605	3.0492	1.2727	0.1	546.53
22606	2.9568	1.5455	0.1	675.38
22607	3.0492	1.4545	0.1	617.26
22608	2.9568	1.7273	0.1	739.49
22609	3.0492	1.6364	0.1	682.13
22610	2.9568	1.9091	0.1	796.31
22611	3.0492	1.8182	0.1	740.38
22612	2.9568	2.0909	0.1	845.24
22613	3.0492	2.	0.1	791.36
22614	2.9568	2.2727	0.1	885.81
22615	3.0492	2.1818	0.1	834.54
22616	2.9568	2.4545	0.1	917.68
22617	3.0492	2.3636	0.1	869.52
22618	2.9568	2.6364	0.1	940.6
22619	3.0492	2.5455	0.1	895.99
22620	2.9568	2.8182	0.1	954.41
22621	3.0492	2.7273	0.1	913.75
22622	2.9568	3.	0.1	959.03
22623	3.0492	2.9091	0.1	922.66
22624	2.9568	3.1818	0.1	954.41
22625	3.0492	3.0909	0.1	922.66
22626	2.9568	3.3636	0.1	940.6
22627	3.0492	3.2727	0.1	913.75
22628	2.9568	3.5455	0.1	917.68
22629	3.0492	3.4545	0.1	895.99
22630	2.9568	3.7273	0.1	885.81
22631	3.0492	3.6364	0.1	869.52
22632	2.9568	3.9091	0.1	845.24
22633	3.0492	3.8182	0.1	834.54
22634	2.9568	4.0909	0.1	796.31
22635	3.0492	4.	0.1	791.36
22636	2.9568	4.2727	0.1	739.49
22637	3.0492	4.1818	0.1	740.38
22638	2.9568	4.4545	0.1	675.38
22639	3.0492	4.3636	0.1	682.13
22640	2.9568	4.6364	0.1	604.71
22641	3.0492	4.5455	0.1	617.26
22642	2.9568	4.8182	0.1	528.36
22643	3.0492	4.7273	0.1	546.53
22644	2.9568	5.	0.1	447.32
22645	3.0492	4.9091	0.1	470.85
22646	2.9568	5.1818	0.1	362.69
22647	3.0492	5.0909	0.1	391.21
22648	2.9568	5.3636	0.1	275.61
22649	3.0492	5.2727	0.1	308.65
22650	2.9568	5.5455	0.1	187.
22651	3.0492	5.4545	0.1	224.25
22652	2.9568	5.7273	0.1	96.413
22653	3.0492	5.6364	0.1	138.67
22654	3.0492	5.8182	0.1	50.85
22655	2.9568	5.9091	0.1	24.63
22656	3.1416	0.27273	0.1	92.515
22657	3.234	0.18182	0.1	50.344
22658	3.1416	9.0909e-002	0.1	25.117
22659	3.1416	0.45455	0.1	175.75
22660	3.234	0.36364	0.1	131.08
22661	3.1416	0.63636	0.1	257.15
22662	3.234	0.54545	0.1	209.8
22663	3.1416	0.81818	0.1	337.04
22664	3.234	0.72727	0.1	287.31
22665	3.1416	1.	0.1	414.63
22666	3.234	0.90909	0.1	363.05
22667	3.1416	1.1818	0.1	488.94
22668	3.234	1.0909	0.1	436.08
22669	3.1416	1.3636	0.1	559.02
22670	3.234	1.2727	0.1	505.51
22671	3.1416	1.5455	0.1	623.99
22672	3.234	1.4545	0.1	570.46
22673	3.1416	1.7273	0.1	683.04
22674	3.234	1.6364	0.1	630.12
22675	3.1416	1.9091	0.1	735.49
22676	3.234	1.8182	0.1	683.79
22677	3.1416	2.0909	0.1	780.76
22678	3.234	2.	0.1	730.85
22679	3.1416	2.2727	0.1	818.37
22680	3.234	2.1818	0.1	770.79
22681	3.1416	2.4545	0.1	847.97
22682	3.234	2.3636	0.1	803.2
22683	3.1416	2.6364	0.1	869.3
22684	3.234	2.5455	0.1	827.76
22685	3.1416	2.8182	0.1	882.16
22686	3.234	2.7273	0.1	844.26
22687	3.1416	3.	0.1	886.46
22688	3.234	2.9091	0.1	852.54
22689	3.1416	3.1818	0.1	882.16
22690	3.234	3.0909	0.1	852.54
22691	3.1416	3.3636	0.1	869.3
22692	3.234	3.2727	0.1	844.26
22693	3.1416	3.5455	0.1	847.97
22694	3.234	3.4545	0.1	827.76
22695	3.1416	3.7273	0.1	818.37
22696	3.234	3.6364	0.1	803.2
22697	3.1416	3.9091	0.1	780.76
22698	3.234	3.8182	0.1	770.79
22699	3.1416	4.0909	0.1	735.49
22700	3.234	4.	0.1	730.85
22701	3.1416	4.2727	0.1	683.04
22702	3.234	4.1818	0.1	683.79
22703	3.1416	4.4545	0.1	623.99
22704	3.234	4.3636	0.1	630.12
22705	3.1416	4.6364	0.1	559.02
22706	3.234	4.5455	0.1	570.46
22707	3.1416	4.8182	0.1	488.94
22708	3.234	4.7273	0.1	505.51
22709	3.1416	5.	0.1	414.63
22710	3.234	4.9091	0.1	436.08
22711	3.1416	5.1818	0.1	337.04
22712	3.234	5.0909	0.1	363.05
22713	3.1416	5.3636	0.1	257.15
22714	3.234	5.2727	0.1	287.31
22715	3.1416	5.5455	0.1	175.75
22716	3.234	5.4545	0.1	209.8
22717	3.1416	5.7273	0.1	92.515
22718	3.234	5.6364	0.1	131.08
22719	3.234	5.8182	0.1	50.344
22720	3.1416	5.9091	0.1	25.117
22721	3.3264	0.27273	0.1	88.431
22722	3.4188	0.18182	0.1	49.378
22723	3.3264	9.0909e-002	0.1	25.209
22724	3.3264	0.45455	0.1	164.99
22725	3.4188	0.36364	0.1	123.66
22726	3.3264	0.63636	0.1	239.84
22727	3.4188	0.54545	0.1	196.14
22728	3.3264	0.81818	0.1	313.21
22729	3.4188	0.72727	0.1	267.39
22730	3.3264	1.	0.1	384.4
22731	3.4188	0.90909	0.1	336.92
22732	3.3264	1.1818	0.1	452.57
22733	3.4188	1.0909	0.1	403.93
22734	3.3264	1.3636	0.1	516.89
22735	3.4188	1.2727	0.1	467.64
22736	3.3264	1.5455	0.1	576.57
22737	3.4188	1.4545	0.1	527.26
22738	3.3264	1.7273	0.1	630.88
22739	3.4188	1.6364	0.1	582.07
22740	3.3264	1.9091	0.1	679.19
22741	3.4188	1.8182	0.1	631.44
22742	3.3264	2.0909	0.1	720.95
22743	3.4188	2.	0.1	674.79
22744	3.3264	2.2727	0.1	755.71
22745	3.4188	2.1818	0.1	711.62
22746	3.3264	2.4545	0.1	783.1
22747	3.4188	2.3636	0.1	741.55
22748	3.3264	2.6364	0.1	802.85
22749	3.4188	2.5455	0.1	764.26
22750	3.3264	2.8182	0.1	814.77
22751	3.4188	2.7273	0.1	779.53
22752	3.3264	3.	0.1	818.76
22753	3.4188	2.9091	0.1	787.2
22754	3.3264	3.1818	0.1	814.77
22755	3.4188	3.0909	0.1	787.2
22756	3.3264	3.3636	0.1	802.85
22757	3.4188	3.2727	0.1	779.53
22758	3.3264	3.5455	0.1	783.1
22759	3.4188	3.4545	0.1	764.26
22760	3.3264	3.7273	0.1	755.71
22761	3.4188	3.6364	0.1	741.55
22762	3.3264	3.9091	0.1	720.95
22763	3.4188	3.8182	0.1	711.62
22764	3.3264	4.0909	0.1	679.19
22765	3.4188	4.	0.1	674.79
22766	3.3264	4.2727	0.1	630.88
22767	3.4188	4.1818	0.1	631.44
22768	3.3264	4.4545	0.1	576.57
22769	3.4188	4.3636	0.1	582.07
22770	3.3264	4.6364	0.1	516.89
22771	3.4188	4.5455	0.1	527.26
22772	3.3264	4.8182	0.1	452.57
22773	3.4188	4.7273	0.1	467.63
22774	3.3264	5.	0.1	384.4
22775	3.4188	4.9091	0.1	403.93
22776	3.3264	5.1818	0.1	313.21
22777	3.4188	5.0909	0.1	336.92
22778	3.3264	5.3636	0.1	239.84
22779	3.4188	5.2727	0.1	267.39
22780	3.3264	5.5455	0.1	164.99
22781	3.4188	5.4545	0.1	196.14
22782	3.3264	5.7273	0.1	88.431
22783	3.4188	5.6364	0.1	123.66
22784	3.4188	5.8182	0.1	49.377
22785	3.3264	5.9091	0.1	25.209
22786	3.5112	0.27273	0.1	84.214
22787	3.6036	0.18182	0.1	48.034
22788	3.5112	9.0909e-002	0.1	24.975
22789	3.5112	0.45455	0.1	154.68
22790	3.6036	0.36364	0.1	116.42
22791	3.5112	0.63636	0.1	223.57
22792	3.6036	0.54545	0.1	183.19
22793	3.5112	0.81818	0.1	291.
22794	3.6036	0.72727	0.1	248.73
22795	3.5112	1.	0.1	356.36
22796	3.6036	0.90909	0.1	312.61
22797	3.5112	1.1818	0.1	418.92
22798	3.6036	1.0909	0.1	374.13
22799	3.5112	1.3636	0.1	477.95
22800	3.6036	1.2727	0.1	432.59
22801	3.5112	1.5455	0.1	532.74
22802	3.6036	1.4545	0.1	487.3
22803	3.5112	1.7273	0.1	582.64
22804	3.6036	1.6364	0.1	537.64
22805	3.5112	1.9091	0.1	627.06
22806	3.6036	1.8182	0.1	583.
22807	3.5112	2.0909	0.1	665.51
22808	3.6036	2.	0.1	622.85
22809	3.5112	2.2727	0.1	697.54
22810	3.6036	2.1818	0.1	656.76
22811	3.5112	2.4545	0.1	722.81
22812	3.6036	2.3636	0.1	684.33
22813	3.5112	2.6364	0.1	741.04
22814	3.6036	2.5455	0.1	705.27
22815	3.5112	2.8182	0.1	752.06
22816	3.6036	2.7273	0.1	719.35
22817	3.5112	3.	0.1	755.75
22818	3.6036	2.9091	0.1	726.42
22819	3.5112	3.1818	0.1	752.06
22820	3.6036	3.0909	0.1	726.42
22821	3.5112	3.3636	0.1	741.04
22822	3.6036	3.2727	0.1	719.35
22823	3.5112	3.5455	0.1	722.81
22824	3.6036	3.4545	0.1	705.27
22825	3.5112	3.7273	0.1	697.54
22826	3.6036	3.6364	0.1	684.33
22827	3.5112	3.9091	0.1	665.51
22828	3.6036	3.8182	0.1	656.76
22829	3.5112	4.0909	0.1	627.06
22830	3.6036	4.	0.1	622.85
22831	3.5112	4.2727	0.1	582.64
22832	3.6036	4.1818	0.1	583.
22833	3.5112	4.4545	0.1	532.74
22834	3.6036	4.3636	0.1	537.64
22835	3.5112	4.6364	0.1	477.95
22836	3.6036	4.5455	0.1	487.3
22837	3.5112	4.8182	0.1	418.92
22838	3.6036	4.7273	0.1	432.59
22839	3.5112	5.	0.1	356.36
22840	3.6036	4.9091	0.1	374.13
22841	3.5112	5.1818	0.1	291.
22842	3.6036	5.0909	0.1	312.61
22843	3.5112	5.3636	0.1	223.57
22844	3.6036	5.2727	0.1	248.73
22845	3.5112	5.5455	0.1	154.68
22846	3.6036	5.4545	0.1	183.19
22847	3.5112	5.7273	0.1	84.214
22848	3.6036	5.6364	0.1	116.42
22849	3.6036	5.8182	0.1	48.033
22850	3.5112	5.9091	0.1	24.975
22851	3.696	0.27273	0.1	79.915
22852	3.7884	0.18182	0.1	46.386
22853	3.696	9.0909e-002	0.1	24.476
22854	3.696	0.45455	0.1	144.82
22855	3.7884	0.36364	0.1	109.38
22856	3.696	0.63636	0.1	208.26
22857	3.7884	0.54545	0.1	170.92
22858	3.696	0.81818	0.1	270.26
22859	3.7884	0.72727	0.1	231.24
22860	3.696	1.	0.1	330.3
22861	3.7884	0.90909	0.1	289.96
22862	3.696	1.1818	0.1	387.73
22863	3.7884	1.0909	0.1	346.45
22864	3.696	1.3636	0.1	441.9
22865	3.7884	1.2727	0.1	400.11
22866	3.696	1.5455	0.1	492.18
22867	3.7884	1.4545	0.1	450.32
22868	3.696	1.7273	0.1	537.99
22869	3.7884	1.6364	0.1	496.51
22870	3.696	1.9091	0.1	578.8
22871	3.7884	1.8182	0.1	538.15
22872	3.696	2.0909	0.1	614.14
22873	3.7884	2.	0.1	574.76
22874	3.696	2.2727	0.1	643.6
22875	3.7884	2.1818	0.1	605.91
22876	3.696	2.4545	0.1	666.86
22877	3.7884	2.3636	0.1	631.26
22878	3.696	2.6364	0.1	683.65
22879	3.7884	2.5455	0.1	650.53
22880	3.696	2.8182	0.1	693.8
22881	3.7884	2.7273	0.1	663.49
22882	3.696	3.	0.1	697.2
22883	3.7884	2.9091	0.1	670.
22884	3.696	3.1818	0.1	693.8
22885	3.7884	3.0909	0.1	670.
22886	3.696	3.3636	0.1	683.65
22887	3.7884	3.2727	0.1	663.49
22888	3.696	3.5455	0.1	666.86
22889	3.7884	3.4545	0.1	650.53
22890	3.696	3.7273	0.1	643.6
22891	3.7884	3.6364	0.1	631.26
22892	3.696	3.9091	0.1	614.14
22893	3.7884	3.8182	0.1	605.91
22894	3.696	4.0909	0.1	578.8
22895	3.7884	4.	0.1	574.76
22896	3.696	4.2727	0.1	537.99
22897	3.7884	4.1818	0.1	538.15
22898	3.696	4.4545	0.1	492.18
22899	3.7884	4.3636	0.1	496.51
22900	3.696	4.6364	0.1	441.9
22901	3.7884	4.5455	0.1	450.32
22902	3.696	4.8182	0.1	387.73
22903	3.7884	4.7273	0.1	400.11
22904	3.696	5.	0.1	330.3
22905	3.7884	4.9091	0.1	346.45
22906	3.696	5.1818	0.1	270.26
22907	3.7884	5.0909	0.1	289.96
22908	3.696	5.3636	0.1	208.26
22909	3.7884	5.2727	0.1	231.24
22910	3.696	5.5455	0.1	144.82
22911	3.7884	5.4545	0.1	170.92
22912	3.696	5.7273	0.1	79.914
22913	3.7884	5.6364	0.1	109.38
22914	3.7884	5.8182	0.1	46.386
22915	3.696	5.9091	0.1	24.476
22916	3.8808	0.27273	0.1	75.577
22917	3.9732	0.18182	0.1	44.502
22918	3.8808	9.0909e-002	0.1	23.763
22919	3.8808	0.45455	0.1	135.39
22920	3.9732	0.36364	0.1	102.54
22921	3.8808	0.63636	0.1	193.83
22922	3.9732	0.54545	0.1	159.29
22923	3.8808	0.81818	0.1	250.87
22924	3.9732	0.72727	0.1	214.83
22925	3.8808	1.	0.1	306.04
22926	3.9732	0.90909	0.1	268.82
22927	3.8808	1.1818	0.1	358.77
22928	3.9732	1.0909	0.1	320.72
22929	3.8808	1.3636	0.1	408.48
22930	3.9732	1.2727	0.1	369.97
22931	3.8808	1.5455	0.1	454.62
22932	3.9732	1.4545	0.1	416.04
22933	3.8808	1.7273	0.1	496.66
22934	3.9732	1.6364	0.1	458.42
22935	3.8808	1.9091	0.1	534.11
22936	3.9732	1.8182	0.1	496.63
22937	3.8808	2.0909	0.1	566.56
22938	3.9732	2.	0.1	530.22
22939	3.8808	2.2727	0.1	593.62
22940	3.9732	2.1818	0.1	558.82
22941	3.8808	2.4545	0.1	614.99
22942	3.9732	2.3636	0.1	582.1
22943	3.8808	2.6364	0.1	630.43
22944	3.9732	2.5455	0.1	599.79
22945	3.8808	2.8182	0.1	639.76
22946	3.9732	2.7273	0.1	611.7
22947	3.8808	3.	0.1	642.88
22948	3.9732	2.9091	0.1	617.68
22949	3.8808	3.1818	0.1	639.76
22950	3.9732	3.0909	0.1	617.68
22951	3.8808	3.3636	0.1	630.43
22952	3.9732	3.2727	0.1	611.7
22953	3.8808	3.5455	0.1	614.99
22954	3.9732	3.4545	0.1	599.79
22955	3.8808	3.7273	0.1	593.62
22956	3.9732	3.6364	0.1	582.1
22957	3.8808	3.9091	0.1	566.56
22958	3.9732	3.8182	0.1	558.82
22959	3.8808	4.0909	0.1	534.11
22960	3.9732	4.	0.1	530.22
22961	3.8808	4.2727	0.1	496.66
22962	3.9732	4.1818	0.1	496.63
22963	3.8808	4.4545	0.1	454.62
22964	3.9732	4.3636	0.1	458.42
22965	3.8808	4.6364	0.1	408.48
22966	3.9732	4.5455	0.1	416.04
22967	3.8808	4.8182	0.1	358.77
22968	3.9732	4.7273	0.1	369.97
22969	3.8808	5.	0.1	306.04
22970	3.9732	4.9091	0.1	320.72
22971	3.8808	5.1818	0.1	250.87
22972	3.9732	5.0909	0.1	268.82
22973	3.8808	5.3636	0.1	193.83
22974	3.9732	5.2727	0.1	214.83
22975	3.8808	5.5455	0.1	135.39
22976	3.9732	5.4545	0.1	159.29
22977	3.8808	5.7273	0.1	75.577
22978	3.9732	5.6364	0.1	102.54
22979	3.9732	5.8182	0.1	44.502
22980	3.8808	5.9091	0.1	23.763
22981	4.0656	0.27273	0.1	71.241
22982	4.158	0.18182	0.1	42.437
22983	4.0656	9.0909e-002	0.1	22.882
22984	4.0656	0.45455	0.1	126.37
22985	4.158	0.36364	0.1	95.939
22986	4.0656	0.63636	0.1	180.22
22987	4.158	0.54545	0.1	148.27
22988	4.0656	0.81818	0.1	232.72
22989	4.158	0.72727	0.1	199.42
22990	4.0656	1.	0.1	283.44
22991	4.158	0.90909	0.1	249.08
22992	4.0656	1.1818	0.1	331.86
22993	4.158	1.0909	0.1	296.77
22994	4.0656	1.3636	0.1	377.49
22995	4.158	1.2727	0.1	341.99
22996	4.0656	1.5455	0.1	419.82
22997	4.158	1.4545	0.1	384.27
22998	4.0656	1.7273	0.1	458.38
22999	4.158	1.6364	0.1	423.15
23000	4.0656	1.9091	0.1	492.74
23001	4.158	1.8182	0.1	458.19
23002	4.0656	2.0909	0.1	522.51
23003	4.158	2.	0.1	489.
23004	4.0656	2.2727	0.1	547.34
23005	4.158	2.1818	0.1	515.23
23006	4.0656	2.4545	0.1	566.95
23007	4.158	2.3636	0.1	536.58
23008	4.0656	2.6364	0.1	581.12
23009	4.158	2.5455	0.1	552.81
23010	4.0656	2.8182	0.1	589.68
23011	4.158	2.7273	0.1	563.74
23012	4.0656	3.	0.1	592.55
23013	4.158	2.9091	0.1	569.23
23014	4.0656	3.1818	0.1	589.68
23015	4.158	3.0909	0.1	569.23
23016	4.0656	3.3636	0.1	581.12
23017	4.158	3.2727	0.1	563.74
23018	4.0656	3.5455	0.1	566.95
23019	4.158	3.4545	0.1	552.81
23020	4.0656	3.7273	0.1	547.34
23021	4.158	3.6364	0.1	536.58
23022	4.0656	3.9091	0.1	522.51
23023	4.158	3.8182	0.1	515.23
23024	4.0656	4.0909	0.1	492.74
23025	4.158	4.	0.1	489.
23026	4.0656	4.2727	0.1	458.38
23027	4.158	4.1818	0.1	458.19
23028	4.0656	4.4545	0.1	419.82
23029	4.158	4.3636	0.1	423.15
23030	4.0656	4.6364	0.1	377.49
23031	4.158	4.5455	0.1	384.27
23032	4.0656	4.8182	0.1	331.86
23033	4.158	4.7273	0.1	341.99
23034	4.0656	5.	0.1	283.44
23035	4.158	4.9091	0.1	296.77
23036	4.0656	5.1818	0.1	232.72
23037	4.158	5.0909	0.1	249.08
23038	4.0656	5.3636	0.1	180.22
23039	4.158	5.2727	0.1	199.42
23040	4.0656	5.5455	0.1	126.37
23041	4.158	5.4545	0.1	148.27
23042	4.0656	5.7273	0.1	71.24
23043	4.158	5.6364	0.1	95.939
23044	4.158	5.8182	0.1	42.437
23045	4.0656	5.9091	0.1	22.882
23046	4.2504	0.27273	0.1	66.941
23047	4.3428	0.18182	0.1	40.242
23048	4.2504	9.0909e-002	0.1	21.871
23049	4.2504	0.45455	0.1	117.77
23050	4.3428	0.36364	0.1	89.572
23051	4.2504	0.63636	0.1	167.41
23052	4.3428	0.54545	0.1	137.84
23053	4.2504	0.81818	0.1	215.73
23054	4.3428	0.72727	0.1	184.96
23055	4.2504	1.	0.1	262.36
23056	4.3428	0.90909	0.1	230.65
23057	4.2504	1.1818	0.1	306.85
23058	4.3428	1.0909	0.1	274.48
23059	4.2504	1.3636	0.1	348.73
23060	4.3428	1.2727	0.1	316.
23061	4.2504	1.5455	0.1	387.57
23062	4.3428	1.4545	0.1	354.8
23063	4.2504	1.7273	0.1	422.94
23064	4.3428	1.6364	0.1	390.46
23065	4.2504	1.9091	0.1	454.44
23066	4.3428	1.8182	0.1	422.6
23067	4.2504	2.0909	0.1	481.73
23068	4.3428	2.	0.1	450.84
23069	4.2504	2.2727	0.1	504.5
23070	4.3428	2.1818	0.1	474.89
23071	4.2504	2.4545	0.1	522.48
23072	4.3428	2.3636	0.1	494.46
23073	4.2504	2.6364	0.1	535.48
23074	4.3428	2.5455	0.1	509.34
23075	4.2504	2.8182	0.1	543.33
23076	4.3428	2.7273	0.1	519.36
23077	4.2504	3.	0.1	545.96
23078	4.3428	2.9091	0.1	524.4
23079	4.2504	3.1818	0.1	543.33
23080	4.3428	3.0909	0.1	524.4
23081	4.2504	3.3636	0.1	535.48
23082	4.3428	3.2727	0.1	519.36
23083	4.2504	3.5455	0.1	522.48
23084	4.3428	3.4545	0.1	509.34
23085	4.2504	3.7273	0.1	504.5
23086	4.3428	3.6364	0.1	494.46
23087	4.2504	3.9091	0.1	481.73
23088	4.3428	3.8182	0.1	474.89
23089	4.2504	4.0909	0.1	454.44
23090	4.3428	4.	0.1	450.84
23091	4.2504	4.2727	0.1	422.94
23092	4.3428	4.1818	0.1	422.6
23093	4.2504	4.4545	0.1	387.57
23094	4.3428	4.3636	0.1	390.46
23095	4.2504	4.6364	0.1	348.73
23096	4.3428	4.5455	0.1	354.8
23097	4.2504	4.8182	0.1	306.85
23098	4.3428	4.7273	0.1	316.
23099	4.2504	5.	0.1	262.36
23100	4.3428	4.9091	0.1	274.48
23101	4.2504	5.1818	0.1	215.73
23102	4.3428	5.0909	0.1	230.65
23103	4.2504	5.3636	0.1	167.41
23104	4.3428	5.2727	0.1	184.96
23105	4.2504	5.5455	0.1	117.77
23106	4.3428	5.4545	0.1	137.84
23107	4.2504	5.7273	0.1	66.941
23108	4.3428	5.6364	0.1	89.572
23109	4.3428	5.8182	0.1	40.242
23110	4.2504	5.9091	0.1	21.871
23111	4.4352	0.27273	0.1	62.708
23112	4.5276	0.18182	0.1	37.959
23113	4.4352	9.0909e-002	0.1	20.763
23114	4.4352	0.45455	0.1	109.58
23115	4.5276	0.36364	0.1	83.454
23116	4.4352	0.63636	0.1	155.34
23117	4.5276	0.54545	0.1	127.98
23118	4.4352	0.81818	0.1	199.83
23119	4.5276	0.72727	0.1	171.39
23120	4.4352	1.	0.1	242.72
23121	4.5276	0.90909	0.1	213.43
23122	4.4352	1.1818	0.1	283.59
23123	4.5276	1.0909	0.1	253.72
23124	4.4352	1.3636	0.1	322.04
23125	4.5276	1.2727	0.1	291.86
23126	4.4352	1.5455	0.1	357.67
23127	4.5276	1.4545	0.1	327.47
23128	4.4352	1.7273	0.1	390.11
23129	4.5276	1.6364	0.1	360.18
23130	4.4352	1.9091	0.1	418.99
23131	4.5276	1.8182	0.1	389.65
23132	4.4352	2.0909	0.1	444.01
23133	4.5276	2.	0.1	415.54
23134	4.4352	2.2727	0.1	464.87
23135	4.5276	2.1818	0.1	437.58
23136	4.4352	2.4545	0.1	481.35
23137	4.5276	2.3636	0.1	455.51
23138	4.4352	2.6364	0.1	493.26
23139	4.5276	2.5455	0.1	469.15
23140	4.4352	2.8182	0.1	500.46
23141	4.5276	2.7273	0.1	478.32
23142	4.4352	3.	0.1	502.87
23143	4.5276	2.9091	0.1	482.94
23144	4.4352	3.1818	0.1	500.46
23145	4.5276	3.0909	0.1	482.94
23146	4.4352	3.3636	0.1	493.26
23147	4.5276	3.2727	0.1	478.32
23148	4.4352	3.5455	0.1	481.35
23149	4.5276	3.4545	0.1	469.15
23150	4.4352	3.7273	0.1	464.87
23151	4.5276	3.6364	0.1	455.51
23152	4.4352	3.9091	0.1	444.01
23153	4.5276	3.8182	0.1	437.58
23154	4.4352	4.0909	0.1	418.99
23155	4.5276	4.	0.1	415.54
23156	4.4352	4.2727	0.1	390.11
23157	4.5276	4.1818	0.1	389.65
23158	4.4352	4.4545	0.1	357.67
23159	4.5276	4.3636	0.1	360.18
23160	4.4352	4.6364	0.1	322.04
23161	4.5276	4.5455	0.1	327.47
23162	4.4352	4.8182	0.1	283.59
23163	4.5276	4.7273	0.1	291.86
23164	4.4352	5.	0.1	242.72
23165	4.5276	4.9091	0.1	253.72
23166	4.4352	5.1818	0.1	199.83
23167	4.5276	5.0909	0.1	213.43
23168	4.4352	5.3636	0.1	155.34
23169	4.5276	5.2727	0.1	171.39
23170	4.4352	5.5455	0.1	109.58
23171	4.5276	5.4545	0.1	127.98
23172	4.4352	5.7273	0.1	62.708
23173	4.5276	5.6364	0.1	83.454
23174	4.5276	5.8182	0.1	37.959
23175	4.4352	5.9091	0.1	20.763
23176	4.62	0.27273	0.1	58.566
23177	4.7124	0.18182	0.1	35.625
23178	4.62	9.0909e-002	0.1	19.586
23179	4.62	0.45455	0.1	101.8
23180	4.7124	0.36364	0.1	77.594
23181	4.62	0.63636	0.1	143.98
23182	4.7124	0.54545	0.1	118.66
23183	4.62	0.81818	0.1	184.95
23184	4.7124	0.72727	0.1	158.66
23185	4.62	1.	0.1	224.4
23186	4.7124	0.90909	0.1	197.36
23187	4.62	1.1818	0.1	261.96
23188	4.7124	1.0909	0.1	234.4
23189	4.62	1.3636	0.1	297.26
23190	4.7124	1.2727	0.1	269.44
23191	4.62	1.5455	0.1	329.96
23192	4.7124	1.4545	0.1	302.12
23193	4.62	1.7273	0.1	359.71
23194	4.7124	1.6364	0.1	332.13
23195	4.62	1.9091	0.1	386.19
23196	4.7124	1.8182	0.1	359.15
23197	4.62	2.0909	0.1	409.11
23198	4.7124	2.	0.1	382.88
23199	4.62	2.2727	0.1	428.23
23200	4.7124	2.1818	0.1	403.07
23201	4.62	2.4545	0.1	443.33
23202	4.7124	2.3636	0.1	419.5
23203	4.62	2.6364	0.1	454.23
23204	4.7124	2.5455	0.1	431.99
23205	4.62	2.8182	0.1	460.83
23206	4.7124	2.7273	0.1	440.4
23207	4.62	3.	0.1	463.03
23208	4.7124	2.9091	0.1	444.62
23209	4.62	3.1818	0.1	460.83
23210	4.7124	3.0909	0.1	444.62
23211	4.62	3.3636	0.1	454.23
23212	4.7124	3.2727	0.1	440.4
23213	4.62	3.5455	0.1	443.33
23214	4.7124	3.4545	0.1	431.99
23215	4.62	3.7273	0.1	428.23
23216	4.7124	3.6364	0.1	419.5
23217	4.62	3.9091	0.1	409.11
23218	4.7124	3.8182	0.1	403.07
23219	4.62	4.0909	0.1	386.19
23220	4.7124	4.	0.1	382.88
23221	4.62	4.2727	0.1	359.71
23222	4.7124	4.1818	0.1	359.15
23223	4.62	4.4545	0.1	329.96
23224	4.7124	4.3636	0.1	332.13
23225	4.62	4.6364	0.1	297.26
23226	4.7124	4.5455	0.1	302.12
23227	4.62	4.8182	0.1	261.96
23228	4.7124	4.7273	0.1	269.44
23229	4.62	5.	0.1	224.4
23230	4.7124	4.9091	0.1	234.4
23231	4.62	5.1818	0.1	184.95
23232	4.7124	5.0909	0.1	197.36
23233	4.62	5.3636	0.1	143.98
23234	4.7124	5.2727	0.1	158.66
23235	4.62	5.5455	0.1	101.8
23236	4.7124	5.4545	0.1	118.66
23237	4.62	5.7273	0.1	58.566
23238	4.7124	5.6364	0.1	77.594
23239	4.7124	5.8182	0.1	35.625
23240	4.62	5.9091	0.1	19.586
23241	4.8048	0.27273	0.1	54.534
23242	4.8972	0.18182	0.1	33.27
23243	4.8048	9.0909e-002	0.1	18.365
23244	4.8048	0.45455	0.1	94.414
23245	4.8972	0.36364	0.1	71.994
23246	4.8048	0.63636	0.1	133.3
23247	4.8972	0.54545	0.1	109.88
23248	4.8048	0.81818	0.1	171.03
23249	4.8972	0.72727	0.1	146.73
23250	4.8048	1.	0.1	207.32
23251	4.8972	0.90909	0.1	182.35
23252	4.8048	1.1818	0.1	241.84
23253	4.8972	1.0909	0.1	216.41
23254	4.8048	1.3636	0.1	274.27
23255	4.8972	1.2727	0.1	248.6
23256	4.8048	1.5455	0.1	304.27
23257	4.8972	1.4545	0.1	278.61
23258	4.8048	1.7273	0.1	331.56
23259	4.8972	1.6364	0.1	306.15
23260	4.8048	1.9091	0.1	355.83
23261	4.8972	1.8182	0.1	330.92
23262	4.8048	2.0909	0.1	376.84
23263	4.8972	2.	0.1	352.67
23264	4.8048	2.2727	0.1	394.35
23265	4.8972	2.1818	0.1	371.17
23266	4.8048	2.4545	0.1	408.18
23267	4.8972	2.3636	0.1	386.23
23268	4.8048	2.6364	0.1	418.17
23269	4.8972	2.5455	0.1	397.66
23270	4.8048	2.8182	0.1	424.21
23271	4.8972	2.7273	0.1	405.36
23272	4.8048	3.	0.1	426.23
23273	4.8972	2.9091	0.1	409.23
23274	4.8048	3.1818	0.1	424.21
23275	4.8972	3.0909	0.1	409.23
23276	4.8048	3.3636	0.1	418.17
23277	4.8972	3.2727	0.1	405.36
23278	4.8048	3.5455	0.1	408.18
23279	4.8972	3.4545	0.1	397.66
23280	4.8048	3.7273	0.1	394.35
23281	4.8972	3.6364	0.1	386.23
23282	4.8048	3.9091	0.1	376.84
23283	4.8972	3.8182	0.1	371.17
23284	4.8048	4.0909	0.1	355.83
23285	4.8972	4.	0.1	352.67
23286	4.8048	4.2727	0.1	331.56
23287	4.8972	4.1818	0.1	330.92
23288	4.8048	4.4545	0.1	304.27
23289	4.8972	4.3636	0.1	306.15
23290	4.8048	4.6364	0.1	274.27
23291	4.8972	4.5455	0.1	278.61
23292	4.8048	4.8182	0.1	241.84
23293	4.8972	4.7273	0.1	248.6
23294	4.8048	5.	0.1	207.32
23295	4.8972	4.9091	0.1	216.41
23296	4.8048	5.1818	0.1	171.03
23297	4.8972	5.0909	0.1	182.35
23298	4.8048	5.3636	0.1	133.3
23299	4.8972	5.2727	0.1	146.73
23300	4.8048	5.5455	0.1	94.414
23301	4.8972	5.4545	0.1	109.88
23302	4.8048	5.7273	0.1	54.534
23303	4.8972	5.6364	0.1	71.994
23304	4.8972	5.8182	0.1	33.27
23305	4.8048	5.9091	0.1	18.365
23306	4.9896	0.27273	0.1	50.629
23307	5.082	0.18182	0.1	30.92
23308	4.9896	9.0909e-002	0.1	17.117
23309	4.9896	0.45455	0.1	87.42
23310	5.082	0.36364	0.1	66.658
23311	4.9896	0.63636	0.1	123.27
23312	5.082	0.54545	0.1	101.6
23313	4.9896	0.81818	0.1	158.02
23314	5.082	0.72727	0.1	135.56
23315	4.9896	1.	0.1	191.41
23316	5.082	0.90909	0.1	168.35
23317	4.9896	1.1818	0.1	223.14
23318	5.082	1.0909	0.1	199.68
23319	4.9896	1.3636	0.1	252.93
23320	5.082	1.2727	0.1	229.26
23321	4.9896	1.5455	0.1	280.47
23322	5.082	1.4545	0.1	256.81
23323	4.9896	1.7273	0.1	305.49
23324	5.082	1.6364	0.1	282.08
23325	4.9896	1.9091	0.1	327.75
23326	5.082	1.8182	0.1	304.8
23327	4.9896	2.0909	0.1	347.
23328	5.082	2.	0.1	324.74
23329	4.9896	2.2727	0.1	363.05
23330	5.082	2.1818	0.1	341.69
23331	4.9896	2.4545	0.1	375.71
23332	5.082	2.3636	0.1	355.48
23333	4.9896	2.6364	0.1	384.86
23334	5.082	2.5455	0.1	365.95
23335	4.9896	2.8182	0.1	390.39
23336	5.082	2.7273	0.1	373.
23337	4.9896	3.	0.1	392.24
23338	5.082	2.9091	0.1	376.55
23339	4.9896	3.1818	0.1	390.39
23340	5.082	3.0909	0.1	376.55
23341	4.9896	3.3636	0.1	384.86
23342	5.082	3.2727	0.1	373.
23343	4.9896	3.5455	0.1	375.71
23344	5.082	3.4545	0.1	365.95
23345	4.9896	3.7273	0.1	363.05
23346	5.082	3.6364	0.1	355.48
23347	4.9896	3.9091	0.1	347.
23348	5.082	3.8182	0.1	341.69
23349	4.9896	4.0909	0.1	327.75
23350	5.082	4.	0.1	324.74
23351	4.9896	4.2727	0.1	305.49
23352	5.082	4.1818	0.1	304.8
23353	4.9896	4.4545	0.1	280.47
23354	5.082	4.3636	0.1	282.08
23355	4.9896	4.6364	0.1	252.93
23356	5.082	4.5455	0.1	256.81
23357	4.9896	4.8182	0.1	223.14
23358	5.082	4.7273	0.1	229.26
23359	4.9896	5.	0.1	191.41
23360	5.082	4.9091	0.1	199.68
23361	4.9896	5.1818	0.1	158.02
23362	5.082	5.0909	0.1	168.35
23363	4.9896	5.3636	0.1	123.27
23364	5.082	5.2727	0.1	135.56
23365	4.9896	5.5455	0.1	87.42
23366	5.082	5.4545	0.1	101.6
23367	4.9896	5.7273	0.1	50.629
23368	5.082	5.6364	0.1	66.658
23369	5.082	5.8182	0.1	30.92
23370	4.9896	5.9091	0.1	17.117
23371	5.1744	0.27273	0.1	46.863
23372	5.2668	0.18182	0.1	28.595
23373	5.1744	9.0909e-002	0.1	15.86
23374	5.1744	0.45455	0.1	80.808
23375	5.2668	0.36364	0.1	61.586
23376	5.1744	0.63636	0.1	113.86
23377	5.2668	0.54545	0.1	93.815
23378	5.1744	0.81818	0.1	145.86
23379	5.2668	0.72727	0.1	125.11
23380	5.1744	1.	0.1	176.59
23381	5.2668	0.90909	0.1	155.29
23382	5.1744	1.1818	0.1	205.76
23383	5.2668	1.0909	0.1	184.11
23384	5.1744	1.3636	0.1	233.12
23385	5.2668	1.2727	0.1	211.29
23386	5.1744	1.5455	0.1	258.41
23387	5.2668	1.4545	0.1	236.6
23388	5.1744	1.7273	0.1	281.37
23389	5.2668	1.6364	0.1	259.79
23390	5.1744	1.9091	0.1	301.77
23391	5.2668	1.8182	0.1	280.63
23392	5.1744	2.0909	0.1	319.42
23393	5.2668	2.	0.1	298.91
23394	5.1744	2.2727	0.1	334.12
23395	5.2668	2.1818	0.1	314.45
23396	5.1744	2.4545	0.1	345.73
23397	5.2668	2.3636	0.1	327.08
23398	5.1744	2.6364	0.1	354.1
23399	5.2668	2.5455	0.1	336.68
23400	5.1744	2.8182	0.1	359.17
23401	5.2668	2.7273	0.1	343.13
23402	5.1744	3.	0.1	360.86
23403	5.2668	2.9091	0.1	346.37
23404	5.1744	3.1818	0.1	359.17
23405	5.2668	3.0909	0.1	346.37
23406	5.1744	3.3636	0.1	354.1
23407	5.2668	3.2727	0.1	343.13
23408	5.1744	3.5455	0.1	345.73
23409	5.2668	3.4545	0.1	336.68
23410	5.1744	3.7273	0.1	334.12
23411	5.2668	3.6364	0.1	327.08
23412	5.1744	3.9091	0.1	319.42
23413	5.2668	3.8182	0.1	314.45
23414	5.1744	4.0909	0.1	301.77
23415	5.2668	4.	0.1	298.91
23416	5.1744	4.2727	0.1	281.37
23417	5.2668	4.1818	0.1	280.63
23418	5.1744	4.4545	0.1	258.41
23419	5.2668	4.3636	0.1	259.79
23420	5.1744	4.6364	0.1	233.12
23421	5.2668	4.5455	0.1	236.6
23422	5.1744	4.8182	0.1	205.76
23423	5.2668	4.7273	0.1	211.29
23424	5.1744	5.	0.1	176.59
23425	5.2668	4.9091	0.1	184.11
23426	5.1744	5.1818	0.1	145.86
23427	5.2668	5.0909	0.1	155.29
23428	5.1744	5.3636	0.1	113.86
23429	5.2668	5.2727	0.1	125.11
23430	5.1744	5.5455	0.1	80.808
23431	5.2668	5.4545	0.1	93.815
23432	5.1744	5.7273	0.1	46.863
23433	5.2668	5.6364	0.1	61.586
23434	5.2668	5.8182	0.1	28.595
23435	5.1744	5.9091	0.1	15.86
23436	5.3592	0.27273	0.1	43.245
23437	5.4516	0.18182	0.1	26.312
23438	5.3592	9.0909e-002	0.1	14.608
23439	5.3592	0.45455	0.1	74.567
23440	5.4516	0.36364	0.1	56.774
23441	5.3592	0.63636	0.1	105.04
23442	5.4516	0.54545	0.1	86.499
23443	5.3592	0.81818	0.1	134.51
23444	5.4516	0.72727	0.1	115.33
23445	5.3592	1.	0.1	162.79
23446	5.4516	0.90909	0.1	143.12
23447	5.3592	1.1818	0.1	189.62
23448	5.4516	1.0909	0.1	169.63
23449	5.3592	1.3636	0.1	214.75
23450	5.4516	1.2727	0.1	194.62
23451	5.3592	1.5455	0.1	237.97
23452	5.4516	1.4545	0.1	217.87
23453	5.3592	1.7273	0.1	259.04
23454	5.4516	1.6364	0.1	239.15
23455	5.3592	1.9091	0.1	277.75
23456	5.4516	1.8182	0.1	258.27
23457	5.3592	2.0909	0.1	293.93
23458	5.4516	2.	0.1	275.03
23459	5.3592	2.2727	0.1	307.4
23460	5.4516	2.1818	0.1	289.28
23461	5.3592	2.4545	0.1	318.03
23462	5.4516	2.3636	0.1	300.85
23463	5.3592	2.6364	0.1	325.71
23464	5.4516	2.5455	0.1	309.64
23465	5.3592	2.8182	0.1	330.34
23466	5.4516	2.7273	0.1	315.55
23467	5.3592	3.	0.1	331.89
23468	5.4516	2.9091	0.1	318.53
23469	5.3592	3.1818	0.1	330.34
23470	5.4516	3.0909	0.1	318.53
23471	5.3592	3.3636	0.1	325.71
23472	5.4516	3.2727	0.1	315.55
23473	5.3592	3.5455	0.1	318.03
23474	5.4516	3.4545	0.1	309.64
23475	5.3592	3.7273	0.1	307.4
23476	5.4516	3.6364	0.1	300.85
23477	5.3592	3.9091	0.1	293.93
23478	5.4516	3.8182	0.1	289.28
23479	5.3592	4.0909	0.1	277.75
23480	5.4516	4.	0.1	275.03
23481	5.3592	4.2727	0.1	259.04
23482	5.4516	4.1818	0.1	258.27
23483	5.3592	4.4545	0.1	237.97
23484	5.4516	4.3636	0.1	239.15
23485	5.3592	4.6364	0.1	214.75
23486	5.4516	4.5455	0.1	217.87
23487	5.3592	4.8182	0.1	189.62
23488	5.4516	4.7273	0.1	194.62
23489	5.3592	5.	0.1	162.79
23490	5.4516	4.9091	0.1	169.63
23491	5.3592	5.1818	0.1	134.51
23492	5.4516	5.0909	0.1	143.12
23493	5.3592	5.3636	0.1	105.04
23494	5.4516	5.2727	0.1	115.33
23495	5.3592	5.5455	0.1	74.567
23496	5.4516	5.4545	0.1	86.499
23497	5.3592	5.7273	0.1	43.245
23498	5.4516	5.6364	0.1	56.774
23499	5.4516	5.8182	0.1	26.312
23500	5.3592	5.9091	0.1	14.608
23501	5.544	0.27273	0.1	39.78
23502	5.6364	0.18182	0.1	24.084
23503	5.544	9.0909e-002	0.1	13.37
23504	5.544	0.45455	0.1	68.685
23505	5.6364	0.36364	0.1	52.219
23506	5.544	0.63636	0.1	96.775
23507	5.6364	0.54545	0.1	79.632
23508	5.544	0.81818	0.1	123.92
23509	5.6364	0.72727	0.1	106.2
23510	5.544	1.	0.1	149.95
23511	5.6364	0.90909	0.1	131.79
23512	5.544	1.1818	0.1	174.62
23513	5.6364	1.0909	0.1	156.17
23514	5.544	1.3636	0.1	197.72
23515	5.6364	1.2727	0.1	179.15
23516	5.544	1.5455	0.1	219.04
23517	5.6364	1.4545	0.1	200.5
23518	5.544	1.7273	0.1	238.37
23519	5.6364	1.6364	0.1	220.05
23520	5.544	1.9091	0.1	255.54
23521	5.6364	1.8182	0.1	237.59
23522	5.544	2.0909	0.1	270.38
23523	5.6364	2.	0.1	252.97
23524	5.544	2.2727	0.1	282.72
23525	5.6364	2.1818	0.1	266.02
23526	5.544	2.4545	0.1	292.46
23527	5.6364	2.3636	0.1	276.63
23528	5.544	2.6364	0.1	299.49
23529	5.6364	2.5455	0.1	284.69
23530	5.544	2.8182	0.1	303.74
23531	5.6364	2.7273	0.1	290.1
23532	5.544	3.	0.1	305.16
23533	5.6364	2.9091	0.1	292.83
23534	5.544	3.1818	0.1	303.74
23535	5.6364	3.0909	0.1	292.83
23536	5.544	3.3636	0.1	299.49
23537	5.6364	3.2727	0.1	290.1
23538	5.544	3.5455	0.1	292.46
23539	5.6364	3.4545	0.1	284.69
23540	5.544	3.7273	0.1	282.72
23541	5.6364	3.6364	0.1	276.63
23542	5.544	3.9091	0.1	270.38
23543	5.6364	3.8182	0.1	266.02
23544	5.544	4.0909	0.1	255.54
23545	5.6364	4.	0.1	252.97
23546	5.544	4.2727	0.1	238.37
23547	5.6364	4.1818	0.1	237.59
23548	5.544	4.4545	0.1	219.04
23549	5.6364	4.3636	0.1	220.05
23550	5.544	4.6364	0.1	197.72
23551	5.6364	4.5455	0.1	200.5
23552	5.544	4.8182	0.1	174.62
23553	5.6364	4.7273	0.1	179.15
23554	5.544	5.	0.1	149.95
23555	5.6364	4.9091	0.1	156.17
23556	5.544	5.1818	0.1	123.92
23557	5.6364	5.0909	0.1	131.79
23558	5.544	5.3636	0.1	96.775
23559	5.6364	5.2727	0.1	106.2
23560	5.544	5.5455	0.1	68.685
23561	5.6364	5.4545	0.1	79.632
23562	5.544	5.7273	0.1	39.78
23563	5.6364	5.6364	0.1	52.219
23564	5.6364	5.8182	0.1	24.084
23565	5.544	5.9091	0.1	13.37
23566	5.7288	0.27273	0.1	36.473
23567	5.8212	0.18182	0.1	21.922
23568	5.7288	9.0909e-002	0.1	12.156
23569	5.7288	0.45455	0.1	63.149
23570	5.8212	0.36364	0.1	47.915
23571	5.7288	0.63636	0.1	89.043
23572	5.8212	0.54545	0.1	73.195
23573	5.7288	0.81818	0.1	114.05
23574	5.8212	0.72727	0.1	97.676
23575	5.7288	1.	0.1	138.
23576	5.8212	0.90909	0.1	121.24
23577	5.7288	1.1818	0.1	160.69
23578	5.8212	1.0909	0.1	143.67
23579	5.7288	1.3636	0.1	181.92
23580	5.8212	1.2727	0.1	164.8
23581	5.7288	1.5455	0.1	201.5
23582	5.8212	1.4545	0.1	184.42
23583	5.7288	1.7273	0.1	219.25
23584	5.8212	1.6364	0.1	202.36
23585	5.7288	1.9091	0.1	235.01
23586	5.8212	1.8182	0.1	218.47
23587	5.7288	2.0909	0.1	248.61
23588	5.8212	2.	0.1	232.57
23589	5.7288	2.2727	0.1	259.93
23590	5.8212	2.1818	0.1	244.55
23591	5.7288	2.4545	0.1	268.86
23592	5.8212	2.3636	0.1	254.27
23593	5.7288	2.6364	0.1	275.3
23594	5.8212	2.5455	0.1	261.66
23595	5.7288	2.8182	0.1	279.19
23596	5.8212	2.7273	0.1	266.62
23597	5.7288	3.	0.1	280.49
23598	5.8212	2.9091	0.1	269.11
23599	5.7288	3.1818	0.1	279.19
23600	5.8212	3.0909	0.1	269.11
23601	5.7288	3.3636	0.1	275.3
23602	5.8212	3.2727	0.1	266.62
23603	5.7288	3.5455	0.1	268.86
23604	5.8212	3.4545	0.1	261.66
23605	5.7288	3.7273	0.1	259.93
23606	5.8212	3.6364	0.1	254.27
23607	5.7288	3.9091	0.1	248.61
23608	5.8212	3.8182	0.1	244.55
23609	5.7288	4.0909	0.1	235.01
23610	5.8212	4.	0.1	232.57
23611	5.7288	4.2727	0.1	219.25
23612	5.8212	4.1818	0.1	218.47
23613	5.7288	4.4545	0.1	201.5
23614	5.8212	4.3636	0.1	202.36
23615	5.7288	4.6364	0.1	181.92
23616	5.8212	4.5455	0.1	184.42
23617	5.7288	4.8182	0.1	160.69
23618	5.8212	4.7273	0.1	164.8
23619	5.7288	5.	0.1	138.
23620	5.8212	4.9091	0.1	143.67
23621	5.7288	5.1818	0.1	114.05
23622	5.8212	5.0909	0.1	121.24
23623	5.7288	5.3636	0.1	89.043
23624	5.8212	5.2727	0.1	97.676
23625	5.7288	5.5455	0.1	63.149
23626	5.8212	5.4545	0.1	73.195
23627	5.7288	5.7273	0.1	36.473
23628	5.8212	5.6364	0.1	47.915
23629	5.8212	5.8182	0.1	21.922
23630	5.7288	5.9091	0.1	12.156
23631	5.9136	0.27273	0.1	33.323
23632	6.006	0.18182	0.1	19.833
23633	5.9136	9.0909e-002	0.1	10.973
23634	5.9136	0.45455	0.1	57.947
23635	6.006	0.36364	0.1	43.855
23636	5.9136	0.63636	0.1	81.816
23637	6.006	0.54545	0.1	67.166
23638	5.9136	0.81818	0.1	104.85
23639	6.006	0.72727	0.1	89.723
23640	5.9136	1.	0.1	126.89
23641	6.006	0.90909	0.1	111.42
23642	5.9136	1.1818	0.1	147.76
23643	6.006	1.0909	0.1	132.06
23644	5.9136	1.3636	0.1	167.28
23645	6.006	1.2727	0.1	151.48
23646	5.9136	1.5455	0.1	185.27
23647	6.006	1.4545	0.1	169.52
23648	5.9136	1.7273	0.1	201.57
23649	6.006	1.6364	0.1	186.
23650	5.9136	1.9091	0.1	216.02
23651	6.006	1.8182	0.1	200.78
23652	5.9136	2.0909	0.1	228.5
23653	6.006	2.	0.1	213.73
23654	5.9136	2.2727	0.1	238.89
23655	6.006	2.1818	0.1	224.71
23656	5.9136	2.4545	0.1	247.07
23657	6.006	2.3636	0.1	233.63
23658	5.9136	2.6364	0.1	252.98
23659	6.006	2.5455	0.1	240.4
23660	5.9136	2.8182	0.1	256.54
23661	6.006	2.7273	0.1	244.95
23662	5.9136	3.	0.1	257.73
23663	6.006	2.9091	0.1	247.23
23664	5.9136	3.1818	0.1	256.54
23665	6.006	3.0909	0.1	247.23
23666	5.9136	3.3636	0.1	252.98
23667	6.006	3.2727	0.1	244.95
23668	5.9136	3.5455	0.1	247.07
23669	6.006	3.4545	0.1	240.4
23670	5.9136	3.7273	0.1	238.89
23671	6.006	3.6364	0.1	233.63
23672	5.9136	3.9091	0.1	228.5
23673	6.006	3.8182	0.1	224.71
23674	5.9136	4.0909	0.1	216.02
23675	6.006	4.	0.1	213.73
23676	5.9136	4.2727	0.1	201.57
23677	6.006	4.1818	0.1	200.78
23678	5.9136	4.4545	0.1	185.27
23679	6.006	4.3636	0.1	186.
23680	5.9136	4.6364	0.1	167.28
23681	6.006	4.5455	0.1	169.52
23682	5.9136	4.8182	0.1	147.76
23683	6.006	4.7273	0.1	151.48
23684	5.9136	5.	0.1	126.89
23685	6.006	4.9091	0.1	132.06
23686	5.9136	5.1818	0.1	104.85
23687	6.006	5.0909	0.1	111.42
23688	5.9136	5.3636	0.1	81.816
23689	6.006	5.2727	0.1	89.723
23690	5.9136	5.5455	0.1	57.947
23691	6.006	5.4545	0.1	67.166
23692	5.9136	5.7273	0.1	33.323
23693	6.006	5.6364	0.1	43.855
23694	6.006	5.8182	0.1	19.833
23695	5.9136	5.9091	0.1	10.973
23696	6.0984	0.27273	0.1	30.331
23697	6.1908	0.18182	0.1	17.823
23698	6.0984	9.0909e-002	0.1	9.8253
23699	6.0984	0.45455	0.1	53.064
23700	6.1908	0.36364	0.1	40.031
23701	6.0984	0.63636	0.1	75.065
23702	6.1908	0.54545	0.1	61.525
23703	6.0984	0.81818	0.1	96.281
23704	6.1908	0.72727	0.1	82.309
23705	6.0984	1.	0.1	116.57
23706	6.1908	0.90909	0.1	102.28
23707	6.0984	1.1818	0.1	135.77
23708	6.1908	1.0909	0.1	121.28
23709	6.0984	1.3636	0.1	153.71
23710	6.1908	1.2727	0.1	139.14
23711	6.0984	1.5455	0.1	170.24
23712	6.1908	1.4545	0.1	155.72
23713	6.0984	1.7273	0.1	185.21
23714	6.1908	1.6364	0.1	170.86
23715	6.0984	1.9091	0.1	198.48
23716	6.1908	1.8182	0.1	184.43
23717	6.0984	2.0909	0.1	209.93
23718	6.1908	2.	0.1	196.32
23719	6.0984	2.2727	0.1	219.45
23720	6.1908	2.1818	0.1	206.39
23721	6.0984	2.4545	0.1	226.96
23722	6.1908	2.3636	0.1	214.58
23723	6.0984	2.6364	0.1	232.37
23724	6.1908	2.5455	0.1	220.78
23725	6.0984	2.8182	0.1	235.64
23726	6.1908	2.7273	0.1	224.95
23727	6.0984	3.	0.1	236.74
23728	6.1908	2.9091	0.1	227.05
23729	6.0984	3.1818	0.1	235.64
23730	6.1908	3.0909	0.1	227.05
23731	6.0984	3.3636	0.1	232.37
23732	6.1908	3.2727	0.1	224.95
23733	6.0984	3.5455	0.1	226.96
23734	6.1908	3.4545	0.1	220.78
23735	6.0984	3.7273	0.1	219.45
23736	6.1908	3.6364	0.1	214.58
23737	6.0984	3.9091	0.1	209.93
23738	6.1908	3.8182	0.1	206.39
23739	6.0984	4.0909	0.1	198.48
23740	6.1908	4.	0.1	196.32
23741	6.0984	4.2727	0.1	185.21
23742	6.1908	4.1818	0.1	184.43
23743	6.0984	4.4545	0.1	170.24
23744	6.1908	4.3636	0.1	170.86
23745	6.0984	4.6364	0.1	153.71
23746	6.1908	4.5455	0.1	155.72
23747	6.0984	4.8182	0.1	135.77
23748	6.1908	4.7273	0.1	139.14
23749	6.0984	5.	0.1	116.57
23750	6.1908	4.9091	0.1	121.28
23751	6.0984	5.1818	0.1	96.281
23752	6.1908	5.0909	0.1	102.28
23753	6.0984	5.3636	0.1	75.065
23754	6.1908	5.2727	0.1	82.309
23755	6.0984	5.5455	0.1	53.064
23756	6.1908	5.4545	0.1	61.525
23757	6.0984	5.7273	0.1	30.331
23758	6.1908	5.6364	0.1	40.031
23759	6.1908	5.8182	0.1	17.823
23760	6.0984	5.9091	0.1	9.8253
23761	6.2832	0.27273	0.1	27.495
23762	6.3756	0.18182	0.1	15.895
23763	6.2832	9.0909e-002	0.1	8.7174
23764	6.2832	0.45455	0.1	48.485
23765	6.3756	0.36364	0.1	36.434
23766	6.2832	0.63636	0.1	68.763
23767	6.3756	0.54545	0.1	56.252
23768	6.2832	0.81818	0.1	88.305
23769	6.3756	0.72727	0.1	75.401
23770	6.2832	1.	0.1	106.98
23771	6.3756	0.90909	0.1	93.794
23772	6.2832	1.1818	0.1	124.65
23773	6.3756	1.0909	0.1	111.28
23774	6.2832	1.3636	0.1	141.14
23775	6.3756	1.2727	0.1	127.71
23776	6.2832	1.5455	0.1	156.33
23777	6.3756	1.4545	0.1	142.94
23778	6.2832	1.7273	0.1	170.08
23779	6.3756	1.6364	0.1	156.86
23780	6.2832	1.9091	0.1	182.27
23781	6.3756	1.8182	0.1	169.32
23782	6.2832	2.0909	0.1	192.78
23783	6.3756	2.	0.1	180.23
23784	6.2832	2.2727	0.1	201.51
23785	6.3756	2.1818	0.1	189.48
23786	6.2832	2.4545	0.1	208.4
23787	6.3756	2.3636	0.1	196.99
23788	6.2832	2.6364	0.1	213.36
23789	6.3756	2.5455	0.1	202.68
23790	6.2832	2.8182	0.1	216.36
23791	6.3756	2.7273	0.1	206.5
23792	6.2832	3.	0.1	217.36
23793	6.3756	2.9091	0.1	208.43
23794	6.2832	3.1818	0.1	216.36
23795	6.3756	3.0909	0.1	208.43
23796	6.2832	3.3636	0.1	213.36
23797	6.3756	3.2727	0.1	206.5
23798	6.2832	3.5455	0.1	208.4
23799	6.3756	3.4545	0.1	202.68
23800	6.2832	3.7273	0.1	201.51
23801	6.3756	3.6364	0.1	196.99
23802	6.2832	3.9091	0.1	192.78
23803	6.3756	3.8182	0.1	189.48
23804	6.2832	4.0909	0.1	182.27
23805	6.3756	4.	0.1	180.23
23806	6.2832	4.2727	0.1	170.08
23807	6.3756	4.1818	0.1	169.32
23808	6.2832	4.4545	0.1	156.33
23809	6.3756	4.3636	0.1	156.86
23810	6.2832	4.6364	0.1	141.14
23811	6.3756	4.5455	0.1	142.94
23812	6.2832	4.8182	0.1	124.65
23813	6.3756	4.7273	0.1	127.71
23814	6.2832	5.	0.1	106.98
23815	6.3756	4.9091	0.1	111.28
23816	6.2832	5.1818	0.1	88.305
23817	6.3756	5.0909	0.1	93.794
23818	6.2832	5.3636	0.1	68.763
23819	6.3756	5.2727	0.1	75.401
23820	6.2832	5.5455	0.1	48.485
23821	6.3756	5.4545	0.1	56.252
23822	6.2832	5.7273	0.1	27.495
23823	6.3756	5.6364	0.1	36.434
23824	6.3756	5.8182	0.1	15.895
23825	6.2832	5.9091	0.1	8.7174
23826	6.468	0.27273	0.1	24.812
23827	6.5604	0.18182	0.1	14.052
23828	6.468	9.0909e-002	0.1	7.652
23829	6.468	0.45455	0.1	44.196
23830	6.5604	0.36364	0.1	33.054
23831	6.468	0.63636	0.1	62.886
23832	6.5604	0.54545	0.1	51.327
23833	6.468	0.81818	0.1	80.886
23834	6.5604	0.72727	0.1	68.969
23835	6.468	1.	0.1	98.081
23836	6.5604	0.90909	0.1	85.906
23837	6.468	1.1818	0.1	114.33
23838	6.5604	1.0909	0.1	102.
23839	6.468	1.3636	0.1	129.5
23840	6.5604	1.2727	0.1	117.11
23841	6.468	1.5455	0.1	143.46
23842	6.5604	1.4545	0.1	131.12
23843	6.468	1.7273	0.1	156.09
23844	6.5604	1.6364	0.1	143.9
23845	6.468	1.9091	0.1	167.28
23846	6.5604	1.8182	0.1	155.35
23847	6.468	2.0909	0.1	176.93
23848	6.5604	2.	0.1	165.37
23849	6.468	2.2727	0.1	184.95
23850	6.5604	2.1818	0.1	173.86
23851	6.468	2.4545	0.1	191.27
23852	6.5604	2.3636	0.1	180.75
23853	6.468	2.6364	0.1	195.82
23854	6.5604	2.5455	0.1	185.97
23855	6.468	2.8182	0.1	198.57
23856	6.5604	2.7273	0.1	189.48
23857	6.468	3.	0.1	199.49
23858	6.5604	2.9091	0.1	191.24
23859	6.468	3.1818	0.1	198.57
23860	6.5604	3.0909	0.1	191.24
23861	6.468	3.3636	0.1	195.82
23862	6.5604	3.2727	0.1	189.48
23863	6.468	3.5455	0.1	191.27
23864	6.5604	3.4545	0.1	185.97
23865	6.468	3.7273	0.1	184.95
23866	6.5604	3.6364	0.1	180.75
23867	6.468	3.9091	0.1	176.93
23868	6.5604	3.8182	0.1	173.86
23869	6.468	4.0909	0.1	167.28
23870	6.5604	4.	0.1	165.37
23871	6.468	4.2727	0.1	156.09
23872	6.5604	4.1818	0.1	155.35
23873	6.468	4.4545	0.1	143.46
23874	6.5604	4.3636	0.1	143.9
23875	6.468	4.6364	0.1	129.5
23876	6.5604	4.5455	0.1	131.12
23877	6.468	4.8182	0.1	114.33
23878	6.5604	4.7273	0.1	117.11
23879	6.468	5.	0.1	98.081
23880	6.5604	4.9091	0.1	102.
23881	6.468	5.1818	0.1	80.886
23882	6.5604	5.0909	0.1	85.906
23883	6.468	5.3636	0.1	62.886
23884	6.5604	5.2727	0.1	68.969
23885	6.468	5.5455	0.1	44.196
23886	6.5604	5.4545	0.1	51.327
23887	6.468	5.7273	0.1	24.812
23888	6.5604	5.6364	0.1	33.054
23889	6.5604	5.8182	0.1	14.052
23890	6.468	5.9091	0.1	7.652
23891	6.6528	0.27273	0.1	22.278
23892	6.7452	0.18182	0.1	12.295
23893	6.6528	9.0909e-002	0.1	6.6309
23894	6.6528	0.45455	0.1	40.183
23895	6.7452	0.36364	0.1	29.883
23896	6.6528	0.63636	0.1	57.408
23897	6.7452	0.54545	0.1	46.729
23898	6.6528	0.81818	0.1	73.987
23899	6.7452	0.72727	0.1	62.984
23900	6.6528	1.	0.1	89.817
23901	6.7452	0.90909	0.1	78.579
23902	6.6528	1.1818	0.1	104.77
23903	6.7452	1.0909	0.1	93.388
23904	6.6528	1.3636	0.1	118.72
23905	6.7452	1.2727	0.1	107.29
23906	6.6528	1.5455	0.1	131.55
23907	6.7452	1.4545	0.1	120.17
23908	6.6528	1.7273	0.1	143.16
23909	6.7452	1.6364	0.1	131.92
23910	6.6528	1.9091	0.1	153.44
23911	6.7452	1.8182	0.1	142.44
23912	6.6528	2.0909	0.1	162.3
23913	6.7452	2.	0.1	151.64
23914	6.6528	2.2727	0.1	169.66
23915	6.7452	2.1818	0.1	159.44
23916	6.6528	2.4545	0.1	175.45
23917	6.7452	2.3636	0.1	165.76
23918	6.6528	2.6364	0.1	179.63
23919	6.7452	2.5455	0.1	170.56
23920	6.6528	2.8182	0.1	182.16
23921	6.7452	2.7273	0.1	173.78
23922	6.6528	3.	0.1	183.
23923	6.7452	2.9091	0.1	175.39
23924	6.6528	3.1818	0.1	182.16
23925	6.7452	3.0909	0.1	175.39
23926	6.6528	3.3636	0.1	179.63
23927	6.7452	3.2727	0.1	173.78
23928	6.6528	3.5455	0.1	175.45
23929	6.7452	3.4545	0.1	170.56
23930	6.6528	3.7273	0.1	169.66
23931	6.7452	3.6364	0.1	165.76
23932	6.6528	3.9091	0.1	162.3
23933	6.7452	3.8182	0.1	159.44
23934	6.6528	4.0909	0.1	153.44
23935	6.7452	4.	0.1	151.64
23936	6.6528	4.2727	0.1	143.16
23937	6.7452	4.1818	0.1	142.44
23938	6.6528	4.4545	0.1	131.55
23939	6.7452	4.3636	0.1	131.92
23940	6.6528	4.6364	0.1	118.72
23941	6.7452	4.5455	0.1	120.17
23942	6.6528	4.8182	0.1	104.77
23943	6.7452	4.7273	0.1	107.29
23944	6.6528	5.	0.1	89.817
23945	6.7452	4.9091	0.1	93.388
23946	6.6528	5.1818	0.1	73.987
23947	6.7452	5.0909	0.1	78.579
23948	6.6528	5.3636	0.1	57.408
23949	6.7452	5.2727	0.1	62.984
23950	6.6528	5.5455	0.1	40.183
23951	6.7452	5.4545	0.1	46.729
23952	6.6528	5.7273	0.1	22.278
23953	6.7452	5.6364	0.1	29.883
23954	6.7452	5.8182	0.1	12.295
23955	6.6528	5.9091	0.1	6.6309
23956	6.8376	0.27273	0.1	19.888
23957	6.93	0.18182	0.1	10.623
23958	6.8376	9.0909e-002	0.1	5.6556
23959	6.8376	0.45455	0.1	36.43
23960	6.93	0.36364	0.1	26.91
23961	6.8376	0.63636	0.1	52.305
23962	6.93	0.54545	0.1	42.441
23963	6.8376	0.81818	0.1	67.575
23964	6.93	0.72727	0.1	57.416
23965	6.8376	1.	0.1	82.148
23966	6.93	0.90909	0.1	71.776
23967	6.8376	1.1818	0.1	95.907
23968	6.93	1.0909	0.1	85.406
23969	6.8376	1.3636	0.1	108.74
23970	6.93	1.2727	0.1	98.197
23971	6.8376	1.5455	0.1	120.54
23972	6.93	1.4545	0.1	110.04
23973	6.8376	1.7273	0.1	131.2
23974	6.93	1.6364	0.1	120.85
23975	6.8376	1.9091	0.1	140.65
23976	6.93	1.8182	0.1	130.51
23977	6.8376	2.0909	0.1	148.78
23978	6.93	2.	0.1	138.96
23979	6.8376	2.2727	0.1	155.54
23980	6.93	2.1818	0.1	146.12
23981	6.8376	2.4545	0.1	160.86
23982	6.93	2.3636	0.1	151.93
23983	6.8376	2.6364	0.1	164.7
23984	6.93	2.5455	0.1	156.33
23985	6.8376	2.8182	0.1	167.01
23986	6.93	2.7273	0.1	159.28
23987	6.8376	3.	0.1	167.79
23988	6.93	2.9091	0.1	160.77
23989	6.8376	3.1818	0.1	167.01
23990	6.93	3.0909	0.1	160.77
23991	6.8376	3.3636	0.1	164.7
23992	6.93	3.2727	0.1	159.28
23993	6.8376	3.5455	0.1	160.86
23994	6.93	3.4545	0.1	156.33
23995	6.8376	3.7273	0.1	155.54
23996	6.93	3.6364	0.1	151.93
23997	6.8376	3.9091	0.1	148.78
23998	6.93	3.8182	0.1	146.12
23999	6.8376	4.0909	0.1	140.65
24000	6.93	4.	0.1	138.96
24001	6.8376	4.2727	0.1	131.2
24002	6.93	4.1818	0.1	130.51
24003	6.8376	4.4545	0.1	120.54
24004	6.93	4.3636	0.1	120.85
24005	6.8376	4.6364	0.1	108.74
24006	6.93	4.5455	0.1	110.04
24007	6.8376	4.8182	0.1	95.907
24008	6.93	4.7273	0.1	98.197
24009	6.8376	5.	0.1	82.148
24010	6.93	4.9091	0.1	85.406
24011	6.8376	5.1818	0.1	67.575
24012	6.93	5.0909	0.1	71.776
24013	6.8376	5.3636	0.1	52.305
24014	6.93	5.2727	0.1	57.416
24015	6.8376	5.5455	0.1	36.43
24016	6.93	5.4545	0.1	42.441
24017	6.8376	5.7273	0.1	19.888
24018	6.93	5.6364	0.1	26.91
24019	6.93	5.8182	0.1	10.623
24020	6.8376	5.9091	0.1	5.6556
24021	7.0224	0.27273	0.1	17.636
24022	7.1148	0.18182	0.1	9.0371
24023	7.0224	9.0909e-002	0.1	4.7267
24024	7.0224	0.45455	0.1	32.924
24025	7.1148	0.36364	0.1	24.126
24026	7.0224	0.63636	0.1	47.554
24027	7.1148	0.54545	0.1	38.443
24028	7.0224	0.81818	0.1	61.618
24029	7.1148	0.72727	0.1	52.239
24030	7.0224	1.	0.1	75.035
24031	7.1148	0.90909	0.1	65.462
24032	7.0224	1.1818	0.1	87.696
24033	7.1148	1.0909	0.1	78.008
24034	7.0224	1.3636	0.1	99.5
24035	7.1148	1.2727	0.1	89.776
24036	7.0224	1.5455	0.1	110.35
24037	7.1148	1.4545	0.1	100.67
24038	7.0224	1.7273	0.1	120.15
24039	7.1148	1.6364	0.1	110.6
24040	7.0224	1.9091	0.1	128.83
24041	7.1148	1.8182	0.1	119.49
24042	7.0224	2.0909	0.1	136.3
24043	7.1148	2.	0.1	127.25
24044	7.0224	2.2727	0.1	142.51
24045	7.1148	2.1818	0.1	133.83
24046	7.0224	2.4545	0.1	147.4
24047	7.1148	2.3636	0.1	139.16
24048	7.0224	2.6364	0.1	150.92
24049	7.1148	2.5455	0.1	143.2
24050	7.0224	2.8182	0.1	153.04
24051	7.1148	2.7273	0.1	145.91
24052	7.0224	3.	0.1	153.75
24053	7.1148	2.9091	0.1	147.28
24054	7.0224	3.1818	0.1	153.04
24055	7.1148	3.0909	0.1	147.28
24056	7.0224	3.3636	0.1	150.92
24057	7.1148	3.2727	0.1	145.91
24058	7.0224	3.5455	0.1	147.4
24059	7.1148	3.4545	0.1	143.2
24060	7.0224	3.7273	0.1	142.51
24061	7.1148	3.6364	0.1	139.16
24062	7.0224	3.9091	0.1	136.3
24063	7.1148	3.8182	0.1	133.83
24064	7.0224	4.0909	0.1	128.83
24065	7.1148	4.	0.1	127.25
24066	7.0224	4.2727	0.1	120.15
24067	7.1148	4.1818	0.1	119.49
24068	7.0224	4.4545	0.1	110.35
24069	7.1148	4.3636	0.1	110.6
24070	7.0224	4.6364	0.1	99.5
24071	7.1148	4.5455	0.1	100.67
24072	7.0224	4.8182	0.1	87.696
24073	7.1148	4.7273	0.1	89.776
24074	7.0224	5.	0.1	75.035
24075	7.1148	4.9091	0.1	78.008
24076	7.0224	5.1818	0.1	61.618
24077	7.1148	5.0909	0.1	65.462
24078	7.0224	5.3636	0.1	47.554
24079	7.1148	5.2727	0.1	52.239
24080	7.0224	5.5455	0.1	32.924
24081	7.1148	5.4545	0.1	38.443
24082	7.0224	5.7273	0.1	17.636
24083	7.1148	5.6364	0.1	24.126
24084	7.1148	5.8182	0.1	9.0371
24085	7.0224	5.9091	0.1	4.7267
24086	7.2072	0.27273	0.1	15.518
24087	7.2996	0.18182	0.1	7.5346
24088	7.2072	9.0909e-002	0.1	3.8449
24089	7.2072	0.45455	0.1	29.65
24090	7.2996	0.36364	0.1	21.519
24091	7.2072	0.63636	0.1	43.132
24092	7.2996	0.54545	0.1	34.718
24093	7.2072	0.81818	0.1	56.086
24094	7.2996	0.72727	0.1	47.427
24095	7.2072	1.	0.1	68.438
24096	7.2996	0.90909	0.1	59.604
24097	7.2072	1.1818	0.1	80.09
24098	7.2996	1.0909	0.1	71.152
24099	7.2072	1.3636	0.1	90.948
24100	7.2996	1.2727	0.1	81.98
24101	7.2072	1.5455	0.1	100.92
24102	7.2996	1.4545	0.1	92.
24103	7.2072	1.7273	0.1	109.94
24104	7.2996	1.6364	0.1	101.13
24105	7.2072	1.9091	0.1	117.91
24106	7.2996	1.8182	0.1	109.3
24107	7.2072	2.0909	0.1	124.78
24108	7.2996	2.	0.1	116.43
24109	7.2072	2.2727	0.1	130.48
24110	7.2996	2.1818	0.1	122.48
24111	7.2072	2.4545	0.1	134.97
24112	7.2996	2.3636	0.1	127.37
24113	7.2072	2.6364	0.1	138.2
24114	7.2996	2.5455	0.1	131.08
24115	7.2072	2.8182	0.1	140.15
24116	7.2996	2.7273	0.1	133.58
24117	7.2072	3.	0.1	140.8
24118	7.2996	2.9091	0.1	134.83
24119	7.2072	3.1818	0.1	140.15
24120	7.2996	3.0909	0.1	134.83
24121	7.2072	3.3636	0.1	138.2
24122	7.2996	3.2727	0.1	133.58
24123	7.2072	3.5455	0.1	134.97
24124	7.2996	3.4545	0.1	131.08
24125	7.2072	3.7273	0.1	130.48
24126	7.2996	3.6364	0.1	127.37
24127	7.2072	3.9091	0.1	124.78
24128	7.2996	3.8182	0.1	122.48
24129	7.2072	4.0909	0.1	117.91
24130	7.2996	4.	0.1	116.43
24131	7.2072	4.2727	0.1	109.94
24132	7.2996	4.1818	0.1	109.3
24133	7.2072	4.4545	0.1	100.92
24134	7.2996	4.3636	0.1	101.13
24135	7.2072	4.6364	0.1	90.948
24136	7.2996	4.5455	0.1	92.
24137	7.2072	4.8182	0.1	80.09
24138	7.2996	4.7273	0.1	81.98
24139	7.2072	5.	0.1	68.438
24140	7.2996	4.9091	0.1	71.152
24141	7.2072	5.1818	0.1	56.086
24142	7.2996	5.0909	0.1	59.604
24143	7.2072	5.3636	0.1	43.132
24144	7.2996	5.2727	0.1	47.427
24145	7.2072	5.5455	0.1	29.65
24146	7.2996	5.4545	0.1	34.718
24147	7.2072	5.7273	0.1	15.518
24148	7.2996	5.6364	0.1	21.519
24149	7.2996	5.8182	0.1	7.5346
24150	7.2072	5.9091	0.1	3.8449
24151	7.392	0.27273	0.1	13.526
24152	7.4844	0.18182	0.1	6.1149
24153	7.392	9.0909e-002	0.1	3.0113
24154	7.392	0.45455	0.1	26.594
24155	7.4844	0.36364	0.1	19.081
24156	7.392	0.63636	0.1	39.019
24157	7.4844	0.54545	0.1	31.249
24158	7.392	0.81818	0.1	50.949
24159	7.4844	0.72727	0.1	42.956
24160	7.392	1.	0.1	62.321
24161	7.4844	0.90909	0.1	54.169
24162	7.392	1.1818	0.1	73.045
24163	7.4844	1.0909	0.1	64.799
24164	7.392	1.3636	0.1	83.034
24165	7.4844	1.2727	0.1	74.762
24166	7.392	1.5455	0.1	92.21
24167	7.4844	1.4545	0.1	83.98
24168	7.392	1.7273	0.1	100.5
24169	7.4844	1.6364	0.1	92.377
24170	7.392	1.9091	0.1	107.82
24171	7.4844	1.8182	0.1	99.886
24172	7.392	2.0909	0.1	114.13
24173	7.4844	2.	0.1	106.44
24174	7.392	2.2727	0.1	119.37
24175	7.4844	2.1818	0.1	111.99
24176	7.392	2.4545	0.1	123.49
24177	7.4844	2.3636	0.1	116.49
24178	7.392	2.6364	0.1	126.46
24179	7.4844	2.5455	0.1	119.9
24180	7.392	2.8182	0.1	128.25
24181	7.4844	2.7273	0.1	122.19
24182	7.392	3.	0.1	128.85
24183	7.4844	2.9091	0.1	123.34
24184	7.392	3.1818	0.1	128.25
24185	7.4844	3.0909	0.1	123.34
24186	7.392	3.3636	0.1	126.46
24187	7.4844	3.2727	0.1	122.19
24188	7.392	3.5455	0.1	123.49
24189	7.4844	3.4545	0.1	119.9
24190	7.392	3.7273	0.1	119.37
24191	7.4844	3.6364	0.1	116.49
24192	7.392	3.9091	0.1	114.13
24193	7.4844	3.8182	0.1	111.99
24194	7.392	4.0909	0.1	107.82
24195	7.4844	4.	0.1	106.44
24196	7.392	4.2727	0.1	100.5
24197	7.4844	4.1818	0.1	99.886
24198	7.392	4.4545	0.1	92.21
24199	7.4844	4.3636	0.1	92.377
24200	7.392	4.6364	0.1	83.034
24201	7.4844	4.5455	0.1	83.98
24202	7.392	4.8182	0.1	73.045
24203	7.4844	4.7273	0.1	74.762
24204	7.392	5.	0.1	62.321
24205	7.4844	4.9091	0.1	64.799
24206	7.392	5.1818	0.1	50.949
24207	7.4844	5.0909	0.1	54.169
24208	7.392	5.3636	0.1	39.019
24209	7.4844	5.2727	0.1	42.956
24210	7.392	5.5455	0.1	26.594
24211	7.4844	5.4545	0.1	31.249
24212	7.392	5.7273	0.1	13.526
24213	7.4844	5.6364	0.1	19.081
24214	7.4844	5.8182	0.1	6.1149
24215	7.392	5.9091	0.1	3.0113
24216	7.5768	0.27273	0.1	11.656
24217	7.6692	0.18182	0.1	4.7772
24218	7.5768	9.0909e-002	0.1	2.2286
24219	7.5768	0.45455	0.1	23.744
24220	7.6692	0.36364	0.1	16.802
24221	7.5768	0.63636	0.1	35.193
24222	7.6692	0.54545	0.1	28.019
24223	7.5768	0.81818	0.1	46.181
24224	7.6692	0.72727	0.1	38.803
24225	7.5768	1.	0.1	56.651
24226	7.6692	0.90909	0.1	49.128
24227	7.5768	1.1818	0.1	66.521
24228	7.6692	1.0909	0.1	58.913
24229	7.5768	1.3636	0.1	75.712
24230	7.6692	1.2727	0.1	68.082
24231	7.5768	1.5455	0.1	84.151
24232	7.6692	1.4545	0.1	76.561
24233	7.5768	1.7273	0.1	91.77
24234	7.6692	1.6364	0.1	84.284
24235	7.5768	1.9091	0.1	98.507
24236	7.6692	1.8182	0.1	91.187
24237	7.5768	2.0909	0.1	104.31
24238	7.6692	2.	0.1	97.215
24239	7.5768	2.2727	0.1	109.12
24240	7.6692	2.1818	0.1	102.32
24241	7.5768	2.4545	0.1	112.91
24242	7.6692	2.3636	0.1	106.45
24243	7.5768	2.6364	0.1	115.63
24244	7.6692	2.5455	0.1	109.58
24245	7.5768	2.8182	0.1	117.28
24246	7.6692	2.7273	0.1	111.68
24247	7.5768	3.	0.1	117.83
24248	7.6692	2.9091	0.1	112.74
24249	7.5768	3.1818	0.1	117.28
24250	7.6692	3.0909	0.1	112.74
24251	7.5768	3.3636	0.1	115.63
24252	7.6692	3.2727	0.1	111.68
24253	7.5768	3.5455	0.1	112.91
24254	7.6692	3.4545	0.1	109.58
24255	7.5768	3.7273	0.1	109.12
24256	7.6692	3.6364	0.1	106.45
24257	7.5768	3.9091	0.1	104.31
24258	7.6692	3.8182	0.1	102.32
24259	7.5768	4.0909	0.1	98.507
24260	7.6692	4.	0.1	97.215
24261	7.5768	4.2727	0.1	91.77
24262	7.6692	4.1818	0.1	91.187
24263	7.5768	4.4545	0.1	84.151
24264	7.6692	4.3636	0.1	84.284
24265	7.5768	4.6364	0.1	75.712
24266	7.6692	4.5455	0.1	76.561
24267	7.5768	4.8182	0.1	66.521
24268	7.6692	4.7273	0.1	68.082
24269	7.5768	5.	0.1	56.651
24270	7.6692	4.9091	0.1	58.913
24271	7.5768	5.1818	0.1	46.181
24272	7.6692	5.0909	0.1	49.128
24273	7.5768	5.3636	0.1	35.193
24274	7.6692	5.2727	0.1	38.803
24275	7.5768	5.5455	0.1	23.744
24276	7.6692	5.4545	0.1	28.019
24277	7.5768	5.7273	0.1	11.656
24278	7.6692	5.6364	0.1	16.802
24279	7.6692	5.8182	0.1	4.7772
24280	7.5768	5.9091	0.1	2.2286
24281	7.7616	0.27273	0.1	9.9011
24282	7.854	0.18182	0.1	3.5229
24283	7.7616	9.0909e-002	0.1	1.5048
24284	7.7616	0.45455	0.1	21.086
24285	7.854	0.36364	0.1	14.672
24286	7.7616	0.63636	0.1	31.637
24287	7.854	0.54545	0.1	25.012
24288	7.7616	0.81818	0.1	41.757
24289	7.854	0.72727	0.1	34.946
24290	7.7616	1.	0.1	51.396
24291	7.854	0.90909	0.1	44.454
24292	7.7616	1.1818	0.1	60.48
24293	7.854	1.0909	0.1	53.461
24294	7.7616	1.3636	0.1	68.936
24295	7.854	1.2727	0.1	61.898
24296	7.7616	1.5455	0.1	76.699
24297	7.854	1.4545	0.1	69.7
24298	7.7616	1.7273	0.1	83.706
24299	7.854	1.6364	0.1	76.802
24300	7.7616	1.9091	0.1	89.899
24301	7.854	1.8182	0.1	83.15
24302	7.7616	2.0909	0.1	95.229
24303	7.854	2.	0.1	88.691
24304	7.7616	2.2727	0.1	99.652
24305	7.854	2.1818	0.1	93.38
24306	7.7616	2.4545	0.1	103.13
24307	7.854	2.3636	0.1	97.179
24308	7.7616	2.6364	0.1	105.64
24309	7.854	2.5455	0.1	100.06
24310	7.7616	2.8182	0.1	107.15
24311	7.854	2.7273	0.1	101.99
24312	7.7616	3.	0.1	107.65
24313	7.854	2.9091	0.1	102.96
24314	7.7616	3.1818	0.1	107.15
24315	7.854	3.0909	0.1	102.96
24316	7.7616	3.3636	0.1	105.64
24317	7.854	3.2727	0.1	101.99
24318	7.7616	3.5455	0.1	103.13
24319	7.854	3.4545	0.1	100.06
24320	7.7616	3.7273	0.1	99.652
24321	7.854	3.6364	0.1	97.179
24322	7.7616	3.9091	0.1	95.229
24323	7.854	3.8182	0.1	93.38
24324	7.7616	4.0909	0.1	89.899
24325	7.854	4.	0.1	88.691
24326	7.7616	4.2727	0.1	83.706
24327	7.854	4.1818	0.1	83.15
24328	7.7616	4.4545	0.1	76.699
24329	7.854	4.3636	0.1	76.802
24330	7.7616	4.6364	0.1	68.936
24331	7.854	4.5455	0.1	69.7
24332	7.7616	4.8182	0.1	60.48
24333	7.854	4.7273	0.1	61.898
24334	7.7616	5.	0.1	51.396
24335	7.854	4.9091	0.1	53.461
24336	7.7616	5.1818	0.1	41.757
24337	7.854	5.0909	0.1	44.454
24338	7.7616	5.3636	0.1	31.637
24339	7.854	5.2727	0.1	34.946
24340	7.7616	5.5455	0.1	21.086
24341	7.854	5.4545	0.1	25.012
24342	7.7616	5.7273	0.1	9.9011
24343	7.854	5.6364	0.1	14.672
24344	7.854	5.8182	0.1	3.5229
24345	7.7616	5.9091	0.1	1.5048
24346	7.9464	0.27273	0.1	8.2551
24347	8.0388	0.18182	0.1	2.36
24348	7.9464	9.0909e-002	0.1	0.86643
24349	7.9464	0.45455	0.1	18.609
24350	8.0388	0.36364	0.1	12.682
24351	7.9464	0.63636	0.1	28.331
24352	8.0388	0.54545	0.1	22.215
24353	7.9464	0.81818	0.1	37.651
24354	8.0388	0.72727	0.1	31.365
24355	7.9464	1.	0.1	46.526
24356	8.0388	0.90909	0.1	40.119
24357	7.9464	1.1818	0.1	54.886
24358	8.0388	1.0909	0.1	48.411
24359	7.9464	1.3636	0.1	62.668
24360	8.0388	1.2727	0.1	56.176
24361	7.9464	1.5455	0.1	69.809
24362	8.0388	1.4545	0.1	63.353
24363	7.9464	1.7273	0.1	76.252
24364	8.0388	1.6364	0.1	69.886
24365	7.9464	1.9091	0.1	81.947
24366	8.0388	1.8182	0.1	75.723
24367	7.9464	2.0909	0.1	86.847
24368	8.0388	2.	0.1	80.818
24369	7.9464	2.2727	0.1	90.912
24370	8.0388	2.1818	0.1	85.128
24371	7.9464	2.4545	0.1	94.109
24372	8.0388	2.3636	0.1	88.62
24373	7.9464	2.6364	0.1	96.412
24374	8.0388	2.5455	0.1	91.264
24375	7.9464	2.8182	0.1	97.801
24376	8.0388	2.7273	0.1	93.039
24377	7.9464	3.	0.1	98.266
24378	8.0388	2.9091	0.1	93.93
24379	7.9464	3.1818	0.1	97.801
24380	8.0388	3.0909	0.1	93.93
24381	7.9464	3.3636	0.1	96.412
24382	8.0388	3.2727	0.1	93.039
24383	7.9464	3.5455	0.1	94.109
24384	8.0388	3.4545	0.1	91.264
24385	7.9464	3.7273	0.1	90.912
24386	8.0388	3.6364	0.1	88.62
24387	7.9464	3.9091	0.1	86.847
24388	8.0388	3.8182	0.1	85.128
24389	7.9464	4.0909	0.1	81.947
24390	8.0388	4.	0.1	80.818
24391	7.9464	4.2727	0.1	76.252
24392	8.0388	4.1818	0.1	75.723
24393	7.9464	4.4545	0.1	69.809
24394	8.0388	4.3636	0.1	69.886
24395	7.9464	4.6364	0.1	62.668
24396	8.0388	4.5455	0.1	63.353
24397	7.9464	4.8182	0.1	54.886
24398	8.0388	4.7273	0.1	56.176
24399	7.9464	5.	0.1	46.526
24400	8.0388	4.9091	0.1	48.411
24401	7.9464	5.1818	0.1	37.651
24402	8.0388	5.0909	0.1	40.119
24403	7.9464	5.3636	0.1	28.331
24404	8.0388	5.2727	0.1	31.365
24405	7.9464	5.5455	0.1	18.609
24406	8.0388	5.4545	0.1	22.215
24407	7.9464	5.7273	0.1	8.2551
24408	8.0388	5.6364	0.1	12.682
24409	8.0388	5.8182	0.1	2.36
24410	7.9464	5.9091	0.1	0.86643
24411	8.1312	0.27273	0.1	6.7123
24412	8.2236	0.18182	0.1	1.323
24413	8.1312	9.0909e-002	0.1	0.39599
24414	8.1312	0.45455	0.1	16.3
24415	8.2236	0.36364	0.1	10.824
24416	8.1312	0.63636	0.1	25.259
24417	8.2236	0.54545	0.1	19.612
24418	8.1312	0.81818	0.1	33.843
24419	8.2236	0.72727	0.1	28.04
24420	8.1312	1.	0.1	42.013
24421	8.2236	0.90909	0.1	36.101
24422	8.1312	1.1818	0.1	49.708
24423	8.2236	1.0909	0.1	43.734
24424	8.1312	1.3636	0.1	56.868
24425	8.2236	1.2727	0.1	50.88
24426	8.1312	1.5455	0.1	63.437
24427	8.2236	1.4545	0.1	57.483
24428	8.1312	1.7273	0.1	69.364
24429	8.2236	1.6364	0.1	63.492
24430	8.1312	1.9091	0.1	74.6
24431	8.2236	1.8182	0.1	68.861
24432	8.1312	2.0909	0.1	79.105
24433	8.2236	2.	0.1	73.545
24434	8.1312	2.2727	0.1	82.842
24435	8.2236	2.1818	0.1	77.507
24436	8.1312	2.4545	0.1	85.78
24437	8.2236	2.3636	0.1	80.717
24438	8.1312	2.6364	0.1	87.896
24439	8.2236	2.5455	0.1	83.147
24440	8.1312	2.8182	0.1	89.173
24441	8.2236	2.7273	0.1	84.778
24442	8.1312	3.	0.1	89.6
24443	8.2236	2.9091	0.1	85.597
24444	8.1312	3.1818	0.1	89.173
24445	8.2236	3.0909	0.1	85.597
24446	8.1312	3.3636	0.1	87.896
24447	8.2236	3.2727	0.1	84.778
24448	8.1312	3.5455	0.1	85.78
24449	8.2236	3.4545	0.1	83.147
24450	8.1312	3.7273	0.1	82.842
24451	8.2236	3.6364	0.1	80.717
24452	8.1312	3.9091	0.1	79.105
24453	8.2236	3.8182	0.1	77.507
24454	8.1312	4.0909	0.1	74.6
24455	8.2236	4.	0.1	73.545
24456	8.1312	4.2727	0.1	69.364
24457	8.2236	4.1818	0.1	68.861
24458	8.1312	4.4545	0.1	63.437
24459	8.2236	4.3636	0.1	63.492
24460	8.1312	4.6364	0.1	56.868
24461	8.2236	4.5455	0.1	57.483
24462	8.1312	4.8182	0.1	49.708
24463	8.2236	4.7273	0.1	50.88
24464	8.1312	5.	0.1	42.013
24465	8.2236	4.9091	0.1	43.734
24466	8.1312	5.1818	0.1	33.843
24467	8.2236	5.0909	0.1	36.101
24468	8.1312	5.3636	0.1	25.259
24469	8.2236	5.2727	0.1	28.04
24470	8.1312	5.5455	0.1	16.3
24471	8.2236	5.4545	0.1	19.612
24472	8.1312	5.7273	0.1	6.7124
24473	8.2236	5.6364	0.1	10.824
24474	8.2236	5.8182	0.1	1.323
24475	8.1312	5.9091	0.1	0.39599
24476	8.316	0.27273	0.1	5.2673
24477	8.4084	0.18182	0.1	0.553
24478	8.316	9.0909e-002	0.1	0.17097
24479	8.316	0.45455	0.1	14.149
24480	8.4084	0.36364	0.1	9.089
24481	8.316	0.63636	0.1	22.405
24482	8.4084	0.54545	0.1	17.191
24483	8.316	0.81818	0.1	30.309
24484	8.4084	0.72727	0.1	24.954
24485	8.316	1.	0.1	37.832
24486	8.4084	0.90909	0.1	32.376
24487	8.316	1.1818	0.1	44.914
24488	8.4084	1.0909	0.1	39.402
24489	8.316	1.3636	0.1	51.503
24490	8.4084	1.2727	0.1	45.978
24491	8.316	1.5455	0.1	57.546
24492	8.4084	1.4545	0.1	52.054
24493	8.316	1.7273	0.1	62.997
24494	8.4084	1.6364	0.1	57.582
24495	8.316	1.9091	0.1	67.812
24496	8.4084	1.8182	0.1	62.519
24497	8.316	2.0909	0.1	71.954
24498	8.4084	2.	0.1	66.826
24499	8.316	2.2727	0.1	75.389
24500	8.4084	2.1818	0.1	70.469
24501	8.316	2.4545	0.1	78.09
24502	8.4084	2.3636	0.1	73.419
24503	8.316	2.6364	0.1	80.035
24504	8.4084	2.5455	0.1	75.653
24505	8.316	2.8182	0.1	81.208
24506	8.4084	2.7273	0.1	77.152
24507	8.316	3.	0.1	81.6
24508	8.4084	2.9091	0.1	77.904
24509	8.316	3.1818	0.1	81.208
24510	8.4084	3.0909	0.1	77.904
24511	8.316	3.3636	0.1	80.035
24512	8.4084	3.2727	0.1	77.152
24513	8.316	3.5455	0.1	78.09
24514	8.4084	3.4545	0.1	75.653
24515	8.316	3.7273	0.1	75.389
24516	8.4084	3.6364	0.1	73.419
24517	8.316	3.9091	0.1	71.954
24518	8.4084	3.8182	0.1	70.469
24519	8.316	4.0909	0.1	67.812
24520	8.4084	4.	0.1	66.826
24521	8.316	4.2727	0.1	62.997
24522	8.4084	4.1818	0.1	62.519
24523	8.316	4.4545	0.1	57.546
24524	8.4084	4.3636	0.1	57.582
24525	8.316	4.6364	0.1	51.503
24526	8.4084	4.5455	0.1	52.054
24527	8.316	4.8182	0.1	44.914
24528	8.4084	4.7273	0.1	45.978
24529	8.316	5.	0.1	37.832
24530	8.4084	4.9091	0.1	39.402
24531	8.316	5.1818	0.1	30.309
24532	8.4084	5.0909	0.1	32.376
24533	8.316	5.3636	0.1	22.405
24534	8.4084	5.2727	0.1	24.954
24535	8.316	5.5455	0.1	14.149
24536	8.4084	5.4545	0.1	17.191
24537	8.316	5.7273	0.1	5.2673
24538	8.4084	5.6364	0.1	9.089
24539	8.4084	5.8182	0.1	0.55301
24540	8.316	5.9091	0.1	0.17097
24541	8.5008	0.27273	0.1	3.9152
24542	8.5932	0.18182	0.1	0.22136
24543	8.5008	9.0909e-002	0.1	8.6934e-002
24544	8.5008	0.45455	0.1	12.145
24545	8.5932	0.36364	0.1	7.4693
24546	8.5008	0.63636	0.1	19.752
24547	8.5932	0.54545	0.1	14.939
24548	8.5008	0.81818	0.1	27.032
24549	8.5932	0.72727	0.1	22.088
24550	8.5008	1.	0.1	33.957
24551	8.5932	0.90909	0.1	28.922
24552	8.5008	1.1818	0.1	40.476
24553	8.5932	1.0909	0.1	35.39
24554	8.5008	1.3636	0.1	46.538
24555	8.5932	1.2727	0.1	41.442
24556	8.5008	1.5455	0.1	52.098
24557	8.5932	1.4545	0.1	47.032
24558	8.5008	1.7273	0.1	57.112
24559	8.5932	1.6364	0.1	52.117
24560	8.5008	1.9091	0.1	61.54
24561	8.5932	1.8182	0.1	56.657
24562	8.5008	2.0909	0.1	65.348
24563	8.5932	2.	0.1	60.618
24564	8.5008	2.2727	0.1	68.506
24565	8.5932	2.1818	0.1	63.968
24566	8.5008	2.4545	0.1	70.989
24567	8.5932	2.3636	0.1	66.68
24568	8.5008	2.6364	0.1	72.777
24569	8.5932	2.5455	0.1	68.733
24570	8.5008	2.8182	0.1	73.855
24571	8.5932	2.7273	0.1	70.111
24572	8.5008	3.	0.1	74.216
24573	8.5932	2.9091	0.1	70.803
24574	8.5008	3.1818	0.1	73.855
24575	8.5932	3.0909	0.1	70.803
24576	8.5008	3.3636	0.1	72.777
24577	8.5932	3.2727	0.1	70.111
24578	8.5008	3.5455	0.1	70.989
24579	8.5932	3.4545	0.1	68.733
24580	8.5008	3.7273	0.1	68.506
24581	8.5932	3.6364	0.1	66.68
24582	8.5008	3.9091	0.1	65.348
24583	8.5932	3.8182	0.1	63.968
24584	8.5008	4.0909	0.1	61.54
24585	8.5932	4.	0.1	60.618
24586	8.5008	4.2727	0.1	57.112
24587	8.5932	4.1818	0.1	56.657
24588	8.5008	4.4545	0.1	52.098
24589	8.5932	4.3636	0.1	52.117
24590	8.5008	4.6364	0.1	46.538
24591	8.5932	4.5455	0.1	47.032
24592	8.5008	4.8182	0.1	40.476
24593	8.5932	4.7273	0.1	41.442
24594	8.5008	5.	0.1	33.957
24595	8.5932	4.9091	0.1	35.39
24596	8.5008	5.1818	0.1	27.032
24597	8.5932	5.0909	0.1	28.922
24598	8.5008	5.3636	0.1	19.752
24599	8.5932	5.2727	0.1	22.088
24600	8.5008	5.5455	0.1	12.145
24601	8.5932	5.4545	0.1	14.939
24602	8.5008	5.7273	0.1	3.9152
24603	8.5932	5.6364	0.1	7.4693
24604	8.5932	5.8182	0.1	0.22136
24605	8.5008	5.9091	0.1	8.6936e-002
24606	8.6856	0.27273	0.1	2.6528
24607	8.778	0.18182	0.1	0.11506
24608	8.6856	9.0909e-002	0.1	5.0515e-002
24609	8.6856	0.45455	0.1	10.277
24610	8.778	0.36364	0.1	5.9571
24611	8.6856	0.63636	0.1	17.288
24612	8.778	0.54545	0.1	12.844
24613	8.6856	0.81818	0.1	23.991
24614	8.778	0.72727	0.1	19.428
24615	8.6856	1.	0.1	30.367
24616	8.778	0.90909	0.1	25.72
24617	8.6856	1.1818	0.1	36.367
24618	8.778	1.0909	0.1	31.673
24619	8.6856	1.3636	0.1	41.945
24620	8.778	1.2727	0.1	37.243
24621	8.6856	1.5455	0.1	47.06
24622	8.778	1.4545	0.1	42.386
24623	8.6856	1.7273	0.1	51.672
24624	8.778	1.6364	0.1	47.064
24625	8.6856	1.9091	0.1	55.744
24626	8.778	1.8182	0.1	51.24
24627	8.6856	2.0909	0.1	59.246
24628	8.778	2.	0.1	54.882
24629	8.6856	2.2727	0.1	62.149
24630	8.778	2.1818	0.1	57.962
24631	8.6856	2.4545	0.1	64.432
24632	8.778	2.3636	0.1	60.455
24633	8.6856	2.6364	0.1	66.075
24634	8.778	2.5455	0.1	62.342
24635	8.6856	2.8182	0.1	67.066
24636	8.778	2.7273	0.1	63.609
24637	8.6856	3.	0.1	67.398
24638	8.778	2.9091	0.1	64.245
24639	8.6856	3.1818	0.1	67.066
24640	8.778	3.0909	0.1	64.245
24641	8.6856	3.3636	0.1	66.075
24642	8.778	3.2727	0.1	63.609
24643	8.6856	3.5455	0.1	64.432
24644	8.778	3.4545	0.1	62.342
24645	8.6856	3.7273	0.1	62.149
24646	8.778	3.6364	0.1	60.455
24647	8.6856	3.9091	0.1	59.246
24648	8.778	3.8182	0.1	57.962
24649	8.6856	4.0909	0.1	55.744
24650	8.778	4.	0.1	54.882
24651	8.6856	4.2727	0.1	51.672
24652	8.778	4.1818	0.1	51.24
24653	8.6856	4.4545	0.1	47.06
24654	8.778	4.3636	0.1	47.064
24655	8.6856	4.6364	0.1	41.945
24656	8.778	4.5455	0.1	42.386
24657	8.6856	4.8182	0.1	36.367
24658	8.778	4.7273	0.1	37.243
24659	8.6856	5.	0.1	30.367
24660	8.778	4.9091	0.1	31.673
24661	8.6856	5.1818	0.1	23.991
24662	8.778	5.0909	0.1	25.72
24663	8.6856	5.3636	0.1	17.288
24664	8.778	5.2727	0.1	19.428
24665	8.6856	5.5455	0.1	10.277
24666	8.778	5.4545	0.1	12.844
24667	8.6856	5.7273	0.1	2.6528
24668	8.778	5.6364	0.1	5.9571
24669	8.778	5.8182	0.1	0.11506
24670	8.6856	5.9091	0.1	5.0516e-002
24671	8.8704	0.27273	0.1	1.4838
24672	8.9628	0.18182	0.1	7.1361e-002
24673	8.8704	9.0909e-002	0.1	3.1733e-002
24674	8.8704	0.45455	0.1	8.5379
24675	8.9628	0.36364	0.1	4.5452
24676	8.8704	0.63636	0.1	14.998
24677	8.9628	0.54545	0.1	10.894
24678	8.8704	0.81818	0.1	21.171
24679	8.9628	0.72727	0.1	16.958
24680	8.8704	1.	0.1	27.04
24681	8.9628	0.90909	0.1	22.751
24682	8.8704	1.1818	0.1	32.562
24683	8.9628	1.0909	0.1	28.231
24684	8.8704	1.3636	0.1	37.695
24685	8.9628	1.2727	0.1	33.356
24686	8.8704	1.5455	0.1	42.4
24687	8.9628	1.4545	0.1	38.088
24688	8.8704	1.7273	0.1	46.642
24689	8.9628	1.6364	0.1	42.391
24690	8.8704	1.9091	0.1	50.387
24691	8.9628	1.8182	0.1	46.232
24692	8.8704	2.0909	0.1	53.607
24693	8.9628	2.	0.1	49.581
24694	8.8704	2.2727	0.1	56.277
24695	8.9628	2.1818	0.1	52.412
24696	8.8704	2.4545	0.1	58.375
24697	8.9628	2.3636	0.1	54.705
24698	8.8704	2.6364	0.1	59.886
24699	8.9628	2.5455	0.1	56.44
24700	8.8704	2.8182	0.1	60.797
24701	8.9628	2.7273	0.1	57.604
24702	8.8704	3.	0.1	61.101
24703	8.9628	2.9091	0.1	58.189
24704	8.8704	3.1818	0.1	60.797
24705	8.9628	3.0909	0.1	58.189
24706	8.8704	3.3636	0.1	59.886
24707	8.9628	3.2727	0.1	57.604
24708	8.8704	3.5455	0.1	58.375
24709	8.9628	3.4545	0.1	56.44
24710	8.8704	3.7273	0.1	56.277
24711	8.9628	3.6364	0.1	54.705
24712	8.8704	3.9091	0.1	53.607
24713	8.9628	3.8182	0.1	52.412
24714	8.8704	4.0909	0.1	50.387
24715	8.9628	4.	0.1	49.581
24716	8.8704	4.2727	0.1	46.642
24717	8.9628	4.1818	0.1	46.232
24718	8.8704	4.4545	0.1	42.4
24719	8.9628	4.3636	0.1	42.391
24720	8.8704	4.6364	0.1	37.695
24721	8.9628	4.5455	0.1	38.088
24722	8.8704	4.8182	0.1	32.562
24723	8.9628	4.7273	0.1	33.356
24724	8.8704	5.	0.1	27.04
24725	8.9628	4.9091	0.1	28.231
24726	8.8704	5.1818	0.1	21.171
24727	8.9628	5.0909	0.1	22.751
24728	8.8704	5.3636	0.1	14.998
24729	8.9628	5.2727	0.1	16.958
24730	8.8704	5.5455	0.1	8.5379
24731	8.9628	5.4545	0.1	10.894
24732	8.8704	5.7273	0.1	1.4838
24733	8.9628	5.6364	0.1	4.5452
24734	8.9628	5.8182	0.1	7.1362e-002
24735	8.8704	5.9091	0.1	3.1734e-002
24736	9.0552	0.27273	0.1	0.47389
24737	9.1476	0.18182	0.1	4.8845e-002
24738	9.0552	9.0909e-002	0.1	2.0883e-002
24739	9.0552	0.45455	0.1	6.9169
24740	9.1476	0.36364	0.1	3.2269
24741	9.0552	0.63636	0.1	12.87
24742	9.1476	0.54545	0.1	9.0806
24743	9.0552	0.81818	0.1	18.553
24744	9.1476	0.72727	0.1	14.665
24745	9.0552	1.	0.1	23.956
24746	9.1476	0.90909	0.1	19.998
24747	9.0552	1.1818	0.1	29.038
24748	9.1476	1.0909	0.1	25.041
24749	9.0552	1.3636	0.1	33.761
24750	9.1476	1.2727	0.1	29.757
24751	9.0552	1.5455	0.1	38.09
24752	9.1476	1.4545	0.1	34.111
24753	9.0552	1.7273	0.1	41.992
24754	9.1476	1.6364	0.1	38.069
24755	9.0552	1.9091	0.1	45.436
24756	9.1476	1.8182	0.1	41.601
24757	9.0552	2.0909	0.1	48.397
24758	9.1476	2.	0.1	44.681
24759	9.0552	2.2727	0.1	50.851
24760	9.1476	2.1818	0.1	47.284
24761	9.0552	2.4545	0.1	52.78
24762	9.1476	2.3636	0.1	49.392
24763	9.0552	2.6364	0.1	54.168
24764	9.1476	2.5455	0.1	50.987
24765	9.0552	2.8182	0.1	55.006
24766	9.1476	2.7273	0.1	52.057
24767	9.0552	3.	0.1	55.286
24768	9.1476	2.9091	0.1	52.594
24769	9.0552	3.1818	0.1	55.006
24770	9.1476	3.0909	0.1	52.594
24771	9.0552	3.3636	0.1	54.168
24772	9.1476	3.2727	0.1	52.057
24773	9.0552	3.5455	0.1	52.78
24774	9.1476	3.4545	0.1	50.987
24775	9.0552	3.7273	0.1	50.851
24776	9.1476	3.6364	0.1	49.392
24777	9.0552	3.9091	0.1	48.397
24778	9.1476	3.8182	0.1	47.284
24779	9.0552	4.0909	0.1	45.436
24780	9.1476	4.	0.1	44.681
24781	9.0552	4.2727	0.1	41.992
24782	9.1476	4.1818	0.1	41.601
24783	9.0552	4.4545	0.1	38.09
24784	9.1476	4.3636	0.1	38.069
24785	9.0552	4.6364	0.1	33.761
24786	9.1476	4.5455	0.1	34.111
24787	9.0552	4.8182	0.1	29.038
24788	9.1476	4.7273	0.1	29.757
24789	9.0552	5.	0.1	23.956
24790	9.1476	4.9091	0.1	25.041
24791	9.0552	5.1818	0.1	18.553
24792	9.1476	5.0909	0.1	19.998
24793	9.0552	5.3636	0.1	12.87
24794	9.1476	5.2727	0.1	14.665
24795	9.0552	5.5455	0.1	6.9169
24796	9.1476	5.4545	0.1	9.0806
24797	9.0552	5.7273	0.1	0.4739
24798	9.1476	5.6364	0.1	3.2269
24799	9.1476	5.8182	0.1	4.8846e-002
24800	9.0552	5.9091	0.1	2.0884e-002
24801	9.24	0.27273	0.1	7.552e-002
24802	9.3324	0.18182	0.1	3.5534e-002
24803	9.24	9.0909e-002	0.1	1.4155e-002
24804	9.24	0.45455	0.1	5.4061
24805	9.3324	0.36364	0.1	1.9959
24806	9.24	0.63636	0.1	10.892
24807	9.3324	0.54545	0.1	7.3926
24808	9.24	0.81818	0.1	16.125
24809	9.3324	0.72727	0.1	12.535
24810	9.24	1.	0.1	21.098
24811	9.3324	0.90909	0.1	17.444
24812	9.24	1.1818	0.1	25.774
24813	9.3324	1.0909	0.1	22.086
24814	9.24	1.3636	0.1	30.12
24815	9.3324	1.2727	0.1	26.425
24816	9.24	1.5455	0.1	34.102
24817	9.3324	1.4545	0.1	30.43
24818	9.24	1.7273	0.1	37.691
24819	9.3324	1.6364	0.1	34.071
24820	9.24	1.9091	0.1	40.858
24821	9.3324	1.8182	0.1	37.319
24822	9.24	2.0909	0.1	43.58
24823	9.3324	2.	0.1	40.151
24824	9.24	2.2727	0.1	45.837
24825	9.3324	2.1818	0.1	42.544
24826	9.24	2.4545	0.1	47.61
24827	9.3324	2.3636	0.1	44.482
24828	9.24	2.6364	0.1	48.886
24829	9.3324	2.5455	0.1	45.948
24830	9.24	2.8182	0.1	49.656
24831	9.3324	2.7273	0.1	46.932
24832	9.24	3.	0.1	49.913
24833	9.3324	2.9091	0.1	47.425
24834	9.24	3.1818	0.1	49.656
24835	9.3324	3.0909	0.1	47.425
24836	9.24	3.3636	0.1	48.886
24837	9.3324	3.2727	0.1	46.932
24838	9.24	3.5455	0.1	47.61
24839	9.3324	3.4545	0.1	45.948
24840	9.24	3.7273	0.1	45.837
24841	9.3324	3.6364	0.1	44.482
24842	9.24	3.9091	0.1	43.58
24843	9.3324	3.8182	0.1	42.544
24844	9.24	4.0909	0.1	40.858
24845	9.3324	4.	0.1	40.151
24846	9.24	4.2727	0.1	37.691
24847	9.3324	4.1818	0.1	37.319
24848	9.24	4.4545	0.1	34.102
24849	9.3324	4.3636	0.1	34.071
24850	9.24	4.6364	0.1	30.12
24851	9.3324	4.5455	0.1	30.43
24852	9.24	4.8182	0.1	25.774
24853	9.3324	4.7273	0.1	26.425
24854	9.24	5.	0.1	21.098
24855	9.3324	4.9091	0.1	22.086
24856	9.24	5.1818	0.1	16.125
24857	9.3324	5.0909	0.1	17.444
24858	9.24	5.3636	0.1	10.892
24859	9.3324	5.2727	0.1	12.535
24860	9.24	5.5455	0.1	5.4061
24861	9.3324	5.4545	0.1	7.3926
24862	9.24	5.7273	0.1	7.5523e-002
24863	9.3324	5.6364	0.1	1.9959
24864	9.3324	5.8182	0.1	3.5536e-002
24865	9.24	5.9091	0.1	1.4156e-002
24866	9.4248	0.27273	0.1	2.4643e-002
24867	9.5172	0.18182	0.1	2.6945e-002
24868	9.4248	9.0909e-002	0.1	9.7896e-003
24869	9.4248	0.45455	0.1	3.9977
24870	9.5172	0.36364	0.1	0.84789
24871	9.4248	0.63636	0.1	9.0524
24872	9.5172	0.54545	0.1	5.8211
24873	9.4248	0.81818	0.1	13.87
24874	9.5172	0.72727	0.1	10.556
24875	9.4248	1.	0.1	18.447
24876	9.5172	0.90909	0.1	15.075
24877	9.4248	1.1818	0.1	22.751
24878	9.5172	1.0909	0.1	19.346
24879	9.4248	1.3636	0.1	26.749
24880	9.5172	1.2727	0.1	23.339
24881	9.4248	1.5455	0.1	30.412
24882	9.5172	1.4545	0.1	27.023
24883	9.4248	1.7273	0.1	33.712
24884	9.5172	1.6364	0.1	30.371
24885	9.4248	1.9091	0.1	36.624
24886	9.5172	1.8182	0.1	33.358
24887	9.4248	2.0909	0.1	39.127
24888	9.5172	2.	0.1	35.961
24889	9.4248	2.2727	0.1	41.202
24890	9.5172	2.1818	0.1	38.162
24891	9.4248	2.4545	0.1	42.832
24892	9.5172	2.3636	0.1	39.943
24893	9.4248	2.6364	0.1	44.005
24894	9.5172	2.5455	0.1	41.29
24895	9.4248	2.8182	0.1	44.712
24896	9.5172	2.7273	0.1	42.194
24897	9.4248	3.	0.1	44.949
24898	9.5172	2.9091	0.1	42.648
24899	9.4248	3.1818	0.1	44.712
24900	9.5172	3.0909	0.1	42.648
24901	9.4248	3.3636	0.1	44.005
24902	9.5172	3.2727	0.1	42.194
24903	9.4248	3.5455	0.1	42.832
24904	9.5172	3.4545	0.1	41.29
24905	9.4248	3.7273	0.1	41.202
24906	9.5172	3.6364	0.1	39.943
24907	9.4248	3.9091	0.1	39.127
24908	9.5172	3.8182	0.1	38.162
24909	9.4248	4.0909	0.1	36.624
24910	9.5172	4.	0.1	35.961
24911	9.4248	4.2727	0.1	33.712
24912	9.5172	4.1818	0.1	33.358
24913	9.4248	4.4545	0.1	30.412
24914	9.5172	4.3636	0.1	30.371
24915	9.4248	4.6364	0.1	26.749
24916	9.5172	4.5455	0.1	27.023
24917	9.4248	4.8182	0.1	22.751
24918	9.5172	4.7273	0.1	23.339
24919	9.4248	5.	0.1	18.447
24920	9.5172	4.9091	0.1	19.346
24921	9.4248	5.1818	0.1	13.87
24922	9.5172	5.0909	0.1	15.075
24923	9.4248	5.3636	0.1	9.0524
24924	9.5172	5.2727	0.1	10.556
24925	9.4248	5.5455	0.1	3.9977
24926	9.5172	5.4545	0.1	5.8211
24927	9.4248	5.7273	0.1	2.4644e-002
24928	9.5172	5.6364	0.1	0.84791
24929	9.5172	5.8182	0.1	2.6946e-002
24930	9.4248	5.9091	0.1	9.7908e-003
24931	9.6096	0.27273	0.1	1.0751e-002
24932	9.702	0.18182	0.1	2.1058e-002
24933	9.6096	9.0909e-002	0.1	6.878e-003
24934	9.6096	0.45455	0.1	2.684
24935	9.702	0.36364	0.1	2.7603e-003
24936	9.6096	0.63636	0.1	7.3418
24937	9.702	0.54545	0.1	4.3575
24938	9.6096	0.81818	0.1	11.777
24939	9.702	0.72727	0.1	8.7171
24940	9.6096	1.	0.1	15.989
24941	9.702	0.90909	0.1	12.876
24942	9.6096	1.1818	0.1	19.949
24943	9.702	1.0909	0.1	16.806
24944	9.6096	1.3636	0.1	23.627
24945	9.702	1.2727	0.1	20.479
24946	9.6096	1.5455	0.1	26.996
24947	9.702	1.4545	0.1	23.867
24948	9.6096	1.7273	0.1	30.03
24949	9.702	1.6364	0.1	26.946
24950	9.6096	1.9091	0.1	32.708
24951	9.702	1.8182	0.1	29.693
24952	9.6096	2.0909	0.1	35.009
24953	9.702	2.	0.1	32.086
24954	9.6096	2.2727	0.1	36.916
24955	9.702	2.1818	0.1	34.109
24956	9.6096	2.4545	0.1	38.414
24957	9.702	2.3636	0.1	35.746
24958	9.6096	2.6364	0.1	39.492
24959	9.702	2.5455	0.1	36.984
24960	9.6096	2.8182	0.1	40.143
24961	9.702	2.7273	0.1	37.815
24962	9.6096	3.	0.1	40.36
24963	9.702	2.9091	0.1	38.232
24964	9.6096	3.1818	0.1	40.143
24965	9.702	3.0909	0.1	38.232
24966	9.6096	3.3636	0.1	39.492
24967	9.702	3.2727	0.1	37.815
24968	9.6096	3.5455	0.1	38.414
24969	9.702	3.4545	0.1	36.984
24970	9.6096	3.7273	0.1	36.916
24971	9.702	3.6364	0.1	35.746
24972	9.6096	3.9091	0.1	35.009
24973	9.702	3.8182	0.1	34.109
24974	9.6096	4.0909	0.1	32.708
24975	9.702	4.	0.1	32.086
24976	9.6096	4.2727	0.1	30.03
24977	9.702	4.1818	0.1	29.693
24978	9.6096	4.4545	0.1	26.996
24979	9.702	4.3636	0.1	26.946
24980	9.6096	4.6364	0.1	23.627
24981	9.702	4.5455	0.1	23.867
24982	9.6096	4.8182	0.1	19.949
24983	9.702	4.7273	0.1	20.479
24984	9.6096	5.	0.1	15.989
24985	9.702	4.9091	0.1	16.806
24986	9.6096	5.1818	0.1	11.777
24987	9.702	5.0909	0.1	12.876
24988	9.6096	5.3636	0.1	7.3418
24989	9.702	5.2727	0.1	8.7171
24990	9.6096	5.5455	0.1	2.684
24991	9.702	5.4545	0.1	4.3575
24992	9.6096	5.7273	0.1	1.0753e-002
24993	9.702	5.6364	0.1	2.7634e-003
24994	9.702	5.8182	0.1	2.1059e-002
24995	9.6096	5.9091	0.1	6.8791e-003
24996	9.7944	0.27273	0.1	5.0595e-003
24997	9.8868	0.18182	0.1	1.6844e-002
24998	9.7944	9.0909e-002	0.1	4.9064e-003
24999	9.7944	0.45455	0.1	1.4583
25000	9.8868	0.36364	0.1	-1.1659e-002
25001	9.7944	0.63636	0.1	5.7503
25002	9.8868	0.54545	0.1	2.9938
25003	9.7944	0.81818	0.1	9.8328
25004	9.8868	0.72727	0.1	7.0072
25005	9.7944	1.	0.1	13.709
25006	9.8868	0.90909	0.1	10.834
25007	9.7944	1.1818	0.1	17.352
25008	9.8868	1.0909	0.1	14.45
25009	9.7944	1.3636	0.1	20.734
25010	9.8868	1.2727	0.1	17.828
25011	9.7944	1.5455	0.1	23.832
25012	9.8868	1.4545	0.1	20.944
25013	9.7944	1.7273	0.1	26.623
25014	9.8868	1.6364	0.1	23.775
25015	9.7944	1.9091	0.1	29.084
25016	9.8868	1.8182	0.1	26.3
25017	9.7944	2.0909	0.1	31.199
25018	9.8868	2.	0.1	28.5
25019	9.7944	2.2727	0.1	32.952
25020	9.8868	2.1818	0.1	30.359
25021	9.7944	2.4545	0.1	34.329
25022	9.8868	2.3636	0.1	31.863
25023	9.7944	2.6364	0.1	35.32
25024	9.8868	2.5455	0.1	33.001
25025	9.7944	2.8182	0.1	35.917
25026	9.8868	2.7273	0.1	33.764
25027	9.7944	3.	0.1	36.117
25028	9.8868	2.9091	0.1	34.148
25029	9.7944	3.1818	0.1	35.917
25030	9.8868	3.0909	0.1	34.148
25031	9.7944	3.3636	0.1	35.32
25032	9.8868	3.2727	0.1	33.764
25033	9.7944	3.5455	0.1	34.329
25034	9.8868	3.4545	0.1	33.001
25035	9.7944	3.7273	0.1	32.952
25036	9.8868	3.6364	0.1	31.863
25037	9.7944	3.9091	0.1	31.199
25038	9.8868	3.8182	0.1	30.359
25039	9.7944	4.0909	0.1	29.084
25040	9.8868	4.	0.1	28.5
25041	9.7944	4.2727	0.1	26.623
25042	9.8868	4.1818	0.1	26.3
25043	9.7944	4.4545	0.1	23.832
25044	9.8868	4.3636	0.1	23.775
25045	9.7944	4.6364	0.1	20.734
25046	9.8868	4.5455	0.1	20.944
25047	9.7944	4.8182	0.1	17.352
25048	9.8868	4.7273	0.1	17.828
25049	9.7944	5.	0.1	13.709
25050	9.8868	4.9091	0.1	14.45
25051	9.7944	5.1818	0.1	9.8328
25052	9.8868	5.0909	0.1	10.834
25053	9.7944	5.3636	0.1	5.7503
25054	9.8868	5.2727	0.1	7.0072
25055	9.7944	5.5455	0.1	1.4583
25056	9.8868	5.4545	0.1	2.9938
25057	9.7944	5.7273	0.1	5.0607e-003
25058	9.8868	5.6364	0.1	-1.1658e-002
25059	9.8868	5.8182	0.1	1.6844e-002
25060	9.7944	5.9091	0.1	4.9071e-003
25061	9.9792	0.27273	0.1	2.351e-003
25062	10.072	0.18182	0.1	1.3723e-002
25063	9.9792	9.0909e-002	0.1	3.5646e-003
25064	9.9792	0.45455	0.1	0.31395
25065	10.072	0.36364	0.1	-1.128e-002
25066	9.9792	0.63636	0.1	4.269
25067	10.072	0.54545	0.1	1.7227
25068	9.9792	0.81818	0.1	8.0262
25069	10.072	0.72727	0.1	5.4168
25070	9.9792	1.	0.1	11.592
25071	10.072	0.90909	0.1	8.9379
25072	9.9792	1.1818	0.1	14.943
25073	10.072	1.0909	0.1	12.264
25074	9.9792	1.3636	0.1	18.054
25075	10.072	1.2727	0.1	15.37
25076	9.9792	1.5455	0.1	20.902
25077	10.072	1.4545	0.1	18.235
25078	9.9792	1.7273	0.1	23.467
25079	10.072	1.6364	0.1	20.838
25080	9.9792	1.9091	0.1	25.73
25081	10.072	1.8182	0.1	23.158
25082	9.9792	2.0909	0.1	27.674
25083	10.072	2.	0.1	25.18
25084	9.9792	2.2727	0.1	29.284
25085	10.072	2.1818	0.1	26.888
25086	9.9792	2.4545	0.1	30.549
25087	10.072	2.3636	0.1	28.27
25088	9.9792	2.6364	0.1	31.46
25089	10.072	2.5455	0.1	29.315
25090	9.9792	2.8182	0.1	32.009
25091	10.072	2.7273	0.1	30.017
25092	9.9792	3.	0.1	32.192
25093	10.072	2.9091	0.1	30.369
25094	9.9792	3.1818	0.1	32.009
25095	10.072	3.0909	0.1	30.369
25096	9.9792	3.3636	0.1	31.46
25097	10.072	3.2727	0.1	30.017
25098	9.9792	3.5455	0.1	30.549
25099	10.072	3.4545	0.1	29.315
25100	9.9792	3.7273	0.1	29.284
25101	10.072	3.6364	0.1	28.27
25102	9.9792	3.9091	0.1	27.674
25103	10.072	3.8182	0.1	26.888
25104	9.9792	4.0909	0.1	25.73
25105	10.072	4.	0.1	25.18
25106	9.9792	4.2727	0.1	23.467
25107	10.072	4.1818	0.1	23.158
25108	9.9792	4.4545	0.1	20.902
25109	10.072	4.3636	0.1	20.838
25110	9.9792	4.6364	0.1	18.054
25111	10.072	4.5455	0.1	18.235
25112	9.9792	4.8182	0.1	14.943
25113	10.072	4.7273	0.1	15.37
25114	9.9792	5.	0.1	11.592
25115	10.072	4.9091	0.1	12.264
25116	9.9792	5.1818	0.1	8.0262
25117	10.072	5.0909	0.1	8.9379
25118	9.9792	5.3636	0.1	4.2689
25119	10.072	5.2727	0.1	5.4168
25120	9.9792	5.5455	0.1	0.31395
25121	10.072	5.4545	0.1	1.7227
25122	9.9792	5.7273	0.1	2.3518e-003
25123	10.072	5.6364	0.1	-1.1279e-002
25124	10.072	5.8182	0.1	1.3724e-002
25125	9.9792	5.9091	0.1	3.5655e-003
25126	10.164	0.27273	0.1	1.0118e-003
25127	10.256	0.18182	0.1	1.135e-002
25128	10.164	9.0909e-002	0.1	2.6576e-003
25129	10.164	0.45455	0.1	-6.857e-003
25130	10.256	0.36364	0.1	-9.9846e-003
25131	10.164	0.63636	0.1	2.8894
25132	10.256	0.54545	0.1	0.53941
25133	10.164	0.81818	0.1	6.3465
25134	10.256	0.72727	0.1	3.9366
25135	10.164	1.	0.1	9.6268
25136	10.256	0.90909	0.1	7.1754
25137	10.164	1.1818	0.1	12.708
25138	10.256	1.0909	0.1	10.234
25139	10.164	1.3636	0.1	15.568
25140	10.256	1.2727	0.1	13.09
25141	10.164	1.5455	0.1	18.187
25142	10.256	1.4545	0.1	15.723
25143	10.164	1.7273	0.1	20.544
25144	10.256	1.6364	0.1	18.115
25145	10.164	1.9091	0.1	22.623
25146	10.256	1.8182	0.1	20.247
25147	10.164	2.0909	0.1	24.409
25148	10.256	2.	0.1	22.105
25149	10.164	2.2727	0.1	25.889
25150	10.256	2.1818	0.1	23.674
25151	10.164	2.4545	0.1	27.051
25152	10.256	2.3636	0.1	24.943
25153	10.164	2.6364	0.1	27.887
25154	10.256	2.5455	0.1	25.903
25155	10.164	2.8182	0.1	28.391
25156	10.256	2.7273	0.1	26.547
25157	10.164	3.	0.1	28.56
25158	10.256	2.9091	0.1	26.871
25159	10.164	3.1818	0.1	28.391
25160	10.256	3.0909	0.1	26.871
25161	10.164	3.3636	0.1	27.887
25162	10.256	3.2727	0.1	26.547
25163	10.164	3.5455	0.1	27.051
25164	10.256	3.4545	0.1	25.903
25165	10.164	3.7273	0.1	25.889
25166	10.256	3.6364	0.1	24.943
25167	10.164	3.9091	0.1	24.409
25168	10.256	3.8182	0.1	23.674
25169	10.164	4.0909	0.1	22.623
25170	10.256	4.	0.1	22.105
25171	10.164	4.2727	0.1	20.544
25172	10.256	4.1818	0.1	20.247
25173	10.164	4.4545	0.1	18.187
25174	10.256	4.3636	0.1	18.115
25175	10.164	4.6364	0.1	15.568
25176	10.256	4.5455	0.1	15.723
25177	10.164	4.8182	0.1	12.708
25178	10.256	4.7273	0.1	13.09
25179	10.164	5.	0.1	9.6268
25180	10.256	4.9091	0.1	10.234
25181	10.164	5.1818	0.1	6.3465
25182	10.256	5.0909	0.1	7.1754
25183	10.164	5.3636	0.1	2.8894
25184	10.256	5.2727	0.1	3.9366
25185	10.164	5.5455	0.1	-6.8563e-003
25186	10.256	5.4545	0.1	0.5394
25187	10.164	5.7273	0.1	1.0128e-003
25188	10.256	5.6364	0.1	-9.9835e-003
25189	10.256	5.8182	0.1	1.1351e-002
25190	10.164	5.9091	0.1	2.6582e-003
25191	10.349	0.27273	0.1	3.8803e-004
25192	10.441	0.18182	0.1	9.5062e-003
25193	10.349	9.0909e-002	0.1	2.0561e-003
25194	10.349	0.45455	0.1	-5.6712e-003
25195	10.441	0.36364	0.1	-8.5255e-003
25196	10.349	0.63636	0.1	1.6047
25197	10.441	0.54545	0.1	2.6619e-003
25198	10.349	0.81818	0.1	4.7841
25199	10.441	0.72727	0.1	2.5586
25200	10.349	1.	0.1	7.8005
25201	10.441	0.90909	0.1	5.5365
25202	10.349	1.1818	0.1	10.633
25203	10.441	1.0909	0.1	8.3481
25204	10.349	1.3636	0.1	13.262
25205	10.441	1.2727	0.1	10.973
25206	10.349	1.5455	0.1	15.669
25207	10.441	1.4545	0.1	13.393
25208	10.349	1.7273	0.1	17.835
25209	10.441	1.6364	0.1	15.59
25210	10.349	1.9091	0.1	19.745
25211	10.441	1.8182	0.1	17.549
25212	10.349	2.0909	0.1	21.385
25213	10.441	2.	0.1	19.255
25214	10.349	2.2727	0.1	22.744
25215	10.441	2.1818	0.1	20.696
25216	10.349	2.4545	0.1	23.811
25217	10.441	2.3636	0.1	21.861
25218	10.349	2.6364	0.1	24.579
25219	10.441	2.5455	0.1	22.743
25220	10.349	2.8182	0.1	25.042
25221	10.441	2.7273	0.1	23.334
25222	10.349	3.	0.1	25.197
25223	10.441	2.9091	0.1	23.631
25224	10.349	3.1818	0.1	25.042
25225	10.441	3.0909	0.1	23.631
25226	10.349	3.3636	0.1	24.579
25227	10.441	3.2727	0.1	23.334
25228	10.349	3.5455	0.1	23.811
25229	10.441	3.4545	0.1	22.743
25230	10.349	3.7273	0.1	22.744
25231	10.441	3.6364	0.1	21.861
25232	10.349	3.9091	0.1	21.385
25233	10.441	3.8182	0.1	20.696
25234	10.349	4.0909	0.1	19.745
25235	10.441	4.	0.1	19.255
25236	10.349	4.2727	0.1	17.835
25237	10.441	4.1818	0.1	17.549
25238	10.349	4.4545	0.1	15.669
25239	10.441	4.3636	0.1	15.59
25240	10.349	4.6364	0.1	13.262
25241	10.441	4.5455	0.1	13.393
25242	10.349	4.8182	0.1	10.633
25243	10.441	4.7273	0.1	10.973
25244	10.349	5.	0.1	7.8005
25245	10.441	4.9091	0.1	8.3481
25246	10.349	5.1818	0.1	4.7841
25247	10.441	5.0909	0.1	5.5365
25248	10.349	5.3636	0.1	1.6047
25249	10.441	5.2727	0.1	2.5586
25250	10.349	5.5455	0.1	-5.6702e-003
25251	10.441	5.4545	0.1	2.6624e-003
25252	10.349	5.7273	0.1	3.8899e-004
25253	10.441	5.6364	0.1	-8.5246e-003
25254	10.441	5.8182	0.1	9.5071e-003
25255	10.349	5.9091	0.1	2.057e-003
25256	10.534	0.27273	0.1	1.6773e-004
25257	10.626	0.18182	0.1	8.0465e-003
25258	10.534	9.0909e-002	0.1	1.6728e-003
25259	10.534	0.45455	0.1	-4.5742e-003
25260	10.626	0.36364	0.1	-7.0698e-003
25261	10.534	0.63636	0.1	0.41582
25262	10.626	0.54545	0.1	4.2126e-004
25263	10.534	0.81818	0.1	3.3299
25264	10.626	0.72727	0.1	1.2767
25265	10.534	1.	0.1	6.1026
25266	10.626	0.90909	0.1	4.0114
25267	10.534	1.1818	0.1	8.7061
25268	10.626	1.0909	0.1	6.595
25269	10.534	1.3636	0.1	11.122
25270	10.626	1.2727	0.1	9.0069
25271	10.534	1.5455	0.1	13.332
25272	10.626	1.4545	0.1	11.23
25273	10.534	1.7273	0.1	15.321
25274	10.626	1.6364	0.1	13.247
25275	10.534	1.9091	0.1	17.076
25276	10.626	1.8182	0.1	15.046
25277	10.534	2.0909	0.1	18.582
25278	10.626	2.	0.1	16.612
25279	10.534	2.2727	0.1	19.829
25280	10.626	2.1818	0.1	17.934
25281	10.534	2.4545	0.1	20.809
25282	10.626	2.3636	0.1	19.004
25283	10.534	2.6364	0.1	21.514
25284	10.626	2.5455	0.1	19.813
25285	10.534	2.8182	0.1	21.939
25286	10.626	2.7273	0.1	20.355
25287	10.534	3.	0.1	22.081
25288	10.626	2.9091	0.1	20.628
25289	10.534	3.1818	0.1	21.939
25290	10.626	3.0909	0.1	20.628
25291	10.534	3.3636	0.1	21.514
25292	10.626	3.2727	0.1	20.355
25293	10.534	3.5455	0.1	20.809
25294	10.626	3.4545	0.1	19.813
25295	10.534	3.7273	0.1	19.829
25296	10.626	3.6364	0.1	19.004
25297	10.534	3.9091	0.1	18.582
25298	10.626	3.8182	0.1	17.934
25299	10.534	4.0909	0.1	17.076
25300	10.626	4.	0.1	16.612
25301	10.534	4.2727	0.1	15.321
25302	10.626	4.1818	0.1	15.045
25303	10.534	4.4545	0.1	13.332
25304	10.626	4.3636	0.1	13.247
25305	10.534	4.6364	0.1	11.122
25306	10.626	4.5455	0.1	11.23
25307	10.534	4.8182	0.1	8.7061
25308	10.626	4.7273	0.1	9.0068
25309	10.534	5.	0.1	6.1026
25310	10.626	4.9091	0.1	6.595
25311	10.534	5.1818	0.1	3.3299
25312	10.626	5.0909	0.1	4.0114
25313	10.534	5.3636	0.1	0.41581
25314	10.626	5.2727	0.1	1.2767
25315	10.534	5.5455	0.1	-4.5734e-003
25316	10.626	5.4545	0.1	4.218e-004
25317	10.534	5.7273	0.1	1.6865e-004
25318	10.626	5.6364	0.1	-7.0689e-003
25319	10.626	5.8182	0.1	8.0473e-003
25320	10.534	5.9091	0.1	1.6736e-003
25321	10.718	0.27273	0.1	1.8449e-004
25322	10.811	0.18182	0.1	6.8724e-003
25323	10.718	9.0909e-002	0.1	1.4466e-003
25324	10.718	0.45455	0.1	-3.5592e-003
25325	10.811	0.36364	0.1	-5.6692e-003
25326	10.718	0.63636	0.1	7.5902e-003
25327	10.811	0.54545	0.1	3.0528e-004
25328	10.718	0.81818	0.1	1.9765
25329	10.811	0.72727	0.1	0.14073
25330	10.718	1.	0.1	4.5229
25331	10.811	0.90909	0.1	2.5918
25332	10.718	1.1818	0.1	6.9144
25333	10.811	1.0909	0.1	4.9641
25334	10.718	1.3636	0.1	9.133
25335	10.811	1.2727	0.1	7.1787
25336	10.718	1.5455	0.1	11.163
25337	10.811	1.4545	0.1	9.2193
25338	10.718	1.7273	0.1	12.989
25339	10.811	1.6364	0.1	11.071
25340	10.718	1.9091	0.1	14.599
25341	10.811	1.8182	0.1	12.721
25342	10.718	2.0909	0.1	15.981
25343	10.811	2.	0.1	14.158
25344	10.718	2.2727	0.1	17.126
25345	10.811	2.1818	0.1	15.372
25346	10.718	2.4545	0.1	18.025
25347	10.811	2.3636	0.1	16.353
25348	10.718	2.6364	0.1	18.671
25349	10.811	2.5455	0.1	17.095
25350	10.718	2.8182	0.1	19.061
25351	10.811	2.7273	0.1	17.592
25352	10.718	3.	0.1	19.191
25353	10.811	2.9091	0.1	17.842
25354	10.718	3.1818	0.1	19.061
25355	10.811	3.0909	0.1	17.842
25356	10.718	3.3636	0.1	18.671
25357	10.811	3.2727	0.1	17.592
25358	10.718	3.5455	0.1	18.025
25359	10.811	3.4545	0.1	17.095
25360	10.718	3.7273	0.1	17.126
25361	10.811	3.6364	0.1	16.353
25362	10.718	3.9091	0.1	15.981
25363	10.811	3.8182	0.1	15.372
25364	10.718	4.0909	0.1	14.599
25365	10.811	4.	0.1	14.158
25366	10.718	4.2727	0.1	12.989
25367	10.811	4.1818	0.1	12.721
25368	10.718	4.4545	0.1	11.163
25369	10.811	4.3636	0.1	11.071
25370	10.718	4.6364	0.1	9.133
25371	10.811	4.5455	0.1	9.2193
25372	10.718	4.8182	0.1	6.9144
25373	10.811	4.7273	0.1	7.1787
25374	10.718	5.	0.1	4.5229
25375	10.811	4.9091	0.1	4.9641
25376	10.718	5.1818	0.1	1.9765
25377	10.811	5.0909	0.1	2.5918
25378	10.718	5.3636	0.1	7.5906e-003
25379	10.811	5.2727	0.1	0.14073
25380	10.718	5.5455	0.1	-3.5586e-003
25381	10.811	5.4545	0.1	3.0569e-004
25382	10.718	5.7273	0.1	1.8535e-004
25383	10.811	5.6364	0.1	-5.6685e-003
25384	10.811	5.8182	0.1	6.8732e-003
25385	10.718	5.9091	0.1	1.4479e-003
25386	10.903	0.27273	0.1	3.452e-004
25387	10.996	0.18182	0.1	5.9149e-003
25388	10.903	9.0909e-002	0.1	1.3351e-003
25389	10.903	0.45455	0.1	-2.6186e-003
25390	10.996	0.36364	0.1	-4.3416e-003
25391	10.903	0.63636	0.1	2.8206e-003
25392	10.996	0.54545	0.1	4.8044e-004
25393	10.903	0.81818	0.1	0.72321
25394	10.996	0.72727	0.1	8.5105e-003
25395	10.903	1.	0.1	3.0524
25396	10.996	0.90909	0.1	1.2723
25397	10.903	1.1818	0.1	5.2475
25398	10.996	1.0909	0.1	3.4457
25399	10.903	1.3636	0.1	7.2838
25400	10.996	1.2727	0.1	5.4776
25401	10.903	1.5455	0.1	9.1464
25402	10.996	1.4545	0.1	7.3497
25403	10.903	1.7273	0.1	10.822
25404	10.996	1.6364	0.1	9.0485
25405	10.903	1.9091	0.1	12.299
25406	10.996	1.8182	0.1	10.562
25407	10.903	2.0909	0.1	13.567
25408	10.996	2.	0.1	11.879
25409	10.903	2.2727	0.1	14.616
25410	10.996	2.1818	0.1	12.992
25411	10.903	2.4545	0.1	15.441
25412	10.996	2.3636	0.1	13.891
25413	10.903	2.6364	0.1	16.033
25414	10.996	2.5455	0.1	14.571
25415	10.903	2.8182	0.1	16.391
25416	10.996	2.7273	0.1	15.027
25417	10.903	3.	0.1	16.51
25418	10.996	2.9091	0.1	15.256
25419	10.903	3.1818	0.1	16.391
25420	10.996	3.0909	0.1	15.256
25421	10.903	3.3636	0.1	16.033
25422	10.996	3.2727	0.1	15.027
25423	10.903	3.5455	0.1	15.441
25424	10.996	3.4545	0.1	14.571
25425	10.903	3.7273	0.1	14.616
25426	10.996	3.6364	0.1	13.891
25427	10.903	3.9091	0.1	13.567
25428	10.996	3.8182	0.1	12.992
25429	10.903	4.0909	0.1	12.299
25430	10.996	4.	0.1	11.879
25431	10.903	4.2727	0.1	10.822
25432	10.996	4.1818	0.1	10.562
25433	10.903	4.4545	0.1	9.1464
25434	10.996	4.3636	0.1	9.0485
25435	10.903	4.6364	0.1	7.2838
25436	10.996	4.5455	0.1	7.3497
25437	10.903	4.8182	0.1	5.2475
25438	10.996	4.7273	0.1	5.4776
25439	10.903	5.	0.1	3.0523
25440	10.996	4.9091	0.1	3.4457
25441	10.903	5.1818	0.1	0.72321
25442	10.996	5.0909	0.1	1.2723
25443	10.903	5.3636	0.1	2.8208e-003
25444	10.996	5.2727	0.1	8.5112e-003
25445	10.903	5.5455	0.1	-2.6181e-003
25446	10.996	5.4545	0.1	4.8092e-004
25447	10.903	5.7273	0.1	3.46e-004
25448	10.996	5.6364	0.1	-4.3408e-003
25449	10.996	5.8182	0.1	5.9155e-003
25450	10.903	5.9091	0.1	1.3361e-003
25451	11.088	0.27273	0.1	5.922e-004
25452	11.18	0.18182	0.1	5.1239e-003
25453	11.088	9.0909e-002	0.1	1.3066e-003
25454	11.088	0.45455	0.1	-1.7464e-003
25455	11.18	0.36364	0.1	-3.092e-003
25456	11.088	0.63636	0.1	1.9112e-003
25457	11.18	0.54545	0.1	7.3436e-004
25458	11.088	0.81818	0.1	2.5627e-002
25459	11.18	0.72727	0.1	4.0654e-003
25460	11.088	1.	0.1	1.684
25461	11.18	0.90909	0.1	0.13691
25462	11.088	1.1818	0.1	3.6954
25463	11.18	1.0909	0.1	2.032
25464	11.088	1.3636	0.1	5.5629
25465	11.18	1.2727	0.1	3.8934
25466	11.088	1.5455	0.1	7.2709
25467	11.18	1.4545	0.1	5.6093
25468	11.088	1.7273	0.1	8.8071
25469	11.18	1.6364	0.1	7.1662
25470	11.088	1.9091	0.1	10.161
25471	11.18	1.8182	0.1	8.553
25472	11.088	2.0909	0.1	11.323
25473	11.18	2.	0.1	9.76
25474	11.088	2.2727	0.1	12.285
25475	11.18	2.1818	0.1	10.779
25476	11.088	2.4545	0.1	13.04
25477	11.18	2.3636	0.1	11.603
25478	11.088	2.6364	0.1	13.583
25479	11.18	2.5455	0.1	12.225
25480	11.088	2.8182	0.1	13.91
25481	11.18	2.7273	0.1	12.643
25482	11.088	3.	0.1	14.02
25483	11.18	2.9091	0.1	12.853
25484	11.088	3.1818	0.1	13.91
25485	11.18	3.0909	0.1	12.853
25486	11.088	3.3636	0.1	13.583
25487	11.18	3.2727	0.1	12.643
25488	11.088	3.5455	0.1	13.04
25489	11.18	3.4545	0.1	12.225
25490	11.088	3.7273	0.1	12.285
25491	11.18	3.6364	0.1	11.603
25492	11.088	3.9091	0.1	11.323
25493	11.18	3.8182	0.1	10.779
25494	11.088	4.0909	0.1	10.161
25495	11.18	4.	0.1	9.76
25496	11.088	4.2727	0.1	8.8071
25497	11.18	4.1818	0.1	8.553
25498	11.088	4.4545	0.1	7.2708
25499	11.18	4.3636	0.1	7.1662
25500	11.088	4.6364	0.1	5.5629
25501	11.18	4.5455	0.1	5.6093
25502	11.088	4.8182	0.1	3.6954
25503	11.18	4.7273	0.1	3.8934
25504	11.088	5.	0.1	1.684
25505	11.18	4.9091	0.1	2.032
25506	11.088	5.1818	0.1	2.5628e-002
25507	11.18	5.0909	0.1	0.1369
25508	11.088	5.3636	0.1	1.9121e-003
25509	11.18	5.2727	0.1	4.0664e-003
25510	11.088	5.5455	0.1	-1.7456e-003
25511	11.18	5.4545	0.1	7.3496e-004
25512	11.088	5.7273	0.1	5.9289e-004
25513	11.18	5.6364	0.1	-3.0912e-003
25514	11.18	5.8182	0.1	5.1244e-003
25515	11.088	5.9091	0.1	1.3075e-003
25516	11.273	0.27273	0.1	8.9038e-004
25517	11.365	0.18182	0.1	4.4629e-003
25518	11.273	9.0909e-002	0.1	1.3377e-003
25519	11.273	0.45455	0.1	-9.3649e-004
25520	11.365	0.36364	0.1	-1.919e-003
25521	11.273	0.63636	0.1	1.6792e-003
25522	11.365	0.54545	0.1	1.0101e-003
25523	11.273	0.81818	0.1	7.527e-003
25524	11.365	0.72727	0.1	2.8427e-003
25525	11.273	1.	0.1	0.43227
25526	11.365	0.90909	0.1	1.264e-002
25527	11.273	1.1818	0.1	2.2497
25528	11.365	1.0909	0.1	0.72489
25529	11.273	1.3636	0.1	3.9596
25530	11.365	1.2727	0.1	2.4171
25531	11.273	1.5455	0.1	5.5243
25532	11.365	1.4545	0.1	3.9874
25533	11.273	1.7273	0.1	6.9314
25534	11.365	1.6364	0.1	5.4127
25535	11.273	1.9091	0.1	8.1712
25536	11.365	1.8182	0.1	6.6821
25537	11.273	2.0909	0.1	9.2351
25538	11.365	2.	0.1	7.7867
25539	11.273	2.2727	0.1	10.116
25540	11.365	2.1818	0.1	8.7191
25541	11.273	2.4545	0.1	10.807
25542	11.365	2.3636	0.1	9.4727
25543	11.273	2.6364	0.1	11.304
25544	11.365	2.5455	0.1	10.042
25545	11.273	2.8182	0.1	11.604
25546	11.365	2.7273	0.1	10.424
25547	11.273	3.	0.1	11.704
25548	11.365	2.9091	0.1	10.616
25549	11.273	3.1818	0.1	11.604
25550	11.365	3.0909	0.1	10.616
25551	11.273	3.3636	0.1	11.304
25552	11.365	3.2727	0.1	10.424
25553	11.273	3.5455	0.1	10.807
25554	11.365	3.4545	0.1	10.042
25555	11.273	3.7273	0.1	10.116
25556	11.365	3.6364	0.1	9.4727
25557	11.273	3.9091	0.1	9.2351
25558	11.365	3.8182	0.1	8.7191
25559	11.273	4.0909	0.1	8.1712
25560	11.365	4.	0.1	7.7867
25561	11.273	4.2727	0.1	6.9314
25562	11.365	4.1818	0.1	6.6821
25563	11.273	4.4545	0.1	5.5242
25564	11.365	4.3636	0.1	5.4126
25565	11.273	4.6364	0.1	3.9596
25566	11.365	4.5455	0.1	3.9874
25567	11.273	4.8182	0.1	2.2497
25568	11.365	4.7273	0.1	2.4171
25569	11.273	5.	0.1	0.43226
25570	11.365	4.9091	0.1	0.72488
25571	11.273	5.1818	0.1	7.5281e-003
25572	11.365	5.0909	0.1	1.2641e-002
25573	11.273	5.3636	0.1	1.6799e-003
25574	11.365	5.2727	0.1	2.8435e-003
25575	11.273	5.5455	0.1	-9.3586e-004
25576	11.365	5.4545	0.1	1.0106e-003
25577	11.273	5.7273	0.1	8.9111e-004
25578	11.365	5.6364	0.1	-1.9186e-003
25579	11.365	5.8182	0.1	4.4634e-003
25580	11.273	5.9091	0.1	1.3387e-003
25581	11.458	0.27273	0.1	1.2176e-003
25582	11.55	0.18182	0.1	3.9049e-003
25583	11.458	9.0909e-002	0.1	1.4132e-003
25584	11.458	0.45455	0.1	-1.8318e-004
25585	11.55	0.36364	0.1	-8.1936e-004
25586	11.458	0.63636	0.1	1.6727e-003
25587	11.55	0.54545	0.1	1.2875e-003
25588	11.458	0.81818	0.1	4.431e-003
25589	11.55	0.72727	0.1	2.3816e-003
25590	11.458	1.	0.1	1.978e-002
25591	11.55	0.90909	0.1	6.1119e-003
25592	11.458	1.1818	0.1	0.90886
25593	11.55	1.0909	0.1	3.0796e-002
25594	11.458	1.3636	0.1	2.4651
25595	11.55	1.2727	0.1	1.0454
25596	11.458	1.5455	0.1	3.8959
25597	11.55	1.4545	0.1	2.4747
25598	11.458	1.7273	0.1	5.1831
25599	11.55	1.6364	0.1	3.777
25600	11.458	1.9091	0.1	6.3172
25601	11.55	1.8182	0.1	4.9373
25602	11.458	2.0909	0.1	7.2902
25603	11.55	2.	0.1	5.9469
25604	11.458	2.2727	0.1	8.0954
25605	11.55	2.1818	0.1	6.7989
25606	11.458	2.4545	0.1	8.7274
25607	11.55	2.3636	0.1	7.4875
25608	11.458	2.6364	0.1	9.1819
25609	11.55	2.5455	0.1	8.008
25610	11.458	2.8182	0.1	9.4559
25611	11.55	2.7273	0.1	8.357
25612	11.458	3.	0.1	9.5474
25613	11.55	2.9091	0.1	8.5321
25614	11.458	3.1818	0.1	9.4559
25615	11.55	3.0909	0.1	8.5321
25616	11.458	3.3636	0.1	9.1819
25617	11.55	3.2727	0.1	8.357
25618	11.458	3.5455	0.1	8.7274
25619	11.55	3.4545	0.1	8.008
25620	11.458	3.7273	0.1	8.0954
25621	11.55	3.6364	0.1	7.4875
25622	11.458	3.9091	0.1	7.2902
25623	11.55	3.8182	0.1	6.7989
25624	11.458	4.0909	0.1	6.3172
25625	11.55	4.	0.1	5.9469
25626	11.458	4.2727	0.1	5.1831
25627	11.55	4.1818	0.1	4.9373
25628	11.458	4.4545	0.1	3.8959
25629	11.55	4.3636	0.1	3.777
25630	11.458	4.6364	0.1	2.4651
25631	11.55	4.5455	0.1	2.4747
25632	11.458	4.8182	0.1	0.90885
25633	11.55	4.7273	0.1	1.0454
25634	11.458	5.	0.1	1.978e-002
25635	11.55	4.9091	0.1	3.0795e-002
25636	11.458	5.1818	0.1	4.4319e-003
25637	11.55	5.0909	0.1	6.113e-003
25638	11.458	5.3636	0.1	1.6733e-003
25639	11.55	5.2727	0.1	2.3826e-003
25640	11.458	5.5455	0.1	-1.8287e-004
25641	11.55	5.4545	0.1	1.2878e-003
25642	11.458	5.7273	0.1	1.2179e-003
25643	11.55	5.6364	0.1	-8.1955e-004
25644	11.55	5.8182	0.1	3.9054e-003
25645	11.458	5.9091	0.1	1.4138e-003
25646	11.642	0.27273	0.1	1.5588e-003
25647	11.735	0.18182	0.1	3.4291e-003
25648	11.642	9.0909e-002	0.1	1.5177e-003
25649	11.642	0.45455	0.1	5.1885e-004
25650	11.735	0.36364	0.1	2.1051e-004
25651	11.642	0.63636	0.1	1.761e-003
25652	11.735	0.54545	0.1	1.5576e-003
25653	11.642	0.81818	0.1	3.2691e-003
25654	11.735	0.72727	0.1	2.2083e-003
25655	11.642	1.	0.1	7.6935e-003
25656	11.735	0.90909	0.1	4.0389e-003
25657	11.642	1.1818	0.1	4.3028e-002
25658	11.735	1.0909	0.1	9.1073e-003
25659	11.642	1.3636	0.1	1.0752
25660	11.735	1.2727	0.1	5.624e-002
25661	11.642	1.5455	0.1	2.3764
25662	11.735	1.4545	0.1	1.067
25663	11.642	1.7273	0.1	3.5515
25664	11.735	1.6364	0.1	2.2499
25665	11.642	1.9091	0.1	4.5871
25666	11.735	1.8182	0.1	3.3078
25667	11.642	2.0909	0.1	5.4756
25668	11.735	2.	0.1	4.2289
25669	11.642	2.2727	0.1	6.2109
25670	11.735	2.1818	0.1	5.0061
25671	11.642	2.4545	0.1	6.7878
25672	11.735	2.3636	0.1	5.6342
25673	11.642	2.6364	0.1	7.2028
25674	11.735	2.5455	0.1	6.109
25675	11.642	2.8182	0.1	7.4528
25676	11.735	2.7273	0.1	6.4273
25677	11.642	3.	0.1	7.5364
25678	11.735	2.9091	0.1	6.5869
25679	11.642	3.1818	0.1	7.4528
25680	11.735	3.0909	0.1	6.5869
25681	11.642	3.3636	0.1	7.2028
25682	11.735	3.2727	0.1	6.4273
25683	11.642	3.5455	0.1	6.7878
25684	11.735	3.4545	0.1	6.109
25685	11.642	3.7273	0.1	6.2109
25686	11.735	3.6364	0.1	5.6342
25687	11.642	3.9091	0.1	5.4756
25688	11.735	3.8182	0.1	5.0061
25689	11.642	4.0909	0.1	4.5871
25690	11.735	4.	0.1	4.2289
25691	11.642	4.2727	0.1	3.5515
25692	11.735	4.1818	0.1	3.3078
25693	11.642	4.4545	0.1	2.3764
25694	11.735	4.3636	0.1	2.2498
25695	11.642	4.6364	0.1	1.0752
25696	11.735	4.5455	0.1	1.067
25697	11.642	4.8182	0.1	4.3026e-002
25698	11.735	4.7273	0.1	5.6239e-002
25699	11.642	5.	0.1	7.694e-003
25700	11.735	4.9091	0.1	9.1071e-003
25701	11.642	5.1818	0.1	3.2705e-003
25702	11.735	5.0909	0.1	4.0401e-003
25703	11.642	5.3636	0.1	1.7617e-003
25704	11.735	5.2727	0.1	2.2098e-003
25705	11.642	5.5455	0.1	5.1862e-004
25706	11.735	5.4545	0.1	1.5581e-003
25707	11.642	5.7273	0.1	1.5589e-003
25708	11.735	5.6364	0.1	2.106e-004
25709	11.735	5.8182	0.1	3.4296e-003
25710	11.642	5.9091	0.1	1.5199e-003
25711	11.827	0.27273	0.1	1.9038e-003
25712	11.92	0.18182	0.1	3.0193e-003
25713	11.827	9.0909e-002	0.1	1.6468e-003
25714	11.827	0.45455	0.1	1.1725e-003
25715	11.92	0.36364	0.1	1.176e-003
25716	11.827	0.63636	0.1	1.8926e-003
25717	11.92	0.54545	0.1	1.8175e-003
25718	11.827	0.81818	0.1	2.7201e-003
25719	11.92	0.72727	0.1	2.169e-003
25720	11.827	1.	0.1	4.6189e-003
25721	11.92	0.90909	0.1	3.0742e-003
25722	11.827	1.1818	0.1	9.9395e-003
25723	11.92	1.0909	0.1	4.9623e-003
25724	11.827	1.3636	0.1	5.6894e-002
25725	11.92	1.2727	0.1	1.0193e-002
25726	11.827	1.5455	0.1	0.96235
25727	11.92	1.4545	0.1	5.0631e-002
25728	11.827	1.7273	0.1	2.0273
25729	11.92	1.6364	0.1	0.82895
25730	11.827	1.9091	0.1	2.9703
25731	11.92	1.8182	0.1	1.7848
25732	11.827	2.0909	0.1	3.7799
25733	11.92	2.	0.1	2.6221
25734	11.827	2.2727	0.1	4.4499
25735	11.92	2.1818	0.1	3.3294
25736	11.827	2.4545	0.1	4.9757
25737	11.92	2.3636	0.1	3.9011
25738	11.827	2.6364	0.1	5.3537
25739	11.92	2.5455	0.1	4.3332
25740	11.827	2.8182	0.1	5.5816
25741	11.92	2.7273	0.1	4.6228
25742	11.827	3.	0.1	5.6577
25743	11.92	2.9091	0.1	4.7681
25744	11.827	3.1818	0.1	5.5816
25745	11.92	3.0909	0.1	4.7681
25746	11.827	3.3636	0.1	5.3537
25747	11.92	3.2727	0.1	4.6228
25748	11.827	3.5455	0.1	4.9757
25749	11.92	3.4545	0.1	4.3332
25750	11.827	3.7273	0.1	4.4499
25751	11.92	3.6364	0.1	3.9011
25752	11.827	3.9091	0.1	3.7799
25753	11.92	3.8182	0.1	3.3294
25754	11.827	4.0909	0.1	2.9703
25755	11.92	4.	0.1	2.6221
25756	11.827	4.2727	0.1	2.0273
25757	11.92	4.1818	0.1	1.7847
25758	11.827	4.4545	0.1	0.96234
25759	11.92	4.3636	0.1	0.82895
25760	11.827	4.6364	0.1	5.6894e-002
25761	11.92	4.5455	0.1	5.063e-002
25762	11.827	4.8182	0.1	9.9397e-003
25763	11.92	4.7273	0.1	1.0193e-002
25764	11.827	5.	0.1	4.6193e-003
25765	11.92	4.9091	0.1	4.9626e-003
25766	11.827	5.1818	0.1	2.7214e-003
25767	11.92	5.0909	0.1	3.0754e-003
25768	11.827	5.3636	0.1	1.8939e-003
25769	11.92	5.2727	0.1	2.1704e-003
25770	11.827	5.5455	0.1	1.1733e-003
25771	11.92	5.4545	0.1	1.8178e-003
25772	11.827	5.7273	0.1	1.9044e-003
25773	11.92	5.6364	0.1	1.177e-003
25774	11.92	5.8182	0.1	3.0202e-003
25775	11.827	5.9091	0.1	1.6474e-003
25776	12.012	0.27273	0.1	2.2473e-003
25777	12.104	0.18182	0.1	2.6634e-003
25778	12.012	9.0909e-002	0.1	1.791e-003
25779	12.012	0.45455	0.1	1.7851e-003
25780	12.104	0.36364	0.1	2.0836e-003
25781	12.012	0.63636	0.1	2.0457e-003
25782	12.104	0.54545	0.1	2.0659e-003
25783	12.012	0.81818	0.1	2.437e-003
25784	12.104	0.72727	0.1	2.1987e-003
25785	12.012	1.	0.1	3.2649e-003
25786	12.104	0.90909	0.1	2.5457e-003
25787	12.012	1.1818	0.1	4.9929e-003
25788	12.104	1.0909	0.1	3.2557e-003
25789	12.012	1.3636	0.1	9.5054e-003
25790	12.104	1.2727	0.1	4.7162e-003
25791	12.012	1.5455	0.1	3.5479e-002
25792	12.104	1.4545	0.1	8.2802e-003
25793	12.012	1.7273	0.1	0.61194
25794	12.104	1.6364	0.1	2.3686e-002
25795	12.012	1.9091	0.1	1.4583
25796	12.104	1.8182	0.1	0.37883
25797	12.012	2.0909	0.1	2.1928
25798	12.104	2.	0.1	1.1191
25799	12.012	2.2727	0.1	2.8015
25800	12.104	2.1818	0.1	1.7587
25801	12.012	2.4545	0.1	3.2793
25802	12.104	2.3636	0.1	2.277
25803	12.012	2.6364	0.1	3.6229
25804	12.104	2.5455	0.1	2.6691
25805	12.012	2.8182	0.1	3.83
25806	12.104	2.7273	0.1	2.9319
25807	12.012	3.	0.1	3.8992
25808	12.104	2.9091	0.1	3.0637
25809	12.012	3.1818	0.1	3.83
25810	12.104	3.0909	0.1	3.0637
25811	12.012	3.3636	0.1	3.6229
25812	12.104	3.2727	0.1	2.9319
25813	12.012	3.5455	0.1	3.2793
25814	12.104	3.4545	0.1	2.6691
25815	12.012	3.7273	0.1	2.8015
25816	12.104	3.6364	0.1	2.277
25817	12.012	3.9091	0.1	2.1928
25818	12.104	3.8182	0.1	1.7587
25819	12.012	4.0909	0.1	1.4583
25820	12.104	4.	0.1	1.1191
25821	12.012	4.2727	0.1	0.61193
25822	12.104	4.1818	0.1	0.37882
25823	12.012	4.4545	0.1	3.5479e-002
25824	12.104	4.3636	0.1	2.3686e-002
25825	12.012	4.6364	0.1	9.5057e-003
25826	12.104	4.5455	0.1	8.281e-003
25827	12.012	4.8182	0.1	4.9934e-003
25828	12.104	4.7273	0.1	4.7164e-003
25829	12.012	5.	0.1	3.2659e-003
25830	12.104	4.9091	0.1	3.2564e-003
25831	12.012	5.1818	0.1	2.4382e-003
25832	12.104	5.0909	0.1	2.5468e-003
25833	12.012	5.3636	0.1	2.0461e-003
25834	12.104	5.2727	0.1	2.2002e-003
25835	12.012	5.5455	0.1	1.7855e-003
25836	12.104	5.4545	0.1	2.0655e-003
25837	12.012	5.7273	0.1	2.2486e-003
25838	12.104	5.6364	0.1	2.0843e-003
25839	12.104	5.8182	0.1	2.6649e-003
25840	12.012	5.9091	0.1	1.7904e-003
25841	12.197	0.27273	0.1	2.5863e-003
25842	12.289	0.18182	0.1	2.3525e-003
25843	12.197	9.0909e-002	0.1	1.9417e-003
25844	12.197	0.45455	0.1	2.3591e-003
25845	12.289	0.36364	0.1	2.9377e-003
25846	12.197	0.63636	0.1	2.2063e-003
25847	12.289	0.54545	0.1	2.3007e-003
25848	12.197	0.81818	0.1	2.2894e-003
25849	12.289	0.72727	0.1	2.2661e-003
25850	12.197	1.	0.1	2.527e-003
25851	12.289	0.90909	0.1	2.23e-003
25852	12.197	1.1818	0.1	3.0489e-003
25853	12.289	1.0909	0.1	2.3429e-003
25854	12.197	1.3636	0.1	4.1056e-003
25855	12.289	1.2727	0.1	2.6406e-003
25856	12.197	1.5455	0.1	6.4789e-003
25857	12.289	1.4545	0.1	3.2717e-003
25858	12.197	1.7273	0.1	1.4043e-002
25859	12.289	1.6364	0.1	4.6076e-003
25860	12.197	1.9091	0.1	0.11776
25861	12.289	1.8182	0.1	7.9889e-003
25862	12.197	2.0909	0.1	0.70923
25863	12.289	2.	0.1	2.3974e-002
25864	12.197	2.2727	0.1	1.2562
25865	12.289	2.1818	0.1	0.29922
25866	12.197	2.4545	0.1	1.6882
25867	12.289	2.3636	0.1	0.75415
25868	12.197	2.6364	0.1	1.9993
25869	12.289	2.5455	0.1	1.1066
25870	12.197	2.8182	0.1	2.1868
25871	12.289	2.7273	0.1	1.3437
25872	12.197	3.	0.1	2.2494
25873	12.289	2.9091	0.1	1.4628
25874	12.197	3.1818	0.1	2.1868
25875	12.289	3.0909	0.1	1.4628
25876	12.197	3.3636	0.1	1.9993
25877	12.289	3.2727	0.1	1.3437
25878	12.197	3.5455	0.1	1.6882
25879	12.289	3.4545	0.1	1.1066
25880	12.197	3.7273	0.1	1.2562
25881	12.289	3.6364	0.1	0.75415
25882	12.197	3.9091	0.1	0.70923
25883	12.289	3.8182	0.1	0.29922
25884	12.197	4.0909	0.1	0.11776
25885	12.289	4.	0.1	2.3974e-002
25886	12.197	4.2727	0.1	1.4043e-002
25887	12.289	4.1818	0.1	7.9887e-003
25888	12.197	4.4545	0.1	6.4798e-003
25889	12.289	4.3636	0.1	4.6081e-003
25890	12.197	4.6364	0.1	4.1063e-003
25891	12.289	4.5455	0.1	3.2723e-003
25892	12.197	4.8182	0.1	3.0493e-003
25893	12.289	4.7273	0.1	2.6407e-003
25894	12.197	5.	0.1	2.5277e-003
25895	12.289	4.9091	0.1	2.3437e-003
25896	12.197	5.1818	0.1	2.2907e-003
25897	12.289	5.0909	0.1	2.2305e-003
25898	12.197	5.3636	0.1	2.2071e-003
25899	12.289	5.2727	0.1	2.2678e-003
25900	12.197	5.5455	0.1	2.359e-003
25901	12.289	5.4545	0.1	2.301e-003
25902	12.197	5.7273	0.1	2.5872e-003
25903	12.289	5.6364	0.1	2.9381e-003
25904	12.289	5.8182	0.1	2.3538e-003
25905	12.197	5.9091	0.1	1.9428e-003
25906	12.382	0.27273	0.1	2.9175e-003
25907	12.474	0.18182	0.1	2.0782e-003
25908	12.382	9.0909e-002	0.1	2.1011e-003
25909	12.382	0.45455	0.1	2.8973e-003
25910	12.474	0.36364	0.1	3.7432e-003
25911	12.382	0.63636	0.1	2.3684e-003
25912	12.474	0.54545	0.1	2.5241e-003
25913	12.382	0.81818	0.1	2.2184e-003
25914	12.474	0.72727	0.1	2.3551e-003
25915	12.382	1.	0.1	2.0758e-003
25916	12.474	0.90909	0.1	2.0312e-003
25917	12.382	1.1818	0.1	2.02e-003
25918	12.474	1.0909	0.1	1.7833e-003
25919	12.382	1.3636	0.1	2.0599e-003
25920	12.474	1.2727	0.1	1.5507e-003
25921	12.382	1.5455	0.1	2.2485e-003
25922	12.474	1.4545	0.1	1.3458e-003
25923	12.382	1.7273	0.1	2.6936e-003
25924	12.474	1.6364	0.1	1.1617e-003
25925	12.382	1.9091	0.1	3.6833e-003
25926	12.474	1.8182	0.1	9.9411e-004
25927	12.382	2.0909	0.1	6.2711e-003
25928	12.474	2.	0.1	8.3584e-004
25929	12.382	2.2727	0.1	1.8767e-002
25930	12.474	2.1818	0.1	6.7528e-004
25931	12.382	2.4545	0.1	0.2036
25932	12.474	2.3636	0.1	4.7936e-004
25933	12.382	2.6364	0.1	0.4739
25934	12.474	2.5455	0.1	1.5497e-004
25935	12.382	2.8182	0.1	0.64152
25936	12.474	2.7273	0.1	-6.6188e-004
25937	12.382	3.	0.1	0.69774
25938	12.474	2.9091	0.1	-3.8078e-003
25939	12.382	3.1818	0.1	0.64151
25940	12.474	3.0909	0.1	-3.8084e-003
25941	12.382	3.3636	0.1	0.4739
25942	12.474	3.2727	0.1	-6.6234e-004
25943	12.382	3.5455	0.1	0.2036
25944	12.474	3.4545	0.1	1.5511e-004
25945	12.382	3.7273	0.1	1.8766e-002
25946	12.474	3.6364	0.1	4.7935e-004
25947	12.382	3.9091	0.1	6.2711e-003
25948	12.474	3.8182	0.1	6.7554e-004
25949	12.382	4.0909	0.1	3.6833e-003
25950	12.474	4.	0.1	8.3573e-004
25951	12.382	4.2727	0.1	2.6937e-003
25952	12.474	4.1818	0.1	9.9413e-004
25953	12.382	4.4545	0.1	2.2488e-003
25954	12.474	4.3636	0.1	1.1619e-003
25955	12.382	4.6364	0.1	2.06e-003
25956	12.474	4.5455	0.1	1.3461e-003
25957	12.382	4.8182	0.1	2.0205e-003
25958	12.474	4.7273	0.1	1.5511e-003
25959	12.382	5.	0.1	2.0763e-003
25960	12.474	4.9091	0.1	1.7837e-003
25961	12.382	5.1818	0.1	2.2193e-003
25962	12.474	5.0909	0.1	2.0318e-003
25963	12.382	5.3636	0.1	2.3696e-003
25964	12.474	5.2727	0.1	2.3569e-003
25965	12.382	5.5455	0.1	2.8982e-003
25966	12.474	5.4545	0.1	2.5246e-003
25967	12.382	5.7273	0.1	2.9184e-003
25968	12.474	5.6364	0.1	3.7437e-003
25969	12.474	5.8182	0.1	2.0794e-003
25970	12.382	5.9091	0.1	2.1012e-003
25971	12.566	0.27273	0.1	3.2402e-003
25972	12.659	0.18182	0.1	1.8351e-003
25973	12.566	9.0909e-002	0.1	2.2623e-003
25974	12.566	0.45455	0.1	3.406e-003
25975	12.659	0.36364	0.1	4.5054e-003
25976	12.566	0.63636	0.1	2.5302e-003
25977	12.659	0.54545	0.1	2.7368e-003
25978	12.566	0.81818	0.1	2.1924e-003
25979	12.659	0.72727	0.1	2.4562e-003
25980	12.566	1.	0.1	1.7786e-003
25981	12.659	0.90909	0.1	1.902e-003
25982	12.566	1.1818	0.1	1.3869e-003
25983	12.659	1.0909	0.1	1.409e-003
25984	12.566	1.3636	0.1	9.777e-004
25985	12.659	1.2727	0.1	8.7712e-004
25986	12.566	1.5455	0.1	5.4136e-004
25987	12.659	1.4545	0.1	3.133e-004
25988	12.566	1.7273	0.1	5.1848e-005
25989	12.659	1.6364	0.1	-3.0695e-004
25990	12.566	1.9091	0.1	-5.2381e-004
25991	12.659	1.8182	0.1	-1.0041e-003
25992	12.566	2.0909	0.1	-1.2293e-003
25993	12.659	2.	0.1	-1.7989e-003
25994	12.566	2.2727	0.1	-2.1161e-003
25995	12.659	2.1818	0.1	-2.6996e-003
25996	12.566	2.4545	0.1	-3.2185e-003
25997	12.659	2.3636	0.1	-3.6906e-003
25998	12.566	2.6364	0.1	-4.4747e-003
25999	12.659	2.5455	0.1	-4.6986e-003
26000	12.566	2.8182	0.1	-5.5955e-003
26001	12.659	2.7273	0.1	-5.5672e-003
26002	12.566	3.	0.1	-6.0683e-003
26003	12.659	2.9091	0.1	-6.0844e-003
26004	12.566	3.1818	0.1	-5.5958e-003
26005	12.659	3.0909	0.1	-6.0845e-003
26006	12.566	3.3636	0.1	-4.4746e-003
26007	12.659	3.2727	0.1	-5.5672e-003
26008	12.566	3.5455	0.1	-3.2182e-003
26009	12.659	3.4545	0.1	-4.6983e-003
26010	12.566	3.7273	0.1	-2.1159e-003
26011	12.659	3.6364	0.1	-3.6907e-003
26012	12.566	3.9091	0.1	-1.2293e-003
26013	12.659	3.8182	0.1	-2.6993e-003
26014	12.566	4.0909	0.1	-5.2399e-004
26015	12.659	4.	0.1	-1.7988e-003
26016	12.566	4.2727	0.1	5.183e-005
26017	12.659	4.1818	0.1	-1.0041e-003
26018	12.566	4.4545	0.1	5.4153e-004
26019	12.659	4.3636	0.1	-3.0677e-004
26020	12.566	4.6364	0.1	9.7824e-004
26021	12.659	4.5455	0.1	3.1363e-004
26022	12.566	4.8182	0.1	1.3872e-003
26023	12.659	4.7273	0.1	8.7775e-004
26024	12.566	5.	0.1	1.7791e-003
26025	12.659	4.9091	0.1	1.4095e-003
26026	12.566	5.1818	0.1	2.1939e-003
26027	12.659	5.0909	0.1	1.9032e-003
26028	12.566	5.3636	0.1	2.5314e-003
26029	12.659	5.2727	0.1	2.4574e-003
26030	12.566	5.5455	0.1	3.4063e-003
26031	12.659	5.4545	0.1	2.7372e-003
26032	12.566	5.7273	0.1	3.241e-003
26033	12.659	5.6364	0.1	4.5057e-003
26034	12.659	5.8182	0.1	1.8358e-003
26035	12.566	5.9091	0.1	2.263e-003
26036	12.751	0.27273	0.1	3.5546e-003
26037	12.844	0.18182	0.1	1.6178e-003
26038	12.751	9.0909e-002	0.1	2.4253e-003
26039	12.751	0.45455	0.1	3.8864e-003
26040	12.844	0.36364	0.1	5.2287e-003
26041	12.751	0.63636	0.1	2.6885e-003
26042	12.844	0.54545	0.1	2.9393e-003
26043	12.751	0.81818	0.1	2.1951e-003
26044	12.844	0.72727	0.1	2.563e-003
26045	12.751	1.	0.1	1.5723e-003
26046	12.844	0.90909	0.1	1.8176e-003
26047	12.751	1.1818	0.1	9.5774e-004
26048	12.844	1.0909	0.1	1.1426e-003
26049	12.751	1.3636	0.1	3.0153e-004
26050	12.844	1.2727	0.1	4.1656e-004
26051	12.751	1.5455	0.1	-3.9986e-004
26052	12.844	1.4545	0.1	-3.4115e-004
26053	12.751	1.7273	0.1	-1.1611e-003
26054	12.844	1.6364	0.1	-1.1442e-003
26055	12.751	1.9091	0.1	-1.9892e-003
26056	12.844	1.8182	0.1	-1.9916e-003
26057	12.751	2.0909	0.1	-2.8789e-003
26058	12.844	2.	0.1	-2.8764e-003
26059	12.751	2.2727	0.1	-3.8047e-003
26060	12.844	2.1818	0.1	-3.7711e-003
26061	12.751	2.4545	0.1	-4.7103e-003
26062	12.844	2.3636	0.1	-4.6336e-003
26063	12.751	2.6364	0.1	-5.4982e-003
26064	12.844	2.5455	0.1	-5.3957e-003
26065	12.751	2.8182	0.1	-6.045e-003
26066	12.844	2.7273	0.1	-5.9737e-003
26067	12.751	3.	0.1	-6.242e-003
26068	12.844	2.9091	0.1	-6.287e-003
26069	12.751	3.1818	0.1	-6.0448e-003
26070	12.844	3.0909	0.1	-6.2871e-003
26071	12.751	3.3636	0.1	-5.498e-003
26072	12.844	3.2727	0.1	-5.9734e-003
26073	12.751	3.5455	0.1	-4.7103e-003
26074	12.844	3.4545	0.1	-5.3956e-003
26075	12.751	3.7273	0.1	-3.8046e-003
26076	12.844	3.6364	0.1	-4.6332e-003
26077	12.751	3.9091	0.1	-2.8784e-003
26078	12.844	3.8182	0.1	-3.7709e-003
26079	12.751	4.0909	0.1	-1.9887e-003
26080	12.844	4.	0.1	-2.8758e-003
26081	12.751	4.2727	0.1	-1.1608e-003
26082	12.844	4.1818	0.1	-1.9916e-003
26083	12.751	4.4545	0.1	-3.9953e-004
26084	12.844	4.3636	0.1	-1.1435e-003
26085	12.751	4.6364	0.1	3.0194e-004
26086	12.844	4.5455	0.1	-3.4105e-004
26087	12.751	4.8182	0.1	9.5853e-004
26088	12.844	4.7273	0.1	4.1712e-004
26089	12.751	5.	0.1	1.5735e-003
26090	12.844	4.9091	0.1	1.1436e-003
26091	12.751	5.1818	0.1	2.196e-003
26092	12.844	5.0909	0.1	1.819e-003
26093	12.751	5.3636	0.1	2.6889e-003
26094	12.844	5.2727	0.1	2.5635e-003
26095	12.751	5.5455	0.1	3.8868e-003
26096	12.844	5.4545	0.1	2.9397e-003
26097	12.751	5.7273	0.1	3.5548e-003
26098	12.844	5.6364	0.1	5.2292e-003
26099	12.844	5.8182	0.1	1.6178e-003
26100	12.751	5.9091	0.1	2.426e-003
26101	12.936	0.27273	0.1	3.8595e-003
26102	13.028	0.18182	0.1	1.4214e-003
26103	12.936	9.0909e-002	0.1	2.588e-003
26104	12.936	0.45455	0.1	4.343e-003
26105	13.028	0.36364	0.1	5.9178e-003
26106	12.936	0.63636	0.1	2.8426e-003
26107	13.028	0.54545	0.1	3.133e-003
26108	12.936	0.81818	0.1	2.2155e-003
26109	13.028	0.72727	0.1	2.6722e-003
26110	12.936	1.	0.1	1.4241e-003
26111	13.028	0.90909	0.1	1.7629e-003
26112	12.936	1.1818	0.1	6.473e-004
26113	13.028	1.0909	0.1	9.4437e-004
26114	12.936	1.3636	0.1	-1.6719e-004
26115	13.028	1.2727	0.1	7.8623e-005
26116	12.936	1.5455	0.1	-1.0108e-003
26117	13.028	1.4545	0.1	-8.0245e-004
26118	12.936	1.7273	0.1	-1.8838e-003
26119	13.028	1.6364	0.1	-1.7017e-003
26120	12.936	1.9091	0.1	-2.7757e-003
26121	13.028	1.8182	0.1	-2.608e-003
26122	12.936	2.0909	0.1	-3.6643e-003
26123	13.028	2.	0.1	-3.5026e-003
26124	12.936	2.2727	0.1	-4.5134e-003
26125	13.028	2.1818	0.1	-4.354e-003
26126	12.936	2.4545	0.1	-5.273e-003
26127	13.028	2.3636	0.1	-5.1242e-003
26128	12.936	2.6364	0.1	-5.8817e-003
26129	13.028	2.5455	0.1	-5.765e-003
26130	12.936	2.8182	0.1	-6.2779e-003
26131	13.028	2.7273	0.1	-6.2277e-003
26132	12.936	3.	0.1	-6.4154e-003
26133	13.028	2.9091	0.1	-6.4703e-003
26134	12.936	3.1818	0.1	-6.2777e-003
26135	13.028	3.0909	0.1	-6.4703e-003
26136	12.936	3.3636	0.1	-5.8814e-003
26137	13.028	3.2727	0.1	-6.2277e-003
26138	12.936	3.5455	0.1	-5.2725e-003
26139	13.028	3.4545	0.1	-5.765e-003
26140	12.936	3.7273	0.1	-4.5129e-003
26141	13.028	3.6364	0.1	-5.1233e-003
26142	12.936	3.9091	0.1	-3.6641e-003
26143	13.028	3.8182	0.1	-4.3538e-003
26144	12.936	4.0909	0.1	-2.7756e-003
26145	13.028	4.	0.1	-3.5022e-003
26146	12.936	4.2727	0.1	-1.8834e-003
26147	13.028	4.1818	0.1	-2.6081e-003
26148	12.936	4.4545	0.1	-1.0103e-003
26149	13.028	4.3636	0.1	-1.7009e-003
26150	12.936	4.6364	0.1	-1.6695e-004
26151	13.028	4.5455	0.1	-8.0225e-004
26152	12.936	4.8182	0.1	6.4806e-004
26153	13.028	4.7273	0.1	7.89e-005
26154	12.936	5.	0.1	1.4254e-003
26155	13.028	4.9091	0.1	9.451e-004
26156	12.936	5.1818	0.1	2.2166e-003
26157	13.028	5.0909	0.1	1.7638e-003
26158	12.936	5.3636	0.1	2.843e-003
26159	13.028	5.2727	0.1	2.673e-003
26160	12.936	5.5455	0.1	4.3435e-003
26161	13.028	5.4545	0.1	3.1331e-003
26162	12.936	5.7273	0.1	3.8598e-003
26163	13.028	5.6364	0.1	5.9184e-003
26164	13.028	5.8182	0.1	1.4217e-003
26165	12.936	5.9091	0.1	2.5886e-003
26166	13.121	0.27273	0.1	4.1564e-003
26167	13.213	0.18182	0.1	1.2435e-003
26168	13.121	9.0909e-002	0.1	2.7507e-003
26169	13.121	0.45455	0.1	4.7781e-003
26170	13.213	0.36364	0.1	6.5771e-003
26171	13.121	0.63636	0.1	2.9921e-003
26172	13.213	0.54545	0.1	3.3181e-003
26173	13.121	0.81818	0.1	2.248e-003
26174	13.213	0.72727	0.1	2.7823e-003
26175	13.121	1.	0.1	1.3143e-003
26176	13.213	0.90909	0.1	1.727e-003
26177	13.121	1.1818	0.1	4.1083e-004
26178	13.213	1.0909	0.1	7.9026e-004
26179	13.121	1.3636	0.1	-5.1708e-004
26180	13.213	1.2727	0.1	-1.8454e-004
26181	13.121	1.5455	0.1	-1.4501e-003
26182	13.213	1.4545	0.1	-1.1525e-003
26183	13.121	1.7273	0.1	-2.3814e-003
26184	13.213	1.6364	0.1	-2.1126e-003
26185	13.121	1.9091	0.1	-3.2938e-003
26186	13.213	1.8182	0.1	-3.0486e-003
26187	13.121	2.0909	0.1	-4.1615e-003
26188	13.213	2.	0.1	-3.9387e-003
26189	13.121	2.2727	0.1	-4.952e-003
26190	13.213	2.1818	0.1	-4.7546e-003
26191	13.121	2.4545	0.1	-5.6275e-003
26192	13.213	2.3636	0.1	-5.466e-003
26193	13.121	2.6364	0.1	-6.1479e-003
26194	13.213	2.5455	0.1	-6.0394e-003
26195	13.121	2.8182	0.1	-6.4768e-003
26196	13.213	2.7273	0.1	-6.4419e-003
26197	13.121	3.	0.1	-6.5893e-003
26198	13.213	2.9091	0.1	-6.6498e-003
26199	13.121	3.1818	0.1	-6.4769e-003
26200	13.213	3.0909	0.1	-6.6497e-003
26201	13.121	3.3636	0.1	-6.1481e-003
26202	13.213	3.2727	0.1	-6.4419e-003
26203	13.121	3.5455	0.1	-5.6272e-003
26204	13.213	3.4545	0.1	-6.0393e-003
26205	13.121	3.7273	0.1	-4.9514e-003
26206	13.213	3.6364	0.1	-5.4657e-003
26207	13.121	3.9091	0.1	-4.1611e-003
26208	13.213	3.8182	0.1	-4.7545e-003
26209	13.121	4.0909	0.1	-3.2937e-003
26210	13.213	4.	0.1	-3.9387e-003
26211	13.121	4.2727	0.1	-2.3811e-003
26212	13.213	4.1818	0.1	-3.0486e-003
26213	13.121	4.4545	0.1	-1.4495e-003
26214	13.213	4.3636	0.1	-2.1121e-003
26215	13.121	4.6364	0.1	-5.1683e-004
26216	13.213	4.5455	0.1	-1.1519e-003
26217	13.121	4.8182	0.1	4.1107e-004
26218	13.213	4.7273	0.1	-1.8394e-004
26219	13.121	5.	0.1	1.3147e-003
26220	13.213	4.9091	0.1	7.909e-004
26221	13.121	5.1818	0.1	2.2487e-003
26222	13.213	5.0909	0.1	1.7279e-003
26223	13.121	5.3636	0.1	2.9926e-003
26224	13.213	5.2727	0.1	2.7835e-003
26225	13.121	5.5455	0.1	4.7784e-003
26226	13.213	5.4545	0.1	3.318e-003
26227	13.121	5.7273	0.1	4.1569e-003
26228	13.213	5.6364	0.1	6.5778e-003
26229	13.213	5.8182	0.1	1.2439e-003
26230	13.121	5.9091	0.1	2.7507e-003
26231	13.306	0.27273	0.1	4.446e-003
26232	13.398	0.18182	0.1	1.0812e-003
26233	13.306	9.0909e-002	0.1	2.9105e-003
26234	13.306	0.45455	0.1	5.1946e-003
26235	13.398	0.36364	0.1	7.2116e-003
26236	13.306	0.63636	0.1	3.1372e-003
26237	13.398	0.54545	0.1	3.4958e-003
26238	13.306	0.81818	0.1	2.287e-003
26239	13.398	0.72727	0.1	2.8918e-003
26240	13.306	1.	0.1	1.2287e-003
26241	13.398	0.90909	0.1	1.7041e-003
26242	13.306	1.1818	0.1	2.2097e-004
26243	13.398	1.0909	0.1	6.6587e-004
26244	13.306	1.3636	0.1	-7.9404e-004
26245	13.398	1.2727	0.1	-3.9834e-004
26246	13.306	1.5455	0.1	-1.7907e-003
26247	13.398	1.4545	0.1	-1.434e-003
26248	13.306	1.7273	0.1	-2.7595e-003
26249	13.398	1.6364	0.1	-2.4385e-003
26250	13.306	1.9091	0.1	-3.6802e-003
26251	13.398	1.8182	0.1	-3.3935e-003
26252	13.306	2.0909	0.1	-4.5291e-003
26253	13.398	2.	0.1	-4.2783e-003
26254	13.306	2.2727	0.1	-5.2799e-003
26255	13.398	2.1818	0.1	-5.0694e-003
26256	13.306	2.4545	0.1	-5.9044e-003
26257	13.398	2.3636	0.1	-5.7423e-003
26258	13.306	2.6364	0.1	-6.3742e-003
26259	13.398	2.5455	0.1	-6.2739e-003
26260	13.306	2.8182	0.1	-6.666e-003
26261	13.398	2.7273	0.1	-6.6413e-003
26262	13.306	3.	0.1	-6.7649e-003
26263	13.398	2.9091	0.1	-6.8288e-003
26264	13.306	3.1818	0.1	-6.6658e-003
26265	13.398	3.0909	0.1	-6.8287e-003
26266	13.306	3.3636	0.1	-6.3739e-003
26267	13.398	3.2727	0.1	-6.6412e-003
26268	13.306	3.5455	0.1	-5.9043e-003
26269	13.398	3.4545	0.1	-6.2738e-003
26270	13.306	3.7273	0.1	-5.28e-003
26271	13.398	3.6364	0.1	-5.7423e-003
26272	13.306	3.9091	0.1	-4.5295e-003
26273	13.398	3.8182	0.1	-5.0688e-003
26274	13.306	4.0909	0.1	-3.6804e-003
26275	13.398	4.	0.1	-4.2786e-003
26276	13.306	4.2727	0.1	-2.7592e-003
26277	13.398	4.1818	0.1	-3.3931e-003
26278	13.306	4.4545	0.1	-1.7902e-003
26279	13.398	4.3636	0.1	-2.4384e-003
26280	13.306	4.6364	0.1	-7.9316e-004
26281	13.398	4.5455	0.1	-1.4332e-003
26282	13.306	4.8182	0.1	2.2196e-004
26283	13.398	4.7273	0.1	-3.9778e-004
26284	13.306	5.	0.1	1.2298e-003
26285	13.398	4.9091	0.1	6.6679e-004
26286	13.306	5.1818	0.1	2.2884e-003
26287	13.398	5.0909	0.1	1.7053e-003
26288	13.306	5.3636	0.1	3.1378e-003
26289	13.398	5.2727	0.1	2.8931e-003
26290	13.306	5.5455	0.1	5.1949e-003
26291	13.398	5.4545	0.1	3.4958e-003
26292	13.306	5.7273	0.1	4.4466e-003
26293	13.398	5.6364	0.1	7.2117e-003
26294	13.398	5.8182	0.1	1.0819e-003
26295	13.306	5.9091	0.1	2.911e-003
26296	13.49	0.27273	0.1	4.7303e-003
26297	13.583	0.18182	0.1	9.3351e-004
26298	13.49	9.0909e-002	0.1	3.0685e-003
26299	13.49	0.45455	0.1	5.5962e-003
26300	13.583	0.36364	0.1	7.8246e-003
26301	13.49	0.63636	0.1	3.2776e-003
26302	13.583	0.54545	0.1	3.6672e-003
26303	13.49	0.81818	0.1	2.331e-003
26304	13.583	0.72727	0.1	2.9999e-003
26305	13.49	1.	0.1	1.1615e-003
26306	13.583	0.90909	0.1	1.6909e-003
26307	13.49	1.1818	0.1	6.4866e-005
26308	13.583	1.0909	0.1	5.6241e-004
26309	13.49	1.3636	0.1	-1.0227e-003
26310	13.583	1.2727	0.1	-5.7903e-004
26311	13.49	1.5455	0.1	-2.0702e-003
26312	13.583	1.4545	0.1	-1.6711e-003
26313	13.49	1.7273	0.1	-3.0665e-003
26314	13.583	1.6364	0.1	-2.7112e-003
26315	13.49	1.9091	0.1	-3.9932e-003
26316	13.583	1.8182	0.1	-3.6811e-003
26317	13.49	2.0909	0.1	-4.8294e-003
26318	13.583	2.	0.1	-4.5636e-003
26319	13.49	2.2727	0.1	-5.5532e-003
26320	13.583	2.1818	0.1	-5.3376e-003
26321	13.49	2.4545	0.1	-6.1437e-003
26322	13.583	2.3636	0.1	-5.9849e-003
26323	13.49	2.6364	0.1	-6.5819e-003
26324	13.583	2.5455	0.1	-6.4894e-003
26325	13.49	2.8182	0.1	-6.8512e-003
26326	13.583	2.7273	0.1	-6.8339e-003
26327	13.49	3.	0.1	-6.9419e-003
26328	13.583	2.9091	0.1	-7.0089e-003
26329	13.49	3.1818	0.1	-6.8513e-003
26330	13.583	3.0909	0.1	-7.0089e-003
26331	13.49	3.3636	0.1	-6.582e-003
26332	13.583	3.2727	0.1	-6.8342e-003
26333	13.49	3.5455	0.1	-6.1436e-003
26334	13.583	3.4545	0.1	-6.4891e-003
26335	13.49	3.7273	0.1	-5.5525e-003
26336	13.583	3.6364	0.1	-5.9846e-003
26337	13.49	3.9091	0.1	-4.8288e-003
26338	13.583	3.8182	0.1	-5.337e-003
26339	13.49	4.0909	0.1	-3.9929e-003
26340	13.583	4.	0.1	-4.5634e-003
26341	13.49	4.2727	0.1	-3.0663e-003
26342	13.583	4.1818	0.1	-3.6808e-003
26343	13.49	4.4545	0.1	-2.0698e-003
26344	13.583	4.3636	0.1	-2.711e-003
26345	13.49	4.6364	0.1	-1.0222e-003
26346	13.583	4.5455	0.1	-1.6706e-003
26347	13.49	4.8182	0.1	6.5366e-005
26348	13.583	4.7273	0.1	-5.7835e-004
26349	13.49	5.	0.1	1.1625e-003
26350	13.583	4.9091	0.1	5.6293e-004
26351	13.49	5.1818	0.1	2.3321e-003
26352	13.583	5.0909	0.1	1.6918e-003
26353	13.49	5.3636	0.1	3.2784e-003
26354	13.583	5.2727	0.1	3.0013e-003
26355	13.49	5.5455	0.1	5.5959e-003
26356	13.583	5.4545	0.1	3.6673e-003
26357	13.49	5.7273	0.1	4.7305e-003
26358	13.583	5.6364	0.1	7.8246e-003
26359	13.583	5.8182	0.1	9.3369e-004
26360	13.49	5.9091	0.1	3.0696e-003
26361	13.675	0.27273	0.1	5.01e-003
26362	13.768	0.18182	0.1	7.9735e-004
26363	13.675	9.0909e-002	0.1	3.2266e-003
26364	13.675	0.45455	0.1	5.9836e-003
26365	13.768	0.36364	0.1	8.4202e-003
26366	13.675	0.63636	0.1	3.4143e-003
26367	13.768	0.54545	0.1	3.8331e-003
26368	13.675	0.81818	0.1	2.378e-003
26369	13.768	0.72727	0.1	3.1069e-003
26370	13.675	1.	0.1	1.1067e-003
26371	13.768	0.90909	0.1	1.6834e-003
26372	13.675	1.1818	0.1	-6.9954e-005
26373	13.768	1.0909	0.1	4.7254e-004
26374	13.675	1.3636	0.1	-1.22e-003
26375	13.768	1.2727	0.1	-7.3754e-004
26376	13.675	1.5455	0.1	-2.3096e-003
26377	13.768	1.4545	0.1	-1.8783e-003
26378	13.675	1.7273	0.1	-3.3293e-003
26379	13.768	1.6364	0.1	-2.9497e-003
26380	13.675	1.9091	0.1	-4.2622e-003
26381	13.768	1.8182	0.1	-3.9336e-003
26382	13.675	2.0909	0.1	-5.0902e-003
26383	13.768	2.	0.1	-4.8157e-003
26384	13.675	2.2727	0.1	-5.7958e-003
26385	13.768	2.1818	0.1	-5.5785e-003
26386	13.675	2.4545	0.1	-6.3647e-003
26387	13.768	2.3636	0.1	-6.2093e-003
26388	13.675	2.6364	0.1	-6.7819e-003
26389	13.768	2.5455	0.1	-6.6958e-003
26390	13.675	2.8182	0.1	-7.0361e-003
26391	13.768	2.7273	0.1	-7.0249e-003
26392	13.675	3.	0.1	-7.1218e-003
26393	13.768	2.9091	0.1	-7.1916e-003
26394	13.675	3.1818	0.1	-7.0362e-003
26395	13.768	3.0909	0.1	-7.1916e-003
26396	13.675	3.3636	0.1	-6.7816e-003
26397	13.768	3.2727	0.1	-7.0253e-003
26398	13.675	3.5455	0.1	-6.3641e-003
26399	13.768	3.4545	0.1	-6.6952e-003
26400	13.675	3.7273	0.1	-5.7956e-003
26401	13.768	3.6364	0.1	-6.209e-003
26402	13.675	3.9091	0.1	-5.09e-003
26403	13.768	3.8182	0.1	-5.5785e-003
26404	13.675	4.0909	0.1	-4.2619e-003
26405	13.768	4.	0.1	-4.8156e-003
26406	13.675	4.2727	0.1	-3.329e-003
26407	13.768	4.1818	0.1	-3.9332e-003
26408	13.675	4.4545	0.1	-2.3093e-003
26409	13.768	4.3636	0.1	-2.9492e-003
26410	13.675	4.6364	0.1	-1.2192e-003
26411	13.768	4.5455	0.1	-1.8783e-003
26412	13.675	4.8182	0.1	-6.9248e-005
26413	13.768	4.7273	0.1	-7.3671e-004
26414	13.675	5.	0.1	1.1072e-003
26415	13.768	4.9091	0.1	4.7292e-004
26416	13.675	5.1818	0.1	2.3792e-003
26417	13.768	5.0909	0.1	1.6844e-003
26418	13.675	5.3636	0.1	3.4151e-003
26419	13.768	5.2727	0.1	3.1079e-003
26420	13.675	5.5455	0.1	5.9839e-003
26421	13.768	5.4545	0.1	3.8337e-003
26422	13.675	5.7273	0.1	5.01e-003
26423	13.768	5.6364	0.1	8.4205e-003
26424	13.768	5.8182	0.1	7.9711e-004
26425	13.675	5.9091	0.1	3.2265e-003
26426	13.86	0.27273	0.1	5.2863e-003
26427	13.952	0.18182	0.1	6.7072e-004
26428	13.86	9.0909e-002	0.1	3.3808e-003
26429	13.86	0.45455	0.1	6.3615e-003
26430	13.952	0.36364	0.1	9.003e-003
26431	13.86	0.63636	0.1	3.5477e-003
26432	13.952	0.54545	0.1	3.9955e-003
26433	13.86	0.81818	0.1	2.4264e-003
26434	13.952	0.72727	0.1	3.2118e-003
26435	13.86	1.	0.1	1.0591e-003
26436	13.952	0.90909	0.1	1.6796e-003
26437	13.86	1.1818	0.1	-1.8953e-004
26438	13.952	1.0909	0.1	3.9283e-004
26439	13.86	1.3636	0.1	-1.3951e-003
26440	13.952	1.2727	0.1	-8.7998e-004
26441	13.86	1.5455	0.1	-2.5228e-003
26442	13.952	1.4545	0.1	-2.0655e-003
26443	13.86	1.7273	0.1	-3.5643e-003
26444	13.952	1.6364	0.1	-3.1658e-003
26445	13.86	1.9091	0.1	-4.5038e-003
26446	13.952	1.8182	0.1	-4.1637e-003
26447	13.86	2.0909	0.1	-5.3271e-003
26448	13.952	2.	0.1	-5.0476e-003
26449	13.86	2.2727	0.1	-6.0215e-003
26450	13.952	2.1818	0.1	-5.8037e-003
26451	13.86	2.4545	0.1	-6.5756e-003
26452	13.952	2.3636	0.1	-6.4236e-003
26453	13.86	2.6364	0.1	-6.9786e-003
26454	13.952	2.5455	0.1	-6.8973e-003
26455	13.86	2.8182	0.1	-7.223e-003
26456	13.952	2.7273	0.1	-7.2168e-003
26457	13.86	3.	0.1	-7.3051e-003
26458	13.952	2.9091	0.1	-7.3777e-003
26459	13.86	3.1818	0.1	-7.2234e-003
26460	13.952	3.0909	0.1	-7.3777e-003
26461	13.86	3.3636	0.1	-6.9786e-003
26462	13.952	3.2727	0.1	-7.2171e-003
26463	13.86	3.5455	0.1	-6.5753e-003
26464	13.952	3.4545	0.1	-6.8974e-003
26465	13.86	3.7273	0.1	-6.0215e-003
26466	13.952	3.6364	0.1	-6.4236e-003
26467	13.86	3.9091	0.1	-5.3273e-003
26468	13.952	3.8182	0.1	-5.8039e-003
26469	13.86	4.0909	0.1	-4.5037e-003
26470	13.952	4.	0.1	-5.0474e-003
26471	13.86	4.2727	0.1	-3.5638e-003
26472	13.952	4.1818	0.1	-4.1633e-003
26473	13.86	4.4545	0.1	-2.5227e-003
26474	13.952	4.3636	0.1	-3.1651e-003
26475	13.86	4.6364	0.1	-1.395e-003
26476	13.952	4.5455	0.1	-2.0659e-003
26477	13.86	4.8182	0.1	-1.8903e-004
26478	13.952	4.7273	0.1	-8.7951e-004
26479	13.86	5.	0.1	1.0599e-003
26480	13.952	4.9091	0.1	3.9316e-004
26481	13.86	5.1818	0.1	2.4271e-003
26482	13.952	5.0909	0.1	1.6809e-003
26483	13.86	5.3636	0.1	3.5485e-003
26484	13.952	5.2727	0.1	3.2132e-003
26485	13.86	5.5455	0.1	6.3621e-003
26486	13.952	5.4545	0.1	3.9963e-003
26487	13.86	5.7273	0.1	5.2864e-003
26488	13.952	5.6364	0.1	9.0029e-003
26489	13.952	5.8182	0.1	6.7087e-004
26490	13.86	5.9091	0.1	3.3815e-003
26491	14.045	0.27273	0.1	5.5609e-003
26492	14.137	0.18182	0.1	5.5368e-004
26493	14.045	9.0909e-002	0.1	3.5341e-003
26494	14.045	0.45455	0.1	6.7318e-003
26495	14.137	0.36364	0.1	9.5754e-003
26496	14.045	0.63636	0.1	3.6784e-003
26497	14.137	0.54545	0.1	4.1548e-003
26498	14.045	0.81818	0.1	2.4749e-003
26499	14.137	0.72727	0.1	3.3156e-003
26500	14.045	1.	0.1	1.0182e-003
26501	14.137	0.90909	0.1	1.6783e-003
26502	14.045	1.1818	0.1	-2.9755e-004
26503	14.137	1.0909	0.1	3.1991e-004
26504	14.045	1.3636	0.1	-1.5554e-003
26505	14.137	1.2727	0.1	-1.0123e-003
26506	14.045	1.5455	0.1	-2.7187e-003
26507	14.137	1.4545	0.1	-2.2398e-003
26508	14.045	1.7273	0.1	-3.7808e-003
26509	14.137	1.6364	0.1	-3.3673e-003
26510	14.045	1.9091	0.1	-4.7286e-003
26511	14.137	1.8182	0.1	-4.3793e-003
26512	14.045	2.0909	0.1	-5.5507e-003
26513	14.137	2.	0.1	-5.2675e-003
26514	14.045	2.2727	0.1	-6.2373e-003
26515	14.137	2.1818	0.1	-6.0203e-003
26516	14.045	2.4545	0.1	-6.7811e-003
26517	14.137	2.3636	0.1	-6.6329e-003
26518	14.045	2.6364	0.1	-7.1748e-003
26519	14.137	2.5455	0.1	-7.0982e-003
26520	14.045	2.8182	0.1	-7.4128e-003
26521	14.137	2.7273	0.1	-7.4109e-003
26522	14.045	3.	0.1	-7.4924e-003
26523	14.137	2.9091	0.1	-7.5677e-003
26524	14.045	3.1818	0.1	-7.4128e-003
26525	14.137	3.0909	0.1	-7.5679e-003
26526	14.045	3.3636	0.1	-7.1751e-003
26527	14.137	3.2727	0.1	-7.4109e-003
26528	14.045	3.5455	0.1	-6.7815e-003
26529	14.137	3.4545	0.1	-7.0982e-003
26530	14.045	3.7273	0.1	-6.2375e-003
26531	14.137	3.6364	0.1	-6.6329e-003
26532	14.045	3.9091	0.1	-5.5504e-003
26533	14.137	3.8182	0.1	-6.0201e-003
26534	14.045	4.0909	0.1	-4.7281e-003
26535	14.137	4.	0.1	-5.2668e-003
26536	14.045	4.2727	0.1	-3.7802e-003
26537	14.137	4.1818	0.1	-4.3789e-003
26538	14.045	4.4545	0.1	-2.7185e-003
26539	14.137	4.3636	0.1	-3.3662e-003
26540	14.045	4.6364	0.1	-1.5553e-003
26541	14.137	4.5455	0.1	-2.24e-003
26542	14.045	4.8182	0.1	-2.9726e-004
26543	14.137	4.7273	0.1	-1.0117e-003
26544	14.045	5.	0.1	1.019e-003
26545	14.137	4.9091	0.1	3.2004e-004
26546	14.045	5.1818	0.1	2.4768e-003
26547	14.137	5.0909	0.1	1.6801e-003
26548	14.045	5.3636	0.1	3.6798e-003
26549	14.137	5.2727	0.1	3.317e-003
26550	14.045	5.5455	0.1	6.7319e-003
26551	14.137	5.4545	0.1	4.1552e-003
26552	14.045	5.7273	0.1	5.5608e-003
26553	14.137	5.6364	0.1	9.5752e-003
26554	14.137	5.8182	0.1	5.538e-004
26555	14.045	5.9091	0.1	3.535e-003
26556	14.23	0.27273	0.1	5.8353e-003
26557	14.322	0.18182	0.1	4.4506e-004
26558	14.23	9.0909e-002	0.1	3.6872e-003
26559	14.23	0.45455	0.1	7.0958e-003
26560	14.322	0.36364	0.1	1.0143e-002
26561	14.23	0.63636	0.1	3.8073e-003
26562	14.322	0.54545	0.1	4.3118e-003
26563	14.23	0.81818	0.1	2.5244e-003
26564	14.322	0.72727	0.1	3.4183e-003
26565	14.23	1.	0.1	9.8e-004
26566	14.322	0.90909	0.1	1.6788e-003
26567	14.23	1.1818	0.1	-3.9978e-004
26568	14.322	1.0909	0.1	2.5063e-004
26569	14.23	1.3636	0.1	-1.7067e-003
26570	14.322	1.2727	0.1	-1.1377e-003
26571	14.23	1.5455	0.1	-2.9033e-003
26572	14.322	1.4545	0.1	-2.4056e-003
26573	14.23	1.7273	0.1	-3.9856e-003
26574	14.322	1.6364	0.1	-3.5585e-003
26575	14.23	1.9091	0.1	-4.9426e-003
26576	14.322	1.8182	0.1	-4.5858e-003
26577	14.23	2.0909	0.1	-5.7659e-003
26578	14.322	2.	0.1	-5.4796e-003
26579	14.23	2.2727	0.1	-6.4488e-003
26580	14.322	2.1818	0.1	-6.2326e-003
26581	14.23	2.4545	0.1	-6.9863e-003
26582	14.322	2.3636	0.1	-6.8406e-003
26583	14.23	2.6364	0.1	-7.3731e-003
26584	14.322	2.5455	0.1	-7.3005e-003
26585	14.23	2.8182	0.1	-7.6061e-003
26586	14.322	2.7273	0.1	-7.6084e-003
26587	14.23	3.	0.1	-7.6842e-003
26588	14.322	2.9091	0.1	-7.7623e-003
26589	14.23	3.1818	0.1	-7.6064e-003
26590	14.322	3.0909	0.1	-7.7627e-003
26591	14.23	3.3636	0.1	-7.3729e-003
26592	14.322	3.2727	0.1	-7.6083e-003
26593	14.23	3.5455	0.1	-6.9859e-003
26594	14.322	3.4545	0.1	-7.3003e-003
26595	14.23	3.7273	0.1	-6.4485e-003
26596	14.322	3.6364	0.1	-6.8404e-003
26597	14.23	3.9091	0.1	-5.7654e-003
26598	14.322	3.8182	0.1	-6.2319e-003
26599	14.23	4.0909	0.1	-4.9421e-003
26600	14.322	4.	0.1	-5.4794e-003
26601	14.23	4.2727	0.1	-3.9846e-003
26602	14.322	4.1818	0.1	-4.5852e-003
26603	14.23	4.4545	0.1	-2.9026e-003
26604	14.322	4.3636	0.1	-3.5583e-003
26605	14.23	4.6364	0.1	-1.7063e-003
26606	14.322	4.5455	0.1	-2.4051e-003
26607	14.23	4.8182	0.1	-3.9937e-004
26608	14.322	4.7273	0.1	-1.1375e-003
26609	14.23	5.	0.1	9.812e-004
26610	14.322	4.9091	0.1	2.517e-004
26611	14.23	5.1818	0.1	2.5258e-003
26612	14.322	5.0909	0.1	1.6805e-003
26613	14.23	5.3636	0.1	3.8076e-003
26614	14.322	5.2727	0.1	3.4196e-003
26615	14.23	5.5455	0.1	7.0958e-003
26616	14.322	5.4545	0.1	4.3117e-003
26617	14.23	5.7273	0.1	5.8353e-003
26618	14.322	5.6364	0.1	1.0143e-002
26619	14.322	5.8182	0.1	4.4514e-004
26620	14.23	5.9091	0.1	3.6875e-003
26621	14.414	0.27273	0.1	6.113e-003
26622	14.507	0.18182	0.1	3.4388e-004
26623	14.414	9.0909e-002	0.1	3.8387e-003
26624	14.414	0.45455	0.1	7.4583e-003
26625	14.507	0.36364	0.1	1.0709e-002
26626	14.414	0.63636	0.1	3.9342e-003
26627	14.507	0.54545	0.1	4.4677e-003
26628	14.414	0.81818	0.1	2.5737e-003
26629	14.507	0.72727	0.1	3.5196e-003
26630	14.414	1.	0.1	9.4484e-004
26631	14.507	0.90909	0.1	1.6803e-003
26632	14.414	1.1818	0.1	-4.9688e-004
26633	14.507	1.0909	0.1	1.8407e-004
26634	14.414	1.3636	0.1	-1.851e-003
26635	14.507	1.2727	0.1	-1.2585e-003
26636	14.414	1.5455	0.1	-3.0797e-003
26637	14.507	1.4545	0.1	-2.5659e-003
26638	14.414	1.7273	0.1	-4.182e-003
26639	14.507	1.6364	0.1	-3.7447e-003
26640	14.414	1.9091	0.1	-5.1501e-003
26641	14.507	1.8182	0.1	-4.7875e-003
26642	14.414	2.0909	0.1	-5.9772e-003
26643	14.507	2.	0.1	-5.6888e-003
26644	14.414	2.2727	0.1	-6.6584e-003
26645	14.507	2.1818	0.1	-6.4433e-003
26646	14.414	2.4545	0.1	-7.1915e-003
26647	14.507	2.3636	0.1	-7.0492e-003
26648	14.414	2.6364	0.1	-7.5743e-003
26649	14.507	2.5455	0.1	-7.506e-003
26650	14.414	2.8182	0.1	-7.8043e-003
26651	14.507	2.7273	0.1	-7.8105e-003
26652	14.414	3.	0.1	-7.881e-003
26653	14.507	2.9091	0.1	-7.9628e-003
26654	14.414	3.1818	0.1	-7.8044e-003
26655	14.507	3.0909	0.1	-7.963e-003
26656	14.414	3.3636	0.1	-7.5743e-003
26657	14.507	3.2727	0.1	-7.8105e-003
26658	14.414	3.5455	0.1	-7.1914e-003
26659	14.507	3.4545	0.1	-7.5059e-003
26660	14.414	3.7273	0.1	-6.6579e-003
26661	14.507	3.6364	0.1	-7.0492e-003
26662	14.414	3.9091	0.1	-5.9768e-003
26663	14.507	3.8182	0.1	-6.4428e-003
26664	14.414	4.0909	0.1	-5.1498e-003
26665	14.507	4.	0.1	-5.6883e-003
26666	14.414	4.2727	0.1	-4.1822e-003
26667	14.507	4.1818	0.1	-4.7871e-003
26668	14.414	4.4545	0.1	-3.0798e-003
26669	14.507	4.3636	0.1	-3.7451e-003
26670	14.414	4.6364	0.1	-1.8507e-003
26671	14.507	4.5455	0.1	-2.5651e-003
26672	14.414	4.8182	0.1	-4.9605e-004
26673	14.507	4.7273	0.1	-1.2587e-003
26674	14.414	5.	0.1	9.464e-004
26675	14.507	4.9091	0.1	1.8523e-004
26676	14.414	5.1818	0.1	2.5753e-003
26677	14.507	5.0909	0.1	1.6815e-003
26678	14.414	5.3636	0.1	3.9351e-003
26679	14.507	5.2727	0.1	3.5212e-003
26680	14.414	5.5455	0.1	7.4578e-003
26681	14.507	5.4545	0.1	4.4674e-003
26682	14.414	5.7273	0.1	6.1127e-003
26683	14.507	5.6364	0.1	1.0708e-002
26684	14.507	5.8182	0.1	3.4411e-004
26685	14.414	5.9091	0.1	3.8396e-003
26686	14.599	0.27273	0.1	6.3931e-003
26687	14.692	0.18182	0.1	2.4953e-004
26688	14.599	9.0909e-002	0.1	3.9915e-003
26689	14.599	0.45455	0.1	7.8189e-003
26690	14.692	0.36364	0.1	1.1275e-002
26691	14.599	0.63636	0.1	4.0603e-003
26692	14.692	0.54545	0.1	4.6223e-003
26693	14.599	0.81818	0.1	2.6225e-003
26694	14.692	0.72727	0.1	3.6204e-003
26695	14.599	1.	0.1	9.1028e-004
26696	14.692	0.90909	0.1	1.6812e-003
26697	14.599	1.1818	0.1	-5.9164e-004
26698	14.692	1.0909	0.1	1.1876e-004
26699	14.599	1.3636	0.1	-1.992e-003
26700	14.692	1.2727	0.1	-1.3784e-003
26701	14.599	1.5455	0.1	-3.2535e-003
26702	14.692	1.4545	0.1	-2.724e-003
26703	14.599	1.7273	0.1	-4.3765e-003
26704	14.692	1.6364	0.1	-3.9297e-003
26705	14.599	1.9091	0.1	-5.3558e-003
26706	14.692	1.8182	0.1	-4.988e-003
26707	14.599	2.0909	0.1	-6.1873e-003
26708	14.692	2.	0.1	-5.8975e-003
26709	14.599	2.2727	0.1	-6.869e-003
26710	14.692	2.1818	0.1	-6.6549e-003
26711	14.599	2.4545	0.1	-7.4006e-003
26712	14.692	2.3636	0.1	-7.2611e-003
26713	14.599	2.6364	0.1	-7.7806e-003
26714	14.692	2.5455	0.1	-7.7162e-003
26715	14.599	2.8182	0.1	-8.0084e-003
26716	14.692	2.7273	0.1	-8.0184e-003
26717	14.599	3.	0.1	-8.0845e-003
26718	14.692	2.9091	0.1	-8.1697e-003
26719	14.599	3.1818	0.1	-8.0085e-003
26720	14.692	3.0909	0.1	-8.17e-003
26721	14.599	3.3636	0.1	-7.7805e-003
26722	14.692	3.2727	0.1	-8.0187e-003
26723	14.599	3.5455	0.1	-7.4007e-003
26724	14.692	3.4545	0.1	-7.7159e-003
26725	14.599	3.7273	0.1	-6.8691e-003
26726	14.692	3.6364	0.1	-7.2613e-003
26727	14.599	3.9091	0.1	-6.1868e-003
26728	14.692	3.8182	0.1	-6.6547e-003
26729	14.599	4.0909	0.1	-5.3552e-003
26730	14.692	4.	0.1	-5.8969e-003
26731	14.599	4.2727	0.1	-4.3762e-003
26732	14.692	4.1818	0.1	-4.9878e-003
26733	14.599	4.4545	0.1	-3.2529e-003
26734	14.692	4.3636	0.1	-3.9292e-003
26735	14.599	4.6364	0.1	-1.9916e-003
26736	14.692	4.5455	0.1	-2.7233e-003
26737	14.599	4.8182	0.1	-5.9153e-004
26738	14.692	4.7273	0.1	-1.3782e-003
26739	14.599	5.	0.1	9.1111e-004
26740	14.692	4.9091	0.1	1.1873e-004
26741	14.599	5.1818	0.1	2.6238e-003
26742	14.692	5.0909	0.1	1.6823e-003
26743	14.599	5.3636	0.1	4.0608e-003
26744	14.692	5.2727	0.1	3.6219e-003
26745	14.599	5.5455	0.1	7.8184e-003
26746	14.692	5.4545	0.1	4.6222e-003
26747	14.599	5.7273	0.1	6.393e-003
26748	14.692	5.6364	0.1	1.1275e-002
26749	14.692	5.8182	0.1	2.5006e-004
26750	14.599	5.9091	0.1	3.992e-003
26751	14.784	0.27273	0.1	6.6791e-003
26752	14.876	0.18182	0.1	1.6257e-004
26753	14.784	9.0909e-002	0.1	4.145e-003
26754	14.784	0.45455	0.1	8.1803e-003
26755	14.876	0.36364	0.1	1.1848e-002
26756	14.784	0.63636	0.1	4.1853e-003
26757	14.876	0.54545	0.1	4.7772e-003
26758	14.784	0.81818	0.1	2.6708e-003
26759	14.876	0.72727	0.1	3.7206e-003
26760	14.784	1.	0.1	8.7582e-004
26761	14.876	0.90909	0.1	1.6811e-003
26762	14.784	1.1818	0.1	-6.8634e-004
26763	14.876	1.0909	0.1	5.2772e-005
26764	14.784	1.3636	0.1	-2.1327e-003
26765	14.876	1.2727	0.1	-1.4982e-003
26766	14.784	1.5455	0.1	-3.4261e-003
26767	14.876	1.4545	0.1	-2.8814e-003
26768	14.784	1.7273	0.1	-4.5702e-003
26769	14.876	1.6364	0.1	-4.1141e-003
26770	14.784	1.9091	0.1	-5.5613e-003
26771	14.876	1.8182	0.1	-5.1891e-003
26772	14.784	2.0909	0.1	-6.399e-003
26773	14.876	2.	0.1	-6.1081e-003
26774	14.784	2.2727	0.1	-7.0829e-003
26775	14.876	2.1818	0.1	-6.8701e-003
26776	14.784	2.4545	0.1	-7.6141e-003
26777	14.876	2.3636	0.1	-7.4774e-003
26778	14.784	2.6364	0.1	-7.9924e-003
26779	14.876	2.5455	0.1	-7.932e-003
26780	14.784	2.8182	0.1	-8.2188e-003
26781	14.876	2.7273	0.1	-8.2332e-003
26782	14.784	3.	0.1	-8.2945e-003
26783	14.876	2.9091	0.1	-8.3838e-003
26784	14.784	3.1818	0.1	-8.2193e-003
26785	14.876	3.0909	0.1	-8.3837e-003
26786	14.784	3.3636	0.1	-7.9925e-003
26787	14.876	3.2727	0.1	-8.2334e-003
26788	14.784	3.5455	0.1	-7.6139e-003
26789	14.876	3.4545	0.1	-7.9317e-003
26790	14.784	3.7273	0.1	-7.0828e-003
26791	14.876	3.6364	0.1	-7.4774e-003
26792	14.784	3.9091	0.1	-6.3987e-003
26793	14.876	3.8182	0.1	-6.8699e-003
26794	14.784	4.0909	0.1	-5.5611e-003
26795	14.876	4.	0.1	-6.1077e-003
26796	14.784	4.2727	0.1	-4.5698e-003
26797	14.876	4.1818	0.1	-5.1891e-003
26798	14.784	4.4545	0.1	-3.4255e-003
26799	14.876	4.3636	0.1	-4.1138e-003
26800	14.784	4.6364	0.1	-2.1322e-003
26801	14.876	4.5455	0.1	-2.881e-003
26802	14.784	4.8182	0.1	-6.8628e-004
26803	14.876	4.7273	0.1	-1.498e-003
26804	14.784	5.	0.1	8.7605e-004
26805	14.876	4.9091	0.1	5.2727e-005
26806	14.784	5.1818	0.1	2.672e-003
26807	14.876	5.0909	0.1	1.6821e-003
26808	14.784	5.3636	0.1	4.1862e-003
26809	14.876	5.2727	0.1	3.7223e-003
26810	14.784	5.5455	0.1	8.1808e-003
26811	14.876	5.4545	0.1	4.7776e-003
26812	14.784	5.7273	0.1	6.6798e-003
26813	14.876	5.6364	0.1	1.1848e-002
26814	14.876	5.8182	0.1	1.6269e-004
26815	14.784	5.9091	0.1	4.1447e-003
26816	14.969	0.27273	0.1	6.9751e-003
26817	15.061	0.18182	0.1	8.1941e-005
26818	14.969	9.0909e-002	0.1	4.2986e-003
26819	14.969	0.45455	0.1	8.5478e-003
26820	15.061	0.36364	0.1	1.2432e-002
26821	14.969	0.63636	0.1	4.3107e-003
26822	15.061	0.54545	0.1	4.9345e-003
26823	14.969	0.81818	0.1	2.7179e-003
26824	15.061	0.72727	0.1	3.8212e-003
26825	14.969	1.	0.1	8.3967e-004
26826	15.061	0.90909	0.1	1.6805e-003
26827	14.969	1.1818	0.1	-7.8165e-004
26828	15.061	1.0909	0.1	-1.5189e-005
26829	14.969	1.3636	0.1	-2.2729e-003
26830	15.061	1.2727	0.1	-1.6191e-003
26831	14.969	1.5455	0.1	-3.5984e-003
26832	15.061	1.4545	0.1	-3.041e-003
26833	14.969	1.7273	0.1	-4.7645e-003
26834	15.061	1.6364	0.1	-4.3003e-003
26835	14.969	1.9091	0.1	-5.7694e-003
26836	15.061	1.8182	0.1	-5.3932e-003
26837	14.969	2.0909	0.1	-6.6145e-003
26838	15.061	2.	0.1	-6.3225e-003
26839	14.969	2.2727	0.1	-7.3012e-003
26840	15.061	2.1818	0.1	-7.0901e-003
26841	14.969	2.4545	0.1	-7.833e-003
26842	15.061	2.3636	0.1	-7.6994e-003
26843	14.969	2.6364	0.1	-8.2112e-003
26844	15.061	2.5455	0.1	-8.155e-003
26845	14.969	2.8182	0.1	-8.4372e-003
26846	15.061	2.7273	0.1	-8.4557e-003
26847	14.969	3.	0.1	-8.5122e-003
26848	15.061	2.9091	0.1	-8.606e-003
26849	14.969	3.1818	0.1	-8.4368e-003
26850	15.061	3.0909	0.1	-8.6056e-003
26851	14.969	3.3636	0.1	-8.2111e-003
26852	15.061	3.2727	0.1	-8.4555e-003
26853	14.969	3.5455	0.1	-7.8329e-003
26854	15.061	3.4545	0.1	-8.1546e-003
26855	14.969	3.7273	0.1	-7.3011e-003
26856	15.061	3.6364	0.1	-7.6992e-003
26857	14.969	3.9091	0.1	-6.614e-003
26858	15.061	3.8182	0.1	-7.0898e-003
26859	14.969	4.0909	0.1	-5.7692e-003
26860	15.061	4.	0.1	-6.3222e-003
26861	14.969	4.2727	0.1	-4.7645e-003
26862	15.061	4.1818	0.1	-5.3931e-003
26863	14.969	4.4545	0.1	-3.5982e-003
26864	15.061	4.3636	0.1	-4.3001e-003
26865	14.969	4.6364	0.1	-2.2728e-003
26866	15.061	4.5455	0.1	-3.0405e-003
26867	14.969	4.8182	0.1	-7.8158e-004
26868	15.061	4.7273	0.1	-1.6192e-003
26869	14.969	5.	0.1	8.4035e-004
26870	15.061	4.9091	0.1	-1.4385e-005
26871	14.969	5.1818	0.1	2.7192e-003
26872	15.061	5.0909	0.1	1.6814e-003
26873	14.969	5.3636	0.1	4.3119e-003
26874	15.061	5.2727	0.1	3.8229e-003
26875	14.969	5.5455	0.1	8.5479e-003
26876	15.061	5.4545	0.1	4.9346e-003
26877	14.969	5.7273	0.1	6.9746e-003
26878	15.061	5.6364	0.1	1.2432e-002
26879	15.061	5.8182	0.1	8.2266e-005
26880	14.969	5.9091	0.1	4.2984e-003
26881	15.154	0.27273	0.1	7.2801e-003
26882	15.246	0.18182	0.1	8.1067e-006
26883	15.154	9.0909e-002	0.1	4.4534e-003
26884	15.154	0.45455	0.1	8.9218e-003
26885	15.246	0.36364	0.1	1.3029e-002
26886	15.154	0.63636	0.1	4.4383e-003
26887	15.246	0.54545	0.1	5.0941e-003
26888	15.154	0.81818	0.1	2.7657e-003
26889	15.246	0.72727	0.1	3.9224e-003
26890	15.154	1.	0.1	8.0255e-004
26891	15.246	0.90909	0.1	1.6783e-003
26892	15.154	1.1818	0.1	-8.793e-004
26893	15.246	1.0909	0.1	-8.532e-005
26894	15.154	1.3636	0.1	-2.4168e-003
26895	15.246	1.2727	0.1	-1.7434e-003
26896	15.154	1.5455	0.1	-3.7747e-003
26897	15.246	1.4545	0.1	-3.2048e-003
26898	15.154	1.7273	0.1	-4.9628e-003
26899	15.246	1.6364	0.1	-4.4907e-003
26900	15.154	1.9091	0.1	-5.9816e-003
26901	15.246	1.8182	0.1	-5.6023e-003
26902	15.154	2.0909	0.1	-6.8346e-003
26903	15.246	2.	0.1	-6.5422e-003
26904	15.154	2.2727	0.1	-7.5257e-003
26905	15.246	2.1818	0.1	-7.3163e-003
26906	15.154	2.4545	0.1	-8.0595e-003
26907	15.246	2.3636	0.1	-7.929e-003
26908	15.154	2.6364	0.1	-8.4381e-003
26909	15.246	2.5455	0.1	-8.3852e-003
26910	15.154	2.8182	0.1	-8.6634e-003
26911	15.246	2.7273	0.1	-8.6868e-003
26912	15.154	3.	0.1	-8.7385e-003
26913	15.246	2.9091	0.1	-8.8369e-003
26914	15.154	3.1818	0.1	-8.6632e-003
26915	15.246	3.0909	0.1	-8.8366e-003
26916	15.154	3.3636	0.1	-8.4376e-003
26917	15.246	3.2727	0.1	-8.6865e-003
26918	15.154	3.5455	0.1	-8.059e-003
26919	15.246	3.4545	0.1	-8.3851e-003
26920	15.154	3.7273	0.1	-7.5253e-003
26921	15.246	3.6364	0.1	-7.9289e-003
26922	15.154	3.9091	0.1	-6.8344e-003
26923	15.246	3.8182	0.1	-7.3159e-003
26924	15.154	4.0909	0.1	-5.9814e-003
26925	15.246	4.	0.1	-6.5425e-003
26926	15.154	4.2727	0.1	-4.9624e-003
26927	15.246	4.1818	0.1	-5.6016e-003
26928	15.154	4.4545	0.1	-3.7743e-003
26929	15.246	4.3636	0.1	-4.4906e-003
26930	15.154	4.6364	0.1	-2.4165e-003
26931	15.246	4.5455	0.1	-3.2046e-003
26932	15.154	4.8182	0.1	-8.7872e-004
26933	15.246	4.7273	0.1	-1.7433e-003
26934	15.154	5.	0.1	8.0359e-004
26935	15.246	4.9091	0.1	-8.4404e-005
26936	15.154	5.1818	0.1	2.767e-003
26937	15.246	5.0909	0.1	1.679e-003
26938	15.154	5.3636	0.1	4.439e-003
26939	15.246	5.2727	0.1	3.9241e-003
26940	15.154	5.5455	0.1	8.9215e-003
26941	15.246	5.4545	0.1	5.0938e-003
26942	15.154	5.7273	0.1	7.2805e-003
26943	15.246	5.6364	0.1	1.3028e-002
26944	15.246	5.8182	0.1	9.3452e-006
26945	15.154	5.9091	0.1	4.4543e-003
26946	15.338	0.27273	0.1	7.599e-003
26947	15.431	0.18182	0.1	-5.8397e-005
26948	15.338	9.0909e-002	0.1	4.6126e-003
26949	15.338	0.45455	0.1	9.3044e-003
26950	15.431	0.36364	0.1	1.3644e-002
26951	15.338	0.63636	0.1	4.5662e-003
26952	15.431	0.54545	0.1	5.2565e-003
26953	15.338	0.81818	0.1	2.8117e-003
26954	15.431	0.72727	0.1	4.0239e-003
26955	15.338	1.	0.1	7.6265e-004
26956	15.431	0.90909	0.1	1.6738e-003
26957	15.338	1.1818	0.1	-9.8025e-004
26958	15.431	1.0909	0.1	-1.5906e-004
26959	15.338	1.3636	0.1	-2.5645e-003
26960	15.431	1.2727	0.1	-1.8723e-003
26961	15.338	1.5455	0.1	-3.9555e-003
26962	15.431	1.4545	0.1	-3.3734e-003
26963	15.338	1.7273	0.1	-5.1663e-003
26964	15.431	1.6364	0.1	-4.6872e-003
26965	15.338	1.9091	0.1	-6.1999e-003
26966	15.431	1.8182	0.1	-5.8174e-003
26967	15.338	2.0909	0.1	-7.0615e-003
26968	15.431	2.	0.1	-6.7696e-003
26969	15.338	2.2727	0.1	-7.7577e-003
26970	15.431	2.1818	0.1	-7.5509e-003
26971	15.338	2.4545	0.1	-8.2931e-003
26972	15.431	2.3636	0.1	-8.1674e-003
26973	15.338	2.6364	0.1	-8.6726e-003
26974	15.431	2.5455	0.1	-8.6244e-003
26975	15.338	2.8182	0.1	-8.8992e-003
26976	15.431	2.7273	0.1	-8.9274e-003
26977	15.338	3.	0.1	-8.9739e-003
26978	15.431	2.9091	0.1	-9.0776e-003
26979	15.338	3.1818	0.1	-8.8987e-003
26980	15.431	3.0909	0.1	-9.0772e-003
26981	15.338	3.3636	0.1	-8.6727e-003
26982	15.431	3.2727	0.1	-8.9275e-003
26983	15.338	3.5455	0.1	-8.2935e-003
26984	15.431	3.4545	0.1	-8.6248e-003
26985	15.338	3.7273	0.1	-7.7576e-003
26986	15.431	3.6364	0.1	-8.1669e-003
26987	15.338	3.9091	0.1	-7.0616e-003
26988	15.431	3.8182	0.1	-7.5501e-003
26989	15.338	4.0909	0.1	-6.1996e-003
26990	15.431	4.	0.1	-6.7696e-003
26991	15.338	4.2727	0.1	-5.1657e-003
26992	15.431	4.1818	0.1	-5.8167e-003
26993	15.338	4.4545	0.1	-3.9556e-003
26994	15.431	4.3636	0.1	-4.6871e-003
26995	15.338	4.6364	0.1	-2.5645e-003
26996	15.431	4.5455	0.1	-3.3733e-003
26997	15.338	4.8182	0.1	-9.7981e-004
26998	15.431	4.7273	0.1	-1.8721e-003
26999	15.338	5.	0.1	7.6324e-004
27000	15.431	4.9091	0.1	-1.5806e-004
27001	15.338	5.1818	0.1	2.8128e-003
27002	15.431	5.0909	0.1	1.6743e-003
27003	15.338	5.3636	0.1	4.5669e-003
27004	15.431	5.2727	0.1	4.0255e-003
27005	15.338	5.5455	0.1	9.3037e-003
27006	15.431	5.4545	0.1	5.2563e-003
27007	15.338	5.7273	0.1	7.5992e-003
27008	15.431	5.6364	0.1	1.3644e-002
27009	15.431	5.8182	0.1	-5.7216e-005
27010	15.338	5.9091	0.1	4.6132e-003
27011	15.523	0.27273	0.1	7.9327e-003
27012	15.616	0.18182	0.1	-1.17e-004
27013	15.523	9.0909e-002	0.1	4.7757e-003
27014	15.523	0.45455	0.1	9.6983e-003
27015	15.616	0.36364	0.1	1.4281e-002
27016	15.523	0.63636	0.1	4.6964e-003
27017	15.616	0.54545	0.1	5.4232e-003
27018	15.523	0.81818	0.1	2.8572e-003
27019	15.616	0.72727	0.1	4.127e-003
27020	15.523	1.	0.1	7.1945e-004
27021	15.616	0.90909	0.1	1.6664e-003
27022	15.523	1.1818	0.1	-1.0861e-003
27023	15.616	1.0909	0.1	-2.3719e-004
27024	15.523	1.3636	0.1	-2.7178e-003
27025	15.616	1.2727	0.1	-2.0066e-003
27026	15.523	1.5455	0.1	-4.1426e-003
27027	15.616	1.4545	0.1	-3.5482e-003
27028	15.523	1.7273	0.1	-5.3764e-003
27029	15.616	1.6364	0.1	-4.8909e-003
27030	15.523	1.9091	0.1	-6.4256e-003
27031	15.616	1.8182	0.1	-6.0403e-003
27032	15.523	2.0909	0.1	-7.2977e-003
27033	15.616	2.	0.1	-7.0052e-003
27034	15.523	2.2727	0.1	-7.9994e-003
27035	15.616	2.1818	0.1	-7.7946e-003
27036	15.523	2.4545	0.1	-8.5377e-003
27037	15.616	2.3636	0.1	-8.4151e-003
27038	15.523	2.6364	0.1	-8.9181e-003
27039	15.616	2.5455	0.1	-8.8751e-003
27040	15.523	2.8182	0.1	-9.1448e-003
27041	15.616	2.7273	0.1	-9.1785e-003
27042	15.523	3.	0.1	-9.2199e-003
27043	15.616	2.9091	0.1	-9.3289e-003
27044	15.523	3.1818	0.1	-9.145e-003
27045	15.616	3.0909	0.1	-9.3293e-003
27046	15.523	3.3636	0.1	-8.9186e-003
27047	15.616	3.2727	0.1	-9.1786e-003
27048	15.523	3.5455	0.1	-8.5372e-003
27049	15.616	3.4545	0.1	-8.8749e-003
27050	15.523	3.7273	0.1	-7.9982e-003
27051	15.616	3.6364	0.1	-8.4145e-003
27052	15.523	3.9091	0.1	-7.2968e-003
27053	15.616	3.8182	0.1	-7.7939e-003
27054	15.523	4.0909	0.1	-6.4252e-003
27055	15.616	4.	0.1	-7.0051e-003
27056	15.523	4.2727	0.1	-5.3762e-003
27057	15.616	4.1818	0.1	-6.04e-003
27058	15.523	4.4545	0.1	-4.1423e-003
27059	15.616	4.3636	0.1	-4.8912e-003
27060	15.523	4.6364	0.1	-2.7174e-003
27061	15.616	4.5455	0.1	-3.5477e-003
27062	15.523	4.8182	0.1	-1.0853e-003
27063	15.616	4.7273	0.1	-2.0065e-003
27064	15.523	5.	0.1	7.2036e-004
27065	15.616	4.9091	0.1	-2.3611e-004
27066	15.523	5.1818	0.1	2.8582e-003
27067	15.616	5.0909	0.1	1.6669e-003
27068	15.523	5.3636	0.1	4.697e-003
27069	15.616	5.2727	0.1	4.1282e-003
27070	15.523	5.5455	0.1	9.6986e-003
27071	15.616	5.4545	0.1	5.4229e-003
27072	15.523	5.7273	0.1	7.9337e-003
27073	15.616	5.6364	0.1	1.4281e-002
27074	15.616	5.8182	0.1	-1.1587e-004
27075	15.523	5.9091	0.1	4.7753e-003
27076	15.708	0.27273	0.1	8.2866e-003
27077	15.8	0.18182	0.1	-1.656e-004
27078	15.708	9.0909e-002	0.1	4.9415e-003
27079	15.708	0.45455	0.1	1.0107e-002
27080	15.8	0.36364	0.1	1.4946e-002
27081	15.708	0.63636	0.1	4.8296e-003
27082	15.8	0.54545	0.1	5.5947e-003
27083	15.708	0.81818	0.1	2.9014e-003
27084	15.8	0.72727	0.1	4.2306e-003
27085	15.708	1.	0.1	6.7199e-004
27086	15.8	0.90909	0.1	1.6553e-003
27087	15.708	1.1818	0.1	-1.197e-003
27088	15.8	1.0909	0.1	-3.1988e-004
27089	15.708	1.3636	0.1	-2.8771e-003
27090	15.8	1.2727	0.1	-2.1485e-003
27091	15.708	1.5455	0.1	-4.3368e-003
27092	15.8	1.4545	0.1	-3.7308e-003
27093	15.708	1.7273	0.1	-5.595e-003
27094	15.8	1.6364	0.1	-5.1036e-003
27095	15.708	1.9091	0.1	-6.66e-003
27096	15.8	1.8182	0.1	-6.273e-003
27097	15.708	2.0909	0.1	-7.542e-003
27098	15.8	2.	0.1	-7.2509e-003
27099	15.708	2.2727	0.1	-8.2498e-003
27100	15.8	2.1818	0.1	-8.0481e-003
27101	15.708	2.4545	0.1	-8.7919e-003
27102	15.8	2.3636	0.1	-8.6738e-003
27103	15.708	2.6364	0.1	-9.1746e-003
27104	15.8	2.5455	0.1	-9.1366e-003
27105	15.708	2.8182	0.1	-9.4017e-003
27106	15.8	2.7273	0.1	-9.4416e-003
27107	15.708	3.	0.1	-9.4774e-003
27108	15.8	2.9091	0.1	-9.5923e-003
27109	15.708	3.1818	0.1	-9.402e-003
27110	15.8	3.0909	0.1	-9.5928e-003
27111	15.708	3.3636	0.1	-9.1742e-003
27112	15.8	3.2727	0.1	-9.4414e-003
27113	15.708	3.5455	0.1	-8.7916e-003
27114	15.8	3.4545	0.1	-9.1366e-003
27115	15.708	3.7273	0.1	-8.2497e-003
27116	15.8	3.6364	0.1	-8.6733e-003
27117	15.708	3.9091	0.1	-7.542e-003
27118	15.8	3.8182	0.1	-8.0482e-003
27119	15.708	4.0909	0.1	-6.6599e-003
27120	15.8	4.	0.1	-7.251e-003
27121	15.708	4.2727	0.1	-5.5952e-003
27122	15.8	4.1818	0.1	-6.2728e-003
27123	15.708	4.4545	0.1	-4.3369e-003
27124	15.8	4.3636	0.1	-5.1036e-003
27125	15.708	4.6364	0.1	-2.8769e-003
27126	15.8	4.5455	0.1	-3.7305e-003
27127	15.708	4.8182	0.1	-1.1965e-003
27128	15.8	4.7273	0.1	-2.1486e-003
27129	15.708	5.	0.1	6.7267e-004
27130	15.8	4.9091	0.1	-3.1939e-004
27131	15.708	5.1818	0.1	2.9023e-003
27132	15.8	5.0909	0.1	1.6563e-003
27133	15.708	5.3636	0.1	4.83e-003
27134	15.8	5.2727	0.1	4.2326e-003
27135	15.708	5.5455	0.1	1.0107e-002
27136	15.8	5.4545	0.1	5.5947e-003
27137	15.708	5.7273	0.1	8.2872e-003
27138	15.8	5.6364	0.1	1.4945e-002
27139	15.8	5.8182	0.1	-1.6514e-004
27140	15.708	5.9091	0.1	4.9417e-003
27141	15.893	0.27273	0.1	8.664e-003
27142	15.985	0.18182	0.1	-2.0343e-004
27143	15.893	9.0909e-002	0.1	5.1129e-003
27144	15.893	0.45455	0.1	1.0534e-002
27145	15.985	0.36364	0.1	1.5643e-002
27146	15.893	0.63636	0.1	4.9647e-003
27147	15.985	0.54545	0.1	5.7714e-003
27148	15.893	0.81818	0.1	2.9435e-003
27149	15.985	0.72727	0.1	4.3361e-003
27150	15.893	1.	0.1	6.204e-004
27151	15.985	0.90909	0.1	1.6408e-003
27152	15.893	1.1818	0.1	-1.3151e-003
27153	15.985	1.0909	0.1	-4.0952e-004
27154	15.893	1.3636	0.1	-3.0457e-003
27155	15.985	1.2727	0.1	-2.2987e-003
27156	15.893	1.5455	0.1	-4.5406e-003
27157	15.985	1.4545	0.1	-3.9237e-003
27158	15.893	1.7273	0.1	-5.8239e-003
27159	15.985	1.6364	0.1	-5.3267e-003
27160	15.893	1.9091	0.1	-6.9055e-003
27161	15.985	1.8182	0.1	-6.5169e-003
27162	15.893	2.0909	0.1	-7.7979e-003
27163	15.985	2.	0.1	-7.5086e-003
27164	15.893	2.2727	0.1	-8.5124e-003
27165	15.985	2.1818	0.1	-8.3139e-003
27166	15.893	2.4545	0.1	-9.0584e-003
27167	15.985	2.3636	0.1	-8.9449e-003
27168	15.893	2.6364	0.1	-9.4432e-003
27169	15.985	2.5455	0.1	-9.4109e-003
27170	15.893	2.8182	0.1	-9.6716e-003
27171	15.985	2.7273	0.1	-9.7173e-003
27172	15.893	3.	0.1	-9.747e-003
27173	15.985	2.9091	0.1	-9.869e-003
27174	15.893	3.1818	0.1	-9.6715e-003
27175	15.985	3.0909	0.1	-9.8688e-003
27176	15.893	3.3636	0.1	-9.4434e-003
27177	15.985	3.2727	0.1	-9.7174e-003
27178	15.893	3.5455	0.1	-9.0582e-003
27179	15.985	3.4545	0.1	-9.4108e-003
27180	15.893	3.7273	0.1	-8.5121e-003
27181	15.985	3.6364	0.1	-8.9447e-003
27182	15.893	3.9091	0.1	-7.7982e-003
27183	15.985	3.8182	0.1	-8.3142e-003
27184	15.893	4.0909	0.1	-6.9056e-003
27185	15.985	4.	0.1	-7.5086e-003
27186	15.893	4.2727	0.1	-5.8236e-003
27187	15.985	4.1818	0.1	-6.5167e-003
27188	15.893	4.4545	0.1	-4.5402e-003
27189	15.985	4.3636	0.1	-5.3263e-003
27190	15.893	4.6364	0.1	-3.0458e-003
27191	15.985	4.5455	0.1	-3.923e-003
27192	15.893	4.8182	0.1	-1.3151e-003
27193	15.985	4.7273	0.1	-2.2987e-003
27194	15.893	5.	0.1	6.212e-004
27195	15.985	4.9091	0.1	-4.0939e-004
27196	15.893	5.1818	0.1	2.9457e-003
27197	15.985	5.0909	0.1	1.6423e-003
27198	15.893	5.3636	0.1	4.9663e-003
27199	15.985	5.2727	0.1	4.338e-003
27200	15.893	5.5455	0.1	1.0533e-002
27201	15.985	5.4545	0.1	5.772e-003
27202	15.893	5.7273	0.1	8.6628e-003
27203	15.985	5.6364	0.1	1.5642e-002
27204	15.985	5.8182	0.1	-2.0483e-004
27205	15.893	5.9091	0.1	5.1122e-003
27206	16.078	0.27273	0.1	9.066e-003
27207	16.17	0.18182	0.1	-2.311e-004
27208	16.078	9.0909e-002	0.1	5.2893e-003
27209	16.078	0.45455	0.1	1.0978e-002
27210	16.17	0.36364	0.1	1.6376e-002
27211	16.078	0.63636	0.1	5.1043e-003
27212	16.17	0.54545	0.1	5.9558e-003
27213	16.078	0.81818	0.1	2.9857e-003
27214	16.17	0.72727	0.1	4.4437e-003
27215	16.078	1.	0.1	5.6223e-004
27216	16.17	0.90909	0.1	1.622e-003
27217	16.078	1.1818	0.1	-1.4413e-003
27218	16.17	1.0909	0.1	-5.0757e-004
27219	16.078	1.3636	0.1	-3.2238e-003
27220	16.17	1.2727	0.1	-2.4582e-003
27221	16.078	1.5455	0.1	-4.7556e-003
27222	16.17	1.4545	0.1	-4.1276e-003
27223	16.078	1.7273	0.1	-6.0642e-003
27224	16.17	1.6364	0.1	-5.562e-003
27225	16.078	1.9091	0.1	-7.1632e-003
27226	16.17	1.8182	0.1	-6.7727e-003
27227	16.078	2.0909	0.1	-8.0666e-003
27228	16.17	2.	0.1	-7.7793e-003
27229	16.078	2.2727	0.1	-8.7875e-003
27230	16.17	2.1818	0.1	-8.5932e-003
27231	16.078	2.4545	0.1	-9.3378e-003
27232	16.17	2.3636	0.1	-9.2297e-003
27233	16.078	2.6364	0.1	-9.7248e-003
27234	16.17	2.5455	0.1	-9.6989e-003
27235	16.078	2.8182	0.1	-9.9542e-003
27236	16.17	2.7273	0.1	-1.0007e-002
27237	16.078	3.	0.1	-1.003e-002
27238	16.17	2.9091	0.1	-1.0159e-002
27239	16.078	3.1818	0.1	-9.9542e-003
27240	16.17	3.0909	0.1	-1.0159e-002
27241	16.078	3.3636	0.1	-9.7247e-003
27242	16.17	3.2727	0.1	-1.0007e-002
27243	16.078	3.5455	0.1	-9.3377e-003
27244	16.17	3.4545	0.1	-9.6985e-003
27245	16.078	3.7273	0.1	-8.7879e-003
27246	16.17	3.6364	0.1	-9.2297e-003
27247	16.078	3.9091	0.1	-8.0666e-003
27248	16.17	3.8182	0.1	-8.5934e-003
27249	16.078	4.0909	0.1	-7.1629e-003
27250	16.17	4.	0.1	-7.7789e-003
27251	16.078	4.2727	0.1	-6.0639e-003
27252	16.17	4.1818	0.1	-6.7731e-003
27253	16.078	4.4545	0.1	-4.7549e-003
27254	16.17	4.3636	0.1	-5.5617e-003
27255	16.078	4.6364	0.1	-3.223e-003
27256	16.17	4.5455	0.1	-4.127e-003
27257	16.078	4.8182	0.1	-1.4411e-003
27258	16.17	4.7273	0.1	-2.4581e-003
27259	16.078	5.	0.1	5.6309e-004
27260	16.17	4.9091	0.1	-5.071e-004
27261	16.078	5.1818	0.1	2.987e-003
27262	16.17	5.0909	0.1	1.6238e-003
27263	16.078	5.3636	0.1	5.1052e-003
27264	16.17	5.2727	0.1	4.4449e-003
27265	16.078	5.5455	0.1	1.0979e-002
27266	16.17	5.4545	0.1	5.9561e-003
27267	16.078	5.7273	0.1	9.0649e-003
27268	16.17	5.6364	0.1	1.6376e-002
27269	16.17	5.8182	0.1	-2.3255e-004
27270	16.078	5.9091	0.1	5.2894e-003
27271	16.262	0.27273	0.1	9.4973e-003
27272	16.355	0.18182	0.1	-2.467e-004
27273	16.262	9.0909e-002	0.1	5.4736e-003
27274	16.262	0.45455	0.1	1.1448e-002
27275	16.355	0.36364	0.1	1.7153e-002
27276	16.262	0.63636	0.1	5.2484e-003
27277	16.355	0.54545	0.1	6.1482e-003
27278	16.262	0.81818	0.1	3.0252e-003
27279	16.355	0.72727	0.1	4.5529e-003
27280	16.262	1.	0.1	4.9762e-004
27281	16.355	0.90909	0.1	1.5986e-003
27282	16.262	1.1818	0.1	-1.5774e-003
27283	16.355	1.0909	0.1	-6.1455e-004
27284	16.262	1.3636	0.1	-3.4129e-003
27285	16.355	1.2727	0.1	-2.6296e-003
27286	16.262	1.5455	0.1	-4.9826e-003
27287	16.355	1.4545	0.1	-4.344e-003
27288	16.262	1.7273	0.1	-6.3171e-003
27289	16.355	1.6364	0.1	-5.8109e-003
27290	16.262	1.9091	0.1	-7.4336e-003
27291	16.355	1.8182	0.1	-7.0433e-003
27292	16.262	2.0909	0.1	-8.3492e-003
27293	16.355	2.	0.1	-8.0646e-003
27294	16.262	2.2727	0.1	-9.0774e-003
27295	16.355	2.1818	0.1	-8.8878e-003
27296	16.262	2.4545	0.1	-9.6318e-003
27297	16.355	2.3636	0.1	-9.53e-003
27298	16.262	2.6364	0.1	-1.0021e-002
27299	16.355	2.5455	0.1	-1.0002e-002
27300	16.262	2.8182	0.1	-1.0252e-002
27301	16.355	2.7273	0.1	-1.0312e-002
27302	16.262	3.	0.1	-1.0328e-002
27303	16.355	2.9091	0.1	-1.0465e-002
27304	16.262	3.1818	0.1	-1.0252e-002
27305	16.355	3.0909	0.1	-1.0465e-002
27306	16.262	3.3636	0.1	-1.0021e-002
27307	16.355	3.2727	0.1	-1.0312e-002
27308	16.262	3.5455	0.1	-9.6315e-003
27309	16.355	3.4545	0.1	-1.0002e-002
27310	16.262	3.7273	0.1	-9.0772e-003
27311	16.355	3.6364	0.1	-9.5296e-003
27312	16.262	3.9091	0.1	-8.3489e-003
27313	16.355	3.8182	0.1	-8.8877e-003
27314	16.262	4.0909	0.1	-7.4339e-003
27315	16.355	4.	0.1	-8.064e-003
27316	16.262	4.2727	0.1	-6.3175e-003
27317	16.355	4.1818	0.1	-7.0437e-003
27318	16.262	4.4545	0.1	-4.9824e-003
27319	16.355	4.3636	0.1	-5.8104e-003
27320	16.262	4.6364	0.1	-3.4129e-003
27321	16.355	4.5455	0.1	-4.3438e-003
27322	16.262	4.8182	0.1	-1.5769e-003
27323	16.355	4.7273	0.1	-2.6297e-003
27324	16.262	5.	0.1	4.9909e-004
27325	16.355	4.9091	0.1	-6.1381e-004
27326	16.262	5.1818	0.1	3.0269e-003
27327	16.355	5.0909	0.1	1.6002e-003
27328	16.262	5.3636	0.1	5.249e-003
27329	16.355	5.2727	0.1	4.5541e-003
27330	16.262	5.5455	0.1	1.1448e-002
27331	16.355	5.4545	0.1	6.1478e-003
27332	16.262	5.7273	0.1	9.4967e-003
27333	16.355	5.6364	0.1	1.7153e-002
27334	16.355	5.8182	0.1	-2.462e-004
27335	16.262	5.9091	0.1	5.4732e-003
27336	16.447	0.27273	0.1	9.9634e-003
27337	16.54	0.18182	0.1	-2.4491e-004
27338	16.447	9.0909e-002	0.1	5.6633e-003
27339	16.447	0.45455	0.1	1.1944e-002
27340	16.54	0.36364	0.1	1.7979e-002
27341	16.447	0.63636	0.1	5.3967e-003
27342	16.54	0.54545	0.1	6.3475e-003
27343	16.447	0.81818	0.1	3.0636e-003
27344	16.54	0.72727	0.1	4.664e-003
27345	16.447	1.	0.1	4.2556e-004
27346	16.54	0.90909	0.1	1.5686e-003
27347	16.447	1.1818	0.1	-1.7246e-003
27348	16.54	1.0909	0.1	-7.3187e-004
27349	16.447	1.3636	0.1	-3.6154e-003
27350	16.54	1.2727	0.1	-2.8137e-003
27351	16.447	1.5455	0.1	-5.2239e-003
27352	16.54	1.4545	0.1	-4.5753e-003
27353	16.447	1.7273	0.1	-6.5859e-003
27354	16.54	1.6364	0.1	-6.0753e-003
27355	16.447	1.9091	0.1	-7.7206e-003
27356	16.54	1.8182	0.1	-7.3307e-003
27357	16.447	2.0909	0.1	-8.6475e-003
27358	16.54	2.	0.1	-8.366e-003
27359	16.447	2.2727	0.1	-9.3831e-003
27360	16.54	2.1818	0.1	-9.199e-003
27361	16.447	2.4545	0.1	-9.9418e-003
27362	16.54	2.3636	0.1	-9.8465e-003
27363	16.447	2.6364	0.1	-1.0333e-002
27364	16.54	2.5455	0.1	-1.0322e-002
27365	16.447	2.8182	0.1	-1.0565e-002
27366	16.54	2.7273	0.1	-1.0633e-002
27367	16.447	3.	0.1	-1.0641e-002
27368	16.54	2.9091	0.1	-1.0787e-002
27369	16.447	3.1818	0.1	-1.0565e-002
27370	16.54	3.0909	0.1	-1.0787e-002
27371	16.447	3.3636	0.1	-1.0333e-002
27372	16.54	3.2727	0.1	-1.0633e-002
27373	16.447	3.5455	0.1	-9.9416e-003
27374	16.54	3.4545	0.1	-1.0322e-002
27375	16.447	3.7273	0.1	-9.3829e-003
27376	16.54	3.6364	0.1	-9.8463e-003
27377	16.447	3.9091	0.1	-8.6472e-003
27378	16.54	3.8182	0.1	-9.1988e-003
27379	16.447	4.0909	0.1	-7.7201e-003
27380	16.54	4.	0.1	-8.3657e-003
27381	16.447	4.2727	0.1	-6.5854e-003
27382	16.54	4.1818	0.1	-7.3305e-003
27383	16.447	4.4545	0.1	-5.2234e-003
27384	16.54	4.3636	0.1	-6.0748e-003
27385	16.447	4.6364	0.1	-3.6153e-003
27386	16.54	4.5455	0.1	-4.5751e-003
27387	16.447	4.8182	0.1	-1.7245e-003
27388	16.54	4.7273	0.1	-2.8144e-003
27389	16.447	5.	0.1	4.2645e-004
27390	16.54	4.9091	0.1	-7.3082e-004
27391	16.447	5.1818	0.1	3.0648e-003
27392	16.54	5.0909	0.1	1.5702e-003
27393	16.447	5.3636	0.1	5.3969e-003
27394	16.54	5.2727	0.1	4.6644e-003
27395	16.447	5.5455	0.1	1.1943e-002
27396	16.54	5.4545	0.1	6.3475e-003
27397	16.447	5.7273	0.1	9.9637e-003
27398	16.54	5.6364	0.1	1.7978e-002
27399	16.54	5.8182	0.1	-2.4416e-004
27400	16.447	5.9091	0.1	5.6638e-003
27401	16.632	0.27273	0.1	1.047e-002
27402	16.724	0.18182	0.1	-2.2239e-004
27403	16.632	9.0909e-002	0.1	5.861e-003
27404	16.632	0.45455	0.1	1.2468e-002
27405	16.724	0.36364	0.1	1.886e-002
27406	16.632	0.63636	0.1	5.5485e-003
27407	16.724	0.54545	0.1	6.5555e-003
27408	16.632	0.81818	0.1	3.0977e-003
27409	16.724	0.72727	0.1	4.7756e-003
27410	16.632	1.	0.1	3.4353e-004
27411	16.724	0.90909	0.1	1.531e-003
27412	16.632	1.1818	0.1	-1.8841e-003
27413	16.724	1.0909	0.1	-8.6057e-004
27414	16.632	1.3636	0.1	-3.8323e-003
27415	16.724	1.2727	0.1	-3.0133e-003
27416	16.632	1.5455	0.1	-5.4812e-003
27417	16.724	1.4545	0.1	-4.8243e-003
27418	16.632	1.7273	0.1	-6.871e-003
27419	16.724	1.6364	0.1	-6.3574e-003
27420	16.632	1.9091	0.1	-8.024e-003
27421	16.724	1.8182	0.1	-7.6361e-003
27422	16.632	2.0909	0.1	-8.963e-003
27423	16.724	2.	0.1	-8.6856e-003
27424	16.632	2.2727	0.1	-9.7059e-003
27425	16.724	2.1818	0.1	-9.5289e-003
27426	16.632	2.4545	0.1	-1.0269e-002
27427	16.724	2.3636	0.1	-1.0181e-002
27428	16.632	2.6364	0.1	-1.0663e-002
27429	16.724	2.5455	0.1	-1.066e-002
27430	16.632	2.8182	0.1	-1.0895e-002
27431	16.724	2.7273	0.1	-1.0972e-002
27432	16.632	3.	0.1	-1.0972e-002
27433	16.724	2.9091	0.1	-1.1127e-002
27434	16.632	3.1818	0.1	-1.0895e-002
27435	16.724	3.0909	0.1	-1.1127e-002
27436	16.632	3.3636	0.1	-1.0662e-002
27437	16.724	3.2727	0.1	-1.0972e-002
27438	16.632	3.5455	0.1	-1.0268e-002
27439	16.724	3.4545	0.1	-1.066e-002
27440	16.632	3.7273	0.1	-9.7057e-003
27441	16.724	3.6364	0.1	-1.0181e-002
27442	16.632	3.9091	0.1	-8.9628e-003
27443	16.724	3.8182	0.1	-9.5282e-003
27444	16.632	4.0909	0.1	-8.0241e-003
27445	16.724	4.	0.1	-8.6863e-003
27446	16.632	4.2727	0.1	-6.8709e-003
27447	16.724	4.1818	0.1	-7.6355e-003
27448	16.632	4.4545	0.1	-5.4811e-003
27449	16.724	4.3636	0.1	-6.3575e-003
27450	16.632	4.6364	0.1	-3.8328e-003
27451	16.724	4.5455	0.1	-4.8235e-003
27452	16.632	4.8182	0.1	-1.8839e-003
27453	16.724	4.7273	0.1	-3.0138e-003
27454	16.632	5.	0.1	3.453e-004
27455	16.724	4.9091	0.1	-8.5963e-004
27456	16.632	5.1818	0.1	3.0986e-003
27457	16.724	5.0909	0.1	1.5321e-003
27458	16.632	5.3636	0.1	5.5486e-003
27459	16.724	5.2727	0.1	4.7758e-003
27460	16.632	5.5455	0.1	1.2468e-002
27461	16.724	5.4545	0.1	6.556e-003
27462	16.632	5.7273	0.1	1.047e-002
27463	16.724	5.6364	0.1	1.8859e-002
27464	16.724	5.8182	0.1	-2.2247e-004
27465	16.632	5.9091	0.1	5.8626e-003
27466	16.817	0.27273	0.1	1.1022e-002
27467	16.909	0.18182	0.1	-1.7592e-004
27468	16.817	9.0909e-002	0.1	6.0692e-003
27469	16.817	0.45455	0.1	1.3026e-002
27470	16.909	0.36364	0.1	1.9802e-002
27471	16.817	0.63636	0.1	5.7047e-003
27472	16.909	0.54545	0.1	6.7737e-003
27473	16.817	0.81818	0.1	3.1284e-003
27474	16.909	0.72727	0.1	4.8875e-003
27475	16.817	1.	0.1	2.5205e-004
27476	16.909	0.90909	0.1	1.484e-003
27477	16.817	1.1818	0.1	-2.0585e-003
27478	16.909	1.0909	0.1	-1.0039e-003
27479	16.817	1.3636	0.1	-4.0681e-003
27480	16.909	1.2727	0.1	-3.2311e-003
27481	16.817	1.5455	0.1	-5.758e-003
27482	16.909	1.4545	0.1	-5.0926e-003
27483	16.817	1.7273	0.1	-7.1757e-003
27484	16.909	1.6364	0.1	-6.6605e-003
27485	16.817	1.9091	0.1	-8.3472e-003
27486	16.909	1.8182	0.1	-7.9623e-003
27487	16.817	2.0909	0.1	-9.2982e-003
27488	16.909	2.	0.1	-9.0267e-003
27489	16.817	2.2727	0.1	-1.0049e-002
27490	16.909	2.1818	0.1	-9.8786e-003
27491	16.817	2.4545	0.1	-1.0615e-002
27492	16.909	2.3636	0.1	-1.0537e-002
27493	16.817	2.6364	0.1	-1.1011e-002
27494	16.909	2.5455	0.1	-1.1017e-002
27495	16.817	2.8182	0.1	-1.1245e-002
27496	16.909	2.7273	0.1	-1.1331e-002
27497	16.817	3.	0.1	-1.1322e-002
27498	16.909	2.9091	0.1	-1.1486e-002
27499	16.817	3.1818	0.1	-1.1245e-002
27500	16.909	3.0909	0.1	-1.1486e-002
27501	16.817	3.3636	0.1	-1.1011e-002
27502	16.909	3.2727	0.1	-1.1331e-002
27503	16.817	3.5455	0.1	-1.0615e-002
27504	16.909	3.4545	0.1	-1.1017e-002
27505	16.817	3.7273	0.1	-1.0048e-002
27506	16.909	3.6364	0.1	-1.0536e-002
27507	16.817	3.9091	0.1	-9.2984e-003
27508	16.909	3.8182	0.1	-9.8782e-003
27509	16.817	4.0909	0.1	-8.3474e-003
27510	16.909	4.	0.1	-9.0272e-003
27511	16.817	4.2727	0.1	-7.1754e-003
27512	16.909	4.1818	0.1	-7.9612e-003
27513	16.817	4.4545	0.1	-5.7576e-003
27514	16.909	4.3636	0.1	-6.6604e-003
27515	16.817	4.6364	0.1	-4.0673e-003
27516	16.909	4.5455	0.1	-5.0915e-003
27517	16.817	4.8182	0.1	-2.0582e-003
27518	16.909	4.7273	0.1	-3.2311e-003
27519	16.817	5.	0.1	2.5231e-004
27520	16.909	4.9091	0.1	-1.0035e-003
27521	16.817	5.1818	0.1	3.1287e-003
27522	16.909	5.0909	0.1	1.4848e-003
27523	16.817	5.3636	0.1	5.7052e-003
27524	16.909	5.2727	0.1	4.8887e-003
27525	16.817	5.5455	0.1	1.3026e-002
27526	16.909	5.4545	0.1	6.7743e-003
27527	16.817	5.7273	0.1	1.1022e-002
27528	16.909	5.6364	0.1	1.9802e-002
27529	16.909	5.8182	0.1	-1.7667e-004
27530	16.817	5.9091	0.1	6.0688e-003
27531	17.002	0.27273	0.1	1.1627e-002
27532	17.094	0.18182	0.1	-1.01e-004
27533	17.002	9.0909e-002	0.1	6.2854e-003
27534	17.002	0.45455	0.1	1.3621e-002
27535	17.094	0.36364	0.1	2.0816e-002
27536	17.002	0.63636	0.1	5.8655e-003
27537	17.094	0.54545	0.1	7.0012e-003
27538	17.002	0.81818	0.1	3.1523e-003
27539	17.094	0.72727	0.1	4.9998e-003
27540	17.002	1.	0.1	1.4531e-004
27541	17.094	0.90909	0.1	1.4256e-003
27542	17.002	1.1818	0.1	-2.2512e-003
27543	17.094	1.0909	0.1	-1.1646e-003
27544	17.002	1.3636	0.1	-4.3228e-003
27545	17.094	1.2727	0.1	-3.4689e-003
27546	17.002	1.5455	0.1	-6.056e-003
27547	17.094	1.4545	0.1	-5.3824e-003
27548	17.002	1.7273	0.1	-7.5027e-003
27549	17.094	1.6364	0.1	-6.9865e-003
27550	17.002	1.9091	0.1	-8.6931e-003
27551	17.094	1.8182	0.1	-8.3112e-003
27552	17.002	2.0909	0.1	-9.655e-003
27553	17.094	2.	0.1	-9.3905e-003
27554	17.002	2.2727	0.1	-1.0412e-002
27555	17.094	2.1818	0.1	-1.025e-002
27556	17.002	2.4545	0.1	-1.0982e-002
27557	17.094	2.3636	0.1	-1.0914e-002
27558	17.002	2.6364	0.1	-1.138e-002
27559	17.094	2.5455	0.1	-1.1396e-002
27560	17.002	2.8182	0.1	-1.1614e-002
27561	17.094	2.7273	0.1	-1.1712e-002
27562	17.002	3.	0.1	-1.1692e-002
27563	17.094	2.9091	0.1	-1.1866e-002
27564	17.002	3.1818	0.1	-1.1614e-002
27565	17.094	3.0909	0.1	-1.1867e-002
27566	17.002	3.3636	0.1	-1.138e-002
27567	17.094	3.2727	0.1	-1.1711e-002
27568	17.002	3.5455	0.1	-1.0982e-002
27569	17.094	3.4545	0.1	-1.1396e-002
27570	17.002	3.7273	0.1	-1.0412e-002
27571	17.094	3.6364	0.1	-1.0913e-002
27572	17.002	3.9091	0.1	-9.6549e-003
27573	17.094	3.8182	0.1	-1.025e-002
27574	17.002	4.0909	0.1	-8.6924e-003
27575	17.094	4.	0.1	-9.3906e-003
27576	17.002	4.2727	0.1	-7.5018e-003
27577	17.094	4.1818	0.1	-8.3104e-003
27578	17.002	4.4545	0.1	-6.0552e-003
27579	17.094	4.3636	0.1	-6.9861e-003
27580	17.002	4.6364	0.1	-4.3225e-003
27581	17.094	4.5455	0.1	-5.3814e-003
27582	17.002	4.8182	0.1	-2.2509e-003
27583	17.094	4.7273	0.1	-3.4693e-003
27584	17.002	5.	0.1	1.4627e-004
27585	17.094	4.9091	0.1	-1.1645e-003
27586	17.002	5.1818	0.1	3.154e-003
27587	17.094	5.0909	0.1	1.4265e-003
27588	17.002	5.3636	0.1	5.8668e-003
27589	17.094	5.2727	0.1	5.0015e-003
27590	17.002	5.5455	0.1	1.3621e-002
27591	17.094	5.4545	0.1	7.0023e-003
27592	17.002	5.7273	0.1	1.1626e-002
27593	17.094	5.6364	0.1	2.0815e-002
27594	17.094	5.8182	0.1	-1.0214e-004
27595	17.002	5.9091	0.1	6.2844e-003
27596	17.186	0.27273	0.1	1.2292e-002
27597	17.279	0.18182	0.1	8.0969e-006
27598	17.186	9.0909e-002	0.1	6.5095e-003
27599	17.186	0.45455	0.1	1.4257e-002
27600	17.279	0.36364	0.1	2.191e-002
27601	17.186	0.63636	0.1	6.0298e-003
27602	17.279	0.54545	0.1	7.239e-003
27603	17.186	0.81818	0.1	3.1708e-003
27604	17.279	0.72727	0.1	5.1119e-003
27605	17.186	1.	0.1	2.4437e-005
27606	17.279	0.90909	0.1	1.3542e-003
27607	17.186	1.1818	0.1	-2.4631e-003
27608	17.279	1.0909	0.1	-1.3449e-003
27609	17.186	1.3636	0.1	-4.6002e-003
27610	17.279	1.2727	0.1	-3.7301e-003
27611	17.186	1.5455	0.1	-6.3771e-003
27612	17.279	1.4545	0.1	-5.6981e-003
27613	17.186	1.7273	0.1	-7.853e-003
27614	17.279	1.6364	0.1	-7.3379e-003
27615	17.186	1.9091	0.1	-9.0616e-003
27616	17.279	1.8182	0.1	-8.6859e-003
27617	17.186	2.0909	0.1	-1.0035e-002
27618	17.279	2.	0.1	-9.779e-003
27619	17.186	2.2727	0.1	-1.0799e-002
27620	17.279	2.1818	0.1	-1.0647e-002
27621	17.186	2.4545	0.1	-1.1372e-002
27622	17.279	2.3636	0.1	-1.1315e-002
27623	17.186	2.6364	0.1	-1.1771e-002
27624	17.279	2.5455	0.1	-1.1799e-002
27625	17.186	2.8182	0.1	-1.2005e-002
27626	17.279	2.7273	0.1	-1.2114e-002
27627	17.186	3.	0.1	-1.2083e-002
27628	17.279	2.9091	0.1	-1.2269e-002
27629	17.186	3.1818	0.1	-1.2006e-002
27630	17.279	3.0909	0.1	-1.227e-002
27631	17.186	3.3636	0.1	-1.1771e-002
27632	17.279	3.2727	0.1	-1.2114e-002
27633	17.186	3.5455	0.1	-1.1371e-002
27634	17.279	3.4545	0.1	-1.1799e-002
27635	17.186	3.7273	0.1	-1.0798e-002
27636	17.279	3.6364	0.1	-1.1314e-002
27637	17.186	3.9091	0.1	-1.0035e-002
27638	17.279	3.8182	0.1	-1.0647e-002
27639	17.186	4.0909	0.1	-9.0617e-003
27640	17.279	4.	0.1	-9.7788e-003
27641	17.186	4.2727	0.1	-7.8527e-003
27642	17.279	4.1818	0.1	-8.6857e-003
27643	17.186	4.4545	0.1	-6.3765e-003
27644	17.279	4.3636	0.1	-7.3379e-003
27645	17.186	4.6364	0.1	-4.5999e-003
27646	17.279	4.5455	0.1	-5.6968e-003
27647	17.186	4.8182	0.1	-2.4636e-003
27648	17.279	4.7273	0.1	-3.7303e-003
27649	17.186	5.	0.1	2.4513e-005
27650	17.279	4.9091	0.1	-1.3445e-003
27651	17.186	5.1818	0.1	3.1719e-003
27652	17.279	5.0909	0.1	1.3544e-003
27653	17.186	5.3636	0.1	6.0313e-003
27654	17.279	5.2727	0.1	5.1133e-003
27655	17.186	5.5455	0.1	1.4257e-002
27656	17.279	5.4545	0.1	7.2405e-003
27657	17.186	5.7273	0.1	1.2291e-002
27658	17.279	5.6364	0.1	2.1908e-002
27659	17.279	5.8182	0.1	8.0263e-006
27660	17.186	5.9091	0.1	6.5093e-003
27661	17.371	0.27273	0.1	1.3026e-002
27662	17.464	0.18182	0.1	1.6074e-004
27663	17.371	9.0909e-002	0.1	6.7425e-003
27664	17.371	0.45455	0.1	1.4939e-002
27665	17.464	0.36364	0.1	2.309e-002
27666	17.371	0.63636	0.1	6.1988e-003
27667	17.464	0.54545	0.1	7.4881e-003
27668	17.371	0.81818	0.1	3.1806e-003
27669	17.464	0.72727	0.1	5.2209e-003
27670	17.371	1.	0.1	-1.1558e-004
27671	17.464	0.90909	0.1	1.2655e-003
27672	17.371	1.1818	0.1	-2.6994e-003
27673	17.464	1.0909	0.1	-1.5485e-003
27674	17.371	1.3636	0.1	-4.9045e-003
27675	17.464	1.2727	0.1	-4.0189e-003
27676	17.371	1.5455	0.1	-6.7265e-003
27677	17.464	1.4545	0.1	-6.0421e-003
27678	17.371	1.7273	0.1	-8.2313e-003
27679	17.464	1.6364	0.1	-7.7193e-003
27680	17.371	1.9091	0.1	-9.458e-003
27681	17.464	1.8182	0.1	-9.0898e-003
27682	17.371	2.0909	0.1	-1.0441e-002
27683	17.464	2.	0.1	-1.0197e-002
27684	17.371	2.2727	0.1	-1.121e-002
27685	17.464	2.1818	0.1	-1.1071e-002
27686	17.371	2.4545	0.1	-1.1786e-002
27687	17.464	2.3636	0.1	-1.1741e-002
27688	17.371	2.6364	0.1	-1.2185e-002
27689	17.464	2.5455	0.1	-1.2227e-002
27690	17.371	2.8182	0.1	-1.242e-002
27691	17.464	2.7273	0.1	-1.2542e-002
27692	17.371	3.	0.1	-1.2498e-002
27693	17.464	2.9091	0.1	-1.2697e-002
27694	17.371	3.1818	0.1	-1.242e-002
27695	17.464	3.0909	0.1	-1.2697e-002
27696	17.371	3.3636	0.1	-1.2185e-002
27697	17.464	3.2727	0.1	-1.2542e-002
27698	17.371	3.5455	0.1	-1.1786e-002
27699	17.464	3.4545	0.1	-1.2227e-002
27700	17.371	3.7273	0.1	-1.121e-002
27701	17.464	3.6364	0.1	-1.1741e-002
27702	17.371	3.9091	0.1	-1.0441e-002
27703	17.464	3.8182	0.1	-1.1071e-002
27704	17.371	4.0909	0.1	-9.4576e-003
27705	17.464	4.	0.1	-1.0196e-002
27706	17.371	4.2727	0.1	-8.2313e-003
27707	17.464	4.1818	0.1	-9.09e-003
27708	17.371	4.4545	0.1	-6.7258e-003
27709	17.464	4.3636	0.1	-7.7188e-003
27710	17.371	4.6364	0.1	-4.9037e-003
27711	17.464	4.5455	0.1	-6.042e-003
27712	17.371	4.8182	0.1	-2.6987e-003
27713	17.464	4.7273	0.1	-4.0185e-003
27714	17.371	5.	0.1	-1.1514e-004
27715	17.464	4.9091	0.1	-1.5477e-003
27716	17.371	5.1818	0.1	3.181e-003
27717	17.464	5.0909	0.1	1.2655e-003
27718	17.371	5.3636	0.1	6.2002e-003
27719	17.464	5.2727	0.1	5.2229e-003
27720	17.371	5.5455	0.1	1.4939e-002
27721	17.464	5.4545	0.1	7.489e-003
27722	17.371	5.7273	0.1	1.3025e-002
27723	17.464	5.6364	0.1	2.3088e-002
27724	17.464	5.8182	0.1	1.6118e-004
27725	17.371	5.9091	0.1	6.7445e-003
27726	17.556	0.27273	0.1	1.3838e-002
27727	17.648	0.18182	0.1	3.6692e-004
27728	17.556	9.0909e-002	0.1	6.9869e-003
27729	17.556	0.45455	0.1	1.5671e-002
27730	17.648	0.36364	0.1	2.4371e-002
27731	17.556	0.63636	0.1	6.3689e-003
27732	17.648	0.54545	0.1	7.7462e-003
27733	17.556	0.81818	0.1	3.177e-003
27734	17.648	0.72727	0.1	5.3251e-003
27735	17.556	1.	0.1	-2.78e-004
27736	17.648	0.90909	0.1	1.1553e-003
27737	17.556	1.1818	0.1	-2.9626e-003
27738	17.648	1.0909	0.1	-1.7793e-003
27739	17.556	1.3636	0.1	-5.2381e-003
27740	17.648	1.2727	0.1	-4.3396e-003
27741	17.556	1.5455	0.1	-7.1062e-003
27742	17.648	1.4545	0.1	-6.4195e-003
27743	17.556	1.7273	0.1	-8.6409e-003
27744	17.648	1.6364	0.1	-8.1346e-003
27745	17.556	1.9091	0.1	-9.8853e-003
27746	17.648	1.8182	0.1	-9.5274e-003
27747	17.556	2.0909	0.1	-1.0878e-002
27748	17.648	2.	0.1	-1.0646e-002
27749	17.556	2.2727	0.1	-1.165e-002
27750	17.648	2.1818	0.1	-1.1526e-002
27751	17.556	2.4545	0.1	-1.2227e-002
27752	17.648	2.3636	0.1	-1.2197e-002
27753	17.556	2.6364	0.1	-1.2627e-002
27754	17.648	2.5455	0.1	-1.2682e-002
27755	17.556	2.8182	0.1	-1.2861e-002
27756	17.648	2.7273	0.1	-1.2996e-002
27757	17.556	3.	0.1	-1.2938e-002
27758	17.648	2.9091	0.1	-1.315e-002
27759	17.556	3.1818	0.1	-1.2861e-002
27760	17.648	3.0909	0.1	-1.315e-002
27761	17.556	3.3636	0.1	-1.2626e-002
27762	17.648	3.2727	0.1	-1.2996e-002
27763	17.556	3.5455	0.1	-1.2227e-002
27764	17.648	3.4545	0.1	-1.2682e-002
27765	17.556	3.7273	0.1	-1.165e-002
27766	17.648	3.6364	0.1	-1.2197e-002
27767	17.556	3.9091	0.1	-1.0878e-002
27768	17.648	3.8182	0.1	-1.1526e-002
27769	17.556	4.0909	0.1	-9.8854e-003
27770	17.648	4.	0.1	-1.0646e-002
27771	17.556	4.2727	0.1	-8.6405e-003
27772	17.648	4.1818	0.1	-9.5273e-003
27773	17.556	4.4545	0.1	-7.1063e-003
27774	17.648	4.3636	0.1	-8.1339e-003
27775	17.556	4.6364	0.1	-5.2384e-003
27776	17.648	4.5455	0.1	-6.4195e-003
27777	17.556	4.8182	0.1	-2.9621e-003
27778	17.648	4.7273	0.1	-4.3391e-003
27779	17.556	5.	0.1	-2.7757e-004
27780	17.648	4.9091	0.1	-1.7787e-003
27781	17.556	5.1818	0.1	3.1786e-003
27782	17.648	5.0909	0.1	1.1563e-003
27783	17.556	5.3636	0.1	6.3704e-003
27784	17.648	5.2727	0.1	5.3273e-003
27785	17.556	5.5455	0.1	1.567e-002
27786	17.648	5.4545	0.1	7.7467e-003
27787	17.556	5.7273	0.1	1.3837e-002
27788	17.648	5.6364	0.1	2.4368e-002
27789	17.648	5.8182	0.1	3.6651e-004
27790	17.556	5.9091	0.1	6.9872e-003
27791	17.741	0.27273	0.1	1.4743e-002
27792	17.833	0.18182	0.1	6.3729e-004
27793	17.741	9.0909e-002	0.1	7.2374e-003
27794	17.741	0.45455	0.1	1.6458e-002
27795	17.833	0.36364	0.1	2.5761e-002
27796	17.741	0.63636	0.1	6.5394e-003
27797	17.833	0.54545	0.1	8.0125e-003
27798	17.741	0.81818	0.1	3.159e-003
27799	17.833	0.72727	0.1	5.4224e-003
27800	17.741	1.	0.1	-4.675e-004
27801	17.833	0.90909	0.1	1.0212e-003
27802	17.741	1.1818	0.1	-3.2587e-003
27803	17.833	1.0909	0.1	-2.0438e-003
27804	17.741	1.3636	0.1	-5.6082e-003
27805	17.833	1.2727	0.1	-4.6969e-003
27806	17.741	1.5455	0.1	-7.523e-003
27807	17.833	1.4545	0.1	-6.8368e-003
27808	17.741	1.7273	0.1	-9.0868e-003
27809	17.833	1.6364	0.1	-8.5892e-003
27810	17.741	1.9091	0.1	-1.0346e-002
27811	17.833	1.8182	0.1	-1.0002e-002
27812	17.741	2.0909	0.1	-1.1347e-002
27813	17.833	2.	0.1	-1.1131e-002
27814	17.741	2.2727	0.1	-1.2122e-002
27815	17.833	2.1818	0.1	-1.2015e-002
27816	17.741	2.4545	0.1	-1.2698e-002
27817	17.833	2.3636	0.1	-1.2685e-002
27818	17.741	2.6364	0.1	-1.3096e-002
27819	17.833	2.5455	0.1	-1.3168e-002
27820	17.741	2.8182	0.1	-1.3328e-002
27821	17.833	2.7273	0.1	-1.3479e-002
27822	17.741	3.	0.1	-1.3405e-002
27823	17.833	2.9091	0.1	-1.3632e-002
27824	17.741	3.1818	0.1	-1.3329e-002
27825	17.833	3.0909	0.1	-1.3632e-002
27826	17.741	3.3636	0.1	-1.3096e-002
27827	17.833	3.2727	0.1	-1.348e-002
27828	17.741	3.5455	0.1	-1.2697e-002
27829	17.833	3.4545	0.1	-1.3168e-002
27830	17.741	3.7273	0.1	-1.2121e-002
27831	17.833	3.6364	0.1	-1.2685e-002
27832	17.741	3.9091	0.1	-1.1347e-002
27833	17.833	3.8182	0.1	-1.2015e-002
27834	17.741	4.0909	0.1	-1.0346e-002
27835	17.833	4.	0.1	-1.1131e-002
27836	17.741	4.2727	0.1	-9.0864e-003
27837	17.833	4.1818	0.1	-1.0003e-002
27838	17.741	4.4545	0.1	-7.5222e-003
27839	17.833	4.3636	0.1	-8.5878e-003
27840	17.741	4.6364	0.1	-5.6073e-003
27841	17.833	4.5455	0.1	-6.8365e-003
27842	17.741	4.8182	0.1	-3.2581e-003
27843	17.833	4.7273	0.1	-4.6972e-003
27844	17.741	5.	0.1	-4.6643e-004
27845	17.833	4.9091	0.1	-2.0432e-003
27846	17.741	5.1818	0.1	3.1606e-003
27847	17.833	5.0909	0.1	1.022e-003
27848	17.741	5.3636	0.1	6.5406e-003
27849	17.833	5.2727	0.1	5.424e-003
27850	17.741	5.5455	0.1	1.6457e-002
27851	17.833	5.4545	0.1	8.0128e-003
27852	17.741	5.7273	0.1	1.4741e-002
27853	17.833	5.6364	0.1	2.5759e-002
27854	17.833	5.8182	0.1	6.3714e-004
27855	17.741	5.9091	0.1	7.2402e-003
27856	17.926	0.27273	0.1	1.5749e-002
27857	18.018	0.18182	0.1	9.884e-004
27858	17.926	9.0909e-002	0.1	7.4994e-003
27859	17.926	0.45455	0.1	1.7303e-002
27860	18.018	0.36364	0.1	2.7273e-002
27861	17.926	0.63636	0.1	6.7076e-003
27862	18.018	0.54545	0.1	8.2856e-003
27863	17.926	0.81818	0.1	3.1228e-003
27864	18.018	0.72727	0.1	5.5082e-003
27865	17.926	1.	0.1	-6.8864e-004
27866	18.018	0.90909	0.1	8.5661e-004
27867	17.926	1.1818	0.1	-3.5928e-003
27868	18.018	1.0909	0.1	-2.3473e-003
27869	17.926	1.3636	0.1	-6.0184e-003
27870	18.018	1.2727	0.1	-5.0982e-003
27871	17.926	1.5455	0.1	-7.982e-003
27872	18.018	1.4545	0.1	-7.2988e-003
27873	17.926	1.7273	0.1	-9.5732e-003
27874	18.018	1.6364	0.1	-9.0878e-003
27875	17.926	1.9091	0.1	-1.0848e-002
27876	18.018	1.8182	0.1	-1.052e-002
27877	17.926	2.0909	0.1	-1.1854e-002
27878	18.018	2.	0.1	-1.1657e-002
27879	17.926	2.2727	0.1	-1.2628e-002
27880	18.018	2.1818	0.1	-1.2541e-002
27881	17.926	2.4545	0.1	-1.3201e-002
27882	18.018	2.3636	0.1	-1.3209e-002
27883	17.926	2.6364	0.1	-1.3596e-002
27884	18.018	2.5455	0.1	-1.3686e-002
27885	17.926	2.8182	0.1	-1.3826e-002
27886	18.018	2.7273	0.1	-1.3994e-002
27887	17.926	3.	0.1	-1.3901e-002
27888	18.018	2.9091	0.1	-1.4144e-002
27889	17.926	3.1818	0.1	-1.3826e-002
27890	18.018	3.0909	0.1	-1.4144e-002
27891	17.926	3.3636	0.1	-1.3596e-002
27892	18.018	3.2727	0.1	-1.3994e-002
27893	17.926	3.5455	0.1	-1.3201e-002
27894	18.018	3.4545	0.1	-1.3686e-002
27895	17.926	3.7273	0.1	-1.2628e-002
27896	18.018	3.6364	0.1	-1.3208e-002
27897	17.926	3.9091	0.1	-1.1854e-002
27898	18.018	3.8182	0.1	-1.2541e-002
27899	17.926	4.0909	0.1	-1.0848e-002
27900	18.018	4.	0.1	-1.1657e-002
27901	17.926	4.2727	0.1	-9.5724e-003
27902	18.018	4.1818	0.1	-1.052e-002
27903	17.926	4.4545	0.1	-7.9811e-003
27904	18.018	4.3636	0.1	-9.0865e-003
27905	17.926	4.6364	0.1	-6.0192e-003
27906	18.018	4.5455	0.1	-7.299e-003
27907	17.926	4.8182	0.1	-3.5929e-003
27908	18.018	4.7273	0.1	-5.0984e-003
27909	17.926	5.	0.1	-6.8837e-004
27910	18.018	4.9091	0.1	-2.3467e-003
27911	17.926	5.1818	0.1	3.1236e-003
27912	18.018	5.0909	0.1	8.5689e-004
27913	17.926	5.3636	0.1	6.7083e-003
27914	18.018	5.2727	0.1	5.5096e-003
27915	17.926	5.5455	0.1	1.7302e-002
27916	18.018	5.4545	0.1	8.2862e-003
27917	17.926	5.7273	0.1	1.5749e-002
27918	18.018	5.6364	0.1	2.7273e-002
27919	18.018	5.8182	0.1	9.8834e-004
27920	17.926	5.9091	0.1	7.4994e-003
27921	18.11	0.27273	0.1	1.6877e-002
27922	18.203	0.18182	0.1	1.4398e-003
27923	18.11	9.0909e-002	0.1	7.7679e-003
27924	18.11	0.45455	0.1	1.8213e-002
27925	18.203	0.36364	0.1	2.8925e-002
27926	18.11	0.63636	0.1	6.8695e-003
27927	18.203	0.54545	0.1	8.5637e-003
27928	18.11	0.81818	0.1	3.0606e-003
27929	18.203	0.72727	0.1	5.5786e-003
27930	18.11	1.	0.1	-9.4895e-004
27931	18.203	0.90909	0.1	6.5438e-004
27932	18.11	1.1818	0.1	-3.9725e-003
27933	18.203	1.0909	0.1	-2.6965e-003
27934	18.11	1.3636	0.1	-6.4775e-003
27935	18.203	1.2727	0.1	-5.5511e-003
27936	18.11	1.5455	0.1	-8.4878e-003
27937	18.203	1.4545	0.1	-7.813e-003
27938	18.11	1.7273	0.1	-1.0106e-002
27939	18.203	1.6364	0.1	-9.6367e-003
27940	18.11	1.9091	0.1	-1.1392e-002
27941	18.203	1.8182	0.1	-1.1087e-002
27942	18.11	2.0909	0.1	-1.24e-002
27943	18.203	2.	0.1	-1.2228e-002
27944	18.11	2.2727	0.1	-1.3172e-002
27945	18.203	2.1818	0.1	-1.3109e-002
27946	18.11	2.4545	0.1	-1.3741e-002
27947	18.203	2.3636	0.1	-1.377e-002
27948	18.11	2.6364	0.1	-1.4129e-002
27949	18.203	2.5455	0.1	-1.424e-002
27950	18.11	2.8182	0.1	-1.4355e-002
27951	18.203	2.7273	0.1	-1.454e-002
27952	18.11	3.	0.1	-1.443e-002
27953	18.203	2.9091	0.1	-1.4687e-002
27954	18.11	3.1818	0.1	-1.4355e-002
27955	18.203	3.0909	0.1	-1.4688e-002
27956	18.11	3.3636	0.1	-1.4129e-002
27957	18.203	3.2727	0.1	-1.4541e-002
27958	18.11	3.5455	0.1	-1.374e-002
27959	18.203	3.4545	0.1	-1.424e-002
27960	18.11	3.7273	0.1	-1.3172e-002
27961	18.203	3.6364	0.1	-1.3769e-002
27962	18.11	3.9091	0.1	-1.24e-002
27963	18.203	3.8182	0.1	-1.3109e-002
27964	18.11	4.0909	0.1	-1.1392e-002
27965	18.203	4.	0.1	-1.2227e-002
27966	18.11	4.2727	0.1	-1.0106e-002
27967	18.203	4.1818	0.1	-1.1087e-002
27968	18.11	4.4545	0.1	-8.4875e-003
27969	18.203	4.3636	0.1	-9.6364e-003
27970	18.11	4.6364	0.1	-6.4771e-003
27971	18.203	4.5455	0.1	-7.8126e-003
27972	18.11	4.8182	0.1	-3.9718e-003
27973	18.203	4.7273	0.1	-5.5504e-003
27974	18.11	5.	0.1	-9.483e-004
27975	18.203	4.9091	0.1	-2.6963e-003
27976	18.11	5.1818	0.1	3.0615e-003
27977	18.203	5.0909	0.1	6.5483e-004
27978	18.11	5.3636	0.1	6.8708e-003
27979	18.203	5.2727	0.1	5.5794e-003
27980	18.11	5.5455	0.1	1.8214e-002
27981	18.203	5.4545	0.1	8.5648e-003
27982	18.11	5.7273	0.1	1.6877e-002
27983	18.203	5.6364	0.1	2.8925e-002
27984	18.203	5.8182	0.1	1.4387e-003
27985	18.11	5.9091	0.1	7.7649e-003
27986	18.295	0.27273	0.1	1.8147e-002
27987	18.388	0.18182	0.1	2.0135e-003
27988	18.295	9.0909e-002	0.1	8.0337e-003
27989	18.295	0.45455	0.1	1.9196e-002
27990	18.388	0.36364	0.1	3.0733e-002
27991	18.295	0.63636	0.1	7.023e-003
27992	18.388	0.54545	0.1	8.8444e-003
27993	18.295	0.81818	0.1	2.9689e-003
27994	18.388	0.72727	0.1	5.627e-003
27995	18.295	1.	0.1	-1.2546e-003
27996	18.388	0.90909	0.1	4.0642e-004
27997	18.295	1.1818	0.1	-4.4046e-003
27998	18.388	1.0909	0.1	-3.1012e-003
27999	18.295	1.3636	0.1	-6.9919e-003
28000	18.388	1.2727	0.1	-6.0628e-003
28001	18.295	1.5455	0.1	-9.0493e-003
28002	18.388	1.4545	0.1	-8.388e-003
28003	18.295	1.7273	0.1	-1.0692e-002
28004	18.388	1.6364	0.1	-1.0245e-002
28005	18.295	1.9091	0.1	-1.1987e-002
28006	18.388	1.8182	0.1	-1.1709e-002
28007	18.295	2.0909	0.1	-1.2994e-002
28008	18.388	2.	0.1	-1.285e-002
28009	18.295	2.2727	0.1	-1.3758e-002
28010	18.388	2.1818	0.1	-1.3724e-002
28011	18.295	2.4545	0.1	-1.4317e-002
28012	18.388	2.3636	0.1	-1.4373e-002
28013	18.295	2.6364	0.1	-1.4697e-002
28014	18.388	2.5455	0.1	-1.4831e-002
28015	18.295	2.8182	0.1	-1.4917e-002
28016	18.388	2.7273	0.1	-1.5123e-002
28017	18.295	3.	0.1	-1.4989e-002
28018	18.388	2.9091	0.1	-1.5265e-002
28019	18.295	3.1818	0.1	-1.4917e-002
28020	18.388	3.0909	0.1	-1.5265e-002
28021	18.295	3.3636	0.1	-1.4697e-002
28022	18.388	3.2727	0.1	-1.5123e-002
28023	18.295	3.5455	0.1	-1.4317e-002
28024	18.388	3.4545	0.1	-1.4831e-002
28025	18.295	3.7273	0.1	-1.3758e-002
28026	18.388	3.6364	0.1	-1.4372e-002
28027	18.295	3.9091	0.1	-1.2993e-002
28028	18.388	3.8182	0.1	-1.3724e-002
28029	18.295	4.0909	0.1	-1.1987e-002
28030	18.388	4.	0.1	-1.285e-002
28031	18.295	4.2727	0.1	-1.0692e-002
28032	18.388	4.1818	0.1	-1.1709e-002
28033	18.295	4.4545	0.1	-9.049e-003
28034	18.388	4.3636	0.1	-1.0245e-002
28035	18.295	4.6364	0.1	-6.9912e-003
28036	18.388	4.5455	0.1	-8.3873e-003
28037	18.295	4.8182	0.1	-4.4042e-003
28038	18.388	4.7273	0.1	-6.0626e-003
28039	18.295	5.	0.1	-1.2546e-003
28040	18.388	4.9091	0.1	-3.101e-003
28041	18.295	5.1818	0.1	2.9693e-003
28042	18.388	5.0909	0.1	4.0719e-004
28043	18.295	5.3636	0.1	7.0237e-003
28044	18.388	5.2727	0.1	5.6281e-003
28045	18.295	5.5455	0.1	1.9196e-002
28046	18.388	5.4545	0.1	8.8453e-003
28047	18.295	5.7273	0.1	1.8146e-002
28048	18.388	5.6364	0.1	3.0733e-002
28049	18.388	5.8182	0.1	2.0123e-003
28050	18.295	5.9091	0.1	8.0341e-003
28051	18.48	0.27273	0.1	1.9577e-002
28052	18.572	0.18182	0.1	2.7402e-003
28053	18.48	9.0909e-002	0.1	8.3037e-003
28054	18.48	0.45455	0.1	2.0256e-002
28055	18.572	0.36364	0.1	3.2714e-002
28056	18.48	0.63636	0.1	7.1604e-003
28057	18.572	0.54545	0.1	9.1226e-003
28058	18.48	0.81818	0.1	2.8363e-003
28059	18.572	0.72727	0.1	5.6459e-003
28060	18.48	1.	0.1	-1.6176e-003
28061	18.572	0.90909	0.1	1.0255e-004
28062	18.48	1.1818	0.1	-4.8993e-003
28063	18.572	1.0909	0.1	-3.5719e-003
28064	18.48	1.3636	0.1	-7.5711e-003
28065	18.572	1.2727	0.1	-6.6457e-003
28066	18.48	1.5455	0.1	-9.6759e-003
28067	18.572	1.4545	0.1	-9.0335e-003
28068	18.48	1.7273	0.1	-1.134e-002
28069	18.572	1.6364	0.1	-1.0922e-002
28070	18.48	1.9091	0.1	-1.2638e-002
28071	18.572	1.8182	0.1	-1.2395e-002
28072	18.48	2.0909	0.1	-1.3638e-002
28073	18.572	2.	0.1	-1.3531e-002
28074	18.48	2.2727	0.1	-1.4391e-002
28075	18.572	2.1818	0.1	-1.4391e-002
28076	18.48	2.4545	0.1	-1.4936e-002
28077	18.572	2.3636	0.1	-1.5022e-002
28078	18.48	2.6364	0.1	-1.5303e-002
28079	18.572	2.5455	0.1	-1.5464e-002
28080	18.48	2.8182	0.1	-1.5515e-002
28081	18.572	2.7273	0.1	-1.5743e-002
28082	18.48	3.	0.1	-1.5585e-002
28083	18.572	2.9091	0.1	-1.5877e-002
28084	18.48	3.1818	0.1	-1.5515e-002
28085	18.572	3.0909	0.1	-1.5878e-002
28086	18.48	3.3636	0.1	-1.5303e-002
28087	18.572	3.2727	0.1	-1.5743e-002
28088	18.48	3.5455	0.1	-1.4935e-002
28089	18.572	3.4545	0.1	-1.5463e-002
28090	18.48	3.7273	0.1	-1.4391e-002
28091	18.572	3.6364	0.1	-1.5022e-002
28092	18.48	3.9091	0.1	-1.3639e-002
28093	18.572	3.8182	0.1	-1.439e-002
28094	18.48	4.0909	0.1	-1.2639e-002
28095	18.572	4.	0.1	-1.3531e-002
28096	18.48	4.2727	0.1	-1.134e-002
28097	18.572	4.1818	0.1	-1.2395e-002
28098	18.48	4.4545	0.1	-9.6756e-003
28099	18.572	4.3636	0.1	-1.0922e-002
28100	18.48	4.6364	0.1	-7.5709e-003
28101	18.572	4.5455	0.1	-9.0331e-003
28102	18.48	4.8182	0.1	-4.8992e-003
28103	18.572	4.7273	0.1	-6.646e-003
28104	18.48	5.	0.1	-1.6167e-003
28105	18.572	4.9091	0.1	-3.5717e-003
28106	18.48	5.1818	0.1	2.8378e-003
28107	18.572	5.0909	0.1	1.0397e-004
28108	18.48	5.3636	0.1	7.1618e-003
28109	18.572	5.2727	0.1	5.6475e-003
28110	18.48	5.5455	0.1	2.0256e-002
28111	18.572	5.4545	0.1	9.1237e-003
28112	18.48	5.7273	0.1	1.9576e-002
28113	18.572	5.6364	0.1	3.2713e-002
28114	18.572	5.8182	0.1	2.739e-003
28115	18.48	5.9091	0.1	8.3028e-003
28116	18.665	0.27273	0.1	2.1196e-002
28117	18.757	0.18182	0.1	3.6574e-003
28118	18.665	9.0909e-002	0.1	8.5652e-003
28119	18.665	0.45455	0.1	2.1398e-002
28120	18.757	0.36364	0.1	3.4887e-002
28121	18.665	0.63636	0.1	7.2757e-003
28122	18.757	0.54545	0.1	9.3924e-003
28123	18.665	0.81818	0.1	2.6561e-003
28124	18.757	0.72727	0.1	5.6271e-003
28125	18.665	1.	0.1	-2.0469e-003
28126	18.757	0.90909	0.1	-2.6939e-004
28127	18.665	1.1818	0.1	-5.4695e-003
28128	18.757	1.0909	0.1	-4.1216e-003
28129	18.665	1.3636	0.1	-8.2276e-003
28130	18.757	1.2727	0.1	-7.3128e-003
28131	18.665	1.5455	0.1	-1.0377e-002
28132	18.757	1.4545	0.1	-9.763e-003
28133	18.665	1.7273	0.1	-1.2058e-002
28134	18.757	1.6364	0.1	-1.1679e-002
28135	18.665	1.9091	0.1	-1.3355e-002
28136	18.757	1.8182	0.1	-1.3155e-002
28137	18.665	2.0909	0.1	-1.4342e-002
28138	18.757	2.	0.1	-1.4278e-002
28139	18.665	2.2727	0.1	-1.5075e-002
28140	18.757	2.1818	0.1	-1.5116e-002
28141	18.665	2.4545	0.1	-1.5599e-002
28142	18.757	2.3636	0.1	-1.5722e-002
28143	18.665	2.6364	0.1	-1.5949e-002
28144	18.757	2.5455	0.1	-1.6141e-002
28145	18.665	2.8182	0.1	-1.615e-002
28146	18.757	2.7273	0.1	-1.6401e-002
28147	18.665	3.	0.1	-1.6214e-002
28148	18.757	2.9091	0.1	-1.6527e-002
28149	18.665	3.1818	0.1	-1.6149e-002
28150	18.757	3.0909	0.1	-1.6526e-002
28151	18.665	3.3636	0.1	-1.5949e-002
28152	18.757	3.2727	0.1	-1.6402e-002
28153	18.665	3.5455	0.1	-1.5599e-002
28154	18.757	3.4545	0.1	-1.6141e-002
28155	18.665	3.7273	0.1	-1.5075e-002
28156	18.757	3.6364	0.1	-1.5723e-002
28157	18.665	3.9091	0.1	-1.4342e-002
28158	18.757	3.8182	0.1	-1.5116e-002
28159	18.665	4.0909	0.1	-1.3355e-002
28160	18.757	4.	0.1	-1.4278e-002
28161	18.665	4.2727	0.1	-1.2058e-002
28162	18.757	4.1818	0.1	-1.3155e-002
28163	18.665	4.4545	0.1	-1.0376e-002
28164	18.757	4.3636	0.1	-1.1679e-002
28165	18.665	4.6364	0.1	-8.2277e-003
28166	18.757	4.5455	0.1	-9.7627e-003
28167	18.665	4.8182	0.1	-5.4696e-003
28168	18.757	4.7273	0.1	-7.3129e-003
28169	18.665	5.	0.1	-2.0462e-003
28170	18.757	4.9091	0.1	-4.121e-003
28171	18.665	5.1818	0.1	2.6576e-003
28172	18.757	5.0909	0.1	-2.6724e-004
28173	18.665	5.3636	0.1	7.2769e-003
28174	18.757	5.2727	0.1	5.6281e-003
28175	18.665	5.5455	0.1	2.1398e-002
28176	18.757	5.4545	0.1	9.3922e-003
28177	18.665	5.7273	0.1	2.1195e-002
28178	18.757	5.6364	0.1	3.4886e-002
28179	18.757	5.8182	0.1	3.6567e-003
28180	18.665	5.9091	0.1	8.5647e-003
28181	18.85	0.27273	0.1	2.3032e-002
28182	18.942	0.18182	0.1	4.8117e-003
28183	18.85	9.0909e-002	0.1	8.8137e-003
28184	18.85	0.45455	0.1	2.2628e-002
28185	18.942	0.36364	0.1	3.7274e-002
28186	18.85	0.63636	0.1	7.3598e-003
28187	18.942	0.54545	0.1	9.6454e-003
28188	18.85	0.81818	0.1	2.414e-003
28189	18.942	0.72727	0.1	5.5572e-003
28190	18.85	1.	0.1	-2.5588e-003
28191	18.942	0.90909	0.1	-7.2426e-004
28192	18.85	1.1818	0.1	-6.1284e-003
28193	18.942	1.0909	0.1	-4.7669e-003
28194	18.85	1.3636	0.1	-8.9756e-003
28195	18.942	1.2727	0.1	-8.0794e-003
28196	18.85	1.5455	0.1	-1.1167e-002
28197	18.942	1.4545	0.1	-1.0593e-002
28198	18.85	1.7273	0.1	-1.286e-002
28199	18.942	1.6364	0.1	-1.2531e-002
28200	18.85	1.9091	0.1	-1.4159e-002
28201	18.942	1.8182	0.1	-1.4002e-002
28202	18.85	2.0909	0.1	-1.5113e-002
28203	18.942	2.	0.1	-1.5103e-002
28204	18.85	2.2727	0.1	-1.5817e-002
28205	18.942	2.1818	0.1	-1.5908e-002
28206	18.85	2.4545	0.1	-1.6307e-002
28207	18.942	2.3636	0.1	-1.6479e-002
28208	18.85	2.6364	0.1	-1.6649e-002
28209	18.942	2.5455	0.1	-1.6865e-002
28210	18.85	2.8182	0.1	-1.6822e-002
28211	18.942	2.7273	0.1	-1.7101e-002
28212	18.85	3.	0.1	-1.6882e-002
28213	18.942	2.9091	0.1	-1.7213e-002
28214	18.85	3.1818	0.1	-1.6823e-002
28215	18.942	3.0909	0.1	-1.7213e-002
28216	18.85	3.3636	0.1	-1.6649e-002
28217	18.942	3.2727	0.1	-1.7102e-002
28218	18.85	3.5455	0.1	-1.6307e-002
28219	18.942	3.4545	0.1	-1.6865e-002
28220	18.85	3.7273	0.1	-1.5817e-002
28221	18.942	3.6364	0.1	-1.6479e-002
28222	18.85	3.9091	0.1	-1.5113e-002
28223	18.942	3.8182	0.1	-1.5908e-002
28224	18.85	4.0909	0.1	-1.4159e-002
28225	18.942	4.	0.1	-1.5103e-002
28226	18.85	4.2727	0.1	-1.286e-002
28227	18.942	4.1818	0.1	-1.4002e-002
28228	18.85	4.4545	0.1	-1.1167e-002
28229	18.942	4.3636	0.1	-1.2531e-002
28230	18.85	4.6364	0.1	-8.9753e-003
28231	18.942	4.5455	0.1	-1.0592e-002
28232	18.85	4.8182	0.1	-6.1278e-003
28233	18.942	4.7273	0.1	-8.0793e-003
28234	18.85	5.	0.1	-2.5569e-003
28235	18.942	4.9091	0.1	-4.7648e-003
28236	18.85	5.1818	0.1	2.4156e-003
28237	18.942	5.0909	0.1	-7.2206e-004
28238	18.85	5.3636	0.1	7.3592e-003
28239	18.942	5.2727	0.1	5.5577e-003
28240	18.85	5.5455	0.1	2.2626e-002
28241	18.942	5.4545	0.1	9.6434e-003
28242	18.85	5.7273	0.1	2.3032e-002
28243	18.942	5.6364	0.1	3.7273e-002
28244	18.942	5.8182	0.1	4.8134e-003
28245	18.85	5.9091	0.1	8.8149e-003
28246	19.034	0.27273	0.1	2.5122e-002
28247	19.127	0.18182	0.1	6.2663e-003
28248	19.034	9.0909e-002	0.1	9.0404e-003
28249	19.034	0.45455	0.1	2.3949e-002
28250	19.127	0.36364	0.1	3.9898e-002
28251	19.034	0.63636	0.1	7.3984e-003
28252	19.127	0.54545	0.1	9.8699e-003
28253	19.034	0.81818	0.1	2.0955e-003
28254	19.127	0.72727	0.1	5.4209e-003
28255	19.034	1.	0.1	-3.1689e-003
28256	19.127	0.90909	0.1	-1.2784e-003
28257	19.034	1.1818	0.1	-6.8948e-003
28258	19.127	1.0909	0.1	-5.5242e-003
28259	19.034	1.3636	0.1	-9.8321e-003
28260	19.127	1.2727	0.1	-8.9664e-003
28261	19.034	1.5455	0.1	-1.2063e-002
28262	19.127	1.4545	0.1	-1.1536e-002
28263	19.034	1.7273	0.1	-1.3759e-002
28264	19.127	1.6364	0.1	-1.3492e-002
28265	19.034	1.9091	0.1	-1.5029e-002
28266	19.127	1.8182	0.1	-1.4949e-002
28267	19.034	2.0909	0.1	-1.596e-002
28268	19.127	2.	0.1	-1.6016e-002
28269	19.034	2.2727	0.1	-1.6624e-002
28270	19.127	2.1818	0.1	-1.6775e-002
28271	19.034	2.4545	0.1	-1.708e-002
28272	19.127	2.3636	0.1	-1.7298e-002
28273	19.034	2.6364	0.1	-1.7373e-002
28274	19.127	2.5455	0.1	-1.7639e-002
28275	19.034	2.8182	0.1	-1.7536e-002
28276	19.127	2.7273	0.1	-1.7843e-002
28277	19.034	3.	0.1	-1.7587e-002
28278	19.127	2.9091	0.1	-1.7937e-002
28279	19.034	3.1818	0.1	-1.7536e-002
28280	19.127	3.0909	0.1	-1.7937e-002
28281	19.034	3.3636	0.1	-1.7373e-002
28282	19.127	3.2727	0.1	-1.7843e-002
28283	19.034	3.5455	0.1	-1.708e-002
28284	19.127	3.4545	0.1	-1.7639e-002
28285	19.034	3.7273	0.1	-1.6624e-002
28286	19.127	3.6364	0.1	-1.7297e-002
28287	19.034	3.9091	0.1	-1.5959e-002
28288	19.127	3.8182	0.1	-1.6775e-002
28289	19.034	4.0909	0.1	-1.5029e-002
28290	19.127	4.	0.1	-1.6015e-002
28291	19.034	4.2727	0.1	-1.376e-002
28292	19.127	4.1818	0.1	-1.4949e-002
28293	19.034	4.4545	0.1	-1.2062e-002
28294	19.127	4.3636	0.1	-1.3493e-002
28295	19.034	4.6364	0.1	-9.8313e-003
28296	19.127	4.5455	0.1	-1.1535e-002
28297	19.034	4.8182	0.1	-6.8932e-003
28298	19.127	4.7273	0.1	-8.9664e-003
28299	19.034	5.	0.1	-3.1665e-003
28300	19.127	4.9091	0.1	-5.5225e-003
28301	19.034	5.1818	0.1	2.0966e-003
28302	19.127	5.0909	0.1	-1.2769e-003
28303	19.034	5.3636	0.1	7.3975e-003
28304	19.127	5.2727	0.1	5.4227e-003
28305	19.034	5.5455	0.1	2.3948e-002
28306	19.127	5.4545	0.1	9.8667e-003
28307	19.034	5.7273	0.1	2.5124e-002
28308	19.127	5.6364	0.1	3.9898e-002
28309	19.127	5.8182	0.1	6.2695e-003
28310	19.034	5.9091	0.1	9.04e-003
28311	19.219	0.27273	0.1	2.7511e-002
28312	19.312	0.18182	0.1	8.1013e-003
28313	19.219	9.0909e-002	0.1	9.2272e-003
28314	19.219	0.45455	0.1	2.5367e-002
28315	19.312	0.36364	0.1	4.2788e-002
28316	19.219	0.63636	0.1	7.3774e-003
28317	19.312	0.54545	0.1	1.0051e-002
28318	19.219	0.81818	0.1	1.6829e-003
28319	19.312	0.72727	0.1	5.2031e-003
28320	19.219	1.	0.1	-3.8944e-003
28321	19.312	0.90909	0.1	-1.9533e-003
28322	19.219	1.1818	0.1	-7.7853e-003
28323	19.312	1.0909	0.1	-6.4139e-003
28324	19.219	1.3636	0.1	-1.0813e-002
28325	19.312	1.2727	0.1	-9.9879e-003
28326	19.219	1.5455	0.1	-1.3078e-002
28327	19.312	1.4545	0.1	-1.2617e-002
28328	19.219	1.7273	0.1	-1.4772e-002
28329	19.312	1.6364	0.1	-1.4583e-002
28330	19.219	1.9091	0.1	-1.601e-002
28331	19.312	1.8182	0.1	-1.6013e-002
28332	19.219	2.0909	0.1	-1.6893e-002
28333	19.312	2.	0.1	-1.703e-002
28334	19.219	2.2727	0.1	-1.7503e-002
28335	19.312	2.1818	0.1	-1.7726e-002
28336	19.219	2.4545	0.1	-1.7905e-002
28337	19.312	2.3636	0.1	-1.8183e-002
28338	19.219	2.6364	0.1	-1.8154e-002
28339	19.312	2.5455	0.1	-1.8465e-002
28340	19.219	2.8182	0.1	-1.8287e-002
28341	19.312	2.7273	0.1	-1.8624e-002
28342	19.219	3.	0.1	-1.8329e-002
28343	19.312	2.9091	0.1	-1.8694e-002
28344	19.219	3.1818	0.1	-1.8288e-002
28345	19.312	3.0909	0.1	-1.8694e-002
28346	19.219	3.3636	0.1	-1.8154e-002
28347	19.312	3.2727	0.1	-1.8624e-002
28348	19.219	3.5455	0.1	-1.7905e-002
28349	19.312	3.4545	0.1	-1.8465e-002
28350	19.219	3.7273	0.1	-1.7503e-002
28351	19.312	3.6364	0.1	-1.8182e-002
28352	19.219	3.9091	0.1	-1.6893e-002
28353	19.312	3.8182	0.1	-1.7726e-002
28354	19.219	4.0909	0.1	-1.6009e-002
28355	19.312	4.	0.1	-1.703e-002
28356	19.219	4.2727	0.1	-1.4772e-002
28357	19.312	4.1818	0.1	-1.6014e-002
28358	19.219	4.4545	0.1	-1.3078e-002
28359	19.312	4.3636	0.1	-1.4583e-002
28360	19.219	4.6364	0.1	-1.0813e-002
28361	19.312	4.5455	0.1	-1.2617e-002
28362	19.219	4.8182	0.1	-7.7853e-003
28363	19.312	4.7273	0.1	-9.9881e-003
28364	19.219	5.	0.1	-3.8936e-003
28365	19.312	4.9091	0.1	-6.4138e-003
28366	19.219	5.1818	0.1	1.6852e-003
28367	19.312	5.0909	0.1	-1.9517e-003
28368	19.219	5.3636	0.1	7.3771e-003
28369	19.312	5.2727	0.1	5.2062e-003
28370	19.219	5.5455	0.1	2.5365e-002
28371	19.312	5.4545	0.1	1.0048e-002
28372	19.219	5.7273	0.1	2.7512e-002
28373	19.312	5.6364	0.1	4.2787e-002
28374	19.312	5.8182	0.1	8.1031e-003
28375	19.219	5.9091	0.1	9.2279e-003
28376	19.404	0.27273	0.1	3.0249e-002
28377	19.496	0.18182	0.1	1.0411e-002
28378	19.404	9.0909e-002	0.1	9.3606e-003
28379	19.404	0.45455	0.1	2.6883e-002
28380	19.496	0.36364	0.1	4.5965e-002
28381	19.404	0.63636	0.1	7.2789e-003
28382	19.496	0.54545	0.1	1.0171e-002
28383	19.404	0.81818	0.1	1.1565e-003
28384	19.496	0.72727	0.1	4.8839e-003
28385	19.404	1.	0.1	-4.751e-003
28386	19.496	0.90909	0.1	-2.7731e-003
28387	19.404	1.1818	0.1	-8.8242e-003
28388	19.496	1.0909	0.1	-7.4629e-003
28389	19.404	1.3636	0.1	-1.1946e-002
28390	19.496	1.2727	0.1	-1.1176e-002
28391	19.404	1.5455	0.1	-1.424e-002
28392	19.496	1.4545	0.1	-1.3862e-002
28393	19.404	1.7273	0.1	-1.5917e-002
28394	19.496	1.6364	0.1	-1.5828e-002
28395	19.404	1.9091	0.1	-1.7109e-002
28396	19.496	1.8182	0.1	-1.7217e-002
28397	19.404	2.0909	0.1	-1.7926e-002
28398	19.496	2.	0.1	-1.8164e-002
28399	19.404	2.2727	0.1	-1.846e-002
28400	19.496	2.1818	0.1	-1.8774e-002
28401	19.404	2.4545	0.1	-1.8791e-002
28402	19.496	2.3636	0.1	-1.9141e-002
28403	19.404	2.6364	0.1	-1.898e-002
28404	19.496	2.5455	0.1	-1.9345e-002
28405	19.404	2.8182	0.1	-1.9074e-002
28406	19.496	2.7273	0.1	-1.9443e-002
28407	19.404	3.	0.1	-1.9102e-002
28408	19.496	2.9091	0.1	-1.9482e-002
28409	19.404	3.1818	0.1	-1.9073e-002
28410	19.496	3.0909	0.1	-1.9481e-002
28411	19.404	3.3636	0.1	-1.8979e-002
28412	19.496	3.2727	0.1	-1.9443e-002
28413	19.404	3.5455	0.1	-1.8791e-002
28414	19.496	3.4545	0.1	-1.9344e-002
28415	19.404	3.7273	0.1	-1.846e-002
28416	19.496	3.6364	0.1	-1.914e-002
28417	19.404	3.9091	0.1	-1.7926e-002
28418	19.496	3.8182	0.1	-1.8775e-002
28419	19.404	4.0909	0.1	-1.7109e-002
28420	19.496	4.	0.1	-1.8163e-002
28421	19.404	4.2727	0.1	-1.5918e-002
28422	19.496	4.1818	0.1	-1.7218e-002
28423	19.404	4.4545	0.1	-1.4241e-002
28424	19.496	4.3636	0.1	-1.5827e-002
28425	19.404	4.6364	0.1	-1.1947e-002
28426	19.496	4.5455	0.1	-1.3862e-002
28427	19.404	4.8182	0.1	-8.8242e-003
28428	19.496	4.7273	0.1	-1.1176e-002
28429	19.404	5.	0.1	-4.7511e-003
28430	19.496	4.9091	0.1	-7.4632e-003
28431	19.404	5.1818	0.1	1.159e-003
28432	19.496	5.0909	0.1	-2.771e-003
28433	19.404	5.3636	0.1	7.2798e-003
28434	19.496	5.2727	0.1	4.8863e-003
28435	19.404	5.5455	0.1	2.6881e-002
28436	19.496	5.4545	0.1	1.0169e-002
28437	19.404	5.7273	0.1	3.0249e-002
28438	19.496	5.6364	0.1	4.5963e-002
28439	19.496	5.8182	0.1	1.0411e-002
28440	19.404	5.9091	0.1	9.3615e-003
28441	19.589	0.27273	0.1	3.3385e-002
28442	19.681	0.18182	0.1	1.3316e-002
28443	19.589	9.0909e-002	0.1	9.4145e-003
28444	19.589	0.45455	0.1	2.8493e-002
28445	19.681	0.36364	0.1	4.9451e-002
28446	19.589	0.63636	0.1	7.0819e-003
28447	19.681	0.54545	0.1	1.0208e-002
28448	19.589	0.81818	0.1	4.9129e-004
28449	19.681	0.72727	0.1	4.4366e-003
28450	19.589	1.	0.1	-5.7934e-003
28451	19.681	0.90909	0.1	-3.7649e-003
28452	19.589	1.1818	0.1	-1.004e-002
28453	19.681	1.0909	0.1	-8.7016e-003
28454	19.589	1.3636	0.1	-1.3256e-002
28455	19.681	1.2727	0.1	-1.256e-002
28456	19.589	1.5455	0.1	-1.5574e-002
28457	19.681	1.4545	0.1	-1.5299e-002
28458	19.589	1.7273	0.1	-1.7224e-002
28459	19.681	1.6364	0.1	-1.7257e-002
28460	19.589	1.9091	0.1	-1.8348e-002
28461	19.681	1.8182	0.1	-1.8586e-002
28462	19.589	2.0909	0.1	-1.9075e-002
28463	19.681	2.	0.1	-1.9437e-002
28464	19.589	2.2727	0.1	-1.9509e-002
28465	19.681	2.1818	0.1	-1.9932e-002
28466	19.589	2.4545	0.1	-1.9742e-002
28467	19.681	2.3636	0.1	-2.0181e-002
28468	19.589	2.6364	0.1	-1.9852e-002
28469	19.681	2.5455	0.1	-2.0277e-002
28470	19.589	2.8182	0.1	-1.9893e-002
28471	19.681	2.7273	0.1	-2.0296e-002
28472	19.589	3.	0.1	-1.9902e-002
28473	19.681	2.9091	0.1	-2.029e-002
28474	19.589	3.1818	0.1	-1.9892e-002
28475	19.681	3.0909	0.1	-2.029e-002
28476	19.589	3.3636	0.1	-1.9851e-002
28477	19.681	3.2727	0.1	-2.0295e-002
28478	19.589	3.5455	0.1	-1.9741e-002
28479	19.681	3.4545	0.1	-2.0276e-002
28480	19.589	3.7273	0.1	-1.9509e-002
28481	19.681	3.6364	0.1	-2.018e-002
28482	19.589	3.9091	0.1	-1.9075e-002
28483	19.681	3.8182	0.1	-1.9933e-002
28484	19.589	4.0909	0.1	-1.8348e-002
28485	19.681	4.	0.1	-1.9437e-002
28486	19.589	4.2727	0.1	-1.7223e-002
28487	19.681	4.1818	0.1	-1.8586e-002
28488	19.589	4.4545	0.1	-1.5573e-002
28489	19.681	4.3636	0.1	-1.7255e-002
28490	19.589	4.6364	0.1	-1.3256e-002
28491	19.681	4.5455	0.1	-1.5299e-002
28492	19.589	4.8182	0.1	-1.004e-002
28493	19.681	4.7273	0.1	-1.256e-002
28494	19.589	5.	0.1	-5.7925e-003
28495	19.681	4.9091	0.1	-8.7013e-003
28496	19.589	5.1818	0.1	4.9328e-004
28497	19.681	5.0909	0.1	-3.7632e-003
28498	19.589	5.3636	0.1	7.0819e-003
28499	19.681	5.2727	0.1	4.4388e-003
28500	19.589	5.5455	0.1	2.8492e-002
28501	19.681	5.4545	0.1	1.0208e-002
28502	19.589	5.7273	0.1	3.3383e-002
28503	19.681	5.6364	0.1	4.945e-002
28504	19.681	5.8182	0.1	1.3314e-002
28505	19.589	5.9091	0.1	9.4128e-003
28506	19.774	0.27273	0.1	3.6983e-002
28507	19.866	0.18182	0.1	1.6967e-002
28508	19.774	9.0909e-002	0.1	9.3543e-003
28509	19.774	0.45455	0.1	3.0194e-002
28510	19.866	0.36364	0.1	5.3269e-002
28511	19.774	0.63636	0.1	6.7559e-003
28512	19.866	0.54545	0.1	1.0138e-002
28513	19.774	0.81818	0.1	-3.4272e-004
28514	19.866	0.72727	0.1	3.8328e-003
28515	19.774	1.	0.1	-7.0247e-003
28516	19.866	0.90909	0.1	-4.9599e-003
28517	19.774	1.1818	0.1	-1.1467e-002
28518	19.866	1.0909	0.1	-1.0162e-002
28519	19.774	1.3636	0.1	-1.478e-002
28520	19.866	1.2727	0.1	-1.4177e-002
28521	19.774	1.5455	0.1	-1.7112e-002
28522	19.866	1.4545	0.1	-1.6968e-002
28523	19.774	1.7273	0.1	-1.8718e-002
28524	19.866	1.6364	0.1	-1.8904e-002
28525	19.774	1.9091	0.1	-1.9752e-002
28526	19.866	1.8182	0.1	-2.0151e-002
28527	19.774	2.0909	0.1	-2.0358e-002
28528	19.866	2.	0.1	-2.0876e-002
28529	19.774	2.2727	0.1	-2.0657e-002
28530	19.866	2.1818	0.1	-2.1217e-002
28531	19.774	2.4545	0.1	-2.0761e-002
28532	19.866	2.3636	0.1	-2.1306e-002
28533	19.774	2.6364	0.1	-2.0762e-002
28534	19.866	2.5455	0.1	-2.1259e-002
28535	19.774	2.8182	0.1	-2.0733e-002
28536	19.866	2.7273	0.1	-2.1169e-002
28537	19.774	3.	0.1	-2.0718e-002
28538	19.866	2.9091	0.1	-2.1106e-002
28539	19.774	3.1818	0.1	-2.0733e-002
28540	19.866	3.0909	0.1	-2.1106e-002
28541	19.774	3.3636	0.1	-2.0762e-002
28542	19.866	3.2727	0.1	-2.1169e-002
28543	19.774	3.5455	0.1	-2.0761e-002
28544	19.866	3.4545	0.1	-2.1258e-002
28545	19.774	3.7273	0.1	-2.0657e-002
28546	19.866	3.6364	0.1	-2.1306e-002
28547	19.774	3.9091	0.1	-2.0358e-002
28548	19.866	3.8182	0.1	-2.1217e-002
28549	19.774	4.0909	0.1	-1.9752e-002
28550	19.866	4.	0.1	-2.0876e-002
28551	19.774	4.2727	0.1	-1.8717e-002
28552	19.866	4.1818	0.1	-2.0151e-002
28553	19.774	4.4545	0.1	-1.7112e-002
28554	19.866	4.3636	0.1	-1.8904e-002
28555	19.774	4.6364	0.1	-1.4779e-002
28556	19.866	4.5455	0.1	-1.6967e-002
28557	19.774	4.8182	0.1	-1.1467e-002
28558	19.866	4.7273	0.1	-1.4176e-002
28559	19.774	5.	0.1	-7.0236e-003
28560	19.866	4.9091	0.1	-1.0161e-002
28561	19.774	5.1818	0.1	-3.4071e-004
28562	19.866	5.0909	0.1	-4.9602e-003
28563	19.774	5.3636	0.1	6.758e-003
28564	19.866	5.2727	0.1	3.8348e-003
28565	19.774	5.5455	0.1	3.0195e-002
28566	19.866	5.4545	0.1	1.0138e-002
28567	19.774	5.7273	0.1	3.6982e-002
28568	19.866	5.6364	0.1	5.3269e-002
28569	19.866	5.8182	0.1	1.6967e-002
28570	19.774	5.9091	0.1	9.3536e-003
28571	19.958	0.27273	0.1	4.1108e-002
28572	20.051	0.18182	0.1	2.155e-002
28573	19.958	9.0909e-002	0.1	9.1354e-003
28574	19.958	0.45455	0.1	3.1977e-002
28575	20.051	0.36364	0.1	5.7429e-002
28576	19.958	0.63636	0.1	6.2745e-003
28577	20.051	0.54545	0.1	9.9241e-003
28578	19.958	0.81818	0.1	-1.3762e-003
28579	20.051	0.72727	0.1	3.0407e-003
28580	19.958	1.	0.1	-8.4875e-003
28581	20.051	0.90909	0.1	-6.3953e-003
28582	19.958	1.1818	0.1	-1.3139e-002
28583	20.051	1.0909	0.1	-1.1881e-002
28584	19.958	1.3636	0.1	-1.6554e-002
28585	20.051	1.2727	0.1	-1.6065e-002
28586	19.958	1.5455	0.1	-1.8897e-002
28587	20.051	1.4545	0.1	-1.8912e-002
28588	19.958	1.7273	0.1	-2.044e-002
28589	20.051	1.6364	0.1	-2.0816e-002
28590	19.958	1.9091	0.1	-2.1353e-002
28591	20.051	1.8182	0.1	-2.1955e-002
28592	19.958	2.0909	0.1	-2.1798e-002
28593	20.051	2.	0.1	-2.2512e-002
28594	19.958	2.2727	0.1	-2.1917e-002
28595	20.051	2.1818	0.1	-2.2648e-002
28596	19.958	2.4545	0.1	-2.1848e-002
28597	20.051	2.3636	0.1	-2.2524e-002
28598	19.958	2.6364	0.1	-2.1705e-002
28599	20.051	2.5455	0.1	-2.2283e-002
28600	19.958	2.8182	0.1	-2.1579e-002
28601	20.051	2.7273	0.1	-2.2048e-002
28602	19.958	3.	0.1	-2.1531e-002
28603	20.051	2.9091	0.1	-2.1906e-002
28604	19.958	3.1818	0.1	-2.1579e-002
28605	20.051	3.0909	0.1	-2.1906e-002
28606	19.958	3.3636	0.1	-2.1705e-002
28607	20.051	3.2727	0.1	-2.2048e-002
28608	19.958	3.5455	0.1	-2.1848e-002
28609	20.051	3.4545	0.1	-2.2283e-002
28610	19.958	3.7273	0.1	-2.1917e-002
28611	20.051	3.6364	0.1	-2.2524e-002
28612	19.958	3.9091	0.1	-2.1797e-002
28613	20.051	3.8182	0.1	-2.2648e-002
28614	19.958	4.0909	0.1	-2.1353e-002
28615	20.051	4.	0.1	-2.2512e-002
28616	19.958	4.2727	0.1	-2.044e-002
28617	20.051	4.1818	0.1	-2.1955e-002
28618	19.958	4.4545	0.1	-1.8897e-002
28619	20.051	4.3636	0.1	-2.0816e-002
28620	19.958	4.6364	0.1	-1.6554e-002
28621	20.051	4.5455	0.1	-1.8911e-002
28622	19.958	4.8182	0.1	-1.3138e-002
28623	20.051	4.7273	0.1	-1.6065e-002
28624	19.958	5.	0.1	-8.4874e-003
28625	20.051	4.9091	0.1	-1.1879e-002
28626	19.958	5.1818	0.1	-1.3765e-003
28627	20.051	5.0909	0.1	-6.395e-003
28628	19.958	5.3636	0.1	6.2742e-003
28629	20.051	5.2727	0.1	3.0414e-003
28630	19.958	5.5455	0.1	3.1976e-002
28631	20.051	5.4545	0.1	9.9213e-003
28632	19.958	5.7273	0.1	4.1108e-002
28633	20.051	5.6364	0.1	5.7429e-002
28634	20.051	5.8182	0.1	2.1553e-002
28635	19.958	5.9091	0.1	9.1362e-003
28636	20.143	0.27273	0.1	4.5822e-002
28637	20.236	0.18182	0.1	2.7289e-002
28638	20.143	9.0909e-002	0.1	8.7043e-003
28639	20.143	0.45455	0.1	3.3813e-002
28640	20.236	0.36364	0.1	6.1922e-002
28641	20.143	0.63636	0.1	5.5944e-003
28642	20.236	0.54545	0.1	9.5198e-003
28643	20.143	0.81818	0.1	-2.6491e-003
28644	20.236	0.72727	0.1	2.0225e-003
28645	20.143	1.	0.1	-1.0222e-002
28646	20.236	0.90909	0.1	-8.1071e-003
28647	20.143	1.1818	0.1	-1.5099e-002
28648	20.236	1.0909	0.1	-1.39e-002
28649	20.143	1.3636	0.1	-1.8627e-002
28650	20.236	1.2727	0.1	-1.8274e-002
28651	20.143	1.5455	0.1	-2.0976e-002
28652	20.236	1.4545	0.1	-2.1186e-002
28653	20.143	1.7273	0.1	-2.2437e-002
28654	20.236	1.6364	0.1	-2.3049e-002
28655	20.143	1.9091	0.1	-2.3192e-002
28656	20.236	1.8182	0.1	-2.4047e-002
28657	20.143	2.0909	0.1	-2.3423e-002
28658	20.236	2.	0.1	-2.4384e-002
28659	20.143	2.2727	0.1	-2.3303e-002
28660	20.236	2.1818	0.1	-2.4249e-002
28661	20.143	2.4545	0.1	-2.3e-002
28662	20.236	2.3636	0.1	-2.3838e-002
28663	20.143	2.6364	0.1	-2.2662e-002
28664	20.236	2.5455	0.1	-2.3337e-002
28665	20.143	2.8182	0.1	-2.2409e-002
28666	20.236	2.7273	0.1	-2.2904e-002
28667	20.143	3.	0.1	-2.2315e-002
28668	20.236	2.9091	0.1	-2.2657e-002
28669	20.143	3.1818	0.1	-2.2409e-002
28670	20.236	3.0909	0.1	-2.2657e-002
28671	20.143	3.3636	0.1	-2.2662e-002
28672	20.236	3.2727	0.1	-2.2904e-002
28673	20.143	3.5455	0.1	-2.2999e-002
28674	20.236	3.4545	0.1	-2.3336e-002
28675	20.143	3.7273	0.1	-2.3303e-002
28676	20.236	3.6364	0.1	-2.3838e-002
28677	20.143	3.9091	0.1	-2.3423e-002
28678	20.236	3.8182	0.1	-2.4249e-002
28679	20.143	4.0909	0.1	-2.3192e-002
28680	20.236	4.	0.1	-2.4384e-002
28681	20.143	4.2727	0.1	-2.2436e-002
28682	20.236	4.1818	0.1	-2.4048e-002
28683	20.143	4.4545	0.1	-2.0975e-002
28684	20.236	4.3636	0.1	-2.3048e-002
28685	20.143	4.6364	0.1	-1.8626e-002
28686	20.236	4.5455	0.1	-2.1185e-002
28687	20.143	4.8182	0.1	-1.5099e-002
28688	20.236	4.7273	0.1	-1.8274e-002
28689	20.143	5.	0.1	-1.022e-002
28690	20.236	4.9091	0.1	-1.3899e-002
28691	20.143	5.1818	0.1	-2.6478e-003
28692	20.236	5.0909	0.1	-8.1044e-003
28693	20.143	5.3636	0.1	5.5926e-003
28694	20.236	5.2727	0.1	2.0236e-003
28695	20.143	5.5455	0.1	3.3811e-002
28696	20.236	5.4545	0.1	9.5164e-003
28697	20.143	5.7273	0.1	4.5825e-002
28698	20.236	5.6364	0.1	6.1922e-002
28699	20.236	5.8182	0.1	2.7292e-002
28700	20.143	5.9091	0.1	8.7053e-003
28701	20.328	0.27273	0.1	5.1181e-002
28702	20.42	0.18182	0.1	3.4432e-002
28703	20.328	9.0909e-002	0.1	7.9814e-003
28704	20.328	0.45455	0.1	3.5661e-002
28705	20.42	0.36364	0.1	6.6714e-002
28706	20.328	0.63636	0.1	4.67e-003
28707	20.42	0.54545	0.1	8.8735e-003
28708	20.328	0.81818	0.1	-4.1967e-003
28709	20.42	0.72727	0.1	7.3918e-004
28710	20.328	1.	0.1	-1.2268e-002
28711	20.42	0.90909	0.1	-1.013e-002
28712	20.328	1.1818	0.1	-1.7396e-002
28713	20.42	1.0909	0.1	-1.6263e-002
28714	20.328	1.3636	0.1	-2.1054e-002
28715	20.42	1.2727	0.1	-2.0859e-002
28716	20.328	1.5455	0.1	-2.3413e-002
28717	20.42	1.4545	0.1	-2.3854e-002
28718	20.328	1.7273	0.1	-2.4769e-002
28719	20.42	1.6364	0.1	-2.5673e-002
28720	20.328	1.9091	0.1	-2.5318e-002
28721	20.42	1.8182	0.1	-2.6496e-002
28722	20.328	2.0909	0.1	-2.5268e-002
28723	20.42	2.	0.1	-2.6546e-002
28724	20.328	2.2727	0.1	-2.4828e-002
28725	20.42	2.1818	0.1	-2.6045e-002
28726	20.328	2.4545	0.1	-2.421e-002
28727	20.42	2.3636	0.1	-2.5248e-002
28728	20.328	2.6364	0.1	-2.361e-002
28729	20.42	2.5455	0.1	-2.4394e-002
28730	20.328	2.8182	0.1	-2.3182e-002
28731	20.42	2.7273	0.1	-2.3694e-002
28732	20.328	3.	0.1	-2.3028e-002
28733	20.42	2.9091	0.1	-2.3304e-002
28734	20.328	3.1818	0.1	-2.3182e-002
28735	20.42	3.0909	0.1	-2.3304e-002
28736	20.328	3.3636	0.1	-2.3609e-002
28737	20.42	3.2727	0.1	-2.3694e-002
28738	20.328	3.5455	0.1	-2.421e-002
28739	20.42	3.4545	0.1	-2.4393e-002
28740	20.328	3.7273	0.1	-2.4828e-002
28741	20.42	3.6364	0.1	-2.5249e-002
28742	20.328	3.9091	0.1	-2.5268e-002
28743	20.42	3.8182	0.1	-2.6046e-002
28744	20.328	4.0909	0.1	-2.5319e-002
28745	20.42	4.	0.1	-2.6545e-002
28746	20.328	4.2727	0.1	-2.4769e-002
28747	20.42	4.1818	0.1	-2.6497e-002
28748	20.328	4.4545	0.1	-2.3412e-002
28749	20.42	4.3636	0.1	-2.5673e-002
28750	20.328	4.6364	0.1	-2.1053e-002
28751	20.42	4.5455	0.1	-2.3854e-002
28752	20.328	4.8182	0.1	-1.7396e-002
28753	20.42	4.7273	0.1	-2.0859e-002
28754	20.328	5.	0.1	-1.2266e-002
28755	20.42	4.9091	0.1	-1.6261e-002
28756	20.328	5.1818	0.1	-4.1943e-003
28757	20.42	5.0909	0.1	-1.0127e-002
28758	20.328	5.3636	0.1	4.6694e-003
28759	20.42	5.2727	0.1	7.4058e-004
28760	20.328	5.5455	0.1	3.566e-002
28761	20.42	5.4545	0.1	8.8709e-003
28762	20.328	5.7273	0.1	5.1181e-002
28763	20.42	5.6364	0.1	6.6712e-002
28764	20.42	5.8182	0.1	3.4435e-002
28765	20.328	5.9091	0.1	7.9824e-003
28766	20.513	0.27273	0.1	5.7198e-002
28767	20.605	0.18182	0.1	4.3237e-002
28768	20.513	9.0909e-002	0.1	6.8641e-003
28769	20.513	0.45455	0.1	3.7461e-002
28770	20.605	0.36364	0.1	7.1716e-002
28771	20.513	0.63636	0.1	3.4526e-003
28772	20.605	0.54545	0.1	7.919e-003
28773	20.513	0.81818	0.1	-6.0593e-003
28774	20.605	0.72727	0.1	-8.5253e-004
28775	20.513	1.	0.1	-1.4665e-002
28776	20.605	0.90909	0.1	-1.2499e-002
28777	20.513	1.1818	0.1	-2.0081e-002
28778	20.605	1.0909	0.1	-1.901e-002
28779	20.513	1.3636	0.1	-2.39e-002
28780	20.605	1.2727	0.1	-2.3881e-002
28781	20.513	1.5455	0.1	-2.6279e-002
28782	20.605	1.4545	0.1	-2.7e-002
28783	20.513	1.7273	0.1	-2.7514e-002
28784	20.605	1.6364	0.1	-2.878e-002
28785	20.513	1.9091	0.1	-2.7801e-002
28786	20.605	1.8182	0.1	-2.939e-002
28787	20.513	2.0909	0.1	-2.7376e-002
28788	20.605	2.	0.1	-2.9061e-002
28789	20.513	2.2727	0.1	-2.6504e-002
28790	20.605	2.1818	0.1	-2.8072e-002
28791	20.513	2.4545	0.1	-2.546e-002
28792	20.605	2.3636	0.1	-2.6747e-002
28793	20.513	2.6364	0.1	-2.4503e-002
28794	20.605	2.5455	0.1	-2.5413e-002
28795	20.513	2.8182	0.1	-2.384e-002
28796	20.605	2.7273	0.1	-2.4351e-002
28797	20.513	3.	0.1	-2.3604e-002
28798	20.605	2.9091	0.1	-2.3768e-002
28799	20.513	3.1818	0.1	-2.384e-002
28800	20.605	3.0909	0.1	-2.3768e-002
28801	20.513	3.3636	0.1	-2.4504e-002
28802	20.605	3.2727	0.1	-2.4352e-002
28803	20.513	3.5455	0.1	-2.5461e-002
28804	20.605	3.4545	0.1	-2.5413e-002
28805	20.513	3.7273	0.1	-2.6505e-002
28806	20.605	3.6364	0.1	-2.6748e-002
28807	20.513	3.9091	0.1	-2.7375e-002
28808	20.605	3.8182	0.1	-2.8072e-002
28809	20.513	4.0909	0.1	-2.78e-002
28810	20.605	4.	0.1	-2.906e-002
28811	20.513	4.2727	0.1	-2.7514e-002
28812	20.605	4.1818	0.1	-2.9389e-002
28813	20.513	4.4545	0.1	-2.628e-002
28814	20.605	4.3636	0.1	-2.8781e-002
28815	20.513	4.6364	0.1	-2.39e-002
28816	20.605	4.5455	0.1	-2.7e-002
28817	20.513	4.8182	0.1	-2.008e-002
28818	20.605	4.7273	0.1	-2.3881e-002
28819	20.513	5.	0.1	-1.4664e-002
28820	20.605	4.9091	0.1	-1.901e-002
28821	20.513	5.1818	0.1	-6.0582e-003
28822	20.605	5.0909	0.1	-1.2498e-002
28823	20.513	5.3636	0.1	3.4519e-003
28824	20.605	5.2727	0.1	-8.5026e-004
28825	20.513	5.5455	0.1	3.7459e-002
28826	20.605	5.4545	0.1	7.9169e-003
28827	20.513	5.7273	0.1	5.7198e-002
28828	20.605	5.6364	0.1	7.1714e-002
28829	20.605	5.8182	0.1	4.3239e-002
28830	20.513	5.9091	0.1	6.8646e-003
28831	20.698	0.27273	0.1	6.3831e-002
28832	20.79	0.18182	0.1	5.3925e-002
28833	20.698	9.0909e-002	0.1	5.2133e-003
28834	20.698	0.45455	0.1	3.9104e-002
28835	20.79	0.36364	0.1	7.6762e-002
28836	20.698	0.63636	0.1	1.8774e-003
28837	20.79	0.54545	0.1	6.565e-003
28838	20.698	0.81818	0.1	-8.2791e-003
28839	20.79	0.72727	0.1	-2.8009e-003
28840	20.698	1.	0.1	-1.7454e-002
28841	20.79	0.90909	0.1	-1.5248e-002
28842	20.698	1.1818	0.1	-2.3207e-002
28843	20.79	1.0909	0.1	-2.2186e-002
28844	20.698	1.3636	0.1	-2.7246e-002
28845	20.79	1.2727	0.1	-2.7409e-002
28846	20.698	1.5455	0.1	-2.9678e-002
28847	20.79	1.4545	0.1	-3.0723e-002
28848	20.698	1.7273	0.1	-3.0773e-002
28849	20.79	1.6364	0.1	-3.2496e-002
28850	20.698	1.9091	0.1	-3.0724e-002
28851	20.79	1.8182	0.1	-3.2846e-002
28852	20.698	2.0909	0.1	-2.9802e-002
28853	20.79	2.	0.1	-3.202e-002
28854	20.698	2.2727	0.1	-2.8344e-002
28855	20.79	2.1818	0.1	-3.0366e-002
28856	20.698	2.4545	0.1	-2.672e-002
28857	20.79	2.3636	0.1	-2.8318e-002
28858	20.698	2.6364	0.1	-2.5279e-002
28859	20.79	2.5455	0.1	-2.6328e-002
28860	20.698	2.8182	0.1	-2.4297e-002
28861	20.79	2.7273	0.1	-2.4776e-002
28862	20.698	3.	0.1	-2.395e-002
28863	20.79	2.9091	0.1	-2.3933e-002
28864	20.698	3.1818	0.1	-2.4297e-002
28865	20.79	3.0909	0.1	-2.3932e-002
28866	20.698	3.3636	0.1	-2.5279e-002
28867	20.79	3.2727	0.1	-2.4776e-002
28868	20.698	3.5455	0.1	-2.672e-002
28869	20.79	3.4545	0.1	-2.6328e-002
28870	20.698	3.7273	0.1	-2.8344e-002
28871	20.79	3.6364	0.1	-2.8319e-002
28872	20.698	3.9091	0.1	-2.9802e-002
28873	20.79	3.8182	0.1	-3.0366e-002
28874	20.698	4.0909	0.1	-3.0724e-002
28875	20.79	4.	0.1	-3.202e-002
28876	20.698	4.2727	0.1	-3.0773e-002
28877	20.79	4.1818	0.1	-3.2846e-002
28878	20.698	4.4545	0.1	-2.9678e-002
28879	20.79	4.3636	0.1	-3.2496e-002
28880	20.698	4.6364	0.1	-2.7245e-002
28881	20.79	4.5455	0.1	-3.0723e-002
28882	20.698	4.8182	0.1	-2.3207e-002
28883	20.79	4.7273	0.1	-2.7409e-002
28884	20.698	5.	0.1	-1.7453e-002
28885	20.79	4.9091	0.1	-2.2186e-002
28886	20.698	5.1818	0.1	-8.2761e-003
28887	20.79	5.0909	0.1	-1.5246e-002
28888	20.698	5.3636	0.1	1.8783e-003
28889	20.79	5.2727	0.1	-2.7979e-003
28890	20.698	5.5455	0.1	3.9103e-002
28891	20.79	5.4545	0.1	6.5656e-003
28892	20.698	5.7273	0.1	6.3831e-002
28893	20.79	5.6364	0.1	7.676e-002
28894	20.79	5.8182	0.1	5.3925e-002
28895	20.698	5.9091	0.1	5.2123e-003
28896	20.882	0.27273	0.1	7.0917e-002
28897	20.975	0.18182	0.1	6.6578e-002
28898	20.882	9.0909e-002	0.1	2.8376e-003
28899	20.882	0.45455	0.1	4.0425e-002
28900	20.975	0.36364	0.1	8.1555e-002
28901	20.882	0.63636	0.1	-1.3452e-004
28902	20.975	0.54545	0.1	4.692e-003
28903	20.882	0.81818	0.1	-1.0897e-002
28904	20.975	0.72727	0.1	-5.1609e-003
28905	20.882	1.	0.1	-2.067e-002
28906	20.975	0.90909	0.1	-1.8397e-002
28907	20.882	1.1818	0.1	-2.6834e-002
28908	20.975	1.0909	0.1	-2.582e-002
28909	20.882	1.3636	0.1	-3.1182e-002
28910	20.975	1.2727	0.1	-3.1514e-002
28911	20.882	1.5455	0.1	-3.3735e-002
28912	20.975	1.4545	0.1	-3.5148e-002
28913	20.882	1.7273	0.1	-3.469e-002
28914	20.975	1.6364	0.1	-3.698e-002
28915	20.882	1.9091	0.1	-3.4212e-002
28916	20.975	1.8182	0.1	-3.7032e-002
28917	20.882	2.0909	0.1	-3.2619e-002
28918	20.975	2.	0.1	-3.5544e-002
28919	20.882	2.2727	0.1	-3.0356e-002
28920	20.975	2.1818	0.1	-3.2967e-002
28921	20.882	2.4545	0.1	-2.7934e-002
28922	20.975	2.3636	0.1	-2.9917e-002
28923	20.882	2.6364	0.1	-2.5834e-002
28924	20.975	2.5455	0.1	-2.7027e-002
28925	20.882	2.8182	0.1	-2.4423e-002
28926	20.975	2.7273	0.1	-2.4816e-002
28927	20.882	3.	0.1	-2.3928e-002
28928	20.975	2.9091	0.1	-2.3629e-002
28929	20.882	3.1818	0.1	-2.4424e-002
28930	20.975	3.0909	0.1	-2.3628e-002
28931	20.882	3.3636	0.1	-2.5834e-002
28932	20.975	3.2727	0.1	-2.4816e-002
28933	20.882	3.5455	0.1	-2.7934e-002
28934	20.975	3.4545	0.1	-2.7026e-002
28935	20.882	3.7273	0.1	-3.0356e-002
28936	20.975	3.6364	0.1	-2.9918e-002
28937	20.882	3.9091	0.1	-3.2619e-002
28938	20.975	3.8182	0.1	-3.2967e-002
28939	20.882	4.0909	0.1	-3.4212e-002
28940	20.975	4.	0.1	-3.5544e-002
28941	20.882	4.2727	0.1	-3.469e-002
28942	20.975	4.1818	0.1	-3.7032e-002
28943	20.882	4.4545	0.1	-3.3734e-002
28944	20.975	4.3636	0.1	-3.6979e-002
28945	20.882	4.6364	0.1	-3.1183e-002
28946	20.975	4.5455	0.1	-3.5148e-002
28947	20.882	4.8182	0.1	-2.6834e-002
28948	20.975	4.7273	0.1	-3.1514e-002
28949	20.882	5.	0.1	-2.067e-002
28950	20.975	4.9091	0.1	-2.582e-002
28951	20.882	5.1818	0.1	-1.0895e-002
28952	20.975	5.0909	0.1	-1.8397e-002
28953	20.882	5.3636	0.1	-1.3184e-004
28954	20.975	5.2727	0.1	-5.1581e-003
28955	20.882	5.5455	0.1	4.0425e-002
28956	20.975	5.4545	0.1	4.6931e-003
28957	20.882	5.7273	0.1	7.0915e-002
28958	20.975	5.6364	0.1	8.1553e-002
28959	20.975	5.8182	0.1	6.6578e-002
28960	20.882	5.9091	0.1	2.8366e-003
28961	21.067	0.27273	0.1	7.8079e-002
28962	21.16	0.18182	0.1	8.0978e-002
28963	21.067	9.0909e-002	0.1	-5.2812e-004
28964	21.067	0.45455	0.1	4.1162e-002
28965	21.16	0.36364	0.1	8.5594e-002
28966	21.067	0.63636	0.1	-2.6827e-003
28967	21.16	0.54545	0.1	2.1131e-003
28968	21.067	0.81818	0.1	-1.3953e-002
28969	21.16	0.72727	0.1	-8.0152e-003
28970	21.067	1.	0.1	-2.4337e-002
28971	21.16	0.90909	0.1	-2.1964e-002
28972	21.067	1.1818	0.1	-3.1011e-002
28973	21.16	1.0909	0.1	-2.9929e-002
28974	21.067	1.3636	0.1	-3.5816e-002
28975	21.16	1.2727	0.1	-3.6267e-002
28976	21.067	1.5455	0.1	-3.8609e-002
28977	21.16	1.4545	0.1	-4.0437e-002
28978	21.067	1.7273	0.1	-3.9449e-002
28979	21.16	1.6364	0.1	-4.2478e-002
28980	21.067	1.9091	0.1	-3.8426e-002
28981	21.16	1.8182	0.1	-4.2201e-002
28982	21.067	2.0909	0.1	-3.591e-002
28983	21.16	2.	0.1	-3.9819e-002
28984	21.067	2.2727	0.1	-3.2524e-002
28985	21.16	2.1818	0.1	-3.5942e-002
28986	21.067	2.4545	0.1	-2.9e-002
28987	21.16	2.3636	0.1	-3.1465e-002
28988	21.067	2.6364	0.1	-2.6006e-002
28989	21.16	2.5455	0.1	-2.7327e-002
28990	21.067	2.8182	0.1	-2.4029e-002
28991	21.16	2.7273	0.1	-2.424e-002
28992	21.067	3.	0.1	-2.3341e-002
28993	21.16	2.9091	0.1	-2.2613e-002
28994	21.067	3.1818	0.1	-2.4028e-002
28995	21.16	3.0909	0.1	-2.2613e-002
28996	21.067	3.3636	0.1	-2.6006e-002
28997	21.16	3.2727	0.1	-2.4239e-002
28998	21.067	3.5455	0.1	-2.9e-002
28999	21.16	3.4545	0.1	-2.7327e-002
29000	21.067	3.7273	0.1	-3.2524e-002
29001	21.16	3.6364	0.1	-3.1465e-002
29002	21.067	3.9091	0.1	-3.591e-002
29003	21.16	3.8182	0.1	-3.5941e-002
29004	21.067	4.0909	0.1	-3.8427e-002
29005	21.16	4.	0.1	-3.9819e-002
29006	21.067	4.2727	0.1	-3.9449e-002
29007	21.16	4.1818	0.1	-4.2201e-002
29008	21.067	4.4545	0.1	-3.8608e-002
29009	21.16	4.3636	0.1	-4.2477e-002
29010	21.067	4.6364	0.1	-3.5816e-002
29011	21.16	4.5455	0.1	-4.0436e-002
29012	21.067	4.8182	0.1	-3.1011e-002
29013	21.16	4.7273	0.1	-3.6267e-002
29014	21.067	5.	0.1	-2.4337e-002
29015	21.16	4.9091	0.1	-2.9929e-002
29016	21.067	5.1818	0.1	-1.3952e-002
29017	21.16	5.0909	0.1	-2.1962e-002
29018	21.067	5.3636	0.1	-2.6814e-003
29019	21.16	5.2727	0.1	-8.0132e-003
29020	21.067	5.5455	0.1	4.1161e-002
29021	21.16	5.4545	0.1	2.1122e-003
29022	21.067	5.7273	0.1	7.8078e-002
29023	21.16	5.6364	0.1	8.5593e-002
29024	21.16	5.8182	0.1	8.0979e-002
29025	21.067	5.9091	0.1	-5.2819e-004
29026	21.252	0.27273	0.1	8.4606e-002
29027	21.344	0.18182	0.1	9.6309e-002
29028	21.252	9.0909e-002	0.1	-5.2472e-003
29029	21.252	0.45455	0.1	4.0885e-002
29030	21.344	0.36364	0.1	8.807e-002
29031	21.252	0.63636	0.1	-5.9412e-003
29032	21.344	0.54545	0.1	-1.4806e-003
29033	21.252	0.81818	0.1	-1.7514e-002
29034	21.344	0.72727	0.1	-1.1504e-002
29035	21.252	1.	0.1	-2.8471e-002
29036	21.344	0.90909	0.1	-2.5961e-002
29037	21.252	1.1818	0.1	-3.5781e-002
29038	21.344	1.0909	0.1	-3.4497e-002
29039	21.252	1.3636	0.1	-4.128e-002
29040	21.344	1.2727	0.1	-4.1711e-002
29041	21.252	1.5455	0.1	-4.4553e-002
29042	21.344	1.4545	0.1	-4.6754e-002
29043	21.252	1.7273	0.1	-4.5366e-002
29044	21.344	1.6364	0.1	-4.9255e-002
29045	21.252	1.9091	0.1	-4.3645e-002
29046	21.344	1.8182	0.1	-4.8686e-002
29047	21.252	2.0909	0.1	-3.9843e-002
29048	21.344	2.	0.1	-4.506e-002
29049	21.252	2.2727	0.1	-3.4847e-002
29050	21.344	2.1818	0.1	-3.9255e-002
29051	21.252	2.4545	0.1	-2.9757e-002
29052	21.344	2.3636	0.1	-3.2753e-002
29053	21.252	2.6364	0.1	-2.5547e-002
29054	21.344	2.5455	0.1	-2.6921e-002
29055	21.252	2.8182	0.1	-2.2835e-002
29056	21.344	2.7273	0.1	-2.2703e-002
29057	21.252	3.	0.1	-2.1906e-002
29058	21.344	2.9091	0.1	-2.0543e-002
29059	21.252	3.1818	0.1	-2.2834e-002
29060	21.344	3.0909	0.1	-2.0543e-002
29061	21.252	3.3636	0.1	-2.5546e-002
29062	21.344	3.2727	0.1	-2.2703e-002
29063	21.252	3.5455	0.1	-2.9756e-002
29064	21.344	3.4545	0.1	-2.6921e-002
29065	21.252	3.7273	0.1	-3.4846e-002
29066	21.344	3.6364	0.1	-3.2752e-002
29067	21.252	3.9091	0.1	-3.9843e-002
29068	21.344	3.8182	0.1	-3.9255e-002
29069	21.252	4.0909	0.1	-4.3645e-002
29070	21.344	4.	0.1	-4.506e-002
29071	21.252	4.2727	0.1	-4.5365e-002
29072	21.344	4.1818	0.1	-4.8685e-002
29073	21.252	4.4545	0.1	-4.4552e-002
29074	21.344	4.3636	0.1	-4.9255e-002
29075	21.252	4.6364	0.1	-4.1279e-002
29076	21.344	4.5455	0.1	-4.6753e-002
29077	21.252	4.8182	0.1	-3.578e-002
29078	21.344	4.7273	0.1	-4.171e-002
29079	21.252	5.	0.1	-2.8469e-002
29080	21.344	4.9091	0.1	-3.4496e-002
29081	21.252	5.1818	0.1	-1.7512e-002
29082	21.344	5.0909	0.1	-2.596e-002
29083	21.252	5.3636	0.1	-5.9414e-003
29084	21.344	5.2727	0.1	-1.1503e-002
29085	21.252	5.5455	0.1	4.0885e-002
29086	21.344	5.4545	0.1	-1.4802e-003
29087	21.252	5.7273	0.1	8.4607e-002
29088	21.344	5.6364	0.1	8.807e-002
29089	21.344	5.8182	0.1	9.6309e-002
29090	21.252	5.9091	0.1	-5.2461e-003
29091	21.437	0.27273	0.1	8.9244e-002
29092	21.529	0.18182	0.1	0.11066
29093	21.437	9.0909e-002	0.1	-1.1831e-002
29094	21.437	0.45455	0.1	3.8917e-002
29095	21.529	0.36364	0.1	8.7675e-002
29096	21.437	0.63636	0.1	-1.019e-002
29097	21.529	0.54545	0.1	-6.638e-003
29098	21.437	0.81818	0.1	-2.1678e-002
29099	21.529	0.72727	0.1	-1.594e-002
29100	21.437	1.	0.1	-3.3068e-002
29101	21.529	0.90909	0.1	-3.0485e-002
29102	21.437	1.1818	0.1	-4.1138e-002
29103	21.529	1.0909	0.1	-3.9507e-002
29104	21.437	1.3636	0.1	-4.7656e-002
29105	21.529	1.2727	0.1	-4.788e-002
29106	21.437	1.5455	0.1	-5.175e-002
29107	21.529	1.4545	0.1	-5.4412e-002
29108	21.437	1.7273	0.1	-5.2727e-002
29109	21.529	1.6364	0.1	-5.8071e-002
29110	21.437	1.9091	0.1	-5.0136e-002
29111	21.529	1.8182	0.1	-5.7212e-002
29112	21.437	2.0909	0.1	-4.4424e-002
29113	21.529	2.	0.1	-5.1867e-002
29114	21.437	2.2727	0.1	-3.7075e-002
29115	21.529	2.1818	0.1	-4.3298e-002
29116	21.437	2.4545	0.1	-2.9844e-002
29117	21.529	2.3636	0.1	-3.3589e-002
29118	21.437	2.6364	0.1	-2.4054e-002
29119	21.529	2.5455	0.1	-2.5271e-002
29120	21.437	2.8182	0.1	-2.0441e-002
29121	21.529	2.7273	0.1	-1.968e-002
29122	21.437	3.	0.1	-1.9233e-002
29123	21.529	2.9091	0.1	-1.6959e-002
29124	21.437	3.1818	0.1	-2.0441e-002
29125	21.529	3.0909	0.1	-1.6958e-002
29126	21.437	3.3636	0.1	-2.4054e-002
29127	21.529	3.2727	0.1	-1.968e-002
29128	21.437	3.5455	0.1	-2.9843e-002
29129	21.529	3.4545	0.1	-2.527e-002
29130	21.437	3.7273	0.1	-3.7074e-002
29131	21.529	3.6364	0.1	-3.3589e-002
29132	21.437	3.9091	0.1	-4.4424e-002
29133	21.529	3.8182	0.1	-4.3297e-002
29134	21.437	4.0909	0.1	-5.0136e-002
29135	21.529	4.	0.1	-5.1868e-002
29136	21.437	4.2727	0.1	-5.2727e-002
29137	21.529	4.1818	0.1	-5.7212e-002
29138	21.437	4.4545	0.1	-5.1751e-002
29139	21.529	4.3636	0.1	-5.8071e-002
29140	21.437	4.6364	0.1	-4.7656e-002
29141	21.529	4.5455	0.1	-5.4412e-002
29142	21.437	4.8182	0.1	-4.1138e-002
29143	21.529	4.7273	0.1	-4.7879e-002
29144	21.437	5.	0.1	-3.3068e-002
29145	21.529	4.9091	0.1	-3.9507e-002
29146	21.437	5.1818	0.1	-2.1678e-002
29147	21.529	5.0909	0.1	-3.0486e-002
29148	21.437	5.3636	0.1	-1.0189e-002
29149	21.529	5.2727	0.1	-1.594e-002
29150	21.437	5.5455	0.1	3.8917e-002
29151	21.529	5.4545	0.1	-6.635e-003
29152	21.437	5.7273	0.1	8.9243e-002
29153	21.529	5.6364	0.1	8.7674e-002
29154	21.529	5.8182	0.1	0.11066
29155	21.437	5.9091	0.1	-1.183e-002
29156	21.622	0.27273	0.1	8.9857e-002
29157	21.714	0.18182	0.1	0.12047
29158	21.622	9.0909e-002	0.1	-2.1065e-002
29159	21.622	0.45455	0.1	3.4106e-002
29160	21.714	0.36364	0.1	8.2471e-002
29161	21.622	0.63636	0.1	-1.6019e-002
29162	21.714	0.54545	0.1	-1.4241e-002
29163	21.622	0.81818	0.1	-2.6774e-002
29164	21.714	0.72727	0.1	-2.1892e-002
29165	21.622	1.	0.1	-3.8226e-002
29166	21.714	0.90909	0.1	-3.5743e-002
29167	21.622	1.1818	0.1	-4.7128e-002
29168	21.714	1.0909	0.1	-4.4899e-002
29169	21.622	1.3636	0.1	-5.5227e-002
29170	21.714	1.2727	0.1	-5.4644e-002
29171	21.622	1.5455	0.1	-6.1101e-002
29172	21.714	1.4545	0.1	-6.3234e-002
29173	21.622	1.7273	0.1	-6.2736e-002
29174	21.714	1.6364	0.1	-6.8364e-002
29175	21.622	1.9091	0.1	-5.8959e-002
29176	21.714	1.8182	0.1	-6.8385e-002
29177	21.622	2.0909	0.1	-5.063e-002
29178	21.714	2.	0.1	-6.0422e-002
29179	21.622	2.2727	0.1	-3.9643e-002
29180	21.714	2.1818	0.1	-4.6561e-002
29181	21.622	2.4545	0.1	-2.8882e-002
29182	21.714	2.3636	0.1	-3.2742e-002
29183	21.622	2.6364	0.1	-2.087e-002
29184	21.714	2.5455	0.1	-2.1602e-002
29185	21.622	2.8182	0.1	-1.6284e-002
29186	21.714	2.7273	0.1	-1.4372e-002
29187	21.622	3.	0.1	-1.4818e-002
29188	21.714	2.9091	0.1	-1.1219e-002
29189	21.622	3.1818	0.1	-1.6283e-002
29190	21.714	3.0909	0.1	-1.1218e-002
29191	21.622	3.3636	0.1	-2.087e-002
29192	21.714	3.2727	0.1	-1.4372e-002
29193	21.622	3.5455	0.1	-2.8883e-002
29194	21.714	3.4545	0.1	-2.1602e-002
29195	21.622	3.7273	0.1	-3.9642e-002
29196	21.714	3.6364	0.1	-3.2743e-002
29197	21.622	3.9091	0.1	-5.0629e-002
29198	21.714	3.8182	0.1	-4.656e-002
29199	21.622	4.0909	0.1	-5.8959e-002
29200	21.714	4.	0.1	-6.0422e-002
29201	21.622	4.2727	0.1	-6.2736e-002
29202	21.714	4.1818	0.1	-6.8385e-002
29203	21.622	4.4545	0.1	-6.1101e-002
29204	21.714	4.3636	0.1	-6.8363e-002
29205	21.622	4.6364	0.1	-5.5227e-002
29206	21.714	4.5455	0.1	-6.3234e-002
29207	21.622	4.8182	0.1	-4.7127e-002
29208	21.714	4.7273	0.1	-5.4643e-002
29209	21.622	5.	0.1	-3.8227e-002
29210	21.714	4.9091	0.1	-4.4899e-002
29211	21.622	5.1818	0.1	-2.6774e-002
29212	21.714	5.0909	0.1	-3.5742e-002
29213	21.622	5.3636	0.1	-1.6017e-002
29214	21.714	5.2727	0.1	-2.1892e-002
29215	21.622	5.5455	0.1	3.4107e-002
29216	21.714	5.4545	0.1	-1.4238e-002
29217	21.622	5.7273	0.1	8.9855e-002
29218	21.714	5.6364	0.1	8.2469e-002
29219	21.714	5.8182	0.1	0.12047
29220	21.622	5.9091	0.1	-2.1067e-002
29221	21.806	0.27273	0.1	8.3312e-002
29222	21.899	0.18182	0.1	0.11933
29223	21.806	9.0909e-002	0.1	-3.3861e-002
29224	21.806	0.45455	0.1	2.4838e-002
29225	21.899	0.36364	0.1	6.9277e-002
29226	21.806	0.63636	0.1	-2.4303e-002
29227	21.899	0.54545	0.1	-2.6197e-002
29228	21.806	0.81818	0.1	-3.3284e-002
29229	21.899	0.72727	0.1	-3.0945e-002
29230	21.806	1.	0.1	-4.4037e-002
29231	21.899	0.90909	0.1	-4.2902e-002
29232	21.806	1.1818	0.1	-5.3554e-002
29233	21.899	1.0909	0.1	-5.1296e-002
29234	21.806	1.3636	0.1	-6.3433e-002
29235	21.899	1.2727	0.1	-6.1857e-002
29236	21.806	1.5455	0.1	-7.0988e-002
29237	21.899	1.4545	0.1	-7.4441e-002
29238	21.806	1.7273	0.1	-7.4248e-002
29239	21.899	1.6364	0.1	-8.6735e-002
29240	21.806	1.9091	0.1	-6.9842e-002
29241	21.899	1.8182	0.1	-8.4937e-002
29242	21.806	2.0909	0.1	-5.6139e-002
29243	21.899	2.	0.1	-7.3778e-002
29244	21.806	2.2727	0.1	-3.935e-002
29245	21.899	2.1818	0.1	-5.5972e-002
29246	21.806	2.4545	0.1	-2.5233e-002
29247	21.899	2.3636	0.1	-3.1059e-002
29248	21.806	2.6364	0.1	-1.5095e-002
29249	21.899	2.5455	0.1	-1.3446e-002
29250	21.806	2.8182	0.1	-9.5249e-003
29251	21.899	2.7273	0.1	-5.7229e-003
29252	21.806	3.	0.1	-7.9312e-003
29253	21.899	2.9091	0.1	-2.6164e-003
29254	21.806	3.1818	0.1	-9.5255e-003
29255	21.899	3.0909	0.1	-2.6164e-003
29256	21.806	3.3636	0.1	-1.5096e-002
29257	21.899	3.2727	0.1	-5.7228e-003
29258	21.806	3.5455	0.1	-2.5233e-002
29259	21.899	3.4545	0.1	-1.3446e-002
29260	21.806	3.7273	0.1	-3.9351e-002
29261	21.899	3.6364	0.1	-3.1059e-002
29262	21.806	3.9091	0.1	-5.6139e-002
29263	21.899	3.8182	0.1	-5.5973e-002
29264	21.806	4.0909	0.1	-6.9841e-002
29265	21.899	4.	0.1	-7.3778e-002
29266	21.806	4.2727	0.1	-7.4247e-002
29267	21.899	4.1818	0.1	-8.4936e-002
29268	21.806	4.4545	0.1	-7.0988e-002
29269	21.899	4.3636	0.1	-8.6735e-002
29270	21.806	4.6364	0.1	-6.3433e-002
29271	21.899	4.5455	0.1	-7.444e-002
29272	21.806	4.8182	0.1	-5.3553e-002
29273	21.899	4.7273	0.1	-6.1857e-002
29274	21.806	5.	0.1	-4.4036e-002
29275	21.899	4.9091	0.1	-5.1295e-002
29276	21.806	5.1818	0.1	-3.3283e-002
29277	21.899	5.0909	0.1	-4.2901e-002
29278	21.806	5.3636	0.1	-2.4302e-002
29279	21.899	5.2727	0.1	-3.0945e-002
29280	21.806	5.5455	0.1	2.4838e-002
29281	21.899	5.4545	0.1	-2.6196e-002
29282	21.806	5.7273	0.1	8.331e-002
29283	21.899	5.6364	0.1	6.9274e-002
29284	21.899	5.8182	0.1	0.11933
29285	21.806	5.9091	0.1	-3.3859e-002
29286	21.991	0.27273	0.1	6.4192e-002
29287	22.084	0.18182	0.1	9.864e-002
29288	21.991	9.0909e-002	0.1	-5.2356e-002
29289	21.991	0.45455	0.1	7.7268e-003
29290	22.084	0.36364	0.1	4.4835e-002
29291	21.991	0.63636	0.1	-3.7686e-002
29292	22.084	0.54545	0.1	-4.42e-002
29293	21.991	0.81818	0.1	-4.3544e-002
29294	22.084	0.72727	0.1	-4.4677e-002
29295	21.991	1.	0.1	-5.2296e-002
29296	22.084	0.90909	0.1	-5.2824e-002
29297	21.991	1.1818	0.1	-6.1184e-002
29298	22.084	1.0909	0.1	-5.8467e-002
29299	21.991	1.3636	0.1	-7.3986e-002
29300	22.084	1.2727	0.1	-6.9954e-002
29301	21.991	1.5455	0.1	-9.0894e-002
29302	22.084	1.4545	0.1	-8.5026e-002
29303	21.991	1.7273	0.1	-9.7771e-002
29304	22.084	1.6364	0.1	-8.7646e-002
29305	21.991	1.9091	0.1	-8.8861e-002
29306	22.084	1.8182	0.1	-0.10771
29307	21.991	2.0909	0.1	-7.3236e-002
29308	22.084	2.	0.1	-9.038e-002
29309	21.991	2.2727	0.1	-4.7123e-002
29310	22.084	2.1818	0.1	-4.058e-002
29311	21.991	2.4545	0.1	-1.8888e-002
29312	22.084	2.3636	0.1	-1.9837e-002
29313	21.991	2.6364	0.1	-4.1378e-003
29314	22.084	2.5455	0.1	-1.7707e-003
29315	21.991	2.8182	0.1	6.8375e-004
29316	22.084	2.7273	0.1	9.0386e-003
29317	21.991	3.	0.1	2.0214e-003
29318	22.084	2.9091	0.1	1.0086e-002
29319	21.991	3.1818	0.1	6.8449e-004
29320	22.084	3.0909	0.1	1.0088e-002
29321	21.991	3.3636	0.1	-4.1365e-003
29322	22.084	3.2727	0.1	9.0385e-003
29323	21.991	3.5455	0.1	-1.8887e-002
29324	22.084	3.4545	0.1	-1.7692e-003
29325	21.991	3.7273	0.1	-4.7123e-002
29326	22.084	3.6364	0.1	-1.9837e-002
29327	21.991	3.9091	0.1	-7.3236e-002
29328	22.084	3.8182	0.1	-4.058e-002
29329	21.991	4.0909	0.1	-8.8861e-002
29330	22.084	4.	0.1	-9.038e-002
29331	21.991	4.2727	0.1	-9.7771e-002
29332	22.084	4.1818	0.1	-0.10771
29333	21.991	4.4545	0.1	-9.0894e-002
29334	22.084	4.3636	0.1	-8.7646e-002
29335	21.991	4.6364	0.1	-7.3985e-002
29336	22.084	4.5455	0.1	-8.5025e-002
29337	21.991	4.8182	0.1	-6.1183e-002
29338	22.084	4.7273	0.1	-6.9954e-002
29339	21.991	5.	0.1	-5.2295e-002
29340	22.084	4.9091	0.1	-5.8466e-002
29341	21.991	5.1818	0.1	-4.3543e-002
29342	22.084	5.0909	0.1	-5.2822e-002
29343	21.991	5.3636	0.1	-3.7686e-002
29344	22.084	5.2727	0.1	-4.4676e-002
29345	21.991	5.5455	0.1	7.7254e-003
29346	22.084	5.4545	0.1	-4.4199e-002
29347	21.991	5.7273	0.1	6.4188e-002
29348	22.084	5.6364	0.1	4.4833e-002
29349	22.084	5.8182	0.1	9.8636e-002
29350	21.991	5.9091	0.1	-5.2357e-002
29351	22.176	0.27273	0.1	2.833e-002
29352	22.268	0.18182	0.1	4.1808e-002
29353	22.176	9.0909e-002	0.1	-7.6081e-002
29354	22.176	0.45455	0.1	-1.8649e-002
29355	22.268	0.36364	0.1	-1.3735e-004
29356	22.176	0.63636	0.1	-5.6823e-002
29357	22.268	0.54545	0.1	-7.6435e-002
29358	22.176	0.81818	0.1	-5.7758e-002
29359	22.268	0.72727	0.1	-7.1838e-002
29360	22.176	1.	0.1	-6.2007e-002
29361	22.268	0.90909	0.1	-7.5117e-002
29362	22.176	1.1818	0.1	-6.9691e-002
29363	22.268	1.0909	0.1	-7.7922e-002
29364	22.176	1.3636	0.1	-8.2826e-002
29365	22.268	1.2727	0.1	-8.3054e-002
29366	22.176	1.5455	0.1	-8.2925e-002
29367	22.268	1.4545	0.1	-9.1164e-002
29368	22.176	1.7273	0.1	-9.8151e-002
29369	22.268	1.6364	0.1	-0.18841
29370	22.176	1.9091	0.1	-0.10927
29371	22.268	1.8182	0.1	-0.14627
29372	22.176	2.0909	0.1	-5.7105e-002
29373	22.268	2.	0.1	-0.13139
29374	22.176	2.2727	0.1	-1.2258e-002
29375	22.268	2.1818	0.1	-0.13921
29376	22.176	2.4545	0.1	-2.0917e-003
29377	22.268	2.3636	0.1	-2.4049e-003
29378	22.176	2.6364	0.1	1.1119e-002
29379	22.268	2.5455	0.1	2.9688e-002
29380	22.176	2.8182	0.1	1.7382e-002
29381	22.268	2.7273	0.1	2.9276e-002
29382	22.176	3.	0.1	1.6813e-002
29383	22.268	2.9091	0.1	2.7541e-002
29384	22.176	3.1818	0.1	1.7383e-002
29385	22.268	3.0909	0.1	2.7543e-002
29386	22.176	3.3636	0.1	1.1119e-002
29387	22.268	3.2727	0.1	2.9276e-002
29388	22.176	3.5455	0.1	-2.0916e-003
29389	22.268	3.4545	0.1	2.9688e-002
29390	22.176	3.7273	0.1	-1.2259e-002
29391	22.268	3.6364	0.1	-2.4053e-003
29392	22.176	3.9091	0.1	-5.7105e-002
29393	22.268	3.8182	0.1	-0.13921
29394	22.176	4.0909	0.1	-0.10927
29395	22.268	4.	0.1	-0.13139
29396	22.176	4.2727	0.1	-9.8152e-002
29397	22.268	4.1818	0.1	-0.14627
29398	22.176	4.4545	0.1	-8.2925e-002
29399	22.268	4.3636	0.1	-0.18841
29400	22.176	4.6364	0.1	-8.2826e-002
29401	22.268	4.5455	0.1	-9.1163e-002
29402	22.176	4.8182	0.1	-6.9691e-002
29403	22.268	4.7273	0.1	-8.3055e-002
29404	22.176	5.	0.1	-6.2005e-002
29405	22.268	4.9091	0.1	-7.7921e-002
29406	22.176	5.1818	0.1	-5.7757e-002
29407	22.268	5.0909	0.1	-7.5115e-002
29408	22.176	5.3636	0.1	-5.6822e-002
29409	22.268	5.2727	0.1	-7.1837e-002
29410	22.176	5.5455	0.1	-1.8649e-002
29411	22.268	5.4545	0.1	-7.6435e-002
29412	22.176	5.7273	0.1	2.8327e-002
29413	22.268	5.6364	0.1	-1.4069e-004
29414	22.268	5.8182	0.1	4.1808e-002
29415	22.176	5.9091	0.1	-7.6079e-002
29416	22.361	0.27273	0.1	-4.2023e-002
29417	22.453	0.18182	0.1	-4.8851e-002
29418	22.361	9.0909e-002	0.1	-0.11824
29419	22.361	0.45455	0.1	-7.0019e-002
29420	22.453	0.36364	0.1	-5.5237e-002
29421	22.361	0.63636	0.1	-9.793e-002
29422	22.453	0.54545	0.1	-0.11125
29423	22.361	0.81818	0.1	-9.4156e-002
29424	22.453	0.72727	0.1	-0.10029
29425	22.361	1.	0.1	-9.5554e-002
29426	22.453	0.90909	0.1	-9.9342e-002
29427	22.361	1.1818	0.1	-9.5562e-002
29428	22.453	1.0909	0.1	-9.0469e-002
29429	22.361	1.3636	0.1	-9.5116e-002
29430	22.453	1.2727	0.1	-9.6016e-002
29431	22.361	1.5455	0.1	-0.19883
29432	22.453	1.4545	0.1	-0.14052
29433	22.361	1.7273	0.1	-0.23744
29434	22.453	1.6364	0.1	5.5864e-002
29435	22.361	1.9091	0.1	-0.16872
29436	22.453	1.8182	0.1	-0.14266
29437	22.361	2.0909	0.1	-0.21253
29438	22.453	2.	0.1	-6.3898e-002
29439	22.361	2.2727	0.1	-0.12759
29440	22.453	2.1818	0.1	0.16638
29441	22.361	2.4545	0.1	3.0288e-002
29442	22.453	2.3636	0.1	1.7086e-003
29443	22.361	2.6364	0.1	4.6921e-002
29444	22.453	2.5455	0.1	8.4206e-002
29445	22.361	2.8182	0.1	3.7399e-002
29446	22.453	2.7273	0.1	6.4838e-002
29447	22.361	3.	0.1	3.594e-002
29448	22.453	2.9091	0.1	5.4467e-002
29449	22.361	3.1818	0.1	3.7399e-002
29450	22.453	3.0909	0.1	5.4467e-002
29451	22.361	3.3636	0.1	4.6921e-002
29452	22.453	3.2727	0.1	6.4838e-002
29453	22.361	3.5455	0.1	3.0287e-002
29454	22.453	3.4545	0.1	8.4206e-002
29455	22.361	3.7273	0.1	-0.12759
29456	22.453	3.6364	0.1	1.7096e-003
29457	22.361	3.9091	0.1	-0.21252
29458	22.453	3.8182	0.1	0.16638
29459	22.361	4.0909	0.1	-0.16872
29460	22.453	4.	0.1	-6.3897e-002
29461	22.361	4.2727	0.1	-0.23744
29462	22.453	4.1818	0.1	-0.14266
29463	22.361	4.4545	0.1	-0.19883
29464	22.453	4.3636	0.1	5.5864e-002
29465	22.361	4.6364	0.1	-9.5116e-002
29466	22.453	4.5455	0.1	-0.14052
29467	22.361	4.8182	0.1	-9.5561e-002
29468	22.453	4.7273	0.1	-9.6016e-002
29469	22.361	5.	0.1	-9.5553e-002
29470	22.453	4.9091	0.1	-9.0468e-002
29471	22.361	5.1818	0.1	-9.4154e-002
29472	22.453	5.0909	0.1	-9.9341e-002
29473	22.361	5.3636	0.1	-9.7931e-002
29474	22.453	5.2727	0.1	-0.10028
29475	22.361	5.5455	0.1	-7.0022e-002
29476	22.453	5.4545	0.1	-0.11125
29477	22.361	5.7273	0.1	-4.2024e-002
29478	22.453	5.6364	0.1	-5.524e-002
29479	22.453	5.8182	0.1	-4.8851e-002
29480	22.361	5.9091	0.1	-0.11824
29481	22.546	0.27273	0.1	-0.11041
29482	22.638	0.18182	0.1	-0.26303
29483	22.546	9.0909e-002	0.1	-0.14039
29484	22.546	0.45455	0.1	-0.10757
29485	22.638	0.36364	0.1	-0.20892
29486	22.546	0.63636	0.1	-0.12045
29487	22.638	0.54545	0.1	-0.23761
29488	22.546	0.81818	0.1	-0.11159
29489	22.638	0.72727	0.1	-0.2313
29490	22.546	1.	0.1	-0.10097
29491	22.638	0.90909	0.1	-0.2346
29492	22.546	1.1818	0.1	-9.8781e-002
29493	22.638	1.0909	0.1	-0.24163
29494	22.546	1.3636	0.1	-0.14972
29495	22.638	1.2727	0.1	-0.24893
29496	22.546	1.5455	0.1	0.10505
29497	22.638	1.4545	0.1	-0.32002
29498	22.546	1.7273	0.1	0.15031
29499	22.638	1.6364	0.1	-0.37029
29500	22.546	1.9091	0.1	-3.9211e-002
29501	22.638	1.8182	0.1	-1.2067
29502	22.546	2.0909	0.1	0.31664
29503	22.638	2.	0.1	-0.93745
29504	22.546	2.2727	0.1	0.3008
29505	22.638	2.1818	0.1	-0.5787
29506	22.546	2.4545	0.1	5.6038e-002
29507	22.638	2.3636	0.1	0.24515
29508	22.546	2.6364	0.1	9.9434e-002
29509	22.638	2.5455	0.1	0.14985
29510	22.546	2.8182	0.1	7.8579e-002
29511	22.638	2.7273	0.1	0.12082
29512	22.546	3.	0.1	6.9679e-002
29513	22.638	2.9091	0.1	7.3448e-002
29514	22.546	3.1818	0.1	7.8579e-002
29515	22.638	3.0909	0.1	7.3448e-002
29516	22.546	3.3636	0.1	9.9435e-002
29517	22.638	3.2727	0.1	0.12082
29518	22.546	3.5455	0.1	5.6039e-002
29519	22.638	3.4545	0.1	0.14984
29520	22.546	3.7273	0.1	0.3008
29521	22.638	3.6364	0.1	0.24515
29522	22.546	3.9091	0.1	0.31664
29523	22.638	3.8182	0.1	-0.5787
29524	22.546	4.0909	0.1	-3.9211e-002
29525	22.638	4.	0.1	-0.93745
29526	22.546	4.2727	0.1	0.15031
29527	22.638	4.1818	0.1	-1.2067
29528	22.546	4.4545	0.1	0.10505
29529	22.638	4.3636	0.1	-0.37029
29530	22.546	4.6364	0.1	-0.14972
29531	22.638	4.5455	0.1	-0.32002
29532	22.546	4.8182	0.1	-9.878e-002
29533	22.638	4.7273	0.1	-0.24893
29534	22.546	5.	0.1	-0.10097
29535	22.638	4.9091	0.1	-0.24163
29536	22.546	5.1818	0.1	-0.11159
29537	22.638	5.0909	0.1	-0.2346
29538	22.546	5.3636	0.1	-0.12045
29539	22.638	5.2727	0.1	-0.2313
29540	22.546	5.5455	0.1	-0.10757
29541	22.638	5.4545	0.1	-0.23761
29542	22.546	5.7273	0.1	-0.11041
29543	22.638	5.6364	0.1	-0.20893
29544	22.638	5.8182	0.1	-0.26303
29545	22.546	5.9091	0.1	-0.14039
29546	22.73	0.27273	0.1	-0.3773
29547	22.823	0.18182	0.1	-0.26471
29548	22.73	9.0909e-002	0.1	-0.34147
29549	22.73	0.45455	0.1	-0.34132
29550	22.823	0.36364	0.1	-0.20106
29551	22.73	0.63636	0.1	-0.35062
29552	22.823	0.54545	0.1	-0.1903
29553	22.73	0.81818	0.1	-0.35754
29554	22.823	0.72727	0.1	-0.17945
29555	22.73	1.	0.1	-0.3805
29556	22.823	0.90909	0.1	-0.1891
29557	22.73	1.1818	0.1	-0.40146
29558	22.823	1.0909	0.1	-0.15453
29559	22.73	1.3636	0.1	-0.43934
29560	22.823	1.2727	0.1	-0.33637
29561	22.73	1.5455	0.1	-0.8146
29562	22.823	1.4545	0.1	0.29595
29563	22.73	1.7273	0.1	-1.7451
29564	22.823	1.6364	0.1	-2.2604
29565	22.73	1.9091	0.1	-2.0729
29566	22.823	1.8182	0.1	0.86589
29567	22.73	2.0909	0.1	-1.8459
29568	22.823	2.	0.1	13.744
29569	22.73	2.2727	0.1	-0.62986
29570	22.823	2.1818	0.1	-1.499
29571	22.73	2.4545	0.1	0.33594
29572	22.823	2.3636	0.1	1.4867
29573	22.73	2.6364	0.1	0.16544
29574	22.823	2.5455	0.1	0.11756
29575	22.73	2.8182	0.1	0.11167
29576	22.823	2.7273	0.1	0.25551
29577	22.73	3.	0.1	7.3936e-002
29578	22.823	2.9091	0.1	0.12185
29579	22.73	3.1818	0.1	0.11166
29580	22.823	3.0909	0.1	0.12185
29581	22.73	3.3636	0.1	0.16544
29582	22.823	3.2727	0.1	0.25551
29583	22.73	3.5455	0.1	0.33594
29584	22.823	3.4545	0.1	0.11756
29585	22.73	3.7273	0.1	-0.62986
29586	22.823	3.6364	0.1	1.4867
29587	22.73	3.9091	0.1	-1.8459
29588	22.823	3.8182	0.1	-1.499
29589	22.73	4.0909	0.1	-2.0729
29590	22.823	4.	0.1	13.744
29591	22.73	4.2727	0.1	-1.7451
29592	22.823	4.1818	0.1	0.86589
29593	22.73	4.4545	0.1	-0.8146
29594	22.823	4.3636	0.1	-2.2604
29595	22.73	4.6364	0.1	-0.43934
29596	22.823	4.5455	0.1	0.29595
29597	22.73	4.8182	0.1	-0.40146
29598	22.823	4.7273	0.1	-0.33637
29599	22.73	5.	0.1	-0.3805
29600	22.823	4.9091	0.1	-0.15453
29601	22.73	5.1818	0.1	-0.35754
29602	22.823	5.0909	0.1	-0.1891
29603	22.73	5.3636	0.1	-0.35062
29604	22.823	5.2727	0.1	-0.17945
29605	22.73	5.5455	0.1	-0.34132
29606	22.823	5.4545	0.1	-0.1903
29607	22.73	5.7273	0.1	-0.37731
29608	22.823	5.6364	0.1	-0.20107
29609	22.823	5.8182	0.1	-0.26471
29610	22.73	5.9091	0.1	-0.34147
29611	22.915	0.27273	0.1	3.9967e-002
29612	23.008	0.18182	0.1	-0.2194
29613	22.915	9.0909e-002	0.1	7.9598e-002
29614	22.915	0.45455	0.1	2.5782e-002
29615	23.008	0.36364	0.1	-0.13562
29616	22.915	0.63636	0.1	4.2909e-002
29617	23.008	0.54545	0.1	-0.1152
29618	22.915	0.81818	0.1	4.7103e-002
29619	23.008	0.72727	0.1	-0.11893
29620	22.915	1.	0.1	9.565e-002
29621	23.008	0.90909	0.1	-0.16223
29622	22.915	1.1818	0.1	-2.4532e-002
29623	23.008	1.0909	0.1	-2.5315e-002
29624	22.915	1.3636	0.1	0.46317
29625	23.008	1.2727	0.1	-0.54515
29626	22.915	1.5455	0.1	-1.0964
29627	23.008	1.4545	0.1	1.5098
29628	22.915	1.7273	0.1	6.0188e-002
29629	23.008	1.6364	0.1	-5.4446
29630	22.915	1.9091	0.1	17.234
29631	23.008	1.8182	0.1	23.318
29632	22.915	2.0909	0.1	14.43
29633	23.008	2.	0.1	4.2564
29634	22.915	2.2727	0.1	0.63035
29635	23.008	2.1818	0.1	-9.3544
29636	22.915	2.4545	0.1	1.2465
29637	23.008	2.3636	0.1	2.0008
29638	22.915	2.6364	0.1	0.20232
29639	23.008	2.5455	0.1	0.15129
29640	22.915	2.8182	0.1	0.26346
29641	23.008	2.7273	0.1	0.28202
29642	22.915	3.	0.1	0.16814
29643	23.008	2.9091	0.1	0.16417
29644	22.915	3.1818	0.1	0.26345
29645	23.008	3.0909	0.1	0.16417
29646	22.915	3.3636	0.1	0.20232
29647	23.008	3.2727	0.1	0.28202
29648	22.915	3.5455	0.1	1.2465
29649	23.008	3.4545	0.1	0.15129
29650	22.915	3.7273	0.1	0.63035
29651	23.008	3.6364	0.1	2.0008
29652	22.915	3.9091	0.1	14.43
29653	23.008	3.8182	0.1	-9.3544
29654	22.915	4.0909	0.1	17.234
29655	23.008	4.	0.1	4.2564
29656	22.915	4.2727	0.1	6.019e-002
29657	23.008	4.1818	0.1	23.318
29658	22.915	4.4545	0.1	-1.0964
29659	23.008	4.3636	0.1	-5.4446
29660	22.915	4.6364	0.1	0.46317
29661	23.008	4.5455	0.1	1.5098
29662	22.915	4.8182	0.1	-2.453e-002
29663	23.008	4.7273	0.1	-0.54515
29664	22.915	5.	0.1	9.5651e-002
29665	23.008	4.9091	0.1	-2.5316e-002
29666	22.915	5.1818	0.1	4.7103e-002
29667	23.008	5.0909	0.1	-0.16223
29668	22.915	5.3636	0.1	4.2911e-002
29669	23.008	5.2727	0.1	-0.11893
29670	22.915	5.5455	0.1	2.5783e-002
29671	23.008	5.4545	0.1	-0.1152
29672	22.915	5.7273	0.1	3.9967e-002
29673	23.008	5.6364	0.1	-0.13562
29674	23.008	5.8182	0.1	-0.2194
29675	22.915	5.9091	0.1	7.9602e-002
29676	23.542	4.	0.1	18.833
29677	23.358	4.	0.1	124.
29678	23.725	4.	0.1	1.494
29679	23.908	4.	0.1	-0.33406
29680	23.725	2.	0.1	1.494
29681	23.908	2.	0.1	-0.33406
29682	23.542	2.	0.1	18.833
29683	23.358	2.	0.1	124.
29684	23.1	3.7273	0.1	-7.6968
29685	23.1	3.9091	0.1	-4.62
29686	23.1	3.5455	0.1	0.91494
29687	23.1	3.3636	0.1	0.23842
29688	23.1	3.1818	0.1	0.18702
29689	23.1	3.	0.1	0.15944
29690	23.1	2.8182	0.1	0.18701
29691	23.1	2.6364	0.1	0.23842
29692	23.1	2.4545	0.1	0.91494
29693	23.1	2.2727	0.1	-7.6968
29694	23.1	2.0909	0.1	-4.62
29695	23.267	5.7273	0.1	7.8655e-002
29696	23.267	5.9091	0.1	0.64767
29697	23.267	5.8182	5.e-002	1.0478e-005
29698	23.267	5.5455	0.1	-5.2539e-002
29699	23.267	5.6364	5.e-002	9.0873e-006
29700	23.267	5.3636	0.1	-7.7714e-002
29701	23.267	5.4545	5.e-002	7.8315e-006
29702	23.267	5.1818	0.1	-9.7289e-002
29703	23.267	5.2727	5.e-002	7.9514e-006
29704	23.267	5.	0.1	-0.1156
29705	23.267	5.0909	5.e-002	8.9161e-006
29706	23.267	4.8182	0.1	-7.9869e-002
29707	23.267	4.9091	5.e-002	8.6244e-006
29708	23.267	4.6364	0.1	-0.15236
29709	23.267	4.7273	5.e-002	7.9728e-006
29710	23.267	4.4545	0.1	3.5374
29711	23.267	4.5455	5.e-002	8.4765e-006
29712	23.267	4.2727	0.1	1.402
29713	23.267	4.3636	5.e-002	1.3847e-005
29714	23.267	4.0909	0.1	147.95
29715	23.267	4.1818	5.e-002	6.6439e-006
29716	23.183	4.	0.1	82.999
29717	23.267	4.	5.e-002	5.2644e-005
29718	23.1	4.0909	0.1	24.676
29719	23.1	4.	5.e-002	-8.1724e-006
29720	23.1	4.2727	0.1	-0.19889
29721	23.1	4.1818	5.e-002	2.1422e-006
29722	23.1	4.4545	0.1	-4.9183
29723	23.1	4.3636	5.e-002	5.1927e-006
29724	23.1	4.6364	0.1	-2.3739
29725	23.1	4.5455	5.e-002	5.0054e-006
29726	23.1	4.8182	0.1	-2.3928
29727	23.1	4.7273	5.e-002	5.1653e-006
29728	23.1	5.	0.1	-1.9615
29729	23.1	4.9091	5.e-002	4.7805e-006
29730	23.1	5.1818	0.1	-1.8266
29731	23.1	5.0909	5.e-002	4.525e-006
29732	23.1	5.3636	0.1	-1.6804
29733	23.1	5.2727	5.e-002	4.6348e-006
29734	23.1	5.5455	0.1	-1.5984
29735	23.1	5.4545	5.e-002	4.5794e-006
29736	23.1	5.7273	0.1	-1.4925
29737	23.1	5.6364	5.e-002	5.4404e-006
29738	23.1	5.9091	0.1	-1.0864
29739	23.1	5.8182	5.e-002	4.8536e-006
29740	23.267	0.27273	0.1	7.8656e-002
29741	23.267	9.0909e-002	0.1	0.64767
29742	23.267	0.18182	5.e-002	-8.5533e-006
29743	23.267	0.45455	0.1	-5.2537e-002
29744	23.267	0.36364	5.e-002	1.1329e-005
29745	23.267	0.63636	0.1	-7.7711e-002
29746	23.267	0.54545	5.e-002	8.5353e-006
29747	23.267	0.81818	0.1	-9.7287e-002
29748	23.267	0.72727	5.e-002	9.2605e-006
29749	23.267	1.	0.1	-0.1156
29750	23.267	0.90909	5.e-002	8.571e-006
29751	23.267	1.1818	0.1	-7.9866e-002
29752	23.267	1.0909	5.e-002	8.842e-006
29753	23.267	1.3636	0.1	-0.15236
29754	23.267	1.2727	5.e-002	9.7056e-006
29755	23.267	1.5455	0.1	3.5374
29756	23.267	1.4545	5.e-002	8.8352e-006
29757	23.267	1.7273	0.1	1.402
29758	23.267	1.6364	5.e-002	2.4048e-005
29759	23.267	1.9091	0.1	147.95
29760	23.267	1.8182	5.e-002	1.3477e-005
29761	23.183	2.	0.1	82.999
29762	23.267	2.	5.e-002	1.7523e-004
29763	23.1	1.9091	0.1	24.676
29764	23.1	2.	5.e-002	3.3966e-007
29765	23.1	1.7273	0.1	-0.19889
29766	23.1	1.8182	5.e-002	-3.939e-006
29767	23.1	1.5455	0.1	-4.9183
29768	23.1	1.6364	5.e-002	5.9008e-006
29769	23.1	1.3636	0.1	-2.3739
29770	23.1	1.4545	5.e-002	5.5262e-006
29771	23.1	1.1818	0.1	-2.3928
29772	23.1	1.2727	5.e-002	5.4229e-006
29773	23.1	1.	0.1	-1.9615
29774	23.1	1.0909	5.e-002	5.8383e-006
29775	23.1	0.81818	0.1	-1.8266
29776	23.1	0.90909	5.e-002	5.4456e-006
29777	23.1	0.63636	0.1	-1.6804
29778	23.1	0.72727	5.e-002	5.5842e-006
29779	23.1	0.45455	0.1	-1.5984
29780	23.1	0.54545	5.e-002	5.4737e-006
29781	23.1	0.27273	0.1	-1.4925
29782	23.1	0.36364	5.e-002	8.3367e-006
29783	23.1	9.0909e-002	0.1	-1.0864
29784	23.1	0.18182	5.e-002	2.4428e-006
29785	23.358	6.	0.1	-4.2192e-003
29786	23.267	6.	5.e-002	2.5616e-006
29787	23.542	6.	0.1	-0.30405
29788	23.45	6.	5.e-002	-3.2501e-006
29789	23.725	6.	0.1	-9.6407e-002
29790	23.633	6.	5.e-002	8.4577e-006
29791	23.908	6.	0.1	-0.19411
29792	23.817	6.	5.e-002	6.2541e-006
29793	24.	5.9091	0.1	-1.9104
29794	24.	6.	5.e-002	2.953e-005
29795	24.	5.7273	0.1	-1.5582
29796	24.	5.8182	5.e-002	9.5104e-006
29797	24.	5.5455	0.1	-1.5294
29798	24.	5.6364	5.e-002	8.2829e-006
29799	24.	5.3636	0.1	-1.5549
29800	24.	5.4545	5.e-002	8.5603e-006
29801	24.	5.1818	0.1	-1.5569
29802	24.	5.2727	5.e-002	9.0912e-006
29803	24.	5.	0.1	-1.5695
29804	24.	5.0909	5.e-002	8.165e-006
29805	24.	4.8182	0.1	-1.5885
29806	24.	4.9091	5.e-002	8.881e-006
29807	24.	4.6364	0.1	-1.6335
29808	24.	4.7273	5.e-002	8.7996e-006
29809	24.	4.4545	0.1	-1.6574
29810	24.	4.5455	5.e-002	8.3705e-006
29811	24.	4.2727	0.1	-1.7079
29812	24.	4.3636	5.e-002	8.7604e-006
29813	24.	4.0909	0.1	-2.143
29814	24.	4.1818	5.e-002	8.1833e-006
29815	24.	3.9091	0.1	-2.8855
29816	24.	4.	5.e-002	5.0258e-006
29817	24.	3.7273	0.1	-3.5012
29818	24.	3.8182	5.e-002	6.0832e-006
29819	24.	3.5455	0.1	-3.8055
29820	24.	3.6364	5.e-002	7.0273e-006
29821	24.	3.3636	0.1	-2.6616
29822	24.	3.4545	5.e-002	5.2122e-006
29823	24.	3.1818	0.1	6.8846
29824	24.	3.2727	5.e-002	1.494e-006
29825	24.	3.	0.1	13.575
29826	24.	3.0909	5.e-002	-2.3549e-005
29827	24.	2.8182	0.1	6.8846
29828	24.	2.9091	5.e-002	-2.9381e-005
29829	24.	2.6364	0.1	-2.6616
29830	24.	2.7273	5.e-002	-3.084e-006
29831	24.	2.4545	0.1	-3.8055
29832	24.	2.5455	5.e-002	2.8525e-006
29833	24.	2.2727	0.1	-3.5012
29834	24.	2.3636	5.e-002	4.8214e-006
29835	24.	2.0909	0.1	-2.8855
29836	24.	2.1818	5.e-002	6.1045e-006
29837	24.	1.9091	0.1	-2.143
29838	24.	2.	5.e-002	3.6012e-006
29839	24.	1.7273	0.1	-1.7079
29840	24.	1.8182	5.e-002	2.1607e-006
29841	24.	1.5455	0.1	-1.6574
29842	24.	1.6364	5.e-002	3.8594e-006
29843	24.	1.3636	0.1	-1.6335
29844	24.	1.4545	5.e-002	4.1835e-006
29845	24.	1.1818	0.1	-1.5885
29846	24.	1.2727	5.e-002	4.0348e-006
29847	24.	1.	0.1	-1.5695
29848	24.	1.0909	5.e-002	3.6859e-006
29849	24.	0.81818	0.1	-1.5569
29850	24.	0.90909	5.e-002	3.8167e-006
29851	24.	0.63636	0.1	-1.5549
29852	24.	0.72727	5.e-002	5.2702e-006
29853	24.	0.45455	0.1	-1.5294
29854	24.	0.54545	5.e-002	5.0726e-006
29855	24.	0.27273	0.1	-1.5582
29856	24.	0.36364	5.e-002	2.4042e-006
29857	24.	9.0909e-002	0.1	-1.9104
29858	24.	0.18182	5.e-002	-1.8082e-006
29859	2.3842e-015	0.27273	0.1	1763.4
29860	7.9472e-016	9.0909e-002	0.1	379.27
29861	1.6109e-015	0.18182	5.e-002	-1.2247e-004
29862	3.9736e-015	0.45455	0.1	2565.5
29863	3.2219e-015	0.36364	5.e-002	-2.0317e-004
29864	5.563e-015	0.63636	0.1	2978.2
29865	4.8328e-015	0.54545	5.e-002	-9.0622e-005
29866	7.1525e-015	0.81818	0.1	3236.2
29867	6.4438e-015	0.72727	5.e-002	-1.3226e-004
29868	8.7419e-015	1.	0.1	3414.1
29869	8.0547e-015	0.90909	5.e-002	-1.2816e-004
29870	1.0331e-014	1.1818	0.1	3543.4
29871	9.6657e-015	1.0909	5.e-002	-1.3062e-004
29872	1.1921e-014	1.3636	0.1	3640.3
29873	1.1277e-014	1.2727	5.e-002	-6.5141e-005
29874	1.351e-014	1.5455	0.1	3714.5
29875	1.2888e-014	1.4545	5.e-002	-1.2051e-004
29876	1.51e-014	1.7273	0.1	3771.8
29877	1.4498e-014	1.6364	5.e-002	-6.0556e-005
29878	1.6689e-014	1.9091	0.1	3816.2
29879	1.6109e-014	1.8182	5.e-002	-2.258e-007
29880	1.8279e-014	2.0909	0.1	3850.5
29881	1.772e-014	2.	5.e-002	-1.2282e-006
29882	1.9868e-014	2.2727	0.1	3876.5
29883	1.9331e-014	2.1818	5.e-002	2.0612e-007
29884	2.1457e-014	2.4545	0.1	3895.5
29885	2.0942e-014	2.3636	5.e-002	2.3911e-007
29886	2.3047e-014	2.6364	0.1	3908.5
29887	2.2553e-014	2.5455	5.e-002	2.143e-007
29888	2.4636e-014	2.8182	0.1	3916.
29889	2.4164e-014	2.7273	5.e-002	1.3741e-007
29890	2.6226e-014	3.	0.1	3918.4
29891	2.5775e-014	2.9091	5.e-002	4.4158e-008
29892	2.7815e-014	3.1818	0.1	3916.
29893	2.7386e-014	3.0909	5.e-002	-2.4316e-008
29894	2.9405e-014	3.3636	0.1	3908.5
29895	2.8997e-014	3.2727	5.e-002	-7.9312e-008
29896	3.0994e-014	3.5455	0.1	3895.5
29897	3.0608e-014	3.4545	5.e-002	-4.8293e-008
29898	3.2583e-014	3.7273	0.1	3876.5
29899	3.2219e-014	3.6364	5.e-002	6.1395e-005
29900	3.4173e-014	3.9091	0.1	3850.5
29901	3.383e-014	3.8182	5.e-002	2.9888e-007
29902	3.5762e-014	4.0909	0.1	3816.2
29903	3.5441e-014	4.	5.e-002	6.2347e-005
29904	3.7352e-014	4.2727	0.1	3771.8
29905	3.7052e-014	4.1818	5.e-002	6.488e-005
29906	3.8941e-014	4.4545	0.1	3714.5
29907	3.8663e-014	4.3636	5.e-002	1.9834e-006
29908	4.0531e-014	4.6364	0.1	3640.3
29909	4.0274e-014	4.5455	5.e-002	8.7308e-006
29910	4.212e-014	4.8182	0.1	3543.4
29911	4.1885e-014	4.7273	5.e-002	6.7418e-005
29912	4.371e-014	5.	0.1	3414.1
29913	4.3495e-014	4.9091	5.e-002	7.5066e-005
29914	4.5299e-014	5.1818	0.1	3236.2
29915	4.5106e-014	5.0909	5.e-002	8.1099e-005
29916	4.6888e-014	5.3636	0.1	2978.2
29917	4.6717e-014	5.2727	5.e-002	9.2957e-005
29918	4.8478e-014	5.5455	0.1	2565.5
29919	4.8328e-014	5.4545	5.e-002	1.7108e-004
29920	5.0067e-014	5.7273	0.1	1763.4
29921	4.9939e-014	5.6364	5.e-002	2.5156e-004
29922	5.1657e-014	5.9091	0.1	379.27
29923	5.155e-014	5.8182	5.e-002	1.5306e-004
29924	23.908	0.	0.1	-0.19412
29925	24.	0.	5.e-002	2.7314e-005
29926	23.725	0.	0.1	-9.6409e-002
29927	23.817	0.	5.e-002	2.831e-006
29928	23.542	0.	0.1	-0.30405
29929	23.633	0.	5.e-002	1.3702e-005
29930	23.358	0.	0.1	-4.2172e-003
29931	23.45	0.	5.e-002	-1.7702e-006
29932	23.267	0.	5.e-002	1.2894e-005
29933	23.008	-1.9333e-030	0.1	1.0105
29934	23.1	-1.9411e-030	5.e-002	1.346e-005
29935	22.823	-1.9178e-030	0.1	2.4605e-002
29936	22.915	0.	5.e-002	3.9342e-006
29937	22.638	-1.9023e-030	0.1	0.25065
29938	22.73	0.	5.e-002	1.0163e-005
29939	22.453	-1.8867e-030	0.1	0.4666
29940	22.546	0.	5.e-002	6.7417e-006
29941	22.268	-1.8712e-030	0.1	0.55394
29942	22.361	0.	5.e-002	5.7348e-006
29943	22.084	-1.8557e-030	0.1	0.59986
29944	22.176	0.	5.e-002	8.4255e-006
29945	21.899	-1.8402e-030	0.1	0.60872
29946	21.991	0.	5.e-002	8.4435e-006
29947	21.714	-1.8246e-030	0.1	0.59579
29948	21.806	0.	5.e-002	7.0782e-006
29949	21.529	-1.8091e-030	0.1	0.56889
29950	21.622	0.	5.e-002	6.6505e-006
29951	21.344	-1.7936e-030	0.1	0.53442
29952	21.437	0.	5.e-002	6.4588e-006
29953	21.16	-1.778e-030	0.1	0.49664
29954	21.252	0.	5.e-002	5.9781e-006
29955	20.975	-1.7625e-030	0.1	0.45835
29956	21.067	0.	5.e-002	5.1429e-006
29957	20.79	-1.747e-030	0.1	0.42129
29958	20.882	0.	5.e-002	7.465e-006
29959	20.605	-1.7315e-030	0.1	0.38644
29960	20.698	0.	5.e-002	6.7084e-006
29961	20.42	-1.7159e-030	0.1	0.35428
29962	20.513	0.	5.e-002	7.4514e-006
29963	20.236	-1.7004e-030	0.1	0.32495
29964	20.328	0.	5.e-002	4.7152e-006
29965	20.051	-1.6849e-030	0.1	0.29841
29966	20.143	0.	5.e-002	6.0832e-006
29967	19.866	-1.6693e-030	0.1	0.27451
29968	19.958	0.	5.e-002	4.8696e-006
29969	19.681	-1.6538e-030	0.1	0.25303
29970	19.774	0.	5.e-002	6.5634e-006
29971	19.496	-1.6383e-030	0.1	0.23374
29972	19.589	0.	5.e-002	4.4103e-006
29973	19.312	-1.6228e-030	0.1	0.21641
29974	19.404	0.	5.e-002	5.1863e-006
29975	19.127	-1.6072e-030	0.1	0.20082
29976	19.219	0.	5.e-002	5.6362e-006
29977	18.942	-1.5917e-030	0.1	0.18678
29978	19.034	0.	5.e-002	4.0169e-006
29979	18.757	-1.5762e-030	0.1	0.1741
29980	18.85	0.	5.e-002	4.0744e-006
29981	18.572	-1.5606e-030	0.1	0.16262
29982	18.665	0.	5.e-002	7.3516e-006
29983	18.388	-1.5451e-030	0.1	0.1522
29984	18.48	0.	5.e-002	3.5762e-006
29985	18.203	-1.5296e-030	0.1	0.14272
29986	18.295	0.	5.e-002	6.5994e-006
29987	18.018	-1.5141e-030	0.1	0.13408
29988	18.11	0.	5.e-002	4.2608e-006
29989	17.833	-1.4985e-030	0.1	0.12616
29990	17.926	0.	5.e-002	-2.668e-006
29991	17.648	-1.483e-030	0.1	0.1189
29992	17.741	0.	5.e-002	1.2722e-005
29993	17.464	-1.4675e-030	0.1	0.11221
29994	17.556	0.	5.e-002	3.1713e-006
29995	17.279	-1.4519e-030	0.1	0.10604
29996	17.371	0.	5.e-002	5.3048e-006
29997	17.094	-1.4364e-030	0.1	0.10033
29998	17.186	0.	5.e-002	3.8743e-006
29999	16.909	-1.4209e-030	0.1	9.5023e-002
30000	17.002	0.	5.e-002	3.1588e-006
30001	16.724	-1.4054e-030	0.1	9.0076e-002
30002	16.817	0.	5.e-002	5.2448e-006
30003	16.54	-1.3898e-030	0.1	8.5448e-002
30004	16.632	0.	5.e-002	3.2781e-006
30005	16.355	-1.3743e-030	0.1	8.1103e-002
30006	16.447	0.	5.e-002	3.8145e-006
30007	16.17	-1.3588e-030	0.1	7.7005e-002
30008	16.262	0.	5.e-002	5.0662e-006
30009	15.985	-1.3432e-030	0.1	7.3122e-002
30010	16.078	0.	5.e-002	3.8594e-006
30011	15.8	-1.3277e-030	0.1	6.943e-002
30012	15.893	0.	5.e-002	2.5033e-006
30013	15.616	-1.3122e-030	0.1	6.5899e-002
30014	15.708	0.	5.e-002	3.6359e-006
30015	15.431	-1.2967e-030	0.1	6.2503e-002
30016	15.523	0.	5.e-002	2.6163e-006
30017	15.246	-1.2811e-030	0.1	5.9218e-002
30018	15.338	0.	5.e-002	3.159e-006
30019	15.061	-1.2656e-030	0.1	5.6022e-002
30020	15.154	0.	5.e-002	3.9339e-006
30021	14.876	-1.2501e-030	0.1	5.2894e-002
30022	14.969	0.	5.e-002	3.2135e-006
30023	14.692	-1.2345e-030	0.1	4.9811e-002
30024	14.784	0.	5.e-002	2.6225e-006
30025	14.507	-1.219e-030	0.1	4.6754e-002
30026	14.599	0.	5.e-002	3.3975e-006
30027	14.322	-1.2035e-030	0.1	4.3701e-002
30028	14.414	0.	5.e-002	3.9296e-006
30029	14.137	-1.1879e-030	0.1	4.0632e-002
30030	14.23	0.	5.e-002	2.9206e-006
30031	13.952	-1.1724e-030	0.1	3.7528e-002
30032	14.045	0.	5.e-002	3.8111e-006
30033	13.768	-1.1569e-030	0.1	3.4367e-002
30034	13.86	0.	5.e-002	2.6226e-006
30035	13.583	-1.1414e-030	0.1	3.113e-002
30036	13.675	0.	5.e-002	3.0428e-006
30037	13.398	-1.1258e-030	0.1	2.7794e-002
30038	13.49	0.	5.e-002	2.7391e-006
30039	13.213	-1.1103e-030	0.1	2.4339e-002
30040	13.306	0.	5.e-002	2.861e-006
30041	13.028	-1.0948e-030	0.1	2.0741e-002
30042	13.121	0.	5.e-002	3.2186e-006
30043	12.844	-1.0792e-030	0.1	1.6975e-002
30044	12.936	0.	5.e-002	2.8593e-006
30045	12.659	-1.0637e-030	0.1	1.302e-002
30046	12.751	0.	5.e-002	2.5034e-006
30047	12.474	-1.0482e-030	0.1	8.8487e-003
30048	12.566	0.	5.e-002	3.0994e-006
30049	12.289	-1.0327e-030	0.1	4.4332e-003
30050	12.382	0.	5.e-002	1.6093e-006
30051	12.104	-1.0171e-030	0.1	-2.528e-004
30052	12.197	0.	5.e-002	2.4438e-006
30053	11.92	-1.0016e-030	0.1	-5.2427e-003
30054	12.012	0.	5.e-002	3.5763e-006
30055	11.735	-9.8608e-031	0.1	-1.057e-002
30056	11.827	0.	5.e-002	-2.2054e-006
30057	11.55	-9.7055e-031	0.1	-1.6265e-002
30058	11.642	0.	5.e-002	6.0797e-006
30059	11.365	-9.5502e-031	0.1	-2.2365e-002
30060	11.458	0.	5.e-002	1.071e-006
30061	11.18	-9.3949e-031	0.1	-2.8912e-002
30062	11.273	0.	5.e-002	2.1481e-006
30063	10.996	-9.2396e-031	0.1	-3.5947e-002
30064	11.088	0.	5.e-002	2.566e-006
30065	10.811	-9.0843e-031	0.1	-4.3518e-002
30066	10.903	0.	5.e-002	1.7881e-006
30067	10.626	-8.929e-031	0.1	-5.1671e-002
30068	10.718	0.	5.e-002	1.6092e-006
30069	10.441	-8.7737e-031	0.1	-6.046e-002
30070	10.534	0.	5.e-002	1.9071e-006
30071	10.256	-8.6185e-031	0.1	-6.9942e-002
30072	10.349	0.	5.e-002	1.7878e-006
30073	10.072	-8.4632e-031	0.1	-8.0179e-002
30074	10.164	0.	5.e-002	1.7212e-006
30075	9.8868	-8.3079e-031	0.1	-9.1236e-002
30076	9.9792	0.	5.e-002	1.3703e-006
30077	9.702	-8.1526e-031	0.1	-0.10318
30078	9.7944	0.	5.e-002	1.5397e-006
30079	9.5172	-7.9973e-031	0.1	-0.1161
30080	9.6096	0.	5.e-002	1.5382e-006
30081	9.3324	-7.842e-031	0.1	-0.13007
30082	9.4248	0.	5.e-002	1.5009e-006
30083	9.1476	-7.6867e-031	0.1	-0.14518
30084	9.24	0.	5.e-002	1.3097e-006
30085	8.9628	-7.5314e-031	0.1	-0.16153
30086	9.0552	0.	5.e-002	1.3842e-006
30087	8.778	-7.3762e-031	0.1	-0.17923
30088	8.8704	0.	5.e-002	1.4876e-006
30089	8.5932	-7.2209e-031	0.1	-0.19838
30090	8.6856	0.	5.e-002	1.2083e-006
30091	8.4084	-7.0656e-031	0.1	-0.21911
30092	8.5008	0.	5.e-002	1.1284e-006
30093	8.2236	-6.9103e-031	0.1	-0.24155
30094	8.316	0.	5.e-002	1.3282e-006
30095	8.0388	-6.755e-031	0.1	-0.26584
30096	8.1312	0.	5.e-002	1.1578e-006
30097	7.854	-6.5997e-031	0.1	-0.29214
30098	7.9464	0.	5.e-002	1.005e-006
30099	7.6692	-6.4444e-031	0.1	-0.32061
30100	7.7616	0.	5.e-002	1.0027e-006
30101	7.4844	-6.2891e-031	0.1	-0.35142
30102	7.5768	0.	5.e-002	1.0064e-006
30103	7.2996	-6.1339e-031	0.1	-0.38475
30104	7.392	0.	5.e-002	8.7635e-007
30105	7.1148	-5.9786e-031	0.1	-0.42068
30106	7.2072	0.	5.e-002	8.939e-007
30107	6.93	-5.8233e-031	0.1	-0.3436
30108	7.0224	0.	5.e-002	7.7329e-007
30109	6.7452	-5.668e-031	0.1	7.2385e-003
30110	6.8376	0.	5.e-002	7.3366e-007
30111	6.5604	-5.5127e-031	0.1	0.3641
30112	6.6528	0.	5.e-002	6.1811e-007
30113	6.3756	-5.3574e-031	0.1	0.72414
30114	6.468	0.	5.e-002	6.0642e-007
30115	6.1908	-5.2021e-031	0.1	1.0843
30116	6.2832	0.	5.e-002	6.5963e-007
30117	6.006	-5.0468e-031	0.1	1.441
30118	6.0984	0.	5.e-002	2.4457e-007
30119	5.8212	-4.8916e-031	0.1	1.7894
30120	5.9136	0.	5.e-002	3.85e-007
30121	5.6364	-4.7363e-031	0.1	2.1241
30122	5.7288	0.	5.e-002	7.019e-008
30123	5.4516	-4.581e-031	0.1	2.4381
30124	5.544	0.	5.e-002	-1.2726e-006
30125	5.2668	-4.4257e-031	0.1	2.7235
30126	5.3592	0.	5.e-002	-1.7969e-006
30127	5.082	-4.2704e-031	0.1	2.9703
30128	5.1744	0.	5.e-002	-2.0606e-005
30129	4.8972	-4.1151e-031	0.1	3.1671
30130	4.9896	0.	5.e-002	-1.0594e-004
30131	4.7124	-3.9598e-031	0.1	3.3001
30132	4.8048	0.	5.e-002	6.2671e-007
30133	4.5276	-3.8045e-031	0.1	3.3531
30134	4.62	0.	5.e-002	-2.3983e-006
30135	4.3428	-3.6493e-031	0.1	3.3073
30136	4.4352	0.	5.e-002	-1.0823e-006
30137	4.158	-3.494e-031	0.1	3.1407
30138	4.2504	0.	5.e-002	-1.5748e-006
30139	3.9732	-3.3387e-031	0.1	2.8281
30140	4.0656	0.	5.e-002	-5.4863e-007
30141	3.7884	-3.1834e-031	0.1	2.3408
30142	3.8808	0.	5.e-002	-8.2453e-007
30143	3.6036	-3.0281e-031	0.1	1.6482
30144	3.696	0.	5.e-002	-3.2643e-007
30145	3.4188	-2.8728e-031	0.1	0.72291
30146	3.5112	0.	5.e-002	-5.3707e-007
30147	3.234	-2.7175e-031	0.1	-0.43101
30148	3.3264	0.	5.e-002	-4.5487e-007
30149	3.0492	-2.5622e-031	0.1	-1.6221
30150	3.1416	0.	5.e-002	-1.9708e-007
30151	2.8644	-2.407e-031	0.1	-2.3517
30152	2.9568	0.	5.e-002	-3.4793e-007
30153	2.6796	-2.2517e-031	0.1	-2.7469
30154	2.772	0.	5.e-002	-3.1185e-007
30155	2.4948	-2.0964e-031	0.1	-3.0649
30156	2.5872	0.	5.e-002	-2.8316e-007
30157	2.31	-1.9411e-031	0.1	-3.3754
30158	2.4024	0.	5.e-002	-2.6001e-007
30159	2.1252	-1.7858e-031	0.1	-3.7016
30160	2.2176	0.	5.e-002	-2.4113e-007
30161	1.9404	-1.6305e-031	0.1	-4.0557
30162	2.0328	0.	5.e-002	-4.9178e-014
30163	1.7556	-1.4752e-031	0.1	-4.4501
30164	1.848	0.	5.e-002	-2.1287e-007
30165	1.5708	-1.3199e-031	0.1	-4.8923
30166	1.6632	0.	5.e-002	-2.0236e-007
30167	1.386	-1.1647e-031	0.1	-5.4143
30168	1.4784	0.	5.e-002	-1.937e-007
30169	1.2012	-1.0094e-031	0.1	-5.9831
30170	1.2936	0.	5.e-002	-1.8647e-007
30171	1.0164	-8.5408e-032	0.1	-6.8009
30172	1.1088	0.	5.e-002	-1.8003e-007
30173	0.8316	-6.9879e-032	0.1	-7.4202
30174	0.924	0.	5.e-002	-1.7391e-007
30175	0.6468	-5.4351e-032	0.1	-8.9018
30176	0.7392	0.	5.e-002	-2.4493e-007
30177	0.462	-3.8822e-032	0.1	-13.416
30178	0.5544	0.	5.e-002	-1.5284e-007
30179	0.2772	-2.3293e-032	0.1	18.88
30180	0.3696	0.	5.e-002	-1.4159e-007
30181	9.24e-002	-7.7644e-033	0.1	-164.37
30182	0.1848	0.	5.e-002	2.2888e-005
30183	0.	0.	5.e-002	-1.9448e-004
30184	9.24e-002	6.	0.1	-164.37
30185	5.2451e-014	6.	5.e-002	2.6811e-004
30186	0.2772	6.	0.1	18.88
30187	0.1848	6.	5.e-002	-3.4347e-005
30188	0.462	6.	0.1	-13.416
30189	0.3696	6.	5.e-002	9.4712e-007
30190	0.6468	6.	0.1	-8.9018
30191	0.5544	6.	5.e-002	1.5284e-007
30192	0.8316	6.	0.1	-7.4202
30193	0.7392	6.	5.e-002	9.5226e-007
30194	1.0164	6.	0.1	-6.8009
30195	0.924	6.	5.e-002	2.6086e-007
30196	1.2012	6.	0.1	-5.9831
30197	1.1088	6.	5.e-002	1.8003e-007
30198	1.386	6.	0.1	-5.4143
30199	1.2936	6.	5.e-002	1.8647e-007
30200	1.5708	6.	0.1	-4.8923
30201	1.4784	6.	5.e-002	2.9054e-007
30202	1.7556	6.	0.1	-4.4501
30203	1.6632	6.	5.e-002	2.0236e-007
30204	1.9404	6.	0.1	-4.0557
30205	1.848	6.	5.e-002	2.1287e-007
30206	2.1252	6.	0.1	-3.7016
30207	2.0328	6.	5.e-002	2.2563e-007
30208	2.31	6.	0.1	-3.3754
30209	2.2176	6.	5.e-002	3.617e-007
30210	2.4948	6.	0.1	-3.0649
30211	2.4024	6.	5.e-002	2.6001e-007
30212	2.6796	6.	0.1	-2.7469
30213	2.5872	6.	5.e-002	2.8316e-007
30214	2.8644	6.	0.1	-2.3517
30215	2.772	6.	5.e-002	3.1185e-007
30216	3.0492	6.	0.1	-1.6221
30217	2.9568	6.	5.e-002	3.4793e-007
30218	3.234	6.	0.1	-0.43101
30219	3.1416	6.	5.e-002	3.9416e-007
30220	3.4188	6.	0.1	0.7229
30221	3.3264	6.	5.e-002	7.8387e-007
30222	3.6036	6.	0.1	1.6482
30223	3.5112	6.	5.e-002	5.3707e-007
30224	3.7884	6.	0.1	2.3408
30225	3.696	6.	5.e-002	6.5286e-007
30226	3.9732	6.	0.1	2.8281
30227	3.8808	6.	5.e-002	8.2453e-007
30228	4.158	6.	0.1	3.1407
30229	4.0656	6.	5.e-002	1.0972e-006
30230	4.3428	6.	0.1	3.3073
30231	4.2504	6.	5.e-002	1.5748e-006
30232	4.5276	6.	0.1	3.3531
30233	4.4352	6.	5.e-002	2.5441e-006
30234	4.7124	6.	0.1	3.3001
30235	4.62	6.	5.e-002	5.4491e-006
30236	4.8972	6.	0.1	3.1671
30237	4.8048	6.	5.e-002	1.6549e-005
30238	5.082	6.	0.1	2.9703
30239	4.9896	6.	5.e-002	2.1203e-004
30240	5.2668	6.	0.1	2.7235
30241	5.1744	6.	5.e-002	2.1396e-005
30242	5.4516	6.	0.1	2.4381
30243	5.3592	6.	5.e-002	2.7682e-006
30244	5.6364	6.	0.1	2.1241
30245	5.544	6.	5.e-002	2.2191e-006
30246	5.8212	6.	0.1	1.7894
30247	5.7288	6.	5.e-002	9.3924e-007
30248	6.006	6.	0.1	1.441
30249	5.9136	6.	5.e-002	8.3394e-007
30250	6.1908	6.	0.1	1.0843
30251	6.0984	6.	5.e-002	9.3435e-007
30252	6.3756	6.	0.1	0.72415
30253	6.2832	6.	5.e-002	8.1986e-007
30254	6.5604	6.	0.1	0.36411
30255	6.468	6.	5.e-002	9.1978e-007
30256	6.7452	6.	0.1	7.2426e-003
30257	6.6528	6.	5.e-002	7.1133e-007
30258	6.93	6.	0.1	-0.34359
30259	6.8376	6.	5.e-002	8.7513e-007
30260	7.1148	6.	0.1	-0.42068
30261	7.0224	6.	5.e-002	7.7536e-007
30262	7.2996	6.	0.1	-0.38475
30263	7.2072	6.	5.e-002	7.9774e-007
30264	7.4844	6.	0.1	-0.35142
30265	7.392	6.	5.e-002	8.2374e-007
30266	7.6692	6.	0.1	-0.32061
30267	7.5768	6.	5.e-002	9.8069e-007
30268	7.854	6.	0.1	-0.29214
30269	7.7616	6.	5.e-002	1.1482e-006
30270	8.0388	6.	0.1	-0.26584
30271	7.9464	6.	5.e-002	1.0214e-006
30272	8.2236	6.	0.1	-0.24155
30273	8.1312	6.	5.e-002	1.1731e-006
30274	8.4084	6.	0.1	-0.21911
30275	8.316	6.	5.e-002	1.0805e-006
30276	8.5932	6.	0.1	-0.19838
30277	8.5008	6.	5.e-002	1.1385e-006
30278	8.778	6.	0.1	-0.17923
30279	8.6856	6.	5.e-002	1.2564e-006
30280	8.9628	6.	0.1	-0.16153
30281	8.8704	6.	5.e-002	1.213e-006
30282	9.1476	6.	0.1	-0.14518
30283	9.0552	6.	5.e-002	1.4487e-006
30284	9.3324	6.	0.1	-0.13007
30285	9.24	6.	5.e-002	1.3136e-006
30286	9.5172	6.	0.1	-0.1161
30287	9.4248	6.	5.e-002	1.5033e-006
30288	9.702	6.	0.1	-0.10318
30289	9.6096	6.	5.e-002	1.4213e-006
30290	9.8868	6.	0.1	-9.1235e-002
30291	9.7944	6.	5.e-002	1.67e-006
30292	10.072	6.	0.1	-8.0179e-002
30293	9.9792	6.	5.e-002	1.5506e-006
30294	10.256	6.	0.1	-6.9942e-002
30295	10.164	6.	5.e-002	1.8413e-006
30296	10.441	6.	0.1	-6.046e-002
30297	10.349	6.	5.e-002	1.729e-006
30298	10.626	6.	0.1	-5.167e-002
30299	10.534	6.	5.e-002	1.6744e-006
30300	10.811	6.	0.1	-4.3517e-002
30301	10.718	6.	5.e-002	1.7929e-006
30302	10.996	6.	0.1	-3.5947e-002
30303	10.903	6.	5.e-002	1.8516e-006
30304	11.18	6.	0.1	-2.8911e-002
30305	11.088	6.	5.e-002	2.0862e-006
30306	11.365	6.	0.1	-2.2364e-002
30307	11.273	6.	5.e-002	2.0242e-006
30308	11.55	6.	0.1	-1.6263e-002
30309	11.458	6.	5.e-002	1.9651e-006
30310	11.735	6.	0.1	-1.0569e-002
30311	11.642	6.	5.e-002	1.9074e-006
30312	11.92	6.	0.1	-5.2437e-003
30313	11.827	6.	5.e-002	4.828e-006
30314	12.104	6.	0.1	-2.5378e-004
30315	12.012	6.	5.e-002	2.6822e-006
30316	12.289	6.	0.1	4.4333e-003
30317	12.197	6.	5.e-002	-9.538e-007
30318	12.474	6.	0.1	8.8484e-003
30319	12.382	6.	5.e-002	3.0994e-006
30320	12.659	6.	0.1	1.302e-002
30321	12.566	6.	5.e-002	2.0862e-006
30322	12.844	6.	0.1	1.6975e-002
30323	12.751	6.	5.e-002	2.3233e-006
30324	13.028	6.	0.1	2.074e-002
30325	12.936	6.	5.e-002	3.2783e-006
30326	13.213	6.	0.1	2.4338e-002
30327	13.121	6.	5.e-002	2.265e-006
30328	13.398	6.	0.1	2.7794e-002
30329	13.306	6.	5.e-002	2.9803e-006
30330	13.583	6.	0.1	3.113e-002
30331	13.49	6.	5.e-002	2.7419e-006
30332	13.768	6.	0.1	3.4368e-002
30333	13.675	6.	5.e-002	2.5005e-006
30334	13.952	6.	0.1	3.7528e-002
30335	13.86	6.	5.e-002	3.3379e-006
30336	14.137	6.	0.1	4.0632e-002
30337	14.045	6.	5.e-002	3.0435e-006
30338	14.322	6.	0.1	4.3701e-002
30339	14.23	6.	5.e-002	2.4439e-006
30340	14.507	6.	0.1	4.6753e-002
30341	14.414	6.	5.e-002	3.6914e-006
30342	14.692	6.	0.1	4.9811e-002
30343	14.599	6.	5.e-002	2.742e-006
30344	14.876	6.	0.1	5.2894e-002
30345	14.784	6.	5.e-002	3.6312e-006
30346	15.061	6.	0.1	5.6022e-002
30347	14.969	6.	5.e-002	3.2188e-006
30348	15.246	6.	0.1	5.9217e-002
30349	15.154	6.	5.e-002	3.869e-006
30350	15.431	6.	0.1	6.2502e-002
30351	15.338	6.	5.e-002	3.0996e-006
30352	15.616	6.	0.1	6.5898e-002
30353	15.523	6.	5.e-002	3.6362e-006
30354	15.8	6.	0.1	6.943e-002
30355	15.708	6.	5.e-002	3.815e-006
30356	15.985	6.	0.1	7.3123e-002
30357	15.893	6.	5.e-002	3.3311e-006
30358	16.17	6.	0.1	7.7004e-002
30359	16.078	6.	5.e-002	3.5692e-006
30360	16.355	6.	0.1	8.1102e-002
30361	16.262	6.	5.e-002	4.2919e-006
30362	16.54	6.	0.1	8.5448e-002
30363	16.447	6.	5.e-002	3.9856e-006
30364	16.724	6.	0.1	9.0076e-002
30365	16.632	6.	5.e-002	4.4795e-006
30366	16.909	6.	0.1	9.5022e-002
30367	16.817	6.	5.e-002	4.1131e-006
30368	17.094	6.	0.1	0.10033
30369	17.002	6.	5.e-002	4.302e-006
30370	17.279	6.	0.1	0.10604
30371	17.186	6.	5.e-002	3.4682e-006
30372	17.464	6.	0.1	0.11221
30373	17.371	6.	5.e-002	5.734e-006
30374	17.648	6.	0.1	0.1189
30375	17.556	6.	5.e-002	2.4567e-006
30376	17.833	6.	0.1	0.12616
30377	17.741	6.	5.e-002	1.1623e-005
30378	18.018	6.	0.1	0.13407
30379	17.926	6.	5.e-002	4.4849e-006
30380	18.203	6.	0.1	0.14272
30381	18.11	6.	5.e-002	-2.0265e-006
30382	18.388	6.	0.1	0.1522
30383	18.295	6.	5.e-002	5.4245e-006
30384	18.572	6.	0.1	0.16262
30385	18.48	6.	5.e-002	4.2741e-006
30386	18.757	6.	0.1	0.1741
30387	18.665	6.	5.e-002	5.5447e-006
30388	18.942	6.	0.1	0.18678
30389	18.85	6.	5.e-002	4.4116e-006
30390	19.127	6.	0.1	0.20082
30391	19.034	6.	5.e-002	4.747e-006
30392	19.312	6.	0.1	0.21641
30393	19.219	6.	5.e-002	6.4132e-006
30394	19.496	6.	0.1	0.23374
30395	19.404	6.	5.e-002	4.1738e-006
30396	19.681	6.	0.1	0.25303
30397	19.589	6.	5.e-002	6.173e-006
30398	19.866	6.	0.1	0.27451
30399	19.774	6.	5.e-002	5.5813e-006
30400	20.051	6.	0.1	0.29841
30401	19.958	6.	5.e-002	5.1182e-006
30402	20.236	6.	0.1	0.32495
30403	20.143	6.	5.e-002	5.0403e-006
30404	20.42	6.	0.1	0.35428
30405	20.328	6.	5.e-002	7.6039e-006
30406	20.605	6.	0.1	0.38644
30407	20.513	6.	5.e-002	3.8812e-006
30408	20.79	6.	0.1	0.42129
30409	20.698	6.	5.e-002	6.3262e-006
30410	20.975	6.	0.1	0.45835
30411	20.882	6.	5.e-002	5.0482e-006
30412	21.16	6.	0.1	0.49663
30413	21.067	6.	5.e-002	6.8993e-006
30414	21.344	6.	0.1	0.53442
30415	21.252	6.	5.e-002	5.0985e-006
30416	21.529	6.	0.1	0.56889
30417	21.437	6.	5.e-002	8.0135e-006
30418	21.714	6.	0.1	0.59579
30419	21.622	6.	5.e-002	2.4619e-006
30420	21.899	6.	0.1	0.60872
30421	21.806	6.	5.e-002	7.9886e-006
30422	22.084	6.	0.1	0.59986
30423	21.991	6.	5.e-002	6.3342e-006
30424	22.268	6.	0.1	0.55394
30425	22.176	6.	5.e-002	8.6337e-006
30426	22.453	6.	0.1	0.46661
30427	22.361	6.	5.e-002	6.2812e-006
30428	22.638	6.	0.1	0.25065
30429	22.546	6.	5.e-002	7.7214e-006
30430	22.823	6.	0.1	2.4605e-002
30431	22.73	6.	5.e-002	4.3916e-006
30432	23.008	6.	0.1	1.0105
30433	22.915	6.	5.e-002	8.588e-006
30434	23.1	6.	5.e-002	6.1463e-006
30435	22.823	6.	0.	-2.4606e-002
30436	23.008	6.	0.	-1.0105
30437	22.638	6.	0.	-0.25065
30438	22.453	6.	0.	-0.4666
30439	22.268	6.	0.	-0.55394
30440	22.084	6.	0.	-0.59986
30441	21.899	6.	0.	-0.60872
30442	21.714	6.	0.	-0.59579
30443	21.529	6.	0.	-0.56889
30444	21.344	6.	0.	-0.53442
30445	21.16	6.	0.	-0.49663
30446	20.975	6.	0.	-0.45834
30447	20.79	6.	0.	-0.42129
30448	20.605	6.	0.	-0.38644
30449	20.42	6.	0.	-0.35428
30450	20.236	6.	0.	-0.32495
30451	20.051	6.	0.	-0.29841
30452	19.866	6.	0.	-0.27451
30453	19.681	6.	0.	-0.25302
30454	19.496	6.	0.	-0.23373
30455	19.312	6.	0.	-0.21641
30456	19.127	6.	0.	-0.20082
30457	18.942	6.	0.	-0.18678
30458	18.757	6.	0.	-0.17409
30459	18.572	6.	0.	-0.16262
30460	18.388	6.	0.	-0.1522
30461	18.203	6.	0.	-0.14272
30462	18.018	6.	0.	-0.13407
30463	17.833	6.	0.	-0.12616
30464	17.648	6.	0.	-0.1189
30465	17.464	6.	0.	-0.11221
30466	17.279	6.	0.	-0.10604
30467	17.094	6.	0.	-0.10033
30468	16.909	6.	0.	-9.5022e-002
30469	16.724	6.	0.	-9.0075e-002
30470	16.54	6.	0.	-8.5447e-002
30471	16.355	6.	0.	-8.1101e-002
30472	16.17	6.	0.	-7.7003e-002
30473	15.985	6.	0.	-7.3123e-002
30474	15.8	6.	0.	-6.943e-002
30475	15.616	6.	0.	-6.5898e-002
30476	15.431	6.	0.	-6.2501e-002
30477	15.246	6.	0.	-5.9217e-002
30478	15.061	6.	0.	-5.6021e-002
30479	14.876	6.	0.	-5.2893e-002
30480	14.692	6.	0.	-4.9811e-002
30481	14.507	6.	0.	-4.6753e-002
30482	14.322	6.	0.	-4.37e-002
30483	14.137	6.	0.	-4.0632e-002
30484	13.952	6.	0.	-3.7528e-002
30485	13.768	6.	0.	-3.4368e-002
30486	13.583	6.	0.	-3.113e-002
30487	13.398	6.	0.	-2.7794e-002
30488	13.213	6.	0.	-2.4338e-002
30489	13.028	6.	0.	-2.0739e-002
30490	12.844	6.	0.	-1.6975e-002
30491	12.659	6.	0.	-1.302e-002
30492	12.474	6.	0.	-8.8483e-003
30493	12.289	6.	0.	-4.4332e-003
30494	12.104	6.	0.	2.5425e-004
30495	11.92	6.	0.	5.2442e-003
30496	11.735	6.	0.	1.0569e-002
30497	11.55	6.	0.	1.6263e-002
30498	11.365	6.	0.	2.2364e-002
30499	11.18	6.	0.	2.8911e-002
30500	10.996	6.	0.	3.5947e-002
30501	10.811	6.	0.	4.3517e-002
30502	10.626	6.	0.	5.1671e-002
30503	10.441	6.	0.	6.046e-002
30504	10.256	6.	0.	6.9942e-002
30505	10.072	6.	0.	8.0179e-002
30506	9.8868	6.	0.	9.1236e-002
30507	9.702	6.	0.	0.10318
30508	9.5172	6.	0.	0.1161
30509	9.3324	6.	0.	0.13007
30510	9.1476	6.	0.	0.14518
30511	8.9628	6.	0.	0.16153
30512	8.778	6.	0.	0.17923
30513	8.5932	6.	0.	0.19838
30514	8.4084	6.	0.	0.21911
30515	8.2236	6.	0.	0.24155
30516	8.0388	6.	0.	0.26584
30517	7.854	6.	0.	0.29214
30518	7.6692	6.	0.	0.32061
30519	7.4844	6.	0.	0.35142
30520	7.2996	6.	0.	0.38475
30521	7.1148	6.	0.	0.42068
30522	6.93	6.	0.	0.34359
30523	6.7452	6.	0.	-7.241e-003
30524	6.5604	6.	0.	-0.3641
30525	6.3756	6.	0.	-0.72415
30526	6.1908	6.	0.	-1.0843
30527	6.006	6.	0.	-1.441
30528	5.8212	6.	0.	-1.7894
30529	5.6364	6.	0.	-2.1241
30530	5.4516	6.	0.	-2.4381
30531	5.2668	6.	0.	-2.7235
30532	5.082	6.	0.	-2.9703
30533	4.8972	6.	0.	-3.1671
30534	4.7124	6.	0.	-3.3001
30535	4.5276	6.	0.	-3.3531
30536	4.3428	6.	0.	-3.3073
30537	4.158	6.	0.	-3.1407
30538	3.9732	6.	0.	-2.8281
30539	3.7884	6.	0.	-2.3408
30540	3.6036	6.	0.	-1.6482
30541	3.4188	6.	0.	-0.7229
30542	3.234	6.	0.	0.43101
30543	3.0492	6.	0.	1.6221
30544	2.8644	6.	0.	2.3517
30545	2.6796	6.	0.	2.7469
30546	2.4948	6.	0.	3.0649
30547	2.31	6.	0.	3.3754
30548	2.1252	6.	0.	3.7016
30549	1.9404	6.	0.	4.0557
30550	1.7556	6.	0.	4.4501
30551	1.5708	6.	0.	4.8923
30552	1.386	6.	0.	5.4143
30553	1.2012	6.	0.	5.9831
30554	1.0164	6.	0.	6.8009
30555	0.8316	6.	0.	7.4202
30556	0.6468	6.	0.	8.9018
30557	0.462	6.	0.	13.416
30558	0.2772	6.	0.	-18.88
30559	9.24e-002	6.	0.	164.37
30560	23.1	5.9091	0.	1.0864
30561	5.1657e-014	5.9091	0.	-379.27
30562	0.2772	-2.3293e-032	0.	-18.88
30563	9.24e-002	-7.7644e-033	0.	164.37
30564	0.462	-3.8822e-032	0.	13.416
30565	0.6468	-5.4351e-032	0.	8.9018
30566	0.8316	-6.9879e-032	0.	7.4202
30567	1.0164	-8.5408e-032	0.	6.8009
30568	1.2012	-1.0094e-031	0.	5.9831
30569	1.386	-1.1647e-031	0.	5.4143
30570	1.5708	-1.3199e-031	0.	4.8923
30571	1.7556	-1.4752e-031	0.	4.4501
30572	1.9404	-1.6305e-031	0.	4.0557
30573	2.1252	-1.7858e-031	0.	3.7016
30574	2.31	-1.9411e-031	0.	3.3754
30575	2.4948	-2.0964e-031	0.	3.0649
30576	2.6796	-2.2517e-031	0.	2.7469
30577	2.8644	-2.407e-031	0.	2.3517
30578	3.0492	-2.5622e-031	0.	1.6221
30579	3.234	-2.7175e-031	0.	0.43101
30580	3.4188	-2.8728e-031	0.	-0.72291
30581	3.6036	-3.0281e-031	0.	-1.6482
30582	3.7884	-3.1834e-031	0.	-2.3408
30583	3.9732	-3.3387e-031	0.	-2.8281
30584	4.158	-3.494e-031	0.	-3.1407
30585	4.3428	-3.6493e-031	0.	-3.3073
30586	4.5276	-3.8045e-031	0.	-3.3531
30587	4.7124	-3.9598e-031	0.	-3.3001
30588	4.8972	-4.1151e-031	0.	-3.1671
30589	5.082	-4.2704e-031	0.	-2.9703
30590	5.2668	-4.4257e-031	0.	-2.7235
30591	5.4516	-4.581e-031	0.	-2.4381
30592	5.6364	-4.7363e-031	0.	-2.1241
30593	5.8212	-4.8916e-031	0.	-1.7894
30594	6.006	-5.0468e-031	0.	-1.441
30595	6.1908	-5.2021e-031	0.	-1.0843
30596	6.3756	-5.3574e-031	0.	-0.72414
30597	6.5604	-5.5127e-031	0.	-0.3641
30598	6.7452	-5.668e-031	0.	-7.2371e-003
30599	6.93	-5.8233e-031	0.	0.3436
30600	7.1148	-5.9786e-031	0.	0.42068
30601	7.2996	-6.1339e-031	0.	0.38475
30602	7.4844	-6.2891e-031	0.	0.35142
30603	7.6692	-6.4444e-031	0.	0.32061
30604	7.854	-6.5997e-031	0.	0.29214
30605	8.0388	-6.755e-031	0.	0.26584
30606	8.2236	-6.9103e-031	0.	0.24155
30607	8.4084	-7.0656e-031	0.	0.21911
30608	8.5932	-7.2209e-031	0.	0.19838
30609	8.778	-7.3762e-031	0.	0.17923
30610	8.9628	-7.5314e-031	0.	0.16153
30611	9.1476	-7.6867e-031	0.	0.14518
30612	9.3324	-7.842e-031	0.	0.13007
30613	9.5172	-7.9973e-031	0.	0.1161
30614	9.702	-8.1526e-031	0.	0.10318
30615	9.8868	-8.3079e-031	0.	9.1236e-002
30616	10.072	-8.4632e-031	0.	8.0179e-002
30617	10.256	-8.6185e-031	0.	6.9942e-002
30618	10.441	-8.7737e-031	0.	6.046e-002
30619	10.626	-8.929e-031	0.	5.1671e-002
30620	10.811	-9.0843e-031	0.	4.3518e-002
30621	10.996	-9.2396e-031	0.	3.5948e-002
30622	11.18	-9.3949e-031	0.	2.8912e-002
30623	11.365	-9.5502e-031	0.	2.2365e-002
30624	11.55	-9.7055e-031	0.	1.6264e-002
30625	11.735	-9.8608e-031	0.	1.057e-002
30626	11.92	-1.0016e-030	0.	5.2431e-003
30627	12.104	-1.0171e-030	0.	2.5376e-004
30628	12.289	-1.0327e-030	0.	-4.433e-003
30629	12.474	-1.0482e-030	0.	-8.8487e-003
30630	12.659	-1.0637e-030	0.	-1.302e-002
30631	12.844	-1.0792e-030	0.	-1.6975e-002
30632	13.028	-1.0948e-030	0.	-2.074e-002
30633	13.213	-1.1103e-030	0.	-2.4339e-002
30634	13.398	-1.1258e-030	0.	-2.7795e-002
30635	13.583	-1.1414e-030	0.	-3.113e-002
30636	13.768	-1.1569e-030	0.	-3.4367e-002
30637	13.952	-1.1724e-030	0.	-3.7528e-002
30638	14.137	-1.1879e-030	0.	-4.0632e-002
30639	14.322	-1.2035e-030	0.	-4.37e-002
30640	14.507	-1.219e-030	0.	-4.6753e-002
30641	14.692	-1.2345e-030	0.	-4.9811e-002
30642	14.876	-1.2501e-030	0.	-5.2894e-002
30643	15.061	-1.2656e-030	0.	-5.6021e-002
30644	15.246	-1.2811e-030	0.	-5.9217e-002
30645	15.431	-1.2967e-030	0.	-6.2502e-002
30646	15.616	-1.3122e-030	0.	-6.5899e-002
30647	15.8	-1.3277e-030	0.	-6.9431e-002
30648	15.985	-1.3432e-030	0.	-7.3123e-002
30649	16.17	-1.3588e-030	0.	-7.7004e-002
30650	16.355	-1.3743e-030	0.	-8.1102e-002
30651	16.54	-1.3898e-030	0.	-8.5449e-002
30652	16.724	-1.4054e-030	0.	-9.0076e-002
30653	16.909	-1.4209e-030	0.	-9.5022e-002
30654	17.094	-1.4364e-030	0.	-0.10033
30655	17.279	-1.4519e-030	0.	-0.10604
30656	17.464	-1.4675e-030	0.	-0.11221
30657	17.648	-1.483e-030	0.	-0.1189
30658	17.833	-1.4985e-030	0.	-0.12616
30659	18.018	-1.5141e-030	0.	-0.13408
30660	18.203	-1.5296e-030	0.	-0.14272
30661	18.388	-1.5451e-030	0.	-0.1522
30662	18.572	-1.5606e-030	0.	-0.16262
30663	18.757	-1.5762e-030	0.	-0.1741
30664	18.942	-1.5917e-030	0.	-0.18678
30665	19.127	-1.6072e-030	0.	-0.20082
30666	19.312	-1.6228e-030	0.	-0.21641
30667	19.496	-1.6383e-030	0.	-0.23374
30668	19.681	-1.6538e-030	0.	-0.25303
30669	19.866	-1.6693e-030	0.	-0.27451
30670	20.051	-1.6849e-030	0.	-0.29841
30671	20.236	-1.7004e-030	0.	-0.32495
30672	20.42	-1.7159e-030	0.	-0.35428
30673	20.605	-1.7315e-030	0.	-0.38644
30674	20.79	-1.747e-030	0.	-0.42129
30675	20.975	-1.7625e-030	0.	-0.45835
30676	21.16	-1.778e-030	0.	-0.49663
30677	21.344	-1.7936e-030	0.	-0.53442
30678	21.529	-1.8091e-030	0.	-0.56889
30679	21.714	-1.8246e-030	0.	-0.59579
30680	21.899	-1.8402e-030	0.	-0.60872
30681	22.084	-1.8557e-030	0.	-0.59986
30682	22.268	-1.8712e-030	0.	-0.55393
30683	22.453	-1.8867e-030	0.	-0.4666
30684	22.638	-1.9023e-030	0.	-0.25065
30685	22.823	-1.9178e-030	0.	-2.4602e-002
30686	23.008	-1.9333e-030	0.	-1.0105
30687	23.1	9.0909e-002	0.	1.0864
30688	7.9472e-016	9.0909e-002	0.	-379.27
30689	23.542	0.	0.	0.30405
30690	23.358	0.	0.	4.2276e-003
30691	23.725	0.	0.	9.641e-002
30692	23.908	0.	0.	0.19412
30693	23.267	9.0909e-002	0.	-0.64764
30694	24.	9.0909e-002	0.	1.9104
30695	5.0067e-014	5.7273	0.	-1763.4
30696	4.8478e-014	5.5455	0.	-2565.5
30697	4.6888e-014	5.3636	0.	-2978.2
30698	4.5299e-014	5.1818	0.	-3236.2
30699	4.371e-014	5.	0.	-3414.1
30700	4.212e-014	4.8182	0.	-3543.4
30701	4.0531e-014	4.6364	0.	-3640.3
30702	3.8941e-014	4.4545	0.	-3714.5
30703	3.7352e-014	4.2727	0.	-3771.8
30704	3.5762e-014	4.0909	0.	-3816.2
30705	3.4173e-014	3.9091	0.	-3850.5
30706	3.2583e-014	3.7273	0.	-3876.5
30707	3.0994e-014	3.5455	0.	-3895.5
30708	2.9405e-014	3.3636	0.	-3908.5
30709	2.7815e-014	3.1818	0.	-3916.
30710	2.6226e-014	3.	0.	-3918.4
30711	2.4636e-014	2.8182	0.	-3916.
30712	2.3047e-014	2.6364	0.	-3908.5
30713	2.1457e-014	2.4545	0.	-3895.5
30714	1.9868e-014	2.2727	0.	-3876.5
30715	1.8279e-014	2.0909	0.	-3850.5
30716	1.6689e-014	1.9091	0.	-3816.2
30717	1.51e-014	1.7273	0.	-3771.8
30718	1.351e-014	1.5455	0.	-3714.5
30719	1.1921e-014	1.3636	0.	-3640.3
30720	1.0331e-014	1.1818	0.	-3543.4
30721	8.7419e-015	1.	0.	-3414.1
30722	7.1525e-015	0.81818	0.	-3236.2
30723	5.563e-015	0.63636	0.	-2978.2
30724	3.9736e-015	0.45455	0.	-2565.5
30725	2.3842e-015	0.27273	0.	-1763.4
30726	24.	0.27273	0.	1.5582
30727	24.	0.45455	0.	1.5294
30728	24.	0.63636	0.	1.5549
30729	24.	0.81818	0.	1.5569
30730	24.	1.	0.	1.5695
30731	24.	1.1818	0.	1.5885
30732	24.	1.3636	0.	1.6335
30733	24.	1.5455	0.	1.6574
30734	24.	1.7273	0.	1.7079
30735	24.	1.9091	0.	2.143
30736	24.	2.0909	0.	2.8855
30737	24.	2.2727	0.	3.5012
30738	24.	2.4545	0.	3.8055
30739	24.	2.6364	0.	2.6616
30740	24.	2.8182	0.	-6.8846
30741	24.	3.	0.	-13.575
30742	24.	3.1818	0.	-6.8846
30743	24.	3.3636	0.	2.6616
30744	24.	3.5455	0.	3.8055
30745	24.	3.7273	0.	3.5012
30746	24.	3.9091	0.	2.8855
30747	24.	4.0909	0.	2.143
30748	24.	4.2727	0.	1.7079
30749	24.	4.4545	0.	1.6574
30750	24.	4.6364	0.	1.6335
30751	24.	4.8182	0.	1.5885
30752	24.	5.	0.	1.5695
30753	24.	5.1818	0.	1.5569
30754	24.	5.3636	0.	1.5549
30755	24.	5.5455	0.	1.5294
30756	24.	5.7273	0.	1.5582
30757	24.	5.9091	0.	1.9104
30758	23.908	6.	0.	0.19412
30759	23.725	6.	0.	9.6409e-002
30760	23.542	6.	0.	0.30405
30761	23.358	6.	0.	4.2298e-003
30762	23.267	5.9091	0.	-0.64764
30763	23.1	1.7273	0.	0.19889
30764	23.1	1.9091	0.	-24.676
30765	23.1	1.5455	0.	4.9183
30766	23.1	1.3636	0.	2.3739
30767	23.1	1.1818	0.	2.3928
30768	23.1	1.	0.	1.9615
30769	23.1	0.81818	0.	1.8266
30770	23.1	0.63636	0.	1.6804
30771	23.1	0.45455	0.	1.5984
30772	23.1	0.27273	0.	1.4925
30773	23.183	2.	0.	-82.999
30774	23.267	0.27273	0.	-7.8652e-002
30775	23.267	0.45455	0.	5.2543e-002
30776	23.267	0.63636	0.	7.7715e-002
30777	23.267	0.81818	0.	9.7291e-002
30778	23.267	1.	0.	0.1156
30779	23.267	1.1818	0.	7.9872e-002
30780	23.267	1.3636	0.	0.15236
30781	23.267	1.5455	0.	-3.5374
30782	23.267	1.7273	0.	-1.402
30783	23.267	1.9091	0.	-147.95
30784	23.1	4.2727	0.	0.19889
30785	23.1	4.0909	0.	-24.676
30786	23.1	4.4545	0.	4.9183
30787	23.1	4.6364	0.	2.3739
30788	23.1	4.8182	0.	2.3928
30789	23.1	5.	0.	1.9615
30790	23.1	5.1818	0.	1.8266
30791	23.1	5.3636	0.	1.6804
30792	23.1	5.5455	0.	1.5984
30793	23.1	5.7273	0.	1.4925
30794	23.183	4.	0.	-82.999
30795	23.267	5.7273	0.	-7.8649e-002
30796	23.267	5.5455	0.	5.2544e-002
30797	23.267	5.3636	0.	7.7717e-002
30798	23.267	5.1818	0.	9.7292e-002
30799	23.267	5.	0.	0.1156
30800	23.267	4.8182	0.	7.9873e-002
30801	23.267	4.6364	0.	0.15236
30802	23.267	4.4545	0.	-3.5374
30803	23.267	4.2727	0.	-1.402
30804	23.267	4.0909	0.	-147.95
