Node Numbers,X Locations (inches),Y Locations (inches),Z Locations (inches),Equivalent Elastic Strains (in/in),Equivalent Stress (psi),Max Principal Elastic Strain (in/in),Max Principal Stress (psi),Middle Principal Elastic Strain (in/in),Middle Principal Stress (psi),Min Principal Elastic Strain (in/in),Min Principal Stress (psi),Total Deformation (in)
1,18.194,3.7354,0,0.0003846,3843.3,0.00017809,709.29,0.00010264,142.35,-0.00036696,-3386,1.4542
2,17.957,2.2411,0,0.00041574,4154.5,0.00019956,878.03,0.00010848,193.67,-0.00039325,-3576.1,1.4224
3,18.564,3.6334,0,0.00025528,2551,9.2889e-05,50.946,7.4052e-05,-90.584,-0.00025566,-2567.9,1.5048
4,18.716,5.2714,0,5.8837e-05,587.96,2.5086e-05,61.028,1.5113e-05,-13.902,-5.7676e-05,-560.81,1.5236
5,17.434,2.3704,0,0.00025459,2544.2,0.00010796,302.87,7.0253e-05,19.519,-0.00024792,-2371.1,1.3539
6,18.184,3.0518,0,0.00029246,2922.6,0.00012294,323.28,8.0324e-05,3.112,-0.00028559,-2746.2,1.4536
7,17.01,5.0591,0,0.00014108,1409.8,6.406e-05,220.67,3.6158e-05,11.03,-0.00013596,-1282.2,1.2958
8,17.83,2.9672,0,0.00029365,2934.5,0.00012824,382.38,7.7333e-05,-0.14713,-0.00028527,-2724.6,1.4063
9,18.996,2.1311,0,0.00014428,1441.8,5.123e-05,34.072,4.4563e-05,-16.024,-0.0001439,-1432.1,1.5643
10,19.017,2.5802,0,0.00016235,1622.4,5.6645e-05,-9.8318,4.7401e-05,-79.281,-0.00016376,-1665.8,1.5674
11,19.633,3.195,0,0.00011181,1117.3,4.3528e-05,-6.9865,2.4455e-05,-150.29,-0.00011379,-1189,1.6534
12,16.802,4.4171,0,0.00017922,1791,8.4516e-05,317.65,4.3615e-05,10.332,-0.00017165,-1607.1,1.2711
13,19.276,5.1253,0,8.2288e-05,822.31,3.1119e-05,55.13,2.5434e-05,12.413,-8.1056e-05,-787.71,1.6021
14,19.801,3.814,0,9.5739e-05,956.73,3.7866e-05,-0.19718,2.0394e-05,-131.48,-9.7301e-05,-1015.8,1.6768
15,20.301,2.9973,0,8.649e-05,864.31,3.4374e-05,2.8579,1.8409e-05,-117.09,-8.7807e-05,-915.16,1.7476
16,15.718,4.7543,0,0.00018883,1887,6.9145e-05,83.94,5.8352e-05,2.8434,-0.00018723,-1842.3,1.1346
17,20.899,2.5852,0,6.5272e-05,652.27,2.5037e-05,-4.4752,1.4937e-05,-80.361,-6.6383e-05,-691.37,1.8326
18,20.475,4.7733,0,7.037e-05,703.21,2.5797e-05,10.701,1.9759e-05,-34.667,-7.0668e-05,-714.1,1.7717
19,20.848,1.9181,0,6.5094e-05,650.49,2.4623e-05,0.98824,1.606e-05,-63.35,-6.5916e-05,-679.28,1.8251
20,22.812,4.6901,0,2.6665e-05,266.47,1.2072e-05,39.961,6.73e-06,-0.17878,-2.5761e-05,-244.3,2.1066
21,22.25,4.7331,0,3.7026e-05,370.01,1.3541e-05,15.519,1.1383e-05,-0.69733,-3.6747e-05,-362.33,2.0257
22,21.663,4.7264,0,4.8072e-05,480.39,1.6007e-05,-0.50491,1.5575e-05,-3.7557,-4.8144e-05,-482.51,1.9413
23,21.071,4.7262,0,5.9347e-05,593.06,2.0755e-05,0.14004,1.7591e-05,-23.635,-5.9711e-05,-604.45,1.8565
24,16.226,2.7263,0,0.00019713,1970,7.0681e-05,81.884,6.2989e-05,24.09,-0.00019527,-1916.3,1.1999
25,16.185,1.9033,0,0.00018253,1824,6.5412e-05,71.121,5.7941e-05,14.985,-0.000181,-1780.3,1.1939
26,20.202,1.249,0,7.5121e-05,750.69,2.7109e-05,10.015,2.1721e-05,-30.47,-7.5387e-05,-760.1,1.733
27,1.3145,1.3059,0,0.00054197,5415.9,0.00022555,-224.78,7.1185e-05,-1384.6,-0.00055994,-6126.7,0.0094318
28,22.724,1.3256,0,2.831e-05,282.9,1.2271e-05,35.871,7.5314e-06,0.2597,-2.7526e-05,-263.15,2.0941
29,21.474,1.9593,0,5.1941e-05,519.05,1.8512e-05,0.15551,1.4792e-05,-27.794,-5.2355e-05,-532.31,1.9146
30,1.9806,1.2837,0,0.00054321,5428.4,0.00022538,70.986,0.00010271,-850.77,-0.00055057,-5759.2,0.021479
31,2.65,1.2638,0,0.00053049,5301.2,0.00020613,1.8714,0.0001202,-643.79,-0.00053845,-5592.6,0.038409
32,3.32,1.2526,0,0.00051623,5158.7,0.00019419,10.349,0.00012957,-475.17,-0.00052242,-5373.9,0.06015
33,3.9934,1.2511,0,0.00049974,4994,0.00018298,6.833,0.00013417,-359.86,-0.00050474,-5160.4,0.08674
34,4.6667,1.2669,0,0.00048308,4827.4,0.00017314,4.6705,0.00013615,-273.28,-0.00048705,-4955.7,0.11797
35,5.3333,1.2669,0,0.00046508,4647.6,0.0001636,1.093,0.0001362,-204.73,-0.00046821,-4746,0.15317
36,6,1.2669,0,0.00044692,4466.1,0.00015509,2.3348,0.00013468,-151.02,-0.00044925,-4538.5,0.19254
37,6.6667,1.2669,0,0.00042876,4284.7,0.000147,1.4447,0.00013223,-109.52,-0.00043049,-4337.6,0.2359
38,7.3333,1.2669,0,0.00041039,4101.1,0.00013943,1.2498,0.00012875,-78.985,-0.00041166,-4139.4,0.28308
39,8,1.2669,0,0.00039194,3916.7,0.00013215,0.71777,0.00012464,-55.683,-0.00039285,-3943.9,0.33393
40,8.6667,1.2669,0,0.00037346,3732,0.00012515,0.43588,0.00012006,-37.819,-0.00037408,-3750.6,0.38827
41,9.3333,1.2669,0,0.000355,3547.6,0.00011835,0.12948,0.00011514,-23.976,-0.0003554,-3559.4,0.44592
42,10,1.2669,0,0.00033671,3364.8,0.00011177,0.032644,0.00011002,-13.073,-0.00033693,-3371.3,0.50674
43,10.667,1.2669,0,0.00031853,3183.1,0.00010532,-0.16543,0.00010476,-4.3769,-0.00031861,-3185.4,0.57055
44,11.333,1.2669,0,0.00030057,3003.6,9.9433e-05,2.8753,9.9034e-05,-0.11992,-0.00030052,-3002.2,0.63718
45,12,1.2669,0,0.00028285,2826.5,9.4143e-05,9.5236,9.2856e-05,-0.14439,-0.00028269,-2821.8,0.70649
46,12.667,1.2669,0,0.00026536,2651.8,8.8904e-05,15.741,8.6752e-05,-0.42523,-0.00026509,-2644.1,0.7783
47,13.33,1.261,0,0.00024829,2481.2,8.395e-05,23.8,8.0704e-05,-0.58837,-0.00024789,-2469.5,0.85202
48,13.993,1.2515,0,0.00023155,2313.9,7.9178e-05,31.98,7.4655e-05,-2.005,-0.00023103,-2298.8,0.92802
49,14.661,1.2402,0,0.00021538,2152.4,7.5143e-05,50.729,6.882e-05,3.2201,-0.00021443,-2125,1.0065
50,15.321,1.2127,0,0.00019711,1969.8,7.2993e-05,87.98,5.9514e-05,-13.301,-0.00019565,-1930.5,1.0859
51,20.821,1.2735,0,6.3861e-05,638.16,2.2265e-05,-1.8222,1.8865e-05,-27.367,-6.4319e-05,-652.38,1.821
52,21.452,1.2973,0,5.2122e-05,520.86,1.7752e-05,0.71563,1.6327e-05,-9.9914,-5.2271e-05,-525.42,1.9112
53,22.088,1.3152,0,3.9997e-05,399.7,1.4082e-05,10.293,1.2641e-05,-0.53104,-3.982e-05,-394.71,2.0025
54,14.363,4.742,0,0.00022227,2221.1,7.6769e-05,41.923,7.1385e-05,1.4654,-0.0002215,-2199.2,0.97123
55,13.66,4.7331,0,0.00023942,2392.6,8.1573e-05,30.163,7.7428e-05,-0.98163,-0.00023891,-2377.8,0.88955
56,12.944,4.7434,0,0.00025804,2578.6,8.6901e-05,20.672,8.4088e-05,-0.46405,-0.00025769,-2568.4,0.8088
57,12.224,4.7454,0,0.00027698,2767.9,9.2507e-05,13.029,9.0731e-05,-0.31751,-0.00027676,-2761.5,0.73026
58,11.508,4.7524,0,0.00029597,2957.6,9.8143e-05,5.3125,9.7353e-05,-0.63042,-0.00029589,-2955.3,0.65497
59,10.788,4.7678,0,0.00031532,3151,0.00010421,0.51902,0.00010384,-2.2496,-0.00031535,-3151.9,0.58227
60,10.062,4.7736,0,0.0003351,3348.7,0.00011114,0.16478,0.00010965,-11.067,-0.00033528,-3354.1,0.51232
61,9.3415,4.7682,0,0.00035492,3546.7,0.00011827,0.24695,0.00011521,-22.755,-0.0003553,-3557.9,0.44647
62,8.6275,4.7666,0,0.00037465,3743.9,0.00012551,0.28385,0.00012048,-37.561,-0.00037527,-3762.4,0.3848
63,7.9098,4.7514,0,0.00039457,3942.9,0.00013314,1.0227,0.00012532,-57.691,-0.0003955,-3970.9,0.32672
64,7.1908,4.7523,0,0.00041445,4141.6,0.00014087,-0.66656,0.00012973,-84.341,-0.00041583,-4183.5,0.27256
65,6.47,4.7501,0,0.00043479,4344.9,0.00014953,2.097,0.00013335,-119.45,-0.00043666,-4402.3,0.22258
66,5.7477,4.7554,0,0.00045398,4536.6,0.00015818,4.2355,0.00013588,-163.38,-0.00045645,-4613.9,0.17703
67,5.031,4.7474,0,0.00047275,4724.2,0.00016744,4.246,0.00013673,-226.51,-0.00047611,-4831.1,0.13659
68,4.3177,4.7539,0,0.00049174,4914,0.00017785,1.6077,0.00013546,-316.86,-0.00049633,-5063.9,0.10113
69,3.5884,4.7657,0,0.00051245,5120.9,0.00019253,30.846,0.00013102,-431.35,-0.00051769,-5305.5,0.070085
70,2.836,4.7427,0,0.00052636,5260,0.00019986,-12.866,0.00012647,-564.23,-0.000534,-5526.8,0.043939
71,2.1006,4.7045,0,0.00053856,5381.9,0.00021932,43.44,0.00010711,-799.62,-0.00054644,-5710.2,0.02419
72,1.3424,4.0156,0,0.00054423,5438.6,0.00024413,-222.37,3.5064e-05,-1793.2,-0.00056122,-6273.5,0.01041
73,1.2669,3.3333,0,0.00055289,5525.1,0.00025065,-259.43,2.6271e-05,-1945.3,-0.00057074,-6431,0.0095032
74,1.2644,2.6303,0,0.00054991,5495.3,0.00024945,-271.54,2.4331e-05,-1963,-0.00056803,-6413.7,0.0094625
75,1.2978,1.9601,0,0.00054513,5447.5,0.00024287,-251.61,3.5618e-05,-1808.8,-0.00056321,-6308.2,0.0097294
76,22.729,1.9939,0,2.8611e-05,285.92,1.2754e-05,41.032,7.4175e-06,0.93553,-2.7686e-05,-262.82,2.095
77,22.733,2.6667,0,2.8558e-05,285.38,1.2789e-05,41.836,7.3788e-06,1.1861,-2.7608e-05,-261.69,2.0957
78,22.75,3.3331,0,2.8294e-05,282.75,1.2796e-05,42.913,7.2177e-06,1.0003,-2.7313e-05,-258.45,2.0981
79,22.791,4.0108,0,2.7543e-05,275.24,1.2539e-05,43.242,7.0131e-06,1.7198,-2.6542e-05,-250.4,2.1039
80,16.106,3.11,0,0.00019783,1976.9,7.233e-05,78.53,6.0442e-05,-10.794,-0.00019652,-1941.5,1.185
81,15.927,2.1993,0,0.00020435,2042.1,8.1106e-05,160.42,5.8577e-05,-8.8483,-0.00020125,-1961.1,1.1622
82,22.152,3.3442,0,3.9041e-05,390.14,1.3112e-05,2.5253,1.2728e-05,-0.35971,-3.9003e-05,-389.05,2.012
83,15.187,2.4313,0,0.00020845,2083.1,7.677e-05,89.577,6.3356e-05,-11.209,-0.00020694,-2042.1,1.0717
84,2.5539,2.5223,0,0.00050998,5096.3,0.00022258,6.3184,6.8455e-05,-1151.7,-0.0005195,-5569.4,0.037793
85,13.663,3.5078,0,0.00023818,2380.1,8.0335e-05,22.456,7.7716e-05,2.7768,-0.00023774,-2367.4,0.89216
86,12.877,3.5904,0,0.000261,2608.2,8.866e-05,30.373,8.4624e-05,0.052775,-0.00026047,-2592.8,0.80379
87,12.165,3.6511,0,0.00027804,2778.4,9.2801e-05,11.386,9.1021e-05,-1.9932,-0.00027787,-2773.7,0.72638
88,11.428,3.6601,0,0.00029764,2974.4,9.8489e-05,2.9527,9.804e-05,-0.41772,-0.0002976,-2973.1,0.64936
89,10.717,3.6755,0,0.00031634,3161.2,0.00010493,-0.28888,0.00010346,-11.371,-0.00031654,-3167,0.5781
90,10.018,3.6646,0,0.00033501,3347.8,0.00011179,0.40143,0.00010851,-24.24,-0.00033541,-3359.6,0.51115
91,9.3234,3.6305,0,0.00035365,3534.1,0.00011875,0.0078786,0.00011324,-41.422,-0.00035434,-3554.6,0.44796
92,8.6369,3.6181,0,0.00037205,3717.9,0.00012595,0.50385,0.00011744,-63.429,-0.00037308,-3749,0.38882
93,7.9376,3.6275,0,0.00039056,3902.9,0.0001334,-0.45764,0.00012115,-92.502,-0.00039206,-3948.5,0.33216
94,7.2368,3.6337,0,0.00040905,4087.7,0.00014163,3.2034,0.00012393,-129.84,-0.00041105,-4149.4,0.27922
95,6.5344,3.6288,0,0.00042613,4258.4,0.00014913,-5.2889,0.00012555,-182.45,-0.00042905,-4349.5,0.23024
96,5.8072,3.5989,0,0.00044654,4462.3,0.00016063,11.724,0.00012553,-252.03,-0.00045004,-4576.6,0.18402
97,5.0096,3.5242,0,0.00045785,4575.4,0.00017147,13.32,0.0001167,-398.21,-0.00046301,-4753.9,0.13885
98,4.2767,3.592,0,0.00047855,4782.2,0.00018289,6.9748,0.0001146,-506.13,-0.00048497,-5011.1,0.1024
99,3.6095,3.6392,0,0.00048867,4883.3,0.00019097,-30.257,0.00010556,-672.05,-0.00049744,-5202.7,0.07376
100,2.9818,3.6542,0,0.00049982,4994.8,0.00021326,45.687,8.0977e-05,-948.25,-0.0005077,-5371.3,0.050892
101,2.4895,3.5864,0,0.00053105,5306.8,0.00022969,9.8022,7.5841e-05,-1146.2,-0.00054084,-5779.7,0.035855
102,3.0261,3.0896,0,0.00049822,4978.8,0.00020562,-4.0174,8.9413e-05,-877.13,-0.00050743,-5361.6,0.052747
103,3.6044,3.1025,0,0.00049247,4921.3,0.00019817,-1.9094,9.8384e-05,-751.64,-0.00050098,-5255.1,0.073948
104,18.285,2.2981,0,0.00035929,3590.4,0.00015543,505.75,0.00010106,97.24,-0.00034728,-3271.4,1.4667
105,17.877,3.6214,0,0.00034144,3412,0.00016053,634.21,8.6925e-05,81.159,-0.00032589,-3020.6,1.4121
106,23.358,0.66275,0,1.5878e-05,158.67,8.6676e-06,40.673,2.7553e-06,-3.7497,-1.4776e-05,-135.47,2.1853
107,23.358,1.3267,0,1.7631e-05,176.19,1.1044e-05,63.239,1.856e-06,-5.8001,-1.5608e-05,-137.02,2.1857
108,23.367,2,0,1.8323e-05,183.11,1.2069e-05,74.765,1.5424e-06,-4.3306,-1.5795e-05,-134.59,2.187
109,23.367,2.6667,0,1.8569e-05,185.56,1.2411e-05,78.367,1.4207e-06,-4.2111,-1.5873e-05,-134.15,2.1871
110,23.373,3.3303,0,1.8385e-05,183.72,1.2364e-05,78.769,1.3555e-06,-3.9451,-1.5657e-05,-131.77,2.188
111,23.367,4,0,1.818e-05,181.68,1.2116e-05,75.833,1.3734e-06,-4.8814,-1.5574e-05,-132.21,2.187
112,23.405,4.6677,0,1.6825e-05,168.14,1.0902e-05,65.673,1.5127e-06,-4.8708,-1.4641e-05,-126.24,2.1923
113,23.415,5.3345,0,1.4877e-05,148.66,8.469e-06,43.026,2.357e-06,-2.8975,-1.3652e-05,-123.18,2.1934
114,22.83,5.3507,0,2.5318e-05,253.01,1.0576e-05,27.697,7.0481e-06,1.1912,-2.4722e-05,-237.52,2.109
115,22.25,5.3665,0,3.6665e-05,366.4,1.3338e-05,14.958,1.1359e-05,0.088983,-3.6387e-05,-358.65,2.0253
116,21.667,5.3665,0,4.7898e-05,478.65,1.6314e-05,6.3235,1.5526e-05,0.4005,-4.7781e-05,-475.26,1.9415
117,21.083,5.3665,0,5.8536e-05,584.96,1.9348e-05,-0.32683,1.9235e-05,-1.1696,-5.8562e-05,-585.71,1.8579
118,20.486,5.3643,0,6.8116e-05,680.69,2.3073e-05,8.0582,2.2209e-05,1.5634,-6.795e-05,-675.85,1.7728
119,19.926,5.4093,0,7.2029e-05,719.8,2.6328e-05,28.02,2.1965e-05,-4.7611,-7.1578e-05,-707.61,1.6933
120,19.365,5.5219,0,6.7233e-05,671.87,2.4414e-05,29.264,2.1074e-05,4.1679,-6.6629e-05,-654.8,1.6142
121,18.77,5.6125,0,4.8757e-05,487.24,1.9601e-05,37.434,1.3443e-05,-8.8317,-4.8106e-05,-471.29,1.5306
122,18.637,4.9358,0,8.4019e-05,839.61,4.2267e-05,167.22,1.7047e-05,-22.274,-7.9933e-05,-750.94,1.513
123,18.679,4.5973,0,0.00011524,1151.6,5.411e-05,204.59,2.8529e-05,12.374,-0.00011033,-1031,1.5194
124,18.697,4.2944,0,0.00014894,1488.4,5.9591e-05,112.39,4.1397e-05,-24.32,-0.00014697,-1439.7,1.5223
125,18.623,4.0093,0,0.00018872,1885.9,6.4939e-05,-62.003,5.1955e-05,-159.55,-0.0001923,-1994.8,1.5124
126,18.878,0.48401,0,5.5837e-05,557.99,2.2719e-05,56.406,1.6199e-05,7.4167,-5.459e-05,-524.46,1.546
127,19.546,0.5675,0,7.0407e-05,703.59,2.4836e-05,30.363,2.3302e-05,18.839,-6.9563e-05,-678.91,1.6399
128,20.173,0.61199,0,7.0241e-05,701.92,2.3877e-05,10.075,2.2921e-05,2.8863,-7.0018e-05,-695.42,1.7285
129,20.791,0.63353,0,6.3271e-05,632.27,2.118e-05,4.5384,2.0787e-05,1.5841,-6.3166e-05,-629.2,1.8163
130,21.433,0.64604,0,5.2247e-05,522.11,1.7611e-05,4.8569,1.706e-05,0.71587,-5.2151e-05,-519.31,1.9081
131,22.075,0.65509,0,3.9989e-05,399.62,1.4257e-05,12.737,1.2558e-05,-0.030805,-3.9758e-05,-393.11,2.0002
132,22.716,0.65976,0,2.762e-05,276.01,1.1162e-05,25.541,7.9248e-06,1.2211,-2.7084e-05,-261.82,2.0925
133,17.337,0.31859,0,8.2733e-05,826.76,3.4739e-05,88.427,2.2499e-05,-3.537,-8.0905e-05,-780.47,1.3354
134,17.401,0.58501,0,8.0074e-05,800.18,4.0087e-05,160.41,1.675e-05,-14.94,-7.6144e-05,-712.91,1.3445
135,17.526,0.98989,0,0.00011419,1141.1,6.9305e-05,399.81,1.6117e-05,0.16659,-0.000102,-887.35,1.362
136,17.527,1.3436,0,0.00016172,1616.1,0.00010342,634.47,1.8247e-05,-5.4543,-0.00014121,-1203.6,1.3634
137,17.525,1.6879,0,0.00022499,2248.4,0.00013659,765.92,2.9227e-05,-40.76,-0.00020152,-1774.5,1.3643
138,17.582,1.9623,0,0.00025488,2547.1,0.00012263,385.64,5.0512e-05,-156.26,-0.00024662,-2388.8,1.3724
139,0.65999,0.65807,0,0.00054862,5482.4,0.00027894,843.95,7.9186e-05,-656.93,-0.0005298,-5232.6,0.0020152
140,1.3229,0.6544,0,0.00056333,5629.5,0.0002032,-168.75,0.00013996,-643.93,-0.00057565,-6020.7,0.0084568
141,1.9899,0.64114,0,0.00056875,5683.6,0.0002086,29.74,0.00015416,-379.3,-0.00057359,-5847.3,0.019841
142,2.6586,0.63007,0,0.00055302,5526.4,0.00019676,-15.158,0.00015651,-317.56,-0.00055806,-5686.6,0.036248
143,3.3301,0.62518,0,0.00053391,5335.4,0.00018765,-5.4036,0.00015602,-243.07,-0.00053774,-5455.7,0.057715
144,4,0.63347,0,0.00051355,5132,0.00017837,-6.8527,0.00015362,-192.83,-0.00051669,-5229.3,0.084008
145,4.6667,0.63347,0,0.00049343,4930.9,0.00016962,-4.673,0.00015082,-145.97,-0.00049585,-5004.7,0.11473
146,5.3333,0.63347,0,0.0004732,4728.7,0.00016135,-3.1452,0.00014703,-110.77,-0.00047505,-4784.8,0.14985
147,6,0.63347,0,0.00045319,4528.8,0.0001534,-2.5175,0.00014278,-82.295,-0.00045458,-4570.6,0.1892
148,6.6667,0.63347,0,0.00043338,4330.8,0.00014577,-2.1866,0.00013815,-59.426,-0.0004344,-4361.3,0.23258
149,7.3333,0.63347,0,0.00041388,4136,0.00013852,-1.4838,0.00013316,-41.74,-0.0004146,-4157.4,0.27983
150,8,0.63347,0,0.00039455,3942.8,0.00013149,-1.2685,0.00012791,-28.12,-0.00039504,-3957.4,0.33076
151,8.6667,0.63347,0,0.00037543,3751.7,0.00012469,-0.8908,0.00012246,-17.63,-0.00037574,-3760.9,0.3852
152,9.3333,0.63347,0,0.00035652,3562.7,0.00011807,-0.57865,0.00011688,-9.5246,-0.00035669,-3567.8,0.44298
153,10,0.63347,0,0.0003378,3375.7,0.00011158,-0.51816,0.00011125,-2.9921,-0.00033786,-3377.5,0.50392
154,10.667,0.63347,0,0.00031934,3191.2,0.00010558,2.2151,0.00010524,-0.35496,-0.00031931,-3190.2,0.56785
155,11.333,0.63347,0,0.00030111,3009,9.9928e-05,6.5632,9.9018e-05,-0.27493,-0.000301,-3005.9,0.63462
156,12,0.63347,0,0.00028311,2829.1,9.431e-05,10.455,9.2889e-05,-0.22047,-0.00028293,-2824,0.70406
157,12.667,0.63347,0,0.00026538,2651.9,8.8769e-05,14.405,8.6871e-05,0.14308,-0.00026512,-2644.6,0.776
158,13.333,0.63347,0,0.00024776,2475.9,8.3386e-05,19.711,8.0819e-05,0.42761,-0.00024741,-2465.8,0.85029
159,13.997,0.6254,0,0.00023017,2300.2,7.8234e-05,27.502,7.4622e-05,0.36164,-0.00022969,-2286.1,0.92645
160,14.658,0.61781,0,0.00021195,2118.1,7.328e-05,40.494,6.7997e-05,0.79909,-0.00021122,-2097.2,1.0042
161,15.3,0.59319,0,0.00019232,1921.8,6.748e-05,51.227,6.1338e-05,5.0842,-0.00019132,-1893.3,1.0815
162,15.955,0.55623,0,0.0001698,1696.9,6.1304e-05,77.999,5.4222e-05,24.785,-0.00016799,-1644.9,1.1619
163,16.626,0.49764,0,0.00013245,1323.6,5.1494e-05,109.23,4.0383e-05,25.748,-0.00012995,-1254.1,1.2457
164,0.69731,5.3437,0,0.00055029,5499.1,0.00027838,848.13,8.2594e-05,-622.91,-0.00053148,-5236.9,0.0022583
165,0.68725,4.677,0,0.00060543,6050.1,0.0003435,1079.7,2.3213e-05,-1326.8,-0.00057258,-5803.4,0.0025526
166,0.66699,4.012,0,0.00063382,6333.8,0.00036382,1099.6,1.0447e-05,-1555.5,-0.00059833,-6129.7,0.0025553
167,0.64181,3.3367,0,0.00065111,6506.6,0.00037661,1146.3,5.6067e-06,-1641.3,-0.00061306,-6289.7,0.002426
168,0.63892,2.6576,0,0.00065173,6512.8,0.00037704,1151.2,5.8803e-06,-1637.6,-0.00061354,-6291.6,0.0024047
169,0.64421,1.9878,0,0.00063559,6351.5,0.00036533,1106.6,9.7281e-06,-1565.2,-0.00059972,-6144.4,0.002386
170,0.65452,1.3174,0,0.00060636,6059.4,0.00034465,1084.6,2.2131e-05,-1338.7,-0.00057316,-5811.5,0.0023151
171,17.512,5.5871,0,6.8257e-05,682.1,2.7678e-05,57.588,1.8883e-05,-8.4983,-6.7181e-05,-655.15,1.3581
172,16.995,5.4935,0,0.00011715,1170.7,4.6508e-05,95.266,3.3877e-05,0.35804,-0.00011524,-1120,1.2924
173,16.407,5.4064,0,0.00014996,1498.5,5.8409e-05,109.4,4.4181e-05,2.4922,-0.00014777,-1439.7,1.2184
174,15.765,5.3782,0,0.00017879,1786.6,6.4622e-05,74.832,5.6284e-05,12.187,-0.00017722,-1742.3,1.1385
175,15.07,5.3776,0,0.00020044,2003,6.9832e-05,44.879,6.3998e-05,1.0486,-0.00019962,-1979.7,1.0536
176,14.368,5.3716,0,0.00022017,2200.1,7.5204e-05,31.316,7.1204e-05,1.2618,-0.0002196,-2183.7,0.96974
177,13.66,5.3665,0,0.00023887,2387.1,8.0603e-05,21.439,7.7786e-05,0.27492,-0.00023849,-2376.1,0.88742
178,12.941,5.3665,0,0.00025781,2576.3,8.649e-05,16.858,8.4229e-05,-0.1303,-0.00025752,-2567.9,0.80622
179,12.222,5.3665,0,0.00027708,2768.9,9.2495e-05,12.588,9.0797e-05,-0.1691,-0.00027686,-2762.6,0.72768
180,11.505,5.3773,0,0.00029645,2962.5,9.847e-05,7.5711,9.7441e-05,-0.15673,-0.00029633,-2958.8,0.65218
181,10.785,5.3744,0,0.00031613,3159.1,0.00010459,2.9193,0.00010414,-0.41982,-0.00031609,-3157.9,0.57943
182,10.065,5.3757,0,0.00033604,3358.1,0.00011097,-0.44008,0.00011072,-2.2977,-0.00033609,-3359.4,0.50993
183,9.3457,5.3757,0,0.00035623,3559.9,0.00011797,-0.50895,0.00011682,-9.1149,-0.0003564,-3564.7,0.44397
184,8.6255,5.3819,0,0.0003767,3764.4,0.00012511,-0.97264,0.00012287,-17.814,-0.00037701,-3773.7,0.3816
185,7.907,5.3778,0,0.00039737,3970.9,0.0001325,-1.1012,0.00012871,-29.598,-0.00039788,-3986.2,0.32332
186,7.1891,5.3757,0,0.00041823,4179.4,0.00014008,-1.5173,0.00013438,-44.354,-0.000419,-4202.2,0.26918
187,6.4704,5.3665,0,0.00043941,4391.1,0.00014802,-2.1308,0.0001397,-64.62,-0.00044052,-4424.1,0.21935
188,5.751,5.376,0,0.00046061,4602.9,0.0001562,-3.2643,0.00014457,-90.666,-0.00046215,-4649.3,0.17391
189,5.0324,5.376,0,0.00048219,4818.6,0.00016502,-2.986,0.0001488,-124.87,-0.00048425,-4881.3,0.13335
190,4.3136,5.3665,0,0.00050423,5038.8,0.00017399,-10.026,0.00015251,-171.42,-0.00050712,-5127.6,0.097852
191,3.5947,5.3665,0,0.00052754,5271.8,0.00018481,-2.4916,0.00015546,-223.03,-0.00053103,-5381.1,0.067517
192,2.8559,5.3668,0,0.00054731,5469.3,0.00019449,-5.9945,0.00015615,-294.09,-0.00055184,-5613.6,0.042042
193,2.1271,5.3528,0,0.0005651,5647.1,0.00020623,28.786,0.00015493,-356.61,-0.00056969,-5801.2,0.022826
194,1.4072,5.3405,0,0.00056533,5649.4,0.00020314,-162.68,0.0001425,-618.25,-0.00057724,-6026.1,0.0096341
195,17.516,5.2596,0,9.1042e-05,909.79,4.7594e-05,203.88,1.7139e-05,-24.952,-8.5812e-05,-798.48,1.3598
196,17.6,4.9507,0,0.00011985,1197.7,7.4983e-05,438,1.377e-05,-21.929,-0.00010595,-921.45,1.3717
197,17.63,4.6181,0,0.00017642,1763,0.00012094,804.51,1.3017e-05,-6.3687,-0.00014824,-1218,1.3769
198,17.583,4.264,0,0.00023206,2319,0.0001448,856.04,2.8487e-05,-17.908,-0.00020509,-1772.9,1.3719
199,17.536,3.8979,0,0.0002439,2437.3,0.00011182,323.87,5.471e-05,-105.23,-0.00023733,-2299.5,1.3667
200,18.56,0.73776,0,6.0853e-05,608.11,3.6005e-05,195.4,8.7354e-06,-9.4937,-5.5043e-05,-488.7,1.5019
201,18.633,1.0236,0,8.2534e-05,824.77,3.8459e-05,134.85,1.9839e-05,-5.0518,-7.943e-05,-750.92,1.5125
202,18.601,1.3385,0,0.00010936,1092.8,5.3119e-05,202.96,2.4496e-05,-12.099,-0.00010451,-981.42,1.5085
203,18.592,1.6667,0,0.00015835,1582.4,7.0219e-05,181.74,3.7272e-05,-65.815,-0.00015492,-1509.8,1.5077
204,18.594,2.0599,0,0.00020469,2045.4,6.7723e-05,-67.557,6.1031e-05,-117.84,-0.00020779,-2137.7,1.5086
205,17.671,2.2038,0,0.00030739,3071.8,0.00013376,374.21,7.9311e-05,-34.873,-0.00029956,-2881.6,1.3845
206,18.596,2.4172,0,0.00024449,2443.2,9.0228e-05,81.069,7.1724e-05,-57.961,-0.0002438,-2428.7,1.5093
207,17.05,0.7267,0,0.00012863,1285.4,6.2777e-05,276.04,3.1994e-05,44.748,-0.0001216,-1109.3,1.3002
208,1.3902,4.6855,0,0.00054284,5424.6,0.00022502,-218.08,7.3814e-05,-1354.2,-0.00056058,-6120.8,0.01056
209,17.539,3.5052,0,0.00027825,2780.6,0.00012066,347.4,7.3435e-05,-7.3972,-0.00027077,-2593.6,1.3677
210,19.111,1.0684,0,8.2691e-05,826.34,2.839e-05,10.882,2.6415e-05,-3.9596,-8.2563e-05,-822.78,1.5793
211,18.018,2.5101,0,0.00033344,3332.1,0.00014386,410,8.8748e-05,-4.0657,-0.0003246,-3109.8,1.431
212,18.228,2.5085,0,0.00033049,3302.6,0.00013101,265.94,9.5632e-05,0.12397,-0.00032516,-3161.5,1.4593
213,18.224,3.339,0,0.00029545,2952.5,0.00012711,367.52,7.9713e-05,11.392,-0.00028739,-2746.9,1.4589
214,17.915,3.3169,0,0.00031012,3099.1,0.00012999,328.44,8.4463e-05,-13.636,-0.00030334,-2927.5,1.4174
215,19.823,4.8137,0,7.7306e-05,772.53,2.8544e-05,2.6046,2.0475e-05,-58.019,-7.807e-05,-798.45,1.6793
216,17.026,1.0072,0,0.0001389,1388.1,6.6339e-05,251.34,3.2691e-05,-1.4736,-0.00013291,-1245.8,1.2981
217,19.305,4.201,0,0.00010756,1074.9,4.1801e-05,8.8139,2.5179e-05,-116.07,-0.00010884,-1123,1.6071
218,19.08,3.8629,0,0.00013972,1396.3,5.3898e-05,14.516,3.3751e-05,-136.86,-0.00014119,-1451.3,1.5759
219,19.628,1.1763,0,8.0283e-05,802.28,2.6729e-05,-4.9628,2.5639e-05,-13.153,-8.0588e-05,-811.3,1.652
220,17.048,1.3583,0,0.00016276,1626.5,7.9489e-05,332.42,3.868e-05,25.796,-0.00015448,-1425.6,1.302
221,17.092,1.7435,0,0.0001858,1856.7,8.8867e-05,347.04,4.456e-05,14.13,-0.0001774,-1653.6,1.3086
222,15.908,1.0748,0,0.00017956,1794.3,6.8586e-05,105,5.285e-05,-13.234,-0.0001777,-1745.5,1.1577
223,15.039,4.7565,0,0.00020518,2050.4,7.2799e-05,57.979,6.4363e-05,-5.4048,-0.00020422,-2023.4,1.0518
224,17.15,4.3333,0,0.00018864,1885.1,9.1754e-05,386.08,4.5651e-05,39.68,-0.000179,-1648.2,1.3158
225,17.319,4.6117,0,0.0001639,1637.8,8.7298e-05,439.46,3.5073e-05,47.059,-0.00015205,-1358.9,1.3367
226,18.887,1.7357,0,0.00012246,1223.7,4.7728e-05,78.16,3.4961e-05,-17.77,-0.00012115,-1190.7,1.5488
227,17.769,2.4922,0,0.00031505,3148.3,0.00013998,432.77,8.0675e-05,-12.806,-0.00030553,-2914.6,1.3979
228,18.402,2.7316,0,0.00028079,2805.9,0.00010639,143.82,8.2263e-05,-37.419,-0.00027854,-2748.3,1.4829
229,18.599,3.2289,0,0.00024533,2451.6,9.2276e-05,130.83,7.3558e-05,-9.8063,-0.00024297,-2388.1,1.5099
230,22.199,4.0271,0,3.8085e-05,380.59,1.3489e-05,10.034,1.1919e-05,-1.7659,-3.7931e-05,-376.32,2.0186
231,22.1,1.9856,0,3.9911e-05,398.84,1.3686e-05,5.9336,1.284e-05,-0.42062,-3.9813e-05,-396.04,2.0045
232,16.473,1.0071,0,0.0001628,1626.9,6.5301e-05,145.21,4.7083e-05,8.3235,-0.00015975,-1545.8,1.2281
233,18.914,3.5266,0,0.00017825,1781.3,6.2458e-05,-18.212,5.0887e-05,-105.15,-0.00018019,-1841.4,1.5531
234,19.89,4.251,0,8.6001e-05,859.42,3.1647e-05,-9.4234,2.1796e-05,-83.445,-8.7341e-05,-903.46,1.6892
235,17.096,2.1926,0,0.00020658,2064.3,8.7536e-05,244.2,5.6976e-05,14.587,-0.00020121,-1925.3,1.3098
236,1.9495,1.9262,0,0.00053173,5313.6,0.00023609,46.62,6.73e-05,-1221.6,-0.00054024,-5786.4,0.021822
237,17.112,3.858,0,0.00020938,2092.4,9.2694e-05,292.34,5.4713e-05,6.9599,-0.00020282,-1928.1,1.3118
238,19.581,1.8611,0,9.6957e-05,968.9,3.8427e-05,2.0772,2.0727e-05,-130.92,-9.8461e-05,-1026.4,1.6459
239,18.107,2.7842,0,0.00030545,3052.4,0.00012978,345.31,8.2069e-05,-13.203,-0.00029822,-2870.5,1.4432
240,22.116,2.6572,0,3.9692e-05,396.65,1.3256e-05,1.5793,1.2977e-05,-0.51113,-3.9674e-05,-396.11,2.0068
241,21.622,4.0287,0,4.9359e-05,493.25,1.7459e-05,2.1615,1.4477e-05,-20.247,-4.9628e-05,-501.91,1.9358
242,16.582,1.4107,0,0.00017075,1706.3,7.1287e-05,178.26,4.6778e-05,-5.8956,-0.00016707,-1612.7,1.2429
243,21.043,4.0683,0,6.0694e-05,606.52,2.2091e-05,-3.8937,1.6084e-05,-49.028,-6.1468e-05,-631.72,1.8529
244,20.465,4.1779,0,7.4674e-05,746.22,2.8368e-05,3.1834,1.8397e-05,-71.732,-7.5557e-05,-777.67,1.7706
245,20.222,1.8814,0,8.0435e-05,803.79,3.1684e-05,6.9783,1.8076e-05,-95.271,-8.1447e-05,-843.05,1.7363
246,3.2964,1.8789,0,0.00050299,5026.5,0.0001991,7.0719,0.00010765,-680.07,-0.00051091,-5327.6,0.061087
247,3.9761,1.8633,0,0.00048888,4885.4,0.00018473,-6.0662,0.00011967,-494.94,-0.00049556,-5117.5,0.08798
248,4.661,1.8587,0,0.00047562,4752.9,0.00017631,12.164,0.00012436,-378.16,-0.00048064,-4923.9,0.11972
249,5.3363,1.8749,0,0.00045866,4583.4,0.00016524,2.3216,0.00012757,-280.73,-0.00046274,-4716.1,0.1555
250,6.0036,1.8673,0,0.00044206,4417.6,0.00015591,1.4387,0.00012878,-202.41,-0.00044513,-4514.5,0.19493
251,6.6679,1.8759,0,0.00042533,4250.3,0.0001478,1.3123,0.00012774,-149.41,-0.00042764,-4322.4,0.23816
252,7.3309,1.8788,0,0.0004078,4075.2,0.00013991,0.00046495,0.00012548,-108.43,-0.00040953,-4128.3,0.28507
253,7.9986,1.8813,0,0.00039002,3897.5,0.00013259,1.0551,0.00012221,-76.942,-0.00039125,-3934.9,0.33594
254,8.6663,1.8926,0,0.00037198,3717.2,0.00012543,0.47678,0.00011825,-53.44,-0.00037285,-3743.4,0.39031
255,9.3345,1.8869,0,0.00035387,3536.3,0.00011849,-0.11147,0.00011386,-34.959,-0.00035445,-3553.7,0.44802
256,10.003,1.8922,0,0.00033584,3356.1,0.00011187,-0.052655,0.00010907,-21.078,-0.0003362,-3366.6,0.50898
257,10.667,1.9004,0,0.00031796,3177.4,0.00010539,0.15467,0.00010415,-9.1344,-0.00031811,-3181.9,0.5724
258,11.333,1.9004,0,0.00030017,2999.6,9.9121e-05,0.48816,9.8989e-05,-0.50135,-0.00030017,-2999.6,0.63895
259,12,1.9004,0,0.00028272,2825.2,9.4063e-05,8.9433,9.2821e-05,-0.3892,-0.00028257,-2820.9,0.70816
260,12.658,1.8813,0,0.0002655,2653.2,8.907e-05,16.943,8.6709e-05,-0.7959,-0.00026523,-2645.1,0.77894
261,13.313,1.8571,0,0.0002491,2489.3,8.4183e-05,24.498,8.1094e-05,1.2837,-0.00024865,-2476.3,0.85163
262,13.976,1.8336,0,0.00023241,2322.5,7.9453e-05,31.524,7.4907e-05,-2.6322,-0.0002319,-2307.8,0.92733
263,14.647,1.8212,0,0.00021707,2169.2,7.5269e-05,51.119,7.0154e-05,12.69,-0.00021596,-2137.1,1.0062
264,15.365,1.8277,0,0.00019372,1935.9,6.7288e-05,41.975,6.207e-05,2.7678,-0.00019293,-1913.2,1.0926
265,15.988,1.5493,0,0.0001937,1935.6,7.7422e-05,163.01,5.5583e-05,-1.0782,-0.00019042,-1849.4,1.1687
266,15,4.1707,0,0.00020917,2090.2,7.3498e-05,54.177,6.6386e-05,0.73753,-0.00020818,-2062.2,1.0483
267,14.347,4.1393,0,0.00022381,2236.6,7.7483e-05,41.362,7.1497e-05,-3.6115,-0.00022314,-2217.4,0.97063
268,13.662,4.1106,0,0.00023988,2397.1,8.2526e-05,34.935,7.6647e-05,-9.2338,-0.00023941,-2384,0.89126
269,12.949,4.1178,0,0.00025799,2578.2,8.7335e-05,25.985,8.3799e-05,-0.57613,-0.00025755,-2565.4,0.81095
270,12.211,4.1908,0,0.00027742,2772.3,9.2327e-05,10.819,9.1222e-05,2.5166,-0.00027719,-2765.6,0.73033
271,11.489,4.2071,0,0.00029607,2958.6,9.8109e-05,4.0101,9.7382e-05,-1.4472,-0.00029602,-2957.3,0.65465
272,10.76,4.2189,0,0.00031557,3153.5,0.00010446,0.18206,0.0001036,-6.2674,-0.00031567,-3156.5,0.58123
273,10.043,4.2175,0,0.00033486,3346.3,0.00011146,0.30307,0.00010891,-18.93,-0.00033517,-3355.5,0.51239
274,9.333,4.2053,0,0.00035407,3538.2,0.00011857,0.43136,0.00011396,-34.179,-0.00035463,-3555,0.44762
275,8.6281,4.1957,0,0.00037323,3729.7,0.00012583,0.14203,0.00011866,-53.76,-0.00037411,-3756.2,0.38685
276,7.9211,4.1929,0,0.00039228,3920.1,0.00013335,0.10589,0.00012284,-78.911,-0.00039356,-3958.9,0.32961
277,7.2066,4.193,0,0.00041129,4110.1,0.00014134,-0.50859,0.0001261,-115.03,-0.00041314,-4166.7,0.27576
278,6.4828,4.1875,0,0.00043084,4305.4,0.00015102,8.7526,0.00012782,-165.59,-0.00043324,-4381.2,0.22552
279,5.7476,4.1499,0,0.00044885,4485.4,0.00015873,-2.5565,0.00012964,-221.16,-0.00045226,-4593.3,0.17924
280,5.0335,4.1286,0,0.00046533,4650.1,0.00016816,-9.5683,0.00012738,-316.01,-0.00047011,-4805.3,0.13892
281,4.3198,4.1722,0,0.00048269,4823.6,0.00018026,4.9138,0.00012309,-424.61,-0.00048839,-5019,0.10323
282,3.603,4.2006,0,0.00049762,4972.7,0.00019263,4.3396,0.00011436,-583.75,-0.00050486,-5236.3,0.072446
283,2.8746,4.1903,0,0.00051979,5194.3,0.00020873,3.8539,0.00010524,-773.77,-0.0005285,-5535.4,0.046569
284,2.0713,4.0498,0,0.00051835,5179.9,0.0002325,47.754,6.0986e-05,-1240.9,-0.00052647,-5654.8,0.02461
285,17.791,2.7172,0,0.00029946,2992.6,0.00012642,359.38,8.3986e-05,40.531,-0.00029138,-2779.8,1.401
286,18.962,3.0784,0,0.00017848,1783.5,6.1232e-05,-22.4,5.2837e-05,-85.477,-0.00018023,-1836.6,1.56
287,1.8836,2.5748,0,0.00053308,5327.1,0.00024825,81.59,4.6834e-05,-1431.7,-0.00053966,-5838.4,0.020839
288,2.6133,1.8995,0,0.00051562,5152.6,0.00021281,-21.586,9.0768e-05,-938.53,-0.00052579,-5571.1,0.038805
289,1.8416,3.2631,0,0.00053363,5332.6,0.0002461,77.558,5.1594e-05,-1383.9,-0.00054061,-5833.4,0.01999
290,17.15,3.2954,0,0.00021755,2174,8.2943e-05,135.83,6.5122e-05,1.9259,-0.0002149,-2102,1.3174
291,16.662,3.9414,0,0.00019333,1932,7.8345e-05,174.98,5.4713e-05,-2.5759,-0.00018978,-1839.6,1.2542
292,15.632,4.1587,0,0.00019713,1969.9,7.193e-05,79.093,6.0558e-05,-6.3495,-0.00019575,-1932.2,1.1253
293,16.401,4.7256,0,0.00016927,1691.6,6.8361e-05,155.94,4.8594e-05,7.4214,-0.000166,-1605,1.2197
294,19.625,2.5341,0,0.00011199,1119.1,4.3767e-05,1.4935,2.5009e-05,-139.45,-0.00011367,-1181.4,1.6522
295,18.556,2.9151,0,0.00025272,2525.4,9.2069e-05,111.35,7.8815e-05,11.764,-0.00025047,-2462.4,1.5041
296,21.541,3.332,0,5.1114e-05,510.79,1.8821e-05,2.0864,1.3665e-05,-36.652,-5.1592e-05,-526.97,1.9242
297,21.503,2.6435,0,5.1865e-05,518.29,1.9128e-05,1.3843,1.3742e-05,-39.08,-5.2388e-05,-535.95,1.9188
298,16.646,1.7613,0,0.00018656,1864.3,7.7621e-05,190.59,5.1199e-05,-7.9295,-0.00018266,-1765,1.2517
299,19.46,3.5984,0,0.00011845,1183.7,4.5599e-05,1.9716,2.7778e-05,-131.93,-0.00012009,-1242.9,1.6291
300,19.222,3.4013,0,0.00014389,1437.9,5.2602e-05,-7.9355,3.784e-05,-118.85,-0.00014573,-1498.1,1.5959
301,20.908,3.3204,0,6.3877e-05,638.32,2.5071e-05,-5.7746,1.3416e-05,-93.348,-6.511e-05,-683.36,1.8338
302,20.4,3.6806,0,8.0644e-05,805.89,3.1983e-05,-1.5884,1.6874e-05,-115.11,-8.2027e-05,-858.22,1.7616
303,20.273,2.4679,0,8.3858e-05,838.01,3.3743e-05,-1.5838,1.663e-05,-130.17,-8.5356e-05,-896.45,1.7436
304,3.2483,2.5048,0,0.00049272,4923.8,0.00020263,6.273,9.0845e-05,-833.65,-0.00050139,-5283.4,0.060288
305,3.9995,2.4359,0,0.00048575,4854.2,0.00018865,11.225,0.00011118,-570.83,-0.00049265,-5107.7,0.090031
306,4.6769,2.411,0,0.00046879,4684.7,0.00017611,4.9123,0.00011767,-434.14,-0.00047455,-4883.8,0.12164
307,5.3412,2.4231,0,0.00045544,4551.2,0.00016612,5.0022,0.0001233,-316.75,-0.00045989,-4698.6,0.15691
308,6.0049,2.4556,0,0.00043909,4387.9,0.00015597,-6.4272,0.00012524,-237.25,-0.00044278,-4505.2,0.19624
309,6.6538,2.478,0,0.00042376,4234.6,0.00014896,6.6209,0.0001248,-174.9,-0.00042633,-4315.9,0.23844
310,7.3168,2.4813,0,0.00040652,4062.4,0.00014047,0.35905,0.0001234,-127.91,-0.00040854,-4124.7,0.28524
311,7.9849,2.48,0,0.00038921,3889.4,0.00013295,0.71491,0.00012083,-90.349,-0.00039065,-3933.4,0.33603
312,8.6585,2.4785,0,0.00037132,3710.6,0.00012567,0.47322,0.00011726,-62.722,-0.00037234,-3741.3,0.39078
313,9.3374,2.4958,0,0.00035321,3529.6,0.00011862,0.26309,0.00011309,-41.319,-0.00035389,-3550,0.44938
314,10.008,2.5211,0,0.0003352,3349.6,0.00011188,0.092113,0.00010849,-25.401,-0.00033562,-3362.2,0.51048
315,10.667,2.5339,0,0.00031765,3174.3,0.00010546,0.079844,0.00010375,-12.794,-0.00031786,-3180.7,0.57342
316,11.333,2.5339,0,0.00029992,2997.2,9.8996e-05,-1.4248,9.8809e-05,-2.8303,-0.0003,-2999.3,0.63992
317,11.998,2.5049,0,0.00028262,2824.2,9.3796e-05,6.5836,9.2968e-05,0.36352,-0.0002825,-2820.8,0.70889
318,12.655,2.4618,0,0.00026575,2655.7,8.9152e-05,15.4,8.6652e-05,-3.3844,-0.00026554,-2649.6,0.77947
319,13.31,2.4127,0,0.00024879,2486.2,8.4296e-05,26.181,8.0781e-05,-0.23085,-0.00024834,-2473.1,0.85208
320,13.956,2.4119,0,0.00023408,2339.2,7.9954e-05,32.226,7.5609e-05,-0.41837,-0.00023352,-2323.1,0.92584
321,14.592,2.3837,0,0.00021937,2192.2,7.6193e-05,46.779,7.0225e-05,1.9348,-0.00021851,-2167.5,1.0003
322,15.012,3.5776,0,0.00020982,2096.7,7.3705e-05,50.537,6.6276e-05,-5.2804,-0.00020899,-2073.5,1.0505
323,14.387,3.5449,0,0.00022388,2237.3,7.7222e-05,41.135,7.1982e-05,1.7606,-0.00022313,-2215.6,0.97622
324,2.3147,3.1839,0,0.00051049,5101.3,0.00022202,-26.613,6.67e-05,-1193.7,-0.00052113,-5610.4,0.031309
325,17.586,2.8375,0,0.00028531,2851.1,0.00012511,365.78,7.3615e-05,-21.136,-0.00027747,-2659,1.3741
326,16.685,3.447,0,0.0002034,2032.6,7.5216e-05,102.73,6.2715e-05,8.8093,-0.00020134,-1975.2,1.2577
327,16.189,4.0764,0,0.0001919,1917.7,7.4141e-05,126.66,5.6353e-05,-6.9846,-0.00018951,-1854.3,1.1944
328,16.636,2.1491,0,0.0001936,1934.7,7.7154e-05,150.57,5.4788e-05,-17.479,-0.00019079,-1862.6,1.2511
329,17.46,2.6708,0,0.00025686,2566.9,0.00010698,242.88,6.84e-05,-47.007,-0.0002523,-2456.6,1.3576
330,20.072,3.3746,0,9.0698e-05,906.36,3.6919e-05,-0.97335,1.7247e-05,-148.78,-9.2337e-05,-972.15,1.7151
331,15.581,3.5852,0,0.00020052,2003.8,7.1936e-05,66.219,6.2415e-05,-5.3176,-0.00019939,-1972.4,1.1197
332,19.819,2.918,0,9.823e-05,981.62,3.8545e-05,7.1617,2.222e-05,-115.49,-9.9496e-05,-1030,1.6795
333,4.1332,3.0216,0,0.00047719,4768.6,0.00018838,31.281,0.00010548,-591.55,-0.00048366,-5018.1,0.096262
334,4.694,2.9349,0,0.00046729,4669.6,0.00017299,-6.3236,0.00012084,-398.2,-0.00047293,-4859.5,0.12289
335,5.353,2.9614,0,0.00045631,4560,0.00016611,-1.8133,0.00012349,-322.04,-0.00046098,-4713.5,0.15797
336,5.9456,3.0681,0,0.00043861,4383,0.00015854,12.469,0.00012203,-261.87,-0.00044221,-4501.3,0.19292
337,6.6202,3.0803,0,0.00042352,4232.3,0.00014828,-5.802,0.00012461,-183.62,-0.00042646,-4324.2,0.23649
338,7.2964,3.0852,0,0.00040689,4066.1,0.00014098,2.8527,0.00012307,-131.7,-0.00040891,-4128.8,0.28406
339,7.9688,3.0764,0,0.00038929,3890.2,0.00013322,0.53204,0.00012042,-95.635,-0.00039081,-3936.8,0.33508
340,8.6467,3.0619,0,0.00037141,3711.5,0.00012584,0.2381,0.00011702,-66.029,-0.00037248,-3744,0.39009
341,9.327,3.0683,0,0.0003533,3530.6,0.0001188,0.09136,0.00011286,-44.51,-0.00035404,-3552.6,0.44874
342,10.002,3.1294,0,0.00033524,3350.1,0.00011192,-0.11586,0.00010843,-26.376,-0.00033568,-3363.3,0.51014
343,10.691,3.1043,0,0.00031691,3166.9,0.00010521,-0.20076,0.0001035,-13.062,-0.00031713,-3173.5,0.57599
344,11.372,3.1006,0,0.00029894,2987.4,9.8825e-05,1.2098,9.8468e-05,-1.4766,-0.00029895,-2987.5,0.64406
345,12.048,3.091,0,0.00028144,2812.4,9.3877e-05,9.619,9.2059e-05,-4.0393,-0.00028134,-2809.6,0.71439
346,12.727,3.0671,0,0.00026331,2631.2,8.762e-05,9.3619,8.6515e-05,1.0605,-0.00026313,-2626,0.78751
347,13.312,2.9561,0,0.00025136,2511.8,8.6192e-05,38.547,8.0978e-05,-0.62996,-0.00025069,-2492.6,0.85251
348,13.947,2.9151,0,0.00023387,2337.1,8.2166e-05,56.42,7.3862e-05,-5.9683,-0.00023295,-2311.2,0.9251
349,14.487,2.9849,0,0.00022124,2210.9,7.7463e-05,54.714,7.0461e-05,2.1002,-0.00022023,-2182,0.98816
350,15.085,2.9877,0,0.0002085,2083.5,7.3681e-05,55.818,6.562e-05,-4.7505,-0.00020756,-2057.3,1.0596
351,16.937,2.7451,0,0.00021438,2142.3,8.5848e-05,182.55,6.1435e-05,-0.88614,-0.0002107,-2045.6,1.29
352,16.579,3.0354,0,0.00020595,2058.1,7.6841e-05,116.82,6.3509e-05,16.655,-0.0002035,-1989.6,1.2444
353,16.13,3.5578,0,0.00019637,1962.3,7.1336e-05,75.883,6.0606e-05,-4.7331,-0.00019503,-1925.5,1.1877
354,15.618,3.0396,0,0.00020104,2009,7.1071e-05,61.952,6.3981e-05,8.681,-0.00019978,-1973.1,1.1245
355,15.784,2.5576,0,0.00019623,1960.9,7.1445e-05,63.233,5.9107e-05,-29.467,-0.00019549,-1942.4,1.1448
356,19.283,3.0775,0,0.00014651,1464.1,5.7556e-05,15.246,3.3465e-05,-165.77,-0.00014823,-1531,1.6045
357,17.681,3.1628,0,0.0002838,2836,0.00010767,191.73,8.7262e-05,38.406,-0.00027957,-2717.8,1.3866
358,19.089,1.497,0,0.0001132,1131.2,3.9521e-05,22.465,3.5733e-05,-6.0019,-0.00011289,-1122.7,1.5767
359,17.193,4.8403,0,0.00014451,1444.1,7.3191e-05,340.8,3.3784e-05,44.709,-0.00013565,-1228.4,1.3199
360,19.087,4.8758,0,7.8943e-05,788.89,2.9171e-05,59.203,2.6179e-05,36.719,-7.7288e-05,-740.69,1.576
361,19.2,4.5562,0,9.6784e-05,967.17,3.8048e-05,72.188,2.8038e-05,-3.025,-9.5387e-05,-930.39,1.592
362,16.473,2.457,0,0.00019859,1984.5,7.7076e-05,132.43,5.782e-05,-12.253,-0.00019615,-1920.5,1.2307
363,16.473,2.457,0.1,0.00019859,1984.5,0.00019615,1920.5,-5.782e-05,12.253,-7.7076e-05,-132.43,1.2307
364,19.2,4.5562,0.1,9.6784e-05,967.17,9.5387e-05,930.39,-2.8038e-05,3.0251,-3.8048e-05,-72.188,1.592
365,19.087,4.8758,0.1,7.8943e-05,788.89,7.7288e-05,740.69,-2.6179e-05,-36.719,-2.9171e-05,-59.203,1.576
366,17.193,4.8403,0.1,0.00014451,1444.1,0.00013565,1228.4,-3.3784e-05,-44.709,-7.3191e-05,-340.8,1.3199
367,19.089,1.497,0.1,0.0001132,1131.2,0.00011289,1122.7,-3.5733e-05,6.0019,-3.9521e-05,-22.465,1.5767
368,17.681,3.1628,0.1,0.0002838,2836,0.00027957,2717.8,-8.7262e-05,-38.406,-0.00010767,-191.73,1.3866
369,19.283,3.0775,0.1,0.00014651,1464.1,0.00014823,1531,-3.3465e-05,165.77,-5.7556e-05,-15.246,1.6045
370,15.784,2.5576,0.1,0.00019623,1960.9,0.00019549,1942.4,-5.9107e-05,29.467,-7.1445e-05,-63.233,1.1448
371,15.618,3.0396,0.1,0.00020104,2009,0.00019978,1973.1,-6.3981e-05,-8.681,-7.1071e-05,-61.951,1.1245
372,16.13,3.5578,0.1,0.00019637,1962.3,0.00019503,1925.5,-6.0606e-05,4.7331,-7.1336e-05,-75.883,1.1877
373,16.579,3.0354,0.1,0.00020595,2058.1,0.0002035,1989.6,-6.3509e-05,-16.655,-7.6841e-05,-116.82,1.2444
374,16.937,2.7451,0.1,0.00021438,2142.3,0.0002107,2045.6,-6.1435e-05,0.88614,-8.5848e-05,-182.55,1.29
375,15.085,2.9877,0.1,0.0002085,2083.5,0.00020756,2057.3,-6.562e-05,4.7505,-7.3681e-05,-55.818,1.0596
376,14.487,2.9849,0.1,0.00022124,2210.9,0.00022023,2182,-7.0461e-05,-2.1002,-7.7463e-05,-54.714,0.98816
377,13.947,2.9151,0.1,0.00023387,2337.1,0.00023295,2311.2,-7.3862e-05,5.9683,-8.2166e-05,-56.42,0.9251
378,13.312,2.9561,0.1,0.00025136,2511.8,0.00025069,2492.6,-8.0978e-05,0.62996,-8.6192e-05,-38.547,0.85251
379,12.727,3.0671,0.1,0.00026331,2631.2,0.00026313,2626,-8.6515e-05,-1.0605,-8.762e-05,-9.3619,0.78751
380,12.048,3.091,0.1,0.00028144,2812.4,0.00028134,2809.6,-9.2059e-05,4.0393,-9.3877e-05,-9.619,0.71439
381,11.372,3.1006,0.1,0.00029894,2987.4,0.00029895,2987.5,-9.8468e-05,1.4767,-9.8825e-05,-1.2098,0.64406
382,10.691,3.1043,0.1,0.00031691,3166.9,0.00031713,3173.5,-0.0001035,13.062,-0.00010521,0.20075,0.57599
383,10.002,3.1294,0.1,0.00033524,3350.1,0.00033568,3363.3,-0.00010843,26.376,-0.00011192,0.11586,0.51014
384,9.327,3.0683,0.1,0.0003533,3530.6,0.00035404,3552.6,-0.00011286,44.51,-0.0001188,-0.09136,0.44874
385,8.6467,3.0619,0.1,0.00037141,3711.5,0.00037248,3744,-0.00011702,66.029,-0.00012584,-0.2381,0.39009
386,7.9688,3.0764,0.1,0.00038929,3890.2,0.00039081,3936.8,-0.00012042,95.635,-0.00013322,-0.53204,0.33508
387,7.2964,3.0852,0.1,0.00040689,4066.1,0.00040891,4128.8,-0.00012307,131.7,-0.00014098,-2.8527,0.28406
388,6.6202,3.0803,0.1,0.00042352,4232.3,0.00042646,4324.2,-0.00012461,183.62,-0.00014828,5.802,0.23649
389,5.9456,3.0681,0.1,0.00043861,4383,0.00044221,4501.3,-0.00012203,261.87,-0.00015854,-12.469,0.19292
390,5.353,2.9614,0.1,0.00045631,4560,0.00046098,4713.5,-0.00012349,322.04,-0.00016611,1.8133,0.15797
391,4.694,2.9349,0.1,0.00046729,4669.6,0.00047293,4859.5,-0.00012084,398.2,-0.00017299,6.3236,0.12289
392,4.1332,3.0216,0.1,0.00047719,4768.6,0.00048366,5018.1,-0.00010548,591.55,-0.00018838,-31.281,0.096262
393,19.819,2.918,0.1,9.823e-05,981.62,9.9496e-05,1030,-2.222e-05,115.49,-3.8545e-05,-7.1617,1.6795
394,15.581,3.5852,0.1,0.00020052,2003.8,0.00019939,1972.4,-6.2415e-05,5.3176,-7.1936e-05,-66.219,1.1197
395,20.072,3.3746,0.1,9.0698e-05,906.36,9.2337e-05,972.15,-1.7247e-05,148.78,-3.6919e-05,0.97335,1.7151
396,17.46,2.6708,0.1,0.00025686,2566.9,0.0002523,2456.6,-6.84e-05,47.007,-0.00010698,-242.88,1.3576
397,16.636,2.1491,0.1,0.0001936,1934.7,0.00019079,1862.6,-5.4788e-05,17.479,-7.7154e-05,-150.57,1.2511
398,16.189,4.0764,0.1,0.0001919,1917.7,0.00018951,1854.3,-5.6353e-05,6.9846,-7.4141e-05,-126.66,1.1944
399,16.685,3.447,0.1,0.0002034,2032.6,0.00020134,1975.2,-6.2715e-05,-8.8093,-7.5216e-05,-102.73,1.2577
400,17.586,2.8375,0.1,0.00028531,2851.1,0.00027747,2659,-7.3615e-05,21.136,-0.00012511,-365.78,1.3741
401,2.3147,3.1839,0.1,0.00051049,5101.3,0.00052113,5610.4,-6.67e-05,1193.7,-0.00022202,26.613,0.031309
402,14.387,3.5449,0.1,0.00022388,2237.3,0.00022313,2215.6,-7.1982e-05,-1.7606,-7.7222e-05,-41.135,0.97622
403,15.012,3.5776,0.1,0.00020982,2096.7,0.00020899,2073.5,-6.6276e-05,5.2804,-7.3705e-05,-50.537,1.0505
404,14.592,2.3837,0.1,0.00021937,2192.2,0.00021851,2167.5,-7.0225e-05,-1.9348,-7.6193e-05,-46.779,1.0003
405,13.956,2.4119,0.1,0.00023408,2339.2,0.00023352,2323.1,-7.5609e-05,0.41837,-7.9954e-05,-32.226,0.92584
406,13.31,2.4127,0.1,0.00024879,2486.2,0.00024834,2473.1,-8.0781e-05,0.23085,-8.4296e-05,-26.181,0.85208
407,12.655,2.4618,0.1,0.00026575,2655.7,0.00026554,2649.6,-8.6652e-05,3.3844,-8.9152e-05,-15.4,0.77947
408,11.998,2.5049,0.1,0.00028262,2824.2,0.0002825,2820.8,-9.2968e-05,-0.36352,-9.3796e-05,-6.5836,0.70889
409,11.333,2.5339,0.1,0.00029992,2997.2,0.0003,2999.3,-9.8809e-05,2.8303,-9.8996e-05,1.4248,0.63992
410,10.667,2.5339,0.1,0.00031765,3174.3,0.00031786,3180.7,-0.00010375,12.794,-0.00010546,-0.079844,0.57342
411,10.008,2.5211,0.1,0.0003352,3349.6,0.00033562,3362.2,-0.00010849,25.401,-0.00011188,-0.092113,0.51048
412,9.3374,2.4958,0.1,0.00035321,3529.6,0.00035389,3550,-0.00011309,41.319,-0.00011862,-0.26308,0.44938
413,8.6585,2.4785,0.1,0.00037132,3710.6,0.00037234,3741.3,-0.00011726,62.722,-0.00012567,-0.47322,0.39078
414,7.9849,2.48,0.1,0.00038921,3889.4,0.00039065,3933.4,-0.00012083,90.349,-0.00013295,-0.71491,0.33603
415,7.3168,2.4813,0.1,0.00040652,4062.4,0.00040854,4124.7,-0.0001234,127.91,-0.00014047,-0.35905,0.28524
416,6.6538,2.478,0.1,0.00042376,4234.6,0.00042633,4315.9,-0.0001248,174.9,-0.00014896,-6.6209,0.23844
417,6.0049,2.4556,0.1,0.00043909,4387.9,0.00044278,4505.2,-0.00012524,237.25,-0.00015597,6.4272,0.19624
418,5.3412,2.4231,0.1,0.00045544,4551.2,0.00045989,4698.6,-0.0001233,316.75,-0.00016612,-5.0022,0.15691
419,4.6769,2.411,0.1,0.00046879,4684.7,0.00047455,4883.8,-0.00011767,434.14,-0.00017611,-4.9123,0.12164
420,3.9995,2.4359,0.1,0.00048575,4854.2,0.00049265,5107.7,-0.00011118,570.83,-0.00018865,-11.225,0.090031
421,3.2483,2.5048,0.1,0.00049272,4923.8,0.00050139,5283.4,-9.0845e-05,833.65,-0.00020263,-6.273,0.060288
422,20.273,2.4679,0.1,8.3858e-05,838.01,8.5356e-05,896.45,-1.663e-05,130.17,-3.3743e-05,1.5838,1.7436
423,20.4,3.6806,0.1,8.0644e-05,805.89,8.2027e-05,858.22,-1.6874e-05,115.11,-3.1983e-05,1.5884,1.7616
424,20.908,3.3204,0.1,6.3877e-05,638.32,6.511e-05,683.36,-1.3416e-05,93.348,-2.5071e-05,5.7746,1.8338
425,19.222,3.4013,0.1,0.00014389,1437.9,0.00014573,1498.1,-3.784e-05,118.85,-5.2602e-05,7.9355,1.5959
426,19.46,3.5984,0.1,0.00011845,1183.7,0.00012009,1242.9,-2.7778e-05,131.93,-4.5599e-05,-1.9716,1.6291
427,16.646,1.7613,0.1,0.00018656,1864.3,0.00018266,1765,-5.1199e-05,7.9295,-7.7621e-05,-190.59,1.2517
428,21.503,2.6435,0.1,5.1865e-05,518.29,5.2388e-05,535.95,-1.3742e-05,39.08,-1.9128e-05,-1.3843,1.9188
429,21.541,3.332,0.1,5.1114e-05,510.79,5.1592e-05,526.97,-1.3665e-05,36.652,-1.8821e-05,-2.0864,1.9242
430,18.556,2.9151,0.1,0.00025272,2525.4,0.00025047,2462.4,-7.8815e-05,-11.764,-9.2069e-05,-111.35,1.5041
431,19.625,2.5341,0.1,0.00011199,1119.1,0.00011367,1181.4,-2.5009e-05,139.45,-4.3767e-05,-1.4935,1.6522
432,16.401,4.7256,0.1,0.00016927,1691.6,0.000166,1605,-4.8594e-05,-7.4214,-6.8361e-05,-155.94,1.2197
433,15.632,4.1587,0.1,0.00019713,1969.9,0.00019575,1932.2,-6.0558e-05,6.3495,-7.193e-05,-79.093,1.1253
434,16.662,3.9414,0.1,0.00019333,1932,0.00018978,1839.6,-5.4713e-05,2.5759,-7.8345e-05,-174.98,1.2542
435,17.15,3.2954,0.1,0.00021755,2174,0.0002149,2102,-6.5122e-05,-1.9259,-8.2943e-05,-135.83,1.3174
436,1.8416,3.2631,0.1,0.00053363,5332.6,0.00054061,5833.4,-5.1594e-05,1383.9,-0.0002461,-77.558,0.01999
437,2.6133,1.8995,0.1,0.00051562,5152.6,0.00052579,5571.1,-9.0768e-05,938.53,-0.00021281,21.586,0.038805
438,1.8836,2.5748,0.1,0.00053308,5327.1,0.00053966,5838.4,-4.6834e-05,1431.7,-0.00024825,-81.59,0.020839
439,18.962,3.0784,0.1,0.00017848,1783.5,0.00018023,1836.6,-5.2837e-05,85.477,-6.1232e-05,22.4,1.56
440,17.791,2.7172,0.1,0.00029946,2992.6,0.00029138,2779.8,-8.3986e-05,-40.531,-0.00012642,-359.38,1.401
441,2.0713,4.0498,0.1,0.00051835,5179.9,0.00052647,5654.8,-6.0986e-05,1240.9,-0.0002325,-47.754,0.02461
442,2.8746,4.1903,0.1,0.00051979,5194.3,0.0005285,5535.4,-0.00010524,773.77,-0.00020873,-3.8539,0.046569
443,3.603,4.2006,0.1,0.00049762,4972.7,0.00050486,5236.3,-0.00011436,583.75,-0.00019263,-4.3396,0.072446
444,4.3198,4.1722,0.1,0.00048269,4823.6,0.00048839,5019,-0.00012309,424.61,-0.00018026,-4.9138,0.10323
445,5.0335,4.1286,0.1,0.00046533,4650.1,0.00047011,4805.3,-0.00012738,316.01,-0.00016816,9.5683,0.13892
446,5.7476,4.1499,0.1,0.00044885,4485.4,0.00045226,4593.3,-0.00012964,221.16,-0.00015873,2.5565,0.17924
447,6.4828,4.1875,0.1,0.00043084,4305.4,0.00043324,4381.2,-0.00012782,165.59,-0.00015102,-8.7526,0.22552
448,7.2066,4.193,0.1,0.00041129,4110.1,0.00041314,4166.7,-0.0001261,115.03,-0.00014134,0.50859,0.27576
449,7.9211,4.1929,0.1,0.00039228,3920.1,0.00039356,3958.9,-0.00012284,78.911,-0.00013335,-0.10589,0.32961
450,8.6281,4.1957,0.1,0.00037323,3729.7,0.00037411,3756.2,-0.00011866,53.76,-0.00012583,-0.14203,0.38685
451,9.333,4.2053,0.1,0.00035407,3538.2,0.00035463,3555,-0.00011396,34.179,-0.00011857,-0.43136,0.44762
452,10.043,4.2175,0.1,0.00033486,3346.3,0.00033517,3355.5,-0.00010891,18.93,-0.00011146,-0.30307,0.51239
453,10.76,4.2189,0.1,0.00031557,3153.5,0.00031567,3156.5,-0.0001036,6.2674,-0.00010446,-0.18206,0.58123
454,11.489,4.2071,0.1,0.00029607,2958.6,0.00029602,2957.3,-9.7382e-05,1.4472,-9.8109e-05,-4.0101,0.65465
455,12.211,4.1908,0.1,0.00027742,2772.3,0.00027719,2765.6,-9.1222e-05,-2.5166,-9.2327e-05,-10.819,0.73033
456,12.949,4.1178,0.1,0.00025799,2578.2,0.00025755,2565.4,-8.3799e-05,0.57613,-8.7335e-05,-25.985,0.81095
457,13.662,4.1106,0.1,0.00023988,2397.1,0.00023941,2384,-7.6647e-05,9.2338,-8.2526e-05,-34.935,0.89126
458,14.347,4.1393,0.1,0.00022381,2236.6,0.00022314,2217.4,-7.1497e-05,3.6115,-7.7483e-05,-41.362,0.97063
459,15,4.1707,0.1,0.00020917,2090.2,0.00020818,2062.2,-6.6386e-05,-0.73753,-7.3498e-05,-54.177,1.0483
460,15.988,1.5493,0.1,0.0001937,1935.6,0.00019042,1849.4,-5.5583e-05,1.0782,-7.7422e-05,-163.01,1.1687
461,15.365,1.8277,0.1,0.00019372,1935.9,0.00019293,1913.2,-6.207e-05,-2.7678,-6.7288e-05,-41.975,1.0926
462,14.647,1.8212,0.1,0.00021707,2169.2,0.00021596,2137.1,-7.0154e-05,-12.69,-7.5269e-05,-51.119,1.0062
463,13.976,1.8336,0.1,0.00023241,2322.5,0.0002319,2307.8,-7.4907e-05,2.6322,-7.9453e-05,-31.524,0.92733
464,13.313,1.8571,0.1,0.0002491,2489.3,0.00024865,2476.3,-8.1094e-05,-1.2837,-8.4183e-05,-24.498,0.85163
465,12.658,1.8813,0.1,0.0002655,2653.2,0.00026523,2645.1,-8.6709e-05,0.7959,-8.907e-05,-16.943,0.77894
466,12,1.9004,0.1,0.00028272,2825.2,0.00028257,2820.9,-9.2821e-05,0.3892,-9.4063e-05,-8.9433,0.70816
467,11.333,1.9004,0.1,0.00030017,2999.6,0.00030017,2999.6,-9.8989e-05,0.50135,-9.9121e-05,-0.48815,0.63895
468,10.667,1.9004,0.1,0.00031796,3177.4,0.00031811,3181.9,-0.00010415,9.1344,-0.00010539,-0.15467,0.5724
469,10.003,1.8922,0.1,0.00033584,3356.1,0.0003362,3366.6,-0.00010907,21.078,-0.00011187,0.052655,0.50898
470,9.3345,1.8869,0.1,0.00035387,3536.3,0.00035445,3553.7,-0.00011386,34.959,-0.00011849,0.11147,0.44802
471,8.6663,1.8926,0.1,0.00037198,3717.2,0.00037285,3743.4,-0.00011825,53.44,-0.00012543,-0.47678,0.39031
472,7.9986,1.8813,0.1,0.00039002,3897.5,0.00039125,3934.9,-0.00012221,76.942,-0.00013259,-1.0551,0.33594
473,7.3309,1.8788,0.1,0.0004078,4075.2,0.00040953,4128.3,-0.00012548,108.43,-0.00013991,-0.00046591,0.28507
474,6.6679,1.8759,0.1,0.00042533,4250.3,0.00042764,4322.4,-0.00012774,149.41,-0.0001478,-1.3123,0.23816
475,6.0036,1.8673,0.1,0.00044206,4417.6,0.00044513,4514.5,-0.00012878,202.41,-0.00015591,-1.4387,0.19493
476,5.3363,1.8749,0.1,0.00045866,4583.4,0.00046274,4716.1,-0.00012757,280.73,-0.00016524,-2.3216,0.1555
477,4.661,1.8587,0.1,0.00047562,4752.9,0.00048064,4923.9,-0.00012436,378.16,-0.00017631,-12.164,0.11972
478,3.9761,1.8633,0.1,0.00048888,4885.4,0.00049556,5117.5,-0.00011967,494.94,-0.00018473,6.0662,0.08798
479,3.2964,1.8789,0.1,0.00050299,5026.5,0.00051091,5327.6,-0.00010765,680.07,-0.0001991,-7.0719,0.061087
480,20.222,1.8814,0.1,8.0435e-05,803.79,8.1447e-05,843.05,-1.8076e-05,95.271,-3.1684e-05,-6.9783,1.7363
481,20.465,4.1779,0.1,7.4674e-05,746.22,7.5557e-05,777.67,-1.8397e-05,71.732,-2.8368e-05,-3.1834,1.7706
482,21.043,4.0683,0.1,6.0694e-05,606.52,6.1468e-05,631.72,-1.6084e-05,49.028,-2.2091e-05,3.8937,1.8529
483,16.582,1.4107,0.1,0.00017075,1706.3,0.00016707,1612.7,-4.6778e-05,5.8956,-7.1287e-05,-178.26,1.2429
484,21.622,4.0287,0.1,4.9359e-05,493.25,4.9628e-05,501.91,-1.4477e-05,20.247,-1.7459e-05,-2.1615,1.9358
485,22.116,2.6572,0.1,3.9692e-05,396.65,3.9674e-05,396.11,-1.2977e-05,0.51113,-1.3256e-05,-1.5793,2.0068
486,18.107,2.7842,0.1,0.00030545,3052.4,0.00029822,2870.5,-8.2069e-05,13.203,-0.00012978,-345.31,1.4432
487,19.581,1.8611,0.1,9.6957e-05,968.9,9.8461e-05,1026.4,-2.0727e-05,130.92,-3.8427e-05,-2.0772,1.6459
488,17.112,3.858,0.1,0.00020938,2092.4,0.00020282,1928.1,-5.4713e-05,-6.9599,-9.2694e-05,-292.34,1.3118
489,1.9495,1.9262,0.1,0.00053173,5313.6,0.00054024,5786.4,-6.73e-05,1221.6,-0.00023609,-46.62,0.021822
490,17.096,2.1926,0.1,0.00020658,2064.3,0.00020121,1925.3,-5.6976e-05,-14.587,-8.7536e-05,-244.2,1.3098
491,19.89,4.251,0.1,8.6001e-05,859.42,8.7341e-05,903.46,-2.1796e-05,83.445,-3.1647e-05,9.4234,1.6892
492,18.914,3.5266,0.1,0.00017825,1781.3,0.00018019,1841.4,-5.0887e-05,105.15,-6.2458e-05,18.212,1.5531
493,16.473,1.0071,0.1,0.0001628,1626.9,0.00015975,1545.8,-4.7083e-05,-8.3235,-6.5301e-05,-145.21,1.2281
494,22.1,1.9856,0.1,3.9911e-05,398.84,3.9813e-05,396.04,-1.284e-05,0.42062,-1.3686e-05,-5.9336,2.0045
495,22.199,4.0271,0.1,3.8085e-05,380.59,3.7931e-05,376.32,-1.1919e-05,1.7659,-1.3489e-05,-10.033,2.0186
496,18.599,3.2289,0.1,0.00024533,2451.6,0.00024297,2388.1,-7.3558e-05,9.8063,-9.2276e-05,-130.83,1.5099
497,18.402,2.7316,0.1,0.00028079,2805.9,0.00027854,2748.3,-8.2263e-05,37.419,-0.00010639,-143.82,1.4829
498,17.769,2.4922,0.1,0.00031505,3148.3,0.00030553,2914.6,-8.0675e-05,12.806,-0.00013998,-432.77,1.3979
499,18.887,1.7357,0.1,0.00012246,1223.7,0.00012115,1190.7,-3.4961e-05,17.77,-4.7728e-05,-78.16,1.5488
500,17.319,4.6117,0.1,0.0001639,1637.8,0.00015205,1358.9,-3.5073e-05,-47.059,-8.7298e-05,-439.46,1.3367
501,17.15,4.3333,0.1,0.00018864,1885.1,0.000179,1648.2,-4.5651e-05,-39.68,-9.1754e-05,-386.08,1.3158
502,15.039,4.7565,0.1,0.00020518,2050.4,0.00020422,2023.4,-6.4363e-05,5.4048,-7.2799e-05,-57.979,1.0518
503,15.908,1.0748,0.1,0.00017956,1794.3,0.0001777,1745.5,-5.285e-05,13.234,-6.8586e-05,-105,1.1577
504,17.092,1.7435,0.1,0.0001858,1856.7,0.0001774,1653.6,-4.456e-05,-14.13,-8.8867e-05,-347.04,1.3086
505,17.048,1.3583,0.1,0.00016276,1626.5,0.00015448,1425.6,-3.868e-05,-25.796,-7.9489e-05,-332.42,1.302
506,19.628,1.1763,0.1,8.0283e-05,802.28,8.0588e-05,811.3,-2.5639e-05,13.153,-2.6729e-05,4.9628,1.652
507,19.08,3.8629,0.1,0.00013972,1396.3,0.00014119,1451.3,-3.3751e-05,136.86,-5.3898e-05,-14.516,1.5759
508,19.305,4.201,0.1,0.00010756,1074.9,0.00010884,1123,-2.5179e-05,116.07,-4.1801e-05,-8.8139,1.6071
509,17.026,1.0072,0.1,0.0001389,1388.1,0.00013291,1245.8,-3.2691e-05,1.4736,-6.6339e-05,-251.34,1.2981
510,19.823,4.8137,0.1,7.7306e-05,772.53,7.807e-05,798.45,-2.0475e-05,58.019,-2.8544e-05,-2.6046,1.6793
511,17.915,3.3169,0.1,0.00031012,3099.1,0.00030334,2927.5,-8.4463e-05,13.636,-0.00012999,-328.44,1.4174
512,18.224,3.339,0.1,0.00029545,2952.5,0.00028739,2746.9,-7.9713e-05,-11.392,-0.00012711,-367.52,1.4589
513,18.228,2.5085,0.1,0.00033049,3302.6,0.00032516,3161.5,-9.5632e-05,-0.12397,-0.00013101,-265.94,1.4593
514,18.018,2.5101,0.1,0.00033344,3332.1,0.0003246,3109.8,-8.8748e-05,4.0657,-0.00014386,-410,1.431
515,19.111,1.0684,0.1,8.2691e-05,826.34,8.2563e-05,822.78,-2.6415e-05,3.9596,-2.839e-05,-10.882,1.5793
516,17.539,3.5052,0.1,0.00027825,2780.6,0.00027077,2593.6,-7.3435e-05,7.3972,-0.00012066,-347.4,1.3677
517,1.3902,4.6855,0.1,0.00054284,5424.6,0.00056058,6120.8,-7.3814e-05,1354.2,-0.00022502,218.08,0.01056
518,17.05,0.7267,0.1,0.00012863,1285.4,0.0001216,1109.3,-3.1994e-05,-44.748,-6.2777e-05,-276.04,1.3002
519,18.596,2.4172,0.1,0.00024449,2443.2,0.0002438,2428.7,-7.1724e-05,57.961,-9.0228e-05,-81.069,1.5093
520,17.671,2.2038,0.1,0.00030739,3071.8,0.00029956,2881.6,-7.9311e-05,34.873,-0.00013376,-374.21,1.3845
521,18.594,2.0599,0.1,0.00020469,2045.4,0.00020779,2137.7,-6.1031e-05,117.84,-6.7723e-05,67.557,1.5086
522,18.592,1.6667,0.1,0.00015835,1582.4,0.00015492,1509.8,-3.7272e-05,65.815,-7.0219e-05,-181.74,1.5077
523,18.601,1.3385,0.1,0.00010936,1092.8,0.00010451,981.42,-2.4496e-05,12.099,-5.3119e-05,-202.96,1.5085
524,18.633,1.0236,0.1,8.2534e-05,824.77,7.943e-05,750.92,-1.9839e-05,5.0518,-3.8459e-05,-134.85,1.5125
525,18.56,0.73776,0.1,6.0853e-05,608.11,5.5043e-05,488.7,-8.7354e-06,9.4937,-3.6005e-05,-195.4,1.5019
526,17.536,3.8979,0.1,0.0002439,2437.3,0.00023733,2299.5,-5.471e-05,105.23,-0.00011182,-323.87,1.3667
527,17.583,4.264,0.1,0.00023206,2319,0.00020509,1772.9,-2.8487e-05,17.908,-0.0001448,-856.04,1.3719
528,17.63,4.6181,0.1,0.00017642,1763,0.00014824,1218,-1.3017e-05,6.3687,-0.00012094,-804.51,1.3769
529,17.6,4.9507,0.1,0.00011985,1197.7,0.00010595,921.45,-1.377e-05,21.929,-7.4983e-05,-438,1.3717
530,17.516,5.2596,0.1,9.1042e-05,909.79,8.5812e-05,798.48,-1.7139e-05,24.952,-4.7594e-05,-203.88,1.3598
531,1.4072,5.3405,0.1,0.00056533,5649.4,0.00057724,6026.1,-0.0001425,618.25,-0.00020314,162.68,0.0096341
532,2.1271,5.3528,0.1,0.0005651,5647.1,0.00056969,5801.2,-0.00015493,356.61,-0.00020623,-28.786,0.022826
533,2.8559,5.3668,0.1,0.00054731,5469.3,0.00055184,5613.6,-0.00015615,294.09,-0.00019449,5.9945,0.042042
534,3.5947,5.3665,0.1,0.00052754,5271.8,0.00053103,5381.1,-0.00015546,223.03,-0.00018481,2.4916,0.067517
535,4.3136,5.3665,0.1,0.00050423,5038.8,0.00050712,5127.6,-0.00015251,171.42,-0.00017399,10.026,0.097852
536,5.0324,5.376,0.1,0.00048219,4818.6,0.00048425,4881.3,-0.0001488,124.87,-0.00016502,2.986,0.13335
537,5.751,5.376,0.1,0.00046061,4602.9,0.00046215,4649.3,-0.00014457,90.666,-0.0001562,3.2643,0.17391
538,6.4704,5.3665,0.1,0.00043941,4391.1,0.00044052,4424.1,-0.0001397,64.62,-0.00014802,2.1308,0.21935
539,7.1891,5.3757,0.1,0.00041823,4179.4,0.000419,4202.2,-0.00013438,44.354,-0.00014008,1.5173,0.26918
540,7.907,5.3778,0.1,0.00039737,3970.9,0.00039788,3986.2,-0.00012871,29.598,-0.0001325,1.1012,0.32332
541,8.6255,5.3819,0.1,0.0003767,3764.4,0.00037701,3773.7,-0.00012287,17.814,-0.00012511,0.97264,0.3816
542,9.3457,5.3757,0.1,0.00035623,3559.9,0.0003564,3564.7,-0.00011682,9.1149,-0.00011797,0.50895,0.44397
543,10.065,5.3757,0.1,0.00033604,3358.1,0.00033609,3359.4,-0.00011072,2.2977,-0.00011097,0.44008,0.50993
544,10.785,5.3744,0.1,0.00031613,3159.1,0.00031609,3157.9,-0.00010414,0.41981,-0.00010459,-2.9193,0.57943
545,11.505,5.3773,0.1,0.00029645,2962.5,0.00029633,2958.8,-9.7441e-05,0.15673,-9.847e-05,-7.5711,0.65218
546,12.222,5.3665,0.1,0.00027708,2768.9,0.00027686,2762.6,-9.0797e-05,0.1691,-9.2495e-05,-12.588,0.72768
547,12.941,5.3665,0.1,0.00025781,2576.3,0.00025752,2567.9,-8.4229e-05,0.1303,-8.649e-05,-16.858,0.80622
548,13.66,5.3665,0.1,0.00023887,2387.1,0.00023849,2376.1,-7.7786e-05,-0.27492,-8.0603e-05,-21.439,0.88742
549,14.368,5.3716,0.1,0.00022017,2200.1,0.0002196,2183.7,-7.1204e-05,-1.2618,-7.5204e-05,-31.316,0.96974
550,15.07,5.3776,0.1,0.00020044,2003,0.00019962,1979.7,-6.3998e-05,-1.0486,-6.9832e-05,-44.879,1.0536
551,15.765,5.3782,0.1,0.00017879,1786.6,0.00017722,1742.3,-5.6284e-05,-12.187,-6.4622e-05,-74.832,1.1385
552,16.407,5.4064,0.1,0.00014996,1498.5,0.00014777,1439.7,-4.4181e-05,-2.4922,-5.8409e-05,-109.4,1.2184
553,16.995,5.4935,0.1,0.00011715,1170.7,0.00011524,1120,-3.3877e-05,-0.35804,-4.6508e-05,-95.266,1.2924
554,17.512,5.5871,0.1,6.8257e-05,682.1,6.7181e-05,655.15,-1.8883e-05,8.4983,-2.7678e-05,-57.588,1.3581
555,0.65452,1.3174,0.1,0.00060636,6059.4,0.00057316,5811.5,-2.2131e-05,1338.7,-0.00034465,-1084.6,0.0023151
556,0.64421,1.9878,0.1,0.00063559,6351.5,0.00059972,6144.4,-9.7281e-06,1565.2,-0.00036533,-1106.6,0.002386
557,0.63892,2.6576,0.1,0.00065173,6512.8,0.00061354,6291.6,-5.8804e-06,1637.6,-0.00037704,-1151.2,0.0024047
558,0.64181,3.3367,0.1,0.00065111,6506.6,0.00061306,6289.7,-5.6067e-06,1641.3,-0.00037661,-1146.3,0.002426
559,0.66699,4.012,0.1,0.00063382,6333.8,0.00059833,6129.7,-1.0447e-05,1555.5,-0.00036382,-1099.6,0.0025553
560,0.68725,4.677,0.1,0.00060543,6050.1,0.00057258,5803.4,-2.3213e-05,1326.8,-0.0003435,-1079.7,0.0025526
561,0.69731,5.3437,0.1,0.00055029,5499.1,0.00053148,5236.9,-8.2594e-05,622.91,-0.00027838,-848.13,0.0022583
562,16.626,0.49764,0.1,0.00013245,1323.6,0.00012995,1254.1,-4.0383e-05,-25.748,-5.1494e-05,-109.23,1.2457
563,15.955,0.55623,0.1,0.0001698,1696.9,0.00016799,1644.9,-5.4222e-05,-24.785,-6.1304e-05,-77.999,1.1619
564,15.3,0.59319,0.1,0.00019232,1921.8,0.00019132,1893.3,-6.1338e-05,-5.0842,-6.748e-05,-51.227,1.0815
565,14.658,0.61781,0.1,0.00021195,2118.1,0.00021122,2097.2,-6.7997e-05,-0.79909,-7.328e-05,-40.494,1.0042
566,13.997,0.6254,0.1,0.00023017,2300.2,0.00022969,2286.1,-7.4622e-05,-0.36164,-7.8234e-05,-27.502,0.92645
567,13.333,0.63347,0.1,0.00024776,2475.9,0.00024741,2465.8,-8.0819e-05,-0.42762,-8.3386e-05,-19.711,0.85029
568,12.667,0.63347,0.1,0.00026538,2651.9,0.00026512,2644.6,-8.6871e-05,-0.14308,-8.8769e-05,-14.405,0.776
569,12,0.63347,0.1,0.00028311,2829.1,0.00028293,2824,-9.2889e-05,0.22047,-9.431e-05,-10.455,0.70406
570,11.333,0.63347,0.1,0.00030111,3009,0.000301,3005.9,-9.9018e-05,0.27493,-9.9928e-05,-6.5632,0.63462
571,10.667,0.63347,0.1,0.00031934,3191.2,0.00031931,3190.2,-0.00010524,0.35496,-0.00010558,-2.2151,0.56785
572,10,0.63347,0.1,0.0003378,3375.7,0.00033786,3377.5,-0.00011125,2.9922,-0.00011158,0.51816,0.50392
573,9.3333,0.63347,0.1,0.00035652,3562.7,0.00035669,3567.8,-0.00011688,9.5246,-0.00011807,0.57865,0.44298
574,8.6667,0.63347,0.1,0.00037543,3751.7,0.00037574,3760.9,-0.00012246,17.63,-0.00012469,0.8908,0.3852
575,8,0.63347,0.1,0.00039455,3942.8,0.00039504,3957.4,-0.00012791,28.12,-0.00013149,1.2685,0.33076
576,7.3333,0.63347,0.1,0.00041388,4136,0.0004146,4157.4,-0.00013316,41.74,-0.00013852,1.4838,0.27983
577,6.6667,0.63347,0.1,0.00043338,4330.8,0.0004344,4361.3,-0.00013815,59.426,-0.00014577,2.1866,0.23258
578,6,0.63347,0.1,0.00045319,4528.8,0.00045458,4570.6,-0.00014278,82.295,-0.0001534,2.5175,0.1892
579,5.3333,0.63347,0.1,0.0004732,4728.7,0.00047505,4784.8,-0.00014703,110.77,-0.00016135,3.1452,0.14985
580,4.6667,0.63347,0.1,0.00049343,4930.9,0.00049585,5004.7,-0.00015082,145.97,-0.00016962,4.673,0.11473
581,4,0.63347,0.1,0.00051355,5132,0.00051669,5229.3,-0.00015362,192.83,-0.00017837,6.8527,0.084008
582,3.3301,0.62518,0.1,0.00053391,5335.4,0.00053774,5455.7,-0.00015602,243.07,-0.00018765,5.4036,0.057715
583,2.6586,0.63007,0.1,0.00055302,5526.4,0.00055806,5686.6,-0.00015651,317.56,-0.00019676,15.158,0.036248
584,1.9899,0.64114,0.1,0.00056875,5683.6,0.00057359,5847.3,-0.00015416,379.3,-0.0002086,-29.74,0.019841
585,1.3229,0.6544,0.1,0.00056333,5629.5,0.00057565,6020.7,-0.00013996,643.93,-0.0002032,168.75,0.0084568
586,0.65999,0.65807,0.1,0.00054862,5482.4,0.0005298,5232.6,-7.9186e-05,656.93,-0.00027894,-843.95,0.0020152
587,17.582,1.9623,0.1,0.00025488,2547.1,0.00024662,2388.8,-5.0512e-05,156.26,-0.00012263,-385.64,1.3724
588,17.525,1.6879,0.1,0.00022499,2248.4,0.00020152,1774.5,-2.9227e-05,40.76,-0.00013659,-765.92,1.3643
589,17.527,1.3436,0.1,0.00016172,1616.1,0.00014121,1203.6,-1.8247e-05,5.4543,-0.00010342,-634.47,1.3634
590,17.526,0.98989,0.1,0.00011419,1141.1,0.000102,887.35,-1.6117e-05,-0.16659,-6.9305e-05,-399.81,1.362
591,17.401,0.58501,0.1,8.0074e-05,800.18,7.6144e-05,712.91,-1.675e-05,14.94,-4.0087e-05,-160.41,1.3445
592,17.337,0.31859,0.1,8.2733e-05,826.76,8.0905e-05,780.47,-2.2499e-05,3.537,-3.4739e-05,-88.427,1.3354
593,22.716,0.65976,0.1,2.762e-05,276.01,2.7084e-05,261.82,-7.9248e-06,-1.2211,-1.1162e-05,-25.541,2.0925
594,22.075,0.65509,0.1,3.9989e-05,399.62,3.9758e-05,393.11,-1.2558e-05,0.030805,-1.4257e-05,-12.737,2.0002
595,21.433,0.64604,0.1,5.2247e-05,522.11,5.2151e-05,519.31,-1.706e-05,-0.71587,-1.7611e-05,-4.8568,1.9081
596,20.791,0.63353,0.1,6.3271e-05,632.27,6.3166e-05,629.2,-2.0787e-05,-1.5841,-2.118e-05,-4.5384,1.8163
597,20.173,0.61199,0.1,7.0241e-05,701.92,7.0018e-05,695.42,-2.2921e-05,-2.8863,-2.3877e-05,-10.075,1.7285
598,19.546,0.5675,0.1,7.0407e-05,703.59,6.9563e-05,678.91,-2.3302e-05,-18.839,-2.4836e-05,-30.363,1.6399
599,18.878,0.48401,0.1,5.5837e-05,557.99,5.459e-05,524.46,-1.6199e-05,-7.4167,-2.2719e-05,-56.406,1.546
600,18.623,4.0093,0.1,0.00018872,1885.9,0.0001923,1994.8,-5.1955e-05,159.55,-6.4939e-05,62.003,1.5124
601,18.697,4.2944,0.1,0.00014894,1488.4,0.00014697,1439.7,-4.1397e-05,24.32,-5.9591e-05,-112.39,1.5223
602,18.679,4.5973,0.1,0.00011524,1151.6,0.00011033,1031,-2.8529e-05,-12.374,-5.411e-05,-204.59,1.5194
603,18.637,4.9358,0.1,8.4019e-05,839.61,7.9933e-05,750.94,-1.7047e-05,22.274,-4.2267e-05,-167.22,1.513
604,18.77,5.6125,0.1,4.8757e-05,487.24,4.8106e-05,471.29,-1.3443e-05,8.8317,-1.9601e-05,-37.434,1.5306
605,19.365,5.5219,0.1,6.7233e-05,671.87,6.6629e-05,654.8,-2.1074e-05,-4.1679,-2.4414e-05,-29.264,1.6142
606,19.926,5.4093,0.1,7.2029e-05,719.8,7.1578e-05,707.61,-2.1965e-05,4.7611,-2.6328e-05,-28.02,1.6933
607,20.486,5.3643,0.1,6.8116e-05,680.69,6.795e-05,675.85,-2.2209e-05,-1.5634,-2.3073e-05,-8.0581,1.7728
608,21.083,5.3665,0.1,5.8536e-05,584.96,5.8562e-05,585.71,-1.9235e-05,1.1696,-1.9348e-05,0.32685,1.8579
609,21.667,5.3665,0.1,4.7898e-05,478.65,4.7781e-05,475.26,-1.5526e-05,-0.4005,-1.6314e-05,-6.3235,1.9415
610,22.25,5.3665,0.1,3.6665e-05,366.4,3.6387e-05,358.65,-1.1359e-05,-0.088981,-1.3338e-05,-14.958,2.0253
611,22.83,5.3507,0.1,2.5318e-05,253.01,2.4722e-05,237.52,-7.0481e-06,-1.1912,-1.0576e-05,-27.697,2.109
612,23.415,5.3345,0.1,1.4877e-05,148.66,1.3652e-05,123.18,-2.357e-06,2.8975,-8.469e-06,-43.026,2.1934
613,23.405,4.6677,0.1,1.6825e-05,168.14,1.4641e-05,126.24,-1.5127e-06,4.8708,-1.0902e-05,-65.673,2.1923
614,23.367,4,0.1,1.818e-05,181.68,1.5574e-05,132.21,-1.3734e-06,4.8814,-1.2116e-05,-75.833,2.187
615,23.373,3.3303,0.1,1.8385e-05,183.72,1.5657e-05,131.77,-1.3555e-06,3.9451,-1.2364e-05,-78.769,2.188
616,23.367,2.6667,0.1,1.8569e-05,185.56,1.5873e-05,134.15,-1.4207e-06,4.2111,-1.2411e-05,-78.367,2.1871
617,23.367,2,0.1,1.8323e-05,183.11,1.5795e-05,134.59,-1.5424e-06,4.3306,-1.2069e-05,-74.765,2.187
618,23.358,1.3267,0.1,1.7631e-05,176.19,1.5608e-05,137.02,-1.856e-06,5.8001,-1.1044e-05,-63.239,2.1857
619,23.358,0.66275,0.1,1.5878e-05,158.67,1.4776e-05,135.47,-2.7553e-06,3.7497,-8.6676e-06,-40.673,2.1853
620,17.877,3.6214,0.1,0.00034144,3412,0.00032589,3020.6,-8.6925e-05,-81.159,-0.00016053,-634.21,1.4121
621,18.285,2.2981,0.1,0.00035929,3590.4,0.00034728,3271.4,-0.00010106,-97.24,-0.00015543,-505.75,1.4667
622,3.6044,3.1025,0.1,0.00049247,4921.3,0.00050098,5255.1,-9.8384e-05,751.64,-0.00019817,1.9094,0.073948
623,3.0261,3.0896,0.1,0.00049822,4978.8,0.00050743,5361.6,-8.9413e-05,877.13,-0.00020562,4.0174,0.052747
624,2.4895,3.5864,0.1,0.00053105,5306.8,0.00054084,5779.7,-7.5841e-05,1146.2,-0.00022969,-9.8022,0.035855
625,2.9818,3.6542,0.1,0.00049982,4994.8,0.0005077,5371.3,-8.0977e-05,948.25,-0.00021326,-45.687,0.050892
626,3.6095,3.6392,0.1,0.00048867,4883.3,0.00049744,5202.7,-0.00010556,672.05,-0.00019097,30.257,0.07376
627,4.2767,3.592,0.1,0.00047855,4782.2,0.00048497,5011.1,-0.0001146,506.13,-0.00018289,-6.9748,0.1024
628,5.0096,3.5242,0.1,0.00045785,4575.4,0.00046301,4753.9,-0.0001167,398.21,-0.00017147,-13.32,0.13885
629,5.8072,3.5989,0.1,0.00044654,4462.3,0.00045004,4576.6,-0.00012553,252.03,-0.00016063,-11.724,0.18402
630,6.5344,3.6288,0.1,0.00042613,4258.4,0.00042905,4349.5,-0.00012555,182.45,-0.00014913,5.2889,0.23024
631,7.2368,3.6337,0.1,0.00040905,4087.7,0.00041105,4149.4,-0.00012393,129.84,-0.00014163,-3.2034,0.27922
632,7.9376,3.6275,0.1,0.00039056,3902.9,0.00039206,3948.5,-0.00012115,92.502,-0.0001334,0.45764,0.33216
633,8.6369,3.6181,0.1,0.00037205,3717.9,0.00037308,3749,-0.00011744,63.429,-0.00012595,-0.50385,0.38882
634,9.3234,3.6305,0.1,0.00035365,3534.1,0.00035434,3554.6,-0.00011324,41.422,-0.00011875,-0.0078776,0.44796
635,10.018,3.6646,0.1,0.00033501,3347.8,0.00033541,3359.6,-0.00010851,24.24,-0.00011179,-0.40143,0.51115
636,10.717,3.6755,0.1,0.00031634,3161.2,0.00031654,3167,-0.00010346,11.371,-0.00010493,0.28888,0.5781
637,11.428,3.6601,0.1,0.00029764,2974.4,0.0002976,2973.1,-9.804e-05,0.41772,-9.8489e-05,-2.9527,0.64936
638,12.165,3.6511,0.1,0.00027804,2778.4,0.00027787,2773.7,-9.1021e-05,1.9932,-9.2801e-05,-11.386,0.72638
639,12.877,3.5904,0.1,0.000261,2608.2,0.00026047,2592.8,-8.4624e-05,-0.052773,-8.866e-05,-30.373,0.80379
640,13.663,3.5078,0.1,0.00023818,2380.1,0.00023774,2367.4,-7.7716e-05,-2.7768,-8.0335e-05,-22.456,0.89216
641,2.5539,2.5223,0.1,0.00050998,5096.3,0.0005195,5569.4,-6.8455e-05,1151.7,-0.00022258,-6.3184,0.037793
642,15.187,2.4313,0.1,0.00020845,2083.1,0.00020694,2042.1,-6.3356e-05,11.209,-7.677e-05,-89.577,1.0717
643,22.152,3.3442,0.1,3.9041e-05,390.14,3.9003e-05,389.05,-1.2728e-05,0.35971,-1.3112e-05,-2.5252,2.012
644,15.927,2.1993,0.1,0.00020435,2042.1,0.00020125,1961.1,-5.8577e-05,8.8483,-8.1106e-05,-160.42,1.1622
645,16.106,3.11,0.1,0.00019783,1976.9,0.00019652,1941.5,-6.0442e-05,10.794,-7.233e-05,-78.53,1.185
646,22.791,4.0108,0.1,2.7543e-05,275.24,2.6542e-05,250.4,-7.0131e-06,-1.7198,-1.2539e-05,-43.242,2.1039
647,22.75,3.3331,0.1,2.8294e-05,282.75,2.7313e-05,258.45,-7.2177e-06,-1.0003,-1.2796e-05,-42.913,2.0981
648,22.733,2.6667,0.1,2.8558e-05,285.38,2.7608e-05,261.69,-7.3788e-06,-1.1861,-1.2789e-05,-41.836,2.0957
649,22.729,1.9939,0.1,2.8611e-05,285.92,2.7686e-05,262.82,-7.4175e-06,-0.93553,-1.2754e-05,-41.032,2.095
650,1.2978,1.9601,0.1,0.00054513,5447.5,0.00056321,6308.2,-3.5618e-05,1808.8,-0.00024287,251.61,0.0097294
651,1.2644,2.6303,0.1,0.00054991,5495.3,0.00056803,6413.7,-2.4331e-05,1963,-0.00024945,271.54,0.0094625
652,1.2669,3.3333,0.1,0.00055289,5525.1,0.00057074,6431,-2.6271e-05,1945.3,-0.00025065,259.43,0.0095032
653,1.3424,4.0156,0.1,0.00054423,5438.6,0.00056122,6273.5,-3.5064e-05,1793.2,-0.00024413,222.37,0.01041
654,2.1006,4.7045,0.1,0.00053856,5381.9,0.00054644,5710.2,-0.00010711,799.62,-0.00021932,-43.44,0.02419
655,2.836,4.7427,0.1,0.00052636,5260,0.000534,5526.8,-0.00012647,564.23,-0.00019986,12.866,0.043939
656,3.5884,4.7657,0.1,0.00051245,5120.9,0.00051769,5305.5,-0.00013102,431.35,-0.00019253,-30.846,0.070085
657,4.3177,4.7539,0.1,0.00049174,4914,0.00049633,5063.9,-0.00013546,316.86,-0.00017785,-1.6077,0.10113
658,5.031,4.7474,0.1,0.00047275,4724.2,0.00047611,4831.1,-0.00013673,226.51,-0.00016744,-4.246,0.13659
659,5.7477,4.7554,0.1,0.00045398,4536.6,0.00045645,4613.9,-0.00013588,163.38,-0.00015818,-4.2355,0.17703
660,6.47,4.7501,0.1,0.00043479,4344.9,0.00043666,4402.3,-0.00013335,119.45,-0.00014953,-2.097,0.22258
661,7.1908,4.7523,0.1,0.00041445,4141.6,0.00041583,4183.5,-0.00012973,84.341,-0.00014087,0.66656,0.27256
662,7.9098,4.7514,0.1,0.00039457,3942.9,0.0003955,3970.9,-0.00012532,57.691,-0.00013314,-1.0227,0.32672
663,8.6275,4.7666,0.1,0.00037465,3743.9,0.00037527,3762.4,-0.00012048,37.561,-0.00012551,-0.28385,0.3848
664,9.3415,4.7682,0.1,0.00035492,3546.7,0.0003553,3557.9,-0.00011521,22.755,-0.00011827,-0.24695,0.44647
665,10.062,4.7736,0.1,0.0003351,3348.7,0.00033528,3354.1,-0.00010965,11.067,-0.00011114,-0.16478,0.51232
666,10.788,4.7678,0.1,0.00031532,3151,0.00031535,3151.9,-0.00010384,2.2496,-0.00010421,-0.51902,0.58227
667,11.508,4.7524,0.1,0.00029597,2957.6,0.00029589,2955.3,-9.7353e-05,0.63042,-9.8143e-05,-5.3125,0.65497
668,12.224,4.7454,0.1,0.00027698,2767.9,0.00027676,2761.5,-9.0731e-05,0.31751,-9.2507e-05,-13.029,0.73026
669,12.944,4.7434,0.1,0.00025804,2578.6,0.00025769,2568.4,-8.4088e-05,0.46405,-8.6901e-05,-20.672,0.8088
670,13.66,4.7331,0.1,0.00023942,2392.6,0.00023891,2377.8,-7.7428e-05,0.98163,-8.1573e-05,-30.163,0.88955
671,14.363,4.742,0.1,0.00022227,2221.1,0.0002215,2199.2,-7.1385e-05,-1.4654,-7.6769e-05,-41.923,0.97123
672,22.088,1.3152,0.1,3.9997e-05,399.7,3.982e-05,394.71,-1.2641e-05,0.53104,-1.4082e-05,-10.293,2.0025
673,21.452,1.2973,0.1,5.2122e-05,520.86,5.2271e-05,525.42,-1.6327e-05,9.9914,-1.7752e-05,-0.71563,1.9112
674,20.821,1.2735,0.1,6.3861e-05,638.16,6.4319e-05,652.38,-1.8865e-05,27.367,-2.2265e-05,1.8222,1.821
675,15.321,1.2127,0.1,0.00019711,1969.8,0.00019565,1930.5,-5.9514e-05,13.301,-7.2993e-05,-87.98,1.0859
676,14.661,1.2402,0.1,0.00021538,2152.4,0.00021443,2125,-6.882e-05,-3.2201,-7.5143e-05,-50.729,1.0065
677,13.993,1.2515,0.1,0.00023155,2313.9,0.00023103,2298.8,-7.4655e-05,2.005,-7.9178e-05,-31.98,0.92802
678,13.33,1.261,0.1,0.00024829,2481.2,0.00024789,2469.5,-8.0704e-05,0.58837,-8.395e-05,-23.8,0.85202
679,12.667,1.2669,0.1,0.00026536,2651.8,0.00026509,2644.1,-8.6752e-05,0.42523,-8.8904e-05,-15.741,0.7783
680,12,1.2669,0.1,0.00028285,2826.5,0.00028269,2821.8,-9.2856e-05,0.14439,-9.4143e-05,-9.5236,0.70649
681,11.333,1.2669,0.1,0.00030057,3003.6,0.00030052,3002.2,-9.9034e-05,0.11993,-9.9433e-05,-2.8753,0.63718
682,10.667,1.2669,0.1,0.00031853,3183.1,0.00031861,3185.4,-0.00010476,4.3769,-0.00010532,0.16543,0.57055
683,10,1.2669,0.1,0.00033671,3364.8,0.00033693,3371.3,-0.00011002,13.073,-0.00011177,-0.032643,0.50674
684,9.3333,1.2669,0.1,0.000355,3547.6,0.0003554,3559.4,-0.00011514,23.976,-0.00011835,-0.12948,0.44592
685,8.6667,1.2669,0.1,0.00037346,3732,0.00037408,3750.6,-0.00012006,37.819,-0.00012515,-0.43588,0.38827
686,8,1.2669,0.1,0.00039194,3916.7,0.00039285,3943.9,-0.00012464,55.683,-0.00013215,-0.71777,0.33393
687,7.3333,1.2669,0.1,0.00041039,4101.1,0.00041166,4139.4,-0.00012875,78.985,-0.00013943,-1.2498,0.28308
688,6.6667,1.2669,0.1,0.00042876,4284.7,0.00043049,4337.6,-0.00013223,109.52,-0.000147,-1.4447,0.2359
689,6,1.2669,0.1,0.00044692,4466.1,0.00044925,4538.5,-0.00013468,151.02,-0.00015509,-2.3348,0.19254
690,5.3333,1.2669,0.1,0.00046508,4647.6,0.00046821,4746,-0.0001362,204.73,-0.0001636,-1.093,0.15317
691,4.6667,1.2669,0.1,0.00048308,4827.4,0.00048705,4955.7,-0.00013615,273.28,-0.00017314,-4.6705,0.11797
692,3.9934,1.2511,0.1,0.00049974,4994,0.00050474,5160.4,-0.00013417,359.86,-0.00018298,-6.833,0.08674
693,3.32,1.2526,0.1,0.00051623,5158.7,0.00052242,5373.9,-0.00012957,475.17,-0.00019419,-10.349,0.06015
694,2.65,1.2638,0.1,0.00053049,5301.2,0.00053845,5592.6,-0.0001202,643.79,-0.00020613,-1.8714,0.038409
695,1.9806,1.2837,0.1,0.00054321,5428.4,0.00055057,5759.2,-0.00010271,850.77,-0.00022538,-70.986,0.021479
696,21.474,1.9593,0.1,5.1941e-05,519.05,5.2355e-05,532.31,-1.4792e-05,27.794,-1.8512e-05,-0.15551,1.9146
697,22.724,1.3256,0.1,2.831e-05,282.9,2.7526e-05,263.15,-7.5314e-06,-0.2597,-1.2271e-05,-35.87,2.0941
698,1.3145,1.3059,0.1,0.00054197,5415.9,0.00055994,6126.7,-7.1185e-05,1384.6,-0.00022555,224.78,0.0094318
699,20.202,1.249,0.1,7.5121e-05,750.69,7.5387e-05,760.1,-2.1721e-05,30.47,-2.7109e-05,-10.015,1.733
700,16.185,1.9033,0.1,0.00018253,1824,0.000181,1780.3,-5.7941e-05,-14.985,-6.5412e-05,-71.121,1.1939
701,16.226,2.7263,0.1,0.00019713,1970,0.00019527,1916.3,-6.2989e-05,-24.09,-7.0681e-05,-81.884,1.1999
702,21.071,4.7262,0.1,5.9347e-05,593.06,5.9711e-05,604.45,-1.7591e-05,23.636,-2.0755e-05,-0.14004,1.8565
703,21.663,4.7264,0.1,4.8072e-05,480.39,4.8144e-05,482.51,-1.5575e-05,3.7557,-1.6007e-05,0.50491,1.9413
704,22.25,4.7331,0.1,3.7026e-05,370.01,3.6747e-05,362.33,-1.1383e-05,0.69733,-1.3541e-05,-15.519,2.0257
705,22.812,4.6901,0.1,2.6665e-05,266.47,2.5761e-05,244.3,-6.73e-06,0.17878,-1.2072e-05,-39.961,2.1066
706,20.848,1.9181,0.1,6.5094e-05,650.49,6.5916e-05,679.28,-1.606e-05,63.35,-2.4623e-05,-0.98824,1.8251
707,20.475,4.7733,0.1,7.037e-05,703.21,7.0668e-05,714.1,-1.9759e-05,34.667,-2.5797e-05,-10.701,1.7717
708,20.899,2.5852,0.1,6.5272e-05,652.27,6.6383e-05,691.37,-1.4937e-05,80.361,-2.5037e-05,4.4752,1.8326
709,15.718,4.7543,0.1,0.00018883,1887,0.00018723,1842.3,-5.8352e-05,-2.8434,-6.9145e-05,-83.94,1.1346
710,20.301,2.9973,0.1,8.649e-05,864.31,8.7807e-05,915.16,-1.8409e-05,117.09,-3.4374e-05,-2.858,1.7476
711,19.801,3.814,0.1,9.5739e-05,956.73,9.7301e-05,1015.8,-2.0394e-05,131.48,-3.7866e-05,0.19718,1.6768
712,19.276,5.1253,0.1,8.2288e-05,822.31,8.1056e-05,787.71,-2.5434e-05,-12.413,-3.1119e-05,-55.13,1.6021
713,16.802,4.4171,0.1,0.00017922,1791,0.00017165,1607.1,-4.3615e-05,-10.332,-8.4516e-05,-317.65,1.2711
714,19.633,3.195,0.1,0.00011181,1117.3,0.00011379,1189,-2.4455e-05,150.29,-4.3528e-05,6.9865,1.6534
715,19.017,2.5802,0.1,0.00016235,1622.4,0.00016376,1665.8,-4.7401e-05,79.281,-5.6645e-05,9.8318,1.5674
716,18.996,2.1311,0.1,0.00014428,1441.8,0.0001439,1432.1,-4.4563e-05,16.024,-5.123e-05,-34.072,1.5643
717,17.83,2.9672,0.1,0.00029365,2934.5,0.00028527,2724.6,-7.7333e-05,0.14713,-0.00012824,-382.38,1.4063
718,17.01,5.0591,0.1,0.00014108,1409.8,0.00013596,1282.2,-3.6158e-05,-11.03,-6.406e-05,-220.67,1.2958
719,18.184,3.0518,0.1,0.00029246,2922.6,0.00028559,2746.2,-8.0324e-05,-3.112,-0.00012294,-323.28,1.4536
720,17.434,2.3704,0.1,0.00025459,2544.2,0.00024792,2371.1,-7.0253e-05,-19.519,-0.00010796,-302.87,1.3539
721,18.716,5.2714,0.1,5.8837e-05,587.96,5.7676e-05,560.81,-1.5113e-05,13.902,-2.5086e-05,-61.028,1.5236
722,18.564,3.6334,0.1,0.00025528,2551,0.00025566,2567.9,-7.4052e-05,90.584,-9.2889e-05,-50.946,1.5048
723,17.957,2.2411,0.1,0.00041574,4154.5,0.00039325,3576.1,-0.00010848,-193.67,-0.00019956,-878.03,1.4224
724,18.194,3.7354,0.1,0.0003846,3843.3,0.00036696,3386,-0.00010264,-142.35,-0.00017809,-709.29,1.4542
725,18.167,0.33333,0.1,3.454e-05,345.16,3.6105e-05,392.47,-8.0899e-06,60.403,-1.1397e-05,35.552,1.4462
726,18.167,0.66667,0.1,4.0459e-05,404.31,3.9879e-05,390.04,-1.1129e-05,6.7913,-1.6353e-05,-32.461,1.4468
727,18.167,1,0.1,7.5012e-05,749.6,7.2041e-05,691.42,-1.4261e-05,42.977,-3.7194e-05,-129.33,1.4474
728,18.167,1.3333,0.1,0.00011705,1169.7,0.0001108,1038.5,-2.2065e-05,40.201,-6.049e-05,-248.51,1.4482
729,18.167,1.6667,0.1,0.00022957,2294.1,0.00020482,1818.9,-2.4728e-05,94.138,-0.0001417,-784.77,1.449
730,18.167,2,0.1,0.00057961,5792.1,0.00058252,5908.3,-0.00015341,378.84,-0.0002191,-114.68,1.4499
731,18,2,0.1,0.00062291,6224.8,0.00058576,5531.4,-9.3557e-05,427.31,-0.00033722,-1403.4,1.4275
732,18,1.6667,0.1,0.0002935,2933,0.00024086,1977.2,-8.9355e-06,100.35,-0.00020896,-1402.6,1.4261
733,18,1.3333,0.1,0.00016886,1687.5,0.00014626,1256.8,-1.4204e-05,51.152,-0.00011041,-671.67,1.4246
734,18,1,0.1,0.00010602,1059.5,9.4482e-05,845.09,-1.0051e-05,59.668,-6.5894e-05,-359.91,1.4231
735,18,0.66667,0.1,6.6316e-05,662.7,6.4921e-05,646.42,-1.1652e-05,71.079,-3.1517e-05,-78.175,1.4217
736,18,0.33333,0.1,3.7118e-05,370.92,4.0092e-05,461.46,-6.4173e-06,112,-1.1705e-05,72.274,1.4202
737,18.167,5.6667,0.1,2.857e-05,285.51,3.0308e-05,338.93,-5.51e-06,69.809,-9.5485e-06,39.465,1.4461
738,18.167,5.3333,0.1,4.8588e-05,485.54,4.899e-05,498.25,-1.3945e-05,25.383,-1.7197e-05,0.95107,1.4467
739,18.167,5,0.1,7.7247e-05,771.94,7.4768e-05,722.18,-1.6008e-05,40.122,-3.6765e-05,-115.83,1.4474
740,18.167,4.6667,0.1,0.00013297,1328.8,0.00012793,1228.2,-2.6152e-05,70.461,-6.5172e-05,-222.72,1.4481
741,18.167,4.3333,0.1,0.00023192,2317.6,0.00021727,2027.7,-3.7367e-05,114.44,-0.00012571,-549.35,1.4489
742,18.167,4,0.1,0.00058323,5828.3,0.00058296,5911.9,-0.00012957,558.24,-0.00024335,-296.65,1.4499
743,18,4,0.1,0.00060072,6003.1,0.0005791,5561,-0.0001229,286.47,-0.0002903,-971.3,1.4275
744,18,4.3333,0.1,0.00032371,3234.9,0.00026263,2130.5,-7.1685e-06,103.4,-0.00023389,-1600.1,1.4261
745,18,4.6667,0.1,0.0001564,1562.9,0.00013063,1092.5,-6.7399e-06,60.299,-0.00010868,-705.64,1.4246
746,18,5,0.1,9.5606e-05,955.4,8.3683e-05,723.32,-9.5522e-06,22.789,-6.1164e-05,-365,1.4231
747,18,5.3333,0.1,6.2566e-05,625.23,5.9886e-05,573.8,-1.1313e-05,38.839,-3.1592e-05,-113.54,1.4216
748,18,5.6667,0.1,3.6537e-05,365.12,3.7256e-05,389.33,-8.5164e-06,45.412,-1.3738e-05,6.1766,1.4202
749,18.167,6,0.1,1.5601e-05,155.9,1.7053e-05,211.42,6.333e-07,88.042,-6.2664e-06,36.2,1.4455
750,18.75,6,0.1,4.0786e-05,407.58,4.0568e-05,402.07,-1.2123e-05,6.1751,-1.5108e-05,-16.258,1.5272
751,19.333,6,0.1,6.2385e-05,623.42,6.1376e-05,594.08,-2.0478e-05,-20.944,-2.2671e-05,-37.42,1.6091
752,19.917,6,0.1,6.8669e-05,686.22,6.8028e-05,667.7,-2.2113e-05,-9.5866,-2.4446e-05,-27.113,1.6914
753,20.5,6,0.1,6.5521e-05,654.76,6.5172e-05,644.96,-2.0584e-05,0.62376,-2.3295e-05,-19.743,1.7742
754,21.083,6,0.1,5.8672e-05,586.32,5.8392e-05,578.25,-1.8873e-05,-2.2897,-2.0388e-05,-13.677,1.8574
755,21.667,6,0.1,4.8177e-05,481.44,4.7917e-05,474.03,-1.5313e-05,-1.0562,-1.6972e-05,-13.524,1.9409
756,22.25,6,0.1,3.663e-05,366.05,3.6264e-05,355.89,-1.1265e-05,-1.2287,-1.3561e-05,-18.479,2.0248
757,22.833,6,0.1,2.4688e-05,246.71,2.4119e-05,231.46,-7.1226e-06,-3.2699,-1.0106e-05,-25.685,2.109
758,23.417,6,0.1,1.2848e-05,128.39,1.2005e-05,109.29,-2.6025e-06,-0.46819,-6.7852e-06,-31.895,2.1933
759,24,6,0.1,5.6969e-06,56.93,4.4801e-06,35.989,1.0782e-07,3.1369,-4.2689e-06,-29.748,2.2776
760,24,5.3333,0.1,9.1575e-06,91.511,6.5725e-06,49.987,9.1693e-07,7.4939,-7.4065e-06,-55.045,2.278
761,24,4.6667,0.1,1.2074e-05,120.66,7.7297e-06,53.39,2.0292e-06,10.559,-1.0402e-05,-82.841,2.2783
762,24,4,0.1,1.3327e-05,133.18,8.4062e-06,56.033,2.2032e-06,9.4255,-1.1587e-05,-94.188,2.2786
763,24,3.3333,0.1,1.3824e-05,138.14,8.4979e-06,55.442,2.4891e-06,10.294,-1.214e-05,-99.623,2.2787
764,24,2.6667,0.1,1.3812e-05,138.03,8.5223e-06,55.87,2.469e-06,10.388,-1.2111e-05,-99.157,2.2787
765,24,2,0.1,1.3446e-05,134.37,8.465e-06,56.94,2.3055e-06,10.66,-1.1684e-05,-94.453,2.2786
766,24,1.3333,0.1,1.2334e-05,123.26,8.2097e-06,59.387,1.8899e-06,11.902,-1.0415e-05,-80.549,2.2784
767,24,0.66667,0.1,9.5718e-06,95.652,7.204e-06,57.698,7.4648e-07,9.1782,-7.4611e-06,-52.49,2.2781
768,5.8279e-15,0.66667,0.1,0.00034506,3448.3,0.0004596,6814.8,1.9084e-06,3375.9,-5.6035e-07,3357.3,0
769,1.1656e-14,1.3333,0.1,0.00039049,3902.2,0.00052047,7722.8,3.8439e-06,3841.1,-1.559e-06,3800.5,0
770,1.7484e-14,2,0.1,0.0004152,4149.1,0.00055274,8191.7,2.0774e-06,4054.3,-1.0113e-06,4031.1,0
771,2.3312e-14,2.6667,0.1,0.00042519,4248.9,0.0005658,8381.7,6.3519e-07,4135.3,-3.732e-08,4130.2,0
772,2.914e-14,3.3333,0.1,0.00042544,4251.4,0.00056613,8386.7,6.2822e-07,4137.7,-2.2531e-08,4132.8,0
773,3.4968e-14,4,0.1,0.00041571,4154.2,0.00055345,8202.8,2.2081e-06,4060.9,-1.0743e-06,4036.3,0
774,4.0796e-14,4.6667,0.1,0.0003915,3912.3,0.00052187,7744.3,3.9809e-06,3853.1,-1.5952e-06,3811.2,0
775,4.6624e-14,5.3333,0.1,0.00034821,3479.7,0.00046365,6872.7,1.8474e-06,3402.9,-7.7383e-07,3383.2,0
776,3.937e-14,6,0.1,0.00025712,2569.4,0.00030154,3946.8,-2.1342e-06,1665.1,-6.888e-05,1163.6,0
777,0.71893,6,0.1,0.00056962,5692.3,0.00055963,5409,-0.00017824,-135.05,-0.00021626,-420.72,0.0014242
778,1.4379,6,0.1,0.00061104,6106.2,0.00061631,6262,-0.00019043,200.46,-0.0002022,112,0.0077769
779,2.1568,6,0.1,0.00059382,5934.1,0.00059655,6016.4,-0.00018431,149.35,-0.00020185,17.574,0.020279
780,2.8757,6,0.1,0.00056859,5681.9,0.00057161,5772.4,-0.00017701,147.64,-0.00019199,35.039,0.038875
781,3.5947,6,0.1,0.00054312,5427.5,0.00054535,5494,-0.0001709,112.38,-0.00018295,21.847,0.06335
782,4.3136,6,0.1,0.00051688,5165.2,0.00051861,5216.7,-0.00016409,87.172,-0.0001735,16.432,0.093455
783,5.0325,6,0.1,0.00049145,4911.2,0.00049276,4949.9,-0.00015739,64.925,-0.00016431,12.927,0.12892
784,5.7515,6,0.1,0.00046738,4670.6,0.00046833,4698.6,-0.0001508,46.639,-0.00015575,9.4588,0.16948
785,6.4704,6,0.1,0.00044435,4440.4,0.00044502,4460.1,-0.00014427,32.435,-0.00014766,6.9231,0.21489
786,7.1893,6,0.1,0.00042196,4216.7,0.0004224,4229.5,-0.00013776,20.639,-0.00013986,4.8813,0.26489
787,7.9083,6,0.1,0.00040004,3997.6,0.0004003,4005.2,-0.0001312,11.743,-0.00013231,3.4469,0.31926
788,8.6272,6,0.1,0.00037865,3783.9,0.00037876,3787.3,-0.00012467,4.6676,-0.000125,2.1531,0.37776
789,9.3462,6,0.1,0.00035767,3574.2,0.0003577,3575,-0.00011786,1.8672,-0.00011815,-0.29686,0.44017
790,10.065,6,0.1,0.00033711,3368.7,0.00033705,3367,-0.00011094,1.0077,-0.00011166,-4.366,0.50626
791,10.784,6,0.1,0.00031683,3166.1,0.00031671,3162.7,-0.0001041,0.85331,-0.00010524,-7.7504,0.57583
792,11.503,6,0.1,0.00029692,2967.2,0.00029674,2961.9,-9.7462e-05,0.046098,-9.886e-05,-10.457,0.64866
793,12.222,6,0.1,0.00027715,2769.6,0.00027691,2762.5,-9.0841e-05,-0.62184,-9.2559e-05,-13.531,0.72454
794,12.941,6,0.1,0.00025759,2574.1,0.0002573,2565.6,-8.4271e-05,-0.8024,-8.6315e-05,-16.157,0.80327
795,13.66,6,0.1,0.00023811,2379.4,0.00023774,2368.7,-7.7779e-05,-1.968,-8.0094e-05,-19.364,0.88465
796,14.379,6,0.1,0.00021797,2178.2,0.00021745,2163.1,-7.0911e-05,-3.5322,-7.3962e-05,-26.46,0.96847
797,15.098,6,0.1,0.00019618,1960.5,0.00019532,1935.5,-6.3625e-05,-10.121,-6.7534e-05,-39.488,1.0545
798,15.817,6,0.1,0.00016833,1682.1,0.00016698,1643.7,-5.3243e-05,-10.96,-6.038e-05,-64.581,1.1426
799,16.536,6,0.1,0.00013224,1321.5,0.00013039,1269.5,-4.0728e-05,-16.149,-4.991e-05,-85.14,1.2323
800,17.254,6,0.1,8.9674e-05,896.12,8.6241e-05,800.58,-2.7256e-05,-52.189,-3.806e-05,-133.37,1.3235
801,17.641,6,0.1,4.1579e-05,415.51,4.0455e-05,393.29,-8.8909e-06,22.522,-1.9316e-05,-55.807,1.3728
802,18,6,0.1,1.1814e-05,118.06,1.3021e-05,167.8,1.4381e-06,80.771,-4.8648e-06,33.413,1.4188
803,24,0,0.1,6.1263e-06,61.221,5.0937e-06,43.819,-3.1033e-08,5.3143,-4.3019e-06,-26.776,2.2778
804,23.352,0,0.1,1.4177e-05,141.67,1.3428e-05,124.47,-3.0704e-06,0.51051,-7.1244e-06,-29.95,2.1841
805,22.704,0,0.1,2.7357e-05,273.38,2.6843e-05,259.39,-8.1142e-06,-3.2722,-1.0818e-05,-23.586,2.0904
806,22.056,0,0.1,4.0452e-05,404.24,4.0144e-05,395.59,-1.2634e-05,-0.96495,-1.4625e-05,-15.925,1.997
807,21.407,0,0.1,5.2782e-05,527.46,5.2556e-05,520.98,-1.6897e-05,-0.86383,-1.8369e-05,-11.921,1.9039
808,20.759,0,0.1,6.3027e-05,629.83,6.2748e-05,621.74,-2.0435e-05,-3.2638,-2.1707e-05,-12.82,1.8112
809,20.111,0,0.1,6.8571e-05,685.24,6.8095e-05,671.49,-2.2068e-05,-5.9574,-2.4107e-05,-21.277,1.7191
810,19.463,0,0.1,6.3947e-05,639.03,6.3029e-05,612.72,-2.0379e-05,-13.984,-2.357e-05,-37.96,1.6275
811,18.815,0,0.1,4.4582e-05,445.52,4.3986e-05,431.38,-1.2044e-05,10.39,-1.8107e-05,-35.163,1.5364
812,18.167,0,0.1,1.9046e-05,190.33,2.0879e-05,266.01,1.9942e-06,124.12,-7.9076e-06,49.72,1.4457
813,18,0,0.1,2.88e-05,287.8,3.0734e-05,351.63,-3.6072e-06,93.605,-1.0575e-05,41.252,1.4188
814,17.333,2.687e-30,0.1,6.9201e-05,691.53,7.0125e-05,719.02,-2.0744e-05,36.258,-2.3036e-05,19.041,1.3336
815,16.667,2.5836e-30,0.1,0.00012021,1201.2,0.00011871,1159.6,-3.6769e-05,-8.5589,-4.5229e-05,-72.121,1.249
816,16,2.4803e-30,0.1,0.00016128,1611.7,0.00016001,1574.8,-5.2288e-05,-20.295,-5.6634e-05,-52.945,1.1654
817,15.333,2.3769e-30,0.1,0.00018766,1875.3,0.0001869,1853.3,-6.0556e-05,-5.9564,-6.4771e-05,-37.629,1.0833
818,14.667,2.2736e-30,0.1,0.00020898,2088.3,0.00020838,2071.2,-6.7763e-05,-3.6887,-7.131e-05,-30.336,1.0028
819,14,2.1703e-30,0.1,0.00022876,2286,0.00022829,2272.4,-7.4652e-05,-3.7955,-7.7244e-05,-23.277,0.9241
820,13.333,2.0669e-30,0.1,0.00024719,2470.2,0.00024686,2460.5,-8.0794e-05,-1.3307,-8.3006e-05,-17.952,0.84746
821,12.667,1.9636e-30,0.1,0.00026527,2650.9,0.000265,2643,-8.6855e-05,-0.67503,-8.8752e-05,-14.929,0.773
822,12,1.8602e-30,0.1,0.00028336,2831.6,0.00028314,2825.3,-9.2908e-05,-0.20348,-9.4538e-05,-12.45,0.70088
823,11.333,1.7569e-30,0.1,0.00030161,3014,0.00030144,3009.1,-9.9026e-05,0.13202,-0.00010037,-9.9618,0.63127
824,10.667,1.6535e-30,0.1,0.00032011,3198.9,0.00032,3195.5,-0.00010523,0.58348,-0.00010627,-7.2783,0.56432
825,10,1.5502e-30,0.1,0.0003389,3386.6,0.00033885,3385.1,-0.00011154,1.1124,-0.00011223,-4.0985,0.50021
826,9.3333,1.4468e-30,0.1,0.00035799,3577.4,0.00035802,3578.2,-0.00011797,1.8408,-0.00011825,-0.24168,0.4391
827,8.6667,1.3435e-30,0.1,0.00037741,3771.5,0.00037753,3775.1,-0.00012424,4.9753,-0.00012461,2.2314,0.38116
828,8,1.2401e-30,0.1,0.00039719,3969.2,0.00039744,3976.4,-0.00013031,11.128,-0.00013135,3.2678,0.32657
829,7.3333,1.1368e-30,0.1,0.00041738,4171,0.00041779,4182.8,-0.00013636,19.142,-0.0001383,4.5913,0.27551
830,6.6667,1.0335e-30,0.1,0.00043807,4377.7,0.00043867,4395.5,-0.00014243,29.277,-0.00014548,6.3635,0.22816
831,6,9.3011e-31,0.1,0.00045935,4590.3,0.0004602,4615.7,-0.00014848,42.274,-0.00015295,8.6726,0.18471
832,5.3333,8.2676e-31,0.1,0.00048136,4810.3,0.00048251,4844.4,-0.00015461,57.351,-0.00016074,11.257,0.14535
833,4.6667,7.2342e-31,0.1,0.00050395,5036.1,0.00050547,5081.2,-0.00016072,75.665,-0.00016878,15.136,0.11028
834,4,6.2007e-31,0.1,0.00052755,5271.9,0.00052951,5330.2,-0.00016679,98.543,-0.00017736,19.106,0.079703
835,3.3333,5.1673e-31,0.1,0.00055175,5513.7,0.00055411,5584.2,-0.0001733,118.79,-0.00018597,23.536,0.053833
836,2.6667,4.1338e-31,0.1,0.00057593,5755.3,0.00057898,5846.6,-0.00017937,148.65,-0.00019442,35.541,0.032876
837,2,3.1004e-31,0.1,0.0005987,5982.9,0.00060143,6065,-0.0001861,147.84,-0.00020331,18.503,0.017032
838,1.3333,2.0669e-31,0.1,0.00061155,6111.3,0.00061663,6261.3,-0.00019127,191.04,-0.00020209,109.74,0.0064594
839,0.66667,1.0335e-31,0.1,0.00056223,5618.4,0.00055248,5340.2,-0.00017772,-146.16,-0.0002117,-401.49,0.0011547
840,0,0,0.1,0.00024594,2457.7,0.00028606,3712.7,-2.2913e-06,1546.1,-6.9393e-05,1041.9,0
841,0.66667,1.0335e-31,0,0.00056223,5618.4,0.0002117,401.49,0.00017772,146.16,-0.00055248,-5340.2,0.0011547
842,1.3333,2.0669e-31,0,0.00061155,6111.3,0.00020209,-109.74,0.00019127,-191.04,-0.00061663,-6261.3,0.0064594
843,2,3.1004e-31,0,0.0005987,5982.9,0.00020331,-18.503,0.0001861,-147.84,-0.00060143,-6065,0.017032
844,2.6667,4.1338e-31,0,0.00057593,5755.3,0.00019442,-35.541,0.00017937,-148.65,-0.00057898,-5846.6,0.032876
845,3.3333,5.1673e-31,0,0.00055175,5513.7,0.00018597,-23.536,0.0001733,-118.79,-0.00055411,-5584.2,0.053833
846,4,6.2007e-31,0,0.00052755,5271.9,0.00017736,-19.106,0.00016679,-98.543,-0.00052951,-5330.2,0.079703
847,4.6667,7.2342e-31,0,0.00050395,5036.1,0.00016878,-15.136,0.00016072,-75.665,-0.00050547,-5081.2,0.11028
848,5.3333,8.2676e-31,0,0.00048136,4810.3,0.00016074,-11.257,0.00015461,-57.351,-0.00048251,-4844.4,0.14535
849,6,9.3011e-31,0,0.00045935,4590.3,0.00015295,-8.6726,0.00014848,-42.274,-0.0004602,-4615.7,0.18471
850,6.6667,1.0335e-30,0,0.00043807,4377.7,0.00014548,-6.3635,0.00014243,-29.277,-0.00043867,-4395.5,0.22816
851,7.3333,1.1368e-30,0,0.00041738,4171,0.0001383,-4.5913,0.00013636,-19.142,-0.00041779,-4182.8,0.27551
852,8,1.2401e-30,0,0.00039719,3969.2,0.00013135,-3.2678,0.00013031,-11.128,-0.00039744,-3976.4,0.32657
853,8.6667,1.3435e-30,0,0.00037741,3771.5,0.00012461,-2.2314,0.00012424,-4.9753,-0.00037753,-3775.1,0.38116
854,9.3333,1.4468e-30,0,0.00035799,3577.4,0.00011825,0.24169,0.00011797,-1.8408,-0.00035802,-3578.2,0.4391
855,10,1.5502e-30,0,0.0003389,3386.6,0.00011223,4.0985,0.00011154,-1.1124,-0.00033885,-3385.1,0.50021
856,10.667,1.6535e-30,0,0.00032011,3198.9,0.00010627,7.2783,0.00010523,-0.58348,-0.00032,-3195.5,0.56432
857,11.333,1.7569e-30,0,0.00030161,3014,0.00010037,9.9618,9.9026e-05,-0.13202,-0.00030144,-3009.1,0.63127
858,12,1.8602e-30,0,0.00028336,2831.6,9.4538e-05,12.45,9.2908e-05,0.20348,-0.00028314,-2825.3,0.70088
859,12.667,1.9636e-30,0,0.00026527,2650.9,8.8752e-05,14.929,8.6855e-05,0.67503,-0.000265,-2643,0.773
860,13.333,2.0669e-30,0,0.00024719,2470.2,8.3006e-05,17.952,8.0794e-05,1.3307,-0.00024686,-2460.5,0.84746
861,14,2.1703e-30,0,0.00022876,2286,7.7244e-05,23.277,7.4652e-05,3.7955,-0.00022829,-2272.4,0.9241
862,14.667,2.2736e-30,0,0.00020898,2088.3,7.131e-05,30.336,6.7763e-05,3.6887,-0.00020838,-2071.2,1.0028
863,15.333,2.3769e-30,0,0.00018766,1875.3,6.4771e-05,37.629,6.0556e-05,5.9564,-0.0001869,-1853.3,1.0833
864,16,2.4803e-30,0,0.00016128,1611.7,5.6634e-05,52.945,5.2288e-05,20.295,-0.00016001,-1574.8,1.1654
865,16.667,2.5836e-30,0,0.00012021,1201.2,4.5229e-05,72.121,3.6769e-05,8.5589,-0.00011871,-1159.6,1.249
866,17.333,2.687e-30,0,6.9201e-05,691.53,2.3036e-05,-19.041,2.0744e-05,-36.258,-7.0125e-05,-719.02,1.3336
867,18,0,0,2.88e-05,287.8,1.0575e-05,-41.252,3.6072e-06,-93.605,-3.0734e-05,-351.63,1.4188
868,0,0,0,0.00024594,2457.7,6.9393e-05,-1041.9,2.2913e-06,-1546.1,-0.00028606,-3712.7,0
869,18.815,0,0,4.4582e-05,445.52,1.8107e-05,35.163,1.2044e-05,-10.39,-4.3986e-05,-431.38,1.5364
870,19.463,0,0,6.3947e-05,639.03,2.357e-05,37.96,2.0379e-05,13.984,-6.3029e-05,-612.72,1.6275
871,20.111,0,0,6.8571e-05,685.24,2.4107e-05,21.277,2.2068e-05,5.9574,-6.8095e-05,-671.49,1.7191
872,20.759,0,0,6.3027e-05,629.83,2.1707e-05,12.82,2.0435e-05,3.2638,-6.2748e-05,-621.74,1.8112
873,21.407,0,0,5.2782e-05,527.46,1.8369e-05,11.921,1.6897e-05,0.86383,-5.2556e-05,-520.98,1.9039
874,22.056,0,0,4.0452e-05,404.24,1.4625e-05,15.925,1.2634e-05,0.96495,-4.0144e-05,-395.59,1.997
875,22.704,0,0,2.7357e-05,273.38,1.0818e-05,23.586,8.1142e-06,3.2722,-2.6843e-05,-259.39,2.0904
876,23.352,0,0,1.4177e-05,141.67,7.1244e-06,29.95,3.0704e-06,-0.51051,-1.3428e-05,-124.47,2.1841
877,18.167,0,0,1.9046e-05,190.33,7.9076e-06,-49.72,-1.9942e-06,-124.12,-2.0879e-05,-266.01,1.4457
878,24,0,0,6.1264e-06,61.221,4.302e-06,26.776,3.1033e-08,-5.3143,-5.0937e-06,-43.819,2.2778
879,17.641,6,0,4.1579e-05,415.51,1.9316e-05,55.807,8.8909e-06,-22.522,-4.0455e-05,-393.29,1.3728
880,17.254,6,0,8.9674e-05,896.12,3.806e-05,133.37,2.7256e-05,52.189,-8.6241e-05,-800.58,1.3235
881,16.536,6,0,0.00013224,1321.5,4.991e-05,85.14,4.0728e-05,16.149,-0.00013039,-1269.5,1.2323
882,15.817,6,0,0.00016833,1682.1,6.038e-05,64.581,5.3243e-05,10.96,-0.00016698,-1643.7,1.1426
883,15.098,6,0,0.00019618,1960.5,6.7534e-05,39.488,6.3625e-05,10.121,-0.00019532,-1935.5,1.0545
884,14.379,6,0,0.00021797,2178.2,7.3962e-05,26.461,7.0911e-05,3.5322,-0.00021745,-2163.1,0.96847
885,13.66,6,0,0.00023811,2379.4,8.0094e-05,19.364,7.7779e-05,1.968,-0.00023774,-2368.7,0.88465
886,12.941,6,0,0.00025759,2574.1,8.6315e-05,16.157,8.4271e-05,0.8024,-0.0002573,-2565.6,0.80327
887,12.222,6,0,0.00027715,2769.6,9.2559e-05,13.531,9.0841e-05,0.62185,-0.00027691,-2762.5,0.72454
888,11.503,6,0,0.00029692,2967.2,9.886e-05,10.457,9.7462e-05,-0.046098,-0.00029674,-2961.9,0.64866
889,10.784,6,0,0.00031683,3166.1,0.00010524,7.7504,0.0001041,-0.85331,-0.00031671,-3162.7,0.57583
890,10.065,6,0,0.00033711,3368.7,0.00011166,4.366,0.00011094,-1.0077,-0.00033705,-3367,0.50626
891,9.3462,6,0,0.00035767,3574.2,0.00011815,0.29686,0.00011786,-1.8672,-0.0003577,-3575,0.44017
892,8.6272,6,0,0.00037865,3783.9,0.000125,-2.1531,0.00012467,-4.6676,-0.00037876,-3787.3,0.37776
893,7.9083,6,0,0.00040004,3997.6,0.00013231,-3.4469,0.0001312,-11.743,-0.0004003,-4005.2,0.31926
894,7.1893,6,0,0.00042196,4216.7,0.00013986,-4.8813,0.00013776,-20.639,-0.0004224,-4229.5,0.26489
895,6.4704,6,0,0.00044435,4440.4,0.00014766,-6.9231,0.00014427,-32.435,-0.00044502,-4460.1,0.21489
896,5.7515,6,0,0.00046738,4670.6,0.00015575,-9.4588,0.0001508,-46.639,-0.00046833,-4698.6,0.16948
897,5.0325,6,0,0.00049145,4911.2,0.00016431,-12.927,0.00015739,-64.925,-0.00049276,-4949.9,0.12892
898,4.3136,6,0,0.00051688,5165.2,0.0001735,-16.432,0.00016409,-87.172,-0.00051861,-5216.7,0.093455
899,3.5947,6,0,0.00054312,5427.5,0.00018295,-21.847,0.0001709,-112.38,-0.00054535,-5494,0.06335
900,2.8757,6,0,0.00056859,5681.9,0.00019199,-35.039,0.00017701,-147.64,-0.00057161,-5772.4,0.038875
901,2.1568,6,0,0.00059382,5934.1,0.00020185,-17.574,0.00018431,-149.35,-0.00059655,-6016.4,0.020279
902,1.4379,6,0,0.00061104,6106.2,0.0002022,-112,0.00019043,-200.46,-0.00061631,-6262,0.0077769
903,0.71893,6,0,0.00056962,5692.3,0.00021626,420.72,0.00017824,135.05,-0.00055963,-5409,0.0014242
904,18,6,0,1.1814e-05,118.06,4.8648e-06,-33.413,-1.4381e-06,-80.771,-1.3021e-05,-167.8,1.4188
905,3.937e-14,6,0,0.00025712,2569.4,6.888e-05,-1163.6,2.1342e-06,-1665.1,-0.00030154,-3946.8,0
906,4.6624e-14,5.3333,0,0.00034821,3479.7,7.7383e-07,-3383.2,-1.8474e-06,-3402.9,-0.00046365,-6872.7,0
907,4.0796e-14,4.6667,0,0.0003915,3912.3,1.5952e-06,-3811.2,-3.9809e-06,-3853.1,-0.00052187,-7744.3,0
908,3.4968e-14,4,0,0.00041571,4154.2,1.0743e-06,-4036.3,-2.2081e-06,-4060.9,-0.00055345,-8202.8,0
909,2.914e-14,3.3333,0,0.00042544,4251.4,2.2531e-08,-4132.8,-6.2822e-07,-4137.7,-0.00056613,-8386.7,0
910,2.3312e-14,2.6667,0,0.00042519,4248.9,3.732e-08,-4130.2,-6.3519e-07,-4135.3,-0.0005658,-8381.7,0
911,1.7484e-14,2,0,0.0004152,4149.1,1.0113e-06,-4031.1,-2.0774e-06,-4054.3,-0.00055274,-8191.7,0
912,1.1656e-14,1.3333,0,0.00039049,3902.2,1.559e-06,-3800.5,-3.8439e-06,-3841.1,-0.00052047,-7722.8,0
913,5.8279e-15,0.66667,0,0.00034506,3448.3,5.6035e-07,-3357.3,-1.9084e-06,-3375.9,-0.0004596,-6814.8,0
914,24,0.66667,0,9.5718e-06,95.652,7.4611e-06,52.49,-7.4649e-07,-9.1782,-7.204e-06,-57.698,2.2781
915,24,1.3333,0,1.2334e-05,123.26,1.0415e-05,80.549,-1.8899e-06,-11.902,-8.2097e-06,-59.387,2.2784
916,24,2,0,1.3446e-05,134.37,1.1684e-05,94.453,-2.3055e-06,-10.66,-8.465e-06,-56.94,2.2786
917,24,2.6667,0,1.3812e-05,138.03,1.2111e-05,99.157,-2.469e-06,-10.388,-8.5223e-06,-55.87,2.2787
918,24,3.3333,0,1.3824e-05,138.14,1.214e-05,99.623,-2.4891e-06,-10.294,-8.4979e-06,-55.441,2.2787
919,24,4,0,1.3327e-05,133.18,1.1587e-05,94.188,-2.2032e-06,-9.4255,-8.4062e-06,-56.033,2.2786
920,24,4.6667,0,1.2074e-05,120.66,1.0402e-05,82.841,-2.0292e-06,-10.559,-7.7297e-06,-53.39,2.2783
921,24,5.3333,0,9.1575e-06,91.511,7.4065e-06,55.045,-9.1693e-07,-7.4939,-6.5725e-06,-49.987,2.278
922,24,6,0,5.6969e-06,56.93,4.2689e-06,29.748,-1.0782e-07,-3.1369,-4.4801e-06,-35.989,2.2776
923,23.417,6,0,1.2848e-05,128.39,6.7852e-06,31.895,2.6025e-06,0.46818,-1.2005e-05,-109.29,2.1933
924,22.833,6,0,2.4688e-05,246.71,1.0106e-05,25.685,7.1226e-06,3.2699,-2.4119e-05,-231.46,2.109
925,22.25,6,0,3.663e-05,366.05,1.3561e-05,18.479,1.1265e-05,1.2287,-3.6264e-05,-355.89,2.0248
926,21.667,6,0,4.8177e-05,481.44,1.6972e-05,13.524,1.5313e-05,1.0562,-4.7917e-05,-474.03,1.9409
927,21.083,6,0,5.8672e-05,586.32,2.0388e-05,13.677,1.8873e-05,2.2897,-5.8392e-05,-578.25,1.8574
928,20.5,6,0,6.5521e-05,654.76,2.3295e-05,19.743,2.0584e-05,-0.62376,-6.5172e-05,-644.96,1.7742
929,19.917,6,0,6.8669e-05,686.22,2.4446e-05,27.113,2.2113e-05,9.5866,-6.8028e-05,-667.7,1.6914
930,19.333,6,0,6.2385e-05,623.42,2.2671e-05,37.42,2.0478e-05,20.944,-6.1376e-05,-594.08,1.6091
931,18.75,6,0,4.0786e-05,407.58,1.5108e-05,16.258,1.2123e-05,-6.1751,-4.0568e-05,-402.07,1.5272
932,18.167,6,0,1.5601e-05,155.9,6.2664e-06,-36.2,-6.333e-07,-88.042,-1.7053e-05,-211.42,1.4455
933,18,4.3333,0,0.00032371,3234.9,0.00023389,1600.1,7.1685e-06,-103.4,-0.00026263,-2130.5,1.4261
934,18,4.6667,0,0.0001564,1562.9,0.00010868,705.64,6.7399e-06,-60.299,-0.00013063,-1092.5,1.4246
935,18,5,0,9.5606e-05,955.4,6.1164e-05,365,9.5522e-06,-22.789,-8.3683e-05,-723.32,1.4231
936,18,5.3333,0,6.2566e-05,625.23,3.1592e-05,113.54,1.1313e-05,-38.839,-5.9886e-05,-573.8,1.4216
937,18,5.6667,0,3.6537e-05,365.12,1.3738e-05,-6.1766,8.5164e-06,-45.412,-3.7256e-05,-389.33,1.4202
938,18,4,0,0.00060072,6003.1,0.0002903,971.3,0.0001229,-286.47,-0.0005791,-5561,1.4275
939,18.167,5.6667,0,2.857e-05,285.51,9.5485e-06,-39.465,5.51e-06,-69.809,-3.0308e-05,-338.93,1.4461
940,18.167,5.3333,0,4.8588e-05,485.54,1.7197e-05,-0.95107,1.3945e-05,-25.383,-4.899e-05,-498.25,1.4467
941,18.167,5,0,7.7247e-05,771.94,3.6765e-05,115.83,1.6008e-05,-40.122,-7.4768e-05,-722.18,1.4474
942,18.167,4.6667,0,0.00013297,1328.8,6.5172e-05,222.72,2.6152e-05,-70.461,-0.00012793,-1228.2,1.4481
943,18.167,4.3333,0,0.00023192,2317.6,0.00012571,549.35,3.7367e-05,-114.44,-0.00021727,-2027.7,1.4489
944,18.167,4,0,0.00058323,5828.3,0.00024335,296.65,0.00012957,-558.24,-0.00058296,-5911.9,1.4499
945,18,1.6667,0,0.0002935,2933,0.00020896,1402.6,8.9355e-06,-100.35,-0.00024086,-1977.2,1.4261
946,18,1.3333,0,0.00016886,1687.5,0.00011041,671.67,1.4204e-05,-51.152,-0.00014626,-1256.8,1.4246
947,18,1,0,0.00010602,1059.5,6.5894e-05,359.91,1.0051e-05,-59.668,-9.4482e-05,-845.09,1.4231
948,18,0.66667,0,6.6316e-05,662.7,3.1517e-05,78.175,1.1652e-05,-71.079,-6.4921e-05,-646.42,1.4217
949,18,0.33333,0,3.7118e-05,370.92,1.1705e-05,-72.274,6.4173e-06,-112,-4.0092e-05,-461.46,1.4202
950,18,2,0,0.00062291,6224.8,0.00033722,1403.4,9.3557e-05,-427.31,-0.00058576,-5531.4,1.4275
951,18.167,0.33333,0,3.454e-05,345.16,1.1397e-05,-35.552,8.0899e-06,-60.403,-3.6105e-05,-392.47,1.4462
952,18.167,0.66667,0,4.0459e-05,404.31,1.6353e-05,32.461,1.1129e-05,-6.7913,-3.9879e-05,-390.04,1.4468
953,18.167,1,0,7.5012e-05,749.6,3.7194e-05,129.33,1.4261e-05,-42.977,-7.2041e-05,-691.42,1.4474
954,18.167,1.3333,0,0.00011705,1169.7,6.049e-05,248.51,2.2065e-05,-40.201,-0.0001108,-1038.5,1.4482
955,18.167,1.6667,0,0.00022957,2294.1,0.0001417,784.77,2.4728e-05,-94.138,-0.00020482,-1818.9,1.449
956,18.167,2,0,0.00057961,5792.1,0.0002191,114.68,0.00015341,-378.84,-0.00058252,-5908.3,1.4499
957,18.379,3.6844,0,0.00031807,3178.5,0.00012912,332.28,9.3851e-05,67.254,-0.00031045,-2970.5,1.4794
958,18.036,3.6784,0,0.00035557,3553.2,0.00016324,626.11,9.465e-05,110.76,-0.00034022,-3156.7,1.4331
959,18.209,3.5372,0,0.00033858,3383.4,0.00015141,529.43,9.1177e-05,76.885,-0.00032598,-3057.5,1.4566
960,18.194,3.7354,0.05,7.0392e-06,70.344,5.4053e-06,40.613,-1.1465e-21,2.823e-06,-5.4053e-06,-40.613,1.4542
961,18.18,3.8677,0,0.00046924,4689.2,0.00019612,393.26,0.00011878,-187.8,-0.00046304,-4559.4,1.4521
962,18.121,2.2696,0,0.00037932,3790.6,0.00017092,642.46,0.00010456,143.88,-0.00036348,-3372.8,1.4444
963,17.814,2.2225,0,0.00035849,3582.4,0.00016377,604.38,9.432e-05,82.593,-0.00034394,-3210.3,1.4034
964,17.988,2.3756,0,0.0003742,3739.5,0.00017153,642.63,9.8512e-05,94.038,-0.00035864,-3340.8,1.4268
965,17.957,2.2411,0.05,1.5953e-05,159.42,1.225e-05,92.043,2.6464e-13,3.3887e-05,-1.225e-05,-92.043,1.4224
966,17.979,2.1206,0,0.0005086,5082.5,0.00026062,1082.3,0.00010073,-119.01,-0.00048144,-4493.2,1.425
967,18.593,3.8213,0,0.00022033,2201.7,7.3252e-05,-48.065,6.7366e-05,-92.292,-0.00022268,-2271.6,1.5086
968,18.582,3.4311,0,0.00024738,2472,8.779e-05,54.88,7.6164e-05,-32.472,-0.00024688,-2459.7,1.5074
969,18.739,3.58,0,0.0002163,2161.5,7.654e-05,7.8561,6.324e-05,-92.075,-0.00021756,-2201.9,1.5289
970,18.564,3.6334,0.05,1.3262e-05,132.53,1.0184e-05,76.517,2.9755e-12,3.3722e-05,-1.0184e-05,-76.517,1.5048
971,18.996,5.1984,0,6.8766e-05,687.19,2.607e-05,42.807,2.0835e-05,3.4728,-6.7894e-05,-663.2,1.5628
972,18.743,5.4419,0,5.3434e-05,533.97,2.2067e-05,47.153,1.425e-05,-11.578,-5.2586e-05,-513.76,1.5271
973,18.676,5.1036,0,7.1203e-05,711.54,3.3432e-05,112.29,1.6215e-05,-17.074,-6.8695e-05,-655.06,1.5183
974,18.716,5.2714,0.05,4.1056e-06,41.028,3.1526e-06,23.687,2.9772e-13,-2.4246e-06,-3.1526e-06,-23.687,1.5236
975,18.441,5.3024,0,5.0583e-05,505.48,1.8392e-05,9.3832,1.4631e-05,-18.877,-5.0686e-05,-509.64,1.4851
976,17.553,2.2871,0,0.00028052,2803.2,0.00011966,329.52,7.57e-05,-0.77824,-0.00027346,-2624.2,1.3692
977,17.602,2.4313,0,0.00028442,2842.3,0.00012334,363.11,7.582e-05,6.0314,-0.00027645,-2640.8,1.3758
978,17.265,2.2815,0,0.00023044,2302.8,9.7591e-05,272.34,6.3656e-05,17.364,-0.00022445,-2147.3,1.3318
979,17.447,2.5206,0,0.00025508,2549.1,0.00010684,268.13,6.9424e-05,-13.012,-0.00024958,-2409.9,1.3557
980,17.434,2.3704,0.05,8.0425e-06,80.37,6.1757e-06,46.402,1.5841e-12,1.2317e-06,-6.1757e-06,-46.402,1.3539
981,18.007,3.0095,0,0.00029302,2928.2,0.00012554,352.44,7.8866e-05,1.767,-0.00028542,-2735.3,1.4299
982,18.204,3.1954,0,0.00029373,2935.2,0.00012482,343.84,8.0037e-05,7.3935,-0.0002863,-2745.1,1.4563
983,18.146,2.918,0,0.00029888,2986.8,0.00012629,333.76,8.1206e-05,-4.97,-0.00029184,-2807.9,1.4484
984,18.37,2.9835,0,0.00027228,2720.9,0.00010709,214.2,7.9845e-05,9.5109,-0.00026789,-2603.3,1.4787
985,18.184,3.0518,0.05,3.6964e-06,36.939,2.8384e-06,21.327,5.2241e-12,9.8907e-06,-2.8384e-06,-21.327,1.4535
986,17.003,5.2763,0,0.00012892,1288.3,5.5125e-05,156.78,3.5062e-05,6.0314,-0.00012548,-1200.3,1.2942
987,17.263,5.1594,0,0.0001135,1134.2,5.3744e-05,196.62,2.6739e-05,-6.2802,-0.00010889,-1025.4,1.3278
988,16.706,4.8923,0,0.00015396,1538.5,6.5249e-05,181.09,4.2358e-05,9.0889,-0.00015,-1436.2,1.2577
989,17.102,4.9497,0,0.00014248,1423.9,6.8378e-05,278.87,3.5007e-05,28.142,-0.00013559,-1253.7,1.3079
990,17.01,5.0591,0.05,7.3251e-06,73.2,5.6247e-06,42.262,-1.1931e-21,1.1123e-05,-5.6247e-06,-42.262,1.2958
991,17.872,3.1421,0,0.00030182,3016.1,0.00012892,353.94,8.107e-05,-5.6016,-0.00029428,-2825.9,1.4119
992,17.81,2.8422,0,0.00029644,2962.3,0.00012712,369.26,8.0802e-05,21.261,-0.00028825,-2751.7,1.4037
993,17.708,2.9024,0,0.00028932,2891.2,0.00012619,370.44,7.5875e-05,-7.6288,-0.00028129,-2691.2,1.3902
994,17.83,2.9672,0.05,3.9447e-06,39.42,3.0291e-06,22.759,2.6585e-12,6.934e-06,-3.0291e-06,-22.759,1.4063
995,19.007,2.3557,0,0.00015308,1529.8,5.3333e-05,7.5828,4.6399e-05,-44.518,-0.00015364,-1547.6,1.5659
996,18.795,2.0955,0,0.00017273,1726.2,5.9039e-05,-20.028,5.1676e-05,-75.351,-0.00017429,-1773.2,1.5364
997,18.942,1.9334,0,0.00013179,1317,4.9237e-05,54.296,3.86e-05,-25.625,-0.00013112,-1300.8,1.5565
998,19.289,1.9961,0,0.00012041,1203.3,4.4564e-05,16.084,3.2846e-05,-71.959,-0.00012112,-1228.8,1.605
999,18.996,2.1311,0.05,6.3406e-06,63.362,4.8688e-06,36.582,-1.0327e-21,-2.8337e-06,-4.8688e-06,-36.582,1.5642
1000,18.807,2.4987,0,0.00020298,2028.4,7.2085e-05,25.465,6.0582e-05,-60.959,-0.00020344,-2044.8,1.5383
1001,18.99,2.8293,0,0.00016882,1687.1,5.8828e-05,-16.945,4.8793e-05,-92.34,-0.00017056,-1740.4,1.5637
1002,19.321,2.5572,0,0.00013676,1366.6,5.0147e-05,-4.6131,3.5969e-05,-111.14,-0.00013842,-1421.4,1.6097
1003,18.787,2.7476,0,0.00020654,2064,6.9268e-05,12.526,6.7427e-05,-1.307,-0.00020634,-2058.3,1.5356
1004,19.017,2.5802,0.05,5.2264e-06,52.228,4.0132e-06,30.154,-7.6919e-13,4.1552e-06,-4.0132e-06,-30.154,1.5674
1005,19.547,3.3967,0,0.00011487,1148,4.4531e-05,-2.751,2.5917e-05,-142.61,-0.00011671,-1214.2,1.6412
1006,19.852,3.2848,0,0.00010123,1011.6,4.0223e-05,-3.9862,2.0846e-05,-149.57,-0.00010306,-1080.5,1.6842
1007,19.726,3.0565,0,0.00010501,1049.3,4.0998e-05,-0.20349,2.3371e-05,-132.64,-0.00010664,-1109.5,1.6665
1008,19.458,3.1363,0,0.00012915,1290.6,5.0541e-05,4.116,2.8956e-05,-158.06,-0.000131,-1359.9,1.6289
1009,19.633,3.195,0.05,2.6391e-06,26.372,2.0265e-06,15.226,-1.3904e-13,4.4311e-06,-2.0265e-06,-15.226,1.6534
1010,16.976,4.3752,0,0.00018349,1833.7,8.7776e-05,349.17,4.4634e-05,25.011,-0.00017497,-1625,1.2934
1011,16.732,4.1793,0,0.00018597,1858.5,8.1276e-05,245.16,4.916e-05,3.8484,-0.00018056,-1722.2,1.2627
1012,16.601,4.5713,0,0.00017391,1737.9,7.6244e-05,235.33,4.6114e-05,8.9515,-0.00016864,-1604.7,1.2454
1013,16.998,4.6287,0,0.00016042,1603.1,7.768e-05,320.41,3.8704e-05,27.558,-0.00015248,-1408.9,1.2955
1014,16.802,4.4171,0.05,4.0401e-06,40.373,3.1023e-06,23.309,1.5759e-12,5.7874e-06,-3.1023e-06,-23.309,1.2711
1015,19.321,5.3236,0,7.4651e-05,745.99,2.7549e-05,40.565,2.3382e-05,9.2563,-7.3754e-05,-720.59,1.6082
1016,19.549,4.9695,0,7.93e-05,792.45,2.7081e-05,8.2038,2.5373e-05,-4.6314,-7.9231e-05,-790.59,1.6407
1017,19.182,5.0005,0,8.0245e-05,801.9,2.8394e-05,44.004,2.7274e-05,35.594,-7.8888e-05,-762.06,1.589
1018,19.276,5.1253,0.05,4.057e-06,40.542,3.1153e-06,23.407,-1.0393e-13,5.2133e-06,-3.1153e-06,-23.407,1.6021
1019,19.553,4.0075,0,0.00010113,1010.6,3.9759e-05,3.7473,2.238e-05,-126.83,-0.00010259,-1065.8,1.6419
1020,19.845,4.0325,0,9.0845e-05,907.82,3.4751e-05,-4.8573,2.1099e-05,-107.43,-9.2319e-05,-959.61,1.683
1021,19.63,3.7062,0,0.00010707,1070,4.1716e-05,0.762,2.4091e-05,-131.66,-0.00010868,-1129.3,1.6529
1022,20.1,3.7473,0,8.8132e-05,880.71,3.4892e-05,-1.1375,1.8614e-05,-123.45,-8.9611e-05,-936.61,1.7191
1023,19.936,3.5943,0,9.3145e-05,930.81,3.7388e-05,-0.62254,1.876e-05,-140.58,-9.4754e-05,-993.48,1.696
1024,19.801,3.814,0.05,2.0443e-06,20.429,1.5698e-06,11.795,-2.5529e-13,5.0775e-06,-1.5698e-06,-11.794,1.6768
1025,20.605,3.1588,0,7.5158e-05,751.06,2.9703e-05,-1.6073,1.5911e-05,-105.23,-7.6437e-05,-799.1,1.7907
1026,20.287,2.7326,0,8.5168e-05,851.09,3.4048e-05,0.55565,1.7527e-05,-123.57,-8.6578e-05,-905.78,1.7456
1027,20.186,3.1859,0,8.8497e-05,884.36,3.5632e-05,0.83383,1.7755e-05,-133.48,-8.9984e-05,-943,1.7314
1028,20.06,2.9577,0,9.2319e-05,922.55,3.6383e-05,4.4373,2.0364e-05,-115.92,-9.3624e-05,-972.39,1.7135
1029,20.301,2.9973,0.05,2.284e-06,22.824,1.7538e-06,13.178,6.9507e-13,5.2152e-06,-1.7538e-06,-13.178,1.7476
1030,15.742,5.0663,0,0.00018379,1836.6,6.6859e-05,79.201,5.7326e-05,7.5771,-0.00018221,-1792.2,1.1366
1031,15.379,4.7554,0,0.00019697,1968.3,7.0939e-05,70.709,6.1359e-05,-1.2706,-0.00019569,-1932.6,1.093
1032,15.675,4.4565,0,0.00019298,1928.5,7.0538e-05,81.516,5.9455e-05,-1.7552,-0.00019149,-1887.3,1.13
1033,16.06,4.74,0,0.00017877,1786.5,6.8537e-05,118.32,5.3473e-05,5.128,-0.0001764,-1722,1.1769
1034,15.718,4.7543,0.05,1.9036e-06,19.023,1.4617e-06,10.983,1.0157e-14,4.3704e-06,-1.4617e-06,-10.983,1.1346
1035,20.873,2.2516,0,6.5177e-05,651.32,2.4825e-05,-1.7793,1.55e-05,-71.844,-6.6146e-05,-685.3,1.8289
1036,21.201,2.6143,0,5.8558e-05,585.18,2.2079e-05,-1.5713,1.4341e-05,-59.708,-5.9384e-05,-613.65,1.8756
1037,20.904,2.9528,0,6.4556e-05,645.11,2.5054e-05,-5.1272,1.4162e-05,-86.966,-6.5732e-05,-687.25,1.8332
1038,20.586,2.5266,0,7.4553e-05,745.01,2.9387e-05,-3.0542,1.5784e-05,-105.26,-7.5867e-05,-793.89,1.788
1039,20.899,2.5852,0.05,1.8017e-06,18.005,1.3835e-06,10.395,4.5818e-13,7.6563e-06,-1.3835e-06,-10.395,1.8325
1040,20.773,4.7497,0,6.4843e-05,647.98,2.3275e-05,5.4103,1.8666e-05,-29.22,-6.5179e-05,-659.19,1.8141
1041,20.48,5.0688,0,6.9211e-05,691.63,2.4355e-05,8.7759,2.1056e-05,-16.011,-6.93e-05,-694.91,1.7723
1042,20.149,4.7935,0,7.3679e-05,736.28,2.714e-05,6.4223,2.0005e-05,-47.186,-7.4226e-05,-755.2,1.7254
1043,20.47,4.4756,0,7.2487e-05,724.37,2.7066e-05,6.8188,1.9072e-05,-53.246,-7.309e-05,-745.71,1.7712
1044,20.475,4.7733,0.05,1.3036e-06,13.027,1.001e-06,7.5213,2.1662e-13,6.9074e-06,-1.001e-06,-7.5213,1.7717
1045,21.161,1.9387,0,5.8504e-05,584.64,2.1567e-05,0.57173,1.5424e-05,-45.588,-5.9133e-05,-605.78,1.8698
1046,20.834,1.5958,0,6.4444e-05,644,2.3441e-05,-0.43826,1.7454e-05,-45.42,-6.5106e-05,-665.75,1.8231
1047,20.535,1.8997,0,7.2726e-05,726.76,2.8152e-05,3.9718,1.7038e-05,-79.531,-7.3651e-05,-760.93,1.7806
1048,20.848,1.9181,0.05,2.0833e-06,20.818,1.5997e-06,12.019,3.3649e-13,8.6568e-06,-1.5997e-06,-12.019,1.8251
1049,22.531,4.7116,0,3.1811e-05,317.89,1.2807e-05,27.739,9.0553e-06,-0.44616,-3.1253e-05,-303.31,2.0661
1050,22.801,4.3504,0,2.7094e-05,270.75,1.2297e-05,41.533,6.8719e-06,0.77311,-2.6143e-05,-247.29,2.1053
1051,23.108,4.6789,0,2.159e-05,215.75,1.1487e-05,52.817,4.1151e-06,-2.5715,-2.0195e-05,-185.22,2.1495
1052,22.821,5.0204,0,2.5941e-05,259.23,1.1283e-05,33.523,6.8923e-06,0.5305,-2.5204e-05,-240.63,2.1078
1053,22.812,4.6901,0.05,1.4318e-06,14.308,1.0994e-06,8.2606,5.8747e-13,1.185e-05,-1.0994e-06,-8.2606,2.1066
1054,21.956,4.7297,0,4.2538e-05,425.09,1.456e-05,5.8961,1.3693e-05,-0.62037,-4.2445e-05,-422.42,1.9834
1055,22.25,5.0498,0,3.6803e-05,367.78,1.3401e-05,14.953,1.1372e-05,-0.29781,-3.653e-05,-360.21,2.0255
1056,22.224,4.3801,0,3.7538e-05,375.12,1.35e-05,12.664,1.1651e-05,-1.2316,-3.7324e-05,-369.21,2.0221
1057,22.25,4.7331,0.05,1.4038e-06,14.028,1.078e-06,8.0993,6.9079e-13,1.1025e-05,-1.078e-06,-8.0993,2.0257
1058,21.367,4.7263,0,5.3703e-05,536.66,1.8379e-05,-0.19652,1.6584e-05,-13.684,-5.3927e-05,-543.48,1.8989
1059,21.665,5.0465,0,4.7945e-05,479.12,1.5924e-05,1.1286,1.5753e-05,-0.15138,-4.7928e-05,-478.63,1.9414
1060,21.642,4.3776,0,4.8694e-05,486.6,1.6732e-05,0.81605,1.5014e-05,-12.089,-4.8873e-05,-492.11,1.9385
1061,21.663,4.7264,0.05,1.4007e-06,13.997,1.0756e-06,8.0814,7.8649e-13,1.0667e-05,-1.0756e-06,-8.0814,1.9413
1062,21.077,5.0464,0,5.8907e-05,588.66,1.9999e-05,-0.48418,1.8442e-05,-12.183,-5.9113e-05,-594.91,1.8573
1063,21.057,4.3973,0,6.0005e-05,599.63,2.1419e-05,-1.9072,1.6833e-05,-36.361,-6.0581e-05,-618.02,1.8547
1064,21.071,4.7262,0.05,1.4726e-06,14.716,1.1308e-06,8.4962,3.8694e-13,9.0727e-06,-1.1308e-06,-8.4962,1.8565
1065,16.166,2.9181,0,0.00019747,1973.3,7.1441e-05,79.724,6.1776e-05,7.1,-0.00019589,-1928.9,1.1925
1066,16.402,2.8809,0,0.00020151,2013.7,7.3694e-05,98.852,6.3299e-05,20.746,-0.00019937,-1952.8,1.2221
1067,16.005,2.6419,0,0.00019667,1965.3,7.0921e-05,71.494,6.1189e-05,-1.6335,-0.00019538,-1929.4,1.1723
1068,16.349,2.5916,0,0.00019778,1976.5,7.3797e-05,106.54,6.0454e-05,6.2858,-0.00019567,-1918.2,1.2153
1069,16.226,2.7263,0.05,2.2848e-06,22.832,1.7544e-06,13.182,5.4764e-13,9.7351e-06,-1.7544e-06,-13.182,1.1999
1070,16.056,2.0513,0,0.00019336,1932.3,7.323e-05,115.55,5.8262e-05,3.0864,-0.0001911,-1870.5,1.178
1071,16.086,1.7263,0,0.00018799,1878.6,7.0874e-05,112.99,5.7277e-05,10.821,-0.00018568,-1814.7,1.1813
1072,16.415,1.8323,0,0.00018421,1840.9,7.1136e-05,128,5.4766e-05,5.0008,-0.00018164,-1771.3,1.2227
1073,16.41,2.0262,0,0.00018789,1877.6,7.1058e-05,109.15,5.6496e-05,-0.25553,-0.0001858,-1820.8,1.2224
1074,16.185,1.9033,0.05,3.6273e-06,36.248,2.7853e-06,20.928,4.8469e-13,-2.7381e-06,-2.7853e-06,-20.928,1.1939
1075,20.511,1.2612,0,6.9466e-05,694.18,2.4678e-05,4.0323,2.0281e-05,-29.009,-6.9832e-05,-706.08,1.7769
1076,20.187,0.93049,0,7.2627e-05,725.77,2.5033e-05,6.5858,2.2758e-05,-10.507,-7.2679e-05,-727.58,1.7308
1077,19.915,1.2126,0,7.741e-05,773.56,2.6898e-05,2.3702,2.3451e-05,-23.535,-7.7737e-05,-783.82,1.6925
1078,20.212,1.5652,0,7.7728e-05,776.75,2.9375e-05,8.3359,1.9912e-05,-62.764,-7.841e-05,-801.52,1.7347
1079,20.202,1.249,0.05,1.6664e-06,16.652,1.2796e-06,9.6143,3.51e-14,1.1232e-05,-1.2796e-06,-9.6142,1.733
1080,1.6475,1.2948,0,0.00054246,5420.9,0.00022546,-76.961,8.6929e-05,-1117.8,-0.00055523,-5942.8,0.014858
1081,1.3061,1.633,0,0.00054285,5424.8,0.00023418,-238.38,5.2993e-05,-1599.8,-0.00056115,-6214.2,0.0096319
1082,1.3187,0.98014,0,0.00055132,5509.4,0.00021428,-197.5,0.00010525,-1016.7,-0.00056738,-6070.6,0.0090384
1083,0.98449,1.3116,0,0.00057199,5716,0.00028504,429.47,4.6544e-05,-1362.5,-0.00056638,-5967.8,0.0052585
1084,1.3145,1.3059,0.05,9.7043e-06,96.976,7.4517e-06,55.989,-1.5806e-21,-1.1876e-14,-7.4517e-06,-55.989,0.009398
1085,22.406,1.3204,0,3.4122e-05,340.98,1.3176e-05,23.078,1.0086e-05,-0.14089,-3.3672e-05,-328.92,2.0482
1086,22.727,1.6597,0,2.8449e-05,284.3,1.2503e-05,38.38,7.475e-06,0.60166,-2.7597e-05,-262.92,2.0946
1087,23.041,1.3262,0,2.2812e-05,227.97,1.1658e-05,49.554,4.6877e-06,-2.8151,-2.1561e-05,-200.04,2.1399
1088,22.72,0.9927,0,2.7917e-05,278.98,1.1677e-05,30.411,7.7304e-06,0.75744,-2.7268e-05,-262.21,2.0933
1089,22.724,1.3256,0.05,1.4983e-06,14.973,1.1505e-06,8.6446,4.3844e-13,9.3707e-06,-1.1505e-06,-8.6446,2.0941
1090,21.463,1.6283,0,5.2012e-05,519.76,1.8131e-05,0.42676,1.5548e-05,-18.977,-5.2301e-05,-528.77,1.9129
1091,21.787,1.9724,0,4.5905e-05,458.73,1.568e-05,-0.10301,1.4235e-05,-10.963,-4.6084e-05,-464.17,1.9595
1092,21.488,2.3014,0,5.1898e-05,518.62,1.8819e-05,0.76841,1.4265e-05,-33.449,-5.2369e-05,-534.12,1.9167
1093,21.474,1.9593,0.05,1.6176e-06,16.164,1.2421e-06,9.3326,3.9053e-13,9.6862e-06,-1.2421e-06,-9.3326,1.9145
1094,2.3153,1.2737,0,0.00053662,5362.5,0.00021576,36.426,0.00011134,-748.09,-0.0005444,-5675.1,0.029344
1095,1.9853,0.96241,0,0.00055542,5550.4,0.00021696,50.106,0.00012842,-615.14,-0.00056203,-5802.9,0.020784
1096,1.9651,1.6049,0,0.00053703,5366.5,0.00023072,58.7,8.482e-05,-1037.6,-0.00054521,-5771.3,0.021735
1097,1.9806,1.2837,0.05,4.8667e-06,48.634,3.737e-06,28.079,4.2808e-13,-5.9559e-15,-3.737e-06,-28.079,0.021446
1098,2.985,1.2582,0,0.00052324,5228.7,0.00020016,6.1096,0.00012481,-560.06,-0.00053035,-5482.7,0.048689
1099,2.6543,0.94693,0,0.00054151,5411.4,0.00020143,-6.7703,0.00013836,-480.62,-0.00054824,-5639.5,0.037464
1100,2.6317,1.5816,0,0.00052282,5224.6,0.00020946,-9.9363,0.00010542,-791.62,-0.00053205,-5581.3,0.038713
1101,2.65,1.2638,0.05,4.1086e-06,41.057,3.1549e-06,23.704,-6.6919e-22,-5.0281e-15,-3.1549e-06,-23.704,0.038376
1102,3.6567,1.2518,0,0.00050789,5075.4,0.00018858,8.5908,0.0001318,-418.06,-0.0005135,-5266.6,0.072865
1103,3.325,0.93888,0,0.00052494,5245.8,0.0001909,2.3704,0.00014281,-359.02,-0.00053008,-5414.8,0.059071
1104,3.3082,1.5658,0,0.00050949,5091.4,0.00019664,8.6469,0.00011859,-577.78,-0.00051663,-5350.6,0.060735
1105,3.32,1.2526,0.05,3.3248e-06,33.225,2.553e-06,19.183,-1.0929e-12,3.7385e-06,-2.553e-06,-19.183,0.060118
1106,4.33,1.259,0,0.00049136,4910.2,0.00017806,5.7517,0.00013513,-316.82,-0.00049586,-5057.8,0.10179
1107,3.9967,0.94226,0,0.00050658,5062.3,0.00018066,-0.083653,0.0001439,-276.27,-0.00051072,-5194.8,0.08551
1108,3.9848,1.5572,0,0.00049427,4939.3,0.00018384,0.23451,0.00012693,-427.31,-0.00050014,-5138.9,0.087478
1109,3.9934,1.2511,0.05,2.902e-06,29,2.2284e-06,16.743,-1.0072e-12,-3.5514e-15,-2.2284e-06,-16.743,0.086709
1110,5,1.2669,0,0.00047405,4737.2,0.00016837,2.8783,0.00013616,-239.15,-0.00047761,-4850.7,0.13504
1111,4.6667,0.95021,0,0.00048822,4878.8,0.00017138,-0.048018,0.00014349,-209.58,-0.00049144,-4980.2,0.11649
1112,4.6638,1.5628,0,0.00047932,4789.9,0.00017472,8.4158,0.00013025,-325.75,-0.00048384,-4939.8,0.11896
1113,4.6667,1.2669,0.05,2.8546e-06,28.527,2.192e-06,16.47,1.5037e-12,-3.4935e-15,-2.192e-06,-16.47,0.11794
1114,5.6667,1.2669,0,0.00045598,4556.7,0.00015935,1.7137,0.00013543,-177.99,-0.00045871,-4642.1,0.17235
1115,5.3333,0.95021,0,0.00046912,4687.9,0.00016247,-1.0815,0.00014162,-157.71,-0.00047162,-4765.4,0.15165
1116,5.3348,1.5709,0,0.00046186,4615.4,0.00016442,1.7065,0.00013189,-242.73,-0.00046547,-4731.1,0.15446
1117,5.3333,1.2669,0.05,2.3604e-06,23.588,1.8125e-06,13.619,-3.8446e-22,1.1945e-05,-1.8125e-06,-13.619,0.15314
1118,6.3333,1.2669,0,0.00043783,4375.3,0.00015105,1.8895,0.00013345,-130.33,-0.00043987,-4438,0.21373
1119,6,0.95021,0,0.00045004,4497.3,0.00015424,-0.12634,0.00013873,-116.65,-0.00045191,-4554.5,0.19101
1120,6.0018,1.5671,0,0.00044448,4441.8,0.0001555,1.8798,0.00013173,-176.71,-0.00044719,-4526.5,0.19385
1121,6,1.2669,0.05,2.4005e-06,23.988,1.8433e-06,13.85,3.1152e-14,6.9709e-06,-1.8433e-06,-13.849,0.19251
1122,7,1.2669,0,0.00041957,4192.8,0.00014321,1.3472,0.00013049,-94.29,-0.00042107,-4238.5,0.25902
1123,6.6667,0.95021,0,0.00043106,4307.6,0.00014638,-0.39349,0.00013519,-84.497,-0.00043244,-4349.4,0.23438
1124,6.6673,1.5714,0,0.00042704,4267.4,0.0001474,1.3761,0.00012999,-129.48,-0.00042907,-4330,0.23715
1125,6.6667,1.2669,0.05,2.2725e-06,22.709,1.745e-06,13.111,3.4176e-14,4.5685e-07,-1.745e-06,-13.111,0.23587
1126,7.6667,1.2669,0,0.00040116,4008.9,0.00013579,0.98373,0.00012669,-67.358,-0.00040225,-4041.6,0.30806
1127,7.3333,0.95021,0,0.00041213,4118.4,0.00013897,-0.13193,0.00013095,-60.413,-0.00041312,-4148.3,0.28159
1128,7.3321,1.5729,0,0.00040909,4088.1,0.00013967,0.62011,0.00012711,-93.736,-0.00041059,-4133.8,0.28419
1129,7.3333,1.2669,0.05,2.2226e-06,22.211,1.7067e-06,12.824,1.1606e-13,1.4303e-06,-1.7067e-06,-12.824,0.28306
1130,8.3333,1.2669,0,0.0003827,3824.4,0.00012865,0.57673,0.00012235,-46.765,-0.00038346,-3847.2,0.36067
1131,8,0.95021,0,0.00039323,3929.6,0.00013182,-0.28422,0.00012627,-41.974,-0.00039393,-3950.6,0.33247
1132,7.9993,1.5741,0,0.00039097,3907,0.00013237,0.8846,0.00012342,-66.36,-0.00039204,-3939.3,0.33505
1133,8,1.2669,0.05,2.1792e-06,21.777,1.6734e-06,12.573,-3.5495e-22,2.1064e-06,-1.6734e-06,-12.573,0.3339
1134,9,1.2669,0,0.00036423,3639.8,0.00012175,0.28253,0.0001176,-30.908,-0.00036474,-3655,0.41669
1135,8.6667,0.95021,0,0.00037443,3741.7,0.00012492,-0.234,0.00012125,-27.817,-0.0003749,-3755.7,0.38685
1136,8.6665,1.5798,0,0.00037271,3724.5,0.00012529,0.45523,0.00011915,-45.693,-0.00037346,-3746.9,0.3894
1137,8.6667,1.2669,0.05,2.1242e-06,21.227,1.6311e-06,12.255,-8.8429e-13,2.3824e-06,-1.6311e-06,-12.255,0.38824
1138,9.6667,1.2669,0,0.00034586,3456.2,0.00011506,0.080901,0.00011258,-18.532,-0.00034617,-3465.4,0.47595
1139,9.3333,0.95021,0,0.00035574,3555,0.00011821,-0.2289,0.000116,-16.856,-0.00035603,-3563.5,0.44457
1140,9.3339,1.5769,0,0.00035442,3541.8,0.00011842,0.0081265,0.00011449,-29.549,-0.00035492,-3556.5,0.44708
1141,9.3333,1.2669,0.05,2.1109e-06,21.095,1.6209e-06,12.179,3.639e-14,3.5404e-06,-1.6209e-06,-12.179,0.4459
1142,10.333,1.2669,0,0.00032762,3274,0.00010854,-0.074869,0.00010739,-8.7216,-0.00032777,-3278.3,0.53828
1143,10,0.95021,0,0.00033724,3370.1,0.00011167,-0.24282,0.00011062,-8.1534,-0.00033738,-3374.3,0.50544
1144,10.002,1.5796,0,0.00033626,3360.3,0.00011182,-0.010069,0.00010953,-17.169,-0.00033655,-3368.9,0.50796
1145,10,1.2669,0.05,2.084e-06,20.826,1.6003e-06,12.024,-3.3944e-22,3.8091e-06,-1.6003e-06,-12.024,0.50672
1146,11,1.2669,0,0.00030955,3093.3,0.00010219,-0.022438,0.00010208,-0.87511,-0.00030956,-3093.8,0.60352
1147,10.667,0.95021,0,0.00031892,3187,0.00010529,-0.18029,0.00010514,-1.2928,-0.00031894,-3187.7,0.56931
1148,10.667,1.5837,0,0.00031823,3180.1,0.00010535,-0.014735,0.00010444,-6.8526,-0.00031835,-3183.5,0.57158
1149,10.667,1.2669,0.05,2.0471e-06,20.457,1.572e-06,11.811,3.8842e-15,4.3066e-06,-1.572e-06,-11.811,0.57052
1150,11.667,1.2669,0,0.00029171,2915.1,9.6787e-05,6.1926,9.5946e-05,-0.1278,-0.0002916,-2912,0.67151
1151,11.333,0.95021,0,0.00030082,3006.1,9.9662e-05,4.581,9.9026e-05,-0.19817,-0.00030074,-3003.9,0.636
1152,11.333,1.5837,0,0.00030035,3001.4,9.9261e-05,1.5624,9.9012e-05,-0.31154,-0.00030033,-3000.8,0.63817
1153,11.333,1.2669,0.05,2.0134e-06,20.12,1.546e-06,11.616,2.9474e-15,2.8727e-06,-1.546e-06,-11.616,0.63716
1154,12.333,1.2669,0,0.0002741,2739.1,9.1523e-05,12.631,8.9804e-05,-0.28481,-0.00027389,-2733,0.74209
1155,12,0.95021,0,0.00028296,2827.6,9.4207e-05,9.8414,9.2873e-05,-0.18106,-0.00028279,-2822.8,0.70537
1156,12,1.5837,0,0.00028277,2825.7,9.4087e-05,9.1117,9.2839e-05,-0.26135,-0.00028261,-2821.3,0.70742
1157,12,1.2669,0.05,1.9591e-06,19.577,1.5043e-06,11.303,-3.816e-16,3.8114e-06,-1.5043e-06,-11.303,0.70647
1158,12.998,1.264,0,0.00025682,2566.5,8.6427e-05,19.769,8.3728e-05,-0.50649,-0.00025649,-2556.8,0.81488
1159,12.667,0.95021,0,0.00026534,2651.6,8.8817e-05,14.924,8.6812e-05,-0.14034,-0.00026509,-2644.2,0.77724
1160,12.662,1.5741,0,0.00026541,2652.3,8.8971e-05,16.219,8.6731e-05,-0.60929,-0.00026514,-2644.5,0.7787
1161,12.667,1.2669,0.05,1.9252e-06,19.238,1.4783e-06,11.107,-5.1351e-15,3.8128e-06,-1.4783e-06,-11.107,0.77828
1162,13.662,1.2562,0,0.00023992,2397.6,8.1564e-05,27.886,7.768e-05,-1.2922,-0.00023946,-2384.1,0.88976
1163,13.331,0.94725,0,0.00024801,2478.3,8.365e-05,21.619,8.0762e-05,-0.080098,-0.00024763,-2467.5,0.85124
1164,13.321,1.5591,0,0.00024868,2485.1,8.405e-05,24.021,8.0903e-05,0.37415,-0.00024826,-2472.8,0.8519
1165,13.33,1.261,0.05,1.9162e-06,19.149,1.4714e-06,11.056,-3.8754e-14,4.0332e-06,-1.4714e-06,-11.056,0.852
1166,14.327,1.2458,0,0.00022347,2233.1,7.7154e-05,41.303,7.1743e-05,0.64801,-0.00022272,-2211.9,0.96701
1167,13.995,0.93843,0,0.00023085,2306.9,7.8688e-05,29.608,7.464e-05,-0.8124,-0.00023034,-2292.3,0.92731
1168,13.985,1.5425,0,0.00023196,2318,7.9301e-05,31.64,7.4781e-05,-2.3188,-0.00023145,-2303.2,0.92774
1169,13.993,1.2515,0.05,1.8768e-06,18.755,1.4412e-06,10.828,-3.0569e-22,5.1686e-06,-1.4412e-06,-10.828,0.928
1170,14.991,1.2265,0,0.0002062,2060.6,7.4005e-05,68.879,6.4205e-05,-4.754,-0.00020501,-2027.5,1.046
1171,14.659,0.92903,0,0.00021365,2135,7.4177e-05,45.355,6.8427e-05,2.1497,-0.00021281,-2111,1.0054
1172,14.654,1.5307,0,0.00021622,2160.7,7.5195e-05,50.841,6.9494e-05,8.0077,-0.00021519,-2131,1.0064
1173,14.661,1.2402,0.05,1.8377e-06,18.365,1.4111e-06,10.603,1.4196e-13,5.1739e-06,-1.4111e-06,-10.603,1.0065
1174,15.311,0.90297,0,0.00019467,1945.3,7.0197e-05,69.308,6.0435e-05,-4.0399,-0.00019345,-1911.7,1.0838
1175,15.614,1.1437,0,0.00018833,1882,7.0785e-05,96.457,5.6182e-05,-13.267,-0.00018667,-1838,1.1216
1176,15.343,1.5202,0,0.0001954,1952.6,7.0104e-05,64.702,6.0827e-05,-5.003,-0.00019429,-1921.8,1.0893
1177,15.321,1.2127,0.05,3.0575e-06,30.554,2.3478e-06,17.64,9.9569e-14,8.9161e-06,-2.3478e-06,-17.64,1.0859
1178,21.136,1.2854,0,5.7988e-05,579.48,2.0008e-05,-0.55967,1.7596e-05,-18.682,-5.8294e-05,-588.89,1.866
1179,20.806,0.95352,0,6.3519e-05,634.75,2.1593e-05,0.38767,1.9922e-05,-12.166,-6.371e-05,-640.54,1.8187
1180,20.821,1.2735,0.05,1.2718e-06,12.709,9.7657e-07,7.3376,3.3733e-13,7.0303e-06,-9.7657e-07,-7.3376,1.821
1181,21.77,1.3062,0,4.605e-05,460.18,1.5268e-05,0.62574,1.5133e-05,-0.38587,-4.6045e-05,-460.06,1.9568
1182,21.442,0.97168,0,5.2143e-05,521.07,1.7416e-05,0.7889,1.6926e-05,-2.8943,-5.2177e-05,-522.11,1.9096
1183,21.452,1.2973,0.05,1.5312e-06,15.302,1.1758e-06,8.8344,4.7222e-13,9.7787e-06,-1.1758e-06,-8.8344,1.9112
1184,22.081,0.98512,0,3.9951e-05,399.23,1.4131e-05,11.225,1.2601e-05,-0.27062,-3.9752e-05,-393.63,2.0014
1185,22.094,1.6504,0,3.9941e-05,399.14,1.3873e-05,8.0279,1.2741e-05,-0.47238,-3.9806e-05,-395.29,2.0035
1186,22.088,1.3152,0.05,1.5063e-06,15.053,1.1567e-06,8.6908,6.9693e-13,9.2117e-06,-1.1567e-06,-8.6908,2.0025
1187,14.011,4.7375,0,0.00023084,2306.8,7.917e-05,36.038,7.4407e-05,0.24614,-0.00023021,-2288.5,0.9301
1188,14.365,5.0568,0,0.0002212,2210.4,7.5965e-05,36.453,7.13e-05,1.4085,-0.00022053,-2191.3,0.97056
1189,14.701,4.7493,0,0.00021372,2135.7,7.4779e-05,49.915,6.7875e-05,-1.9627,-0.00021285,-2111.3,1.0113
1190,14.355,4.4407,0,0.00022303,2228.7,7.7113e-05,41.542,7.1442e-05,-1.0609,-0.00022231,-2208.2,0.971
1191,14.363,4.742,0.05,1.9281e-06,19.268,1.4805e-06,11.124,4.3276e-15,5.3517e-06,-1.4805e-06,-11.124,0.97121
1192,13.302,4.7382,0,0.00024873,2485.6,8.4236e-05,25.415,8.0758e-05,-0.72172,-0.0002483,-2473.1,0.84886
1193,13.66,5.0498,0,0.00023912,2389.6,8.1067e-05,25.647,7.7608e-05,-0.3412,-0.00023868,-2376.8,0.88856
1194,13.661,4.4218,0,0.00023963,2394.6,8.2008e-05,32.239,7.706e-05,-4.9405,-0.00023914,-2380.7,0.89048
1195,13.66,4.7331,0.05,1.9105e-06,19.092,1.467e-06,11.023,-3.1118e-22,5.1324e-06,-1.467e-06,-11.023,0.88953
1196,12.584,4.7444,0,0.00026751,2673.2,8.9704e-05,16.85,8.7409e-05,-0.39061,-0.00026722,-2665,0.76918
1197,12.942,5.055,0,0.0002579,2577.2,8.6673e-05,18.598,8.4159e-05,-0.291,-0.00025758,-2568,0.8076
1198,12.947,4.4306,0,0.000258,2578.2,8.7092e-05,23.135,8.3956e-05,-0.42602,-0.00025761,-2566.8,0.80996
1199,12.944,4.7434,0.05,2.0676e-06,20.662,1.5877e-06,11.929,4.8506e-15,4.1327e-06,-1.5877e-06,-11.929,0.80878
1200,11.866,4.7489,0,0.00028647,2862.7,9.532e-05,9.1312,9.4047e-05,-0.4366,-0.00028632,-2858.4,0.69225
1201,12.223,5.056,0,0.00027701,2768.2,9.2482e-05,12.665,9.0765e-05,-0.23807,-0.00027679,-2761.9,0.72906
1202,12.217,4.4681,0,0.00027718,2769.9,9.2398e-05,11.782,9.0982e-05,1.1407,-0.00027696,-2763.5,0.73037
1203,12.224,4.7454,0.05,2.022e-06,20.206,1.5527e-06,11.666,7.7071e-15,3.8346e-06,-1.5527e-06,-11.666,0.73024
1204,11.148,4.7601,0,0.00030564,3054.3,0.00010104,1.8757,0.00010074,-0.40347,-0.00030562,-3053.6,0.61822
1205,11.507,5.0648,0,0.00029619,2959.8,9.8287e-05,6.2938,9.7399e-05,-0.37957,-0.00029609,-2956.9,0.65367
1206,11.499,4.4797,0,0.000296,2958,9.8106e-05,4.5122,9.7376e-05,-0.97798,-0.00029594,-2956.2,0.65488
1207,11.508,4.7524,0.05,2.1041e-06,21.027,1.6157e-06,12.14,-3.4272e-22,3.5212e-06,-1.6157e-06,-12.14,0.65494
1208,10.425,4.7707,0,0.00032521,3249.8,0.00010767,0.28789,0.00010675,-6.6102,-0.00032532,-3253,0.54687
1209,10.786,5.0711,0,0.00031571,3154.9,0.00010426,0.67842,0.00010412,-0.41764,-0.0003157,-3154.8,0.58094
1210,10.774,4.4934,0,0.00031543,3152.1,0.00010433,0.33483,0.00010371,-4.3256,-0.0003155,-3154.1,0.58183
1211,10.788,4.7678,0.05,2.1104e-06,21.089,1.6205e-06,12.176,9.493e-15,3.0058e-06,-1.6205e-06,-12.176,0.58225
1212,9.7016,4.7709,0,0.00034501,3447.7,0.00011471,0.20285,0.00011243,-16.917,-0.00034529,-3456,0.47895
1213,10.063,5.0747,0,0.00033555,3353.2,0.00011106,-0.14093,0.00011017,-6.7921,-0.00033567,-3356.7,0.51123
1214,10.052,4.4955,0,0.00033497,3347.4,0.0001113,0.23387,0.00010927,-15.072,-0.00033522,-3354.8,0.51244
1215,10.062,4.7736,0.05,2.1676e-06,21.661,1.6645e-06,12.506,-2.6703e-15,2.82e-06,-1.6645e-06,-12.506,0.51229
1216,8.9845,4.7674,0,0.00036478,3645.3,0.00012189,0.26475,0.00011784,-30.171,-0.00036528,-3660.2,0.41517
1217,9.3436,5.0719,0,0.00035556,3553.1,0.00011812,-0.13378,0.000116,-16.034,-0.00035583,-3561.2,0.44533
1218,9.3373,4.4867,0,0.00035448,3542.4,0.00011842,0.33905,0.00011457,-28.536,-0.00035495,-3556.4,0.44713
1219,9.3415,4.7682,0.05,2.1708e-06,21.693,1.6669e-06,12.525,-9.5596e-15,3.1716e-06,-1.6669e-06,-12.525,0.44645
1220,8.2687,4.759,0,0.0003846,3843.4,0.00012933,0.65262,0.0001229,-47.646,-0.00038538,-3866.7,0.35526
1221,8.6265,5.0743,0,0.00037566,3754,0.00012531,-0.35149,0.00012166,-27.773,-0.00037613,-3768,0.38331
1222,8.6278,4.4812,0,0.00037393,3736.7,0.00012567,0.2124,0.00011956,-45.713,-0.00037468,-3759.3,0.38592
1223,8.6275,4.7666,0.05,2.1953e-06,21.937,1.6857e-06,12.666,-3.5756e-22,1.8097e-06,-1.6857e-06,-12.666,0.38477
1224,7.5503,4.7519,0,0.0004045,4042.2,0.000137,0.17763,0.00012752,-71.051,-0.00040566,-4077.2,0.29912
1225,7.9084,5.0646,0,0.00039595,3956.8,0.00013282,-0.048868,0.00012701,-43.712,-0.00039668,-3978.5,0.32515
1226,7.9155,4.4722,0,0.00039342,3931.5,0.00013324,0.56177,0.00012408,-68.338,-0.00039453,-3964.9,0.32827
1227,7.9098,4.7514,0.05,2.2521e-06,22.505,1.7293e-06,12.993,-3.0277e-14,1.2335e-06,-1.7293e-06,-12.993,0.3267
1228,6.8304,4.7512,0,0.00042461,4243.2,0.0001452,0.70798,0.00013154,-101.94,-0.00042624,-4292.8,0.24702
1229,7.19,5.064,0,0.00041633,4160.4,0.00014047,-1.1138,0.00013205,-64.39,-0.0004174,-4192.8,0.271
1230,7.1987,4.4727,0,0.00041286,4125.8,0.00014111,-0.58906,0.00012791,-99.709,-0.00041448,-4175,0.27426
1231,7.1908,4.7523,0.05,2.2706e-06,22.691,1.7436e-06,13.101,-3.2442e-14,6.8105e-07,-1.7436e-06,-13.101,0.27253
1232,6.1088,4.7528,0,0.00044437,4440.7,0.00015386,3.1656,0.00013461,-141.48,-0.00044655,-4508,0.19922
1233,6.4702,5.0583,0,0.00043709,4367.9,0.00014877,-0.025495,0.00013652,-92.071,-0.00043858,-4413.2,0.22109
1234,6.4764,4.4688,0,0.00043281,4325.1,0.00015028,5.4246,0.00013059,-142.53,-0.00043495,-4391.7,0.22416
1235,6.47,4.7501,0.05,2.5673e-06,25.655,1.9714e-06,14.812,-3.3915e-14,3.0038e-09,-1.9714e-06,-14.812,0.22255
1236,5.3893,4.7514,0,0.00046333,4630.1,0.00016281,4.2403,0.00013628,-195.12,-0.00046626,-4722.3,0.15621
1237,5.7494,5.0657,0,0.00045728,4569.6,0.00015719,0.46797,0.00014022,-127.02,-0.0004593,-4631.6,0.1756
1238,5.7477,4.4527,0,0.00045141,4511,0.00015844,0.73232,0.00013277,-192.17,-0.00045435,-4603.6,0.17826
1239,5.7477,4.7554,0.05,2.3417e-06,23.401,1.7982e-06,13.511,-2.1429e-14,6.1031e-07,-1.7982e-06,-13.511,0.177
1240,4.6743,4.7507,0,0.00048219,4818.6,0.00017265,2.9262,0.00013606,-271.96,-0.00048618,-4947.2,0.11824
1241,5.0317,5.0617,0,0.00047744,4771.1,0.00016623,0.59629,0.00014277,-175.67,-0.00048018,-4856.2,0.13511
1242,5.0322,4.438,0,0.00046902,4687,0.00016778,-2.8045,0.00013207,-271.13,-0.00047311,-4818.2,0.13788
1243,5.031,4.7474,0.05,2.5941e-06,25.923,1.992e-06,14.967,-2.8358e-13,-3.1747e-15,-1.992e-06,-14.967,0.13656
1244,3.953,4.7598,0,0.00050201,5016.6,0.00018519,16.201,0.00013319,-374.48,-0.00050696,-5184.3,0.084936
1245,4.3157,5.0602,0,0.00049793,4975.9,0.00017591,-4.2526,0.00014399,-244.1,-0.00050173,-5095.8,0.099627
1246,4.3187,4.4631,0,0.00048718,4868.4,0.00017905,3.2169,0.00012927,-370.77,-0.00049235,-5041.4,0.10229
1247,4.3177,4.7539,0.05,3.1208e-06,31.186,2.3964e-06,18.005,-5.083e-22,-3.8192e-15,-2.3964e-06,-18.005,0.1011
1248,3.2122,4.7542,0,0.00051928,5189.3,0.00019615,8.6849,0.00012869,-498.22,-0.00052575,-5415.4,0.05627
1249,3.5915,5.0661,0,0.00051988,5195.2,0.00018866,14.105,0.00014325,-327.13,-0.00052436,-5343.3,0.068929
1250,3.5957,4.4832,0,0.00050496,5046.2,0.00019255,17.362,0.0001227,-507.5,-0.00051125,-5270.7,0.071358
1251,3.5884,4.7657,0.05,5.0617e-06,50.582,3.8867e-06,29.203,-8.2443e-22,-6.1945e-15,-3.8867e-06,-29.203,0.070053
1252,2.4683,4.7236,0,0.00053217,5318,0.00020958,15.25,0.00011665,-683.01,-0.00054007,-5617.4,0.033353
1253,2.8459,5.0548,0,0.00053669,5363.2,0.00019709,-10.023,0.00014139,-428.58,-0.00054292,-5570.2,0.043126
1254,2.8553,4.4665,0,0.00052297,5226.1,0.00020429,-4.5674,0.00011586,-668.95,-0.00053125,-5531.1,0.045333
1255,2.836,4.7427,0.05,4.7209e-07,4.7177,3.6251e-07,2.7238,-7.6894e-23,-5.7775e-16,-3.6251e-07,-2.7238,0.043907
1256,2.1138,5.0287,0,0.00055138,5510,0.00021271,35.614,0.00013106,-577.87,-0.00055803,-5755.4,0.023642
1257,1.7454,4.695,0,0.00054051,5401.4,0.00022213,-87.628,9.0476e-05,-1076.8,-0.00055348,-5915.3,0.016694
1258,2.086,4.3771,0,0.00052776,5273.9,0.0002259,45.537,8.3795e-05,-1022.2,-0.0005362,-5680.5,0.024495
1259,2.1006,4.7045,0.05,2.8268e-06,28.248,2.1706e-06,16.309,-4.6042e-22,5.4023e-06,-2.1706e-06,-16.309,0.024157
1260,1.3047,3.6745,0,0.00054833,5479.5,0.00024738,-240.97,3.0442e-05,-1871,-0.00056575,-6350.5,0.0099851
1261,1.0047,4.0138,0,0.0005879,5875,0.00030396,438.47,2.2674e-05,-1675,-0.00057968,-6200.8,0.0058124
1262,1.3663,4.3506,0,0.00054273,5423.5,0.00023454,-220.54,5.4001e-05,-1577,-0.00056042,-6193.5,0.010543
1263,1.7069,4.0327,0,0.0005312,5308.4,0.00023831,-87.346,4.8027e-05,-1517.1,-0.00054385,-5964.2,0.016795
1264,1.3424,4.0156,0.05,7.5481e-06,75.429,5.796e-06,43.549,-1.6471e-13,5.0467e-05,-5.796e-06,-43.549,0.010375
1265,1.2657,2.9818,0,0.00055115,5507.7,0.00025005,-265.49,2.5035e-05,-1956.2,-0.00056912,-6420.4,0.009513
1266,0.95437,3.335,0,0.00060103,6006.2,0.00031362,443.38,1.5925e-05,-1793.4,-0.00059188,-6360.2,0.0053754
1267,1.5543,3.2982,0,0.00054317,5427.9,0.00024837,-90.944,3.889e-05,-1664.9,-0.00055563,-6131.9,0.014294
1268,1.2669,3.3333,0.05,8.3729e-06,83.672,6.4294e-06,48.308,-1.3638e-21,-1.4011e-07,-6.4294e-06,-48.308,0.009467
1269,1.2811,2.2952,0,0.00054723,5468.6,0.00024614,-261.7,2.9716e-05,-1887.8,-0.00056534,-6358.9,0.0096255
1270,0.95164,2.6439,0,0.00059989,5994.8,0.00031324,439.74,1.5089e-05,-1800.4,-0.00059075,-6352.5,0.0053445
1271,1.574,2.6026,0,0.00054146,5410.8,0.00024884,-95.006,3.5583e-05,-1697.4,-0.00055384,-6126.1,0.014631
1272,1.2644,2.6303,0.05,9.3982e-06,93.917,7.2167e-06,54.223,-2.2737e-13,4.3671e-10,-7.2167e-06,-54.223,0.0094264
1273,0.97102,1.974,0,0.00058912,5887.2,0.00030408,427.36,2.2548e-05,-1688,-0.00058132,-6225.2,0.0054308
1274,1.6237,1.9431,0,0.0005383,5379.3,0.00023947,-102.52,5.1456e-05,-1515.2,-0.00055172,-6047.2,0.015202
1275,1.2978,1.9601,0.05,7.5802e-06,75.75,5.8207e-06,43.734,-4.4871e-13,-9.2767e-15,-5.8207e-06,-43.734,0.0096941
1276,22.731,2.3303,0,2.8582e-05,285.62,1.2769e-05,41.418,7.3983e-06,1.0618,-2.7645e-05,-262.24,2.0954
1277,23.048,1.9969,0,2.327e-05,232.54,1.2412e-05,57.898,4.4736e-06,-1.7451,-2.1734e-05,-198.66,2.141
1278,22.415,1.9897,0,3.4211e-05,341.88,1.3219e-05,23.476,1.0129e-05,0.25461,-3.3748e-05,-329.42,2.0497
1279,22.729,1.9939,0.05,1.5342e-06,15.331,1.178e-06,8.8514,6.7928e-13,9.7582e-06,-1.178e-06,-8.8514,2.095
1280,22.742,2.9999,0,2.8425e-05,284.06,1.2792e-05,42.371,7.2983e-06,1.0935,-2.746e-05,-260.07,2.0969
1281,23.05,2.6667,0,2.335e-05,233.34,1.26e-05,60.101,4.3936e-06,-1.5591,-2.1734e-05,-197.87,2.1414
1282,22.424,2.662,0,3.4064e-05,340.41,1.3018e-05,21.672,1.0182e-05,0.36446,-3.3639e-05,-328.89,2.0512
1283,22.733,2.6667,0.05,1.5456e-06,15.445,1.1868e-06,8.9171,6.8512e-13,1.1825e-05,-1.1868e-06,-8.9171,2.0957
1284,22.771,3.672,0,2.7916e-05,278.97,1.2665e-05,43.059,7.1156e-06,1.3611,-2.6925e-05,-254.41,2.101
1285,22.451,3.3387,0,3.3605e-05,335.82,1.2953e-05,22.711,9.9731e-06,0.32135,-3.3157e-05,-323.74,2.055
1286,23.061,3.3317,0,2.3128e-05,231.12,1.258e-05,60.84,4.2802e-06,-1.5204,-2.1479e-05,-195.06,2.143
1287,22.75,3.3331,0.05,1.5169e-06,15.159,1.1648e-06,8.752,6.9078e-13,1.1863e-05,-1.1648e-06,-8.752,2.0981
1288,23.079,4.0054,0,2.2665e-05,226.5,1.2328e-05,59.537,4.1871e-06,-1.627,-2.1052e-05,-191.26,2.1454
1289,22.495,4.0189,0,3.2769e-05,327.47,1.3014e-05,26.635,9.4651e-06,-0.030656,-3.2235e-05,-313.35,2.0612
1290,22.791,4.0108,0.05,1.485e-06,14.839,1.1403e-06,8.5675,8.1351e-13,1.1819e-05,-1.1403e-06,-8.5675,2.1039
1291,16.343,3.0727,0,0.00020188,2017.4,7.4584e-05,97.67,6.197e-05,2.8897,-0.00020001,-1965.5,1.2146
1292,16.118,3.3339,0,0.0001971,1969.6,7.1824e-05,77.143,6.053e-05,-7.7176,-0.00019578,-1933.5,1.1864
1293,15.862,3.0748,0,0.00019942,1992.9,7.1658e-05,69.922,6.2253e-05,-0.74596,-0.00019815,-1957.3,1.1546
1294,16.106,3.11,0.05,1.172e-06,11.712,8.9993e-07,6.7617,-6.9627e-13,5.3095e-06,-8.9993e-07,-6.7617,1.185
1295,15.646,2.0135,0,0.00019895,1988.1,7.4138e-05,100.76,6.037e-05,-2.6868,-0.00019708,-1937,1.1273
1296,15.855,2.3785,0,0.00020026,2001.2,7.6246e-05,111.61,5.8864e-05,-18.993,-0.00019836,-1951.7,1.1535
1297,16.2,2.3281,0,0.0002014,2012.6,7.8908e-05,145.05,5.8328e-05,-9.5762,-0.00019865,-1940.4,1.1963
1298,15.927,2.1993,0.05,6.1593e-06,61.551,4.7296e-06,35.536,1.8289e-12,2.5172e-06,-4.7296e-06,-35.536,1.1622
1299,22.176,3.6857,0,3.8559e-05,385.32,1.3299e-05,6.2622,1.2324e-05,-1.0608,-3.8465e-05,-382.67,2.0153
1300,22.134,3.0007,0,3.9366e-05,393.39,1.3182e-05,2.041,1.2854e-05,-0.42848,-3.9338e-05,-392.58,2.0094
1301,21.847,3.3381,0,4.5048e-05,450.17,1.5776e-05,0.87103,1.3387e-05,-17.073,-4.5297e-05,-458.01,1.9681
1302,22.152,3.3442,0.05,1.629e-06,16.279,1.2509e-06,9.3986,6.8983e-13,1.0072e-05,-1.2509e-06,-9.3986,2.012
1303,15.276,2.1295,0,0.00020106,2009.3,7.2022e-05,65.723,6.2713e-05,-4.2171,-0.00019993,-1977.6,1.0822
1304,14.89,2.4075,0,0.00021388,2137.3,7.6335e-05,67.074,6.6927e-05,-3.6091,-0.00021271,-2104.7,1.0358
1305,15.136,2.7095,0,0.00020844,2082.9,7.515e-05,72.134,6.4537e-05,-7.6095,-0.00020722,-2049.5,1.0657
1306,15.486,2.4945,0,0.00020227,2021.3,7.4046e-05,75.947,6.1234e-05,-20.323,-0.00020116,-1991.8,1.1081
1307,15.187,2.4313,0.05,2.6351e-06,26.333,2.0235e-06,15.204,2.1237e-13,2.1451e-06,-2.0235e-06,-15.204,1.0717
1308,2.2187,2.5486,0,0.00052132,5209.7,0.00023541,43.946,5.7604e-05,-1292,-0.00052954,-5703.6,0.028728
1309,2.5836,2.2109,0,0.0005126,5122.4,0.00021769,-7.6501,7.9533e-05,-1045.7,-0.00052256,-5569.6,0.038376
1310,2.9011,2.5136,0,0.00050113,5007.8,0.0002126,6.2295,7.9596e-05,-993.09,-0.00051038,-5425.9,0.048427
1311,2.4343,2.8531,0,0.00050955,5092,0.00022229,-10.217,6.6886e-05,-1177.9,-0.00051961,-5584.6,0.034555
1312,2.5539,2.5223,0.05,2.5342e-06,25.325,1.946e-06,14.621,1.7201e-13,-3.1014e-15,-1.946e-06,-14.621,0.03776
1313,13.27,3.5491,0,0.00024958,2494.1,8.4478e-05,26.268,8.1185e-05,1.5285,-0.0002491,-2480.1,0.8476
1314,13.662,3.8092,0,0.00023901,2388.5,8.1386e-05,28.362,7.7215e-05,-2.9788,-0.00023856,-2375.6,0.89179
1315,14.025,3.5264,0,0.00023102,2308.6,7.8728e-05,31.415,7.4897e-05,2.6292,-0.00023043,-2291.5,0.93389
1316,13.487,3.2319,0,0.00024476,2445.9,8.3043e-05,28.842,7.9564e-05,2.702,-0.00024421,-2430,0.87233
1317,13.805,3.2115,0,0.00023597,2358.1,8.0941e-05,37.117,7.6067e-05,0.49389,-0.00023531,-2339.1,0.90866
1318,13.663,3.5078,0.05,1.7729e-06,17.717,1.3614e-06,10.229,3.2925e-14,1.8676e-06,-1.3614e-06,-10.229,0.89214
1319,12.521,3.6208,0,0.00026951,2693.3,9.0728e-05,20.86,8.7823e-05,-0.96837,-0.00026917,-2683.3,0.76475
1320,12.913,3.8541,0,0.00025949,2593.1,8.7992e-05,28.138,8.4214e-05,-0.24631,-0.00025901,-2579.1,0.80743
1321,12.802,3.3287,0,0.00026211,2619.3,8.8079e-05,19.412,8.56e-05,0.78084,-0.00026177,-2609.2,0.7957
1322,12.877,3.5904,0.05,2.666e-06,26.642,2.0472e-06,15.382,1.6152e-13,4.4861e-06,-2.0472e-06,-15.382,0.80377
1323,11.796,3.6556,0,0.00028784,2876.4,9.5607e-05,6.88,9.4569e-05,-0.91827,-0.00028774,-2873.4,0.68748
1324,12.188,3.9209,0,0.00027771,2775.2,9.2518e-05,10.753,9.1155e-05,0.51291,-0.00027752,-2769.6,0.72842
1325,12.107,3.371,0,0.00027973,2795.4,9.3331e-05,10.442,9.1542e-05,-3.0035,-0.0002796,-2791.6,0.72045
1326,12.165,3.6511,0.05,2.5116e-06,25.098,1.9286e-06,14.49,5.4175e-14,5.1865e-06,-1.9286e-06,-14.49,0.72636
1327,11.073,3.6678,0,0.00030699,3067.8,0.00010162,0.62313,0.00010084,-5.1863,-0.00030707,-3070.1,0.61334
1328,11.459,3.9336,0,0.00029684,2966.4,9.8278e-05,3.322,9.7722e-05,-0.84997,-0.0002968,-2965.1,0.65207
1329,11.4,3.3803,0,0.00029828,2980.7,9.8616e-05,1.7728,9.8283e-05,-0.72859,-0.00029826,-2980.2,0.64679
1330,11.428,3.6601,0.05,1.9546e-06,19.532,1.5009e-06,11.277,4.5547e-14,4.6181e-06,-1.5009e-06,-11.277,0.64934
1331,10.367,3.67,0,0.00032567,3254.5,0.00010836,0.038645,0.00010598,-17.789,-0.00032597,-3263.3,0.54422
1332,10.739,3.9472,0,0.00031594,3157.2,0.0001047,-0.056342,0.00010352,-8.8898,-0.00031609,-3161.7,0.57974
1333,10.704,3.3899,0,0.00031662,3164,0.00010507,-0.2502,0.00010347,-12.285,-0.00031683,-3170.2,0.57713
1334,10.717,3.6755,0.05,2.2123e-06,22.108,1.6988e-06,12.764,1.4336e-14,3.565e-06,-1.6988e-06,-12.764,0.57808
1335,9.6705,3.6475,0,0.00034433,3440.9,0.00011527,0.20042,0.00011087,-32.83,-0.00034487,-3457.1,0.47914
1336,10.03,3.941,0,0.00033492,3346.9,0.00011162,0.35218,0.0001087,-21.652,-0.00033528,-3357.5,0.51185
1337,10.01,3.397,0,0.00033512,3348.8,0.00011185,0.14231,0.00010846,-25.369,-0.00033554,-3361.4,0.51072
1338,10.018,3.6646,0.05,2.127e-06,21.255,1.6332e-06,12.272,6.3139e-15,2.4353e-06,-1.6332e-06,-12.272,0.51112
1339,8.9801,3.6243,0,0.00036285,3626,0.00012235,0.25557,0.00011534,-52.428,-0.00036371,-3651.8,0.41796
1340,9.3282,3.9179,0,0.00035385,3536.1,0.00011866,0.21961,0.00011359,-37.859,-0.00035448,-3554.7,0.44788
1341,9.3252,3.3494,0,0.00035347,3532.2,0.00011877,0.049328,0.00011304,-43.018,-0.00035418,-3553.5,0.44844
1342,9.3234,3.6305,0.05,2.0837e-06,20.822,1.6e-06,12.022,-7.8184e-15,2.3392e-06,-1.6e-06,-12.022,0.44794
1343,8.2872,3.6228,0,0.0003813,3810.4,0.00012967,0.023001,0.00011929,-77.967,-0.00038257,-3848.8,0.36002
1344,8.6325,3.9069,0,0.00037263,3723.7,0.00012589,0.32284,0.00011804,-58.643,-0.00037359,-3752.5,0.38793
1345,8.6418,3.34,0,0.00037172,3714.7,0.00012589,0.37096,0.00011722,-64.765,-0.00037278,-3746.4,0.38954
1346,8.6369,3.6181,0.05,2.1231e-06,21.216,1.6303e-06,12.249,-9.1163e-15,3.133e-06,-1.6303e-06,-12.249,0.38879
1347,7.5872,3.6306,0,0.0003998,3995.3,0.00013752,1.3726,0.00012254,-111.17,-0.00040155,-4049,0.3052
1348,7.9293,3.9102,0,0.00039142,3911.5,0.00013338,-0.17604,0.00012199,-85.734,-0.00039281,-3953.7,0.33098
1349,7.9532,3.3519,0,0.00038992,3896.5,0.00013331,0.03689,0.00012078,-94.09,-0.00039143,-3942.7,0.33371
1350,7.9376,3.6275,0.05,2.1063e-06,21.049,1.6174e-06,12.153,-4.9903e-15,7.7882e-07,-1.6174e-06,-12.153,0.33213
1351,6.8856,3.6312,0,0.00041759,4173,0.00014538,-1.0583,0.00012474,-156.14,-0.00042005,-4249.4,0.25421
1352,7.2217,3.9133,0,0.00041017,4098.9,0.00014149,1.3474,0.00012501,-122.44,-0.00041209,-4158,0.27759
1353,7.2666,3.3595,0,0.00040797,4076.9,0.00014131,3.0277,0.0001235,-130.79,-0.00040998,-4139.1,0.28173
1354,7.2368,3.6337,0.05,2.4378e-06,24.361,1.8719e-06,14.065,-2.5907e-14,1.8123e-06,-1.8719e-06,-14.065,0.27919
1355,6.1708,3.6139,0,0.00043631,4360,0.00015487,3.1818,0.00012553,-217.32,-0.00043953,-4462.9,0.20655
1356,6.5086,3.9082,0,0.00042848,4281.9,0.00015006,1.6525,0.00012669,-173.95,-0.00043114,-4365.3,0.22798
1357,6.5773,3.3545,0,0.00042483,4245.3,0.0001487,-5.547,0.00012508,-183.04,-0.00042776,-4336.8,0.23345
1358,6.5344,3.6288,0.05,1.0576e-06,10.568,8.1209e-07,6.1017,-1.7755e-12,1.6613e-07,-8.1209e-07,-6.1017,0.23021
1359,5.4084,3.5616,0,0.00045215,4518.4,0.00016605,12.513,0.00012111,-325.12,-0.00045652,-4665.3,0.16072
1360,5.7774,3.8744,0,0.00044769,4473.8,0.00015968,4.5684,0.00012758,-236.59,-0.00045115,-4584.9,0.18173
1361,5.8764,3.3335,0,0.00044254,4422.3,0.00015955,11.87,0.00012378,-256.95,-0.00044609,-4538.7,0.18854
1362,5.8072,3.5989,0.05,2.1243e-06,21.229,1.6312e-06,12.256,8.4216e-14,2.0448e-06,-1.6312e-06,-12.256,0.184
1363,4.6431,3.5581,0,0.00046818,4678.6,0.00017718,10.143,0.00011565,-452.2,-0.00047399,-4882.5,0.11999
1364,5.0216,3.8264,0,0.00046156,4612.4,0.00016982,1.87,0.00012203,-357.16,-0.00046655,-4779.5,0.139
1365,4.8518,3.2296,0,0.00046254,4622.2,0.00017219,3.1865,0.00011879,-398.03,-0.00046795,-4806.6,0.13086
1366,5.1813,3.2428,0,0.00045706,4567.4,0.0001687,5.11,0.00012018,-359.49,-0.00046199,-4733.7,0.14838
1367,5.0096,3.5242,0.05,3.7117e-06,37.092,2.8501e-06,21.415,6.1442e-13,4.1492e-07,-2.8502e-06,-21.415,0.13883
1368,3.9431,3.6156,0,0.00048356,4832.3,0.00018692,-11.703,0.00011007,-589.15,-0.00049119,-5106.8,0.087534
1369,4.2982,3.8821,0,0.00048058,4802.5,0.00018155,5.7885,0.00011885,-465.38,-0.00048666,-5014.9,0.10291
1370,4.2049,3.3068,0,0.00047784,4775.1,0.00018562,19.027,0.00011005,-548.76,-0.00048431,-5014.6,0.099402
1371,4.2767,3.592,0.05,3.597e-06,35.945,2.762e-06,20.753,5.6728e-14,-4.402e-15,-2.762e-06,-20.753,0.10237
1372,3.2957,3.6467,0,0.00049402,4936.8,0.0002021,7.5627,9.3282e-05,-810.04,-0.00050257,-5287,0.061833
1373,3.607,3.3709,0,0.00049045,4901.1,0.00019456,-16.147,0.00010189,-712.48,-0.00049912,-5228.2,0.073929
1374,3.6063,3.9199,0,0.00049309,4927.5,0.0001918,-12.997,0.00010992,-628.18,-0.00050111,-5219.2,0.07319
1375,3.6095,3.6392,0.05,9.6982e-07,9.6916,7.447e-07,5.5954,-1.5796e-22,-1.1869e-15,-7.447e-07,-5.5954,0.073729
1376,2.7356,3.6203,0,0.00051537,5150.1,0.00022145,27.517,7.8396e-05,-1047.3,-0.00052423,-5575.2,0.043072
1377,3.0039,3.3719,0,0.00049887,4985.2,0.00020943,20.783,8.5076e-05,-913.59,-0.00050744,-5365.5,0.051888
1378,2.9282,3.9222,0,0.00050936,5090.1,0.00021095,24.412,9.2842e-05,-863,-0.00051779,-5451,0.048782
1379,2.9818,3.6542,0.05,4.3701e-06,43.67,3.3557e-06,25.213,-4.3532e-13,9.528e-07,-3.3557e-06,-25.213,0.05086
1380,2.2804,3.8181,0,0.00052455,5241.8,0.00023109,28.778,6.8308e-05,-1194.3,-0.00053355,-5716.5,0.030018
1381,2.4021,3.3851,0,0.00052075,5203.9,0.00022585,-8.4771,7.1269e-05,-1169.9,-0.00053097,-5694.9,0.033581
1382,2.4895,3.5864,0.05,8.6171e-06,86.111,6.6169e-06,49.716,-1.4035e-21,-1.0546e-14,-6.6169e-06,-49.716,0.035822
1383,3.3152,3.096,0,0.00049531,4949.7,0.00020186,-3.1973,9.3928e-05,-814.16,-0.00050421,-5308.3,0.062931
1384,3.1372,2.7972,0,0.00049544,4951,0.00020412,1.1228,9.0106e-05,-855.56,-0.00050439,-5322.3,0.056537
1385,2.6704,3.1367,0,0.00050402,5036.7,0.00021382,-15.319,7.7863e-05,-1036.9,-0.00051408,-5484.5,0.041378
1386,3.0261,3.0896,0.05,3.3324e-06,33.301,2.5589e-06,19.226,-8.0264e-14,1.9097e-05,-2.5589e-06,-19.226,0.052715
1387,3.4263,2.8037,0,0.00049255,4922.1,0.00020037,1.9922,9.4618e-05,-792.62,-0.00050116,-5269.1,0.067044
1388,3.8688,3.0621,0,0.00048479,4844.5,0.00019326,14.597,0.00010193,-671.66,-0.0004923,-5136.4,0.084768
1389,3.6044,3.1025,0.05,5.4506e-06,54.468,4.1853e-06,31.447,9.4145e-14,1.5543e-05,-4.1853e-06,-31.447,0.073916
1390,18.441,2.3577,0,0.00030139,3011.8,0.00011971,269.97,8.9403e-05,42.257,-0.00029543,-2849.2,1.4879
1391,18.257,2.4033,0,0.00034367,3434.4,0.00014228,378.79,9.8281e-05,48.188,-0.00033521,-3208.9,1.463
1392,18.285,2.2981,0.05,1.9693e-05,196.79,1.5122e-05,113.62,-1.3476e-13,1.804e-05,-1.5122e-05,-113.62,1.4667
1393,18.226,2.149,0,0.00045838,4580.6,0.00017712,234.03,0.00012805,-134.69,-0.00045557,-4519.8,1.4583
1394,17.708,3.5633,0,0.00030965,3094.4,0.00014022,487.98,8.0464e-05,39.011,-0.00029823,-2806.4,1.3898
1395,17.896,3.4691,0,0.00032509,3248.6,0.00014493,478.83,8.549e-05,32.23,-0.00031408,-2970,1.4148
1396,17.877,3.6214,0.05,2.3754e-05,237.38,1.824e-05,137.05,3.6867e-13,1.6805e-05,-1.824e-05,-137.05,1.412
1397,17.939,3.8107,0,0.00046587,4655.5,0.00022111,770.45,0.00010504,-101.71,-0.00044832,-4259.4,1.4198
1398,23.358,0.99472,0,1.67e-05,166.88,9.8267e-06,51.736,2.3097e-06,-4.7445,-1.5167e-05,-136.06,2.1855
1399,23.037,0.66125,0,2.1672e-05,216.57,9.9144e-06,33.105,5.3352e-06,-1.3008,-2.0925e-05,-198.61,2.1389
1400,23.358,0.66275,0.05,1.4606e-06,14.596,1.1215e-06,8.4267,3.6538e-13,9.8452e-06,-1.1215e-06,-8.4267,2.1853
1401,23.355,0.33137,0,1.4889e-05,148.79,7.7789e-06,34.432,2.9268e-06,-2.0255,-1.3999e-05,-129.2,2.1847
1402,23.679,0.66471,0,1.2493e-05,124.85,8.0485e-06,46.463,9.6588e-07,-6.7533,-1.0936e-05,-96.176,2.2317
1403,23.363,1.6633,0,1.7967e-05,179.55,1.1551e-05,68.957,1.7e-06,-5.0594,-1.5696e-05,-135.77,2.1864
1404,23.358,1.3267,0.05,1.4964e-06,14.954,1.149e-06,8.6335,9.1839e-13,1.3152e-05,-1.149e-06,-8.6335,2.1857
1405,23.679,1.33,0,1.4721e-05,147.11,1.0728e-05,71.886,-5.3126e-08,-9.1229,-1.1872e-05,-97.922,2.232
1406,23.367,2.3333,0,1.8444e-05,184.31,1.2239e-05,76.553,1.4817e-06,-4.27,-1.5832e-05,-134.36,2.1871
1407,23.367,2,0.05,1.5035e-06,15.024,1.1545e-06,8.6743,9.0977e-13,1.3344e-05,-1.1545e-06,-8.6743,2.187
1408,23.683,2,0,1.5611e-05,156,1.1877e-05,84.608,-4.1567e-07,-7.7516,-1.2096e-05,-95.51,2.2328
1409,23.37,2.9985,0,1.8476e-05,184.63,1.2387e-05,78.561,1.3882e-06,-4.0777,-1.5764e-05,-132.95,2.1876
1410,23.367,2.6667,0.05,1.5001e-06,14.991,1.1519e-06,8.6548,9.0602e-13,1.3325e-05,-1.1519e-06,-8.6548,2.1871
1411,23.683,2.6667,0,1.591e-05,158.99,1.2261e-05,88.762,-5.587e-07,-7.5593,-1.2163e-05,-94.751,2.2329
1412,23.37,3.6652,0,1.8281e-05,182.68,1.2238e-05,77.289,1.3647e-06,-4.4114,-1.5614e-05,-131.98,2.1875
1413,23.373,3.3303,0.05,1.4883e-06,14.873,1.1429e-06,8.5871,7.9913e-13,1.3377e-05,-1.1429e-06,-8.587,2.188
1414,23.686,3.3318,0,1.5829e-05,158.18,1.2252e-05,89.196,-6.0059e-07,-7.3733,-1.2044e-05,-93.352,2.2333
1415,23.386,4.3338,0,1.7493e-05,174.81,1.1502e-05,70.703,1.4439e-06,-4.8695,-1.5101e-05,-129.18,2.1897
1416,23.367,4,0.05,1.4845e-06,14.835,1.1399e-06,8.565,9.2294e-13,1.3931e-05,-1.1399e-06,-8.565,2.187
1417,23.683,4,0,1.5507e-05,154.96,1.1851e-05,85.009,-4.4539e-07,-7.3825,-1.1959e-05,-93.892,2.2328
1418,23.41,5.0011,0,1.5801e-05,157.9,9.6591e-06,54.153,1.9386e-06,-3.8557,-1.4124e-05,-124.54,2.1929
1419,23.405,4.6677,0.05,1.4539e-06,14.529,1.1165e-06,8.3886,8.9955e-13,1.2398e-05,-1.1165e-06,-8.3886,2.1923
1420,23.703,4.6672,0,1.419e-05,141.81,1.065e-05,74.242,-2.9818e-07,-8.0151,-1.1143e-05,-89.501,2.2353
1421,23.123,5.3426,0,2.0017e-05,200.03,9.5221e-06,35.359,4.6979e-06,-0.88762,-1.9182e-05,-180.31,2.1512
1422,23.415,5.3345,0.05,1.3976e-06,13.967,1.0732e-06,8.0638,8.1953e-13,1.4161e-05,-1.0732e-06,-8.0637,2.1934
1423,23.708,5.3339,0,1.1781e-05,117.73,7.9247e-06,48.938,6.7641e-07,-5.5233,-1.0055e-05,-86.158,2.2357
1424,23.416,5.6673,0,1.3721e-05,137.11,7.5069e-06,36.558,2.4953e-06,-1.098,-1.2724e-05,-115.45,2.1934
1425,22.54,5.3586,0,3.0978e-05,309.57,1.1956e-05,21.321,9.2027e-06,0.63488,-3.0553e-05,-298.07,2.0671
1426,22.83,5.3507,0.05,1.3576e-06,13.567,1.0425e-06,7.8329,9.0195e-13,1.3902e-05,-1.0425e-06,-7.8329,2.109
1427,22.832,5.6753,0,2.4895e-05,248.77,1.0237e-05,25.914,7.0983e-06,2.3278,-2.433e-05,-233.81,2.109
1428,21.958,5.3665,0,4.2275e-05,422.46,1.4823e-05,10.623,1.3442e-05,0.24277,-4.2081e-05,-416.93,1.9833
1429,22.25,5.3665,0.05,1.3902e-06,13.893,1.0675e-06,8.0209,9.1302e-13,1.3169e-05,-1.0675e-06,-8.0209,2.0253
1430,22.25,5.6833,0,3.6575e-05,365.5,1.3379e-05,16.192,1.1319e-05,0.71556,-3.6263e-05,-356.8,2.0251
1431,21.375,5.3665,0,5.3214e-05,531.78,1.7824e-05,2.9467,1.7386e-05,-0.34594,-5.3169e-05,-530.47,1.8996
1432,21.667,5.3665,0.05,1.3232e-06,13.223,1.016e-06,7.6341,4.5337e-13,1.2161e-05,-1.016e-06,-7.634,1.9414
1433,21.667,5.6833,0,4.7986e-05,479.52,1.6597e-05,9.5753,1.5421e-05,0.74037,-4.7804e-05,-474.31,1.9412
1434,20.785,5.3654,0,6.3324e-05,632.81,2.1183e-05,3.6626,2.0748e-05,0.39181,-6.3255e-05,-630.77,1.8153
1435,21.083,5.3665,0.05,1.0651e-06,10.643,8.1783e-07,6.1449,8.8359e-13,1.0698e-05,-8.1783e-07,-6.1449,1.8579
1436,21.083,5.6833,0,5.8563e-05,585.22,1.9827e-05,6.3656,1.906e-05,0.60695,-5.8442e-05,-581.72,1.8577
1437,20.206,5.3868,0,6.9952e-05,699.04,2.4281e-05,14.888,2.2417e-05,0.87618,-6.9674e-05,-691.05,1.733
1438,20.486,5.3643,0.05,1.1356e-06,11.348,8.7202e-07,6.552,1.3074e-13,8.2033e-06,-8.7202e-07,-6.552,1.7728
1439,20.493,5.6822,0,6.6793e-05,667.47,2.2793e-05,10.966,2.1773e-05,3.3008,-6.6547e-05,-660.3,1.7735
1440,19.645,5.4656,0,6.9563e-05,695.15,2.5283e-05,27.979,2.155e-05,-0.067594,-6.9046e-05,-680.77,1.6537
1441,19.874,5.1115,0,7.456e-05,745.08,2.5281e-05,-0.87828,2.3374e-05,-15.204,-7.4823e-05,-753.02,1.6863
1442,19.926,5.4093,0.05,6.8607e-07,6.856,5.2682e-07,3.9583,-2.7843e-13,6.4664e-06,-5.2682e-07,-3.9583,1.6933
1443,19.921,5.7047,0,7.0318e-05,702.69,2.5378e-05,27.501,2.2022e-05,2.2854,-6.9777e-05,-687.46,1.6924
1444,19.068,5.5672,0,5.722e-05,571.81,2.1222e-05,27.45,1.7397e-05,-1.2906,-5.6721e-05,-558.19,1.5724
1445,19.365,5.5219,0.05,1.5514e-06,15.503,1.1912e-06,8.9506,7.4857e-14,6.2521e-06,-1.1912e-06,-8.9506,1.6142
1446,19.349,5.761,0,6.4709e-05,646.64,2.3471e-05,32.804,2.076e-05,12.436,-6.3915e-05,-623.78,1.6117
1447,18.77,5.6125,0.05,4.8073e-06,48.04,3.6914e-06,27.736,-3.2851e-13,1.3854e-06,-3.6914e-06,-27.736,1.5306
1448,18.76,5.8062,0,4.4224e-05,441.94,1.668e-05,21.776,1.3009e-05,-5.8071,-4.3888e-05,-433.31,1.5289
1449,18.468,5.6396,0,3.6522e-05,364.97,1.2794e-05,-14.394,9.4267e-06,-39.696,-3.7376e-05,-391.36,1.4883
1450,18.658,4.7665,0,9.9548e-05,994.79,4.8148e-05,185.59,2.2791e-05,-4.9287,-9.5096e-05,-890.68,1.5162
1451,18.862,4.9058,0,7.9345e-05,792.9,3.3121e-05,93.684,2.2794e-05,16.092,-7.7192e-05,-735.16,1.5444
1452,18.637,4.9358,0.05,5.1476e-06,51.441,3.9527e-06,29.699,2.1063e-13,4.2372e-06,-3.9527e-06,-29.699,1.5129
1453,18.402,4.9679,0,7.6749e-05,766.96,3.6325e-05,117.55,1.6558e-05,-30.973,-7.4189e-05,-712.81,1.4802
1454,18.688,4.4458,0,0.00013107,1309.7,5.5893e-05,151.29,3.5137e-05,-4.6605,-0.00012787,-1229.4,1.5209
1455,18.94,4.5767,0,0.00010116,1010.9,4.0785e-05,98.611,2.9677e-05,15.145,-9.8961e-05,-951.39,1.5557
1456,18.679,4.5973,0.05,5.8466e-06,58.425,4.4894e-06,33.732,3.979e-13,1.9077e-06,-4.4894e-06,-33.732,1.5194
1457,18.423,4.632,0,0.00011897,1188.9,5.5246e-05,180.63,2.7593e-05,-27.144,-0.00011499,-1098.5,1.4838
1458,18.66,4.1518,0,0.00016841,1682.9,6.0857e-05,14.613,4.7811e-05,-83.406,-0.00016937,-1715.2,1.5174
1459,19.001,4.2477,0,0.00012593,1258.4,4.4822e-05,16.465,3.747e-05,-38.772,-0.00012621,-1268.6,1.5646
1460,18.697,4.2944,0.05,8.4639e-06,84.581,6.4992e-06,48.833,5.6178e-13,1.4595e-05,-6.4992e-06,-48.833,1.5223
1461,18.432,4.3139,0,0.00017691,1767.9,8.2187e-05,252.24,3.9319e-05,-69.854,-0.0001716,-1654.6,1.4856
1462,18.851,3.9361,0,0.00016236,1622.5,5.7386e-05,-39.011,4.3363e-05,-144.38,-0.00016522,-1711.6,1.5441
1463,18.623,4.0093,0.05,1.4285e-05,142.75,1.0969e-05,82.419,4.5685e-13,-1.2777e-05,-1.0969e-05,-82.419,1.5124
1464,18.395,4.0047,0,0.00038467,3844,0.00014806,71.645,9.6558e-05,-315.35,-0.00038735,-3951.2,1.481
1465,19.212,0.52575,0,6.2143e-05,621.01,2.2983e-05,37.42,1.9719e-05,12.891,-6.1251e-05,-595.49,1.5929
1466,18.719,0.61088,0,5.6149e-05,561.1,2.789e-05,114.85,1.243e-05,-1.3181,-5.3308e-05,-495.24,1.5239
1467,18.994,0.77618,0,6.907e-05,690.22,2.5033e-05,29.729,2.1701e-05,4.694,-6.845e-05,-672.67,1.5626
1468,18.878,0.48401,0.05,3.8412e-06,38.385,2.9495e-06,22.162,6.0268e-13,7.0368e-06,-2.9495e-06,-22.162,1.546
1469,18.846,0.242,0,4.9917e-05,498.83,1.9938e-05,42.217,1.4369e-05,0.37394,-4.9061e-05,-476.21,1.5412
1470,18.522,0.40867,0,4.291e-05,428.8,1.4023e-05,-12.375,1.3257e-05,-18.129,-4.3426e-05,-444.03,1.4961
1471,19.86,0.58974,0,7.0226e-05,701.78,2.4252e-05,19.429,2.3131e-05,11.008,-6.9705e-05,-686.52,1.6841
1472,19.587,0.87188,0,7.5338e-05,752.86,2.5478e-05,10.409,2.4773e-05,5.1125,-7.5073e-05,-745.09,1.646
1473,19.546,0.5675,0.05,9.8379e-07,9.8311,7.5543e-07,5.676,7.4985e-13,1.1955e-05,-7.5543e-07,-5.676,1.6399
1474,19.505,0.28375,0,6.7127e-05,670.81,2.4025e-05,32.824,2.1981e-05,17.464,-6.6258e-05,-645.53,1.6337
1475,20.482,0.62276,0,6.6743e-05,666.96,2.2486e-05,6.9848,2.1885e-05,2.4723,-6.658e-05,-662.22,1.7724
1476,20.173,0.61199,0.05,8.369e-08,0.83632,6.4264e-08,0.48286,6.8748e-13,1.0742e-05,-6.4263e-08,-0.48284,1.7285
1477,20.142,0.30599,0,6.9394e-05,693.46,2.3972e-05,15.522,2.2505e-05,4.5016,-6.9046e-05,-683.38,1.7238
1478,21.112,0.63978,0,5.7758e-05,577.18,1.9372e-05,4.5225,1.8946e-05,1.3205,-5.7658e-05,-574.25,1.8621
1479,20.791,0.63353,0.05,1.0533e-06,10.526,8.0882e-07,6.0772,7.6435e-13,1.1565e-05,-8.0882e-07,-6.0771,1.8163
1480,20.775,0.31677,0,6.3123e-05,630.79,2.1348e-05,7.961,2.0685e-05,2.9804,-6.2935e-05,-625.31,1.8138
1481,21.754,0.65056,0,4.6113e-05,460.82,1.5929e-05,8.7602,1.4812e-05,0.36535,-4.5952e-05,-456.2,1.9541
1482,21.433,0.64604,0.05,1.3564e-06,13.555,1.0416e-06,7.826,9.0931e-13,1.1619e-05,-1.0416e-06,-7.826,1.9081
1483,21.42,0.32302,0,5.2469e-05,524.33,1.7936e-05,7.9807,1.6994e-05,0.90642,-5.2315e-05,-519.85,1.906
1484,22.395,0.65742,0,3.3792e-05,337.69,1.2708e-05,19.125,1.0241e-05,0.5903,-3.3418e-05,-327.45,2.0463
1485,22.075,0.65509,0.05,1.4159e-06,14.149,1.0872e-06,8.1689,9.1089e-13,1.2171e-05,-1.0872e-06,-8.1689,2.0002
1486,22.065,0.32754,0,4.0152e-05,401.24,1.4371e-05,13.803,1.2607e-05,0.54655,-3.9891e-05,-393.9,1.9986
1487,22.716,0.65976,0.05,1.4216e-06,14.207,1.0916e-06,8.2022,8.3708e-13,1.1728e-05,-1.0916e-06,-8.2022,2.0925
1488,22.71,0.32988,0,2.7385e-05,273.66,1.089e-05,23.816,8.0317e-06,2.3381,-2.6876e-05,-259.95,2.0915
1489,17.369,0.4518,0,8.1056e-05,810,3.6772e-05,119.6,2.0127e-05,-5.4615,-7.8386e-05,-745.65,1.3399
1490,16.982,0.40811,0,0.00010615,1060.8,4.1893e-05,89.634,3.1457e-05,11.221,-0.00010422,-1008.2,1.2904
1491,17.337,0.31859,0.05,8.8235e-06,88.174,6.7753e-06,50.907,-3.675e-13,-1.9318e-06,-6.7753e-06,-50.907,1.3353
1492,17.335,0.15929,0,7.5012e-05,749.6,2.8176e-05,29.346,2.1554e-05,-20.406,-7.4736e-05,-743.89,1.3345
1493,17.669,0.32596,0,5.7648e-05,576.08,1.9058e-05,-23.21,1.6828e-05,-39.967,-5.8704e-05,-607.48,1.3778
1494,17.463,0.78745,0,9.6165e-05,960.98,5.4013e-05,274.97,1.6492e-05,-6.9439,-8.845e-05,-795.44,1.3533
1495,17.225,0.65586,0,0.00010374,1036.7,5.0887e-05,214.13,2.4444e-05,15.443,-9.8398e-05,-907.54,1.3224
1496,17.401,0.58501,0.05,6.219e-06,62.147,4.7754e-06,35.88,3.9737e-13,-3.4726e-06,-4.7754e-06,-35.88,1.3445
1497,17.7,0.62584,0,6.7415e-05,673.68,3.0743e-05,81.279,1.4616e-05,-39.895,-6.5888e-05,-644.77,1.383
1498,17.526,1.1668,0,0.00013789,1377.9,8.6296e-05,516.65,1.7236e-05,-2.2391,-0.0001216,-1045.4,1.3628
1499,17.276,0.99857,0,0.00012309,1230,6.531e-05,306.7,2.4421e-05,-0.52315,-0.00011496,-1047.8,1.33
1500,17.526,0.98989,0.05,8.2906e-06,82.849,6.3662e-06,47.833,1.3338e-13,3.9508e-06,-6.3662e-06,-47.833,1.362
1501,17.763,0.99495,0,0.00010488,1048,6.3533e-05,349.3,1.3068e-05,-29.866,-9.4161e-05,-835.55,1.3925
1502,17.526,1.5158,0,0.0001921,1919.7,0.00011905,693.01,2.3737e-05,-23.11,-0.00017041,-1481.8,1.3639
1503,17.287,1.351,0,0.00015709,1569.8,8.791e-05,456.82,2.8459e-05,10.139,-0.0001443,-1287.9,1.3326
1504,17.527,1.3436,0.05,9.5404e-06,95.339,7.3259e-06,55.044,-5.514e-21,7.6412e-06,-7.3259e-06,-55.044,1.3634
1505,17.763,1.3385,0,0.00015827,1581.6,0.00010126,610.65,1.6538e-05,-25.96,-0.0001384,-1190.1,1.394
1506,17.554,1.8251,0,0.00023859,2384.3,0.00012896,570.87,3.9851e-05,-98.649,-0.0002234,-2076.6,1.3684
1507,17.309,1.7157,0,0.0002025,2023.6,0.00011094,543.06,3.688e-05,-13.416,-0.00018766,-1700.5,1.3364
1508,17.525,1.6879,0.05,1.0331e-05,103.24,7.933e-06,59.605,1.0708e-12,2.3526e-05,-7.933e-06,-59.605,1.3643
1509,17.763,1.6773,0,0.0002418,2416.3,0.00016093,995.28,1.7185e-05,-84.8,-0.00020745,-1772.7,1.3951
1510,17.627,2.083,0,0.00028022,2800.3,0.00012675,369.06,6.5895e-05,-88.175,-0.00027263,-2631.7,1.3785
1511,17.339,2.0774,0,0.00022805,2278.9,0.00010315,300.36,5.3633e-05,-71.669,-0.00022187,-2141.7,1.341
1512,17.582,1.9623,0.05,1.4197e-05,141.87,1.0901e-05,81.908,1.1858e-12,1.7378e-05,-1.0901e-05,-81.908,1.3724
1513,17.791,1.9811,0,0.00043763,4373.3,0.00022801,880.16,7.3474e-05,-280.97,-0.00041571,-3956.5,1.3998
1514,0.99146,0.65624,0,0.00055398,5535.9,0.000241,337.05,0.00010958,-650.39,-0.00055266,-5626.2,0.0046321
1515,0.65726,0.98773,0,0.00057509,5746.9,0.00031167,963.33,4.9189e-05,-1008.9,-0.00054988,-5510.1,0.0021986
1516,0.65999,0.65807,0.05,1.4511e-05,145.01,1.1142e-05,83.72,-2.7437e-13,5.9801e-05,-1.1142e-05,-83.72,0.0019849
1517,0.66333,0.32904,0,0.0005505,5501.2,0.000245,620.31,0.00012674,-268.26,-0.0005391,-5271.1,0.0016945
1518,0.33,0.66237,0,0.00043931,4390,0.00013961,-1257.8,3.4262e-05,-2049.3,-0.00049018,-5989.7,0.00051817
1519,1.6564,0.64777,0,0.00056565,5652.6,0.00020588,-69.661,0.00014672,-514.13,-0.00057427,-5931.3,0.013532
1520,1.3229,0.6544,0.05,8.8166e-06,88.105,6.7701e-06,50.868,7.2381e-12,0.00012143,-6.7701e-06,-50.868,0.0084244
1521,1.3281,0.3272,0,0.00058689,5864.9,0.00020146,-148.17,0.00016661,-410,-0.00059595,-6139.6,0.007634
1522,2.3242,0.63561,0,0.00056063,5602.4,0.00020268,7.2896,0.00015511,-350.1,-0.0005656,-5765.3,0.027421
1523,1.9899,0.64114,0.05,5.1911e-06,51.875,3.9861e-06,29.95,-8.4552e-22,5.6428e-10,-3.9861e-06,-29.95,0.019808
1524,1.9949,0.32057,0,0.00058348,5830.7,0.00020588,5.0741,0.0001701,-263.76,-0.00058741,-5955.4,0.018613
1525,2.9944,0.62762,0,0.00054332,5429.4,0.0001922,-10.284,0.00015613,-281.3,-0.00054777,-5570.1,0.046368
1526,2.6586,0.63007,0.05,4.1045e-06,41.017,3.1517e-06,23.681,-6.6853e-22,-5.0231e-15,-3.1517e-06,-23.681,0.036214
1527,2.6626,0.31504,0,0.00056435,5639.6,0.00019552,-25.887,0.00016796,-232.97,-0.00056847,-5766.2,0.034731
1528,3.6651,0.62932,0,0.00052363,5232.7,0.00018301,-6.1302,0.00015473,-218.58,-0.00052713,-5341.8,0.070271
1529,3.3301,0.62518,0.05,3.6488e-06,36.463,2.8018e-06,21.052,-5.9431e-22,6.378e-05,-2.8018e-06,-21.052,0.057682
1530,3.3317,0.31259,0,0.00054275,5423.8,0.00018677,-14.804,0.00016467,-180.84,-0.00054589,-5519.7,0.055937
1531,4.3333,0.63347,0,0.00050344,5030.9,0.000174,-5.7646,0.00015217,-169.75,-0.00050622,-5116.7,0.098805
1532,4,0.63347,0.05,3.2943e-06,32.92,2.5296e-06,19.007,-1.1257e-12,1.8527e-06,-2.5296e-06,-19.007,0.083976
1533,4,0.31674,0,0.00052051,5201.5,0.00017783,-13.212,0.00016021,-145.59,-0.00052308,-5279.6,0.082019
1534,5,0.63347,0,0.00048328,4829.5,0.00016549,-3.91,0.00014889,-128.6,-0.00048542,-4894.5,0.13175
1535,4.6667,0.63347,0.05,2.9083e-06,29.063,2.2332e-06,16.78,3.8079e-12,8.3837e-07,-2.2332e-06,-16.78,0.11469
1536,4.6667,0.31674,0,0.00049867,4983.2,0.00016918,-10.059,0.00015578,-110.76,-0.00050064,-5042.9,0.11266
1537,5.6667,0.63347,0,0.00046317,4628.5,0.00015738,-2.8318,0.00014489,-96.675,-0.00046479,-4677.6,0.16901
1538,5.3333,0.63347,0.05,2.646e-06,26.442,2.0318e-06,15.266,7.9948e-13,9.7163e-07,-2.0318e-06,-15.266,0.14982
1539,5.3333,0.31674,0,0.00047726,4769.3,0.00016103,-7.3087,0.00015082,-84.037,-0.00047877,-4814.5,0.14775
1540,6.3333,0.63347,0,0.00044327,4429.6,0.00014958,-2.3527,0.00014045,-70.951,-0.00044448,-4465.9,0.2104
1541,6,0.63347,0.05,2.5005e-06,24.987,1.92e-06,14.426,1.8551e-14,8.7052e-06,-1.92e-06,-14.426,0.18917
1542,6,0.31674,0,0.00045625,4559.4,0.00015317,-5.6655,0.00014563,-62.292,-0.00045738,-4593.1,0.1871
1543,7,0.63347,0,0.00042362,4233.3,0.00014214,-1.8354,0.00013565,-50.64,-0.00042449,-4259.3,0.25574
1544,6.6667,0.63347,0.05,2.3158e-06,23.142,1.7782e-06,13.361,-3.7719e-22,4.6206e-07,-1.7782e-06,-13.361,0.23255
1545,6.6667,0.31674,0,0.00043571,4354.1,0.00014562,-4.3286,0.00014029,-44.379,-0.00043652,-4378.3,0.23051
1546,7.6667,0.63347,0,0.00040421,4039.3,0.000135,-1.3764,0.00013053,-34.967,-0.00040482,-4057.4,0.30485
1547,7.3333,0.63347,0.05,2.2189e-06,22.173,1.7038e-06,12.802,-3.614e-22,2.0908e-06,-1.7038e-06,-12.802,0.2798
1548,7.3333,0.31674,0,0.00041562,4153.3,0.00013841,-3.0743,0.00013476,-30.491,-0.00041618,-4170,0.27781
1549,8.3333,0.63347,0,0.00038498,3847.2,0.00012809,-1.0797,0.00012518,-22.9,-0.00038539,-3859.1,0.35755
1550,8,0.63347,0.05,2.1448e-06,21.433,1.6469e-06,12.374,-1.7498e-12,3.3957e-06,-1.6469e-06,-12.374,0.33074
1551,8,0.31674,0,0.00039585,3955.8,0.00013141,-2.2972,0.0001291,-19.69,-0.00039623,-3966.8,0.3288
1552,9,0.63347,0,0.00036597,3657.2,0.00012138,-0.73475,0.00011967,-13.595,-0.00036621,-3664.3,0.41368
1553,8.6667,0.63347,0.05,2.0791e-06,20.776,1.5965e-06,11.995,4.7706e-14,3.3007e-06,-1.5965e-06,-11.995,0.38518
1554,8.6667,0.31674,0,0.0003764,3761.4,0.00012464,-1.614,0.00012334,-11.353,-0.00037662,-3767.9,0.3833
1555,9.6667,0.63347,0,0.00034716,3469.2,0.00011483,-0.55005,0.00011407,-6.2695,-0.00034727,-3472.6,0.47306
1556,9.3333,0.63347,0.05,2.0349e-06,20.335,1.5625e-06,11.74,-8.8388e-13,2.354e-06,-1.5625e-06,-11.74,0.44295
1557,9.3333,0.31674,0,0.00035724,3569.9,0.00011804,-1.0547,0.00011753,-4.9069,-0.00035734,-3572.9,0.44115
1558,10.333,0.63347,0,0.00032857,3283.4,0.00010843,-0.28963,0.0001084,-0.54487,-0.00032858,-3283.8,0.53552
1559,10,0.63347,0.05,1.9902e-06,19.888,1.5282e-06,11.482,-8.949e-13,3.8623e-06,-1.5282e-06,-11.482,0.50389
1560,10,0.31674,0,0.00033833,3381,0.00011175,0.58999,0.00011154,-0.96985,-0.00033834,-3381.2,0.50217
1561,11,0.63347,0,0.00031022,3100.1,0.00010276,4.3812,0.00010213,-0.31406,-0.00031015,-3098.1,0.60089
1562,10.667,0.63347,0.05,1.9508e-06,19.494,1.498e-06,11.255,-3.1774e-22,2.8706e-06,-1.498e-06,-11.255,0.56783
1563,10.667,0.31674,0,0.00031971,3194.9,0.00010591,4.642,0.00010523,-0.48902,-0.00031963,-3192.8,0.56619
1564,11.667,0.63347,0,0.00029211,2919.1,9.7118e-05,8.5041,9.5954e-05,-0.24756,-0.00029197,-2914.9,0.66902
1565,11.333,0.63347,0.05,1.926e-06,19.246,1.4789e-06,11.112,8.7351e-16,3.8148e-06,-1.4789e-06,-11.112,0.6346
1566,11.333,0.31674,0,0.00030134,3011.3,0.00010013,8.1356,9.9022e-05,-0.20661,-0.0003012,-3007.4,0.63304
1567,12.333,0.63347,0,0.00027424,2740.5,9.1539e-05,12.427,8.988e-05,-0.038231,-0.00027403,-2734.3,0.73973
1568,12,0.63347,0.05,1.897e-06,18.957,1.4566e-06,10.945,-3.0898e-22,4.8423e-06,-1.4566e-06,-10.945,0.70404
1569,12,0.31674,0,0.00028321,2830.2,9.4405e-05,11.309,9.2899e-05,-0.00068767,-0.00028302,-2824.5,0.70256
1570,13,0.63347,0,0.00025657,2563.9,8.6077e-05,17.057,8.3845e-05,0.28533,-0.00025627,-2555.2,0.81286
1571,12.667,0.63347,0.05,1.862e-06,18.608,1.4298e-06,10.743,2.5414e-15,4.765e-06,-1.4298e-06,-10.743,0.77598
1572,12.667,0.31674,0,0.0002653,2651.2,8.8739e-05,14.503,8.6866e-05,0.43072,-0.00026504,-2643.7,0.77459
1573,13.665,0.62944,0,0.00023897,2388,8.081e-05,23.606,7.772e-05,0.39441,-0.00023855,-2375.9,0.88811
1574,13.333,0.63347,0.05,1.8735e-06,18.722,1.4386e-06,10.809,-2.5401e-14,4.4338e-06,-1.4386e-06,-10.809,0.85027
1575,13.333,0.31674,0,0.00024745,2472.8,8.3173e-05,18.661,8.081e-05,0.90464,-0.00024712,-2463,0.84896
1576,14.328,0.6216,0,0.00022106,2209.1,7.5755e-05,33.985,7.1309e-05,0.58126,-0.00022045,-2191.6,0.96509
1577,13.997,0.6254,0.05,1.9872e-06,19.858,1.5259e-06,11.465,-2.5637e-14,5.9154e-06,-1.5259e-06,-11.465,0.92643
1578,13.999,0.3127,0,0.00022944,2292.8,7.7714e-05,25.203,7.4641e-05,2.1143,-0.00022897,-2279.1,0.92535
1579,14.979,0.6055,0,0.00020212,2019.8,7.0367e-05,45.762,6.4671e-05,2.965,-0.00020126,-1995.1,1.0426
1580,14.658,0.61781,0.05,2.2168e-06,22.153,1.7023e-06,12.79,-6.1832e-14,5.3554e-06,-1.7023e-06,-12.79,1.0042
1581,14.662,0.30891,0,0.00021044,2102.9,7.2259e-05,35.149,6.7894e-05,2.3484,-0.00020978,-2084,1.0035
1582,15.627,0.57471,0,0.00018104,1809.1,6.4375e-05,64.484,5.7779e-05,14.924,-0.00017964,-1768.9,1.1215
1583,15.3,0.59319,0.05,2.0441e-06,20.427,1.5696e-06,11.793,-2.2549e-14,5.8737e-06,-1.5696e-06,-11.793,1.0815
1584,15.317,0.2966,0,0.00018995,1898.2,6.606e-05,43.937,6.0978e-05,5.7551,-0.00018908,-1873,1.0824
1585,16.29,0.52694,0,0.00015072,1506.2,5.608e-05,91.213,4.7282e-05,25.109,-0.00014863,-1446.9,1.2036
1586,15.931,0.81549,0,0.00017465,1745.3,6.4928e-05,91.372,5.3543e-05,5.8249,-0.00017284,-1695.1,1.1598
1587,15.955,0.55623,0.05,3.1634e-06,31.612,2.4291e-06,18.251,3.8476e-13,2.8026e-06,-2.4291e-06,-18.251,1.1618
1588,15.977,0.27812,0,0.0001655,1653.9,5.8917e-05,65.082,5.3273e-05,22.674,-0.00016397,-1609.6,1.1637
1589,16.838,0.61217,0,0.0001294,1293.1,5.6342e-05,186.67,3.6168e-05,35.097,-0.00012496,-1175.6,1.2729
1590,16.55,0.75238,0,0.00014759,1474.9,5.836e-05,126.94,4.3747e-05,17.139,-0.00014483,-1399.8,1.2369
1591,16.626,0.49764,0.05,7.0795e-06,70.747,5.4362e-06,40.846,-3.9918e-14,2.7718e-06,-5.4362e-06,-40.846,1.2457
1592,16.646,0.24882,0,0.00012627,1261.8,4.8198e-05,89.448,3.8699e-05,18.075,-0.00012429,-1206.6,1.2474
1593,0.69228,5.0104,0,0.00057543,5750.3,0.0003108,962.89,5.149e-05,-985.5,-0.00055048,-5508.5,0.0024423
1594,1.0522,5.3421,0,0.00055581,5554.3,0.00024069,342.21,0.00011251,-620.87,-0.00055425,-5630.7,0.005246
1595,0.69731,5.3437,0.05,1.5017e-05,150.07,1.1531e-05,86.642,-2.446e-21,-1.8378e-14,-1.1531e-05,-86.642,0.0022279
1596,0.70812,5.6718,0,0.00055558,5552,0.00024704,632.29,0.00012896,-254.88,-0.00054382,-5309.9,0.0019611
1597,0.34866,5.3385,0,0.00044164,4413.4,0.00013934,-1269.3,3.5926e-05,-2046.3,-0.00049288,-6019.6,0.00058009
1598,0.67712,4.3445,0,0.00061925,6188.3,0.00035365,1089.6,1.6429e-05,-1444.2,-0.00058505,-5963.5,0.0025665
1599,1.0387,4.6813,0,0.00057194,5715.4,0.00028419,430.26,4.8455e-05,-1341,-0.00056645,-5961.1,0.005857
1600,0.68725,4.677,0.05,5.3323e-06,53.286,4.0945e-06,30.765,-6.0028e-14,-6.5256e-15,-4.0945e-06,-30.765,0.002517
1601,0.34363,4.6719,0,0.00049016,4898.2,0.00017178,-1371.5,9.2032e-06,-2593.1,-0.00054604,-6764.9,0.00064914
1602,0.6544,3.6744,0,0.00064239,6419.4,0.00037021,1122.9,7.9386e-06,-1599.1,-0.00060561,-6209,0.0024977
1603,0.66699,4.012,0.05,4.1407e-06,41.378,3.1795e-06,23.89,-5.6782e-14,6.6395e-08,-3.1795e-06,-23.89,0.0025175
1604,0.33349,4.006,0,0.00051602,5156.6,0.00018191,-1472.4,4.4578e-06,-2805.7,-0.00057569,-7164.7,0.00065276
1605,0.64036,2.9971,0,0.00065136,6509.1,0.00037683,1148.7,5.6678e-06,-1640,-0.00061322,-6290.1,0.0024207
1606,0.64181,3.3367,0.05,3.7527e-06,37.502,2.8816e-06,21.652,-1.1269e-13,-4.5926e-15,-2.8816e-06,-21.652,0.0023873
1607,0.3209,3.335,0,0.00052902,5286.6,0.0001883,-1493.4,2.4689e-06,-2889.7,-0.00058956,-7338,0.00062195
1608,0.64157,2.3227,0,0.00064359,6431.5,0.00037119,1128.9,7.7248e-06,-1602,-0.00060655,-6217.4,0.0024016
1609,0.63892,2.6576,0.05,2.9914e-06,29.893,2.297e-06,17.259,-2.2278e-13,1.3419e-07,-2.297e-06,-17.259,0.0023659
1610,0.31946,2.6621,0,0.00052922,5288.6,0.00018852,-1489.7,2.6132e-06,-2886.5,-0.00058964,-7336.4,0.00061657
1611,0.64937,1.6526,0,0.00062063,6202,0.00035499,1095.6,1.555e-05,-1454.8,-0.00058605,-5975,0.0023627
1612,0.64421,1.9878,0.05,3.8715e-06,38.688,2.9728e-06,22.337,1.0836e-13,-4.738e-15,-2.9728e-06,-22.337,0.0023482
1613,0.32211,1.9939,0,0.0005166,5162.4,0.00018267,-1466,4.1532e-06,-2807.3,-0.00057605,-7166.7,0.00061067
1614,0.65452,1.3174,0.05,5.4757e-06,54.719,4.2047e-06,31.592,2.7985e-12,-6.7012e-15,-4.2047e-06,-31.592,0.0022794
1615,0.32726,1.3254,0,0.00049015,4898.1,0.00017235,-1363.7,8.8281e-06,-2592.3,-0.00054574,-6759.1,0.00059024
1616,17.254,5.5403,0,9.1484e-05,914.21,3.5923e-05,67.637,2.6519e-05,-3.0216,-9.018e-05,-879.85,1.3252
1617,17.514,5.4233,0,7.918e-05,791.25,3.7412e-05,129.05,1.7994e-05,-16.853,-7.6255e-05,-725,1.3589
1618,17.512,5.5871,0.05,8.5358e-06,85.299,6.5544e-06,49.247,4.506e-13,6.6844e-06,-6.5544e-06,-49.247,1.358
1619,17.576,5.7935,0,5.4468e-05,544.3,2.2864e-05,51.944,1.4215e-05,-13.043,-5.3514e-05,-521.93,1.3654
1620,17.756,5.6269,0,4.9008e-05,489.74,1.7817e-05,3.9787,1.3698e-05,-26.968,-4.9325e-05,-500.5,1.3891
1621,16.701,5.45,0,0.00013307,1329.8,5.2066e-05,99.38,3.9004e-05,1.241,-0.00013109,-1276.7,1.2553
1622,16.995,5.4935,0.05,6.4675e-06,64.63,4.9662e-06,37.314,7.912e-13,8.7355e-06,-4.9662e-06,-37.314,1.2924
1623,17.125,5.7468,0,0.00010309,1030.2,4.1967e-05,111.93,3.0613e-05,26.629,-0.00010047,-958.28,1.308
1624,16.086,5.3923,0,0.00016409,1639.8,6.1294e-05,90.454,5.0228e-05,7.3016,-0.00016227,-1589.3,1.1783
1625,16.404,5.066,0,0.0001596,1594.9,6.335e-05,132.4,4.6415e-05,5.1612,-0.00015688,-1522.3,1.2192
1626,16.407,5.4064,0.05,3.8245e-06,38.218,2.9367e-06,22.065,1.6029e-12,8.2273e-06,-2.9367e-06,-22.065,1.2184
1627,16.471,5.7032,0,0.00014099,1408.9,5.4058e-05,96.507,4.2466e-05,9.4086,-0.00013899,-1354,1.2254
1628,15.417,5.3779,0,0.00018958,1894.5,6.7201e-05,59.66,6.0141e-05,6.6154,-0.0001884,-1860.8,1.0958
1629,15.765,5.3782,0.05,2.7034e-06,27.016,2.0759e-06,15.598,-2.3122e-14,7.1056e-06,-2.0759e-06,-15.598,1.1385
1630,15.791,5.6891,0,0.00017351,1733.9,6.2407e-05,69.001,5.4819e-05,11.992,-0.00017206,-1692.7,1.1406
1631,14.719,5.3746,0,0.0002103,2101.5,7.2514e-05,38.067,6.7601e-05,1.1529,-0.00020961,-2081.7,1.0114
1632,15.055,5.0671,0,0.00020279,2026.5,7.1297e-05,51.292,6.4185e-05,-2.1462,-0.00020191,-2001.4,1.0528
1633,15.07,5.3776,0.05,2.3807e-06,23.791,1.8281e-06,13.735,-8.154e-14,6.3385e-06,-1.8281e-06,-13.735,1.0536
1634,15.084,5.6888,0,0.00019829,1981.5,6.8652e-05,41.952,6.3819e-05,5.6413,-0.00019745,-1957.4,1.0541
1635,14.014,5.3691,0,0.00022952,2293.6,7.7903e-05,26.376,7.4495e-05,0.76833,-0.00022904,-2279.9,0.92829
1636,14.368,5.3716,0.05,1.9891e-06,19.877,1.5274e-06,11.476,2.9118e-14,5.3725e-06,-1.5274e-06,-11.476,0.96972
1637,14.373,5.6858,0,0.00021904,2188.9,7.4556e-05,28.684,7.1063e-05,2.4391,-0.0002185,-2173.2,0.96917
1638,13.3,5.3665,0,0.00024834,2481.7,8.3546e-05,19.148,8.1007e-05,0.072536,-0.00024801,-2472,0.8465
1639,13.66,5.3665,0.05,1.9314e-06,19.301,1.4831e-06,11.143,-3.1459e-22,6.0704e-06,-1.4831e-06,-11.143,0.8874
1640,13.66,5.6833,0,0.00023847,2383,8.0326e-05,20.232,7.7785e-05,1.1404,-0.0002381,-2372.3,0.88611
1641,12.581,5.3665,0,0.00026744,2672.6,8.9492e-05,14.721,8.7513e-05,-0.14913,-0.00026719,-2665.3,0.76661
1642,12.941,5.3665,0.05,1.9413e-06,19.4,1.4907e-06,11.2,5.0158e-14,4.8469e-06,-1.4907e-06,-11.2,0.8062
1643,12.941,5.6833,0,0.00025768,2575,8.638e-05,16.344,8.4252e-05,0.35233,-0.00025739,-2566.6,0.80483
1644,11.864,5.3719,0,0.00028676,2865.7,9.5482e-05,10.075,9.4119e-05,-0.1628,-0.00028659,-2860.7,0.68956
1645,12.222,5.3665,0.05,1.9881e-06,19.867,1.5266e-06,11.47,1.2905e-14,4.9746e-06,-1.5266e-06,-11.47,0.72766
1646,12.222,5.6833,0,0.00027709,2769,9.2509e-05,12.922,9.0819e-05,0.22908,-0.00027687,-2762.4,0.7262
1647,11.145,5.3759,0,0.00030629,3060.8,0.00010153,5.2349,0.00010079,-0.28524,-0.00030621,-3058.3,0.6154
1648,11.505,5.3773,0.05,1.9567e-06,19.553,1.5025e-06,11.289,-3.187e-22,3.8146e-06,-1.5025e-06,-11.289,0.65215
1649,11.504,5.6887,0,0.00029667,2964.6,9.8647e-05,8.8821,9.7451e-05,-0.10464,-0.00029652,-2960.2,0.65051
1650,10.425,5.3751,0,0.00032608,3258.6,0.00010767,0.38319,0.00010755,-0.51304,-0.00032609,-3258.7,0.54426
1651,10.785,5.3744,0.05,2.0275e-06,20.261,1.5569e-06,11.698,-3.3024e-22,3.3376e-06,-1.5569e-06,-11.698,0.5794
1652,10.785,5.6872,0,0.00031646,3162.5,0.0001049,5.2372,0.00010412,-0.66028,-0.00031639,-3160.2,0.57773
1653,9.7055,5.3757,0,0.00034613,3458.9,0.00011447,-0.48576,0.00011377,-5.7098,-0.00034624,-3462,0.47651
1654,10.065,5.3757,0.05,2.0822e-06,20.808,1.5989e-06,12.013,1.9504e-23,2.3823e-06,-1.5989e-06,-12.013,0.50991
1655,10.065,5.6879,0,0.00033655,3363.2,0.0001112,1.0945,0.00011093,-0.89923,-0.00033655,-3363.1,0.50821
1656,8.9856,5.3788,0,0.00036646,3662.1,0.00012154,-0.7414,0.00011984,-13.484,-0.0003667,-3669.2,0.41231
1657,9.3457,5.3757,0.05,2.1184e-06,21.169,1.6266e-06,12.222,-3.4503e-22,2.2539e-06,-1.6266e-06,-12.222,0.44395
1658,9.3459,5.6878,0,0.00035694,3566.9,0.00011794,-0.98818,0.00011744,-4.7148,-0.00035703,-3569.7,0.44218
1659,8.2663,5.3799,0,0.00038703,3867.6,0.00012881,-1.0371,0.00012579,-23.739,-0.00038744,-3879.9,0.35196
1660,8.6255,5.3819,0.05,2.1562e-06,21.548,1.6557e-06,12.44,-4.6694e-14,2.4388e-06,-1.6557e-06,-12.44,0.38157
1661,8.6264,5.691,0,0.00037766,3774,0.00012505,-1.6133,0.00012376,-11.291,-0.00037788,-3780.4,0.3798
1662,7.5481,5.3767,0,0.00040779,4075.1,0.00013629,-1.3094,0.00013154,-37.023,-0.00040843,-4094.2,0.29572
1663,7.907,5.3778,0.05,2.2177e-06,22.162,1.7029e-06,12.795,-3.6121e-22,3.2594e-06,-1.7029e-06,-12.795,0.3233
1664,7.9077,5.6889,0,0.00039869,3984.1,0.0001324,-2.3065,0.00012995,-20.729,-0.00039908,-3995.6,0.32142
1665,6.8298,5.3711,0,0.00042881,4285.1,0.00014405,-1.8243,0.00013703,-54.565,-0.00042975,-4313.1,0.24371
1666,7.1891,5.3757,0.05,2.2737e-06,22.721,1.7459e-06,13.118,-3.7033e-22,1.7059e-06,-1.7459e-06,-13.118,0.26915
1667,7.1892,5.6878,0,0.00042008,4197.9,0.00013997,-3.2425,0.00013607,-32.54,-0.00042068,-4215.7,0.26717
1668,6.1107,5.3713,0,0.00044999,4496.8,0.00015211,-2.6979,0.00014212,-77.748,-0.00045132,-4536.6,0.19605
1669,6.4704,5.3665,0.05,2.4236e-06,24.22,1.861e-06,13.983,2.3364e-13,2.2118e-06,-1.861e-06,-13.983,0.21932
1670,6.4704,5.6833,0,0.00044187,4415.6,0.00014783,-4.5773,0.00014198,-48.554,-0.00044275,-4442,0.21726
1671,5.3917,5.376,0,0.00047136,4710.4,0.00016061,-3.126,0.00014665,-107.99,-0.00047317,-4765.1,0.15302
1672,5.751,5.376,0.05,2.5767e-06,25.749,1.9786e-06,14.866,-2.521e-14,1.6165e-07,-1.9786e-06,-14.866,0.17388
1673,5.7513,5.688,0,0.00046398,4636.6,0.00015596,-6.4521,0.00014769,-68.635,-0.00046523,-4673.8,0.17184
1674,4.673,5.3712,0,0.00049315,4928.1,0.0001695,-6.5069,0.0001506,-148.51,-0.00049564,-5004.1,0.11496
1675,5.0324,5.376,0.05,2.8147e-06,28.127,2.1613e-06,16.239,-4.5845e-22,-5.6406e-07,-2.1613e-06,-16.239,0.13332
1676,5.0325,5.688,0,0.0004868,4864.6,0.00016464,-8.1254,0.0001531,-94.822,-0.00048849,-4915.5,0.13129
1677,3.9541,5.3665,0,0.00051579,5154.4,0.0001794,-6.2778,0.00015391,-197.81,-0.000519,-5253.7,0.082016
1678,4.3136,5.3665,0.05,2.9705e-06,29.684,2.281e-06,17.138,-4.8383e-22,1.7034e-07,-2.281e-06,-17.138,0.09782
1679,4.3136,5.6833,0,0.00051052,5101.7,0.00017371,-13.458,0.00015831,-129.2,-0.00051285,-5172,0.095815
1680,3.2253,5.3667,0,0.0005373,5369.3,0.00018965,-4.2437,0.0001557,-259.36,-0.00054133,-5496.6,0.054042
1681,3.5947,5.3665,0.05,4.01e-06,40.072,3.0792e-06,23.136,-6.5314e-22,3.0124e-05,-3.0792e-06,-23.136,0.067485
1682,3.5947,5.6833,0,0.00053527,5349,0.00018386,-12.329,0.00016318,-167.74,-0.00053816,-5437.4,0.0656
1683,2.4915,5.3598,0,0.00055587,5554.9,0.00020036,11.393,0.00015525,-327.54,-0.00056048,-5705.2,0.0317
1684,2.8559,5.3668,0.05,4.1754e-06,41.725,3.2062e-06,24.09,-6.8009e-22,-5.1099e-15,-3.2062e-06,-24.09,0.042009
1685,2.8658,5.6834,0,0.00055785,5574.6,0.00019319,-20.877,0.00016659,-220.79,-0.00056169,-5692.7,0.04063
1686,1.7671,5.3467,0,0.00056479,5644,0.00020466,-67.121,0.00014836,-490.15,-0.00057308,-5910.7,0.01551
1687,2.1271,5.3528,0.05,4.8887e-06,48.854,3.7539e-06,28.206,-7.9627e-22,6.1021e-05,-3.7539e-06,-28.206,0.022792
1688,2.1419,5.6764,0,0.00057923,5788.3,0.00020397,5.1073,0.00016959,-253.27,-0.00058301,-5908,0.021736
1689,1.3987,5.013,0,0.00055281,5524.3,0.00021399,-191.04,0.00010787,-988.36,-0.00056854,-6070.6,0.010198
1690,1.4072,5.3405,0.05,8.6811e-06,86.751,6.666e-06,50.086,-1.414e-21,-1.0624e-14,-6.666e-06,-50.086,0.0096015
1691,1.4225,5.6703,0,0.0005877,5872.9,0.00020149,-146.2,0.00016747,-401.79,-0.0005966,-6142.7,0.008894
1692,17.558,5.1052,0,0.00010493,1048.6,6.1027e-05,318.97,1.5461e-05,-23.392,-9.5625e-05,-858.05,1.3657
1693,17.516,5.2596,0.05,8.2272e-06,82.215,6.3174e-06,47.467,6.685e-13,7.5532e-06,-6.3174e-06,-47.467,1.3598
1694,17.758,5.2965,0,7.2373e-05,723.23,3.5912e-05,131.05,1.4354e-05,-30.933,-6.9296e-05,-659.44,1.3907
1695,17.615,4.7844,0,0.000148,1478.9,9.7902e-05,620.82,1.3428e-05,-13.891,-0.00012707,-1069.5,1.3743
1696,17.396,4.8955,0,0.00012824,1281.5,7.1277e-05,368.29,2.3778e-05,11.394,-0.00011799,-1053.8,1.3458
1697,17.6,4.9507,0.05,8.0389e-06,80.333,6.1729e-06,46.38,4.5475e-13,5.0182e-06,-6.1729e-06,-46.38,1.3717
1698,17.8,4.9754,0,0.00010312,1030.5,6.4561e-05,375.11,1.1539e-05,-23.279,-9.118e-05,-795.07,1.3974
1699,17.607,4.4411,0,0.00020049,2003.5,0.00013008,809.3,2.0742e-05,-12.212,-0.00017387,-1474.4,1.3745
1700,17.474,4.6149,0,0.00016499,1648.7,0.00010072,596.47,2.4052e-05,20.398,-0.00014676,-1263,1.3568
1701,17.63,4.6181,0.05,1.2161e-05,121.52,9.338e-06,70.162,-2.9242e-21,3.4584e-06,-9.338e-06,-70.162,1.3769
1702,17.815,4.6424,0,0.00016079,1606.8,0.0001102,720.41,1.0373e-05,-29.619,-0.00013532,-1124.3,1.4007
1703,17.56,4.0809,0,0.00023487,2347.1,0.00012653,576.61,4.1673e-05,-61.009,-0.00021951,-2023.4,1.3693
1704,17.367,4.2987,0,0.00020775,2076,0.00011681,610.03,3.7083e-05,10.989,-0.00019059,-1699.7,1.3438
1705,17.583,4.264,0.05,1.1295e-05,112.87,8.6732e-06,65.167,2.1903e-12,8.5113e-06,-8.6732e-06,-65.167,1.3719
1706,17.792,4.2987,0,0.00025961,2594.3,0.00017689,1134.5,1.5907e-05,-75.086,-0.00021948,-1843.7,1.399
1707,17.538,3.7015,0,0.00025989,2597.1,0.00011475,324.42,6.4711e-05,-51.516,-0.00025319,-2440.1,1.3672
1708,17.324,3.8779,0,0.00022595,2257.9,0.00010154,302.68,5.4918e-05,-47.585,-0.00021956,-2109.9,1.3392
1709,17.536,3.8979,0.05,1.0871e-05,108.63,8.3472e-06,62.718,6.8702e-14,1.2522e-05,-8.3472e-06,-62.718,1.3667
1710,17.768,3.9489,0,0.00042166,4213.7,0.00019969,637.28,8.9871e-05,-187.83,-0.00040791,-3928,1.3969
1711,18.597,0.88067,0,7.1414e-05,713.64,3.7156e-05,164.55,1.4295e-05,-7.2134,-6.7168e-05,-619.3,1.5072
1712,18.56,0.73776,0.05,4.1065e-06,41.037,3.1533e-06,23.693,2.9352e-13,2.6897e-06,-3.1533e-06,-23.693,1.5019
1713,18.363,0.70221,0,4.7624e-05,475.91,2.2726e-05,87.986,1.1428e-05,3.0944,-4.5503e-05,-424.66,1.4743
1714,18.617,1.1811,0,9.5921e-05,958.54,4.5764e-05,168.72,2.2179e-05,-8.4907,-9.1958e-05,-866.07,1.5105
1715,18.872,1.046,0,7.9054e-05,790,3.0177e-05,48.463,2.3516e-05,-1.5834,-7.8138e-05,-765.37,1.5459
1716,18.633,1.0236,0.05,7.1815e-06,71.766,5.5145e-06,41.434,2.7846e-13,1.9861e-06,-5.5145e-06,-41.434,1.5125
1717,18.4,1.0118,0,7.5639e-05,755.87,3.4964e-05,110.59,1.7428e-05,-21.174,-7.3251e-05,-702.5,1.48
1718,18.596,1.5026,0,0.00013303,1329.4,6.0964e-05,187.06,3.0935e-05,-38.576,-0.00012906,-1240.7,1.5081
1719,18.845,1.4178,0,0.00010701,1069.4,4.1332e-05,75.236,3.1884e-05,4.2443,-0.00010548,-1027.9,1.5426
1720,18.601,1.3385,0.05,7.9048e-06,78.993,6.0699e-06,45.607,3.5481e-13,1.4277e-05,-6.0699e-06,-45.607,1.5085
1721,18.384,1.3359,0,0.00010832,1082.4,5.2299e-05,191.89,2.3957e-05,-21.064,-0.00010383,-981.2,1.4783
1722,18.593,1.8633,0,0.0001801,1799.8,6.6618e-05,39.407,5.0654e-05,-80.535,-0.0001805,-1817.4,1.5082
1723,18.74,1.7012,0,0.00013923,1391.3,5.3217e-05,86.693,4.1419e-05,-1.9491,-0.00013758,-1346.9,1.5282
1724,18.592,1.6667,0.05,7.0674e-06,70.625,5.4269e-06,40.776,6.7091e-13,1.3393e-05,-5.4269e-06,-40.775,1.5077
1725,18.379,1.6667,0,0.00017959,1794.7,9.6134e-05,409.42,2.9828e-05,-88.781,-0.00016887,-1581.7,1.4783
1726,18.595,2.2386,0,0.00022239,2222.4,7.4773e-05,-24.819,6.8757e-05,-70.025,-0.00022397,-2269.5,1.509
1727,18.594,2.0599,0.05,1.0574e-05,105.66,8.1192e-06,61.004,-3.4611e-13,-7.6472e-06,-8.1192e-06,-61.004,1.5086
1728,18.38,2.0299,0,0.00039132,3910.5,0.00013999,-2.1519,0.00011021,-225.9,-0.00039472,-4019.7,1.4792
1729,17.72,2.348,0,0.00030973,3095.2,0.00013547,392.98,8.0176e-05,-22.459,-0.00030133,-2889,1.3912
1730,17.671,2.2038,0.05,1.4175e-05,141.66,1.0885e-05,81.785,1.1734e-12,3.6637e-05,-1.0885e-05,-81.785,1.3845
1731,18.499,2.5744,0,0.00026056,2603.8,9.4559e-05,84.286,7.9053e-05,-32.214,-0.00025948,-2575.8,1.4961
1732,18.596,2.4172,0.05,1.3107e-05,130.98,1.0065e-05,75.621,3.3086e-12,2.211e-05,-1.0065e-05,-75.621,1.5093
1733,17.038,0.86697,0,0.00013374,1336.5,6.4542e-05,263.57,3.2335e-05,21.582,-0.00012723,-1177.3,1.2992
1734,17.05,0.7267,0.05,3.3269e-06,33.246,2.5547e-06,19.195,1.1368e-12,4.7682e-06,-2.5547e-06,-19.195,1.3002
1735,1.3902,4.6855,0.05,1.0491e-05,104.84,8.0561e-06,60.53,-1.7088e-21,-1.2839e-14,-8.0561e-06,-60.53,0.010526
1736,17.345,3.4003,0,0.00024754,2473.7,0.00010145,238.96,6.9422e-05,-1.6551,-0.00024262,-2346.2,1.3425
1737,17.61,3.334,0,0.00028053,2803.4,0.00011386,267.29,8.0352e-05,15.534,-0.00027487,-2653.5,1.3772
1738,17.539,3.5052,0.05,9.493e-06,94.864,7.2894e-06,54.77,1.386e-12,6.9619e-06,-7.2894e-06,-54.77,1.3677
1739,19.369,1.1223,0,8.1076e-05,810.2,2.7472e-05,2.302,2.5749e-05,-10.649,-8.121e-05,-814.29,1.6156
1740,19.1,1.2827,0,9.7933e-05,978.66,3.3734e-05,15.009,3.129e-05,-3.3577,-9.7722e-05,-972.7,1.578
1741,19.111,1.0684,0.05,1.6251e-06,16.24,1.2479e-06,9.3763,5.6231e-13,7.7409e-06,-1.2479e-06,-9.3763,1.5792
1742,18.123,2.5093,0,0.00033056,3303.3,0.00013631,329.53,9.2174e-05,-2.0904,-0.00032374,-3127.1,1.4451
1743,17.893,2.5011,0,0.00032346,3232.4,0.00014124,416.32,8.474e-05,-8.2209,-0.00031442,-3007.3,1.4144
1744,18.063,2.6471,0,0.00031942,3192,0.0001368,377.53,8.5403e-05,-8.6721,-0.00031139,-2990,1.4372
1745,18.018,2.5101,0.05,4.3139e-06,43.109,3.3126e-06,24.889,2.4296e-12,2.2269e-05,-3.3126e-06,-24.889,1.431
1746,18.315,2.6201,0,0.00030549,3052.8,0.0001185,203.43,8.903e-05,-18.028,-0.00030173,-2954.1,1.4711
1747,18.228,2.5085,0.05,5.6833e-06,56.793,4.364e-06,32.79,1.1135e-12,1.4397e-05,-4.364e-06,-32.79,1.4593
1748,18.07,3.328,0,0.00030234,3021.3,0.00012808,344.42,8.2202e-05,-0.26198,-0.00029501,-2834.5,1.4381
1749,18.412,3.284,0,0.00027022,2700.3,0.00010956,248.2,7.6712e-05,1.3662,-0.00026512,-2567.1,1.4843
1750,18.224,3.339,0.05,1.7188e-06,17.176,1.3198e-06,9.9164,-2.7995e-22,3.0656e-05,-1.3198e-06,-9.9164,1.4589
1751,17.798,3.2399,0,0.00029677,2965.7,0.00011841,256.97,8.6221e-05,15.081,-0.0002914,-2822.2,1.402
1752,17.915,3.3169,0.05,4.284e-06,42.81,3.2896e-06,24.717,7.1341e-12,3.0053e-05,-3.2896e-06,-24.717,1.4174
1753,19.856,4.5323,0,8.1564e-05,815.07,3.0074e-05,-3.5675,2.1075e-05,-71.183,-8.2625e-05,-850.34,1.6843
1754,19.511,4.6849,0,8.6836e-05,867.76,3.2384e-05,30.549,2.5042e-05,-24.618,-8.6603e-05,-863.48,1.6356
1755,19.823,4.8137,0.05,1.9459e-06,19.446,1.4942e-06,11.227,5.0653e-13,5.2629e-06,-1.4942e-06,-11.227,1.6793
1756,17.037,1.1828,0,0.00015079,1506.9,7.2884e-05,291.65,3.5685e-05,12.157,-0.00014367,-1335.4,1.3001
1757,16.749,1.0072,0,0.00014902,1489.1,6.4395e-05,187.57,3.9888e-05,3.4356,-0.00014491,-1385.1,1.263
1758,17.026,1.0072,0.05,5.8038e-06,57.998,4.4566e-06,33.485,3.9234e-14,6.825e-06,-4.4566e-06,-33.485,1.2981
1759,19.193,4.032,0,0.00012362,1235.3,4.7696e-05,10.511,2.9615e-05,-125.34,-0.00012501,-1287.1,1.5915
1760,19.598,4.226,0,9.6333e-05,962.66,3.6697e-05,-0.50518,2.3104e-05,-102.64,-9.768e-05,-1010.2,1.6481
1761,19.252,4.3786,0,0.00010203,1019.6,3.872e-05,31.451,2.7811e-05,-50.51,-0.00010211,-1026.7,1.5996
1762,19.305,4.201,0.05,4.2582e-06,42.553,3.2698e-06,24.568,3.0888e-13,-1.9622e-06,-3.2698e-06,-24.568,1.6071
1763,18.997,3.6948,0,0.00015887,1587.6,5.8172e-05,-1.8884,4.2263e-05,-121.42,-0.00016063,-1645.9,1.5645
1764,19.27,3.7306,0,0.00012868,1285.9,4.9683e-05,7.7539,3.0455e-05,-136.72,-0.00013026,-1344.3,1.6025
1765,19.08,3.8629,0.05,3.3298e-06,33.275,2.5569e-06,19.211,1.3243e-13,4.3214e-06,-2.5569e-06,-19.211,1.5759
1766,19.605,1.5187,0,8.848e-05,884.19,3.2566e-05,-1.5328,2.319e-05,-71.98,-8.952e-05,-918.84,1.649
1767,19.628,1.1763,0.05,3.4219e-07,3.4195,2.6276e-07,1.9743,1.4879e-12,1.0478e-05,-2.6276e-07,-1.9743,1.652
1768,17.07,1.5509,0,0.00017422,1741,8.4126e-05,339.33,4.1625e-05,19.996,-0.00016589,-1539.2,1.3053
1769,16.815,1.3845,0,0.00016561,1654.9,7.4479e-05,248.5,4.2775e-05,10.297,-0.00015991,-1512.6,1.2724
1770,17.048,1.3583,0.05,5.7285e-06,57.246,4.3988e-06,33.051,1.0964e-12,1.1077e-05,-4.3988e-06,-33.051,1.3019
1771,17.094,1.9681,0,0.00019563,1955,8.7807e-05,292.65,5.0774e-05,14.401,-0.00018892,-1786.5,1.3093
1772,16.869,1.7524,0,0.00018543,1853,8.2704e-05,264.76,4.7872e-05,3.0426,-0.00017948,-1705.2,1.2801
1773,17.092,1.7435,0.05,4.0529e-06,40.501,3.1121e-06,23.383,7.1471e-13,1.0218e-05,-3.1121e-06,-23.383,1.3086
1774,16.19,1.0409,0,0.00017099,1708.7,6.6683e-05,123.15,5.008e-05,-1.6034,-0.00016858,-1644.5,1.1927
1775,15.948,1.312,0,0.00018655,1864.2,7.2931e-05,133.46,5.4234e-05,-7.0267,-0.00018401,-1797.1,1.1632
1776,15.908,1.0748,0.05,2.8324e-06,28.304,2.1749e-06,16.341,-5.1911e-13,4.1606e-06,-2.1749e-06,-16.341,1.1577
1777,15.02,4.4636,0,0.00020717,2070.2,7.3139e-05,56.011,6.5377e-05,-2.3091,-0.00020619,-2042.8,1.0501
1778,15.039,4.7565,0.05,2.036e-06,20.346,1.5634e-06,11.747,-3.3162e-22,5.3455e-06,-1.5634e-06,-11.747,1.0518
1779,17.234,4.4725,0,0.00017546,1753.3,8.8906e-05,408.11,4.0361e-05,43.365,-0.0001649,-1498.9,1.3263
1780,17.131,4.0957,0,0.0001984,1982.6,9.1652e-05,334.91,5.0299e-05,24.198,-0.00019046,-1784.7,1.3139
1781,17.15,4.3333,0.05,6.2209e-06,62.166,4.7769e-06,35.892,-9.9963e-15,-1.6818e-07,-4.7769e-06,-35.892,1.3158
1782,17.256,4.726,0,0.00015411,1540,8.0198e-05,389.78,3.441e-05,45.747,-0.00014379,-1293.2,1.3283
1783,17.319,4.6117,0.05,6.6104e-06,66.059,5.076e-06,38.139,8.9291e-13,1.9224e-05,-5.076e-06,-38.139,1.3367
1784,18.988,1.6164,0,0.0001175,1174.1,4.3452e-05,49.011,3.5255e-05,-12.574,-0.00011675,-1154.7,1.5627
1785,18.887,1.7357,0.05,4.419e-06,44.16,3.3932e-06,25.496,2.4171e-12,1.9697e-05,-3.3932e-06,-25.496,1.5488
1786,17.78,2.6047,0,0.00030704,3068.3,0.00013304,394.89,8.2338e-05,13.917,-0.0002983,-2846.1,1.3995
1787,17.769,2.4922,0.05,6.958e-06,69.532,5.3429e-06,40.144,4.015e-13,1.5365e-05,-5.3429e-06,-40.144,1.3979
1788,18.254,2.7579,0,0.00029262,2924.2,0.00011762,241.04,8.2286e-05,-24.412,-0.00028803,-2806.8,1.463
1789,18.479,2.8234,0,0.00026653,2663.5,9.8643e-05,123.2,8.0966e-05,-9.6188,-0.00026435,-2604.2,1.4935
1790,18.402,2.7316,0.05,4.0709e-06,40.681,3.126e-06,23.487,6.3704e-13,3.5571e-05,-3.126e-06,-23.487,1.4829
1791,18.781,3.1537,0,0.00021156,2114.2,7.2771e-05,24.287,6.7021e-05,-18.915,-0.00021144,-2111.1,1.5349
1792,18.578,3.072,0,0.00024801,2478.4,9.1287e-05,114.44,7.6198e-05,1.0683,-0.00024585,-2418.7,1.507
1793,18.599,3.2289,0.05,6.4361e-06,64.317,4.9422e-06,37.133,5.9937e-13,7.1933e-06,-4.9422e-06,-37.133,1.5099
1794,21.91,4.0279,0,4.3698e-05,436.68,1.4689e-05,0.19699,1.3983e-05,-5.1071,-4.3779e-05,-439.11,1.9771
1795,22.199,4.0271,0.05,1.4575e-06,14.565,1.1192e-06,8.4091,6.9373e-13,1.1177e-05,-1.1192e-06,-8.4091,2.0186
1796,22.108,2.3214,0,3.9798e-05,397.71,1.3466e-05,3.7194,1.2911e-05,-0.44826,-3.9741e-05,-396.06,2.0056
1797,22.1,1.9856,0.05,1.5443e-06,15.432,1.1858e-06,8.9098,5.7835e-13,9.3856e-06,-1.1858e-06,-8.9098,2.0044
1798,16.528,1.2089,0,0.00016671,1666,6.8211e-05,161.1,4.6975e-05,1.549,-0.00016337,-1578.9,1.2355
1799,16.473,1.0071,0.05,5.5068e-06,55.03,4.2285e-06,31.771,3.5327e-13,7.2401e-06,-4.2285e-06,-31.771,1.228
1800,18.938,3.3025,0,0.00017699,1768.7,6.184e-05,-20.339,5.0622e-05,-104.63,-0.00017897,-1829.7,1.5565
1801,19.068,3.464,0,0.00016087,1607.6,5.7509e-05,-13.227,4.4211e-05,-113.14,-0.00016279,-1668.4,1.5745
1802,18.914,3.5266,0.05,2.9343e-06,29.323,2.2532e-06,16.93,-4.7794e-22,6.4155e-06,-2.2532e-06,-16.93,1.5531
1803,20.178,4.2144,0,8.0256e-05,802,2.9974e-05,-3.3713,2.0059e-05,-77.873,-8.1378e-05,-840.03,1.7299
1804,19.89,4.251,0.05,1.3619e-06,13.609,1.0457e-06,7.8572,1.0085e-12,1.0158e-05,-1.0457e-06,-7.8572,1.6892
1805,16.866,2.1709,0,0.00019999,1998.5,8.2273e-05,196.85,5.5877e-05,-1.4845,-0.00019592,-1893.4,1.2803
1806,17.016,2.4688,0,0.00021029,2101.5,8.6535e-05,212.19,5.9215e-05,6.9219,-0.00020581,-1984.4,1.3
1807,17.096,2.1926,0.05,2.7703e-06,27.684,2.1273e-06,15.984,1.3449e-12,1.1749e-05,-2.1273e-06,-15.984,1.3098
1808,1.9166,2.2505,0,0.00053192,5315.6,0.00024217,64.09,5.6679e-05,-1329.6,-0.00053956,-5809.5,0.021388
1809,2.2814,1.9128,0,0.00052347,5231,0.00022445,12.512,7.9014e-05,-1080.2,-0.00053299,-5678.6,0.029735
1810,1.9495,1.9262,0.05,4.1286e-06,41.258,3.1703e-06,23.82,-3.2823e-13,-5.0526e-15,-3.1703e-06,-23.82,0.021788
1811,17.131,3.5767,0,0.000213,2128.6,8.7507e-05,211.74,5.9935e-05,4.5732,-0.00020857,-2012.8,1.3147
1812,16.887,3.8997,0,0.00020117,2010.3,8.5358e-05,232.45,5.4757e-05,2.5198,-0.00019619,-1883,1.2829
1813,17.112,3.858,0.05,3.7203e-06,37.177,2.8567e-06,21.464,8.8837e-13,1.1125e-05,-2.8567e-06,-21.464,1.3118
1814,19.902,1.8713,0,8.8393e-05,883.32,3.5036e-05,4.3758,1.9135e-05,-115.09,-8.9668e-05,-932.6,1.691
1815,19.603,2.1976,0,0.00010406,1039.9,4.104e-05,1.3509,2.2545e-05,-137.61,-0.00010568,-1101.1,1.6491
1816,19.335,1.6791,0,0.00010426,1041.8,3.8894e-05,11.671,2.7669e-05,-72.67,-0.00010504,-1069.8,1.6113
1817,19.581,1.8611,0.05,2.1519e-06,21.504,1.6524e-06,12.416,8.7263e-14,1.2409e-05,-1.6524e-06,-12.416,1.6459
1818,17.949,2.7507,0,0.00030216,3019.5,0.00012778,349.92,8.3112e-05,14.295,-0.00029456,-2823.4,1.422
1819,18.107,2.7842,0.05,2.0931e-06,20.917,1.6073e-06,12.076,-5.6809e-14,3.6877e-05,-1.6073e-06,-12.076,1.4432
1820,21.809,2.6504,0,4.5749e-05,457.18,1.606e-05,0.49314,1.3491e-05,-18.81,-4.603e-05,-466.03,1.9628
1821,22.116,2.6572,0.05,1.613e-06,16.119,1.2386e-06,9.3065,5.8347e-13,1.0132e-05,-1.2386e-06,-9.3065,2.0068
1822,21.333,4.0485,0,5.5018e-05,549.8,1.9771e-05,-0.89366,1.5281e-05,-34.634,-5.5545e-05,-566.79,1.8943
1823,21.581,3.6804,0,5.0229e-05,501.94,1.8139e-05,2.1142,1.407e-05,-28.461,-5.0607e-05,-514.42,1.93
1824,21.622,4.0287,0.05,1.7041e-06,17.029,1.3085e-06,9.8317,5.2179e-13,8.8115e-06,-1.3085e-06,-9.8317,1.9357
1825,16.285,1.48,0,0.00018208,1819.5,7.4154e-05,169.13,5.1276e-05,-2.7708,-0.00017864,-1730.3,1.2057
1826,16.614,1.586,0,0.00017865,1785.3,7.4434e-05,184.27,4.9007e-05,-6.7727,-0.00017486,-1688.8,1.2473
1827,16.582,1.4107,0.05,1.1854e-06,11.846,9.1023e-07,6.8391,-6.4895e-13,1.5505e-05,-9.1023e-07,-6.8391,1.2429
1828,20.754,4.1231,0,6.7676e-05,676.3,2.5229e-05,-0.35589,1.7238e-05,-60.4,-6.851e-05,-704.67,1.8117
1829,20.975,3.6943,0,6.2255e-05,622.12,2.3581e-05,-4.8367,1.4744e-05,-71.233,-6.3283e-05,-657.49,1.8434
1830,21.043,4.0683,0.05,1.4466e-06,14.456,1.1108e-06,8.3465,4.8035e-13,8.5437e-06,-1.1108e-06,-8.3464,1.8529
1831,20.433,3.9292,0,7.7644e-05,775.9,3.0172e-05,0.76954,1.7637e-05,-93.413,-7.879e-05,-817.92,1.7661
1832,20.465,4.1779,0.05,1.9635e-06,19.622,1.5077e-06,11.328,4.9853e-13,8.6473e-06,-1.5077e-06,-11.328,1.7706
1833,20.248,2.1747,0,8.2094e-05,820.37,3.2677e-05,2.4233,1.7349e-05,-112.75,-8.3362e-05,-869.45,1.74
1834,20.222,1.8814,0.05,2.7016e-06,26.997,2.0745e-06,15.587,-2.0738e-14,1.0458e-05,-2.0745e-06,-15.587,1.7362
1835,3.6363,1.8711,0,0.00049584,4955,0.00019191,0.45889,0.00011363,-587.7,-0.0005032,-5222.3,0.073956
1836,2.9549,1.8892,0,0.00050919,5088.4,0.00020595,-7.2606,9.9175e-05,-809.54,-0.00051832,-5449.1,0.049344
1837,3.2724,2.1919,0,0.00049767,4973.2,0.00020085,6.5878,9.9127e-05,-757.75,-0.00050602,-5304.6,0.060785
1838,3.2964,1.8789,0.05,3.4347e-06,34.324,2.6374e-06,19.817,1.0013e-12,7.1709e-06,-2.6374e-06,-19.817,0.061056
1839,4.3185,1.861,0,0.0004822,4818.7,0.0001805,2.9264,0.000122,-436.62,-0.00048808,-5020.5,0.10328
1840,3.9878,2.1496,0,0.00048728,4869.5,0.00018668,2.5266,0.00011542,-532.92,-0.00049409,-5112.5,0.089098
1841,3.9761,1.8633,0.05,1.8519e-06,18.506,1.422e-06,10.685,-1.3029e-13,8.9774e-06,-1.422e-06,-10.685,0.087949
1842,4.9986,1.8668,0,0.00046712,4667.9,0.00017077,7.2398,0.00012596,-329.49,-0.00047168,-4819.9,0.13707
1843,4.6689,2.1348,0,0.00047219,4718.7,0.00017619,8.4144,0.00012102,-406.07,-0.00047759,-4903.8,0.12077
1844,4.661,1.8587,0.05,3.2669e-06,32.647,2.5086e-06,18.848,-5.3211e-22,4.4045e-06,-2.5086e-06,-18.848,0.11969
1845,5.67,1.8711,0,0.00045034,4500.3,0.00016057,1.8756,0.00012816,-241.65,-0.00045392,-4615.2,0.17471
1846,5.3388,2.149,0,0.00045704,4567.2,0.00016567,3.6155,0.00012543,-298.76,-0.0004613,-4707.3,0.1563
1847,5.3363,1.8749,0.05,2.8323e-06,28.304,2.1749e-06,16.341,-1.0481e-13,8.3551e-06,-2.1749e-06,-16.341,0.15547
1848,6.3357,1.8716,0,0.00043368,4333.9,0.00015186,1.3754,0.00012826,-175.93,-0.00043638,-4418.4,0.21607
1849,6.0043,2.1615,0,0.00044058,4402.7,0.00015593,-2.5701,0.00012702,-219.76,-0.00044396,-4509.9,0.19569
1850,6.0036,1.8673,0.05,2.114e-06,21.125,1.6233e-06,12.197,-1.7044e-12,2.0678e-07,-1.6233e-06,-12.197,0.1949
1851,6.9994,1.8773,0,0.00041656,4162.7,0.00014386,0.65553,0.00012661,-128.94,-0.00041859,-4225.3,0.26116
1852,6.6608,2.1769,0,0.00042454,4242.5,0.00014838,3.9662,0.00012627,-162.16,-0.00042699,-4319.1,0.23842
1853,6.6679,1.8759,0.05,2.2051e-06,22.036,1.6932e-06,12.722,1.3453e-13,1.0902e-06,-1.6932e-06,-12.722,0.23814
1854,7.6648,1.8801,0,0.00039891,3986.3,0.00013625,0.52758,0.00012384,-92.699,-0.00040039,-4031.6,0.31006
1855,7.3239,2.18,0,0.00040716,4068.8,0.00014019,0.17673,0.00012444,-118.19,-0.00040904,-4126.5,0.28527
1856,7.3309,1.8788,0.05,2.1293e-06,21.279,1.6351e-06,12.285,1.0267e-14,2.7447e-06,-1.6351e-06,-12.285,0.28504
1857,8.3324,1.887,0,0.000381,3807.3,0.00012901,0.76585,0.00012023,-65.198,-0.00038205,-3839.1,0.3627
1858,7.9918,2.1807,0,0.00038961,3893.4,0.00013277,0.88196,0.00012151,-83.675,-0.00039095,-3934.1,0.33609
1859,7.9986,1.8813,0.05,2.1729e-06,21.714,1.6685e-06,12.536,5.6546e-14,2.4398e-06,-1.6685e-06,-12.536,0.33591
1860,9.0004,1.8897,0,0.00036292,3626.7,0.00012196,0.1823,0.00011606,-44.204,-0.00036365,-3648.5,0.41876
1861,8.6624,2.1856,0,0.00037164,3713.8,0.00012555,0.47406,0.00011775,-58.129,-0.00037259,-3742.3,0.39064
1862,8.6663,1.8926,0.05,2.1479e-06,21.464,1.6493e-06,12.392,6.4455e-15,3.5079e-06,-1.6493e-06,-12.392,0.39029
1863,9.6689,1.8896,0,0.00034485,3446.2,0.00011518,-0.082075,0.00011146,-28.022,-0.00034532,-3460.1,0.47811
1864,9.336,2.1913,0,0.00035353,3532.9,0.00011856,0.0758,0.00011346,-38.202,-0.00035416,-3551.8,0.44881
1865,9.3345,1.8869,0.05,2.1194e-06,21.179,1.6274e-06,12.228,9.4852e-15,2.561e-06,-1.6274e-06,-12.228,0.448
1866,10.335,1.8963,0,0.0003269,3266.7,0.00010863,0.050572,0.00010661,-15.107,-0.00032715,-3274.2,0.54033
1867,10.006,2.2067,0,0.00033551,3352.7,0.00011187,0.019729,0.00010876,-23.327,-0.0003359,-3364.3,0.50984
1868,10.003,1.8922,0.05,2.0545e-06,20.531,1.5776e-06,11.853,1.2328e-14,3.9119e-06,-1.5776e-06,-11.853,0.50895
1869,11,1.9004,0,0.00030906,3088.5,0.00010219,-0.17119,0.00010164,-4.3264,-0.00030914,-3090.7,0.60533
1870,10.667,2.2171,0,0.00031779,3175.7,0.00010543,0.11619,0.00010394,-11.062,-0.00031797,-3181.2,0.57302
1871,10.667,1.9004,0.05,2.0237e-06,20.223,1.554e-06,11.676,3.8234e-15,3.8416e-06,-1.554e-06,-11.676,0.57238
1872,11.667,1.9004,0,0.00029144,2912.4,9.6591e-05,4.7105,9.5905e-05,-0.4421,-0.00029137,-2910.3,0.67323
1873,11.333,2.2171,0,0.00030003,2998.2,9.8997e-05,-0.92753,9.8947e-05,-1.3081,-0.00030007,-2999.3,0.63954
1874,11.333,1.9004,0.05,1.9852e-06,19.838,1.5244e-06,11.454,6.7665e-15,3.8653e-06,-1.5244e-06,-11.454,0.63893
1875,12.329,1.8909,0,0.00027411,2739.2,9.1566e-05,12.94,8.9765e-05,-0.59045,-0.0002739,-2733,0.74325
1876,11.999,2.2027,0,0.00028265,2824.6,9.3902e-05,7.5579,9.2907e-05,0.082329,-0.00028252,-2820.7,0.70861
1877,12,1.9004,0.05,1.9646e-06,19.632,1.5086e-06,11.335,-8.9688e-13,3.8874e-06,-1.5086e-06,-11.335,0.70814
1878,12.986,1.8692,0,0.0002573,2571.2,8.6625e-05,20.71,8.3903e-05,0.25166,-0.00025694,-2560.7,0.81501
1879,12.657,2.1716,0,0.00026561,2654.3,8.9097e-05,16.067,8.6681e-05,-2.0826,-0.00026537,-2647.3,0.77928
1880,12.658,1.8813,0.05,2.0231e-06,20.217,1.5535e-06,11.672,-9.1164e-13,4.0183e-06,-1.5535e-06,-11.672,0.77891
1881,13.645,1.8454,0,0.00024075,2405.9,8.1817e-05,28,7.8002e-05,-0.66498,-0.00024027,-2392.1,0.88922
1882,13.312,2.1349,0,0.00024893,2487.6,8.4224e-05,25.218,8.0938e-05,0.53409,-0.00024848,-2474.6,0.85192
1883,13.313,1.8571,0.05,1.8735e-06,18.722,1.4386e-06,10.809,-8.4941e-22,4.3377e-06,-1.4386e-06,-10.809,0.85161
1884,14.312,1.8274,0,0.00022474,2245.9,7.7361e-05,41.319,7.2531e-05,5.0296,-0.00022393,-2222.5,0.96649
1885,13.966,2.1228,0,0.00023324,2330.7,7.9694e-05,31.803,7.526e-05,-1.508,-0.0002327,-2315.4,0.92665
1886,13.976,1.8336,0.05,2.0496e-06,20.482,1.5738e-06,11.825,-2.2344e-14,3.7184e-06,-1.5738e-06,-11.825,0.92731
1887,15.006,1.8245,0,0.00020538,2052.4,7.1262e-05,46.421,6.6115e-05,7.7501,-0.00020443,-2025,1.0491
1888,14.62,2.1025,0,0.0002182,2180.5,7.5684e-05,48.596,7.0219e-05,7.5317,-0.00021722,-2152.1,1.0033
1889,14.647,1.8212,0.05,1.6577e-06,16.566,1.2729e-06,9.5643,-5.4341e-14,3.5309e-06,-1.2729e-06,-9.5643,1.0061
1890,15.676,1.6885,0,0.00019352,1933.9,7.2177e-05,101.16,5.8911e-05,1.485,-0.00019158,-1880.6,1.1305
1891,15.365,1.8277,0.05,4.2233e-06,42.204,3.243e-06,24.367,8.763e-14,4.0677e-06,-3.243e-06,-24.366,1.0926
1892,15.988,1.5493,0.05,5.5454e-06,55.416,4.2582e-06,31.994,-8.2808e-13,5.8806e-06,-4.2582e-06,-31.994,1.1687
1893,14.673,4.155,0,0.00021649,2163.4,7.5485e-05,47.73,6.8945e-05,-1.406,-0.00021566,-2139.8,1.0092
1894,15.316,4.1647,0,0.00020313,2029.9,7.2702e-05,66.545,6.3472e-05,-2.8037,-0.00020195,-1997.1,1.0866
1895,15.006,3.8742,0,0.00020948,2093.4,7.3596e-05,52.313,6.6331e-05,-2.2705,-0.00020858,-2067.8,1.0495
1896,15,4.1707,0.05,1.9089e-06,19.076,1.4658e-06,11.014,3.8367e-14,5.5814e-06,-1.4658e-06,-11.014,1.0483
1897,14.004,4.1249,0,0.00023184,2316.8,7.9981e-05,37.976,7.4095e-05,-6.2522,-0.00023127,-2300.7,0.93067
1898,14.367,3.8421,0,0.00022382,2236.6,7.7315e-05,40.964,7.1749e-05,-0.85633,-0.0002231,-2216.3,0.97349
1899,14.347,4.1393,0.05,1.6737e-06,16.726,1.2852e-06,9.6567,1.3463e-14,4.0937e-06,-1.2852e-06,-9.6567,0.97061
1900,13.306,4.1142,0,0.00024893,2487.6,8.493e-05,30.459,8.0223e-05,-4.9051,-0.00024848,-2474.7,0.85079
1901,13.662,4.1106,0.05,1.9726e-06,19.712,1.5147e-06,11.381,1.9091e-12,3.094e-06,-1.5147e-06,-11.381,0.89124
1902,12.58,4.1543,0,0.0002677,2675.2,8.9806e-05,18.212,8.7536e-05,1.1594,-0.00026737,-2665.5,0.77028
1903,12.949,4.1178,0.05,2.2744e-06,22.729,1.7465e-06,13.122,3.8226e-13,4.2893e-06,-1.7465e-06,-13.122,0.81093
1904,11.85,4.199,0,0.00028674,2865.4,9.5168e-05,7.0425,9.4352e-05,0.9065,-0.00028661,-2861.5,0.69212
1905,12.211,4.1908,0.05,1.8446e-06,18.433,1.4164e-06,10.642,-4.1075e-14,3.611e-06,-1.4164e-06,-10.642,0.73031
1906,11.125,4.213,0,0.00030582,3056.1,0.00010109,0.60135,0.00010069,-2.3643,-0.00030585,-3056.9,0.61753
1907,11.489,4.2071,0.05,2.1161e-06,21.147,1.6249e-06,12.209,1.5871e-13,4.2573e-06,-1.6249e-06,-12.209,0.65462
1908,10.402,4.2182,0,0.00032521,3249.9,0.00010796,0.21845,0.00010626,-12.577,-0.00032542,-3256,0.5464
1909,10.76,4.2189,0.05,2.1239e-06,21.225,1.6309e-06,12.254,-3.4594e-22,2.8958e-06,-1.6309e-06,-12.254,0.58121
1910,9.6881,4.2114,0,0.00034446,3442.2,0.00011502,0.36284,0.00011143,-26.556,-0.0003449,-3455.3,0.47957
1911,10.043,4.2175,0.05,2.1511e-06,21.497,1.6518e-06,12.411,6.1277e-15,3.3501e-06,-1.6518e-06,-12.411,0.51237
1912,8.9806,4.2005,0,0.00036365,3633.9,0.0001222,0.28626,0.00011631,-43.975,-0.00036437,-3655.6,0.41678
1913,9.333,4.2053,0.05,2.1154e-06,21.14,1.6244e-06,12.205,-3.4455e-22,2.3223e-06,-1.6244e-06,-12.205,0.44759
1914,8.2746,4.1943,0,0.00038275,3824.9,0.00012959,0.12386,0.00012074,-66.347,-0.00038384,-3857.6,0.35775
1915,8.6281,4.1957,0.05,2.1767e-06,21.752,1.6715e-06,12.559,-1.4398e-14,1.957e-06,-1.6715e-06,-12.559,0.38682
1916,7.5639,4.1929,0,0.00040178,4015.1,0.00013735,-0.20137,0.00012447,-96.99,-0.00040335,-4062.8,0.30217
1917,7.9211,4.1929,0.05,2.184e-06,21.825,1.6771e-06,12.601,-1.0947e-14,1.8895e-06,-1.6771e-06,-12.601,0.32959
1918,6.8447,4.1903,0,0.00042106,4207.6,0.00014618,4.1018,0.00012696,-140.32,-0.00042319,-4273.9,0.25009
1919,7.2066,4.193,0.05,2.3555e-06,23.539,1.8087e-06,13.59,-1.3234e-14,1.2443e-06,-1.8087e-06,-13.59,0.27574
1920,6.1152,4.1687,0,0.00043983,4395.3,0.00015486,2.9701,0.00012874,-193.31,-0.00044274,-4487.2,0.20179
1921,6.4828,4.1875,0.05,2.9333e-06,29.313,2.2524e-06,16.924,-5.5496e-14,2.0993e-06,-2.2524e-06,-16.924,0.2255
1922,5.3906,4.1392,0,0.00045707,4567.5,0.00016345,-6.0632,0.0001285,-268.64,-0.00046117,-4699.2,0.1585
1923,5.7476,4.1499,0.05,1.9169e-06,19.156,1.4719e-06,11.06,3.5164e-13,1.9161e-07,-1.4719e-06,-11.06,0.17922
1924,4.6766,4.1504,0,0.00047397,4736.4,0.0001742,-2.3801,0.00012522,-370.38,-0.00047923,-4912,0.12046
1925,5.0335,4.1286,0.05,2.7838e-06,27.819,2.1376e-06,16.061,-4.5343e-22,2.2822e-06,-2.1376e-06,-16.061,0.13889
1926,3.9614,4.1864,0,0.00049007,4897.4,0.00018644,4.6089,0.00011869,-504.43,-0.00049659,-5127.4,0.087197
1927,4.3198,4.1722,0.05,2.8367e-06,28.347,2.1782e-06,16.366,-4.8527e-14,-4.0708e-07,-2.1782e-06,-16.366,0.1032
1928,3.2388,4.1955,0,0.00050847,5081.2,0.00020066,3.961,0.00010965,-679.89,-0.00051651,-5384.6,0.058832
1929,3.603,4.2006,0.05,9.2089e-07,9.2025,7.0713e-07,5.3131,-1.4999e-22,4.1854e-05,-7.0713e-07,-5.3131,0.072414
1930,2.473,4.12,0,0.00051855,5181.9,0.00022058,25.527,8.3129e-05,-1007.2,-0.00052747,-5595,0.034775
1931,2.8746,4.1903,0.05,3.1821e-06,31.799,2.4434e-06,18.359,-5.1829e-22,-3.8942e-15,-2.4434e-06,-18.359,0.046537
1932,1.9565,3.6564,0,0.00052547,5251.1,0.00023929,62.628,5.5784e-05,-1316.2,-0.00053303,-5740.3,0.022336
1933,2.0713,4.0498,0.05,8.9179e-06,89.118,6.8479e-06,51.452,-1.4525e-21,-1.0914e-14,-6.8479e-06,-51.452,0.024576
1934,17.625,2.694,0,0.00027813,2779.4,0.00011658,300.22,7.6302e-05,-2.4219,-0.00027183,-2618.1,1.3792
1935,17.791,2.7172,0.05,3.8981e-06,38.954,2.9932e-06,22.49,2.902e-12,2.3525e-05,-2.9932e-06,-22.49,1.401
1936,19.123,3.078,0,0.00016237,1622.6,5.9343e-05,-3.9593,4.3199e-05,-125.26,-0.00016423,-1683.8,1.5822
1937,18.962,3.0784,0.05,5.3108e-06,53.071,4.078e-06,30.641,1.8609e-13,7.5947e-06,-4.078e-06,-30.641,1.5599
1938,1.8626,2.919,0,0.00053327,5329.1,0.00024717,79.553,4.9136e-05,-1408.4,-0.00054005,-5835.3,0.020465
1939,1.8836,2.5748,0.05,4.9693e-06,49.659,3.8158e-06,28.671,-8.1342e-13,-6.0815e-15,-3.8158e-06,-28.671,0.020804
1940,2.6133,1.8995,0.05,2.8505e-06,28.485,2.1888e-06,16.446,-4.6428e-22,-3.4885e-15,-2.1888e-06,-16.446,0.038773
1941,2.0781,3.2235,0,0.00052183,5214.7,0.00023406,25.437,5.9022e-05,-1289.7,-0.00053074,-5720.9,0.025355
1942,1.8416,3.2631,0.05,5.5707e-06,55.669,4.2776e-06,32.14,-4.6218e-13,8.4442e-07,-4.2776e-06,-32.14,0.019955
1943,17.368,3.0665,0,0.00025078,2506.1,0.00010356,247.33,6.9391e-05,-9.436,-0.00024574,-2377.2,1.3457
1944,16.918,3.3712,0,0.00021043,2102.9,7.9051e-05,119.07,6.3915e-05,5.3433,-0.00020809,-2038.4,1.2874
1945,17.044,3.0202,0,0.00021543,2152.9,8.3915e-05,155.58,6.3316e-05,0.80452,-0.00021236,-2070.5,1.3037
1946,17.15,3.2954,0.05,2.0569e-06,20.555,1.5795e-06,11.868,3.5796e-13,6.8878e-06,-1.5795e-06,-11.868,1.3173
1947,16.673,3.6942,0,0.0001982,1980.6,7.6668e-05,138.02,5.8716e-05,3.1284,-0.00019545,-1906.6,1.256
1948,16.425,4.0089,0,0.00019243,1922.9,7.6091e-05,149.68,5.5534e-05,-4.7745,-0.0001895,-1845.8,1.2242
1949,16.662,3.9414,0.05,2.7149e-06,27.131,2.0847e-06,15.664,-3.6474e-13,1.0535e-05,-2.0847e-06,-15.664,1.2542
1950,15.911,4.1175,0,0.00019447,1943.4,7.3006e-05,102.66,5.846e-05,-6.6345,-0.00019261,-1893.1,1.1597
1951,15.607,3.8719,0,0.00019882,1986.9,7.1933e-05,72.654,6.1487e-05,-5.8317,-0.00019757,-1952.3,1.1226
1952,15.632,4.1587,0.05,1.2675e-06,12.667,9.7331e-07,7.3131,2.9844e-14,4.9355e-06,-9.7331e-07,-7.3131,1.1253
1953,16.295,4.401,0,0.00018046,1803.3,7.1148e-05,140.53,5.2472e-05,0.20528,-0.00017765,-1728.9,1.2071
1954,16.401,4.7256,0.05,3.3115e-06,33.092,2.5428e-06,19.106,4.8169e-14,8.0306e-06,-2.5428e-06,-19.106,1.2197
1955,19.949,2.501,0,9.7879e-05,978.12,3.8751e-05,-0.076591,2.0789e-05,-135.04,-9.9476e-05,-1038.7,1.6978
1956,19.722,2.7261,0,0.00010494,1048.7,4.1133e-05,4.1512,2.3482e-05,-128.47,-0.00010642,-1104.5,1.6659
1957,19.454,2.8058,0,0.00012905,1289.6,5.0655e-05,8.3165,2.9051e-05,-154,-0.00013076,-1354.7,1.6283
1958,19.625,2.5341,0.05,1.934e-06,19.326,1.485e-06,11.158,-1.9349e-13,3.7669e-06,-1.485e-06,-11.158,1.6522
1959,18.556,2.9151,0.05,4.3672e-06,43.641,3.3534e-06,25.196,1.9717e-12,7.6547e-06,-3.3534e-06,-25.196,1.504
1960,21.522,2.9877,0,5.1487e-05,514.52,1.8972e-05,1.7144,1.3705e-05,-37.86,-5.1988e-05,-531.45,1.9216
1961,21.224,3.3262,0,5.7472e-05,574.33,2.1945e-05,-1.8549,1.354e-05,-65.007,-5.8349e-05,-605.15,1.879
1962,21.541,3.332,0.05,1.822e-06,18.207,1.399e-06,10.512,5.5787e-13,9.5199e-06,-1.399e-06,-10.512,1.9242
1963,21.503,2.6435,0.05,1.8659e-06,18.646,1.4328e-06,10.766,6.5089e-13,1.0972e-05,-1.4328e-06,-10.765,1.9188
1964,16.641,1.9552,0,0.00019005,1899.2,7.736e-05,170.38,5.3003e-05,-12.633,-0.0001867,-1813.7,1.2514
1965,16.646,1.7613,0.05,1.1141e-06,11.134,8.5551e-07,6.428,-4.8029e-13,8.5684e-06,-8.5551e-07,-6.428,1.2517
1966,19.341,3.4998,0,0.00013115,1310.5,4.907e-05,-3.2116,3.2835e-05,-125.19,-0.0001329,-1370.5,1.6125
1967,19.46,3.5984,0.05,3.2565e-06,32.543,2.5006e-06,18.789,1.718e-13,3.0556e-05,-2.5006e-06,-18.789,1.6291
1968,19.253,3.2394,0,0.00014471,1446.1,5.5078e-05,3.6459,3.5225e-05,-145.52,-0.00014655,-1511.3,1.6002
1969,19.222,3.4013,0.05,4.844e-06,48.406,3.7196e-06,27.947,-2.6279e-13,5.8495e-06,-3.7196e-06,-27.947,1.5959
1970,20.654,3.5005,0,7.2238e-05,721.88,2.8522e-05,-3.7238,1.513e-05,-104.35,-7.3548e-05,-770.63,1.7977
1971,20.908,3.3204,0.05,1.3524e-06,13.515,1.0385e-06,7.8028,4.5134e-13,7.602e-06,-1.0385e-06,-7.8028,1.8338
1972,20.236,3.5276,0,8.5663e-05,856.04,3.4436e-05,-1.3966,1.7074e-05,-131.84,-8.718e-05,-915.17,1.7383
1973,20.4,3.6806,0.05,1.0468e-06,10.461,8.0381e-07,6.0395,8.4233e-13,6.0736e-06,-8.0381e-07,-6.0395,1.7616
1974,20.273,2.4679,0.05,2.9999e-06,29.978,2.3036e-06,17.308,2.7616e-14,8.276e-06,-2.3036e-06,-17.308,1.7436
1975,3.6239,2.4703,0,0.00048911,4887.7,0.00019563,8.6952,0.00010101,-702.24,-0.00049701,-5195.5,0.074467
1976,3.2483,2.5048,0.05,4.5439e-06,45.407,3.4891e-06,26.216,-1.4257e-13,-5.5608e-15,-3.4891e-06,-26.216,0.060256
1977,4.3382,2.4234,0,0.00047722,4769,0.00018237,8.0088,0.00011442,-502.53,-0.00048358,-4995.7,0.10528
1978,4.0663,2.7288,0,0.00048133,4810,0.0001885,21.143,0.00010822,-582.05,-0.00048802,-5062,0.093221
1979,3.9995,2.4359,0.05,3.1784e-06,31.762,2.4406e-06,18.338,-3.8093e-13,-8.7723e-07,-2.4406e-06,-18.338,0.09
1980,5.0091,2.417,0,0.00046208,4617.6,0.00017111,4.9415,0.00012047,-375.53,-0.0004672,-4791.1,0.13876
1981,4.6854,2.6729,0,0.00046802,4677,0.00017454,-0.77795,0.00011926,-416.15,-0.00047373,-4871.6,0.12234
1982,4.6769,2.411,0.05,4.3448e-07,4.3418,3.3362e-07,2.5067,9.435e-14,1.6347e-06,-3.3362e-07,-2.5067,0.12161
1983,5.6731,2.4393,0,0.00044725,4469.4,0.00016104,-0.74167,0.00012427,-276.97,-0.00045134,-4601.9,0.17608
1984,5.3471,2.6923,0,0.00045585,4555.4,0.00016608,1.3214,0.00012341,-319.26,-0.00046041,-4705.9,0.15753
1985,5.3412,2.4231,0.05,2.7086e-06,27.068,2.0799e-06,15.627,-1.3067e-14,-7.3064e-08,-2.0799e-06,-15.627,0.15689
1986,6.3294,2.4668,0,0.00043142,4311.2,0.00015245,0.014699,0.00012503,-206,-0.00043455,-4410.5,0.21688
1987,5.9753,2.7618,0,0.00043884,4385.4,0.00015725,3.0171,0.00012363,-249.58,-0.00044249,-4503.2,0.19469
1988,6.0049,2.4556,0.05,2.3071e-06,23.055,1.7716e-06,13.311,-5.6634e-14,-4.2984e-07,-1.7716e-06,-13.311,0.19621
1989,6.9853,2.4796,0,0.00041513,4148.5,0.00014471,3.4793,0.0001241,-151.4,-0.00041743,-4220.3,0.26138
1990,6.637,2.7791,0,0.00042364,4233.5,0.00014862,0.39237,0.00012471,-179.25,-0.0004264,-4320,0.23758
1991,6.6538,2.478,0.05,2.6382e-06,26.364,2.0258e-06,15.221,2.6809e-14,2.024e-07,-2.0258e-06,-15.221,0.23841
1992,7.6509,2.4806,0,0.00039786,3975.9,0.00013671,0.53694,0.00012211,-109.13,-0.0003996,-4029,0.31019
1993,7.3066,2.7832,0,0.0004067,4064.2,0.00014072,1.6028,0.00012323,-129.81,-0.00040873,-4126.7,0.28476
1994,7.3168,2.4813,0.05,2.1143e-06,21.128,1.6235e-06,12.198,-4.0636e-16,9.4973e-07,-1.6235e-06,-12.198,0.28522
1995,8.3217,2.4793,0,0.00038026,3800,0.00012931,0.59393,0.00011904,-76.537,-0.00038149,-3837.4,0.36297
1996,7.9769,2.7782,0,0.00038924,3889.7,0.00013308,0.62215,0.00012062,-93.019,-0.00039073,-3935.1,0.33566
1997,7.9849,2.48,0.05,2.0978e-06,20.963,1.6108e-06,12.103,-9.0876e-13,1.4346e-06,-1.6108e-06,-12.103,0.33601
1998,8.998,2.4871,0,0.00036226,3620.1,0.00012214,0.36803,0.00011517,-52.021,-0.00036311,-3645.7,0.41966
1999,8.6526,2.7702,0,0.00037136,3711,0.00012575,0.35397,0.00011713,-64.415,-0.00037241,-3742.6,0.39053
2000,8.6585,2.4785,0.05,2.1725e-06,21.71,1.6682e-06,12.534,-9.065e-13,3.2332e-06,-1.6682e-06,-12.534,0.39075
2001,9.6727,2.5085,0,0.0003442,3439.6,0.00011525,0.1776,0.00011079,-33.36,-0.00034475,-3456.1,0.47955
2002,9.3322,2.782,0,0.00035325,3530,0.00011871,0.17705,0.00011297,-42.971,-0.00035395,-3551.2,0.44915
2003,9.3374,2.4958,0.05,2.1246e-06,21.232,1.6315e-06,12.258,5.4776e-15,3.4597e-06,-1.6315e-06,-12.258,0.44936
2004,10.337,2.5275,0,0.00032642,3262,0.00010867,0.081969,0.00010612,-19.094,-0.00032674,-3271.4,0.5416
2005,10.005,2.8253,0,0.00033521,3349.8,0.0001119,-0.012079,0.00010845,-25.962,-0.00033564,-3362.7,0.51041
2006,10.008,2.5211,0.05,2.03e-06,20.286,1.5588e-06,11.712,4.3699e-15,3.8591e-06,-1.5588e-06,-11.712,0.51046
2007,11,2.5339,0,0.00030879,3085.7,0.00010223,-0.68646,0.00010128,-7.7986,-0.00030893,-3090,0.60633
2008,10.679,2.8191,0,0.00031727,3170.5,0.00010534,-0.061085,0.00010361,-13.007,-0.00031749,-3177,0.57479
2009,10.667,2.5339,0.05,2.0175e-06,20.161,1.5492e-06,11.64,-8.9118e-13,4.0584e-06,-1.5492e-06,-11.64,0.5734
2010,11.666,2.5194,0,0.00029127,2910.7,9.6304e-05,1.8893,9.598e-05,-0.54383,-0.00029125,-2910,0.67409
2011,11.353,2.8173,0,0.00029942,2992.1,9.8903e-05,-0.16594,9.8635e-05,-2.1769,-0.00029946,-2993.3,0.64207
2012,11.333,2.5339,0.05,2.0274e-06,20.26,1.5568e-06,11.697,-1.6367e-15,3.7986e-06,-1.5568e-06,-11.697,0.6399
2013,12.327,2.4834,0,0.00027419,2740,9.1447e-05,10.788,8.9837e-05,-1.3082,-0.00027402,-2735.2,0.74389
2014,12.023,2.798,0,0.00028201,2818.1,9.3819e-05,7.9722,9.2515e-05,-1.8303,-0.0002819,-2815.1,0.71172
2015,11.998,2.5049,0.05,1.7856e-06,17.843,1.3711e-06,10.302,5.7267e-14,5.5059e-06,-1.3711e-06,-10.302,0.70887
2016,12.983,2.4372,0,0.00025727,2570.9,8.6723e-05,20.78,8.3718e-05,-1.797,-0.00025694,-2561.4,0.8155
2017,12.691,2.7644,0,0.00026452,2643.4,8.8379e-05,12.33,8.6583e-05,-1.1655,-0.00026433,-2637.8,0.78357
2018,12.655,2.4618,0.05,1.8539e-06,18.526,1.4236e-06,10.696,-4.4602e-14,3.4503e-06,-1.4236e-06,-10.696,0.77945
2019,13.633,2.4123,0,0.00024143,2412.7,8.2122e-05,29.183,7.8197e-05,-0.31052,-0.00024093,-2398.1,0.88871
2020,13.311,2.6844,0,0.00025005,2498.8,8.5207e-05,32.083,8.09e-05,-0.27695,-0.0002495,-2482.7,0.85236
2021,13.31,2.4127,0.05,1.5463e-06,15.453,1.1874e-06,8.9216,-1.2062e-14,3.6629e-06,-1.1874e-06,-8.9216,0.85206
2022,14.274,2.3978,0,0.00022672,2265.6,7.8057e-05,39.377,7.2932e-05,0.86992,-0.00022601,-2245.3,0.96285
2023,13.952,2.6635,0,0.00023397,2338.1,8.1035e-05,44.138,7.4759e-05,-3.0198,-0.00023323,-2317.1,0.92552
2024,13.956,2.4119,0.05,2.3366e-06,23.35,1.7942e-06,13.481,-4.3312e-14,5.2331e-06,-1.7942e-06,-13.481,0.92582
2025,14.539,2.6843,0,0.00022029,2201.4,7.6779e-05,50.378,7.038e-05,2.295,-0.00021936,-2174.7,0.9943
2026,14.592,2.3837,0.05,1.7369e-06,17.357,1.3337e-06,10.021,-1.6803e-13,-6.2447e-08,-1.3337e-06,-10.021,1.0003
2027,14.7,3.5613,0,0.00021684,2166.9,7.544e-05,45.658,6.9149e-05,-1.6093,-0.00021605,-2144.5,1.0132
2028,15.297,3.5814,0,0.00020516,2050.2,7.2819e-05,58.366,6.4346e-05,-5.2967,-0.00020419,-2022.9,1.085
2029,15.048,3.2827,0,0.00020914,2090,7.3673e-05,53.026,6.5954e-05,-4.9705,-0.00020826,-2065.3,1.0551
2030,15.012,3.5776,0.05,1.0392e-06,10.385,7.9795e-07,5.9955,2.1551e-15,3.6082e-06,-7.9795e-07,-5.9955,1.0505
2031,14.437,3.2649,0,0.00022256,2224.1,7.7315e-05,47.717,7.1249e-05,2.1376,-0.00022168,-2198.8,0.98224
2032,14.387,3.5449,0.05,1.5448e-06,15.437,1.1862e-06,8.9128,-2.2898e-13,3.0872e-06,-1.1862e-06,-8.9128,0.9762
2033,2.3147,3.1839,0.05,2.4636e-06,24.619,1.8917e-06,14.214,-4.0126e-22,3.8511e-05,-1.8917e-06,-14.214,0.031275
2034,17.523,2.7541,0,0.00027102,2708.3,0.00011572,301.87,7.1327e-05,-31.673,-0.00026488,-2557.8,1.3658
2035,17.633,3.0002,0,0.00028379,2836,0.00011537,271.09,8.1019e-05,12.996,-0.00027808,-2685.1,1.3803
2036,17.586,2.8375,0.05,8.9516e-06,89.454,6.8737e-06,51.646,-3.5466e-13,2.5428e-05,-6.8737e-06,-51.646,1.3741
2037,16.632,3.2412,0,0.00020466,2045.2,7.5988e-05,109.48,6.3138e-05,12.928,-0.00020241,-1982.3,1.251
2038,16.408,3.5024,0,0.00019987,1997.3,7.3259e-05,89.184,6.1665e-05,2.069,-0.00019817,-1950.3,1.2225
2039,16.685,3.447,0.05,2.103e-06,21.015,1.6148e-06,12.133,1.3445e-13,6.4525e-06,-1.6148e-06,-12.133,1.2577
2040,16.159,3.8171,0,0.00019412,1939.8,7.2733e-05,101.23,5.8483e-05,-5.8366,-0.00019227,-1889.9,1.1911
2041,16.189,4.0764,0.05,1.1413e-06,11.405,8.764e-07,6.5849,3.0999e-12,2.6779e-06,-8.764e-07,-6.5849,1.1944
2042,16.554,2.303,0,0.00019602,1958.9,7.7048e-05,141,5.6312e-05,-14.805,-0.00019341,-1891.1,1.2409
2043,16.636,2.1491,0.05,3.125e-06,31.229,2.3996e-06,18.03,1.4755e-12,9.5222e-06,-2.3996e-06,-18.03,1.2511
2044,17.199,2.7079,0,0.0002356,2354.4,9.641e-05,212.67,6.4921e-05,-23.921,-0.0002315,-2251.1,1.3236
2045,17.46,2.6708,0.05,3.6304e-06,36.279,2.7877e-06,20.945,3.296e-13,3.2355e-05,-2.7877e-06,-20.945,1.3575
2046,20.072,3.3746,0.05,1.9798e-06,19.785,1.5203e-06,11.423,1.8149e-13,6.6024e-06,-1.5203e-06,-11.423,1.7151
2047,15.856,3.5715,0,0.00019843,1982.9,7.1624e-05,70.959,6.151e-05,-5.0344,-0.0001972,-1948.9,1.1536
2048,15.599,3.3124,0,0.00020077,2006.4,7.1488e-05,63.97,6.3212e-05,1.783,-0.00019958,-1972.8,1.1222
2049,15.581,3.5852,0.05,1.2085e-06,12.076,9.2794e-07,6.9722,1.5267e-13,4.5267e-06,-9.2794e-07,-6.9722,1.1197
2050,19.819,2.918,0.05,1.8556e-06,18.543,1.4249e-06,10.706,4.6354e-13,2.1354e-05,-1.4249e-06,-10.706,1.6795
2051,4.4136,2.9783,0,0.00047211,4717.9,0.00018067,12.35,0.00011315,-494.93,-0.00047827,-4938.7,0.1092
2052,4.1332,3.0216,0.05,1.048e-06,10.473,8.0473e-07,6.0464,-8.6973e-13,1.6908e-07,-8.0473e-07,-6.0464,0.096231
2053,5.0235,2.9482,0,0.00046176,4614.4,0.00016954,-4.155,0.00012215,-360.23,-0.00046693,-4786.3,0.13993
2054,4.694,2.9349,0.05,2.1403e-06,21.389,1.6435e-06,12.349,-2.0274e-14,6.0562e-05,-1.6435e-06,-12.349,0.12286
2055,5.6493,3.0148,0,0.00044743,4471.2,0.00016231,5.2427,0.00012274,-292.07,-0.00045156,-4607.2,0.17505
2056,5.353,2.9614,0.05,3.7667e-06,37.641,2.8924e-06,21.732,2.89e-12,-9.3023e-07,-2.8924e-06,-21.732,0.15794
2057,6.2829,3.0742,0,0.00043104,4307.4,0.00015341,3.2954,0.00012332,-222.75,-0.00043433,-4412.7,0.21421
2058,5.9456,3.0681,0.05,1.6514e-06,16.503,1.2681e-06,9.5277,-7.4232e-14,-8.3499e-07,-1.2681e-06,-9.5277,0.19289
2059,6.9583,3.0828,0,0.0004152,4149.1,0.00014463,-1.4797,0.00012384,-157.66,-0.00041769,-4226.5,0.2598
2060,6.6202,3.0803,0.05,1.3319e-06,13.309,1.0227e-06,7.6842,-2.0378e-15,-3.8968e-08,-1.0227e-06,-7.6842,0.23646
2061,7.6326,3.0808,0,0.00039808,3978.1,0.0001371,1.6921,0.00012174,-113.67,-0.00039986,-4032.8,0.30912
2062,7.2964,3.0852,0.05,2.3331e-06,23.315,1.7915e-06,13.461,-1.7298e-14,8.2889e-07,-1.7915e-06,-13.461,0.28403
2063,8.3078,3.0691,0,0.00038035,3800.8,0.00012953,0.38501,0.00011872,-80.832,-0.00038165,-3840.4,0.36215
2064,7.9688,3.0764,0.05,2.0903e-06,20.888,1.6051e-06,12.06,-9.8273e-15,9.7794e-07,-1.6051e-06,-12.06,0.33505
2065,8.9868,3.0651,0,0.00036236,3621.1,0.00012232,0.16358,0.00011494,-55.268,-0.00036326,-3648.3,0.41899
2066,8.6467,3.0619,0.05,2.1212e-06,21.198,1.6289e-06,12.239,-1.2702e-15,2.0719e-06,-1.6289e-06,-12.239,0.39006
2067,9.6645,3.0989,0,0.00034427,3440.3,0.00011536,-0.01307,0.00011064,-35.443,-0.00034486,-3457.9,0.47905
2068,9.327,3.0683,0.05,2.0975e-06,20.961,1.6106e-06,12.102,6.9142e-16,2.3672e-06,-1.6106e-06,-12.102,0.44871
2069,10.346,3.1169,0,0.00032608,3258.5,0.00010857,-0.16377,0.00010596,-19.714,-0.00032641,-3268.4,0.54268
2070,10.002,3.1294,0.05,2.0683e-06,20.669,1.5882e-06,11.933,7.659e-15,3.6362e-06,-1.5882e-06,-11.933,0.51012
2071,11.031,3.1025,0,0.00030793,3077.1,0.00010201,0.46227,0.00010099,-7.227,-0.00030804,-3080.5,0.60967
2072,10.691,3.1043,0.05,2.1236e-06,21.221,1.6306e-06,12.252,2.36e-14,3.4466e-06,-1.6306e-06,-12.252,0.57596
2073,11.71,3.0958,0,0.00029019,2899.9,9.6206e-05,4.3221,9.5408e-05,-1.6684,-0.00029014,-2898.5,0.6789
2074,11.372,3.1006,0.05,2.0332e-06,20.318,1.5613e-06,11.731,1.9799e-14,3.954e-06,-1.5613e-06,-11.731,0.64404
2075,12.388,3.079,0,0.00027237,2721.8,9.0728e-05,9.339,8.9304e-05,-1.3597,-0.00027223,-2717.8,0.75064
2076,12.048,3.091,0.05,2.2441e-06,22.426,1.7232e-06,12.948,5.2403e-14,5.0218e-06,-1.7232e-06,-12.947,0.71437
2077,13.019,3.0116,0,0.00025732,2571.5,8.6899e-05,23.905,8.3751e-05,0.24826,-0.00025691,-2559.3,0.8198
2078,12.727,3.0671,0.05,2.6442e-06,26.423,2.0304e-06,15.256,-7.1267e-15,3.7815e-06,-2.0304e-06,-15.256,0.78749
2079,13.629,2.9356,0,0.00024259,2424.3,8.4164e-05,47.375,7.7421e-05,-3.2876,-0.0002418,-2401.8,0.88856
2080,13.312,2.9561,0.05,1.9428e-06,19.415,1.4918e-06,11.209,-1.1068e-13,2.0474e-06,-1.4918e-06,-11.209,0.85249
2081,14.217,2.95,0,0.00022754,2273.8,7.9747e-05,55.064,7.2216e-05,-1.525,-0.00022658,-2246.5,0.95646
2082,13.947,2.9151,0.05,2.5207e-06,25.19,1.9356e-06,14.544,-2.3099e-13,-5.9549e-07,-1.9356e-06,-14.544,0.92508
2083,14.786,2.9863,0,0.00021487,2147.2,7.5567e-05,55.229,6.8042e-05,-1.3126,-0.00021389,-2119.7,1.0237
2084,14.487,2.9849,0.05,1.4748e-06,14.738,1.1325e-06,8.5091,-5.1684e-14,3.1063e-06,-1.1325e-06,-8.5091,0.98814
2085,15.351,3.0136,0,0.00020476,2046.2,7.2372e-05,58.855,6.4803e-05,1.9831,-0.00020367,-2015.2,1.0919
2086,15.085,2.9877,0.05,6.6978e-07,6.6931,5.143e-07,3.8643,-6.6013e-14,1.3468e-05,-5.143e-07,-3.8643,1.0596
2087,16.758,2.8903,0,0.00020998,2098.4,8.1207e-05,148.65,6.2473e-05,7.8925,-0.00020696,-2016.6,1.2671
2088,16.705,2.601,0,0.00020646,2063.2,8.1442e-05,157.34,5.9627e-05,-6.5745,-0.0002034,-1982.9,1.2603
2089,16.937,2.7451,0.05,1.6502e-06,16.49,1.2671e-06,9.5207,1.9693e-13,3.5028e-06,-1.2671e-06,-9.5207,1.29
2090,16.579,3.0354,0.05,2.2814e-06,22.798,1.7518e-06,13.163,-6.7947e-13,7.9613e-06,-1.7518e-06,-13.163,1.2443
2091,16.13,3.5578,0.05,2.8662e-07,2.8642,2.2009e-07,1.6537,2.6467e-13,5.8795e-06,-2.2009e-07,-1.6537,1.1877
2092,15.701,2.7986,0,0.00019862,1984.8,7.1147e-05,61.758,6.1653e-05,-9.578,-0.00019763,-1957.8,1.1347
2093,15.618,3.0396,0.05,1.0979e-06,10.971,8.4306e-07,6.3344,-2.4769e-14,1.1136e-05,-8.4306e-07,-6.3344,1.1244
2094,15.784,2.5576,0.05,2.1005e-06,20.991,1.613e-06,12.119,3.1386e-12,1.4364e-05,-1.613e-06,-12.119,1.1448
2095,19.283,3.0775,0.05,4.4145e-06,44.115,3.3898e-06,25.47,-1.5664e-13,4.1938e-06,-3.3898e-06,-25.47,1.6045
2096,17.681,3.1628,0.05,4.8651e-06,48.618,3.7358e-06,28.069,-4.0215e-13,8.0182e-07,-3.7358e-06,-28.069,1.3865
2097,19.089,1.497,0.05,3.6702e-06,36.677,2.8183e-06,21.176,5.325e-13,2.9256e-06,-2.8183e-06,-21.176,1.5766
2098,17.193,4.8403,0.05,6.2157e-06,62.114,4.7729e-06,35.862,1.0916e-12,1.2203e-05,-4.7729e-06,-35.862,1.3199
2099,19.143,4.716,0,8.7202e-05,871.42,3.3165e-05,62.356,2.6992e-05,15.974,-8.5777e-05,-831.33,1.584
2100,19.087,4.8758,0.05,2.2547e-06,22.531,1.7313e-06,13.008,9.9376e-13,2.1222e-05,-1.7313e-06,-13.008,1.5759
2101,19.2,4.5562,0.05,6.5843e-06,65.798,5.0559e-06,37.988,9.6689e-13,2.7744e-07,-5.0559e-06,-37.988,1.592
2102,16.473,2.457,0.05,3.1543e-06,31.521,2.4221e-06,18.199,-5.6198e-14,2.7424e-06,-2.4221e-06,-18.199,1.2307
2103,16.705,2.601,0.1,0.00020646,2063.2,0.0002034,1982.9,-5.9627e-05,6.5745,-8.1442e-05,-157.34,1.2603
2104,16.554,2.303,0.1,0.00019602,1958.9,0.00019341,1891.1,-5.6312e-05,14.805,-7.7048e-05,-141,1.2409
2105,16.2,2.3281,0.1,0.0002014,2012.6,0.00019865,1940.4,-5.8328e-05,9.5762,-7.8908e-05,-145.05,1.1963
2106,16.349,2.5916,0.1,0.00019778,1976.5,0.00019567,1918.2,-6.0454e-05,-6.2858,-7.3797e-05,-106.54,1.2153
2107,19.143,4.716,0.1,8.7202e-05,871.42,8.5777e-05,831.33,-2.6992e-05,-15.974,-3.3165e-05,-62.356,1.584
2108,19.252,4.3786,0.1,0.00010203,1019.6,0.00010211,1026.7,-2.7811e-05,50.51,-3.872e-05,-31.451,1.5996
2109,19.511,4.6849,0.1,8.6836e-05,867.76,8.6603e-05,863.48,-2.5042e-05,24.618,-3.2384e-05,-30.549,1.6356
2110,18.94,4.5767,0.1,0.00010116,1010.9,9.8961e-05,951.39,-2.9677e-05,-15.145,-4.0785e-05,-98.611,1.5557
2111,18.862,4.9058,0.1,7.9345e-05,792.9,7.7192e-05,735.16,-2.2794e-05,-16.092,-3.3121e-05,-93.684,1.5444
2112,19.182,5.0005,0.1,8.0245e-05,801.9,7.8888e-05,762.06,-2.7274e-05,-35.594,-2.8394e-05,-44.004,1.589
2113,17.256,4.726,0.1,0.00015411,1540,0.00014379,1293.2,-3.441e-05,-45.747,-8.0198e-05,-389.78,1.3283
2114,17.396,4.8955,0.1,0.00012824,1281.5,0.00011799,1053.8,-2.3778e-05,-11.394,-7.1277e-05,-368.29,1.3458
2115,16.998,4.6287,0.1,0.00016042,1603.1,0.00015248,1408.9,-3.8704e-05,-27.558,-7.768e-05,-320.41,1.2955
2116,17.102,4.9497,0.1,0.00014248,1423.9,0.00013559,1253.7,-3.5007e-05,-28.142,-6.8378e-05,-278.87,1.3079
2117,19.335,1.6791,0.1,0.00010426,1041.8,0.00010504,1069.8,-2.7669e-05,72.67,-3.8894e-05,-11.671,1.6113
2118,18.988,1.6164,0.1,0.0001175,1174.1,0.00011675,1154.7,-3.5255e-05,12.574,-4.3452e-05,-49.011,1.5627
2119,19.1,1.2827,0.1,9.7933e-05,978.66,9.7722e-05,972.7,-3.129e-05,3.3577,-3.3734e-05,-15.009,1.578
2120,18.845,1.4178,0.1,0.00010701,1069.4,0.00010548,1027.9,-3.1884e-05,-4.2443,-4.1332e-05,-75.236,1.5426
2121,17.633,3.0002,0.1,0.00028379,2836,0.00027808,2685.1,-8.1019e-05,-12.996,-0.00011537,-271.09,1.3803
2122,17.798,3.2399,0.1,0.00029677,2965.7,0.0002914,2822.2,-8.6221e-05,-15.081,-0.00011841,-256.97,1.402
2123,17.61,3.334,0.1,0.00028053,2803.4,0.00027487,2653.5,-8.0352e-05,-15.534,-0.00011386,-267.29,1.3772
2124,19.253,3.2394,0.1,0.00014471,1446.1,0.00014655,1511.3,-3.5225e-05,145.52,-5.5078e-05,-3.6459,1.6002
2125,19.454,2.8058,0.1,0.00012905,1289.6,0.00013076,1354.7,-2.9051e-05,154,-5.0655e-05,-8.3165,1.6283
2126,19.123,3.078,0.1,0.00016237,1622.6,0.00016423,1683.8,-4.3199e-05,125.26,-5.9343e-05,3.9593,1.5822
2127,19.458,3.1363,0.1,0.00012915,1290.6,0.000131,1359.9,-2.8956e-05,158.06,-5.0541e-05,-4.116,1.6289
2128,15.701,2.7986,0.1,0.00019862,1984.8,0.00019763,1957.8,-6.1653e-05,9.578,-7.1147e-05,-61.758,1.1347
2129,15.486,2.4945,0.1,0.00020227,2021.3,0.00020116,1991.8,-6.1234e-05,20.323,-7.4046e-05,-75.947,1.1081
2130,15.855,2.3785,0.1,0.00020026,2001.2,0.00019836,1951.7,-5.8864e-05,18.993,-7.6246e-05,-111.61,1.1535
2131,16.005,2.6419,0.1,0.00019667,1965.3,0.00019538,1929.4,-6.1189e-05,1.6335,-7.0921e-05,-71.494,1.1723
2132,15.351,3.0136,0.1,0.00020476,2046.2,0.00020367,2015.2,-6.4803e-05,-1.9831,-7.2372e-05,-58.855,1.0919
2133,15.599,3.3124,0.1,0.00020077,2006.4,0.00019958,1972.8,-6.3212e-05,-1.783,-7.1488e-05,-63.97,1.1222
2134,15.862,3.0748,0.1,0.00019942,1992.9,0.00019815,1957.3,-6.2253e-05,0.74596,-7.1658e-05,-69.922,1.1546
2135,15.856,3.5715,0.1,0.00019843,1982.9,0.0001972,1948.9,-6.151e-05,5.0344,-7.1624e-05,-70.959,1.1536
2136,16.159,3.8171,0.1,0.00019412,1939.8,0.00019227,1889.9,-5.8483e-05,5.8366,-7.2733e-05,-101.23,1.1911
2137,16.408,3.5024,0.1,0.00019987,1997.3,0.00019817,1950.3,-6.1665e-05,-2.069,-7.3259e-05,-89.184,1.2225
2138,16.118,3.3339,0.1,0.0001971,1969.6,0.00019578,1933.5,-6.053e-05,7.7176,-7.1824e-05,-77.143,1.1864
2139,16.758,2.8903,0.1,0.00020998,2098.4,0.00020696,2016.6,-6.2473e-05,-7.8926,-8.1207e-05,-148.65,1.2671
2140,16.632,3.2412,0.1,0.00020466,2045.2,0.00020241,1982.3,-6.3138e-05,-12.928,-7.5988e-05,-109.48,1.251
2141,16.343,3.0727,0.1,0.00020188,2017.4,0.00020001,1965.5,-6.197e-05,-2.8897,-7.4585e-05,-97.67,1.2146
2142,16.402,2.8809,0.1,0.00020151,2013.7,0.00019937,1952.8,-6.3299e-05,-20.746,-7.3694e-05,-98.852,1.2221
2143,17.199,2.7079,0.1,0.0002356,2354.4,0.0002315,2251.1,-6.4921e-05,23.921,-9.641e-05,-212.67,1.3236
2144,17.044,3.0202,0.1,0.00021543,2152.9,0.00021236,2070.5,-6.3316e-05,-0.80452,-8.3915e-05,-155.58,1.3037
2145,17.016,2.4688,0.1,0.00021029,2101.5,0.00020581,1984.4,-5.9215e-05,-6.9219,-8.6535e-05,-212.19,1.3
2146,14.786,2.9863,0.1,0.00021487,2147.2,0.00021389,2119.7,-6.8042e-05,1.3126,-7.5567e-05,-55.229,1.0237
2147,15.048,3.2827,0.1,0.00020914,2090,0.00020826,2065.3,-6.5954e-05,4.9705,-7.3673e-05,-53.026,1.0551
2148,15.136,2.7095,0.1,0.00020844,2082.9,0.00020722,2049.5,-6.4537e-05,7.6095,-7.515e-05,-72.134,1.0657
2149,14.217,2.95,0.1,0.00022754,2273.8,0.00022658,2246.5,-7.2216e-05,1.525,-7.9747e-05,-55.064,0.95646
2150,14.437,3.2649,0.1,0.00022256,2224.1,0.00022168,2198.8,-7.1249e-05,-2.1376,-7.7315e-05,-47.717,0.98224
2151,14.539,2.6843,0.1,0.00022029,2201.4,0.00021936,2174.7,-7.038e-05,-2.295,-7.6779e-05,-50.378,0.9943
2152,13.629,2.9356,0.1,0.00024259,2424.3,0.0002418,2401.8,-7.7421e-05,3.2876,-8.4164e-05,-47.375,0.88856
2153,13.952,2.6635,0.1,0.00023397,2338.1,0.00023323,2317.1,-7.4759e-05,3.0199,-8.1035e-05,-44.138,0.92552
2154,13.805,3.2115,0.1,0.00023597,2358.1,0.00023531,2339.1,-7.6067e-05,-0.49389,-8.0941e-05,-37.117,0.90866
2155,13.019,3.0116,0.1,0.00025732,2571.5,0.00025691,2559.3,-8.3751e-05,-0.24826,-8.6899e-05,-23.905,0.8198
2156,13.311,2.6844,0.1,0.00025005,2498.8,0.0002495,2482.7,-8.09e-05,0.27695,-8.5207e-05,-32.083,0.85236
2157,13.487,3.2319,0.1,0.00024476,2445.9,0.00024421,2430,-7.9564e-05,-2.702,-8.3043e-05,-28.842,0.87233
2158,12.388,3.079,0.1,0.00027237,2721.8,0.00027223,2717.8,-8.9304e-05,1.3597,-9.0728e-05,-9.339,0.75064
2159,12.691,2.7644,0.1,0.00026452,2643.4,0.00026433,2637.8,-8.6583e-05,1.1655,-8.8379e-05,-12.33,0.78357
2160,12.802,3.3287,0.1,0.00026211,2619.3,0.00026177,2609.2,-8.56e-05,-0.78083,-8.8079e-05,-19.412,0.7957
2161,11.71,3.0958,0.1,0.00029019,2899.9,0.00029014,2898.5,-9.5408e-05,1.6684,-9.6206e-05,-4.3221,0.6789
2162,12.023,2.798,0.1,0.00028201,2818.1,0.0002819,2815.1,-9.2515e-05,1.8303,-9.3819e-05,-7.9722,0.71172
2163,12.107,3.371,0.1,0.00027973,2795.4,0.0002796,2791.6,-9.1542e-05,3.0035,-9.3331e-05,-10.442,0.72045
2164,11.031,3.1025,0.1,0.00030793,3077.1,0.00030804,3080.5,-0.00010099,7.227,-0.00010201,-0.46227,0.60967
2165,11.353,2.8173,0.1,0.00029942,2992.1,0.00029946,2993.3,-9.8635e-05,2.1769,-9.8903e-05,0.16594,0.64207
2166,11.4,3.3803,0.1,0.00029828,2980.7,0.00029826,2980.2,-9.8283e-05,0.72859,-9.8616e-05,-1.7728,0.64679
2167,10.346,3.1169,0.1,0.00032608,3258.5,0.00032641,3268.4,-0.00010596,19.714,-0.00010857,0.16377,0.54268
2168,10.679,2.8191,0.1,0.00031727,3170.5,0.00031749,3177,-0.00010361,13.007,-0.00010534,0.061084,0.57479
2169,10.704,3.3899,0.1,0.00031662,3164,0.00031683,3170.2,-0.00010347,12.285,-0.00010507,0.2502,0.57713
2170,9.6645,3.0989,0.1,0.00034427,3440.3,0.00034486,3457.9,-0.00011064,35.443,-0.00011536,0.01307,0.47905
2171,10.005,2.8253,0.1,0.00033521,3349.8,0.00033564,3362.7,-0.00010845,25.962,-0.0001119,0.012079,0.51041
2172,10.01,3.397,0.1,0.00033512,3348.8,0.00033554,3361.4,-0.00010846,25.369,-0.00011185,-0.14231,0.51072
2173,8.9868,3.0651,0.1,0.00036236,3621.1,0.00036326,3648.3,-0.00011494,55.268,-0.00012232,-0.16358,0.41899
2174,9.3322,2.782,0.1,0.00035325,3530,0.00035395,3551.2,-0.00011297,42.971,-0.00011871,-0.17705,0.44915
2175,9.3252,3.3494,0.1,0.00035347,3532.2,0.00035418,3553.5,-0.00011304,43.018,-0.00011877,-0.049328,0.44844
2176,8.3078,3.0691,0.1,0.00038035,3800.8,0.00038165,3840.4,-0.00011872,80.832,-0.00012953,-0.38501,0.36215
2177,8.6526,2.7702,0.1,0.00037136,3711,0.00037241,3742.6,-0.00011713,64.415,-0.00012575,-0.35397,0.39053
2178,8.6418,3.34,0.1,0.00037172,3714.7,0.00037278,3746.4,-0.00011722,64.765,-0.00012589,-0.37096,0.38954
2179,7.6326,3.0808,0.1,0.00039808,3978.1,0.00039986,4032.8,-0.00012174,113.67,-0.0001371,-1.6921,0.30912
2180,7.9769,2.7782,0.1,0.00038924,3889.7,0.00039073,3935.1,-0.00012062,93.019,-0.00013308,-0.62215,0.33566
2181,7.9532,3.3519,0.1,0.00038992,3896.5,0.00039143,3942.7,-0.00012078,94.09,-0.00013331,-0.03689,0.33371
2182,6.9583,3.0828,0.1,0.0004152,4149.1,0.00041769,4226.5,-0.00012384,157.66,-0.00014463,1.4797,0.2598
2183,7.3066,2.7832,0.1,0.0004067,4064.2,0.00040873,4126.7,-0.00012323,129.81,-0.00014072,-1.6028,0.28476
2184,7.2666,3.3595,0.1,0.00040797,4076.9,0.00040998,4139.1,-0.0001235,130.79,-0.00014131,-3.0277,0.28173
2185,6.2829,3.0742,0.1,0.00043104,4307.4,0.00043433,4412.7,-0.00012332,222.75,-0.00015341,-3.2954,0.21421
2186,6.637,2.7791,0.1,0.00042364,4233.5,0.0004264,4320,-0.00012471,179.25,-0.00014862,-0.39237,0.23758
2187,6.5773,3.3545,0.1,0.00042483,4245.3,0.00042776,4336.8,-0.00012508,183.04,-0.0001487,5.547,0.23345
2188,5.6493,3.0148,0.1,0.00044743,4471.2,0.00045156,4607.2,-0.00012274,292.07,-0.00016231,-5.2427,0.17505
2189,5.9753,2.7618,0.1,0.00043884,4385.4,0.00044249,4503.2,-0.00012363,249.58,-0.00015725,-3.0171,0.19469
2190,5.8764,3.3335,0.1,0.00044254,4422.3,0.00044609,4538.7,-0.00012378,256.95,-0.00015955,-11.87,0.18854
2191,5.0235,2.9482,0.1,0.00046176,4614.4,0.00046693,4786.3,-0.00012215,360.23,-0.00016954,4.155,0.13993
2192,5.3471,2.6923,0.1,0.00045585,4555.4,0.00046041,4705.9,-0.00012341,319.26,-0.00016608,-1.3214,0.15753
2193,5.1813,3.2428,0.1,0.00045706,4567.4,0.00046199,4733.7,-0.00012018,359.49,-0.0001687,-5.11,0.14838
2194,4.4136,2.9783,0.1,0.00047211,4717.9,0.00047827,4938.7,-0.00011315,494.93,-0.00018067,-12.35,0.1092
2195,4.6854,2.6729,0.1,0.00046802,4677,0.00047373,4871.6,-0.00011926,416.15,-0.00017454,0.77795,0.12234
2196,4.8518,3.2296,0.1,0.00046254,4622.2,0.00046795,4806.6,-0.00011879,398.03,-0.00017219,-3.1865,0.13086
2197,4.0663,2.7288,0.1,0.00048133,4810,0.00048802,5062,-0.00010822,582.05,-0.0001885,-21.143,0.093221
2198,3.8688,3.0621,0.1,0.00048479,4844.5,0.0004923,5136.4,-0.00010193,671.66,-0.00019326,-14.597,0.084768
2199,4.2049,3.3068,0.1,0.00047784,4775.1,0.00048431,5014.6,-0.00011005,548.76,-0.00018562,-19.027,0.099402
2200,19.722,2.7261,0.1,0.00010494,1048.7,0.00010642,1104.5,-2.3482e-05,128.47,-4.1133e-05,-4.1512,1.6659
2201,20.06,2.9577,0.1,9.2319e-05,922.55,9.3624e-05,972.39,-2.0364e-05,115.92,-3.6383e-05,-4.4373,1.7135
2202,19.726,3.0565,0.1,0.00010501,1049.3,0.00010664,1109.5,-2.3371e-05,132.64,-4.0998e-05,0.20349,1.6665
2203,15.297,3.5814,0.1,0.00020516,2050.2,0.00020419,2022.9,-6.4346e-05,5.2967,-7.2819e-05,-58.366,1.085
2204,15.607,3.8719,0.1,0.00019882,1986.9,0.00019757,1952.3,-6.1487e-05,5.8317,-7.1933e-05,-72.654,1.1226
2205,20.236,3.5276,0.1,8.5663e-05,856.04,8.718e-05,915.17,-1.7074e-05,131.84,-3.4436e-05,1.3966,1.7383
2206,20.186,3.1859,0.1,8.8497e-05,884.36,8.9984e-05,943,-1.7755e-05,133.48,-3.5632e-05,-0.83383,1.7314
2207,19.936,3.5943,0.1,9.3145e-05,930.81,9.4754e-05,993.48,-1.876e-05,140.58,-3.7388e-05,0.62254,1.696
2208,19.852,3.2848,0.1,0.00010123,1011.6,0.00010306,1080.5,-2.0846e-05,149.57,-4.0223e-05,3.9862,1.6842
2209,17.523,2.7541,0.1,0.00027102,2708.3,0.00026488,2557.8,-7.1327e-05,31.673,-0.00011572,-301.87,1.3658
2210,17.625,2.694,0.1,0.00027813,2779.4,0.00027183,2618.1,-7.6302e-05,2.4219,-0.00011658,-300.22,1.3792
2211,17.447,2.5206,0.1,0.00025508,2549.1,0.00024958,2409.9,-6.9424e-05,13.012,-0.00010684,-268.13,1.3557
2212,16.641,1.9552,0.1,0.00019005,1899.2,0.0001867,1813.7,-5.3003e-05,12.633,-7.736e-05,-170.38,1.2514
2213,16.866,2.1709,0.1,0.00019999,1998.5,0.00019592,1893.4,-5.5877e-05,1.4845,-8.2273e-05,-196.85,1.2803
2214,16.41,2.0262,0.1,0.00018789,1877.6,0.0001858,1820.8,-5.6496e-05,0.25553,-7.1058e-05,-109.15,1.2224
2215,16.295,4.401,0.1,0.00018046,1803.3,0.00017765,1728.9,-5.2472e-05,-0.20528,-7.1148e-05,-140.53,1.2071
2216,15.911,4.1175,0.1,0.00019447,1943.4,0.00019261,1893.1,-5.846e-05,6.6345,-7.3006e-05,-102.66,1.1597
2217,16.425,4.0089,0.1,0.00019243,1922.9,0.0001895,1845.8,-5.5534e-05,4.7745,-7.6091e-05,-149.68,1.2242
2218,16.673,3.6942,0.1,0.0001982,1980.6,0.00019545,1906.6,-5.8716e-05,-3.1284,-7.6668e-05,-138.02,1.256
2219,16.918,3.3712,0.1,0.00021043,2102.9,0.00020809,2038.4,-6.3915e-05,-5.3433,-7.9051e-05,-119.07,1.2874
2220,17.368,3.0665,0.1,0.00025078,2506.1,0.00024574,2377.2,-6.9391e-05,9.436,-0.00010356,-247.33,1.3457
2221,17.708,2.9024,0.1,0.00028932,2891.2,0.00028129,2691.2,-7.5875e-05,7.6288,-0.00012619,-370.44,1.3902
2222,2.0781,3.2235,0.1,0.00052183,5214.7,0.00053074,5720.9,-5.9022e-05,1289.7,-0.00023406,-25.437,0.025355
2223,2.6704,3.1367,0.1,0.00050402,5036.7,0.00051408,5484.5,-7.7863e-05,1036.9,-0.00021382,15.319,0.041378
2224,2.4021,3.3851,0.1,0.00052075,5203.9,0.00053097,5694.9,-7.1269e-05,1169.9,-0.00022585,8.4771,0.033581
2225,2.4343,2.8531,0.1,0.00050955,5092,0.00051961,5584.6,-6.6886e-05,1177.9,-0.00022229,10.217,0.034555
2226,14.7,3.5613,0.1,0.00021684,2166.9,0.00021605,2144.5,-6.9149e-05,1.6093,-7.544e-05,-45.658,1.0132
2227,14.367,3.8421,0.1,0.00022382,2236.6,0.0002231,2216.3,-7.1749e-05,0.85633,-7.7315e-05,-40.964,0.97349
2228,14.025,3.5264,0.1,0.00023102,2308.6,0.00023043,2291.5,-7.4897e-05,-2.6292,-7.8728e-05,-31.414,0.93389
2229,15.006,3.8742,0.1,0.00020948,2093.4,0.00020858,2067.8,-6.6331e-05,2.2705,-7.3596e-05,-52.313,1.0495
2230,14.274,2.3978,0.1,0.00022672,2265.6,0.00022601,2245.3,-7.2932e-05,-0.86992,-7.8057e-05,-39.377,0.96285
2231,14.62,2.1025,0.1,0.0002182,2180.5,0.00021722,2152.1,-7.0219e-05,-7.5317,-7.5684e-05,-48.596,1.0033
2232,14.89,2.4075,0.1,0.00021388,2137.3,0.00021271,2104.7,-6.6927e-05,3.6091,-7.6335e-05,-67.074,1.0358
2233,13.633,2.4123,0.1,0.00024143,2412.7,0.00024093,2398.1,-7.8197e-05,0.31052,-8.2122e-05,-29.183,0.88871
2234,13.966,2.1228,0.1,0.00023324,2330.7,0.0002327,2315.4,-7.526e-05,1.508,-7.9694e-05,-31.803,0.92665
2235,12.983,2.4372,0.1,0.00025727,2570.9,0.00025694,2561.4,-8.3718e-05,1.797,-8.6723e-05,-20.78,0.8155
2236,13.312,2.1349,0.1,0.00024893,2487.6,0.00024848,2474.6,-8.0938e-05,-0.53409,-8.4224e-05,-25.218,0.85192
2237,12.327,2.4834,0.1,0.00027419,2740,0.00027402,2735.2,-8.9837e-05,1.3082,-9.1447e-05,-10.788,0.74389
2238,12.657,2.1716,0.1,0.00026561,2654.3,0.00026537,2647.3,-8.6681e-05,2.0826,-8.9097e-05,-16.067,0.77928
2239,11.666,2.5194,0.1,0.00029127,2910.7,0.00029125,2910,-9.598e-05,0.54383,-9.6304e-05,-1.8893,0.67409
2240,11.999,2.2027,0.1,0.00028265,2824.6,0.00028252,2820.7,-9.2907e-05,-0.082329,-9.3902e-05,-7.5579,0.70861
2241,11,2.5339,0.1,0.00030879,3085.7,0.00030893,3090,-0.00010128,7.7986,-0.00010223,0.68646,0.60633
2242,11.333,2.2171,0.1,0.00030003,2998.2,0.00030007,2999.3,-9.8947e-05,1.3081,-9.8997e-05,0.92753,0.63954
2243,10.337,2.5275,0.1,0.00032642,3262,0.00032674,3271.4,-0.00010612,19.094,-0.00010867,-0.081969,0.5416
2244,10.667,2.2171,0.1,0.00031779,3175.7,0.00031797,3181.2,-0.00010394,11.062,-0.00010543,-0.11619,0.57302
2245,9.6727,2.5085,0.1,0.0003442,3439.6,0.00034475,3456.1,-0.00011079,33.36,-0.00011525,-0.1776,0.47955
2246,10.006,2.2067,0.1,0.00033551,3352.7,0.0003359,3364.3,-0.00010876,23.327,-0.00011187,-0.019729,0.50984
2247,8.998,2.4871,0.1,0.00036226,3620.1,0.00036311,3645.7,-0.00011517,52.021,-0.00012214,-0.36803,0.41966
2248,9.336,2.1913,0.1,0.00035353,3532.9,0.00035416,3551.8,-0.00011346,38.202,-0.00011856,-0.075799,0.44881
2249,8.3217,2.4793,0.1,0.00038026,3800,0.00038149,3837.4,-0.00011904,76.537,-0.00012931,-0.59393,0.36297
2250,8.6624,2.1856,0.1,0.00037164,3713.8,0.00037259,3742.3,-0.00011775,58.129,-0.00012555,-0.47406,0.39064
2251,7.6509,2.4806,0.1,0.00039786,3975.9,0.0003996,4029,-0.00012211,109.13,-0.00013671,-0.53694,0.31019
2252,7.9918,2.1807,0.1,0.00038961,3893.4,0.00039095,3934.1,-0.00012151,83.675,-0.00013277,-0.88196,0.33609
2253,6.9853,2.4796,0.1,0.00041513,4148.5,0.00041743,4220.3,-0.0001241,151.4,-0.00014471,-3.4793,0.26138
2254,7.3239,2.18,0.1,0.00040716,4068.8,0.00040904,4126.5,-0.00012444,118.19,-0.00014019,-0.17673,0.28527
2255,6.3294,2.4668,0.1,0.00043142,4311.2,0.00043455,4410.5,-0.00012503,206,-0.00015245,-0.014699,0.21688
2256,6.6608,2.1769,0.1,0.00042454,4242.5,0.00042699,4319.1,-0.00012627,162.16,-0.00014838,-3.9662,0.23842
2257,5.6731,2.4393,0.1,0.00044725,4469.4,0.00045134,4601.9,-0.00012427,276.97,-0.00016104,0.74167,0.17608
2258,6.0043,2.1615,0.1,0.00044058,4402.7,0.00044396,4509.9,-0.00012702,219.76,-0.00015593,2.5701,0.19569
2259,5.0091,2.417,0.1,0.00046208,4617.6,0.0004672,4791.1,-0.00012047,375.53,-0.00017111,-4.9415,0.13876
2260,5.3388,2.149,0.1,0.00045704,4567.2,0.0004613,4707.3,-0.00012543,298.76,-0.00016567,-3.6155,0.1563
2261,4.3382,2.4234,0.1,0.00047722,4769,0.00048358,4995.7,-0.00011442,502.53,-0.00018237,-8.0088,0.10528
2262,4.6689,2.1348,0.1,0.00047219,4718.7,0.00047759,4903.8,-0.00012102,406.07,-0.00017619,-8.4144,0.12077
2263,3.6239,2.4703,0.1,0.00048911,4887.7,0.00049701,5195.5,-0.00010101,702.24,-0.00019563,-8.6952,0.074467
2264,3.9878,2.1496,0.1,0.00048728,4869.5,0.00049409,5112.5,-0.00011542,532.92,-0.00018668,-2.5266,0.089098
2265,3.2724,2.1919,0.1,0.00049767,4973.2,0.00050602,5304.6,-9.9127e-05,757.75,-0.00020085,-6.5878,0.060785
2266,3.4263,2.8037,0.1,0.00049255,4922.1,0.00050116,5269.1,-9.4618e-05,792.62,-0.00020037,-1.9922,0.067044
2267,3.1372,2.7972,0.1,0.00049544,4951,0.00050439,5322.3,-9.0106e-05,855.56,-0.00020412,-1.1228,0.056537
2268,2.9011,2.5136,0.1,0.00050113,5007.8,0.00051038,5425.9,-7.9596e-05,993.09,-0.0002126,-6.2295,0.048427
2269,19.949,2.501,0.1,9.7879e-05,978.12,9.9476e-05,1038.7,-2.0789e-05,135.04,-3.8751e-05,0.076593,1.6978
2270,20.248,2.1747,0.1,8.2094e-05,820.37,8.3362e-05,869.45,-1.7349e-05,112.75,-3.2677e-05,-2.4233,1.74
2271,20.586,2.5266,0.1,7.4553e-05,745.01,7.5867e-05,793.89,-1.5784e-05,105.26,-2.9387e-05,3.0542,1.788
2272,20.287,2.7326,0.1,8.5168e-05,851.09,8.6578e-05,905.78,-1.7527e-05,123.57,-3.4048e-05,-0.55565,1.7456
2273,20.654,3.5005,0.1,7.2238e-05,721.88,7.3548e-05,770.63,-1.513e-05,104.35,-2.8522e-05,3.7238,1.7977
2274,20.433,3.9292,0.1,7.7644e-05,775.9,7.879e-05,817.92,-1.7637e-05,93.414,-3.0172e-05,-0.76954,1.7661
2275,20.1,3.7473,0.1,8.8132e-05,880.71,8.9611e-05,936.61,-1.8614e-05,123.45,-3.4892e-05,1.1375,1.7191
2276,21.224,3.3262,0.1,5.7472e-05,574.33,5.8349e-05,605.15,-1.354e-05,65.007,-2.1945e-05,1.8549,1.879
2277,20.975,3.6943,0.1,6.2255e-05,622.12,6.3283e-05,657.49,-1.4744e-05,71.233,-2.3581e-05,4.8367,1.8434
2278,20.904,2.9528,0.1,6.4556e-05,645.11,6.5732e-05,687.25,-1.4162e-05,86.966,-2.5054e-05,5.1272,1.8332
2279,20.605,3.1588,0.1,7.5158e-05,751.06,7.6437e-05,799.1,-1.5911e-05,105.23,-2.9703e-05,1.6073,1.7907
2280,19.341,3.4998,0.1,0.00013115,1310.5,0.0001329,1370.5,-3.2835e-05,125.19,-4.907e-05,3.2116,1.6125
2281,19.068,3.464,0.1,0.00016087,1607.6,0.00016279,1668.4,-4.4211e-05,113.14,-5.7509e-05,13.227,1.5745
2282,19.27,3.7306,0.1,0.00012868,1285.9,0.00013026,1344.3,-3.0455e-05,136.72,-4.9683e-05,-7.7539,1.6025
2283,19.63,3.7062,0.1,0.00010707,1070,0.00010868,1129.3,-2.4091e-05,131.66,-4.1716e-05,-0.76199,1.6529
2284,19.547,3.3967,0.1,0.00011487,1148,0.00011671,1214.2,-2.5917e-05,142.61,-4.4531e-05,2.751,1.6412
2285,16.614,1.586,0.1,0.00017865,1785.3,0.00017486,1688.8,-4.9007e-05,6.7727,-7.4434e-05,-184.27,1.2473
2286,16.869,1.7524,0.1,0.00018543,1853,0.00017948,1705.2,-4.7872e-05,-3.0426,-8.2704e-05,-264.76,1.2801
2287,16.415,1.8323,0.1,0.00018421,1840.9,0.00018164,1771.3,-5.4766e-05,-5.0008,-7.1136e-05,-128,1.2227
2288,21.522,2.9877,0.1,5.1487e-05,514.52,5.1988e-05,531.45,-1.3705e-05,37.86,-1.8972e-05,-1.7144,1.9216
2289,21.809,2.6504,0.1,4.5749e-05,457.18,4.603e-05,466.03,-1.3491e-05,18.81,-1.606e-05,-0.49314,1.9628
2290,21.488,2.3014,0.1,5.1898e-05,518.62,5.2369e-05,534.12,-1.4265e-05,33.449,-1.8819e-05,-0.76841,1.9167
2291,21.201,2.6143,0.1,5.8558e-05,585.18,5.9384e-05,613.65,-1.4341e-05,59.708,-2.2079e-05,1.5713,1.8756
2292,21.581,3.6804,0.1,5.0229e-05,501.94,5.0607e-05,514.42,-1.407e-05,28.461,-1.8139e-05,-2.1142,1.93
2293,21.847,3.3381,0.1,4.5048e-05,450.17,4.5297e-05,458.01,-1.3387e-05,17.073,-1.5776e-05,-0.87103,1.9681
2294,18.578,3.072,0.1,0.00024801,2478.4,0.00024585,2418.7,-7.6198e-05,-1.0683,-9.1287e-05,-114.44,1.507
2295,18.479,2.8234,0.1,0.00026653,2663.5,0.00026435,2604.2,-8.0966e-05,9.6188,-9.8643e-05,-123.2,1.4935
2296,18.787,2.7476,0.1,0.00020654,2064,0.00020634,2058.3,-6.7427e-05,1.307,-6.9268e-05,-12.526,1.5356
2297,18.37,2.9835,0.1,0.00027228,2720.9,0.00026789,2603.3,-7.9845e-05,-9.5109,-0.00010709,-214.2,1.4787
2298,19.603,2.1976,0.1,0.00010406,1039.9,0.00010568,1101.1,-2.2545e-05,137.61,-4.104e-05,-1.3509,1.6491
2299,19.321,2.5572,0.1,0.00013676,1366.6,0.00013842,1421.4,-3.5969e-05,111.14,-5.0147e-05,4.6131,1.6097
2300,16.404,5.066,0.1,0.0001596,1594.9,0.00015688,1522.3,-4.6415e-05,-5.1612,-6.335e-05,-132.4,1.2192
2301,16.06,4.74,0.1,0.00017877,1786.5,0.0001764,1722,-5.3473e-05,-5.128,-6.8537e-05,-118.32,1.1769
2302,16.601,4.5713,0.1,0.00017391,1737.9,0.00016864,1604.7,-4.6114e-05,-8.9515,-7.6244e-05,-235.33,1.2454
2303,16.706,4.8923,0.1,0.00015396,1538.5,0.00015,1436.2,-4.2358e-05,-9.0889,-6.5249e-05,-181.08,1.2577
2304,15.316,4.1647,0.1,0.00020313,2029.9,0.00020195,1997.1,-6.3472e-05,2.8037,-7.2702e-05,-66.545,1.0866
2305,15.675,4.4565,0.1,0.00019298,1928.5,0.00019149,1887.3,-5.9455e-05,1.7552,-7.0538e-05,-81.516,1.13
2306,16.887,3.8997,0.1,0.00020117,2010.3,0.00019619,1883,-5.4757e-05,-2.5198,-8.5358e-05,-232.45,1.2829
2307,16.732,4.1793,0.1,0.00018597,1858.5,0.00018056,1722.2,-4.916e-05,-3.8484,-8.1276e-05,-245.16,1.2627
2308,17.131,3.5767,0.1,0.000213,2128.6,0.00020857,2012.8,-5.9935e-05,-4.5732,-8.7507e-05,-211.74,1.3147
2309,17.345,3.4003,0.1,0.00024754,2473.7,0.00024262,2346.2,-6.9422e-05,1.6551,-0.00010145,-238.96,1.3425
2310,1.8626,2.919,0.1,0.00053327,5329.1,0.00054005,5835.3,-4.9136e-05,1408.4,-0.00024717,-79.553,0.020465
2311,1.9565,3.6564,0.1,0.00052547,5251.1,0.00053303,5740.3,-5.5784e-05,1316.2,-0.00023929,-62.628,0.022336
2312,1.5543,3.2982,0.1,0.00054317,5427.9,0.00055563,6131.9,-3.889e-05,1664.9,-0.00024837,90.944,0.014294
2313,2.9549,1.8892,0.1,0.00050919,5088.4,0.00051832,5449.1,-9.9175e-05,809.54,-0.00020595,7.2606,0.049344
2314,2.2814,1.9128,0.1,0.00052347,5231,0.00053299,5678.6,-7.9014e-05,1080.2,-0.00022445,-12.512,0.029735
2315,2.5836,2.2109,0.1,0.0005126,5122.4,0.00052256,5569.6,-7.9533e-05,1045.7,-0.00021769,7.6501,0.038376
2316,2.6317,1.5816,0.1,0.00052282,5224.6,0.00053205,5581.3,-0.00010542,791.62,-0.00020946,9.9363,0.038713
2317,1.9166,2.2505,0.1,0.00053192,5315.6,0.00053956,5809.5,-5.6679e-05,1329.6,-0.00024217,-64.09,0.021388
2318,2.2187,2.5486,0.1,0.00052132,5209.7,0.00052954,5703.6,-5.7604e-05,1292,-0.00023541,-43.946,0.028728
2319,1.574,2.6026,0.1,0.00054146,5410.8,0.00055384,6126.1,-3.5583e-05,1697.4,-0.00024884,95.006,0.014631
2320,18.938,3.3025,0.1,0.00017699,1768.7,0.00017897,1829.7,-5.0622e-05,104.63,-6.184e-05,20.339,1.5565
2321,18.781,3.1537,0.1,0.00021156,2114.2,0.00021144,2111.1,-6.7021e-05,18.915,-7.2771e-05,-24.287,1.5349
2322,18.99,2.8293,0.1,0.00016882,1687.1,0.00017056,1740.4,-4.8793e-05,92.34,-5.8828e-05,16.945,1.5637
2323,17.949,2.7507,0.1,0.00030216,3019.5,0.00029456,2823.4,-8.3112e-05,-14.295,-0.00012778,-349.92,1.422
2324,17.78,2.6047,0.1,0.00030704,3068.3,0.0002983,2846.1,-8.2338e-05,-13.917,-0.00013304,-394.89,1.3995
2325,17.81,2.8422,0.1,0.00029644,2962.3,0.00028825,2751.7,-8.0802e-05,-21.261,-0.00012712,-369.26,1.4037
2326,2.473,4.12,0.1,0.00051855,5181.9,0.00052747,5595,-8.3129e-05,1007.2,-0.00022058,-25.527,0.034775
2327,2.2804,3.8181,0.1,0.00052455,5241.8,0.00053355,5716.5,-6.8308e-05,1194.3,-0.00023109,-28.778,0.030018
2328,1.7069,4.0327,0.1,0.0005312,5308.4,0.00054385,5964.2,-4.8027e-05,1517.1,-0.00023831,87.346,0.016795
2329,2.086,4.3771,0.1,0.00052776,5273.9,0.0005362,5680.5,-8.3795e-05,1022.2,-0.0002259,-45.537,0.024495
2330,3.2388,4.1955,0.1,0.00050847,5081.2,0.00051651,5384.6,-0.00010965,679.89,-0.00020066,-3.961,0.058832
2331,2.9282,3.9222,0.1,0.00050936,5090.1,0.00051779,5451,-9.2842e-05,863,-0.00021095,-24.412,0.048782
2332,2.8553,4.4665,0.1,0.00052297,5226.1,0.00053125,5531.1,-0.00011586,668.95,-0.00020429,4.5674,0.045333
2333,3.9614,4.1864,0.1,0.00049007,4897.4,0.00049659,5127.4,-0.00011869,504.43,-0.00018644,-4.6089,0.087197
2334,3.6063,3.9199,0.1,0.00049309,4927.5,0.00050111,5219.2,-0.00010992,628.18,-0.0001918,12.997,0.07319
2335,3.5957,4.4832,0.1,0.00050496,5046.2,0.00051125,5270.7,-0.0001227,507.5,-0.00019255,-17.362,0.071358
2336,4.6766,4.1504,0.1,0.00047397,4736.4,0.00047923,4912,-0.00012522,370.38,-0.0001742,2.3801,0.12046
2337,4.2982,3.8821,0.1,0.00048058,4802.5,0.00048666,5014.9,-0.00011885,465.38,-0.00018155,-5.7885,0.10291
2338,4.3187,4.4631,0.1,0.00048718,4868.4,0.00049235,5041.4,-0.00012927,370.77,-0.00017905,-3.2169,0.10229
2339,5.3906,4.1392,0.1,0.00045707,4567.5,0.00046117,4699.2,-0.0001285,268.64,-0.00016345,6.0632,0.1585
2340,5.0216,3.8264,0.1,0.00046156,4612.4,0.00046655,4779.5,-0.00012203,357.16,-0.00016982,-1.87,0.139
2341,5.0322,4.438,0.1,0.00046902,4687,0.00047311,4818.2,-0.00013207,271.13,-0.00016778,2.8045,0.13788
2342,6.1152,4.1687,0.1,0.00043983,4395.3,0.00044274,4487.2,-0.00012874,193.31,-0.00015486,-2.9701,0.20179
2343,5.7774,3.8744,0.1,0.00044769,4473.8,0.00045115,4584.9,-0.00012758,236.59,-0.00015968,-4.5684,0.18173
2344,5.7477,4.4527,0.1,0.00045141,4511,0.00045435,4603.6,-0.00013277,192.17,-0.00015844,-0.73232,0.17826
2345,6.8447,4.1903,0.1,0.00042106,4207.6,0.00042319,4273.9,-0.00012696,140.32,-0.00014618,-4.1018,0.25009
2346,6.5086,3.9082,0.1,0.00042848,4281.9,0.00043114,4365.3,-0.00012669,173.95,-0.00015006,-1.6525,0.22798
2347,6.4764,4.4688,0.1,0.00043281,4325.1,0.00043495,4391.7,-0.00013059,142.53,-0.00015028,-5.4246,0.22416
2348,7.5639,4.1929,0.1,0.00040178,4015.1,0.00040335,4062.8,-0.00012447,96.99,-0.00013735,0.20137,0.30217
2349,7.2217,3.9133,0.1,0.00041017,4098.9,0.00041209,4158,-0.00012501,122.44,-0.00014149,-1.3474,0.27759
2350,7.1987,4.4727,0.1,0.00041286,4125.8,0.00041448,4175,-0.00012791,99.709,-0.00014111,0.58906,0.27426
2351,8.2746,4.1943,0.1,0.00038275,3824.9,0.00038384,3857.6,-0.00012074,66.347,-0.00012959,-0.12386,0.35775
2352,7.9293,3.9102,0.1,0.00039142,3911.5,0.00039281,3953.7,-0.00012199,85.734,-0.00013338,0.17604,0.33098
2353,7.9155,4.4722,0.1,0.00039342,3931.5,0.00039453,3964.9,-0.00012408,68.338,-0.00013324,-0.56177,0.32827
2354,8.9806,4.2005,0.1,0.00036365,3633.9,0.00036437,3655.6,-0.00011631,43.975,-0.0001222,-0.28626,0.41678
2355,8.6325,3.9069,0.1,0.00037263,3723.7,0.00037359,3752.5,-0.00011804,58.643,-0.00012589,-0.32284,0.38793
2356,8.6278,4.4812,0.1,0.00037393,3736.7,0.00037468,3759.3,-0.00011956,45.713,-0.00012567,-0.2124,0.38592
2357,9.6881,4.2114,0.1,0.00034446,3442.2,0.0003449,3455.3,-0.00011143,26.556,-0.00011502,-0.36284,0.47957
2358,9.3282,3.9179,0.1,0.00035385,3536.1,0.00035448,3554.7,-0.00011359,37.859,-0.00011866,-0.21961,0.44788
2359,9.3373,4.4867,0.1,0.00035448,3542.4,0.00035495,3556.4,-0.00011457,28.536,-0.00011842,-0.33905,0.44713
2360,10.402,4.2182,0.1,0.00032521,3249.9,0.00032542,3256,-0.00010626,12.577,-0.00010796,-0.21845,0.5464
2361,10.03,3.941,0.1,0.00033492,3346.9,0.00033528,3357.5,-0.0001087,21.652,-0.00011162,-0.35218,0.51185
2362,10.052,4.4955,0.1,0.00033497,3347.4,0.00033522,3354.8,-0.00010927,15.072,-0.0001113,-0.23387,0.51244
2363,11.125,4.213,0.1,0.00030582,3056.1,0.00030585,3056.9,-0.00010069,2.3643,-0.00010109,-0.60135,0.61753
2364,10.739,3.9472,0.1,0.00031594,3157.2,0.00031609,3161.7,-0.00010352,8.8898,-0.0001047,0.056342,0.57974
2365,10.774,4.4934,0.1,0.00031543,3152.1,0.0003155,3154.1,-0.00010371,4.3257,-0.00010433,-0.33483,0.58183
2366,11.85,4.199,0.1,0.00028674,2865.4,0.00028661,2861.5,-9.4352e-05,-0.9065,-9.5168e-05,-7.0425,0.69212
2367,11.459,3.9336,0.1,0.00029684,2966.4,0.0002968,2965.1,-9.7722e-05,0.84997,-9.8278e-05,-3.322,0.65207
2368,11.499,4.4797,0.1,0.000296,2958,0.00029594,2956.2,-9.7376e-05,0.97798,-9.8106e-05,-4.5122,0.65488
2369,12.58,4.1543,0.1,0.0002677,2675.2,0.00026737,2665.5,-8.7536e-05,-1.1594,-8.9806e-05,-18.212,0.77028
2370,12.188,3.9209,0.1,0.00027771,2775.2,0.00027752,2769.6,-9.1155e-05,-0.51291,-9.2518e-05,-10.753,0.72842
2371,12.217,4.4681,0.1,0.00027718,2769.9,0.00027696,2763.5,-9.0982e-05,-1.1407,-9.2398e-05,-11.782,0.73037
2372,13.306,4.1142,0.1,0.00024893,2487.6,0.00024848,2474.7,-8.0223e-05,4.9051,-8.493e-05,-30.459,0.85079
2373,12.913,3.8541,0.1,0.00025949,2593.1,0.00025901,2579.1,-8.4214e-05,0.24631,-8.7992e-05,-28.138,0.80743
2374,12.947,4.4306,0.1,0.000258,2578.2,0.00025761,2566.8,-8.3956e-05,0.42602,-8.7092e-05,-23.134,0.80996
2375,14.004,4.1249,0.1,0.00023184,2316.8,0.00023127,2300.7,-7.4095e-05,6.2522,-7.9981e-05,-37.976,0.93067
2376,13.662,3.8092,0.1,0.00023901,2388.5,0.00023856,2375.6,-7.7215e-05,2.9788,-8.1386e-05,-28.362,0.89179
2377,13.661,4.4218,0.1,0.00023963,2394.6,0.00023914,2380.7,-7.706e-05,4.9405,-8.2008e-05,-32.239,0.89048
2378,14.673,4.155,0.1,0.00021649,2163.4,0.00021566,2139.8,-6.8945e-05,1.406,-7.5485e-05,-47.73,1.0092
2379,14.355,4.4407,0.1,0.00022303,2228.7,0.00022231,2208.2,-7.1442e-05,1.0609,-7.7113e-05,-41.542,0.971
2380,15.02,4.4636,0.1,0.00020717,2070.2,0.00020619,2042.8,-6.5377e-05,2.3091,-7.3139e-05,-56.011,1.0501
2381,15.676,1.6885,0.1,0.00019352,1933.9,0.00019158,1880.6,-5.8911e-05,-1.485,-7.2177e-05,-101.16,1.1305
2382,16.285,1.48,0.1,0.00018208,1819.5,0.00017864,1730.3,-5.1276e-05,2.7708,-7.4154e-05,-169.13,1.2057
2383,15.948,1.312,0.1,0.00018655,1864.2,0.00018401,1797.1,-5.4234e-05,7.0267,-7.2931e-05,-133.46,1.1632
2384,16.086,1.7263,0.1,0.00018799,1878.6,0.00018568,1814.7,-5.7277e-05,-10.821,-7.0874e-05,-112.99,1.1813
2385,15.006,1.8245,0.1,0.00020538,2052.4,0.00020443,2025,-6.6115e-05,-7.7501,-7.1262e-05,-46.421,1.0491
2386,15.276,2.1295,0.1,0.00020106,2009.3,0.00019993,1977.6,-6.2713e-05,4.2171,-7.2022e-05,-65.723,1.0822
2387,15.646,2.0135,0.1,0.00019895,1988.1,0.00019708,1937,-6.037e-05,2.6868,-7.4138e-05,-100.76,1.1273
2388,15.343,1.5202,0.1,0.0001954,1952.6,0.00019429,1921.8,-6.0827e-05,5.003,-7.0104e-05,-64.702,1.0893
2389,14.312,1.8274,0.1,0.00022474,2245.9,0.00022393,2222.5,-7.2531e-05,-5.0296,-7.7361e-05,-41.319,0.96649
2390,14.654,1.5307,0.1,0.00021622,2160.7,0.00021519,2131,-6.9494e-05,-8.0077,-7.5195e-05,-50.841,1.0064
2391,13.645,1.8454,0.1,0.00024075,2405.9,0.00024027,2392.1,-7.8002e-05,0.66498,-8.1817e-05,-28,0.88922
2392,13.985,1.5425,0.1,0.00023196,2318,0.00023145,2303.2,-7.4781e-05,2.3188,-7.9301e-05,-31.64,0.92774
2393,12.986,1.8692,0.1,0.0002573,2571.2,0.00025694,2560.7,-8.3903e-05,-0.25166,-8.6625e-05,-20.71,0.81501
2394,13.321,1.5591,0.1,0.00024868,2485.1,0.00024826,2472.8,-8.0903e-05,-0.37415,-8.405e-05,-24.021,0.8519
2395,12.329,1.8909,0.1,0.00027411,2739.2,0.0002739,2733,-8.9765e-05,0.59045,-9.1566e-05,-12.94,0.74325
2396,12.662,1.5741,0.1,0.00026541,2652.3,0.00026514,2644.5,-8.6731e-05,0.60929,-8.8971e-05,-16.219,0.7787
2397,11.667,1.9004,0.1,0.00029144,2912.4,0.00029137,2910.3,-9.5905e-05,0.4421,-9.6591e-05,-4.7105,0.67323
2398,12,1.5837,0.1,0.00028277,2825.7,0.00028261,2821.3,-9.2839e-05,0.26135,-9.4087e-05,-9.1117,0.70742
2399,11,1.9004,0.1,0.00030906,3088.5,0.00030914,3090.7,-0.00010164,4.3264,-0.00010219,0.17119,0.60533
2400,11.333,1.5837,0.1,0.00030035,3001.4,0.00030033,3000.8,-9.9012e-05,0.31154,-9.9261e-05,-1.5624,0.63817
2401,10.335,1.8963,0.1,0.0003269,3266.7,0.00032715,3274.2,-0.00010661,15.107,-0.00010863,-0.050572,0.54033
2402,10.667,1.5837,0.1,0.00031823,3180.1,0.00031835,3183.5,-0.00010444,6.8527,-0.00010535,0.014736,0.57158
2403,9.6689,1.8896,0.1,0.00034485,3446.2,0.00034532,3460.1,-0.00011146,28.022,-0.00011518,0.082075,0.47811
2404,10.002,1.5796,0.1,0.00033626,3360.3,0.00033655,3368.9,-0.00010953,17.169,-0.00011182,0.01007,0.50796
2405,9.0004,1.8897,0.1,0.00036292,3626.7,0.00036365,3648.5,-0.00011606,44.204,-0.00012196,-0.1823,0.41876
2406,9.3339,1.5769,0.1,0.00035442,3541.8,0.00035492,3556.5,-0.00011449,29.549,-0.00011842,-0.008126,0.44708
2407,8.3324,1.887,0.1,0.000381,3807.3,0.00038205,3839.1,-0.00012023,65.198,-0.00012901,-0.76585,0.3627
2408,8.6665,1.5798,0.1,0.00037271,3724.5,0.00037346,3746.9,-0.00011915,45.693,-0.00012529,-0.45523,0.3894
2409,7.6648,1.8801,0.1,0.00039891,3986.3,0.00040039,4031.6,-0.00012384,92.699,-0.00013625,-0.52758,0.31006
2410,7.9993,1.5741,0.1,0.00039097,3907,0.00039204,3939.3,-0.00012342,66.36,-0.00013237,-0.8846,0.33505
2411,6.9994,1.8773,0.1,0.00041656,4162.7,0.00041859,4225.3,-0.00012661,128.94,-0.00014386,-0.65553,0.26116
2412,7.3321,1.5729,0.1,0.00040909,4088.1,0.00041059,4133.8,-0.00012711,93.736,-0.00013967,-0.62011,0.28419
2413,6.3357,1.8716,0.1,0.00043368,4333.9,0.00043638,4418.4,-0.00012826,175.93,-0.00015186,-1.3754,0.21607
2414,6.6673,1.5714,0.1,0.00042704,4267.4,0.00042907,4330,-0.00012999,129.48,-0.0001474,-1.3761,0.23715
2415,5.67,1.8711,0.1,0.00045034,4500.3,0.00045392,4615.2,-0.00012816,241.65,-0.00016057,-1.8756,0.17471
2416,6.0018,1.5671,0.1,0.00044448,4441.8,0.00044719,4526.5,-0.00013173,176.71,-0.0001555,-1.8798,0.19385
2417,4.9986,1.8668,0.1,0.00046712,4667.9,0.00047168,4819.9,-0.00012596,329.49,-0.00017077,-7.2398,0.13707
2418,5.3348,1.5709,0.1,0.00046186,4615.4,0.00046547,4731.1,-0.00013189,242.73,-0.00016442,-1.7065,0.15446
2419,4.3185,1.861,0.1,0.0004822,4818.7,0.00048808,5020.5,-0.000122,436.62,-0.0001805,-2.9264,0.10328
2420,4.6638,1.5628,0.1,0.00047932,4789.9,0.00048384,4939.8,-0.00013025,325.75,-0.00017472,-8.4158,0.11896
2421,3.6363,1.8711,0.1,0.00049584,4955,0.0005032,5222.3,-0.00011363,587.7,-0.00019191,-0.45889,0.073956
2422,3.9848,1.5572,0.1,0.00049427,4939.3,0.00050014,5138.9,-0.00012693,427.31,-0.00018384,-0.23451,0.087478
2423,3.3082,1.5658,0.1,0.00050949,5091.4,0.00051663,5350.6,-0.00011859,577.78,-0.00019664,-8.6469,0.060735
2424,19.902,1.8713,0.1,8.8393e-05,883.32,8.9668e-05,932.6,-1.9135e-05,115.09,-3.5036e-05,-4.3758,1.691
2425,20.212,1.5652,0.1,7.7728e-05,776.75,7.841e-05,801.52,-1.9912e-05,62.764,-2.9375e-05,-8.3359,1.7347
2426,20.535,1.8997,0.1,7.2726e-05,726.76,7.3651e-05,760.93,-1.7038e-05,79.531,-2.8152e-05,-3.9718,1.7806
2427,20.754,4.1231,0.1,6.7676e-05,676.3,6.851e-05,704.67,-1.7238e-05,60.4,-2.5229e-05,0.35589,1.8117
2428,20.178,4.2144,0.1,8.0256e-05,802,8.1378e-05,840.03,-2.0059e-05,77.873,-2.9974e-05,3.3713,1.7299
2429,20.47,4.4756,0.1,7.2487e-05,724.37,7.309e-05,745.71,-1.9072e-05,53.246,-2.7066e-05,-6.8188,1.7712
2430,21.333,4.0485,0.1,5.5018e-05,549.8,5.5545e-05,566.79,-1.5281e-05,34.634,-1.9771e-05,0.89366,1.8943
2431,21.057,4.3973,0.1,6.0005e-05,599.63,6.0581e-05,618.02,-1.6833e-05,36.361,-2.1419e-05,1.9072,1.8547
2432,16.528,1.2089,0.1,0.00016671,1666,0.00016337,1578.9,-4.6975e-05,-1.549,-6.8211e-05,-161.1,1.2355
2433,16.815,1.3845,0.1,0.00016561,1654.9,0.00015991,1512.6,-4.2775e-05,-10.297,-7.4479e-05,-248.5,1.2724
2434,21.91,4.0279,0.1,4.3698e-05,436.68,4.3779e-05,439.11,-1.3983e-05,5.1072,-1.4689e-05,-0.19699,1.9771
2435,21.642,4.3776,0.1,4.8694e-05,486.6,4.8873e-05,492.11,-1.5014e-05,12.089,-1.6732e-05,-0.81606,1.9385
2436,22.108,2.3214,0.1,3.9798e-05,397.71,3.9741e-05,396.06,-1.2911e-05,0.44826,-1.3466e-05,-3.7194,2.0056
2437,22.134,3.0007,0.1,3.9366e-05,393.39,3.9338e-05,392.58,-1.2854e-05,0.42848,-1.3182e-05,-2.0409,2.0094
2438,22.424,2.662,0.1,3.4064e-05,340.41,3.3639e-05,328.89,-1.0182e-05,-0.36446,-1.3018e-05,-21.672,2.0512
2439,18.254,2.7579,0.1,0.00029262,2924.2,0.00028803,2806.8,-8.2286e-05,24.412,-0.00011762,-241.04,1.463
2440,18.063,2.6471,0.1,0.00031942,3192,0.00031139,2990,-8.5403e-05,8.6721,-0.0001368,-377.53,1.4372
2441,18.146,2.918,0.1,0.00029888,2986.8,0.00029184,2807.9,-8.1206e-05,4.97,-0.00012629,-333.76,1.4484
2442,19.605,1.5187,0.1,8.848e-05,884.19,8.952e-05,918.84,-2.319e-05,71.98,-3.2566e-05,1.5328,1.649
2443,19.289,1.9961,0.1,0.00012041,1203.3,0.00012112,1228.8,-3.2846e-05,71.959,-4.4564e-05,-16.084,1.605
2444,17.131,4.0957,0.1,0.0001984,1982.6,0.00019046,1784.7,-5.0299e-05,-24.198,-9.1652e-05,-334.91,1.3139
2445,17.324,3.8779,0.1,0.00022595,2257.9,0.00021956,2109.9,-5.4918e-05,47.585,-0.00010154,-302.68,1.3392
2446,1.6237,1.9431,0.1,0.0005383,5379.3,0.00055172,6047.2,-5.1456e-05,1515.2,-0.00023947,102.52,0.015202
2447,1.9651,1.6049,0.1,0.00053703,5366.5,0.00054521,5771.3,-8.482e-05,1037.6,-0.00023072,-58.7,0.021735
2448,17.094,1.9681,0.1,0.00019563,1955,0.00018892,1786.5,-5.0774e-05,-14.401,-8.7807e-05,-292.65,1.3093
2449,17.339,2.0774,0.1,0.00022805,2278.9,0.00022187,2141.7,-5.3633e-05,71.669,-0.00010315,-300.36,1.341
2450,17.265,2.2815,0.1,0.00023044,2302.8,0.00022445,2147.3,-6.3656e-05,-17.364,-9.7591e-05,-272.34,1.3318
2451,19.598,4.226,0.1,9.6333e-05,962.66,9.768e-05,1010.2,-2.3104e-05,102.64,-3.6697e-05,0.50519,1.6481
2452,19.856,4.5323,0.1,8.1564e-05,815.07,8.2625e-05,850.34,-2.1075e-05,71.183,-3.0074e-05,3.5675,1.6843
2453,19.845,4.0325,0.1,9.0845e-05,907.82,9.2319e-05,959.61,-2.1099e-05,107.43,-3.4751e-05,4.8573,1.683
2454,18.997,3.6948,0.1,0.00015887,1587.6,0.00016063,1645.9,-4.2263e-05,121.42,-5.8172e-05,1.8884,1.5645
2455,18.739,3.58,0.1,0.0002163,2161.5,0.00021756,2201.9,-6.324e-05,92.075,-7.654e-05,-7.8561,1.5289
2456,16.19,1.0409,0.1,0.00017099,1708.7,0.00016858,1644.5,-5.008e-05,1.6034,-6.6683e-05,-123.15,1.1927
2457,16.749,1.0072,0.1,0.00014902,1489.1,0.00014491,1385.1,-3.9888e-05,-3.4356,-6.4395e-05,-187.57,1.263
2458,16.55,0.75238,0.1,0.00014759,1474.9,0.00014483,1399.8,-4.3747e-05,-17.139,-5.836e-05,-126.94,1.2369
2459,22.415,1.9897,0.1,3.4211e-05,341.88,3.3748e-05,329.42,-1.0129e-05,-0.25461,-1.3219e-05,-23.476,2.0497
2460,22.094,1.6504,0.1,3.9941e-05,399.14,3.9806e-05,395.29,-1.2741e-05,0.47238,-1.3873e-05,-8.0279,2.0035
2461,21.787,1.9724,0.1,4.5905e-05,458.73,4.6084e-05,464.17,-1.4235e-05,10.963,-1.568e-05,0.10301,1.9595
2462,22.176,3.6857,0.1,3.8559e-05,385.32,3.8465e-05,382.67,-1.2324e-05,1.0608,-1.3299e-05,-6.2622,2.0153
2463,22.495,4.0189,0.1,3.2769e-05,327.47,3.2235e-05,313.35,-9.4651e-06,0.030656,-1.3014e-05,-26.635,2.0612
2464,22.224,4.3801,0.1,3.7538e-05,375.12,3.7324e-05,369.21,-1.1651e-05,1.2316,-1.35e-05,-12.664,2.0221
2465,18.412,3.284,0.1,0.00027022,2700.3,0.00026512,2567.1,-7.6712e-05,-1.3662,-0.00010956,-248.2,1.4843
2466,18.582,3.4311,0.1,0.00024738,2472,0.00024688,2459.7,-7.6164e-05,32.472,-8.779e-05,-54.88,1.5074
2467,18.315,2.6201,0.1,0.00030549,3052.8,0.00030173,2954.1,-8.903e-05,18.028,-0.0001185,-203.43,1.4711
2468,18.499,2.5744,0.1,0.00026056,2603.8,0.00025948,2575.8,-7.9054e-05,32.214,-9.4559e-05,-84.286,1.4961
2469,17.893,2.5011,0.1,0.00032346,3232.4,0.00031442,3007.3,-8.474e-05,8.2209,-0.00014124,-416.32,1.4144
2470,17.72,2.348,0.1,0.00030973,3095.2,0.00030133,2889,-8.0176e-05,22.459,-0.00013547,-392.98,1.3912
2471,17.602,2.4313,0.1,0.00028442,2842.3,0.00027645,2640.8,-7.582e-05,-6.0314,-0.00012334,-363.11,1.3758
2472,18.74,1.7012,0.1,0.00013923,1391.3,0.00013758,1346.9,-4.1419e-05,1.9491,-5.3217e-05,-86.693,1.5282
2473,18.942,1.9334,0.1,0.00013179,1317,0.00013112,1300.8,-3.86e-05,25.625,-4.9237e-05,-54.296,1.5565
2474,17.234,4.4725,0.1,0.00017546,1753.3,0.0001649,1498.9,-4.0361e-05,-43.365,-8.8906e-05,-408.11,1.3263
2475,17.474,4.6149,0.1,0.00016499,1648.7,0.00014676,1263,-2.4052e-05,-20.398,-0.00010072,-596.47,1.3568
2476,17.367,4.2987,0.1,0.00020775,2076,0.00019059,1699.7,-3.7083e-05,-10.989,-0.00011681,-610.03,1.3438
2477,16.976,4.3752,0.1,0.00018349,1833.7,0.00017497,1625,-4.4634e-05,-25.011,-8.7776e-05,-349.17,1.2934
2478,15.055,5.0671,0.1,0.00020279,2026.5,0.00020191,2001.4,-6.4185e-05,2.1462,-7.1297e-05,-51.292,1.0528
2479,14.701,4.7493,0.1,0.00021372,2135.7,0.00021285,2111.3,-6.7875e-05,1.9627,-7.4779e-05,-49.915,1.0113
2480,15.379,4.7554,0.1,0.00019697,1968.3,0.00019569,1932.6,-6.1359e-05,1.2706,-7.0939e-05,-70.709,1.093
2481,15.931,0.81549,0.1,0.00017465,1745.3,0.00017284,1695.1,-5.3543e-05,-5.8249,-6.4928e-05,-91.372,1.1598
2482,15.614,1.1437,0.1,0.00018833,1882,0.00018667,1838,-5.6182e-05,13.267,-7.0785e-05,-96.457,1.1216
2483,17.07,1.5509,0.1,0.00017422,1741,0.00016589,1539.2,-4.1625e-05,-19.996,-8.4126e-05,-339.33,1.3053
2484,17.309,1.7157,0.1,0.0002025,2023.6,0.00018766,1700.5,-3.688e-05,13.416,-0.00011094,-543.06,1.3364
2485,17.037,1.1828,0.1,0.00015079,1506.9,0.00014367,1335.4,-3.5685e-05,-12.157,-7.2884e-05,-291.65,1.3001
2486,17.287,1.351,0.1,0.00015709,1569.8,0.0001443,1287.9,-2.8459e-05,-10.139,-8.791e-05,-456.82,1.3326
2487,19.369,1.1223,0.1,8.1076e-05,810.2,8.121e-05,814.29,-2.5749e-05,10.649,-2.7472e-05,-2.302,1.6156
2488,19.587,0.87188,0.1,7.5338e-05,752.86,7.5073e-05,745.09,-2.4773e-05,-5.1125,-2.5478e-05,-10.409,1.646
2489,19.915,1.2126,0.1,7.741e-05,773.56,7.7737e-05,783.82,-2.3451e-05,23.535,-2.6898e-05,-2.3701,1.6925
2490,19.193,4.032,0.1,0.00012362,1235.3,0.00012501,1287.1,-2.9615e-05,125.34,-4.7696e-05,-10.511,1.5915
2491,18.851,3.9361,0.1,0.00016236,1622.5,0.00016522,1711.6,-4.3363e-05,144.38,-5.7386e-05,39.011,1.5441
2492,19.001,4.2477,0.1,0.00012593,1258.4,0.00012621,1268.6,-3.747e-05,38.772,-4.4822e-05,-16.465,1.5646
2493,19.553,4.0075,0.1,0.00010113,1010.6,0.00010259,1065.8,-2.238e-05,126.83,-3.9759e-05,-3.7473,1.6419
2494,17.038,0.86697,0.1,0.00013374,1336.5,0.00012723,1177.3,-3.2335e-05,-21.582,-6.4542e-05,-263.57,1.2992
2495,17.276,0.99857,0.1,0.00012309,1230,0.00011496,1047.8,-2.4421e-05,0.52314,-6.531e-05,-306.7,1.33
2496,19.874,5.1115,0.1,7.456e-05,745.08,7.4823e-05,753.02,-2.3374e-05,15.204,-2.5281e-05,0.87828,1.6863
2497,20.149,4.7935,0.1,7.3679e-05,736.28,7.4226e-05,755.2,-2.0005e-05,47.186,-2.714e-05,-6.4223,1.7254
2498,19.549,4.9695,0.1,7.93e-05,792.45,7.9231e-05,790.59,-2.5373e-05,4.6314,-2.7081e-05,-8.2038,1.6407
2499,18.07,3.328,0.1,0.00030234,3021.3,0.00029501,2834.5,-8.2202e-05,0.26198,-0.00012808,-344.42,1.4381
2500,17.896,3.4691,0.1,0.00032509,3248.6,0.00031408,2970,-8.549e-05,-32.23,-0.00014493,-478.83,1.4148
2501,17.872,3.1421,0.1,0.00030182,3016.1,0.00029428,2825.9,-8.107e-05,5.6016,-0.00012892,-353.94,1.4119
2502,18.204,3.1954,0.1,0.00029373,2935.2,0.0002863,2745.1,-8.0037e-05,-7.3935,-0.00012482,-343.84,1.4563
2503,18.209,3.5372,0.1,0.00033858,3383.4,0.00032598,3057.5,-9.1177e-05,-76.885,-0.00015141,-529.43,1.4566
2504,18.123,2.5093,0.1,0.00033056,3303.3,0.00032374,3127.1,-9.2174e-05,2.0904,-0.00013631,-329.53,1.4451
2505,18.257,2.4033,0.1,0.00034367,3434.4,0.00033521,3208.9,-9.8281e-05,-48.188,-0.00014228,-378.79,1.463
2506,17.988,2.3756,0.1,0.0003742,3739.5,0.00035864,3340.8,-9.8512e-05,-94.038,-0.00017153,-642.63,1.4268
2507,18.872,1.046,0.1,7.9054e-05,790,7.8138e-05,765.37,-2.3516e-05,1.5834,-3.0177e-05,-48.463,1.5459
2508,18.994,0.77618,0.1,6.907e-05,690.22,6.845e-05,672.67,-2.1701e-05,-4.694,-2.5033e-05,-29.729,1.5626
2509,17.538,3.7015,0.1,0.00025989,2597.1,0.00025319,2440.1,-6.4711e-05,51.516,-0.00011475,-324.42,1.3672
2510,17.708,3.5633,0.1,0.00030965,3094.4,0.00029823,2806.4,-8.0464e-05,-39.011,-0.00014022,-487.98,1.3898
2511,1.3987,5.013,0.1,0.00055281,5524.3,0.00056854,6070.6,-0.00010787,988.36,-0.00021399,191.04,0.010198
2512,1.0387,4.6813,0.1,0.00057194,5715.4,0.00056645,5961.1,-4.8455e-05,1341,-0.00028419,-430.26,0.005857
2513,1.3663,4.3506,0.1,0.00054273,5423.5,0.00056042,6193.5,-5.4001e-05,1577,-0.00023454,220.54,0.010543
2514,1.7454,4.695,0.1,0.00054051,5401.4,0.00055348,5915.3,-9.0476e-05,1076.8,-0.00022213,87.628,0.016694
2515,16.838,0.61217,0.1,0.0001294,1293.1,0.00012496,1175.6,-3.6168e-05,-35.097,-5.6342e-05,-186.67,1.2729
2516,17.225,0.65586,0.1,0.00010374,1036.7,9.8398e-05,907.54,-2.4444e-05,-15.443,-5.0887e-05,-214.13,1.3224
2517,18.595,2.2386,0.1,0.00022239,2222.4,0.00022397,2269.5,-6.8757e-05,70.025,-7.4773e-05,24.819,1.509
2518,18.441,2.3577,0.1,0.00030139,3011.8,0.00029543,2849.2,-8.9403e-05,-42.257,-0.00011971,-269.97,1.4879
2519,18.807,2.4987,0.1,0.00020298,2028.4,0.00020344,2044.8,-6.0582e-05,60.959,-7.2085e-05,-25.465,1.5383
2520,17.627,2.083,0.1,0.00028022,2800.3,0.00027263,2631.7,-6.5895e-05,88.175,-0.00012675,-369.06,1.3785
2521,17.553,2.2871,0.1,0.00028052,2803.2,0.00027346,2624.2,-7.57e-05,0.77824,-0.00011966,-329.52,1.3692
2522,17.814,2.2225,0.1,0.00035849,3582.4,0.00034394,3210.3,-9.432e-05,-82.593,-0.00016377,-604.38,1.4034
2523,18.593,1.8633,0.1,0.0001801,1799.8,0.0001805,1817.4,-5.0654e-05,80.535,-6.6618e-05,-39.407,1.5082
2524,18.795,2.0955,0.1,0.00017273,1726.2,0.00017429,1773.2,-5.1676e-05,75.351,-5.9039e-05,20.028,1.5364
2525,18.38,2.0299,0.1,0.00039132,3910.5,0.00039472,4019.7,-0.00011021,225.9,-0.00013999,2.1519,1.4792
2526,18.596,1.5026,0.1,0.00013303,1329.4,0.00012906,1240.7,-3.0935e-05,38.576,-6.0964e-05,-187.06,1.5081
2527,18.379,1.6667,0.1,0.00017959,1794.7,0.00016887,1581.7,-2.9828e-05,88.781,-9.6134e-05,-409.42,1.4783
2528,18.617,1.1811,0.1,9.5921e-05,958.54,9.1958e-05,866.07,-2.2179e-05,8.4907,-4.5764e-05,-168.72,1.5105
2529,18.384,1.3359,0.1,0.00010832,1082.4,0.00010383,981.2,-2.3957e-05,21.064,-5.2299e-05,-191.89,1.4783
2530,18.597,0.88067,0.1,7.1414e-05,713.64,6.7168e-05,619.3,-1.4295e-05,7.2134,-3.7156e-05,-164.55,1.5072
2531,18.4,1.0118,0.1,7.5639e-05,755.87,7.3251e-05,702.5,-1.7428e-05,21.174,-3.4964e-05,-110.59,1.48
2532,18.719,0.61088,0.1,5.6149e-05,561.1,5.3308e-05,495.24,-1.243e-05,1.3181,-2.789e-05,-114.85,1.5239
2533,18.363,0.70221,0.1,4.7624e-05,475.91,4.5503e-05,424.66,-1.1428e-05,-3.0944,-2.2726e-05,-87.986,1.4743
2534,17.56,4.0809,0.1,0.00023487,2347.1,0.00021951,2023.4,-4.1673e-05,61.009,-0.00012653,-576.61,1.3693
2535,17.768,3.9489,0.1,0.00042166,4213.7,0.00040791,3928,-8.9871e-05,187.83,-0.00019969,-637.28,1.3969
2536,17.607,4.4411,0.1,0.00020049,2003.5,0.00017387,1474.4,-2.0742e-05,12.212,-0.00013008,-809.3,1.3745
2537,17.792,4.2987,0.1,0.00025961,2594.3,0.00021948,1843.7,-1.5907e-05,75.086,-0.00017689,-1134.5,1.399
2538,17.615,4.7844,0.1,0.000148,1478.9,0.00012707,1069.5,-1.3428e-05,13.891,-9.7902e-05,-620.82,1.3743
2539,17.815,4.6424,0.1,0.00016079,1606.8,0.00013532,1124.3,-1.0373e-05,29.619,-0.0001102,-720.41,1.4007
2540,17.558,5.1052,0.1,0.00010493,1048.6,9.5625e-05,858.05,-1.5461e-05,23.392,-6.1027e-05,-318.97,1.3657
2541,17.8,4.9754,0.1,0.00010312,1030.5,9.118e-05,795.07,-1.1539e-05,23.279,-6.4561e-05,-375.11,1.3974
2542,17.514,5.4233,0.1,7.918e-05,791.25,7.6255e-05,725,-1.7994e-05,16.853,-3.7412e-05,-129.05,1.3589
2543,17.263,5.1594,0.1,0.0001135,1134.2,0.00010889,1025.4,-2.6739e-05,6.2802,-5.3744e-05,-196.62,1.3278
2544,17.758,5.2965,0.1,7.2373e-05,723.23,6.9296e-05,659.44,-1.4354e-05,30.933,-3.5912e-05,-131.05,1.3907
2545,1.7671,5.3467,0.1,0.00056479,5644,0.00057308,5910.7,-0.00014836,490.15,-0.00020466,67.121,0.01551
2546,1.0522,5.3421,0.1,0.00055581,5554.3,0.00055425,5630.7,-0.00011251,620.87,-0.00024069,-342.21,0.005246
2547,1.4225,5.6703,0.1,0.0005877,5872.9,0.0005966,6142.7,-0.00016747,401.79,-0.00020149,146.2,0.008894
2548,2.4915,5.3598,0.1,0.00055587,5554.9,0.00056048,5705.2,-0.00015525,327.54,-0.00020036,-11.393,0.0317
2549,2.1138,5.0287,0.1,0.00055138,5510,0.00055803,5755.4,-0.00013106,577.87,-0.00021271,-35.614,0.023642
2550,2.1419,5.6764,0.1,0.00057923,5788.3,0.00058301,5908,-0.00016959,253.27,-0.00020397,-5.1073,0.021736
2551,3.2253,5.3667,0.1,0.0005373,5369.3,0.00054133,5496.6,-0.0001557,259.36,-0.00018965,4.2437,0.054042
2552,2.8459,5.0548,0.1,0.00053669,5363.2,0.00054292,5570.2,-0.00014139,428.58,-0.00019709,10.023,0.043126
2553,2.8658,5.6834,0.1,0.00055785,5574.6,0.00056169,5692.7,-0.00016659,220.79,-0.00019319,20.877,0.04063
2554,3.9541,5.3665,0.1,0.00051579,5154.4,0.000519,5253.7,-0.00015391,197.81,-0.0001794,6.2778,0.082016
2555,3.5915,5.0661,0.1,0.00051988,5195.2,0.00052436,5343.3,-0.00014325,327.13,-0.00018866,-14.105,0.068929
2556,3.5947,5.6833,0.1,0.00053527,5349,0.00053816,5437.4,-0.00016318,167.74,-0.00018386,12.329,0.0656
2557,4.673,5.3712,0.1,0.00049315,4928.1,0.00049564,5004.1,-0.0001506,148.51,-0.0001695,6.5069,0.11496
2558,4.3157,5.0602,0.1,0.00049793,4975.9,0.00050173,5095.8,-0.00014399,244.1,-0.00017591,4.2526,0.099627
2559,4.3136,5.6833,0.1,0.00051052,5101.7,0.00051285,5172,-0.00015831,129.2,-0.00017371,13.458,0.095815
2560,5.3917,5.376,0.1,0.00047136,4710.4,0.00047317,4765.1,-0.00014665,107.99,-0.00016061,3.126,0.15302
2561,5.0317,5.0617,0.1,0.00047744,4771.1,0.00048018,4856.2,-0.00014277,175.67,-0.00016623,-0.59629,0.13511
2562,5.0325,5.688,0.1,0.0004868,4864.6,0.00048849,4915.5,-0.0001531,94.822,-0.00016464,8.1254,0.13129
2563,6.1107,5.3713,0.1,0.00044999,4496.8,0.00045132,4536.6,-0.00014212,77.748,-0.00015211,2.6979,0.19605
2564,5.7494,5.0657,0.1,0.00045728,4569.6,0.0004593,4631.6,-0.00014022,127.02,-0.00015719,-0.46797,0.1756
2565,5.7513,5.688,0.1,0.00046398,4636.6,0.00046523,4673.8,-0.00014769,68.635,-0.00015596,6.4521,0.17184
2566,6.8298,5.3711,0.1,0.00042881,4285.1,0.00042975,4313.1,-0.00013703,54.565,-0.00014405,1.8243,0.24371
2567,6.4702,5.0583,0.1,0.00043709,4367.9,0.00043858,4413.2,-0.00013652,92.071,-0.00014877,0.025496,0.22109
2568,6.4704,5.6833,0.1,0.00044187,4415.6,0.00044275,4442,-0.00014198,48.554,-0.00014783,4.5773,0.21726
2569,7.5481,5.3767,0.1,0.00040779,4075.1,0.00040843,4094.2,-0.00013154,37.023,-0.00013629,1.3094,0.29572
2570,7.19,5.064,0.1,0.00041633,4160.4,0.0004174,4192.8,-0.00013205,64.39,-0.00014047,1.1138,0.271
2571,7.1892,5.6878,0.1,0.00042008,4197.9,0.00042068,4215.7,-0.00013607,32.54,-0.00013997,3.2425,0.26717
2572,8.2663,5.3799,0.1,0.00038703,3867.6,0.00038744,3879.9,-0.00012579,23.739,-0.00012881,1.0371,0.35196
2573,7.9084,5.0646,0.1,0.00039595,3956.8,0.00039668,3978.5,-0.00012701,43.712,-0.00013282,0.048868,0.32515
2574,7.9077,5.6889,0.1,0.00039869,3984.1,0.00039908,3995.6,-0.00012995,20.729,-0.0001324,2.3065,0.32142
2575,8.9856,5.3788,0.1,0.00036646,3662.1,0.0003667,3669.2,-0.00011984,13.484,-0.00012154,0.7414,0.41231
2576,8.6265,5.0743,0.1,0.00037566,3754,0.00037613,3768,-0.00012166,27.773,-0.00012531,0.35149,0.38331
2577,8.6264,5.691,0.1,0.00037766,3774,0.00037788,3780.4,-0.00012376,11.291,-0.00012505,1.6133,0.3798
2578,9.7055,5.3757,0.1,0.00034613,3458.9,0.00034624,3462,-0.00011377,5.7098,-0.00011447,0.48576,0.47651
2579,9.3436,5.0719,0.1,0.00035556,3553.1,0.00035583,3561.2,-0.000116,16.034,-0.00011812,0.13378,0.44533
2580,9.3459,5.6878,0.1,0.00035694,3566.9,0.00035703,3569.7,-0.00011744,4.7148,-0.00011794,0.98818,0.44218
2581,10.425,5.3751,0.1,0.00032608,3258.6,0.00032609,3258.7,-0.00010755,0.51304,-0.00010767,-0.38319,0.54426
2582,10.063,5.0747,0.1,0.00033555,3353.2,0.00033567,3356.7,-0.00011017,6.7921,-0.00011106,0.14093,0.51123
2583,10.065,5.6879,0.1,0.00033655,3363.2,0.00033655,3363.1,-0.00011093,0.89923,-0.0001112,-1.0944,0.50821
2584,11.145,5.3759,0.1,0.00030629,3060.8,0.00030621,3058.3,-0.00010079,0.28524,-0.00010153,-5.2349,0.6154
2585,10.786,5.0711,0.1,0.00031571,3154.9,0.0003157,3154.8,-0.00010412,0.41765,-0.00010426,-0.67841,0.58094
2586,10.785,5.6872,0.1,0.00031646,3162.5,0.00031639,3160.2,-0.00010412,0.66028,-0.0001049,-5.2372,0.57773
2587,11.864,5.3719,0.1,0.00028676,2865.7,0.00028659,2860.7,-9.4119e-05,0.1628,-9.5482e-05,-10.075,0.68956
2588,11.507,5.0648,0.1,0.00029619,2959.8,0.00029609,2956.9,-9.7399e-05,0.37957,-9.8287e-05,-6.2938,0.65367
2589,11.504,5.6887,0.1,0.00029667,2964.6,0.00029652,2960.2,-9.7451e-05,0.10464,-9.8647e-05,-8.8821,0.65051
2590,12.581,5.3665,0.1,0.00026744,2672.6,0.00026719,2665.3,-8.7513e-05,0.14913,-8.9492e-05,-14.721,0.76661
2591,12.223,5.056,0.1,0.00027701,2768.2,0.00027679,2761.9,-9.0765e-05,0.23807,-9.2482e-05,-12.665,0.72906
2592,12.222,5.6833,0.1,0.00027709,2769,0.00027687,2762.4,-9.0819e-05,-0.22908,-9.2509e-05,-12.922,0.7262
2593,13.3,5.3665,0.1,0.00024834,2481.7,0.00024801,2472,-8.1007e-05,-0.072536,-8.3546e-05,-19.148,0.8465
2594,12.942,5.055,0.1,0.0002579,2577.2,0.00025758,2568,-8.4159e-05,0.29101,-8.6673e-05,-18.598,0.8076
2595,12.941,5.6833,0.1,0.00025768,2575,0.00025739,2566.6,-8.4252e-05,-0.35233,-8.638e-05,-16.344,0.80483
2596,14.014,5.3691,0.1,0.00022952,2293.6,0.00022904,2279.9,-7.4495e-05,-0.76833,-7.7903e-05,-26.376,0.92829
2597,13.66,5.0498,0.1,0.00023912,2389.6,0.00023868,2376.8,-7.7608e-05,0.3412,-8.1067e-05,-25.647,0.88856
2598,13.66,5.6833,0.1,0.00023847,2383,0.0002381,2372.3,-7.7785e-05,-1.1404,-8.0326e-05,-20.232,0.88611
2599,14.719,5.3746,0.1,0.0002103,2101.5,0.00020961,2081.7,-6.7601e-05,-1.1529,-7.2514e-05,-38.067,1.0114
2600,14.365,5.0568,0.1,0.0002212,2210.4,0.00022053,2191.3,-7.13e-05,-1.4085,-7.5965e-05,-36.453,0.97056
2601,14.373,5.6858,0.1,0.00021904,2188.9,0.0002185,2173.2,-7.1063e-05,-2.4391,-7.4556e-05,-28.684,0.96917
2602,15.417,5.3779,0.1,0.00018958,1894.5,0.0001884,1860.8,-6.0141e-05,-6.6154,-6.7201e-05,-59.66,1.0958
2603,15.084,5.6888,0.1,0.00019829,1981.5,0.00019745,1957.4,-6.3819e-05,-5.6413,-6.8652e-05,-41.952,1.0541
2604,16.086,5.3923,0.1,0.00016409,1639.8,0.00016227,1589.3,-5.0228e-05,-7.3016,-6.1294e-05,-90.454,1.1783
2605,15.742,5.0663,0.1,0.00018379,1836.6,0.00018221,1792.2,-5.7326e-05,-7.5771,-6.6859e-05,-79.201,1.1366
2606,15.791,5.6891,0.1,0.00017351,1733.9,0.00017206,1692.7,-5.4819e-05,-11.992,-6.2407e-05,-69.001,1.1406
2607,16.701,5.45,0.1,0.00013307,1329.8,0.00013109,1276.7,-3.9004e-05,-1.241,-5.2066e-05,-99.38,1.2553
2608,16.471,5.7032,0.1,0.00014099,1408.9,0.00013899,1354,-4.2466e-05,-9.4086,-5.4058e-05,-96.507,1.2254
2609,17.254,5.5403,0.1,9.1484e-05,914.21,9.018e-05,879.85,-2.6519e-05,3.0216,-3.5923e-05,-67.637,1.3252
2610,17.003,5.2763,0.1,0.00012892,1288.3,0.00012548,1200.3,-3.5062e-05,-6.0314,-5.5125e-05,-156.78,1.2942
2611,17.125,5.7468,0.1,0.00010309,1030.2,0.00010047,958.28,-3.0613e-05,-26.629,-4.1967e-05,-111.93,1.308
2612,17.756,5.6269,0.1,4.9008e-05,489.74,4.9325e-05,500.5,-1.3698e-05,26.968,-1.7817e-05,-3.9786,1.3891
2613,17.576,5.7935,0.1,5.4468e-05,544.3,5.3514e-05,521.93,-1.4215e-05,13.043,-2.2864e-05,-51.944,1.3654
2614,0.64937,1.6526,0.1,0.00062063,6202,0.00058605,5975,-1.555e-05,1454.8,-0.00035499,-1095.6,0.0023627
2615,0.65726,0.98773,0.1,0.00057509,5746.9,0.00054988,5510.1,-4.9189e-05,1008.9,-0.00031167,-963.33,0.0021986
2616,0.98449,1.3116,0.1,0.00057199,5716,0.00056638,5967.8,-4.6544e-05,1362.5,-0.00028504,-429.47,0.0052585
2617,0.32726,1.3254,0.1,0.00049015,4898.1,0.00054574,6759.1,-8.8281e-06,2592.3,-0.00017235,1363.7,0.00059024
2618,0.64157,2.3227,0.1,0.00064359,6431.5,0.00060655,6217.4,-7.7248e-06,1602,-0.00037119,-1128.9,0.0024016
2619,0.97102,1.974,0.1,0.00058912,5887.2,0.00058132,6225.2,-2.2548e-05,1688,-0.00030408,-427.36,0.0054308
2620,0.32211,1.9939,0.1,0.0005166,5162.4,0.00057605,7166.7,-4.1532e-06,2807.3,-0.00018267,1466,0.00061067
2621,0.64036,2.9971,0.1,0.00065136,6509.1,0.00061322,6290.1,-5.6678e-06,1640,-0.00037683,-1148.7,0.0024207
2622,0.95164,2.6439,0.1,0.00059989,5994.8,0.00059075,6352.5,-1.5089e-05,1800.4,-0.00031324,-439.74,0.0053445
2623,0.31946,2.6621,0.1,0.00052922,5288.6,0.00058964,7336.4,-2.6132e-06,2886.5,-0.00018852,1489.7,0.00061657
2624,0.6544,3.6744,0.1,0.00064239,6419.4,0.00060561,6209,-7.9386e-06,1599.1,-0.00037021,-1122.9,0.0024977
2625,0.95437,3.335,0.1,0.00060103,6006.2,0.00059188,6360.2,-1.5925e-05,1793.4,-0.00031362,-443.38,0.0053754
2626,0.3209,3.335,0.1,0.00052902,5286.6,0.00058956,7338,-2.4689e-06,2889.7,-0.0001883,1493.4,0.00062195
2627,0.67712,4.3445,0.1,0.00061925,6188.3,0.00058505,5963.5,-1.6429e-05,1444.2,-0.00035365,-1089.6,0.0025665
2628,1.0047,4.0138,0.1,0.0005879,5875,0.00057968,6200.8,-2.2674e-05,1675,-0.00030396,-438.47,0.0058124
2629,0.33349,4.006,0.1,0.00051602,5156.6,0.00057569,7164.7,-4.4578e-06,2805.7,-0.00018191,1472.4,0.00065276
2630,0.69228,5.0104,0.1,0.00057543,5750.3,0.00055048,5508.5,-5.149e-05,985.5,-0.0003108,-962.89,0.0024423
2631,0.34363,4.6719,0.1,0.00049016,4898.2,0.00054604,6764.9,-9.2032e-06,2593.1,-0.00017178,1371.5,0.00064914
2632,0.34866,5.3385,0.1,0.00044164,4413.4,0.00049288,6019.6,-3.5926e-05,2046.3,-0.00013934,1269.3,0.00058009
2633,0.70812,5.6718,0.1,0.00055558,5552,0.00054382,5309.9,-0.00012896,254.88,-0.00024704,-632.29,0.0019611
2634,16.29,0.52694,0.1,0.00015072,1506.2,0.00014863,1446.9,-4.7282e-05,-25.109,-5.608e-05,-91.213,1.2036
2635,16.982,0.40811,0.1,0.00010615,1060.8,0.00010422,1008.2,-3.1457e-05,-11.221,-4.1893e-05,-89.634,1.2904
2636,16.646,0.24882,0.1,0.00012627,1261.8,0.00012429,1206.6,-3.8699e-05,-18.075,-4.8198e-05,-89.448,1.2474
2637,15.627,0.57471,0.1,0.00018104,1809.1,0.00017964,1768.9,-5.7779e-05,-14.924,-6.4375e-05,-64.484,1.1215
2638,15.977,0.27812,0.1,0.0001655,1653.9,0.00016397,1609.6,-5.3273e-05,-22.674,-5.8917e-05,-65.082,1.1637
2639,14.979,0.6055,0.1,0.00020212,2019.8,0.00020126,1995.1,-6.4671e-05,-2.965,-7.0367e-05,-45.762,1.0426
2640,15.311,0.90297,0.1,0.00019467,1945.3,0.00019345,1911.7,-6.0435e-05,4.0399,-7.0197e-05,-69.308,1.0838
2641,15.317,0.2966,0.1,0.00018995,1898.2,0.00018908,1873,-6.0978e-05,-5.7551,-6.606e-05,-43.937,1.0824
2642,14.328,0.6216,0.1,0.00022106,2209.1,0.00022045,2191.6,-7.1309e-05,-0.58126,-7.5755e-05,-33.985,0.96509
2643,14.659,0.92903,0.1,0.00021365,2135,0.00021281,2111,-6.8427e-05,-2.1497,-7.4177e-05,-45.355,1.0054
2644,14.662,0.30891,0.1,0.00021044,2102.9,0.00020978,2084,-6.7894e-05,-2.3484,-7.2259e-05,-35.149,1.0035
2645,13.665,0.62944,0.1,0.00023897,2388,0.00023855,2375.9,-7.772e-05,-0.39441,-8.081e-05,-23.606,0.88811
2646,13.995,0.93843,0.1,0.00023085,2306.9,0.00023034,2292.3,-7.464e-05,0.8124,-7.8688e-05,-29.608,0.92731
2647,13.999,0.3127,0.1,0.00022944,2292.8,0.00022897,2279.1,-7.4641e-05,-2.1143,-7.7714e-05,-25.203,0.92535
2648,13,0.63347,0.1,0.00025657,2563.9,0.00025627,2555.2,-8.3845e-05,-0.28533,-8.6077e-05,-17.057,0.81286
2649,13.331,0.94725,0.1,0.00024801,2478.3,0.00024763,2467.5,-8.0762e-05,0.080098,-8.365e-05,-21.619,0.85124
2650,13.333,0.31674,0.1,0.00024745,2472.8,0.00024712,2463,-8.081e-05,-0.90464,-8.3173e-05,-18.661,0.84896
2651,12.333,0.63347,0.1,0.00027424,2740.5,0.00027403,2734.3,-8.988e-05,0.038231,-9.1539e-05,-12.427,0.73973
2652,12.667,0.95021,0.1,0.00026534,2651.6,0.00026509,2644.2,-8.6812e-05,0.14033,-8.8817e-05,-14.924,0.77724
2653,12.667,0.31674,0.1,0.0002653,2651.2,0.00026504,2643.7,-8.6866e-05,-0.43072,-8.8739e-05,-14.503,0.77459
2654,11.667,0.63347,0.1,0.00029211,2919.1,0.00029197,2914.9,-9.5954e-05,0.24756,-9.7118e-05,-8.5041,0.66902
2655,12,0.95021,0.1,0.00028296,2827.6,0.00028279,2822.8,-9.2873e-05,0.18106,-9.4207e-05,-9.8414,0.70537
2656,12,0.31674,0.1,0.00028321,2830.2,0.00028302,2824.5,-9.2899e-05,0.00068775,-9.4405e-05,-11.309,0.70256
2657,11,0.63347,0.1,0.00031022,3100.1,0.00031015,3098.1,-0.00010213,0.31406,-0.00010276,-4.3812,0.60089
2658,11.333,0.95021,0.1,0.00030082,3006.1,0.00030074,3003.9,-9.9026e-05,0.19817,-9.9662e-05,-4.5809,0.636
2659,11.333,0.31674,0.1,0.00030134,3011.3,0.0003012,3007.4,-9.9022e-05,0.20661,-0.00010013,-8.1356,0.63304
2660,10.333,0.63347,0.1,0.00032857,3283.4,0.00032858,3283.8,-0.0001084,0.54487,-0.00010843,0.28964,0.53552
2661,10.667,0.95021,0.1,0.00031892,3187,0.00031894,3187.7,-0.00010514,1.2928,-0.00010529,0.18029,0.56931
2662,10.667,0.31674,0.1,0.00031971,3194.9,0.00031963,3192.8,-0.00010523,0.48902,-0.00010591,-4.642,0.56619
2663,9.6667,0.63347,0.1,0.00034716,3469.2,0.00034727,3472.6,-0.00011407,6.2695,-0.00011483,0.55005,0.47306
2664,10,0.95021,0.1,0.00033724,3370.1,0.00033738,3374.3,-0.00011062,8.1534,-0.00011167,0.24282,0.50544
2665,10,0.31674,0.1,0.00033833,3381,0.00033834,3381.2,-0.00011154,0.96985,-0.00011175,-0.58999,0.50217
2666,9,0.63347,0.1,0.00036597,3657.2,0.00036621,3664.3,-0.00011967,13.595,-0.00012138,0.73475,0.41368
2667,9.3333,0.95021,0.1,0.00035574,3555,0.00035603,3563.5,-0.000116,16.856,-0.00011821,0.2289,0.44457
2668,9.3333,0.31674,0.1,0.00035724,3569.9,0.00035734,3572.9,-0.00011753,4.9069,-0.00011804,1.0547,0.44115
2669,8.3333,0.63347,0.1,0.00038498,3847.2,0.00038539,3859.1,-0.00012518,22.9,-0.00012809,1.0797,0.35755
2670,8.6667,0.95021,0.1,0.00037443,3741.7,0.0003749,3755.7,-0.00012125,27.817,-0.00012492,0.234,0.38685
2671,8.6667,0.31674,0.1,0.0003764,3761.4,0.00037662,3767.9,-0.00012334,11.353,-0.00012464,1.614,0.3833
2672,7.6667,0.63347,0.1,0.00040421,4039.3,0.00040482,4057.4,-0.00013053,34.967,-0.000135,1.3764,0.30485
2673,8,0.95021,0.1,0.00039323,3929.6,0.00039393,3950.6,-0.00012627,41.974,-0.00013182,0.28422,0.33247
2674,8,0.31674,0.1,0.00039585,3955.8,0.00039623,3966.8,-0.0001291,19.69,-0.00013141,2.2972,0.3288
2675,7,0.63347,0.1,0.00042362,4233.3,0.00042449,4259.3,-0.00013565,50.64,-0.00014214,1.8354,0.25574
2676,7.3333,0.95021,0.1,0.00041213,4118.4,0.00041312,4148.3,-0.00013095,60.413,-0.00013897,0.13193,0.28159
2677,7.3333,0.31674,0.1,0.00041562,4153.3,0.00041618,4170,-0.00013476,30.491,-0.00013841,3.0743,0.27781
2678,6.3333,0.63347,0.1,0.00044327,4429.6,0.00044448,4465.9,-0.00014045,70.951,-0.00014958,2.3527,0.2104
2679,6.6667,0.95021,0.1,0.00043106,4307.6,0.00043244,4349.4,-0.00013519,84.497,-0.00014638,0.39349,0.23438
2680,6.6667,0.31674,0.1,0.00043571,4354.1,0.00043652,4378.3,-0.00014029,44.379,-0.00014562,4.3286,0.23051
2681,5.6667,0.63347,0.1,0.00046317,4628.5,0.00046479,4677.6,-0.00014489,96.675,-0.00015738,2.8318,0.16901
2682,6,0.95021,0.1,0.00045004,4497.3,0.00045191,4554.5,-0.00013873,116.65,-0.00015424,0.12634,0.19101
2683,6,0.31674,0.1,0.00045625,4559.4,0.00045738,4593.1,-0.00014563,62.292,-0.00015317,5.6655,0.1871
2684,5,0.63347,0.1,0.00048328,4829.5,0.00048542,4894.5,-0.00014889,128.6,-0.00016549,3.91,0.13175
2685,5.3333,0.95021,0.1,0.00046912,4687.9,0.00047162,4765.4,-0.00014162,157.71,-0.00016247,1.0815,0.15165
2686,5.3333,0.31674,0.1,0.00047726,4769.3,0.00047877,4814.5,-0.00015082,84.037,-0.00016103,7.3087,0.14775
2687,4.3333,0.63347,0.1,0.00050344,5030.9,0.00050622,5116.7,-0.00015217,169.75,-0.000174,5.7646,0.098805
2688,4.6667,0.95021,0.1,0.00048822,4878.8,0.00049144,4980.2,-0.00014349,209.58,-0.00017138,0.048018,0.11649
2689,4.6667,0.31674,0.1,0.00049867,4983.2,0.00050064,5042.9,-0.00015578,110.76,-0.00016918,10.059,0.11266
2690,3.6651,0.62932,0.1,0.00052363,5232.7,0.00052713,5341.8,-0.00015473,218.58,-0.00018301,6.1302,0.070271
2691,3.9967,0.94226,0.1,0.00050658,5062.3,0.00051072,5194.8,-0.0001439,276.27,-0.00018066,0.083653,0.08551
2692,4,0.31674,0.1,0.00052051,5201.5,0.00052308,5279.6,-0.00016021,145.59,-0.00017783,13.212,0.082019
2693,2.9944,0.62762,0.1,0.00054332,5429.4,0.00054777,5570.1,-0.00015613,281.3,-0.0001922,10.284,0.046368
2694,3.325,0.93888,0.1,0.00052494,5245.8,0.00053008,5414.8,-0.00014281,359.02,-0.0001909,-2.3704,0.059071
2695,3.3317,0.31259,0.1,0.00054275,5423.8,0.00054589,5519.7,-0.00016467,180.84,-0.00018677,14.804,0.055937
2696,2.3242,0.63561,0.1,0.00056063,5602.4,0.0005656,5765.3,-0.00015511,350.1,-0.00020268,-7.2896,0.027421
2697,2.6543,0.94693,0.1,0.00054151,5411.4,0.00054824,5639.5,-0.00013836,480.62,-0.00020143,6.7703,0.037464
2698,2.6626,0.31504,0.1,0.00056435,5639.6,0.00056847,5766.2,-0.00016796,232.97,-0.00019552,25.887,0.034731
2699,1.6564,0.64777,0.1,0.00056565,5652.6,0.00057427,5931.3,-0.00014672,514.13,-0.00020588,69.661,0.013532
2700,1.9853,0.96241,0.1,0.00055542,5550.4,0.00056203,5802.9,-0.00012842,615.14,-0.00021696,-50.106,0.020784
2701,1.9949,0.32057,0.1,0.00058348,5830.7,0.00058741,5955.4,-0.0001701,263.76,-0.00020588,-5.0741,0.018613
2702,0.99146,0.65624,0.1,0.00055398,5535.9,0.00055266,5626.2,-0.00010958,650.39,-0.000241,-337.05,0.0046321
2703,1.3187,0.98014,0.1,0.00055132,5509.4,0.00056738,6070.6,-0.00010525,1016.7,-0.00021428,197.5,0.0090384
2704,1.3281,0.3272,0.1,0.00058689,5864.9,0.00059595,6139.6,-0.00016661,410,-0.00020146,148.17,0.007634
2705,0.33,0.66237,0.1,0.00043931,4390,0.00049018,5989.7,-3.4262e-05,2049.3,-0.00013961,1257.8,0.00051817
2706,0.66333,0.32904,0.1,0.0005505,5501.2,0.0005391,5271.1,-0.00012674,268.26,-0.000245,-620.31,0.0016945
2707,17.554,1.8251,0.1,0.00023859,2384.3,0.0002234,2076.6,-3.9851e-05,98.649,-0.00012896,-570.87,1.3684
2708,17.791,1.9811,0.1,0.00043763,4373.3,0.00041571,3956.5,-7.3474e-05,280.97,-0.00022801,-880.16,1.3998
2709,17.526,1.5158,0.1,0.0001921,1919.7,0.00017041,1481.8,-2.3737e-05,23.11,-0.00011905,-693.01,1.3639
2710,17.763,1.6773,0.1,0.0002418,2416.3,0.00020745,1772.7,-1.7185e-05,84.8,-0.00016093,-995.28,1.3951
2711,17.526,1.1668,0.1,0.00013789,1377.9,0.0001216,1045.4,-1.7236e-05,2.2391,-8.6296e-05,-516.65,1.3628
2712,17.763,1.3385,0.1,0.00015827,1581.6,0.0001384,1190.1,-1.6538e-05,25.96,-0.00010126,-610.65,1.394
2713,17.463,0.78745,0.1,9.6165e-05,960.98,8.845e-05,795.44,-1.6492e-05,6.9439,-5.4013e-05,-274.97,1.3533
2714,17.763,0.99495,0.1,0.00010488,1048,9.4161e-05,835.55,-1.3068e-05,29.866,-6.3533e-05,-349.3,1.3925
2715,17.369,0.4518,0.1,8.1056e-05,810,7.8386e-05,745.65,-2.0127e-05,5.4615,-3.6772e-05,-119.6,1.3399
2716,17.7,0.62584,0.1,6.7415e-05,673.68,6.5888e-05,644.77,-1.4616e-05,39.895,-3.0743e-05,-81.279,1.383
2717,17.669,0.32596,0.1,5.7648e-05,576.08,5.8704e-05,607.48,-1.6828e-05,39.967,-1.9058e-05,23.21,1.3778
2718,17.335,0.15929,0.1,7.5012e-05,749.6,7.4736e-05,743.89,-2.1554e-05,20.406,-2.8176e-05,-29.346,1.3345
2719,22.395,0.65742,0.1,3.3792e-05,337.69,3.3418e-05,327.45,-1.0241e-05,-0.59029,-1.2708e-05,-19.125,2.0463
2720,23.037,0.66125,0.1,2.1672e-05,216.57,2.0925e-05,198.61,-5.3352e-06,1.3008,-9.9144e-06,-33.105,2.1389
2721,22.72,0.9927,0.1,2.7917e-05,278.98,2.7268e-05,262.21,-7.7304e-06,-0.75744,-1.1677e-05,-30.411,2.0933
2722,22.71,0.32988,0.1,2.7385e-05,273.66,2.6876e-05,259.95,-8.0317e-06,-2.3381,-1.089e-05,-23.816,2.0915
2723,21.754,0.65056,0.1,4.6113e-05,460.82,4.5952e-05,456.2,-1.4812e-05,-0.36535,-1.5929e-05,-8.7601,1.9541
2724,22.081,0.98512,0.1,3.9951e-05,399.23,3.9752e-05,393.63,-1.2601e-05,0.27062,-1.4131e-05,-11.225,2.0014
2725,22.065,0.32754,0.1,4.0152e-05,401.24,3.9891e-05,393.9,-1.2607e-05,-0.54655,-1.4371e-05,-13.803,1.9986
2726,21.112,0.63978,0.1,5.7758e-05,577.18,5.7658e-05,574.25,-1.8946e-05,-1.3205,-1.9372e-05,-4.5225,1.8621
2727,21.442,0.97168,0.1,5.2143e-05,521.07,5.2177e-05,522.11,-1.6926e-05,2.8943,-1.7416e-05,-0.7889,1.9096
2728,21.42,0.32302,0.1,5.2469e-05,524.33,5.2315e-05,519.85,-1.6994e-05,-0.90642,-1.7936e-05,-7.9807,1.906
2729,20.482,0.62276,0.1,6.6743e-05,666.96,6.658e-05,662.22,-2.1885e-05,-2.4723,-2.2486e-05,-6.9848,1.7724
2730,20.806,0.95352,0.1,6.3519e-05,634.75,6.371e-05,640.54,-1.9922e-05,12.166,-2.1593e-05,-0.38767,1.8187
2731,20.775,0.31677,0.1,6.3123e-05,630.79,6.2935e-05,625.31,-2.0685e-05,-2.9804,-2.1348e-05,-7.961,1.8138
2732,19.86,0.58974,0.1,7.0226e-05,701.78,6.9705e-05,686.52,-2.3131e-05,-11.008,-2.4252e-05,-19.429,1.6841
2733,20.187,0.93049,0.1,7.2627e-05,725.77,7.2679e-05,727.58,-2.2758e-05,10.507,-2.5033e-05,-6.5858,1.7308
2734,20.142,0.30599,0.1,6.9394e-05,693.46,6.9046e-05,683.38,-2.2505e-05,-4.5016,-2.3972e-05,-15.522,1.7238
2735,19.212,0.52575,0.1,6.2143e-05,621.01,6.1251e-05,595.49,-1.9719e-05,-12.891,-2.2983e-05,-37.42,1.5929
2736,19.505,0.28375,0.1,6.7127e-05,670.81,6.6258e-05,645.53,-2.1981e-05,-17.464,-2.4025e-05,-32.824,1.6337
2737,18.522,0.40867,0.1,4.291e-05,428.8,4.3426e-05,444.03,-1.3257e-05,18.129,-1.4023e-05,12.375,1.4961
2738,18.846,0.242,0.1,4.9917e-05,498.83,4.9061e-05,476.21,-1.4369e-05,-0.37394,-1.9938e-05,-42.217,1.5412
2739,18.66,4.1518,0.1,0.00016841,1682.9,0.00016937,1715.2,-4.7811e-05,83.406,-6.0857e-05,-14.613,1.5174
2740,18.593,3.8213,0.1,0.00022033,2201.7,0.00022268,2271.6,-6.7366e-05,92.292,-7.3252e-05,48.065,1.5086
2741,18.395,4.0047,0.1,0.00038467,3844,0.00038735,3951.2,-9.6558e-05,315.35,-0.00014806,-71.645,1.481
2742,18.688,4.4458,0.1,0.00013107,1309.7,0.00012787,1229.4,-3.5137e-05,4.6605,-5.5893e-05,-151.29,1.5209
2743,18.432,4.3139,0.1,0.00017691,1767.9,0.0001716,1654.6,-3.9319e-05,69.854,-8.2187e-05,-252.24,1.4856
2744,18.658,4.7665,0.1,9.9548e-05,994.79,9.5096e-05,890.68,-2.2791e-05,4.9287,-4.8148e-05,-185.59,1.5162
2745,18.423,4.632,0.1,0.00011897,1188.9,0.00011499,1098.5,-2.7593e-05,27.144,-5.5246e-05,-180.63,1.4838
2746,18.676,5.1036,0.1,7.1203e-05,711.54,6.8695e-05,655.06,-1.6215e-05,17.074,-3.3432e-05,-112.29,1.5183
2747,18.402,4.9679,0.1,7.6749e-05,766.96,7.4189e-05,712.81,-1.6558e-05,30.973,-3.6325e-05,-117.55,1.4802
2748,19.068,5.5672,0.1,5.722e-05,571.81,5.6721e-05,558.19,-1.7397e-05,1.2906,-2.1222e-05,-27.45,1.5724
2749,18.743,5.4419,0.1,5.3434e-05,533.97,5.2586e-05,513.76,-1.425e-05,11.578,-2.2067e-05,-47.153,1.5271
2750,18.468,5.6396,0.1,3.6522e-05,364.97,3.7376e-05,391.36,-9.4267e-06,39.696,-1.2794e-05,14.394,1.4883
2751,18.76,5.8062,0.1,4.4224e-05,441.94,4.3888e-05,433.31,-1.3009e-05,5.8071,-1.668e-05,-21.776,1.5289
2752,19.645,5.4656,0.1,6.9563e-05,695.15,6.9046e-05,680.77,-2.155e-05,0.067594,-2.5283e-05,-27.979,1.6537
2753,19.321,5.3236,0.1,7.4651e-05,745.99,7.3754e-05,720.59,-2.3382e-05,-9.2563,-2.7549e-05,-40.565,1.6082
2754,19.349,5.761,0.1,6.4709e-05,646.64,6.3915e-05,623.78,-2.076e-05,-12.436,-2.3471e-05,-32.804,1.6117
2755,20.206,5.3868,0.1,6.9952e-05,699.04,6.9674e-05,691.05,-2.2417e-05,-0.87618,-2.4281e-05,-14.888,1.733
2756,19.921,5.7047,0.1,7.0318e-05,702.69,6.9777e-05,687.46,-2.2022e-05,-2.2854,-2.5378e-05,-27.501,1.6924
2757,20.785,5.3654,0.1,6.3324e-05,632.81,6.3255e-05,630.77,-2.0748e-05,-0.3918,-2.1183e-05,-3.6626,1.8153
2758,20.48,5.0688,0.1,6.9211e-05,691.63,6.93e-05,694.91,-2.1056e-05,16.011,-2.4355e-05,-8.7759,1.7723
2759,20.493,5.6822,0.1,6.6793e-05,667.47,6.6547e-05,660.3,-2.1773e-05,-3.3008,-2.2793e-05,-10.966,1.7735
2760,21.375,5.3665,0.1,5.3214e-05,531.78,5.3169e-05,530.47,-1.7386e-05,0.34594,-1.7824e-05,-2.9467,1.8996
2761,21.077,5.0464,0.1,5.8907e-05,588.66,5.9113e-05,594.91,-1.8442e-05,12.184,-1.9999e-05,0.48418,1.8573
2762,21.083,5.6833,0.1,5.8563e-05,585.22,5.8442e-05,581.72,-1.906e-05,-0.60695,-1.9827e-05,-6.3656,1.8577
2763,21.958,5.3665,0.1,4.2275e-05,422.46,4.2081e-05,416.93,-1.3442e-05,-0.24277,-1.4823e-05,-10.623,1.9833
2764,21.665,5.0465,0.1,4.7945e-05,479.12,4.7928e-05,478.63,-1.5753e-05,0.15138,-1.5924e-05,-1.1286,1.9414
2765,21.667,5.6833,0.1,4.7986e-05,479.52,4.7804e-05,474.31,-1.5421e-05,-0.74037,-1.6597e-05,-9.5753,1.9412
2766,22.54,5.3586,0.1,3.0978e-05,309.57,3.0553e-05,298.07,-9.2027e-06,-0.63487,-1.1956e-05,-21.321,2.0671
2767,22.25,5.0498,0.1,3.6803e-05,367.78,3.653e-05,360.21,-1.1372e-05,0.29781,-1.3401e-05,-14.953,2.0255
2768,22.25,5.6833,0.1,3.6575e-05,365.5,3.6263e-05,356.8,-1.1319e-05,-0.71556,-1.3379e-05,-16.192,2.0251
2769,23.123,5.3426,0.1,2.0017e-05,200.03,1.9182e-05,180.31,-4.6979e-06,0.88762,-9.5221e-06,-35.359,2.1512
2770,22.821,5.0204,0.1,2.5941e-05,259.23,2.5204e-05,240.63,-6.8923e-06,-0.5305,-1.1283e-05,-33.523,2.1078
2771,22.832,5.6753,0.1,2.4895e-05,248.77,2.433e-05,233.81,-7.0983e-06,-2.3278,-1.0237e-05,-25.914,2.109
2772,23.41,5.0011,0.1,1.5801e-05,157.9,1.4124e-05,124.54,-1.9386e-06,3.8557,-9.6591e-06,-54.153,2.1929
2773,23.416,5.6673,0.1,1.3721e-05,137.11,1.2724e-05,115.45,-2.4953e-06,1.098,-7.5069e-06,-36.558,2.1934
2774,23.708,5.3339,0.1,1.1781e-05,117.73,1.0055e-05,86.158,-6.7642e-07,5.5233,-7.9247e-06,-48.938,2.2357
2775,23.386,4.3338,0.1,1.7493e-05,174.81,1.5101e-05,129.18,-1.4439e-06,4.8695,-1.1502e-05,-70.703,2.1897
2776,23.108,4.6789,0.1,2.159e-05,215.75,2.0195e-05,185.22,-4.1151e-06,2.5715,-1.1487e-05,-52.817,2.1495
2777,23.703,4.6672,0.1,1.419e-05,141.81,1.1143e-05,89.501,2.9818e-07,8.0151,-1.065e-05,-74.242,2.2353
2778,23.37,3.6652,0.1,1.8281e-05,182.68,1.5614e-05,131.98,-1.3647e-06,4.4114,-1.2238e-05,-77.289,2.1875
2779,23.079,4.0054,0.1,2.2665e-05,226.5,2.1052e-05,191.26,-4.1871e-06,1.627,-1.2328e-05,-59.537,2.1454
2780,23.683,4,0.1,1.5507e-05,154.96,1.1959e-05,93.892,4.4539e-07,7.3825,-1.1851e-05,-85.009,2.2328
2781,23.37,2.9985,0.1,1.8476e-05,184.63,1.5764e-05,132.95,-1.3882e-06,4.0777,-1.2387e-05,-78.561,2.1876
2782,23.061,3.3317,0.1,2.3128e-05,231.12,2.1479e-05,195.06,-4.2802e-06,1.5204,-1.258e-05,-60.84,2.143
2783,23.686,3.3318,0.1,1.5829e-05,158.18,1.2044e-05,93.352,6.0059e-07,7.3733,-1.2252e-05,-89.196,2.2333
2784,23.367,2.3333,0.1,1.8444e-05,184.31,1.5832e-05,134.36,-1.4817e-06,4.27,-1.2239e-05,-76.553,2.1871
2785,23.05,2.6667,0.1,2.335e-05,233.34,2.1734e-05,197.87,-4.3936e-06,1.5591,-1.26e-05,-60.101,2.1414
2786,23.683,2.6667,0.1,1.591e-05,158.99,1.2163e-05,94.751,5.587e-07,7.5593,-1.2261e-05,-88.762,2.2329
2787,23.363,1.6633,0.1,1.7967e-05,179.55,1.5696e-05,135.77,-1.7e-06,5.0594,-1.1551e-05,-68.957,2.1864
2788,23.048,1.9969,0.1,2.327e-05,232.54,2.1734e-05,198.66,-4.4736e-06,1.7451,-1.2412e-05,-57.898,2.141
2789,23.683,2,0.1,1.5611e-05,156,1.2096e-05,95.51,4.1567e-07,7.7516,-1.1877e-05,-84.608,2.2328
2790,23.358,0.99472,0.1,1.67e-05,166.88,1.5167e-05,136.06,-2.3097e-06,4.7445,-9.8267e-06,-51.736,2.1855
2791,23.041,1.3262,0.1,2.2812e-05,227.97,2.1561e-05,200.04,-4.6877e-06,2.8151,-1.1658e-05,-49.554,2.1399
2792,23.679,1.33,0.1,1.4721e-05,147.11,1.1872e-05,97.922,5.3124e-08,9.1229,-1.0728e-05,-71.886,2.232
2793,23.679,0.66471,0.1,1.2493e-05,124.85,1.0936e-05,96.176,-9.6589e-07,6.7533,-8.0485e-06,-46.463,2.2317
2794,23.355,0.33137,0.1,1.4889e-05,148.79,1.3999e-05,129.2,-2.9268e-06,2.0255,-7.7789e-06,-34.432,2.1847
2795,18.036,3.6784,0.1,0.00035557,3553.2,0.00034022,3156.7,-9.465e-05,-110.76,-0.00016324,-626.11,1.4331
2796,17.939,3.8107,0.1,0.00046587,4655.5,0.00044832,4259.4,-0.00010504,101.71,-0.00022111,-770.45,1.4198
2797,18.121,2.2696,0.1,0.00037932,3790.6,0.00036348,3372.8,-0.00010456,-143.88,-0.00017092,-642.46,1.4444
2798,18.226,2.149,0.1,0.00045838,4580.6,0.00045557,4519.8,-0.00012805,134.69,-0.00017712,-234.03,1.4583
2799,3.3152,3.096,0.1,0.00049531,4949.7,0.00050421,5308.3,-9.3928e-05,814.16,-0.00020186,3.1973,0.062931
2800,3.607,3.3709,0.1,0.00049045,4901.1,0.00049912,5228.2,-0.00010189,712.48,-0.00019456,16.147,0.073929
2801,3.0039,3.3719,0.1,0.00049887,4985.2,0.00050744,5365.5,-8.5076e-05,913.59,-0.00020943,-20.783,0.051888
2802,2.7356,3.6203,0.1,0.00051537,5150.1,0.00052423,5575.2,-7.8396e-05,1047.3,-0.00022145,-27.517,0.043072
2803,3.2957,3.6467,0.1,0.00049402,4936.8,0.00050257,5287,-9.3282e-05,810.04,-0.0002021,-7.5627,0.061833
2804,3.9431,3.6156,0.1,0.00048356,4832.3,0.00049119,5106.8,-0.00011007,589.15,-0.00018692,11.703,0.087534
2805,4.6431,3.5581,0.1,0.00046818,4678.6,0.00047399,4882.5,-0.00011565,452.2,-0.00017718,-10.143,0.11999
2806,5.4084,3.5616,0.1,0.00045215,4518.4,0.00045652,4665.3,-0.00012111,325.12,-0.00016605,-12.513,0.16072
2807,6.1708,3.6139,0.1,0.00043631,4360,0.00043953,4462.9,-0.00012553,217.32,-0.00015487,-3.1818,0.20655
2808,6.8856,3.6312,0.1,0.00041759,4173,0.00042005,4249.4,-0.00012474,156.14,-0.00014538,1.0583,0.25421
2809,7.5872,3.6306,0.1,0.0003998,3995.3,0.00040155,4049,-0.00012254,111.17,-0.00013752,-1.3726,0.3052
2810,8.2872,3.6228,0.1,0.0003813,3810.4,0.00038257,3848.8,-0.00011929,77.967,-0.00012967,-0.023001,0.36002
2811,8.9801,3.6243,0.1,0.00036285,3626,0.00036371,3651.8,-0.00011534,52.428,-0.00012235,-0.25556,0.41796
2812,9.6705,3.6475,0.1,0.00034433,3440.9,0.00034487,3457.1,-0.00011087,32.83,-0.00011527,-0.20042,0.47914
2813,10.367,3.67,0.1,0.00032567,3254.5,0.00032597,3263.3,-0.00010598,17.789,-0.00010836,-0.038645,0.54422
2814,11.073,3.6678,0.1,0.00030699,3067.8,0.00030707,3070.1,-0.00010084,5.1863,-0.00010162,-0.62313,0.61334
2815,11.796,3.6556,0.1,0.00028784,2876.4,0.00028774,2873.4,-9.4569e-05,0.91827,-9.5607e-05,-6.8799,0.68748
2816,12.521,3.6208,0.1,0.00026951,2693.3,0.00026917,2683.3,-8.7823e-05,0.96837,-9.0728e-05,-20.86,0.76475
2817,13.27,3.5491,0.1,0.00024958,2494.1,0.0002491,2480.1,-8.1185e-05,-1.5285,-8.4478e-05,-26.268,0.8476
2818,22.451,3.3387,0.1,3.3605e-05,335.82,3.3157e-05,323.74,-9.9731e-06,-0.32135,-1.2953e-05,-22.711,2.055
2819,16.056,2.0513,0.1,0.00019336,1932.3,0.0001911,1870.5,-5.8262e-05,-3.0864,-7.323e-05,-115.55,1.178
2820,16.166,2.9181,0.1,0.00019747,1973.3,0.00019589,1928.9,-6.1776e-05,-7.1,-7.1441e-05,-79.724,1.1925
2821,22.771,3.672,0.1,2.7916e-05,278.97,2.6925e-05,254.41,-7.1156e-06,-1.3611,-1.2665e-05,-43.059,2.101
2822,22.801,4.3504,0.1,2.7094e-05,270.75,2.6143e-05,247.29,-6.8719e-06,-0.77311,-1.2297e-05,-41.533,2.1053
2823,22.742,2.9999,0.1,2.8425e-05,284.06,2.746e-05,260.07,-7.2983e-06,-1.0935,-1.2792e-05,-42.371,2.0969
2824,22.731,2.3303,0.1,2.8582e-05,285.62,2.7645e-05,262.24,-7.3983e-06,-1.0618,-1.2769e-05,-41.418,2.0954
2825,22.727,1.6597,0.1,2.8449e-05,284.3,2.7597e-05,262.92,-7.475e-06,-0.60166,-1.2503e-05,-38.38,2.0946
2826,1.2811,2.2952,0.1,0.00054723,5468.6,0.00056534,6358.9,-2.9716e-05,1887.8,-0.00024614,261.7,0.0096255
2827,1.3061,1.633,0.1,0.00054285,5424.8,0.00056115,6214.2,-5.2993e-05,1599.8,-0.00023418,238.38,0.0096319
2828,1.2657,2.9818,0.1,0.00055115,5507.7,0.00056912,6420.4,-2.5035e-05,1956.2,-0.00025005,265.49,0.009513
2829,1.3047,3.6745,0.1,0.00054833,5479.5,0.00056575,6350.5,-3.0442e-05,1871,-0.00024738,240.97,0.0099851
2830,2.4683,4.7236,0.1,0.00053217,5318,0.00054007,5617.4,-0.00011665,683.01,-0.00020958,-15.25,0.033353
2831,3.2122,4.7542,0.1,0.00051928,5189.3,0.00052575,5415.4,-0.00012869,498.22,-0.00019615,-8.6849,0.05627
2832,3.953,4.7598,0.1,0.00050201,5016.6,0.00050696,5184.3,-0.00013319,374.48,-0.00018519,-16.201,0.084936
2833,4.6743,4.7507,0.1,0.00048219,4818.6,0.00048618,4947.2,-0.00013606,271.96,-0.00017265,-2.9262,0.11824
2834,5.3893,4.7514,0.1,0.00046333,4630.1,0.00046626,4722.3,-0.00013628,195.12,-0.00016281,-4.2403,0.15621
2835,6.1088,4.7528,0.1,0.00044437,4440.7,0.00044655,4508,-0.00013461,141.48,-0.00015386,-3.1656,0.19922
2836,6.8304,4.7512,0.1,0.00042461,4243.2,0.00042624,4292.8,-0.00013154,101.94,-0.0001452,-0.70798,0.24702
2837,7.5503,4.7519,0.1,0.0004045,4042.2,0.00040566,4077.2,-0.00012752,71.051,-0.000137,-0.17763,0.29912
2838,8.2687,4.759,0.1,0.0003846,3843.4,0.00038538,3866.7,-0.0001229,47.646,-0.00012933,-0.65262,0.35526
2839,8.9845,4.7674,0.1,0.00036478,3645.3,0.00036528,3660.2,-0.00011784,30.171,-0.00012189,-0.26475,0.41517
2840,9.7016,4.7709,0.1,0.00034501,3447.7,0.00034529,3456,-0.00011243,16.917,-0.00011471,-0.20285,0.47895
2841,10.425,4.7707,0.1,0.00032521,3249.8,0.00032532,3253,-0.00010675,6.6102,-0.00010767,-0.28789,0.54687
2842,11.148,4.7601,0.1,0.00030564,3054.3,0.00030562,3053.6,-0.00010074,0.40348,-0.00010104,-1.8757,0.61822
2843,11.866,4.7489,0.1,0.00028647,2862.7,0.00028632,2858.4,-9.4047e-05,0.4366,-9.532e-05,-9.1312,0.69225
2844,12.584,4.7444,0.1,0.00026751,2673.2,0.00026722,2665,-8.7409e-05,0.39061,-8.9704e-05,-16.85,0.76918
2845,13.302,4.7382,0.1,0.00024873,2485.6,0.0002483,2473.1,-8.0758e-05,0.72172,-8.4236e-05,-25.415,0.84886
2846,14.011,4.7375,0.1,0.00023084,2306.8,0.00023021,2288.5,-7.4407e-05,-0.24614,-7.917e-05,-36.038,0.9301
2847,21.77,1.3062,0.1,4.605e-05,460.18,4.6045e-05,460.06,-1.5133e-05,0.38588,-1.5268e-05,-0.62573,1.9568
2848,22.406,1.3204,0.1,3.4122e-05,340.98,3.3672e-05,328.92,-1.0086e-05,0.14089,-1.3176e-05,-23.078,2.0482
2849,21.136,1.2854,0.1,5.7988e-05,579.48,5.8294e-05,588.89,-1.7596e-05,18.682,-2.0008e-05,0.55967,1.866
2850,21.463,1.6283,0.1,5.2012e-05,519.76,5.2301e-05,528.77,-1.5548e-05,18.977,-1.8131e-05,-0.42675,1.9129
2851,20.511,1.2612,0.1,6.9466e-05,694.18,6.9832e-05,706.08,-2.0281e-05,29.009,-2.4678e-05,-4.0323,1.7769
2852,20.834,1.5958,0.1,6.4444e-05,644,6.5106e-05,665.75,-1.7454e-05,45.42,-2.3441e-05,0.43826,1.8231
2853,14.991,1.2265,0.1,0.0002062,2060.6,0.00020501,2027.5,-6.4205e-05,4.754,-7.4005e-05,-68.879,1.046
2854,14.327,1.2458,0.1,0.00022347,2233.1,0.00022272,2211.9,-7.1743e-05,-0.64801,-7.7154e-05,-41.302,0.96701
2855,13.662,1.2562,0.1,0.00023992,2397.6,0.00023946,2384.1,-7.768e-05,1.2922,-8.1564e-05,-27.886,0.88976
2856,12.998,1.264,0.1,0.00025682,2566.5,0.00025649,2556.8,-8.3728e-05,0.50649,-8.6427e-05,-19.769,0.81488
2857,12.333,1.2669,0.1,0.0002741,2739.1,0.00027389,2733,-8.9804e-05,0.28481,-9.1523e-05,-12.631,0.74209
2858,11.667,1.2669,0.1,0.00029171,2915.1,0.0002916,2912,-9.5946e-05,0.1278,-9.6787e-05,-6.1926,0.67151
2859,11,1.2669,0.1,0.00030955,3093.3,0.00030956,3093.8,-0.00010208,0.87512,-0.00010219,0.02244,0.60352
2860,10.333,1.2669,0.1,0.00032762,3274,0.00032777,3278.3,-0.00010739,8.7216,-0.00010854,0.07487,0.53828
2861,9.6667,1.2669,0.1,0.00034586,3456.2,0.00034617,3465.4,-0.00011258,18.532,-0.00011506,-0.0809,0.47595
2862,9,1.2669,0.1,0.00036423,3639.8,0.00036474,3655,-0.0001176,30.908,-0.00012175,-0.28253,0.41669
2863,8.3333,1.2669,0.1,0.0003827,3824.4,0.00038346,3847.2,-0.00012235,46.765,-0.00012865,-0.57673,0.36067
2864,7.6667,1.2669,0.1,0.00040116,4008.9,0.00040225,4041.6,-0.00012669,67.358,-0.00013579,-0.98373,0.30806
2865,7,1.2669,0.1,0.00041957,4192.8,0.00042107,4238.5,-0.00013049,94.29,-0.00014321,-1.3472,0.25902
2866,6.3333,1.2669,0.1,0.00043783,4375.3,0.00043987,4438,-0.00013345,130.33,-0.00015105,-1.8895,0.21373
2867,5.6667,1.2669,0.1,0.00045598,4556.7,0.00045871,4642.1,-0.00013543,177.99,-0.00015935,-1.7137,0.17235
2868,5,1.2669,0.1,0.00047405,4737.2,0.00047761,4850.7,-0.00013616,239.15,-0.00016837,-2.8783,0.13504
2869,4.33,1.259,0.1,0.00049136,4910.2,0.00049586,5057.8,-0.00013513,316.82,-0.00017806,-5.7517,0.10179
2870,3.6567,1.2518,0.1,0.00050789,5075.4,0.0005135,5266.6,-0.0001318,418.06,-0.00018858,-8.5908,0.072865
2871,2.985,1.2582,0.1,0.00052324,5228.7,0.00053035,5482.7,-0.00012481,560.06,-0.00020016,-6.1096,0.048689
2872,2.3153,1.2737,0.1,0.00053662,5362.5,0.0005444,5675.1,-0.00011134,748.09,-0.00021576,-36.426,0.029344
2873,1.6475,1.2948,0.1,0.00054246,5420.9,0.00055523,5942.8,-8.6929e-05,1117.8,-0.00022546,76.961,0.014858
2874,21.161,1.9387,0.1,5.8504e-05,584.64,5.9133e-05,605.78,-1.5424e-05,45.588,-2.1567e-05,-0.57173,1.8698
2875,21.367,4.7263,0.1,5.3703e-05,536.66,5.3927e-05,543.48,-1.6584e-05,13.684,-1.8379e-05,0.19652,1.8989
2876,20.773,4.7497,0.1,6.4843e-05,647.98,6.5179e-05,659.19,-1.8666e-05,29.22,-2.3275e-05,-5.4103,1.8141
2877,21.956,4.7297,0.1,4.2538e-05,425.09,4.2445e-05,422.42,-1.3693e-05,0.62037,-1.456e-05,-5.896,1.9834
2878,22.531,4.7116,0.1,3.1811e-05,317.89,3.1253e-05,303.31,-9.0553e-06,0.44616,-1.2807e-05,-27.739,2.0661
2879,20.873,2.2516,0.1,6.5177e-05,651.32,6.6146e-05,685.3,-1.55e-05,71.844,-2.4825e-05,1.7793,1.8289
2880,18.996,5.1984,0.1,6.8766e-05,687.19,6.7894e-05,663.2,-2.0835e-05,-3.4728,-2.607e-05,-42.807,1.5628
2881,19.007,2.3557,0.1,0.00015308,1529.8,0.00015364,1547.6,-4.6399e-05,44.518,-5.3333e-05,-7.5828,1.5659
2882,18.007,3.0095,0.1,0.00029302,2928.2,0.00028542,2735.3,-7.8866e-05,-1.767,-0.00012554,-352.44,1.4299
2883,18.441,5.3024,0.1,5.0583e-05,505.48,5.0686e-05,509.64,-1.4631e-05,18.877,-1.8392e-05,-9.3832,1.4851
2884,18.379,3.6844,0.1,0.00031807,3178.5,0.00031045,2970.5,-9.3851e-05,-67.254,-0.00012912,-332.28,1.4794
2885,17.979,2.1206,0.1,0.0005086,5082.5,0.00048144,4493.2,-0.00010073,119.01,-0.00026062,-1082.3,1.425
2886,18.18,3.8677,0.1,0.00046924,4689.2,0.00046304,4559.4,-0.00011878,187.8,-0.00019612,-393.26,1.4521
2887,18.167,0.5,0.1,3.6756e-05,367.3,3.7346e-05,386.4,-9.4411e-06,34.861,-1.3397e-05,5.1377,1.4465
2888,18.167,0.16667,0.1,2.3469e-05,234.53,2.5526e-05,306.96,-7.6363e-07,109.42,-8.9713e-06,47.754,1.4459
2889,18.167,0.33333,0.05,7.1758e-06,71.708,5.5101e-06,41.401,4.9827e-13,5.9959e-06,-5.5101e-06,-41.401,1.4462
2890,18.167,0.83333,0.1,5.7349e-05,573.1,5.5895e-05,540.24,-1.3844e-05,16.252,-2.556e-05,-71.777,1.4471
2891,18.167,0.66667,0.05,7.8323e-06,78.269,6.0143e-06,45.189,6.3535e-13,3.7026e-06,-6.0143e-06,-45.189,1.4468
2892,18.167,1.1667,0.1,9.5971e-05,959.05,9.1402e-05,864.82,-1.8289e-05,40.641,-4.8697e-05,-187.84,1.4478
2893,18.167,1,0.05,1.3137e-05,131.28,1.0088e-05,75.794,5.6408e-13,-7.8349e-07,-1.0088e-05,-75.794,1.4474
2894,18.167,1.5,0.1,0.00017283,1727.1,0.00015773,1428.1,-2.3644e-05,65.313,-0.00010078,-514.22,1.4485
2895,18.167,1.3333,0.05,2.6206e-05,261.88,2.0123e-05,151.19,4.3167e-13,3.6211e-06,-2.0123e-05,-151.19,1.4481
2896,18.167,1.8333,0.1,0.00037389,3736.3,0.00036996,3685.5,-8.4664e-05,269.59,-0.0001611,-304.71,1.4494
2897,18.167,1.6667,0.05,5.0796e-05,507.61,3.9005e-05,293.07,-8.2735e-21,-6.2164e-14,-3.9005e-05,-293.07,1.4489
2898,18.083,2,0.1,0.00049026,4899.3,0.00049309,5035.8,-0.00011542,463.64,-0.00019517,-135.51,1.4386
2899,18.167,2,0.05,3.5188e-05,351.64,2.702e-05,203.02,1.0928e-11,4.069e-05,-2.702e-05,-203.02,1.4499
2900,18,1.8333,0.1,0.00042037,4200.8,0.00038407,3534.7,-4.7603e-05,291.21,-0.00024749,-1210.7,1.4268
2901,18,2,0.05,6.051e-05,604.69,4.6465e-05,349.12,1.4849e-11,0.00016526,-4.6465e-05,-349.12,1.4275
2902,18,1.5,0.1,0.00023043,2302.7,0.00019331,1615.1,-1.2043e-05,72.198,-0.00015896,-1031.7,1.4253
2903,18,1.6667,0.05,6.6569e-05,665.23,5.1117e-05,384.07,1.3918e-13,-5.2944e-06,-5.1117e-05,-384.07,1.4261
2904,18,1.1667,0.1,0.00013733,1372.3,0.00012033,1050.6,-1.2222e-05,54.696,-8.8013e-05,-514.76,1.4238
2905,18,1.3333,0.05,4.1687e-05,416.58,3.201e-05,240.51,-6.7899e-21,1.4774e-05,-3.201e-05,-240.51,1.4246
2906,18,0.83333,0.1,8.5856e-05,857.97,7.9626e-05,745.19,-1.0786e-05,65.863,-4.8695e-05,-218.97,1.4224
2907,18,1,0.05,2.4984e-05,249.67,1.9185e-05,144.15,1.711e-12,-3.0575e-14,-1.9185e-05,-144.15,1.4231
2908,18,0.5,0.1,5.0815e-05,507.8,5.2139e-05,551.18,-1.1434e-05,73.518,-1.8844e-05,17.836,1.4209
2909,18,0.66667,0.05,1.2084e-05,120.75,9.2787e-06,69.717,1.2334e-12,7.6294e-06,-9.2787e-06,-69.717,1.4216
2910,18,0.16667,0.1,3.1921e-05,318.99,3.4463e-05,399.41,-4.2846e-06,108.27,-1.0918e-05,58.433,1.4195
2911,18,0.33333,0.05,6.6637e-06,66.591,5.1169e-06,38.446,1.3406e-12,1.6605e-05,-5.1169e-06,-38.446,1.4202
2912,18.167,5.5,0.1,3.8348e-05,383.21,3.9512e-05,417.56,-1.091e-05,38.711,-1.2053e-05,30.124,1.4464
2913,18.167,5.8333,0.1,2.0468e-05,204.54,2.2218e-05,264.18,-1.261e-06,87.771,-7.6217e-06,39.98,1.4458
2914,18.167,5.6667,0.05,5.3681e-06,53.644,4.122e-06,30.971,1.2413e-12,1.4674e-05,-4.122e-06,-30.971,1.4461
2915,18.167,5.1667,0.1,6.2767e-05,627.24,6.1863e-05,610.09,-1.4981e-05,32.722,-2.6961e-05,-57.291,1.447
2916,18.167,5.3333,0.05,7.7813e-06,77.759,5.975e-06,44.894,2.7336e-13,1.6004e-06,-5.975e-06,-44.894,1.4467
2917,18.167,4.8333,0.1,0.00010494,1048.7,0.00010124,974.39,-2.1231e-05,54.155,-5.0713e-05,-167.36,1.4477
2918,18.167,5,0.05,1.4684e-05,146.74,1.1276e-05,84.721,-8.6712e-14,-4.5421e-06,-1.1276e-05,-84.721,1.4473
2919,18.167,4.5,0.1,0.00018203,1819,0.0001725,1627.2,-3.2511e-05,86.808,-9.4592e-05,-379.65,1.4485
2920,18.167,4.6667,0.05,2.6601e-05,265.83,2.0427e-05,153.48,3.9048e-13,7.27e-06,-2.0427e-05,-153.48,1.4481
2921,18.167,4.1667,0.1,0.00038407,3838,0.00038099,3826.1,-8.1726e-05,349.43,-0.00016714,-292.36,1.4494
2922,18.167,4.3333,0.05,4.4267e-05,442.37,3.3992e-05,255.4,-3.7191e-13,-1.2479e-05,-3.3992e-05,-255.4,1.4489
2923,18.083,4,0.1,0.00049289,4925.5,0.00049791,5111.9,-0.00012089,462.54,-0.00018905,-49.626,1.4386
2924,18.167,4,0.05,5.8643e-05,586.03,4.5031e-05,338.34,4.3908e-12,2.9247e-06,-4.5031e-05,-338.34,1.4499
2925,18,4.1667,0.1,0.00041823,4179.4,0.00038788,3597.9,-5.9077e-05,239.68,-0.00023507,-1082.6,1.4268
2926,18,4,0.05,2.5779e-05,257.61,1.9795e-05,148.73,-3.5357e-21,1.5664e-06,-1.9795e-05,-148.73,1.4274
2927,18,4.5,0.1,0.0002391,2389.4,0.00019622,1608.4,-7.6221e-06,76.83,-0.00017021,-1144.8,1.4253
2928,18,4.3333,0.05,7.8145e-05,780.91,6.0005e-05,450.86,-1.2728e-20,-9.5633e-14,-6.0005e-05,-450.86,1.426
2929,18,4.8333,0.1,0.0001257,1256.1,0.00010709,907.42,-8.3891e-06,39.718,-8.4616e-05,-533.02,1.4238
2930,18,4.6667,0.05,5.1016e-05,509.81,3.9174e-05,294.34,6.2652e-14,-6.2434e-14,-3.9174e-05,-294.34,1.4246
2931,18,5.1667,0.1,7.8861e-05,788.07,7.176e-05,648.38,-1.0408e-05,30.994,-4.6378e-05,-239.26,1.4224
2932,18,5,0.05,2.413e-05,241.13,1.8529e-05,139.22,1.985e-13,1.6822e-05,-1.8529e-05,-139.22,1.4231
2933,18,5.5,0.1,4.9438e-05,494.04,4.8555e-05,481.45,-9.9678e-06,41.725,-2.2596e-05,-53.159,1.4209
2934,18,5.3333,0.05,1.4256e-05,142.46,1.0947e-05,82.248,1.0756e-13,1.0299e-05,-1.0947e-05,-82.248,1.4216
2935,18,5.8333,0.1,2.17e-05,216.85,2.3253e-05,264.4,-3.8959e-06,60.411,-7.0594e-06,36.642,1.4195
2936,18,5.6667,0.05,8.7691e-06,87.63,6.7336e-06,50.593,8.0525e-13,2.1294e-06,-6.7336e-06,-50.593,1.4202
2937,18.458,6,0.1,2.7789e-05,277.7,2.8719e-05,306.06,-6.8622e-06,38.713,-9.4787e-06,19.053,1.4863
2938,18.167,6,0.05,4.0753e-06,40.725,3.1293e-06,23.513,-2.9088e-13,2.3833e-06,-3.1293e-06,-23.513,1.4455
2939,19.042,6,0.1,5.1481e-05,514.46,5.0885e-05,497.42,-1.6301e-05,-7.3848,-1.8802e-05,-26.181,1.5681
2940,18.75,6,0.05,7.4326e-07,7.4274,5.7073e-07,4.2882,-5.35e-13,-4.4879e-06,-5.7073e-07,-4.2882,1.5272
2941,19.625,6,0.1,6.5522e-05,654.77,6.4698e-05,630.86,-2.1317e-05,-15.425,-2.3533e-05,-32.077,1.6502
2942,19.333,6,0.05,2.1199e-06,21.185,1.6278e-06,12.231,5.2627e-13,7.3871e-06,-1.6278e-06,-12.231,1.6091
2943,20.208,6,0.1,6.7084e-05,670.38,6.6591e-05,656.26,-2.1353e-05,-4.5168,-2.3856e-05,-23.322,1.7327
2944,19.917,6,0.05,2.8372e-06,28.353,2.1786e-06,16.369,9.0871e-13,1.2149e-05,-2.1786e-06,-16.369,1.6914
2945,20.792,6,0.1,6.2092e-05,620.49,6.1779e-05,611.58,-1.9728e-05,-0.83203,-2.1838e-05,-16.685,1.8157
2946,20.5,6,0.05,2.3803e-06,23.787,1.8278e-06,13.733,9.6314e-13,1.2303e-05,-1.8278e-06,-13.733,1.7741
2947,21.375,6,0.1,5.3416e-05,533.79,5.3147e-05,526.08,-1.7093e-05,-1.6736,-1.8673e-05,-13.545,1.8991
2948,21.083,6,0.05,2.9936e-06,29.915,2.2987e-06,17.271,9.0948e-13,1.2875e-05,-2.2987e-06,-17.271,1.8573
2949,21.958,6,0.1,4.2385e-05,423.56,4.2076e-05,414.85,-1.3289e-05,-1.1405,-1.5252e-05,-15.894,1.9829
2950,21.667,6,0.05,3.2138e-06,32.116,2.4678e-06,18.542,9.0939e-13,1.3351e-05,-2.4678e-06,-18.542,1.9409
2951,22.542,6,0.1,3.0632e-05,306.11,3.0173e-05,293.54,-9.1935e-06,-2.2464,-1.1815e-05,-21.946,2.0669
2952,22.25,6,0.05,3.1778e-06,31.756,2.4402e-06,18.335,9.0798e-13,1.3329e-05,-2.4402e-06,-18.335,2.0248
2953,23.125,6,0.1,1.8707e-05,186.94,1.8043e-05,170.23,-4.8569e-06,-1.8264,-8.4321e-06,-28.689,2.1511
2954,22.833,6,0.05,2.8183e-06,28.164,2.1641e-06,16.261,9.0949e-13,1.3604e-05,-2.1641e-06,-16.261,2.109
2955,23.708,6,0.1,9.1332e-06,91.269,8.202e-06,72.333,-1.2291e-06,1.4714,-5.5048e-06,-30.654,2.2354
2956,23.417,6,0.05,2.3327e-06,23.311,1.7912e-06,13.459,1.3112e-12,1.8358e-05,-1.7912e-06,-13.459,2.1933
2957,24,5.6667,0.1,7.3612e-06,73.561,5.4875e-06,42.697,5.0539e-07,5.2629,-5.7919e-06,-42.053,2.2778
2958,24,6,0.05,1.3986e-06,13.977,1.074e-06,8.0694,1.6104e-12,1.7412e-05,-1.074e-06,-8.0694,2.2776
2959,24,5,0.1,1.0598e-05,105.91,7.1497e-06,51.679,1.4699e-06,9.0027,-8.8995e-06,-68.909,2.2782
2960,24,5.3333,0.05,1.5457e-06,15.446,1.1869e-06,8.9179,6.226e-13,1.2912e-05,-1.1869e-06,-8.9179,2.278
2961,24,4.3333,0.1,1.2699e-05,126.9,8.066e-06,54.697,2.1167e-06,9.9959,-1.0993e-05,-88.503,2.2785
2962,24,4.6667,0.05,1.4994e-06,14.984,1.1514e-06,8.6511,9.1858e-13,1.5318e-05,-1.1514e-06,-8.6511,2.2783
2963,24,3.6667,0.1,1.3573e-05,135.64,8.451e-06,55.729,2.3462e-06,9.86,-1.1862e-05,-96.898,2.2786
2964,24,4,0.05,1.4501e-06,14.491,1.1135e-06,8.3664,6.821e-13,1.3351e-05,-1.1135e-06,-8.3664,2.2785
2965,24,3,0.1,1.3817e-05,138.07,8.5095e-06,55.651,2.479e-06,10.34,-1.2125e-05,-99.385,2.2787
2966,24,3.3333,0.05,1.4581e-06,14.571,1.1197e-06,8.4128,1.1361e-12,1.5253e-05,-1.1197e-06,-8.4128,2.2787
2967,24,2.3333,0.1,1.3628e-05,136.18,8.4928e-06,56.399,2.3872e-06,10.524,-1.1897e-05,-96.799,2.2787
2968,24,2.6667,0.05,1.47e-06,14.69,1.1288e-06,8.481,9.0964e-13,1.526e-05,-1.1288e-06,-8.481,2.2787
2969,24,1.6667,0.1,1.2886e-05,128.77,8.3359e-06,58.153,2.0972e-06,11.278,-1.1048e-05,-87.487,2.2785
2970,24,2,0.05,1.4839e-06,14.829,1.1395e-06,8.5615,1.1353e-12,1.334e-05,-1.1395e-06,-8.5615,2.2786
2971,24,1,0.1,1.0932e-05,109.25,7.7061e-06,58.537,1.3156e-06,10.521,-8.9346e-06,-66.495,2.2783
2972,24,1.3333,0.05,1.5401e-06,15.39,1.1826e-06,8.8854,1.142e-12,1.7227e-05,-1.1826e-06,-8.8853,2.2784
2973,24,0.33333,0.1,7.7815e-06,77.762,6.1103e-06,50.469,3.5242e-07,7.2064,-5.8376e-06,-39.303,2.278
2974,24,0.66667,0.05,1.6037e-06,16.026,1.2314e-06,9.2525,1.7121e-12,2.3747e-05,-1.2314e-06,-9.2525,2.2781
2975,8.7419e-15,1,0.1,0.00036748,3672.3,0.00048978,7266.9,2.5603e-06,3606.1,-4.8733e-07,3583.2,0
2976,2.914e-15,0.33333,0.1,0.00026608,2659,0.00034841,5080.2,-1.7305e-07,2461.1,-1.0571e-05,2383,0
2977,5.9068e-15,0.66667,0.05,2.0578e-05,205.63,1.5801e-05,118.72,-1.0462e-14,-8.3582e-08,-1.5801e-05,-118.72,0
2978,1.457e-14,1.6667,0.1,0.00040284,4025.6,0.0005366,7957.3,2.9598e-06,3947.7,-1.2819e-06,3915.8,0
2979,1.1814e-14,1.3333,0.05,8.0144e-06,80.089,6.1541e-06,46.239,-1.4302e-13,-1.0283e-06,-6.1541e-06,-46.239,0
2980,2.0398e-14,2.3333,0.1,0.00042019,4199,0.00055927,8286.7,1.303e-06,4094.4,-4.7004e-07,4081.1,0
2981,1.772e-14,2,0.05,6.7602e-06,67.555,5.191e-06,39.003,-3.781e-14,-3.1718e-07,-5.191e-06,-39.003,0
2982,2.6226e-14,3,0.1,0.00042531,4250.2,0.00056597,8384.2,6.288e-07,4136.5,-2.7016e-08,4131.6,0
2983,2.3627e-14,2.6667,0.05,4.7595e-06,47.562,3.6547e-06,27.46,-3.2101e-21,-5.8247e-15,-3.6547e-06,-27.46,0
2984,3.2054e-14,3.6667,0.1,0.00042057,4202.8,0.00055979,8294.7,1.3274e-06,4098.7,-4.5603e-07,4085.3,0
2985,2.9534e-14,3.3333,0.05,4.6434e-06,46.402,3.5655e-06,26.79,3.7771e-16,2.8452e-09,-3.5655e-06,-26.79,0
2986,3.7882e-14,4.3333,0.1,0.0004036,4033.2,0.00053765,7973.5,3.094e-06,3957,-1.3308e-06,3923.8,0
2987,3.5441e-14,4,0.05,7.0855e-06,70.806,5.4408e-06,40.88,-7.6577e-14,-5.7814e-07,-5.4408e-06,-40.88,0
2988,4.371e-14,5,0.1,0.0003695,3692.5,0.00049245,7306.2,2.4505e-06,3624.5,-4.1598e-07,3603,0
2989,4.1348e-14,4.6667,0.05,8.2605e-06,82.548,6.3431e-06,47.659,-1.0183e-13,-6.8339e-07,-6.3431e-06,-47.659,0
2990,4.9538e-14,5.6667,0.1,0.00027373,2735.4,0.0003585,5228.7,-1.4123e-07,2534,-1.074e-05,2454.4,0
2991,4.7254e-14,5.3333,0.05,2.2912e-05,228.96,1.7593e-05,132.19,-1.4594e-14,-1.061e-07,-1.7593e-05,-132.19,0
2992,0.35947,6,0.1,0.00039215,3918.8,0.0004129,4545,-8.7859e-05,782.52,-0.00012722,486.8,0.0002839
2993,5.2451e-14,6,0.05,0.00017824,1781.1,0.00013686,1028.3,-2.9031e-20,-8.7732e-07,-0.00013686,-1028.3,0
2994,1.0784,6,0.1,0.00058718,5867.8,0.00058522,5814.9,-0.0001824,47.206,-0.00020841,-148.22,0.0038534
2995,0.71893,6,0.05,4.8035e-05,480.02,3.6885e-05,277.14,-7.8238e-21,-5.8785e-14,-3.6885e-05,-277.14,0.0013952
2996,1.7973,6,0.1,0.00060145,6010.4,0.00060557,6132.8,-0.00018739,174.74,-0.00020115,71.367,0.013255
2997,1.4379,6,0.05,3.2171e-05,321.48,2.4703e-05,185.61,-5.2399e-21,-3.937e-14,-2.4703e-05,-185.61,0.0077408
2998,2.5163,6,0.1,0.00058096,5805.6,0.00058386,5892.8,-0.00018045,150.08,-0.00019692,26.327,0.028826
2999,2.1568,6,0.05,1.4595e-05,145.85,1.1207e-05,84.208,-2.3773e-21,-1.7862e-14,-1.1207e-05,-84.208,0.020243
3000,3.2352,6,0.1,0.00055574,5553.5,0.00055838,5632.5,-0.00017385,130.77,-0.00018747,28.456,0.050393
3001,2.8757,6,0.05,7.3057e-06,73.006,5.6098e-06,42.15,-1.1899e-21,-8.9407e-15,-5.6098e-06,-42.15,0.038839
3002,3.9541,6,0.1,0.00052991,5295.5,0.0005319,5354.7,-0.00016742,100.37,-0.00017823,19.15,0.077715
3003,3.5947,6,0.05,3.8576e-06,38.549,2.9622e-06,22.256,-6.2832e-22,3.2837e-06,-2.9622e-06,-22.256,0.063316
3004,4.6731,6,0.1,0.00050412,5037.7,0.00050564,5082.9,-0.00016069,76.385,-0.00016891,14.68,0.11053
3005,4.3136,6,0.05,1.8398e-06,18.385,1.4127e-06,10.615,3.9015e-15,3.2729e-08,-1.4127e-06,-10.615,0.093421
3006,5.392,6,0.1,0.00047939,4790.6,0.00048052,4824,-0.00015407,55.984,-0.00016003,11.195,0.14858
3007,5.0325,6,0.05,2.6093e-06,26.075,2.0036e-06,15.054,5.0958e-14,3.0751e-06,-2.0036e-06,-15.054,0.12889
3008,6.1109,6,0.1,0.00045585,4555.4,0.00045666,4579.2,-0.00014752,39.646,-0.00015171,8.1924,0.1916
3009,5.7515,6,0.05,3.9025e-06,38.998,2.9966e-06,22.515,-6.3562e-22,4.4971e-07,-2.9966e-06,-22.515,0.16945
3010,6.8299,6,0.1,0.00043314,4328.5,0.00043369,4344.7,-0.000141,26.62,-0.00014376,5.9025,0.23933
3011,6.4704,6,0.05,4.7306e-06,47.274,3.6325e-06,27.293,6.1394e-14,-4.7032e-08,-3.6325e-06,-27.293,0.21486
3012,7.5488,6,0.1,0.000411,4107.1,0.00041134,4117.3,-0.00013448,16.236,-0.00013608,4.166,0.29155
3013,7.1893,6,0.05,5.6456e-06,56.417,4.3351e-06,32.572,-3.9926e-14,6.1135e-07,-4.3351e-06,-32.572,0.26486
3014,8.2678,6,0.1,0.00038934,3890.7,0.00038953,3896.2,-0.00012793,8.2173,-0.00012865,2.8242,0.34801
3015,7.9083,6,0.05,6.121e-06,61.168,4.7002e-06,35.315,-9.9697e-22,3.802e-06,-4.7002e-06,-35.315,0.31923
3016,8.9867,6,0.1,0.00036816,3679,0.00036823,3681.1,-0.00012134,2.7214,-0.0001215,1.4963,0.40849
3017,8.6272,6,0.05,6.5295e-06,65.25,5.0138e-06,37.672,-3.286e-14,3.8097e-06,-5.0138e-06,-37.672,0.37773
3018,9.7056,6,0.1,0.00034739,3471.5,0.00034737,3471,-0.00011441,1.4039,-0.0001149,-2.2793,0.47277
3019,9.3462,6,0.05,6.6331e-06,66.285,5.0934e-06,38.27,-1.0804e-21,3.6513e-06,-5.0934e-06,-38.27,0.44014
3020,10.425,6,0.1,0.00032697,3267.4,0.00032688,3264.8,-0.00010752,0.9266,-0.00010845,-6.0411,0.54063
3021,10.065,6,0.05,6.7645e-06,67.599,5.1943e-06,39.028,-1.1018e-21,3.8141e-06,-5.1943e-06,-39.028,0.50624
3022,11.143,6,0.1,0.00030687,3066.6,0.00030673,3062.3,-0.00010078,0.44919,-0.00010205,-9.0911,0.61185
3023,10.784,6,0.05,6.7948e-06,67.902,5.2176e-06,39.203,-1.1067e-21,3.8485e-06,-5.2176e-06,-39.203,0.57581
3024,11.862,6,0.1,0.00028704,2868.4,0.00028682,2862.2,-9.4151e-05,-0.28811,-9.5708e-05,-11.988,0.68623
3025,11.503,6,0.05,6.8316e-06,68.269,5.2458e-06,39.415,1.3048e-15,4.7684e-06,-5.2458e-06,-39.415,0.64864
3026,12.581,6,0.1,0.00026737,2671.9,0.0002671,2664.1,-8.7556e-05,-0.71241,-8.9436e-05,-14.839,0.76356
3027,12.222,6,0.05,6.6143e-06,66.097,5.0789e-06,38.161,-1.0773e-21,5.6624e-06,-5.0789e-06,-38.161,0.72452
3028,13.3,6,0.1,0.00024785,2476.8,0.00024752,2467.2,-8.1025e-05,-1.3858,-8.3204e-05,-17.758,0.84364
3029,12.941,6,0.05,6.4586e-06,64.541,4.9594e-06,37.263,-1.052e-21,5.7367e-06,-4.9594e-06,-37.263,0.80325
3030,14.019,6,0.1,0.00022804,2278.8,0.00022759,2265.9,-7.4345e-05,-2.7497,-7.7028e-05,-22.912,0.92626
3031,13.66,6,0.05,6.2999e-06,62.956,4.8376e-06,36.347,-1.0261e-21,5.7194e-06,-4.8376e-06,-36.347,0.88463
3032,14.738,6,0.1,0.00020707,2069.3,0.00020638,2049.3,-6.7268e-05,-6.8258,-7.0746e-05,-32.959,1.0112
3033,14.379,6,0.05,6.08e-06,60.758,4.6687e-06,35.079,1.8136e-12,7.6066e-06,-4.6687e-06,-35.079,0.96845
3034,15.457,6,0.1,0.00018224,1821.1,0.00018114,1789.5,-5.8437e-05,-10.562,-6.3943e-05,-51.934,1.0983
3035,15.098,6,0.05,5.8086e-06,58.046,4.4603e-06,33.513,2.9461e-14,7.0946e-06,-4.4603e-06,-33.513,1.0545
3036,16.176,6,0.1,0.00015017,1500.6,0.00014858,1455.9,-4.7005e-05,-13.698,-5.503e-05,-73.995,1.1873
3037,15.817,6,0.05,6.0322e-06,60.28,4.632e-06,34.803,1.1592e-12,5.3979e-06,-4.632e-06,-34.803,1.1426
3038,16.895,6,0.1,0.00011083,1107.5,0.00010821,1034.3,-3.3986e-05,-34.123,-4.3889e-05,-108.53,1.2778
3039,16.536,6,0.05,4.8068e-06,48.035,3.6911e-06,27.733,3.3777e-14,8.887e-06,-3.6911e-06,-27.733,1.2323
3040,17.447,6,0.1,6.5071e-05,650.26,6.2924e-05,593.74,-1.8064e-05,-14.762,-2.8273e-05,-91.47,1.3481
3041,17.254,6,0.05,6.5903e-06,65.857,5.0605e-06,38.023,5.4387e-13,5.8593e-06,-5.0605e-06,-38.023,1.3234
3042,17.82,6,0.1,2.5893e-05,258.75,2.6531e-05,278.99,-6.2779e-06,32.476,-9.3318e-06,9.5297,1.3958
3043,17.641,6,0.05,3.5215e-06,35.191,2.7041e-06,20.318,-8.3761e-14,3.6603e-06,-2.7041e-06,-20.318,1.3728
3044,18,6,0.05,5.3418e-06,53.381,4.1018e-06,30.819,-5.4187e-13,1.9288e-07,-4.1018e-06,-30.819,1.4188
3045,23.676,0,0.1,1.002e-05,100.13,9.22e-06,83.84,-1.5345e-06,3.0339,-5.6884e-06,-28.177,2.2309
3046,24,0,0.05,1.4923e-06,14.912,1.1459e-06,8.6096,2.638e-12,2.0565e-05,-1.1459e-06,-8.6097,2.2778
3047,23.028,0,0.1,2.0704e-05,206.9,2.0112e-05,191.75,-5.586e-06,-1.3335,-8.9537e-06,-26.637,2.1372
3048,23.352,0,0.05,2.4833e-06,24.816,1.9068e-06,14.327,1.3805e-12,1.3854e-05,-1.9068e-06,-14.327,2.184
3049,22.38,0,0.1,3.3875e-05,338.52,3.3472e-05,327.33,-1.0374e-05,-2.115,-1.27e-05,-19.596,2.0437
3050,22.704,0,0.05,2.9374e-06,29.354,2.2556e-06,16.948,1.1229e-12,1.3619e-05,-2.2556e-06,-16.948,2.0904
3051,21.731,0,0.1,4.66e-05,465.68,4.6336e-05,458.18,-1.4765e-05,-0.91228,-1.6483e-05,-13.818,1.9504
3052,22.056,0,0.05,3.1944e-06,31.922,2.4529e-06,18.43,1.1368e-12,1.3866e-05,-2.4529e-06,-18.43,1.997
3053,21.083,0,0.1,5.7898e-05,578.58,5.7646e-05,571.32,-1.8666e-05,-2.0616,-2.0032e-05,-12.332,1.8575
3054,21.407,0,0.05,3.1545e-06,31.523,2.4222e-06,18.2,9.0696e-13,1.3807e-05,-2.4222e-06,-18.2,1.9039
3055,20.435,0,0.1,6.5797e-05,657.52,6.542e-05,646.61,-2.1251e-05,-4.6059,-2.2906e-05,-17.045,1.7651
3056,20.759,0,0.05,2.9378e-06,29.358,2.2559e-06,16.95,9.0949e-13,1.235e-05,-2.2559e-06,-16.95,1.8112
3057,19.787,0,0.1,6.625e-05,662.04,6.5555e-05,642.05,-2.1223e-05,-9.9633,-2.3833e-05,-29.575,1.6732
3058,20.111,0,0.05,2.3846e-06,23.83,1.8311e-06,13.758,4.5013e-13,1.2045e-05,-1.8311e-06,-13.758,1.7191
3059,19.139,0,0.1,5.3894e-05,538.57,5.3207e-05,519.79,-1.623e-05,-1.9293,-2.0521e-05,-34.174,1.5819
3060,19.463,0,0.05,1.6585e-06,16.574,1.2735e-06,9.5688,4.9097e-13,1.1278e-05,-1.2735e-06,-9.5688,1.6275
3061,18.491,0,0.1,3.0704e-05,306.83,3.1946e-05,345.04,-6.9894e-06,52.495,-1.0557e-05,25.689,1.491
3062,18.815,0,0.05,1.6829e-06,16.818,1.2923e-06,9.7098,1.0043e-13,4.8663e-06,-1.2923e-06,-9.7097,1.5364
3063,18.167,0,0.05,6.678e-06,66.734,5.1279e-06,38.529,-8.665e-13,-2.4933e-06,-5.1279e-06,-38.529,1.4456
3064,17.667,2.7387e-30,0.1,4.8251e-05,482.17,4.9903e-05,531.37,-1.2881e-05,59.635,-1.5574e-05,39.398,1.3762
3065,18,2.7903e-30,0.05,5.727e-06,57.23,4.3976e-06,33.042,1.1523e-12,1.2623e-05,-4.3976e-06,-33.042,1.4188
3066,17,2.6353e-30,0.1,9.4633e-05,945.68,9.436e-05,938.9,-2.8745e-05,13.938,-3.4088e-05,-26.208,1.2912
3067,17.333,0,0.05,4.5804e-06,45.772,3.5172e-06,26.427,-1.5638e-14,-3.8723e-06,-3.5172e-06,-26.427,1.3336
3068,16.333,2.532e-30,0.1,0.00014041,1403.2,0.00013908,1365.2,-4.4532e-05,-14.45,-5.0651e-05,-60.429,1.207
3069,16.667,0,0.05,3.8698e-06,38.671,2.9715e-06,22.327,1.8058e-12,4.0116e-06,-2.9715e-06,-22.327,1.249
3070,15.667,2.4286e-30,0.1,0.00017446,1743.4,0.00017344,1714,-5.6422e-05,-13.129,-6.069e-05,-45.197,1.1241
3071,16,0,0.05,5.4106e-06,54.068,4.1546e-06,31.216,-8.8126e-22,1.6401e-06,-4.1546e-06,-31.216,1.1654
3072,15,2.3253e-30,0.1,0.00019832,1981.8,0.00019764,1962.2,-6.4159e-05,-4.8213,-6.8038e-05,-33.967,1.0428
3073,15.333,0,0.05,5.637e-06,56.331,4.3285e-06,32.523,5.9496e-14,9.3706e-06,-4.3285e-06,-32.523,1.0832
3074,14.333,2.2219e-30,0.1,0.00021886,2187.1,0.00021834,2171.8,-7.1208e-05,-3.7453,-7.4276e-05,-26.799,0.96319
3075,14.667,0,0.05,5.9442e-06,59.401,4.5644e-06,34.295,1.7491e-12,5.1974e-06,-4.5644e-06,-34.295,1.0027
3076,13.667,2.1186e-30,0.1,0.00023797,2378.1,0.00023757,2366.5,-7.7723e-05,-2.5633,-8.0125e-05,-20.614,0.88552
3077,14,0,0.05,6.1566e-06,61.523,4.7275e-06,35.52,3.8743e-15,6.9825e-06,-4.7275e-06,-35.52,0.92408
3078,13,2.0152e-30,0.1,0.00025623,2560.5,0.00025593,2551.8,-8.3825e-05,-1.0032,-8.5879e-05,-16.438,0.80995
3079,13.333,0,0.05,6.3133e-06,63.089,4.8478e-06,36.425,1.6394e-15,5.5851e-06,-4.8478e-06,-36.424,0.84744
3080,12.333,1.9119e-30,0.1,0.00027431,2741.2,0.00027407,2734.2,-8.9882e-05,-0.43947,-9.1644e-05,-13.684,0.73664
3081,12.667,0,0.05,6.4902e-06,64.858,4.9837e-06,37.446,-1.0571e-21,4.7768e-06,-4.9837e-06,-37.445,0.77298
3082,11.667,1.8085e-30,0.1,0.00029248,2922.8,0.00029229,2917.2,-9.5967e-05,-0.035917,-9.7453e-05,-11.198,0.66575
3083,12,0,0.05,6.5931e-06,65.885,5.0627e-06,38.039,-5.4336e-15,4.7682e-06,-5.0627e-06,-38.039,0.70086
3084,11,1.7052e-30,0.1,0.00031086,3106.4,0.00031072,3102.3,-0.00010213,0.35719,-0.00010332,-8.61,0.59745
3085,11.333,0,0.05,6.6531e-06,66.485,5.1088e-06,38.385,-1.0836e-21,4.7684e-06,-5.1088e-06,-38.385,0.63124
3086,10.333,1.6019e-30,0.1,0.0003295,3292.7,0.00032942,3290.3,-0.00010838,0.84519,-0.00010925,-5.6736,0.5319
3087,10.667,0,0.05,6.6731e-06,66.685,5.1241e-06,38.501,-1.8189e-12,3.8696e-06,-5.1241e-06,-38.501,0.5643
3088,9.6667,1.4985e-30,0.1,0.00034844,3482,0.00034843,3481.7,-0.00011476,1.4503,-0.00011523,-2.1283,0.46927
3089,10,0,0.05,6.6359e-06,66.314,5.0956e-06,38.286,-1.8065e-12,2.8714e-06,-5.0956e-06,-38.286,0.50018
3090,9,1.3952e-30,0.1,0.0003677,3674.4,0.00036777,3676.6,-0.00012118,2.8417,-0.00012135,1.5814,0.40972
3091,9.3333,0,0.05,6.5295e-06,65.25,5.0138e-06,37.672,-2.0551e-14,3.8127e-06,-5.0138e-06,-37.672,0.43907
3092,8.3333,1.2918e-30,0.1,0.0003873,3870.3,0.00038748,3875.7,-0.00012727,8.0566,-0.00012798,2.7728,0.35344
3093,8.6667,0,0.05,6.3417e-06,63.373,4.8696e-06,36.588,1.7944e-14,3.5422e-06,-4.8696e-06,-36.588,0.38113
3094,7.6667,1.1885e-30,0.1,0.00040728,4070,0.00040761,4079.5,-0.00013333,15.172,-0.00013483,3.9327,0.30059
3095,8,0,0.05,6.0404e-06,60.363,4.6383e-06,34.85,-3.6276e-12,2.8529e-06,-4.6383e-06,-34.85,0.32654
3096,7,1.0851e-30,0.1,0.00042772,4274.2,0.00042822,4289.1,-0.00013939,24.268,-0.00014189,5.4784,0.25136
3097,7.3333,0,0.05,5.6049e-06,56.011,4.3039e-06,32.338,7.3262e-14,3.9469e-06,-4.3039e-06,-32.338,0.27548
3098,6.3333,9.8178e-31,0.1,0.00044869,4483.8,0.00044943,4505.5,-0.00014544,35.868,-0.00014922,7.5184,0.20594
3099,6.6667,0,0.05,4.9853e-06,49.819,3.8281e-06,28.763,-5.6198e-14,4.6944e-07,-3.8281e-06,-28.763,0.22813
3100,5.6667,8.7844e-31,0.1,0.00047033,4700.1,0.00047134,4729.9,-0.00015152,49.951,-0.00015685,9.9652,0.16451
3101,6,0,0.05,4.131e-06,41.281,3.1721e-06,23.834,-6.7285e-22,6.8534e-07,-3.1721e-06,-23.834,0.18468
3102,5,7.7509e-31,0.1,0.00049262,4922.8,0.00049396,4962.6,-0.00015764,66.732,-0.00016476,13.196,0.12726
3103,5.3333,0,0.05,3.0267e-06,30.247,2.3242e-06,17.463,-4.9299e-22,4.336e-07,-2.3242e-06,-17.463,0.14532
3104,4.3333,6.7174e-31,0.1,0.0005157,5153.4,0.00051744,5205.4,-0.00016371,87.454,-0.00017307,17.121,0.094416
3105,4.6667,0,0.05,1.8386e-06,18.373,1.4118e-06,10.608,-1.0026e-12,-2.25e-15,-1.4118e-06,-10.608,0.11025
3106,3.6667,5.684e-31,0.1,0.00053956,5391.9,0.00054173,5456.6,-0.00016997,109.25,-0.00018167,21.321,0.066166
3107,4,0,0.05,2.4051e-06,24.035,1.8468e-06,13.876,-3.9174e-22,9.5363e-07,-1.8468e-06,-13.876,0.079669
3108,3,4.6505e-31,0.1,0.0005637,5633.1,0.00056642,5714.4,-0.00017621,134.66,-0.0001902,29.54,0.042727
3109,3.3333,0,0.05,5.2597e-06,52.56,4.0388e-06,30.346,1.1151e-12,-6.4368e-15,-4.0388e-06,-30.346,0.053798
3110,2.3333,3.6171e-31,0.1,0.0005871,5867,0.00059001,5954.4,-0.00018255,149.66,-0.00019886,27.056,0.024303
3111,2.6667,0,0.05,9.3746e-06,93.681,7.1985e-06,54.087,2.291e-12,-1.1473e-14,-7.1985e-06,-54.087,0.03284
3112,1.6667,2.5836e-31,0.1,0.00060414,6037.2,0.00060816,6156.6,-0.00018869,169.38,-0.00020183,70.71,0.01108
3113,2,0,0.05,1.6444e-05,164.33,1.2627e-05,94.874,-3.3596e-12,-2.0124e-14,-1.2627e-05,-94.874,0.016996
3114,1,1.5502e-31,0.1,0.00058384,5834.3,0.00058188,5780.7,-0.0001826,36.651,-0.00020611,-139.98,0.0031726
3115,1.3333,0,0.05,3.4109e-05,340.85,2.6191e-05,196.79,-8.1863e-21,-4.1742e-14,-2.6191e-05,-196.79,0.0064233
3116,0.33333,5.1673e-32,0.1,0.00038273,3824.6,0.00040154,4393.2,-8.7304e-05,720.27,-0.00012552,433.14,0.00022485
3117,0.66667,0,0.05,4.979e-05,497.55,3.8232e-05,287.26,-8.1097e-21,-2.0756e-13,-3.8232e-05,-287.26,0.0011259
3118,0,0,0.05,0.00017425,1741.3,0.0001338,1005.3,-1.2617e-13,-1.0584e-06,-0.0001338,-1005.3,0
3119,1,1.5502e-31,0,0.00058384,5834.3,0.00020611,139.98,0.0001826,-36.651,-0.00058188,-5780.7,0.0031726
3120,0.33333,5.1673e-32,0,0.00038273,3824.6,0.00012552,-433.14,8.7304e-05,-720.27,-0.00040154,-4393.2,0.00022485
3121,1.6667,2.5836e-31,0,0.00060414,6037.2,0.00020183,-70.71,0.00018869,-169.38,-0.00060816,-6156.6,0.01108
3122,2.3333,3.6171e-31,0,0.0005871,5867,0.00019886,-27.056,0.00018255,-149.66,-0.00059001,-5954.4,0.024303
3123,3,4.6505e-31,0,0.0005637,5633.1,0.0001902,-29.54,0.00017621,-134.66,-0.00056642,-5714.4,0.042727
3124,3.6667,5.684e-31,0,0.00053956,5391.9,0.00018167,-21.321,0.00016997,-109.25,-0.00054173,-5456.6,0.066166
3125,4.3333,6.7174e-31,0,0.0005157,5153.4,0.00017307,-17.121,0.00016371,-87.454,-0.00051744,-5205.4,0.094416
3126,5,7.7509e-31,0,0.00049262,4922.8,0.00016476,-13.196,0.00015764,-66.732,-0.00049396,-4962.6,0.12726
3127,5.6667,8.7844e-31,0,0.00047033,4700.1,0.00015685,-9.9652,0.00015152,-49.951,-0.00047134,-4729.9,0.16451
3128,6.3333,9.8178e-31,0,0.00044869,4483.8,0.00014922,-7.5184,0.00014544,-35.868,-0.00044943,-4505.5,0.20594
3129,7,1.0851e-30,0,0.00042772,4274.2,0.00014189,-5.4784,0.00013939,-24.268,-0.00042822,-4289.1,0.25136
3130,7.6667,1.1885e-30,0,0.00040728,4070,0.00013483,-3.9327,0.00013333,-15.172,-0.00040761,-4079.5,0.30059
3131,8.3333,1.2918e-30,0,0.0003873,3870.3,0.00012798,-2.7728,0.00012727,-8.0566,-0.00038748,-3875.7,0.35344
3132,9,1.3952e-30,0,0.0003677,3674.4,0.00012135,-1.5814,0.00012118,-2.8417,-0.00036777,-3676.6,0.40972
3133,9.6667,1.4985e-30,0,0.00034844,3482,0.00011523,2.1283,0.00011476,-1.4503,-0.00034843,-3481.7,0.46927
3134,10.333,1.6019e-30,0,0.0003295,3292.7,0.00010925,5.6736,0.00010838,-0.84519,-0.00032942,-3290.3,0.5319
3135,11,1.7052e-30,0,0.00031086,3106.4,0.00010332,8.61,0.00010213,-0.35719,-0.00031072,-3102.3,0.59745
3136,11.667,1.8085e-30,0,0.00029248,2922.8,9.7453e-05,11.198,9.5967e-05,0.035917,-0.00029229,-2917.2,0.66575
3137,12.333,1.9119e-30,0,0.00027431,2741.2,9.1644e-05,13.684,8.9882e-05,0.43947,-0.00027407,-2734.2,0.73664
3138,13,2.0152e-30,0,0.00025623,2560.5,8.5879e-05,16.438,8.3825e-05,1.0032,-0.00025593,-2551.8,0.80995
3139,13.667,2.1186e-30,0,0.00023797,2378.1,8.0125e-05,20.614,7.7723e-05,2.5633,-0.00023757,-2366.5,0.88552
3140,14.333,2.2219e-30,0,0.00021886,2187.1,7.4276e-05,26.799,7.1208e-05,3.7453,-0.00021834,-2171.8,0.96319
3141,15,2.3253e-30,0,0.00019832,1981.8,6.8038e-05,33.967,6.4159e-05,4.8213,-0.00019764,-1962.2,1.0428
3142,15.667,2.4286e-30,0,0.00017446,1743.4,6.069e-05,45.197,5.6422e-05,13.129,-0.00017344,-1714,1.1241
3143,16.333,2.532e-30,0,0.00014041,1403.2,5.0651e-05,60.429,4.4532e-05,14.45,-0.00013908,-1365.2,1.207
3144,17,2.6353e-30,0,9.4633e-05,945.68,3.4088e-05,26.208,2.8745e-05,-13.938,-9.436e-05,-938.9,1.2912
3145,17.667,2.7387e-30,0,4.8251e-05,482.17,1.5574e-05,-39.398,1.2881e-05,-59.635,-4.9903e-05,-531.37,1.3762
3146,18,0.16667,0,3.1921e-05,318.99,1.0918e-05,-58.433,4.2846e-06,-108.27,-3.4463e-05,-399.41,1.4195
3147,2.914e-15,0.33333,0,0.00026608,2659,1.0571e-05,-2383,1.7305e-07,-2461.1,-0.00034841,-5080.2,0
3148,19.139,0,0,5.3894e-05,538.57,2.0521e-05,34.174,1.623e-05,1.9293,-5.3207e-05,-519.79,1.5819
3149,18.491,0,0,3.0704e-05,306.83,1.0557e-05,-25.689,6.9894e-06,-52.495,-3.1946e-05,-345.04,1.491
3150,19.787,0,0,6.625e-05,662.04,2.3833e-05,29.575,2.1223e-05,9.9633,-6.5555e-05,-642.05,1.6732
3151,20.435,0,0,6.5797e-05,657.52,2.2906e-05,17.045,2.1251e-05,4.6059,-6.542e-05,-646.61,1.7651
3152,21.083,0,0,5.7898e-05,578.58,2.0032e-05,12.332,1.8666e-05,2.0616,-5.7646e-05,-571.32,1.8575
3153,21.731,0,0,4.66e-05,465.68,1.6483e-05,13.818,1.4765e-05,0.91228,-4.6336e-05,-458.18,1.9504
3154,22.38,0,0,3.3875e-05,338.52,1.27e-05,19.596,1.0374e-05,2.115,-3.3472e-05,-327.33,2.0437
3155,23.028,0,0,2.0704e-05,206.9,8.9537e-06,26.637,5.586e-06,1.3335,-2.0112e-05,-191.75,2.1372
3156,23.676,0,0,1.002e-05,100.13,5.6884e-06,28.177,1.5345e-06,-3.0339,-9.22e-06,-83.84,2.2309
3157,18.167,0.16667,0,2.3469e-05,234.53,8.9713e-06,-47.754,7.6363e-07,-109.42,-2.5526e-05,-306.96,1.4459
3158,24,0.33333,0,7.7815e-06,77.762,5.8376e-06,39.303,-3.5242e-07,-7.2064,-6.1103e-06,-50.469,2.278
3159,17.447,6,0,6.5071e-05,650.26,2.8273e-05,91.47,1.8064e-05,14.762,-6.2924e-05,-593.74,1.3481
3160,17.82,6,0,2.5893e-05,258.75,9.3318e-06,-9.5296,6.2779e-06,-32.476,-2.6531e-05,-278.99,1.3958
3161,16.895,6,0,0.00011083,1107.5,4.3889e-05,108.53,3.3986e-05,34.123,-0.00010821,-1034.3,1.2778
3162,16.176,6,0,0.00015017,1500.6,5.503e-05,73.995,4.7005e-05,13.698,-0.00014858,-1455.9,1.1873
3163,15.457,6,0,0.00018224,1821.1,6.3943e-05,51.934,5.8437e-05,10.562,-0.00018114,-1789.5,1.0983
3164,14.738,6,0,0.00020707,2069.3,7.0746e-05,32.959,6.7268e-05,6.8258,-0.00020638,-2049.3,1.0112
3165,14.019,6,0,0.00022804,2278.8,7.7028e-05,22.912,7.4345e-05,2.7497,-0.00022759,-2265.9,0.92626
3166,13.3,6,0,0.00024785,2476.8,8.3204e-05,17.758,8.1025e-05,1.3858,-0.00024752,-2467.2,0.84364
3167,12.581,6,0,0.00026737,2671.9,8.9436e-05,14.839,8.7556e-05,0.71241,-0.0002671,-2664.1,0.76356
3168,11.862,6,0,0.00028704,2868.4,9.5708e-05,11.988,9.4151e-05,0.28811,-0.00028682,-2862.2,0.68623
3169,11.143,6,0,0.00030687,3066.6,0.00010205,9.0911,0.00010078,-0.44919,-0.00030673,-3062.3,0.61185
3170,10.425,6,0,0.00032697,3267.4,0.00010845,6.0411,0.00010752,-0.9266,-0.00032688,-3264.8,0.54063
3171,9.7056,6,0,0.00034739,3471.5,0.0001149,2.2794,0.00011441,-1.4039,-0.00034737,-3471,0.47277
3172,8.9867,6,0,0.00036816,3679,0.0001215,-1.4963,0.00012134,-2.7214,-0.00036823,-3681.1,0.40849
3173,8.2678,6,0,0.00038934,3890.7,0.00012865,-2.8242,0.00012793,-8.2173,-0.00038953,-3896.2,0.34801
3174,7.5488,6,0,0.000411,4107.1,0.00013608,-4.166,0.00013448,-16.236,-0.00041134,-4117.3,0.29155
3175,6.8299,6,0,0.00043314,4328.5,0.00014376,-5.9025,0.000141,-26.62,-0.00043369,-4344.7,0.23933
3176,6.1109,6,0,0.00045585,4555.4,0.00015171,-8.1924,0.00014752,-39.646,-0.00045666,-4579.2,0.1916
3177,5.392,6,0,0.00047939,4790.6,0.00016003,-11.195,0.00015407,-55.984,-0.00048052,-4824,0.14858
3178,4.6731,6,0,0.00050412,5037.7,0.00016891,-14.68,0.00016069,-76.385,-0.00050564,-5082.9,0.11053
3179,3.9541,6,0,0.00052991,5295.5,0.00017823,-19.15,0.00016742,-100.37,-0.0005319,-5354.7,0.077715
3180,3.2352,6,0,0.00055574,5553.5,0.00018747,-28.456,0.00017385,-130.77,-0.00055838,-5632.5,0.050393
3181,2.5163,6,0,0.00058096,5805.6,0.00019692,-26.327,0.00018045,-150.08,-0.00058386,-5892.8,0.028826
3182,1.7973,6,0,0.00060145,6010.4,0.00020115,-71.367,0.00018739,-174.74,-0.00060557,-6132.8,0.013255
3183,1.0784,6,0,0.00058718,5867.8,0.00020841,148.22,0.0001824,-47.206,-0.00058522,-5814.9,0.0038534
3184,0.35947,6,0,0.00039215,3918.8,0.00012722,-486.8,8.7859e-05,-782.52,-0.0004129,-4545,0.0002839
3185,18,5.8333,0,2.17e-05,216.85,7.0594e-06,-36.642,3.8959e-06,-60.411,-2.3253e-05,-264.4,1.4195
3186,4.9538e-14,5.6667,0,0.00027373,2735.4,1.074e-05,-2454.4,1.4123e-07,-2534,-0.0003585,-5228.7,0
3187,4.371e-14,5,0,0.0003695,3692.5,4.1598e-07,-3603,-2.4505e-06,-3624.5,-0.00049245,-7306.2,0
3188,3.7882e-14,4.3333,0,0.0004036,4033.2,1.3308e-06,-3923.8,-3.094e-06,-3957,-0.00053765,-7973.5,0
3189,3.2054e-14,3.6667,0,0.00042057,4202.8,4.5603e-07,-4085.3,-1.3274e-06,-4098.7,-0.00055979,-8294.7,0
3190,2.6226e-14,3,0,0.00042531,4250.2,2.7016e-08,-4131.6,-6.288e-07,-4136.5,-0.00056597,-8384.2,0
3191,2.0398e-14,2.3333,0,0.00042019,4199,4.7004e-07,-4081.1,-1.303e-06,-4094.4,-0.00055927,-8286.7,0
3192,1.457e-14,1.6667,0,0.00040284,4025.6,1.2819e-06,-3915.8,-2.9598e-06,-3947.7,-0.0005366,-7957.3,0
3193,8.7419e-15,1,0,0.00036748,3672.3,4.8733e-07,-3583.2,-2.5603e-06,-3606.1,-0.00048978,-7266.9,0
3194,24,1,0,1.0932e-05,109.25,8.9346e-06,66.495,-1.3156e-06,-10.521,-7.7061e-06,-58.537,2.2783
3195,24,1.6667,0,1.2886e-05,128.77,1.1048e-05,87.487,-2.0973e-06,-11.278,-8.3359e-06,-58.153,2.2785
3196,24,2.3333,0,1.3628e-05,136.18,1.1897e-05,96.799,-2.3872e-06,-10.524,-8.4928e-06,-56.399,2.2787
3197,24,3,0,1.3817e-05,138.07,1.2125e-05,99.386,-2.479e-06,-10.34,-8.5095e-06,-55.651,2.2787
3198,24,3.6667,0,1.3573e-05,135.64,1.1862e-05,96.898,-2.3462e-06,-9.86,-8.451e-06,-55.729,2.2786
3199,24,4.3333,0,1.2699e-05,126.9,1.0993e-05,88.503,-2.1167e-06,-9.9959,-8.066e-06,-54.697,2.2785
3200,24,5,0,1.0598e-05,105.91,8.8995e-06,68.909,-1.4699e-06,-9.0027,-7.1497e-06,-51.679,2.2782
3201,24,5.6667,0,7.3612e-06,73.561,5.7919e-06,42.053,-5.0539e-07,-5.2629,-5.4875e-06,-42.697,2.2778
3202,23.708,6,0,9.1332e-06,91.269,5.5048e-06,30.654,1.2291e-06,-1.4714,-8.202e-06,-72.333,2.2354
3203,23.125,6,0,1.8707e-05,186.94,8.4321e-06,28.689,4.8569e-06,1.8264,-1.8043e-05,-170.23,2.1511
3204,22.542,6,0,3.0632e-05,306.11,1.1815e-05,21.946,9.1935e-06,2.2464,-3.0173e-05,-293.54,2.0669
3205,21.958,6,0,4.2385e-05,423.56,1.5252e-05,15.894,1.3289e-05,1.1405,-4.2076e-05,-414.85,1.9829
3206,21.375,6,0,5.3416e-05,533.79,1.8673e-05,13.545,1.7093e-05,1.6736,-5.3147e-05,-526.08,1.8991
3207,20.792,6,0,6.2092e-05,620.49,2.1838e-05,16.685,1.9728e-05,0.83203,-6.1779e-05,-611.58,1.8157
3208,20.208,6,0,6.7084e-05,670.38,2.3856e-05,23.322,2.1353e-05,4.5168,-6.6591e-05,-656.26,1.7327
3209,19.625,6,0,6.5522e-05,654.77,2.3533e-05,32.077,2.1317e-05,15.425,-6.4698e-05,-630.86,1.6502
3210,19.042,6,0,5.1481e-05,514.46,1.8802e-05,26.181,1.6301e-05,7.3848,-5.0885e-05,-497.42,1.5681
3211,18.458,6,0,2.7789e-05,277.7,9.4787e-06,-19.053,6.8622e-06,-38.713,-2.8719e-05,-306.06,1.4863
3212,18.167,5.8333,0,2.0468e-05,204.54,7.6217e-06,-39.98,1.261e-06,-87.771,-2.2218e-05,-264.18,1.4458
3213,18,4.5,0,0.0002391,2389.4,0.00017021,1144.8,7.6221e-06,-76.83,-0.00019622,-1608.4,1.4253
3214,18,4.1667,0,0.00041823,4179.4,0.00023507,1082.6,5.9077e-05,-239.68,-0.00038788,-3597.9,1.4268
3215,18,4.8333,0,0.0001257,1256.1,8.4616e-05,533.02,8.3891e-06,-39.718,-0.00010709,-907.42,1.4238
3216,18,5.1667,0,7.8861e-05,788.07,4.6378e-05,239.26,1.0408e-05,-30.994,-7.176e-05,-648.38,1.4224
3217,18,5.5,0,4.9438e-05,494.04,2.2596e-05,53.159,9.9678e-06,-41.725,-4.8555e-05,-481.45,1.4209
3218,18.083,4,0,0.00049289,4925.5,0.00018905,49.626,0.00012089,-462.54,-0.00049791,-5111.9,1.4386
3219,18.167,5.5,0,3.8348e-05,383.21,1.2053e-05,-30.124,1.091e-05,-38.71,-3.9512e-05,-417.56,1.4464
3220,18.167,5.1667,0,6.2767e-05,627.24,2.6961e-05,57.291,1.4981e-05,-32.722,-6.1863e-05,-610.09,1.447
3221,18.167,4.8333,0,0.00010494,1048.7,5.0713e-05,167.36,2.1231e-05,-54.155,-0.00010124,-974.39,1.4477
3222,18.167,4.5,0,0.00018203,1819,9.4592e-05,379.65,3.2511e-05,-86.808,-0.0001725,-1627.2,1.4485
3223,18.167,4.1667,0,0.00038407,3838,0.00016714,292.36,8.1726e-05,-349.43,-0.00038099,-3826.1,1.4494
3224,18,1.5,0,0.00023043,2302.7,0.00015896,1031.7,1.2043e-05,-72.198,-0.00019331,-1615.1,1.4253
3225,18,1.8333,0,0.00042037,4200.8,0.00024749,1210.7,4.7603e-05,-291.21,-0.00038407,-3534.7,1.4268
3226,18,1.1667,0,0.00013733,1372.3,8.8013e-05,514.76,1.2222e-05,-54.696,-0.00012033,-1050.6,1.4238
3227,18,0.83333,0,8.5856e-05,857.97,4.8695e-05,218.97,1.0786e-05,-65.863,-7.9626e-05,-745.19,1.4224
3228,18,0.5,0,5.0815e-05,507.8,1.8844e-05,-17.836,1.1434e-05,-73.518,-5.2139e-05,-551.18,1.4209
3229,18.083,2,0,0.00049026,4899.3,0.00019517,135.51,0.00011542,-463.64,-0.00049309,-5035.8,1.4386
3230,18.167,0.5,0,3.6756e-05,367.3,1.3397e-05,-5.1377,9.4411e-06,-34.861,-3.7346e-05,-386.4,1.4465
3231,18.167,0.83333,0,5.7349e-05,573.1,2.556e-05,71.777,1.3844e-05,-16.252,-5.5895e-05,-540.24,1.4471
3232,18.167,1.1667,0,9.5971e-05,959.05,4.8697e-05,187.84,1.8289e-05,-40.641,-9.1402e-05,-864.82,1.4478
3233,18.167,1.5,0,0.00017283,1727.1,0.00010078,514.22,2.3644e-05,-65.313,-0.00015773,-1428.1,1.4485
3234,18.167,1.8333,0,0.00037389,3736.3,0.0001611,304.71,8.4664e-05,-269.59,-0.00036996,-3685.5,1.4494
