Node Number	X Location (in)	Y Location (in)	Z Location (in)	Maximum Principal Stress (psi)
1	2.9	2.1818	0.	1528.2
2	2.9	2.3636	0.	1123.
3	2.9	2.5455	0.	787.3
4	2.9	2.7273	0.	608.11
5	2.9	2.9091	0.	525.41
6	2.9	3.0909	0.	525.41
7	2.9	3.2727	0.	608.11
8	2.9	3.4545	0.	787.3
9	2.9	3.6364	0.	1123.
10	2.9	3.8182	0.	1528.2
11	3.0667	2.1818	0.	1569.7
12	3.0667	2.3636	0.	1175.9
13	3.0667	2.5455	0.	855.86
14	3.0667	2.7273	0.	682.43
15	3.0667	2.9091	0.	602.44
16	3.0667	3.0909	0.	602.44
17	3.0667	3.2727	0.	682.43
18	3.0667	3.4545	0.	855.86
19	3.0667	3.6364	0.	1175.9
20	3.0667	3.8182	0.	1569.7
21	2.7188	5.8182	0.	203.26
22	2.7188	5.6364	0.	361.8
23	2.7188	5.4545	0.	635.06
24	2.7188	5.2727	0.	961.18
25	2.7188	5.0909	0.	1338.7
26	2.7188	4.9091	0.	1782.5
27	2.7188	4.7273	0.	2324.1
28	2.7188	4.5455	0.	2986.1
29	2.7188	4.3636	0.	3940.
30	2.7188	4.1818	0.	4411.8
31	2.7188	4.	0.	2799.5
32	2.7188	3.8182	0.	934.91
33	2.7188	3.6364	0.	631.32
34	2.7188	3.4545	0.	401.96
35	2.7188	3.2727	0.	291.83
36	2.7188	3.0909	0.	237.61
37	2.7188	2.9091	0.	237.61
38	2.7188	2.7273	0.	291.83
39	2.7188	2.5455	0.	401.96
40	2.7188	2.3636	0.	631.33
41	2.7188	2.1818	0.	934.91
42	2.7188	2.	0.	2799.5
43	2.7188	1.8182	0.	4411.8
44	2.7188	1.6364	0.	3940.
45	2.7188	1.4545	0.	2986.1
46	2.7188	1.2727	0.	2324.1
47	2.7188	1.0909	0.	1782.5
48	2.7188	0.90909	0.	1338.7
49	2.7188	0.72727	0.	961.18
50	2.7188	0.54545	0.	635.06
51	2.7188	0.36364	0.	361.8
52	2.7188	0.18182	0.	203.26
53	2.5375	5.8182	0.	155.22
54	2.5375	5.6364	0.	165.55
55	2.5375	5.4545	0.	303.12
56	2.5375	5.2727	0.	508.33
57	2.5375	5.0909	0.	754.28
58	2.5375	4.9091	0.	1030.3
59	2.5375	4.7273	0.	1328.6
60	2.5375	4.5455	0.	1604.
61	2.5375	4.3636	0.	1755.2
62	2.5375	4.1818	0.	1568.3
63	2.5375	4.	0.	705.63
64	2.5375	3.8182	0.	122.58
65	2.5375	3.6364	0.	14.226
66	2.5375	3.4545	0.	11.165
67	2.5375	3.2727	0.	2.1192
68	2.5375	3.0909	0.	-0.15987
69	2.5375	2.9091	0.	-0.15987
70	2.5375	2.7273	0.	2.1192
71	2.5375	2.5455	0.	11.165
72	2.5375	2.3636	0.	14.226
73	2.5375	2.1818	0.	122.59
74	2.5375	2.	0.	705.63
75	2.5375	1.8182	0.	1568.3
76	2.5375	1.6364	0.	1755.2
77	2.5375	1.4545	0.	1604.
78	2.5375	1.2727	0.	1328.6
79	2.5375	1.0909	0.	1030.3
80	2.5375	0.90909	0.	754.28
81	2.5375	0.72727	0.	508.33
82	2.5375	0.54545	0.	303.12
83	2.5375	0.36364	0.	165.55
84	2.5375	0.18182	0.	155.22
85	2.3563	5.8182	0.	162.87
86	2.3563	5.6364	0.	122.69
87	2.3563	5.4545	0.	172.04
88	2.3563	5.2727	0.	274.97
89	2.3563	5.0909	0.	409.03
90	2.3563	4.9091	0.	552.48
91	2.3563	4.7273	0.	677.06
92	2.3563	4.5455	0.	738.56
93	2.3563	4.3636	0.	651.22
94	2.3563	4.1818	0.	348.83
95	2.3563	4.	0.	11.695
96	2.3563	3.8182	0.	-8.4506
97	2.3563	3.6364	0.	9.1272
98	2.3563	3.4545	0.	1.8415
99	2.3563	3.2727	0.	1.6143
100	2.3563	3.0909	0.	0.92976
101	2.3563	2.9091	0.	0.92977
102	2.3563	2.7273	0.	1.6143
103	2.3563	2.5455	0.	1.8415
104	2.3563	2.3636	0.	9.1272
105	2.3563	2.1818	0.	-8.4506
106	2.3563	2.	0.	11.695
107	2.3563	1.8182	0.	348.83
108	2.3563	1.6364	0.	651.22
109	2.3563	1.4545	0.	738.56
110	2.3563	1.2727	0.	677.06
111	2.3563	1.0909	0.	552.48
112	2.3563	0.90909	0.	409.03
113	2.3563	0.72727	0.	274.97
114	2.3563	0.54545	0.	172.04
115	2.3563	0.36364	0.	122.69
116	2.3563	0.18182	0.	162.87
117	2.175	5.8182	0.	169.58
118	2.175	5.6364	0.	106.07
119	2.175	5.4545	0.	101.14
120	2.175	5.2727	0.	124.39
121	2.175	5.0909	0.	162.35
122	2.175	4.9091	0.	197.24
123	2.175	4.7273	0.	204.14
124	2.175	4.5455	0.	153.94
125	2.175	4.3636	0.	50.265
126	2.175	4.1818	0.	11.305
127	2.175	4.	0.	8.3735
128	2.175	3.8182	0.	7.1369
129	2.175	3.6364	0.	1.8186
130	2.175	3.4545	0.	2.0006
131	2.175	3.2727	0.	1.6094
132	2.175	3.0909	0.	1.3183
133	2.175	2.9091	0.	1.3183
134	2.175	2.7273	0.	1.6094
135	2.175	2.5455	0.	2.0006
136	2.175	2.3636	0.	1.8186
137	2.175	2.1818	0.	7.1369
138	2.175	2.	0.	8.3735
139	2.175	1.8182	0.	11.305
140	2.175	1.6364	0.	50.265
141	2.175	1.4545	0.	153.94
142	2.175	1.2727	0.	204.14
143	2.175	1.0909	0.	197.24
144	2.175	0.90909	0.	162.35
145	2.175	0.72727	0.	124.39
146	2.175	0.54545	0.	101.14
147	2.175	0.36364	0.	106.07
148	2.175	0.18182	0.	169.58
149	1.9937	5.8182	0.	168.13
150	1.9937	5.6364	0.	88.411
151	1.9937	5.4545	0.	50.616
152	1.9937	5.2727	0.	32.882
153	1.9937	5.0909	0.	23.664
154	1.9937	4.9091	0.	16.809
155	1.9937	4.7273	0.	11.166
156	1.9937	4.5455	0.	6.9684
157	1.9937	4.3636	0.	3.9876
158	1.9937	4.1818	0.	2.697
159	1.9937	4.	0.	1.2281
160	1.9937	3.8182	0.	0.667
161	1.9937	3.6364	0.	1.5238
162	1.9937	3.4545	0.	1.5023
163	1.9937	3.2727	0.	1.3325
164	1.9937	3.0909	0.	1.2979
165	1.9937	2.9091	0.	1.2979
166	1.9937	2.7273	0.	1.3325
167	1.9937	2.5455	0.	1.5023
168	1.9937	2.3636	0.	1.5238
169	1.9937	2.1818	0.	0.667
170	1.9937	2.	0.	1.2281
171	1.9937	1.8182	0.	2.697
172	1.9937	1.6364	0.	3.9876
173	1.9937	1.4545	0.	6.9684
174	1.9937	1.2727	0.	11.166
175	1.9937	1.0909	0.	16.809
176	1.9937	0.90909	0.	23.664
177	1.9937	0.72727	0.	32.882
178	1.9937	0.54545	0.	50.616
179	1.9937	0.36364	0.	88.411
180	1.9937	0.18182	0.	168.13
181	1.8125	5.8182	0.	160.75
182	1.8125	5.6364	0.	64.893
183	1.8125	5.4545	0.	19.16
184	1.8125	5.2727	0.	9.1529
185	1.8125	5.0909	0.	5.9603
186	1.8125	4.9091	0.	4.2957
187	1.8125	4.7273	0.	3.2072
188	1.8125	4.5455	0.	2.4814
189	1.8125	4.3636	0.	2.006
190	1.8125	4.1818	0.	1.5839
191	1.8125	4.	0.	1.4241
192	1.8125	3.8182	0.	1.28
193	1.8125	3.6364	0.	1.0194
194	1.8125	3.4545	0.	1.0028
195	1.8125	3.2727	0.	1.0558
196	1.8125	3.0909	0.	1.0622
197	1.8125	2.9091	0.	1.0622
198	1.8125	2.7273	0.	1.0558
199	1.8125	2.5455	0.	1.0028
200	1.8125	2.3636	0.	1.0194
201	1.8125	2.1818	0.	1.28
202	1.8125	2.	0.	1.4241
203	1.8125	1.8182	0.	1.5839
204	1.8125	1.6364	0.	2.006
205	1.8125	1.4545	0.	2.4814
206	1.8125	1.2727	0.	3.2072
207	1.8125	1.0909	0.	4.2957
208	1.8125	0.90909	0.	5.9603
209	1.8125	0.72727	0.	9.1529
210	1.8125	0.54545	0.	19.16
211	1.8125	0.36364	0.	64.893
212	1.8125	0.18182	0.	160.75
213	1.6313	5.8182	0.	150.08
214	1.6313	5.6364	0.	38.027
215	1.6313	5.4545	0.	7.9963
216	1.6313	5.2727	0.	4.2776
217	1.6313	5.0909	0.	2.8984
218	1.6313	4.9091	0.	2.1601
219	1.6313	4.7273	0.	1.6924
220	1.6313	4.5455	0.	1.3716
221	1.6313	4.3636	0.	1.1281
222	1.6313	4.1818	0.	0.94082
223	1.6313	4.	0.	0.76777
224	1.6313	3.8182	0.	0.68463
225	1.6313	3.6364	0.	0.71951
226	1.6313	3.4545	0.	0.76649
227	1.6313	3.2727	0.	0.80736
228	1.6313	3.0909	0.	0.83546
229	1.6313	2.9091	0.	0.83546
230	1.6313	2.7273	0.	0.80736
231	1.6313	2.5455	0.	0.76649
232	1.6313	2.3636	0.	0.71951
233	1.6313	2.1818	0.	0.68463
234	1.6313	2.	0.	0.76777
235	1.6313	1.8182	0.	0.94082
236	1.6313	1.6364	0.	1.1281
237	1.6313	1.4545	0.	1.3716
238	1.6313	1.2727	0.	1.6924
239	1.6313	1.0909	0.	2.1601
240	1.6313	0.90909	0.	2.8984
241	1.6313	0.72727	0.	4.2776
242	1.6313	0.54545	0.	7.9963
243	1.6313	0.36364	0.	38.027
244	1.6313	0.18182	0.	150.08
245	1.45	5.8182	0.	138.64
246	1.45	5.6364	0.	17.421
247	1.45	5.4545	0.	4.3052
248	1.45	5.2727	0.	2.5145
249	1.45	5.0909	0.	1.7276
250	1.45	4.9091	0.	1.2968
251	1.45	4.7273	0.	1.0254
252	1.45	4.5455	0.	0.84416
253	1.45	4.3636	0.	0.711
254	1.45	4.1818	0.	0.60328
255	1.45	4.	0.	0.52646
256	1.45	3.8182	0.	0.47852
257	1.45	3.6364	0.	0.4622
258	1.45	3.4545	0.	0.48471
259	1.45	3.2727	0.	0.51998
260	1.45	3.0909	0.	0.54304
261	1.45	2.9091	0.	0.54304
262	1.45	2.7273	0.	0.51998
263	1.45	2.5455	0.	0.48471
264	1.45	2.3636	0.	0.4622
265	1.45	2.1818	0.	0.47852
266	1.45	2.	0.	0.52646
267	1.45	1.8182	0.	0.60328
268	1.45	1.6364	0.	0.711
269	1.45	1.4545	0.	0.84416
270	1.45	1.2727	0.	1.0254
271	1.45	1.0909	0.	1.2968
272	1.45	0.90909	0.	1.7276
273	1.45	0.72727	0.	2.5145
274	1.45	0.54545	0.	4.3052
275	1.45	0.36364	0.	17.421
276	1.45	0.18182	0.	138.64
277	1.2687	5.8182	0.	128.56
278	1.2687	5.6364	0.	9.0781
279	1.2687	5.4545	0.	3.0716
280	1.2687	5.2727	0.	2.023
281	1.2687	5.0909	0.	1.5041
282	1.2687	4.9091	0.	1.2238
283	1.2687	4.7273	0.	1.0469
284	1.2687	4.5455	0.	0.92854
285	1.2687	4.3636	0.	0.83906
286	1.2687	4.1818	0.	0.76686
287	1.2687	4.	0.	0.71089
288	1.2687	3.8182	0.	0.67986
289	1.2687	3.6364	0.	0.67678
290	1.2687	3.4545	0.	0.69186
291	1.2687	3.2727	0.	0.71307
292	1.2687	3.0909	0.	0.72781
293	1.2687	2.9091	0.	0.72781
294	1.2687	2.7273	0.	0.71307
295	1.2687	2.5455	0.	0.69186
296	1.2687	2.3636	0.	0.67677
297	1.2687	2.1818	0.	0.67986
298	1.2687	2.	0.	0.71089
299	1.2687	1.8182	0.	0.76686
300	1.2687	1.6364	0.	0.83906
301	1.2687	1.4545	0.	0.92854
302	1.2687	1.2727	0.	1.0469
303	1.2687	1.0909	0.	1.2238
304	1.2687	0.90909	0.	1.5041
305	1.2687	0.72727	0.	2.023
306	1.2687	0.54545	0.	3.0716
307	1.2687	0.36364	0.	9.0782
308	1.2687	0.18182	0.	128.56
309	1.0875	5.8182	0.	121.19
310	1.0875	5.6364	0.	5.4573
311	1.0875	5.4545	0.	1.4472
312	1.0875	5.2727	0.	0.58121
313	1.0875	5.0909	0.	9.8565e-002
314	1.0875	4.9091	0.	-0.1681
315	1.0875	4.7273	0.	-0.34139
316	1.0875	4.5455	0.	-0.46033
317	1.0875	4.3636	0.	-0.55012
318	1.0875	4.1818	0.	-0.62059
319	1.0875	4.	0.	-0.67351
320	1.0875	3.8182	0.	-0.70773
321	1.0875	3.6364	0.	-0.72302
322	1.0875	3.4545	0.	-0.72266
323	1.0875	3.2727	0.	-0.71481
324	1.0875	3.0909	0.	-0.70822
325	1.0875	2.9091	0.	-0.70822
326	1.0875	2.7273	0.	-0.71481
327	1.0875	2.5455	0.	-0.72266
328	1.0875	2.3636	0.	-0.72302
329	1.0875	2.1818	0.	-0.70773
330	1.0875	2.	0.	-0.67351
331	1.0875	1.8182	0.	-0.62059
332	1.0875	1.6364	0.	-0.55012
333	1.0875	1.4545	0.	-0.46033
334	1.0875	1.2727	0.	-0.34139
335	1.0875	1.0909	0.	-0.1681
336	1.0875	0.90909	0.	9.8565e-002
337	1.0875	0.72727	0.	0.58121
338	1.0875	0.54545	0.	1.4472
339	1.0875	0.36364	0.	5.4573
340	1.0875	0.18182	0.	121.19
341	0.90625	5.8182	0.	118.35
342	0.90625	5.6364	0.	7.198
343	0.90625	5.4545	0.	4.9276
344	0.90625	5.2727	0.	4.6588
345	0.90625	5.0909	0.	4.5233
346	0.90625	4.9091	0.	4.4975
347	0.90625	4.7273	0.	4.4929
348	0.90625	4.5455	0.	4.4939
349	0.90625	4.3636	0.	4.4903
350	0.90625	4.1818	0.	4.4824
351	0.90625	4.	0.	4.4734
352	0.90625	3.8182	0.	4.468
353	0.90625	3.6364	0.	4.4687
354	0.90625	3.4545	0.	4.4745
355	0.90625	3.2727	0.	4.4821
356	0.90625	3.0909	0.	4.4872
357	0.90625	2.9091	0.	4.4872
358	0.90625	2.7273	0.	4.4821
359	0.90625	2.5455	0.	4.4745
360	0.90625	2.3636	0.	4.4687
361	0.90625	2.1818	0.	4.468
362	0.90625	2.	0.	4.4734
363	0.90625	1.8182	0.	4.4824
364	0.90625	1.6364	0.	4.4903
365	0.90625	1.4545	0.	4.4939
366	0.90625	1.2727	0.	4.4929
367	0.90625	1.0909	0.	4.4975
368	0.90625	0.90909	0.	4.5233
369	0.90625	0.72727	0.	4.6588
370	0.90625	0.54545	0.	4.9276
371	0.90625	0.36364	0.	7.198
372	0.90625	0.18182	0.	118.35
373	0.725	5.8182	0.	117.2
374	0.725	5.6364	0.	-4.4099
375	0.725	5.4545	0.	-10.055
376	0.725	5.2727	0.	-12.065
377	0.725	5.0909	0.	-13.396
378	0.725	4.9091	0.	-14.25
379	0.725	4.7273	0.	-14.858
380	0.725	4.5455	0.	-15.301
381	0.725	4.3636	0.	-15.631
382	0.725	4.1818	0.	-15.876
383	0.725	4.	0.	-16.055
384	0.725	3.8182	0.	-16.182
385	0.725	3.6364	0.	-16.267
386	0.725	3.4545	0.	-16.321
387	0.725	3.2727	0.	-16.351
388	0.725	3.0909	0.	-16.364
389	0.725	2.9091	0.	-16.364
390	0.725	2.7273	0.	-16.351
391	0.725	2.5455	0.	-16.321
392	0.725	2.3636	0.	-16.267
393	0.725	2.1818	0.	-16.182
394	0.725	2.	0.	-16.055
395	0.725	1.8182	0.	-15.876
396	0.725	1.6364	0.	-15.631
397	0.725	1.4545	0.	-15.301
398	0.725	1.2727	0.	-14.858
399	0.725	1.0909	0.	-14.25
400	0.725	0.90909	0.	-13.396
401	0.725	0.72727	0.	-12.065
402	0.725	0.54545	0.	-10.055
403	0.725	0.36364	0.	-4.4099
404	0.725	0.18182	0.	117.2
405	0.54375	5.8182	0.	128.12
406	0.54375	5.6364	0.	41.845
407	0.54375	5.4545	0.	50.027
408	0.54375	5.2727	0.	54.533
409	0.54375	5.0909	0.	57.728
410	0.54375	4.9091	0.	60.058
411	0.54375	4.7273	0.	61.755
412	0.54375	4.5455	0.	62.995
413	0.54375	4.3636	0.	63.899
414	0.54375	4.1818	0.	64.549
415	0.54375	4.	0.	65.01
416	0.54375	3.8182	0.	65.333
417	0.54375	3.6364	0.	65.554
418	0.54375	3.4545	0.	65.701
419	0.54375	3.2727	0.	65.79
420	0.54375	3.0909	0.	65.832
421	0.54375	2.9091	0.	65.832
422	0.54375	2.7273	0.	65.79
423	0.54375	2.5455	0.	65.701
424	0.54375	2.3636	0.	65.554
425	0.54375	2.1818	0.	65.333
426	0.54375	2.	0.	65.01
427	0.54375	1.8182	0.	64.549
428	0.54375	1.6364	0.	63.899
429	0.54375	1.4545	0.	62.995
430	0.54375	1.2727	0.	61.755
431	0.54375	1.0909	0.	60.058
432	0.54375	0.90909	0.	57.728
433	0.54375	0.72727	0.	54.533
434	0.54375	0.54545	0.	50.027
435	0.54375	0.36364	0.	41.845
436	0.54375	0.18182	0.	128.12
437	0.3625	5.8182	0.	94.189
438	0.3625	5.6364	0.	-139.26
439	0.3625	5.4545	0.	-184.71
440	0.3625	5.2727	0.	-207.75
441	0.3625	5.0909	0.	-222.75
442	0.3625	4.9091	0.	-233.25
443	0.3625	4.7273	0.	-240.81
444	0.3625	4.5455	0.	-246.34
445	0.3625	4.3636	0.	-250.39
446	0.3625	4.1818	0.	-253.34
447	0.3625	4.	0.	-255.45
448	0.3625	3.8182	0.	-256.93
449	0.3625	3.6364	0.	-257.95
450	0.3625	3.4545	0.	-258.62
451	0.3625	3.2727	0.	-259.02
452	0.3625	3.0909	0.	-259.21
453	0.3625	2.9091	0.	-259.21
454	0.3625	2.7273	0.	-259.02
455	0.3625	2.5455	0.	-258.62
456	0.3625	2.3636	0.	-257.95
457	0.3625	2.1818	0.	-256.93
458	0.3625	2.	0.	-255.45
459	0.3625	1.8182	0.	-253.34
460	0.3625	1.6364	0.	-250.39
461	0.3625	1.4545	0.	-246.34
462	0.3625	1.2727	0.	-240.81
463	0.3625	1.0909	0.	-233.25
464	0.3625	0.90909	0.	-222.75
465	0.3625	0.72727	0.	-207.75
466	0.3625	0.54545	0.	-184.71
467	0.3625	0.36364	0.	-139.26
468	0.3625	0.18182	0.	94.189
469	0.18125	5.8182	0.	325.16
470	0.18125	5.6364	0.	618.28
471	0.18125	5.4545	0.	748.31
472	0.18125	5.2727	0.	833.22
473	0.18125	5.0909	0.	887.99
474	0.18125	4.9091	0.	927.41
475	0.18125	4.7273	0.	955.88
476	0.18125	4.5455	0.	976.81
477	0.18125	4.3636	0.	992.12
478	0.18125	4.1818	0.	1003.2
479	0.18125	4.	0.	1011.2
480	0.18125	3.8182	0.	1016.8
481	0.18125	3.6364	0.	1020.6
482	0.18125	3.4545	0.	1023.1
483	0.18125	3.2727	0.	1024.6
484	0.18125	3.0909	0.	1025.3
485	0.18125	2.9091	0.	1025.3
486	0.18125	2.7273	0.	1024.6
487	0.18125	2.5455	0.	1023.1
488	0.18125	2.3636	0.	1020.6
489	0.18125	2.1818	0.	1016.8
490	0.18125	2.	0.	1011.2
491	0.18125	1.8182	0.	1003.2
492	0.18125	1.6364	0.	992.12
493	0.18125	1.4545	0.	976.81
494	0.18125	1.2727	0.	955.88
495	0.18125	1.0909	0.	927.41
496	0.18125	0.90909	0.	887.99
497	0.18125	0.72727	0.	833.22
498	0.18125	0.54545	0.	748.31
499	0.18125	0.36364	0.	618.28
500	0.18125	0.18182	0.	325.16
501	3.2503	0.18182	0.	159.69
502	3.2503	0.36364	0.	330.08
503	3.2503	0.54545	0.	600.1
504	3.2503	0.72727	0.	922.76
505	3.2503	0.90909	0.	1297.9
506	3.2503	1.0909	0.	1738.8
507	3.2503	1.2727	0.	2274.2
508	3.2503	1.4545	0.	2927.7
509	3.2503	1.6364	0.	3854.4
510	3.2503	1.8182	0.	4346.6
511	3.2503	2.	0.	2823.8
512	3.2503	2.1818	0.	1050.7
513	3.2503	2.3636	0.	806.33
514	3.2503	2.5455	0.	612.76
515	3.2503	2.7273	0.	523.3
516	3.2503	2.9091	0.	477.63
517	3.2503	3.0909	0.	477.63
518	3.2503	3.2727	0.	523.3
519	3.2503	3.4545	0.	612.76
520	3.2503	3.6364	0.	806.33
521	3.2503	3.8182	0.	1050.7
522	3.2503	4.	0.	2823.8
523	3.2503	4.1818	0.	4346.6
524	3.2503	4.3636	0.	3854.4
525	3.2503	4.5455	0.	2927.7
526	3.2503	4.7273	0.	2274.2
527	3.2503	4.9091	0.	1738.8
528	3.2503	5.0909	0.	1297.9
529	3.2503	5.2727	0.	922.76
530	3.2503	5.4545	0.	600.1
531	3.2503	5.6364	0.	330.08
532	3.2503	5.8182	0.	159.69
533	3.4339	0.18182	0.	117.18
534	3.4339	0.36364	0.	184.28
535	3.4339	0.54545	0.	351.97
536	3.4339	0.72727	0.	577.24
537	3.4339	0.90909	0.	841.79
538	3.4339	1.0909	0.	1137.4
539	3.4339	1.2727	0.	1457.
540	3.4339	1.4545	0.	1755.7
541	3.4339	1.6364	0.	1944.8
542	3.4339	1.8182	0.	1789.3
543	3.4339	2.	0.	990.76
544	3.4339	2.1818	0.	429.1
545	3.4339	2.3636	0.	263.15
546	3.4339	2.5455	0.	245.82
547	3.4339	2.7273	0.	228.15
548	3.4339	2.9091	0.	220.47
549	3.4339	3.0909	0.	220.47
550	3.4339	3.2727	0.	228.15
551	3.4339	3.4545	0.	245.82
552	3.4339	3.6364	0.	263.14
553	3.4339	3.8182	0.	429.1
554	3.4339	4.	0.	990.75
555	3.4339	4.1818	0.	1789.3
556	3.4339	4.3636	0.	1944.8
557	3.4339	4.5455	0.	1755.7
558	3.4339	4.7273	0.	1457.
559	3.4339	4.9091	0.	1137.4
560	3.4339	5.0909	0.	841.79
561	3.4339	5.2727	0.	577.24
562	3.4339	5.4545	0.	351.97
563	3.4339	5.6364	0.	184.28
564	3.4339	5.8182	0.	117.18
565	3.6175	0.18182	0.	117.2
566	3.6175	0.36364	0.	161.2
567	3.6175	0.54545	0.	268.37
568	3.6175	0.72727	0.	418.82
569	3.6175	0.90909	0.	595.79
570	3.6175	1.0909	0.	781.76
571	3.6175	1.2727	0.	950.5
572	3.6175	1.4545	0.	1059.3
573	3.6175	1.6364	0.	1021.2
574	3.6175	1.8182	0.	765.36
575	3.6175	2.	0.	378.74
576	3.6175	2.1818	0.	66.517
577	3.6175	2.3636	0.	9.3826
578	3.6175	2.5455	0.	3.4089
579	3.6175	2.7273	0.	2.9364
580	3.6175	2.9091	0.	1.4441
581	3.6175	3.0909	0.	1.4441
582	3.6175	3.2727	0.	2.9364
583	3.6175	3.4545	0.	3.4089
584	3.6175	3.6364	0.	9.3826
585	3.6175	3.8182	0.	66.517
586	3.6175	4.	0.	378.74
587	3.6175	4.1818	0.	765.36
588	3.6175	4.3636	0.	1021.2
589	3.6175	4.5455	0.	1059.3
590	3.6175	4.7273	0.	950.5
591	3.6175	4.9091	0.	781.76
592	3.6175	5.0909	0.	595.79
593	3.6175	5.2727	0.	418.82
594	3.6175	5.4545	0.	268.37
595	3.6175	5.6364	0.	161.2
596	3.6175	5.8182	0.	117.2
597	3.8012	0.18182	0.	117.16
598	3.8012	0.36364	0.	158.83
599	3.8012	0.54545	0.	231.98
600	3.8012	0.72727	0.	327.36
601	3.8012	0.90909	0.	434.08
602	3.8012	1.0909	0.	535.12
603	3.8012	1.2727	0.	605.93
604	3.8012	1.4545	0.	613.37
605	3.8012	1.6364	0.	521.52
606	3.8012	1.8182	0.	319.57
607	3.8012	2.	0.	81.88
608	3.8012	2.1818	0.	10.486
609	3.8012	2.3636	0.	2.1641
610	3.8012	2.5455	0.	2.1638
611	3.8012	2.7273	0.	1.8295
612	3.8012	2.9091	0.	1.5657
613	3.8012	3.0909	0.	1.5657
614	3.8012	3.2727	0.	1.8295
615	3.8012	3.4545	0.	2.1638
616	3.8012	3.6364	0.	2.1641
617	3.8012	3.8182	0.	10.486
618	3.8012	4.	0.	81.879
619	3.8012	4.1818	0.	319.57
620	3.8012	4.3636	0.	521.52
621	3.8012	4.5455	0.	613.37
622	3.8012	4.7273	0.	605.93
623	3.8012	4.9091	0.	535.12
624	3.8012	5.0909	0.	434.08
625	3.8012	5.2727	0.	327.36
626	3.8012	5.4545	0.	231.98
627	3.8012	5.6364	0.	158.83
628	3.8012	5.8182	0.	117.16
629	3.9848	0.18182	0.	111.73
630	3.9848	0.36364	0.	155.13
631	3.9848	0.54545	0.	208.21
632	3.9848	0.72727	0.	266.27
633	3.9848	0.90909	0.	322.78
634	3.9848	1.0909	0.	365.2
635	3.9848	1.2727	0.	376.21
636	3.9848	1.4545	0.	336.32
637	3.9848	1.6364	0.	232.6
638	3.9848	1.8182	0.	81.44
639	3.9848	2.	0.	8.7173
640	3.9848	2.1818	0.	2.377
641	3.9848	2.3636	0.	2.027
642	3.9848	2.5455	0.	1.7024
643	3.9848	2.7273	0.	1.504
644	3.9848	2.9091	0.	1.4805
645	3.9848	3.0909	0.	1.4805
646	3.9848	3.2727	0.	1.504
647	3.9848	3.4545	0.	1.7024
648	3.9848	3.6364	0.	2.027
649	3.9848	3.8182	0.	2.377
650	3.9848	4.	0.	8.7173
651	3.9848	4.1818	0.	81.44
652	3.9848	4.3636	0.	232.6
653	3.9848	4.5455	0.	336.32
654	3.9848	4.7273	0.	376.21
655	3.9848	4.9091	0.	365.2
656	3.9848	5.0909	0.	322.78
657	3.9848	5.2727	0.	266.27
658	3.9848	5.4545	0.	208.21
659	3.9848	5.6364	0.	155.13
660	3.9848	5.8182	0.	111.73
661	4.1684	0.18182	0.	102.42
662	4.1684	0.36364	0.	146.33
663	4.1684	0.54545	0.	186.31
664	4.1684	0.72727	0.	219.77
665	4.1684	0.90909	0.	243.12
666	4.1684	1.0909	0.	248.51
667	4.1684	1.2727	0.	225.67
668	4.1684	1.4545	0.	165.66
669	4.1684	1.6364	0.	70.636
670	4.1684	1.8182	0.	10.942
671	4.1684	2.	0.	4.0445
672	4.1684	2.1818	0.	2.2989
673	4.1684	2.3636	0.	1.4512
674	4.1684	2.5455	0.	1.2197
675	4.1684	2.7273	0.	1.2082
676	4.1684	2.9091	0.	1.2018
677	4.1684	3.0909	0.	1.2018
678	4.1684	3.2727	0.	1.2082
679	4.1684	3.4545	0.	1.2197
680	4.1684	3.6364	0.	1.4512
681	4.1684	3.8182	0.	2.2989
682	4.1684	4.	0.	4.0445
683	4.1684	4.1818	0.	10.942
684	4.1684	4.3636	0.	70.636
685	4.1684	4.5455	0.	165.66
686	4.1684	4.7273	0.	225.67
687	4.1684	4.9091	0.	248.51
688	4.1684	5.0909	0.	243.12
689	4.1684	5.2727	0.	219.77
690	4.1684	5.4545	0.	186.31
691	4.1684	5.6364	0.	146.33
692	4.1684	5.8182	0.	102.42
693	4.352	0.18182	0.	90.788
694	4.352	0.36364	0.	132.94
695	4.352	0.54545	0.	163.4
696	4.352	0.72727	0.	180.71
697	4.352	0.90909	0.	183.27
698	4.352	1.0909	0.	166.9
699	4.352	1.2727	0.	126.77
700	4.352	1.4545	0.	62.29
701	4.352	1.6364	0.	11.584
702	4.352	1.8182	0.	3.9912
703	4.352	2.	0.	2.1227
704	4.352	2.1818	0.	1.3477
705	4.352	2.3636	0.	1.0481
706	4.352	2.5455	0.	0.9357
707	4.352	2.7273	0.	0.90912
708	4.352	2.9091	0.	0.91501
709	4.352	3.0909	0.	0.91501
710	4.352	3.2727	0.	0.90912
711	4.352	3.4545	0.	0.9357
712	4.352	3.6364	0.	1.0481
713	4.352	3.8182	0.	1.3477
714	4.352	4.	0.	2.1227
715	4.352	4.1818	0.	3.9912
716	4.352	4.3636	0.	11.584
717	4.352	4.5455	0.	62.289
718	4.352	4.7273	0.	126.77
719	4.352	4.9091	0.	166.9
720	4.352	5.0909	0.	183.27
721	4.352	5.2727	0.	180.71
722	4.352	5.4545	0.	163.4
723	4.352	5.6364	0.	132.94
724	4.352	5.8182	0.	90.788
725	4.5357	0.18182	0.	78.264
726	4.5357	0.36364	0.	116.68
727	4.5357	0.54545	0.	139.63
728	4.5357	0.72727	0.	146.31
729	4.5357	0.90909	0.	136.4
730	4.5357	1.0909	0.	108.29
731	4.5357	1.2727	0.	61.459
732	4.5357	1.4545	0.	13.838
733	4.5357	1.6364	0.	4.0882
734	4.5357	1.8182	0.	2.1995
735	4.5357	2.	0.	1.4222
736	4.5357	2.1818	0.	1.0096
737	4.5357	2.3636	0.	0.78683
738	4.5357	2.5455	0.	0.69463
739	4.5357	2.7273	0.	0.67189
740	4.5357	2.9091	0.	0.67153
741	4.5357	3.0909	0.	0.67153
742	4.5357	3.2727	0.	0.67189
743	4.5357	3.4545	0.	0.69463
744	4.5357	3.6364	0.	0.78683
745	4.5357	3.8182	0.	1.0096
746	4.5357	4.	0.	1.4222
747	4.5357	4.1818	0.	2.1995
748	4.5357	4.3636	0.	4.0882
749	4.5357	4.5455	0.	13.838
750	4.5357	4.7273	0.	61.459
751	4.5357	4.9091	0.	108.29
752	4.5357	5.0909	0.	136.4
753	4.5357	5.2727	0.	146.31
754	4.5357	5.4545	0.	139.63
755	4.5357	5.6364	0.	116.68
756	4.5357	5.8182	0.	78.264
757	4.7193	0.18182	0.	65.852
758	4.7193	0.36364	0.	99.221
759	4.7193	0.54545	0.	115.95
760	4.7193	0.72727	0.	115.59
761	4.7193	0.90909	0.	98.567
762	4.7193	1.0909	0.	65.113
763	4.7193	1.2727	0.	21.054
764	4.7193	1.4545	0.	4.4197
765	4.7193	1.6364	0.	2.1708
766	4.7193	1.8182	0.	1.3853
767	4.7193	2.	0.	0.9698
768	4.7193	2.1818	0.	0.72349
769	4.7193	2.3636	0.	0.58461
770	4.7193	2.5455	0.	0.51598
771	4.7193	2.7273	0.	0.48992
772	4.7193	2.9091	0.	0.48369
773	4.7193	3.0909	0.	0.48369
774	4.7193	3.2727	0.	0.48992
775	4.7193	3.4545	0.	0.51598
776	4.7193	3.6364	0.	0.58461
777	4.7193	3.8182	0.	0.72349
778	4.7193	4.	0.	0.9698
779	4.7193	4.1818	0.	1.3853
780	4.7193	4.3636	0.	2.1708
781	4.7193	4.5455	0.	4.4197
782	4.7193	4.7273	0.	21.054
783	4.7193	4.9091	0.	65.113
784	4.7193	5.0909	0.	98.567
785	4.7193	5.2727	0.	115.59
786	4.7193	5.4545	0.	115.95
787	4.7193	5.6364	0.	99.221
788	4.7193	5.8182	0.	65.852
789	4.9029	0.18182	0.	54.204
790	4.9029	0.36364	0.	81.889
791	4.9029	0.54545	0.	93.331
792	4.9029	0.72727	0.	88.249
793	4.9029	0.90909	0.	67.52
794	4.9029	1.0909	0.	33.051
795	4.9029	1.2727	0.	5.8287
796	4.9029	1.4545	0.	2.2057
797	4.9029	1.6364	0.	1.3456
798	4.9029	1.8182	0.	0.94173
799	4.9029	2.	0.	0.69723
800	4.9029	2.1818	0.	0.53759
801	4.9029	2.3636	0.	0.43698
802	4.9029	2.5455	0.	0.38075
803	4.9029	2.7273	0.	0.35438
804	4.9029	2.9091	0.	0.34497
805	4.9029	3.0909	0.	0.34497
806	4.9029	3.2727	0.	0.35438
807	4.9029	3.4545	0.	0.38075
808	4.9029	3.6364	0.	0.43698
809	4.9029	3.8182	0.	0.53759
810	4.9029	4.	0.	0.69723
811	4.9029	4.1818	0.	0.94173
812	4.9029	4.3636	0.	1.3456
813	4.9029	4.5455	0.	2.2057
814	4.9029	4.7273	0.	5.8287
815	4.9029	4.9091	0.	33.051
816	4.9029	5.0909	0.	67.52
817	4.9029	5.2727	0.	88.249
818	4.9029	5.4545	0.	93.331
819	4.9029	5.6364	0.	81.889
820	4.9029	5.8182	0.	54.204
821	5.0866	0.18182	0.	43.684
822	5.0866	0.36364	0.	65.568
823	5.0866	0.54545	0.	72.483
824	5.0866	0.72727	0.	64.22
825	5.0866	0.90909	0.	41.946
826	5.0866	1.0909	0.	11.447
827	5.0866	1.2727	0.	2.4319
828	5.0866	1.4545	0.	1.3106
829	5.0866	1.6364	0.	0.89705
830	5.0866	1.8182	0.	0.66415
831	5.0866	2.	0.	0.50821
832	5.0866	2.1818	0.	0.39913
833	5.0866	2.3636	0.	0.3255
834	5.0866	2.5455	0.	0.27982
835	5.0866	2.7273	0.	0.255
836	5.0866	2.9091	0.	0.24457
837	5.0866	3.0909	0.	0.24457
838	5.0866	3.2727	0.	0.255
839	5.0866	3.4545	0.	0.27982
840	5.0866	3.6364	0.	0.3255
841	5.0866	3.8182	0.	0.39913
842	5.0866	4.	0.	0.50821
843	5.0866	4.1818	0.	0.66415
844	5.0866	4.3636	0.	0.89705
845	5.0866	4.5455	0.	1.3106
846	5.0866	4.7273	0.	2.4319
847	5.0866	4.9091	0.	11.447
848	5.0866	5.0909	0.	41.946
849	5.0866	5.2727	0.	64.22
850	5.0866	5.4545	0.	72.483
851	5.0866	5.6364	0.	65.568
852	5.0866	5.8182	0.	43.684
853	5.2702	0.18182	0.	34.451
854	5.2702	0.36364	0.	50.787
855	5.2702	0.54545	0.	53.842
856	5.2702	0.72727	0.	43.444
857	5.2702	0.90909	0.	21.239
858	5.2702	1.0909	0.	3.2686
859	5.2702	1.2727	0.	1.3104
860	5.2702	1.4545	0.	0.84754
861	5.2702	1.6364	0.	0.62379
862	5.2702	1.8182	0.	0.47997
863	5.2702	2.	0.	0.37569
864	5.2702	2.1818	0.	0.29807
865	5.2702	2.3636	0.	0.24217
866	5.2702	2.5455	0.	0.20481
867	5.2702	2.7273	0.	0.18267
868	5.2702	2.9091	0.	0.17258
869	5.2702	3.0909	0.	0.17258
870	5.2702	3.2727	0.	0.18267
871	5.2702	3.4545	0.	0.20481
872	5.2702	3.6364	0.	0.24217
873	5.2702	3.8182	0.	0.29807
874	5.2702	4.	0.	0.37569
875	5.2702	4.1818	0.	0.47997
876	5.2702	4.3636	0.	0.62379
877	5.2702	4.5455	0.	0.84754
878	5.2702	4.7273	0.	1.3104
879	5.2702	4.9091	0.	3.2685
880	5.2702	5.0909	0.	21.239
881	5.2702	5.2727	0.	43.444
882	5.2702	5.4545	0.	53.842
883	5.2702	5.6364	0.	50.787
884	5.2702	5.8182	0.	34.451
885	5.4538	0.18182	0.	26.533
886	5.4538	0.36364	0.	37.798
887	5.4538	0.54545	0.	37.605
888	5.4538	0.72727	0.	25.848
889	5.4538	0.90909	0.	6.5373
890	5.4538	1.0909	0.	1.3836
891	5.4538	1.2727	0.	0.79745
892	5.4538	1.4545	0.	0.57553
893	5.4538	1.6364	0.	0.4453
894	5.4538	1.8182	0.	0.35203
895	5.4538	2.	0.	0.27958
896	5.4538	2.1818	0.	0.22275
897	5.4538	2.3636	0.	0.17971
898	5.4538	2.5455	0.	0.14931
899	5.4538	2.7273	0.	0.13024
900	5.4538	2.9091	0.	0.12114
901	5.4538	3.0909	0.	0.12114
902	5.4538	3.2727	0.	0.13024
903	5.4538	3.4545	0.	0.14931
904	5.4538	3.6364	0.	0.17971
905	5.4538	3.8182	0.	0.22275
906	5.4538	4.	0.	0.27958
907	5.4538	4.1818	0.	0.35202
908	5.4538	4.3636	0.	0.4453
909	5.4538	4.5455	0.	0.57553
910	5.4538	4.7273	0.	0.79745
911	5.4538	4.9091	0.	1.3836
912	5.4538	5.0909	0.	6.5373
913	5.4538	5.2727	0.	25.848
914	5.4538	5.4545	0.	37.605
915	5.4538	5.6364	0.	37.798
916	5.4538	5.8182	0.	26.533
917	5.6374	0.18182	0.	19.875
918	5.6374	0.36364	0.	26.67
919	5.6374	0.54545	0.	23.802
920	5.6374	0.72727	0.	11.494
921	5.6374	0.90909	0.	1.6344
922	5.6374	1.0909	0.	0.7469
923	5.6374	1.2727	0.	0.52013
924	5.6374	1.4545	0.	0.40362
925	5.6374	1.6364	0.	0.32372
926	5.6374	1.8182	0.	0.26092
927	5.6374	2.	0.	0.20912
928	5.6374	2.1818	0.	0.16658
929	5.6374	2.3636	0.	0.13302
930	5.6374	2.5455	0.	0.10836
931	5.6374	2.7273	0.	9.23e-002
932	5.6374	2.9091	0.	8.4427e-002
933	5.6374	3.0909	0.	8.4427e-002
934	5.6374	3.2727	0.	9.23e-002
935	5.6374	3.4545	0.	0.10836
936	5.6374	3.6364	0.	0.13302
937	5.6374	3.8182	0.	0.16658
938	5.6374	4.	0.	0.20912
939	5.6374	4.1818	0.	0.26092
940	5.6374	4.3636	0.	0.32372
941	5.6374	4.5455	0.	0.40362
942	5.6374	4.7273	0.	0.52013
943	5.6374	4.9091	0.	0.7469
944	5.6374	5.0909	0.	1.6344
945	5.6374	5.2727	0.	11.494
946	5.6374	5.4545	0.	23.802
947	5.6374	5.6364	0.	26.67
948	5.6374	5.8182	0.	19.875
949	5.8211	0.18182	0.	14.378
950	5.8211	0.36364	0.	17.35
951	5.8211	0.54545	0.	12.382
952	5.8211	0.72727	0.	2.3883
953	5.8211	0.90909	0.	0.6923
954	5.8211	1.0909	0.	0.45616
955	5.8211	1.2727	0.	0.35512
956	5.8211	1.4545	0.	0.28976
957	5.8211	1.6364	0.	0.23855
958	5.8211	1.8182	0.	0.19489
959	5.8211	2.	0.	0.15694
960	5.8211	2.1818	0.	0.12456
961	5.8211	2.3636	0.	9.8176e-002
962	5.8211	2.5455	0.	7.8215e-002
963	5.8211	2.7273	0.	6.4891e-002
964	5.8211	2.9091	0.	5.8244e-002
965	5.8211	3.0909	0.	5.8244e-002
966	5.8211	3.2727	0.	6.4891e-002
967	5.8211	3.4545	0.	7.8214e-002
968	5.8211	3.6364	0.	9.8176e-002
969	5.8211	3.8182	0.	0.12456
970	5.8211	4.	0.	0.15694
971	5.8211	4.1818	0.	0.19489
972	5.8211	4.3636	0.	0.23855
973	5.8211	4.5455	0.	0.28976
974	5.8211	4.7273	0.	0.35512
975	5.8211	4.9091	0.	0.45616
976	5.8211	5.0909	0.	0.6923
977	5.8211	5.2727	0.	2.3883
978	5.8211	5.4545	0.	12.382
979	5.8211	5.6364	0.	17.35
980	5.8211	5.8182	0.	14.378
981	6.0047	0.18182	0.	9.9241
982	6.0047	0.36364	0.	9.7236
983	6.0047	0.54545	0.	3.5999
984	6.0047	0.72727	0.	0.62145
985	6.0047	0.90909	0.	0.38247
986	6.0047	1.0909	0.	0.30017
987	6.0047	1.2727	0.	0.2507
988	6.0047	1.4545	0.	0.21187
989	6.0047	1.6364	0.	0.17771
990	6.0047	1.8182	0.	0.14648
991	6.0047	2.	0.	0.1181
992	6.0047	2.1818	0.	9.3103e-002
993	6.0047	2.3636	0.	7.2221e-002
994	6.0047	2.5455	0.	5.6082e-002
995	6.0047	2.7273	0.	4.5125e-002
996	6.0047	2.9091	0.	3.9595e-002
997	6.0047	3.0909	0.	3.9595e-002
998	6.0047	3.2727	0.	4.5125e-002
999	6.0047	3.4545	0.	5.6082e-002
1000	6.0047	3.6364	0.	7.2221e-002
1001	6.0047	3.8182	0.	9.3103e-002
1002	6.0047	4.	0.	0.1181
1003	6.0047	4.1818	0.	0.14648
1004	6.0047	4.3636	0.	0.17771
1005	6.0047	4.5455	0.	0.21187
1006	6.0047	4.7273	0.	0.2507
1007	6.0047	4.9091	0.	0.30017
1008	6.0047	5.0909	0.	0.38247
1009	6.0047	5.2727	0.	0.62145
1010	6.0047	5.4545	0.	3.5999
1011	6.0047	5.6364	0.	9.7235
1012	6.0047	5.8182	0.	9.9241
1013	6.1883	0.18182	0.	6.3914
1014	6.1883	0.36364	0.	3.712
1015	6.1883	0.54545	0.	0.53232
1016	6.1883	0.72727	0.	0.29837
1017	6.1883	0.90909	0.	0.2409
1018	6.1883	1.0909	0.	0.2079
1019	6.1883	1.2727	0.	0.18168
1020	6.1883	1.4545	0.	0.1573
1021	6.1883	1.6364	0.	0.13364
1022	6.1883	1.8182	0.	0.1107
1023	6.1883	2.	0.	8.908e-002
1024	6.1883	2.1818	0.	6.9557e-002
1025	6.1883	2.3636	0.	5.2929e-002
1026	6.1883	2.5455	0.	3.9879e-002
1027	6.1883	2.7273	0.	3.0912e-002
1028	6.1883	2.9091	0.	2.6351e-002
1029	6.1883	3.0909	0.	2.6352e-002
1030	6.1883	3.2727	0.	3.0912e-002
1031	6.1883	3.4545	0.	3.9879e-002
1032	6.1883	3.6364	0.	5.2929e-002
1033	6.1883	3.8182	0.	6.9557e-002
1034	6.1883	4.	0.	8.908e-002
1035	6.1883	4.1818	0.	0.1107
1036	6.1883	4.3636	0.	0.13363
1037	6.1883	4.5455	0.	0.1573
1038	6.1883	4.7273	0.	0.18168
1039	6.1883	4.9091	0.	0.2079
1040	6.1883	5.0909	0.	0.2409
1041	6.1883	5.2727	0.	0.29837
1042	6.1883	5.4545	0.	0.53232
1043	6.1883	5.6364	0.	3.712
1044	6.1883	5.8182	0.	6.3914
1045	6.3719	0.18182	0.	3.6697
1046	6.3719	0.36364	0.	0.46827
1047	6.3719	0.54545	0.	0.21629
1048	6.3719	0.72727	0.	0.18091
1049	6.3719	0.90909	0.	0.16424
1050	6.3719	1.0909	0.	0.14962
1051	6.3719	1.2727	0.	0.13454
1052	6.3719	1.4545	0.	0.11836
1053	6.3719	1.6364	0.	0.10135
1054	6.3719	1.8182	0.	8.4088e-002
1055	6.3719	2.	0.	6.7352e-002
1056	6.3719	2.1818	0.	5.1943e-002
1057	6.3719	2.3636	0.	3.8629e-002
1058	6.3719	2.5455	0.	2.8062e-002
1059	6.3719	2.7273	0.	2.0741e-002
1060	6.3719	2.9091	0.	1.6998e-002
1061	6.3719	3.0909	0.	1.6998e-002
1062	6.3719	3.2727	0.	2.074e-002
1063	6.3719	3.4545	0.	2.8062e-002
1064	6.3719	3.6364	0.	3.8629e-002
1065	6.3719	3.8182	0.	5.1943e-002
1066	6.3719	4.	0.	6.7352e-002
1067	6.3719	4.1818	0.	8.4088e-002
1068	6.3719	4.3636	0.	0.10134
1069	6.3719	4.5455	0.	0.11836
1070	6.3719	4.7273	0.	0.13454
1071	6.3719	4.9091	0.	0.14962
1072	6.3719	5.0909	0.	0.16424
1073	6.3719	5.2727	0.	0.18091
1074	6.3719	5.4545	0.	0.21629
1075	6.3719	5.6364	0.	0.46827
1076	6.3719	5.8182	0.	3.6698
1077	6.5556	0.18182	0.	1.6949
1078	6.5556	0.36364	0.	0.15689
1079	6.5556	0.54545	0.	0.12905
1080	6.5556	0.72727	0.	0.1235
1081	6.5556	0.90909	0.	0.1182
1082	6.5556	1.0909	0.	0.11096
1083	6.5556	1.2727	0.	0.10149
1084	6.5556	1.4545	0.	9.0137e-002
1085	6.5556	1.6364	0.	7.7475e-002
1086	6.5556	1.8182	0.	6.4201e-002
1087	6.5556	2.	0.	5.1056e-002
1088	6.5556	2.1818	0.	3.8781e-002
1089	6.5556	2.3636	0.	2.8063e-002
1090	6.5556	2.5455	0.	1.9489e-002
1091	6.5556	2.7273	0.	1.3515e-002
1092	6.5556	2.9091	0.	1.0449e-002
1093	6.5556	3.0909	0.	1.0449e-002
1094	6.5556	3.2727	0.	1.3514e-002
1095	6.5556	3.4545	0.	1.9489e-002
1096	6.5556	3.6364	0.	2.8062e-002
1097	6.5556	3.8182	0.	3.8781e-002
1098	6.5556	4.	0.	5.1056e-002
1099	6.5556	4.1818	0.	6.42e-002
1100	6.5556	4.3636	0.	7.7475e-002
1101	6.5556	4.5455	0.	9.0136e-002
1102	6.5556	4.7273	0.	0.10149
1103	6.5556	4.9091	0.	0.11096
1104	6.5556	5.0909	0.	0.1182
1105	6.5556	5.2727	0.	0.1235
1106	6.5556	5.4545	0.	0.12905
1107	6.5556	5.6364	0.	0.15688
1108	6.5556	5.8182	0.	1.6949
1109	6.7392	0.18182	0.	0.59187
1110	6.7392	0.36364	0.	0.10356
1111	6.7392	0.54545	0.	8.982e-002
1112	6.7392	0.72727	0.	9.0659e-002
1113	6.7392	0.90909	0.	8.8505e-002
1114	6.7392	1.0909	0.	8.435e-002
1115	6.7392	1.2727	0.	7.781e-002
1116	6.7392	1.4545	0.	6.9418e-002
1117	6.7392	1.6364	0.	5.9697e-002
1118	6.7392	1.8182	0.	4.9283e-002
1119	6.7392	2.	0.	3.8826e-002
1120	6.7392	2.1818	0.	2.8965e-002
1121	6.7392	2.3636	0.	2.0292e-002
1122	6.7392	2.5455	0.	1.3318e-002
1123	6.7392	2.7273	0.	8.4381e-003
1124	6.7392	2.9091	0.	5.9286e-003
1125	6.7392	3.0909	0.	5.929e-003
1126	6.7392	3.2727	0.	8.4384e-003
1127	6.7392	3.4545	0.	1.3318e-002
1128	6.7392	3.6364	0.	2.0292e-002
1129	6.7392	3.8182	0.	2.8965e-002
1130	6.7392	4.	0.	3.8825e-002
1131	6.7392	4.1818	0.	4.9282e-002
1132	6.7392	4.3636	0.	5.9696e-002
1133	6.7392	4.5455	0.	6.9417e-002
1134	6.7392	4.7273	0.	7.781e-002
1135	6.7392	4.9091	0.	8.4349e-002
1136	6.7392	5.0909	0.	8.8503e-002
1137	6.7392	5.2727	0.	9.0658e-002
1138	6.7392	5.4545	0.	8.982e-002
1139	6.7392	5.6364	0.	0.10356
1140	6.7392	5.8182	0.	0.59189
1141	6.9228	0.18182	0.	0.29362
1142	6.9228	0.36364	0.	8.4119e-002
1143	6.9228	0.54545	0.	6.7833e-002
1144	6.9228	0.72727	0.	6.9885e-002
1145	6.9228	0.90909	0.	6.8313e-002
1146	6.9228	1.0909	0.	6.5455e-002
1147	6.9228	1.2727	0.	6.053e-002
1148	6.9228	1.4545	0.	5.4034e-002
1149	6.9228	1.6364	0.	4.6365e-002
1150	6.9228	1.8182	0.	3.8055e-002
1151	6.9228	2.	0.	2.9641e-002
1152	6.9228	2.1818	0.	2.166e-002
1153	6.9228	2.3636	0.	1.4609e-002
1154	6.9228	2.5455	0.	8.9181e-003
1155	6.9228	2.7273	0.	4.9267e-003
1156	6.9228	2.9091	0.	2.8705e-003
1157	6.9228	3.0909	0.	2.8705e-003
1158	6.9228	3.2727	0.	4.9265e-003
1159	6.9228	3.4545	0.	8.9176e-003
1160	6.9228	3.6364	0.	1.4608e-002
1161	6.9228	3.8182	0.	2.1659e-002
1162	6.9228	4.	0.	2.9641e-002
1163	6.9228	4.1818	0.	3.8054e-002
1164	6.9228	4.3636	0.	4.6365e-002
1165	6.9228	4.5455	0.	5.4033e-002
1166	6.9228	4.7273	0.	6.0529e-002
1167	6.9228	4.9091	0.	6.5454e-002
1168	6.9228	5.0909	0.	6.8311e-002
1169	6.9228	5.2727	0.	6.9884e-002
1170	6.9228	5.4545	0.	6.7833e-002
1171	6.9228	5.6364	0.	8.4118e-002
1172	6.9228	5.8182	0.	0.29362
1173	7.1064	0.18182	0.	0.21938
1174	7.1064	0.36364	0.	7.4272e-002
1175	7.1064	0.54545	0.	5.381e-002
1176	7.1064	0.72727	0.	5.577e-002
1177	7.1064	0.90909	0.	5.4003e-002
1178	7.1064	1.0909	0.	5.1659e-002
1179	7.1064	1.2727	0.	4.7713e-002
1180	7.1064	1.4545	0.	4.2494e-002
1181	7.1064	1.6364	0.	3.6307e-002
1182	7.1064	1.8182	0.	2.9577e-002
1183	7.1064	2.	0.	2.2742e-002
1184	7.1064	2.1818	0.	1.6238e-002
1185	7.1064	2.3636	0.	1.0478e-002
1186	7.1064	2.5455	0.	5.8212e-003
1187	7.1064	2.7273	0.	2.5497e-003
1188	7.1064	2.9091	0.	8.6273e-004
1189	7.1064	3.0909	0.	8.6267e-004
1190	7.1064	3.2727	0.	2.5496e-003
1191	7.1064	3.4545	0.	5.8214e-003
1192	7.1064	3.6364	0.	1.0478e-002
1193	7.1064	3.8182	0.	1.6238e-002
1194	7.1064	4.	0.	2.2741e-002
1195	7.1064	4.1818	0.	2.9577e-002
1196	7.1064	4.3636	0.	3.6306e-002
1197	7.1064	4.5455	0.	4.2492e-002
1198	7.1064	4.7273	0.	4.7712e-002
1199	7.1064	4.9091	0.	5.1659e-002
1200	7.1064	5.0909	0.	5.4001e-002
1201	7.1064	5.2727	0.	5.5769e-002
1202	7.1064	5.4545	0.	5.3811e-002
1203	7.1064	5.6364	0.	7.4271e-002
1204	7.1064	5.8182	0.	0.21939
1205	7.2901	0.18182	0.	0.1946
1206	7.2901	0.36364	0.	6.7996e-002
1207	7.2901	0.54545	0.	4.4074e-002
1208	7.2901	0.72727	0.	4.5656e-002
1209	7.2901	0.90909	0.	4.3528e-002
1210	7.2901	1.0909	0.	4.1459e-002
1211	7.2901	1.2727	0.	3.8081e-002
1212	7.2901	1.4545	0.	3.3766e-002
1213	7.2901	1.6364	0.	2.8684e-002
1214	7.2901	1.8182	0.	2.3171e-002
1215	7.2901	2.	0.	1.7571e-002
1216	7.2901	2.1818	0.	1.224e-002
1217	7.2901	2.3636	0.	7.5153e-003
1218	7.2901	2.5455	0.	3.692e-003
1219	7.2901	2.7273	0.	1.004e-003
1220	7.2901	2.9091	0.	-3.8225e-004
1221	7.2901	3.0909	0.	-3.8243e-004
1222	7.2901	3.2727	0.	1.004e-003
1223	7.2901	3.4545	0.	3.6919e-003
1224	7.2901	3.6364	0.	7.5149e-003
1225	7.2901	3.8182	0.	1.2239e-002
1226	7.2901	4.	0.	1.7571e-002
1227	7.2901	4.1818	0.	2.317e-002
1228	7.2901	4.3636	0.	2.8684e-002
1229	7.2901	4.5455	0.	3.3766e-002
1230	7.2901	4.7273	0.	3.808e-002
1231	7.2901	4.9091	0.	4.1458e-002
1232	7.2901	5.0909	0.	4.3526e-002
1233	7.2901	5.2727	0.	4.5655e-002
1234	7.2901	5.4545	0.	4.4074e-002
1235	7.2901	5.6364	0.	6.7995e-002
1236	7.2901	5.8182	0.	0.1946
1237	7.4737	0.18182	0.	0.18881
1238	7.4737	0.36364	0.	6.3217e-002
1239	7.4737	0.54545	0.	3.689e-002
1240	7.4737	0.72727	0.	3.8097e-002
1241	7.4737	0.90909	0.	3.5651e-002
1242	7.4737	1.0909	0.	3.3709e-002
1243	7.4737	1.2727	0.	3.0752e-002
1244	7.4737	1.4545	0.	2.7114e-002
1245	7.4737	1.6364	0.	2.2882e-002
1246	7.4737	1.8182	0.	1.832e-002
1247	7.4737	2.	0.	1.3701e-002
1248	7.4737	2.1818	0.	9.3083e-003
1249	7.4737	2.3636	0.	5.4174e-003
1250	7.4737	2.5455	0.	2.2696e-003
1251	7.4737	2.7273	0.	5.608e-005
1252	7.4737	2.9091	0.	-1.0856e-003
1253	7.4737	3.0909	0.	-1.086e-003
1254	7.4737	3.2727	0.	5.6195e-005
1255	7.4737	3.4545	0.	2.2695e-003
1256	7.4737	3.6364	0.	5.4172e-003
1257	7.4737	3.8182	0.	9.3082e-003
1258	7.4737	4.	0.	1.37e-002
1259	7.4737	4.1818	0.	1.832e-002
1260	7.4737	4.3636	0.	2.2882e-002
1261	7.4737	4.5455	0.	2.7113e-002
1262	7.4737	4.7273	0.	3.0753e-002
1263	7.4737	4.9091	0.	3.3708e-002
1264	7.4737	5.0909	0.	3.565e-002
1265	7.4737	5.2727	0.	3.8096e-002
1266	7.4737	5.4545	0.	3.6889e-002
1267	7.4737	5.6364	0.	6.3216e-002
1268	7.4737	5.8182	0.	0.18881
1269	7.6573	0.18182	0.	0.1956
1270	7.6573	0.36364	0.	5.9105e-002
1271	7.6573	0.54545	0.	3.1341e-002
1272	7.6573	0.72727	0.	3.2254e-002
1273	7.6573	0.90909	0.	2.9592e-002
1274	7.6573	1.0909	0.	2.7745e-002
1275	7.6573	1.2727	0.	2.5116e-002
1276	7.6573	1.4545	0.	2.2004e-002
1277	7.6573	1.6364	0.	1.8445e-002
1278	7.6573	1.8182	0.	1.4643e-002
1279	7.6573	2.	0.	1.0809e-002
1280	7.6573	2.1818	0.	7.175e-003
1281	7.6573	2.3636	0.	3.96e-003
1282	7.6573	2.5455	0.	1.3607e-003
1283	7.6573	2.7273	0.	-4.6586e-004
1284	7.6573	2.9091	0.	-1.4085e-003
1285	7.6573	3.0909	0.	-1.4083e-003
1286	7.6573	3.2727	0.	-4.6628e-004
1287	7.6573	3.4545	0.	1.3605e-003
1288	7.6573	3.6364	0.	3.9594e-003
1289	7.6573	3.8182	0.	7.1749e-003
1290	7.6573	4.	0.	1.0809e-002
1291	7.6573	4.1818	0.	1.4642e-002
1292	7.6573	4.3636	0.	1.8444e-002
1293	7.6573	4.5455	0.	2.2004e-002
1294	7.6573	4.7273	0.	2.5115e-002
1295	7.6573	4.9091	0.	2.7744e-002
1296	7.6573	5.0909	0.	2.959e-002
1297	7.6573	5.2727	0.	3.2253e-002
1298	7.6573	5.4545	0.	3.1341e-002
1299	7.6573	5.6364	0.	5.9104e-002
1300	7.6573	5.8182	0.	0.1956
1301	7.8409	0.18182	0.	0.21633
1302	7.8409	0.36364	0.	5.5314e-002
1303	7.8409	0.54545	0.	2.6912e-002
1304	7.8409	0.72727	0.	2.7617e-002
1305	7.8409	0.90909	0.	2.4846e-002
1306	7.8409	1.0909	0.	2.3095e-002
1307	7.8409	1.2727	0.	2.0741e-002
1308	7.8409	1.4545	0.	1.8058e-002
1309	7.8409	1.6364	0.	1.5043e-002
1310	7.8409	1.8182	0.	1.1856e-002
1311	7.8409	2.	0.	8.6615e-003
1312	7.8409	2.1818	0.	5.6421e-003
1313	7.8409	2.3636	0.	2.9776e-003
1314	7.8409	2.5455	0.	8.2668e-004
1315	7.8409	2.7273	0.	-6.845e-004
1316	7.8409	2.9091	0.	-1.4638e-003
1317	7.8409	3.0909	0.	-1.464e-003
1318	7.8409	3.2727	0.	-6.8474e-004
1319	7.8409	3.4545	0.	8.2649e-004
1320	7.8409	3.6364	0.	2.9772e-003
1321	7.8409	3.8182	0.	5.6419e-003
1322	7.8409	4.	0.	8.6606e-003
1323	7.8409	4.1818	0.	1.1855e-002
1324	7.8409	4.3636	0.	1.5042e-002
1325	7.8409	4.5455	0.	1.8058e-002
1326	7.8409	4.7273	0.	2.074e-002
1327	7.8409	4.9091	0.	2.3095e-002
1328	7.8409	5.0909	0.	2.4844e-002
1329	7.8409	5.2727	0.	2.7616e-002
1330	7.8409	5.4545	0.	2.6913e-002
1331	7.8409	5.6364	0.	5.5313e-002
1332	7.8409	5.8182	0.	0.21633
1333	8.0246	0.18182	0.	0.25982
1334	8.0246	0.36364	0.	5.1698e-002
1335	8.0246	0.54545	0.	2.3285e-002
1336	8.0246	0.72727	0.	2.3855e-002
1337	8.0246	0.90909	0.	2.107e-002
1338	8.0246	1.0909	0.	1.9429e-002
1339	8.0246	1.2727	0.	1.7317e-002
1340	8.0246	1.4545	0.	1.4995e-002
1341	8.0246	1.6364	0.	1.2428e-002
1342	8.0246	1.8182	0.	9.7456e-003
1343	8.0246	2.	0.	7.0742e-003
1344	8.0246	2.1818	0.	4.5592e-003
1345	8.0246	2.3636	0.	2.3453e-003
1346	8.0246	2.5455	0.	5.6115e-004
1347	8.0246	2.7273	0.	-6.9091e-004
1348	8.0246	2.9091	0.	-1.3366e-003
1349	8.0246	3.0909	0.	-1.3364e-003
1350	8.0246	3.2727	0.	-6.9115e-004
1351	8.0246	3.4545	0.	5.612e-004
1352	8.0246	3.6364	0.	2.3452e-003
1353	8.0246	3.8182	0.	4.5589e-003
1354	8.0246	4.	0.	7.0737e-003
1355	8.0246	4.1818	0.	9.7448e-003
1356	8.0246	4.3636	0.	1.2428e-002
1357	8.0246	4.5455	0.	1.4994e-002
1358	8.0246	4.7273	0.	1.7316e-002
1359	8.0246	4.9091	0.	1.9428e-002
1360	8.0246	5.0909	0.	2.1069e-002
1361	8.0246	5.2727	0.	2.3854e-002
1362	8.0246	5.4545	0.	2.3285e-002
1363	8.0246	5.6364	0.	5.1696e-002
1364	8.0246	5.8182	0.	0.25983
1365	8.2082	0.18182	0.	0.35114
1366	8.2082	0.36364	0.	4.8202e-002
1367	8.2082	0.54545	0.	2.0255e-002
1368	8.2082	0.72727	0.	2.0752e-002
1369	8.2082	0.90909	0.	1.8028e-002
1370	8.2082	1.0909	0.	1.6508e-002
1371	8.2082	1.2727	0.	1.462e-002
1372	8.2082	1.4545	0.	1.2606e-002
1373	8.2082	1.6364	0.	1.0416e-002
1374	8.2082	1.8182	0.	8.1516e-003
1375	8.2082	2.	0.	5.9122e-003
1376	8.2082	2.1818	0.	3.8132e-003
1377	8.2082	2.3636	0.	1.9697e-003
1378	8.2082	2.5455	0.	4.8784e-004
1379	8.2082	2.7273	0.	-5.5187e-004
1380	8.2082	2.9091	0.	-1.0875e-003
1381	8.2082	3.0909	0.	-1.0875e-003
1382	8.2082	3.2727	0.	-5.5206e-004
1383	8.2082	3.4545	0.	4.873e-004
1384	8.2082	3.6364	0.	1.9691e-003
1385	8.2082	3.8182	0.	3.8125e-003
1386	8.2082	4.	0.	5.9118e-003
1387	8.2082	4.1818	0.	8.151e-003
1388	8.2082	4.3636	0.	1.0416e-002
1389	8.2082	4.5455	0.	1.2606e-002
1390	8.2082	4.7273	0.	1.4619e-002
1391	8.2082	4.9091	0.	1.6508e-002
1392	8.2082	5.0909	0.	1.8026e-002
1393	8.2082	5.2727	0.	2.0751e-002
1394	8.2082	5.4545	0.	2.0255e-002
1395	8.2082	5.6364	0.	4.82e-002
1396	8.2082	5.8182	0.	0.35115
1397	8.3918	0.18182	0.	0.55216
1398	8.3918	0.36364	0.	4.4817e-002
1399	8.3918	0.54545	0.	1.7683e-002
1400	8.3918	0.72727	0.	1.8153e-002
1401	8.3918	0.90909	0.	1.5549e-002
1402	8.3918	1.0909	0.	1.4163e-002
1403	8.3918	1.2727	0.	1.2482e-002
1404	8.3918	1.4545	0.	1.0737e-002
1405	8.3918	1.6364	0.	8.8677e-003
1406	8.3918	1.8182	0.	6.9532e-003
1407	8.3918	2.	0.	5.0729e-003
1408	8.3918	2.1818	0.	3.3171e-003
1409	8.3918	2.3636	0.	1.781e-003
1410	8.3918	2.5455	0.	5.4766e-004
1411	8.3918	2.7273	0.	-3.1601e-004
1412	8.3918	2.9091	0.	-7.6085e-004
1413	8.3918	3.0909	0.	-7.6067e-004
1414	8.3918	3.2727	0.	-3.1625e-004
1415	8.3918	3.4545	0.	5.4736e-004
1416	8.3918	3.6364	0.	1.7807e-003
1417	8.3918	3.8182	0.	3.317e-003
1418	8.3918	4.	0.	5.0725e-003
1419	8.3918	4.1818	0.	6.953e-003
1420	8.3918	4.3636	0.	8.867e-003
1421	8.3918	4.5455	0.	1.0737e-002
1422	8.3918	4.7273	0.	1.2481e-002
1423	8.3918	4.9091	0.	1.4162e-002
1424	8.3918	5.0909	0.	1.5548e-002
1425	8.3918	5.2727	0.	1.8152e-002
1426	8.3918	5.4545	0.	1.7683e-002
1427	8.3918	5.6364	0.	4.4816e-002
1428	8.3918	5.8182	0.	0.55218
1429	8.5754	0.18182	0.	0.94081
1430	8.5754	0.36364	0.	4.1553e-002
1431	8.5754	0.54545	0.	1.5475e-002
1432	8.5754	0.72727	0.	1.5954e-002
1433	8.5754	0.90909	0.	1.3512e-002
1434	8.5754	1.0909	0.	1.2266e-002
1435	8.5754	1.2727	0.	1.078e-002
1436	8.5754	1.4545	0.	9.2719e-003
1437	8.5754	1.6364	0.	7.6758e-003
1438	8.5754	1.8182	0.	6.0582e-003
1439	8.5754	2.	0.	4.4776e-003
1440	8.5754	2.1818	0.	3.0091e-003
1441	8.5754	2.3636	0.	1.7266e-003
1442	8.5754	2.5455	0.	6.9991e-004
1443	8.5754	2.7273	0.	-1.8116e-005
1444	8.5754	2.9091	0.	-3.8791e-004
1445	8.5754	3.0909	0.	-3.8839e-004
1446	8.5754	3.2727	0.	-1.776e-005
1447	8.5754	3.4545	0.	6.9979e-004
1448	8.5754	3.6364	0.	1.7263e-003
1449	8.5754	3.8182	0.	3.0084e-003
1450	8.5754	4.	0.	4.477e-003
1451	8.5754	4.1818	0.	6.0572e-003
1452	8.5754	4.3636	0.	7.6754e-003
1453	8.5754	4.5455	0.	9.2714e-003
1454	8.5754	4.7273	0.	1.0779e-002
1455	8.5754	4.9091	0.	1.2264e-002
1456	8.5754	5.0909	0.	1.351e-002
1457	8.5754	5.2727	0.	1.5953e-002
1458	8.5754	5.4545	0.	1.5474e-002
1459	8.5754	5.6364	0.	4.1552e-002
1460	8.5754	5.8182	0.	0.94084
1461	8.7591	0.18182	0.	1.4934
1462	8.7591	0.36364	0.	3.8429e-002
1463	8.7591	0.54545	0.	1.3559e-002
1464	8.7591	0.72727	0.	1.4075e-002
1465	8.7591	0.90909	0.	1.1824e-002
1466	8.7591	1.0909	0.	1.0722e-002
1467	8.7591	1.2727	0.	9.4194e-003
1468	8.7591	1.4545	0.	8.1213e-003
1469	8.7591	1.6364	0.	6.762e-003
1470	8.7591	1.8182	0.	5.3955e-003
1471	8.7591	2.	0.	4.0677e-003
1472	8.7591	2.1818	0.	2.8384e-003
1473	8.7591	2.3636	0.	1.7689e-003
1474	8.7591	2.5455	0.	9.1357e-004
1475	8.7591	2.7273	0.	3.1575e-004
1476	8.7591	2.9091	0.	8.3519e-006
1477	8.7591	3.0909	0.	8.172e-006
1478	8.7591	3.2727	0.	3.1521e-004
1479	8.7591	3.4545	0.	9.1356e-004
1480	8.7591	3.6364	0.	1.7686e-003
1481	8.7591	3.8182	0.	2.838e-003
1482	8.7591	4.	0.	4.0675e-003
1483	8.7591	4.1818	0.	5.3948e-003
1484	8.7591	4.3636	0.	6.7616e-003
1485	8.7591	4.5455	0.	8.1208e-003
1486	8.7591	4.7273	0.	9.4185e-003
1487	8.7591	4.9091	0.	1.0722e-002
1488	8.7591	5.0909	0.	1.1823e-002
1489	8.7591	5.2727	0.	1.4073e-002
1490	8.7591	5.4545	0.	1.3558e-002
1491	8.7591	5.6364	0.	3.8428e-002
1492	8.7591	5.8182	0.	1.4935
1493	8.9427	0.18182	0.	2.1297
1494	8.9427	0.36364	0.	3.5472e-002
1495	8.9427	0.54545	0.	1.1885e-002
1496	8.9427	0.72727	0.	1.2458e-002
1497	8.9427	0.90909	0.	1.0419e-002
1498	8.9427	1.0909	0.	9.4615e-003
1499	8.9427	1.2727	0.	8.3294e-003
1500	8.9427	1.4545	0.	7.2188e-003
1501	8.9427	1.6364	0.	6.0647e-003
1502	8.9427	1.8182	0.	4.9122e-003
1503	8.9427	2.	0.	3.7985e-003
1504	8.9427	2.1818	0.	2.7703e-003
1505	8.9427	2.3636	0.	1.8777e-003
1506	8.9427	2.5455	0.	1.1659e-003
1507	8.9427	2.7273	0.	6.6835e-004
1508	8.9427	2.9091	0.	4.1267e-004
1509	8.9427	3.0909	0.	4.1303e-004
1510	8.9427	3.2727	0.	6.6835e-004
1511	8.9427	3.4545	0.	1.1653e-003
1512	8.9427	3.6364	0.	1.8771e-003
1513	8.9427	3.8182	0.	2.7708e-003
1514	8.9427	4.	0.	3.7976e-003
1515	8.9427	4.1818	0.	4.9119e-003
1516	8.9427	4.3636	0.	6.0644e-003
1517	8.9427	4.5455	0.	7.2181e-003
1518	8.9427	4.7273	0.	8.3285e-003
1519	8.9427	4.9091	0.	9.4611e-003
1520	8.9427	5.0909	0.	1.0417e-002
1521	8.9427	5.2727	0.	1.2457e-002
1522	8.9427	5.4545	0.	1.1885e-002
1523	8.9427	5.6364	0.	3.5471e-002
1524	8.9427	5.8182	0.	2.1297
1525	9.1263	0.18182	0.	2.8013
1526	9.1263	0.36364	0.	3.2723e-002
1527	9.1263	0.54545	0.	1.0414e-002
1528	9.1263	0.72727	0.	1.1062e-002
1529	9.1263	0.90909	0.	9.2447e-003
1530	9.1263	1.0909	0.	8.4295e-003
1531	9.1263	1.2727	0.	7.4569e-003
1532	9.1263	1.4545	0.	6.5136e-003
1533	9.1263	1.6364	0.	5.537e-003
1534	9.1263	1.8182	0.	4.5689e-003
1535	9.1263	2.	0.	3.6355e-003
1536	9.1263	2.1818	0.	2.7775e-003
1537	9.1263	2.3636	0.	2.0336e-003
1538	9.1263	2.5455	0.	1.441e-003
1539	9.1263	2.7273	0.	1.0279e-003
1540	9.1263	2.9091	0.	8.1537e-004
1541	9.1263	3.0909	0.	8.1489e-004
1542	9.1263	3.2727	0.	1.0284e-003
1543	9.1263	3.4545	0.	1.4407e-003
1544	9.1263	3.6364	0.	2.0335e-003
1545	9.1263	3.8182	0.	2.7765e-003
1546	9.1263	4.	0.	3.6353e-003
1547	9.1263	4.1818	0.	4.5682e-003
1548	9.1263	4.3636	0.	5.537e-003
1549	9.1263	4.5455	0.	6.5129e-003
1550	9.1263	4.7273	0.	7.4554e-003
1551	9.1263	4.9091	0.	8.4284e-003
1552	9.1263	5.0909	0.	9.2431e-003
1553	9.1263	5.2727	0.	1.1061e-002
1554	9.1263	5.4545	0.	1.0413e-002
1555	9.1263	5.6364	0.	3.2722e-002
1556	9.1263	5.8182	0.	2.8014
1557	9.3099	0.18182	0.	3.4847
1558	9.3099	0.36364	0.	3.0246e-002
1559	9.3099	0.54545	0.	9.1147e-003
1560	9.3099	0.72727	0.	9.8506e-003
1561	9.3099	0.90909	0.	8.2601e-003
1562	9.3099	1.0909	0.	7.5817e-003
1563	9.3099	1.2727	0.	6.7561e-003
1564	9.3099	1.4545	0.	5.9617e-003
1565	9.3099	1.6364	0.	5.1422e-003
1566	9.3099	1.8182	0.	4.3309e-003
1567	9.3099	2.	0.	3.552e-003
1568	9.3099	2.1818	0.	2.8368e-003
1569	9.3099	2.3636	0.	2.2176e-003
1570	9.3099	2.5455	0.	1.7263e-003
1571	9.3099	2.7273	0.	1.3829e-003
1572	9.3099	2.9091	0.	1.2067e-003
1573	9.3099	3.0909	0.	1.2064e-003
1574	9.3099	3.2727	0.	1.3829e-003
1575	9.3099	3.4545	0.	1.7259e-003
1576	9.3099	3.6364	0.	2.218e-003
1577	9.3099	3.8182	0.	2.8364e-003
1578	9.3099	4.	0.	3.5518e-003
1579	9.3099	4.1818	0.	4.3309e-003
1580	9.3099	4.3636	0.	5.1416e-003
1581	9.3099	4.5455	0.	5.9613e-003
1582	9.3099	4.7273	0.	6.7559e-003
1583	9.3099	4.9091	0.	7.5816e-003
1584	9.3099	5.0909	0.	8.2583e-003
1585	9.3099	5.2727	0.	9.849e-003
1586	9.3099	5.4545	0.	9.115e-003
1587	9.3099	5.6364	0.	3.0245e-002
1588	9.3099	5.8182	0.	3.4847
1589	9.4936	0.18182	0.	4.1667
1590	9.4936	0.36364	0.	2.8203e-002
1591	9.4936	0.54545	0.	7.9684e-003
1592	9.4936	0.72727	0.	8.8041e-003
1593	9.4936	0.90909	0.	7.4386e-003
1594	9.4936	1.0909	0.	6.8913e-003
1595	9.4936	1.2727	0.	6.2007e-003
1596	9.4936	1.4545	0.	5.5398e-003
1597	9.4936	1.6364	0.	4.8551e-003
1598	9.4936	1.8182	0.	4.1788e-003
1599	9.4936	2.	0.	3.5316e-003
1600	9.4936	2.1818	0.	2.9373e-003
1601	9.4936	2.3636	0.	2.4245e-003
1602	9.4936	2.5455	0.	2.0163e-003
1603	9.4936	2.7273	0.	1.7322e-003
1604	9.4936	2.9091	0.	1.586e-003
1605	9.4936	3.0909	0.	1.5854e-003
1606	9.4936	3.2727	0.	1.7324e-003
1607	9.4936	3.4545	0.	2.016e-003
1608	9.4936	3.6364	0.	2.4239e-003
1609	9.4936	3.8182	0.	2.9369e-003
1610	9.4936	4.	0.	3.5317e-003
1611	9.4936	4.1818	0.	4.179e-003
1612	9.4936	4.3636	0.	4.8542e-003
1613	9.4936	4.5455	0.	5.5385e-003
1614	9.4936	4.7273	0.	6.1998e-003
1615	9.4936	4.9091	0.	6.8907e-003
1616	9.4936	5.0909	0.	7.4371e-003
1617	9.4936	5.2727	0.	8.8027e-003
1618	9.4936	5.4545	0.	7.9682e-003
1619	9.4936	5.6364	0.	2.8202e-002
1620	9.4936	5.8182	0.	4.1668
1621	9.6772	0.18182	0.	4.8396
1622	9.6772	0.36364	0.	2.7111e-002
1623	9.6772	0.54545	0.	6.9567e-003
1624	9.6772	0.72727	0.	7.9023e-003
1625	9.6772	0.90909	0.	6.7579e-003
1626	9.6772	1.0909	0.	6.3312e-003
1627	9.6772	1.2727	0.	5.7633e-003
1628	9.6772	1.4545	0.	5.2186e-003
1629	9.6772	1.6364	0.	4.6524e-003
1630	9.6772	1.8182	0.	4.0935e-003
1631	9.6772	2.	0.	3.557e-003
1632	9.6772	2.1818	0.	3.0658e-003
1633	9.6772	2.3636	0.	2.6406e-003
1634	9.6772	2.5455	0.	2.3043e-003
1635	9.6772	2.7273	0.	2.0693e-003
1636	9.6772	2.9091	0.	1.9482e-003
1637	9.6772	3.0909	0.	1.9486e-003
1638	9.6772	3.2727	0.	2.0696e-003
1639	9.6772	3.4545	0.	2.3039e-003
1640	9.6772	3.6364	0.	2.6409e-003
1641	9.6772	3.8182	0.	3.0648e-003
1642	9.6772	4.	0.	3.5568e-003
1643	9.6772	4.1818	0.	4.0925e-003
1644	9.6772	4.3636	0.	4.6522e-003
1645	9.6772	4.5455	0.	5.2182e-003
1646	9.6772	4.7273	0.	5.7626e-003
1647	9.6772	4.9091	0.	6.3314e-003
1648	9.6772	5.0909	0.	6.756e-003
1649	9.6772	5.2727	0.	7.9019e-003
1650	9.6772	5.4545	0.	6.9565e-003
1651	9.6772	5.6364	0.	2.711e-002
1652	9.6772	5.8182	0.	4.8396
1653	9.8608	0.18182	0.	5.4979
1654	9.8608	0.36364	0.	3.055e-002
1655	9.8608	0.54545	0.	6.069e-003
1656	9.8608	0.72727	0.	7.1332e-003
1657	9.8608	0.90909	0.	6.1967e-003
1658	9.8608	1.0909	0.	5.8806e-003
1659	9.8608	1.2727	0.	5.422e-003
1660	9.8608	1.4545	0.	4.9789e-003
1661	9.8608	1.6364	0.	4.5156e-003
1662	9.8608	1.8182	0.	4.0552e-003
1663	9.8608	2.	0.	3.6148e-003
1664	9.8608	2.1818	0.	3.2091e-003
1665	9.8608	2.3636	0.	2.86e-003
1666	9.8608	2.5455	0.	2.5822e-003
1667	9.8608	2.7273	0.	2.3886e-003
1668	9.8608	2.9091	0.	2.2891e-003
1669	9.8608	3.0909	0.	2.2887e-003
1670	9.8608	3.2727	0.	2.3887e-003
1671	9.8608	3.4545	0.	2.582e-003
1672	9.8608	3.6364	0.	2.859e-003
1673	9.8608	3.8182	0.	3.2091e-003
1674	9.8608	4.	0.	3.6142e-003
1675	9.8608	4.1818	0.	4.0552e-003
1676	9.8608	4.3636	0.	4.5146e-003
1677	9.8608	4.5455	0.	4.9787e-003
1678	9.8608	4.7273	0.	5.4214e-003
1679	9.8608	4.9091	0.	5.8796e-003
1680	9.8608	5.0909	0.	6.1953e-003
1681	9.8608	5.2727	0.	7.1319e-003
1682	9.8608	5.4545	0.	6.0679e-003
1683	9.8608	5.6364	0.	3.0552e-002
1684	9.8608	5.8182	0.	5.498
1685	10.044	0.18182	0.	6.1385
1686	10.044	0.36364	0.	0.36022
1687	10.044	0.54545	0.	5.3321e-003
1688	10.044	0.72727	0.	6.5209e-003
1689	10.044	0.90909	0.	5.7758e-003
1690	10.044	1.0909	0.	5.5539e-003
1691	10.044	1.2727	0.	5.1902e-003
1692	10.044	1.4545	0.	4.8347e-003
1693	10.044	1.6364	0.	4.4582e-003
1694	10.044	1.8182	0.	4.083e-003
1695	10.044	2.	0.	3.7213e-003
1696	10.044	2.1818	0.	3.3891e-003
1697	10.044	2.3636	0.	3.1024e-003
1698	10.044	2.5455	0.	2.8752e-003
1699	10.044	2.7273	0.	2.7168e-003
1700	10.044	2.9091	0.	2.6346e-003
1701	10.044	3.0909	0.	2.6348e-003
1702	10.044	3.2727	0.	2.7163e-003
1703	10.044	3.4545	0.	2.8748e-003
1704	10.044	3.6364	0.	3.1022e-003
1705	10.044	3.8182	0.	3.3895e-003
1706	10.044	4.	0.	3.7213e-003
1707	10.044	4.1818	0.	4.0818e-003
1708	10.044	4.3636	0.	4.4579e-003
1709	10.044	4.5455	0.	4.8346e-003
1710	10.044	4.7273	0.	5.1898e-003
1711	10.044	4.9091	0.	5.5529e-003
1712	10.044	5.0909	0.	5.7743e-003
1713	10.044	5.2727	0.	6.5199e-003
1714	10.044	5.4545	0.	5.3319e-003
1715	10.044	5.6364	0.	0.36027
1716	10.044	5.8182	0.	6.1385
1717	10.228	0.18182	0.	6.759
1718	10.228	0.36364	0.	1.2581
1719	10.228	0.54545	0.	4.7594e-003
1720	10.228	0.72727	0.	6.0571e-003
1721	10.228	0.90909	0.	5.4718e-003
1722	10.228	1.0909	0.	5.3247e-003
1723	10.228	1.2727	0.	5.0395e-003
1724	10.228	1.4545	0.	4.7566e-003
1725	10.228	1.6364	0.	4.4519e-003
1726	10.228	1.8182	0.	4.1469e-003
1727	10.228	2.	0.	3.8532e-003
1728	10.228	2.1818	0.	3.5821e-003
1729	10.228	2.3636	0.	3.3468e-003
1730	10.228	2.5455	0.	3.1615e-003
1731	10.228	2.7273	0.	3.0314e-003
1732	10.228	2.9091	0.	2.965e-003
1733	10.228	3.0909	0.	2.9645e-003
1734	10.228	3.2727	0.	3.0317e-003
1735	10.228	3.4545	0.	3.1615e-003
1736	10.228	3.6364	0.	3.3467e-003
1737	10.228	3.8182	0.	3.581e-003
1738	10.228	4.	0.	3.8529e-003
1739	10.228	4.1818	0.	4.1467e-003
1740	10.228	4.3636	0.	4.4516e-003
1741	10.228	4.5455	0.	4.7558e-003
1742	10.228	4.7273	0.	5.0385e-003
1743	10.228	4.9091	0.	5.3246e-003
1744	10.228	5.0909	0.	5.4705e-003
1745	10.228	5.2727	0.	6.0554e-003
1746	10.228	5.4545	0.	4.7586e-003
1747	10.228	5.6364	0.	1.2582
1748	10.228	5.8182	0.	6.759
1749	10.412	0.18182	0.	7.3581
1750	10.412	0.36364	0.	2.1275
1751	10.412	0.54545	0.	4.4118e-003
1752	10.412	0.72727	0.	5.7094e-003
1753	10.412	0.90909	0.	5.2302e-003
1754	10.412	1.0909	0.	5.1304e-003
1755	10.412	1.2727	0.	4.9013e-003
1756	10.412	1.4545	0.	4.674e-003
1757	10.412	1.6364	0.	4.4274e-003
1758	10.412	1.8182	0.	4.1806e-003
1759	10.412	2.	0.	3.9412e-003
1760	10.412	2.1818	0.	3.719e-003
1761	10.412	2.3636	0.	3.5293e-003
1762	10.412	2.5455	0.	3.3772e-003
1763	10.412	2.7273	0.	3.2712e-003
1764	10.412	2.9091	0.	3.2167e-003
1765	10.412	3.0909	0.	3.2168e-003
1766	10.412	3.2727	0.	3.271e-003
1767	10.412	3.4545	0.	3.3779e-003
1768	10.412	3.6364	0.	3.5286e-003
1769	10.412	3.8182	0.	3.7201e-003
1770	10.412	4.	0.	3.9407e-003
1771	10.412	4.1818	0.	4.1801e-003
1772	10.412	4.3636	0.	4.4274e-003
1773	10.412	4.5455	0.	4.6738e-003
1774	10.412	4.7273	0.	4.9006e-003
1775	10.412	4.9091	0.	5.129e-003
1776	10.412	5.0909	0.	5.2291e-003
1777	10.412	5.2727	0.	5.7088e-003
1778	10.412	5.4545	0.	4.41e-003
1779	10.412	5.6364	0.	2.1275
1780	10.412	5.8182	0.	7.3581
1781	10.595	0.18182	0.	7.9352
1782	10.595	0.36364	0.	2.9581
1783	10.595	0.54545	0.	5.2094e-003
1784	10.595	0.72727	0.	5.6243e-003
1785	10.595	0.90909	0.	5.1397e-003
1786	10.595	1.0909	0.	5.0384e-003
1787	10.595	1.2727	0.	4.8401e-003
1788	10.595	1.4545	0.	4.6513e-003
1789	10.595	1.6364	0.	4.4463e-003
1790	10.595	1.8182	0.	4.2428e-003
1791	10.595	2.	0.	4.0462e-003
1792	10.595	2.1818	0.	3.8661e-003
1793	10.595	2.3636	0.	3.7096e-003
1794	10.595	2.5455	0.	3.5863e-003
1795	10.595	2.7273	0.	3.5e-003
1796	10.595	2.9091	0.	3.4552e-003
1797	10.595	3.0909	0.	3.4547e-003
1798	10.595	3.2727	0.	3.4995e-003
1799	10.595	3.4545	0.	3.5863e-003
1800	10.595	3.6364	0.	3.7099e-003
1801	10.595	3.8182	0.	3.8653e-003
1802	10.595	4.	0.	4.0464e-003
1803	10.595	4.1818	0.	4.2424e-003
1804	10.595	4.3636	0.	4.4455e-003
1805	10.595	4.5455	0.	4.6507e-003
1806	10.595	4.7273	0.	4.8395e-003
1807	10.595	4.9091	0.	5.0382e-003
1808	10.595	5.0909	0.	5.1373e-003
1809	10.595	5.2727	0.	5.6239e-003
1810	10.595	5.4545	0.	5.2084e-003
1811	10.595	5.6364	0.	2.9581
1812	10.595	5.8182	0.	7.9353
1813	10.779	0.18182	0.	8.4905
1814	10.779	0.36364	0.	3.7497
1815	10.779	0.54545	0.	0.28009
1816	10.779	0.72727	0.	6.0979e-003
1817	10.779	0.90909	0.	5.3205e-003
1818	10.779	1.0909	0.	5.1407e-003
1819	10.779	1.2727	0.	4.9335e-003
1820	10.779	1.4545	0.	4.7559e-003
1821	10.779	1.6364	0.	4.5757e-003
1822	10.779	1.8182	0.	4.4031e-003
1823	10.779	2.	0.	4.2384e-003
1824	10.779	2.1818	0.	4.088e-003
1825	10.779	2.3636	0.	3.9587e-003
1826	10.779	2.5455	0.	3.8573e-003
1827	10.779	2.7273	0.	3.7862e-003
1828	10.779	2.9091	0.	3.7491e-003
1829	10.779	3.0909	0.	3.7497e-003
1830	10.779	3.2727	0.	3.7857e-003
1831	10.779	3.4545	0.	3.8572e-003
1832	10.779	3.6364	0.	3.9581e-003
1833	10.779	3.8182	0.	4.0878e-003
1834	10.779	4.	0.	4.2385e-003
1835	10.779	4.1818	0.	4.402e-003
1836	10.779	4.3636	0.	4.5758e-003
1837	10.779	4.5455	0.	4.7558e-003
1838	10.779	4.7273	0.	4.9325e-003
1839	10.779	4.9091	0.	5.1394e-003
1840	10.779	5.0909	0.	5.3191e-003
1841	10.779	5.2727	0.	6.0972e-003
1842	10.779	5.4545	0.	0.28017
1843	10.779	5.6364	0.	3.7497
1844	10.779	5.8182	0.	8.4906
1845	10.963	0.18182	0.	9.024
1846	10.963	0.36364	0.	4.5026
1847	10.963	0.54545	0.	1.2747
1848	10.963	0.72727	0.	7.8828e-003
1849	10.963	0.90909	0.	5.8225e-003
1850	10.963	1.0909	0.	5.4008e-003
1851	10.963	1.2727	0.	5.1223e-003
1852	10.963	1.4545	0.	4.9243e-003
1853	10.963	1.6364	0.	4.7469e-003
1854	10.963	1.8182	0.	4.5877e-003
1855	10.963	2.	0.	4.4422e-003
1856	10.963	2.1818	0.	4.3131e-003
1857	10.963	2.3636	0.	4.2028e-003
1858	10.963	2.5455	0.	4.118e-003
1859	10.963	2.7273	0.	4.0582e-003
1860	10.963	2.9091	0.	4.0272e-003
1861	10.963	3.0909	0.	4.027e-003
1862	10.963	3.2727	0.	4.0577e-003
1863	10.963	3.4545	0.	4.1175e-003
1864	10.963	3.6364	0.	4.2029e-003
1865	10.963	3.8182	0.	4.3122e-003
1866	10.963	4.	0.	4.4421e-003
1867	10.963	4.1818	0.	4.5871e-003
1868	10.963	4.3636	0.	4.7466e-003
1869	10.963	4.5455	0.	4.9241e-003
1870	10.963	4.7273	0.	5.1222e-003
1871	10.963	4.9091	0.	5.4003e-003
1872	10.963	5.0909	0.	5.8195e-003
1873	10.963	5.2727	0.	7.8822e-003
1874	10.963	5.4545	0.	1.2747
1875	10.963	5.6364	0.	4.5027
1876	10.963	5.8182	0.	9.0241
1877	11.146	0.18182	0.	9.5365
1878	11.146	0.36364	0.	5.2183
1879	11.146	0.54545	0.	2.2194
1880	11.146	0.72727	0.	1.7596e-002
1881	11.146	0.90909	0.	6.9492e-003
1882	11.146	1.0909	0.	5.8975e-003
1883	11.146	1.2727	0.	5.4358e-003
1884	11.146	1.4545	0.	5.1632e-003
1885	11.146	1.6364	0.	4.9601e-003
1886	11.146	1.8182	0.	4.7944e-003
1887	11.146	2.	0.	4.6554e-003
1888	11.146	2.1818	0.	4.5347e-003
1889	11.146	2.3636	0.	4.4366e-003
1890	11.146	2.5455	0.	4.3616e-003
1891	11.146	2.7273	0.	4.31e-003
1892	11.146	2.9091	0.	4.283e-003
1893	11.146	3.0909	0.	4.2837e-003
1894	11.146	3.2727	0.	4.3097e-003
1895	11.146	3.4545	0.	4.3622e-003
1896	11.146	3.6364	0.	4.4366e-003
1897	11.146	3.8182	0.	4.5347e-003
1898	11.146	4.	0.	4.6546e-003
1899	11.146	4.1818	0.	4.7942e-003
1900	11.146	4.3636	0.	4.9595e-003
1901	11.146	4.5455	0.	5.1637e-003
1902	11.146	4.7273	0.	5.4342e-003
1903	11.146	4.9091	0.	5.8973e-003
1904	11.146	5.0909	0.	6.9475e-003
1905	11.146	5.2727	0.	1.7597e-002
1906	11.146	5.4545	0.	2.2195
1907	11.146	5.6364	0.	5.2183
1908	11.146	5.8182	0.	9.5365
1909	11.33	0.18182	0.	10.029
1910	11.33	0.36364	0.	5.8979
1911	11.33	0.54545	0.	3.1121
1912	11.33	0.72727	0.	0.51131
1913	11.33	0.90909	0.	9.763e-003
1914	11.33	1.0909	0.	6.8191e-003
1915	11.33	1.2727	0.	5.9341e-003
1916	11.33	1.4545	0.	5.5039e-003
1917	11.33	1.6364	0.	5.2279e-003
1918	11.33	1.8182	0.	5.0305e-003
1919	11.33	2.	0.	4.878e-003
1920	11.33	2.1818	0.	4.756e-003
1921	11.33	2.3636	0.	4.6605e-003
1922	11.33	2.5455	0.	4.5896e-003
1923	11.33	2.7273	0.	4.5408e-003
1924	11.33	2.9091	0.	4.5165e-003
1925	11.33	3.0909	0.	4.5159e-003
1926	11.33	3.2727	0.	4.542e-003
1927	11.33	3.4545	0.	4.5883e-003
1928	11.33	3.6364	0.	4.6597e-003
1929	11.33	3.8182	0.	4.7557e-003
1930	11.33	4.	0.	4.8776e-003
1931	11.33	4.1818	0.	5.0309e-003
1932	11.33	4.3636	0.	5.2269e-003
1933	11.33	4.5455	0.	5.503e-003
1934	11.33	4.7273	0.	5.9345e-003
1935	11.33	4.9091	0.	6.8168e-003
1936	11.33	5.0909	0.	9.7627e-003
1937	11.33	5.2727	0.	0.51139
1938	11.33	5.4545	0.	3.1122
1939	11.33	5.6364	0.	5.898
1940	11.33	5.8182	0.	10.029
1941	11.513	0.18182	0.	10.501
1942	11.513	0.36364	0.	6.5434
1943	11.513	0.54545	0.	3.9552
1944	11.513	0.72727	0.	1.537
1945	11.513	0.90909	0.	2.1294e-002
1946	11.513	1.0909	0.	8.6404e-003
1947	11.513	1.2727	0.	6.726e-003
1948	11.513	1.4545	0.	5.9622e-003
1949	11.513	1.6364	0.	5.5415e-003
1950	11.513	1.8182	0.	5.2723e-003
1951	11.513	2.	0.	5.0832e-003
1952	11.513	2.1818	0.	4.9423e-003
1953	11.513	2.3636	0.	4.8379e-003
1954	11.513	2.5455	0.	4.7636e-003
1955	11.513	2.7273	0.	4.7154e-003
1956	11.513	2.9091	0.	4.6901e-003
1957	11.513	3.0909	0.	4.6904e-003
1958	11.513	3.2727	0.	4.7151e-003
1959	11.513	3.4545	0.	4.7644e-003
1960	11.513	3.6364	0.	4.8382e-003
1961	11.513	3.8182	0.	4.9423e-003
1962	11.513	4.	0.	5.0821e-003
1963	11.513	4.1818	0.	5.2723e-003
1964	11.513	4.3636	0.	5.5412e-003
1965	11.513	4.5455	0.	5.9613e-003
1966	11.513	4.7273	0.	6.7259e-003
1967	11.513	4.9091	0.	8.6392e-003
1968	11.513	5.0909	0.	2.1295e-002
1969	11.513	5.2727	0.	1.5371
1970	11.513	5.4545	0.	3.9553
1971	11.513	5.6364	0.	6.5434
1972	11.513	5.8182	0.	10.501
1973	11.697	0.18182	0.	10.955
1974	11.697	0.36364	0.	7.1565
1975	11.697	0.54545	0.	4.7515
1976	11.697	0.72727	0.	2.5116
1977	11.697	0.90909	0.	0.40592
1978	11.697	1.0909	0.	1.3438e-002
1979	11.697	1.2727	0.	8.2202e-003
1980	11.697	1.4545	0.	6.7166e-003
1981	11.697	1.6364	0.	6.0105e-003
1982	11.697	1.8182	0.	5.6025e-003
1983	11.697	2.	0.	5.3403e-003
1984	11.697	2.1818	0.	5.1609e-003
1985	11.697	2.3636	0.	5.033e-003
1986	11.697	2.5455	0.	4.9463e-003
1987	11.697	2.7273	0.	4.8896e-003
1988	11.697	2.9091	0.	4.8632e-003
1989	11.697	3.0909	0.	4.8632e-003
1990	11.697	3.2727	0.	4.8902e-003
1991	11.697	3.4545	0.	4.9461e-003
1992	11.697	3.6364	0.	5.032e-003
1993	11.697	3.8182	0.	5.1595e-003
1994	11.697	4.	0.	5.3404e-003
1995	11.697	4.1818	0.	5.603e-003
1996	11.697	4.3636	0.	6.0099e-003
1997	11.697	4.5455	0.	6.7162e-003
1998	11.697	4.7273	0.	8.2187e-003
1999	11.697	4.9091	0.	1.3438e-002
2000	11.697	5.0909	0.	0.40601
2001	11.697	5.2727	0.	2.5117
2002	11.697	5.4545	0.	4.7516
2003	11.697	5.6364	0.	7.1565
2004	11.697	5.8182	0.	10.956
2005	11.881	0.18182	0.	11.393
2006	11.881	0.36364	0.	7.7394
2007	11.881	0.54545	0.	5.5039
2008	11.881	0.72727	0.	3.4301
2009	11.881	0.90909	0.	1.4595
2010	11.881	1.0909	0.	4.2677e-002
2011	11.881	1.2727	0.	1.1653e-002
2012	11.881	1.4545	0.	8.1277e-003
2013	11.881	1.6364	0.	6.8119e-003
2014	11.881	1.8182	0.	6.1416e-003
2015	11.881	2.	0.	5.744e-003
2016	11.881	2.1818	0.	5.4878e-003
2017	11.881	2.3636	0.	5.3175e-003
2018	11.881	2.5455	0.	5.2049e-003
2019	11.881	2.7273	0.	5.1356e-003
2020	11.881	2.9091	0.	5.1021e-003
2021	11.881	3.0909	0.	5.1021e-003
2022	11.881	3.2727	0.	5.1355e-003
2023	11.881	3.4545	0.	5.2047e-003
2024	11.881	3.6364	0.	5.3176e-003
2025	11.881	3.8182	0.	5.4885e-003
2026	11.881	4.	0.	5.7438e-003
2027	11.881	4.1818	0.	6.1409e-003
2028	11.881	4.3636	0.	6.8116e-003
2029	11.881	4.5455	0.	8.1274e-003
2030	11.881	4.7273	0.	1.1653e-002
2031	11.881	4.9091	0.	4.2683e-002
2032	11.881	5.0909	0.	1.4596
2033	11.881	5.2727	0.	3.4302
2034	11.881	5.4545	0.	5.504
2035	11.881	5.6364	0.	7.7394
2036	11.881	5.8182	0.	11.393
2037	12.064	0.18182	0.	11.814
2038	12.064	0.36364	0.	8.2939
2039	12.064	0.54545	0.	6.2153
2040	12.064	0.72727	0.	4.2954
2041	12.064	0.90909	0.	2.4706
2042	12.064	1.0909	0.	0.76101
2043	12.064	1.2727	0.	2.4323e-002
2044	12.064	1.4545	0.	1.1049e-002
2045	12.064	1.6364	0.	8.1531e-003
2046	12.064	1.8182	0.	6.9292e-003
2047	12.064	2.	0.	6.2756e-003
2048	12.064	2.1818	0.	5.8831e-003
2049	12.064	2.3636	0.	5.6353e-003
2050	12.064	2.5455	0.	5.4781e-003
2051	12.064	2.7273	0.	5.3831e-003
2052	12.064	2.9091	0.	5.3381e-003
2053	12.064	3.0909	0.	5.3385e-003
2054	12.064	3.2727	0.	5.3828e-003
2055	12.064	3.4545	0.	5.478e-003
2056	12.064	3.6364	0.	5.6347e-003
2057	12.064	3.8182	0.	5.8832e-003
2058	12.064	4.	0.	6.2758e-003
2059	12.064	4.1818	0.	6.9284e-003
2060	12.064	4.3636	0.	8.1521e-003
2061	12.064	4.5455	0.	1.1048e-002
2062	12.064	4.7273	0.	2.4325e-002
2063	12.064	4.9091	0.	0.7611
2064	12.064	5.0909	0.	2.4707
2065	12.064	5.2727	0.	4.2955
2066	12.064	5.4545	0.	6.2154
2067	12.064	5.6364	0.	8.2939
2068	12.064	5.8182	0.	11.814
2069	12.248	0.18182	0.	12.22
2070	12.248	0.36364	0.	8.8219
2071	12.248	0.54545	0.	6.8884
2072	12.248	0.72727	0.	5.1109
2073	12.248	0.90909	0.	3.423
2074	12.248	1.0909	0.	1.8331
2075	12.248	1.2727	0.	0.38367
2076	12.248	1.4545	0.	2.064e-002
2077	12.248	1.6364	0.	1.0886e-002
2078	12.248	1.8182	0.	8.2114e-003
2079	12.248	2.	0.	7.011e-003
2080	12.248	2.1818	0.	6.3565e-003
2081	12.248	2.3636	0.	5.967e-003
2082	12.248	2.5455	0.	5.7313e-003
2083	12.248	2.7273	0.	5.5935e-003
2084	12.248	2.9091	0.	5.5289e-003
2085	12.248	3.0909	0.	5.5285e-003
2086	12.248	3.2727	0.	5.5927e-003
2087	12.248	3.4545	0.	5.7314e-003
2088	12.248	3.6364	0.	5.9681e-003
2089	12.248	3.8182	0.	6.3559e-003
2090	12.248	4.	0.	7.0096e-003
2091	12.248	4.1818	0.	8.2115e-003
2092	12.248	4.3636	0.	1.0886e-002
2093	12.248	4.5455	0.	2.064e-002
2094	12.248	4.7273	0.	0.38375
2095	12.248	4.9091	0.	1.8332
2096	12.248	5.0909	0.	3.4231
2097	12.248	5.2727	0.	5.111
2098	12.248	5.4545	0.	6.8885
2099	12.248	5.6364	0.	8.822
2100	12.248	5.8182	0.	12.22
2101	12.432	0.18182	0.	12.613
2102	12.432	0.36364	0.	9.3255
2103	12.432	0.54545	0.	7.5261
2104	12.432	0.72727	0.	5.8804
2105	12.432	0.90909	0.	4.3194
2106	12.432	1.0909	0.	2.849
2107	12.432	1.2727	0.	1.4809
2108	12.432	1.4545	0.	0.26978
2109	12.432	1.6364	0.	2.0519e-002
2110	12.432	1.8182	0.	1.1046e-002
2111	12.432	2.	0.	8.2969e-003
2112	12.432	2.1818	0.	7.0507e-003
2113	12.432	2.3636	0.	6.3781e-003
2114	12.432	2.5455	0.	5.9934e-003
2115	12.432	2.7273	0.	5.7773e-003
2116	12.432	2.9091	0.	5.6788e-003
2117	12.432	3.0909	0.	5.6789e-003
2118	12.432	3.2727	0.	5.7775e-003
2119	12.432	3.4545	0.	5.9933e-003
2120	12.432	3.6364	0.	6.379e-003
2121	12.432	3.8182	0.	7.05e-003
2122	12.432	4.	0.	8.297e-003
2123	12.432	4.1818	0.	1.1046e-002
2124	12.432	4.3636	0.	2.0521e-002
2125	12.432	4.5455	0.	0.26984
2126	12.432	4.7273	0.	1.481
2127	12.432	4.9091	0.	2.8491
2128	12.432	5.0909	0.	4.3195
2129	12.432	5.2727	0.	5.8805
2130	12.432	5.4545	0.	7.5262
2131	12.432	5.6364	0.	9.3255
2132	12.432	5.8182	0.	12.613
2133	12.615	0.18182	0.	12.993
2134	12.615	0.36364	0.	9.8065
2135	12.615	0.54545	0.	8.1312
2136	12.615	0.72727	0.	6.6073
2137	12.615	0.90909	0.	5.1639
2138	12.615	1.0909	0.	3.8053
2139	12.615	1.2727	0.	2.54
2140	12.615	1.4545	0.	1.3782
2141	12.615	1.6364	0.	0.35202
2142	12.615	1.8182	0.	2.4426e-002
2143	12.615	2.	0.	1.1745e-002
2144	12.615	2.1818	0.	8.4887e-003
2145	12.615	2.3636	0.	7.0896e-003
2146	12.615	2.5455	0.	6.3744e-003
2147	12.615	2.7273	0.	5.9985e-003
2148	12.615	2.9091	0.	5.8344e-003
2149	12.615	3.0909	0.	5.8339e-003
2150	12.615	3.2727	0.	5.9988e-003
2151	12.615	3.4545	0.	6.3738e-003
2152	12.615	3.6364	0.	7.0889e-003
2153	12.615	3.8182	0.	8.4883e-003
2154	12.615	4.	0.	1.1746e-002
2155	12.615	4.1818	0.	2.4428e-002
2156	12.615	4.3636	0.	0.35208
2157	12.615	4.5455	0.	1.3783
2158	12.615	4.7273	0.	2.5401
2159	12.615	4.9091	0.	3.8054
2160	12.615	5.0909	0.	5.164
2161	12.615	5.2727	0.	6.6074
2162	12.615	5.4545	0.	8.1313
2163	12.615	5.6364	0.	9.8066
2164	12.615	5.8182	0.	12.993
2165	12.799	0.18182	0.	13.362
2166	12.799	0.36364	0.	10.267
2167	12.799	0.54545	0.	8.7065
2168	12.799	0.72727	0.	7.2953
2169	12.799	0.90909	0.	5.9608
2170	12.799	1.0909	0.	4.7059
2171	12.799	1.2727	0.	3.5378
2172	12.799	1.4545	0.	2.4642
2173	12.799	1.6364	0.	1.4926
2174	12.799	1.8182	0.	0.63482
2175	12.799	2.	0.	5.6308e-002
2176	12.799	2.1818	0.	1.4366e-002
2177	12.799	2.3636	0.	9.0714e-003
2178	12.799	2.5455	0.	7.2178e-003
2179	12.799	2.7273	0.	6.3969e-003
2180	12.799	2.9091	0.	6.0649e-003
2181	12.799	3.0909	0.	6.0649e-003
2182	12.799	3.2727	0.	6.3974e-003
2183	12.799	3.4545	0.	7.2167e-003
2184	12.799	3.6364	0.	9.0718e-003
2185	12.799	3.8182	0.	1.4365e-002
2186	12.799	4.	0.	5.6319e-002
2187	12.799	4.1818	0.	0.63488
2188	12.799	4.3636	0.	1.4927
2189	12.799	4.5455	0.	2.4643
2190	12.799	4.7273	0.	3.5379
2191	12.799	4.9091	0.	4.706
2192	12.799	5.0909	0.	5.9609
2193	12.799	5.2727	0.	7.2954
2194	12.799	5.4545	0.	8.7066
2195	12.799	5.6364	0.	10.267
2196	12.799	5.8182	0.	13.362
2197	12.982	0.18182	0.	13.721
2198	12.982	0.36364	0.	10.709
2199	12.982	0.54545	0.	9.2544
2200	12.982	0.72727	0.	7.9476
2201	12.982	0.90909	0.	6.7139
2202	12.982	1.0909	0.	5.5551
2203	12.982	1.2727	0.	4.4776
2204	12.982	1.4545	0.	3.4878
2205	12.982	1.6364	0.	2.5916
2206	12.982	1.8182	0.	1.7948
2207	12.982	2.	0.	1.1027
2208	12.982	2.1818	0.	0.52202
2209	12.982	2.3636	0.	8.9136e-002
2210	12.982	2.5455	0.	1.3049e-002
2211	12.982	2.7273	0.	7.6763e-003
2212	12.982	2.9091	0.	6.3701e-003
2213	12.982	3.0909	0.	6.3708e-003
2214	12.982	3.2727	0.	7.6771e-003
2215	12.982	3.4545	0.	1.305e-002
2216	12.982	3.6364	0.	8.9158e-002
2217	12.982	3.8182	0.	0.52207
2218	12.982	4.	0.	1.1028
2219	12.982	4.1818	0.	1.7948
2220	12.982	4.3636	0.	2.5917
2221	12.982	4.5455	0.	3.4878
2222	12.982	4.7273	0.	4.4777
2223	12.982	4.9091	0.	5.5552
2224	12.982	5.0909	0.	6.714
2225	12.982	5.2727	0.	7.9477
2226	12.982	5.4545	0.	9.2545
2227	12.982	5.6364	0.	10.709
2228	12.982	5.8182	0.	13.721
2229	13.166	0.18182	0.	14.071
2230	13.166	0.36364	0.	11.134
2231	13.166	0.54545	0.	9.7774
2232	13.166	0.72727	0.	8.5673
2233	13.166	0.90909	0.	7.427
2234	13.166	1.0909	0.	6.3574
2235	13.166	1.2727	0.	5.364
2236	13.166	1.4545	0.	4.4523
2237	13.166	1.6364	0.	3.6275
2238	13.166	1.8182	0.	2.8943
2239	13.166	2.	0.	2.2572
2240	13.166	2.1818	0.	1.7199
2241	13.166	2.3636	0.	1.2855
2242	13.166	2.5455	0.	0.95681
2243	13.166	2.7273	0.	0.7359
2244	13.166	2.9091	0.	0.62472
2245	13.166	3.0909	0.	0.62472
2246	13.166	3.2727	0.	0.73591
2247	13.166	3.4545	0.	0.95683
2248	13.166	3.6364	0.	1.2855
2249	13.166	3.8182	0.	1.7199
2250	13.166	4.	0.	2.2573
2251	13.166	4.1818	0.	2.8944
2252	13.166	4.3636	0.	3.6275
2253	13.166	4.5455	0.	4.4524
2254	13.166	4.7273	0.	5.3641
2255	13.166	4.9091	0.	6.3575
2256	13.166	5.0909	0.	7.4271
2257	13.166	5.2727	0.	8.5674
2258	13.166	5.4545	0.	9.7775
2259	13.166	5.6364	0.	11.134
2260	13.166	5.8182	0.	14.071
2261	13.35	0.18182	0.	14.413
2262	13.35	0.36364	0.	11.543
2263	13.35	0.54545	0.	10.278
2264	13.35	0.72727	0.	9.1575
2265	13.35	0.90909	0.	8.104
2266	13.35	1.0909	0.	7.1171
2267	13.35	1.2727	0.	6.2018
2268	13.35	1.4545	0.	5.3628
2269	13.35	1.6364	0.	4.6045
2270	13.35	1.8182	0.	3.9312
2271	13.35	2.	0.	3.3464
2272	13.35	2.1818	0.	2.8537
2273	13.35	2.3636	0.	2.4557
2274	13.35	2.5455	0.	2.1549
2275	13.35	2.7273	0.	1.9532
2276	13.35	2.9091	0.	1.8521
2277	13.35	3.0909	0.	1.8521
2278	13.35	3.2727	0.	1.9533
2279	13.35	3.4545	0.	2.1549
2280	13.35	3.6364	0.	2.4557
2281	13.35	3.8182	0.	2.8537
2282	13.35	4.	0.	3.3465
2283	13.35	4.1818	0.	3.9312
2284	13.35	4.3636	0.	4.6046
2285	13.35	4.5455	0.	5.3629
2286	13.35	4.7273	0.	6.2019
2287	13.35	4.9091	0.	7.1172
2288	13.35	5.0909	0.	8.1041
2289	13.35	5.2727	0.	9.1576
2290	13.35	5.4545	0.	10.278
2291	13.35	5.6364	0.	11.543
2292	13.35	5.8182	0.	14.413
2293	13.533	0.18182	0.	14.747
2294	13.533	0.36364	0.	11.939
2295	13.533	0.54545	0.	10.758
2296	13.533	0.72727	0.	9.7212
2297	13.533	0.90909	0.	8.7483
2298	13.533	1.0909	0.	7.8385
2299	13.533	1.2727	0.	6.9958
2300	13.533	1.4545	0.	6.2245
2301	13.533	1.6364	0.	5.5282
2302	13.533	1.8182	0.	4.9106
2303	13.533	2.	0.	4.3748
2304	13.533	2.1818	0.	3.9236
2305	13.533	2.3636	0.	3.5596
2306	13.533	2.5455	0.	3.2847
2307	13.533	2.7273	0.	3.1005
2308	13.533	2.9091	0.	3.0081
2309	13.533	3.0909	0.	3.0081
2310	13.533	3.2727	0.	3.1005
2311	13.533	3.4545	0.	3.2847
2312	13.533	3.6364	0.	3.5596
2313	13.533	3.8182	0.	3.9236
2314	13.533	4.	0.	4.3748
2315	13.533	4.1818	0.	4.9106
2316	13.533	4.3636	0.	5.5283
2317	13.533	4.5455	0.	6.2246
2318	13.533	4.7273	0.	6.9959
2319	13.533	4.9091	0.	7.8386
2320	13.533	5.0909	0.	8.7484
2321	13.533	5.2727	0.	9.7213
2322	13.533	5.4545	0.	10.758
2323	13.533	5.6364	0.	11.939
2324	13.533	5.8182	0.	14.748
2325	13.717	0.18182	0.	15.076
2326	13.717	0.36364	0.	12.323
2327	13.717	0.54545	0.	11.22
2328	13.717	0.72727	0.	10.261
2329	13.717	0.90909	0.	9.3635
2330	13.717	1.0909	0.	8.5255
2331	13.717	1.2727	0.	7.7507
2332	13.717	1.4545	0.	7.0425
2333	13.717	1.6364	0.	6.4041
2334	13.717	1.8182	0.	5.8385
2335	13.717	2.	0.	5.3483
2336	13.717	2.1818	0.	4.936
2337	13.717	2.3636	0.	4.6036
2338	13.717	2.5455	0.	4.3528
2339	13.717	2.7273	0.	4.1848
2340	13.717	2.9091	0.	4.1006
2341	13.717	3.0909	0.	4.1006
2342	13.717	3.2727	0.	4.1848
2343	13.717	3.4545	0.	4.3528
2344	13.717	3.6364	0.	4.6036
2345	13.717	3.8182	0.	4.9361
2346	13.717	4.	0.	5.3484
2347	13.717	4.1818	0.	5.8385
2348	13.717	4.3636	0.	6.4042
2349	13.717	4.5455	0.	7.0426
2350	13.717	4.7273	0.	7.7508
2351	13.717	4.9091	0.	8.5256
2352	13.717	5.0909	0.	9.3636
2353	13.717	5.2727	0.	10.261
2354	13.717	5.4545	0.	11.22
2355	13.717	5.6364	0.	12.323
2356	13.717	5.8182	0.	15.077
2357	13.901	0.18182	0.	15.4
2358	13.901	0.36364	0.	12.696
2359	13.901	0.54545	0.	11.667
2360	13.901	0.72727	0.	10.78
2361	13.901	0.90909	0.	9.9527
2362	13.901	1.0909	0.	9.1819
2363	13.901	1.2727	0.	8.4705
2364	13.901	1.4545	0.	7.8214
2365	13.901	1.6364	0.	7.2372
2366	13.901	1.8182	0.	6.7203
2367	13.901	2.	0.	6.2729
2368	13.901	2.1818	0.	5.897
2369	13.901	2.3636	0.	5.5942
2370	13.901	2.5455	0.	5.3658
2371	13.901	2.7273	0.	5.213
2372	13.901	2.9091	0.	5.1364
2373	13.901	3.0909	0.	5.1364
2374	13.901	3.2727	0.	5.213
2375	13.901	3.4545	0.	5.3658
2376	13.901	3.6364	0.	5.5942
2377	13.901	3.8182	0.	5.897
2378	13.901	4.	0.	6.273
2379	13.901	4.1818	0.	6.7204
2380	13.901	4.3636	0.	7.2373
2381	13.901	4.5455	0.	7.8215
2382	13.901	4.7273	0.	8.4706
2383	13.901	4.9091	0.	9.182
2384	13.901	5.0909	0.	9.9528
2385	13.901	5.2727	0.	10.78
2386	13.901	5.4545	0.	11.667
2387	13.901	5.6364	0.	12.696
2388	13.901	5.8182	0.	15.401
2389	14.084	0.18182	0.	15.72
2390	14.084	0.36364	0.	13.061
2391	14.084	0.54545	0.	12.099
2392	14.084	0.72727	0.	11.281
2393	14.084	0.90909	0.	10.519
2394	14.084	1.0909	0.	9.8112
2395	14.084	1.2727	0.	9.1594
2396	14.084	1.4545	0.	8.5659
2397	14.084	1.6364	0.	8.0326
2398	14.084	1.8182	0.	7.5615
2399	14.084	2.	0.	7.1543
2400	14.084	2.1818	0.	6.8125
2401	14.084	2.3636	0.	6.5375
2402	14.084	2.5455	0.	6.3303
2403	14.084	2.7273	0.	6.1917
2404	14.084	2.9091	0.	6.1223
2405	14.084	3.0909	0.	6.1223
2406	14.084	3.2727	0.	6.1917
2407	14.084	3.4545	0.	6.3303
2408	14.084	3.6364	0.	6.5375
2409	14.084	3.8182	0.	6.8126
2410	14.084	4.	0.	7.1543
2411	14.084	4.1818	0.	7.5615
2412	14.084	4.3636	0.	8.0326
2413	14.084	4.5455	0.	8.566
2414	14.084	4.7273	0.	9.1595
2415	14.084	4.9091	0.	9.8113
2416	14.084	5.0909	0.	10.519
2417	14.084	5.2727	0.	11.281
2418	14.084	5.4545	0.	12.099
2419	14.084	5.6364	0.	13.061
2420	14.084	5.8182	0.	15.72
2421	14.268	0.18182	0.	16.037
2422	14.268	0.36364	0.	13.417
2423	14.268	0.54545	0.	12.52
2424	14.268	0.72727	0.	11.765
2425	14.268	0.90909	0.	11.065
2426	14.268	1.0909	0.	10.417
2427	14.268	1.2727	0.	9.8213
2428	14.268	1.4545	0.	9.2802
2429	14.268	1.6364	0.	8.795
2430	14.268	1.8182	0.	8.3671
2431	14.268	2.	0.	7.9979
2432	14.268	2.1818	0.	7.6884
2433	14.268	2.3636	0.	7.4397
2434	14.268	2.5455	0.	7.2524
2435	14.268	2.7273	0.	7.1273
2436	14.268	2.9091	0.	7.0646
2437	14.268	3.0909	0.	7.0646
2438	14.268	3.2727	0.	7.1273
2439	14.268	3.4545	0.	7.2525
2440	14.268	3.6364	0.	7.4397
2441	14.268	3.8182	0.	7.6885
2442	14.268	4.	0.	7.9979
2443	14.268	4.1818	0.	8.3672
2444	14.268	4.3636	0.	8.795
2445	14.268	4.5455	0.	9.2803
2446	14.268	4.7273	0.	9.8214
2447	14.268	4.9091	0.	10.417
2448	14.268	5.0909	0.	11.065
2449	14.268	5.2727	0.	11.765
2450	14.268	5.4545	0.	12.52
2451	14.268	5.6364	0.	13.417
2452	14.268	5.8182	0.	16.037
2453	14.451	0.18182	0.	16.352
2454	14.451	0.36364	0.	13.767
2455	14.451	0.54545	0.	12.93
2456	14.451	0.72727	0.	12.235
2457	14.451	0.90909	0.	11.594
2458	14.451	1.0909	0.	11.002
2459	14.451	1.2727	0.	10.46
2460	14.451	1.4545	0.	9.9685
2461	14.451	1.6364	0.	9.5289
2462	14.451	1.8182	0.	9.1422
2463	14.451	2.	0.	8.809
2464	14.451	2.1818	0.	8.5302
2465	14.451	2.3636	0.	8.3065
2466	14.451	2.5455	0.	8.1382
2467	14.451	2.7273	0.	8.0257
2468	14.451	2.9091	0.	7.9695
2469	14.451	3.0909	0.	7.9695
2470	14.451	3.2727	0.	8.0258
2471	14.451	3.4545	0.	8.1382
2472	14.451	3.6364	0.	8.3065
2473	14.451	3.8182	0.	8.5303
2474	14.451	4.	0.	8.8091
2475	14.451	4.1818	0.	9.1422
2476	14.451	4.3636	0.	9.529
2477	14.451	4.5455	0.	9.9686
2478	14.451	4.7273	0.	10.46
2479	14.451	4.9091	0.	11.002
2480	14.451	5.0909	0.	11.595
2481	14.451	5.2727	0.	12.236
2482	14.451	5.4545	0.	12.93
2483	14.451	5.6364	0.	13.767
2484	14.451	5.8182	0.	16.352
2485	14.635	0.18182	0.	16.665
2486	14.635	0.36364	0.	14.112
2487	14.635	0.54545	0.	13.332
2488	14.635	0.72727	0.	12.695
2489	14.635	0.90909	0.	12.109
2490	14.635	1.0909	0.	11.571
2491	14.635	1.2727	0.	11.079
2492	14.635	1.4545	0.	10.635
2493	14.635	1.6364	0.	10.239
2494	14.635	1.8182	0.	9.8915
2495	14.635	2.	0.	9.5928
2496	14.635	2.1818	0.	9.3434
2497	14.635	2.3636	0.	9.1434
2498	14.635	2.5455	0.	8.9933
2499	14.635	2.7273	0.	8.8931
2500	14.635	2.9091	0.	8.8429
2501	14.635	3.0909	0.	8.8429
2502	14.635	3.2727	0.	8.8931
2503	14.635	3.4545	0.	8.9933
2504	14.635	3.6364	0.	9.1435
2505	14.635	3.8182	0.	9.3434
2506	14.635	4.	0.	9.5929
2507	14.635	4.1818	0.	9.8916
2508	14.635	4.3636	0.	10.239
2509	14.635	4.5455	0.	10.635
2510	14.635	4.7273	0.	11.079
2511	14.635	4.9091	0.	11.571
2512	14.635	5.0909	0.	12.109
2513	14.635	5.2727	0.	12.695
2514	14.635	5.4545	0.	13.332
2515	14.635	5.6364	0.	14.112
2516	14.635	5.8182	0.	16.665
2517	14.819	0.18182	0.	16.977
2518	14.819	0.36364	0.	14.454
2519	14.819	0.54545	0.	13.727
2520	14.819	0.72727	0.	13.145
2521	14.819	0.90909	0.	12.613
2522	14.819	1.0909	0.	12.125
2523	14.819	1.2727	0.	11.682
2524	14.819	1.4545	0.	11.284
2525	14.819	1.6364	0.	10.929
2526	14.819	1.8182	0.	10.62
2527	14.819	2.	0.	10.354
2528	14.819	2.1818	0.	10.133
2529	14.819	2.3636	0.	9.9558
2530	14.819	2.5455	0.	9.8231
2531	14.819	2.7273	0.	9.7347
2532	14.819	2.9091	0.	9.6904
2533	14.819	3.0909	0.	9.6904
2534	14.819	3.2727	0.	9.7347
2535	14.819	3.4545	0.	9.8231
2536	14.819	3.6364	0.	9.9559
2537	14.819	3.8182	0.	10.133
2538	14.819	4.	0.	10.354
2539	14.819	4.1818	0.	10.62
2540	14.819	4.3636	0.	10.93
2541	14.819	4.5455	0.	11.284
2542	14.819	4.7273	0.	11.682
2543	14.819	4.9091	0.	12.125
2544	14.819	5.0909	0.	12.613
2545	14.819	5.2727	0.	13.145
2546	14.819	5.4545	0.	13.727
2547	14.819	5.6364	0.	14.454
2548	14.819	5.8182	0.	16.977
2549	15.002	0.18182	0.	17.29
2550	15.002	0.36364	0.	14.792
2551	15.002	0.54545	0.	14.118
2552	15.002	0.72727	0.	13.587
2553	15.002	0.90909	0.	13.107
2554	15.002	1.0909	0.	12.669
2555	15.002	1.2727	0.	12.273
2556	15.002	1.4545	0.	11.918
2557	15.002	1.6364	0.	11.604
2558	15.002	1.8182	0.	11.331
2559	15.002	2.	0.	11.097
2560	15.002	2.1818	0.	10.904
2561	15.002	2.3636	0.	10.749
2562	15.002	2.5455	0.	10.633
2563	15.002	2.7273	0.	10.556
2564	15.002	2.9091	0.	10.517
2565	15.002	3.0909	0.	10.517
2566	15.002	3.2727	0.	10.556
2567	15.002	3.4545	0.	10.633
2568	15.002	3.6364	0.	10.749
2569	15.002	3.8182	0.	10.904
2570	15.002	4.	0.	11.097
2571	15.002	4.1818	0.	11.331
2572	15.002	4.3636	0.	11.604
2573	15.002	4.5455	0.	11.918
2574	15.002	4.7273	0.	12.273
2575	15.002	4.9091	0.	12.669
2576	15.002	5.0909	0.	13.107
2577	15.002	5.2727	0.	13.588
2578	15.002	5.4545	0.	14.118
2579	15.002	5.6364	0.	14.793
2580	15.002	5.8182	0.	17.29
2581	15.186	0.18182	0.	17.603
2582	15.186	0.36364	0.	15.13
2583	15.186	0.54545	0.	14.505
2584	15.186	0.72727	0.	14.025
2585	15.186	0.90909	0.	13.594
2586	15.186	1.0909	0.	13.204
2587	15.186	1.2727	0.	12.854
2588	15.186	1.4545	0.	12.542
2589	15.186	1.6364	0.	12.267
2590	15.186	1.8182	0.	12.03
2591	15.186	2.	0.	11.828
2592	15.186	2.1818	0.	11.66
2593	15.186	2.3636	0.	11.527
2594	15.186	2.5455	0.	11.428
2595	15.186	2.7273	0.	11.362
2596	15.186	2.9091	0.	11.329
2597	15.186	3.0909	0.	11.329
2598	15.186	3.2727	0.	11.362
2599	15.186	3.4545	0.	11.428
2600	15.186	3.6364	0.	11.527
2601	15.186	3.8182	0.	11.66
2602	15.186	4.	0.	11.828
2603	15.186	4.1818	0.	12.03
2604	15.186	4.3636	0.	12.268
2605	15.186	4.5455	0.	12.542
2606	15.186	4.7273	0.	12.854
2607	15.186	4.9091	0.	13.204
2608	15.186	5.0909	0.	13.594
2609	15.186	5.2727	0.	14.025
2610	15.186	5.4545	0.	14.505
2611	15.186	5.6364	0.	15.13
2612	15.186	5.8182	0.	17.603
2613	15.37	0.18182	0.	17.918
2614	15.37	0.36364	0.	15.467
2615	15.37	0.54545	0.	14.89
2616	15.37	0.72727	0.	14.46
2617	15.37	0.90909	0.	14.077
2618	15.37	1.0909	0.	13.734
2619	15.37	1.2727	0.	13.428
2620	15.37	1.4545	0.	13.159
2621	15.37	1.6364	0.	12.923
2622	15.37	1.8182	0.	12.72
2623	15.37	2.	0.	12.549
2624	15.37	2.1818	0.	12.408
2625	15.37	2.3636	0.	12.296
2626	15.37	2.5455	0.	12.214
2627	15.37	2.7273	0.	12.159
2628	15.37	2.9091	0.	12.131
2629	15.37	3.0909	0.	12.131
2630	15.37	3.2727	0.	12.159
2631	15.37	3.4545	0.	12.214
2632	15.37	3.6364	0.	12.296
2633	15.37	3.8182	0.	12.408
2634	15.37	4.	0.	12.549
2635	15.37	4.1818	0.	12.72
2636	15.37	4.3636	0.	12.923
2637	15.37	4.5455	0.	13.159
2638	15.37	4.7273	0.	13.429
2639	15.37	4.9091	0.	13.734
2640	15.37	5.0909	0.	14.077
2641	15.37	5.2727	0.	14.46
2642	15.37	5.4545	0.	14.89
2643	15.37	5.6364	0.	15.467
2644	15.37	5.8182	0.	17.918
2645	15.553	0.18182	0.	18.236
2646	15.553	0.36364	0.	15.805
2647	15.553	0.54545	0.	15.275
2648	15.553	0.72727	0.	14.894
2649	15.553	0.90909	0.	14.559
2650	15.553	1.0909	0.	14.262
2651	15.553	1.2727	0.	14.
2652	15.553	1.4545	0.	13.772
2653	15.553	1.6364	0.	13.575
2654	15.553	1.8182	0.	13.407
2655	15.553	2.	0.	13.266
2656	15.553	2.1818	0.	13.151
2657	15.553	2.3636	0.	13.061
2658	15.553	2.5455	0.	12.994
2659	15.553	2.7273	0.	12.95
2660	15.553	2.9091	0.	12.928
2661	15.553	3.0909	0.	12.928
2662	15.553	3.2727	0.	12.95
2663	15.553	3.4545	0.	12.994
2664	15.553	3.6364	0.	13.061
2665	15.553	3.8182	0.	13.151
2666	15.553	4.	0.	13.266
2667	15.553	4.1818	0.	13.407
2668	15.553	4.3636	0.	13.575
2669	15.553	4.5455	0.	13.772
2670	15.553	4.7273	0.	14.001
2671	15.553	4.9091	0.	14.262
2672	15.553	5.0909	0.	14.559
2673	15.553	5.2727	0.	14.894
2674	15.553	5.4545	0.	15.275
2675	15.553	5.6364	0.	15.805
2676	15.553	5.8182	0.	18.236
2677	15.737	0.18182	0.	18.556
2678	15.737	0.36364	0.	16.144
2679	15.737	0.54545	0.	15.662
2680	15.737	0.72727	0.	15.328
2681	15.737	0.90909	0.	15.041
2682	15.737	1.0909	0.	14.79
2683	15.737	1.2727	0.	14.573
2684	15.737	1.4545	0.	14.386
2685	15.737	1.6364	0.	14.227
2686	15.737	1.8182	0.	14.094
2687	15.737	2.	0.	13.984
2688	15.737	2.1818	0.	13.895
2689	15.737	2.3636	0.	13.826
2690	15.737	2.5455	0.	13.776
2691	15.737	2.7273	0.	13.742
2692	15.737	2.9091	0.	13.726
2693	15.737	3.0909	0.	13.726
2694	15.737	3.2727	0.	13.742
2695	15.737	3.4545	0.	13.776
2696	15.737	3.6364	0.	13.826
2697	15.737	3.8182	0.	13.895
2698	15.737	4.	0.	13.984
2699	15.737	4.1818	0.	14.094
2700	15.737	4.3636	0.	14.227
2701	15.737	4.5455	0.	14.386
2702	15.737	4.7273	0.	14.573
2703	15.737	4.9091	0.	14.79
2704	15.737	5.0909	0.	15.041
2705	15.737	5.2727	0.	15.328
2706	15.737	5.4545	0.	15.662
2707	15.737	5.6364	0.	16.144
2708	15.737	5.8182	0.	18.556
2709	15.92	0.18182	0.	18.88
2710	15.92	0.36364	0.	16.487
2711	15.92	0.54545	0.	16.051
2712	15.92	0.72727	0.	15.766
2713	15.92	0.90909	0.	15.526
2714	15.92	1.0909	0.	15.321
2715	15.92	1.2727	0.	15.148
2716	15.92	1.4545	0.	15.003
2717	15.92	1.6364	0.	14.883
2718	15.92	1.8182	0.	14.785
2719	15.92	2.	0.	14.706
2720	15.92	2.1818	0.	14.643
2721	15.92	2.3636	0.	14.596
2722	15.92	2.5455	0.	14.562
2723	15.92	2.7273	0.	14.54
2724	15.92	2.9091	0.	14.529
2725	15.92	3.0909	0.	14.529
2726	15.92	3.2727	0.	14.54
2727	15.92	3.4545	0.	14.562
2728	15.92	3.6364	0.	14.596
2729	15.92	3.8182	0.	14.643
2730	15.92	4.	0.	14.706
2731	15.92	4.1818	0.	14.785
2732	15.92	4.3636	0.	14.883
2733	15.92	4.5455	0.	15.003
2734	15.92	4.7273	0.	15.148
2735	15.92	4.9091	0.	15.321
2736	15.92	5.0909	0.	15.526
2737	15.92	5.2727	0.	15.766
2738	15.92	5.4545	0.	16.051
2739	15.92	5.6364	0.	16.487
2740	15.92	5.8182	0.	18.88
2741	16.104	0.18182	0.	19.208
2742	16.104	0.36364	0.	16.834
2743	16.104	0.54545	0.	16.445
2744	16.104	0.72727	0.	16.208
2745	16.104	0.90909	0.	16.016
2746	16.104	1.0909	0.	15.858
2747	16.104	1.2727	0.	15.73
2748	16.104	1.4545	0.	15.628
2749	16.104	1.6364	0.	15.547
2750	16.104	1.8182	0.	15.484
2751	16.104	2.	0.	15.437
2752	16.104	2.1818	0.	15.401
2753	16.104	2.3636	0.	15.376
2754	16.104	2.5455	0.	15.359
2755	16.104	2.7273	0.	15.348
2756	16.104	2.9091	0.	15.343
2757	16.104	3.0909	0.	15.343
2758	16.104	3.2727	0.	15.348
2759	16.104	3.4545	0.	15.359
2760	16.104	3.6364	0.	15.376
2761	16.104	3.8182	0.	15.401
2762	16.104	4.	0.	15.437
2763	16.104	4.1818	0.	15.484
2764	16.104	4.3636	0.	15.547
2765	16.104	4.5455	0.	15.628
2766	16.104	4.7273	0.	15.73
2767	16.104	4.9091	0.	15.858
2768	16.104	5.0909	0.	16.016
2769	16.104	5.2727	0.	16.208
2770	16.104	5.4545	0.	16.445
2771	16.104	5.6364	0.	16.834
2772	16.104	5.8182	0.	19.208
2773	16.288	0.18182	0.	19.541
2774	16.288	0.36364	0.	17.186
2775	16.288	0.54545	0.	16.844
2776	16.288	0.72727	0.	16.656
2777	16.288	0.90909	0.	16.514
2778	16.288	1.0909	0.	16.404
2779	16.288	1.2727	0.	16.322
2780	16.288	1.4545	0.	16.263
2781	16.288	1.6364	0.	16.222
2782	16.288	1.8182	0.	16.196
2783	16.288	2.	0.	16.181
2784	16.288	2.1818	0.	16.173
2785	16.288	2.3636	0.	16.171
2786	16.288	2.5455	0.	16.171
2787	16.288	2.7273	0.	16.172
2788	16.288	2.9091	0.	16.172
2789	16.288	3.0909	0.	16.172
2790	16.288	3.2727	0.	16.172
2791	16.288	3.4545	0.	16.171
2792	16.288	3.6364	0.	16.171
2793	16.288	3.8182	0.	16.173
2794	16.288	4.	0.	16.181
2795	16.288	4.1818	0.	16.196
2796	16.288	4.3636	0.	16.222
2797	16.288	4.5455	0.	16.263
2798	16.288	4.7273	0.	16.322
2799	16.288	4.9091	0.	16.404
2800	16.288	5.0909	0.	16.514
2801	16.288	5.2727	0.	16.657
2802	16.288	5.4545	0.	16.844
2803	16.288	5.6364	0.	17.186
2804	16.288	5.8182	0.	19.541
2805	16.471	0.18182	0.	19.879
2806	16.471	0.36364	0.	17.544
2807	16.471	0.54545	0.	17.251
2808	16.471	0.72727	0.	17.114
2809	16.471	0.90909	0.	17.022
2810	16.471	1.0909	0.	16.961
2811	16.471	1.2727	0.	16.927
2812	16.471	1.4545	0.	16.912
2813	16.471	1.6364	0.	16.914
2814	16.471	1.8182	0.	16.925
2815	16.471	2.	0.	16.944
2816	16.471	2.1818	0.	16.965
2817	16.471	2.3636	0.	16.985
2818	16.471	2.5455	0.	17.003
2819	16.471	2.7273	0.	17.016
2820	16.471	2.9091	0.	17.023
2821	16.471	3.0909	0.	17.023
2822	16.471	3.2727	0.	17.016
2823	16.471	3.4545	0.	17.003
2824	16.471	3.6364	0.	16.985
2825	16.471	3.8182	0.	16.965
2826	16.471	4.	0.	16.944
2827	16.471	4.1818	0.	16.925
2828	16.471	4.3636	0.	16.914
2829	16.471	4.5455	0.	16.913
2830	16.471	4.7273	0.	16.927
2831	16.471	4.9091	0.	16.961
2832	16.471	5.0909	0.	17.022
2833	16.471	5.2727	0.	17.114
2834	16.471	5.4545	0.	17.251
2835	16.471	5.6364	0.	17.544
2836	16.471	5.8182	0.	19.879
2837	16.655	0.18182	0.	20.224
2838	16.655	0.36364	0.	17.909
2839	16.655	0.54545	0.	17.666
2840	16.655	0.72727	0.	17.582
2841	16.655	0.90909	0.	17.542
2842	16.655	1.0909	0.	17.533
2843	16.655	1.2727	0.	17.547
2844	16.655	1.4545	0.	17.58
2845	16.655	1.6364	0.	17.625
2846	16.655	1.8182	0.	17.676
2847	16.655	2.	0.	17.729
2848	16.655	2.1818	0.	17.78
2849	16.655	2.3636	0.	17.825
2850	16.655	2.5455	0.	17.862
2851	16.655	2.7273	0.	17.887
2852	16.655	2.9091	0.	17.9
2853	16.655	3.0909	0.	17.9
2854	16.655	3.2727	0.	17.887
2855	16.655	3.4545	0.	17.862
2856	16.655	3.6364	0.	17.825
2857	16.655	3.8182	0.	17.78
2858	16.655	4.	0.	17.729
2859	16.655	4.1818	0.	17.676
2860	16.655	4.3636	0.	17.625
2861	16.655	4.5455	0.	17.58
2862	16.655	4.7273	0.	17.548
2863	16.655	4.9091	0.	17.533
2864	16.655	5.0909	0.	17.542
2865	16.655	5.2727	0.	17.582
2866	16.655	5.4545	0.	17.667
2867	16.655	5.6364	0.	17.909
2868	16.655	5.8182	0.	20.224
2869	16.839	0.18182	0.	20.575
2870	16.839	0.36364	0.	18.282
2871	16.839	0.54545	0.	18.092
2872	16.839	0.72727	0.	18.062
2873	16.839	0.90909	0.	18.077
2874	16.839	1.0909	0.	18.121
2875	16.839	1.2727	0.	18.188
2876	16.839	1.4545	0.	18.269
2877	16.839	1.6364	0.	18.359
2878	16.839	1.8182	0.	18.452
2879	16.839	2.	0.	18.542
2880	16.839	2.1818	0.	18.625
2881	16.839	2.3636	0.	18.695
2882	16.839	2.5455	0.	18.751
2883	16.839	2.7273	0.	18.79
2884	16.839	2.9091	0.	18.81
2885	16.839	3.0909	0.	18.81
2886	16.839	3.2727	0.	18.79
2887	16.839	3.4545	0.	18.751
2888	16.839	3.6364	0.	18.695
2889	16.839	3.8182	0.	18.625
2890	16.839	4.	0.	18.542
2891	16.839	4.1818	0.	18.452
2892	16.839	4.3636	0.	18.36
2893	16.839	4.5455	0.	18.269
2894	16.839	4.7273	0.	18.188
2895	16.839	4.9091	0.	18.121
2896	16.839	5.0909	0.	18.077
2897	16.839	5.2727	0.	18.062
2898	16.839	5.4545	0.	18.092
2899	16.839	5.6364	0.	18.282
2900	16.839	5.8182	0.	20.575
2901	17.022	0.18182	0.	20.933
2902	17.022	0.36364	0.	18.664
2903	17.022	0.54545	0.	18.529
2904	17.022	0.72727	0.	18.557
2905	17.022	0.90909	0.	18.629
2906	17.022	1.0909	0.	18.73
2907	17.022	1.2727	0.	18.851
2908	17.022	1.4545	0.	18.984
2909	17.022	1.6364	0.	19.122
2910	17.022	1.8182	0.	19.259
2911	17.022	2.	0.	19.388
2912	17.022	2.1818	0.	19.503
2913	17.022	2.3636	0.	19.601
2914	17.022	2.5455	0.	19.678
2915	17.022	2.7273	0.	19.731
2916	17.022	2.9091	0.	19.758
2917	17.022	3.0909	0.	19.758
2918	17.022	3.2727	0.	19.731
2919	17.022	3.4545	0.	19.678
2920	17.022	3.6364	0.	19.601
2921	17.022	3.8182	0.	19.503
2922	17.022	4.	0.	19.388
2923	17.022	4.1818	0.	19.259
2924	17.022	4.3636	0.	19.123
2925	17.022	4.5455	0.	18.984
2926	17.022	4.7273	0.	18.851
2927	17.022	4.9091	0.	18.73
2928	17.022	5.0909	0.	18.629
2929	17.022	5.2727	0.	18.557
2930	17.022	5.4545	0.	18.53
2931	17.022	5.6364	0.	18.664
2932	17.022	5.8182	0.	20.933
2933	17.206	0.18182	0.	21.298
2934	17.206	0.36364	0.	19.056
2935	17.206	0.54545	0.	18.98
2936	17.206	0.72727	0.	19.068
2937	17.206	0.90909	0.	19.201
2938	17.206	1.0909	0.	19.362
2939	17.206	1.2727	0.	19.541
2940	17.206	1.4545	0.	19.729
2941	17.206	1.6364	0.	19.918
2942	17.206	1.8182	0.	20.101
2943	17.206	2.	0.	20.271
2944	17.206	2.1818	0.	20.422
2945	17.206	2.3636	0.	20.549
2946	17.206	2.5455	0.	20.648
2947	17.206	2.7273	0.	20.715
2948	17.206	2.9091	0.	20.75
2949	17.206	3.0909	0.	20.75
2950	17.206	3.2727	0.	20.715
2951	17.206	3.4545	0.	20.648
2952	17.206	3.6364	0.	20.549
2953	17.206	3.8182	0.	20.422
2954	17.206	4.	0.	20.271
2955	17.206	4.1818	0.	20.101
2956	17.206	4.3636	0.	19.918
2957	17.206	4.5455	0.	19.729
2958	17.206	4.7273	0.	19.541
2959	17.206	4.9091	0.	19.362
2960	17.206	5.0909	0.	19.201
2961	17.206	5.2727	0.	19.068
2962	17.206	5.4545	0.	18.98
2963	17.206	5.6364	0.	19.056
2964	17.206	5.8182	0.	21.298
2965	17.389	0.18182	0.	21.672
2966	17.389	0.36364	0.	19.46
2967	17.389	0.54545	0.	19.445
2968	17.389	0.72727	0.	19.598
2969	17.389	0.90909	0.	19.796
2970	17.389	1.0909	0.	20.02
2971	17.389	1.2727	0.	20.26
2972	17.389	1.4545	0.	20.507
2973	17.389	1.6364	0.	20.751
2974	17.389	1.8182	0.	20.983
2975	17.389	2.	0.	21.197
2976	17.389	2.1818	0.	21.386
2977	17.389	2.3636	0.	21.544
2978	17.389	2.5455	0.	21.666
2979	17.389	2.7273	0.	21.75
2980	17.389	2.9091	0.	21.792
2981	17.389	3.0909	0.	21.792
2982	17.389	3.2727	0.	21.75
2983	17.389	3.4545	0.	21.666
2984	17.389	3.6364	0.	21.544
2985	17.389	3.8182	0.	21.386
2986	17.389	4.	0.	21.197
2987	17.389	4.1818	0.	20.983
2988	17.389	4.3636	0.	20.751
2989	17.389	4.5455	0.	20.507
2990	17.389	4.7273	0.	20.261
2991	17.389	4.9091	0.	20.02
2992	17.389	5.0909	0.	19.796
2993	17.389	5.2727	0.	19.598
2994	17.389	5.4545	0.	19.445
2995	17.389	5.6364	0.	19.46
2996	17.389	5.8182	0.	21.672
2997	17.573	0.18182	0.	22.054
2998	17.573	0.36364	0.	19.875
2999	17.573	0.54545	0.	19.927
3000	17.573	0.72727	0.	20.149
3001	17.573	0.90909	0.	20.416
3002	17.573	1.0909	0.	20.708
3003	17.573	1.2727	0.	21.014
3004	17.573	1.4545	0.	21.324
3005	17.573	1.6364	0.	21.626
3006	17.573	1.8182	0.	21.911
3007	17.573	2.	0.	22.172
3008	17.573	2.1818	0.	22.401
3009	17.573	2.3636	0.	22.592
3010	17.573	2.5455	0.	22.74
3011	17.573	2.7273	0.	22.841
3012	17.573	2.9091	0.	22.891
3013	17.573	3.0909	0.	22.891
3014	17.573	3.2727	0.	22.841
3015	17.573	3.4545	0.	22.74
3016	17.573	3.6364	0.	22.592
3017	17.573	3.8182	0.	22.401
3018	17.573	4.	0.	22.172
3019	17.573	4.1818	0.	21.911
3020	17.573	4.3636	0.	21.626
3021	17.573	4.5455	0.	21.324
3022	17.573	4.7273	0.	21.014
3023	17.573	4.9091	0.	20.708
3024	17.573	5.0909	0.	20.416
3025	17.573	5.2727	0.	20.149
3026	17.573	5.4545	0.	19.927
3027	17.573	5.6364	0.	19.875
3028	17.573	5.8182	0.	22.054
3029	17.757	0.18182	0.	22.444
3030	17.757	0.36364	0.	20.304
3031	17.757	0.54545	0.	20.426
3032	17.757	0.72727	0.	20.722
3033	17.757	0.90909	0.	21.063
3034	17.757	1.0909	0.	21.429
3035	17.757	1.2727	0.	21.806
3036	17.757	1.4545	0.	22.183
3037	17.757	1.6364	0.	22.548
3038	17.757	1.8182	0.	22.89
3039	17.757	2.	0.	23.202
3040	17.757	2.1818	0.	23.475
3041	17.757	2.3636	0.	23.701
3042	17.757	2.5455	0.	23.876
3043	17.757	2.7273	0.	23.995
3044	17.757	2.9091	0.	24.055
3045	17.757	3.0909	0.	24.055
3046	17.757	3.2727	0.	23.995
3047	17.757	3.4545	0.	23.876
3048	17.757	3.6364	0.	23.701
3049	17.757	3.8182	0.	23.475
3050	17.757	4.	0.	23.202
3051	17.757	4.1818	0.	22.891
3052	17.757	4.3636	0.	22.548
3053	17.757	4.5455	0.	22.183
3054	17.757	4.7273	0.	21.806
3055	17.757	4.9091	0.	21.429
3056	17.757	5.0909	0.	21.064
3057	17.757	5.2727	0.	20.722
3058	17.757	5.4545	0.	20.427
3059	17.757	5.6364	0.	20.304
3060	17.757	5.8182	0.	22.444
3061	17.94	0.18182	0.	22.844
3062	17.94	0.36364	0.	20.746
3063	17.94	0.54545	0.	20.945
3064	17.94	0.72727	0.	21.321
3065	17.94	0.90909	0.	21.742
3066	17.94	1.0909	0.	22.187
3067	17.94	1.2727	0.	22.64
3068	17.94	1.4545	0.	23.089
3069	17.94	1.6364	0.	23.522
3070	17.94	1.8182	0.	23.927
3071	17.94	2.	0.	24.293
3072	17.94	2.1818	0.	24.613
3073	17.94	2.3636	0.	24.878
3074	17.94	2.5455	0.	25.082
3075	17.94	2.7273	0.	25.22
3076	17.94	2.9091	0.	25.291
3077	17.94	3.0909	0.	25.291
3078	17.94	3.2727	0.	25.22
3079	17.94	3.4545	0.	25.082
3080	17.94	3.6364	0.	24.878
3081	17.94	3.8182	0.	24.613
3082	17.94	4.	0.	24.293
3083	17.94	4.1818	0.	23.927
3084	17.94	4.3636	0.	23.522
3085	17.94	4.5455	0.	23.089
3086	17.94	4.7273	0.	22.64
3087	17.94	4.9091	0.	22.187
3088	17.94	5.0909	0.	21.742
3089	17.94	5.2727	0.	21.321
3090	17.94	5.4545	0.	20.946
3091	17.94	5.6364	0.	20.746
3092	17.94	5.8182	0.	22.844
3093	18.124	0.18182	0.	23.253
3094	18.124	0.36364	0.	21.203
3095	18.124	0.54545	0.	21.486
3096	18.124	0.72727	0.	21.947
3097	18.124	0.90909	0.	22.455
3098	18.124	1.0909	0.	22.984
3099	18.124	1.2727	0.	23.521
3100	18.124	1.4545	0.	24.048
3101	18.124	1.6364	0.	24.554
3102	18.124	1.8182	0.	25.026
3103	18.124	2.	0.	25.452
3104	18.124	2.1818	0.	25.822
3105	18.124	2.3636	0.	26.128
3106	18.124	2.5455	0.	26.364
3107	18.124	2.7273	0.	26.525
3108	18.124	2.9091	0.	26.605
3109	18.124	3.0909	0.	26.605
3110	18.124	3.2727	0.	26.525
3111	18.124	3.4545	0.	26.364
3112	18.124	3.6364	0.	26.128
3113	18.124	3.8182	0.	25.822
3114	18.124	4.	0.	25.452
3115	18.124	4.1818	0.	25.026
3116	18.124	4.3636	0.	24.554
3117	18.124	4.5455	0.	24.048
3118	18.124	4.7273	0.	23.521
3119	18.124	4.9091	0.	22.985
3120	18.124	5.0909	0.	22.455
3121	18.124	5.2727	0.	21.947
3122	18.124	5.4545	0.	21.486
3123	18.124	5.6364	0.	21.204
3124	18.124	5.8182	0.	23.253
3125	18.308	0.18182	0.	23.671
3126	18.308	0.36364	0.	21.677
3127	18.308	0.54545	0.	22.049
3128	18.308	0.72727	0.	22.603
3129	18.308	0.90909	0.	23.204
3130	18.308	1.0909	0.	23.827
3131	18.308	1.2727	0.	24.452
3132	18.308	1.4545	0.	25.065
3133	18.308	1.6364	0.	25.651
3134	18.308	1.8182	0.	26.195
3135	18.308	2.	0.	26.685
3136	18.308	2.1818	0.	27.11
3137	18.308	2.3636	0.	27.462
3138	18.308	2.5455	0.	27.732
3139	18.308	2.7273	0.	27.916
3140	18.308	2.9091	0.	28.008
3141	18.308	3.0909	0.	28.008
3142	18.308	3.2727	0.	27.916
3143	18.308	3.4545	0.	27.732
3144	18.308	3.6364	0.	27.462
3145	18.308	3.8182	0.	27.11
3146	18.308	4.	0.	26.685
3147	18.308	4.1818	0.	26.195
3148	18.308	4.3636	0.	25.651
3149	18.308	4.5455	0.	25.065
3150	18.308	4.7273	0.	24.452
3151	18.308	4.9091	0.	23.827
3152	18.308	5.0909	0.	23.205
3153	18.308	5.2727	0.	22.603
3154	18.308	5.4545	0.	22.049
3155	18.308	5.6364	0.	21.677
3156	18.308	5.8182	0.	23.671
3157	18.491	0.18182	0.	24.099
3158	18.491	0.36364	0.	22.167
3159	18.491	0.54545	0.	22.636
3160	18.491	0.72727	0.	23.292
3161	18.491	0.90909	0.	23.995
3162	18.491	1.0909	0.	24.717
3163	18.491	1.2727	0.	25.44
3164	18.491	1.4545	0.	26.146
3165	18.491	1.6364	0.	26.817
3166	18.491	1.8182	0.	27.44
3167	18.491	2.	0.	28.
3168	18.491	2.1818	0.	28.485
3169	18.491	2.3636	0.	28.886
3170	18.491	2.5455	0.	29.194
3171	18.491	2.7273	0.	29.402
3172	18.491	2.9091	0.	29.508
3173	18.491	3.0909	0.	29.508
3174	18.491	3.2727	0.	29.402
3175	18.491	3.4545	0.	29.194
3176	18.491	3.6364	0.	28.886
3177	18.491	3.8182	0.	28.485
3178	18.491	4.	0.	28.
3179	18.491	4.1818	0.	27.44
3180	18.491	4.3636	0.	26.818
3181	18.491	4.5455	0.	26.146
3182	18.491	4.7273	0.	25.44
3183	18.491	4.9091	0.	24.717
3184	18.491	5.0909	0.	23.995
3185	18.491	5.2727	0.	23.292
3186	18.491	5.4545	0.	22.636
3187	18.491	5.6364	0.	22.167
3188	18.491	5.8182	0.	24.099
3189	18.675	0.18182	0.	24.537
3190	18.675	0.36364	0.	22.675
3191	18.675	0.54545	0.	23.25
3192	18.675	0.72727	0.	24.016
3193	18.675	0.90909	0.	24.829
3194	18.675	1.0909	0.	25.661
3195	18.675	1.2727	0.	26.489
3196	18.675	1.4545	0.	27.296
3197	18.675	1.6364	0.	28.061
3198	18.675	1.8182	0.	28.77
3199	18.675	2.	0.	29.405
3200	18.675	2.1818	0.	29.956
3201	18.675	2.3636	0.	30.41
3202	18.675	2.5455	0.	30.758
3203	18.675	2.7273	0.	30.994
3204	18.675	2.9091	0.	31.114
3205	18.675	3.0909	0.	31.114
3206	18.675	3.2727	0.	30.994
3207	18.675	3.4545	0.	30.758
3208	18.675	3.6364	0.	30.41
3209	18.675	3.8182	0.	29.956
3210	18.675	4.	0.	29.405
3211	18.675	4.1818	0.	28.77
3212	18.675	4.3636	0.	28.061
3213	18.675	4.5455	0.	27.296
3214	18.675	4.7273	0.	26.49
3215	18.675	4.9091	0.	25.661
3216	18.675	5.0909	0.	24.829
3217	18.675	5.2727	0.	24.016
3218	18.675	5.4545	0.	23.25
3219	18.675	5.6364	0.	22.675
3220	18.675	5.8182	0.	24.537
3221	18.858	0.18182	0.	24.985
3222	18.858	0.36364	0.	23.202
3223	18.858	0.54545	0.	23.892
3224	18.858	0.72727	0.	24.777
3225	18.858	0.90909	0.	25.711
3226	18.858	1.0909	0.	26.662
3227	18.858	1.2727	0.	27.606
3228	18.858	1.4545	0.	28.522
3229	18.858	1.6364	0.	29.39
3230	18.858	1.8182	0.	30.191
3231	18.858	2.	0.	30.91
3232	18.858	2.1818	0.	31.531
3233	18.858	2.3636	0.	32.043
3234	18.858	2.5455	0.	32.435
3235	18.858	2.7273	0.	32.701
3236	18.858	2.9091	0.	32.836
3237	18.858	3.0909	0.	32.836
3238	18.858	3.2727	0.	32.701
3239	18.858	3.4545	0.	32.436
3240	18.858	3.6364	0.	32.043
3241	18.858	3.8182	0.	31.531
3242	18.858	4.	0.	30.91
3243	18.858	4.1818	0.	30.191
3244	18.858	4.3636	0.	29.39
3245	18.858	4.5455	0.	28.522
3246	18.858	4.7273	0.	27.606
3247	18.858	4.9091	0.	26.662
3248	18.858	5.0909	0.	25.711
3249	18.858	5.2727	0.	24.777
3250	18.858	5.4545	0.	23.892
3251	18.858	5.6364	0.	23.202
3252	18.858	5.8182	0.	24.985
3253	19.042	0.18182	0.	25.442
3254	19.042	0.36364	0.	23.749
3255	19.042	0.54545	0.	24.564
3256	19.042	0.72727	0.	25.58
3257	19.042	0.90909	0.	26.645
3258	19.042	1.0909	0.	27.725
3259	19.042	1.2727	0.	28.795
3260	19.042	1.4545	0.	29.83
3261	19.042	1.6364	0.	30.81
3262	19.042	1.8182	0.	31.713
3263	19.042	2.	0.	32.522
3264	19.042	2.1818	0.	33.22
3265	19.042	2.3636	0.	33.795
3266	19.042	2.5455	0.	34.236
3267	19.042	2.7273	0.	34.534
3268	19.042	2.9091	0.	34.685
3269	19.042	3.0909	0.	34.685
3270	19.042	3.2727	0.	34.534
3271	19.042	3.4545	0.	34.236
3272	19.042	3.6364	0.	33.795
3273	19.042	3.8182	0.	33.22
3274	19.042	4.	0.	32.522
3275	19.042	4.1818	0.	31.713
3276	19.042	4.3636	0.	30.81
3277	19.042	4.5455	0.	29.831
3278	19.042	4.7273	0.	28.795
3279	19.042	4.9091	0.	27.725
3280	19.042	5.0909	0.	26.645
3281	19.042	5.2727	0.	25.58
3282	19.042	5.4545	0.	24.564
3283	19.042	5.6364	0.	23.749
3284	19.042	5.8182	0.	25.442
3285	19.226	0.18182	0.	25.908
3286	19.226	0.36364	0.	24.315
3287	19.226	0.54545	0.	25.268
3288	19.226	0.72727	0.	26.426
3289	19.226	0.90909	0.	27.634
3290	19.226	1.0909	0.	28.856
3291	19.226	1.2727	0.	30.063
3292	19.226	1.4545	0.	31.229
3293	19.226	1.6364	0.	32.33
3294	19.226	1.8182	0.	33.344
3295	19.226	2.	0.	34.251
3296	19.226	2.1818	0.	35.034
3297	19.226	2.3636	0.	35.678
3298	19.226	2.5455	0.	36.171
3299	19.226	2.7273	0.	36.505
3300	19.226	2.9091	0.	36.673
3301	19.226	3.0909	0.	36.673
3302	19.226	3.2727	0.	36.505
3303	19.226	3.4545	0.	36.171
3304	19.226	3.6364	0.	35.678
3305	19.226	3.8182	0.	35.034
3306	19.226	4.	0.	34.251
3307	19.226	4.1818	0.	33.344
3308	19.226	4.3636	0.	32.33
3309	19.226	4.5455	0.	31.229
3310	19.226	4.7273	0.	30.063
3311	19.226	4.9091	0.	28.856
3312	19.226	5.0909	0.	27.634
3313	19.226	5.2727	0.	26.426
3314	19.226	5.4545	0.	25.268
3315	19.226	5.6364	0.	24.316
3316	19.226	5.8182	0.	25.908
3317	19.409	0.18182	0.	26.383
3318	19.409	0.36364	0.	24.904
3319	19.409	0.54545	0.	26.006
3320	19.409	0.72727	0.	27.319
3321	19.409	0.90909	0.	28.684
3322	19.409	1.0909	0.	30.06
3323	19.409	1.2727	0.	31.417
3324	19.409	1.4545	0.	32.726
3325	19.409	1.6364	0.	33.96
3326	19.409	1.8182	0.	35.095
3327	19.409	2.	0.	36.109
3328	19.409	2.1818	0.	36.983
3329	19.409	2.3636	0.	37.702
3330	19.409	2.5455	0.	38.252
3331	19.409	2.7273	0.	38.624
3332	19.409	2.9091	0.	38.812
3333	19.409	3.0909	0.	38.812
3334	19.409	3.2727	0.	38.624
3335	19.409	3.4545	0.	38.252
3336	19.409	3.6364	0.	37.702
3337	19.409	3.8182	0.	36.983
3338	19.409	4.	0.	36.109
3339	19.409	4.1818	0.	35.095
3340	19.409	4.3636	0.	33.96
3341	19.409	4.5455	0.	32.726
3342	19.409	4.7273	0.	31.417
3343	19.409	4.9091	0.	30.06
3344	19.409	5.0909	0.	28.684
3345	19.409	5.2727	0.	27.319
3346	19.409	5.4545	0.	26.006
3347	19.409	5.6364	0.	24.904
3348	19.409	5.8182	0.	26.383
3349	19.593	0.18182	0.	26.866
3350	19.593	0.36364	0.	25.514
3351	19.593	0.54545	0.	26.78
3352	19.593	0.72727	0.	28.263
3353	19.593	0.90909	0.	29.799
3354	19.593	1.0909	0.	31.344
3355	19.593	1.2727	0.	32.865
3356	19.593	1.4545	0.	34.33
3357	19.593	1.6364	0.	35.709
3358	19.593	1.8182	0.	36.975
3359	19.593	2.	0.	38.106
3360	19.593	2.1818	0.	39.08
3361	19.593	2.3636	0.	39.88
3362	19.593	2.5455	0.	40.493
3363	19.593	2.7273	0.	40.907
3364	19.593	2.9091	0.	41.115
3365	19.593	3.0909	0.	41.115
3366	19.593	3.2727	0.	40.907
3367	19.593	3.4545	0.	40.493
3368	19.593	3.6364	0.	39.88
3369	19.593	3.8182	0.	39.08
3370	19.593	4.	0.	38.106
3371	19.593	4.1818	0.	36.975
3372	19.593	4.3636	0.	35.709
3373	19.593	4.5455	0.	34.33
3374	19.593	4.7273	0.	32.865
3375	19.593	4.9091	0.	31.344
3376	19.593	5.0909	0.	29.799
3377	19.593	5.2727	0.	28.263
3378	19.593	5.4545	0.	26.781
3379	19.593	5.6364	0.	25.514
3380	19.593	5.8182	0.	26.866
3381	19.777	0.18182	0.	27.357
3382	19.777	0.36364	0.	26.147
3383	19.777	0.54545	0.	27.593
3384	19.777	0.72727	0.	29.26
3385	19.777	0.90909	0.	30.984
3386	19.777	1.0909	0.	32.714
3387	19.777	1.2727	0.	34.414
3388	19.777	1.4545	0.	36.049
3389	19.777	1.6364	0.	37.586
3390	19.777	1.8182	0.	38.997
3391	19.777	2.	0.	40.254
3392	19.777	2.1818	0.	41.337
3393	19.777	2.3636	0.	42.226
3394	19.777	2.5455	0.	42.906
3395	19.777	2.7273	0.	43.365
3396	19.777	2.9091	0.	43.597
3397	19.777	3.0909	0.	43.597
3398	19.777	3.2727	0.	43.365
3399	19.777	3.4545	0.	42.906
3400	19.777	3.6364	0.	42.226
3401	19.777	3.8182	0.	41.337
3402	19.777	4.	0.	40.254
3403	19.777	4.1818	0.	38.997
3404	19.777	4.3636	0.	37.586
3405	19.777	4.5455	0.	36.049
3406	19.777	4.7273	0.	34.414
3407	19.777	4.9091	0.	32.714
3408	19.777	5.0909	0.	30.984
3409	19.777	5.2727	0.	29.261
3410	19.777	5.4545	0.	27.593
3411	19.777	5.6364	0.	26.147
3412	19.777	5.8182	0.	27.357
3413	19.96	0.18182	0.	27.854
3414	19.96	0.36364	0.	26.804
3415	19.96	0.54545	0.	28.445
3416	19.96	0.72727	0.	30.316
3417	19.96	0.90909	0.	32.244
3418	19.96	1.0909	0.	34.177
3419	19.96	1.2727	0.	36.073
3420	19.96	1.4545	0.	37.894
3421	19.96	1.6364	0.	39.604
3422	19.96	1.8182	0.	41.171
3423	19.96	2.	0.	42.567
3424	19.96	2.1818	0.	43.768
3425	19.96	2.3636	0.	44.753
3426	19.96	2.5455	0.	45.506
3427	19.96	2.7273	0.	46.015
3428	19.96	2.9091	0.	46.272
3429	19.96	3.0909	0.	46.272
3430	19.96	3.2727	0.	46.015
3431	19.96	3.4545	0.	45.506
3432	19.96	3.6364	0.	44.753
3433	19.96	3.8182	0.	43.768
3434	19.96	4.	0.	42.567
3435	19.96	4.1818	0.	41.171
3436	19.96	4.3636	0.	39.604
3437	19.96	4.5455	0.	37.894
3438	19.96	4.7273	0.	36.073
3439	19.96	4.9091	0.	34.177
3440	19.96	5.0909	0.	32.244
3441	19.96	5.2727	0.	30.316
3442	19.96	5.4545	0.	28.446
3443	19.96	5.6364	0.	26.804
3444	19.96	5.8182	0.	27.855
3445	20.144	0.18182	0.	28.357
3446	20.144	0.36364	0.	27.485
3447	20.144	0.54545	0.	29.341
3448	20.144	0.72727	0.	31.434
3449	20.144	0.90909	0.	33.586
3450	20.144	1.0909	0.	35.741
3451	20.144	1.2727	0.	37.851
3452	20.144	1.4545	0.	39.875
3453	20.144	1.6364	0.	41.774
3454	20.144	1.8182	0.	43.512
3455	20.144	2.	0.	45.059
3456	20.144	2.1818	0.	46.388
3457	20.144	2.3636	0.	47.477
3458	20.144	2.5455	0.	48.31
3459	20.144	2.7273	0.	48.872
3460	20.144	2.9091	0.	49.155
3461	20.144	3.0909	0.	49.155
3462	20.144	3.2727	0.	48.872
3463	20.144	3.4545	0.	48.31
3464	20.144	3.6364	0.	47.477
3465	20.144	3.8182	0.	46.388
3466	20.144	4.	0.	45.059
3467	20.144	4.1818	0.	43.512
3468	20.144	4.3636	0.	41.774
3469	20.144	4.5455	0.	39.875
3470	20.144	4.7273	0.	37.851
3471	20.144	4.9091	0.	35.741
3472	20.144	5.0909	0.	33.587
3473	20.144	5.2727	0.	31.434
3474	20.144	5.4545	0.	29.341
3475	20.144	5.6364	0.	27.485
3476	20.144	5.8182	0.	28.357
3477	20.327	0.18182	0.	28.863
3478	20.327	0.36364	0.	28.191
3479	20.327	0.54545	0.	30.282
3480	20.327	0.72727	0.	32.619
3481	20.327	0.90909	0.	35.017
3482	20.327	1.0909	0.	37.414
3483	20.327	1.2727	0.	39.759
3484	20.327	1.4545	0.	42.005
3485	20.327	1.6364	0.	44.109
3486	20.327	1.8182	0.	46.033
3487	20.327	2.	0.	47.743
3488	20.327	2.1818	0.	49.212
3489	20.327	2.3636	0.	50.414
3490	20.327	2.5455	0.	51.332
3491	20.327	2.7273	0.	51.952
3492	20.327	2.9091	0.	52.264
3493	20.327	3.0909	0.	52.264
3494	20.327	3.2727	0.	51.952
3495	20.327	3.4545	0.	51.332
3496	20.327	3.6364	0.	50.414
3497	20.327	3.8182	0.	49.212
3498	20.327	4.	0.	47.743
3499	20.327	4.1818	0.	46.033
3500	20.327	4.3636	0.	44.109
3501	20.327	4.5455	0.	42.005
3502	20.327	4.7273	0.	39.759
3503	20.327	4.9091	0.	37.414
3504	20.327	5.0909	0.	35.017
3505	20.327	5.2727	0.	32.619
3506	20.327	5.4545	0.	30.282
3507	20.327	5.6364	0.	28.191
3508	20.327	5.8182	0.	28.863
3509	20.511	0.18182	0.	29.372
3510	20.511	0.36364	0.	28.922
3511	20.511	0.54545	0.	31.271
3512	20.511	0.72727	0.	33.875
3513	20.511	0.90909	0.	36.544
3514	20.511	1.0909	0.	39.207
3515	20.511	1.2727	0.	41.809
3516	20.511	1.4545	0.	44.297
3517	20.511	1.6364	0.	46.625
3518	20.511	1.8182	0.	48.75
3519	20.511	2.	0.	50.638
3520	20.511	2.1818	0.	52.256
3521	20.511	2.3636	0.	53.581
3522	20.511	2.5455	0.	54.592
3523	20.511	2.7273	0.	55.273
3524	20.511	2.9091	0.	55.617
3525	20.511	3.0909	0.	55.617
3526	20.511	3.2727	0.	55.273
3527	20.511	3.4545	0.	54.592
3528	20.511	3.6364	0.	53.581
3529	20.511	3.8182	0.	52.256
3530	20.511	4.	0.	50.638
3531	20.511	4.1818	0.	48.75
3532	20.511	4.3636	0.	46.625
3533	20.511	4.5455	0.	44.297
3534	20.511	4.7273	0.	41.809
3535	20.511	4.9091	0.	39.207
3536	20.511	5.0909	0.	36.544
3537	20.511	5.2727	0.	33.875
3538	20.511	5.4545	0.	31.271
3539	20.511	5.6364	0.	28.922
3540	20.511	5.8182	0.	29.372
3541	20.695	0.18182	0.	29.88
3542	20.695	0.36364	0.	29.678
3543	20.695	0.54545	0.	32.312
3544	20.695	0.72727	0.	35.21
3545	20.695	0.90909	0.	38.174
3546	20.695	1.0909	0.	41.129
3547	20.695	1.2727	0.	44.012
3548	20.695	1.4545	0.	46.764
3549	20.695	1.6364	0.	49.336
3550	20.695	1.8182	0.	51.68
3551	20.695	2.	0.	53.759
3552	20.695	2.1818	0.	55.54
3553	20.695	2.3636	0.	56.996
3554	20.695	2.5455	0.	58.106
3555	20.695	2.7273	0.	58.854
3556	20.695	2.9091	0.	59.231
3557	20.695	3.0909	0.	59.231
3558	20.695	3.2727	0.	58.854
3559	20.695	3.4545	0.	58.106
3560	20.695	3.6364	0.	56.996
3561	20.695	3.8182	0.	55.54
3562	20.695	4.	0.	53.759
3563	20.695	4.1818	0.	51.68
3564	20.695	4.3636	0.	49.336
3565	20.695	4.5455	0.	46.764
3566	20.695	4.7273	0.	44.012
3567	20.695	4.9091	0.	41.129
3568	20.695	5.0909	0.	38.174
3569	20.695	5.2727	0.	35.21
3570	20.695	5.4545	0.	32.312
3571	20.695	5.6364	0.	29.678
3572	20.695	5.8182	0.	29.88
3573	20.878	0.18182	0.	30.385
3574	20.878	0.36364	0.	30.461
3575	20.878	0.54545	0.	33.407
3576	20.878	0.72727	0.	36.628
3577	20.878	0.90909	0.	39.919
3578	20.878	1.0909	0.	43.194
3579	20.878	1.2727	0.	46.383
3580	20.878	1.4545	0.	49.424
3581	20.878	1.6364	0.	52.26
3582	20.878	1.8182	0.	54.841
3583	20.878	2.	0.	57.127
3584	20.878	2.1818	0.	59.082
3585	20.878	2.3636	0.	60.679
3586	20.878	2.5455	0.	61.894
3587	20.878	2.7273	0.	62.714
3588	20.878	2.9091	0.	63.126
3589	20.878	3.0909	0.	63.126
3590	20.878	3.2727	0.	62.714
3591	20.878	3.4545	0.	61.894
3592	20.878	3.6364	0.	60.679
3593	20.878	3.8182	0.	59.082
3594	20.878	4.	0.	57.127
3595	20.878	4.1818	0.	54.841
3596	20.878	4.3636	0.	52.26
3597	20.878	4.5455	0.	49.424
3598	20.878	4.7273	0.	46.383
3599	20.878	4.9091	0.	43.194
3600	20.878	5.0909	0.	39.919
3601	20.878	5.2727	0.	36.628
3602	20.878	5.4545	0.	33.407
3603	20.878	5.6364	0.	30.461
3604	20.878	5.8182	0.	30.385
3605	21.062	0.18182	0.	30.883
3606	21.062	0.36364	0.	31.271
3607	21.062	0.54545	0.	34.561
3608	21.062	0.72727	0.	38.138
3609	21.062	0.90909	0.	41.787
3610	21.062	1.0909	0.	45.414
3611	21.062	1.2727	0.	48.939
3612	21.062	1.4545	0.	52.294
3613	21.062	1.6364	0.	55.416
3614	21.062	1.8182	0.	58.253
3615	21.062	2.	0.	60.761
3616	21.062	2.1818	0.	62.902
3617	21.062	2.3636	0.	64.649
3618	21.062	2.5455	0.	65.977
3619	21.062	2.7273	0.	66.872
3620	21.062	2.9091	0.	67.322
3621	21.062	3.0909	0.	67.322
3622	21.062	3.2727	0.	66.872
3623	21.062	3.4545	0.	65.977
3624	21.062	3.6364	0.	64.649
3625	21.062	3.8182	0.	62.903
3626	21.062	4.	0.	60.761
3627	21.062	4.1818	0.	58.253
3628	21.062	4.3636	0.	55.416
3629	21.062	4.5455	0.	52.294
3630	21.062	4.7273	0.	48.939
3631	21.062	4.9091	0.	45.414
3632	21.062	5.0909	0.	41.788
3633	21.062	5.2727	0.	38.139
3634	21.062	5.4545	0.	34.561
3635	21.062	5.6364	0.	31.271
3636	21.062	5.8182	0.	30.883
3637	21.246	0.18182	0.	31.372
3638	21.246	0.36364	0.	32.109
3639	21.246	0.54545	0.	35.779
3640	21.246	0.72727	0.	39.75
3641	21.246	0.90909	0.	43.794
3642	21.246	1.0909	0.	47.806
3643	21.246	1.2727	0.	51.698
3644	21.246	1.4545	0.	55.394
3645	21.246	1.6364	0.	58.826
3646	21.246	1.8182	0.	61.938
3647	21.246	2.	0.	64.683
3648	21.246	2.1818	0.	67.023
3649	21.246	2.3636	0.	68.928
3650	21.246	2.5455	0.	70.376
3651	21.246	2.7273	0.	71.35
3652	21.246	2.9091	0.	71.839
3653	21.246	3.0909	0.	71.839
3654	21.246	3.2727	0.	71.35
3655	21.246	3.4545	0.	70.376
3656	21.246	3.6364	0.	68.928
3657	21.246	3.8182	0.	67.023
3658	21.246	4.	0.	64.683
3659	21.246	4.1818	0.	61.938
3660	21.246	4.3636	0.	58.826
3661	21.246	4.5455	0.	55.394
3662	21.246	4.7273	0.	51.698
3663	21.246	4.9091	0.	47.806
3664	21.246	5.0909	0.	43.794
3665	21.246	5.2727	0.	39.75
3666	21.246	5.4545	0.	35.779
3667	21.246	5.6364	0.	32.109
3668	21.246	5.8182	0.	31.372
3669	21.429	0.18182	0.	31.846
3670	21.429	0.36364	0.	32.974
3671	21.429	0.54545	0.	37.066
3672	21.429	0.72727	0.	41.473
3673	21.429	0.90909	0.	45.953
3674	21.429	1.0909	0.	50.389
3675	21.429	1.2727	0.	54.682
3676	21.429	1.4545	0.	58.747
3677	21.429	1.6364	0.	62.513
3678	21.429	1.8182	0.	65.919
3679	21.429	2.	0.	68.916
3680	21.429	2.1818	0.	71.465
3681	21.429	2.3636	0.	73.538
3682	21.429	2.5455	0.	75.11
3683	21.429	2.7273	0.	76.167
3684	21.429	2.9091	0.	76.698
3685	21.429	3.0909	0.	76.698
3686	21.429	3.2727	0.	76.167
3687	21.429	3.4545	0.	75.11
3688	21.429	3.6364	0.	73.538
3689	21.429	3.8182	0.	71.465
3690	21.429	4.	0.	68.916
3691	21.429	4.1818	0.	65.919
3692	21.429	4.3636	0.	62.513
3693	21.429	4.5455	0.	58.747
3694	21.429	4.7273	0.	54.682
3695	21.429	4.9091	0.	50.389
3696	21.429	5.0909	0.	45.953
3697	21.429	5.2727	0.	41.473
3698	21.429	5.4545	0.	37.066
3699	21.429	5.6364	0.	32.974
3700	21.429	5.8182	0.	31.846
3701	21.613	0.18182	0.	32.301
3702	21.613	0.36364	0.	33.869
3703	21.613	0.54545	0.	38.431
3704	21.613	0.72727	0.	43.321
3705	21.613	0.90909	0.	48.284
3706	21.613	1.0909	0.	53.185
3707	21.613	1.2727	0.	57.915
3708	21.613	1.4545	0.	62.38
3709	21.613	1.6364	0.	66.503
3710	21.613	1.8182	0.	70.222
3711	21.613	2.	0.	73.485
3712	21.613	2.1818	0.	76.254
3713	21.613	2.3636	0.	78.501
3714	21.613	2.5455	0.	80.203
3715	21.613	2.7273	0.	81.346
3716	21.613	2.9091	0.	81.92
3717	21.613	3.0909	0.	81.92
3718	21.613	3.2727	0.	81.346
3719	21.613	3.4545	0.	80.203
3720	21.613	3.6364	0.	78.501
3721	21.613	3.8182	0.	76.255
3722	21.613	4.	0.	73.485
3723	21.613	4.1818	0.	70.222
3724	21.613	4.3636	0.	66.504
3725	21.613	4.5455	0.	62.38
3726	21.613	4.7273	0.	57.915
3727	21.613	4.9091	0.	53.185
3728	21.613	5.0909	0.	48.284
3729	21.613	5.2727	0.	43.321
3730	21.613	5.4545	0.	38.431
3731	21.613	5.6364	0.	33.87
3732	21.613	5.8182	0.	32.301
3733	21.796	0.18182	0.	32.729
3734	21.796	0.36364	0.	34.796
3735	21.796	0.54545	0.	39.882
3736	21.796	0.72727	0.	45.312
3737	21.796	0.90909	0.	50.81
3738	21.796	1.0909	0.	56.222
3739	21.796	1.2727	0.	61.427
3740	21.796	1.4545	0.	66.323
3741	21.796	1.6364	0.	70.827
3742	21.796	1.8182	0.	74.875
3743	21.796	2.	0.	78.416
3744	21.796	2.1818	0.	81.414
3745	21.796	2.3636	0.	83.841
3746	21.796	2.5455	0.	85.676
3747	21.796	2.7273	0.	86.906
3748	21.796	2.9091	0.	87.523
3749	21.796	3.0909	0.	87.523
3750	21.796	3.2727	0.	86.906
3751	21.796	3.4545	0.	85.676
3752	21.796	3.6364	0.	83.841
3753	21.796	3.8182	0.	81.414
3754	21.796	4.	0.	78.416
3755	21.796	4.1818	0.	74.875
3756	21.796	4.3636	0.	70.827
3757	21.796	4.5455	0.	66.323
3758	21.796	4.7273	0.	61.427
3759	21.796	4.9091	0.	56.222
3760	21.796	5.0909	0.	50.81
3761	21.796	5.2727	0.	45.312
3762	21.796	5.4545	0.	39.882
3763	21.796	5.6364	0.	34.796
3764	21.796	5.8182	0.	32.729
3765	21.98	0.18182	0.	33.124
3766	21.98	0.36364	0.	35.757
3767	21.98	0.54545	0.	41.433
3768	21.98	0.72727	0.	47.468
3769	21.98	0.90909	0.	53.558
3770	21.98	1.0909	0.	59.533
3771	21.98	1.2727	0.	65.253
3772	21.98	1.4545	0.	70.609
3773	21.98	1.6364	0.	75.516
3774	21.98	1.8182	0.	79.909
3775	21.98	2.	0.	83.738
3776	21.98	2.1818	0.	86.97
3777	21.98	2.3636	0.	89.579
3778	21.98	2.5455	0.	91.549
3779	21.98	2.7273	0.	92.868
3780	21.98	2.9091	0.	93.528
3781	21.98	3.0909	0.	93.528
3782	21.98	3.2727	0.	92.868
3783	21.98	3.4545	0.	91.549
3784	21.98	3.6364	0.	89.579
3785	21.98	3.8182	0.	86.97
3786	21.98	4.	0.	83.738
3787	21.98	4.1818	0.	79.909
3788	21.98	4.3636	0.	75.516
3789	21.98	4.5455	0.	70.609
3790	21.98	4.7273	0.	65.253
3791	21.98	4.9091	0.	59.533
3792	21.98	5.0909	0.	53.559
3793	21.98	5.2727	0.	47.468
3794	21.98	5.4545	0.	41.434
3795	21.98	5.6364	0.	35.758
3796	21.98	5.8182	0.	33.124
3797	22.164	0.18182	0.	33.476
3798	22.164	0.36364	0.	36.758
3799	22.164	0.54545	0.	43.103
3800	22.164	0.72727	0.	49.817
3801	22.164	0.90909	0.	56.568
3802	22.164	1.0909	0.	63.157
3803	22.164	1.2727	0.	69.433
3804	22.164	1.4545	0.	75.279
3805	22.164	1.6364	0.	80.607
3806	22.164	1.8182	0.	85.355
3807	22.164	2.	0.	89.478
3808	22.164	2.1818	0.	92.946
3809	22.164	2.3636	0.	95.739
3810	22.164	2.5455	0.	97.842
3811	22.164	2.7273	0.	99.249
3812	22.164	2.9091	0.	99.953
3813	22.164	3.0909	0.	99.953
3814	22.164	3.2727	0.	99.249
3815	22.164	3.4545	0.	97.842
3816	22.164	3.6364	0.	95.739
3817	22.164	3.8182	0.	92.946
3818	22.164	4.	0.	89.478
3819	22.164	4.1818	0.	85.355
3820	22.164	4.3636	0.	80.607
3821	22.164	4.5455	0.	75.279
3822	22.164	4.7273	0.	69.433
3823	22.164	4.9091	0.	63.157
3824	22.164	5.0909	0.	56.568
3825	22.164	5.2727	0.	49.817
3826	22.164	5.4545	0.	43.103
3827	22.164	5.6364	0.	36.758
3828	22.164	5.8182	0.	33.476
3829	22.347	0.18182	0.	33.775
3830	22.347	0.36364	0.	37.806
3831	22.347	0.54545	0.	44.915
3832	22.347	0.72727	0.	52.398
3833	22.347	0.90909	0.	59.884
3834	22.347	1.0909	0.	67.146
3835	22.347	1.2727	0.	74.017
3836	22.347	1.4545	0.	80.377
3837	22.347	1.6364	0.	86.14
3838	22.347	1.8182	0.	91.249
3839	22.347	2.	0.	95.666
3840	22.347	2.1818	0.	99.368
3841	22.347	2.3636	0.	102.34
3842	22.347	2.5455	0.	104.57
3843	22.347	2.7273	0.	106.07
3844	22.347	2.9091	0.	106.81
3845	22.347	3.0909	0.	106.81
3846	22.347	3.2727	0.	106.07
3847	22.347	3.4545	0.	104.57
3848	22.347	3.6364	0.	102.34
3849	22.347	3.8182	0.	99.368
3850	22.347	4.	0.	95.666
3851	22.347	4.1818	0.	91.249
3852	22.347	4.3636	0.	86.14
3853	22.347	4.5455	0.	80.377
3854	22.347	4.7273	0.	74.017
3855	22.347	4.9091	0.	67.146
3856	22.347	5.0909	0.	59.884
3857	22.347	5.2727	0.	52.398
3858	22.347	5.4545	0.	44.915
3859	22.347	5.6364	0.	37.806
3860	22.347	5.8182	0.	33.775
3861	22.531	0.18182	0.	34.007
3862	22.531	0.36364	0.	38.915
3863	22.531	0.54545	0.	46.907
3864	22.531	0.72727	0.	55.265
3865	22.531	0.90909	0.	63.569
3866	22.531	1.0909	0.	71.56
3867	22.531	1.2727	0.	79.062
3868	22.531	1.4545	0.	85.953
3869	22.531	1.6364	0.	92.156
3870	22.531	1.8182	0.	97.624
3871	22.531	2.	0.	102.33
3872	22.531	2.1818	0.	106.26
3873	22.531	2.3636	0.	109.4
3874	22.531	2.5455	0.	111.76
3875	22.531	2.7273	0.	113.33
3876	22.531	2.9091	0.	114.12
3877	22.531	3.0909	0.	114.12
3878	22.531	3.2727	0.	113.33
3879	22.531	3.4545	0.	111.76
3880	22.531	3.6364	0.	109.4
3881	22.531	3.8182	0.	106.26
3882	22.531	4.	0.	102.33
3883	22.531	4.1818	0.	97.624
3884	22.531	4.3636	0.	92.156
3885	22.531	4.5455	0.	85.953
3886	22.531	4.7273	0.	79.062
3887	22.531	4.9091	0.	71.56
3888	22.531	5.0909	0.	63.569
3889	22.531	5.2727	0.	55.265
3890	22.531	5.4545	0.	46.908
3891	22.531	5.6364	0.	38.915
3892	22.531	5.8182	0.	34.007
3893	22.715	0.18182	0.	34.156
3894	22.715	0.36364	0.	40.106
3895	22.715	0.54545	0.	49.134
3896	22.715	0.72727	0.	58.492
3897	22.715	0.90909	0.	67.702
3898	22.715	1.0909	0.	76.476
3899	22.715	1.2727	0.	84.633
3900	22.715	1.4545	0.	92.061
3901	22.715	1.6364	0.	98.699
3902	22.715	1.8182	0.	104.52
3903	22.715	2.	0.	109.5
3904	22.715	2.1818	0.	113.64
3905	22.715	2.3636	0.	116.94
3906	22.715	2.5455	0.	119.42
3907	22.715	2.7273	0.	121.06
3908	22.715	2.9091	0.	121.89
3909	22.715	3.0909	0.	121.89
3910	22.715	3.2727	0.	121.06
3911	22.715	3.4545	0.	119.42
3912	22.715	3.6364	0.	116.94
3913	22.715	3.8182	0.	113.64
3914	22.715	4.	0.	109.5
3915	22.715	4.1818	0.	104.52
3916	22.715	4.3636	0.	98.7
3917	22.715	4.5455	0.	92.061
3918	22.715	4.7273	0.	84.633
3919	22.715	4.9091	0.	76.477
3920	22.715	5.0909	0.	67.703
3921	22.715	5.2727	0.	58.493
3922	22.715	5.4545	0.	49.134
3923	22.715	5.6364	0.	40.106
3924	22.715	5.8182	0.	34.156
3925	22.898	0.18182	0.	34.204
3926	22.898	0.36364	0.	41.421
3927	22.898	0.54545	0.	51.679
3928	22.898	0.72727	0.	62.184
3929	22.898	0.90909	0.	72.389
3930	22.898	1.0909	0.	81.986
3931	22.898	1.2727	0.	90.806
3932	22.898	1.4545	0.	98.761
3933	22.898	1.6364	0.	105.81
3934	22.898	1.8182	0.	111.95
3935	22.898	2.	0.	117.19
3936	22.898	2.1818	0.	121.52
3937	22.898	2.3636	0.	124.97
3938	22.898	2.5455	0.	127.55
3939	22.898	2.7273	0.	129.26
3940	22.898	2.9091	0.	130.12
3941	22.898	3.0909	0.	130.12
3942	22.898	3.2727	0.	129.26
3943	22.898	3.4545	0.	127.55
3944	22.898	3.6364	0.	124.97
3945	22.898	3.8182	0.	121.52
3946	22.898	4.	0.	117.19
3947	22.898	4.1818	0.	111.95
3948	22.898	4.3636	0.	105.81
3949	22.898	4.5455	0.	98.761
3950	22.898	4.7273	0.	90.806
3951	22.898	4.9091	0.	81.986
3952	22.898	5.0909	0.	72.389
3953	22.898	5.2727	0.	62.184
3954	22.898	5.4545	0.	51.679
3955	22.898	5.6364	0.	41.421
3956	22.898	5.8182	0.	34.204
3957	23.082	0.18182	0.	34.129
3958	23.082	0.36364	0.	42.93
3959	23.082	0.54545	0.	54.674
3960	23.082	0.72727	0.	66.487
3961	23.082	0.90909	0.	77.76
3962	23.082	1.0909	0.	88.194
3963	23.082	1.2727	0.	97.657
3964	23.082	1.4545	0.	106.11
3965	23.082	1.6364	0.	113.54
3966	23.082	1.8182	0.	119.97
3967	23.082	2.	0.	125.42
3968	23.082	2.1818	0.	129.93
3969	23.082	2.3636	0.	133.5
3970	23.082	2.5455	0.	136.16
3971	23.082	2.7273	0.	137.93
3972	23.082	2.9091	0.	138.81
3973	23.082	3.0909	0.	138.81
3974	23.082	3.2727	0.	137.93
3975	23.082	3.4545	0.	136.16
3976	23.082	3.6364	0.	133.5
3977	23.082	3.8182	0.	129.93
3978	23.082	4.	0.	125.42
3979	23.082	4.1818	0.	119.97
3980	23.082	4.3636	0.	113.54
3981	23.082	4.5455	0.	106.11
3982	23.082	4.7273	0.	97.658
3983	23.082	4.9091	0.	88.194
3984	23.082	5.0909	0.	77.76
3985	23.082	5.2727	0.	66.487
3986	23.082	5.4545	0.	54.674
3987	23.082	5.6364	0.	42.93
3988	23.082	5.8182	0.	34.129
3989	23.265	0.18182	0.	33.915
3990	23.265	0.36364	0.	44.777
3991	23.265	0.54545	0.	58.335
3992	23.265	0.72727	0.	71.609
3993	23.265	0.90909	0.	83.98
3994	23.265	1.0909	0.	95.217
3995	23.265	1.2727	0.	105.27
3996	23.265	1.4545	0.	114.15
3997	23.265	1.6364	0.	121.9
3998	23.265	1.8182	0.	128.58
3999	23.265	2.	0.	134.21
4000	23.265	2.1818	0.	138.85
4001	23.265	2.3636	0.	142.53
4002	23.265	2.5455	0.	145.26
4003	23.265	2.7273	0.	147.08
4004	23.265	2.9091	0.	147.98
4005	23.265	3.0909	0.	147.98
4006	23.265	3.2727	0.	147.08
4007	23.265	3.4545	0.	145.26
4008	23.265	3.6364	0.	142.53
4009	23.265	3.8182	0.	138.85
4010	23.265	4.	0.	134.21
4011	23.265	4.1818	0.	128.58
4012	23.265	4.3636	0.	121.9
4013	23.265	4.5455	0.	114.15
4014	23.265	4.7273	0.	105.27
4015	23.265	4.9091	0.	95.217
4016	23.265	5.0909	0.	83.98
4017	23.265	5.2727	0.	71.609
4018	23.265	5.4545	0.	58.335
4019	23.265	5.6364	0.	44.777
4020	23.265	5.8182	0.	33.915
4021	23.449	0.18182	0.	33.563
4022	23.449	0.36364	0.	47.242
4023	23.449	0.54545	0.	62.994
4024	23.449	0.72727	0.	77.805
4025	23.449	0.90909	0.	91.211
4026	23.449	1.0909	0.	103.15
4027	23.449	1.2727	0.	113.69
4028	23.449	1.4545	0.	122.91
4029	23.449	1.6364	0.	130.92
4030	23.449	1.8182	0.	137.78
4031	23.449	2.	0.	143.55
4032	23.449	2.1818	0.	148.29
4033	23.449	2.3636	0.	152.04
4034	23.449	2.5455	0.	154.83
4035	23.449	2.7273	0.	156.67
4036	23.449	2.9091	0.	157.59
4037	23.449	3.0909	0.	157.59
4038	23.449	3.2727	0.	156.67
4039	23.449	3.4545	0.	154.83
4040	23.449	3.6364	0.	152.04
4041	23.449	3.8182	0.	148.29
4042	23.449	4.	0.	143.55
4043	23.449	4.1818	0.	137.78
4044	23.449	4.3636	0.	130.92
4045	23.449	4.5455	0.	122.91
4046	23.449	4.7273	0.	113.69
4047	23.449	4.9091	0.	103.15
4048	23.449	5.0909	0.	91.211
4049	23.449	5.2727	0.	77.805
4050	23.449	5.4545	0.	62.995
4051	23.449	5.6364	0.	47.242
4052	23.449	5.8182	0.	33.563
4053	23.633	0.18182	0.	33.223
4054	23.633	0.36364	0.	51.025
4055	23.633	0.54545	0.	69.234
4056	23.633	0.72727	0.	85.439
4057	23.633	0.90909	0.	99.674
4058	23.633	1.0909	0.	112.13
4059	23.633	1.2727	0.	123.01
4060	23.633	1.4545	0.	132.47
4061	23.633	1.6364	0.	140.65
4062	23.633	1.8182	0.	147.63
4063	23.633	2.	0.	153.49
4064	23.633	2.1818	0.	158.3
4065	23.633	2.3636	0.	162.09
4066	23.633	2.5455	0.	164.91
4067	23.633	2.7273	0.	166.78
4068	23.633	2.9091	0.	167.71
4069	23.633	3.0909	0.	167.71
4070	23.633	3.2727	0.	166.78
4071	23.633	3.4545	0.	164.91
4072	23.633	3.6364	0.	162.09
4073	23.633	3.8182	0.	158.3
4074	23.633	4.	0.	153.49
4075	23.633	4.1818	0.	147.63
4076	23.633	4.3636	0.	140.65
4077	23.633	4.5455	0.	132.47
4078	23.633	4.7273	0.	123.01
4079	23.633	4.9091	0.	112.13
4080	23.633	5.0909	0.	99.675
4081	23.633	5.2727	0.	85.439
4082	23.633	5.4545	0.	69.234
4083	23.633	5.6364	0.	51.025
4084	23.633	5.8182	0.	33.223
4085	23.816	0.18182	0.	34.201
4086	23.816	0.36364	0.	57.48
4087	23.816	0.54545	0.	77.651
4088	23.816	0.72727	0.	94.719
4089	23.816	0.90909	0.	109.39
4090	23.816	1.0909	0.	122.09
4091	23.816	1.2727	0.	133.12
4092	23.816	1.4545	0.	142.67
4093	23.816	1.6364	0.	150.9
4094	23.816	1.8182	0.	157.92
4095	23.816	2.	0.	163.81
4096	23.816	2.1818	0.	168.63
4097	23.816	2.3636	0.	172.44
4098	23.816	2.5455	0.	175.27
4099	23.816	2.7273	0.	177.14
4100	23.816	2.9091	0.	178.07
4101	23.816	3.0909	0.	178.07
4102	23.816	3.2727	0.	177.14
4103	23.816	3.4545	0.	175.27
4104	23.816	3.6364	0.	172.44
4105	23.816	3.8182	0.	168.63
4106	23.816	4.	0.	163.81
4107	23.816	4.1818	0.	157.92
4108	23.816	4.3636	0.	150.9
4109	23.816	4.5455	0.	142.67
4110	23.816	4.7273	0.	133.12
4111	23.816	4.9091	0.	122.1
4112	23.816	5.0909	0.	109.39
4113	23.816	5.2727	0.	94.719
4114	23.816	5.4545	0.	77.651
4115	23.816	5.6364	0.	57.48
4116	23.816	5.8182	0.	34.201
4117	23.816	5.8182	0.1	36.938
4118	23.816	5.6364	0.1	37.957
4119	23.816	5.4545	0.1	38.81
4120	23.816	5.2727	0.1	39.327
4121	23.816	5.0909	0.1	39.594
4122	23.816	4.9091	0.1	39.73
4123	23.816	4.7273	0.1	39.787
4124	23.816	4.5455	0.1	39.798
4125	23.816	4.3636	0.1	39.783
4126	23.816	4.1818	0.1	39.754
4127	23.816	4.	0.1	39.72
4128	23.816	3.8182	0.1	39.685
4129	23.816	3.6364	0.1	39.653
4130	23.816	3.4545	0.1	39.628
4131	23.816	3.2727	0.1	39.61
4132	23.816	3.0909	0.1	39.601
4133	23.816	2.9091	0.1	39.601
4134	23.816	2.7273	0.1	39.61
4135	23.816	2.5455	0.1	39.628
4136	23.816	2.3636	0.1	39.653
4137	23.816	2.1818	0.1	39.685
4138	23.816	2.	0.1	39.72
4139	23.816	1.8182	0.1	39.754
4140	23.816	1.6364	0.1	39.783
4141	23.816	1.4545	0.1	39.798
4142	23.816	1.2727	0.1	39.787
4143	23.816	1.0909	0.1	39.73
4144	23.816	0.90909	0.1	39.594
4145	23.816	0.72727	0.1	39.327
4146	23.816	0.54545	0.1	38.81
4147	23.816	0.36364	0.1	37.957
4148	23.816	0.18182	0.1	36.938
4149	23.633	5.8182	0.1	72.57
4150	23.633	5.6364	0.1	72.672
4151	23.633	5.4545	0.1	74.224
4152	23.633	5.2727	0.1	75.468
4153	23.633	5.0909	0.1	76.348
4154	23.633	4.9091	0.1	76.972
4155	23.633	4.7273	0.1	77.417
4156	23.633	4.5455	0.1	77.737
4157	23.633	4.3636	0.1	77.969
4158	23.633	4.1818	0.1	78.138
4159	23.633	4.	0.1	78.26
4160	23.633	3.8182	0.1	78.349
4161	23.633	3.6364	0.1	78.411
4162	23.633	3.4545	0.1	78.453
4163	23.633	3.2727	0.1	78.479
4164	23.633	3.0909	0.1	78.492
4165	23.633	2.9091	0.1	78.492
4166	23.633	2.7273	0.1	78.479
4167	23.633	2.5455	0.1	78.453
4168	23.633	2.3636	0.1	78.411
4169	23.633	2.1818	0.1	78.349
4170	23.633	2.	0.1	78.26
4171	23.633	1.8182	0.1	78.138
4172	23.633	1.6364	0.1	77.969
4173	23.633	1.4545	0.1	77.737
4174	23.633	1.2727	0.1	77.417
4175	23.633	1.0909	0.1	76.972
4176	23.633	0.90909	0.1	76.348
4177	23.633	0.72727	0.1	75.468
4178	23.633	0.54545	0.1	74.224
4179	23.633	0.36364	0.1	72.672
4180	23.633	0.18182	0.1	72.57
4181	23.449	5.8182	0.1	110.31
4182	23.449	5.6364	0.1	109.25
4183	23.449	5.4545	0.1	110.68
4184	23.449	5.2727	0.1	112.18
4185	23.449	5.0909	0.1	113.42
4186	23.449	4.9091	0.1	114.4
4187	23.449	4.7273	0.1	115.16
4188	23.449	4.5455	0.1	115.74
4189	23.449	4.3636	0.1	116.19
4190	23.449	4.1818	0.1	116.54
4191	23.449	4.	0.1	116.81
4192	23.449	3.8182	0.1	117.01
4193	23.449	3.6364	0.1	117.16
4194	23.449	3.4545	0.1	117.27
4195	23.449	3.2727	0.1	117.34
4196	23.449	3.0909	0.1	117.37
4197	23.449	2.9091	0.1	117.37
4198	23.449	2.7273	0.1	117.34
4199	23.449	2.5455	0.1	117.27
4200	23.449	2.3636	0.1	117.16
4201	23.449	2.1818	0.1	117.01
4202	23.449	2.	0.1	116.81
4203	23.449	1.8182	0.1	116.54
4204	23.449	1.6364	0.1	116.19
4205	23.449	1.4545	0.1	115.74
4206	23.449	1.2727	0.1	115.16
4207	23.449	1.0909	0.1	114.4
4208	23.449	0.90909	0.1	113.42
4209	23.449	0.72727	0.1	112.18
4210	23.449	0.54545	0.1	110.68
4211	23.449	0.36364	0.1	109.25
4212	23.449	0.18182	0.1	110.31
4213	23.265	5.8182	0.1	148.7
4214	23.265	5.6364	0.1	146.84
4215	23.265	5.4545	0.1	147.9
4216	23.265	5.2727	0.1	149.35
4217	23.265	5.0909	0.1	150.72
4218	23.265	4.9091	0.1	151.9
4219	23.265	4.7273	0.1	152.87
4220	23.265	4.5455	0.1	153.67
4221	23.265	4.3636	0.1	154.3
4222	23.265	4.1818	0.1	154.81
4223	23.265	4.	0.1	155.21
4224	23.265	3.8182	0.1	155.52
4225	23.265	3.6364	0.1	155.75
4226	23.265	3.4545	0.1	155.92
4227	23.265	3.2727	0.1	156.03
4228	23.265	3.0909	0.1	156.08
4229	23.265	2.9091	0.1	156.08
4230	23.265	2.7273	0.1	156.03
4231	23.265	2.5455	0.1	155.92
4232	23.265	2.3636	0.1	155.75
4233	23.265	2.1818	0.1	155.52
4234	23.265	2.	0.1	155.21
4235	23.265	1.8182	0.1	154.81
4236	23.265	1.6364	0.1	154.3
4237	23.265	1.4545	0.1	153.67
4238	23.265	1.2727	0.1	152.87
4239	23.265	1.0909	0.1	151.9
4240	23.265	0.90909	0.1	150.72
4241	23.265	0.72727	0.1	149.36
4242	23.265	0.54545	0.1	147.9
4243	23.265	0.36364	0.1	146.84
4244	23.265	0.18182	0.1	148.7
4245	23.082	5.8182	0.1	187.48
4246	23.082	5.6364	0.1	185.07
4247	23.082	5.4545	0.1	185.76
4248	23.082	5.2727	0.1	187.01
4249	23.082	5.0909	0.1	188.35
4250	23.082	4.9091	0.1	189.59
4251	23.082	4.7273	0.1	190.68
4252	23.082	4.5455	0.1	191.61
4253	23.082	4.3636	0.1	192.38
4254	23.082	4.1818	0.1	193.01
4255	23.082	4.	0.1	193.52
4256	23.082	3.8182	0.1	193.92
4257	23.082	3.6364	0.1	194.23
4258	23.082	3.4545	0.1	194.46
4259	23.082	3.2727	0.1	194.6
4260	23.082	3.0909	0.1	194.67
4261	23.082	2.9091	0.1	194.67
4262	23.082	2.7273	0.1	194.6
4263	23.082	2.5455	0.1	194.46
4264	23.082	2.3636	0.1	194.23
4265	23.082	2.1818	0.1	193.92
4266	23.082	2.	0.1	193.52
4267	23.082	1.8182	0.1	193.01
4268	23.082	1.6364	0.1	192.38
4269	23.082	1.4545	0.1	191.61
4270	23.082	1.2727	0.1	190.68
4271	23.082	1.0909	0.1	189.59
4272	23.082	0.90909	0.1	188.35
4273	23.082	0.72727	0.1	187.01
4274	23.082	0.54545	0.1	185.76
4275	23.082	0.36364	0.1	185.07
4276	23.082	0.18182	0.1	187.48
4277	22.898	5.8182	0.1	226.53
4278	22.898	5.6364	0.1	223.71
4279	22.898	5.4545	0.1	224.08
4280	22.898	5.2727	0.1	225.1
4281	22.898	5.0909	0.1	226.3
4282	22.898	4.9091	0.1	227.51
4283	22.898	4.7273	0.1	228.63
4284	22.898	4.5455	0.1	229.63
4285	22.898	4.3636	0.1	230.48
4286	22.898	4.1818	0.1	231.2
4287	22.898	4.	0.1	231.8
4288	22.898	3.8182	0.1	232.27
4289	22.898	3.6364	0.1	232.64
4290	22.898	3.4545	0.1	232.91
4291	22.898	3.2727	0.1	233.08
4292	22.898	3.0909	0.1	233.17
4293	22.898	2.9091	0.1	233.17
4294	22.898	2.7273	0.1	233.08
4295	22.898	2.5455	0.1	232.91
4296	22.898	2.3636	0.1	232.64
4297	22.898	2.1818	0.1	232.27
4298	22.898	2.	0.1	231.8
4299	22.898	1.8182	0.1	231.2
4300	22.898	1.6364	0.1	230.48
4301	22.898	1.4545	0.1	229.63
4302	22.898	1.2727	0.1	228.63
4303	22.898	1.0909	0.1	227.51
4304	22.898	0.90909	0.1	226.3
4305	22.898	0.72727	0.1	225.1
4306	22.898	0.54545	0.1	224.08
4307	22.898	0.36364	0.1	223.71
4308	22.898	0.18182	0.1	226.53
4309	22.715	5.8182	0.1	265.78
4310	22.715	5.6364	0.1	262.65
4311	22.715	5.4545	0.1	262.76
4312	22.715	5.2727	0.1	263.54
4313	22.715	5.0909	0.1	264.58
4314	22.715	4.9091	0.1	265.69
4315	22.715	4.7273	0.1	266.78
4316	22.715	4.5455	0.1	267.78
4317	22.715	4.3636	0.1	268.67
4318	22.715	4.1818	0.1	269.44
4319	22.715	4.	0.1	270.08
4320	22.715	3.8182	0.1	270.61
4321	22.715	3.6364	0.1	271.02
4322	22.715	3.4545	0.1	271.32
4323	22.715	3.2727	0.1	271.52
4324	22.715	3.0909	0.1	271.62
4325	22.715	2.9091	0.1	271.62
4326	22.715	2.7273	0.1	271.52
4327	22.715	2.5455	0.1	271.32
4328	22.715	2.3636	0.1	271.02
4329	22.715	2.1818	0.1	270.61
4330	22.715	2.	0.1	270.08
4331	22.715	1.8182	0.1	269.44
4332	22.715	1.6364	0.1	268.67
4333	22.715	1.4545	0.1	267.78
4334	22.715	1.2727	0.1	266.78
4335	22.715	1.0909	0.1	265.69
4336	22.715	0.90909	0.1	264.58
4337	22.715	0.72727	0.1	263.54
4338	22.715	0.54545	0.1	262.76
4339	22.715	0.36364	0.1	262.65
4340	22.715	0.18182	0.1	265.78
4341	22.531	5.8182	0.1	305.19
4342	22.531	5.6364	0.1	301.83
4343	22.531	5.4545	0.1	301.72
4344	22.531	5.2727	0.1	302.28
4345	22.531	5.0909	0.1	303.13
4346	22.531	4.9091	0.1	304.12
4347	22.531	4.7273	0.1	305.13
4348	22.531	4.5455	0.1	306.1
4349	22.531	4.3636	0.1	306.98
4350	22.531	4.1818	0.1	307.76
4351	22.531	4.	0.1	308.43
4352	22.531	3.8182	0.1	308.98
4353	22.531	3.6364	0.1	309.42
4354	22.531	3.4545	0.1	309.74
4355	22.531	3.2727	0.1	309.96
4356	22.531	3.0909	0.1	310.06
4357	22.531	2.9091	0.1	310.06
4358	22.531	2.7273	0.1	309.96
4359	22.531	2.5455	0.1	309.74
4360	22.531	2.3636	0.1	309.42
4361	22.531	2.1818	0.1	308.98
4362	22.531	2.	0.1	308.43
4363	22.531	1.8182	0.1	307.76
4364	22.531	1.6364	0.1	306.98
4365	22.531	1.4545	0.1	306.1
4366	22.531	1.2727	0.1	305.13
4367	22.531	1.0909	0.1	304.12
4368	22.531	0.90909	0.1	303.13
4369	22.531	0.72727	0.1	302.28
4370	22.531	0.54545	0.1	301.72
4371	22.531	0.36364	0.1	301.83
4372	22.531	0.18182	0.1	305.19
4373	22.347	5.8182	0.1	344.75
4374	22.347	5.6364	0.1	341.21
4375	22.347	5.4545	0.1	340.91
4376	22.347	5.2727	0.1	341.27
4377	22.347	5.0909	0.1	341.94
4378	22.347	4.9091	0.1	342.78
4379	22.347	4.7273	0.1	343.69
4380	22.347	4.5455	0.1	344.59
4381	22.347	4.3636	0.1	345.44
4382	22.347	4.1818	0.1	346.2
4383	22.347	4.	0.1	346.86
4384	22.347	3.8182	0.1	347.42
4385	22.347	3.6364	0.1	347.87
4386	22.347	3.4545	0.1	348.2
4387	22.347	3.2727	0.1	348.42
4388	22.347	3.0909	0.1	348.54
4389	22.347	2.9091	0.1	348.54
4390	22.347	2.7273	0.1	348.42
4391	22.347	2.5455	0.1	348.2
4392	22.347	2.3636	0.1	347.87
4393	22.347	2.1818	0.1	347.42
4394	22.347	2.	0.1	346.86
4395	22.347	1.8182	0.1	346.2
4396	22.347	1.6364	0.1	345.44
4397	22.347	1.4545	0.1	344.59
4398	22.347	1.2727	0.1	343.69
4399	22.347	1.0909	0.1	342.78
4400	22.347	0.90909	0.1	341.94
4401	22.347	0.72727	0.1	341.27
4402	22.347	0.54545	0.1	340.91
4403	22.347	0.36364	0.1	341.21
4404	22.347	0.18182	0.1	344.75
4405	22.164	5.8182	0.1	384.44
4406	22.164	5.6364	0.1	380.75
4407	22.164	5.4545	0.1	380.29
4408	22.164	5.2727	0.1	380.47
4409	22.164	5.0909	0.1	380.97
4410	22.164	4.9091	0.1	381.67
4411	22.164	4.7273	0.1	382.46
4412	22.164	4.5455	0.1	383.27
4413	22.164	4.3636	0.1	384.05
4414	22.164	4.1818	0.1	384.78
4415	22.164	4.	0.1	385.42
4416	22.164	3.8182	0.1	385.96
4417	22.164	3.6364	0.1	386.4
4418	22.164	3.4545	0.1	386.74
4419	22.164	3.2727	0.1	386.96
4420	22.164	3.0909	0.1	387.07
4421	22.164	2.9091	0.1	387.07
4422	22.164	2.7273	0.1	386.96
4423	22.164	2.5455	0.1	386.74
4424	22.164	2.3636	0.1	386.4
4425	22.164	2.1818	0.1	385.96
4426	22.164	2.	0.1	385.42
4427	22.164	1.8182	0.1	384.78
4428	22.164	1.6364	0.1	384.05
4429	22.164	1.4545	0.1	383.27
4430	22.164	1.2727	0.1	382.46
4431	22.164	1.0909	0.1	381.67
4432	22.164	0.90909	0.1	380.97
4433	22.164	0.72727	0.1	380.47
4434	22.164	0.54545	0.1	380.29
4435	22.164	0.36364	0.1	380.75
4436	22.164	0.18182	0.1	384.44
4437	21.98	5.8182	0.1	424.26
4438	21.98	5.6364	0.1	420.45
4439	21.98	5.4545	0.1	419.86
4440	21.98	5.2727	0.1	419.87
4441	21.98	5.0909	0.1	420.21
4442	21.98	4.9091	0.1	420.76
4443	21.98	4.7273	0.1	421.42
4444	21.98	4.5455	0.1	422.13
4445	21.98	4.3636	0.1	422.84
4446	21.98	4.1818	0.1	423.51
4447	21.98	4.	0.1	424.11
4448	21.98	3.8182	0.1	424.63
4449	21.98	3.6364	0.1	425.05
4450	21.98	3.4545	0.1	425.37
4451	21.98	3.2727	0.1	425.59
4452	21.98	3.0909	0.1	425.7
4453	21.98	2.9091	0.1	425.7
4454	21.98	2.7273	0.1	425.59
4455	21.98	2.5455	0.1	425.37
4456	21.98	2.3636	0.1	425.05
4457	21.98	2.1818	0.1	424.63
4458	21.98	2.	0.1	424.11
4459	21.98	1.8182	0.1	423.51
4460	21.98	1.6364	0.1	422.84
4461	21.98	1.4545	0.1	422.13
4462	21.98	1.2727	0.1	421.42
4463	21.98	1.0909	0.1	420.76
4464	21.98	0.90909	0.1	420.21
4465	21.98	0.72727	0.1	419.87
4466	21.98	0.54545	0.1	419.86
4467	21.98	0.36364	0.1	420.45
4468	21.98	0.18182	0.1	424.26
4469	21.796	5.8182	0.1	464.19
4470	21.796	5.6364	0.1	460.29
4471	21.796	5.4545	0.1	459.58
4472	21.796	5.2727	0.1	459.45
4473	21.796	5.0909	0.1	459.65
4474	21.796	4.9091	0.1	460.05
4475	21.796	4.7273	0.1	460.59
4476	21.796	4.5455	0.1	461.19
4477	21.796	4.3636	0.1	461.81
4478	21.796	4.1818	0.1	462.41
4479	21.796	4.	0.1	462.96
4480	21.796	3.8182	0.1	463.44
4481	21.796	3.6364	0.1	463.83
4482	21.796	3.4545	0.1	464.14
4483	21.796	3.2727	0.1	464.34
4484	21.796	3.0909	0.1	464.45
4485	21.796	2.9091	0.1	464.45
4486	21.796	2.7273	0.1	464.34
4487	21.796	2.5455	0.1	464.14
4488	21.796	2.3636	0.1	463.83
4489	21.796	2.1818	0.1	463.44
4490	21.796	2.	0.1	462.96
4491	21.796	1.8182	0.1	462.41
4492	21.796	1.6364	0.1	461.81
4493	21.796	1.4545	0.1	461.19
4494	21.796	1.2727	0.1	460.59
4495	21.796	1.0909	0.1	460.05
4496	21.796	0.90909	0.1	459.65
4497	21.796	0.72727	0.1	459.45
4498	21.796	0.54545	0.1	459.58
4499	21.796	0.36364	0.1	460.29
4500	21.796	0.18182	0.1	464.19
4501	21.613	5.8182	0.1	504.24
4502	21.613	5.6364	0.1	500.26
4503	21.613	5.4545	0.1	499.45
4504	21.613	5.2727	0.1	499.2
4505	21.613	5.0909	0.1	499.26
4506	21.613	4.9091	0.1	499.53
4507	21.613	4.7273	0.1	499.94
4508	21.613	4.5455	0.1	500.43
4509	21.613	4.3636	0.1	500.96
4510	21.613	4.1818	0.1	501.48
4511	21.613	4.	0.1	501.97
4512	21.613	3.8182	0.1	502.41
4513	21.613	3.6364	0.1	502.77
4514	21.613	3.4545	0.1	503.05
4515	21.613	3.2727	0.1	503.24
4516	21.613	3.0909	0.1	503.34
4517	21.613	2.9091	0.1	503.34
4518	21.613	2.7273	0.1	503.24
4519	21.613	2.5455	0.1	503.05
4520	21.613	2.3636	0.1	502.77
4521	21.613	2.1818	0.1	502.41
4522	21.613	2.	0.1	501.97
4523	21.613	1.8182	0.1	501.48
4524	21.613	1.6364	0.1	500.96
4525	21.613	1.4545	0.1	500.43
4526	21.613	1.2727	0.1	499.94
4527	21.613	1.0909	0.1	499.53
4528	21.613	0.90909	0.1	499.26
4529	21.613	0.72727	0.1	499.2
4530	21.613	0.54545	0.1	499.45
4531	21.613	0.36364	0.1	500.26
4532	21.613	0.18182	0.1	504.24
4533	21.429	5.8182	0.1	544.41
4534	21.429	5.6364	0.1	540.38
4535	21.429	5.4545	0.1	539.47
4536	21.429	5.2727	0.1	539.11
4537	21.429	5.0909	0.1	539.04
4538	21.429	4.9091	0.1	539.19
4539	21.429	4.7273	0.1	539.48
4540	21.429	4.5455	0.1	539.87
4541	21.429	4.3636	0.1	540.3
4542	21.429	4.1818	0.1	540.74
4543	21.429	4.	0.1	541.17
4544	21.429	3.8182	0.1	541.55
4545	21.429	3.6364	0.1	541.87
4546	21.429	3.4545	0.1	542.12
4547	21.429	3.2727	0.1	542.29
4548	21.429	3.0909	0.1	542.38
4549	21.429	2.9091	0.1	542.38
4550	21.429	2.7273	0.1	542.29
4551	21.429	2.5455	0.1	542.12
4552	21.429	2.3636	0.1	541.87
4553	21.429	2.1818	0.1	541.55
4554	21.429	2.	0.1	541.17
4555	21.429	1.8182	0.1	540.74
4556	21.429	1.6364	0.1	540.3
4557	21.429	1.4545	0.1	539.87
4558	21.429	1.2727	0.1	539.48
4559	21.429	1.0909	0.1	539.19
4560	21.429	0.90909	0.1	539.04
4561	21.429	0.72727	0.1	539.11
4562	21.429	0.54545	0.1	539.47
4563	21.429	0.36364	0.1	540.38
4564	21.429	0.18182	0.1	544.41
4565	21.246	5.8182	0.1	584.71
4566	21.246	5.6364	0.1	580.62
4567	21.246	5.4545	0.1	579.64
4568	21.246	5.2727	0.1	579.18
4569	21.246	5.0909	0.1	578.99
4570	21.246	4.9091	0.1	579.02
4571	21.246	4.7273	0.1	579.2
4572	21.246	4.5455	0.1	579.48
4573	21.246	4.3636	0.1	579.82
4574	21.246	4.1818	0.1	580.19
4575	21.246	4.	0.1	580.54
4576	21.246	3.8182	0.1	580.87
4577	21.246	3.6364	0.1	581.15
4578	21.246	3.4545	0.1	581.37
4579	21.246	3.2727	0.1	581.52
4580	21.246	3.0909	0.1	581.6
4581	21.246	2.9091	0.1	581.6
4582	21.246	2.7273	0.1	581.52
4583	21.246	2.5455	0.1	581.37
4584	21.246	2.3636	0.1	581.15
4585	21.246	2.1818	0.1	580.87
4586	21.246	2.	0.1	580.54
4587	21.246	1.8182	0.1	580.19
4588	21.246	1.6364	0.1	579.82
4589	21.246	1.4545	0.1	579.48
4590	21.246	1.2727	0.1	579.2
4591	21.246	1.0909	0.1	579.02
4592	21.246	0.90909	0.1	578.99
4593	21.246	0.72727	0.1	579.18
4594	21.246	0.54545	0.1	579.64
4595	21.246	0.36364	0.1	580.62
4596	21.246	0.18182	0.1	584.71
4597	21.062	5.8182	0.1	625.12
4598	21.062	5.6364	0.1	621.
4599	21.062	5.4545	0.1	619.95
4600	21.062	5.2727	0.1	619.4
4601	21.062	5.0909	0.1	619.11
4602	21.062	4.9091	0.1	619.03
4603	21.062	4.7273	0.1	619.11
4604	21.062	4.5455	0.1	619.29
4605	21.062	4.3636	0.1	619.54
4606	21.062	4.1818	0.1	619.82
4607	21.062	4.	0.1	620.11
4608	21.062	3.8182	0.1	620.38
4609	21.062	3.6364	0.1	620.62
4610	21.062	3.4545	0.1	620.8
4611	21.062	3.2727	0.1	620.93
4612	21.062	3.0909	0.1	621.
4613	21.062	2.9091	0.1	621.
4614	21.062	2.7273	0.1	620.93
4615	21.062	2.5455	0.1	620.8
4616	21.062	2.3636	0.1	620.62
4617	21.062	2.1818	0.1	620.38
4618	21.062	2.	0.1	620.11
4619	21.062	1.8182	0.1	619.82
4620	21.062	1.6364	0.1	619.54
4621	21.062	1.4545	0.1	619.29
4622	21.062	1.2727	0.1	619.11
4623	21.062	1.0909	0.1	619.03
4624	21.062	0.90909	0.1	619.11
4625	21.062	0.72727	0.1	619.4
4626	21.062	0.54545	0.1	619.95
4627	21.062	0.36364	0.1	621.
4628	21.062	0.18182	0.1	625.12
4629	20.878	5.8182	0.1	665.66
4630	20.878	5.6364	0.1	661.52
4631	20.878	5.4545	0.1	660.41
4632	20.878	5.2727	0.1	659.77
4633	20.878	5.0909	0.1	659.39
4634	20.878	4.9091	0.1	659.22
4635	20.878	4.7273	0.1	659.19
4636	20.878	4.5455	0.1	659.28
4637	20.878	4.3636	0.1	659.44
4638	20.878	4.1818	0.1	659.65
4639	20.878	4.	0.1	659.87
4640	20.878	3.8182	0.1	660.08
4641	20.878	3.6364	0.1	660.28
4642	20.878	3.4545	0.1	660.43
4643	20.878	3.2727	0.1	660.54
4644	20.878	3.0909	0.1	660.59
4645	20.878	2.9091	0.1	660.59
4646	20.878	2.7273	0.1	660.54
4647	20.878	2.5455	0.1	660.43
4648	20.878	2.3636	0.1	660.28
4649	20.878	2.1818	0.1	660.08
4650	20.878	2.	0.1	659.87
4651	20.878	1.8182	0.1	659.65
4652	20.878	1.6364	0.1	659.44
4653	20.878	1.4545	0.1	659.28
4654	20.878	1.2727	0.1	659.19
4655	20.878	1.0909	0.1	659.22
4656	20.878	0.90909	0.1	659.39
4657	20.878	0.72727	0.1	659.77
4658	20.878	0.54545	0.1	660.41
4659	20.878	0.36364	0.1	661.52
4660	20.878	0.18182	0.1	665.66
4661	20.695	5.8182	0.1	706.34
4662	20.695	5.6364	0.1	702.18
4663	20.695	5.4545	0.1	701.01
4664	20.695	5.2727	0.1	700.3
4665	20.695	5.0909	0.1	699.84
4666	20.695	4.9091	0.1	699.57
4667	20.695	4.7273	0.1	699.46
4668	20.695	4.5455	0.1	699.46
4669	20.695	4.3636	0.1	699.54
4670	20.695	4.1818	0.1	699.67
4671	20.695	4.	0.1	699.83
4672	20.695	3.8182	0.1	699.99
4673	20.695	3.6364	0.1	700.13
4674	20.695	3.4545	0.1	700.26
4675	20.695	3.2727	0.1	700.34
4676	20.695	3.0909	0.1	700.39
4677	20.695	2.9091	0.1	700.39
4678	20.695	2.7273	0.1	700.34
4679	20.695	2.5455	0.1	700.26
4680	20.695	2.3636	0.1	700.13
4681	20.695	2.1818	0.1	699.99
4682	20.695	2.	0.1	699.83
4683	20.695	1.8182	0.1	699.67
4684	20.695	1.6364	0.1	699.54
4685	20.695	1.4545	0.1	699.46
4686	20.695	1.2727	0.1	699.46
4687	20.695	1.0909	0.1	699.57
4688	20.695	0.90909	0.1	699.84
4689	20.695	0.72727	0.1	700.3
4690	20.695	0.54545	0.1	701.01
4691	20.695	0.36364	0.1	702.18
4692	20.695	0.18182	0.1	706.34
4693	20.511	5.8182	0.1	747.15
4694	20.511	5.6364	0.1	742.98
4695	20.511	5.4545	0.1	741.77
4696	20.511	5.2727	0.1	740.99
4697	20.511	5.0909	0.1	740.45
4698	20.511	4.9091	0.1	740.11
4699	20.511	4.7273	0.1	739.91
4700	20.511	4.5455	0.1	739.83
4701	20.511	4.3636	0.1	739.83
4702	20.511	4.1818	0.1	739.89
4703	20.511	4.	0.1	739.98
4704	20.511	3.8182	0.1	740.09
4705	20.511	3.6364	0.1	740.2
4706	20.511	3.4545	0.1	740.29
4707	20.511	3.2727	0.1	740.35
4708	20.511	3.0909	0.1	740.38
4709	20.511	2.9091	0.1	740.38
4710	20.511	2.7273	0.1	740.35
4711	20.511	2.5455	0.1	740.29
4712	20.511	2.3636	0.1	740.2
4713	20.511	2.1818	0.1	740.09
4714	20.511	2.	0.1	739.98
4715	20.511	1.8182	0.1	739.89
4716	20.511	1.6364	0.1	739.83
4717	20.511	1.4545	0.1	739.83
4718	20.511	1.2727	0.1	739.91
4719	20.511	1.0909	0.1	740.11
4720	20.511	0.90909	0.1	740.45
4721	20.511	0.72727	0.1	740.99
4722	20.511	0.54545	0.1	741.77
4723	20.511	0.36364	0.1	742.98
4724	20.511	0.18182	0.1	747.15
4725	20.327	5.8182	0.1	788.1
4726	20.327	5.6364	0.1	783.93
4727	20.327	5.4545	0.1	782.67
4728	20.327	5.2727	0.1	781.84
4729	20.327	5.0909	0.1	781.23
4730	20.327	4.9091	0.1	780.81
4731	20.327	4.7273	0.1	780.54
4732	20.327	4.5455	0.1	780.38
4733	20.327	4.3636	0.1	780.31
4734	20.327	4.1818	0.1	780.31
4735	20.327	4.	0.1	780.34
4736	20.327	3.8182	0.1	780.4
4737	20.327	3.6364	0.1	780.46
4738	20.327	3.4545	0.1	780.52
4739	20.327	3.2727	0.1	780.56
4740	20.327	3.0909	0.1	780.59
4741	20.327	2.9091	0.1	780.59
4742	20.327	2.7273	0.1	780.56
4743	20.327	2.5455	0.1	780.52
4744	20.327	2.3636	0.1	780.46
4745	20.327	2.1818	0.1	780.4
4746	20.327	2.	0.1	780.34
4747	20.327	1.8182	0.1	780.31
4748	20.327	1.6364	0.1	780.31
4749	20.327	1.4545	0.1	780.38
4750	20.327	1.2727	0.1	780.54
4751	20.327	1.0909	0.1	780.81
4752	20.327	0.90909	0.1	781.23
4753	20.327	0.72727	0.1	781.84
4754	20.327	0.54545	0.1	782.67
4755	20.327	0.36364	0.1	783.93
4756	20.327	0.18182	0.1	788.1
4757	20.144	5.8182	0.1	829.19
4758	20.144	5.6364	0.1	825.03
4759	20.144	5.4545	0.1	823.73
4760	20.144	5.2727	0.1	822.85
4761	20.144	5.0909	0.1	822.18
4762	20.144	4.9091	0.1	821.69
4763	20.144	4.7273	0.1	821.35
4764	20.144	4.5455	0.1	821.12
4765	20.144	4.3636	0.1	820.99
4766	20.144	4.1818	0.1	820.92
4767	20.144	4.	0.1	820.9
4768	20.144	3.8182	0.1	820.91
4769	20.144	3.6364	0.1	820.94
4770	20.144	3.4545	0.1	820.97
4771	20.144	3.2727	0.1	820.99
4772	20.144	3.0909	0.1	821.
4773	20.144	2.9091	0.1	821.
4774	20.144	2.7273	0.1	820.99
4775	20.144	2.5455	0.1	820.97
4776	20.144	2.3636	0.1	820.94
4777	20.144	2.1818	0.1	820.91
4778	20.144	2.	0.1	820.9
4779	20.144	1.8182	0.1	820.92
4780	20.144	1.6364	0.1	820.99
4781	20.144	1.4545	0.1	821.12
4782	20.144	1.2727	0.1	821.35
4783	20.144	1.0909	0.1	821.69
4784	20.144	0.90909	0.1	822.18
4785	20.144	0.72727	0.1	822.85
4786	20.144	0.54545	0.1	823.74
4787	20.144	0.36364	0.1	825.03
4788	20.144	0.18182	0.1	829.19
4789	19.96	5.8182	0.1	870.43
4790	19.96	5.6364	0.1	866.28
4791	19.96	5.4545	0.1	864.95
4792	19.96	5.2727	0.1	864.02
4793	19.96	5.0909	0.1	863.3
4794	19.96	4.9091	0.1	862.75
4795	19.96	4.7273	0.1	862.34
4796	19.96	4.5455	0.1	862.06
4797	19.96	4.3636	0.1	861.86
4798	19.96	4.1818	0.1	861.74
4799	19.96	4.	0.1	861.67
4800	19.96	3.8182	0.1	861.63
4801	19.96	3.6364	0.1	861.62
4802	19.96	3.4545	0.1	861.62
4803	19.96	3.2727	0.1	861.63
4804	19.96	3.0909	0.1	861.63
4805	19.96	2.9091	0.1	861.63
4806	19.96	2.7273	0.1	861.63
4807	19.96	2.5455	0.1	861.62
4808	19.96	2.3636	0.1	861.62
4809	19.96	2.1818	0.1	861.63
4810	19.96	2.	0.1	861.67
4811	19.96	1.8182	0.1	861.74
4812	19.96	1.6364	0.1	861.86
4813	19.96	1.4545	0.1	862.06
4814	19.96	1.2727	0.1	862.34
4815	19.96	1.0909	0.1	862.75
4816	19.96	0.90909	0.1	863.3
4817	19.96	0.72727	0.1	864.02
4818	19.96	0.54545	0.1	864.95
4819	19.96	0.36364	0.1	866.28
4820	19.96	0.18182	0.1	870.43
4821	19.777	5.8182	0.1	911.83
4822	19.777	5.6364	0.1	907.69
4823	19.777	5.4545	0.1	906.34
4824	19.777	5.2727	0.1	905.36
4825	19.777	5.0909	0.1	904.59
4826	19.777	4.9091	0.1	903.99
4827	19.777	4.7273	0.1	903.52
4828	19.777	4.5455	0.1	903.18
4829	19.777	4.3636	0.1	902.93
4830	19.777	4.1818	0.1	902.75
4831	19.777	4.	0.1	902.63
4832	19.777	3.8182	0.1	902.56
4833	19.777	3.6364	0.1	902.51
4834	19.777	3.4545	0.1	902.49
4835	19.777	3.2727	0.1	902.48
4836	19.777	3.0909	0.1	902.47
4837	19.777	2.9091	0.1	902.47
4838	19.777	2.7273	0.1	902.48
4839	19.777	2.5455	0.1	902.49
4840	19.777	2.3636	0.1	902.51
4841	19.777	2.1818	0.1	902.56
4842	19.777	2.	0.1	902.63
4843	19.777	1.8182	0.1	902.75
4844	19.777	1.6364	0.1	902.93
4845	19.777	1.4545	0.1	903.18
4846	19.777	1.2727	0.1	903.52
4847	19.777	1.0909	0.1	903.99
4848	19.777	0.90909	0.1	904.59
4849	19.777	0.72727	0.1	905.36
4850	19.777	0.54545	0.1	906.34
4851	19.777	0.36364	0.1	907.69
4852	19.777	0.18182	0.1	911.83
4853	19.593	5.8182	0.1	953.38
4854	19.593	5.6364	0.1	949.25
4855	19.593	5.4545	0.1	947.88
4856	19.593	5.2727	0.1	946.87
4857	19.593	5.0909	0.1	946.06
4858	19.593	4.9091	0.1	945.4
4859	19.593	4.7273	0.1	944.89
4860	19.593	4.5455	0.1	944.49
4861	19.593	4.3636	0.1	944.19
4862	19.593	4.1818	0.1	943.97
4863	19.593	4.	0.1	943.81
4864	19.593	3.8182	0.1	943.69
4865	19.593	3.6364	0.1	943.62
4866	19.593	3.4545	0.1	943.57
4867	19.593	3.2727	0.1	943.54
4868	19.593	3.0909	0.1	943.53
4869	19.593	2.9091	0.1	943.53
4870	19.593	2.7273	0.1	943.54
4871	19.593	2.5455	0.1	943.57
4872	19.593	2.3636	0.1	943.62
4873	19.593	2.1818	0.1	943.69
4874	19.593	2.	0.1	943.81
4875	19.593	1.8182	0.1	943.97
4876	19.593	1.6364	0.1	944.19
4877	19.593	1.4545	0.1	944.49
4878	19.593	1.2727	0.1	944.89
4879	19.593	1.0909	0.1	945.4
4880	19.593	0.90909	0.1	946.06
4881	19.593	0.72727	0.1	946.87
4882	19.593	0.54545	0.1	947.88
4883	19.593	0.36364	0.1	949.25
4884	19.593	0.18182	0.1	953.38
4885	19.409	5.8182	0.1	995.09
4886	19.409	5.6364	0.1	990.99
4887	19.409	5.4545	0.1	989.59
4888	19.409	5.2727	0.1	988.55
4889	19.409	5.0909	0.1	987.7
4890	19.409	4.9091	0.1	987.
4891	19.409	4.7273	0.1	986.44
4892	19.409	4.5455	0.1	986.
4893	19.409	4.3636	0.1	985.65
4894	19.409	4.1818	0.1	985.38
4895	19.409	4.	0.1	985.18
4896	19.409	3.8182	0.1	985.04
4897	19.409	3.6364	0.1	984.93
4898	19.409	3.4545	0.1	984.86
4899	19.409	3.2727	0.1	984.82
4900	19.409	3.0909	0.1	984.8
4901	19.409	2.9091	0.1	984.8
4902	19.409	2.7273	0.1	984.82
4903	19.409	2.5455	0.1	984.86
4904	19.409	2.3636	0.1	984.93
4905	19.409	2.1818	0.1	985.04
4906	19.409	2.	0.1	985.18
4907	19.409	1.8182	0.1	985.38
4908	19.409	1.6364	0.1	985.65
4909	19.409	1.4545	0.1	986.
4910	19.409	1.2727	0.1	986.44
4911	19.409	1.0909	0.1	987.
4912	19.409	0.90909	0.1	987.7
4913	19.409	0.72727	0.1	988.55
4914	19.409	0.54545	0.1	989.59
4915	19.409	0.36364	0.1	990.99
4916	19.409	0.18182	0.1	995.09
4917	19.226	5.8182	0.1	1037.
4918	19.226	5.6364	0.1	1032.9
4919	19.226	5.4545	0.1	1031.5
4920	19.226	5.2727	0.1	1030.4
4921	19.226	5.0909	0.1	1029.5
4922	19.226	4.9091	0.1	1028.8
4923	19.226	4.7273	0.1	1028.2
4924	19.226	4.5455	0.1	1027.7
4925	19.226	4.3636	0.1	1027.3
4926	19.226	4.1818	0.1	1027.
4927	19.226	4.	0.1	1026.8
4928	19.226	3.8182	0.1	1026.6
4929	19.226	3.6364	0.1	1026.5
4930	19.226	3.4545	0.1	1026.4
4931	19.226	3.2727	0.1	1026.3
4932	19.226	3.0909	0.1	1026.3
4933	19.226	2.9091	0.1	1026.3
4934	19.226	2.7273	0.1	1026.3
4935	19.226	2.5455	0.1	1026.4
4936	19.226	2.3636	0.1	1026.5
4937	19.226	2.1818	0.1	1026.6
4938	19.226	2.	0.1	1026.8
4939	19.226	1.8182	0.1	1027.
4940	19.226	1.6364	0.1	1027.3
4941	19.226	1.4545	0.1	1027.7
4942	19.226	1.2727	0.1	1028.2
4943	19.226	1.0909	0.1	1028.8
4944	19.226	0.90909	0.1	1029.5
4945	19.226	0.72727	0.1	1030.4
4946	19.226	0.54545	0.1	1031.5
4947	19.226	0.36364	0.1	1032.9
4948	19.226	0.18182	0.1	1037.
4949	19.042	5.8182	0.1	1079.
4950	19.042	5.6364	0.1	1075.
4951	19.042	5.4545	0.1	1073.5
4952	19.042	5.2727	0.1	1072.4
4953	19.042	5.0909	0.1	1071.5
4954	19.042	4.9091	0.1	1070.8
4955	19.042	4.7273	0.1	1070.1
4956	19.042	4.5455	0.1	1069.6
4957	19.042	4.3636	0.1	1069.2
4958	19.042	4.1818	0.1	1068.8
4959	19.042	4.	0.1	1068.5
4960	19.042	3.8182	0.1	1068.3
4961	19.042	3.6364	0.1	1068.2
4962	19.042	3.4545	0.1	1068.1
4963	19.042	3.2727	0.1	1068.
4964	19.042	3.0909	0.1	1068.
4965	19.042	2.9091	0.1	1068.
4966	19.042	2.7273	0.1	1068.
4967	19.042	2.5455	0.1	1068.1
4968	19.042	2.3636	0.1	1068.2
4969	19.042	2.1818	0.1	1068.3
4970	19.042	2.	0.1	1068.5
4971	19.042	1.8182	0.1	1068.8
4972	19.042	1.6364	0.1	1069.2
4973	19.042	1.4545	0.1	1069.6
4974	19.042	1.2727	0.1	1070.1
4975	19.042	1.0909	0.1	1070.8
4976	19.042	0.90909	0.1	1071.5
4977	19.042	0.72727	0.1	1072.4
4978	19.042	0.54545	0.1	1073.5
4979	19.042	0.36364	0.1	1075.
4980	19.042	0.18182	0.1	1079.
4981	18.858	5.8182	0.1	1121.2
4982	18.858	5.6364	0.1	1117.2
4983	18.858	5.4545	0.1	1115.8
4984	18.858	5.2727	0.1	1114.6
4985	18.858	5.0909	0.1	1113.7
4986	18.858	4.9091	0.1	1112.9
4987	18.858	4.7273	0.1	1112.2
4988	18.858	4.5455	0.1	1111.7
4989	18.858	4.3636	0.1	1111.2
4990	18.858	4.1818	0.1	1110.8
4991	18.858	4.	0.1	1110.5
4992	18.858	3.8182	0.1	1110.3
4993	18.858	3.6364	0.1	1110.1
4994	18.858	3.4545	0.1	1110.
4995	18.858	3.2727	0.1	1109.9
4996	18.858	3.0909	0.1	1109.9
4997	18.858	2.9091	0.1	1109.9
4998	18.858	2.7273	0.1	1109.9
4999	18.858	2.5455	0.1	1110.
5000	18.858	2.3636	0.1	1110.1
5001	18.858	2.1818	0.1	1110.3
5002	18.858	2.	0.1	1110.5
5003	18.858	1.8182	0.1	1110.8
5004	18.858	1.6364	0.1	1111.2
5005	18.858	1.4545	0.1	1111.7
5006	18.858	1.2727	0.1	1112.2
5007	18.858	1.0909	0.1	1112.9
5008	18.858	0.90909	0.1	1113.7
5009	18.858	0.72727	0.1	1114.6
5010	18.858	0.54545	0.1	1115.8
5011	18.858	0.36364	0.1	1117.2
5012	18.858	0.18182	0.1	1121.2
5013	18.675	5.8182	0.1	1163.6
5014	18.675	5.6364	0.1	1159.6
5015	18.675	5.4545	0.1	1158.2
5016	18.675	5.2727	0.1	1157.
5017	18.675	5.0909	0.1	1156.1
5018	18.675	4.9091	0.1	1155.2
5019	18.675	4.7273	0.1	1154.5
5020	18.675	4.5455	0.1	1154.
5021	18.675	4.3636	0.1	1153.5
5022	18.675	4.1818	0.1	1153.1
5023	18.675	4.	0.1	1152.7
5024	18.675	3.8182	0.1	1152.5
5025	18.675	3.6364	0.1	1152.3
5026	18.675	3.4545	0.1	1152.1
5027	18.675	3.2727	0.1	1152.
5028	18.675	3.0909	0.1	1152.
5029	18.675	2.9091	0.1	1152.
5030	18.675	2.7273	0.1	1152.
5031	18.675	2.5455	0.1	1152.1
5032	18.675	2.3636	0.1	1152.3
5033	18.675	2.1818	0.1	1152.5
5034	18.675	2.	0.1	1152.7
5035	18.675	1.8182	0.1	1153.1
5036	18.675	1.6364	0.1	1153.5
5037	18.675	1.4545	0.1	1154.
5038	18.675	1.2727	0.1	1154.5
5039	18.675	1.0909	0.1	1155.2
5040	18.675	0.90909	0.1	1156.1
5041	18.675	0.72727	0.1	1157.
5042	18.675	0.54545	0.1	1158.2
5043	18.675	0.36364	0.1	1159.6
5044	18.675	0.18182	0.1	1163.6
5045	18.491	5.8182	0.1	1206.2
5046	18.491	5.6364	0.1	1202.2
5047	18.491	5.4545	0.1	1200.8
5048	18.491	5.2727	0.1	1199.6
5049	18.491	5.0909	0.1	1198.6
5050	18.491	4.9091	0.1	1197.8
5051	18.491	4.7273	0.1	1197.
5052	18.491	4.5455	0.1	1196.4
5053	18.491	4.3636	0.1	1195.9
5054	18.491	4.1818	0.1	1195.5
5055	18.491	4.	0.1	1195.1
5056	18.491	3.8182	0.1	1194.9
5057	18.491	3.6364	0.1	1194.6
5058	18.491	3.4545	0.1	1194.5
5059	18.491	3.2727	0.1	1194.4
5060	18.491	3.0909	0.1	1194.3
5061	18.491	2.9091	0.1	1194.3
5062	18.491	2.7273	0.1	1194.4
5063	18.491	2.5455	0.1	1194.5
5064	18.491	2.3636	0.1	1194.6
5065	18.491	2.1818	0.1	1194.9
5066	18.491	2.	0.1	1195.1
5067	18.491	1.8182	0.1	1195.5
5068	18.491	1.6364	0.1	1195.9
5069	18.491	1.4545	0.1	1196.4
5070	18.491	1.2727	0.1	1197.
5071	18.491	1.0909	0.1	1197.8
5072	18.491	0.90909	0.1	1198.6
5073	18.491	0.72727	0.1	1199.6
5074	18.491	0.54545	0.1	1200.8
5075	18.491	0.36364	0.1	1202.2
5076	18.491	0.18182	0.1	1206.2
5077	18.308	5.8182	0.1	1248.9
5078	18.308	5.6364	0.1	1245.
5079	18.308	5.4545	0.1	1243.5
5080	18.308	5.2727	0.1	1242.4
5081	18.308	5.0909	0.1	1241.4
5082	18.308	4.9091	0.1	1240.5
5083	18.308	4.7273	0.1	1239.7
5084	18.308	4.5455	0.1	1239.1
5085	18.308	4.3636	0.1	1238.6
5086	18.308	4.1818	0.1	1238.1
5087	18.308	4.	0.1	1237.7
5088	18.308	3.8182	0.1	1237.4
5089	18.308	3.6364	0.1	1237.2
5090	18.308	3.4545	0.1	1237.
5091	18.308	3.2727	0.1	1236.9
5092	18.308	3.0909	0.1	1236.9
5093	18.308	2.9091	0.1	1236.9
5094	18.308	2.7273	0.1	1236.9
5095	18.308	2.5455	0.1	1237.
5096	18.308	2.3636	0.1	1237.2
5097	18.308	2.1818	0.1	1237.4
5098	18.308	2.	0.1	1237.7
5099	18.308	1.8182	0.1	1238.1
5100	18.308	1.6364	0.1	1238.6
5101	18.308	1.4545	0.1	1239.1
5102	18.308	1.2727	0.1	1239.7
5103	18.308	1.0909	0.1	1240.5
5104	18.308	0.90909	0.1	1241.4
5105	18.308	0.72727	0.1	1242.4
5106	18.308	0.54545	0.1	1243.5
5107	18.308	0.36364	0.1	1245.
5108	18.308	0.18182	0.1	1248.9
5109	18.124	5.8182	0.1	1291.8
5110	18.124	5.6364	0.1	1287.9
5111	18.124	5.4545	0.1	1286.5
5112	18.124	5.2727	0.1	1285.3
5113	18.124	5.0909	0.1	1284.3
5114	18.124	4.9091	0.1	1283.4
5115	18.124	4.7273	0.1	1282.6
5116	18.124	4.5455	0.1	1282.
5117	18.124	4.3636	0.1	1281.4
5118	18.124	4.1818	0.1	1280.9
5119	18.124	4.	0.1	1280.5
5120	18.124	3.8182	0.1	1280.2
5121	18.124	3.6364	0.1	1280.
5122	18.124	3.4545	0.1	1279.8
5123	18.124	3.2727	0.1	1279.7
5124	18.124	3.0909	0.1	1279.6
5125	18.124	2.9091	0.1	1279.6
5126	18.124	2.7273	0.1	1279.7
5127	18.124	2.5455	0.1	1279.8
5128	18.124	2.3636	0.1	1280.
5129	18.124	2.1818	0.1	1280.2
5130	18.124	2.	0.1	1280.5
5131	18.124	1.8182	0.1	1280.9
5132	18.124	1.6364	0.1	1281.4
5133	18.124	1.4545	0.1	1282.
5134	18.124	1.2727	0.1	1282.6
5135	18.124	1.0909	0.1	1283.4
5136	18.124	0.90909	0.1	1284.3
5137	18.124	0.72727	0.1	1285.3
5138	18.124	0.54545	0.1	1286.5
5139	18.124	0.36364	0.1	1287.9
5140	18.124	0.18182	0.1	1291.8
5141	17.94	5.8182	0.1	1334.9
5142	17.94	5.6364	0.1	1331.1
5143	17.94	5.4545	0.1	1329.6
5144	17.94	5.2727	0.1	1328.4
5145	17.94	5.0909	0.1	1327.4
5146	17.94	4.9091	0.1	1326.5
5147	17.94	4.7273	0.1	1325.7
5148	17.94	4.5455	0.1	1325.
5149	17.94	4.3636	0.1	1324.4
5150	17.94	4.1818	0.1	1324.
5151	17.94	4.	0.1	1323.5
5152	17.94	3.8182	0.1	1323.2
5153	17.94	3.6364	0.1	1323.
5154	17.94	3.4545	0.1	1322.8
5155	17.94	3.2727	0.1	1322.6
5156	17.94	3.0909	0.1	1322.6
5157	17.94	2.9091	0.1	1322.6
5158	17.94	2.7273	0.1	1322.6
5159	17.94	2.5455	0.1	1322.8
5160	17.94	2.3636	0.1	1323.
5161	17.94	2.1818	0.1	1323.2
5162	17.94	2.	0.1	1323.5
5163	17.94	1.8182	0.1	1324.
5164	17.94	1.6364	0.1	1324.4
5165	17.94	1.4545	0.1	1325.
5166	17.94	1.2727	0.1	1325.7
5167	17.94	1.0909	0.1	1326.5
5168	17.94	0.90909	0.1	1327.4
5169	17.94	0.72727	0.1	1328.4
5170	17.94	0.54545	0.1	1329.6
5171	17.94	0.36364	0.1	1331.1
5172	17.94	0.18182	0.1	1334.9
5173	17.757	5.8182	0.1	1378.2
5174	17.757	5.6364	0.1	1374.4
5175	17.757	5.4545	0.1	1372.9
5176	17.757	5.2727	0.1	1371.8
5177	17.757	5.0909	0.1	1370.7
5178	17.757	4.9091	0.1	1369.8
5179	17.757	4.7273	0.1	1369.
5180	17.757	4.5455	0.1	1368.3
5181	17.757	4.3636	0.1	1367.7
5182	17.757	4.1818	0.1	1367.2
5183	17.757	4.	0.1	1366.8
5184	17.757	3.8182	0.1	1366.4
5185	17.757	3.6364	0.1	1366.1
5186	17.757	3.4545	0.1	1365.9
5187	17.757	3.2727	0.1	1365.8
5188	17.757	3.0909	0.1	1365.8
5189	17.757	2.9091	0.1	1365.8
5190	17.757	2.7273	0.1	1365.8
5191	17.757	2.5455	0.1	1365.9
5192	17.757	2.3636	0.1	1366.1
5193	17.757	2.1818	0.1	1366.4
5194	17.757	2.	0.1	1366.8
5195	17.757	1.8182	0.1	1367.2
5196	17.757	1.6364	0.1	1367.7
5197	17.757	1.4545	0.1	1368.3
5198	17.757	1.2727	0.1	1369.
5199	17.757	1.0909	0.1	1369.8
5200	17.757	0.90909	0.1	1370.7
5201	17.757	0.72727	0.1	1371.8
5202	17.757	0.54545	0.1	1372.9
5203	17.757	0.36364	0.1	1374.4
5204	17.757	0.18182	0.1	1378.2
5205	17.573	5.8182	0.1	1421.7
5206	17.573	5.6364	0.1	1417.9
5207	17.573	5.4545	0.1	1416.5
5208	17.573	5.2727	0.1	1415.3
5209	17.573	5.0909	0.1	1414.2
5210	17.573	4.9091	0.1	1413.3
5211	17.573	4.7273	0.1	1412.5
5212	17.573	4.5455	0.1	1411.7
5213	17.573	4.3636	0.1	1411.1
5214	17.573	4.1818	0.1	1410.6
5215	17.573	4.	0.1	1410.2
5216	17.573	3.8182	0.1	1409.8
5217	17.573	3.6364	0.1	1409.5
5218	17.573	3.4545	0.1	1409.3
5219	17.573	3.2727	0.1	1409.2
5220	17.573	3.0909	0.1	1409.1
5221	17.573	2.9091	0.1	1409.1
5222	17.573	2.7273	0.1	1409.2
5223	17.573	2.5455	0.1	1409.3
5224	17.573	2.3636	0.1	1409.5
5225	17.573	2.1818	0.1	1409.8
5226	17.573	2.	0.1	1410.2
5227	17.573	1.8182	0.1	1410.6
5228	17.573	1.6364	0.1	1411.1
5229	17.573	1.4545	0.1	1411.7
5230	17.573	1.2727	0.1	1412.5
5231	17.573	1.0909	0.1	1413.3
5232	17.573	0.90909	0.1	1414.2
5233	17.573	0.72727	0.1	1415.3
5234	17.573	0.54545	0.1	1416.5
5235	17.573	0.36364	0.1	1417.9
5236	17.573	0.18182	0.1	1421.7
5237	17.389	5.8182	0.1	1465.4
5238	17.389	5.6364	0.1	1461.6
5239	17.389	5.4545	0.1	1460.2
5240	17.389	5.2727	0.1	1459.
5241	17.389	5.0909	0.1	1457.9
5242	17.389	4.9091	0.1	1457.
5243	17.389	4.7273	0.1	1456.1
5244	17.389	4.5455	0.1	1455.4
5245	17.389	4.3636	0.1	1454.8
5246	17.389	4.1818	0.1	1454.2
5247	17.389	4.	0.1	1453.8
5248	17.389	3.8182	0.1	1453.4
5249	17.389	3.6364	0.1	1453.1
5250	17.389	3.4545	0.1	1452.9
5251	17.389	3.2727	0.1	1452.8
5252	17.389	3.0909	0.1	1452.7
5253	17.389	2.9091	0.1	1452.7
5254	17.389	2.7273	0.1	1452.8
5255	17.389	2.5455	0.1	1452.9
5256	17.389	2.3636	0.1	1453.1
5257	17.389	2.1818	0.1	1453.4
5258	17.389	2.	0.1	1453.8
5259	17.389	1.8182	0.1	1454.2
5260	17.389	1.6364	0.1	1454.8
5261	17.389	1.4545	0.1	1455.4
5262	17.389	1.2727	0.1	1456.1
5263	17.389	1.0909	0.1	1457.
5264	17.389	0.90909	0.1	1457.9
5265	17.389	0.72727	0.1	1459.
5266	17.389	0.54545	0.1	1460.2
5267	17.389	0.36364	0.1	1461.6
5268	17.389	0.18182	0.1	1465.4
5269	17.206	5.8182	0.1	1509.2
5270	17.206	5.6364	0.1	1505.5
5271	17.206	5.4545	0.1	1504.
5272	17.206	5.2727	0.1	1502.8
5273	17.206	5.0909	0.1	1501.8
5274	17.206	4.9091	0.1	1500.8
5275	17.206	4.7273	0.1	1500.
5276	17.206	4.5455	0.1	1499.2
5277	17.206	4.3636	0.1	1498.6
5278	17.206	4.1818	0.1	1498.1
5279	17.206	4.	0.1	1497.6
5280	17.206	3.8182	0.1	1497.2
5281	17.206	3.6364	0.1	1496.9
5282	17.206	3.4545	0.1	1496.7
5283	17.206	3.2727	0.1	1496.6
5284	17.206	3.0909	0.1	1496.5
5285	17.206	2.9091	0.1	1496.5
5286	17.206	2.7273	0.1	1496.6
5287	17.206	2.5455	0.1	1496.7
5288	17.206	2.3636	0.1	1496.9
5289	17.206	2.1818	0.1	1497.2
5290	17.206	2.	0.1	1497.6
5291	17.206	1.8182	0.1	1498.1
5292	17.206	1.6364	0.1	1498.6
5293	17.206	1.4545	0.1	1499.2
5294	17.206	1.2727	0.1	1500.
5295	17.206	1.0909	0.1	1500.8
5296	17.206	0.90909	0.1	1501.8
5297	17.206	0.72727	0.1	1502.8
5298	17.206	0.54545	0.1	1504.
5299	17.206	0.36364	0.1	1505.5
5300	17.206	0.18182	0.1	1509.2
5301	17.022	5.8182	0.1	1553.3
5302	17.022	5.6364	0.1	1549.6
5303	17.022	5.4545	0.1	1548.1
5304	17.022	5.2727	0.1	1546.9
5305	17.022	5.0909	0.1	1545.9
5306	17.022	4.9091	0.1	1544.9
5307	17.022	4.7273	0.1	1544.
5308	17.022	4.5455	0.1	1543.3
5309	17.022	4.3636	0.1	1542.6
5310	17.022	4.1818	0.1	1542.1
5311	17.022	4.	0.1	1541.6
5312	17.022	3.8182	0.1	1541.2
5313	17.022	3.6364	0.1	1540.9
5314	17.022	3.4545	0.1	1540.7
5315	17.022	3.2727	0.1	1540.5
5316	17.022	3.0909	0.1	1540.5
5317	17.022	2.9091	0.1	1540.5
5318	17.022	2.7273	0.1	1540.5
5319	17.022	2.5455	0.1	1540.7
5320	17.022	2.3636	0.1	1540.9
5321	17.022	2.1818	0.1	1541.2
5322	17.022	2.	0.1	1541.6
5323	17.022	1.8182	0.1	1542.1
5324	17.022	1.6364	0.1	1542.6
5325	17.022	1.4545	0.1	1543.3
5326	17.022	1.2727	0.1	1544.
5327	17.022	1.0909	0.1	1544.9
5328	17.022	0.90909	0.1	1545.9
5329	17.022	0.72727	0.1	1546.9
5330	17.022	0.54545	0.1	1548.1
5331	17.022	0.36364	0.1	1549.6
5332	17.022	0.18182	0.1	1553.3
5333	16.839	5.8182	0.1	1597.5
5334	16.839	5.6364	0.1	1593.9
5335	16.839	5.4545	0.1	1592.4
5336	16.839	5.2727	0.1	1591.2
5337	16.839	5.0909	0.1	1590.1
5338	16.839	4.9091	0.1	1589.2
5339	16.839	4.7273	0.1	1588.3
5340	16.839	4.5455	0.1	1587.5
5341	16.839	4.3636	0.1	1586.9
5342	16.839	4.1818	0.1	1586.3
5343	16.839	4.	0.1	1585.8
5344	16.839	3.8182	0.1	1585.4
5345	16.839	3.6364	0.1	1585.1
5346	16.839	3.4545	0.1	1584.9
5347	16.839	3.2727	0.1	1584.7
5348	16.839	3.0909	0.1	1584.7
5349	16.839	2.9091	0.1	1584.7
5350	16.839	2.7273	0.1	1584.7
5351	16.839	2.5455	0.1	1584.9
5352	16.839	2.3636	0.1	1585.1
5353	16.839	2.1818	0.1	1585.4
5354	16.839	2.	0.1	1585.8
5355	16.839	1.8182	0.1	1586.3
5356	16.839	1.6364	0.1	1586.9
5357	16.839	1.4545	0.1	1587.5
5358	16.839	1.2727	0.1	1588.3
5359	16.839	1.0909	0.1	1589.2
5360	16.839	0.90909	0.1	1590.1
5361	16.839	0.72727	0.1	1591.2
5362	16.839	0.54545	0.1	1592.4
5363	16.839	0.36364	0.1	1593.9
5364	16.839	0.18182	0.1	1597.5
5365	16.655	5.8182	0.1	1641.9
5366	16.655	5.6364	0.1	1638.3
5367	16.655	5.4545	0.1	1636.9
5368	16.655	5.2727	0.1	1635.7
5369	16.655	5.0909	0.1	1634.6
5370	16.655	4.9091	0.1	1633.6
5371	16.655	4.7273	0.1	1632.7
5372	16.655	4.5455	0.1	1632.
5373	16.655	4.3636	0.1	1631.3
5374	16.655	4.1818	0.1	1630.7
5375	16.655	4.	0.1	1630.2
5376	16.655	3.8182	0.1	1629.8
5377	16.655	3.6364	0.1	1629.5
5378	16.655	3.4545	0.1	1629.3
5379	16.655	3.2727	0.1	1629.1
5380	16.655	3.0909	0.1	1629.1
5381	16.655	2.9091	0.1	1629.1
5382	16.655	2.7273	0.1	1629.1
5383	16.655	2.5455	0.1	1629.3
5384	16.655	2.3636	0.1	1629.5
5385	16.655	2.1818	0.1	1629.8
5386	16.655	2.	0.1	1630.2
5387	16.655	1.8182	0.1	1630.7
5388	16.655	1.6364	0.1	1631.3
5389	16.655	1.4545	0.1	1632.
5390	16.655	1.2727	0.1	1632.7
5391	16.655	1.0909	0.1	1633.6
5392	16.655	0.90909	0.1	1634.6
5393	16.655	0.72727	0.1	1635.7
5394	16.655	0.54545	0.1	1636.9
5395	16.655	0.36364	0.1	1638.3
5396	16.655	0.18182	0.1	1641.9
5397	16.471	5.8182	0.1	1686.6
5398	16.471	5.6364	0.1	1683.
5399	16.471	5.4545	0.1	1681.5
5400	16.471	5.2727	0.1	1680.3
5401	16.471	5.0909	0.1	1679.2
5402	16.471	4.9091	0.1	1678.3
5403	16.471	4.7273	0.1	1677.4
5404	16.471	4.5455	0.1	1676.6
5405	16.471	4.3636	0.1	1675.9
5406	16.471	4.1818	0.1	1675.4
5407	16.471	4.	0.1	1674.9
5408	16.471	3.8182	0.1	1674.5
5409	16.471	3.6364	0.1	1674.1
5410	16.471	3.4545	0.1	1673.9
5411	16.471	3.2727	0.1	1673.7
5412	16.471	3.0909	0.1	1673.7
5413	16.471	2.9091	0.1	1673.7
5414	16.471	2.7273	0.1	1673.7
5415	16.471	2.5455	0.1	1673.9
5416	16.471	2.3636	0.1	1674.1
5417	16.471	2.1818	0.1	1674.5
5418	16.471	2.	0.1	1674.9
5419	16.471	1.8182	0.1	1675.4
5420	16.471	1.6364	0.1	1675.9
5421	16.471	1.4545	0.1	1676.6
5422	16.471	1.2727	0.1	1677.4
5423	16.471	1.0909	0.1	1678.3
5424	16.471	0.90909	0.1	1679.2
5425	16.471	0.72727	0.1	1680.3
5426	16.471	0.54545	0.1	1681.5
5427	16.471	0.36364	0.1	1683.
5428	16.471	0.18182	0.1	1686.6
5429	16.288	5.8182	0.1	1731.4
5430	16.288	5.6364	0.1	1727.8
5431	16.288	5.4545	0.1	1726.4
5432	16.288	5.2727	0.1	1725.2
5433	16.288	5.0909	0.1	1724.1
5434	16.288	4.9091	0.1	1723.1
5435	16.288	4.7273	0.1	1722.2
5436	16.288	4.5455	0.1	1721.5
5437	16.288	4.3636	0.1	1720.8
5438	16.288	4.1818	0.1	1720.2
5439	16.288	4.	0.1	1719.7
5440	16.288	3.8182	0.1	1719.3
5441	16.288	3.6364	0.1	1718.9
5442	16.288	3.4545	0.1	1718.7
5443	16.288	3.2727	0.1	1718.5
5444	16.288	3.0909	0.1	1718.4
5445	16.288	2.9091	0.1	1718.4
5446	16.288	2.7273	0.1	1718.5
5447	16.288	2.5455	0.1	1718.7
5448	16.288	2.3636	0.1	1718.9
5449	16.288	2.1818	0.1	1719.3
5450	16.288	2.	0.1	1719.7
5451	16.288	1.8182	0.1	1720.2
5452	16.288	1.6364	0.1	1720.8
5453	16.288	1.4545	0.1	1721.5
5454	16.288	1.2727	0.1	1722.2
5455	16.288	1.0909	0.1	1723.1
5456	16.288	0.90909	0.1	1724.1
5457	16.288	0.72727	0.1	1725.2
5458	16.288	0.54545	0.1	1726.4
5459	16.288	0.36364	0.1	1727.8
5460	16.288	0.18182	0.1	1731.4
5461	16.104	5.8182	0.1	1776.4
5462	16.104	5.6364	0.1	1772.9
5463	16.104	5.4545	0.1	1771.5
5464	16.104	5.2727	0.1	1770.2
5465	16.104	5.0909	0.1	1769.1
5466	16.104	4.9091	0.1	1768.2
5467	16.104	4.7273	0.1	1767.3
5468	16.104	4.5455	0.1	1766.5
5469	16.104	4.3636	0.1	1765.8
5470	16.104	4.1818	0.1	1765.2
5471	16.104	4.	0.1	1764.7
5472	16.104	3.8182	0.1	1764.3
5473	16.104	3.6364	0.1	1763.9
5474	16.104	3.4545	0.1	1763.7
5475	16.104	3.2727	0.1	1763.5
5476	16.104	3.0909	0.1	1763.4
5477	16.104	2.9091	0.1	1763.4
5478	16.104	2.7273	0.1	1763.5
5479	16.104	2.5455	0.1	1763.7
5480	16.104	2.3636	0.1	1763.9
5481	16.104	2.1818	0.1	1764.3
5482	16.104	2.	0.1	1764.7
5483	16.104	1.8182	0.1	1765.2
5484	16.104	1.6364	0.1	1765.8
5485	16.104	1.4545	0.1	1766.5
5486	16.104	1.2727	0.1	1767.3
5487	16.104	1.0909	0.1	1768.2
5488	16.104	0.90909	0.1	1769.1
5489	16.104	0.72727	0.1	1770.2
5490	16.104	0.54545	0.1	1771.5
5491	16.104	0.36364	0.1	1772.9
5492	16.104	0.18182	0.1	1776.4
5493	15.92	5.8182	0.1	1821.6
5494	15.92	5.6364	0.1	1818.1
5495	15.92	5.4545	0.1	1816.7
5496	15.92	5.2727	0.1	1815.5
5497	15.92	5.0909	0.1	1814.4
5498	15.92	4.9091	0.1	1813.4
5499	15.92	4.7273	0.1	1812.5
5500	15.92	4.5455	0.1	1811.7
5501	15.92	4.3636	0.1	1811.
5502	15.92	4.1818	0.1	1810.4
5503	15.92	4.	0.1	1809.9
5504	15.92	3.8182	0.1	1809.5
5505	15.92	3.6364	0.1	1809.1
5506	15.92	3.4545	0.1	1808.9
5507	15.92	3.2727	0.1	1808.7
5508	15.92	3.0909	0.1	1808.6
5509	15.92	2.9091	0.1	1808.6
5510	15.92	2.7273	0.1	1808.7
5511	15.92	2.5455	0.1	1808.9
5512	15.92	2.3636	0.1	1809.1
5513	15.92	2.1818	0.1	1809.5
5514	15.92	2.	0.1	1809.9
5515	15.92	1.8182	0.1	1810.4
5516	15.92	1.6364	0.1	1811.
5517	15.92	1.4545	0.1	1811.7
5518	15.92	1.2727	0.1	1812.5
5519	15.92	1.0909	0.1	1813.4
5520	15.92	0.90909	0.1	1814.4
5521	15.92	0.72727	0.1	1815.5
5522	15.92	0.54545	0.1	1816.7
5523	15.92	0.36364	0.1	1818.1
5524	15.92	0.18182	0.1	1821.6
5525	15.737	5.8182	0.1	1867.
5526	15.737	5.6364	0.1	1863.6
5527	15.737	5.4545	0.1	1862.2
5528	15.737	5.2727	0.1	1860.9
5529	15.737	5.0909	0.1	1859.8
5530	15.737	4.9091	0.1	1858.8
5531	15.737	4.7273	0.1	1857.9
5532	15.737	4.5455	0.1	1857.1
5533	15.737	4.3636	0.1	1856.4
5534	15.737	4.1818	0.1	1855.8
5535	15.737	4.	0.1	1855.3
5536	15.737	3.8182	0.1	1854.9
5537	15.737	3.6364	0.1	1854.5
5538	15.737	3.4545	0.1	1854.3
5539	15.737	3.2727	0.1	1854.1
5540	15.737	3.0909	0.1	1854.
5541	15.737	2.9091	0.1	1854.
5542	15.737	2.7273	0.1	1854.1
5543	15.737	2.5455	0.1	1854.3
5544	15.737	2.3636	0.1	1854.5
5545	15.737	2.1818	0.1	1854.9
5546	15.737	2.	0.1	1855.3
5547	15.737	1.8182	0.1	1855.8
5548	15.737	1.6364	0.1	1856.4
5549	15.737	1.4545	0.1	1857.2
5550	15.737	1.2727	0.1	1857.9
5551	15.737	1.0909	0.1	1858.8
5552	15.737	0.90909	0.1	1859.8
5553	15.737	0.72727	0.1	1860.9
5554	15.737	0.54545	0.1	1862.2
5555	15.737	0.36364	0.1	1863.6
5556	15.737	0.18182	0.1	1867.
5557	15.553	5.8182	0.1	1912.6
5558	15.553	5.6364	0.1	1909.2
5559	15.553	5.4545	0.1	1907.8
5560	15.553	5.2727	0.1	1906.6
5561	15.553	5.0909	0.1	1905.5
5562	15.553	4.9091	0.1	1904.5
5563	15.553	4.7273	0.1	1903.6
5564	15.553	4.5455	0.1	1902.8
5565	15.553	4.3636	0.1	1902.1
5566	15.553	4.1818	0.1	1901.5
5567	15.553	4.	0.1	1900.9
5568	15.553	3.8182	0.1	1900.5
5569	15.553	3.6364	0.1	1900.1
5570	15.553	3.4545	0.1	1899.9
5571	15.553	3.2727	0.1	1899.7
5572	15.553	3.0909	0.1	1899.6
5573	15.553	2.9091	0.1	1899.6
5574	15.553	2.7273	0.1	1899.7
5575	15.553	2.5455	0.1	1899.9
5576	15.553	2.3636	0.1	1900.1
5577	15.553	2.1818	0.1	1900.5
5578	15.553	2.	0.1	1900.9
5579	15.553	1.8182	0.1	1901.5
5580	15.553	1.6364	0.1	1902.1
5581	15.553	1.4545	0.1	1902.8
5582	15.553	1.2727	0.1	1903.6
5583	15.553	1.0909	0.1	1904.5
5584	15.553	0.90909	0.1	1905.5
5585	15.553	0.72727	0.1	1906.6
5586	15.553	0.54545	0.1	1907.8
5587	15.553	0.36364	0.1	1909.2
5588	15.553	0.18182	0.1	1912.6
5589	15.37	5.8182	0.1	1958.4
5590	15.37	5.6364	0.1	1955.1
5591	15.37	5.4545	0.1	1953.6
5592	15.37	5.2727	0.1	1952.4
5593	15.37	5.0909	0.1	1951.3
5594	15.37	4.9091	0.1	1950.3
5595	15.37	4.7273	0.1	1949.4
5596	15.37	4.5455	0.1	1948.6
5597	15.37	4.3636	0.1	1947.9
5598	15.37	4.1818	0.1	1947.3
5599	15.37	4.	0.1	1946.7
5600	15.37	3.8182	0.1	1946.3
5601	15.37	3.6364	0.1	1945.9
5602	15.37	3.4545	0.1	1945.7
5603	15.37	3.2727	0.1	1945.5
5604	15.37	3.0909	0.1	1945.4
5605	15.37	2.9091	0.1	1945.4
5606	15.37	2.7273	0.1	1945.5
5607	15.37	2.5455	0.1	1945.7
5608	15.37	2.3636	0.1	1945.9
5609	15.37	2.1818	0.1	1946.3
5610	15.37	2.	0.1	1946.7
5611	15.37	1.8182	0.1	1947.3
5612	15.37	1.6364	0.1	1947.9
5613	15.37	1.4545	0.1	1948.6
5614	15.37	1.2727	0.1	1949.4
5615	15.37	1.0909	0.1	1950.3
5616	15.37	0.90909	0.1	1951.3
5617	15.37	0.72727	0.1	1952.4
5618	15.37	0.54545	0.1	1953.6
5619	15.37	0.36364	0.1	1955.1
5620	15.37	0.18182	0.1	1958.4
5621	15.186	5.8182	0.1	2004.5
5622	15.186	5.6364	0.1	2001.1
5623	15.186	5.4545	0.1	1999.7
5624	15.186	5.2727	0.1	1998.5
5625	15.186	5.0909	0.1	1997.4
5626	15.186	4.9091	0.1	1996.4
5627	15.186	4.7273	0.1	1995.4
5628	15.186	4.5455	0.1	1994.6
5629	15.186	4.3636	0.1	1993.9
5630	15.186	4.1818	0.1	1993.3
5631	15.186	4.	0.1	1992.7
5632	15.186	3.8182	0.1	1992.3
5633	15.186	3.6364	0.1	1991.9
5634	15.186	3.4545	0.1	1991.7
5635	15.186	3.2727	0.1	1991.5
5636	15.186	3.0909	0.1	1991.4
5637	15.186	2.9091	0.1	1991.4
5638	15.186	2.7273	0.1	1991.5
5639	15.186	2.5455	0.1	1991.7
5640	15.186	2.3636	0.1	1991.9
5641	15.186	2.1818	0.1	1992.3
5642	15.186	2.	0.1	1992.7
5643	15.186	1.8182	0.1	1993.3
5644	15.186	1.6364	0.1	1993.9
5645	15.186	1.4545	0.1	1994.6
5646	15.186	1.2727	0.1	1995.4
5647	15.186	1.0909	0.1	1996.4
5648	15.186	0.90909	0.1	1997.4
5649	15.186	0.72727	0.1	1998.5
5650	15.186	0.54545	0.1	1999.7
5651	15.186	0.36364	0.1	2001.1
5652	15.186	0.18182	0.1	2004.5
5653	15.002	5.8182	0.1	2050.7
5654	15.002	5.6364	0.1	2047.4
5655	15.002	5.4545	0.1	2045.9
5656	15.002	5.2727	0.1	2044.7
5657	15.002	5.0909	0.1	2043.6
5658	15.002	4.9091	0.1	2042.6
5659	15.002	4.7273	0.1	2041.7
5660	15.002	4.5455	0.1	2040.8
5661	15.002	4.3636	0.1	2040.1
5662	15.002	4.1818	0.1	2039.5
5663	15.002	4.	0.1	2038.9
5664	15.002	3.8182	0.1	2038.5
5665	15.002	3.6364	0.1	2038.1
5666	15.002	3.4545	0.1	2037.9
5667	15.002	3.2727	0.1	2037.7
5668	15.002	3.0909	0.1	2037.6
5669	15.002	2.9091	0.1	2037.6
5670	15.002	2.7273	0.1	2037.7
5671	15.002	2.5455	0.1	2037.9
5672	15.002	2.3636	0.1	2038.1
5673	15.002	2.1818	0.1	2038.5
5674	15.002	2.	0.1	2038.9
5675	15.002	1.8182	0.1	2039.5
5676	15.002	1.6364	0.1	2040.1
5677	15.002	1.4545	0.1	2040.8
5678	15.002	1.2727	0.1	2041.7
5679	15.002	1.0909	0.1	2042.6
5680	15.002	0.90909	0.1	2043.6
5681	15.002	0.72727	0.1	2044.7
5682	15.002	0.54545	0.1	2045.9
5683	15.002	0.36364	0.1	2047.4
5684	15.002	0.18182	0.1	2050.7
5685	14.819	5.8182	0.1	2097.1
5686	14.819	5.6364	0.1	2093.8
5687	14.819	5.4545	0.1	2092.4
5688	14.819	5.2727	0.1	2091.2
5689	14.819	5.0909	0.1	2090.
5690	14.819	4.9091	0.1	2089.
5691	14.819	4.7273	0.1	2088.1
5692	14.819	4.5455	0.1	2087.3
5693	14.819	4.3636	0.1	2086.5
5694	14.819	4.1818	0.1	2085.9
5695	14.819	4.	0.1	2085.3
5696	14.819	3.8182	0.1	2084.9
5697	14.819	3.6364	0.1	2084.5
5698	14.819	3.4545	0.1	2084.2
5699	14.819	3.2727	0.1	2084.1
5700	14.819	3.0909	0.1	2084.
5701	14.819	2.9091	0.1	2084.
5702	14.819	2.7273	0.1	2084.1
5703	14.819	2.5455	0.1	2084.2
5704	14.819	2.3636	0.1	2084.5
5705	14.819	2.1818	0.1	2084.9
5706	14.819	2.	0.1	2085.3
5707	14.819	1.8182	0.1	2085.9
5708	14.819	1.6364	0.1	2086.5
5709	14.819	1.4545	0.1	2087.3
5710	14.819	1.2727	0.1	2088.1
5711	14.819	1.0909	0.1	2089.
5712	14.819	0.90909	0.1	2090.
5713	14.819	0.72727	0.1	2091.2
5714	14.819	0.54545	0.1	2092.4
5715	14.819	0.36364	0.1	2093.8
5716	14.819	0.18182	0.1	2097.1
5717	14.635	5.8182	0.1	2143.7
5718	14.635	5.6364	0.1	2140.5
5719	14.635	5.4545	0.1	2139.
5720	14.635	5.2727	0.1	2137.8
5721	14.635	5.0909	0.1	2136.7
5722	14.635	4.9091	0.1	2135.6
5723	14.635	4.7273	0.1	2134.7
5724	14.635	4.5455	0.1	2133.9
5725	14.635	4.3636	0.1	2133.1
5726	14.635	4.1818	0.1	2132.5
5727	14.635	4.	0.1	2131.9
5728	14.635	3.8182	0.1	2131.5
5729	14.635	3.6364	0.1	2131.1
5730	14.635	3.4545	0.1	2130.8
5731	14.635	3.2727	0.1	2130.6
5732	14.635	3.0909	0.1	2130.5
5733	14.635	2.9091	0.1	2130.5
5734	14.635	2.7273	0.1	2130.6
5735	14.635	2.5455	0.1	2130.8
5736	14.635	2.3636	0.1	2131.1
5737	14.635	2.1818	0.1	2131.5
5738	14.635	2.	0.1	2131.9
5739	14.635	1.8182	0.1	2132.5
5740	14.635	1.6364	0.1	2133.1
5741	14.635	1.4545	0.1	2133.9
5742	14.635	1.2727	0.1	2134.7
5743	14.635	1.0909	0.1	2135.6
5744	14.635	0.90909	0.1	2136.7
5745	14.635	0.72727	0.1	2137.8
5746	14.635	0.54545	0.1	2139.
5747	14.635	0.36364	0.1	2140.5
5748	14.635	0.18182	0.1	2143.7
5749	14.451	5.8182	0.1	2190.5
5750	14.451	5.6364	0.1	2187.3
5751	14.451	5.4545	0.1	2185.9
5752	14.451	5.2727	0.1	2184.6
5753	14.451	5.0909	0.1	2183.5
5754	14.451	4.9091	0.1	2182.5
5755	14.451	4.7273	0.1	2181.5
5756	14.451	4.5455	0.1	2180.7
5757	14.451	4.3636	0.1	2179.9
5758	14.451	4.1818	0.1	2179.3
5759	14.451	4.	0.1	2178.7
5760	14.451	3.8182	0.1	2178.2
5761	14.451	3.6364	0.1	2177.9
5762	14.451	3.4545	0.1	2177.6
5763	14.451	3.2727	0.1	2177.4
5764	14.451	3.0909	0.1	2177.3
5765	14.451	2.9091	0.1	2177.3
5766	14.451	2.7273	0.1	2177.4
5767	14.451	2.5455	0.1	2177.6
5768	14.451	2.3636	0.1	2177.9
5769	14.451	2.1818	0.1	2178.2
5770	14.451	2.	0.1	2178.7
5771	14.451	1.8182	0.1	2179.3
5772	14.451	1.6364	0.1	2179.9
5773	14.451	1.4545	0.1	2180.7
5774	14.451	1.2727	0.1	2181.5
5775	14.451	1.0909	0.1	2182.5
5776	14.451	0.90909	0.1	2183.5
5777	14.451	0.72727	0.1	2184.6
5778	14.451	0.54545	0.1	2185.9
5779	14.451	0.36364	0.1	2187.3
5780	14.451	0.18182	0.1	2190.5
5781	14.268	5.8182	0.1	2237.6
5782	14.268	5.6364	0.1	2234.4
5783	14.268	5.4545	0.1	2232.9
5784	14.268	5.2727	0.1	2231.7
5785	14.268	5.0909	0.1	2230.5
5786	14.268	4.9091	0.1	2229.5
5787	14.268	4.7273	0.1	2228.5
5788	14.268	4.5455	0.1	2227.7
5789	14.268	4.3636	0.1	2226.9
5790	14.268	4.1818	0.1	2226.3
5791	14.268	4.	0.1	2225.7
5792	14.268	3.8182	0.1	2225.2
5793	14.268	3.6364	0.1	2224.8
5794	14.268	3.4545	0.1	2224.5
5795	14.268	3.2727	0.1	2224.4
5796	14.268	3.0909	0.1	2224.3
5797	14.268	2.9091	0.1	2224.3
5798	14.268	2.7273	0.1	2224.4
5799	14.268	2.5455	0.1	2224.5
5800	14.268	2.3636	0.1	2224.8
5801	14.268	2.1818	0.1	2225.2
5802	14.268	2.	0.1	2225.7
5803	14.268	1.8182	0.1	2226.3
5804	14.268	1.6364	0.1	2226.9
5805	14.268	1.4545	0.1	2227.7
5806	14.268	1.2727	0.1	2228.5
5807	14.268	1.0909	0.1	2229.5
5808	14.268	0.90909	0.1	2230.5
5809	14.268	0.72727	0.1	2231.7
5810	14.268	0.54545	0.1	2232.9
5811	14.268	0.36364	0.1	2234.4
5812	14.268	0.18182	0.1	2237.6
5813	14.084	5.8182	0.1	2284.8
5814	14.084	5.6364	0.1	2281.6
5815	14.084	5.4545	0.1	2280.2
5816	14.084	5.2727	0.1	2278.9
5817	14.084	5.0909	0.1	2277.8
5818	14.084	4.9091	0.1	2276.7
5819	14.084	4.7273	0.1	2275.7
5820	14.084	4.5455	0.1	2274.9
5821	14.084	4.3636	0.1	2274.1
5822	14.084	4.1818	0.1	2273.4
5823	14.084	4.	0.1	2272.9
5824	14.084	3.8182	0.1	2272.4
5825	14.084	3.6364	0.1	2272.
5826	14.084	3.4545	0.1	2271.7
5827	14.084	3.2727	0.1	2271.5
5828	14.084	3.0909	0.1	2271.4
5829	14.084	2.9091	0.1	2271.4
5830	14.084	2.7273	0.1	2271.5
5831	14.084	2.5455	0.1	2271.7
5832	14.084	2.3636	0.1	2272.
5833	14.084	2.1818	0.1	2272.4
5834	14.084	2.	0.1	2272.9
5835	14.084	1.8182	0.1	2273.4
5836	14.084	1.6364	0.1	2274.1
5837	14.084	1.4545	0.1	2274.9
5838	14.084	1.2727	0.1	2275.7
5839	14.084	1.0909	0.1	2276.7
5840	14.084	0.90909	0.1	2277.8
5841	14.084	0.72727	0.1	2278.9
5842	14.084	0.54545	0.1	2280.2
5843	14.084	0.36364	0.1	2281.6
5844	14.084	0.18182	0.1	2284.8
5845	13.901	5.8182	0.1	2332.3
5846	13.901	5.6364	0.1	2329.1
5847	13.901	5.4545	0.1	2327.6
5848	13.901	5.2727	0.1	2326.4
5849	13.901	5.0909	0.1	2325.2
5850	13.901	4.9091	0.1	2324.1
5851	13.901	4.7273	0.1	2323.2
5852	13.901	4.5455	0.1	2322.3
5853	13.901	4.3636	0.1	2321.5
5854	13.901	4.1818	0.1	2320.8
5855	13.901	4.	0.1	2320.2
5856	13.901	3.8182	0.1	2319.7
5857	13.901	3.6364	0.1	2319.3
5858	13.901	3.4545	0.1	2319.
5859	13.901	3.2727	0.1	2318.9
5860	13.901	3.0909	0.1	2318.8
5861	13.901	2.9091	0.1	2318.8
5862	13.901	2.7273	0.1	2318.9
5863	13.901	2.5455	0.1	2319.
5864	13.901	2.3636	0.1	2319.3
5865	13.901	2.1818	0.1	2319.7
5866	13.901	2.	0.1	2320.2
5867	13.901	1.8182	0.1	2320.8
5868	13.901	1.6364	0.1	2321.5
5869	13.901	1.4545	0.1	2322.3
5870	13.901	1.2727	0.1	2323.2
5871	13.901	1.0909	0.1	2324.1
5872	13.901	0.90909	0.1	2325.2
5873	13.901	0.72727	0.1	2326.4
5874	13.901	0.54545	0.1	2327.6
5875	13.901	0.36364	0.1	2329.1
5876	13.901	0.18182	0.1	2332.3
5877	13.717	5.8182	0.1	2379.9
5878	13.717	5.6364	0.1	2376.7
5879	13.717	5.4545	0.1	2375.3
5880	13.717	5.2727	0.1	2374.
5881	13.717	5.0909	0.1	2372.8
5882	13.717	4.9091	0.1	2371.7
5883	13.717	4.7273	0.1	2370.8
5884	13.717	4.5455	0.1	2369.9
5885	13.717	4.3636	0.1	2369.1
5886	13.717	4.1818	0.1	2368.4
5887	13.717	4.	0.1	2367.8
5888	13.717	3.8182	0.1	2367.3
5889	13.717	3.6364	0.1	2366.9
5890	13.717	3.4545	0.1	2366.6
5891	13.717	3.2727	0.1	2366.4
5892	13.717	3.0909	0.1	2366.3
5893	13.717	2.9091	0.1	2366.3
5894	13.717	2.7273	0.1	2366.4
5895	13.717	2.5455	0.1	2366.6
5896	13.717	2.3636	0.1	2366.9
5897	13.717	2.1818	0.1	2367.3
5898	13.717	2.	0.1	2367.8
5899	13.717	1.8182	0.1	2368.4
5900	13.717	1.6364	0.1	2369.1
5901	13.717	1.4545	0.1	2369.9
5902	13.717	1.2727	0.1	2370.8
5903	13.717	1.0909	0.1	2371.7
5904	13.717	0.90909	0.1	2372.8
5905	13.717	0.72727	0.1	2374.
5906	13.717	0.54545	0.1	2375.3
5907	13.717	0.36364	0.1	2376.7
5908	13.717	0.18182	0.1	2379.9
5909	13.533	5.8182	0.1	2427.8
5910	13.533	5.6364	0.1	2424.6
5911	13.533	5.4545	0.1	2423.1
5912	13.533	5.2727	0.1	2421.9
5913	13.533	5.0909	0.1	2420.7
5914	13.533	4.9091	0.1	2419.6
5915	13.533	4.7273	0.1	2418.6
5916	13.533	4.5455	0.1	2417.7
5917	13.533	4.3636	0.1	2416.9
5918	13.533	4.1818	0.1	2416.1
5919	13.533	4.	0.1	2415.5
5920	13.533	3.8182	0.1	2415.
5921	13.533	3.6364	0.1	2414.6
5922	13.533	3.4545	0.1	2414.3
5923	13.533	3.2727	0.1	2414.1
5924	13.533	3.0909	0.1	2414.
5925	13.533	2.9091	0.1	2414.
5926	13.533	2.7273	0.1	2414.1
5927	13.533	2.5455	0.1	2414.3
5928	13.533	2.3636	0.1	2414.6
5929	13.533	2.1818	0.1	2415.
5930	13.533	2.	0.1	2415.5
5931	13.533	1.8182	0.1	2416.1
5932	13.533	1.6364	0.1	2416.9
5933	13.533	1.4545	0.1	2417.7
5934	13.533	1.2727	0.1	2418.6
5935	13.533	1.0909	0.1	2419.6
5936	13.533	0.90909	0.1	2420.7
5937	13.533	0.72727	0.1	2421.9
5938	13.533	0.54545	0.1	2423.1
5939	13.533	0.36364	0.1	2424.6
5940	13.533	0.18182	0.1	2427.8
5941	13.35	5.8182	0.1	2475.8
5942	13.35	5.6364	0.1	2472.7
5943	13.35	5.4545	0.1	2471.2
5944	13.35	5.2727	0.1	2469.9
5945	13.35	5.0909	0.1	2468.7
5946	13.35	4.9091	0.1	2467.6
5947	13.35	4.7273	0.1	2466.6
5948	13.35	4.5455	0.1	2465.6
5949	13.35	4.3636	0.1	2464.8
5950	13.35	4.1818	0.1	2464.1
5951	13.35	4.	0.1	2463.5
5952	13.35	3.8182	0.1	2463.
5953	13.35	3.6364	0.1	2462.5
5954	13.35	3.4545	0.1	2462.2
5955	13.35	3.2727	0.1	2462.
5956	13.35	3.0909	0.1	2461.9
5957	13.35	2.9091	0.1	2461.9
5958	13.35	2.7273	0.1	2462.
5959	13.35	2.5455	0.1	2462.2
5960	13.35	2.3636	0.1	2462.5
5961	13.35	2.1818	0.1	2463.
5962	13.35	2.	0.1	2463.5
5963	13.35	1.8182	0.1	2464.1
5964	13.35	1.6364	0.1	2464.8
5965	13.35	1.4545	0.1	2465.6
5966	13.35	1.2727	0.1	2466.6
5967	13.35	1.0909	0.1	2467.6
5968	13.35	0.90909	0.1	2468.7
5969	13.35	0.72727	0.1	2469.9
5970	13.35	0.54545	0.1	2471.2
5971	13.35	0.36364	0.1	2472.7
5972	13.35	0.18182	0.1	2475.8
5973	13.166	5.8182	0.1	2524.1
5974	13.166	5.6364	0.1	2521.
5975	13.166	5.4545	0.1	2519.5
5976	13.166	5.2727	0.1	2518.2
5977	13.166	5.0909	0.1	2516.9
5978	13.166	4.9091	0.1	2515.8
5979	13.166	4.7273	0.1	2514.8
5980	13.166	4.5455	0.1	2513.8
5981	13.166	4.3636	0.1	2513.
5982	13.166	4.1818	0.1	2512.2
5983	13.166	4.	0.1	2511.6
5984	13.166	3.8182	0.1	2511.1
5985	13.166	3.6364	0.1	2510.7
5986	13.166	3.4545	0.1	2510.3
5987	13.166	3.2727	0.1	2510.1
5988	13.166	3.0909	0.1	2510.
5989	13.166	2.9091	0.1	2510.
5990	13.166	2.7273	0.1	2510.1
5991	13.166	2.5455	0.1	2510.3
5992	13.166	2.3636	0.1	2510.7
5993	13.166	2.1818	0.1	2511.1
5994	13.166	2.	0.1	2511.6
5995	13.166	1.8182	0.1	2512.2
5996	13.166	1.6364	0.1	2513.
5997	13.166	1.4545	0.1	2513.8
5998	13.166	1.2727	0.1	2514.8
5999	13.166	1.0909	0.1	2515.8
6000	13.166	0.90909	0.1	2516.9
6001	13.166	0.72727	0.1	2518.2
6002	13.166	0.54545	0.1	2519.5
6003	13.166	0.36364	0.1	2521.
6004	13.166	0.18182	0.1	2524.1
6005	12.982	5.8182	0.1	2572.6
6006	12.982	5.6364	0.1	2569.5
6007	12.982	5.4545	0.1	2568.
6008	12.982	5.2727	0.1	2566.6
6009	12.982	5.0909	0.1	2565.4
6010	12.982	4.9091	0.1	2564.2
6011	12.982	4.7273	0.1	2563.2
6012	12.982	4.5455	0.1	2562.2
6013	12.982	4.3636	0.1	2561.3
6014	12.982	4.1818	0.1	2560.6
6015	12.982	4.	0.1	2559.9
6016	12.982	3.8182	0.1	2559.4
6017	12.982	3.6364	0.1	2559.
6018	12.982	3.4545	0.1	2558.6
6019	12.982	3.2727	0.1	2558.4
6020	12.982	3.0909	0.1	2558.3
6021	12.982	2.9091	0.1	2558.3
6022	12.982	2.7273	0.1	2558.4
6023	12.982	2.5455	0.1	2558.6
6024	12.982	2.3636	0.1	2559.
6025	12.982	2.1818	0.1	2559.4
6026	12.982	2.	0.1	2559.9
6027	12.982	1.8182	0.1	2560.6
6028	12.982	1.6364	0.1	2561.3
6029	12.982	1.4545	0.1	2562.2
6030	12.982	1.2727	0.1	2563.2
6031	12.982	1.0909	0.1	2564.2
6032	12.982	0.90909	0.1	2565.4
6033	12.982	0.72727	0.1	2566.6
6034	12.982	0.54545	0.1	2568.
6035	12.982	0.36364	0.1	2569.5
6036	12.982	0.18182	0.1	2572.6
6037	12.799	5.8182	0.1	2621.3
6038	12.799	5.6364	0.1	2618.2
6039	12.799	5.4545	0.1	2616.6
6040	12.799	5.2727	0.1	2615.3
6041	12.799	5.0909	0.1	2614.
6042	12.799	4.9091	0.1	2612.8
6043	12.799	4.7273	0.1	2611.7
6044	12.799	4.5455	0.1	2610.8
6045	12.799	4.3636	0.1	2609.9
6046	12.799	4.1818	0.1	2609.1
6047	12.799	4.	0.1	2608.4
6048	12.799	3.8182	0.1	2607.9
6049	12.799	3.6364	0.1	2607.4
6050	12.799	3.4545	0.1	2607.1
6051	12.799	3.2727	0.1	2606.9
6052	12.799	3.0909	0.1	2606.8
6053	12.799	2.9091	0.1	2606.8
6054	12.799	2.7273	0.1	2606.9
6055	12.799	2.5455	0.1	2607.1
6056	12.799	2.3636	0.1	2607.4
6057	12.799	2.1818	0.1	2607.9
6058	12.799	2.	0.1	2608.4
6059	12.799	1.8182	0.1	2609.1
6060	12.799	1.6364	0.1	2609.9
6061	12.799	1.4545	0.1	2610.8
6062	12.799	1.2727	0.1	2611.7
6063	12.799	1.0909	0.1	2612.8
6064	12.799	0.90909	0.1	2614.
6065	12.799	0.72727	0.1	2615.3
6066	12.799	0.54545	0.1	2616.6
6067	12.799	0.36364	0.1	2618.2
6068	12.799	0.18182	0.1	2621.3
6069	12.615	5.8182	0.1	2670.2
6070	12.615	5.6364	0.1	2667.1
6071	12.615	5.4545	0.1	2665.5
6072	12.615	5.2727	0.1	2664.1
6073	12.615	5.0909	0.1	2662.8
6074	12.615	4.9091	0.1	2661.6
6075	12.615	4.7273	0.1	2660.5
6076	12.615	4.5455	0.1	2659.5
6077	12.615	4.3636	0.1	2658.6
6078	12.615	4.1818	0.1	2657.8
6079	12.615	4.	0.1	2657.2
6080	12.615	3.8182	0.1	2656.6
6081	12.615	3.6364	0.1	2656.1
6082	12.615	3.4545	0.1	2655.8
6083	12.615	3.2727	0.1	2655.5
6084	12.615	3.0909	0.1	2655.4
6085	12.615	2.9091	0.1	2655.4
6086	12.615	2.7273	0.1	2655.5
6087	12.615	2.5455	0.1	2655.8
6088	12.615	2.3636	0.1	2656.1
6089	12.615	2.1818	0.1	2656.6
6090	12.615	2.	0.1	2657.2
6091	12.615	1.8182	0.1	2657.8
6092	12.615	1.6364	0.1	2658.6
6093	12.615	1.4545	0.1	2659.5
6094	12.615	1.2727	0.1	2660.5
6095	12.615	1.0909	0.1	2661.6
6096	12.615	0.90909	0.1	2662.8
6097	12.615	0.72727	0.1	2664.1
6098	12.615	0.54545	0.1	2665.5
6099	12.615	0.36364	0.1	2667.1
6100	12.615	0.18182	0.1	2670.2
6101	12.432	5.8182	0.1	2719.3
6102	12.432	5.6364	0.1	2716.2
6103	12.432	5.4545	0.1	2714.6
6104	12.432	5.2727	0.1	2713.2
6105	12.432	5.0909	0.1	2711.9
6106	12.432	4.9091	0.1	2710.6
6107	12.432	4.7273	0.1	2709.5
6108	12.432	4.5455	0.1	2708.5
6109	12.432	4.3636	0.1	2707.6
6110	12.432	4.1818	0.1	2706.7
6111	12.432	4.	0.1	2706.
6112	12.432	3.8182	0.1	2705.5
6113	12.432	3.6364	0.1	2705.
6114	12.432	3.4545	0.1	2704.6
6115	12.432	3.2727	0.1	2704.4
6116	12.432	3.0909	0.1	2704.3
6117	12.432	2.9091	0.1	2704.3
6118	12.432	2.7273	0.1	2704.4
6119	12.432	2.5455	0.1	2704.6
6120	12.432	2.3636	0.1	2705.
6121	12.432	2.1818	0.1	2705.5
6122	12.432	2.	0.1	2706.
6123	12.432	1.8182	0.1	2706.7
6124	12.432	1.6364	0.1	2707.6
6125	12.432	1.4545	0.1	2708.5
6126	12.432	1.2727	0.1	2709.5
6127	12.432	1.0909	0.1	2710.6
6128	12.432	0.90909	0.1	2711.9
6129	12.432	0.72727	0.1	2713.2
6130	12.432	0.54545	0.1	2714.6
6131	12.432	0.36364	0.1	2716.2
6132	12.432	0.18182	0.1	2719.3
6133	12.248	5.8182	0.1	2768.7
6134	12.248	5.6364	0.1	2765.6
6135	12.248	5.4545	0.1	2763.9
6136	12.248	5.2727	0.1	2762.5
6137	12.248	5.0909	0.1	2761.1
6138	12.248	4.9091	0.1	2759.9
6139	12.248	4.7273	0.1	2758.7
6140	12.248	4.5455	0.1	2757.6
6141	12.248	4.3636	0.1	2756.7
6142	12.248	4.1818	0.1	2755.8
6143	12.248	4.	0.1	2755.1
6144	12.248	3.8182	0.1	2754.5
6145	12.248	3.6364	0.1	2754.
6146	12.248	3.4545	0.1	2753.6
6147	12.248	3.2727	0.1	2753.4
6148	12.248	3.0909	0.1	2753.3
6149	12.248	2.9091	0.1	2753.3
6150	12.248	2.7273	0.1	2753.4
6151	12.248	2.5455	0.1	2753.6
6152	12.248	2.3636	0.1	2754.
6153	12.248	2.1818	0.1	2754.5
6154	12.248	2.	0.1	2755.1
6155	12.248	1.8182	0.1	2755.8
6156	12.248	1.6364	0.1	2756.7
6157	12.248	1.4545	0.1	2757.6
6158	12.248	1.2727	0.1	2758.7
6159	12.248	1.0909	0.1	2759.9
6160	12.248	0.90909	0.1	2761.1
6161	12.248	0.72727	0.1	2762.5
6162	12.248	0.54545	0.1	2763.9
6163	12.248	0.36364	0.1	2765.6
6164	12.248	0.18182	0.1	2768.7
6165	12.064	5.8182	0.1	2818.3
6166	12.064	5.6364	0.1	2815.1
6167	12.064	5.4545	0.1	2813.5
6168	12.064	5.2727	0.1	2812.
6169	12.064	5.0909	0.1	2810.6
6170	12.064	4.9091	0.1	2809.3
6171	12.064	4.7273	0.1	2808.1
6172	12.064	4.5455	0.1	2807.
6173	12.064	4.3636	0.1	2806.
6174	12.064	4.1818	0.1	2805.1
6175	12.064	4.	0.1	2804.4
6176	12.064	3.8182	0.1	2803.8
6177	12.064	3.6364	0.1	2803.2
6178	12.064	3.4545	0.1	2802.9
6179	12.064	3.2727	0.1	2802.6
6180	12.064	3.0909	0.1	2802.5
6181	12.064	2.9091	0.1	2802.5
6182	12.064	2.7273	0.1	2802.6
6183	12.064	2.5455	0.1	2802.9
6184	12.064	2.3636	0.1	2803.2
6185	12.064	2.1818	0.1	2803.8
6186	12.064	2.	0.1	2804.4
6187	12.064	1.8182	0.1	2805.1
6188	12.064	1.6364	0.1	2806.
6189	12.064	1.4545	0.1	2807.
6190	12.064	1.2727	0.1	2808.1
6191	12.064	1.0909	0.1	2809.3
6192	12.064	0.90909	0.1	2810.6
6193	12.064	0.72727	0.1	2812.
6194	12.064	0.54545	0.1	2813.5
6195	12.064	0.36364	0.1	2815.1
6196	12.064	0.18182	0.1	2818.3
6197	11.881	5.8182	0.1	2868.
6198	11.881	5.6364	0.1	2864.9
6199	11.881	5.4545	0.1	2863.2
6200	11.881	5.2727	0.1	2861.7
6201	11.881	5.0909	0.1	2860.2
6202	11.881	4.9091	0.1	2858.9
6203	11.881	4.7273	0.1	2857.6
6204	11.881	4.5455	0.1	2856.5
6205	11.881	4.3636	0.1	2855.5
6206	11.881	4.1818	0.1	2854.6
6207	11.881	4.	0.1	2853.8
6208	11.881	3.8182	0.1	2853.2
6209	11.881	3.6364	0.1	2852.7
6210	11.881	3.4545	0.1	2852.3
6211	11.881	3.2727	0.1	2852.
6212	11.881	3.0909	0.1	2851.9
6213	11.881	2.9091	0.1	2851.9
6214	11.881	2.7273	0.1	2852.
6215	11.881	2.5455	0.1	2852.3
6216	11.881	2.3636	0.1	2852.7
6217	11.881	2.1818	0.1	2853.2
6218	11.881	2.	0.1	2853.8
6219	11.881	1.8182	0.1	2854.6
6220	11.881	1.6364	0.1	2855.5
6221	11.881	1.4545	0.1	2856.5
6222	11.881	1.2727	0.1	2857.6
6223	11.881	1.0909	0.1	2858.9
6224	11.881	0.90909	0.1	2860.2
6225	11.881	0.72727	0.1	2861.7
6226	11.881	0.54545	0.1	2863.2
6227	11.881	0.36364	0.1	2864.9
6228	11.881	0.18182	0.1	2868.
6229	11.697	5.8182	0.1	2918.
6230	11.697	5.6364	0.1	2914.9
6231	11.697	5.4545	0.1	2913.1
6232	11.697	5.2727	0.1	2911.6
6233	11.697	5.0909	0.1	2910.1
6234	11.697	4.9091	0.1	2908.7
6235	11.697	4.7273	0.1	2907.4
6236	11.697	4.5455	0.1	2906.3
6237	11.697	4.3636	0.1	2905.2
6238	11.697	4.1818	0.1	2904.3
6239	11.697	4.	0.1	2903.5
6240	11.697	3.8182	0.1	2902.8
6241	11.697	3.6364	0.1	2902.2
6242	11.697	3.4545	0.1	2901.8
6243	11.697	3.2727	0.1	2901.5
6244	11.697	3.0909	0.1	2901.4
6245	11.697	2.9091	0.1	2901.4
6246	11.697	2.7273	0.1	2901.5
6247	11.697	2.5455	0.1	2901.8
6248	11.697	2.3636	0.1	2902.2
6249	11.697	2.1818	0.1	2902.8
6250	11.697	2.	0.1	2903.5
6251	11.697	1.8182	0.1	2904.3
6252	11.697	1.6364	0.1	2905.2
6253	11.697	1.4545	0.1	2906.3
6254	11.697	1.2727	0.1	2907.4
6255	11.697	1.0909	0.1	2908.7
6256	11.697	0.90909	0.1	2910.1
6257	11.697	0.72727	0.1	2911.6
6258	11.697	0.54545	0.1	2913.1
6259	11.697	0.36364	0.1	2914.9
6260	11.697	0.18182	0.1	2918.
6261	11.513	5.8182	0.1	2968.2
6262	11.513	5.6364	0.1	2965.1
6263	11.513	5.4545	0.1	2963.3
6264	11.513	5.2727	0.1	2961.7
6265	11.513	5.0909	0.1	2960.1
6266	11.513	4.9091	0.1	2958.7
6267	11.513	4.7273	0.1	2957.4
6268	11.513	4.5455	0.1	2956.2
6269	11.513	4.3636	0.1	2955.1
6270	11.513	4.1818	0.1	2954.1
6271	11.513	4.	0.1	2953.3
6272	11.513	3.8182	0.1	2952.6
6273	11.513	3.6364	0.1	2952.
6274	11.513	3.4545	0.1	2951.6
6275	11.513	3.2727	0.1	2951.3
6276	11.513	3.0909	0.1	2951.1
6277	11.513	2.9091	0.1	2951.1
6278	11.513	2.7273	0.1	2951.3
6279	11.513	2.5455	0.1	2951.6
6280	11.513	2.3636	0.1	2952.
6281	11.513	2.1818	0.1	2952.6
6282	11.513	2.	0.1	2953.3
6283	11.513	1.8182	0.1	2954.1
6284	11.513	1.6364	0.1	2955.1
6285	11.513	1.4545	0.1	2956.2
6286	11.513	1.2727	0.1	2957.4
6287	11.513	1.0909	0.1	2958.7
6288	11.513	0.90909	0.1	2960.1
6289	11.513	0.72727	0.1	2961.7
6290	11.513	0.54545	0.1	2963.3
6291	11.513	0.36364	0.1	2965.1
6292	11.513	0.18182	0.1	2968.2
6293	11.33	5.8182	0.1	3018.7
6294	11.33	5.6364	0.1	3015.5
6295	11.33	5.4545	0.1	3013.6
6296	11.33	5.2727	0.1	3012.
6297	11.33	5.0909	0.1	3010.4
6298	11.33	4.9091	0.1	3008.9
6299	11.33	4.7273	0.1	3007.5
6300	11.33	4.5455	0.1	3006.3
6301	11.33	4.3636	0.1	3005.2
6302	11.33	4.1818	0.1	3004.2
6303	11.33	4.	0.1	3003.3
6304	11.33	3.8182	0.1	3002.5
6305	11.33	3.6364	0.1	3002.
6306	11.33	3.4545	0.1	3001.5
6307	11.33	3.2727	0.1	3001.2
6308	11.33	3.0909	0.1	3001.1
6309	11.33	2.9091	0.1	3001.1
6310	11.33	2.7273	0.1	3001.2
6311	11.33	2.5455	0.1	3001.5
6312	11.33	2.3636	0.1	3002.
6313	11.33	2.1818	0.1	3002.5
6314	11.33	2.	0.1	3003.3
6315	11.33	1.8182	0.1	3004.2
6316	11.33	1.6364	0.1	3005.2
6317	11.33	1.4545	0.1	3006.3
6318	11.33	1.2727	0.1	3007.5
6319	11.33	1.0909	0.1	3008.9
6320	11.33	0.90909	0.1	3010.4
6321	11.33	0.72727	0.1	3012.
6322	11.33	0.54545	0.1	3013.7
6323	11.33	0.36364	0.1	3015.5
6324	11.33	0.18182	0.1	3018.7
6325	11.146	5.8182	0.1	3069.3
6326	11.146	5.6364	0.1	3066.1
6327	11.146	5.4545	0.1	3064.2
6328	11.146	5.2727	0.1	3062.5
6329	11.146	5.0909	0.1	3060.9
6330	11.146	4.9091	0.1	3059.3
6331	11.146	4.7273	0.1	3057.9
6332	11.146	4.5455	0.1	3056.6
6333	11.146	4.3636	0.1	3055.4
6334	11.146	4.1818	0.1	3054.4
6335	11.146	4.	0.1	3053.5
6336	11.146	3.8182	0.1	3052.7
6337	11.146	3.6364	0.1	3052.1
6338	11.146	3.4545	0.1	3051.6
6339	11.146	3.2727	0.1	3051.3
6340	11.146	3.0909	0.1	3051.1
6341	11.146	2.9091	0.1	3051.1
6342	11.146	2.7273	0.1	3051.3
6343	11.146	2.5455	0.1	3051.6
6344	11.146	2.3636	0.1	3052.1
6345	11.146	2.1818	0.1	3052.7
6346	11.146	2.	0.1	3053.5
6347	11.146	1.8182	0.1	3054.4
6348	11.146	1.6364	0.1	3055.4
6349	11.146	1.4545	0.1	3056.6
6350	11.146	1.2727	0.1	3057.9
6351	11.146	1.0909	0.1	3059.3
6352	11.146	0.90909	0.1	3060.9
6353	11.146	0.72727	0.1	3062.5
6354	11.146	0.54545	0.1	3064.2
6355	11.146	0.36364	0.1	3066.1
6356	11.146	0.18182	0.1	3069.3
6357	10.963	5.8182	0.1	3120.2
6358	10.963	5.6364	0.1	3117.
6359	10.963	5.4545	0.1	3115.
6360	10.963	5.2727	0.1	3113.2
6361	10.963	5.0909	0.1	3111.5
6362	10.963	4.9091	0.1	3109.9
6363	10.963	4.7273	0.1	3108.5
6364	10.963	4.5455	0.1	3107.1
6365	10.963	4.3636	0.1	3105.9
6366	10.963	4.1818	0.1	3104.8
6367	10.963	4.	0.1	3103.8
6368	10.963	3.8182	0.1	3103.
6369	10.963	3.6364	0.1	3102.4
6370	10.963	3.4545	0.1	3101.9
6371	10.963	3.2727	0.1	3101.6
6372	10.963	3.0909	0.1	3101.4
6373	10.963	2.9091	0.1	3101.4
6374	10.963	2.7273	0.1	3101.6
6375	10.963	2.5455	0.1	3101.9
6376	10.963	2.3636	0.1	3102.4
6377	10.963	2.1818	0.1	3103.
6378	10.963	2.	0.1	3103.8
6379	10.963	1.8182	0.1	3104.8
6380	10.963	1.6364	0.1	3105.9
6381	10.963	1.4545	0.1	3107.1
6382	10.963	1.2727	0.1	3108.5
6383	10.963	1.0909	0.1	3109.9
6384	10.963	0.90909	0.1	3111.5
6385	10.963	0.72727	0.1	3113.2
6386	10.963	0.54545	0.1	3115.
6387	10.963	0.36364	0.1	3117.
6388	10.963	0.18182	0.1	3120.2
6389	10.779	5.8182	0.1	3171.3
6390	10.779	5.6364	0.1	3168.
6391	10.779	5.4545	0.1	3166.
6392	10.779	5.2727	0.1	3164.2
6393	10.779	5.0909	0.1	3162.4
6394	10.779	4.9091	0.1	3160.8
6395	10.779	4.7273	0.1	3159.2
6396	10.779	4.5455	0.1	3157.8
6397	10.779	4.3636	0.1	3156.5
6398	10.779	4.1818	0.1	3155.4
6399	10.779	4.	0.1	3154.4
6400	10.779	3.8182	0.1	3153.5
6401	10.779	3.6364	0.1	3152.9
6402	10.779	3.4545	0.1	3152.3
6403	10.779	3.2727	0.1	3152.
6404	10.779	3.0909	0.1	3151.8
6405	10.779	2.9091	0.1	3151.8
6406	10.779	2.7273	0.1	3152.
6407	10.779	2.5455	0.1	3152.3
6408	10.779	2.3636	0.1	3152.9
6409	10.779	2.1818	0.1	3153.5
6410	10.779	2.	0.1	3154.4
6411	10.779	1.8182	0.1	3155.4
6412	10.779	1.6364	0.1	3156.5
6413	10.779	1.4545	0.1	3157.8
6414	10.779	1.2727	0.1	3159.2
6415	10.779	1.0909	0.1	3160.8
6416	10.779	0.90909	0.1	3162.4
6417	10.779	0.72727	0.1	3164.2
6418	10.779	0.54545	0.1	3166.
6419	10.779	0.36364	0.1	3168.
6420	10.779	0.18182	0.1	3171.3
6421	10.595	5.8182	0.1	3222.6
6422	10.595	5.6364	0.1	3219.3
6423	10.595	5.4545	0.1	3217.2
6424	10.595	5.2727	0.1	3215.3
6425	10.595	5.0909	0.1	3213.5
6426	10.595	4.9091	0.1	3211.8
6427	10.595	4.7273	0.1	3210.2
6428	10.595	4.5455	0.1	3208.7
6429	10.595	4.3636	0.1	3207.4
6430	10.595	4.1818	0.1	3206.2
6431	10.595	4.	0.1	3205.1
6432	10.595	3.8182	0.1	3204.2
6433	10.595	3.6364	0.1	3203.5
6434	10.595	3.4545	0.1	3203.
6435	10.595	3.2727	0.1	3202.6
6436	10.595	3.0909	0.1	3202.4
6437	10.595	2.9091	0.1	3202.4
6438	10.595	2.7273	0.1	3202.6
6439	10.595	2.5455	0.1	3203.
6440	10.595	2.3636	0.1	3203.5
6441	10.595	2.1818	0.1	3204.2
6442	10.595	2.	0.1	3205.1
6443	10.595	1.8182	0.1	3206.2
6444	10.595	1.6364	0.1	3207.4
6445	10.595	1.4545	0.1	3208.7
6446	10.595	1.2727	0.1	3210.2
6447	10.595	1.0909	0.1	3211.8
6448	10.595	0.90909	0.1	3213.5
6449	10.595	0.72727	0.1	3215.3
6450	10.595	0.54545	0.1	3217.2
6451	10.595	0.36364	0.1	3219.3
6452	10.595	0.18182	0.1	3222.6
6453	10.412	5.8182	0.1	3274.2
6454	10.412	5.6364	0.1	3270.8
6455	10.412	5.4545	0.1	3268.7
6456	10.412	5.2727	0.1	3266.7
6457	10.412	5.0909	0.1	3264.8
6458	10.412	4.9091	0.1	3263.
6459	10.412	4.7273	0.1	3261.3
6460	10.412	4.5455	0.1	3259.8
6461	10.412	4.3636	0.1	3258.4
6462	10.412	4.1818	0.1	3257.1
6463	10.412	4.	0.1	3256.
6464	10.412	3.8182	0.1	3255.1
6465	10.412	3.6364	0.1	3254.4
6466	10.412	3.4545	0.1	3253.8
6467	10.412	3.2727	0.1	3253.4
6468	10.412	3.0909	0.1	3253.2
6469	10.412	2.9091	0.1	3253.2
6470	10.412	2.7273	0.1	3253.4
6471	10.412	2.5455	0.1	3253.8
6472	10.412	2.3636	0.1	3254.4
6473	10.412	2.1818	0.1	3255.1
6474	10.412	2.	0.1	3256.
6475	10.412	1.8182	0.1	3257.1
6476	10.412	1.6364	0.1	3258.4
6477	10.412	1.4545	0.1	3259.8
6478	10.412	1.2727	0.1	3261.3
6479	10.412	1.0909	0.1	3263.
6480	10.412	0.90909	0.1	3264.8
6481	10.412	0.72727	0.1	3266.7
6482	10.412	0.54545	0.1	3268.7
6483	10.412	0.36364	0.1	3270.8
6484	10.412	0.18182	0.1	3274.2
6485	10.228	5.8182	0.1	3325.9
6486	10.228	5.6364	0.1	3322.5
6487	10.228	5.4545	0.1	3320.3
6488	10.228	5.2727	0.1	3318.2
6489	10.228	5.0909	0.1	3316.3
6490	10.228	4.9091	0.1	3314.4
6491	10.228	4.7273	0.1	3312.7
6492	10.228	4.5455	0.1	3311.1
6493	10.228	4.3636	0.1	3309.6
6494	10.228	4.1818	0.1	3308.3
6495	10.228	4.	0.1	3307.1
6496	10.228	3.8182	0.1	3306.2
6497	10.228	3.6364	0.1	3305.4
6498	10.228	3.4545	0.1	3304.8
6499	10.228	3.2727	0.1	3304.4
6500	10.228	3.0909	0.1	3304.2
6501	10.228	2.9091	0.1	3304.2
6502	10.228	2.7273	0.1	3304.4
6503	10.228	2.5455	0.1	3304.8
6504	10.228	2.3636	0.1	3305.4
6505	10.228	2.1818	0.1	3306.2
6506	10.228	2.	0.1	3307.1
6507	10.228	1.8182	0.1	3308.3
6508	10.228	1.6364	0.1	3309.6
6509	10.228	1.4545	0.1	3311.1
6510	10.228	1.2727	0.1	3312.7
6511	10.228	1.0909	0.1	3314.4
6512	10.228	0.90909	0.1	3316.3
6513	10.228	0.72727	0.1	3318.2
6514	10.228	0.54545	0.1	3320.3
6515	10.228	0.36364	0.1	3322.5
6516	10.228	0.18182	0.1	3325.9
6517	10.044	5.8182	0.1	3377.9
6518	10.044	5.6364	0.1	3374.5
6519	10.044	5.4545	0.1	3372.2
6520	10.044	5.2727	0.1	3370.
6521	10.044	5.0909	0.1	3368.
6522	10.044	4.9091	0.1	3366.
6523	10.044	4.7273	0.1	3364.2
6524	10.044	4.5455	0.1	3362.5
6525	10.044	4.3636	0.1	3361.
6526	10.044	4.1818	0.1	3359.6
6527	10.044	4.	0.1	3358.4
6528	10.044	3.8182	0.1	3357.4
6529	10.044	3.6364	0.1	3356.6
6530	10.044	3.4545	0.1	3355.9
6531	10.044	3.2727	0.1	3355.5
6532	10.044	3.0909	0.1	3355.3
6533	10.044	2.9091	0.1	3355.3
6534	10.044	2.7273	0.1	3355.5
6535	10.044	2.5455	0.1	3355.9
6536	10.044	2.3636	0.1	3356.6
6537	10.044	2.1818	0.1	3357.4
6538	10.044	2.	0.1	3358.4
6539	10.044	1.8182	0.1	3359.6
6540	10.044	1.6364	0.1	3361.
6541	10.044	1.4545	0.1	3362.5
6542	10.044	1.2727	0.1	3364.2
6543	10.044	1.0909	0.1	3366.
6544	10.044	0.90909	0.1	3368.
6545	10.044	0.72727	0.1	3370.
6546	10.044	0.54545	0.1	3372.2
6547	10.044	0.36364	0.1	3374.5
6548	10.044	0.18182	0.1	3377.9
6549	9.8608	5.8182	0.1	3430.1
6550	9.8608	5.6364	0.1	3426.6
6551	9.8608	5.4545	0.1	3424.2
6552	9.8608	5.2727	0.1	3422.
6553	9.8608	5.0909	0.1	3419.8
6554	9.8608	4.9091	0.1	3417.8
6555	9.8608	4.7273	0.1	3416.
6556	9.8608	4.5455	0.1	3414.2
6557	9.8608	4.3636	0.1	3412.6
6558	9.8608	4.1818	0.1	3411.2
6559	9.8608	4.	0.1	3409.9
6560	9.8608	3.8182	0.1	3408.8
6561	9.8608	3.6364	0.1	3407.9
6562	9.8608	3.4545	0.1	3407.3
6563	9.8608	3.2727	0.1	3406.8
6564	9.8608	3.0909	0.1	3406.6
6565	9.8608	2.9091	0.1	3406.6
6566	9.8608	2.7273	0.1	3406.8
6567	9.8608	2.5455	0.1	3407.3
6568	9.8608	2.3636	0.1	3407.9
6569	9.8608	2.1818	0.1	3408.8
6570	9.8608	2.	0.1	3409.9
6571	9.8608	1.8182	0.1	3411.2
6572	9.8608	1.6364	0.1	3412.6
6573	9.8608	1.4545	0.1	3414.2
6574	9.8608	1.2727	0.1	3416.
6575	9.8608	1.0909	0.1	3417.8
6576	9.8608	0.90909	0.1	3419.8
6577	9.8608	0.72727	0.1	3422.
6578	9.8608	0.54545	0.1	3424.2
6579	9.8608	0.36364	0.1	3426.6
6580	9.8608	0.18182	0.1	3430.1
6581	9.6772	5.8182	0.1	3482.5
6582	9.6772	5.6364	0.1	3478.9
6583	9.6772	5.4545	0.1	3476.4
6584	9.6772	5.2727	0.1	3474.1
6585	9.6772	5.0909	0.1	3471.9
6586	9.6772	4.9091	0.1	3469.8
6587	9.6772	4.7273	0.1	3467.9
6588	9.6772	4.5455	0.1	3466.1
6589	9.6772	4.3636	0.1	3464.4
6590	9.6772	4.1818	0.1	3462.9
6591	9.6772	4.	0.1	3461.6
6592	9.6772	3.8182	0.1	3460.4
6593	9.6772	3.6364	0.1	3459.5
6594	9.6772	3.4545	0.1	3458.8
6595	9.6772	3.2727	0.1	3458.4
6596	9.6772	3.0909	0.1	3458.1
6597	9.6772	2.9091	0.1	3458.1
6598	9.6772	2.7273	0.1	3458.4
6599	9.6772	2.5455	0.1	3458.8
6600	9.6772	2.3636	0.1	3459.5
6601	9.6772	2.1818	0.1	3460.4
6602	9.6772	2.	0.1	3461.6
6603	9.6772	1.8182	0.1	3462.9
6604	9.6772	1.6364	0.1	3464.4
6605	9.6772	1.4545	0.1	3466.1
6606	9.6772	1.2727	0.1	3467.9
6607	9.6772	1.0909	0.1	3469.8
6608	9.6772	0.90909	0.1	3471.9
6609	9.6772	0.72727	0.1	3474.1
6610	9.6772	0.54545	0.1	3476.4
6611	9.6772	0.36364	0.1	3478.9
6612	9.6772	0.18182	0.1	3482.5
6613	9.4936	5.8182	0.1	3535.
6614	9.4936	5.6364	0.1	3531.4
6615	9.4936	5.4545	0.1	3528.9
6616	9.4936	5.2727	0.1	3526.5
6617	9.4936	5.0909	0.1	3524.2
6618	9.4936	4.9091	0.1	3522.
6619	9.4936	4.7273	0.1	3520.
6620	9.4936	4.5455	0.1	3518.1
6621	9.4936	4.3636	0.1	3516.4
6622	9.4936	4.1818	0.1	3514.8
6623	9.4936	4.	0.1	3513.4
6624	9.4936	3.8182	0.1	3512.3
6625	9.4936	3.6364	0.1	3511.3
6626	9.4936	3.4545	0.1	3510.6
6627	9.4936	3.2727	0.1	3510.1
6628	9.4936	3.0909	0.1	3509.8
6629	9.4936	2.9091	0.1	3509.8
6630	9.4936	2.7273	0.1	3510.1
6631	9.4936	2.5455	0.1	3510.6
6632	9.4936	2.3636	0.1	3511.3
6633	9.4936	2.1818	0.1	3512.3
6634	9.4936	2.	0.1	3513.4
6635	9.4936	1.8182	0.1	3514.8
6636	9.4936	1.6364	0.1	3516.4
6637	9.4936	1.4545	0.1	3518.1
6638	9.4936	1.2727	0.1	3520.
6639	9.4936	1.0909	0.1	3522.
6640	9.4936	0.90909	0.1	3524.2
6641	9.4936	0.72727	0.1	3526.5
6642	9.4936	0.54545	0.1	3528.9
6643	9.4936	0.36364	0.1	3531.4
6644	9.4936	0.18182	0.1	3535.
6645	9.3099	5.8182	0.1	3587.7
6646	9.3099	5.6364	0.1	3584.1
6647	9.3099	5.4545	0.1	3581.5
6648	9.3099	5.2727	0.1	3579.
6649	9.3099	5.0909	0.1	3576.7
6650	9.3099	4.9091	0.1	3574.4
6651	9.3099	4.7273	0.1	3572.3
6652	9.3099	4.5455	0.1	3570.4
6653	9.3099	4.3636	0.1	3568.6
6654	9.3099	4.1818	0.1	3567.
6655	9.3099	4.	0.1	3565.5
6656	9.3099	3.8182	0.1	3564.3
6657	9.3099	3.6364	0.1	3563.3
6658	9.3099	3.4545	0.1	3562.5
6659	9.3099	3.2727	0.1	3562.
6660	9.3099	3.0909	0.1	3561.8
6661	9.3099	2.9091	0.1	3561.8
6662	9.3099	2.7273	0.1	3562.
6663	9.3099	2.5455	0.1	3562.5
6664	9.3099	2.3636	0.1	3563.3
6665	9.3099	2.1818	0.1	3564.3
6666	9.3099	2.	0.1	3565.5
6667	9.3099	1.8182	0.1	3567.
6668	9.3099	1.6364	0.1	3568.6
6669	9.3099	1.4545	0.1	3570.4
6670	9.3099	1.2727	0.1	3572.3
6671	9.3099	1.0909	0.1	3574.4
6672	9.3099	0.90909	0.1	3576.7
6673	9.3099	0.72727	0.1	3579.
6674	9.3099	0.54545	0.1	3581.5
6675	9.3099	0.36364	0.1	3584.1
6676	9.3099	0.18182	0.1	3587.7
6677	9.1263	5.8182	0.1	3640.5
6678	9.1263	5.6364	0.1	3636.9
6679	9.1263	5.4545	0.1	3634.2
6680	9.1263	5.2727	0.1	3631.7
6681	9.1263	5.0909	0.1	3629.3
6682	9.1263	4.9091	0.1	3627.
6683	9.1263	4.7273	0.1	3624.9
6684	9.1263	4.5455	0.1	3622.9
6685	9.1263	4.3636	0.1	3621.
6686	9.1263	4.1818	0.1	3619.3
6687	9.1263	4.	0.1	3617.8
6688	9.1263	3.8182	0.1	3616.6
6689	9.1263	3.6364	0.1	3615.5
6690	9.1263	3.4545	0.1	3614.7
6691	9.1263	3.2727	0.1	3614.2
6692	9.1263	3.0909	0.1	3613.9
6693	9.1263	2.9091	0.1	3613.9
6694	9.1263	2.7273	0.1	3614.2
6695	9.1263	2.5455	0.1	3614.7
6696	9.1263	2.3636	0.1	3615.5
6697	9.1263	2.1818	0.1	3616.6
6698	9.1263	2.	0.1	3617.8
6699	9.1263	1.8182	0.1	3619.3
6700	9.1263	1.6364	0.1	3621.
6701	9.1263	1.4545	0.1	3622.9
6702	9.1263	1.2727	0.1	3624.9
6703	9.1263	1.0909	0.1	3627.
6704	9.1263	0.90909	0.1	3629.3
6705	9.1263	0.72727	0.1	3631.7
6706	9.1263	0.54545	0.1	3634.2
6707	9.1263	0.36364	0.1	3636.9
6708	9.1263	0.18182	0.1	3640.5
6709	8.9427	5.8182	0.1	3693.5
6710	8.9427	5.6364	0.1	3689.8
6711	8.9427	5.4545	0.1	3687.1
6712	8.9427	5.2727	0.1	3684.5
6713	8.9427	5.0909	0.1	3682.1
6714	8.9427	4.9091	0.1	3679.7
6715	8.9427	4.7273	0.1	3677.6
6716	8.9427	4.5455	0.1	3675.5
6717	8.9427	4.3636	0.1	3673.6
6718	8.9427	4.1818	0.1	3671.9
6719	8.9427	4.	0.1	3670.4
6720	8.9427	3.8182	0.1	3669.1
6721	8.9427	3.6364	0.1	3668.
6722	8.9427	3.4545	0.1	3667.2
6723	8.9427	3.2727	0.1	3666.6
6724	8.9427	3.0909	0.1	3666.4
6725	8.9427	2.9091	0.1	3666.4
6726	8.9427	2.7273	0.1	3666.6
6727	8.9427	2.5455	0.1	3667.2
6728	8.9427	2.3636	0.1	3668.
6729	8.9427	2.1818	0.1	3669.1
6730	8.9427	2.	0.1	3670.4
6731	8.9427	1.8182	0.1	3671.9
6732	8.9427	1.6364	0.1	3673.6
6733	8.9427	1.4545	0.1	3675.5
6734	8.9427	1.2727	0.1	3677.6
6735	8.9427	1.0909	0.1	3679.7
6736	8.9427	0.90909	0.1	3682.1
6737	8.9427	0.72727	0.1	3684.5
6738	8.9427	0.54545	0.1	3687.1
6739	8.9427	0.36364	0.1	3689.8
6740	8.9427	0.18182	0.1	3693.5
6741	8.7591	5.8182	0.1	3746.5
6742	8.7591	5.6364	0.1	3742.8
6743	8.7591	5.4545	0.1	3740.
6744	8.7591	5.2727	0.1	3737.4
6745	8.7591	5.0909	0.1	3735.
6746	8.7591	4.9091	0.1	3732.6
6747	8.7591	4.7273	0.1	3730.5
6748	8.7591	4.5455	0.1	3728.4
6749	8.7591	4.3636	0.1	3726.5
6750	8.7591	4.1818	0.1	3724.8
6751	8.7591	4.	0.1	3723.2
6752	8.7591	3.8182	0.1	3721.9
6753	8.7591	3.6364	0.1	3720.8
6754	8.7591	3.4545	0.1	3720.
6755	8.7591	3.2727	0.1	3719.4
6756	8.7591	3.0909	0.1	3719.1
6757	8.7591	2.9091	0.1	3719.1
6758	8.7591	2.7273	0.1	3719.4
6759	8.7591	2.5455	0.1	3720.
6760	8.7591	2.3636	0.1	3720.8
6761	8.7591	2.1818	0.1	3721.9
6762	8.7591	2.	0.1	3723.2
6763	8.7591	1.8182	0.1	3724.8
6764	8.7591	1.6364	0.1	3726.5
6765	8.7591	1.4545	0.1	3728.4
6766	8.7591	1.2727	0.1	3730.5
6767	8.7591	1.0909	0.1	3732.6
6768	8.7591	0.90909	0.1	3735.
6769	8.7591	0.72727	0.1	3737.4
6770	8.7591	0.54545	0.1	3740.
6771	8.7591	0.36364	0.1	3742.8
6772	8.7591	0.18182	0.1	3746.5
6773	8.5754	5.8182	0.1	3799.5
6774	8.5754	5.6364	0.1	3795.8
6775	8.5754	5.4545	0.1	3793.
6776	8.5754	5.2727	0.1	3790.4
6777	8.5754	5.0909	0.1	3788.
6778	8.5754	4.9091	0.1	3785.7
6779	8.5754	4.7273	0.1	3783.5
6780	8.5754	4.5455	0.1	3781.5
6781	8.5754	4.3636	0.1	3779.6
6782	8.5754	4.1818	0.1	3777.9
6783	8.5754	4.	0.1	3776.3
6784	8.5754	3.8182	0.1	3775.
6785	8.5754	3.6364	0.1	3773.9
6786	8.5754	3.4545	0.1	3773.1
6787	8.5754	3.2727	0.1	3772.5
6788	8.5754	3.0909	0.1	3772.2
6789	8.5754	2.9091	0.1	3772.2
6790	8.5754	2.7273	0.1	3772.5
6791	8.5754	2.5455	0.1	3773.1
6792	8.5754	2.3636	0.1	3773.9
6793	8.5754	2.1818	0.1	3775.
6794	8.5754	2.	0.1	3776.3
6795	8.5754	1.8182	0.1	3777.9
6796	8.5754	1.6364	0.1	3779.6
6797	8.5754	1.4545	0.1	3781.5
6798	8.5754	1.2727	0.1	3783.5
6799	8.5754	1.0909	0.1	3785.7
6800	8.5754	0.90909	0.1	3788.
6801	8.5754	0.72727	0.1	3790.4
6802	8.5754	0.54545	0.1	3793.
6803	8.5754	0.36364	0.1	3795.8
6804	8.5754	0.18182	0.1	3799.5
6805	8.3918	5.8182	0.1	3852.4
6806	8.3918	5.6364	0.1	3848.7
6807	8.3918	5.4545	0.1	3846.
6808	8.3918	5.2727	0.1	3843.5
6809	8.3918	5.0909	0.1	3841.1
6810	8.3918	4.9091	0.1	3838.9
6811	8.3918	4.7273	0.1	3836.7
6812	8.3918	4.5455	0.1	3834.8
6813	8.3918	4.3636	0.1	3832.9
6814	8.3918	4.1818	0.1	3831.3
6815	8.3918	4.	0.1	3829.8
6816	8.3918	3.8182	0.1	3828.5
6817	8.3918	3.6364	0.1	3827.4
6818	8.3918	3.4545	0.1	3826.6
6819	8.3918	3.2727	0.1	3826.
6820	8.3918	3.0909	0.1	3825.7
6821	8.3918	2.9091	0.1	3825.7
6822	8.3918	2.7273	0.1	3826.
6823	8.3918	2.5455	0.1	3826.6
6824	8.3918	2.3636	0.1	3827.4
6825	8.3918	2.1818	0.1	3828.5
6826	8.3918	2.	0.1	3829.8
6827	8.3918	1.8182	0.1	3831.3
6828	8.3918	1.6364	0.1	3832.9
6829	8.3918	1.4545	0.1	3834.8
6830	8.3918	1.2727	0.1	3836.7
6831	8.3918	1.0909	0.1	3838.9
6832	8.3918	0.90909	0.1	3841.1
6833	8.3918	0.72727	0.1	3843.5
6834	8.3918	0.54545	0.1	3846.
6835	8.3918	0.36364	0.1	3848.7
6836	8.3918	0.18182	0.1	3852.4
6837	8.2082	5.8182	0.1	3905.1
6838	8.2082	5.6364	0.1	3901.5
6839	8.2082	5.4545	0.1	3898.9
6840	8.2082	5.2727	0.1	3896.5
6841	8.2082	5.0909	0.1	3894.2
6842	8.2082	4.9091	0.1	3892.1
6843	8.2082	4.7273	0.1	3890.1
6844	8.2082	4.5455	0.1	3888.3
6845	8.2082	4.3636	0.1	3886.6
6846	8.2082	4.1818	0.1	3885.
6847	8.2082	4.	0.1	3883.6
6848	8.2082	3.8182	0.1	3882.4
6849	8.2082	3.6364	0.1	3881.4
6850	8.2082	3.4545	0.1	3880.6
6851	8.2082	3.2727	0.1	3880.1
6852	8.2082	3.0909	0.1	3879.8
6853	8.2082	2.9091	0.1	3879.8
6854	8.2082	2.7273	0.1	3880.1
6855	8.2082	2.5455	0.1	3880.6
6856	8.2082	2.3636	0.1	3881.4
6857	8.2082	2.1818	0.1	3882.4
6858	8.2082	2.	0.1	3883.6
6859	8.2082	1.8182	0.1	3885.
6860	8.2082	1.6364	0.1	3886.6
6861	8.2082	1.4545	0.1	3888.3
6862	8.2082	1.2727	0.1	3890.1
6863	8.2082	1.0909	0.1	3892.1
6864	8.2082	0.90909	0.1	3894.2
6865	8.2082	0.72727	0.1	3896.5
6866	8.2082	0.54545	0.1	3898.9
6867	8.2082	0.36364	0.1	3901.5
6868	8.2082	0.18182	0.1	3905.1
6869	8.0246	5.8182	0.1	3957.5
6870	8.0246	5.6364	0.1	3954.1
6871	8.0246	5.4545	0.1	3951.6
6872	8.0246	5.2727	0.1	3949.3
6873	8.0246	5.0909	0.1	3947.3
6874	8.0246	4.9091	0.1	3945.4
6875	8.0246	4.7273	0.1	3943.7
6876	8.0246	4.5455	0.1	3942.
6877	8.0246	4.3636	0.1	3940.5
6878	8.0246	4.1818	0.1	3939.1
6879	8.0246	4.	0.1	3937.9
6880	8.0246	3.8182	0.1	3936.8
6881	8.0246	3.6364	0.1	3935.9
6882	8.0246	3.4545	0.1	3935.2
6883	8.0246	3.2727	0.1	3934.7
6884	8.0246	3.0909	0.1	3934.5
6885	8.0246	2.9091	0.1	3934.5
6886	8.0246	2.7273	0.1	3934.7
6887	8.0246	2.5455	0.1	3935.2
6888	8.0246	2.3636	0.1	3935.9
6889	8.0246	2.1818	0.1	3936.8
6890	8.0246	2.	0.1	3937.9
6891	8.0246	1.8182	0.1	3939.1
6892	8.0246	1.6364	0.1	3940.5
6893	8.0246	1.4545	0.1	3942.
6894	8.0246	1.2727	0.1	3943.7
6895	8.0246	1.0909	0.1	3945.4
6896	8.0246	0.90909	0.1	3947.3
6897	8.0246	0.72727	0.1	3949.3
6898	8.0246	0.54545	0.1	3951.6
6899	8.0246	0.36364	0.1	3954.1
6900	8.0246	0.18182	0.1	3957.5
6901	7.8409	5.8182	0.1	4009.5
6902	7.8409	5.6364	0.1	4006.2
6903	7.8409	5.4545	0.1	4003.9
6904	7.8409	5.2727	0.1	4002.
6905	7.8409	5.0909	0.1	4000.3
6906	7.8409	4.9091	0.1	3998.7
6907	7.8409	4.7273	0.1	3997.3
6908	7.8409	4.5455	0.1	3996.
6909	7.8409	4.3636	0.1	3994.8
6910	7.8409	4.1818	0.1	3993.7
6911	7.8409	4.	0.1	3992.7
6912	7.8409	3.8182	0.1	3991.8
6913	7.8409	3.6364	0.1	3991.1
6914	7.8409	3.4545	0.1	3990.5
6915	7.8409	3.2727	0.1	3990.1
6916	7.8409	3.0909	0.1	3989.9
6917	7.8409	2.9091	0.1	3989.9
6918	7.8409	2.7273	0.1	3990.1
6919	7.8409	2.5455	0.1	3990.5
6920	7.8409	2.3636	0.1	3991.1
6921	7.8409	2.1818	0.1	3991.8
6922	7.8409	2.	0.1	3992.7
6923	7.8409	1.8182	0.1	3993.7
6924	7.8409	1.6364	0.1	3994.8
6925	7.8409	1.4545	0.1	3996.
6926	7.8409	1.2727	0.1	3997.3
6927	7.8409	1.0909	0.1	3998.7
6928	7.8409	0.90909	0.1	4000.3
6929	7.8409	0.72727	0.1	4002.
6930	7.8409	0.54545	0.1	4003.9
6931	7.8409	0.36364	0.1	4006.2
6932	7.8409	0.18182	0.1	4009.5
6933	7.6573	5.8182	0.1	4060.7
6934	7.6573	5.6364	0.1	4057.7
6935	7.6573	5.4545	0.1	4055.8
6936	7.6573	5.2727	0.1	4054.3
6937	7.6573	5.0909	0.1	4053.
6938	7.6573	4.9091	0.1	4051.9
6939	7.6573	4.7273	0.1	4051.
6940	7.6573	4.5455	0.1	4050.2
6941	7.6573	4.3636	0.1	4049.4
6942	7.6573	4.1818	0.1	4048.7
6943	7.6573	4.	0.1	4048.1
6944	7.6573	3.8182	0.1	4047.6
6945	7.6573	3.6364	0.1	4047.1
6946	7.6573	3.4545	0.1	4046.8
6947	7.6573	3.2727	0.1	4046.5
6948	7.6573	3.0909	0.1	4046.4
6949	7.6573	2.9091	0.1	4046.4
6950	7.6573	2.7273	0.1	4046.5
6951	7.6573	2.5455	0.1	4046.8
6952	7.6573	2.3636	0.1	4047.1
6953	7.6573	2.1818	0.1	4047.6
6954	7.6573	2.	0.1	4048.1
6955	7.6573	1.8182	0.1	4048.7
6956	7.6573	1.6364	0.1	4049.4
6957	7.6573	1.4545	0.1	4050.2
6958	7.6573	1.2727	0.1	4051.
6959	7.6573	1.0909	0.1	4051.9
6960	7.6573	0.90909	0.1	4053.
6961	7.6573	0.72727	0.1	4054.3
6962	7.6573	0.54545	0.1	4055.8
6963	7.6573	0.36364	0.1	4057.7
6964	7.6573	0.18182	0.1	4060.7
6965	7.4737	5.8182	0.1	4110.9
6966	7.4737	5.6364	0.1	4108.4
6967	7.4737	5.4545	0.1	4106.9
6968	7.4737	5.2727	0.1	4106.
6969	7.4737	5.0909	0.1	4105.3
6970	7.4737	4.9091	0.1	4104.9
6971	7.4737	4.7273	0.1	4104.7
6972	7.4737	4.5455	0.1	4104.6
6973	7.4737	4.3636	0.1	4104.5
6974	7.4737	4.1818	0.1	4104.4
6975	7.4737	4.	0.1	4104.3
6976	7.4737	3.8182	0.1	4104.3
6977	7.4737	3.6364	0.1	4104.2
6978	7.4737	3.4545	0.1	4104.1
6979	7.4737	3.2727	0.1	4104.1
6980	7.4737	3.0909	0.1	4104.1
6981	7.4737	2.9091	0.1	4104.1
6982	7.4737	2.7273	0.1	4104.1
6983	7.4737	2.5455	0.1	4104.1
6984	7.4737	2.3636	0.1	4104.2
6985	7.4737	2.1818	0.1	4104.3
6986	7.4737	2.	0.1	4104.3
6987	7.4737	1.8182	0.1	4104.4
6988	7.4737	1.6364	0.1	4104.5
6989	7.4737	1.4545	0.1	4104.6
6990	7.4737	1.2727	0.1	4104.7
6991	7.4737	1.0909	0.1	4104.9
6992	7.4737	0.90909	0.1	4105.3
6993	7.4737	0.72727	0.1	4106.
6994	7.4737	0.54545	0.1	4106.9
6995	7.4737	0.36364	0.1	4108.4
6996	7.4737	0.18182	0.1	4110.9
6997	7.2901	5.8182	0.1	4159.8
6998	7.2901	5.6364	0.1	4157.8
6999	7.2901	5.4545	0.1	4157.1
7000	7.2901	5.2727	0.1	4156.9
7001	7.2901	5.0909	0.1	4157.1
7002	7.2901	4.9091	0.1	4157.7
7003	7.2901	4.7273	0.1	4158.4
7004	7.2901	4.5455	0.1	4159.2
7005	7.2901	4.3636	0.1	4160.
7006	7.2901	4.1818	0.1	4160.8
7007	7.2901	4.	0.1	4161.5
7008	7.2901	3.8182	0.1	4162.1
7009	7.2901	3.6364	0.1	4162.6
7010	7.2901	3.4545	0.1	4163.
7011	7.2901	3.2727	0.1	4163.2
7012	7.2901	3.0909	0.1	4163.4
7013	7.2901	2.9091	0.1	4163.4
7014	7.2901	2.7273	0.1	4163.2
7015	7.2901	2.5455	0.1	4163.
7016	7.2901	2.3636	0.1	4162.6
7017	7.2901	2.1818	0.1	4162.1
7018	7.2901	2.	0.1	4161.5
7019	7.2901	1.8182	0.1	4160.8
7020	7.2901	1.6364	0.1	4160.
7021	7.2901	1.4545	0.1	4159.2
7022	7.2901	1.2727	0.1	4158.4
7023	7.2901	1.0909	0.1	4157.7
7024	7.2901	0.90909	0.1	4157.1
7025	7.2901	0.72727	0.1	4156.9
7026	7.2901	0.54545	0.1	4157.1
7027	7.2901	0.36364	0.1	4157.8
7028	7.2901	0.18182	0.1	4159.8
7029	7.1064	5.8182	0.1	4206.9
7030	7.1064	5.6364	0.1	4205.7
7031	7.1064	5.4545	0.1	4205.8
7032	7.1064	5.2727	0.1	4206.7
7033	7.1064	5.0909	0.1	4208.1
7034	7.1064	4.9091	0.1	4209.9
7035	7.1064	4.7273	0.1	4211.9
7036	7.1064	4.5455	0.1	4214.
7037	7.1064	4.3636	0.1	4216.1
7038	7.1064	4.1818	0.1	4218.1
7039	7.1064	4.	0.1	4219.9
7040	7.1064	3.8182	0.1	4221.4
7041	7.1064	3.6364	0.1	4222.7
7042	7.1064	3.4545	0.1	4223.7
7043	7.1064	3.2727	0.1	4224.3
7044	7.1064	3.0909	0.1	4224.7
7045	7.1064	2.9091	0.1	4224.7
7046	7.1064	2.7273	0.1	4224.3
7047	7.1064	2.5455	0.1	4223.7
7048	7.1064	2.3636	0.1	4222.7
7049	7.1064	2.1818	0.1	4221.4
7050	7.1064	2.	0.1	4219.9
7051	7.1064	1.8182	0.1	4218.1
7052	7.1064	1.6364	0.1	4216.1
7053	7.1064	1.4545	0.1	4214.
7054	7.1064	1.2727	0.1	4211.9
7055	7.1064	1.0909	0.1	4209.9
7056	7.1064	0.90909	0.1	4208.1
7057	7.1064	0.72727	0.1	4206.7
7058	7.1064	0.54545	0.1	4205.8
7059	7.1064	0.36364	0.1	4205.7
7060	7.1064	0.18182	0.1	4206.9
7061	6.9228	5.8182	0.1	4251.7
7062	6.9228	5.6364	0.1	4251.4
7063	6.9228	5.4545	0.1	4252.7
7064	6.9228	5.2727	0.1	4255.
7065	6.9228	5.0909	0.1	4258.
7066	6.9228	4.9091	0.1	4261.5
7067	6.9228	4.7273	0.1	4265.2
7068	6.9228	4.5455	0.1	4269.1
7069	6.9228	4.3636	0.1	4272.9
7070	6.9228	4.1818	0.1	4276.5
7071	6.9228	4.	0.1	4279.7
7072	6.9228	3.8182	0.1	4282.6
7073	6.9228	3.6364	0.1	4284.9
7074	6.9228	3.4545	0.1	4286.7
7075	6.9228	3.2727	0.1	4287.9
7076	6.9228	3.0909	0.1	4288.5
7077	6.9228	2.9091	0.1	4288.5
7078	6.9228	2.7273	0.1	4287.9
7079	6.9228	2.5455	0.1	4286.7
7080	6.9228	2.3636	0.1	4284.9
7081	6.9228	2.1818	0.1	4282.6
7082	6.9228	2.	0.1	4279.7
7083	6.9228	1.8182	0.1	4276.5
7084	6.9228	1.6364	0.1	4272.9
7085	6.9228	1.4545	0.1	4269.1
7086	6.9228	1.2727	0.1	4265.2
7087	6.9228	1.0909	0.1	4261.5
7088	6.9228	0.90909	0.1	4258.
7089	6.9228	0.72727	0.1	4255.
7090	6.9228	0.54545	0.1	4252.7
7091	6.9228	0.36364	0.1	4251.4
7092	6.9228	0.18182	0.1	4251.7
7093	6.7392	5.8182	0.1	4293.3
7094	6.7392	5.6364	0.1	4294.3
7095	6.7392	5.4545	0.1	4297.1
7096	6.7392	5.2727	0.1	4301.3
7097	6.7392	5.0909	0.1	4306.3
7098	6.7392	4.9091	0.1	4312.
7099	6.7392	4.7273	0.1	4318.1
7100	6.7392	4.5455	0.1	4324.3
7101	6.7392	4.3636	0.1	4330.4
7102	6.7392	4.1818	0.1	4336.2
7103	6.7392	4.	0.1	4341.4
7104	6.7392	3.8182	0.1	4346.
7105	6.7392	3.6364	0.1	4349.8
7106	6.7392	3.4545	0.1	4352.7
7107	6.7392	3.2727	0.1	4354.7
7108	6.7392	3.0909	0.1	4355.7
7109	6.7392	2.9091	0.1	4355.7
7110	6.7392	2.7273	0.1	4354.7
7111	6.7392	2.5455	0.1	4352.7
7112	6.7392	2.3636	0.1	4349.8
7113	6.7392	2.1818	0.1	4346.
7114	6.7392	2.	0.1	4341.4
7115	6.7392	1.8182	0.1	4336.2
7116	6.7392	1.6364	0.1	4330.4
7117	6.7392	1.4545	0.1	4324.3
7118	6.7392	1.2727	0.1	4318.1
7119	6.7392	1.0909	0.1	4312.
7120	6.7392	0.90909	0.1	4306.3
7121	6.7392	0.72727	0.1	4301.3
7122	6.7392	0.54545	0.1	4297.1
7123	6.7392	0.36364	0.1	4294.3
7124	6.7392	0.18182	0.1	4293.3
7125	6.5556	5.8182	0.1	4330.9
7126	6.5556	5.6364	0.1	4333.5
7127	6.5556	5.4545	0.1	4338.4
7128	6.5556	5.2727	0.1	4344.9
7129	6.5556	5.0909	0.1	4352.6
7130	6.5556	4.9091	0.1	4361.3
7131	6.5556	4.7273	0.1	4370.4
7132	6.5556	4.5455	0.1	4379.7
7133	6.5556	4.3636	0.1	4388.8
7134	6.5556	4.1818	0.1	4397.5
7135	6.5556	4.	0.1	4405.4
7136	6.5556	3.8182	0.1	4412.3
7137	6.5556	3.6364	0.1	4418.1
7138	6.5556	3.4545	0.1	4422.6
7139	6.5556	3.2727	0.1	4425.6
7140	6.5556	3.0909	0.1	4427.2
7141	6.5556	2.9091	0.1	4427.2
7142	6.5556	2.7273	0.1	4425.6
7143	6.5556	2.5455	0.1	4422.6
7144	6.5556	2.3636	0.1	4418.1
7145	6.5556	2.1818	0.1	4412.3
7146	6.5556	2.	0.1	4405.4
7147	6.5556	1.8182	0.1	4397.5
7148	6.5556	1.6364	0.1	4388.8
7149	6.5556	1.4545	0.1	4379.7
7150	6.5556	1.2727	0.1	4370.4
7151	6.5556	1.0909	0.1	4361.3
7152	6.5556	0.90909	0.1	4352.6
7153	6.5556	0.72727	0.1	4344.9
7154	6.5556	0.54545	0.1	4338.4
7155	6.5556	0.36364	0.1	4333.5
7156	6.5556	0.18182	0.1	4330.9
7157	6.3719	5.8182	0.1	4363.4
7158	6.3719	5.6364	0.1	4367.9
7159	6.3719	5.4545	0.1	4375.4
7160	6.3719	5.2727	0.1	4385.
7161	6.3719	5.0909	0.1	4396.2
7162	6.3719	4.9091	0.1	4408.6
7163	6.3719	4.7273	0.1	4421.8
7164	6.3719	4.5455	0.1	4435.1
7165	6.3719	4.3636	0.1	4448.2
7166	6.3719	4.1818	0.1	4460.7
7167	6.3719	4.	0.1	4472.2
7168	6.3719	3.8182	0.1	4482.3
7169	6.3719	3.6364	0.1	4490.8
7170	6.3719	3.4545	0.1	4497.3
7171	6.3719	3.2727	0.1	4501.8
7172	6.3719	3.0909	0.1	4504.1
7173	6.3719	2.9091	0.1	4504.1
7174	6.3719	2.7273	0.1	4501.8
7175	6.3719	2.5455	0.1	4497.3
7176	6.3719	2.3636	0.1	4490.8
7177	6.3719	2.1818	0.1	4482.3
7178	6.3719	2.	0.1	4472.2
7179	6.3719	1.8182	0.1	4460.7
7180	6.3719	1.6364	0.1	4448.2
7181	6.3719	1.4545	0.1	4435.1
7182	6.3719	1.2727	0.1	4421.8
7183	6.3719	1.0909	0.1	4408.6
7184	6.3719	0.90909	0.1	4396.2
7185	6.3719	0.72727	0.1	4385.
7186	6.3719	0.54545	0.1	4375.4
7187	6.3719	0.36364	0.1	4367.9
7188	6.3719	0.18182	0.1	4363.4
7189	6.1883	5.8182	0.1	4389.2
7190	6.1883	5.6364	0.1	4396.3
7191	6.1883	5.4545	0.1	4407.
7192	6.1883	5.2727	0.1	4420.5
7193	6.1883	5.0909	0.1	4436.2
7194	6.1883	4.9091	0.1	4453.6
7195	6.1883	4.7273	0.1	4471.9
7196	6.1883	4.5455	0.1	4490.5
7197	6.1883	4.3636	0.1	4508.9
7198	6.1883	4.1818	0.1	4526.5
7199	6.1883	4.	0.1	4542.7
7200	6.1883	3.8182	0.1	4557.
7201	6.1883	3.6364	0.1	4569.
7202	6.1883	3.4545	0.1	4578.3
7203	6.1883	3.2727	0.1	4584.7
7204	6.1883	3.0909	0.1	4588.
7205	6.1883	2.9091	0.1	4588.
7206	6.1883	2.7273	0.1	4584.7
7207	6.1883	2.5455	0.1	4578.3
7208	6.1883	2.3636	0.1	4569.
7209	6.1883	2.1818	0.1	4557.
7210	6.1883	2.	0.1	4542.7
7211	6.1883	1.8182	0.1	4526.5
7212	6.1883	1.6364	0.1	4508.9
7213	6.1883	1.4545	0.1	4490.5
7214	6.1883	1.2727	0.1	4471.9
7215	6.1883	1.0909	0.1	4453.6
7216	6.1883	0.90909	0.1	4436.2
7217	6.1883	0.72727	0.1	4420.5
7218	6.1883	0.54545	0.1	4407.
7219	6.1883	0.36364	0.1	4396.3
7220	6.1883	0.18182	0.1	4389.2
7221	6.0047	5.8182	0.1	4406.6
7222	6.0047	5.6364	0.1	4416.8
7223	6.0047	5.4545	0.1	4431.7
7224	6.0047	5.2727	0.1	4450.2
7225	6.0047	5.0909	0.1	4471.6
7226	6.0047	4.9091	0.1	4495.2
7227	6.0047	4.7273	0.1	4520.2
7228	6.0047	4.5455	0.1	4545.8
7229	6.0047	4.3636	0.1	4571.1
7230	6.0047	4.1818	0.1	4595.3
7231	6.0047	4.	0.1	4617.7
7232	6.0047	3.8182	0.1	4637.6
7233	6.0047	3.6364	0.1	4654.3
7234	6.0047	3.4545	0.1	4667.4
7235	6.0047	3.2727	0.1	4676.3
7236	6.0047	3.0909	0.1	4680.9
7237	6.0047	2.9091	0.1	4680.9
7238	6.0047	2.7273	0.1	4676.3
7239	6.0047	2.5455	0.1	4667.4
7240	6.0047	2.3636	0.1	4654.3
7241	6.0047	2.1818	0.1	4637.6
7242	6.0047	2.	0.1	4617.7
7243	6.0047	1.8182	0.1	4595.3
7244	6.0047	1.6364	0.1	4571.1
7245	6.0047	1.4545	0.1	4545.8
7246	6.0047	1.2727	0.1	4520.2
7247	6.0047	1.0909	0.1	4495.2
7248	6.0047	0.90909	0.1	4471.6
7249	6.0047	0.72727	0.1	4450.2
7250	6.0047	0.54545	0.1	4431.7
7251	6.0047	0.36364	0.1	4416.8
7252	6.0047	0.18182	0.1	4406.6
7253	5.8211	5.8182	0.1	4413.4
7254	5.8211	5.6364	0.1	4427.5
7255	5.8211	5.4545	0.1	4447.4
7256	5.8211	5.2727	0.1	4472.2
7257	5.8211	5.0909	0.1	4500.9
7258	5.8211	4.9091	0.1	4532.6
7259	5.8211	4.7273	0.1	4566.3
7260	5.8211	4.5455	0.1	4600.8
7261	5.8211	4.3636	0.1	4635.1
7262	5.8211	4.1818	0.1	4668.
7263	5.8211	4.	0.1	4698.5
7264	5.8211	3.8182	0.1	4725.7
7265	5.8211	3.6364	0.1	4748.7
7266	5.8211	3.4545	0.1	4766.7
7267	5.8211	3.2727	0.1	4779.1
7268	5.8211	3.0909	0.1	4785.4
7269	5.8211	2.9091	0.1	4785.4
7270	5.8211	2.7273	0.1	4779.1
7271	5.8211	2.5455	0.1	4766.7
7272	5.8211	2.3636	0.1	4748.7
7273	5.8211	2.1818	0.1	4725.7
7274	5.8211	2.	0.1	4698.5
7275	5.8211	1.8182	0.1	4668.
7276	5.8211	1.6364	0.1	4635.1
7277	5.8211	1.4545	0.1	4600.8
7278	5.8211	1.2727	0.1	4566.3
7279	5.8211	1.0909	0.1	4532.6
7280	5.8211	0.90909	0.1	4500.9
7281	5.8211	0.72727	0.1	4472.2
7282	5.8211	0.54545	0.1	4447.4
7283	5.8211	0.36364	0.1	4427.5
7284	5.8211	0.18182	0.1	4413.4
7285	5.6374	5.8182	0.1	4406.7
7286	5.6374	5.6364	0.1	4425.6
7287	5.6374	5.4545	0.1	4451.9
7288	5.6374	5.2727	0.1	4484.6
7289	5.6374	5.0909	0.1	4522.5
7290	5.6374	4.9091	0.1	4564.5
7291	5.6374	4.7273	0.1	4609.2
7292	5.6374	4.5455	0.1	4655.2
7293	5.6374	4.3636	0.1	4701.1
7294	5.6374	4.1818	0.1	4745.4
7295	5.6374	4.	0.1	4786.6
7296	5.6374	3.8182	0.1	4823.5
7297	5.6374	3.6364	0.1	4854.7
7298	5.6374	3.4545	0.1	4879.2
7299	5.6374	3.2727	0.1	4896.2
7300	5.6374	3.0909	0.1	4904.8
7301	5.6374	2.9091	0.1	4904.8
7302	5.6374	2.7273	0.1	4896.2
7303	5.6374	2.5455	0.1	4879.2
7304	5.6374	2.3636	0.1	4854.7
7305	5.6374	2.1818	0.1	4823.5
7306	5.6374	2.	0.1	4786.6
7307	5.6374	1.8182	0.1	4745.4
7308	5.6374	1.6364	0.1	4701.1
7309	5.6374	1.4545	0.1	4655.2
7310	5.6374	1.2727	0.1	4609.2
7311	5.6374	1.0909	0.1	4564.5
7312	5.6374	0.90909	0.1	4522.5
7313	5.6374	0.72727	0.1	4484.6
7314	5.6374	0.54545	0.1	4451.9
7315	5.6374	0.36364	0.1	4425.6
7316	5.6374	0.18182	0.1	4406.7
7317	5.4538	5.8182	0.1	4383.3
7318	5.4538	5.6364	0.1	4407.9
7319	5.4538	5.4545	0.1	4442.1
7320	5.4538	5.2727	0.1	4484.6
7321	5.4538	5.0909	0.1	4534.1
7322	5.4538	4.9091	0.1	4589.1
7323	5.4538	4.7273	0.1	4648.
7324	5.4538	4.5455	0.1	4708.9
7325	5.4538	4.3636	0.1	4769.8
7326	5.4538	4.1818	0.1	4828.8
7327	5.4538	4.	0.1	4883.9
7328	5.4538	3.8182	0.1	4933.4
7329	5.4538	3.6364	0.1	4975.6
7330	5.4538	3.4545	0.1	5008.8
7331	5.4538	3.2727	0.1	5031.7
7332	5.4538	3.0909	0.1	5043.5
7333	5.4538	2.9091	0.1	5043.5
7334	5.4538	2.7273	0.1	5031.7
7335	5.4538	2.5455	0.1	5008.8
7336	5.4538	2.3636	0.1	4975.6
7337	5.4538	2.1818	0.1	4933.4
7338	5.4538	2.	0.1	4883.9
7339	5.4538	1.8182	0.1	4828.8
7340	5.4538	1.6364	0.1	4769.8
7341	5.4538	1.4545	0.1	4708.9
7342	5.4538	1.2727	0.1	4648.
7343	5.4538	1.0909	0.1	4589.1
7344	5.4538	0.90909	0.1	4534.1
7345	5.4538	0.72727	0.1	4484.6
7346	5.4538	0.54545	0.1	4442.1
7347	5.4538	0.36364	0.1	4407.9
7348	5.4538	0.18182	0.1	4383.3
7349	5.2702	5.8182	0.1	4339.2
7350	5.2702	5.6364	0.1	4370.6
7351	5.2702	5.4545	0.1	4414.4
7352	5.2702	5.2727	0.1	4469.
7353	5.2702	5.0909	0.1	4533.
7354	5.2702	4.9091	0.1	4604.6
7355	5.2702	4.7273	0.1	4681.6
7356	5.2702	4.5455	0.1	4761.5
7357	5.2702	4.3636	0.1	4841.7
7358	5.2702	4.1818	0.1	4919.8
7359	5.2702	4.	0.1	4993.1
7360	5.2702	3.8182	0.1	5059.1
7361	5.2702	3.6364	0.1	5115.5
7362	5.2702	3.4545	0.1	5160.1
7363	5.2702	3.2727	0.1	5191.1
7364	5.2702	3.0909	0.1	5206.9
7365	5.2702	2.9091	0.1	5206.9
7366	5.2702	2.7273	0.1	5191.1
7367	5.2702	2.5455	0.1	5160.1
7368	5.2702	2.3636	0.1	5115.5
7369	5.2702	2.1818	0.1	5059.1
7370	5.2702	2.	0.1	4993.1
7371	5.2702	1.8182	0.1	4919.8
7372	5.2702	1.6364	0.1	4841.7
7373	5.2702	1.4545	0.1	4761.5
7374	5.2702	1.2727	0.1	4681.6
7375	5.2702	1.0909	0.1	4604.6
7376	5.2702	0.90909	0.1	4533.
7377	5.2702	0.72727	0.1	4469.
7378	5.2702	0.54545	0.1	4414.4
7379	5.2702	0.36364	0.1	4370.6
7380	5.2702	0.18182	0.1	4339.2
7381	5.0866	5.8182	0.1	4269.4
7382	5.0866	5.6364	0.1	4309.
7383	5.0866	5.4545	0.1	4364.3
7384	5.0866	5.2727	0.1	4433.9
7385	5.0866	5.0909	0.1	4515.9
7386	5.0866	4.9091	0.1	4608.4
7387	5.0866	4.7273	0.1	4708.3
7388	5.0866	4.5455	0.1	4812.6
7389	5.0866	4.3636	0.1	4917.8
7390	5.0866	4.1818	0.1	5020.5
7391	5.0866	4.	0.1	5117.3
7392	5.0866	3.8182	0.1	5204.8
7393	5.0866	3.6364	0.1	5280.
7394	5.0866	3.4545	0.1	5339.7
7395	5.0866	3.2727	0.1	5381.2
7396	5.0866	3.0909	0.1	5402.5
7397	5.0866	2.9091	0.1	5402.5
7398	5.0866	2.7273	0.1	5381.2
7399	5.0866	2.5455	0.1	5339.7
7400	5.0866	2.3636	0.1	5280.
7401	5.0866	2.1818	0.1	5204.8
7402	5.0866	2.	0.1	5117.3
7403	5.0866	1.8182	0.1	5020.5
7404	5.0866	1.6364	0.1	4917.8
7405	5.0866	1.4545	0.1	4812.6
7406	5.0866	1.2727	0.1	4708.3
7407	5.0866	1.0909	0.1	4608.4
7408	5.0866	0.90909	0.1	4515.9
7409	5.0866	0.72727	0.1	4433.9
7410	5.0866	0.54545	0.1	4364.3
7411	5.0866	0.36364	0.1	4309.
7412	5.0866	0.18182	0.1	4269.4
7413	4.9029	5.8182	0.1	4168.5
7414	4.9029	5.6364	0.1	4217.4
7415	4.9029	5.4545	0.1	4286.5
7416	4.9029	5.2727	0.1	4374.3
7417	4.9029	5.0909	0.1	4478.9
7418	4.9029	4.9091	0.1	4597.4
7419	4.9029	4.7273	0.1	4726.5
7420	4.9029	4.5455	0.1	4862.
7421	4.9029	4.3636	0.1	4999.2
7422	4.9029	4.1818	0.1	5133.7
7423	4.9029	4.	0.1	5261.
7424	4.9029	3.8182	0.1	5376.7
7425	4.9029	3.6364	0.1	5476.3
7426	4.9029	3.4545	0.1	5555.6
7427	4.9029	3.2727	0.1	5610.9
7428	4.9029	3.0909	0.1	5639.4
7429	4.9029	2.9091	0.1	5639.4
7430	4.9029	2.7273	0.1	5610.9
7431	4.9029	2.5455	0.1	5555.6
7432	4.9029	2.3636	0.1	5476.3
7433	4.9029	2.1818	0.1	5376.7
7434	4.9029	2.	0.1	5261.
7435	4.9029	1.8182	0.1	5133.7
7436	4.9029	1.6364	0.1	4999.2
7437	4.9029	1.4545	0.1	4862.
7438	4.9029	1.2727	0.1	4726.5
7439	4.9029	1.0909	0.1	4597.4
7440	4.9029	0.90909	0.1	4478.9
7441	4.9029	0.72727	0.1	4374.3
7442	4.9029	0.54545	0.1	4286.5
7443	4.9029	0.36364	0.1	4217.4
7444	4.9029	0.18182	0.1	4168.5
7445	4.7193	5.8182	0.1	4030.1
7446	4.7193	5.6364	0.1	4089.5
7447	4.7193	5.4545	0.1	4174.9
7448	4.7193	5.2727	0.1	4284.7
7449	4.7193	5.0909	0.1	4416.9
7450	4.7193	4.9091	0.1	4568.2
7451	4.7193	4.7273	0.1	4734.1
7452	4.7193	4.5455	0.1	4909.4
7453	4.7193	4.3636	0.1	5088.
7454	4.7193	4.1818	0.1	5263.7
7455	4.7193	4.	0.1	5430.5
7456	4.7193	3.8182	0.1	5582.6
7457	4.7193	3.6364	0.1	5714.
7458	4.7193	3.4545	0.1	5818.9
7459	4.7193	3.2727	0.1	5892.1
7460	4.7193	3.0909	0.1	5929.8
7461	4.7193	2.9091	0.1	5929.8
7462	4.7193	2.7273	0.1	5892.1
7463	4.7193	2.5455	0.1	5818.9
7464	4.7193	2.3636	0.1	5714.
7465	4.7193	2.1818	0.1	5582.6
7466	4.7193	2.	0.1	5430.5
7467	4.7193	1.8182	0.1	5263.7
7468	4.7193	1.6364	0.1	5088.
7469	4.7193	1.4545	0.1	4909.4
7470	4.7193	1.2727	0.1	4734.1
7471	4.7193	1.0909	0.1	4568.2
7472	4.7193	0.90909	0.1	4416.9
7473	4.7193	0.72727	0.1	4284.7
7474	4.7193	0.54545	0.1	4174.9
7475	4.7193	0.36364	0.1	4089.5
7476	4.7193	0.18182	0.1	4030.1
7477	4.5357	5.8182	0.1	3847.1
7478	4.5357	5.6364	0.1	3918.1
7479	4.5357	5.4545	0.1	4022.5
7480	4.5357	5.2727	0.1	4158.6
7481	4.5357	5.0909	0.1	4324.4
7482	4.5357	4.9091	0.1	4516.3
7483	4.5357	4.7273	0.1	4728.9
7484	4.5357	4.5455	0.1	4955.1
7485	4.5357	4.3636	0.1	5187.
7486	4.5357	4.1818	0.1	5416.2
7487	4.5357	4.	0.1	5634.5
7488	4.5357	3.8182	0.1	5834.
7489	4.5357	3.6364	0.1	6006.4
7490	4.5357	3.4545	0.1	6144.
7491	4.5357	3.2727	0.1	6239.9
7492	4.5357	3.0909	0.1	6289.1
7493	4.5357	2.9091	0.1	6289.1
7494	4.5357	2.7273	0.1	6239.9
7495	4.5357	2.5455	0.1	6144.
7496	4.5357	2.3636	0.1	6006.4
7497	4.5357	2.1818	0.1	5834.
7498	4.5357	2.	0.1	5634.5
7499	4.5357	1.8182	0.1	5416.2
7500	4.5357	1.6364	0.1	5187.
7501	4.5357	1.4545	0.1	4955.1
7502	4.5357	1.2727	0.1	4728.9
7503	4.5357	1.0909	0.1	4516.3
7504	4.5357	0.90909	0.1	4324.4
7505	4.5357	0.72727	0.1	4158.6
7506	4.5357	0.54545	0.1	4022.5
7507	4.5357	0.36364	0.1	3918.1
7508	4.5357	0.18182	0.1	3847.1
7509	4.352	5.8182	0.1	3612.4
7510	4.352	5.6364	0.1	3695.7
7511	4.352	5.4545	0.1	3821.7
7512	4.352	5.2727	0.1	3988.7
7513	4.352	5.0909	0.1	4195.1
7514	4.352	4.9091	0.1	4437.
7515	4.352	4.7273	0.1	4708.1
7516	4.352	4.5455	0.1	4999.7
7517	4.352	4.3636	0.1	5300.9
7518	4.352	4.1818	0.1	5600.2
7519	4.352	4.	0.1	5886.
7520	4.352	3.8182	0.1	6147.1
7521	4.352	3.6364	0.1	6372.1
7522	4.352	3.4545	0.1	6550.5
7523	4.352	3.2727	0.1	6673.7
7524	4.352	3.0909	0.1	6736.4
7525	4.352	2.9091	0.1	6736.4
7526	4.352	2.7273	0.1	6673.7
7527	4.352	2.5455	0.1	6550.5
7528	4.352	2.3636	0.1	6372.1
7529	4.352	2.1818	0.1	6147.1
7530	4.352	2.	0.1	5886.
7531	4.352	1.8182	0.1	5600.2
7532	4.352	1.6364	0.1	5300.9
7533	4.352	1.4545	0.1	4999.7
7534	4.352	1.2727	0.1	4708.1
7535	4.352	1.0909	0.1	4437.
7536	4.352	0.90909	0.1	4195.1
7537	4.352	0.72727	0.1	3988.7
7538	4.352	0.54545	0.1	3821.7
7539	4.352	0.36364	0.1	3695.7
7540	4.352	0.18182	0.1	3612.4
7541	4.1684	5.8182	0.1	3318.9
7542	4.1684	5.6364	0.1	3415.1
7543	4.1684	5.4545	0.1	3565.6
7544	4.1684	5.2727	0.1	3768.5
7545	4.1684	5.0909	0.1	4022.8
7546	4.1684	4.9091	0.1	4325.2
7547	4.1684	4.7273	0.1	4669.2
7548	4.1684	4.5455	0.1	5044.5
7549	4.1684	4.3636	0.1	5436.8
7550	4.1684	4.1818	0.1	5829.4
7551	4.1684	4.	0.1	6205.2
7552	4.1684	3.8182	0.1	6547.
7553	4.1684	3.6364	0.1	6838.3
7554	4.1684	3.4545	0.1	7064.8
7555	4.1684	3.2727	0.1	7217.9
7556	4.1684	3.0909	0.1	7294.4
7557	4.1684	2.9091	0.1	7294.4
7558	4.1684	2.7273	0.1	7217.9
7559	4.1684	2.5455	0.1	7064.8
7560	4.1684	2.3636	0.1	6838.3
7561	4.1684	2.1818	0.1	6547.
7562	4.1684	2.	0.1	6205.2
7563	4.1684	1.8182	0.1	5829.4
7564	4.1684	1.6364	0.1	5436.8
7565	4.1684	1.4545	0.1	5044.5
7566	4.1684	1.2727	0.1	4669.2
7567	4.1684	1.0909	0.1	4325.2
7568	4.1684	0.90909	0.1	4022.8
7569	4.1684	0.72727	0.1	3768.5
7570	4.1684	0.54545	0.1	3565.6
7571	4.1684	0.36364	0.1	3415.1
7572	4.1684	0.18182	0.1	3318.9
7573	3.9848	5.8182	0.1	2961.3
7574	3.9848	5.6364	0.1	3071.
7575	3.9848	5.4545	0.1	3249.4
7576	3.9848	5.2727	0.1	3493.5
7577	3.9848	5.0909	0.1	3803.1
7578	3.9848	4.9091	0.1	4176.3
7579	3.9848	4.7273	0.1	4608.9
7580	3.9848	4.5455	0.1	5091.1
7581	3.9848	4.3636	0.1	5605.
7582	3.9848	4.1818	0.1	6125.9
7583	3.9848	4.	0.1	6625.4
7584	3.9848	3.8182	0.1	7074.9
7585	3.9848	3.6364	0.1	7447.1
7586	3.9848	3.4545	0.1	7723.6
7587	3.9848	3.2727	0.1	7901.
7588	3.9848	3.0909	0.1	7986.1
7589	3.9848	2.9091	0.1	7986.1
7590	3.9848	2.7273	0.1	7901.
7591	3.9848	2.5455	0.1	7723.6
7592	3.9848	2.3636	0.1	7447.1
7593	3.9848	2.1818	0.1	7074.9
7594	3.9848	2.	0.1	6625.4
7595	3.9848	1.8182	0.1	6125.9
7596	3.9848	1.6364	0.1	5605.
7597	3.9848	1.4545	0.1	5091.1
7598	3.9848	1.2727	0.1	4608.9
7599	3.9848	1.0909	0.1	4176.3
7600	3.9848	0.90909	0.1	3803.1
7601	3.9848	0.72727	0.1	3493.5
7602	3.9848	0.54545	0.1	3249.4
7603	3.9848	0.36364	0.1	3071.
7604	3.9848	0.18182	0.1	2961.3
7605	3.8012	5.8182	0.1	2536.3
7606	3.8012	5.6364	0.1	2662.3
7607	3.8012	5.4545	0.1	2874.2
7608	3.8012	5.2727	0.1	3165.7
7609	3.8012	5.0909	0.1	3536.1
7610	3.8012	4.9091	0.1	3987.4
7611	3.8012	4.7273	0.1	4522.3
7612	3.8012	4.5455	0.1	5138.4
7613	3.8012	4.3636	0.1	5819.6
7614	3.8012	4.1818	0.1	6526.2
7615	3.8012	4.	0.1	7206.7
7616	3.8012	3.8182	0.1	7803.4
7617	3.8012	3.6364	0.1	8266.7
7618	3.8012	3.4545	0.1	8576.1
7619	3.8012	3.2727	0.1	8750.6
7620	3.8012	3.0909	0.1	8826.2
7621	3.8012	2.9091	0.1	8826.2
7622	3.8012	2.7273	0.1	8750.6
7623	3.8012	2.5455	0.1	8576.1
7624	3.8012	2.3636	0.1	8266.7
7625	3.8012	2.1818	0.1	7803.4
7626	3.8012	2.	0.1	7206.7
7627	3.8012	1.8182	0.1	6526.2
7628	3.8012	1.6364	0.1	5819.7
7629	3.8012	1.4545	0.1	5138.4
7630	3.8012	1.2727	0.1	4522.4
7631	3.8012	1.0909	0.1	3987.4
7632	3.8012	0.90909	0.1	3536.1
7633	3.8012	0.72727	0.1	3165.7
7634	3.8012	0.54545	0.1	2874.2
7635	3.8012	0.36364	0.1	2662.3
7636	3.8012	0.18182	0.1	2536.3
7637	3.6175	5.8182	0.1	2045.9
7638	3.6175	5.6364	0.1	2197.5
7639	3.6175	5.4545	0.1	2455.2
7640	3.6175	5.2727	0.1	2801.3
7641	3.6175	5.0909	0.1	3233.3
7642	3.6175	4.9091	0.1	3760.6
7643	3.6175	4.7273	0.1	4401.2
7644	3.6175	4.5455	0.1	5179.3
7645	3.6175	4.3636	0.1	6091.4
7646	3.6175	4.1818	0.1	7095.2
7647	3.6175	4.	0.1	8079.1
7648	3.6175	3.8182	0.1	8880.3
7649	3.6175	3.6364	0.1	9417.9
7650	3.6175	3.4545	0.1	9680.5
7651	3.6175	3.2727	0.1	9776.2
7652	3.6175	3.0909	0.1	9801.1
7653	3.6175	2.9091	0.1	9801.1
7654	3.6175	2.7273	0.1	9776.3
7655	3.6175	2.5455	0.1	9680.5
7656	3.6175	2.3636	0.1	9417.9
7657	3.6175	2.1818	0.1	8880.3
7658	3.6175	2.	0.1	8079.1
7659	3.6175	1.8182	0.1	7095.2
7660	3.6175	1.6364	0.1	6091.4
7661	3.6175	1.4545	0.1	5179.3
7662	3.6175	1.2727	0.1	4401.2
7663	3.6175	1.0909	0.1	3760.6
7664	3.6175	0.90909	0.1	3233.3
7665	3.6175	0.72727	0.1	2801.3
7666	3.6175	0.54545	0.1	2455.2
7667	3.6175	0.36364	0.1	2197.5
7668	3.6175	0.18182	0.1	2045.9
7669	3.4339	5.8182	0.1	1498.9
7670	3.4339	5.6364	0.1	1708.2
7671	3.4339	5.4545	0.1	2035.7
7672	3.4339	5.2727	0.1	2441.6
7673	3.4339	5.0909	0.1	2925.8
7674	3.4339	4.9091	0.1	3509.5
7675	3.4339	4.7273	0.1	4235.8
7676	3.4339	4.5455	0.1	5166.7
7677	3.4339	4.3636	0.1	6407.7
7678	3.4339	4.1818	0.1	7978.7
7679	3.4339	4.	0.1	9487.6
7680	3.4339	3.8182	0.1	10687
7681	3.4339	3.6364	0.1	11100
7682	3.4339	3.4545	0.1	11067
7683	3.4339	3.2727	0.1	10926
7684	3.4339	3.0909	0.1	10833
7685	3.4339	2.9091	0.1	10833
7686	3.4339	2.7273	0.1	10926
7687	3.4339	2.5455	0.1	11067
7688	3.4339	2.3636	0.1	11100
7689	3.4339	2.1818	0.1	10687
7690	3.4339	2.	0.1	9487.6
7691	3.4339	1.8182	0.1	7978.7
7692	3.4339	1.6364	0.1	6407.7
7693	3.4339	1.4545	0.1	5166.7
7694	3.4339	1.2727	0.1	4235.8
7695	3.4339	1.0909	0.1	3509.5
7696	3.4339	0.90909	0.1	2925.8
7697	3.4339	0.72727	0.1	2441.6
7698	3.4339	0.54545	0.1	2035.7
7699	3.4339	0.36364	0.1	1708.2
7700	3.4339	0.18182	0.1	1498.9
7701	3.2503	5.8182	0.1	957.41
7702	3.2503	5.6364	0.1	1325.4
7703	3.2503	5.4545	0.1	1756.5
7704	3.2503	5.2727	0.1	2227.2
7705	3.2503	5.0909	0.1	2758.4
7706	3.2503	4.9091	0.1	3386.5
7707	3.2503	4.7273	0.1	4169.
7708	3.2503	4.5455	0.1	5235.
7709	3.2503	4.3636	0.1	6779.8
7710	3.2503	4.1818	0.1	9843.2
7711	3.2503	4.	0.1	13808
7712	3.2503	3.8182	0.1	14188
7713	3.2503	3.6364	0.1	13485
7714	3.2503	3.4545	0.1	12560
7715	3.2503	3.2727	0.1	12014
7716	3.2503	3.0909	0.1	11751
7717	3.2503	2.9091	0.1	11751
7718	3.2503	2.7273	0.1	12014
7719	3.2503	2.5455	0.1	12560
7720	3.2503	2.3636	0.1	13485
7721	3.2503	2.1818	0.1	14188
7722	3.2503	2.	0.1	13808
7723	3.2503	1.8182	0.1	9843.2
7724	3.2503	1.6364	0.1	6779.8
7725	3.2503	1.4545	0.1	5235.
7726	3.2503	1.2727	0.1	4169.
7727	3.2503	1.0909	0.1	3386.5
7728	3.2503	0.90909	0.1	2758.4
7729	3.2503	0.72727	0.1	2227.2
7730	3.2503	0.54545	0.1	1756.5
7731	3.2503	0.36364	0.1	1325.4
7732	3.2503	0.18182	0.1	957.41
7733	0.18125	0.18182	0.1	3835.5
7734	0.18125	0.36364	0.1	4450.
7735	0.18125	0.54545	0.1	5150.1
7736	0.18125	0.72727	0.1	5688.4
7737	0.18125	0.90909	0.1	6097.7
7738	0.18125	1.0909	0.1	6409.9
7739	0.18125	1.2727	0.1	6651.5
7740	0.18125	1.4545	0.1	6840.2
7741	0.18125	1.6364	0.1	6988.2
7742	0.18125	1.8182	0.1	7104.3
7743	0.18125	2.	0.1	7194.6
7744	0.18125	2.1818	0.1	7264.1
7745	0.18125	2.3636	0.1	7316.
7746	0.18125	2.5455	0.1	7353.1
7747	0.18125	2.7273	0.1	7376.9
7748	0.18125	2.9091	0.1	7388.6
7749	0.18125	3.0909	0.1	7388.6
7750	0.18125	3.2727	0.1	7376.9
7751	0.18125	3.4545	0.1	7353.1
7752	0.18125	3.6364	0.1	7316.
7753	0.18125	3.8182	0.1	7264.1
7754	0.18125	4.	0.1	7194.6
7755	0.18125	4.1818	0.1	7104.3
7756	0.18125	4.3636	0.1	6988.2
7757	0.18125	4.5455	0.1	6840.2
7758	0.18125	4.7273	0.1	6651.5
7759	0.18125	4.9091	0.1	6409.9
7760	0.18125	5.0909	0.1	6097.7
7761	0.18125	5.2727	0.1	5688.4
7762	0.18125	5.4545	0.1	5150.1
7763	0.18125	5.6364	0.1	4450.
7764	0.18125	5.8182	0.1	3835.5
7765	0.3625	0.18182	0.1	4863.9
7766	0.3625	0.36364	0.1	5015.3
7767	0.3625	0.54545	0.1	5331.2
7768	0.3625	0.72727	0.1	5680.9
7769	0.3625	0.90909	0.1	6006.2
7770	0.3625	1.0909	0.1	6289.6
7771	0.3625	1.2727	0.1	6530.3
7772	0.3625	1.4545	0.1	6732.5
7773	0.3625	1.6364	0.1	6901.4
7774	0.3625	1.8182	0.1	7041.5
7775	0.3625	2.	0.1	7156.3
7776	0.3625	2.1818	0.1	7248.7
7777	0.3625	2.3636	0.1	7320.7
7778	0.3625	2.5455	0.1	7373.7
7779	0.3625	2.7273	0.1	7408.6
7780	0.3625	2.9091	0.1	7426.
7781	0.3625	3.0909	0.1	7426.
7782	0.3625	3.2727	0.1	7408.6
7783	0.3625	3.4545	0.1	7373.7
7784	0.3625	3.6364	0.1	7320.7
7785	0.3625	3.8182	0.1	7248.7
7786	0.3625	4.	0.1	7156.3
7787	0.3625	4.1818	0.1	7041.5
7788	0.3625	4.3636	0.1	6901.4
7789	0.3625	4.5455	0.1	6732.5
7790	0.3625	4.7273	0.1	6530.3
7791	0.3625	4.9091	0.1	6289.6
7792	0.3625	5.0909	0.1	6006.2
7793	0.3625	5.2727	0.1	5680.9
7794	0.3625	5.4545	0.1	5331.2
7795	0.3625	5.6364	0.1	5015.3
7796	0.3625	5.8182	0.1	4863.9
7797	0.54375	0.18182	0.1	5250.4
7798	0.54375	0.36364	0.1	5273.7
7799	0.54375	0.54545	0.1	5418.5
7800	0.54375	0.72727	0.1	5621.4
7801	0.54375	0.90909	0.1	5848.8
7802	0.54375	1.0909	0.1	6076.5
7803	0.54375	1.2727	0.1	6291.4
7804	0.54375	1.4545	0.1	6487.3
7805	0.54375	1.6364	0.1	6662.
7806	0.54375	1.8182	0.1	6814.8
7807	0.54375	2.	0.1	6945.8
7808	0.54375	2.1818	0.1	7055.3
7809	0.54375	2.3636	0.1	7143.2
7810	0.54375	2.5455	0.1	7209.5
7811	0.54375	2.7273	0.1	7253.9
7812	0.54375	2.9091	0.1	7276.2
7813	0.54375	3.0909	0.1	7276.2
7814	0.54375	3.2727	0.1	7253.9
7815	0.54375	3.4545	0.1	7209.5
7816	0.54375	3.6364	0.1	7143.2
7817	0.54375	3.8182	0.1	7055.3
7818	0.54375	4.	0.1	6945.8
7819	0.54375	4.1818	0.1	6814.8
7820	0.54375	4.3636	0.1	6662.
7821	0.54375	4.5455	0.1	6487.3
7822	0.54375	4.7273	0.1	6291.4
7823	0.54375	4.9091	0.1	6076.5
7824	0.54375	5.0909	0.1	5848.8
7825	0.54375	5.2727	0.1	5621.4
7826	0.54375	5.4545	0.1	5418.5
7827	0.54375	5.6364	0.1	5273.7
7828	0.54375	5.8182	0.1	5250.4
7829	0.725	0.18182	0.1	5414.6
7830	0.725	0.36364	0.1	5408.1
7831	0.725	0.54545	0.1	5491.
7832	0.725	0.72727	0.1	5622.7
7833	0.725	0.90909	0.1	5788.5
7834	0.725	1.0909	0.1	5973.
7835	0.725	1.2727	0.1	6163.2
7836	0.725	1.4545	0.1	6349.9
7837	0.725	1.6364	0.1	6526.4
7838	0.725	1.8182	0.1	6688.5
7839	0.725	2.	0.1	6833.1
7840	0.725	2.1818	0.1	6957.7
7841	0.725	2.3636	0.1	7060.4
7842	0.725	2.5455	0.1	7139.3
7843	0.725	2.7273	0.1	7192.8
7844	0.725	2.9091	0.1	7219.9
7845	0.725	3.0909	0.1	7219.9
7846	0.725	3.2727	0.1	7192.8
7847	0.725	3.4545	0.1	7139.3
7848	0.725	3.6364	0.1	7060.4
7849	0.725	3.8182	0.1	6957.7
7850	0.725	4.	0.1	6833.1
7851	0.725	4.1818	0.1	6688.5
7852	0.725	4.3636	0.1	6526.4
7853	0.725	4.5455	0.1	6349.9
7854	0.725	4.7273	0.1	6163.2
7855	0.725	4.9091	0.1	5973.
7856	0.725	5.0909	0.1	5788.5
7857	0.725	5.2727	0.1	5622.7
7858	0.725	5.4545	0.1	5491.
7859	0.725	5.6364	0.1	5408.1
7860	0.725	5.8182	0.1	5414.6
7861	0.90625	0.18182	0.1	5427.7
7862	0.90625	0.36364	0.1	5417.3
7863	0.90625	0.54545	0.1	5479.1
7864	0.90625	0.72727	0.1	5581.9
7865	0.90625	0.90909	0.1	5718.3
7866	0.90625	1.0909	0.1	5879.6
7867	0.90625	1.2727	0.1	6056.1
7868	0.90625	1.4545	0.1	6238.7
7869	0.90625	1.6364	0.1	6419.6
7870	0.90625	1.8182	0.1	6592.2
7871	0.90625	2.	0.1	6751.1
7872	0.90625	2.1818	0.1	6891.7
7873	0.90625	2.3636	0.1	7009.9
7874	0.90625	2.5455	0.1	7102.1
7875	0.90625	2.7273	0.1	7165.4
7876	0.90625	2.9091	0.1	7197.6
7877	0.90625	3.0909	0.1	7197.6
7878	0.90625	3.2727	0.1	7165.4
7879	0.90625	3.4545	0.1	7102.1
7880	0.90625	3.6364	0.1	7009.9
7881	0.90625	3.8182	0.1	6891.7
7882	0.90625	4.	0.1	6751.1
7883	0.90625	4.1818	0.1	6592.2
7884	0.90625	4.3636	0.1	6419.6
7885	0.90625	4.5455	0.1	6238.7
7886	0.90625	4.7273	0.1	6056.1
7887	0.90625	4.9091	0.1	5879.6
7888	0.90625	5.0909	0.1	5718.3
7889	0.90625	5.2727	0.1	5581.9
7890	0.90625	5.4545	0.1	5479.1
7891	0.90625	5.6364	0.1	5417.3
7892	0.90625	5.8182	0.1	5427.7
7893	1.0875	0.18182	0.1	5341.
7894	1.0875	0.36364	0.1	5339.1
7895	1.0875	0.54545	0.1	5401.2
7896	1.0875	0.72727	0.1	5500.2
7897	1.0875	0.90909	0.1	5631.8
7898	1.0875	1.0909	0.1	5790.1
7899	1.0875	1.2727	0.1	5968.1
7900	1.0875	1.4545	0.1	6157.8
7901	1.0875	1.6364	0.1	6351.
7902	1.0875	1.8182	0.1	6540.2
7903	1.0875	2.	0.1	6718.2
7904	1.0875	2.1818	0.1	6878.7
7905	1.0875	2.3636	0.1	7015.6
7906	1.0875	2.5455	0.1	7123.7
7907	1.0875	2.7273	0.1	7198.5
7908	1.0875	2.9091	0.1	7236.7
7909	1.0875	3.0909	0.1	7236.7
7910	1.0875	3.2727	0.1	7198.5
7911	1.0875	3.4545	0.1	7123.7
7912	1.0875	3.6364	0.1	7015.6
7913	1.0875	3.8182	0.1	6878.7
7914	1.0875	4.	0.1	6718.2
7915	1.0875	4.1818	0.1	6540.2
7916	1.0875	4.3636	0.1	6351.
7917	1.0875	4.5455	0.1	6157.8
7918	1.0875	4.7273	0.1	5968.1
7919	1.0875	4.9091	0.1	5790.1
7920	1.0875	5.0909	0.1	5631.8
7921	1.0875	5.2727	0.1	5500.2
7922	1.0875	5.4545	0.1	5401.2
7923	1.0875	5.6364	0.1	5339.1
7924	1.0875	5.8182	0.1	5341.
7925	1.2687	0.18182	0.1	5172.5
7926	1.2687	0.36364	0.1	5184.6
7927	1.2687	0.54545	0.1	5258.5
7928	1.2687	0.72727	0.1	5369.7
7929	1.2687	0.90909	0.1	5514.1
7930	1.2687	1.0909	0.1	5687.3
7931	1.2687	1.2727	0.1	5883.
7932	1.2687	1.4545	0.1	6093.8
7933	1.2687	1.6364	0.1	6311.3
7934	1.2687	1.8182	0.1	6527.1
7935	1.2687	2.	0.1	6732.8
7936	1.2687	2.1818	0.1	6920.3
7937	1.2687	2.3636	0.1	7081.7
7938	1.2687	2.5455	0.1	7210.
7939	1.2687	2.7273	0.1	7299.
7940	1.2687	2.9091	0.1	7344.7
7941	1.2687	3.0909	0.1	7344.7
7942	1.2687	3.2727	0.1	7299.
7943	1.2687	3.4545	0.1	7210.
7944	1.2687	3.6364	0.1	7081.7
7945	1.2687	3.8182	0.1	6920.3
7946	1.2687	4.	0.1	6732.8
7947	1.2687	4.1818	0.1	6527.1
7948	1.2687	4.3636	0.1	6311.3
7949	1.2687	4.5455	0.1	6093.8
7950	1.2687	4.7273	0.1	5883.
7951	1.2687	4.9091	0.1	5687.3
7952	1.2687	5.0909	0.1	5514.1
7953	1.2687	5.2727	0.1	5369.7
7954	1.2687	5.4545	0.1	5258.5
7955	1.2687	5.6364	0.1	5184.6
7956	1.2687	5.8182	0.1	5172.5
7957	1.45	0.18182	0.1	4930.5
7958	1.45	0.36364	0.1	4960.
7959	1.45	0.54545	0.1	5053.8
7960	1.45	0.72727	0.1	5188.7
7961	1.45	0.90909	0.1	5360.6
7962	1.45	1.0909	0.1	5564.7
7963	1.45	1.2727	0.1	5794.8
7964	1.45	1.4545	0.1	6042.9
7965	1.45	1.6364	0.1	6299.9
7966	1.45	1.8182	0.1	6556.3
7967	1.45	2.	0.1	6802.
7968	1.45	2.1818	0.1	7026.9
7969	1.45	2.3636	0.1	7221.
7970	1.45	2.5455	0.1	7375.2
7971	1.45	2.7273	0.1	7482.2
7972	1.45	2.9091	0.1	7536.9
7973	1.45	3.0909	0.1	7536.9
7974	1.45	3.2727	0.1	7482.2
7975	1.45	3.4545	0.1	7375.2
7976	1.45	3.6364	0.1	7221.
7977	1.45	3.8182	0.1	7026.9
7978	1.45	4.	0.1	6802.
7979	1.45	4.1818	0.1	6556.3
7980	1.45	4.3636	0.1	6299.9
7981	1.45	4.5455	0.1	6042.9
7982	1.45	4.7273	0.1	5794.8
7983	1.45	4.9091	0.1	5564.7
7984	1.45	5.0909	0.1	5360.6
7985	1.45	5.2727	0.1	5188.7
7986	1.45	5.4545	0.1	5053.8
7987	1.45	5.6364	0.1	4960.
7988	1.45	5.8182	0.1	4930.5
7989	1.6313	0.18182	0.1	4616.7
7990	1.6313	0.36364	0.1	4666.
7991	1.6313	0.54545	0.1	4786.1
7992	1.6313	0.72727	0.1	4954.5
7993	1.6313	0.90909	0.1	5166.9
7994	1.6313	1.0909	0.1	5417.6
7995	1.6313	1.2727	0.1	5699.5
7996	1.6313	1.4545	0.1	6003.5
7997	1.6313	1.6364	0.1	6319.1
7998	1.6313	1.8182	0.1	6634.4
7999	1.6313	2.	0.1	6936.7
8000	1.6313	2.1818	0.1	7213.1
8001	1.6313	2.3636	0.1	7450.4
8002	1.6313	2.5455	0.1	7637.3
8003	1.6313	2.7273	0.1	7765.5
8004	1.6313	2.9091	0.1	7830.5
8005	1.6313	3.0909	0.1	7830.5
8006	1.6313	3.2727	0.1	7765.5
8007	1.6313	3.4545	0.1	7637.3
8008	1.6313	3.6364	0.1	7450.4
8009	1.6313	3.8182	0.1	7213.1
8010	1.6313	4.	0.1	6936.7
8011	1.6313	4.1818	0.1	6634.4
8012	1.6313	4.3636	0.1	6319.1
8013	1.6313	4.5455	0.1	6003.5
8014	1.6313	4.7273	0.1	5699.5
8015	1.6313	4.9091	0.1	5417.6
8016	1.6313	5.0909	0.1	5166.9
8017	1.6313	5.2727	0.1	4954.5
8018	1.6313	5.4545	0.1	4786.1
8019	1.6313	5.6364	0.1	4666.
8020	1.6313	5.8182	0.1	4616.7
8021	1.8125	0.18182	0.1	4229.9
8022	1.8125	0.36364	0.1	4300.9
8023	1.8125	0.54545	0.1	4453.4
8024	1.8125	0.72727	0.1	4665.
8025	1.8125	0.90909	0.1	4930.4
8026	1.8125	1.0909	0.1	5243.3
8027	1.8125	1.2727	0.1	5595.8
8028	1.8125	1.4545	0.1	5977.7
8029	1.8125	1.6364	0.1	6375.8
8030	1.8125	1.8182	0.1	6774.6
8031	1.8125	2.	0.1	7156.6
8032	1.8125	2.1818	0.1	7503.
8033	1.8125	2.3636	0.1	7795.8
8034	1.8125	2.5455	0.1	8020.9
8035	1.8125	2.7273	0.1	8171.1
8036	1.8125	2.9091	0.1	8245.5
8037	1.8125	3.0909	0.1	8245.5
8038	1.8125	3.2727	0.1	8171.1
8039	1.8125	3.4545	0.1	8020.9
8040	1.8125	3.6364	0.1	7795.8
8041	1.8125	3.8182	0.1	7503.
8042	1.8125	4.	0.1	7156.6
8043	1.8125	4.1818	0.1	6774.6
8044	1.8125	4.3636	0.1	6375.8
8045	1.8125	4.5455	0.1	5977.7
8046	1.8125	4.7273	0.1	5595.8
8047	1.8125	4.9091	0.1	5243.3
8048	1.8125	5.0909	0.1	4930.4
8049	1.8125	5.2727	0.1	4665.
8050	1.8125	5.4545	0.1	4453.4
8051	1.8125	5.6364	0.1	4300.9
8052	1.8125	5.8182	0.1	4229.9
8053	1.9937	0.18182	0.1	3767.8
8054	1.9937	0.36364	0.1	3863.4
8055	1.9937	0.54545	0.1	4055.7
8056	1.9937	0.72727	0.1	4320.6
8057	1.9937	0.90909	0.1	4651.2
8058	1.9937	1.0909	0.1	5041.3
8059	1.9937	1.2727	0.1	5484.1
8060	1.9937	1.4545	0.1	5969.8
8061	1.9937	1.6364	0.1	6482.5
8062	1.9937	1.8182	0.1	7000.2
8063	1.9937	2.	0.1	7495.3
8064	1.9937	2.1818	0.1	7937.6
8065	1.9937	2.3636	0.1	8298.
8066	1.9937	2.5455	0.1	8559.9
8067	1.9937	2.7273	0.1	8724.
8068	1.9937	2.9091	0.1	8801.4
8069	1.9937	3.0909	0.1	8801.4
8070	1.9937	3.2727	0.1	8724.
8071	1.9937	3.4545	0.1	8559.9
8072	1.9937	3.6364	0.1	8298.
8073	1.9937	3.8182	0.1	7937.6
8074	1.9937	4.	0.1	7495.3
8075	1.9937	4.1818	0.1	7000.2
8076	1.9937	4.3636	0.1	6482.5
8077	1.9937	4.5455	0.1	5969.8
8078	1.9937	4.7273	0.1	5484.1
8079	1.9937	4.9091	0.1	5041.3
8080	1.9937	5.0909	0.1	4651.2
8081	1.9937	5.2727	0.1	4320.6
8082	1.9937	5.4545	0.1	4055.7
8083	1.9937	5.6364	0.1	3863.4
8084	1.9937	5.8182	0.1	3767.8
8085	2.175	0.18182	0.1	3229.1
8086	2.175	0.36364	0.1	3355.8
8087	2.175	0.54545	0.1	3599.1
8088	2.175	0.72727	0.1	3929.
8089	2.175	0.90909	0.1	4335.7
8090	2.175	1.0909	0.1	4814.6
8091	2.175	1.2727	0.1	5364.9
8092	2.175	1.4545	0.1	5983.7
8093	2.175	1.6364	0.1	6657.5
8094	2.175	1.8182	0.1	7350.9
8095	2.175	2.	0.1	8015.2
8096	2.175	2.1818	0.1	8589.8
8097	2.175	2.3636	0.1	9023.1
8098	2.175	2.5455	0.1	9299.4
8099	2.175	2.7273	0.1	9446.9
8100	2.175	2.9091	0.1	9507.9
8101	2.175	3.0909	0.1	9507.9
8102	2.175	3.2727	0.1	9446.9
8103	2.175	3.4545	0.1	9299.4
8104	2.175	3.6364	0.1	9023.1
8105	2.175	3.8182	0.1	8589.8
8106	2.175	4.	0.1	8015.2
8107	2.175	4.1818	0.1	7350.9
8108	2.175	4.3636	0.1	6657.5
8109	2.175	4.5455	0.1	5983.7
8110	2.175	4.7273	0.1	5364.9
8111	2.175	4.9091	0.1	4814.6
8112	2.175	5.0909	0.1	4335.7
8113	2.175	5.2727	0.1	3929.
8114	2.175	5.4545	0.1	3599.1
8115	2.175	5.6364	0.1	3355.8
8116	2.175	5.8182	0.1	3229.1
8117	2.3563	0.18182	0.1	2616.1
8118	2.3563	0.36364	0.1	2791.1
8119	2.3563	0.54545	0.1	3105.8
8120	2.3563	0.72727	0.1	3514.2
8121	2.3563	0.90909	0.1	4002.
8122	2.3563	1.0909	0.1	4571.2
8123	2.3563	1.2727	0.1	5236.1
8124	2.3563	1.4545	0.1	6019.4
8125	2.3563	1.6364	0.1	6919.2
8126	2.3563	1.8182	0.1	7897.4
8127	2.3563	2.	0.1	8851.4
8128	2.3563	2.1818	0.1	9608.6
8129	2.3563	2.3636	0.1	10087
8130	2.3563	2.5455	0.1	10289
8131	2.3563	2.7273	0.1	10342
8132	2.3563	2.9091	0.1	10345
8133	2.3563	3.0909	0.1	10345
8134	2.3563	3.2727	0.1	10342
8135	2.3563	3.4545	0.1	10289
8136	2.3563	3.6364	0.1	10087
8137	2.3563	3.8182	0.1	9608.6
8138	2.3563	4.	0.1	8851.4
8139	2.3563	4.1818	0.1	7897.4
8140	2.3563	4.3636	0.1	6919.2
8141	2.3563	4.5455	0.1	6019.4
8142	2.3563	4.7273	0.1	5236.1
8143	2.3563	4.9091	0.1	4571.2
8144	2.3563	5.0909	0.1	4002.
8145	2.3563	5.2727	0.1	3514.2
8146	2.3563	5.4545	0.1	3105.8
8147	2.3563	5.6364	0.1	2791.1
8148	2.3563	5.8182	0.1	2616.1
8149	2.5375	0.18182	0.1	1938.1
8150	2.5375	0.36364	0.1	2210.2
8151	2.5375	0.54545	0.1	2631.1
8152	2.5375	0.72727	0.1	3126.9
8153	2.5375	0.90909	0.1	3687.8
8154	2.5375	1.0909	0.1	4330.2
8155	2.5375	1.2727	0.1	5094.4
8156	2.5375	1.4545	0.1	6040.2
8157	2.5375	1.6364	0.1	7264.6
8158	2.5375	1.8182	0.1	8813.3
8159	2.5375	2.	0.1	10256
8160	2.5375	2.1818	0.1	11377
8161	2.5375	2.3636	0.1	11671
8162	2.5375	2.5455	0.1	11543
8163	2.5375	2.7273	0.1	11347
8164	2.5375	2.9091	0.1	11229
8165	2.5375	3.0909	0.1	11229
8166	2.5375	3.2727	0.1	11347
8167	2.5375	3.4545	0.1	11543
8168	2.5375	3.6364	0.1	11671
8169	2.5375	3.8182	0.1	11377
8170	2.5375	4.	0.1	10256
8171	2.5375	4.1818	0.1	8813.3
8172	2.5375	4.3636	0.1	7264.6
8173	2.5375	4.5455	0.1	6040.2
8174	2.5375	4.7273	0.1	5094.4
8175	2.5375	4.9091	0.1	4330.2
8176	2.5375	5.0909	0.1	3687.8
8177	2.5375	5.2727	0.1	3126.9
8178	2.5375	5.4545	0.1	2631.1
8179	2.5375	5.6364	0.1	2210.2
8180	2.5375	5.8182	0.1	1938.1
8181	2.7188	0.18182	0.1	1273.9
8182	2.7188	0.36364	0.1	1777.2
8183	2.7188	0.54545	0.1	2342.3
8184	2.7188	0.72727	0.1	2929.2
8185	2.7188	0.90909	0.1	3558.3
8186	2.7188	1.0909	0.1	4265.3
8187	2.7188	1.2727	0.1	5107.6
8188	2.7188	1.4545	0.1	6211.7
8189	2.7188	1.6364	0.1	7781.5
8190	2.7188	1.8182	0.1	10837
8191	2.7188	2.	0.1	14773
8192	2.7188	2.1818	0.1	14818
8193	2.7188	2.3636	0.1	13894
8194	2.7188	2.5455	0.1	12865
8195	2.7188	2.7273	0.1	12269
8196	2.7188	2.9091	0.1	11987
8197	2.7188	3.0909	0.1	11987
8198	2.7188	3.2727	0.1	12269
8199	2.7188	3.4545	0.1	12865
8200	2.7188	3.6364	0.1	13894
8201	2.7188	3.8182	0.1	14818
8202	2.7188	4.	0.1	14773
8203	2.7188	4.1818	0.1	10837
8204	2.7188	4.3636	0.1	7781.5
8205	2.7188	4.5455	0.1	6211.7
8206	2.7188	4.7273	0.1	5107.6
8207	2.7188	4.9091	0.1	4265.3
8208	2.7188	5.0909	0.1	3558.3
8209	2.7188	5.2727	0.1	2929.2
8210	2.7188	5.4545	0.1	2342.3
8211	2.7188	5.6364	0.1	1777.2
8212	2.7188	5.8182	0.1	1273.9
8213	3.0667	3.8182	0.1	19369
8214	3.0667	3.6364	0.1	15425
8215	3.0667	3.4545	0.1	13628
8216	3.0667	3.2727	0.1	12713
8217	3.0667	3.0909	0.1	12322
8218	3.0667	2.9091	0.1	12322
8219	3.0667	2.7273	0.1	12713
8220	3.0667	2.5455	0.1	13628
8221	3.0667	2.3636	0.1	15425
8222	3.0667	2.1818	0.1	19369
8223	2.9	3.8182	0.1	19610
8224	2.9	3.6364	0.1	15569
8225	2.9	3.4545	0.1	13727
8226	2.9	3.2727	0.1	12794
8227	2.9	3.0909	0.1	12396
8228	2.9	2.9091	0.1	12396
8229	2.9	2.7273	0.1	12794
8230	2.9	2.5455	0.1	13727
8231	2.9	2.3636	0.1	15569
8232	2.9	2.1818	0.1	19610
8233	3.0667	5.8182	0.1	503.59
8234	3.0667	5.6364	0.1	879.9
8235	3.0667	5.4545	0.1	1210.1
8236	3.0667	5.2727	0.1	1541.1
8237	3.0667	5.0909	0.1	1897.9
8238	3.0667	4.9091	0.1	2308.7
8239	3.0667	4.7273	0.1	2810.9
8240	3.0667	4.5455	0.1	3494.8
8241	3.0667	4.3636	0.1	4431.9
8242	3.0667	4.1818	0.1	6716.7
8243	3.0667	4.	0.1	27606
8244	2.9	4.	0.1	28643
8245	2.9	4.1818	0.1	7580.2
8246	2.9	4.3636	0.1	5285.3
8247	2.9	4.5455	0.1	4349.5
8248	2.9	4.7273	0.1	3634.4
8249	2.9	4.9091	0.1	3081.3
8250	2.9	5.0909	0.1	2599.7
8251	2.9	5.2727	0.1	2152.3
8252	2.9	5.4545	0.1	1710.6
8253	2.9	5.6364	0.1	1247.2
8254	2.9	5.8182	0.1	705.27
8255	3.0667	0.18182	0.1	503.59
8256	3.0667	0.36364	0.1	879.9
8257	3.0667	0.54545	0.1	1210.1
8258	3.0667	0.72727	0.1	1541.1
8259	3.0667	0.90909	0.1	1897.9
8260	3.0667	1.0909	0.1	2308.7
8261	3.0667	1.2727	0.1	2810.9
8262	3.0667	1.4545	0.1	3494.8
8263	3.0667	1.6364	0.1	4431.9
8264	3.0667	1.8182	0.1	6716.7
8265	3.0667	2.	0.1	27606
8266	2.9	2.	0.1	28643
8267	2.9	1.8182	0.1	7580.2
8268	2.9	1.6364	0.1	5285.3
8269	2.9	1.4545	0.1	4349.5
8270	2.9	1.2727	0.1	3634.4
8271	2.9	1.0909	0.1	3081.3
8272	2.9	0.90909	0.1	2599.7
8273	2.9	0.72727	0.1	2152.3
8274	2.9	0.54545	0.1	1710.6
8275	2.9	0.36364	0.1	1247.2
8276	2.9	0.18182	0.1	705.27
8277	3.0667	6.	0.1	65.035
8278	3.2503	6.	0.1	677.6
8279	3.4339	6.	0.1	1329.8
8280	3.6175	6.	0.1	1909.1
8281	3.8012	6.	0.1	2421.3
8282	3.9848	6.	0.1	2864.4
8283	4.1684	6.	0.1	3238.3
8284	4.352	6.	0.1	3545.9
8285	4.5357	6.	0.1	3793.
8286	4.7193	6.	0.1	3986.4
8287	4.9029	6.	0.1	4133.6
8288	5.0866	6.	0.1	4241.8
8289	5.2702	6.	0.1	4317.4
8290	5.4538	6.	0.1	4366.4
8291	5.6374	6.	0.1	4393.7
8292	5.8211	6.	0.1	4403.4
8293	6.0047	6.	0.1	4399.2
8294	6.1883	6.	0.1	4383.7
8295	6.3719	6.	0.1	4359.4
8296	6.5556	6.	0.1	4328.1
8297	6.7392	6.	0.1	4291.3
8298	6.9228	6.	0.1	4250.3
8299	7.1064	6.	0.1	4206.
8300	7.2901	6.	0.1	4159.1
8301	7.4737	6.	0.1	4110.4
8302	7.6573	6.	0.1	4060.1
8303	7.8409	6.	0.1	4008.9
8304	8.0246	6.	0.1	3956.8
8305	8.2082	6.	0.1	3904.2
8306	8.3918	6.	0.1	3851.3
8307	8.5754	6.	0.1	3798.2
8308	8.7591	6.	0.1	3744.9
8309	8.9427	6.	0.1	3691.7
8310	9.1263	6.	0.1	3638.4
8311	9.3099	6.	0.1	3585.3
8312	9.4936	6.	0.1	3532.4
8313	9.6772	6.	0.1	3479.5
8314	9.8608	6.	0.1	3426.9
8315	10.044	6.	0.1	3374.5
8316	10.228	6.	0.1	3322.2
8317	10.412	6.	0.1	3270.2
8318	10.595	6.	0.1	3218.5
8319	10.779	6.	0.1	3166.9
8320	10.963	6.	0.1	3115.6
8321	11.146	6.	0.1	3064.5
8322	11.33	6.	0.1	3013.6
8323	11.513	6.	0.1	2963.
8324	11.697	6.	0.1	2912.6
8325	11.881	6.	0.1	2862.4
8326	12.064	6.	0.1	2812.4
8327	12.248	6.	0.1	2762.7
8328	12.432	6.	0.1	2713.2
8329	12.615	6.	0.1	2663.9
8330	12.799	6.	0.1	2614.8
8331	12.982	6.	0.1	2566.
8332	13.166	6.	0.1	2517.3
8333	13.35	6.	0.1	2468.9
8334	13.533	6.	0.1	2420.7
8335	13.717	6.	0.1	2372.7
8336	13.901	6.	0.1	2324.9
8337	14.084	6.	0.1	2277.3
8338	14.268	6.	0.1	2229.9
8339	14.451	6.	0.1	2182.7
8340	14.635	6.	0.1	2135.8
8341	14.819	6.	0.1	2089.
8342	15.002	6.	0.1	2042.5
8343	15.186	6.	0.1	1996.1
8344	15.37	6.	0.1	1949.9
8345	15.553	6.	0.1	1904.
8346	15.737	6.	0.1	1858.2
8347	15.92	6.	0.1	1812.7
8348	16.104	6.	0.1	1767.3
8349	16.288	6.	0.1	1722.2
8350	16.471	6.	0.1	1677.2
8351	16.655	6.	0.1	1632.4
8352	16.839	6.	0.1	1587.8
8353	17.022	6.	0.1	1543.4
8354	17.206	6.	0.1	1499.2
8355	17.389	6.	0.1	1455.2
8356	17.573	6.	0.1	1411.4
8357	17.757	6.	0.1	1367.8
8358	17.94	6.	0.1	1324.3
8359	18.124	6.	0.1	1281.1
8360	18.308	6.	0.1	1238.
8361	18.491	6.	0.1	1195.1
8362	18.675	6.	0.1	1152.3
8363	18.858	6.	0.1	1109.8
8364	19.042	6.	0.1	1067.4
8365	19.226	6.	0.1	1025.2
8366	19.409	6.	0.1	983.16
8367	19.593	6.	0.1	941.29
8368	19.777	6.	0.1	899.58
8369	19.96	6.	0.1	858.03
8370	20.144	6.	0.1	816.65
8371	20.327	6.	0.1	775.42
8372	20.511	6.	0.1	734.34
8373	20.695	6.	0.1	693.42
8374	20.878	6.	0.1	652.65
8375	21.062	6.	0.1	612.03
8376	21.246	6.	0.1	571.57
8377	21.429	6.	0.1	531.26
8378	21.613	6.	0.1	491.1
8379	21.796	6.	0.1	451.11
8380	21.98	6.	0.1	411.29
8381	22.164	6.	0.1	371.66
8382	22.347	6.	0.1	332.22
8383	22.531	6.	0.1	293.02
8384	22.715	6.	0.1	254.08
8385	22.898	6.	0.1	215.47
8386	23.082	6.	0.1	177.26
8387	23.265	6.	0.1	139.59
8388	23.449	6.	0.1	102.68
8389	23.633	6.	0.1	66.917
8390	23.816	6.	0.1	33.233
8391	24.	6.	0.1	5.152
8392	24.	5.8182	0.1	6.7108
8393	24.	5.6364	0.1	7.0928
8394	24.	5.4545	0.1	7.215
8395	24.	5.2727	0.1	7.2537
8396	24.	5.0909	0.1	7.2323
8397	24.	4.9091	0.1	7.192
8398	24.	4.7273	0.1	7.1415
8399	24.	4.5455	0.1	7.0888
8400	24.	4.3636	0.1	7.0375
8401	24.	4.1818	0.1	6.9899
8402	24.	4.	0.1	6.9476
8403	24.	3.8182	0.1	6.9113
8404	24.	3.6364	0.1	6.8818
8405	24.	3.4545	0.1	6.8594
8406	24.	3.2727	0.1	6.8444
8407	24.	3.0909	0.1	6.8368
8408	24.	2.9091	0.1	6.8368
8409	24.	2.7273	0.1	6.8444
8410	24.	2.5455	0.1	6.8594
8411	24.	2.3636	0.1	6.8818
8412	24.	2.1818	0.1	6.9113
8413	24.	2.	0.1	6.9476
8414	24.	1.8182	0.1	6.9899
8415	24.	1.6364	0.1	7.0375
8416	24.	1.4545	0.1	7.0888
8417	24.	1.2727	0.1	7.1415
8418	24.	1.0909	0.1	7.192
8419	24.	0.90909	0.1	7.2323
8420	24.	0.72727	0.1	7.2537
8421	24.	0.54545	0.1	7.215
8422	24.	0.36364	0.1	7.0928
8423	24.	0.18182	0.1	6.7108
8424	1.5894e-015	0.18182	0.1	2579.7
8425	3.1789e-015	0.36364	0.1	4684.7
8426	4.7683e-015	0.54545	0.1	5719.
8427	6.3578e-015	0.72727	0.1	6361.7
8428	7.9472e-015	0.90909	0.1	6793.4
8429	9.5366e-015	1.0909	0.1	7101.1
8430	1.1126e-014	1.2727	0.1	7325.8
8431	1.2716e-014	1.4545	0.1	7491.6
8432	1.4305e-014	1.6364	0.1	7613.9
8433	1.5894e-014	1.8182	0.1	7703.4
8434	1.7484e-014	2.	0.1	7768.1
8435	1.9073e-014	2.1818	0.1	7814.1
8436	2.0663e-014	2.3636	0.1	7846.
8437	2.2252e-014	2.5455	0.1	7867.2
8438	2.3842e-014	2.7273	0.1	7880.2
8439	2.5431e-014	2.9091	0.1	7886.3
8440	2.702e-014	3.0909	0.1	7886.3
8441	2.861e-014	3.2727	0.1	7880.2
8442	3.0199e-014	3.4545	0.1	7867.2
8443	3.1789e-014	3.6364	0.1	7846.
8444	3.3378e-014	3.8182	0.1	7814.1
8445	3.4968e-014	4.	0.1	7768.1
8446	3.6557e-014	4.1818	0.1	7703.4
8447	3.8147e-014	4.3636	0.1	7613.9
8448	3.9736e-014	4.5455	0.1	7491.6
8449	4.1325e-014	4.7273	0.1	7325.8
8450	4.2915e-014	4.9091	0.1	7101.1
8451	4.4504e-014	5.0909	0.1	6793.4
8452	4.6094e-014	5.2727	0.1	6361.7
8453	4.7683e-014	5.4545	0.1	5719.
8454	4.9273e-014	5.6364	0.1	4684.7
8455	5.0862e-014	5.8182	0.1	2579.7
8456	24.	0.	0.1	5.152
8457	23.816	0.	0.1	33.233
8458	23.633	0.	0.1	66.917
8459	23.449	0.	0.1	102.68
8460	23.265	0.	0.1	139.59
8461	23.082	0.	0.1	177.26
8462	22.898	0.	0.1	215.47
8463	22.715	0.	0.1	254.08
8464	22.531	0.	0.1	293.02
8465	22.347	0.	0.1	332.22
8466	22.164	0.	0.1	371.66
8467	21.98	0.	0.1	411.29
8468	21.796	0.	0.1	451.11
8469	21.613	0.	0.1	491.1
8470	21.429	0.	0.1	531.26
8471	21.246	0.	0.1	571.57
8472	21.062	0.	0.1	612.03
8473	20.878	0.	0.1	652.65
8474	20.695	0.	0.1	693.42
8475	20.511	0.	0.1	734.34
8476	20.327	0.	0.1	775.42
8477	20.144	0.	0.1	816.65
8478	19.96	0.	0.1	858.03
8479	19.777	0.	0.1	899.58
8480	19.593	0.	0.1	941.29
8481	19.409	0.	0.1	983.16
8482	19.226	0.	0.1	1025.2
8483	19.042	0.	0.1	1067.4
8484	18.858	0.	0.1	1109.8
8485	18.675	0.	0.1	1152.3
8486	18.491	0.	0.1	1195.1
8487	18.308	0.	0.1	1238.
8488	18.124	0.	0.1	1281.1
8489	17.94	0.	0.1	1324.3
8490	17.757	0.	0.1	1367.8
8491	17.573	0.	0.1	1411.4
8492	17.389	0.	0.1	1455.2
8493	17.206	0.	0.1	1499.2
8494	17.022	0.	0.1	1543.4
8495	16.839	0.	0.1	1587.8
8496	16.655	0.	0.1	1632.4
8497	16.471	0.	0.1	1677.2
8498	16.288	0.	0.1	1722.2
8499	16.104	0.	0.1	1767.3
8500	15.92	0.	0.1	1812.7
8501	15.737	0.	0.1	1858.2
8502	15.553	0.	0.1	1904.
8503	15.37	0.	0.1	1949.9
8504	15.186	0.	0.1	1996.1
8505	15.002	0.	0.1	2042.5
8506	14.819	0.	0.1	2089.
8507	14.635	0.	0.1	2135.8
8508	14.451	0.	0.1	2182.7
8509	14.268	0.	0.1	2229.9
8510	14.084	0.	0.1	2277.3
8511	13.901	0.	0.1	2324.9
8512	13.717	0.	0.1	2372.7
8513	13.533	0.	0.1	2420.7
8514	13.35	0.	0.1	2468.9
8515	13.166	0.	0.1	2517.3
8516	12.982	0.	0.1	2566.
8517	12.799	0.	0.1	2614.8
8518	12.615	0.	0.1	2663.9
8519	12.432	0.	0.1	2713.2
8520	12.248	0.	0.1	2762.7
8521	12.064	0.	0.1	2812.4
8522	11.881	0.	0.1	2862.4
8523	11.697	0.	0.1	2912.6
8524	11.513	0.	0.1	2963.
8525	11.33	0.	0.1	3013.6
8526	11.146	0.	0.1	3064.5
8527	10.963	0.	0.1	3115.6
8528	10.779	0.	0.1	3166.9
8529	10.595	0.	0.1	3218.5
8530	10.412	0.	0.1	3270.2
8531	10.228	0.	0.1	3322.3
8532	10.044	0.	0.1	3374.5
8533	9.8608	0.	0.1	3426.9
8534	9.6772	0.	0.1	3479.5
8535	9.4936	0.	0.1	3532.4
8536	9.3099	0.	0.1	3585.3
8537	9.1263	0.	0.1	3638.4
8538	8.9427	0.	0.1	3691.7
8539	8.7591	0.	0.1	3744.9
8540	8.5754	0.	0.1	3798.2
8541	8.3918	0.	0.1	3851.3
8542	8.2082	0.	0.1	3904.2
8543	8.0246	0.	0.1	3956.8
8544	7.8409	0.	0.1	4008.9
8545	7.6573	0.	0.1	4060.1
8546	7.4737	0.	0.1	4110.4
8547	7.2901	0.	0.1	4159.1
8548	7.1064	0.	0.1	4206.
8549	6.9228	0.	0.1	4250.3
8550	6.7392	0.	0.1	4291.3
8551	6.5556	0.	0.1	4328.1
8552	6.3719	0.	0.1	4359.4
8553	6.1883	0.	0.1	4383.7
8554	6.0047	0.	0.1	4399.2
8555	5.8211	0.	0.1	4403.4
8556	5.6374	0.	0.1	4393.7
8557	5.4538	0.	0.1	4366.4
8558	5.2702	0.	0.1	4317.4
8559	5.0866	0.	0.1	4241.8
8560	4.9029	0.	0.1	4133.6
8561	4.7193	0.	0.1	3986.4
8562	4.5357	0.	0.1	3793.
8563	4.352	0.	0.1	3545.9
8564	4.1684	0.	0.1	3238.3
8565	3.9848	0.	0.1	2864.4
8566	3.8012	0.	0.1	2421.3
8567	3.6175	0.	0.1	1909.1
8568	3.4339	0.	0.1	1329.8
8569	3.2503	0.	0.1	677.6
8570	3.0667	0.	0.1	65.035
8571	2.9	0.	0.1	84.928
8572	2.7188	6.2555e-031	0.1	868.64
8573	2.5375	5.8384e-031	0.1	1679.3
8574	2.3563	5.4214e-031	0.1	2393.3
8575	2.175	5.0044e-031	0.1	3028.
8576	1.9937	4.5874e-031	0.1	3584.3
8577	1.8125	4.1703e-031	0.1	4061.7
8578	1.6313	3.7533e-031	0.1	4461.2
8579	1.45	3.3363e-031	0.1	4784.4
8580	1.2687	2.9192e-031	0.1	5031.9
8581	1.0875	2.5022e-031	0.1	5200.8
8582	0.90625	2.0852e-031	0.1	5281.5
8583	0.725	1.6681e-031	0.1	5253.
8584	0.54375	1.2511e-031	0.1	5060.7
8585	0.3625	8.3406e-032	0.1	4605.
8586	0.18125	4.1703e-032	0.1	3502.6
8587	0.	0.	0.1	837.76
8588	3.937e-014	6.	0.1	837.76
8589	0.18125	6.	0.1	3502.6
8590	0.3625	6.	0.1	4605.
8591	0.54375	6.	0.1	5060.7
8592	0.725	6.	0.1	5253.
8593	0.90625	6.	0.1	5281.5
8594	1.0875	6.	0.1	5200.8
8595	1.2687	6.	0.1	5031.9
8596	1.45	6.	0.1	4784.4
8597	1.6313	6.	0.1	4461.2
8598	1.8125	6.	0.1	4061.7
8599	1.9937	6.	0.1	3584.3
8600	2.175	6.	0.1	3028.
8601	2.3563	6.	0.1	2393.3
8602	2.5375	6.	0.1	1679.3
8603	2.7188	6.	0.1	868.64
8604	2.9	6.	0.1	84.928
8605	2.7188	6.	0.	39.055
8606	2.5375	6.	0.	53.037
8607	2.3563	6.	0.	64.311
8608	2.175	6.	0.	70.772
8609	1.9937	6.	0.	74.021
8610	1.8125	6.	0.	76.19
8611	1.6313	6.	0.	78.591
8612	1.45	6.	0.	82.343
8613	1.2687	6.	0.	88.516
8614	1.0875	6.	0.	98.211
8615	0.90625	6.	0.	113.56
8616	0.725	6.	0.	136.5
8617	0.54375	6.	0.	176.58
8618	0.3625	6.	0.	244.7
8619	0.18125	6.	0.	429.95
8620	2.9	6.	0.	20.341
8621	3.937e-014	6.	0.	1690.8
8622	0.18125	4.1703e-032	0.	429.95
8623	0.3625	8.3406e-032	0.	244.7
8624	0.54375	1.2511e-031	0.	176.58
8625	0.725	1.6681e-031	0.	136.5
8626	0.90625	2.0852e-031	0.	113.56
8627	1.0875	2.5022e-031	0.	98.211
8628	1.2687	2.9192e-031	0.	88.516
8629	1.45	3.3363e-031	0.	82.343
8630	1.6313	3.7533e-031	0.	78.591
8631	1.8125	4.1703e-031	0.	76.19
8632	1.9937	4.5874e-031	0.	74.021
8633	2.175	5.0044e-031	0.	70.772
8634	2.3563	5.4214e-031	0.	64.311
8635	2.5375	5.8384e-031	0.	53.037
8636	2.7188	6.2555e-031	0.	39.055
8637	2.9	0.	0.	20.341
8638	0.	0.	0.	1690.8
8639	3.2503	0.	0.	23.454
8640	3.4339	0.	0.	26.919
8641	3.6175	0.	0.	28.927
8642	3.8012	0.	0.	28.119
8643	3.9848	0.	0.	25.46
8644	4.1684	0.	0.	22.16
8645	4.352	0.	0.	18.76
8646	4.5357	0.	0.	15.591
8647	4.7193	0.	0.	12.791
8648	4.9029	0.	0.	10.4
8649	5.0866	0.	0.	8.4065
8650	5.2702	0.	0.	6.7725
8651	5.4538	0.	0.	5.4515
8652	5.6374	0.	0.	4.3979
8653	5.8211	0.	0.	3.5699
8654	6.0047	0.	0.	2.9314
8655	6.1883	0.	0.	2.4516
8656	6.3719	0.	0.	2.1046
8657	6.5556	0.	0.	1.8684
8658	6.7392	0.	0.	1.7246
8659	6.9228	0.	0.	1.6576
8660	7.1064	0.	0.	1.6539
8661	7.2901	0.	0.	1.7022
8662	7.4737	0.	0.	1.7924
8663	7.6573	0.	0.	1.9163
8664	7.8409	0.	0.	2.0667
8665	8.0246	0.	0.	2.2373
8666	8.2082	0.	0.	2.4232
8667	8.3918	0.	0.	2.6199
8668	8.5754	0.	0.	2.8238
8669	8.7591	0.	0.	3.0321
8670	8.9427	0.	0.	3.2424
8671	9.1263	0.	0.	3.4527
8672	9.3099	0.	0.	3.6614
8673	9.4936	0.	0.	3.8675
8674	9.6772	0.	0.	4.0701
8675	9.8608	0.	0.	4.2684
8676	10.044	0.	0.	4.4621
8677	10.228	0.	0.	4.651
8678	10.412	0.	0.	4.8347
8679	10.595	0.	0.	5.0134
8680	10.779	0.	0.	5.1871
8681	10.963	0.	0.	5.356
8682	11.146	0.	0.	5.5202
8683	11.33	0.	0.	5.6799
8684	11.513	0.	0.	5.8353
8685	11.697	0.	0.	5.9869
8686	11.881	0.	0.	6.1349
8687	12.064	0.	0.	6.2797
8688	12.248	0.	0.	6.4214
8689	12.432	0.	0.	6.5604
8690	12.615	0.	0.	6.697
8691	12.799	0.	0.	6.8317
8692	12.982	0.	0.	6.9646
8693	13.166	0.	0.	7.096
8694	13.35	0.	0.	7.2262
8695	13.533	0.	0.	7.3556
8696	13.717	0.	0.	7.4845
8697	13.901	0.	0.	7.613
8698	14.084	0.	0.	7.7415
8699	14.268	0.	0.	7.8701
8700	14.451	0.	0.	7.9992
8701	14.635	0.	0.	8.129
8702	14.819	0.	0.	8.2598
8703	15.002	0.	0.	8.3917
8704	15.186	0.	0.	8.525
8705	15.37	0.	0.	8.6599
8706	15.553	0.	0.	8.7966
8707	15.737	0.	0.	8.9353
8708	15.92	0.	0.	9.0762
8709	16.104	0.	0.	9.2195
8710	16.288	0.	0.	9.3653
8711	16.471	0.	0.	9.5139
8712	16.655	0.	0.	9.6654
8713	16.839	0.	0.	9.8199
8714	17.022	0.	0.	9.9776
8715	17.206	0.	0.	10.139
8716	17.389	0.	0.	10.303
8717	17.573	0.	0.	10.471
8718	17.757	0.	0.	10.642
8719	17.94	0.	0.	10.817
8720	18.124	0.	0.	10.996
8721	18.308	0.	0.	11.179
8722	18.491	0.	0.	11.365
8723	18.675	0.	0.	11.555
8724	18.858	0.	0.	11.748
8725	19.042	0.	0.	11.944
8726	19.226	0.	0.	12.144
8727	19.409	0.	0.	12.346
8728	19.593	0.	0.	12.551
8729	19.777	0.	0.	12.758
8730	19.96	0.	0.	12.966
8731	20.144	0.	0.	13.176
8732	20.327	0.	0.	13.385
8733	20.511	0.	0.	13.594
8734	20.695	0.	0.	13.801
8735	20.878	0.	0.	14.005
8736	21.062	0.	0.	14.204
8737	21.246	0.	0.	14.397
8738	21.429	0.	0.	14.582
8739	21.613	0.	0.	14.756
8740	21.796	0.	0.	14.916
8741	21.98	0.	0.	15.058
8742	22.164	0.	0.	15.178
8743	22.347	0.	0.	15.269
8744	22.531	0.	0.	15.326
8745	22.715	0.	0.	15.336
8746	22.898	0.	0.	15.286
8747	23.082	0.	0.	15.153
8748	23.265	0.	0.	14.907
8749	23.449	0.	0.	14.457
8750	23.633	0.	0.	13.792
8751	23.816	0.	0.	11.496
8752	3.0667	0.	0.	14.927
8753	24.	0.	0.	5.7235
8754	5.0862e-014	5.8182	0.	-1107.7
8755	4.9273e-014	5.6364	0.	-2265.8
8756	4.7683e-014	5.4545	0.	-2800.8
8757	4.6094e-014	5.2727	0.	-3123.7
8758	4.4504e-014	5.0909	0.	-3339.5
8759	4.2915e-014	4.9091	0.	-3493.
8760	4.1325e-014	4.7273	0.	-3605.
8761	3.9736e-014	4.5455	0.	-3687.6
8762	3.8147e-014	4.3636	0.	-3748.5
8763	3.6557e-014	4.1818	0.	-3793.1
8764	3.4968e-014	4.	0.	-3825.4
8765	3.3378e-014	3.8182	0.	-3848.3
8766	3.1789e-014	3.6364	0.	-3864.2
8767	3.0199e-014	3.4545	0.	-3874.8
8768	2.861e-014	3.2727	0.	-3881.3
8769	2.702e-014	3.0909	0.	-3884.4
8770	2.5431e-014	2.9091	0.	-3884.4
8771	2.3842e-014	2.7273	0.	-3881.3
8772	2.2252e-014	2.5455	0.	-3874.8
8773	2.0663e-014	2.3636	0.	-3864.2
8774	1.9073e-014	2.1818	0.	-3848.3
8775	1.7484e-014	2.	0.	-3825.4
8776	1.5894e-014	1.8182	0.	-3793.1
8777	1.4305e-014	1.6364	0.	-3748.5
8778	1.2716e-014	1.4545	0.	-3687.6
8779	1.1126e-014	1.2727	0.	-3605.
8780	9.5366e-015	1.0909	0.	-3493.
8781	7.9472e-015	0.90909	0.	-3339.5
8782	6.3578e-015	0.72727	0.	-3123.7
8783	4.7683e-015	0.54545	0.	-2800.8
8784	3.1789e-015	0.36364	0.	-2265.8
8785	1.5894e-015	0.18182	0.	-1107.7
8786	24.	0.18182	0.	36.669
8787	24.	0.36364	0.	64.118
8788	24.	0.54545	0.	85.324
8789	24.	0.72727	0.	102.94
8790	24.	0.90909	0.	117.98
8791	24.	1.0909	0.	130.96
8792	24.	1.2727	0.	142.21
8793	24.	1.4545	0.	151.95
8794	24.	1.6364	0.	160.33
8795	24.	1.8182	0.	167.48
8796	24.	2.	0.	173.48
8797	24.	2.1818	0.	178.39
8798	24.	2.3636	0.	182.26
8799	24.	2.5455	0.	185.14
8800	24.	2.7273	0.	187.05
8801	24.	2.9091	0.	188.
8802	24.	3.0909	0.	188.
8803	24.	3.2727	0.	187.05
8804	24.	3.4545	0.	185.14
8805	24.	3.6364	0.	182.27
8806	24.	3.8182	0.	178.39
8807	24.	4.	0.	173.48
8808	24.	4.1818	0.	167.48
8809	24.	4.3636	0.	160.33
8810	24.	4.5455	0.	151.95
8811	24.	4.7273	0.	142.21
8812	24.	4.9091	0.	130.96
8813	24.	5.0909	0.	117.98
8814	24.	5.2727	0.	102.94
8815	24.	5.4545	0.	85.324
8816	24.	5.6364	0.	64.119
8817	24.	5.8182	0.	36.669
8818	24.	6.	0.	5.7235
8819	23.816	6.	0.	11.496
8820	23.633	6.	0.	13.792
8821	23.449	6.	0.	14.457
8822	23.265	6.	0.	14.907
8823	23.082	6.	0.	15.153
8824	22.898	6.	0.	15.286
8825	22.715	6.	0.	15.336
8826	22.531	6.	0.	15.326
8827	22.347	6.	0.	15.27
8828	22.164	6.	0.	15.178
8829	21.98	6.	0.	15.058
8830	21.796	6.	0.	14.916
8831	21.613	6.	0.	14.756
8832	21.429	6.	0.	14.582
8833	21.246	6.	0.	14.397
8834	21.062	6.	0.	14.204
8835	20.878	6.	0.	14.005
8836	20.695	6.	0.	13.801
8837	20.511	6.	0.	13.594
8838	20.327	6.	0.	13.385
8839	20.144	6.	0.	13.176
8840	19.96	6.	0.	12.966
8841	19.777	6.	0.	12.758
8842	19.593	6.	0.	12.551
8843	19.409	6.	0.	12.346
8844	19.226	6.	0.	12.144
8845	19.042	6.	0.	11.944
8846	18.858	6.	0.	11.748
8847	18.675	6.	0.	11.555
8848	18.491	6.	0.	11.365
8849	18.308	6.	0.	11.179
8850	18.124	6.	0.	10.996
8851	17.94	6.	0.	10.818
8852	17.757	6.	0.	10.642
8853	17.573	6.	0.	10.471
8854	17.389	6.	0.	10.303
8855	17.206	6.	0.	10.139
8856	17.022	6.	0.	9.9776
8857	16.839	6.	0.	9.8199
8858	16.655	6.	0.	9.6654
8859	16.471	6.	0.	9.5139
8860	16.288	6.	0.	9.3654
8861	16.104	6.	0.	9.2195
8862	15.92	6.	0.	9.0763
8863	15.737	6.	0.	8.9354
8864	15.553	6.	0.	8.7966
8865	15.37	6.	0.	8.6599
8866	15.186	6.	0.	8.5251
8867	15.002	6.	0.	8.3918
8868	14.819	6.	0.	8.2599
8869	14.635	6.	0.	8.1291
8870	14.451	6.	0.	7.9992
8871	14.268	6.	0.	7.8702
8872	14.084	6.	0.	7.7415
8873	13.901	6.	0.	7.6131
8874	13.717	6.	0.	7.4845
8875	13.533	6.	0.	7.3556
8876	13.35	6.	0.	7.2263
8877	13.166	6.	0.	7.096
8878	12.982	6.	0.	6.9646
8879	12.799	6.	0.	6.8317
8880	12.615	6.	0.	6.697
8881	12.432	6.	0.	6.5604
8882	12.248	6.	0.	6.4214
8883	12.064	6.	0.	6.2797
8884	11.881	6.	0.	6.135
8885	11.697	6.	0.	5.9869
8886	11.513	6.	0.	5.8354
8887	11.33	6.	0.	5.6799
8888	11.146	6.	0.	5.5202
8889	10.963	6.	0.	5.356
8890	10.779	6.	0.	5.1871
8891	10.595	6.	0.	5.0134
8892	10.412	6.	0.	4.8347
8893	10.228	6.	0.	4.651
8894	10.044	6.	0.	4.4622
8895	9.8608	6.	0.	4.2684
8896	9.6772	6.	0.	4.0701
8897	9.4936	6.	0.	3.8675
8898	9.3099	6.	0.	3.6615
8899	9.1263	6.	0.	3.4527
8900	8.9427	6.	0.	3.2424
8901	8.7591	6.	0.	3.0322
8902	8.5754	6.	0.	2.8239
8903	8.3918	6.	0.	2.6199
8904	8.2082	6.	0.	2.4232
8905	8.0246	6.	0.	2.2373
8906	7.8409	6.	0.	2.0667
8907	7.6573	6.	0.	1.9164
8908	7.4737	6.	0.	1.7924
8909	7.2901	6.	0.	1.7022
8910	7.1064	6.	0.	1.6539
8911	6.9228	6.	0.	1.6576
8912	6.7392	6.	0.	1.7246
8913	6.5556	6.	0.	1.8684
8914	6.3719	6.	0.	2.1046
8915	6.1883	6.	0.	2.4516
8916	6.0047	6.	0.	2.9314
8917	5.8211	6.	0.	3.5699
8918	5.6374	6.	0.	4.3979
8919	5.4538	6.	0.	5.4515
8920	5.2702	6.	0.	6.7725
8921	5.0866	6.	0.	8.4066
8922	4.9029	6.	0.	10.4
8923	4.7193	6.	0.	12.791
8924	4.5357	6.	0.	15.591
8925	4.352	6.	0.	18.76
8926	4.1684	6.	0.	22.16
8927	3.9848	6.	0.	25.46
8928	3.8012	6.	0.	28.12
8929	3.6175	6.	0.	28.927
8930	3.4339	6.	0.	26.919
8931	3.2503	6.	0.	23.454
8932	3.0667	6.	0.	14.927
8933	2.9	1.8182	0.	6462.
8934	2.9	1.6364	0.	2921.1
8935	2.9	1.4545	0.	2274.6
8936	2.9	1.2727	0.	1664.2
8937	2.9	1.0909	0.	1249.
8938	2.9	0.90909	0.	930.06
8939	2.9	0.72727	0.	672.81
8940	2.9	0.54545	0.	457.39
8941	2.9	0.36364	0.	272.78
8942	2.9	0.18182	0.	114.35
8943	2.9	2.	0.	4418.4
8944	3.0667	0.18182	0.	102.49
8945	3.0667	0.36364	0.	258.62
8946	3.0667	0.54545	0.	445.48
8947	3.0667	0.72727	0.	666.46
8948	3.0667	0.90909	0.	930.4
8949	3.0667	1.0909	0.	1254.4
8950	3.0667	1.2727	0.	1670.7
8951	3.0667	1.4545	0.	2270.4
8952	3.0667	1.6364	0.	2916.4
8953	3.0667	1.8182	0.	6329.4
8954	3.0667	2.	0.	4466.2
8955	2.9	4.1818	0.	6462.
8956	2.9	4.3636	0.	2921.1
8957	2.9	4.5455	0.	2274.6
8958	2.9	4.7273	0.	1664.2
8959	2.9	4.9091	0.	1249.
8960	2.9	5.0909	0.	930.06
8961	2.9	5.2727	0.	672.81
8962	2.9	5.4545	0.	457.39
8963	2.9	5.6364	0.	272.78
8964	2.9	5.8182	0.	114.35
8965	2.9	4.	0.	4418.4
8966	3.0667	5.8182	0.	102.49
8967	3.0667	5.6364	0.	258.62
8968	3.0667	5.4545	0.	445.48
8969	3.0667	5.2727	0.	666.46
8970	3.0667	5.0909	0.	930.4
8971	3.0667	4.9091	0.	1254.4
8972	3.0667	4.7273	0.	1670.7
8973	3.0667	4.5455	0.	2270.4
8974	3.0667	4.3636	0.	2916.4
8975	3.0667	4.1818	0.	6329.4
8976	3.0667	4.	0.	4466.2
8977	2.9	2.2727	0.	1316.7
8978	2.9833	2.1818	0.	1358.6
8979	2.8094	2.1818	0.	1099.4
8980	2.9	2.1818	5.e-002	627.92
8981	2.9	2.0909	0.	2721.1
8982	2.9	2.4545	0.	951.52
8983	2.9833	2.3636	0.	1089.8
8984	2.8094	2.3636	0.	836.83
8985	2.9	2.3636	5.e-002	115.15
8986	2.9	2.6364	0.	696.53
8987	2.9833	2.5455	0.	805.65
8988	2.8094	2.5455	0.	579.95
8989	2.9	2.5455	5.e-002	48.876
8990	2.9	2.8182	0.	565.92
8991	2.9833	2.7273	0.	641.07
8992	2.8094	2.7273	0.	446.18
8993	2.9	2.7273	5.e-002	23.063
8994	2.9	3.	0.	524.69
8995	2.9833	2.9091	0.	563.53
8996	2.8094	2.9091	0.	381.13
8997	2.9	2.9091	5.e-002	8.6037
8998	2.9	3.1818	0.	565.92
8999	2.9833	3.0909	0.	563.53
9000	2.8094	3.0909	0.	381.13
9001	2.9	3.0909	5.e-002	8.6035
9002	2.9	3.3636	0.	696.53
9003	2.9833	3.2727	0.	641.07
9004	2.8094	3.2727	0.	446.18
9005	2.9	3.2727	5.e-002	23.063
9006	2.9	3.5455	0.	951.51
9007	2.9833	3.4545	0.	805.65
9008	2.8094	3.4545	0.	579.94
9009	2.9	3.4545	5.e-002	48.876
9010	2.9	3.7273	0.	1316.7
9011	2.9833	3.6364	0.	1089.8
9012	2.8094	3.6364	0.	836.82
9013	2.9	3.6364	5.e-002	115.15
9014	2.9833	3.8182	0.	1358.6
9015	2.8094	3.8182	0.	1099.4
9016	2.9	3.8182	5.e-002	627.92
9017	2.9	3.9091	0.	2721.1
9018	3.0667	2.2727	0.	1365.2
9019	3.1585	2.1818	0.	1190.7
9020	3.0667	2.1818	5.e-002	673.48
9021	3.0667	2.0909	0.	2756.8
9022	3.0667	2.4545	0.	1012.9
9023	3.1585	2.3636	0.	953.91
9024	3.0667	2.3636	5.e-002	131.23
9025	3.0667	2.6364	0.	768.54
9026	3.1585	2.5455	0.	720.98
9027	3.0667	2.5455	5.e-002	70.181
9028	3.0667	2.8182	0.	642.11
9029	3.1585	2.7273	0.	599.34
9030	3.0667	2.7273	5.e-002	42.137
9031	3.0667	3.	0.	602.2
9032	3.1585	2.9091	0.	539.69
9033	3.0667	2.9091	5.e-002	31.611
9034	3.0667	3.1818	0.	642.11
9035	3.1585	3.0909	0.	539.69
9036	3.0667	3.0909	5.e-002	31.611
9037	3.0667	3.3636	0.	768.54
9038	3.1585	3.2727	0.	599.34
9039	3.0667	3.2727	5.e-002	42.136
9040	3.0667	3.5455	0.	1012.9
9041	3.1585	3.4545	0.	720.98
9042	3.0667	3.4545	5.e-002	70.18
9043	3.0667	3.7273	0.	1365.2
9044	3.1585	3.6364	0.	953.91
9045	3.0667	3.6364	5.e-002	131.23
9046	3.1585	3.8182	0.	1190.7
9047	3.0667	3.8182	5.e-002	673.48
9048	3.0667	3.9091	0.	2756.8
9049	2.7188	5.7273	0.	273.82
9050	2.6281	5.8182	0.	163.13
9051	2.7188	5.8182	5.e-002	103.65
9052	2.7188	5.9091	0.	75.088
9053	2.8094	5.8182	0.	82.896
9054	2.7188	5.5455	0.	496.46
9055	2.6281	5.6364	0.	237.7
9056	2.7188	5.6364	5.e-002	92.004
9057	2.8094	5.6364	0.	242.22
9058	2.7188	5.3636	0.	797.75
9059	2.6281	5.4545	0.	444.18
9060	2.7188	5.4545	5.e-002	96.104
9061	2.8094	5.4545	0.	466.19
9062	2.7188	5.1818	0.	1149.8
9063	2.6281	5.2727	0.	711.67
9064	2.7188	5.2727	5.e-002	105.3
9065	2.8094	5.2727	0.	724.96
9066	2.7188	5.	0.	1560.3
9067	2.6281	5.0909	0.	1023.3
9068	2.7188	5.0909	5.e-002	119.22
9069	2.8094	5.0909	0.	1025.6
9070	2.7188	4.8182	0.	2052.5
9071	2.6281	4.9091	0.	1380.9
9072	2.7188	4.9091	5.e-002	138.97
9073	2.8094	4.9091	0.	1385.9
9074	2.7188	4.6364	0.	2652.9
9075	2.6281	4.7273	0.	1794.9
9076	2.7188	4.7273	5.e-002	169.52
9077	2.8094	4.7273	0.	1834.6
9078	2.7188	4.4545	0.	3458.8
9079	2.6281	4.5455	0.	2253.8
9080	2.7188	4.5455	5.e-002	208.99
9081	2.8094	4.5455	0.	2438.5
9082	2.7188	4.2727	0.	4134.8
9083	2.6281	4.3636	0.	2778.4
9084	2.7188	4.3636	5.e-002	307.2
9085	2.8094	4.3636	0.	3142.6
9086	2.7188	4.0909	0.	3490.9
9087	2.6281	4.1818	0.	2935.5
9088	2.7188	4.1818	5.e-002	566.97
9089	2.8094	4.1818	0.	4963.7
9090	2.7188	3.9091	0.	1676.2
9091	2.6281	4.	0.	1737.9
9092	2.7188	4.	5.e-002	986.84
9093	2.8094	4.	0.	2927.4
9094	2.7188	3.7273	0.	735.84
9095	2.6281	3.8182	0.	527.42
9096	2.7188	3.8182	5.e-002	485.45
9097	2.7188	3.5455	0.	501.16
9098	2.6281	3.6364	0.	279.54
9099	2.7188	3.6364	5.e-002	195.32
9100	2.7188	3.3636	0.	339.33
9101	2.6281	3.4545	0.	143.36
9102	2.7188	3.4545	5.e-002	103.01
9103	2.7188	3.1818	0.	260.08
9104	2.6281	3.2727	0.	67.026
9105	2.7188	3.2727	5.e-002	57.198
9106	2.7188	3.	0.	233.58
9107	2.6281	3.0909	0.	29.053
9108	2.7188	3.0909	5.e-002	41.122
9109	2.7188	2.8182	0.	260.08
9110	2.6281	2.9091	0.	29.053
9111	2.7188	2.9091	5.e-002	41.122
9112	2.7188	2.6364	0.	339.33
9113	2.6281	2.7273	0.	67.026
9114	2.7188	2.7273	5.e-002	57.198
9115	2.7188	2.4545	0.	501.16
9116	2.6281	2.5455	0.	143.36
9117	2.7188	2.5455	5.e-002	103.01
9118	2.7188	2.2727	0.	735.84
9119	2.6281	2.3636	0.	279.54
9120	2.7188	2.3636	5.e-002	195.32
9121	2.7188	2.0909	0.	1676.2
9122	2.6281	2.1818	0.	527.42
9123	2.7188	2.1818	5.e-002	485.45
9124	2.7188	1.9091	0.	3490.9
9125	2.6281	2.	0.	1737.9
9126	2.7188	2.	5.e-002	986.84
9127	2.8094	2.	0.	2927.4
9128	2.7188	1.7273	0.	4134.8
9129	2.6281	1.8182	0.	2935.5
9130	2.7188	1.8182	5.e-002	566.97
9131	2.8094	1.8182	0.	4963.7
9132	2.7188	1.5455	0.	3458.8
9133	2.6281	1.6364	0.	2778.4
9134	2.7188	1.6364	5.e-002	307.2
9135	2.8094	1.6364	0.	3142.6
9136	2.7188	1.3636	0.	2652.9
9137	2.6281	1.4545	0.	2253.8
9138	2.7188	1.4545	5.e-002	208.99
9139	2.8094	1.4545	0.	2438.5
9140	2.7188	1.1818	0.	2052.5
9141	2.6281	1.2727	0.	1794.9
9142	2.7188	1.2727	5.e-002	169.52
9143	2.8094	1.2727	0.	1834.6
9144	2.7188	1.	0.	1560.3
9145	2.6281	1.0909	0.	1380.9
9146	2.7188	1.0909	5.e-002	138.97
9147	2.8094	1.0909	0.	1385.9
9148	2.7188	0.81818	0.	1149.8
9149	2.6281	0.90909	0.	1023.3
9150	2.7188	0.90909	5.e-002	119.22
9151	2.8094	0.90909	0.	1025.6
9152	2.7188	0.63636	0.	797.75
9153	2.6281	0.72727	0.	711.67
9154	2.7188	0.72727	5.e-002	105.3
9155	2.8094	0.72727	0.	724.96
9156	2.7188	0.45455	0.	496.46
9157	2.6281	0.54545	0.	444.18
9158	2.7188	0.54545	5.e-002	96.104
9159	2.8094	0.54545	0.	466.19
9160	2.7188	0.27273	0.	273.82
9161	2.6281	0.36364	0.	237.7
9162	2.7188	0.36364	5.e-002	92.004
9163	2.8094	0.36364	0.	242.22
9164	2.6281	0.18182	0.	163.13
9165	2.7188	0.18182	5.e-002	103.65
9166	2.7188	9.0909e-002	0.	75.088
9167	2.8094	0.18182	0.	82.896
9168	2.5375	5.7273	0.	154.08
9169	2.4469	5.8182	0.	153.97
9170	2.5375	5.8182	5.e-002	91.394
9171	2.5375	5.9091	0.	63.954
9172	2.5375	5.5455	0.	229.53
9173	2.4469	5.6364	0.	133.67
9174	2.5375	5.6364	5.e-002	76.342
9175	2.5375	5.3636	0.	404.11
9176	2.4469	5.4545	0.	222.12
9177	2.5375	5.4545	5.e-002	75.587
9178	2.5375	5.1818	0.	630.98
9179	2.4469	5.2727	0.	374.14
9180	2.5375	5.2727	5.e-002	78.23
9181	2.5375	5.	0.	892.17
9182	2.4469	5.0909	0.	563.08
9183	2.5375	5.0909	5.e-002	83.927
9184	2.5375	4.8182	0.	1178.7
9185	2.4469	4.9091	0.	771.45
9186	2.5375	4.9091	5.e-002	93.135
9187	2.5375	4.6364	0.	1463.7
9188	2.4469	4.7273	0.	980.91
9189	2.5375	4.7273	5.e-002	105.04
9190	2.5375	4.4545	0.	1671.
9191	2.4469	4.5455	0.	1147.2
9192	2.5375	4.5455	5.e-002	128.45
9193	2.5375	4.2727	0.	1646.1
9194	2.4469	4.3636	0.	1181.9
9195	2.5375	4.3636	5.e-002	127.21
9196	2.5375	4.0909	0.	1111.2
9197	2.4469	4.1818	0.	941.46
9198	2.5375	4.1818	5.e-002	181.76
9199	2.5375	3.9091	0.	392.
9200	2.4469	4.	0.	310.43
9201	2.5375	4.	5.e-002	156.27
9202	2.5375	3.7273	0.	39.933
9203	2.4469	3.8182	0.	21.121
9204	2.5375	3.8182	5.e-002	221.98
9205	2.5375	3.5455	0.	9.3532
9206	2.4469	3.6364	0.	2.9571
9207	2.5375	3.6364	5.e-002	152.64
9208	2.5375	3.3636	0.	5.5879
9209	2.4469	3.4545	0.	3.8201
9210	2.5375	3.4545	5.e-002	109.92
9211	2.5375	3.1818	0.	0.64194
9212	2.4469	3.2727	0.	1.2788
9213	2.5375	3.2727	5.e-002	75.447
9214	2.5375	3.	0.	-0.32513
9215	2.4469	3.0909	0.	0.3404
9216	2.5375	3.0909	5.e-002	60.697
9217	2.5375	2.8182	0.	0.64194
9218	2.4469	2.9091	0.	0.3404
9219	2.5375	2.9091	5.e-002	60.698
9220	2.5375	2.6364	0.	5.5879
9221	2.4469	2.7273	0.	1.2788
9222	2.5375	2.7273	5.e-002	75.448
9223	2.5375	2.4545	0.	9.3533
9224	2.4469	2.5455	0.	3.8202
9225	2.5375	2.5455	5.e-002	109.92
9226	2.5375	2.2727	0.	39.933
9227	2.4469	2.3636	0.	2.9571
9228	2.5375	2.3636	5.e-002	152.64
9229	2.5375	2.0909	0.	392.
9230	2.4469	2.1818	0.	21.121
9231	2.5375	2.1818	5.e-002	221.99
9232	2.5375	1.9091	0.	1111.2
9233	2.4469	2.	0.	310.43
9234	2.5375	2.	5.e-002	156.27
9235	2.5375	1.7273	0.	1646.1
9236	2.4469	1.8182	0.	941.46
9237	2.5375	1.8182	5.e-002	181.76
9238	2.5375	1.5455	0.	1671.
9239	2.4469	1.6364	0.	1181.9
9240	2.5375	1.6364	5.e-002	127.21
9241	2.5375	1.3636	0.	1463.7
9242	2.4469	1.4545	0.	1147.2
9243	2.5375	1.4545	5.e-002	128.45
9244	2.5375	1.1818	0.	1178.7
9245	2.4469	1.2727	0.	980.91
9246	2.5375	1.2727	5.e-002	105.04
9247	2.5375	1.	0.	892.17
9248	2.4469	1.0909	0.	771.45
9249	2.5375	1.0909	5.e-002	93.135
9250	2.5375	0.81818	0.	630.98
9251	2.4469	0.90909	0.	563.08
9252	2.5375	0.90909	5.e-002	83.927
9253	2.5375	0.63636	0.	404.11
9254	2.4469	0.72727	0.	374.14
9255	2.5375	0.72727	5.e-002	78.23
9256	2.5375	0.45455	0.	229.53
9257	2.4469	0.54545	0.	222.12
9258	2.5375	0.54545	5.e-002	75.587
9259	2.5375	0.27273	0.	154.08
9260	2.4469	0.36364	0.	133.67
9261	2.5375	0.36364	5.e-002	76.342
9262	2.4469	0.18182	0.	153.97
9263	2.5375	0.18182	5.e-002	91.394
9264	2.5375	9.0909e-002	0.	63.954
9265	2.3563	5.7273	0.	139.14
9266	2.2656	5.8182	0.	163.99
9267	2.3563	5.8182	5.e-002	86.248
9268	2.3563	5.9091	0.	80.261
9269	2.3563	5.5455	0.	144.
9270	2.2656	5.6364	0.	109.72
9271	2.3563	5.6364	5.e-002	70.242
9272	2.3563	5.3636	0.	221.51
9273	2.2656	5.4545	0.	128.55
9274	2.3563	5.4545	5.e-002	69.701
9275	2.3563	5.1818	0.	341.38
9276	2.2656	5.2727	0.	188.33
9277	2.3563	5.2727	5.e-002	71.314
9278	2.3563	5.	0.	480.65
9279	2.2656	5.0909	0.	272.37
9280	2.3563	5.0909	5.e-002	74.307
9281	2.3563	4.8182	0.	614.3
9282	2.2656	4.9091	0.	360.29
9283	2.3563	4.9091	5.e-002	78.37
9284	2.3563	4.6364	0.	705.9
9285	2.2656	4.7273	0.	425.02
9286	2.3563	4.7273	5.e-002	82.572
9287	2.3563	4.4545	0.	690.41
9288	2.2656	4.5455	0.	428.78
9289	2.3563	4.5455	5.e-002	82.905
9290	2.3563	4.2727	0.	491.67
9291	2.2656	4.3636	0.	314.04
9292	2.3563	4.3636	5.e-002	82.814
9293	2.3563	4.0909	0.	139.11
9294	2.2656	4.1818	0.	74.949
9295	2.3563	4.1818	5.e-002	81.647
9296	2.3563	3.9091	0.	-7.2863
9297	2.2656	4.	0.	1.6545
9298	2.3563	4.	5.e-002	97.888
9299	2.3563	3.7273	0.	-0.30599
9300	2.2656	3.8182	0.	-0.76098
9301	2.3563	3.8182	5.e-002	105.28
9302	2.3563	3.5455	0.	5.4493
9303	2.2656	3.6364	0.	5.3402
9304	2.3563	3.6364	5.e-002	106.05
9305	2.3563	3.3636	0.	1.7042
9306	2.2656	3.4545	0.	1.8244
9307	2.3563	3.4545	5.e-002	88.126
9308	2.3563	3.1818	0.	1.2505
9309	2.2656	3.2727	0.	1.5766
9310	2.3563	3.2727	5.e-002	73.584
9311	2.3563	3.	0.	0.91001
9312	2.2656	3.0909	0.	1.1202
9313	2.3563	3.0909	5.e-002	65.105
9314	2.3563	2.8182	0.	1.2505
9315	2.2656	2.9091	0.	1.1202
9316	2.3563	2.9091	5.e-002	65.105
9317	2.3563	2.6364	0.	1.7042
9318	2.2656	2.7273	0.	1.5766
9319	2.3563	2.7273	5.e-002	73.585
9320	2.3563	2.4545	0.	5.4493
9321	2.2656	2.5455	0.	1.8244
9322	2.3563	2.5455	5.e-002	88.127
9323	2.3563	2.2727	0.	-0.30598
9324	2.2656	2.3636	0.	5.3402
9325	2.3563	2.3636	5.e-002	106.05
9326	2.3563	2.0909	0.	-7.2863
9327	2.2656	2.1818	0.	-0.76099
9328	2.3563	2.1818	5.e-002	105.29
9329	2.3563	1.9091	0.	139.11
9330	2.2656	2.	0.	1.6545
9331	2.3563	2.	5.e-002	97.888
9332	2.3563	1.7273	0.	491.67
9333	2.2656	1.8182	0.	74.948
9334	2.3563	1.8182	5.e-002	81.647
9335	2.3563	1.5455	0.	690.41
9336	2.2656	1.6364	0.	314.04
9337	2.3563	1.6364	5.e-002	82.814
9338	2.3563	1.3636	0.	705.9
9339	2.2656	1.4545	0.	428.78
9340	2.3563	1.4545	5.e-002	82.905
9341	2.3563	1.1818	0.	614.3
9342	2.2656	1.2727	0.	425.02
9343	2.3563	1.2727	5.e-002	82.572
9344	2.3563	1.	0.	480.65
9345	2.2656	1.0909	0.	360.29
9346	2.3563	1.0909	5.e-002	78.37
9347	2.3563	0.81818	0.	341.38
9348	2.2656	0.90909	0.	272.37
9349	2.3563	0.90909	5.e-002	74.307
9350	2.3563	0.63636	0.	221.51
9351	2.2656	0.72727	0.	188.33
9352	2.3563	0.72727	5.e-002	71.314
9353	2.3563	0.45455	0.	144.
9354	2.2656	0.54545	0.	128.55
9355	2.3563	0.54545	5.e-002	69.701
9356	2.3563	0.27273	0.	139.14
9357	2.2656	0.36364	0.	109.72
9358	2.3563	0.36364	5.e-002	70.242
9359	2.2656	0.18182	0.	163.99
9360	2.3563	0.18182	5.e-002	86.248
9361	2.3563	9.0909e-002	0.	80.261
9362	2.175	5.7273	0.	135.66
9363	2.0844	5.8182	0.	167.75
9364	2.175	5.8182	5.e-002	80.509
9365	2.175	5.9091	0.	91.659
9366	2.175	5.5455	0.	101.65
9367	2.0844	5.6364	0.	94.982
9368	2.175	5.6364	5.e-002	63.061
9369	2.175	5.3636	0.	111.62
9370	2.0844	5.4545	0.	71.246
9371	2.175	5.4545	5.e-002	62.619
9372	2.175	5.1818	0.	142.87
9373	2.0844	5.2727	0.	67.338
9374	2.175	5.2727	5.e-002	63.464
9375	2.175	5.	0.	179.72
9376	2.0844	5.0909	0.	70.492
9377	2.175	5.0909	5.e-002	64.527
9378	2.175	4.8182	0.	200.46
9379	2.0844	4.9091	0.	68.854
9380	2.175	4.9091	5.e-002	65.294
9381	2.175	4.6364	0.	177.56
9382	2.0844	4.7273	0.	50.856
9383	2.175	4.7273	5.e-002	64.812
9384	2.175	4.4545	0.	90.583
9385	2.0844	4.5455	0.	24.144
9386	2.175	4.5455	5.e-002	62.758
9387	2.175	4.2727	0.	19.707
9388	2.0844	4.3636	0.	11.149
9389	2.175	4.3636	5.e-002	59.717
9390	2.175	4.0909	0.	8.4352
9391	2.0844	4.1818	0.	5.369
9392	2.175	4.1818	5.e-002	58.976
9393	2.175	3.9091	0.	7.3615
9394	2.0844	4.	0.	4.583
9395	2.175	4.	5.e-002	63.005
9396	2.175	3.7273	0.	4.3778
9397	2.0844	3.8182	0.	3.8887
9398	2.175	3.8182	5.e-002	67.521
9399	2.175	3.5455	0.	1.8853
9400	2.0844	3.6364	0.	1.6619
9401	2.175	3.6364	5.e-002	69.562
9402	2.175	3.3636	0.	1.8027
9403	2.0844	3.4545	0.	1.7373
9404	2.175	3.4545	5.e-002	67.058
9405	2.175	3.1818	0.	1.4628
9406	2.0844	3.2727	0.	1.4633
9407	2.175	3.2727	5.e-002	62.438
9408	2.175	3.	0.	1.3169
9409	2.0844	3.0909	0.	1.3063
9410	2.175	3.0909	5.e-002	59.225
9411	2.175	2.8182	0.	1.4628
9412	2.0844	2.9091	0.	1.3063
9413	2.175	2.9091	5.e-002	59.225
9414	2.175	2.6364	0.	1.8027
9415	2.0844	2.7273	0.	1.4633
9416	2.175	2.7273	5.e-002	62.439
9417	2.175	2.4545	0.	1.8853
9418	2.0844	2.5455	0.	1.7373
9419	2.175	2.5455	5.e-002	67.059
9420	2.175	2.2727	0.	4.3778
9421	2.0844	2.3636	0.	1.6619
9422	2.175	2.3636	5.e-002	69.562
9423	2.175	2.0909	0.	7.3615
9424	2.0844	2.1818	0.	3.8887
9425	2.175	2.1818	5.e-002	67.521
9426	2.175	1.9091	0.	8.4352
9427	2.0844	2.	0.	4.583
9428	2.175	2.	5.e-002	63.005
9429	2.175	1.7273	0.	19.707
9430	2.0844	1.8182	0.	5.369
9431	2.175	1.8182	5.e-002	58.976
9432	2.175	1.5455	0.	90.582
9433	2.0844	1.6364	0.	11.149
9434	2.175	1.6364	5.e-002	59.716
9435	2.175	1.3636	0.	177.56
9436	2.0844	1.4545	0.	24.144
9437	2.175	1.4545	5.e-002	62.758
9438	2.175	1.1818	0.	200.46
9439	2.0844	1.2727	0.	50.856
9440	2.175	1.2727	5.e-002	64.812
9441	2.175	1.	0.	179.72
9442	2.0844	1.0909	0.	68.854
9443	2.175	1.0909	5.e-002	65.294
9444	2.175	0.81818	0.	142.87
9445	2.0844	0.90909	0.	70.492
9446	2.175	0.90909	5.e-002	64.527
9447	2.175	0.63636	0.	111.62
9448	2.0844	0.72727	0.	67.338
9449	2.175	0.72727	5.e-002	63.464
9450	2.175	0.45455	0.	101.65
9451	2.0844	0.54545	0.	71.246
9452	2.175	0.54545	5.e-002	62.619
9453	2.175	0.27273	0.	135.66
9454	2.0844	0.36364	0.	94.982
9455	2.175	0.36364	5.e-002	63.061
9456	2.0844	0.18182	0.	167.75
9457	2.175	0.18182	5.e-002	80.509
9458	2.175	9.0909e-002	0.	91.659
9459	1.9937	5.7273	0.	126.73
9460	1.9031	5.8182	0.	163.89
9461	1.9937	5.8182	5.e-002	74.193
9462	1.9937	5.9091	0.	95.699
9463	1.9937	5.5455	0.	66.999
9464	1.9031	5.6364	0.	75.467
9465	1.9937	5.6364	5.e-002	55.609
9466	1.9937	5.3636	0.	40.136
9467	1.9031	5.4545	0.	30.704
9468	1.9937	5.4545	5.e-002	55.184
9469	1.9937	5.1818	0.	27.521
9470	1.9031	5.2727	0.	15.65
9471	1.9937	5.2727	5.e-002	55.634
9472	1.9937	5.	0.	19.652
9473	1.9031	5.0909	0.	10.277
9474	1.9937	5.0909	5.e-002	55.732
9475	1.9937	4.8182	0.	13.363
9476	1.9031	4.9091	0.	7.338
9477	1.9937	4.9091	5.e-002	55.079
9478	1.9937	4.6364	0.	8.5232
9479	1.9031	4.7273	0.	5.323
9480	1.9937	4.7273	5.e-002	53.368
9481	1.9937	4.4545	0.	5.1028
9482	1.9031	4.5455	0.	3.8222
9483	1.9937	4.5455	5.e-002	50.559
9484	1.9937	4.2727	0.	3.107
9485	1.9031	4.3636	0.	2.6133
9486	1.9937	4.3636	5.e-002	47.691
9487	1.9937	4.0909	0.	1.8173
9488	1.9031	4.1818	0.	1.9976
9489	1.9937	4.1818	5.e-002	46.263
9490	1.9937	3.9091	0.	0.86359
9491	1.9031	4.	0.	1.284
9492	1.9937	4.	5.e-002	46.269
9493	1.9937	3.7273	0.	1.0521
9494	1.9031	3.8182	0.	0.9643
9495	1.9937	3.8182	5.e-002	47.301
9496	1.9937	3.5455	0.	1.4969
9497	1.9031	3.6364	0.	1.268
9498	1.9937	3.6364	5.e-002	48.828
9499	1.9937	3.3636	0.	1.4135
9500	1.9031	3.4545	0.	1.2483
9501	1.9937	3.4545	5.e-002	49.66
9502	1.9937	3.1818	0.	1.3146
9503	1.9031	3.2727	0.	1.1906
9504	1.9937	3.2727	5.e-002	49.318
9505	1.9937	3.	0.	1.2977
9506	1.9031	3.0909	0.	1.1777
9507	1.9937	3.0909	5.e-002	48.756
9508	1.9937	2.8182	0.	1.3146
9509	1.9031	2.9091	0.	1.1777
9510	1.9937	2.9091	5.e-002	48.756
9511	1.9937	2.6364	0.	1.4135
9512	1.9031	2.7273	0.	1.1906
9513	1.9937	2.7273	5.e-002	49.318
9514	1.9937	2.4545	0.	1.4969
9515	1.9031	2.5455	0.	1.2483
9516	1.9937	2.5455	5.e-002	49.66
9517	1.9937	2.2727	0.	1.0521
9518	1.9031	2.3636	0.	1.268
9519	1.9937	2.3636	5.e-002	48.828
9520	1.9937	2.0909	0.	0.86359
9521	1.9031	2.1818	0.	0.9643
9522	1.9937	2.1818	5.e-002	47.301
9523	1.9937	1.9091	0.	1.8173
9524	1.9031	2.	0.	1.284
9525	1.9937	2.	5.e-002	46.269
9526	1.9937	1.7273	0.	3.107
9527	1.9031	1.8182	0.	1.9976
9528	1.9937	1.8182	5.e-002	46.263
9529	1.9937	1.5455	0.	5.1028
9530	1.9031	1.6364	0.	2.6133
9531	1.9937	1.6364	5.e-002	47.691
9532	1.9937	1.3636	0.	8.5232
9533	1.9031	1.4545	0.	3.8222
9534	1.9937	1.4545	5.e-002	50.559
9535	1.9937	1.1818	0.	13.363
9536	1.9031	1.2727	0.	5.323
9537	1.9937	1.2727	5.e-002	53.368
9538	1.9937	1.	0.	19.652
9539	1.9031	1.0909	0.	7.338
9540	1.9937	1.0909	5.e-002	55.079
9541	1.9937	0.81818	0.	27.521
9542	1.9031	0.90909	0.	10.277
9543	1.9937	0.90909	5.e-002	55.732
9544	1.9937	0.63636	0.	40.136
9545	1.9031	0.72727	0.	15.65
9546	1.9937	0.72727	5.e-002	55.634
9547	1.9937	0.45455	0.	66.999
9548	1.9031	0.54545	0.	30.704
9549	1.9937	0.54545	5.e-002	55.184
9550	1.9937	0.27273	0.	126.73
9551	1.9031	0.36364	0.	75.467
9552	1.9937	0.36364	5.e-002	55.609
9553	1.9031	0.18182	0.	163.89
9554	1.9937	0.18182	5.e-002	74.193
9555	1.9937	9.0909e-002	0.	95.699
9556	1.8125	5.7273	0.	111.06
9557	1.7219	5.8182	0.	155.17
9558	1.8125	5.8182	5.e-002	67.717
9559	1.8125	5.9091	0.	95.075
9560	1.8125	5.5455	0.	34.809
9561	1.7219	5.6364	0.	50.393
9562	1.8125	5.6364	5.e-002	48.365
9563	1.8125	5.3636	0.	12.262
9564	1.7219	5.4545	0.	11.763
9565	1.8125	5.4545	5.e-002	48.133
9566	1.8125	5.1818	0.	7.1704
9567	1.7219	5.2727	0.	5.9659
9568	1.8125	5.2727	5.e-002	48.618
9569	1.8125	5.	0.	4.973
9570	1.7219	5.0909	0.	3.9841
9571	1.8125	5.0909	5.e-002	48.524
9572	1.8125	4.8182	0.	3.6554
9573	1.7219	4.9091	0.	2.9322
9574	1.8125	4.9091	5.e-002	47.613
9575	1.8125	4.6364	0.	2.7698
9576	1.7219	4.7273	0.	2.2545
9577	1.8125	4.7273	5.e-002	45.8
9578	1.8125	4.4545	0.	2.1808
9579	1.7219	4.5455	0.	1.8045
9580	1.8125	4.5455	5.e-002	43.283
9581	1.8125	4.2727	0.	1.7423
9582	1.7219	4.3636	0.	1.4978
9583	1.8125	4.3636	5.e-002	40.511
9584	1.8125	4.0909	0.	1.4618
9585	1.7219	4.1818	0.	1.2277
9586	1.8125	4.1818	5.e-002	38.009
9587	1.8125	3.9091	0.	1.3209
9588	1.7219	4.	0.	1.0814
9589	1.8125	4.	5.e-002	36.074
9590	1.8125	3.7273	0.	1.1297
9591	1.7219	3.8182	0.	0.97695
9592	1.8125	3.8182	5.e-002	35.11
9593	1.8125	3.5455	0.	1.0006
9594	1.7219	3.6364	0.	0.86665
9595	1.8125	3.6364	5.e-002	35.34
9596	1.8125	3.3636	0.	1.0246
9597	1.7219	3.4545	0.	0.88194
9598	1.8125	3.4545	5.e-002	36.233
9599	1.8125	3.1818	0.	1.0569
9600	1.7219	3.2727	0.	0.92883
9601	1.8125	3.2727	5.e-002	36.977
9602	1.8125	3.	0.	1.0608
9603	1.7219	3.0909	0.	0.94623
9604	1.8125	3.0909	5.e-002	37.316
9605	1.8125	2.8182	0.	1.0569
9606	1.7219	2.9091	0.	0.94623
9607	1.8125	2.9091	5.e-002	37.316
9608	1.8125	2.6364	0.	1.0246
9609	1.7219	2.7273	0.	0.92883
9610	1.8125	2.7273	5.e-002	36.977
9611	1.8125	2.4545	0.	1.0006
9612	1.7219	2.5455	0.	0.88194
9613	1.8125	2.5455	5.e-002	36.233
9614	1.8125	2.2727	0.	1.1297
9615	1.7219	2.3636	0.	0.86665
9616	1.8125	2.3636	5.e-002	35.34
9617	1.8125	2.0909	0.	1.3209
9618	1.7219	2.1818	0.	0.97695
9619	1.8125	2.1818	5.e-002	35.11
9620	1.8125	1.9091	0.	1.4618
9621	1.7219	2.	0.	1.0814
9622	1.8125	2.	5.e-002	36.074
9623	1.8125	1.7273	0.	1.7423
9624	1.7219	1.8182	0.	1.2277
9625	1.8125	1.8182	5.e-002	38.009
9626	1.8125	1.5455	0.	2.1808
9627	1.7219	1.6364	0.	1.4978
9628	1.8125	1.6364	5.e-002	40.511
9629	1.8125	1.3636	0.	2.7698
9630	1.7219	1.4545	0.	1.8045
9631	1.8125	1.4545	5.e-002	43.283
9632	1.8125	1.1818	0.	3.6554
9633	1.7219	1.2727	0.	2.2545
9634	1.8125	1.2727	5.e-002	45.8
9635	1.8125	1.	0.	4.973
9636	1.7219	1.0909	0.	2.9322
9637	1.8125	1.0909	5.e-002	47.613
9638	1.8125	0.81818	0.	7.1704
9639	1.7219	0.90909	0.	3.9841
9640	1.8125	0.90909	5.e-002	48.524
9641	1.8125	0.63636	0.	12.262
9642	1.7219	0.72727	0.	5.9659
9643	1.8125	0.72727	5.e-002	48.618
9644	1.8125	0.45455	0.	34.809
9645	1.7219	0.54545	0.	11.763
9646	1.8125	0.54545	5.e-002	48.133
9647	1.8125	0.27273	0.	111.06
9648	1.7219	0.36364	0.	50.393
9649	1.8125	0.36364	5.e-002	48.365
9650	1.7219	0.18182	0.	155.17
9651	1.8125	0.18182	5.e-002	67.717
9652	1.8125	9.0909e-002	0.	95.075
9653	1.6313	5.7273	0.	90.25
9654	1.5406	5.8182	0.	144.28
9655	1.6313	5.8182	5.e-002	61.435
9656	1.6313	5.9091	0.	92.013
9657	1.6313	5.5455	0.	14.365
9658	1.5406	5.6364	0.	25.779
9659	1.6313	5.6364	5.e-002	41.719
9660	1.6313	5.3636	0.	5.4647
9661	1.5406	5.4545	0.	5.6919
9662	1.6313	5.4545	5.e-002	41.973
9663	1.6313	5.1818	0.	3.4347
9664	1.5406	5.2727	0.	3.2138
9665	1.6313	5.2727	5.e-002	42.851
9666	1.6313	5.	0.	2.4645
9667	1.5406	5.0909	0.	2.2029
9668	1.6313	5.0909	5.e-002	43.028
9669	1.6313	4.8182	0.	1.8876
9670	1.5406	4.9091	0.	1.6535
9671	1.6313	4.9091	5.e-002	42.336
9672	1.6313	4.6364	0.	1.5032
9673	1.5406	4.7273	0.	1.3069
9674	1.6313	4.7273	5.e-002	40.776
9675	1.6313	4.4545	0.	1.2257
9676	1.5406	4.5455	0.	1.0729
9677	1.6313	4.5455	5.e-002	38.466
9678	1.6313	4.2727	0.	1.0134
9679	1.5406	4.3636	0.	0.89735
9680	1.6313	4.3636	5.e-002	35.639
9681	1.6313	4.0909	0.	0.83624
9682	1.5406	4.1818	0.	0.75913
9683	1.6313	4.1818	5.e-002	32.546
9684	1.6313	3.9091	0.	0.71159
9685	1.5406	4.	0.	0.64029
9686	1.6313	4.	5.e-002	29.519
9687	1.6313	3.7273	0.	0.69137
9688	1.5406	3.8182	0.	0.57802
9689	1.6313	3.8182	5.e-002	27.114
9690	1.6313	3.5455	0.	0.73604
9691	1.5406	3.6364	0.	0.58849
9692	1.6313	3.6364	5.e-002	25.894
9693	1.6313	3.3636	0.	0.78277
9694	1.5406	3.4545	0.	0.62337
9695	1.6313	3.4545	5.e-002	25.812
9696	1.6313	3.1818	0.	0.81881
9697	1.5406	3.2727	0.	0.66133
9698	1.6313	3.2727	5.e-002	26.25
9699	1.6313	3.	0.	0.83334
9700	1.5406	3.0909	0.	0.68685
9701	1.6313	3.0909	5.e-002	26.604
9702	1.6313	2.8182	0.	0.81881
9703	1.5406	2.9091	0.	0.68685
9704	1.6313	2.9091	5.e-002	26.604
9705	1.6313	2.6364	0.	0.78277
9706	1.5406	2.7273	0.	0.66133
9707	1.6313	2.7273	5.e-002	26.25
9708	1.6313	2.4545	0.	0.73604
9709	1.5406	2.5455	0.	0.62337
9710	1.6313	2.5455	5.e-002	25.812
9711	1.6313	2.2727	0.	0.69137
9712	1.5406	2.3636	0.	0.58849
9713	1.6313	2.3636	5.e-002	25.894
9714	1.6313	2.0909	0.	0.71159
9715	1.5406	2.1818	0.	0.57802
9716	1.6313	2.1818	5.e-002	27.114
9717	1.6313	1.9091	0.	0.83623
9718	1.5406	2.	0.	0.64029
9719	1.6313	2.	5.e-002	29.519
9720	1.6313	1.7273	0.	1.0134
9721	1.5406	1.8182	0.	0.75913
9722	1.6313	1.8182	5.e-002	32.546
9723	1.6313	1.5455	0.	1.2257
9724	1.5406	1.6364	0.	0.89735
9725	1.6313	1.6364	5.e-002	35.639
9726	1.6313	1.3636	0.	1.5032
9727	1.5406	1.4545	0.	1.0729
9728	1.6313	1.4545	5.e-002	38.466
9729	1.6313	1.1818	0.	1.8876
9730	1.5406	1.2727	0.	1.3069
9731	1.6313	1.2727	5.e-002	40.776
9732	1.6313	1.	0.	2.4645
9733	1.5406	1.0909	0.	1.6535
9734	1.6313	1.0909	5.e-002	42.336
9735	1.6313	0.81818	0.	3.4347
9736	1.5406	0.90909	0.	2.2029
9737	1.6313	0.90909	5.e-002	43.027
9738	1.6313	0.63636	0.	5.4647
9739	1.5406	0.72727	0.	3.2138
9740	1.6313	0.72727	5.e-002	42.851
9741	1.6313	0.45455	0.	14.365
9742	1.5406	0.54545	0.	5.6919
9743	1.6313	0.54545	5.e-002	41.973
9744	1.6313	0.27273	0.	90.25
9745	1.5406	0.36364	0.	25.779
9746	1.6313	0.36364	5.e-002	41.719
9747	1.5406	0.18182	0.	144.28
9748	1.6313	0.18182	5.e-002	61.436
9749	1.6313	9.0909e-002	0.	92.013
9750	1.45	5.7273	0.	66.909
9751	1.3594	5.8182	0.	133.58
9752	1.45	5.8182	5.e-002	55.577
9753	1.45	5.9091	0.	88.425
9754	1.45	5.5455	0.	6.932
9755	1.3594	5.6364	0.	12.064
9756	1.45	5.6364	5.e-002	36.004
9757	1.45	5.3636	0.	3.1199
9758	1.3594	5.4545	0.	3.546
9759	1.45	5.4545	5.e-002	37.062
9760	1.45	5.1818	0.	2.0406
9761	1.3594	5.2727	0.	2.2048
9762	1.45	5.2727	5.e-002	38.551
9763	1.45	5.	0.	1.4759
9764	1.3594	5.0909	0.	1.5755
9765	1.45	5.0909	5.e-002	39.162
9766	1.45	4.8182	0.	1.1395
9767	1.3594	4.9091	0.	1.2322
9768	1.45	4.9091	5.e-002	38.781
9769	1.45	4.6364	0.	0.91927
9770	1.3594	4.7273	0.	1.0161
9771	1.45	4.7273	5.e-002	37.439
9772	1.45	4.4545	0.	0.76498
9773	1.3594	4.5455	0.	0.87221
9774	1.45	4.5455	5.e-002	35.24
9775	1.45	4.2727	0.	0.64626
9776	1.3594	4.3636	0.	0.76538
9777	1.45	4.3636	5.e-002	32.326
9778	1.45	4.0909	0.	0.5554
9779	1.3594	4.1818	0.	0.67879
9780	1.45	4.1818	5.e-002	28.889
9781	1.45	3.9091	0.	0.4945
9782	1.3594	4.	0.	0.61473
9783	1.45	4.	5.e-002	25.219
9784	1.45	3.7273	0.	0.46401
9785	1.3594	3.8182	0.	0.57662
9786	1.45	3.8182	5.e-002	21.791
9787	1.45	3.5455	0.	0.46876
9788	1.3594	3.6364	0.	0.56752
9789	1.45	3.6364	5.e-002	19.188
9790	1.45	3.3636	0.	0.49901
9791	1.3594	3.4545	0.	0.58642
9792	1.45	3.4545	5.e-002	17.75
9793	1.45	3.1818	0.	0.52902
9794	1.3594	3.2727	0.	0.61459
9795	1.45	3.2727	5.e-002	17.265
9796	1.45	3.	0.	0.54083
9797	1.3594	3.0909	0.	0.63342
9798	1.45	3.0909	5.e-002	17.209
9799	1.45	2.8182	0.	0.52902
9800	1.3594	2.9091	0.	0.63342
9801	1.45	2.9091	5.e-002	17.209
9802	1.45	2.6364	0.	0.49901
9803	1.3594	2.7273	0.	0.61459
9804	1.45	2.7273	5.e-002	17.265
9805	1.45	2.4545	0.	0.46876
9806	1.3594	2.5455	0.	0.58642
9807	1.45	2.5455	5.e-002	17.75
9808	1.45	2.2727	0.	0.46401
9809	1.3594	2.3636	0.	0.56751
9810	1.45	2.3636	5.e-002	19.188
9811	1.45	2.0909	0.	0.49449
9812	1.3594	2.1818	0.	0.57662
9813	1.45	2.1818	5.e-002	21.791
9814	1.45	1.9091	0.	0.5554
9815	1.3594	2.	0.	0.61473
9816	1.45	2.	5.e-002	25.219
9817	1.45	1.7273	0.	0.64626
9818	1.3594	1.8182	0.	0.67879
9819	1.45	1.8182	5.e-002	28.889
9820	1.45	1.5455	0.	0.76498
9821	1.3594	1.6364	0.	0.76538
9822	1.45	1.6364	5.e-002	32.326
9823	1.45	1.3636	0.	0.91927
9824	1.3594	1.4545	0.	0.87221
9825	1.45	1.4545	5.e-002	35.24
9826	1.45	1.1818	0.	1.1395
9827	1.3594	1.2727	0.	1.0161
9828	1.45	1.2727	5.e-002	37.439
9829	1.45	1.	0.	1.4759
9830	1.3594	1.0909	0.	1.2322
9831	1.45	1.0909	5.e-002	38.78
9832	1.45	0.81818	0.	2.0406
9833	1.3594	0.90909	0.	1.5755
9834	1.45	0.90909	5.e-002	39.162
9835	1.45	0.63636	0.	3.1199
9836	1.3594	0.72727	0.	2.2048
9837	1.45	0.72727	5.e-002	38.551
9838	1.45	0.45455	0.	6.932
9839	1.3594	0.54545	0.	3.546
9840	1.45	0.54545	5.e-002	37.062
9841	1.45	0.27273	0.	66.909
9842	1.3594	0.36364	0.	12.064
9843	1.45	0.36364	5.e-002	36.004
9844	1.3594	0.18182	0.	133.58
9845	1.45	0.18182	5.e-002	55.577
9846	1.45	9.0909e-002	0.	88.425
9847	1.2687	5.7273	0.	44.373
9848	1.1781	5.8182	0.	124.84
9849	1.2687	5.8182	5.e-002	50.211
9850	1.2687	5.9091	0.	85.923
9851	1.2687	5.5455	0.	4.5307
9852	1.1781	5.6364	0.	6.927
9853	1.2687	5.6364	5.e-002	31.637
9854	1.2687	5.3636	0.	2.3844
9855	1.1781	5.4545	0.	2.2058
9856	1.2687	5.4545	5.e-002	33.769
9857	1.2687	5.1818	0.	1.7117
9858	1.1781	5.2727	0.	1.2751
9859	1.2687	5.2727	5.e-002	35.879
9860	1.2687	5.	0.	1.3395
9861	1.1781	5.0909	0.	0.7835
9862	1.2687	5.0909	5.e-002	36.834
9863	1.2687	4.8182	0.	1.121
9864	1.1781	4.9091	0.	0.51504
9865	1.2687	4.9091	5.e-002	36.624
9866	1.2687	4.6364	0.	0.97777
9867	1.1781	4.7273	0.	0.3433
9868	1.2687	4.7273	5.e-002	35.353
9869	1.2687	4.4545	0.	0.87603
9870	1.1781	4.5455	0.	0.22711
9871	1.2687	4.5455	5.e-002	33.152
9872	1.2687	4.2727	0.	0.79642
9873	1.1781	4.3636	0.	0.13935
9874	1.2687	4.3636	5.e-002	30.168
9875	1.2687	4.0909	0.	0.73322
9876	1.1781	4.1818	0.	6.9448e-002
9877	1.2687	4.1818	5.e-002	26.575
9878	1.2687	3.9091	0.	0.69051
9879	1.1781	4.	0.	1.6049e-002
9880	1.2687	4.	5.e-002	22.602
9881	1.2687	3.7273	0.	0.67428
9882	1.1781	3.8182	0.	-1.5908e-002
9883	1.2687	3.8182	5.e-002	18.569
9884	1.2687	3.5455	0.	0.68109
9885	1.1781	3.6364	0.	-2.4751e-002
9886	1.2687	3.6364	5.e-002	14.887
9887	1.2687	3.3636	0.	0.69992
9888	1.1781	3.4545	0.	-1.6924e-002
9889	1.2687	3.4545	5.e-002	11.973
9890	1.2687	3.1818	0.	0.71834
9891	1.1781	3.2727	0.	-2.4087e-003
9892	1.2687	3.2727	5.e-002	10.09
9893	1.2687	3.	0.	0.72587
9894	1.1781	3.0909	0.	8.2245e-003
9895	1.2687	3.0909	5.e-002	9.2266
9896	1.2687	2.8182	0.	0.71834
9897	1.1781	2.9091	0.	8.2245e-003
9898	1.2687	2.9091	5.e-002	9.2266
9899	1.2687	2.6364	0.	0.69992
9900	1.1781	2.7273	0.	-2.4089e-003
9901	1.2687	2.7273	5.e-002	10.09
9902	1.2687	2.4545	0.	0.68109
9903	1.1781	2.5455	0.	-1.6925e-002
9904	1.2687	2.5455	5.e-002	11.973
9905	1.2687	2.2727	0.	0.67428
9906	1.1781	2.3636	0.	-2.4751e-002
9907	1.2687	2.3636	5.e-002	14.887
9908	1.2687	2.0909	0.	0.69051
9909	1.1781	2.1818	0.	-1.5909e-002
9910	1.2687	2.1818	5.e-002	18.569
9911	1.2687	1.9091	0.	0.73322
9912	1.1781	2.	0.	1.6049e-002
9913	1.2687	2.	5.e-002	22.602
9914	1.2687	1.7273	0.	0.79642
9915	1.1781	1.8182	0.	6.9448e-002
9916	1.2687	1.8182	5.e-002	26.575
9917	1.2687	1.5455	0.	0.87603
9918	1.1781	1.6364	0.	0.13935
9919	1.2687	1.6364	5.e-002	30.168
9920	1.2687	1.3636	0.	0.97777
9921	1.1781	1.4545	0.	0.22711
9922	1.2687	1.4545	5.e-002	33.151
9923	1.2687	1.1818	0.	1.121
9924	1.1781	1.2727	0.	0.3433
9925	1.2687	1.2727	5.e-002	35.353
9926	1.2687	1.	0.	1.3395
9927	1.1781	1.0909	0.	0.51504
9928	1.2687	1.0909	5.e-002	36.624
9929	1.2687	0.81818	0.	1.7117
9930	1.1781	0.90909	0.	0.7835
9931	1.2687	0.90909	5.e-002	36.834
9932	1.2687	0.63636	0.	2.3844
9933	1.1781	0.72727	0.	1.2751
9934	1.2687	0.72727	5.e-002	35.879
9935	1.2687	0.45455	0.	4.5307
9936	1.1781	0.54545	0.	2.2058
9937	1.2687	0.54545	5.e-002	33.769
9938	1.2687	0.27273	0.	44.373
9939	1.1781	0.36364	0.	6.927
9940	1.2687	0.36364	5.e-002	31.637
9941	1.1781	0.18182	0.	124.84
9942	1.2687	0.18182	5.e-002	50.211
9943	1.2687	9.0909e-002	0.	85.923
9944	1.0875	5.7273	0.	26.629
9945	0.99687	5.8182	0.	119.66
9946	1.0875	5.8182	5.e-002	45.31
9947	1.0875	5.9091	0.	85.722
9948	1.0875	5.5455	0.	2.629
9949	0.99687	5.6364	0.	6.2032
9950	1.0875	5.6364	5.e-002	29.372
9951	1.0875	5.3636	0.	0.89949
9952	0.99687	5.4545	0.	3.1618
9953	1.0875	5.4545	5.e-002	32.613
9954	1.0875	5.1818	0.	0.30004
9955	0.99687	5.2727	0.	2.6061
9956	1.0875	5.2727	5.e-002	35.033
9957	1.0875	5.	0.	-5.3881e-002
9958	0.99687	5.0909	0.	2.3014
9959	1.0875	5.0909	5.e-002	36.
9960	1.0875	4.8182	0.	-0.26573
9961	0.99687	4.9091	0.	2.1576
9962	1.0875	4.9091	5.e-002	35.692
9963	1.0875	4.6364	0.	-0.40813
9964	0.99687	4.7273	0.	2.0703
9965	1.0875	4.7273	5.e-002	34.308
9966	1.0875	4.4545	0.	-0.51064
9967	0.99687	4.5455	0.	2.0125
9968	1.0875	4.5455	5.e-002	32.019
9969	1.0875	4.2727	0.	-0.58974
9970	0.99687	4.3636	0.	1.9667
9971	1.0875	4.3636	5.e-002	28.986
9972	1.0875	4.0909	0.	-0.65077
9973	0.99687	4.1818	0.	1.9283
9974	1.0875	4.1818	5.e-002	25.38
9975	1.0875	3.9091	0.	-0.69381
9976	0.99687	4.	0.	1.8979
9977	1.0875	4.	5.e-002	21.384
9978	1.0875	3.7273	0.	-0.71808
9979	0.99687	3.8182	0.	1.8785
9980	1.0875	3.8182	5.e-002	17.208
9981	1.0875	3.5455	0.	-0.72509
9982	0.99687	3.6364	0.	1.8715
9983	1.0875	3.6364	5.e-002	13.069
9984	1.0875	3.3636	0.	-0.72062
9985	0.99687	3.4545	0.	1.8747
9986	1.0875	3.4545	5.e-002	9.1616
9987	1.0875	3.1818	0.	-0.71315
9988	0.99687	3.2727	0.	1.8825
9989	1.0875	3.2727	5.e-002	5.6373
9990	1.0875	3.	0.	-0.70977
9991	0.99687	3.0909	0.	1.8884
9992	1.0875	3.0909	5.e-002	2.8256
9993	1.0875	2.8182	0.	-0.71316
9994	0.99687	2.9091	0.	1.8884
9995	1.0875	2.9091	5.e-002	2.8255
9996	1.0875	2.6364	0.	-0.72062
9997	0.99687	2.7273	0.	1.8825
9998	1.0875	2.7273	5.e-002	5.6372
9999	1.0875	2.4545	0.	-0.72509
10000	0.99687	2.5455	0.	1.8747
10001	1.0875	2.5455	5.e-002	9.1615
10002	1.0875	2.2727	0.	-0.71808
10003	0.99687	2.3636	0.	1.8715
10004	1.0875	2.3636	5.e-002	13.069
10005	1.0875	2.0909	0.	-0.69381
10006	0.99687	2.1818	0.	1.8785
10007	1.0875	2.1818	5.e-002	17.208
10008	1.0875	1.9091	0.	-0.65077
10009	0.99687	2.	0.	1.8979
10010	1.0875	2.	5.e-002	21.384
10011	1.0875	1.7273	0.	-0.58974
10012	0.99687	1.8182	0.	1.9283
10013	1.0875	1.8182	5.e-002	25.38
10014	1.0875	1.5455	0.	-0.51064
10015	0.99687	1.6364	0.	1.9667
10016	1.0875	1.6364	5.e-002	28.986
10017	1.0875	1.3636	0.	-0.40813
10018	0.99687	1.4545	0.	2.0125
10019	1.0875	1.4545	5.e-002	32.019
10020	1.0875	1.1818	0.	-0.26573
10021	0.99687	1.2727	0.	2.0703
10022	1.0875	1.2727	5.e-002	34.308
10023	1.0875	1.	0.	-5.388e-002
10024	0.99687	1.0909	0.	2.1576
10025	1.0875	1.0909	5.e-002	35.692
10026	1.0875	0.81818	0.	0.30004
10027	0.99687	0.90909	0.	2.3014
10028	1.0875	0.90909	5.e-002	36.
10029	1.0875	0.63636	0.	0.89949
10030	0.99687	0.72727	0.	2.6061
10031	1.0875	0.72727	5.e-002	35.033
10032	1.0875	0.45455	0.	2.629
10033	0.99687	0.54545	0.	3.1618
10034	1.0875	0.54545	5.e-002	32.613
10035	1.0875	0.27273	0.	26.629
10036	0.99687	0.36364	0.	6.2032
10037	1.0875	0.36364	5.e-002	29.372
10038	0.99687	0.18182	0.	119.66
10039	1.0875	0.18182	5.e-002	45.31
10040	1.0875	9.0909e-002	0.	85.722
10041	0.90625	5.7273	0.	18.803
10042	0.81563	5.8182	0.	117.51
10043	0.90625	5.8182	5.e-002	40.834
10044	0.90625	5.9091	0.	89.735
10045	0.90625	5.5455	0.	5.5066
10046	0.81563	5.6364	0.	1.3603
10047	0.90625	5.6364	5.e-002	30.469
10048	0.90625	5.3636	0.	4.6981
10049	0.81563	5.4545	0.	-2.5732
10050	0.90625	5.4545	5.e-002	34.224
10051	0.90625	5.1818	0.	4.5559
10052	0.81563	5.2727	0.	-3.7091
10053	0.90625	5.2727	5.e-002	36.18
10054	0.90625	5.	0.	4.4936
10055	0.81563	5.0909	0.	-4.4409
10056	0.90625	5.0909	5.e-002	36.603
10057	0.90625	4.8182	0.	4.4859
10058	0.81563	4.9091	0.	-4.88
10059	0.90625	4.9091	5.e-002	35.87
10060	0.90625	4.6364	0.	4.4875
10061	0.81563	4.7273	0.	-5.1859
10062	0.90625	4.7273	5.e-002	34.203
10063	0.90625	4.4545	0.	4.488
10064	0.81563	4.5455	0.	-5.4062
10065	0.90625	4.5455	5.e-002	31.76
10066	0.90625	4.2727	0.	4.4832
10067	0.81563	4.3636	0.	-5.5725
10068	0.90625	4.3636	5.e-002	28.693
10069	0.90625	4.0909	0.	4.4753
10070	0.81563	4.1818	0.	-5.6986
10071	0.90625	4.1818	5.e-002	25.165
10072	0.90625	3.9091	0.	4.4685
10073	0.81563	4.	0.	-5.7923
10074	0.90625	4.	5.e-002	21.341
10075	0.90625	3.7273	0.	4.4665
10076	0.81563	3.8182	0.	-5.8581
10077	0.90625	3.8182	5.e-002	17.393
10078	0.90625	3.5455	0.	4.47
10079	0.81563	3.6364	0.	-5.9003
10080	0.90625	3.6364	5.e-002	13.484
10081	0.90625	3.3636	0.	4.4769
10082	0.81563	3.4545	0.	-5.9241
10083	0.90625	3.4545	5.e-002	9.7637
10084	0.90625	3.1818	0.	4.4834
10085	0.81563	3.2727	0.	-5.9354
10086	0.90625	3.2727	5.e-002	6.4018
10087	0.90625	3.	0.	4.4861
10088	0.81563	3.0909	0.	-5.9395
10089	0.90625	3.0909	5.e-002	3.8908
10090	0.90625	2.8182	0.	4.4834
10091	0.81563	2.9091	0.	-5.9395
10092	0.90625	2.9091	5.e-002	3.8909
10093	0.90625	2.6364	0.	4.4769
10094	0.81563	2.7273	0.	-5.9354
10095	0.90625	2.7273	5.e-002	6.402
10096	0.90625	2.4545	0.	4.47
10097	0.81563	2.5455	0.	-5.9241
10098	0.90625	2.5455	5.e-002	9.7638
10099	0.90625	2.2727	0.	4.4665
10100	0.81563	2.3636	0.	-5.9003
10101	0.90625	2.3636	5.e-002	13.485
10102	0.90625	2.0909	0.	4.4685
10103	0.81563	2.1818	0.	-5.8581
10104	0.90625	2.1818	5.e-002	17.394
10105	0.90625	1.9091	0.	4.4753
10106	0.81563	2.	0.	-5.7923
10107	0.90625	2.	5.e-002	21.341
10108	0.90625	1.7273	0.	4.4832
10109	0.81563	1.8182	0.	-5.6986
10110	0.90625	1.8182	5.e-002	25.165
10111	0.90625	1.5455	0.	4.488
10112	0.81563	1.6364	0.	-5.5725
10113	0.90625	1.6364	5.e-002	28.693
10114	0.90625	1.3636	0.	4.4875
10115	0.81563	1.4545	0.	-5.4062
10116	0.90625	1.4545	5.e-002	31.76
10117	0.90625	1.1818	0.	4.4859
10118	0.81563	1.2727	0.	-5.1859
10119	0.90625	1.2727	5.e-002	34.203
10120	0.90625	1.	0.	4.4936
10121	0.81563	1.0909	0.	-4.88
10122	0.90625	1.0909	5.e-002	35.87
10123	0.90625	0.81818	0.	4.5559
10124	0.81563	0.90909	0.	-4.4409
10125	0.90625	0.90909	5.e-002	36.603
10126	0.90625	0.63636	0.	4.6981
10127	0.81563	0.72727	0.	-3.7091
10128	0.90625	0.72727	5.e-002	36.18
10129	0.90625	0.45455	0.	5.5066
10130	0.81563	0.54545	0.	-2.5732
10131	0.90625	0.54545	5.e-002	34.224
10132	0.90625	0.27273	0.	18.803
10133	0.81563	0.36364	0.	1.3603
10134	0.90625	0.36364	5.e-002	30.469
10135	0.81563	0.18182	0.	117.51
10136	0.90625	0.18182	5.e-002	40.834
10137	0.90625	9.0909e-002	0.	89.735
10138	0.725	5.7273	0.	7.0967
10139	0.63437	5.8182	0.	122.04
10140	0.725	5.8182	5.e-002	37.788
10141	0.725	5.9091	0.	97.328
10142	0.725	5.5455	0.	-7.7325
10143	0.63437	5.6364	0.	18.654
10144	0.725	5.6364	5.e-002	36.784
10145	0.725	5.3636	0.	-11.158
10146	0.63437	5.4545	0.	19.971
10147	0.725	5.4545	5.e-002	39.321
10148	0.725	5.1818	0.	-12.767
10149	0.63437	5.2727	0.	21.225
10150	0.725	5.2727	5.e-002	39.536
10151	0.725	5.	0.	-13.84
10152	0.63437	5.0909	0.	22.159
10153	0.725	5.0909	5.e-002	38.782
10154	0.725	4.8182	0.	-14.563
10155	0.63437	4.9091	0.	22.899
10156	0.725	4.9091	5.e-002	37.353
10157	0.725	4.6364	0.	-15.085
10158	0.63437	4.7273	0.	23.444
10159	0.725	4.7273	5.e-002	35.278
10160	0.725	4.4545	0.	-15.469
10161	0.63437	4.5455	0.	23.844
10162	0.725	4.5455	5.e-002	32.616
10163	0.725	4.2727	0.	-15.756
10164	0.63437	4.3636	0.	24.131
10165	0.725	4.3636	5.e-002	29.485
10166	0.725	4.0909	0.	-15.967
10167	0.63437	4.1818	0.	24.334
10168	0.725	4.1818	5.e-002	26.036
10169	0.725	3.9091	0.	-16.12
10170	0.63437	4.	0.	24.476
10171	0.725	4.	5.e-002	22.435
10172	0.725	3.7273	0.	-16.226
10173	0.63437	3.8182	0.	24.575
10174	0.725	3.8182	5.e-002	18.847
10175	0.725	3.5455	0.	-16.295
10176	0.63437	3.6364	0.	24.643
10177	0.725	3.6364	5.e-002	15.444
10178	0.725	3.3636	0.	-16.337
10179	0.63437	3.4545	0.	24.689
10180	0.725	3.4545	5.e-002	12.415
10181	0.725	3.1818	0.	-16.359
10182	0.63437	3.2727	0.	24.719
10183	0.725	3.2727	5.e-002	10.014
10184	0.725	3.	0.	-16.365
10185	0.63437	3.0909	0.	24.733
10186	0.725	3.0909	5.e-002	8.6181
10187	0.725	2.8182	0.	-16.359
10188	0.63437	2.9091	0.	24.733
10189	0.725	2.9091	5.e-002	8.6182
10190	0.725	2.6364	0.	-16.337
10191	0.63437	2.7273	0.	24.719
10192	0.725	2.7273	5.e-002	10.014
10193	0.725	2.4545	0.	-16.295
10194	0.63437	2.5455	0.	24.689
10195	0.725	2.5455	5.e-002	12.415
10196	0.725	2.2727	0.	-16.226
10197	0.63437	2.3636	0.	24.643
10198	0.725	2.3636	5.e-002	15.444
10199	0.725	2.0909	0.	-16.12
10200	0.63437	2.1818	0.	24.575
10201	0.725	2.1818	5.e-002	18.847
10202	0.725	1.9091	0.	-15.967
10203	0.63437	2.	0.	24.476
10204	0.725	2.	5.e-002	22.435
10205	0.725	1.7273	0.	-15.756
10206	0.63437	1.8182	0.	24.334
10207	0.725	1.8182	5.e-002	26.036
10208	0.725	1.5455	0.	-15.469
10209	0.63437	1.6364	0.	24.131
10210	0.725	1.6364	5.e-002	29.485
10211	0.725	1.3636	0.	-15.085
10212	0.63437	1.4545	0.	23.844
10213	0.725	1.4545	5.e-002	32.616
10214	0.725	1.1818	0.	-14.563
10215	0.63437	1.2727	0.	23.444
10216	0.725	1.2727	5.e-002	35.278
10217	0.725	1.	0.	-13.84
10218	0.63437	1.0909	0.	22.899
10219	0.725	1.0909	5.e-002	37.353
10220	0.725	0.81818	0.	-12.767
10221	0.63437	0.90909	0.	22.159
10222	0.725	0.90909	5.e-002	38.782
10223	0.725	0.63636	0.	-11.158
10224	0.63437	0.72727	0.	21.225
10225	0.725	0.72727	5.e-002	39.536
10226	0.725	0.45455	0.	-7.7325
10227	0.63437	0.54545	0.	19.971
10228	0.725	0.54545	5.e-002	39.321
10229	0.725	0.27273	0.	7.0967
10230	0.63437	0.36364	0.	18.654
10231	0.725	0.36364	5.e-002	36.784
10232	0.63437	0.18182	0.	122.04
10233	0.725	0.18182	5.e-002	37.788
10234	0.725	9.0909e-002	0.	97.328
10235	0.54375	5.7273	0.	37.184
10236	0.45312	5.8182	0.	109.89
10237	0.54375	5.8182	5.e-002	40.049
10238	0.54375	5.9091	0.	118.4
10239	0.54375	5.5455	0.	45.513
10240	0.45312	5.6364	0.	-48.769
10241	0.54375	5.6364	5.e-002	50.341
10242	0.54375	5.3636	0.	52.178
10243	0.45312	5.4545	0.	-67.348
10244	0.54375	5.4545	5.e-002	47.99
10245	0.54375	5.1818	0.	56.093
10246	0.45312	5.2727	0.	-76.613
10247	0.54375	5.2727	5.e-002	44.711
10248	0.54375	5.	0.	58.876
10249	0.45312	5.0909	0.	-82.513
10250	0.54375	5.0909	5.e-002	42.219
10251	0.54375	4.8182	0.	60.898
10252	0.45312	4.9091	0.	-86.597
10253	0.54375	4.9091	5.e-002	39.799
10254	0.54375	4.6364	0.	62.371
10255	0.45312	4.7273	0.	-89.53
10256	0.54375	4.7273	5.e-002	37.099
10257	0.54375	4.4545	0.	63.444
10258	0.45312	4.5455	0.	-91.676
10259	0.54375	4.5455	5.e-002	34.028
10260	0.54375	4.2727	0.	64.222
10261	0.45312	4.3636	0.	-93.25
10262	0.54375	4.3636	5.e-002	30.669
10263	0.54375	4.0909	0.	64.778
10264	0.45312	4.1818	0.	-94.396
10265	0.54375	4.1818	5.e-002	27.162
10266	0.54375	3.9091	0.	65.17
10267	0.45312	4.	0.	-95.22
10268	0.54375	4.	5.e-002	23.661
10269	0.54375	3.7273	0.	65.443
10270	0.45312	3.8182	0.	-95.8
10271	0.54375	3.8182	5.e-002	20.322
10272	0.54375	3.5455	0.	65.627
10273	0.45312	3.6364	0.	-96.198
10274	0.54375	3.6364	5.e-002	17.302
10275	0.54375	3.3636	0.	65.745
10276	0.45312	3.4545	0.	-96.459
10277	0.54375	3.4545	5.e-002	14.765
10278	0.54375	3.1818	0.	65.81
10279	0.45312	3.2727	0.	-96.616
10280	0.54375	3.2727	5.e-002	12.894
10281	0.54375	3.	0.	65.832
10282	0.45312	3.0909	0.	-96.689
10283	0.54375	3.0909	5.e-002	11.886
10284	0.54375	2.8182	0.	65.81
10285	0.45312	2.9091	0.	-96.689
10286	0.54375	2.9091	5.e-002	11.886
10287	0.54375	2.6364	0.	65.745
10288	0.45312	2.7273	0.	-96.616
10289	0.54375	2.7273	5.e-002	12.894
10290	0.54375	2.4545	0.	65.627
10291	0.45312	2.5455	0.	-96.459
10292	0.54375	2.5455	5.e-002	14.765
10293	0.54375	2.2727	0.	65.443
10294	0.45312	2.3636	0.	-96.198
10295	0.54375	2.3636	5.e-002	17.302
10296	0.54375	2.0909	0.	65.17
10297	0.45312	2.1818	0.	-95.8
10298	0.54375	2.1818	5.e-002	20.322
10299	0.54375	1.9091	0.	64.778
10300	0.45312	2.	0.	-95.22
10301	0.54375	2.	5.e-002	23.661
10302	0.54375	1.7273	0.	64.222
10303	0.45312	1.8182	0.	-94.396
10304	0.54375	1.8182	5.e-002	27.162
10305	0.54375	1.5455	0.	63.444
10306	0.45312	1.6364	0.	-93.25
10307	0.54375	1.6364	5.e-002	30.669
10308	0.54375	1.3636	0.	62.371
10309	0.45312	1.4545	0.	-91.676
10310	0.54375	1.4545	5.e-002	34.028
10311	0.54375	1.1818	0.	60.898
10312	0.45312	1.2727	0.	-89.53
10313	0.54375	1.2727	5.e-002	37.099
10314	0.54375	1.	0.	58.876
10315	0.45312	1.0909	0.	-86.597
10316	0.54375	1.0909	5.e-002	39.8
10317	0.54375	0.81818	0.	56.092
10318	0.45312	0.90909	0.	-82.513
10319	0.54375	0.90909	5.e-002	42.219
10320	0.54375	0.63636	0.	52.178
10321	0.45312	0.72727	0.	-76.613
10322	0.54375	0.72727	5.e-002	44.711
10323	0.54375	0.45455	0.	45.513
10324	0.45312	0.54545	0.	-67.348
10325	0.54375	0.54545	5.e-002	47.99
10326	0.54375	0.27273	0.	37.184
10327	0.45312	0.36364	0.	-48.769
10328	0.54375	0.36364	5.e-002	50.341
10329	0.45312	0.18182	0.	109.89
10330	0.54375	0.18182	5.e-002	40.049
10331	0.54375	9.0909e-002	0.	118.4
10332	0.3625	5.7273	0.	-91.107
10333	0.27187	5.8182	0.	166.96
10334	0.3625	5.8182	5.e-002	65.819
10335	0.3625	5.9091	0.	126.46
10336	0.3625	5.5455	0.	-162.9
10337	0.27187	5.6364	0.	238.79
10338	0.3625	5.6364	5.e-002	74.906
10339	0.3625	5.3636	0.	-196.4
10340	0.27187	5.4545	0.	281.6
10341	0.3625	5.4545	5.e-002	61.336
10342	0.3625	5.1818	0.	-215.3
10343	0.27187	5.2727	0.	312.64
10344	0.3625	5.2727	5.e-002	54.303
10345	0.3625	5.	0.	-228.02
10346	0.27187	5.0909	0.	332.57
10347	0.3625	5.0909	5.e-002	49.959
10348	0.3625	4.8182	0.	-237.04
10349	0.27187	4.9091	0.	347.05
10350	0.3625	4.9091	5.e-002	46.462
10351	0.3625	4.6364	0.	-243.58
10352	0.27187	4.7273	0.	357.52
10353	0.3625	4.7273	5.e-002	42.917
10354	0.3625	4.4545	0.	-248.37
10355	0.27187	4.5455	0.	365.22
10356	0.3625	4.5455	5.e-002	39.216
10357	0.3625	4.2727	0.	-251.87
10358	0.27187	4.3636	0.	370.85
10359	0.3625	4.3636	5.e-002	35.431
10360	0.3625	4.0909	0.	-254.39
10361	0.27187	4.1818	0.	374.94
10362	0.3625	4.1818	5.e-002	31.685
10363	0.3625	3.9091	0.	-256.19
10364	0.27187	4.	0.	377.86
10365	0.3625	4.	5.e-002	28.114
10366	0.3625	3.7273	0.	-257.44
10367	0.27187	3.8182	0.	379.91
10368	0.3625	3.8182	5.e-002	24.855
10369	0.3625	3.5455	0.	-258.28
10370	0.27187	3.6364	0.	381.31
10371	0.3625	3.6364	5.e-002	22.037
10372	0.3625	3.3636	0.	-258.82
10373	0.27187	3.4545	0.	382.23
10374	0.3625	3.4545	5.e-002	19.783
10375	0.3625	3.1818	0.	-259.11
10376	0.27187	3.2727	0.	382.78
10377	0.3625	3.2727	5.e-002	18.203
10378	0.3625	3.	0.	-259.21
10379	0.27187	3.0909	0.	383.04
10380	0.3625	3.0909	5.e-002	17.387
10381	0.3625	2.8182	0.	-259.11
10382	0.27187	2.9091	0.	383.04
10383	0.3625	2.9091	5.e-002	17.387
10384	0.3625	2.6364	0.	-258.82
10385	0.27187	2.7273	0.	382.78
10386	0.3625	2.7273	5.e-002	18.203
10387	0.3625	2.4545	0.	-258.28
10388	0.27187	2.5455	0.	382.23
10389	0.3625	2.5455	5.e-002	19.783
10390	0.3625	2.2727	0.	-257.44
10391	0.27187	2.3636	0.	381.31
10392	0.3625	2.3636	5.e-002	22.037
10393	0.3625	2.0909	0.	-256.19
10394	0.27187	2.1818	0.	379.91
10395	0.3625	2.1818	5.e-002	24.855
10396	0.3625	1.9091	0.	-254.39
10397	0.27187	2.	0.	377.86
10398	0.3625	2.	5.e-002	28.115
10399	0.3625	1.7273	0.	-251.87
10400	0.27187	1.8182	0.	374.94
10401	0.3625	1.8182	5.e-002	31.685
10402	0.3625	1.5455	0.	-248.37
10403	0.27187	1.6364	0.	370.85
10404	0.3625	1.6364	5.e-002	35.431
10405	0.3625	1.3636	0.	-243.58
10406	0.27187	1.4545	0.	365.22
10407	0.3625	1.4545	5.e-002	39.216
10408	0.3625	1.1818	0.	-237.04
10409	0.27187	1.2727	0.	357.52
10410	0.3625	1.2727	5.e-002	42.917
10411	0.3625	1.	0.	-228.02
10412	0.27187	1.0909	0.	347.05
10413	0.3625	1.0909	5.e-002	46.462
10414	0.3625	0.81818	0.	-215.3
10415	0.27187	0.90909	0.	332.57
10416	0.3625	0.90909	5.e-002	49.959
10417	0.3625	0.63636	0.	-196.4
10418	0.27187	0.72727	0.	312.64
10419	0.3625	0.72727	5.e-002	54.303
10420	0.3625	0.45455	0.	-162.9
10421	0.27187	0.54545	0.	281.6
10422	0.3625	0.54545	5.e-002	61.336
10423	0.3625	0.27273	0.	-91.107
10424	0.27187	0.36364	0.	238.79
10425	0.3625	0.36364	5.e-002	74.906
10426	0.27187	0.18182	0.	166.96
10427	0.3625	0.18182	5.e-002	65.819
10428	0.3625	9.0909e-002	0.	126.46
10429	0.18125	5.7273	0.	458.67
10430	0.18125	5.8182	5.e-002	164.94
10431	0.18125	5.9091	0.	211.44
10432	9.0625e-002	5.8182	0.	-418.65
10433	0.18125	5.5455	0.	682.72
10434	0.18125	5.6364	5.e-002	106.67
10435	9.0625e-002	5.6364	0.	-839.21
10436	0.18125	5.3636	0.	790.65
10437	0.18125	5.4545	5.e-002	77.032
10438	9.0625e-002	5.4545	0.	-1034.
10439	0.18125	5.1818	0.	860.58
10440	0.18125	5.2727	5.e-002	61.977
10441	9.0625e-002	5.2727	0.	-1150.1
10442	0.18125	5.	0.	907.69
10443	0.18125	5.0909	5.e-002	53.391
10444	9.0625e-002	5.0909	0.	-1229.1
10445	0.18125	4.8182	0.	941.64
10446	0.18125	4.9091	5.e-002	46.554
10447	9.0625e-002	4.9091	0.	-1285.2
10448	0.18125	4.6364	0.	966.34
10449	0.18125	4.7273	5.e-002	40.624
10450	9.0625e-002	4.7273	0.	-1326.3
10451	0.18125	4.4545	0.	984.47
10452	0.18125	4.5455	5.e-002	35.234
10453	9.0625e-002	4.5455	0.	-1356.6
10454	0.18125	4.2727	0.	997.68
10455	0.18125	4.3636	5.e-002	30.259
10456	9.0625e-002	4.3636	0.	-1379.1
10457	0.18125	4.0909	0.	1007.2
10458	0.18125	4.1818	5.e-002	25.683
10459	9.0625e-002	4.1818	0.	-1395.6
10460	0.18125	3.9091	0.	1014.
10461	0.18125	4.	5.e-002	21.547
10462	9.0625e-002	4.	0.	-1407.5
10463	0.18125	3.7273	0.	1018.7
10464	0.18125	3.8182	5.e-002	17.919
10465	9.0625e-002	3.8182	0.	-1416.1
10466	0.18125	3.5455	0.	1021.8
10467	0.18125	3.6364	5.e-002	14.877
10468	9.0625e-002	3.6364	0.	-1422.
10469	0.18125	3.3636	0.	1023.8
10470	0.18125	3.4545	5.e-002	12.495
10471	9.0625e-002	3.4545	0.	-1426.
10472	0.18125	3.1818	0.	1024.9
10473	0.18125	3.2727	5.e-002	10.849
10474	9.0625e-002	3.2727	0.	-1428.4
10475	0.18125	3.	0.	1025.3
10476	0.18125	3.0909	5.e-002	10.003
10477	9.0625e-002	3.0909	0.	-1429.6
10478	0.18125	2.8182	0.	1024.9
10479	0.18125	2.9091	5.e-002	10.003
10480	9.0625e-002	2.9091	0.	-1429.6
10481	0.18125	2.6364	0.	1023.8
10482	0.18125	2.7273	5.e-002	10.849
10483	9.0625e-002	2.7273	0.	-1428.4
10484	0.18125	2.4545	0.	1021.8
10485	0.18125	2.5455	5.e-002	12.496
10486	9.0625e-002	2.5455	0.	-1426.
10487	0.18125	2.2727	0.	1018.7
10488	0.18125	2.3636	5.e-002	14.877
10489	9.0625e-002	2.3636	0.	-1422.
10490	0.18125	2.0909	0.	1014.
10491	0.18125	2.1818	5.e-002	17.919
10492	9.0625e-002	2.1818	0.	-1416.1
10493	0.18125	1.9091	0.	1007.2
10494	0.18125	2.	5.e-002	21.547
10495	9.0625e-002	2.	0.	-1407.5
10496	0.18125	1.7273	0.	997.68
10497	0.18125	1.8182	5.e-002	25.683
10498	9.0625e-002	1.8182	0.	-1395.6
10499	0.18125	1.5455	0.	984.47
10500	0.18125	1.6364	5.e-002	30.259
10501	9.0625e-002	1.6364	0.	-1379.1
10502	0.18125	1.3636	0.	966.34
10503	0.18125	1.4545	5.e-002	35.234
10504	9.0625e-002	1.4545	0.	-1356.6
10505	0.18125	1.1818	0.	941.64
10506	0.18125	1.2727	5.e-002	40.624
10507	9.0625e-002	1.2727	0.	-1326.3
10508	0.18125	1.	0.	907.69
10509	0.18125	1.0909	5.e-002	46.554
10510	9.0625e-002	1.0909	0.	-1285.2
10511	0.18125	0.81818	0.	860.58
10512	0.18125	0.90909	5.e-002	53.391
10513	9.0625e-002	0.90909	0.	-1229.1
10514	0.18125	0.63636	0.	790.65
10515	0.18125	0.72727	5.e-002	61.977
10516	9.0625e-002	0.72727	0.	-1150.1
10517	0.18125	0.45455	0.	682.72
10518	0.18125	0.54545	5.e-002	77.032
10519	9.0625e-002	0.54545	0.	-1034.
10520	0.18125	0.27273	0.	458.67
10521	0.18125	0.36364	5.e-002	106.67
10522	9.0625e-002	0.36364	0.	-839.21
10523	0.18125	0.18182	5.e-002	164.94
10524	0.18125	9.0909e-002	0.	211.44
10525	9.0625e-002	0.18182	0.	-418.65
10526	3.2503	0.27273	0.	238.58
10527	3.3421	0.18182	0.	123.53
10528	3.2503	0.18182	5.e-002	78.731
10529	3.2503	9.0909e-002	0.	60.444
10530	3.1585	0.18182	0.	72.788
10531	3.2503	0.45455	0.	463.84
10532	3.3421	0.36364	0.	233.19
10533	3.2503	0.36364	5.e-002	71.25
10534	3.1585	0.36364	0.	237.7
10535	3.2503	0.63636	0.	761.21
10536	3.3421	0.54545	0.	451.62
10537	3.2503	0.54545	5.e-002	76.071
10538	3.1585	0.54545	0.	460.76
10539	3.2503	0.81818	0.	1110.3
10540	3.3421	0.72727	0.	725.89
10541	3.2503	0.72727	5.e-002	85.607
10542	3.1585	0.72727	0.	721.83
10543	3.2503	1.	0.	1518.2
10544	3.3421	0.90909	0.	1044.5
10545	3.2503	0.90909	5.e-002	99.871
10546	3.1585	0.90909	0.	1026.6
10547	3.2503	1.1818	0.	2006.1
10548	3.3421	1.0909	0.	1409.3
10549	3.2503	1.0909	5.e-002	120.07
10550	3.1585	1.0909	0.	1390.2
10551	3.2503	1.3636	0.	2599.7
10552	3.3421	1.2727	0.	1829.6
10553	3.2503	1.2727	5.e-002	151.16
10554	3.1585	1.2727	0.	1839.1
10555	3.2503	1.5455	0.	3388.5
10556	3.3421	1.4545	0.	2294.
10557	3.2503	1.4545	5.e-002	190.84
10558	3.1585	1.4545	0.	2435.6
10559	3.2503	1.7273	0.	4065.5
10560	3.3421	1.6364	0.	2819.5
10561	3.2503	1.6364	5.e-002	290.82
10562	3.1585	1.6364	0.	3132.3
10563	3.2503	1.9091	0.	3484.9
10564	3.3421	1.8182	0.	3003.4
10565	3.2503	1.8182	5.e-002	535.53
10566	3.1585	1.8182	0.	4887.4
10567	3.2503	2.0909	0.	1767.4
10568	3.3421	2.	0.	1882.9
10569	3.2503	2.	5.e-002	977.42
10570	3.1585	2.	0.	3035.
10571	3.2503	2.2727	0.	886.29
10572	3.3421	2.1818	0.	732.22
10573	3.2503	2.1818	5.e-002	498.2
10574	3.2503	2.4545	0.	696.37
10575	3.3421	2.3636	0.	531.22
10576	3.2503	2.3636	5.e-002	219.63
10577	3.2503	2.6364	0.	562.27
10578	3.3421	2.5455	0.	426.44
10579	3.2503	2.5455	5.e-002	126.14
10580	3.2503	2.8182	0.	497.34
10581	3.3421	2.7273	0.	374.52
10582	3.2503	2.7273	5.e-002	81.295
10583	3.2503	3.	0.	475.07
10584	3.3421	2.9091	0.	348.92
10585	3.2503	2.9091	5.e-002	65.7
10586	3.2503	3.1818	0.	497.34
10587	3.3421	3.0909	0.	348.92
10588	3.2503	3.0909	5.e-002	65.7
10589	3.2503	3.3636	0.	562.27
10590	3.3421	3.2727	0.	374.52
10591	3.2503	3.2727	5.e-002	81.294
10592	3.2503	3.5455	0.	696.37
10593	3.3421	3.4545	0.	426.44
10594	3.2503	3.4545	5.e-002	126.13
10595	3.2503	3.7273	0.	886.29
10596	3.3421	3.6364	0.	531.22
10597	3.2503	3.6364	5.e-002	219.63
10598	3.2503	3.9091	0.	1767.4
10599	3.3421	3.8182	0.	732.22
10600	3.2503	3.8182	5.e-002	498.19
10601	3.2503	4.0909	0.	3484.9
10602	3.3421	4.	0.	1882.9
10603	3.2503	4.	5.e-002	977.42
10604	3.1585	4.	0.	3035.
10605	3.2503	4.2727	0.	4065.5
10606	3.3421	4.1818	0.	3003.4
10607	3.2503	4.1818	5.e-002	535.53
10608	3.1585	4.1818	0.	4887.4
10609	3.2503	4.4545	0.	3388.5
10610	3.3421	4.3636	0.	2819.5
10611	3.2503	4.3636	5.e-002	290.82
10612	3.1585	4.3636	0.	3132.3
10613	3.2503	4.6364	0.	2599.7
10614	3.3421	4.5455	0.	2294.
10615	3.2503	4.5455	5.e-002	190.84
10616	3.1585	4.5455	0.	2435.6
10617	3.2503	4.8182	0.	2006.1
10618	3.3421	4.7273	0.	1829.6
10619	3.2503	4.7273	5.e-002	151.16
10620	3.1585	4.7273	0.	1839.1
10621	3.2503	5.	0.	1518.2
10622	3.3421	4.9091	0.	1409.3
10623	3.2503	4.9091	5.e-002	120.07
10624	3.1585	4.9091	0.	1390.2
10625	3.2503	5.1818	0.	1110.3
10626	3.3421	5.0909	0.	1044.5
10627	3.2503	5.0909	5.e-002	99.871
10628	3.1585	5.0909	0.	1026.6
10629	3.2503	5.3636	0.	761.21
10630	3.3421	5.2727	0.	725.89
10631	3.2503	5.2727	5.e-002	85.607
10632	3.1585	5.2727	0.	721.83
10633	3.2503	5.5455	0.	463.84
10634	3.3421	5.4545	0.	451.62
10635	3.2503	5.4545	5.e-002	76.071
10636	3.1585	5.4545	0.	460.76
10637	3.2503	5.7273	0.	238.58
10638	3.3421	5.6364	0.	233.19
10639	3.2503	5.6364	5.e-002	71.25
10640	3.1585	5.6364	0.	237.7
10641	3.3421	5.8182	0.	123.53
10642	3.2503	5.8182	5.e-002	78.731
10643	3.2503	5.9091	0.	60.444
10644	3.1585	5.8182	0.	72.788
10645	3.4339	0.27273	0.	145.99
10646	3.5257	0.18182	0.	112.23
10647	3.4339	0.18182	5.e-002	70.03
10648	3.4339	9.0909e-002	0.	49.367
10649	3.4339	0.45455	0.	265.1
10650	3.5257	0.36364	0.	162.52
10651	3.4339	0.36364	5.e-002	60.594
10652	3.4339	0.63636	0.	463.61
10653	3.5257	0.54545	0.	295.86
10654	3.4339	0.54545	5.e-002	61.299
10655	3.4339	0.81818	0.	709.31
10656	3.5257	0.72727	0.	481.35
10657	3.4339	0.72727	5.e-002	64.913
10658	3.4339	1.	0.	989.55
10659	3.5257	0.90909	0.	700.24
10660	3.4339	0.90909	5.e-002	71.242
10661	3.4339	1.1818	0.	1296.8
10662	3.5257	1.0909	0.	938.77
10663	3.4339	1.0909	5.e-002	80.735
10664	3.4339	1.3636	0.	1604.8
10665	3.5257	1.2727	0.	1180.1
10666	3.4339	1.2727	5.e-002	92.71
10667	3.4339	1.5455	0.	1843.9
10668	3.5257	1.4545	0.	1380.9
10669	3.4339	1.4545	5.e-002	115.63
10670	3.4339	1.7273	0.	1855.
10671	3.5257	1.6364	0.	1458.8
10672	3.4339	1.6364	5.e-002	116.02
10673	3.4339	1.9091	0.	1368.4
10674	3.5257	1.8182	0.	1257.8
10675	3.4339	1.8182	5.e-002	179.98
10676	3.4339	2.0909	0.	694.9
10677	3.5257	2.	0.	677.3
10678	3.4339	2.	5.e-002	169.04
10679	3.4339	2.2727	0.	327.76
10680	3.5257	2.1818	0.	241.06
10681	3.4339	2.1818	5.e-002	236.25
10682	3.4339	2.4545	0.	242.67
10683	3.5257	2.3636	0.	100.91
10684	3.4339	2.3636	5.e-002	172.15
10685	3.4339	2.6364	0.	229.33
10686	3.5257	2.5455	0.	88.016
10687	3.4339	2.5455	5.e-002	132.03
10688	3.4339	2.8182	0.	218.77
10689	3.5257	2.7273	0.	83.056
10690	3.4339	2.7273	5.e-002	98.701
10691	3.4339	3.	0.	215.62
10692	3.5257	2.9091	0.	82.288
10693	3.4339	2.9091	5.e-002	84.516
10694	3.4339	3.1818	0.	218.77
10695	3.5257	3.0909	0.	82.288
10696	3.4339	3.0909	5.e-002	84.516
10697	3.4339	3.3636	0.	229.33
10698	3.5257	3.2727	0.	83.055
10699	3.4339	3.2727	5.e-002	98.701
10700	3.4339	3.5455	0.	242.67
10701	3.5257	3.4545	0.	88.015
10702	3.4339	3.4545	5.e-002	132.02
10703	3.4339	3.7273	0.	327.76
10704	3.5257	3.6364	0.	100.91
10705	3.4339	3.6364	5.e-002	172.15
10706	3.4339	3.9091	0.	694.9
10707	3.5257	3.8182	0.	241.06
10708	3.4339	3.8182	5.e-002	236.25
10709	3.4339	4.0909	0.	1368.4
10710	3.5257	4.	0.	677.29
10711	3.4339	4.	5.e-002	169.04
10712	3.4339	4.2727	0.	1855.
10713	3.5257	4.1818	0.	1257.8
10714	3.4339	4.1818	5.e-002	179.98
10715	3.4339	4.4545	0.	1843.9
10716	3.5257	4.3636	0.	1458.8
10717	3.4339	4.3636	5.e-002	116.02
10718	3.4339	4.6364	0.	1604.8
10719	3.5257	4.5455	0.	1380.9
10720	3.4339	4.5455	5.e-002	115.63
10721	3.4339	4.8182	0.	1296.8
10722	3.5257	4.7273	0.	1180.1
10723	3.4339	4.7273	5.e-002	92.71
10724	3.4339	5.	0.	989.55
10725	3.5257	4.9091	0.	938.77
10726	3.4339	4.9091	5.e-002	80.735
10727	3.4339	5.1818	0.	709.31
10728	3.5257	5.0909	0.	700.24
10729	3.4339	5.0909	5.e-002	71.242
10730	3.4339	5.3636	0.	463.61
10731	3.5257	5.2727	0.	481.35
10732	3.4339	5.2727	5.e-002	64.913
10733	3.4339	5.5455	0.	265.1
10734	3.5257	5.4545	0.	295.86
10735	3.4339	5.4545	5.e-002	61.299
10736	3.4339	5.7273	0.	145.99
10737	3.5257	5.6364	0.	162.52
10738	3.4339	5.6364	5.e-002	60.594
10739	3.5257	5.8182	0.	112.23
10740	3.4339	5.8182	5.e-002	70.03
10741	3.4339	5.9091	0.	49.367
10742	3.6175	0.27273	0.	136.86
10743	3.7094	0.18182	0.	114.72
10744	3.6175	0.18182	5.e-002	64.69
10745	3.6175	9.0909e-002	0.	56.752
10746	3.6175	0.45455	0.	212.42
10747	3.7094	0.36364	0.	155.1
10748	3.6175	0.36364	5.e-002	55.178
10749	3.6175	0.63636	0.	342.38
10750	3.7094	0.54545	0.	242.41
10751	3.6175	0.54545	5.e-002	55.392
10752	3.6175	0.81818	0.	506.93
10753	3.7094	0.72727	0.	362.86
10754	3.6175	0.72727	5.e-002	57.35
10755	3.6175	1.	0.	688.75
10756	3.7094	0.90909	0.	502.77
10757	3.6175	0.90909	5.e-002	60.475
10758	3.6175	1.1818	0.	865.92
10759	3.7094	1.0909	0.	644.78
10760	3.6175	1.0909	5.e-002	64.464
10761	3.6175	1.3636	0.	1003.7
10762	3.7094	1.2727	0.	763.59
10763	3.6175	1.2727	5.e-002	68.462
10764	3.6175	1.5455	0.	1037.2
10765	3.7094	1.4545	0.	821.9
10766	3.6175	1.4545	5.e-002	69.375
10767	3.6175	1.7273	0.	887.82
10768	3.7094	1.6364	0.	758.85
10769	3.6175	1.6364	5.e-002	72.427
10770	3.6175	1.9091	0.	566.32
10771	3.7094	1.8182	0.	533.6
10772	3.6175	1.8182	5.e-002	83.383
10773	3.6175	2.0909	0.	215.48
10774	3.7094	2.	0.	219.88
10775	3.6175	2.	5.e-002	109.44
10776	3.6175	2.2727	0.	7.712
10777	3.7094	2.1818	0.	10.78
10778	3.6175	2.1818	5.e-002	121.29
10779	3.6175	2.4545	0.	6.1405
10780	3.7094	2.3636	0.	5.4672
10781	3.6175	2.3636	5.e-002	124.79
10782	3.6175	2.6364	0.	3.0149
10783	3.7094	2.5455	0.	2.1226
10784	3.6175	2.5455	5.e-002	108.88
10785	3.6175	2.8182	0.	2.0394
10786	3.7094	2.7273	0.	1.9556
10787	3.6175	2.7273	5.e-002	95.625
10788	3.6175	3.	0.	1.2603
10789	3.7094	2.9091	0.	1.4378
10790	3.6175	2.9091	5.e-002	87.78
10791	3.6175	3.1818	0.	2.0394
10792	3.7094	3.0909	0.	1.4378
10793	3.6175	3.0909	5.e-002	87.78
10794	3.6175	3.3636	0.	3.0149
10795	3.7094	3.2727	0.	1.9556
10796	3.6175	3.2727	5.e-002	95.625
10797	3.6175	3.5455	0.	6.1405
10798	3.7094	3.4545	0.	2.1226
10799	3.6175	3.4545	5.e-002	108.88
10800	3.6175	3.7273	0.	7.7118
10801	3.7094	3.6364	0.	5.4672
10802	3.6175	3.6364	5.e-002	124.79
10803	3.6175	3.9091	0.	215.48
10804	3.7094	3.8182	0.	10.78
10805	3.6175	3.8182	5.e-002	121.29
10806	3.6175	4.0909	0.	566.32
10807	3.7094	4.	0.	219.88
10808	3.6175	4.	5.e-002	109.44
10809	3.6175	4.2727	0.	887.82
10810	3.7094	4.1818	0.	533.6
10811	3.6175	4.1818	5.e-002	83.383
10812	3.6175	4.4545	0.	1037.2
10813	3.7094	4.3636	0.	758.85
10814	3.6175	4.3636	5.e-002	72.427
10815	3.6175	4.6364	0.	1003.7
10816	3.7094	4.5455	0.	821.9
10817	3.6175	4.5455	5.e-002	69.376
10818	3.6175	4.8182	0.	865.92
10819	3.7094	4.7273	0.	763.59
10820	3.6175	4.7273	5.e-002	68.462
10821	3.6175	5.	0.	688.75
10822	3.7094	4.9091	0.	644.78
10823	3.6175	4.9091	5.e-002	64.464
10824	3.6175	5.1818	0.	506.93
10825	3.7094	5.0909	0.	502.77
10826	3.6175	5.0909	5.e-002	60.475
10827	3.6175	5.3636	0.	342.38
10828	3.7094	5.2727	0.	362.86
10829	3.6175	5.2727	5.e-002	57.35
10830	3.6175	5.5455	0.	212.42
10831	3.7094	5.4545	0.	242.41
10832	3.6175	5.4545	5.e-002	55.392
10833	3.6175	5.7273	0.	136.86
10834	3.7094	5.6364	0.	155.1
10835	3.6175	5.6364	5.e-002	55.178
10836	3.7094	5.8182	0.	114.72
10837	3.6175	5.8182	5.e-002	64.69
10838	3.6175	5.9091	0.	56.752
10839	3.8012	0.27273	0.	136.88
10840	3.893	0.18182	0.	112.99
10841	3.8012	0.18182	5.e-002	58.139
10842	3.8012	9.0909e-002	0.	60.77
10843	3.8012	0.45455	0.	194.01
10844	3.893	0.36364	0.	154.31
10845	3.8012	0.36364	5.e-002	48.376
10846	3.8012	0.63636	0.	278.79
10847	3.893	0.54545	0.	215.78
10848	3.8012	0.54545	5.e-002	48.058
10849	3.8012	0.81818	0.	380.39
10850	3.893	0.72727	0.	290.82
10851	3.8012	0.72727	5.e-002	48.636
10852	3.8012	1.	0.	484.58
10853	3.893	0.90909	0.	371.03
10854	3.8012	0.90909	5.e-002	49.375
10855	3.8012	1.1818	0.	570.43
10856	3.893	1.0909	0.	441.8
10857	3.8012	1.0909	5.e-002	49.833
10858	3.8012	1.3636	0.	609.04
10859	3.893	1.2727	0.	482.36
10860	3.8012	1.2727	5.e-002	49.437
10861	3.8012	1.5455	0.	565.95
10862	3.893	1.4545	0.	466.57
10863	3.8012	1.4545	5.e-002	49.032
10864	3.8012	1.7273	0.	418.1
10865	3.893	1.6364	0.	369.91
10866	3.8012	1.6364	5.e-002	51.773
10867	3.8012	1.9091	0.	193.76
10868	3.893	1.8182	0.	192.49
10869	3.8012	1.8182	5.e-002	60.291
10870	3.8012	2.0909	0.	22.353
10871	3.893	2.	0.	26.606
10872	3.8012	2.	5.e-002	73.07
10873	3.8012	2.2727	0.	5.5786
10874	3.893	2.1818	0.	6.1667
10875	3.8012	2.1818	5.e-002	83.166
10876	3.8012	2.4545	0.	2.0637
10877	3.893	2.3636	0.	2.0943
10878	3.8012	2.3636	5.e-002	88.006
10879	3.8012	2.6364	0.	1.9891
10880	3.893	2.5455	0.	1.9148
10881	3.8012	2.5455	5.e-002	87.232
10882	3.8012	2.8182	0.	1.696
10883	3.893	2.7273	0.	1.6524
10884	3.8012	2.7273	5.e-002	83.68
10885	3.8012	3.	0.	1.562
10886	3.893	2.9091	0.	1.5208
10887	3.8012	2.9091	5.e-002	81.001
10888	3.8012	3.1818	0.	1.696
10889	3.893	3.0909	0.	1.5208
10890	3.8012	3.0909	5.e-002	81.
10891	3.8012	3.3636	0.	1.9891
10892	3.893	3.2727	0.	1.6524
10893	3.8012	3.2727	5.e-002	83.679
10894	3.8012	3.5455	0.	2.0637
10895	3.893	3.4545	0.	1.9148
10896	3.8012	3.4545	5.e-002	87.231
10897	3.8012	3.7273	0.	5.5786
10898	3.893	3.6364	0.	2.0943
10899	3.8012	3.6364	5.e-002	88.006
10900	3.8012	3.9091	0.	22.353
10901	3.893	3.8182	0.	6.1667
10902	3.8012	3.8182	5.e-002	83.166
10903	3.8012	4.0909	0.	193.76
10904	3.893	4.	0.	26.606
10905	3.8012	4.	5.e-002	73.07
10906	3.8012	4.2727	0.	418.1
10907	3.893	4.1818	0.	192.49
10908	3.8012	4.1818	5.e-002	60.291
10909	3.8012	4.4545	0.	565.95
10910	3.893	4.3636	0.	369.91
10911	3.8012	4.3636	5.e-002	51.773
10912	3.8012	4.6364	0.	609.04
10913	3.893	4.5455	0.	466.57
10914	3.8012	4.5455	5.e-002	49.032
10915	3.8012	4.8182	0.	570.43
10916	3.893	4.7273	0.	482.36
10917	3.8012	4.7273	5.e-002	49.437
10918	3.8012	5.	0.	484.58
10919	3.893	4.9091	0.	441.8
10920	3.8012	4.9091	5.e-002	49.833
10921	3.8012	5.1818	0.	380.39
10922	3.893	5.0909	0.	371.03
10923	3.8012	5.0909	5.e-002	49.375
10924	3.8012	5.3636	0.	278.79
10925	3.893	5.2727	0.	290.82
10926	3.8012	5.2727	5.e-002	48.636
10927	3.8012	5.5455	0.	194.01
10928	3.893	5.4545	0.	215.78
10929	3.8012	5.4545	5.e-002	48.058
10930	3.8012	5.7273	0.	136.88
10931	3.893	5.6364	0.	154.31
10932	3.8012	5.6364	5.e-002	48.376
10933	3.893	5.8182	0.	112.99
10934	3.8012	5.8182	5.e-002	58.139
10935	3.8012	5.9091	0.	60.77
10936	3.9848	0.27273	0.	132.91
10937	4.0766	0.18182	0.	106.15
10938	3.9848	0.18182	5.e-002	50.83
10939	3.9848	9.0909e-002	0.	59.849
10940	3.9848	0.45455	0.	180.93
10941	4.0766	0.36364	0.	149.17
10942	3.9848	0.36364	5.e-002	41.177
10943	3.9848	0.63636	0.	236.74
10944	4.0766	0.54545	0.	194.78
10945	3.9848	0.54545	5.e-002	40.354
10946	3.9848	0.81818	0.	294.33
10947	4.0766	0.72727	0.	239.55
10948	3.9848	0.72727	5.e-002	39.985
10949	3.9848	1.	0.	343.97
10950	4.0766	0.90909	0.	278.62
10951	3.9848	0.90909	5.e-002	39.373
10952	3.9848	1.1818	0.	370.66
10953	4.0766	1.0909	0.	301.94
10954	3.9848	1.0909	5.e-002	38.33
10955	3.9848	1.3636	0.	355.94
10956	4.0766	1.2727	0.	295.84
10957	3.9848	1.2727	5.e-002	37.114
10958	3.9848	1.5455	0.	283.58
10959	4.0766	1.4545	0.	246.06
10960	3.9848	1.4545	5.e-002	36.9
10961	3.9848	1.7273	0.	153.36
10962	4.0766	1.6364	0.	145.85
10963	3.9848	1.6364	5.e-002	39.992
10964	3.9848	1.9091	0.	24.187
10965	4.0766	1.8182	0.	29.933
10966	3.9848	1.8182	5.e-002	46.99
10967	3.9848	2.0909	0.	4.2053
10968	4.0766	2.	0.	5.5543
10969	3.9848	2.	5.e-002	54.968
10970	3.9848	2.2727	0.	1.987
10971	4.0766	2.1818	0.	2.2821
10972	3.9848	2.1818	5.e-002	61.84
10973	3.9848	2.4545	0.	1.8104
10974	4.0766	2.3636	0.	1.7369
10975	3.9848	2.3636	5.e-002	66.873
10976	3.9848	2.6364	0.	1.5909
10977	4.0766	2.5455	0.	1.4591
10978	3.9848	2.5455	5.e-002	69.591
10979	3.9848	2.8182	0.	1.4901
10980	4.0766	2.7273	0.	1.3536
10981	3.9848	2.7273	5.e-002	70.257
10982	3.9848	3.	0.	1.4798
10983	4.0766	2.9091	0.	1.34
10984	3.9848	2.9091	5.e-002	70.158
10985	3.9848	3.1818	0.	1.4901
10986	4.0766	3.0909	0.	1.3399
10987	3.9848	3.0909	5.e-002	70.158
10988	3.9848	3.3636	0.	1.5909
10989	4.0766	3.2727	0.	1.3536
10990	3.9848	3.2727	5.e-002	70.257
10991	3.9848	3.5455	0.	1.8104
10992	4.0766	3.4545	0.	1.4591
10993	3.9848	3.4545	5.e-002	69.591
10994	3.9848	3.7273	0.	1.987
10995	4.0766	3.6364	0.	1.7369
10996	3.9848	3.6364	5.e-002	66.873
10997	3.9848	3.9091	0.	4.2053
10998	4.0766	3.8182	0.	2.2821
10999	3.9848	3.8182	5.e-002	61.839
11000	3.9848	4.0909	0.	24.187
11001	4.0766	4.	0.	5.5543
11002	3.9848	4.	5.e-002	54.968
11003	3.9848	4.2727	0.	153.36
11004	4.0766	4.1818	0.	29.933
11005	3.9848	4.1818	5.e-002	46.99
11006	3.9848	4.4545	0.	283.58
11007	4.0766	4.3636	0.	145.85
11008	3.9848	4.3636	5.e-002	39.992
11009	3.9848	4.6364	0.	355.94
11010	4.0766	4.5455	0.	246.06
11011	3.9848	4.5455	5.e-002	36.901
11012	3.9848	4.8182	0.	370.66
11013	4.0766	4.7273	0.	295.84
11014	3.9848	4.7273	5.e-002	37.114
11015	3.9848	5.	0.	343.97
11016	4.0766	4.9091	0.	301.94
11017	3.9848	4.9091	5.e-002	38.33
11018	3.9848	5.1818	0.	294.33
11019	4.0766	5.0909	0.	278.62
11020	3.9848	5.0909	5.e-002	39.373
11021	3.9848	5.3636	0.	236.74
11022	4.0766	5.2727	0.	239.55
11023	3.9848	5.2727	5.e-002	39.985
11024	3.9848	5.5455	0.	180.93
11025	4.0766	5.4545	0.	194.78
11026	3.9848	5.4545	5.e-002	40.354
11027	3.9848	5.7273	0.	132.91
11028	4.0766	5.6364	0.	149.17
11029	3.9848	5.6364	5.e-002	41.177
11030	4.0766	5.8182	0.	106.15
11031	3.9848	5.8182	5.e-002	50.83
11032	3.9848	5.9091	0.	59.849
11033	4.1684	0.27273	0.	124.14
11034	4.2602	0.18182	0.	96.003
11035	4.1684	0.18182	5.e-002	43.342
11036	4.1684	9.0909e-002	0.	55.799
11037	4.1684	0.45455	0.	165.95
11038	4.2602	0.36364	0.	138.69
11039	4.1684	0.36364	5.e-002	34.131
11040	4.1684	0.63636	0.	202.79
11041	4.2602	0.54545	0.	173.4
11042	4.1684	0.54545	5.e-002	32.976
11043	4.1684	0.81818	0.	231.34
11044	4.2602	0.72727	0.	198.23
11045	4.1684	0.72727	5.e-002	32.118
11046	4.1684	1.	0.	245.8
11047	4.2602	0.90909	0.	210.69
11048	4.1684	0.90909	5.e-002	30.994
11049	4.1684	1.1818	0.	237.04
11050	4.2602	1.0909	0.	204.87
11051	4.1684	1.0909	5.e-002	29.702
11052	4.1684	1.3636	0.	195.36
11053	4.2602	1.2727	0.	173.23
11054	4.1684	1.2727	5.e-002	28.812
11055	4.1684	1.5455	0.	116.21
11056	4.2602	1.4545	0.	110.42
11057	4.1684	1.4545	5.e-002	29.48
11058	4.1684	1.7273	0.	25.939
11059	4.2602	1.6364	0.	30.339
11060	4.1684	1.6364	5.e-002	32.602
11061	4.1684	1.9091	0.	5.9071
11062	4.2602	1.8182	0.	6.3651
11063	4.1684	1.8182	5.e-002	37.687
11064	4.1684	2.0909	0.	2.9133
11065	4.2602	2.	0.	2.9714
11066	4.1684	2.	5.e-002	43.315
11067	4.1684	2.2727	0.	1.7917
11068	4.2602	2.1818	0.	1.8063
11069	4.1684	2.1818	5.e-002	48.525
11070	4.1684	2.4545	0.	1.3032
11071	4.2602	2.3636	0.	1.2476
11072	4.1684	2.3636	5.e-002	52.892
11073	4.1684	2.6364	0.	1.2013
11074	4.2602	2.5455	0.	1.0768
11075	4.1684	2.5455	5.e-002	56.109
11076	4.1684	2.8182	0.	1.1997
11077	4.2602	2.7273	0.	1.0574
11078	4.1684	2.7273	5.e-002	58.031
11079	4.1684	3.	0.	1.1983
11080	4.2602	2.9091	0.	1.0572
11081	4.1684	2.9091	5.e-002	58.861
11082	4.1684	3.1818	0.	1.1997
11083	4.2602	3.0909	0.	1.0572
11084	4.1684	3.0909	5.e-002	58.861
11085	4.1684	3.3636	0.	1.2013
11086	4.2602	3.2727	0.	1.0574
11087	4.1684	3.2727	5.e-002	58.031
11088	4.1684	3.5455	0.	1.3032
11089	4.2602	3.4545	0.	1.0768
11090	4.1684	3.4545	5.e-002	56.109
11091	4.1684	3.7273	0.	1.7917
11092	4.2602	3.6364	0.	1.2476
11093	4.1684	3.6364	5.e-002	52.891
11094	4.1684	3.9091	0.	2.9133
11095	4.2602	3.8182	0.	1.8063
11096	4.1684	3.8182	5.e-002	48.524
11097	4.1684	4.0909	0.	5.9071
11098	4.2602	4.	0.	2.9714
11099	4.1684	4.	5.e-002	43.315
11100	4.1684	4.2727	0.	25.939
11101	4.2602	4.1818	0.	6.3651
11102	4.1684	4.1818	5.e-002	37.687
11103	4.1684	4.4545	0.	116.21
11104	4.2602	4.3636	0.	30.339
11105	4.1684	4.3636	5.e-002	32.602
11106	4.1684	4.6364	0.	195.36
11107	4.2602	4.5455	0.	110.42
11108	4.1684	4.5455	5.e-002	29.48
11109	4.1684	4.8182	0.	237.04
11110	4.2602	4.7273	0.	173.23
11111	4.1684	4.7273	5.e-002	28.812
11112	4.1684	5.	0.	245.8
11113	4.2602	4.9091	0.	204.87
11114	4.1684	4.9091	5.e-002	29.702
11115	4.1684	5.1818	0.	231.34
11116	4.2602	5.0909	0.	210.69
11117	4.1684	5.0909	5.e-002	30.994
11118	4.1684	5.3636	0.	202.79
11119	4.2602	5.2727	0.	198.23
11120	4.1684	5.2727	5.e-002	32.118
11121	4.1684	5.5455	0.	165.95
11122	4.2602	5.4545	0.	173.4
11123	4.1684	5.4545	5.e-002	32.976
11124	4.1684	5.7273	0.	124.14
11125	4.2602	5.6364	0.	138.69
11126	4.1684	5.6364	5.e-002	34.131
11127	4.2602	5.8182	0.	96.003
11128	4.1684	5.8182	5.e-002	43.341
11129	4.1684	5.9091	0.	55.799
11130	4.352	0.27273	0.	111.76
11131	4.4439	0.18182	0.	84.135
11132	4.352	0.18182	5.e-002	36.135
11133	4.352	9.0909e-002	0.	49.942
11134	4.352	0.45455	0.	147.99
11135	4.4439	0.36364	0.	124.22
11136	4.352	0.36364	5.e-002	27.607
11137	4.352	0.63636	0.	171.94
11138	4.4439	0.54545	0.	150.65
11139	4.352	0.54545	5.e-002	26.328
11140	4.352	0.81818	0.	181.94
11141	4.4439	0.72727	0.	162.34
11142	4.352	0.72727	5.e-002	25.337
11143	4.352	1.	0.	175.05
11144	4.4439	0.90909	0.	158.39
11145	4.352	0.90909	5.e-002	24.225
11146	4.352	1.1818	0.	146.7
11147	4.4439	1.0909	0.	135.96
11148	4.352	1.0909	5.e-002	23.245
11149	4.352	1.3636	0.	93.544
11150	4.4439	1.2727	0.	92.205
11151	4.352	1.2727	5.e-002	22.996
11152	4.352	1.5455	0.	26.907
11153	4.4439	1.4545	0.	32.349
11154	4.352	1.4545	5.e-002	24.192
11155	4.352	1.7273	0.	5.9548
11156	4.4439	1.6364	0.	6.5519
11157	4.352	1.6364	5.e-002	27.057
11158	4.352	1.9091	0.	2.7805
11159	4.4439	1.8182	0.	2.9501
11160	4.352	1.8182	5.e-002	31.015
11161	4.352	2.0909	0.	1.644
11162	4.4439	2.	0.	1.7417
11163	4.352	2.	5.e-002	35.255
11164	4.352	2.2727	0.	1.157
11165	4.4439	2.1818	0.	1.1714
11166	4.352	2.1818	5.e-002	39.276
11167	4.352	2.4545	0.	0.97143
11168	4.4439	2.3636	0.	0.91578
11169	4.352	2.3636	5.e-002	42.844
11170	4.352	2.6364	0.	0.91169
11171	4.4439	2.5455	0.	0.81432
11172	4.352	2.5455	5.e-002	45.726
11173	4.352	2.8182	0.	0.90577
11174	4.4439	2.7273	0.	0.78951
11175	4.352	2.7273	5.e-002	47.715
11176	4.352	3.	0.	0.90997
11177	4.4439	2.9091	0.	0.79213
11178	4.352	2.9091	5.e-002	48.709
11179	4.352	3.1818	0.	0.90577
11180	4.4439	3.0909	0.	0.79213
11181	4.352	3.0909	5.e-002	48.709
11182	4.352	3.3636	0.	0.91169
11183	4.4439	3.2727	0.	0.78951
11184	4.352	3.2727	5.e-002	47.715
11185	4.352	3.5455	0.	0.97143
11186	4.4439	3.4545	0.	0.81432
11187	4.352	3.4545	5.e-002	45.726
11188	4.352	3.7273	0.	1.157
11189	4.4439	3.6364	0.	0.91578
11190	4.352	3.6364	5.e-002	42.844
11191	4.352	3.9091	0.	1.644
11192	4.4439	3.8182	0.	1.1714
11193	4.352	3.8182	5.e-002	39.276
11194	4.352	4.0909	0.	2.7805
11195	4.4439	4.	0.	1.7417
11196	4.352	4.	5.e-002	35.255
11197	4.352	4.2727	0.	5.9548
11198	4.4439	4.1818	0.	2.9501
11199	4.352	4.1818	5.e-002	31.015
11200	4.352	4.4545	0.	26.907
11201	4.4439	4.3636	0.	6.5518
11202	4.352	4.3636	5.e-002	27.057
11203	4.352	4.6364	0.	93.544
11204	4.4439	4.5455	0.	32.349
11205	4.352	4.5455	5.e-002	24.192
11206	4.352	4.8182	0.	146.7
11207	4.4439	4.7273	0.	92.205
11208	4.352	4.7273	5.e-002	22.996
11209	4.352	5.	0.	175.05
11210	4.4439	4.9091	0.	135.96
11211	4.352	4.9091	5.e-002	23.245
11212	4.352	5.1818	0.	181.94
11213	4.4439	5.0909	0.	158.39
11214	4.352	5.0909	5.e-002	24.225
11215	4.352	5.3636	0.	171.94
11216	4.4439	5.2727	0.	162.34
11217	4.352	5.2727	5.e-002	25.337
11218	4.352	5.5455	0.	147.99
11219	4.4439	5.4545	0.	150.65
11220	4.352	5.4545	5.e-002	26.328
11221	4.352	5.7273	0.	111.76
11222	4.4439	5.6364	0.	124.22
11223	4.352	5.6364	5.e-002	27.607
11224	4.4439	5.8182	0.	84.135
11225	4.352	5.8182	5.e-002	36.135
11226	4.352	5.9091	0.	49.942
11227	4.5357	0.27273	0.	97.421
11228	4.6275	0.18182	0.	71.805
11229	4.5357	0.18182	5.e-002	29.523
11230	4.5357	9.0909e-002	0.	43.313
11231	4.5357	0.45455	0.	128.07
11232	4.6275	0.36364	0.	107.59
11233	4.5357	0.36364	5.e-002	21.805
11234	4.5357	0.63636	0.	142.91
11235	4.6275	0.54545	0.	127.27
11236	4.5357	0.54545	5.e-002	20.563
11237	4.5357	0.81818	0.	141.32
11238	4.6275	0.72727	0.	130.27
11239	4.5357	0.72727	5.e-002	19.67
11240	4.5357	1.	0.	122.27
11241	4.6275	0.90909	0.	116.65
11242	4.5357	0.90909	5.e-002	18.838
11243	4.5357	1.1818	0.	84.439
11244	4.6275	1.0909	0.	85.734
11245	4.5357	1.0909	5.e-002	18.362
11246	4.5357	1.3636	0.	31.87
11247	4.6275	1.2727	0.	39.201
11248	4.5357	1.2727	5.e-002	18.703
11249	4.5357	1.5455	0.	6.3339
11250	4.6275	1.4545	0.	7.4345
11251	4.5357	1.4545	5.e-002	20.205
11252	4.5357	1.7273	0.	2.8307
11253	4.6275	1.6364	0.	2.9598
11254	4.5357	1.6364	5.e-002	22.771
11255	4.5357	1.9091	0.	1.7173
11256	4.6275	1.8182	0.	1.7538
11257	4.5357	1.8182	5.e-002	25.947
11258	4.5357	2.0909	0.	1.1738
11259	4.6275	2.	0.	1.1844
11260	4.5357	2.	5.e-002	29.257
11261	4.5357	2.2727	0.	0.87534
11262	4.6275	2.1818	0.	0.86287
11263	4.5357	2.1818	5.e-002	32.413
11264	4.5357	2.4545	0.	0.72722
11265	4.6275	2.3636	0.	0.68444
11266	4.5357	2.3636	5.e-002	35.249
11267	4.5357	2.6364	0.	0.67479
11268	4.6275	2.5455	0.	0.60452
11269	4.5357	2.5455	5.e-002	37.604
11270	4.5357	2.8182	0.	0.66578
11271	4.6275	2.7273	0.	0.58007
11272	4.5357	2.7273	5.e-002	39.294
11273	4.5357	3.	0.	0.66636
11274	4.6275	2.9091	0.	0.57668
11275	4.5357	2.9091	5.e-002	40.174
11276	4.5357	3.1818	0.	0.66578
11277	4.6275	3.0909	0.	0.57668
11278	4.5357	3.0909	5.e-002	40.174
11279	4.5357	3.3636	0.	0.67479
11280	4.6275	3.2727	0.	0.58007
11281	4.5357	3.2727	5.e-002	39.294
11282	4.5357	3.5455	0.	0.72722
11283	4.6275	3.4545	0.	0.60452
11284	4.5357	3.4545	5.e-002	37.604
11285	4.5357	3.7273	0.	0.87534
11286	4.6275	3.6364	0.	0.68444
11287	4.5357	3.6364	5.e-002	35.249
11288	4.5357	3.9091	0.	1.1738
11289	4.6275	3.8182	0.	0.86287
11290	4.5357	3.8182	5.e-002	32.413
11291	4.5357	4.0909	0.	1.7173
11292	4.6275	4.	0.	1.1844
11293	4.5357	4.	5.e-002	29.257
11294	4.5357	4.2727	0.	2.8307
11295	4.6275	4.1818	0.	1.7538
11296	4.5357	4.1818	5.e-002	25.946
11297	4.5357	4.4545	0.	6.3339
11298	4.6275	4.3636	0.	2.9598
11299	4.5357	4.3636	5.e-002	22.771
11300	4.5357	4.6364	0.	31.87
11301	4.6275	4.5455	0.	7.4344
11302	4.5357	4.5455	5.e-002	20.205
11303	4.5357	4.8182	0.	84.439
11304	4.6275	4.7273	0.	39.201
11305	4.5357	4.7273	5.e-002	18.703
11306	4.5357	5.	0.	122.27
11307	4.6275	4.9091	0.	85.734
11308	4.5357	4.9091	5.e-002	18.362
11309	4.5357	5.1818	0.	141.32
11310	4.6275	5.0909	0.	116.65
11311	4.5357	5.0909	5.e-002	18.838
11312	4.5357	5.3636	0.	142.91
11313	4.6275	5.2727	0.	130.27
11314	4.5357	5.2727	5.e-002	19.67
11315	4.5357	5.5455	0.	128.07
11316	4.6275	5.4545	0.	127.27
11317	4.5357	5.4545	5.e-002	20.563
11318	4.5357	5.7273	0.	97.421
11319	4.6275	5.6364	0.	107.59
11320	4.5357	5.6364	5.e-002	21.805
11321	4.6275	5.8182	0.	71.805
11322	4.5357	5.8182	5.e-002	29.523
11323	4.5357	5.9091	0.	43.313
11324	4.7193	0.27273	0.	82.508
11325	4.8111	0.18182	0.	59.867
11326	4.7193	0.18182	5.e-002	23.669
11327	4.7193	9.0909e-002	0.	36.603
11328	4.7193	0.45455	0.	107.55
11329	4.8111	0.36364	0.	90.333
11330	4.7193	0.36364	5.e-002	16.792
11331	4.7193	0.63636	0.	115.74
11332	4.8111	0.54545	0.	104.33
11333	4.7193	0.54545	5.e-002	15.694
11334	4.7193	0.81818	0.	107.04
11335	4.8111	0.72727	0.	101.52
11336	4.7193	0.72727	5.e-002	15.029
11337	4.7193	1.	0.	81.673
11338	4.8111	0.90909	0.	82.563
11339	4.7193	0.90909	5.e-002	14.589
11340	4.7193	1.1818	0.	41.13
11341	4.8111	1.0909	0.	48.397
11342	4.7193	1.0909	5.e-002	14.631
11343	4.7193	1.3636	0.	7.8956
11344	4.8111	1.2727	0.	11.061
11345	4.7193	1.2727	5.e-002	15.434
11346	4.7193	1.5455	0.	2.8555
11347	4.8111	1.4545	0.	3.0844
11348	4.7193	1.4545	5.e-002	17.079
11349	4.7193	1.7273	0.	1.6752
11350	4.8111	1.6364	0.	1.7132
11351	4.7193	1.6364	5.e-002	19.372
11352	4.7193	1.9091	0.	1.1352
11353	4.8111	1.8182	0.	1.1491
11354	4.7193	1.8182	5.e-002	21.982
11355	4.7193	2.0909	0.	0.82394
11356	4.8111	2.	0.	0.82815
11357	4.7193	2.	5.e-002	24.622
11358	4.7193	2.2727	0.	0.64012
11359	4.8111	2.1818	0.	0.62843
11360	4.7193	2.1818	5.e-002	27.112
11361	4.7193	2.4545	0.	0.54108
11362	4.8111	2.3636	0.	0.50984
11363	4.7193	2.3636	5.e-002	29.339
11364	4.7193	2.6364	0.	0.49645
11365	4.8111	2.5455	0.	0.44771
11366	4.7193	2.5455	5.e-002	31.187
11367	4.7193	2.8182	0.	0.48175
11368	4.8111	2.7273	0.	0.42149
11369	4.7193	2.7273	5.e-002	32.522
11370	4.7193	3.	0.	0.4791
11371	4.8111	2.9091	0.	0.41363
11372	4.7193	2.9091	5.e-002	33.224
11373	4.7193	3.1818	0.	0.48175
11374	4.8111	3.0909	0.	0.41363
11375	4.7193	3.0909	5.e-002	33.224
11376	4.7193	3.3636	0.	0.49645
11377	4.8111	3.2727	0.	0.42149
11378	4.7193	3.2727	5.e-002	32.522
11379	4.7193	3.5455	0.	0.54108
11380	4.8111	3.4545	0.	0.44771
11381	4.7193	3.4545	5.e-002	31.187
11382	4.7193	3.7273	0.	0.64012
11383	4.8111	3.6364	0.	0.50984
11384	4.7193	3.6364	5.e-002	29.339
11385	4.7193	3.9091	0.	0.82394
11386	4.8111	3.8182	0.	0.62843
11387	4.7193	3.8182	5.e-002	27.112
11388	4.7193	4.0909	0.	1.1352
11389	4.8111	4.	0.	0.82815
11390	4.7193	4.	5.e-002	24.622
11391	4.7193	4.2727	0.	1.6752
11392	4.8111	4.1818	0.	1.1491
11393	4.7193	4.1818	5.e-002	21.982
11394	4.7193	4.4545	0.	2.8555
11395	4.8111	4.3636	0.	1.7132
11396	4.7193	4.3636	5.e-002	19.372
11397	4.7193	4.6364	0.	7.8955
11398	4.8111	4.5455	0.	3.0844
11399	4.7193	4.5455	5.e-002	17.079
11400	4.7193	4.8182	0.	41.13
11401	4.8111	4.7273	0.	11.061
11402	4.7193	4.7273	5.e-002	15.434
11403	4.7193	5.	0.	81.673
11404	4.8111	4.9091	0.	48.397
11405	4.7193	4.9091	5.e-002	14.631
11406	4.7193	5.1818	0.	107.04
11407	4.8111	5.0909	0.	82.563
11408	4.7193	5.0909	5.e-002	14.589
11409	4.7193	5.3636	0.	115.74
11410	4.8111	5.2727	0.	101.52
11411	4.7193	5.2727	5.e-002	15.029
11412	4.7193	5.5455	0.	107.55
11413	4.8111	5.4545	0.	104.33
11414	4.7193	5.4545	5.e-002	15.694
11415	4.7193	5.7273	0.	82.508
11416	4.8111	5.6364	0.	90.333
11417	4.7193	5.6364	5.e-002	16.792
11418	4.8111	5.8182	0.	59.867
11419	4.7193	5.8182	5.e-002	23.669
11420	4.7193	5.9091	0.	36.603
11421	4.9029	0.27273	0.	68.025
11422	4.9947	0.18182	0.	48.843
11423	4.9029	0.18182	5.e-002	18.628
11424	4.9029	9.0909e-002	0.	30.244
11425	4.9029	0.45455	0.	87.589
11426	4.9947	0.36364	0.	73.594
11427	4.9029	0.36364	5.e-002	12.554
11428	4.9029	0.63636	0.	90.767
11429	4.9947	0.54545	0.	82.725
11430	4.9029	0.54545	5.e-002	11.663
11431	4.9029	0.81818	0.	77.822
11432	4.9947	0.72727	0.	76.004
11433	4.9029	0.72727	5.e-002	11.293
11434	4.9029	1.	0.	49.842
11435	4.9947	0.90909	0.	54.439
11436	4.9029	0.90909	5.e-002	11.275
11437	4.9029	1.1818	0.	13.835
11438	4.9947	1.0909	0.	21.176
11439	4.9029	1.0909	5.e-002	11.781
11440	4.9029	1.3636	0.	3.1081
11441	4.9947	1.2727	0.	3.673
11442	4.9029	1.2727	5.e-002	12.911
11443	4.9029	1.5455	0.	1.6432
11444	4.9947	1.4545	0.	1.7006
11445	4.9029	1.4545	5.e-002	14.597
11446	4.9029	1.7273	0.	1.0984
11447	4.9947	1.6364	0.	1.1045
11448	4.9029	1.6364	5.e-002	16.641
11449	4.9029	1.9091	0.	0.7971
11450	4.9947	1.8182	0.	0.79636
11451	4.9029	1.8182	5.e-002	18.817
11452	4.9029	2.0909	0.	0.60398
11453	4.9947	2.	0.	0.59987
11454	4.9029	2.	5.e-002	20.949
11455	4.9029	2.2727	0.	0.4783
11456	4.9947	2.1818	0.	0.46704
11457	4.9029	2.1818	5.e-002	22.924
11458	4.9029	2.4545	0.	0.40243
11459	4.9947	2.3636	0.	0.38053
11460	4.9029	2.3636	5.e-002	24.664
11461	4.9029	2.6364	0.	0.36266
11462	4.9947	2.5455	0.	0.32978
11463	4.9029	2.5455	5.e-002	26.091
11464	4.9029	2.8182	0.	0.3456
11465	4.9947	2.7273	0.	0.3042
11466	4.9029	2.7273	5.e-002	27.115
11467	4.9029	3.	0.	0.34115
11468	4.9947	2.9091	0.	0.29426
11469	4.9029	2.9091	5.e-002	27.652
11470	4.9029	3.1818	0.	0.3456
11471	4.9947	3.0909	0.	0.29426
11472	4.9029	3.0909	5.e-002	27.651
11473	4.9029	3.3636	0.	0.36266
11474	4.9947	3.2727	0.	0.3042
11475	4.9029	3.2727	5.e-002	27.115
11476	4.9029	3.5455	0.	0.40243
11477	4.9947	3.4545	0.	0.32978
11478	4.9029	3.4545	5.e-002	26.091
11479	4.9029	3.7273	0.	0.4783
11480	4.9947	3.6364	0.	0.38053
11481	4.9029	3.6364	5.e-002	24.664
11482	4.9029	3.9091	0.	0.60398
11483	4.9947	3.8182	0.	0.46704
11484	4.9029	3.8182	5.e-002	22.923
11485	4.9029	4.0909	0.	0.7971
11486	4.9947	4.	0.	0.59987
11487	4.9029	4.	5.e-002	20.948
11488	4.9029	4.2727	0.	1.0984
11489	4.9947	4.1818	0.	0.79636
11490	4.9029	4.1818	5.e-002	18.817
11491	4.9029	4.4545	0.	1.6432
11492	4.9947	4.3636	0.	1.1045
11493	4.9029	4.3636	5.e-002	16.641
11494	4.9029	4.6364	0.	3.1081
11495	4.9947	4.5455	0.	1.7006
11496	4.9029	4.5455	5.e-002	14.597
11497	4.9029	4.8182	0.	13.835
11498	4.9947	4.7273	0.	3.673
11499	4.9029	4.7273	5.e-002	12.911
11500	4.9029	5.	0.	49.842
11501	4.9947	4.9091	0.	21.176
11502	4.9029	4.9091	5.e-002	11.781
11503	4.9029	5.1818	0.	77.822
11504	4.9947	5.0909	0.	54.439
11505	4.9029	5.0909	5.e-002	11.275
11506	4.9029	5.3636	0.	90.767
11507	4.9947	5.2727	0.	76.004
11508	4.9029	5.2727	5.e-002	11.293
11509	4.9029	5.5455	0.	87.589
11510	4.9947	5.4545	0.	82.725
11511	4.9029	5.4545	5.e-002	11.662
11512	4.9029	5.7273	0.	68.025
11513	4.9947	5.6364	0.	73.594
11514	4.9029	5.6364	5.e-002	12.554
11515	4.9947	5.8182	0.	48.843
11516	4.9029	5.8182	5.e-002	18.628
11517	4.9029	5.9091	0.	30.244
11518	5.0866	0.27273	0.	54.605
11519	5.1784	0.18182	0.	39.007
11520	5.0866	0.18182	5.e-002	14.38
11521	5.0866	9.0909e-002	0.	24.475
11522	5.0866	0.45455	0.	69.011
11523	5.1784	0.36364	0.	58.097
11524	5.0866	0.36364	5.e-002	9.0326
11525	5.0866	0.63636	0.	68.325
11526	5.1784	0.54545	0.	63.056
11527	5.0866	0.54545	5.e-002	8.3852
11528	5.0866	0.81818	0.	52.969
11529	5.1784	0.72727	0.	53.696
11530	5.0866	0.72727	5.e-002	8.3493
11531	5.0866	1.	0.	25.016
11532	5.1784	0.90909	0.	31.342
11533	5.0866	0.90909	5.e-002	8.7493
11534	5.0866	1.1818	0.	4.0916
11535	5.1784	1.0909	0.	6.0604
11536	5.0866	1.0909	5.e-002	9.6348
11537	5.0866	1.3636	0.	1.6546
11538	5.1784	1.2727	0.	1.776
11539	5.0866	1.2727	5.e-002	10.967
11540	5.0866	1.5455	0.	1.0501
11541	5.1784	1.4545	0.	1.0582
11542	5.0866	1.4545	5.e-002	12.62
11543	5.0866	1.7273	0.	0.75749
11544	5.1784	1.6364	0.	0.75272
11545	5.0866	1.6364	5.e-002	14.434
11546	5.0866	1.9091	0.	0.57322
11547	5.1784	1.8182	0.	0.56861
11548	5.0866	1.8182	5.e-002	16.262
11549	5.0866	2.0909	0.	0.44523
11550	5.1784	2.	0.	0.44027
11551	5.0866	2.	5.e-002	17.999
11552	5.0866	2.2727	0.	0.3563
11553	5.1784	2.1818	0.	0.34773
11554	5.0866	2.1818	5.e-002	19.573
11555	5.0866	2.4545	0.	0.29809
11556	5.1784	2.3636	0.	0.28332
11557	5.0866	2.3636	5.e-002	20.934
11558	5.0866	2.6364	0.	0.26372
11559	5.1784	2.5455	0.	0.24193
11560	5.0866	2.5455	5.e-002	22.032
11561	5.0866	2.8182	0.	0.24658
11562	5.1784	2.7273	0.	0.21848
11563	5.0866	2.7273	5.e-002	22.809
11564	5.0866	3.	0.	0.24153
11565	5.1784	2.9091	0.	0.20822
11566	5.0866	2.9091	5.e-002	23.213
11567	5.0866	3.1818	0.	0.24658
11568	5.1784	3.0909	0.	0.20822
11569	5.0866	3.0909	5.e-002	23.213
11570	5.0866	3.3636	0.	0.26372
11571	5.1784	3.2727	0.	0.21848
11572	5.0866	3.2727	5.e-002	22.809
11573	5.0866	3.5455	0.	0.29808
11574	5.1784	3.4545	0.	0.24193
11575	5.0866	3.4545	5.e-002	22.032
11576	5.0866	3.7273	0.	0.3563
11577	5.1784	3.6364	0.	0.28332
11578	5.0866	3.6364	5.e-002	20.934
11579	5.0866	3.9091	0.	0.44523
11580	5.1784	3.8182	0.	0.34773
11581	5.0866	3.8182	5.e-002	19.573
11582	5.0866	4.0909	0.	0.57322
11583	5.1784	4.	0.	0.44027
11584	5.0866	4.	5.e-002	17.999
11585	5.0866	4.2727	0.	0.75749
11586	5.1784	4.1818	0.	0.56861
11587	5.0866	4.1818	5.e-002	16.262
11588	5.0866	4.4545	0.	1.0501
11589	5.1784	4.3636	0.	0.75272
11590	5.0866	4.3636	5.e-002	14.434
11591	5.0866	4.6364	0.	1.6546
11592	5.1784	4.5455	0.	1.0582
11593	5.0866	4.5455	5.e-002	12.62
11594	5.0866	4.8182	0.	4.0916
11595	5.1784	4.7273	0.	1.776
11596	5.0866	4.7273	5.e-002	10.967
11597	5.0866	5.	0.	25.016
11598	5.1784	4.9091	0.	6.0603
11599	5.0866	4.9091	5.e-002	9.6349
11600	5.0866	5.1818	0.	52.969
11601	5.1784	5.0909	0.	31.342
11602	5.0866	5.0909	5.e-002	8.7493
11603	5.0866	5.3636	0.	68.325
11604	5.1784	5.2727	0.	53.695
11605	5.0866	5.2727	5.e-002	8.3493
11606	5.0866	5.5455	0.	69.011
11607	5.1784	5.4545	0.	63.056
11608	5.0866	5.4545	5.e-002	8.3851
11609	5.0866	5.7273	0.	54.605
11610	5.1784	5.6364	0.	58.097
11611	5.0866	5.6364	5.e-002	9.0326
11612	5.1784	5.8182	0.	39.007
11613	5.0866	5.8182	5.e-002	14.379
11614	5.0866	5.9091	0.	24.475
11615	5.2702	0.27273	0.	42.598
11616	5.362	0.18182	0.	30.457
11617	5.2702	0.18182	5.e-002	10.862
11618	5.2702	9.0909e-002	0.	19.403
11619	5.2702	0.45455	0.	52.299
11620	5.362	0.36364	0.	44.246
11621	5.2702	0.36364	5.e-002	6.1498
11622	5.2702	0.63636	0.	48.605
11623	5.362	0.54545	0.	45.662
11624	5.2702	0.54545	5.e-002	5.785
11625	5.2702	0.81818	0.	32.067
11626	5.362	0.72727	0.	34.554
11627	5.2702	0.72727	5.e-002	6.1191
11628	5.2702	1.	0.	8.0406
11629	5.362	0.90909	0.	13.189
11630	5.2702	0.90909	5.e-002	6.9059
11631	5.2702	1.1818	0.	1.7811
11632	5.362	1.0909	0.	2.0789
11633	5.2702	1.0909	5.e-002	8.0661
11634	5.2702	1.3636	0.	1.0057
11635	5.362	1.2727	0.	1.024
11636	5.2702	1.2727	5.e-002	9.4879
11637	5.2702	1.5455	0.	0.71012
11638	5.362	1.4545	0.	0.70225
11639	5.2702	1.4545	5.e-002	11.052
11640	5.2702	1.7273	0.	0.53897
11641	5.362	1.6364	0.	0.53054
11642	5.2702	1.6364	5.e-002	12.649
11643	5.2702	1.9091	0.	0.41988
11644	5.362	1.8182	0.	0.41401
11645	5.2702	1.8182	5.e-002	14.191
11646	5.2702	2.0909	0.	0.33136
11647	5.362	2.	0.	0.32659
11648	5.2702	2.	5.e-002	15.614
11649	5.2702	2.2727	0.	0.26598
11650	5.362	2.1818	0.	0.25982
11651	5.2702	2.1818	5.e-002	16.876
11652	5.2702	2.4545	0.	0.2202
11653	5.362	2.3636	0.	0.21057
11654	5.2702	2.3636	5.e-002	17.945
11655	5.2702	2.6364	0.	0.19097
11656	5.362	2.5455	0.	0.17678
11657	5.2702	2.5455	5.e-002	18.792
11658	5.2702	2.8182	0.	0.17515
11659	5.362	2.7273	0.	0.1562
11660	5.2702	2.7273	5.e-002	19.383
11661	5.2702	3.	0.	0.1702
11662	5.362	2.9091	0.	0.14662
11663	5.2702	2.9091	5.e-002	19.688
11664	5.2702	3.1818	0.	0.17515
11665	5.362	3.0909	0.	0.14662
11666	5.2702	3.0909	5.e-002	19.687
11667	5.2702	3.3636	0.	0.19097
11668	5.362	3.2727	0.	0.1562
11669	5.2702	3.2727	5.e-002	19.383
11670	5.2702	3.5455	0.	0.2202
11671	5.362	3.4545	0.	0.17678
11672	5.2702	3.4545	5.e-002	18.792
11673	5.2702	3.7273	0.	0.26598
11674	5.362	3.6364	0.	0.21057
11675	5.2702	3.6364	5.e-002	17.945
11676	5.2702	3.9091	0.	0.33136
11677	5.362	3.8182	0.	0.25982
11678	5.2702	3.8182	5.e-002	16.876
11679	5.2702	4.0909	0.	0.41988
11680	5.362	4.	0.	0.32658
11681	5.2702	4.	5.e-002	15.614
11682	5.2702	4.2727	0.	0.53897
11683	5.362	4.1818	0.	0.41401
11684	5.2702	4.1818	5.e-002	14.191
11685	5.2702	4.4545	0.	0.71012
11686	5.362	4.3636	0.	0.53054
11687	5.2702	4.3636	5.e-002	12.649
11688	5.2702	4.6364	0.	1.0057
11689	5.362	4.5455	0.	0.70225
11690	5.2702	4.5455	5.e-002	11.052
11691	5.2702	4.8182	0.	1.7811
11692	5.362	4.7273	0.	1.024
11693	5.2702	4.7273	5.e-002	9.488
11694	5.2702	5.	0.	8.0405
11695	5.362	4.9091	0.	2.0789
11696	5.2702	4.9091	5.e-002	8.0662
11697	5.2702	5.1818	0.	32.067
11698	5.362	5.0909	0.	13.189
11699	5.2702	5.0909	5.e-002	6.906
11700	5.2702	5.3636	0.	48.605
11701	5.362	5.2727	0.	34.554
11702	5.2702	5.2727	5.e-002	6.1191
11703	5.2702	5.5455	0.	52.299
11704	5.362	5.4545	0.	45.662
11705	5.2702	5.4545	5.e-002	5.7849
11706	5.2702	5.7273	0.	42.598
11707	5.362	5.6364	0.	44.246
11708	5.2702	5.6364	5.e-002	6.1498
11709	5.362	5.8182	0.	30.457
11710	5.2702	5.8182	5.e-002	10.862
11711	5.2702	5.9091	0.	19.403
11712	5.4538	0.27273	0.	32.143
11713	5.5456	0.18182	0.	23.184
11714	5.4538	0.18182	5.e-002	7.9932
11715	5.4538	9.0909e-002	0.	15.052
11716	5.4538	0.45455	0.	37.683
11717	5.5456	0.36364	0.	32.207
11718	5.4538	0.36364	5.e-002	3.8322
11719	5.4538	0.63636	0.	31.659
11720	5.5456	0.54545	0.	30.665
11721	5.4538	0.54545	5.e-002	3.8259
11722	5.4538	0.81818	0.	15.031
11723	5.5456	0.72727	0.	18.542
11724	5.4538	0.72727	5.e-002	4.5665
11725	5.4538	1.	0.	2.2201
11726	5.5456	0.90909	0.	3.1637
11727	5.4538	0.90909	5.e-002	5.6667
11728	5.4538	1.1818	0.	0.97259
11729	5.5456	1.0909	0.	1.0115
11730	5.4538	1.0909	5.e-002	6.9742
11731	5.4538	1.3636	0.	0.65623
11732	5.5456	1.2727	0.	0.64671
11733	5.4538	1.2727	5.e-002	8.3846
11734	5.4538	1.5455	0.	0.49708
11735	5.5456	1.4545	0.	0.48488
11736	5.4538	1.4545	5.e-002	9.8184
11737	5.4538	1.7273	0.	0.39104
11738	5.5456	1.6364	0.	0.38223
11739	5.4538	1.6364	5.e-002	11.211
11740	5.4538	1.9091	0.	0.31073
11741	5.5456	1.8182	0.	0.30525
11742	5.4538	1.8182	5.e-002	12.511
11743	5.4538	2.0909	0.	0.24745
11744	5.5456	2.	0.	0.24366
11745	5.4538	2.	5.e-002	13.682
11746	5.4538	2.2727	0.	0.19832
11747	5.5456	2.1818	0.	0.19425
11748	5.4538	2.1818	5.e-002	14.699
11749	5.4538	2.4545	0.	0.16211
11750	5.5456	2.3636	0.	0.1561
11751	5.4538	2.3636	5.e-002	15.545
11752	5.4538	2.6364	0.	0.13769
11753	5.5456	2.5455	0.	0.12863
11754	5.4538	2.5455	5.e-002	16.203
11755	5.4538	2.8182	0.	0.12379
11756	5.5456	2.7273	0.	0.1111
11757	5.4538	2.7273	5.e-002	16.656
11758	5.4538	3.	0.	0.1193
11759	5.5456	2.9091	0.	0.10262
11760	5.4538	2.9091	5.e-002	16.887
11761	5.4538	3.1818	0.	0.12379
11762	5.5456	3.0909	0.	0.10262
11763	5.4538	3.0909	5.e-002	16.887
11764	5.4538	3.3636	0.	0.13769
11765	5.5456	3.2727	0.	0.1111
11766	5.4538	3.2727	5.e-002	16.656
11767	5.4538	3.5455	0.	0.16211
11768	5.5456	3.4545	0.	0.12863
11769	5.4538	3.4545	5.e-002	16.203
11770	5.4538	3.7273	0.	0.19832
11771	5.5456	3.6364	0.	0.1561
11772	5.4538	3.6364	5.e-002	15.545
11773	5.4538	3.9091	0.	0.24745
11774	5.5456	3.8182	0.	0.19425
11775	5.4538	3.8182	5.e-002	14.699
11776	5.4538	4.0909	0.	0.31073
11777	5.5456	4.	0.	0.24366
11778	5.4538	4.	5.e-002	13.682
11779	5.4538	4.2727	0.	0.39104
11780	5.5456	4.1818	0.	0.30525
11781	5.4538	4.1818	5.e-002	12.511
11782	5.4538	4.4545	0.	0.49708
11783	5.5456	4.3636	0.	0.38223
11784	5.4538	4.3636	5.e-002	11.211
11785	5.4538	4.6364	0.	0.65623
11786	5.5456	4.5455	0.	0.48488
11787	5.4538	4.5455	5.e-002	9.8183
11788	5.4538	4.8182	0.	0.97259
11789	5.5456	4.7273	0.	0.64671
11790	5.4538	4.7273	5.e-002	8.3846
11791	5.4538	5.	0.	2.2201
11792	5.5456	4.9091	0.	1.0115
11793	5.4538	4.9091	5.e-002	6.9742
11794	5.4538	5.1818	0.	15.031
11795	5.5456	5.0909	0.	3.1637
11796	5.4538	5.0909	5.e-002	5.6668
11797	5.4538	5.3636	0.	31.659
11798	5.5456	5.2727	0.	18.542
11799	5.4538	5.2727	5.e-002	4.5665
11800	5.4538	5.5455	0.	37.683
11801	5.5456	5.4545	0.	30.665
11802	5.4538	5.4545	5.e-002	3.8259
11803	5.4538	5.7273	0.	32.143
11804	5.5456	5.6364	0.	32.207
11805	5.4538	5.6364	5.e-002	3.832
11806	5.5456	5.8182	0.	23.184
11807	5.4538	5.8182	5.e-002	7.993
11808	5.4538	5.9091	0.	15.052
11809	5.6374	0.27273	0.	23.248
11810	5.7292	0.18182	0.	17.116
11811	5.6374	0.18182	5.e-002	5.6853
11812	5.6374	9.0909e-002	0.	11.395
11813	5.6374	0.45455	0.	25.209
11814	5.7292	0.36364	0.	21.994
11815	5.6374	0.36364	5.e-002	2.0489
11816	5.6374	0.63636	0.	17.463
11817	5.7292	0.54545	0.	18.055
11818	5.6374	0.54545	5.e-002	2.5734
11819	5.6374	0.81818	0.	3.7256
11820	5.7292	0.72727	0.	6.1368
11821	5.6374	0.72727	5.e-002	3.6853
11822	5.6374	1.	0.	0.95682
11823	5.7292	0.90909	0.	1.0356
11824	5.6374	0.90909	5.e-002	4.9481
11825	5.6374	1.1818	0.	0.5956
11826	5.7292	1.0909	0.	0.58438
11827	5.6374	1.0909	5.e-002	6.2648
11828	5.6374	1.3636	0.	0.44777
11829	5.7292	1.2727	0.	0.43198
11830	5.6374	1.2727	5.e-002	7.5822
11831	5.6374	1.5455	0.	0.35626
11832	5.7292	1.4545	0.	0.34411
11833	5.6374	1.4545	5.e-002	8.8586
11834	5.6374	1.7273	0.	0.28763
11835	5.7292	1.6364	0.	0.27976
11836	5.6374	1.6364	5.e-002	10.058
11837	5.6374	1.9091	0.	0.23169
11838	5.7292	1.8182	0.	0.22712
11839	5.6374	1.8182	5.e-002	11.151
11840	5.6374	2.0909	0.	0.1853
11841	5.7292	2.	0.	0.18256
11842	5.6374	2.	5.e-002	12.117
11843	5.6374	2.2727	0.	0.14773
11844	5.7292	2.1818	0.	0.14528
11845	5.6374	2.1818	5.e-002	12.941
11846	5.6374	2.4545	0.	0.11893
11847	5.7292	2.3636	0.	0.11541
11848	5.6374	2.3636	5.e-002	13.616
11849	5.6374	2.6364	0.	9.8764e-002
11850	5.7292	2.5455	0.	9.3144e-002
11851	5.6374	2.5455	5.e-002	14.132
11852	5.6374	2.8182	0.	8.6909e-002
11853	5.7292	2.7273	0.	7.8478e-002
11854	5.6374	2.7273	5.e-002	14.482
11855	5.6374	3.	0.	8.3009e-002
11856	5.7292	2.9091	0.	7.1228e-002
11857	5.6374	2.9091	5.e-002	14.659
11858	5.6374	3.1818	0.	8.6909e-002
11859	5.7292	3.0909	0.	7.1228e-002
11860	5.6374	3.0909	5.e-002	14.659
11861	5.6374	3.3636	0.	9.8763e-002
11862	5.7292	3.2727	0.	7.8478e-002
11863	5.6374	3.2727	5.e-002	14.482
11864	5.6374	3.5455	0.	0.11893
11865	5.7292	3.4545	0.	9.3144e-002
11866	5.6374	3.4545	5.e-002	14.132
11867	5.6374	3.7273	0.	0.14773
11868	5.7292	3.6364	0.	0.11541
11869	5.6374	3.6364	5.e-002	13.615
11870	5.6374	3.9091	0.	0.1853
11871	5.7292	3.8182	0.	0.14528
11872	5.6374	3.8182	5.e-002	12.941
11873	5.6374	4.0909	0.	0.23169
11874	5.7292	4.	0.	0.18256
11875	5.6374	4.	5.e-002	12.117
11876	5.6374	4.2727	0.	0.28763
11877	5.7292	4.1818	0.	0.22712
11878	5.6374	4.1818	5.e-002	11.151
11879	5.6374	4.4545	0.	0.35626
11880	5.7292	4.3636	0.	0.27976
11881	5.6374	4.3636	5.e-002	10.058
11882	5.6374	4.6364	0.	0.44776
11883	5.7292	4.5455	0.	0.34411
11884	5.6374	4.5455	5.e-002	8.8585
11885	5.6374	4.8182	0.	0.5956
11886	5.7292	4.7273	0.	0.43198
11887	5.6374	4.7273	5.e-002	7.5822
11888	5.6374	5.	0.	0.95682
11889	5.7292	4.9091	0.	0.58438
11890	5.6374	4.9091	5.e-002	6.2648
11891	5.6374	5.1818	0.	3.7256
11892	5.7292	5.0909	0.	1.0356
11893	5.6374	5.0909	5.e-002	4.9481
11894	5.6374	5.3636	0.	17.463
11895	5.7292	5.2727	0.	6.1368
11896	5.6374	5.2727	5.e-002	3.6853
11897	5.6374	5.5455	0.	25.209
11898	5.7292	5.4545	0.	18.055
11899	5.6374	5.4545	5.e-002	2.5734
11900	5.6374	5.7273	0.	23.248
11901	5.7292	5.6364	0.	21.994
11902	5.6374	5.6364	5.e-002	2.0488
11903	5.7292	5.8182	0.	17.116
11904	5.6374	5.8182	5.e-002	5.6851
11905	5.6374	5.9091	0.	11.395
11906	5.8211	0.27273	0.	15.837
11907	5.9129	0.18182	0.	12.145
11908	5.8211	0.18182	5.e-002	3.8542
11909	5.8211	9.0909e-002	0.	8.3786
11910	5.8211	0.45455	0.	14.815
11911	5.9129	0.36364	0.	13.524
11912	5.8211	0.36364	5.e-002	1.0421
11913	5.8211	0.63636	0.	6.2175
11914	5.9129	0.54545	0.	7.8176
11915	5.8211	0.54545	5.e-002	2.1864
11916	5.8211	0.81818	0.	0.96115
11917	5.9129	0.72727	0.	1.1202
11918	5.8211	0.72727	5.e-002	3.4077
11919	5.8211	1.	0.	0.52528
11920	5.9129	0.90909	0.	0.51149
11921	5.8211	0.90909	5.e-002	4.6337
11922	5.8211	1.1818	0.	0.39074
11923	5.9129	1.0909	0.	0.37129
11924	5.8211	1.0909	5.e-002	5.8438
11925	5.8211	1.3636	0.	0.31527
11926	5.9129	1.2727	0.	0.30001
11927	5.8211	1.2727	5.e-002	7.014
11928	5.8211	1.5455	0.	0.25984
11929	5.9129	1.4545	0.	0.24931
11930	5.8211	1.4545	5.e-002	8.1202
11931	5.8211	1.7273	0.	0.21375
11932	5.9129	1.6364	0.	0.20727
11933	5.8211	1.6364	5.e-002	9.1397
11934	5.8211	1.9091	0.	0.17368
11935	5.9129	1.8182	0.	0.17017
11936	5.8211	1.8182	5.e-002	10.054
11937	5.8211	2.0909	0.	0.13896
11938	5.9129	2.	0.	0.13719
11939	5.8211	2.	5.e-002	10.851
11940	5.8211	2.2727	0.	0.10987
11941	5.9129	2.1818	0.	0.10862
11942	5.8211	2.1818	5.e-002	11.522
11943	5.8211	2.4545	0.	8.6892e-002
11944	5.9129	2.3636	0.	8.506e-002
11945	5.8211	2.3636	5.e-002	12.064
11946	5.8211	2.6364	0.	7.0373e-002
11947	5.9129	2.5455	0.	6.7049e-002
11948	5.8211	2.5455	5.e-002	12.473
11949	5.8211	2.8182	0.	6.0456e-002
11950	5.9129	2.7273	0.	5.4929e-002
11951	5.8211	2.7273	5.e-002	12.747
11952	5.8211	3.	0.	5.7155e-002
11953	5.9129	2.9091	0.	4.8849e-002
11954	5.8211	2.9091	5.e-002	12.885
11955	5.8211	3.1818	0.	6.0457e-002
11956	5.9129	3.0909	0.	4.8849e-002
11957	5.8211	3.0909	5.e-002	12.885
11958	5.8211	3.3636	0.	7.0373e-002
11959	5.9129	3.2727	0.	5.4929e-002
11960	5.8211	3.2727	5.e-002	12.747
11961	5.8211	3.5455	0.	8.6892e-002
11962	5.9129	3.4545	0.	6.7049e-002
11963	5.8211	3.4545	5.e-002	12.473
11964	5.8211	3.7273	0.	0.10987
11965	5.9129	3.6364	0.	8.506e-002
11966	5.8211	3.6364	5.e-002	12.064
11967	5.8211	3.9091	0.	0.13896
11968	5.9129	3.8182	0.	0.10862
11969	5.8211	3.8182	5.e-002	11.522
11970	5.8211	4.0909	0.	0.17368
11971	5.9129	4.	0.	0.13719
11972	5.8211	4.	5.e-002	10.851
11973	5.8211	4.2727	0.	0.21375
11974	5.9129	4.1818	0.	0.17017
11975	5.8211	4.1818	5.e-002	10.054
11976	5.8211	4.4545	0.	0.25983
11977	5.9129	4.3636	0.	0.20727
11978	5.8211	4.3636	5.e-002	9.1396
11979	5.8211	4.6364	0.	0.31527
11980	5.9129	4.5455	0.	0.24931
11981	5.8211	4.5455	5.e-002	8.1201
11982	5.8211	4.8182	0.	0.39074
11983	5.9129	4.7273	0.	0.30001
11984	5.8211	4.7273	5.e-002	7.014
11985	5.8211	5.	0.	0.52528
11986	5.9129	4.9091	0.	0.37129
11987	5.8211	4.9091	5.e-002	5.8437
11988	5.8211	5.1818	0.	0.96114
11989	5.9129	5.0909	0.	0.51149
11990	5.8211	5.0909	5.e-002	4.6336
11991	5.8211	5.3636	0.	6.2175
11992	5.9129	5.2727	0.	1.1202
11993	5.8211	5.2727	5.e-002	3.4077
11994	5.8211	5.5455	0.	14.815
11995	5.9129	5.4545	0.	7.8176
11996	5.8211	5.4545	5.e-002	2.1864
11997	5.8211	5.7273	0.	15.837
11998	5.9129	5.6364	0.	13.524
11999	5.8211	5.6364	5.e-002	1.0421
12000	5.9129	5.8182	0.	12.145
12001	5.8211	5.8182	5.e-002	3.854
12002	5.8211	5.9091	0.	8.3786
12003	6.0047	0.27273	0.	9.7907
12004	6.0965	0.18182	0.	8.1539
12005	6.0047	0.18182	5.e-002	2.4256
12006	6.0047	9.0909e-002	0.	5.9373
12007	6.0047	0.45455	0.	6.4286
12008	6.0965	0.36364	0.	6.6823
12009	6.0047	0.36364	5.e-002	1.4089
12010	6.0047	0.63636	0.	0.9862
12011	6.0965	0.54545	0.	1.3118
12012	6.0047	0.54545	5.e-002	2.4923
12013	6.0047	0.81818	0.	0.43963
12014	6.0965	0.72727	0.	0.42115
12015	6.0047	0.72727	5.e-002	3.5304
12016	6.0047	1.	0.	0.32622
12017	6.0965	0.90909	0.	0.3036
12018	6.0047	0.90909	5.e-002	4.5836
12019	6.0047	1.1818	0.	0.26872
12020	6.0965	1.0909	0.	0.25087
12021	6.0047	1.0909	5.e-002	5.6226
12022	6.0047	1.3636	0.	0.2274
12023	6.0965	1.2727	0.	0.21459
12024	6.0047	1.2727	5.e-002	6.6214
12025	6.0047	1.5455	0.	0.19218
12026	6.0965	1.4545	0.	0.18367
12027	6.0047	1.4545	5.e-002	7.5577
12028	6.0047	1.7273	0.	0.16017
12029	6.0965	1.6364	0.	0.15512
12030	6.0047	1.6364	5.e-002	8.4131
12031	6.0047	1.9091	0.	0.13077
12032	6.0965	1.8182	0.	0.12824
12033	6.0047	1.8182	5.e-002	9.1736
12034	6.0047	2.0909	0.	0.10434
12035	6.0965	2.	0.	0.10336
12036	6.0047	2.	5.e-002	9.8303
12037	6.0047	2.2727	0.	8.1575e-002
12038	6.0965	2.1818	0.	8.1183e-002
12039	6.0047	2.1818	5.e-002	10.378
12040	6.0047	2.4545	0.	6.3182e-002
12041	6.0965	2.3636	0.	6.2476e-002
12042	6.0047	2.3636	5.e-002	10.816
12043	6.0047	2.6364	0.	4.9711e-002
12044	6.0965	2.5455	0.	4.7911e-002
12045	6.0047	2.5455	5.e-002	11.143
12046	6.0047	2.8182	0.	4.1511e-002
12047	6.0965	2.7273	0.	3.7965e-002
12048	6.0047	2.7273	5.e-002	11.361
12049	6.0047	3.	0.	3.876e-002
12050	6.0965	2.9091	0.	3.2927e-002
12051	6.0047	2.9091	5.e-002	11.47
12052	6.0047	3.1818	0.	4.151e-002
12053	6.0965	3.0909	0.	3.2927e-002
12054	6.0047	3.0909	5.e-002	11.47
12055	6.0047	3.3636	0.	4.9711e-002
12056	6.0965	3.2727	0.	3.7965e-002
12057	6.0047	3.2727	5.e-002	11.361
12058	6.0047	3.5455	0.	6.3182e-002
12059	6.0965	3.4545	0.	4.7911e-002
12060	6.0047	3.4545	5.e-002	11.143
12061	6.0047	3.7273	0.	8.1575e-002
12062	6.0965	3.6364	0.	6.2476e-002
12063	6.0047	3.6364	5.e-002	10.816
12064	6.0047	3.9091	0.	0.10434
12065	6.0965	3.8182	0.	8.1183e-002
12066	6.0047	3.8182	5.e-002	10.378
12067	6.0047	4.0909	0.	0.13077
12068	6.0965	4.	0.	0.10336
12069	6.0047	4.	5.e-002	9.8302
12070	6.0047	4.2727	0.	0.16017
12071	6.0965	4.1818	0.	0.12824
12072	6.0047	4.1818	5.e-002	9.1736
12073	6.0047	4.4545	0.	0.19218
12074	6.0965	4.3636	0.	0.15512
12075	6.0047	4.3636	5.e-002	8.413
12076	6.0047	4.6364	0.	0.2274
12077	6.0965	4.5455	0.	0.18367
12078	6.0047	4.5455	5.e-002	7.5576
12079	6.0047	4.8182	0.	0.26872
12080	6.0965	4.7273	0.	0.21459
12081	6.0047	4.7273	5.e-002	6.6213
12082	6.0047	5.	0.	0.32621
12083	6.0965	4.9091	0.	0.25087
12084	6.0047	4.9091	5.e-002	5.6225
12085	6.0047	5.1818	0.	0.43963
12086	6.0965	5.0909	0.	0.3036
12087	6.0047	5.0909	5.e-002	4.5835
12088	6.0047	5.3636	0.	0.9862
12089	6.0965	5.2727	0.	0.42115
12090	6.0047	5.2727	5.e-002	3.5303
12091	6.0047	5.5455	0.	6.4286
12092	6.0965	5.4545	0.	1.3118
12093	6.0047	5.4545	5.e-002	2.4922
12094	6.0047	5.7273	0.	9.7907
12095	6.0965	5.6364	0.	6.6823
12096	6.0047	5.6364	5.e-002	1.4088
12097	6.0965	5.8182	0.	8.1539
12098	6.0047	5.8182	5.e-002	2.4254
12099	6.0047	5.9091	0.	5.9373
12100	6.1883	0.27273	0.	4.9822
12101	6.2801	0.18182	0.	5.0248
12102	6.1883	0.18182	5.e-002	1.3441
12103	6.1883	9.0909e-002	0.	4.0019
12104	6.1883	0.45455	0.	1.0109
12105	6.2801	0.36364	0.	1.6044
12106	6.1883	0.36364	5.e-002	2.1965
12107	6.1883	0.63636	0.	0.34041
12108	6.2801	0.54545	0.	0.32195
12109	6.1883	0.54545	5.e-002	3.0266
12110	6.1883	0.81818	0.	0.25553
12111	6.2801	0.72727	0.	0.23109
12112	6.1883	0.72727	5.e-002	3.8265
12113	6.1883	1.	0.	0.21849
12114	6.2801	0.90909	0.	0.19937
12115	6.1883	0.90909	5.e-002	4.6737
12116	6.1883	1.1818	0.	0.19144
12117	6.2801	1.0909	0.	0.17716
12118	6.1883	1.0909	5.e-002	5.5273
12119	6.1883	1.3636	0.	0.16726
12120	6.2801	1.2727	0.	0.15719
12121	6.1883	1.2727	5.e-002	6.3548
12122	6.1883	1.5455	0.	0.14383
12123	6.2801	1.4545	0.	0.13726
12124	6.1883	1.4545	5.e-002	7.1319
12125	6.1883	1.7273	0.	0.12088
12126	6.2801	1.6364	0.	0.11712
12127	6.1883	1.6364	5.e-002	7.8408
12128	6.1883	1.9091	0.	9.8834e-002
12129	6.2801	1.8182	0.	9.7153e-002
12130	6.1883	1.8182	5.e-002	8.469
12131	6.1883	2.0909	0.	7.8415e-002
12132	6.2801	2.	0.	7.8057e-002
12133	6.1883	2.	5.e-002	9.0087
12134	6.1883	2.2727	0.	6.0445e-002
12135	6.2801	2.1818	0.	6.0645e-002
12136	6.1883	2.1818	5.e-002	9.4566
12137	6.1883	2.4545	0.	4.5679e-002
12138	6.2801	2.3636	0.	4.5708e-002
12139	6.1883	2.3636	5.e-002	9.8118
12140	6.1883	2.6364	0.	3.4718e-002
12141	6.2801	2.5455	0.	3.3922e-002
12142	6.1883	2.5455	5.e-002	10.076
12143	6.1883	2.8182	0.	2.7981e-002
12144	6.2801	2.7273	0.	2.5791e-002
12145	6.1883	2.7273	5.e-002	10.25
12146	6.1883	3.	0.	2.571e-002
12147	6.2801	2.9091	0.	2.1645e-002
12148	6.1883	2.9091	5.e-002	10.337
12149	6.1883	3.1818	0.	2.7981e-002
12150	6.2801	3.0909	0.	2.1645e-002
12151	6.1883	3.0909	5.e-002	10.337
12152	6.1883	3.3636	0.	3.4718e-002
12153	6.2801	3.2727	0.	2.579e-002
12154	6.1883	3.2727	5.e-002	10.25
12155	6.1883	3.5455	0.	4.5678e-002
12156	6.2801	3.4545	0.	3.3922e-002
12157	6.1883	3.4545	5.e-002	10.076
12158	6.1883	3.7273	0.	6.0445e-002
12159	6.2801	3.6364	0.	4.5708e-002
12160	6.1883	3.6364	5.e-002	9.8118
12161	6.1883	3.9091	0.	7.8415e-002
12162	6.2801	3.8182	0.	6.0644e-002
12163	6.1883	3.8182	5.e-002	9.4565
12164	6.1883	4.0909	0.	9.8833e-002
12165	6.2801	4.	0.	7.8057e-002
12166	6.1883	4.	5.e-002	9.0087
12167	6.1883	4.2727	0.	0.12088
12168	6.2801	4.1818	0.	9.7153e-002
12169	6.1883	4.1818	5.e-002	8.4689
12170	6.1883	4.4545	0.	0.14383
12171	6.2801	4.3636	0.	0.11712
12172	6.1883	4.3636	5.e-002	7.8407
12173	6.1883	4.6364	0.	0.16726
12174	6.2801	4.5455	0.	0.13726
12175	6.1883	4.5455	5.e-002	7.1318
12176	6.1883	4.8182	0.	0.19144
12177	6.2801	4.7273	0.	0.15719
12178	6.1883	4.7273	5.e-002	6.3547
12179	6.1883	5.	0.	0.21849
12180	6.2801	4.9091	0.	0.17716
12181	6.1883	4.9091	5.e-002	5.5272
12182	6.1883	5.1818	0.	0.25553
12183	6.2801	5.0909	0.	0.19937
12184	6.1883	5.0909	5.e-002	4.6736
12185	6.1883	5.3636	0.	0.34041
12186	6.2801	5.2727	0.	0.23109
12187	6.1883	5.2727	5.e-002	3.8264
12188	6.1883	5.5455	0.	1.0109
12189	6.2801	5.4545	0.	0.32195
12190	6.1883	5.4545	5.e-002	3.0265
12191	6.1883	5.7273	0.	4.9822
12192	6.2801	5.6364	0.	1.6044
12193	6.1883	5.6364	5.e-002	2.1963
12194	6.2801	5.8182	0.	5.0248
12195	6.1883	5.8182	5.e-002	1.3439
12196	6.1883	5.9091	0.	4.0019
12197	6.3719	0.27273	0.	1.4241
12198	6.4637	0.18182	0.	2.6625
12199	6.3719	0.18182	5.e-002	0.62202
12200	6.3719	9.0909e-002	0.	2.5055
12201	6.3719	0.45455	0.	0.23734
12202	6.4637	0.36364	0.	0.24059
12203	6.3719	0.36364	5.e-002	2.895
12204	6.3719	0.63636	0.	0.18637
12205	6.4637	0.54545	0.	0.16509
12206	6.3719	0.54545	5.e-002	3.5506
12207	6.3719	0.81818	0.	0.16774
12208	6.4637	0.72727	0.	0.14938
12209	6.3719	0.72727	5.e-002	4.1569
12210	6.3719	1.	0.	0.1542
12211	6.4637	0.90909	0.	0.13976
12212	6.3719	0.90909	5.e-002	4.82
12213	6.3719	1.1818	0.	0.14025
12214	6.4637	1.0909	0.	0.12942
12215	6.3719	1.0909	5.e-002	5.5035
12216	6.3719	1.3636	0.	0.12511
12217	6.4637	1.2727	0.	0.11746
12218	6.3719	1.2727	5.e-002	6.1751
12219	6.3719	1.5455	0.	0.1088
12220	6.4637	1.4545	0.	0.10388
12221	6.3719	1.4545	5.e-002	6.8102
12222	6.3719	1.7273	0.	9.1846e-002
12223	6.4637	1.6364	0.	8.9164e-002
12224	6.3719	1.6364	5.e-002	7.3913
12225	6.3719	1.9091	0.	7.4977e-002
12226	6.4637	1.8182	0.	7.3977e-002
12227	6.3719	1.8182	5.e-002	7.9065
12228	6.3719	2.0909	0.	5.8994e-002
12229	6.4637	2.	0.	5.9128e-002
12230	6.3719	2.	5.e-002	8.3488
12231	6.3719	2.2727	0.	4.4695e-002
12232	6.4637	2.1818	0.	4.5286e-002
12233	6.3719	2.1818	5.e-002	8.7146
12234	6.3719	2.4545	0.	3.2799e-002
12235	6.4637	2.3636	0.	3.3295e-002
12236	6.3719	2.3636	5.e-002	9.004
12237	6.3719	2.6364	0.	2.3885e-002
12238	6.4637	2.5455	0.	2.3742e-002
12239	6.3719	2.5455	5.e-002	9.2182
12240	6.3719	2.8182	0.	1.837e-002
12241	6.4637	2.7273	0.	1.7104e-002
12242	6.3719	2.7273	5.e-002	9.3593
12243	6.3719	3.	0.	1.6504e-002
12244	6.4637	2.9091	0.	1.3704e-002
12245	6.3719	2.9091	5.e-002	9.4293
12246	6.3719	3.1818	0.	1.837e-002
12247	6.4637	3.0909	0.	1.3704e-002
12248	6.3719	3.0909	5.e-002	9.4293
12249	6.3719	3.3636	0.	2.3885e-002
12250	6.4637	3.2727	0.	1.7104e-002
12251	6.3719	3.2727	5.e-002	9.3593
12252	6.3719	3.5455	0.	3.2799e-002
12253	6.4637	3.4545	0.	2.3742e-002
12254	6.3719	3.4545	5.e-002	9.2181
12255	6.3719	3.7273	0.	4.4695e-002
12256	6.4637	3.6364	0.	3.3295e-002
12257	6.3719	3.6364	5.e-002	9.0039
12258	6.3719	3.9091	0.	5.8993e-002
12259	6.4637	3.8182	0.	4.5286e-002
12260	6.3719	3.8182	5.e-002	8.7146
12261	6.3719	4.0909	0.	7.4976e-002
12262	6.4637	4.	0.	5.9128e-002
12263	6.3719	4.	5.e-002	8.3486
12264	6.3719	4.2727	0.	9.1845e-002
12265	6.4637	4.1818	0.	7.3977e-002
12266	6.3719	4.1818	5.e-002	7.9064
12267	6.3719	4.4545	0.	0.10879
12268	6.4637	4.3636	0.	8.9163e-002
12269	6.3719	4.3636	5.e-002	7.3912
12270	6.3719	4.6364	0.	0.1251
12271	6.4637	4.5455	0.	0.10388
12272	6.3719	4.5455	5.e-002	6.81
12273	6.3719	4.8182	0.	0.14025
12274	6.4637	4.7273	0.	0.11746
12275	6.3719	4.7273	5.e-002	6.1749
12276	6.3719	5.	0.	0.15419
12277	6.4637	4.9091	0.	0.12942
12278	6.3719	4.9091	5.e-002	5.5034
12279	6.3719	5.1818	0.	0.16774
12280	6.4637	5.0909	0.	0.13976
12281	6.3719	5.0909	5.e-002	4.8198
12282	6.3719	5.3636	0.	0.18637
12283	6.4637	5.2727	0.	0.14938
12284	6.3719	5.2727	5.e-002	4.1568
12285	6.3719	5.5455	0.	0.23734
12286	6.4637	5.4545	0.	0.16509
12287	6.3719	5.4545	5.e-002	3.5504
12288	6.3719	5.7273	0.	1.4241
12289	6.4637	5.6364	0.	0.24059
12290	6.3719	5.6364	5.e-002	2.8948
12291	6.4637	5.8182	0.	2.6625
12292	6.3719	5.8182	5.e-002	0.62189
12293	6.3719	5.9091	0.	2.5055
12294	6.5556	0.27273	0.	0.24233
12295	6.6474	0.18182	0.	1.0637
12296	6.5556	0.18182	5.e-002	0.5343
12297	6.5556	9.0909e-002	0.	1.3881
12298	6.5556	0.45455	0.	0.12937
12299	6.6474	0.36364	0.	0.12406
12300	6.5556	0.36364	5.e-002	3.46
12301	6.5556	0.63636	0.	0.12227
12302	6.6474	0.54545	0.	0.10735
12303	6.5556	0.54545	5.e-002	3.9989
12304	6.5556	0.81818	0.	0.11869
12305	6.6474	0.72727	0.	0.10592
12306	6.5556	0.72727	5.e-002	4.4612
12307	6.5556	1.	0.	0.11314
12308	6.6474	0.90909	0.	0.10262
12309	6.5556	0.90909	5.e-002	4.9753
12310	6.5556	1.1818	0.	0.10516
12311	6.6474	1.0909	0.	9.7164e-002
12312	6.5556	1.0909	5.e-002	5.5152
12313	6.5556	1.3636	0.	9.4964e-002
12314	6.6474	1.2727	0.	8.931e-002
12315	6.5556	1.2727	5.e-002	6.0529
12316	6.5556	1.5455	0.	8.3102e-002
12317	6.6474	1.4545	0.	7.9539e-002
12318	6.5556	1.4545	5.e-002	6.5659
12319	6.5556	1.7273	0.	7.0235e-002
12320	6.6474	1.6364	0.	6.8419e-002
12321	6.5556	1.6364	5.e-002	7.0379
12322	6.5556	1.9091	0.	5.7097e-002
12323	6.6474	1.8182	0.	5.6625e-002
12324	6.5556	1.8182	5.e-002	7.4578
12325	6.5556	2.0909	0.	4.4439e-002
12326	6.6474	2.	0.	4.4861e-002
12327	6.5556	2.	5.e-002	7.8186
12328	6.5556	2.2727	0.	3.2981e-002
12329	6.6474	2.1818	0.	3.3819e-002
12330	6.5556	2.1818	5.e-002	8.1173
12331	6.5556	2.4545	0.	2.3363e-002
12332	6.6474	2.3636	0.	2.4142e-002
12333	6.5556	2.3636	5.e-002	8.3533
12334	6.5556	2.6364	0.	1.6107e-002
12335	6.6474	2.5455	0.	1.638e-002
12336	6.5556	2.5455	5.e-002	8.5277
12337	6.5556	2.8182	0.	1.1598e-002
12338	6.6474	2.7273	0.	1.0961e-002
12339	6.5556	2.7273	5.e-002	8.6424
12340	6.5556	3.	0.	1.0068e-002
12341	6.6474	2.9091	0.	8.1767e-003
12342	6.5556	2.9091	5.e-002	8.6993
12343	6.5556	3.1818	0.	1.1597e-002
12344	6.6474	3.0909	0.	8.1767e-003
12345	6.5556	3.0909	5.e-002	8.6993
12346	6.5556	3.3636	0.	1.6107e-002
12347	6.6474	3.2727	0.	1.0961e-002
12348	6.5556	3.2727	5.e-002	8.6425
12349	6.5556	3.5455	0.	2.3362e-002
12350	6.6474	3.4545	0.	1.638e-002
12351	6.5556	3.4545	5.e-002	8.5277
12352	6.5556	3.7273	0.	3.2981e-002
12353	6.6474	3.6364	0.	2.4141e-002
12354	6.5556	3.6364	5.e-002	8.3532
12355	6.5556	3.9091	0.	4.4439e-002
12356	6.6474	3.8182	0.	3.3818e-002
12357	6.5556	3.8182	5.e-002	8.1173
12358	6.5556	4.0909	0.	5.7097e-002
12359	6.6474	4.	0.	4.486e-002
12360	6.5556	4.	5.e-002	7.8186
12361	6.5556	4.2727	0.	7.0234e-002
12362	6.6474	4.1818	0.	5.6625e-002
12363	6.5556	4.1818	5.e-002	7.4577
12364	6.5556	4.4545	0.	8.3102e-002
12365	6.6474	4.3636	0.	6.8418e-002
12366	6.5556	4.3636	5.e-002	7.0379
12367	6.5556	4.6364	0.	9.4964e-002
12368	6.6474	4.5455	0.	7.9538e-002
12369	6.5556	4.5455	5.e-002	6.5658
12370	6.5556	4.8182	0.	0.10515
12371	6.6474	4.7273	0.	8.9309e-002
12372	6.5556	4.7273	5.e-002	6.0528
12373	6.5556	5.	0.	0.11314
12374	6.6474	4.9091	0.	9.7164e-002
12375	6.5556	4.9091	5.e-002	5.5151
12376	6.5556	5.1818	0.	0.11869
12377	6.6474	5.0909	0.	0.10262
12378	6.5556	5.0909	5.e-002	4.9751
12379	6.5556	5.3636	0.	0.12227
12380	6.6474	5.2727	0.	0.10592
12381	6.5556	5.2727	5.e-002	4.461
12382	6.5556	5.5455	0.	0.12937
12383	6.6474	5.4545	0.	0.10735
12384	6.5556	5.4545	5.e-002	3.9987
12385	6.5556	5.7273	0.	0.24233
12386	6.6474	5.6364	0.	0.12406
12387	6.5556	5.6364	5.e-002	3.4597
12388	6.6474	5.8182	0.	1.0637
12389	6.5556	5.8182	5.e-002	0.53428
12390	6.5556	5.9091	0.	1.3881
12391	6.7392	0.27273	0.	0.12857
12392	6.831	0.18182	0.	0.40154
12393	6.7392	0.18182	5.e-002	0.85766
12394	6.7392	9.0909e-002	0.	0.61039
12395	6.7392	0.45455	0.	9.1555e-002
12396	6.831	0.36364	0.	9.2461e-002
12397	6.7392	0.36364	5.e-002	3.9045
12398	6.7392	0.63636	0.	8.8314e-002
12399	6.831	0.54545	0.	7.8055e-002
12400	6.7392	0.54545	5.e-002	4.363
12401	6.7392	0.81818	0.	8.8413e-002
12402	6.831	0.72727	0.	7.9731e-002
12403	6.7392	0.72727	5.e-002	4.719
12404	6.7392	1.	0.	8.558e-002
12405	6.831	0.90909	0.	7.8015e-002
12406	6.7392	0.90909	5.e-002	5.117
12407	6.7392	1.1818	0.	8.041e-002
12408	6.831	1.0909	0.	7.4611e-002
12409	6.7392	1.0909	5.e-002	5.5408
12410	6.7392	1.3636	0.	7.3056e-002
12411	6.831	1.2727	0.	6.8956e-002
12412	6.7392	1.2727	5.e-002	5.9675
12413	6.7392	1.5455	0.	6.4076e-002
12414	6.831	1.4545	0.	6.1568e-002
12415	6.7392	1.4545	5.e-002	6.3785
12416	6.7392	1.7273	0.	5.4064e-002
12417	6.831	1.6364	0.	5.2917e-002
12418	6.7392	1.6364	5.e-002	6.7591
12419	6.7392	1.9091	0.	4.367e-002
12420	6.831	1.8182	0.	4.3587e-002
12421	6.7392	1.8182	5.e-002	7.0992
12422	6.7392	2.0909	0.	3.3541e-002
12423	6.831	2.	0.	3.4176e-002
12424	6.7392	2.	5.e-002	7.3926
12425	6.7392	2.2727	0.	2.4298e-002
12426	6.831	2.1818	0.	2.5273e-002
12427	6.7392	2.1818	5.e-002	7.6358
12428	6.7392	2.4545	0.	1.6491e-002
12429	6.831	2.3636	0.	1.7425e-002
12430	6.7392	2.3636	5.e-002	7.8282
12431	6.7392	2.6364	0.	1.0575e-002
12432	6.831	2.5455	0.	1.1102e-002
12433	6.7392	2.5455	5.e-002	7.9706
12434	6.7392	2.8182	0.	6.8869e-003
12435	6.831	2.7273	0.	6.6719e-003
12436	6.7392	2.7273	5.e-002	8.0642
12437	6.7392	3.	0.	5.6345e-003
12438	6.831	2.9091	0.	4.3919e-003
12439	6.7392	2.9091	5.e-002	8.1105
12440	6.7392	3.1818	0.	6.8872e-003
12441	6.831	3.0909	0.	4.3921e-003
12442	6.7392	3.0909	5.e-002	8.1106
12443	6.7392	3.3636	0.	1.0575e-002
12444	6.831	3.2727	0.	6.672e-003
12445	6.7392	3.2727	5.e-002	8.0642
12446	6.7392	3.5455	0.	1.6491e-002
12447	6.831	3.4545	0.	1.1101e-002
12448	6.7392	3.4545	5.e-002	7.9705
12449	6.7392	3.7273	0.	2.4297e-002
12450	6.831	3.6364	0.	1.7425e-002
12451	6.7392	3.6364	5.e-002	7.8281
12452	6.7392	3.9091	0.	3.3541e-002
12453	6.831	3.8182	0.	2.5273e-002
12454	6.7392	3.8182	5.e-002	7.6357
12455	6.7392	4.0909	0.	4.3669e-002
12456	6.831	4.	0.	3.4176e-002
12457	6.7392	4.	5.e-002	7.3924
12458	6.7392	4.2727	0.	5.4063e-002
12459	6.831	4.1818	0.	4.3586e-002
12460	6.7392	4.1818	5.e-002	7.0991
12461	6.7392	4.4545	0.	6.4075e-002
12462	6.831	4.3636	0.	5.2916e-002
12463	6.7392	4.3636	5.e-002	6.759
12464	6.7392	4.6364	0.	7.3055e-002
12465	6.831	4.5455	0.	6.1568e-002
12466	6.7392	4.5455	5.e-002	6.3783
12467	6.7392	4.8182	0.	8.0409e-002
12468	6.831	4.7273	0.	6.8955e-002
12469	6.7392	4.7273	5.e-002	5.9674
12470	6.7392	5.	0.	8.5579e-002
12471	6.831	4.9091	0.	7.4611e-002
12472	6.7392	4.9091	5.e-002	5.5406
12473	6.7392	5.1818	0.	8.837e-002
12474	6.831	5.0909	0.	7.8013e-002
12475	6.7392	5.0909	5.e-002	5.1168
12476	6.7392	5.3636	0.	8.8314e-002
12477	6.831	5.2727	0.	7.973e-002
12478	6.7392	5.2727	5.e-002	4.7188
12479	6.7392	5.5455	0.	9.1555e-002
12480	6.831	5.4545	0.	7.8055e-002
12481	6.7392	5.4545	5.e-002	4.3628
12482	6.7392	5.7273	0.	0.12857
12483	6.831	5.6364	0.	9.246e-002
12484	6.7392	5.6364	5.e-002	3.9043
12485	6.831	5.8182	0.	0.40155
12486	6.7392	5.8182	5.e-002	0.85752
12487	6.7392	5.9091	0.	0.61041
12488	6.9228	0.27273	0.	9.7496e-002
12489	7.0146	0.18182	0.	0.25071
12490	6.9228	0.18182	5.e-002	1.1508
12491	6.9228	9.0909e-002	0.	0.23815
12492	6.9228	0.45455	0.	7.2894e-002
12493	7.0146	0.36364	0.	7.8744e-002
12494	6.9228	0.36364	5.e-002	4.2487
12495	6.9228	0.63636	0.	6.7679e-002
12496	7.0146	0.54545	0.	6.0483e-002
12497	6.9228	0.54545	5.e-002	4.6504
12498	6.9228	0.81818	0.	6.8388e-002
12499	7.0146	0.72727	0.	6.2551e-002
12500	6.9228	0.72727	5.e-002	4.9274
12501	6.9228	1.	0.	6.6339e-002
12502	7.0146	0.90909	0.	6.0913e-002
12503	6.9228	0.90909	5.e-002	5.2361
12504	6.9228	1.1818	0.	6.2548e-002
12505	7.0146	1.0909	0.	5.8396e-002
12506	6.9228	1.0909	5.e-002	5.5677
12507	6.9228	1.3636	0.	5.689e-002
12508	7.0146	1.2727	0.	5.4008e-002
12509	6.9228	1.2727	5.e-002	5.9049
12510	6.9228	1.5455	0.	4.9862e-002
12511	7.0146	1.4545	0.	4.8158e-002
12512	6.9228	1.4545	5.e-002	6.2321
12513	6.9228	1.7273	0.	4.1904e-002
12514	7.0146	1.6364	0.	4.1257e-002
12515	6.9228	1.6364	5.e-002	6.5373
12516	6.9228	1.9091	0.	3.3566e-002
12517	7.0146	1.8182	0.	3.3758e-002
12518	6.9228	1.8182	5.e-002	6.8116
12519	6.9228	2.0909	0.	2.5386e-002
12520	7.0146	2.	0.	2.6151e-002
12521	6.9228	2.	5.e-002	7.0491
12522	6.9228	2.2727	0.	1.7884e-002
12523	7.0146	2.1818	0.	1.8921e-002
12524	6.9228	2.1818	5.e-002	7.2467
12525	6.9228	2.4545	0.	1.1523e-002
12526	7.0146	2.3636	0.	1.2525e-002
12527	6.9228	2.3636	5.e-002	7.4035
12528	6.9228	2.6364	0.	6.6887e-003
12529	7.0146	2.5455	0.	7.3583e-003
12530	6.9228	2.5455	5.e-002	7.5197
12531	6.9228	2.8182	0.	3.6689e-003
12532	7.0146	2.7273	0.	3.7313e-003
12533	6.9228	2.7273	5.e-002	7.5962
12534	6.9228	3.	0.	2.6422e-003
12535	7.0146	2.9091	0.	1.8619e-003
12536	6.9228	2.9091	5.e-002	7.6341
12537	6.9228	3.1818	0.	3.6688e-003
12538	7.0146	3.0909	0.	1.8618e-003
12539	6.9228	3.0909	5.e-002	7.6342
12540	6.9228	3.3636	0.	6.6884e-003
12541	7.0146	3.2727	0.	3.7311e-003
12542	6.9228	3.2727	5.e-002	7.5962
12543	6.9228	3.5455	0.	1.1522e-002
12544	7.0146	3.4545	0.	7.3581e-003
12545	6.9228	3.4545	5.e-002	7.5196
12546	6.9228	3.7273	0.	1.7883e-002
12547	7.0146	3.6364	0.	1.2525e-002
12548	6.9228	3.6364	5.e-002	7.4035
12549	6.9228	3.9091	0.	2.5386e-002
12550	7.0146	3.8182	0.	1.8921e-002
12551	6.9228	3.8182	5.e-002	7.2467
12552	6.9228	4.0909	0.	3.3565e-002
12553	7.0146	4.	0.	2.615e-002
12554	6.9228	4.	5.e-002	7.049
12555	6.9228	4.2727	0.	4.1903e-002
12556	7.0146	4.1818	0.	3.3758e-002
12557	6.9228	4.1818	5.e-002	6.8115
12558	6.9228	4.4545	0.	4.9861e-002
12559	7.0146	4.3636	0.	4.1256e-002
12560	6.9228	4.3636	5.e-002	6.5372
12561	6.9228	4.6364	0.	5.689e-002
12562	7.0146	4.5455	0.	4.8157e-002
12563	6.9228	4.5455	5.e-002	6.232
12564	6.9228	4.8182	0.	6.2547e-002
12565	7.0146	4.7273	0.	5.4008e-002
12566	6.9228	4.7273	5.e-002	5.9047
12567	6.9228	5.	0.	6.6338e-002
12568	7.0146	4.9091	0.	5.8395e-002
12569	6.9228	4.9091	5.e-002	5.5676
12570	6.9228	5.1818	0.	6.8388e-002
12571	7.0146	5.0909	0.	6.0913e-002
12572	6.9228	5.0909	5.e-002	5.2359
12573	6.9228	5.3636	0.	6.7679e-002
12574	7.0146	5.2727	0.	6.255e-002
12575	6.9228	5.2727	5.e-002	4.9272
12576	6.9228	5.5455	0.	7.2894e-002
12577	7.0146	5.4545	0.	6.0484e-002
12578	6.9228	5.4545	5.e-002	4.6502
12579	6.9228	5.7273	0.	9.7496e-002
12580	7.0146	5.6364	0.	7.8743e-002
12581	6.9228	5.6364	5.e-002	4.2485
12582	7.0146	5.8182	0.	0.25071
12583	6.9228	5.8182	5.e-002	1.1507
12584	6.9228	5.9091	0.	0.23816
12585	7.1064	0.27273	0.	8.3379e-002
12586	7.1982	0.18182	0.	0.2061
12587	7.1064	0.18182	5.e-002	1.3603
12588	7.1064	9.0909e-002	0.	0.18273
12589	7.1064	0.45455	0.	6.1715e-002
12590	7.1982	0.36364	0.	7.0955e-002
12591	7.1064	0.36364	5.e-002	4.5115
12592	7.1064	0.63636	0.	5.3945e-002
12593	7.1982	0.54545	0.	4.8777e-002
12594	7.1064	0.54545	5.e-002	4.8727
12595	7.1064	0.81818	0.	5.4379e-002
12596	7.1982	0.72727	0.	5.0562e-002
12597	7.1064	0.72727	5.e-002	5.0904
12598	7.1064	1.	0.	5.2471e-002
12599	7.1982	0.90909	0.	4.8633e-002
12600	7.1064	0.90909	5.e-002	5.3306
12601	7.1064	1.1818	0.	4.9392e-002
12602	7.1982	1.0909	0.	4.6464e-002
12603	7.1064	1.0909	5.e-002	5.59
12604	7.1064	1.3636	0.	4.4833e-002
12605	7.1982	1.2727	0.	4.2806e-002
12606	7.1064	1.2727	5.e-002	5.8557
12607	7.1064	1.5455	0.	3.9156e-002
12608	7.1982	1.4545	0.	3.8058e-002
12609	7.1064	1.4545	5.e-002	6.1154
12610	7.1064	1.7273	0.	3.2718e-002
12611	7.1982	1.6364	0.	3.244e-002
12612	7.1064	1.6364	5.e-002	6.3591
12613	7.1064	1.9091	0.	2.595e-002
12614	7.1982	1.8182	0.	2.6333e-002
12615	7.1064	1.8182	5.e-002	6.5794
12616	7.1064	2.0909	0.	1.9291e-002
12617	7.1982	2.	0.	2.0127e-002
12618	7.1064	2.	5.e-002	6.771
12619	7.1064	2.2727	0.	1.3167e-002
12620	7.1982	2.1818	0.	1.4219e-002
12621	7.1064	2.1818	5.e-002	6.9312
12622	7.1064	2.4545	0.	7.9647e-003
12623	7.1982	2.3636	0.	8.9837e-003
12624	7.1064	2.3636	5.e-002	7.0587
12625	7.1064	2.6364	0.	4.0045e-003
12626	7.1982	2.5455	0.	4.7486e-003
12627	7.1064	2.5455	5.e-002	7.1534
12628	7.1064	2.8182	0.	1.5277e-003
12629	7.1982	2.7273	0.	1.7723e-003
12630	7.1064	2.7273	5.e-002	7.216
12631	7.1064	3.	0.	6.85e-004
12632	7.1982	2.9091	0.	2.3733e-004
12633	7.1064	2.9091	5.e-002	7.247
12634	7.1064	3.1818	0.	1.5276e-003
12635	7.1982	3.0909	0.	2.3721e-004
12636	7.1064	3.0909	5.e-002	7.2469
12637	7.1064	3.3636	0.	4.0045e-003
12638	7.1982	3.2727	0.	1.7722e-003
12639	7.1064	3.2727	5.e-002	7.2159
12640	7.1064	3.5455	0.	7.9645e-003
12641	7.1982	3.4545	0.	4.7487e-003
12642	7.1064	3.4545	5.e-002	7.1534
12643	7.1064	3.7273	0.	1.3167e-002
12644	7.1982	3.6364	0.	8.9832e-003
12645	7.1064	3.6364	5.e-002	7.0586
12646	7.1064	3.9091	0.	1.929e-002
12647	7.1982	3.8182	0.	1.4218e-002
12648	7.1064	3.8182	5.e-002	6.9311
12649	7.1064	4.0909	0.	2.5949e-002
12650	7.1982	4.	0.	2.0126e-002
12651	7.1064	4.	5.e-002	6.7709
12652	7.1064	4.2727	0.	3.2717e-002
12653	7.1982	4.1818	0.	2.6332e-002
12654	7.1064	4.1818	5.e-002	6.5792
12655	7.1064	4.4545	0.	3.9156e-002
12656	7.1982	4.3636	0.	3.244e-002
12657	7.1064	4.3636	5.e-002	6.359
12658	7.1064	4.6364	0.	4.4832e-002
12659	7.1982	4.5455	0.	3.8057e-002
12660	7.1064	4.5455	5.e-002	6.1152
12661	7.1064	4.8182	0.	4.9392e-002
12662	7.1982	4.7273	0.	4.2806e-002
12663	7.1064	4.7273	5.e-002	5.8555
12664	7.1064	5.	0.	5.2469e-002
12665	7.1982	4.9091	0.	4.6464e-002
12666	7.1064	4.9091	5.e-002	5.5899
12667	7.1064	5.1818	0.	5.4377e-002
12668	7.1982	5.0909	0.	4.8631e-002
12669	7.1064	5.0909	5.e-002	5.3304
12670	7.1064	5.3636	0.	5.3944e-002
12671	7.1982	5.2727	0.	5.0561e-002
12672	7.1064	5.2727	5.e-002	5.0902
12673	7.1064	5.5455	0.	6.1715e-002
12674	7.1982	5.4545	0.	4.8777e-002
12675	7.1064	5.4545	5.e-002	4.8725
12676	7.1064	5.7273	0.	8.3378e-002
12677	7.1982	5.6364	0.	7.0954e-002
12678	7.1064	5.6364	5.e-002	4.5113
12679	7.1982	5.8182	0.	0.2061
12680	7.1064	5.8182	5.e-002	1.3601
12681	7.1064	5.9091	0.	0.18273
12682	7.2901	0.27273	0.	7.5175e-002
12683	7.3819	0.18182	0.	0.19157
12684	7.2901	0.18182	5.e-002	1.4944
12685	7.2901	9.0909e-002	0.	0.18576
12686	7.2901	0.45455	0.	5.406e-002
12687	7.3819	0.36364	0.	6.5528e-002
12688	7.2901	0.36364	5.e-002	4.7091
12689	7.2901	0.63636	0.	4.4196e-002
12690	7.3819	0.54545	0.	4.0395e-002
12691	7.2901	0.54545	5.e-002	5.0414
12692	7.2901	0.81818	0.	4.421e-002
12693	7.3819	0.72727	0.	4.1789e-002
12694	7.2901	0.72727	5.e-002	5.2143
12695	7.2901	1.	0.	4.2217e-002
12696	7.3819	0.90909	0.	3.9508e-002
12697	7.2901	0.90909	5.e-002	5.4018
12698	7.2901	1.1818	0.	3.9543e-002
12699	7.3819	1.0909	0.	3.7512e-002
12700	7.2901	1.0909	5.e-002	5.605
12701	7.2901	1.3636	0.	3.5726e-002
12702	7.3819	1.2727	0.	3.4356e-002
12703	7.2901	1.2727	5.e-002	5.8141
12704	7.2901	1.5455	0.	3.1046e-002
12705	7.3819	1.4545	0.	3.0391e-002
12706	7.2901	1.4545	5.e-002	6.0197
12707	7.2901	1.7273	0.	2.576e-002
12708	7.3819	1.6364	0.	2.5745e-002
12709	7.2901	1.6364	5.e-002	6.2138
12710	7.2901	1.9091	0.	2.0212e-002
12711	7.3819	1.8182	0.	2.0716e-002
12712	7.2901	1.8182	5.e-002	6.3901
12713	7.2901	2.0909	0.	1.4754e-002
12714	7.3819	2.	0.	1.5614e-002
12715	7.2901	2.	5.e-002	6.5444
12716	7.2901	2.2727	0.	9.7308e-003
12717	7.3819	2.1818	0.	1.0759e-002
12718	7.2901	2.1818	5.e-002	6.6739
12719	7.2901	2.4545	0.	5.4605e-003
12720	7.3819	2.3636	0.	6.4569e-003
12721	7.2901	2.3636	5.e-002	6.7774
12722	7.2901	2.6364	0.	2.2073e-003
12723	7.3819	2.5455	0.	2.9752e-003
12724	7.2901	2.5455	5.e-002	6.8545
12725	7.2901	2.8182	0.	1.7164e-004
12726	7.3819	2.7273	0.	5.2703e-004
12727	7.2901	2.7273	5.e-002	6.9056
12728	7.2901	3.	0.	-5.2111e-004
12729	7.3819	2.9091	0.	-7.3569e-004
12730	7.2901	2.9091	5.e-002	6.931
12731	7.2901	3.1818	0.	1.7152e-004
12732	7.3819	3.0909	0.	-7.3599e-004
12733	7.2901	3.0909	5.e-002	6.931
12734	7.2901	3.3636	0.	2.2073e-003
12735	7.3819	3.2727	0.	5.2705e-004
12736	7.2901	3.2727	5.e-002	6.9055
12737	7.2901	3.5455	0.	5.4603e-003
12738	7.3819	3.4545	0.	2.9751e-003
12739	7.2901	3.4545	5.e-002	6.8545
12740	7.2901	3.7273	0.	9.7304e-003
12741	7.3819	3.6364	0.	6.4566e-003
12742	7.2901	3.6364	5.e-002	6.7774
12743	7.2901	3.9091	0.	1.4753e-002
12744	7.3819	3.8182	0.	1.0759e-002
12745	7.2901	3.8182	5.e-002	6.6738
12746	7.2901	4.0909	0.	2.0212e-002
12747	7.3819	4.	0.	1.5614e-002
12748	7.2901	4.	5.e-002	6.5443
12749	7.2901	4.2727	0.	2.576e-002
12750	7.3819	4.1818	0.	2.0716e-002
12751	7.2901	4.1818	5.e-002	6.3901
12752	7.2901	4.4545	0.	3.1045e-002
12753	7.3819	4.3636	0.	2.5744e-002
12754	7.2901	4.3636	5.e-002	6.2137
12755	7.2901	4.6364	0.	3.5725e-002
12756	7.3819	4.5455	0.	3.039e-002
12757	7.2901	4.5455	5.e-002	6.0197
12758	7.2901	4.8182	0.	3.9543e-002
12759	7.3819	4.7273	0.	3.4356e-002
12760	7.2901	4.7273	5.e-002	5.814
12761	7.2901	5.	0.	4.2215e-002
12762	7.3819	4.9091	0.	3.7512e-002
12763	7.2901	4.9091	5.e-002	5.6048
12764	7.2901	5.1818	0.	4.4209e-002
12765	7.3819	5.0909	0.	3.9507e-002
12766	7.2901	5.0909	5.e-002	5.4016
12767	7.2901	5.3636	0.	4.4195e-002
12768	7.3819	5.2727	0.	4.1788e-002
12769	7.2901	5.2727	5.e-002	5.2141
12770	7.2901	5.5455	0.	5.4059e-002
12771	7.3819	5.4545	0.	4.0394e-002
12772	7.2901	5.4545	5.e-002	5.0413
12773	7.2901	5.7273	0.	7.5174e-002
12774	7.3819	5.6364	0.	6.5526e-002
12775	7.2901	5.6364	5.e-002	4.7089
12776	7.3819	5.8182	0.	0.19157
12777	7.2901	5.8182	5.e-002	1.4942
12778	7.2901	5.9091	0.	0.18576
12779	7.4737	0.27273	0.	6.9637e-002
12780	7.5655	0.18182	0.	0.19195
12781	7.4737	0.18182	5.e-002	1.5672
12782	7.4737	9.0909e-002	0.	0.20858
12783	7.4737	0.45455	0.	4.8267e-002
12784	7.5655	0.36364	0.	6.1124e-002
12785	7.4737	0.36364	5.e-002	4.8548
12786	7.4737	0.63636	0.	3.6929e-002
12787	7.5655	0.54545	0.	3.4066e-002
12788	7.4737	0.54545	5.e-002	5.1668
12789	7.4737	0.81818	0.	3.6569e-002
12790	7.5655	0.72727	0.	3.5123e-002
12791	7.4737	0.72727	5.e-002	5.3056
12792	7.4737	1.	0.	3.4467e-002
12793	7.5655	0.90909	0.	3.257e-002
12794	7.4737	0.90909	5.e-002	5.4526
12795	7.4737	1.1818	0.	3.206e-002
12796	7.5655	1.0909	0.	3.068e-002
12797	7.4737	1.0909	5.e-002	5.6119
12798	7.4737	1.3636	0.	2.8784e-002
12799	7.5655	1.2727	0.	2.7893e-002
12800	7.4737	1.2727	5.e-002	5.7766
12801	7.4737	1.5455	0.	2.4863e-002
12802	7.5655	1.4545	0.	2.4525e-002
12803	7.4737	1.4545	5.e-002	5.9393
12804	7.4737	1.7273	0.	2.0475e-002
12805	7.5655	1.6364	0.	2.0636e-002
12806	7.4737	1.6364	5.e-002	6.0936
12807	7.4737	1.9091	0.	1.589e-002
12808	7.5655	1.8182	0.	1.646e-002
12809	7.4737	1.8182	5.e-002	6.2345
12810	7.4737	2.0909	0.	1.1388e-002
12811	7.5655	2.	0.	1.224e-002
12812	7.4737	2.	5.e-002	6.3583
12813	7.4737	2.2727	0.	7.2493e-003
12814	7.5655	2.1818	0.	8.2309e-003
12815	7.4737	2.1818	5.e-002	6.4628
12816	7.4737	2.4545	0.	3.7322e-003
12817	7.5655	2.3636	0.	4.6819e-003
12818	7.4737	2.3636	5.e-002	6.5466
12819	7.4737	2.6364	0.	1.053e-003
12820	7.5655	2.5455	0.	1.8112e-003
12821	7.4737	2.5455	5.e-002	6.6093
12822	7.4737	2.8182	0.	-6.2377e-004
12823	7.5655	2.7273	0.	-2.0689e-004
12824	7.4737	2.7273	5.e-002	6.6509
12825	7.4737	3.	0.	-1.1946e-003
12826	7.5655	2.9091	0.	-1.2481e-003
12827	7.4737	2.9091	5.e-002	6.6716
12828	7.4737	3.1818	0.	-6.2392e-004
12829	7.5655	3.0909	0.	-1.2482e-003
12830	7.4737	3.0909	5.e-002	6.6716
12831	7.4737	3.3636	0.	1.053e-003
12832	7.5655	3.2727	0.	-2.0704e-004
12833	7.4737	3.2727	5.e-002	6.6509
12834	7.4737	3.5455	0.	3.7321e-003
12835	7.5655	3.4545	0.	1.8111e-003
12836	7.4737	3.4545	5.e-002	6.6092
12837	7.4737	3.7273	0.	7.2493e-003
12838	7.5655	3.6364	0.	4.6815e-003
12839	7.4737	3.6364	5.e-002	6.5466
12840	7.4737	3.9091	0.	1.1388e-002
12841	7.5655	3.8182	0.	8.2308e-003
12842	7.4737	3.8182	5.e-002	6.4627
12843	7.4737	4.0909	0.	1.5889e-002
12844	7.5655	4.	0.	1.2239e-002
12845	7.4737	4.	5.e-002	6.3583
12846	7.4737	4.2727	0.	2.0474e-002
12847	7.5655	4.1818	0.	1.646e-002
12848	7.4737	4.1818	5.e-002	6.2344
12849	7.4737	4.4545	0.	2.4862e-002
12850	7.5655	4.3636	0.	2.0635e-002
12851	7.4737	4.3636	5.e-002	6.0935
12852	7.4737	4.6364	0.	2.8784e-002
12853	7.5655	4.5455	0.	2.4524e-002
12854	7.4737	4.5455	5.e-002	5.9391
12855	7.4737	4.8182	0.	3.2059e-002
12856	7.5655	4.7273	0.	2.7893e-002
12857	7.4737	4.7273	5.e-002	5.7765
12858	7.4737	5.	0.	3.4466e-002
12859	7.5655	4.9091	0.	3.0679e-002
12860	7.4737	4.9091	5.e-002	5.6118
12861	7.4737	5.1818	0.	3.6568e-002
12862	7.5655	5.0909	0.	3.2568e-002
12863	7.4737	5.0909	5.e-002	5.4524
12864	7.4737	5.3636	0.	3.6929e-002
12865	7.5655	5.2727	0.	3.5122e-002
12866	7.4737	5.2727	5.e-002	5.3054
12867	7.4737	5.5455	0.	4.8266e-002
12868	7.5655	5.4545	0.	3.4066e-002
12869	7.4737	5.4545	5.e-002	5.1666
12870	7.4737	5.7273	0.	6.9636e-002
12871	7.5655	5.6364	0.	6.1123e-002
12872	7.4737	5.6364	5.e-002	4.8546
12873	7.5655	5.8182	0.	0.19196
12874	7.4737	5.8182	5.e-002	1.567
12875	7.4737	5.9091	0.	0.20858
12876	7.6573	0.27273	0.	6.5555e-002
12877	7.7491	0.18182	0.	0.20504
12878	7.6573	0.18182	5.e-002	1.5925
12879	7.6573	9.0909e-002	0.	0.2539
12880	7.6573	0.45455	0.	4.3551e-002
12881	7.7491	0.36364	0.	5.7192e-002
12882	7.6573	0.36364	5.e-002	4.9597
12883	7.6573	0.63636	0.	3.1304e-002
12884	7.7491	0.54545	0.	2.9098e-002
12885	7.6573	0.54545	5.e-002	5.2577
12886	7.6573	0.81818	0.	3.067e-002
12887	7.7491	0.72727	0.	2.9902e-002
12888	7.6573	0.72727	5.e-002	5.3703
12889	7.6573	1.	0.	2.8498e-002
12890	7.7491	0.90909	0.	2.7185e-002
12891	7.6573	0.90909	5.e-002	5.486
12892	7.6573	1.1818	0.	2.6297e-002
12893	7.7491	1.0909	0.	2.5388e-002
12894	7.6573	1.0909	5.e-002	5.6113
12895	7.6573	1.3636	0.	2.3445e-002
12896	7.7491	1.2727	0.	2.29e-002
12897	7.6573	1.2727	5.e-002	5.7411
12898	7.6573	1.5455	0.	2.0121e-002
12899	7.7491	1.4545	0.	2.0007e-002
12900	7.6573	1.4545	5.e-002	5.8698
12901	7.6573	1.7273	0.	1.6446e-002
12902	7.7491	1.6364	0.	1.6724e-002
12903	7.6573	1.6364	5.e-002	5.9924
12904	7.6573	1.9091	0.	1.2633e-002
12905	7.7491	1.8182	0.	1.3234e-002
12906	7.6573	1.8182	5.e-002	6.1049
12907	7.6573	2.0909	0.	8.9019e-003
12908	7.7491	2.	0.	9.7241e-003
12909	7.6573	2.	5.e-002	6.2041
12910	7.6573	2.2727	0.	5.4792e-003
12911	7.7491	2.1818	0.	6.4007e-003
12912	7.6573	2.1818	5.e-002	6.2882
12913	7.6573	2.4545	0.	2.5734e-003
12914	7.7491	2.3636	0.	3.4638e-003
12915	7.6573	2.3636	5.e-002	6.356
12916	7.6573	2.6364	0.	3.6133e-004
12917	7.7491	2.5455	0.	1.0909e-003
12918	7.6573	2.5455	5.e-002	6.4069
12919	7.6573	2.8182	0.	-1.0228e-003
12920	7.7491	2.7273	0.	-5.7651e-004
12921	7.6573	2.7273	5.e-002	6.4407
12922	7.6573	3.	0.	-1.4938e-003
12923	7.7491	2.9091	0.	-1.4367e-003
12924	7.6573	2.9091	5.e-002	6.4576
12925	7.6573	3.1818	0.	-1.0229e-003
12926	7.7491	3.0909	0.	-1.4367e-003
12927	7.6573	3.0909	5.e-002	6.4576
12928	7.6573	3.3636	0.	3.6102e-004
12929	7.7491	3.2727	0.	-5.7684e-004
12930	7.6573	3.2727	5.e-002	6.4407
12931	7.6573	3.5455	0.	2.573e-003
12932	7.7491	3.4545	0.	1.0907e-003
12933	7.6573	3.4545	5.e-002	6.4068
12934	7.6573	3.7273	0.	5.4788e-003
12935	7.7491	3.6364	0.	3.4633e-003
12936	7.6573	3.6364	5.e-002	6.3559
12937	7.6573	3.9091	0.	8.9019e-003
12938	7.7491	3.8182	0.	6.4005e-003
12939	7.6573	3.8182	5.e-002	6.2882
12940	7.6573	4.0909	0.	1.2633e-002
12941	7.7491	4.	0.	9.7236e-003
12942	7.6573	4.	5.e-002	6.204
12943	7.6573	4.2727	0.	1.6446e-002
12944	7.7491	4.1818	0.	1.3233e-002
12945	7.6573	4.1818	5.e-002	6.1048
12946	7.6573	4.4545	0.	2.012e-002
12947	7.7491	4.3636	0.	1.6723e-002
12948	7.6573	4.3636	5.e-002	5.9923
12949	7.6573	4.6364	0.	2.3444e-002
12950	7.7491	4.5455	0.	2.0007e-002
12951	7.6573	4.5455	5.e-002	5.8697
12952	7.6573	4.8182	0.	2.6296e-002
12953	7.7491	4.7273	0.	2.2899e-002
12954	7.6573	4.7273	5.e-002	5.741
12955	7.6573	5.	0.	2.8497e-002
12956	7.7491	4.9091	0.	2.5388e-002
12957	7.6573	4.9091	5.e-002	5.6111
12958	7.6573	5.1818	0.	3.0669e-002
12959	7.7491	5.0909	0.	2.7183e-002
12960	7.6573	5.0909	5.e-002	5.4858
12961	7.6573	5.3636	0.	3.1304e-002
12962	7.7491	5.2727	0.	2.9901e-002
12963	7.6573	5.2727	5.e-002	5.3701
12964	7.6573	5.5455	0.	4.355e-002
12965	7.7491	5.4545	0.	2.9098e-002
12966	7.6573	5.4545	5.e-002	5.2575
12967	7.6573	5.7273	0.	6.5554e-002
12968	7.7491	5.6364	0.	5.7191e-002
12969	7.6573	5.6364	5.e-002	4.9595
12970	7.7491	5.8182	0.	0.20504
12971	7.6573	5.8182	5.e-002	1.5923
12972	7.6573	5.9091	0.	0.25391
12973	7.8409	0.27273	0.	6.2445e-002
12974	7.9327	0.18182	0.	0.23541
12975	7.8409	0.18182	5.e-002	1.5816
12976	7.8409	9.0909e-002	0.	0.33837
12977	7.8409	0.45455	0.	3.9515e-002
12978	7.9327	0.36364	0.	5.3497e-002
12979	7.8409	0.36364	5.e-002	5.0325
12980	7.8409	0.63636	0.	2.6823e-002
12981	7.9327	0.54545	0.	2.508e-002
12982	7.8409	0.54545	5.e-002	5.321
12983	7.8409	0.81818	0.	2.6017e-002
12984	7.9327	0.72727	0.	2.5714e-002
12985	7.8409	0.72727	5.e-002	5.4136
12986	7.8409	1.	0.	2.3831e-002
12987	7.9327	0.90909	0.	2.2935e-002
12988	7.8409	0.90909	5.e-002	5.5051
12989	7.8409	1.1818	0.	2.1811e-002
12990	7.9327	1.0909	0.	2.124e-002
12991	7.8409	1.0909	5.e-002	5.604
12992	7.8409	1.3636	0.	1.9309e-002
12993	7.9327	1.2727	0.	1.9009e-002
12994	7.8409	1.2727	5.e-002	5.7065
12995	7.8409	1.5455	0.	1.6469e-002
12996	7.9327	1.4545	0.	1.6509e-002
12997	7.8409	1.4545	5.e-002	5.8084
12998	7.8409	1.7273	0.	1.3373e-002
12999	7.9327	1.6364	0.	1.3721e-002
13000	7.8409	1.6364	5.e-002	5.9057
13001	7.8409	1.9091	0.	1.0186e-002
13002	7.9327	1.8182	0.	1.0789e-002
13003	7.8409	1.8182	5.e-002	5.9954
13004	7.8409	2.0909	0.	7.0814e-003
13005	7.9327	2.	0.	7.8594e-003
13006	7.8409	2.	5.e-002	6.075
13007	7.8409	2.2727	0.	4.2408e-003
13008	7.9327	2.1818	0.	5.0948e-003
13009	7.8409	2.1818	5.e-002	6.1426
13010	7.8409	2.4545	0.	1.8339e-003
13011	7.9327	2.3636	0.	2.6578e-003
13012	7.8409	2.3636	5.e-002	6.1972
13013	7.8409	2.6364	0.	3.3522e-006
13014	7.9327	2.5455	0.	6.919e-004
13015	7.8409	2.5455	5.e-002	6.2384
13016	7.8409	2.8182	0.	-1.1416e-003
13017	7.9327	2.7273	0.	-6.8859e-004
13018	7.8409	2.7273	5.e-002	6.2659
13019	7.8409	3.	0.	-1.5313e-003
13020	7.9327	2.9091	0.	-1.4005e-003
13021	7.8409	2.9091	5.e-002	6.2796
13022	7.8409	3.1818	0.	-1.1418e-003
13023	7.9327	3.0909	0.	-1.4005e-003
13024	7.8409	3.0909	5.e-002	6.2796
13025	7.8409	3.3636	0.	3.1395e-006
13026	7.9327	3.2727	0.	-6.8883e-004
13027	7.8409	3.2727	5.e-002	6.2659
13028	7.8409	3.5455	0.	1.8336e-003
13029	7.9327	3.4545	0.	6.9183e-004
13030	7.8409	3.4545	5.e-002	6.2384
13031	7.8409	3.7273	0.	4.2404e-003
13032	7.9327	3.6364	0.	2.6575e-003
13033	7.8409	3.6364	5.e-002	6.1972
13034	7.8409	3.9091	0.	7.0808e-003
13035	7.9327	3.8182	0.	5.0945e-003
13036	7.8409	3.8182	5.e-002	6.1425
13037	7.8409	4.0909	0.	1.0185e-002
13038	7.9327	4.	0.	7.8587e-003
13039	7.8409	4.	5.e-002	6.0749
13040	7.8409	4.2727	0.	1.3373e-002
13041	7.9327	4.1818	0.	1.0789e-002
13042	7.8409	4.1818	5.e-002	5.9953
13043	7.8409	4.4545	0.	1.6469e-002
13044	7.9327	4.3636	0.	1.3721e-002
13045	7.8409	4.3636	5.e-002	5.9056
13046	7.8409	4.6364	0.	1.9309e-002
13047	7.9327	4.5455	0.	1.6509e-002
13048	7.8409	4.5455	5.e-002	5.8082
13049	7.8409	4.8182	0.	2.1811e-002
13050	7.9327	4.7273	0.	1.9008e-002
13051	7.8409	4.7273	5.e-002	5.7063
13052	7.8409	5.	0.	2.383e-002
13053	7.9327	4.9091	0.	2.1239e-002
13054	7.8409	4.9091	5.e-002	5.6038
13055	7.8409	5.1818	0.	2.6015e-002
13056	7.9327	5.0909	0.	2.2934e-002
13057	7.8409	5.0909	5.e-002	5.5049
13058	7.8409	5.3636	0.	2.6823e-002
13059	7.9327	5.2727	0.	2.5713e-002
13060	7.8409	5.2727	5.e-002	5.4134
13061	7.8409	5.5455	0.	3.9515e-002
13062	7.9327	5.4545	0.	2.5081e-002
13063	7.8409	5.4545	5.e-002	5.3208
13064	7.8409	5.7273	0.	6.2444e-002
13065	7.9327	5.6364	0.	5.3496e-002
13066	7.8409	5.6364	5.e-002	5.0323
13067	7.9327	5.8182	0.	0.23541
13068	7.8409	5.8182	5.e-002	1.5814
13069	7.8409	5.9091	0.	0.33838
13070	8.0246	0.27273	0.	6.0147e-002
13071	8.1164	0.18182	0.	0.29815
13072	8.0246	0.18182	5.e-002	1.5436
13073	8.0246	9.0909e-002	0.	0.48969
13074	8.0246	0.45455	0.	3.5944e-002
13075	8.1164	0.36364	0.	4.9945e-002
13076	8.0246	0.36364	5.e-002	5.0801
13077	8.0246	0.63636	0.	2.317e-002
13078	8.1164	0.54545	0.	2.1758e-002
13079	8.0246	0.54545	5.e-002	5.3628
13080	8.0246	0.81818	0.	2.2277e-002
13081	8.1164	0.72727	0.	2.2288e-002
13082	8.0246	0.72727	5.e-002	5.44
13083	8.0246	1.	0.	2.0133e-002
13084	8.1164	0.90909	0.	1.9533e-002
13085	8.0246	0.90909	5.e-002	5.5127
13086	8.0246	1.1818	0.	1.8286e-002
13087	8.1164	1.0909	0.	1.7953e-002
13088	8.0246	1.0909	5.e-002	5.591
13089	8.0246	1.3636	0.	1.6084e-002
13090	8.1164	1.2727	0.	1.5954e-002
13091	8.0246	1.2727	5.e-002	5.6721
13092	8.0246	1.5455	0.	1.3647e-002
13093	8.1164	1.4545	0.	1.3788e-002
13094	8.0246	1.4545	5.e-002	5.7529
13095	8.0246	1.7273	0.	1.1027e-002
13096	8.1164	1.6364	0.	1.1412e-002
13097	8.0246	1.6364	5.e-002	5.8303
13098	8.0246	1.9091	0.	8.353e-003
13099	8.1164	1.8182	0.	8.9402e-003
13100	8.0246	1.8182	5.e-002	5.9019
13101	8.0246	2.0909	0.	5.7614e-003
13102	8.1164	2.	0.	6.4869e-003
13103	8.0246	2.	5.e-002	5.9655
13104	8.0246	2.2727	0.	3.3979e-003
13105	8.1164	2.1818	0.	4.1819e-003
13106	8.0246	2.1818	5.e-002	6.0198
13107	8.0246	2.4545	0.	1.3994e-003
13108	8.1164	2.3636	0.	2.1547e-003
13109	8.0246	2.3636	5.e-002	6.0639
13110	8.0246	2.6364	0.	-1.1834e-004
13111	8.1164	2.5455	0.	5.2302e-004
13112	8.0246	2.5455	5.e-002	6.0972
13113	8.0246	2.8182	0.	-1.0671e-003
13114	8.1164	2.7273	0.	-6.2199e-004
13115	8.0246	2.7273	5.e-002	6.1195
13116	8.0246	3.	0.	-1.3897e-003
13117	8.1164	2.9091	0.	-1.2122e-003
13118	8.0246	2.9091	5.e-002	6.1306
13119	8.0246	3.1818	0.	-1.0671e-003
13120	8.1164	3.0909	0.	-1.2121e-003
13121	8.0246	3.0909	5.e-002	6.1306
13122	8.0246	3.3636	0.	-1.1843e-004
13123	8.1164	3.2727	0.	-6.2221e-004
13124	8.0246	3.2727	5.e-002	6.1194
13125	8.0246	3.5455	0.	1.3994e-003
13126	8.1164	3.4545	0.	5.2278e-004
13127	8.0246	3.4545	5.e-002	6.0972
13128	8.0246	3.7273	0.	3.3977e-003
13129	8.1164	3.6364	0.	2.1544e-003
13130	8.0246	3.6364	5.e-002	6.0638
13131	8.0246	3.9091	0.	5.7609e-003
13132	8.1164	3.8182	0.	4.1813e-003
13133	8.0246	3.8182	5.e-002	6.0198
13134	8.0246	4.0909	0.	8.3523e-003
13135	8.1164	4.	0.	6.4865e-003
13136	8.0246	4.	5.e-002	5.9654
13137	8.0246	4.2727	0.	1.1027e-002
13138	8.1164	4.1818	0.	8.9395e-003
13139	8.0246	4.1818	5.e-002	5.9018
13140	8.0246	4.4545	0.	1.3647e-002
13141	8.1164	4.3636	0.	1.1411e-002
13142	8.0246	4.3636	5.e-002	5.8302
13143	8.0246	4.6364	0.	1.6083e-002
13144	8.1164	4.5455	0.	1.3787e-002
13145	8.0246	4.5455	5.e-002	5.7528
13146	8.0246	4.8182	0.	1.8286e-002
13147	8.1164	4.7273	0.	1.5953e-002
13148	8.0246	4.7273	5.e-002	5.672
13149	8.0246	5.	0.	2.0132e-002
13150	8.1164	4.9091	0.	1.7952e-002
13151	8.0246	4.9091	5.e-002	5.5908
13152	8.0246	5.1818	0.	2.2276e-002
13153	8.1164	5.0909	0.	1.9531e-002
13154	8.0246	5.0909	5.e-002	5.5125
13155	8.0246	5.3636	0.	2.3169e-002
13156	8.1164	5.2727	0.	2.2288e-002
13157	8.0246	5.2727	5.e-002	5.4397
13158	8.0246	5.5455	0.	3.5943e-002
13159	8.1164	5.4545	0.	2.1758e-002
13160	8.0246	5.4545	5.e-002	5.3626
13161	8.0246	5.7273	0.	6.0146e-002
13162	8.1164	5.6364	0.	4.9944e-002
13163	8.0246	5.6364	5.e-002	5.0799
13164	8.1164	5.8182	0.	0.29815
13165	8.0246	5.8182	5.e-002	1.5434
13166	8.0246	5.9091	0.	0.48971
13167	8.2082	0.27273	0.	5.8695e-002
13168	8.3	0.18182	0.	0.43389
13169	8.2082	0.18182	5.e-002	1.486
13170	8.2082	9.0909e-002	0.	0.7261
13171	8.2082	0.45455	0.	3.2715e-002
13172	8.3	0.36364	0.	4.6507e-002
13173	8.2082	0.36364	5.e-002	5.1084
13174	8.2082	0.63636	0.	2.0138e-002
13175	8.3	0.54545	0.	1.8961e-002
13176	8.2082	0.54545	5.e-002	5.3877
13177	8.2082	0.81818	0.	1.9227e-002
13178	8.3	0.72727	0.	1.9442e-002
13179	8.2082	0.72727	5.e-002	5.4529
13180	8.2082	1.	0.	1.717e-002
13181	8.3	0.90909	0.	1.6777e-002
13182	8.2082	0.90909	5.e-002	5.5111
13183	8.2082	1.1818	0.	1.5493e-002
13184	8.3	1.0909	0.	1.5324e-002
13185	8.2082	1.0909	5.e-002	5.5733
13186	8.2082	1.3636	0.	1.3555e-002
13187	8.3	1.2727	0.	1.354e-002
13188	8.2082	1.2727	5.e-002	5.6378
13189	8.2082	1.5455	0.	1.146e-002
13190	8.3	1.4545	0.	1.1662e-002
13191	8.2082	1.4545	5.e-002	5.702
13192	8.2082	1.7273	0.	9.2367e-003
13193	8.3	1.6364	0.	9.6339e-003
13194	8.2082	1.6364	5.e-002	5.7636
13195	8.2082	1.9091	0.	6.987e-003
13196	8.3	1.8182	0.	7.5461e-003
13197	8.2082	1.8182	5.e-002	5.8207
13198	8.2082	2.0909	0.	4.8191e-003
13199	8.3	2.	0.	5.4878e-003
13200	8.2082	2.	5.e-002	5.8717
13201	8.2082	2.2727	0.	2.8485e-003
13202	8.3	2.1818	0.	3.5619e-003
13203	8.2082	2.1818	5.e-002	5.9153
13204	8.2082	2.4545	0.	1.1862e-003
13205	8.3	2.3636	0.	1.8733e-003
13206	8.2082	2.3636	5.e-002	5.9508
13207	8.2082	2.6364	0.	-7.4315e-005
13208	8.3	2.5455	0.	5.1665e-004
13209	8.2082	2.5455	5.e-002	5.9777
13210	8.2082	2.8182	0.	-8.6186e-004
13211	8.3	2.7273	0.	-4.3436e-004
13212	8.2082	2.7273	5.e-002	5.9957
13213	8.2082	3.	0.	-1.1296e-003
13214	8.3	2.9091	0.	-9.2423e-004
13215	8.2082	2.9091	5.e-002	6.0048
13216	8.2082	3.1818	0.	-8.6198e-004
13217	8.3	3.0909	0.	-9.2417e-004
13218	8.2082	3.0909	5.e-002	6.0048
13219	8.2082	3.3636	0.	-7.4676e-005
13220	8.3	3.2727	0.	-4.3457e-004
13221	8.2082	3.2727	5.e-002	5.9957
13222	8.2082	3.5455	0.	1.1857e-003
13223	8.3	3.4545	0.	5.1623e-004
13224	8.2082	3.4545	5.e-002	5.9777
13225	8.2082	3.7273	0.	2.8479e-003
13226	8.3	3.6364	0.	1.8728e-003
13227	8.2082	3.6364	5.e-002	5.9507
13228	8.2082	3.9091	0.	4.8185e-003
13229	8.3	3.8182	0.	3.5614e-003
13230	8.2082	3.8182	5.e-002	5.9152
13231	8.2082	4.0909	0.	6.9864e-003
13232	8.3	4.	0.	5.4874e-003
13233	8.2082	4.	5.e-002	5.8716
13234	8.2082	4.2727	0.	9.2363e-003
13235	8.3	4.1818	0.	7.5456e-003
13236	8.2082	4.1818	5.e-002	5.8206
13237	8.2082	4.4545	0.	1.146e-002
13238	8.3	4.3636	0.	9.6335e-003
13239	8.2082	4.3636	5.e-002	5.7635
13240	8.2082	4.6364	0.	1.3554e-002
13241	8.3	4.5455	0.	1.1662e-002
13242	8.2082	4.5455	5.e-002	5.7019
13243	8.2082	4.8182	0.	1.5492e-002
13244	8.3	4.7273	0.	1.3539e-002
13245	8.2082	4.7273	5.e-002	5.6376
13246	8.2082	5.	0.	1.7169e-002
13247	8.3	4.9091	0.	1.5324e-002
13248	8.2082	4.9091	5.e-002	5.5732
13249	8.2082	5.1818	0.	1.9226e-002
13250	8.3	5.0909	0.	1.6775e-002
13251	8.2082	5.0909	5.e-002	5.511
13252	8.2082	5.3636	0.	2.0138e-002
13253	8.3	5.2727	0.	1.944e-002
13254	8.2082	5.2727	5.e-002	5.4528
13255	8.2082	5.5455	0.	3.2714e-002
13256	8.3	5.4545	0.	1.8961e-002
13257	8.2082	5.4545	5.e-002	5.3875
13258	8.2082	5.7273	0.	5.8694e-002
13259	8.3	5.6364	0.	4.6506e-002
13260	8.2082	5.6364	5.e-002	5.1082
13261	8.3	5.8182	0.	0.43391
13262	8.2082	5.8182	5.e-002	1.4858
13263	8.2082	5.9091	0.	0.72612
13264	8.3918	0.27273	0.	5.8316e-002
13265	8.4836	0.18182	0.	0.72297
13266	8.3918	0.18182	5.e-002	1.4148
13267	8.3918	9.0909e-002	0.	1.036
13268	8.3918	0.45455	0.	2.9755e-002
13269	8.4836	0.36364	0.	4.3183e-002
13270	8.3918	0.36364	5.e-002	5.1218
13271	8.3918	0.63636	0.	1.7584e-002
13272	8.4836	0.54545	0.	1.6573e-002
13273	8.3918	0.54545	5.e-002	5.3995
13274	8.3918	0.81818	0.	1.6709e-002
13275	8.4836	0.72727	0.	1.7045e-002
13276	8.3918	0.72727	5.e-002	5.4556
13277	8.3918	1.	0.	1.4773e-002
13278	8.4836	0.90909	0.	1.4522e-002
13279	8.3918	0.90909	5.e-002	5.5024
13280	8.3918	1.1818	0.	1.3263e-002
13281	8.4836	1.0909	0.	1.3205e-002
13282	8.3918	1.0909	5.e-002	5.5521
13283	8.3918	1.3636	0.	1.1562e-002
13284	8.4836	1.2727	0.	1.1623e-002
13285	8.3918	1.2727	5.e-002	5.6035
13286	8.3918	1.5455	0.	9.7614e-003
13287	8.4836	1.4545	0.	9.9973e-003
13288	8.3918	1.4545	5.e-002	5.6546
13289	8.3918	1.7273	0.	7.8729e-003
13290	8.4836	1.6364	0.	8.2656e-003
13291	8.3918	1.6364	5.e-002	5.7038
13292	8.3918	1.9091	0.	5.9774e-003
13293	8.4836	1.8182	0.	6.5008e-003
13294	8.3918	1.8182	5.e-002	5.7494
13295	8.3918	2.0909	0.	4.1604e-003
13296	8.4836	2.	0.	4.7716e-003
13297	8.3918	2.	5.e-002	5.7902
13298	8.3918	2.2727	0.	2.5151e-003
13299	8.4836	2.1818	0.	3.1606e-003
13300	8.3918	2.1818	5.e-002	5.8253
13301	8.3918	2.4545	0.	1.1307e-003
13302	8.4836	2.3636	0.	1.7522e-003
13303	8.3918	2.3636	5.e-002	5.8539
13304	8.3918	2.6364	0.	8.2304e-005
13305	8.4836	2.5455	0.	6.2295e-004
13306	8.3918	2.5455	5.e-002	5.8756
13307	8.3918	2.8182	0.	-5.7188e-004
13308	8.4836	2.7273	0.	-1.6737e-004
13309	8.3918	2.7273	5.e-002	5.8902
13310	8.3918	3.	0.	-7.9419e-004
13311	8.4836	2.9091	0.	-5.7442e-004
13312	8.3918	2.9091	5.e-002	5.8975
13313	8.3918	3.1818	0.	-5.7191e-004
13314	8.4836	3.0909	0.	-5.7457e-004
13315	8.3918	3.0909	5.e-002	5.8975
13316	8.3918	3.3636	0.	8.2033e-005
13317	8.4836	3.2727	0.	-1.6731e-004
13318	8.3918	3.2727	5.e-002	5.8902
13319	8.3918	3.5455	0.	1.1303e-003
13320	8.4836	3.4545	0.	6.2274e-004
13321	8.3918	3.4545	5.e-002	5.8756
13322	8.3918	3.7273	0.	2.5148e-003
13323	8.4836	3.6364	0.	1.7519e-003
13324	8.3918	3.6364	5.e-002	5.8538
13325	8.3918	3.9091	0.	4.1601e-003
13326	8.4836	3.8182	0.	3.1601e-003
13327	8.3918	3.8182	5.e-002	5.8252
13328	8.3918	4.0909	0.	5.9771e-003
13329	8.4836	4.	0.	4.771e-003
13330	8.3918	4.	5.e-002	5.7902
13331	8.3918	4.2727	0.	7.8723e-003
13332	8.4836	4.1818	0.	6.5002e-003
13333	8.3918	4.1818	5.e-002	5.7493
13334	8.3918	4.4545	0.	9.7607e-003
13335	8.4836	4.3636	0.	8.265e-003
13336	8.3918	4.3636	5.e-002	5.7037
13337	8.3918	4.6364	0.	1.1562e-002
13338	8.4836	4.5455	0.	9.9967e-003
13339	8.3918	4.5455	5.e-002	5.6545
13340	8.3918	4.8182	0.	1.3263e-002
13341	8.4836	4.7273	0.	1.1622e-002
13342	8.3918	4.7273	5.e-002	5.6033
13343	8.3918	5.	0.	1.4772e-002
13344	8.4836	4.9091	0.	1.3205e-002
13345	8.3918	4.9091	5.e-002	5.5519
13346	8.3918	5.1818	0.	1.6707e-002
13347	8.4836	5.0909	0.	1.452e-002
13348	8.3918	5.0909	5.e-002	5.5023
13349	8.3918	5.3636	0.	1.7583e-002
13350	8.4836	5.2727	0.	1.7044e-002
13351	8.3918	5.2727	5.e-002	5.4554
13352	8.3918	5.5455	0.	2.9755e-002
13353	8.4836	5.4545	0.	1.6573e-002
13354	8.3918	5.4545	5.e-002	5.3993
13355	8.3918	5.7273	0.	5.8315e-002
13356	8.4836	5.6364	0.	4.3182e-002
13357	8.3918	5.6364	5.e-002	5.1216
13358	8.4836	5.8182	0.	0.723
13359	8.3918	5.8182	5.e-002	1.4146
13360	8.3918	5.9091	0.	1.0361
13361	8.5754	0.27273	0.	5.9539e-002
13362	8.6673	0.18182	0.	1.2029
13363	8.5754	0.18182	5.e-002	1.3345
13364	8.5754	9.0909e-002	0.	1.3953
13365	8.5754	0.45455	0.	2.7022e-002
13366	8.6673	0.36364	0.	3.9988e-002
13367	8.5754	0.36364	5.e-002	5.1238
13368	8.5754	0.63636	0.	1.5409e-002
13369	8.6673	0.54545	0.	1.4512e-002
13370	8.5754	0.54545	5.e-002	5.4013
13371	8.5754	0.81818	0.	1.4608e-002
13372	8.6673	0.72727	0.	1.5008e-002
13373	8.5754	0.72727	5.e-002	5.4502
13374	8.5754	1.	0.	1.2818e-002
13375	8.6673	0.90909	0.	1.2661e-002
13376	8.5754	0.90909	5.e-002	5.4882
13377	8.5754	1.1818	0.	1.1474e-002
13378	8.6673	1.0909	0.	1.1487e-002
13379	8.5754	1.0909	5.e-002	5.5281
13380	8.5754	1.3636	0.	9.9873e-003
13381	8.6673	1.2727	0.	1.0093e-002
13382	8.5754	1.2727	5.e-002	5.5692
13383	8.5754	1.5455	0.	8.4407e-003
13384	8.6673	1.4545	0.	8.6908e-003
13385	8.5754	1.4545	5.e-002	5.6101
13386	8.5754	1.7273	0.	6.8369e-003
13387	8.6673	1.6364	0.	7.214e-003
13388	8.5754	1.6364	5.e-002	5.6494
13389	8.5754	1.9091	0.	5.2395e-003
13390	8.6673	1.8182	0.	5.7229e-003
13391	8.5754	1.8182	5.e-002	5.686
13392	8.5754	2.0909	0.	3.7159e-003
13393	8.6673	2.	0.	4.2698e-003
13394	8.5754	2.	5.e-002	5.7187
13395	8.5754	2.2727	0.	2.3409e-003
13396	8.6673	2.1818	0.	2.9217e-003
13397	8.5754	2.1818	5.e-002	5.7469
13398	8.5754	2.4545	0.	1.1865e-003
13399	8.6673	2.3636	0.	1.7465e-003
13400	8.5754	2.3636	5.e-002	5.77
13401	8.5754	2.6364	0.	3.1432e-004
13402	8.6673	2.5455	0.	8.0608e-004
13403	8.5754	2.5455	5.e-002	5.7875
13404	8.5754	2.8182	0.	-2.2954e-004
13405	8.6673	2.7273	0.	1.4858e-004
13406	8.5754	2.7273	5.e-002	5.7993
13407	8.5754	3.	0.	-4.1466e-004
13408	8.6673	2.9091	0.	-1.8981e-004
13409	8.5754	2.9091	5.e-002	5.8052
13410	8.5754	3.1818	0.	-2.296e-004
13411	8.6673	3.0909	0.	-1.9013e-004
13412	8.5754	3.0909	5.e-002	5.8052
13413	8.5754	3.3636	0.	3.1443e-004
13414	8.6673	3.2727	0.	1.4848e-004
13415	8.5754	3.2727	5.e-002	5.7993
13416	8.5754	3.5455	0.	1.1863e-003
13417	8.6673	3.4545	0.	8.0602e-004
13418	8.5754	3.4545	5.e-002	5.7875
13419	8.5754	3.7273	0.	2.3403e-003
13420	8.6673	3.6364	0.	1.7461e-003
13421	8.5754	3.6364	5.e-002	5.7699
13422	8.5754	3.9091	0.	3.7152e-003
13423	8.6673	3.8182	0.	2.9212e-003
13424	8.5754	3.8182	5.e-002	5.7469
13425	8.5754	4.0909	0.	5.2387e-003
13426	8.6673	4.	0.	4.2693e-003
13427	8.5754	4.	5.e-002	5.7187
13428	8.5754	4.2727	0.	6.8362e-003
13429	8.6673	4.1818	0.	5.7221e-003
13430	8.5754	4.1818	5.e-002	5.6859
13431	8.5754	4.4545	0.	8.4403e-003
13432	8.6673	4.3636	0.	7.2136e-003
13433	8.5754	4.3636	5.e-002	5.6493
13434	8.5754	4.6364	0.	9.9866e-003
13435	8.6673	4.5455	0.	8.6903e-003
13436	8.5754	4.5455	5.e-002	5.61
13437	8.5754	4.8182	0.	1.1473e-002
13438	8.6673	4.7273	0.	1.0092e-002
13439	8.5754	4.7273	5.e-002	5.569
13440	8.5754	5.	0.	1.2816e-002
13441	8.6673	4.9091	0.	1.1486e-002
13442	8.5754	4.9091	5.e-002	5.5279
13443	8.5754	5.1818	0.	1.4607e-002
13444	8.6673	5.0909	0.	1.2659e-002
13445	8.5754	5.0909	5.e-002	5.488
13446	8.5754	5.3636	0.	1.5408e-002
13447	8.6673	5.2727	0.	1.5006e-002
13448	8.5754	5.2727	5.e-002	5.45
13449	8.5754	5.5455	0.	2.7022e-002
13450	8.6673	5.4545	0.	1.4512e-002
13451	8.5754	5.4545	5.e-002	5.4011
13452	8.5754	5.7273	0.	5.9539e-002
13453	8.6673	5.6364	0.	3.9987e-002
13454	8.5754	5.6364	5.e-002	5.1235
13455	8.6673	5.8182	0.	1.2029
13456	8.5754	5.8182	5.e-002	1.3344
13457	8.5754	5.9091	0.	1.3954
13458	8.7591	0.27273	0.	6.3595e-002
13459	8.8509	0.18182	0.	1.8044
13460	8.7591	0.18182	5.e-002	1.2488
13461	8.7591	9.0909e-002	0.	1.7846
13462	8.7591	0.45455	0.	2.4487e-002
13463	8.8509	0.36364	0.	3.6945e-002
13464	8.7591	0.36364	5.e-002	5.1171
13465	8.7591	0.63636	0.	1.3539e-002
13466	8.8509	0.54545	0.	1.2718e-002
13467	8.7591	0.54545	5.e-002	5.3953
13468	8.7591	0.81818	0.	1.2841e-002
13469	8.8509	0.72727	0.	1.3261e-002
13470	8.7591	0.72727	5.e-002	5.4387
13471	8.7591	1.	0.	1.1213e-002
13472	8.8509	0.90909	0.	1.1116e-002
13473	8.7591	0.90909	5.e-002	5.4698
13474	8.7591	1.1818	0.	1.003e-002
13475	8.8509	1.0909	0.	1.0086e-002
13476	8.7591	1.0909	5.e-002	5.502
13477	8.7591	1.3636	0.	8.7389e-003
13478	8.8509	1.2727	0.	8.869e-003
13479	8.7591	1.2727	5.e-002	5.5351
13480	8.7591	1.5455	0.	7.415e-003
13481	8.8509	1.4545	0.	7.6653e-003
13482	8.7591	1.4545	5.e-002	5.568
13483	8.7591	1.7273	0.	6.0547e-003
13484	8.8509	1.6364	0.	6.4094e-003
13485	8.7591	1.6364	5.e-002	5.5995
13486	8.7591	1.9091	0.	4.709e-003
13487	8.8509	1.8182	0.	5.1507e-003
13488	8.7591	1.8182	5.e-002	5.6289
13489	8.7591	2.0909	0.	3.4313e-003
13490	8.8509	2.	0.	3.9308e-003
13491	8.7591	2.	5.e-002	5.6552
13492	8.7591	2.2727	0.	2.2823e-003
13493	8.8509	2.1818	0.	2.8027e-003
13494	8.7591	2.1818	5.e-002	5.6779
13495	8.7591	2.4545	0.	1.3201e-003
13496	8.8509	2.3636	0.	1.8223e-003
13497	8.7591	2.3636	5.e-002	5.6965
13498	8.7591	2.6364	0.	5.936e-004
13499	8.8509	2.5455	0.	1.0392e-003
13500	8.7591	2.5455	5.e-002	5.7106
13501	8.7591	2.8182	0.	1.4103e-004
13502	8.8509	2.7273	0.	4.9185e-004
13503	8.7591	2.7273	5.e-002	5.7202
13504	8.7591	3.	0.	-1.2751e-005
13505	8.8509	2.9091	0.	2.1048e-004
13506	8.7591	2.9091	5.e-002	5.7249
13507	8.7591	3.1818	0.	1.4067e-004
13508	8.8509	3.0909	0.	2.1057e-004
13509	8.7591	3.0909	5.e-002	5.7249
13510	8.7591	3.3636	0.	5.9332e-004
13511	8.8509	3.2727	0.	4.9158e-004
13512	8.7591	3.2727	5.e-002	5.7202
13513	8.7591	3.5455	0.	1.3199e-003
13514	8.8509	3.4545	0.	1.0389e-003
13515	8.7591	3.4545	5.e-002	5.7106
13516	8.7591	3.7273	0.	2.2819e-003
13517	8.8509	3.6364	0.	1.8218e-003
13518	8.7591	3.6364	5.e-002	5.6964
13519	8.7591	3.9091	0.	3.431e-003
13520	8.8509	3.8182	0.	2.8027e-003
13521	8.7591	3.8182	5.e-002	5.6778
13522	8.7591	4.0909	0.	4.7085e-003
13523	8.8509	4.	0.	3.9302e-003
13524	8.7591	4.	5.e-002	5.6551
13525	8.7591	4.2727	0.	6.0541e-003
13526	8.8509	4.1818	0.	5.1502e-003
13527	8.7591	4.1818	5.e-002	5.6288
13528	8.7591	4.4545	0.	7.4145e-003
13529	8.8509	4.3636	0.	6.409e-003
13530	8.7591	4.3636	5.e-002	5.5994
13531	8.7591	4.6364	0.	8.7382e-003
13532	8.8509	4.5455	0.	7.6647e-003
13533	8.7591	4.5455	5.e-002	5.5678
13534	8.7591	4.8182	0.	1.003e-002
13535	8.8509	4.7273	0.	8.8681e-003
13536	8.7591	4.7273	5.e-002	5.5349
13537	8.7591	5.	0.	1.1212e-002
13538	8.8509	4.9091	0.	1.0086e-002
13539	8.7591	4.9091	5.e-002	5.5019
13540	8.7591	5.1818	0.	1.2839e-002
13541	8.8509	5.0909	0.	1.1114e-002
13542	8.7591	5.0909	5.e-002	5.4697
13543	8.7591	5.3636	0.	1.3538e-002
13544	8.8509	5.2727	0.	1.326e-002
13545	8.7591	5.2727	5.e-002	5.4386
13546	8.7591	5.5455	0.	2.4486e-002
13547	8.8509	5.4545	0.	1.2718e-002
13548	8.7591	5.4545	5.e-002	5.3951
13549	8.7591	5.7273	0.	6.3595e-002
13550	8.8509	5.6364	0.	3.6944e-002
13551	8.7591	5.6364	5.e-002	5.1169
13552	8.8509	5.8182	0.	1.8045
13553	8.7591	5.8182	5.e-002	1.2486
13554	8.7591	5.9091	0.	1.7846
13555	8.9427	0.27273	0.	7.3844e-002
13556	9.0345	0.18182	0.	2.4613
13557	8.9427	0.18182	5.e-002	1.1604
13558	8.9427	9.0909e-002	0.	2.1905
13559	8.9427	0.45455	0.	2.2128e-002
13560	9.0345	0.36364	0.	3.4087e-002
13561	8.9427	0.36364	5.e-002	5.104
13562	8.9427	0.63636	0.	1.192e-002
13563	9.0345	0.54545	0.	1.1146e-002
13564	8.9427	0.54545	5.e-002	5.3835
13565	8.9427	0.81818	0.	1.1345e-002
13566	9.0345	0.72727	0.	1.1755e-002
13567	8.9427	0.72727	5.e-002	5.4227
13568	8.9427	1.	0.	9.8899e-003
13569	9.0345	0.90909	0.	9.8266e-003
13570	8.9427	0.90909	5.e-002	5.4483
13571	8.9427	1.1818	0.	8.862e-003
13572	9.0345	1.0909	0.	8.9404e-003
13573	8.9427	1.0909	5.e-002	5.4745
13574	8.9427	1.3636	0.	7.7486e-003
13575	9.0345	1.2727	0.	7.8885e-003
13576	8.9427	1.2727	5.e-002	5.5013
13577	8.9427	1.5455	0.	6.6203e-003
13578	9.0345	1.4545	0.	6.8622e-003
13579	8.9427	1.4545	5.e-002	5.5278
13580	8.9427	1.7273	0.	5.4693e-003
13581	9.0345	1.6364	0.	5.7975e-003
13582	8.9427	1.6364	5.e-002	5.5532
13583	8.9427	1.9091	0.	4.3374e-003
13584	9.0345	1.8182	0.	4.7379e-003
13585	8.9427	1.8182	5.e-002	5.5769
13586	8.9427	2.0909	0.	3.2672e-003
13587	9.0345	2.	0.	3.715e-003
13588	8.9427	2.	5.e-002	5.5981
13589	8.9427	2.2727	0.	2.3071e-003
13590	9.0345	2.1818	0.	2.7725e-003
13591	8.9427	2.1818	5.e-002	5.6164
13592	8.9427	2.4545	0.	1.5051e-003
13593	9.0345	2.3636	0.	1.9548e-003
13594	8.9427	2.3636	5.e-002	5.6314
13595	8.9427	2.6364	0.	9.0049e-004
13596	9.0345	2.5455	0.	1.303e-003
13597	8.9427	2.5455	5.e-002	5.6429
13598	8.9427	2.8182	0.	5.239e-004
13599	9.0345	2.7273	0.	8.4794e-004
13600	8.9427	2.7273	5.e-002	5.6506
13601	8.9427	3.	0.	3.9624e-004
13602	9.0345	2.9091	0.	6.1398e-004
13603	8.9427	2.9091	5.e-002	5.6545
13604	8.9427	3.1818	0.	5.2407e-004
13605	9.0345	3.0909	0.	6.1392e-004
13606	8.9427	3.0909	5.e-002	5.6545
13607	8.9427	3.3636	0.	9.0015e-004
13608	9.0345	3.2727	0.	8.4817e-004
13609	8.9427	3.2727	5.e-002	5.6506
13610	8.9427	3.5455	0.	1.5045e-003
13611	9.0345	3.4545	0.	1.3025e-003
13612	8.9427	3.4545	5.e-002	5.6429
13613	8.9427	3.7273	0.	2.307e-003
13614	9.0345	3.6364	0.	1.9544e-003
13615	8.9427	3.6364	5.e-002	5.6314
13616	8.9427	3.9091	0.	3.2669e-003
13617	9.0345	3.8182	0.	2.7722e-003
13618	8.9427	3.8182	5.e-002	5.6164
13619	8.9427	4.0909	0.	4.3368e-003
13620	9.0345	4.	0.	3.7145e-003
13621	8.9427	4.	5.e-002	5.598
13622	8.9427	4.2727	0.	5.4689e-003
13623	9.0345	4.1818	0.	4.7373e-003
13624	8.9427	4.1818	5.e-002	5.5768
13625	8.9427	4.4545	0.	6.6198e-003
13626	9.0345	4.3636	0.	5.7973e-003
13627	8.9427	4.3636	5.e-002	5.5531
13628	8.9427	4.6364	0.	7.7477e-003
13629	9.0345	4.5455	0.	6.8614e-003
13630	8.9427	4.5455	5.e-002	5.5276
13631	8.9427	4.8182	0.	8.8614e-003
13632	9.0345	4.7273	0.	7.8873e-003
13633	8.9427	4.7273	5.e-002	5.5011
13634	8.9427	5.	0.	9.8888e-003
13635	9.0345	4.9091	0.	8.9396e-003
13636	8.9427	4.9091	5.e-002	5.4743
13637	8.9427	5.1818	0.	1.1343e-002
13638	9.0345	5.0909	0.	9.8248e-003
13639	8.9427	5.0909	5.e-002	5.4482
13640	8.9427	5.3636	0.	1.1919e-002
13641	9.0345	5.2727	0.	1.1754e-002
13642	8.9427	5.2727	5.e-002	5.4225
13643	8.9427	5.5455	0.	2.2128e-002
13644	9.0345	5.4545	0.	1.1146e-002
13645	8.9427	5.4545	5.e-002	5.3833
13646	8.9427	5.7273	0.	7.3845e-002
13647	9.0345	5.6364	0.	3.4086e-002
13648	8.9427	5.6364	5.e-002	5.1037
13649	9.0345	5.8182	0.	2.4614
13650	8.9427	5.8182	5.e-002	1.1602
13651	8.9427	5.9091	0.	2.1905
13652	9.1263	0.27273	0.	0.10308
13653	9.2181	0.18182	0.	3.14
13654	9.1263	0.18182	5.e-002	1.0714
13655	9.1263	9.0909e-002	0.	2.6041
13656	9.1263	0.45455	0.	1.9933e-002
13657	9.2181	0.36364	0.	3.1462e-002
13658	9.1263	0.36364	5.e-002	5.0861
13659	9.1263	0.63636	0.	1.0513e-002
13660	9.2181	0.54545	0.	9.7615e-003
13661	9.1263	0.54545	5.e-002	5.3674
13662	9.1263	0.81818	0.	1.0074e-002
13663	9.2181	0.72727	0.	1.0451e-002
13664	9.1263	0.72727	5.e-002	5.4032
13665	9.1263	1.	0.	8.7955e-003
13666	9.2181	0.90909	0.	8.7474e-003
13667	9.1263	0.90909	5.e-002	5.4246
13668	9.1263	1.1818	0.	7.9161e-003
13669	9.2181	1.0909	0.	8.0009e-003
13670	9.1263	1.0909	5.e-002	5.446
13671	9.1263	1.3636	0.	6.9648e-003
13672	9.2181	1.2727	0.	7.1023e-003
13673	9.1263	1.2727	5.e-002	5.4678
13674	9.1263	1.5455	0.	6.0083e-003
13675	9.2181	1.4545	0.	6.2341e-003
13676	9.1263	1.4545	5.e-002	5.4893
13677	9.1263	1.7273	0.	5.0377e-003
13678	9.2181	1.6364	0.	5.3366e-003
13679	9.1263	1.6364	5.e-002	5.5099
13680	9.1263	1.9091	0.	4.088e-003
13681	9.2181	1.8182	0.	4.4476e-003
13682	9.1263	1.8182	5.e-002	5.5291
13683	9.1263	2.0909	0.	3.1929e-003
13684	9.2181	2.	0.	3.592e-003
13685	9.1263	2.	5.e-002	5.5463
13686	9.1263	2.2727	0.	2.3923e-003
13687	9.2181	2.1818	0.	2.8059e-003
13688	9.1263	2.1818	5.e-002	5.5611
13689	9.1263	2.4545	0.	1.7241e-003
13690	9.2181	2.3636	0.	2.1248e-003
13691	9.1263	2.3636	5.e-002	5.5733
13692	9.1263	2.6364	0.	1.2213e-003
13693	9.2181	2.5455	0.	1.5832e-003
13694	9.1263	2.5455	5.e-002	5.5825
13695	9.1263	2.8182	0.	9.0856e-004
13696	9.2181	2.7273	0.	1.2052e-003
13697	9.1263	2.7273	5.e-002	5.5888
13698	9.1263	3.	0.	8.0207e-004
13699	9.2181	2.9091	0.	1.011e-003
13700	9.1263	2.9091	5.e-002	5.592
13701	9.1263	3.1818	0.	9.0856e-004
13702	9.2181	3.0909	0.	1.0106e-003
13703	9.1263	3.0909	5.e-002	5.592
13704	9.1263	3.3636	0.	1.2215e-003
13705	9.2181	3.2727	0.	1.2054e-003
13706	9.1263	3.2727	5.e-002	5.5888
13707	9.1263	3.5455	0.	1.724e-003
13708	9.2181	3.4545	0.	1.5829e-003
13709	9.1263	3.4545	5.e-002	5.5825
13710	9.1263	3.7273	0.	2.3917e-003
13711	9.2181	3.6364	0.	2.125e-003
13712	9.1263	3.6364	5.e-002	5.5732
13713	9.1263	3.9091	0.	3.1923e-003
13714	9.2181	3.8182	0.	2.8053e-003
13715	9.1263	3.8182	5.e-002	5.561
13716	9.1263	4.0909	0.	4.0876e-003
13717	9.2181	4.	0.	3.5918e-003
13718	9.1263	4.	5.e-002	5.5462
13719	9.1263	4.2727	0.	5.0374e-003
13720	9.2181	4.1818	0.	4.4472e-003
13721	9.1263	4.1818	5.e-002	5.529
13722	9.1263	4.4545	0.	6.0079e-003
13723	9.2181	4.3636	0.	5.3363e-003
13724	9.1263	4.3636	5.e-002	5.5098
13725	9.1263	4.6364	0.	6.9637e-003
13726	9.2181	4.5455	0.	6.2335e-003
13727	9.1263	4.5455	5.e-002	5.4892
13728	9.1263	4.8182	0.	7.9147e-003
13729	9.2181	4.7273	0.	7.1014e-003
13730	9.1263	4.7273	5.e-002	5.4677
13731	9.1263	5.	0.	8.7941e-003
13732	9.2181	4.9091	0.	8.0003e-003
13733	9.1263	4.9091	5.e-002	5.4459
13734	9.1263	5.1818	0.	1.0072e-002
13735	9.2181	5.0909	0.	8.7456e-003
13736	9.1263	5.0909	5.e-002	5.4244
13737	9.1263	5.3636	0.	1.0511e-002
13738	9.2181	5.2727	0.	1.045e-002
13739	9.1263	5.2727	5.e-002	5.403
13740	9.1263	5.5455	0.	1.9932e-002
13741	9.2181	5.4545	0.	9.761e-003
13742	9.1263	5.4545	5.e-002	5.3672
13743	9.1263	5.7273	0.	0.10308
13744	9.2181	5.6364	0.	3.1462e-002
13745	9.1263	5.6364	5.e-002	5.0859
13746	9.2181	5.8182	0.	3.1401
13747	9.1263	5.8182	5.e-002	1.0712
13748	9.1263	5.9091	0.	2.6041
13749	9.3099	0.27273	0.	0.23896
13750	9.4018	0.18182	0.	3.8233
13751	9.3099	0.18182	5.e-002	0.98333
13752	9.3099	9.0909e-002	0.	3.019
13753	9.3099	0.45455	0.	1.7887e-002
13754	9.4018	0.36364	0.	2.9171e-002
13755	9.3099	0.36364	5.e-002	5.0647
13756	9.3099	0.63636	0.	9.283e-003
13757	9.4018	0.54545	0.	8.5383e-003
13758	9.3099	0.54545	5.e-002	5.3481
13759	9.3099	0.81818	0.	8.989e-003
13760	9.4018	0.72727	0.	9.3222e-003
13761	9.3099	0.72727	5.e-002	5.3813
13762	9.3099	1.	0.	7.8873e-003
13763	9.4018	0.90909	0.	7.8443e-003
13764	9.3099	0.90909	5.e-002	5.3993
13765	9.3099	1.1818	0.	7.1473e-003
13766	9.4018	1.0909	0.	7.232e-003
13767	9.3099	1.0909	5.e-002	5.417
13768	9.3099	1.3636	0.	6.3428e-003
13769	9.4018	1.2727	0.	6.4745e-003
13770	9.3099	1.2727	5.e-002	5.4348
13771	9.3099	1.5455	0.	5.5386e-003
13772	9.4018	1.4545	0.	5.7475e-003
13773	9.3099	1.4545	5.e-002	5.4524
13774	9.3099	1.7273	0.	4.7247e-003
13775	9.4018	1.6364	0.	4.9959e-003
13776	9.3099	1.6364	5.e-002	5.4692
13777	9.3099	1.9091	0.	3.9304e-003
13778	9.4018	1.8182	0.	4.2527e-003
13779	9.3099	1.8182	5.e-002	5.4848
13780	9.3099	2.0909	0.	3.1838e-003
13781	9.4018	2.	0.	3.5402e-003
13782	9.3099	2.	5.e-002	5.4987
13783	9.3099	2.2727	0.	2.5168e-003
13784	9.4018	2.1818	0.	2.8859e-003
13785	9.3099	2.1818	5.e-002	5.5108
13786	9.3099	2.4545	0.	1.9617e-003
13787	9.4018	2.3636	0.	2.3203e-003
13788	9.3099	2.3636	5.e-002	5.5207
13789	9.3099	2.6364	0.	1.5444e-003
13790	9.4018	2.5455	0.	1.8709e-003
13791	9.3099	2.5455	5.e-002	5.5282
13792	9.3099	2.8182	0.	1.2846e-003
13793	9.4018	2.7273	0.	1.5574e-003
13794	9.3099	2.7273	5.e-002	5.5333
13795	9.3099	3.	0.	1.1963e-003
13796	9.4018	2.9091	0.	1.3963e-003
13797	9.3099	2.9091	5.e-002	5.5359
13798	9.3099	3.1818	0.	1.2844e-003
13799	9.4018	3.0909	0.	1.3958e-003
13800	9.3099	3.0909	5.e-002	5.5359
13801	9.3099	3.3636	0.	1.5442e-003
13802	9.4018	3.2727	0.	1.5574e-003
13803	9.3099	3.2727	5.e-002	5.5333
13804	9.3099	3.5455	0.	1.9617e-003
13805	9.4018	3.4545	0.	1.8705e-003
13806	9.3099	3.4545	5.e-002	5.5282
13807	9.3099	3.7273	0.	2.5169e-003
13808	9.4018	3.6364	0.	2.3203e-003
13809	9.3099	3.6364	5.e-002	5.5206
13810	9.3099	3.9091	0.	3.1836e-003
13811	9.4018	3.8182	0.	2.8856e-003
13812	9.3099	3.8182	5.e-002	5.5107
13813	9.3099	4.0909	0.	3.9303e-003
13814	9.4018	4.	0.	3.5402e-003
13815	9.3099	4.	5.e-002	5.4986
13816	9.3099	4.2727	0.	4.7244e-003
13817	9.4018	4.1818	0.	4.2528e-003
13818	9.3099	4.1818	5.e-002	5.4847
13819	9.3099	4.4545	0.	5.5381e-003
13820	9.4018	4.3636	0.	4.9952e-003
13821	9.3099	4.3636	5.e-002	5.4691
13822	9.3099	4.6364	0.	6.3425e-003
13823	9.4018	4.5455	0.	5.7466e-003
13824	9.3099	4.5455	5.e-002	5.4523
13825	9.3099	4.8182	0.	7.1472e-003
13826	9.4018	4.7273	0.	6.4739e-003
13827	9.3099	4.7273	5.e-002	5.4347
13828	9.3099	5.	0.	7.8863e-003
13829	9.4018	4.9091	0.	7.2316e-003
13830	9.3099	4.9091	5.e-002	5.4168
13831	9.3099	5.1818	0.	8.9873e-003
13832	9.4018	5.0909	0.	7.8426e-003
13833	9.3099	5.0909	5.e-002	5.3991
13834	9.3099	5.3636	0.	9.2823e-003
13835	9.4018	5.2727	0.	9.3207e-003
13836	9.3099	5.2727	5.e-002	5.3811
13837	9.3099	5.5455	0.	1.7887e-002
13838	9.4018	5.4545	0.	8.5383e-003
13839	9.3099	5.4545	5.e-002	5.3479
13840	9.3099	5.7273	0.	0.23898
13841	9.4018	5.6364	0.	2.9171e-002
13842	9.3099	5.6364	5.e-002	5.0646
13843	9.4018	5.8182	0.	3.8234
13844	9.3099	5.8182	5.e-002	0.98312
13845	9.3099	5.9091	0.	3.019
13846	9.4936	0.27273	0.	0.81579
13847	9.5854	0.18182	0.	4.5011
13848	9.4936	0.18182	5.e-002	0.89734
13849	9.4936	9.0909e-002	0.	3.4305
13850	9.4936	0.45455	0.	1.5985e-002
13851	9.5854	0.36364	0.	2.7484e-002
13852	9.4936	0.36364	5.e-002	5.041
13853	9.4936	0.63636	0.	8.2136e-003
13854	9.5854	0.54545	0.	7.4587e-003
13855	9.4936	0.54545	5.e-002	5.3265
13856	9.4936	0.81818	0.	8.0681e-003
13857	9.5854	0.72727	0.	8.3474e-003
13858	9.4936	0.72727	5.e-002	5.3576
13859	9.4936	1.	0.	7.1387e-003
13860	9.5854	0.90909	0.	7.0928e-003
13861	9.4936	0.90909	5.e-002	5.3729
13862	9.4936	1.1818	0.	6.5294e-003
13863	9.5854	1.0909	0.	6.6066e-003
13864	9.4936	1.0909	5.e-002	5.3876
13865	9.4936	1.3636	0.	5.858e-003
13866	9.5854	1.2727	0.	5.9781e-003
13867	9.4936	1.2727	5.e-002	5.4024
13868	9.4936	1.5455	0.	5.1873e-003
13869	9.5854	1.4545	0.	5.376e-003
13870	9.4936	1.4545	5.e-002	5.4169
13871	9.4936	1.7273	0.	4.5079e-003
13872	9.5854	1.6364	0.	4.7511e-003
13873	9.4936	1.6364	5.e-002	5.4306
13874	9.4936	1.9091	0.	3.8467e-003
13875	9.5854	1.8182	0.	4.1342e-003
13876	9.4936	1.8182	5.e-002	5.4433
13877	9.4936	2.0909	0.	3.2263e-003
13878	9.5854	2.	0.	3.5428e-003
13879	9.4936	2.	5.e-002	5.4547
13880	9.4936	2.2727	0.	2.6729e-003
13881	9.5854	2.1818	0.	3.0005e-003
13882	9.4936	2.1818	5.e-002	5.4646
13883	9.4936	2.4545	0.	2.2125e-003
13884	9.5854	2.3636	0.	2.5319e-003
13885	9.4936	2.3636	5.e-002	5.4727
13886	9.4936	2.6364	0.	1.8664e-003
13887	9.5854	2.5455	0.	2.1599e-003
13888	9.4936	2.5455	5.e-002	5.4788
13889	9.4936	2.8182	0.	1.6512e-003
13890	9.5854	2.7273	0.	1.9006e-003
13891	9.4936	2.7273	5.e-002	5.483
13892	9.4936	3.	0.	1.5778e-003
13893	9.5854	2.9091	0.	1.767e-003
13894	9.4936	2.9091	5.e-002	5.4851
13895	9.4936	3.1818	0.	1.651e-003
13896	9.5854	3.0909	0.	1.7669e-003
13897	9.4936	3.0909	5.e-002	5.4851
13898	9.4936	3.3636	0.	1.8663e-003
13899	9.5854	3.2727	0.	1.9008e-003
13900	9.4936	3.2727	5.e-002	5.483
13901	9.4936	3.5455	0.	2.212e-003
13902	9.5854	3.4545	0.	2.1595e-003
13903	9.4936	3.4545	5.e-002	5.4788
13904	9.4936	3.7273	0.	2.6724e-003
13905	9.5854	3.6364	0.	2.5317e-003
13906	9.4936	3.6364	5.e-002	5.4726
13907	9.4936	3.9091	0.	3.2262e-003
13908	9.5854	3.8182	0.	2.9998e-003
13909	9.4936	3.8182	5.e-002	5.4645
13910	9.4936	4.0909	0.	3.8469e-003
13911	9.5854	4.	0.	3.5428e-003
13912	9.4936	4.	5.e-002	5.4547
13913	9.4936	4.2727	0.	4.5076e-003
13914	9.5854	4.1818	0.	4.1337e-003
13915	9.4936	4.1818	5.e-002	5.4432
13916	9.4936	4.4545	0.	5.1862e-003
13917	9.5854	4.3636	0.	4.7506e-003
13918	9.4936	4.3636	5.e-002	5.4305
13919	9.4936	4.6364	0.	5.8568e-003
13920	9.5854	4.5455	0.	5.3751e-003
13921	9.4936	4.5455	5.e-002	5.4168
13922	9.4936	4.8182	0.	6.5287e-003
13923	9.5854	4.7273	0.	5.9772e-003
13924	9.4936	4.7273	5.e-002	5.4023
13925	9.4936	5.	0.	7.1377e-003
13926	9.5854	4.9091	0.	6.6064e-003
13927	9.4936	4.9091	5.e-002	5.3875
13928	9.4936	5.1818	0.	8.0666e-003
13929	9.5854	5.0909	0.	7.0911e-003
13930	9.4936	5.0909	5.e-002	5.3728
13931	9.4936	5.3636	0.	8.2128e-003
13932	9.5854	5.2727	0.	8.3465e-003
13933	9.4936	5.2727	5.e-002	5.3575
13934	9.4936	5.5455	0.	1.5984e-002
13935	9.5854	5.4545	0.	7.4585e-003
13936	9.4936	5.4545	5.e-002	5.3263
13937	9.4936	5.7273	0.	0.81584
13938	9.5854	5.6364	0.	2.7483e-002
13939	9.4936	5.6364	5.e-002	5.0408
13940	9.5854	5.8182	0.	4.5011
13941	9.4936	5.8182	5.e-002	0.89716
13942	9.4936	5.9091	0.	3.4306
13943	9.6772	0.27273	0.	1.6113
13944	9.769	0.18182	0.	5.1669
13945	9.6772	0.18182	5.e-002	0.81432
13946	9.6772	9.0909e-002	0.	3.8355
13947	9.6772	0.45455	0.	1.4214e-002
13948	9.769	0.36364	0.	2.7563e-002
13949	9.6772	0.36364	5.e-002	5.0157
13950	9.6772	0.63636	0.	7.2858e-003
13951	9.769	0.54545	0.	6.5076e-003
13952	9.6772	0.54545	5.e-002	5.3033
13953	9.6772	0.81818	0.	7.2896e-003
13954	9.769	0.72727	0.	7.5107e-003
13955	9.6772	0.72727	5.e-002	5.3327
13956	9.6772	1.	0.	6.5251e-003
13957	9.769	0.90909	0.	6.4712e-003
13958	9.6772	0.90909	5.e-002	5.3459
13959	9.6772	1.1818	0.	6.0351e-003
13960	9.769	1.0909	0.	6.1008e-003
13961	9.6772	1.0909	5.e-002	5.3583
13962	9.6772	1.3636	0.	5.4819e-003
13963	9.769	1.2727	0.	5.5886e-003
13964	9.6772	1.2727	5.e-002	5.3706
13965	9.6772	1.5455	0.	4.928e-003
13966	9.769	1.4545	0.	5.0954e-003
13967	9.6772	1.4545	5.e-002	5.3825
13968	9.6772	1.7273	0.	4.3662e-003
13969	9.769	1.6364	0.	4.5814e-003
13970	9.6772	1.6364	5.e-002	5.3939
13971	9.6772	1.9091	0.	3.819e-003
13972	9.769	1.8182	0.	4.0724e-003
13973	9.6772	1.8182	5.e-002	5.4044
13974	9.6772	2.0909	0.	3.3053e-003
13975	9.769	2.	0.	3.5844e-003
13976	9.6772	2.	5.e-002	5.4138
13977	9.6772	2.2727	0.	2.8472e-003
13978	9.769	2.1818	0.	3.1364e-003
13979	9.6772	2.1818	5.e-002	5.4218
13980	9.6772	2.4545	0.	2.4665e-003
13981	9.769	2.3636	0.	2.7496e-003
13982	9.6772	2.3636	5.e-002	5.4284
13983	9.6772	2.6364	0.	2.1808e-003
13984	9.769	2.5455	0.	2.4428e-003
13985	9.6772	2.5455	5.e-002	5.4335
13986	9.6772	2.8182	0.	2.0028e-003
13987	9.769	2.7273	0.	2.2288e-003
13988	9.6772	2.7273	5.e-002	5.4369
13989	9.6772	3.	0.	1.9424e-003
13990	9.769	2.9091	0.	2.1186e-003
13991	9.6772	2.9091	5.e-002	5.4387
13992	9.6772	3.1818	0.	2.0031e-003
13993	9.769	3.0909	0.	2.1185e-003
13994	9.6772	3.0909	5.e-002	5.4386
13995	9.6772	3.3636	0.	2.1807e-003
13996	9.769	3.2727	0.	2.2289e-003
13997	9.6772	3.2727	5.e-002	5.4369
13998	9.6772	3.5455	0.	2.4664e-003
13999	9.769	3.4545	0.	2.4425e-003
14000	9.6772	3.4545	5.e-002	5.4335
14001	9.6772	3.7273	0.	2.8468e-003
14002	9.769	3.6364	0.	2.7493e-003
14003	9.6772	3.6364	5.e-002	5.4284
14004	9.6772	3.9091	0.	3.3047e-003
14005	9.769	3.8182	0.	3.1359e-003
14006	9.6772	3.8182	5.e-002	5.4218
14007	9.6772	4.0909	0.	3.8184e-003
14008	9.769	4.	0.	3.5841e-003
14009	9.6772	4.	5.e-002	5.4137
14010	9.6772	4.2727	0.	4.3656e-003
14011	9.769	4.1818	0.	4.0719e-003
14012	9.6772	4.1818	5.e-002	5.4043
14013	9.6772	4.4545	0.	4.9277e-003
14014	9.769	4.3636	0.	4.5808e-003
14015	9.6772	4.3636	5.e-002	5.3938
14016	9.6772	4.6364	0.	5.4813e-003
14017	9.769	4.5455	0.	5.0952e-003
14018	9.6772	4.5455	5.e-002	5.3824
14019	9.6772	4.8182	0.	6.0348e-003
14020	9.769	4.7273	0.	5.5878e-003
14021	9.6772	4.7273	5.e-002	5.3704
14022	9.6772	5.	0.	6.5243e-003
14023	9.769	4.9091	0.	6.1004e-003
14024	9.6772	4.9091	5.e-002	5.3581
14025	9.6772	5.1818	0.	7.2884e-003
14026	9.769	5.0909	0.	6.4695e-003
14027	9.6772	5.0909	5.e-002	5.3457
14028	9.6772	5.3636	0.	7.2855e-003
14029	9.769	5.2727	0.	7.5099e-003
14030	9.6772	5.2727	5.e-002	5.3326
14031	9.6772	5.5455	0.	1.4213e-002
14032	9.769	5.4545	0.	6.5069e-003
14033	9.6772	5.4545	5.e-002	5.3031
14034	9.6772	5.7273	0.	1.6113
14035	9.769	5.6364	0.	2.7563e-002
14036	9.6772	5.6364	5.e-002	5.0155
14037	9.769	5.8182	0.	5.1669
14038	9.6772	5.8182	5.e-002	0.81414
14039	9.6772	5.9091	0.	3.8355
14040	9.8608	0.27273	0.	2.4179
14041	9.9526	0.18182	0.	5.8165
14042	9.8608	0.18182	5.e-002	0.73478
14043	9.8608	9.0909e-002	0.	4.2314
14044	9.8608	0.45455	0.	1.2564e-002
14045	9.9526	0.36364	0.	5.2833e-002
14046	9.8608	0.36364	5.e-002	4.9893
14047	9.8608	0.63636	0.	6.4896e-003
14048	9.9526	0.54545	0.	5.6921e-003
14049	9.8608	0.54545	5.e-002	5.2789
14050	9.8608	0.81818	0.	6.6369e-003
14051	9.9526	0.72727	0.	6.8178e-003
14052	9.8608	0.72727	5.e-002	5.3071
14053	9.8608	1.	0.	6.0255e-003
14054	9.9526	0.90909	0.	5.9789e-003
14055	9.8608	0.90909	5.e-002	5.3185
14056	9.8608	1.1818	0.	5.643e-003
14057	9.9526	1.0909	0.	5.7115e-003
14058	9.8608	1.0909	5.e-002	5.329
14059	9.8608	1.3636	0.	5.1942e-003
14060	9.9526	1.2727	0.	5.3016e-003
14061	9.8608	1.2727	5.e-002	5.3394
14062	9.8608	1.5455	0.	4.742e-003
14063	9.9526	1.4545	0.	4.9033e-003
14064	9.8608	1.4545	5.e-002	5.3493
14065	9.8608	1.7273	0.	4.2806e-003
14066	9.9526	1.6364	0.	4.4842e-003
14067	9.8608	1.6364	5.e-002	5.3588
14068	9.8608	1.9091	0.	3.8305e-003
14069	9.9526	1.8182	0.	4.067e-003
14070	9.8608	1.8182	5.e-002	5.3675
14071	9.8608	2.0909	0.	3.4075e-003
14072	9.9526	2.	0.	3.6665e-003
14073	9.8608	2.	5.e-002	5.3752
14074	9.8608	2.2727	0.	3.0302e-003
14075	9.9526	2.1818	0.	3.2981e-003
14076	9.8608	2.1818	5.e-002	5.3819
14077	9.8608	2.4545	0.	2.7167e-003
14078	9.9526	2.3636	0.	2.9805e-003
14079	9.8608	2.3636	5.e-002	5.3874
14080	9.8608	2.6364	0.	2.481e-003
14081	9.9526	2.5455	0.	2.7283e-003
14082	9.8608	2.5455	5.e-002	5.3915
14083	9.8608	2.8182	0.	2.3344e-003
14084	9.9526	2.7273	0.	2.5525e-003
14085	9.8608	2.7273	5.e-002	5.3944
14086	9.8608	3.	0.	2.2844e-003
14087	9.9526	2.9091	0.	2.4617e-003
14088	9.8608	2.9091	5.e-002	5.3958
14089	9.8608	3.1818	0.	2.3342e-003
14090	9.9526	3.0909	0.	2.4616e-003
14091	9.8608	3.0909	5.e-002	5.3958
14092	9.8608	3.3636	0.	2.4809e-003
14093	9.9526	3.2727	0.	2.5523e-003
14094	9.8608	3.2727	5.e-002	5.3943
14095	9.8608	3.5455	0.	2.7161e-003
14096	9.9526	3.4545	0.	2.728e-003
14097	9.8608	3.4545	5.e-002	5.3915
14098	9.8608	3.7273	0.	3.0297e-003
14099	9.9526	3.6364	0.	2.9799e-003
14100	9.8608	3.6364	5.e-002	5.3873
14101	9.8608	3.9091	0.	3.4073e-003
14102	9.9526	3.8182	0.	3.2983e-003
14103	9.8608	3.8182	5.e-002	5.3818
14104	9.8608	4.0909	0.	3.8302e-003
14105	9.9526	4.	0.	3.6663e-003
14106	9.8608	4.	5.e-002	5.3752
14107	9.8608	4.2727	0.	4.2801e-003
14108	9.9526	4.1818	0.	4.0664e-003
14109	9.8608	4.1818	5.e-002	5.3674
14110	9.8608	4.4545	0.	4.7414e-003
14111	9.9526	4.3636	0.	4.4835e-003
14112	9.8608	4.3636	5.e-002	5.3587
14113	9.8608	4.6364	0.	5.1938e-003
14114	9.9526	4.5455	0.	4.9031e-003
14115	9.8608	4.5455	5.e-002	5.3492
14116	9.8608	4.8182	0.	5.6422e-003
14117	9.9526	4.7273	0.	5.3011e-003
14118	9.8608	4.7273	5.e-002	5.3392
14119	9.8608	5.	0.	6.0243e-003
14120	9.9526	4.9091	0.	5.7105e-003
14121	9.8608	4.9091	5.e-002	5.3289
14122	9.8608	5.1818	0.	6.6355e-003
14123	9.9526	5.0909	0.	5.9775e-003
14124	9.8608	5.0909	5.e-002	5.3184
14125	9.8608	5.3636	0.	6.4884e-003
14126	9.9526	5.2727	0.	6.8166e-003
14127	9.8608	5.2727	5.e-002	5.3069
14128	9.8608	5.5455	0.	1.2564e-002
14129	9.9526	5.4545	0.	5.6914e-003
14130	9.8608	5.4545	5.e-002	5.2787
14131	9.8608	5.7273	0.	2.418
14132	9.9526	5.6364	0.	5.2842e-002
14133	9.8608	5.6364	5.e-002	4.9891
14134	9.9526	5.8182	0.	5.8165
14135	9.8608	5.8182	5.e-002	0.73459
14136	9.8608	5.9091	0.	4.2314
14137	10.044	0.27273	0.	3.2061
14138	10.136	0.18182	0.	6.4471
14139	10.044	0.18182	5.e-002	0.65908
14140	10.044	9.0909e-002	0.	4.6166
14141	10.044	0.45455	0.	1.1056e-002
14142	10.136	0.36364	0.	0.80428
14143	10.044	0.36364	5.e-002	4.9623
14144	10.044	0.63636	0.	5.8521e-003
14145	10.136	0.54545	0.	5.0286e-003
14146	10.044	0.54545	5.e-002	5.2539
14147	10.044	0.81818	0.	6.1321e-003
14148	10.136	0.72727	0.	6.2755e-003
14149	10.044	0.72727	5.e-002	5.281
14150	10.044	1.	0.	5.6573e-003
14151	10.136	0.90909	0.	5.6144e-003
14152	10.044	0.90909	5.e-002	5.2911
14153	10.044	1.1818	0.	5.3672e-003
14154	10.136	1.0909	0.	5.4324e-003
14155	10.044	1.0909	5.e-002	5.3
14156	10.044	1.3636	0.	5.0087e-003
14157	10.136	1.2727	0.	5.1097e-003
14158	10.044	1.2727	5.e-002	5.3088
14159	10.044	1.5455	0.	4.6431e-003
14160	10.136	1.4545	0.	4.7918e-003
14161	10.044	1.4545	5.e-002	5.3172
14162	10.044	1.7273	0.	4.2674e-003
14163	10.136	1.6364	0.	4.4521e-003
14164	10.044	1.6364	5.e-002	5.3251
14165	10.044	1.9091	0.	3.8991e-003
14166	10.136	1.8182	0.	4.1128e-003
14167	10.044	1.8182	5.e-002	5.3324
14168	10.044	2.0909	0.	3.5521e-003
14169	10.136	2.	0.	3.7856e-003
14170	10.044	2.	5.e-002	5.3388
14171	10.044	2.2727	0.	3.2427e-003
14172	10.136	2.1818	0.	3.4845e-003
14173	10.044	2.1818	5.e-002	5.3444
14174	10.044	2.4545	0.	2.9857e-003
14175	10.136	2.3636	0.	3.2239e-003
14176	10.044	2.3636	5.e-002	5.3489
14177	10.044	2.6364	0.	2.7928e-003
14178	10.136	2.5455	0.	3.0179e-003
14179	10.044	2.5455	5.e-002	5.3524
14180	10.044	2.8182	0.	2.6725e-003
14181	10.136	2.7273	0.	2.8738e-003
14182	10.044	2.7273	5.e-002	5.3547
14183	10.044	3.	0.	2.6315e-003
14184	10.136	2.9091	0.	2.7997e-003
14185	10.044	2.9091	5.e-002	5.3559
14186	10.044	3.1818	0.	2.6723e-003
14187	10.136	3.0909	0.	2.7995e-003
14188	10.044	3.0909	5.e-002	5.3559
14189	10.044	3.3636	0.	2.7924e-003
14190	10.136	3.2727	0.	2.8738e-003
14191	10.044	3.2727	5.e-002	5.3547
14192	10.044	3.5455	0.	2.9854e-003
14193	10.136	3.4545	0.	3.0177e-003
14194	10.044	3.4545	5.e-002	5.3523
14195	10.044	3.7273	0.	3.2427e-003
14196	10.136	3.6364	0.	3.2237e-003
14197	10.044	3.6364	5.e-002	5.3489
14198	10.044	3.9091	0.	3.5523e-003
14199	10.136	3.8182	0.	3.4841e-003
14200	10.044	3.8182	5.e-002	5.3443
14201	10.044	4.0909	0.	3.8985e-003
14202	10.136	4.	0.	3.7855e-003
14203	10.044	4.	5.e-002	5.3387
14204	10.044	4.2727	0.	4.2667e-003
14205	10.136	4.1818	0.	4.1121e-003
14206	10.044	4.1818	5.e-002	5.3323
14207	10.044	4.4545	0.	4.6429e-003
14208	10.136	4.3636	0.	4.4518e-003
14209	10.044	4.3636	5.e-002	5.325
14210	10.044	4.6364	0.	5.0083e-003
14211	10.136	4.5455	0.	4.7913e-003
14212	10.044	4.5455	5.e-002	5.3171
14213	10.044	4.8182	0.	5.3664e-003
14214	10.136	4.7273	0.	5.109e-003
14215	10.044	4.7273	5.e-002	5.3087
14216	10.044	5.	0.	5.656e-003
14217	10.136	4.9091	0.	5.4318e-003
14218	10.044	4.9091	5.e-002	5.2999
14219	10.044	5.1818	0.	6.1309e-003
14220	10.136	5.0909	0.	5.613e-003
14221	10.044	5.0909	5.e-002	5.2909
14222	10.044	5.3636	0.	5.8515e-003
14223	10.136	5.2727	0.	6.2741e-003
14224	10.044	5.2727	5.e-002	5.2808
14225	10.044	5.5455	0.	1.1056e-002
14226	10.136	5.4545	0.	5.0281e-003
14227	10.044	5.4545	5.e-002	5.2537
14228	10.044	5.7273	0.	3.2061
14229	10.136	5.6364	0.	0.80434
14230	10.044	5.6364	5.e-002	4.9621
14231	10.136	5.8182	0.	6.4472
14232	10.044	5.8182	5.e-002	0.65892
14233	10.044	5.9091	0.	4.6167
14234	10.228	0.27273	0.	3.9681
14235	10.32	0.18182	0.	7.057
14236	10.228	0.18182	5.e-002	0.58751
14237	10.228	9.0909e-002	0.	4.9902
14238	10.228	0.45455	0.	9.6749e-003
14239	10.32	0.36364	0.	1.6914
14240	10.228	0.36364	5.e-002	4.935
14241	10.228	0.63636	0.	5.3765e-003
14242	10.32	0.54545	0.	4.5364e-003
14243	10.228	0.54545	5.e-002	5.2285
14244	10.228	0.81818	0.	5.7585e-003
14245	10.32	0.72727	0.	5.8616e-003
14246	10.228	0.72727	5.e-002	5.2548
14247	10.228	1.	0.	5.3952e-003
14248	10.32	0.90909	0.	5.3381e-003
14249	10.228	0.90909	5.e-002	5.2637
14250	10.228	1.1818	0.	5.1799e-003
14251	10.32	1.0909	0.	5.2189e-003
14252	10.228	1.0909	5.e-002	5.2715
14253	10.228	1.3636	0.	4.8961e-003
14254	10.32	1.2727	0.	4.9642e-003
14255	10.228	1.2727	5.e-002	5.2789
14256	10.228	1.5455	0.	4.6024e-003
14257	10.32	1.4545	0.	4.7108e-003
14258	10.228	1.4545	5.e-002	5.2861
14259	10.228	1.7273	0.	4.2976e-003
14260	10.32	1.6364	0.	4.4363e-003
14261	10.228	1.6364	5.e-002	5.2927
14262	10.228	1.9091	0.	3.9982e-003
14263	10.32	1.8182	0.	4.1613e-003
14264	10.228	1.8182	5.e-002	5.2989
14265	10.228	2.0909	0.	3.7157e-003
14266	10.32	2.	0.	3.8954e-003
14267	10.228	2.	5.e-002	5.3043
14268	10.228	2.2727	0.	3.4624e-003
14269	10.32	2.1818	0.	3.6494e-003
14270	10.228	2.1818	5.e-002	5.3089
14271	10.228	2.4545	0.	3.252e-003
14272	10.32	2.3636	0.	3.4373e-003
14273	10.228	2.3636	5.e-002	5.3127
14274	10.228	2.6364	0.	3.0943e-003
14275	10.32	2.5455	0.	3.2689e-003
14276	10.228	2.5455	5.e-002	5.3156
14277	10.228	2.8182	0.	2.996e-003
14278	10.32	2.7273	0.	3.151e-003
14279	10.228	2.7273	5.e-002	5.3176
14280	10.228	3.	0.	2.9625e-003
14281	10.32	2.9091	0.	3.0907e-003
14282	10.228	2.9091	5.e-002	5.3186
14283	10.228	3.1818	0.	2.9959e-003
14284	10.32	3.0909	0.	3.0905e-003
14285	10.228	3.0909	5.e-002	5.3186
14286	10.228	3.3636	0.	3.0944e-003
14287	10.32	3.2727	0.	3.1511e-003
14288	10.228	3.2727	5.e-002	5.3176
14289	10.228	3.5455	0.	3.252e-003
14290	10.32	3.4545	0.	3.2692e-003
14291	10.228	3.4545	5.e-002	5.3156
14292	10.228	3.7273	0.	3.4618e-003
14293	10.32	3.6364	0.	3.4369e-003
14294	10.228	3.6364	5.e-002	5.3127
14295	10.228	3.9091	0.	3.715e-003
14296	10.32	3.8182	0.	3.6493e-003
14297	10.228	3.8182	5.e-002	5.3089
14298	10.228	4.0909	0.	3.9979e-003
14299	10.32	4.	0.	3.895e-003
14300	10.228	4.	5.e-002	5.3042
14301	10.228	4.2727	0.	4.2973e-003
14302	10.32	4.1818	0.	4.161e-003
14303	10.228	4.1818	5.e-002	5.2988
14304	10.228	4.4545	0.	4.6018e-003
14305	10.32	4.3636	0.	4.4362e-003
14306	10.228	4.3636	5.e-002	5.2927
14307	10.228	4.6364	0.	4.8952e-003
14308	10.32	4.5455	0.	4.7102e-003
14309	10.228	4.5455	5.e-002	5.2859
14310	10.228	4.8182	0.	5.1793e-003
14311	10.32	4.7273	0.	4.9633e-003
14312	10.228	4.7273	5.e-002	5.2788
14313	10.228	5.	0.	5.3945e-003
14314	10.32	4.9091	0.	5.2181e-003
14315	10.228	4.9091	5.e-002	5.2713
14316	10.228	5.1818	0.	5.757e-003
14317	10.32	5.0909	0.	5.3369e-003
14318	10.228	5.0909	5.e-002	5.2635
14319	10.228	5.3636	0.	5.3753e-003
14320	10.32	5.2727	0.	5.8605e-003
14321	10.228	5.2727	5.e-002	5.2546
14322	10.228	5.5455	0.	9.6739e-003
14323	10.32	5.4545	0.	4.5351e-003
14324	10.228	5.4545	5.e-002	5.2283
14325	10.228	5.7273	0.	3.9682
14326	10.32	5.6364	0.	1.6914
14327	10.228	5.6364	5.e-002	4.9348
14328	10.32	5.8182	0.	7.0571
14329	10.228	5.8182	5.e-002	0.58732
14330	10.228	5.9091	0.	4.9902
14331	10.412	0.27273	0.	4.701
14332	10.504	0.18182	0.	7.6452
14333	10.412	0.18182	5.e-002	0.52009
14334	10.412	9.0909e-002	0.	5.3513
14335	10.412	0.45455	0.	0.10115
14336	10.504	0.36364	0.	2.5416
14337	10.412	0.36364	5.e-002	4.9078
14338	10.412	0.63636	0.	5.0601e-003
14339	10.504	0.54545	0.	4.5009e-003
14340	10.412	0.54545	5.e-002	5.2029
14341	10.412	0.81818	0.	5.4695e-003
14342	10.504	0.72727	0.	5.627e-003
14343	10.412	0.72727	5.e-002	5.2285
14344	10.412	1.	0.	5.1799e-003
14345	10.504	0.90909	0.	5.1659e-003
14346	10.412	0.90909	5.e-002	5.2365
14347	10.412	1.1818	0.	5.0154e-003
14348	10.504	1.0909	0.	5.0728e-003
14349	10.412	1.0909	5.e-002	5.2432
14350	10.412	1.3636	0.	4.7871e-003
14351	10.504	1.2727	0.	4.8629e-003
14352	10.412	1.2727	5.e-002	5.2497
14353	10.412	1.5455	0.	4.55e-003
14354	10.504	1.4545	0.	4.6572e-003
14355	10.412	1.4545	5.e-002	5.2558
14356	10.412	1.7273	0.	4.3031e-003
14357	10.504	1.6364	0.	4.4329e-003
14358	10.412	1.6364	5.e-002	5.2615
14359	10.412	1.9091	0.	4.0599e-003
14360	10.504	1.8182	0.	4.2089e-003
14361	10.412	1.8182	5.e-002	5.2667
14362	10.412	2.0909	0.	3.829e-003
14363	10.504	2.	0.	3.9918e-003
14364	10.412	2.	5.e-002	5.2713
14365	10.412	2.2727	0.	3.623e-003
14366	10.504	2.1818	0.	3.7913e-003
14367	10.412	2.1818	5.e-002	5.2752
14368	10.412	2.4545	0.	3.4519e-003
14369	10.504	2.3636	0.	3.6186e-003
14370	10.412	2.3636	5.e-002	5.2784
14371	10.412	2.6364	0.	3.3228e-003
14372	10.504	2.5455	0.	3.4812e-003
14373	10.412	2.5455	5.e-002	5.2809
14374	10.412	2.8182	0.	3.2425e-003
14375	10.504	2.7273	0.	3.3853e-003
14376	10.412	2.7273	5.e-002	5.2825
14377	10.412	3.	0.	3.2153e-003
14378	10.504	2.9091	0.	3.3357e-003
14379	10.412	2.9091	5.e-002	5.2833
14380	10.412	3.1818	0.	3.2425e-003
14381	10.504	3.0909	0.	3.3356e-003
14382	10.412	3.0909	5.e-002	5.2833
14383	10.412	3.3636	0.	3.3231e-003
14384	10.504	3.2727	0.	3.3849e-003
14385	10.412	3.2727	5.e-002	5.2825
14386	10.412	3.5455	0.	3.4519e-003
14387	10.504	3.4545	0.	3.4816e-003
14388	10.412	3.4545	5.e-002	5.2809
14389	10.412	3.7273	0.	3.6231e-003
14390	10.504	3.6364	0.	3.6184e-003
14391	10.412	3.6364	5.e-002	5.2784
14392	10.412	3.9091	0.	3.8293e-003
14393	10.504	3.8182	0.	3.7913e-003
14394	10.412	3.8182	5.e-002	5.2752
14395	10.412	4.0909	0.	4.0594e-003
14396	10.504	4.	0.	3.9916e-003
14397	10.412	4.	5.e-002	5.2712
14398	10.412	4.2727	0.	4.3029e-003
14399	10.504	4.1818	0.	4.2084e-003
14400	10.412	4.1818	5.e-002	5.2666
14401	10.412	4.4545	0.	4.5499e-003
14402	10.504	4.3636	0.	4.4325e-003
14403	10.412	4.3636	5.e-002	5.2614
14404	10.412	4.6364	0.	4.7866e-003
14405	10.504	4.5455	0.	4.6568e-003
14406	10.412	4.5455	5.e-002	5.2557
14407	10.412	4.8182	0.	5.0143e-003
14408	10.504	4.7273	0.	4.8622e-003
14409	10.412	4.7273	5.e-002	5.2496
14410	10.412	5.	0.	5.1787e-003
14411	10.504	4.9091	0.	5.072e-003
14412	10.412	4.9091	5.e-002	5.2431
14413	10.412	5.1818	0.	5.4686e-003
14414	10.504	5.0909	0.	5.1642e-003
14415	10.412	5.0909	5.e-002	5.2363
14416	10.412	5.3636	0.	5.0589e-003
14417	10.504	5.2727	0.	5.6265e-003
14418	10.412	5.2727	5.e-002	5.2283
14419	10.412	5.5455	0.	0.10122
14420	10.504	5.4545	0.	4.4995e-003
14421	10.412	5.4545	5.e-002	5.2027
14422	10.412	5.7273	0.	4.7011
14423	10.504	5.6364	0.	2.5416
14424	10.412	5.6364	5.e-002	4.9076
14425	10.504	5.8182	0.	7.6453
14426	10.412	5.8182	5.e-002	0.51992
14427	10.412	5.9091	0.	5.3513
14428	10.595	0.27273	0.	5.4036
14429	10.687	0.18182	0.	8.2115
14430	10.595	0.18182	5.e-002	0.45671
14431	10.595	9.0909e-002	0.	5.6997
14432	10.595	0.45455	0.	1.0741
14433	10.687	0.36364	0.	3.3528
14434	10.595	0.36364	5.e-002	4.8806
14435	10.595	0.63636	0.	5.1581e-003
14436	10.687	0.54545	0.	9.8897e-003
14437	10.595	0.54545	5.e-002	5.1772
14438	10.595	0.81818	0.	5.3728e-003
14439	10.687	0.72727	0.	5.7712e-003
14440	10.595	0.72727	5.e-002	5.2022
14441	10.595	1.	0.	5.0876e-003
14442	10.687	0.90909	0.	5.1994e-003
14443	10.595	0.90909	5.e-002	5.2095
14444	10.595	1.1818	0.	4.939e-003
14445	10.687	1.0909	0.	5.0731e-003
14446	10.595	1.0909	5.e-002	5.2154
14447	10.595	1.3636	0.	4.7456e-003
14448	10.687	1.2727	0.	4.8765e-003
14449	10.595	1.2727	5.e-002	5.221
14450	10.595	1.5455	0.	4.5487e-003
14451	10.687	1.4545	0.	4.6967e-003
14452	10.595	1.4545	5.e-002	5.2263
14453	10.595	1.7273	0.	4.3443e-003
14454	10.687	1.6364	0.	4.5062e-003
14455	10.595	1.6364	5.e-002	5.2312
14456	10.595	1.9091	0.	4.1442e-003
14457	10.687	1.8182	0.	4.3196e-003
14458	10.595	1.8182	5.e-002	5.2356
14459	10.595	2.0909	0.	3.9557e-003
14460	10.687	2.	0.	4.14e-003
14461	10.595	2.	5.e-002	5.2396
14462	10.595	2.2727	0.	3.7873e-003
14463	10.687	2.1818	0.	3.9755e-003
14464	10.595	2.1818	5.e-002	5.2429
14465	10.595	2.4545	0.	3.6473e-003
14466	10.687	2.3636	0.	3.8332e-003
14467	10.595	2.3636	5.e-002	5.2456
14468	10.595	2.6364	0.	3.5424e-003
14469	10.687	2.5455	0.	3.7212e-003
14470	10.595	2.5455	5.e-002	5.2477
14471	10.595	2.8182	0.	3.4768e-003
14472	10.687	2.7273	0.	3.6427e-003
14473	10.595	2.7273	5.e-002	5.2491
14474	10.595	3.	0.	3.4542e-003
14475	10.687	2.9091	0.	3.6019e-003
14476	10.595	2.9091	5.e-002	5.2497
14477	10.595	3.1818	0.	3.4763e-003
14478	10.687	3.0909	0.	3.602e-003
14479	10.595	3.0909	5.e-002	5.2497
14480	10.595	3.3636	0.	3.5422e-003
14481	10.687	3.2727	0.	3.6422e-003
14482	10.595	3.2727	5.e-002	5.249
14483	10.595	3.5455	0.	3.6475e-003
14484	10.687	3.4545	0.	3.7212e-003
14485	10.595	3.4545	5.e-002	5.2477
14486	10.595	3.7273	0.	3.787e-003
14487	10.687	3.6364	0.	3.833e-003
14488	10.595	3.6364	5.e-002	5.2456
14489	10.595	3.9091	0.	3.9554e-003
14490	10.687	3.8182	0.	3.975e-003
14491	10.595	3.8182	5.e-002	5.2428
14492	10.595	4.0909	0.	4.144e-003
14493	10.687	4.	0.	4.1401e-003
14494	10.595	4.	5.e-002	5.2395
14495	10.595	4.2727	0.	4.3437e-003
14496	10.687	4.1818	0.	4.3189e-003
14497	10.595	4.1818	5.e-002	5.2355
14498	10.595	4.4545	0.	4.548e-003
14499	10.687	4.3636	0.	4.5058e-003
14500	10.595	4.3636	5.e-002	5.2311
14501	10.595	4.6364	0.	4.745e-003
14502	10.687	4.5455	0.	4.6963e-003
14503	10.595	4.5455	5.e-002	5.2262
14504	10.595	4.8182	0.	4.9386e-003
14505	10.687	4.7273	0.	4.8757e-003
14506	10.595	4.7273	5.e-002	5.2209
14507	10.595	5.	0.	5.0863e-003
14508	10.687	4.9091	0.	5.0723e-003
14509	10.595	4.9091	5.e-002	5.2152
14510	10.595	5.1818	0.	5.3714e-003
14511	10.687	5.0909	0.	5.1975e-003
14512	10.595	5.0909	5.e-002	5.2093
14513	10.595	5.3636	0.	5.1573e-003
14514	10.687	5.2727	0.	5.7706e-003
14515	10.595	5.2727	5.e-002	5.2021
14516	10.595	5.5455	0.	1.0742
14517	10.687	5.4545	0.	9.8912e-003
14518	10.595	5.4545	5.e-002	5.177
14519	10.595	5.7273	0.	5.4037
14520	10.687	5.6364	0.	3.3528
14521	10.595	5.6364	5.e-002	4.8804
14522	10.687	5.8182	0.	8.2115
14523	10.595	5.8182	5.e-002	0.45653
14524	10.595	5.9091	0.	5.6998
14525	10.779	0.27273	0.	6.076
14526	10.871	0.18182	0.	8.7559
14527	10.779	0.18182	5.e-002	0.39747
14528	10.779	9.0909e-002	0.	6.0356
14529	10.779	0.45455	0.	1.9985
14530	10.871	0.36364	0.	4.1251
14531	10.779	0.36364	5.e-002	4.8536
14532	10.779	0.63636	0.	6.5729e-003
14533	10.871	0.54545	0.	0.77463
14534	10.779	0.54545	5.e-002	5.1516
14535	10.779	0.81818	0.	5.6375e-003
14536	10.871	0.72727	0.	6.6981e-003
14537	10.779	0.72727	5.e-002	5.1761
14538	10.779	1.	0.	5.2196e-003
14539	10.871	0.90909	0.	5.5154e-003
14540	10.779	0.90909	5.e-002	5.1827
14541	10.779	1.1818	0.	5.0343e-003
14542	10.871	1.0909	0.	5.2456e-003
14543	10.779	1.0909	5.e-002	5.188
14544	10.779	1.3636	0.	4.8439e-003
14545	10.871	1.2727	0.	5.0135e-003
14546	10.779	1.2727	5.e-002	5.1929
14547	10.779	1.5455	0.	4.6657e-003
14548	10.871	1.4545	0.	4.831e-003
14549	10.779	1.4545	5.e-002	5.1975
14550	10.779	1.7273	0.	4.4894e-003
14551	10.871	1.6364	0.	4.6552e-003
14552	10.779	1.6364	5.e-002	5.2018
14553	10.779	1.9091	0.	4.3207e-003
14554	10.871	1.8182	0.	4.4913e-003
14555	10.779	1.8182	5.e-002	5.2056
14556	10.779	2.0909	0.	4.1631e-003
14557	10.871	2.	0.	4.3375e-003
14558	10.779	2.	5.e-002	5.209
14559	10.779	2.2727	0.	4.0232e-003
14560	10.871	2.1818	0.	4.1987e-003
14561	10.779	2.1818	5.e-002	5.2118
14562	10.779	2.4545	0.	3.9077e-003
14563	10.871	2.3636	0.	4.0796e-003
14564	10.779	2.3636	5.e-002	5.2142
14565	10.779	2.6364	0.	3.8214e-003
14566	10.871	2.5455	0.	3.987e-003
14567	10.779	2.5455	5.e-002	5.216
14568	10.779	2.8182	0.	3.7673e-003
14569	10.871	2.7273	0.	3.9218e-003
14570	10.779	2.7273	5.e-002	5.2171
14571	10.779	3.	0.	3.749e-003
14572	10.871	2.9091	0.	3.8879e-003
14573	10.779	2.9091	5.e-002	5.2177
14574	10.779	3.1818	0.	3.7673e-003
14575	10.871	3.0909	0.	3.8881e-003
14576	10.779	3.0909	5.e-002	5.2177
14577	10.779	3.3636	0.	3.8211e-003
14578	10.871	3.2727	0.	3.9213e-003
14579	10.779	3.2727	5.e-002	5.2171
14580	10.779	3.5455	0.	3.9074e-003
14581	10.871	3.4545	0.	3.9867e-003
14582	10.779	3.4545	5.e-002	5.2159
14583	10.779	3.7273	0.	4.0228e-003
14584	10.871	3.6364	0.	4.0794e-003
14585	10.779	3.6364	5.e-002	5.2141
14586	10.779	3.9091	0.	4.1631e-003
14587	10.871	3.8182	0.	4.1982e-003
14588	10.779	3.8182	5.e-002	5.2118
14589	10.779	4.0909	0.	4.3202e-003
14590	10.871	4.	0.	4.3375e-003
14591	10.779	4.	5.e-002	5.2089
14592	10.779	4.2727	0.	4.4889e-003
14593	10.871	4.1818	0.	4.4905e-003
14594	10.779	4.1818	5.e-002	5.2055
14595	10.779	4.4545	0.	4.6656e-003
14596	10.871	4.3636	0.	4.6551e-003
14597	10.779	4.3636	5.e-002	5.2017
14598	10.779	4.6364	0.	4.8434e-003
14599	10.871	4.5455	0.	4.8308e-003
14600	10.779	4.5455	5.e-002	5.1974
14601	10.779	4.8182	0.	5.0332e-003
14602	10.871	4.7273	0.	5.013e-003
14603	10.779	4.7273	5.e-002	5.1928
14604	10.779	5.	0.	5.2182e-003
14605	10.871	4.9091	0.	5.2447e-003
14606	10.779	4.9091	5.e-002	5.1878
14607	10.779	5.1818	0.	5.6364e-003
14608	10.871	5.0909	0.	5.5133e-003
14609	10.779	5.0909	5.e-002	5.1826
14610	10.779	5.3636	0.	6.573e-003
14611	10.871	5.2727	0.	6.6974e-003
14612	10.779	5.2727	5.e-002	5.176
14613	10.779	5.5455	0.	1.9985
14614	10.871	5.4545	0.	0.77471
14615	10.779	5.4545	5.e-002	5.1514
14616	10.779	5.7273	0.	6.076
14617	10.871	5.6364	0.	4.1252
14618	10.779	5.6364	5.e-002	4.8534
14619	10.871	5.8182	0.	8.756
14620	10.779	5.8182	5.e-002	0.3973
14621	10.779	5.9091	0.	6.0357
14622	10.963	0.27273	0.	6.7182
14623	11.054	0.18182	0.	9.279
14624	10.963	0.18182	5.e-002	0.34226
14625	10.963	9.0909e-002	0.	6.3591
14626	10.963	0.45455	0.	2.875
14627	11.054	0.36364	0.	4.8594
14628	10.963	0.36364	5.e-002	4.8271
14629	10.963	0.63636	0.	2.2226e-002
14630	11.054	0.54545	0.	1.746
14631	10.963	0.54545	5.e-002	5.1263
14632	10.963	0.81818	0.	6.4549e-003
14633	11.054	0.72727	0.	1.0312e-002
14634	10.963	0.72727	5.e-002	5.1504
14635	10.963	1.	0.	5.5688e-003
14636	11.054	0.90909	0.	6.2625e-003
14637	10.963	0.90909	5.e-002	5.1564
14638	10.963	1.1818	0.	5.2508e-003
14639	11.054	1.0909	0.	5.6068e-003
14640	10.963	1.0909	5.e-002	5.1611
14641	10.963	1.3636	0.	5.0198e-003
14642	11.054	1.2727	0.	5.2576e-003
14643	10.963	1.2727	5.e-002	5.1654
14644	10.963	1.5455	0.	4.8344e-003
14645	11.054	1.4545	0.	5.031e-003
14646	10.963	1.4545	5.e-002	5.1695
14647	10.963	1.7273	0.	4.6669e-003
14648	11.054	1.6364	0.	4.8454e-003
14649	10.963	1.6364	5.e-002	5.1732
14650	10.963	1.9091	0.	4.5149e-003
14651	11.054	1.8182	0.	4.6858e-003
14652	10.963	1.8182	5.e-002	5.1766
14653	10.963	2.0909	0.	4.3776e-003
14654	11.054	2.	0.	4.5453e-003
14655	10.963	2.	5.e-002	5.1795
14656	10.963	2.2727	0.	4.2579e-003
14657	11.054	2.1818	0.	4.4217e-003
14658	10.963	2.1818	5.e-002	5.182
14659	10.963	2.4545	0.	4.1604e-003
14660	11.054	2.3636	0.	4.3183e-003
14661	10.963	2.3636	5.e-002	5.184
14662	10.963	2.6364	0.	4.0881e-003
14663	11.054	2.5455	0.	4.239e-003
14664	10.963	2.5455	5.e-002	5.1856
14665	10.963	2.8182	0.	4.0426e-003
14666	11.054	2.7273	0.	4.1837e-003
14667	10.963	2.7273	5.e-002	5.1866
14668	10.963	3.	0.	4.027e-003
14669	11.054	2.9091	0.	4.1548e-003
14670	10.963	2.9091	5.e-002	5.1871
14671	10.963	3.1818	0.	4.0423e-003
14672	11.054	3.0909	0.	4.1551e-003
14673	10.963	3.0909	5.e-002	5.1871
14674	10.963	3.3636	0.	4.0876e-003
14675	11.054	3.2727	0.	4.1833e-003
14676	10.963	3.2727	5.e-002	5.1865
14677	10.963	3.5455	0.	4.1602e-003
14678	11.054	3.4545	0.	4.2391e-003
14679	10.963	3.4545	5.e-002	5.1855
14680	10.963	3.7273	0.	4.2575e-003
14681	11.054	3.6364	0.	4.3184e-003
14682	10.963	3.6364	5.e-002	5.184
14683	10.963	3.9091	0.	4.3771e-003
14684	11.054	3.8182	0.	4.4212e-003
14685	10.963	3.8182	5.e-002	5.182
14686	10.963	4.0909	0.	4.5145e-003
14687	11.054	4.	0.	4.5449e-003
14688	10.963	4.	5.e-002	5.1794
14689	10.963	4.2727	0.	4.6665e-003
14690	11.054	4.1818	0.	4.6854e-003
14691	10.963	4.1818	5.e-002	5.1765
14692	10.963	4.4545	0.	4.8341e-003
14693	11.054	4.3636	0.	4.845e-003
14694	10.963	4.3636	5.e-002	5.1731
14695	10.963	4.6364	0.	5.0196e-003
14696	11.054	4.5455	0.	5.0312e-003
14697	10.963	4.5455	5.e-002	5.1694
14698	10.963	4.8182	0.	5.2505e-003
14699	11.054	4.7273	0.	5.2567e-003
14700	10.963	4.7273	5.e-002	5.1653
14701	10.963	5.	0.	5.5671e-003
14702	11.054	4.9091	0.	5.6065e-003
14703	10.963	4.9091	5.e-002	5.161
14704	10.963	5.1818	0.	6.453e-003
14705	11.054	5.0909	0.	6.2601e-003
14706	10.963	5.0909	5.e-002	5.1563
14707	10.963	5.3636	0.	2.223e-002
14708	11.054	5.2727	0.	1.0311e-002
14709	10.963	5.2727	5.e-002	5.1502
14710	10.963	5.5455	0.	2.875
14711	11.054	5.4545	0.	1.7461
14712	10.963	5.4545	5.e-002	5.1261
14713	10.963	5.7273	0.	6.7183
14714	11.054	5.6364	0.	4.8595
14715	10.963	5.6364	5.e-002	4.8269
14716	11.054	5.8182	0.	9.279
14717	10.963	5.8182	5.e-002	0.34211
14718	10.963	5.9091	0.	6.3591
14719	11.146	0.27273	0.	7.3313
14720	11.238	0.18182	0.	9.7812
14721	11.146	0.18182	5.e-002	0.29096
14722	11.146	9.0909e-002	0.	6.6705
14723	11.146	0.45455	0.	3.7053
14724	11.238	0.36364	0.	5.5571
14725	11.146	0.36364	5.e-002	4.8011
14726	11.146	0.63636	0.	0.79941
14727	11.238	0.54545	0.	2.6648
14728	11.146	0.54545	5.e-002	5.1012
14729	11.146	0.81818	0.	8.7202e-003
14730	11.238	0.72727	0.	7.449e-002
14731	11.146	0.72727	5.e-002	5.125
14732	11.146	1.	0.	6.2787e-003
14733	11.238	0.90909	0.	7.9789e-003
14734	11.146	0.90909	5.e-002	5.1306
14735	11.146	1.1818	0.	5.6355e-003
14736	11.238	1.0909	0.	6.2768e-003
14737	11.146	1.0909	5.e-002	5.1347
14738	11.146	1.3636	0.	5.2893e-003
14739	11.238	1.2727	0.	5.65e-003
14740	11.146	1.2727	5.e-002	5.1386
14741	11.146	1.5455	0.	5.0577e-003
14742	11.238	1.4545	0.	5.3147e-003
14743	11.146	1.4545	5.e-002	5.1422
14744	11.146	1.7273	0.	4.8756e-003
14745	11.238	1.6364	0.	5.0827e-003
14746	11.146	1.6364	5.e-002	5.1455
14747	11.146	1.9091	0.	4.7242e-003
14748	11.238	1.8182	0.	4.9053e-003
14749	11.146	1.8182	5.e-002	5.1484
14750	11.146	2.0909	0.	4.5948e-003
14751	11.238	2.	0.	4.7622e-003
14752	11.146	2.	5.e-002	5.151
14753	11.146	2.2727	0.	4.4855e-003
14754	11.238	2.1818	0.	4.6425e-003
14755	11.146	2.1818	5.e-002	5.1532
14756	11.146	2.4545	0.	4.3991e-003
14757	11.238	2.3636	0.	4.5468e-003
14758	11.146	2.3636	5.e-002	5.1549
14759	11.146	2.6364	0.	4.3358e-003
14760	11.238	2.5455	0.	4.4746e-003
14761	11.146	2.5455	5.e-002	5.1563
14762	11.146	2.8182	0.	4.2965e-003
14763	11.238	2.7273	0.	4.4249e-003
14764	11.146	2.7273	5.e-002	5.1572
14765	11.146	3.	0.	4.2833e-003
14766	11.238	2.9091	0.	4.3995e-003
14767	11.146	2.9091	5.e-002	5.1576
14768	11.146	3.1818	0.	4.2967e-003
14769	11.238	3.0909	0.	4.3995e-003
14770	11.146	3.0909	5.e-002	5.1576
14771	11.146	3.3636	0.	4.336e-003
14772	11.238	3.2727	0.	4.4254e-003
14773	11.146	3.2727	5.e-002	5.1571
14774	11.146	3.5455	0.	4.3994e-003
14775	11.238	3.4545	0.	4.4743e-003
14776	11.146	3.4545	5.e-002	5.1562
14777	11.146	3.7273	0.	4.4855e-003
14778	11.238	3.6364	0.	4.5464e-003
14779	11.146	3.6364	5.e-002	5.1549
14780	11.146	3.9091	0.	4.5943e-003
14781	11.238	3.8182	0.	4.6423e-003
14782	11.146	3.8182	5.e-002	5.1531
14783	11.146	4.0909	0.	4.7237e-003
14784	11.238	4.	0.	4.7615e-003
14785	11.146	4.	5.e-002	5.1509
14786	11.146	4.2727	0.	4.8752e-003
14787	11.238	4.1818	0.	4.9054e-003
14788	11.146	4.1818	5.e-002	5.1483
14789	11.146	4.4545	0.	5.0576e-003
14790	11.238	4.3636	0.	5.0818e-003
14791	11.146	4.3636	5.e-002	5.1454
14792	11.146	4.6364	0.	5.2887e-003
14793	11.238	4.5455	0.	5.3145e-003
14794	11.146	4.5455	5.e-002	5.1421
14795	11.146	4.8182	0.	5.6346e-003
14796	11.238	4.7273	0.	5.6495e-003
14797	11.146	4.7273	5.e-002	5.1385
14798	11.146	5.	0.	6.2777e-003
14799	11.238	4.9091	0.	6.2756e-003
14800	11.146	4.9091	5.e-002	5.1346
14801	11.146	5.1818	0.	8.719e-003
14802	11.238	5.0909	0.	7.9779e-003
14803	11.146	5.0909	5.e-002	5.1304
14804	11.146	5.3636	0.	0.79949
14805	11.238	5.2727	0.	7.452e-002
14806	11.146	5.2727	5.e-002	5.1248
14807	11.146	5.5455	0.	3.7054
14808	11.238	5.4545	0.	2.6649
14809	11.146	5.4545	5.e-002	5.1011
14810	11.146	5.7273	0.	7.3314
14811	11.238	5.6364	0.	5.5572
14812	11.146	5.6364	5.e-002	4.8009
14813	11.238	5.8182	0.	9.7813
14814	11.146	5.8182	5.e-002	0.2908
14815	11.146	5.9091	0.	6.6705
14816	11.33	0.27273	0.	7.9164
14817	11.422	0.18182	0.	10.264
14818	11.33	0.18182	5.e-002	0.2434
14819	11.33	9.0909e-002	0.	6.9702
14820	11.33	0.45455	0.	4.4915
14821	11.422	0.36364	0.	6.2197
14822	11.33	0.36364	5.e-002	4.7755
14823	11.33	0.63636	0.	1.7937
14824	11.422	0.54545	0.	3.5328
14825	11.33	0.54545	5.e-002	5.0765
14826	11.33	0.81818	0.	1.8486e-002
14827	11.422	0.72727	0.	1.0202
14828	11.33	0.72727	5.e-002	5.0999
14829	11.33	1.	0.	7.7405e-003
14830	11.422	0.90909	0.	1.3002e-002
14831	11.33	0.90909	5.e-002	5.1051
14832	11.33	1.1818	0.	6.2925e-003
14833	11.422	1.0909	0.	7.5349e-003
14834	11.33	1.0909	5.e-002	5.1089
14835	11.33	1.3636	0.	5.6939e-003
14836	11.422	1.2727	0.	6.2664e-003
14837	11.33	1.2727	5.e-002	5.1124
14838	11.33	1.5455	0.	5.3562e-003
14839	11.422	1.4545	0.	5.7027e-003
14840	11.33	1.4545	5.e-002	5.1156
14841	11.33	1.7273	0.	5.1249e-003
14842	11.422	1.6364	0.	5.3678e-003
14843	11.33	1.6364	5.e-002	5.1185
14844	11.33	1.9091	0.	4.9522e-003
14845	11.422	1.8182	0.	5.1413e-003
14846	11.33	1.8182	5.e-002	5.1211
14847	11.33	2.0909	0.	4.816e-003
14848	11.422	2.	0.	4.9744e-003
14849	11.33	2.	5.e-002	5.1233
14850	11.33	2.2727	0.	4.7077e-003
14851	11.422	2.1818	0.	4.8454e-003
14852	11.33	2.1818	5.e-002	5.1253
14853	11.33	2.4545	0.	4.6248e-003
14854	11.422	2.3636	0.	4.747e-003
14855	11.33	2.3636	5.e-002	5.1268
14856	11.33	2.6364	0.	4.565e-003
14857	11.422	2.5455	0.	4.6754e-003
14858	11.33	2.5455	5.e-002	5.128
14859	11.33	2.8182	0.	4.5286e-003
14860	11.422	2.7273	0.	4.6275e-003
14861	11.33	2.7273	5.e-002	5.1288
14862	11.33	3.	0.	4.5162e-003
14863	11.422	2.9091	0.	4.603e-003
14864	11.33	2.9091	5.e-002	5.1291
14865	11.33	3.1818	0.	4.5289e-003
14866	11.422	3.0909	0.	4.6028e-003
14867	11.33	3.0909	5.e-002	5.1291
14868	11.33	3.3636	0.	4.565e-003
14869	11.422	3.2727	0.	4.6279e-003
14870	11.33	3.2727	5.e-002	5.1287
14871	11.33	3.5455	0.	4.6237e-003
14872	11.422	3.4545	0.	4.6752e-003
14873	11.33	3.4545	5.e-002	5.128
14874	11.33	3.7273	0.	4.7072e-003
14875	11.422	3.6364	0.	4.7467e-003
14876	11.33	3.6364	5.e-002	5.1268
14877	11.33	3.9091	0.	4.8156e-003
14878	11.422	3.8182	0.	4.8452e-003
14879	11.33	3.8182	5.e-002	5.1252
14880	11.33	4.0909	0.	4.9522e-003
14881	11.422	4.	0.	4.9736e-003
14882	11.33	4.	5.e-002	5.1233
14883	11.33	4.2727	0.	5.1246e-003
14884	11.422	4.1818	0.	5.1415e-003
14885	11.33	4.1818	5.e-002	5.121
14886	11.33	4.4545	0.	5.3552e-003
14887	11.422	4.3636	0.	5.3671e-003
14888	11.33	4.3636	5.e-002	5.1184
14889	11.33	4.6364	0.	5.6937e-003
14890	11.422	4.5455	0.	5.7018e-003
14891	11.33	4.5455	5.e-002	5.1155
14892	11.33	4.8182	0.	6.2915e-003
14893	11.422	4.7273	0.	6.2666e-003
14894	11.33	4.7273	5.e-002	5.1123
14895	11.33	5.	0.	7.7391e-003
14896	11.422	4.9091	0.	7.5331e-003
14897	11.33	4.9091	5.e-002	5.1088
14898	11.33	5.1818	0.	1.8486e-002
14899	11.422	5.0909	0.	1.3002e-002
14900	11.33	5.0909	5.e-002	5.105
14901	11.33	5.3636	0.	1.7937
14902	11.422	5.2727	0.	1.0203
14903	11.33	5.2727	5.e-002	5.0998
14904	11.33	5.5455	0.	4.4916
14905	11.422	5.4545	0.	3.5329
14906	11.33	5.4545	5.e-002	5.0764
14907	11.33	5.7273	0.	7.9165
14908	11.422	5.6364	0.	6.2197
14909	11.33	5.6364	5.e-002	4.7753
14910	11.422	5.8182	0.	10.264
14911	11.33	5.8182	5.e-002	0.24324
14912	11.33	5.9091	0.	6.9703
14913	11.513	0.27273	0.	8.4746
14914	11.605	0.18182	0.	10.727
14915	11.513	0.18182	5.e-002	0.19932
14916	11.513	9.0909e-002	0.	7.2589
14917	11.513	0.45455	0.	5.2357
14918	11.605	0.36364	0.	6.849
14919	11.513	0.36364	5.e-002	4.7504
14920	11.513	0.63636	0.	2.7333
14921	11.605	0.54545	0.	4.3525
14922	11.513	0.54545	5.e-002	5.052
14923	11.513	0.81818	0.	0.39468
14924	11.605	0.72727	0.	2.0232
14925	11.513	0.72727	5.e-002	5.0752
14926	11.513	1.	0.	1.1308e-002
14927	11.605	0.90909	0.	6.016e-002
14928	11.513	0.90909	5.e-002	5.08
14929	11.513	1.1818	0.	7.4372e-003
14930	11.605	1.0909	0.	1.0336e-002
14931	11.513	1.0909	5.e-002	5.0834
14932	11.513	1.3636	0.	6.2844e-003
14933	11.605	1.2727	0.	7.3341e-003
14934	11.513	1.2727	5.e-002	5.0866
14935	11.513	1.5455	0.	5.7303e-003
14936	11.605	1.4545	0.	6.2849e-003
14937	11.513	1.4545	5.e-002	5.0895
14938	11.513	1.7273	0.	5.3974e-003
14939	11.605	1.6364	0.	5.7486e-003
14940	11.513	1.6364	5.e-002	5.092
14941	11.513	1.9091	0.	5.1731e-003
14942	11.605	1.8182	0.	5.4221e-003
14943	11.513	1.8182	5.e-002	5.0944
14944	11.513	2.0909	0.	5.0103e-003
14945	11.605	2.	0.	5.2028e-003
14946	11.513	2.	5.e-002	5.0964
14947	11.513	2.2727	0.	4.8887e-003
14948	11.605	2.1818	0.	5.0463e-003
14949	11.513	2.1818	5.e-002	5.0981
14950	11.513	2.4545	0.	4.7999e-003
14951	11.605	2.3636	0.	4.9324e-003
14952	11.513	2.3636	5.e-002	5.0995
14953	11.513	2.6364	0.	4.7389e-003
14954	11.605	2.5455	0.	4.8534e-003
14955	11.513	2.5455	5.e-002	5.1005
14956	11.513	2.8182	0.	4.7023e-003
14957	11.605	2.7273	0.	4.8018e-003
14958	11.513	2.7273	5.e-002	5.1012
14959	11.513	3.	0.	4.6898e-003
14960	11.605	2.9091	0.	4.7763e-003
14961	11.513	2.9091	5.e-002	5.1015
14962	11.513	3.1818	0.	4.7023e-003
14963	11.605	3.0909	0.	4.7764e-003
14964	11.513	3.0909	5.e-002	5.1015
14965	11.513	3.3636	0.	4.7392e-003
14966	11.605	3.2727	0.	4.8019e-003
14967	11.513	3.2727	5.e-002	5.1012
14968	11.513	3.5455	0.	4.8005e-003
14969	11.605	3.4545	0.	4.8537e-003
14970	11.513	3.4545	5.e-002	5.1005
14971	11.513	3.7273	0.	4.8888e-003
14972	11.605	3.6364	0.	4.9321e-003
14973	11.513	3.6364	5.e-002	5.0994
14974	11.513	3.9091	0.	5.0097e-003
14975	11.605	3.8182	0.	5.0456e-003
14976	11.513	3.8182	5.e-002	5.0981
14977	11.513	4.0909	0.	5.1725e-003
14978	11.605	4.	0.	5.2023e-003
14979	11.513	4.	5.e-002	5.0963
14980	11.513	4.2727	0.	5.3973e-003
14981	11.605	4.1818	0.	5.4223e-003
14982	11.513	4.1818	5.e-002	5.0943
14983	11.513	4.4545	0.	5.7297e-003
14984	11.605	4.3636	0.	5.7481e-003
14985	11.513	4.3636	5.e-002	5.092
14986	11.513	4.6364	0.	6.2839e-003
14987	11.605	4.5455	0.	6.2842e-003
14988	11.513	4.5455	5.e-002	5.0893
14989	11.513	4.8182	0.	7.4366e-003
14990	11.605	4.7273	0.	7.3334e-003
14991	11.513	4.7273	5.e-002	5.0865
14992	11.513	5.	0.	1.1307e-002
14993	11.605	4.9091	0.	1.0335e-002
14994	11.513	4.9091	5.e-002	5.0833
14995	11.513	5.1818	0.	0.39477
14996	11.605	5.0909	0.	6.0174e-002
14997	11.513	5.0909	5.e-002	5.0799
14998	11.513	5.3636	0.	2.7334
14999	11.605	5.2727	0.	2.0233
15000	11.513	5.2727	5.e-002	5.0751
15001	11.513	5.5455	0.	5.2358
15002	11.605	5.4545	0.	4.3526
15003	11.513	5.4545	5.e-002	5.0519
15004	11.513	5.7273	0.	8.4747
15005	11.605	5.6364	0.	6.849
15006	11.513	5.6364	5.e-002	4.7502
15007	11.605	5.8182	0.	10.727
15008	11.513	5.8182	5.e-002	0.19918
15009	11.513	5.9091	0.	7.259
15010	11.697	0.27273	0.	9.0076
15011	11.789	0.18182	0.	11.173
15012	11.697	0.18182	5.e-002	0.15853
15013	11.697	9.0909e-002	0.	7.5372
15014	11.697	0.45455	0.	5.9403
15015	11.789	0.36364	0.	7.447
15016	11.697	0.36364	5.e-002	4.7256
15017	11.697	0.63636	0.	3.6192
15018	11.789	0.54545	0.	5.1269
15019	11.697	0.54545	5.e-002	5.0278
15020	11.697	0.81818	0.	1.435
15021	11.789	0.72727	0.	2.97
15022	11.697	0.72727	5.e-002	5.0507
15023	11.697	1.	0.	2.7693e-002
15024	11.789	0.90909	0.	0.9242
15025	11.697	0.90909	5.e-002	5.0552
15026	11.697	1.1818	0.	9.8694e-003
15027	11.789	1.0909	0.	1.9903e-002
15028	11.697	1.0909	5.e-002	5.0584
15029	11.697	1.3636	0.	7.315e-003
15030	11.789	1.2727	0.	9.5203e-003
15031	11.697	1.2727	5.e-002	5.0612
15032	11.697	1.5455	0.	6.3159e-003
15033	11.789	1.4545	0.	7.3061e-003
15034	11.697	1.4545	5.e-002	5.0638
15035	11.697	1.7273	0.	5.7869e-003
15036	11.789	1.6364	0.	6.3614e-003
15037	11.697	1.6364	5.e-002	5.0661
15038	11.697	1.9091	0.	5.4619e-003
15039	11.789	1.8182	0.	5.8466e-003
15040	11.697	1.8182	5.e-002	5.0682
15041	11.697	2.0909	0.	5.2455e-003
15042	11.789	2.	0.	5.5281e-003
15043	11.697	2.	5.e-002	5.07
15044	11.697	2.2727	0.	5.094e-003
15045	11.789	2.1818	0.	5.3164e-003
15046	11.697	2.1818	5.e-002	5.0715
15047	11.697	2.4545	0.	4.9877e-003
15048	11.789	2.3636	0.	5.1709e-003
15049	11.697	2.3636	5.e-002	5.0727
15050	11.697	2.6364	0.	4.9166e-003
15051	11.789	2.5455	0.	5.0734e-003
15052	11.697	2.5455	5.e-002	5.0737
15053	11.697	2.8182	0.	4.8753e-003
15054	11.789	2.7273	0.	5.0117e-003
15055	11.697	2.7273	5.e-002	5.0743
15056	11.697	3.	0.	4.8622e-003
15057	11.789	2.9091	0.	4.9823e-003
15058	11.697	2.9091	5.e-002	5.0746
15059	11.697	3.1818	0.	4.8756e-003
15060	11.789	3.0909	0.	4.9823e-003
15061	11.697	3.0909	5.e-002	5.0746
15062	11.697	3.3636	0.	4.9168e-003
15063	11.789	3.2727	0.	5.0119e-003
15064	11.697	3.2727	5.e-002	5.0742
15065	11.697	3.5455	0.	4.9871e-003
15066	11.789	3.4545	0.	5.0732e-003
15067	11.697	3.4545	5.e-002	5.0736
15068	11.697	3.7273	0.	5.0928e-003
15069	11.789	3.6364	0.	5.1704e-003
15070	11.697	3.6364	5.e-002	5.0727
15071	11.697	3.9091	0.	5.2449e-003
15072	11.789	3.8182	0.	5.3161e-003
15073	11.697	3.8182	5.e-002	5.0715
15074	11.697	4.0909	0.	5.4622e-003
15075	11.789	4.	0.	5.528e-003
15076	11.697	4.	5.e-002	5.0699
15077	11.697	4.2727	0.	5.7868e-003
15078	11.789	4.1818	0.	5.8464e-003
15079	11.697	4.1818	5.e-002	5.0681
15080	11.697	4.4545	0.	6.3154e-003
15081	11.789	4.3636	0.	6.361e-003
15082	11.697	4.3636	5.e-002	5.066
15083	11.697	4.6364	0.	7.314e-003
15084	11.789	4.5455	0.	7.3057e-003
15085	11.697	4.5455	5.e-002	5.0637
15086	11.697	4.8182	0.	9.8686e-003
15087	11.789	4.7273	0.	9.5198e-003
15088	11.697	4.7273	5.e-002	5.061
15089	11.697	5.	0.	2.7694e-002
15090	11.789	4.9091	0.	1.9903e-002
15091	11.697	4.9091	5.e-002	5.0582
15092	11.697	5.1818	0.	1.4351
15093	11.789	5.0909	0.	0.9243
15094	11.697	5.0909	5.e-002	5.0551
15095	11.697	5.3636	0.	3.6193
15096	11.789	5.2727	0.	2.9701
15097	11.697	5.2727	5.e-002	5.0505
15098	11.697	5.5455	0.	5.9404
15099	11.789	5.4545	0.	5.127
15100	11.697	5.4545	5.e-002	5.0276
15101	11.697	5.7273	0.	9.0076
15102	11.789	5.6364	0.	7.4471
15103	11.697	5.6364	5.e-002	4.7254
15104	11.789	5.8182	0.	11.173
15105	11.697	5.8182	5.e-002	0.15838
15106	11.697	5.9091	0.	7.5372
15107	11.881	0.27273	0.	9.5169
15108	11.973	0.18182	0.	11.602
15109	11.881	0.18182	5.e-002	0.12092
15110	11.881	9.0909e-002	0.	7.8058
15111	11.881	0.45455	0.	6.6078
15112	11.973	0.36364	0.	8.0157
15113	11.881	0.36364	5.e-002	4.7012
15114	11.881	0.63636	0.	4.4548
15115	11.973	0.54545	0.	5.8588
15116	11.881	0.54545	5.e-002	5.0039
15117	11.881	0.81818	0.	2.4317
15118	11.973	0.72727	0.	3.862
15119	11.881	0.72727	5.e-002	5.0266
15120	11.881	1.	0.	0.53461
15121	11.973	0.90909	0.	1.9639
15122	11.881	0.90909	5.e-002	5.0308
15123	11.881	1.1818	0.	1.7104e-002
15124	11.973	1.0909	0.	0.23658
15125	11.881	1.0909	5.e-002	5.0337
15126	11.881	1.3636	0.	9.3949e-003
15127	11.973	1.2727	0.	1.5373e-002
15128	11.881	1.2727	5.e-002	5.0363
15129	11.881	1.5455	0.	7.3553e-003
15130	11.973	1.4545	0.	9.2568e-003
15131	11.881	1.4545	5.e-002	5.0386
15132	11.881	1.7273	0.	6.4353e-003
15133	11.973	1.6364	0.	7.3745e-003
15134	11.881	1.6364	5.e-002	5.0407
15135	11.881	1.9091	0.	5.924e-003
15136	11.973	1.8182	0.	6.4874e-003
15137	11.881	1.8182	5.e-002	5.0426
15138	11.881	2.0909	0.	5.606e-003
15139	11.973	2.	0.	5.9854e-003
15140	11.881	2.	5.e-002	5.0442
15141	11.881	2.2727	0.	5.3969e-003
15142	11.973	2.1818	0.	5.6725e-003
15143	11.881	2.1818	5.e-002	5.0456
15144	11.881	2.4545	0.	5.2575e-003
15145	11.973	2.3636	0.	5.4696e-003
15146	11.881	2.3636	5.e-002	5.0467
15147	11.881	2.6364	0.	5.1676e-003
15148	11.973	2.5455	0.	5.3383e-003
15149	11.881	2.5455	5.e-002	5.0475
15150	11.881	2.8182	0.	5.1167e-003
15151	11.973	2.7273	0.	5.258e-003
15152	11.881	2.7273	5.e-002	5.048
15153	11.881	3.	0.	5.1e-003
15154	11.973	2.9091	0.	5.2196e-003
15155	11.881	2.9091	5.e-002	5.0483
15156	11.881	3.1818	0.	5.1166e-003
15157	11.973	3.0909	0.	5.2199e-003
15158	11.881	3.0909	5.e-002	5.0483
15159	11.881	3.3636	0.	5.1674e-003
15160	11.973	3.2727	0.	5.2579e-003
15161	11.881	3.2727	5.e-002	5.048
15162	11.881	3.5455	0.	5.2574e-003
15163	11.973	3.4545	0.	5.3381e-003
15164	11.881	3.4545	5.e-002	5.0475
15165	11.881	3.7273	0.	5.3973e-003
15166	11.973	3.6364	0.	5.4694e-003
15167	11.881	3.6364	5.e-002	5.0466
15168	11.881	3.9091	0.	5.6063e-003
15169	11.973	3.8182	0.	5.6729e-003
15170	11.881	3.8182	5.e-002	5.0455
15171	11.881	4.0909	0.	5.9235e-003
15172	11.973	4.	0.	5.9854e-003
15173	11.881	4.	5.e-002	5.0441
15174	11.881	4.2727	0.	6.4348e-003
15175	11.973	4.1818	0.	6.4866e-003
15176	11.881	4.1818	5.e-002	5.0425
15177	11.881	4.4545	0.	7.355e-003
15178	11.973	4.3636	0.	7.3739e-003
15179	11.881	4.3636	5.e-002	5.0406
15180	11.881	4.6364	0.	9.395e-003
15181	11.973	4.5455	0.	9.2562e-003
15182	11.881	4.5455	5.e-002	5.0385
15183	11.881	4.8182	0.	1.7104e-002
15184	11.973	4.7273	0.	1.5374e-002
15185	11.881	4.7273	5.e-002	5.0361
15186	11.881	5.	0.	0.5347
15187	11.973	4.9091	0.	0.23665
15188	11.881	4.9091	5.e-002	5.0335
15189	11.881	5.1818	0.	2.4318
15190	11.973	5.0909	0.	1.964
15191	11.881	5.0909	5.e-002	5.0306
15192	11.881	5.3636	0.	4.4549
15193	11.973	5.2727	0.	3.8621
15194	11.881	5.2727	5.e-002	5.0264
15195	11.881	5.5455	0.	6.6079
15196	11.973	5.4545	0.	5.8589
15197	11.881	5.4545	5.e-002	5.0037
15198	11.881	5.7273	0.	9.517
15199	11.973	5.6364	0.	8.0158
15200	11.881	5.6364	5.e-002	4.7011
15201	11.973	5.8182	0.	11.602
15202	11.881	5.8182	5.e-002	0.12078
15203	11.881	5.9091	0.	7.8058
15204	12.064	0.27273	0.	10.004
15205	12.156	0.18182	0.	12.016
15206	12.064	0.18182	5.e-002	8.6474e-002
15207	12.064	9.0909e-002	0.	8.0653
15208	12.064	0.45455	0.	7.2406
15209	12.156	0.36364	0.	8.557
15210	12.064	0.36364	5.e-002	4.6775
15211	12.064	0.63636	0.	5.243
15212	12.156	0.54545	0.	6.5511
15213	12.064	0.54545	5.e-002	4.9803
15214	12.064	0.81818	0.	3.3707
15215	12.156	0.72727	0.	4.7024
15216	12.064	0.72727	5.e-002	5.0028
15217	12.064	1.	0.	1.5997
15218	12.156	0.90909	0.	2.9461
15219	12.064	0.90909	5.e-002	5.0068
15220	12.064	1.1818	0.	0.10572
15221	12.156	1.0909	0.	1.2936
15222	12.064	1.0909	5.e-002	5.0094
15223	12.064	1.3636	0.	1.464e-002
15224	12.156	1.2727	0.	6.1004e-002
15225	12.064	1.2727	5.e-002	5.0118
15226	12.064	1.5455	0.	9.2579e-003
15227	12.156	1.4545	0.	1.4017e-002
15228	12.064	1.4545	5.e-002	5.014
15229	12.064	1.7273	0.	7.4444e-003
15230	12.156	1.6364	0.	9.1998e-003
15231	12.064	1.6364	5.e-002	5.0159
15232	12.064	1.9091	0.	6.5636e-003
15233	12.156	1.8182	0.	7.4598e-003
15234	12.064	1.8182	5.e-002	5.0176
15235	12.064	2.0909	0.	6.0604e-003
15236	12.156	2.	0.	6.5943e-003
15237	12.064	2.	5.e-002	5.019
15238	12.064	2.2727	0.	5.7485e-003
15239	12.156	2.1818	0.	6.0959e-003
15240	12.064	2.1818	5.e-002	5.0203
15241	12.064	2.4545	0.	5.55e-003
15242	12.156	2.3636	0.	5.7894e-003
15243	12.064	2.3636	5.e-002	5.0213
15244	12.064	2.6364	0.	5.4258e-003
15245	12.156	2.5455	0.	5.5994e-003
15246	12.064	2.5455	5.e-002	5.022
15247	12.064	2.8182	0.	5.3567e-003
15248	12.156	2.7273	0.	5.4863e-003
15249	12.064	2.7273	5.e-002	5.0225
15250	12.064	3.	0.	5.3347e-003
15251	12.156	2.9091	0.	5.433e-003
15252	12.064	2.9091	5.e-002	5.0228
15253	12.064	3.1818	0.	5.3568e-003
15254	12.156	3.0909	0.	5.433e-003
15255	12.064	3.0909	5.e-002	5.0227
15256	12.064	3.3636	0.	5.4256e-003
15257	12.156	3.2727	0.	5.4858e-003
15258	12.064	3.2727	5.e-002	5.0225
15259	12.064	3.5455	0.	5.5496e-003
15260	12.156	3.4545	0.	5.5993e-003
15261	12.064	3.4545	5.e-002	5.022
15262	12.064	3.7273	0.	5.7483e-003
15263	12.156	3.6364	0.	5.7896e-003
15264	12.064	3.6364	5.e-002	5.0212
15265	12.064	3.9091	0.	6.0605e-003
15266	12.156	3.8182	0.	6.0957e-003
15267	12.064	3.8182	5.e-002	5.0202
15268	12.064	4.0909	0.	6.5633e-003
15269	12.156	4.	0.	6.5937e-003
15270	12.064	4.	5.e-002	5.019
15271	12.064	4.2727	0.	7.4435e-003
15272	12.156	4.1818	0.	7.4594e-003
15273	12.064	4.1818	5.e-002	5.0175
15274	12.064	4.4545	0.	9.2569e-003
15275	12.156	4.3636	0.	9.1995e-003
15276	12.064	4.3636	5.e-002	5.0158
15277	12.064	4.6364	0.	1.4639e-002
15278	12.156	4.5455	0.	1.4016e-002
15279	12.064	4.5455	5.e-002	5.0138
15280	12.064	4.8182	0.	0.10575
15281	12.156	4.7273	0.	6.1016e-002
15282	12.064	4.7273	5.e-002	5.0117
15283	12.064	5.	0.	1.5998
15284	12.156	4.9091	0.	1.2936
15285	12.064	4.9091	5.e-002	5.0093
15286	12.064	5.1818	0.	3.3708
15287	12.156	5.0909	0.	2.9462
15288	12.064	5.0909	5.e-002	5.0066
15289	12.064	5.3636	0.	5.2431
15290	12.156	5.2727	0.	4.7025
15291	12.064	5.2727	5.e-002	5.0027
15292	12.064	5.5455	0.	7.2407
15293	12.156	5.4545	0.	6.5512
15294	12.064	5.4545	5.e-002	4.9802
15295	12.064	5.7273	0.	10.004
15296	12.156	5.6364	0.	8.557
15297	12.064	5.6364	5.e-002	4.6773
15298	12.156	5.8182	0.	12.016
15299	12.064	5.8182	5.e-002	8.632e-002
15300	12.064	5.9091	0.	8.0654
15301	12.248	0.27273	0.	10.47
15302	12.34	0.18182	0.	12.416
15303	12.248	0.18182	5.e-002	5.499e-002
15304	12.248	9.0909e-002	0.	8.3165
15305	12.248	0.45455	0.	7.841
15306	12.34	0.36364	0.	9.0728
15307	12.248	0.36364	5.e-002	4.6542
15308	12.248	0.63636	0.	5.9872
15309	12.34	0.54545	0.	7.2065
15310	12.248	0.54545	5.e-002	4.9572
15311	12.248	0.81818	0.	4.2548
15312	12.34	0.72727	0.	5.4949
15313	12.248	0.72727	5.e-002	4.9794
15314	12.248	1.	0.	2.6156
15315	12.34	0.90909	0.	3.8706
15316	12.248	0.90909	5.e-002	4.9832
15317	12.248	1.1818	0.	1.084
15318	12.34	1.0909	0.	2.3402
15319	12.248	1.0909	5.e-002	4.9856
15320	12.248	1.3636	0.	4.9156e-002
15321	12.34	1.2727	0.	0.92088
15322	12.248	1.2727	5.e-002	4.9878
15323	12.248	1.5455	0.	1.3896e-002
15324	12.34	1.4545	0.	4.2963e-002
15325	12.248	1.4545	5.e-002	4.9897
15326	12.248	1.7273	0.	9.2595e-003
15327	12.34	1.6364	0.	1.3753e-002
15328	12.248	1.6364	5.e-002	4.9915
15329	12.248	1.9091	0.	7.5204e-003
15330	12.34	1.8182	0.	9.2598e-003
15331	12.248	1.8182	5.e-002	4.9931
15332	12.248	2.0909	0.	6.6448e-003
15333	12.34	2.	0.	7.5276e-003
15334	12.248	2.	5.e-002	4.9944
15335	12.248	2.2727	0.	6.1416e-003
15336	12.34	2.1818	0.	6.6501e-003
15337	12.248	2.1818	5.e-002	4.9955
15338	12.248	2.4545	0.	5.837e-003
15339	12.34	2.3636	0.	6.1485e-003
15340	12.248	2.3636	5.e-002	4.9964
15341	12.248	2.6364	0.	5.6541e-003
15342	12.34	2.5455	0.	5.8521e-003
15343	12.248	2.5455	5.e-002	4.9971
15344	12.248	2.8182	0.	5.5546e-003
15345	12.34	2.7273	0.	5.6819e-003
15346	12.248	2.7273	5.e-002	4.9975
15347	12.248	3.	0.	5.5226e-003
15348	12.34	2.9091	0.	5.6031e-003
15349	12.248	2.9091	5.e-002	4.9978
15350	12.248	3.1818	0.	5.554e-003
15351	12.34	3.0909	0.	5.603e-003
15352	12.248	3.0909	5.e-002	4.9978
15353	12.248	3.3636	0.	5.6537e-003
15354	12.34	3.2727	0.	5.6816e-003
15355	12.248	3.2727	5.e-002	4.9975
15356	12.248	3.5455	0.	5.8376e-003
15357	12.34	3.4545	0.	5.852e-003
15358	12.248	3.4545	5.e-002	4.9971
15359	12.248	3.7273	0.	6.1418e-003
15360	12.34	3.6364	0.	6.1495e-003
15361	12.248	3.6364	5.e-002	4.9964
15362	12.248	3.9091	0.	6.6438e-003
15363	12.34	3.8182	0.	6.6495e-003
15364	12.248	3.8182	5.e-002	4.9955
15365	12.248	4.0909	0.	7.5197e-003
15366	12.34	4.	0.	7.527e-003
15367	12.248	4.	5.e-002	4.9944
15368	12.248	4.2727	0.	9.2598e-003
15369	12.34	4.1818	0.	9.2597e-003
15370	12.248	4.1818	5.e-002	4.993
15371	12.248	4.4545	0.	1.3896e-002
15372	12.34	4.3636	0.	1.3754e-002
15373	12.248	4.3636	5.e-002	4.9914
15374	12.248	4.6364	0.	4.9162e-002
15375	12.34	4.5455	0.	4.2967e-002
15376	12.248	4.5455	5.e-002	4.9897
15377	12.248	4.8182	0.	1.0841
15378	12.34	4.7273	0.	0.92096
15379	12.248	4.7273	5.e-002	4.9877
15380	12.248	5.	0.	2.6157
15381	12.34	4.9091	0.	2.3402
15382	12.248	4.9091	5.e-002	4.9855
15383	12.248	5.1818	0.	4.2549
15384	12.34	5.0909	0.	3.8707
15385	12.248	5.0909	5.e-002	4.9831
15386	12.248	5.3636	0.	5.9874
15387	12.34	5.2727	0.	5.495
15388	12.248	5.2727	5.e-002	4.9793
15389	12.248	5.5455	0.	7.8411
15390	12.34	5.4545	0.	7.2066
15391	12.248	5.4545	5.e-002	4.957
15392	12.248	5.7273	0.	10.471
15393	12.34	5.6364	0.	9.0729
15394	12.248	5.6364	5.e-002	4.654
15395	12.34	5.8182	0.	12.416
15396	12.248	5.8182	5.e-002	5.4864e-002
15397	12.248	5.9091	0.	8.3165
15398	12.432	0.27273	0.	10.918
15399	12.523	0.18182	0.	12.802
15400	12.432	0.18182	5.e-002	2.6812e-002
15401	12.432	9.0909e-002	0.	8.56
15402	12.432	0.45455	0.	8.4115
15403	12.523	0.36364	0.	9.5651
15404	12.432	0.36364	5.e-002	4.6312
15405	12.432	0.63636	0.	6.6907
15406	12.523	0.54545	0.	7.8279
15407	12.432	0.54545	5.e-002	4.9342
15408	12.432	0.81818	0.	5.0876
15409	12.523	0.72727	0.	6.2431
15410	12.432	0.72727	5.e-002	4.9563
15411	12.432	1.	0.	3.572
15412	12.523	0.90909	0.	4.7411
15413	12.432	0.90909	5.e-002	4.9599
15414	12.432	1.1818	0.	2.1523
15415	12.523	1.0909	0.	3.3265
15416	12.432	1.0909	5.e-002	4.9622
15417	12.432	1.3636	0.	0.84531
15418	12.523	1.2727	0.	2.0093
15419	12.432	1.2727	5.e-002	4.9641
15420	12.432	1.5455	0.	4.4064e-002
15421	12.523	1.4545	0.	0.80539
15422	12.432	1.4545	5.e-002	4.9659
15423	12.432	1.7273	0.	1.4063e-002
15424	12.523	1.6364	0.	4.7527e-002
15425	12.432	1.6364	5.e-002	4.9676
15426	12.432	1.9091	0.	9.3803e-003
15427	12.523	1.8182	0.	1.4428e-002
15428	12.432	1.8182	5.e-002	4.969
15429	12.432	2.0909	0.	7.5785e-003
15430	12.523	2.	0.	9.4767e-003
15431	12.432	2.	5.e-002	4.9702
15432	12.432	2.2727	0.	6.672e-003
15433	12.523	2.1818	0.	7.5997e-003
15434	12.432	2.1818	5.e-002	4.9712
15435	12.432	2.4545	0.	6.1627e-003
15436	12.523	2.3636	0.	6.6689e-003
15437	12.432	2.3636	5.e-002	4.9721
15438	12.432	2.6364	0.	5.8705e-003
15439	12.523	2.5455	0.	6.1589e-003
15440	12.432	2.5455	5.e-002	4.9727
15441	12.432	2.8182	0.	5.7167e-003
15442	12.523	2.7273	0.	5.8801e-003
15443	12.432	2.7273	5.e-002	4.9731
15444	12.432	3.	0.	5.6685e-003
15445	12.523	2.9091	0.	5.7554e-003
15446	12.432	2.9091	5.e-002	4.9733
15447	12.432	3.1818	0.	5.7169e-003
15448	12.523	3.0909	0.	5.7553e-003
15449	12.432	3.0909	5.e-002	4.9733
15450	12.432	3.3636	0.	5.8705e-003
15451	12.523	3.2727	0.	5.8803e-003
15452	12.432	3.2727	5.e-002	4.9731
15453	12.432	3.5455	0.	6.163e-003
15454	12.523	3.4545	0.	6.1585e-003
15455	12.432	3.4545	5.e-002	4.9726
15456	12.432	3.7273	0.	6.6721e-003
15457	12.523	3.6364	0.	6.669e-003
15458	12.432	3.6364	5.e-002	4.972
15459	12.432	3.9091	0.	7.5782e-003
15460	12.523	3.8182	0.	7.5991e-003
15461	12.432	3.8182	5.e-002	4.9712
15462	12.432	4.0909	0.	9.3803e-003
15463	12.523	4.	0.	9.4771e-003
15464	12.432	4.	5.e-002	4.9701
15465	12.432	4.2727	0.	1.4064e-002
15466	12.523	4.1818	0.	1.4428e-002
15467	12.432	4.1818	5.e-002	4.9689
15468	12.432	4.4545	0.	4.407e-002
15469	12.523	4.3636	0.	4.7534e-002
15470	12.432	4.3636	5.e-002	4.9675
15471	12.432	4.6364	0.	0.84539
15472	12.523	4.5455	0.	0.80546
15473	12.432	4.5455	5.e-002	4.9659
15474	12.432	4.8182	0.	2.1524
15475	12.523	4.7273	0.	2.0094
15476	12.432	4.7273	5.e-002	4.9641
15477	12.432	5.	0.	3.5721
15478	12.523	4.9091	0.	3.3266
15479	12.432	4.9091	5.e-002	4.962
15480	12.432	5.1818	0.	5.0877
15481	12.523	5.0909	0.	4.7412
15482	12.432	5.0909	5.e-002	4.9598
15483	12.432	5.3636	0.	6.6908
15484	12.523	5.2727	0.	6.2432
15485	12.432	5.2727	5.e-002	4.9562
15486	12.432	5.5455	0.	8.4115
15487	12.523	5.4545	0.	7.828
15488	12.432	5.4545	5.e-002	4.9341
15489	12.432	5.7273	0.	10.918
15490	12.523	5.6364	0.	9.5652
15491	12.432	5.6364	5.e-002	4.6311
15492	12.523	5.8182	0.	12.802
15493	12.432	5.8182	5.e-002	2.6733e-002
15494	12.432	5.9091	0.	8.56
15495	12.615	0.27273	0.	11.348
15496	12.707	0.18182	0.	13.177
15497	12.615	0.18182	5.e-002	1.0492e-002
15498	12.615	9.0909e-002	0.	8.7965
15499	12.615	0.45455	0.	8.9543
15500	12.707	0.36364	0.	10.036
15501	12.615	0.36364	5.e-002	4.6086
15502	12.615	0.63636	0.	7.3565
15503	12.707	0.54545	0.	8.4181
15504	12.615	0.54545	5.e-002	4.9115
15505	12.615	0.81818	0.	5.8732
15506	12.707	0.72727	0.	6.9506
15507	12.615	0.72727	5.e-002	4.9334
15508	12.615	1.	0.	4.4723
15509	12.707	0.90909	0.	5.5618
15510	12.615	0.90909	5.e-002	4.9368
15511	12.615	1.1818	0.	3.1604
15512	12.707	1.0909	0.	4.255
15513	12.615	1.0909	5.e-002	4.9389
15514	12.615	1.3636	0.	1.9466
15515	12.707	1.2727	0.	3.0383
15516	12.615	1.2727	5.e-002	4.9408
15517	12.615	1.5455	0.	0.84425
15518	12.707	1.4545	0.	1.9201
15519	12.615	1.4545	5.e-002	4.9424
15520	12.615	1.7273	0.	6.4979e-002
15521	12.707	1.6364	0.	0.91124
15522	12.615	1.6364	5.e-002	4.9439
15523	12.615	1.9091	0.	1.554e-002
15524	12.707	1.8182	0.	0.11148
15525	12.615	1.8182	5.e-002	4.9452
15526	12.615	2.0909	0.	9.7467e-003
15527	12.707	2.	0.	1.7327e-002
15528	12.615	2.	5.e-002	4.9463
15529	12.615	2.2727	0.	7.6732e-003
15530	12.707	2.1818	0.	1.0109e-002
15531	12.615	2.1818	5.e-002	4.9473
15532	12.615	2.4545	0.	6.6804e-003
15533	12.707	2.3636	0.	7.7637e-003
15534	12.615	2.3636	5.e-002	4.948
15535	12.615	2.6364	0.	6.1572e-003
15536	12.707	2.5455	0.	6.6988e-003
15537	12.615	2.5455	5.e-002	4.9486
15538	12.615	2.8182	0.	5.8958e-003
15539	12.707	2.7273	0.	6.1711e-003
15540	12.615	2.7273	5.e-002	4.949
15541	12.615	3.	0.	5.8159e-003
15542	12.707	2.9091	0.	5.9467e-003
15543	12.615	2.9091	5.e-002	4.9491
15544	12.615	3.1818	0.	5.8958e-003
15545	12.707	3.0909	0.	5.9464e-003
15546	12.615	3.0909	5.e-002	4.9491
15547	12.615	3.3636	0.	6.1571e-003
15548	12.707	3.2727	0.	6.1715e-003
15549	12.615	3.2727	5.e-002	4.9489
15550	12.615	3.5455	0.	6.6797e-003
15551	12.707	3.4545	0.	6.698e-003
15552	12.615	3.4545	5.e-002	4.9485
15553	12.615	3.7273	0.	7.6726e-003
15554	12.707	3.6364	0.	7.7635e-003
15555	12.615	3.6364	5.e-002	4.9479
15556	12.615	3.9091	0.	9.7469e-003
15557	12.707	3.8182	0.	1.0109e-002
15558	12.615	3.8182	5.e-002	4.9472
15559	12.615	4.0909	0.	1.554e-002
15560	12.707	4.	0.	1.7329e-002
15561	12.615	4.	5.e-002	4.9462
15562	12.615	4.2727	0.	6.4992e-002
15563	12.707	4.1818	0.	0.1115
15564	12.615	4.1818	5.e-002	4.9451
15565	12.615	4.4545	0.	0.84432
15566	12.707	4.3636	0.	0.91131
15567	12.615	4.3636	5.e-002	4.9438
15568	12.615	4.6364	0.	1.9466
15569	12.707	4.5455	0.	1.9201
15570	12.615	4.5455	5.e-002	4.9423
15571	12.615	4.8182	0.	3.1605
15572	12.707	4.7273	0.	3.0384
15573	12.615	4.7273	5.e-002	4.9406
15574	12.615	5.	0.	4.4724
15575	12.707	4.9091	0.	4.2551
15576	12.615	4.9091	5.e-002	4.9388
15577	12.615	5.1818	0.	5.8733
15578	12.707	5.0909	0.	5.5619
15579	12.615	5.0909	5.e-002	4.9367
15580	12.615	5.3636	0.	7.3566
15581	12.707	5.2727	0.	6.9507
15582	12.615	5.2727	5.e-002	4.9333
15583	12.615	5.5455	0.	8.9544
15584	12.707	5.4545	0.	8.4182
15585	12.615	5.4545	5.e-002	4.9114
15586	12.615	5.7273	0.	11.348
15587	12.707	5.6364	0.	10.036
15588	12.615	5.6364	5.e-002	4.6084
15589	12.707	5.8182	0.	13.177
15590	12.615	5.8182	5.e-002	1.0421e-002
15591	12.615	5.9091	0.	8.7965
15592	12.799	0.27273	0.	11.762
15593	12.891	0.18182	0.	13.541
15594	12.799	0.18182	5.e-002	2.8586e-002
15595	12.799	9.0909e-002	0.	9.0268
15596	12.799	0.45455	0.	9.4721
15597	12.891	0.36364	0.	10.487
15598	12.799	0.36364	5.e-002	4.5864
15599	12.799	0.63636	0.	7.988
15600	12.891	0.54545	0.	8.9797
15601	12.799	0.54545	5.e-002	4.8891
15602	12.799	0.81818	0.	6.6154
15603	12.891	0.72727	0.	7.6208
15604	12.799	0.72727	5.e-002	4.9108
15605	12.799	1.	0.	5.3209
15606	12.891	0.90909	0.	6.3367
15607	12.799	0.90909	5.e-002	4.914
15608	12.799	1.1818	0.	4.1096
15609	12.891	1.0909	0.	5.1299
15610	12.799	1.0909	5.e-002	4.916
15611	12.799	1.3636	0.	2.9888
15612	12.891	1.2727	0.	4.0072
15613	12.799	1.2727	5.e-002	4.9177
15614	12.799	1.5455	0.	1.9662
15615	12.891	1.4545	0.	2.9755
15616	12.799	1.4545	5.e-002	4.9192
15617	12.799	1.7273	0.	1.0501
15618	12.891	1.6364	0.	2.0412
15619	12.799	1.6364	5.e-002	4.9206
15620	12.799	1.9091	0.	0.26884
15621	12.891	1.8182	0.	1.2114
15622	12.799	1.8182	5.e-002	4.9218
15623	12.799	2.0909	0.	2.264e-002
15624	12.891	2.	0.	0.4965
15625	12.799	2.	5.e-002	4.9228
15626	12.799	2.2727	0.	1.0949e-002
15627	12.891	2.1818	0.	4.5042e-002
15628	12.799	2.1818	5.e-002	4.9237
15629	12.799	2.4545	0.	7.9575e-003
15630	12.891	2.3636	0.	1.2713e-002
15631	12.799	2.3636	5.e-002	4.9244
15632	12.799	2.6364	0.	6.7308e-003
15633	12.891	2.5455	0.	8.2531e-003
15634	12.799	2.5455	5.e-002	4.9249
15635	12.799	2.8182	0.	6.1861e-003
15636	12.891	2.7273	0.	6.7423e-003
15637	12.799	2.7273	5.e-002	4.9252
15638	12.799	3.	0.	6.0277e-003
15639	12.891	2.9091	0.	6.1934e-003
15640	12.799	2.9091	5.e-002	4.9254
15641	12.799	3.1818	0.	6.1864e-003
15642	12.891	3.0909	0.	6.1937e-003
15643	12.799	3.0909	5.e-002	4.9254
15644	12.799	3.3636	0.	6.7305e-003
15645	12.891	3.2727	0.	6.7428e-003
15646	12.799	3.2727	5.e-002	4.9252
15647	12.799	3.5455	0.	7.9571e-003
15648	12.891	3.4545	0.	8.2524e-003
15649	12.799	3.4545	5.e-002	4.9249
15650	12.799	3.7273	0.	1.0949e-002
15651	12.891	3.6364	0.	1.2714e-002
15652	12.799	3.6364	5.e-002	4.9243
15653	12.799	3.9091	0.	2.2641e-002
15654	12.891	3.8182	0.	4.5049e-002
15655	12.799	3.8182	5.e-002	4.9236
15656	12.799	4.0909	0.	0.26889
15657	12.891	4.	0.	0.49655
15658	12.799	4.	5.e-002	4.9228
15659	12.799	4.2727	0.	1.0502
15660	12.891	4.1818	0.	1.2114
15661	12.799	4.1818	5.e-002	4.9217
15662	12.799	4.4545	0.	1.9662
15663	12.891	4.3636	0.	2.0413
15664	12.799	4.3636	5.e-002	4.9205
15665	12.799	4.6364	0.	2.9889
15666	12.891	4.5455	0.	2.9755
15667	12.799	4.5455	5.e-002	4.9191
15668	12.799	4.8182	0.	4.1097
15669	12.891	4.7273	0.	4.0073
15670	12.799	4.7273	5.e-002	4.9176
15671	12.799	5.	0.	5.321
15672	12.891	4.9091	0.	5.13
15673	12.799	4.9091	5.e-002	4.9159
15674	12.799	5.1818	0.	6.6155
15675	12.891	5.0909	0.	6.3368
15676	12.799	5.0909	5.e-002	4.9139
15677	12.799	5.3636	0.	7.9881
15678	12.891	5.2727	0.	7.6209
15679	12.799	5.2727	5.e-002	4.9107
15680	12.799	5.5455	0.	9.4722
15681	12.891	5.4545	0.	8.9798
15682	12.799	5.4545	5.e-002	4.8889
15683	12.799	5.7273	0.	11.762
15684	12.891	5.6364	0.	10.487
15685	12.799	5.6364	5.e-002	4.5862
15686	12.891	5.8182	0.	13.541
15687	12.799	5.8182	5.e-002	2.8421e-002
15688	12.799	5.9091	0.	9.0268
15689	12.982	0.27273	0.	12.161
15690	13.074	0.18182	0.	13.895
15691	12.982	0.18182	5.e-002	5.0026e-002
15692	12.982	9.0909e-002	0.	9.2515
15693	12.982	0.45455	0.	9.9668
15694	13.074	0.36364	0.	10.921
15695	12.982	0.36364	5.e-002	4.5645
15696	12.982	0.63636	0.	8.5879
15697	13.074	0.54545	0.	9.5151
15698	12.982	0.54545	5.e-002	4.867
15699	12.982	0.81818	0.	7.3179
15700	13.074	0.72727	0.	8.2568
15701	12.982	0.72727	5.e-002	4.8885
15702	12.982	1.	0.	6.1218
15703	13.074	0.90909	0.	7.0698
15704	12.982	0.90909	5.e-002	4.8916
15705	12.982	1.1818	0.	5.0039
15706	13.074	1.0909	0.	5.9557
15707	12.982	1.0909	5.e-002	4.8934
15708	12.982	1.3636	0.	3.9704
15709	13.074	1.2727	0.	4.9203
15710	12.982	1.2727	5.e-002	4.895
15711	12.982	1.5455	0.	3.0275
15712	13.074	1.4545	0.	3.9696
15713	12.982	1.4545	5.e-002	4.8964
15714	12.982	1.7273	0.	2.1811
15715	13.074	1.6364	0.	3.1091
15716	12.982	1.6364	5.e-002	4.8977
15717	12.982	1.9091	0.	1.4367
15718	13.074	1.8182	0.	2.344
15719	12.982	1.8182	5.e-002	4.8988
15720	12.982	2.0909	0.	0.79988
15721	13.074	2.	0.	1.679
15722	12.982	2.	5.e-002	4.8997
15723	12.982	2.2727	0.	0.28093
15724	13.074	2.1818	0.	1.1183
15725	12.982	2.1818	5.e-002	4.9006
15726	12.982	2.4545	0.	2.4585e-002
15727	13.074	2.3636	0.	0.66535
15728	12.982	2.3636	5.e-002	4.9012
15729	12.982	2.6364	0.	9.3935e-003
15730	13.074	2.5455	0.	0.32339
15731	12.982	2.5455	5.e-002	4.9017
15732	12.982	2.8182	0.	6.8077e-003
15733	13.074	2.7273	0.	9.5954e-002
15734	12.982	2.7273	5.e-002	4.902
15735	12.982	3.	0.	6.2395e-003
15736	13.074	2.9091	0.	8.8791e-003
15737	12.982	2.9091	5.e-002	4.9021
15738	12.982	3.1818	0.	6.8084e-003
15739	13.074	3.0909	0.	8.8794e-003
15740	12.982	3.0909	5.e-002	4.9021
15741	12.982	3.3636	0.	9.3938e-003
15742	13.074	3.2727	0.	9.5969e-002
15743	12.982	3.2727	5.e-002	4.902
15744	12.982	3.5455	0.	2.4588e-002
15745	13.074	3.4545	0.	0.32342
15746	12.982	3.4545	5.e-002	4.9017
15747	12.982	3.7273	0.	0.28097
15748	13.074	3.6364	0.	0.66539
15749	12.982	3.6364	5.e-002	4.9011
15750	12.982	3.9091	0.	0.79993
15751	13.074	3.8182	0.	1.1183
15752	12.982	3.8182	5.e-002	4.9005
15753	12.982	4.0909	0.	1.4368
15754	13.074	4.	0.	1.6791
15755	12.982	4.	5.e-002	4.8997
15756	12.982	4.2727	0.	2.1812
15757	13.074	4.1818	0.	2.3441
15758	12.982	4.1818	5.e-002	4.8987
15759	12.982	4.4545	0.	3.0276
15760	13.074	4.3636	0.	3.1092
15761	12.982	4.3636	5.e-002	4.8976
15762	12.982	4.6364	0.	3.9705
15763	13.074	4.5455	0.	3.9697
15764	12.982	4.5455	5.e-002	4.8963
15765	12.982	4.8182	0.	5.004
15766	13.074	4.7273	0.	4.9204
15767	12.982	4.7273	5.e-002	4.8949
15768	12.982	5.	0.	6.1219
15769	13.074	4.9091	0.	5.9558
15770	12.982	4.9091	5.e-002	4.8933
15771	12.982	5.1818	0.	7.318
15772	13.074	5.0909	0.	7.07
15773	12.982	5.0909	5.e-002	4.8915
15774	12.982	5.3636	0.	8.588
15775	13.074	5.2727	0.	8.2569
15776	12.982	5.2727	5.e-002	4.8884
15777	12.982	5.5455	0.	9.9669
15778	13.074	5.4545	0.	9.5152
15779	12.982	5.4545	5.e-002	4.8668
15780	12.982	5.7273	0.	12.162
15781	13.074	5.6364	0.	10.921
15782	12.982	5.6364	5.e-002	4.5644
15783	13.074	5.8182	0.	13.895
15784	12.982	5.8182	5.e-002	4.9874e-002
15785	12.982	5.9091	0.	9.2516
15786	13.166	0.27273	0.	12.548
15787	13.258	0.18182	0.	14.241
15788	13.166	0.18182	5.e-002	6.9957e-002
15789	13.166	9.0909e-002	0.	9.4713
15790	13.166	0.45455	0.	10.44
15791	13.258	0.36364	0.	11.338
15792	13.166	0.36364	5.e-002	4.5431
15793	13.166	0.63636	0.	9.159
15794	13.258	0.54545	0.	10.027
15795	13.166	0.54545	5.e-002	4.8451
15796	13.166	0.81818	0.	7.9842
15797	13.258	0.72727	0.	8.8617
15798	13.166	0.72727	5.e-002	4.8665
15799	13.166	1.	0.	6.8794
15800	13.258	0.90909	0.	7.7649
15801	13.166	0.90909	5.e-002	4.8695
15802	13.166	1.1818	0.	5.848
15803	13.258	1.0909	0.	6.7368
15804	13.166	1.0909	5.e-002	4.8712
15805	13.166	1.3636	0.	4.8956
15806	13.258	1.2727	0.	5.7825
15807	13.166	1.2727	5.e-002	4.8726
15808	13.166	1.5455	0.	4.0275
15809	13.258	1.4545	0.	4.9072
15810	13.166	1.4545	5.e-002	4.8739
15811	13.166	1.7273	0.	3.2487
15812	13.258	1.6364	0.	4.1157
15813	13.166	1.6364	5.e-002	4.8751
15814	13.166	1.9091	0.	2.5637
15815	13.258	1.8182	0.	3.4125
15816	13.166	1.8182	5.e-002	4.8762
15817	13.166	2.0909	0.	1.9765
15818	13.258	2.	0.	2.8015
15819	13.166	2.	5.e-002	4.877
15820	13.166	2.2727	0.	1.4908
15821	13.258	2.1818	0.	2.2865
15822	13.166	2.1818	5.e-002	4.8778
15823	13.166	2.4545	0.	1.1093
15824	13.258	2.3636	0.	1.8703
15825	13.166	2.3636	5.e-002	4.8784
15826	13.166	2.6364	0.	0.83449
15827	13.258	2.5455	0.	1.5556
15828	13.166	2.5455	5.e-002	4.8788
15829	13.166	2.8182	0.	0.66838
15830	13.258	2.7273	0.	1.3444
15831	13.166	2.7273	5.e-002	4.8791
15832	13.166	3.	0.	0.61273
15833	13.258	2.9091	0.	1.2384
15834	13.166	2.9091	5.e-002	4.8793
15835	13.166	3.1818	0.	0.66839
15836	13.258	3.0909	0.	1.2384
15837	13.166	3.0909	5.e-002	4.8793
15838	13.166	3.3636	0.	0.83451
15839	13.258	3.2727	0.	1.3444
15840	13.166	3.2727	5.e-002	4.8791
15841	13.166	3.5455	0.	1.1093
15842	13.258	3.4545	0.	1.5556
15843	13.166	3.4545	5.e-002	4.8788
15844	13.166	3.7273	0.	1.4908
15845	13.258	3.6364	0.	1.8703
15846	13.166	3.6364	5.e-002	4.8783
15847	13.166	3.9091	0.	1.9766
15848	13.258	3.8182	0.	2.2865
15849	13.166	3.8182	5.e-002	4.8777
15850	13.166	4.0909	0.	2.5637
15851	13.258	4.	0.	2.8016
15852	13.166	4.	5.e-002	4.877
15853	13.166	4.2727	0.	3.2487
15854	13.258	4.1818	0.	3.4125
15855	13.166	4.1818	5.e-002	4.8761
15856	13.166	4.4545	0.	4.0276
15857	13.258	4.3636	0.	4.1158
15858	13.166	4.3636	5.e-002	4.875
15859	13.166	4.6364	0.	4.8957
15860	13.258	4.5455	0.	4.9073
15861	13.166	4.5455	5.e-002	4.8739
15862	13.166	4.8182	0.	5.8481
15863	13.258	4.7273	0.	5.7826
15864	13.166	4.7273	5.e-002	4.8725
15865	13.166	5.	0.	6.8795
15866	13.258	4.9091	0.	6.7369
15867	13.166	4.9091	5.e-002	4.8711
15868	13.166	5.1818	0.	7.9843
15869	13.258	5.0909	0.	7.765
15870	13.166	5.0909	5.e-002	4.8694
15871	13.166	5.3636	0.	9.1592
15872	13.258	5.2727	0.	8.8619
15873	13.166	5.2727	5.e-002	4.8663
15874	13.166	5.5455	0.	10.441
15875	13.258	5.4545	0.	10.027
15876	13.166	5.4545	5.e-002	4.8449
15877	13.166	5.7273	0.	12.548
15878	13.258	5.6364	0.	11.338
15879	13.166	5.6364	5.e-002	4.5429
15880	13.258	5.8182	0.	14.241
15881	13.166	5.8182	5.e-002	6.9815e-002
15882	13.166	5.9091	0.	9.4713
15883	13.35	0.27273	0.	12.923
15884	13.442	0.18182	0.	14.579
15885	13.35	0.18182	5.e-002	8.8185e-002
15886	13.35	9.0909e-002	0.	9.6867
15887	13.35	0.45455	0.	10.895
15888	13.442	0.36364	0.	11.74
15889	13.35	0.36364	5.e-002	4.5219
15890	13.35	0.63636	0.	9.7042
15891	13.442	0.54545	0.	10.517
15892	13.35	0.54545	5.e-002	4.8235
15893	13.35	0.81818	0.	8.6175
15894	13.442	0.72727	0.	9.4387
15895	13.35	0.72727	5.e-002	4.8447
15896	13.35	1.	0.	7.5975
15897	13.442	0.90909	0.	8.4255
15898	13.35	0.90909	5.e-002	4.8476
15899	13.35	1.1818	0.	6.6466
15900	13.442	1.0909	0.	7.4773
15901	13.35	1.0909	5.e-002	4.8492
15902	13.35	1.3636	0.	5.7696
15903	13.442	1.2727	0.	6.5984
15904	13.35	1.2727	5.e-002	4.8505
15905	13.35	1.5455	0.	4.9711
15906	13.442	1.4545	0.	5.7933
15907	13.35	1.4545	5.e-002	4.8517
15908	13.35	1.7273	0.	4.2554
15909	13.442	1.6364	0.	5.0661
15910	13.35	1.6364	5.e-002	4.8528
15911	13.35	1.9091	0.	3.6264
15912	13.442	1.8182	0.	4.4206
15913	13.35	1.8182	5.e-002	4.8538
15914	13.35	2.0909	0.	3.0878
15915	13.442	2.	0.	3.8604
15916	13.35	2.	5.e-002	4.8546
15917	13.35	2.2727	0.	2.6425
15918	13.442	2.1818	0.	3.3885
15919	13.35	2.1818	5.e-002	4.8553
15920	13.35	2.4545	0.	2.2931
15921	13.442	2.3636	0.	3.0075
15922	13.35	2.3636	5.e-002	4.8559
15923	13.35	2.6364	0.	2.0419
15924	13.442	2.5455	0.	2.7197
15925	13.35	2.5455	5.e-002	4.8563
15926	13.35	2.8182	0.	1.8905
15927	13.442	2.7273	0.	2.5268
15928	13.35	2.7273	5.e-002	4.8566
15929	13.35	3.	0.	1.8399
15930	13.442	2.9091	0.	2.4301
15931	13.35	2.9091	5.e-002	4.8567
15932	13.35	3.1818	0.	1.8905
15933	13.442	3.0909	0.	2.4301
15934	13.35	3.0909	5.e-002	4.8567
15935	13.35	3.3636	0.	2.042
15936	13.442	3.2727	0.	2.5269
15937	13.35	3.2727	5.e-002	4.8566
15938	13.35	3.5455	0.	2.2932
15939	13.442	3.4545	0.	2.7197
15940	13.35	3.4545	5.e-002	4.8562
15941	13.35	3.7273	0.	2.6425
15942	13.442	3.6364	0.	3.0075
15943	13.35	3.6364	5.e-002	4.8558
15944	13.35	3.9091	0.	3.0878
15945	13.442	3.8182	0.	3.3885
15946	13.35	3.8182	5.e-002	4.8553
15947	13.35	4.0909	0.	3.6265
15948	13.442	4.	0.	3.8605
15949	13.35	4.	5.e-002	4.8546
15950	13.35	4.2727	0.	4.2554
15951	13.442	4.1818	0.	4.4207
15952	13.35	4.1818	5.e-002	4.8538
15953	13.35	4.4545	0.	4.9711
15954	13.442	4.3636	0.	5.0662
15955	13.35	4.3636	5.e-002	4.8528
15956	13.35	4.6364	0.	5.7697
15957	13.442	4.5455	0.	5.7934
15958	13.35	4.5455	5.e-002	4.8517
15959	13.35	4.8182	0.	6.6467
15960	13.442	4.7273	0.	6.5985
15961	13.35	4.7273	5.e-002	4.8504
15962	13.35	5.	0.	7.5976
15963	13.442	4.9091	0.	7.4774
15964	13.35	4.9091	5.e-002	4.8491
15965	13.35	5.1818	0.	8.6177
15966	13.442	5.0909	0.	8.4256
15967	13.35	5.0909	5.e-002	4.8475
15968	13.35	5.3636	0.	9.7043
15969	13.442	5.2727	0.	9.4388
15970	13.35	5.2727	5.e-002	4.8446
15971	13.35	5.5455	0.	10.895
15972	13.442	5.4545	0.	10.517
15973	13.35	5.4545	5.e-002	4.8233
15974	13.35	5.7273	0.	12.923
15975	13.442	5.6364	0.	11.74
15976	13.35	5.6364	5.e-002	4.5218
15977	13.442	5.8182	0.	14.579
15978	13.35	5.8182	5.e-002	8.8058e-002
15979	13.35	5.9091	0.	9.6867
15980	13.533	0.27273	0.	13.287
15981	13.625	0.18182	0.	14.911
15982	13.533	0.18182	5.e-002	0.10478
15983	13.533	9.0909e-002	0.	9.8984
15984	13.533	0.45455	0.	11.333
15985	13.625	0.36364	0.	12.13
15986	13.533	0.36364	5.e-002	4.501
15987	13.533	0.63636	0.	10.226
15988	13.625	0.54545	0.	10.988
15989	13.533	0.54545	5.e-002	4.8019
15990	13.533	0.81818	0.	9.2213
15991	13.625	0.72727	0.	9.9905
15992	13.533	0.72727	5.e-002	4.8231
15993	13.533	1.	0.	8.2801
15994	13.625	0.90909	0.	9.0553
15995	13.533	0.90909	5.e-002	4.8258
15996	13.533	1.1818	0.	7.4041
15997	13.625	1.0909	0.	8.1815
15998	13.533	1.0909	5.e-002	4.8273
15999	13.533	1.3636	0.	6.5972
16000	13.625	1.2727	0.	7.3729
16001	13.533	1.2727	5.e-002	4.8286
16002	13.533	1.5455	0.	5.8635
16003	13.625	1.4545	0.	6.6331
16004	13.533	1.4545	5.e-002	4.8297
16005	13.533	1.7273	0.	5.2067
16006	13.625	1.6364	0.	5.9659
16007	13.533	1.6364	5.e-002	4.8307
16008	13.533	1.9091	0.	4.6301
16009	13.625	1.8182	0.	5.3743
16010	13.533	1.8182	5.e-002	4.8316
16011	13.533	2.0909	0.	4.1367
16012	13.625	2.	0.	4.8614
16013	13.533	2.	5.e-002	4.8324
16014	13.533	2.2727	0.	3.7291
16015	13.625	2.1818	0.	4.4297
16016	13.533	2.1818	5.e-002	4.8331
16017	13.533	2.4545	0.	3.4097
16018	13.625	2.3636	0.	4.0815
16019	13.533	2.3636	5.e-002	4.8336
16020	13.533	2.6364	0.	3.1802
16021	13.625	2.5455	0.	3.8187
16022	13.533	2.5455	5.e-002	4.8339
16023	13.533	2.8182	0.	3.042
16024	13.625	2.7273	0.	3.6426
16025	13.533	2.7273	5.e-002	4.8342
16026	13.533	3.	0.	2.9958
16027	13.625	2.9091	0.	3.5544
16028	13.533	2.9091	5.e-002	4.8343
16029	13.533	3.1818	0.	3.042
16030	13.625	3.0909	0.	3.5544
16031	13.533	3.0909	5.e-002	4.8343
16032	13.533	3.3636	0.	3.1802
16033	13.625	3.2727	0.	3.6426
16034	13.533	3.2727	5.e-002	4.8342
16035	13.533	3.5455	0.	3.4097
16036	13.625	3.4545	0.	3.8187
16037	13.533	3.4545	5.e-002	4.8339
16038	13.533	3.7273	0.	3.7292
16039	13.625	3.6364	0.	4.0815
16040	13.533	3.6364	5.e-002	4.8336
16041	13.533	3.9091	0.	4.1367
16042	13.625	3.8182	0.	4.4297
16043	13.533	3.8182	5.e-002	4.833
16044	13.533	4.0909	0.	4.6301
16045	13.625	4.	0.	4.8614
16046	13.533	4.	5.e-002	4.8323
16047	13.533	4.2727	0.	5.2068
16048	13.625	4.1818	0.	5.3744
16049	13.533	4.1818	5.e-002	4.8316
16050	13.533	4.4545	0.	5.8636
16051	13.625	4.3636	0.	5.9659
16052	13.533	4.3636	5.e-002	4.8307
16053	13.533	4.6364	0.	6.5973
16054	13.625	4.5455	0.	6.6332
16055	13.533	4.5455	5.e-002	4.8296
16056	13.533	4.8182	0.	7.4042
16057	13.625	4.7273	0.	7.373
16058	13.533	4.7273	5.e-002	4.8285
16059	13.533	5.	0.	8.2802
16060	13.625	4.9091	0.	8.1816
16061	13.533	4.9091	5.e-002	4.8272
16062	13.533	5.1818	0.	9.2214
16063	13.625	5.0909	0.	9.0554
16064	13.533	5.0909	5.e-002	4.8257
16065	13.533	5.3636	0.	10.226
16066	13.625	5.2727	0.	9.9906
16067	13.533	5.2727	5.e-002	4.8229
16068	13.533	5.5455	0.	11.333
16069	13.625	5.4545	0.	10.988
16070	13.533	5.4545	5.e-002	4.8018
16071	13.533	5.7273	0.	13.288
16072	13.625	5.6364	0.	12.13
16073	13.533	5.6364	5.e-002	4.5009
16074	13.625	5.8182	0.	14.911
16075	13.533	5.8182	5.e-002	0.10466
16076	13.533	5.9091	0.	9.8985
16077	13.717	0.27273	0.	13.643
16078	13.809	0.18182	0.	15.237
16079	13.717	0.18182	5.e-002	0.11975
16080	13.717	9.0909e-002	0.	10.107
16081	13.717	0.45455	0.	11.756
16082	13.809	0.36364	0.	12.509
16083	13.717	0.36364	5.e-002	4.4804
16084	13.717	0.63636	0.	10.727
16085	13.809	0.54545	0.	11.443
16086	13.717	0.54545	5.e-002	4.7806
16087	13.717	0.81818	0.	9.7987
16088	13.809	0.72727	0.	10.52
16089	13.717	0.72727	5.e-002	4.8016
16090	13.717	1.	0.	8.9311
16091	13.809	0.90909	0.	9.6575
16092	13.717	0.90909	5.e-002	4.8043
16093	13.717	1.1818	0.	8.1248
16094	13.809	1.0909	0.	8.8532
16095	13.717	1.0909	5.e-002	4.8057
16096	13.717	1.3636	0.	7.3834
16097	13.809	1.2727	0.	8.1102
16098	13.717	1.2727	5.e-002	4.8069
16099	13.717	1.5455	0.	6.7102
16100	13.809	1.4545	0.	7.4316
16101	13.717	1.4545	5.e-002	4.808
16102	13.717	1.7273	0.	6.1083
16103	13.809	1.6364	0.	6.8204
16104	13.717	1.6364	5.e-002	4.8089
16105	13.717	1.9091	0.	5.5806
16106	13.809	1.8182	0.	6.2792
16107	13.717	1.8182	5.e-002	4.8097
16108	13.717	2.0909	0.	5.1294
16109	13.809	2.	0.	5.8105
16110	13.717	2.	5.e-002	4.8105
16111	13.717	2.2727	0.	4.7571
16112	13.809	2.1818	0.	5.4164
16113	13.717	2.1818	5.e-002	4.8111
16114	13.717	2.4545	0.	4.4655
16115	13.809	2.3636	0.	5.0988
16116	13.717	2.3636	5.e-002	4.8115
16117	13.717	2.6364	0.	4.2562
16118	13.809	2.5455	0.	4.8593
16119	13.717	2.5455	5.e-002	4.8119
16120	13.717	2.8182	0.	4.1301
16121	13.809	2.7273	0.	4.6989
16122	13.717	2.7273	5.e-002	4.8121
16123	13.717	3.	0.	4.088
16124	13.809	2.9091	0.	4.6185
16125	13.717	2.9091	5.e-002	4.8123
16126	13.717	3.1818	0.	4.1301
16127	13.809	3.0909	0.	4.6185
16128	13.717	3.0909	5.e-002	4.8122
16129	13.717	3.3636	0.	4.2562
16130	13.809	3.2727	0.	4.6989
16131	13.717	3.2727	5.e-002	4.8121
16132	13.717	3.5455	0.	4.4656
16133	13.809	3.4545	0.	4.8593
16134	13.717	3.4545	5.e-002	4.8119
16135	13.717	3.7273	0.	4.7572
16136	13.809	3.6364	0.	5.0988
16137	13.717	3.6364	5.e-002	4.8115
16138	13.717	3.9091	0.	5.1295
16139	13.809	3.8182	0.	5.4164
16140	13.717	3.8182	5.e-002	4.811
16141	13.717	4.0909	0.	5.5806
16142	13.809	4.	0.	5.8105
16143	13.717	4.	5.e-002	4.8104
16144	13.717	4.2727	0.	6.1084
16145	13.809	4.1818	0.	6.2792
16146	13.717	4.1818	5.e-002	4.8097
16147	13.717	4.4545	0.	6.7103
16148	13.809	4.3636	0.	6.8205
16149	13.717	4.3636	5.e-002	4.8088
16150	13.717	4.6364	0.	7.3835
16151	13.809	4.5455	0.	7.4317
16152	13.717	4.5455	5.e-002	4.8079
16153	13.717	4.8182	0.	8.1249
16154	13.809	4.7273	0.	8.1103
16155	13.717	4.7273	5.e-002	4.8068
16156	13.717	5.	0.	8.9312
16157	13.809	4.9091	0.	8.8533
16158	13.717	4.9091	5.e-002	4.8056
16159	13.717	5.1818	0.	9.7989
16160	13.809	5.0909	0.	9.6576
16161	13.717	5.0909	5.e-002	4.8042
16162	13.717	5.3636	0.	10.727
16163	13.809	5.2727	0.	10.52
16164	13.717	5.2727	5.e-002	4.8015
16165	13.717	5.5455	0.	11.756
16166	13.809	5.4545	0.	11.443
16167	13.717	5.4545	5.e-002	4.7805
16168	13.717	5.7273	0.	13.643
16169	13.809	5.6364	0.	12.509
16170	13.717	5.6364	5.e-002	4.4802
16171	13.809	5.8182	0.	15.237
16172	13.717	5.8182	5.e-002	0.11962
16173	13.717	5.9091	0.	10.107
16174	13.901	0.27273	0.	13.991
16175	13.992	0.18182	0.	15.559
16176	13.901	0.18182	5.e-002	0.1331
16177	13.901	9.0909e-002	0.	10.313
16178	13.901	0.45455	0.	12.166
16179	13.992	0.36364	0.	12.878
16180	13.901	0.36364	5.e-002	4.4601
16181	13.901	0.63636	0.	11.209
16182	13.992	0.54545	0.	11.882
16183	13.901	0.54545	5.e-002	4.7596
16184	13.901	0.81818	0.	10.353
16185	13.992	0.72727	0.	11.03
16186	13.901	0.72727	5.e-002	4.7805
16187	13.901	1.	0.	9.5536
16188	13.992	0.90909	0.	10.235
16189	13.901	0.90909	5.e-002	4.7831
16190	13.901	1.1818	0.	8.8127
16191	13.992	1.0909	0.	9.496
16192	13.901	1.0909	5.e-002	4.7844
16193	13.901	1.3636	0.	8.1326
16194	13.992	1.2727	0.	8.8146
16195	13.901	1.2727	5.e-002	4.7855
16196	13.901	1.5455	0.	7.5161
16197	13.992	1.4545	0.	8.1933
16198	13.901	1.4545	5.e-002	4.7865
16199	13.901	1.7273	0.	6.9656
16200	13.992	1.6364	0.	7.6346
16201	13.901	1.6364	5.e-002	4.7874
16202	13.901	1.9091	0.	6.4836
16203	13.992	1.8182	0.	7.1407
16204	13.901	1.8182	5.e-002	4.7882
16205	13.901	2.0909	0.	6.072
16206	13.992	2.	0.	6.7135
16207	13.901	2.	5.e-002	4.7889
16208	13.901	2.2727	0.	5.7326
16209	13.992	2.1818	0.	6.3547
16210	13.901	2.1818	5.e-002	4.7894
16211	13.901	2.4545	0.	5.4671
16212	13.992	2.3636	0.	6.0658
16213	13.901	2.3636	5.e-002	4.7899
16214	13.901	2.6364	0.	5.2766
16215	13.992	2.5455	0.	5.848
16216	13.901	2.5455	5.e-002	4.7902
16217	13.901	2.8182	0.	5.1619
16218	13.992	2.7273	0.	5.7023
16219	13.901	2.7273	5.e-002	4.7904
16220	13.901	3.	0.	5.1236
16221	13.992	2.9091	0.	5.6293
16222	13.901	2.9091	5.e-002	4.7906
16223	13.901	3.1818	0.	5.1619
16224	13.992	3.0909	0.	5.6293
16225	13.901	3.0909	5.e-002	4.7905
16226	13.901	3.3636	0.	5.2766
16227	13.992	3.2727	0.	5.7023
16228	13.901	3.2727	5.e-002	4.7904
16229	13.901	3.5455	0.	5.4671
16230	13.992	3.4545	0.	5.8481
16231	13.901	3.4545	5.e-002	4.7902
16232	13.901	3.7273	0.	5.7327
16233	13.992	3.6364	0.	6.0658
16234	13.901	3.6364	5.e-002	4.7898
16235	13.901	3.9091	0.	6.072
16236	13.992	3.8182	0.	6.3547
16237	13.901	3.8182	5.e-002	4.7894
16238	13.901	4.0909	0.	6.4836
16239	13.992	4.	0.	6.7135
16240	13.901	4.	5.e-002	4.7888
16241	13.901	4.2727	0.	6.9657
16242	13.992	4.1818	0.	7.1407
16243	13.901	4.1818	5.e-002	4.7881
16244	13.901	4.4545	0.	7.5161
16245	13.992	4.3636	0.	7.6347
16246	13.901	4.3636	5.e-002	4.7873
16247	13.901	4.6364	0.	8.1327
16248	13.992	4.5455	0.	8.1934
16249	13.901	4.5455	5.e-002	4.7864
16250	13.901	4.8182	0.	8.8128
16251	13.992	4.7273	0.	8.8147
16252	13.901	4.7273	5.e-002	4.7854
16253	13.901	5.	0.	9.5537
16254	13.992	4.9091	0.	9.4962
16255	13.901	4.9091	5.e-002	4.7843
16256	13.901	5.1818	0.	10.353
16257	13.992	5.0909	0.	10.235
16258	13.901	5.0909	5.e-002	4.783
16259	13.901	5.3636	0.	11.209
16260	13.992	5.2727	0.	11.03
16261	13.901	5.2727	5.e-002	4.7804
16262	13.901	5.5455	0.	12.166
16263	13.992	5.4545	0.	11.882
16264	13.901	5.4545	5.e-002	4.7595
16265	13.901	5.7273	0.	13.991
16266	13.992	5.6364	0.	12.878
16267	13.901	5.6364	5.e-002	4.4599
16268	13.992	5.8182	0.	15.559
16269	13.901	5.8182	5.e-002	0.13302
16270	13.901	5.9091	0.	10.313
16271	14.084	0.27273	0.	14.332
16272	14.176	0.18182	0.	15.877
16273	14.084	0.18182	5.e-002	0.14503
16274	14.084	9.0909e-002	0.	10.518
16275	14.084	0.45455	0.	12.564
16276	14.176	0.36364	0.	13.238
16277	14.084	0.36364	5.e-002	4.4401
16278	14.084	0.63636	0.	11.676
16279	14.176	0.54545	0.	12.309
16280	14.084	0.54545	5.e-002	4.7388
16281	14.084	0.81818	0.	10.886
16282	14.176	0.72727	0.	11.522
16283	14.084	0.72727	5.e-002	4.7596
16284	14.084	1.	0.	10.151
16285	14.176	0.90909	0.	10.791
16286	14.084	0.90909	5.e-002	4.7621
16287	14.084	1.1818	0.	9.4716
16288	14.176	1.0909	0.	10.114
16289	14.084	1.0909	5.e-002	4.7633
16290	14.084	1.3636	0.	8.8491
16291	14.176	1.2727	0.	9.49
16292	14.084	1.2727	5.e-002	4.7643
16293	14.084	1.5455	0.	8.2857
16294	14.176	1.4545	0.	8.9227
16295	14.084	1.4545	5.e-002	4.7653
16296	14.084	1.7273	0.	7.7836
16297	14.176	1.6364	0.	8.4135
16298	14.084	1.6364	5.e-002	4.7661
16299	14.084	1.9091	0.	7.3446
16300	14.176	1.8182	0.	7.9641
16301	14.084	1.8182	5.e-002	4.7669
16302	14.084	2.0909	0.	6.9702
16303	14.176	2.	0.	7.5759
16304	14.084	2.	5.e-002	4.7675
16305	14.084	2.2727	0.	6.6619
16306	14.176	2.1818	0.	7.2504
16307	14.084	2.1818	5.e-002	4.768
16308	14.084	2.4545	0.	6.4208
16309	14.176	2.3636	0.	6.9885
16310	14.084	2.3636	5.e-002	4.7685
16311	14.084	2.6364	0.	6.2479
16312	14.176	2.5455	0.	6.7913
16313	14.084	2.5455	5.e-002	4.7688
16314	14.084	2.8182	0.	6.1439
16315	14.176	2.7273	0.	6.6595
16316	14.084	2.7273	5.e-002	4.769
16317	14.084	3.	0.	6.1092
16318	14.176	2.9091	0.	6.5934
16319	14.084	2.9091	5.e-002	4.7691
16320	14.084	3.1818	0.	6.1439
16321	14.176	3.0909	0.	6.5934
16322	14.084	3.0909	5.e-002	4.7691
16323	14.084	3.3636	0.	6.248
16324	14.176	3.2727	0.	6.6595
16325	14.084	3.2727	5.e-002	4.769
16326	14.084	3.5455	0.	6.4208
16327	14.176	3.4545	0.	6.7914
16328	14.084	3.4545	5.e-002	4.7688
16329	14.084	3.7273	0.	6.6619
16330	14.176	3.6364	0.	6.9886
16331	14.084	3.6364	5.e-002	4.7684
16332	14.084	3.9091	0.	6.9702
16333	14.176	3.8182	0.	7.2504
16334	14.084	3.8182	5.e-002	4.768
16335	14.084	4.0909	0.	7.3446
16336	14.176	4.	0.	7.576
16337	14.084	4.	5.e-002	4.7675
16338	14.084	4.2727	0.	7.7837
16339	14.176	4.1818	0.	7.9641
16340	14.084	4.1818	5.e-002	4.7668
16341	14.084	4.4545	0.	8.2858
16342	14.176	4.3636	0.	8.4136
16343	14.084	4.3636	5.e-002	4.7661
16344	14.084	4.6364	0.	8.8491
16345	14.176	4.5455	0.	8.9228
16346	14.084	4.5455	5.e-002	4.7652
16347	14.084	4.8182	0.	9.4717
16348	14.176	4.7273	0.	9.4901
16349	14.084	4.7273	5.e-002	4.7643
16350	14.084	5.	0.	10.151
16351	14.176	4.9091	0.	10.114
16352	14.084	4.9091	5.e-002	4.7632
16353	14.084	5.1818	0.	10.886
16354	14.176	5.0909	0.	10.792
16355	14.084	5.0909	5.e-002	4.7619
16356	14.084	5.3636	0.	11.676
16357	14.176	5.2727	0.	11.522
16358	14.084	5.2727	5.e-002	4.7594
16359	14.084	5.5455	0.	12.564
16360	14.176	5.4545	0.	12.309
16361	14.084	5.4545	5.e-002	4.7387
16362	14.084	5.7273	0.	14.332
16363	14.176	5.6364	0.	13.238
16364	14.084	5.6364	5.e-002	4.4399
16365	14.176	5.8182	0.	15.878
16366	14.084	5.8182	5.e-002	0.14492
16367	14.084	5.9091	0.	10.518
16368	14.268	0.27273	0.	14.668
16369	14.36	0.18182	0.	16.193
16370	14.268	0.18182	5.e-002	0.15561
16371	14.268	9.0909e-002	0.	10.72
16372	14.268	0.45455	0.	12.952
16373	14.36	0.36364	0.	13.591
16374	14.268	0.36364	5.e-002	4.4203
16375	14.268	0.63636	0.	12.128
16376	14.36	0.54545	0.	12.724
16377	14.268	0.54545	5.e-002	4.7182
16378	14.268	0.81818	0.	11.401
16379	14.36	0.72727	0.	11.999
16380	14.268	0.72727	5.e-002	4.7388
16381	14.268	1.	0.	10.727
16382	14.36	0.90909	0.	11.329
16383	14.268	0.90909	5.e-002	4.7412
16384	14.268	1.1818	0.	10.105
16385	14.36	1.0909	0.	10.709
16386	14.268	1.0909	5.e-002	4.7424
16387	14.268	1.3636	0.	9.5369
16388	14.36	1.2727	0.	10.14
16389	14.268	1.2727	5.e-002	4.7434
16390	14.268	1.5455	0.	9.0239
16391	14.36	1.4545	0.	9.624
16392	14.268	1.4545	5.e-002	4.7443
16393	14.268	1.7273	0.	8.5674
16394	14.36	1.6364	0.	9.1617
16395	14.268	1.6364	5.e-002	4.7451
16396	14.268	1.9091	0.	8.169
16397	14.36	1.8182	0.	8.7544
16398	14.268	1.8182	5.e-002	4.7458
16399	14.268	2.0909	0.	7.8297
16400	14.36	2.	0.	8.4033
16401	14.268	2.	5.e-002	4.7464
16402	14.268	2.2727	0.	7.5507
16403	14.36	2.1818	0.	8.1092
16404	14.268	2.1818	5.e-002	4.7469
16405	14.268	2.4545	0.	7.3327
16406	14.36	2.3636	0.	7.873
16407	14.268	2.3636	5.e-002	4.7473
16408	14.268	2.6364	0.	7.1766
16409	14.36	2.5455	0.	7.6953
16410	14.268	2.5455	5.e-002	4.7476
16411	14.268	2.8182	0.	7.0826
16412	14.36	2.7273	0.	7.5765
16413	14.268	2.7273	5.e-002	4.7478
16414	14.268	3.	0.	7.0513
16415	14.36	2.9091	0.	7.517
16416	14.268	2.9091	5.e-002	4.7478
16417	14.268	3.1818	0.	7.0827
16418	14.36	3.0909	0.	7.517
16419	14.268	3.0909	5.e-002	4.7478
16420	14.268	3.3636	0.	7.1766
16421	14.36	3.2727	0.	7.5765
16422	14.268	3.2727	5.e-002	4.7477
16423	14.268	3.5455	0.	7.3328
16424	14.36	3.4545	0.	7.6953
16425	14.268	3.4545	5.e-002	4.7475
16426	14.268	3.7273	0.	7.5507
16427	14.36	3.6364	0.	7.873
16428	14.268	3.6364	5.e-002	4.7472
16429	14.268	3.9091	0.	7.8298
16430	14.36	3.8182	0.	8.1093
16431	14.268	3.8182	5.e-002	4.7468
16432	14.268	4.0909	0.	8.169
16433	14.36	4.	0.	8.4034
16434	14.268	4.	5.e-002	4.7463
16435	14.268	4.2727	0.	8.5675
16436	14.36	4.1818	0.	8.7545
16437	14.268	4.1818	5.e-002	4.7457
16438	14.268	4.4545	0.	9.0239
16439	14.36	4.3636	0.	9.1617
16440	14.268	4.3636	5.e-002	4.745
16441	14.268	4.6364	0.	9.537
16442	14.36	4.5455	0.	9.6241
16443	14.268	4.5455	5.e-002	4.7442
16444	14.268	4.8182	0.	10.105
16445	14.36	4.7273	0.	10.14
16446	14.268	4.7273	5.e-002	4.7433
16447	14.268	5.	0.	10.727
16448	14.36	4.9091	0.	10.709
16449	14.268	4.9091	5.e-002	4.7423
16450	14.268	5.1818	0.	11.401
16451	14.36	5.0909	0.	11.329
16452	14.268	5.0909	5.e-002	4.7411
16453	14.268	5.3636	0.	12.128
16454	14.36	5.2727	0.	11.999
16455	14.268	5.2727	5.e-002	4.7386
16456	14.268	5.5455	0.	12.952
16457	14.36	5.4545	0.	12.724
16458	14.268	5.4545	5.e-002	4.718
16459	14.268	5.7273	0.	14.668
16460	14.36	5.6364	0.	13.591
16461	14.268	5.6364	5.e-002	4.4202
16462	14.36	5.8182	0.	16.193
16463	14.268	5.8182	5.e-002	0.1555
16464	14.268	5.9091	0.	10.72
16465	14.451	0.27273	0.	15.
16466	14.543	0.18182	0.	16.507
16467	14.451	0.18182	5.e-002	0.165
16468	14.451	9.0909e-002	0.	10.922
16469	14.451	0.45455	0.	13.332
16470	14.543	0.36364	0.	13.939
16471	14.451	0.36364	5.e-002	4.4007
16472	14.451	0.63636	0.	12.568
16473	14.543	0.54545	0.	13.13
16474	14.451	0.54545	5.e-002	4.6976
16475	14.451	0.81818	0.	11.9
16476	14.543	0.72727	0.	12.464
16477	14.451	0.72727	5.e-002	4.7181
16478	14.451	1.	0.	11.284
16479	14.543	0.90909	0.	11.851
16480	14.451	0.90909	5.e-002	4.7205
16481	14.451	1.1818	0.	10.717
16482	14.543	1.0909	0.	11.286
16483	14.451	1.0909	5.e-002	4.7216
16484	14.451	1.3636	0.	10.2
16485	14.543	1.2727	0.	10.769
16486	14.451	1.2727	5.e-002	4.7225
16487	14.451	1.5455	0.	9.7348
16488	14.543	1.4545	0.	10.301
16489	14.451	1.4545	5.e-002	4.7234
16490	14.451	1.7273	0.	9.3217
16491	14.543	1.6364	0.	9.8837
16492	14.451	1.6364	5.e-002	4.7241
16493	14.451	1.9091	0.	8.9618
16494	14.543	1.8182	0.	9.5166
16495	14.451	1.8182	5.e-002	4.7248
16496	14.451	2.0909	0.	8.656
16497	14.543	2.	0.	9.2008
16498	14.451	2.	5.e-002	4.7254
16499	14.451	2.2727	0.	8.4047
16500	14.543	2.1818	0.	8.9367
16501	14.451	2.1818	5.e-002	4.7258
16502	14.451	2.4545	0.	8.2087
16503	14.543	2.3636	0.	8.7249
16504	14.451	2.3636	5.e-002	4.7262
16505	14.451	2.6364	0.	8.0684
16506	14.543	2.5455	0.	8.5657
16507	14.451	2.5455	5.e-002	4.7265
16508	14.451	2.8182	0.	7.9841
16509	14.543	2.7273	0.	8.4594
16510	14.451	2.7273	5.e-002	4.7267
16511	14.451	3.	0.	7.956
16512	14.543	2.9091	0.	8.4062
16513	14.451	2.9091	5.e-002	4.7268
16514	14.451	3.1818	0.	7.9841
16515	14.543	3.0909	0.	8.4062
16516	14.451	3.0909	5.e-002	4.7268
16517	14.451	3.3636	0.	8.0684
16518	14.543	3.2727	0.	8.4594
16519	14.451	3.2727	5.e-002	4.7267
16520	14.451	3.5455	0.	8.2088
16521	14.543	3.4545	0.	8.5657
16522	14.451	3.4545	5.e-002	4.7265
16523	14.451	3.7273	0.	8.4048
16524	14.543	3.6364	0.	8.7249
16525	14.451	3.6364	5.e-002	4.7262
16526	14.451	3.9091	0.	8.656
16527	14.543	3.8182	0.	8.9367
16528	14.451	3.8182	5.e-002	4.7258
16529	14.451	4.0909	0.	8.9619
16530	14.543	4.	0.	9.2008
16531	14.451	4.	5.e-002	4.7253
16532	14.451	4.2727	0.	9.3218
16533	14.543	4.1818	0.	9.5167
16534	14.451	4.1818	5.e-002	4.7247
16535	14.451	4.4545	0.	9.7349
16536	14.543	4.3636	0.	9.8838
16537	14.451	4.3636	5.e-002	4.7241
16538	14.451	4.6364	0.	10.2
16539	14.543	4.5455	0.	10.302
16540	14.451	4.5455	5.e-002	4.7233
16541	14.451	4.8182	0.	10.717
16542	14.543	4.7273	0.	10.769
16543	14.451	4.7273	5.e-002	4.7224
16544	14.451	5.	0.	11.284
16545	14.543	4.9091	0.	11.286
16546	14.451	4.9091	5.e-002	4.7215
16547	14.451	5.1818	0.	11.901
16548	14.543	5.0909	0.	11.851
16549	14.451	5.0909	5.e-002	4.7204
16550	14.451	5.3636	0.	12.568
16551	14.543	5.2727	0.	12.464
16552	14.451	5.2727	5.e-002	4.718
16553	14.451	5.5455	0.	13.332
16554	14.543	5.4545	0.	13.13
16555	14.451	5.4545	5.e-002	4.6975
16556	14.451	5.7273	0.	15.
16557	14.543	5.6364	0.	13.939
16558	14.451	5.6364	5.e-002	4.4005
16559	14.543	5.8182	0.	16.507
16560	14.451	5.8182	5.e-002	0.16489
16561	14.451	5.9091	0.	10.922
16562	14.635	0.27273	0.	15.328
16563	14.727	0.18182	0.	16.82
16564	14.635	0.18182	5.e-002	0.17319
16565	14.635	9.0909e-002	0.	11.124
16566	14.635	0.45455	0.	13.705
16567	14.727	0.36364	0.	14.282
16568	14.635	0.36364	5.e-002	4.3813
16569	14.635	0.63636	0.	12.998
16570	14.727	0.54545	0.	13.529
16571	14.635	0.54545	5.e-002	4.6772
16572	14.635	0.81818	0.	12.387
16573	14.727	0.72727	0.	12.919
16574	14.635	0.72727	5.e-002	4.6976
16575	14.635	1.	0.	11.826
16576	14.727	0.90909	0.	12.36
16577	14.635	0.90909	5.e-002	4.6999
16578	14.635	1.1818	0.	11.311
16579	14.727	1.0909	0.	11.847
16580	14.635	1.0909	5.e-002	4.701
16581	14.635	1.3636	0.	10.843
16582	14.727	1.2727	0.	11.38
16583	14.635	1.2727	5.e-002	4.7019
16584	14.635	1.5455	0.	10.423
16585	14.727	1.4545	0.	10.959
16586	14.635	1.4545	5.e-002	4.7027
16587	14.635	1.7273	0.	10.051
16588	14.727	1.6364	0.	10.584
16589	14.635	1.6364	5.e-002	4.7034
16590	14.635	1.9091	0.	9.7282
16591	14.727	1.8182	0.	10.255
16592	14.635	1.8182	5.e-002	4.704
16593	14.635	2.0909	0.	9.4542
16594	14.727	2.	0.	9.9733
16595	14.635	2.	5.e-002	4.7046
16596	14.635	2.2727	0.	9.2296
16597	14.727	2.1818	0.	9.738
16598	14.635	2.1818	5.e-002	4.705
16599	14.635	2.4545	0.	9.0546
16600	14.727	2.3636	0.	9.5496
16601	14.635	2.3636	5.e-002	4.7054
16602	14.635	2.6364	0.	8.9294
16603	14.727	2.5455	0.	9.4082
16604	14.635	2.5455	5.e-002	4.7057
16605	14.635	2.8182	0.	8.8543
16606	14.727	2.7273	0.	9.3139
16607	14.635	2.7273	5.e-002	4.7059
16608	14.635	3.	0.	8.8292
16609	14.727	2.9091	0.	9.2667
16610	14.635	2.9091	5.e-002	4.7059
16611	14.635	3.1818	0.	8.8543
16612	14.727	3.0909	0.	9.2667
16613	14.635	3.0909	5.e-002	4.7059
16614	14.635	3.3636	0.	8.9294
16615	14.727	3.2727	0.	9.3139
16616	14.635	3.2727	5.e-002	4.7059
16617	14.635	3.5455	0.	9.0546
16618	14.727	3.4545	0.	9.4082
16619	14.635	3.4545	5.e-002	4.7056
16620	14.635	3.7273	0.	9.2296
16621	14.727	3.6364	0.	9.5496
16622	14.635	3.6364	5.e-002	4.7054
16623	14.635	3.9091	0.	9.4542
16624	14.727	3.8182	0.	9.738
16625	14.635	3.8182	5.e-002	4.705
16626	14.635	4.0909	0.	9.7283
16627	14.727	4.	0.	9.9733
16628	14.635	4.	5.e-002	4.7045
16629	14.635	4.2727	0.	10.051
16630	14.727	4.1818	0.	10.255
16631	14.635	4.1818	5.e-002	4.704
16632	14.635	4.4545	0.	10.423
16633	14.727	4.3636	0.	10.584
16634	14.635	4.3636	5.e-002	4.7033
16635	14.635	4.6364	0.	10.843
16636	14.727	4.5455	0.	10.959
16637	14.635	4.5455	5.e-002	4.7026
16638	14.635	4.8182	0.	11.311
16639	14.727	4.7273	0.	11.38
16640	14.635	4.7273	5.e-002	4.7018
16641	14.635	5.	0.	11.826
16642	14.727	4.9091	0.	11.848
16643	14.635	4.9091	5.e-002	4.7009
16644	14.635	5.1818	0.	12.387
16645	14.727	5.0909	0.	12.36
16646	14.635	5.0909	5.e-002	4.6998
16647	14.635	5.3636	0.	12.998
16648	14.727	5.2727	0.	12.919
16649	14.635	5.2727	5.e-002	4.6975
16650	14.635	5.5455	0.	13.705
16651	14.727	5.4545	0.	13.529
16652	14.635	5.4545	5.e-002	4.6771
16653	14.635	5.7273	0.	15.328
16654	14.727	5.6364	0.	14.282
16655	14.635	5.6364	5.e-002	4.3811
16656	14.727	5.8182	0.	16.82
16657	14.635	5.8182	5.e-002	0.1731
16658	14.635	5.9091	0.	11.124
16659	14.819	0.27273	0.	15.654
16660	14.911	0.18182	0.	17.132
16661	14.819	0.18182	5.e-002	0.18023
16662	14.819	9.0909e-002	0.	11.325
16663	14.819	0.45455	0.	14.073
16664	14.911	0.36364	0.	14.622
16665	14.819	0.36364	5.e-002	4.3622
16666	14.819	0.63636	0.	13.421
16667	14.911	0.54545	0.	13.922
16668	14.819	0.54545	5.e-002	4.6571
16669	14.819	0.81818	0.	12.864
16670	14.911	0.72727	0.	13.365
16671	14.819	0.72727	5.e-002	4.6773
16672	14.819	1.	0.	12.354
16673	14.911	0.90909	0.	12.859
16674	14.819	0.90909	5.e-002	4.6796
16675	14.819	1.1818	0.	11.889
16676	14.911	1.0909	0.	12.396
16677	14.819	1.0909	5.e-002	4.6807
16678	14.819	1.3636	0.	11.469
16679	14.911	1.2727	0.	11.977
16680	14.819	1.2727	5.e-002	4.6815
16681	14.819	1.5455	0.	11.092
16682	14.911	1.4545	0.	11.601
16683	14.819	1.4545	5.e-002	4.6823
16684	14.819	1.7273	0.	10.76
16685	14.911	1.6364	0.	11.267
16686	14.819	1.6364	5.e-002	4.683
16687	14.819	1.9091	0.	10.473
16688	14.911	1.8182	0.	10.975
16689	14.819	1.8182	5.e-002	4.6836
16690	14.819	2.0909	0.	10.229
16691	14.911	2.	0.	10.726
16692	14.819	2.	5.e-002	4.6841
16693	14.819	2.2727	0.	10.03
16694	14.911	2.1818	0.	10.518
16695	14.819	2.1818	5.e-002	4.6845
16696	14.819	2.4545	0.	9.8755
16697	14.911	2.3636	0.	10.352
16698	14.819	2.3636	5.e-002	4.6848
16699	14.819	2.6364	0.	9.7649
16700	14.911	2.5455	0.	10.228
16701	14.819	2.5455	5.e-002	4.6851
16702	14.819	2.8182	0.	9.6986
16703	14.911	2.7273	0.	10.145
16704	14.819	2.7273	5.e-002	4.6853
16705	14.819	3.	0.	9.6765
16706	14.911	2.9091	0.	10.104
16707	14.819	2.9091	5.e-002	4.6853
16708	14.819	3.1818	0.	9.6986
16709	14.911	3.0909	0.	10.104
16710	14.819	3.0909	5.e-002	4.6853
16711	14.819	3.3636	0.	9.7649
16712	14.911	3.2727	0.	10.145
16713	14.819	3.2727	5.e-002	4.6853
16714	14.819	3.5455	0.	9.8755
16715	14.911	3.4545	0.	10.228
16716	14.819	3.4545	5.e-002	4.6851
16717	14.819	3.7273	0.	10.03
16718	14.911	3.6364	0.	10.352
16719	14.819	3.6364	5.e-002	4.6848
16720	14.819	3.9091	0.	10.229
16721	14.911	3.8182	0.	10.518
16722	14.819	3.8182	5.e-002	4.6845
16723	14.819	4.0909	0.	10.473
16724	14.911	4.	0.	10.726
16725	14.819	4.	5.e-002	4.684
16726	14.819	4.2727	0.	10.76
16727	14.911	4.1818	0.	10.975
16728	14.819	4.1818	5.e-002	4.6835
16729	14.819	4.4545	0.	11.092
16730	14.911	4.3636	0.	11.267
16731	14.819	4.3636	5.e-002	4.6829
16732	14.819	4.6364	0.	11.469
16733	14.911	4.5455	0.	11.601
16734	14.819	4.5455	5.e-002	4.6822
16735	14.819	4.8182	0.	11.889
16736	14.911	4.7273	0.	11.977
16737	14.819	4.7273	5.e-002	4.6814
16738	14.819	5.	0.	12.354
16739	14.911	4.9091	0.	12.397
16740	14.819	4.9091	5.e-002	4.6805
16741	14.819	5.1818	0.	12.864
16742	14.911	5.0909	0.	12.859
16743	14.819	5.0909	5.e-002	4.6795
16744	14.819	5.3636	0.	13.421
16745	14.911	5.2727	0.	13.365
16746	14.819	5.2727	5.e-002	4.6772
16747	14.819	5.5455	0.	14.073
16748	14.911	5.4545	0.	13.922
16749	14.819	5.4545	5.e-002	4.657
16750	14.819	5.7273	0.	15.654
16751	14.911	5.6364	0.	14.622
16752	14.819	5.6364	5.e-002	4.3621
16753	14.911	5.8182	0.	17.132
16754	14.819	5.8182	5.e-002	0.18013
16755	14.819	5.9091	0.	11.326
16756	15.002	0.27273	0.	15.979
16757	15.094	0.18182	0.	17.445
16758	15.002	0.18182	5.e-002	0.1862
16759	15.002	9.0909e-002	0.	11.528
16760	15.002	0.45455	0.	14.438
16761	15.094	0.36364	0.	14.96
16762	15.002	0.36364	5.e-002	4.3433
16763	15.002	0.63636	0.	13.837
16764	15.094	0.54545	0.	14.31
16765	15.002	0.54545	5.e-002	4.6371
16766	15.002	0.81818	0.	13.332
16767	15.094	0.72727	0.	13.805
16768	15.002	0.72727	5.e-002	4.6573
16769	15.002	1.	0.	12.873
16770	15.094	0.90909	0.	13.35
16771	15.002	0.90909	5.e-002	4.6595
16772	15.002	1.1818	0.	12.456
16773	15.094	1.0909	0.	12.936
16774	15.002	1.0909	5.e-002	4.6605
16775	15.002	1.3636	0.	12.081
16776	15.094	1.2727	0.	12.563
16777	15.002	1.2727	5.e-002	4.6613
16778	15.002	1.5455	0.	11.747
16779	15.094	1.4545	0.	12.23
16780	15.002	1.4545	5.e-002	4.6621
16781	15.002	1.7273	0.	11.453
16782	15.094	1.6364	0.	11.936
16783	15.002	1.6364	5.e-002	4.6627
16784	15.002	1.9091	0.	11.2
16785	15.094	1.8182	0.	11.68
16786	15.002	1.8182	5.e-002	4.6633
16787	15.002	2.0909	0.	10.986
16788	15.094	2.	0.	11.462
16789	15.002	2.	5.e-002	4.6638
16790	15.002	2.2727	0.	10.812
16791	15.094	2.1818	0.	11.282
16792	15.002	2.1818	5.e-002	4.6642
16793	15.002	2.4545	0.	10.677
16794	15.094	2.3636	0.	11.138
16795	15.002	2.3636	5.e-002	4.6645
16796	15.002	2.6364	0.	10.58
16797	15.094	2.5455	0.	11.031
16798	15.002	2.5455	5.e-002	4.6648
16799	15.002	2.8182	0.	10.523
16800	15.094	2.7273	0.	10.959
16801	15.002	2.7273	5.e-002	4.6649
16802	15.002	3.	0.	10.503
16803	15.094	2.9091	0.	10.923
16804	15.002	2.9091	5.e-002	4.665
16805	15.002	3.1818	0.	10.523
16806	15.094	3.0909	0.	10.923
16807	15.002	3.0909	5.e-002	4.665
16808	15.002	3.3636	0.	10.58
16809	15.094	3.2727	0.	10.959
16810	15.002	3.2727	5.e-002	4.6649
16811	15.002	3.5455	0.	10.677
16812	15.094	3.4545	0.	11.031
16813	15.002	3.4545	5.e-002	4.6648
16814	15.002	3.7273	0.	10.812
16815	15.094	3.6364	0.	11.138
16816	15.002	3.6364	5.e-002	4.6645
16817	15.002	3.9091	0.	10.986
16818	15.094	3.8182	0.	11.282
16819	15.002	3.8182	5.e-002	4.6642
16820	15.002	4.0909	0.	11.2
16821	15.094	4.	0.	11.462
16822	15.002	4.	5.e-002	4.6637
16823	15.002	4.2727	0.	11.453
16824	15.094	4.1818	0.	11.68
16825	15.002	4.1818	5.e-002	4.6632
16826	15.002	4.4545	0.	11.747
16827	15.094	4.3636	0.	11.936
16828	15.002	4.3636	5.e-002	4.6627
16829	15.002	4.6364	0.	12.081
16830	15.094	4.5455	0.	12.23
16831	15.002	4.5455	5.e-002	4.662
16832	15.002	4.8182	0.	12.456
16833	15.094	4.7273	0.	12.563
16834	15.002	4.7273	5.e-002	4.6612
16835	15.002	5.	0.	12.873
16836	15.094	4.9091	0.	12.936
16837	15.002	4.9091	5.e-002	4.6604
16838	15.002	5.1818	0.	13.332
16839	15.094	5.0909	0.	13.35
16840	15.002	5.0909	5.e-002	4.6594
16841	15.002	5.3636	0.	13.837
16842	15.094	5.2727	0.	13.806
16843	15.002	5.2727	5.e-002	4.6572
16844	15.002	5.5455	0.	14.438
16845	15.094	5.4545	0.	14.31
16846	15.002	5.4545	5.e-002	4.637
16847	15.002	5.7273	0.	15.979
16848	15.094	5.6364	0.	14.96
16849	15.002	5.6364	5.e-002	4.3432
16850	15.094	5.8182	0.	17.445
16851	15.002	5.8182	5.e-002	0.18612
16852	15.002	5.9091	0.	11.528
16853	15.186	0.27273	0.	16.303
16854	15.278	0.18182	0.	17.759
16855	15.186	0.18182	5.e-002	0.19125
16856	15.186	9.0909e-002	0.	11.731
16857	15.186	0.45455	0.	14.8
16858	15.278	0.36364	0.	15.297
16859	15.186	0.36364	5.e-002	4.3247
16860	15.186	0.63636	0.	14.249
16861	15.278	0.54545	0.	14.696
16862	15.186	0.54545	5.e-002	4.6173
16863	15.186	0.81818	0.	13.794
16864	15.278	0.72727	0.	14.242
16865	15.186	0.72727	5.e-002	4.6373
16866	15.186	1.	0.	13.384
16867	15.278	0.90909	0.	13.835
16868	15.186	0.90909	5.e-002	4.6395
16869	15.186	1.1818	0.	13.014
16870	15.278	1.0909	0.	13.468
16871	15.186	1.0909	5.e-002	4.6405
16872	15.186	1.3636	0.	12.683
16873	15.278	1.2727	0.	13.141
16874	15.186	1.2727	5.e-002	4.6413
16875	15.186	1.5455	0.	12.39
16876	15.278	1.4545	0.	12.85
16877	15.186	1.4545	5.e-002	4.642
16878	15.186	1.7273	0.	12.134
16879	15.278	1.6364	0.	12.595
16880	15.186	1.6364	5.e-002	4.6426
16881	15.186	1.9091	0.	11.914
16882	15.278	1.8182	0.	12.375
16883	15.186	1.8182	5.e-002	4.6432
16884	15.186	2.0909	0.	11.729
16885	15.278	2.	0.	12.188
16886	15.186	2.	5.e-002	4.6437
16887	15.186	2.2727	0.	11.579
16888	15.278	2.1818	0.	12.034
16889	15.186	2.1818	5.e-002	4.6441
16890	15.186	2.4545	0.	11.463
16891	15.278	2.3636	0.	11.912
16892	15.186	2.3636	5.e-002	4.6444
16893	15.186	2.6364	0.	11.381
16894	15.278	2.5455	0.	11.821
16895	15.186	2.5455	5.e-002	4.6446
16896	15.186	2.8182	0.	11.331
16897	15.278	2.7273	0.	11.76
16898	15.186	2.7273	5.e-002	4.6448
16899	15.186	3.	0.	11.315
16900	15.278	2.9091	0.	11.73
16901	15.186	2.9091	5.e-002	4.6448
16902	15.186	3.1818	0.	11.331
16903	15.278	3.0909	0.	11.73
16904	15.186	3.0909	5.e-002	4.6448
16905	15.186	3.3636	0.	11.381
16906	15.278	3.2727	0.	11.76
16907	15.186	3.2727	5.e-002	4.6448
16908	15.186	3.5455	0.	11.463
16909	15.278	3.4545	0.	11.821
16910	15.186	3.4545	5.e-002	4.6446
16911	15.186	3.7273	0.	11.579
16912	15.278	3.6364	0.	11.912
16913	15.186	3.6364	5.e-002	4.6444
16914	15.186	3.9091	0.	11.729
16915	15.278	3.8182	0.	12.034
16916	15.186	3.8182	5.e-002	4.644
16917	15.186	4.0909	0.	11.914
16918	15.278	4.	0.	12.188
16919	15.186	4.	5.e-002	4.6436
16920	15.186	4.2727	0.	12.134
16921	15.278	4.1818	0.	12.375
16922	15.186	4.1818	5.e-002	4.6431
16923	15.186	4.4545	0.	12.39
16924	15.278	4.3636	0.	12.595
16925	15.186	4.3636	5.e-002	4.6426
16926	15.186	4.6364	0.	12.683
16927	15.278	4.5455	0.	12.85
16928	15.186	4.5455	5.e-002	4.6419
16929	15.186	4.8182	0.	13.014
16930	15.278	4.7273	0.	13.141
16931	15.186	4.7273	5.e-002	4.6412
16932	15.186	5.	0.	13.384
16933	15.278	4.9091	0.	13.469
16934	15.186	4.9091	5.e-002	4.6404
16935	15.186	5.1818	0.	13.794
16936	15.278	5.0909	0.	13.835
16937	15.186	5.0909	5.e-002	4.6394
16938	15.186	5.3636	0.	14.249
16939	15.278	5.2727	0.	14.242
16940	15.186	5.2727	5.e-002	4.6372
16941	15.186	5.5455	0.	14.8
16942	15.278	5.4545	0.	14.697
16943	15.186	5.4545	5.e-002	4.6172
16944	15.186	5.7273	0.	16.303
16945	15.278	5.6364	0.	15.297
16946	15.186	5.6364	5.e-002	4.3246
16947	15.278	5.8182	0.	17.759
16948	15.186	5.8182	5.e-002	0.19118
16949	15.186	5.9091	0.	11.731
16950	15.37	0.27273	0.	16.628
16951	15.461	0.18182	0.	18.075
16952	15.37	0.18182	5.e-002	0.19548
16953	15.37	9.0909e-002	0.	11.936
16954	15.37	0.45455	0.	15.16
16955	15.461	0.36364	0.	15.634
16956	15.37	0.36364	5.e-002	4.3062
16957	15.37	0.63636	0.	14.659
16958	15.461	0.54545	0.	15.082
16959	15.37	0.54545	5.e-002	4.5976
16960	15.37	0.81818	0.	14.253
16961	15.461	0.72727	0.	14.676
16962	15.37	0.72727	5.e-002	4.6175
16963	15.37	1.	0.	13.89
16964	15.461	0.90909	0.	14.317
16965	15.37	0.90909	5.e-002	4.6196
16966	15.37	1.1818	0.	13.566
16967	15.461	1.0909	0.	13.997
16968	15.37	1.0909	5.e-002	4.6206
16969	15.37	1.3636	0.	13.278
16970	15.461	1.2727	0.	13.714
16971	15.37	1.2727	5.e-002	4.6214
16972	15.37	1.5455	0.	13.026
16973	15.461	1.4545	0.	13.465
16974	15.37	1.4545	5.e-002	4.6221
16975	15.37	1.7273	0.	12.807
16976	15.461	1.6364	0.	13.249
16977	15.37	1.6364	5.e-002	4.6227
16978	15.37	1.9091	0.	12.62
16979	15.461	1.8182	0.	13.063
16980	15.37	1.8182	5.e-002	4.6232
16981	15.37	2.0909	0.	12.464
16982	15.461	2.	0.	12.907
16983	15.37	2.	5.e-002	4.6237
16984	15.37	2.2727	0.	12.338
16985	15.461	2.1818	0.	12.78
16986	15.37	2.1818	5.e-002	4.6241
16987	15.37	2.4545	0.	12.24
16988	15.461	2.3636	0.	12.679
16989	15.37	2.3636	5.e-002	4.6244
16990	15.37	2.6364	0.	12.171
16991	15.461	2.5455	0.	12.604
16992	15.37	2.5455	5.e-002	4.6246
16993	15.37	2.8182	0.	12.13
16994	15.461	2.7273	0.	12.554
16995	15.37	2.7273	5.e-002	4.6247
16996	15.37	3.	0.	12.117
16997	15.461	2.9091	0.	12.53
16998	15.37	2.9091	5.e-002	4.6248
16999	15.37	3.1818	0.	12.13
17000	15.461	3.0909	0.	12.53
17001	15.37	3.0909	5.e-002	4.6248
17002	15.37	3.3636	0.	12.171
17003	15.461	3.2727	0.	12.554
17004	15.37	3.2727	5.e-002	4.6247
17005	15.37	3.5455	0.	12.24
17006	15.461	3.4545	0.	12.604
17007	15.37	3.4545	5.e-002	4.6246
17008	15.37	3.7273	0.	12.338
17009	15.461	3.6364	0.	12.679
17010	15.37	3.6364	5.e-002	4.6243
17011	15.37	3.9091	0.	12.464
17012	15.461	3.8182	0.	12.78
17013	15.37	3.8182	5.e-002	4.624
17014	15.37	4.0909	0.	12.62
17015	15.461	4.	0.	12.907
17016	15.37	4.	5.e-002	4.6236
17017	15.37	4.2727	0.	12.807
17018	15.461	4.1818	0.	13.063
17019	15.37	4.1818	5.e-002	4.6231
17020	15.37	4.4545	0.	13.026
17021	15.461	4.3636	0.	13.249
17022	15.37	4.3636	5.e-002	4.6226
17023	15.37	4.6364	0.	13.278
17024	15.461	4.5455	0.	13.465
17025	15.37	4.5455	5.e-002	4.622
17026	15.37	4.8182	0.	13.566
17027	15.461	4.7273	0.	13.714
17028	15.37	4.7273	5.e-002	4.6213
17029	15.37	5.	0.	13.89
17030	15.461	4.9091	0.	13.998
17031	15.37	4.9091	5.e-002	4.6205
17032	15.37	5.1818	0.	14.253
17033	15.461	5.0909	0.	14.317
17034	15.37	5.0909	5.e-002	4.6195
17035	15.37	5.3636	0.	14.659
17036	15.461	5.2727	0.	14.676
17037	15.37	5.2727	5.e-002	4.6174
17038	15.37	5.5455	0.	15.161
17039	15.461	5.4545	0.	15.082
17040	15.37	5.4545	5.e-002	4.5975
17041	15.37	5.7273	0.	16.629
17042	15.461	5.6364	0.	15.635
17043	15.37	5.6364	5.e-002	4.3061
17044	15.461	5.8182	0.	18.075
17045	15.37	5.8182	5.e-002	0.19539
17046	15.37	5.9091	0.	11.936
17047	15.553	0.27273	0.	16.955
17048	15.645	0.18182	0.	18.394
17049	15.553	0.18182	5.e-002	0.1989
17050	15.553	9.0909e-002	0.	12.142
17051	15.553	0.45455	0.	15.522
17052	15.645	0.36364	0.	15.973
17053	15.553	0.36364	5.e-002	4.2879
17054	15.553	0.63636	0.	15.068
17055	15.645	0.54545	0.	15.468
17056	15.553	0.54545	5.e-002	4.578
17057	15.553	0.81818	0.	14.71
17058	15.645	0.72727	0.	15.11
17059	15.553	0.72727	5.e-002	4.5978
17060	15.553	1.	0.	14.395
17061	15.645	0.90909	0.	14.799
17062	15.553	0.90909	5.e-002	4.5999
17063	15.553	1.1818	0.	14.116
17064	15.645	1.0909	0.	14.525
17065	15.553	1.0909	5.e-002	4.6008
17066	15.553	1.3636	0.	13.871
17067	15.645	1.2727	0.	14.286
17068	15.553	1.2727	5.e-002	4.6016
17069	15.553	1.5455	0.	13.658
17070	15.645	1.4545	0.	14.079
17071	15.553	1.4545	5.e-002	4.6023
17072	15.553	1.7273	0.	13.476
17073	15.645	1.6364	0.	13.901
17074	15.553	1.6364	5.e-002	4.6029
17075	15.553	1.9091	0.	13.321
17076	15.645	1.8182	0.	13.75
17077	15.553	1.8182	5.e-002	4.6034
17078	15.553	2.0909	0.	13.194
17079	15.645	2.	0.	13.625
17080	15.553	2.	5.e-002	4.6039
17081	15.553	2.2727	0.	13.091
17082	15.645	2.1818	0.	13.523
17083	15.553	2.1818	5.e-002	4.6043
17084	15.553	2.4545	0.	13.013
17085	15.645	2.3636	0.	13.443
17086	15.553	2.3636	5.e-002	4.6046
17087	15.553	2.6364	0.	12.958
17088	15.645	2.5455	0.	13.385
17089	15.553	2.5455	5.e-002	4.6048
17090	15.553	2.8182	0.	12.925
17091	15.645	2.7273	0.	13.346
17092	15.553	2.7273	5.e-002	4.6049
17093	15.553	3.	0.	12.914
17094	15.645	2.9091	0.	13.327
17095	15.553	2.9091	5.e-002	4.605
17096	15.553	3.1818	0.	12.925
17097	15.645	3.0909	0.	13.327
17098	15.553	3.0909	5.e-002	4.605
17099	15.553	3.3636	0.	12.958
17100	15.645	3.2727	0.	13.346
17101	15.553	3.2727	5.e-002	4.6049
17102	15.553	3.5455	0.	13.013
17103	15.645	3.4545	0.	13.385
17104	15.553	3.4545	5.e-002	4.6047
17105	15.553	3.7273	0.	13.091
17106	15.645	3.6364	0.	13.443
17107	15.553	3.6364	5.e-002	4.6045
17108	15.553	3.9091	0.	13.194
17109	15.645	3.8182	0.	13.523
17110	15.553	3.8182	5.e-002	4.6042
17111	15.553	4.0909	0.	13.321
17112	15.645	4.	0.	13.625
17113	15.553	4.	5.e-002	4.6038
17114	15.553	4.2727	0.	13.476
17115	15.645	4.1818	0.	13.75
17116	15.553	4.1818	5.e-002	4.6034
17117	15.553	4.4545	0.	13.658
17118	15.645	4.3636	0.	13.901
17119	15.553	4.3636	5.e-002	4.6028
17120	15.553	4.6364	0.	13.871
17121	15.645	4.5455	0.	14.079
17122	15.553	4.5455	5.e-002	4.6022
17123	15.553	4.8182	0.	14.116
17124	15.645	4.7273	0.	14.286
17125	15.553	4.7273	5.e-002	4.6015
17126	15.553	5.	0.	14.395
17127	15.645	4.9091	0.	14.525
17128	15.553	4.9091	5.e-002	4.6008
17129	15.553	5.1818	0.	14.71
17130	15.645	5.0909	0.	14.799
17131	15.553	5.0909	5.e-002	4.5998
17132	15.553	5.3636	0.	15.068
17133	15.645	5.2727	0.	15.11
17134	15.553	5.2727	5.e-002	4.5977
17135	15.553	5.5455	0.	15.522
17136	15.645	5.4545	0.	15.468
17137	15.553	5.4545	5.e-002	4.5779
17138	15.553	5.7273	0.	16.955
17139	15.645	5.6364	0.	15.973
17140	15.553	5.6364	5.e-002	4.2878
17141	15.645	5.8182	0.	18.394
17142	15.553	5.8182	5.e-002	0.19882
17143	15.553	5.9091	0.	12.142
17144	15.737	0.27273	0.	17.284
17145	15.829	0.18182	0.	18.716
17146	15.737	0.18182	5.e-002	0.20154
17147	15.737	9.0909e-002	0.	12.351
17148	15.737	0.45455	0.	15.885
17149	15.829	0.36364	0.	16.314
17150	15.737	0.36364	5.e-002	4.2699
17151	15.737	0.63636	0.	15.479
17152	15.829	0.54545	0.	15.855
17153	15.737	0.54545	5.e-002	4.5586
17154	15.737	0.81818	0.	15.168
17155	15.829	0.72727	0.	15.546
17156	15.737	0.72727	5.e-002	4.5783
17157	15.737	1.	0.	14.899
17158	15.829	0.90909	0.	15.282
17159	15.737	0.90909	5.e-002	4.5805
17160	15.737	1.1818	0.	14.666
17161	15.829	1.0909	0.	15.055
17162	15.737	1.0909	5.e-002	4.5814
17163	15.737	1.3636	0.	14.464
17164	15.829	1.2727	0.	14.86
17165	15.737	1.2727	5.e-002	4.5821
17166	15.737	1.5455	0.	14.291
17167	15.829	1.4545	0.	14.694
17168	15.737	1.4545	5.e-002	4.5828
17169	15.737	1.7273	0.	14.145
17170	15.829	1.6364	0.	14.555
17171	15.737	1.6364	5.e-002	4.5834
17172	15.737	1.9091	0.	14.023
17173	15.829	1.8182	0.	14.439
17174	15.737	1.8182	5.e-002	4.5839
17175	15.737	2.0909	0.	13.924
17176	15.829	2.	0.	14.344
17177	15.737	2.	5.e-002	4.5843
17178	15.737	2.2727	0.	13.845
17179	15.829	2.1818	0.	14.269
17180	15.737	2.1818	5.e-002	4.5847
17181	15.737	2.4545	0.	13.786
17182	15.829	2.3636	0.	14.211
17183	15.737	2.3636	5.e-002	4.585
17184	15.737	2.6364	0.	13.744
17185	15.829	2.5455	0.	14.169
17186	15.737	2.5455	5.e-002	4.5852
17187	15.737	2.8182	0.	13.719
17188	15.829	2.7273	0.	14.141
17189	15.737	2.7273	5.e-002	4.5854
17190	15.737	3.	0.	13.711
17191	15.829	2.9091	0.	14.128
17192	15.737	2.9091	5.e-002	4.5854
17193	15.737	3.1818	0.	13.719
17194	15.829	3.0909	0.	14.128
17195	15.737	3.0909	5.e-002	4.5854
17196	15.737	3.3636	0.	13.744
17197	15.829	3.2727	0.	14.141
17198	15.737	3.2727	5.e-002	4.5853
17199	15.737	3.5455	0.	13.786
17200	15.829	3.4545	0.	14.169
17201	15.737	3.4545	5.e-002	4.5852
17202	15.737	3.7273	0.	13.845
17203	15.829	3.6364	0.	14.211
17204	15.737	3.6364	5.e-002	4.585
17205	15.737	3.9091	0.	13.924
17206	15.829	3.8182	0.	14.269
17207	15.737	3.8182	5.e-002	4.5847
17208	15.737	4.0909	0.	14.023
17209	15.829	4.	0.	14.344
17210	15.737	4.	5.e-002	4.5843
17211	15.737	4.2727	0.	14.145
17212	15.829	4.1818	0.	14.439
17213	15.737	4.1818	5.e-002	4.5838
17214	15.737	4.4545	0.	14.291
17215	15.829	4.3636	0.	14.555
17216	15.737	4.3636	5.e-002	4.5833
17217	15.737	4.6364	0.	14.464
17218	15.829	4.5455	0.	14.694
17219	15.737	4.5455	5.e-002	4.5827
17220	15.737	4.8182	0.	14.666
17221	15.829	4.7273	0.	14.86
17222	15.737	4.7273	5.e-002	4.582
17223	15.737	5.	0.	14.9
17224	15.829	4.9091	0.	15.055
17225	15.737	4.9091	5.e-002	4.5813
17226	15.737	5.1818	0.	15.169
17227	15.829	5.0909	0.	15.283
17228	15.737	5.0909	5.e-002	4.5803
17229	15.737	5.3636	0.	15.479
17230	15.829	5.2727	0.	15.546
17231	15.737	5.2727	5.e-002	4.5782
17232	15.737	5.5455	0.	15.885
17233	15.829	5.4545	0.	15.856
17234	15.737	5.4545	5.e-002	4.5585
17235	15.737	5.7273	0.	17.284
17236	15.829	5.6364	0.	16.315
17237	15.737	5.6364	5.e-002	4.2698
17238	15.829	5.8182	0.	18.716
17239	15.737	5.8182	5.e-002	0.20148
17240	15.737	5.9091	0.	12.351
17241	15.92	0.27273	0.	17.617
17242	16.012	0.18182	0.	19.042
17243	15.92	0.18182	5.e-002	0.20355
17244	15.92	9.0909e-002	0.	12.563
17245	15.92	0.45455	0.	16.25
17246	16.012	0.36364	0.	16.659
17247	15.92	0.36364	5.e-002	4.2521
17248	15.92	0.63636	0.	15.892
17249	16.012	0.54545	0.	16.247
17250	15.92	0.54545	5.e-002	4.5394
17251	15.92	0.81818	0.	15.629
17252	16.012	0.72727	0.	15.986
17253	15.92	0.72727	5.e-002	4.559
17254	15.92	1.	0.	15.407
17255	16.012	0.90909	0.	15.77
17256	15.92	0.90909	5.e-002	4.5612
17257	15.92	1.1818	0.	15.219
17258	16.012	1.0909	0.	15.589
17259	15.92	1.0909	5.e-002	4.562
17260	15.92	1.3636	0.	15.06
17261	16.012	1.2727	0.	15.439
17262	15.92	1.2727	5.e-002	4.5628
17263	15.92	1.5455	0.	14.927
17264	16.012	1.4545	0.	15.315
17265	15.92	1.4545	5.e-002	4.5635
17266	15.92	1.7273	0.	14.818
17267	16.012	1.6364	0.	15.215
17268	15.92	1.6364	5.e-002	4.564
17269	15.92	1.9091	0.	14.73
17270	16.012	1.8182	0.	15.134
17271	15.92	1.8182	5.e-002	4.5646
17272	15.92	2.0909	0.	14.659
17273	16.012	2.	0.	15.071
17274	15.92	2.	5.e-002	4.565
17275	15.92	2.2727	0.	14.604
17276	16.012	2.1818	0.	15.022
17277	15.92	2.1818	5.e-002	4.5654
17278	15.92	2.4545	0.	14.564
17279	16.012	2.3636	0.	14.986
17280	15.92	2.3636	5.e-002	4.5656
17281	15.92	2.6364	0.	14.536
17282	16.012	2.5455	0.	14.96
17283	15.92	2.5455	5.e-002	4.5659
17284	15.92	2.8182	0.	14.519
17285	16.012	2.7273	0.	14.944
17286	15.92	2.7273	5.e-002	4.566
17287	15.92	3.	0.	14.514
17288	16.012	2.9091	0.	14.936
17289	15.92	2.9091	5.e-002	4.5661
17290	15.92	3.1818	0.	14.519
17291	16.012	3.0909	0.	14.936
17292	15.92	3.0909	5.e-002	4.5661
17293	15.92	3.3636	0.	14.536
17294	16.012	3.2727	0.	14.944
17295	15.92	3.2727	5.e-002	4.566
17296	15.92	3.5455	0.	14.564
17297	16.012	3.4545	0.	14.96
17298	15.92	3.4545	5.e-002	4.5658
17299	15.92	3.7273	0.	14.604
17300	16.012	3.6364	0.	14.986
17301	15.92	3.6364	5.e-002	4.5656
17302	15.92	3.9091	0.	14.659
17303	16.012	3.8182	0.	15.022
17304	15.92	3.8182	5.e-002	4.5653
17305	15.92	4.0909	0.	14.73
17306	16.012	4.	0.	15.071
17307	15.92	4.	5.e-002	4.565
17308	15.92	4.2727	0.	14.818
17309	16.012	4.1818	0.	15.134
17310	15.92	4.1818	5.e-002	4.5645
17311	15.92	4.4545	0.	14.927
17312	16.012	4.3636	0.	15.215
17313	15.92	4.3636	5.e-002	4.564
17314	15.92	4.6364	0.	15.06
17315	16.012	4.5455	0.	15.315
17316	15.92	4.5455	5.e-002	4.5634
17317	15.92	4.8182	0.	15.219
17318	16.012	4.7273	0.	15.439
17319	15.92	4.7273	5.e-002	4.5627
17320	15.92	5.	0.	15.407
17321	16.012	4.9091	0.	15.589
17322	15.92	4.9091	5.e-002	4.562
17323	15.92	5.1818	0.	15.629
17324	16.012	5.0909	0.	15.77
17325	15.92	5.0909	5.e-002	4.5611
17326	15.92	5.3636	0.	15.892
17327	16.012	5.2727	0.	15.986
17328	15.92	5.2727	5.e-002	4.5589
17329	15.92	5.5455	0.	16.25
17330	16.012	5.4545	0.	16.247
17331	15.92	5.4545	5.e-002	4.5393
17332	15.92	5.7273	0.	17.617
17333	16.012	5.6364	0.	16.659
17334	15.92	5.6364	5.e-002	4.252
17335	16.012	5.8182	0.	19.042
17336	15.92	5.8182	5.e-002	0.20349
17337	15.92	5.9091	0.	12.563
17338	16.104	0.27273	0.	17.953
17339	16.196	0.18182	0.	19.373
17340	16.104	0.18182	5.e-002	0.20506
17341	16.104	9.0909e-002	0.	12.777
17342	16.104	0.45455	0.	16.62
17343	16.196	0.36364	0.	17.008
17344	16.104	0.36364	5.e-002	4.2345
17345	16.104	0.63636	0.	16.309
17346	16.196	0.54545	0.	16.643
17347	16.104	0.54545	5.e-002	4.5204
17348	16.104	0.81818	0.	16.095
17349	16.196	0.72727	0.	16.431
17350	16.104	0.72727	5.e-002	4.5399
17351	16.104	1.	0.	15.921
17352	16.196	0.90909	0.	16.264
17353	16.104	0.90909	5.e-002	4.542
17354	16.104	1.1818	0.	15.778
17355	16.196	1.0909	0.	16.13
17356	16.104	1.0909	5.e-002	4.5429
17357	16.104	1.3636	0.	15.663
17358	16.196	1.2727	0.	16.026
17359	16.104	1.2727	5.e-002	4.5436
17360	16.104	1.5455	0.	15.571
17361	16.196	1.4545	0.	15.945
17362	16.104	1.4545	5.e-002	4.5443
17363	16.104	1.7273	0.	15.5
17364	16.196	1.6364	0.	15.884
17365	16.104	1.6364	5.e-002	4.5449
17366	16.104	1.9091	0.	15.445
17367	16.196	1.8182	0.	15.84
17368	16.104	1.8182	5.e-002	4.5454
17369	16.104	2.0909	0.	15.403
17370	16.196	2.	0.	15.809
17371	16.104	2.	5.e-002	4.5458
17372	16.104	2.2727	0.	15.373
17373	16.196	2.1818	0.	15.787
17374	16.104	2.1818	5.e-002	4.5462
17375	16.104	2.4545	0.	15.352
17376	16.196	2.3636	0.	15.773
17377	16.104	2.3636	5.e-002	4.5465
17378	16.104	2.6364	0.	15.338
17379	16.196	2.5455	0.	15.765
17380	16.104	2.5455	5.e-002	4.5467
17381	16.104	2.8182	0.	15.33
17382	16.196	2.7273	0.	15.76
17383	16.104	2.7273	5.e-002	4.5468
17384	16.104	3.	0.	15.327
17385	16.196	2.9091	0.	15.758
17386	16.104	2.9091	5.e-002	4.5469
17387	16.104	3.1818	0.	15.33
17388	16.196	3.0909	0.	15.758
17389	16.104	3.0909	5.e-002	4.5469
17390	16.104	3.3636	0.	15.338
17391	16.196	3.2727	0.	15.76
17392	16.104	3.2727	5.e-002	4.5468
17393	16.104	3.5455	0.	15.352
17394	16.196	3.4545	0.	15.765
17395	16.104	3.4545	5.e-002	4.5467
17396	16.104	3.7273	0.	15.373
17397	16.196	3.6364	0.	15.773
17398	16.104	3.6364	5.e-002	4.5464
17399	16.104	3.9091	0.	15.403
17400	16.196	3.8182	0.	15.787
17401	16.104	3.8182	5.e-002	4.5462
17402	16.104	4.0909	0.	15.445
17403	16.196	4.	0.	15.809
17404	16.104	4.	5.e-002	4.5458
17405	16.104	4.2727	0.	15.5
17406	16.196	4.1818	0.	15.84
17407	16.104	4.1818	5.e-002	4.5454
17408	16.104	4.4545	0.	15.571
17409	16.196	4.3636	0.	15.884
17410	16.104	4.3636	5.e-002	4.5448
17411	16.104	4.6364	0.	15.663
17412	16.196	4.5455	0.	15.945
17413	16.104	4.5455	5.e-002	4.5443
17414	16.104	4.8182	0.	15.778
17415	16.196	4.7273	0.	16.026
17416	16.104	4.7273	5.e-002	4.5436
17417	16.104	5.	0.	15.921
17418	16.196	4.9091	0.	16.131
17419	16.104	4.9091	5.e-002	4.5428
17420	16.104	5.1818	0.	16.095
17421	16.196	5.0909	0.	16.264
17422	16.104	5.0909	5.e-002	4.5419
17423	16.104	5.3636	0.	16.309
17424	16.196	5.2727	0.	16.431
17425	16.104	5.2727	5.e-002	4.5398
17426	16.104	5.5455	0.	16.62
17427	16.196	5.4545	0.	16.644
17428	16.104	5.4545	5.e-002	4.5203
17429	16.104	5.7273	0.	17.953
17430	16.196	5.6364	0.	17.009
17431	16.104	5.6364	5.e-002	4.2344
17432	16.196	5.8182	0.	19.373
17433	16.104	5.8182	5.e-002	0.205
17434	16.104	5.9091	0.	12.777
17435	16.288	0.27273	0.	18.294
17436	16.38	0.18182	0.	19.708
17437	16.288	0.18182	5.e-002	0.20616
17438	16.288	9.0909e-002	0.	12.996
17439	16.288	0.45455	0.	16.996
17440	16.38	0.36364	0.	17.363
17441	16.288	0.36364	5.e-002	4.2171
17442	16.288	0.63636	0.	16.733
17443	16.38	0.54545	0.	17.046
17444	16.288	0.54545	5.e-002	4.5015
17445	16.288	0.81818	0.	16.568
17446	16.38	0.72727	0.	16.884
17447	16.288	0.72727	5.e-002	4.5209
17448	16.288	1.	0.	16.442
17449	16.38	0.90909	0.	16.767
17450	16.288	0.90909	5.e-002	4.523
17451	16.288	1.1818	0.	16.346
17452	16.38	1.0909	0.	16.682
17453	16.288	1.0909	5.e-002	4.5239
17454	16.288	1.3636	0.	16.276
17455	16.38	1.2727	0.	16.624
17456	16.288	1.2727	5.e-002	4.5247
17457	16.288	1.5455	0.	16.226
17458	16.38	1.4545	0.	16.587
17459	16.288	1.4545	5.e-002	4.5253
17460	16.288	1.7273	0.	16.193
17461	16.38	1.6364	0.	16.568
17462	16.288	1.6364	5.e-002	4.5259
17463	16.288	1.9091	0.	16.173
17464	16.38	1.8182	0.	16.561
17465	16.288	1.8182	5.e-002	4.5264
17466	16.288	2.0909	0.	16.161
17467	16.38	2.	0.	16.562
17468	16.288	2.	5.e-002	4.5268
17469	16.288	2.2727	0.	16.156
17470	16.38	2.1818	0.	16.569
17471	16.288	2.1818	5.e-002	4.5272
17472	16.288	2.4545	0.	16.155
17473	16.38	2.3636	0.	16.578
17474	16.288	2.3636	5.e-002	4.5275
17475	16.288	2.6364	0.	16.155
17476	16.38	2.5455	0.	16.587
17477	16.288	2.5455	5.e-002	4.5277
17478	16.288	2.8182	0.	16.156
17479	16.38	2.7273	0.	16.594
17480	16.288	2.7273	5.e-002	4.5278
17481	16.288	3.	0.	16.157
17482	16.38	2.9091	0.	16.598
17483	16.288	2.9091	5.e-002	4.5279
17484	16.288	3.1818	0.	16.156
17485	16.38	3.0909	0.	16.598
17486	16.288	3.0909	5.e-002	4.5279
17487	16.288	3.3636	0.	16.155
17488	16.38	3.2727	0.	16.594
17489	16.288	3.2727	5.e-002	4.5278
17490	16.288	3.5455	0.	16.155
17491	16.38	3.4545	0.	16.587
17492	16.288	3.4545	5.e-002	4.5277
17493	16.288	3.7273	0.	16.156
17494	16.38	3.6364	0.	16.578
17495	16.288	3.6364	5.e-002	4.5275
17496	16.288	3.9091	0.	16.161
17497	16.38	3.8182	0.	16.569
17498	16.288	3.8182	5.e-002	4.5272
17499	16.288	4.0909	0.	16.173
17500	16.38	4.	0.	16.562
17501	16.288	4.	5.e-002	4.5268
17502	16.288	4.2727	0.	16.193
17503	16.38	4.1818	0.	16.561
17504	16.288	4.1818	5.e-002	4.5264
17505	16.288	4.4545	0.	16.226
17506	16.38	4.3636	0.	16.568
17507	16.288	4.3636	5.e-002	4.5258
17508	16.288	4.6364	0.	16.276
17509	16.38	4.5455	0.	16.587
17510	16.288	4.5455	5.e-002	4.5252
17511	16.288	4.8182	0.	16.347
17512	16.38	4.7273	0.	16.624
17513	16.288	4.7273	5.e-002	4.5246
17514	16.288	5.	0.	16.442
17515	16.38	4.9091	0.	16.682
17516	16.288	4.9091	5.e-002	4.5238
17517	16.288	5.1818	0.	16.568
17518	16.38	5.0909	0.	16.767
17519	16.288	5.0909	5.e-002	4.5229
17520	16.288	5.3636	0.	16.733
17521	16.38	5.2727	0.	16.884
17522	16.288	5.2727	5.e-002	4.5208
17523	16.288	5.5455	0.	16.996
17524	16.38	5.4545	0.	17.047
17525	16.288	5.4545	5.e-002	4.5014
17526	16.288	5.7273	0.	18.295
17527	16.38	5.6364	0.	17.363
17528	16.288	5.6364	5.e-002	4.217
17529	16.38	5.8182	0.	19.708
17530	16.288	5.8182	5.e-002	0.20611
17531	16.288	5.9091	0.	12.996
17532	16.471	0.27273	0.	18.642
17533	16.563	0.18182	0.	20.05
17534	16.471	0.18182	5.e-002	0.20704
17535	16.471	9.0909e-002	0.	13.218
17536	16.471	0.45455	0.	17.377
17537	16.563	0.36364	0.	17.725
17538	16.471	0.36364	5.e-002	4.1999
17539	16.471	0.63636	0.	17.165
17540	16.563	0.54545	0.	17.457
17541	16.471	0.54545	5.e-002	4.4827
17542	16.471	0.81818	0.	17.05
17543	16.563	0.72727	0.	17.347
17544	16.471	0.72727	5.e-002	4.502
17545	16.471	1.	0.	16.974
17546	16.563	0.90909	0.	17.281
17547	16.471	0.90909	5.e-002	4.5041
17548	16.471	1.1818	0.	16.927
17549	16.563	1.0909	0.	17.246
17550	16.471	1.0909	5.e-002	4.5051
17551	16.471	1.3636	0.	16.903
17552	16.563	1.2727	0.	17.236
17553	16.471	1.2727	5.e-002	4.5058
17554	16.471	1.5455	0.	16.897
17555	16.563	1.4545	0.	17.246
17556	16.471	1.4545	5.e-002	4.5065
17557	16.471	1.7273	0.	16.903
17558	16.563	1.6364	0.	17.269
17559	16.471	1.6364	5.e-002	4.5071
17560	16.471	1.9091	0.	16.918
17561	16.563	1.8182	0.	17.3
17562	16.471	1.8182	5.e-002	4.5076
17563	16.471	2.0909	0.	16.938
17564	16.563	2.	0.	17.336
17565	16.471	2.	5.e-002	4.508
17566	16.471	2.2727	0.	16.959
17567	16.563	2.1818	0.	17.372
17568	16.471	2.1818	5.e-002	4.5084
17569	16.471	2.4545	0.	16.978
17570	16.563	2.3636	0.	17.405
17571	16.471	2.3636	5.e-002	4.5087
17572	16.471	2.6364	0.	16.994
17573	16.563	2.5455	0.	17.432
17574	16.471	2.5455	5.e-002	4.5089
17575	16.471	2.8182	0.	17.004
17576	16.563	2.7273	0.	17.452
17577	16.471	2.7273	5.e-002	4.509
17578	16.471	3.	0.	17.007
17579	16.563	2.9091	0.	17.462
17580	16.471	2.9091	5.e-002	4.5091
17581	16.471	3.1818	0.	17.004
17582	16.563	3.0909	0.	17.462
17583	16.471	3.0909	5.e-002	4.5091
17584	16.471	3.3636	0.	16.994
17585	16.563	3.2727	0.	17.452
17586	16.471	3.2727	5.e-002	4.509
17587	16.471	3.5455	0.	16.978
17588	16.563	3.4545	0.	17.432
17589	16.471	3.4545	5.e-002	4.5089
17590	16.471	3.7273	0.	16.959
17591	16.563	3.6364	0.	17.405
17592	16.471	3.6364	5.e-002	4.5086
17593	16.471	3.9091	0.	16.938
17594	16.563	3.8182	0.	17.372
17595	16.471	3.8182	5.e-002	4.5083
17596	16.471	4.0909	0.	16.918
17597	16.563	4.	0.	17.336
17598	16.471	4.	5.e-002	4.508
17599	16.471	4.2727	0.	16.903
17600	16.563	4.1818	0.	17.3
17601	16.471	4.1818	5.e-002	4.5075
17602	16.471	4.4545	0.	16.897
17603	16.563	4.3636	0.	17.269
17604	16.471	4.3636	5.e-002	4.507
17605	16.471	4.6364	0.	16.903
17606	16.563	4.5455	0.	17.246
17607	16.471	4.5455	5.e-002	4.5064
17608	16.471	4.8182	0.	16.927
17609	16.563	4.7273	0.	17.237
17610	16.471	4.7273	5.e-002	4.5057
17611	16.471	5.	0.	16.974
17612	16.563	4.9091	0.	17.246
17613	16.471	4.9091	5.e-002	4.505
17614	16.471	5.1818	0.	17.051
17615	16.563	5.0909	0.	17.281
17616	16.471	5.0909	5.e-002	4.5041
17617	16.471	5.3636	0.	17.165
17618	16.563	5.2727	0.	17.347
17619	16.471	5.2727	5.e-002	4.5019
17620	16.471	5.5455	0.	17.378
17621	16.563	5.4545	0.	17.458
17622	16.471	5.4545	5.e-002	4.4826
17623	16.471	5.7273	0.	18.642
17624	16.563	5.6364	0.	17.725
17625	16.471	5.6364	5.e-002	4.1998
17626	16.563	5.8182	0.	20.05
17627	16.471	5.8182	5.e-002	0.20699
17628	16.471	5.9091	0.	13.218
17629	16.655	0.27273	0.	18.995
17630	16.747	0.18182	0.	20.397
17631	16.655	0.18182	5.e-002	0.20779
17632	16.655	9.0909e-002	0.	13.444
17633	16.655	0.45455	0.	17.767
17634	16.747	0.36364	0.	18.094
17635	16.655	0.36364	5.e-002	4.183
17636	16.655	0.63636	0.	17.606
17637	16.747	0.54545	0.	17.878
17638	16.655	0.54545	5.e-002	4.4641
17639	16.655	0.81818	0.	17.544
17640	16.747	0.72727	0.	17.821
17641	16.655	0.72727	5.e-002	4.4833
17642	16.655	1.	0.	17.52
17643	16.747	0.90909	0.	17.808
17644	16.655	0.90909	5.e-002	4.4855
17645	16.655	1.1818	0.	17.523
17646	16.747	1.0909	0.	17.826
17647	16.655	1.0909	5.e-002	4.4864
17648	16.655	1.3636	0.	17.547
17649	16.747	1.2727	0.	17.867
17650	16.655	1.2727	5.e-002	4.4872
17651	16.655	1.5455	0.	17.586
17652	16.747	1.4545	0.	17.924
17653	16.655	1.4545	5.e-002	4.4878
17654	16.655	1.7273	0.	17.634
17655	16.747	1.6364	0.	17.992
17656	16.655	1.6364	5.e-002	4.4884
17657	16.655	1.9091	0.	17.686
17658	16.747	1.8182	0.	18.064
17659	16.655	1.8182	5.e-002	4.489
17660	16.655	2.0909	0.	17.738
17661	16.747	2.	0.	18.135
17662	16.655	2.	5.e-002	4.4894
17663	16.655	2.2727	0.	17.786
17664	16.747	2.1818	0.	18.202
17665	16.655	2.1818	5.e-002	4.4898
17666	16.655	2.4545	0.	17.827
17667	16.747	2.3636	0.	18.26
17668	16.655	2.3636	5.e-002	4.49
17669	16.655	2.6364	0.	17.858
17670	16.747	2.5455	0.	18.307
17671	16.655	2.5455	5.e-002	4.4903
17672	16.655	2.8182	0.	17.878
17673	16.747	2.7273	0.	18.339
17674	16.655	2.7273	5.e-002	4.4904
17675	16.655	3.	0.	17.884
17676	16.747	2.9091	0.	18.355
17677	16.655	2.9091	5.e-002	4.4905
17678	16.655	3.1818	0.	17.878
17679	16.747	3.0909	0.	18.355
17680	16.655	3.0909	5.e-002	4.4905
17681	16.655	3.3636	0.	17.858
17682	16.747	3.2727	0.	18.339
17683	16.655	3.2727	5.e-002	4.4904
17684	16.655	3.5455	0.	17.827
17685	16.747	3.4545	0.	18.307
17686	16.655	3.4545	5.e-002	4.4902
17687	16.655	3.7273	0.	17.786
17688	16.747	3.6364	0.	18.26
17689	16.655	3.6364	5.e-002	4.49
17690	16.655	3.9091	0.	17.738
17691	16.747	3.8182	0.	18.202
17692	16.655	3.8182	5.e-002	4.4897
17693	16.655	4.0909	0.	17.686
17694	16.747	4.	0.	18.135
17695	16.655	4.	5.e-002	4.4894
17696	16.655	4.2727	0.	17.634
17697	16.747	4.1818	0.	18.064
17698	16.655	4.1818	5.e-002	4.4889
17699	16.655	4.4545	0.	17.586
17700	16.747	4.3636	0.	17.992
17701	16.655	4.3636	5.e-002	4.4884
17702	16.655	4.6364	0.	17.547
17703	16.747	4.5455	0.	17.924
17704	16.655	4.5455	5.e-002	4.4878
17705	16.655	4.8182	0.	17.523
17706	16.747	4.7273	0.	17.867
17707	16.655	4.7273	5.e-002	4.4871
17708	16.655	5.	0.	17.52
17709	16.747	4.9091	0.	17.826
17710	16.655	4.9091	5.e-002	4.4863
17711	16.655	5.1818	0.	17.544
17712	16.747	5.0909	0.	17.809
17713	16.655	5.0909	5.e-002	4.4854
17714	16.655	5.3636	0.	17.606
17715	16.747	5.2727	0.	17.821
17716	16.655	5.2727	5.e-002	4.4833
17717	16.655	5.5455	0.	17.767
17718	16.747	5.4545	0.	17.878
17719	16.655	5.4545	5.e-002	4.464
17720	16.655	5.7273	0.	18.995
17721	16.747	5.6364	0.	18.094
17722	16.655	5.6364	5.e-002	4.1829
17723	16.747	5.8182	0.	20.397
17724	16.655	5.8182	5.e-002	0.20775
17725	16.655	5.9091	0.	13.444
17726	16.839	0.27273	0.	19.356
17727	16.93	0.18182	0.	20.752
17728	16.839	0.18182	5.e-002	0.20859
17729	16.839	9.0909e-002	0.	13.675
17730	16.839	0.45455	0.	18.166
17731	16.93	0.36364	0.	18.471
17732	16.839	0.36364	5.e-002	4.1663
17733	16.839	0.63636	0.	18.059
17734	16.93	0.54545	0.	18.309
17735	16.839	0.54545	5.e-002	4.4457
17736	16.839	0.81818	0.	18.052
17737	16.93	0.72727	0.	18.308
17738	16.839	0.72727	5.e-002	4.4649
17739	16.839	1.	0.	18.081
17740	16.93	0.90909	0.	18.352
17741	16.839	0.90909	5.e-002	4.467
17742	16.839	1.1818	0.	18.137
17743	16.93	1.0909	0.	18.425
17744	16.839	1.0909	5.e-002	4.468
17745	16.839	1.3636	0.	18.211
17746	16.93	1.2727	0.	18.519
17747	16.839	1.2727	5.e-002	4.4688
17748	16.839	1.5455	0.	18.297
17749	16.93	1.4545	0.	18.626
17750	16.839	1.4545	5.e-002	4.4694
17751	16.839	1.7273	0.	18.389
17752	16.93	1.6364	0.	18.741
17753	16.839	1.6364	5.e-002	4.4701
17754	16.839	1.9091	0.	18.481
17755	16.93	1.8182	0.	18.855
17756	16.839	1.8182	5.e-002	4.4706
17757	16.839	2.0909	0.	18.567
17758	16.93	2.	0.	18.965
17759	16.839	2.	5.e-002	4.471
17760	16.839	2.2727	0.	18.644
17761	16.93	2.1818	0.	19.064
17762	16.839	2.1818	5.e-002	4.4714
17763	16.839	2.4545	0.	18.707
17764	16.93	2.3636	0.	19.148
17765	16.839	2.3636	5.e-002	4.4717
17766	16.839	2.6364	0.	18.755
17767	16.93	2.5455	0.	19.215
17768	16.839	2.5455	5.e-002	4.4719
17769	16.839	2.8182	0.	18.784
17770	16.93	2.7273	0.	19.261
17771	16.839	2.7273	5.e-002	4.4721
17772	16.839	3.	0.	18.794
17773	16.93	2.9091	0.	19.284
17774	16.839	2.9091	5.e-002	4.4722
17775	16.839	3.1818	0.	18.784
17776	16.93	3.0909	0.	19.284
17777	16.839	3.0909	5.e-002	4.4722
17778	16.839	3.3636	0.	18.755
17779	16.93	3.2727	0.	19.261
17780	16.839	3.2727	5.e-002	4.4721
17781	16.839	3.5455	0.	18.707
17782	16.93	3.4545	0.	19.215
17783	16.839	3.4545	5.e-002	4.4719
17784	16.839	3.7273	0.	18.644
17785	16.93	3.6364	0.	19.148
17786	16.839	3.6364	5.e-002	4.4717
17787	16.839	3.9091	0.	18.567
17788	16.93	3.8182	0.	19.064
17789	16.839	3.8182	5.e-002	4.4714
17790	16.839	4.0909	0.	18.481
17791	16.93	4.	0.	18.965
17792	16.839	4.	5.e-002	4.471
17793	16.839	4.2727	0.	18.389
17794	16.93	4.1818	0.	18.855
17795	16.839	4.1818	5.e-002	4.4705
17796	16.839	4.4545	0.	18.298
17797	16.93	4.3636	0.	18.741
17798	16.839	4.3636	5.e-002	4.47
17799	16.839	4.6364	0.	18.211
17800	16.93	4.5455	0.	18.626
17801	16.839	4.5455	5.e-002	4.4694
17802	16.839	4.8182	0.	18.137
17803	16.93	4.7273	0.	18.519
17804	16.839	4.7273	5.e-002	4.4687
17805	16.839	5.	0.	18.082
17806	16.93	4.9091	0.	18.425
17807	16.839	4.9091	5.e-002	4.4679
17808	16.839	5.1818	0.	18.052
17809	16.93	5.0909	0.	18.352
17810	16.839	5.0909	5.e-002	4.4669
17811	16.839	5.3636	0.	18.059
17812	16.93	5.2727	0.	18.309
17813	16.839	5.2727	5.e-002	4.4648
17814	16.839	5.5455	0.	18.167
17815	16.93	5.4545	0.	18.31
17816	16.839	5.4545	5.e-002	4.4456
17817	16.839	5.7273	0.	19.356
17818	16.93	5.6364	0.	18.471
17819	16.839	5.6364	5.e-002	4.1662
17820	16.93	5.8182	0.	20.752
17821	16.839	5.8182	5.e-002	0.20856
17822	16.839	5.9091	0.	13.675
17823	17.022	0.27273	0.	19.725
17824	17.114	0.18182	0.	21.113
17825	17.022	0.18182	5.e-002	0.20969
17826	17.022	9.0909e-002	0.	13.91
17827	17.022	0.45455	0.	18.576
17828	17.114	0.36364	0.	18.858
17829	17.022	0.36364	5.e-002	4.1499
17830	17.022	0.63636	0.	18.525
17831	17.114	0.54545	0.	18.753
17832	17.022	0.54545	5.e-002	4.4276
17833	17.022	0.81818	0.	18.575
17834	17.114	0.72727	0.	18.811
17835	17.022	0.72727	5.e-002	4.4467
17836	17.022	1.	0.	18.662
17837	17.114	0.90909	0.	18.914
17838	17.022	0.90909	5.e-002	4.4488
17839	17.022	1.1818	0.	18.773
17840	17.114	1.0909	0.	19.045
17841	17.022	1.0909	5.e-002	4.4498
17842	17.022	1.3636	0.	18.9
17843	17.114	1.2727	0.	19.195
17844	17.022	1.2727	5.e-002	4.4506
17845	17.022	1.5455	0.	19.036
17846	17.114	1.4545	0.	19.356
17847	17.022	1.4545	5.e-002	4.4513
17848	17.022	1.7273	0.	19.174
17849	17.114	1.6364	0.	19.52
17850	17.022	1.6364	5.e-002	4.4519
17851	17.022	1.9091	0.	19.306
17852	17.114	1.8182	0.	19.68
17853	17.022	1.8182	5.e-002	4.4525
17854	17.022	2.0909	0.	19.429
17855	17.114	2.	0.	19.829
17856	17.022	2.	5.e-002	4.453
17857	17.022	2.2727	0.	19.536
17858	17.114	2.1818	0.	19.962
17859	17.022	2.1818	5.e-002	4.4533
17860	17.022	2.4545	0.	19.623
17861	17.114	2.3636	0.	20.075
17862	17.022	2.3636	5.e-002	4.4536
17863	17.022	2.6364	0.	19.688
17864	17.114	2.5455	0.	20.163
17865	17.022	2.5455	5.e-002	4.4539
17866	17.022	2.8182	0.	19.728
17867	17.114	2.7273	0.	20.223
17868	17.022	2.7273	5.e-002	4.454
17869	17.022	3.	0.	19.741
17870	17.114	2.9091	0.	20.254
17871	17.022	2.9091	5.e-002	4.4541
17872	17.022	3.1818	0.	19.728
17873	17.114	3.0909	0.	20.254
17874	17.022	3.0909	5.e-002	4.4541
17875	17.022	3.3636	0.	19.688
17876	17.114	3.2727	0.	20.223
17877	17.022	3.2727	5.e-002	4.454
17878	17.022	3.5455	0.	19.623
17879	17.114	3.4545	0.	20.163
17880	17.022	3.4545	5.e-002	4.4538
17881	17.022	3.7273	0.	19.536
17882	17.114	3.6364	0.	20.075
17883	17.022	3.6364	5.e-002	4.4536
17884	17.022	3.9091	0.	19.429
17885	17.114	3.8182	0.	19.962
17886	17.022	3.8182	5.e-002	4.4533
17887	17.022	4.0909	0.	19.306
17888	17.114	4.	0.	19.829
17889	17.022	4.	5.e-002	4.4529
17890	17.022	4.2727	0.	19.174
17891	17.114	4.1818	0.	19.68
17892	17.022	4.1818	5.e-002	4.4524
17893	17.022	4.4545	0.	19.036
17894	17.114	4.3636	0.	19.52
17895	17.022	4.3636	5.e-002	4.4519
17896	17.022	4.6364	0.	18.9
17897	17.114	4.5455	0.	19.356
17898	17.022	4.5455	5.e-002	4.4513
17899	17.022	4.8182	0.	18.773
17900	17.114	4.7273	0.	19.195
17901	17.022	4.7273	5.e-002	4.4505
17902	17.022	5.	0.	18.662
17903	17.114	4.9091	0.	19.045
17904	17.022	4.9091	5.e-002	4.4497
17905	17.022	5.1818	0.	18.575
17906	17.114	5.0909	0.	18.914
17907	17.022	5.0909	5.e-002	4.4487
17908	17.022	5.3636	0.	18.525
17909	17.114	5.2727	0.	18.812
17910	17.022	5.2727	5.e-002	4.4466
17911	17.022	5.5455	0.	18.576
17912	17.114	5.4545	0.	18.753
17913	17.022	5.4545	5.e-002	4.4275
17914	17.022	5.7273	0.	19.725
17915	17.114	5.6364	0.	18.859
17916	17.022	5.6364	5.e-002	4.1498
17917	17.114	5.8182	0.	21.113
17918	17.022	5.8182	5.e-002	0.20967
17919	17.022	5.9091	0.	13.91
17920	17.206	0.27273	0.	20.103
17921	17.298	0.18182	0.	21.483
17922	17.206	0.18182	5.e-002	0.21137
17923	17.206	9.0909e-002	0.	14.151
17924	17.206	0.45455	0.	18.997
17925	17.298	0.36364	0.	19.256
17926	17.206	0.36364	5.e-002	4.1338
17927	17.206	0.63636	0.	19.005
17928	17.298	0.54545	0.	19.211
17929	17.206	0.54545	5.e-002	4.4096
17930	17.206	0.81818	0.	19.116
17931	17.298	0.72727	0.	19.332
17932	17.206	0.72727	5.e-002	4.4286
17933	17.206	1.	0.	19.263
17934	17.298	0.90909	0.	19.498
17935	17.206	0.90909	5.e-002	4.4308
17936	17.206	1.1818	0.	19.433
17937	17.298	1.0909	0.	19.69
17938	17.206	1.0909	5.e-002	4.4318
17939	17.206	1.3636	0.	19.617
17940	17.298	1.2727	0.	19.9
17941	17.206	1.2727	5.e-002	4.4326
17942	17.206	1.5455	0.	19.806
17943	17.298	1.4545	0.	20.117
17944	17.206	1.4545	5.e-002	4.4334
17945	17.206	1.7273	0.	19.992
17946	17.298	1.6364	0.	20.334
17947	17.206	1.6364	5.e-002	4.434
17948	17.206	1.9091	0.	20.169
17949	17.298	1.8182	0.	20.542
17950	17.206	1.8182	5.e-002	4.4346
17951	17.206	2.0909	0.	20.329
17952	17.298	2.	0.	20.734
17953	17.206	2.	5.e-002	4.4351
17954	17.206	2.2727	0.	20.468
17955	17.298	2.1818	0.	20.904
17956	17.206	2.1818	5.e-002	4.4355
17957	17.206	2.4545	0.	20.581
17958	17.298	2.3636	0.	21.046
17959	17.206	2.3636	5.e-002	4.4358
17960	17.206	2.6364	0.	20.665
17961	17.298	2.5455	0.	21.157
17962	17.206	2.5455	5.e-002	4.436
17963	17.206	2.8182	0.	20.716
17964	17.298	2.7273	0.	21.232
17965	17.206	2.7273	5.e-002	4.4362
17966	17.206	3.	0.	20.733
17967	17.298	2.9091	0.	21.271
17968	17.206	2.9091	5.e-002	4.4363
17969	17.206	3.1818	0.	20.716
17970	17.298	3.0909	0.	21.271
17971	17.206	3.0909	5.e-002	4.4363
17972	17.206	3.3636	0.	20.665
17973	17.298	3.2727	0.	21.232
17974	17.206	3.2727	5.e-002	4.4362
17975	17.206	3.5455	0.	20.581
17976	17.298	3.4545	0.	21.157
17977	17.206	3.4545	5.e-002	4.436
17978	17.206	3.7273	0.	20.469
17979	17.298	3.6364	0.	21.046
17980	17.206	3.6364	5.e-002	4.4358
17981	17.206	3.9091	0.	20.329
17982	17.298	3.8182	0.	20.904
17983	17.206	3.8182	5.e-002	4.4354
17984	17.206	4.0909	0.	20.169
17985	17.298	4.	0.	20.734
17986	17.206	4.	5.e-002	4.435
17987	17.206	4.2727	0.	19.992
17988	17.298	4.1818	0.	20.542
17989	17.206	4.1818	5.e-002	4.4346
17990	17.206	4.4545	0.	19.806
17991	17.298	4.3636	0.	20.334
17992	17.206	4.3636	5.e-002	4.434
17993	17.206	4.6364	0.	19.617
17994	17.298	4.5455	0.	20.117
17995	17.206	4.5455	5.e-002	4.4333
17996	17.206	4.8182	0.	19.433
17997	17.298	4.7273	0.	19.9
17998	17.206	4.7273	5.e-002	4.4326
17999	17.206	5.	0.	19.264
18000	17.298	4.9091	0.	19.69
18001	17.206	4.9091	5.e-002	4.4317
18002	17.206	5.1818	0.	19.116
18003	17.298	5.0909	0.	19.498
18004	17.206	5.0909	5.e-002	4.4307
18005	17.206	5.3636	0.	19.005
18006	17.298	5.2727	0.	19.332
18007	17.206	5.2727	5.e-002	4.4285
18008	17.206	5.5455	0.	18.997
18009	17.298	5.4545	0.	19.211
18010	17.206	5.4545	5.e-002	4.4095
18011	17.206	5.7273	0.	20.103
18012	17.298	5.6364	0.	19.256
18013	17.206	5.6364	5.e-002	4.1337
18014	17.298	5.8182	0.	21.483
18015	17.206	5.8182	5.e-002	0.21136
18016	17.206	5.9091	0.	14.151
18017	17.389	0.27273	0.	20.49
18018	17.481	0.18182	0.	21.86
18019	17.389	0.18182	5.e-002	0.21394
18020	17.389	9.0909e-002	0.	14.397
18021	17.389	0.45455	0.	19.431
18022	17.481	0.36364	0.	19.666
18023	17.389	0.36364	5.e-002	4.1179
18024	17.389	0.63636	0.	19.502
18025	17.481	0.54545	0.	19.685
18026	17.389	0.54545	5.e-002	4.3918
18027	17.389	0.81818	0.	19.678
18028	17.481	0.72727	0.	19.872
18029	17.389	0.72727	5.e-002	4.4107
18030	17.389	1.	0.	19.889
18031	17.481	0.90909	0.	20.105
18032	17.389	0.90909	5.e-002	4.4129
18033	17.389	1.1818	0.	20.122
18034	17.481	1.0909	0.	20.363
18035	17.389	1.0909	5.e-002	4.414
18036	17.389	1.3636	0.	20.366
18037	17.481	1.2727	0.	20.637
18038	17.389	1.2727	5.e-002	4.4149
18039	17.389	1.5455	0.	20.611
18040	17.481	1.4545	0.	20.915
18041	17.389	1.4545	5.e-002	4.4156
18042	17.389	1.7273	0.	20.85
18043	17.481	1.6364	0.	21.188
18044	17.389	1.6364	5.e-002	4.4163
18045	17.389	1.9091	0.	21.073
18046	17.481	1.8182	0.	21.447
18047	17.389	1.8182	5.e-002	4.4169
18048	17.389	2.0909	0.	21.274
18049	17.481	2.	0.	21.685
18050	17.389	2.	5.e-002	4.4174
18051	17.389	2.2727	0.	21.448
18052	17.481	2.1818	0.	21.894
18053	17.389	2.1818	5.e-002	4.4178
18054	17.389	2.4545	0.	21.588
18055	17.481	2.3636	0.	22.068
18056	17.389	2.3636	5.e-002	4.4181
18057	17.389	2.6364	0.	21.691
18058	17.481	2.5455	0.	22.203
18059	17.389	2.5455	5.e-002	4.4184
18060	17.389	2.8182	0.	21.754
18061	17.481	2.7273	0.	22.295
18062	17.389	2.7273	5.e-002	4.4185
18063	17.389	3.	0.	21.775
18064	17.481	2.9091	0.	22.342
18065	17.389	2.9091	5.e-002	4.4186
18066	17.389	3.1818	0.	21.754
18067	17.481	3.0909	0.	22.342
18068	17.389	3.0909	5.e-002	4.4186
18069	17.389	3.3636	0.	21.691
18070	17.481	3.2727	0.	22.295
18071	17.389	3.2727	5.e-002	4.4185
18072	17.389	3.5455	0.	21.588
18073	17.481	3.4545	0.	22.203
18074	17.389	3.4545	5.e-002	4.4183
18075	17.389	3.7273	0.	21.448
18076	17.481	3.6364	0.	22.068
18077	17.389	3.6364	5.e-002	4.4181
18078	17.389	3.9091	0.	21.274
18079	17.481	3.8182	0.	21.894
18080	17.389	3.8182	5.e-002	4.4178
18081	17.389	4.0909	0.	21.073
18082	17.481	4.	0.	21.685
18083	17.389	4.	5.e-002	4.4174
18084	17.389	4.2727	0.	20.85
18085	17.481	4.1818	0.	21.447
18086	17.389	4.1818	5.e-002	4.4169
18087	17.389	4.4545	0.	20.611
18088	17.481	4.3636	0.	21.188
18089	17.389	4.3636	5.e-002	4.4163
18090	17.389	4.6364	0.	20.366
18091	17.481	4.5455	0.	20.915
18092	17.389	4.5455	5.e-002	4.4156
18093	17.389	4.8182	0.	20.122
18094	17.481	4.7273	0.	20.637
18095	17.389	4.7273	5.e-002	4.4148
18096	17.389	5.	0.	19.89
18097	17.481	4.9091	0.	20.363
18098	17.389	4.9091	5.e-002	4.4139
18099	17.389	5.1818	0.	19.678
18100	17.481	5.0909	0.	20.105
18101	17.389	5.0909	5.e-002	4.4128
18102	17.389	5.3636	0.	19.503
18103	17.481	5.2727	0.	19.872
18104	17.389	5.2727	5.e-002	4.4106
18105	17.389	5.5455	0.	19.431
18106	17.481	5.4545	0.	19.685
18107	17.389	5.4545	5.e-002	4.3917
18108	17.389	5.7273	0.	20.49
18109	17.481	5.6364	0.	19.666
18110	17.389	5.6364	5.e-002	4.1178
18111	17.481	5.8182	0.	21.86
18112	17.389	5.8182	5.e-002	0.21394
18113	17.389	5.9091	0.	14.397
18114	17.573	0.27273	0.	20.887
18115	17.665	0.18182	0.	22.246
18116	17.573	0.18182	5.e-002	0.2177
18117	17.573	9.0909e-002	0.	14.649
18118	17.573	0.45455	0.	19.879
18119	17.665	0.36364	0.	20.087
18120	17.573	0.36364	5.e-002	4.1023
18121	17.573	0.63636	0.	20.018
18122	17.665	0.54545	0.	20.175
18123	17.573	0.54545	5.e-002	4.3742
18124	17.573	0.81818	0.	20.263
18125	17.665	0.72727	0.	20.434
18126	17.573	0.72727	5.e-002	4.393
18127	17.573	1.	0.	20.543
18128	17.665	0.90909	0.	20.738
18129	17.573	0.90909	5.e-002	4.3953
18130	17.573	1.1818	0.	20.843
18131	17.665	1.0909	0.	21.068
18132	17.573	1.0909	5.e-002	4.3964
18133	17.573	1.3636	0.	21.151
18134	17.665	1.2727	0.	21.41
18135	17.573	1.2727	5.e-002	4.3973
18136	17.573	1.5455	0.	21.457
18137	17.665	1.4545	0.	21.753
18138	17.573	1.4545	5.e-002	4.3981
18139	17.573	1.7273	0.	21.751
18140	17.665	1.6364	0.	22.086
18141	17.573	1.6364	5.e-002	4.3988
18142	17.573	1.9091	0.	22.024
18143	17.665	1.8182	0.	22.401
18144	17.573	1.8182	5.e-002	4.3994
18145	17.573	2.0909	0.	22.27
18146	17.665	2.	0.	22.687
18147	17.573	2.	5.e-002	4.4
18148	17.573	2.2727	0.	22.48
18149	17.665	2.1818	0.	22.938
18150	17.573	2.1818	5.e-002	4.4004
18151	17.573	2.4545	0.	22.649
18152	17.665	2.3636	0.	23.147
18153	17.573	2.3636	5.e-002	4.4007
18154	17.573	2.6364	0.	22.773
18155	17.665	2.5455	0.	23.308
18156	17.573	2.5455	5.e-002	4.401
18157	17.573	2.8182	0.	22.849
18158	17.665	2.7273	0.	23.418
18159	17.573	2.7273	5.e-002	4.4012
18160	17.573	3.	0.	22.875
18161	17.665	2.9091	0.	23.473
18162	17.573	2.9091	5.e-002	4.4012
18163	17.573	3.1818	0.	22.849
18164	17.665	3.0909	0.	23.473
18165	17.573	3.0909	5.e-002	4.4012
18166	17.573	3.3636	0.	22.773
18167	17.665	3.2727	0.	23.418
18168	17.573	3.2727	5.e-002	4.4012
18169	17.573	3.5455	0.	22.649
18170	17.665	3.4545	0.	23.308
18171	17.573	3.4545	5.e-002	4.401
18172	17.573	3.7273	0.	22.48
18173	17.665	3.6364	0.	23.147
18174	17.573	3.6364	5.e-002	4.4007
18175	17.573	3.9091	0.	22.27
18176	17.665	3.8182	0.	22.938
18177	17.573	3.8182	5.e-002	4.4004
18178	17.573	4.0909	0.	22.024
18179	17.665	4.	0.	22.687
18180	17.573	4.	5.e-002	4.3999
18181	17.573	4.2727	0.	21.751
18182	17.665	4.1818	0.	22.401
18183	17.573	4.1818	5.e-002	4.3994
18184	17.573	4.4545	0.	21.457
18185	17.665	4.3636	0.	22.086
18186	17.573	4.3636	5.e-002	4.3988
18187	17.573	4.6364	0.	21.151
18188	17.665	4.5455	0.	21.753
18189	17.573	4.5455	5.e-002	4.3981
18190	17.573	4.8182	0.	20.843
18191	17.665	4.7273	0.	21.41
18192	17.573	4.7273	5.e-002	4.3973
18193	17.573	5.	0.	20.543
18194	17.665	4.9091	0.	21.068
18195	17.573	4.9091	5.e-002	4.3963
18196	17.573	5.1818	0.	20.263
18197	17.665	5.0909	0.	20.739
18198	17.573	5.0909	5.e-002	4.3952
18199	17.573	5.3636	0.	20.018
18200	17.665	5.2727	0.	20.434
18201	17.573	5.2727	5.e-002	4.3929
18202	17.573	5.5455	0.	19.879
18203	17.665	5.4545	0.	20.175
18204	17.573	5.4545	5.e-002	4.3741
18205	17.573	5.7273	0.	20.887
18206	17.665	5.6364	0.	20.088
18207	17.573	5.6364	5.e-002	4.1022
18208	17.665	5.8182	0.	22.246
18209	17.573	5.8182	5.e-002	0.2177
18210	17.573	5.9091	0.	14.649
18211	17.757	0.27273	0.	21.295
18212	17.849	0.18182	0.	22.641
18213	17.757	0.18182	5.e-002	0.22302
18214	17.757	9.0909e-002	0.	14.907
18215	17.757	0.45455	0.	20.342
18216	17.849	0.36364	0.	20.523
18217	17.757	0.36364	5.e-002	4.0871
18218	17.757	0.63636	0.	20.554
18219	17.849	0.54545	0.	20.684
18220	17.757	0.54545	5.e-002	4.3569
18221	17.757	0.81818	0.	20.873
18222	17.849	0.72727	0.	21.02
18223	17.757	0.72727	5.e-002	4.3756
18224	17.757	1.	0.	21.227
18225	17.849	0.90909	0.	21.402
18226	17.757	0.90909	5.e-002	4.378
18227	17.757	1.1818	0.	21.599
18228	17.849	1.0909	0.	21.807
18229	17.757	1.0909	5.e-002	4.3791
18230	17.757	1.3636	0.	21.976
18231	17.849	1.2727	0.	22.222
18232	17.757	1.2727	5.e-002	4.3801
18233	17.757	1.5455	0.	22.347
18234	17.849	1.4545	0.	22.635
18235	17.757	1.4545	5.e-002	4.3809
18236	17.757	1.7273	0.	22.701
18237	17.849	1.6364	0.	23.034
18238	17.757	1.6364	5.e-002	4.3817
18239	17.757	1.9091	0.	23.029
18240	17.849	1.8182	0.	23.408
18241	17.757	1.8182	5.e-002	4.3823
18242	17.757	2.0909	0.	23.321
18243	17.849	2.	0.	23.747
18244	17.757	2.	5.e-002	4.3829
18245	17.757	2.2727	0.	23.571
18246	17.849	2.1818	0.	24.044
18247	17.757	2.1818	5.e-002	4.3833
18248	17.757	2.4545	0.	23.771
18249	17.849	2.3636	0.	24.289
18250	17.757	2.3636	5.e-002	4.3837
18251	17.757	2.6364	0.	23.918
18252	17.849	2.5455	0.	24.479
18253	17.757	2.5455	5.e-002	4.384
18254	17.757	2.8182	0.	24.008
18255	17.849	2.7273	0.	24.608
18256	17.757	2.7273	5.e-002	4.3841
18257	17.757	3.	0.	24.038
18258	17.849	2.9091	0.	24.673
18259	17.757	2.9091	5.e-002	4.3842
18260	17.757	3.1818	0.	24.008
18261	17.849	3.0909	0.	24.673
18262	17.757	3.0909	5.e-002	4.3842
18263	17.757	3.3636	0.	23.918
18264	17.849	3.2727	0.	24.608
18265	17.757	3.2727	5.e-002	4.3841
18266	17.757	3.5455	0.	23.772
18267	17.849	3.4545	0.	24.479
18268	17.757	3.4545	5.e-002	4.3839
18269	17.757	3.7273	0.	23.571
18270	17.849	3.6364	0.	24.289
18271	17.757	3.6364	5.e-002	4.3837
18272	17.757	3.9091	0.	23.321
18273	17.849	3.8182	0.	24.044
18274	17.757	3.8182	5.e-002	4.3833
18275	17.757	4.0909	0.	23.029
18276	17.849	4.	0.	23.748
18277	17.757	4.	5.e-002	4.3828
18278	17.757	4.2727	0.	22.701
18279	17.849	4.1818	0.	23.408
18280	17.757	4.1818	5.e-002	4.3823
18281	17.757	4.4545	0.	22.347
18282	17.849	4.3636	0.	23.034
18283	17.757	4.3636	5.e-002	4.3816
18284	17.757	4.6364	0.	21.976
18285	17.849	4.5455	0.	22.636
18286	17.757	4.5455	5.e-002	4.3809
18287	17.757	4.8182	0.	21.599
18288	17.849	4.7273	0.	22.223
18289	17.757	4.7273	5.e-002	4.38
18290	17.757	5.	0.	21.227
18291	17.849	4.9091	0.	21.807
18292	17.757	4.9091	5.e-002	4.3791
18293	17.757	5.1818	0.	20.873
18294	17.849	5.0909	0.	21.402
18295	17.757	5.0909	5.e-002	4.3779
18296	17.757	5.3636	0.	20.554
18297	17.849	5.2727	0.	21.02
18298	17.757	5.2727	5.e-002	4.3756
18299	17.757	5.5455	0.	20.342
18300	17.849	5.4545	0.	20.684
18301	17.757	5.4545	5.e-002	4.3568
18302	17.757	5.7273	0.	21.296
18303	17.849	5.6364	0.	20.523
18304	17.757	5.6364	5.e-002	4.087
18305	17.849	5.8182	0.	22.641
18306	17.757	5.8182	5.e-002	0.22302
18307	17.757	5.9091	0.	14.907
18308	17.94	0.27273	0.	21.715
18309	18.032	0.18182	0.	23.045
18310	17.94	0.18182	5.e-002	0.23027
18311	17.94	9.0909e-002	0.	15.171
18312	17.94	0.45455	0.	20.822
18313	18.032	0.36364	0.	20.973
18314	17.94	0.36364	5.e-002	4.0723
18315	17.94	0.63636	0.	21.113
18316	18.032	0.54545	0.	21.214
18317	17.94	0.54545	5.e-002	4.3398
18318	17.94	0.81818	0.	21.512
18319	18.032	0.72727	0.	21.633
18320	17.94	0.72727	5.e-002	4.3585
18321	17.94	1.	0.	21.945
18322	18.032	0.90909	0.	22.097
18323	17.94	0.90909	5.e-002	4.3609
18324	17.94	1.1818	0.	22.394
18325	18.032	1.0909	0.	22.585
18326	17.94	1.0909	5.e-002	4.3621
18327	17.94	1.3636	0.	22.846
18328	18.032	1.2727	0.	23.08
18329	17.94	1.2727	5.e-002	4.3632
18330	17.94	1.5455	0.	23.287
18331	18.032	1.4545	0.	23.568
18332	17.94	1.4545	5.e-002	4.3641
18333	17.94	1.7273	0.	23.706
18334	18.032	1.6364	0.	24.038
18335	17.94	1.6364	5.e-002	4.3649
18336	17.94	1.9091	0.	24.092
18337	18.032	1.8182	0.	24.476
18338	17.94	1.8182	5.e-002	4.3655
18339	17.94	2.0909	0.	24.435
18340	18.032	2.	0.	24.872
18341	17.94	2.	5.e-002	4.3661
18342	17.94	2.2727	0.	24.728
18343	18.032	2.1818	0.	25.217
18344	17.94	2.1818	5.e-002	4.3666
18345	17.94	2.4545	0.	24.962
18346	18.032	2.3636	0.	25.503
18347	17.94	2.3636	5.e-002	4.367
18348	17.94	2.6364	0.	25.134
18349	18.032	2.5455	0.	25.723
18350	17.94	2.5455	5.e-002	4.3672
18351	17.94	2.8182	0.	25.238
18352	18.032	2.7273	0.	25.872
18353	17.94	2.7273	5.e-002	4.3674
18354	17.94	3.	0.	25.273
18355	18.032	2.9091	0.	25.948
18356	17.94	2.9091	5.e-002	4.3675
18357	17.94	3.1818	0.	25.238
18358	18.032	3.0909	0.	25.948
18359	17.94	3.0909	5.e-002	4.3675
18360	17.94	3.3636	0.	25.134
18361	18.032	3.2727	0.	25.872
18362	17.94	3.2727	5.e-002	4.3674
18363	17.94	3.5455	0.	24.962
18364	18.032	3.4545	0.	25.723
18365	17.94	3.4545	5.e-002	4.3672
18366	17.94	3.7273	0.	24.728
18367	18.032	3.6364	0.	25.503
18368	17.94	3.6364	5.e-002	4.3669
18369	17.94	3.9091	0.	24.435
18370	18.032	3.8182	0.	25.217
18371	17.94	3.8182	5.e-002	4.3666
18372	17.94	4.0909	0.	24.092
18373	18.032	4.	0.	24.872
18374	17.94	4.	5.e-002	4.3661
18375	17.94	4.2727	0.	23.706
18376	18.032	4.1818	0.	24.476
18377	17.94	4.1818	5.e-002	4.3655
18378	17.94	4.4545	0.	23.287
18379	18.032	4.3636	0.	24.038
18380	17.94	4.3636	5.e-002	4.3648
18381	17.94	4.6364	0.	22.846
18382	18.032	4.5455	0.	23.568
18383	17.94	4.5455	5.e-002	4.364
18384	17.94	4.8182	0.	22.394
18385	18.032	4.7273	0.	23.08
18386	17.94	4.7273	5.e-002	4.3631
18387	17.94	5.	0.	21.945
18388	18.032	4.9091	0.	22.585
18389	17.94	4.9091	5.e-002	4.3621
18390	17.94	5.1818	0.	21.512
18391	18.032	5.0909	0.	22.097
18392	17.94	5.0909	5.e-002	4.3608
18393	17.94	5.3636	0.	21.113
18394	18.032	5.2727	0.	21.633
18395	17.94	5.2727	5.e-002	4.3585
18396	17.94	5.5455	0.	20.823
18397	18.032	5.4545	0.	21.214
18398	17.94	5.4545	5.e-002	4.3397
18399	17.94	5.7273	0.	21.715
18400	18.032	5.6364	0.	20.973
18401	17.94	5.6364	5.e-002	4.0722
18402	18.032	5.8182	0.	23.045
18403	17.94	5.8182	5.e-002	0.23027
18404	17.94	5.9091	0.	15.171
18405	18.124	0.27273	0.	22.147
18406	18.216	0.18182	0.	23.459
18407	18.124	0.18182	5.e-002	0.23984
18408	18.124	9.0909e-002	0.	15.441
18409	18.124	0.45455	0.	21.321
18410	18.216	0.36364	0.	21.438
18411	18.124	0.36364	5.e-002	4.0577
18412	18.124	0.63636	0.	21.695
18413	18.216	0.54545	0.	21.765
18414	18.124	0.54545	5.e-002	4.323
18415	18.124	0.81818	0.	22.181
18416	18.216	0.72727	0.	22.274
18417	18.124	0.72727	5.e-002	4.3417
18418	18.124	1.	0.	22.7
18419	18.216	0.90909	0.	22.828
18420	18.124	0.90909	5.e-002	4.3441
18421	18.124	1.1818	0.	23.233
18422	18.216	1.0909	0.	23.405
18423	18.124	1.0909	5.e-002	4.3454
18424	18.124	1.3636	0.	23.765
18425	18.216	1.2727	0.	23.986
18426	18.124	1.2727	5.e-002	4.3465
18427	18.124	1.5455	0.	24.283
18428	18.216	1.4545	0.	24.556
18429	18.124	1.4545	5.e-002	4.3475
18430	18.124	1.7273	0.	24.772
18431	18.216	1.6364	0.	25.102
18432	18.124	1.6364	5.e-002	4.3483
18433	18.124	1.9091	0.	25.22
18434	18.216	1.8182	0.	25.61
18435	18.124	1.8182	5.e-002	4.349
18436	18.124	2.0909	0.	25.619
18437	18.216	2.	0.	26.068
18438	18.124	2.	5.e-002	4.3496
18439	18.124	2.2727	0.	25.957
18440	18.216	2.1818	0.	26.466
18441	18.124	2.1818	5.e-002	4.3501
18442	18.124	2.4545	0.	26.229
18443	18.216	2.3636	0.	26.795
18444	18.124	2.3636	5.e-002	4.3505
18445	18.124	2.6364	0.	26.427
18446	18.216	2.5455	0.	27.048
18447	18.124	2.5455	5.e-002	4.3509
18448	18.124	2.8182	0.	26.548
18449	18.216	2.7273	0.	27.22
18450	18.124	2.7273	5.e-002	4.351
18451	18.124	3.	0.	26.588
18452	18.216	2.9091	0.	27.307
18453	18.124	2.9091	5.e-002	4.3511
18454	18.124	3.1818	0.	26.548
18455	18.216	3.0909	0.	27.307
18456	18.124	3.0909	5.e-002	4.3511
18457	18.124	3.3636	0.	26.427
18458	18.216	3.2727	0.	27.22
18459	18.124	3.2727	5.e-002	4.351
18460	18.124	3.5455	0.	26.229
18461	18.216	3.4545	0.	27.048
18462	18.124	3.4545	5.e-002	4.3508
18463	18.124	3.7273	0.	25.957
18464	18.216	3.6364	0.	26.795
18465	18.124	3.6364	5.e-002	4.3505
18466	18.124	3.9091	0.	25.619
18467	18.216	3.8182	0.	26.466
18468	18.124	3.8182	5.e-002	4.3501
18469	18.124	4.0909	0.	25.22
18470	18.216	4.	0.	26.068
18471	18.124	4.	5.e-002	4.3496
18472	18.124	4.2727	0.	24.772
18473	18.216	4.1818	0.	25.61
18474	18.124	4.1818	5.e-002	4.349
18475	18.124	4.4545	0.	24.283
18476	18.216	4.3636	0.	25.102
18477	18.124	4.3636	5.e-002	4.3482
18478	18.124	4.6364	0.	23.765
18479	18.216	4.5455	0.	24.556
18480	18.124	4.5455	5.e-002	4.3474
18481	18.124	4.8182	0.	23.233
18482	18.216	4.7273	0.	23.986
18483	18.124	4.7273	5.e-002	4.3464
18484	18.124	5.	0.	22.7
18485	18.216	4.9091	0.	23.405
18486	18.124	4.9091	5.e-002	4.3453
18487	18.124	5.1818	0.	22.181
18488	18.216	5.0909	0.	22.829
18489	18.124	5.0909	5.e-002	4.3441
18490	18.124	5.3636	0.	21.696
18491	18.216	5.2727	0.	22.274
18492	18.124	5.2727	5.e-002	4.3416
18493	18.124	5.5455	0.	21.321
18494	18.216	5.4545	0.	21.765
18495	18.124	5.4545	5.e-002	4.3229
18496	18.124	5.7273	0.	22.147
18497	18.216	5.6364	0.	21.438
18498	18.124	5.6364	5.e-002	4.0576
18499	18.216	5.8182	0.	23.459
18500	18.124	5.8182	5.e-002	0.23984
18501	18.124	5.9091	0.	15.441
18502	18.308	0.27273	0.	22.591
18503	18.399	0.18182	0.	23.882
18504	18.308	0.18182	5.e-002	0.25208
18505	18.308	9.0909e-002	0.	15.718
18506	18.308	0.45455	0.	21.838
18507	18.399	0.36364	0.	21.92
18508	18.308	0.36364	5.e-002	4.0435
18509	18.308	0.63636	0.	22.304
18510	18.399	0.54545	0.	22.34
18511	18.308	0.54545	5.e-002	4.3065
18512	18.308	0.81818	0.	22.883
18513	18.399	0.72727	0.	22.946
18514	18.308	0.72727	5.e-002	4.3251
18515	18.308	1.	0.	23.495
18516	18.399	0.90909	0.	23.598
18517	18.308	0.90909	5.e-002	4.3276
18518	18.308	1.1818	0.	24.12
18519	18.399	1.0909	0.	24.271
18520	18.308	1.0909	5.e-002	4.329
18521	18.308	1.3636	0.	24.739
18522	18.399	1.2727	0.	24.945
18523	18.308	1.2727	5.e-002	4.3301
18524	18.308	1.5455	0.	25.339
18525	18.399	1.4545	0.	25.605
18526	18.308	1.4545	5.e-002	4.3311
18527	18.308	1.7273	0.	25.904
18528	18.399	1.6364	0.	26.234
18529	18.308	1.6364	5.e-002	4.332
18530	18.308	1.9091	0.	26.421
18531	18.399	1.8182	0.	26.817
18532	18.308	1.8182	5.e-002	4.3328
18533	18.308	2.0909	0.	26.879
18534	18.399	2.	0.	27.342
18535	18.308	2.	5.e-002	4.3335
18536	18.308	2.2727	0.	27.268
18537	18.399	2.1818	0.	27.798
18538	18.308	2.1818	5.e-002	4.334
18539	18.308	2.4545	0.	27.579
18540	18.399	2.3636	0.	28.174
18541	18.308	2.3636	5.e-002	4.3344
18542	18.308	2.6364	0.	27.806
18543	18.399	2.5455	0.	28.463
18544	18.308	2.5455	5.e-002	4.3348
18545	18.308	2.8182	0.	27.944
18546	18.399	2.7273	0.	28.659
18547	18.308	2.7273	5.e-002	4.335
18548	18.308	3.	0.	27.991
18549	18.399	2.9091	0.	28.758
18550	18.308	2.9091	5.e-002	4.3351
18551	18.308	3.1818	0.	27.944
18552	18.399	3.0909	0.	28.758
18553	18.308	3.0909	5.e-002	4.3351
18554	18.308	3.3636	0.	27.806
18555	18.399	3.2727	0.	28.659
18556	18.308	3.2727	5.e-002	4.335
18557	18.308	3.5455	0.	27.579
18558	18.399	3.4545	0.	28.463
18559	18.308	3.4545	5.e-002	4.3348
18560	18.308	3.7273	0.	27.268
18561	18.399	3.6364	0.	28.174
18562	18.308	3.6364	5.e-002	4.3344
18563	18.308	3.9091	0.	26.879
18564	18.399	3.8182	0.	27.798
18565	18.308	3.8182	5.e-002	4.334
18566	18.308	4.0909	0.	26.421
18567	18.399	4.	0.	27.342
18568	18.308	4.	5.e-002	4.3334
18569	18.308	4.2727	0.	25.904
18570	18.399	4.1818	0.	26.817
18571	18.308	4.1818	5.e-002	4.3328
18572	18.308	4.4545	0.	25.339
18573	18.399	4.3636	0.	26.234
18574	18.308	4.3636	5.e-002	4.332
18575	18.308	4.6364	0.	24.739
18576	18.399	4.5455	0.	25.605
18577	18.308	4.5455	5.e-002	4.3311
18578	18.308	4.8182	0.	24.12
18579	18.399	4.7273	0.	24.946
18580	18.308	4.7273	5.e-002	4.3301
18581	18.308	5.	0.	23.495
18582	18.399	4.9091	0.	24.271
18583	18.308	4.9091	5.e-002	4.3289
18584	18.308	5.1818	0.	22.883
18585	18.399	5.0909	0.	23.599
18586	18.308	5.0909	5.e-002	4.3275
18587	18.308	5.3636	0.	22.305
18588	18.399	5.2727	0.	22.946
18589	18.308	5.2727	5.e-002	4.325
18590	18.308	5.5455	0.	21.838
18591	18.399	5.4545	0.	22.341
18592	18.308	5.4545	5.e-002	4.3064
18593	18.308	5.7273	0.	22.591
18594	18.399	5.6364	0.	21.92
18595	18.308	5.6364	5.e-002	4.0435
18596	18.399	5.8182	0.	23.882
18597	18.308	5.8182	5.e-002	0.25207
18598	18.308	5.9091	0.	15.718
18599	18.491	0.27273	0.	23.049
18600	18.583	0.18182	0.	24.315
18601	18.491	0.18182	5.e-002	0.26729
18602	18.491	9.0909e-002	0.	16.002
18603	18.491	0.45455	0.	22.377
18604	18.583	0.36364	0.	22.419
18605	18.491	0.36364	5.e-002	4.0298
18606	18.491	0.63636	0.	22.942
18607	18.583	0.54545	0.	22.941
18608	18.491	0.54545	5.e-002	4.2902
18609	18.491	0.81818	0.	23.622
18610	18.583	0.72727	0.	23.652
18611	18.491	0.72727	5.e-002	4.3088
18612	18.491	1.	0.	24.335
18613	18.583	0.90909	0.	24.411
18614	18.491	0.90909	5.e-002	4.3114
18615	18.491	1.1818	0.	25.059
18616	18.583	1.0909	0.	25.188
18617	18.491	1.0909	5.e-002	4.3128
18618	18.491	1.3636	0.	25.773
18619	18.583	1.2727	0.	25.964
18620	18.491	1.2727	5.e-002	4.3141
18621	18.491	1.5455	0.	26.462
18622	18.583	1.4545	0.	26.72
18623	18.491	1.4545	5.e-002	4.3152
18624	18.491	1.7273	0.	27.11
18625	18.583	1.6364	0.	27.439
18626	18.491	1.6364	5.e-002	4.3161
18627	18.491	1.9091	0.	27.701
18628	18.583	1.8182	0.	28.104
18629	18.491	1.8182	5.e-002	4.317
18630	18.491	2.0909	0.	28.224
18631	18.583	2.	0.	28.702
18632	18.491	2.	5.e-002	4.3177
18633	18.491	2.2727	0.	28.668
18634	18.583	2.1818	0.	29.22
18635	18.491	2.1818	5.e-002	4.3183
18636	18.491	2.4545	0.	29.022
18637	18.583	2.3636	0.	29.648
18638	18.491	2.3636	5.e-002	4.3187
18639	18.491	2.6364	0.	29.28
18640	18.583	2.5455	0.	29.976
18641	18.491	2.5455	5.e-002	4.3191
18642	18.491	2.8182	0.	29.437
18643	18.583	2.7273	0.	30.198
18644	18.491	2.7273	5.e-002	4.3193
18645	18.491	3.	0.	29.49
18646	18.583	2.9091	0.	30.311
18647	18.491	2.9091	5.e-002	4.3194
18648	18.491	3.1818	0.	29.437
18649	18.583	3.0909	0.	30.311
18650	18.491	3.0909	5.e-002	4.3194
18651	18.491	3.3636	0.	29.28
18652	18.583	3.2727	0.	30.198
18653	18.491	3.2727	5.e-002	4.3193
18654	18.491	3.5455	0.	29.022
18655	18.583	3.4545	0.	29.976
18656	18.491	3.4545	5.e-002	4.3191
18657	18.491	3.7273	0.	28.668
18658	18.583	3.6364	0.	29.648
18659	18.491	3.6364	5.e-002	4.3187
18660	18.491	3.9091	0.	28.224
18661	18.583	3.8182	0.	29.22
18662	18.491	3.8182	5.e-002	4.3183
18663	18.491	4.0909	0.	27.701
18664	18.583	4.	0.	28.703
18665	18.491	4.	5.e-002	4.3177
18666	18.491	4.2727	0.	27.11
18667	18.583	4.1818	0.	28.105
18668	18.491	4.1818	5.e-002	4.3169
18669	18.491	4.4545	0.	26.462
18670	18.583	4.3636	0.	27.439
18671	18.491	4.3636	5.e-002	4.3161
18672	18.491	4.6364	0.	25.773
18673	18.583	4.5455	0.	26.72
18674	18.491	4.5455	5.e-002	4.3151
18675	18.491	4.8182	0.	25.059
18676	18.583	4.7273	0.	25.964
18677	18.491	4.7273	5.e-002	4.314
18678	18.491	5.	0.	24.335
18679	18.583	4.9091	0.	25.188
18680	18.491	4.9091	5.e-002	4.3128
18681	18.491	5.1818	0.	23.622
18682	18.583	5.0909	0.	24.411
18683	18.491	5.0909	5.e-002	4.3113
18684	18.491	5.3636	0.	22.942
18685	18.583	5.2727	0.	23.652
18686	18.491	5.2727	5.e-002	4.3087
18687	18.491	5.5455	0.	22.377
18688	18.583	5.4545	0.	22.941
18689	18.491	5.4545	5.e-002	4.2902
18690	18.491	5.7273	0.	23.049
18691	18.583	5.6364	0.	22.419
18692	18.491	5.6364	5.e-002	4.0297
18693	18.583	5.8182	0.	24.315
18694	18.491	5.8182	5.e-002	0.26729
18695	18.491	5.9091	0.	16.002
18696	18.675	0.27273	0.	23.52
18697	18.767	0.18182	0.	24.757
18698	18.675	0.18182	5.e-002	0.28578
18699	18.675	9.0909e-002	0.	16.292
18700	18.675	0.45455	0.	22.937
18701	18.767	0.36364	0.	22.936
18702	18.675	0.36364	5.e-002	4.0165
18703	18.675	0.63636	0.	23.61
18704	18.767	0.54545	0.	23.569
18705	18.675	0.54545	5.e-002	4.2744
18706	18.675	0.81818	0.	24.401
18707	18.767	0.72727	0.	24.395
18708	18.675	0.72727	5.e-002	4.2929
18709	18.675	1.	0.	25.224
18710	18.767	0.90909	0.	25.269
18711	18.675	0.90909	5.e-002	4.2956
18712	18.675	1.1818	0.	26.055
18713	18.767	1.0909	0.	26.16
18714	18.675	1.0909	5.e-002	4.2971
18715	18.675	1.3636	0.	26.873
18716	18.767	1.2727	0.	27.047
18717	18.675	1.2727	5.e-002	4.2985
18718	18.675	1.5455	0.	27.659
18719	18.767	1.4545	0.	27.908
18720	18.675	1.4545	5.e-002	4.2996
18721	18.675	1.7273	0.	28.396
18722	18.767	1.6364	0.	28.725
18723	18.675	1.6364	5.e-002	4.3007
18724	18.675	1.9091	0.	29.069
18725	18.767	1.8182	0.	29.48
18726	18.675	1.8182	5.e-002	4.3016
18727	18.675	2.0909	0.	29.662
18728	18.767	2.	0.	30.157
18729	18.675	2.	5.e-002	4.3023
18730	18.675	2.2727	0.	30.165
18731	18.767	2.1818	0.	30.743
18732	18.675	2.1818	5.e-002	4.303
18733	18.675	2.4545	0.	30.566
18734	18.767	2.3636	0.	31.226
18735	18.675	2.3636	5.e-002	4.3035
18736	18.675	2.6364	0.	30.858
18737	18.767	2.5455	0.	31.597
18738	18.675	2.5455	5.e-002	4.3039
18739	18.675	2.8182	0.	31.036
18740	18.767	2.7273	0.	31.848
18741	18.675	2.7273	5.e-002	4.3041
18742	18.675	3.	0.	31.096
18743	18.767	2.9091	0.	31.975
18744	18.675	2.9091	5.e-002	4.3042
18745	18.675	3.1818	0.	31.036
18746	18.767	3.0909	0.	31.975
18747	18.675	3.0909	5.e-002	4.3042
18748	18.675	3.3636	0.	30.858
18749	18.767	3.2727	0.	31.848
18750	18.675	3.2727	5.e-002	4.3041
18751	18.675	3.5455	0.	30.566
18752	18.767	3.4545	0.	31.597
18753	18.675	3.4545	5.e-002	4.3038
18754	18.675	3.7273	0.	30.165
18755	18.767	3.6364	0.	31.226
18756	18.675	3.6364	5.e-002	4.3035
18757	18.675	3.9091	0.	29.662
18758	18.767	3.8182	0.	30.743
18759	18.675	3.8182	5.e-002	4.3029
18760	18.675	4.0909	0.	29.069
18761	18.767	4.	0.	30.157
18762	18.675	4.	5.e-002	4.3023
18763	18.675	4.2727	0.	28.396
18764	18.767	4.1818	0.	29.48
18765	18.675	4.1818	5.e-002	4.3015
18766	18.675	4.4545	0.	27.659
18767	18.767	4.3636	0.	28.725
18768	18.675	4.3636	5.e-002	4.3006
18769	18.675	4.6364	0.	26.873
18770	18.767	4.5455	0.	27.908
18771	18.675	4.5455	5.e-002	4.2996
18772	18.675	4.8182	0.	26.055
18773	18.767	4.7273	0.	27.047
18774	18.675	4.7273	5.e-002	4.2984
18775	18.675	5.	0.	25.224
18776	18.767	4.9091	0.	26.16
18777	18.675	4.9091	5.e-002	4.2971
18778	18.675	5.1818	0.	24.401
18779	18.767	5.0909	0.	25.269
18780	18.675	5.0909	5.e-002	4.2955
18781	18.675	5.3636	0.	23.61
18782	18.767	5.2727	0.	24.395
18783	18.675	5.2727	5.e-002	4.2928
18784	18.675	5.5455	0.	22.937
18785	18.767	5.4545	0.	23.569
18786	18.675	5.4545	5.e-002	4.2743
18787	18.675	5.7273	0.	23.52
18788	18.767	5.6364	0.	22.936
18789	18.675	5.6364	5.e-002	4.0164
18790	18.767	5.8182	0.	24.757
18791	18.675	5.8182	5.e-002	0.28577
18792	18.675	5.9091	0.	16.292
18793	18.858	0.27273	0.	24.005
18794	18.95	0.18182	0.	25.209
18795	18.858	0.18182	5.e-002	0.30779
18796	18.858	9.0909e-002	0.	16.589
18797	18.858	0.45455	0.	23.521
18798	18.95	0.36364	0.	23.473
18799	18.858	0.36364	5.e-002	4.0037
18800	18.858	0.63636	0.	24.312
18801	18.95	0.54545	0.	24.226
18802	18.858	0.54545	5.e-002	4.2589
18803	18.858	0.81818	0.	25.222
18804	18.95	0.72727	0.	25.177
18805	18.858	0.72727	5.e-002	4.2773
18806	18.858	1.	0.	26.165
18807	18.95	0.90909	0.	26.177
18808	18.858	0.90909	5.e-002	4.2801
18809	18.858	1.1818	0.	27.113
18810	18.95	1.0909	0.	27.192
18811	18.858	1.0909	5.e-002	4.2818
18812	18.858	1.3636	0.	28.043
18813	18.95	1.2727	0.	28.199
18814	18.858	1.2727	5.e-002	4.2832
18815	18.858	1.5455	0.	28.936
18816	18.95	1.4545	0.	29.175
18817	18.858	1.4545	5.e-002	4.2845
18818	18.858	1.7273	0.	29.771
18819	18.95	1.6364	0.	30.099
18820	18.858	1.6364	5.e-002	4.2857
18821	18.858	1.9091	0.	30.531
18822	18.95	1.8182	0.	30.952
18823	18.858	1.8182	5.e-002	4.2866
18824	18.858	2.0909	0.	31.202
18825	18.95	2.	0.	31.715
18826	18.858	2.	5.e-002	4.2874
18827	18.858	2.2727	0.	31.769
18828	18.95	2.1818	0.	32.375
18829	18.858	2.1818	5.e-002	4.2881
18830	18.858	2.4545	0.	32.221
18831	18.95	2.3636	0.	32.919
18832	18.858	2.3636	5.e-002	4.2887
18833	18.858	2.6364	0.	32.551
18834	18.95	2.5455	0.	33.336
18835	18.858	2.5455	5.e-002	4.2891
18836	18.858	2.8182	0.	32.751
18837	18.95	2.7273	0.	33.618
18838	18.858	2.7273	5.e-002	4.2894
18839	18.858	3.	0.	32.818
18840	18.95	2.9091	0.	33.76
18841	18.858	2.9091	5.e-002	4.2895
18842	18.858	3.1818	0.	32.751
18843	18.95	3.0909	0.	33.76
18844	18.858	3.0909	5.e-002	4.2895
18845	18.858	3.3636	0.	32.551
18846	18.95	3.2727	0.	33.618
18847	18.858	3.2727	5.e-002	4.2893
18848	18.858	3.5455	0.	32.221
18849	18.95	3.4545	0.	33.336
18850	18.858	3.4545	5.e-002	4.2891
18851	18.858	3.7273	0.	31.769
18852	18.95	3.6364	0.	32.919
18853	18.858	3.6364	5.e-002	4.2887
18854	18.858	3.9091	0.	31.202
18855	18.95	3.8182	0.	32.375
18856	18.858	3.8182	5.e-002	4.2881
18857	18.858	4.0909	0.	30.531
18858	18.95	4.	0.	31.715
18859	18.858	4.	5.e-002	4.2874
18860	18.858	4.2727	0.	29.771
18861	18.95	4.1818	0.	30.952
18862	18.858	4.1818	5.e-002	4.2866
18863	18.858	4.4545	0.	28.936
18864	18.95	4.3636	0.	30.099
18865	18.858	4.3636	5.e-002	4.2856
18866	18.858	4.6364	0.	28.043
18867	18.95	4.5455	0.	29.176
18868	18.858	4.5455	5.e-002	4.2845
18869	18.858	4.8182	0.	27.113
18870	18.95	4.7273	0.	28.2
18871	18.858	4.7273	5.e-002	4.2832
18872	18.858	5.	0.	26.165
18873	18.95	4.9091	0.	27.192
18874	18.858	4.9091	5.e-002	4.2818
18875	18.858	5.1818	0.	25.222
18876	18.95	5.0909	0.	26.177
18877	18.858	5.0909	5.e-002	4.2801
18878	18.858	5.3636	0.	24.312
18879	18.95	5.2727	0.	25.177
18880	18.858	5.2727	5.e-002	4.2772
18881	18.858	5.5455	0.	23.521
18882	18.95	5.4545	0.	24.226
18883	18.858	5.4545	5.e-002	4.2588
18884	18.858	5.7273	0.	24.005
18885	18.95	5.6364	0.	23.473
18886	18.858	5.6364	5.e-002	4.0037
18887	18.95	5.8182	0.	25.209
18888	18.858	5.8182	5.e-002	0.30778
18889	18.858	5.9091	0.	16.589
18890	19.042	0.27273	0.	24.505
18891	19.134	0.18182	0.	25.671
18892	19.042	0.18182	5.e-002	0.33351
18893	19.042	9.0909e-002	0.	16.892
18894	19.042	0.45455	0.	24.129
18895	19.134	0.36364	0.	24.029
18896	19.042	0.36364	5.e-002	3.9915
18897	19.042	0.63636	0.	25.048
18898	19.134	0.54545	0.	24.914
18899	19.042	0.54545	5.e-002	4.2437
18900	19.042	0.81818	0.	26.089
18901	19.134	0.72727	0.	26.001
18902	19.042	0.72727	5.e-002	4.2621
18903	19.042	1.	0.	27.163
18904	19.134	0.90909	0.	27.138
18905	19.042	0.90909	5.e-002	4.2651
18906	19.042	1.1818	0.	28.238
18907	19.134	1.0909	0.	28.289
18908	19.042	1.0909	5.e-002	4.2669
18909	19.042	1.3636	0.	29.292
18910	19.134	1.2727	0.	29.428
18911	19.042	1.2727	5.e-002	4.2684
18912	19.042	1.5455	0.	30.3
18913	19.134	1.4545	0.	30.529
18914	19.042	1.4545	5.e-002	4.2698
18915	19.042	1.7273	0.	31.242
18916	19.134	1.6364	0.	31.57
18917	19.042	1.6364	5.e-002	4.2711
18918	19.042	1.9091	0.	32.098
18919	19.134	1.8182	0.	32.528
18920	19.042	1.8182	5.e-002	4.2721
18921	19.042	2.0909	0.	32.852
18922	19.134	2.	0.	33.386
18923	19.042	2.	5.e-002	4.273
18924	19.042	2.2727	0.	33.489
18925	19.134	2.1818	0.	34.127
18926	19.042	2.1818	5.e-002	4.2738
18927	19.042	2.4545	0.	33.997
18928	19.134	2.3636	0.	34.736
18929	19.042	2.3636	5.e-002	4.2744
18930	19.042	2.6364	0.	34.367
18931	19.134	2.5455	0.	35.203
18932	19.042	2.5455	5.e-002	4.2748
18933	19.042	2.8182	0.	34.592
18934	19.134	2.7273	0.	35.519
18935	19.042	2.7273	5.e-002	4.2751
18936	19.042	3.	0.	34.667
18937	19.134	2.9091	0.	35.679
18938	19.042	2.9091	5.e-002	4.2753
18939	19.042	3.1818	0.	34.592
18940	19.134	3.0909	0.	35.679
18941	19.042	3.0909	5.e-002	4.2753
18942	19.042	3.3636	0.	34.367
18943	19.134	3.2727	0.	35.519
18944	19.042	3.2727	5.e-002	4.2751
18945	19.042	3.5455	0.	33.997
18946	19.134	3.4545	0.	35.203
18947	19.042	3.4545	5.e-002	4.2748
18948	19.042	3.7273	0.	33.489
18949	19.134	3.6364	0.	34.736
18950	19.042	3.6364	5.e-002	4.2743
18951	19.042	3.9091	0.	32.852
18952	19.134	3.8182	0.	34.127
18953	19.042	3.8182	5.e-002	4.2738
18954	19.042	4.0909	0.	32.098
18955	19.134	4.	0.	33.386
18956	19.042	4.	5.e-002	4.273
18957	19.042	4.2727	0.	31.242
18958	19.134	4.1818	0.	32.528
18959	19.042	4.1818	5.e-002	4.2721
18960	19.042	4.4545	0.	30.3
18961	19.134	4.3636	0.	31.57
18962	19.042	4.3636	5.e-002	4.271
18963	19.042	4.6364	0.	29.292
18964	19.134	4.5455	0.	30.529
18965	19.042	4.5455	5.e-002	4.2698
18966	19.042	4.8182	0.	28.239
18967	19.134	4.7273	0.	29.428
18968	19.042	4.7273	5.e-002	4.2684
18969	19.042	5.	0.	27.163
18970	19.134	4.9091	0.	28.29
18971	19.042	4.9091	5.e-002	4.2668
18972	19.042	5.1818	0.	26.089
18973	19.134	5.0909	0.	27.138
18974	19.042	5.0909	5.e-002	4.265
18975	19.042	5.3636	0.	25.048
18976	19.134	5.2727	0.	26.001
18977	19.042	5.2727	5.e-002	4.2621
18978	19.042	5.5455	0.	24.129
18979	19.134	5.4545	0.	24.914
18980	19.042	5.4545	5.e-002	4.2436
18981	19.042	5.7273	0.	24.505
18982	19.134	5.6364	0.	24.029
18983	19.042	5.6364	5.e-002	3.9914
18984	19.134	5.8182	0.	25.671
18985	19.042	5.8182	5.e-002	0.3335
18986	19.042	5.9091	0.	16.892
18987	19.226	0.27273	0.	25.02
18988	19.318	0.18182	0.	26.141
18989	19.226	0.18182	5.e-002	0.36313
18990	19.226	9.0909e-002	0.	17.202
18991	19.226	0.45455	0.	24.764
18992	19.318	0.36364	0.	24.607
18993	19.226	0.36364	5.e-002	3.9797
18994	19.226	0.63636	0.	25.823
18995	19.318	0.54545	0.	25.635
18996	19.226	0.54545	5.e-002	4.2289
18997	19.226	0.81818	0.	27.007
18998	19.318	0.72727	0.	26.871
18999	19.226	0.72727	5.e-002	4.2473
19000	19.226	1.	0.	28.222
19001	19.318	0.90909	0.	28.158
19002	19.226	0.90909	5.e-002	4.2504
19003	19.226	1.1818	0.	29.438
19004	19.318	1.0909	0.	29.457
19005	19.226	1.0909	5.e-002	4.2524
19006	19.226	1.3636	0.	30.625
19007	19.318	1.2727	0.	30.739
19008	19.226	1.2727	5.e-002	4.2541
19009	19.226	1.5455	0.	31.759
19010	19.318	1.4545	0.	31.977
19011	19.226	1.4545	5.e-002	4.2556
19012	19.226	1.7273	0.	32.818
19013	19.318	1.6364	0.	33.145
19014	19.226	1.6364	5.e-002	4.2569
19015	19.226	1.9091	0.	33.778
19016	19.318	1.8182	0.	34.219
19017	19.226	1.8182	5.e-002	4.2581
19018	19.226	2.0909	0.	34.624
19019	19.318	2.	0.	35.18
19020	19.226	2.	5.e-002	4.2591
19021	19.226	2.2727	0.	35.337
19022	19.318	2.1818	0.	36.008
19023	19.226	2.1818	5.e-002	4.2599
19024	19.226	2.4545	0.	35.906
19025	19.318	2.3636	0.	36.69
19026	19.226	2.3636	5.e-002	4.2606
19027	19.226	2.6364	0.	36.32
19028	19.318	2.5455	0.	37.211
19029	19.226	2.5455	5.e-002	4.2611
19030	19.226	2.8182	0.	36.571
19031	19.318	2.7273	0.	37.564
19032	19.226	2.7273	5.e-002	4.2614
19033	19.226	3.	0.	36.655
19034	19.318	2.9091	0.	37.743
19035	19.226	2.9091	5.e-002	4.2615
19036	19.226	3.1818	0.	36.571
19037	19.318	3.0909	0.	37.743
19038	19.226	3.0909	5.e-002	4.2615
19039	19.226	3.3636	0.	36.32
19040	19.318	3.2727	0.	37.565
19041	19.226	3.2727	5.e-002	4.2614
19042	19.226	3.5455	0.	35.906
19043	19.318	3.4545	0.	37.211
19044	19.226	3.4545	5.e-002	4.261
19045	19.226	3.7273	0.	35.337
19046	19.318	3.6364	0.	36.69
19047	19.226	3.6364	5.e-002	4.2605
19048	19.226	3.9091	0.	34.624
19049	19.318	3.8182	0.	36.008
19050	19.226	3.8182	5.e-002	4.2599
19051	19.226	4.0909	0.	33.779
19052	19.318	4.	0.	35.18
19053	19.226	4.	5.e-002	4.259
19054	19.226	4.2727	0.	32.818
19055	19.318	4.1818	0.	34.219
19056	19.226	4.1818	5.e-002	4.258
19057	19.226	4.4545	0.	31.76
19058	19.318	4.3636	0.	33.145
19059	19.226	4.3636	5.e-002	4.2569
19060	19.226	4.6364	0.	30.625
19061	19.318	4.5455	0.	31.977
19062	19.226	4.5455	5.e-002	4.2555
19063	19.226	4.8182	0.	29.438
19064	19.318	4.7273	0.	30.739
19065	19.226	4.7273	5.e-002	4.254
19066	19.226	5.	0.	28.223
19067	19.318	4.9091	0.	29.457
19068	19.226	4.9091	5.e-002	4.2523
19069	19.226	5.1818	0.	27.007
19070	19.318	5.0909	0.	28.158
19071	19.226	5.0909	5.e-002	4.2504
19072	19.226	5.3636	0.	25.823
19073	19.318	5.2727	0.	26.871
19074	19.226	5.2727	5.e-002	4.2472
19075	19.226	5.5455	0.	24.764
19076	19.318	5.4545	0.	25.635
19077	19.226	5.4545	5.e-002	4.2289
19078	19.226	5.7273	0.	25.02
19079	19.318	5.6364	0.	24.607
19080	19.226	5.6364	5.e-002	3.9796
19081	19.318	5.8182	0.	26.141
19082	19.226	5.8182	5.e-002	0.36311
19083	19.226	5.9091	0.	17.202
19084	19.409	0.27273	0.	25.549
19085	19.501	0.18182	0.	26.62
19086	19.409	0.18182	5.e-002	0.39683
19087	19.409	9.0909e-002	0.	17.519
19088	19.409	0.45455	0.	25.426
19089	19.501	0.36364	0.	25.206
19090	19.409	0.36364	5.e-002	3.9685
19091	19.409	0.63636	0.	26.637
19092	19.501	0.54545	0.	26.391
19093	19.409	0.54545	5.e-002	4.2146
19094	19.409	0.81818	0.	27.977
19095	19.501	0.72727	0.	27.789
19096	19.409	0.72727	5.e-002	4.2329
19097	19.409	1.	0.	29.349
19098	19.501	0.90909	0.	29.24
19099	19.409	0.90909	5.e-002	4.2362
19100	19.409	1.1818	0.	30.717
19101	19.501	1.0909	0.	30.701
19102	19.409	1.0909	5.e-002	4.2383
19103	19.409	1.3636	0.	32.05
19104	19.501	1.2727	0.	32.14
19105	19.409	1.2727	5.e-002	4.2402
19106	19.409	1.5455	0.	33.323
19107	19.501	1.4545	0.	33.527
19108	19.409	1.4545	5.e-002	4.2419
19109	19.409	1.7273	0.	34.508
19110	19.501	1.6364	0.	34.834
19111	19.409	1.6364	5.e-002	4.2433
19112	19.409	1.9091	0.	35.583
19113	19.501	1.8182	0.	36.035
19114	19.409	1.8182	5.e-002	4.2446
19115	19.409	2.0909	0.	36.527
19116	19.501	2.	0.	37.107
19117	19.409	2.	5.e-002	4.2457
19118	19.409	2.2727	0.	37.324
19119	19.501	2.1818	0.	38.031
19120	19.409	2.1818	5.e-002	4.2466
19121	19.409	2.4545	0.	37.959
19122	19.501	2.3636	0.	38.791
19123	19.409	2.3636	5.e-002	4.2473
19124	19.409	2.6364	0.	38.42
19125	19.501	2.5455	0.	39.372
19126	19.409	2.5455	5.e-002	4.2479
19127	19.409	2.8182	0.	38.701
19128	19.501	2.7273	0.	39.766
19129	19.409	2.7273	5.e-002	4.2483
19130	19.409	3.	0.	38.794
19131	19.501	2.9091	0.	39.964
19132	19.409	2.9091	5.e-002	4.2484
19133	19.409	3.1818	0.	38.701
19134	19.501	3.0909	0.	39.964
19135	19.409	3.0909	5.e-002	4.2484
19136	19.409	3.3636	0.	38.42
19137	19.501	3.2727	0.	39.766
19138	19.409	3.2727	5.e-002	4.2483
19139	19.409	3.5455	0.	37.959
19140	19.501	3.4545	0.	39.372
19141	19.409	3.4545	5.e-002	4.2479
19142	19.409	3.7273	0.	37.324
19143	19.501	3.6364	0.	38.791
19144	19.409	3.6364	5.e-002	4.2473
19145	19.409	3.9091	0.	36.527
19146	19.501	3.8182	0.	38.031
19147	19.409	3.8182	5.e-002	4.2466
19148	19.409	4.0909	0.	35.583
19149	19.501	4.	0.	37.107
19150	19.409	4.	5.e-002	4.2457
19151	19.409	4.2727	0.	34.508
19152	19.501	4.1818	0.	36.035
19153	19.409	4.1818	5.e-002	4.2446
19154	19.409	4.4545	0.	33.323
19155	19.501	4.3636	0.	34.834
19156	19.409	4.3636	5.e-002	4.2433
19157	19.409	4.6364	0.	32.05
19158	19.501	4.5455	0.	33.527
19159	19.409	4.5455	5.e-002	4.2418
19160	19.409	4.8182	0.	30.717
19161	19.501	4.7273	0.	32.141
19162	19.409	4.7273	5.e-002	4.2402
19163	19.409	5.	0.	29.349
19164	19.501	4.9091	0.	30.701
19165	19.409	4.9091	5.e-002	4.2383
19166	19.409	5.1818	0.	27.978
19167	19.501	5.0909	0.	29.24
19168	19.409	5.0909	5.e-002	4.2362
19169	19.409	5.3636	0.	26.638
19170	19.501	5.2727	0.	27.789
19171	19.409	5.2727	5.e-002	4.2329
19172	19.409	5.5455	0.	25.426
19173	19.501	5.4545	0.	26.391
19174	19.409	5.4545	5.e-002	4.2145
19175	19.409	5.7273	0.	25.55
19176	19.501	5.6364	0.	25.206
19177	19.409	5.6364	5.e-002	3.9684
19178	19.501	5.8182	0.	26.62
19179	19.409	5.8182	5.e-002	0.3968
19180	19.409	5.9091	0.	17.519
19181	19.593	0.27273	0.	26.094
19182	19.685	0.18182	0.	27.107
19183	19.593	0.18182	5.e-002	0.4348
19184	19.593	9.0909e-002	0.	17.841
19185	19.593	0.45455	0.	26.117
19186	19.685	0.36364	0.	25.828
19187	19.593	0.36364	5.e-002	3.9579
19188	19.593	0.63636	0.	27.496
19189	19.685	0.54545	0.	27.184
19190	19.593	0.54545	5.e-002	4.2008
19191	19.593	0.81818	0.	29.006
19192	19.685	0.72727	0.	28.76
19193	19.593	0.72727	5.e-002	4.2191
19194	19.593	1.	0.	30.548
19195	19.685	0.90909	0.	30.39
19196	19.593	0.90909	5.e-002	4.2226
19197	19.593	1.1818	0.	32.082
19198	19.685	1.0909	0.	32.028
19199	19.593	1.0909	5.e-002	4.2249
19200	19.593	1.3636	0.	33.576
19201	19.685	1.2727	0.	33.639
19202	19.593	1.2727	5.e-002	4.2269
19203	19.593	1.5455	0.	34.998
19204	19.685	1.4545	0.	35.189
19205	19.593	1.4545	5.e-002	4.2287
19206	19.593	1.7273	0.	36.322
19207	19.685	1.6364	0.	36.647
19208	19.593	1.6364	5.e-002	4.2304
19209	19.593	1.9091	0.	37.521
19210	19.685	1.8182	0.	37.986
19211	19.593	1.8182	5.e-002	4.2318
19212	19.593	2.0909	0.	38.574
19213	19.685	2.	0.	39.18
19214	19.593	2.	5.e-002	4.233
19215	19.593	2.2727	0.	39.462
19216	19.685	2.1818	0.	40.208
19217	19.593	2.1818	5.e-002	4.234
19218	19.593	2.4545	0.	40.168
19219	19.685	2.3636	0.	41.053
19220	19.593	2.3636	5.e-002	4.2348
19221	19.593	2.6364	0.	40.682
19222	19.685	2.5455	0.	41.699
19223	19.593	2.5455	5.e-002	4.2354
19224	19.593	2.8182	0.	40.993
19225	19.685	2.7273	0.	42.136
19226	19.593	2.7273	5.e-002	4.2358
19227	19.593	3.	0.	41.098
19228	19.685	2.9091	0.	42.356
19229	19.593	2.9091	5.e-002	4.2361
19230	19.593	3.1818	0.	40.993
19231	19.685	3.0909	0.	42.356
19232	19.593	3.0909	5.e-002	4.236
19233	19.593	3.3636	0.	40.682
19234	19.685	3.2727	0.	42.136
19235	19.593	3.2727	5.e-002	4.2358
19236	19.593	3.5455	0.	40.168
19237	19.685	3.4545	0.	41.699
19238	19.593	3.4545	5.e-002	4.2354
19239	19.593	3.7273	0.	39.462
19240	19.685	3.6364	0.	41.053
19241	19.593	3.6364	5.e-002	4.2348
19242	19.593	3.9091	0.	38.574
19243	19.685	3.8182	0.	40.208
19244	19.593	3.8182	5.e-002	4.234
19245	19.593	4.0909	0.	37.521
19246	19.685	4.	0.	39.18
19247	19.593	4.	5.e-002	4.233
19248	19.593	4.2727	0.	36.322
19249	19.685	4.1818	0.	37.986
19250	19.593	4.1818	5.e-002	4.2317
19251	19.593	4.4545	0.	34.998
19252	19.685	4.3636	0.	36.647
19253	19.593	4.3636	5.e-002	4.2303
19254	19.593	4.6364	0.	33.576
19255	19.685	4.5455	0.	35.189
19256	19.593	4.5455	5.e-002	4.2287
19257	19.593	4.8182	0.	32.082
19258	19.685	4.7273	0.	33.639
19259	19.593	4.7273	5.e-002	4.2269
19260	19.593	5.	0.	30.548
19261	19.685	4.9091	0.	32.028
19262	19.593	4.9091	5.e-002	4.2248
19263	19.593	5.1818	0.	29.006
19264	19.685	5.0909	0.	30.39
19265	19.593	5.0909	5.e-002	4.2225
19266	19.593	5.3636	0.	27.496
19267	19.685	5.2727	0.	28.76
19268	19.593	5.2727	5.e-002	4.219
19269	19.593	5.5455	0.	26.118
19270	19.685	5.4545	0.	27.184
19271	19.593	5.4545	5.e-002	4.2007
19272	19.593	5.7273	0.	26.094
19273	19.685	5.6364	0.	25.828
19274	19.593	5.6364	5.e-002	3.9579
19275	19.685	5.8182	0.	27.107
19276	19.593	5.8182	5.e-002	0.43477
19277	19.593	5.9091	0.	17.841
19278	19.777	0.27273	0.	26.654
19279	19.868	0.18182	0.	27.601
19280	19.777	0.18182	5.e-002	0.47722
19281	19.777	9.0909e-002	0.	18.169
19282	19.777	0.45455	0.	26.839
19283	19.868	0.36364	0.	26.472
19284	19.777	0.36364	5.e-002	3.9481
19285	19.777	0.63636	0.	28.4
19286	19.868	0.54545	0.	28.017
19287	19.777	0.54545	5.e-002	4.1874
19288	19.777	0.81818	0.	30.097
19289	19.868	0.72727	0.	29.786
19290	19.777	0.72727	5.e-002	4.2058
19291	19.777	1.	0.	31.825
19292	19.868	0.90909	0.	31.612
19293	19.777	0.90909	5.e-002	4.2094
19294	19.777	1.1818	0.	33.541
19295	19.868	1.0909	0.	33.444
19296	19.777	1.0909	5.e-002	4.212
19297	19.777	1.3636	0.	35.209
19298	19.868	1.2727	0.	35.243
19299	19.777	1.2727	5.e-002	4.2142
19300	19.777	1.5455	0.	36.796
19301	19.868	1.4545	0.	36.971
19302	19.777	1.4545	5.e-002	4.2162
19303	19.777	1.7273	0.	38.271
19304	19.868	1.6364	0.	38.595
19305	19.777	1.6364	5.e-002	4.218
19306	19.777	1.9091	0.	39.606
19307	19.868	1.8182	0.	40.084
19308	19.777	1.8182	5.e-002	4.2196
19309	19.777	2.0909	0.	40.777
19310	19.868	2.	0.	41.411
19311	19.777	2.	5.e-002	4.221
19312	19.777	2.2727	0.	41.763
19313	19.868	2.1818	0.	42.552
19314	19.777	2.1818	5.e-002	4.2221
19315	19.777	2.4545	0.	42.548
19316	19.868	2.3636	0.	43.489
19317	19.777	2.3636	5.e-002	4.223
19318	19.777	2.6364	0.	43.118
19319	19.868	2.5455	0.	44.206
19320	19.777	2.5455	5.e-002	4.2237
19321	19.777	2.8182	0.	43.464
19322	19.868	2.7273	0.	44.69
19323	19.777	2.7273	5.e-002	4.2242
19324	19.777	3.	0.	43.579
19325	19.868	2.9091	0.	44.934
19326	19.777	2.9091	5.e-002	4.2244
19327	19.777	3.1818	0.	43.464
19328	19.868	3.0909	0.	44.934
19329	19.777	3.0909	5.e-002	4.2244
19330	19.777	3.3636	0.	43.118
19331	19.868	3.2727	0.	44.69
19332	19.777	3.2727	5.e-002	4.2242
19333	19.777	3.5455	0.	42.548
19334	19.868	3.4545	0.	44.206
19335	19.777	3.4545	5.e-002	4.2237
19336	19.777	3.7273	0.	41.763
19337	19.868	3.6364	0.	43.49
19338	19.777	3.6364	5.e-002	4.223
19339	19.777	3.9091	0.	40.777
19340	19.868	3.8182	0.	42.553
19341	19.777	3.8182	5.e-002	4.2221
19342	19.777	4.0909	0.	39.606
19343	19.868	4.	0.	41.411
19344	19.777	4.	5.e-002	4.221
19345	19.777	4.2727	0.	38.271
19346	19.868	4.1818	0.	40.084
19347	19.777	4.1818	5.e-002	4.2196
19348	19.777	4.4545	0.	36.796
19349	19.868	4.3636	0.	38.595
19350	19.777	4.3636	5.e-002	4.218
19351	19.777	4.6364	0.	35.209
19352	19.868	4.5455	0.	36.971
19353	19.777	4.5455	5.e-002	4.2162
19354	19.777	4.8182	0.	33.541
19355	19.868	4.7273	0.	35.243
19356	19.777	4.7273	5.e-002	4.2142
19357	19.777	5.	0.	31.825
19358	19.868	4.9091	0.	33.445
19359	19.777	4.9091	5.e-002	4.2119
19360	19.777	5.1818	0.	30.097
19361	19.868	5.0909	0.	31.613
19362	19.777	5.0909	5.e-002	4.2094
19363	19.777	5.3636	0.	28.4
19364	19.868	5.2727	0.	29.786
19365	19.777	5.2727	5.e-002	4.2057
19366	19.777	5.5455	0.	26.839
19367	19.868	5.4545	0.	28.017
19368	19.777	5.4545	5.e-002	4.1874
19369	19.777	5.7273	0.	26.654
19370	19.868	5.6364	0.	26.472
19371	19.777	5.6364	5.e-002	3.948
19372	19.868	5.8182	0.	27.601
19373	19.777	5.8182	5.e-002	0.4772
19374	19.777	5.9091	0.	18.169
19375	19.96	0.27273	0.	27.228
19376	20.052	0.18182	0.	28.101
19377	19.96	0.18182	5.e-002	0.5243
19378	19.96	9.0909e-002	0.	18.501
19379	19.96	0.45455	0.	27.593
19380	20.052	0.36364	0.	27.141
19381	19.96	0.36364	5.e-002	3.939
19382	19.96	0.63636	0.	29.353
19383	20.052	0.54545	0.	28.891
19384	19.96	0.54545	5.e-002	4.1746
19385	19.96	0.81818	0.	31.254
19386	20.052	0.72727	0.	30.873
19387	19.96	0.72727	5.e-002	4.193
19388	19.96	1.	0.	33.186
19389	20.052	0.90909	0.	32.914
19390	19.96	0.90909	5.e-002	4.1969
19391	19.96	1.1818	0.	35.101
19392	20.052	1.0909	0.	34.958
19393	19.96	1.0909	5.e-002	4.1997
19394	19.96	1.3636	0.	36.961
19395	20.052	1.2727	0.	36.961
19396	19.96	1.2727	5.e-002	4.2022
19397	19.96	1.5455	0.	38.727
19398	20.052	1.4545	0.	38.884
19399	19.96	1.4545	5.e-002	4.2044
19400	19.96	1.7273	0.	40.367
19401	20.052	1.6364	0.	40.688
19402	19.96	1.6364	5.e-002	4.2064
19403	19.96	1.9091	0.	41.849
19404	20.052	1.8182	0.	42.341
19405	19.96	1.8182	5.e-002	4.2082
19406	19.96	2.0909	0.	43.149
19407	20.052	2.	0.	43.813
19408	19.96	2.	5.e-002	4.2097
19409	19.96	2.2727	0.	44.242
19410	20.052	2.1818	0.	45.078
19411	19.96	2.1818	5.e-002	4.211
19412	19.96	2.4545	0.	45.112
19413	20.052	2.3636	0.	46.115
19414	19.96	2.3636	5.e-002	4.212
19415	19.96	2.6364	0.	45.743
19416	20.052	2.5455	0.	46.908
19417	19.96	2.5455	5.e-002	4.2128
19418	19.96	2.8182	0.	46.126
19419	20.052	2.7273	0.	47.443
19420	19.96	2.7273	5.e-002	4.2133
19421	19.96	3.	0.	46.254
19422	20.052	2.9091	0.	47.713
19423	19.96	2.9091	5.e-002	4.2136
19424	19.96	3.1818	0.	46.126
19425	20.052	3.0909	0.	47.713
19426	19.96	3.0909	5.e-002	4.2136
19427	19.96	3.3636	0.	45.743
19428	20.052	3.2727	0.	47.443
19429	19.96	3.2727	5.e-002	4.2133
19430	19.96	3.5455	0.	45.112
19431	20.052	3.4545	0.	46.908
19432	19.96	3.4545	5.e-002	4.2128
19433	19.96	3.7273	0.	44.242
19434	20.052	3.6364	0.	46.115
19435	19.96	3.6364	5.e-002	4.212
19436	19.96	3.9091	0.	43.149
19437	20.052	3.8182	0.	45.078
19438	19.96	3.8182	5.e-002	4.211
19439	19.96	4.0909	0.	41.85
19440	20.052	4.	0.	43.813
19441	19.96	4.	5.e-002	4.2097
19442	19.96	4.2727	0.	40.367
19443	20.052	4.1818	0.	42.341
19444	19.96	4.1818	5.e-002	4.2082
19445	19.96	4.4545	0.	38.727
19446	20.052	4.3636	0.	40.688
19447	19.96	4.3636	5.e-002	4.2064
19448	19.96	4.6364	0.	36.961
19449	20.052	4.5455	0.	38.884
19450	19.96	4.5455	5.e-002	4.2044
19451	19.96	4.8182	0.	35.102
19452	20.052	4.7273	0.	36.962
19453	19.96	4.7273	5.e-002	4.2021
19454	19.96	5.	0.	33.186
19455	20.052	4.9091	0.	34.958
19456	19.96	4.9091	5.e-002	4.1996
19457	19.96	5.1818	0.	31.254
19458	20.052	5.0909	0.	32.914
19459	19.96	5.0909	5.e-002	4.1969
19460	19.96	5.3636	0.	29.353
19461	20.052	5.2727	0.	30.873
19462	19.96	5.2727	5.e-002	4.1929
19463	19.96	5.5455	0.	27.593
19464	20.052	5.4545	0.	28.891
19465	19.96	5.4545	5.e-002	4.1746
19466	19.96	5.7273	0.	27.228
19467	20.052	5.6364	0.	27.141
19468	19.96	5.6364	5.e-002	3.9389
19469	20.052	5.8182	0.	28.101
19470	19.96	5.8182	5.e-002	0.52427
19471	19.96	5.9091	0.	18.501
19472	20.144	0.27273	0.	27.817
19473	20.236	0.18182	0.	28.605
19474	20.144	0.18182	5.e-002	0.57624
19475	20.144	9.0909e-002	0.	18.839
19476	20.144	0.45455	0.	28.38
19477	20.236	0.36364	0.	27.834
19478	20.144	0.36364	5.e-002	3.9306
19479	20.144	0.63636	0.	30.359
19480	20.236	0.54545	0.	29.809
19481	20.144	0.54545	5.e-002	4.1624
19482	20.144	0.81818	0.	32.483
19483	20.236	0.72727	0.	32.024
19484	20.144	0.72727	5.e-002	4.1807
19485	20.144	1.	0.	34.638
19486	20.236	0.90909	0.	34.3
19487	20.144	0.90909	5.e-002	4.185
19488	20.144	1.1818	0.	36.772
19489	20.236	1.0909	0.	36.577
19490	20.144	1.0909	5.e-002	4.188
19491	20.144	1.3636	0.	38.841
19492	20.236	1.2727	0.	38.805
19493	20.144	1.2727	5.e-002	4.1908
19494	20.144	1.5455	0.	40.803
19495	20.236	1.4545	0.	40.94
19496	20.144	1.4545	5.e-002	4.1933
19497	20.144	1.7273	0.	42.622
19498	20.236	1.6364	0.	42.941
19499	20.144	1.6364	5.e-002	4.1956
19500	20.144	1.9091	0.	44.265
19501	20.236	1.8182	0.	44.772
19502	20.144	1.8182	5.e-002	4.1975
19503	20.144	2.0909	0.	45.704
19504	20.236	2.	0.	46.401
19505	20.144	2.	5.e-002	4.1993
19506	20.144	2.2727	0.	46.914
19507	20.236	2.1818	0.	47.8
19508	20.144	2.1818	5.e-002	4.2007
19509	20.144	2.4545	0.	47.876
19510	20.236	2.3636	0.	48.946
19511	20.144	2.3636	5.e-002	4.2019
19512	20.144	2.6364	0.	48.573
19513	20.236	2.5455	0.	49.821
19514	20.144	2.5455	5.e-002	4.2028
19515	20.144	2.8182	0.	48.996
19516	20.236	2.7273	0.	50.412
19517	20.144	2.7273	5.e-002	4.2034
19518	20.144	3.	0.	49.138
19519	20.236	2.9091	0.	50.71
19520	20.144	2.9091	5.e-002	4.2037
19521	20.144	3.1818	0.	48.996
19522	20.236	3.0909	0.	50.71
19523	20.144	3.0909	5.e-002	4.2037
19524	20.144	3.3636	0.	48.573
19525	20.236	3.2727	0.	50.412
19526	20.144	3.2727	5.e-002	4.2034
19527	20.144	3.5455	0.	47.876
19528	20.236	3.4545	0.	49.821
19529	20.144	3.4545	5.e-002	4.2028
19530	20.144	3.7273	0.	46.914
19531	20.236	3.6364	0.	48.946
19532	20.144	3.6364	5.e-002	4.2019
19533	20.144	3.9091	0.	45.704
19534	20.236	3.8182	0.	47.8
19535	20.144	3.8182	5.e-002	4.2007
19536	20.144	4.0909	0.	44.266
19537	20.236	4.	0.	46.401
19538	20.144	4.	5.e-002	4.1993
19539	20.144	4.2727	0.	42.622
19540	20.236	4.1818	0.	44.772
19541	20.144	4.1818	5.e-002	4.1975
19542	20.144	4.4545	0.	40.803
19543	20.236	4.3636	0.	42.941
19544	20.144	4.3636	5.e-002	4.1955
19545	20.144	4.6364	0.	38.841
19546	20.236	4.5455	0.	40.94
19547	20.144	4.5455	5.e-002	4.1933
19548	20.144	4.8182	0.	36.772
19549	20.236	4.7273	0.	38.805
19550	20.144	4.7273	5.e-002	4.1908
19551	20.144	5.	0.	34.638
19552	20.236	4.9091	0.	36.577
19553	20.144	4.9091	5.e-002	4.188
19554	20.144	5.1818	0.	32.483
19555	20.236	5.0909	0.	34.3
19556	20.144	5.0909	5.e-002	4.1849
19557	20.144	5.3636	0.	30.359
19558	20.236	5.2727	0.	32.025
19559	20.144	5.2727	5.e-002	4.1807
19560	20.144	5.5455	0.	28.38
19561	20.236	5.4545	0.	29.809
19562	20.144	5.4545	5.e-002	4.1623
19563	20.144	5.7273	0.	27.817
19564	20.236	5.6364	0.	27.834
19565	20.144	5.6364	5.e-002	3.9305
19566	20.236	5.8182	0.	28.605
19567	20.144	5.8182	5.e-002	0.57622
19568	20.144	5.9091	0.	18.839
19569	20.327	0.27273	0.	28.42
19570	20.419	0.18182	0.	29.112
19571	20.327	0.18182	5.e-002	0.63333
19572	20.327	9.0909e-002	0.	19.179
19573	20.327	0.45455	0.	29.201
19574	20.419	0.36364	0.	28.552
19575	20.327	0.36364	5.e-002	3.923
19576	20.327	0.63636	0.	31.42
19577	20.419	0.54545	0.	30.774
19578	20.327	0.54545	5.e-002	4.1507
19579	20.327	0.81818	0.	33.79
19580	20.419	0.72727	0.	33.245
19581	20.327	0.72727	5.e-002	4.1692
19582	20.327	1.	0.	36.19
19583	20.419	0.90909	0.	35.779
19584	20.327	0.90909	5.e-002	4.1737
19585	20.327	1.1818	0.	38.562
19586	20.419	1.0909	0.	38.31
19587	20.327	1.0909	5.e-002	4.1771
19588	20.327	1.3636	0.	40.859
19589	20.419	1.2727	0.	40.783
19590	20.327	1.2727	5.e-002	4.1802
19591	20.327	1.5455	0.	43.035
19592	20.419	1.4545	0.	43.151
19593	20.327	1.4545	5.e-002	4.183
19594	20.327	1.7273	0.	45.051
19595	20.419	1.6364	0.	45.367
19596	20.327	1.6364	5.e-002	4.1855
19597	20.327	1.9091	0.	46.869
19598	20.419	1.8182	0.	47.391
19599	20.327	1.8182	5.e-002	4.1878
19600	20.327	2.0909	0.	48.459
19601	20.419	2.	0.	49.19
19602	20.327	2.	5.e-002	4.1898
19603	20.327	2.2727	0.	49.795
19604	20.419	2.1818	0.	50.734
19605	20.327	2.1818	5.e-002	4.1914
19606	20.327	2.4545	0.	50.856
19607	20.419	2.3636	0.	51.998
19608	20.327	2.3636	5.e-002	4.1928
19609	20.327	2.6364	0.	51.625
19610	20.419	2.5455	0.	52.962
19611	20.327	2.5455	5.e-002	4.1938
19612	20.327	2.8182	0.	52.091
19613	20.419	2.7273	0.	53.613
19614	20.327	2.7273	5.e-002	4.1945
19615	20.327	3.	0.	52.247
19616	20.419	2.9091	0.	53.94
19617	20.327	2.9091	5.e-002	4.1948
19618	20.327	3.1818	0.	52.091
19619	20.419	3.0909	0.	53.94
19620	20.327	3.0909	5.e-002	4.1948
19621	20.327	3.3636	0.	51.625
19622	20.419	3.2727	0.	53.613
19623	20.327	3.2727	5.e-002	4.1945
19624	20.327	3.5455	0.	50.856
19625	20.419	3.4545	0.	52.962
19626	20.327	3.4545	5.e-002	4.1938
19627	20.327	3.7273	0.	49.795
19628	20.419	3.6364	0.	51.998
19629	20.327	3.6364	5.e-002	4.1928
19630	20.327	3.9091	0.	48.459
19631	20.419	3.8182	0.	50.734
19632	20.327	3.8182	5.e-002	4.1914
19633	20.327	4.0909	0.	46.869
19634	20.419	4.	0.	49.19
19635	20.327	4.	5.e-002	4.1897
19636	20.327	4.2727	0.	45.051
19637	20.419	4.1818	0.	47.392
19638	20.327	4.1818	5.e-002	4.1878
19639	20.327	4.4545	0.	43.036
19640	20.419	4.3636	0.	45.367
19641	20.327	4.3636	5.e-002	4.1855
19642	20.327	4.6364	0.	40.859
19643	20.419	4.5455	0.	43.151
19644	20.327	4.5455	5.e-002	4.183
19645	20.327	4.8182	0.	38.562
19646	20.419	4.7273	0.	40.783
19647	20.327	4.7273	5.e-002	4.1802
19648	20.327	5.	0.	36.19
19649	20.419	4.9091	0.	38.31
19650	20.327	4.9091	5.e-002	4.1771
19651	20.327	5.1818	0.	33.79
19652	20.419	5.0909	0.	35.779
19653	20.327	5.0909	5.e-002	4.1737
19654	20.327	5.3636	0.	31.421
19655	20.419	5.2727	0.	33.245
19656	20.327	5.2727	5.e-002	4.1691
19657	20.327	5.5455	0.	29.202
19658	20.419	5.4545	0.	30.774
19659	20.327	5.4545	5.e-002	4.1507
19660	20.327	5.7273	0.	28.42
19661	20.419	5.6364	0.	28.552
19662	20.327	5.6364	5.e-002	3.9229
19663	20.419	5.8182	0.	29.112
19664	20.327	5.8182	5.e-002	0.6333
19665	20.327	5.9091	0.	19.179
19666	20.511	0.27273	0.	29.037
19667	20.603	0.18182	0.	29.62
19668	20.511	0.18182	5.e-002	0.69587
19669	20.511	9.0909e-002	0.	19.522
19670	20.511	0.45455	0.	30.06
19671	20.603	0.36364	0.	29.296
19672	20.511	0.36364	5.e-002	3.9163
19673	20.511	0.63636	0.	32.542
19674	20.603	0.54545	0.	31.789
19675	20.511	0.54545	5.e-002	4.1397
19676	20.511	0.81818	0.	35.181
19677	20.603	0.72727	0.	34.54
19678	20.511	0.72727	5.e-002	4.1583
19679	20.511	1.	0.	37.848
19680	20.603	0.90909	0.	37.358
19681	20.511	0.90909	5.e-002	4.1632
19682	20.511	1.1818	0.	40.483
19683	20.603	1.0909	0.	40.167
19684	20.511	1.0909	5.e-002	4.167
19685	20.511	1.3636	0.	43.029
19686	20.603	1.2727	0.	42.91
19687	20.511	1.2727	5.e-002	4.1705
19688	20.511	1.5455	0.	45.439
19689	20.603	1.4545	0.	45.53
19690	20.511	1.4545	5.e-002	4.1736
19691	20.511	1.7273	0.	47.667
19692	20.603	1.6364	0.	47.98
19693	20.511	1.6364	5.e-002	4.1765
19694	20.511	1.9091	0.	49.675
19695	20.603	1.8182	0.	50.215
19696	20.511	1.8182	5.e-002	4.1791
19697	20.511	2.0909	0.	51.429
19698	20.603	2.	0.	52.199
19699	20.511	2.	5.e-002	4.1813
19700	20.511	2.2727	0.	52.901
19701	20.603	2.1818	0.	53.898
19702	20.511	2.1818	5.e-002	4.1832
19703	20.511	2.4545	0.	54.069
19704	20.603	2.3636	0.	55.288
19705	20.511	2.3636	5.e-002	4.1848
19706	20.511	2.6364	0.	54.916
19707	20.603	2.5455	0.	56.349
19708	20.511	2.5455	5.e-002	4.186
19709	20.511	2.8182	0.	55.428
19710	20.603	2.7273	0.	57.064
19711	20.511	2.7273	5.e-002	4.1868
19712	20.511	3.	0.	55.6
19713	20.603	2.9091	0.	57.424
19714	20.511	2.9091	5.e-002	4.1872
19715	20.511	3.1818	0.	55.428
19716	20.603	3.0909	0.	57.424
19717	20.511	3.0909	5.e-002	4.1871
19718	20.511	3.3636	0.	54.916
19719	20.603	3.2727	0.	57.064
19720	20.511	3.2727	5.e-002	4.1867
19721	20.511	3.5455	0.	54.069
19722	20.603	3.4545	0.	56.349
19723	20.511	3.4545	5.e-002	4.186
19724	20.511	3.7273	0.	52.901
19725	20.603	3.6364	0.	55.289
19726	20.511	3.6364	5.e-002	4.1848
19727	20.511	3.9091	0.	51.429
19728	20.603	3.8182	0.	53.898
19729	20.511	3.8182	5.e-002	4.1832
19730	20.511	4.0909	0.	49.675
19731	20.603	4.	0.	52.199
19732	20.511	4.	5.e-002	4.1813
19733	20.511	4.2727	0.	47.667
19734	20.603	4.1818	0.	50.215
19735	20.511	4.1818	5.e-002	4.1791
19736	20.511	4.4545	0.	45.439
19737	20.603	4.3636	0.	47.98
19738	20.511	4.3636	5.e-002	4.1765
19739	20.511	4.6364	0.	43.029
19740	20.603	4.5455	0.	45.53
19741	20.511	4.5455	5.e-002	4.1736
19742	20.511	4.8182	0.	40.483
19743	20.603	4.7273	0.	42.91
19744	20.511	4.7273	5.e-002	4.1704
19745	20.511	5.	0.	37.849
19746	20.603	4.9091	0.	40.167
19747	20.511	4.9091	5.e-002	4.167
19748	20.511	5.1818	0.	35.181
19749	20.603	5.0909	0.	37.358
19750	20.511	5.0909	5.e-002	4.1632
19751	20.511	5.3636	0.	32.542
19752	20.603	5.2727	0.	34.541
19753	20.511	5.2727	5.e-002	4.1582
19754	20.511	5.5455	0.	30.06
19755	20.603	5.4545	0.	31.789
19756	20.511	5.4545	5.e-002	4.1397
19757	20.511	5.7273	0.	29.037
19758	20.603	5.6364	0.	29.296
19759	20.511	5.6364	5.e-002	3.9163
19760	20.603	5.8182	0.	29.62
19761	20.511	5.8182	5.e-002	0.69585
19762	20.511	5.9091	0.	19.522
19763	20.695	0.27273	0.	29.666
19764	20.787	0.18182	0.	30.126
19765	20.695	0.18182	5.e-002	0.7642
19766	20.695	9.0909e-002	0.	19.866
19767	20.695	0.45455	0.	30.957
19768	20.787	0.36364	0.	30.066
19769	20.695	0.36364	5.e-002	3.9106
19770	20.695	0.63636	0.	33.728
19771	20.787	0.54545	0.	32.856
19772	20.695	0.54545	5.e-002	4.1295
19773	20.695	0.81818	0.	36.662
19774	20.787	0.72727	0.	35.917
19775	20.695	0.72727	5.e-002	4.1481
19776	20.695	1.	0.	39.624
19777	20.787	0.90909	0.	39.045
19778	20.695	0.90909	5.e-002	4.1535
19779	20.695	1.1818	0.	42.545
19780	20.787	1.0909	0.	42.161
19781	20.695	1.0909	5.e-002	4.1578
19782	20.695	1.3636	0.	45.364
19783	20.787	1.2727	0.	45.197
19784	20.695	1.2727	5.e-002	4.1617
19785	20.695	1.5455	0.	48.028
19786	20.787	1.4545	0.	48.094
19787	20.695	1.4545	5.e-002	4.1653
19788	20.695	1.7273	0.	50.487
19789	20.787	1.6364	0.	50.797
19790	20.695	1.6364	5.e-002	4.1686
19791	20.695	1.9091	0.	52.7
19792	20.787	1.8182	0.	53.261
19793	20.695	1.8182	5.e-002	4.1715
19794	20.695	2.0909	0.	54.631
19795	20.787	2.	0.	55.443
19796	20.695	2.	5.e-002	4.1741
19797	20.695	2.2727	0.	56.251
19798	20.787	2.1818	0.	57.311
19799	20.695	2.1818	5.e-002	4.1763
19800	20.695	2.4545	0.	57.534
19801	20.787	2.3636	0.	58.837
19802	20.695	2.3636	5.e-002	4.178
19803	20.695	2.6364	0.	58.463
19804	20.787	2.5455	0.	60.
19805	20.695	2.5455	5.e-002	4.1794
19806	20.695	2.8182	0.	59.026
19807	20.787	2.7273	0.	60.784
19808	20.695	2.7273	5.e-002	4.1803
19809	20.695	3.	0.	59.215
19810	20.787	2.9091	0.	61.178
19811	20.695	2.9091	5.e-002	4.1808
19812	20.695	3.1818	0.	59.026
19813	20.787	3.0909	0.	61.178
19814	20.695	3.0909	5.e-002	4.1808
19815	20.695	3.3636	0.	58.464
19816	20.787	3.2727	0.	60.784
19817	20.695	3.2727	5.e-002	4.1803
19818	20.695	3.5455	0.	57.534
19819	20.787	3.4545	0.	60.
19820	20.695	3.4545	5.e-002	4.1794
19821	20.695	3.7273	0.	56.251
19822	20.787	3.6364	0.	58.837
19823	20.695	3.6364	5.e-002	4.178
19824	20.695	3.9091	0.	54.632
19825	20.787	3.8182	0.	57.311
19826	20.695	3.8182	5.e-002	4.1762
19827	20.695	4.0909	0.	52.701
19828	20.787	4.	0.	55.443
19829	20.695	4.	5.e-002	4.174
19830	20.695	4.2727	0.	50.487
19831	20.787	4.1818	0.	53.261
19832	20.695	4.1818	5.e-002	4.1715
19833	20.695	4.4545	0.	48.028
19834	20.787	4.3636	0.	50.797
19835	20.695	4.3636	5.e-002	4.1685
19836	20.695	4.6364	0.	45.364
19837	20.787	4.5455	0.	48.094
19838	20.695	4.5455	5.e-002	4.1652
19839	20.695	4.8182	0.	42.545
19840	20.787	4.7273	0.	45.197
19841	20.695	4.7273	5.e-002	4.1616
19842	20.695	5.	0.	39.624
19843	20.787	4.9091	0.	42.161
19844	20.695	4.9091	5.e-002	4.1577
19845	20.695	5.1818	0.	36.662
19846	20.787	5.0909	0.	39.045
19847	20.695	5.0909	5.e-002	4.1535
19848	20.695	5.3636	0.	33.728
19849	20.787	5.2727	0.	35.917
19850	20.695	5.2727	5.e-002	4.1481
19851	20.695	5.5455	0.	30.957
19852	20.787	5.4545	0.	32.857
19853	20.695	5.4545	5.e-002	4.1294
19854	20.695	5.7273	0.	29.666
19855	20.787	5.6364	0.	30.066
19856	20.695	5.6364	5.e-002	3.9105
19857	20.787	5.8182	0.	30.126
19858	20.695	5.8182	5.e-002	0.76418
19859	20.695	5.9091	0.	19.866
19860	20.878	0.27273	0.	30.306
19861	20.97	0.18182	0.	30.627
19862	20.878	0.18182	5.e-002	0.83866
19863	20.878	9.0909e-002	0.	20.21
19864	20.878	0.45455	0.	31.894
19865	20.97	0.36364	0.	30.862
19866	20.878	0.36364	5.e-002	3.9058
19867	20.878	0.63636	0.	34.983
19868	20.97	0.54545	0.	33.981
19869	20.878	0.54545	5.e-002	4.1199
19870	20.878	0.81818	0.	38.242
19871	20.97	0.72727	0.	37.381
19872	20.878	0.72727	5.e-002	4.1388
19873	20.878	1.	0.	41.528
19874	20.97	0.90909	0.	40.852
19875	20.878	0.90909	5.e-002	4.1447
19876	20.878	1.1818	0.	44.762
19877	20.97	1.0909	0.	44.303
19878	20.878	1.0909	5.e-002	4.1495
19879	20.878	1.3636	0.	47.88
19880	20.97	1.2727	0.	47.661
19881	20.878	1.2727	5.e-002	4.1539
19882	20.878	1.5455	0.	50.82
19883	20.97	1.4545	0.	50.859
19884	20.878	1.4545	5.e-002	4.158
19885	20.878	1.7273	0.	53.53
19886	20.97	1.6364	0.	53.838
19887	20.878	1.6364	5.e-002	4.1618
19888	20.878	1.9091	0.	55.965
19889	20.97	1.8182	0.	56.547
19890	20.878	1.8182	5.e-002	4.1651
19891	20.878	2.0909	0.	58.086
19892	20.97	2.	0.	58.944
19893	20.878	2.	5.e-002	4.1681
19894	20.878	2.2727	0.	59.863
19895	20.97	2.1818	0.	60.992
19896	20.878	2.1818	5.e-002	4.1706
19897	20.878	2.4545	0.	61.27
19898	20.97	2.3636	0.	62.664
19899	20.878	2.3636	5.e-002	4.1727
19900	20.878	2.6364	0.	62.288
19901	20.97	2.5455	0.	63.936
19902	20.878	2.5455	5.e-002	4.1743
19903	20.878	2.8182	0.	62.904
19904	20.97	2.7273	0.	64.793
19905	20.878	2.7273	5.e-002	4.1753
19906	20.878	3.	0.	63.11
19907	20.97	2.9091	0.	65.224
19908	20.878	2.9091	5.e-002	4.1759
19909	20.878	3.1818	0.	62.904
19910	20.97	3.0909	0.	65.224
19911	20.878	3.0909	5.e-002	4.1759
19912	20.878	3.3636	0.	62.288
19913	20.97	3.2727	0.	64.793
19914	20.878	3.2727	5.e-002	4.1753
19915	20.878	3.5455	0.	61.27
19916	20.97	3.4545	0.	63.936
19917	20.878	3.4545	5.e-002	4.1743
19918	20.878	3.7273	0.	59.863
19919	20.97	3.6364	0.	62.664
19920	20.878	3.6364	5.e-002	4.1727
19921	20.878	3.9091	0.	58.087
19922	20.97	3.8182	0.	60.992
19923	20.878	3.8182	5.e-002	4.1706
19924	20.878	4.0909	0.	55.965
19925	20.97	4.	0.	58.944
19926	20.878	4.	5.e-002	4.1681
19927	20.878	4.2727	0.	53.53
19928	20.97	4.1818	0.	56.547
19929	20.878	4.1818	5.e-002	4.1651
19930	20.878	4.4545	0.	50.82
19931	20.97	4.3636	0.	53.838
19932	20.878	4.3636	5.e-002	4.1617
19933	20.878	4.6364	0.	47.88
19934	20.97	4.5455	0.	50.859
19935	20.878	4.5455	5.e-002	4.158
19936	20.878	4.8182	0.	44.762
19937	20.97	4.7273	0.	47.661
19938	20.878	4.7273	5.e-002	4.1539
19939	20.878	5.	0.	41.528
19940	20.97	4.9091	0.	44.303
19941	20.878	4.9091	5.e-002	4.1494
19942	20.878	5.1818	0.	38.242
19943	20.97	5.0909	0.	40.852
19944	20.878	5.0909	5.e-002	4.1447
19945	20.878	5.3636	0.	34.984
19946	20.97	5.2727	0.	37.381
19947	20.878	5.2727	5.e-002	4.1388
19948	20.878	5.5455	0.	31.894
19949	20.97	5.4545	0.	33.981
19950	20.878	5.4545	5.e-002	4.1199
19951	20.878	5.7273	0.	30.306
19952	20.97	5.6364	0.	30.862
19953	20.878	5.6364	5.e-002	3.9058
19954	20.97	5.8182	0.	30.627
19955	20.878	5.8182	5.e-002	0.83863
19956	20.878	5.9091	0.	20.21
19957	21.062	0.27273	0.	30.956
19958	21.154	0.18182	0.	31.12
19959	21.062	0.18182	5.e-002	0.91965
19960	21.062	9.0909e-002	0.	20.551
19961	21.062	0.45455	0.	32.873
19962	21.154	0.36364	0.	31.685
19963	21.062	0.36364	5.e-002	3.9021
19964	21.062	0.63636	0.	36.314
19965	21.154	0.54545	0.	35.167
19966	21.062	0.54545	5.e-002	4.1111
19967	21.062	0.81818	0.	39.931
19968	21.154	0.72727	0.	38.942
19969	21.062	0.72727	5.e-002	4.1303
19970	21.062	1.	0.	43.571
19971	21.154	0.90909	0.	42.789
19972	21.062	0.90909	5.e-002	4.1368
19973	21.062	1.1818	0.	47.15
19974	21.154	1.0909	0.	46.609
19975	21.062	1.0909	5.e-002	4.1422
19976	21.062	1.3636	0.	50.592
19977	21.154	1.2727	0.	50.318
19978	21.062	1.2727	5.e-002	4.1473
19979	21.062	1.5455	0.	53.833
19980	21.154	1.4545	0.	53.844
19981	21.062	1.4545	5.e-002	4.152
19982	21.062	1.7273	0.	56.814
19983	21.154	1.6364	0.	57.121
19984	21.062	1.6364	5.e-002	4.1563
19985	21.062	1.9091	0.	59.488
19986	21.154	1.8182	0.	60.095
19987	21.062	1.8182	5.e-002	4.1602
19988	21.062	2.0909	0.	61.814
19989	21.154	2.	0.	62.722
19990	21.062	2.	5.e-002	4.1636
19991	21.062	2.2727	0.	63.759
19992	21.154	2.1818	0.	64.963
19993	21.062	2.1818	5.e-002	4.1665
19994	21.062	2.4545	0.	65.297
19995	21.154	2.3636	0.	66.788
19996	21.062	2.3636	5.e-002	4.1689
19997	21.062	2.6364	0.	66.409
19998	21.154	2.5455	0.	68.177
19999	21.062	2.5455	5.e-002	4.1707
20000	21.062	2.8182	0.	67.082
20001	21.154	2.7273	0.	69.111
20002	21.062	2.7273	5.e-002	4.172
20003	21.062	3.	0.	67.307
20004	21.154	2.9091	0.	69.581
20005	21.062	2.9091	5.e-002	4.1726
20006	21.062	3.1818	0.	67.082
20007	21.154	3.0909	0.	69.581
20008	21.062	3.0909	5.e-002	4.1726
20009	21.062	3.3636	0.	66.409
20010	21.154	3.2727	0.	69.111
20011	21.062	3.2727	5.e-002	4.172
20012	21.062	3.5455	0.	65.297
20013	21.154	3.4545	0.	68.177
20014	21.062	3.4545	5.e-002	4.1707
20015	21.062	3.7273	0.	63.759
20016	21.154	3.6364	0.	66.788
20017	21.062	3.6364	5.e-002	4.1689
20018	21.062	3.9091	0.	61.814
20019	21.154	3.8182	0.	64.963
20020	21.062	3.8182	5.e-002	4.1665
20021	21.062	4.0909	0.	59.488
20022	21.154	4.	0.	62.722
20023	21.062	4.	5.e-002	4.1636
20024	21.062	4.2727	0.	56.814
20025	21.154	4.1818	0.	60.095
20026	21.062	4.1818	5.e-002	4.1601
20027	21.062	4.4545	0.	53.833
20028	21.154	4.3636	0.	57.121
20029	21.062	4.3636	5.e-002	4.1563
20030	21.062	4.6364	0.	50.592
20031	21.154	4.5455	0.	53.844
20032	21.062	4.5455	5.e-002	4.1519
20033	21.062	4.8182	0.	47.15
20034	21.154	4.7273	0.	50.318
20035	21.062	4.7273	5.e-002	4.1472
20036	21.062	5.	0.	43.571
20037	21.154	4.9091	0.	46.609
20038	21.062	4.9091	5.e-002	4.1422
20039	21.062	5.1818	0.	39.931
20040	21.154	5.0909	0.	42.79
20041	21.062	5.0909	5.e-002	4.1368
20042	21.062	5.3636	0.	36.314
20043	21.154	5.2727	0.	38.942
20044	21.062	5.2727	5.e-002	4.1302
20045	21.062	5.5455	0.	32.874
20046	21.154	5.4545	0.	35.167
20047	21.062	5.4545	5.e-002	4.1111
20048	21.062	5.7273	0.	30.956
20049	21.154	5.6364	0.	31.686
20050	21.062	5.6364	5.e-002	3.902
20051	21.154	5.8182	0.	31.121
20052	21.062	5.8182	5.e-002	0.91963
20053	21.062	5.9091	0.	20.551
20054	21.246	0.27273	0.	31.614
20055	21.337	0.18182	0.	31.602
20056	21.246	0.18182	5.e-002	1.0077
20057	21.246	9.0909e-002	0.	20.888
20058	21.246	0.45455	0.	33.898
20059	21.337	0.36364	0.	32.537
20060	21.246	0.36364	5.e-002	3.8995
20061	21.246	0.63636	0.	37.727
20062	21.337	0.54545	0.	36.42
20063	21.246	0.54545	5.e-002	4.1032
20064	21.246	0.81818	0.	41.738
20065	21.337	0.72727	0.	40.609
20066	21.246	0.72727	5.e-002	4.1227
20067	21.246	1.	0.	45.77
20068	21.337	0.90909	0.	44.872
20069	21.246	0.90909	5.e-002	4.1299
20070	21.246	1.1818	0.	49.725
20071	21.337	1.0909	0.	49.097
20072	21.246	1.0909	5.e-002	4.1361
20073	21.246	1.3636	0.	53.522
20074	21.337	1.2727	0.	53.19
20075	21.246	1.2727	5.e-002	4.1419
20076	21.246	1.5455	0.	57.088
20077	21.337	1.4545	0.	57.07
20078	21.246	1.4545	5.e-002	4.1473
20079	21.246	1.7273	0.	60.362
20080	21.337	1.6364	0.	60.669
20081	21.246	1.6364	5.e-002	4.1523
20082	21.246	1.9091	0.	63.292
20083	21.337	1.8182	0.	63.928
20084	21.246	1.8182	5.e-002	4.1568
20085	21.246	2.0909	0.	65.835
20086	21.337	2.	0.	66.799
20087	21.246	2.	5.e-002	4.1607
20088	21.246	2.2727	0.	67.959
20089	21.337	2.1818	0.	69.244
20090	21.246	2.1818	5.e-002	4.1641
20091	21.246	2.4545	0.	69.636
20092	21.337	2.3636	0.	71.233
20093	21.246	2.3636	5.e-002	4.1669
20094	21.246	2.6364	0.	70.848
20095	21.337	2.5455	0.	72.743
20096	21.246	2.5455	5.e-002	4.169
20097	21.246	2.8182	0.	71.58
20098	21.337	2.7273	0.	73.758
20099	21.246	2.7273	5.e-002	4.1705
20100	21.246	3.	0.	71.825
20101	21.337	2.9091	0.	74.269
20102	21.246	2.9091	5.e-002	4.1712
20103	21.246	3.1818	0.	71.58
20104	21.337	3.0909	0.	74.269
20105	21.246	3.0909	5.e-002	4.1712
20106	21.246	3.3636	0.	70.848
20107	21.337	3.2727	0.	73.758
20108	21.246	3.2727	5.e-002	4.1704
20109	21.246	3.5455	0.	69.636
20110	21.337	3.4545	0.	72.743
20111	21.246	3.4545	5.e-002	4.169
20112	21.246	3.7273	0.	67.959
20113	21.337	3.6364	0.	71.233
20114	21.246	3.6364	5.e-002	4.1669
20115	21.246	3.9091	0.	65.835
20116	21.337	3.8182	0.	69.244
20117	21.246	3.8182	5.e-002	4.1641
20118	21.246	4.0909	0.	63.292
20119	21.337	4.	0.	66.799
20120	21.246	4.	5.e-002	4.1607
20121	21.246	4.2727	0.	60.362
20122	21.337	4.1818	0.	63.928
20123	21.246	4.1818	5.e-002	4.1568
20124	21.246	4.4545	0.	57.088
20125	21.337	4.3636	0.	60.669
20126	21.246	4.3636	5.e-002	4.1523
20127	21.246	4.6364	0.	53.522
20128	21.337	4.5455	0.	57.07
20129	21.246	4.5455	5.e-002	4.1473
20130	21.246	4.8182	0.	49.725
20131	21.337	4.7273	0.	53.19
20132	21.246	4.7273	5.e-002	4.1419
20133	21.246	5.	0.	45.77
20134	21.337	4.9091	0.	49.097
20135	21.246	4.9091	5.e-002	4.1361
20136	21.246	5.1818	0.	41.738
20137	21.337	5.0909	0.	44.873
20138	21.246	5.0909	5.e-002	4.1299
20139	21.246	5.3636	0.	37.727
20140	21.337	5.2727	0.	40.61
20141	21.246	5.2727	5.e-002	4.1227
20142	21.246	5.5455	0.	33.899
20143	21.337	5.4545	0.	36.42
20144	21.246	5.4545	5.e-002	4.1032
20145	21.246	5.7273	0.	31.614
20146	21.337	5.6364	0.	32.537
20147	21.246	5.6364	5.e-002	3.8994
20148	21.337	5.8182	0.	31.602
20149	21.246	5.8182	5.e-002	1.0076
20150	21.246	5.9091	0.	20.888
20151	21.429	0.27273	0.	32.279
20152	21.521	0.18182	0.	32.065
20153	21.429	0.18182	5.e-002	1.1032
20154	21.429	9.0909e-002	0.	21.218
20155	21.429	0.45455	0.	34.972
20156	21.521	0.36364	0.	33.417
20157	21.429	0.36364	5.e-002	3.898
20158	21.429	0.63636	0.	39.23
20159	21.521	0.54545	0.	37.746
20160	21.429	0.54545	5.e-002	4.0962
20161	21.429	0.81818	0.	43.678
20162	21.521	0.72727	0.	42.395
20163	21.429	0.72727	5.e-002	4.1162
20164	21.429	1.	0.	48.14
20165	21.521	0.90909	0.	47.118
20166	21.429	0.90909	5.e-002	4.1243
20167	21.429	1.1818	0.	52.508
20168	21.521	1.0909	0.	51.786
20169	21.429	1.0909	5.e-002	4.1313
20170	21.429	1.3636	0.	56.69
20171	21.521	1.2727	0.	56.298
20172	21.429	1.2727	5.e-002	4.138
20173	21.429	1.5455	0.	60.608
20174	21.521	1.4545	0.	60.564
20175	21.429	1.4545	5.e-002	4.1442
20176	21.429	1.7273	0.	64.196
20177	21.521	1.6364	0.	64.508
20178	21.429	1.6364	5.e-002	4.15
20179	21.429	1.9091	0.	67.399
20180	21.521	1.8182	0.	68.07
20181	21.429	1.8182	5.e-002	4.1552
20182	21.429	2.0909	0.	70.174
20183	21.521	2.	0.	71.2
20184	21.429	2.	5.e-002	4.1598
20185	21.429	2.2727	0.	72.486
20186	21.521	2.1818	0.	73.86
20187	21.429	2.1818	5.e-002	4.1637
20188	21.429	2.4545	0.	74.309
20189	21.521	2.3636	0.	76.019
20190	21.429	2.3636	5.e-002	4.1669
20191	21.429	2.6364	0.	75.625
20192	21.521	2.5455	0.	77.657
20193	21.429	2.5455	5.e-002	4.1694
20194	21.429	2.8182	0.	76.419
20195	21.521	2.7273	0.	78.757
20196	21.429	2.7273	5.e-002	4.171
20197	21.429	3.	0.	76.684
20198	21.521	2.9091	0.	79.309
20199	21.429	2.9091	5.e-002	4.1719
20200	21.429	3.1818	0.	76.419
20201	21.521	3.0909	0.	79.309
20202	21.429	3.0909	5.e-002	4.1719
20203	21.429	3.3636	0.	75.625
20204	21.521	3.2727	0.	78.757
20205	21.429	3.2727	5.e-002	4.171
20206	21.429	3.5455	0.	74.309
20207	21.521	3.4545	0.	77.657
20208	21.429	3.4545	5.e-002	4.1694
20209	21.429	3.7273	0.	72.486
20210	21.521	3.6364	0.	76.02
20211	21.429	3.6364	5.e-002	4.1669
20212	21.429	3.9091	0.	70.174
20213	21.521	3.8182	0.	73.86
20214	21.429	3.8182	5.e-002	4.1637
20215	21.429	4.0909	0.	67.399
20216	21.521	4.	0.	71.2
20217	21.429	4.	5.e-002	4.1598
20218	21.429	4.2727	0.	64.196
20219	21.521	4.1818	0.	68.07
20220	21.429	4.1818	5.e-002	4.1552
20221	21.429	4.4545	0.	60.608
20222	21.521	4.3636	0.	64.508
20223	21.429	4.3636	5.e-002	4.15
20224	21.429	4.6364	0.	56.69
20225	21.521	4.5455	0.	60.564
20226	21.429	4.5455	5.e-002	4.1442
20227	21.429	4.8182	0.	52.508
20228	21.521	4.7273	0.	56.298
20229	21.429	4.7273	5.e-002	4.138
20230	21.429	5.	0.	48.14
20231	21.521	4.9091	0.	51.787
20232	21.429	4.9091	5.e-002	4.1313
20233	21.429	5.1818	0.	43.678
20234	21.521	5.0909	0.	47.118
20235	21.429	5.0909	5.e-002	4.1242
20236	21.429	5.3636	0.	39.23
20237	21.521	5.2727	0.	42.395
20238	21.429	5.2727	5.e-002	4.1161
20239	21.429	5.5455	0.	34.972
20240	21.521	5.4545	0.	37.746
20241	21.429	5.4545	5.e-002	4.0961
20242	21.429	5.7273	0.	32.279
20243	21.521	5.6364	0.	33.417
20244	21.429	5.6364	5.e-002	3.898
20245	21.521	5.8182	0.	32.066
20246	21.429	5.8182	5.e-002	1.1032
20247	21.429	5.9091	0.	21.218
20248	21.613	0.27273	0.	32.948
20249	21.705	0.18182	0.	32.506
20250	21.613	0.18182	5.e-002	1.2069
20251	21.613	9.0909e-002	0.	21.537
20252	21.613	0.45455	0.	36.098
20253	21.705	0.36364	0.	34.328
20254	21.613	0.36364	5.e-002	3.8979
20255	21.613	0.63636	0.	40.834
20256	21.705	0.54545	0.	39.154
20257	21.613	0.54545	5.e-002	4.0901
20258	21.613	0.81818	0.	45.766
20259	21.705	0.72727	0.	44.315
20260	21.613	0.72727	5.e-002	4.1107
20261	21.613	1.	0.	50.703
20262	21.705	0.90909	0.	49.546
20263	21.613	0.90909	5.e-002	4.1199
20264	21.613	1.1818	0.	55.522
20265	21.705	1.0909	0.	54.703
20266	21.613	1.0909	5.e-002	4.1281
20267	21.613	1.3636	0.	60.123
20268	21.705	1.2727	0.	59.671
20269	21.613	1.2727	5.e-002	4.1358
20270	21.613	1.5455	0.	64.42
20271	21.705	1.4545	0.	64.352
20272	21.613	1.4545	5.e-002	4.143
20273	21.613	1.7273	0.	68.343
20274	21.705	1.6364	0.	68.665
20275	21.613	1.6364	5.e-002	4.1497
20276	21.613	1.9091	0.	71.836
20277	21.705	1.8182	0.	72.548
20278	21.613	1.8182	5.e-002	4.1557
20279	21.613	2.0909	0.	74.854
20280	21.705	2.	0.	75.951
20281	21.613	2.	5.e-002	4.161
20282	21.613	2.2727	0.	77.363
20283	21.705	2.1818	0.	78.834
20284	21.613	2.1818	5.e-002	4.1656
20285	21.613	2.4545	0.	79.338
20286	21.705	2.3636	0.	81.171
20287	21.613	2.3636	5.e-002	4.1693
20288	21.613	2.6364	0.	80.761
20289	21.705	2.5455	0.	82.94
20290	21.613	2.5455	5.e-002	4.1721
20291	21.613	2.8182	0.	81.619
20292	21.705	2.7273	0.	84.126
20293	21.613	2.7273	5.e-002	4.174
20294	21.613	3.	0.	81.906
20295	21.705	2.9091	0.	84.721
20296	21.613	2.9091	5.e-002	4.1749
20297	21.613	3.1818	0.	81.619
20298	21.705	3.0909	0.	84.721
20299	21.613	3.0909	5.e-002	4.1749
20300	21.613	3.3636	0.	80.761
20301	21.705	3.2727	0.	84.126
20302	21.613	3.2727	5.e-002	4.174
20303	21.613	3.5455	0.	79.338
20304	21.705	3.4545	0.	82.94
20305	21.613	3.4545	5.e-002	4.1721
20306	21.613	3.7273	0.	77.363
20307	21.705	3.6364	0.	81.171
20308	21.613	3.6364	5.e-002	4.1693
20309	21.613	3.9091	0.	74.854
20310	21.705	3.8182	0.	78.834
20311	21.613	3.8182	5.e-002	4.1656
20312	21.613	4.0909	0.	71.836
20313	21.705	4.	0.	75.951
20314	21.613	4.	5.e-002	4.161
20315	21.613	4.2727	0.	68.343
20316	21.705	4.1818	0.	72.548
20317	21.613	4.1818	5.e-002	4.1557
20318	21.613	4.4545	0.	64.42
20319	21.705	4.3636	0.	68.665
20320	21.613	4.3636	5.e-002	4.1496
20321	21.613	4.6364	0.	60.123
20322	21.705	4.5455	0.	64.352
20323	21.613	4.5455	5.e-002	4.143
20324	21.613	4.8182	0.	55.522
20325	21.705	4.7273	0.	59.671
20326	21.613	4.7273	5.e-002	4.1357
20327	21.613	5.	0.	50.703
20328	21.705	4.9091	0.	54.703
20329	21.613	4.9091	5.e-002	4.128
20330	21.613	5.1818	0.	45.766
20331	21.705	5.0909	0.	49.546
20332	21.613	5.0909	5.e-002	4.1199
20333	21.613	5.3636	0.	40.834
20334	21.705	5.2727	0.	44.315
20335	21.613	5.2727	5.e-002	4.1107
20336	21.613	5.5455	0.	36.099
20337	21.705	5.4545	0.	39.154
20338	21.613	5.4545	5.e-002	4.0901
20339	21.613	5.7273	0.	32.948
20340	21.705	5.6364	0.	34.328
20341	21.613	5.6364	5.e-002	3.8978
20342	21.705	5.8182	0.	32.506
20343	21.613	5.8182	5.e-002	1.2069
20344	21.613	5.9091	0.	21.537
20345	21.796	0.27273	0.	33.618
20346	21.888	0.18182	0.	32.917
20347	21.796	0.18182	5.e-002	1.3193
20348	21.796	9.0909e-002	0.	21.843
20349	21.796	0.45455	0.	37.284
20350	21.888	0.36364	0.	35.272
20351	21.796	0.36364	5.e-002	3.899
20352	21.796	0.63636	0.	42.552
20353	21.888	0.54545	0.	40.655
20354	21.796	0.54545	5.e-002	4.0852
20355	21.796	0.81818	0.	48.023
20356	21.888	0.72727	0.	46.389
20357	21.796	0.72727	5.e-002	4.1066
20358	21.796	1.	0.	53.483
20359	21.888	0.90909	0.	52.183
20360	21.796	0.90909	5.e-002	4.1171
20361	21.796	1.1818	0.	58.796
20362	21.888	1.0909	0.	57.877
20363	21.796	1.0909	5.e-002	4.1265
20364	21.796	1.3636	0.	63.851
20365	21.888	1.2727	0.	63.34
20366	21.796	1.2727	5.e-002	4.1354
20367	21.796	1.5455	0.	68.554
20368	21.888	1.4545	0.	68.466
20369	21.796	1.4545	5.e-002	4.1438
20370	21.796	1.7273	0.	72.832
20371	21.888	1.6364	0.	73.172
20372	21.796	1.6364	5.e-002	4.1516
20373	21.796	1.9091	0.	76.629
20374	21.888	1.8182	0.	77.392
20375	21.796	1.8182	5.e-002	4.1585
20376	21.796	2.0909	0.	79.9
20377	21.888	2.	0.	81.077
20378	21.796	2.	5.e-002	4.1647
20379	21.796	2.2727	0.	82.613
20380	21.888	2.1818	0.	84.192
20381	21.796	2.1818	5.e-002	4.1699
20382	21.796	2.4545	0.	84.745
20383	21.888	2.3636	0.	86.71
20384	21.796	2.3636	5.e-002	4.1741
20385	21.796	2.6364	0.	86.278
20386	21.888	2.5455	0.	88.612
20387	21.796	2.5455	5.e-002	4.1774
20388	21.796	2.8182	0.	87.202
20389	21.888	2.7273	0.	89.887
20390	21.796	2.7273	5.e-002	4.1795
20391	21.796	3.	0.	87.511
20392	21.888	2.9091	0.	90.526
20393	21.796	2.9091	5.e-002	4.1806
20394	21.796	3.1818	0.	87.202
20395	21.888	3.0909	0.	90.526
20396	21.796	3.0909	5.e-002	4.1806
20397	21.796	3.3636	0.	86.278
20398	21.888	3.2727	0.	89.887
20399	21.796	3.2727	5.e-002	4.1795
20400	21.796	3.5455	0.	84.745
20401	21.888	3.4545	0.	88.612
20402	21.796	3.4545	5.e-002	4.1774
20403	21.796	3.7273	0.	82.613
20404	21.888	3.6364	0.	86.71
20405	21.796	3.6364	5.e-002	4.1741
20406	21.796	3.9091	0.	79.9
20407	21.888	3.8182	0.	84.192
20408	21.796	3.8182	5.e-002	4.1699
20409	21.796	4.0909	0.	76.629
20410	21.888	4.	0.	81.077
20411	21.796	4.	5.e-002	4.1647
20412	21.796	4.2727	0.	72.832
20413	21.888	4.1818	0.	77.392
20414	21.796	4.1818	5.e-002	4.1585
20415	21.796	4.4545	0.	68.554
20416	21.888	4.3636	0.	73.172
20417	21.796	4.3636	5.e-002	4.1515
20418	21.796	4.6364	0.	63.851
20419	21.888	4.5455	0.	68.466
20420	21.796	4.5455	5.e-002	4.1438
20421	21.796	4.8182	0.	58.797
20422	21.888	4.7273	0.	63.34
20423	21.796	4.7273	5.e-002	4.1354
20424	21.796	5.	0.	53.483
20425	21.888	4.9091	0.	57.877
20426	21.796	4.9091	5.e-002	4.1265
20427	21.796	5.1818	0.	48.023
20428	21.888	5.0909	0.	52.184
20429	21.796	5.0909	5.e-002	4.1171
20430	21.796	5.3636	0.	42.552
20431	21.888	5.2727	0.	46.389
20432	21.796	5.2727	5.e-002	4.1066
20433	21.796	5.5455	0.	37.284
20434	21.888	5.4545	0.	40.655
20435	21.796	5.4545	5.e-002	4.0851
20436	21.796	5.7273	0.	33.618
20437	21.888	5.6364	0.	35.272
20438	21.796	5.6364	5.e-002	3.899
20439	21.888	5.8182	0.	32.917
20440	21.796	5.8182	5.e-002	1.3193
20441	21.796	5.9091	0.	21.843
20442	21.98	0.27273	0.	34.288
20443	22.072	0.18182	0.	33.29
20444	21.98	0.18182	5.e-002	1.4413
20445	21.98	9.0909e-002	0.	22.129
20446	21.98	0.45455	0.	38.535
20447	22.072	0.36364	0.	36.253
20448	21.98	0.36364	5.e-002	3.9016
20449	21.98	0.63636	0.	44.403
20450	22.072	0.54545	0.	42.266
20451	21.98	0.54545	5.e-002	4.0814
20452	21.98	0.81818	0.	50.473
20453	22.072	0.72727	0.	48.641
20454	21.98	0.72727	5.e-002	4.1039
20455	21.98	1.	0.	56.512
20456	22.072	0.90909	0.	55.063
20457	21.98	0.90909	5.e-002	4.116
20458	21.98	1.1818	0.	62.364
20459	22.072	1.0909	0.	61.345
20460	21.98	1.0909	5.e-002	4.1269
20461	21.98	1.3636	0.	67.907
20462	22.072	1.2727	0.	67.343
20463	21.98	1.2727	5.e-002	4.1374
20464	21.98	1.5455	0.	73.042
20465	22.072	1.4545	0.	72.944
20466	21.98	1.4545	5.e-002	4.1471
20467	21.98	1.7273	0.	77.694
20468	22.072	1.6364	0.	78.062
20469	21.98	1.6364	5.e-002	4.156
20470	21.98	1.9091	0.	81.807
20471	22.072	1.8182	0.	82.632
20472	21.98	1.8182	5.e-002	4.1641
20473	21.98	2.0909	0.	85.339
20474	22.072	2.	0.	86.608
20475	21.98	2.	5.e-002	4.1711
20476	21.98	2.2727	0.	88.261
20477	22.072	2.1818	0.	89.958
20478	21.98	2.1818	5.e-002	4.1771
20479	21.98	2.4545	0.	90.551
20480	22.072	2.3636	0.	92.659
20481	21.98	2.3636	5.e-002	4.1819
20482	21.98	2.6364	0.	92.196
20483	22.072	2.5455	0.	94.696
20484	21.98	2.5455	5.e-002	4.1856
20485	21.98	2.8182	0.	93.186
20486	22.072	2.7273	0.	96.058
20487	21.98	2.7273	5.e-002	4.188
20488	21.98	3.	0.	93.517
20489	22.072	2.9091	0.	96.741
20490	21.98	2.9091	5.e-002	4.1892
20491	21.98	3.1818	0.	93.186
20492	22.072	3.0909	0.	96.741
20493	21.98	3.0909	5.e-002	4.1892
20494	21.98	3.3636	0.	92.196
20495	22.072	3.2727	0.	96.058
20496	21.98	3.2727	5.e-002	4.188
20497	21.98	3.5455	0.	90.551
20498	22.072	3.4545	0.	94.696
20499	21.98	3.4545	5.e-002	4.1856
20500	21.98	3.7273	0.	88.261
20501	22.072	3.6364	0.	92.659
20502	21.98	3.6364	5.e-002	4.1819
20503	21.98	3.9091	0.	85.339
20504	22.072	3.8182	0.	89.958
20505	21.98	3.8182	5.e-002	4.1771
20506	21.98	4.0909	0.	81.807
20507	22.072	4.	0.	86.608
20508	21.98	4.	5.e-002	4.1711
20509	21.98	4.2727	0.	77.694
20510	22.072	4.1818	0.	82.632
20511	21.98	4.1818	5.e-002	4.1641
20512	21.98	4.4545	0.	73.042
20513	22.072	4.3636	0.	78.062
20514	21.98	4.3636	5.e-002	4.156
20515	21.98	4.6364	0.	67.907
20516	22.072	4.5455	0.	72.944
20517	21.98	4.5455	5.e-002	4.1471
20518	21.98	4.8182	0.	62.364
20519	22.072	4.7273	0.	67.343
20520	21.98	4.7273	5.e-002	4.1373
20521	21.98	5.	0.	56.512
20522	22.072	4.9091	0.	61.345
20523	21.98	4.9091	5.e-002	4.1269
20524	21.98	5.1818	0.	50.473
20525	22.072	5.0909	0.	55.063
20526	21.98	5.0909	5.e-002	4.1159
20527	21.98	5.3636	0.	44.403
20528	22.072	5.2727	0.	48.641
20529	21.98	5.2727	5.e-002	4.1039
20530	21.98	5.5455	0.	38.535
20531	22.072	5.4545	0.	42.266
20532	21.98	5.4545	5.e-002	4.0813
20533	21.98	5.7273	0.	34.288
20534	22.072	5.6364	0.	36.253
20535	21.98	5.6364	5.e-002	3.9016
20536	22.072	5.8182	0.	33.29
20537	21.98	5.8182	5.e-002	1.4413
20538	21.98	5.9091	0.	22.129
20539	22.164	0.27273	0.	34.955
20540	22.256	0.18182	0.	33.615
20541	22.164	0.18182	5.e-002	1.5737
20542	22.164	9.0909e-002	0.	22.391
20543	22.164	0.45455	0.	39.865
20544	22.256	0.36364	0.	37.277
20545	22.164	0.36364	5.e-002	3.9058
20546	22.164	0.63636	0.	46.409
20547	22.256	0.54545	0.	44.007
20548	22.164	0.54545	5.e-002	4.0789
20549	22.164	0.81818	0.	53.15
20550	22.256	0.72727	0.	51.107
20551	22.164	0.72727	5.e-002	4.1029
20552	22.164	1.	0.	59.828
20553	22.256	0.90909	0.	58.225
20554	22.164	0.90909	5.e-002	4.1169
20555	22.164	1.1818	0.	66.267
20556	22.256	1.0909	0.	65.151
20557	22.164	1.0909	5.e-002	4.1298
20558	22.164	1.3636	0.	72.333
20559	22.256	1.2727	0.	71.725
20560	22.164	1.2727	5.e-002	4.1419
20561	22.164	1.5455	0.	77.923
20562	22.256	1.4545	0.	77.828
20563	22.164	1.4545	5.e-002	4.1532
20564	22.164	1.7273	0.	82.964
20565	22.256	1.6364	0.	83.374
20566	22.164	1.6364	5.e-002	4.1635
20567	22.164	1.9091	0.	87.402
20568	22.256	1.8182	0.	88.302
20569	22.164	1.8182	5.e-002	4.1727
20570	22.164	2.0909	0.	91.199
20571	22.256	2.	0.	92.572
20572	22.164	2.	5.e-002	4.1808
20573	22.164	2.2727	0.	94.33
20574	22.256	2.1818	0.	96.157
20575	22.164	2.1818	5.e-002	4.1875
20576	22.164	2.4545	0.	96.779
20577	22.256	2.3636	0.	99.04
20578	22.164	2.3636	5.e-002	4.1929
20579	22.164	2.6364	0.	98.535
20580	22.256	2.5455	0.	101.21
20581	22.164	2.5455	5.e-002	4.197
20582	22.164	2.8182	0.	99.59
20583	22.256	2.7273	0.	102.66
20584	22.164	2.7273	5.e-002	4.1997
20585	22.164	3.	0.	99.942
20586	22.256	2.9091	0.	103.38
20587	22.164	2.9091	5.e-002	4.2011
20588	22.164	3.1818	0.	99.59
20589	22.256	3.0909	0.	103.38
20590	22.164	3.0909	5.e-002	4.2011
20591	22.164	3.3636	0.	98.535
20592	22.256	3.2727	0.	102.66
20593	22.164	3.2727	5.e-002	4.1997
20594	22.164	3.5455	0.	96.779
20595	22.256	3.4545	0.	101.21
20596	22.164	3.4545	5.e-002	4.197
20597	22.164	3.7273	0.	94.33
20598	22.256	3.6364	0.	99.04
20599	22.164	3.6364	5.e-002	4.1929
20600	22.164	3.9091	0.	91.199
20601	22.256	3.8182	0.	96.157
20602	22.164	3.8182	5.e-002	4.1875
20603	22.164	4.0909	0.	87.402
20604	22.256	4.	0.	92.572
20605	22.164	4.	5.e-002	4.1807
20606	22.164	4.2727	0.	82.964
20607	22.256	4.1818	0.	88.302
20608	22.164	4.1818	5.e-002	4.1727
20609	22.164	4.4545	0.	77.923
20610	22.256	4.3636	0.	83.374
20611	22.164	4.3636	5.e-002	4.1635
20612	22.164	4.6364	0.	72.333
20613	22.256	4.5455	0.	77.828
20614	22.164	4.5455	5.e-002	4.1532
20615	22.164	4.8182	0.	66.267
20616	22.256	4.7273	0.	71.725
20617	22.164	4.7273	5.e-002	4.1419
20618	22.164	5.	0.	59.828
20619	22.256	4.9091	0.	65.151
20620	22.164	4.9091	5.e-002	4.1298
20621	22.164	5.1818	0.	53.15
20622	22.256	5.0909	0.	58.226
20623	22.164	5.0909	5.e-002	4.1169
20624	22.164	5.3636	0.	46.409
20625	22.256	5.2727	0.	51.107
20626	22.164	5.2727	5.e-002	4.1029
20627	22.164	5.5455	0.	39.865
20628	22.256	5.4545	0.	44.007
20629	22.164	5.4545	5.e-002	4.0789
20630	22.164	5.7273	0.	34.955
20631	22.256	5.6364	0.	37.278
20632	22.164	5.6364	5.e-002	3.9058
20633	22.256	5.8182	0.	33.615
20634	22.164	5.8182	5.e-002	1.5737
20635	22.164	5.9091	0.	22.391
20636	22.347	0.27273	0.	35.616
20637	22.439	0.18182	0.	33.879
20638	22.347	0.18182	5.e-002	1.7177
20639	22.347	9.0909e-002	0.	22.622
20640	22.347	0.45455	0.	41.289
20641	22.439	0.36364	0.	38.356
20642	22.347	0.36364	5.e-002	3.9118
20643	22.347	0.63636	0.	48.602
20644	22.439	0.54545	0.	45.91
20645	22.347	0.54545	5.e-002	4.0782
20646	22.347	0.81818	0.	56.098
20647	22.439	0.72727	0.	53.831
20648	22.347	0.72727	5.e-002	4.1041
20649	22.347	1.	0.	63.48
20650	22.439	0.90909	0.	61.726
20651	22.347	0.90909	5.e-002	4.1205
20652	22.347	1.1818	0.	70.553
20653	22.439	1.0909	0.	69.353
20654	22.347	1.0909	5.e-002	4.1356
20655	22.347	1.3636	0.	77.174
20656	22.439	1.2727	0.	76.539
20657	22.347	1.2727	5.e-002	4.1498
20658	22.347	1.5455	0.	83.239
20659	22.439	1.4545	0.	83.165
20660	22.347	1.4545	5.e-002	4.1628
20661	22.347	1.7273	0.	88.678
20662	22.439	1.6364	0.	89.148
20663	22.347	1.6364	5.e-002	4.1746
20664	22.347	1.9091	0.	93.443
20665	22.439	1.8182	0.	94.436
20666	22.347	1.8182	5.e-002	4.185
20667	22.347	2.0909	0.	97.505
20668	22.439	2.	0.	98.998
20669	22.347	2.	5.e-002	4.194
20670	22.347	2.2727	0.	100.84
20671	22.439	2.1818	0.	102.81
20672	22.347	2.1818	5.e-002	4.2015
20673	22.347	2.4545	0.	103.45
20674	22.439	2.3636	0.	105.87
20675	22.347	2.3636	5.e-002	4.2075
20676	22.347	2.6364	0.	105.31
20677	22.439	2.5455	0.	108.17
20678	22.347	2.5455	5.e-002	4.212
20679	22.347	2.8182	0.	106.43
20680	22.439	2.7273	0.	109.7
20681	22.347	2.7273	5.e-002	4.215
20682	22.347	3.	0.	106.8
20683	22.439	2.9091	0.	110.47
20684	22.347	2.9091	5.e-002	4.2165
20685	22.347	3.1818	0.	106.43
20686	22.439	3.0909	0.	110.47
20687	22.347	3.0909	5.e-002	4.2165
20688	22.347	3.3636	0.	105.31
20689	22.439	3.2727	0.	109.7
20690	22.347	3.2727	5.e-002	4.215
20691	22.347	3.5455	0.	103.45
20692	22.439	3.4545	0.	108.17
20693	22.347	3.4545	5.e-002	4.212
20694	22.347	3.7273	0.	100.84
20695	22.439	3.6364	0.	105.87
20696	22.347	3.6364	5.e-002	4.2075
20697	22.347	3.9091	0.	97.505
20698	22.439	3.8182	0.	102.81
20699	22.347	3.8182	5.e-002	4.2015
20700	22.347	4.0909	0.	93.443
20701	22.439	4.	0.	98.998
20702	22.347	4.	5.e-002	4.194
20703	22.347	4.2727	0.	88.678
20704	22.439	4.1818	0.	94.436
20705	22.347	4.1818	5.e-002	4.185
20706	22.347	4.4545	0.	83.239
20707	22.439	4.3636	0.	89.148
20708	22.347	4.3636	5.e-002	4.1746
20709	22.347	4.6364	0.	77.174
20710	22.439	4.5455	0.	83.165
20711	22.347	4.5455	5.e-002	4.1628
20712	22.347	4.8182	0.	70.554
20713	22.439	4.7273	0.	76.539
20714	22.347	4.7273	5.e-002	4.1497
20715	22.347	5.	0.	63.48
20716	22.439	4.9091	0.	69.353
20717	22.347	4.9091	5.e-002	4.1356
20718	22.347	5.1818	0.	56.098
20719	22.439	5.0909	0.	61.726
20720	22.347	5.0909	5.e-002	4.1205
20721	22.347	5.3636	0.	48.602
20722	22.439	5.2727	0.	53.831
20723	22.347	5.2727	5.e-002	4.1041
20724	22.347	5.5455	0.	41.289
20725	22.439	5.4545	0.	45.91
20726	22.347	5.4545	5.e-002	4.0781
20727	22.347	5.7273	0.	35.616
20728	22.439	5.6364	0.	38.356
20729	22.347	5.6364	5.e-002	3.9117
20730	22.439	5.8182	0.	33.879
20731	22.347	5.8182	5.e-002	1.7177
20732	22.347	5.9091	0.	22.622
20733	22.531	0.27273	0.	36.272
20734	22.623	0.18182	0.	34.069
20735	22.531	0.18182	5.e-002	1.8745
20736	22.531	9.0909e-002	0.	22.812
20737	22.531	0.45455	0.	42.832
20738	22.623	0.36364	0.	39.507
20739	22.531	0.36364	5.e-002	3.9198
20740	22.531	0.63636	0.	51.028
20741	22.623	0.54545	0.	48.02
20742	22.531	0.54545	5.e-002	4.0795
20743	22.531	0.81818	0.	59.373
20744	22.623	0.72727	0.	56.879
20745	22.531	0.72727	5.e-002	4.108
20746	22.531	1.	0.	67.53
20747	22.623	0.90909	0.	65.636
20748	22.531	0.90909	5.e-002	4.1273
20749	22.531	1.1818	0.	75.284
20750	22.623	1.0909	0.	74.018
20751	22.531	1.0909	5.e-002	4.1452
20752	22.531	1.3636	0.	82.485
20753	22.623	1.2727	0.	81.847
20754	22.531	1.2727	5.e-002	4.1616
20755	22.531	1.5455	0.	89.036
20756	22.623	1.4545	0.	89.007
20757	22.531	1.4545	5.e-002	4.1766
20758	22.531	1.7273	0.	94.875
20759	22.623	1.6364	0.	95.428
20760	22.531	1.6364	5.e-002	4.1899
20761	22.531	1.9091	0.	99.964
20762	22.623	1.8182	0.	101.07
20763	22.531	1.8182	5.e-002	4.2016
20764	22.531	2.0909	0.	104.28
20765	22.623	2.	0.	105.91
20766	22.531	2.	5.e-002	4.2115
20767	22.531	2.2727	0.	107.82
20768	22.623	2.1818	0.	109.95
20769	22.531	2.1818	5.e-002	4.2197
20770	22.531	2.4545	0.	110.57
20771	22.623	2.3636	0.	113.17
20772	22.531	2.3636	5.e-002	4.2262
20773	22.531	2.6364	0.	112.54
20774	22.623	2.5455	0.	115.59
20775	22.531	2.5455	5.e-002	4.231
20776	22.531	2.8182	0.	113.72
20777	22.623	2.7273	0.	117.2
20778	22.531	2.7273	5.e-002	4.2342
20779	22.531	3.	0.	114.11
20780	22.623	2.9091	0.	118.
20781	22.531	2.9091	5.e-002	4.2358
20782	22.531	3.1818	0.	113.72
20783	22.623	3.0909	0.	118.
20784	22.531	3.0909	5.e-002	4.2358
20785	22.531	3.3636	0.	112.54
20786	22.623	3.2727	0.	117.2
20787	22.531	3.2727	5.e-002	4.2342
20788	22.531	3.5455	0.	110.57
20789	22.623	3.4545	0.	115.59
20790	22.531	3.4545	5.e-002	4.231
20791	22.531	3.7273	0.	107.82
20792	22.623	3.6364	0.	113.17
20793	22.531	3.6364	5.e-002	4.2262
20794	22.531	3.9091	0.	104.28
20795	22.623	3.8182	0.	109.95
20796	22.531	3.8182	5.e-002	4.2197
20797	22.531	4.0909	0.	99.964
20798	22.623	4.	0.	105.91
20799	22.531	4.	5.e-002	4.2115
20800	22.531	4.2727	0.	94.875
20801	22.623	4.1818	0.	101.07
20802	22.531	4.1818	5.e-002	4.2016
20803	22.531	4.4545	0.	89.037
20804	22.623	4.3636	0.	95.428
20805	22.531	4.3636	5.e-002	4.1899
20806	22.531	4.6364	0.	82.485
20807	22.623	4.5455	0.	89.007
20808	22.531	4.5455	5.e-002	4.1766
20809	22.531	4.8182	0.	75.284
20810	22.623	4.7273	0.	81.847
20811	22.531	4.7273	5.e-002	4.1616
20812	22.531	5.	0.	67.53
20813	22.623	4.9091	0.	74.018
20814	22.531	4.9091	5.e-002	4.1451
20815	22.531	5.1818	0.	59.373
20816	22.623	5.0909	0.	65.636
20817	22.531	5.0909	5.e-002	4.1273
20818	22.531	5.3636	0.	51.028
20819	22.623	5.2727	0.	56.879
20820	22.531	5.2727	5.e-002	4.108
20821	22.531	5.5455	0.	42.832
20822	22.623	5.4545	0.	48.02
20823	22.531	5.4545	5.e-002	4.0795
20824	22.531	5.7273	0.	36.272
20825	22.623	5.6364	0.	39.507
20826	22.531	5.6364	5.e-002	3.9198
20827	22.623	5.8182	0.	34.069
20828	22.531	5.8182	5.e-002	1.8745
20829	22.531	5.9091	0.	22.812
20830	22.715	0.27273	0.	36.925
20831	22.806	0.18182	0.	34.167
20832	22.715	0.18182	5.e-002	2.0459
20833	22.715	9.0909e-002	0.	22.95
20834	22.715	0.45455	0.	44.533
20835	22.806	0.36364	0.	40.761
20836	22.715	0.36364	5.e-002	3.9303
20837	22.715	0.63636	0.	53.752
20838	22.806	0.54545	0.	50.406
20839	22.715	0.54545	5.e-002	4.0836
20840	22.715	0.81818	0.	63.052
20841	22.806	0.72727	0.	60.338
20842	22.715	0.72727	5.e-002	4.1156
20843	22.715	1.	0.	72.056
20844	22.806	0.90909	0.	70.046
20845	22.715	0.90909	5.e-002	4.1386
20846	22.715	1.1818	0.	80.529
20847	22.806	1.0909	0.	79.231
20848	22.715	1.0909	5.e-002	4.1596
20849	22.715	1.3636	0.	88.327
20850	22.806	1.2727	0.	87.719
20851	22.715	1.2727	5.e-002	4.1785
20852	22.715	1.5455	0.	95.364
20853	22.806	1.4545	0.	95.411
20854	22.715	1.4545	5.e-002	4.1955
20855	22.715	1.7273	0.	101.59
20856	22.806	1.6364	0.	102.26
20857	22.715	1.6364	5.e-002	4.2103
20858	22.715	1.9091	0.	106.99
20859	22.806	1.8182	0.	108.24
20860	22.715	1.8182	5.e-002	4.2229
20861	22.715	2.0909	0.	111.56
20862	22.806	2.	0.	113.34
20863	22.715	2.	5.e-002	4.2336
20864	22.715	2.2727	0.	115.28
20865	22.806	2.1818	0.	117.58
20866	22.715	2.1818	5.e-002	4.2423
20867	22.715	2.4545	0.	118.17
20868	22.806	2.3636	0.	120.96
20869	22.715	2.3636	5.e-002	4.2491
20870	22.715	2.6364	0.	120.23
20871	22.806	2.5455	0.	123.48
20872	22.715	2.5455	5.e-002	4.2542
20873	22.715	2.8182	0.	121.47
20874	22.806	2.7273	0.	125.16
20875	22.715	2.7273	5.e-002	4.2575
20876	22.715	3.	0.	121.88
20877	22.806	2.9091	0.	126.
20878	22.715	2.9091	5.e-002	4.2592
20879	22.715	3.1818	0.	121.47
20880	22.806	3.0909	0.	126.
20881	22.715	3.0909	5.e-002	4.2592
20882	22.715	3.3636	0.	120.23
20883	22.806	3.2727	0.	125.16
20884	22.715	3.2727	5.e-002	4.2575
20885	22.715	3.5455	0.	118.17
20886	22.806	3.4545	0.	123.48
20887	22.715	3.4545	5.e-002	4.2542
20888	22.715	3.7273	0.	115.28
20889	22.806	3.6364	0.	120.96
20890	22.715	3.6364	5.e-002	4.2491
20891	22.715	3.9091	0.	111.56
20892	22.806	3.8182	0.	117.58
20893	22.715	3.8182	5.e-002	4.2423
20894	22.715	4.0909	0.	106.99
20895	22.806	4.	0.	113.34
20896	22.715	4.	5.e-002	4.2336
20897	22.715	4.2727	0.	101.59
20898	22.806	4.1818	0.	108.24
20899	22.715	4.1818	5.e-002	4.2229
20900	22.715	4.4545	0.	95.364
20901	22.806	4.3636	0.	102.26
20902	22.715	4.3636	5.e-002	4.2102
20903	22.715	4.6364	0.	88.327
20904	22.806	4.5455	0.	95.411
20905	22.715	4.5455	5.e-002	4.1954
20906	22.715	4.8182	0.	80.529
20907	22.806	4.7273	0.	87.719
20908	22.715	4.7273	5.e-002	4.1785
20909	22.715	5.	0.	72.056
20910	22.806	4.9091	0.	79.231
20911	22.715	4.9091	5.e-002	4.1595
20912	22.715	5.1818	0.	63.052
20913	22.806	5.0909	0.	70.046
20914	22.715	5.0909	5.e-002	4.1386
20915	22.715	5.3636	0.	53.752
20916	22.806	5.2727	0.	60.338
20917	22.715	5.2727	5.e-002	4.1156
20918	22.715	5.5455	0.	44.533
20919	22.806	5.4545	0.	50.406
20920	22.715	5.4545	5.e-002	4.0836
20921	22.715	5.7273	0.	36.925
20922	22.806	5.6364	0.	40.761
20923	22.715	5.6364	5.e-002	3.9303
20924	22.806	5.8182	0.	34.167
20925	22.715	5.8182	5.e-002	2.0459
20926	22.715	5.9091	0.	22.95
20927	22.898	0.27273	0.	37.583
20928	22.99	0.18182	0.	34.154
20929	22.898	0.18182	5.e-002	2.2341
20930	22.898	9.0909e-002	0.	23.021
20931	22.898	0.45455	0.	46.453
20932	22.99	0.36364	0.	42.174
20933	22.898	0.36364	5.e-002	3.9443
20934	22.898	0.63636	0.	56.867
20935	22.99	0.54545	0.	53.176
20936	22.898	0.54545	5.e-002	4.0919
20937	22.898	0.81818	0.	67.242
20938	22.99	0.72727	0.	64.335
20939	22.898	0.72727	5.e-002	4.1286
20940	22.898	1.	0.	77.155
20941	22.99	0.90909	0.	75.074
20942	22.898	0.90909	5.e-002	4.156
20943	22.898	1.1818	0.	86.372
20944	22.99	1.0909	0.	85.089
20945	22.898	1.0909	5.e-002	4.1804
20946	22.898	1.3636	0.	94.765
20947	22.99	1.2727	0.	94.231
20948	22.898	1.2727	5.e-002	4.2019
20949	22.898	1.5455	0.	102.27
20950	22.99	1.4545	0.	102.43
20951	22.898	1.4545	5.e-002	4.2205
20952	22.898	1.7273	0.	108.87
20953	22.99	1.6364	0.	109.68
20954	22.898	1.6364	5.e-002	4.2365
20955	22.898	1.9091	0.	114.56
20956	22.99	1.8182	0.	115.96
20957	22.898	1.8182	5.e-002	4.2499
20958	22.898	2.0909	0.	119.35
20959	22.99	2.	0.	121.31
20960	22.898	2.	5.e-002	4.2609
20961	22.898	2.2727	0.	123.24
20962	22.99	2.1818	0.	125.72
20963	22.898	2.1818	5.e-002	4.2699
20964	22.898	2.4545	0.	126.25
20965	22.99	2.3636	0.	129.24
20966	22.898	2.3636	5.e-002	4.2768
20967	22.898	2.6364	0.	128.4
20968	22.99	2.5455	0.	131.86
20969	22.898	2.5455	5.e-002	4.2819
20970	22.898	2.8182	0.	129.68
20971	22.99	2.7273	0.	133.6
20972	22.898	2.7273	5.e-002	4.2852
20973	22.898	3.	0.	130.11
20974	22.99	2.9091	0.	134.46
20975	22.898	2.9091	5.e-002	4.2868
20976	22.898	3.1818	0.	129.68
20977	22.99	3.0909	0.	134.46
20978	22.898	3.0909	5.e-002	4.2868
20979	22.898	3.3636	0.	128.4
20980	22.99	3.2727	0.	133.6
20981	22.898	3.2727	5.e-002	4.2852
20982	22.898	3.5455	0.	126.25
20983	22.99	3.4545	0.	131.86
20984	22.898	3.4545	5.e-002	4.2819
20985	22.898	3.7273	0.	123.24
20986	22.99	3.6364	0.	129.24
20987	22.898	3.6364	5.e-002	4.2768
20988	22.898	3.9091	0.	119.35
20989	22.99	3.8182	0.	125.72
20990	22.898	3.8182	5.e-002	4.2699
20991	22.898	4.0909	0.	114.56
20992	22.99	4.	0.	121.31
20993	22.898	4.	5.e-002	4.2609
20994	22.898	4.2727	0.	108.87
20995	22.99	4.1818	0.	115.96
20996	22.898	4.1818	5.e-002	4.2499
20997	22.898	4.4545	0.	102.27
20998	22.99	4.3636	0.	109.68
20999	22.898	4.3636	5.e-002	4.2365
21000	22.898	4.6364	0.	94.765
21001	22.99	4.5455	0.	102.43
21002	22.898	4.5455	5.e-002	4.2205
21003	22.898	4.8182	0.	86.372
21004	22.99	4.7273	0.	94.231
21005	22.898	4.7273	5.e-002	4.2019
21006	22.898	5.	0.	77.155
21007	22.99	4.9091	0.	85.089
21008	22.898	4.9091	5.e-002	4.1804
21009	22.898	5.1818	0.	67.242
21010	22.99	5.0909	0.	75.074
21011	22.898	5.0909	5.e-002	4.156
21012	22.898	5.3636	0.	56.867
21013	22.99	5.2727	0.	64.335
21014	22.898	5.2727	5.e-002	4.1286
21015	22.898	5.5455	0.	46.453
21016	22.99	5.4545	0.	53.176
21017	22.898	5.4545	5.e-002	4.0919
21018	22.898	5.7273	0.	37.583
21019	22.99	5.6364	0.	42.174
21020	22.898	5.6364	5.e-002	3.9443
21021	22.99	5.8182	0.	34.154
21022	22.898	5.8182	5.e-002	2.2341
21023	22.898	5.9091	0.	23.021
21024	23.082	0.27273	0.	38.271
21025	23.174	0.18182	0.	34.01
21026	23.082	0.18182	5.e-002	2.4424
21027	23.082	9.0909e-002	0.	23.004
21028	23.082	0.45455	0.	48.695
21029	23.174	0.36364	0.	43.853
21030	23.082	0.36364	5.e-002	3.9635
21031	23.082	0.63636	0.	60.515
21032	23.174	0.54545	0.	56.504
21033	23.082	0.54545	5.e-002	4.1068
21034	23.082	0.81818	0.	72.081
21035	23.174	0.72727	0.	69.047
21036	23.082	0.72727	5.e-002	4.1497
21037	23.082	1.	0.	82.948
21038	23.174	0.90909	0.	80.869
21039	23.082	0.90909	5.e-002	4.1821
21040	23.082	1.1818	0.	92.905
21041	23.174	1.0909	0.	91.705
21042	23.082	1.0909	5.e-002	4.2098
21043	23.082	1.3636	0.	101.87
21044	23.174	1.2727	0.	101.46
21045	23.082	1.2727	5.e-002	4.2334
21046	23.082	1.5455	0.	109.81
21047	23.174	1.4545	0.	110.13
21048	23.082	1.4545	5.e-002	4.2531
21049	23.082	1.7273	0.	116.74
21050	23.174	1.6364	0.	117.72
21051	23.082	1.6364	5.e-002	4.2695
21052	23.082	1.9091	0.	122.69
21053	23.174	1.8182	0.	124.27
21054	23.082	1.8182	5.e-002	4.283
21055	23.082	2.0909	0.	127.67
21056	23.174	2.	0.	129.82
21057	23.082	2.	5.e-002	4.294
21058	23.082	2.2727	0.	131.71
21059	23.174	2.1818	0.	134.39
21060	23.082	2.1818	5.e-002	4.3027
21061	23.082	2.4545	0.	134.83
21062	23.174	2.3636	0.	138.01
21063	23.082	2.3636	5.e-002	4.3093
21064	23.082	2.6364	0.	137.04
21065	23.174	2.5455	0.	140.71
21066	23.082	2.5455	5.e-002	4.3142
21067	23.082	2.8182	0.	138.37
21068	23.174	2.7273	0.	142.5
21069	23.082	2.7273	5.e-002	4.3173
21070	23.082	3.	0.	138.81
21071	23.174	2.9091	0.	143.4
21072	23.082	2.9091	5.e-002	4.3189
21073	23.082	3.1818	0.	138.37
21074	23.174	3.0909	0.	143.4
21075	23.082	3.0909	5.e-002	4.3189
21076	23.082	3.3636	0.	137.04
21077	23.174	3.2727	0.	142.5
21078	23.082	3.2727	5.e-002	4.3173
21079	23.082	3.5455	0.	134.83
21080	23.174	3.4545	0.	140.71
21081	23.082	3.4545	5.e-002	4.3142
21082	23.082	3.7273	0.	131.71
21083	23.174	3.6364	0.	138.01
21084	23.082	3.6364	5.e-002	4.3093
21085	23.082	3.9091	0.	127.67
21086	23.174	3.8182	0.	134.39
21087	23.082	3.8182	5.e-002	4.3026
21088	23.082	4.0909	0.	122.69
21089	23.174	4.	0.	129.82
21090	23.082	4.	5.e-002	4.294
21091	23.082	4.2727	0.	116.74
21092	23.174	4.1818	0.	124.27
21093	23.082	4.1818	5.e-002	4.283
21094	23.082	4.4545	0.	109.81
21095	23.174	4.3636	0.	117.72
21096	23.082	4.3636	5.e-002	4.2695
21097	23.082	4.6364	0.	101.87
21098	23.174	4.5455	0.	110.13
21099	23.082	4.5455	5.e-002	4.2531
21100	23.082	4.8182	0.	92.905
21101	23.174	4.7273	0.	101.46
21102	23.082	4.7273	5.e-002	4.2333
21103	23.082	5.	0.	82.948
21104	23.174	4.9091	0.	91.705
21105	23.082	4.9091	5.e-002	4.2098
21106	23.082	5.1818	0.	72.081
21107	23.174	5.0909	0.	80.869
21108	23.082	5.0909	5.e-002	4.1821
21109	23.082	5.3636	0.	60.515
21110	23.174	5.2727	0.	69.047
21111	23.082	5.2727	5.e-002	4.1497
21112	23.082	5.5455	0.	48.695
21113	23.174	5.4545	0.	56.504
21114	23.082	5.4545	5.e-002	4.1068
21115	23.082	5.7273	0.	38.271
21116	23.174	5.6364	0.	43.853
21117	23.082	5.6364	5.e-002	3.9635
21118	23.174	5.8182	0.	34.01
21119	23.082	5.8182	5.e-002	2.4423
21120	23.082	5.9091	0.	23.004
21121	23.265	0.27273	0.	39.05
21122	23.357	0.18182	0.	33.73
21123	23.265	0.18182	5.e-002	2.6763
21124	23.265	9.0909e-002	0.	22.873
21125	23.265	0.45455	0.	51.442
21126	23.357	0.36364	0.	46.01
21127	23.265	0.36364	5.e-002	3.9916
21128	23.265	0.63636	0.	64.909
21129	23.357	0.54545	0.	60.663
21130	23.265	0.54545	5.e-002	4.1337
21131	23.265	0.81818	0.	77.756
21132	23.357	0.72727	0.	74.705
21133	23.265	0.72727	5.e-002	4.1838
21134	23.265	1.	0.	89.573
21135	23.357	0.90909	0.	87.594
21136	23.265	0.90909	5.e-002	4.2209
21137	23.265	1.1818	0.	100.23
21138	23.357	1.0909	0.	99.182
21139	23.265	1.0909	5.e-002	4.2508
21140	23.265	1.3636	0.	109.7
21141	23.357	1.2727	0.	109.48
21142	23.265	1.2727	5.e-002	4.2751
21143	23.265	1.5455	0.	118.02
21144	23.357	1.4545	0.	118.53
21145	23.265	1.4545	5.e-002	4.2946
21146	23.265	1.7273	0.	125.23
21147	23.357	1.6364	0.	126.41
21148	23.265	1.6364	5.e-002	4.3104
21149	23.265	1.9091	0.	131.39
21150	23.357	1.8182	0.	133.18
21151	23.265	1.8182	5.e-002	4.3231
21152	23.265	2.0909	0.	136.53
21153	23.357	2.	0.	138.88
21154	23.265	2.	5.e-002	4.3331
21155	23.265	2.2727	0.	140.69
21156	23.357	2.1818	0.	143.57
21157	23.265	2.1818	5.e-002	4.3409
21158	23.265	2.4545	0.	143.89
21159	23.357	2.3636	0.	147.29
21160	23.265	2.3636	5.e-002	4.3469
21161	23.265	2.6364	0.	146.16
21162	23.357	2.5455	0.	150.05
21163	23.265	2.5455	5.e-002	4.3512
21164	23.265	2.8182	0.	147.52
21165	23.357	2.7273	0.	151.88
21166	23.265	2.7273	5.e-002	4.3539
21167	23.265	3.	0.	147.97
21168	23.357	2.9091	0.	152.79
21169	23.265	2.9091	5.e-002	4.3553
21170	23.265	3.1818	0.	147.52
21171	23.357	3.0909	0.	152.79
21172	23.265	3.0909	5.e-002	4.3553
21173	23.265	3.3636	0.	146.16
21174	23.357	3.2727	0.	151.88
21175	23.265	3.2727	5.e-002	4.3539
21176	23.265	3.5455	0.	143.89
21177	23.357	3.4545	0.	150.05
21178	23.265	3.4545	5.e-002	4.3512
21179	23.265	3.7273	0.	140.69
21180	23.357	3.6364	0.	147.29
21181	23.265	3.6364	5.e-002	4.3469
21182	23.265	3.9091	0.	136.53
21183	23.357	3.8182	0.	143.57
21184	23.265	3.8182	5.e-002	4.3409
21185	23.265	4.0909	0.	131.39
21186	23.357	4.	0.	138.88
21187	23.265	4.	5.e-002	4.3331
21188	23.265	4.2727	0.	125.23
21189	23.357	4.1818	0.	133.18
21190	23.265	4.1818	5.e-002	4.3231
21191	23.265	4.4545	0.	118.02
21192	23.357	4.3636	0.	126.41
21193	23.265	4.3636	5.e-002	4.3104
21194	23.265	4.6364	0.	109.7
21195	23.357	4.5455	0.	118.53
21196	23.265	4.5455	5.e-002	4.2946
21197	23.265	4.8182	0.	100.23
21198	23.357	4.7273	0.	109.48
21199	23.265	4.7273	5.e-002	4.275
21200	23.265	5.	0.	89.573
21201	23.357	4.9091	0.	99.182
21202	23.265	4.9091	5.e-002	4.2508
21203	23.265	5.1818	0.	77.756
21204	23.357	5.0909	0.	87.594
21205	23.265	5.0909	5.e-002	4.2208
21206	23.265	5.3636	0.	64.909
21207	23.357	5.2727	0.	74.705
21208	23.265	5.2727	5.e-002	4.1838
21209	23.265	5.5455	0.	51.442
21210	23.357	5.4545	0.	60.663
21211	23.265	5.4545	5.e-002	4.1336
21212	23.265	5.7273	0.	39.05
21213	23.357	5.6364	0.	46.01
21214	23.265	5.6364	5.e-002	3.9916
21215	23.357	5.8182	0.	33.73
21216	23.265	5.8182	5.e-002	2.6763
21217	23.265	5.9091	0.	22.873
21218	23.449	0.27273	0.	40.061
21219	23.541	0.18182	0.	33.39
21220	23.449	0.18182	5.e-002	2.9436
21221	23.449	9.0909e-002	0.	22.574
21222	23.449	0.45455	0.	55.004
21223	23.541	0.36364	0.	49.13
21224	23.449	0.36364	5.e-002	4.0392
21225	23.449	0.63636	0.	70.344
21226	23.541	0.54545	0.	66.11
21227	23.449	0.54545	5.e-002	4.1829
21228	23.449	0.81818	0.	84.476
21229	23.541	0.72727	0.	81.619
21230	23.449	0.72727	5.e-002	4.2388
21231	23.449	1.	0.	97.16
21232	23.541	0.90909	0.	95.441
21233	23.449	0.90909	5.e-002	4.2776
21234	23.449	1.1818	0.	108.4
21235	23.541	1.0909	0.	107.64
21236	23.449	1.0909	5.e-002	4.3067
21237	23.449	1.3636	0.	118.29
21238	23.541	1.2727	0.	118.35
21239	23.449	1.2727	5.e-002	4.329
21240	23.449	1.5455	0.	126.91
21241	23.541	1.4545	0.	127.69
21242	23.449	1.4545	5.e-002	4.3463
21243	23.449	1.7273	0.	134.34
21244	23.541	1.6364	0.	135.78
21245	23.449	1.6364	5.e-002	4.3597
21246	23.449	1.9091	0.	140.66
21247	23.541	1.8182	0.	142.7
21248	23.449	1.8182	5.e-002	4.3702
21249	23.449	2.0909	0.	145.92
21250	23.541	2.	0.	148.52
21251	23.449	2.	5.e-002	4.3784
21252	23.449	2.2727	0.	150.16
21253	23.541	2.1818	0.	153.3
21254	23.449	2.1818	5.e-002	4.3846
21255	23.449	2.4545	0.	153.43
21256	23.541	2.3636	0.	157.07
21257	23.449	2.3636	5.e-002	4.3893
21258	23.449	2.6364	0.	155.75
21259	23.541	2.5455	0.	159.87
21260	23.449	2.5455	5.e-002	4.3926
21261	23.449	2.8182	0.	157.13
21262	23.541	2.7273	0.	161.73
21263	23.449	2.7273	5.e-002	4.3948
21264	23.449	3.	0.	157.59
21265	23.541	2.9091	0.	162.65
21266	23.449	2.9091	5.e-002	4.3958
21267	23.449	3.1818	0.	157.13
21268	23.541	3.0909	0.	162.65
21269	23.449	3.0909	5.e-002	4.3958
21270	23.449	3.3636	0.	155.75
21271	23.541	3.2727	0.	161.73
21272	23.449	3.2727	5.e-002	4.3948
21273	23.449	3.5455	0.	153.43
21274	23.541	3.4545	0.	159.87
21275	23.449	3.4545	5.e-002	4.3926
21276	23.449	3.7273	0.	150.16
21277	23.541	3.6364	0.	157.07
21278	23.449	3.6364	5.e-002	4.3893
21279	23.449	3.9091	0.	145.92
21280	23.541	3.8182	0.	153.3
21281	23.449	3.8182	5.e-002	4.3846
21282	23.449	4.0909	0.	140.66
21283	23.541	4.	0.	148.52
21284	23.449	4.	5.e-002	4.3783
21285	23.449	4.2727	0.	134.34
21286	23.541	4.1818	0.	142.7
21287	23.449	4.1818	5.e-002	4.3702
21288	23.449	4.4545	0.	126.91
21289	23.541	4.3636	0.	135.78
21290	23.449	4.3636	5.e-002	4.3597
21291	23.449	4.6364	0.	118.29
21292	23.541	4.5455	0.	127.69
21293	23.449	4.5455	5.e-002	4.3463
21294	23.449	4.8182	0.	108.4
21295	23.541	4.7273	0.	118.35
21296	23.449	4.7273	5.e-002	4.329
21297	23.449	5.	0.	97.16
21298	23.541	4.9091	0.	107.64
21299	23.449	4.9091	5.e-002	4.3067
21300	23.449	5.1818	0.	84.476
21301	23.541	5.0909	0.	95.441
21302	23.449	5.0909	5.e-002	4.2776
21303	23.449	5.3636	0.	70.344
21304	23.541	5.2727	0.	81.619
21305	23.449	5.2727	5.e-002	4.2387
21306	23.449	5.5455	0.	55.004
21307	23.541	5.4545	0.	66.11
21308	23.449	5.4545	5.e-002	4.1829
21309	23.449	5.7273	0.	40.062
21310	23.541	5.6364	0.	49.13
21311	23.449	5.6364	5.e-002	4.0392
21312	23.541	5.8182	0.	33.39
21313	23.449	5.8182	5.e-002	2.9436
21314	23.449	5.9091	0.	22.574
21315	23.633	0.27273	0.	41.753
21316	23.725	0.18182	0.	33.704
21317	23.633	0.18182	5.e-002	3.2794
21318	23.633	9.0909e-002	0.	22.137
21319	23.633	0.45455	0.	60.034
21320	23.725	0.36364	0.	54.246
21321	23.633	0.36364	5.e-002	4.1469
21322	23.633	0.63636	0.	77.295
21323	23.725	0.54545	0.	73.44
21324	23.633	0.54545	5.e-002	4.2814
21325	23.633	0.81818	0.	92.534
21326	23.725	0.72727	0.	90.078
21327	23.633	0.72727	5.e-002	4.3331
21328	23.633	1.	0.	105.89
21329	23.725	0.90909	0.	104.53
21330	23.633	0.90909	5.e-002	4.364
21331	23.633	1.1818	0.	117.56
21332	23.725	1.0909	0.	117.11
21333	23.633	1.0909	5.e-002	4.3855
21334	23.633	1.3636	0.	127.73
21335	23.725	1.2727	0.	128.07
21336	23.633	1.2727	5.e-002	4.4008
21337	23.633	1.5455	0.	136.55
21338	23.725	1.4545	0.	137.57
21339	23.633	1.4545	5.e-002	4.412
21340	23.633	1.7273	0.	144.13
21341	23.725	1.6364	0.	145.77
21342	23.633	1.6364	5.e-002	4.4202
21343	23.633	1.9091	0.	150.55
21344	23.725	1.8182	0.	152.77
21345	23.633	1.8182	5.e-002	4.4264
21346	23.633	2.0909	0.	155.89
21347	23.725	2.	0.	158.65
21348	23.633	2.	5.e-002	4.431
21349	23.633	2.2727	0.	160.19
21350	23.725	2.1818	0.	163.47
21351	23.633	2.1818	5.e-002	4.4344
21352	23.633	2.4545	0.	163.5
21353	23.725	2.3636	0.	167.27
21354	23.633	2.3636	5.e-002	4.4369
21355	23.633	2.6364	0.	165.84
21356	23.725	2.5455	0.	170.09
21357	23.633	2.5455	5.e-002	4.4387
21358	23.633	2.8182	0.	167.24
21359	23.725	2.7273	0.	171.96
21360	23.633	2.7273	5.e-002	4.4397
21361	23.633	3.	0.	167.71
21362	23.725	2.9091	0.	172.89
21363	23.633	2.9091	5.e-002	4.4403
21364	23.633	3.1818	0.	167.24
21365	23.725	3.0909	0.	172.89
21366	23.633	3.0909	5.e-002	4.4403
21367	23.633	3.3636	0.	165.84
21368	23.725	3.2727	0.	171.96
21369	23.633	3.2727	5.e-002	4.4397
21370	23.633	3.5455	0.	163.5
21371	23.725	3.4545	0.	170.09
21372	23.633	3.4545	5.e-002	4.4387
21373	23.633	3.7273	0.	160.19
21374	23.725	3.6364	0.	167.27
21375	23.633	3.6364	5.e-002	4.4369
21376	23.633	3.9091	0.	155.89
21377	23.725	3.8182	0.	163.47
21378	23.633	3.8182	5.e-002	4.4344
21379	23.633	4.0909	0.	150.55
21380	23.725	4.	0.	158.65
21381	23.633	4.	5.e-002	4.431
21382	23.633	4.2727	0.	144.13
21383	23.725	4.1818	0.	152.77
21384	23.633	4.1818	5.e-002	4.4264
21385	23.633	4.4545	0.	136.55
21386	23.725	4.3636	0.	145.77
21387	23.633	4.3636	5.e-002	4.4202
21388	23.633	4.6364	0.	127.73
21389	23.725	4.5455	0.	137.57
21390	23.633	4.5455	5.e-002	4.412
21391	23.633	4.8182	0.	117.56
21392	23.725	4.7273	0.	128.07
21393	23.633	4.7273	5.e-002	4.4008
21394	23.633	5.	0.	105.89
21395	23.725	4.9091	0.	117.11
21396	23.633	4.9091	5.e-002	4.3855
21397	23.633	5.1818	0.	92.534
21398	23.725	5.0909	0.	104.53
21399	23.633	5.0909	5.e-002	4.364
21400	23.633	5.3636	0.	77.296
21401	23.725	5.2727	0.	90.079
21402	23.633	5.2727	5.e-002	4.3331
21403	23.633	5.5455	0.	60.034
21404	23.725	5.4545	0.	73.441
21405	23.633	5.4545	5.e-002	4.2814
21406	23.633	5.7273	0.	41.753
21407	23.725	5.6364	0.	54.246
21408	23.633	5.6364	5.e-002	4.1469
21409	23.725	5.8182	0.	33.704
21410	23.633	5.8182	5.e-002	3.2794
21411	23.633	5.9091	0.	22.137
21412	23.816	0.27273	0.	45.548
21413	23.816	0.18182	5.e-002	3.998
21414	23.816	9.0909e-002	0.	21.461
21415	23.908	0.18182	0.	34.942
21416	23.816	0.45455	0.	67.507
21417	23.816	0.36364	5.e-002	4.5289
21418	23.908	0.36364	0.	60.474
21419	23.816	0.63636	0.	86.159
21420	23.816	0.54545	5.e-002	4.5826
21421	23.908	0.54545	0.	81.233
21422	23.816	0.81818	0.	102.04
21423	23.816	0.72727	5.e-002	4.5857
21424	23.908	0.72727	0.	98.627
21425	23.816	1.	0.	115.73
21426	23.816	0.90909	5.e-002	4.5812
21427	23.908	0.90909	0.	113.52
21428	23.816	1.1818	0.	127.6
21429	23.816	1.0909	5.e-002	4.5721
21430	23.908	1.0909	0.	126.39
21431	23.816	1.3636	0.	137.89
21432	23.816	1.2727	5.e-002	4.5612
21433	23.908	1.2727	0.	137.56
21434	23.816	1.5455	0.	146.78
21435	23.816	1.4545	5.e-002	4.5496
21436	23.908	1.4545	0.	147.23
21437	23.816	1.7273	0.	154.41
21438	23.816	1.6364	5.e-002	4.5383
21439	23.908	1.6364	0.	155.55
21440	23.816	1.9091	0.	160.86
21441	23.816	1.8182	5.e-002	4.5278
21442	23.908	1.8182	0.	162.65
21443	23.816	2.0909	0.	166.22
21444	23.816	2.	5.e-002	4.5183
21445	23.908	2.	0.	168.61
21446	23.816	2.2727	0.	170.53
21447	23.816	2.1818	5.e-002	4.5101
21448	23.908	2.1818	0.	173.49
21449	23.816	2.4545	0.	173.85
21450	23.816	2.3636	5.e-002	4.5035
21451	23.908	2.3636	0.	177.34
21452	23.816	2.6364	0.	176.2
21453	23.816	2.5455	5.e-002	4.4984
21454	23.908	2.5455	0.	180.2
21455	23.816	2.8182	0.	177.6
21456	23.816	2.7273	5.e-002	4.4949
21457	23.908	2.7273	0.	182.09
21458	23.816	3.	0.	178.07
21459	23.816	2.9091	5.e-002	4.4932
21460	23.908	2.9091	0.	183.03
21461	23.816	3.1818	0.	177.6
21462	23.816	3.0909	5.e-002	4.4932
21463	23.908	3.0909	0.	183.03
21464	23.816	3.3636	0.	176.2
21465	23.816	3.2727	5.e-002	4.4949
21466	23.908	3.2727	0.	182.09
21467	23.816	3.5455	0.	173.85
21468	23.816	3.4545	5.e-002	4.4984
21469	23.908	3.4545	0.	180.2
21470	23.816	3.7273	0.	170.53
21471	23.816	3.6364	5.e-002	4.5035
21472	23.908	3.6364	0.	177.34
21473	23.816	3.9091	0.	166.22
21474	23.816	3.8182	5.e-002	4.5101
21475	23.908	3.8182	0.	173.49
21476	23.816	4.0909	0.	160.86
21477	23.816	4.	5.e-002	4.5183
21478	23.908	4.	0.	168.61
21479	23.816	4.2727	0.	154.41
21480	23.816	4.1818	5.e-002	4.5278
21481	23.908	4.1818	0.	162.65
21482	23.816	4.4545	0.	146.78
21483	23.816	4.3636	5.e-002	4.5383
21484	23.908	4.3636	0.	155.55
21485	23.816	4.6364	0.	137.89
21486	23.816	4.5455	5.e-002	4.5496
21487	23.908	4.5455	0.	147.23
21488	23.816	4.8182	0.	127.6
21489	23.816	4.7273	5.e-002	4.5612
21490	23.908	4.7273	0.	137.56
21491	23.816	5.	0.	115.73
21492	23.816	4.9091	5.e-002	4.5721
21493	23.908	4.9091	0.	126.39
21494	23.816	5.1818	0.	102.04
21495	23.816	5.0909	5.e-002	4.5812
21496	23.908	5.0909	0.	113.52
21497	23.816	5.3636	0.	86.159
21498	23.816	5.2727	5.e-002	4.5857
21499	23.908	5.2727	0.	98.627
21500	23.816	5.5455	0.	67.508
21501	23.816	5.4545	5.e-002	4.5826
21502	23.908	5.4545	0.	81.233
21503	23.816	5.7273	0.	45.548
21504	23.816	5.6364	5.e-002	4.5289
21505	23.908	5.6364	0.	60.474
21506	23.816	5.8182	5.e-002	3.998
21507	23.908	5.8182	0.	34.942
21508	23.816	5.9091	0.	21.461
21509	23.816	5.7273	0.1	37.167
21510	23.725	5.8182	0.1	54.745
21511	23.816	5.9091	0.1	34.41
21512	23.908	5.8182	0.1	20.481
21513	23.816	5.5455	0.1	38.334
21514	23.725	5.6364	0.1	55.286
21515	23.908	5.6364	0.1	21.419
21516	23.816	5.3636	0.1	39.046
21517	23.725	5.4545	0.1	56.489
21518	23.908	5.4545	0.1	21.944
21519	23.816	5.1818	0.1	39.446
21520	23.725	5.2727	0.1	57.367
21521	23.908	5.2727	0.1	22.24
21522	23.816	5.	0.1	39.652
21523	23.725	5.0909	0.1	57.939
21524	23.908	5.0909	0.1	22.379
21525	23.816	4.8182	0.1	39.751
21526	23.725	4.9091	0.1	58.316
21527	23.908	4.9091	0.1	22.441
21528	23.816	4.6364	0.1	39.786
21529	23.725	4.7273	0.1	58.565
21530	23.908	4.7273	0.1	22.458
21531	23.816	4.4545	0.1	39.785
21532	23.725	4.5455	0.1	58.73
21533	23.908	4.5455	0.1	22.449
21534	23.816	4.2727	0.1	39.764
21535	23.725	4.3636	0.1	58.837
21536	23.908	4.3636	0.1	22.427
21537	23.816	4.0909	0.1	39.733
21538	23.725	4.1818	0.1	58.906
21539	23.908	4.1818	0.1	22.398
21540	23.816	3.9091	0.1	39.698
21541	23.725	4.	0.1	58.949
21542	23.908	4.	0.1	22.368
21543	23.816	3.7273	0.1	39.665
21544	23.725	3.8182	0.1	58.975
21545	23.908	3.8182	0.1	22.34
21546	23.816	3.5455	0.1	39.637
21547	23.725	3.6364	0.1	58.99
21548	23.908	3.6364	0.1	22.315
21549	23.816	3.3636	0.1	39.616
21550	23.725	3.4545	0.1	58.998
21551	23.908	3.4545	0.1	22.295
21552	23.816	3.1818	0.1	39.602
21553	23.725	3.2727	0.1	59.001
21554	23.908	3.2727	0.1	22.282
21555	23.816	3.	0.1	39.598
21556	23.725	3.0909	0.1	59.003
21557	23.908	3.0909	0.1	22.275
21558	23.816	2.8182	0.1	39.602
21559	23.725	2.9091	0.1	59.003
21560	23.908	2.9091	0.1	22.275
21561	23.816	2.6364	0.1	39.616
21562	23.725	2.7273	0.1	59.001
21563	23.908	2.7273	0.1	22.282
21564	23.816	2.4545	0.1	39.637
21565	23.725	2.5455	0.1	58.998
21566	23.908	2.5455	0.1	22.295
21567	23.816	2.2727	0.1	39.665
21568	23.725	2.3636	0.1	58.99
21569	23.908	2.3636	0.1	22.315
21570	23.816	2.0909	0.1	39.698
21571	23.725	2.1818	0.1	58.975
21572	23.908	2.1818	0.1	22.34
21573	23.816	1.9091	0.1	39.733
21574	23.725	2.	0.1	58.949
21575	23.908	2.	0.1	22.368
21576	23.816	1.7273	0.1	39.764
21577	23.725	1.8182	0.1	58.906
21578	23.908	1.8182	0.1	22.398
21579	23.816	1.5455	0.1	39.785
21580	23.725	1.6364	0.1	58.837
21581	23.908	1.6364	0.1	22.427
21582	23.816	1.3636	0.1	39.786
21583	23.725	1.4545	0.1	58.73
21584	23.908	1.4545	0.1	22.449
21585	23.816	1.1818	0.1	39.751
21586	23.725	1.2727	0.1	58.565
21587	23.908	1.2727	0.1	22.458
21588	23.816	1.	0.1	39.652
21589	23.725	1.0909	0.1	58.316
21590	23.908	1.0909	0.1	22.441
21591	23.816	0.81818	0.1	39.446
21592	23.725	0.90909	0.1	57.939
21593	23.908	0.90909	0.1	22.379
21594	23.816	0.63636	0.1	39.046
21595	23.725	0.72727	0.1	57.367
21596	23.908	0.72727	0.1	22.24
21597	23.816	0.45455	0.1	38.334
21598	23.725	0.54545	0.1	56.489
21599	23.908	0.54545	0.1	21.944
21600	23.816	0.27273	0.1	37.167
21601	23.725	0.36364	0.1	55.286
21602	23.908	0.36364	0.1	21.419
21603	23.725	0.18182	0.1	54.745
21604	23.908	0.18182	0.1	20.481
21605	23.816	9.0909e-002	0.1	34.41
21606	23.633	5.7273	0.1	72.248
21607	23.541	5.8182	0.1	91.435
21608	23.633	5.9091	0.1	68.92
21609	23.633	5.5455	0.1	73.358
21610	23.541	5.6364	0.1	90.954
21611	23.633	5.3636	0.1	74.807
21612	23.541	5.4545	0.1	92.44
21613	23.633	5.1818	0.1	75.887
21614	23.541	5.2727	0.1	93.816
21615	23.633	5.	0.1	76.646
21616	23.541	5.0909	0.1	94.878
21617	23.633	4.8182	0.1	77.184
21618	23.541	4.9091	0.1	95.678
21619	23.633	4.6364	0.1	77.569
21620	23.541	4.7273	0.1	96.279
21621	23.633	4.4545	0.1	77.847
21622	23.541	4.5455	0.1	96.732
21623	23.633	4.2727	0.1	78.048
21624	23.541	4.3636	0.1	97.074
21625	23.633	4.0909	0.1	78.194
21626	23.541	4.1818	0.1	97.332
21627	23.633	3.9091	0.1	78.3
21628	23.541	4.	0.1	97.527
21629	23.633	3.7273	0.1	78.376
21630	23.541	3.8182	0.1	97.673
21631	23.633	3.5455	0.1	78.428
21632	23.541	3.6364	0.1	97.779
21633	23.633	3.3636	0.1	78.462
21634	23.541	3.4545	0.1	97.854
21635	23.633	3.1818	0.1	78.482
21636	23.541	3.2727	0.1	97.901
21637	23.633	3.	0.1	78.488
21638	23.541	3.0909	0.1	97.923
21639	23.633	2.8182	0.1	78.482
21640	23.541	2.9091	0.1	97.923
21641	23.633	2.6364	0.1	78.462
21642	23.541	2.7273	0.1	97.901
21643	23.633	2.4545	0.1	78.428
21644	23.541	2.5455	0.1	97.854
21645	23.633	2.2727	0.1	78.376
21646	23.541	2.3636	0.1	97.779
21647	23.633	2.0909	0.1	78.3
21648	23.541	2.1818	0.1	97.673
21649	23.633	1.9091	0.1	78.194
21650	23.541	2.	0.1	97.527
21651	23.633	1.7273	0.1	78.048
21652	23.541	1.8182	0.1	97.332
21653	23.633	1.5455	0.1	77.847
21654	23.541	1.6364	0.1	97.074
21655	23.633	1.3636	0.1	77.569
21656	23.541	1.4545	0.1	96.732
21657	23.633	1.1818	0.1	77.184
21658	23.541	1.2727	0.1	96.279
21659	23.633	1.	0.1	76.646
21660	23.541	1.0909	0.1	95.678
21661	23.633	0.81818	0.1	75.887
21662	23.541	0.90909	0.1	94.878
21663	23.633	0.63636	0.1	74.807
21664	23.541	0.72727	0.1	93.816
21665	23.633	0.45455	0.1	73.358
21666	23.541	0.54545	0.1	92.44
21667	23.633	0.27273	0.1	72.248
21668	23.541	0.36364	0.1	90.954
21669	23.541	0.18182	0.1	91.435
21670	23.633	9.0909e-002	0.1	68.92
21671	23.449	5.7273	0.1	109.43
21672	23.357	5.8182	0.1	129.49
21673	23.449	5.9091	0.1	105.48
21674	23.449	5.5455	0.1	109.85
21675	23.357	5.6364	0.1	128.05
21676	23.449	5.3636	0.1	111.38
21677	23.357	5.4545	0.1	129.29
21678	23.449	5.1818	0.1	112.77
21679	23.357	5.2727	0.1	130.76
21680	23.449	5.	0.1	113.89
21681	23.357	5.0909	0.1	132.07
21682	23.449	4.8182	0.1	114.77
21683	23.357	4.9091	0.1	133.15
21684	23.449	4.6364	0.1	115.44
21685	23.357	4.7273	0.1	134.01
21686	23.449	4.4545	0.1	115.96
21687	23.357	4.5455	0.1	134.7
21688	23.449	4.2727	0.1	116.36
21689	23.357	4.3636	0.1	135.24
21690	23.449	4.0909	0.1	116.67
21691	23.357	4.1818	0.1	135.67
21692	23.449	3.9091	0.1	116.91
21693	23.357	4.	0.1	136.01
21694	23.449	3.7273	0.1	117.08
21695	23.357	3.8182	0.1	136.26
21696	23.449	3.5455	0.1	117.21
21697	23.357	3.6364	0.1	136.46
21698	23.449	3.3636	0.1	117.3
21699	23.357	3.4545	0.1	136.59
21700	23.449	3.1818	0.1	117.35
21701	23.357	3.2727	0.1	136.68
21702	23.449	3.	0.1	117.37
21703	23.357	3.0909	0.1	136.72
21704	23.449	2.8182	0.1	117.35
21705	23.357	2.9091	0.1	136.72
21706	23.449	2.6364	0.1	117.3
21707	23.357	2.7273	0.1	136.68
21708	23.449	2.4545	0.1	117.21
21709	23.357	2.5455	0.1	136.59
21710	23.449	2.2727	0.1	117.08
21711	23.357	2.3636	0.1	136.46
21712	23.449	2.0909	0.1	116.91
21713	23.357	2.1818	0.1	136.26
21714	23.449	1.9091	0.1	116.67
21715	23.357	2.	0.1	136.01
21716	23.449	1.7273	0.1	116.36
21717	23.357	1.8182	0.1	135.67
21718	23.449	1.5455	0.1	115.96
21719	23.357	1.6364	0.1	135.24
21720	23.449	1.3636	0.1	115.44
21721	23.357	1.4545	0.1	134.7
21722	23.449	1.1818	0.1	114.77
21723	23.357	1.2727	0.1	134.01
21724	23.449	1.	0.1	113.89
21725	23.357	1.0909	0.1	133.15
21726	23.449	0.81818	0.1	112.77
21727	23.357	0.90909	0.1	132.07
21728	23.449	0.63636	0.1	111.38
21729	23.357	0.72727	0.1	130.76
21730	23.449	0.45455	0.1	109.85
21731	23.357	0.54545	0.1	129.29
21732	23.449	0.27273	0.1	109.43
21733	23.357	0.36364	0.1	128.05
21734	23.357	0.18182	0.1	129.49
21735	23.449	9.0909e-002	0.1	105.48
21736	23.265	5.7273	0.1	147.47
21737	23.174	5.8182	0.1	168.08
21738	23.265	5.9091	0.1	142.95
21739	23.265	5.5455	0.1	147.26
21740	23.174	5.6364	0.1	165.95
21741	23.265	5.3636	0.1	148.57
21742	23.174	5.4545	0.1	166.83
21743	23.265	5.1818	0.1	150.
21744	23.174	5.2727	0.1	168.18
21745	23.265	5.	0.1	151.29
21746	23.174	5.0909	0.1	169.53
21747	23.265	4.8182	0.1	152.37
21748	23.174	4.9091	0.1	170.74
21749	23.265	4.6364	0.1	153.26
21750	23.174	4.7273	0.1	171.77
21751	23.265	4.4545	0.1	153.97
21752	23.174	4.5455	0.1	172.63
21753	23.265	4.2727	0.1	154.55
21754	23.174	4.3636	0.1	173.34
21755	23.265	4.0909	0.1	155.
21756	23.174	4.1818	0.1	173.91
21757	23.265	3.9091	0.1	155.36
21758	23.174	4.	0.1	174.36
21759	23.265	3.7273	0.1	155.63
21760	23.174	3.8182	0.1	174.72
21761	23.265	3.5455	0.1	155.83
21762	23.174	3.6364	0.1	174.99
21763	23.265	3.3636	0.1	155.97
21764	23.174	3.4545	0.1	175.19
21765	23.265	3.1818	0.1	156.05
21766	23.174	3.2727	0.1	175.31
21767	23.265	3.	0.1	156.08
21768	23.174	3.0909	0.1	175.38
21769	23.265	2.8182	0.1	156.05
21770	23.174	2.9091	0.1	175.38
21771	23.265	2.6364	0.1	155.97
21772	23.174	2.7273	0.1	175.31
21773	23.265	2.4545	0.1	155.83
21774	23.174	2.5455	0.1	175.19
21775	23.265	2.2727	0.1	155.63
21776	23.174	2.3636	0.1	174.99
21777	23.265	2.0909	0.1	155.36
21778	23.174	2.1818	0.1	174.72
21779	23.265	1.9091	0.1	155.
21780	23.174	2.	0.1	174.36
21781	23.265	1.7273	0.1	154.55
21782	23.174	1.8182	0.1	173.91
21783	23.265	1.5455	0.1	153.97
21784	23.174	1.6364	0.1	173.34
21785	23.265	1.3636	0.1	153.26
21786	23.174	1.4545	0.1	172.63
21787	23.265	1.1818	0.1	152.37
21788	23.174	1.2727	0.1	171.77
21789	23.265	1.	0.1	151.29
21790	23.174	1.0909	0.1	170.74
21791	23.265	0.81818	0.1	150.
21792	23.174	0.90909	0.1	169.53
21793	23.265	0.63636	0.1	148.57
21794	23.174	0.72727	0.1	168.18
21795	23.265	0.45455	0.1	147.26
21796	23.174	0.54545	0.1	166.83
21797	23.265	0.27273	0.1	147.47
21798	23.174	0.36364	0.1	165.95
21799	23.174	0.18182	0.1	168.08
21800	23.265	9.0909e-002	0.1	142.95
21801	23.082	5.7273	0.1	186.01
21802	22.99	5.8182	0.1	206.99
21803	23.082	5.9091	0.1	181.03
21804	23.082	5.5455	0.1	185.31
21805	22.99	5.6364	0.1	204.38
21806	23.082	5.3636	0.1	186.32
21807	22.99	5.4545	0.1	204.92
21808	23.082	5.1818	0.1	187.64
21809	22.99	5.2727	0.1	206.06
21810	23.082	5.	0.1	188.94
21811	22.99	5.0909	0.1	207.32
21812	23.082	4.8182	0.1	190.11
21813	22.99	4.9091	0.1	208.55
21814	23.082	4.6364	0.1	191.13
21815	22.99	4.7273	0.1	209.66
21816	23.082	4.4545	0.1	191.98
21817	22.99	4.5455	0.1	210.62
21818	23.082	4.2727	0.1	192.68
21819	22.99	4.3636	0.1	211.43
21820	23.082	4.0909	0.1	193.26
21821	22.99	4.1818	0.1	212.11
21822	23.082	3.9091	0.1	193.71
21823	22.99	4.	0.1	212.66
21824	23.082	3.7273	0.1	194.07
21825	22.99	3.8182	0.1	213.1
21826	23.082	3.5455	0.1	194.34
21827	22.99	3.6364	0.1	213.43
21828	23.082	3.3636	0.1	194.52
21829	22.99	3.4545	0.1	213.68
21830	23.082	3.1818	0.1	194.63
21831	22.99	3.2727	0.1	213.84
21832	23.082	3.	0.1	194.67
21833	22.99	3.0909	0.1	213.92
21834	23.082	2.8182	0.1	194.63
21835	22.99	2.9091	0.1	213.92
21836	23.082	2.6364	0.1	194.52
21837	22.99	2.7273	0.1	213.84
21838	23.082	2.4545	0.1	194.34
21839	22.99	2.5455	0.1	213.68
21840	23.082	2.2727	0.1	194.07
21841	22.99	2.3636	0.1	213.43
21842	23.082	2.0909	0.1	193.71
21843	22.99	2.1818	0.1	213.1
21844	23.082	1.9091	0.1	193.26
21845	22.99	2.	0.1	212.66
21846	23.082	1.7273	0.1	192.68
21847	22.99	1.8182	0.1	212.11
21848	23.082	1.5455	0.1	191.98
21849	22.99	1.6364	0.1	211.43
21850	23.082	1.3636	0.1	191.13
21851	22.99	1.4545	0.1	210.62
21852	23.082	1.1818	0.1	190.11
21853	22.99	1.2727	0.1	209.66
21854	23.082	1.	0.1	188.94
21855	22.99	1.0909	0.1	208.55
21856	23.082	0.81818	0.1	187.64
21857	22.99	0.90909	0.1	207.32
21858	23.082	0.63636	0.1	186.32
21859	22.99	0.72727	0.1	206.06
21860	23.082	0.45455	0.1	185.31
21861	22.99	0.54545	0.1	204.92
21862	23.082	0.27273	0.1	186.01
21863	22.99	0.36364	0.1	204.38
21864	22.99	0.18182	0.1	206.99
21865	23.082	9.0909e-002	0.1	181.03
21866	22.898	5.7273	0.1	224.88
21867	22.806	5.8182	0.1	246.14
21868	22.898	5.9091	0.1	219.53
21869	22.898	5.5455	0.1	223.8
21870	22.806	5.6364	0.1	243.17
21871	22.898	5.3636	0.1	224.53
21872	22.806	5.4545	0.1	243.42
21873	22.898	5.1818	0.1	225.66
21874	22.806	5.2727	0.1	244.32
21875	22.898	5.	0.1	226.88
21876	22.806	5.0909	0.1	245.44
21877	22.898	4.8182	0.1	228.05
21878	22.806	4.9091	0.1	246.6
21879	22.898	4.6364	0.1	229.11
21880	22.806	4.7273	0.1	247.71
21881	22.898	4.4545	0.1	230.04
21882	22.806	4.5455	0.1	248.71
21883	22.898	4.2727	0.1	230.83
21884	22.806	4.3636	0.1	249.58
21885	22.898	4.0909	0.1	231.49
21886	22.806	4.1818	0.1	250.32
21887	22.898	3.9091	0.1	232.02
21888	22.806	4.	0.1	250.94
21889	22.898	3.7273	0.1	232.45
21890	22.806	3.8182	0.1	251.44
21891	22.898	3.5455	0.1	232.77
21892	22.806	3.6364	0.1	251.83
21893	22.898	3.3636	0.1	232.99
21894	22.806	3.4545	0.1	252.11
21895	22.898	3.1818	0.1	233.12
21896	22.806	3.2727	0.1	252.3
21897	22.898	3.	0.1	233.16
21898	22.806	3.0909	0.1	252.39
21899	22.898	2.8182	0.1	233.12
21900	22.806	2.9091	0.1	252.39
21901	22.898	2.6364	0.1	232.99
21902	22.806	2.7273	0.1	252.3
21903	22.898	2.4545	0.1	232.77
21904	22.806	2.5455	0.1	252.11
21905	22.898	2.2727	0.1	232.45
21906	22.806	2.3636	0.1	251.83
21907	22.898	2.0909	0.1	232.02
21908	22.806	2.1818	0.1	251.44
21909	22.898	1.9091	0.1	231.49
21910	22.806	2.	0.1	250.94
21911	22.898	1.7273	0.1	230.83
21912	22.806	1.8182	0.1	250.32
21913	22.898	1.5455	0.1	230.04
21914	22.806	1.6364	0.1	249.58
21915	22.898	1.3636	0.1	229.11
21916	22.806	1.4545	0.1	248.71
21917	22.898	1.1818	0.1	228.05
21918	22.806	1.2727	0.1	247.71
21919	22.898	1.	0.1	226.88
21920	22.806	1.0909	0.1	246.6
21921	22.898	0.81818	0.1	225.66
21922	22.806	0.90909	0.1	245.44
21923	22.898	0.63636	0.1	224.53
21924	22.806	0.72727	0.1	244.32
21925	22.898	0.45455	0.1	223.8
21926	22.806	0.54545	0.1	243.42
21927	22.898	0.27273	0.1	224.88
21928	22.806	0.36364	0.1	243.17
21929	22.806	0.18182	0.1	246.14
21930	22.898	9.0909e-002	0.1	219.53
21931	22.715	5.7273	0.1	264.
21932	22.623	5.8182	0.1	285.47
21933	22.715	5.9091	0.1	258.35
21934	22.715	5.5455	0.1	262.62
21935	22.623	5.6364	0.1	282.24
21936	22.715	5.3636	0.1	263.09
21937	22.623	5.4545	0.1	282.24
21938	22.715	5.1818	0.1	264.01
21939	22.623	5.2727	0.1	282.91
21940	22.715	5.	0.1	265.1
21941	22.623	5.0909	0.1	283.85
21942	22.715	4.8182	0.1	266.21
21943	22.623	4.9091	0.1	284.91
21944	22.715	4.6364	0.1	267.26
21945	22.623	4.7273	0.1	285.95
21946	22.715	4.4545	0.1	268.21
21947	22.623	4.5455	0.1	286.94
21948	22.715	4.2727	0.1	269.04
21949	22.623	4.3636	0.1	287.83
21950	22.715	4.0909	0.1	269.75
21951	22.623	4.1818	0.1	288.6
21952	22.715	3.9091	0.1	270.34
21953	22.623	4.	0.1	289.26
21954	22.715	3.7273	0.1	270.81
21955	22.623	3.8182	0.1	289.79
21956	22.715	3.5455	0.1	271.16
21957	22.623	3.6364	0.1	290.22
21958	22.715	3.3636	0.1	271.41
21959	22.623	3.4545	0.1	290.53
21960	22.715	3.1818	0.1	271.56
21961	22.623	3.2727	0.1	290.74
21962	22.715	3.	0.1	271.61
21963	22.623	3.0909	0.1	290.84
21964	22.715	2.8182	0.1	271.56
21965	22.623	2.9091	0.1	290.84
21966	22.715	2.6364	0.1	271.41
21967	22.623	2.7273	0.1	290.74
21968	22.715	2.4545	0.1	271.16
21969	22.623	2.5455	0.1	290.53
21970	22.715	2.2727	0.1	270.81
21971	22.623	2.3636	0.1	290.22
21972	22.715	2.0909	0.1	270.34
21973	22.623	2.1818	0.1	289.79
21974	22.715	1.9091	0.1	269.75
21975	22.623	2.	0.1	289.26
21976	22.715	1.7273	0.1	269.04
21977	22.623	1.8182	0.1	288.6
21978	22.715	1.5455	0.1	268.21
21979	22.623	1.6364	0.1	287.83
21980	22.715	1.3636	0.1	267.26
21981	22.623	1.4545	0.1	286.94
21982	22.715	1.1818	0.1	266.21
21983	22.623	1.2727	0.1	285.96
21984	22.715	1.	0.1	265.1
21985	22.623	1.0909	0.1	284.91
21986	22.715	0.81818	0.1	264.01
21987	22.623	0.90909	0.1	283.85
21988	22.715	0.63636	0.1	263.09
21989	22.623	0.72727	0.1	282.91
21990	22.715	0.45455	0.1	262.62
21991	22.623	0.54545	0.1	282.24
21992	22.715	0.27273	0.1	264.
21993	22.623	0.36364	0.1	282.24
21994	22.623	0.18182	0.1	285.47
21995	22.715	9.0909e-002	0.1	258.35
21996	22.531	5.7273	0.1	303.32
21997	22.439	5.8182	0.1	324.96
21998	22.531	5.9091	0.1	297.45
21999	22.531	5.5455	0.1	301.7
22000	22.439	5.6364	0.1	321.51
22001	22.531	5.3636	0.1	301.94
22002	22.439	5.4545	0.1	321.31
22003	22.531	5.1818	0.1	302.66
22004	22.439	5.2727	0.1	321.77
22005	22.531	5.	0.1	303.59
22006	22.439	5.0909	0.1	322.54
22007	22.531	4.8182	0.1	304.6
22008	22.439	4.9091	0.1	323.45
22009	22.531	4.6364	0.1	305.59
22010	22.439	4.7273	0.1	324.41
22011	22.531	4.4545	0.1	306.52
22012	22.439	4.5455	0.1	325.34
22013	22.531	4.2727	0.1	307.36
22014	22.439	4.3636	0.1	326.21
22015	22.531	4.0909	0.1	308.08
22016	22.439	4.1818	0.1	326.98
22017	22.531	3.9091	0.1	308.69
22018	22.439	4.	0.1	327.65
22019	22.531	3.7273	0.1	309.19
22020	22.439	3.8182	0.1	328.2
22021	22.531	3.5455	0.1	309.57
22022	22.439	3.6364	0.1	328.64
22023	22.531	3.3636	0.1	309.84
22024	22.439	3.4545	0.1	328.97
22025	22.531	3.1818	0.1	310.
22026	22.439	3.2727	0.1	329.19
22027	22.531	3.	0.1	310.05
22028	22.439	3.0909	0.1	329.3
22029	22.531	2.8182	0.1	310.
22030	22.439	2.9091	0.1	329.3
22031	22.531	2.6364	0.1	309.84
22032	22.439	2.7273	0.1	329.19
22033	22.531	2.4545	0.1	309.57
22034	22.439	2.5455	0.1	328.97
22035	22.531	2.2727	0.1	309.19
22036	22.439	2.3636	0.1	328.64
22037	22.531	2.0909	0.1	308.69
22038	22.439	2.1818	0.1	328.2
22039	22.531	1.9091	0.1	308.08
22040	22.439	2.	0.1	327.65
22041	22.531	1.7273	0.1	307.36
22042	22.439	1.8182	0.1	326.98
22043	22.531	1.5455	0.1	306.52
22044	22.439	1.6364	0.1	326.21
22045	22.531	1.3636	0.1	305.59
22046	22.439	1.4545	0.1	325.34
22047	22.531	1.1818	0.1	304.6
22048	22.439	1.2727	0.1	324.41
22049	22.531	1.	0.1	303.59
22050	22.439	1.0909	0.1	323.45
22051	22.531	0.81818	0.1	302.66
22052	22.439	0.90909	0.1	322.54
22053	22.531	0.63636	0.1	301.94
22054	22.439	0.72727	0.1	321.77
22055	22.531	0.45455	0.1	301.7
22056	22.439	0.54545	0.1	321.31
22057	22.531	0.27273	0.1	303.32
22058	22.439	0.36364	0.1	321.52
22059	22.439	0.18182	0.1	324.96
22060	22.531	9.0909e-002	0.1	297.45
22061	22.347	5.7273	0.1	342.8
22062	22.256	5.8182	0.1	364.59
22063	22.347	5.9091	0.1	336.76
22064	22.347	5.5455	0.1	340.99
22065	22.256	5.6364	0.1	360.97
22066	22.347	5.3636	0.1	341.03
22067	22.256	5.4545	0.1	360.6
22068	22.347	5.1818	0.1	341.56
22069	22.256	5.2727	0.1	360.87
22070	22.347	5.	0.1	342.33
22071	22.256	5.0909	0.1	361.46
22072	22.347	4.8182	0.1	343.21
22073	22.256	4.9091	0.1	362.23
22074	22.347	4.6364	0.1	344.12
22075	22.256	4.7273	0.1	363.07
22076	22.347	4.4545	0.1	344.99
22077	22.256	4.5455	0.1	363.93
22078	22.347	4.2727	0.1	345.8
22079	22.256	4.3636	0.1	364.74
22080	22.347	4.0909	0.1	346.52
22081	22.256	4.1818	0.1	365.49
22082	22.347	3.9091	0.1	347.13
22083	22.256	4.	0.1	366.14
22084	22.347	3.7273	0.1	347.63
22085	22.256	3.8182	0.1	366.69
22086	22.347	3.5455	0.1	348.02
22087	22.256	3.6364	0.1	367.14
22088	22.347	3.3636	0.1	348.3
22089	22.256	3.4545	0.1	367.47
22090	22.347	3.1818	0.1	348.47
22091	22.256	3.2727	0.1	367.69
22092	22.347	3.	0.1	348.53
22093	22.256	3.0909	0.1	367.8
22094	22.347	2.8182	0.1	348.47
22095	22.256	2.9091	0.1	367.8
22096	22.347	2.6364	0.1	348.3
22097	22.256	2.7273	0.1	367.69
22098	22.347	2.4545	0.1	348.02
22099	22.256	2.5455	0.1	367.47
22100	22.347	2.2727	0.1	347.63
22101	22.256	2.3636	0.1	367.14
22102	22.347	2.0909	0.1	347.13
22103	22.256	2.1818	0.1	366.69
22104	22.347	1.9091	0.1	346.52
22105	22.256	2.	0.1	366.14
22106	22.347	1.7273	0.1	345.8
22107	22.256	1.8182	0.1	365.49
22108	22.347	1.5455	0.1	344.99
22109	22.256	1.6364	0.1	364.74
22110	22.347	1.3636	0.1	344.12
22111	22.256	1.4545	0.1	363.93
22112	22.347	1.1818	0.1	343.21
22113	22.256	1.2727	0.1	363.07
22114	22.347	1.	0.1	342.33
22115	22.256	1.0909	0.1	362.23
22116	22.347	0.81818	0.1	341.56
22117	22.256	0.90909	0.1	361.46
22118	22.347	0.63636	0.1	341.03
22119	22.256	0.72727	0.1	360.87
22120	22.347	0.45455	0.1	340.99
22121	22.256	0.54545	0.1	360.6
22122	22.347	0.27273	0.1	342.8
22123	22.256	0.36364	0.1	360.97
22124	22.256	0.18182	0.1	364.59
22125	22.347	9.0909e-002	0.1	336.76
22126	22.164	5.7273	0.1	382.43
22127	22.072	5.8182	0.1	404.34
22128	22.164	5.9091	0.1	376.27
22129	22.164	5.5455	0.1	380.46
22130	22.072	5.6364	0.1	400.6
22131	22.164	5.3636	0.1	380.33
22132	22.072	5.4545	0.1	400.07
22133	22.164	5.1818	0.1	380.68
22134	22.072	5.2727	0.1	400.17
22135	22.164	5.	0.1	381.29
22136	22.072	5.0909	0.1	400.59
22137	22.164	4.8182	0.1	382.03
22138	22.072	4.9091	0.1	401.21
22139	22.164	4.6364	0.1	382.84
22140	22.072	4.7273	0.1	401.94
22141	22.164	4.4545	0.1	383.64
22142	22.072	4.5455	0.1	402.7
22143	22.164	4.2727	0.1	384.4
22144	22.072	4.3636	0.1	403.45
22145	22.164	4.0909	0.1	385.08
22146	22.072	4.1818	0.1	404.14
22147	22.164	3.9091	0.1	385.68
22148	22.072	4.	0.1	404.76
22149	22.164	3.7273	0.1	386.17
22150	22.072	3.8182	0.1	405.29
22151	22.164	3.5455	0.1	386.56
22152	22.072	3.6364	0.1	405.73
22153	22.164	3.3636	0.1	386.84
22154	22.072	3.4545	0.1	406.05
22155	22.164	3.1818	0.1	387.
22156	22.072	3.2727	0.1	406.27
22157	22.164	3.	0.1	387.06
22158	22.072	3.0909	0.1	406.39
22159	22.164	2.8182	0.1	387.
22160	22.072	2.9091	0.1	406.39
22161	22.164	2.6364	0.1	386.84
22162	22.072	2.7273	0.1	406.27
22163	22.164	2.4545	0.1	386.56
22164	22.072	2.5455	0.1	406.05
22165	22.164	2.2727	0.1	386.17
22166	22.072	2.3636	0.1	405.73
22167	22.164	2.0909	0.1	385.68
22168	22.072	2.1818	0.1	405.29
22169	22.164	1.9091	0.1	385.08
22170	22.072	2.	0.1	404.76
22171	22.164	1.7273	0.1	384.4
22172	22.072	1.8182	0.1	404.14
22173	22.164	1.5455	0.1	383.64
22174	22.072	1.6364	0.1	403.45
22175	22.164	1.3636	0.1	382.84
22176	22.072	1.4545	0.1	402.7
22177	22.164	1.1818	0.1	382.03
22178	22.072	1.2727	0.1	401.94
22179	22.164	1.	0.1	381.29
22180	22.072	1.0909	0.1	401.21
22181	22.164	0.81818	0.1	380.68
22182	22.072	0.90909	0.1	400.59
22183	22.164	0.63636	0.1	380.33
22184	22.072	0.72727	0.1	400.17
22185	22.164	0.45455	0.1	380.46
22186	22.072	0.54545	0.1	400.07
22187	22.164	0.27273	0.1	382.43
22188	22.072	0.36364	0.1	400.6
22189	22.072	0.18182	0.1	404.34
22190	22.164	9.0909e-002	0.1	376.27
22191	21.98	5.7273	0.1	422.2
22192	21.888	5.8182	0.1	444.22
22193	21.98	5.9091	0.1	415.96
22194	21.98	5.5455	0.1	420.09
22195	21.888	5.6364	0.1	440.36
22196	21.98	5.3636	0.1	419.82
22197	21.888	5.4545	0.1	439.71
22198	21.98	5.1818	0.1	420.
22199	21.888	5.2727	0.1	439.66
22200	21.98	5.	0.1	420.45
22201	21.888	5.0909	0.1	439.93
22202	21.98	4.8182	0.1	421.06
22203	21.888	4.9091	0.1	440.41
22204	21.98	4.6364	0.1	421.76
22205	21.888	4.7273	0.1	441.01
22206	21.98	4.4545	0.1	422.47
22207	21.888	4.5455	0.1	441.66
22208	21.98	4.2727	0.1	423.16
22209	21.888	4.3636	0.1	442.33
22210	21.98	4.0909	0.1	423.79
22211	21.888	4.1818	0.1	442.96
22212	21.98	3.9091	0.1	424.35
22213	21.888	4.	0.1	443.53
22214	21.98	3.7273	0.1	424.83
22215	21.888	3.8182	0.1	444.03
22216	21.98	3.5455	0.1	425.2
22217	21.888	3.6364	0.1	444.44
22218	21.98	3.3636	0.1	425.47
22219	21.888	3.4545	0.1	444.76
22220	21.98	3.1818	0.1	425.63
22221	21.888	3.2727	0.1	444.97
22222	21.98	3.	0.1	425.69
22223	21.888	3.0909	0.1	445.07
22224	21.98	2.8182	0.1	425.63
22225	21.888	2.9091	0.1	445.07
22226	21.98	2.6364	0.1	425.47
22227	21.888	2.7273	0.1	444.97
22228	21.98	2.4545	0.1	425.2
22229	21.888	2.5455	0.1	444.76
22230	21.98	2.2727	0.1	424.83
22231	21.888	2.3636	0.1	444.44
22232	21.98	2.0909	0.1	424.35
22233	21.888	2.1818	0.1	444.03
22234	21.98	1.9091	0.1	423.79
22235	21.888	2.	0.1	443.53
22236	21.98	1.7273	0.1	423.16
22237	21.888	1.8182	0.1	442.96
22238	21.98	1.5455	0.1	422.47
22239	21.888	1.6364	0.1	442.33
22240	21.98	1.3636	0.1	421.76
22241	21.888	1.4545	0.1	441.66
22242	21.98	1.1818	0.1	421.06
22243	21.888	1.2727	0.1	441.01
22244	21.98	1.	0.1	420.45
22245	21.888	1.0909	0.1	440.41
22246	21.98	0.81818	0.1	420.01
22247	21.888	0.90909	0.1	439.93
22248	21.98	0.63636	0.1	419.82
22249	21.888	0.72727	0.1	439.66
22250	21.98	0.45455	0.1	420.09
22251	21.888	0.54545	0.1	439.71
22252	21.98	0.27273	0.1	422.2
22253	21.888	0.36364	0.1	440.36
22254	21.888	0.18182	0.1	444.22
22255	21.98	9.0909e-002	0.1	415.96
22256	21.796	5.7273	0.1	462.09
22257	21.705	5.8182	0.1	484.21
22258	21.796	5.9091	0.1	455.81
22259	21.796	5.5455	0.1	459.88
22260	21.705	5.6364	0.1	480.27
22261	21.796	5.3636	0.1	459.47
22262	21.705	5.4545	0.1	479.51
22263	21.796	5.1818	0.1	459.51
22264	21.705	5.2727	0.1	479.33
22265	21.796	5.	0.1	459.82
22266	21.705	5.0909	0.1	479.45
22267	21.796	4.8182	0.1	460.29
22268	21.705	4.9091	0.1	479.79
22269	21.796	4.6364	0.1	460.86
22270	21.705	4.7273	0.1	480.26
22271	21.796	4.4545	0.1	461.48
22272	21.705	4.5455	0.1	480.81
22273	21.796	4.2727	0.1	462.09
22274	21.705	4.3636	0.1	481.39
22275	21.796	4.0909	0.1	462.67
22276	21.705	4.1818	0.1	481.95
22277	21.796	3.9091	0.1	463.18
22278	21.705	4.	0.1	482.46
22279	21.796	3.7273	0.1	463.62
22280	21.705	3.8182	0.1	482.92
22281	21.796	3.5455	0.1	463.97
22282	21.705	3.6364	0.1	483.3
22283	21.796	3.3636	0.1	464.23
22284	21.705	3.4545	0.1	483.59
22285	21.796	3.1818	0.1	464.38
22286	21.705	3.2727	0.1	483.79
22287	21.796	3.	0.1	464.44
22288	21.705	3.0909	0.1	483.89
22289	21.796	2.8182	0.1	464.38
22290	21.705	2.9091	0.1	483.89
22291	21.796	2.6364	0.1	464.23
22292	21.705	2.7273	0.1	483.79
22293	21.796	2.4545	0.1	463.97
22294	21.705	2.5455	0.1	483.59
22295	21.796	2.2727	0.1	463.62
22296	21.705	2.3636	0.1	483.3
22297	21.796	2.0909	0.1	463.18
22298	21.705	2.1818	0.1	482.92
22299	21.796	1.9091	0.1	462.67
22300	21.705	2.	0.1	482.46
22301	21.796	1.7273	0.1	462.09
22302	21.705	1.8182	0.1	481.95
22303	21.796	1.5455	0.1	461.48
22304	21.705	1.6364	0.1	481.39
22305	21.796	1.3636	0.1	460.86
22306	21.705	1.4545	0.1	480.81
22307	21.796	1.1818	0.1	460.29
22308	21.705	1.2727	0.1	480.26
22309	21.796	1.	0.1	459.82
22310	21.705	1.0909	0.1	479.79
22311	21.796	0.81818	0.1	459.51
22312	21.705	0.90909	0.1	479.45
22313	21.796	0.63636	0.1	459.47
22314	21.705	0.72727	0.1	479.33
22315	21.796	0.45455	0.1	459.88
22316	21.705	0.54545	0.1	479.51
22317	21.796	0.27273	0.1	462.09
22318	21.705	0.36364	0.1	480.27
22319	21.705	0.18182	0.1	484.21
22320	21.796	9.0909e-002	0.1	455.81
22321	21.613	5.7273	0.1	502.11
22322	21.521	5.8182	0.1	524.32
22323	21.613	5.9091	0.1	495.81
22324	21.613	5.5455	0.1	499.81
22325	21.521	5.6364	0.1	520.32
22326	21.613	5.3636	0.1	499.29
22327	21.521	5.4545	0.1	519.46
22328	21.613	5.1818	0.1	499.19
22329	21.521	5.2727	0.1	519.15
22330	21.613	5.	0.1	499.36
22331	21.521	5.0909	0.1	519.15
22332	21.613	4.8182	0.1	499.71
22333	21.521	4.9091	0.1	519.36
22334	21.613	4.6364	0.1	500.16
22335	21.521	4.7273	0.1	519.71
22336	21.613	4.4545	0.1	500.68
22337	21.521	4.5455	0.1	520.15
22338	21.613	4.2727	0.1	501.2
22339	21.521	4.3636	0.1	520.63
22340	21.613	4.0909	0.1	501.71
22341	21.521	4.1818	0.1	521.11
22342	21.613	3.9091	0.1	502.17
22343	21.521	4.	0.1	521.57
22344	21.613	3.7273	0.1	502.57
22345	21.521	3.8182	0.1	521.98
22346	21.613	3.5455	0.1	502.89
22347	21.521	3.6364	0.1	522.32
22348	21.613	3.3636	0.1	503.13
22349	21.521	3.4545	0.1	522.59
22350	21.613	3.1818	0.1	503.27
22351	21.521	3.2727	0.1	522.77
22352	21.613	3.	0.1	503.32
22353	21.521	3.0909	0.1	522.86
22354	21.613	2.8182	0.1	503.27
22355	21.521	2.9091	0.1	522.86
22356	21.613	2.6364	0.1	503.13
22357	21.521	2.7273	0.1	522.77
22358	21.613	2.4545	0.1	502.89
22359	21.521	2.5455	0.1	522.59
22360	21.613	2.2727	0.1	502.57
22361	21.521	2.3636	0.1	522.32
22362	21.613	2.0909	0.1	502.17
22363	21.521	2.1818	0.1	521.98
22364	21.613	1.9091	0.1	501.71
22365	21.521	2.	0.1	521.57
22366	21.613	1.7273	0.1	501.2
22367	21.521	1.8182	0.1	521.11
22368	21.613	1.5455	0.1	500.68
22369	21.521	1.6364	0.1	520.63
22370	21.613	1.3636	0.1	500.16
22371	21.521	1.4545	0.1	520.15
22372	21.613	1.1818	0.1	499.71
22373	21.521	1.2727	0.1	519.71
22374	21.613	1.	0.1	499.36
22375	21.521	1.0909	0.1	519.36
22376	21.613	0.81818	0.1	499.19
22377	21.521	0.90909	0.1	519.15
22378	21.613	0.63636	0.1	499.29
22379	21.521	0.72727	0.1	519.15
22380	21.613	0.45455	0.1	499.81
22381	21.521	0.54545	0.1	519.46
22382	21.613	0.27273	0.1	502.11
22383	21.521	0.36364	0.1	520.32
22384	21.521	0.18182	0.1	524.32
22385	21.613	9.0909e-002	0.1	495.81
22386	21.429	5.7273	0.1	542.26
22387	21.337	5.8182	0.1	564.55
22388	21.429	5.9091	0.1	535.95
22389	21.429	5.5455	0.1	539.88
22390	21.337	5.6364	0.1	560.49
22391	21.429	5.3636	0.1	539.25
22392	21.337	5.4545	0.1	559.55
22393	21.429	5.1818	0.1	539.04
22394	21.337	5.2727	0.1	559.14
22395	21.429	5.	0.1	539.08
22396	21.337	5.0909	0.1	559.02
22397	21.429	4.8182	0.1	539.3
22398	21.337	4.9091	0.1	559.1
22399	21.429	4.6364	0.1	539.65
22400	21.337	4.7273	0.1	559.34
22401	21.429	4.4545	0.1	540.06
22402	21.337	4.5455	0.1	559.67
22403	21.429	4.2727	0.1	540.5
22404	21.337	4.3636	0.1	560.06
22405	21.429	4.0909	0.1	540.94
22406	21.337	4.1818	0.1	560.46
22407	21.429	3.9091	0.1	541.34
22408	21.337	4.	0.1	560.85
22409	21.429	3.7273	0.1	541.69
22410	21.337	3.8182	0.1	561.21
22411	21.429	3.5455	0.1	541.98
22412	21.337	3.6364	0.1	561.51
22413	21.429	3.3636	0.1	542.19
22414	21.337	3.4545	0.1	561.75
22415	21.429	3.1818	0.1	542.32
22416	21.337	3.2727	0.1	561.91
22417	21.429	3.	0.1	542.37
22418	21.337	3.0909	0.1	561.99
22419	21.429	2.8182	0.1	542.32
22420	21.337	2.9091	0.1	561.99
22421	21.429	2.6364	0.1	542.19
22422	21.337	2.7273	0.1	561.91
22423	21.429	2.4545	0.1	541.98
22424	21.337	2.5455	0.1	561.75
22425	21.429	2.2727	0.1	541.69
22426	21.337	2.3636	0.1	561.51
22427	21.429	2.0909	0.1	541.34
22428	21.337	2.1818	0.1	561.21
22429	21.429	1.9091	0.1	540.94
22430	21.337	2.	0.1	560.85
22431	21.429	1.7273	0.1	540.5
22432	21.337	1.8182	0.1	560.46
22433	21.429	1.5455	0.1	540.06
22434	21.337	1.6364	0.1	560.06
22435	21.429	1.3636	0.1	539.65
22436	21.337	1.4545	0.1	559.67
22437	21.429	1.1818	0.1	539.31
22438	21.337	1.2727	0.1	559.34
22439	21.429	1.	0.1	539.08
22440	21.337	1.0909	0.1	559.1
22441	21.429	0.81818	0.1	539.04
22442	21.337	0.90909	0.1	559.02
22443	21.429	0.63636	0.1	539.25
22444	21.337	0.72727	0.1	559.14
22445	21.429	0.45455	0.1	539.88
22446	21.337	0.54545	0.1	559.55
22447	21.429	0.27273	0.1	542.26
22448	21.337	0.36364	0.1	560.49
22449	21.337	0.18182	0.1	564.55
22450	21.429	9.0909e-002	0.1	535.95
22451	21.246	5.7273	0.1	582.53
22452	21.154	5.8182	0.1	604.91
22453	21.246	5.9091	0.1	576.25
22454	21.246	5.5455	0.1	580.09
22455	21.154	5.6364	0.1	600.81
22456	21.246	5.3636	0.1	579.37
22457	21.154	5.4545	0.1	599.79
22458	21.246	5.1818	0.1	579.05
22459	21.154	5.2727	0.1	599.28
22460	21.246	5.	0.1	578.98
22461	21.154	5.0909	0.1	599.05
22462	21.246	4.8182	0.1	579.08
22463	21.154	4.9091	0.1	599.03
22464	21.246	4.6364	0.1	579.32
22465	21.154	4.7273	0.1	599.15
22466	21.246	4.4545	0.1	579.63
22467	21.154	4.5455	0.1	599.39
22468	21.246	4.2727	0.1	579.99
22469	21.154	4.3636	0.1	599.68
22470	21.246	4.0909	0.1	580.35
22471	21.154	4.1818	0.1	600.
22472	21.246	3.9091	0.1	580.69
22473	21.154	4.	0.1	600.33
22474	21.246	3.7273	0.1	580.99
22475	21.154	3.8182	0.1	600.62
22476	21.246	3.5455	0.1	581.24
22477	21.154	3.6364	0.1	600.88
22478	21.246	3.3636	0.1	581.43
22479	21.154	3.4545	0.1	601.09
22480	21.246	3.1818	0.1	581.55
22481	21.154	3.2727	0.1	601.23
22482	21.246	3.	0.1	581.58
22483	21.154	3.0909	0.1	601.3
22484	21.246	2.8182	0.1	581.55
22485	21.154	2.9091	0.1	601.3
22486	21.246	2.6364	0.1	581.43
22487	21.154	2.7273	0.1	601.23
22488	21.246	2.4545	0.1	581.24
22489	21.154	2.5455	0.1	601.09
22490	21.246	2.2727	0.1	580.99
22491	21.154	2.3636	0.1	600.88
22492	21.246	2.0909	0.1	580.69
22493	21.154	2.1818	0.1	600.62
22494	21.246	1.9091	0.1	580.35
22495	21.154	2.	0.1	600.33
22496	21.246	1.7273	0.1	579.99
22497	21.154	1.8182	0.1	600.
22498	21.246	1.5455	0.1	579.63
22499	21.154	1.6364	0.1	599.68
22500	21.246	1.3636	0.1	579.32
22501	21.154	1.4545	0.1	599.39
22502	21.246	1.1818	0.1	579.09
22503	21.154	1.2727	0.1	599.15
22504	21.246	1.	0.1	578.98
22505	21.154	1.0909	0.1	599.03
22506	21.246	0.81818	0.1	579.05
22507	21.154	0.90909	0.1	599.05
22508	21.246	0.63636	0.1	579.37
22509	21.154	0.72727	0.1	599.28
22510	21.246	0.45455	0.1	580.09
22511	21.154	0.54545	0.1	599.79
22512	21.246	0.27273	0.1	582.53
22513	21.154	0.36364	0.1	600.81
22514	21.154	0.18182	0.1	604.91
22515	21.246	9.0909e-002	0.1	576.25
22516	21.062	5.7273	0.1	622.94
22517	20.97	5.8182	0.1	645.39
22518	21.062	5.9091	0.1	616.68
22519	21.062	5.5455	0.1	620.44
22520	20.97	5.6364	0.1	641.26
22521	21.062	5.3636	0.1	619.64
22522	20.97	5.4545	0.1	640.18
22523	21.062	5.1818	0.1	619.22
22524	20.97	5.2727	0.1	639.58
22525	21.062	5.	0.1	619.04
22526	20.97	5.0909	0.1	639.25
22527	21.062	4.8182	0.1	619.04
22528	20.97	4.9091	0.1	639.12
22529	21.062	4.6364	0.1	619.17
22530	20.97	4.7273	0.1	639.15
22531	21.062	4.4545	0.1	619.39
22532	20.97	4.5455	0.1	639.29
22533	21.062	4.2727	0.1	619.66
22534	20.97	4.3636	0.1	639.49
22535	21.062	4.0909	0.1	619.95
22536	20.97	4.1818	0.1	639.74
22537	21.062	3.9091	0.1	620.23
22538	20.97	4.	0.1	639.99
22539	21.062	3.7273	0.1	620.48
22540	20.97	3.8182	0.1	640.23
22541	21.062	3.5455	0.1	620.69
22542	20.97	3.6364	0.1	640.45
22543	21.062	3.3636	0.1	620.85
22544	20.97	3.4545	0.1	640.62
22545	21.062	3.1818	0.1	620.95
22546	20.97	3.2727	0.1	640.74
22547	21.062	3.	0.1	620.99
22548	20.97	3.0909	0.1	640.8
22549	21.062	2.8182	0.1	620.95
22550	20.97	2.9091	0.1	640.8
22551	21.062	2.6364	0.1	620.85
22552	20.97	2.7273	0.1	640.74
22553	21.062	2.4545	0.1	620.69
22554	20.97	2.5455	0.1	640.62
22555	21.062	2.2727	0.1	620.48
22556	20.97	2.3636	0.1	640.45
22557	21.062	2.0909	0.1	620.23
22558	20.97	2.1818	0.1	640.23
22559	21.062	1.9091	0.1	619.95
22560	20.97	2.	0.1	639.99
22561	21.062	1.7273	0.1	619.66
22562	20.97	1.8182	0.1	639.74
22563	21.062	1.5455	0.1	619.39
22564	20.97	1.6364	0.1	639.49
22565	21.062	1.3636	0.1	619.17
22566	20.97	1.4545	0.1	639.29
22567	21.062	1.1818	0.1	619.04
22568	20.97	1.2727	0.1	639.15
22569	21.062	1.	0.1	619.04
22570	20.97	1.0909	0.1	639.12
22571	21.062	0.81818	0.1	619.22
22572	20.97	0.90909	0.1	639.25
22573	21.062	0.63636	0.1	619.64
22574	20.97	0.72727	0.1	639.58
22575	21.062	0.45455	0.1	620.44
22576	20.97	0.54545	0.1	640.18
22577	21.062	0.27273	0.1	622.94
22578	20.97	0.36364	0.1	641.26
22579	20.97	0.18182	0.1	645.39
22580	21.062	9.0909e-002	0.1	616.68
22581	20.878	5.7273	0.1	663.47
22582	20.787	5.8182	0.1	685.99
22583	20.878	5.9091	0.1	657.26
22584	20.878	5.5455	0.1	660.92
22585	20.787	5.6364	0.1	681.85
22586	20.878	5.3636	0.1	660.06
22587	20.787	5.4545	0.1	680.71
22588	20.878	5.1818	0.1	659.55
22589	20.787	5.2727	0.1	680.04
22590	20.878	5.	0.1	659.28
22591	20.787	5.0909	0.1	679.62
22592	20.878	4.8182	0.1	659.18
22593	20.787	4.9091	0.1	679.39
22594	20.878	4.6364	0.1	659.21
22595	20.787	4.7273	0.1	679.33
22596	20.878	4.4545	0.1	659.34
22597	20.787	4.5455	0.1	679.37
22598	20.878	4.2727	0.1	659.53
22599	20.787	4.3636	0.1	679.49
22600	20.878	4.0909	0.1	659.74
22601	20.787	4.1818	0.1	679.66
22602	20.878	3.9091	0.1	659.96
22603	20.787	4.	0.1	679.85
22604	20.878	3.7273	0.1	660.16
22605	20.787	3.8182	0.1	680.04
22606	20.878	3.5455	0.1	660.34
22607	20.787	3.6364	0.1	680.21
22608	20.878	3.3636	0.1	660.47
22609	20.787	3.4545	0.1	680.34
22610	20.878	3.1818	0.1	660.55
22611	20.787	3.2727	0.1	680.44
22612	20.878	3.	0.1	660.58
22613	20.787	3.0909	0.1	680.49
22614	20.878	2.8182	0.1	660.55
22615	20.787	2.9091	0.1	680.49
22616	20.878	2.6364	0.1	660.47
22617	20.787	2.7273	0.1	680.44
22618	20.878	2.4545	0.1	660.34
22619	20.787	2.5455	0.1	680.34
22620	20.878	2.2727	0.1	660.16
22621	20.787	2.3636	0.1	680.21
22622	20.878	2.0909	0.1	659.96
22623	20.787	2.1818	0.1	680.04
22624	20.878	1.9091	0.1	659.74
22625	20.787	2.	0.1	679.85
22626	20.878	1.7273	0.1	659.53
22627	20.787	1.8182	0.1	679.66
22628	20.878	1.5455	0.1	659.34
22629	20.787	1.6364	0.1	679.49
22630	20.878	1.3636	0.1	659.21
22631	20.787	1.4545	0.1	679.37
22632	20.878	1.1818	0.1	659.18
22633	20.787	1.2727	0.1	679.33
22634	20.878	1.	0.1	659.28
22635	20.787	1.0909	0.1	679.39
22636	20.878	0.81818	0.1	659.55
22637	20.787	0.90909	0.1	679.62
22638	20.878	0.63636	0.1	660.06
22639	20.787	0.72727	0.1	680.04
22640	20.878	0.45455	0.1	660.93
22641	20.787	0.54545	0.1	680.71
22642	20.878	0.27273	0.1	663.47
22643	20.787	0.36364	0.1	681.85
22644	20.787	0.18182	0.1	685.99
22645	20.878	9.0909e-002	0.1	657.26
22646	20.695	5.7273	0.1	704.14
22647	20.603	5.8182	0.1	726.74
22648	20.695	5.9091	0.1	697.99
22649	20.695	5.5455	0.1	701.56
22650	20.603	5.6364	0.1	722.58
22651	20.695	5.3636	0.1	700.63
22652	20.603	5.4545	0.1	721.39
22653	20.695	5.1818	0.1	700.04
22654	20.603	5.2727	0.1	720.65
22655	20.695	5.	0.1	699.68
22656	20.603	5.0909	0.1	720.15
22657	20.695	4.8182	0.1	699.49
22658	20.603	4.9091	0.1	719.84
22659	20.695	4.6364	0.1	699.44
22660	20.603	4.7273	0.1	719.68
22661	20.695	4.4545	0.1	699.48
22662	20.603	4.5455	0.1	719.64
22663	20.695	4.2727	0.1	699.59
22664	20.603	4.3636	0.1	719.69
22665	20.695	4.0909	0.1	699.73
22666	20.603	4.1818	0.1	719.78
22667	20.695	3.9091	0.1	699.89
22668	20.603	4.	0.1	719.91
22669	20.695	3.7273	0.1	700.04
22670	20.603	3.8182	0.1	720.04
22671	20.695	3.5455	0.1	700.18
22672	20.603	3.6364	0.1	720.17
22673	20.695	3.3636	0.1	700.28
22674	20.603	3.4545	0.1	720.27
22675	20.695	3.1818	0.1	700.35
22676	20.603	3.2727	0.1	720.35
22677	20.695	3.	0.1	700.37
22678	20.603	3.0909	0.1	720.38
22679	20.695	2.8182	0.1	700.35
22680	20.603	2.9091	0.1	720.38
22681	20.695	2.6364	0.1	700.28
22682	20.603	2.7273	0.1	720.35
22683	20.695	2.4545	0.1	700.18
22684	20.603	2.5455	0.1	720.27
22685	20.695	2.2727	0.1	700.04
22686	20.603	2.3636	0.1	720.17
22687	20.695	2.0909	0.1	699.89
22688	20.603	2.1818	0.1	720.04
22689	20.695	1.9091	0.1	699.73
22690	20.603	2.	0.1	719.91
22691	20.695	1.7273	0.1	699.59
22692	20.603	1.8182	0.1	719.78
22693	20.695	1.5455	0.1	699.48
22694	20.603	1.6364	0.1	719.69
22695	20.695	1.3636	0.1	699.44
22696	20.603	1.4545	0.1	719.64
22697	20.695	1.1818	0.1	699.49
22698	20.603	1.2727	0.1	719.68
22699	20.695	1.	0.1	699.68
22700	20.603	1.0909	0.1	719.84
22701	20.695	0.81818	0.1	700.04
22702	20.603	0.90909	0.1	720.15
22703	20.695	0.63636	0.1	700.63
22704	20.603	0.72727	0.1	720.65
22705	20.695	0.45455	0.1	701.56
22706	20.603	0.54545	0.1	721.39
22707	20.695	0.27273	0.1	704.14
22708	20.603	0.36364	0.1	722.58
22709	20.603	0.18182	0.1	726.74
22710	20.695	9.0909e-002	0.1	697.99
22711	20.511	5.7273	0.1	744.95
22712	20.419	5.8182	0.1	767.62
22713	20.511	5.9091	0.1	738.86
22714	20.511	5.5455	0.1	742.34
22715	20.419	5.6364	0.1	763.45
22716	20.511	5.3636	0.1	741.35
22717	20.419	5.4545	0.1	762.22
22718	20.511	5.1818	0.1	740.69
22719	20.419	5.2727	0.1	761.41
22720	20.511	5.	0.1	740.25
22721	20.419	5.0909	0.1	760.84
22722	20.511	4.8182	0.1	739.98
22723	20.419	4.9091	0.1	760.46
22724	20.511	4.6364	0.1	739.84
22725	20.419	4.7273	0.1	760.22
22726	20.511	4.4545	0.1	739.81
22727	20.419	4.5455	0.1	760.1
22728	20.511	4.2727	0.1	739.84
22729	20.419	4.3636	0.1	760.07
22730	20.511	4.0909	0.1	739.92
22731	20.419	4.1818	0.1	760.1
22732	20.511	3.9091	0.1	740.02
22733	20.419	4.	0.1	760.16
22734	20.511	3.7273	0.1	740.13
22735	20.419	3.8182	0.1	760.25
22736	20.511	3.5455	0.1	740.22
22737	20.419	3.6364	0.1	760.33
22738	20.511	3.3636	0.1	740.3
22739	20.419	3.4545	0.1	760.4
22740	20.511	3.1818	0.1	740.35
22741	20.419	3.2727	0.1	760.46
22742	20.511	3.	0.1	740.37
22743	20.419	3.0909	0.1	760.49
22744	20.511	2.8182	0.1	740.35
22745	20.419	2.9091	0.1	760.49
22746	20.511	2.6364	0.1	740.3
22747	20.419	2.7273	0.1	760.46
22748	20.511	2.4545	0.1	740.22
22749	20.419	2.5455	0.1	760.4
22750	20.511	2.2727	0.1	740.13
22751	20.419	2.3636	0.1	760.33
22752	20.511	2.0909	0.1	740.02
22753	20.419	2.1818	0.1	760.25
22754	20.511	1.9091	0.1	739.92
22755	20.419	2.	0.1	760.16
22756	20.511	1.7273	0.1	739.84
22757	20.419	1.8182	0.1	760.1
22758	20.511	1.5455	0.1	739.81
22759	20.419	1.6364	0.1	760.07
22760	20.511	1.3636	0.1	739.84
22761	20.419	1.4545	0.1	760.1
22762	20.511	1.1818	0.1	739.98
22763	20.419	1.2727	0.1	760.22
22764	20.511	1.	0.1	740.25
22765	20.419	1.0909	0.1	760.46
22766	20.511	0.81818	0.1	740.69
22767	20.419	0.90909	0.1	760.84
22768	20.511	0.63636	0.1	741.35
22769	20.419	0.72727	0.1	761.41
22770	20.511	0.45455	0.1	742.34
22771	20.419	0.54545	0.1	762.22
22772	20.511	0.27273	0.1	744.95
22773	20.419	0.36364	0.1	763.45
22774	20.419	0.18182	0.1	767.62
22775	20.511	9.0909e-002	0.1	738.86
22776	20.327	5.7273	0.1	785.9
22777	20.236	5.8182	0.1	808.64
22778	20.327	5.9091	0.1	779.88
22779	20.327	5.5455	0.1	783.27
22780	20.236	5.6364	0.1	804.47
22781	20.327	5.3636	0.1	782.23
22782	20.236	5.4545	0.1	803.2
22783	20.327	5.1818	0.1	781.51
22784	20.236	5.2727	0.1	802.34
22785	20.327	5.	0.1	781.
22786	20.236	5.0909	0.1	801.71
22787	20.327	4.8182	0.1	780.65
22788	20.236	4.9091	0.1	801.25
22789	20.327	4.6364	0.1	780.44
22790	20.236	4.7273	0.1	800.94
22791	20.327	4.4545	0.1	780.33
22792	20.236	4.5455	0.1	800.75
22793	20.327	4.2727	0.1	780.29
22794	20.236	4.3636	0.1	800.65
22795	20.327	4.0909	0.1	780.31
22796	20.236	4.1818	0.1	800.61
22797	20.327	3.9091	0.1	780.35
22798	20.236	4.	0.1	800.62
22799	20.327	3.7273	0.1	780.41
22800	20.236	3.8182	0.1	800.66
22801	20.327	3.5455	0.1	780.47
22802	20.236	3.6364	0.1	800.7
22803	20.327	3.3636	0.1	780.53
22804	20.236	3.4545	0.1	800.74
22805	20.327	3.1818	0.1	780.56
22806	20.236	3.2727	0.1	800.78
22807	20.327	3.	0.1	780.57
22808	20.236	3.0909	0.1	800.8
22809	20.327	2.8182	0.1	780.56
22810	20.236	2.9091	0.1	800.8
22811	20.327	2.6364	0.1	780.53
22812	20.236	2.7273	0.1	800.78
22813	20.327	2.4545	0.1	780.47
22814	20.236	2.5455	0.1	800.74
22815	20.327	2.2727	0.1	780.41
22816	20.236	2.3636	0.1	800.7
22817	20.327	2.0909	0.1	780.35
22818	20.236	2.1818	0.1	800.66
22819	20.327	1.9091	0.1	780.31
22820	20.236	2.	0.1	800.62
22821	20.327	1.7273	0.1	780.29
22822	20.236	1.8182	0.1	800.62
22823	20.327	1.5455	0.1	780.33
22824	20.236	1.6364	0.1	800.65
22825	20.327	1.3636	0.1	780.44
22826	20.236	1.4545	0.1	800.75
22827	20.327	1.1818	0.1	780.65
22828	20.236	1.2727	0.1	800.94
22829	20.327	1.	0.1	781.
22830	20.236	1.0909	0.1	801.25
22831	20.327	0.81818	0.1	781.51
22832	20.236	0.90909	0.1	801.71
22833	20.327	0.63636	0.1	782.23
22834	20.236	0.72727	0.1	802.34
22835	20.327	0.45455	0.1	783.27
22836	20.236	0.54545	0.1	803.2
22837	20.327	0.27273	0.1	785.9
22838	20.236	0.36364	0.1	804.47
22839	20.236	0.18182	0.1	808.64
22840	20.327	9.0909e-002	0.1	779.88
22841	20.144	5.7273	0.1	827.
22842	20.052	5.8182	0.1	849.81
22843	20.144	5.9091	0.1	821.06
22844	20.144	5.5455	0.1	824.35
22845	20.052	5.6364	0.1	845.65
22846	20.144	5.3636	0.1	823.26
22847	20.052	5.4545	0.1	844.34
22848	20.144	5.1818	0.1	822.49
22849	20.052	5.2727	0.1	843.43
22850	20.144	5.	0.1	821.91
22851	20.052	5.0909	0.1	842.74
22852	20.144	4.8182	0.1	821.5
22853	20.052	4.9091	0.1	842.22
22854	20.144	4.6364	0.1	821.21
22855	20.052	4.7273	0.1	841.85
22856	20.144	4.4545	0.1	821.04
22857	20.052	4.5455	0.1	841.59
22858	20.144	4.2727	0.1	820.94
22859	20.052	4.3636	0.1	841.42
22860	20.144	4.0909	0.1	820.89
22861	20.052	4.1818	0.1	841.33
22862	20.144	3.9091	0.1	820.89
22863	20.052	4.	0.1	841.28
22864	20.144	3.7273	0.1	820.91
22865	20.052	3.8182	0.1	841.27
22866	20.144	3.5455	0.1	820.93
22867	20.052	3.6364	0.1	841.28
22868	20.144	3.3636	0.1	820.96
22869	20.052	3.4545	0.1	841.29
22870	20.144	3.1818	0.1	820.98
22871	20.052	3.2727	0.1	841.31
22872	20.144	3.	0.1	820.99
22873	20.052	3.0909	0.1	841.32
22874	20.144	2.8182	0.1	820.98
22875	20.052	2.9091	0.1	841.32
22876	20.144	2.6364	0.1	820.96
22877	20.052	2.7273	0.1	841.31
22878	20.144	2.4545	0.1	820.93
22879	20.052	2.5455	0.1	841.29
22880	20.144	2.2727	0.1	820.91
22881	20.052	2.3636	0.1	841.28
22882	20.144	2.0909	0.1	820.89
22883	20.052	2.1818	0.1	841.27
22884	20.144	1.9091	0.1	820.89
22885	20.052	2.	0.1	841.28
22886	20.144	1.7273	0.1	820.94
22887	20.052	1.8182	0.1	841.33
22888	20.144	1.5455	0.1	821.04
22889	20.052	1.6364	0.1	841.43
22890	20.144	1.3636	0.1	821.21
22891	20.052	1.4545	0.1	841.59
22892	20.144	1.1818	0.1	821.5
22893	20.052	1.2727	0.1	841.85
22894	20.144	1.	0.1	821.91
22895	20.052	1.0909	0.1	842.22
22896	20.144	0.81818	0.1	822.49
22897	20.052	0.90909	0.1	842.74
22898	20.144	0.63636	0.1	823.26
22899	20.052	0.72727	0.1	843.43
22900	20.144	0.45455	0.1	824.35
22901	20.052	0.54545	0.1	844.34
22902	20.144	0.27273	0.1	827.
22903	20.052	0.36364	0.1	845.65
22904	20.052	0.18182	0.1	849.81
22905	20.144	9.0909e-002	0.1	821.06
22906	19.96	5.7273	0.1	868.25
22907	19.868	5.8182	0.1	891.13
22908	19.96	5.9091	0.1	862.39
22909	19.96	5.5455	0.1	865.58
22910	19.868	5.6364	0.1	886.98
22911	19.96	5.3636	0.1	864.46
22912	19.868	5.4545	0.1	885.64
22913	19.96	5.1818	0.1	863.64
22914	19.868	5.2727	0.1	884.69
22915	19.96	5.	0.1	863.
22916	19.868	5.0909	0.1	883.94
22917	19.96	4.8182	0.1	862.52
22918	19.868	4.9091	0.1	883.37
22919	19.96	4.6364	0.1	862.18
22920	19.868	4.7273	0.1	882.93
22921	19.96	4.4545	0.1	861.94
22922	19.868	4.5455	0.1	882.62
22923	19.96	4.2727	0.1	861.78
22924	19.868	4.3636	0.1	882.39
22925	19.96	4.0909	0.1	861.68
22926	19.868	4.1818	0.1	882.24
22927	19.96	3.9091	0.1	861.63
22928	19.868	4.	0.1	882.15
22929	19.96	3.7273	0.1	861.61
22930	19.868	3.8182	0.1	882.1
22931	19.96	3.5455	0.1	861.6
22932	19.868	3.6364	0.1	882.07
22933	19.96	3.3636	0.1	861.61
22934	19.868	3.4545	0.1	882.06
22935	19.96	3.1818	0.1	861.61
22936	19.868	3.2727	0.1	882.05
22937	19.96	3.	0.1	861.61
22938	19.868	3.0909	0.1	882.05
22939	19.96	2.8182	0.1	861.61
22940	19.868	2.9091	0.1	882.05
22941	19.96	2.6364	0.1	861.61
22942	19.868	2.7273	0.1	882.05
22943	19.96	2.4545	0.1	861.6
22944	19.868	2.5455	0.1	882.06
22945	19.96	2.2727	0.1	861.61
22946	19.868	2.3636	0.1	882.07
22947	19.96	2.0909	0.1	861.63
22948	19.868	2.1818	0.1	882.1
22949	19.96	1.9091	0.1	861.68
22950	19.868	2.	0.1	882.15
22951	19.96	1.7273	0.1	861.78
22952	19.868	1.8182	0.1	882.24
22953	19.96	1.5455	0.1	861.94
22954	19.868	1.6364	0.1	882.39
22955	19.96	1.3636	0.1	862.18
22956	19.868	1.4545	0.1	882.62
22957	19.96	1.1818	0.1	862.52
22958	19.868	1.2727	0.1	882.93
22959	19.96	1.	0.1	863.
22960	19.868	1.0909	0.1	883.37
22961	19.96	0.81818	0.1	863.64
22962	19.868	0.90909	0.1	883.94
22963	19.96	0.63636	0.1	864.46
22964	19.868	0.72727	0.1	884.69
22965	19.96	0.45455	0.1	865.58
22966	19.868	0.54545	0.1	885.64
22967	19.96	0.27273	0.1	868.25
22968	19.868	0.36364	0.1	886.98
22969	19.868	0.18182	0.1	891.13
22970	19.96	9.0909e-002	0.1	862.39
22971	19.777	5.7273	0.1	909.66
22972	19.685	5.8182	0.1	932.6
22973	19.777	5.9091	0.1	903.88
22974	19.777	5.5455	0.1	906.98
22975	19.685	5.6364	0.1	928.47
22976	19.777	5.3636	0.1	905.82
22977	19.685	5.4545	0.1	927.11
22978	19.777	5.1818	0.1	904.95
22979	19.685	5.2727	0.1	926.12
22980	19.777	5.	0.1	904.27
22981	19.685	5.0909	0.1	925.32
22982	19.777	4.8182	0.1	903.73
22983	19.685	4.9091	0.1	924.69
22984	19.777	4.6364	0.1	903.33
22985	19.685	4.7273	0.1	924.21
22986	19.777	4.4545	0.1	903.03
22987	19.685	4.5455	0.1	923.83
22988	19.777	4.2727	0.1	902.82
22989	19.685	4.3636	0.1	923.56
22990	19.777	4.0909	0.1	902.67
22991	19.685	4.1818	0.1	923.36
22992	19.777	3.9091	0.1	902.58
22993	19.685	4.	0.1	923.22
22994	19.777	3.7273	0.1	902.52
22995	19.685	3.8182	0.1	923.13
22996	19.777	3.5455	0.1	902.48
22997	19.685	3.6364	0.1	923.07
22998	19.777	3.3636	0.1	902.47
22999	19.685	3.4545	0.1	923.03
23000	19.777	3.1818	0.1	902.46
23001	19.685	3.2727	0.1	923.01
23002	19.777	3.	0.1	902.45
23003	19.685	3.0909	0.1	923.
23004	19.777	2.8182	0.1	902.46
23005	19.685	2.9091	0.1	923.
23006	19.777	2.6364	0.1	902.47
23007	19.685	2.7273	0.1	923.01
23008	19.777	2.4545	0.1	902.48
23009	19.685	2.5455	0.1	923.03
23010	19.777	2.2727	0.1	902.52
23011	19.685	2.3636	0.1	923.07
23012	19.777	2.0909	0.1	902.58
23013	19.685	2.1818	0.1	923.13
23014	19.777	1.9091	0.1	902.67
23015	19.685	2.	0.1	923.22
23016	19.777	1.7273	0.1	902.82
23017	19.685	1.8182	0.1	923.36
23018	19.777	1.5455	0.1	903.03
23019	19.685	1.6364	0.1	923.56
23020	19.777	1.3636	0.1	903.33
23021	19.685	1.4545	0.1	923.83
23022	19.777	1.1818	0.1	903.73
23023	19.685	1.2727	0.1	924.21
23024	19.777	1.	0.1	904.27
23025	19.685	1.0909	0.1	924.69
23026	19.777	0.81818	0.1	904.95
23027	19.685	0.90909	0.1	925.32
23028	19.777	0.63636	0.1	905.82
23029	19.685	0.72727	0.1	926.12
23030	19.777	0.45455	0.1	906.98
23031	19.685	0.54545	0.1	927.11
23032	19.777	0.27273	0.1	909.66
23033	19.685	0.36364	0.1	928.47
23034	19.685	0.18182	0.1	932.6
23035	19.777	9.0909e-002	0.1	903.88
23036	19.593	5.7273	0.1	951.22
23037	19.501	5.8182	0.1	974.23
23038	19.593	5.9091	0.1	945.52
23039	19.593	5.5455	0.1	948.54
23040	19.501	5.6364	0.1	970.12
23041	19.593	5.3636	0.1	947.35
23042	19.501	5.4545	0.1	968.73
23043	19.593	5.1818	0.1	946.44
23044	19.501	5.2727	0.1	967.71
23045	19.593	5.	0.1	945.71
23046	19.501	5.0909	0.1	966.88
23047	19.593	4.8182	0.1	945.12
23048	19.501	4.9091	0.1	966.2
23049	19.593	4.6364	0.1	944.67
23050	19.501	4.7273	0.1	965.67
23051	19.593	4.4545	0.1	944.32
23052	19.501	4.5455	0.1	965.24
23053	19.593	4.2727	0.1	944.06
23054	19.501	4.3636	0.1	964.92
23055	19.593	4.0909	0.1	943.87
23056	19.501	4.1818	0.1	964.67
23057	19.593	3.9091	0.1	943.73
23058	19.501	4.	0.1	964.49
23059	19.593	3.7273	0.1	943.64
23060	19.501	3.8182	0.1	964.36
23061	19.593	3.5455	0.1	943.58
23062	19.501	3.6364	0.1	964.27
23063	19.593	3.3636	0.1	943.54
23064	19.501	3.4545	0.1	964.21
23065	19.593	3.1818	0.1	943.52
23066	19.501	3.2727	0.1	964.18
23067	19.593	3.	0.1	943.51
23068	19.501	3.0909	0.1	964.16
23069	19.593	2.8182	0.1	943.52
23070	19.501	2.9091	0.1	964.16
23071	19.593	2.6364	0.1	943.54
23072	19.501	2.7273	0.1	964.18
23073	19.593	2.4545	0.1	943.58
23074	19.501	2.5455	0.1	964.21
23075	19.593	2.2727	0.1	943.64
23076	19.501	2.3636	0.1	964.27
23077	19.593	2.0909	0.1	943.73
23078	19.501	2.1818	0.1	964.36
23079	19.593	1.9091	0.1	943.87
23080	19.501	2.	0.1	964.49
23081	19.593	1.7273	0.1	944.06
23082	19.501	1.8182	0.1	964.68
23083	19.593	1.5455	0.1	944.32
23084	19.501	1.6364	0.1	964.92
23085	19.593	1.3636	0.1	944.67
23086	19.501	1.4545	0.1	965.24
23087	19.593	1.1818	0.1	945.12
23088	19.501	1.2727	0.1	965.67
23089	19.593	1.	0.1	945.71
23090	19.501	1.0909	0.1	966.2
23091	19.593	0.81818	0.1	946.44
23092	19.501	0.90909	0.1	966.88
23093	19.593	0.63636	0.1	947.35
23094	19.501	0.72727	0.1	967.71
23095	19.593	0.45455	0.1	948.54
23096	19.501	0.54545	0.1	968.73
23097	19.593	0.27273	0.1	951.22
23098	19.501	0.36364	0.1	970.12
23099	19.501	0.18182	0.1	974.23
23100	19.593	9.0909e-002	0.1	945.52
23101	19.409	5.7273	0.1	992.94
23102	19.318	5.8182	0.1	1016.
23103	19.409	5.9091	0.1	987.33
23104	19.409	5.5455	0.1	990.26
23105	19.318	5.6364	0.1	1011.9
23106	19.409	5.3636	0.1	989.05
23107	19.318	5.4545	0.1	1010.5
23108	19.409	5.1818	0.1	988.1
23109	19.318	5.2727	0.1	1009.5
23110	19.409	5.	0.1	987.33
23111	19.318	5.0909	0.1	1008.6
23112	19.409	4.8182	0.1	986.7
23113	19.318	4.9091	0.1	1007.9
23114	19.409	4.6364	0.1	986.2
23115	19.318	4.7273	0.1	1007.3
23116	19.409	4.4545	0.1	985.8
23117	19.318	4.5455	0.1	1006.8
23118	19.409	4.2727	0.1	985.5
23119	19.318	4.3636	0.1	1006.5
23120	19.409	4.0909	0.1	985.26
23121	19.318	4.1818	0.1	1006.2
23122	19.409	3.9091	0.1	985.09
23123	19.318	4.	0.1	1006.
23124	19.409	3.7273	0.1	984.96
23125	19.318	3.8182	0.1	1005.8
23126	19.409	3.5455	0.1	984.88
23127	19.318	3.6364	0.1	1005.7
23128	19.409	3.3636	0.1	984.82
23129	19.318	3.4545	0.1	1005.6
23130	19.409	3.1818	0.1	984.79
23131	19.318	3.2727	0.1	1005.6
23132	19.409	3.	0.1	984.78
23133	19.318	3.0909	0.1	1005.5
23134	19.409	2.8182	0.1	984.79
23135	19.318	2.9091	0.1	1005.5
23136	19.409	2.6364	0.1	984.82
23137	19.318	2.7273	0.1	1005.6
23138	19.409	2.4545	0.1	984.88
23139	19.318	2.5455	0.1	1005.6
23140	19.409	2.2727	0.1	984.96
23141	19.318	2.3636	0.1	1005.7
23142	19.409	2.0909	0.1	985.09
23143	19.318	2.1818	0.1	1005.8
23144	19.409	1.9091	0.1	985.26
23145	19.318	2.	0.1	1006.
23146	19.409	1.7273	0.1	985.5
23147	19.318	1.8182	0.1	1006.2
23148	19.409	1.5455	0.1	985.8
23149	19.318	1.6364	0.1	1006.5
23150	19.409	1.3636	0.1	986.2
23151	19.318	1.4545	0.1	1006.8
23152	19.409	1.1818	0.1	986.7
23153	19.318	1.2727	0.1	1007.3
23154	19.409	1.	0.1	987.33
23155	19.318	1.0909	0.1	1007.9
23156	19.409	0.81818	0.1	988.1
23157	19.318	0.90909	0.1	1008.6
23158	19.409	0.63636	0.1	989.05
23159	19.318	0.72727	0.1	1009.5
23160	19.409	0.45455	0.1	990.26
23161	19.318	0.54545	0.1	1010.5
23162	19.409	0.27273	0.1	992.94
23163	19.318	0.36364	0.1	1011.9
23164	19.318	0.18182	0.1	1016.
23165	19.409	9.0909e-002	0.1	987.33
23166	19.226	5.7273	0.1	1034.8
23167	19.134	5.8182	0.1	1058.
23168	19.226	5.9091	0.1	1029.3
23169	19.226	5.5455	0.1	1032.2
23170	19.134	5.6364	0.1	1053.9
23171	19.226	5.3636	0.1	1030.9
23172	19.134	5.4545	0.1	1052.5
23173	19.226	5.1818	0.1	1029.9
23174	19.134	5.2727	0.1	1051.4
23175	19.226	5.	0.1	1029.1
23176	19.134	5.0909	0.1	1050.5
23177	19.226	4.8182	0.1	1028.5
23178	19.134	4.9091	0.1	1049.8
23179	19.226	4.6364	0.1	1027.9
23180	19.134	4.7273	0.1	1049.1
23181	19.226	4.4545	0.1	1027.5
23182	19.134	4.5455	0.1	1048.6
23183	19.226	4.2727	0.1	1027.1
23184	19.134	4.3636	0.1	1048.2
23185	19.226	4.0909	0.1	1026.9
23186	19.134	4.1818	0.1	1047.9
23187	19.226	3.9091	0.1	1026.7
23188	19.134	4.	0.1	1047.7
23189	19.226	3.7273	0.1	1026.5
23190	19.134	3.8182	0.1	1047.5
23191	19.226	3.5455	0.1	1026.4
23192	19.134	3.6364	0.1	1047.3
23193	19.226	3.3636	0.1	1026.3
23194	19.134	3.4545	0.1	1047.2
23195	19.226	3.1818	0.1	1026.3
23196	19.134	3.2727	0.1	1047.2
23197	19.226	3.	0.1	1026.3
23198	19.134	3.0909	0.1	1047.1
23199	19.226	2.8182	0.1	1026.3
23200	19.134	2.9091	0.1	1047.1
23201	19.226	2.6364	0.1	1026.3
23202	19.134	2.7273	0.1	1047.2
23203	19.226	2.4545	0.1	1026.4
23204	19.134	2.5455	0.1	1047.2
23205	19.226	2.2727	0.1	1026.5
23206	19.134	2.3636	0.1	1047.3
23207	19.226	2.0909	0.1	1026.7
23208	19.134	2.1818	0.1	1047.5
23209	19.226	1.9091	0.1	1026.9
23210	19.134	2.	0.1	1047.7
23211	19.226	1.7273	0.1	1027.1
23212	19.134	1.8182	0.1	1047.9
23213	19.226	1.5455	0.1	1027.5
23214	19.134	1.6364	0.1	1048.2
23215	19.226	1.3636	0.1	1027.9
23216	19.134	1.4545	0.1	1048.6
23217	19.226	1.1818	0.1	1028.5
23218	19.134	1.2727	0.1	1049.1
23219	19.226	1.	0.1	1029.1
23220	19.134	1.0909	0.1	1049.8
23221	19.226	0.81818	0.1	1029.9
23222	19.134	0.90909	0.1	1050.5
23223	19.226	0.63636	0.1	1030.9
23224	19.134	0.72727	0.1	1051.4
23225	19.226	0.45455	0.1	1032.2
23226	19.134	0.54545	0.1	1052.5
23227	19.226	0.27273	0.1	1034.8
23228	19.134	0.36364	0.1	1053.9
23229	19.134	0.18182	0.1	1058.
23230	19.226	9.0909e-002	0.1	1029.3
23231	19.042	5.7273	0.1	1076.9
23232	18.95	5.8182	0.1	1100.1
23233	19.042	5.9091	0.1	1071.5
23234	19.042	5.5455	0.1	1074.2
23235	18.95	5.6364	0.1	1096.1
23236	19.042	5.3636	0.1	1073.
23237	18.95	5.4545	0.1	1094.6
23238	19.042	5.1818	0.1	1072.
23239	18.95	5.2727	0.1	1093.5
23240	19.042	5.	0.1	1071.1
23241	18.95	5.0909	0.1	1092.6
23242	19.042	4.8182	0.1	1070.4
23243	18.95	4.9091	0.1	1091.8
23244	19.042	4.6364	0.1	1069.8
23245	18.95	4.7273	0.1	1091.2
23246	19.042	4.4545	0.1	1069.4
23247	18.95	4.5455	0.1	1090.6
23248	19.042	4.2727	0.1	1069.
23249	18.95	4.3636	0.1	1090.2
23250	19.042	4.0909	0.1	1068.7
23251	18.95	4.1818	0.1	1089.8
23252	19.042	3.9091	0.1	1068.4
23253	18.95	4.	0.1	1089.5
23254	19.042	3.7273	0.1	1068.2
23255	18.95	3.8182	0.1	1089.3
23256	19.042	3.5455	0.1	1068.1
23257	18.95	3.6364	0.1	1089.2
23258	19.042	3.3636	0.1	1068.
23259	18.95	3.4545	0.1	1089.
23260	19.042	3.1818	0.1	1068.
23261	18.95	3.2727	0.1	1089.
23262	19.042	3.	0.1	1068.
23263	18.95	3.0909	0.1	1088.9
23264	19.042	2.8182	0.1	1068.
23265	18.95	2.9091	0.1	1088.9
23266	19.042	2.6364	0.1	1068.
23267	18.95	2.7273	0.1	1089.
23268	19.042	2.4545	0.1	1068.1
23269	18.95	2.5455	0.1	1089.
23270	19.042	2.2727	0.1	1068.2
23271	18.95	2.3636	0.1	1089.2
23272	19.042	2.0909	0.1	1068.4
23273	18.95	2.1818	0.1	1089.3
23274	19.042	1.9091	0.1	1068.7
23275	18.95	2.	0.1	1089.5
23276	19.042	1.7273	0.1	1069.
23277	18.95	1.8182	0.1	1089.8
23278	19.042	1.5455	0.1	1069.4
23279	18.95	1.6364	0.1	1090.2
23280	19.042	1.3636	0.1	1069.8
23281	18.95	1.4545	0.1	1090.6
23282	19.042	1.1818	0.1	1070.4
23283	18.95	1.2727	0.1	1091.2
23284	19.042	1.	0.1	1071.1
23285	18.95	1.0909	0.1	1091.8
23286	19.042	0.81818	0.1	1072.
23287	18.95	0.90909	0.1	1092.6
23288	19.042	0.63636	0.1	1073.
23289	18.95	0.72727	0.1	1093.5
23290	19.042	0.45455	0.1	1074.2
23291	18.95	0.54545	0.1	1094.6
23292	19.042	0.27273	0.1	1076.9
23293	18.95	0.36364	0.1	1096.1
23294	18.95	0.18182	0.1	1100.1
23295	19.042	9.0909e-002	0.1	1071.5
23296	18.858	5.7273	0.1	1119.1
23297	18.767	5.8182	0.1	1142.4
23298	18.858	5.9091	0.1	1113.8
23299	18.858	5.5455	0.1	1116.5
23300	18.767	5.6364	0.1	1138.4
23301	18.858	5.3636	0.1	1115.2
23302	18.767	5.4545	0.1	1137.
23303	18.858	5.1818	0.1	1114.2
23304	18.767	5.2727	0.1	1135.8
23305	18.858	5.	0.1	1113.3
23306	18.767	5.0909	0.1	1134.9
23307	18.858	4.8182	0.1	1112.5
23308	18.767	4.9091	0.1	1134.1
23309	18.858	4.6364	0.1	1111.9
23310	18.767	4.7273	0.1	1133.4
23311	18.858	4.4545	0.1	1111.4
23312	18.767	4.5455	0.1	1132.8
23313	18.858	4.2727	0.1	1111.
23314	18.767	4.3636	0.1	1132.3
23315	18.858	4.0909	0.1	1110.7
23316	18.767	4.1818	0.1	1131.9
23317	18.858	3.9091	0.1	1110.4
23318	18.767	4.	0.1	1131.6
23319	18.858	3.7273	0.1	1110.2
23320	18.767	3.8182	0.1	1131.4
23321	18.858	3.5455	0.1	1110.
23322	18.767	3.6364	0.1	1131.2
23323	18.858	3.3636	0.1	1109.9
23324	18.767	3.4545	0.1	1131.1
23325	18.858	3.1818	0.1	1109.9
23326	18.767	3.2727	0.1	1131.
23327	18.858	3.	0.1	1109.9
23328	18.767	3.0909	0.1	1130.9
23329	18.858	2.8182	0.1	1109.9
23330	18.767	2.9091	0.1	1130.9
23331	18.858	2.6364	0.1	1109.9
23332	18.767	2.7273	0.1	1131.
23333	18.858	2.4545	0.1	1110.
23334	18.767	2.5455	0.1	1131.1
23335	18.858	2.2727	0.1	1110.2
23336	18.767	2.3636	0.1	1131.2
23337	18.858	2.0909	0.1	1110.4
23338	18.767	2.1818	0.1	1131.4
23339	18.858	1.9091	0.1	1110.7
23340	18.767	2.	0.1	1131.6
23341	18.858	1.7273	0.1	1111.
23342	18.767	1.8182	0.1	1131.9
23343	18.858	1.5455	0.1	1111.4
23344	18.767	1.6364	0.1	1132.3
23345	18.858	1.3636	0.1	1111.9
23346	18.767	1.4545	0.1	1132.8
23347	18.858	1.1818	0.1	1112.5
23348	18.767	1.2727	0.1	1133.4
23349	18.858	1.	0.1	1113.3
23350	18.767	1.0909	0.1	1134.1
23351	18.858	0.81818	0.1	1114.2
23352	18.767	0.90909	0.1	1134.9
23353	18.858	0.63636	0.1	1115.2
23354	18.767	0.72727	0.1	1135.8
23355	18.858	0.45455	0.1	1116.5
23356	18.767	0.54545	0.1	1137.
23357	18.858	0.27273	0.1	1119.1
23358	18.767	0.36364	0.1	1138.4
23359	18.767	0.18182	0.1	1142.4
23360	18.858	9.0909e-002	0.1	1113.8
23361	18.675	5.7273	0.1	1161.5
23362	18.583	5.8182	0.1	1184.9
23363	18.675	5.9091	0.1	1156.3
23364	18.675	5.5455	0.1	1158.9
23365	18.583	5.6364	0.1	1180.9
23366	18.675	5.3636	0.1	1157.6
23367	18.583	5.4545	0.1	1179.5
23368	18.675	5.1818	0.1	1156.5
23369	18.583	5.2727	0.1	1178.3
23370	18.675	5.	0.1	1155.6
23371	18.583	5.0909	0.1	1177.3
23372	18.675	4.8182	0.1	1154.9
23373	18.583	4.9091	0.1	1176.5
23374	18.675	4.6364	0.1	1154.2
23375	18.583	4.7273	0.1	1175.8
23376	18.675	4.4545	0.1	1153.7
23377	18.583	4.5455	0.1	1175.2
23378	18.675	4.2727	0.1	1153.2
23379	18.583	4.3636	0.1	1174.7
23380	18.675	4.0909	0.1	1152.9
23381	18.583	4.1818	0.1	1174.3
23382	18.675	3.9091	0.1	1152.6
23383	18.583	4.	0.1	1173.9
23384	18.675	3.7273	0.1	1152.4
23385	18.583	3.8182	0.1	1173.7
23386	18.675	3.5455	0.1	1152.2
23387	18.583	3.6364	0.1	1173.5
23388	18.675	3.3636	0.1	1152.1
23389	18.583	3.4545	0.1	1173.3
23390	18.675	3.1818	0.1	1152.
23391	18.583	3.2727	0.1	1173.2
23392	18.675	3.	0.1	1152.
23393	18.583	3.0909	0.1	1173.2
23394	18.675	2.8182	0.1	1152.
23395	18.583	2.9091	0.1	1173.2
23396	18.675	2.6364	0.1	1152.1
23397	18.583	2.7273	0.1	1173.2
23398	18.675	2.4545	0.1	1152.2
23399	18.583	2.5455	0.1	1173.3
23400	18.675	2.2727	0.1	1152.4
23401	18.583	2.3636	0.1	1173.5
23402	18.675	2.0909	0.1	1152.6
23403	18.583	2.1818	0.1	1173.7
23404	18.675	1.9091	0.1	1152.9
23405	18.583	2.	0.1	1173.9
23406	18.675	1.7273	0.1	1153.2
23407	18.583	1.8182	0.1	1174.3
23408	18.675	1.5455	0.1	1153.7
23409	18.583	1.6364	0.1	1174.7
23410	18.675	1.3636	0.1	1154.2
23411	18.583	1.4545	0.1	1175.2
23412	18.675	1.1818	0.1	1154.9
23413	18.583	1.2727	0.1	1175.8
23414	18.675	1.	0.1	1155.6
23415	18.583	1.0909	0.1	1176.5
23416	18.675	0.81818	0.1	1156.5
23417	18.583	0.90909	0.1	1177.3
23418	18.675	0.63636	0.1	1157.6
23419	18.583	0.72727	0.1	1178.3
23420	18.675	0.45455	0.1	1158.9
23421	18.583	0.54545	0.1	1179.5
23422	18.675	0.27273	0.1	1161.5
23423	18.583	0.36364	0.1	1180.9
23424	18.583	0.18182	0.1	1184.9
23425	18.675	9.0909e-002	0.1	1156.3
23426	18.491	5.7273	0.1	1204.1
23427	18.399	5.8182	0.1	1227.5
23428	18.491	5.9091	0.1	1198.9
23429	18.491	5.5455	0.1	1201.5
23430	18.399	5.6364	0.1	1223.6
23431	18.491	5.3636	0.1	1200.2
23432	18.399	5.4545	0.1	1222.1
23433	18.491	5.1818	0.1	1199.1
23434	18.399	5.2727	0.1	1221.
23435	18.491	5.	0.1	1198.2
23436	18.399	5.0909	0.1	1220.
23437	18.491	4.8182	0.1	1197.4
23438	18.399	4.9091	0.1	1219.1
23439	18.491	4.6364	0.1	1196.7
23440	18.399	4.7273	0.1	1218.4
23441	18.491	4.4545	0.1	1196.1
23442	18.399	4.5455	0.1	1217.8
23443	18.491	4.2727	0.1	1195.7
23444	18.399	4.3636	0.1	1217.2
23445	18.491	4.0909	0.1	1195.3
23446	18.399	4.1818	0.1	1216.8
23447	18.491	3.9091	0.1	1195.
23448	18.399	4.	0.1	1216.4
23449	18.491	3.7273	0.1	1194.7
23450	18.399	3.8182	0.1	1216.1
23451	18.491	3.5455	0.1	1194.5
23452	18.399	3.6364	0.1	1215.9
23453	18.491	3.3636	0.1	1194.4
23454	18.399	3.4545	0.1	1215.8
23455	18.491	3.1818	0.1	1194.3
23456	18.399	3.2727	0.1	1215.7
23457	18.491	3.	0.1	1194.3
23458	18.399	3.0909	0.1	1215.6
23459	18.491	2.8182	0.1	1194.3
23460	18.399	2.9091	0.1	1215.6
23461	18.491	2.6364	0.1	1194.4
23462	18.399	2.7273	0.1	1215.7
23463	18.491	2.4545	0.1	1194.5
23464	18.399	2.5455	0.1	1215.8
23465	18.491	2.2727	0.1	1194.7
23466	18.399	2.3636	0.1	1215.9
23467	18.491	2.0909	0.1	1195.
23468	18.399	2.1818	0.1	1216.1
23469	18.491	1.9091	0.1	1195.3
23470	18.399	2.	0.1	1216.4
23471	18.491	1.7273	0.1	1195.7
23472	18.399	1.8182	0.1	1216.8
23473	18.491	1.5455	0.1	1196.1
23474	18.399	1.6364	0.1	1217.2
23475	18.491	1.3636	0.1	1196.7
23476	18.399	1.4545	0.1	1217.8
23477	18.491	1.1818	0.1	1197.4
23478	18.399	1.2727	0.1	1218.4
23479	18.491	1.	0.1	1198.2
23480	18.399	1.0909	0.1	1219.1
23481	18.491	0.81818	0.1	1199.1
23482	18.399	0.90909	0.1	1220.
23483	18.491	0.63636	0.1	1200.2
23484	18.399	0.72727	0.1	1221.
23485	18.491	0.45455	0.1	1201.5
23486	18.399	0.54545	0.1	1222.1
23487	18.491	0.27273	0.1	1204.1
23488	18.399	0.36364	0.1	1223.6
23489	18.399	0.18182	0.1	1227.5
23490	18.491	9.0909e-002	0.1	1198.9
23491	18.308	5.7273	0.1	1246.9
23492	18.216	5.8182	0.1	1270.4
23493	18.308	5.9091	0.1	1241.8
23494	18.308	5.5455	0.1	1244.2
23495	18.216	5.6364	0.1	1266.5
23496	18.308	5.3636	0.1	1242.9
23497	18.216	5.4545	0.1	1265.
23498	18.308	5.1818	0.1	1241.8
23499	18.216	5.2727	0.1	1263.8
23500	18.308	5.	0.1	1240.9
23501	18.216	5.0909	0.1	1262.8
23502	18.308	4.8182	0.1	1240.1
23503	18.216	4.9091	0.1	1261.9
23504	18.308	4.6364	0.1	1239.4
23505	18.216	4.7273	0.1	1261.2
23506	18.308	4.4545	0.1	1238.8
23507	18.216	4.5455	0.1	1260.5
23508	18.308	4.2727	0.1	1238.3
23509	18.216	4.3636	0.1	1260.
23510	18.308	4.0909	0.1	1237.9
23511	18.216	4.1818	0.1	1259.5
23512	18.308	3.9091	0.1	1237.6
23513	18.216	4.	0.1	1259.1
23514	18.308	3.7273	0.1	1237.3
23515	18.216	3.8182	0.1	1258.8
23516	18.308	3.5455	0.1	1237.1
23517	18.216	3.6364	0.1	1258.6
23518	18.308	3.3636	0.1	1237.
23519	18.216	3.4545	0.1	1258.4
23520	18.308	3.1818	0.1	1236.9
23521	18.216	3.2727	0.1	1258.3
23522	18.308	3.	0.1	1236.9
23523	18.216	3.0909	0.1	1258.3
23524	18.308	2.8182	0.1	1236.9
23525	18.216	2.9091	0.1	1258.3
23526	18.308	2.6364	0.1	1237.
23527	18.216	2.7273	0.1	1258.3
23528	18.308	2.4545	0.1	1237.1
23529	18.216	2.5455	0.1	1258.4
23530	18.308	2.2727	0.1	1237.3
23531	18.216	2.3636	0.1	1258.6
23532	18.308	2.0909	0.1	1237.6
23533	18.216	2.1818	0.1	1258.8
23534	18.308	1.9091	0.1	1237.9
23535	18.216	2.	0.1	1259.1
23536	18.308	1.7273	0.1	1238.3
23537	18.216	1.8182	0.1	1259.5
23538	18.308	1.5455	0.1	1238.8
23539	18.216	1.6364	0.1	1260.
23540	18.308	1.3636	0.1	1239.4
23541	18.216	1.4545	0.1	1260.5
23542	18.308	1.1818	0.1	1240.1
23543	18.216	1.2727	0.1	1261.2
23544	18.308	1.	0.1	1240.9
23545	18.216	1.0909	0.1	1261.9
23546	18.308	0.81818	0.1	1241.8
23547	18.216	0.90909	0.1	1262.8
23548	18.308	0.63636	0.1	1242.9
23549	18.216	0.72727	0.1	1263.8
23550	18.308	0.45455	0.1	1244.2
23551	18.216	0.54545	0.1	1265.
23552	18.308	0.27273	0.1	1246.9
23553	18.216	0.36364	0.1	1266.5
23554	18.216	0.18182	0.1	1270.4
23555	18.308	9.0909e-002	0.1	1241.8
23556	18.124	5.7273	0.1	1289.8
23557	18.032	5.8182	0.1	1313.4
23558	18.124	5.9091	0.1	1284.8
23559	18.124	5.5455	0.1	1287.2
23560	18.032	5.6364	0.1	1309.5
23561	18.124	5.3636	0.1	1285.9
23562	18.032	5.4545	0.1	1308.
23563	18.124	5.1818	0.1	1284.8
23564	18.032	5.2727	0.1	1306.9
23565	18.124	5.	0.1	1283.8
23566	18.032	5.0909	0.1	1305.8
23567	18.124	4.8182	0.1	1283.
23568	18.032	4.9091	0.1	1304.9
23569	18.124	4.6364	0.1	1282.3
23570	18.032	4.7273	0.1	1304.2
23571	18.124	4.4545	0.1	1281.7
23572	18.032	4.5455	0.1	1303.5
23573	18.124	4.2727	0.1	1281.1
23574	18.032	4.3636	0.1	1302.9
23575	18.124	4.0909	0.1	1280.7
23576	18.032	4.1818	0.1	1302.4
23577	18.124	3.9091	0.1	1280.4
23578	18.032	4.	0.1	1302.
23579	18.124	3.7273	0.1	1280.1
23580	18.032	3.8182	0.1	1301.7
23581	18.124	3.5455	0.1	1279.9
23582	18.032	3.6364	0.1	1301.5
23583	18.124	3.3636	0.1	1279.7
23584	18.032	3.4545	0.1	1301.3
23585	18.124	3.1818	0.1	1279.6
23586	18.032	3.2727	0.1	1301.2
23587	18.124	3.	0.1	1279.6
23588	18.032	3.0909	0.1	1301.1
23589	18.124	2.8182	0.1	1279.6
23590	18.032	2.9091	0.1	1301.1
23591	18.124	2.6364	0.1	1279.7
23592	18.032	2.7273	0.1	1301.2
23593	18.124	2.4545	0.1	1279.9
23594	18.032	2.5455	0.1	1301.3
23595	18.124	2.2727	0.1	1280.1
23596	18.032	2.3636	0.1	1301.5
23597	18.124	2.0909	0.1	1280.4
23598	18.032	2.1818	0.1	1301.7
23599	18.124	1.9091	0.1	1280.7
23600	18.032	2.	0.1	1302.
23601	18.124	1.7273	0.1	1281.1
23602	18.032	1.8182	0.1	1302.4
23603	18.124	1.5455	0.1	1281.7
23604	18.032	1.6364	0.1	1302.9
23605	18.124	1.3636	0.1	1282.3
23606	18.032	1.4545	0.1	1303.5
23607	18.124	1.1818	0.1	1283.
23608	18.032	1.2727	0.1	1304.2
23609	18.124	1.	0.1	1283.8
23610	18.032	1.0909	0.1	1304.9
23611	18.124	0.81818	0.1	1284.8
23612	18.032	0.90909	0.1	1305.8
23613	18.124	0.63636	0.1	1285.9
23614	18.032	0.72727	0.1	1306.9
23615	18.124	0.45455	0.1	1287.2
23616	18.032	0.54545	0.1	1308.
23617	18.124	0.27273	0.1	1289.8
23618	18.032	0.36364	0.1	1309.5
23619	18.032	0.18182	0.1	1313.4
23620	18.124	9.0909e-002	0.1	1284.8
23621	17.94	5.7273	0.1	1332.9
23622	17.849	5.8182	0.1	1356.6
23623	17.94	5.9091	0.1	1328.
23624	17.94	5.5455	0.1	1330.3
23625	17.849	5.6364	0.1	1352.7
23626	17.94	5.3636	0.1	1329.
23627	17.849	5.4545	0.1	1351.3
23628	17.94	5.1818	0.1	1327.9
23629	17.849	5.2727	0.1	1350.1
23630	17.94	5.	0.1	1326.9
23631	17.849	5.0909	0.1	1349.1
23632	17.94	4.8182	0.1	1326.1
23633	17.849	4.9091	0.1	1348.1
23634	17.94	4.6364	0.1	1325.3
23635	17.849	4.7273	0.1	1347.3
23636	17.94	4.4545	0.1	1324.7
23637	17.849	4.5455	0.1	1346.7
23638	17.94	4.2727	0.1	1324.2
23639	17.849	4.3636	0.1	1346.1
23640	17.94	4.0909	0.1	1323.7
23641	17.849	4.1818	0.1	1345.6
23642	17.94	3.9091	0.1	1323.4
23643	17.849	4.	0.1	1345.1
23644	17.94	3.7273	0.1	1323.1
23645	17.849	3.8182	0.1	1344.8
23646	17.94	3.5455	0.1	1322.8
23647	17.849	3.6364	0.1	1344.6
23648	17.94	3.3636	0.1	1322.7
23649	17.849	3.4545	0.1	1344.4
23650	17.94	3.1818	0.1	1322.6
23651	17.849	3.2727	0.1	1344.2
23652	17.94	3.	0.1	1322.6
23653	17.849	3.0909	0.1	1344.2
23654	17.94	2.8182	0.1	1322.6
23655	17.849	2.9091	0.1	1344.2
23656	17.94	2.6364	0.1	1322.7
23657	17.849	2.7273	0.1	1344.2
23658	17.94	2.4545	0.1	1322.8
23659	17.849	2.5455	0.1	1344.4
23660	17.94	2.2727	0.1	1323.1
23661	17.849	2.3636	0.1	1344.6
23662	17.94	2.0909	0.1	1323.4
23663	17.849	2.1818	0.1	1344.8
23664	17.94	1.9091	0.1	1323.7
23665	17.849	2.	0.1	1345.1
23666	17.94	1.7273	0.1	1324.2
23667	17.849	1.8182	0.1	1345.6
23668	17.94	1.5455	0.1	1324.7
23669	17.849	1.6364	0.1	1346.1
23670	17.94	1.3636	0.1	1325.3
23671	17.849	1.4545	0.1	1346.7
23672	17.94	1.1818	0.1	1326.1
23673	17.849	1.2727	0.1	1347.3
23674	17.94	1.	0.1	1326.9
23675	17.849	1.0909	0.1	1348.1
23676	17.94	0.81818	0.1	1327.9
23677	17.849	0.90909	0.1	1349.1
23678	17.94	0.63636	0.1	1329.
23679	17.849	0.72727	0.1	1350.1
23680	17.94	0.45455	0.1	1330.3
23681	17.849	0.54545	0.1	1351.3
23682	17.94	0.27273	0.1	1332.9
23683	17.849	0.36364	0.1	1352.7
23684	17.849	0.18182	0.1	1356.6
23685	17.94	9.0909e-002	0.1	1328.
23686	17.757	5.7273	0.1	1376.2
23687	17.665	5.8182	0.1	1400.
23688	17.757	5.9091	0.1	1371.4
23689	17.757	5.5455	0.1	1373.6
23690	17.665	5.6364	0.1	1396.2
23691	17.757	5.3636	0.1	1372.3
23692	17.665	5.4545	0.1	1394.7
23693	17.757	5.1818	0.1	1371.2
23694	17.665	5.2727	0.1	1393.5
23695	17.757	5.	0.1	1370.2
23696	17.665	5.0909	0.1	1392.5
23697	17.757	4.8182	0.1	1369.4
23698	17.665	4.9091	0.1	1391.5
23699	17.757	4.6364	0.1	1368.6
23700	17.665	4.7273	0.1	1390.7
23701	17.757	4.4545	0.1	1368.
23702	17.665	4.5455	0.1	1390.
23703	17.757	4.2727	0.1	1367.4
23704	17.665	4.3636	0.1	1389.4
23705	17.757	4.0909	0.1	1366.9
23706	17.665	4.1818	0.1	1388.9
23707	17.757	3.9091	0.1	1366.6
23708	17.665	4.	0.1	1388.5
23709	17.757	3.7273	0.1	1366.3
23710	17.665	3.8182	0.1	1388.1
23711	17.757	3.5455	0.1	1366.
23712	17.665	3.6364	0.1	1387.8
23713	17.757	3.3636	0.1	1365.9
23714	17.665	3.4545	0.1	1387.6
23715	17.757	3.1818	0.1	1365.8
23716	17.665	3.2727	0.1	1387.5
23717	17.757	3.	0.1	1365.7
23718	17.665	3.0909	0.1	1387.4
23719	17.757	2.8182	0.1	1365.8
23720	17.665	2.9091	0.1	1387.4
23721	17.757	2.6364	0.1	1365.9
23722	17.665	2.7273	0.1	1387.5
23723	17.757	2.4545	0.1	1366.
23724	17.665	2.5455	0.1	1387.6
23725	17.757	2.2727	0.1	1366.3
23726	17.665	2.3636	0.1	1387.8
23727	17.757	2.0909	0.1	1366.6
23728	17.665	2.1818	0.1	1388.1
23729	17.757	1.9091	0.1	1366.9
23730	17.665	2.	0.1	1388.5
23731	17.757	1.7273	0.1	1367.4
23732	17.665	1.8182	0.1	1388.9
23733	17.757	1.5455	0.1	1368.
23734	17.665	1.6364	0.1	1389.4
23735	17.757	1.3636	0.1	1368.6
23736	17.665	1.4545	0.1	1390.
23737	17.757	1.1818	0.1	1369.4
23738	17.665	1.2727	0.1	1390.7
23739	17.757	1.	0.1	1370.2
23740	17.665	1.0909	0.1	1391.5
23741	17.757	0.81818	0.1	1371.2
23742	17.665	0.90909	0.1	1392.5
23743	17.757	0.63636	0.1	1372.3
23744	17.665	0.72727	0.1	1393.5
23745	17.757	0.45455	0.1	1373.6
23746	17.665	0.54545	0.1	1394.7
23747	17.757	0.27273	0.1	1376.2
23748	17.665	0.36364	0.1	1396.2
23749	17.665	0.18182	0.1	1400.
23750	17.757	9.0909e-002	0.1	1371.4
23751	17.573	5.7273	0.1	1419.7
23752	17.481	5.8182	0.1	1443.5
23753	17.573	5.9091	0.1	1415.
23754	17.573	5.5455	0.1	1417.2
23755	17.481	5.6364	0.1	1439.8
23756	17.573	5.3636	0.1	1415.8
23757	17.481	5.4545	0.1	1438.3
23758	17.573	5.1818	0.1	1414.7
23759	17.481	5.2727	0.1	1437.1
23760	17.573	5.	0.1	1413.7
23761	17.481	5.0909	0.1	1436.
23762	17.573	4.8182	0.1	1412.8
23763	17.481	4.9091	0.1	1435.1
23764	17.573	4.6364	0.1	1412.1
23765	17.481	4.7273	0.1	1434.3
23766	17.573	4.4545	0.1	1411.4
23767	17.481	4.5455	0.1	1433.6
23768	17.573	4.2727	0.1	1410.8
23769	17.481	4.3636	0.1	1432.9
23770	17.573	4.0909	0.1	1410.4
23771	17.481	4.1818	0.1	1432.4
23772	17.573	3.9091	0.1	1410.
23773	17.481	4.	0.1	1432.
23774	17.573	3.7273	0.1	1409.7
23775	17.481	3.8182	0.1	1431.6
23776	17.573	3.5455	0.1	1409.4
23777	17.481	3.6364	0.1	1431.3
23778	17.573	3.3636	0.1	1409.2
23779	17.481	3.4545	0.1	1431.1
23780	17.573	3.1818	0.1	1409.1
23781	17.481	3.2727	0.1	1431.
23782	17.573	3.	0.1	1409.1
23783	17.481	3.0909	0.1	1430.9
23784	17.573	2.8182	0.1	1409.1
23785	17.481	2.9091	0.1	1430.9
23786	17.573	2.6364	0.1	1409.2
23787	17.481	2.7273	0.1	1431.
23788	17.573	2.4545	0.1	1409.4
23789	17.481	2.5455	0.1	1431.1
23790	17.573	2.2727	0.1	1409.7
23791	17.481	2.3636	0.1	1431.3
23792	17.573	2.0909	0.1	1410.
23793	17.481	2.1818	0.1	1431.6
23794	17.573	1.9091	0.1	1410.4
23795	17.481	2.	0.1	1432.
23796	17.573	1.7273	0.1	1410.8
23797	17.481	1.8182	0.1	1432.4
23798	17.573	1.5455	0.1	1411.4
23799	17.481	1.6364	0.1	1432.9
23800	17.573	1.3636	0.1	1412.1
23801	17.481	1.4545	0.1	1433.6
23802	17.573	1.1818	0.1	1412.8
23803	17.481	1.2727	0.1	1434.3
23804	17.573	1.	0.1	1413.7
23805	17.481	1.0909	0.1	1435.1
23806	17.573	0.81818	0.1	1414.7
23807	17.481	0.90909	0.1	1436.
23808	17.573	0.63636	0.1	1415.8
23809	17.481	0.72727	0.1	1437.1
23810	17.573	0.45455	0.1	1417.2
23811	17.481	0.54545	0.1	1438.3
23812	17.573	0.27273	0.1	1419.7
23813	17.481	0.36364	0.1	1439.8
23814	17.481	0.18182	0.1	1443.5
23815	17.573	9.0909e-002	0.1	1415.
23816	17.389	5.7273	0.1	1463.4
23817	17.298	5.8182	0.1	1487.3
23818	17.389	5.9091	0.1	1458.7
23819	17.389	5.5455	0.1	1460.9
23820	17.298	5.6364	0.1	1483.6
23821	17.389	5.3636	0.1	1459.5
23822	17.298	5.4545	0.1	1482.1
23823	17.389	5.1818	0.1	1458.4
23824	17.298	5.2727	0.1	1480.9
23825	17.389	5.	0.1	1457.4
23826	17.298	5.0909	0.1	1479.8
23827	17.389	4.8182	0.1	1456.5
23828	17.298	4.9091	0.1	1478.9
23829	17.389	4.6364	0.1	1455.7
23830	17.298	4.7273	0.1	1478.1
23831	17.389	4.4545	0.1	1455.1
23832	17.298	4.5455	0.1	1477.3
23833	17.389	4.2727	0.1	1454.5
23834	17.298	4.3636	0.1	1476.7
23835	17.389	4.0909	0.1	1454.
23836	17.298	4.1818	0.1	1476.1
23837	17.389	3.9091	0.1	1453.6
23838	17.298	4.	0.1	1475.7
23839	17.389	3.7273	0.1	1453.3
23840	17.298	3.8182	0.1	1475.3
23841	17.389	3.5455	0.1	1453.
23842	17.298	3.6364	0.1	1475.
23843	17.389	3.3636	0.1	1452.8
23844	17.298	3.4545	0.1	1474.8
23845	17.389	3.1818	0.1	1452.7
23846	17.298	3.2727	0.1	1474.7
23847	17.389	3.	0.1	1452.7
23848	17.298	3.0909	0.1	1474.6
23849	17.389	2.8182	0.1	1452.7
23850	17.298	2.9091	0.1	1474.6
23851	17.389	2.6364	0.1	1452.8
23852	17.298	2.7273	0.1	1474.7
23853	17.389	2.4545	0.1	1453.
23854	17.298	2.5455	0.1	1474.8
23855	17.389	2.2727	0.1	1453.3
23856	17.298	2.3636	0.1	1475.
23857	17.389	2.0909	0.1	1453.6
23858	17.298	2.1818	0.1	1475.3
23859	17.389	1.9091	0.1	1454.
23860	17.298	2.	0.1	1475.7
23861	17.389	1.7273	0.1	1454.5
23862	17.298	1.8182	0.1	1476.1
23863	17.389	1.5455	0.1	1455.1
23864	17.298	1.6364	0.1	1476.7
23865	17.389	1.3636	0.1	1455.7
23866	17.298	1.4545	0.1	1477.3
23867	17.389	1.1818	0.1	1456.5
23868	17.298	1.2727	0.1	1478.1
23869	17.389	1.	0.1	1457.4
23870	17.298	1.0909	0.1	1478.9
23871	17.389	0.81818	0.1	1458.4
23872	17.298	0.90909	0.1	1479.8
23873	17.389	0.63636	0.1	1459.5
23874	17.298	0.72727	0.1	1480.9
23875	17.389	0.45455	0.1	1460.9
23876	17.298	0.54545	0.1	1482.1
23877	17.389	0.27273	0.1	1463.4
23878	17.298	0.36364	0.1	1483.6
23879	17.298	0.18182	0.1	1487.3
23880	17.389	9.0909e-002	0.1	1458.7
23881	17.206	5.7273	0.1	1507.3
23882	17.114	5.8182	0.1	1531.2
23883	17.206	5.9091	0.1	1502.7
23884	17.206	5.5455	0.1	1504.8
23885	17.114	5.6364	0.1	1527.5
23886	17.206	5.3636	0.1	1503.4
23887	17.114	5.4545	0.1	1526.1
23888	17.206	5.1818	0.1	1502.3
23889	17.114	5.2727	0.1	1524.9
23890	17.206	5.	0.1	1501.3
23891	17.114	5.0909	0.1	1523.8
23892	17.206	4.8182	0.1	1500.4
23893	17.114	4.9091	0.1	1522.9
23894	17.206	4.6364	0.1	1499.6
23895	17.114	4.7273	0.1	1522.
23896	17.206	4.4545	0.1	1498.9
23897	17.114	4.5455	0.1	1521.3
23898	17.206	4.2727	0.1	1498.3
23899	17.114	4.3636	0.1	1520.6
23900	17.206	4.0909	0.1	1497.8
23901	17.114	4.1818	0.1	1520.1
23902	17.206	3.9091	0.1	1497.4
23903	17.114	4.	0.1	1519.6
23904	17.206	3.7273	0.1	1497.1
23905	17.114	3.8182	0.1	1519.2
23906	17.206	3.5455	0.1	1496.8
23907	17.114	3.6364	0.1	1518.9
23908	17.206	3.3636	0.1	1496.6
23909	17.114	3.4545	0.1	1518.7
23910	17.206	3.1818	0.1	1496.5
23911	17.114	3.2727	0.1	1518.6
23912	17.206	3.	0.1	1496.5
23913	17.114	3.0909	0.1	1518.5
23914	17.206	2.8182	0.1	1496.5
23915	17.114	2.9091	0.1	1518.5
23916	17.206	2.6364	0.1	1496.6
23917	17.114	2.7273	0.1	1518.6
23918	17.206	2.4545	0.1	1496.8
23919	17.114	2.5455	0.1	1518.7
23920	17.206	2.2727	0.1	1497.1
23921	17.114	2.3636	0.1	1518.9
23922	17.206	2.0909	0.1	1497.4
23923	17.114	2.1818	0.1	1519.2
23924	17.206	1.9091	0.1	1497.8
23925	17.114	2.	0.1	1519.6
23926	17.206	1.7273	0.1	1498.3
23927	17.114	1.8182	0.1	1520.1
23928	17.206	1.5455	0.1	1498.9
23929	17.114	1.6364	0.1	1520.6
23930	17.206	1.3636	0.1	1499.6
23931	17.114	1.4545	0.1	1521.3
23932	17.206	1.1818	0.1	1500.4
23933	17.114	1.2727	0.1	1522.
23934	17.206	1.	0.1	1501.3
23935	17.114	1.0909	0.1	1522.9
23936	17.206	0.81818	0.1	1502.3
23937	17.114	0.90909	0.1	1523.8
23938	17.206	0.63636	0.1	1503.4
23939	17.114	0.72727	0.1	1524.9
23940	17.206	0.45455	0.1	1504.8
23941	17.114	0.54545	0.1	1526.1
23942	17.206	0.27273	0.1	1507.3
23943	17.114	0.36364	0.1	1527.5
23944	17.114	0.18182	0.1	1531.2
23945	17.206	9.0909e-002	0.1	1502.7
23946	17.022	5.7273	0.1	1551.3
23947	16.93	5.8182	0.1	1575.4
23948	17.022	5.9091	0.1	1546.8
23949	17.022	5.5455	0.1	1548.8
23950	16.93	5.6364	0.1	1571.7
23951	17.022	5.3636	0.1	1547.5
23952	16.93	5.4545	0.1	1570.3
23953	17.022	5.1818	0.1	1546.4
23954	16.93	5.2727	0.1	1569.1
23955	17.022	5.	0.1	1545.4
23956	16.93	5.0909	0.1	1568.
23957	17.022	4.8182	0.1	1544.4
23958	16.93	4.9091	0.1	1567.
23959	17.022	4.6364	0.1	1543.6
23960	16.93	4.7273	0.1	1566.2
23961	17.022	4.4545	0.1	1542.9
23962	16.93	4.5455	0.1	1565.4
23963	17.022	4.2727	0.1	1542.3
23964	16.93	4.3636	0.1	1564.8
23965	17.022	4.0909	0.1	1541.8
23966	16.93	4.1818	0.1	1564.2
23967	17.022	3.9091	0.1	1541.4
23968	16.93	4.	0.1	1563.7
23969	17.022	3.7273	0.1	1541.1
23970	16.93	3.8182	0.1	1563.3
23971	17.022	3.5455	0.1	1540.8
23972	16.93	3.6364	0.1	1563.
23973	17.022	3.3636	0.1	1540.6
23974	16.93	3.4545	0.1	1562.8
23975	17.022	3.1818	0.1	1540.5
23976	16.93	3.2727	0.1	1562.6
23977	17.022	3.	0.1	1540.5
23978	16.93	3.0909	0.1	1562.6
23979	17.022	2.8182	0.1	1540.5
23980	16.93	2.9091	0.1	1562.6
23981	17.022	2.6364	0.1	1540.6
23982	16.93	2.7273	0.1	1562.6
23983	17.022	2.4545	0.1	1540.8
23984	16.93	2.5455	0.1	1562.8
23985	17.022	2.2727	0.1	1541.1
23986	16.93	2.3636	0.1	1563.
23987	17.022	2.0909	0.1	1541.4
23988	16.93	2.1818	0.1	1563.3
23989	17.022	1.9091	0.1	1541.8
23990	16.93	2.	0.1	1563.7
23991	17.022	1.7273	0.1	1542.3
23992	16.93	1.8182	0.1	1564.2
23993	17.022	1.5455	0.1	1542.9
23994	16.93	1.6364	0.1	1564.8
23995	17.022	1.3636	0.1	1543.6
23996	16.93	1.4545	0.1	1565.4
23997	17.022	1.1818	0.1	1544.4
23998	16.93	1.2727	0.1	1566.2
23999	17.022	1.	0.1	1545.4
24000	16.93	1.0909	0.1	1567.
24001	17.022	0.81818	0.1	1546.4
24002	16.93	0.90909	0.1	1568.
24003	17.022	0.63636	0.1	1547.5
24004	16.93	0.72727	0.1	1569.1
24005	17.022	0.45455	0.1	1548.8
24006	16.93	0.54545	0.1	1570.3
24007	17.022	0.27273	0.1	1551.3
24008	16.93	0.36364	0.1	1571.7
24009	16.93	0.18182	0.1	1575.4
24010	17.022	9.0909e-002	0.1	1546.8
24011	16.839	5.7273	0.1	1595.6
24012	16.747	5.8182	0.1	1619.7
24013	16.839	5.9091	0.1	1591.2
24014	16.839	5.5455	0.1	1593.1
24015	16.747	5.6364	0.1	1616.1
24016	16.839	5.3636	0.1	1591.8
24017	16.747	5.4545	0.1	1614.6
24018	16.839	5.1818	0.1	1590.6
24019	16.747	5.2727	0.1	1613.4
24020	16.839	5.	0.1	1589.6
24021	16.747	5.0909	0.1	1612.4
24022	16.839	4.8182	0.1	1588.7
24023	16.747	4.9091	0.1	1611.4
24024	16.839	4.6364	0.1	1587.9
24025	16.747	4.7273	0.1	1610.5
24026	16.839	4.4545	0.1	1587.2
24027	16.747	4.5455	0.1	1609.8
24028	16.839	4.2727	0.1	1586.6
24029	16.747	4.3636	0.1	1609.1
24030	16.839	4.0909	0.1	1586.1
24031	16.747	4.1818	0.1	1608.5
24032	16.839	3.9091	0.1	1585.6
24033	16.747	4.	0.1	1608.
24034	16.839	3.7273	0.1	1585.3
24035	16.747	3.8182	0.1	1607.6
24036	16.839	3.5455	0.1	1585.
24037	16.747	3.6364	0.1	1607.3
24038	16.839	3.3636	0.1	1584.8
24039	16.747	3.4545	0.1	1607.1
24040	16.839	3.1818	0.1	1584.7
24041	16.747	3.2727	0.1	1606.9
24042	16.839	3.	0.1	1584.6
24043	16.747	3.0909	0.1	1606.9
24044	16.839	2.8182	0.1	1584.7
24045	16.747	2.9091	0.1	1606.9
24046	16.839	2.6364	0.1	1584.8
24047	16.747	2.7273	0.1	1606.9
24048	16.839	2.4545	0.1	1585.
24049	16.747	2.5455	0.1	1607.1
24050	16.839	2.2727	0.1	1585.3
24051	16.747	2.3636	0.1	1607.3
24052	16.839	2.0909	0.1	1585.6
24053	16.747	2.1818	0.1	1607.6
24054	16.839	1.9091	0.1	1586.1
24055	16.747	2.	0.1	1608.
24056	16.839	1.7273	0.1	1586.6
24057	16.747	1.8182	0.1	1608.5
24058	16.839	1.5455	0.1	1587.2
24059	16.747	1.6364	0.1	1609.1
24060	16.839	1.3636	0.1	1587.9
24061	16.747	1.4545	0.1	1609.8
24062	16.839	1.1818	0.1	1588.7
24063	16.747	1.2727	0.1	1610.5
24064	16.839	1.	0.1	1589.6
24065	16.747	1.0909	0.1	1611.4
24066	16.839	0.81818	0.1	1590.6
24067	16.747	0.90909	0.1	1612.4
24068	16.839	0.63636	0.1	1591.8
24069	16.747	0.72727	0.1	1613.4
24070	16.839	0.45455	0.1	1593.1
24071	16.747	0.54545	0.1	1614.6
24072	16.839	0.27273	0.1	1595.6
24073	16.747	0.36364	0.1	1616.1
24074	16.747	0.18182	0.1	1619.7
24075	16.839	9.0909e-002	0.1	1591.2
24076	16.655	5.7273	0.1	1640.1
24077	16.563	5.8182	0.1	1664.2
24078	16.655	5.9091	0.1	1635.7
24079	16.655	5.5455	0.1	1637.6
24080	16.563	5.6364	0.1	1660.7
24081	16.655	5.3636	0.1	1636.3
24082	16.563	5.4545	0.1	1659.2
24083	16.655	5.1818	0.1	1635.1
24084	16.563	5.2727	0.1	1658.
24085	16.655	5.	0.1	1634.1
24086	16.563	5.0909	0.1	1656.9
24087	16.655	4.8182	0.1	1633.2
24088	16.563	4.9091	0.1	1655.9
24089	16.655	4.6364	0.1	1632.3
24090	16.563	4.7273	0.1	1655.1
24091	16.655	4.4545	0.1	1631.6
24092	16.563	4.5455	0.1	1654.3
24093	16.655	4.2727	0.1	1631.
24094	16.563	4.3636	0.1	1653.6
24095	16.655	4.0909	0.1	1630.5
24096	16.563	4.1818	0.1	1653.
24097	16.655	3.9091	0.1	1630.
24098	16.563	4.	0.1	1652.6
24099	16.655	3.7273	0.1	1629.7
24100	16.563	3.8182	0.1	1652.2
24101	16.655	3.5455	0.1	1629.4
24102	16.563	3.6364	0.1	1651.8
24103	16.655	3.3636	0.1	1629.2
24104	16.563	3.4545	0.1	1651.6
24105	16.655	3.1818	0.1	1629.1
24106	16.563	3.2727	0.1	1651.4
24107	16.655	3.	0.1	1629.
24108	16.563	3.0909	0.1	1651.4
24109	16.655	2.8182	0.1	1629.1
24110	16.563	2.9091	0.1	1651.4
24111	16.655	2.6364	0.1	1629.2
24112	16.563	2.7273	0.1	1651.4
24113	16.655	2.4545	0.1	1629.4
24114	16.563	2.5455	0.1	1651.6
24115	16.655	2.2727	0.1	1629.7
24116	16.563	2.3636	0.1	1651.8
24117	16.655	2.0909	0.1	1630.
24118	16.563	2.1818	0.1	1652.2
24119	16.655	1.9091	0.1	1630.5
24120	16.563	2.	0.1	1652.6
24121	16.655	1.7273	0.1	1631.
24122	16.563	1.8182	0.1	1653.
24123	16.655	1.5455	0.1	1631.6
24124	16.563	1.6364	0.1	1653.6
24125	16.655	1.3636	0.1	1632.3
24126	16.563	1.4545	0.1	1654.3
24127	16.655	1.1818	0.1	1633.2
24128	16.563	1.2727	0.1	1655.1
24129	16.655	1.	0.1	1634.1
24130	16.563	1.0909	0.1	1655.9
24131	16.655	0.81818	0.1	1635.1
24132	16.563	0.90909	0.1	1656.9
24133	16.655	0.63636	0.1	1636.3
24134	16.563	0.72727	0.1	1658.
24135	16.655	0.45455	0.1	1637.6
24136	16.563	0.54545	0.1	1659.2
24137	16.655	0.27273	0.1	1640.1
24138	16.563	0.36364	0.1	1660.7
24139	16.563	0.18182	0.1	1664.2
24140	16.655	9.0909e-002	0.1	1635.7
24141	16.471	5.7273	0.1	1684.7
24142	16.38	5.8182	0.1	1709.
24143	16.471	5.9091	0.1	1680.4
24144	16.471	5.5455	0.1	1682.2
24145	16.38	5.6364	0.1	1705.4
24146	16.471	5.3636	0.1	1680.9
24147	16.38	5.4545	0.1	1704.
24148	16.471	5.1818	0.1	1679.8
24149	16.38	5.2727	0.1	1702.8
24150	16.471	5.	0.1	1678.7
24151	16.38	5.0909	0.1	1701.7
24152	16.471	4.8182	0.1	1677.8
24153	16.38	4.9091	0.1	1700.7
24154	16.471	4.6364	0.1	1677.
24155	16.38	4.7273	0.1	1699.8
24156	16.471	4.4545	0.1	1676.3
24157	16.38	4.5455	0.1	1699.
24158	16.471	4.2727	0.1	1675.6
24159	16.38	4.3636	0.1	1698.4
24160	16.471	4.0909	0.1	1675.1
24161	16.38	4.1818	0.1	1697.8
24162	16.471	3.9091	0.1	1674.6
24163	16.38	4.	0.1	1697.3
24164	16.471	3.7273	0.1	1674.3
24165	16.38	3.8182	0.1	1696.9
24166	16.471	3.5455	0.1	1674.
24167	16.38	3.6364	0.1	1696.5
24168	16.471	3.3636	0.1	1673.8
24169	16.38	3.4545	0.1	1696.3
24170	16.471	3.1818	0.1	1673.7
24171	16.38	3.2727	0.1	1696.1
24172	16.471	3.	0.1	1673.6
24173	16.38	3.0909	0.1	1696.1
24174	16.471	2.8182	0.1	1673.7
24175	16.38	2.9091	0.1	1696.1
24176	16.471	2.6364	0.1	1673.8
24177	16.38	2.7273	0.1	1696.1
24178	16.471	2.4545	0.1	1674.
24179	16.38	2.5455	0.1	1696.3
24180	16.471	2.2727	0.1	1674.3
24181	16.38	2.3636	0.1	1696.5
24182	16.471	2.0909	0.1	1674.6
24183	16.38	2.1818	0.1	1696.9
24184	16.471	1.9091	0.1	1675.1
24185	16.38	2.	0.1	1697.3
24186	16.471	1.7273	0.1	1675.6
24187	16.38	1.8182	0.1	1697.8
24188	16.471	1.5455	0.1	1676.3
24189	16.38	1.6364	0.1	1698.4
24190	16.471	1.3636	0.1	1677.
24191	16.38	1.4545	0.1	1699.
24192	16.471	1.1818	0.1	1677.8
24193	16.38	1.2727	0.1	1699.8
24194	16.471	1.	0.1	1678.7
24195	16.38	1.0909	0.1	1700.7
24196	16.471	0.81818	0.1	1679.8
24197	16.38	0.90909	0.1	1701.7
24198	16.471	0.63636	0.1	1680.9
24199	16.38	0.72727	0.1	1702.8
24200	16.471	0.45455	0.1	1682.2
24201	16.38	0.54545	0.1	1704.
24202	16.471	0.27273	0.1	1684.7
24203	16.38	0.36364	0.1	1705.4
24204	16.38	0.18182	0.1	1709.
24205	16.471	9.0909e-002	0.1	1680.4
24206	16.288	5.7273	0.1	1729.5
24207	16.196	5.8182	0.1	1753.9
24208	16.288	5.9091	0.1	1725.3
24209	16.288	5.5455	0.1	1727.1
24210	16.196	5.6364	0.1	1750.4
24211	16.288	5.3636	0.1	1725.8
24212	16.196	5.4545	0.1	1748.9
24213	16.288	5.1818	0.1	1724.6
24214	16.196	5.2727	0.1	1747.7
24215	16.288	5.	0.1	1723.6
24216	16.196	5.0909	0.1	1746.6
24217	16.288	4.8182	0.1	1722.7
24218	16.196	4.9091	0.1	1745.6
24219	16.288	4.6364	0.1	1721.8
24220	16.196	4.7273	0.1	1744.8
24221	16.288	4.4545	0.1	1721.1
24222	16.196	4.5455	0.1	1744.
24223	16.288	4.2727	0.1	1720.5
24224	16.196	4.3636	0.1	1743.3
24225	16.288	4.0909	0.1	1719.9
24226	16.196	4.1818	0.1	1742.7
24227	16.288	3.9091	0.1	1719.5
24228	16.196	4.	0.1	1742.2
24229	16.288	3.7273	0.1	1719.1
24230	16.196	3.8182	0.1	1741.8
24231	16.288	3.5455	0.1	1718.8
24232	16.196	3.6364	0.1	1741.4
24233	16.288	3.3636	0.1	1718.6
24234	16.196	3.4545	0.1	1741.2
24235	16.288	3.1818	0.1	1718.5
24236	16.196	3.2727	0.1	1741.
24237	16.288	3.	0.1	1718.4
24238	16.196	3.0909	0.1	1740.9
24239	16.288	2.8182	0.1	1718.5
24240	16.196	2.9091	0.1	1740.9
24241	16.288	2.6364	0.1	1718.6
24242	16.196	2.7273	0.1	1741.
24243	16.288	2.4545	0.1	1718.8
24244	16.196	2.5455	0.1	1741.2
24245	16.288	2.2727	0.1	1719.1
24246	16.196	2.3636	0.1	1741.4
24247	16.288	2.0909	0.1	1719.5
24248	16.196	2.1818	0.1	1741.8
24249	16.288	1.9091	0.1	1719.9
24250	16.196	2.	0.1	1742.2
24251	16.288	1.7273	0.1	1720.5
24252	16.196	1.8182	0.1	1742.7
24253	16.288	1.5455	0.1	1721.1
24254	16.196	1.6364	0.1	1743.3
24255	16.288	1.3636	0.1	1721.8
24256	16.196	1.4545	0.1	1744.
24257	16.288	1.1818	0.1	1722.7
24258	16.196	1.2727	0.1	1744.8
24259	16.288	1.	0.1	1723.6
24260	16.196	1.0909	0.1	1745.6
24261	16.288	0.81818	0.1	1724.6
24262	16.196	0.90909	0.1	1746.6
24263	16.288	0.63636	0.1	1725.8
24264	16.196	0.72727	0.1	1747.7
24265	16.288	0.45455	0.1	1727.1
24266	16.196	0.54545	0.1	1748.9
24267	16.288	0.27273	0.1	1729.5
24268	16.196	0.36364	0.1	1750.4
24269	16.196	0.18182	0.1	1753.9
24270	16.288	9.0909e-002	0.1	1725.3
24271	16.104	5.7273	0.1	1774.6
24272	16.012	5.8182	0.1	1799.
24273	16.104	5.9091	0.1	1770.4
24274	16.104	5.5455	0.1	1772.2
24275	16.012	5.6364	0.1	1795.5
24276	16.104	5.3636	0.1	1770.8
24277	16.012	5.4545	0.1	1794.1
24278	16.104	5.1818	0.1	1769.7
24279	16.012	5.2727	0.1	1792.9
24280	16.104	5.	0.1	1768.6
24281	16.012	5.0909	0.1	1791.8
24282	16.104	4.8182	0.1	1767.7
24283	16.012	4.9091	0.1	1790.8
24284	16.104	4.6364	0.1	1766.9
24285	16.012	4.7273	0.1	1789.9
24286	16.104	4.4545	0.1	1766.1
24287	16.012	4.5455	0.1	1789.1
24288	16.104	4.2727	0.1	1765.5
24289	16.012	4.3636	0.1	1788.4
24290	16.104	4.0909	0.1	1764.9
24291	16.012	4.1818	0.1	1787.8
24292	16.104	3.9091	0.1	1764.5
24293	16.012	4.	0.1	1787.3
24294	16.104	3.7273	0.1	1764.1
24295	16.012	3.8182	0.1	1786.9
24296	16.104	3.5455	0.1	1763.8
24297	16.012	3.6364	0.1	1786.5
24298	16.104	3.3636	0.1	1763.6
24299	16.012	3.4545	0.1	1786.3
24300	16.104	3.1818	0.1	1763.5
24301	16.012	3.2727	0.1	1786.1
24302	16.104	3.	0.1	1763.4
24303	16.012	3.0909	0.1	1786.
24304	16.104	2.8182	0.1	1763.5
24305	16.012	2.9091	0.1	1786.
24306	16.104	2.6364	0.1	1763.6
24307	16.012	2.7273	0.1	1786.1
24308	16.104	2.4545	0.1	1763.8
24309	16.012	2.5455	0.1	1786.3
24310	16.104	2.2727	0.1	1764.1
24311	16.012	2.3636	0.1	1786.5
24312	16.104	2.0909	0.1	1764.5
24313	16.012	2.1818	0.1	1786.9
24314	16.104	1.9091	0.1	1764.9
24315	16.012	2.	0.1	1787.3
24316	16.104	1.7273	0.1	1765.5
24317	16.012	1.8182	0.1	1787.8
24318	16.104	1.5455	0.1	1766.1
24319	16.012	1.6364	0.1	1788.4
24320	16.104	1.3636	0.1	1766.9
24321	16.012	1.4545	0.1	1789.1
24322	16.104	1.1818	0.1	1767.7
24323	16.012	1.2727	0.1	1789.9
24324	16.104	1.	0.1	1768.6
24325	16.012	1.0909	0.1	1790.8
24326	16.104	0.81818	0.1	1769.7
24327	16.012	0.90909	0.1	1791.8
24328	16.104	0.63636	0.1	1770.8
24329	16.012	0.72727	0.1	1792.9
24330	16.104	0.45455	0.1	1772.2
24331	16.012	0.54545	0.1	1794.1
24332	16.104	0.27273	0.1	1774.6
24333	16.012	0.36364	0.1	1795.5
24334	16.012	0.18182	0.1	1799.
24335	16.104	9.0909e-002	0.1	1770.4
24336	15.92	5.7273	0.1	1819.8
24337	15.829	5.8182	0.1	1844.3
24338	15.92	5.9091	0.1	1815.8
24339	15.92	5.5455	0.1	1817.4
24340	15.829	5.6364	0.1	1840.9
24341	15.92	5.3636	0.1	1816.1
24342	15.829	5.4545	0.1	1839.4
24343	15.92	5.1818	0.1	1814.9
24344	15.829	5.2727	0.1	1838.2
24345	15.92	5.	0.1	1813.9
24346	15.829	5.0909	0.1	1837.1
24347	15.92	4.8182	0.1	1812.9
24348	15.829	4.9091	0.1	1836.1
24349	15.92	4.6364	0.1	1812.1
24350	15.829	4.7273	0.1	1835.2
24351	15.92	4.4545	0.1	1811.4
24352	15.829	4.5455	0.1	1834.4
24353	15.92	4.2727	0.1	1810.7
24354	15.829	4.3636	0.1	1833.7
24355	15.92	4.0909	0.1	1810.1
24356	15.829	4.1818	0.1	1833.1
24357	15.92	3.9091	0.1	1809.7
24358	15.829	4.	0.1	1832.6
24359	15.92	3.7273	0.1	1809.3
24360	15.829	3.8182	0.1	1832.2
24361	15.92	3.5455	0.1	1809.
24362	15.829	3.6364	0.1	1831.8
24363	15.92	3.3636	0.1	1808.8
24364	15.829	3.4545	0.1	1831.6
24365	15.92	3.1818	0.1	1808.7
24366	15.829	3.2727	0.1	1831.4
24367	15.92	3.	0.1	1808.6
24368	15.829	3.0909	0.1	1831.3
24369	15.92	2.8182	0.1	1808.7
24370	15.829	2.9091	0.1	1831.3
24371	15.92	2.6364	0.1	1808.8
24372	15.829	2.7273	0.1	1831.4
24373	15.92	2.4545	0.1	1809.
24374	15.829	2.5455	0.1	1831.6
24375	15.92	2.2727	0.1	1809.3
24376	15.829	2.3636	0.1	1831.8
24377	15.92	2.0909	0.1	1809.7
24378	15.829	2.1818	0.1	1832.2
24379	15.92	1.9091	0.1	1810.1
24380	15.829	2.	0.1	1832.6
24381	15.92	1.7273	0.1	1810.7
24382	15.829	1.8182	0.1	1833.1
24383	15.92	1.5455	0.1	1811.4
24384	15.829	1.6364	0.1	1833.7
24385	15.92	1.3636	0.1	1812.1
24386	15.829	1.4545	0.1	1834.4
24387	15.92	1.1818	0.1	1812.9
24388	15.829	1.2727	0.1	1835.2
24389	15.92	1.	0.1	1813.9
24390	15.829	1.0909	0.1	1836.1
24391	15.92	0.81818	0.1	1814.9
24392	15.829	0.90909	0.1	1837.1
24393	15.92	0.63636	0.1	1816.1
24394	15.829	0.72727	0.1	1838.2
24395	15.92	0.45455	0.1	1817.4
24396	15.829	0.54545	0.1	1839.4
24397	15.92	0.27273	0.1	1819.8
24398	15.829	0.36364	0.1	1840.9
24399	15.829	0.18182	0.1	1844.3
24400	15.92	9.0909e-002	0.1	1815.8
24401	15.737	5.7273	0.1	1865.2
24402	15.645	5.8182	0.1	1889.8
24403	15.737	5.9091	0.1	1861.3
24404	15.737	5.5455	0.1	1862.9
24405	15.645	5.6364	0.1	1886.4
24406	15.737	5.3636	0.1	1861.5
24407	15.645	5.4545	0.1	1885.
24408	15.737	5.1818	0.1	1860.4
24409	15.645	5.2727	0.1	1883.8
24410	15.737	5.	0.1	1859.3
24411	15.645	5.0909	0.1	1882.7
24412	15.737	4.8182	0.1	1858.4
24413	15.645	4.9091	0.1	1881.7
24414	15.737	4.6364	0.1	1857.5
24415	15.645	4.7273	0.1	1880.8
24416	15.737	4.4545	0.1	1856.8
24417	15.645	4.5455	0.1	1880.
24418	15.737	4.2727	0.1	1856.1
24419	15.645	4.3636	0.1	1879.3
24420	15.737	4.0909	0.1	1855.6
24421	15.645	4.1818	0.1	1878.6
24422	15.737	3.9091	0.1	1855.1
24423	15.645	4.	0.1	1878.1
24424	15.737	3.7273	0.1	1854.7
24425	15.645	3.8182	0.1	1877.7
24426	15.737	3.5455	0.1	1854.4
24427	15.645	3.6364	0.1	1877.3
24428	15.737	3.3636	0.1	1854.2
24429	15.645	3.4545	0.1	1877.1
24430	15.737	3.1818	0.1	1854.1
24431	15.645	3.2727	0.1	1876.9
24432	15.737	3.	0.1	1854.
24433	15.645	3.0909	0.1	1876.8
24434	15.737	2.8182	0.1	1854.1
24435	15.645	2.9091	0.1	1876.8
24436	15.737	2.6364	0.1	1854.2
24437	15.645	2.7273	0.1	1876.9
24438	15.737	2.4545	0.1	1854.4
24439	15.645	2.5455	0.1	1877.1
24440	15.737	2.2727	0.1	1854.7
24441	15.645	2.3636	0.1	1877.3
24442	15.737	2.0909	0.1	1855.1
24443	15.645	2.1818	0.1	1877.7
24444	15.737	1.9091	0.1	1855.6
24445	15.645	2.	0.1	1878.1
24446	15.737	1.7273	0.1	1856.1
24447	15.645	1.8182	0.1	1878.6
24448	15.737	1.5455	0.1	1856.8
24449	15.645	1.6364	0.1	1879.3
24450	15.737	1.3636	0.1	1857.5
24451	15.645	1.4545	0.1	1880.
24452	15.737	1.1818	0.1	1858.4
24453	15.645	1.2727	0.1	1880.8
24454	15.737	1.	0.1	1859.3
24455	15.645	1.0909	0.1	1881.7
24456	15.737	0.81818	0.1	1860.4
24457	15.645	0.90909	0.1	1882.7
24458	15.737	0.63636	0.1	1861.5
24459	15.645	0.72727	0.1	1883.8
24460	15.737	0.45455	0.1	1862.9
24461	15.645	0.54545	0.1	1885.
24462	15.737	0.27273	0.1	1865.2
24463	15.645	0.36364	0.1	1886.4
24464	15.645	0.18182	0.1	1889.8
24465	15.737	9.0909e-002	0.1	1861.3
24466	15.553	5.7273	0.1	1910.9
24467	15.461	5.8182	0.1	1935.5
24468	15.553	5.9091	0.1	1907.
24469	15.553	5.5455	0.1	1908.5
24470	15.461	5.6364	0.1	1932.2
24471	15.553	5.3636	0.1	1907.2
24472	15.461	5.4545	0.1	1930.7
24473	15.553	5.1818	0.1	1906.
24474	15.461	5.2727	0.1	1929.5
24475	15.553	5.	0.1	1905.
24476	15.461	5.0909	0.1	1928.4
24477	15.553	4.8182	0.1	1904.
24478	15.461	4.9091	0.1	1927.4
24479	15.553	4.6364	0.1	1903.2
24480	15.461	4.7273	0.1	1926.5
24481	15.553	4.4545	0.1	1902.4
24482	15.461	4.5455	0.1	1925.7
24483	15.553	4.2727	0.1	1901.7
24484	15.461	4.3636	0.1	1925.
24485	15.553	4.0909	0.1	1901.2
24486	15.461	4.1818	0.1	1924.4
24487	15.553	3.9091	0.1	1900.7
24488	15.461	4.	0.1	1923.8
24489	15.553	3.7273	0.1	1900.3
24490	15.461	3.8182	0.1	1923.4
24491	15.553	3.5455	0.1	1900.
24492	15.461	3.6364	0.1	1923.
24493	15.553	3.3636	0.1	1899.8
24494	15.461	3.4545	0.1	1922.8
24495	15.553	3.1818	0.1	1899.7
24496	15.461	3.2727	0.1	1922.6
24497	15.553	3.	0.1	1899.6
24498	15.461	3.0909	0.1	1922.5
24499	15.553	2.8182	0.1	1899.7
24500	15.461	2.9091	0.1	1922.5
24501	15.553	2.6364	0.1	1899.8
24502	15.461	2.7273	0.1	1922.6
24503	15.553	2.4545	0.1	1900.
24504	15.461	2.5455	0.1	1922.8
24505	15.553	2.2727	0.1	1900.3
24506	15.461	2.3636	0.1	1923.
24507	15.553	2.0909	0.1	1900.7
24508	15.461	2.1818	0.1	1923.4
24509	15.553	1.9091	0.1	1901.2
24510	15.461	2.	0.1	1923.8
24511	15.553	1.7273	0.1	1901.7
24512	15.461	1.8182	0.1	1924.4
24513	15.553	1.5455	0.1	1902.4
24514	15.461	1.6364	0.1	1925.
24515	15.553	1.3636	0.1	1903.2
24516	15.461	1.4545	0.1	1925.7
24517	15.553	1.1818	0.1	1904.
24518	15.461	1.2727	0.1	1926.5
24519	15.553	1.	0.1	1905.
24520	15.461	1.0909	0.1	1927.4
24521	15.553	0.81818	0.1	1906.
24522	15.461	0.90909	0.1	1928.4
24523	15.553	0.63636	0.1	1907.2
24524	15.461	0.72727	0.1	1929.5
24525	15.553	0.45455	0.1	1908.5
24526	15.461	0.54545	0.1	1930.7
24527	15.553	0.27273	0.1	1910.9
24528	15.461	0.36364	0.1	1932.2
24529	15.461	0.18182	0.1	1935.5
24530	15.553	9.0909e-002	0.1	1907.
24531	15.37	5.7273	0.1	1956.7
24532	15.278	5.8182	0.1	1981.5
24533	15.37	5.9091	0.1	1952.9
24534	15.37	5.5455	0.1	1954.3
24535	15.278	5.6364	0.1	1978.1
24536	15.37	5.3636	0.1	1953.
24537	15.278	5.4545	0.1	1976.7
24538	15.37	5.1818	0.1	1951.9
24539	15.278	5.2727	0.1	1975.5
24540	15.37	5.	0.1	1950.8
24541	15.278	5.0909	0.1	1974.3
24542	15.37	4.8182	0.1	1949.8
24543	15.278	4.9091	0.1	1973.3
24544	15.37	4.6364	0.1	1949.
24545	15.278	4.7273	0.1	1972.4
24546	15.37	4.4545	0.1	1948.2
24547	15.278	4.5455	0.1	1971.6
24548	15.37	4.2727	0.1	1947.6
24549	15.278	4.3636	0.1	1970.9
24550	15.37	4.0909	0.1	1947.
24551	15.278	4.1818	0.1	1970.3
24552	15.37	3.9091	0.1	1946.5
24553	15.278	4.	0.1	1969.7
24554	15.37	3.7273	0.1	1946.1
24555	15.278	3.8182	0.1	1969.3
24556	15.37	3.5455	0.1	1945.8
24557	15.278	3.6364	0.1	1968.9
24558	15.37	3.3636	0.1	1945.6
24559	15.278	3.4545	0.1	1968.7
24560	15.37	3.1818	0.1	1945.4
24561	15.278	3.2727	0.1	1968.5
24562	15.37	3.	0.1	1945.4
24563	15.278	3.0909	0.1	1968.4
24564	15.37	2.8182	0.1	1945.4
24565	15.278	2.9091	0.1	1968.4
24566	15.37	2.6364	0.1	1945.6
24567	15.278	2.7273	0.1	1968.5
24568	15.37	2.4545	0.1	1945.8
24569	15.278	2.5455	0.1	1968.7
24570	15.37	2.2727	0.1	1946.1
24571	15.278	2.3636	0.1	1968.9
24572	15.37	2.0909	0.1	1946.5
24573	15.278	2.1818	0.1	1969.3
24574	15.37	1.9091	0.1	1947.
24575	15.278	2.	0.1	1969.7
24576	15.37	1.7273	0.1	1947.6
24577	15.278	1.8182	0.1	1970.3
24578	15.37	1.5455	0.1	1948.2
24579	15.278	1.6364	0.1	1970.9
24580	15.37	1.3636	0.1	1949.
24581	15.278	1.4545	0.1	1971.6
24582	15.37	1.1818	0.1	1949.8
24583	15.278	1.2727	0.1	1972.4
24584	15.37	1.	0.1	1950.8
24585	15.278	1.0909	0.1	1973.3
24586	15.37	0.81818	0.1	1951.9
24587	15.278	0.90909	0.1	1974.3
24588	15.37	0.63636	0.1	1953.
24589	15.278	0.72727	0.1	1975.5
24590	15.37	0.45455	0.1	1954.3
24591	15.278	0.54545	0.1	1976.7
24592	15.37	0.27273	0.1	1956.7
24593	15.278	0.36364	0.1	1978.1
24594	15.278	0.18182	0.1	1981.5
24595	15.37	9.0909e-002	0.1	1952.9
24596	15.186	5.7273	0.1	2002.7
24597	15.094	5.8182	0.1	2027.6
24598	15.186	5.9091	0.1	1999.
24599	15.186	5.5455	0.1	2000.4
24600	15.094	5.6364	0.1	2024.2
24601	15.186	5.3636	0.1	1999.1
24602	15.094	5.4545	0.1	2022.8
24603	15.186	5.1818	0.1	1997.9
24604	15.094	5.2727	0.1	2021.6
24605	15.186	5.	0.1	1996.8
24606	15.094	5.0909	0.1	2020.5
24607	15.186	4.8182	0.1	1995.9
24608	15.094	4.9091	0.1	2019.5
24609	15.186	4.6364	0.1	1995.
24610	15.094	4.7273	0.1	2018.5
24611	15.186	4.4545	0.1	1994.2
24612	15.094	4.5455	0.1	2017.7
24613	15.186	4.2727	0.1	1993.6
24614	15.094	4.3636	0.1	2017.
24615	15.186	4.0909	0.1	1993.
24616	15.094	4.1818	0.1	2016.4
24617	15.186	3.9091	0.1	1992.5
24618	15.094	4.	0.1	2015.8
24619	15.186	3.7273	0.1	1992.1
24620	15.094	3.8182	0.1	2015.4
24621	15.186	3.5455	0.1	1991.8
24622	15.094	3.6364	0.1	2015.
24623	15.186	3.3636	0.1	1991.6
24624	15.094	3.4545	0.1	2014.8
24625	15.186	3.1818	0.1	1991.4
24626	15.094	3.2727	0.1	2014.6
24627	15.186	3.	0.1	1991.4
24628	15.094	3.0909	0.1	2014.5
24629	15.186	2.8182	0.1	1991.4
24630	15.094	2.9091	0.1	2014.5
24631	15.186	2.6364	0.1	1991.6
24632	15.094	2.7273	0.1	2014.6
24633	15.186	2.4545	0.1	1991.8
24634	15.094	2.5455	0.1	2014.8
24635	15.186	2.2727	0.1	1992.1
24636	15.094	2.3636	0.1	2015.
24637	15.186	2.0909	0.1	1992.5
24638	15.094	2.1818	0.1	2015.4
24639	15.186	1.9091	0.1	1993.
24640	15.094	2.	0.1	2015.8
24641	15.186	1.7273	0.1	1993.6
24642	15.094	1.8182	0.1	2016.4
24643	15.186	1.5455	0.1	1994.2
24644	15.094	1.6364	0.1	2017.
24645	15.186	1.3636	0.1	1995.
24646	15.094	1.4545	0.1	2017.7
24647	15.186	1.1818	0.1	1995.9
24648	15.094	1.2727	0.1	2018.5
24649	15.186	1.	0.1	1996.8
24650	15.094	1.0909	0.1	2019.5
24651	15.186	0.81818	0.1	1997.9
24652	15.094	0.90909	0.1	2020.5
24653	15.186	0.63636	0.1	1999.1
24654	15.094	0.72727	0.1	2021.6
24655	15.186	0.45455	0.1	2000.4
24656	15.094	0.54545	0.1	2022.8
24657	15.186	0.27273	0.1	2002.7
24658	15.094	0.36364	0.1	2024.2
24659	15.094	0.18182	0.1	2027.6
24660	15.186	9.0909e-002	0.1	1999.
24661	15.002	5.7273	0.1	2049.
24662	14.911	5.8182	0.1	2073.9
24663	15.002	5.9091	0.1	2045.3
24664	15.002	5.5455	0.1	2046.6
24665	14.911	5.6364	0.1	2070.6
24666	15.002	5.3636	0.1	2045.3
24667	14.911	5.4545	0.1	2069.2
24668	15.002	5.1818	0.1	2044.1
24669	14.911	5.2727	0.1	2067.9
24670	15.002	5.	0.1	2043.1
24671	14.911	5.0909	0.1	2066.8
24672	15.002	4.8182	0.1	2042.1
24673	14.911	4.9091	0.1	2065.8
24674	15.002	4.6364	0.1	2041.2
24675	14.911	4.7273	0.1	2064.9
24676	15.002	4.4545	0.1	2040.5
24677	14.911	4.5455	0.1	2064.
24678	15.002	4.2727	0.1	2039.8
24679	14.911	4.3636	0.1	2063.3
24680	15.002	4.0909	0.1	2039.2
24681	14.911	4.1818	0.1	2062.7
24682	15.002	3.9091	0.1	2038.7
24683	14.911	4.	0.1	2062.1
24684	15.002	3.7273	0.1	2038.3
24685	14.911	3.8182	0.1	2061.7
24686	15.002	3.5455	0.1	2038.
24687	14.911	3.6364	0.1	2061.3
24688	15.002	3.3636	0.1	2037.8
24689	14.911	3.4545	0.1	2061.
24690	15.002	3.1818	0.1	2037.6
24691	14.911	3.2727	0.1	2060.9
24692	15.002	3.	0.1	2037.6
24693	14.911	3.0909	0.1	2060.8
24694	15.002	2.8182	0.1	2037.6
24695	14.911	2.9091	0.1	2060.8
24696	15.002	2.6364	0.1	2037.8
24697	14.911	2.7273	0.1	2060.9
24698	15.002	2.4545	0.1	2038.
24699	14.911	2.5455	0.1	2061.
24700	15.002	2.2727	0.1	2038.3
24701	14.911	2.3636	0.1	2061.3
24702	15.002	2.0909	0.1	2038.7
24703	14.911	2.1818	0.1	2061.7
24704	15.002	1.9091	0.1	2039.2
24705	14.911	2.	0.1	2062.1
24706	15.002	1.7273	0.1	2039.8
24707	14.911	1.8182	0.1	2062.7
24708	15.002	1.5455	0.1	2040.5
24709	14.911	1.6364	0.1	2063.3
24710	15.002	1.3636	0.1	2041.2
24711	14.911	1.4545	0.1	2064.
24712	15.002	1.1818	0.1	2042.1
24713	14.911	1.2727	0.1	2064.9
24714	15.002	1.	0.1	2043.1
24715	14.911	1.0909	0.1	2065.8
24716	15.002	0.81818	0.1	2044.1
24717	14.911	0.90909	0.1	2066.8
24718	15.002	0.63636	0.1	2045.3
24719	14.911	0.72727	0.1	2067.9
24720	15.002	0.45455	0.1	2046.6
24721	14.911	0.54545	0.1	2069.2
24722	15.002	0.27273	0.1	2049.
24723	14.911	0.36364	0.1	2070.6
24724	14.911	0.18182	0.1	2073.9
24725	15.002	9.0909e-002	0.1	2045.3
24726	14.819	5.7273	0.1	2095.4
24727	14.727	5.8182	0.1	2120.4
24728	14.819	5.9091	0.1	2091.8
24729	14.819	5.5455	0.1	2093.1
24730	14.727	5.6364	0.1	2117.1
24731	14.819	5.3636	0.1	2091.8
24732	14.727	5.4545	0.1	2115.7
24733	14.819	5.1818	0.1	2090.6
24734	14.727	5.2727	0.1	2114.5
24735	14.819	5.	0.1	2089.5
24736	14.727	5.0909	0.1	2113.3
24737	14.819	4.8182	0.1	2088.5
24738	14.727	4.9091	0.1	2112.3
24739	14.819	4.6364	0.1	2087.7
24740	14.727	4.7273	0.1	2111.4
24741	14.819	4.4545	0.1	2086.9
24742	14.727	4.5455	0.1	2110.6
24743	14.819	4.2727	0.1	2086.2
24744	14.727	4.3636	0.1	2109.8
24745	14.819	4.0909	0.1	2085.6
24746	14.727	4.1818	0.1	2109.2
24747	14.819	3.9091	0.1	2085.1
24748	14.727	4.	0.1	2108.6
24749	14.819	3.7273	0.1	2084.7
24750	14.727	3.8182	0.1	2108.2
24751	14.819	3.5455	0.1	2084.4
24752	14.727	3.6364	0.1	2107.8
24753	14.819	3.3636	0.1	2084.1
24754	14.727	3.4545	0.1	2107.5
24755	14.819	3.1818	0.1	2084.
24756	14.727	3.2727	0.1	2107.3
24757	14.819	3.	0.1	2083.9
24758	14.727	3.0909	0.1	2107.2
24759	14.819	2.8182	0.1	2084.
24760	14.727	2.9091	0.1	2107.2
24761	14.819	2.6364	0.1	2084.1
24762	14.727	2.7273	0.1	2107.3
24763	14.819	2.4545	0.1	2084.4
24764	14.727	2.5455	0.1	2107.5
24765	14.819	2.2727	0.1	2084.7
24766	14.727	2.3636	0.1	2107.8
24767	14.819	2.0909	0.1	2085.1
24768	14.727	2.1818	0.1	2108.2
24769	14.819	1.9091	0.1	2085.6
24770	14.727	2.	0.1	2108.6
24771	14.819	1.7273	0.1	2086.2
24772	14.727	1.8182	0.1	2109.2
24773	14.819	1.5455	0.1	2086.9
24774	14.727	1.6364	0.1	2109.8
24775	14.819	1.3636	0.1	2087.7
24776	14.727	1.4545	0.1	2110.6
24777	14.819	1.1818	0.1	2088.5
24778	14.727	1.2727	0.1	2111.4
24779	14.819	1.	0.1	2089.5
24780	14.727	1.0909	0.1	2112.3
24781	14.819	0.81818	0.1	2090.6
24782	14.727	0.90909	0.1	2113.3
24783	14.819	0.63636	0.1	2091.8
24784	14.727	0.72727	0.1	2114.5
24785	14.819	0.45455	0.1	2093.1
24786	14.727	0.54545	0.1	2115.7
24787	14.819	0.27273	0.1	2095.4
24788	14.727	0.36364	0.1	2117.1
24789	14.727	0.18182	0.1	2120.4
24790	14.819	9.0909e-002	0.1	2091.8
24791	14.635	5.7273	0.1	2142.
24792	14.543	5.8182	0.1	2167.1
24793	14.635	5.9091	0.1	2138.5
24794	14.635	5.5455	0.1	2139.7
24795	14.543	5.6364	0.1	2163.9
24796	14.635	5.3636	0.1	2138.4
24797	14.543	5.4545	0.1	2162.4
24798	14.635	5.1818	0.1	2137.2
24799	14.543	5.2727	0.1	2161.2
24800	14.635	5.	0.1	2136.1
24801	14.543	5.0909	0.1	2160.1
24802	14.635	4.8182	0.1	2135.2
24803	14.543	4.9091	0.1	2159.
24804	14.635	4.6364	0.1	2134.3
24805	14.543	4.7273	0.1	2158.1
24806	14.635	4.4545	0.1	2133.5
24807	14.543	4.5455	0.1	2157.3
24808	14.635	4.2727	0.1	2132.8
24809	14.543	4.3636	0.1	2156.5
24810	14.635	4.0909	0.1	2132.2
24811	14.543	4.1818	0.1	2155.9
24812	14.635	3.9091	0.1	2131.7
24813	14.543	4.	0.1	2155.3
24814	14.635	3.7273	0.1	2131.3
24815	14.543	3.8182	0.1	2154.8
24816	14.635	3.5455	0.1	2130.9
24817	14.543	3.6364	0.1	2154.5
24818	14.635	3.3636	0.1	2130.7
24819	14.543	3.4545	0.1	2154.2
24820	14.635	3.1818	0.1	2130.6
24821	14.543	3.2727	0.1	2154.
24822	14.635	3.	0.1	2130.5
24823	14.543	3.0909	0.1	2153.9
24824	14.635	2.8182	0.1	2130.6
24825	14.543	2.9091	0.1	2153.9
24826	14.635	2.6364	0.1	2130.7
24827	14.543	2.7273	0.1	2154.
24828	14.635	2.4545	0.1	2130.9
24829	14.543	2.5455	0.1	2154.2
24830	14.635	2.2727	0.1	2131.3
24831	14.543	2.3636	0.1	2154.5
24832	14.635	2.0909	0.1	2131.7
24833	14.543	2.1818	0.1	2154.8
24834	14.635	1.9091	0.1	2132.2
24835	14.543	2.	0.1	2155.3
24836	14.635	1.7273	0.1	2132.8
24837	14.543	1.8182	0.1	2155.9
24838	14.635	1.5455	0.1	2133.5
24839	14.543	1.6364	0.1	2156.5
24840	14.635	1.3636	0.1	2134.3
24841	14.543	1.4545	0.1	2157.3
24842	14.635	1.1818	0.1	2135.2
24843	14.543	1.2727	0.1	2158.1
24844	14.635	1.	0.1	2136.1
24845	14.543	1.0909	0.1	2159.
24846	14.635	0.81818	0.1	2137.2
24847	14.543	0.90909	0.1	2160.1
24848	14.635	0.63636	0.1	2138.4
24849	14.543	0.72727	0.1	2161.2
24850	14.635	0.45455	0.1	2139.7
24851	14.543	0.54545	0.1	2162.4
24852	14.635	0.27273	0.1	2142.
24853	14.543	0.36364	0.1	2163.9
24854	14.543	0.18182	0.1	2167.1
24855	14.635	9.0909e-002	0.1	2138.5
24856	14.451	5.7273	0.1	2188.9
24857	14.36	5.8182	0.1	2214.1
24858	14.451	5.9091	0.1	2185.4
24859	14.451	5.5455	0.1	2186.6
24860	14.36	5.6364	0.1	2210.8
24861	14.451	5.3636	0.1	2185.2
24862	14.36	5.4545	0.1	2209.4
24863	14.451	5.1818	0.1	2184.1
24864	14.36	5.2727	0.1	2208.2
24865	14.451	5.	0.1	2183.
24866	14.36	5.0909	0.1	2207.
24867	14.451	4.8182	0.1	2182.
24868	14.36	4.9091	0.1	2206.
24869	14.451	4.6364	0.1	2181.1
24870	14.36	4.7273	0.1	2205.
24871	14.451	4.4545	0.1	2180.3
24872	14.36	4.5455	0.1	2204.2
24873	14.451	4.2727	0.1	2179.6
24874	14.36	4.3636	0.1	2203.4
24875	14.451	4.0909	0.1	2179.
24876	14.36	4.1818	0.1	2202.8
24877	14.451	3.9091	0.1	2178.5
24878	14.36	4.	0.1	2202.2
24879	14.451	3.7273	0.1	2178.
24880	14.36	3.8182	0.1	2201.7
24881	14.451	3.5455	0.1	2177.7
24882	14.36	3.6364	0.1	2201.3
24883	14.451	3.3636	0.1	2177.5
24884	14.36	3.4545	0.1	2201.1
24885	14.451	3.1818	0.1	2177.3
24886	14.36	3.2727	0.1	2200.9
24887	14.451	3.	0.1	2177.3
24888	14.36	3.0909	0.1	2200.8
24889	14.451	2.8182	0.1	2177.3
24890	14.36	2.9091	0.1	2200.8
24891	14.451	2.6364	0.1	2177.5
24892	14.36	2.7273	0.1	2200.9
24893	14.451	2.4545	0.1	2177.7
24894	14.36	2.5455	0.1	2201.1
24895	14.451	2.2727	0.1	2178.
24896	14.36	2.3636	0.1	2201.3
24897	14.451	2.0909	0.1	2178.5
24898	14.36	2.1818	0.1	2201.7
24899	14.451	1.9091	0.1	2179.
24900	14.36	2.	0.1	2202.2
24901	14.451	1.7273	0.1	2179.6
24902	14.36	1.8182	0.1	2202.8
24903	14.451	1.5455	0.1	2180.3
24904	14.36	1.6364	0.1	2203.4
24905	14.451	1.3636	0.1	2181.1
24906	14.36	1.4545	0.1	2204.2
24907	14.451	1.1818	0.1	2182.
24908	14.36	1.2727	0.1	2205.
24909	14.451	1.	0.1	2183.
24910	14.36	1.0909	0.1	2206.
24911	14.451	0.81818	0.1	2184.1
24912	14.36	0.90909	0.1	2207.
24913	14.451	0.63636	0.1	2185.2
24914	14.36	0.72727	0.1	2208.2
24915	14.451	0.45455	0.1	2186.6
24916	14.36	0.54545	0.1	2209.4
24917	14.451	0.27273	0.1	2188.9
24918	14.36	0.36364	0.1	2210.8
24919	14.36	0.18182	0.1	2214.1
24920	14.451	9.0909e-002	0.1	2185.4
24921	14.268	5.7273	0.1	2235.9
24922	14.176	5.8182	0.1	2261.2
24923	14.268	5.9091	0.1	2232.5
24924	14.268	5.5455	0.1	2233.6
24925	14.176	5.6364	0.1	2258.
24926	14.268	5.3636	0.1	2232.3
24927	14.176	5.4545	0.1	2256.5
24928	14.268	5.1818	0.1	2231.1
24929	14.176	5.2727	0.1	2255.3
24930	14.268	5.	0.1	2230.
24931	14.176	5.0909	0.1	2254.1
24932	14.268	4.8182	0.1	2229.
24933	14.176	4.9091	0.1	2253.1
24934	14.268	4.6364	0.1	2228.1
24935	14.176	4.7273	0.1	2252.1
24936	14.268	4.4545	0.1	2227.3
24937	14.176	4.5455	0.1	2251.3
24938	14.268	4.2727	0.1	2226.6
24939	14.176	4.3636	0.1	2250.5
24940	14.268	4.0909	0.1	2226.
24941	14.176	4.1818	0.1	2249.8
24942	14.268	3.9091	0.1	2225.4
24943	14.176	4.	0.1	2249.3
24944	14.268	3.7273	0.1	2225.
24945	14.176	3.8182	0.1	2248.8
24946	14.268	3.5455	0.1	2224.7
24947	14.176	3.6364	0.1	2248.4
24948	14.268	3.3636	0.1	2224.4
24949	14.176	3.4545	0.1	2248.1
24950	14.268	3.1818	0.1	2224.3
24951	14.176	3.2727	0.1	2247.9
24952	14.268	3.	0.1	2224.2
24953	14.176	3.0909	0.1	2247.8
24954	14.268	2.8182	0.1	2224.3
24955	14.176	2.9091	0.1	2247.8
24956	14.268	2.6364	0.1	2224.4
24957	14.176	2.7273	0.1	2247.9
24958	14.268	2.4545	0.1	2224.7
24959	14.176	2.5455	0.1	2248.1
24960	14.268	2.2727	0.1	2225.
24961	14.176	2.3636	0.1	2248.4
24962	14.268	2.0909	0.1	2225.4
24963	14.176	2.1818	0.1	2248.8
24964	14.268	1.9091	0.1	2226.
24965	14.176	2.	0.1	2249.3
24966	14.268	1.7273	0.1	2226.6
24967	14.176	1.8182	0.1	2249.8
24968	14.268	1.5455	0.1	2227.3
24969	14.176	1.6364	0.1	2250.5
24970	14.268	1.3636	0.1	2228.1
24971	14.176	1.4545	0.1	2251.3
24972	14.268	1.1818	0.1	2229.
24973	14.176	1.2727	0.1	2252.1
24974	14.268	1.	0.1	2230.
24975	14.176	1.0909	0.1	2253.1
24976	14.268	0.81818	0.1	2231.1
24977	14.176	0.90909	0.1	2254.1
24978	14.268	0.63636	0.1	2232.3
24979	14.176	0.72727	0.1	2255.3
24980	14.268	0.45455	0.1	2233.6
24981	14.176	0.54545	0.1	2256.5
24982	14.268	0.27273	0.1	2235.9
24983	14.176	0.36364	0.1	2258.
24984	14.176	0.18182	0.1	2261.2
24985	14.268	9.0909e-002	0.1	2232.5
24986	14.084	5.7273	0.1	2283.2
24987	13.992	5.8182	0.1	2308.5
24988	14.084	5.9091	0.1	2279.9
24989	14.084	5.5455	0.1	2280.9
24990	13.992	5.6364	0.1	2305.3
24991	14.084	5.3636	0.1	2279.5
24992	13.992	5.4545	0.1	2303.9
24993	14.084	5.1818	0.1	2278.3
24994	13.992	5.2727	0.1	2302.6
24995	14.084	5.	0.1	2277.2
24996	13.992	5.0909	0.1	2301.5
24997	14.084	4.8182	0.1	2276.2
24998	13.992	4.9091	0.1	2300.4
24999	14.084	4.6364	0.1	2275.3
25000	13.992	4.7273	0.1	2299.4
25001	14.084	4.4545	0.1	2274.5
25002	13.992	4.5455	0.1	2298.6
25003	14.084	4.2727	0.1	2273.8
25004	13.992	4.3636	0.1	2297.8
25005	14.084	4.0909	0.1	2273.1
25006	13.992	4.1818	0.1	2297.1
25007	14.084	3.9091	0.1	2272.6
25008	13.992	4.	0.1	2296.5
25009	14.084	3.7273	0.1	2272.2
25010	13.992	3.8182	0.1	2296.1
25011	14.084	3.5455	0.1	2271.8
25012	13.992	3.6364	0.1	2295.7
25013	14.084	3.3636	0.1	2271.6
25014	13.992	3.4545	0.1	2295.4
25015	14.084	3.1818	0.1	2271.4
25016	13.992	3.2727	0.1	2295.2
25017	14.084	3.	0.1	2271.4
25018	13.992	3.0909	0.1	2295.1
25019	14.084	2.8182	0.1	2271.4
25020	13.992	2.9091	0.1	2295.1
25021	14.084	2.6364	0.1	2271.6
25022	13.992	2.7273	0.1	2295.2
25023	14.084	2.4545	0.1	2271.8
25024	13.992	2.5455	0.1	2295.4
25025	14.084	2.2727	0.1	2272.2
25026	13.992	2.3636	0.1	2295.7
25027	14.084	2.0909	0.1	2272.6
25028	13.992	2.1818	0.1	2296.1
25029	14.084	1.9091	0.1	2273.1
25030	13.992	2.	0.1	2296.5
25031	14.084	1.7273	0.1	2273.8
25032	13.992	1.8182	0.1	2297.1
25033	14.084	1.5455	0.1	2274.5
25034	13.992	1.6364	0.1	2297.8
25035	14.084	1.3636	0.1	2275.3
25036	13.992	1.4545	0.1	2298.6
25037	14.084	1.1818	0.1	2276.2
25038	13.992	1.2727	0.1	2299.4
25039	14.084	1.	0.1	2277.2
25040	13.992	1.0909	0.1	2300.4
25041	14.084	0.81818	0.1	2278.3
25042	13.992	0.90909	0.1	2301.5
25043	14.084	0.63636	0.1	2279.5
25044	13.992	0.72727	0.1	2302.6
25045	14.084	0.45455	0.1	2280.9
25046	13.992	0.54545	0.1	2303.9
25047	14.084	0.27273	0.1	2283.2
25048	13.992	0.36364	0.1	2305.3
25049	13.992	0.18182	0.1	2308.5
25050	14.084	9.0909e-002	0.1	2279.9
25051	13.901	5.7273	0.1	2330.6
25052	13.809	5.8182	0.1	2356.1
25053	13.901	5.9091	0.1	2327.4
25054	13.901	5.5455	0.1	2328.3
25055	13.809	5.6364	0.1	2352.9
25056	13.901	5.3636	0.1	2327.
25057	13.809	5.4545	0.1	2351.5
25058	13.901	5.1818	0.1	2325.8
25059	13.809	5.2727	0.1	2350.2
25060	13.901	5.	0.1	2324.6
25061	13.809	5.0909	0.1	2349.
25062	13.901	4.8182	0.1	2323.6
25063	13.809	4.9091	0.1	2347.9
25064	13.901	4.6364	0.1	2322.7
25065	13.809	4.7273	0.1	2347.
25066	13.901	4.4545	0.1	2321.9
25067	13.809	4.5455	0.1	2346.1
25068	13.901	4.2727	0.1	2321.1
25069	13.809	4.3636	0.1	2345.3
25070	13.901	4.0909	0.1	2320.5
25071	13.809	4.1818	0.1	2344.6
25072	13.901	3.9091	0.1	2320.
25073	13.809	4.	0.1	2344.
25074	13.901	3.7273	0.1	2319.5
25075	13.809	3.8182	0.1	2343.5
25076	13.901	3.5455	0.1	2319.2
25077	13.809	3.6364	0.1	2343.1
25078	13.901	3.3636	0.1	2318.9
25079	13.809	3.4545	0.1	2342.8
25080	13.901	3.1818	0.1	2318.8
25081	13.809	3.2727	0.1	2342.6
25082	13.901	3.	0.1	2318.7
25083	13.809	3.0909	0.1	2342.5
25084	13.901	2.8182	0.1	2318.8
25085	13.809	2.9091	0.1	2342.5
25086	13.901	2.6364	0.1	2318.9
25087	13.809	2.7273	0.1	2342.6
25088	13.901	2.4545	0.1	2319.2
25089	13.809	2.5455	0.1	2342.8
25090	13.901	2.2727	0.1	2319.5
25091	13.809	2.3636	0.1	2343.1
25092	13.901	2.0909	0.1	2320.
25093	13.809	2.1818	0.1	2343.5
25094	13.901	1.9091	0.1	2320.5
25095	13.809	2.	0.1	2344.
25096	13.901	1.7273	0.1	2321.1
25097	13.809	1.8182	0.1	2344.6
25098	13.901	1.5455	0.1	2321.9
25099	13.809	1.6364	0.1	2345.3
25100	13.901	1.3636	0.1	2322.7
25101	13.809	1.4545	0.1	2346.1
25102	13.901	1.1818	0.1	2323.6
25103	13.809	1.2727	0.1	2347.
25104	13.901	1.	0.1	2324.6
25105	13.809	1.0909	0.1	2347.9
25106	13.901	0.81818	0.1	2325.8
25107	13.809	0.90909	0.1	2349.
25108	13.901	0.63636	0.1	2327.
25109	13.809	0.72727	0.1	2350.2
25110	13.901	0.45455	0.1	2328.3
25111	13.809	0.54545	0.1	2351.5
25112	13.901	0.27273	0.1	2330.6
25113	13.809	0.36364	0.1	2352.9
25114	13.809	0.18182	0.1	2356.1
25115	13.901	9.0909e-002	0.1	2327.4
25116	13.717	5.7273	0.1	2378.3
25117	13.625	5.8182	0.1	2403.8
25118	13.717	5.9091	0.1	2375.1
25119	13.717	5.5455	0.1	2376.
25120	13.625	5.6364	0.1	2400.7
25121	13.717	5.3636	0.1	2374.6
25122	13.625	5.4545	0.1	2399.2
25123	13.717	5.1818	0.1	2373.4
25124	13.625	5.2727	0.1	2397.9
25125	13.717	5.	0.1	2372.3
25126	13.625	5.0909	0.1	2396.7
25127	13.717	4.8182	0.1	2371.2
25128	13.625	4.9091	0.1	2395.7
25129	13.717	4.6364	0.1	2370.3
25130	13.625	4.7273	0.1	2394.7
25131	13.717	4.4545	0.1	2369.5
25132	13.625	4.5455	0.1	2393.8
25133	13.717	4.2727	0.1	2368.7
25134	13.625	4.3636	0.1	2393.
25135	13.717	4.0909	0.1	2368.1
25136	13.625	4.1818	0.1	2392.3
25137	13.717	3.9091	0.1	2367.5
25138	13.625	4.	0.1	2391.7
25139	13.717	3.7273	0.1	2367.1
25140	13.625	3.8182	0.1	2391.2
25141	13.717	3.5455	0.1	2366.7
25142	13.625	3.6364	0.1	2390.8
25143	13.717	3.3636	0.1	2366.5
25144	13.625	3.4545	0.1	2390.4
25145	13.717	3.1818	0.1	2366.3
25146	13.625	3.2727	0.1	2390.2
25147	13.717	3.	0.1	2366.3
25148	13.625	3.0909	0.1	2390.1
25149	13.717	2.8182	0.1	2366.3
25150	13.625	2.9091	0.1	2390.1
25151	13.717	2.6364	0.1	2366.5
25152	13.625	2.7273	0.1	2390.2
25153	13.717	2.4545	0.1	2366.7
25154	13.625	2.5455	0.1	2390.4
25155	13.717	2.2727	0.1	2367.1
25156	13.625	2.3636	0.1	2390.8
25157	13.717	2.0909	0.1	2367.5
25158	13.625	2.1818	0.1	2391.2
25159	13.717	1.9091	0.1	2368.1
25160	13.625	2.	0.1	2391.7
25161	13.717	1.7273	0.1	2368.7
25162	13.625	1.8182	0.1	2392.3
25163	13.717	1.5455	0.1	2369.5
25164	13.625	1.6364	0.1	2393.
25165	13.717	1.3636	0.1	2370.3
25166	13.625	1.4545	0.1	2393.8
25167	13.717	1.1818	0.1	2371.2
25168	13.625	1.2727	0.1	2394.7
25169	13.717	1.	0.1	2372.3
25170	13.625	1.0909	0.1	2395.7
25171	13.717	0.81818	0.1	2373.4
25172	13.625	0.90909	0.1	2396.7
25173	13.717	0.63636	0.1	2374.6
25174	13.625	0.72727	0.1	2397.9
25175	13.717	0.45455	0.1	2376.
25176	13.625	0.54545	0.1	2399.2
25177	13.717	0.27273	0.1	2378.3
25178	13.625	0.36364	0.1	2400.7
25179	13.625	0.18182	0.1	2403.8
25180	13.717	9.0909e-002	0.1	2375.1
25181	13.533	5.7273	0.1	2426.1
25182	13.442	5.8182	0.1	2451.8
25183	13.533	5.9091	0.1	2423.1
25184	13.533	5.5455	0.1	2423.9
25185	13.442	5.6364	0.1	2448.7
25186	13.533	5.3636	0.1	2422.5
25187	13.442	5.4545	0.1	2447.2
25188	13.533	5.1818	0.1	2421.2
25189	13.442	5.2727	0.1	2445.9
25190	13.533	5.	0.1	2420.1
25191	13.442	5.0909	0.1	2444.7
25192	13.533	4.8182	0.1	2419.
25193	13.442	4.9091	0.1	2443.6
25194	13.533	4.6364	0.1	2418.1
25195	13.442	4.7273	0.1	2442.6
25196	13.533	4.4545	0.1	2417.2
25197	13.442	4.5455	0.1	2441.6
25198	13.533	4.2727	0.1	2416.5
25199	13.442	4.3636	0.1	2440.8
25200	13.533	4.0909	0.1	2415.8
25201	13.442	4.1818	0.1	2440.1
25202	13.533	3.9091	0.1	2415.3
25203	13.442	4.	0.1	2439.5
25204	13.533	3.7273	0.1	2414.8
25205	13.442	3.8182	0.1	2439.
25206	13.533	3.5455	0.1	2414.5
25207	13.442	3.6364	0.1	2438.6
25208	13.533	3.3636	0.1	2414.2
25209	13.442	3.4545	0.1	2438.3
25210	13.533	3.1818	0.1	2414.
25211	13.442	3.2727	0.1	2438.1
25212	13.533	3.	0.1	2414.
25213	13.442	3.0909	0.1	2438.
25214	13.533	2.8182	0.1	2414.
25215	13.442	2.9091	0.1	2438.
25216	13.533	2.6364	0.1	2414.2
25217	13.442	2.7273	0.1	2438.1
25218	13.533	2.4545	0.1	2414.5
25219	13.442	2.5455	0.1	2438.3
25220	13.533	2.2727	0.1	2414.8
25221	13.442	2.3636	0.1	2438.6
25222	13.533	2.0909	0.1	2415.3
25223	13.442	2.1818	0.1	2439.
25224	13.533	1.9091	0.1	2415.8
25225	13.442	2.	0.1	2439.5
25226	13.533	1.7273	0.1	2416.5
25227	13.442	1.8182	0.1	2440.1
25228	13.533	1.5455	0.1	2417.2
25229	13.442	1.6364	0.1	2440.8
25230	13.533	1.3636	0.1	2418.1
25231	13.442	1.4545	0.1	2441.6
25232	13.533	1.1818	0.1	2419.
25233	13.442	1.2727	0.1	2442.6
25234	13.533	1.	0.1	2420.1
25235	13.442	1.0909	0.1	2443.6
25236	13.533	0.81818	0.1	2421.2
25237	13.442	0.90909	0.1	2444.7
25238	13.533	0.63636	0.1	2422.5
25239	13.442	0.72727	0.1	2445.9
25240	13.533	0.45455	0.1	2423.9
25241	13.442	0.54545	0.1	2447.2
25242	13.533	0.27273	0.1	2426.1
25243	13.442	0.36364	0.1	2448.7
25244	13.442	0.18182	0.1	2451.8
25245	13.533	9.0909e-002	0.1	2423.1
25246	13.35	5.7273	0.1	2474.2
25247	13.258	5.8182	0.1	2500.
25248	13.35	5.9091	0.1	2471.2
25249	13.35	5.5455	0.1	2471.9
25250	13.258	5.6364	0.1	2496.8
25251	13.35	5.3636	0.1	2470.5
25252	13.258	5.4545	0.1	2495.3
25253	13.35	5.1818	0.1	2469.3
25254	13.258	5.2727	0.1	2494.
25255	13.35	5.	0.1	2468.1
25256	13.258	5.0909	0.1	2492.8
25257	13.35	4.8182	0.1	2467.1
25258	13.258	4.9091	0.1	2491.7
25259	13.35	4.6364	0.1	2466.1
25260	13.258	4.7273	0.1	2490.7
25261	13.35	4.4545	0.1	2465.2
25262	13.258	4.5455	0.1	2489.7
25263	13.35	4.2727	0.1	2464.4
25264	13.258	4.3636	0.1	2488.9
25265	13.35	4.0909	0.1	2463.8
25266	13.258	4.1818	0.1	2488.2
25267	13.35	3.9091	0.1	2463.2
25268	13.258	4.	0.1	2487.5
25269	13.35	3.7273	0.1	2462.7
25270	13.258	3.8182	0.1	2487.
25271	13.35	3.5455	0.1	2462.4
25272	13.258	3.6364	0.1	2486.6
25273	13.35	3.3636	0.1	2462.1
25274	13.258	3.4545	0.1	2486.3
25275	13.35	3.1818	0.1	2462.
25276	13.258	3.2727	0.1	2486.1
25277	13.35	3.	0.1	2461.9
25278	13.258	3.0909	0.1	2486.
25279	13.35	2.8182	0.1	2462.
25280	13.258	2.9091	0.1	2486.
25281	13.35	2.6364	0.1	2462.1
25282	13.258	2.7273	0.1	2486.1
25283	13.35	2.4545	0.1	2462.4
25284	13.258	2.5455	0.1	2486.3
25285	13.35	2.2727	0.1	2462.7
25286	13.258	2.3636	0.1	2486.6
25287	13.35	2.0909	0.1	2463.2
25288	13.258	2.1818	0.1	2487.
25289	13.35	1.9091	0.1	2463.8
25290	13.258	2.	0.1	2487.5
25291	13.35	1.7273	0.1	2464.4
25292	13.258	1.8182	0.1	2488.2
25293	13.35	1.5455	0.1	2465.2
25294	13.258	1.6364	0.1	2488.9
25295	13.35	1.3636	0.1	2466.1
25296	13.258	1.4545	0.1	2489.7
25297	13.35	1.1818	0.1	2467.1
25298	13.258	1.2727	0.1	2490.7
25299	13.35	1.	0.1	2468.1
25300	13.258	1.0909	0.1	2491.7
25301	13.35	0.81818	0.1	2469.3
25302	13.258	0.90909	0.1	2492.8
25303	13.35	0.63636	0.1	2470.5
25304	13.258	0.72727	0.1	2494.
25305	13.35	0.45455	0.1	2471.9
25306	13.258	0.54545	0.1	2495.3
25307	13.35	0.27273	0.1	2474.2
25308	13.258	0.36364	0.1	2496.8
25309	13.258	0.18182	0.1	2500.
25310	13.35	9.0909e-002	0.1	2471.2
25311	13.166	5.7273	0.1	2522.5
25312	13.074	5.8182	0.1	2548.4
25313	13.166	5.9091	0.1	2519.6
25314	13.166	5.5455	0.1	2520.2
25315	13.074	5.6364	0.1	2545.2
25316	13.166	5.3636	0.1	2518.8
25317	13.074	5.4545	0.1	2543.7
25318	13.166	5.1818	0.1	2517.5
25319	13.074	5.2727	0.1	2542.4
25320	13.166	5.	0.1	2516.3
25321	13.074	5.0909	0.1	2541.1
25322	13.166	4.8182	0.1	2515.3
25323	13.074	4.9091	0.1	2540.
25324	13.166	4.6364	0.1	2514.3
25325	13.074	4.7273	0.1	2539.
25326	13.166	4.4545	0.1	2513.4
25327	13.074	4.5455	0.1	2538.
25328	13.166	4.2727	0.1	2512.6
25329	13.074	4.3636	0.1	2537.2
25330	13.166	4.0909	0.1	2511.9
25331	13.074	4.1818	0.1	2536.4
25332	13.166	3.9091	0.1	2511.3
25333	13.074	4.	0.1	2535.8
25334	13.166	3.7273	0.1	2510.9
25335	13.074	3.8182	0.1	2535.2
25336	13.166	3.5455	0.1	2510.5
25337	13.074	3.6364	0.1	2534.8
25338	13.166	3.3636	0.1	2510.2
25339	13.074	3.4545	0.1	2534.5
25340	13.166	3.1818	0.1	2510.1
25341	13.074	3.2727	0.1	2534.3
25342	13.166	3.	0.1	2510.
25343	13.074	3.0909	0.1	2534.2
25344	13.166	2.8182	0.1	2510.1
25345	13.074	2.9091	0.1	2534.2
25346	13.166	2.6364	0.1	2510.2
25347	13.074	2.7273	0.1	2534.3
25348	13.166	2.4545	0.1	2510.5
25349	13.074	2.5455	0.1	2534.5
25350	13.166	2.2727	0.1	2510.9
25351	13.074	2.3636	0.1	2534.8
25352	13.166	2.0909	0.1	2511.3
25353	13.074	2.1818	0.1	2535.2
25354	13.166	1.9091	0.1	2511.9
25355	13.074	2.	0.1	2535.8
25356	13.166	1.7273	0.1	2512.6
25357	13.074	1.8182	0.1	2536.4
25358	13.166	1.5455	0.1	2513.4
25359	13.074	1.6364	0.1	2537.2
25360	13.166	1.3636	0.1	2514.3
25361	13.074	1.4545	0.1	2538.
25362	13.166	1.1818	0.1	2515.3
25363	13.074	1.2727	0.1	2539.
25364	13.166	1.	0.1	2516.3
25365	13.074	1.0909	0.1	2540.
25366	13.166	0.81818	0.1	2517.5
25367	13.074	0.90909	0.1	2541.1
25368	13.166	0.63636	0.1	2518.8
25369	13.074	0.72727	0.1	2542.4
25370	13.166	0.45455	0.1	2520.2
25371	13.074	0.54545	0.1	2543.7
25372	13.166	0.27273	0.1	2522.5
25373	13.074	0.36364	0.1	2545.2
25374	13.074	0.18182	0.1	2548.4
25375	13.166	9.0909e-002	0.1	2519.6
25376	12.982	5.7273	0.1	2571.
25377	12.891	5.8182	0.1	2597.
25378	12.982	5.9091	0.1	2568.2
25379	12.982	5.5455	0.1	2568.7
25380	12.891	5.6364	0.1	2593.8
25381	12.982	5.3636	0.1	2567.3
25382	12.891	5.4545	0.1	2592.3
25383	12.982	5.1818	0.1	2566.
25384	12.891	5.2727	0.1	2590.9
25385	12.982	5.	0.1	2564.8
25386	12.891	5.0909	0.1	2589.7
25387	12.982	4.8182	0.1	2563.7
25388	12.891	4.9091	0.1	2588.5
25389	12.982	4.6364	0.1	2562.7
25390	12.891	4.7273	0.1	2587.4
25391	12.982	4.4545	0.1	2561.8
25392	12.891	4.5455	0.1	2586.5
25393	12.982	4.2727	0.1	2560.9
25394	12.891	4.3636	0.1	2585.6
25395	12.982	4.0909	0.1	2560.2
25396	12.891	4.1818	0.1	2584.8
25397	12.982	3.9091	0.1	2559.7
25398	12.891	4.	0.1	2584.2
25399	12.982	3.7273	0.1	2559.2
25400	12.891	3.8182	0.1	2583.6
25401	12.982	3.5455	0.1	2558.8
25402	12.891	3.6364	0.1	2583.2
25403	12.982	3.3636	0.1	2558.5
25404	12.891	3.4545	0.1	2582.9
25405	12.982	3.1818	0.1	2558.3
25406	12.891	3.2727	0.1	2582.6
25407	12.982	3.	0.1	2558.3
25408	12.891	3.0909	0.1	2582.5
25409	12.982	2.8182	0.1	2558.3
25410	12.891	2.9091	0.1	2582.5
25411	12.982	2.6364	0.1	2558.5
25412	12.891	2.7273	0.1	2582.6
25413	12.982	2.4545	0.1	2558.8
25414	12.891	2.5455	0.1	2582.9
25415	12.982	2.2727	0.1	2559.2
25416	12.891	2.3636	0.1	2583.2
25417	12.982	2.0909	0.1	2559.7
25418	12.891	2.1818	0.1	2583.6
25419	12.982	1.9091	0.1	2560.2
25420	12.891	2.	0.1	2584.2
25421	12.982	1.7273	0.1	2560.9
25422	12.891	1.8182	0.1	2584.8
25423	12.982	1.5455	0.1	2561.8
25424	12.891	1.6364	0.1	2585.6
25425	12.982	1.3636	0.1	2562.7
25426	12.891	1.4545	0.1	2586.5
25427	12.982	1.1818	0.1	2563.7
25428	12.891	1.2727	0.1	2587.4
25429	12.982	1.	0.1	2564.8
25430	12.891	1.0909	0.1	2588.5
25431	12.982	0.81818	0.1	2566.
25432	12.891	0.90909	0.1	2589.7
25433	12.982	0.63636	0.1	2567.3
25434	12.891	0.72727	0.1	2590.9
25435	12.982	0.45455	0.1	2568.7
25436	12.891	0.54545	0.1	2592.3
25437	12.982	0.27273	0.1	2571.
25438	12.891	0.36364	0.1	2593.8
25439	12.891	0.18182	0.1	2597.
25440	12.982	9.0909e-002	0.1	2568.2
25441	12.799	5.7273	0.1	2619.7
25442	12.707	5.8182	0.1	2645.8
25443	12.799	5.9091	0.1	2617.
25444	12.799	5.5455	0.1	2617.4
25445	12.707	5.6364	0.1	2642.6
25446	12.799	5.3636	0.1	2615.9
25447	12.707	5.4545	0.1	2641.1
25448	12.799	5.1818	0.1	2614.6
25449	12.707	5.2727	0.1	2639.7
25450	12.799	5.	0.1	2613.4
25451	12.707	5.0909	0.1	2638.4
25452	12.799	4.8182	0.1	2612.3
25453	12.707	4.9091	0.1	2637.2
25454	12.799	4.6364	0.1	2611.2
25455	12.707	4.7273	0.1	2636.1
25456	12.799	4.4545	0.1	2610.3
25457	12.707	4.5455	0.1	2635.1
25458	12.799	4.2727	0.1	2609.5
25459	12.707	4.3636	0.1	2634.3
25460	12.799	4.0909	0.1	2608.8
25461	12.707	4.1818	0.1	2633.5
25462	12.799	3.9091	0.1	2608.2
25463	12.707	4.	0.1	2632.8
25464	12.799	3.7273	0.1	2607.7
25465	12.707	3.8182	0.1	2632.2
25466	12.799	3.5455	0.1	2607.3
25467	12.707	3.6364	0.1	2631.8
25468	12.799	3.3636	0.1	2607.
25469	12.707	3.4545	0.1	2631.4
25470	12.799	3.1818	0.1	2606.8
25471	12.707	3.2727	0.1	2631.2
25472	12.799	3.	0.1	2606.8
25473	12.707	3.0909	0.1	2631.1
25474	12.799	2.8182	0.1	2606.8
25475	12.707	2.9091	0.1	2631.1
25476	12.799	2.6364	0.1	2607.
25477	12.707	2.7273	0.1	2631.2
25478	12.799	2.4545	0.1	2607.3
25479	12.707	2.5455	0.1	2631.4
25480	12.799	2.2727	0.1	2607.7
25481	12.707	2.3636	0.1	2631.8
25482	12.799	2.0909	0.1	2608.2
25483	12.707	2.1818	0.1	2632.2
25484	12.799	1.9091	0.1	2608.8
25485	12.707	2.	0.1	2632.8
25486	12.799	1.7273	0.1	2609.5
25487	12.707	1.8182	0.1	2633.5
25488	12.799	1.5455	0.1	2610.3
25489	12.707	1.6364	0.1	2634.3
25490	12.799	1.3636	0.1	2611.2
25491	12.707	1.4545	0.1	2635.1
25492	12.799	1.1818	0.1	2612.3
25493	12.707	1.2727	0.1	2636.1
25494	12.799	1.	0.1	2613.4
25495	12.707	1.0909	0.1	2637.2
25496	12.799	0.81818	0.1	2614.6
25497	12.707	0.90909	0.1	2638.4
25498	12.799	0.63636	0.1	2615.9
25499	12.707	0.72727	0.1	2639.7
25500	12.799	0.45455	0.1	2617.4
25501	12.707	0.54545	0.1	2641.1
25502	12.799	0.27273	0.1	2619.7
25503	12.707	0.36364	0.1	2642.6
25504	12.707	0.18182	0.1	2645.8
25505	12.799	9.0909e-002	0.1	2617.
25506	12.615	5.7273	0.1	2668.6
25507	12.523	5.8182	0.1	2694.8
25508	12.615	5.9091	0.1	2666.
25509	12.615	5.5455	0.1	2666.3
25510	12.523	5.6364	0.1	2691.7
25511	12.615	5.3636	0.1	2664.8
25512	12.523	5.4545	0.1	2690.1
25513	12.615	5.1818	0.1	2663.5
25514	12.523	5.2727	0.1	2688.7
25515	12.615	5.	0.1	2662.2
25516	12.523	5.0909	0.1	2687.4
25517	12.615	4.8182	0.1	2661.1
25518	12.523	4.9091	0.1	2686.1
25519	12.615	4.6364	0.1	2660.
25520	12.523	4.7273	0.1	2685.
25521	12.615	4.4545	0.1	2659.1
25522	12.523	4.5455	0.1	2684.
25523	12.615	4.2727	0.1	2658.2
25524	12.523	4.3636	0.1	2683.1
25525	12.615	4.0909	0.1	2657.5
25526	12.523	4.1818	0.1	2682.3
25527	12.615	3.9091	0.1	2656.9
25528	12.523	4.	0.1	2681.6
25529	12.615	3.7273	0.1	2656.3
25530	12.523	3.8182	0.1	2681.
25531	12.615	3.5455	0.1	2655.9
25532	12.523	3.6364	0.1	2680.5
25533	12.615	3.3636	0.1	2655.6
25534	12.523	3.4545	0.1	2680.2
25535	12.615	3.1818	0.1	2655.5
25536	12.523	3.2727	0.1	2680.
25537	12.615	3.	0.1	2655.4
25538	12.523	3.0909	0.1	2679.8
25539	12.615	2.8182	0.1	2655.5
25540	12.523	2.9091	0.1	2679.8
25541	12.615	2.6364	0.1	2655.6
25542	12.523	2.7273	0.1	2680.
25543	12.615	2.4545	0.1	2655.9
25544	12.523	2.5455	0.1	2680.2
25545	12.615	2.2727	0.1	2656.3
25546	12.523	2.3636	0.1	2680.5
25547	12.615	2.0909	0.1	2656.9
25548	12.523	2.1818	0.1	2681.
25549	12.615	1.9091	0.1	2657.5
25550	12.523	2.	0.1	2681.6
25551	12.615	1.7273	0.1	2658.2
25552	12.523	1.8182	0.1	2682.3
25553	12.615	1.5455	0.1	2659.1
25554	12.523	1.6364	0.1	2683.1
25555	12.615	1.3636	0.1	2660.
25556	12.523	1.4545	0.1	2684.
25557	12.615	1.1818	0.1	2661.1
25558	12.523	1.2727	0.1	2685.
25559	12.615	1.	0.1	2662.2
25560	12.523	1.0909	0.1	2686.1
25561	12.615	0.81818	0.1	2663.5
25562	12.523	0.90909	0.1	2687.4
25563	12.615	0.63636	0.1	2664.8
25564	12.523	0.72727	0.1	2688.7
25565	12.615	0.45455	0.1	2666.3
25566	12.523	0.54545	0.1	2690.1
25567	12.615	0.27273	0.1	2668.6
25568	12.523	0.36364	0.1	2691.7
25569	12.523	0.18182	0.1	2694.8
25570	12.615	9.0909e-002	0.1	2666.
25571	12.432	5.7273	0.1	2717.7
25572	12.34	5.8182	0.1	2744.
25573	12.432	5.9091	0.1	2715.2
25574	12.432	5.5455	0.1	2715.4
25575	12.34	5.6364	0.1	2740.9
25576	12.432	5.3636	0.1	2713.9
25577	12.34	5.4545	0.1	2739.3
25578	12.432	5.1818	0.1	2712.5
25579	12.34	5.2727	0.1	2737.8
25580	12.432	5.	0.1	2711.2
25581	12.34	5.0909	0.1	2736.5
25582	12.432	4.8182	0.1	2710.1
25583	12.34	4.9091	0.1	2735.3
25584	12.432	4.6364	0.1	2709.
25585	12.34	4.7273	0.1	2734.1
25586	12.432	4.4545	0.1	2708.
25587	12.34	4.5455	0.1	2733.1
25588	12.432	4.2727	0.1	2707.1
25589	12.34	4.3636	0.1	2732.1
25590	12.432	4.0909	0.1	2706.4
25591	12.34	4.1818	0.1	2731.3
25592	12.432	3.9091	0.1	2705.7
25593	12.34	4.	0.1	2730.6
25594	12.432	3.7273	0.1	2705.2
25595	12.34	3.8182	0.1	2730.
25596	12.432	3.5455	0.1	2704.8
25597	12.34	3.6364	0.1	2729.5
25598	12.432	3.3636	0.1	2704.5
25599	12.34	3.4545	0.1	2729.1
25600	12.432	3.1818	0.1	2704.3
25601	12.34	3.2727	0.1	2728.9
25602	12.432	3.	0.1	2704.2
25603	12.34	3.0909	0.1	2728.8
25604	12.432	2.8182	0.1	2704.3
25605	12.34	2.9091	0.1	2728.8
25606	12.432	2.6364	0.1	2704.5
25607	12.34	2.7273	0.1	2728.9
25608	12.432	2.4545	0.1	2704.8
25609	12.34	2.5455	0.1	2729.1
25610	12.432	2.2727	0.1	2705.2
25611	12.34	2.3636	0.1	2729.5
25612	12.432	2.0909	0.1	2705.7
25613	12.34	2.1818	0.1	2730.
25614	12.432	1.9091	0.1	2706.4
25615	12.34	2.	0.1	2730.6
25616	12.432	1.7273	0.1	2707.1
25617	12.34	1.8182	0.1	2731.3
25618	12.432	1.5455	0.1	2708.
25619	12.34	1.6364	0.1	2732.1
25620	12.432	1.3636	0.1	2709.
25621	12.34	1.4545	0.1	2733.1
25622	12.432	1.1818	0.1	2710.1
25623	12.34	1.2727	0.1	2734.1
25624	12.432	1.	0.1	2711.2
25625	12.34	1.0909	0.1	2735.3
25626	12.432	0.81818	0.1	2712.5
25627	12.34	0.90909	0.1	2736.5
25628	12.432	0.63636	0.1	2713.9
25629	12.34	0.72727	0.1	2737.8
25630	12.432	0.45455	0.1	2715.4
25631	12.34	0.54545	0.1	2739.3
25632	12.432	0.27273	0.1	2717.7
25633	12.34	0.36364	0.1	2740.9
25634	12.34	0.18182	0.1	2744.
25635	12.432	9.0909e-002	0.1	2715.2
25636	12.248	5.7273	0.1	2767.1
25637	12.156	5.8182	0.1	2793.5
25638	12.248	5.9091	0.1	2764.7
25639	12.248	5.5455	0.1	2764.7
25640	12.156	5.6364	0.1	2790.3
25641	12.248	5.3636	0.1	2763.2
25642	12.156	5.4545	0.1	2788.7
25643	12.248	5.1818	0.1	2761.8
25644	12.156	5.2727	0.1	2787.2
25645	12.248	5.	0.1	2760.5
25646	12.156	5.0909	0.1	2785.8
25647	12.248	4.8182	0.1	2759.3
25648	12.156	4.9091	0.1	2784.6
25649	12.248	4.6364	0.1	2758.2
25650	12.156	4.7273	0.1	2783.4
25651	12.248	4.4545	0.1	2757.1
25652	12.156	4.5455	0.1	2782.3
25653	12.248	4.2727	0.1	2756.3
25654	12.156	4.3636	0.1	2781.3
25655	12.248	4.0909	0.1	2755.5
25656	12.156	4.1818	0.1	2780.5
25657	12.248	3.9091	0.1	2754.8
25658	12.156	4.	0.1	2779.7
25659	12.248	3.7273	0.1	2754.3
25660	12.156	3.8182	0.1	2779.1
25661	12.248	3.5455	0.1	2753.8
25662	12.156	3.6364	0.1	2778.6
25663	12.248	3.3636	0.1	2753.5
25664	12.156	3.4545	0.1	2778.3
25665	12.248	3.1818	0.1	2753.3
25666	12.156	3.2727	0.1	2778.
25667	12.248	3.	0.1	2753.3
25668	12.156	3.0909	0.1	2777.9
25669	12.248	2.8182	0.1	2753.3
25670	12.156	2.9091	0.1	2777.9
25671	12.248	2.6364	0.1	2753.5
25672	12.156	2.7273	0.1	2778.
25673	12.248	2.4545	0.1	2753.8
25674	12.156	2.5455	0.1	2778.3
25675	12.248	2.2727	0.1	2754.3
25676	12.156	2.3636	0.1	2778.6
25677	12.248	2.0909	0.1	2754.8
25678	12.156	2.1818	0.1	2779.1
25679	12.248	1.9091	0.1	2755.5
25680	12.156	2.	0.1	2779.8
25681	12.248	1.7273	0.1	2756.3
25682	12.156	1.8182	0.1	2780.5
25683	12.248	1.5455	0.1	2757.1
25684	12.156	1.6364	0.1	2781.3
25685	12.248	1.3636	0.1	2758.2
25686	12.156	1.4545	0.1	2782.3
25687	12.248	1.1818	0.1	2759.3
25688	12.156	1.2727	0.1	2783.4
25689	12.248	1.	0.1	2760.5
25690	12.156	1.0909	0.1	2784.6
25691	12.248	0.81818	0.1	2761.8
25692	12.156	0.90909	0.1	2785.8
25693	12.248	0.63636	0.1	2763.2
25694	12.156	0.72727	0.1	2787.2
25695	12.248	0.45455	0.1	2764.7
25696	12.156	0.54545	0.1	2788.7
25697	12.248	0.27273	0.1	2767.1
25698	12.156	0.36364	0.1	2790.3
25699	12.156	0.18182	0.1	2793.5
25700	12.248	9.0909e-002	0.1	2764.7
25701	12.064	5.7273	0.1	2816.6
25702	11.973	5.8182	0.1	2843.1
25703	12.064	5.9091	0.1	2814.4
25704	12.064	5.5455	0.1	2814.3
25705	11.973	5.6364	0.1	2840.
25706	12.064	5.3636	0.1	2812.7
25707	11.973	5.4545	0.1	2838.3
25708	12.064	5.1818	0.1	2811.3
25709	11.973	5.2727	0.1	2836.8
25710	12.064	5.	0.1	2809.9
25711	11.973	5.0909	0.1	2835.4
25712	12.064	4.8182	0.1	2808.7
25713	11.973	4.9091	0.1	2834.1
25714	12.064	4.6364	0.1	2807.5
25715	11.973	4.7273	0.1	2832.9
25716	12.064	4.4545	0.1	2806.5
25717	11.973	4.5455	0.1	2831.7
25718	12.064	4.2727	0.1	2805.6
25719	11.973	4.3636	0.1	2830.8
25720	12.064	4.0909	0.1	2804.7
25721	11.973	4.1818	0.1	2829.9
25722	12.064	3.9091	0.1	2804.1
25723	11.973	4.	0.1	2829.1
25724	12.064	3.7273	0.1	2803.5
25725	11.973	3.8182	0.1	2828.5
25726	12.064	3.5455	0.1	2803.
25727	11.973	3.6364	0.1	2827.9
25728	12.064	3.3636	0.1	2802.7
25729	11.973	3.4545	0.1	2827.6
25730	12.064	3.1818	0.1	2802.5
25731	11.973	3.2727	0.1	2827.3
25732	12.064	3.	0.1	2802.5
25733	11.973	3.0909	0.1	2827.2
25734	12.064	2.8182	0.1	2802.5
25735	11.973	2.9091	0.1	2827.2
25736	12.064	2.6364	0.1	2802.7
25737	11.973	2.7273	0.1	2827.3
25738	12.064	2.4545	0.1	2803.
25739	11.973	2.5455	0.1	2827.6
25740	12.064	2.2727	0.1	2803.5
25741	11.973	2.3636	0.1	2827.9
25742	12.064	2.0909	0.1	2804.1
25743	11.973	2.1818	0.1	2828.5
25744	12.064	1.9091	0.1	2804.7
25745	11.973	2.	0.1	2829.1
25746	12.064	1.7273	0.1	2805.6
25747	11.973	1.8182	0.1	2829.9
25748	12.064	1.5455	0.1	2806.5
25749	11.973	1.6364	0.1	2830.8
25750	12.064	1.3636	0.1	2807.5
25751	11.973	1.4545	0.1	2831.7
25752	12.064	1.1818	0.1	2808.7
25753	11.973	1.2727	0.1	2832.9
25754	12.064	1.	0.1	2809.9
25755	11.973	1.0909	0.1	2834.1
25756	12.064	0.81818	0.1	2811.3
25757	11.973	0.90909	0.1	2835.4
25758	12.064	0.63636	0.1	2812.7
25759	11.973	0.72727	0.1	2836.8
25760	12.064	0.45455	0.1	2814.3
25761	11.973	0.54545	0.1	2838.3
25762	12.064	0.27273	0.1	2816.6
25763	11.973	0.36364	0.1	2840.
25764	11.973	0.18182	0.1	2843.1
25765	12.064	9.0909e-002	0.1	2814.4
25766	11.881	5.7273	0.1	2866.4
25767	11.789	5.8182	0.1	2893.
25768	11.881	5.9091	0.1	2864.2
25769	11.881	5.5455	0.1	2864.
25770	11.789	5.6364	0.1	2889.9
25771	11.881	5.3636	0.1	2862.4
25772	11.789	5.4545	0.1	2888.2
25773	11.881	5.1818	0.1	2860.9
25774	11.789	5.2727	0.1	2886.6
25775	11.881	5.	0.1	2859.5
25776	11.789	5.0909	0.1	2885.1
25777	11.881	4.8182	0.1	2858.3
25778	11.789	4.9091	0.1	2883.8
25779	11.881	4.6364	0.1	2857.1
25780	11.789	4.7273	0.1	2882.5
25781	11.881	4.4545	0.1	2856.
25782	11.789	4.5455	0.1	2881.4
25783	11.881	4.2727	0.1	2855.
25784	11.789	4.3636	0.1	2880.4
25785	11.881	4.0909	0.1	2854.2
25786	11.789	4.1818	0.1	2879.4
25787	11.881	3.9091	0.1	2853.5
25788	11.789	4.	0.1	2878.6
25789	11.881	3.7273	0.1	2852.9
25790	11.789	3.8182	0.1	2878.
25791	11.881	3.5455	0.1	2852.4
25792	11.789	3.6364	0.1	2877.4
25793	11.881	3.3636	0.1	2852.1
25794	11.789	3.4545	0.1	2877.
25795	11.881	3.1818	0.1	2851.9
25796	11.789	3.2727	0.1	2876.8
25797	11.881	3.	0.1	2851.8
25798	11.789	3.0909	0.1	2876.6
25799	11.881	2.8182	0.1	2851.9
25800	11.789	2.9091	0.1	2876.6
25801	11.881	2.6364	0.1	2852.1
25802	11.789	2.7273	0.1	2876.8
25803	11.881	2.4545	0.1	2852.4
25804	11.789	2.5455	0.1	2877.
25805	11.881	2.2727	0.1	2852.9
25806	11.789	2.3636	0.1	2877.4
25807	11.881	2.0909	0.1	2853.5
25808	11.789	2.1818	0.1	2878.
25809	11.881	1.9091	0.1	2854.2
25810	11.789	2.	0.1	2878.6
25811	11.881	1.7273	0.1	2855.
25812	11.789	1.8182	0.1	2879.4
25813	11.881	1.5455	0.1	2856.
25814	11.789	1.6364	0.1	2880.4
25815	11.881	1.3636	0.1	2857.1
25816	11.789	1.4545	0.1	2881.4
25817	11.881	1.1818	0.1	2858.3
25818	11.789	1.2727	0.1	2882.5
25819	11.881	1.	0.1	2859.5
25820	11.789	1.0909	0.1	2883.8
25821	11.881	0.81818	0.1	2860.9
25822	11.789	0.90909	0.1	2885.1
25823	11.881	0.63636	0.1	2862.4
25824	11.789	0.72727	0.1	2886.6
25825	11.881	0.45455	0.1	2864.
25826	11.789	0.54545	0.1	2888.2
25827	11.881	0.27273	0.1	2866.4
25828	11.789	0.36364	0.1	2889.9
25829	11.789	0.18182	0.1	2893.
25830	11.881	9.0909e-002	0.1	2864.2
25831	11.697	5.7273	0.1	2916.4
25832	11.605	5.8182	0.1	2943.1
25833	11.697	5.9091	0.1	2914.4
25834	11.697	5.5455	0.1	2914.
25835	11.605	5.6364	0.1	2940.
25836	11.697	5.3636	0.1	2912.3
25837	11.605	5.4545	0.1	2938.2
25838	11.697	5.1818	0.1	2910.8
25839	11.605	5.2727	0.1	2936.6
25840	11.697	5.	0.1	2909.4
25841	11.605	5.0909	0.1	2935.1
25842	11.697	4.8182	0.1	2908.
25843	11.605	4.9091	0.1	2933.7
25844	11.697	4.6364	0.1	2906.8
25845	11.605	4.7273	0.1	2932.4
25846	11.697	4.4545	0.1	2905.7
25847	11.605	4.5455	0.1	2931.2
25848	11.697	4.2727	0.1	2904.7
25849	11.605	4.3636	0.1	2930.1
25850	11.697	4.0909	0.1	2903.9
25851	11.605	4.1818	0.1	2929.2
25852	11.697	3.9091	0.1	2903.1
25853	11.605	4.	0.1	2928.4
25854	11.697	3.7273	0.1	2902.5
25855	11.605	3.8182	0.1	2927.7
25856	11.697	3.5455	0.1	2902.
25857	11.605	3.6364	0.1	2927.1
25858	11.697	3.3636	0.1	2901.7
25859	11.605	3.4545	0.1	2926.7
25860	11.697	3.1818	0.1	2901.5
25861	11.605	3.2727	0.1	2926.4
25862	11.697	3.	0.1	2901.4
25863	11.605	3.0909	0.1	2926.3
25864	11.697	2.8182	0.1	2901.5
25865	11.605	2.9091	0.1	2926.3
25866	11.697	2.6364	0.1	2901.7
25867	11.605	2.7273	0.1	2926.4
25868	11.697	2.4545	0.1	2902.
25869	11.605	2.5455	0.1	2926.7
25870	11.697	2.2727	0.1	2902.5
25871	11.605	2.3636	0.1	2927.1
25872	11.697	2.0909	0.1	2903.1
25873	11.605	2.1818	0.1	2927.7
25874	11.697	1.9091	0.1	2903.9
25875	11.605	2.	0.1	2928.4
25876	11.697	1.7273	0.1	2904.7
25877	11.605	1.8182	0.1	2929.2
25878	11.697	1.5455	0.1	2905.7
25879	11.605	1.6364	0.1	2930.1
25880	11.697	1.3636	0.1	2906.8
25881	11.605	1.4545	0.1	2931.2
25882	11.697	1.1818	0.1	2908.
25883	11.605	1.2727	0.1	2932.4
25884	11.697	1.	0.1	2909.4
25885	11.605	1.0909	0.1	2933.7
25886	11.697	0.81818	0.1	2910.8
25887	11.605	0.90909	0.1	2935.1
25888	11.697	0.63636	0.1	2912.3
25889	11.605	0.72727	0.1	2936.6
25890	11.697	0.45455	0.1	2914.
25891	11.605	0.54545	0.1	2938.2
25892	11.697	0.27273	0.1	2916.4
25893	11.605	0.36364	0.1	2940.
25894	11.605	0.18182	0.1	2943.1
25895	11.697	9.0909e-002	0.1	2914.4
25896	11.513	5.7273	0.1	2966.6
25897	11.422	5.8182	0.1	2993.5
25898	11.513	5.9091	0.1	2964.7
25899	11.513	5.5455	0.1	2964.2
25900	11.422	5.6364	0.1	2990.3
25901	11.513	5.3636	0.1	2962.5
25902	11.422	5.4545	0.1	2988.5
25903	11.513	5.1818	0.1	2960.9
25904	11.422	5.2727	0.1	2986.8
25905	11.513	5.	0.1	2959.4
25906	11.422	5.0909	0.1	2985.3
25907	11.513	4.8182	0.1	2958.
25908	11.422	4.9091	0.1	2983.8
25909	11.513	4.6364	0.1	2956.8
25910	11.422	4.7273	0.1	2982.5
25911	11.513	4.4545	0.1	2955.6
25912	11.422	4.5455	0.1	2981.2
25913	11.513	4.2727	0.1	2954.6
25914	11.422	4.3636	0.1	2980.1
25915	11.513	4.0909	0.1	2953.7
25916	11.422	4.1818	0.1	2979.1
25917	11.513	3.9091	0.1	2952.9
25918	11.422	4.	0.1	2978.3
25919	11.513	3.7273	0.1	2952.3
25920	11.422	3.8182	0.1	2977.6
25921	11.513	3.5455	0.1	2951.8
25922	11.422	3.6364	0.1	2977.
25923	11.513	3.3636	0.1	2951.4
25924	11.422	3.4545	0.1	2976.5
25925	11.513	3.1818	0.1	2951.2
25926	11.422	3.2727	0.1	2976.2
25927	11.513	3.	0.1	2951.1
25928	11.422	3.0909	0.1	2976.1
25929	11.513	2.8182	0.1	2951.2
25930	11.422	2.9091	0.1	2976.1
25931	11.513	2.6364	0.1	2951.4
25932	11.422	2.7273	0.1	2976.2
25933	11.513	2.4545	0.1	2951.8
25934	11.422	2.5455	0.1	2976.5
25935	11.513	2.2727	0.1	2952.3
25936	11.422	2.3636	0.1	2977.
25937	11.513	2.0909	0.1	2952.9
25938	11.422	2.1818	0.1	2977.6
25939	11.513	1.9091	0.1	2953.7
25940	11.422	2.	0.1	2978.3
25941	11.513	1.7273	0.1	2954.6
25942	11.422	1.8182	0.1	2979.1
25943	11.513	1.5455	0.1	2955.6
25944	11.422	1.6364	0.1	2980.1
25945	11.513	1.3636	0.1	2956.8
25946	11.422	1.4545	0.1	2981.2
25947	11.513	1.1818	0.1	2958.
25948	11.422	1.2727	0.1	2982.5
25949	11.513	1.	0.1	2959.4
25950	11.422	1.0909	0.1	2983.8
25951	11.513	0.81818	0.1	2960.9
25952	11.422	0.90909	0.1	2985.3
25953	11.513	0.63636	0.1	2962.5
25954	11.422	0.72727	0.1	2986.8
25955	11.513	0.45455	0.1	2964.2
25956	11.422	0.54545	0.1	2988.5
25957	11.513	0.27273	0.1	2966.6
25958	11.422	0.36364	0.1	2990.3
25959	11.422	0.18182	0.1	2993.5
25960	11.513	9.0909e-002	0.1	2964.7
25961	11.33	5.7273	0.1	3017.
25962	11.238	5.8182	0.1	3044.
25963	11.33	5.9091	0.1	3015.3
25964	11.33	5.5455	0.1	3014.6
25965	11.238	5.6364	0.1	3040.8
25966	11.33	5.3636	0.1	3012.8
25967	11.238	5.4545	0.1	3038.9
25968	11.33	5.1818	0.1	3011.2
25969	11.238	5.2727	0.1	3037.2
25970	11.33	5.	0.1	3009.6
25971	11.238	5.0909	0.1	3035.6
25972	11.33	4.8182	0.1	3008.2
25973	11.238	4.9091	0.1	3034.1
25974	11.33	4.6364	0.1	3006.9
25975	11.238	4.7273	0.1	3032.7
25976	11.33	4.4545	0.1	3005.7
25977	11.238	4.5455	0.1	3031.5
25978	11.33	4.2727	0.1	3004.7
25979	11.238	4.3636	0.1	3030.3
25980	11.33	4.0909	0.1	3003.7
25981	11.238	4.1818	0.1	3029.3
25982	11.33	3.9091	0.1	3002.9
25983	11.238	4.	0.1	3028.4
25984	11.33	3.7273	0.1	3002.2
25985	11.238	3.8182	0.1	3027.6
25986	11.33	3.5455	0.1	3001.7
25987	11.238	3.6364	0.1	3027.
25988	11.33	3.3636	0.1	3001.3
25989	11.238	3.4545	0.1	3026.6
25990	11.33	3.1818	0.1	3001.1
25991	11.238	3.2727	0.1	3026.2
25992	11.33	3.	0.1	3001.
25993	11.238	3.0909	0.1	3026.1
25994	11.33	2.8182	0.1	3001.1
25995	11.238	2.9091	0.1	3026.1
25996	11.33	2.6364	0.1	3001.3
25997	11.238	2.7273	0.1	3026.2
25998	11.33	2.4545	0.1	3001.7
25999	11.238	2.5455	0.1	3026.6
26000	11.33	2.2727	0.1	3002.2
26001	11.238	2.3636	0.1	3027.
26002	11.33	2.0909	0.1	3002.9
26003	11.238	2.1818	0.1	3027.6
26004	11.33	1.9091	0.1	3003.7
26005	11.238	2.	0.1	3028.4
26006	11.33	1.7273	0.1	3004.7
26007	11.238	1.8182	0.1	3029.3
26008	11.33	1.5455	0.1	3005.7
26009	11.238	1.6364	0.1	3030.3
26010	11.33	1.3636	0.1	3006.9
26011	11.238	1.4545	0.1	3031.5
26012	11.33	1.1818	0.1	3008.2
26013	11.238	1.2727	0.1	3032.7
26014	11.33	1.	0.1	3009.6
26015	11.238	1.0909	0.1	3034.1
26016	11.33	0.81818	0.1	3011.2
26017	11.238	0.90909	0.1	3035.6
26018	11.33	0.63636	0.1	3012.8
26019	11.238	0.72727	0.1	3037.2
26020	11.33	0.45455	0.1	3014.6
26021	11.238	0.54545	0.1	3038.9
26022	11.33	0.27273	0.1	3017.
26023	11.238	0.36364	0.1	3040.8
26024	11.238	0.18182	0.1	3044.
26025	11.33	9.0909e-002	0.1	3015.3
26026	11.146	5.7273	0.1	3067.7
26027	11.054	5.8182	0.1	3094.8
26028	11.146	5.9091	0.1	3066.
26029	11.146	5.5455	0.1	3065.2
26030	11.054	5.6364	0.1	3091.5
26031	11.146	5.3636	0.1	3063.3
26032	11.054	5.4545	0.1	3089.6
26033	11.146	5.1818	0.1	3061.7
26034	11.054	5.2727	0.1	3087.9
26035	11.146	5.	0.1	3060.1
26036	11.054	5.0909	0.1	3086.2
26037	11.146	4.8182	0.1	3058.6
26038	11.054	4.9091	0.1	3084.6
26039	11.146	4.6364	0.1	3057.2
26040	11.054	4.7273	0.1	3083.2
26041	11.146	4.4545	0.1	3056.
26042	11.054	4.5455	0.1	3081.9
26043	11.146	4.2727	0.1	3054.9
26044	11.054	4.3636	0.1	3080.7
26045	11.146	4.0909	0.1	3053.9
26046	11.054	4.1818	0.1	3079.6
26047	11.146	3.9091	0.1	3053.1
26048	11.054	4.	0.1	3078.7
26049	11.146	3.7273	0.1	3052.4
26050	11.054	3.8182	0.1	3077.9
26051	11.146	3.5455	0.1	3051.8
26052	11.054	3.6364	0.1	3077.2
26053	11.146	3.3636	0.1	3051.4
26054	11.054	3.4545	0.1	3076.7
26055	11.146	3.1818	0.1	3051.2
26056	11.054	3.2727	0.1	3076.4
26057	11.146	3.	0.1	3051.1
26058	11.054	3.0909	0.1	3076.3
26059	11.146	2.8182	0.1	3051.2
26060	11.054	2.9091	0.1	3076.3
26061	11.146	2.6364	0.1	3051.4
26062	11.054	2.7273	0.1	3076.4
26063	11.146	2.4545	0.1	3051.8
26064	11.054	2.5455	0.1	3076.7
26065	11.146	2.2727	0.1	3052.4
26066	11.054	2.3636	0.1	3077.2
26067	11.146	2.0909	0.1	3053.1
26068	11.054	2.1818	0.1	3077.9
26069	11.146	1.9091	0.1	3053.9
26070	11.054	2.	0.1	3078.7
26071	11.146	1.7273	0.1	3054.9
26072	11.054	1.8182	0.1	3079.6
26073	11.146	1.5455	0.1	3056.
26074	11.054	1.6364	0.1	3080.7
26075	11.146	1.3636	0.1	3057.2
26076	11.054	1.4545	0.1	3081.9
26077	11.146	1.1818	0.1	3058.6
26078	11.054	1.2727	0.1	3083.2
26079	11.146	1.	0.1	3060.1
26080	11.054	1.0909	0.1	3084.6
26081	11.146	0.81818	0.1	3061.7
26082	11.054	0.90909	0.1	3086.2
26083	11.146	0.63636	0.1	3063.4
26084	11.054	0.72727	0.1	3087.9
26085	11.146	0.45455	0.1	3065.2
26086	11.054	0.54545	0.1	3089.6
26087	11.146	0.27273	0.1	3067.7
26088	11.054	0.36364	0.1	3091.5
26089	11.054	0.18182	0.1	3094.8
26090	11.146	9.0909e-002	0.1	3066.
26091	10.963	5.7273	0.1	3118.6
26092	10.871	5.8182	0.1	3145.8
26093	10.963	5.9091	0.1	3117.
26094	10.963	5.5455	0.1	3116.
26095	10.871	5.6364	0.1	3142.5
26096	10.963	5.3636	0.1	3114.1
26097	10.871	5.4545	0.1	3140.5
26098	10.963	5.1818	0.1	3112.4
26099	10.871	5.2727	0.1	3138.7
26100	10.963	5.	0.1	3110.7
26101	10.871	5.0909	0.1	3137.
26102	10.963	4.8182	0.1	3109.2
26103	10.871	4.9091	0.1	3135.4
26104	10.963	4.6364	0.1	3107.8
26105	10.871	4.7273	0.1	3133.8
26106	10.963	4.4545	0.1	3106.5
26107	10.871	4.5455	0.1	3132.5
26108	10.963	4.2727	0.1	3105.3
26109	10.871	4.3636	0.1	3131.2
26110	10.963	4.0909	0.1	3104.3
26111	10.871	4.1818	0.1	3130.1
26112	10.963	3.9091	0.1	3103.4
26113	10.871	4.	0.1	3129.1
26114	10.963	3.7273	0.1	3102.7
26115	10.871	3.8182	0.1	3128.3
26116	10.963	3.5455	0.1	3102.1
26117	10.871	3.6364	0.1	3127.6
26118	10.963	3.3636	0.1	3101.7
26119	10.871	3.4545	0.1	3127.1
26120	10.963	3.1818	0.1	3101.5
26121	10.871	3.2727	0.1	3126.8
26122	10.963	3.	0.1	3101.4
26123	10.871	3.0909	0.1	3126.6
26124	10.963	2.8182	0.1	3101.5
26125	10.871	2.9091	0.1	3126.6
26126	10.963	2.6364	0.1	3101.7
26127	10.871	2.7273	0.1	3126.8
26128	10.963	2.4545	0.1	3102.1
26129	10.871	2.5455	0.1	3127.1
26130	10.963	2.2727	0.1	3102.7
26131	10.871	2.3636	0.1	3127.6
26132	10.963	2.0909	0.1	3103.4
26133	10.871	2.1818	0.1	3128.3
26134	10.963	1.9091	0.1	3104.3
26135	10.871	2.	0.1	3129.1
26136	10.963	1.7273	0.1	3105.3
26137	10.871	1.8182	0.1	3130.1
26138	10.963	1.5455	0.1	3106.5
26139	10.871	1.6364	0.1	3131.2
26140	10.963	1.3636	0.1	3107.8
26141	10.871	1.4545	0.1	3132.5
26142	10.963	1.1818	0.1	3109.2
26143	10.871	1.2727	0.1	3133.8
26144	10.963	1.	0.1	3110.7
26145	10.871	1.0909	0.1	3135.4
26146	10.963	0.81818	0.1	3112.4
26147	10.871	0.90909	0.1	3137.
26148	10.963	0.63636	0.1	3114.1
26149	10.871	0.72727	0.1	3138.7
26150	10.963	0.45455	0.1	3116.
26151	10.871	0.54545	0.1	3140.5
26152	10.963	0.27273	0.1	3118.6
26153	10.871	0.36364	0.1	3142.5
26154	10.871	0.18182	0.1	3145.8
26155	10.963	9.0909e-002	0.1	3117.
26156	10.779	5.7273	0.1	3169.6
26157	10.687	5.8182	0.1	3197.
26158	10.779	5.9091	0.1	3168.3
26159	10.779	5.5455	0.1	3167.
26160	10.687	5.6364	0.1	3193.7
26161	10.779	5.3636	0.1	3165.1
26162	10.687	5.4545	0.1	3191.6
26163	10.779	5.1818	0.1	3163.3
26164	10.687	5.2727	0.1	3189.7
26165	10.779	5.	0.1	3161.6
26166	10.687	5.0909	0.1	3187.9
26167	10.779	4.8182	0.1	3160.
26168	10.687	4.9091	0.1	3186.3
26169	10.779	4.6364	0.1	3158.5
26170	10.687	4.7273	0.1	3184.7
26171	10.779	4.4545	0.1	3157.2
26172	10.687	4.5455	0.1	3183.3
26173	10.779	4.2727	0.1	3155.9
26174	10.687	4.3636	0.1	3181.9
26175	10.779	4.0909	0.1	3154.9
26176	10.687	4.1818	0.1	3180.8
26177	10.779	3.9091	0.1	3154.
26178	10.687	4.	0.1	3179.8
26179	10.779	3.7273	0.1	3153.2
26180	10.687	3.8182	0.1	3178.9
26181	10.779	3.5455	0.1	3152.6
26182	10.687	3.6364	0.1	3178.2
26183	10.779	3.3636	0.1	3152.2
26184	10.687	3.4545	0.1	3177.7
26185	10.779	3.1818	0.1	3151.9
26186	10.687	3.2727	0.1	3177.3
26187	10.779	3.	0.1	3151.8
26188	10.687	3.0909	0.1	3177.1
26189	10.779	2.8182	0.1	3151.9
26190	10.687	2.9091	0.1	3177.1
26191	10.779	2.6364	0.1	3152.2
26192	10.687	2.7273	0.1	3177.3
26193	10.779	2.4545	0.1	3152.6
26194	10.687	2.5455	0.1	3177.7
26195	10.779	2.2727	0.1	3153.2
26196	10.687	2.3636	0.1	3178.2
26197	10.779	2.0909	0.1	3154.
26198	10.687	2.1818	0.1	3178.9
26199	10.779	1.9091	0.1	3154.9
26200	10.687	2.	0.1	3179.8
26201	10.779	1.7273	0.1	3155.9
26202	10.687	1.8182	0.1	3180.8
26203	10.779	1.5455	0.1	3157.2
26204	10.687	1.6364	0.1	3181.9
26205	10.779	1.3636	0.1	3158.5
26206	10.687	1.4545	0.1	3183.3
26207	10.779	1.1818	0.1	3160.
26208	10.687	1.2727	0.1	3184.7
26209	10.779	1.	0.1	3161.6
26210	10.687	1.0909	0.1	3186.3
26211	10.779	0.81818	0.1	3163.3
26212	10.687	0.90909	0.1	3188.
26213	10.779	0.63636	0.1	3165.1
26214	10.687	0.72727	0.1	3189.7
26215	10.779	0.45455	0.1	3167.
26216	10.687	0.54545	0.1	3191.6
26217	10.779	0.27273	0.1	3169.6
26218	10.687	0.36364	0.1	3193.7
26219	10.687	0.18182	0.1	3197.
26220	10.779	9.0909e-002	0.1	3168.3
26221	10.595	5.7273	0.1	3220.9
26222	10.504	5.8182	0.1	3248.4
26223	10.595	5.9091	0.1	3219.8
26224	10.595	5.5455	0.1	3218.3
26225	10.504	5.6364	0.1	3245.1
26226	10.595	5.3636	0.1	3216.3
26227	10.504	5.4545	0.1	3243.
26228	10.595	5.1818	0.1	3214.4
26229	10.504	5.2727	0.1	3241.
26230	10.595	5.	0.1	3212.6
26231	10.504	5.0909	0.1	3239.1
26232	10.595	4.8182	0.1	3211.
26233	10.504	4.9091	0.1	3237.4
26234	10.595	4.6364	0.1	3209.4
26235	10.504	4.7273	0.1	3235.7
26236	10.595	4.4545	0.1	3208.
26237	10.504	4.5455	0.1	3234.2
26238	10.595	4.2727	0.1	3206.8
26239	10.504	4.3636	0.1	3232.9
26240	10.595	4.0909	0.1	3205.6
26241	10.504	4.1818	0.1	3231.6
26242	10.595	3.9091	0.1	3204.7
26243	10.504	4.	0.1	3230.6
26244	10.595	3.7273	0.1	3203.9
26245	10.504	3.8182	0.1	3229.7
26246	10.595	3.5455	0.1	3203.2
26247	10.504	3.6364	0.1	3228.9
26248	10.595	3.3636	0.1	3202.8
26249	10.504	3.4545	0.1	3228.4
26250	10.595	3.1818	0.1	3202.5
26251	10.504	3.2727	0.1	3228.
26252	10.595	3.	0.1	3202.4
26253	10.504	3.0909	0.1	3227.8
26254	10.595	2.8182	0.1	3202.5
26255	10.504	2.9091	0.1	3227.8
26256	10.595	2.6364	0.1	3202.8
26257	10.504	2.7273	0.1	3228.
26258	10.595	2.4545	0.1	3203.2
26259	10.504	2.5455	0.1	3228.4
26260	10.595	2.2727	0.1	3203.9
26261	10.504	2.3636	0.1	3228.9
26262	10.595	2.0909	0.1	3204.7
26263	10.504	2.1818	0.1	3229.7
26264	10.595	1.9091	0.1	3205.6
26265	10.504	2.	0.1	3230.6
26266	10.595	1.7273	0.1	3206.8
26267	10.504	1.8182	0.1	3231.6
26268	10.595	1.5455	0.1	3208.
26269	10.504	1.6364	0.1	3232.9
26270	10.595	1.3636	0.1	3209.4
26271	10.504	1.4545	0.1	3234.2
26272	10.595	1.1818	0.1	3211.
26273	10.504	1.2727	0.1	3235.7
26274	10.595	1.	0.1	3212.6
26275	10.504	1.0909	0.1	3237.4
26276	10.595	0.81818	0.1	3214.4
26277	10.504	0.90909	0.1	3239.1
26278	10.595	0.63636	0.1	3216.3
26279	10.504	0.72727	0.1	3241.
26280	10.595	0.45455	0.1	3218.3
26281	10.504	0.54545	0.1	3243.
26282	10.595	0.27273	0.1	3220.9
26283	10.504	0.36364	0.1	3245.1
26284	10.504	0.18182	0.1	3248.4
26285	10.595	9.0909e-002	0.1	3219.8
26286	10.412	5.7273	0.1	3272.5
26287	10.32	5.8182	0.1	3300.1
26288	10.412	5.9091	0.1	3271.4
26289	10.412	5.5455	0.1	3269.7
26290	10.32	5.6364	0.1	3296.7
26291	10.412	5.3636	0.1	3267.7
26292	10.32	5.4545	0.1	3294.5
26293	10.412	5.1818	0.1	3265.7
26294	10.32	5.2727	0.1	3292.5
26295	10.412	5.	0.1	3263.9
26296	10.32	5.0909	0.1	3290.5
26297	10.412	4.8182	0.1	3262.1
26298	10.32	4.9091	0.1	3288.7
26299	10.412	4.6364	0.1	3260.5
26300	10.32	4.7273	0.1	3287.
26301	10.412	4.4545	0.1	3259.1
26302	10.32	4.5455	0.1	3285.4
26303	10.412	4.2727	0.1	3257.7
26304	10.32	4.3636	0.1	3284.
26305	10.412	4.0909	0.1	3256.6
26306	10.32	4.1818	0.1	3282.7
26307	10.412	3.9091	0.1	3255.6
26308	10.32	4.	0.1	3281.6
26309	10.412	3.7273	0.1	3254.7
26310	10.32	3.8182	0.1	3280.6
26311	10.412	3.5455	0.1	3254.1
26312	10.32	3.6364	0.1	3279.9
26313	10.412	3.3636	0.1	3253.6
26314	10.32	3.4545	0.1	3279.3
26315	10.412	3.1818	0.1	3253.3
26316	10.32	3.2727	0.1	3278.9
26317	10.412	3.	0.1	3253.2
26318	10.32	3.0909	0.1	3278.7
26319	10.412	2.8182	0.1	3253.3
26320	10.32	2.9091	0.1	3278.7
26321	10.412	2.6364	0.1	3253.6
26322	10.32	2.7273	0.1	3278.9
26323	10.412	2.4545	0.1	3254.1
26324	10.32	2.5455	0.1	3279.3
26325	10.412	2.2727	0.1	3254.7
26326	10.32	2.3636	0.1	3279.9
26327	10.412	2.0909	0.1	3255.6
26328	10.32	2.1818	0.1	3280.6
26329	10.412	1.9091	0.1	3256.6
26330	10.32	2.	0.1	3281.6
26331	10.412	1.7273	0.1	3257.7
26332	10.32	1.8182	0.1	3282.7
26333	10.412	1.5455	0.1	3259.1
26334	10.32	1.6364	0.1	3284.
26335	10.412	1.3636	0.1	3260.5
26336	10.32	1.4545	0.1	3285.4
26337	10.412	1.1818	0.1	3262.1
26338	10.32	1.2727	0.1	3287.
26339	10.412	1.	0.1	3263.9
26340	10.32	1.0909	0.1	3288.7
26341	10.412	0.81818	0.1	3265.7
26342	10.32	0.90909	0.1	3290.5
26343	10.412	0.63636	0.1	3267.7
26344	10.32	0.72727	0.1	3292.5
26345	10.412	0.45455	0.1	3269.7
26346	10.32	0.54545	0.1	3294.5
26347	10.412	0.27273	0.1	3272.5
26348	10.32	0.36364	0.1	3296.7
26349	10.32	0.18182	0.1	3300.1
26350	10.412	9.0909e-002	0.1	3271.4
26351	10.228	5.7273	0.1	3324.2
26352	10.136	5.8182	0.1	3351.9
26353	10.228	5.9091	0.1	3323.3
26354	10.228	5.5455	0.1	3321.4
26355	10.136	5.6364	0.1	3348.5
26356	10.228	5.3636	0.1	3319.3
26357	10.136	5.4545	0.1	3346.2
26358	10.228	5.1818	0.1	3317.2
26359	10.136	5.2727	0.1	3344.1
26360	10.228	5.	0.1	3315.3
26361	10.136	5.0909	0.1	3342.1
26362	10.228	4.8182	0.1	3313.5
26363	10.136	4.9091	0.1	3340.2
26364	10.228	4.6364	0.1	3311.9
26365	10.136	4.7273	0.1	3338.4
26366	10.228	4.4545	0.1	3310.3
26367	10.136	4.5455	0.1	3336.8
26368	10.228	4.2727	0.1	3308.9
26369	10.136	4.3636	0.1	3335.3
26370	10.228	4.0909	0.1	3307.7
26371	10.136	4.1818	0.1	3334.
26372	10.228	3.9091	0.1	3306.6
26373	10.136	4.	0.1	3332.8
26374	10.228	3.7273	0.1	3305.8
26375	10.136	3.8182	0.1	3331.8
26376	10.228	3.5455	0.1	3305.1
26377	10.136	3.6364	0.1	3331.
26378	10.228	3.3636	0.1	3304.6
26379	10.136	3.4545	0.1	3330.3
26380	10.228	3.1818	0.1	3304.2
26381	10.136	3.2727	0.1	3329.9
26382	10.228	3.	0.1	3304.1
26383	10.136	3.0909	0.1	3329.7
26384	10.228	2.8182	0.1	3304.2
26385	10.136	2.9091	0.1	3329.7
26386	10.228	2.6364	0.1	3304.6
26387	10.136	2.7273	0.1	3329.9
26388	10.228	2.4545	0.1	3305.1
26389	10.136	2.5455	0.1	3330.3
26390	10.228	2.2727	0.1	3305.8
26391	10.136	2.3636	0.1	3331.
26392	10.228	2.0909	0.1	3306.6
26393	10.136	2.1818	0.1	3331.8
26394	10.228	1.9091	0.1	3307.7
26395	10.136	2.	0.1	3332.8
26396	10.228	1.7273	0.1	3308.9
26397	10.136	1.8182	0.1	3334.
26398	10.228	1.5455	0.1	3310.3
26399	10.136	1.6364	0.1	3335.3
26400	10.228	1.3636	0.1	3311.9
26401	10.136	1.4545	0.1	3336.8
26402	10.228	1.1818	0.1	3313.5
26403	10.136	1.2727	0.1	3338.4
26404	10.228	1.	0.1	3315.3
26405	10.136	1.0909	0.1	3340.2
26406	10.228	0.81818	0.1	3317.2
26407	10.136	0.90909	0.1	3342.1
26408	10.228	0.63636	0.1	3319.3
26409	10.136	0.72727	0.1	3344.1
26410	10.228	0.45455	0.1	3321.4
26411	10.136	0.54545	0.1	3346.2
26412	10.228	0.27273	0.1	3324.2
26413	10.136	0.36364	0.1	3348.5
26414	10.136	0.18182	0.1	3351.9
26415	10.228	9.0909e-002	0.1	3323.3
26416	10.044	5.7273	0.1	3376.2
26417	9.9526	5.8182	0.1	3404.
26418	10.044	5.9091	0.1	3375.5
26419	10.044	5.5455	0.1	3373.3
26420	9.9526	5.6364	0.1	3400.5
26421	10.044	5.3636	0.1	3371.1
26422	9.9526	5.4545	0.1	3398.2
26423	10.044	5.1818	0.1	3369.
26424	9.9526	5.2727	0.1	3396.
26425	10.044	5.	0.1	3367.
26426	9.9526	5.0909	0.1	3393.9
26427	10.044	4.8182	0.1	3365.1
26428	9.9526	4.9091	0.1	3391.9
26429	10.044	4.6364	0.1	3363.4
26430	9.9526	4.7273	0.1	3390.1
26431	10.044	4.4545	0.1	3361.8
26432	9.9526	4.5455	0.1	3388.4
26433	10.044	4.2727	0.1	3360.3
26434	9.9526	4.3636	0.1	3386.8
26435	10.044	4.0909	0.1	3359.
26436	9.9526	4.1818	0.1	3385.4
26437	10.044	3.9091	0.1	3357.9
26438	9.9526	4.	0.1	3384.2
26439	10.044	3.7273	0.1	3357.
26440	9.9526	3.8182	0.1	3383.1
26441	10.044	3.5455	0.1	3356.2
26442	9.9526	3.6364	0.1	3382.3
26443	10.044	3.3636	0.1	3355.7
26444	9.9526	3.4545	0.1	3381.6
26445	10.044	3.1818	0.1	3355.4
26446	9.9526	3.2727	0.1	3381.2
26447	10.044	3.	0.1	3355.3
26448	9.9526	3.0909	0.1	3380.9
26449	10.044	2.8182	0.1	3355.4
26450	9.9526	2.9091	0.1	3380.9
26451	10.044	2.6364	0.1	3355.7
26452	9.9526	2.7273	0.1	3381.2
26453	10.044	2.4545	0.1	3356.2
26454	9.9526	2.5455	0.1	3381.6
26455	10.044	2.2727	0.1	3357.
26456	9.9526	2.3636	0.1	3382.3
26457	10.044	2.0909	0.1	3357.9
26458	9.9526	2.1818	0.1	3383.1
26459	10.044	1.9091	0.1	3359.
26460	9.9526	2.	0.1	3384.2
26461	10.044	1.7273	0.1	3360.3
26462	9.9526	1.8182	0.1	3385.4
26463	10.044	1.5455	0.1	3361.8
26464	9.9526	1.6364	0.1	3386.8
26465	10.044	1.3636	0.1	3363.4
26466	9.9526	1.4545	0.1	3388.4
26467	10.044	1.1818	0.1	3365.1
26468	9.9526	1.2727	0.1	3390.1
26469	10.044	1.	0.1	3367.
26470	9.9526	1.0909	0.1	3391.9
26471	10.044	0.81818	0.1	3369.
26472	9.9526	0.90909	0.1	3393.9
26473	10.044	0.63636	0.1	3371.1
26474	9.9526	0.72727	0.1	3396.
26475	10.044	0.45455	0.1	3373.3
26476	9.9526	0.54545	0.1	3398.2
26477	10.044	0.27273	0.1	3376.2
26478	9.9526	0.36364	0.1	3400.5
26479	9.9526	0.18182	0.1	3404.
26480	10.044	9.0909e-002	0.1	3375.5
26481	9.8608	5.7273	0.1	3428.3
26482	9.769	5.8182	0.1	3456.3
26483	9.8608	5.9091	0.1	3427.8
26484	9.8608	5.5455	0.1	3425.4
26485	9.769	5.6364	0.1	3452.7
26486	9.8608	5.3636	0.1	3423.1
26487	9.769	5.4545	0.1	3450.3
26488	9.8608	5.1818	0.1	3420.9
26489	9.769	5.2727	0.1	3448.1
26490	9.8608	5.	0.1	3418.8
26491	9.769	5.0909	0.1	3445.9
26492	9.8608	4.8182	0.1	3416.9
26493	9.769	4.9091	0.1	3443.8
26494	9.8608	4.6364	0.1	3415.1
26495	9.769	4.7273	0.1	3441.9
26496	9.8608	4.4545	0.1	3413.4
26497	9.769	4.5455	0.1	3440.1
26498	9.8608	4.2727	0.1	3411.9
26499	9.769	4.3636	0.1	3438.5
26500	9.8608	4.0909	0.1	3410.5
26501	9.769	4.1818	0.1	3437.
26502	9.8608	3.9091	0.1	3409.4
26503	9.769	4.	0.1	3435.7
26504	9.8608	3.7273	0.1	3408.4
26505	9.769	3.8182	0.1	3434.6
26506	9.8608	3.5455	0.1	3407.6
26507	9.769	3.6364	0.1	3433.7
26508	9.8608	3.3636	0.1	3407.
26509	9.769	3.4545	0.1	3433.1
26510	9.8608	3.1818	0.1	3406.7
26511	9.769	3.2727	0.1	3432.6
26512	9.8608	3.	0.1	3406.6
26513	9.769	3.0909	0.1	3432.4
26514	9.8608	2.8182	0.1	3406.7
26515	9.769	2.9091	0.1	3432.4
26516	9.8608	2.6364	0.1	3407.
26517	9.769	2.7273	0.1	3432.6
26518	9.8608	2.4545	0.1	3407.6
26519	9.769	2.5455	0.1	3433.1
26520	9.8608	2.2727	0.1	3408.4
26521	9.769	2.3636	0.1	3433.7
26522	9.8608	2.0909	0.1	3409.4
26523	9.769	2.1818	0.1	3434.6
26524	9.8608	1.9091	0.1	3410.5
26525	9.769	2.	0.1	3435.7
26526	9.8608	1.7273	0.1	3411.9
26527	9.769	1.8182	0.1	3437.
26528	9.8608	1.5455	0.1	3413.4
26529	9.769	1.6364	0.1	3438.5
26530	9.8608	1.3636	0.1	3415.1
26531	9.769	1.4545	0.1	3440.1
26532	9.8608	1.1818	0.1	3416.9
26533	9.769	1.2727	0.1	3441.9
26534	9.8608	1.	0.1	3418.8
26535	9.769	1.0909	0.1	3443.8
26536	9.8608	0.81818	0.1	3420.9
26537	9.769	0.90909	0.1	3445.9
26538	9.8608	0.63636	0.1	3423.1
26539	9.769	0.72727	0.1	3448.1
26540	9.8608	0.45455	0.1	3425.4
26541	9.769	0.54545	0.1	3450.3
26542	9.8608	0.27273	0.1	3428.3
26543	9.769	0.36364	0.1	3452.7
26544	9.769	0.18182	0.1	3456.3
26545	9.8608	9.0909e-002	0.1	3427.8
26546	9.6772	5.7273	0.1	3480.6
26547	9.5854	5.8182	0.1	3508.7
26548	9.6772	5.9091	0.1	3480.3
26549	9.6772	5.5455	0.1	3477.7
26550	9.5854	5.6364	0.1	3505.2
26551	9.6772	5.3636	0.1	3475.3
26552	9.5854	5.4545	0.1	3502.7
26553	9.6772	5.1818	0.1	3473.
26554	9.5854	5.2727	0.1	3500.3
26555	9.6772	5.	0.1	3470.9
26556	9.5854	5.0909	0.1	3498.1
26557	9.6772	4.8182	0.1	3468.9
26558	9.5854	4.9091	0.1	3495.9
26559	9.6772	4.6364	0.1	3467.
26560	9.5854	4.7273	0.1	3494.
26561	9.6772	4.4545	0.1	3465.2
26562	9.5854	4.5455	0.1	3492.1
26563	9.6772	4.2727	0.1	3463.6
26564	9.5854	4.3636	0.1	3490.4
26565	9.6772	4.0909	0.1	3462.2
26566	9.5854	4.1818	0.1	3488.9
26567	9.6772	3.9091	0.1	3461.
26568	9.5854	4.	0.1	3487.5
26569	9.6772	3.7273	0.1	3460.
26570	9.5854	3.8182	0.1	3486.4
26571	9.6772	3.5455	0.1	3459.2
26572	9.5854	3.6364	0.1	3485.4
26573	9.6772	3.3636	0.1	3458.6
26574	9.5854	3.4545	0.1	3484.7
26575	9.6772	3.1818	0.1	3458.2
26576	9.5854	3.2727	0.1	3484.2
26577	9.6772	3.	0.1	3458.1
26578	9.5854	3.0909	0.1	3484.
26579	9.6772	2.8182	0.1	3458.2
26580	9.5854	2.9091	0.1	3484.
26581	9.6772	2.6364	0.1	3458.6
26582	9.5854	2.7273	0.1	3484.2
26583	9.6772	2.4545	0.1	3459.2
26584	9.5854	2.5455	0.1	3484.7
26585	9.6772	2.2727	0.1	3460.
26586	9.5854	2.3636	0.1	3485.4
26587	9.6772	2.0909	0.1	3461.
26588	9.5854	2.1818	0.1	3486.4
26589	9.6772	1.9091	0.1	3462.2
26590	9.5854	2.	0.1	3487.5
26591	9.6772	1.7273	0.1	3463.6
26592	9.5854	1.8182	0.1	3488.9
26593	9.6772	1.5455	0.1	3465.2
26594	9.5854	1.6364	0.1	3490.4
26595	9.6772	1.3636	0.1	3467.
26596	9.5854	1.4545	0.1	3492.1
26597	9.6772	1.1818	0.1	3468.9
26598	9.5854	1.2727	0.1	3494.
26599	9.6772	1.	0.1	3470.9
26600	9.5854	1.0909	0.1	3495.9
26601	9.6772	0.81818	0.1	3473.
26602	9.5854	0.90909	0.1	3498.1
26603	9.6772	0.63636	0.1	3475.3
26604	9.5854	0.72727	0.1	3500.3
26605	9.6772	0.45455	0.1	3477.7
26606	9.5854	0.54545	0.1	3502.7
26607	9.6772	0.27273	0.1	3480.6
26608	9.5854	0.36364	0.1	3505.2
26609	9.5854	0.18182	0.1	3508.7
26610	9.6772	9.0909e-002	0.1	3480.3
26611	9.4936	5.7273	0.1	3533.2
26612	9.4018	5.8182	0.1	3561.3
26613	9.4936	5.9091	0.1	3533.
26614	9.4936	5.5455	0.1	3530.1
26615	9.4018	5.6364	0.1	3557.7
26616	9.4936	5.3636	0.1	3527.7
26617	9.4018	5.4545	0.1	3555.2
26618	9.4936	5.1818	0.1	3525.3
26619	9.4018	5.2727	0.1	3552.7
26620	9.4936	5.	0.1	3523.1
26621	9.4018	5.0909	0.1	3550.4
26622	9.4936	4.8182	0.1	3521.
26623	9.4018	4.9091	0.1	3548.2
26624	9.4936	4.6364	0.1	3519.1
26625	9.4018	4.7273	0.1	3546.2
26626	9.4936	4.4545	0.1	3517.3
26627	9.4018	4.5455	0.1	3544.3
26628	9.4936	4.2727	0.1	3515.6
26629	9.4018	4.3636	0.1	3542.5
26630	9.4936	4.0909	0.1	3514.1
26631	9.4018	4.1818	0.1	3540.9
26632	9.4936	3.9091	0.1	3512.9
26633	9.4018	4.	0.1	3539.5
26634	9.4936	3.7273	0.1	3511.8
26635	9.4018	3.8182	0.1	3538.3
26636	9.4936	3.5455	0.1	3510.9
26637	9.4018	3.6364	0.1	3537.3
26638	9.4936	3.3636	0.1	3510.3
26639	9.4018	3.4545	0.1	3536.6
26640	9.4936	3.1818	0.1	3509.9
26641	9.4018	3.2727	0.1	3536.
26642	9.4936	3.	0.1	3509.8
26643	9.4018	3.0909	0.1	3535.8
26644	9.4936	2.8182	0.1	3509.9
26645	9.4018	2.9091	0.1	3535.8
26646	9.4936	2.6364	0.1	3510.3
26647	9.4018	2.7273	0.1	3536.
26648	9.4936	2.4545	0.1	3510.9
26649	9.4018	2.5455	0.1	3536.6
26650	9.4936	2.2727	0.1	3511.8
26651	9.4018	2.3636	0.1	3537.3
26652	9.4936	2.0909	0.1	3512.9
26653	9.4018	2.1818	0.1	3538.3
26654	9.4936	1.9091	0.1	3514.1
26655	9.4018	2.	0.1	3539.5
26656	9.4936	1.7273	0.1	3515.6
26657	9.4018	1.8182	0.1	3540.9
26658	9.4936	1.5455	0.1	3517.3
26659	9.4018	1.6364	0.1	3542.5
26660	9.4936	1.3636	0.1	3519.1
26661	9.4018	1.4545	0.1	3544.3
26662	9.4936	1.1818	0.1	3521.
26663	9.4018	1.2727	0.1	3546.2
26664	9.4936	1.	0.1	3523.1
26665	9.4018	1.0909	0.1	3548.2
26666	9.4936	0.81818	0.1	3525.3
26667	9.4018	0.90909	0.1	3550.4
26668	9.4936	0.63636	0.1	3527.7
26669	9.4018	0.72727	0.1	3552.7
26670	9.4936	0.45455	0.1	3530.1
26671	9.4018	0.54545	0.1	3555.2
26672	9.4936	0.27273	0.1	3533.2
26673	9.4018	0.36364	0.1	3557.7
26674	9.4018	0.18182	0.1	3561.3
26675	9.4936	9.0909e-002	0.1	3533.
26676	9.3099	5.7273	0.1	3585.9
26677	9.2181	5.8182	0.1	3614.1
26678	9.3099	5.9091	0.1	3585.9
26679	9.3099	5.5455	0.1	3582.8
26680	9.2181	5.6364	0.1	3610.5
26681	9.3099	5.3636	0.1	3580.2
26682	9.2181	5.4545	0.1	3607.8
26683	9.3099	5.1818	0.1	3577.8
26684	9.2181	5.2727	0.1	3605.3
26685	9.3099	5.	0.1	3575.5
26686	9.2181	5.0909	0.1	3603.
26687	9.3099	4.8182	0.1	3573.4
26688	9.2181	4.9091	0.1	3600.7
26689	9.3099	4.6364	0.1	3571.4
26690	9.2181	4.7273	0.1	3598.6
26691	9.3099	4.4545	0.1	3569.5
26692	9.2181	4.5455	0.1	3596.6
26693	9.3099	4.2727	0.1	3567.8
26694	9.2181	4.3636	0.1	3594.8
26695	9.3099	4.0909	0.1	3566.2
26696	9.2181	4.1818	0.1	3593.2
26697	9.3099	3.9091	0.1	3564.9
26698	9.2181	4.	0.1	3591.7
26699	9.3099	3.7273	0.1	3563.8
26700	9.2181	3.8182	0.1	3590.4
26701	9.3099	3.5455	0.1	3562.9
26702	9.2181	3.6364	0.1	3589.4
26703	9.3099	3.3636	0.1	3562.3
26704	9.2181	3.4545	0.1	3588.6
26705	9.3099	3.1818	0.1	3561.9
26706	9.2181	3.2727	0.1	3588.1
26707	9.3099	3.	0.1	3561.8
26708	9.2181	3.0909	0.1	3587.8
26709	9.3099	2.8182	0.1	3561.9
26710	9.2181	2.9091	0.1	3587.8
26711	9.3099	2.6364	0.1	3562.3
26712	9.2181	2.7273	0.1	3588.1
26713	9.3099	2.4545	0.1	3562.9
26714	9.2181	2.5455	0.1	3588.6
26715	9.3099	2.2727	0.1	3563.8
26716	9.2181	2.3636	0.1	3589.4
26717	9.3099	2.0909	0.1	3564.9
26718	9.2181	2.1818	0.1	3590.4
26719	9.3099	1.9091	0.1	3566.2
26720	9.2181	2.	0.1	3591.7
26721	9.3099	1.7273	0.1	3567.8
26722	9.2181	1.8182	0.1	3593.2
26723	9.3099	1.5455	0.1	3569.5
26724	9.2181	1.6364	0.1	3594.8
26725	9.3099	1.3636	0.1	3571.4
26726	9.2181	1.4545	0.1	3596.6
26727	9.3099	1.1818	0.1	3573.4
26728	9.2181	1.2727	0.1	3598.6
26729	9.3099	1.	0.1	3575.5
26730	9.2181	1.0909	0.1	3600.7
26731	9.3099	0.81818	0.1	3577.8
26732	9.2181	0.90909	0.1	3603.
26733	9.3099	0.63636	0.1	3580.2
26734	9.2181	0.72727	0.1	3605.3
26735	9.3099	0.45455	0.1	3582.8
26736	9.2181	0.54545	0.1	3607.8
26737	9.3099	0.27273	0.1	3585.9
26738	9.2181	0.36364	0.1	3610.5
26739	9.2181	0.18182	0.1	3614.1
26740	9.3099	9.0909e-002	0.1	3585.9
26741	9.1263	5.7273	0.1	3638.7
26742	9.0345	5.8182	0.1	3667.
26743	9.1263	5.9091	0.1	3638.9
26744	9.1263	5.5455	0.1	3635.5
26745	9.0345	5.6364	0.1	3663.3
26746	9.1263	5.3636	0.1	3632.9
26747	9.0345	5.4545	0.1	3660.6
26748	9.1263	5.1818	0.1	3630.5
26749	9.0345	5.2727	0.1	3658.1
26750	9.1263	5.	0.1	3628.1
26751	9.0345	5.0909	0.1	3655.7
26752	9.1263	4.8182	0.1	3625.9
26753	9.0345	4.9091	0.1	3653.4
26754	9.1263	4.6364	0.1	3623.8
26755	9.0345	4.7273	0.1	3651.2
26756	9.1263	4.4545	0.1	3621.9
26757	9.0345	4.5455	0.1	3649.2
26758	9.1263	4.2727	0.1	3620.2
26759	9.0345	4.3636	0.1	3647.3
26760	9.1263	4.0909	0.1	3618.6
26761	9.0345	4.1818	0.1	3645.6
26762	9.1263	3.9091	0.1	3617.2
26763	9.0345	4.	0.1	3644.1
26764	9.1263	3.7273	0.1	3616.1
26765	9.0345	3.8182	0.1	3642.8
26766	9.1263	3.5455	0.1	3615.1
26767	9.0345	3.6364	0.1	3641.8
26768	9.1263	3.3636	0.1	3614.5
26769	9.0345	3.4545	0.1	3641.
26770	9.1263	3.1818	0.1	3614.1
26771	9.0345	3.2727	0.1	3640.4
26772	9.1263	3.	0.1	3613.9
26773	9.0345	3.0909	0.1	3640.1
26774	9.1263	2.8182	0.1	3614.1
26775	9.0345	2.9091	0.1	3640.1
26776	9.1263	2.6364	0.1	3614.5
26777	9.0345	2.7273	0.1	3640.4
26778	9.1263	2.4545	0.1	3615.1
26779	9.0345	2.5455	0.1	3641.
26780	9.1263	2.2727	0.1	3616.1
26781	9.0345	2.3636	0.1	3641.8
26782	9.1263	2.0909	0.1	3617.2
26783	9.0345	2.1818	0.1	3642.8
26784	9.1263	1.9091	0.1	3618.6
26785	9.0345	2.	0.1	3644.1
26786	9.1263	1.7273	0.1	3620.2
26787	9.0345	1.8182	0.1	3645.6
26788	9.1263	1.5455	0.1	3621.9
26789	9.0345	1.6364	0.1	3647.3
26790	9.1263	1.3636	0.1	3623.8
26791	9.0345	1.4545	0.1	3649.2
26792	9.1263	1.1818	0.1	3625.9
26793	9.0345	1.2727	0.1	3651.2
26794	9.1263	1.	0.1	3628.1
26795	9.0345	1.0909	0.1	3653.4
26796	9.1263	0.81818	0.1	3630.5
26797	9.0345	0.90909	0.1	3655.7
26798	9.1263	0.63636	0.1	3632.9
26799	9.0345	0.72727	0.1	3658.1
26800	9.1263	0.45455	0.1	3635.5
26801	9.0345	0.54545	0.1	3660.6
26802	9.1263	0.27273	0.1	3638.7
26803	9.0345	0.36364	0.1	3663.3
26804	9.0345	0.18182	0.1	3667.
26805	9.1263	9.0909e-002	0.1	3638.9
26806	8.9427	5.7273	0.1	3691.6
26807	8.8509	5.8182	0.1	3720.
26808	8.9427	5.9091	0.1	3692.
26809	8.9427	5.5455	0.1	3688.4
26810	8.8509	5.6364	0.1	3716.3
26811	8.9427	5.3636	0.1	3685.8
26812	8.8509	5.4545	0.1	3713.5
26813	8.9427	5.1818	0.1	3683.3
26814	8.8509	5.2727	0.1	3711.
26815	8.9427	5.	0.1	3680.9
26816	8.8509	5.0909	0.1	3708.5
26817	8.9427	4.8182	0.1	3678.6
26818	8.8509	4.9091	0.1	3706.2
26819	8.9427	4.6364	0.1	3676.5
26820	8.8509	4.7273	0.1	3704.
26821	8.9427	4.4545	0.1	3674.6
26822	8.8509	4.5455	0.1	3702.
26823	8.9427	4.2727	0.1	3672.8
26824	8.8509	4.3636	0.1	3700.1
26825	8.9427	4.0909	0.1	3671.2
26826	8.8509	4.1818	0.1	3698.3
26827	8.9427	3.9091	0.1	3669.7
26828	8.8509	4.	0.1	3696.8
26829	8.9427	3.7273	0.1	3668.6
26830	8.8509	3.8182	0.1	3695.5
26831	8.9427	3.5455	0.1	3667.6
26832	8.8509	3.6364	0.1	3694.4
26833	8.9427	3.3636	0.1	3666.9
26834	8.8509	3.4545	0.1	3693.6
26835	8.9427	3.1818	0.1	3666.5
26836	8.8509	3.2727	0.1	3693.
26837	8.9427	3.	0.1	3666.4
26838	8.8509	3.0909	0.1	3692.7
26839	8.9427	2.8182	0.1	3666.5
26840	8.8509	2.9091	0.1	3692.7
26841	8.9427	2.6364	0.1	3666.9
26842	8.8509	2.7273	0.1	3693.
26843	8.9427	2.4545	0.1	3667.6
26844	8.8509	2.5455	0.1	3693.6
26845	8.9427	2.2727	0.1	3668.6
26846	8.8509	2.3636	0.1	3694.4
26847	8.9427	2.0909	0.1	3669.7
26848	8.8509	2.1818	0.1	3695.5
26849	8.9427	1.9091	0.1	3671.2
26850	8.8509	2.	0.1	3696.8
26851	8.9427	1.7273	0.1	3672.8
26852	8.8509	1.8182	0.1	3698.3
26853	8.9427	1.5455	0.1	3674.6
26854	8.8509	1.6364	0.1	3700.1
26855	8.9427	1.3636	0.1	3676.5
26856	8.8509	1.4545	0.1	3702.
26857	8.9427	1.1818	0.1	3678.6
26858	8.8509	1.2727	0.1	3704.
26859	8.9427	1.	0.1	3680.9
26860	8.8509	1.0909	0.1	3706.2
26861	8.9427	0.81818	0.1	3683.3
26862	8.8509	0.90909	0.1	3708.5
26863	8.9427	0.63636	0.1	3685.8
26864	8.8509	0.72727	0.1	3711.
26865	8.9427	0.45455	0.1	3688.4
26866	8.8509	0.54545	0.1	3713.5
26867	8.9427	0.27273	0.1	3691.6
26868	8.8509	0.36364	0.1	3716.3
26869	8.8509	0.18182	0.1	3720.
26870	8.9427	9.0909e-002	0.1	3692.
26871	8.7591	5.7273	0.1	3744.6
26872	8.6673	5.8182	0.1	3773.
26873	8.7591	5.9091	0.1	3745.2
26874	8.7591	5.5455	0.1	3741.4
26875	8.6673	5.6364	0.1	3769.3
26876	8.7591	5.3636	0.1	3738.7
26877	8.6673	5.4545	0.1	3766.5
26878	8.7591	5.1818	0.1	3736.2
26879	8.6673	5.2727	0.1	3763.9
26880	8.7591	5.	0.1	3733.8
26881	8.6673	5.0909	0.1	3761.5
26882	8.7591	4.8182	0.1	3731.5
26883	8.6673	4.9091	0.1	3759.2
26884	8.7591	4.6364	0.1	3729.4
26885	8.6673	4.7273	0.1	3757.
26886	8.7591	4.4545	0.1	3727.4
26887	8.6673	4.5455	0.1	3754.9
26888	8.7591	4.2727	0.1	3725.6
26889	8.6673	4.3636	0.1	3753.
26890	8.7591	4.0909	0.1	3724.
26891	8.6673	4.1818	0.1	3751.3
26892	8.7591	3.9091	0.1	3722.6
26893	8.6673	4.	0.1	3749.8
26894	8.7591	3.7273	0.1	3721.3
26895	8.6673	3.8182	0.1	3748.4
26896	8.7591	3.5455	0.1	3720.4
26897	8.6673	3.6364	0.1	3747.4
26898	8.7591	3.3636	0.1	3719.7
26899	8.6673	3.4545	0.1	3746.5
26900	8.7591	3.1818	0.1	3719.3
26901	8.6673	3.2727	0.1	3746.
26902	8.7591	3.	0.1	3719.1
26903	8.6673	3.0909	0.1	3745.7
26904	8.7591	2.8182	0.1	3719.3
26905	8.6673	2.9091	0.1	3745.7
26906	8.7591	2.6364	0.1	3719.7
26907	8.6673	2.7273	0.1	3746.
26908	8.7591	2.4545	0.1	3720.4
26909	8.6673	2.5455	0.1	3746.5
26910	8.7591	2.2727	0.1	3721.3
26911	8.6673	2.3636	0.1	3747.4
26912	8.7591	2.0909	0.1	3722.6
26913	8.6673	2.1818	0.1	3748.4
26914	8.7591	1.9091	0.1	3724.
26915	8.6673	2.	0.1	3749.8
26916	8.7591	1.7273	0.1	3725.6
26917	8.6673	1.8182	0.1	3751.3
26918	8.7591	1.5455	0.1	3727.4
26919	8.6673	1.6364	0.1	3753.
26920	8.7591	1.3636	0.1	3729.4
26921	8.6673	1.4545	0.1	3754.9
26922	8.7591	1.1818	0.1	3731.5
26923	8.6673	1.2727	0.1	3757.
26924	8.7591	1.	0.1	3733.8
26925	8.6673	1.0909	0.1	3759.2
26926	8.7591	0.81818	0.1	3736.2
26927	8.6673	0.90909	0.1	3761.5
26928	8.7591	0.63636	0.1	3738.7
26929	8.6673	0.72727	0.1	3763.9
26930	8.7591	0.45455	0.1	3741.4
26931	8.6673	0.54545	0.1	3766.5
26932	8.7591	0.27273	0.1	3744.6
26933	8.6673	0.36364	0.1	3769.3
26934	8.6673	0.18182	0.1	3773.
26935	8.7591	9.0909e-002	0.1	3745.2
26936	8.5754	5.7273	0.1	3797.6
26937	8.4836	5.8182	0.1	3825.9
26938	8.5754	5.9091	0.1	3798.3
26939	8.5754	5.5455	0.1	3794.4
26940	8.4836	5.6364	0.1	3822.3
26941	8.5754	5.3636	0.1	3791.7
26942	8.4836	5.4545	0.1	3819.5
26943	8.5754	5.1818	0.1	3789.2
26944	8.4836	5.2727	0.1	3817.
26945	8.5754	5.	0.1	3786.8
26946	8.4836	5.0909	0.1	3814.5
26947	8.5754	4.8182	0.1	3784.6
26948	8.4836	4.9091	0.1	3812.3
26949	8.5754	4.6364	0.1	3782.5
26950	8.4836	4.7273	0.1	3810.1
26951	8.5754	4.4545	0.1	3780.5
26952	8.4836	4.5455	0.1	3808.1
26953	8.5754	4.2727	0.1	3778.7
26954	8.4836	4.3636	0.1	3806.3
26955	8.5754	4.0909	0.1	3777.1
26956	8.4836	4.1818	0.1	3804.6
26957	8.5754	3.9091	0.1	3775.7
26958	8.4836	4.	0.1	3803.
26959	8.5754	3.7273	0.1	3774.5
26960	8.4836	3.8182	0.1	3801.7
26961	8.5754	3.5455	0.1	3773.5
26962	8.4836	3.6364	0.1	3800.7
26963	8.5754	3.3636	0.1	3772.8
26964	8.4836	3.4545	0.1	3799.8
26965	8.5754	3.1818	0.1	3772.4
26966	8.4836	3.2727	0.1	3799.3
26967	8.5754	3.	0.1	3772.2
26968	8.4836	3.0909	0.1	3799.
26969	8.5754	2.8182	0.1	3772.4
26970	8.4836	2.9091	0.1	3799.
26971	8.5754	2.6364	0.1	3772.8
26972	8.4836	2.7273	0.1	3799.3
26973	8.5754	2.4545	0.1	3773.5
26974	8.4836	2.5455	0.1	3799.8
26975	8.5754	2.2727	0.1	3774.5
26976	8.4836	2.3636	0.1	3800.7
26977	8.5754	2.0909	0.1	3775.7
26978	8.4836	2.1818	0.1	3801.7
26979	8.5754	1.9091	0.1	3777.1
26980	8.4836	2.	0.1	3803.
26981	8.5754	1.7273	0.1	3778.7
26982	8.4836	1.8182	0.1	3804.6
26983	8.5754	1.5455	0.1	3780.5
26984	8.4836	1.6364	0.1	3806.3
26985	8.5754	1.3636	0.1	3782.5
26986	8.4836	1.4545	0.1	3808.1
26987	8.5754	1.1818	0.1	3784.6
26988	8.4836	1.2727	0.1	3810.1
26989	8.5754	1.	0.1	3786.8
26990	8.4836	1.0909	0.1	3812.3
26991	8.5754	0.81818	0.1	3789.2
26992	8.4836	0.90909	0.1	3814.5
26993	8.5754	0.63636	0.1	3791.7
26994	8.4836	0.72727	0.1	3817.
26995	8.5754	0.45455	0.1	3794.4
26996	8.4836	0.54545	0.1	3819.5
26997	8.5754	0.27273	0.1	3797.6
26998	8.4836	0.36364	0.1	3822.3
26999	8.4836	0.18182	0.1	3825.9
27000	8.5754	9.0909e-002	0.1	3798.3
27001	8.3918	5.7273	0.1	3850.5
27002	8.3	5.8182	0.1	3878.7
27003	8.3918	5.9091	0.1	3851.4
27004	8.3918	5.5455	0.1	3847.4
27005	8.3	5.6364	0.1	3875.1
27006	8.3918	5.3636	0.1	3844.7
27007	8.3	5.4545	0.1	3872.4
27008	8.3918	5.1818	0.1	3842.3
27009	8.3	5.2727	0.1	3870.
27010	8.3918	5.	0.1	3840.
27011	8.3	5.0909	0.1	3867.7
27012	8.3918	4.8182	0.1	3837.8
27013	8.3	4.9091	0.1	3865.5
27014	8.3918	4.6364	0.1	3835.8
27015	8.3	4.7273	0.1	3863.4
27016	8.3918	4.4545	0.1	3833.8
27017	8.3	4.5455	0.1	3861.5
27018	8.3918	4.2727	0.1	3832.1
27019	8.3	4.3636	0.1	3859.8
27020	8.3918	4.0909	0.1	3830.5
27021	8.3	4.1818	0.1	3858.1
27022	8.3918	3.9091	0.1	3829.1
27023	8.3	4.	0.1	3856.7
27024	8.3918	3.7273	0.1	3827.9
27025	8.3	3.8182	0.1	3855.4
27026	8.3918	3.5455	0.1	3827.
27027	8.3	3.6364	0.1	3854.4
27028	8.3918	3.3636	0.1	3826.3
27029	8.3	3.4545	0.1	3853.6
27030	8.3918	3.1818	0.1	3825.9
27031	8.3	3.2727	0.1	3853.
27032	8.3918	3.	0.1	3825.7
27033	8.3	3.0909	0.1	3852.8
27034	8.3918	2.8182	0.1	3825.9
27035	8.3	2.9091	0.1	3852.8
27036	8.3918	2.6364	0.1	3826.3
27037	8.3	2.7273	0.1	3853.
27038	8.3918	2.4545	0.1	3827.
27039	8.3	2.5455	0.1	3853.6
27040	8.3918	2.2727	0.1	3827.9
27041	8.3	2.3636	0.1	3854.4
27042	8.3918	2.0909	0.1	3829.1
27043	8.3	2.1818	0.1	3855.4
27044	8.3918	1.9091	0.1	3830.5
27045	8.3	2.	0.1	3856.7
27046	8.3918	1.7273	0.1	3832.1
27047	8.3	1.8182	0.1	3858.1
27048	8.3918	1.5455	0.1	3833.8
27049	8.3	1.6364	0.1	3859.8
27050	8.3918	1.3636	0.1	3835.8
27051	8.3	1.4545	0.1	3861.5
27052	8.3918	1.1818	0.1	3837.8
27053	8.3	1.2727	0.1	3863.4
27054	8.3918	1.	0.1	3840.
27055	8.3	1.0909	0.1	3865.5
27056	8.3918	0.81818	0.1	3842.3
27057	8.3	0.90909	0.1	3867.7
27058	8.3918	0.63636	0.1	3844.7
27059	8.3	0.72727	0.1	3870.
27060	8.3918	0.45455	0.1	3847.4
27061	8.3	0.54545	0.1	3872.4
27062	8.3918	0.27273	0.1	3850.5
27063	8.3	0.36364	0.1	3875.1
27064	8.3	0.18182	0.1	3878.7
27065	8.3918	9.0909e-002	0.1	3851.4
27066	8.2082	5.7273	0.1	3903.3
27067	8.1164	5.8182	0.1	3931.3
27068	8.2082	5.9091	0.1	3904.2
27069	8.2082	5.5455	0.1	3900.2
27070	8.1164	5.6364	0.1	3927.8
27071	8.2082	5.3636	0.1	3897.7
27072	8.1164	5.4545	0.1	3925.2
27073	8.2082	5.1818	0.1	3895.3
27074	8.1164	5.2727	0.1	3922.9
27075	8.2082	5.	0.1	3893.2
27076	8.1164	5.0909	0.1	3920.8
27077	8.2082	4.8182	0.1	3891.1
27078	8.1164	4.9091	0.1	3918.8
27079	8.2082	4.6364	0.1	3889.2
27080	8.1164	4.7273	0.1	3916.9
27081	8.2082	4.4545	0.1	3887.4
27082	8.1164	4.5455	0.1	3915.1
27083	8.2082	4.2727	0.1	3885.8
27084	8.1164	4.3636	0.1	3913.5
27085	8.2082	4.0909	0.1	3884.3
27086	8.1164	4.1818	0.1	3912.1
27087	8.2082	3.9091	0.1	3883.
27088	8.1164	4.	0.1	3910.7
27089	8.2082	3.7273	0.1	3881.9
27090	8.1164	3.8182	0.1	3909.6
27091	8.2082	3.5455	0.1	3881.
27092	8.1164	3.6364	0.1	3908.6
27093	8.2082	3.3636	0.1	3880.3
27094	8.1164	3.4545	0.1	3907.9
27095	8.2082	3.1818	0.1	3879.9
27096	8.1164	3.2727	0.1	3907.4
27097	8.2082	3.	0.1	3879.8
27098	8.1164	3.0909	0.1	3907.1
27099	8.2082	2.8182	0.1	3879.9
27100	8.1164	2.9091	0.1	3907.1
27101	8.2082	2.6364	0.1	3880.3
27102	8.1164	2.7273	0.1	3907.4
27103	8.2082	2.4545	0.1	3881.
27104	8.1164	2.5455	0.1	3907.9
27105	8.2082	2.2727	0.1	3881.9
27106	8.1164	2.3636	0.1	3908.6
27107	8.2082	2.0909	0.1	3883.
27108	8.1164	2.1818	0.1	3909.6
27109	8.2082	1.9091	0.1	3884.3
27110	8.1164	2.	0.1	3910.7
27111	8.2082	1.7273	0.1	3885.8
27112	8.1164	1.8182	0.1	3912.1
27113	8.2082	1.5455	0.1	3887.4
27114	8.1164	1.6364	0.1	3913.5
27115	8.2082	1.3636	0.1	3889.2
27116	8.1164	1.4545	0.1	3915.1
27117	8.2082	1.1818	0.1	3891.1
27118	8.1164	1.2727	0.1	3916.9
27119	8.2082	1.	0.1	3893.2
27120	8.1164	1.0909	0.1	3918.8
27121	8.2082	0.81818	0.1	3895.3
27122	8.1164	0.90909	0.1	3920.8
27123	8.2082	0.63636	0.1	3897.7
27124	8.1164	0.72727	0.1	3922.9
27125	8.2082	0.45455	0.1	3900.2
27126	8.1164	0.54545	0.1	3925.2
27127	8.2082	0.27273	0.1	3903.3
27128	8.1164	0.36364	0.1	3927.8
27129	8.1164	0.18182	0.1	3931.3
27130	8.2082	9.0909e-002	0.1	3904.2
27131	8.0246	5.7273	0.1	3955.8
27132	7.9327	5.8182	0.1	3983.5
27133	8.0246	5.9091	0.1	3956.8
27134	8.0246	5.5455	0.1	3952.8
27135	7.9327	5.6364	0.1	3980.1
27136	8.0246	5.3636	0.1	3950.5
27137	7.9327	5.4545	0.1	3977.8
27138	8.0246	5.1818	0.1	3948.3
27139	7.9327	5.2727	0.1	3975.7
27140	8.0246	5.	0.1	3946.3
27141	7.9327	5.0909	0.1	3973.8
27142	8.0246	4.8182	0.1	3944.5
27143	7.9327	4.9091	0.1	3972.1
27144	8.0246	4.6364	0.1	3942.8
27145	7.9327	4.7273	0.1	3970.5
27146	8.0246	4.4545	0.1	3941.3
27147	7.9327	4.5455	0.1	3969.
27148	8.0246	4.2727	0.1	3939.8
27149	7.9327	4.3636	0.1	3967.6
27150	8.0246	4.0909	0.1	3938.5
27151	7.9327	4.1818	0.1	3966.4
27152	8.0246	3.9091	0.1	3937.3
27153	7.9327	4.	0.1	3965.3
27154	8.0246	3.7273	0.1	3936.3
27155	7.9327	3.8182	0.1	3964.3
27156	8.0246	3.5455	0.1	3935.5
27157	7.9327	3.6364	0.1	3963.5
27158	8.0246	3.3636	0.1	3934.9
27159	7.9327	3.4545	0.1	3962.8
27160	8.0246	3.1818	0.1	3934.6
27161	7.9327	3.2727	0.1	3962.4
27162	8.0246	3.	0.1	3934.5
27163	7.9327	3.0909	0.1	3962.2
27164	8.0246	2.8182	0.1	3934.6
27165	7.9327	2.9091	0.1	3962.2
27166	8.0246	2.6364	0.1	3934.9
27167	7.9327	2.7273	0.1	3962.4
27168	8.0246	2.4545	0.1	3935.5
27169	7.9327	2.5455	0.1	3962.8
27170	8.0246	2.2727	0.1	3936.3
27171	7.9327	2.3636	0.1	3963.5
27172	8.0246	2.0909	0.1	3937.3
27173	7.9327	2.1818	0.1	3964.3
27174	8.0246	1.9091	0.1	3938.5
27175	7.9327	2.	0.1	3965.3
27176	8.0246	1.7273	0.1	3939.8
27177	7.9327	1.8182	0.1	3966.4
27178	8.0246	1.5455	0.1	3941.3
27179	7.9327	1.6364	0.1	3967.6
27180	8.0246	1.3636	0.1	3942.8
27181	7.9327	1.4545	0.1	3969.
27182	8.0246	1.1818	0.1	3944.5
27183	7.9327	1.2727	0.1	3970.5
27184	8.0246	1.	0.1	3946.3
27185	7.9327	1.0909	0.1	3972.1
27186	8.0246	0.81818	0.1	3948.3
27187	7.9327	0.90909	0.1	3973.8
27188	8.0246	0.63636	0.1	3950.5
27189	7.9327	0.72727	0.1	3975.7
27190	8.0246	0.45455	0.1	3952.8
27191	7.9327	0.54545	0.1	3977.8
27192	8.0246	0.27273	0.1	3955.8
27193	7.9327	0.36364	0.1	3980.1
27194	7.9327	0.18182	0.1	3983.5
27195	8.0246	9.0909e-002	0.1	3956.8
27196	7.8409	5.7273	0.1	4007.8
27197	7.7491	5.8182	0.1	4035.1
27198	7.8409	5.9091	0.1	4008.8
27199	7.8409	5.5455	0.1	4005.1
27200	7.7491	5.6364	0.1	4032.
27201	7.8409	5.3636	0.1	4003.
27202	7.7491	5.4545	0.1	4029.9
27203	7.8409	5.1818	0.1	4001.1
27204	7.7491	5.2727	0.1	4028.1
27205	7.8409	5.	0.1	3999.5
27206	7.7491	5.0909	0.1	4026.6
27207	7.8409	4.8182	0.1	3998.
27208	7.7491	4.9091	0.1	4025.3
27209	7.8409	4.6364	0.1	3996.6
27210	7.7491	4.7273	0.1	4024.1
27211	7.8409	4.4545	0.1	3995.4
27212	7.7491	4.5455	0.1	4023.1
27213	7.8409	4.2727	0.1	3994.2
27214	7.7491	4.3636	0.1	4022.1
27215	7.8409	4.0909	0.1	3993.2
27216	7.7491	4.1818	0.1	4021.2
27217	7.8409	3.9091	0.1	3992.2
27218	7.7491	4.	0.1	4020.4
27219	7.8409	3.7273	0.1	3991.4
27220	7.7491	3.8182	0.1	4019.7
27221	7.8409	3.5455	0.1	3990.8
27222	7.7491	3.6364	0.1	4019.1
27223	7.8409	3.3636	0.1	3990.3
27224	7.7491	3.4545	0.1	4018.6
27225	7.8409	3.1818	0.1	3990.
27226	7.7491	3.2727	0.1	4018.3
27227	7.8409	3.	0.1	3989.9
27228	7.7491	3.0909	0.1	4018.2
27229	7.8409	2.8182	0.1	3990.
27230	7.7491	2.9091	0.1	4018.2
27231	7.8409	2.6364	0.1	3990.3
27232	7.7491	2.7273	0.1	4018.3
27233	7.8409	2.4545	0.1	3990.8
27234	7.7491	2.5455	0.1	4018.6
27235	7.8409	2.2727	0.1	3991.4
27236	7.7491	2.3636	0.1	4019.1
27237	7.8409	2.0909	0.1	3992.2
27238	7.7491	2.1818	0.1	4019.7
27239	7.8409	1.9091	0.1	3993.2
27240	7.7491	2.	0.1	4020.4
27241	7.8409	1.7273	0.1	3994.2
27242	7.7491	1.8182	0.1	4021.2
27243	7.8409	1.5455	0.1	3995.4
27244	7.7491	1.6364	0.1	4022.1
27245	7.8409	1.3636	0.1	3996.6
27246	7.7491	1.4545	0.1	4023.1
27247	7.8409	1.1818	0.1	3998.
27248	7.7491	1.2727	0.1	4024.1
27249	7.8409	1.	0.1	3999.5
27250	7.7491	1.0909	0.1	4025.3
27251	7.8409	0.81818	0.1	4001.1
27252	7.7491	0.90909	0.1	4026.6
27253	7.8409	0.63636	0.1	4003.
27254	7.7491	0.72727	0.1	4028.1
27255	7.8409	0.45455	0.1	4005.1
27256	7.7491	0.54545	0.1	4029.9
27257	7.8409	0.27273	0.1	4007.8
27258	7.7491	0.36364	0.1	4032.
27259	7.7491	0.18182	0.1	4035.1
27260	7.8409	9.0909e-002	0.1	4008.8
27261	7.6573	5.7273	0.1	4059.2
27262	7.5655	5.8182	0.1	4085.8
27263	7.6573	5.9091	0.1	4060.
27264	7.6573	5.5455	0.1	4056.8
27265	7.5655	5.6364	0.1	4083.
27266	7.6573	5.3636	0.1	4055.
27267	7.5655	5.4545	0.1	4081.4
27268	7.6573	5.1818	0.1	4053.6
27269	7.5655	5.2727	0.1	4080.1
27270	7.6573	5.	0.1	4052.4
27271	7.5655	5.0909	0.1	4079.2
27272	7.6573	4.8182	0.1	4051.4
27273	7.5655	4.9091	0.1	4078.4
27274	7.6573	4.6364	0.1	4050.6
27275	7.5655	4.7273	0.1	4077.8
27276	7.6573	4.4545	0.1	4049.8
27277	7.5655	4.5455	0.1	4077.4
27278	7.6573	4.2727	0.1	4049.1
27279	7.5655	4.3636	0.1	4076.9
27280	7.6573	4.0909	0.1	4048.4
27281	7.5655	4.1818	0.1	4076.6
27282	7.6573	3.9091	0.1	4047.9
27283	7.5655	4.	0.1	4076.2
27284	7.6573	3.7273	0.1	4047.3
27285	7.5655	3.8182	0.1	4075.9
27286	7.6573	3.5455	0.1	4046.9
27287	7.5655	3.6364	0.1	4075.7
27288	7.6573	3.3636	0.1	4046.6
27289	7.5655	3.4545	0.1	4075.5
27290	7.6573	3.1818	0.1	4046.4
27291	7.5655	3.2727	0.1	4075.3
27292	7.6573	3.	0.1	4046.4
27293	7.5655	3.0909	0.1	4075.2
27294	7.6573	2.8182	0.1	4046.4
27295	7.5655	2.9091	0.1	4075.2
27296	7.6573	2.6364	0.1	4046.6
27297	7.5655	2.7273	0.1	4075.3
27298	7.6573	2.4545	0.1	4046.9
27299	7.5655	2.5455	0.1	4075.5
27300	7.6573	2.2727	0.1	4047.3
27301	7.5655	2.3636	0.1	4075.7
27302	7.6573	2.0909	0.1	4047.9
27303	7.5655	2.1818	0.1	4075.9
27304	7.6573	1.9091	0.1	4048.4
27305	7.5655	2.	0.1	4076.2
27306	7.6573	1.7273	0.1	4049.1
27307	7.5655	1.8182	0.1	4076.6
27308	7.6573	1.5455	0.1	4049.8
27309	7.5655	1.6364	0.1	4076.9
27310	7.6573	1.3636	0.1	4050.6
27311	7.5655	1.4545	0.1	4077.4
27312	7.6573	1.1818	0.1	4051.4
27313	7.5655	1.2727	0.1	4077.8
27314	7.6573	1.	0.1	4052.4
27315	7.5655	1.0909	0.1	4078.4
27316	7.6573	0.81818	0.1	4053.6
27317	7.5655	0.90909	0.1	4079.2
27318	7.6573	0.63636	0.1	4055.
27319	7.5655	0.72727	0.1	4080.1
27320	7.6573	0.45455	0.1	4056.8
27321	7.5655	0.54545	0.1	4081.4
27322	7.6573	0.27273	0.1	4059.2
27323	7.5655	0.36364	0.1	4083.
27324	7.5655	0.18182	0.1	4085.8
27325	7.6573	9.0909e-002	0.1	4060.
27326	7.4737	5.7273	0.1	4109.6
27327	7.3819	5.8182	0.1	4135.4
27328	7.4737	5.9091	0.1	4110.3
27329	7.4737	5.5455	0.1	4107.6
27330	7.3819	5.6364	0.1	4133.1
27331	7.4737	5.3636	0.1	4106.4
27332	7.3819	5.4545	0.1	4132.
27333	7.4737	5.1818	0.1	4105.6
27334	7.3819	5.2727	0.1	4131.4
27335	7.4737	5.	0.1	4105.1
27336	7.3819	5.0909	0.1	4131.2
27337	7.4737	4.8182	0.1	4104.8
27338	7.3819	4.9091	0.1	4131.3
27339	7.4737	4.6364	0.1	4104.6
27340	7.3819	4.7273	0.1	4131.5
27341	7.4737	4.4545	0.1	4104.5
27342	7.3819	4.5455	0.1	4131.9
27343	7.4737	4.2727	0.1	4104.4
27344	7.3819	4.3636	0.1	4132.3
27345	7.4737	4.0909	0.1	4104.4
27346	7.3819	4.1818	0.1	4132.6
27347	7.4737	3.9091	0.1	4104.3
27348	7.3819	4.	0.1	4132.9
27349	7.4737	3.7273	0.1	4104.2
27350	7.3819	3.8182	0.1	4133.2
27351	7.4737	3.5455	0.1	4104.2
27352	7.3819	3.6364	0.1	4133.4
27353	7.4737	3.3636	0.1	4104.1
27354	7.3819	3.4545	0.1	4133.6
27355	7.4737	3.1818	0.1	4104.1
27356	7.3819	3.2727	0.1	4133.7
27357	7.4737	3.	0.1	4104.1
27358	7.3819	3.0909	0.1	4133.7
27359	7.4737	2.8182	0.1	4104.1
27360	7.3819	2.9091	0.1	4133.7
27361	7.4737	2.6364	0.1	4104.1
27362	7.3819	2.7273	0.1	4133.7
27363	7.4737	2.4545	0.1	4104.2
27364	7.3819	2.5455	0.1	4133.6
27365	7.4737	2.2727	0.1	4104.2
27366	7.3819	2.3636	0.1	4133.4
27367	7.4737	2.0909	0.1	4104.3
27368	7.3819	2.1818	0.1	4133.2
27369	7.4737	1.9091	0.1	4104.4
27370	7.3819	2.	0.1	4132.9
27371	7.4737	1.7273	0.1	4104.4
27372	7.3819	1.8182	0.1	4132.6
27373	7.4737	1.5455	0.1	4104.5
27374	7.3819	1.6364	0.1	4132.3
27375	7.4737	1.3636	0.1	4104.6
27376	7.3819	1.4545	0.1	4131.9
27377	7.4737	1.1818	0.1	4104.8
27378	7.3819	1.2727	0.1	4131.5
27379	7.4737	1.	0.1	4105.1
27380	7.3819	1.0909	0.1	4131.3
27381	7.4737	0.81818	0.1	4105.6
27382	7.3819	0.90909	0.1	4131.2
27383	7.4737	0.63636	0.1	4106.4
27384	7.3819	0.72727	0.1	4131.4
27385	7.4737	0.45455	0.1	4107.6
27386	7.3819	0.54545	0.1	4132.
27387	7.4737	0.27273	0.1	4109.6
27388	7.3819	0.36364	0.1	4133.1
27389	7.3819	0.18182	0.1	4135.4
27390	7.4737	9.0909e-002	0.1	4110.3
27391	7.2901	5.7273	0.1	4158.8
27392	7.1982	5.8182	0.1	4183.4
27393	7.2901	5.9091	0.1	4159.2
27394	7.2901	5.5455	0.1	4157.4
27395	7.1982	5.6364	0.1	4181.7
27396	7.2901	5.3636	0.1	4157.
27397	7.1982	5.4545	0.1	4181.4
27398	7.2901	5.1818	0.1	4157.
27399	7.1982	5.2727	0.1	4181.8
27400	7.2901	5.	0.1	4157.4
27401	7.1982	5.0909	0.1	4182.6
27402	7.2901	4.8182	0.1	4158.
27403	7.1982	4.9091	0.1	4183.8
27404	7.2901	4.6364	0.1	4158.8
27405	7.1982	4.7273	0.1	4185.2
27406	7.2901	4.4545	0.1	4159.6
27407	7.1982	4.5455	0.1	4186.6
27408	7.2901	4.2727	0.1	4160.4
27409	7.1982	4.3636	0.1	4188.1
27410	7.2901	4.0909	0.1	4161.2
27411	7.1982	4.1818	0.1	4189.5
27412	7.2901	3.9091	0.1	4161.8
27413	7.1982	4.	0.1	4190.7
27414	7.2901	3.7273	0.1	4162.4
27415	7.1982	3.8182	0.1	4191.8
27416	7.2901	3.5455	0.1	4162.8
27417	7.1982	3.6364	0.1	4192.7
27418	7.2901	3.3636	0.1	4163.1
27419	7.1982	3.4545	0.1	4193.3
27420	7.2901	3.1818	0.1	4163.3
27421	7.1982	3.2727	0.1	4193.8
27422	7.2901	3.	0.1	4163.4
27423	7.1982	3.0909	0.1	4194.
27424	7.2901	2.8182	0.1	4163.3
27425	7.1982	2.9091	0.1	4194.
27426	7.2901	2.6364	0.1	4163.1
27427	7.1982	2.7273	0.1	4193.8
27428	7.2901	2.4545	0.1	4162.8
27429	7.1982	2.5455	0.1	4193.3
27430	7.2901	2.2727	0.1	4162.4
27431	7.1982	2.3636	0.1	4192.7
27432	7.2901	2.0909	0.1	4161.8
27433	7.1982	2.1818	0.1	4191.8
27434	7.2901	1.9091	0.1	4161.2
27435	7.1982	2.	0.1	4190.7
27436	7.2901	1.7273	0.1	4160.4
27437	7.1982	1.8182	0.1	4189.5
27438	7.2901	1.5455	0.1	4159.6
27439	7.1982	1.6364	0.1	4188.1
27440	7.2901	1.3636	0.1	4158.8
27441	7.1982	1.4545	0.1	4186.6
27442	7.2901	1.1818	0.1	4158.
27443	7.1982	1.2727	0.1	4185.2
27444	7.2901	1.	0.1	4157.4
27445	7.1982	1.0909	0.1	4183.8
27446	7.2901	0.81818	0.1	4157.
27447	7.1982	0.90909	0.1	4182.6
27448	7.2901	0.63636	0.1	4157.
27449	7.1982	0.72727	0.1	4181.8
27450	7.2901	0.45455	0.1	4157.4
27451	7.1982	0.54545	0.1	4181.4
27452	7.2901	0.27273	0.1	4158.8
27453	7.1982	0.36364	0.1	4181.7
27454	7.1982	0.18182	0.1	4183.4
27455	7.2901	9.0909e-002	0.1	4159.2
27456	7.1064	5.7273	0.1	4206.3
27457	7.0146	5.8182	0.1	4229.3
27458	7.1064	5.9091	0.1	4206.2
27459	7.1064	5.5455	0.1	4205.7
27460	7.0146	5.6364	0.1	4228.5
27461	7.1064	5.3636	0.1	4206.2
27462	7.0146	5.4545	0.1	4229.3
27463	7.1064	5.1818	0.1	4207.4
27464	7.0146	5.2727	0.1	4230.8
27465	7.1064	5.	0.1	4209.
27466	7.0146	5.0909	0.1	4233.
27467	7.1064	4.8182	0.1	4210.9
27468	7.0146	4.9091	0.1	4235.7
27469	7.1064	4.6364	0.1	4213.
27470	7.0146	4.7273	0.1	4238.6
27471	7.1064	4.4545	0.1	4215.1
27472	7.0146	4.5455	0.1	4241.6
27473	7.1064	4.2727	0.1	4217.1
27474	7.0146	4.3636	0.1	4244.5
27475	7.1064	4.0909	0.1	4219.
27476	7.0146	4.1818	0.1	4247.3
27477	7.1064	3.9091	0.1	4220.7
27478	7.0146	4.	0.1	4249.8
27479	7.1064	3.7273	0.1	4222.1
27480	7.0146	3.8182	0.1	4252.
27481	7.1064	3.5455	0.1	4223.2
27482	7.0146	3.6364	0.1	4253.8
27483	7.1064	3.3636	0.1	4224.
27484	7.0146	3.4545	0.1	4255.2
27485	7.1064	3.1818	0.1	4224.5
27486	7.0146	3.2727	0.1	4256.1
27487	7.1064	3.	0.1	4224.7
27488	7.0146	3.0909	0.1	4256.6
27489	7.1064	2.8182	0.1	4224.5
27490	7.0146	2.9091	0.1	4256.6
27491	7.1064	2.6364	0.1	4224.
27492	7.0146	2.7273	0.1	4256.1
27493	7.1064	2.4545	0.1	4223.2
27494	7.0146	2.5455	0.1	4255.2
27495	7.1064	2.2727	0.1	4222.1
27496	7.0146	2.3636	0.1	4253.8
27497	7.1064	2.0909	0.1	4220.7
27498	7.0146	2.1818	0.1	4252.
27499	7.1064	1.9091	0.1	4219.
27500	7.0146	2.	0.1	4249.8
27501	7.1064	1.7273	0.1	4217.1
27502	7.0146	1.8182	0.1	4247.3
27503	7.1064	1.5455	0.1	4215.1
27504	7.0146	1.6364	0.1	4244.5
27505	7.1064	1.3636	0.1	4213.
27506	7.0146	1.4545	0.1	4241.6
27507	7.1064	1.1818	0.1	4210.9
27508	7.0146	1.2727	0.1	4238.6
27509	7.1064	1.	0.1	4209.
27510	7.0146	1.0909	0.1	4235.7
27511	7.1064	0.81818	0.1	4207.4
27512	7.0146	0.90909	0.1	4233.
27513	7.1064	0.63636	0.1	4206.2
27514	7.0146	0.72727	0.1	4230.8
27515	7.1064	0.45455	0.1	4205.7
27516	7.0146	0.54545	0.1	4229.3
27517	7.1064	0.27273	0.1	4206.3
27518	7.0146	0.36364	0.1	4228.5
27519	7.0146	0.18182	0.1	4229.3
27520	7.1064	9.0909e-002	0.1	4206.2
27521	6.9228	5.7273	0.1	4251.5
27522	6.831	5.8182	0.1	4272.5
27523	6.9228	5.9091	0.1	4250.7
27524	6.9228	5.5455	0.1	4252.
27525	6.831	5.6364	0.1	4272.8
27526	6.9228	5.3636	0.1	4253.8
27527	6.831	5.4545	0.1	4274.9
27528	6.9228	5.1818	0.1	4256.5
27529	6.831	5.2727	0.1	4278.1
27530	6.9228	5.	0.1	4259.7
27531	6.831	5.0909	0.1	4282.2
27532	6.9228	4.8182	0.1	4263.3
27533	6.831	4.9091	0.1	4286.8
27534	6.9228	4.6364	0.1	4267.2
27535	6.831	4.7273	0.1	4291.7
27536	6.9228	4.4545	0.1	4271.
27537	6.831	4.5455	0.1	4296.7
27538	6.9228	4.2727	0.1	4274.7
27539	6.831	4.3636	0.1	4301.6
27540	6.9228	4.0909	0.1	4278.1
27541	6.831	4.1818	0.1	4306.3
27542	6.9228	3.9091	0.1	4281.1
27543	6.831	4.	0.1	4310.6
27544	6.9228	3.7273	0.1	4283.7
27545	6.831	3.8182	0.1	4314.3
27546	6.9228	3.5455	0.1	4285.8
27547	6.831	3.6364	0.1	4317.4
27548	6.9228	3.3636	0.1	4287.3
27549	6.831	3.4545	0.1	4319.7
27550	6.9228	3.1818	0.1	4288.2
27551	6.831	3.2727	0.1	4321.3
27552	6.9228	3.	0.1	4288.5
27553	6.831	3.0909	0.1	4322.1
27554	6.9228	2.8182	0.1	4288.2
27555	6.831	2.9091	0.1	4322.1
27556	6.9228	2.6364	0.1	4287.3
27557	6.831	2.7273	0.1	4321.3
27558	6.9228	2.4545	0.1	4285.8
27559	6.831	2.5455	0.1	4319.7
27560	6.9228	2.2727	0.1	4283.7
27561	6.831	2.3636	0.1	4317.4
27562	6.9228	2.0909	0.1	4281.1
27563	6.831	2.1818	0.1	4314.3
27564	6.9228	1.9091	0.1	4278.1
27565	6.831	2.	0.1	4310.6
27566	6.9228	1.7273	0.1	4274.7
27567	6.831	1.8182	0.1	4306.3
27568	6.9228	1.5455	0.1	4271.
27569	6.831	1.6364	0.1	4301.6
27570	6.9228	1.3636	0.1	4267.2
27571	6.831	1.4545	0.1	4296.7
27572	6.9228	1.1818	0.1	4263.3
27573	6.831	1.2727	0.1	4291.7
27574	6.9228	1.	0.1	4259.7
27575	6.831	1.0909	0.1	4286.8
27576	6.9228	0.81818	0.1	4256.5
27577	6.831	0.90909	0.1	4282.2
27578	6.9228	0.63636	0.1	4253.8
27579	6.831	0.72727	0.1	4278.1
27580	6.9228	0.45455	0.1	4252.
27581	6.831	0.54545	0.1	4274.9
27582	6.9228	0.27273	0.1	4251.5
27583	6.831	0.36364	0.1	4272.8
27584	6.831	0.18182	0.1	4272.5
27585	6.9228	9.0909e-002	0.1	4250.7
27586	6.7392	5.7273	0.1	4293.8
27587	6.6474	5.8182	0.1	4312.1
27588	6.7392	5.9091	0.1	4292.
27589	6.7392	5.5455	0.1	4295.7
27590	6.6474	5.6364	0.1	4313.9
27591	6.7392	5.3636	0.1	4299.2
27592	6.6474	5.4545	0.1	4317.7
27593	6.7392	5.1818	0.1	4303.8
27594	6.6474	5.2727	0.1	4323.1
27595	6.7392	5.	0.1	4309.2
27596	6.6474	5.0909	0.1	4329.5
27597	6.7392	4.8182	0.1	4315.1
27598	6.6474	4.9091	0.1	4336.6
27599	6.7392	4.6364	0.1	4321.2
27600	6.6474	4.7273	0.1	4344.3
27601	6.7392	4.4545	0.1	4327.4
27602	6.6474	4.5455	0.1	4352.
27603	6.7392	4.2727	0.1	4333.3
27604	6.6474	4.3636	0.1	4359.6
27605	6.7392	4.0909	0.1	4338.8
27606	6.6474	4.1818	0.1	4366.8
27607	6.7392	3.9091	0.1	4343.7
27608	6.6474	4.	0.1	4373.4
27609	6.7392	3.7273	0.1	4347.9
27610	6.6474	3.8182	0.1	4379.1
27611	6.7392	3.5455	0.1	4351.3
27612	6.6474	3.6364	0.1	4383.9
27613	6.7392	3.3636	0.1	4353.7
27614	6.6474	3.4545	0.1	4387.6
27615	6.7392	3.1818	0.1	4355.2
27616	6.6474	3.2727	0.1	4390.2
27617	6.7392	3.	0.1	4355.7
27618	6.6474	3.0909	0.1	4391.4
27619	6.7392	2.8182	0.1	4355.2
27620	6.6474	2.9091	0.1	4391.4
27621	6.7392	2.6364	0.1	4353.7
27622	6.6474	2.7273	0.1	4390.2
27623	6.7392	2.4545	0.1	4351.3
27624	6.6474	2.5455	0.1	4387.6
27625	6.7392	2.2727	0.1	4347.9
27626	6.6474	2.3636	0.1	4383.9
27627	6.7392	2.0909	0.1	4343.7
27628	6.6474	2.1818	0.1	4379.1
27629	6.7392	1.9091	0.1	4338.8
27630	6.6474	2.	0.1	4373.4
27631	6.7392	1.7273	0.1	4333.3
27632	6.6474	1.8182	0.1	4366.8
27633	6.7392	1.5455	0.1	4327.4
27634	6.6474	1.6364	0.1	4359.6
27635	6.7392	1.3636	0.1	4321.2
27636	6.6474	1.4545	0.1	4352.
27637	6.7392	1.1818	0.1	4315.1
27638	6.6474	1.2727	0.1	4344.3
27639	6.7392	1.	0.1	4309.2
27640	6.6474	1.0909	0.1	4336.6
27641	6.7392	0.81818	0.1	4303.8
27642	6.6474	0.90909	0.1	4329.5
27643	6.7392	0.63636	0.1	4299.2
27644	6.6474	0.72727	0.1	4323.1
27645	6.7392	0.45455	0.1	4295.7
27646	6.6474	0.54545	0.1	4317.7
27647	6.7392	0.27273	0.1	4293.8
27648	6.6474	0.36364	0.1	4313.9
27649	6.6474	0.18182	0.1	4312.1
27650	6.7392	9.0909e-002	0.1	4292.
27651	6.5556	5.7273	0.1	4332.2
27652	6.4637	5.8182	0.1	4347.2
27653	6.5556	5.9091	0.1	4329.2
27654	6.5556	5.5455	0.1	4335.9
27655	6.4637	5.6364	0.1	4350.7
27656	6.5556	5.3636	0.1	4341.6
27657	6.4637	5.4545	0.1	4356.9
27658	6.5556	5.1818	0.1	4348.7
27659	6.4637	5.2727	0.1	4364.9
27660	6.5556	5.	0.1	4356.9
27661	6.4637	5.0909	0.1	4374.4
27662	6.5556	4.8182	0.1	4365.8
27663	6.4637	4.9091	0.1	4384.9
27664	6.5556	4.6364	0.1	4375.
27665	6.4637	4.7273	0.1	4396.1
27666	6.5556	4.4545	0.1	4384.2
27667	6.4637	4.5455	0.1	4407.4
27668	6.5556	4.2727	0.1	4393.1
27669	6.4637	4.3636	0.1	4418.5
27670	6.5556	4.0909	0.1	4401.4
27671	6.4637	4.1818	0.1	4429.1
27672	6.5556	3.9091	0.1	4408.8
27673	6.4637	4.	0.1	4438.8
27674	6.5556	3.7273	0.1	4415.2
27675	6.4637	3.8182	0.1	4447.3
27676	6.5556	3.5455	0.1	4420.3
27677	6.4637	3.6364	0.1	4454.4
27678	6.5556	3.3636	0.1	4424.1
27679	6.4637	3.4545	0.1	4459.9
27680	6.5556	3.1818	0.1	4426.4
27681	6.4637	3.2727	0.1	4463.7
27682	6.5556	3.	0.1	4427.2
27683	6.4637	3.0909	0.1	4465.6
27684	6.5556	2.8182	0.1	4426.4
27685	6.4637	2.9091	0.1	4465.6
27686	6.5556	2.6364	0.1	4424.1
27687	6.4637	2.7273	0.1	4463.7
27688	6.5556	2.4545	0.1	4420.3
27689	6.4637	2.5455	0.1	4459.9
27690	6.5556	2.2727	0.1	4415.2
27691	6.4637	2.3636	0.1	4454.4
27692	6.5556	2.0909	0.1	4408.8
27693	6.4637	2.1818	0.1	4447.3
27694	6.5556	1.9091	0.1	4401.4
27695	6.4637	2.	0.1	4438.8
27696	6.5556	1.7273	0.1	4393.1
27697	6.4637	1.8182	0.1	4429.1
27698	6.5556	1.5455	0.1	4384.2
27699	6.4637	1.6364	0.1	4418.5
27700	6.5556	1.3636	0.1	4375.
27701	6.4637	1.4545	0.1	4407.4
27702	6.5556	1.1818	0.1	4365.8
27703	6.4637	1.2727	0.1	4396.1
27704	6.5556	1.	0.1	4356.9
27705	6.4637	1.0909	0.1	4384.9
27706	6.5556	0.81818	0.1	4348.7
27707	6.4637	0.90909	0.1	4374.4
27708	6.5556	0.63636	0.1	4341.6
27709	6.4637	0.72727	0.1	4364.9
27710	6.5556	0.45455	0.1	4335.9
27711	6.4637	0.54545	0.1	4356.9
27712	6.5556	0.27273	0.1	4332.2
27713	6.4637	0.36364	0.1	4350.7
27714	6.4637	0.18182	0.1	4347.2
27715	6.5556	9.0909e-002	0.1	4329.2
27716	6.3719	5.7273	0.1	4365.6
27717	6.2801	5.8182	0.1	4376.3
27718	6.3719	5.9091	0.1	4361.1
27719	6.3719	5.5455	0.1	4371.6
27720	6.2801	5.6364	0.1	4382.1
27721	6.3719	5.3636	0.1	4380.2
27722	6.2801	5.4545	0.1	4391.2
27723	6.3719	5.1818	0.1	4390.6
27724	6.2801	5.2727	0.1	4402.7
27725	6.3719	5.	0.1	4402.4
27726	6.2801	5.0909	0.1	4416.2
27727	6.3719	4.8182	0.1	4415.2
27728	6.2801	4.9091	0.1	4431.1
27729	6.3719	4.6364	0.1	4428.4
27730	6.2801	4.7273	0.1	4446.8
27731	6.3719	4.4545	0.1	4441.7
27732	6.2801	4.5455	0.1	4462.8
27733	6.3719	4.2727	0.1	4454.5
27734	6.2801	4.3636	0.1	4478.6
27735	6.3719	4.0909	0.1	4466.5
27736	6.2801	4.1818	0.1	4493.6
27737	6.3719	3.9091	0.1	4477.3
27738	6.2801	4.	0.1	4507.4
27739	6.3719	3.7273	0.1	4486.5
27740	6.2801	3.8182	0.1	4519.7
27741	6.3719	3.5455	0.1	4494.
27742	6.2801	3.6364	0.1	4529.9
27743	6.3719	3.3636	0.1	4499.6
27744	6.2801	3.4545	0.1	4537.8
27745	6.3719	3.1818	0.1	4502.9
27746	6.2801	3.2727	0.1	4543.2
27747	6.3719	3.	0.1	4504.1
27748	6.2801	3.0909	0.1	4546.
27749	6.3719	2.8182	0.1	4502.9
27750	6.2801	2.9091	0.1	4546.
27751	6.3719	2.6364	0.1	4499.6
27752	6.2801	2.7273	0.1	4543.2
27753	6.3719	2.4545	0.1	4494.
27754	6.2801	2.5455	0.1	4537.8
27755	6.3719	2.2727	0.1	4486.5
27756	6.2801	2.3636	0.1	4529.9
27757	6.3719	2.0909	0.1	4477.3
27758	6.2801	2.1818	0.1	4519.7
27759	6.3719	1.9091	0.1	4466.5
27760	6.2801	2.	0.1	4507.5
27761	6.3719	1.7273	0.1	4454.5
27762	6.2801	1.8182	0.1	4493.6
27763	6.3719	1.5455	0.1	4441.7
27764	6.2801	1.6364	0.1	4478.6
27765	6.3719	1.3636	0.1	4428.4
27766	6.2801	1.4545	0.1	4462.8
27767	6.3719	1.1818	0.1	4415.2
27768	6.2801	1.2727	0.1	4446.8
27769	6.3719	1.	0.1	4402.4
27770	6.2801	1.0909	0.1	4431.1
27771	6.3719	0.81818	0.1	4390.6
27772	6.2801	0.90909	0.1	4416.2
27773	6.3719	0.63636	0.1	4380.2
27774	6.2801	0.72727	0.1	4402.7
27775	6.3719	0.45455	0.1	4371.6
27776	6.2801	0.54545	0.1	4391.2
27777	6.3719	0.27273	0.1	4365.6
27778	6.2801	0.36364	0.1	4382.1
27779	6.2801	0.18182	0.1	4376.3
27780	6.3719	9.0909e-002	0.1	4361.1
27781	6.1883	5.7273	0.1	4392.7
27782	6.0965	5.8182	0.1	4397.9
27783	6.1883	5.9091	0.1	4386.2
27784	6.1883	5.5455	0.1	4401.6
27785	6.0965	5.6364	0.1	4406.6
27786	6.1883	5.3636	0.1	4413.8
27787	6.0965	5.4545	0.1	4419.3
27788	6.1883	5.1818	0.1	4428.4
27789	6.0965	5.2727	0.1	4435.3
27790	6.1883	5.	0.1	4444.9
27791	6.0965	5.0909	0.1	4453.9
27792	6.1883	4.8182	0.1	4462.7
27793	6.0965	4.9091	0.1	4474.4
27794	6.1883	4.6364	0.1	4481.2
27795	6.0965	4.7273	0.1	4496.
27796	6.1883	4.4545	0.1	4499.7
27797	6.0965	4.5455	0.1	4518.2
27798	6.1883	4.2727	0.1	4517.7
27799	6.0965	4.3636	0.1	4540.
27800	6.1883	4.0909	0.1	4534.6
27801	6.0965	4.1818	0.1	4560.9
27802	6.1883	3.9091	0.1	4549.8
27803	6.0965	4.	0.1	4580.2
27804	6.1883	3.7273	0.1	4563.
27805	6.0965	3.8182	0.1	4597.3
27806	6.1883	3.5455	0.1	4573.7
27807	6.0965	3.6364	0.1	4611.7
27808	6.1883	3.3636	0.1	4581.5
27809	6.0965	3.4545	0.1	4622.8
27810	6.1883	3.1818	0.1	4586.3
27811	6.0965	3.2727	0.1	4630.5
27812	6.1883	3.	0.1	4588.
27813	6.0965	3.0909	0.1	4634.4
27814	6.1883	2.8182	0.1	4586.3
27815	6.0965	2.9091	0.1	4634.4
27816	6.1883	2.6364	0.1	4581.5
27817	6.0965	2.7273	0.1	4630.5
27818	6.1883	2.4545	0.1	4573.7
27819	6.0965	2.5455	0.1	4622.8
27820	6.1883	2.2727	0.1	4563.
27821	6.0965	2.3636	0.1	4611.7
27822	6.1883	2.0909	0.1	4549.8
27823	6.0965	2.1818	0.1	4597.3
27824	6.1883	1.9091	0.1	4534.6
27825	6.0965	2.	0.1	4580.2
27826	6.1883	1.7273	0.1	4517.7
27827	6.0965	1.8182	0.1	4560.9
27828	6.1883	1.5455	0.1	4499.7
27829	6.0965	1.6364	0.1	4540.
27830	6.1883	1.3636	0.1	4481.2
27831	6.0965	1.4545	0.1	4518.2
27832	6.1883	1.1818	0.1	4462.7
27833	6.0965	1.2727	0.1	4496.
27834	6.1883	1.	0.1	4444.9
27835	6.0965	1.0909	0.1	4474.4
27836	6.1883	0.81818	0.1	4428.4
27837	6.0965	0.90909	0.1	4453.9
27838	6.1883	0.63636	0.1	4413.8
27839	6.0965	0.72727	0.1	4435.3
27840	6.1883	0.45455	0.1	4401.6
27841	6.0965	0.54545	0.1	4419.3
27842	6.1883	0.27273	0.1	4392.7
27843	6.0965	0.36364	0.1	4406.6
27844	6.0965	0.18182	0.1	4397.9
27845	6.1883	9.0909e-002	0.1	4386.2
27846	6.0047	5.7273	0.1	4411.7
27847	5.9129	5.8182	0.1	4410.
27848	6.0047	5.9091	0.1	4402.5
27849	6.0047	5.5455	0.1	4424.2
27850	5.9129	5.6364	0.1	4422.1
27851	6.0047	5.3636	0.1	4440.9
27852	5.9129	5.4545	0.1	4439.5
27853	6.0047	5.1818	0.1	4460.9
27854	5.9129	5.2727	0.1	4461.2
27855	6.0047	5.	0.1	4483.4
27856	5.9129	5.0909	0.1	4486.2
27857	6.0047	4.8182	0.1	4507.7
27858	5.9129	4.9091	0.1	4513.9
27859	6.0047	4.6364	0.1	4533.
27860	5.9129	4.7273	0.1	4543.2
27861	6.0047	4.4545	0.1	4558.5
27862	5.9129	4.5455	0.1	4573.3
27863	6.0047	4.2727	0.1	4583.2
27864	5.9129	4.3636	0.1	4603.1
27865	6.0047	4.0909	0.1	4606.5
27866	5.9129	4.1818	0.1	4631.7
27867	6.0047	3.9091	0.1	4627.7
27868	5.9129	4.	0.1	4658.1
27869	6.0047	3.7273	0.1	4646.
27870	5.9129	3.8182	0.1	4681.7
27871	6.0047	3.5455	0.1	4660.8
27872	5.9129	3.6364	0.1	4701.5
27873	6.0047	3.3636	0.1	4671.8
27874	5.9129	3.4545	0.1	4717.
27875	6.0047	3.1818	0.1	4678.6
27876	5.9129	3.2727	0.1	4727.7
27877	6.0047	3.	0.1	4680.9
27878	5.9129	3.0909	0.1	4733.1
27879	6.0047	2.8182	0.1	4678.6
27880	5.9129	2.9091	0.1	4733.1
27881	6.0047	2.6364	0.1	4671.8
27882	5.9129	2.7273	0.1	4727.7
27883	6.0047	2.4545	0.1	4660.8
27884	5.9129	2.5455	0.1	4717.
27885	6.0047	2.2727	0.1	4646.
27886	5.9129	2.3636	0.1	4701.5
27887	6.0047	2.0909	0.1	4627.7
27888	5.9129	2.1818	0.1	4681.7
27889	6.0047	1.9091	0.1	4606.5
27890	5.9129	2.	0.1	4658.1
27891	6.0047	1.7273	0.1	4583.2
27892	5.9129	1.8182	0.1	4631.7
27893	6.0047	1.5455	0.1	4558.5
27894	5.9129	1.6364	0.1	4603.1
27895	6.0047	1.3636	0.1	4533.
27896	5.9129	1.4545	0.1	4573.3
27897	6.0047	1.1818	0.1	4507.7
27898	5.9129	1.2727	0.1	4543.2
27899	6.0047	1.	0.1	4483.4
27900	5.9129	1.0909	0.1	4513.9
27901	6.0047	0.81818	0.1	4460.9
27902	5.9129	0.90909	0.1	4486.2
27903	6.0047	0.63636	0.1	4440.9
27904	5.9129	0.72727	0.1	4461.2
27905	6.0047	0.45455	0.1	4424.2
27906	5.9129	0.54545	0.1	4439.5
27907	6.0047	0.27273	0.1	4411.7
27908	5.9129	0.36364	0.1	4422.1
27909	5.9129	0.18182	0.1	4410.
27910	6.0047	9.0909e-002	0.1	4402.5
27911	5.8211	5.7273	0.1	4420.4
27912	5.7292	5.8182	0.1	4410.
27913	5.8211	5.9091	0.1	4408.
27914	5.8211	5.5455	0.1	4437.5
27915	5.7292	5.6364	0.1	4426.5
27916	5.8211	5.3636	0.1	4459.8
27917	5.7292	5.4545	0.1	4449.7
27918	5.8211	5.1818	0.1	4486.6
27919	5.7292	5.2727	0.1	4478.4
27920	5.8211	5.	0.1	4516.8
27921	5.7292	5.0909	0.1	4511.7
27922	5.8211	4.8182	0.1	4549.4
27923	5.7292	4.9091	0.1	4548.5
27924	5.8211	4.6364	0.1	4583.5
27925	5.7292	4.7273	0.1	4587.7
27926	5.8211	4.4545	0.1	4617.9
27927	5.7292	4.5455	0.1	4628.
27928	5.8211	4.2727	0.1	4651.5
27929	5.7292	4.3636	0.1	4668.1
27930	5.8211	4.0909	0.1	4683.3
27931	5.7292	4.1818	0.1	4706.7
27932	5.8211	3.9091	0.1	4712.1
27933	5.7292	4.	0.1	4742.6
27934	5.8211	3.7273	0.1	4737.2
27935	5.7292	3.8182	0.1	4774.6
27936	5.8211	3.5455	0.1	4757.7
27937	5.7292	3.6364	0.1	4801.7
27938	5.8211	3.3636	0.1	4772.9
27939	5.7292	3.4545	0.1	4823.
27940	5.8211	3.1818	0.1	4782.2
27941	5.7292	3.2727	0.1	4837.6
27942	5.8211	3.	0.1	4785.4
27943	5.7292	3.0909	0.1	4845.1
27944	5.8211	2.8182	0.1	4782.2
27945	5.7292	2.9091	0.1	4845.1
27946	5.8211	2.6364	0.1	4772.9
27947	5.7292	2.7273	0.1	4837.6
27948	5.8211	2.4545	0.1	4757.7
27949	5.7292	2.5455	0.1	4823.
27950	5.8211	2.2727	0.1	4737.2
27951	5.7292	2.3636	0.1	4801.7
27952	5.8211	2.0909	0.1	4712.1
27953	5.7292	2.1818	0.1	4774.6
27954	5.8211	1.9091	0.1	4683.3
27955	5.7292	2.	0.1	4742.6
27956	5.8211	1.7273	0.1	4651.5
27957	5.7292	1.8182	0.1	4706.7
27958	5.8211	1.5455	0.1	4617.9
27959	5.7292	1.6364	0.1	4668.1
27960	5.8211	1.3636	0.1	4583.5
27961	5.7292	1.4545	0.1	4628.
27962	5.8211	1.1818	0.1	4549.4
27963	5.7292	1.2727	0.1	4587.7
27964	5.8211	1.	0.1	4516.8
27965	5.7292	1.0909	0.1	4548.5
27966	5.8211	0.81818	0.1	4486.6
27967	5.7292	0.90909	0.1	4511.7
27968	5.8211	0.63636	0.1	4459.8
27969	5.7292	0.72727	0.1	4478.4
27970	5.8211	0.45455	0.1	4437.5
27971	5.7292	0.54545	0.1	4449.7
27972	5.8211	0.27273	0.1	4420.4
27973	5.7292	0.36364	0.1	4426.5
27974	5.7292	0.18182	0.1	4410.
27975	5.8211	9.0909e-002	0.1	4408.
27976	5.6374	5.7273	0.1	4416.1
27977	5.5456	5.8182	0.1	4395.
27978	5.6374	5.9091	0.1	4399.7
27979	5.6374	5.5455	0.1	4438.7
27980	5.5456	5.6364	0.1	4416.7
27981	5.6374	5.3636	0.1	4468.2
27982	5.5456	5.4545	0.1	4447.
27983	5.6374	5.1818	0.1	4503.5
27984	5.5456	5.2727	0.1	4484.5
27985	5.6374	5.	0.1	4543.5
27986	5.5456	5.0909	0.1	4528.2
27987	5.6374	4.8182	0.1	4586.8
27988	5.5456	4.9091	0.1	4576.7
27989	5.6374	4.6364	0.1	4632.2
27990	5.5456	4.7273	0.1	4628.6
27991	5.6374	4.4545	0.1	4678.2
27992	5.5456	4.5455	0.1	4682.
27993	5.6374	4.2727	0.1	4723.3
27994	5.5456	4.3636	0.1	4735.4
27995	5.6374	4.0909	0.1	4766.
27996	5.5456	4.1818	0.1	4787.1
27997	5.6374	3.9091	0.1	4805.
27998	5.5456	4.	0.1	4835.3
27999	5.6374	3.7273	0.1	4839.1
28000	5.5456	3.8182	0.1	4878.4
28001	5.6374	3.5455	0.1	4867.
28002	5.5456	3.6364	0.1	4915.1
28003	5.6374	3.3636	0.1	4887.7
28004	5.5456	3.4545	0.1	4944.
28005	5.6374	3.1818	0.1	4900.5
28006	5.5456	3.2727	0.1	4963.9
28007	5.6374	3.	0.1	4904.8
28008	5.5456	3.0909	0.1	4974.1
28009	5.6374	2.8182	0.1	4900.5
28010	5.5456	2.9091	0.1	4974.1
28011	5.6374	2.6364	0.1	4887.7
28012	5.5456	2.7273	0.1	4963.9
28013	5.6374	2.4545	0.1	4867.
28014	5.5456	2.5455	0.1	4944.
28015	5.6374	2.2727	0.1	4839.1
28016	5.5456	2.3636	0.1	4915.1
28017	5.6374	2.0909	0.1	4805.
28018	5.5456	2.1818	0.1	4878.4
28019	5.6374	1.9091	0.1	4766.
28020	5.5456	2.	0.1	4835.3
28021	5.6374	1.7273	0.1	4723.3
28022	5.5456	1.8182	0.1	4787.1
28023	5.6374	1.5455	0.1	4678.2
28024	5.5456	1.6364	0.1	4735.4
28025	5.6374	1.3636	0.1	4632.2
28026	5.5456	1.4545	0.1	4682.
28027	5.6374	1.1818	0.1	4586.8
28028	5.5456	1.2727	0.1	4628.6
28029	5.6374	1.	0.1	4543.5
28030	5.5456	1.0909	0.1	4576.7
28031	5.6374	0.81818	0.1	4503.5
28032	5.5456	0.90909	0.1	4528.2
28033	5.6374	0.63636	0.1	4468.2
28034	5.5456	0.72727	0.1	4484.5
28035	5.6374	0.45455	0.1	4438.7
28036	5.5456	0.54545	0.1	4447.
28037	5.6374	0.27273	0.1	4416.1
28038	5.5456	0.36364	0.1	4416.7
28039	5.5456	0.18182	0.1	4395.
28040	5.6374	9.0909e-002	0.1	4399.7
28041	5.4538	5.7273	0.1	4395.6
28042	5.362	5.8182	0.1	4361.2
28043	5.4538	5.9091	0.1	4374.3
28044	5.4538	5.5455	0.1	4425.
28045	5.362	5.6364	0.1	4389.2
28046	5.4538	5.3636	0.1	4463.3
28047	5.362	5.4545	0.1	4428.2
28048	5.4538	5.1818	0.1	4509.3
28049	5.362	5.2727	0.1	4476.7
28050	5.4538	5.	0.1	4561.6
28051	5.362	5.0909	0.1	4533.4
28052	5.4538	4.8182	0.1	4618.6
28053	5.362	4.9091	0.1	4596.8
28054	5.4538	4.6364	0.1	4678.5
28055	5.362	4.7273	0.1	4664.7
28056	5.4538	4.4545	0.1	4739.4
28057	5.362	4.5455	0.1	4735.1
28058	5.4538	4.2727	0.1	4799.3
28059	5.362	4.3636	0.1	4805.7
28060	5.4538	4.0909	0.1	4856.4
28061	5.362	4.1818	0.1	4874.2
28062	5.4538	3.9091	0.1	4908.7
28063	5.362	4.	0.1	4938.4
28064	5.4538	3.7273	0.1	4954.5
28065	5.362	3.8182	0.1	4996.2
28066	5.4538	3.5455	0.1	4992.2
28067	5.362	3.6364	0.1	5045.5
28068	5.4538	3.3636	0.1	5020.2
28069	5.362	3.4545	0.1	5084.4
28070	5.4538	3.1818	0.1	5037.6
28071	5.362	3.2727	0.1	5111.4
28072	5.4538	3.	0.1	5043.5
28073	5.362	3.0909	0.1	5125.2
28074	5.4538	2.8182	0.1	5037.6
28075	5.362	2.9091	0.1	5125.2
28076	5.4538	2.6364	0.1	5020.2
28077	5.362	2.7273	0.1	5111.4
28078	5.4538	2.4545	0.1	4992.2
28079	5.362	2.5455	0.1	5084.4
28080	5.4538	2.2727	0.1	4954.5
28081	5.362	2.3636	0.1	5045.5
28082	5.4538	2.0909	0.1	4908.7
28083	5.362	2.1818	0.1	4996.2
28084	5.4538	1.9091	0.1	4856.4
28085	5.362	2.	0.1	4938.4
28086	5.4538	1.7273	0.1	4799.3
28087	5.362	1.8182	0.1	4874.2
28088	5.4538	1.5455	0.1	4739.4
28089	5.362	1.6364	0.1	4805.7
28090	5.4538	1.3636	0.1	4678.5
28091	5.362	1.4545	0.1	4735.1
28092	5.4538	1.1818	0.1	4618.6
28093	5.362	1.2727	0.1	4664.7
28094	5.4538	1.	0.1	4561.6
28095	5.362	1.0909	0.1	4596.8
28096	5.4538	0.81818	0.1	4509.3
28097	5.362	0.90909	0.1	4533.4
28098	5.4538	0.63636	0.1	4463.3
28099	5.362	0.72727	0.1	4476.7
28100	5.4538	0.45455	0.1	4425.
28101	5.362	0.54545	0.1	4428.2
28102	5.4538	0.27273	0.1	4395.6
28103	5.362	0.36364	0.1	4389.2
28104	5.362	0.18182	0.1	4361.2
28105	5.4538	9.0909e-002	0.1	4374.3
28106	5.2702	5.7273	0.1	4354.9
28107	5.1784	5.8182	0.1	4304.2
28108	5.2702	5.9091	0.1	4327.5
28109	5.2702	5.5455	0.1	4392.5
28110	5.1784	5.6364	0.1	4339.7
28111	5.2702	5.3636	0.1	4441.7
28112	5.1784	5.4545	0.1	4389.2
28113	5.2702	5.1818	0.1	4501.
28114	5.1784	5.2727	0.1	4451.3
28115	5.2702	5.	0.1	4568.8
28116	5.1784	5.0909	0.1	4524.3
28117	5.2702	4.8182	0.1	4643.1
28118	5.1784	4.9091	0.1	4606.3
28119	5.2702	4.6364	0.1	4721.5
28120	5.1784	4.7273	0.1	4694.8
28121	5.2702	4.4545	0.1	4801.6
28122	5.1784	4.5455	0.1	4786.9
28123	5.2702	4.2727	0.1	4880.7
28124	5.1784	4.3636	0.1	4879.6
28125	5.2702	4.0909	0.1	4956.4
28126	5.1784	4.1818	0.1	4970.
28127	5.2702	3.9091	0.1	5026.
28128	5.1784	4.	0.1	5055.1
28129	5.2702	3.7273	0.1	5087.3
28130	5.1784	3.8182	0.1	5131.9
28131	5.2702	3.5455	0.1	5137.8
28132	5.1784	3.6364	0.1	5197.7
28133	5.2702	3.3636	0.1	5175.6
28134	5.1784	3.4545	0.1	5249.9
28135	5.2702	3.1818	0.1	5199.
28136	5.1784	3.2727	0.1	5286.1
28137	5.2702	3.	0.1	5206.9
28138	5.1784	3.0909	0.1	5304.7
28139	5.2702	2.8182	0.1	5199.
28140	5.1784	2.9091	0.1	5304.7
28141	5.2702	2.6364	0.1	5175.6
28142	5.1784	2.7273	0.1	5286.1
28143	5.2702	2.4545	0.1	5137.8
28144	5.1784	2.5455	0.1	5249.9
28145	5.2702	2.2727	0.1	5087.3
28146	5.1784	2.3636	0.1	5197.7
28147	5.2702	2.0909	0.1	5026.
28148	5.1784	2.1818	0.1	5131.9
28149	5.2702	1.9091	0.1	4956.4
28150	5.1784	2.	0.1	5055.1
28151	5.2702	1.7273	0.1	4880.8
28152	5.1784	1.8182	0.1	4970.
28153	5.2702	1.5455	0.1	4801.6
28154	5.1784	1.6364	0.1	4879.6
28155	5.2702	1.3636	0.1	4721.5
28156	5.1784	1.4545	0.1	4786.9
28157	5.2702	1.1818	0.1	4643.1
28158	5.1784	1.2727	0.1	4694.8
28159	5.2702	1.	0.1	4568.8
28160	5.1784	1.0909	0.1	4606.3
28161	5.2702	0.81818	0.1	4501.
28162	5.1784	0.90909	0.1	4524.3
28163	5.2702	0.63636	0.1	4441.7
28164	5.1784	0.72727	0.1	4451.3
28165	5.2702	0.45455	0.1	4392.5
28166	5.1784	0.54545	0.1	4389.2
28167	5.2702	0.27273	0.1	4354.9
28168	5.1784	0.36364	0.1	4339.7
28169	5.1784	0.18182	0.1	4304.2
28170	5.2702	9.0909e-002	0.1	4327.5
28171	5.0866	5.7273	0.1	4289.2
28172	4.9947	5.8182	0.1	4218.9
28173	5.0866	5.9091	0.1	4254.5
28174	5.0866	5.5455	0.1	4336.6
28175	4.9947	5.6364	0.1	4263.
28176	5.0866	5.3636	0.1	4399.1
28177	4.9947	5.4545	0.1	4325.2
28178	5.0866	5.1818	0.1	4474.9
28179	4.9947	5.2727	0.1	4403.9
28180	5.0866	5.	0.1	4562.1
28181	4.9947	5.0909	0.1	4497.1
28182	5.0866	4.8182	0.1	4658.3
28183	4.9947	4.9091	0.1	4602.6
28184	5.0866	4.6364	0.1	4760.4
28185	4.9947	4.7273	0.1	4717.1
28186	5.0866	4.4545	0.1	4865.2
28187	4.9947	4.5455	0.1	4837.
28188	5.0866	4.2727	0.1	4969.1
28189	4.9947	4.3636	0.1	4958.2
28190	5.0866	4.0909	0.1	5068.8
28191	4.9947	4.1818	0.1	5076.9
28192	5.0866	3.9091	0.1	5161.
28193	4.9947	4.	0.1	5189.
28194	5.0866	3.7273	0.1	5242.4
28195	4.9947	3.8182	0.1	5290.6
28196	5.0866	3.5455	0.1	5309.8
28197	4.9947	3.6364	0.1	5378.
28198	5.0866	3.3636	0.1	5360.4
28199	4.9947	3.4545	0.1	5447.6
28200	5.0866	3.1818	0.1	5391.8
28201	4.9947	3.2727	0.1	5496.
28202	5.0866	3.	0.1	5402.4
28203	4.9947	3.0909	0.1	5520.9
28204	5.0866	2.8182	0.1	5391.8
28205	4.9947	2.9091	0.1	5520.9
28206	5.0866	2.6364	0.1	5360.4
28207	4.9947	2.7273	0.1	5496.
28208	5.0866	2.4545	0.1	5309.8
28209	4.9947	2.5455	0.1	5447.6
28210	5.0866	2.2727	0.1	5242.4
28211	4.9947	2.3636	0.1	5378.
28212	5.0866	2.0909	0.1	5161.
28213	4.9947	2.1818	0.1	5290.6
28214	5.0866	1.9091	0.1	5068.8
28215	4.9947	2.	0.1	5189.
28216	5.0866	1.7273	0.1	4969.1
28217	4.9947	1.8182	0.1	5076.9
28218	5.0866	1.5455	0.1	4865.2
28219	4.9947	1.6364	0.1	4958.2
28220	5.0866	1.3636	0.1	4760.4
28221	4.9947	1.4545	0.1	4837.
28222	5.0866	1.1818	0.1	4658.3
28223	4.9947	1.2727	0.1	4717.1
28224	5.0866	1.	0.1	4562.1
28225	4.9947	1.0909	0.1	4602.6
28226	5.0866	0.81818	0.1	4474.9
28227	4.9947	0.90909	0.1	4497.1
28228	5.0866	0.63636	0.1	4399.1
28229	4.9947	0.72727	0.1	4403.9
28230	5.0866	0.45455	0.1	4336.6
28231	4.9947	0.54545	0.1	4325.2
28232	5.0866	0.27273	0.1	4289.2
28233	4.9947	0.36364	0.1	4263.
28234	4.9947	0.18182	0.1	4218.9
28235	5.0866	9.0909e-002	0.1	4254.5
28236	4.9029	5.7273	0.1	4193.
28237	4.8111	5.8182	0.1	4099.1
28238	4.9029	5.9091	0.1	4149.6
28239	4.9029	5.5455	0.1	4252.
28240	4.8111	5.6364	0.1	4153.2
28241	4.9029	5.3636	0.1	4330.4
28242	4.8111	5.4545	0.1	4230.4
28243	4.9029	5.1818	0.1	4426.6
28244	4.8111	5.2727	0.1	4329.1
28245	4.9029	5.	0.1	4538.1
28246	4.8111	5.0909	0.1	4447.4
28247	4.9029	4.8182	0.1	4662.
28248	4.8111	4.9091	0.1	4582.3
28249	4.9029	4.6364	0.1	4794.2
28250	4.8111	4.7273	0.1	4729.8
28251	4.9029	4.4545	0.1	4930.6
28252	4.8111	4.5455	0.1	4885.2
28253	4.9029	4.2727	0.1	5066.4
28254	4.8111	4.3636	0.1	5043.1
28255	4.9029	4.0909	0.1	5197.3
28256	4.8111	4.1818	0.1	5198.3
28257	4.9029	3.9091	0.1	5318.8
28258	4.8111	4.	0.1	5345.5
28259	4.9029	3.7273	0.1	5426.4
28260	4.8111	3.8182	0.1	5479.4
28261	4.9029	3.5455	0.1	5515.9
28262	4.8111	3.6364	0.1	5595.
28263	4.9029	3.3636	0.1	5583.2
28264	4.8111	3.4545	0.1	5687.2
28265	4.9029	3.1818	0.1	5625.1
28266	4.8111	3.2727	0.1	5751.5
28267	4.9029	3.	0.1	5639.3
28268	4.8111	3.0909	0.1	5784.6
28269	4.9029	2.8182	0.1	5625.1
28270	4.8111	2.9091	0.1	5784.6
28271	4.9029	2.6364	0.1	5583.2
28272	4.8111	2.7273	0.1	5751.5
28273	4.9029	2.4545	0.1	5515.9
28274	4.8111	2.5455	0.1	5687.2
28275	4.9029	2.2727	0.1	5426.4
28276	4.8111	2.3636	0.1	5595.
28277	4.9029	2.0909	0.1	5318.8
28278	4.8111	2.1818	0.1	5479.4
28279	4.9029	1.9091	0.1	5197.3
28280	4.8111	2.	0.1	5345.5
28281	4.9029	1.7273	0.1	5066.4
28282	4.8111	1.8182	0.1	5198.3
28283	4.9029	1.5455	0.1	4930.6
28284	4.8111	1.6364	0.1	5043.1
28285	4.9029	1.3636	0.1	4794.2
28286	4.8111	1.4545	0.1	4885.2
28287	4.9029	1.1818	0.1	4662.
28288	4.8111	1.2727	0.1	4729.8
28289	4.9029	1.	0.1	4538.1
28290	4.8111	1.0909	0.1	4582.3
28291	4.9029	0.81818	0.1	4426.6
28292	4.8111	0.90909	0.1	4447.4
28293	4.9029	0.63636	0.1	4330.4
28294	4.8111	0.72727	0.1	4329.1
28295	4.9029	0.45455	0.1	4252.
28296	4.8111	0.54545	0.1	4230.4
28297	4.9029	0.27273	0.1	4193.
28298	4.8111	0.36364	0.1	4153.2
28299	4.8111	0.18182	0.1	4099.1
28300	4.9029	9.0909e-002	0.1	4149.6
28301	4.7193	5.7273	0.1	4059.8
28302	4.6275	5.8182	0.1	3938.3
28303	4.7193	5.9091	0.1	4006.2
28304	4.7193	5.5455	0.1	4132.2
28305	4.6275	5.6364	0.1	4003.4
28306	4.7193	5.3636	0.1	4229.8
28307	4.6275	5.4545	0.1	4098.2
28308	4.7193	5.1818	0.1	4350.8
28309	4.6275	5.2727	0.1	4221.
28310	4.7193	5.	0.1	4492.5
28311	4.6275	5.0909	0.1	4369.8
28312	4.7193	4.8182	0.1	4651.1
28313	4.6275	4.9091	0.1	4541.3
28314	4.7193	4.6364	0.1	4821.7
28315	4.6275	4.7273	0.1	4730.6
28316	4.7193	4.4545	0.1	4998.6
28317	4.6275	4.5455	0.1	4931.4
28318	4.7193	4.2727	0.1	5175.7
28319	4.6275	4.3636	0.1	5136.7
28320	4.7193	4.0909	0.1	5347.
28321	4.6275	4.1818	0.1	5339.2
28322	4.7193	3.9091	0.1	5506.5
28323	4.6275	4.	0.1	5532.
28324	4.7193	3.7273	0.1	5648.2
28325	4.6275	3.8182	0.1	5707.9
28326	4.7193	3.5455	0.1	5766.3
28327	4.6275	3.6364	0.1	5859.9
28328	4.7193	3.3636	0.1	5855.3
28329	4.6275	3.4545	0.1	5981.3
28330	4.7193	3.1818	0.1	5910.8
28331	4.6275	3.2727	0.1	6065.9
28332	4.7193	3.	0.1	5929.6
28333	4.6275	3.0909	0.1	6109.4
28334	4.7193	2.8182	0.1	5910.8
28335	4.6275	2.9091	0.1	6109.4
28336	4.7193	2.6364	0.1	5855.3
28337	4.6275	2.7273	0.1	6065.9
28338	4.7193	2.4545	0.1	5766.3
28339	4.6275	2.5455	0.1	5981.3
28340	4.7193	2.2727	0.1	5648.2
28341	4.6275	2.3636	0.1	5859.9
28342	4.7193	2.0909	0.1	5506.5
28343	4.6275	2.1818	0.1	5707.9
28344	4.7193	1.9091	0.1	5347.
28345	4.6275	2.	0.1	5532.
28346	4.7193	1.7273	0.1	5175.8
28347	4.6275	1.8182	0.1	5339.2
28348	4.7193	1.5455	0.1	4998.6
28349	4.6275	1.6364	0.1	5136.7
28350	4.7193	1.3636	0.1	4821.7
28351	4.6275	1.4545	0.1	4931.4
28352	4.7193	1.1818	0.1	4651.1
28353	4.6275	1.2727	0.1	4730.6
28354	4.7193	1.	0.1	4492.5
28355	4.6275	1.0909	0.1	4541.3
28356	4.7193	0.81818	0.1	4350.8
28357	4.6275	0.90909	0.1	4369.8
28358	4.7193	0.63636	0.1	4229.8
28359	4.6275	0.72727	0.1	4221.
28360	4.7193	0.45455	0.1	4132.2
28361	4.6275	0.54545	0.1	4098.2
28362	4.7193	0.27273	0.1	4059.8
28363	4.6275	0.36364	0.1	4003.4
28364	4.6275	0.18182	0.1	3938.3
28365	4.7193	9.0909e-002	0.1	4006.2
28366	4.5357	5.7273	0.1	3882.5
28367	4.4439	5.8182	0.1	3729.3
28368	4.5357	5.9091	0.1	3817.1
28369	4.5357	5.5455	0.1	3970.2
28370	4.4439	5.6364	0.1	3806.3
28371	4.5357	5.3636	0.1	4090.5
28372	4.4439	5.4545	0.1	3921.2
28373	4.5357	5.1818	0.1	4241.4
28374	4.4439	5.2727	0.1	4072.5
28375	4.5357	5.	0.1	4420.3
28376	4.4439	5.0909	0.1	4258.3
28377	4.5357	4.8182	0.1	4622.6
28378	4.4439	4.9091	0.1	4475.
28379	4.5357	4.6364	0.1	4841.9
28380	4.4439	4.7273	0.1	4716.8
28381	4.5357	4.4545	0.1	5071.
28382	4.4439	4.5455	0.1	4975.8
28383	4.5357	4.2727	0.1	5301.5
28384	4.4439	4.3636	0.1	5242.5
28385	4.5357	4.0909	0.1	5525.2
28386	4.4439	4.1818	0.1	5507.
28387	4.5357	3.9091	0.1	5734.1
28388	4.4439	4.	0.1	5759.3
28389	4.5357	3.7273	0.1	5920.
28390	4.4439	3.8182	0.1	5989.8
28391	4.5357	3.5455	0.1	6075.
28392	4.4439	3.6364	0.1	6188.8
28393	4.5357	3.3636	0.1	6191.6
28394	4.4439	3.4545	0.1	6347.
28395	4.5357	3.1818	0.1	6264.1
28396	4.4439	3.2727	0.1	6456.7
28397	4.5357	3.	0.1	6288.6
28398	4.4439	3.0909	0.1	6512.7
28399	4.5357	2.8182	0.1	6264.1
28400	4.4439	2.9091	0.1	6512.7
28401	4.5357	2.6364	0.1	6191.6
28402	4.4439	2.7273	0.1	6456.7
28403	4.5357	2.4545	0.1	6075.
28404	4.4439	2.5455	0.1	6347.
28405	4.5357	2.2727	0.1	5920.
28406	4.4439	2.3636	0.1	6188.8
28407	4.5357	2.0909	0.1	5734.1
28408	4.4439	2.1818	0.1	5989.8
28409	4.5357	1.9091	0.1	5525.2
28410	4.4439	2.	0.1	5759.3
28411	4.5357	1.7273	0.1	5301.5
28412	4.4439	1.8182	0.1	5507.
28413	4.5357	1.5455	0.1	5071.
28414	4.4439	1.6364	0.1	5242.5
28415	4.5357	1.3636	0.1	4841.9
28416	4.4439	1.4545	0.1	4975.8
28417	4.5357	1.1818	0.1	4622.6
28418	4.4439	1.2727	0.1	4716.8
28419	4.5357	1.	0.1	4420.3
28420	4.4439	1.0909	0.1	4475.
28421	4.5357	0.81818	0.1	4241.4
28422	4.4439	0.90909	0.1	4258.3
28423	4.5357	0.63636	0.1	4090.5
28424	4.4439	0.72727	0.1	4072.5
28425	4.5357	0.45455	0.1	3970.2
28426	4.4439	0.54545	0.1	3921.2
28427	4.5357	0.27273	0.1	3882.5
28428	4.4439	0.36364	0.1	3806.3
28429	4.4439	0.18182	0.1	3729.3
28430	4.5357	9.0909e-002	0.1	3817.1
28431	4.352	5.7273	0.1	3653.9
28432	4.2602	5.8182	0.1	3465.1
28433	4.352	5.9091	0.1	3575.
28434	4.352	5.5455	0.1	3758.5
28435	4.2602	5.6364	0.1	3554.4
28436	4.352	5.3636	0.1	3905.1
28437	4.2602	5.4545	0.1	3692.2
28438	4.352	5.1818	0.1	4091.9
28439	4.2602	5.2727	0.1	3876.6
28440	4.352	5.	0.1	4316.
28441	4.2602	5.0909	0.1	4106.5
28442	4.352	4.8182	0.1	4572.6
28443	4.2602	4.9091	0.1	4378.3
28444	4.352	4.6364	0.1	4853.8
28445	4.2602	4.7273	0.1	4685.8
28446	4.352	4.4545	0.1	5150.1
28447	4.2602	4.5455	0.1	5019.3
28448	4.352	4.2727	0.1	5450.3
28449	4.2602	4.3636	0.1	5366.4
28450	4.352	4.0909	0.1	5742.8
28451	4.2602	4.1818	0.1	5712.8
28452	4.352	3.9091	0.1	6016.3
28453	4.2602	4.	0.1	6044.1
28454	4.352	3.7273	0.1	6259.2
28455	4.2602	3.8182	0.1	6345.9
28456	4.352	3.5455	0.1	6460.8
28457	4.2602	3.6364	0.1	6604.4
28458	4.352	3.3636	0.1	6611.4
28459	4.2602	3.4545	0.1	6807.2
28460	4.352	3.1818	0.1	6704.3
28461	4.2602	3.2727	0.1	6945.6
28462	4.352	3.	0.1	6735.6
28463	4.2602	3.0909	0.1	7015.4
28464	4.352	2.8182	0.1	6704.3
28465	4.2602	2.9091	0.1	7015.4
28466	4.352	2.6364	0.1	6611.4
28467	4.2602	2.7273	0.1	6945.6
28468	4.352	2.4545	0.1	6460.8
28469	4.2602	2.5455	0.1	6807.2
28470	4.352	2.2727	0.1	6259.2
28471	4.2602	2.3636	0.1	6604.5
28472	4.352	2.0909	0.1	6016.3
28473	4.2602	2.1818	0.1	6345.9
28474	4.352	1.9091	0.1	5742.8
28475	4.2602	2.	0.1	6044.1
28476	4.352	1.7273	0.1	5450.3
28477	4.2602	1.8182	0.1	5712.8
28478	4.352	1.5455	0.1	5150.1
28479	4.2602	1.6364	0.1	5366.4
28480	4.352	1.3636	0.1	4853.8
28481	4.2602	1.4545	0.1	5019.3
28482	4.352	1.1818	0.1	4572.6
28483	4.2602	1.2727	0.1	4685.8
28484	4.352	1.	0.1	4316.
28485	4.2602	1.0909	0.1	4378.3
28486	4.352	0.81818	0.1	4091.9
28487	4.2602	0.90909	0.1	4106.5
28488	4.352	0.63636	0.1	3905.1
28489	4.2602	0.72727	0.1	3876.6
28490	4.352	0.45455	0.1	3758.5
28491	4.2602	0.54545	0.1	3692.2
28492	4.352	0.27273	0.1	3653.9
28493	4.2602	0.36364	0.1	3554.4
28494	4.2602	0.18182	0.1	3465.1
28495	4.352	9.0909e-002	0.1	3575.
28496	4.1684	5.7273	0.1	3366.8
28497	4.0766	5.8182	0.1	3139.2
28498	4.1684	5.9091	0.1	3272.7
28499	4.1684	5.5455	0.1	3490.
28500	4.0766	5.6364	0.1	3241.5
28501	4.1684	5.3636	0.1	3666.8
28502	4.0766	5.4545	0.1	3405.
28503	4.1684	5.1818	0.1	3895.6
28504	4.0766	5.2727	0.1	3627.5
28505	4.1684	5.	0.1	4174.
28506	4.0766	5.0909	0.1	3908.6
28507	4.1684	4.8182	0.1	4497.2
28508	4.0766	4.9091	0.1	4245.9
28509	4.1684	4.6364	0.1	4856.7
28510	4.0766	4.7273	0.1	4634.
28511	4.1684	4.4545	0.1	5240.3
28512	4.0766	4.5455	0.1	5063.1
28513	4.1684	4.2727	0.1	5632.7
28514	4.0766	4.3636	0.1	5516.8
28515	4.1684	4.0909	0.1	6016.8
28516	4.0766	4.1818	0.1	5974.5
28517	4.1684	3.9091	0.1	6375.5
28518	4.0766	4.	0.1	6412.9
28519	4.1684	3.7273	0.1	6691.9
28520	4.0766	3.8182	0.1	6809.2
28521	4.1684	3.5455	0.1	6950.6
28522	4.0766	3.6364	0.1	7141.6
28523	4.1684	3.3636	0.1	7140.1
28524	4.0766	3.4545	0.1	7393.6
28525	4.1684	3.1818	0.1	7254.7
28526	4.0766	3.2727	0.1	7559.2
28527	4.1684	3.	0.1	7292.9
28528	4.0766	3.0909	0.1	7640.2
28529	4.1684	2.8182	0.1	7254.7
28530	4.0766	2.9091	0.1	7640.2
28531	4.1684	2.6364	0.1	7140.1
28532	4.0766	2.7273	0.1	7559.2
28533	4.1684	2.4545	0.1	6950.6
28534	4.0766	2.5455	0.1	7393.6
28535	4.1684	2.2727	0.1	6691.9
28536	4.0766	2.3636	0.1	7141.6
28537	4.1684	2.0909	0.1	6375.5
28538	4.0766	2.1818	0.1	6809.2
28539	4.1684	1.9091	0.1	6016.8
28540	4.0766	2.	0.1	6412.9
28541	4.1684	1.7273	0.1	5632.7
28542	4.0766	1.8182	0.1	5974.5
28543	4.1684	1.5455	0.1	5240.3
28544	4.0766	1.6364	0.1	5516.8
28545	4.1684	1.3636	0.1	4856.7
28546	4.0766	1.4545	0.1	5063.1
28547	4.1684	1.1818	0.1	4497.2
28548	4.0766	1.2727	0.1	4634.
28549	4.1684	1.	0.1	4174.
28550	4.0766	1.0909	0.1	4245.9
28551	4.1684	0.81818	0.1	3895.6
28552	4.0766	0.90909	0.1	3908.6
28553	4.1684	0.63636	0.1	3666.8
28554	4.0766	0.72727	0.1	3627.5
28555	4.1684	0.45455	0.1	3490.
28556	4.0766	0.54545	0.1	3405.
28557	4.1684	0.27273	0.1	3366.8
28558	4.0766	0.36364	0.1	3241.5
28559	4.0766	0.18182	0.1	3139.2
28560	4.1684	9.0909e-002	0.1	3272.7
28561	3.9848	5.7273	0.1	3015.6
28562	3.893	5.8182	0.1	2747.4
28563	3.9848	5.9091	0.1	2904.7
28564	3.9848	5.5455	0.1	3159.4
28565	3.893	5.6364	0.1	2864.
28566	3.9848	5.3636	0.1	3370.9
28567	3.893	5.4545	0.1	3057.5
28568	3.9848	5.1818	0.1	3648.1
28569	3.893	5.2727	0.1	3323.6
28570	3.9848	5.	0.1	3989.7
28571	3.893	5.0909	0.1	3662.2
28572	3.9848	4.8182	0.1	4392.6
28573	3.893	4.9091	0.1	4073.5
28574	3.9848	4.6364	0.1	4849.7
28575	3.893	4.7273	0.1	4556.9
28576	3.9848	4.4545	0.1	5347.4
28577	3.893	4.5455	0.1	5106.5
28578	3.9848	4.2727	0.1	5864.5
28579	3.893	4.3636	0.1	5705.4
28580	3.9848	4.0909	0.1	6374.6
28581	3.893	4.1818	0.1	6320.9
28582	3.9848	3.9091	0.1	6849.
28583	3.893	4.	0.1	6912.4
28584	3.9848	3.7273	0.1	7259.5
28585	3.893	3.8182	0.1	7436.8
28586	3.9848	3.5455	0.1	7583.5
28587	3.893	3.6364	0.1	7855.5
28588	3.9848	3.3636	0.1	7810.
28589	3.893	3.4545	0.1	8149.2
28590	3.9848	3.1818	0.1	7941.1
28591	3.893	3.2727	0.1	8325.6
28592	3.9848	3.	0.1	7983.5
28593	3.893	3.0909	0.1	8406.1
28594	3.9848	2.8182	0.1	7941.1
28595	3.893	2.9091	0.1	8406.1
28596	3.9848	2.6364	0.1	7810.
28597	3.893	2.7273	0.1	8325.6
28598	3.9848	2.4545	0.1	7583.5
28599	3.893	2.5455	0.1	8149.2
28600	3.9848	2.2727	0.1	7259.5
28601	3.893	2.3636	0.1	7855.5
28602	3.9848	2.0909	0.1	6849.
28603	3.893	2.1818	0.1	7436.8
28604	3.9848	1.9091	0.1	6374.6
28605	3.893	2.	0.1	6912.4
28606	3.9848	1.7273	0.1	5864.5
28607	3.893	1.8182	0.1	6320.9
28608	3.9848	1.5455	0.1	5347.4
28609	3.893	1.6364	0.1	5705.4
28610	3.9848	1.3636	0.1	4849.7
28611	3.893	1.4545	0.1	5106.5
28612	3.9848	1.1818	0.1	4392.6
28613	3.893	1.2727	0.1	4556.9
28614	3.9848	1.	0.1	3989.7
28615	3.893	1.0909	0.1	4073.5
28616	3.9848	0.81818	0.1	3648.1
28617	3.893	0.90909	0.1	3662.2
28618	3.9848	0.63636	0.1	3370.9
28619	3.893	0.72727	0.1	3323.6
28620	3.9848	0.45455	0.1	3159.4
28621	3.893	0.54545	0.1	3057.5
28622	3.9848	0.27273	0.1	3015.6
28623	3.893	0.36364	0.1	2864.
28624	3.893	0.18182	0.1	2747.4
28625	3.9848	9.0909e-002	0.1	2904.7
28626	3.8012	5.7273	0.1	2598.1
28627	3.7094	5.8182	0.1	2288.8
28628	3.8012	5.9091	0.1	2467.6
28629	3.8012	5.5455	0.1	2766.8
28630	3.7094	5.6364	0.1	2425.1
28631	3.8012	5.3636	0.1	3019.1
28632	3.7094	5.4545	0.1	2656.9
28633	3.8012	5.1818	0.1	3350.5
28634	3.7094	5.2727	0.1	2973.2
28635	3.8012	5.	0.1	3761.7
28636	3.7094	5.0909	0.1	3372.5
28637	3.8012	4.8182	0.1	4254.8
28638	3.7094	4.9091	0.1	3860.3
28639	3.8012	4.6364	0.1	4829.8
28640	3.7094	4.7273	0.1	4447.1
28641	3.8012	4.4545	0.1	5477.6
28642	3.7094	4.5455	0.1	5144.4
28643	3.8012	4.2727	0.1	6170.8
28644	3.7094	4.3636	0.1	5943.2
28645	3.8012	4.0909	0.1	6864.2
28646	3.7094	4.1818	0.1	6802.2
28647	3.8012	3.9091	0.1	7502.6
28648	3.7094	4.	0.1	7637.4
28649	3.8012	3.7273	0.1	8032.2
28650	3.7094	3.8182	0.1	8338.8
28651	3.8012	3.5455	0.1	8417.9
28652	3.7094	3.6364	0.1	8841.1
28653	3.8012	3.3636	0.1	8659.5
28654	3.7094	3.4545	0.1	9128.
28655	3.8012	3.1818	0.1	8784.5
28656	3.7094	3.2727	0.1	9263.4
28657	3.8012	3.	0.1	8822.3
28658	3.7094	3.0909	0.1	9313.6
28659	3.8012	2.8182	0.1	8784.5
28660	3.7094	2.9091	0.1	9313.6
28661	3.8012	2.6364	0.1	8659.5
28662	3.7094	2.7273	0.1	9263.4
28663	3.8012	2.4545	0.1	8417.9
28664	3.7094	2.5455	0.1	9128.
28665	3.8012	2.2727	0.1	8032.2
28666	3.7094	2.3636	0.1	8841.1
28667	3.8012	2.0909	0.1	7502.6
28668	3.7094	2.1818	0.1	8338.8
28669	3.8012	1.9091	0.1	6864.2
28670	3.7094	2.	0.1	7637.4
28671	3.8012	1.7273	0.1	6170.8
28672	3.7094	1.8182	0.1	6802.2
28673	3.8012	1.5455	0.1	5477.6
28674	3.7094	1.6364	0.1	5943.2
28675	3.8012	1.3636	0.1	4829.8
28676	3.7094	1.4545	0.1	5144.4
28677	3.8012	1.1818	0.1	4254.8
28678	3.7094	1.2727	0.1	4447.1
28679	3.8012	1.	0.1	3761.7
28680	3.7094	1.0909	0.1	3860.3
28681	3.8012	0.81818	0.1	3350.5
28682	3.7094	0.90909	0.1	3372.5
28683	3.8012	0.63636	0.1	3019.1
28684	3.7094	0.72727	0.1	2973.2
28685	3.8012	0.45455	0.1	2766.8
28686	3.7094	0.54545	0.1	2656.9
28687	3.8012	0.27273	0.1	2598.1
28688	3.7094	0.36364	0.1	2425.1
28689	3.7094	0.18182	0.1	2288.8
28690	3.8012	9.0909e-002	0.1	2467.6
28691	3.6175	5.7273	0.1	2119.2
28692	3.5257	5.8182	0.1	1767.7
28693	3.6175	5.9091	0.1	1962.2
28694	3.6175	5.5455	0.1	2324.1
28695	3.5257	5.6364	0.1	1942.5
28696	3.6175	5.3636	0.1	2627.1
28697	3.5257	5.4545	0.1	2231.
28698	3.6175	5.1818	0.1	3016.9
28699	3.5257	5.2727	0.1	2604.7
28700	3.6175	5.	0.1	3496.9
28701	3.5257	5.0909	0.1	3061.
28702	3.6175	4.8182	0.1	4080.7
28703	3.5257	4.9091	0.1	3614.3
28704	3.6175	4.6364	0.1	4789.1
28705	3.5257	4.7273	0.1	4294.8
28706	3.6175	4.4545	0.1	5632.3
28707	3.5257	4.5455	0.1	5146.5
28708	3.6175	4.2727	0.1	6588.
28709	3.5257	4.3636	0.1	6225.5
28710	3.6175	4.0909	0.1	7581.7
28711	3.5257	4.1818	0.1	7517.3
28712	3.6175	3.9091	0.1	8474.1
28713	3.5257	4.	0.1	8776.3
28714	3.6175	3.7273	0.1	9142.8
28715	3.5257	3.8182	0.1	9780.7
28716	3.6175	3.5455	0.1	9542.4
28717	3.5257	3.6364	0.1	10259
28718	3.6175	3.3636	0.1	9722.3
28719	3.5257	3.4545	0.1	10374
28720	3.6175	3.1818	0.1	9783.3
28721	3.5257	3.2727	0.1	10351
28722	3.6175	3.	0.1	9796.
28723	3.5257	3.0909	0.1	10317
28724	3.6175	2.8182	0.1	9783.3
28725	3.5257	2.9091	0.1	10317
28726	3.6175	2.6364	0.1	9722.3
28727	3.5257	2.7273	0.1	10351
28728	3.6175	2.4545	0.1	9542.4
28729	3.5257	2.5455	0.1	10374
28730	3.6175	2.2727	0.1	9142.8
28731	3.5257	2.3636	0.1	10259
28732	3.6175	2.0909	0.1	8474.1
28733	3.5257	2.1818	0.1	9780.7
28734	3.6175	1.9091	0.1	7581.7
28735	3.5257	2.	0.1	8776.3
28736	3.6175	1.7273	0.1	6588.
28737	3.5257	1.8182	0.1	7517.3
28738	3.6175	1.5455	0.1	5632.3
28739	3.5257	1.6364	0.1	6225.5
28740	3.6175	1.3636	0.1	4789.1
28741	3.5257	1.4545	0.1	5146.5
28742	3.6175	1.1818	0.1	4080.7
28743	3.5257	1.2727	0.1	4294.8
28744	3.6175	1.	0.1	3496.9
28745	3.5257	1.0909	0.1	3614.3
28746	3.6175	0.81818	0.1	3016.9
28747	3.5257	0.90909	0.1	3061.
28748	3.6175	0.63636	0.1	2627.1
28749	3.5257	0.72727	0.1	2604.7
28750	3.6175	0.45455	0.1	2324.1
28751	3.5257	0.54545	0.1	2231.
28752	3.6175	0.27273	0.1	2119.2
28753	3.5257	0.36364	0.1	1942.5
28754	3.5257	0.18182	0.1	1767.7
28755	3.6175	9.0909e-002	0.1	1962.2
28756	3.4339	5.7273	0.1	1598.6
28757	3.3421	5.8182	0.1	1211.6
28758	3.4339	5.9091	0.1	1393.3
28759	3.4339	5.5455	0.1	1869.3
28760	3.3421	5.6364	0.1	1491.4
28761	3.4339	5.3636	0.1	2237.8
28762	3.3421	5.4545	0.1	1871.1
28763	3.4339	5.1818	0.1	2683.6
28764	3.3421	5.2727	0.1	2309.8
28765	3.4339	5.	0.1	3217.7
28766	3.3421	5.0909	0.1	2816.5
28767	3.4339	4.8182	0.1	3872.3
28768	3.3421	4.9091	0.1	3419.
28769	3.4339	4.6364	0.1	4699.6
28770	3.3421	4.7273	0.1	4166.2
28771	3.4339	4.4545	0.1	5780.9
28772	3.3421	4.5455	0.1	5152.9
28773	3.4339	4.2727	0.1	7182.
28774	3.3421	4.3636	0.1	6513.8
28775	3.4339	4.0909	0.1	8711.7
28776	3.3421	4.1818	0.1	8846.
28777	3.4339	3.9091	0.1	10073
28778	3.3421	4.	0.1	11617
28779	3.4339	3.7273	0.1	10877
28780	3.3421	3.8182	0.1	12437
28781	3.4339	3.5455	0.1	11072
28782	3.3421	3.6364	0.1	12289
28783	3.4339	3.3636	0.1	10989
28784	3.3421	3.4545	0.1	11811
28785	3.4339	3.1818	0.1	10874
28786	3.3421	3.2727	0.1	11469
28787	3.4339	3.	0.1	10828
28788	3.3421	3.0909	0.1	11292
28789	3.4339	2.8182	0.1	10874
28790	3.3421	2.9091	0.1	11292
28791	3.4339	2.6364	0.1	10989
28792	3.3421	2.7273	0.1	11469
28793	3.4339	2.4545	0.1	11072
28794	3.3421	2.5455	0.1	11811
28795	3.4339	2.2727	0.1	10877
28796	3.3421	2.3636	0.1	12289
28797	3.4339	2.0909	0.1	10073
28798	3.3421	2.1818	0.1	12437
28799	3.4339	1.9091	0.1	8711.7
28800	3.3421	2.	0.1	11617
28801	3.4339	1.7273	0.1	7182.
28802	3.3421	1.8182	0.1	8846.
28803	3.4339	1.5455	0.1	5780.9
28804	3.3421	1.6364	0.1	6513.8
28805	3.4339	1.3636	0.1	4699.6
28806	3.3421	1.4545	0.1	5152.9
28807	3.4339	1.1818	0.1	3872.3
28808	3.3421	1.2727	0.1	4166.2
28809	3.4339	1.	0.1	3217.7
28810	3.3421	1.0909	0.1	3419.
28811	3.4339	0.81818	0.1	2683.6
28812	3.3421	0.90909	0.1	2816.5
28813	3.4339	0.63636	0.1	2237.8
28814	3.3421	0.72727	0.1	2309.8
28815	3.4339	0.45455	0.1	1869.3
28816	3.3421	0.54545	0.1	1871.1
28817	3.4339	0.27273	0.1	1598.6
28818	3.3421	0.36364	0.1	1491.4
28819	3.3421	0.18182	0.1	1211.6
28820	3.4339	9.0909e-002	0.1	1393.3
28821	3.2503	5.7273	0.1	1136.5
28822	3.1585	5.8182	0.1	680.4
28823	3.2503	5.9091	0.1	785.65
28824	3.2503	5.5455	0.1	1540.3
28825	3.1585	5.6364	0.1	1047.1
28826	3.2503	5.3636	0.1	1991.8
28827	3.1585	5.4545	0.1	1419.
28828	3.2503	5.1818	0.1	2492.8
28829	3.1585	5.2727	0.1	1807.2
28830	3.2503	5.	0.1	3072.3
28831	3.1585	5.0909	0.1	2235.
28832	3.2503	4.8182	0.1	3777.4
28833	3.1585	4.9091	0.1	2733.2
28834	3.2503	4.6364	0.1	4700.7
28835	3.1585	4.7273	0.1	3347.8
28836	3.2503	4.4545	0.1	6005.
28837	3.1585	4.5455	0.1	4176.1
28838	3.2503	4.2727	0.1	8275.9
28839	3.1585	4.3636	0.1	5361.4
28840	3.2503	4.0909	0.1	11718
28841	3.1585	4.1818	0.1	7523.2
28842	3.2503	3.9091	0.1	13880
28843	3.1585	4.	0.1	20601
28844	3.2503	3.7273	0.1	13798
28845	3.1585	3.8182	0.1	16655
28846	3.2503	3.5455	0.1	13009
28847	3.1585	3.6364	0.1	14418
28848	3.2503	3.3636	0.1	12282
28849	3.1585	3.4545	0.1	13081
28850	3.2503	3.1818	0.1	11879
28851	3.1585	3.2727	0.1	12360
28852	3.2503	3.	0.1	11749
28853	3.1585	3.0909	0.1	12036
28854	3.2503	2.8182	0.1	11879
28855	3.1585	2.9091	0.1	12036
28856	3.2503	2.6364	0.1	12282
28857	3.1585	2.7273	0.1	12360
28858	3.2503	2.4545	0.1	13009
28859	3.1585	2.5455	0.1	13081
28860	3.2503	2.2727	0.1	13798
28861	3.1585	2.3636	0.1	14418
28862	3.2503	2.0909	0.1	13880
28863	3.1585	2.1818	0.1	16655
28864	3.2503	1.9091	0.1	11718
28865	3.1585	2.	0.1	20601
28866	3.2503	1.7273	0.1	8275.9
28867	3.1585	1.8182	0.1	7523.2
28868	3.2503	1.5455	0.1	6005.
28869	3.1585	1.6364	0.1	5361.4
28870	3.2503	1.3636	0.1	4700.7
28871	3.1585	1.4545	0.1	4176.1
28872	3.2503	1.1818	0.1	3777.4
28873	3.1585	1.2727	0.1	3347.8
28874	3.2503	1.	0.1	3072.3
28875	3.1585	1.0909	0.1	2733.2
28876	3.2503	0.81818	0.1	2492.8
28877	3.1585	0.90909	0.1	2235.
28878	3.2503	0.63636	0.1	1991.8
28879	3.1585	0.72727	0.1	1807.2
28880	3.2503	0.45455	0.1	1540.3
28881	3.1585	0.54545	0.1	1419.
28882	3.2503	0.27273	0.1	1136.5
28883	3.1585	0.36364	0.1	1047.1
28884	3.1585	0.18182	0.1	680.4
28885	3.2503	9.0909e-002	0.1	785.65
28886	0.18125	0.27273	0.1	4127.4
28887	0.27187	0.18182	0.1	4349.1
28888	9.0625e-002	0.18182	0.1	3205.9
28889	0.18125	9.0909e-002	0.1	3629.5
28890	0.18125	0.45455	0.1	4794.3
28891	0.27187	0.36364	0.1	4729.
28892	9.0625e-002	0.36364	0.1	4552.2
28893	0.18125	0.63636	0.1	5417.6
28894	0.27187	0.54545	0.1	5233.6
28895	9.0625e-002	0.54545	0.1	5427.4
28896	0.18125	0.81818	0.1	5892.5
28897	0.27187	0.72727	0.1	5678.8
28898	9.0625e-002	0.72727	0.1	6021.7
28899	0.18125	1.	0.1	6253.6
28900	0.27187	0.90909	0.1	6048.
28901	9.0625e-002	0.90909	0.1	6443.8
28902	0.18125	1.1818	0.1	6530.6
28903	0.27187	1.0909	0.1	6347.2
28904	9.0625e-002	1.0909	0.1	6754.6
28905	0.18125	1.3636	0.1	6745.8
28906	0.27187	1.2727	0.1	6589.3
28907	9.0625e-002	1.2727	0.1	6988.1
28908	0.18125	1.5455	0.1	6914.2
28909	0.27187	1.4545	0.1	6785.4
28910	9.0625e-002	1.4545	0.1	7165.6
28911	0.18125	1.7273	0.1	7046.2
28912	0.27187	1.6364	0.1	6944.2
28913	9.0625e-002	1.6364	0.1	7300.9
28914	0.18125	1.9091	0.1	7149.4
28915	0.27187	1.8182	0.1	7072.5
28916	9.0625e-002	1.8182	0.1	7403.7
28917	0.18125	2.0909	0.1	7229.3
28918	0.27187	2.	0.1	7175.2
28919	9.0625e-002	2.	0.1	7481.3
28920	0.18125	2.2727	0.1	7290.1
28921	0.27187	2.1818	0.1	7256.2
28922	9.0625e-002	2.1818	0.1	7539.1
28923	0.18125	2.4545	0.1	7334.6
28924	0.27187	2.3636	0.1	7318.3
28925	9.0625e-002	2.3636	0.1	7581.
28926	0.18125	2.6364	0.1	7365.
28927	0.27187	2.5455	0.1	7363.4
28928	9.0625e-002	2.5455	0.1	7610.2
28929	0.18125	2.8182	0.1	7382.8
28930	0.27187	2.7273	0.1	7392.8
28931	9.0625e-002	2.7273	0.1	7628.6
28932	0.18125	3.	0.1	7388.6
28933	0.27187	2.9091	0.1	7407.3
28934	9.0625e-002	2.9091	0.1	7637.5
28935	0.18125	3.1818	0.1	7382.8
28936	0.27187	3.0909	0.1	7407.3
28937	9.0625e-002	3.0909	0.1	7637.5
28938	0.18125	3.3636	0.1	7365.
28939	0.27187	3.2727	0.1	7392.8
28940	9.0625e-002	3.2727	0.1	7628.6
28941	0.18125	3.5455	0.1	7334.6
28942	0.27187	3.4545	0.1	7363.4
28943	9.0625e-002	3.4545	0.1	7610.2
28944	0.18125	3.7273	0.1	7290.1
28945	0.27187	3.6364	0.1	7318.3
28946	9.0625e-002	3.6364	0.1	7581.
28947	0.18125	3.9091	0.1	7229.3
28948	0.27187	3.8182	0.1	7256.2
28949	9.0625e-002	3.8182	0.1	7539.1
28950	0.18125	4.0909	0.1	7149.4
28951	0.27187	4.	0.1	7175.2
28952	9.0625e-002	4.	0.1	7481.3
28953	0.18125	4.2727	0.1	7046.2
28954	0.27187	4.1818	0.1	7072.5
28955	9.0625e-002	4.1818	0.1	7403.7
28956	0.18125	4.4545	0.1	6914.2
28957	0.27187	4.3636	0.1	6944.2
28958	9.0625e-002	4.3636	0.1	7300.9
28959	0.18125	4.6364	0.1	6745.8
28960	0.27187	4.5455	0.1	6785.4
28961	9.0625e-002	4.5455	0.1	7165.6
28962	0.18125	4.8182	0.1	6530.6
28963	0.27187	4.7273	0.1	6589.3
28964	9.0625e-002	4.7273	0.1	6988.1
28965	0.18125	5.	0.1	6253.6
28966	0.27187	4.9091	0.1	6347.2
28967	9.0625e-002	4.9091	0.1	6754.6
28968	0.18125	5.1818	0.1	5892.5
28969	0.27187	5.0909	0.1	6048.
28970	9.0625e-002	5.0909	0.1	6443.8
28971	0.18125	5.3636	0.1	5417.6
28972	0.27187	5.2727	0.1	5678.8
28973	9.0625e-002	5.2727	0.1	6021.7
28974	0.18125	5.5455	0.1	4794.3
28975	0.27187	5.4545	0.1	5233.6
28976	9.0625e-002	5.4545	0.1	5427.4
28977	0.18125	5.7273	0.1	4127.4
28978	0.27187	5.6364	0.1	4729.
28979	9.0625e-002	5.6364	0.1	4552.2
28980	0.27187	5.8182	0.1	4349.1
28981	9.0625e-002	5.8182	0.1	3205.9
28982	0.18125	5.9091	0.1	3629.5
28983	0.3625	0.27273	0.1	4936.6
28984	0.45312	0.18182	0.1	5055.5
28985	0.3625	9.0909e-002	0.1	4701.6
28986	0.3625	0.45455	0.1	5170.
28987	0.45312	0.36364	0.1	5144.3
28988	0.3625	0.63636	0.1	5503.5
28989	0.45312	0.54545	0.1	5374.5
28990	0.3625	0.81818	0.1	5842.1
28991	0.45312	0.72727	0.1	5650.1
28992	0.3625	1.	0.1	6147.1
28993	0.45312	0.90909	0.1	5926.1
28994	0.3625	1.1818	0.1	6409.5
28995	0.45312	1.0909	0.1	6181.8
28996	0.3625	1.3636	0.1	6631.2
28997	0.45312	1.2727	0.1	6409.8
28998	0.3625	1.5455	0.1	6816.8
28999	0.45312	1.4545	0.1	6609.1
29000	0.3625	1.7273	0.1	6971.4
29001	0.45312	1.6364	0.1	6781.1
29002	0.3625	1.9091	0.1	7098.8
29003	0.45312	1.8182	0.1	6927.7
29004	0.3625	2.0909	0.1	7202.5
29005	0.45312	2.	0.1	7050.8
29006	0.3625	2.2727	0.1	7284.7
29007	0.45312	2.1818	0.1	7151.8
29008	0.3625	2.4545	0.1	7347.2
29009	0.45312	2.3636	0.1	7231.9
29010	0.3625	2.6364	0.1	7391.2
29011	0.45312	2.5455	0.1	7291.6
29012	0.3625	2.8182	0.1	7417.3
29013	0.45312	2.7273	0.1	7331.3
29014	0.3625	3.	0.1	7426.
29015	0.45312	2.9091	0.1	7351.1
29016	0.3625	3.1818	0.1	7417.3
29017	0.45312	3.0909	0.1	7351.1
29018	0.3625	3.3636	0.1	7391.2
29019	0.45312	3.2727	0.1	7331.3
29020	0.3625	3.5455	0.1	7347.2
29021	0.45312	3.4545	0.1	7291.6
29022	0.3625	3.7273	0.1	7284.7
29023	0.45312	3.6364	0.1	7231.9
29024	0.3625	3.9091	0.1	7202.5
29025	0.45312	3.8182	0.1	7151.8
29026	0.3625	4.0909	0.1	7098.8
29027	0.45312	4.	0.1	7050.8
29028	0.3625	4.2727	0.1	6971.4
29029	0.45312	4.1818	0.1	6927.7
29030	0.3625	4.4545	0.1	6816.8
29031	0.45312	4.3636	0.1	6781.1
29032	0.3625	4.6364	0.1	6631.2
29033	0.45312	4.5455	0.1	6609.1
29034	0.3625	4.8182	0.1	6409.5
29035	0.45312	4.7273	0.1	6409.8
29036	0.3625	5.	0.1	6147.1
29037	0.45312	4.9091	0.1	6181.8
29038	0.3625	5.1818	0.1	5842.1
29039	0.45312	5.0909	0.1	5926.1
29040	0.3625	5.3636	0.1	5503.5
29041	0.45312	5.2727	0.1	5650.1
29042	0.3625	5.5455	0.1	5170.
29043	0.45312	5.4545	0.1	5374.5
29044	0.3625	5.7273	0.1	4936.6
29045	0.45312	5.6364	0.1	5144.3
29046	0.45312	5.8182	0.1	5055.5
29047	0.3625	5.9091	0.1	4701.6
29048	0.54375	0.27273	0.1	5261.2
29049	0.63437	0.18182	0.1	5331.9
29050	0.54375	9.0909e-002	0.1	5126.6
29051	0.54375	0.45455	0.1	5345.2
29052	0.63437	0.36364	0.1	5340.8
29053	0.54375	0.63636	0.1	5518.6
29054	0.63437	0.54545	0.1	5454.7
29055	0.54375	0.81818	0.1	5733.8
29056	0.63437	0.72727	0.1	5621.7
29057	0.54375	1.	0.1	5961.8
29058	0.63437	0.90909	0.1	5817.9
29059	0.54375	1.1818	0.1	6183.4
29060	0.63437	1.0909	0.1	6023.8
29061	0.54375	1.3636	0.1	6389.
29062	0.63437	1.2727	0.1	6226.4
29063	0.54375	1.5455	0.1	6574.4
29064	0.63437	1.4545	0.1	6417.8
29065	0.54375	1.7273	0.1	6738.2
29066	0.63437	1.6364	0.1	6593.5
29067	0.54375	1.9091	0.1	6880.2
29068	0.63437	1.8182	0.1	6751.1
29069	0.54375	2.0909	0.1	7000.5
29070	0.63437	2.	0.1	6889.1
29071	0.54375	2.2727	0.1	7099.2
29072	0.63437	2.1818	0.1	7006.3
29073	0.54375	2.4545	0.1	7176.3
29074	0.63437	2.3636	0.1	7101.7
29075	0.54375	2.6364	0.1	7231.7
29076	0.63437	2.5455	0.1	7174.3
29077	0.54375	2.8182	0.1	7265.
29078	0.63437	2.7273	0.1	7223.4
29079	0.54375	3.	0.1	7276.2
29080	0.63437	2.9091	0.1	7248.1
29081	0.54375	3.1818	0.1	7265.
29082	0.63437	3.0909	0.1	7248.1
29083	0.54375	3.3636	0.1	7231.7
29084	0.63437	3.2727	0.1	7223.4
29085	0.54375	3.5455	0.1	7176.3
29086	0.63437	3.4545	0.1	7174.3
29087	0.54375	3.7273	0.1	7099.2
29088	0.63437	3.6364	0.1	7101.7
29089	0.54375	3.9091	0.1	7000.5
29090	0.63437	3.8182	0.1	7006.3
29091	0.54375	4.0909	0.1	6880.2
29092	0.63437	4.	0.1	6889.1
29093	0.54375	4.2727	0.1	6738.2
29094	0.63437	4.1818	0.1	6751.1
29095	0.54375	4.4545	0.1	6574.4
29096	0.63437	4.3636	0.1	6593.5
29097	0.54375	4.6364	0.1	6389.
29098	0.63437	4.5455	0.1	6417.8
29099	0.54375	4.8182	0.1	6183.4
29100	0.63437	4.7273	0.1	6226.4
29101	0.54375	5.	0.1	5961.8
29102	0.63437	4.9091	0.1	6023.8
29103	0.54375	5.1818	0.1	5733.8
29104	0.63437	5.0909	0.1	5817.9
29105	0.54375	5.3636	0.1	5518.6
29106	0.63437	5.2727	0.1	5621.7
29107	0.54375	5.5455	0.1	5345.2
29108	0.63437	5.4545	0.1	5454.7
29109	0.54375	5.7273	0.1	5261.2
29110	0.63437	5.6364	0.1	5340.8
29111	0.63437	5.8182	0.1	5331.9
29112	0.54375	5.9091	0.1	5126.6
29113	0.725	0.27273	0.1	5411.
29114	0.81563	0.18182	0.1	5420.8
29115	0.725	9.0909e-002	0.1	5307.9
29116	0.725	0.45455	0.1	5449.3
29117	0.81563	0.36364	0.1	5412.6
29118	0.725	0.63636	0.1	5556.3
29119	0.81563	0.54545	0.1	5485.1
29120	0.725	0.81818	0.1	5704.9
29121	0.81563	0.72727	0.1	5602.2
29122	0.725	1.	0.1	5880.
29123	0.81563	0.90909	0.1	5753.1
29124	0.725	1.1818	0.1	6067.5
29125	0.81563	1.0909	0.1	5925.7
29126	0.725	1.3636	0.1	6256.1
29127	0.81563	1.2727	0.1	6109.
29128	0.725	1.5455	0.1	6437.8
29129	0.81563	1.4545	0.1	6293.6
29130	0.725	1.7273	0.1	6607.2
29131	0.81563	1.6364	0.1	6472.3
29132	0.725	1.9091	0.1	6760.6
29133	0.81563	1.8182	0.1	6639.8
29134	0.725	2.0909	0.1	6895.3
29135	0.81563	2.	0.1	6791.7
29136	0.725	2.2727	0.1	7008.9
29137	0.81563	2.1818	0.1	6924.4
29138	0.725	2.4545	0.1	7099.7
29139	0.81563	2.3636	0.1	7034.9
29140	0.725	2.6364	0.1	7165.9
29141	0.81563	2.5455	0.1	7120.6
29142	0.725	2.8182	0.1	7206.3
29143	0.81563	2.7273	0.1	7179.1
29144	0.725	3.	0.1	7219.8
29145	0.81563	2.9091	0.1	7208.8
29146	0.725	3.1818	0.1	7206.3
29147	0.81563	3.0909	0.1	7208.8
29148	0.725	3.3636	0.1	7165.9
29149	0.81563	3.2727	0.1	7179.1
29150	0.725	3.5455	0.1	7099.7
29151	0.81563	3.4545	0.1	7120.6
29152	0.725	3.7273	0.1	7008.9
29153	0.81563	3.6364	0.1	7034.9
29154	0.725	3.9091	0.1	6895.3
29155	0.81563	3.8182	0.1	6924.4
29156	0.725	4.0909	0.1	6760.6
29157	0.81563	4.	0.1	6791.7
29158	0.725	4.2727	0.1	6607.2
29159	0.81563	4.1818	0.1	6639.8
29160	0.725	4.4545	0.1	6437.8
29161	0.81563	4.3636	0.1	6472.3
29162	0.725	4.6364	0.1	6256.1
29163	0.81563	4.5455	0.1	6293.6
29164	0.725	4.8182	0.1	6067.5
29165	0.81563	4.7273	0.1	6109.
29166	0.725	5.	0.1	5880.
29167	0.81563	4.9091	0.1	5925.7
29168	0.725	5.1818	0.1	5704.9
29169	0.81563	5.0909	0.1	5753.1
29170	0.725	5.3636	0.1	5556.3
29171	0.81563	5.2727	0.1	5602.2
29172	0.725	5.5455	0.1	5449.3
29173	0.81563	5.4545	0.1	5485.1
29174	0.725	5.7273	0.1	5411.
29175	0.81563	5.6364	0.1	5412.6
29176	0.81563	5.8182	0.1	5420.8
29177	0.725	5.9091	0.1	5307.9
29178	0.90625	0.27273	0.1	5422.3
29179	0.99687	0.18182	0.1	5384.3
29180	0.90625	9.0909e-002	0.1	5331.2
29181	0.90625	0.45455	0.1	5448.1
29182	0.99687	0.36364	0.1	5378.2
29183	0.90625	0.63636	0.1	5530.3
29184	0.99687	0.54545	0.1	5440.1
29185	0.90625	0.81818	0.1	5649.7
29186	0.99687	0.72727	0.1	5541.
29187	0.90625	1.	0.1	5798.5
29188	0.99687	0.90909	0.1	5674.8
29189	0.90625	1.1818	0.1	5967.4
29190	0.99687	1.0909	0.1	5834.4
29191	0.90625	1.3636	0.1	6147.
29192	0.99687	1.2727	0.1	6011.5
29193	0.90625	1.5455	0.1	6328.8
29194	0.99687	1.4545	0.1	6197.6
29195	0.90625	1.7273	0.1	6505.6
29196	0.99687	1.6364	0.1	6384.6
29197	0.90625	1.9091	0.1	6671.4
29198	0.99687	1.8182	0.1	6565.6
29199	0.90625	2.0909	0.1	6821.1
29200	0.99687	2.	0.1	6734.1
29201	0.90625	2.2727	0.1	6950.5
29202	0.99687	2.1818	0.1	6884.8
29203	0.90625	2.4545	0.1	7055.8
29204	0.99687	2.3636	0.1	7012.5
29205	0.90625	2.6364	0.1	7133.5
29206	0.99687	2.5455	0.1	7112.7
29207	0.90625	2.8182	0.1	7181.3
29208	0.99687	2.7273	0.1	7181.9
29209	0.90625	3.	0.1	7197.4
29210	0.99687	2.9091	0.1	7217.2
29211	0.90625	3.1818	0.1	7181.3
29212	0.99687	3.0909	0.1	7217.2
29213	0.90625	3.3636	0.1	7133.5
29214	0.99687	3.2727	0.1	7181.9
29215	0.90625	3.5455	0.1	7055.8
29216	0.99687	3.4545	0.1	7112.7
29217	0.90625	3.7273	0.1	6950.5
29218	0.99687	3.6364	0.1	7012.5
29219	0.90625	3.9091	0.1	6821.1
29220	0.99687	3.8182	0.1	6884.8
29221	0.90625	4.0909	0.1	6671.4
29222	0.99687	4.	0.1	6734.1
29223	0.90625	4.2727	0.1	6505.6
29224	0.99687	4.1818	0.1	6565.6
29225	0.90625	4.4545	0.1	6328.8
29226	0.99687	4.3636	0.1	6384.6
29227	0.90625	4.6364	0.1	6147.
29228	0.99687	4.5455	0.1	6197.6
29229	0.90625	4.8182	0.1	5967.4
29230	0.99687	4.7273	0.1	6011.5
29231	0.90625	5.	0.1	5798.5
29232	0.99687	4.9091	0.1	5834.4
29233	0.90625	5.1818	0.1	5649.7
29234	0.99687	5.0909	0.1	5674.8
29235	0.90625	5.3636	0.1	5530.3
29236	0.99687	5.2727	0.1	5541.
29237	0.90625	5.5455	0.1	5448.1
29238	0.99687	5.4545	0.1	5440.1
29239	0.90625	5.7273	0.1	5422.3
29240	0.99687	5.6364	0.1	5378.2
29241	0.99687	5.8182	0.1	5384.3
29242	0.90625	5.9091	0.1	5331.2
29243	1.0875	0.27273	0.1	5340.
29244	1.1781	0.18182	0.1	5256.7
29245	1.0875	9.0909e-002	0.1	5249.3
29246	1.0875	0.45455	0.1	5370.2
29247	1.1781	0.36364	0.1	5261.9
29248	1.0875	0.63636	0.1	5450.7
29249	1.1781	0.54545	0.1	5329.8
29250	1.0875	0.81818	0.1	5565.9
29251	1.1781	0.72727	0.1	5434.8
29252	1.0875	1.	0.1	5710.7
29253	1.1781	0.90909	0.1	5572.6
29254	1.0875	1.1818	0.1	5878.8
29255	1.1781	1.0909	0.1	5738.2
29256	1.0875	1.3636	0.1	6062.6
29257	1.1781	1.2727	0.1	5924.9
29258	1.0875	1.5455	0.1	6254.
29259	1.1781	1.4545	0.1	6125.
29260	1.0875	1.7273	0.1	6445.2
29261	1.1781	1.6364	0.1	6330.3
29262	1.0875	1.9091	0.1	6628.8
29263	1.1781	1.8182	0.1	6532.9
29264	1.0875	2.0909	0.1	6798.1
29265	1.1781	2.	0.1	6724.9
29266	1.0875	2.2727	0.1	6946.8
29267	1.1781	2.1818	0.1	6899.
29268	1.0875	2.4545	0.1	7069.3
29269	1.1781	2.3636	0.1	7048.3
29270	1.0875	2.6364	0.1	7160.7
29271	1.1781	2.5455	0.1	7166.6
29272	1.0875	2.8182	0.1	7217.2
29273	1.1781	2.7273	0.1	7248.7
29274	1.0875	3.	0.1	7236.3
29275	1.1781	2.9091	0.1	7290.7
29276	1.0875	3.1818	0.1	7217.2
29277	1.1781	3.0909	0.1	7290.7
29278	1.0875	3.3636	0.1	7160.7
29279	1.1781	3.2727	0.1	7248.7
29280	1.0875	3.5455	0.1	7069.3
29281	1.1781	3.4545	0.1	7166.6
29282	1.0875	3.7273	0.1	6946.8
29283	1.1781	3.6364	0.1	7048.3
29284	1.0875	3.9091	0.1	6798.1
29285	1.1781	3.8182	0.1	6899.
29286	1.0875	4.0909	0.1	6628.8
29287	1.1781	4.	0.1	6724.9
29288	1.0875	4.2727	0.1	6445.2
29289	1.1781	4.1818	0.1	6532.9
29290	1.0875	4.4545	0.1	6254.
29291	1.1781	4.3636	0.1	6330.3
29292	1.0875	4.6364	0.1	6062.6
29293	1.1781	4.5455	0.1	6125.
29294	1.0875	4.8182	0.1	5878.8
29295	1.1781	4.7273	0.1	5924.9
29296	1.0875	5.	0.1	5710.7
29297	1.1781	4.9091	0.1	5738.2
29298	1.0875	5.1818	0.1	5565.9
29299	1.1781	5.0909	0.1	5572.6
29300	1.0875	5.3636	0.1	5450.7
29301	1.1781	5.2727	0.1	5434.8
29302	1.0875	5.5455	0.1	5370.2
29303	1.1781	5.4545	0.1	5329.8
29304	1.0875	5.7273	0.1	5340.
29305	1.1781	5.6364	0.1	5261.9
29306	1.1781	5.8182	0.1	5256.7
29307	1.0875	5.9091	0.1	5249.3
29308	1.2687	0.27273	0.1	5178.5
29309	1.3594	0.18182	0.1	5051.5
29310	1.2687	9.0909e-002	0.1	5081.6
29311	1.2687	0.45455	0.1	5221.6
29312	1.3594	0.36364	0.1	5072.3
29313	1.2687	0.63636	0.1	5314.1
29314	1.3594	0.54545	0.1	5156.
29315	1.2687	0.81818	0.1	5441.9
29316	1.3594	0.72727	0.1	5278.8
29317	1.2687	1.	0.1	5600.6
29318	1.3594	0.90909	0.1	5436.8
29319	1.2687	1.1818	0.1	5784.9
29320	1.3594	1.0909	0.1	5625.2
29321	1.2687	1.3636	0.1	5988.
29322	1.3594	1.2727	0.1	5837.9
29323	1.2687	1.5455	0.1	6202.1
29324	1.3594	1.4545	0.1	6067.2
29325	1.2687	1.7273	0.1	6418.7
29326	1.3594	1.6364	0.1	6304.5
29327	1.2687	1.9091	0.1	6629.5
29328	1.3594	1.8182	0.1	6540.7
29329	1.2687	2.0909	0.1	6826.
29330	1.3594	2.	0.1	6766.6
29331	1.2687	2.2727	0.1	7000.5
29332	1.3594	2.1818	0.1	6972.9
29333	1.2687	2.4545	0.1	7145.2
29334	1.3594	2.3636	0.1	7150.9
29335	1.2687	2.6364	0.1	7253.9
29336	1.3594	2.5455	0.1	7292.3
29337	1.2687	2.8182	0.1	7321.2
29338	1.3594	2.7273	0.1	7390.5
29339	1.2687	3.	0.1	7344.
29340	1.3594	2.9091	0.1	7440.8
29341	1.2687	3.1818	0.1	7321.2
29342	1.3594	3.0909	0.1	7440.8
29343	1.2687	3.3636	0.1	7253.9
29344	1.3594	3.2727	0.1	7390.5
29345	1.2687	3.5455	0.1	7145.2
29346	1.3594	3.4545	0.1	7292.3
29347	1.2687	3.7273	0.1	7000.5
29348	1.3594	3.6364	0.1	7150.9
29349	1.2687	3.9091	0.1	6826.
29350	1.3594	3.8182	0.1	6972.9
29351	1.2687	4.0909	0.1	6629.5
29352	1.3594	4.	0.1	6766.6
29353	1.2687	4.2727	0.1	6418.7
29354	1.3594	4.1818	0.1	6540.7
29355	1.2687	4.4545	0.1	6202.1
29356	1.3594	4.3636	0.1	6304.5
29357	1.2687	4.6364	0.1	5988.
29358	1.3594	4.5455	0.1	6067.2
29359	1.2687	4.8182	0.1	5784.9
29360	1.3594	4.7273	0.1	5837.9
29361	1.2687	5.	0.1	5600.6
29362	1.3594	4.9091	0.1	5625.2
29363	1.2687	5.1818	0.1	5441.9
29364	1.3594	5.0909	0.1	5436.8
29365	1.2687	5.3636	0.1	5314.1
29366	1.3594	5.2727	0.1	5278.8
29367	1.2687	5.5455	0.1	5221.6
29368	1.3594	5.4545	0.1	5156.
29369	1.2687	5.7273	0.1	5178.5
29370	1.3594	5.6364	0.1	5072.3
29371	1.3594	5.8182	0.1	5051.5
29372	1.2687	5.9091	0.1	5081.6
29373	1.45	0.27273	0.1	4945.2
29374	1.5406	0.18182	0.1	4773.5
29375	1.45	9.0909e-002	0.1	4837.2
29376	1.45	0.45455	0.1	5006.8
29377	1.5406	0.36364	0.1	4812.8
29378	1.45	0.63636	0.1	5121.2
29379	1.5406	0.54545	0.1	4919.5
29380	1.45	0.81818	0.1	5274.6
29381	1.5406	0.72727	0.1	5070.8
29382	1.45	1.	0.1	5462.6
29383	1.5406	0.90909	0.1	5262.6
29384	1.45	1.1818	0.1	5679.6
29385	1.5406	1.0909	0.1	5489.7
29386	1.45	1.3636	0.1	5918.5
29387	1.5406	1.2727	0.1	5745.5
29388	1.45	1.5455	0.1	6170.9
29389	1.5406	1.4545	0.1	6021.5
29390	1.45	1.7273	0.1	6427.6
29391	1.5406	1.6364	0.1	6308.
29392	1.45	1.9091	0.1	6678.5
29393	1.5406	1.8182	0.1	6594.
29394	1.45	2.0909	0.1	6913.7
29395	1.5406	2.	0.1	6868.2
29396	1.45	2.2727	0.1	7123.2
29397	1.5406	2.1818	0.1	7119.1
29398	1.45	2.4545	0.1	7297.2
29399	1.5406	2.3636	0.1	7335.1
29400	1.45	2.6364	0.1	7427.7
29401	1.5406	2.5455	0.1	7505.9
29402	1.45	2.8182	0.1	7508.4
29403	1.5406	2.7273	0.1	7623.7
29404	1.45	3.	0.1	7535.7
29405	1.5406	2.9091	0.1	7683.7
29406	1.45	3.1818	0.1	7508.4
29407	1.5406	3.0909	0.1	7683.7
29408	1.45	3.3636	0.1	7427.7
29409	1.5406	3.2727	0.1	7623.7
29410	1.45	3.5455	0.1	7297.2
29411	1.5406	3.4545	0.1	7505.9
29412	1.45	3.7273	0.1	7123.2
29413	1.5406	3.6364	0.1	7335.1
29414	1.45	3.9091	0.1	6913.7
29415	1.5406	3.8182	0.1	7119.1
29416	1.45	4.0909	0.1	6678.5
29417	1.5406	4.	0.1	6868.2
29418	1.45	4.2727	0.1	6427.6
29419	1.5406	4.1818	0.1	6594.
29420	1.45	4.4545	0.1	6170.9
29421	1.5406	4.3636	0.1	6308.
29422	1.45	4.6364	0.1	5918.5
29423	1.5406	4.5455	0.1	6021.5
29424	1.45	4.8182	0.1	5679.6
29425	1.5406	4.7273	0.1	5745.5
29426	1.45	5.	0.1	5462.6
29427	1.5406	4.9091	0.1	5489.7
29428	1.45	5.1818	0.1	5274.6
29429	1.5406	5.0909	0.1	5262.6
29430	1.45	5.3636	0.1	5121.2
29431	1.5406	5.2727	0.1	5070.8
29432	1.45	5.5455	0.1	5006.8
29433	1.5406	5.4545	0.1	4919.5
29434	1.45	5.7273	0.1	4945.2
29435	1.5406	5.6364	0.1	4812.8
29436	1.5406	5.8182	0.1	4773.5
29437	1.45	5.9091	0.1	4837.2
29438	1.6313	0.27273	0.1	4641.2
29439	1.7219	0.18182	0.1	4423.1
29440	1.6313	9.0909e-002	0.1	4518.4
29441	1.6313	0.45455	0.1	4725.7
29442	1.7219	0.36364	0.1	4482.9
29443	1.6313	0.63636	0.1	4870.1
29444	1.7219	0.54545	0.1	4618.7
29445	1.6313	0.81818	0.1	5060.7
29446	1.7219	0.72727	0.1	4808.2
29447	1.6313	1.	0.1	5292.2
29448	1.7219	0.90909	0.1	5046.5
29449	1.6313	1.1818	0.1	5558.4
29450	1.7219	1.0909	0.1	5327.9
29451	1.6313	1.3636	0.1	5851.2
29452	1.7219	1.2727	0.1	5644.9
29453	1.6313	1.5455	0.1	6160.8
29454	1.7219	1.4545	0.1	5987.9
29455	1.6313	1.7273	0.1	6476.
29456	1.7219	1.6364	0.1	6345.1
29457	1.6313	1.9091	0.1	6784.7
29458	1.7219	1.8182	0.1	6702.5
29459	1.6313	2.0909	0.1	7073.9
29460	1.7219	2.	0.1	7045.
29461	1.6313	2.2727	0.1	7330.5
29462	1.7219	2.1818	0.1	7356.8
29463	1.6313	2.4545	0.1	7542.4
29464	1.7219	2.3636	0.1	7622.3
29465	1.6313	2.6364	0.1	7699.7
29466	1.7219	2.5455	0.1	7828.6
29467	1.6313	2.8182	0.1	7796.2
29468	1.7219	2.7273	0.1	7968.1
29469	1.6313	3.	0.1	7828.6
29470	1.7219	2.9091	0.1	8038.
29471	1.6313	3.1818	0.1	7796.2
29472	1.7219	3.0909	0.1	8038.
29473	1.6313	3.3636	0.1	7699.7
29474	1.7219	3.2727	0.1	7968.1
29475	1.6313	3.5455	0.1	7542.4
29476	1.7219	3.4545	0.1	7828.6
29477	1.6313	3.7273	0.1	7330.5
29478	1.7219	3.6364	0.1	7622.3
29479	1.6313	3.9091	0.1	7073.9
29480	1.7219	3.8182	0.1	7356.8
29481	1.6313	4.0909	0.1	6784.7
29482	1.7219	4.	0.1	7045.
29483	1.6313	4.2727	0.1	6476.
29484	1.7219	4.1818	0.1	6702.5
29485	1.6313	4.4545	0.1	6160.8
29486	1.7219	4.3636	0.1	6345.1
29487	1.6313	4.6364	0.1	5851.2
29488	1.7219	4.5455	0.1	5987.9
29489	1.6313	4.8182	0.1	5558.4
29490	1.7219	4.7273	0.1	5644.9
29491	1.6313	5.	0.1	5292.2
29492	1.7219	4.9091	0.1	5327.9
29493	1.6313	5.1818	0.1	5060.7
29494	1.7219	5.0909	0.1	5046.5
29495	1.6313	5.3636	0.1	4870.1
29496	1.7219	5.2727	0.1	4808.2
29497	1.6313	5.5455	0.1	4725.7
29498	1.7219	5.4545	0.1	4618.7
29499	1.6313	5.7273	0.1	4641.2
29500	1.7219	5.6364	0.1	4482.9
29501	1.7219	5.8182	0.1	4423.1
29502	1.6313	5.9091	0.1	4518.4
29503	1.8125	0.27273	0.1	4265.
29504	1.9031	0.18182	0.1	3998.3
29505	1.8125	9.0909e-002	0.1	4124.2
29506	1.8125	0.45455	0.1	4376.5
29507	1.9031	0.36364	0.1	4080.9
29508	1.8125	0.63636	0.1	4558.9
29509	1.9031	0.54545	0.1	4252.4
29510	1.8125	0.81818	0.1	4797.6
29511	1.9031	0.72727	0.1	4489.6
29512	1.8125	1.	0.1	5086.8
29513	1.9031	0.90909	0.1	4786.8
29514	1.8125	1.1818	0.1	5419.4
29515	1.9031	1.0909	0.1	5137.7
29516	1.8125	1.3636	0.1	5786.3
29517	1.9031	1.2727	0.1	5535.2
29518	1.8125	1.5455	0.1	6176.
29519	1.9031	1.4545	0.1	5969.3
29520	1.8125	1.7273	0.1	6574.2
29521	1.9031	1.6364	0.1	6425.4
29522	1.8125	1.9091	0.1	6964.3
29523	1.9031	1.8182	0.1	6884.4
29524	1.8125	2.0909	0.1	7328.2
29525	1.9031	2.	0.1	7323.6
29526	1.8125	2.2727	0.1	7647.5
29527	1.9031	2.1818	0.1	7718.7
29528	1.8125	2.4545	0.1	7906.1
29529	1.9031	2.3636	0.1	8045.9
29530	1.8125	2.6364	0.1	8093.3
29531	1.9031	2.5455	0.1	8289.9
29532	1.8125	2.8182	0.1	8205.4
29533	1.9031	2.7273	0.1	8447.4
29534	1.8125	3.	0.1	8242.6
29535	1.9031	2.9091	0.1	8523.4
29536	1.8125	3.1818	0.1	8205.4
29537	1.9031	3.0909	0.1	8523.4
29538	1.8125	3.3636	0.1	8093.3
29539	1.9031	3.2727	0.1	8447.4
29540	1.8125	3.5455	0.1	7906.1
29541	1.9031	3.4545	0.1	8289.9
29542	1.8125	3.7273	0.1	7647.5
29543	1.9031	3.6364	0.1	8045.9
29544	1.8125	3.9091	0.1	7328.2
29545	1.9031	3.8182	0.1	7718.7
29546	1.8125	4.0909	0.1	6964.3
29547	1.9031	4.	0.1	7323.6
29548	1.8125	4.2727	0.1	6574.2
29549	1.9031	4.1818	0.1	6884.4
29550	1.8125	4.4545	0.1	6176.
29551	1.9031	4.3636	0.1	6425.4
29552	1.8125	4.6364	0.1	5786.3
29553	1.9031	4.5455	0.1	5969.3
29554	1.8125	4.8182	0.1	5419.4
29555	1.9031	4.7273	0.1	5535.2
29556	1.8125	5.	0.1	5086.8
29557	1.9031	4.9091	0.1	5137.7
29558	1.8125	5.1818	0.1	4797.6
29559	1.9031	5.0909	0.1	4786.8
29560	1.8125	5.3636	0.1	4558.9
29561	1.9031	5.2727	0.1	4489.6
29562	1.8125	5.5455	0.1	4376.5
29563	1.9031	5.4545	0.1	4252.4
29564	1.8125	5.7273	0.1	4265.
29565	1.9031	5.6364	0.1	4080.9
29566	1.9031	5.8182	0.1	3998.3
29567	1.8125	5.9091	0.1	4124.2
29568	1.9937	0.27273	0.1	3814.7
29569	2.0844	0.18182	0.1	3497.4
29570	1.9937	9.0909e-002	0.1	3652.7
29571	1.9937	0.45455	0.1	3958.3
29572	2.0844	0.36364	0.1	3607.1
29573	1.9937	0.63636	0.1	4187.4
29574	2.0844	0.54545	0.1	3823.1
29575	1.9937	0.81818	0.1	4485.7
29576	2.0844	0.72727	0.1	4118.8
29577	1.9937	1.	0.1	4846.3
29578	2.0844	0.90909	0.1	4486.2
29579	1.9937	1.1818	0.1	5262.6
29580	2.0844	1.0909	0.1	4919.9
29581	1.9937	1.3636	0.1	5726.3
29582	2.0844	1.2727	0.1	5416.4
29583	1.9937	1.5455	0.1	6224.9
29584	2.0844	1.4545	0.1	5969.3
29585	1.9937	1.7273	0.1	6739.6
29586	2.0844	1.6364	0.1	6563.8
29587	1.9937	1.9091	0.1	7245.6
29588	2.0844	1.8182	0.1	7171.
29589	1.9937	2.0909	0.1	7714.
29590	2.0844	2.	0.1	7752.1
29591	1.9937	2.2727	0.1	8114.8
29592	2.0844	2.1818	0.1	8261.6
29593	1.9937	2.4545	0.1	8425.3
29594	2.0844	2.3636	0.1	8659.4
29595	1.9937	2.6364	0.1	8637.9
29596	2.0844	2.5455	0.1	8929.2
29597	1.9937	2.8182	0.1	8758.4
29598	2.0844	2.7273	0.1	9085.3
29599	1.9937	3.	0.1	8797.
29600	2.0844	2.9091	0.1	9154.6
29601	1.9937	3.1818	0.1	8758.4
29602	2.0844	3.0909	0.1	9154.6
29603	1.9937	3.3636	0.1	8637.9
29604	2.0844	3.2727	0.1	9085.3
29605	1.9937	3.5455	0.1	8425.3
29606	2.0844	3.4545	0.1	8929.2
29607	1.9937	3.7273	0.1	8114.8
29608	2.0844	3.6364	0.1	8659.4
29609	1.9937	3.9091	0.1	7714.
29610	2.0844	3.8182	0.1	8261.6
29611	1.9937	4.0909	0.1	7245.6
29612	2.0844	4.	0.1	7752.1
29613	1.9937	4.2727	0.1	6739.6
29614	2.0844	4.1818	0.1	7171.
29615	1.9937	4.4545	0.1	6224.9
29616	2.0844	4.3636	0.1	6563.8
29617	1.9937	4.6364	0.1	5726.3
29618	2.0844	4.5455	0.1	5969.3
29619	1.9937	4.8182	0.1	5262.6
29620	2.0844	4.7273	0.1	5416.4
29621	1.9937	5.	0.1	4846.3
29622	2.0844	4.9091	0.1	4919.9
29623	1.9937	5.1818	0.1	4485.7
29624	2.0844	5.0909	0.1	4486.2
29625	1.9937	5.3636	0.1	4187.4
29626	2.0844	5.2727	0.1	4118.8
29627	1.9937	5.5455	0.1	3958.3
29628	2.0844	5.4545	0.1	3823.1
29629	1.9937	5.7273	0.1	3814.7
29630	2.0844	5.6364	0.1	3607.1
29631	2.0844	5.8182	0.1	3497.4
29632	1.9937	5.9091	0.1	3652.7
29633	2.175	0.27273	0.1	3290.5
29634	2.2656	0.18182	0.1	2920.5
29635	2.175	9.0909e-002	0.1	3102.7
29636	2.175	0.45455	0.1	3475.2
29637	2.2656	0.36364	0.1	3068.3
29638	2.175	0.63636	0.1	3762.8
29639	2.2656	0.54545	0.1	3344.1
29640	2.175	0.81818	0.1	4131.9
29641	2.2656	0.72727	0.1	3710.9
29642	2.175	1.	0.1	4575.1
29643	2.2656	0.90909	0.1	4156.6
29644	2.175	1.1818	0.1	5089.5
29645	2.2656	1.0909	0.1	4679.7
29646	2.175	1.3636	0.1	5673.3
29647	2.2656	1.2727	0.1	5286.9
29648	2.175	1.5455	0.1	6318.3
29649	2.2656	1.4545	0.1	5988.6
29650	2.175	1.7273	0.1	7000.9
29651	2.2656	1.6364	0.1	6777.5
29652	2.175	1.9091	0.1	7679.3
29653	2.2656	1.8182	0.1	7617.
29654	2.175	2.0909	0.1	8298.2
29655	2.2656	2.	0.1	8428.9
29656	2.175	2.2727	0.1	8801.4
29657	2.2656	2.1818	0.1	9096.9
29658	2.175	2.4545	0.1	9155.4
29659	2.2656	2.3636	0.1	9554.1
29660	2.175	2.6364	0.1	9366.9
29661	2.2656	2.5455	0.1	9794.1
29662	2.175	2.8182	0.1	9471.2
29663	2.2656	2.7273	0.1	9894.3
29664	2.175	3.	0.1	9501.8
29665	2.2656	2.9091	0.1	9926.3
29666	2.175	3.1818	0.1	9471.2
29667	2.2656	3.0909	0.1	9926.3
29668	2.175	3.3636	0.1	9366.9
29669	2.2656	3.2727	0.1	9894.3
29670	2.175	3.5455	0.1	9155.4
29671	2.2656	3.4545	0.1	9794.1
29672	2.175	3.7273	0.1	8801.4
29673	2.2656	3.6364	0.1	9554.1
29674	2.175	3.9091	0.1	8298.2
29675	2.2656	3.8182	0.1	9096.9
29676	2.175	4.0909	0.1	7679.3
29677	2.2656	4.	0.1	8428.9
29678	2.175	4.2727	0.1	7000.9
29679	2.2656	4.1818	0.1	7617.
29680	2.175	4.4545	0.1	6318.3
29681	2.2656	4.3636	0.1	6777.5
29682	2.175	4.6364	0.1	5673.2
29683	2.2656	4.5455	0.1	5988.6
29684	2.175	4.8182	0.1	5089.5
29685	2.2656	4.7273	0.1	5286.9
29686	2.175	5.	0.1	4575.1
29687	2.2656	4.9091	0.1	4679.7
29688	2.175	5.1818	0.1	4131.9
29689	2.2656	5.0909	0.1	4156.6
29690	2.175	5.3636	0.1	3762.8
29691	2.2656	5.2727	0.1	3710.9
29692	2.175	5.5455	0.1	3475.2
29693	2.2656	5.4545	0.1	3344.1
29694	2.175	5.7273	0.1	3290.5
29695	2.2656	5.6364	0.1	3068.3
29696	2.2656	5.8182	0.1	2920.5
29697	2.175	5.9091	0.1	3102.7
29698	2.3563	0.27273	0.1	2699.5
29699	2.4469	0.18182	0.1	2272.2
29700	2.3563	9.0909e-002	0.1	2475.3
29701	2.3563	0.45455	0.1	2944.9
29702	2.4469	0.36364	0.1	2488.8
29703	2.3563	0.63636	0.1	3308.4
29704	2.4469	0.54545	0.1	2852.5
29705	2.3563	0.81818	0.1	3757.7
29706	2.4469	0.72727	0.1	3303.
29707	2.3563	1.	0.1	4286.6
29708	2.4469	0.90909	0.1	3826.4
29709	2.3563	1.1818	0.1	4903.2
29710	2.4469	1.0909	0.1	4430.9
29711	2.3563	1.3636	0.1	5625.8
29712	2.4469	1.2727	0.1	5143.5
29713	2.3563	1.5455	0.1	6464.9
29714	2.4469	1.4545	0.1	6006.
29715	2.3563	1.7273	0.1	7401.
29716	2.4469	1.6364	0.1	7071.1
29717	2.3563	1.9091	0.1	8366.6
29718	2.4469	1.8182	0.1	8339.4
29719	2.3563	2.0909	0.1	9221.6
29720	2.4469	2.	0.1	9548.4
29721	2.3563	2.2727	0.1	9838.1
29722	2.4469	2.1818	0.1	10491
29723	2.3563	2.4545	0.1	10178
29724	2.4469	2.3636	0.1	10879
29725	2.3563	2.6364	0.1	10307
29726	2.4469	2.5455	0.1	10916
29727	2.3563	2.8182	0.1	10336
29728	2.4469	2.7273	0.1	10844
29729	2.3563	3.	0.1	10337
29730	2.4469	2.9091	0.1	10787
29731	2.3563	3.1818	0.1	10336
29732	2.4469	3.0909	0.1	10787
29733	2.3563	3.3636	0.1	10307
29734	2.4469	3.2727	0.1	10844
29735	2.3563	3.5455	0.1	10178
29736	2.4469	3.4545	0.1	10916
29737	2.3563	3.7273	0.1	9838.1
29738	2.4469	3.6364	0.1	10879
29739	2.3563	3.9091	0.1	9221.6
29740	2.4469	3.8182	0.1	10491
29741	2.3563	4.0909	0.1	8366.6
29742	2.4469	4.	0.1	9548.4
29743	2.3563	4.2727	0.1	7401.
29744	2.4469	4.1818	0.1	8339.4
29745	2.3563	4.4545	0.1	6464.9
29746	2.4469	4.3636	0.1	7071.1
29747	2.3563	4.6364	0.1	5625.8
29748	2.4469	4.5455	0.1	6006.
29749	2.3563	4.8182	0.1	4903.2
29750	2.4469	4.7273	0.1	5143.5
29751	2.3563	5.	0.1	4286.6
29752	2.4469	4.9091	0.1	4430.9
29753	2.3563	5.1818	0.1	3757.7
29754	2.4469	5.0909	0.1	3826.4
29755	2.3563	5.3636	0.1	3308.4
29756	2.4469	5.2727	0.1	3303.
29757	2.3563	5.5455	0.1	2944.9
29758	2.4469	5.4545	0.1	2852.5
29759	2.3563	5.7273	0.1	2699.5
29760	2.4469	5.6364	0.1	2488.8
29761	2.4469	5.8182	0.1	2272.2
29762	2.3563	5.9091	0.1	2475.3
29763	2.5375	0.27273	0.1	2066.2
29764	2.6281	0.18182	0.1	1586.7
29765	2.5375	9.0909e-002	0.1	1773.6
29766	2.5375	0.45455	0.1	2416.8
29767	2.6281	0.36364	0.1	1965.5
29768	2.5375	0.63636	0.1	2877.9
29769	2.6281	0.54545	0.1	2460.8
29770	2.5375	0.81818	0.1	3407.2
29771	2.6281	0.72727	0.1	3004.3
29772	2.5375	1.	0.1	4008.9
29773	2.6281	0.90909	0.1	3599.3
29774	2.5375	1.1818	0.1	4711.6
29775	2.6281	1.0909	0.1	4271.8
29776	2.5375	1.3636	0.1	5564.7
29777	2.6281	1.2727	0.1	5069.1
29778	2.5375	1.5455	0.1	6643.8
29779	2.6281	1.4545	0.1	6084.2
29780	2.5375	1.7273	0.1	8024.2
29781	2.6281	1.6364	0.1	7453.6
29782	2.5375	1.9091	0.1	9508.8
29783	2.6281	1.8182	0.1	9770.
29784	2.5375	2.0909	0.1	10797
29785	2.6281	2.	0.1	12492
29786	2.5375	2.2727	0.1	11502
29787	2.6281	2.1818	0.1	13096
29788	2.5375	2.4545	0.1	11592
29789	2.6281	2.3636	0.1	12777
29790	2.5375	2.6364	0.1	11435
29791	2.6281	2.5455	0.1	12201
29792	2.5375	2.8182	0.1	11280
29793	2.6281	2.7273	0.1	11807
29794	2.5375	3.	0.1	11222
29795	2.6281	2.9091	0.1	11608
29796	2.5375	3.1818	0.1	11280
29797	2.6281	3.0909	0.1	11608
29798	2.5375	3.3636	0.1	11435
29799	2.6281	3.2727	0.1	11807
29800	2.5375	3.5455	0.1	11592
29801	2.6281	3.4545	0.1	12201
29802	2.5375	3.7273	0.1	11502
29803	2.6281	3.6364	0.1	12777
29804	2.5375	3.9091	0.1	10797
29805	2.6281	3.8182	0.1	13096
29806	2.5375	4.0909	0.1	9508.8
29807	2.6281	4.	0.1	12492
29808	2.5375	4.2727	0.1	8024.2
29809	2.6281	4.1818	0.1	9770.
29810	2.5375	4.4545	0.1	6643.8
29811	2.6281	4.3636	0.1	7453.6
29812	2.5375	4.6364	0.1	5564.7
29813	2.6281	4.5455	0.1	6084.2
29814	2.5375	4.8182	0.1	4711.6
29815	2.6281	4.7273	0.1	5069.1
29816	2.5375	5.	0.1	4008.9
29817	2.6281	4.9091	0.1	4271.8
29818	2.5375	5.1818	0.1	3407.2
29819	2.6281	5.0909	0.1	3599.3
29820	2.5375	5.3636	0.1	2877.9
29821	2.6281	5.2727	0.1	3004.3
29822	2.5375	5.5455	0.1	2416.8
29823	2.6281	5.4545	0.1	2460.8
29824	2.5375	5.7273	0.1	2066.2
29825	2.6281	5.6364	0.1	1965.5
29826	2.6281	5.8182	0.1	1586.7
29827	2.5375	5.9091	0.1	1773.6
29828	2.7188	0.27273	0.1	1518.1
29829	2.8094	0.18182	0.1	925.35
29830	2.7188	9.0909e-002	0.1	1024.6
29831	2.7188	0.45455	0.1	2058.8
29832	2.8094	0.36364	0.1	1442.4
29833	2.7188	0.63636	0.1	2635.7
29834	2.8094	0.54545	0.1	1946.3
29835	2.7188	0.81818	0.1	3243.7
29836	2.8094	0.72727	0.1	2445.9
29837	2.7188	1.	0.1	3911.5
29838	2.8094	0.90909	0.1	2965.5
29839	2.7188	1.1818	0.1	4685.7
29840	2.8094	1.0909	0.1	3536.1
29841	2.7188	1.3636	0.1	5657.4
29842	2.8094	1.2727	0.1	4203.1
29843	2.7188	1.5455	0.1	6992.4
29844	2.8094	1.4545	0.1	5063.4
29845	2.7188	1.7273	0.1	9267.1
29846	2.8094	1.6364	0.1	6254.3
29847	2.7188	1.9091	0.1	12682
29848	2.8094	1.8182	0.1	8424.7
29849	2.7188	2.0909	0.1	14666
29850	2.8094	2.	0.1	21578
29851	2.7188	2.2727	0.1	14313
29852	2.8094	2.1818	0.1	17077
29853	2.7188	2.4545	0.1	13364
29854	2.8094	2.3636	0.1	14692
29855	2.7188	2.6364	0.1	12560
29856	2.8094	2.5455	0.1	13282
29857	2.7188	2.8182	0.1	12124
29858	2.8094	2.7273	0.1	12528
29859	2.7188	3.	0.1	11983
29860	2.8094	2.9091	0.1	12191
29861	2.7188	3.1818	0.1	12124
29862	2.8094	3.0909	0.1	12191
29863	2.7188	3.3636	0.1	12560
29864	2.8094	3.2727	0.1	12528
29865	2.7188	3.5455	0.1	13364
29866	2.8094	3.4545	0.1	13282
29867	2.7188	3.7273	0.1	14313
29868	2.8094	3.6364	0.1	14692
29869	2.7188	3.9091	0.1	14666
29870	2.8094	3.8182	0.1	17077
29871	2.7188	4.0909	0.1	12682
29872	2.8094	4.	0.1	21578
29873	2.7188	4.2727	0.1	9267.1
29874	2.8094	4.1818	0.1	8424.7
29875	2.7188	4.4545	0.1	6992.4
29876	2.8094	4.3636	0.1	6254.3
29877	2.7188	4.6364	0.1	5657.4
29878	2.8094	4.5455	0.1	5063.4
29879	2.7188	4.8182	0.1	4685.7
29880	2.8094	4.7273	0.1	4203.1
29881	2.7188	5.	0.1	3911.5
29882	2.8094	4.9091	0.1	3536.1
29883	2.7188	5.1818	0.1	3243.7
29884	2.8094	5.0909	0.1	2965.5
29885	2.7188	5.3636	0.1	2635.7
29886	2.8094	5.2727	0.1	2445.9
29887	2.7188	5.5455	0.1	2058.8
29888	2.8094	5.4545	0.1	1946.3
29889	2.7188	5.7273	0.1	1518.1
29890	2.8094	5.6364	0.1	1442.4
29891	2.8094	5.8182	0.1	925.35
29892	2.7188	5.9091	0.1	1024.6
29893	3.0667	3.7273	0.1	17389
29894	2.9833	3.8182	0.1	19295
29895	3.0667	3.9091	0.1	23115
29896	3.0667	3.5455	0.1	14524
29897	2.9833	3.6364	0.1	15437
29898	3.0667	3.3636	0.1	13170
29899	2.9833	3.4545	0.1	13662
29900	3.0667	3.1818	0.1	12517
29901	2.9833	3.2727	0.1	12749
29902	3.0667	3.	0.1	12322
29903	2.9833	3.0909	0.1	12359
29904	3.0667	2.8182	0.1	12517
29905	2.9833	2.9091	0.1	12359
29906	3.0667	2.6364	0.1	13170
29907	2.9833	2.7273	0.1	12749
29908	3.0667	2.4545	0.1	14524
29909	2.9833	2.5455	0.1	13662
29910	3.0667	2.2727	0.1	17389
29911	2.9833	2.3636	0.1	15437
29912	2.9833	2.1818	0.1	19295
29913	3.0667	2.0909	0.1	23115
29914	2.9	3.7273	0.1	17582
29915	2.9	3.9091	0.1	23758
29916	2.9	3.5455	0.1	14645
29917	2.9	3.3636	0.1	13260
29918	2.9	3.1818	0.1	12594
29919	2.9	3.	0.1	12395
29920	2.9	2.8182	0.1	12594
29921	2.9	2.6364	0.1	13260
29922	2.9	2.4545	0.1	14645
29923	2.9	2.2727	0.1	17582
29924	2.9	2.0909	0.1	23758
29925	3.0667	5.7273	0.1	691.5
29926	3.0667	5.9091	0.1	272.69
29927	3.0667	5.8182	5.e-002	121.2
29928	3.0667	5.5455	0.1	1044.7
29929	3.0667	5.6364	5.e-002	258.24
29930	3.0667	5.3636	0.1	1375.2
29931	3.0667	5.4545	5.e-002	394.12
29932	3.0667	5.1818	0.1	1719.1
29933	3.0667	5.2727	5.e-002	541.13
29934	3.0667	5.	0.1	2102.9
29935	3.0667	5.0909	5.e-002	707.03
29936	3.0667	4.8182	0.1	2559.3
29937	3.0667	4.9091	5.e-002	903.16
29938	3.0667	4.6364	0.1	3152.2
29939	3.0667	4.7273	5.e-002	1149.
29940	3.0667	4.4545	0.1	3961.1
29941	3.0667	4.5455	5.e-002	1477.9
29942	3.0667	4.2727	0.1	5557.1
29943	3.0667	4.3636	5.e-002	2003.8
29944	3.0667	4.0909	0.1	15363
29945	3.0667	4.1818	5.e-002	3325.7
29946	2.9833	4.	0.1	24954
29947	3.0667	4.	5.e-002	2878.9
29948	2.9	4.0909	0.1	16152
29949	2.9	4.	5.e-002	3076.9
29950	2.9	4.2727	0.1	6416.9
29951	2.9	4.1818	5.e-002	3617.2
29952	2.9	4.4545	0.1	4813.6
29953	2.9	4.3636	5.e-002	2231.5
29954	2.9	4.6364	0.1	3990.4
29955	2.9	4.5455	5.e-002	1679.5
29956	2.9	4.8182	0.1	3356.9
29957	2.9	4.7273	5.e-002	1325.4
29958	2.9	5.	0.1	2839.8
29959	2.9	4.9091	5.e-002	1056.7
29960	2.9	5.1818	0.1	2375.4
29961	2.9	5.0909	5.e-002	838.14
29962	2.9	5.3636	0.1	1931.1
29963	2.9	5.2727	5.e-002	649.47
29964	2.9	5.5455	0.1	1478.6
29965	2.9	5.4545	5.e-002	478.4
29966	2.9	5.7273	0.1	975.96
29967	2.9	5.6364	5.e-002	316.38
29968	2.9	5.9091	0.1	379.05
29969	2.9	5.8182	5.e-002	147.29
29970	3.0667	0.27273	0.1	691.5
29971	3.0667	9.0909e-002	0.1	272.69
29972	3.0667	0.18182	5.e-002	121.2
29973	3.0667	0.45455	0.1	1044.7
29974	3.0667	0.36364	5.e-002	258.24
29975	3.0667	0.63636	0.1	1375.2
29976	3.0667	0.54545	5.e-002	394.12
29977	3.0667	0.81818	0.1	1719.1
29978	3.0667	0.72727	5.e-002	541.13
29979	3.0667	1.	0.1	2102.9
29980	3.0667	0.90909	5.e-002	707.03
29981	3.0667	1.1818	0.1	2559.3
29982	3.0667	1.0909	5.e-002	903.16
29983	3.0667	1.3636	0.1	3152.2
29984	3.0667	1.2727	5.e-002	1149.
29985	3.0667	1.5455	0.1	3961.1
29986	3.0667	1.4545	5.e-002	1477.9
29987	3.0667	1.7273	0.1	5557.1
29988	3.0667	1.6364	5.e-002	2003.8
29989	3.0667	1.9091	0.1	15363
29990	3.0667	1.8182	5.e-002	3325.7
29991	2.9833	2.	0.1	24954
29992	3.0667	2.	5.e-002	2878.9
29993	2.9	1.9091	0.1	16152
29994	2.9	2.	5.e-002	3076.9
29995	2.9	1.7273	0.1	6416.9
29996	2.9	1.8182	5.e-002	3617.2
29997	2.9	1.5455	0.1	4813.6
29998	2.9	1.6364	5.e-002	2231.5
29999	2.9	1.3636	0.1	3990.4
30000	2.9	1.4545	5.e-002	1679.5
30001	2.9	1.1818	0.1	3356.9
30002	2.9	1.2727	5.e-002	1325.4
30003	2.9	1.	0.1	2839.8
30004	2.9	1.0909	5.e-002	1056.7
30005	2.9	0.81818	0.1	2375.4
30006	2.9	0.90909	5.e-002	838.14
30007	2.9	0.63636	0.1	1931.1
30008	2.9	0.72727	5.e-002	649.47
30009	2.9	0.45455	0.1	1478.6
30010	2.9	0.54545	5.e-002	478.4
30011	2.9	0.27273	0.1	975.96
30012	2.9	0.36364	5.e-002	316.38
30013	2.9	9.0909e-002	0.1	379.05
30014	2.9	0.18182	5.e-002	147.29
30015	3.1585	6.	0.1	360.83
30016	3.0667	6.	5.e-002	37.247
30017	3.3421	6.	0.1	1002.6
30018	3.2503	6.	5.e-002	26.015
30019	3.5257	6.	0.1	1619.
30020	3.4339	6.	5.e-002	68.82
30021	3.7094	6.	0.1	2164.9
30022	3.6175	6.	5.e-002	89.052
30023	3.893	6.	0.1	2642.6
30024	3.8012	6.	5.e-002	98.268
30025	4.0766	6.	0.1	3051.2
30026	3.9848	6.	5.e-002	99.721
30027	4.2602	6.	0.1	3392.
30028	4.1684	6.	5.e-002	96.43
30029	4.4439	6.	0.1	3669.4
30030	4.352	6.	5.e-002	90.48
30031	4.6275	6.	0.1	3889.6
30032	4.5357	6.	5.e-002	83.39
30033	4.8111	6.	0.1	4060.
30034	4.7193	6.	5.e-002	76.182
30035	4.9947	6.	0.1	4187.7
30036	4.9029	6.	5.e-002	69.492
30037	5.1784	6.	0.1	4279.6
30038	5.0866	6.	5.e-002	63.672
30039	5.362	6.	0.1	4341.9
30040	5.2702	6.	5.e-002	58.876
30041	5.5456	6.	0.1	4380.
30042	5.4538	6.	5.e-002	55.127
30043	5.7292	6.	0.1	4398.6
30044	5.6374	6.	5.e-002	52.369
30045	5.9129	6.	0.1	4401.3
30046	5.8211	6.	5.e-002	50.502
30047	6.0965	6.	0.1	4391.4
30048	6.0047	6.	5.e-002	49.404
30049	6.2801	6.	0.1	4371.6
30050	6.1883	6.	5.e-002	48.954
30051	6.4637	6.	0.1	4343.7
30052	6.3719	6.	5.e-002	49.031
30053	6.6474	6.	0.1	4309.7
30054	6.5556	6.	5.e-002	49.527
30055	6.831	6.	0.1	4270.8
30056	6.7392	6.	5.e-002	50.347
30057	7.0146	6.	0.1	4228.1
30058	6.9228	6.	5.e-002	51.407
30059	7.1982	6.	0.1	4182.6
30060	7.1064	6.	5.e-002	52.639
30061	7.3819	6.	0.1	4134.7
30062	7.2901	6.	5.e-002	53.983
30063	7.5655	6.	0.1	4085.3
30064	7.4737	6.	5.e-002	55.393
30065	7.7491	6.	0.1	4034.5
30066	7.6573	6.	5.e-002	56.831
30067	7.9327	6.	0.1	3982.8
30068	7.8409	6.	5.e-002	58.267
30069	8.1164	6.	0.1	3930.5
30070	8.0246	6.	5.e-002	59.678
30071	8.3	6.	0.1	3877.8
30072	8.2082	6.	5.e-002	61.045
30073	8.4836	6.	0.1	3824.7
30074	8.3918	6.	5.e-002	62.356
30075	8.6673	6.	0.1	3771.5
30076	8.5754	6.	5.e-002	63.602
30077	8.8509	6.	0.1	3718.3
30078	8.7591	6.	5.e-002	64.777
30079	9.0345	6.	0.1	3665.1
30080	8.9427	6.	5.e-002	65.876
30081	9.2181	6.	0.1	3611.9
30082	9.1263	6.	5.e-002	66.898
30083	9.4018	6.	0.1	3558.8
30084	9.3099	6.	5.e-002	67.842
30085	9.5854	6.	0.1	3505.9
30086	9.4936	6.	5.e-002	68.71
30087	9.769	6.	0.1	3453.2
30088	9.6772	6.	5.e-002	69.503
30089	9.9526	6.	0.1	3400.7
30090	9.8608	6.	5.e-002	70.224
30091	10.136	6.	0.1	3348.4
30092	10.044	6.	5.e-002	70.874
30093	10.32	6.	0.1	3296.2
30094	10.228	6.	5.e-002	71.458
30095	10.504	6.	0.1	3244.4
30096	10.412	6.	5.e-002	71.979
30097	10.687	6.	0.1	3192.7
30098	10.595	6.	5.e-002	72.439
30099	10.871	6.	0.1	3141.3
30100	10.779	6.	5.e-002	72.843
30101	11.054	6.	0.1	3090.
30102	10.963	6.	5.e-002	73.193
30103	11.238	6.	0.1	3039.1
30104	11.146	6.	5.e-002	73.492
30105	11.422	6.	0.1	2988.3
30106	11.33	6.	5.e-002	73.745
30107	11.605	6.	0.1	2937.8
30108	11.513	6.	5.e-002	73.953
30109	11.789	6.	0.1	2887.5
30110	11.697	6.	5.e-002	74.12
30111	11.973	6.	0.1	2837.4
30112	11.881	6.	5.e-002	74.248
30113	12.156	6.	0.1	2787.6
30114	12.064	6.	5.e-002	74.341
30115	12.34	6.	0.1	2737.9
30116	12.248	6.	5.e-002	74.399
30117	12.523	6.	0.1	2688.5
30118	12.432	6.	5.e-002	74.425
30119	12.707	6.	0.1	2639.4
30120	12.615	6.	5.e-002	74.422
30121	12.891	6.	0.1	2590.4
30122	12.799	6.	5.e-002	74.391
30123	13.074	6.	0.1	2541.6
30124	12.982	6.	5.e-002	74.334
30125	13.258	6.	0.1	2493.1
30126	13.166	6.	5.e-002	74.253
30127	13.442	6.	0.1	2444.8
30128	13.35	6.	5.e-002	74.148
30129	13.625	6.	0.1	2396.7
30130	13.533	6.	5.e-002	74.022
30131	13.809	6.	0.1	2348.8
30132	13.717	6.	5.e-002	73.875
30133	13.992	6.	0.1	2301.1
30134	13.901	6.	5.e-002	73.709
30135	14.176	6.	0.1	2253.6
30136	14.084	6.	5.e-002	73.525
30137	14.36	6.	0.1	2206.3
30138	14.268	6.	5.e-002	73.322
30139	14.543	6.	0.1	2159.3
30140	14.451	6.	5.e-002	73.103
30141	14.727	6.	0.1	2112.4
30142	14.635	6.	5.e-002	72.867
30143	14.911	6.	0.1	2065.7
30144	14.819	6.	5.e-002	72.616
30145	15.094	6.	0.1	2019.3
30146	15.002	6.	5.e-002	72.349
30147	15.278	6.	0.1	1973.
30148	15.186	6.	5.e-002	72.067
30149	15.461	6.	0.1	1927.
30150	15.37	6.	5.e-002	71.77
30151	15.645	6.	0.1	1881.1
30152	15.553	6.	5.e-002	71.458
30153	15.829	6.	0.1	1835.5
30154	15.737	6.	5.e-002	71.132
30155	16.012	6.	0.1	1790.
30156	15.92	6.	5.e-002	70.791
30157	16.196	6.	0.1	1744.7
30158	16.104	6.	5.e-002	70.435
30159	16.38	6.	0.1	1699.7
30160	16.288	6.	5.e-002	70.064
30161	16.563	6.	0.1	1654.8
30162	16.471	6.	5.e-002	69.677
30163	16.747	6.	0.1	1610.1
30164	16.655	6.	5.e-002	69.275
30165	16.93	6.	0.1	1565.6
30166	16.839	6.	5.e-002	68.856
30167	17.114	6.	0.1	1521.3
30168	17.022	6.	5.e-002	68.42
30169	17.298	6.	0.1	1477.2
30170	17.206	6.	5.e-002	67.966
30171	17.481	6.	0.1	1433.3
30172	17.389	6.	5.e-002	67.493
30173	17.665	6.	0.1	1389.6
30174	17.573	6.	5.e-002	67.001
30175	17.849	6.	0.1	1346.1
30176	17.757	6.	5.e-002	66.488
30177	18.032	6.	0.1	1302.7
30178	17.94	6.	5.e-002	65.952
30179	18.216	6.	0.1	1259.5
30180	18.124	6.	5.e-002	65.394
30181	18.399	6.	0.1	1216.5
30182	18.308	6.	5.e-002	64.81
30183	18.583	6.	0.1	1173.7
30184	18.491	6.	5.e-002	64.2
30185	18.767	6.	0.1	1131.1
30186	18.675	6.	5.e-002	63.561
30187	18.95	6.	0.1	1088.6
30188	18.858	6.	5.e-002	62.891
30189	19.134	6.	0.1	1046.3
30190	19.042	6.	5.e-002	62.189
30191	19.318	6.	0.1	1004.2
30192	19.226	6.	5.e-002	61.452
30193	19.501	6.	0.1	962.22
30194	19.409	6.	5.e-002	60.676
30195	19.685	6.	0.1	920.43
30196	19.593	6.	5.e-002	59.86
30197	19.868	6.	0.1	878.8
30198	19.777	6.	5.e-002	58.999
30199	20.052	6.	0.1	837.34
30200	19.96	6.	5.e-002	58.091
30201	20.236	6.	0.1	796.03
30202	20.144	6.	5.e-002	57.131
30203	20.419	6.	0.1	754.87
30204	20.327	6.	5.e-002	56.116
30205	20.603	6.	0.1	713.88
30206	20.511	6.	5.e-002	55.041
30207	20.787	6.	0.1	673.03
30208	20.695	6.	5.e-002	53.9
30209	20.97	6.	0.1	632.34
30210	20.878	6.	5.e-002	52.687
30211	21.154	6.	0.1	591.8
30212	21.062	6.	5.e-002	51.398
30213	21.337	6.	0.1	551.41
30214	21.246	6.	5.e-002	50.024
30215	21.521	6.	0.1	511.17
30216	21.429	6.	5.e-002	48.558
30217	21.705	6.	0.1	471.1
30218	21.613	6.	5.e-002	46.99
30219	21.888	6.	0.1	431.19
30220	21.796	6.	5.e-002	45.311
30221	22.072	6.	0.1	391.46
30222	21.98	6.	5.e-002	43.508
30223	22.256	6.	0.1	351.93
30224	22.164	6.	5.e-002	41.568
30225	22.439	6.	0.1	312.61
30226	22.347	6.	5.e-002	39.474
30227	22.623	6.	0.1	273.53
30228	22.531	6.	5.e-002	37.206
30229	22.806	6.	0.1	234.75
30230	22.715	6.	5.e-002	34.736
30231	22.99	6.	0.1	196.34
30232	22.898	6.	5.e-002	32.033
30233	23.174	6.	0.1	158.39
30234	23.082	6.	5.e-002	29.049
30235	23.357	6.	0.1	121.09
30236	23.265	6.	5.e-002	25.719
30237	23.541	6.	0.1	84.726
30238	23.449	6.	5.e-002	21.938
30239	23.725	6.	0.1	49.97
30240	23.633	6.	5.e-002	17.507
30241	23.908	6.	0.1	18.534
30242	23.816	6.	5.e-002	11.796
30243	24.	5.9091	0.1	5.8589
30244	24.	6.	5.e-002	4.5319
30245	24.	5.7273	0.1	6.8974
30246	24.	5.8182	5.e-002	4.0343
30247	24.	5.5455	0.1	7.1499
30248	24.	5.6364	5.e-002	4.6264
30249	24.	5.3636	0.1	7.2313
30250	24.	5.4545	5.e-002	5.1394
30251	24.	5.1818	0.1	7.2404
30252	24.	5.2727	5.e-002	5.4171
30253	24.	5.	0.1	7.2099
30254	24.	5.0909	5.e-002	5.5431
30255	24.	4.8182	0.1	7.1648
30256	24.	4.9091	5.e-002	5.5643
30257	24.	4.6364	0.1	7.1135
30258	24.	4.7273	5.e-002	5.5121
30259	24.	4.4545	0.1	7.0616
30260	24.	4.5455	5.e-002	5.4099
30261	24.	4.2727	0.1	7.0123
30262	24.	4.3636	5.e-002	5.2755
30263	24.	4.0909	0.1	6.9674
30264	24.	4.1818	5.e-002	5.1236
30265	24.	3.9091	0.1	6.9282
30266	24.	4.	5.e-002	4.9669
30267	24.	3.7273	0.1	6.8954
30268	24.	3.8182	5.e-002	4.8166
30269	24.	3.5455	0.1	6.8695
30270	24.	3.6364	5.e-002	4.6825
30271	24.	3.3636	0.1	6.8508
30272	24.	3.4545	5.e-002	4.5733
30273	24.	3.1818	0.1	6.8395
30274	24.	3.2727	5.e-002	4.4962
30275	24.	3.	0.1	6.8357
30276	24.	3.0909	5.e-002	4.4563
30277	24.	2.8182	0.1	6.8395
30278	24.	2.9091	5.e-002	4.4563
30279	24.	2.6364	0.1	6.8508
30280	24.	2.7273	5.e-002	4.4962
30281	24.	2.4545	0.1	6.8695
30282	24.	2.5455	5.e-002	4.5733
30283	24.	2.2727	0.1	6.8954
30284	24.	2.3636	5.e-002	4.6824
30285	24.	2.0909	0.1	6.9282
30286	24.	2.1818	5.e-002	4.8165
30287	24.	1.9091	0.1	6.9674
30288	24.	2.	5.e-002	4.9669
30289	24.	1.7273	0.1	7.0123
30290	24.	1.8182	5.e-002	5.1236
30291	24.	1.5455	0.1	7.0616
30292	24.	1.6364	5.e-002	5.2754
30293	24.	1.3636	0.1	7.1135
30294	24.	1.4545	5.e-002	5.4098
30295	24.	1.1818	0.1	7.1648
30296	24.	1.2727	5.e-002	5.5121
30297	24.	1.	0.1	7.2099
30298	24.	1.0909	5.e-002	5.5642
30299	24.	0.81818	0.1	7.2404
30300	24.	0.90909	5.e-002	5.5431
30301	24.	0.63636	0.1	7.2313
30302	24.	0.72727	5.e-002	5.4171
30303	24.	0.45455	0.1	7.1499
30304	24.	0.54545	5.e-002	5.1394
30305	24.	0.27273	0.1	6.8974
30306	24.	0.36364	5.e-002	4.6263
30307	24.	9.0909e-002	0.1	5.8589
30308	24.	0.18182	5.e-002	4.0343
30309	2.3842e-015	0.27273	0.1	3609.5
30310	7.9472e-016	9.0909e-002	0.1	1510.6
30311	1.6109e-015	0.18182	5.e-002	82.39
30312	3.9736e-015	0.45455	0.1	5201.4
30313	3.2219e-015	0.36364	5.e-002	56.914
30314	5.563e-015	0.63636	0.1	6040.3
30315	4.8328e-015	0.54545	5.e-002	53.108
30316	7.1525e-015	0.81818	0.1	6577.5
30317	6.4438e-015	0.72727	5.e-002	47.745
30318	8.7419e-015	1.	0.1	6947.2
30319	8.0547e-015	0.90909	5.e-002	41.195
30320	1.0331e-014	1.1818	0.1	7213.4
30321	9.6657e-015	1.0909	5.e-002	34.933
30322	1.1921e-014	1.3636	0.1	7408.7
30323	1.1277e-014	1.2727	5.e-002	29.127
30324	1.351e-014	1.5455	0.1	7552.8
30325	1.2888e-014	1.4545	5.e-002	23.688
30326	1.51e-014	1.7273	0.1	7658.7
30327	1.4498e-014	1.6364	5.e-002	18.604
30328	1.6689e-014	1.9091	0.1	7735.8
30329	1.6109e-014	1.8182	5.e-002	13.908
30330	1.8279e-014	2.0909	0.1	7791.1
30331	1.772e-014	2.	5.e-002	9.6712
30332	1.9868e-014	2.2727	0.1	7830.1
30333	1.9331e-014	2.1818	5.e-002	5.98
30334	2.1457e-014	2.4545	0.1	7856.6
30335	2.0942e-014	2.3636	5.e-002	2.9249
30336	2.3047e-014	2.6364	0.1	7873.7
30337	2.2553e-014	2.5455	5.e-002	0.62079
30338	2.4636e-014	2.8182	0.1	7883.3
30339	2.4164e-014	2.7273	5.e-002	1.0808
30340	2.6226e-014	3.	0.1	7886.3
30341	2.5775e-014	2.9091	5.e-002	1.872
30342	2.7815e-014	3.1818	0.1	7883.3
30343	2.7386e-014	3.0909	5.e-002	1.872
30344	2.9405e-014	3.3636	0.1	7873.7
30345	2.8997e-014	3.2727	5.e-002	1.0807
30346	3.0994e-014	3.5455	0.1	7856.6
30347	3.0608e-014	3.4545	5.e-002	0.62056
30348	3.2583e-014	3.7273	0.1	7830.1
30349	3.2219e-014	3.6364	5.e-002	2.9246
30350	3.4173e-014	3.9091	0.1	7791.1
30351	3.383e-014	3.8182	5.e-002	5.9798
30352	3.5762e-014	4.0909	0.1	7735.8
30353	3.5441e-014	4.	5.e-002	9.671
30354	3.7352e-014	4.2727	0.1	7658.7
30355	3.7052e-014	4.1818	5.e-002	13.908
30356	3.8941e-014	4.4545	0.1	7552.8
30357	3.8663e-014	4.3636	5.e-002	18.603
30358	4.0531e-014	4.6364	0.1	7408.7
30359	4.0274e-014	4.5455	5.e-002	23.688
30360	4.212e-014	4.8182	0.1	7213.4
30361	4.1885e-014	4.7273	5.e-002	29.127
30362	4.371e-014	5.	0.1	6947.2
30363	4.3495e-014	4.9091	5.e-002	34.932
30364	4.5299e-014	5.1818	0.1	6577.5
30365	4.5106e-014	5.0909	5.e-002	41.195
30366	4.6888e-014	5.3636	0.1	6040.3
30367	4.6717e-014	5.2727	5.e-002	47.745
30368	4.8478e-014	5.5455	0.1	5201.4
30369	4.8328e-014	5.4545	5.e-002	53.108
30370	5.0067e-014	5.7273	0.1	3609.5
30371	4.9939e-014	5.6364	5.e-002	56.914
30372	5.1657e-014	5.9091	0.1	1510.6
30373	5.155e-014	5.8182	5.e-002	82.39
30374	23.908	0.	0.1	18.534
30375	24.	0.	5.e-002	4.5319
30376	23.725	0.	0.1	49.97
30377	23.816	0.	5.e-002	11.796
30378	23.541	0.	0.1	84.726
30379	23.633	0.	5.e-002	17.507
30380	23.357	0.	0.1	121.09
30381	23.449	0.	5.e-002	21.938
30382	23.174	0.	0.1	158.39
30383	23.265	0.	5.e-002	25.719
30384	22.99	0.	0.1	196.34
30385	23.082	0.	5.e-002	29.049
30386	22.806	0.	0.1	234.75
30387	22.898	0.	5.e-002	32.033
30388	22.623	0.	0.1	273.53
30389	22.715	0.	5.e-002	34.736
30390	22.439	0.	0.1	312.61
30391	22.531	0.	5.e-002	37.205
30392	22.256	0.	0.1	351.93
30393	22.347	0.	5.e-002	39.474
30394	22.072	0.	0.1	391.46
30395	22.164	0.	5.e-002	41.568
30396	21.888	0.	0.1	431.19
30397	21.98	0.	5.e-002	43.508
30398	21.705	0.	0.1	471.1
30399	21.796	0.	5.e-002	45.311
30400	21.521	0.	0.1	511.17
30401	21.613	0.	5.e-002	46.99
30402	21.337	0.	0.1	551.41
30403	21.429	0.	5.e-002	48.558
30404	21.154	0.	0.1	591.8
30405	21.246	0.	5.e-002	50.024
30406	20.97	0.	0.1	632.34
30407	21.062	0.	5.e-002	51.398
30408	20.787	0.	0.1	673.03
30409	20.878	0.	5.e-002	52.687
30410	20.603	0.	0.1	713.88
30411	20.695	0.	5.e-002	53.9
30412	20.419	0.	0.1	754.87
30413	20.511	0.	5.e-002	55.041
30414	20.236	0.	0.1	796.03
30415	20.327	0.	5.e-002	56.116
30416	20.052	0.	0.1	837.34
30417	20.144	0.	5.e-002	57.131
30418	19.868	0.	0.1	878.8
30419	19.96	0.	5.e-002	58.091
30420	19.685	0.	0.1	920.43
30421	19.777	0.	5.e-002	58.999
30422	19.501	0.	0.1	962.22
30423	19.593	0.	5.e-002	59.86
30424	19.318	0.	0.1	1004.2
30425	19.409	0.	5.e-002	60.676
30426	19.134	0.	0.1	1046.3
30427	19.226	0.	5.e-002	61.452
30428	18.95	0.	0.1	1088.6
30429	19.042	0.	5.e-002	62.189
30430	18.767	0.	0.1	1131.1
30431	18.858	0.	5.e-002	62.891
30432	18.583	0.	0.1	1173.7
30433	18.675	0.	5.e-002	63.561
30434	18.399	0.	0.1	1216.5
30435	18.491	0.	5.e-002	64.2
30436	18.216	0.	0.1	1259.5
30437	18.308	0.	5.e-002	64.81
30438	18.032	0.	0.1	1302.7
30439	18.124	0.	5.e-002	65.394
30440	17.849	0.	0.1	1346.1
30441	17.94	0.	5.e-002	65.952
30442	17.665	0.	0.1	1389.6
30443	17.757	0.	5.e-002	66.488
30444	17.481	0.	0.1	1433.3
30445	17.573	0.	5.e-002	67.001
30446	17.298	0.	0.1	1477.2
30447	17.389	0.	5.e-002	67.493
30448	17.114	0.	0.1	1521.3
30449	17.206	0.	5.e-002	67.966
30450	16.93	0.	0.1	1565.6
30451	17.022	0.	5.e-002	68.42
30452	16.747	0.	0.1	1610.1
30453	16.839	0.	5.e-002	68.856
30454	16.563	0.	0.1	1654.8
30455	16.655	0.	5.e-002	69.275
30456	16.38	0.	0.1	1699.7
30457	16.471	0.	5.e-002	69.677
30458	16.196	0.	0.1	1744.7
30459	16.288	0.	5.e-002	70.064
30460	16.012	0.	0.1	1790.
30461	16.104	0.	5.e-002	70.435
30462	15.829	0.	0.1	1835.5
30463	15.92	0.	5.e-002	70.791
30464	15.645	0.	0.1	1881.1
30465	15.737	0.	5.e-002	71.132
30466	15.461	0.	0.1	1927.
30467	15.553	0.	5.e-002	71.458
30468	15.278	0.	0.1	1973.
30469	15.37	0.	5.e-002	71.77
30470	15.094	0.	0.1	2019.3
30471	15.186	0.	5.e-002	72.067
30472	14.911	0.	0.1	2065.7
30473	15.002	0.	5.e-002	72.349
30474	14.727	0.	0.1	2112.4
30475	14.819	0.	5.e-002	72.616
30476	14.543	0.	0.1	2159.3
30477	14.635	0.	5.e-002	72.867
30478	14.36	0.	0.1	2206.3
30479	14.451	0.	5.e-002	73.103
30480	14.176	0.	0.1	2253.6
30481	14.268	0.	5.e-002	73.322
30482	13.992	0.	0.1	2301.1
30483	14.084	0.	5.e-002	73.525
30484	13.809	0.	0.1	2348.8
30485	13.901	0.	5.e-002	73.709
30486	13.625	0.	0.1	2396.7
30487	13.717	0.	5.e-002	73.875
30488	13.442	0.	0.1	2444.8
30489	13.533	0.	5.e-002	74.022
30490	13.258	0.	0.1	2493.1
30491	13.35	0.	5.e-002	74.148
30492	13.074	0.	0.1	2541.6
30493	13.166	0.	5.e-002	74.253
30494	12.891	0.	0.1	2590.4
30495	12.982	0.	5.e-002	74.334
30496	12.707	0.	0.1	2639.4
30497	12.799	0.	5.e-002	74.391
30498	12.523	0.	0.1	2688.5
30499	12.615	0.	5.e-002	74.422
30500	12.34	0.	0.1	2737.9
30501	12.432	0.	5.e-002	74.425
30502	12.156	0.	0.1	2787.6
30503	12.248	0.	5.e-002	74.399
30504	11.973	0.	0.1	2837.4
30505	12.064	0.	5.e-002	74.341
30506	11.789	0.	0.1	2887.5
30507	11.881	0.	5.e-002	74.248
30508	11.605	0.	0.1	2937.8
30509	11.697	0.	5.e-002	74.12
30510	11.422	0.	0.1	2988.3
30511	11.513	0.	5.e-002	73.953
30512	11.238	0.	0.1	3039.1
30513	11.33	0.	5.e-002	73.745
30514	11.054	0.	0.1	3090.
30515	11.146	0.	5.e-002	73.492
30516	10.871	0.	0.1	3141.3
30517	10.963	0.	5.e-002	73.193
30518	10.687	0.	0.1	3192.7
30519	10.779	0.	5.e-002	72.843
30520	10.504	0.	0.1	3244.4
30521	10.595	0.	5.e-002	72.439
30522	10.32	0.	0.1	3296.2
30523	10.412	0.	5.e-002	71.979
30524	10.136	0.	0.1	3348.4
30525	10.228	0.	5.e-002	71.458
30526	9.9526	0.	0.1	3400.7
30527	10.044	0.	5.e-002	70.874
30528	9.769	0.	0.1	3453.2
30529	9.8608	0.	5.e-002	70.224
30530	9.5854	0.	0.1	3505.9
30531	9.6772	0.	5.e-002	69.503
30532	9.4018	0.	0.1	3558.8
30533	9.4936	0.	5.e-002	68.71
30534	9.2181	0.	0.1	3611.9
30535	9.3099	0.	5.e-002	67.842
30536	9.0345	0.	0.1	3665.1
30537	9.1263	0.	5.e-002	66.898
30538	8.8509	0.	0.1	3718.3
30539	8.9427	0.	5.e-002	65.876
30540	8.6673	0.	0.1	3771.5
30541	8.7591	0.	5.e-002	64.777
30542	8.4836	0.	0.1	3824.7
30543	8.5754	0.	5.e-002	63.602
30544	8.3	0.	0.1	3877.8
30545	8.3918	0.	5.e-002	62.357
30546	8.1164	0.	0.1	3930.5
30547	8.2082	0.	5.e-002	61.045
30548	7.9327	0.	0.1	3982.8
30549	8.0246	0.	5.e-002	59.678
30550	7.7491	0.	0.1	4034.5
30551	7.8409	0.	5.e-002	58.267
30552	7.5655	0.	0.1	4085.3
30553	7.6573	0.	5.e-002	56.831
30554	7.3819	0.	0.1	4134.7
30555	7.4737	0.	5.e-002	55.393
30556	7.1982	0.	0.1	4182.6
30557	7.2901	0.	5.e-002	53.983
30558	7.0146	0.	0.1	4228.1
30559	7.1064	0.	5.e-002	52.639
30560	6.831	0.	0.1	4270.8
30561	6.9228	0.	5.e-002	51.407
30562	6.6474	0.	0.1	4309.7
30563	6.7392	0.	5.e-002	50.347
30564	6.4637	0.	0.1	4343.8
30565	6.5556	0.	5.e-002	49.527
30566	6.2801	0.	0.1	4371.6
30567	6.3719	0.	5.e-002	49.031
30568	6.0965	0.	0.1	4391.4
30569	6.1883	0.	5.e-002	48.954
30570	5.9129	0.	0.1	4401.3
30571	6.0047	0.	5.e-002	49.404
30572	5.7292	0.	0.1	4398.6
30573	5.8211	0.	5.e-002	50.502
30574	5.5456	0.	0.1	4380.
30575	5.6374	0.	5.e-002	52.369
30576	5.362	0.	0.1	4341.9
30577	5.4538	0.	5.e-002	55.127
30578	5.1784	0.	0.1	4279.6
30579	5.2702	0.	5.e-002	58.876
30580	4.9947	0.	0.1	4187.7
30581	5.0866	0.	5.e-002	63.672
30582	4.8111	0.	0.1	4060.
30583	4.9029	0.	5.e-002	69.491
30584	4.6275	0.	0.1	3889.6
30585	4.7193	0.	5.e-002	76.182
30586	4.4439	0.	0.1	3669.4
30587	4.5357	0.	5.e-002	83.39
30588	4.2602	0.	0.1	3392.
30589	4.352	0.	5.e-002	90.48
30590	4.0766	0.	0.1	3051.2
30591	4.1684	0.	5.e-002	96.43
30592	3.893	0.	0.1	2642.6
30593	3.9848	0.	5.e-002	99.721
30594	3.7094	0.	0.1	2164.9
30595	3.8012	0.	5.e-002	98.268
30596	3.5257	0.	0.1	1619.
30597	3.6175	0.	5.e-002	89.052
30598	3.3421	0.	0.1	1002.6
30599	3.4339	0.	5.e-002	68.82
30600	3.1585	0.	0.1	360.83
30601	3.2503	0.	5.e-002	26.015
30602	3.0667	0.	5.e-002	37.247
30603	2.8094	6.464e-031	0.1	461.46
30604	2.9	6.6725e-031	5.e-002	49.427
30605	2.6281	6.047e-031	0.1	1272.7
30606	2.7188	0.	5.e-002	53.832
30607	2.4469	5.6299e-031	0.1	2035.9
30608	2.5375	0.	5.e-002	130.73
30609	2.2656	5.2129e-031	0.1	2710.4
30610	2.3563	0.	5.e-002	180.52
30611	2.0844	4.7959e-031	0.1	3306.
30612	2.175	0.	5.e-002	218.52
30613	1.9031	4.3788e-031	0.1	3822.9
30614	1.9937	0.	5.e-002	248.81
30615	1.7219	3.9618e-031	0.1	4261.4
30616	1.8125	0.	5.e-002	275.22
30617	1.5406	3.5448e-031	0.1	4622.8
30618	1.6313	0.	5.e-002	300.53
30619	1.3594	3.1277e-031	0.1	4908.1
30620	1.45	0.	5.e-002	327.01
30621	1.1781	2.7107e-031	0.1	5116.3
30622	1.2687	0.	5.e-002	356.52
30623	0.99687	2.2937e-031	0.1	5241.
30624	1.0875	0.	5.e-002	390.82
30625	0.81563	1.8766e-031	0.1	5266.9
30626	0.90625	0.	5.e-002	431.69
30627	0.63437	1.4596e-031	0.1	5156.1
30628	0.725	0.	5.e-002	481.97
30629	0.45312	1.0426e-031	0.1	4830.6
30630	0.54375	0.	5.e-002	545.21
30631	0.27187	6.2555e-032	0.1	4040.1
30632	0.3625	0.	5.e-002	633.8
30633	9.0625e-002	2.0852e-032	0.1	1961.9
30634	0.18125	0.	5.e-002	812.82
30635	0.	0.	5.e-002	1091.1
30636	9.0625e-002	6.	0.1	1961.9
30637	5.2451e-014	6.	5.e-002	1091.1
30638	0.27187	6.	0.1	4040.1
30639	0.18125	6.	5.e-002	812.82
30640	0.45312	6.	0.1	4830.6
30641	0.3625	6.	5.e-002	633.8
30642	0.63437	6.	0.1	5156.1
30643	0.54375	6.	5.e-002	545.21
30644	0.81563	6.	0.1	5266.9
30645	0.725	6.	5.e-002	481.97
30646	0.99687	6.	0.1	5241.
30647	0.90625	6.	5.e-002	431.69
30648	1.1781	6.	0.1	5116.3
30649	1.0875	6.	5.e-002	390.82
30650	1.3594	6.	0.1	4908.1
30651	1.2687	6.	5.e-002	356.52
30652	1.5406	6.	0.1	4622.8
30653	1.45	6.	5.e-002	327.01
30654	1.7219	6.	0.1	4261.4
30655	1.6313	6.	5.e-002	300.53
30656	1.9031	6.	0.1	3822.9
30657	1.8125	6.	5.e-002	275.22
30658	2.0844	6.	0.1	3306.
30659	1.9937	6.	5.e-002	248.81
30660	2.2656	6.	0.1	2710.4
30661	2.175	6.	5.e-002	218.52
30662	2.4469	6.	0.1	2035.9
30663	2.3563	6.	5.e-002	180.52
30664	2.6281	6.	0.1	1272.7
30665	2.5375	6.	5.e-002	130.73
30666	2.8094	6.	0.1	461.46
30667	2.7188	6.	5.e-002	53.832
30668	2.9	6.	5.e-002	49.427
30669	2.6281	6.	0.	43.351
30670	2.8094	6.	0.	13.771
30671	2.4469	6.	0.	58.044
30672	2.2656	6.	0.	67.268
30673	2.0844	6.	0.	72.25
30674	1.9031	6.	0.	75.033
30675	1.7219	6.	0.	77.364
30676	1.5406	6.	0.	80.462
30677	1.3594	6.	0.	85.421
30678	1.1781	6.	0.	93.321
30679	0.99687	6.	0.	105.76
30680	0.81563	6.	0.	124.72
30681	0.63437	6.	0.	155.82
30682	0.45312	6.	0.	208.36
30683	0.27187	6.	0.	324.95
30684	9.0625e-002	6.	0.	838.71
30685	2.9	5.9091	0.	34.275
30686	5.1657e-014	5.9091	0.	48.437
30687	0.27187	6.2555e-032	0.	324.95
30688	9.0625e-002	2.0852e-032	0.	838.71
30689	0.45312	1.0426e-031	0.	208.36
30690	0.63437	1.4596e-031	0.	155.82
30691	0.81563	1.8766e-031	0.	124.72
30692	0.99687	2.2937e-031	0.	105.76
30693	1.1781	2.7107e-031	0.	93.321
30694	1.3594	3.1277e-031	0.	85.421
30695	1.5406	3.5448e-031	0.	80.462
30696	1.7219	3.9618e-031	0.	77.364
30697	1.9031	4.3788e-031	0.	75.033
30698	2.0844	4.7959e-031	0.	72.25
30699	2.2656	5.2129e-031	0.	67.268
30700	2.4469	5.6299e-031	0.	58.044
30701	2.6281	6.047e-031	0.	43.351
30702	2.8094	6.464e-031	0.	13.771
30703	2.9	9.0909e-002	0.	34.275
30704	7.9472e-016	9.0909e-002	0.	48.438
30705	3.3421	0.	0.	23.239
30706	3.1585	0.	0.	7.7449
30707	3.5257	0.	0.	27.281
30708	3.7094	0.	0.	28.177
30709	3.893	0.	0.	26.553
30710	4.0766	0.	0.	23.641
30711	4.2602	0.	0.	20.341
30712	4.4439	0.	0.	17.093
30713	4.6275	0.	0.	14.135
30714	4.8111	0.	0.	11.559
30715	4.9947	0.	0.	9.3805
30716	5.1784	0.	0.	7.5758
30717	5.362	0.	0.	6.1041
30718	5.5456	0.	0.	4.9205
30719	5.7292	0.	0.	3.9819
30720	5.9129	0.	0.	3.2499
30721	6.0965	0.	0.	2.6913
30722	6.2801	0.	0.	2.2781
30723	6.4637	0.	0.	1.9864
30724	6.6474	0.	0.	1.7963
30725	6.831	0.	0.	1.6908
30726	7.0146	0.	0.	1.6553
30727	7.1982	0.	0.	1.6774
30728	7.3819	0.	0.	1.7465
30729	7.5655	0.	0.	1.8535
30730	7.7491	0.	0.	1.9906
30731	7.9327	0.	0.	2.151
30732	8.1164	0.	0.	2.3293
30733	8.3	0.	0.	2.5205
30734	8.4836	0.	0.	2.7209
30735	8.6673	0.	0.	2.927
30736	8.8509	0.	0.	3.1363
30737	9.0345	0.	0.	3.3466
30738	9.2181	0.	0.	3.5562
30739	9.4018	0.	0.	3.7636
30740	9.5854	0.	0.	3.968
30741	9.769	0.	0.	4.1685
30742	9.9526	0.	0.	4.3645
30743	10.136	0.	0.	4.5558
30744	10.32	0.	0.	4.7421
30745	10.504	0.	0.	4.9234
30746	10.687	0.	0.	5.0996
30747	10.871	0.	0.	5.2709
30748	11.054	0.	0.	5.4374
30749	11.238	0.	0.	5.5994
30750	11.422	0.	0.	5.757
30751	11.605	0.	0.	5.9105
30752	11.789	0.	0.	6.0603
30753	11.973	0.	0.	6.2067
30754	12.156	0.	0.	6.35
30755	12.34	0.	0.	6.4903
30756	12.523	0.	0.	6.6281
30757	12.707	0.	0.	6.7638
30758	12.891	0.	0.	6.8976
30759	13.074	0.	0.	7.0297
30760	13.258	0.	0.	7.1605
30761	13.442	0.	0.	7.2903
30762	13.625	0.	0.	7.4194
30763	13.809	0.	0.	7.5481
30764	13.992	0.	0.	7.6766
30765	14.176	0.	0.	7.8051
30766	14.36	0.	0.	7.934
30767	14.543	0.	0.	8.0634
30768	14.727	0.	0.	8.1937
30769	14.911	0.	0.	8.3251
30770	15.094	0.	0.	8.4576
30771	15.278	0.	0.	8.5917
30772	15.461	0.	0.	8.7274
30773	15.645	0.	0.	8.8651
30774	15.829	0.	0.	9.0049
30775	16.012	0.	0.	9.1469
30776	16.196	0.	0.	9.2914
30777	16.38	0.	0.	9.4386
30778	16.563	0.	0.	9.5886
30779	16.747	0.	0.	9.7415
30780	16.93	0.	0.	9.8976
30781	17.114	0.	0.	10.057
30782	17.298	0.	0.	10.219
30783	17.481	0.	0.	10.386
30784	17.665	0.	0.	10.555
30785	17.849	0.	0.	10.728
30786	18.032	0.	0.	10.905
30787	18.216	0.	0.	11.086
30788	18.399	0.	0.	11.27
30789	18.583	0.	0.	11.458
30790	18.767	0.	0.	11.649
30791	18.95	0.	0.	11.844
30792	19.134	0.	0.	12.042
30793	19.318	0.	0.	12.242
30794	19.501	0.	0.	12.446
30795	19.685	0.	0.	12.652
30796	19.868	0.	0.	12.859
30797	20.052	0.	0.	13.068
30798	20.236	0.	0.	13.277
30799	20.419	0.	0.	13.486
30800	20.603	0.	0.	13.693
30801	20.787	0.	0.	13.899
30802	20.97	0.	0.	14.1
30803	21.154	0.	0.	14.296
30804	21.337	0.	0.	14.484
30805	21.521	0.	0.	14.663
30806	21.705	0.	0.	14.829
30807	21.888	0.	0.	14.979
30808	22.072	0.	0.	15.108
30809	22.256	0.	0.	15.213
30810	22.439	0.	0.	15.285
30811	22.623	0.	0.	15.315
30812	22.806	0.	0.	15.291
30813	22.99	0.	0.	15.195
30814	23.174	0.	0.	14.997
30815	23.357	0.	0.	14.635
30816	23.541	0.	0.	14.054
30817	23.725	0.	0.	12.54
30818	23.908	0.	0.	8.6044
30819	3.0667	9.0909e-002	0.	30.224
30820	24.	9.0909e-002	0.	20.34
30821	5.0067e-014	5.7273	0.	-1698.4
30822	4.8478e-014	5.5455	0.	-2533.8
30823	4.6888e-014	5.3636	0.	-2962.3
30824	4.5299e-014	5.1818	0.	-3231.7
30825	4.371e-014	5.	0.	-3416.3
30826	4.212e-014	4.8182	0.	-3549.
30827	4.0531e-014	4.6364	0.	-3646.3
30828	3.8941e-014	4.4545	0.	-3718.1
30829	3.7352e-014	4.2727	0.	-3770.8
30830	3.5762e-014	4.0909	0.	-3809.3
30831	3.4173e-014	3.9091	0.	-3836.8
30832	3.2583e-014	3.7273	0.	-3856.3
30833	3.0994e-014	3.5455	0.	-3869.5
30834	2.9405e-014	3.3636	0.	-3878.1
30835	2.7815e-014	3.1818	0.	-3882.9
30836	2.6226e-014	3.	0.	-3884.4
30837	2.4636e-014	2.8182	0.	-3882.9
30838	2.3047e-014	2.6364	0.	-3878.1
30839	2.1457e-014	2.4545	0.	-3869.5
30840	1.9868e-014	2.2727	0.	-3856.3
30841	1.8279e-014	2.0909	0.	-3836.8
30842	1.6689e-014	1.9091	0.	-3809.3
30843	1.51e-014	1.7273	0.	-3770.8
30844	1.351e-014	1.5455	0.	-3718.1
30845	1.1921e-014	1.3636	0.	-3646.3
30846	1.0331e-014	1.1818	0.	-3549.
30847	8.7419e-015	1.	0.	-3416.3
30848	7.1525e-015	0.81818	0.	-3231.7
30849	5.563e-015	0.63636	0.	-2962.3
30850	3.9736e-015	0.45455	0.	-2533.8
30851	2.3842e-015	0.27273	0.	-1698.4
30852	24.	0.27273	0.	50.36
30853	24.	0.45455	0.	74.714
30854	24.	0.63636	0.	94.13
30855	24.	0.81818	0.	110.46
30856	24.	1.	0.	124.47
30857	24.	1.1818	0.	136.59
30858	24.	1.3636	0.	147.08
30859	24.	1.5455	0.	156.14
30860	24.	1.7273	0.	163.91
30861	24.	1.9091	0.	170.48
30862	24.	2.0909	0.	175.93
30863	24.	2.2727	0.	180.33
30864	24.	2.4545	0.	183.7
30865	24.	2.6364	0.	186.09
30866	24.	2.8182	0.	187.52
30867	24.	3.	0.	187.99
30868	24.	3.1818	0.	187.52
30869	24.	3.3636	0.	186.09
30870	24.	3.5455	0.	183.7
30871	24.	3.7273	0.	180.33
30872	24.	3.9091	0.	175.93
30873	24.	4.0909	0.	170.48
30874	24.	4.2727	0.	163.91
30875	24.	4.4545	0.	156.14
30876	24.	4.6364	0.	147.08
30877	24.	4.8182	0.	136.59
30878	24.	5.	0.	124.47
30879	24.	5.1818	0.	110.46
30880	24.	5.3636	0.	94.13
30881	24.	5.5455	0.	74.714
30882	24.	5.7273	0.	50.36
30883	24.	5.9091	0.	20.34
30884	23.908	6.	0.	8.6044
30885	23.725	6.	0.	12.541
30886	23.541	6.	0.	14.054
30887	23.357	6.	0.	14.635
30888	23.174	6.	0.	14.997
30889	22.99	6.	0.	15.195
30890	22.806	6.	0.	15.291
30891	22.623	6.	0.	15.315
30892	22.439	6.	0.	15.285
30893	22.256	6.	0.	15.213
30894	22.072	6.	0.	15.108
30895	21.888	6.	0.	14.979
30896	21.705	6.	0.	14.829
30897	21.521	6.	0.	14.663
30898	21.337	6.	0.	14.484
30899	21.154	6.	0.	14.296
30900	20.97	6.	0.	14.1
30901	20.787	6.	0.	13.899
30902	20.603	6.	0.	13.693
30903	20.419	6.	0.	13.486
30904	20.236	6.	0.	13.277
30905	20.052	6.	0.	13.068
30906	19.868	6.	0.	12.859
30907	19.685	6.	0.	12.652
30908	19.501	6.	0.	12.446
30909	19.318	6.	0.	12.242
30910	19.134	6.	0.	12.042
30911	18.95	6.	0.	11.844
30912	18.767	6.	0.	11.649
30913	18.583	6.	0.	11.458
30914	18.399	6.	0.	11.27
30915	18.216	6.	0.	11.086
30916	18.032	6.	0.	10.905
30917	17.849	6.	0.	10.728
30918	17.665	6.	0.	10.555
30919	17.481	6.	0.	10.386
30920	17.298	6.	0.	10.219
30921	17.114	6.	0.	10.057
30922	16.93	6.	0.	9.8976
30923	16.747	6.	0.	9.7416
30924	16.563	6.	0.	9.5886
30925	16.38	6.	0.	9.4386
30926	16.196	6.	0.	9.2915
30927	16.012	6.	0.	9.147
30928	15.829	6.	0.	9.0049
30929	15.645	6.	0.	8.8652
30930	15.461	6.	0.	8.7275
30931	15.278	6.	0.	8.5917
30932	15.094	6.	0.	8.4577
30933	14.911	6.	0.	8.3251
30934	14.727	6.	0.	8.1938
30935	14.543	6.	0.	8.0635
30936	14.36	6.	0.	7.934
30937	14.176	6.	0.	7.8052
30938	13.992	6.	0.	7.6767
30939	13.809	6.	0.	7.5482
30940	13.625	6.	0.	7.4195
30941	13.442	6.	0.	7.2904
30942	13.258	6.	0.	7.1606
30943	13.074	6.	0.	7.0297
30944	12.891	6.	0.	6.8976
30945	12.707	6.	0.	6.7638
30946	12.523	6.	0.	6.6282
30947	12.34	6.	0.	6.4904
30948	12.156	6.	0.	6.35
30949	11.973	6.	0.	6.2068
30950	11.789	6.	0.	6.0604
30951	11.605	6.	0.	5.9106
30952	11.422	6.	0.	5.757
30953	11.238	6.	0.	5.5994
30954	11.054	6.	0.	5.4375
30955	10.871	6.	0.	5.2709
30956	10.687	6.	0.	5.0996
30957	10.504	6.	0.	4.9234
30958	10.32	6.	0.	4.7422
30959	10.136	6.	0.	4.5559
30960	9.9526	6.	0.	4.3645
30961	9.769	6.	0.	4.1685
30962	9.5854	6.	0.	3.968
30963	9.4018	6.	0.	3.7637
30964	9.2181	6.	0.	3.5562
30965	9.0345	6.	0.	3.3466
30966	8.8509	6.	0.	3.1364
30967	8.6673	6.	0.	2.927
30968	8.4836	6.	0.	2.7209
30969	8.3	6.	0.	2.5205
30970	8.1164	6.	0.	2.3293
30971	7.9327	6.	0.	2.151
30972	7.7491	6.	0.	1.9906
30973	7.5655	6.	0.	1.8535
30974	7.3819	6.	0.	1.7465
30975	7.1982	6.	0.	1.6774
30976	7.0146	6.	0.	1.6553
30977	6.831	6.	0.	1.6908
30978	6.6474	6.	0.	1.7964
30979	6.4637	6.	0.	1.9864
30980	6.2801	6.	0.	2.2781
30981	6.0965	6.	0.	2.6913
30982	5.9129	6.	0.	3.2499
30983	5.7292	6.	0.	3.9819
30984	5.5456	6.	0.	4.9205
30985	5.362	6.	0.	6.1042
30986	5.1784	6.	0.	7.5758
30987	4.9947	6.	0.	9.3805
30988	4.8111	6.	0.	11.559
30989	4.6275	6.	0.	14.135
30990	4.4439	6.	0.	17.093
30991	4.2602	6.	0.	20.341
30992	4.0766	6.	0.	23.641
30993	3.893	6.	0.	26.553
30994	3.7094	6.	0.	28.177
30995	3.5257	6.	0.	27.281
30996	3.3421	6.	0.	23.239
30997	3.1585	6.	0.	7.7449
30998	3.0667	5.9091	0.	30.224
30999	2.9	1.7273	0.	4653.7
31000	2.9	1.9091	0.	4483.4
31001	2.9	1.5455	0.	2590.
31002	2.9	1.3636	0.	1967.7
31003	2.9	1.1818	0.	1455.6
31004	2.9	1.	0.	1088.8
31005	2.9	0.81818	0.	800.91
31006	2.9	0.63636	0.	564.68
31007	2.9	0.45455	0.	364.73
31008	2.9	0.27273	0.	192.07
31009	2.9833	2.	0.	2844.3
31010	3.0667	0.27273	0.	179.59
31011	3.0667	0.45455	0.	351.66
31012	3.0667	0.63636	0.	555.57
31013	3.0667	0.81818	0.	798.03
31014	3.0667	1.	0.	1092.
31015	3.0667	1.1818	0.	1462.1
31016	3.0667	1.3636	0.	1969.8
31017	3.0667	1.5455	0.	2587.5
31018	3.0667	1.7273	0.	4586.4
31019	3.0667	1.9091	0.	4513.3
31020	2.9	4.2727	0.	4653.7
31021	2.9	4.0909	0.	4483.4
31022	2.9	4.4545	0.	2590.
31023	2.9	4.6364	0.	1967.7
31024	2.9	4.8182	0.	1455.6
31025	2.9	5.	0.	1088.8
31026	2.9	5.1818	0.	800.91
31027	2.9	5.3636	0.	564.68
31028	2.9	5.5455	0.	364.73
31029	2.9	5.7273	0.	192.07
31030	2.9833	4.	0.	2844.3
31031	3.0667	5.7273	0.	179.59
31032	3.0667	5.5455	0.	351.66
31033	3.0667	5.3636	0.	555.57
31034	3.0667	5.1818	0.	798.03
31035	3.0667	5.	0.	1092.
31036	3.0667	4.8182	0.	1462.1
31037	3.0667	4.6364	0.	1969.8
31038	3.0667	4.4545	0.	2587.5
31039	3.0667	4.2727	0.	4586.4
31040	3.0667	4.0909	0.	4513.3
