Node Number	X Location (in)	Y Location (in)	Z Location (in)	Minimum Principal Stress (psi)
1	14.6	2.1818	0.	-7492.3
2	14.6	2.3636	0.	-5974.8
3	14.6	2.5455	0.	-5288.
4	14.6	2.7273	0.	-4937.7
5	14.6	2.9091	0.	-4788.2
6	14.6	3.0909	0.	-4788.2
7	14.6	3.2727	0.	-4937.7
8	14.6	3.4545	0.	-5288.
9	14.6	3.6364	0.	-5974.8
10	14.6	3.8182	0.	-7492.3
11	14.767	2.1818	0.	-7538.9
12	14.767	2.3636	0.	-5978.3
13	14.767	2.5455	0.	-5264.5
14	14.767	2.7273	0.	-4905.7
15	14.767	2.9091	0.	-4752.4
16	14.767	3.0909	0.	-4752.4
17	14.767	3.2727	0.	-4905.7
18	14.767	3.4545	0.	-5264.5
19	14.767	3.6364	0.	-5978.3
20	14.767	3.8182	0.	-7538.9
21	14.415	5.8182	0.	-421.97
22	14.415	5.6364	0.	-574.85
23	14.415	5.4545	0.	-752.66
24	14.415	5.2727	0.	-944.32
25	14.415	5.0909	0.	-1157.2
26	14.415	4.9091	0.	-1404.9
27	14.415	4.7273	0.	-1708.6
28	14.415	4.5455	0.	-2119.
29	14.415	4.3636	0.	-2706.5
30	14.415	4.1818	0.	-3891.6
31	14.415	4.	0.	-5437.5
32	14.415	3.8182	0.	-5537.5
33	14.415	3.6364	0.	-5277.9
34	14.415	3.4545	0.	-4936.7
35	14.415	3.2727	0.	-4733.5
36	14.415	3.0909	0.	-4635.3
37	14.415	2.9091	0.	-4635.3
38	14.415	2.7273	0.	-4733.5
39	14.415	2.5455	0.	-4936.7
40	14.415	2.3636	0.	-5277.9
41	14.415	2.1818	0.	-5537.5
42	14.415	2.	0.	-5437.5
43	14.415	1.8182	0.	-3891.6
44	14.415	1.6364	0.	-2706.5
45	14.415	1.4545	0.	-2119.
46	14.415	1.2727	0.	-1708.6
47	14.415	1.0909	0.	-1404.9
48	14.415	0.90909	0.	-1157.2
49	14.415	0.72727	0.	-944.32
50	14.415	0.54545	0.	-752.66
51	14.415	0.36364	0.	-574.85
52	14.415	0.18182	0.	-421.97
53	14.23	5.8182	0.	-684.1
54	14.23	5.6364	0.	-772.33
55	14.23	5.4545	0.	-907.17
56	14.23	5.2727	0.	-1073.
57	14.23	5.0909	0.	-1269.1
58	14.23	4.9091	0.	-1503.3
59	14.23	4.7273	0.	-1792.4
60	14.23	4.5455	0.	-2160.9
61	14.23	4.3636	0.	-2654.1
62	14.23	4.1818	0.	-3264.6
63	14.23	4.	0.	-3839.6
64	14.23	3.8182	0.	-4278.1
65	14.23	3.6364	0.	-4435.9
66	14.23	3.4545	0.	-4430.3
67	14.23	3.2727	0.	-4383.2
68	14.23	3.0909	0.	-4350.8
69	14.23	2.9091	0.	-4350.8
70	14.23	2.7273	0.	-4383.2
71	14.23	2.5455	0.	-4430.3
72	14.23	2.3636	0.	-4435.9
73	14.23	2.1818	0.	-4278.1
74	14.23	2.	0.	-3839.6
75	14.23	1.8182	0.	-3264.6
76	14.23	1.6364	0.	-2654.1
77	14.23	1.4545	0.	-2160.9
78	14.23	1.2727	0.	-1792.4
79	14.23	1.0909	0.	-1503.3
80	14.23	0.90909	0.	-1269.1
81	14.23	0.72727	0.	-1073.
82	14.23	0.54545	0.	-907.17
83	14.23	0.36364	0.	-772.33
84	14.23	0.18182	0.	-684.1
85	14.046	5.8182	0.	-956.85
86	14.046	5.6364	0.	-1023.7
87	14.046	5.4545	0.	-1131.5
88	14.046	5.2727	0.	-1274.7
89	14.046	5.0909	0.	-1452.3
90	14.046	4.9091	0.	-1667.5
91	14.046	4.7273	0.	-1927.4
92	14.046	4.5455	0.	-2241.4
93	14.046	4.3636	0.	-2606.1
94	14.046	4.1818	0.	-3000.1
95	14.046	4.	0.	-3374.
96	14.046	3.8182	0.	-3670.3
97	14.046	3.6364	0.	-3870.8
98	14.046	3.4545	0.	-3973.1
99	14.046	3.2727	0.	-4013.2
100	14.046	3.0909	0.	-4024.9
101	14.046	2.9091	0.	-4024.9
102	14.046	2.7273	0.	-4013.2
103	14.046	2.5455	0.	-3973.1
104	14.046	2.3636	0.	-3870.8
105	14.046	2.1818	0.	-3670.3
106	14.046	2.	0.	-3374.
107	14.046	1.8182	0.	-3000.1
108	14.046	1.6364	0.	-2606.1
109	14.046	1.4545	0.	-2241.4
110	14.046	1.2727	0.	-1927.4
111	14.046	1.0909	0.	-1667.5
112	14.046	0.90909	0.	-1452.3
113	14.046	0.72727	0.	-1274.7
114	14.046	0.54545	0.	-1131.5
115	14.046	0.36364	0.	-1023.7
116	14.046	0.18182	0.	-956.85
117	13.861	5.8182	0.	-1212.9
118	13.861	5.6364	0.	-1270.9
119	13.861	5.4545	0.	-1361.6
120	13.861	5.2727	0.	-1484.4
121	13.861	5.0909	0.	-1639.1
122	13.861	4.9091	0.	-1826.2
123	13.861	4.7273	0.	-2046.4
124	13.861	4.5455	0.	-2297.9
125	13.861	4.3636	0.	-2572.6
126	13.861	4.1818	0.	-2851.4
127	13.861	4.	0.	-3112.5
128	13.861	3.8182	0.	-3336.1
129	13.861	3.6364	0.	-3508.7
130	13.861	3.4545	0.	-3625.7
131	13.861	3.2727	0.	-3693.3
132	13.861	3.0909	0.	-3723.1
133	13.861	2.9091	0.	-3723.1
134	13.861	2.7273	0.	-3693.3
135	13.861	2.5455	0.	-3625.7
136	13.861	2.3636	0.	-3508.7
137	13.861	2.1818	0.	-3336.1
138	13.861	2.	0.	-3112.5
139	13.861	1.8182	0.	-2851.4
140	13.861	1.6364	0.	-2572.6
141	13.861	1.4545	0.	-2297.9
142	13.861	1.2727	0.	-2046.4
143	13.861	1.0909	0.	-1826.2
144	13.861	0.90909	0.	-1639.1
145	13.861	0.72727	0.	-1484.4
146	13.861	0.54545	0.	-1361.6
147	13.861	0.36364	0.	-1270.9
148	13.861	0.18182	0.	-1212.9
149	13.676	5.8182	0.	-1447.4
150	13.676	5.6364	0.	-1499.8
151	13.676	5.4545	0.	-1578.1
152	13.676	5.2727	0.	-1683.
153	13.676	5.0909	0.	-1814.4
154	13.676	4.9091	0.	-1971.4
155	13.676	4.7273	0.	-2151.8
156	13.676	4.5455	0.	-2350.6
157	13.676	4.3636	0.	-2559.4
158	13.676	4.1818	0.	-2766.5
159	13.676	4.	0.	-2960.2
160	13.676	3.8182	0.	-3130.6
161	13.676	3.6364	0.	-3270.2
162	13.676	3.4545	0.	-3374.
163	13.676	3.2727	0.	-3441.3
164	13.676	3.0909	0.	-3473.9
165	13.676	2.9091	0.	-3473.9
166	13.676	2.7273	0.	-3441.3
167	13.676	2.5455	0.	-3374.
168	13.676	2.3636	0.	-3270.2
169	13.676	2.1818	0.	-3130.6
170	13.676	2.	0.	-2960.2
171	13.676	1.8182	0.	-2766.5
172	13.676	1.6364	0.	-2559.4
173	13.676	1.4545	0.	-2350.6
174	13.676	1.2727	0.	-2151.8
175	13.676	1.0909	0.	-1971.4
176	13.676	0.90909	0.	-1814.4
177	13.676	0.72727	0.	-1683.
178	13.676	0.54545	0.	-1578.1
179	13.676	0.36364	0.	-1499.8
180	13.676	0.18182	0.	-1447.4
181	13.491	5.8182	0.	-1658.5
182	13.491	5.6364	0.	-1705.9
183	13.491	5.4545	0.	-1773.6
184	13.491	5.2727	0.	-1862.6
185	13.491	5.0909	0.	-1972.4
186	13.491	4.9091	0.	-2101.5
187	13.491	4.7273	0.	-2246.6
188	13.491	4.5455	0.	-2402.9
189	13.491	4.3636	0.	-2563.7
190	13.491	4.1818	0.	-2721.3
191	13.491	4.	0.	-2868.5
192	13.491	3.8182	0.	-2999.6
193	13.491	3.6364	0.	-3109.7
194	13.491	3.4545	0.	-3194.9
195	13.491	3.2727	0.	-3252.5
196	13.491	3.0909	0.	-3281.4
197	13.491	2.9091	0.	-3281.4
198	13.491	2.7273	0.	-3252.5
199	13.491	2.5455	0.	-3194.9
200	13.491	2.3636	0.	-3109.7
201	13.491	2.1818	0.	-2999.6
202	13.491	2.	0.	-2868.5
203	13.491	1.8182	0.	-2721.3
204	13.491	1.6364	0.	-2563.7
205	13.491	1.4545	0.	-2402.9
206	13.491	1.2727	0.	-2246.6
207	13.491	1.0909	0.	-2101.5
208	13.491	0.90909	0.	-1972.4
209	13.491	0.72727	0.	-1862.6
210	13.491	0.54545	0.	-1773.6
211	13.491	0.36364	0.	-1705.9
212	13.491	0.18182	0.	-1658.5
213	13.306	5.8182	0.	-1846.4
214	13.306	5.6364	0.	-1888.7
215	13.306	5.4545	0.	-1946.8
216	13.306	5.2727	0.	-2021.6
217	13.306	5.0909	0.	-2112.3
218	13.306	4.9091	0.	-2217.1
219	13.306	4.7273	0.	-2333.
220	13.306	4.5455	0.	-2455.8
221	13.306	4.3636	0.	-2580.4
222	13.306	4.1818	0.	-2701.8
223	13.306	4.	0.	-2815.1
224	13.306	3.8182	0.	-2916.4
225	13.306	3.6364	0.	-3002.3
226	13.306	3.4545	0.	-3069.7
227	13.306	3.2727	0.	-3116.1
228	13.306	3.0909	0.	-3139.7
229	13.306	2.9091	0.	-3139.7
230	13.306	2.7273	0.	-3116.1
231	13.306	2.5455	0.	-3069.7
232	13.306	2.3636	0.	-3002.3
233	13.306	2.1818	0.	-2916.4
234	13.306	2.	0.	-2815.1
235	13.306	1.8182	0.	-2701.8
236	13.306	1.6364	0.	-2580.4
237	13.306	1.4545	0.	-2455.8
238	13.306	1.2727	0.	-2333.
239	13.306	1.0909	0.	-2217.1
240	13.306	0.90909	0.	-2112.3
241	13.306	0.72727	0.	-2021.6
242	13.306	0.54545	0.	-1946.8
243	13.306	0.36364	0.	-1888.7
244	13.306	0.18182	0.	-1846.4
245	13.122	5.8182	0.	-2012.6
246	13.122	5.6364	0.	-2049.7
247	13.122	5.4545	0.	-2099.2
248	13.122	5.2727	0.	-2161.5
249	13.122	5.0909	0.	-2235.7
250	13.122	4.9091	0.	-2320.2
251	13.122	4.7273	0.	-2412.4
252	13.122	4.5455	0.	-2508.8
253	13.122	4.3636	0.	-2605.9
254	13.122	4.1818	0.	-2699.8
255	13.122	4.	0.	-2787.5
256	13.122	3.8182	0.	-2865.8
257	13.122	3.6364	0.	-2932.4
258	13.122	3.4545	0.	-2984.9
259	13.122	3.2727	0.	-3021.2
260	13.122	3.0909	0.	-3039.8
261	13.122	2.9091	0.	-3039.8
262	13.122	2.7273	0.	-3021.2
263	13.122	2.5455	0.	-2984.9
264	13.122	2.3636	0.	-2932.4
265	13.122	2.1818	0.	-2865.8
266	13.122	2.	0.	-2787.5
267	13.122	1.8182	0.	-2699.8
268	13.122	1.6364	0.	-2605.9
269	13.122	1.4545	0.	-2508.8
270	13.122	1.2727	0.	-2412.4
271	13.122	1.0909	0.	-2320.2
272	13.122	0.90909	0.	-2235.7
273	13.122	0.72727	0.	-2161.5
274	13.122	0.54545	0.	-2099.2
275	13.122	0.36364	0.	-2049.7
276	13.122	0.18182	0.	-2012.6
277	12.937	5.8182	0.	-2159.4
278	12.937	5.6364	0.	-2191.4
279	12.937	5.4545	0.	-2233.
280	12.937	5.2727	0.	-2284.5
281	12.937	5.0909	0.	-2344.9
282	12.937	4.9091	0.	-2412.7
283	12.937	4.7273	0.	-2485.8
284	12.937	4.5455	0.	-2561.6
285	12.937	4.3636	0.	-2637.3
286	12.937	4.1818	0.	-2710.3
287	12.937	4.	0.	-2778.2
288	12.937	3.8182	0.	-2838.8
289	12.937	3.6364	0.	-2890.2
290	12.937	3.4545	0.	-2930.7
291	12.937	3.2727	0.	-2958.8
292	12.937	3.0909	0.	-2973.1
293	12.937	2.9091	0.	-2973.1
294	12.937	2.7273	0.	-2958.8
295	12.937	2.5455	0.	-2930.7
296	12.937	2.3636	0.	-2890.2
297	12.937	2.1818	0.	-2838.8
298	12.937	2.	0.	-2778.2
299	12.937	1.8182	0.	-2710.3
300	12.937	1.6364	0.	-2637.3
301	12.937	1.4545	0.	-2561.6
302	12.937	1.2727	0.	-2485.8
303	12.937	1.0909	0.	-2412.7
304	12.937	0.90909	0.	-2344.9
305	12.937	0.72727	0.	-2284.5
306	12.937	0.54545	0.	-2233.
307	12.937	0.36364	0.	-2191.4
308	12.937	0.18182	0.	-2159.4
309	12.752	5.8182	0.	-2289.2
310	12.752	5.6364	0.	-2316.4
311	12.752	5.4545	0.	-2351.1
312	12.752	5.2727	0.	-2393.4
313	12.752	5.0909	0.	-2442.3
314	12.752	4.9091	0.	-2496.5
315	12.752	4.7273	0.	-2554.4
316	12.752	4.5455	0.	-2613.9
317	12.752	4.3636	0.	-2673.
318	12.752	4.1818	0.	-2729.8
319	12.752	4.	0.	-2782.4
320	12.752	3.8182	0.	-2829.2
321	12.752	3.6364	0.	-2868.8
322	12.752	3.4545	0.	-2899.9
323	12.752	3.2727	0.	-2921.4
324	12.752	3.0909	0.	-2932.4
325	12.752	2.9091	0.	-2932.4
326	12.752	2.7273	0.	-2921.4
327	12.752	2.5455	0.	-2899.9
328	12.752	2.3636	0.	-2868.8
329	12.752	2.1818	0.	-2829.2
330	12.752	2.	0.	-2782.4
331	12.752	1.8182	0.	-2729.8
332	12.752	1.6364	0.	-2673.
333	12.752	1.4545	0.	-2613.9
334	12.752	1.2727	0.	-2554.4
335	12.752	1.0909	0.	-2496.5
336	12.752	0.90909	0.	-2442.3
337	12.752	0.72727	0.	-2393.4
338	12.752	0.54545	0.	-2351.1
339	12.752	0.36364	0.	-2316.4
340	12.752	0.18182	0.	-2289.2
341	12.567	5.8182	0.	-2404.5
342	12.567	5.6364	0.	-2427.3
343	12.567	5.4545	0.	-2456.
344	12.567	5.2727	0.	-2490.5
345	12.567	5.0909	0.	-2530.
346	12.567	4.9091	0.	-2573.2
347	12.567	4.7273	0.	-2618.9
348	12.567	4.5455	0.	-2665.7
349	12.567	4.3636	0.	-2711.8
350	12.567	4.1818	0.	-2755.9
351	12.567	4.	0.	-2796.7
352	12.567	3.8182	0.	-2832.8
353	12.567	3.6364	0.	-2863.3
354	12.567	3.4545	0.	-2887.1
355	12.567	3.2727	0.	-2903.5
356	12.567	3.0909	0.	-2911.9
357	12.567	2.9091	0.	-2911.9
358	12.567	2.7273	0.	-2903.5
359	12.567	2.5455	0.	-2887.1
360	12.567	2.3636	0.	-2863.3
361	12.567	2.1818	0.	-2832.8
362	12.567	2.	0.	-2796.7
363	12.567	1.8182	0.	-2755.9
364	12.567	1.6364	0.	-2711.8
365	12.567	1.4545	0.	-2665.7
366	12.567	1.2727	0.	-2618.9
367	12.567	1.0909	0.	-2573.2
368	12.567	0.90909	0.	-2530.
369	12.567	0.72727	0.	-2490.5
370	12.567	0.54545	0.	-2456.
371	12.567	0.36364	0.	-2427.3
372	12.567	0.18182	0.	-2404.5
373	12.382	5.8182	0.	-2507.7
374	12.382	5.6364	0.	-2526.5
375	12.382	5.4545	0.	-2550.1
376	12.382	5.2727	0.	-2578.2
377	12.382	5.0909	0.	-2609.9
378	12.382	4.9091	0.	-2644.3
379	12.382	4.7273	0.	-2680.4
380	12.382	4.5455	0.	-2717.
381	12.382	4.3636	0.	-2753.
382	12.382	4.1818	0.	-2787.2
383	12.382	4.	0.	-2818.8
384	12.382	3.8182	0.	-2846.6
385	12.382	3.6364	0.	-2870.
386	12.382	3.4545	0.	-2888.2
387	12.382	3.2727	0.	-2900.7
388	12.382	3.0909	0.	-2907.1
389	12.382	2.9091	0.	-2907.1
390	12.382	2.7273	0.	-2900.7
391	12.382	2.5455	0.	-2888.2
392	12.382	2.3636	0.	-2870.
393	12.382	2.1818	0.	-2846.6
394	12.382	2.	0.	-2818.8
395	12.382	1.8182	0.	-2787.2
396	12.382	1.6364	0.	-2753.
397	12.382	1.4545	0.	-2717.
398	12.382	1.2727	0.	-2680.4
399	12.382	1.0909	0.	-2644.3
400	12.382	0.90909	0.	-2609.9
401	12.382	0.72727	0.	-2578.2
402	12.382	0.54545	0.	-2550.1
403	12.382	0.36364	0.	-2526.5
404	12.382	0.18182	0.	-2507.7
405	12.197	5.8182	0.	-2600.8
406	12.197	5.6364	0.	-2616.2
407	12.197	5.4545	0.	-2635.5
408	12.197	5.2727	0.	-2658.2
409	12.197	5.0909	0.	-2683.5
410	12.197	4.9091	0.	-2710.8
411	12.197	4.7273	0.	-2739.3
412	12.197	4.5455	0.	-2768.
413	12.197	4.3636	0.	-2796.
414	12.197	4.1818	0.	-2822.6
415	12.197	4.	0.	-2846.9
416	12.197	3.8182	0.	-2868.3
417	12.197	3.6364	0.	-2886.2
418	12.197	3.4545	0.	-2900.1
419	12.197	3.2727	0.	-2909.7
420	12.197	3.0909	0.	-2914.5
421	12.197	2.9091	0.	-2914.5
422	12.197	2.7273	0.	-2909.7
423	12.197	2.5455	0.	-2900.1
424	12.197	2.3636	0.	-2886.2
425	12.197	2.1818	0.	-2868.3
426	12.197	2.	0.	-2846.9
427	12.197	1.8182	0.	-2822.6
428	12.197	1.6364	0.	-2796.
429	12.197	1.4545	0.	-2768.
430	12.197	1.2727	0.	-2739.3
431	12.197	1.0909	0.	-2710.8
432	12.197	0.90909	0.	-2683.5
433	12.197	0.72727	0.	-2658.2
434	12.197	0.54545	0.	-2635.5
435	12.197	0.36364	0.	-2616.2
436	12.197	0.18182	0.	-2600.8
437	12.013	5.8182	0.	-2685.7
438	12.013	5.6364	0.	-2698.1
439	12.013	5.4545	0.	-2713.8
440	12.013	5.2727	0.	-2732.
441	12.013	5.0909	0.	-2752.3
442	12.013	4.9091	0.	-2773.9
443	12.013	4.7273	0.	-2796.3
444	12.013	4.5455	0.	-2818.7
445	12.013	4.3636	0.	-2840.5
446	12.013	4.1818	0.	-2861.
447	12.013	4.	0.	-2879.8
448	12.013	3.8182	0.	-2896.2
449	12.013	3.6364	0.	-2909.9
450	12.013	3.4545	0.	-2920.5
451	12.013	3.2727	0.	-2927.7
452	12.013	3.0909	0.	-2931.4
453	12.013	2.9091	0.	-2931.4
454	12.013	2.7273	0.	-2927.7
455	12.013	2.5455	0.	-2920.5
456	12.013	2.3636	0.	-2909.9
457	12.013	2.1818	0.	-2896.2
458	12.013	2.	0.	-2879.8
459	12.013	1.8182	0.	-2861.
460	12.013	1.6364	0.	-2840.5
461	12.013	1.4545	0.	-2818.7
462	12.013	1.2727	0.	-2796.3
463	12.013	1.0909	0.	-2773.9
464	12.013	0.90909	0.	-2752.3
465	12.013	0.72727	0.	-2732.
466	12.013	0.54545	0.	-2713.8
467	12.013	0.36364	0.	-2698.1
468	12.013	0.18182	0.	-2685.7
469	11.828	5.8182	0.	-2763.9
470	11.828	5.6364	0.	-2773.9
471	11.828	5.4545	0.	-2786.5
472	11.828	5.2727	0.	-2801.1
473	11.828	5.0909	0.	-2817.2
474	11.828	4.9091	0.	-2834.2
475	11.828	4.7273	0.	-2851.7
476	11.828	4.5455	0.	-2869.2
477	11.828	4.3636	0.	-2886.1
478	11.828	4.1818	0.	-2902.
479	11.828	4.	0.	-2916.4
480	11.828	3.8182	0.	-2929.
481	11.828	3.6364	0.	-2939.4
482	11.828	3.4545	0.	-2947.5
483	11.828	3.2727	0.	-2953.
484	11.828	3.0909	0.	-2955.7
485	11.828	2.9091	0.	-2955.7
486	11.828	2.7273	0.	-2953.
487	11.828	2.5455	0.	-2947.5
488	11.828	2.3636	0.	-2939.4
489	11.828	2.1818	0.	-2929.
490	11.828	2.	0.	-2916.4
491	11.828	1.8182	0.	-2902.
492	11.828	1.6364	0.	-2886.1
493	11.828	1.4545	0.	-2869.2
494	11.828	1.2727	0.	-2851.7
495	11.828	1.0909	0.	-2834.2
496	11.828	0.90909	0.	-2817.2
497	11.828	0.72727	0.	-2801.1
498	11.828	0.54545	0.	-2786.5
499	11.828	0.36364	0.	-2773.9
500	11.828	0.18182	0.	-2763.9
501	11.643	5.8182	0.	-2836.8
502	11.643	5.6364	0.	-2844.6
503	11.643	5.4545	0.	-2854.7
504	11.643	5.2727	0.	-2866.3
505	11.643	5.0909	0.	-2879.
506	11.643	4.9091	0.	-2892.4
507	11.643	4.7273	0.	-2906.1
508	11.643	4.5455	0.	-2919.7
509	11.643	4.3636	0.	-2932.7
510	11.643	4.1818	0.	-2944.9
511	11.643	4.	0.	-2956.
512	11.643	3.8182	0.	-2965.6
513	11.643	3.6364	0.	-2973.5
514	11.643	3.4545	0.	-2979.6
515	11.643	3.2727	0.	-2983.8
516	11.643	3.0909	0.	-2985.9
517	11.643	2.9091	0.	-2985.9
518	11.643	2.7273	0.	-2983.8
519	11.643	2.5455	0.	-2979.6
520	11.643	2.3636	0.	-2973.5
521	11.643	2.1818	0.	-2965.6
522	11.643	2.	0.	-2956.
523	11.643	1.8182	0.	-2944.9
524	11.643	1.6364	0.	-2932.7
525	11.643	1.4545	0.	-2919.7
526	11.643	1.2727	0.	-2906.1
527	11.643	1.0909	0.	-2892.4
528	11.643	0.90909	0.	-2879.
529	11.643	0.72727	0.	-2866.3
530	11.643	0.54545	0.	-2854.7
531	11.643	0.36364	0.	-2844.6
532	11.643	0.18182	0.	-2836.8
533	11.458	5.8182	0.	-2905.4
534	11.458	5.6364	0.	-2911.4
535	11.458	5.4545	0.	-2919.4
536	11.458	5.2727	0.	-2928.6
537	11.458	5.0909	0.	-2938.6
538	11.458	4.9091	0.	-2949.
539	11.458	4.7273	0.	-2959.7
540	11.458	4.5455	0.	-2970.2
541	11.458	4.3636	0.	-2980.2
542	11.458	4.1818	0.	-2989.5
543	11.458	4.	0.	-2997.9
544	11.458	3.8182	0.	-3005.2
545	11.458	3.6364	0.	-3011.2
546	11.458	3.4545	0.	-3015.8
547	11.458	3.2727	0.	-3019.
548	11.458	3.0909	0.	-3020.6
549	11.458	2.9091	0.	-3020.6
550	11.458	2.7273	0.	-3019.
551	11.458	2.5455	0.	-3015.8
552	11.458	2.3636	0.	-3011.2
553	11.458	2.1818	0.	-3005.2
554	11.458	2.	0.	-2997.9
555	11.458	1.8182	0.	-2989.5
556	11.458	1.6364	0.	-2980.2
557	11.458	1.4545	0.	-2970.2
558	11.458	1.2727	0.	-2959.7
559	11.458	1.0909	0.	-2949.
560	11.458	0.90909	0.	-2938.6
561	11.458	0.72727	0.	-2928.6
562	11.458	0.54545	0.	-2919.4
563	11.458	0.36364	0.	-2911.4
564	11.458	0.18182	0.	-2905.4
565	11.273	5.8182	0.	-2970.5
566	11.273	5.6364	0.	-2975.1
567	11.273	5.4545	0.	-2981.3
568	11.273	5.2727	0.	-2988.5
569	11.273	5.0909	0.	-2996.3
570	11.273	4.9091	0.	-3004.4
571	11.273	4.7273	0.	-3012.6
572	11.273	4.5455	0.	-3020.7
573	11.273	4.3636	0.	-3028.4
574	11.273	4.1818	0.	-3035.5
575	11.273	4.	0.	-3041.8
576	11.273	3.8182	0.	-3047.3
577	11.273	3.6364	0.	-3051.8
578	11.273	3.4545	0.	-3055.3
579	11.273	3.2727	0.	-3057.6
580	11.273	3.0909	0.	-3058.8
581	11.273	2.9091	0.	-3058.8
582	11.273	2.7273	0.	-3057.6
583	11.273	2.5455	0.	-3055.3
584	11.273	2.3636	0.	-3051.8
585	11.273	2.1818	0.	-3047.3
586	11.273	2.	0.	-3041.8
587	11.273	1.8182	0.	-3035.5
588	11.273	1.6364	0.	-3028.4
589	11.273	1.4545	0.	-3020.7
590	11.273	1.2727	0.	-3012.6
591	11.273	1.0909	0.	-3004.4
592	11.273	0.90909	0.	-2996.3
593	11.273	0.72727	0.	-2988.5
594	11.273	0.54545	0.	-2981.3
595	11.273	0.36364	0.	-2975.1
596	11.273	0.18182	0.	-2970.5
597	11.089	5.8182	0.	-3033.1
598	11.089	5.6364	0.	-3036.3
599	11.089	5.4545	0.	-3041.1
600	11.089	5.2727	0.	-3046.7
601	11.089	5.0909	0.	-3052.7
602	11.089	4.9091	0.	-3058.9
603	11.089	4.7273	0.	-3065.2
604	11.089	4.5455	0.	-3071.3
605	11.089	4.3636	0.	-3077.1
606	11.089	4.1818	0.	-3082.5
607	11.089	4.	0.	-3087.2
608	11.089	3.8182	0.	-3091.3
609	11.089	3.6364	0.	-3094.7
610	11.089	3.4545	0.	-3097.3
611	11.089	3.2727	0.	-3099.
612	11.089	3.0909	0.	-3099.9
613	11.089	2.9091	0.	-3099.9
614	11.089	2.7273	0.	-3099.
615	11.089	2.5455	0.	-3097.3
616	11.089	2.3636	0.	-3094.7
617	11.089	2.1818	0.	-3091.3
618	11.089	2.	0.	-3087.2
619	11.089	1.8182	0.	-3082.5
620	11.089	1.6364	0.	-3077.1
621	11.089	1.4545	0.	-3071.3
622	11.089	1.2727	0.	-3065.2
623	11.089	1.0909	0.	-3058.9
624	11.089	0.90909	0.	-3052.7
625	11.089	0.72727	0.	-3046.7
626	11.089	0.54545	0.	-3041.1
627	11.089	0.36364	0.	-3036.3
628	11.089	0.18182	0.	-3033.1
629	10.904	5.8182	0.	-3093.5
630	10.904	5.6364	0.	-3095.7
631	10.904	5.4545	0.	-3099.3
632	10.904	5.2727	0.	-3103.5
633	10.904	5.0909	0.	-3108.1
634	10.904	4.9091	0.	-3112.8
635	10.904	4.7273	0.	-3117.5
636	10.904	4.5455	0.	-3122.1
637	10.904	4.3636	0.	-3126.4
638	10.904	4.1818	0.	-3130.4
639	10.904	4.	0.	-3133.9
640	10.904	3.8182	0.	-3136.9
641	10.904	3.6364	0.	-3139.4
642	10.904	3.4545	0.	-3141.3
643	10.904	3.2727	0.	-3142.5
644	10.904	3.0909	0.	-3143.2
645	10.904	2.9091	0.	-3143.2
646	10.904	2.7273	0.	-3142.5
647	10.904	2.5455	0.	-3141.3
648	10.904	2.3636	0.	-3139.4
649	10.904	2.1818	0.	-3136.9
650	10.904	2.	0.	-3133.9
651	10.904	1.8182	0.	-3130.4
652	10.904	1.6364	0.	-3126.4
653	10.904	1.4545	0.	-3122.1
654	10.904	1.2727	0.	-3117.5
655	10.904	1.0909	0.	-3112.8
656	10.904	0.90909	0.	-3108.1
657	10.904	0.72727	0.	-3103.5
658	10.904	0.54545	0.	-3099.3
659	10.904	0.36364	0.	-3095.7
660	10.904	0.18182	0.	-3093.5
661	10.719	5.8182	0.	-3152.3
662	10.719	5.6364	0.	-3153.6
663	10.719	5.4545	0.	-3156.2
664	10.719	5.2727	0.	-3159.3
665	10.719	5.0909	0.	-3162.7
666	10.719	4.9091	0.	-3166.1
667	10.719	4.7273	0.	-3169.6
668	10.719	4.5455	0.	-3173.
669	10.719	4.3636	0.	-3176.2
670	10.719	4.1818	0.	-3179.1
671	10.719	4.	0.	-3181.6
672	10.719	3.8182	0.	-3183.8
673	10.719	3.6364	0.	-3185.6
674	10.719	3.4545	0.	-3186.9
675	10.719	3.2727	0.	-3187.8
676	10.719	3.0909	0.	-3188.3
677	10.719	2.9091	0.	-3188.3
678	10.719	2.7273	0.	-3187.8
679	10.719	2.5455	0.	-3186.9
680	10.719	2.3636	0.	-3185.6
681	10.719	2.1818	0.	-3183.8
682	10.719	2.	0.	-3181.6
683	10.719	1.8182	0.	-3179.1
684	10.719	1.6364	0.	-3176.2
685	10.719	1.4545	0.	-3173.
686	10.719	1.2727	0.	-3169.6
687	10.719	1.0909	0.	-3166.1
688	10.719	0.90909	0.	-3162.7
689	10.719	0.72727	0.	-3159.3
690	10.719	0.54545	0.	-3156.2
691	10.719	0.36364	0.	-3153.6
692	10.719	0.18182	0.	-3152.3
693	10.534	5.8182	0.	-3209.8
694	10.534	5.6364	0.	-3210.3
695	10.534	5.4545	0.	-3212.2
696	10.534	5.2727	0.	-3214.3
697	10.534	5.0909	0.	-3216.7
698	10.534	4.9091	0.	-3219.2
699	10.534	4.7273	0.	-3221.7
700	10.534	4.5455	0.	-3224.1
701	10.534	4.3636	0.	-3226.3
702	10.534	4.1818	0.	-3228.4
703	10.534	4.	0.	-3230.2
704	10.534	3.8182	0.	-3231.7
705	10.534	3.6364	0.	-3232.9
706	10.534	3.4545	0.	-3233.8
707	10.534	3.2727	0.	-3234.4
708	10.534	3.0909	0.	-3234.8
709	10.534	2.9091	0.	-3234.8
710	10.534	2.7273	0.	-3234.4
711	10.534	2.5455	0.	-3233.8
712	10.534	2.3636	0.	-3232.9
713	10.534	2.1818	0.	-3231.7
714	10.534	2.	0.	-3230.2
715	10.534	1.8182	0.	-3228.4
716	10.534	1.6364	0.	-3226.3
717	10.534	1.4545	0.	-3224.1
718	10.534	1.2727	0.	-3221.7
719	10.534	1.0909	0.	-3219.2
720	10.534	0.90909	0.	-3216.7
721	10.534	0.72727	0.	-3214.3
722	10.534	0.54545	0.	-3212.2
723	10.534	0.36364	0.	-3210.3
724	10.534	0.18182	0.	-3209.8
725	10.349	5.8182	0.	-3266.4
726	10.349	5.6364	0.	-3266.3
727	10.349	5.4545	0.	-3267.4
728	10.349	5.2727	0.	-3268.8
729	10.349	5.0909	0.	-3270.4
730	10.349	4.9091	0.	-3272.1
731	10.349	4.7273	0.	-3273.8
732	10.349	4.5455	0.	-3275.4
733	10.349	4.3636	0.	-3276.9
734	10.349	4.1818	0.	-3278.2
735	10.349	4.	0.	-3279.4
736	10.349	3.8182	0.	-3280.4
737	10.349	3.6364	0.	-3281.2
738	10.349	3.4545	0.	-3281.8
739	10.349	3.2727	0.	-3282.2
740	10.349	3.0909	0.	-3282.4
741	10.349	2.9091	0.	-3282.4
742	10.349	2.7273	0.	-3282.2
743	10.349	2.5455	0.	-3281.8
744	10.349	2.3636	0.	-3281.2
745	10.349	2.1818	0.	-3280.4
746	10.349	2.	0.	-3279.4
747	10.349	1.8182	0.	-3278.2
748	10.349	1.6364	0.	-3276.9
749	10.349	1.4545	0.	-3275.4
750	10.349	1.2727	0.	-3273.8
751	10.349	1.0909	0.	-3272.1
752	10.349	0.90909	0.	-3270.4
753	10.349	0.72727	0.	-3268.8
754	10.349	0.54545	0.	-3267.4
755	10.349	0.36364	0.	-3266.3
756	10.349	0.18182	0.	-3266.4
757	10.165	5.8182	0.	-3322.3
758	10.165	5.6364	0.	-3321.7
759	10.165	5.4545	0.	-3322.2
760	10.165	5.2727	0.	-3323.
761	10.165	5.0909	0.	-3323.9
762	10.165	4.9091	0.	-3324.9
763	10.165	4.7273	0.	-3325.9
764	10.165	4.5455	0.	-3326.8
765	10.165	4.3636	0.	-3327.7
766	10.165	4.1818	0.	-3328.5
767	10.165	4.	0.	-3329.2
768	10.165	3.8182	0.	-3329.8
769	10.165	3.6364	0.	-3330.3
770	10.165	3.4545	0.	-3330.6
771	10.165	3.2727	0.	-3330.8
772	10.165	3.0909	0.	-3330.9
773	10.165	2.9091	0.	-3330.9
774	10.165	2.7273	0.	-3330.8
775	10.165	2.5455	0.	-3330.6
776	10.165	2.3636	0.	-3330.3
777	10.165	2.1818	0.	-3329.8
778	10.165	2.	0.	-3329.2
779	10.165	1.8182	0.	-3328.5
780	10.165	1.6364	0.	-3327.7
781	10.165	1.4545	0.	-3326.8
782	10.165	1.2727	0.	-3325.9
783	10.165	1.0909	0.	-3324.9
784	10.165	0.90909	0.	-3323.9
785	10.165	0.72727	0.	-3323.
786	10.165	0.54545	0.	-3322.2
787	10.165	0.36364	0.	-3321.7
788	10.165	0.18182	0.	-3322.3
789	9.9797	5.8182	0.	-3377.7
790	9.9797	5.6364	0.	-3376.6
791	9.9797	5.4545	0.	-3376.6
792	9.9797	5.2727	0.	-3376.8
793	9.9797	5.0909	0.	-3377.2
794	9.9797	4.9091	0.	-3377.6
795	9.9797	4.7273	0.	-3378.1
796	9.9797	4.5455	0.	-3378.5
797	9.9797	4.3636	0.	-3378.9
798	9.9797	4.1818	0.	-3379.2
799	9.9797	4.	0.	-3379.5
800	9.9797	3.8182	0.	-3379.8
801	9.9797	3.6364	0.	-3380.
802	9.9797	3.4545	0.	-3380.1
803	9.9797	3.2727	0.	-3380.2
804	9.9797	3.0909	0.	-3380.2
805	9.9797	2.9091	0.	-3380.2
806	9.9797	2.7273	0.	-3380.2
807	9.9797	2.5455	0.	-3380.1
808	9.9797	2.3636	0.	-3380.
809	9.9797	2.1818	0.	-3379.8
810	9.9797	2.	0.	-3379.5
811	9.9797	1.8182	0.	-3379.2
812	9.9797	1.6364	0.	-3378.9
813	9.9797	1.4545	0.	-3378.5
814	9.9797	1.2727	0.	-3378.1
815	9.9797	1.0909	0.	-3377.6
816	9.9797	0.90909	0.	-3377.2
817	9.9797	0.72727	0.	-3376.8
818	9.9797	0.54545	0.	-3376.6
819	9.9797	0.36364	0.	-3376.6
820	9.9797	0.18182	0.	-3377.7
821	9.7949	5.8182	0.	-3432.8
822	9.7949	5.6364	0.	-3431.3
823	9.7949	5.4545	0.	-3430.8
824	9.7949	5.2727	0.	-3430.6
825	9.7949	5.0909	0.	-3430.4
826	9.7949	4.9091	0.	-3430.4
827	9.7949	4.7273	0.	-3430.3
828	9.7949	4.5455	0.	-3430.3
829	9.7949	4.3636	0.	-3430.3
830	9.7949	4.1818	0.	-3430.3
831	9.7949	4.	0.	-3430.3
832	9.7949	3.8182	0.	-3430.3
833	9.7949	3.6364	0.	-3430.2
834	9.7949	3.4545	0.	-3430.2
835	9.7949	3.2727	0.	-3430.1
836	9.7949	3.0909	0.	-3430.1
837	9.7949	2.9091	0.	-3430.1
838	9.7949	2.7273	0.	-3430.1
839	9.7949	2.5455	0.	-3430.2
840	9.7949	2.3636	0.	-3430.2
841	9.7949	2.1818	0.	-3430.3
842	9.7949	2.	0.	-3430.3
843	9.7949	1.8182	0.	-3430.3
844	9.7949	1.6364	0.	-3430.3
845	9.7949	1.4545	0.	-3430.3
846	9.7949	1.2727	0.	-3430.3
847	9.7949	1.0909	0.	-3430.4
848	9.7949	0.90909	0.	-3430.4
849	9.7949	0.72727	0.	-3430.6
850	9.7949	0.54545	0.	-3430.8
851	9.7949	0.36364	0.	-3431.3
852	9.7949	0.18182	0.	-3432.8
853	9.6101	5.8182	0.	-3487.6
854	9.6101	5.6364	0.	-3485.7
855	9.6101	5.4545	0.	-3484.9
856	9.6101	5.2727	0.	-3484.2
857	9.6101	5.0909	0.	-3483.7
858	9.6101	4.9091	0.	-3483.2
859	9.6101	4.7273	0.	-3482.8
860	9.6101	4.5455	0.	-3482.4
861	9.6101	4.3636	0.	-3482.
862	9.6101	4.1818	0.	-3481.7
863	9.6101	4.	0.	-3481.4
864	9.6101	3.8182	0.	-3481.1
865	9.6101	3.6364	0.	-3480.9
866	9.6101	3.4545	0.	-3480.7
867	9.6101	3.2727	0.	-3480.6
868	9.6101	3.0909	0.	-3480.5
869	9.6101	2.9091	0.	-3480.5
870	9.6101	2.7273	0.	-3480.6
871	9.6101	2.5455	0.	-3480.7
872	9.6101	2.3636	0.	-3480.9
873	9.6101	2.1818	0.	-3481.1
874	9.6101	2.	0.	-3481.4
875	9.6101	1.8182	0.	-3481.7
876	9.6101	1.6364	0.	-3482.
877	9.6101	1.4545	0.	-3482.4
878	9.6101	1.2727	0.	-3482.8
879	9.6101	1.0909	0.	-3483.2
880	9.6101	0.90909	0.	-3483.7
881	9.6101	0.72727	0.	-3484.2
882	9.6101	0.54545	0.	-3484.9
883	9.6101	0.36364	0.	-3485.7
884	9.6101	0.18182	0.	-3487.6
885	9.4253	5.8182	0.	-3542.3
886	9.4253	5.6364	0.	-3540.1
887	9.4253	5.4545	0.	-3538.9
888	9.4253	5.2727	0.	-3537.9
889	9.4253	5.0909	0.	-3537.
890	9.4253	4.9091	0.	-3536.1
891	9.4253	4.7273	0.	-3535.4
892	9.4253	4.5455	0.	-3534.6
893	9.4253	4.3636	0.	-3534.
894	9.4253	4.1818	0.	-3533.4
895	9.4253	4.	0.	-3532.8
896	9.4253	3.8182	0.	-3532.4
897	9.4253	3.6364	0.	-3532.
898	9.4253	3.4545	0.	-3531.7
899	9.4253	3.2727	0.	-3531.5
900	9.4253	3.0909	0.	-3531.4
901	9.4253	2.9091	0.	-3531.4
902	9.4253	2.7273	0.	-3531.5
903	9.4253	2.5455	0.	-3531.7
904	9.4253	2.3636	0.	-3532.
905	9.4253	2.1818	0.	-3532.4
906	9.4253	2.	0.	-3532.8
907	9.4253	1.8182	0.	-3533.4
908	9.4253	1.6364	0.	-3534.
909	9.4253	1.4545	0.	-3534.6
910	9.4253	1.2727	0.	-3535.4
911	9.4253	1.0909	0.	-3536.1
912	9.4253	0.90909	0.	-3537.
913	9.4253	0.72727	0.	-3537.9
914	9.4253	0.54545	0.	-3538.9
915	9.4253	0.36364	0.	-3540.1
916	9.4253	0.18182	0.	-3542.3
917	9.2405	5.8182	0.	-3597.
918	9.2405	5.6364	0.	-3594.5
919	9.2405	5.4545	0.	-3593.
920	9.2405	5.2727	0.	-3591.6
921	9.2405	5.0909	0.	-3590.4
922	9.2405	4.9091	0.	-3589.2
923	9.2405	4.7273	0.	-3588.1
924	9.2405	4.5455	0.	-3587.1
925	9.2405	4.3636	0.	-3586.2
926	9.2405	4.1818	0.	-3585.3
927	9.2405	4.	0.	-3584.6
928	9.2405	3.8182	0.	-3583.9
929	9.2405	3.6364	0.	-3583.4
930	9.2405	3.4545	0.	-3583.
931	9.2405	3.2727	0.	-3582.7
932	9.2405	3.0909	0.	-3582.6
933	9.2405	2.9091	0.	-3582.6
934	9.2405	2.7273	0.	-3582.7
935	9.2405	2.5455	0.	-3583.
936	9.2405	2.3636	0.	-3583.4
937	9.2405	2.1818	0.	-3583.9
938	9.2405	2.	0.	-3584.6
939	9.2405	1.8182	0.	-3585.3
940	9.2405	1.6364	0.	-3586.2
941	9.2405	1.4545	0.	-3587.1
942	9.2405	1.2727	0.	-3588.1
943	9.2405	1.0909	0.	-3589.2
944	9.2405	0.90909	0.	-3590.4
945	9.2405	0.72727	0.	-3591.6
946	9.2405	0.54545	0.	-3593.
947	9.2405	0.36364	0.	-3594.5
948	9.2405	0.18182	0.	-3597.
949	9.0557	5.8182	0.	-3651.7
950	9.0557	5.6364	0.	-3648.9
951	9.0557	5.4545	0.	-3647.1
952	9.0557	5.2727	0.	-3645.4
953	9.0557	5.0909	0.	-3643.9
954	9.0557	4.9091	0.	-3642.4
955	9.0557	4.7273	0.	-3641.
956	9.0557	4.5455	0.	-3639.7
957	9.0557	4.3636	0.	-3638.6
958	9.0557	4.1818	0.	-3637.5
959	9.0557	4.	0.	-3636.6
960	9.0557	3.8182	0.	-3635.8
961	9.0557	3.6364	0.	-3635.1
962	9.0557	3.4545	0.	-3634.6
963	9.0557	3.2727	0.	-3634.3
964	9.0557	3.0909	0.	-3634.1
965	9.0557	2.9091	0.	-3634.1
966	9.0557	2.7273	0.	-3634.3
967	9.0557	2.5455	0.	-3634.6
968	9.0557	2.3636	0.	-3635.1
969	9.0557	2.1818	0.	-3635.8
970	9.0557	2.	0.	-3636.6
971	9.0557	1.8182	0.	-3637.5
972	9.0557	1.6364	0.	-3638.6
973	9.0557	1.4545	0.	-3639.7
974	9.0557	1.2727	0.	-3641.
975	9.0557	1.0909	0.	-3642.4
976	9.0557	0.90909	0.	-3643.9
977	9.0557	0.72727	0.	-3645.4
978	9.0557	0.54545	0.	-3647.1
979	9.0557	0.36364	0.	-3648.9
980	9.0557	0.18182	0.	-3651.7
981	8.8709	5.8182	0.	-3706.5
982	8.8709	5.6364	0.	-3703.5
983	8.8709	5.4545	0.	-3701.3
984	8.8709	5.2727	0.	-3699.4
985	8.8709	5.0909	0.	-3697.5
986	8.8709	4.9091	0.	-3695.7
987	8.8709	4.7273	0.	-3694.1
988	8.8709	4.5455	0.	-3692.6
989	8.8709	4.3636	0.	-3691.2
990	8.8709	4.1818	0.	-3689.9
991	8.8709	4.	0.	-3688.8
992	8.8709	3.8182	0.	-3687.8
993	8.8709	3.6364	0.	-3687.1
994	8.8709	3.4545	0.	-3686.5
995	8.8709	3.2727	0.	-3686.1
996	8.8709	3.0909	0.	-3685.9
997	8.8709	2.9091	0.	-3685.9
998	8.8709	2.7273	0.	-3686.1
999	8.8709	2.5455	0.	-3686.5
1000	8.8709	2.3636	0.	-3687.1
1001	8.8709	2.1818	0.	-3687.8
1002	8.8709	2.	0.	-3688.8
1003	8.8709	1.8182	0.	-3689.9
1004	8.8709	1.6364	0.	-3691.2
1005	8.8709	1.4545	0.	-3692.6
1006	8.8709	1.2727	0.	-3694.1
1007	8.8709	1.0909	0.	-3695.7
1008	8.8709	0.90909	0.	-3697.5
1009	8.8709	0.72727	0.	-3699.4
1010	8.8709	0.54545	0.	-3701.3
1011	8.8709	0.36364	0.	-3703.5
1012	8.8709	0.18182	0.	-3706.5
1013	8.6861	5.8182	0.	-3761.4
1014	8.6861	5.6364	0.	-3758.1
1015	8.6861	5.4545	0.	-3755.7
1016	8.6861	5.2727	0.	-3753.5
1017	8.6861	5.0909	0.	-3751.3
1018	8.6861	4.9091	0.	-3749.3
1019	8.6861	4.7273	0.	-3747.4
1020	8.6861	4.5455	0.	-3745.6
1021	8.6861	4.3636	0.	-3744.
1022	8.6861	4.1818	0.	-3742.5
1023	8.6861	4.	0.	-3741.2
1024	8.6861	3.8182	0.	-3740.1
1025	8.6861	3.6364	0.	-3739.3
1026	8.6861	3.4545	0.	-3738.6
1027	8.6861	3.2727	0.	-3738.1
1028	8.6861	3.0909	0.	-3737.9
1029	8.6861	2.9091	0.	-3737.9
1030	8.6861	2.7273	0.	-3738.1
1031	8.6861	2.5455	0.	-3738.6
1032	8.6861	2.3636	0.	-3739.3
1033	8.6861	2.1818	0.	-3740.1
1034	8.6861	2.	0.	-3741.2
1035	8.6861	1.8182	0.	-3742.5
1036	8.6861	1.6364	0.	-3744.
1037	8.6861	1.4545	0.	-3745.6
1038	8.6861	1.2727	0.	-3747.4
1039	8.6861	1.0909	0.	-3749.3
1040	8.6861	0.90909	0.	-3751.3
1041	8.6861	0.72727	0.	-3753.5
1042	8.6861	0.54545	0.	-3755.7
1043	8.6861	0.36364	0.	-3758.1
1044	8.6861	0.18182	0.	-3761.4
1045	8.5013	5.8182	0.	-3816.5
1046	8.5013	5.6364	0.	-3813.
1047	8.5013	5.4545	0.	-3810.3
1048	8.5013	5.2727	0.	-3807.7
1049	8.5013	5.0909	0.	-3805.3
1050	8.5013	4.9091	0.	-3803.
1051	8.5013	4.7273	0.	-3800.8
1052	8.5013	4.5455	0.	-3798.8
1053	8.5013	4.3636	0.	-3797.
1054	8.5013	4.1818	0.	-3795.3
1055	8.5013	4.	0.	-3793.9
1056	8.5013	3.8182	0.	-3792.7
1057	8.5013	3.6364	0.	-3791.6
1058	8.5013	3.4545	0.	-3790.9
1059	8.5013	3.2727	0.	-3790.4
1060	8.5013	3.0909	0.	-3790.1
1061	8.5013	2.9091	0.	-3790.1
1062	8.5013	2.7273	0.	-3790.4
1063	8.5013	2.5455	0.	-3790.9
1064	8.5013	2.3636	0.	-3791.6
1065	8.5013	2.1818	0.	-3792.7
1066	8.5013	2.	0.	-3793.9
1067	8.5013	1.8182	0.	-3795.3
1068	8.5013	1.6364	0.	-3797.
1069	8.5013	1.4545	0.	-3798.8
1070	8.5013	1.2727	0.	-3800.8
1071	8.5013	1.0909	0.	-3803.
1072	8.5013	0.90909	0.	-3805.3
1073	8.5013	0.72727	0.	-3807.7
1074	8.5013	0.54545	0.	-3810.3
1075	8.5013	0.36364	0.	-3813.
1076	8.5013	0.18182	0.	-3816.5
1077	8.3165	5.8182	0.	-3871.8
1078	8.3165	5.6364	0.	-3868.
1079	8.3165	5.4545	0.	-3865.1
1080	8.3165	5.2727	0.	-3862.2
1081	8.3165	5.0909	0.	-3859.5
1082	8.3165	4.9091	0.	-3856.9
1083	8.3165	4.7273	0.	-3854.5
1084	8.3165	4.5455	0.	-3852.3
1085	8.3165	4.3636	0.	-3850.2
1086	8.3165	4.1818	0.	-3848.4
1087	8.3165	4.	0.	-3846.7
1088	8.3165	3.8182	0.	-3845.4
1089	8.3165	3.6364	0.	-3844.2
1090	8.3165	3.4545	0.	-3843.4
1091	8.3165	3.2727	0.	-3842.8
1092	8.3165	3.0909	0.	-3842.5
1093	8.3165	2.9091	0.	-3842.5
1094	8.3165	2.7273	0.	-3842.8
1095	8.3165	2.5455	0.	-3843.4
1096	8.3165	2.3636	0.	-3844.2
1097	8.3165	2.1818	0.	-3845.4
1098	8.3165	2.	0.	-3846.7
1099	8.3165	1.8182	0.	-3848.4
1100	8.3165	1.6364	0.	-3850.2
1101	8.3165	1.4545	0.	-3852.3
1102	8.3165	1.2727	0.	-3854.5
1103	8.3165	1.0909	0.	-3856.9
1104	8.3165	0.90909	0.	-3859.5
1105	8.3165	0.72727	0.	-3862.2
1106	8.3165	0.54545	0.	-3865.1
1107	8.3165	0.36364	0.	-3868.
1108	8.3165	0.18182	0.	-3871.8
1109	8.1316	5.8182	0.	-3927.3
1110	8.1316	5.6364	0.	-3923.3
1111	8.1316	5.4545	0.	-3920.
1112	8.1316	5.2727	0.	-3916.9
1113	8.1316	5.0909	0.	-3913.9
1114	8.1316	4.9091	0.	-3911.
1115	8.1316	4.7273	0.	-3908.4
1116	8.1316	4.5455	0.	-3905.9
1117	8.1316	4.3636	0.	-3903.6
1118	8.1316	4.1818	0.	-3901.5
1119	8.1316	4.	0.	-3899.7
1120	8.1316	3.8182	0.	-3898.2
1121	8.1316	3.6364	0.	-3897.
1122	8.1316	3.4545	0.	-3896.
1123	8.1316	3.2727	0.	-3895.4
1124	8.1316	3.0909	0.	-3895.1
1125	8.1316	2.9091	0.	-3895.1
1126	8.1316	2.7273	0.	-3895.4
1127	8.1316	2.5455	0.	-3896.
1128	8.1316	2.3636	0.	-3897.
1129	8.1316	2.1818	0.	-3898.2
1130	8.1316	2.	0.	-3899.7
1131	8.1316	1.8182	0.	-3901.5
1132	8.1316	1.6364	0.	-3903.6
1133	8.1316	1.4545	0.	-3905.9
1134	8.1316	1.2727	0.	-3908.4
1135	8.1316	1.0909	0.	-3911.
1136	8.1316	0.90909	0.	-3913.9
1137	8.1316	0.72727	0.	-3916.9
1138	8.1316	0.54545	0.	-3920.
1139	8.1316	0.36364	0.	-3923.3
1140	8.1316	0.18182	0.	-3927.3
1141	7.9468	5.8182	0.	-3983.1
1142	7.9468	5.6364	0.	-3978.8
1143	7.9468	5.4545	0.	-3975.2
1144	7.9468	5.2727	0.	-3971.8
1145	7.9468	5.0909	0.	-3968.5
1146	7.9468	4.9091	0.	-3965.4
1147	7.9468	4.7273	0.	-3962.4
1148	7.9468	4.5455	0.	-3959.7
1149	7.9468	4.3636	0.	-3957.2
1150	7.9468	4.1818	0.	-3954.9
1151	7.9468	4.	0.	-3952.9
1152	7.9468	3.8182	0.	-3951.2
1153	7.9468	3.6364	0.	-3949.9
1154	7.9468	3.4545	0.	-3948.8
1155	7.9468	3.2727	0.	-3948.1
1156	7.9468	3.0909	0.	-3947.8
1157	7.9468	2.9091	0.	-3947.8
1158	7.9468	2.7273	0.	-3948.1
1159	7.9468	2.5455	0.	-3948.8
1160	7.9468	2.3636	0.	-3949.9
1161	7.9468	2.1818	0.	-3951.2
1162	7.9468	2.	0.	-3952.9
1163	7.9468	1.8182	0.	-3954.9
1164	7.9468	1.6364	0.	-3957.2
1165	7.9468	1.4545	0.	-3959.7
1166	7.9468	1.2727	0.	-3962.4
1167	7.9468	1.0909	0.	-3965.4
1168	7.9468	0.90909	0.	-3968.5
1169	7.9468	0.72727	0.	-3971.8
1170	7.9468	0.54545	0.	-3975.2
1171	7.9468	0.36364	0.	-3978.8
1172	7.9468	0.18182	0.	-3983.1
1173	7.762	5.8182	0.	-4039.2
1174	7.762	5.6364	0.	-4034.6
1175	7.762	5.4545	0.	-4030.7
1176	7.762	5.2727	0.	-4026.9
1177	7.762	5.0909	0.	-4023.3
1178	7.762	4.9091	0.	-4019.9
1179	7.762	4.7273	0.	-4016.7
1180	7.762	4.5455	0.	-4013.7
1181	7.762	4.3636	0.	-4010.9
1182	7.762	4.1818	0.	-4008.4
1183	7.762	4.	0.	-4006.3
1184	7.762	3.8182	0.	-4004.4
1185	7.762	3.6364	0.	-4002.9
1186	7.762	3.4545	0.	-4001.8
1187	7.762	3.2727	0.	-4001.
1188	7.762	3.0909	0.	-4000.6
1189	7.762	2.9091	0.	-4000.6
1190	7.762	2.7273	0.	-4001.
1191	7.762	2.5455	0.	-4001.8
1192	7.762	2.3636	0.	-4002.9
1193	7.762	2.1818	0.	-4004.4
1194	7.762	2.	0.	-4006.3
1195	7.762	1.8182	0.	-4008.4
1196	7.762	1.6364	0.	-4010.9
1197	7.762	1.4545	0.	-4013.7
1198	7.762	1.2727	0.	-4016.7
1199	7.762	1.0909	0.	-4019.9
1200	7.762	0.90909	0.	-4023.3
1201	7.762	0.72727	0.	-4026.9
1202	7.762	0.54545	0.	-4030.7
1203	7.762	0.36364	0.	-4034.6
1204	7.762	0.18182	0.	-4039.2
1205	7.5772	5.8182	0.	-4095.5
1206	7.5772	5.6364	0.	-4090.7
1207	7.5772	5.4545	0.	-4086.4
1208	7.5772	5.2727	0.	-4082.3
1209	7.5772	5.0909	0.	-4078.4
1210	7.5772	4.9091	0.	-4074.7
1211	7.5772	4.7273	0.	-4071.1
1212	7.5772	4.5455	0.	-4067.9
1213	7.5772	4.3636	0.	-4064.8
1214	7.5772	4.1818	0.	-4062.1
1215	7.5772	4.	0.	-4059.8
1216	7.5772	3.8182	0.	-4057.8
1217	7.5772	3.6364	0.	-4056.1
1218	7.5772	3.4545	0.	-4054.9
1219	7.5772	3.2727	0.	-4054.
1220	7.5772	3.0909	0.	-4053.6
1221	7.5772	2.9091	0.	-4053.6
1222	7.5772	2.7273	0.	-4054.
1223	7.5772	2.5455	0.	-4054.9
1224	7.5772	2.3636	0.	-4056.1
1225	7.5772	2.1818	0.	-4057.8
1226	7.5772	2.	0.	-4059.8
1227	7.5772	1.8182	0.	-4062.1
1228	7.5772	1.6364	0.	-4064.8
1229	7.5772	1.4545	0.	-4067.9
1230	7.5772	1.2727	0.	-4071.1
1231	7.5772	1.0909	0.	-4074.7
1232	7.5772	0.90909	0.	-4078.4
1233	7.5772	0.72727	0.	-4082.3
1234	7.5772	0.54545	0.	-4086.4
1235	7.5772	0.36364	0.	-4090.7
1236	7.5772	0.18182	0.	-4095.5
1237	7.3924	5.8182	0.	-4152.2
1238	7.3924	5.6364	0.	-4147.
1239	7.3924	5.4545	0.	-4142.4
1240	7.3924	5.2727	0.	-4138.
1241	7.3924	5.0909	0.	-4133.7
1242	7.3924	4.9091	0.	-4129.6
1243	7.3924	4.7273	0.	-4125.8
1244	7.3924	4.5455	0.	-4122.2
1245	7.3924	4.3636	0.	-4118.9
1246	7.3924	4.1818	0.	-4116.
1247	7.3924	4.	0.	-4113.4
1248	7.3924	3.8182	0.	-4111.2
1249	7.3924	3.6364	0.	-4109.4
1250	7.3924	3.4545	0.	-4108.1
1251	7.3924	3.2727	0.	-4107.1
1252	7.3924	3.0909	0.	-4106.7
1253	7.3924	2.9091	0.	-4106.7
1254	7.3924	2.7273	0.	-4107.1
1255	7.3924	2.5455	0.	-4108.1
1256	7.3924	2.3636	0.	-4109.4
1257	7.3924	2.1818	0.	-4111.2
1258	7.3924	2.	0.	-4113.4
1259	7.3924	1.8182	0.	-4116.
1260	7.3924	1.6364	0.	-4118.9
1261	7.3924	1.4545	0.	-4122.2
1262	7.3924	1.2727	0.	-4125.8
1263	7.3924	1.0909	0.	-4129.6
1264	7.3924	0.90909	0.	-4133.7
1265	7.3924	0.72727	0.	-4138.
1266	7.3924	0.54545	0.	-4142.4
1267	7.3924	0.36364	0.	-4147.
1268	7.3924	0.18182	0.	-4152.2
1269	7.2076	5.8182	0.	-4209.2
1270	7.2076	5.6364	0.	-4203.7
1271	7.2076	5.4545	0.	-4198.8
1272	7.2076	5.2727	0.	-4193.9
1273	7.2076	5.0909	0.	-4189.3
1274	7.2076	4.9091	0.	-4184.9
1275	7.2076	4.7273	0.	-4180.7
1276	7.2076	4.5455	0.	-4176.8
1277	7.2076	4.3636	0.	-4173.2
1278	7.2076	4.1818	0.	-4170.
1279	7.2076	4.	0.	-4167.2
1280	7.2076	3.8182	0.	-4164.8
1281	7.2076	3.6364	0.	-4162.8
1282	7.2076	3.4545	0.	-4161.4
1283	7.2076	3.2727	0.	-4160.4
1284	7.2076	3.0909	0.	-4159.9
1285	7.2076	2.9091	0.	-4159.9
1286	7.2076	2.7273	0.	-4160.4
1287	7.2076	2.5455	0.	-4161.4
1288	7.2076	2.3636	0.	-4162.8
1289	7.2076	2.1818	0.	-4164.8
1290	7.2076	2.	0.	-4167.2
1291	7.2076	1.8182	0.	-4170.
1292	7.2076	1.6364	0.	-4173.2
1293	7.2076	1.4545	0.	-4176.8
1294	7.2076	1.2727	0.	-4180.7
1295	7.2076	1.0909	0.	-4184.9
1296	7.2076	0.90909	0.	-4189.3
1297	7.2076	0.72727	0.	-4193.9
1298	7.2076	0.54545	0.	-4198.8
1299	7.2076	0.36364	0.	-4203.7
1300	7.2076	0.18182	0.	-4209.2
1301	7.0228	5.8182	0.	-4266.6
1302	7.0228	5.6364	0.	-4260.7
1303	7.0228	5.4545	0.	-4255.4
1304	7.0228	5.2727	0.	-4250.2
1305	7.0228	5.0909	0.	-4245.1
1306	7.0228	4.9091	0.	-4240.3
1307	7.0228	4.7273	0.	-4235.8
1308	7.0228	4.5455	0.	-4231.5
1309	7.0228	4.3636	0.	-4227.7
1310	7.0228	4.1818	0.	-4224.2
1311	7.0228	4.	0.	-4221.1
1312	7.0228	3.8182	0.	-4218.5
1313	7.0228	3.6364	0.	-4216.4
1314	7.0228	3.4545	0.	-4214.8
1315	7.0228	3.2727	0.	-4213.7
1316	7.0228	3.0909	0.	-4213.1
1317	7.0228	2.9091	0.	-4213.1
1318	7.0228	2.7273	0.	-4213.7
1319	7.0228	2.5455	0.	-4214.8
1320	7.0228	2.3636	0.	-4216.4
1321	7.0228	2.1818	0.	-4218.5
1322	7.0228	2.	0.	-4221.1
1323	7.0228	1.8182	0.	-4224.2
1324	7.0228	1.6364	0.	-4227.7
1325	7.0228	1.4545	0.	-4231.5
1326	7.0228	1.2727	0.	-4235.8
1327	7.0228	1.0909	0.	-4240.3
1328	7.0228	0.90909	0.	-4245.1
1329	7.0228	0.72727	0.	-4250.2
1330	7.0228	0.54545	0.	-4255.4
1331	7.0228	0.36364	0.	-4260.7
1332	7.0228	0.18182	0.	-4266.6
1333	6.838	5.8182	0.	-4324.4
1334	6.838	5.6364	0.	-4318.1
1335	6.838	5.4545	0.	-4312.3
1336	6.838	5.2727	0.	-4306.7
1337	6.838	5.0909	0.	-4301.2
1338	6.838	4.9091	0.	-4296.
1339	6.838	4.7273	0.	-4291.1
1340	6.838	4.5455	0.	-4286.5
1341	6.838	4.3636	0.	-4282.3
1342	6.838	4.1818	0.	-4278.5
1343	6.838	4.	0.	-4275.1
1344	6.838	3.8182	0.	-4272.3
1345	6.838	3.6364	0.	-4270.
1346	6.838	3.4545	0.	-4268.2
1347	6.838	3.2727	0.	-4267.1
1348	6.838	3.0909	0.	-4266.5
1349	6.838	2.9091	0.	-4266.5
1350	6.838	2.7273	0.	-4267.1
1351	6.838	2.5455	0.	-4268.2
1352	6.838	2.3636	0.	-4270.
1353	6.838	2.1818	0.	-4272.3
1354	6.838	2.	0.	-4275.1
1355	6.838	1.8182	0.	-4278.5
1356	6.838	1.6364	0.	-4282.3
1357	6.838	1.4545	0.	-4286.5
1358	6.838	1.2727	0.	-4291.1
1359	6.838	1.0909	0.	-4296.
1360	6.838	0.90909	0.	-4301.2
1361	6.838	0.72727	0.	-4306.7
1362	6.838	0.54545	0.	-4312.3
1363	6.838	0.36364	0.	-4318.1
1364	6.838	0.18182	0.	-4324.4
1365	6.6532	5.8182	0.	-4382.6
1366	6.6532	5.6364	0.	-4375.9
1367	6.6532	5.4545	0.	-4369.6
1368	6.6532	5.2727	0.	-4363.5
1369	6.6532	5.0909	0.	-4357.6
1370	6.6532	4.9091	0.	-4352.
1371	6.6532	4.7273	0.	-4346.6
1372	6.6532	4.5455	0.	-4341.6
1373	6.6532	4.3636	0.	-4337.
1374	6.6532	4.1818	0.	-4332.9
1375	6.6532	4.	0.	-4329.3
1376	6.6532	3.8182	0.	-4326.2
1377	6.6532	3.6364	0.	-4323.7
1378	6.6532	3.4545	0.	-4321.8
1379	6.6532	3.2727	0.	-4320.5
1380	6.6532	3.0909	0.	-4319.9
1381	6.6532	2.9091	0.	-4319.9
1382	6.6532	2.7273	0.	-4320.5
1383	6.6532	2.5455	0.	-4321.8
1384	6.6532	2.3636	0.	-4323.7
1385	6.6532	2.1818	0.	-4326.2
1386	6.6532	2.	0.	-4329.3
1387	6.6532	1.8182	0.	-4332.9
1388	6.6532	1.6364	0.	-4337.
1389	6.6532	1.4545	0.	-4341.6
1390	6.6532	1.2727	0.	-4346.6
1391	6.6532	1.0909	0.	-4352.
1392	6.6532	0.90909	0.	-4357.6
1393	6.6532	0.72727	0.	-4363.5
1394	6.6532	0.54545	0.	-4369.6
1395	6.6532	0.36364	0.	-4375.9
1396	6.6532	0.18182	0.	-4382.6
1397	6.4684	5.8182	0.	-4441.2
1398	6.4684	5.6364	0.	-4434.
1399	6.4684	5.4545	0.	-4427.3
1400	6.4684	5.2727	0.	-4420.7
1401	6.4684	5.0909	0.	-4414.3
1402	6.4684	4.9091	0.	-4408.2
1403	6.4684	4.7273	0.	-4402.4
1404	6.4684	4.5455	0.	-4397.
1405	6.4684	4.3636	0.	-4392.
1406	6.4684	4.1818	0.	-4387.5
1407	6.4684	4.	0.	-4383.6
1408	6.4684	3.8182	0.	-4380.2
1409	6.4684	3.6364	0.	-4377.5
1410	6.4684	3.4545	0.	-4375.4
1411	6.4684	3.2727	0.	-4374.
1412	6.4684	3.0909	0.	-4373.3
1413	6.4684	2.9091	0.	-4373.3
1414	6.4684	2.7273	0.	-4374.
1415	6.4684	2.5455	0.	-4375.4
1416	6.4684	2.3636	0.	-4377.5
1417	6.4684	2.1818	0.	-4380.2
1418	6.4684	2.	0.	-4383.6
1419	6.4684	1.8182	0.	-4387.5
1420	6.4684	1.6364	0.	-4392.
1421	6.4684	1.4545	0.	-4397.
1422	6.4684	1.2727	0.	-4402.4
1423	6.4684	1.0909	0.	-4408.2
1424	6.4684	0.90909	0.	-4414.3
1425	6.4684	0.72727	0.	-4420.7
1426	6.4684	0.54545	0.	-4427.3
1427	6.4684	0.36364	0.	-4434.
1428	6.4684	0.18182	0.	-4441.2
1429	6.2835	5.8182	0.	-4500.2
1430	6.2835	5.6364	0.	-4492.6
1431	6.2835	5.4545	0.	-4485.3
1432	6.2835	5.2727	0.	-4478.2
1433	6.2835	5.0909	0.	-4471.3
1434	6.2835	4.9091	0.	-4464.6
1435	6.2835	4.7273	0.	-4458.4
1436	6.2835	4.5455	0.	-4452.5
1437	6.2835	4.3636	0.	-4447.1
1438	6.2835	4.1818	0.	-4442.2
1439	6.2835	4.	0.	-4438.
1440	6.2835	3.8182	0.	-4434.3
1441	6.2835	3.6364	0.	-4431.4
1442	6.2835	3.4545	0.	-4429.1
1443	6.2835	3.2727	0.	-4427.6
1444	6.2835	3.0909	0.	-4426.8
1445	6.2835	2.9091	0.	-4426.8
1446	6.2835	2.7273	0.	-4427.6
1447	6.2835	2.5455	0.	-4429.1
1448	6.2835	2.3636	0.	-4431.4
1449	6.2835	2.1818	0.	-4434.3
1450	6.2835	2.	0.	-4438.
1451	6.2835	1.8182	0.	-4442.2
1452	6.2835	1.6364	0.	-4447.1
1453	6.2835	1.4545	0.	-4452.5
1454	6.2835	1.2727	0.	-4458.4
1455	6.2835	1.0909	0.	-4464.6
1456	6.2835	0.90909	0.	-4471.3
1457	6.2835	0.72727	0.	-4478.2
1458	6.2835	0.54545	0.	-4485.3
1459	6.2835	0.36364	0.	-4492.6
1460	6.2835	0.18182	0.	-4500.2
1461	6.0987	5.8182	0.	-4559.8
1462	6.0987	5.6364	0.	-4551.6
1463	6.0987	5.4545	0.	-4543.7
1464	6.0987	5.2727	0.	-4536.
1465	6.0987	5.0909	0.	-4528.6
1466	6.0987	4.9091	0.	-4521.4
1467	6.0987	4.7273	0.	-4514.6
1468	6.0987	4.5455	0.	-4508.2
1469	6.0987	4.3636	0.	-4502.4
1470	6.0987	4.1818	0.	-4497.1
1471	6.0987	4.	0.	-4492.5
1472	6.0987	3.8182	0.	-4488.5
1473	6.0987	3.6364	0.	-4485.3
1474	6.0987	3.4545	0.	-4482.9
1475	6.0987	3.2727	0.	-4481.2
1476	6.0987	3.0909	0.	-4480.4
1477	6.0987	2.9091	0.	-4480.4
1478	6.0987	2.7273	0.	-4481.2
1479	6.0987	2.5455	0.	-4482.9
1480	6.0987	2.3636	0.	-4485.3
1481	6.0987	2.1818	0.	-4488.5
1482	6.0987	2.	0.	-4492.5
1483	6.0987	1.8182	0.	-4497.1
1484	6.0987	1.6364	0.	-4502.4
1485	6.0987	1.4545	0.	-4508.2
1486	6.0987	1.2727	0.	-4514.6
1487	6.0987	1.0909	0.	-4521.4
1488	6.0987	0.90909	0.	-4528.6
1489	6.0987	0.72727	0.	-4536.
1490	6.0987	0.54545	0.	-4543.7
1491	6.0987	0.36364	0.	-4551.6
1492	6.0987	0.18182	0.	-4559.8
1493	5.9139	5.8182	0.	-4619.8
1494	5.9139	5.6364	0.	-4611.
1495	5.9139	5.4545	0.	-4602.6
1496	5.9139	5.2727	0.	-4594.2
1497	5.9139	5.0909	0.	-4586.2
1498	5.9139	4.9091	0.	-4578.4
1499	5.9139	4.7273	0.	-4571.1
1500	5.9139	4.5455	0.	-4564.2
1501	5.9139	4.3636	0.	-4557.8
1502	5.9139	4.1818	0.	-4552.1
1503	5.9139	4.	0.	-4547.1
1504	5.9139	3.8182	0.	-4542.8
1505	5.9139	3.6364	0.	-4539.3
1506	5.9139	3.4545	0.	-4536.7
1507	5.9139	3.2727	0.	-4534.9
1508	5.9139	3.0909	0.	-4534.
1509	5.9139	2.9091	0.	-4534.
1510	5.9139	2.7273	0.	-4534.9
1511	5.9139	2.5455	0.	-4536.7
1512	5.9139	2.3636	0.	-4539.3
1513	5.9139	2.1818	0.	-4542.8
1514	5.9139	2.	0.	-4547.1
1515	5.9139	1.8182	0.	-4552.1
1516	5.9139	1.6364	0.	-4557.8
1517	5.9139	1.4545	0.	-4564.2
1518	5.9139	1.2727	0.	-4571.1
1519	5.9139	1.0909	0.	-4578.4
1520	5.9139	0.90909	0.	-4586.2
1521	5.9139	0.72727	0.	-4594.2
1522	5.9139	0.54545	0.	-4602.6
1523	5.9139	0.36364	0.	-4611.
1524	5.9139	0.18182	0.	-4619.8
1525	5.7291	5.8182	0.	-4680.4
1526	5.7291	5.6364	0.	-4670.9
1527	5.7291	5.4545	0.	-4661.8
1528	5.7291	5.2727	0.	-4652.8
1529	5.7291	5.0909	0.	-4644.1
1530	5.7291	4.9091	0.	-4635.7
1531	5.7291	4.7273	0.	-4627.8
1532	5.7291	4.5455	0.	-4620.3
1533	5.7291	4.3636	0.	-4613.5
1534	5.7291	4.1818	0.	-4607.3
1535	5.7291	4.	0.	-4601.8
1536	5.7291	3.8182	0.	-4597.2
1537	5.7291	3.6364	0.	-4593.4
1538	5.7291	3.4545	0.	-4590.5
1539	5.7291	3.2727	0.	-4588.6
1540	5.7291	3.0909	0.	-4587.6
1541	5.7291	2.9091	0.	-4587.6
1542	5.7291	2.7273	0.	-4588.6
1543	5.7291	2.5455	0.	-4590.5
1544	5.7291	2.3636	0.	-4593.4
1545	5.7291	2.1818	0.	-4597.2
1546	5.7291	2.	0.	-4601.8
1547	5.7291	1.8182	0.	-4607.3
1548	5.7291	1.6364	0.	-4613.5
1549	5.7291	1.4545	0.	-4620.3
1550	5.7291	1.2727	0.	-4627.8
1551	5.7291	1.0909	0.	-4635.7
1552	5.7291	0.90909	0.	-4644.1
1553	5.7291	0.72727	0.	-4652.8
1554	5.7291	0.54545	0.	-4661.8
1555	5.7291	0.36364	0.	-4670.9
1556	5.7291	0.18182	0.	-4680.4
1557	5.5443	5.8182	0.	-4741.5
1558	5.5443	5.6364	0.	-4731.4
1559	5.5443	5.4545	0.	-4721.5
1560	5.5443	5.2727	0.	-4711.8
1561	5.5443	5.0909	0.	-4702.4
1562	5.5443	4.9091	0.	-4693.4
1563	5.5443	4.7273	0.	-4684.8
1564	5.5443	4.5455	0.	-4676.7
1565	5.5443	4.3636	0.	-4669.3
1566	5.5443	4.1818	0.	-4662.6
1567	5.5443	4.	0.	-4656.7
1568	5.5443	3.8182	0.	-4651.6
1569	5.5443	3.6364	0.	-4647.5
1570	5.5443	3.4545	0.	-4644.4
1571	5.5443	3.2727	0.	-4642.3
1572	5.5443	3.0909	0.	-4641.3
1573	5.5443	2.9091	0.	-4641.3
1574	5.5443	2.7273	0.	-4642.3
1575	5.5443	2.5455	0.	-4644.4
1576	5.5443	2.3636	0.	-4647.5
1577	5.5443	2.1818	0.	-4651.6
1578	5.5443	2.	0.	-4656.7
1579	5.5443	1.8182	0.	-4662.6
1580	5.5443	1.6364	0.	-4669.3
1581	5.5443	1.4545	0.	-4676.7
1582	5.5443	1.2727	0.	-4684.8
1583	5.5443	1.0909	0.	-4693.4
1584	5.5443	0.90909	0.	-4702.4
1585	5.5443	0.72727	0.	-4711.8
1586	5.5443	0.54545	0.	-4721.5
1587	5.5443	0.36364	0.	-4731.4
1588	5.5443	0.18182	0.	-4741.5
1589	5.3595	5.8182	0.	-4803.3
1590	5.3595	5.6364	0.	-4792.3
1591	5.3595	5.4545	0.	-4781.7
1592	5.3595	5.2727	0.	-4771.3
1593	5.3595	5.0909	0.	-4761.1
1594	5.3595	4.9091	0.	-4751.3
1595	5.3595	4.7273	0.	-4742.
1596	5.3595	4.5455	0.	-4733.3
1597	5.3595	4.3636	0.	-4725.3
1598	5.3595	4.1818	0.	-4718.
1599	5.3595	4.	0.	-4711.6
1600	5.3595	3.8182	0.	-4706.2
1601	5.3595	3.6364	0.	-4701.8
1602	5.3595	3.4545	0.	-4698.4
1603	5.3595	3.2727	0.	-4696.1
1604	5.3595	3.0909	0.	-4695.
1605	5.3595	2.9091	0.	-4695.
1606	5.3595	2.7273	0.	-4696.1
1607	5.3595	2.5455	0.	-4698.4
1608	5.3595	2.3636	0.	-4701.8
1609	5.3595	2.1818	0.	-4706.2
1610	5.3595	2.	0.	-4711.6
1611	5.3595	1.8182	0.	-4718.
1612	5.3595	1.6364	0.	-4725.3
1613	5.3595	1.4545	0.	-4733.3
1614	5.3595	1.2727	0.	-4742.
1615	5.3595	1.0909	0.	-4751.3
1616	5.3595	0.90909	0.	-4761.1
1617	5.3595	0.72727	0.	-4771.3
1618	5.3595	0.54545	0.	-4781.7
1619	5.3595	0.36364	0.	-4792.3
1620	5.3595	0.18182	0.	-4803.3
1621	5.1747	5.8182	0.	-4865.6
1622	5.1747	5.6364	0.	-4853.8
1623	5.1747	5.4545	0.	-4842.4
1624	5.1747	5.2727	0.	-4831.1
1625	5.1747	5.0909	0.	-4820.1
1626	5.1747	4.9091	0.	-4809.6
1627	5.1747	4.7273	0.	-4799.5
1628	5.1747	4.5455	0.	-4790.1
1629	5.1747	4.3636	0.	-4781.5
1630	5.1747	4.1818	0.	-4773.6
1631	5.1747	4.	0.	-4766.7
1632	5.1747	3.8182	0.	-4760.9
1633	5.1747	3.6364	0.	-4756.1
1634	5.1747	3.4545	0.	-4752.4
1635	5.1747	3.2727	0.	-4750.
1636	5.1747	3.0909	0.	-4748.7
1637	5.1747	2.9091	0.	-4748.7
1638	5.1747	2.7273	0.	-4750.
1639	5.1747	2.5455	0.	-4752.4
1640	5.1747	2.3636	0.	-4756.1
1641	5.1747	2.1818	0.	-4760.9
1642	5.1747	2.	0.	-4766.7
1643	5.1747	1.8182	0.	-4773.6
1644	5.1747	1.6364	0.	-4781.5
1645	5.1747	1.4545	0.	-4790.1
1646	5.1747	1.2727	0.	-4799.5
1647	5.1747	1.0909	0.	-4809.6
1648	5.1747	0.90909	0.	-4820.1
1649	5.1747	0.72727	0.	-4831.1
1650	5.1747	0.54545	0.	-4842.4
1651	5.1747	0.36364	0.	-4853.8
1652	5.1747	0.18182	0.	-4865.6
1653	4.9899	5.8182	0.	-4928.5
1654	4.9899	5.6364	0.	-4915.8
1655	4.9899	5.4545	0.	-4903.5
1656	4.9899	5.2727	0.	-4891.4
1657	4.9899	5.0909	0.	-4879.5
1658	4.9899	4.9091	0.	-4868.2
1659	4.9899	4.7273	0.	-4857.4
1660	4.9899	4.5455	0.	-4847.2
1661	4.9899	4.3636	0.	-4837.9
1662	4.9899	4.1818	0.	-4829.4
1663	4.9899	4.	0.	-4822.
1664	4.9899	3.8182	0.	-4815.6
1665	4.9899	3.6364	0.	-4810.5
1666	4.9899	3.4545	0.	-4806.5
1667	4.9899	3.2727	0.	-4803.9
1668	4.9899	3.0909	0.	-4802.5
1669	4.9899	2.9091	0.	-4802.5
1670	4.9899	2.7273	0.	-4803.9
1671	4.9899	2.5455	0.	-4806.5
1672	4.9899	2.3636	0.	-4810.5
1673	4.9899	2.1818	0.	-4815.6
1674	4.9899	2.	0.	-4822.
1675	4.9899	1.8182	0.	-4829.4
1676	4.9899	1.6364	0.	-4837.9
1677	4.9899	1.4545	0.	-4847.2
1678	4.9899	1.2727	0.	-4857.4
1679	4.9899	1.0909	0.	-4868.2
1680	4.9899	0.90909	0.	-4879.5
1681	4.9899	0.72727	0.	-4891.4
1682	4.9899	0.54545	0.	-4903.5
1683	4.9899	0.36364	0.	-4915.8
1684	4.9899	0.18182	0.	-4928.5
1685	4.8051	5.8182	0.	-4992.1
1686	4.8051	5.6364	0.	-4978.4
1687	4.8051	5.4545	0.	-4965.2
1688	4.8051	5.2727	0.	-4952.1
1689	4.8051	5.0909	0.	-4939.4
1690	4.8051	4.9091	0.	-4927.1
1691	4.8051	4.7273	0.	-4915.5
1692	4.8051	4.5455	0.	-4904.6
1693	4.8051	4.3636	0.	-4894.5
1694	4.8051	4.1818	0.	-4885.4
1695	4.8051	4.	0.	-4877.4
1696	4.8051	3.8182	0.	-4870.6
1697	4.8051	3.6364	0.	-4865.
1698	4.8051	3.4545	0.	-4860.8
1699	4.8051	3.2727	0.	-4857.9
1700	4.8051	3.0909	0.	-4856.5
1701	4.8051	2.9091	0.	-4856.5
1702	4.8051	2.7273	0.	-4857.9
1703	4.8051	2.5455	0.	-4860.8
1704	4.8051	2.3636	0.	-4865.
1705	4.8051	2.1818	0.	-4870.6
1706	4.8051	2.	0.	-4877.4
1707	4.8051	1.8182	0.	-4885.4
1708	4.8051	1.6364	0.	-4894.5
1709	4.8051	1.4545	0.	-4904.6
1710	4.8051	1.2727	0.	-4915.5
1711	4.8051	1.0909	0.	-4927.1
1712	4.8051	0.90909	0.	-4939.4
1713	4.8051	0.72727	0.	-4952.1
1714	4.8051	0.54545	0.	-4965.2
1715	4.8051	0.36364	0.	-4978.4
1716	4.8051	0.18182	0.	-4992.1
1717	4.6203	5.8182	0.	-5056.4
1718	4.6203	5.6364	0.	-5041.6
1719	4.6203	5.4545	0.	-5027.3
1720	4.6203	5.2727	0.	-5013.3
1721	4.6203	5.0909	0.	-4999.6
1722	4.6203	4.9091	0.	-4986.4
1723	4.6203	4.7273	0.	-4973.9
1724	4.6203	4.5455	0.	-4962.2
1725	4.6203	4.3636	0.	-4951.4
1726	4.6203	4.1818	0.	-4941.6
1727	4.6203	4.	0.	-4933.
1728	4.6203	3.8182	0.	-4925.7
1729	4.6203	3.6364	0.	-4919.7
1730	4.6203	3.4545	0.	-4915.1
1731	4.6203	3.2727	0.	-4912.1
1732	4.6203	3.0909	0.	-4910.5
1733	4.6203	2.9091	0.	-4910.5
1734	4.6203	2.7273	0.	-4912.1
1735	4.6203	2.5455	0.	-4915.1
1736	4.6203	2.3636	0.	-4919.7
1737	4.6203	2.1818	0.	-4925.7
1738	4.6203	2.	0.	-4933.
1739	4.6203	1.8182	0.	-4941.6
1740	4.6203	1.6364	0.	-4951.4
1741	4.6203	1.4545	0.	-4962.2
1742	4.6203	1.2727	0.	-4973.9
1743	4.6203	1.0909	0.	-4986.4
1744	4.6203	0.90909	0.	-4999.6
1745	4.6203	0.72727	0.	-5013.3
1746	4.6203	0.54545	0.	-5027.3
1747	4.6203	0.36364	0.	-5041.6
1748	4.6203	0.18182	0.	-5056.4
1749	4.4354	5.8182	0.	-5121.3
1750	4.4354	5.6364	0.	-5105.3
1751	4.4354	5.4545	0.	-5090.
1752	4.4354	5.2727	0.	-5074.9
1753	4.4354	5.0909	0.	-5060.2
1754	4.4354	4.9091	0.	-5046.1
1755	4.4354	4.7273	0.	-5032.6
1756	4.4354	4.5455	0.	-5020.1
1757	4.4354	4.3636	0.	-5008.5
1758	4.4354	4.1818	0.	-4998.
1759	4.4354	4.	0.	-4988.8
1760	4.4354	3.8182	0.	-4981.
1761	4.4354	3.6364	0.	-4974.6
1762	4.4354	3.4545	0.	-4969.7
1763	4.4354	3.2727	0.	-4966.5
1764	4.4354	3.0909	0.	-4964.8
1765	4.4354	2.9091	0.	-4964.8
1766	4.4354	2.7273	0.	-4966.5
1767	4.4354	2.5455	0.	-4969.7
1768	4.4354	2.3636	0.	-4974.6
1769	4.4354	2.1818	0.	-4981.
1770	4.4354	2.	0.	-4988.8
1771	4.4354	1.8182	0.	-4998.
1772	4.4354	1.6364	0.	-5008.5
1773	4.4354	1.4545	0.	-5020.1
1774	4.4354	1.2727	0.	-5032.6
1775	4.4354	1.0909	0.	-5046.1
1776	4.4354	0.90909	0.	-5060.2
1777	4.4354	0.72727	0.	-5074.9
1778	4.4354	0.54545	0.	-5090.
1779	4.4354	0.36364	0.	-5105.3
1780	4.4354	0.18182	0.	-5121.3
1781	4.2506	5.8182	0.	-5186.9
1782	4.2506	5.6364	0.	-5169.6
1783	4.2506	5.4545	0.	-5153.1
1784	4.2506	5.2727	0.	-5136.9
1785	4.2506	5.0909	0.	-5121.2
1786	4.2506	4.9091	0.	-5106.1
1787	4.2506	4.7273	0.	-5091.7
1788	4.2506	4.5455	0.	-5078.2
1789	4.2506	4.3636	0.	-5065.9
1790	4.2506	4.1818	0.	-5054.7
1791	4.2506	4.	0.	-5044.9
1792	4.2506	3.8182	0.	-5036.6
1793	4.2506	3.6364	0.	-5029.8
1794	4.2506	3.4545	0.	-5024.6
1795	4.2506	3.2727	0.	-5021.2
1796	4.2506	3.0909	0.	-5019.4
1797	4.2506	2.9091	0.	-5019.4
1798	4.2506	2.7273	0.	-5021.2
1799	4.2506	2.5455	0.	-5024.6
1800	4.2506	2.3636	0.	-5029.8
1801	4.2506	2.1818	0.	-5036.6
1802	4.2506	2.	0.	-5044.9
1803	4.2506	1.8182	0.	-5054.7
1804	4.2506	1.6364	0.	-5065.9
1805	4.2506	1.4545	0.	-5078.2
1806	4.2506	1.2727	0.	-5091.7
1807	4.2506	1.0909	0.	-5106.1
1808	4.2506	0.90909	0.	-5121.2
1809	4.2506	0.72727	0.	-5136.9
1810	4.2506	0.54545	0.	-5153.1
1811	4.2506	0.36364	0.	-5169.6
1812	4.2506	0.18182	0.	-5186.9
1813	4.0658	5.8182	0.	-5253.1
1814	4.0658	5.6364	0.	-5234.4
1815	4.0658	5.4545	0.	-5216.7
1816	4.0658	5.2727	0.	-5199.4
1817	4.0658	5.0909	0.	-5182.6
1818	4.0658	4.9091	0.	-5166.4
1819	4.0658	4.7273	0.	-5151.1
1820	4.0658	4.5455	0.	-5136.7
1821	4.0658	4.3636	0.	-5123.6
1822	4.0658	4.1818	0.	-5111.8
1823	4.0658	4.	0.	-5101.4
1824	4.0658	3.8182	0.	-5092.5
1825	4.0658	3.6364	0.	-5085.3
1826	4.0658	3.4545	0.	-5079.9
1827	4.0658	3.2727	0.	-5076.2
1828	4.0658	3.0909	0.	-5074.4
1829	4.0658	2.9091	0.	-5074.4
1830	4.0658	2.7273	0.	-5076.2
1831	4.0658	2.5455	0.	-5079.9
1832	4.0658	2.3636	0.	-5085.3
1833	4.0658	2.1818	0.	-5092.5
1834	4.0658	2.	0.	-5101.4
1835	4.0658	1.8182	0.	-5111.8
1836	4.0658	1.6364	0.	-5123.6
1837	4.0658	1.4545	0.	-5136.7
1838	4.0658	1.2727	0.	-5151.1
1839	4.0658	1.0909	0.	-5166.4
1840	4.0658	0.90909	0.	-5182.6
1841	4.0658	0.72727	0.	-5199.4
1842	4.0658	0.54545	0.	-5216.7
1843	4.0658	0.36364	0.	-5234.4
1844	4.0658	0.18182	0.	-5253.1
1845	3.881	5.8182	0.	-5319.9
1846	3.881	5.6364	0.	-5299.6
1847	3.881	5.4545	0.	-5280.7
1848	3.881	5.2727	0.	-5262.2
1849	3.881	5.0909	0.	-5244.2
1850	3.881	4.9091	0.	-5227.
1851	3.881	4.7273	0.	-5210.7
1852	3.881	4.5455	0.	-5195.6
1853	3.881	4.3636	0.	-5181.7
1854	3.881	4.1818	0.	-5169.2
1855	3.881	4.	0.	-5158.2
1856	3.881	3.8182	0.	-5148.9
1857	3.881	3.6364	0.	-5141.4
1858	3.881	3.4545	0.	-5135.7
1859	3.881	3.2727	0.	-5131.8
1860	3.881	3.0909	0.	-5129.9
1861	3.881	2.9091	0.	-5129.9
1862	3.881	2.7273	0.	-5131.8
1863	3.881	2.5455	0.	-5135.7
1864	3.881	2.3636	0.	-5141.4
1865	3.881	2.1818	0.	-5148.9
1866	3.881	2.	0.	-5158.2
1867	3.881	1.8182	0.	-5169.2
1868	3.881	1.6364	0.	-5181.7
1869	3.881	1.4545	0.	-5195.6
1870	3.881	1.2727	0.	-5210.7
1871	3.881	1.0909	0.	-5227.
1872	3.881	0.90909	0.	-5244.2
1873	3.881	0.72727	0.	-5262.2
1874	3.881	0.54545	0.	-5280.7
1875	3.881	0.36364	0.	-5299.6
1876	3.881	0.18182	0.	-5319.9
1877	3.6962	5.8182	0.	-5387.2
1878	3.6962	5.6364	0.	-5365.3
1879	3.6962	5.4545	0.	-5345.1
1880	3.6962	5.2727	0.	-5325.3
1881	3.6962	5.0909	0.	-5306.2
1882	3.6962	4.9091	0.	-5287.9
1883	3.6962	4.7273	0.	-5270.7
1884	3.6962	4.5455	0.	-5254.7
1885	3.6962	4.3636	0.	-5240.1
1886	3.6962	4.1818	0.	-5227.
1887	3.6962	4.	0.	-5215.6
1888	3.6962	3.8182	0.	-5205.9
1889	3.6962	3.6364	0.	-5198.1
1890	3.6962	3.4545	0.	-5192.2
1891	3.6962	3.2727	0.	-5188.2
1892	3.6962	3.0909	0.	-5186.2
1893	3.6962	2.9091	0.	-5186.2
1894	3.6962	2.7273	0.	-5188.2
1895	3.6962	2.5455	0.	-5192.2
1896	3.6962	2.3636	0.	-5198.1
1897	3.6962	2.1818	0.	-5205.9
1898	3.6962	2.	0.	-5215.6
1899	3.6962	1.8182	0.	-5227.
1900	3.6962	1.6364	0.	-5240.1
1901	3.6962	1.4545	0.	-5254.7
1902	3.6962	1.2727	0.	-5270.7
1903	3.6962	1.0909	0.	-5287.9
1904	3.6962	0.90909	0.	-5306.2
1905	3.6962	0.72727	0.	-5325.3
1906	3.6962	0.54545	0.	-5345.1
1907	3.6962	0.36364	0.	-5365.3
1908	3.6962	0.18182	0.	-5387.2
1909	3.5114	5.8182	0.	-5455.
1910	3.5114	5.6364	0.	-5431.2
1911	3.5114	5.4545	0.	-5409.6
1912	3.5114	5.2727	0.	-5388.6
1913	3.5114	5.0909	0.	-5368.3
1914	3.5114	4.9091	0.	-5349.1
1915	3.5114	4.7273	0.	-5331.
1916	3.5114	4.5455	0.	-5314.2
1917	3.5114	4.3636	0.	-5299.
1918	3.5114	4.1818	0.	-5285.4
1919	3.5114	4.	0.	-5273.6
1920	3.5114	3.8182	0.	-5263.6
1921	3.5114	3.6364	0.	-5255.6
1922	3.5114	3.4545	0.	-5249.6
1923	3.5114	3.2727	0.	-5245.5
1924	3.5114	3.0909	0.	-5243.5
1925	3.5114	2.9091	0.	-5243.5
1926	3.5114	2.7273	0.	-5245.5
1927	3.5114	2.5455	0.	-5249.6
1928	3.5114	2.3636	0.	-5255.6
1929	3.5114	2.1818	0.	-5263.6
1930	3.5114	2.	0.	-5273.6
1931	3.5114	1.8182	0.	-5285.4
1932	3.5114	1.6364	0.	-5299.
1933	3.5114	1.4545	0.	-5314.2
1934	3.5114	1.2727	0.	-5331.
1935	3.5114	1.0909	0.	-5349.1
1936	3.5114	0.90909	0.	-5368.3
1937	3.5114	0.72727	0.	-5388.6
1938	3.5114	0.54545	0.	-5409.6
1939	3.5114	0.36364	0.	-5431.2
1940	3.5114	0.18182	0.	-5455.
1941	3.3266	5.8182	0.	-5522.9
1942	3.3266	5.6364	0.	-5497.1
1943	3.3266	5.4545	0.	-5474.2
1944	3.3266	5.2727	0.	-5451.9
1945	3.3266	5.0909	0.	-5430.5
1946	3.3266	4.9091	0.	-5410.3
1947	3.3266	4.7273	0.	-5391.4
1948	3.3266	4.5455	0.	-5374.1
1949	3.3266	4.3636	0.	-5358.4
1950	3.3266	4.1818	0.	-5344.4
1951	3.3266	4.	0.	-5332.4
1952	3.3266	3.8182	0.	-5322.3
1953	3.3266	3.6364	0.	-5314.3
1954	3.3266	3.4545	0.	-5308.2
1955	3.3266	3.2727	0.	-5304.1
1956	3.3266	3.0909	0.	-5302.1
1957	3.3266	2.9091	0.	-5302.1
1958	3.3266	2.7273	0.	-5304.1
1959	3.3266	2.5455	0.	-5308.2
1960	3.3266	2.3636	0.	-5314.3
1961	3.3266	2.1818	0.	-5322.3
1962	3.3266	2.	0.	-5332.4
1963	3.3266	1.8182	0.	-5344.4
1964	3.3266	1.6364	0.	-5358.4
1965	3.3266	1.4545	0.	-5374.1
1966	3.3266	1.2727	0.	-5391.4
1967	3.3266	1.0909	0.	-5410.3
1968	3.3266	0.90909	0.	-5430.5
1969	3.3266	0.72727	0.	-5451.9
1970	3.3266	0.54545	0.	-5474.2
1971	3.3266	0.36364	0.	-5497.1
1972	3.3266	0.18182	0.	-5522.9
1973	3.1418	5.8182	0.	-5590.8
1974	3.1418	5.6364	0.	-5562.9
1975	3.1418	5.4545	0.	-5538.5
1976	3.1418	5.2727	0.	-5515.
1977	3.1418	5.0909	0.	-5492.6
1978	3.1418	4.9091	0.	-5471.6
1979	3.1418	4.7273	0.	-5452.
1980	3.1418	4.5455	0.	-5434.2
1981	3.1418	4.3636	0.	-5418.3
1982	3.1418	4.1818	0.	-5404.3
1983	3.1418	4.	0.	-5392.2
1984	3.1418	3.8182	0.	-5382.3
1985	3.1418	3.6364	0.	-5374.3
1986	3.1418	3.4545	0.	-5368.4
1987	3.1418	3.2727	0.	-5364.4
1988	3.1418	3.0909	0.	-5362.5
1989	3.1418	2.9091	0.	-5362.5
1990	3.1418	2.7273	0.	-5364.4
1991	3.1418	2.5455	0.	-5368.4
1992	3.1418	2.3636	0.	-5374.3
1993	3.1418	2.1818	0.	-5382.3
1994	3.1418	2.	0.	-5392.2
1995	3.1418	1.8182	0.	-5404.3
1996	3.1418	1.6364	0.	-5418.3
1997	3.1418	1.4545	0.	-5434.2
1998	3.1418	1.2727	0.	-5452.
1999	3.1418	1.0909	0.	-5471.6
2000	3.1418	0.90909	0.	-5492.6
2001	3.1418	0.72727	0.	-5515.
2002	3.1418	0.54545	0.	-5538.5
2003	3.1418	0.36364	0.	-5562.9
2004	3.1418	0.18182	0.	-5590.8
2005	2.957	5.8182	0.	-5658.4
2006	2.957	5.6364	0.	-5628.2
2007	2.957	5.4545	0.	-5602.3
2008	2.957	5.2727	0.	-5577.6
2009	2.957	5.0909	0.	-5554.3
2010	2.957	4.9091	0.	-5532.6
2011	2.957	4.7273	0.	-5512.7
2012	2.957	4.5455	0.	-5494.7
2013	2.957	4.3636	0.	-5478.8
2014	2.957	4.1818	0.	-5465.
2015	2.957	4.	0.	-5453.3
2016	2.957	3.8182	0.	-5443.8
2017	2.957	3.6364	0.	-5436.2
2018	2.957	3.4545	0.	-5430.6
2019	2.957	3.2727	0.	-5426.9
2020	2.957	3.0909	0.	-5425.1
2021	2.957	2.9091	0.	-5425.1
2022	2.957	2.7273	0.	-5426.9
2023	2.957	2.5455	0.	-5430.6
2024	2.957	2.3636	0.	-5436.2
2025	2.957	2.1818	0.	-5443.8
2026	2.957	2.	0.	-5453.3
2027	2.957	1.8182	0.	-5465.
2028	2.957	1.6364	0.	-5478.8
2029	2.957	1.4545	0.	-5494.7
2030	2.957	1.2727	0.	-5512.7
2031	2.957	1.0909	0.	-5532.6
2032	2.957	0.90909	0.	-5554.3
2033	2.957	0.72727	0.	-5577.6
2034	2.957	0.54545	0.	-5602.3
2035	2.957	0.36364	0.	-5628.2
2036	2.957	0.18182	0.	-5658.4
2037	2.7722	5.8182	0.	-5725.2
2038	2.7722	5.6364	0.	-5692.5
2039	2.7722	5.4545	0.	-5665.2
2040	2.7722	5.2727	0.	-5639.4
2041	2.7722	5.0909	0.	-5615.3
2042	2.7722	4.9091	0.	-5593.2
2043	2.7722	4.7273	0.	-5573.2
2044	2.7722	4.5455	0.	-5555.5
2045	2.7722	4.3636	0.	-5540.1
2046	2.7722	4.1818	0.	-5526.9
2047	2.7722	4.	0.	-5516.
2048	2.7722	3.8182	0.	-5507.3
2049	2.7722	3.6364	0.	-5500.4
2050	2.7722	3.4545	0.	-5495.5
2051	2.7722	3.2727	0.	-5492.3
2052	2.7722	3.0909	0.	-5490.7
2053	2.7722	2.9091	0.	-5490.7
2054	2.7722	2.7273	0.	-5492.3
2055	2.7722	2.5455	0.	-5495.5
2056	2.7722	2.3636	0.	-5500.4
2057	2.7722	2.1818	0.	-5507.3
2058	2.7722	2.	0.	-5516.
2059	2.7722	1.8182	0.	-5526.9
2060	2.7722	1.6364	0.	-5540.1
2061	2.7722	1.4545	0.	-5555.5
2062	2.7722	1.2727	0.	-5573.2
2063	2.7722	1.0909	0.	-5593.2
2064	2.7722	0.90909	0.	-5615.3
2065	2.7722	0.72727	0.	-5639.4
2066	2.7722	0.54545	0.	-5665.2
2067	2.7722	0.36364	0.	-5692.5
2068	2.7722	0.18182	0.	-5725.2
2069	2.5873	5.8182	0.	-5790.5
2070	2.5873	5.6364	0.	-5755.1
2071	2.5873	5.4545	0.	-5726.4
2072	2.5873	5.2727	0.	-5699.7
2073	2.5873	5.0909	0.	-5675.2
2074	2.5873	4.9091	0.	-5653.1
2075	2.5873	4.7273	0.	-5633.5
2076	2.5873	4.5455	0.	-5616.5
2077	2.5873	4.3636	0.	-5602.2
2078	2.5873	4.1818	0.	-5590.3
2079	2.5873	4.	0.	-5580.7
2080	2.5873	3.8182	0.	-5573.3
2081	2.5873	3.6364	0.	-5567.7
2082	2.5873	3.4545	0.	-5563.7
2083	2.5873	3.2727	0.	-5561.2
2084	2.5873	3.0909	0.	-5560.
2085	2.5873	2.9091	0.	-5560.
2086	2.5873	2.7273	0.	-5561.2
2087	2.5873	2.5455	0.	-5563.7
2088	2.5873	2.3636	0.	-5567.7
2089	2.5873	2.1818	0.	-5573.3
2090	2.5873	2.	0.	-5580.7
2091	2.5873	1.8182	0.	-5590.3
2092	2.5873	1.6364	0.	-5602.2
2093	2.5873	1.4545	0.	-5616.5
2094	2.5873	1.2727	0.	-5633.5
2095	2.5873	1.0909	0.	-5653.1
2096	2.5873	0.90909	0.	-5675.2
2097	2.5873	0.72727	0.	-5699.7
2098	2.5873	0.54545	0.	-5726.4
2099	2.5873	0.36364	0.	-5755.1
2100	2.5873	0.18182	0.	-5790.5
2101	2.4025	5.8182	0.	-5853.6
2102	2.4025	5.6364	0.	-5815.2
2103	2.4025	5.4545	0.	-5785.3
2104	2.4025	5.2727	0.	-5757.9
2105	2.4025	5.0909	0.	-5733.3
2106	2.4025	4.9091	0.	-5711.7
2107	2.4025	4.7273	0.	-5693.2
2108	2.4025	4.5455	0.	-5677.8
2109	2.4025	4.3636	0.	-5665.3
2110	2.4025	4.1818	0.	-5655.5
2111	2.4025	4.	0.	-5648.
2112	2.4025	3.8182	0.	-5642.6
2113	2.4025	3.6364	0.	-5638.7
2114	2.4025	3.4545	0.	-5636.2
2115	2.4025	3.2727	0.	-5634.7
2116	2.4025	3.0909	0.	-5634.
2117	2.4025	2.9091	0.	-5634.
2118	2.4025	2.7273	0.	-5634.7
2119	2.4025	2.5455	0.	-5636.2
2120	2.4025	2.3636	0.	-5638.7
2121	2.4025	2.1818	0.	-5642.6
2122	2.4025	2.	0.	-5648.
2123	2.4025	1.8182	0.	-5655.5
2124	2.4025	1.6364	0.	-5665.3
2125	2.4025	1.4545	0.	-5677.8
2126	2.4025	1.2727	0.	-5693.2
2127	2.4025	1.0909	0.	-5711.7
2128	2.4025	0.90909	0.	-5733.3
2129	2.4025	0.72727	0.	-5757.9
2130	2.4025	0.54545	0.	-5785.3
2131	2.4025	0.36364	0.	-5815.2
2132	2.4025	0.18182	0.	-5853.6
2133	2.2177	5.8182	0.	-5913.1
2134	2.2177	5.6364	0.	-5871.6
2135	2.2177	5.4545	0.	-5840.6
2136	2.2177	5.2727	0.	-5813.
2137	2.2177	5.0909	0.	-5789.
2138	2.2177	4.9091	0.	-5768.7
2139	2.2177	4.7273	0.	-5752.1
2140	2.2177	4.5455	0.	-5739.2
2141	2.2177	4.3636	0.	-5729.6
2142	2.2177	4.1818	0.	-5722.9
2143	2.2177	4.	0.	-5718.5
2144	2.2177	3.8182	0.	-5715.9
2145	2.2177	3.6364	0.	-5714.6
2146	2.2177	3.4545	0.	-5714.
2147	2.2177	3.2727	0.	-5713.9
2148	2.2177	3.0909	0.	-5713.9
2149	2.2177	2.9091	0.	-5713.9
2150	2.2177	2.7273	0.	-5713.9
2151	2.2177	2.5455	0.	-5714.
2152	2.2177	2.3636	0.	-5714.6
2153	2.2177	2.1818	0.	-5715.9
2154	2.2177	2.	0.	-5718.5
2155	2.2177	1.8182	0.	-5722.9
2156	2.2177	1.6364	0.	-5729.6
2157	2.2177	1.4545	0.	-5739.2
2158	2.2177	1.2727	0.	-5752.1
2159	2.2177	1.0909	0.	-5768.7
2160	2.2177	0.90909	0.	-5789.
2161	2.2177	0.72727	0.	-5813.
2162	2.2177	0.54545	0.	-5840.6
2163	2.2177	0.36364	0.	-5871.6
2164	2.2177	0.18182	0.	-5913.1
2165	2.0329	5.8182	0.	-5967.6
2166	2.0329	5.6364	0.	-5922.8
2167	2.0329	5.4545	0.	-5891.
2168	2.0329	5.2727	0.	-5863.8
2169	2.0329	5.0909	0.	-5841.1
2170	2.0329	4.9091	0.	-5823.2
2171	2.0329	4.7273	0.	-5809.9
2172	2.0329	4.5455	0.	-5800.9
2173	2.0329	4.3636	0.	-5795.6
2174	2.0329	4.1818	0.	-5793.3
2175	2.0329	4.	0.	-5793.2
2176	2.0329	3.8182	0.	-5794.5
2177	2.0329	3.6364	0.	-5796.5
2178	2.0329	3.4545	0.	-5798.6
2179	2.0329	3.2727	0.	-5800.2
2180	2.0329	3.0909	0.	-5801.1
2181	2.0329	2.9091	0.	-5801.1
2182	2.0329	2.7273	0.	-5800.2
2183	2.0329	2.5455	0.	-5798.6
2184	2.0329	2.3636	0.	-5796.5
2185	2.0329	2.1818	0.	-5794.5
2186	2.0329	2.	0.	-5793.2
2187	2.0329	1.8182	0.	-5793.3
2188	2.0329	1.6364	0.	-5795.6
2189	2.0329	1.4545	0.	-5800.9
2190	2.0329	1.2727	0.	-5809.9
2191	2.0329	1.0909	0.	-5823.2
2192	2.0329	0.90909	0.	-5841.1
2193	2.0329	0.72727	0.	-5863.8
2194	2.0329	0.54545	0.	-5891.
2195	2.0329	0.36364	0.	-5922.8
2196	2.0329	0.18182	0.	-5967.6
2197	1.8481	5.8182	0.	-6014.8
2198	1.8481	5.6364	0.	-5966.5
2199	1.8481	5.4545	0.	-5934.5
2200	1.8481	5.2727	0.	-5908.5
2201	1.8481	5.0909	0.	-5888.6
2202	1.8481	4.9091	0.	-5874.6
2203	1.8481	4.7273	0.	-5866.3
2204	1.8481	4.5455	0.	-5863.
2205	1.8481	4.3636	0.	-5863.8
2206	1.8481	4.1818	0.	-5867.5
2207	1.8481	4.	0.	-5873.2
2208	1.8481	3.8182	0.	-5879.6
2209	1.8481	3.6364	0.	-5885.9
2210	1.8481	3.4545	0.	-5891.3
2211	1.8481	3.2727	0.	-5895.3
2212	1.8481	3.0909	0.	-5897.3
2213	1.8481	2.9091	0.	-5897.3
2214	1.8481	2.7273	0.	-5895.3
2215	1.8481	2.5455	0.	-5891.3
2216	1.8481	2.3636	0.	-5885.9
2217	1.8481	2.1818	0.	-5879.6
2218	1.8481	2.	0.	-5873.2
2219	1.8481	1.8182	0.	-5867.5
2220	1.8481	1.6364	0.	-5863.8
2221	1.8481	1.4545	0.	-5863.
2222	1.8481	1.2727	0.	-5866.3
2223	1.8481	1.0909	0.	-5874.6
2224	1.8481	0.90909	0.	-5888.6
2225	1.8481	0.72727	0.	-5908.5
2226	1.8481	0.54545	0.	-5934.5
2227	1.8481	0.36364	0.	-5966.5
2228	1.8481	0.18182	0.	-6014.8
2229	1.6633	5.8182	0.	-6051.7
2230	1.6633	5.6364	0.	-5999.8
2231	1.6633	5.4545	0.	-5968.3
2232	1.6633	5.2727	0.	-5945.
2233	1.6633	5.0909	0.	-5929.7
2234	1.6633	4.9091	0.	-5922.
2235	1.6633	4.7273	0.	-5921.1
2236	1.6633	4.5455	0.	-5926.
2237	1.6633	4.3636	0.	-5935.2
2238	1.6633	4.1818	0.	-5947.
2239	1.6633	4.	0.	-5960.1
2240	1.6633	3.8182	0.	-5973.
2241	1.6633	3.6364	0.	-5984.7
2242	1.6633	3.4545	0.	-5994.2
2243	1.6633	3.2727	0.	-6000.9
2244	1.6633	3.0909	0.	-6004.3
2245	1.6633	2.9091	0.	-6004.3
2246	1.6633	2.7273	0.	-6000.9
2247	1.6633	2.5455	0.	-5994.2
2248	1.6633	2.3636	0.	-5984.7
2249	1.6633	2.1818	0.	-5973.
2250	1.6633	2.	0.	-5960.1
2251	1.6633	1.8182	0.	-5947.
2252	1.6633	1.6364	0.	-5935.2
2253	1.6633	1.4545	0.	-5926.
2254	1.6633	1.2727	0.	-5921.1
2255	1.6633	1.0909	0.	-5922.
2256	1.6633	0.90909	0.	-5929.7
2257	1.6633	0.72727	0.	-5945.
2258	1.6633	0.54545	0.	-5968.3
2259	1.6633	0.36364	0.	-5999.8
2260	1.6633	0.18182	0.	-6051.7
2261	1.4785	5.8182	0.	-6073.7
2262	1.4785	5.6364	0.	-6018.4
2263	1.4785	5.4545	0.	-5989.
2264	1.4785	5.2727	0.	-5970.6
2265	1.4785	5.0909	0.	-5962.7
2266	1.4785	4.9091	0.	-5964.5
2267	1.4785	4.7273	0.	-5974.6
2268	1.4785	4.5455	0.	-5990.9
2269	1.4785	4.3636	0.	-6011.3
2270	1.4785	4.1818	0.	-6033.7
2271	1.4785	4.	0.	-6056.1
2272	1.4785	3.8182	0.	-6077.
2273	1.4785	3.6364	0.	-6095.
2274	1.4785	3.4545	0.	-6109.3
2275	1.4785	3.2727	0.	-6119.2
2276	1.4785	3.0909	0.	-6124.2
2277	1.4785	2.9091	0.	-6124.2
2278	1.4785	2.7273	0.	-6119.2
2279	1.4785	2.5455	0.	-6109.3
2280	1.4785	2.3636	0.	-6095.
2281	1.4785	2.1818	0.	-6077.
2282	1.4785	2.	0.	-6056.1
2283	1.4785	1.8182	0.	-6033.7
2284	1.4785	1.6364	0.	-6011.3
2285	1.4785	1.4545	0.	-5990.9
2286	1.4785	1.2727	0.	-5974.6
2287	1.4785	1.0909	0.	-5964.5
2288	1.4785	0.90909	0.	-5962.7
2289	1.4785	0.72727	0.	-5970.6
2290	1.4785	0.54545	0.	-5989.
2291	1.4785	0.36364	0.	-6018.4
2292	1.4785	0.18182	0.	-6073.7
2293	1.2937	5.8182	0.	-6074.5
2294	1.2937	5.6364	0.	-6016.3
2295	1.2937	5.4545	0.	-5991.4
2296	1.2937	5.2727	0.	-5981.6
2297	1.2937	5.0909	0.	-5985.7
2298	1.2937	4.9091	0.	-6001.9
2299	1.2937	4.7273	0.	-6027.6
2300	1.2937	4.5455	0.	-6059.5
2301	1.2937	4.3636	0.	-6094.7
2302	1.2937	4.1818	0.	-6130.2
2303	1.2937	4.	0.	-6163.9
2304	1.2937	3.8182	0.	-6194.
2305	1.2937	3.6364	0.	-6219.3
2306	1.2937	3.4545	0.	-6238.9
2307	1.2937	3.2727	0.	-6252.2
2308	1.2937	3.0909	0.	-6259.
2309	1.2937	2.9091	0.	-6259.
2310	1.2937	2.7273	0.	-6252.2
2311	1.2937	2.5455	0.	-6238.9
2312	1.2937	2.3636	0.	-6219.3
2313	1.2937	2.1818	0.	-6194.
2314	1.2937	2.	0.	-6163.9
2315	1.2937	1.8182	0.	-6130.2
2316	1.2937	1.6364	0.	-6094.7
2317	1.2937	1.4545	0.	-6059.5
2318	1.2937	1.2727	0.	-6027.6
2319	1.2937	1.0909	0.	-6001.9
2320	1.2937	0.90909	0.	-5985.7
2321	1.2937	0.72727	0.	-5981.6
2322	1.2937	0.54545	0.	-5991.4
2323	1.2937	0.36364	0.	-6016.3
2324	1.2937	0.18182	0.	-6074.5
2325	1.1089	5.8182	0.	-6044.
2326	1.1089	5.6364	0.	-5984.7
2327	1.1089	5.4545	0.	-5968.7
2328	1.1089	5.2727	0.	-5973.8
2329	1.1089	5.0909	0.	-5997.2
2330	1.1089	4.9091	0.	-6035.2
2331	1.1089	4.7273	0.	-6082.9
2332	1.1089	4.5455	0.	-6135.7
2333	1.1089	4.3636	0.	-6189.4
2334	1.1089	4.1818	0.	-6240.6
2335	1.1089	4.	0.	-6287.2
2336	1.1089	3.8182	0.	-6327.6
2337	1.1089	3.6364	0.	-6360.6
2338	1.1089	3.4545	0.	-6385.8
2339	1.1089	3.2727	0.	-6402.7
2340	1.1089	3.0909	0.	-6411.2
2341	1.1089	2.9091	0.	-6411.2
2342	1.1089	2.7273	0.	-6402.7
2343	1.1089	2.5455	0.	-6385.8
2344	1.1089	2.3636	0.	-6360.6
2345	1.1089	2.1818	0.	-6327.6
2346	1.1089	2.	0.	-6287.2
2347	1.1089	1.8182	0.	-6240.6
2348	1.1089	1.6364	0.	-6189.4
2349	1.1089	1.4545	0.	-6135.7
2350	1.1089	1.2727	0.	-6082.9
2351	1.1089	1.0909	0.	-6035.2
2352	1.1089	0.90909	0.	-5997.2
2353	1.1089	0.72727	0.	-5973.8
2354	1.1089	0.54545	0.	-5968.7
2355	1.1089	0.36364	0.	-5984.7
2356	1.1089	0.18182	0.	-6044.
2357	0.92405	5.8182	0.	-5965.9
2358	0.92405	5.6364	0.	-5909.4
2359	0.92405	5.4545	0.	-5910.8
2360	0.92405	5.2727	0.	-5941.9
2361	0.92405	5.0909	0.	-5996.4
2362	0.92405	4.9091	0.	-6066.7
2363	0.92405	4.7273	0.	-6144.9
2364	0.92405	4.5455	0.	-6224.3
2365	0.92405	4.3636	0.	-6300.1
2366	0.92405	4.1818	0.	-6369.1
2367	0.92405	4.	0.	-6429.4
2368	0.92405	3.8182	0.	-6480.1
2369	0.92405	3.6364	0.	-6520.8
2370	0.92405	3.4545	0.	-6551.3
2371	0.92405	3.2727	0.	-6571.6
2372	0.92405	3.0909	0.	-6581.7
2373	0.92405	2.9091	0.	-6581.7
2374	0.92405	2.7273	0.	-6571.6
2375	0.92405	2.5455	0.	-6551.3
2376	0.92405	2.3636	0.	-6520.8
2377	0.92405	2.1818	0.	-6480.1
2378	0.92405	2.	0.	-6429.4
2379	0.92405	1.8182	0.	-6369.1
2380	0.92405	1.6364	0.	-6300.1
2381	0.92405	1.4545	0.	-6224.3
2382	0.92405	1.2727	0.	-6144.9
2383	0.92405	1.0909	0.	-6066.7
2384	0.92405	0.90909	0.	-5996.4
2385	0.92405	0.72727	0.	-5941.9
2386	0.92405	0.54545	0.	-5910.8
2387	0.92405	0.36364	0.	-5909.4
2388	0.92405	0.18182	0.	-5965.9
2389	0.73924	5.8182	0.	-5814.6
2390	0.73924	5.6364	0.	-5771.7
2391	0.73924	5.4545	0.	-5808.8
2392	0.73924	5.2727	0.	-5887.1
2393	0.73924	5.0909	0.	-5992.3
2394	0.73924	4.9091	0.	-6109.8
2395	0.73924	4.7273	0.	-6228.
2396	0.73924	4.5455	0.	-6339.2
2397	0.73924	4.3636	0.	-6439.2
2398	0.73924	4.1818	0.	-6526.3
2399	0.73924	4.	0.	-6599.9
2400	0.73924	3.8182	0.	-6660.1
2401	0.73924	3.6364	0.	-6707.4
2402	0.73924	3.4545	0.	-6742.3
2403	0.73924	3.2727	0.	-6765.3
2404	0.73924	3.0909	0.	-6776.7
2405	0.73924	2.9091	0.	-6776.7
2406	0.73924	2.7273	0.	-6765.3
2407	0.73924	2.5455	0.	-6742.3
2408	0.73924	2.3636	0.	-6707.4
2409	0.73924	2.1818	0.	-6660.1
2410	0.73924	2.	0.	-6599.9
2411	0.73924	1.8182	0.	-6526.3
2412	0.73924	1.6364	0.	-6439.2
2413	0.73924	1.4545	0.	-6339.2
2414	0.73924	1.2727	0.	-6228.
2415	0.73924	1.0909	0.	-6109.8
2416	0.73924	0.90909	0.	-5992.3
2417	0.73924	0.72727	0.	-5887.1
2418	0.73924	0.54545	0.	-5808.8
2419	0.73924	0.36364	0.	-5771.7
2420	0.73924	0.18182	0.	-5814.6
2421	0.55443	5.8182	0.	-5531.6
2422	0.55443	5.6364	0.	-5526.1
2423	0.55443	5.4545	0.	-5637.
2424	0.55443	5.2727	0.	-5801.3
2425	0.55443	5.0909	0.	-5985.9
2426	0.55443	4.9091	0.	-6167.
2427	0.55443	4.7273	0.	-6332.1
2428	0.55443	4.5455	0.	-6476.5
2429	0.55443	4.3636	0.	-6599.5
2430	0.55443	4.1818	0.	-6702.
2431	0.55443	4.	0.	-6786.
2432	0.55443	3.8182	0.	-6853.
2433	0.55443	3.6364	0.	-6904.8
2434	0.55443	3.4545	0.	-6942.5
2435	0.55443	3.2727	0.	-6967.1
2436	0.55443	3.0909	0.	-6979.3
2437	0.55443	2.9091	0.	-6979.3
2438	0.55443	2.7273	0.	-6967.1
2439	0.55443	2.5455	0.	-6942.5
2440	0.55443	2.3636	0.	-6904.8
2441	0.55443	2.1818	0.	-6853.
2442	0.55443	2.	0.	-6786.
2443	0.55443	1.8182	0.	-6702.
2444	0.55443	1.6364	0.	-6599.5
2445	0.55443	1.4545	0.	-6476.5
2446	0.55443	1.2727	0.	-6332.1
2447	0.55443	1.0909	0.	-6167.
2448	0.55443	0.90909	0.	-5985.9
2449	0.55443	0.72727	0.	-5801.3
2450	0.55443	0.54545	0.	-5637.
2451	0.55443	0.36364	0.	-5526.1
2452	0.55443	0.18182	0.	-5531.6
2453	0.36962	5.8182	0.	-5036.7
2454	0.36962	5.6364	0.	-5165.5
2455	0.36962	5.4545	0.	-5457.6
2456	0.36962	5.2727	0.	-5782.7
2457	0.36962	5.0909	0.	-6081.7
2458	0.36962	4.9091	0.	-6336.9
2459	0.36962	4.7273	0.	-6548.1
2460	0.36962	4.5455	0.	-6720.4
2461	0.36962	4.3636	0.	-6860.1
2462	0.36962	4.1818	0.	-6972.6
2463	0.36962	4.	0.	-7062.2
2464	0.36962	3.8182	0.	-7132.3
2465	0.36962	3.6364	0.	-7185.7
2466	0.36962	3.4545	0.	-7224.1
2467	0.36962	3.2727	0.	-7249.1
2468	0.36962	3.0909	0.	-7261.3
2469	0.36962	2.9091	0.	-7261.3
2470	0.36962	2.7273	0.	-7249.1
2471	0.36962	2.5455	0.	-7224.1
2472	0.36962	2.3636	0.	-7185.7
2473	0.36962	2.1818	0.	-7132.3
2474	0.36962	2.	0.	-7062.2
2475	0.36962	1.8182	0.	-6972.6
2476	0.36962	1.6364	0.	-6860.1
2477	0.36962	1.4545	0.	-6720.4
2478	0.36962	1.2727	0.	-6548.1
2479	0.36962	1.0909	0.	-6336.9
2480	0.36962	0.90909	0.	-6081.7
2481	0.36962	0.72727	0.	-5782.7
2482	0.36962	0.54545	0.	-5457.6
2483	0.36962	0.36364	0.	-5165.5
2484	0.36962	0.18182	0.	-5036.7
2485	0.18481	5.8182	0.	-3895.7
2486	0.18481	5.6364	0.	-4490.6
2487	0.18481	5.4545	0.	-5182.2
2488	0.18481	5.2727	0.	-5711.9
2489	0.18481	5.0909	0.	-6110.4
2490	0.18481	4.9091	0.	-6410.7
2491	0.18481	4.7273	0.	-6640.6
2492	0.18481	4.5455	0.	-6818.9
2493	0.18481	4.3636	0.	-6958.4
2494	0.18481	4.1818	0.	-7067.8
2495	0.18481	4.	0.	-7153.3
2496	0.18481	3.8182	0.	-7219.4
2497	0.18481	3.6364	0.	-7269.1
2498	0.18481	3.4545	0.	-7304.7
2499	0.18481	3.2727	0.	-7327.7
2500	0.18481	3.0909	0.	-7338.9
2501	0.18481	2.9091	0.	-7338.9
2502	0.18481	2.7273	0.	-7327.7
2503	0.18481	2.5455	0.	-7304.7
2504	0.18481	2.3636	0.	-7269.1
2505	0.18481	2.1818	0.	-7219.4
2506	0.18481	2.	0.	-7153.3
2507	0.18481	1.8182	0.	-7067.8
2508	0.18481	1.6364	0.	-6958.4
2509	0.18481	1.4545	0.	-6818.9
2510	0.18481	1.2727	0.	-6640.6
2511	0.18481	1.0909	0.	-6410.7
2512	0.18481	0.90909	0.	-6110.4
2513	0.18481	0.72727	0.	-5711.9
2514	0.18481	0.54545	0.	-5182.2
2515	0.18481	0.36364	0.	-4490.6
2516	0.18481	0.18182	0.	-3895.7
2517	14.951	0.18182	0.	-355.29
2518	14.951	0.36364	0.	-495.
2519	14.951	0.54545	0.	-659.85
2520	14.951	0.72727	0.	-841.19
2521	14.951	0.90909	0.	-1047.6
2522	14.951	1.0909	0.	-1293.7
2523	14.951	1.2727	0.	-1602.8
2524	14.951	1.4545	0.	-2025.2
2525	14.951	1.6364	0.	-2640.4
2526	14.951	1.8182	0.	-3847.2
2527	14.951	2.	0.	-5364.1
2528	14.951	2.1818	0.	-5555.6
2529	14.951	2.3636	0.	-5241.8
2530	14.951	2.5455	0.	-4854.5
2531	14.951	2.7273	0.	-4628.6
2532	14.951	2.9091	0.	-4521.1
2533	14.951	3.0909	0.	-4521.1
2534	14.951	3.2727	0.	-4628.6
2535	14.951	3.4545	0.	-4854.5
2536	14.951	3.6364	0.	-5241.8
2537	14.951	3.8182	0.	-5555.6
2538	14.951	4.	0.	-5364.1
2539	14.951	4.1818	0.	-3847.2
2540	14.951	4.3636	0.	-2640.4
2541	14.951	4.5455	0.	-2025.2
2542	14.951	4.7273	0.	-1602.8
2543	14.951	4.9091	0.	-1293.7
2544	14.951	5.0909	0.	-1047.6
2545	14.951	5.2727	0.	-841.19
2546	14.951	5.4545	0.	-659.85
2547	14.951	5.6364	0.	-495.
2548	14.951	5.8182	0.	-355.29
2549	15.136	0.18182	0.	-547.64
2550	15.136	0.36364	0.	-626.44
2551	15.136	0.54545	0.	-751.44
2552	15.136	0.72727	0.	-907.12
2553	15.136	0.90909	0.	-1093.8
2554	15.136	1.0909	0.	-1319.7
2555	15.136	1.2727	0.	-1601.4
2556	15.136	1.4545	0.	-1962.9
2557	15.136	1.6364	0.	-2441.3
2558	15.136	1.8182	0.	-3053.6
2559	15.136	2.	0.	-3650.5
2560	15.136	2.1818	0.	-4130.8
2561	15.136	2.3636	0.	-4283.4
2562	15.136	2.5455	0.	-4255.6
2563	15.136	2.7273	0.	-4189.3
2564	15.136	2.9091	0.	-4147.7
2565	15.136	3.0909	0.	-4147.7
2566	15.136	3.2727	0.	-4189.3
2567	15.136	3.4545	0.	-4255.6
2568	15.136	3.6364	0.	-4283.4
2569	15.136	3.8182	0.	-4130.8
2570	15.136	4.	0.	-3650.5
2571	15.136	4.1818	0.	-3053.6
2572	15.136	4.3636	0.	-2441.3
2573	15.136	4.5455	0.	-1962.9
2574	15.136	4.7273	0.	-1601.4
2575	15.136	4.9091	0.	-1319.7
2576	15.136	5.0909	0.	-1093.8
2577	15.136	5.2727	0.	-907.12
2578	15.136	5.4545	0.	-751.44
2579	15.136	5.6364	0.	-626.44
2580	15.136	5.8182	0.	-547.64
2581	15.321	0.18182	0.	-738.34
2582	15.321	0.36364	0.	-793.97
2583	15.321	0.54545	0.	-891.23
2584	15.321	0.72727	0.	-1022.6
2585	15.321	0.90909	0.	-1187.1
2586	15.321	1.0909	0.	-1388.4
2587	15.321	1.2727	0.	-1633.1
2588	15.321	1.4545	0.	-1930.4
2589	15.321	1.6364	0.	-2280.
2590	15.321	1.8182	0.	-2669.2
2591	15.321	2.	0.	-3059.3
2592	15.321	2.1818	0.	-3380.2
2593	15.321	2.3636	0.	-3590.2
2594	15.321	2.5455	0.	-3686.7
2595	15.321	2.7273	0.	-3717.9
2596	15.321	2.9091	0.	-3724.
2597	15.321	3.0909	0.	-3724.
2598	15.321	3.2727	0.	-3717.9
2599	15.321	3.4545	0.	-3686.7
2600	15.321	3.6364	0.	-3590.2
2601	15.321	3.8182	0.	-3380.2
2602	15.321	4.	0.	-3059.3
2603	15.321	4.1818	0.	-2669.2
2604	15.321	4.3636	0.	-2280.
2605	15.321	4.5455	0.	-1930.4
2606	15.321	4.7273	0.	-1633.1
2607	15.321	4.9091	0.	-1388.4
2608	15.321	5.0909	0.	-1187.1
2609	15.321	5.2727	0.	-1022.6
2610	15.321	5.4545	0.	-891.23
2611	15.321	5.6364	0.	-793.97
2612	15.321	5.8182	0.	-738.34
2613	15.505	0.18182	0.	-904.81
2614	15.505	0.36364	0.	-949.67
2615	15.505	0.54545	0.	-1028.5
2616	15.505	0.72727	0.	-1137.6
2617	15.505	0.90909	0.	-1276.9
2618	15.505	1.0909	0.	-1447.1
2619	15.505	1.2727	0.	-1649.
2620	15.505	1.4545	0.	-1882.3
2621	15.505	1.6364	0.	-2142.2
2622	15.505	1.8182	0.	-2415.8
2623	15.505	2.	0.	-2684.5
2624	15.505	2.1818	0.	-2922.6
2625	15.505	2.3636	0.	-3106.2
2626	15.505	2.5455	0.	-3226.
2627	15.505	2.7273	0.	-3291.7
2628	15.505	2.9091	0.	-3319.5
2629	15.505	3.0909	0.	-3319.5
2630	15.505	3.2727	0.	-3291.7
2631	15.505	3.4545	0.	-3226.
2632	15.505	3.6364	0.	-3106.2
2633	15.505	3.8182	0.	-2922.6
2634	15.505	4.	0.	-2684.5
2635	15.505	4.1818	0.	-2415.8
2636	15.505	4.3636	0.	-2142.2
2637	15.505	4.5455	0.	-1882.3
2638	15.505	4.7273	0.	-1649.
2639	15.505	4.9091	0.	-1447.1
2640	15.505	5.0909	0.	-1276.9
2641	15.505	5.2727	0.	-1137.6
2642	15.505	5.4545	0.	-1028.5
2643	15.505	5.6364	0.	-949.67
2644	15.505	5.8182	0.	-904.81
2645	15.69	0.18182	0.	-1044.3
2646	15.69	0.36364	0.	-1082.4
2647	15.69	0.54545	0.	-1147.5
2648	15.69	0.72727	0.	-1237.7
2649	15.69	0.90909	0.	-1352.7
2650	15.69	1.0909	0.	-1491.9
2651	15.69	1.2727	0.	-1653.8
2652	15.69	1.4545	0.	-1835.3
2653	15.69	1.6364	0.	-2030.7
2654	15.69	1.8182	0.	-2232.
2655	15.69	2.	0.	-2428.5
2656	15.69	2.1818	0.	-2607.4
2657	15.69	2.3636	0.	-2755.6
2658	15.69	2.5455	0.	-2864.6
2659	15.69	2.7273	0.	-2933.6
2660	15.69	2.9091	0.	-2966.4
2661	15.69	3.0909	0.	-2966.4
2662	15.69	3.2727	0.	-2933.6
2663	15.69	3.4545	0.	-2864.6
2664	15.69	3.6364	0.	-2755.6
2665	15.69	3.8182	0.	-2607.4
2666	15.69	4.	0.	-2428.5
2667	15.69	4.1818	0.	-2232.
2668	15.69	4.3636	0.	-2030.7
2669	15.69	4.5455	0.	-1835.3
2670	15.69	4.7273	0.	-1653.8
2671	15.69	4.9091	0.	-1491.9
2672	15.69	5.0909	0.	-1352.7
2673	15.69	5.2727	0.	-1237.7
2674	15.69	5.4545	0.	-1147.5
2675	15.69	5.6364	0.	-1082.4
2676	15.69	5.8182	0.	-1044.3
2677	15.875	0.18182	0.	-1156.9
2678	15.875	0.36364	0.	-1189.3
2679	15.875	0.54545	0.	-1243.4
2680	15.875	0.72727	0.	-1317.4
2681	15.875	0.90909	0.	-1410.7
2682	15.875	1.0909	0.	-1522.4
2683	15.875	1.2727	0.	-1650.2
2684	15.875	1.4545	0.	-1790.8
2685	15.875	1.6364	0.	-1939.7
2686	15.875	1.8182	0.	-2091.1
2687	15.875	2.	0.	-2238.5
2688	15.875	2.1818	0.	-2374.2
2689	15.875	2.3636	0.	-2490.4
2690	15.875	2.5455	0.	-2580.6
2691	15.875	2.7273	0.	-2641.1
2692	15.875	2.9091	0.	-2671.2
2693	15.875	3.0909	0.	-2671.2
2694	15.875	3.2727	0.	-2641.1
2695	15.875	3.4545	0.	-2580.6
2696	15.875	3.6364	0.	-2490.4
2697	15.875	3.8182	0.	-2374.2
2698	15.875	4.	0.	-2238.5
2699	15.875	4.1818	0.	-2091.1
2700	15.875	4.3636	0.	-1939.7
2701	15.875	4.5455	0.	-1790.8
2702	15.875	4.7273	0.	-1650.2
2703	15.875	4.9091	0.	-1522.4
2704	15.875	5.0909	0.	-1410.7
2705	15.875	5.2727	0.	-1317.4
2706	15.875	5.4545	0.	-1243.4
2707	15.875	5.6364	0.	-1189.3
2708	15.875	5.8182	0.	-1156.9
2709	16.059	0.18182	0.	-1244.1
2710	16.059	0.36364	0.	-1271.5
2711	16.059	0.54545	0.	-1316.1
2712	16.059	0.72727	0.	-1376.1
2713	16.059	0.90909	0.	-1451.1
2714	16.059	1.0909	0.	-1539.7
2715	16.059	1.2727	0.	-1639.8
2716	16.059	1.4545	0.	-1748.7
2717	16.059	1.6364	0.	-1862.7
2718	16.059	1.8182	0.	-1977.9
2719	16.059	2.	0.	-2089.7
2720	16.059	2.1818	0.	-2193.2
2721	16.059	2.3636	0.	-2283.1
2722	16.059	2.5455	0.	-2354.4
2723	16.059	2.7273	0.	-2403.6
2724	16.059	2.9091	0.	-2428.6
2725	16.059	3.0909	0.	-2428.6
2726	16.059	3.2727	0.	-2403.6
2727	16.059	3.4545	0.	-2354.4
2728	16.059	3.6364	0.	-2283.1
2729	16.059	3.8182	0.	-2193.2
2730	16.059	4.	0.	-2089.7
2731	16.059	4.1818	0.	-1977.9
2732	16.059	4.3636	0.	-1862.7
2733	16.059	4.5455	0.	-1748.7
2734	16.059	4.7273	0.	-1639.8
2735	16.059	4.9091	0.	-1539.7
2736	16.059	5.0909	0.	-1451.1
2737	16.059	5.2727	0.	-1376.1
2738	16.059	5.4545	0.	-1316.1
2739	16.059	5.6364	0.	-1271.5
2740	16.059	5.8182	0.	-1244.1
2741	16.244	0.18182	0.	-1308.6
2742	16.244	0.36364	0.	-1331.3
2743	16.244	0.54545	0.	-1367.6
2744	16.244	0.72727	0.	-1415.9
2745	16.244	0.90909	0.	-1475.6
2746	16.244	1.0909	0.	-1545.3
2747	16.244	1.2727	0.	-1623.4
2748	16.244	1.4545	0.	-1707.6
2749	16.244	1.6364	0.	-1795.2
2750	16.244	1.8182	0.	-1883.2
2751	16.244	2.	0.	-1968.4
2752	16.244	2.1818	0.	-2047.4
2753	16.244	2.3636	0.	-2116.3
2754	16.244	2.5455	0.	-2171.6
2755	16.244	2.7273	0.	-2210.1
2756	16.244	2.9091	0.	-2229.9
2757	16.244	3.0909	0.	-2229.9
2758	16.244	3.2727	0.	-2210.1
2759	16.244	3.4545	0.	-2171.6
2760	16.244	3.6364	0.	-2116.3
2761	16.244	3.8182	0.	-2047.4
2762	16.244	4.	0.	-1968.4
2763	16.244	4.1818	0.	-1883.2
2764	16.244	4.3636	0.	-1795.2
2765	16.244	4.5455	0.	-1707.6
2766	16.244	4.7273	0.	-1623.4
2767	16.244	4.9091	0.	-1545.3
2768	16.244	5.0909	0.	-1475.6
2769	16.244	5.2727	0.	-1415.9
2770	16.244	5.4545	0.	-1367.6
2771	16.244	5.6364	0.	-1331.3
2772	16.244	5.8182	0.	-1308.6
2773	16.429	0.18182	0.	-1353.3
2774	16.429	0.36364	0.	-1371.7
2775	16.429	0.54545	0.	-1401.
2776	16.429	0.72727	0.	-1439.4
2777	16.429	0.90909	0.	-1486.5
2778	16.429	1.0909	0.	-1541.1
2779	16.429	1.2727	0.	-1601.7
2780	16.429	1.4545	0.	-1666.7
2781	16.429	1.6364	0.	-1734.
2782	16.429	1.8182	0.	-1801.4
2783	16.429	2.	0.	-1866.4
2784	16.429	2.1818	0.	-1926.5
2785	16.429	2.3636	0.	-1979.
2786	16.429	2.5455	0.	-2021.2
2787	16.429	2.7273	0.	-2050.8
2788	16.429	2.9091	0.	-2066.
2789	16.429	3.0909	0.	-2066.
2790	16.429	3.2727	0.	-2050.8
2791	16.429	3.4545	0.	-2021.2
2792	16.429	3.6364	0.	-1979.
2793	16.429	3.8182	0.	-1926.5
2794	16.429	4.	0.	-1866.4
2795	16.429	4.1818	0.	-1801.4
2796	16.429	4.3636	0.	-1734.
2797	16.429	4.5455	0.	-1666.7
2798	16.429	4.7273	0.	-1601.7
2799	16.429	4.9091	0.	-1541.1
2800	16.429	5.0909	0.	-1486.5
2801	16.429	5.2727	0.	-1439.4
2802	16.429	5.4545	0.	-1401.
2803	16.429	5.6364	0.	-1371.7
2804	16.429	5.8182	0.	-1353.3
2805	16.613	0.18182	0.	-1381.1
2806	16.613	0.36364	0.	-1395.8
2807	16.613	0.54545	0.	-1419.
2808	16.613	0.72727	0.	-1449.3
2809	16.613	0.90909	0.	-1486.1
2810	16.613	1.0909	0.	-1528.6
2811	16.613	1.2727	0.	-1575.6
2812	16.613	1.4545	0.	-1625.6
2813	16.613	1.6364	0.	-1677.2
2814	16.613	1.8182	0.	-1728.6
2815	16.613	2.	0.	-1778.2
2816	16.613	2.1818	0.	-1823.8
2817	16.613	2.3636	0.	-1863.6
2818	16.613	2.5455	0.	-1895.6
2819	16.613	2.7273	0.	-1918.
2820	16.613	2.9091	0.	-1929.5
2821	16.613	3.0909	0.	-1929.5
2822	16.613	3.2727	0.	-1918.
2823	16.613	3.4545	0.	-1895.6
2824	16.613	3.6364	0.	-1863.6
2825	16.613	3.8182	0.	-1823.8
2826	16.613	4.	0.	-1778.2
2827	16.613	4.1818	0.	-1728.6
2828	16.613	4.3636	0.	-1677.2
2829	16.613	4.5455	0.	-1625.6
2830	16.613	4.7273	0.	-1575.6
2831	16.613	4.9091	0.	-1528.6
2832	16.613	5.0909	0.	-1486.1
2833	16.613	5.2727	0.	-1449.3
2834	16.613	5.4545	0.	-1419.
2835	16.613	5.6364	0.	-1395.8
2836	16.613	5.8182	0.	-1381.1
2837	16.798	0.18182	0.	-1394.9
2838	16.798	0.36364	0.	-1406.2
2839	16.798	0.54545	0.	-1424.4
2840	16.798	0.72727	0.	-1448.
2841	16.798	0.90909	0.	-1476.6
2842	16.798	1.0909	0.	-1509.5
2843	16.798	1.2727	0.	-1545.6
2844	16.798	1.4545	0.	-1584.
2845	16.798	1.6364	0.	-1623.4
2846	16.798	1.8182	0.	-1662.6
2847	16.798	2.	0.	-1700.2
2848	16.798	2.1818	0.	-1734.7
2849	16.798	2.3636	0.	-1764.7
2850	16.798	2.5455	0.	-1788.8
2851	16.798	2.7273	0.	-1805.6
2852	16.798	2.9091	0.	-1814.3
2853	16.798	3.0909	0.	-1814.3
2854	16.798	3.2727	0.	-1805.6
2855	16.798	3.4545	0.	-1788.8
2856	16.798	3.6364	0.	-1764.7
2857	16.798	3.8182	0.	-1734.7
2858	16.798	4.	0.	-1700.2
2859	16.798	4.1818	0.	-1662.6
2860	16.798	4.3636	0.	-1623.4
2861	16.798	4.5455	0.	-1584.
2862	16.798	4.7273	0.	-1545.6
2863	16.798	4.9091	0.	-1509.5
2864	16.798	5.0909	0.	-1476.6
2865	16.798	5.2727	0.	-1448.
2866	16.798	5.4545	0.	-1424.4
2867	16.798	5.6364	0.	-1406.2
2868	16.798	5.8182	0.	-1394.9
2869	16.983	0.18182	0.	-1397.
2870	16.983	0.36364	0.	-1405.5
2871	16.983	0.54545	0.	-1419.5
2872	16.983	0.72727	0.	-1437.8
2873	16.983	0.90909	0.	-1459.8
2874	16.983	1.0909	0.	-1485.
2875	16.983	1.2727	0.	-1512.6
2876	16.983	1.4545	0.	-1541.9
2877	16.983	1.6364	0.	-1571.9
2878	16.983	1.8182	0.	-1601.6
2879	16.983	2.	0.	-1630.
2880	16.983	2.1818	0.	-1656.
2881	16.983	2.3636	0.	-1678.5
2882	16.983	2.5455	0.	-1696.5
2883	16.983	2.7273	0.	-1709.1
2884	16.983	2.9091	0.	-1715.6
2885	16.983	3.0909	0.	-1715.6
2886	16.983	3.2727	0.	-1709.1
2887	16.983	3.4545	0.	-1696.5
2888	16.983	3.6364	0.	-1678.5
2889	16.983	3.8182	0.	-1656.
2890	16.983	4.	0.	-1630.
2891	16.983	4.1818	0.	-1601.6
2892	16.983	4.3636	0.	-1571.9
2893	16.983	4.5455	0.	-1541.9
2894	16.983	4.7273	0.	-1512.6
2895	16.983	4.9091	0.	-1485.
2896	16.983	5.0909	0.	-1459.8
2897	16.983	5.2727	0.	-1437.8
2898	16.983	5.4545	0.	-1419.5
2899	16.983	5.6364	0.	-1405.5
2900	16.983	5.8182	0.	-1397.
2901	17.167	0.18182	0.	-1389.7
2902	17.167	0.36364	0.	-1395.8
2903	17.167	0.54545	0.	-1406.4
2904	17.167	0.72727	0.	-1420.3
2905	17.167	0.90909	0.	-1437.1
2906	17.167	1.0909	0.	-1456.3
2907	17.167	1.2727	0.	-1477.3
2908	17.167	1.4545	0.	-1499.4
2909	17.167	1.6364	0.	-1522.1
2910	17.167	1.8182	0.	-1544.5
2911	17.167	2.	0.	-1565.8
2912	17.167	2.1818	0.	-1585.3
2913	17.167	2.3636	0.	-1602.1
2914	17.167	2.5455	0.	-1615.4
2915	17.167	2.7273	0.	-1624.8
2916	17.167	2.9091	0.	-1629.6
2917	17.167	3.0909	0.	-1629.6
2918	17.167	3.2727	0.	-1624.8
2919	17.167	3.4545	0.	-1615.4
2920	17.167	3.6364	0.	-1602.1
2921	17.167	3.8182	0.	-1585.3
2922	17.167	4.	0.	-1565.8
2923	17.167	4.1818	0.	-1544.5
2924	17.167	4.3636	0.	-1522.1
2925	17.167	4.5455	0.	-1499.4
2926	17.167	4.7273	0.	-1477.3
2927	17.167	4.9091	0.	-1456.3
2928	17.167	5.0909	0.	-1437.1
2929	17.167	5.2727	0.	-1420.3
2930	17.167	5.4545	0.	-1406.4
2931	17.167	5.6364	0.	-1395.8
2932	17.167	5.8182	0.	-1389.7
2933	17.352	0.18182	0.	-1374.8
2934	17.352	0.36364	0.	-1378.9
2935	17.352	0.54545	0.	-1386.8
2936	17.352	0.72727	0.	-1397.2
2937	17.352	0.90909	0.	-1409.8
2938	17.352	1.0909	0.	-1424.2
2939	17.352	1.2727	0.	-1440.
2940	17.352	1.4545	0.	-1456.6
2941	17.352	1.6364	0.	-1473.6
2942	17.352	1.8182	0.	-1490.4
2943	17.352	2.	0.	-1506.3
2944	17.352	2.1818	0.	-1520.7
2945	17.352	2.3636	0.	-1533.2
2946	17.352	2.5455	0.	-1543.1
2947	17.352	2.7273	0.	-1550.
2948	17.352	2.9091	0.	-1553.5
2949	17.352	3.0909	0.	-1553.5
2950	17.352	3.2727	0.	-1550.
2951	17.352	3.4545	0.	-1543.1
2952	17.352	3.6364	0.	-1533.2
2953	17.352	3.8182	0.	-1520.7
2954	17.352	4.	0.	-1506.3
2955	17.352	4.1818	0.	-1490.4
2956	17.352	4.3636	0.	-1473.6
2957	17.352	4.5455	0.	-1456.6
2958	17.352	4.7273	0.	-1440.
2959	17.352	4.9091	0.	-1424.2
2960	17.352	5.0909	0.	-1409.8
2961	17.352	5.2727	0.	-1397.2
2962	17.352	5.4545	0.	-1386.8
2963	17.352	5.6364	0.	-1378.9
2964	17.352	5.8182	0.	-1374.8
2965	17.537	0.18182	0.	-1353.8
2966	17.537	0.36364	0.	-1356.3
2967	17.537	0.54545	0.	-1361.9
2968	17.537	0.72727	0.	-1369.5
2969	17.537	0.90909	0.	-1378.8
2970	17.537	1.0909	0.	-1389.5
2971	17.537	1.2727	0.	-1401.3
2972	17.537	1.4545	0.	-1413.6
2973	17.537	1.6364	0.	-1426.3
2974	17.537	1.8182	0.	-1438.7
2975	17.537	2.	0.	-1450.4
2976	17.537	2.1818	0.	-1461.1
2977	17.537	2.3636	0.	-1470.2
2978	17.537	2.5455	0.	-1477.5
2979	17.537	2.7273	0.	-1482.5
2980	17.537	2.9091	0.	-1485.1
2981	17.537	3.0909	0.	-1485.1
2982	17.537	3.2727	0.	-1482.5
2983	17.537	3.4545	0.	-1477.5
2984	17.537	3.6364	0.	-1470.2
2985	17.537	3.8182	0.	-1461.1
2986	17.537	4.	0.	-1450.4
2987	17.537	4.1818	0.	-1438.7
2988	17.537	4.3636	0.	-1426.3
2989	17.537	4.5455	0.	-1413.6
2990	17.537	4.7273	0.	-1401.3
2991	17.537	4.9091	0.	-1389.5
2992	17.537	5.0909	0.	-1378.8
2993	17.537	5.2727	0.	-1369.5
2994	17.537	5.4545	0.	-1361.9
2995	17.537	5.6364	0.	-1356.3
2996	17.537	5.8182	0.	-1353.8
2997	17.721	0.18182	0.	-1328.
2998	17.721	0.36364	0.	-1329.2
2999	17.721	0.54545	0.	-1333.
3000	17.721	0.72727	0.	-1338.4
3001	17.721	0.90909	0.	-1345.1
3002	17.721	1.0909	0.	-1352.9
3003	17.721	1.2727	0.	-1361.5
3004	17.721	1.4545	0.	-1370.6
3005	17.721	1.6364	0.	-1379.8
3006	17.721	1.8182	0.	-1388.9
3007	17.721	2.	0.	-1397.5
3008	17.721	2.1818	0.	-1405.2
3009	17.721	2.3636	0.	-1411.9
3010	17.721	2.5455	0.	-1417.2
3011	17.721	2.7273	0.	-1420.8
3012	17.721	2.9091	0.	-1422.7
3013	17.721	3.0909	0.	-1422.7
3014	17.721	3.2727	0.	-1420.8
3015	17.721	3.4545	0.	-1417.2
3016	17.721	3.6364	0.	-1411.9
3017	17.721	3.8182	0.	-1405.2
3018	17.721	4.	0.	-1397.5
3019	17.721	4.1818	0.	-1388.9
3020	17.721	4.3636	0.	-1379.8
3021	17.721	4.5455	0.	-1370.6
3022	17.721	4.7273	0.	-1361.5
3023	17.721	4.9091	0.	-1352.9
3024	17.721	5.0909	0.	-1345.1
3025	17.721	5.2727	0.	-1338.4
3026	17.721	5.4545	0.	-1333.
3027	17.721	5.6364	0.	-1329.2
3028	17.721	5.8182	0.	-1328.
3029	17.906	0.18182	0.	-1298.4
3030	17.906	0.36364	0.	-1298.5
3031	17.906	0.54545	0.	-1300.9
3032	17.906	0.72727	0.	-1304.6
3033	17.906	0.90909	0.	-1309.3
3034	17.906	1.0909	0.	-1314.8
3035	17.906	1.2727	0.	-1321.
3036	17.906	1.4545	0.	-1327.5
3037	17.906	1.6364	0.	-1334.1
3038	17.906	1.8182	0.	-1340.7
3039	17.906	2.	0.	-1346.9
3040	17.906	2.1818	0.	-1352.5
3041	17.906	2.3636	0.	-1357.2
3042	17.906	2.5455	0.	-1361.
3043	17.906	2.7273	0.	-1363.6
3044	17.906	2.9091	0.	-1365.
3045	17.906	3.0909	0.	-1365.
3046	17.906	3.2727	0.	-1363.6
3047	17.906	3.4545	0.	-1361.
3048	17.906	3.6364	0.	-1357.2
3049	17.906	3.8182	0.	-1352.5
3050	17.906	4.	0.	-1346.9
3051	17.906	4.1818	0.	-1340.7
3052	17.906	4.3636	0.	-1334.1
3053	17.906	4.5455	0.	-1327.5
3054	17.906	4.7273	0.	-1321.
3055	17.906	4.9091	0.	-1314.8
3056	17.906	5.0909	0.	-1309.3
3057	17.906	5.2727	0.	-1304.6
3058	17.906	5.4545	0.	-1300.9
3059	17.906	5.6364	0.	-1298.5
3060	17.906	5.8182	0.	-1298.4
3061	18.091	0.18182	0.	-1265.8
3062	18.091	0.36364	0.	-1265.
3063	18.091	0.54545	0.	-1266.4
3064	18.091	0.72727	0.	-1268.7
3065	18.091	0.90909	0.	-1271.8
3066	18.091	1.0909	0.	-1275.6
3067	18.091	1.2727	0.	-1279.9
3068	18.091	1.4545	0.	-1284.4
3069	18.091	1.6364	0.	-1289.1
3070	18.091	1.8182	0.	-1293.8
3071	18.091	2.	0.	-1298.1
3072	18.091	2.1818	0.	-1302.1
3073	18.091	2.3636	0.	-1305.5
3074	18.091	2.5455	0.	-1308.1
3075	18.091	2.7273	0.	-1310.
3076	18.091	2.9091	0.	-1310.9
3077	18.091	3.0909	0.	-1310.9
3078	18.091	3.2727	0.	-1310.
3079	18.091	3.4545	0.	-1308.1
3080	18.091	3.6364	0.	-1305.5
3081	18.091	3.8182	0.	-1302.1
3082	18.091	4.	0.	-1298.1
3083	18.091	4.1818	0.	-1293.8
3084	18.091	4.3636	0.	-1289.1
3085	18.091	4.5455	0.	-1284.4
3086	18.091	4.7273	0.	-1279.9
3087	18.091	4.9091	0.	-1275.6
3088	18.091	5.0909	0.	-1271.8
3089	18.091	5.2727	0.	-1268.7
3090	18.091	5.4545	0.	-1266.4
3091	18.091	5.6364	0.	-1265.
3092	18.091	5.8182	0.	-1265.8
3093	18.275	0.18182	0.	-1230.9
3094	18.275	0.36364	0.	-1229.5
3095	18.275	0.54545	0.	-1229.9
3096	18.275	0.72727	0.	-1231.2
3097	18.275	0.90909	0.	-1233.2
3098	18.275	1.0909	0.	-1235.6
3099	18.275	1.2727	0.	-1238.4
3100	18.275	1.4545	0.	-1241.5
3101	18.275	1.6364	0.	-1244.7
3102	18.275	1.8182	0.	-1247.9
3103	18.275	2.	0.	-1250.9
3104	18.275	2.1818	0.	-1253.6
3105	18.275	2.3636	0.	-1256.
3106	18.275	2.5455	0.	-1257.8
3107	18.275	2.7273	0.	-1259.1
3108	18.275	2.9091	0.	-1259.7
3109	18.275	3.0909	0.	-1259.7
3110	18.275	3.2727	0.	-1259.1
3111	18.275	3.4545	0.	-1257.8
3112	18.275	3.6364	0.	-1256.
3113	18.275	3.8182	0.	-1253.6
3114	18.275	4.	0.	-1250.9
3115	18.275	4.1818	0.	-1247.9
3116	18.275	4.3636	0.	-1244.7
3117	18.275	4.5455	0.	-1241.5
3118	18.275	4.7273	0.	-1238.4
3119	18.275	4.9091	0.	-1235.6
3120	18.275	5.0909	0.	-1233.2
3121	18.275	5.2727	0.	-1231.2
3122	18.275	5.4545	0.	-1229.9
3123	18.275	5.6364	0.	-1229.5
3124	18.275	5.8182	0.	-1230.9
3125	18.46	0.18182	0.	-1194.3
3126	18.46	0.36364	0.	-1192.3
3127	18.46	0.54545	0.	-1192.1
3128	18.46	0.72727	0.	-1192.6
3129	18.46	0.90909	0.	-1193.6
3130	18.46	1.0909	0.	-1195.
3131	18.46	1.2727	0.	-1196.8
3132	18.46	1.4545	0.	-1198.8
3133	18.46	1.6364	0.	-1200.8
3134	18.46	1.8182	0.	-1202.9
3135	18.46	2.	0.	-1204.9
3136	18.46	2.1818	0.	-1206.7
3137	18.46	2.3636	0.	-1208.3
3138	18.46	2.5455	0.	-1209.5
3139	18.46	2.7273	0.	-1210.3
3140	18.46	2.9091	0.	-1210.8
3141	18.46	3.0909	0.	-1210.8
3142	18.46	3.2727	0.	-1210.3
3143	18.46	3.4545	0.	-1209.5
3144	18.46	3.6364	0.	-1208.3
3145	18.46	3.8182	0.	-1206.7
3146	18.46	4.	0.	-1204.9
3147	18.46	4.1818	0.	-1202.9
3148	18.46	4.3636	0.	-1200.8
3149	18.46	4.5455	0.	-1198.8
3150	18.46	4.7273	0.	-1196.8
3151	18.46	4.9091	0.	-1195.
3152	18.46	5.0909	0.	-1193.6
3153	18.46	5.2727	0.	-1192.6
3154	18.46	5.4545	0.	-1192.1
3155	18.46	5.6364	0.	-1192.3
3156	18.46	5.8182	0.	-1194.3
3157	18.645	0.18182	0.	-1156.3
3158	18.645	0.36364	0.	-1153.9
3159	18.645	0.54545	0.	-1153.2
3160	18.645	0.72727	0.	-1153.1
3161	18.645	0.90909	0.	-1153.4
3162	18.645	1.0909	0.	-1154.1
3163	18.645	1.2727	0.	-1155.
3164	18.645	1.4545	0.	-1156.1
3165	18.645	1.6364	0.	-1157.4
3166	18.645	1.8182	0.	-1158.7
3167	18.645	2.	0.	-1159.9
3168	18.645	2.1818	0.	-1161.1
3169	18.645	2.3636	0.	-1162.
3170	18.645	2.5455	0.	-1162.8
3171	18.645	2.7273	0.	-1163.4
3172	18.645	2.9091	0.	-1163.6
3173	18.645	3.0909	0.	-1163.6
3174	18.645	3.2727	0.	-1163.4
3175	18.645	3.4545	0.	-1162.8
3176	18.645	3.6364	0.	-1162.
3177	18.645	3.8182	0.	-1161.1
3178	18.645	4.	0.	-1159.9
3179	18.645	4.1818	0.	-1158.7
3180	18.645	4.3636	0.	-1157.4
3181	18.645	4.5455	0.	-1156.1
3182	18.645	4.7273	0.	-1155.
3183	18.645	4.9091	0.	-1154.1
3184	18.645	5.0909	0.	-1153.4
3185	18.645	5.2727	0.	-1153.1
3186	18.645	5.4545	0.	-1153.2
3187	18.645	5.6364	0.	-1153.9
3188	18.645	5.8182	0.	-1156.3
3189	18.829	0.18182	0.	-1117.3
3190	18.829	0.36364	0.	-1114.5
3191	18.829	0.54545	0.	-1113.5
3192	18.829	0.72727	0.	-1112.9
3193	18.829	0.90909	0.	-1112.7
3194	18.829	1.0909	0.	-1112.8
3195	18.829	1.2727	0.	-1113.2
3196	18.829	1.4545	0.	-1113.7
3197	18.829	1.6364	0.	-1114.4
3198	18.829	1.8182	0.	-1115.
3199	18.829	2.	0.	-1115.7
3200	18.829	2.1818	0.	-1116.4
3201	18.829	2.3636	0.	-1117.
3202	18.829	2.5455	0.	-1117.4
3203	18.829	2.7273	0.	-1117.7
3204	18.829	2.9091	0.	-1117.9
3205	18.829	3.0909	0.	-1117.9
3206	18.829	3.2727	0.	-1117.7
3207	18.829	3.4545	0.	-1117.4
3208	18.829	3.6364	0.	-1117.
3209	18.829	3.8182	0.	-1116.4
3210	18.829	4.	0.	-1115.7
3211	18.829	4.1818	0.	-1115.
3212	18.829	4.3636	0.	-1114.4
3213	18.829	4.5455	0.	-1113.7
3214	18.829	4.7273	0.	-1113.2
3215	18.829	4.9091	0.	-1112.8
3216	18.829	5.0909	0.	-1112.7
3217	18.829	5.2727	0.	-1112.9
3218	18.829	5.4545	0.	-1113.5
3219	18.829	5.6364	0.	-1114.5
3220	18.829	5.8182	0.	-1117.3
3221	19.014	0.18182	0.	-1077.6
3222	19.014	0.36364	0.	-1074.6
3223	19.014	0.54545	0.	-1073.2
3224	19.014	0.72727	0.	-1072.3
3225	19.014	0.90909	0.	-1071.8
3226	19.014	1.0909	0.	-1071.5
3227	19.014	1.2727	0.	-1071.4
3228	19.014	1.4545	0.	-1071.5
3229	19.014	1.6364	0.	-1071.7
3230	19.014	1.8182	0.	-1072.
3231	19.014	2.	0.	-1072.3
3232	19.014	2.1818	0.	-1072.6
3233	19.014	2.3636	0.	-1072.8
3234	19.014	2.5455	0.	-1073.1
3235	19.014	2.7273	0.	-1073.2
3236	19.014	2.9091	0.	-1073.3
3237	19.014	3.0909	0.	-1073.3
3238	19.014	3.2727	0.	-1073.2
3239	19.014	3.4545	0.	-1073.1
3240	19.014	3.6364	0.	-1072.8
3241	19.014	3.8182	0.	-1072.6
3242	19.014	4.	0.	-1072.3
3243	19.014	4.1818	0.	-1072.
3244	19.014	4.3636	0.	-1071.7
3245	19.014	4.5455	0.	-1071.5
3246	19.014	4.7273	0.	-1071.4
3247	19.014	4.9091	0.	-1071.5
3248	19.014	5.0909	0.	-1071.8
3249	19.014	5.2727	0.	-1072.3
3250	19.014	5.4545	0.	-1073.2
3251	19.014	5.6364	0.	-1074.6
3252	19.014	5.8182	0.	-1077.6
3253	19.199	0.18182	0.	-1037.3
3254	19.199	0.36364	0.	-1034.1
3255	19.199	0.54545	0.	-1032.6
3256	19.199	0.72727	0.	-1031.5
3257	19.199	0.90909	0.	-1030.6
3258	19.199	1.0909	0.	-1030.1
3259	19.199	1.2727	0.	-1029.7
3260	19.199	1.4545	0.	-1029.5
3261	19.199	1.6364	0.	-1029.3
3262	19.199	1.8182	0.	-1029.3
3263	19.199	2.	0.	-1029.4
3264	19.199	2.1818	0.	-1029.4
3265	19.199	2.3636	0.	-1029.5
3266	19.199	2.5455	0.	-1029.6
3267	19.199	2.7273	0.	-1029.6
3268	19.199	2.9091	0.	-1029.6
3269	19.199	3.0909	0.	-1029.6
3270	19.199	3.2727	0.	-1029.6
3271	19.199	3.4545	0.	-1029.6
3272	19.199	3.6364	0.	-1029.5
3273	19.199	3.8182	0.	-1029.4
3274	19.199	4.	0.	-1029.4
3275	19.199	4.1818	0.	-1029.3
3276	19.199	4.3636	0.	-1029.3
3277	19.199	4.5455	0.	-1029.5
3278	19.199	4.7273	0.	-1029.7
3279	19.199	4.9091	0.	-1030.1
3280	19.199	5.0909	0.	-1030.6
3281	19.199	5.2727	0.	-1031.5
3282	19.199	5.4545	0.	-1032.6
3283	19.199	5.6364	0.	-1034.1
3284	19.199	5.8182	0.	-1037.3
3285	19.383	0.18182	0.	-996.71
3286	19.383	0.36364	0.	-993.32
3287	19.383	0.54545	0.	-991.67
3288	19.383	0.72727	0.	-990.4
3289	19.383	0.90909	0.	-989.4
3290	19.383	1.0909	0.	-988.64
3291	19.383	1.2727	0.	-988.06
3292	19.383	1.4545	0.	-987.63
3293	19.383	1.6364	0.	-987.32
3294	19.383	1.8182	0.	-987.1
3295	19.383	2.	0.	-986.95
3296	19.383	2.1818	0.	-986.86
3297	19.383	2.3636	0.	-986.79
3298	19.383	2.5455	0.	-986.76
3299	19.383	2.7273	0.	-986.74
3300	19.383	2.9091	0.	-986.73
3301	19.383	3.0909	0.	-986.73
3302	19.383	3.2727	0.	-986.74
3303	19.383	3.4545	0.	-986.76
3304	19.383	3.6364	0.	-986.79
3305	19.383	3.8182	0.	-986.86
3306	19.383	4.	0.	-986.95
3307	19.383	4.1818	0.	-987.1
3308	19.383	4.3636	0.	-987.32
3309	19.383	4.5455	0.	-987.63
3310	19.383	4.7273	0.	-988.06
3311	19.383	4.9091	0.	-988.64
3312	19.383	5.0909	0.	-989.4
3313	19.383	5.2727	0.	-990.4
3314	19.383	5.4545	0.	-991.67
3315	19.383	5.6364	0.	-993.32
3316	19.383	5.8182	0.	-996.71
3317	19.568	0.18182	0.	-955.84
3318	19.568	0.36364	0.	-952.34
3319	19.568	0.54545	0.	-950.61
3320	19.568	0.72727	0.	-949.25
3321	19.568	0.90909	0.	-948.15
3322	19.568	1.0909	0.	-947.27
3323	19.568	1.2727	0.	-946.56
3324	19.568	1.4545	0.	-946.
3325	19.568	1.6364	0.	-945.57
3326	19.568	1.8182	0.	-945.23
3327	19.568	2.	0.	-944.97
3328	19.568	2.1818	0.	-944.77
3329	19.568	2.3636	0.	-944.62
3330	19.568	2.5455	0.	-944.52
3331	19.568	2.7273	0.	-944.45
3332	19.568	2.9091	0.	-944.42
3333	19.568	3.0909	0.	-944.42
3334	19.568	3.2727	0.	-944.45
3335	19.568	3.4545	0.	-944.52
3336	19.568	3.6364	0.	-944.62
3337	19.568	3.8182	0.	-944.77
3338	19.568	4.	0.	-944.97
3339	19.568	4.1818	0.	-945.23
3340	19.568	4.3636	0.	-945.57
3341	19.568	4.5455	0.	-946.
3342	19.568	4.7273	0.	-946.56
3343	19.568	4.9091	0.	-947.27
3344	19.568	5.0909	0.	-948.15
3345	19.568	5.2727	0.	-949.25
3346	19.568	5.4545	0.	-950.61
3347	19.568	5.6364	0.	-952.34
3348	19.568	5.8182	0.	-955.84
3349	19.753	0.18182	0.	-914.83
3350	19.753	0.36364	0.	-911.24
3351	19.753	0.54545	0.	-909.47
3352	19.753	0.72727	0.	-908.07
3353	19.753	0.90909	0.	-906.92
3354	19.753	1.0909	0.	-905.98
3355	19.753	1.2727	0.	-905.21
3356	19.753	1.4545	0.	-904.58
3357	19.753	1.6364	0.	-904.08
3358	19.753	1.8182	0.	-903.67
3359	19.753	2.	0.	-903.35
3360	19.753	2.1818	0.	-903.1
3361	19.753	2.3636	0.	-902.91
3362	19.753	2.5455	0.	-902.77
3363	19.753	2.7273	0.	-902.68
3364	19.753	2.9091	0.	-902.63
3365	19.753	3.0909	0.	-902.63
3366	19.753	3.2727	0.	-902.68
3367	19.753	3.4545	0.	-902.77
3368	19.753	3.6364	0.	-902.91
3369	19.753	3.8182	0.	-903.1
3370	19.753	4.	0.	-903.35
3371	19.753	4.1818	0.	-903.67
3372	19.753	4.3636	0.	-904.08
3373	19.753	4.5455	0.	-904.58
3374	19.753	4.7273	0.	-905.21
3375	19.753	4.9091	0.	-905.98
3376	19.753	5.0909	0.	-906.92
3377	19.753	5.2727	0.	-908.07
3378	19.753	5.4545	0.	-909.47
3379	19.753	5.6364	0.	-911.24
3380	19.753	5.8182	0.	-914.83
3381	19.937	0.18182	0.	-873.75
3382	19.937	0.36364	0.	-870.1
3383	19.937	0.54545	0.	-868.32
3384	19.937	0.72727	0.	-866.92
3385	19.937	0.90909	0.	-865.76
3386	19.937	1.0909	0.	-864.8
3387	19.937	1.2727	0.	-864.01
3388	19.937	1.4545	0.	-863.36
3389	19.937	1.6364	0.	-862.83
3390	19.937	1.8182	0.	-862.41
3391	19.937	2.	0.	-862.06
3392	19.937	2.1818	0.	-861.79
3393	19.937	2.3636	0.	-861.58
3394	19.937	2.5455	0.	-861.43
3395	19.937	2.7273	0.	-861.33
3396	19.937	2.9091	0.	-861.28
3397	19.937	3.0909	0.	-861.28
3398	19.937	3.2727	0.	-861.33
3399	19.937	3.4545	0.	-861.43
3400	19.937	3.6364	0.	-861.58
3401	19.937	3.8182	0.	-861.79
3402	19.937	4.	0.	-862.06
3403	19.937	4.1818	0.	-862.41
3404	19.937	4.3636	0.	-862.83
3405	19.937	4.5455	0.	-863.36
3406	19.937	4.7273	0.	-864.01
3407	19.937	4.9091	0.	-864.8
3408	19.937	5.0909	0.	-865.76
3409	19.937	5.2727	0.	-866.92
3410	19.937	5.4545	0.	-868.32
3411	19.937	5.6364	0.	-870.1
3412	19.937	5.8182	0.	-873.75
3413	20.122	0.18182	0.	-832.65
3414	20.122	0.36364	0.	-828.95
3415	20.122	0.54545	0.	-827.2
3416	20.122	0.72727	0.	-825.82
3417	20.122	0.90909	0.	-824.68
3418	20.122	1.0909	0.	-823.74
3419	20.122	1.2727	0.	-822.97
3420	20.122	1.4545	0.	-822.34
3421	20.122	1.6364	0.	-821.83
3422	20.122	1.8182	0.	-821.41
3423	20.122	2.	0.	-821.07
3424	20.122	2.1818	0.	-820.81
3425	20.122	2.3636	0.	-820.6
3426	20.122	2.5455	0.	-820.45
3427	20.122	2.7273	0.	-820.35
3428	20.122	2.9091	0.	-820.31
3429	20.122	3.0909	0.	-820.31
3430	20.122	3.2727	0.	-820.35
3431	20.122	3.4545	0.	-820.45
3432	20.122	3.6364	0.	-820.6
3433	20.122	3.8182	0.	-820.81
3434	20.122	4.	0.	-821.07
3435	20.122	4.1818	0.	-821.41
3436	20.122	4.3636	0.	-821.83
3437	20.122	4.5455	0.	-822.34
3438	20.122	4.7273	0.	-822.97
3439	20.122	4.9091	0.	-823.74
3440	20.122	5.0909	0.	-824.68
3441	20.122	5.2727	0.	-825.82
3442	20.122	5.4545	0.	-827.2
3443	20.122	5.6364	0.	-828.95
3444	20.122	5.8182	0.	-832.65
3445	20.307	0.18182	0.	-791.58
3446	20.307	0.36364	0.	-787.86
3447	20.307	0.54545	0.	-786.15
3448	20.307	0.72727	0.	-784.81
3449	20.307	0.90909	0.	-783.72
3450	20.307	1.0909	0.	-782.83
3451	20.307	1.2727	0.	-782.11
3452	20.307	1.4545	0.	-781.52
3453	20.307	1.6364	0.	-781.04
3454	20.307	1.8182	0.	-780.66
3455	20.307	2.	0.	-780.35
3456	20.307	2.1818	0.	-780.11
3457	20.307	2.3636	0.	-779.93
3458	20.307	2.5455	0.	-779.79
3459	20.307	2.7273	0.	-779.71
3460	20.307	2.9091	0.	-779.66
3461	20.307	3.0909	0.	-779.66
3462	20.307	3.2727	0.	-779.71
3463	20.307	3.4545	0.	-779.79
3464	20.307	3.6364	0.	-779.93
3465	20.307	3.8182	0.	-780.11
3466	20.307	4.	0.	-780.35
3467	20.307	4.1818	0.	-780.66
3468	20.307	4.3636	0.	-781.04
3469	20.307	4.5455	0.	-781.52
3470	20.307	4.7273	0.	-782.11
3471	20.307	4.9091	0.	-782.83
3472	20.307	5.0909	0.	-783.72
3473	20.307	5.2727	0.	-784.81
3474	20.307	5.4545	0.	-786.15
3475	20.307	5.6364	0.	-787.86
3476	20.307	5.8182	0.	-791.58
3477	20.491	0.18182	0.	-750.57
3478	20.491	0.36364	0.	-746.83
3479	20.491	0.54545	0.	-745.18
3480	20.491	0.72727	0.	-743.91
3481	20.491	0.90909	0.	-742.89
3482	20.491	1.0909	0.	-742.07
3483	20.491	1.2727	0.	-741.41
3484	20.491	1.4545	0.	-740.89
3485	20.491	1.6364	0.	-740.47
3486	20.491	1.8182	0.	-740.14
3487	20.491	2.	0.	-739.88
3488	20.491	2.1818	0.	-739.68
3489	20.491	2.3636	0.	-739.53
3490	20.491	2.5455	0.	-739.42
3491	20.491	2.7273	0.	-739.35
3492	20.491	2.9091	0.	-739.32
3493	20.491	3.0909	0.	-739.32
3494	20.491	3.2727	0.	-739.35
3495	20.491	3.4545	0.	-739.42
3496	20.491	3.6364	0.	-739.53
3497	20.491	3.8182	0.	-739.68
3498	20.491	4.	0.	-739.88
3499	20.491	4.1818	0.	-740.14
3500	20.491	4.3636	0.	-740.47
3501	20.491	4.5455	0.	-740.89
3502	20.491	4.7273	0.	-741.41
3503	20.491	4.9091	0.	-742.07
3504	20.491	5.0909	0.	-742.89
3505	20.491	5.2727	0.	-743.91
3506	20.491	5.4545	0.	-745.18
3507	20.491	5.6364	0.	-746.83
3508	20.491	5.8182	0.	-750.57
3509	20.676	0.18182	0.	-709.64
3510	20.676	0.36364	0.	-705.9
3511	20.676	0.54545	0.	-704.32
3512	20.676	0.72727	0.	-703.13
3513	20.676	0.90909	0.	-702.2
3514	20.676	1.0909	0.	-701.46
3515	20.676	1.2727	0.	-700.89
3516	20.676	1.4545	0.	-700.45
3517	20.676	1.6364	0.	-700.11
3518	20.676	1.8182	0.	-699.85
3519	20.676	2.	0.	-699.65
3520	20.676	2.1818	0.	-699.5
3521	20.676	2.3636	0.	-699.39
3522	20.676	2.5455	0.	-699.31
3523	20.676	2.7273	0.	-699.26
3524	20.676	2.9091	0.	-699.24
3525	20.676	3.0909	0.	-699.24
3526	20.676	3.2727	0.	-699.26
3527	20.676	3.4545	0.	-699.31
3528	20.676	3.6364	0.	-699.39
3529	20.676	3.8182	0.	-699.5
3530	20.676	4.	0.	-699.65
3531	20.676	4.1818	0.	-699.85
3532	20.676	4.3636	0.	-700.11
3533	20.676	4.5455	0.	-700.45
3534	20.676	4.7273	0.	-700.89
3535	20.676	4.9091	0.	-701.46
3536	20.676	5.0909	0.	-702.2
3537	20.676	5.2727	0.	-703.13
3538	20.676	5.4545	0.	-704.32
3539	20.676	5.6364	0.	-705.9
3540	20.676	5.8182	0.	-709.64
3541	20.861	0.18182	0.	-668.8
3542	20.861	0.36364	0.	-665.08
3543	20.861	0.54545	0.	-663.58
3544	20.861	0.72727	0.	-662.49
3545	20.861	0.90909	0.	-661.65
3546	20.861	1.0909	0.	-661.02
3547	20.861	1.2727	0.	-660.55
3548	20.861	1.4545	0.	-660.2
3549	20.861	1.6364	0.	-659.95
3550	20.861	1.8182	0.	-659.77
3551	20.861	2.	0.	-659.64
3552	20.861	2.1818	0.	-659.55
3553	20.861	2.3636	0.	-659.48
3554	20.861	2.5455	0.	-659.44
3555	20.861	2.7273	0.	-659.42
3556	20.861	2.9091	0.	-659.4
3557	20.861	3.0909	0.	-659.4
3558	20.861	3.2727	0.	-659.42
3559	20.861	3.4545	0.	-659.44
3560	20.861	3.6364	0.	-659.48
3561	20.861	3.8182	0.	-659.55
3562	20.861	4.	0.	-659.64
3563	20.861	4.1818	0.	-659.77
3564	20.861	4.3636	0.	-659.95
3565	20.861	4.5455	0.	-660.2
3566	20.861	4.7273	0.	-660.55
3567	20.861	4.9091	0.	-661.02
3568	20.861	5.0909	0.	-661.65
3569	20.861	5.2727	0.	-662.49
3570	20.861	5.4545	0.	-663.58
3571	20.861	5.6364	0.	-665.08
3572	20.861	5.8182	0.	-668.8
3573	21.045	0.18182	0.	-628.08
3574	21.045	0.36364	0.	-624.37
3575	21.045	0.54545	0.	-622.96
3576	21.045	0.72727	0.	-621.98
3577	21.045	0.90909	0.	-621.26
3578	21.045	1.0909	0.	-620.75
3579	21.045	1.2727	0.	-620.39
3580	21.045	1.4545	0.	-620.15
3581	21.045	1.6364	0.	-619.99
3582	21.045	1.8182	0.	-619.9
3583	21.045	2.	0.	-619.84
3584	21.045	2.1818	0.	-619.81
3585	21.045	2.3636	0.	-619.8
3586	21.045	2.5455	0.	-619.79
3587	21.045	2.7273	0.	-619.79
3588	21.045	2.9091	0.	-619.79
3589	21.045	3.0909	0.	-619.79
3590	21.045	3.2727	0.	-619.79
3591	21.045	3.4545	0.	-619.79
3592	21.045	3.6364	0.	-619.8
3593	21.045	3.8182	0.	-619.81
3594	21.045	4.	0.	-619.84
3595	21.045	4.1818	0.	-619.9
3596	21.045	4.3636	0.	-619.99
3597	21.045	4.5455	0.	-620.15
3598	21.045	4.7273	0.	-620.39
3599	21.045	4.9091	0.	-620.75
3600	21.045	5.0909	0.	-621.26
3601	21.045	5.2727	0.	-621.98
3602	21.045	5.4545	0.	-622.96
3603	21.045	5.6364	0.	-624.37
3604	21.045	5.8182	0.	-628.08
3605	21.23	0.18182	0.	-587.47
3606	21.23	0.36364	0.	-583.8
3607	21.23	0.54545	0.	-582.49
3608	21.23	0.72727	0.	-581.63
3609	21.23	0.90909	0.	-581.03
3610	21.23	1.0909	0.	-580.64
3611	21.23	1.2727	0.	-580.41
3612	21.23	1.4545	0.	-580.28
3613	21.23	1.6364	0.	-580.23
3614	21.23	1.8182	0.	-580.22
3615	21.23	2.	0.	-580.25
3616	21.23	2.1818	0.	-580.28
3617	21.23	2.3636	0.	-580.32
3618	21.23	2.5455	0.	-580.35
3619	21.23	2.7273	0.	-580.38
3620	21.23	2.9091	0.	-580.39
3621	21.23	3.0909	0.	-580.39
3622	21.23	3.2727	0.	-580.38
3623	21.23	3.4545	0.	-580.35
3624	21.23	3.6364	0.	-580.32
3625	21.23	3.8182	0.	-580.28
3626	21.23	4.	0.	-580.25
3627	21.23	4.1818	0.	-580.22
3628	21.23	4.3636	0.	-580.23
3629	21.23	4.5455	0.	-580.28
3630	21.23	4.7273	0.	-580.41
3631	21.23	4.9091	0.	-580.64
3632	21.23	5.0909	0.	-581.03
3633	21.23	5.2727	0.	-581.63
3634	21.23	5.4545	0.	-582.49
3635	21.23	5.6364	0.	-583.8
3636	21.23	5.8182	0.	-587.47
3637	21.415	0.18182	0.	-546.98
3638	21.415	0.36364	0.	-543.35
3639	21.415	0.54545	0.	-542.15
3640	21.415	0.72727	0.	-541.42
3641	21.415	0.90909	0.	-540.97
3642	21.415	1.0909	0.	-540.71
3643	21.415	1.2727	0.	-540.61
3644	21.415	1.4545	0.	-540.6
3645	21.415	1.6364	0.	-540.65
3646	21.415	1.8182	0.	-540.74
3647	21.415	2.	0.	-540.85
3648	21.415	2.1818	0.	-540.95
3649	21.415	2.3636	0.	-541.04
3650	21.415	2.5455	0.	-541.11
3651	21.415	2.7273	0.	-541.16
3652	21.415	2.9091	0.	-541.18
3653	21.415	3.0909	0.	-541.18
3654	21.415	3.2727	0.	-541.16
3655	21.415	3.4545	0.	-541.11
3656	21.415	3.6364	0.	-541.04
3657	21.415	3.8182	0.	-540.95
3658	21.415	4.	0.	-540.85
3659	21.415	4.1818	0.	-540.74
3660	21.415	4.3636	0.	-540.65
3661	21.415	4.5455	0.	-540.6
3662	21.415	4.7273	0.	-540.61
3663	21.415	4.9091	0.	-540.71
3664	21.415	5.0909	0.	-540.97
3665	21.415	5.2727	0.	-541.42
3666	21.415	5.4545	0.	-542.15
3667	21.415	5.6364	0.	-543.35
3668	21.415	5.8182	0.	-546.98
3669	21.599	0.18182	0.	-506.62
3670	21.599	0.36364	0.	-503.04
3671	21.599	0.54545	0.	-501.97
3672	21.599	0.72727	0.	-501.38
3673	21.599	0.90909	0.	-501.07
3674	21.599	1.0909	0.	-500.96
3675	21.599	1.2727	0.	-500.99
3676	21.599	1.4545	0.	-501.11
3677	21.599	1.6364	0.	-501.27
3678	21.599	1.8182	0.	-501.45
3679	21.599	2.	0.	-501.63
3680	21.599	2.1818	0.	-501.79
3681	21.599	2.3636	0.	-501.93
3682	21.599	2.5455	0.	-502.04
3683	21.599	2.7273	0.	-502.11
3684	21.599	2.9091	0.	-502.15
3685	21.599	3.0909	0.	-502.15
3686	21.599	3.2727	0.	-502.11
3687	21.599	3.4545	0.	-502.04
3688	21.599	3.6364	0.	-501.93
3689	21.599	3.8182	0.	-501.79
3690	21.599	4.	0.	-501.63
3691	21.599	4.1818	0.	-501.45
3692	21.599	4.3636	0.	-501.27
3693	21.599	4.5455	0.	-501.11
3694	21.599	4.7273	0.	-500.99
3695	21.599	4.9091	0.	-500.96
3696	21.599	5.0909	0.	-501.07
3697	21.599	5.2727	0.	-501.38
3698	21.599	5.4545	0.	-501.97
3699	21.599	5.6364	0.	-503.04
3700	21.599	5.8182	0.	-506.62
3701	21.784	0.18182	0.	-466.38
3702	21.784	0.36364	0.	-462.88
3703	21.784	0.54545	0.	-461.93
3704	21.784	0.72727	0.	-461.49
3705	21.784	0.90909	0.	-461.34
3706	21.784	1.0909	0.	-461.39
3707	21.784	1.2727	0.	-461.56
3708	21.784	1.4545	0.	-461.8
3709	21.784	1.6364	0.	-462.07
3710	21.784	1.8182	0.	-462.34
3711	21.784	2.	0.	-462.59
3712	21.784	2.1818	0.	-462.81
3713	21.784	2.3636	0.	-463.
3714	21.784	2.5455	0.	-463.13
3715	21.784	2.7273	0.	-463.23
3716	21.784	2.9091	0.	-463.27
3717	21.784	3.0909	0.	-463.27
3718	21.784	3.2727	0.	-463.23
3719	21.784	3.4545	0.	-463.13
3720	21.784	3.6364	0.	-463.
3721	21.784	3.8182	0.	-462.82
3722	21.784	4.	0.	-462.59
3723	21.784	4.1818	0.	-462.34
3724	21.784	4.3636	0.	-462.07
3725	21.784	4.5455	0.	-461.8
3726	21.784	4.7273	0.	-461.56
3727	21.784	4.9091	0.	-461.39
3728	21.784	5.0909	0.	-461.34
3729	21.784	5.2727	0.	-461.49
3730	21.784	5.4545	0.	-461.93
3731	21.784	5.6364	0.	-462.88
3732	21.784	5.8182	0.	-466.38
3733	21.969	0.18182	0.	-426.27
3734	21.969	0.36364	0.	-422.86
3735	21.969	0.54545	0.	-422.05
3736	21.969	0.72727	0.	-421.78
3737	21.969	0.90909	0.	-421.8
3738	21.969	1.0909	0.	-422.
3739	21.969	1.2727	0.	-422.32
3740	21.969	1.4545	0.	-422.68
3741	21.969	1.6364	0.	-423.05
3742	21.969	1.8182	0.	-423.41
3743	21.969	2.	0.	-423.72
3744	21.969	2.1818	0.	-424.
3745	21.969	2.3636	0.	-424.21
3746	21.969	2.5455	0.	-424.38
3747	21.969	2.7273	0.	-424.49
3748	21.969	2.9091	0.	-424.54
3749	21.969	3.0909	0.	-424.54
3750	21.969	3.2727	0.	-424.49
3751	21.969	3.4545	0.	-424.38
3752	21.969	3.6364	0.	-424.21
3753	21.969	3.8182	0.	-424.
3754	21.969	4.	0.	-423.72
3755	21.969	4.1818	0.	-423.41
3756	21.969	4.3636	0.	-423.05
3757	21.969	4.5455	0.	-422.68
3758	21.969	4.7273	0.	-422.32
3759	21.969	4.9091	0.	-422.
3760	21.969	5.0909	0.	-421.8
3761	21.969	5.2727	0.	-421.78
3762	21.969	5.4545	0.	-422.05
3763	21.969	5.6364	0.	-422.86
3764	21.969	5.8182	0.	-426.27
3765	22.153	0.18182	0.	-386.29
3766	22.153	0.36364	0.	-382.98
3767	22.153	0.54545	0.	-382.34
3768	22.153	0.72727	0.	-382.25
3769	22.153	0.90909	0.	-382.45
3770	22.153	1.0909	0.	-382.82
3771	22.153	1.2727	0.	-383.27
3772	22.153	1.4545	0.	-383.75
3773	22.153	1.6364	0.	-384.21
3774	22.153	1.8182	0.	-384.64
3775	22.153	2.	0.	-385.01
3776	22.153	2.1818	0.	-385.32
3777	22.153	2.3636	0.	-385.57
3778	22.153	2.5455	0.	-385.75
3779	22.153	2.7273	0.	-385.87
3780	22.153	2.9091	0.	-385.93
3781	22.153	3.0909	0.	-385.93
3782	22.153	3.2727	0.	-385.87
3783	22.153	3.4545	0.	-385.75
3784	22.153	3.6364	0.	-385.57
3785	22.153	3.8182	0.	-385.32
3786	22.153	4.	0.	-385.01
3787	22.153	4.1818	0.	-384.64
3788	22.153	4.3636	0.	-384.21
3789	22.153	4.5455	0.	-383.75
3790	22.153	4.7273	0.	-383.27
3791	22.153	4.9091	0.	-382.82
3792	22.153	5.0909	0.	-382.45
3793	22.153	5.2727	0.	-382.25
3794	22.153	5.4545	0.	-382.34
3795	22.153	5.6364	0.	-382.98
3796	22.153	5.8182	0.	-386.29
3797	22.338	0.18182	0.	-346.44
3798	22.338	0.36364	0.	-343.27
3799	22.338	0.54545	0.	-342.81
3800	22.338	0.72727	0.	-342.92
3801	22.338	0.90909	0.	-343.3
3802	22.338	1.0909	0.	-343.83
3803	22.338	1.2727	0.	-344.42
3804	22.338	1.4545	0.	-345.
3805	22.338	1.6364	0.	-345.54
3806	22.338	1.8182	0.	-346.02
3807	22.338	2.	0.	-346.43
3808	22.338	2.1818	0.	-346.77
3809	22.338	2.3636	0.	-347.03
3810	22.338	2.5455	0.	-347.23
3811	22.338	2.7273	0.	-347.35
3812	22.338	2.9091	0.	-347.42
3813	22.338	3.0909	0.	-347.42
3814	22.338	3.2727	0.	-347.35
3815	22.338	3.4545	0.	-347.23
3816	22.338	3.6364	0.	-347.03
3817	22.338	3.8182	0.	-346.77
3818	22.338	4.	0.	-346.43
3819	22.338	4.1818	0.	-346.02
3820	22.338	4.3636	0.	-345.54
3821	22.338	4.5455	0.	-345.
3822	22.338	4.7273	0.	-344.42
3823	22.338	4.9091	0.	-343.83
3824	22.338	5.0909	0.	-343.3
3825	22.338	5.2727	0.	-342.92
3826	22.338	5.4545	0.	-342.81
3827	22.338	5.6364	0.	-343.27
3828	22.338	5.8182	0.	-346.44
3829	22.523	0.18182	0.	-306.73
3830	22.523	0.36364	0.	-303.74
3831	22.523	0.54545	0.	-303.48
3832	22.523	0.72727	0.	-303.8
3833	22.523	0.90909	0.	-304.38
3834	22.523	1.0909	0.	-305.07
3835	22.523	1.2727	0.	-305.78
3836	22.523	1.4545	0.	-306.44
3837	22.523	1.6364	0.	-307.04
3838	22.523	1.8182	0.	-307.55
3839	22.523	2.	0.	-307.98
3840	22.523	2.1818	0.	-308.32
3841	22.523	2.3636	0.	-308.59
3842	22.523	2.5455	0.	-308.78
3843	22.523	2.7273	0.	-308.91
3844	22.523	2.9091	0.	-308.97
3845	22.523	3.0909	0.	-308.97
3846	22.523	3.2727	0.	-308.91
3847	22.523	3.4545	0.	-308.78
3848	22.523	3.6364	0.	-308.59
3849	22.523	3.8182	0.	-308.32
3850	22.523	4.	0.	-307.98
3851	22.523	4.1818	0.	-307.55
3852	22.523	4.3636	0.	-307.04
3853	22.523	4.5455	0.	-306.44
3854	22.523	4.7273	0.	-305.78
3855	22.523	4.9091	0.	-305.07
3856	22.523	5.0909	0.	-304.38
3857	22.523	5.2727	0.	-303.8
3858	22.523	5.4545	0.	-303.48
3859	22.523	5.6364	0.	-303.74
3860	22.523	5.8182	0.	-306.73
3861	22.707	0.18182	0.	-267.18
3862	22.707	0.36364	0.	-264.4
3863	22.707	0.54545	0.	-264.38
3864	22.707	0.72727	0.	-264.93
3865	22.707	0.90909	0.	-265.7
3866	22.707	1.0909	0.	-266.53
3867	22.707	1.2727	0.	-267.33
3868	22.707	1.4545	0.	-268.05
3869	22.707	1.6364	0.	-268.67
3870	22.707	1.8182	0.	-269.19
3871	22.707	2.	0.	-269.62
3872	22.707	2.1818	0.	-269.95
3873	22.707	2.3636	0.	-270.21
3874	22.707	2.5455	0.	-270.39
3875	22.707	2.7273	0.	-270.51
3876	22.707	2.9091	0.	-270.57
3877	22.707	3.0909	0.	-270.57
3878	22.707	3.2727	0.	-270.51
3879	22.707	3.4545	0.	-270.39
3880	22.707	3.6364	0.	-270.21
3881	22.707	3.8182	0.	-269.95
3882	22.707	4.	0.	-269.62
3883	22.707	4.1818	0.	-269.19
3884	22.707	4.3636	0.	-268.67
3885	22.707	4.5455	0.	-268.05
3886	22.707	4.7273	0.	-267.33
3887	22.707	4.9091	0.	-266.53
3888	22.707	5.0909	0.	-265.7
3889	22.707	5.2727	0.	-264.93
3890	22.707	5.4545	0.	-264.38
3891	22.707	5.6364	0.	-264.4
3892	22.707	5.8182	0.	-267.18
3893	22.892	0.18182	0.	-227.79
3894	22.892	0.36364	0.	-225.3
3895	22.892	0.54545	0.	-225.55
3896	22.892	0.72727	0.	-226.35
3897	22.892	0.90909	0.	-227.3
3898	22.892	1.0909	0.	-228.24
3899	22.892	1.2727	0.	-229.09
3900	22.892	1.4545	0.	-229.82
3901	22.892	1.6364	0.	-230.43
3902	22.892	1.8182	0.	-230.93
3903	22.892	2.	0.	-231.32
3904	22.892	2.1818	0.	-231.62
3905	22.892	2.3636	0.	-231.85
3906	22.892	2.5455	0.	-232.02
3907	22.892	2.7273	0.	-232.12
3908	22.892	2.9091	0.	-232.17
3909	22.892	3.0909	0.	-232.17
3910	22.892	3.2727	0.	-232.12
3911	22.892	3.4545	0.	-232.02
3912	22.892	3.6364	0.	-231.85
3913	22.892	3.8182	0.	-231.62
3914	22.892	4.	0.	-231.32
3915	22.892	4.1818	0.	-230.93
3916	22.892	4.3636	0.	-230.43
3917	22.892	4.5455	0.	-229.82
3918	22.892	4.7273	0.	-229.09
3919	22.892	4.9091	0.	-228.24
3920	22.892	5.0909	0.	-227.3
3921	22.892	5.2727	0.	-226.35
3922	22.892	5.4545	0.	-225.55
3923	22.892	5.6364	0.	-225.3
3924	22.892	5.8182	0.	-227.79
3925	23.077	0.18182	0.	-188.6
3926	23.077	0.36364	0.	-186.49
3927	23.077	0.54545	0.	-187.06
3928	23.077	0.72727	0.	-188.1
3929	23.077	0.90909	0.	-189.19
3930	23.077	1.0909	0.	-190.18
3931	23.077	1.2727	0.	-191.03
3932	23.077	1.4545	0.	-191.72
3933	23.077	1.6364	0.	-192.27
3934	23.077	1.8182	0.	-192.71
3935	23.077	2.	0.	-193.05
3936	23.077	2.1818	0.	-193.3
3937	23.077	2.3636	0.	-193.49
3938	23.077	2.5455	0.	-193.62
3939	23.077	2.7273	0.	-193.71
3940	23.077	2.9091	0.	-193.75
3941	23.077	3.0909	0.	-193.75
3942	23.077	3.2727	0.	-193.71
3943	23.077	3.4545	0.	-193.62
3944	23.077	3.6364	0.	-193.49
3945	23.077	3.8182	0.	-193.3
3946	23.077	4.	0.	-193.05
3947	23.077	4.1818	0.	-192.71
3948	23.077	4.3636	0.	-192.27
3949	23.077	4.5455	0.	-191.72
3950	23.077	4.7273	0.	-191.03
3951	23.077	4.9091	0.	-190.18
3952	23.077	5.0909	0.	-189.19
3953	23.077	5.2727	0.	-188.1
3954	23.077	5.4545	0.	-187.06
3955	23.077	5.6364	0.	-186.49
3956	23.077	5.8182	0.	-188.6
3957	23.261	0.18182	0.	-149.67
3958	23.261	0.36364	0.	-148.08
3959	23.261	0.54545	0.	-149.01
3960	23.261	0.72727	0.	-150.25
3961	23.261	0.90909	0.	-151.4
3962	23.261	1.0909	0.	-152.35
3963	23.261	1.2727	0.	-153.11
3964	23.261	1.4545	0.	-153.7
3965	23.261	1.6364	0.	-154.15
3966	23.261	1.8182	0.	-154.5
3967	23.261	2.	0.	-154.75
3968	23.261	2.1818	0.	-154.95
3969	23.261	2.3636	0.	-155.08
3970	23.261	2.5455	0.	-155.18
3971	23.261	2.7273	0.	-155.23
3972	23.261	2.9091	0.	-155.26
3973	23.261	3.0909	0.	-155.26
3974	23.261	3.2727	0.	-155.23
3975	23.261	3.4545	0.	-155.18
3976	23.261	3.6364	0.	-155.08
3977	23.261	3.8182	0.	-154.95
3978	23.261	4.	0.	-154.75
3979	23.261	4.1818	0.	-154.5
3980	23.261	4.3636	0.	-154.15
3981	23.261	4.5455	0.	-153.7
3982	23.261	4.7273	0.	-153.11
3983	23.261	4.9091	0.	-152.35
3984	23.261	5.0909	0.	-151.4
3985	23.261	5.2727	0.	-150.25
3986	23.261	5.4545	0.	-149.01
3987	23.261	5.6364	0.	-148.08
3988	23.261	5.8182	0.	-149.67
3989	23.446	0.18182	0.	-111.11
3990	23.446	0.36364	0.	-110.25
3991	23.446	0.54545	0.	-111.53
3992	23.446	0.72727	0.	-112.85
3993	23.446	0.90909	0.	-113.89
3994	23.446	1.0909	0.	-114.69
3995	23.446	1.2727	0.	-115.27
3996	23.446	1.4545	0.	-115.7
3997	23.446	1.6364	0.	-116.01
3998	23.446	1.8182	0.	-116.24
3999	23.446	2.	0.	-116.4
4000	23.446	2.1818	0.	-116.52
4001	23.446	2.3636	0.	-116.59
4002	23.446	2.5455	0.	-116.65
4003	23.446	2.7273	0.	-116.68
4004	23.446	2.9091	0.	-116.69
4005	23.446	3.0909	0.	-116.69
4006	23.446	3.2727	0.	-116.68
4007	23.446	3.4545	0.	-116.65
4008	23.446	3.6364	0.	-116.59
4009	23.446	3.8182	0.	-116.52
4010	23.446	4.	0.	-116.4
4011	23.446	4.1818	0.	-116.24
4012	23.446	4.3636	0.	-116.01
4013	23.446	4.5455	0.	-115.7
4014	23.446	4.7273	0.	-115.27
4015	23.446	4.9091	0.	-114.69
4016	23.446	5.0909	0.	-113.89
4017	23.446	5.2727	0.	-112.85
4018	23.446	5.4545	0.	-111.53
4019	23.446	5.6364	0.	-110.25
4020	23.446	5.8182	0.	-111.11
4021	23.631	0.18182	0.	-73.161
4022	23.631	0.36364	0.	-73.351
4023	23.631	0.54545	0.	-74.757
4024	23.631	0.72727	0.	-75.843
4025	23.631	0.90909	0.	-76.58
4026	23.631	1.0909	0.	-77.076
4027	23.631	1.2727	0.	-77.409
4028	23.631	1.4545	0.	-77.63
4029	23.631	1.6364	0.	-77.776
4030	23.631	1.8182	0.	-77.87
4031	23.631	2.	0.	-77.929
4032	23.631	2.1818	0.	-77.964
4033	23.631	2.3636	0.	-77.984
4034	23.631	2.5455	0.	-77.994
4035	23.631	2.7273	0.	-78.
4036	23.631	2.9091	0.	-78.001
4037	23.631	3.0909	0.	-78.001
4038	23.631	3.2727	0.	-78.
4039	23.631	3.4545	0.	-77.994
4040	23.631	3.6364	0.	-77.984
4041	23.631	3.8182	0.	-77.964
4042	23.631	4.	0.	-77.929
4043	23.631	4.1818	0.	-77.87
4044	23.631	4.3636	0.	-77.776
4045	23.631	4.5455	0.	-77.63
4046	23.631	4.7273	0.	-77.409
4047	23.631	4.9091	0.	-77.076
4048	23.631	5.0909	0.	-76.58
4049	23.631	5.2727	0.	-75.843
4050	23.631	5.4545	0.	-74.757
4051	23.631	5.6364	0.	-73.351
4052	23.631	5.8182	0.	-73.161
4053	23.815	0.18182	0.	-37.154
4054	23.815	0.36364	0.	-38.135
4055	23.815	0.54545	0.	-38.887
4056	23.815	0.72727	0.	-39.321
4057	23.815	0.90909	0.	-39.528
4058	23.815	1.0909	0.	-39.618
4059	23.815	1.2727	0.	-39.641
4060	23.815	1.4545	0.	-39.627
4061	23.815	1.6364	0.	-39.592
4062	23.815	1.8182	0.	-39.548
4063	23.815	2.	0.	-39.503
4064	23.815	2.1818	0.	-39.459
4065	23.815	2.3636	0.	-39.422
4066	23.815	2.5455	0.	-39.392
4067	23.815	2.7273	0.	-39.372
4068	23.815	2.9091	0.	-39.362
4069	23.815	3.0909	0.	-39.362
4070	23.815	3.2727	0.	-39.372
4071	23.815	3.4545	0.	-39.392
4072	23.815	3.6364	0.	-39.422
4073	23.815	3.8182	0.	-39.459
4074	23.815	4.	0.	-39.503
4075	23.815	4.1818	0.	-39.548
4076	23.815	4.3636	0.	-39.592
4077	23.815	4.5455	0.	-39.627
4078	23.815	4.7273	0.	-39.641
4079	23.815	4.9091	0.	-39.618
4080	23.815	5.0909	0.	-39.528
4081	23.815	5.2727	0.	-39.321
4082	23.815	5.4545	0.	-38.887
4083	23.815	5.6364	0.	-38.135
4084	23.815	5.8182	0.	-37.154
4085	23.815	5.8182	0.1	-31.489
4086	23.815	5.6364	0.1	-52.995
4087	23.815	5.4545	0.1	-71.377
4088	23.815	5.2727	0.1	-86.74
4089	23.815	5.0909	0.1	-99.798
4090	23.815	4.9091	0.1	-110.98
4091	23.815	4.7273	0.1	-120.59
4092	23.815	4.5455	0.1	-128.83
4093	23.815	4.3636	0.1	-135.87
4094	23.815	4.1818	0.1	-141.83
4095	23.815	4.	0.1	-146.79
4096	23.815	3.8182	0.1	-150.84
4097	23.815	3.6364	0.1	-154.01
4098	23.815	3.4545	0.1	-156.35
4099	23.815	3.2727	0.1	-157.9
4100	23.815	3.0909	0.1	-158.67
4101	23.815	2.9091	0.1	-158.67
4102	23.815	2.7273	0.1	-157.9
4103	23.815	2.5455	0.1	-156.35
4104	23.815	2.3636	0.1	-154.01
4105	23.815	2.1818	0.1	-150.84
4106	23.815	2.	0.1	-146.79
4107	23.815	1.8182	0.1	-141.83
4108	23.815	1.6364	0.1	-135.87
4109	23.815	1.4545	0.1	-128.83
4110	23.815	1.2727	0.1	-120.59
4111	23.815	1.0909	0.1	-110.98
4112	23.815	0.90909	0.1	-99.798
4113	23.815	0.72727	0.1	-86.74
4114	23.815	0.54545	0.1	-71.377
4115	23.815	0.36364	0.1	-52.995
4116	23.815	0.18182	0.1	-31.489
4117	23.631	5.8182	0.1	-29.964
4118	23.631	5.6364	0.1	-46.296
4119	23.631	5.4545	0.1	-62.789
4120	23.631	5.2727	0.1	-77.3
4121	23.631	5.0909	0.1	-89.907
4122	23.631	4.9091	0.1	-100.82
4123	23.631	4.7273	0.1	-110.26
4124	23.631	4.5455	0.1	-118.38
4125	23.631	4.3636	0.1	-125.34
4126	23.631	4.1818	0.1	-131.23
4127	23.631	4.	0.1	-136.15
4128	23.631	3.8182	0.1	-140.15
4129	23.631	3.6364	0.1	-143.3
4130	23.631	3.4545	0.1	-145.62
4131	23.631	3.2727	0.1	-147.16
4132	23.631	3.0909	0.1	-147.92
4133	23.631	2.9091	0.1	-147.92
4134	23.631	2.7273	0.1	-147.16
4135	23.631	2.5455	0.1	-145.62
4136	23.631	2.3636	0.1	-143.3
4137	23.631	2.1818	0.1	-140.15
4138	23.631	2.	0.1	-136.15
4139	23.631	1.8182	0.1	-131.23
4140	23.631	1.6364	0.1	-125.34
4141	23.631	1.4545	0.1	-118.38
4142	23.631	1.2727	0.1	-110.26
4143	23.631	1.0909	0.1	-100.82
4144	23.631	0.90909	0.1	-89.907
4145	23.631	0.72727	0.1	-77.3
4146	23.631	0.54545	0.1	-62.789
4147	23.631	0.36364	0.1	-46.296
4148	23.631	0.18182	0.1	-29.964
4149	23.446	5.8182	0.1	-29.7
4150	23.446	5.6364	0.1	-42.097
4151	23.446	5.4545	0.1	-56.217
4152	23.446	5.2727	0.1	-69.362
4153	23.446	5.0909	0.1	-81.141
4154	23.446	4.9091	0.1	-91.524
4155	23.446	4.7273	0.1	-100.6
4156	23.446	4.5455	0.1	-108.47
4157	23.446	4.3636	0.1	-115.23
4158	23.446	4.1818	0.1	-120.98
4159	23.446	4.	0.1	-125.79
4160	23.446	3.8182	0.1	-129.71
4161	23.446	3.6364	0.1	-132.79
4162	23.446	3.4545	0.1	-135.07
4163	23.446	3.2727	0.1	-136.58
4164	23.446	3.0909	0.1	-137.32
4165	23.446	2.9091	0.1	-137.32
4166	23.446	2.7273	0.1	-136.58
4167	23.446	2.5455	0.1	-135.07
4168	23.446	2.3636	0.1	-132.79
4169	23.446	2.1818	0.1	-129.71
4170	23.446	2.	0.1	-125.79
4171	23.446	1.8182	0.1	-120.98
4172	23.446	1.6364	0.1	-115.23
4173	23.446	1.4545	0.1	-108.47
4174	23.446	1.2727	0.1	-100.6
4175	23.446	1.0909	0.1	-91.524
4176	23.446	0.90909	0.1	-81.141
4177	23.446	0.72727	0.1	-69.362
4178	23.446	0.54545	0.1	-56.217
4179	23.446	0.36364	0.1	-42.097
4180	23.446	0.18182	0.1	-29.7
4181	23.261	5.8182	0.1	-29.487
4182	23.261	5.6364	0.1	-39.164
4183	23.261	5.4545	0.1	-51.14
4184	23.261	5.2727	0.1	-62.774
4185	23.261	5.0909	0.1	-73.52
4186	23.261	4.9091	0.1	-83.191
4187	23.261	4.7273	0.1	-91.758
4188	23.261	4.5455	0.1	-99.258
4189	23.261	4.3636	0.1	-105.75
4190	23.261	4.1818	0.1	-111.29
4191	23.261	4.	0.1	-115.93
4192	23.261	3.8182	0.1	-119.73
4193	23.261	3.6364	0.1	-122.72
4194	23.261	3.4545	0.1	-124.93
4195	23.261	3.2727	0.1	-126.4
4196	23.261	3.0909	0.1	-127.12
4197	23.261	2.9091	0.1	-127.12
4198	23.261	2.7273	0.1	-126.4
4199	23.261	2.5455	0.1	-124.93
4200	23.261	2.3636	0.1	-122.72
4201	23.261	2.1818	0.1	-119.73
4202	23.261	2.	0.1	-115.93
4203	23.261	1.8182	0.1	-111.29
4204	23.261	1.6364	0.1	-105.75
4205	23.261	1.4545	0.1	-99.258
4206	23.261	1.2727	0.1	-91.758
4207	23.261	1.0909	0.1	-83.191
4208	23.261	0.90909	0.1	-73.52
4209	23.261	0.72727	0.1	-62.774
4210	23.261	0.54545	0.1	-51.14
4211	23.261	0.36364	0.1	-39.164
4212	23.261	0.18182	0.1	-29.487
4213	23.077	5.8182	0.1	-29.168
4214	23.077	5.6364	0.1	-36.825
4215	23.077	5.4545	0.1	-47.003
4216	23.077	5.2727	0.1	-57.185
4217	23.077	5.0909	0.1	-66.829
4218	23.077	4.9091	0.1	-75.681
4219	23.077	4.7273	0.1	-83.638
4220	23.077	4.5455	0.1	-90.678
4221	23.077	4.3636	0.1	-96.815
4222	23.077	4.1818	0.1	-102.08
4223	23.077	4.	0.1	-106.52
4224	23.077	3.8182	0.1	-110.15
4225	23.077	3.6364	0.1	-113.02
4226	23.077	3.4545	0.1	-115.15
4227	23.077	3.2727	0.1	-116.56
4228	23.077	3.0909	0.1	-117.26
4229	23.077	2.9091	0.1	-117.26
4230	23.077	2.7273	0.1	-116.56
4231	23.077	2.5455	0.1	-115.15
4232	23.077	2.3636	0.1	-113.02
4233	23.077	2.1818	0.1	-110.15
4234	23.077	2.	0.1	-106.52
4235	23.077	1.8182	0.1	-102.08
4236	23.077	1.6364	0.1	-96.815
4237	23.077	1.4545	0.1	-90.678
4238	23.077	1.2727	0.1	-83.638
4239	23.077	1.0909	0.1	-75.681
4240	23.077	0.90909	0.1	-66.829
4241	23.077	0.72727	0.1	-57.185
4242	23.077	0.54545	0.1	-47.003
4243	23.077	0.36364	0.1	-36.825
4244	23.077	0.18182	0.1	-29.168
4245	22.892	5.8182	0.1	-28.729
4246	22.892	5.6364	0.1	-34.811
4247	22.892	5.4545	0.1	-43.489
4248	22.892	5.2727	0.1	-52.351
4249	22.892	5.0909	0.1	-60.911
4250	22.892	4.9091	0.1	-68.903
4251	22.892	4.7273	0.1	-76.188
4252	22.892	4.5455	0.1	-82.702
4253	22.892	4.3636	0.1	-88.428
4254	22.892	4.1818	0.1	-93.373
4255	22.892	4.	0.1	-97.555
4256	22.892	3.8182	0.1	-101.
4257	22.892	3.6364	0.1	-103.72
4258	22.892	3.4545	0.1	-105.74
4259	22.892	3.2727	0.1	-107.08
4260	22.892	3.0909	0.1	-107.75
4261	22.892	2.9091	0.1	-107.75
4262	22.892	2.7273	0.1	-107.08
4263	22.892	2.5455	0.1	-105.74
4264	22.892	2.3636	0.1	-103.72
4265	22.892	2.1818	0.1	-101.
4266	22.892	2.	0.1	-97.555
4267	22.892	1.8182	0.1	-93.373
4268	22.892	1.6364	0.1	-88.428
4269	22.892	1.4545	0.1	-82.702
4270	22.892	1.2727	0.1	-76.188
4271	22.892	1.0909	0.1	-68.903
4272	22.892	0.90909	0.1	-60.911
4273	22.892	0.72727	0.1	-52.351
4274	22.892	0.54545	0.1	-43.489
4275	22.892	0.36364	0.1	-34.811
4276	22.892	0.18182	0.1	-28.729
4277	22.707	5.8182	0.1	-28.18
4278	22.707	5.6364	0.1	-32.979
4279	22.707	5.4545	0.1	-40.39
4280	22.707	5.2727	0.1	-48.073
4281	22.707	5.0909	0.1	-55.607
4282	22.707	4.9091	0.1	-62.742
4283	22.707	4.7273	0.1	-69.326
4284	22.707	4.5455	0.1	-75.274
4285	22.707	4.3636	0.1	-80.546
4286	22.707	4.1818	0.1	-85.127
4287	22.707	4.	0.1	-89.02
4288	22.707	3.8182	0.1	-92.235
4289	22.707	3.6364	0.1	-94.786
4290	22.707	3.4545	0.1	-96.685
4291	22.707	3.2727	0.1	-97.945
4292	22.707	3.0909	0.1	-98.572
4293	22.707	2.9091	0.1	-98.572
4294	22.707	2.7273	0.1	-97.945
4295	22.707	2.5455	0.1	-96.685
4296	22.707	2.3636	0.1	-94.786
4297	22.707	2.1818	0.1	-92.235
4298	22.707	2.	0.1	-89.02
4299	22.707	1.8182	0.1	-85.127
4300	22.707	1.6364	0.1	-80.546
4301	22.707	1.4545	0.1	-75.274
4302	22.707	1.2727	0.1	-69.326
4303	22.707	1.0909	0.1	-62.742
4304	22.707	0.90909	0.1	-55.607
4305	22.707	0.72727	0.1	-48.073
4306	22.707	0.54545	0.1	-40.39
4307	22.707	0.36364	0.1	-32.979
4308	22.707	0.18182	0.1	-28.18
4309	22.523	5.8182	0.1	-27.536
4310	22.523	5.6364	0.1	-31.259
4311	22.523	5.4545	0.1	-37.576
4312	22.523	5.2727	0.1	-44.208
4313	22.523	5.0909	0.1	-50.789
4314	22.523	4.9091	0.1	-57.094
4315	22.523	4.7273	0.1	-62.975
4316	22.523	4.5455	0.1	-68.338
4317	22.523	4.3636	0.1	-73.127
4318	22.523	4.1818	0.1	-77.314
4319	22.523	4.	0.1	-80.89
4320	22.523	3.8182	0.1	-83.854
4321	22.523	3.6364	0.1	-86.212
4322	22.523	3.4545	0.1	-87.972
4323	22.523	3.2727	0.1	-89.14
4324	22.523	3.0909	0.1	-89.723
4325	22.523	2.9091	0.1	-89.723
4326	22.523	2.7273	0.1	-89.14
4327	22.523	2.5455	0.1	-87.972
4328	22.523	2.3636	0.1	-86.212
4329	22.523	2.1818	0.1	-83.854
4330	22.523	2.	0.1	-80.89
4331	22.523	1.8182	0.1	-77.314
4332	22.523	1.6364	0.1	-73.127
4333	22.523	1.4545	0.1	-68.338
4334	22.523	1.2727	0.1	-62.975
4335	22.523	1.0909	0.1	-57.094
4336	22.523	0.90909	0.1	-50.789
4337	22.523	0.72727	0.1	-44.208
4338	22.523	0.54545	0.1	-37.576
4339	22.523	0.36364	0.1	-31.259
4340	22.523	0.18182	0.1	-27.536
4341	22.338	5.8182	0.1	-26.811
4342	22.338	5.6364	0.1	-29.607
4343	22.338	5.4545	0.1	-34.965
4344	22.338	5.2727	0.1	-40.654
4345	22.338	5.0909	0.1	-46.353
4346	22.338	4.9091	0.1	-51.868
4347	22.338	4.7273	0.1	-57.059
4348	22.338	4.5455	0.1	-61.831
4349	22.338	4.3636	0.1	-66.122
4350	22.338	4.1818	0.1	-69.896
4351	22.338	4.	0.1	-73.133
4352	22.338	3.8182	0.1	-75.827
4353	22.338	3.6364	0.1	-77.975
4354	22.338	3.4545	0.1	-79.582
4355	22.338	3.2727	0.1	-80.65
4356	22.338	3.0909	0.1	-81.183
4357	22.338	2.9091	0.1	-81.183
4358	22.338	2.7273	0.1	-80.65
4359	22.338	2.5455	0.1	-79.582
4360	22.338	2.3636	0.1	-77.975
4361	22.338	2.1818	0.1	-75.827
4362	22.338	2.	0.1	-73.133
4363	22.338	1.8182	0.1	-69.896
4364	22.338	1.6364	0.1	-66.122
4365	22.338	1.4545	0.1	-61.831
4366	22.338	1.2727	0.1	-57.059
4367	22.338	1.0909	0.1	-51.868
4368	22.338	0.90909	0.1	-46.353
4369	22.338	0.72727	0.1	-40.654
4370	22.338	0.54545	0.1	-34.965
4371	22.338	0.36364	0.1	-29.607
4372	22.338	0.18182	0.1	-26.811
4373	22.153	5.8182	0.1	-26.017
4374	22.153	5.6364	0.1	-28.
4375	22.153	5.4545	0.1	-32.502
4376	22.153	5.2727	0.1	-37.337
4377	22.153	5.0909	0.1	-42.222
4378	22.153	4.9091	0.1	-46.987
4379	22.153	4.7273	0.1	-51.509
4380	22.153	4.5455	0.1	-55.696
4381	22.153	4.3636	0.1	-59.484
4382	22.153	4.1818	0.1	-62.832
4383	22.153	4.	0.1	-65.716
4384	22.153	3.8182	0.1	-68.124
4385	22.153	3.6364	0.1	-70.049
4386	22.153	3.4545	0.1	-71.491
4387	22.153	3.2727	0.1	-72.451
4388	22.153	3.0909	0.1	-72.931
4389	22.153	2.9091	0.1	-72.931
4390	22.153	2.7273	0.1	-72.451
4391	22.153	2.5455	0.1	-71.491
4392	22.153	2.3636	0.1	-70.049
4393	22.153	2.1818	0.1	-68.124
4394	22.153	2.	0.1	-65.716
4395	22.153	1.8182	0.1	-62.832
4396	22.153	1.6364	0.1	-59.484
4397	22.153	1.4545	0.1	-55.696
4398	22.153	1.2727	0.1	-51.509
4399	22.153	1.0909	0.1	-46.987
4400	22.153	0.90909	0.1	-42.222
4401	22.153	0.72727	0.1	-37.337
4402	22.153	0.54545	0.1	-32.502
4403	22.153	0.36364	0.1	-28.
4404	22.153	0.18182	0.1	-26.017
4405	21.969	5.8182	0.1	-25.165
4406	21.969	5.6364	0.1	-26.423
4407	21.969	5.4545	0.1	-30.149
4408	21.969	5.2727	0.1	-34.203
4409	21.969	5.0909	0.1	-38.332
4410	21.969	4.9091	0.1	-42.39
4411	21.969	4.7273	0.1	-46.268
4412	21.969	4.5455	0.1	-49.879
4413	21.969	4.3636	0.1	-53.164
4414	21.969	4.1818	0.1	-56.081
4415	21.969	4.	0.1	-58.603
4416	21.969	3.8182	0.1	-60.713
4417	21.969	3.6364	0.1	-62.405
4418	21.969	3.4545	0.1	-63.674
4419	21.969	3.2727	0.1	-64.519
4420	21.969	3.0909	0.1	-64.942
4421	21.969	2.9091	0.1	-64.942
4422	21.969	2.7273	0.1	-64.519
4423	21.969	2.5455	0.1	-63.674
4424	21.969	2.3636	0.1	-62.405
4425	21.969	2.1818	0.1	-60.713
4426	21.969	2.	0.1	-58.603
4427	21.969	1.8182	0.1	-56.081
4428	21.969	1.6364	0.1	-53.164
4429	21.969	1.4545	0.1	-49.879
4430	21.969	1.2727	0.1	-46.268
4431	21.969	1.0909	0.1	-42.39
4432	21.969	0.90909	0.1	-38.332
4433	21.969	0.72727	0.1	-34.203
4434	21.969	0.54545	0.1	-30.149
4435	21.969	0.36364	0.1	-26.423
4436	21.969	0.18182	0.1	-25.165
4437	21.784	5.8182	0.1	-24.263
4438	21.784	5.6364	0.1	-24.866
4439	21.784	5.4545	0.1	-27.881
4440	21.784	5.2727	0.1	-31.214
4441	21.784	5.0909	0.1	-34.637
4442	21.784	4.9091	0.1	-38.025
4443	21.784	4.7273	0.1	-41.282
4444	21.784	4.5455	0.1	-44.332
4445	21.784	4.3636	0.1	-47.119
4446	21.784	4.1818	0.1	-49.602
4447	21.784	4.	0.1	-51.755
4448	21.784	3.8182	0.1	-53.56
4449	21.784	3.6364	0.1	-55.01
4450	21.784	3.4545	0.1	-56.098
4451	21.784	3.2727	0.1	-56.824
4452	21.784	3.0909	0.1	-57.187
4453	21.784	2.9091	0.1	-57.187
4454	21.784	2.7273	0.1	-56.824
4455	21.784	2.5455	0.1	-56.098
4456	21.784	2.3636	0.1	-55.01
4457	21.784	2.1818	0.1	-53.56
4458	21.784	2.	0.1	-51.755
4459	21.784	1.8182	0.1	-49.602
4460	21.784	1.6364	0.1	-47.119
4461	21.784	1.4545	0.1	-44.332
4462	21.784	1.2727	0.1	-41.282
4463	21.784	1.0909	0.1	-38.025
4464	21.784	0.90909	0.1	-34.637
4465	21.784	0.72727	0.1	-31.214
4466	21.784	0.54545	0.1	-27.881
4467	21.784	0.36364	0.1	-24.866
4468	21.784	0.18182	0.1	-24.263
4469	21.599	5.8182	0.1	-23.32
4470	21.599	5.6364	0.1	-23.323
4471	21.599	5.4545	0.1	-25.678
4472	21.599	5.2727	0.1	-28.338
4473	21.599	5.0909	0.1	-31.098
4474	21.599	4.9091	0.1	-33.849
4475	21.599	4.7273	0.1	-36.509
4476	21.599	4.5455	0.1	-39.011
4477	21.599	4.3636	0.1	-41.304
4478	21.599	4.1818	0.1	-43.354
4479	21.599	4.	0.1	-45.134
4480	21.599	3.8182	0.1	-46.629
4481	21.599	3.6364	0.1	-47.83
4482	21.599	3.4545	0.1	-48.732
4483	21.599	3.2727	0.1	-49.333
4484	21.599	3.0909	0.1	-49.634
4485	21.599	2.9091	0.1	-49.634
4486	21.599	2.7273	0.1	-49.333
4487	21.599	2.5455	0.1	-48.732
4488	21.599	2.3636	0.1	-47.83
4489	21.599	2.1818	0.1	-46.629
4490	21.599	2.	0.1	-45.134
4491	21.599	1.8182	0.1	-43.354
4492	21.599	1.6364	0.1	-41.304
4493	21.599	1.4545	0.1	-39.011
4494	21.599	1.2727	0.1	-36.509
4495	21.599	1.0909	0.1	-33.849
4496	21.599	0.90909	0.1	-31.098
4497	21.599	0.72727	0.1	-28.338
4498	21.599	0.54545	0.1	-25.678
4499	21.599	0.36364	0.1	-23.323
4500	21.599	0.18182	0.1	-23.32
4501	21.415	5.8182	0.1	-22.341
4502	21.415	5.6364	0.1	-21.791
4503	21.415	5.4545	0.1	-23.527
4504	21.415	5.2727	0.1	-25.555
4505	21.415	5.0909	0.1	-27.686
4506	21.415	4.9091	0.1	-29.827
4507	21.415	4.7273	0.1	-31.909
4508	21.415	4.5455	0.1	-33.876
4509	21.415	4.3636	0.1	-35.682
4510	21.415	4.1818	0.1	-37.298
4511	21.415	4.	0.1	-38.702
4512	21.415	3.8182	0.1	-39.881
4513	21.415	3.6364	0.1	-40.828
4514	21.415	3.4545	0.1	-41.538
4515	21.415	3.2727	0.1	-42.011
4516	21.415	3.0909	0.1	-42.248
4517	21.415	2.9091	0.1	-42.248
4518	21.415	2.7273	0.1	-42.011
4519	21.415	2.5455	0.1	-41.538
4520	21.415	2.3636	0.1	-40.828
4521	21.415	2.1818	0.1	-39.881
4522	21.415	2.	0.1	-38.702
4523	21.415	1.8182	0.1	-37.298
4524	21.415	1.6364	0.1	-35.682
4525	21.415	1.4545	0.1	-33.876
4526	21.415	1.2727	0.1	-31.909
4527	21.415	1.0909	0.1	-29.827
4528	21.415	0.90909	0.1	-27.686
4529	21.415	0.72727	0.1	-25.555
4530	21.415	0.54545	0.1	-23.527
4531	21.415	0.36364	0.1	-21.792
4532	21.415	0.18182	0.1	-22.341
4533	21.23	5.8182	0.1	-21.334
4534	21.23	5.6364	0.1	-20.269
4535	21.23	5.4545	0.1	-21.42
4536	21.23	5.2727	0.1	-22.847
4537	21.23	5.0909	0.1	-24.377
4538	21.23	4.9091	0.1	-25.931
4539	21.23	4.7273	0.1	-27.452
4540	21.23	4.5455	0.1	-28.892
4541	21.23	4.3636	0.1	-30.216
4542	21.23	4.1818	0.1	-31.398
4543	21.23	4.	0.1	-32.423
4544	21.23	3.8182	0.1	-33.28
4545	21.23	3.6364	0.1	-33.966
4546	21.23	3.4545	0.1	-34.479
4547	21.23	3.2727	0.1	-34.82
4548	21.23	3.0909	0.1	-34.991
4549	21.23	2.9091	0.1	-34.991
4550	21.23	2.7273	0.1	-34.82
4551	21.23	2.5455	0.1	-34.479
4552	21.23	2.3636	0.1	-33.966
4553	21.23	2.1818	0.1	-33.28
4554	21.23	2.	0.1	-32.423
4555	21.23	1.8182	0.1	-31.398
4556	21.23	1.6364	0.1	-30.216
4557	21.23	1.4545	0.1	-28.892
4558	21.23	1.2727	0.1	-27.452
4559	21.23	1.0909	0.1	-25.931
4560	21.23	0.90909	0.1	-24.376
4561	21.23	0.72727	0.1	-22.847
4562	21.23	0.54545	0.1	-21.42
4563	21.23	0.36364	0.1	-20.269
4564	21.23	0.18182	0.1	-21.334
4565	21.045	5.8182	0.1	-20.304
4566	21.045	5.6364	0.1	-18.755
4567	21.045	5.4545	0.1	-19.348
4568	21.045	5.2727	0.1	-20.201
4569	21.045	5.0909	0.1	-21.152
4570	21.045	4.9091	0.1	-22.137
4571	21.045	4.7273	0.1	-23.109
4572	21.045	4.5455	0.1	-24.029
4573	21.045	4.3636	0.1	-24.871
4574	21.045	4.1818	0.1	-25.618
4575	21.045	4.	0.1	-26.258
4576	21.045	3.8182	0.1	-26.788
4577	21.045	3.6364	0.1	-27.206
4578	21.045	3.4545	0.1	-27.516
4579	21.045	3.2727	0.1	-27.721
4580	21.045	3.0909	0.1	-27.822
4581	21.045	2.9091	0.1	-27.822
4582	21.045	2.7273	0.1	-27.721
4583	21.045	2.5455	0.1	-27.516
4584	21.045	2.3636	0.1	-27.206
4585	21.045	2.1818	0.1	-26.788
4586	21.045	2.	0.1	-26.258
4587	21.045	1.8182	0.1	-25.618
4588	21.045	1.6364	0.1	-24.871
4589	21.045	1.4545	0.1	-24.029
4590	21.045	1.2727	0.1	-23.109
4591	21.045	1.0909	0.1	-22.137
4592	21.045	0.90909	0.1	-21.152
4593	21.045	0.72727	0.1	-20.201
4594	21.045	0.54545	0.1	-19.348
4595	21.045	0.36364	0.1	-18.755
4596	21.045	0.18182	0.1	-20.304
4597	20.861	5.8182	0.1	-19.256
4598	20.861	5.6364	0.1	-17.251
4599	20.861	5.4545	0.1	-17.309
4600	20.861	5.2727	0.1	-17.608
4601	20.861	5.0909	0.1	-17.998
4602	20.861	4.9091	0.1	-18.426
4603	20.861	4.7273	0.1	-18.855
4604	20.861	4.5455	0.1	-19.259
4605	20.861	4.3636	0.1	-19.618
4606	20.861	4.1818	0.1	-19.923
4607	20.861	4.	0.1	-20.172
4608	20.861	3.8182	0.1	-20.365
4609	20.861	3.6364	0.1	-20.508
4610	20.861	3.4545	0.1	-20.608
4611	20.861	3.2727	0.1	-20.67
4612	20.861	3.0909	0.1	-20.7
4613	20.861	2.9091	0.1	-20.7
4614	20.861	2.7273	0.1	-20.67
4615	20.861	2.5455	0.1	-20.608
4616	20.861	2.3636	0.1	-20.508
4617	20.861	2.1818	0.1	-20.365
4618	20.861	2.	0.1	-20.172
4619	20.861	1.8182	0.1	-19.923
4620	20.861	1.6364	0.1	-19.618
4621	20.861	1.4545	0.1	-19.259
4622	20.861	1.2727	0.1	-18.855
4623	20.861	1.0909	0.1	-18.426
4624	20.861	0.90909	0.1	-17.998
4625	20.861	0.72727	0.1	-17.608
4626	20.861	0.54545	0.1	-17.309
4627	20.861	0.36364	0.1	-17.251
4628	20.861	0.18182	0.1	-19.256
4629	20.676	5.8182	0.1	-18.197
4630	20.676	5.6364	0.1	-15.759
4631	20.676	5.4545	0.1	-15.302
4632	20.676	5.2727	0.1	-15.062
4633	20.676	5.0909	0.1	-14.903
4634	20.676	4.9091	0.1	-14.782
4635	20.676	4.7273	0.1	-14.672
4636	20.676	4.5455	0.1	-14.556
4637	20.676	4.3636	0.1	-14.426
4638	20.676	4.1818	0.1	-14.282
4639	20.676	4.	0.1	-14.128
4640	20.676	3.8182	0.1	-13.974
4641	20.676	3.6364	0.1	-13.831
4642	20.676	3.4545	0.1	-13.712
4643	20.676	3.2727	0.1	-13.626
4644	20.676	3.0909	0.1	-13.58
4645	20.676	2.9091	0.1	-13.58
4646	20.676	2.7273	0.1	-13.626
4647	20.676	2.5455	0.1	-13.712
4648	20.676	2.3636	0.1	-13.831
4649	20.676	2.1818	0.1	-13.974
4650	20.676	2.	0.1	-14.128
4651	20.676	1.8182	0.1	-14.282
4652	20.676	1.6364	0.1	-14.426
4653	20.676	1.4545	0.1	-14.556
4654	20.676	1.2727	0.1	-14.672
4655	20.676	1.0909	0.1	-14.782
4656	20.676	0.90909	0.1	-14.903
4657	20.676	0.72727	0.1	-15.062
4658	20.676	0.54545	0.1	-15.302
4659	20.676	0.36364	0.1	-15.759
4660	20.676	0.18182	0.1	-18.197
4661	20.491	5.8182	0.1	-17.133
4662	20.491	5.6364	0.1	-14.284
4663	20.491	5.4545	0.1	-13.327
4664	20.491	5.2727	0.1	-12.561
4665	20.491	5.0909	0.1	-11.86
4666	20.491	4.9091	0.1	-11.192
4667	20.491	4.7273	0.1	-10.541
4668	20.491	4.5455	0.1	-9.8988
4669	20.491	4.3636	0.1	-9.2695
4670	20.491	4.1818	0.1	-8.6622
4671	20.491	4.	0.1	-8.0917
4672	20.491	3.8182	0.1	-7.5759
4673	20.491	3.6364	0.1	-7.134
4674	20.491	3.4545	0.1	-6.7841
4675	20.491	3.2727	0.1	-6.5415
4676	20.491	3.0909	0.1	-6.4172
4677	20.491	2.9091	0.1	-6.4172
4678	20.491	2.7273	0.1	-6.5415
4679	20.491	2.5455	0.1	-6.7841
4680	20.491	2.3636	0.1	-7.134
4681	20.491	2.1818	0.1	-7.5759
4682	20.491	2.	0.1	-8.0917
4683	20.491	1.8182	0.1	-8.6622
4684	20.491	1.6364	0.1	-9.2695
4685	20.491	1.4545	0.1	-9.8988
4686	20.491	1.2727	0.1	-10.541
4687	20.491	1.0909	0.1	-11.192
4688	20.491	0.90909	0.1	-11.86
4689	20.491	0.72727	0.1	-12.561
4690	20.491	0.54545	0.1	-13.327
4691	20.491	0.36364	0.1	-14.284
4692	20.491	0.18182	0.1	-17.133
4693	20.307	5.8182	0.1	-16.07
4694	20.307	5.6364	0.1	-12.831
4695	20.307	5.4545	0.1	-11.388
4696	20.307	5.2727	0.1	-10.105
4697	20.307	5.0909	0.1	-8.8666
4698	20.307	4.9091	0.1	-7.6496
4699	20.307	4.7273	0.1	-6.4487
4700	20.307	4.5455	0.1	-5.2691
4701	20.307	4.3636	0.1	-4.1245
4702	20.307	4.1818	0.1	-3.0362
4703	20.307	4.	0.1	-2.0298
4704	20.307	3.8182	0.1	-1.1338
4705	20.307	3.6364	0.1	-0.37754
4706	20.307	3.4545	0.1	-2.433e-002
4707	20.307	3.2727	0.1	-2.1878e-002
4708	20.307	3.0909	0.1	-2.1575e-002
4709	20.307	2.9091	0.1	-2.1576e-002
4710	20.307	2.7273	0.1	-2.1877e-002
4711	20.307	2.5455	0.1	-2.4329e-002
4712	20.307	2.3636	0.1	-0.37754
4713	20.307	2.1818	0.1	-1.1338
4714	20.307	2.	0.1	-2.0298
4715	20.307	1.8182	0.1	-3.0362
4716	20.307	1.6364	0.1	-4.1245
4717	20.307	1.4545	0.1	-5.2691
4718	20.307	1.2727	0.1	-6.4487
4719	20.307	1.0909	0.1	-7.6496
4720	20.307	0.90909	0.1	-8.8666
4721	20.307	0.72727	0.1	-10.105
4722	20.307	0.54545	0.1	-11.388
4723	20.307	0.36364	0.1	-12.831
4724	20.307	0.18182	0.1	-16.07
4725	20.122	5.8182	0.1	-15.017
4726	20.122	5.6364	0.1	-11.407
4727	20.122	5.4545	0.1	-9.4913
4728	20.122	5.2727	0.1	-7.6982
4729	20.122	5.0909	0.1	-5.9215
4730	20.122	4.9091	0.1	-4.1495
4731	20.122	4.7273	0.1	-2.3887
4732	20.122	4.5455	0.1	-0.66681
4733	20.122	4.3636	0.1	-2.7886e-002
4734	20.122	4.1818	0.1	-2.1785e-002
4735	20.122	4.	0.1	-2.0792e-002
4736	20.122	3.8182	0.1	-2.0528e-002
4737	20.122	3.6364	0.1	-2.0438e-002
4738	20.122	3.4545	0.1	-2.0393e-002
4739	20.122	3.2727	0.1	-2.0363e-002
4740	20.122	3.0909	0.1	-2.0347e-002
4741	20.122	2.9091	0.1	-2.0347e-002
4742	20.122	2.7273	0.1	-2.0362e-002
4743	20.122	2.5455	0.1	-2.0394e-002
4744	20.122	2.3636	0.1	-2.0438e-002
4745	20.122	2.1818	0.1	-2.0528e-002
4746	20.122	2.	0.1	-2.0792e-002
4747	20.122	1.8182	0.1	-2.1785e-002
4748	20.122	1.6364	0.1	-2.7887e-002
4749	20.122	1.4545	0.1	-0.6668
4750	20.122	1.2727	0.1	-2.3887
4751	20.122	1.0909	0.1	-4.1495
4752	20.122	0.90909	0.1	-5.9215
4753	20.122	0.72727	0.1	-7.6982
4754	20.122	0.54545	0.1	-9.4913
4755	20.122	0.36364	0.1	-11.407
4756	20.122	0.18182	0.1	-15.017
4757	19.937	5.8182	0.1	-13.982
4758	19.937	5.6364	0.1	-10.022
4759	19.937	5.4545	0.1	-7.6463
4760	19.937	5.2727	0.1	-5.3471
4761	19.937	5.0909	0.1	-3.0301
4762	19.937	4.9091	0.1	-0.70979
4763	19.937	4.7273	0.1	-2.5373e-002
4764	19.937	4.5455	0.1	-2.0296e-002
4765	19.937	4.3636	0.1	-1.9591e-002
4766	19.937	4.1818	0.1	-1.9508e-002
4767	19.937	4.	0.1	-1.9517e-002
4768	19.937	3.8182	0.1	-1.9506e-002
4769	19.937	3.6364	0.1	-1.9456e-002
4770	19.937	3.4545	0.1	-1.9389e-002
4771	19.937	3.2727	0.1	-1.9327e-002
4772	19.937	3.0909	0.1	-1.9291e-002
4773	19.937	2.9091	0.1	-1.9291e-002
4774	19.937	2.7273	0.1	-1.9327e-002
4775	19.937	2.5455	0.1	-1.939e-002
4776	19.937	2.3636	0.1	-1.9457e-002
4777	19.937	2.1818	0.1	-1.9505e-002
4778	19.937	2.	0.1	-1.9517e-002
4779	19.937	1.8182	0.1	-1.9508e-002
4780	19.937	1.6364	0.1	-1.9591e-002
4781	19.937	1.4545	0.1	-2.0296e-002
4782	19.937	1.2727	0.1	-2.5374e-002
4783	19.937	1.0909	0.1	-0.70978
4784	19.937	0.90909	0.1	-3.0301
4785	19.937	0.72727	0.1	-5.3471
4786	19.937	0.54545	0.1	-7.6463
4787	19.937	0.36364	0.1	-10.022
4788	19.937	0.18182	0.1	-13.982
4789	19.753	5.8182	0.1	-12.976
4790	19.753	5.6364	0.1	-8.6892
4791	19.753	5.4545	0.1	-5.8657
4792	19.753	5.2727	0.1	-3.064
4793	19.753	5.0909	0.1	-0.25818
4794	19.753	4.9091	0.1	-2.0372e-002
4795	19.753	4.7273	0.1	-1.8584e-002
4796	19.753	4.5455	0.1	-1.8608e-002
4797	19.753	4.3636	0.1	-1.8818e-002
4798	19.753	4.1818	0.1	-1.8949e-002
4799	19.753	4.	0.1	-1.8962e-002
4800	19.753	3.8182	0.1	-1.8877e-002
4801	19.753	3.6364	0.1	-1.8736e-002
4802	19.753	3.4545	0.1	-1.8584e-002
4803	19.753	3.2727	0.1	-1.8459e-002
4804	19.753	3.0909	0.1	-1.8389e-002
4805	19.753	2.9091	0.1	-1.839e-002
4806	19.753	2.7273	0.1	-1.846e-002
4807	19.753	2.5455	0.1	-1.8584e-002
4808	19.753	2.3636	0.1	-1.8736e-002
4809	19.753	2.1818	0.1	-1.8878e-002
4810	19.753	2.	0.1	-1.8963e-002
4811	19.753	1.8182	0.1	-1.8949e-002
4812	19.753	1.6364	0.1	-1.8818e-002
4813	19.753	1.4545	0.1	-1.8607e-002
4814	19.753	1.2727	0.1	-1.8583e-002
4815	19.753	1.0909	0.1	-2.0373e-002
4816	19.753	0.90909	0.1	-0.25817
4817	19.753	0.72727	0.1	-3.064
4818	19.753	0.54545	0.1	-5.8657
4819	19.753	0.36364	0.1	-8.6892
4820	19.753	0.18182	0.1	-12.977
4821	19.568	5.8182	0.1	-12.011
4822	19.568	5.6364	0.1	-7.4233
4823	19.568	5.4545	0.1	-4.1664
4824	19.568	5.2727	0.1	-0.8701
4825	19.568	5.0909	0.1	-1.8388e-002
4826	19.568	4.9091	0.1	-1.7494e-002
4827	19.568	4.7273	0.1	-1.8012e-002
4828	19.568	4.5455	0.1	-1.8505e-002
4829	19.568	4.3636	0.1	-1.8785e-002
4830	19.568	4.1818	0.1	-1.8848e-002
4831	19.568	4.	0.1	-1.8734e-002
4832	19.568	3.8182	0.1	-1.8507e-002
4833	19.568	3.6364	0.1	-1.8231e-002
4834	19.568	3.4545	0.1	-1.797e-002
4835	19.568	3.2727	0.1	-1.7764e-002
4836	19.568	3.0909	0.1	-1.7655e-002
4837	19.568	2.9091	0.1	-1.7653e-002
4838	19.568	2.7273	0.1	-1.7765e-002
4839	19.568	2.5455	0.1	-1.7969e-002
4840	19.568	2.3636	0.1	-1.8232e-002
4841	19.568	2.1818	0.1	-1.8506e-002
4842	19.568	2.	0.1	-1.8733e-002
4843	19.568	1.8182	0.1	-1.8848e-002
4844	19.568	1.6364	0.1	-1.8787e-002
4845	19.568	1.4545	0.1	-1.8506e-002
4846	19.568	1.2727	0.1	-1.8011e-002
4847	19.568	1.0909	0.1	-1.7493e-002
4848	19.568	0.90909	0.1	-1.8389e-002
4849	19.568	0.72727	0.1	-0.8701
4850	19.568	0.54545	0.1	-4.1664
4851	19.568	0.36364	0.1	-7.4233
4852	19.568	0.18182	0.1	-12.011
4853	19.383	5.8182	0.1	-11.101
4854	19.383	5.6364	0.1	-6.2435
4855	19.383	5.4545	0.1	-2.5697
4856	19.383	5.2727	0.1	-1.7789e-002
4857	19.383	5.0909	0.1	-1.6526e-002
4858	19.383	4.9091	0.1	-1.7646e-002
4859	19.383	4.7273	0.1	-1.8516e-002
4860	19.383	4.5455	0.1	-1.9036e-002
4861	19.383	4.3636	0.1	-1.921e-002
4862	19.383	4.1818	0.1	-1.9109e-002
4863	19.383	4.	0.1	-1.8809e-002
4864	19.383	3.8182	0.1	-1.84e-002
4865	19.383	3.6364	0.1	-1.796e-002
4866	19.383	3.4545	0.1	-1.7562e-002
4867	19.383	3.2727	0.1	-1.7265e-002
4868	19.383	3.0909	0.1	-1.7105e-002
4869	19.383	2.9091	0.1	-1.7105e-002
4870	19.383	2.7273	0.1	-1.7265e-002
4871	19.383	2.5455	0.1	-1.7563e-002
4872	19.383	2.3636	0.1	-1.7961e-002
4873	19.383	2.1818	0.1	-1.84e-002
4874	19.383	2.	0.1	-1.8809e-002
4875	19.383	1.8182	0.1	-1.9108e-002
4876	19.383	1.6364	0.1	-1.921e-002
4877	19.383	1.4545	0.1	-1.9037e-002
4878	19.383	1.2727	0.1	-1.8516e-002
4879	19.383	1.0909	0.1	-1.7645e-002
4880	19.383	0.90909	0.1	-1.6529e-002
4881	19.383	0.72727	0.1	-1.779e-002
4882	19.383	0.54545	0.1	-2.5697
4883	19.383	0.36364	0.1	-6.2436
4884	19.383	0.18182	0.1	-11.101
4885	19.199	5.8182	0.1	-10.262
4886	19.199	5.6364	0.1	-5.1729
4887	19.199	5.4545	0.1	-1.102
4888	19.199	5.2727	0.1	-1.5609e-002
4889	19.199	5.0909	0.1	-1.7345e-002
4890	19.199	4.9091	0.1	-1.8802e-002
4891	19.199	4.7273	0.1	-1.9683e-002
4892	19.199	4.5455	0.1	-2.0086e-002
4893	19.199	4.3636	0.1	-2.0074e-002
4894	19.199	4.1818	0.1	-1.9751e-002
4895	19.199	4.	0.1	-1.9222e-002
4896	19.199	3.8182	0.1	-1.8591e-002
4897	19.199	3.6364	0.1	-1.7958e-002
4898	19.199	3.4545	0.1	-1.7403e-002
4899	19.199	3.2727	0.1	-1.6995e-002
4900	19.199	3.0909	0.1	-1.678e-002
4901	19.199	2.9091	0.1	-1.6779e-002
4902	19.199	2.7273	0.1	-1.6995e-002
4903	19.199	2.5455	0.1	-1.7403e-002
4904	19.199	2.3636	0.1	-1.7956e-002
4905	19.199	2.1818	0.1	-1.859e-002
4906	19.199	2.	0.1	-1.9222e-002
4907	19.199	1.8182	0.1	-1.9751e-002
4908	19.199	1.6364	0.1	-2.0074e-002
4909	19.199	1.4545	0.1	-2.0086e-002
4910	19.199	1.2727	0.1	-1.9684e-002
4911	19.199	1.0909	0.1	-1.8802e-002
4912	19.199	0.90909	0.1	-1.7346e-002
4913	19.199	0.72727	0.1	-1.5611e-002
4914	19.199	0.54545	0.1	-1.102
4915	19.199	0.36364	0.1	-5.173
4916	19.199	0.18182	0.1	-10.262
4917	19.014	5.8182	0.1	-9.5142
4918	19.014	5.6364	0.1	-4.2393
4919	19.014	5.4545	0.1	-1.4981e-002
4920	19.014	5.2727	0.1	-1.7318e-002
4921	19.014	5.0909	0.1	-1.9264e-002
4922	19.014	4.9091	0.1	-2.073e-002
4923	19.014	4.7273	0.1	-2.1494e-002
4924	19.014	4.5455	0.1	-2.17e-002
4925	19.014	4.3636	0.1	-2.1438e-002
4926	19.014	4.1818	0.1	-2.0841e-002
4927	19.014	4.	0.1	-2.0034e-002
4928	19.014	3.8182	0.1	-1.9141e-002
4929	19.014	3.6364	0.1	-1.8278e-002
4930	19.014	3.4545	0.1	-1.7542e-002
4931	19.014	3.2727	0.1	-1.7007e-002
4932	19.014	3.0909	0.1	-1.6728e-002
4933	19.014	2.9091	0.1	-1.6727e-002
4934	19.014	2.7273	0.1	-1.7008e-002
4935	19.014	2.5455	0.1	-1.7542e-002
4936	19.014	2.3636	0.1	-1.8278e-002
4937	19.014	2.1818	0.1	-1.9141e-002
4938	19.014	2.	0.1	-2.0033e-002
4939	19.014	1.8182	0.1	-2.0841e-002
4940	19.014	1.6364	0.1	-2.1438e-002
4941	19.014	1.4545	0.1	-2.1698e-002
4942	19.014	1.2727	0.1	-2.1494e-002
4943	19.014	1.0909	0.1	-2.0729e-002
4944	19.014	0.90909	0.1	-1.9266e-002
4945	19.014	0.72727	0.1	-1.732e-002
4946	19.014	0.54545	0.1	-1.498e-002
4947	19.014	0.36364	0.1	-4.2393
4948	19.014	0.18182	0.1	-9.5143
4949	18.829	5.8182	0.1	-8.8794
4950	18.829	5.6364	0.1	-3.4758
4951	18.829	5.4545	0.1	-1.9233e-002
4952	18.829	5.2727	0.1	-2.0379e-002
4953	18.829	5.0909	0.1	-2.2159e-002
4954	18.829	4.9091	0.1	-2.3489e-002
4955	18.829	4.7273	0.1	-2.4049e-002
4956	18.829	4.5455	0.1	-2.3982e-002
4957	18.829	4.3636	0.1	-2.3406e-002
4958	18.829	4.1818	0.1	-2.2472e-002
4959	18.829	4.	0.1	-2.1331e-002
4960	18.829	3.8182	0.1	-2.0131e-002
4961	18.829	3.6364	0.1	-1.9002e-002
4962	18.829	3.4545	0.1	-1.8055e-002
4963	18.829	3.2727	0.1	-1.7376e-002
4964	18.829	3.0909	0.1	-1.7022e-002
4965	18.829	2.9091	0.1	-1.7022e-002
4966	18.829	2.7273	0.1	-1.7376e-002
4967	18.829	2.5455	0.1	-1.8055e-002
4968	18.829	2.3636	0.1	-1.9002e-002
4969	18.829	2.1818	0.1	-2.013e-002
4970	18.829	2.	0.1	-2.1331e-002
4971	18.829	1.8182	0.1	-2.2472e-002
4972	18.829	1.6364	0.1	-2.3406e-002
4973	18.829	1.4545	0.1	-2.3983e-002
4974	18.829	1.2727	0.1	-2.4049e-002
4975	18.829	1.0909	0.1	-2.349e-002
4976	18.829	0.90909	0.1	-2.2161e-002
4977	18.829	0.72727	0.1	-2.0382e-002
4978	18.829	0.54545	0.1	-1.9233e-002
4979	18.829	0.36364	0.1	-3.4758
4980	18.829	0.18182	0.1	-8.8794
4981	18.645	5.8182	0.1	-8.3836
4982	18.645	5.6364	0.1	-2.9213
4983	18.645	5.4545	0.1	-2.5556e-002
4984	18.645	5.2727	0.1	-2.4805e-002
4985	18.645	5.0909	0.1	-2.6215e-002
4986	18.645	4.9091	0.1	-2.7283e-002
4987	18.645	4.7273	0.1	-2.7534e-002
4988	18.645	4.5455	0.1	-2.7105e-002
4989	18.645	4.3636	0.1	-2.6126e-002
4990	18.645	4.1818	0.1	-2.4778e-002
4991	18.645	4.	0.1	-2.3236e-002
4992	18.645	3.8182	0.1	-2.167e-002
4993	18.645	3.6364	0.1	-2.0232e-002
4994	18.645	3.4545	0.1	-1.9043e-002
4995	18.645	3.2727	0.1	-1.8199e-002
4996	18.645	3.0909	0.1	-1.7761e-002
4997	18.645	2.9091	0.1	-1.776e-002
4998	18.645	2.7273	0.1	-1.8198e-002
4999	18.645	2.5455	0.1	-1.9043e-002
5000	18.645	2.3636	0.1	-2.0232e-002
5001	18.645	2.1818	0.1	-2.1671e-002
5002	18.645	2.	0.1	-2.3236e-002
5003	18.645	1.8182	0.1	-2.4778e-002
5004	18.645	1.6364	0.1	-2.6127e-002
5005	18.645	1.4545	0.1	-2.7106e-002
5006	18.645	1.2727	0.1	-2.7533e-002
5007	18.645	1.0909	0.1	-2.7284e-002
5008	18.645	0.90909	0.1	-2.6217e-002
5009	18.645	0.72727	0.1	-2.4805e-002
5010	18.645	0.54545	0.1	-2.5556e-002
5011	18.645	0.36364	0.1	-2.9213
5012	18.645	0.18182	0.1	-8.3836
5013	18.46	5.8182	0.1	-8.0565
5014	18.46	5.6364	0.1	-2.6204
5015	18.46	5.4545	0.1	-3.5162e-002
5016	18.46	5.2727	0.1	-3.1112e-002
5017	18.46	5.0909	0.1	-3.1838e-002
5018	18.46	4.9091	0.1	-3.2438e-002
5019	18.46	4.7273	0.1	-3.2229e-002
5020	18.46	4.5455	0.1	-3.13e-002
5021	18.46	4.3636	0.1	-2.9801e-002
5022	18.46	4.1818	0.1	-2.7933e-002
5023	18.46	4.	0.1	-2.5903e-002
5024	18.46	3.8182	0.1	-2.3906e-002
5025	18.46	3.6364	0.1	-2.2108e-002
5026	18.46	3.4545	0.1	-2.0643e-002
5027	18.46	3.2727	0.1	-1.9613e-002
5028	18.46	3.0909	0.1	-1.9084e-002
5029	18.46	2.9091	0.1	-1.9083e-002
5030	18.46	2.7273	0.1	-1.9614e-002
5031	18.46	2.5455	0.1	-2.0644e-002
5032	18.46	2.3636	0.1	-2.2107e-002
5033	18.46	2.1818	0.1	-2.3906e-002
5034	18.46	2.	0.1	-2.5904e-002
5035	18.46	1.8182	0.1	-2.7933e-002
5036	18.46	1.6364	0.1	-2.98e-002
5037	18.46	1.4545	0.1	-3.13e-002
5038	18.46	1.2727	0.1	-3.2229e-002
5039	18.46	1.0909	0.1	-3.244e-002
5040	18.46	0.90909	0.1	-3.1839e-002
5041	18.46	0.72727	0.1	-3.1114e-002
5042	18.46	0.54545	0.1	-3.5161e-002
5043	18.46	0.36364	0.1	-2.6204
5044	18.46	0.18182	0.1	-8.0565
5045	18.275	5.8182	0.1	-7.9317
5046	18.275	5.6364	0.1	-2.6223
5047	18.275	5.4545	0.1	-5.1173e-002
5048	18.275	5.2727	0.1	-4.0341e-002
5049	18.275	5.0909	0.1	-3.9706e-002
5050	18.275	4.9091	0.1	-3.9468e-002
5051	18.275	4.7273	0.1	-3.8534e-002
5052	18.275	4.5455	0.1	-3.6892e-002
5053	18.275	4.3636	0.1	-3.4696e-002
5054	18.275	4.1818	0.1	-3.2166e-002
5055	18.275	4.	0.1	-2.9536e-002
5056	18.275	3.8182	0.1	-2.7023e-002
5057	18.275	3.6364	0.1	-2.4809e-002
5058	18.275	3.4545	0.1	-2.3038e-002
5059	18.275	3.2727	0.1	-2.1806e-002
5060	18.275	3.0909	0.1	-2.1177e-002
5061	18.275	2.9091	0.1	-2.1176e-002
5062	18.275	2.7273	0.1	-2.1806e-002
5063	18.275	2.5455	0.1	-2.3038e-002
5064	18.275	2.3636	0.1	-2.4809e-002
5065	18.275	2.1818	0.1	-2.7023e-002
5066	18.275	2.	0.1	-2.9537e-002
5067	18.275	1.8182	0.1	-3.2166e-002
5068	18.275	1.6364	0.1	-3.4695e-002
5069	18.275	1.4545	0.1	-3.6893e-002
5070	18.275	1.2727	0.1	-3.8533e-002
5071	18.275	1.0909	0.1	-3.9468e-002
5072	18.275	0.90909	0.1	-3.9708e-002
5073	18.275	0.72727	0.1	-4.0343e-002
5074	18.275	0.54545	0.1	-5.1174e-002
5075	18.275	0.36364	0.1	-2.6224
5076	18.275	0.18182	0.1	-7.9317
5077	18.091	5.8182	0.1	-8.0472
5078	18.091	5.6364	0.1	-2.9798
5079	18.091	5.4545	0.1	-8.177e-002
5080	18.091	5.2727	0.1	-5.4465e-002
5081	18.091	5.0909	0.1	-5.0946e-002
5082	18.091	4.9091	0.1	-4.9144e-002
5083	18.091	4.7273	0.1	-4.7025e-002
5084	18.091	4.5455	0.1	-4.4332e-002
5085	18.091	4.3636	0.1	-4.1175e-002
5086	18.091	4.1818	0.1	-3.778e-002
5087	18.091	4.	0.1	-3.44e-002
5088	18.091	3.8182	0.1	-3.1269e-002
5089	18.091	3.6364	0.1	-2.8581e-002
5090	18.091	3.4545	0.1	-2.6472e-002
5091	18.091	3.2727	0.1	-2.503e-002
5092	18.091	3.0909	0.1	-2.4299e-002
5093	18.091	2.9091	0.1	-2.4299e-002
5094	18.091	2.7273	0.1	-2.5029e-002
5095	18.091	2.5455	0.1	-2.6472e-002
5096	18.091	2.3636	0.1	-2.8581e-002
5097	18.091	2.1818	0.1	-3.127e-002
5098	18.091	2.	0.1	-3.44e-002
5099	18.091	1.8182	0.1	-3.7779e-002
5100	18.091	1.6364	0.1	-4.1175e-002
5101	18.091	1.4545	0.1	-4.4332e-002
5102	18.091	1.2727	0.1	-4.7026e-002
5103	18.091	1.0909	0.1	-4.9144e-002
5104	18.091	0.90909	0.1	-5.0947e-002
5105	18.091	0.72727	0.1	-5.4467e-002
5106	18.091	0.54545	0.1	-8.1772e-002
5107	18.091	0.36364	0.1	-2.9798
5108	18.091	0.18182	0.1	-8.0473
5109	17.906	5.8182	0.1	-8.4453
5110	17.906	5.6364	0.1	-3.75
5111	17.906	5.4545	0.1	-0.15506
5112	17.906	5.2727	0.1	-7.7422e-002
5113	17.906	5.0909	0.1	-6.7454e-002
5114	17.906	4.9091	0.1	-6.2657e-002
5115	17.906	4.7273	0.1	-5.8536e-002
5116	17.906	4.5455	0.1	-5.4239e-002
5117	17.906	4.3636	0.1	-4.9718e-002
5118	17.906	4.1818	0.1	-4.5165e-002
5119	17.906	4.	0.1	-4.0829e-002
5120	17.906	3.8182	0.1	-3.6956e-002
5121	17.906	3.6364	0.1	-3.3731e-002
5122	17.906	3.4545	0.1	-3.1271e-002
5123	17.906	3.2727	0.1	-2.9625e-002
5124	17.906	3.0909	0.1	-2.8805e-002
5125	17.906	2.9091	0.1	-2.8805e-002
5126	17.906	2.7273	0.1	-2.9626e-002
5127	17.906	2.5455	0.1	-3.1272e-002
5128	17.906	2.3636	0.1	-3.3731e-002
5129	17.906	2.1818	0.1	-3.6955e-002
5130	17.906	2.	0.1	-4.0829e-002
5131	17.906	1.8182	0.1	-4.5164e-002
5132	17.906	1.6364	0.1	-4.9718e-002
5133	17.906	1.4545	0.1	-5.4238e-002
5134	17.906	1.2727	0.1	-5.8537e-002
5135	17.906	1.0909	0.1	-6.2658e-002
5136	17.906	0.90909	0.1	-6.7454e-002
5137	17.906	0.72727	0.1	-7.7424e-002
5138	17.906	0.54545	0.1	-0.15506
5139	17.906	0.36364	0.1	-3.75
5140	17.906	0.18182	0.1	-8.4454
5141	17.721	5.8182	0.1	-9.1722
5142	17.721	5.6364	0.1	-4.9952
5143	17.721	5.4545	0.1	-0.42221
5144	17.721	5.2727	0.1	-0.11791
5145	17.721	5.0909	0.1	-9.2555e-002
5146	17.721	4.9091	0.1	-8.1879e-002
5147	17.721	4.7273	0.1	-7.4299e-002
5148	17.721	4.5455	0.1	-6.7483e-002
5149	17.721	4.3636	0.1	-6.0978e-002
5150	17.721	4.1818	0.1	-5.483e-002
5151	17.721	4.	0.1	-4.9256e-002
5152	17.721	3.8182	0.1	-4.4482e-002
5153	17.721	3.6364	0.1	-4.0666e-002
5154	17.721	3.4545	0.1	-3.7868e-002
5155	17.721	3.2727	0.1	-3.606e-002
5156	17.721	3.0909	0.1	-3.5181e-002
5157	17.721	2.9091	0.1	-3.5181e-002
5158	17.721	2.7273	0.1	-3.606e-002
5159	17.721	2.5455	0.1	-3.7868e-002
5160	17.721	2.3636	0.1	-4.0666e-002
5161	17.721	2.1818	0.1	-4.4481e-002
5162	17.721	2.	0.1	-4.9256e-002
5163	17.721	1.8182	0.1	-5.4831e-002
5164	17.721	1.6364	0.1	-6.0979e-002
5165	17.721	1.4545	0.1	-6.7484e-002
5166	17.721	1.2727	0.1	-7.4298e-002
5167	17.721	1.0909	0.1	-8.188e-002
5168	17.721	0.90909	0.1	-9.2557e-002
5169	17.721	0.72727	0.1	-0.11791
5170	17.721	0.54545	0.1	-0.42221
5171	17.721	0.36364	0.1	-4.9952
5172	17.721	0.18182	0.1	-9.1722
5173	17.537	5.8182	0.1	-10.277
5174	17.537	5.6364	0.1	-6.7784
5175	17.537	5.4545	0.1	-1.6153
5176	17.537	5.2727	0.1	-0.19834
5177	17.537	5.0909	0.1	-0.13244
5178	17.537	4.9091	0.1	-0.10985
5179	17.537	4.7273	0.1	-9.6155e-002
5180	17.537	4.5455	0.1	-8.5311e-002
5181	17.537	4.3636	0.1	-7.5845e-002
5182	17.537	4.1818	0.1	-6.745e-002
5183	17.537	4.	0.1	-6.0226e-002
5184	17.537	3.8182	0.1	-5.4349e-002
5185	17.537	3.6364	0.1	-4.9902e-002
5186	17.537	3.4545	0.1	-4.6833e-002
5187	17.537	3.2727	0.1	-4.4967e-002
5188	17.537	3.0909	0.1	-4.4101e-002
5189	17.537	2.9091	0.1	-4.4101e-002
5190	17.537	2.7273	0.1	-4.4967e-002
5191	17.537	2.5455	0.1	-4.6833e-002
5192	17.537	2.3636	0.1	-4.9902e-002
5193	17.537	2.1818	0.1	-5.4347e-002
5194	17.537	2.	0.1	-6.0227e-002
5195	17.537	1.8182	0.1	-6.745e-002
5196	17.537	1.6364	0.1	-7.5846e-002
5197	17.537	1.4545	0.1	-8.5312e-002
5198	17.537	1.2727	0.1	-9.6156e-002
5199	17.537	1.0909	0.1	-0.10985
5200	17.537	0.90909	0.1	-0.13244
5201	17.537	0.72727	0.1	-0.19834
5202	17.537	0.54545	0.1	-1.6153
5203	17.537	0.36364	0.1	-6.7785
5204	17.537	0.18182	0.1	-10.277
5205	17.352	5.8182	0.1	-11.81
5206	17.352	5.6364	0.1	-9.1581
5207	17.352	5.4545	0.1	-4.0433
5208	17.352	5.2727	0.1	-0.39209
5209	17.352	5.0909	0.1	-0.19949
5210	17.352	4.9091	0.1	-0.15169
5211	17.352	4.7273	0.1	-0.12697
5212	17.352	4.5455	0.1	-0.10955
5213	17.352	4.3636	0.1	-9.5567e-002
5214	17.352	4.1818	0.1	-8.3919e-002
5215	17.352	4.	0.1	-7.4443e-002
5216	17.352	3.8182	0.1	-6.7185e-002
5217	17.352	3.6364	0.1	-6.2103e-002
5218	17.352	3.4545	0.1	-5.8927e-002
5219	17.352	3.2727	0.1	-5.7212e-002
5220	17.352	3.0909	0.1	-5.6501e-002
5221	17.352	2.9091	0.1	-5.6501e-002
5222	17.352	2.7273	0.1	-5.7212e-002
5223	17.352	2.5455	0.1	-5.8927e-002
5224	17.352	2.3636	0.1	-6.2102e-002
5225	17.352	2.1818	0.1	-6.7186e-002
5226	17.352	2.	0.1	-7.4443e-002
5227	17.352	1.8182	0.1	-8.3921e-002
5228	17.352	1.6364	0.1	-9.5567e-002
5229	17.352	1.4545	0.1	-0.10955
5230	17.352	1.2727	0.1	-0.12697
5231	17.352	1.0909	0.1	-0.15169
5232	17.352	0.90909	0.1	-0.19949
5233	17.352	0.72727	0.1	-0.39209
5234	17.352	0.54545	0.1	-4.0433
5235	17.352	0.36364	0.1	-9.1581
5236	17.352	0.18182	0.1	-11.81
5237	17.167	5.8182	0.1	-13.819
5238	17.167	5.6364	0.1	-12.179
5239	17.167	5.4545	0.1	-7.3614
5240	17.167	5.2727	0.1	-1.0369
5241	17.167	5.0909	0.1	-0.32131
5242	17.167	4.9091	0.1	-0.21649
5243	17.167	4.7273	0.1	-0.17134
5244	17.167	4.5455	0.1	-0.14298
5245	17.167	4.3636	0.1	-0.12195
5246	17.167	4.1818	0.1	-0.10546
5247	17.167	4.	0.1	-9.2784e-002
5248	17.167	3.8182	0.1	-8.3758e-002
5249	17.167	3.6364	0.1	-7.8094e-002
5250	17.167	3.4545	0.1	-7.514e-002
5251	17.167	3.2727	0.1	-7.3974e-002
5252	17.167	3.0909	0.1	-7.3676e-002
5253	17.167	2.9091	0.1	-7.3675e-002
5254	17.167	2.7273	0.1	-7.3974e-002
5255	17.167	2.5455	0.1	-7.5141e-002
5256	17.167	2.3636	0.1	-7.8093e-002
5257	17.167	2.1818	0.1	-8.3759e-002
5258	17.167	2.	0.1	-9.2782e-002
5259	17.167	1.8182	0.1	-0.10546
5260	17.167	1.6364	0.1	-0.12195
5261	17.167	1.4545	0.1	-0.14298
5262	17.167	1.2727	0.1	-0.17134
5263	17.167	1.0909	0.1	-0.21649
5264	17.167	0.90909	0.1	-0.32131
5265	17.167	0.72727	0.1	-1.0369
5266	17.167	0.54545	0.1	-7.3614
5267	17.167	0.36364	0.1	-12.179
5268	17.167	0.18182	0.1	-13.819
5269	16.983	5.8182	0.1	-16.344
5270	16.983	5.6364	0.1	-15.862
5271	16.983	5.4545	0.1	-11.503
5272	16.983	5.2727	0.1	-3.3795
5273	16.983	5.0909	0.1	-0.56965
5274	16.983	4.9091	0.1	-0.32169
5275	16.983	4.7273	0.1	-0.23712
5276	16.983	4.5455	0.1	-0.19004
5277	16.983	4.3636	0.1	-0.15773
5278	16.983	4.1818	0.1	-0.13382
5279	16.983	4.	0.1	-0.11645
5280	16.983	3.8182	0.1	-0.10505
5281	16.983	3.6364	0.1	-9.8911e-002
5282	16.983	3.4545	0.1	-9.6773e-002
5283	16.983	3.2727	0.1	-9.6854e-002
5284	16.983	3.0909	0.1	-9.7424e-002
5285	16.983	2.9091	0.1	-9.7424e-002
5286	16.983	2.7273	0.1	-9.6854e-002
5287	16.983	2.5455	0.1	-9.6772e-002
5288	16.983	2.3636	0.1	-9.8912e-002
5289	16.983	2.1818	0.1	-0.10505
5290	16.983	2.	0.1	-0.11645
5291	16.983	1.8182	0.1	-0.13382
5292	16.983	1.6364	0.1	-0.15773
5293	16.983	1.4545	0.1	-0.19004
5294	16.983	1.2727	0.1	-0.23712
5295	16.983	1.0909	0.1	-0.32169
5296	16.983	0.90909	0.1	-0.56964
5297	16.983	0.72727	0.1	-3.3794
5298	16.983	0.54545	0.1	-11.503
5299	16.983	0.36364	0.1	-15.862
5300	16.983	0.18182	0.1	-16.344
5301	16.798	5.8182	0.1	-19.406
5302	16.798	5.6364	0.1	-20.186
5303	16.798	5.4545	0.1	-16.44
5304	16.798	5.2727	0.1	-7.7965
5305	16.798	5.0909	0.1	-1.1773
5306	16.798	4.9091	0.1	-0.50453
5307	16.798	4.7273	0.1	-0.33883
5308	16.798	4.5455	0.1	-0.25839
5309	16.798	4.3636	0.1	-0.20737
5310	16.798	4.1818	0.1	-0.17156
5311	16.798	4.	0.1	-0.14688
5312	16.798	3.8182	0.1	-0.13207
5313	16.798	3.6364	0.1	-0.12577
5314	16.798	3.4545	0.1	-0.12549
5315	16.798	3.2727	0.1	-0.128
5316	16.798	3.0909	0.1	-0.1302
5317	16.798	2.9091	0.1	-0.1302
5318	16.798	2.7273	0.1	-0.128
5319	16.798	2.5455	0.1	-0.12549
5320	16.798	2.3636	0.1	-0.12577
5321	16.798	2.1818	0.1	-0.13207
5322	16.798	2.	0.1	-0.14688
5323	16.798	1.8182	0.1	-0.17156
5324	16.798	1.6364	0.1	-0.20737
5325	16.798	1.4545	0.1	-0.25839
5326	16.798	1.2727	0.1	-0.33883
5327	16.798	1.0909	0.1	-0.50453
5328	16.798	0.90909	0.1	-1.1773
5329	16.798	0.72727	0.1	-7.7964
5330	16.798	0.54545	0.1	-16.44
5331	16.798	0.36364	0.1	-20.186
5332	16.798	0.18182	0.1	-19.406
5333	16.613	5.8182	0.1	-22.995
5334	16.613	5.6364	0.1	-25.065
5335	16.613	5.4545	0.1	-22.102
5336	16.613	5.2727	0.1	-13.533
5337	16.613	5.0909	0.1	-3.041
5338	16.613	4.9091	0.1	-0.85949
5339	16.613	4.7273	0.1	-0.50688
5340	16.613	4.5455	0.1	-0.36275
5341	16.613	4.3636	0.1	-0.27908
5342	16.613	4.1818	0.1	-0.22347
5343	16.613	4.	0.1	-0.18708
5344	16.613	3.8182	0.1	-0.16687
5345	16.613	3.6364	0.1	-0.16033
5346	16.613	3.4545	0.1	-0.16343
5347	16.613	3.2727	0.1	-0.17025
5348	16.613	3.0909	0.1	-0.17528
5349	16.613	2.9091	0.1	-0.17528
5350	16.613	2.7273	0.1	-0.17025
5351	16.613	2.5455	0.1	-0.16343
5352	16.613	2.3636	0.1	-0.16033
5353	16.613	2.1818	0.1	-0.16687
5354	16.613	2.	0.1	-0.18708
5355	16.613	1.8182	0.1	-0.22347
5356	16.613	1.6364	0.1	-0.27908
5357	16.613	1.4545	0.1	-0.36274
5358	16.613	1.2727	0.1	-0.50688
5359	16.613	1.0909	0.1	-0.85949
5360	16.613	0.90909	0.1	-3.0409
5361	16.613	0.72727	0.1	-13.533
5362	16.613	0.54545	0.1	-22.102
5363	16.613	0.36364	0.1	-25.065
5364	16.613	0.18182	0.1	-22.995
5365	16.429	5.8182	0.1	-27.047
5366	16.429	5.6364	0.1	-30.322
5367	16.429	5.4545	0.1	-28.35
5368	16.429	5.2727	0.1	-20.388
5369	16.429	5.0909	0.1	-8.0531
5370	16.429	4.9091	0.1	-1.6994
5371	16.429	4.7273	0.1	-0.81716
5372	16.429	4.5455	0.1	-0.5349
5373	16.429	4.3636	0.1	-0.38833
5374	16.429	4.1818	0.1	-0.29646
5375	16.429	4.	0.1	-0.23828
5376	16.429	3.8182	0.1	-0.20912
5377	16.429	3.6364	0.1	-0.20402
5378	16.429	3.4545	0.1	-0.21335
5379	16.429	3.2727	0.1	-0.2272
5380	16.429	3.0909	0.1	-0.23674
5381	16.429	2.9091	0.1	-0.23674
5382	16.429	2.7273	0.1	-0.2272
5383	16.429	2.5455	0.1	-0.21335
5384	16.429	2.3636	0.1	-0.20402
5385	16.429	2.1818	0.1	-0.20912
5386	16.429	2.	0.1	-0.23828
5387	16.429	1.8182	0.1	-0.29646
5388	16.429	1.6364	0.1	-0.38833
5389	16.429	1.4545	0.1	-0.5349
5390	16.429	1.2727	0.1	-0.81716
5391	16.429	1.0909	0.1	-1.6994
5392	16.429	0.90909	0.1	-8.053
5393	16.429	0.72727	0.1	-20.388
5394	16.429	0.54545	0.1	-28.35
5395	16.429	0.36364	0.1	-30.322
5396	16.429	0.18182	0.1	-27.047
5397	16.244	5.8182	0.1	-31.416
5398	16.244	5.6364	0.1	-35.653
5399	16.244	5.4545	0.1	-34.969
5400	16.244	5.2727	0.1	-28.385
5401	16.244	5.0909	0.1	-16.563
5402	16.244	4.9091	0.1	-4.5072
5403	16.244	4.7273	0.1	-1.5258
5404	16.244	4.5455	0.1	-0.86292
5405	16.244	4.3636	0.1	-0.57648
5406	16.244	4.1818	0.1	-0.41317
5407	16.244	4.	0.1	-0.31878
5408	16.244	3.8182	0.1	-0.27169
5409	16.244	3.6364	0.1	-0.26122
5410	16.244	3.4545	0.1	-0.27845
5411	16.244	3.2727	0.1	-0.30307
5412	16.244	3.0909	0.1	-0.31894
5413	16.244	2.9091	0.1	-0.31894
5414	16.244	2.7273	0.1	-0.30307
5415	16.244	2.5455	0.1	-0.27845
5416	16.244	2.3636	0.1	-0.26122
5417	16.244	2.1818	0.1	-0.27169
5418	16.244	2.	0.1	-0.31878
5419	16.244	1.8182	0.1	-0.41317
5420	16.244	1.6364	0.1	-0.57648
5421	16.244	1.4545	0.1	-0.86291
5422	16.244	1.2727	0.1	-1.5258
5423	16.244	1.0909	0.1	-4.5071
5424	16.244	0.90909	0.1	-16.562
5425	16.244	0.72727	0.1	-28.385
5426	16.244	0.54545	0.1	-34.969
5427	16.244	0.36364	0.1	-35.653
5428	16.244	0.18182	0.1	-31.416
5429	16.059	5.8182	0.1	-35.84
5430	16.059	5.6364	0.1	-40.607
5431	16.059	5.4545	0.1	-41.679
5432	16.059	5.2727	0.1	-37.716
5433	16.059	5.0909	0.1	-28.619
5434	16.059	4.9091	0.1	-14.725
5435	16.059	4.7273	0.1	-4.0824
5436	16.059	4.5455	0.1	-1.6687
5437	16.059	4.3636	0.1	-0.9442
5438	16.059	4.1818	0.1	-0.60053
5439	16.059	4.	0.1	-0.40217
5440	16.059	3.8182	0.1	-0.32135
5441	16.059	3.6364	0.1	-0.33158
5442	16.059	3.4545	0.1	-0.36658
5443	16.059	3.2727	0.1	-0.40206
5444	16.059	3.0909	0.1	-0.42456
5445	16.059	2.9091	0.1	-0.42456
5446	16.059	2.7273	0.1	-0.40206
5447	16.059	2.5455	0.1	-0.36658
5448	16.059	2.3636	0.1	-0.33158
5449	16.059	2.1818	0.1	-0.32135
5450	16.059	2.	0.1	-0.40217
5451	16.059	1.8182	0.1	-0.60053
5452	16.059	1.6364	0.1	-0.9442
5453	16.059	1.4545	0.1	-1.6687
5454	16.059	1.2727	0.1	-4.0824
5455	16.059	1.0909	0.1	-14.725
5456	16.059	0.90909	0.1	-28.619
5457	16.059	0.72727	0.1	-37.716
5458	16.059	0.54545	0.1	-41.679
5459	16.059	0.36364	0.1	-40.607
5460	16.059	0.18182	0.1	-35.84
5461	15.875	5.8182	0.1	-39.907
5462	15.875	5.6364	0.1	-44.607
5463	15.875	5.4545	0.1	-48.245
5464	15.875	5.2727	0.1	-48.913
5465	15.875	5.0909	0.1	-45.59
5466	15.875	4.9091	0.1	-36.288
5467	15.875	4.7273	0.1	-19.837
5468	15.875	4.5455	0.1	-5.5236
5469	15.875	4.3636	0.1	-2.0645
5470	15.875	4.1818	0.1	-1.0664
5471	15.875	4.	0.1	-0.70531
5472	15.875	3.8182	0.1	-0.53963
5473	15.875	3.6364	0.1	-0.44016
5474	15.875	3.4545	0.1	-0.47659
5475	15.875	3.2727	0.1	-0.53019
5476	15.875	3.0909	0.1	-0.54856
5477	15.875	2.9091	0.1	-0.54856
5478	15.875	2.7273	0.1	-0.53019
5479	15.875	2.5455	0.1	-0.47659
5480	15.875	2.3636	0.1	-0.44016
5481	15.875	2.1818	0.1	-0.53963
5482	15.875	2.	0.1	-0.70531
5483	15.875	1.8182	0.1	-1.0664
5484	15.875	1.6364	0.1	-2.0645
5485	15.875	1.4545	0.1	-5.5236
5486	15.875	1.2727	0.1	-19.837
5487	15.875	1.0909	0.1	-36.288
5488	15.875	0.90909	0.1	-45.589
5489	15.875	0.72727	0.1	-48.913
5490	15.875	0.54545	0.1	-48.245
5491	15.875	0.36364	0.1	-44.607
5492	15.875	0.18182	0.1	-39.907
5493	15.69	5.8182	0.1	-43.037
5494	15.69	5.6364	0.1	-47.081
5495	15.69	5.4545	0.1	-54.773
5496	15.69	5.2727	0.1	-63.273
5497	15.69	5.0909	0.1	-70.299
5498	15.69	4.9091	0.1	-71.847
5499	15.69	4.7273	0.1	-62.908
5500	15.69	4.5455	0.1	-39.456
5501	15.69	4.3636	0.1	-10.127
5502	15.69	4.1818	0.1	-2.4179
5503	15.69	4.	0.1	-0.66699
5504	15.69	3.8182	0.1	-0.26497
5505	15.69	3.6364	0.1	-0.62856
5506	15.69	3.4545	0.1	-0.68875
5507	15.69	3.2727	0.1	-0.6796
5508	15.69	3.0909	0.1	-0.673
5509	15.69	2.9091	0.1	-0.673
5510	15.69	2.7273	0.1	-0.6796
5511	15.69	2.5455	0.1	-0.68875
5512	15.69	2.3636	0.1	-0.62856
5513	15.69	2.1818	0.1	-0.26497
5514	15.69	2.	0.1	-0.66699
5515	15.69	1.8182	0.1	-2.4179
5516	15.69	1.6364	0.1	-10.127
5517	15.69	1.4545	0.1	-39.456
5518	15.69	1.2727	0.1	-62.908
5519	15.69	1.0909	0.1	-71.846
5520	15.69	0.90909	0.1	-70.299
5521	15.69	0.72727	0.1	-63.273
5522	15.69	0.54545	0.1	-54.773
5523	15.69	0.36364	0.1	-47.081
5524	15.69	0.18182	0.1	-43.037
5525	15.505	5.8182	0.1	-44.576
5526	15.505	5.6364	0.1	-47.924
5527	15.505	5.4545	0.1	-62.523
5528	15.505	5.2727	0.1	-83.799
5529	15.505	5.0909	0.1	-107.7
5530	15.505	4.9091	0.1	-128.23
5531	15.505	4.7273	0.1	-137.29
5532	15.505	4.5455	0.1	-125.12
5533	15.505	4.3636	0.1	-84.124
5534	15.505	4.1818	0.1	-23.248
5535	15.505	4.	0.1	-4.281
5536	15.505	3.8182	0.1	-2.5088
5537	15.505	3.6364	0.1	-0.71466
5538	15.505	3.4545	0.1	-1.1947
5539	15.505	3.2727	0.1	-1.0498
5540	15.505	3.0909	0.1	-0.75865
5541	15.505	2.9091	0.1	-0.75865
5542	15.505	2.7273	0.1	-1.0498
5543	15.505	2.5455	0.1	-1.1947
5544	15.505	2.3636	0.1	-0.71466
5545	15.505	2.1818	0.1	-2.5088
5546	15.505	2.	0.1	-4.281
5547	15.505	1.8182	0.1	-23.247
5548	15.505	1.6364	0.1	-84.124
5549	15.505	1.4545	0.1	-125.12
5550	15.505	1.2727	0.1	-137.29
5551	15.505	1.0909	0.1	-128.23
5552	15.505	0.90909	0.1	-107.7
5553	15.505	0.72727	0.1	-83.799
5554	15.505	0.54545	0.1	-62.523
5555	15.505	0.36364	0.1	-47.924
5556	15.505	0.18182	0.1	-44.576
5557	15.321	5.8182	0.1	-43.91
5558	15.321	5.6364	0.1	-48.653
5559	15.321	5.4545	0.1	-75.673
5560	15.321	5.2727	0.1	-116.76
5561	15.321	5.0909	0.1	-165.49
5562	15.321	4.9091	0.1	-215.18
5563	15.321	4.7273	0.1	-256.29
5564	15.321	4.5455	0.1	-274.47
5565	15.321	4.3636	0.1	-243.5
5566	15.321	4.1818	0.1	-152.16
5567	15.321	4.	0.1	-47.327
5568	15.321	3.8182	0.1	3.3739
5569	15.321	3.6364	0.1	-16.277
5570	15.321	3.4545	0.1	-49.529
5571	15.321	3.2727	0.1	-78.107
5572	15.321	3.0909	0.1	-92.597
5573	15.321	2.9091	0.1	-92.597
5574	15.321	2.7273	0.1	-78.107
5575	15.321	2.5455	0.1	-49.529
5576	15.321	2.3636	0.1	-16.277
5577	15.321	2.1818	0.1	3.3739
5578	15.321	2.	0.1	-47.327
5579	15.321	1.8182	0.1	-152.16
5580	15.321	1.6364	0.1	-243.5
5581	15.321	1.4545	0.1	-274.47
5582	15.321	1.2727	0.1	-256.29
5583	15.321	1.0909	0.1	-215.18
5584	15.321	0.90909	0.1	-165.49
5585	15.321	0.72727	0.1	-116.76
5586	15.321	0.54545	0.1	-75.672
5587	15.321	0.36364	0.1	-48.653
5588	15.321	0.18182	0.1	-43.91
5589	15.136	5.8182	0.1	-43.012
5590	15.136	5.6364	0.1	-57.416
5591	15.136	5.4545	0.1	-107.1
5592	15.136	5.2727	0.1	-176.01
5593	15.136	5.0909	0.1	-256.87
5594	15.136	4.9091	0.1	-346.
5595	15.136	4.7273	0.1	-439.88
5596	15.136	4.5455	0.1	-521.27
5597	15.136	4.3636	0.1	-556.72
5598	15.136	4.1818	0.1	-488.
5599	15.136	4.	0.1	-243.12
5600	15.136	3.8182	0.1	-149.6
5601	15.136	3.6364	0.1	-179.29
5602	15.136	3.4545	0.1	-224.43
5603	15.136	3.2727	0.1	-244.1
5604	15.136	3.0909	0.1	-252.74
5605	15.136	2.9091	0.1	-252.74
5606	15.136	2.7273	0.1	-244.1
5607	15.136	2.5455	0.1	-224.43
5608	15.136	2.3636	0.1	-179.29
5609	15.136	2.1818	0.1	-149.6
5610	15.136	2.	0.1	-243.12
5611	15.136	1.8182	0.1	-488.
5612	15.136	1.6364	0.1	-556.72
5613	15.136	1.4545	0.1	-521.27
5614	15.136	1.2727	0.1	-439.88
5615	15.136	1.0909	0.1	-346.
5616	15.136	0.90909	0.1	-256.87
5617	15.136	0.72727	0.1	-176.01
5618	15.136	0.54545	0.1	-107.1
5619	15.136	0.36364	0.1	-57.416
5620	15.136	0.18182	0.1	-43.012
5621	14.951	5.8182	0.1	-57.456
5622	14.951	5.6364	0.1	-111.06
5623	14.951	5.4545	0.1	-199.33
5624	14.951	5.2727	0.1	-304.85
5625	14.951	5.0909	0.1	-427.25
5626	14.951	4.9091	0.1	-570.81
5627	14.951	4.7273	0.1	-745.
5628	14.951	4.5455	0.1	-955.48
5629	14.951	4.3636	0.1	-1256.6
5630	14.951	4.1818	0.1	-1360.5
5631	14.951	4.	0.1	-850.04
5632	14.951	3.8182	0.1	-429.76
5633	14.951	3.6364	0.1	-465.62
5634	14.951	3.4545	0.1	-437.66
5635	14.951	3.2727	0.1	-425.03
5636	14.951	3.0909	0.1	-416.6
5637	14.951	2.9091	0.1	-416.6
5638	14.951	2.7273	0.1	-425.03
5639	14.951	2.5455	0.1	-437.66
5640	14.951	2.3636	0.1	-465.62
5641	14.951	2.1818	0.1	-429.76
5642	14.951	2.	0.1	-850.04
5643	14.951	1.8182	0.1	-1360.5
5644	14.951	1.6364	0.1	-1256.6
5645	14.951	1.4545	0.1	-955.48
5646	14.951	1.2727	0.1	-745.
5647	14.951	1.0909	0.1	-570.81
5648	14.951	0.90909	0.1	-427.25
5649	14.951	0.72727	0.1	-304.85
5650	14.951	0.54545	0.1	-199.33
5651	14.951	0.36364	0.1	-111.06
5652	14.951	0.18182	0.1	-57.456
5653	0.18481	0.18182	0.1	-314.45
5654	0.18481	0.36364	0.1	-610.73
5655	0.18481	0.54545	0.1	-743.83
5656	0.18481	0.72727	0.1	-829.44
5657	0.18481	0.90909	0.1	-884.36
5658	0.18481	1.0909	0.1	-924.02
5659	0.18481	1.2727	0.1	-953.14
5660	0.18481	1.4545	0.1	-975.25
5661	0.18481	1.6364	0.1	-992.25
5662	0.18481	1.8182	0.1	-1005.4
5663	0.18481	2.	0.1	-1015.6
5664	0.18481	2.1818	0.1	-1023.5
5665	0.18481	2.3636	0.1	-1029.3
5666	0.18481	2.5455	0.1	-1033.5
5667	0.18481	2.7273	0.1	-1036.2
5668	0.18481	2.9091	0.1	-1037.5
5669	0.18481	3.0909	0.1	-1037.5
5670	0.18481	3.2727	0.1	-1036.2
5671	0.18481	3.4545	0.1	-1033.5
5672	0.18481	3.6364	0.1	-1029.3
5673	0.18481	3.8182	0.1	-1023.5
5674	0.18481	4.	0.1	-1015.6
5675	0.18481	4.1818	0.1	-1005.4
5676	0.18481	4.3636	0.1	-992.25
5677	0.18481	4.5455	0.1	-975.25
5678	0.18481	4.7273	0.1	-953.14
5679	0.18481	4.9091	0.1	-924.02
5680	0.18481	5.0909	0.1	-884.36
5681	0.18481	5.2727	0.1	-829.44
5682	0.18481	5.4545	0.1	-743.83
5683	0.18481	5.6364	0.1	-610.73
5684	0.18481	5.8182	0.1	-314.45
5685	0.36962	0.18182	0.1	-92.733
5686	0.36962	0.36364	0.1	138.03
5687	0.36962	0.54545	0.1	183.98
5688	0.36962	0.72727	0.1	207.16
5689	0.36962	0.90909	0.1	222.07
5690	0.36962	1.0909	0.1	232.53
5691	0.36962	1.2727	0.1	240.18
5692	0.36962	1.4545	0.1	245.94
5693	0.36962	1.6364	0.1	250.36
5694	0.36962	1.8182	0.1	253.78
5695	0.36962	2.	0.1	256.42
5696	0.36962	2.1818	0.1	258.44
5697	0.36962	2.3636	0.1	259.95
5698	0.36962	2.5455	0.1	261.03
5699	0.36962	2.7273	0.1	261.72
5700	0.36962	2.9091	0.1	262.06
5701	0.36962	3.0909	0.1	262.06
5702	0.36962	3.2727	0.1	261.72
5703	0.36962	3.4545	0.1	261.03
5704	0.36962	3.6364	0.1	259.95
5705	0.36962	3.8182	0.1	258.44
5706	0.36962	4.	0.1	256.42
5707	0.36962	4.1818	0.1	253.78
5708	0.36962	4.3636	0.1	250.36
5709	0.36962	4.5455	0.1	245.94
5710	0.36962	4.7273	0.1	240.18
5711	0.36962	4.9091	0.1	232.53
5712	0.36962	5.0909	0.1	222.07
5713	0.36962	5.2727	0.1	207.16
5714	0.36962	5.4545	0.1	183.98
5715	0.36962	5.6364	0.1	138.03
5716	0.36962	5.8182	0.1	-92.733
5717	0.55443	0.18182	0.1	-103.68
5718	0.55443	0.36364	0.1	-40.528
5719	0.55443	0.54545	0.1	-49.246
5720	0.55443	0.72727	0.1	-53.894
5721	0.55443	0.90909	0.1	-57.131
5722	0.55443	1.0909	0.1	-59.523
5723	0.55443	1.2727	0.1	-61.306
5724	0.55443	1.4545	0.1	-62.663
5725	0.55443	1.6364	0.1	-63.709
5726	0.55443	1.8182	0.1	-64.52
5727	0.55443	2.	0.1	-65.148
5728	0.55443	2.1818	0.1	-65.63
5729	0.55443	2.3636	0.1	-65.991
5730	0.55443	2.5455	0.1	-66.248
5731	0.55443	2.7273	0.1	-66.413
5732	0.55443	2.9091	0.1	-66.494
5733	0.55443	3.0909	0.1	-66.494
5734	0.55443	3.2727	0.1	-66.413
5735	0.55443	3.4545	0.1	-66.248
5736	0.55443	3.6364	0.1	-65.991
5737	0.55443	3.8182	0.1	-65.63
5738	0.55443	4.	0.1	-65.148
5739	0.55443	4.1818	0.1	-64.52
5740	0.55443	4.3636	0.1	-63.709
5741	0.55443	4.5455	0.1	-62.663
5742	0.55443	4.7273	0.1	-61.306
5743	0.55443	4.9091	0.1	-59.523
5744	0.55443	5.0909	0.1	-57.131
5745	0.55443	5.2727	0.1	-53.894
5746	0.55443	5.4545	0.1	-49.246
5747	0.55443	5.6364	0.1	-40.528
5748	0.55443	5.8182	0.1	-103.68
5749	0.73924	0.18182	0.1	-71.745
5750	0.73924	0.36364	0.1	5.7307
5751	0.73924	0.54545	0.1	10.63
5752	0.73924	0.72727	0.1	12.444
5753	0.73924	0.90909	0.1	13.693
5754	0.73924	1.0909	0.1	14.486
5755	0.73924	1.2727	0.1	15.05
5756	0.73924	1.4545	0.1	15.461
5757	0.73924	1.6364	0.1	15.774
5758	0.73924	1.8182	0.1	16.015
5759	0.73924	2.	0.1	16.202
5760	0.73924	2.1818	0.1	16.344
5761	0.73924	2.3636	0.1	16.451
5762	0.73924	2.5455	0.1	16.528
5763	0.73924	2.7273	0.1	16.577
5764	0.73924	2.9091	0.1	16.601
5765	0.73924	3.0909	0.1	16.601
5766	0.73924	3.2727	0.1	16.577
5767	0.73924	3.4545	0.1	16.528
5768	0.73924	3.6364	0.1	16.451
5769	0.73924	3.8182	0.1	16.344
5770	0.73924	4.	0.1	16.202
5771	0.73924	4.1818	0.1	16.015
5772	0.73924	4.3636	0.1	15.774
5773	0.73924	4.5455	0.1	15.461
5774	0.73924	4.7273	0.1	15.05
5775	0.73924	4.9091	0.1	14.486
5776	0.73924	5.0909	0.1	13.693
5777	0.73924	5.2727	0.1	12.444
5778	0.73924	5.4545	0.1	10.63
5779	0.73924	5.6364	0.1	5.7307
5780	0.73924	5.8182	0.1	-71.746
5781	0.92405	0.18182	0.1	-52.507
5782	0.92405	0.36364	0.1	-4.9347
5783	0.92405	0.54545	0.1	-3.9644
5784	0.92405	0.72727	0.1	-4.0194
5785	0.92405	0.90909	0.1	-4.0119
5786	0.92405	1.0909	0.1	-4.0706
5787	0.92405	1.2727	0.1	-4.131
5788	0.92405	1.4545	0.1	-4.1901
5789	0.92405	1.6364	0.1	-4.2401
5790	0.92405	1.8182	0.1	-4.2807
5791	0.92405	2.	0.1	-4.3124
5792	0.92405	2.1818	0.1	-4.3367
5793	0.92405	2.3636	0.1	-4.3547
5794	0.92405	2.5455	0.1	-4.3673
5795	0.92405	2.7273	0.1	-4.3754
5796	0.92405	2.9091	0.1	-4.3793
5797	0.92405	3.0909	0.1	-4.3793
5798	0.92405	3.2727	0.1	-4.3754
5799	0.92405	3.4545	0.1	-4.3673
5800	0.92405	3.6364	0.1	-4.3547
5801	0.92405	3.8182	0.1	-4.3367
5802	0.92405	4.	0.1	-4.3124
5803	0.92405	4.1818	0.1	-4.2807
5804	0.92405	4.3636	0.1	-4.2401
5805	0.92405	4.5455	0.1	-4.1901
5806	0.92405	4.7273	0.1	-4.131
5807	0.92405	4.9091	0.1	-4.0706
5808	0.92405	5.0909	0.1	-4.0119
5809	0.92405	5.2727	0.1	-4.0194
5810	0.92405	5.4545	0.1	-3.9644
5811	0.92405	5.6364	0.1	-4.9347
5812	0.92405	5.8182	0.1	-52.507
5813	1.1089	0.18182	0.1	-34.914
5814	1.1089	0.36364	0.1	-1.6972
5815	1.1089	0.54545	0.1	-4.3381e-002
5816	1.1089	0.72727	0.1	0.29997
5817	1.1089	0.90909	0.1	0.57248
5818	1.1089	1.0909	0.1	0.71181
5819	1.1089	1.2727	0.1	0.79924
5820	1.1089	1.4545	0.1	0.85119
5821	1.1089	1.6364	0.1	0.88472
5822	1.1089	1.8182	0.1	0.90739
5823	1.1089	2.	0.1	0.92365
5824	1.1089	2.1818	0.1	0.93568
5825	1.1089	2.3636	0.1	0.94459
5826	1.1089	2.5455	0.1	0.95097
5827	1.1089	2.7273	0.1	0.9551
5828	1.1089	2.9091	0.1	0.95714
5829	1.1089	3.0909	0.1	0.95714
5830	1.1089	3.2727	0.1	0.9551
5831	1.1089	3.4545	0.1	0.95097
5832	1.1089	3.6364	0.1	0.94459
5833	1.1089	3.8182	0.1	0.93568
5834	1.1089	4.	0.1	0.92365
5835	1.1089	4.1818	0.1	0.90739
5836	1.1089	4.3636	0.1	0.88472
5837	1.1089	4.5455	0.1	0.85119
5838	1.1089	4.7273	0.1	0.79924
5839	1.1089	4.9091	0.1	0.71181
5840	1.1089	5.0909	0.1	0.57248
5841	1.1089	5.2727	0.1	0.29997
5842	1.1089	5.4545	0.1	-4.3382e-002
5843	1.1089	5.6364	0.1	-1.6972
5844	1.1089	5.8182	0.1	-34.914
5845	1.2937	0.18182	0.1	-22.788
5846	1.2937	0.36364	0.1	-2.0845
5847	1.2937	0.54545	0.1	-0.86687
5848	1.2937	0.72727	0.1	-0.68939
5849	1.2937	0.90909	0.1	-0.51905
5850	1.2937	1.0909	0.1	-0.44097
5851	1.2937	1.2727	0.1	-0.39439
5852	1.2937	1.4545	0.1	-0.37214
5853	1.2937	1.6364	0.1	-0.36195
5854	1.2937	1.8182	0.1	-0.35827
5855	1.2937	2.	0.1	-0.35754
5856	1.2937	2.1818	0.1	-0.358
5857	1.2937	2.3636	0.1	-0.35877
5858	1.2937	2.5455	0.1	-0.35948
5859	1.2937	2.7273	0.1	-0.35999
5860	1.2937	2.9091	0.1	-0.36024
5861	1.2937	3.0909	0.1	-0.36024
5862	1.2937	3.2727	0.1	-0.35999
5863	1.2937	3.4545	0.1	-0.35948
5864	1.2937	3.6364	0.1	-0.35877
5865	1.2937	3.8182	0.1	-0.358
5866	1.2937	4.	0.1	-0.35754
5867	1.2937	4.1818	0.1	-0.35827
5868	1.2937	4.3636	0.1	-0.36195
5869	1.2937	4.5455	0.1	-0.37214
5870	1.2937	4.7273	0.1	-0.39439
5871	1.2937	4.9091	0.1	-0.44097
5872	1.2937	5.0909	0.1	-0.51904
5873	1.2937	5.2727	0.1	-0.68939
5874	1.2937	5.4545	0.1	-0.86687
5875	1.2937	5.6364	0.1	-2.0845
5876	1.2937	5.8182	0.1	-22.788
5877	1.4785	0.18182	0.1	-14.607
5878	1.4785	0.36364	0.1	-1.6511
5879	1.4785	0.54545	0.1	-0.53891
5880	1.4785	0.72727	0.1	-0.36668
5881	1.4785	0.90909	0.1	-0.19909
5882	1.4785	1.0909	0.1	-0.11462
5883	1.4785	1.2727	0.1	-5.9602e-002
5884	1.4785	1.4545	0.1	-2.8871e-002
5885	1.4785	1.6364	0.1	-1.1804e-002
5886	1.4785	1.8182	0.1	-3.1161e-003
5887	1.4785	2.	0.1	9.7414e-004
5888	1.4785	2.1818	0.1	2.6313e-003
5889	1.4785	2.3636	0.1	3.1174e-003
5890	1.4785	2.5455	0.1	3.1145e-003
5891	1.4785	2.7273	0.1	2.9775e-003
5892	1.4785	2.9091	0.1	2.8754e-003
5893	1.4785	3.0909	0.1	2.8754e-003
5894	1.4785	3.2727	0.1	2.9775e-003
5895	1.4785	3.4545	0.1	3.1145e-003
5896	1.4785	3.6364	0.1	3.1175e-003
5897	1.4785	3.8182	0.1	2.6313e-003
5898	1.4785	4.	0.1	9.7432e-004
5899	1.4785	4.1818	0.1	-3.116e-003
5900	1.4785	4.3636	0.1	-1.1804e-002
5901	1.4785	4.5455	0.1	-2.887e-002
5902	1.4785	4.7273	0.1	-5.9602e-002
5903	1.4785	4.9091	0.1	-0.11462
5904	1.4785	5.0909	0.1	-0.19909
5905	1.4785	5.2727	0.1	-0.36668
5906	1.4785	5.4545	0.1	-0.53891
5907	1.4785	5.6364	0.1	-1.6511
5908	1.4785	5.8182	0.1	-14.607
5909	1.6633	0.18182	0.1	-9.6375
5910	1.6633	0.36364	0.1	-1.4847
5911	1.6633	0.54545	0.1	-0.52526
5912	1.6633	0.72727	0.1	-0.3897
5913	1.6633	0.90909	0.1	-0.24663
5914	1.6633	1.0909	0.1	-0.17303
5915	1.6633	1.2727	0.1	-0.12269
5916	1.6633	1.4545	0.1	-9.3136e-002
5917	1.6633	1.6364	0.1	-7.5967e-002
5918	1.6633	1.8182	0.1	-6.6933e-002
5919	1.6633	2.	0.1	-6.2688e-002
5920	1.6633	2.1818	0.1	-6.1135e-002
5921	1.6633	2.3636	0.1	-6.093e-002
5922	1.6633	2.5455	0.1	-6.1271e-002
5923	1.6633	2.7273	0.1	-6.1697e-002
5924	1.6633	2.9091	0.1	-6.1962e-002
5925	1.6633	3.0909	0.1	-6.1962e-002
5926	1.6633	3.2727	0.1	-6.1697e-002
5927	1.6633	3.4545	0.1	-6.1271e-002
5928	1.6633	3.6364	0.1	-6.093e-002
5929	1.6633	3.8182	0.1	-6.1135e-002
5930	1.6633	4.	0.1	-6.2688e-002
5931	1.6633	4.1818	0.1	-6.6933e-002
5932	1.6633	4.3636	0.1	-7.5966e-002
5933	1.6633	4.5455	0.1	-9.3136e-002
5934	1.6633	4.7273	0.1	-0.12269
5935	1.6633	4.9091	0.1	-0.17303
5936	1.6633	5.0909	0.1	-0.24663
5937	1.6633	5.2727	0.1	-0.3897
5938	1.6633	5.4545	0.1	-0.52526
5939	1.6633	5.6364	0.1	-1.4847
5940	1.6633	5.8182	0.1	-9.6375
5941	1.8481	0.18182	0.1	-6.6244
5942	1.8481	0.36364	0.1	-1.2976
5943	1.8481	0.54545	0.1	-0.44884
5944	1.8481	0.72727	0.1	-0.3343
5945	1.8481	0.90909	0.1	-0.20688
5946	1.8481	1.0909	0.1	-0.13968
5947	1.8481	1.2727	0.1	-9.1597e-002
5948	1.8481	1.4545	0.1	-6.1582e-002
5949	1.8481	1.6364	0.1	-4.2835e-002
5950	1.8481	1.8182	0.1	-3.1975e-002
5951	1.8481	2.	0.1	-2.6121e-002
5952	1.8481	2.1818	0.1	-2.3333e-002
5953	1.8481	2.3636	0.1	-2.2273e-002
5954	1.8481	2.5455	0.1	-2.2072e-002
5955	1.8481	2.7273	0.1	-2.2188e-002
5956	1.8481	2.9091	0.1	-2.2316e-002
5957	1.8481	3.0909	0.1	-2.2316e-002
5958	1.8481	3.2727	0.1	-2.2188e-002
5959	1.8481	3.4545	0.1	-2.2072e-002
5960	1.8481	3.6364	0.1	-2.2273e-002
5961	1.8481	3.8182	0.1	-2.3333e-002
5962	1.8481	4.	0.1	-2.612e-002
5963	1.8481	4.1818	0.1	-3.1975e-002
5964	1.8481	4.3636	0.1	-4.2835e-002
5965	1.8481	4.5455	0.1	-6.1581e-002
5966	1.8481	4.7273	0.1	-9.1597e-002
5967	1.8481	4.9091	0.1	-0.13968
5968	1.8481	5.0909	0.1	-0.20688
5969	1.8481	5.2727	0.1	-0.3343
5970	1.8481	5.4545	0.1	-0.44884
5971	1.8481	5.6364	0.1	-1.2976
5972	1.8481	5.8182	0.1	-6.6244
5973	2.0329	0.18182	0.1	-4.7576
5974	2.0329	0.36364	0.1	-1.1517
5975	2.0329	0.54545	0.1	-0.40034
5976	2.0329	0.72727	0.1	-0.30496
5977	2.0329	0.90909	0.1	-0.19246
5978	2.0329	1.0909	0.1	-0.13235
5979	2.0329	1.2727	0.1	-8.7753e-002
5980	2.0329	1.4545	0.1	-5.8579e-002
5981	2.0329	1.6364	0.1	-3.9289e-002
5982	2.0329	1.8182	0.1	-2.7266e-002
5983	2.0329	2.	0.1	-2.0129e-002
5984	2.0329	2.1818	0.1	-1.6196e-002
5985	2.0329	2.3636	0.1	-1.4232e-002
5986	2.0329	2.5455	0.1	-1.3386e-002
5987	2.0329	2.7273	0.1	-1.3096e-002
5988	2.0329	2.9091	0.1	-1.3029e-002
5989	2.0329	3.0909	0.1	-1.3029e-002
5990	2.0329	3.2727	0.1	-1.3096e-002
5991	2.0329	3.4545	0.1	-1.3386e-002
5992	2.0329	3.6364	0.1	-1.4232e-002
5993	2.0329	3.8182	0.1	-1.6196e-002
5994	2.0329	4.	0.1	-2.0128e-002
5995	2.0329	4.1818	0.1	-2.7266e-002
5996	2.0329	4.3636	0.1	-3.9289e-002
5997	2.0329	4.5455	0.1	-5.8579e-002
5998	2.0329	4.7273	0.1	-8.7752e-002
5999	2.0329	4.9091	0.1	-0.13235
6000	2.0329	5.0909	0.1	-0.19246
6001	2.0329	5.2727	0.1	-0.30496
6002	2.0329	5.4545	0.1	-0.40034
6003	2.0329	5.6364	0.1	-1.1517
6004	2.0329	5.8182	0.1	-4.7576
6005	2.2177	0.18182	0.1	-3.5433
6006	2.2177	0.36364	0.1	-1.0241
6007	2.2177	0.54545	0.1	-0.35434
6008	2.2177	0.72727	0.1	-0.27398
6009	2.2177	0.90909	0.1	-0.17396
6010	2.2177	1.0909	0.1	-0.12005
6011	2.2177	1.2727	0.1	-7.8885e-002
6012	2.2177	1.4545	0.1	-5.0913e-002
6013	2.2177	1.6364	0.1	-3.1515e-002
6014	2.2177	1.8182	0.1	-1.8671e-002
6015	2.2177	2.	0.1	-1.0443e-002
6016	2.2177	2.1818	0.1	-5.4225e-003
6017	2.2177	2.3636	0.1	-2.5215e-003
6018	2.2177	2.5455	0.1	-9.566e-004
6019	2.2177	2.7273	0.1	-1.8799e-004
6020	2.2177	2.9091	0.1	1.172e-004
6021	2.2177	3.0909	0.1	1.1725e-004
6022	2.2177	3.2727	0.1	-1.8796e-004
6023	2.2177	3.4545	0.1	-9.5649e-004
6024	2.2177	3.6364	0.1	-2.5213e-003
6025	2.2177	3.8182	0.1	-5.4223e-003
6026	2.2177	4.	0.1	-1.0443e-002
6027	2.2177	4.1818	0.1	-1.867e-002
6028	2.2177	4.3636	0.1	-3.1515e-002
6029	2.2177	4.5455	0.1	-5.0912e-002
6030	2.2177	4.7273	0.1	-7.8885e-002
6031	2.2177	4.9091	0.1	-0.12005
6032	2.2177	5.0909	0.1	-0.17396
6033	2.2177	5.2727	0.1	-0.27398
6034	2.2177	5.4545	0.1	-0.35434
6035	2.2177	5.6364	0.1	-1.0241
6036	2.2177	5.8182	0.1	-3.5433
6037	2.4025	0.18182	0.1	-2.718
6038	2.4025	0.36364	0.1	-0.91499
6039	2.4025	0.54545	0.1	-0.31548
6040	2.4025	0.72727	0.1	-0.24756
6041	2.4025	0.90909	0.1	-0.15839
6042	2.4025	1.0909	0.1	-0.11012
6043	2.4025	1.2727	0.1	-7.2384e-002
6044	2.4025	1.4545	0.1	-4.5965e-002
6045	2.4025	1.6364	0.1	-2.6933e-002
6046	2.4025	1.8182	0.1	-1.3714e-002
6047	2.4025	2.	0.1	-4.7459e-003
6048	2.4025	2.1818	0.1	1.1269e-003
6049	2.4025	2.3636	0.1	4.8264e-003
6050	2.4025	2.5455	0.1	7.0405e-003
6051	2.4025	2.7273	0.1	8.2598e-003
6052	2.4025	2.9091	0.1	8.7944e-003
6053	2.4025	3.0909	0.1	8.7944e-003
6054	2.4025	3.2727	0.1	8.2599e-003
6055	2.4025	3.4545	0.1	7.0406e-003
6056	2.4025	3.6364	0.1	4.8266e-003
6057	2.4025	3.8182	0.1	1.1271e-003
6058	2.4025	4.	0.1	-4.7457e-003
6059	2.4025	4.1818	0.1	-1.3714e-002
6060	2.4025	4.3636	0.1	-2.6932e-002
6061	2.4025	4.5455	0.1	-4.5965e-002
6062	2.4025	4.7273	0.1	-7.2383e-002
6063	2.4025	4.9091	0.1	-0.11012
6064	2.4025	5.0909	0.1	-0.15838
6065	2.4025	5.2727	0.1	-0.24756
6066	2.4025	5.4545	0.1	-0.31548
6067	2.4025	5.6364	0.1	-0.91498
6068	2.4025	5.8182	0.1	-2.718
6069	2.5873	0.18182	0.1	-2.1342
6070	2.5873	0.36364	0.1	-0.82016
6071	2.5873	0.54545	0.1	-0.28127
6072	2.5873	0.72727	0.1	-0.22358
6073	2.5873	0.90909	0.1	-0.14377
6074	2.5873	1.0909	0.1	-0.10049
6075	2.5873	1.2727	0.1	-6.6018e-002
6076	2.5873	1.4545	0.1	-4.1303e-002
6077	2.5873	1.6364	0.1	-2.2944e-002
6078	2.5873	1.8182	0.1	-9.7031e-003
6079	2.5873	2.	0.1	-3.1403e-004
6080	2.5873	2.1818	0.1	6.1573e-003
6081	2.5873	2.3636	0.1	1.0474e-002
6082	2.5873	2.5455	0.1	1.322e-002
6083	2.5873	2.7273	0.1	1.4822e-002
6084	2.5873	2.9091	0.1	1.5556e-002
6085	2.5873	3.0909	0.1	1.5556e-002
6086	2.5873	3.2727	0.1	1.4822e-002
6087	2.5873	3.4545	0.1	1.322e-002
6088	2.5873	3.6364	0.1	1.0474e-002
6089	2.5873	3.8182	0.1	6.1575e-003
6090	2.5873	4.	0.1	-3.1378e-004
6091	2.5873	4.1818	0.1	-9.7028e-003
6092	2.5873	4.3636	0.1	-2.2944e-002
6093	2.5873	4.5455	0.1	-4.1303e-002
6094	2.5873	4.7273	0.1	-6.6018e-002
6095	2.5873	4.9091	0.1	-0.10049
6096	2.5873	5.0909	0.1	-0.14377
6097	2.5873	5.2727	0.1	-0.22358
6098	2.5873	5.4545	0.1	-0.28127
6099	2.5873	5.6364	0.1	-0.82016
6100	2.5873	5.8182	0.1	-2.1342
6101	2.7722	0.18182	0.1	-1.7077
6102	2.7722	0.36364	0.1	-0.7374
6103	2.7722	0.54545	0.1	-0.25135
6104	2.7722	0.72727	0.1	-0.20214
6105	2.7722	0.90909	0.1	-0.1305
6106	2.7722	1.0909	0.1	-9.1641e-002
6107	2.7722	1.2727	0.1	-6.021e-002
6108	2.7722	1.4545	0.1	-3.7251e-002
6109	2.7722	1.6364	0.1	-1.9774e-002
6110	2.7722	1.8182	0.1	-6.7873e-003
6111	2.7722	2.	0.1	2.7421e-003
6112	2.7722	2.1818	0.1	9.5652e-003
6113	2.7722	2.3636	0.1	1.4304e-002
6114	2.7722	2.5455	0.1	1.7441e-002
6115	2.7722	2.7273	0.1	1.9337e-002
6116	2.7722	2.9091	0.1	2.0227e-002
6117	2.7722	3.0909	0.1	2.0227e-002
6118	2.7722	3.2727	0.1	1.9337e-002
6119	2.7722	3.4545	0.1	1.7441e-002
6120	2.7722	3.6364	0.1	1.4304e-002
6121	2.7722	3.8182	0.1	9.5653e-003
6122	2.7722	4.	0.1	2.7424e-003
6123	2.7722	4.1818	0.1	-6.787e-003
6124	2.7722	4.3636	0.1	-1.9774e-002
6125	2.7722	4.5455	0.1	-3.7251e-002
6126	2.7722	4.7273	0.1	-6.0209e-002
6127	2.7722	4.9091	0.1	-9.164e-002
6128	2.7722	5.0909	0.1	-0.1305
6129	2.7722	5.2727	0.1	-0.20214
6130	2.7722	5.4545	0.1	-0.25135
6131	2.7722	5.6364	0.1	-0.7374
6132	2.7722	5.8182	0.1	-1.7077
6133	2.957	0.18182	0.1	-1.3876
6134	2.957	0.36364	0.1	-0.66465
6135	2.957	0.54545	0.1	-0.225
6136	2.957	0.72727	0.1	-0.18287
6137	2.957	0.90909	0.1	-0.11837
6138	2.957	1.0909	0.1	-8.342e-002
6139	2.957	1.2727	0.1	-5.4791e-002
6140	2.957	1.4545	0.1	-3.3568e-002
6141	2.957	1.6364	0.1	-1.7094e-002
6142	2.957	1.8182	0.1	-4.5584e-003
6143	2.957	2.	0.1	4.8888e-003
6144	2.957	2.1818	0.1	1.1852e-002
6145	2.957	2.3636	0.1	1.6833e-002
6146	2.957	2.5455	0.1	2.0224e-002
6147	2.957	2.7273	0.1	2.2323e-002
6148	2.957	2.9091	0.1	2.3323e-002
6149	2.957	3.0909	0.1	2.3323e-002
6150	2.957	3.2727	0.1	2.2323e-002
6151	2.957	3.4545	0.1	2.0224e-002
6152	2.957	3.6364	0.1	1.6833e-002
6153	2.957	3.8182	0.1	1.1852e-002
6154	2.957	4.	0.1	4.8891e-003
6155	2.957	4.1818	0.1	-4.558e-003
6156	2.957	4.3636	0.1	-1.7093e-002
6157	2.957	4.5455	0.1	-3.3568e-002
6158	2.957	4.7273	0.1	-5.479e-002
6159	2.957	4.9091	0.1	-8.342e-002
6160	2.957	5.0909	0.1	-0.11837
6161	2.957	5.2727	0.1	-0.18287
6162	2.957	5.4545	0.1	-0.225
6163	2.957	5.6364	0.1	-0.66465
6164	2.957	5.8182	0.1	-1.3876
6165	3.1418	0.18182	0.1	-1.1421
6166	3.1418	0.36364	0.1	-0.60038
6167	3.1418	0.54545	0.1	-0.20173
6168	3.1418	0.72727	0.1	-0.16554
6169	3.1418	0.90909	0.1	-0.10734
6170	3.1418	1.0909	0.1	-7.5849e-002
6171	3.1418	1.2727	0.1	-4.9783e-002
6172	3.1418	1.4545	0.1	-3.0235e-002
6173	3.1418	1.6364	0.1	-1.4821e-002
6174	3.1418	1.8182	0.1	-2.8695e-003
6175	3.1418	2.	0.1	6.3282e-003
6176	3.1418	2.1818	0.1	1.326e-002
6177	3.1418	2.3636	0.1	1.8331e-002
6178	3.1418	2.5455	0.1	2.1855e-002
6179	3.1418	2.7273	0.1	2.4072e-002
6180	3.1418	2.9091	0.1	2.5141e-002
6181	3.1418	3.0909	0.1	2.5141e-002
6182	3.1418	3.2727	0.1	2.4072e-002
6183	3.1418	3.4545	0.1	2.1855e-002
6184	3.1418	3.6364	0.1	1.8331e-002
6185	3.1418	3.8182	0.1	1.3261e-002
6186	3.1418	4.	0.1	6.3286e-003
6187	3.1418	4.1818	0.1	-2.8692e-003
6188	3.1418	4.3636	0.1	-1.482e-002
6189	3.1418	4.5455	0.1	-3.0234e-002
6190	3.1418	4.7273	0.1	-4.9782e-002
6191	3.1418	4.9091	0.1	-7.5848e-002
6192	3.1418	5.0909	0.1	-0.10734
6193	3.1418	5.2727	0.1	-0.16554
6194	3.1418	5.4545	0.1	-0.20173
6195	3.1418	5.6364	0.1	-0.60038
6196	3.1418	5.8182	0.1	-1.1421
6197	3.3266	0.18182	0.1	-0.95031
6198	3.3266	0.36364	0.1	-0.54333
6199	3.3266	0.54545	0.1	-0.18114
6200	3.3266	0.72727	0.1	-0.14995
6201	3.3266	0.90909	0.1	-9.7323e-002
6202	3.3266	1.0909	0.1	-6.8911e-002
6203	3.3266	1.2727	0.1	-4.5182e-002
6204	3.3266	1.4545	0.1	-2.7222e-002
6205	3.3266	1.6364	0.1	-1.2881e-002
6206	3.3266	1.8182	0.1	-1.5959e-003
6207	3.3266	2.	0.1	7.2344e-003
6208	3.3266	2.1818	0.1	1.4006e-002
6209	3.3266	2.3636	0.1	1.9044e-002
6210	3.3266	2.5455	0.1	2.2599e-002
6211	3.3266	2.7273	0.1	2.4864e-002
6212	3.3266	2.9091	0.1	2.5965e-002
6213	3.3266	3.0909	0.1	2.5965e-002
6214	3.3266	3.2727	0.1	2.4864e-002
6215	3.3266	3.4545	0.1	2.26e-002
6216	3.3266	3.6364	0.1	1.9044e-002
6217	3.3266	3.8182	0.1	1.4007e-002
6218	3.3266	4.	0.1	7.2347e-003
6219	3.3266	4.1818	0.1	-1.5956e-003
6220	3.3266	4.3636	0.1	-1.2881e-002
6221	3.3266	4.5455	0.1	-2.7221e-002
6222	3.3266	4.7273	0.1	-4.5181e-002
6223	3.3266	4.9091	0.1	-6.891e-002
6224	3.3266	5.0909	0.1	-9.7322e-002
6225	3.3266	5.2727	0.1	-0.14995
6226	3.3266	5.4545	0.1	-0.18114
6227	3.3266	5.6364	0.1	-0.54333
6228	3.3266	5.8182	0.1	-0.95031
6229	3.5114	0.18182	0.1	-0.7982
6230	3.5114	0.36364	0.1	-0.49247
6231	3.5114	0.54545	0.1	-0.16286
6232	3.5114	0.72727	0.1	-0.13591
6233	3.5114	0.90909	0.1	-8.8244e-002
6234	3.5114	1.0909	0.1	-6.2573e-002
6235	3.5114	1.2727	0.1	-4.097e-002
6236	3.5114	1.4545	0.1	-2.45e-002
6237	3.5114	1.6364	0.1	-1.1218e-002
6238	3.5114	1.8182	0.1	-6.4072e-004
6239	3.5114	2.	0.1	7.7445e-003
6240	3.5114	2.1818	0.1	1.4263e-002
6241	3.5114	2.3636	0.1	1.9176e-002
6242	3.5114	2.5455	0.1	2.2684e-002
6243	3.5114	2.7273	0.1	2.494e-002
6244	3.5114	2.9091	0.1	2.6043e-002
6245	3.5114	3.0909	0.1	2.6043e-002
6246	3.5114	3.2727	0.1	2.494e-002
6247	3.5114	3.4545	0.1	2.2684e-002
6248	3.5114	3.6364	0.1	1.9176e-002
6249	3.5114	3.8182	0.1	1.4263e-002
6250	3.5114	4.	0.1	7.7446e-003
6251	3.5114	4.1818	0.1	-6.4026e-004
6252	3.5114	4.3636	0.1	-1.1217e-002
6253	3.5114	4.5455	0.1	-2.45e-002
6254	3.5114	4.7273	0.1	-4.0969e-002
6255	3.5114	4.9091	0.1	-6.2572e-002
6256	3.5114	5.0909	0.1	-8.8243e-002
6257	3.5114	5.2727	0.1	-0.13591
6258	3.5114	5.4545	0.1	-0.16286
6259	3.5114	5.6364	0.1	-0.49247
6260	3.5114	5.8182	0.1	-0.7982
6261	3.6962	0.18182	0.1	-0.67602
6262	3.6962	0.36364	0.1	-0.44698
6263	3.6962	0.54545	0.1	-0.14661
6264	3.6962	0.72727	0.1	-0.12327
6265	3.6962	0.90909	0.1	-8.0039e-002
6266	3.6962	1.0909	0.1	-5.6817e-002
6267	3.6962	1.2727	0.1	-3.7149e-002
6268	3.6962	1.4545	0.1	-2.2068e-002
6269	3.6962	1.6364	0.1	-9.8074e-003
6270	3.6962	1.8182	0.1	4.7729e-005
6271	3.6962	2.	0.1	7.9412e-003
6272	3.6962	2.1818	0.1	1.4143e-002
6273	3.6962	2.3636	0.1	1.8866e-002
6274	3.6962	2.5455	0.1	2.2268e-002
6275	3.6962	2.7273	0.1	2.4472e-002
6276	3.6962	2.9091	0.1	2.5554e-002
6277	3.6962	3.0909	0.1	2.5554e-002
6278	3.6962	3.2727	0.1	2.4472e-002
6279	3.6962	3.4545	0.1	2.2269e-002
6280	3.6962	3.6364	0.1	1.8866e-002
6281	3.6962	3.8182	0.1	1.4143e-002
6282	3.6962	4.	0.1	7.9416e-003
6283	3.6962	4.1818	0.1	4.8057e-005
6284	3.6962	4.3636	0.1	-9.8069e-003
6285	3.6962	4.5455	0.1	-2.2067e-002
6286	3.6962	4.7273	0.1	-3.7148e-002
6287	3.6962	4.9091	0.1	-5.6817e-002
6288	3.6962	5.0909	0.1	-8.0038e-002
6289	3.6962	5.2727	0.1	-0.12327
6290	3.6962	5.4545	0.1	-0.14661
6291	3.6962	5.6364	0.1	-0.44697
6292	3.6962	5.8182	0.1	-0.67602
6293	3.881	0.18182	0.1	-0.57681
6294	3.881	0.36364	0.1	-0.40613
6295	3.881	0.54545	0.1	-0.13212
6296	3.881	0.72727	0.1	-0.11187
6297	3.881	0.90909	0.1	-7.2615e-002
6298	3.881	1.0909	0.1	-5.1589e-002
6299	3.881	1.2727	0.1	-3.3681e-002
6300	3.881	1.4545	0.1	-1.9887e-002
6301	3.881	1.6364	0.1	-8.6019e-003
6302	3.881	1.8182	0.1	5.3714e-004
6303	3.881	2.	0.1	7.9169e-003
6304	3.881	2.1818	0.1	1.3764e-002
6305	3.881	2.3636	0.1	1.8252e-002
6306	3.881	2.5455	0.1	2.1508e-002
6307	3.881	2.7273	0.1	2.3628e-002
6308	3.881	2.9091	0.1	2.4673e-002
6309	3.881	3.0909	0.1	2.4674e-002
6310	3.881	3.2727	0.1	2.3629e-002
6311	3.881	3.4545	0.1	2.1508e-002
6312	3.881	3.6364	0.1	1.8252e-002
6313	3.881	3.8182	0.1	1.3764e-002
6314	3.881	4.	0.1	7.9174e-003
6315	3.881	4.1818	0.1	5.3758e-004
6316	3.881	4.3636	0.1	-8.6014e-003
6317	3.881	4.5455	0.1	-1.9887e-002
6318	3.881	4.7273	0.1	-3.368e-002
6319	3.881	4.9091	0.1	-5.1589e-002
6320	3.881	5.0909	0.1	-7.2614e-002
6321	3.881	5.2727	0.1	-0.11187
6322	3.881	5.4545	0.1	-0.13212
6323	3.881	5.6364	0.1	-0.40612
6324	3.881	5.8182	0.1	-0.57681
6325	4.0658	0.18182	0.1	-0.4955
6326	4.0658	0.36364	0.1	-0.36934
6327	4.0658	0.54545	0.1	-0.11917
6328	4.0658	0.72727	0.1	-0.10157
6329	4.0658	0.90909	0.1	-6.59e-002
6330	4.0658	1.0909	0.1	-4.6849e-002
6331	4.0658	1.2727	0.1	-3.0543e-002
6332	4.0658	1.4545	0.1	-1.7939e-002
6333	4.0658	1.6364	0.1	-7.5746e-003
6334	4.0658	1.8182	0.1	8.683e-004
6335	4.0658	2.	0.1	7.7298e-003
6336	4.0658	2.1818	0.1	1.3202e-002
6337	4.0658	2.3636	0.1	1.7429e-002
6338	4.0658	2.5455	0.1	2.0512e-002
6339	4.0658	2.7273	0.1	2.2528e-002
6340	4.0658	2.9091	0.1	2.3524e-002
6341	4.0658	3.0909	0.1	2.3525e-002
6342	4.0658	3.2727	0.1	2.2528e-002
6343	4.0658	3.4545	0.1	2.0512e-002
6344	4.0658	3.6364	0.1	1.7429e-002
6345	4.0658	3.8182	0.1	1.3202e-002
6346	4.0658	4.	0.1	7.7302e-003
6347	4.0658	4.1818	0.1	8.6888e-004
6348	4.0658	4.3636	0.1	-7.5739e-003
6349	4.0658	4.5455	0.1	-1.7939e-002
6350	4.0658	4.7273	0.1	-3.0542e-002
6351	4.0658	4.9091	0.1	-4.6848e-002
6352	4.0658	5.0909	0.1	-6.5899e-002
6353	4.0658	5.2727	0.1	-0.10157
6354	4.0658	5.4545	0.1	-0.11917
6355	4.0658	5.6364	0.1	-0.36934
6356	4.0658	5.8182	0.1	-0.4955
6357	4.2506	0.18182	0.1	-0.42835
6358	4.2506	0.36364	0.1	-0.33614
6359	4.2506	0.54545	0.1	-0.10759
6360	4.2506	0.72727	0.1	-9.227e-002
6361	4.2506	0.90909	0.1	-5.9837e-002
6362	4.2506	1.0909	0.1	-4.2567e-002
6363	4.2506	1.2727	0.1	-2.7721e-002
6364	4.2506	1.4545	0.1	-1.6215e-002
6365	4.2506	1.6364	0.1	-6.713e-003
6366	4.2506	1.8182	0.1	1.0624e-003
6367	4.2506	2.	0.1	7.4136e-003
6368	4.2506	2.1818	0.1	1.2505e-002
6369	4.2506	2.3636	0.1	1.6457e-002
6370	4.2506	2.5455	0.1	1.9352e-002
6371	4.2506	2.7273	0.1	2.1251e-002
6372	4.2506	2.9091	0.1	2.2192e-002
6373	4.2506	3.0909	0.1	2.2192e-002
6374	4.2506	3.2727	0.1	2.1251e-002
6375	4.2506	3.4545	0.1	1.9352e-002
6376	4.2506	3.6364	0.1	1.6457e-002
6377	4.2506	3.8182	0.1	1.2505e-002
6378	4.2506	4.	0.1	7.4141e-003
6379	4.2506	4.1818	0.1	1.063e-003
6380	4.2506	4.3636	0.1	-6.7125e-003
6381	4.2506	4.5455	0.1	-1.6214e-002
6382	4.2506	4.7273	0.1	-2.772e-002
6383	4.2506	4.9091	0.1	-4.2567e-002
6384	4.2506	5.0909	0.1	-5.9836e-002
6385	4.2506	5.2727	0.1	-9.227e-002
6386	4.2506	5.4545	0.1	-0.10759
6387	4.2506	5.6364	0.1	-0.33614
6388	4.2506	5.8182	0.1	-0.42835
6389	4.4354	0.18182	0.1	-0.3725
6390	4.4354	0.36364	0.1	-0.30611
6391	4.4354	0.54545	0.1	-9.7207e-002
6392	4.4354	0.72727	0.1	-8.3857e-002
6393	4.4354	0.90909	0.1	-5.4357e-002
6394	4.4354	1.0909	0.1	-3.8697e-002
6395	4.4354	1.2727	0.1	-2.5182e-002
6396	4.4354	1.4545	0.1	-1.4686e-002
6397	4.4354	1.6364	0.1	-5.9892e-003
6398	4.4354	1.8182	0.1	1.1534e-003
6399	4.4354	2.	0.1	7.0109e-003
6400	4.4354	2.1818	0.1	1.1726e-002
6401	4.4354	2.3636	0.1	1.5399e-002
6402	4.4354	2.5455	0.1	1.8099e-002
6403	4.4354	2.7273	0.1	1.9875e-002
6404	4.4354	2.9091	0.1	2.0756e-002
6405	4.4354	3.0909	0.1	2.0756e-002
6406	4.4354	3.2727	0.1	1.9875e-002
6407	4.4354	3.4545	0.1	1.8099e-002
6408	4.4354	3.6364	0.1	1.5399e-002
6409	4.4354	3.8182	0.1	1.1726e-002
6410	4.4354	4.	0.1	7.0112e-003
6411	4.4354	4.1818	0.1	1.154e-003
6412	4.4354	4.3636	0.1	-5.9886e-003
6413	4.4354	4.5455	0.1	-1.4685e-002
6414	4.4354	4.7273	0.1	-2.5182e-002
6415	4.4354	4.9091	0.1	-3.8696e-002
6416	4.4354	5.0909	0.1	-5.4356e-002
6417	4.4354	5.2727	0.1	-8.3856e-002
6418	4.4354	5.4545	0.1	-9.7207e-002
6419	4.4354	5.6364	0.1	-0.30611
6420	4.4354	5.8182	0.1	-0.3725
6421	4.6203	0.18182	0.1	-0.32579
6422	4.6203	0.36364	0.1	-0.27889
6423	4.6203	0.54545	0.1	-8.7887e-002
6424	4.6203	0.72727	0.1	-7.6247e-002
6425	4.6203	0.90909	0.1	-4.941e-002
6426	4.6203	1.0909	0.1	-3.5209e-002
6427	4.6203	1.2727	0.1	-2.291e-002
6428	4.6203	1.4545	0.1	-1.3342e-002
6429	4.6203	1.6364	0.1	-5.393e-003
6430	4.6203	1.8182	0.1	1.1541e-003
6431	4.6203	2.	0.1	6.5401e-003
6432	4.6203	2.1818	0.1	1.0889e-002
6433	4.6203	2.3636	0.1	1.4287e-002
6434	4.6203	2.5455	0.1	1.6792e-002
6435	4.6203	2.7273	0.1	1.8442e-002
6436	4.6203	2.9091	0.1	1.9262e-002
6437	4.6203	3.0909	0.1	1.9262e-002
6438	4.6203	3.2727	0.1	1.8443e-002
6439	4.6203	3.4545	0.1	1.6792e-002
6440	4.6203	3.6364	0.1	1.4288e-002
6441	4.6203	3.8182	0.1	1.089e-002
6442	4.6203	4.	0.1	6.5404e-003
6443	4.6203	4.1818	0.1	1.1546e-003
6444	4.6203	4.3636	0.1	-5.3923e-003
6445	4.6203	4.5455	0.1	-1.3341e-002
6446	4.6203	4.7273	0.1	-2.2909e-002
6447	4.6203	4.9091	0.1	-3.5208e-002
6448	4.6203	5.0909	0.1	-4.9409e-002
6449	4.6203	5.2727	0.1	-7.6246e-002
6450	4.6203	5.4545	0.1	-8.7887e-002
6451	4.6203	5.6364	0.1	-0.27889
6452	4.6203	5.8182	0.1	-0.32579
6453	4.8051	0.18182	0.1	-0.28654
6454	4.8051	0.36364	0.1	-0.25417
6455	4.8051	0.54545	0.1	-7.9501e-002
6456	4.8051	0.72727	0.1	-6.9349e-002
6457	4.8051	0.90909	0.1	-4.4936e-002
6458	4.8051	1.0909	0.1	-3.2059e-002
6459	4.8051	1.2727	0.1	-2.0871e-002
6460	4.8051	1.4545	0.1	-1.2155e-002
6461	4.8051	1.6364	0.1	-4.899e-003
6462	4.8051	1.8182	0.1	1.0909e-003
6463	4.8051	2.	0.1	6.0308e-003
6464	4.8051	2.1818	0.1	1.003e-002
6465	4.8051	2.3636	0.1	1.3162e-002
6466	4.8051	2.5455	0.1	1.5475e-002
6467	4.8051	2.7273	0.1	1.7001e-002
6468	4.8051	2.9091	0.1	1.7761e-002
6469	4.8051	3.0909	0.1	1.7761e-002
6470	4.8051	3.2727	0.1	1.7001e-002
6471	4.8051	3.4545	0.1	1.5475e-002
6472	4.8051	3.6364	0.1	1.3162e-002
6473	4.8051	3.8182	0.1	1.003e-002
6474	4.8051	4.	0.1	6.0314e-003
6475	4.8051	4.1818	0.1	1.0915e-003
6476	4.8051	4.3636	0.1	-4.8985e-003
6477	4.8051	4.5455	0.1	-1.2154e-002
6478	4.8051	4.7273	0.1	-2.087e-002
6479	4.8051	4.9091	0.1	-3.2058e-002
6480	4.8051	5.0909	0.1	-4.4934e-002
6481	4.8051	5.2727	0.1	-6.9349e-002
6482	4.8051	5.4545	0.1	-7.9501e-002
6483	4.8051	5.6364	0.1	-0.25416
6484	4.8051	5.8182	0.1	-0.28654
6485	4.9899	0.18182	0.1	-0.25341
6486	4.9899	0.36364	0.1	-0.23168
6487	4.9899	0.54545	0.1	-7.1949e-002
6488	4.9899	0.72727	0.1	-6.3097e-002
6489	4.9899	0.90909	0.1	-4.0893e-002
6490	4.9899	1.0909	0.1	-2.922e-002
6491	4.9899	1.2727	0.1	-1.9048e-002
6492	4.9899	1.4545	0.1	-1.1115e-002
6493	4.9899	1.6364	0.1	-4.4994e-003
6494	4.9899	1.8182	0.1	9.722e-004
6495	4.9899	2.	0.1	5.4934e-003
6496	4.9899	2.1818	0.1	9.1607e-003
6497	4.9899	2.3636	0.1	1.2038e-002
6498	4.9899	2.5455	0.1	1.4166e-002
6499	4.9899	2.7273	0.1	1.5573e-002
6500	4.9899	2.9091	0.1	1.6273e-002
6501	4.9899	3.0909	0.1	1.6273e-002
6502	4.9899	3.2727	0.1	1.5573e-002
6503	4.9899	3.4545	0.1	1.4166e-002
6504	4.9899	3.6364	0.1	1.2039e-002
6505	4.9899	3.8182	0.1	9.161e-003
6506	4.9899	4.	0.1	5.4938e-003
6507	4.9899	4.1818	0.1	9.727e-004
6508	4.9899	4.3636	0.1	-4.4987e-003
6509	4.9899	4.5455	0.1	-1.1115e-002
6510	4.9899	4.7273	0.1	-1.9047e-002
6511	4.9899	4.9091	0.1	-2.922e-002
6512	4.9899	5.0909	0.1	-4.0891e-002
6513	4.9899	5.2727	0.1	-6.3096e-002
6514	4.9899	5.4545	0.1	-7.1949e-002
6515	4.9899	5.6364	0.1	-0.23168
6516	4.9899	5.8182	0.1	-0.25341
6517	5.1747	0.18182	0.1	-0.22536
6518	5.1747	0.36364	0.1	-0.2112
6519	5.1747	0.54545	0.1	-6.5132e-002
6520	5.1747	0.72727	0.1	-5.7417e-002
6521	5.1747	0.90909	0.1	-3.7229e-002
6522	5.1747	1.0909	0.1	-2.6654e-002
6523	5.1747	1.2727	0.1	-1.7411e-002
6524	5.1747	1.4545	0.1	-1.0198e-002
6525	5.1747	1.6364	0.1	-4.1724e-003
6526	5.1747	1.8182	0.1	8.1804e-004
6527	5.1747	2.	0.1	4.9483e-003
6528	5.1747	2.1818	0.1	8.3039e-003
6529	5.1747	2.3636	0.1	1.0941e-002
6530	5.1747	2.5455	0.1	1.2893e-002
6531	5.1747	2.7273	0.1	1.4185e-002
6532	5.1747	2.9091	0.1	1.4828e-002
6533	5.1747	3.0909	0.1	1.4828e-002
6534	5.1747	3.2727	0.1	1.4185e-002
6535	5.1747	3.4545	0.1	1.2893e-002
6536	5.1747	3.6364	0.1	1.0941e-002
6537	5.1747	3.8182	0.1	8.3042e-003
6538	5.1747	4.	0.1	4.9486e-003
6539	5.1747	4.1818	0.1	8.1859e-004
6540	5.1747	4.3636	0.1	-4.1718e-003
6541	5.1747	4.5455	0.1	-1.0197e-002
6542	5.1747	4.7273	0.1	-1.741e-002
6543	5.1747	4.9091	0.1	-2.6654e-002
6544	5.1747	5.0909	0.1	-3.7228e-002
6545	5.1747	5.2727	0.1	-5.7416e-002
6546	5.1747	5.4545	0.1	-6.5131e-002
6547	5.1747	5.6364	0.1	-0.2112
6548	5.1747	5.8182	0.1	-0.22536
6549	5.3595	0.18182	0.1	-0.20156
6550	5.3595	0.36364	0.1	-0.19251
6551	5.3595	0.54545	0.1	-5.8966e-002
6552	5.3595	0.72727	0.1	-5.2251e-002
6553	5.3595	0.90909	0.1	-3.3907e-002
6554	5.3595	1.0909	0.1	-2.4333e-002
6555	5.3595	1.2727	0.1	-1.5942e-002
6556	5.3595	1.4545	0.1	-9.3886e-003
6557	5.3595	1.6364	0.1	-3.9069e-003
6558	5.3595	1.8182	0.1	6.3837e-004
6559	5.3595	2.	0.1	4.4051e-003
6560	5.3595	2.1818	0.1	7.4694e-003
6561	5.3595	2.3636	0.1	9.8802e-003
6562	5.3595	2.5455	0.1	1.1667e-002
6563	5.3595	2.7273	0.1	1.285e-002
6564	5.3595	2.9091	0.1	1.344e-002
6565	5.3595	3.0909	0.1	1.344e-002
6566	5.3595	3.2727	0.1	1.285e-002
6567	5.3595	3.4545	0.1	1.1667e-002
6568	5.3595	3.6364	0.1	9.8805e-003
6569	5.3595	3.8182	0.1	7.4699e-003
6570	5.3595	4.	0.1	4.4055e-003
6571	5.3595	4.1818	0.1	6.3896e-004
6572	5.3595	4.3636	0.1	-3.9064e-003
6573	5.3595	4.5455	0.1	-9.3877e-003
6574	5.3595	4.7273	0.1	-1.5941e-002
6575	5.3595	4.9091	0.1	-2.4333e-002
6576	5.3595	5.0909	0.1	-3.3906e-002
6577	5.3595	5.2727	0.1	-5.225e-002
6578	5.3595	5.4545	0.1	-5.8966e-002
6579	5.3595	5.6364	0.1	-0.19251
6580	5.3595	5.8182	0.1	-0.20156
6581	5.5443	0.18182	0.1	-0.18134
6582	5.5443	0.36364	0.1	-0.17545
6583	5.5443	0.54545	0.1	-5.339e-002
6584	5.5443	0.72727	0.1	-4.7556e-002
6585	5.5443	0.90909	0.1	-3.09e-002
6586	5.5443	1.0909	0.1	-2.224e-002
6587	5.5443	1.2727	0.1	-1.4629e-002
6588	5.5443	1.4545	0.1	-8.6825e-003
6589	5.5443	1.6364	0.1	-3.7016e-003
6590	5.5443	1.8182	0.1	4.3285e-004
6591	5.5443	2.	0.1	3.8629e-003
6592	5.5443	2.1818	0.1	6.6564e-003
6593	5.5443	2.3636	0.1	8.8563e-003
6594	5.5443	2.5455	0.1	1.0488e-002
6595	5.5443	2.7273	0.1	1.1569e-002
6596	5.5443	2.9091	0.1	1.2108e-002
6597	5.5443	3.0909	0.1	1.2108e-002
6598	5.5443	3.2727	0.1	1.1569e-002
6599	5.5443	3.4545	0.1	1.0488e-002
6600	5.5443	3.6364	0.1	8.8564e-003
6601	5.5443	3.8182	0.1	6.6569e-003
6602	5.5443	4.	0.1	3.8634e-003
6603	5.5443	4.1818	0.1	4.3338e-004
6604	5.5443	4.3636	0.1	-3.701e-003
6605	5.5443	4.5455	0.1	-8.6818e-003
6606	5.5443	4.7273	0.1	-1.4628e-002
6607	5.5443	4.9091	0.1	-2.224e-002
6608	5.5443	5.0909	0.1	-3.0899e-002
6609	5.5443	5.2727	0.1	-4.7555e-002
6610	5.5443	5.4545	0.1	-5.339e-002
6611	5.5443	5.6364	0.1	-0.17545
6612	5.5443	5.8182	0.1	-0.18134
6613	5.7291	0.18182	0.1	-0.16416
6614	5.7291	0.36364	0.1	-0.15984
6615	5.7291	0.54545	0.1	-4.8333e-002
6616	5.7291	0.72727	0.1	-4.3276e-002
6617	5.7291	0.90909	0.1	-2.8168e-002
6618	5.7291	1.0909	0.1	-2.0345e-002
6619	5.7291	1.2727	0.1	-1.345e-002
6620	5.7291	1.4545	0.1	-8.06e-003
6621	5.7291	1.6364	0.1	-3.5398e-003
6622	5.7291	1.8182	0.1	2.1582e-004
6623	5.7291	2.	0.1	3.3347e-003
6624	5.7291	2.1818	0.1	5.8774e-003
6625	5.7291	2.3636	0.1	7.8816e-003
6626	5.7291	2.5455	0.1	9.3686e-003
6627	5.7291	2.7273	0.1	1.0355e-002
6628	5.7291	2.9091	0.1	1.0847e-002
6629	5.7291	3.0909	0.1	1.0847e-002
6630	5.7291	3.2727	0.1	1.0355e-002
6631	5.7291	3.4545	0.1	9.3688e-003
6632	5.7291	3.6364	0.1	7.8819e-003
6633	5.7291	3.8182	0.1	5.8779e-003
6634	5.7291	4.	0.1	3.3353e-003
6635	5.7291	4.1818	0.1	2.1641e-004
6636	5.7291	4.3636	0.1	-3.5393e-003
6637	5.7291	4.5455	0.1	-8.059e-003
6638	5.7291	4.7273	0.1	-1.3449e-002
6639	5.7291	4.9091	0.1	-2.0344e-002
6640	5.7291	5.0909	0.1	-2.8167e-002
6641	5.7291	5.2727	0.1	-4.3276e-002
6642	5.7291	5.4545	0.1	-4.8332e-002
6643	5.7291	5.6364	0.1	-0.15984
6644	5.7291	5.8182	0.1	-0.16416
6645	5.9139	0.18182	0.1	-0.14961
6646	5.9139	0.36364	0.1	-0.14557
6647	5.9139	0.54545	0.1	-4.3753e-002
6648	5.9139	0.72727	0.1	-3.9387e-002
6649	5.9139	0.90909	0.1	-2.5699e-002
6650	5.9139	1.0909	0.1	-1.8642e-002
6651	5.9139	1.2727	0.1	-1.2404e-002
6652	5.9139	1.4545	0.1	-7.5249e-003
6653	5.9139	1.6364	0.1	-3.4286e-003
6654	5.9139	1.8182	0.1	-2.1634e-005
6655	5.9139	2.	0.1	2.8106e-003
6656	5.9139	2.1818	0.1	5.1215e-003
6657	5.9139	2.3636	0.1	6.9444e-003
6658	5.9139	2.5455	0.1	8.2978e-003
6659	5.9139	2.7273	0.1	9.1961e-003
6660	5.9139	2.9091	0.1	9.6443e-003
6661	5.9139	3.0909	0.1	9.6445e-003
6662	5.9139	3.2727	0.1	9.1962e-003
6663	5.9139	3.4545	0.1	8.2981e-003
6664	5.9139	3.6364	0.1	6.9448e-003
6665	5.9139	3.8182	0.1	5.1219e-003
6666	5.9139	4.	0.1	2.8109e-003
6667	5.9139	4.1818	0.1	-2.0956e-005
6668	5.9139	4.3636	0.1	-3.428e-003
6669	5.9139	4.5455	0.1	-7.5242e-003
6670	5.9139	4.7273	0.1	-1.2403e-002
6671	5.9139	4.9091	0.1	-1.8641e-002
6672	5.9139	5.0909	0.1	-2.5698e-002
6673	5.9139	5.2727	0.1	-3.9386e-002
6674	5.9139	5.4545	0.1	-4.3753e-002
6675	5.9139	5.6364	0.1	-0.14557
6676	5.9139	5.8182	0.1	-0.14961
6677	6.0987	0.18182	0.1	-0.13733
6678	6.0987	0.36364	0.1	-0.13248
6679	6.0987	0.54545	0.1	-3.9588e-002
6680	6.0987	0.72727	0.1	-3.5835e-002
6681	6.0987	0.90909	0.1	-2.3452e-002
6682	6.0987	1.0909	0.1	-1.7097e-002
6683	6.0987	1.2727	0.1	-1.1463e-002
6684	6.0987	1.4545	0.1	-7.0535e-003
6685	6.0987	1.6364	0.1	-3.3464e-003
6686	6.0987	1.8182	0.1	-2.6024e-004
6687	6.0987	2.	0.1	2.3079e-003
6688	6.0987	2.1818	0.1	4.4056e-003
6689	6.0987	2.3636	0.1	6.0614e-003
6690	6.0987	2.5455	0.1	7.2914e-003
6691	6.0987	2.7273	0.1	8.1082e-003
6692	6.0987	2.9091	0.1	8.516e-003
6693	6.0987	3.0909	0.1	8.516e-003
6694	6.0987	3.2727	0.1	8.1085e-003
6695	6.0987	3.4545	0.1	7.2915e-003
6696	6.0987	3.6364	0.1	6.0617e-003
6697	6.0987	3.8182	0.1	4.4059e-003
6698	6.0987	4.	0.1	2.3083e-003
6699	6.0987	4.1818	0.1	-2.5965e-004
6700	6.0987	4.3636	0.1	-3.3458e-003
6701	6.0987	4.5455	0.1	-7.0527e-003
6702	6.0987	4.7273	0.1	-1.1462e-002
6703	6.0987	4.9091	0.1	-1.7096e-002
6704	6.0987	5.0909	0.1	-2.345e-002
6705	6.0987	5.2727	0.1	-3.5834e-002
6706	6.0987	5.4545	0.1	-3.9588e-002
6707	6.0987	5.6364	0.1	-0.13248
6708	6.0987	5.8182	0.1	-0.13732
6709	6.2835	0.18182	0.1	-0.12705
6710	6.2835	0.36364	0.1	-0.12046
6711	6.2835	0.54545	0.1	-3.5792e-002
6712	6.2835	0.72727	0.1	-3.2586e-002
6713	6.2835	0.90909	0.1	-2.1404e-002
6714	6.2835	1.0909	0.1	-1.5694e-002
6715	6.2835	1.2727	0.1	-1.0615e-002
6716	6.2835	1.4545	0.1	-6.6374e-003
6717	6.2835	1.6364	0.1	-3.2881e-003
6718	6.2835	1.8182	0.1	-4.9666e-004
6719	6.2835	2.	0.1	1.8287e-003
6720	6.2835	2.1818	0.1	3.7302e-003
6721	6.2835	2.3636	0.1	5.2323e-003
6722	6.2835	2.5455	0.1	6.3489e-003
6723	6.2835	2.7273	0.1	7.0908e-003
6724	6.2835	2.9091	0.1	7.4615e-003
6725	6.2835	3.0909	0.1	7.4613e-003
6726	6.2835	3.2727	0.1	7.091e-003
6727	6.2835	3.4545	0.1	6.3492e-003
6728	6.2835	3.6364	0.1	5.2327e-003
6729	6.2835	3.8182	0.1	3.7305e-003
6730	6.2835	4.	0.1	1.8292e-003
6731	6.2835	4.1818	0.1	-4.9619e-004
6732	6.2835	4.3636	0.1	-3.2876e-003
6733	6.2835	4.5455	0.1	-6.6369e-003
6734	6.2835	4.7273	0.1	-1.0614e-002
6735	6.2835	4.9091	0.1	-1.5693e-002
6736	6.2835	5.0909	0.1	-2.1403e-002
6737	6.2835	5.2727	0.1	-3.2585e-002
6738	6.2835	5.4545	0.1	-3.5792e-002
6739	6.2835	5.6364	0.1	-0.12046
6740	6.2835	5.8182	0.1	-0.12705
6741	6.4684	0.18182	0.1	-0.11861
6742	6.4684	0.36364	0.1	-0.10943
6743	6.4684	0.54545	0.1	-3.234e-002
6744	6.4684	0.72727	0.1	-2.9623e-002
6745	6.4684	0.90909	0.1	-1.9547e-002
6746	6.4684	1.0909	0.1	-1.4429e-002
6747	6.4684	1.2727	0.1	-9.8609e-003
6748	6.4684	1.4545	0.1	-6.2801e-003
6749	6.4684	1.6364	0.1	-3.2597e-003
6750	6.4684	1.8182	0.1	-7.3884e-004
6751	6.4684	2.	0.1	1.364e-003
6752	6.4684	2.1818	0.1	3.0854e-003
6753	6.4684	2.3636	0.1	4.4466e-003
6754	6.4684	2.5455	0.1	5.4592e-003
6755	6.4684	2.7273	0.1	6.1324e-003
6756	6.4684	2.9091	0.1	6.4689e-003
6757	6.4684	3.0909	0.1	6.4689e-003
6758	6.4684	3.2727	0.1	6.1324e-003
6759	6.4684	3.4545	0.1	5.4595e-003
6760	6.4684	3.6364	0.1	4.4469e-003
6761	6.4684	3.8182	0.1	3.0857e-003
6762	6.4684	4.	0.1	1.3645e-003
6763	6.4684	4.1818	0.1	-7.3831e-004
6764	6.4684	4.3636	0.1	-3.2591e-003
6765	6.4684	4.5455	0.1	-6.2795e-003
6766	6.4684	4.7273	0.1	-9.8603e-003
6767	6.4684	4.9091	0.1	-1.4429e-002
6768	6.4684	5.0909	0.1	-1.9546e-002
6769	6.4684	5.2727	0.1	-2.9622e-002
6770	6.4684	5.4545	0.1	-3.2339e-002
6771	6.4684	5.6364	0.1	-0.10943
6772	6.4684	5.8182	0.1	-0.11861
6773	6.6532	0.18182	0.1	-0.11188
6774	6.6532	0.36364	0.1	-9.9276e-002
6775	6.6532	0.54545	0.1	-2.9189e-002
6776	6.6532	0.72727	0.1	-2.6912e-002
6777	6.6532	0.90909	0.1	-1.7856e-002
6778	6.6532	1.0909	0.1	-1.3284e-002
6779	6.6532	1.2727	0.1	-9.1858e-003
6780	6.6532	1.4545	0.1	-5.9696e-003
6781	6.6532	1.6364	0.1	-3.2511e-003
6782	6.6532	1.8182	0.1	-9.785e-004
6783	6.6532	2.	0.1	9.2016e-004
6784	6.6532	2.1818	0.1	2.477e-003
6785	6.6532	2.3636	0.1	3.7095e-003
6786	6.6532	2.5455	0.1	4.6267e-003
6787	6.6532	2.7273	0.1	5.2373e-003
6788	6.6532	2.9091	0.1	5.5423e-003
6789	6.6532	3.0909	0.1	5.5425e-003
6790	6.6532	3.2727	0.1	5.2372e-003
6791	6.6532	3.4545	0.1	4.6268e-003
6792	6.6532	3.6364	0.1	3.7098e-003
6793	6.6532	3.8182	0.1	2.4772e-003
6794	6.6532	4.	0.1	9.2075e-004
6795	6.6532	4.1818	0.1	-9.7797e-004
6796	6.6532	4.3636	0.1	-3.2505e-003
6797	6.6532	4.5455	0.1	-5.9691e-003
6798	6.6532	4.7273	0.1	-9.1851e-003
6799	6.6532	4.9091	0.1	-1.3284e-002
6800	6.6532	5.0909	0.1	-1.7855e-002
6801	6.6532	5.2727	0.1	-2.6912e-002
6802	6.6532	5.4545	0.1	-2.9188e-002
6803	6.6532	5.6364	0.1	-9.9275e-002
6804	6.6532	5.8182	0.1	-0.11188
6805	6.838	0.18182	0.1	-0.10683
6806	6.838	0.36364	0.1	-8.9931e-002
6807	6.838	0.54545	0.1	-2.6318e-002
6808	6.838	0.72727	0.1	-2.4439e-002
6809	6.838	0.90909	0.1	-1.6326e-002
6810	6.838	1.0909	0.1	-1.2256e-002
6811	6.838	1.2727	0.1	-8.5904e-003
6812	6.838	1.4545	0.1	-5.7097e-003
6813	6.838	1.6364	0.1	-3.2682e-003
6814	6.838	1.8182	0.1	-1.223e-003
6815	6.838	2.	0.1	4.8914e-004
6816	6.838	2.1818	0.1	1.8955e-003
6817	6.838	2.3636	0.1	3.0104e-003
6818	6.838	2.5455	0.1	3.841e-003
6819	6.838	2.7273	0.1	4.3944e-003
6820	6.838	2.9091	0.1	4.6711e-003
6821	6.838	3.0909	0.1	4.6711e-003
6822	6.838	3.2727	0.1	4.3946e-003
6823	6.838	3.4545	0.1	3.8413e-003
6824	6.838	3.6364	0.1	3.0106e-003
6825	6.838	3.8182	0.1	1.8957e-003
6826	6.838	4.	0.1	4.8961e-004
6827	6.838	4.1818	0.1	-1.2224e-003
6828	6.838	4.3636	0.1	-3.2677e-003
6829	6.838	4.5455	0.1	-5.7088e-003
6830	6.838	4.7273	0.1	-8.5896e-003
6831	6.838	4.9091	0.1	-1.2255e-002
6832	6.838	5.0909	0.1	-1.6324e-002
6833	6.838	5.2727	0.1	-2.4438e-002
6834	6.838	5.4545	0.1	-2.6318e-002
6835	6.838	5.6364	0.1	-8.9929e-002
6836	6.838	5.8182	0.1	-0.10683
6837	7.0228	0.18182	0.1	-0.10354
6838	7.0228	0.36364	0.1	-8.1307e-002
6839	7.0228	0.54545	0.1	-2.3694e-002
6840	7.0228	0.72727	0.1	-2.2175e-002
6841	7.0228	0.90909	0.1	-1.4934e-002
6842	7.0228	1.0909	0.1	-1.1327e-002
6843	7.0228	1.2727	0.1	-8.0614e-003
6844	7.0228	1.4545	0.1	-5.489e-003
6845	7.0228	1.6364	0.1	-3.3015e-003
6846	7.0228	1.8182	0.1	-1.4645e-003
6847	7.0228	2.	0.1	7.7461e-005
6848	7.0228	2.1818	0.1	1.3468e-003
6849	7.0228	2.3636	0.1	2.3549e-003
6850	7.0228	2.5455	0.1	3.1069e-003
6851	7.0228	2.7273	0.1	3.6087e-003
6852	7.0228	2.9091	0.1	3.8598e-003
6853	7.0228	3.0909	0.1	3.8598e-003
6854	7.0228	3.2727	0.1	3.6086e-003
6855	7.0228	3.4545	0.1	3.1071e-003
6856	7.0228	3.6364	0.1	2.3552e-003
6857	7.0228	3.8182	0.1	1.3471e-003
6858	7.0228	4.	0.1	7.7754e-005
6859	7.0228	4.1818	0.1	-1.4639e-003
6860	7.0228	4.3636	0.1	-3.3014e-003
6861	7.0228	4.5455	0.1	-5.4881e-003
6862	7.0228	4.7273	0.1	-8.0606e-003
6863	7.0228	4.9091	0.1	-1.1327e-002
6864	7.0228	5.0909	0.1	-1.4932e-002
6865	7.0228	5.2727	0.1	-2.2174e-002
6866	7.0228	5.4545	0.1	-2.3694e-002
6867	7.0228	5.6364	0.1	-8.1306e-002
6868	7.0228	5.8182	0.1	-0.10354
6869	7.2076	0.18182	0.1	-0.10228
6870	7.2076	0.36364	0.1	-7.3342e-002
6871	7.2076	0.54545	0.1	-2.1299e-002
6872	7.2076	0.72727	0.1	-2.0108e-002
6873	7.2076	0.90909	0.1	-1.3676e-002
6874	7.2076	1.0909	0.1	-1.0498e-002
6875	7.2076	1.2727	0.1	-7.6e-003
6876	7.2076	1.4545	0.1	-5.3108e-003
6877	7.2076	1.6364	0.1	-3.3569e-003
6878	7.2076	1.8182	0.1	-1.7094e-003
6879	7.2076	2.	0.1	-3.2238e-004
6880	7.2076	2.1818	0.1	8.2259e-004
6881	7.2076	2.3636	0.1	1.7345e-003
6882	7.2076	2.5455	0.1	2.4157e-003
6883	7.2076	2.7273	0.1	2.8707e-003
6884	7.2076	2.9091	0.1	3.0987e-003
6885	7.2076	3.0909	0.1	3.0988e-003
6886	7.2076	3.2727	0.1	2.8708e-003
6887	7.2076	3.4545	0.1	2.4159e-003
6888	7.2076	3.6364	0.1	1.7347e-003
6889	7.2076	3.8182	0.1	8.2318e-004
6890	7.2076	4.	0.1	-3.2197e-004
6891	7.2076	4.1818	0.1	-1.7089e-003
6892	7.2076	4.3636	0.1	-3.3562e-003
6893	7.2076	4.5455	0.1	-5.3099e-003
6894	7.2076	4.7273	0.1	-7.5994e-003
6895	7.2076	4.9091	0.1	-1.0497e-002
6896	7.2076	5.0909	0.1	-1.3675e-002
6897	7.2076	5.2727	0.1	-2.0108e-002
6898	7.2076	5.4545	0.1	-2.1298e-002
6899	7.2076	5.6364	0.1	-7.334e-002
6900	7.2076	5.8182	0.1	-0.10228
6901	7.3924	0.18182	0.1	-0.10362
6902	7.3924	0.36364	0.1	-6.5963e-002
6903	7.3924	0.54545	0.1	-1.9106e-002
6904	7.3924	0.72727	0.1	-1.8216e-002
6905	7.3924	0.90909	0.1	-1.2536e-002
6906	7.3924	1.0909	0.1	-9.7535e-003
6907	7.3924	1.2727	0.1	-7.1958e-003
6908	7.3924	1.4545	0.1	-5.1674e-003
6909	7.3924	1.6364	0.1	-3.426e-003
6910	7.3924	1.8182	0.1	-1.9518e-003
6911	7.3924	2.	0.1	-7.0487e-004
6912	7.3924	2.1818	0.1	3.2821e-004
6913	7.3924	2.3636	0.1	1.1532e-003
6914	7.3924	2.5455	0.1	1.771e-003
6915	7.3924	2.7273	0.1	2.1847e-003
6916	7.3924	2.9091	0.1	2.3919e-003
6917	7.3924	3.0909	0.1	2.392e-003
6918	7.3924	3.2727	0.1	2.1847e-003
6919	7.3924	3.4545	0.1	1.7711e-003
6920	7.3924	3.6364	0.1	1.1536e-003
6921	7.3924	3.8182	0.1	3.2862e-004
6922	7.3924	4.	0.1	-7.0446e-004
6923	7.3924	4.1818	0.1	-1.9512e-003
6924	7.3924	4.3636	0.1	-3.4257e-003
6925	7.3924	4.5455	0.1	-5.1665e-003
6926	7.3924	4.7273	0.1	-7.195e-003
6927	7.3924	4.9091	0.1	-9.7527e-003
6928	7.3924	5.0909	0.1	-1.2535e-002
6929	7.3924	5.2727	0.1	-1.8215e-002
6930	7.3924	5.4545	0.1	-1.9105e-002
6931	7.3924	5.6364	0.1	-6.5962e-002
6932	7.3924	5.8182	0.1	-0.10361
6933	7.5772	0.18182	0.1	-0.10881
6934	7.5772	0.36364	0.1	-5.9113e-002
6935	7.5772	0.54545	0.1	-1.7096e-002
6936	7.5772	0.72727	0.1	-1.6485e-002
6937	7.5772	0.90909	0.1	-1.1505e-002
6938	7.5772	1.0909	0.1	-9.0896e-003
6939	7.5772	1.2727	0.1	-6.8461e-003
6940	7.5772	1.4545	0.1	-5.0569e-003
6941	7.5772	1.6364	0.1	-3.5106e-003
6942	7.5772	1.8182	0.1	-2.1927e-003
6943	7.5772	2.	0.1	-1.0725e-003
6944	7.5772	2.1818	0.1	-1.3934e-004
6945	7.5772	2.3636	0.1	6.0854e-004
6946	7.5772	2.5455	0.1	1.1701e-003
6947	7.5772	2.7273	0.1	1.5469e-003
6948	7.5772	2.9091	0.1	1.7364e-003
6949	7.5772	3.0909	0.1	1.7363e-003
6950	7.5772	3.2727	0.1	1.547e-003
6951	7.5772	3.4545	0.1	1.1703e-003
6952	7.5772	3.6364	0.1	6.0883e-004
6953	7.5772	3.8182	0.1	-1.3898e-004
6954	7.5772	4.	0.1	-1.072e-003
6955	7.5772	4.1818	0.1	-2.1923e-003
6956	7.5772	4.3636	0.1	-3.5099e-003
6957	7.5772	4.5455	0.1	-5.0564e-003
6958	7.5772	4.7273	0.1	-6.8455e-003
6959	7.5772	4.9091	0.1	-9.089e-003
6960	7.5772	5.0909	0.1	-1.1504e-002
6961	7.5772	5.2727	0.1	-1.6484e-002
6962	7.5772	5.4545	0.1	-1.7095e-002
6963	7.5772	5.6364	0.1	-5.9111e-002
6964	7.5772	5.8182	0.1	-0.10881
6965	7.762	0.18182	0.1	-0.12081
6966	7.762	0.36364	0.1	-5.2741e-002
6967	7.762	0.54545	0.1	-1.5262e-002
6968	7.762	0.72727	0.1	-1.491e-002
6969	7.762	0.90909	0.1	-1.0585e-002
6970	7.762	1.0909	0.1	-8.5105e-003
6971	7.762	1.2727	0.1	-6.5572e-003
6972	7.762	1.4545	0.1	-4.9872e-003
6973	7.762	1.6364	0.1	-3.618e-003
6974	7.762	1.8182	0.1	-2.4415e-003
6975	7.762	2.	0.1	-1.4343e-003
6976	7.762	2.1818	0.1	-5.8987e-004
6977	7.762	2.3636	0.1	8.9966e-005
6978	7.762	2.5455	0.1	6.0288e-004
6979	7.762	2.7273	0.1	9.4785e-004
6980	7.762	2.9091	0.1	1.1215e-003
6981	7.762	3.0909	0.1	1.1216e-003
6982	7.762	3.2727	0.1	9.4827e-004
6983	7.762	3.4545	0.1	6.0306e-004
6984	7.762	3.6364	0.1	9.0559e-005
6985	7.762	3.8182	0.1	-5.8952e-004
6986	7.762	4.	0.1	-1.4337e-003
6987	7.762	4.1818	0.1	-2.441e-003
6988	7.762	4.3636	0.1	-3.6174e-003
6989	7.762	4.5455	0.1	-4.9866e-003
6990	7.762	4.7273	0.1	-6.5566e-003
6991	7.762	4.9091	0.1	-8.5097e-003
6992	7.762	5.0909	0.1	-1.0584e-002
6993	7.762	5.2727	0.1	-1.4909e-002
6994	7.762	5.4545	0.1	-1.5261e-002
6995	7.762	5.6364	0.1	-5.274e-002
6996	7.762	5.8182	0.1	-0.12081
6997	7.9468	0.18182	0.1	-0.14784
6998	7.9468	0.36364	0.1	-4.6792e-002
6999	7.9468	0.54545	0.1	-1.3584e-002
7000	7.9468	0.72727	0.1	-1.3475e-002
7001	7.9468	0.90909	0.1	-9.7656e-003
7002	7.9468	1.0909	0.1	-8.0076e-003
7003	7.9468	1.2727	0.1	-6.3225e-003
7004	7.9468	1.4545	0.1	-4.9538e-003
7005	7.9468	1.6364	0.1	-3.7446e-003
7006	7.9468	1.8182	0.1	-2.695e-003
7007	7.9468	2.	0.1	-1.7874e-003
7008	7.9468	2.1818	0.1	-1.0207e-003
7009	7.9468	2.3636	0.1	-3.9882e-004
7010	7.9468	2.5455	0.1	7.2024e-005
7011	7.9468	2.7273	0.1	3.8997e-004
7012	7.9468	2.9091	0.1	5.5058e-004
7013	7.9468	3.0909	0.1	5.5064e-004
7014	7.9468	3.2727	0.1	3.9009e-004
7015	7.9468	3.4545	0.1	7.2081e-005
7016	7.9468	3.6364	0.1	-3.9864e-004
7017	7.9468	3.8182	0.1	-1.0202e-003
7018	7.9468	4.	0.1	-1.787e-003
7019	7.9468	4.1818	0.1	-2.6945e-003
7020	7.9468	4.3636	0.1	-3.7441e-003
7021	7.9468	4.5455	0.1	-4.953e-003
7022	7.9468	4.7273	0.1	-6.3221e-003
7023	7.9468	4.9091	0.1	-8.0068e-003
7024	7.9468	5.0909	0.1	-9.7642e-003
7025	7.9468	5.2727	0.1	-1.3474e-002
7026	7.9468	5.4545	0.1	-1.3584e-002
7027	7.9468	5.6364	0.1	-4.679e-002
7028	7.9468	5.8182	0.1	-0.14783
7029	8.1316	0.18182	0.1	-0.22109
7030	8.1316	0.36364	0.1	-4.1225e-002
7031	8.1316	0.54545	0.1	-1.2059e-002
7032	8.1316	0.72727	0.1	-1.218e-002
7033	8.1316	0.90909	0.1	-9.05e-003
7034	8.1316	1.0909	0.1	-7.5871e-003
7035	8.1316	1.2727	0.1	-6.1512e-003
7036	8.1316	1.4545	0.1	-4.9657e-003
7037	8.1316	1.6364	0.1	-3.901e-003
7038	8.1316	1.8182	0.1	-2.9632e-003
7039	8.1316	2.	0.1	-2.1425e-003
7040	8.1316	2.1818	0.1	-1.442e-003
7041	8.1316	2.3636	0.1	-8.692e-004
7042	8.1316	2.5455	0.1	-4.3261e-004
7043	8.1316	2.7273	0.1	-1.3641e-004
7044	8.1316	2.9091	0.1	1.3405e-005
7045	8.1316	3.0909	0.1	1.3346e-005
7046	8.1316	3.2727	0.1	-1.3635e-004
7047	8.1316	3.4545	0.1	-4.3243e-004
7048	8.1316	3.6364	0.1	-8.689e-004
7049	8.1316	3.8182	0.1	-1.4414e-003
7050	8.1316	4.	0.1	-2.142e-003
7051	8.1316	4.1818	0.1	-2.9627e-003
7052	8.1316	4.3636	0.1	-3.9003e-003
7053	8.1316	4.5455	0.1	-4.9648e-003
7054	8.1316	4.7273	0.1	-6.1502e-003
7055	8.1316	4.9091	0.1	-7.5867e-003
7056	8.1316	5.0909	0.1	-9.0488e-003
7057	8.1316	5.2727	0.1	-1.2179e-002
7058	8.1316	5.4545	0.1	-1.2059e-002
7059	8.1316	5.6364	0.1	-4.1224e-002
7060	8.1316	5.8182	0.1	-0.22108
7061	8.3165	0.18182	0.1	-0.50524
7062	8.3165	0.36364	0.1	-3.5991e-002
7063	8.3165	0.54545	0.1	-1.067e-002
7064	8.3165	0.72727	0.1	-1.1011e-002
7065	8.3165	0.90909	0.1	-8.4299e-003
7066	8.3165	1.0909	0.1	-7.2432e-003
7067	8.3165	1.2727	0.1	-6.037e-003
7068	8.3165	1.4545	0.1	-5.0186e-003
7069	8.3165	1.6364	0.1	-4.0831e-003
7070	8.3165	1.8182	0.1	-3.2432e-003
7071	8.3165	2.	0.1	-2.4962e-003
7072	8.3165	2.1818	0.1	-1.85e-003
7073	8.3165	2.3636	0.1	-1.3166e-003
7074	8.3165	2.5455	0.1	-9.0698e-004
7075	8.3165	2.7273	0.1	-6.2715e-004
7076	8.3165	2.9091	0.1	-4.8542e-004
7077	8.3165	3.0909	0.1	-4.8518e-004
7078	8.3165	3.2727	0.1	-6.2709e-004
7079	8.3165	3.4545	0.1	-9.0662e-004
7080	8.3165	3.6364	0.1	-1.3165e-003
7081	8.3165	3.8182	0.1	-1.8499e-003
7082	8.3165	4.	0.1	-2.4962e-003
7083	8.3165	4.1818	0.1	-3.2428e-003
7084	8.3165	4.3636	0.1	-4.0824e-003
7085	8.3165	4.5455	0.1	-5.0179e-003
7086	8.3165	4.7273	0.1	-6.0364e-003
7087	8.3165	4.9091	0.1	-7.2427e-003
7088	8.3165	5.0909	0.1	-8.4287e-003
7089	8.3165	5.2727	0.1	-1.101e-002
7090	8.3165	5.4545	0.1	-1.067e-002
7091	8.3165	5.6364	0.1	-3.599e-002
7092	8.3165	5.8182	0.1	-0.50522
7093	8.5013	0.18182	0.1	-1.2801
7094	8.5013	0.36364	0.1	-3.106e-002
7095	8.5013	0.54545	0.1	-9.4166e-003
7096	8.5013	0.72727	0.1	-9.9692e-003
7097	8.5013	0.90909	0.1	-7.9113e-003
7098	8.5013	1.0909	0.1	-6.9832e-003
7099	8.5013	1.2727	0.1	-5.9901e-003
7100	8.5013	1.4545	0.1	-5.1231e-003
7101	8.5013	1.6364	0.1	-4.3019e-003
7102	8.5013	1.8182	0.1	-3.5457e-003
7103	8.5013	2.	0.1	-2.8594e-003
7104	8.5013	2.1818	0.1	-2.2556e-003
7105	8.5013	2.3636	0.1	-1.7507e-003
7106	8.5013	2.5455	0.1	-1.3595e-003
7107	8.5013	2.7273	0.1	-1.0909e-003
7108	8.5013	2.9091	0.1	-9.5414e-004
7109	8.5013	3.0909	0.1	-9.5396e-004
7110	8.5013	3.2727	0.1	-1.0908e-003
7111	8.5013	3.4545	0.1	-1.3594e-003
7112	8.5013	3.6364	0.1	-1.7501e-003
7113	8.5013	3.8182	0.1	-2.2552e-003
7114	8.5013	4.	0.1	-2.8588e-003
7115	8.5013	4.1818	0.1	-3.5452e-003
7116	8.5013	4.3636	0.1	-4.3015e-003
7117	8.5013	4.5455	0.1	-5.1224e-003
7118	8.5013	4.7273	0.1	-5.9893e-003
7119	8.5013	4.9091	0.1	-6.9822e-003
7120	8.5013	5.0909	0.1	-7.9098e-003
7121	8.5013	5.2727	0.1	-9.9678e-003
7122	8.5013	5.4545	0.1	-9.4162e-003
7123	8.5013	5.6364	0.1	-3.1059e-002
7124	8.5013	5.8182	0.1	-1.28
7125	8.6861	0.18182	0.1	-2.2455
7126	8.6861	0.36364	0.1	-2.6412e-002
7127	8.6861	0.54545	0.1	-8.2858e-003
7128	8.6861	0.72727	0.1	-9.0443e-003
7129	8.6861	0.90909	0.1	-7.4873e-003
7130	8.6861	1.0909	0.1	-6.802e-003
7131	8.6861	1.2727	0.1	-6.0071e-003
7132	8.6861	1.4545	0.1	-5.2772e-003
7133	8.6861	1.6364	0.1	-4.556e-003
7134	8.6861	1.8182	0.1	-3.8689e-003
7135	8.6861	2.	0.1	-3.2292e-003
7136	8.6861	2.1818	0.1	-2.655e-003
7137	8.6861	2.3636	0.1	-2.1679e-003
7138	8.6861	2.5455	0.1	-1.7862e-003
7139	8.6861	2.7273	0.1	-1.522e-003
7140	8.6861	2.9091	0.1	-1.3869e-003
7141	8.6861	3.0909	0.1	-1.3869e-003
7142	8.6861	3.2727	0.1	-1.5218e-003
7143	8.6861	3.4545	0.1	-1.786e-003
7144	8.6861	3.6364	0.1	-2.1676e-003
7145	8.6861	3.8182	0.1	-2.6548e-003
7146	8.6861	4.	0.1	-3.2289e-003
7147	8.6861	4.1818	0.1	-3.8686e-003
7148	8.6861	4.3636	0.1	-4.5551e-003
7149	8.6861	4.5455	0.1	-5.2767e-003
7150	8.6861	4.7273	0.1	-6.0063e-003
7151	8.6861	4.9091	0.1	-6.8014e-003
7152	8.6861	5.0909	0.1	-7.486e-003
7153	8.6861	5.2727	0.1	-9.0433e-003
7154	8.6861	5.4545	0.1	-8.2853e-003
7155	8.6861	5.6364	0.1	-2.6411e-002
7156	8.6861	5.8182	0.1	-2.2455
7157	8.8709	0.18182	0.1	-3.2188
7158	8.8709	0.36364	0.1	-2.2127e-002
7159	8.8709	0.54545	0.1	-7.2779e-003
7160	8.8709	0.72727	0.1	-8.2367e-003
7161	8.8709	0.90909	0.1	-7.1616e-003
7162	8.8709	1.0909	0.1	-6.706e-003
7163	8.8709	1.2727	0.1	-6.0962e-003
7164	8.8709	1.4545	0.1	-5.4904e-003
7165	8.8709	1.6364	0.1	-4.8547e-003
7166	8.8709	1.8182	0.1	-4.2228e-003
7167	8.8709	2.	0.1	-3.6146e-003
7168	8.8709	2.1818	0.1	-3.0559e-003
7169	8.8709	2.3636	0.1	-2.5734e-003
7170	8.8709	2.5455	0.1	-2.1909e-003
7171	8.8709	2.7273	0.1	-1.924e-003
7172	8.8709	2.9091	0.1	-1.7868e-003
7173	8.8709	3.0909	0.1	-1.7867e-003
7174	8.8709	3.2727	0.1	-1.9239e-003
7175	8.8709	3.4545	0.1	-2.1908e-003
7176	8.8709	3.6364	0.1	-2.5731e-003
7177	8.8709	3.8182	0.1	-3.0555e-003
7178	8.8709	4.	0.1	-3.6143e-003
7179	8.8709	4.1818	0.1	-4.222e-003
7180	8.8709	4.3636	0.1	-4.8542e-003
7181	8.8709	4.5455	0.1	-5.4896e-003
7182	8.8709	4.7273	0.1	-6.0955e-003
7183	8.8709	4.9091	0.1	-6.7053e-003
7184	8.8709	5.0909	0.1	-7.1605e-003
7185	8.8709	5.2727	0.1	-8.2355e-003
7186	8.8709	5.4545	0.1	-7.2773e-003
7187	8.8709	5.6364	0.1	-2.2125e-002
7188	8.8709	5.8182	0.1	-3.2188
7189	9.0557	0.18182	0.1	-4.1711
7190	9.0557	0.36364	0.1	-1.9383e-002
7191	9.0557	0.54545	0.1	-6.4114e-003
7192	9.0557	0.72727	0.1	-7.5613e-003
7193	9.0557	0.90909	0.1	-6.952e-003
7194	9.0557	1.0909	0.1	-6.7154e-003
7195	9.0557	1.2727	0.1	-6.2812e-003
7196	9.0557	1.4545	0.1	-5.789e-003
7197	9.0557	1.6364	0.1	-5.226e-003
7198	9.0557	1.8182	0.1	-4.633e-003
7199	9.0557	2.	0.1	-4.0405e-003
7200	9.0557	2.1818	0.1	-3.481e-003
7201	9.0557	2.3636	0.1	-2.9885e-003
7202	9.0557	2.5455	0.1	-2.5921e-003
7203	9.0557	2.7273	0.1	-2.3135e-003
7204	9.0557	2.9091	0.1	-2.1697e-003
7205	9.0557	3.0909	0.1	-2.1693e-003
7206	9.0557	3.2727	0.1	-2.3136e-003
7207	9.0557	3.4545	0.1	-2.5919e-003
7208	9.0557	3.6364	0.1	-2.9881e-003
7209	9.0557	3.8182	0.1	-3.4806e-003
7210	9.0557	4.	0.1	-4.0402e-003
7211	9.0557	4.1818	0.1	-4.6326e-003
7212	9.0557	4.3636	0.1	-5.2257e-003
7213	9.0557	4.5455	0.1	-5.788e-003
7214	9.0557	4.7273	0.1	-6.2806e-003
7215	9.0557	4.9091	0.1	-6.7148e-003
7216	9.0557	5.0909	0.1	-6.9509e-003
7217	9.0557	5.2727	0.1	-7.56e-003
7218	9.0557	5.4545	0.1	-6.4113e-003
7219	9.0557	5.6364	0.1	-1.9382e-002
7220	9.0557	5.8182	0.1	-4.1711
7221	9.2405	0.18182	0.1	-5.1001
7222	9.2405	0.36364	0.1	-0.913
7223	9.2405	0.54545	0.1	-5.7116e-003
7224	9.2405	0.72727	0.1	-7.0152e-003
7225	9.2405	0.90909	0.1	-6.8541e-003
7226	9.2405	1.0909	0.1	-6.8317e-003
7227	9.2405	1.2727	0.1	-6.5701e-003
7228	9.2405	1.4545	0.1	-6.185e-003
7229	9.2405	1.6364	0.1	-5.6826e-003
7230	9.2405	1.8182	0.1	-5.1135e-003
7231	9.2405	2.	0.1	-4.5161e-003
7232	9.2405	2.1818	0.1	-3.9348e-003
7233	9.2405	2.3636	0.1	-3.4125e-003
7234	9.2405	2.5455	0.1	-2.9864e-003
7235	9.2405	2.7273	0.1	-2.6839e-003
7236	9.2405	2.9091	0.1	-2.5269e-003
7237	9.2405	3.0909	0.1	-2.5268e-003
7238	9.2405	3.2727	0.1	-2.6837e-003
7239	9.2405	3.4545	0.1	-2.9861e-003
7240	9.2405	3.6364	0.1	-3.4124e-003
7241	9.2405	3.8182	0.1	-3.9345e-003
7242	9.2405	4.	0.1	-4.5158e-003
7243	9.2405	4.1818	0.1	-5.1126e-003
7244	9.2405	4.3636	0.1	-5.6822e-003
7245	9.2405	4.5455	0.1	-6.1839e-003
7246	9.2405	4.7273	0.1	-6.5694e-003
7247	9.2405	4.9091	0.1	-6.8307e-003
7248	9.2405	5.0909	0.1	-6.8527e-003
7249	9.2405	5.2727	0.1	-7.0141e-003
7250	9.2405	5.4545	0.1	-5.711e-003
7251	9.2405	5.6364	0.1	-0.91297
7252	9.2405	5.8182	0.1	-5.1001
7253	9.4253	0.18182	0.1	-6.0101
7254	9.4253	0.36364	0.1	-2.5976
7255	9.4253	0.54545	0.1	-8.3651e-003
7256	9.4253	0.72727	0.1	-6.6404e-003
7257	9.4253	0.90909	0.1	-6.8818e-003
7258	9.4253	1.0909	0.1	-7.0854e-003
7259	9.4253	1.2727	0.1	-7.0106e-003
7260	9.4253	1.4545	0.1	-6.7336e-003
7261	9.4253	1.6364	0.1	-6.2825e-003
7262	9.4253	1.8182	0.1	-5.7148e-003
7263	9.4253	2.	0.1	-5.0862e-003
7264	9.4253	2.1818	0.1	-4.4535e-003
7265	9.4253	2.3636	0.1	-3.872e-003
7266	9.4253	2.5455	0.1	-3.3923e-003
7267	9.4253	2.7273	0.1	-3.0485e-003
7268	9.4253	2.9091	0.1	-2.8692e-003
7269	9.4253	3.0909	0.1	-2.8694e-003
7270	9.4253	3.2727	0.1	-3.0484e-003
7271	9.4253	3.4545	0.1	-3.3917e-003
7272	9.4253	3.6364	0.1	-3.8724e-003
7273	9.4253	3.8182	0.1	-4.4533e-003
7274	9.4253	4.	0.1	-5.0856e-003
7275	9.4253	4.1818	0.1	-5.7142e-003
7276	9.4253	4.3636	0.1	-6.2818e-003
7277	9.4253	4.5455	0.1	-6.733e-003
7278	9.4253	4.7273	0.1	-7.0099e-003
7279	9.4253	4.9091	0.1	-7.0844e-003
7280	9.4253	5.0909	0.1	-6.8807e-003
7281	9.4253	5.2727	0.1	-6.6391e-003
7282	9.4253	5.4545	0.1	-8.364e-003
7283	9.4253	5.6364	0.1	-2.5976
7284	9.4253	5.8182	0.1	-6.0101
7285	9.6101	0.18182	0.1	-6.9077
7286	9.6101	0.36364	0.1	-4.2957
7287	9.6101	0.54545	0.1	-2.3356
7288	9.6101	0.72727	0.1	-0.21721
7289	9.6101	0.90909	0.1	-7.0465e-003
7290	9.6101	1.0909	0.1	-7.5626e-003
7291	9.6101	1.2727	0.1	-7.7291e-003
7292	9.6101	1.4545	0.1	-7.5709e-003
7293	9.6101	1.6364	0.1	-7.1481e-003
7294	9.6101	1.8182	0.1	-6.5411e-003
7295	9.6101	2.	0.1	-5.8287e-003
7296	9.6101	2.1818	0.1	-5.091e-003
7297	9.6101	2.3636	0.1	-4.402e-003
7298	9.6101	2.5455	0.1	-3.8263e-003
7299	9.6101	2.7273	0.1	-3.4118e-003
7300	9.6101	2.9091	0.1	-3.1956e-003
7301	9.6101	3.0909	0.1	-3.1956e-003
7302	9.6101	3.2727	0.1	-3.412e-003
7303	9.6101	3.4545	0.1	-3.826e-003
7304	9.6101	3.6364	0.1	-4.4016e-003
7305	9.6101	3.8182	0.1	-5.0904e-003
7306	9.6101	4.	0.1	-5.8286e-003
7307	9.6101	4.1818	0.1	-6.5401e-003
7308	9.6101	4.3636	0.1	-7.1478e-003
7309	9.6101	4.5455	0.1	-7.5705e-003
7310	9.6101	4.7273	0.1	-7.7285e-003
7311	9.6101	4.9091	0.1	-7.5625e-003
7312	9.6101	5.0909	0.1	-7.0447e-003
7313	9.6101	5.2727	0.1	-0.21721
7314	9.6101	5.4545	0.1	-2.3356
7315	9.6101	5.6364	0.1	-4.2957
7316	9.6101	5.8182	0.1	-6.9077
7317	9.7949	0.18182	0.1	-7.8015
7318	9.7949	0.36364	0.1	-6.0295
7319	9.7949	0.54545	0.1	-4.8304
7320	9.7949	0.72727	0.1	-3.3759
7321	9.7949	0.90909	0.1	-1.6112
7322	9.7949	1.0909	0.1	-1.1525e-002
7323	9.7949	1.2727	0.1	-9.7221e-003
7324	9.7949	1.4545	0.1	-9.3599e-003
7325	9.7949	1.6364	0.1	-8.751e-003
7326	9.7949	1.8182	0.1	-7.9233e-003
7327	9.7949	2.	0.1	-6.9721e-003
7328	9.7949	2.1818	0.1	-5.9961e-003
7329	9.7949	2.3636	0.1	-5.0913e-003
7330	9.7949	2.5455	0.1	-4.3374e-003
7331	9.7949	2.7273	0.1	-3.7976e-003
7332	9.7949	2.9091	0.1	-3.5161e-003
7333	9.7949	3.0909	0.1	-3.5156e-003
7334	9.7949	3.2727	0.1	-3.7975e-003
7335	9.7949	3.4545	0.1	-4.3376e-003
7336	9.7949	3.6364	0.1	-5.091e-003
7337	9.7949	3.8182	0.1	-5.9962e-003
7338	9.7949	4.	0.1	-6.9719e-003
7339	9.7949	4.1818	0.1	-7.9232e-003
7340	9.7949	4.3636	0.1	-8.7501e-003
7341	9.7949	4.5455	0.1	-9.3592e-003
7342	9.7949	4.7273	0.1	-9.7216e-003
7343	9.7949	4.9091	0.1	-1.1525e-002
7344	9.7949	5.0909	0.1	-1.6112
7345	9.7949	5.2727	0.1	-3.3759
7346	9.7949	5.4545	0.1	-4.8304
7347	9.7949	5.6364	0.1	-6.0294
7348	9.7949	5.8182	0.1	-7.8015
7349	9.9797	0.18182	0.1	-8.7013
7350	9.9797	0.36364	0.1	-7.825
7351	9.9797	0.54545	0.1	-7.4228
7352	9.9797	0.72727	0.1	-6.6521
7353	9.9797	0.90909	0.1	-5.4527
7354	9.9797	1.0909	0.1	-3.8381
7355	9.9797	1.2727	0.1	-1.8592
7356	9.9797	1.4545	0.1	-4.085e-002
7357	9.9797	1.6364	0.1	-1.4879e-002
7358	9.9797	1.8182	0.1	-1.1483e-002
7359	9.9797	2.	0.1	-9.3667e-003
7360	9.9797	2.1818	0.1	-7.6433e-003
7361	9.9797	2.3636	0.1	-6.2027e-003
7362	9.9797	2.5455	0.1	-5.0655e-003
7363	9.9797	2.7273	0.1	-4.2737e-003
7364	9.9797	2.9091	0.1	-3.8675e-003
7365	9.9797	3.0909	0.1	-3.8672e-003
7366	9.9797	3.2727	0.1	-4.2741e-003
7367	9.9797	3.4545	0.1	-5.0654e-003
7368	9.9797	3.6364	0.1	-6.2024e-003
7369	9.9797	3.8182	0.1	-7.6428e-003
7370	9.9797	4.	0.1	-9.3664e-003
7371	9.9797	4.1818	0.1	-1.1483e-002
7372	9.9797	4.3636	0.1	-1.4879e-002
7373	9.9797	4.5455	0.1	-4.0849e-002
7374	9.9797	4.7273	0.1	-1.8591
7375	9.9797	4.9091	0.1	-3.8381
7376	9.9797	5.0909	0.1	-5.4527
7377	9.9797	5.2727	0.1	-6.6521
7378	9.9797	5.4545	0.1	-7.4228
7379	9.9797	5.6364	0.1	-7.825
7380	9.9797	5.8182	0.1	-8.7013
7381	10.165	0.18182	0.1	-9.6184
7382	10.165	0.36364	0.1	-9.7118
7383	10.165	0.54545	0.1	-10.156
7384	10.165	0.72727	0.1	-10.098
7385	10.165	0.90909	0.1	-9.4717
7386	10.165	1.0909	0.1	-8.2905
7387	10.165	1.2727	0.1	-6.6097
7388	10.165	1.4545	0.1	-4.5201
7389	10.165	1.6364	0.1	-2.1441
7390	10.165	1.8182	0.1	-8.2763e-002
7391	10.165	2.	0.1	-1.9348e-002
7392	10.165	2.1818	0.1	-1.2068e-002
7393	10.165	2.3636	0.1	-8.5221e-003
7394	10.165	2.5455	0.1	-6.2888e-003
7395	10.165	2.7273	0.1	-4.8915e-003
7396	10.165	2.9091	0.1	-4.2075e-003
7397	10.165	3.0909	0.1	-4.2075e-003
7398	10.165	3.2727	0.1	-4.8911e-003
7399	10.165	3.4545	0.1	-6.2886e-003
7400	10.165	3.6364	0.1	-8.5218e-003
7401	10.165	3.8182	0.1	-1.2068e-002
7402	10.165	4.	0.1	-1.9348e-002
7403	10.165	4.1818	0.1	-8.2761e-002
7404	10.165	4.3636	0.1	-2.1441
7405	10.165	4.5455	0.1	-4.5201
7406	10.165	4.7273	0.1	-6.6097
7407	10.165	4.9091	0.1	-8.2905
7408	10.165	5.0909	0.1	-9.4717
7409	10.165	5.2727	0.1	-10.098
7410	10.165	5.4545	0.1	-10.156
7411	10.165	5.6364	0.1	-9.7118
7412	10.165	5.8182	0.1	-9.6184
7413	10.349	0.18182	0.1	-10.566
7414	10.349	0.36364	0.1	-11.723
7415	10.349	0.54545	0.1	-13.079
7416	10.349	0.72727	0.1	-13.773
7417	10.349	0.90909	0.1	-13.736
7418	10.349	1.0909	0.1	-12.98
7419	10.349	1.2727	0.1	-11.57
7420	10.349	1.4545	0.1	-9.6127
7421	10.349	1.6364	0.1	-7.2465
7422	10.349	1.8182	0.1	-4.6361
7423	10.349	2.	0.1	-1.9669
7424	10.349	2.1818	0.1	-7.6117e-002
7425	10.349	2.3636	0.1	-1.8185e-002
7426	10.349	2.5455	0.1	-9.6261e-003
7427	10.349	2.7273	0.1	-6.0931e-003
7428	10.349	2.9091	0.1	-4.6201e-003
7429	10.349	3.0909	0.1	-4.6202e-003
7430	10.349	3.2727	0.1	-6.093e-003
7431	10.349	3.4545	0.1	-9.626e-003
7432	10.349	3.6364	0.1	-1.8185e-002
7433	10.349	3.8182	0.1	-7.6116e-002
7434	10.349	4.	0.1	-1.9669
7435	10.349	4.1818	0.1	-4.6361
7436	10.349	4.3636	0.1	-7.2464
7437	10.349	4.5455	0.1	-9.6127
7438	10.349	4.7273	0.1	-11.57
7439	10.349	4.9091	0.1	-12.98
7440	10.349	5.0909	0.1	-13.736
7441	10.349	5.2727	0.1	-13.773
7442	10.349	5.4545	0.1	-13.079
7443	10.349	5.6364	0.1	-11.723
7444	10.349	5.8182	0.1	-10.566
7445	10.534	0.18182	0.1	-11.559
7446	10.534	0.36364	0.1	-13.898
7447	10.534	0.54545	0.1	-16.247
7448	10.534	0.72727	0.1	-17.746
7449	10.534	0.90909	0.1	-18.32
7450	10.534	1.0909	0.1	-17.986
7451	10.534	1.2727	0.1	-16.818
7452	10.534	1.4545	0.1	-14.943
7453	10.534	1.6364	0.1	-12.527
7454	10.534	1.8182	0.1	-9.7621
7455	10.534	2.	0.1	-6.8612
7456	10.534	2.1818	0.1	-4.0394
7457	10.534	2.3636	0.1	-1.5106
7458	10.534	2.5455	0.1	-5.5623e-002
7459	10.534	2.7273	0.1	-1.1473e-002
7460	10.534	2.9091	0.1	-5.4882e-003
7461	10.534	3.0909	0.1	-5.4881e-003
7462	10.534	3.2727	0.1	-1.1473e-002
7463	10.534	3.4545	0.1	-5.5623e-002
7464	10.534	3.6364	0.1	-1.5106
7465	10.534	3.8182	0.1	-4.0394
7466	10.534	4.	0.1	-6.8612
7467	10.534	4.1818	0.1	-9.762
7468	10.534	4.3636	0.1	-12.526
7469	10.534	4.5455	0.1	-14.943
7470	10.534	4.7273	0.1	-16.818
7471	10.534	4.9091	0.1	-17.986
7472	10.534	5.0909	0.1	-18.32
7473	10.534	5.2727	0.1	-17.746
7474	10.534	5.4545	0.1	-16.247
7475	10.534	5.6364	0.1	-13.898
7476	10.534	5.8182	0.1	-11.559
7477	10.719	0.18182	0.1	-12.614
7478	10.719	0.36364	0.1	-16.279
7479	10.719	0.54545	0.1	-19.723
7480	10.719	0.72727	0.1	-22.092
7481	10.719	0.90909	0.1	-23.311
7482	10.719	1.0909	0.1	-23.397
7483	10.719	1.2727	0.1	-22.442
7484	10.719	1.4545	0.1	-20.596
7485	10.719	1.6364	0.1	-18.055
7486	10.719	1.8182	0.1	-15.052
7487	10.719	2.	0.1	-11.838
7488	10.719	2.1818	0.1	-8.6697
7489	10.719	2.3636	0.1	-5.7917
7490	10.719	2.5455	0.1	-3.4211
7491	10.719	2.7273	0.1	-1.7328
7492	10.719	2.9091	0.1	-0.84904
7493	10.719	3.0909	0.1	-0.84904
7494	10.719	3.2727	0.1	-1.7328
7495	10.719	3.4545	0.1	-3.421
7496	10.719	3.6364	0.1	-5.7917
7497	10.719	3.8182	0.1	-8.6696
7498	10.719	4.	0.1	-11.838
7499	10.719	4.1818	0.1	-15.052
7500	10.719	4.3636	0.1	-18.055
7501	10.719	4.5455	0.1	-20.596
7502	10.719	4.7273	0.1	-22.442
7503	10.719	4.9091	0.1	-23.397
7504	10.719	5.0909	0.1	-23.311
7505	10.719	5.2727	0.1	-22.092
7506	10.719	5.4545	0.1	-19.723
7507	10.719	5.6364	0.1	-16.279
7508	10.719	5.8182	0.1	-12.614
7509	10.904	0.18182	0.1	-13.751
7510	10.904	0.36364	0.1	-18.913
7511	10.904	0.54545	0.1	-23.577
7512	10.904	0.72727	0.1	-26.898
7513	10.904	0.90909	0.1	-28.802
7514	10.904	1.0909	0.1	-29.313
7515	10.904	1.2727	0.1	-28.542
7516	10.904	1.4545	0.1	-26.666
7517	10.904	1.6364	0.1	-23.92
7518	10.904	1.8182	0.1	-20.581
7519	10.904	2.	0.1	-16.949
7520	10.904	2.1818	0.1	-13.332
7521	10.904	2.3636	0.1	-10.025
7522	10.904	2.5455	0.1	-7.2868
7523	10.904	2.7273	0.1	-5.3322
7524	10.904	2.9091	0.1	-4.3134
7525	10.904	3.0909	0.1	-4.3134
7526	10.904	3.2727	0.1	-5.3322
7527	10.904	3.4545	0.1	-7.2868
7528	10.904	3.6364	0.1	-10.025
7529	10.904	3.8182	0.1	-13.332
7530	10.904	4.	0.1	-16.949
7531	10.904	4.1818	0.1	-20.581
7532	10.904	4.3636	0.1	-23.92
7533	10.904	4.5455	0.1	-26.666
7534	10.904	4.7273	0.1	-28.542
7535	10.904	4.9091	0.1	-29.313
7536	10.904	5.0909	0.1	-28.802
7537	10.904	5.2727	0.1	-26.898
7538	10.904	5.4545	0.1	-23.576
7539	10.904	5.6364	0.1	-18.913
7540	10.904	5.8182	0.1	-13.751
7541	11.089	0.18182	0.1	-14.993
7542	11.089	0.36364	0.1	-21.855
7543	11.089	0.54545	0.1	-27.884
7544	11.089	0.72727	0.1	-32.256
7545	11.089	0.90909	0.1	-34.9
7546	11.089	1.0909	0.1	-35.848
7547	11.089	1.2727	0.1	-35.233
7548	11.089	1.4545	0.1	-33.265
7549	11.089	1.6364	0.1	-30.224
7550	11.089	1.8182	0.1	-26.439
7551	11.089	2.	0.1	-22.27
7552	11.089	2.1818	0.1	-18.086
7553	11.089	2.3636	0.1	-14.239
7554	11.089	2.5455	0.1	-11.044
7555	11.089	2.7273	0.1	-8.7583
7556	11.089	2.9091	0.1	-7.5667
7557	11.089	3.0909	0.1	-7.5667
7558	11.089	3.2727	0.1	-8.7583
7559	11.089	3.4545	0.1	-11.044
7560	11.089	3.6364	0.1	-14.239
7561	11.089	3.8182	0.1	-18.086
7562	11.089	4.	0.1	-22.27
7563	11.089	4.1818	0.1	-26.439
7564	11.089	4.3636	0.1	-30.224
7565	11.089	4.5455	0.1	-33.265
7566	11.089	4.7273	0.1	-35.233
7567	11.089	4.9091	0.1	-35.848
7568	11.089	5.0909	0.1	-34.9
7569	11.089	5.2727	0.1	-32.256
7570	11.089	5.4545	0.1	-27.884
7571	11.089	5.6364	0.1	-21.855
7572	11.089	5.8182	0.1	-14.993
7573	11.273	0.18182	0.1	-16.364
7574	11.273	0.36364	0.1	-25.164
7575	11.273	0.54545	0.1	-32.73
7576	11.273	0.72727	0.1	-38.271
7577	11.273	0.90909	0.1	-41.722
7578	11.273	1.0909	0.1	-43.128
7579	11.273	1.2727	0.1	-42.644
7580	11.273	1.4545	0.1	-40.52
7581	11.273	1.6364	0.1	-37.087
7582	11.273	1.8182	0.1	-32.735
7583	11.273	2.	0.1	-27.894
7584	11.273	2.1818	0.1	-23.005
7585	11.273	2.3636	0.1	-18.492
7586	11.273	2.5455	0.1	-14.735
7587	11.273	2.7273	0.1	-12.043
7588	11.273	2.9091	0.1	-10.638
7589	11.273	3.0909	0.1	-10.638
7590	11.273	3.2727	0.1	-12.043
7591	11.273	3.4545	0.1	-14.735
7592	11.273	3.6364	0.1	-18.492
7593	11.273	3.8182	0.1	-23.005
7594	11.273	4.	0.1	-27.894
7595	11.273	4.1818	0.1	-32.735
7596	11.273	4.3636	0.1	-37.087
7597	11.273	4.5455	0.1	-40.52
7598	11.273	4.7273	0.1	-42.644
7599	11.273	4.9091	0.1	-43.128
7600	11.273	5.0909	0.1	-41.722
7601	11.273	5.2727	0.1	-38.271
7602	11.273	5.4545	0.1	-32.73
7603	11.273	5.6364	0.1	-25.164
7604	11.273	5.8182	0.1	-16.364
7605	11.458	0.18182	0.1	-17.894
7606	11.458	0.36364	0.1	-28.902
7607	11.458	0.54545	0.1	-38.203
7608	11.458	0.72727	0.1	-45.054
7609	11.458	0.90909	0.1	-49.399
7610	11.458	1.0909	0.1	-51.294
7611	11.458	1.2727	0.1	-50.925
7612	11.458	1.4545	0.1	-48.581
7613	11.458	1.6364	0.1	-44.653
7614	11.458	1.8182	0.1	-39.6
7615	11.458	2.	0.1	-33.936
7616	11.458	2.1818	0.1	-28.188
7617	11.458	2.3636	0.1	-22.865
7618	11.458	2.5455	0.1	-18.423
7619	11.458	2.7273	0.1	-15.238
7620	11.458	2.9091	0.1	-13.574
7621	11.458	3.0909	0.1	-13.574
7622	11.458	3.2727	0.1	-15.238
7623	11.458	3.4545	0.1	-18.423
7624	11.458	3.6364	0.1	-22.864
7625	11.458	3.8182	0.1	-28.188
7626	11.458	4.	0.1	-33.936
7627	11.458	4.1818	0.1	-39.6
7628	11.458	4.3636	0.1	-44.652
7629	11.458	4.5455	0.1	-48.581
7630	11.458	4.7273	0.1	-50.924
7631	11.458	4.9091	0.1	-51.294
7632	11.458	5.0909	0.1	-49.399
7633	11.458	5.2727	0.1	-45.054
7634	11.458	5.4545	0.1	-38.203
7635	11.458	5.6364	0.1	-28.902
7636	11.458	5.8182	0.1	-17.894
7637	11.643	0.18182	0.1	-19.614
7638	11.643	0.36364	0.1	-33.133
7639	11.643	0.54545	0.1	-44.397
7640	11.643	0.72727	0.1	-52.722
7641	11.643	0.90909	0.1	-58.068
7642	11.643	1.0909	0.1	-60.507
7643	11.643	1.2727	0.1	-60.248
7644	11.643	1.4545	0.1	-57.627
7645	11.643	1.6364	0.1	-53.096
7646	11.643	1.8182	0.1	-47.198
7647	11.643	2.	0.1	-40.541
7648	11.643	2.1818	0.1	-33.757
7649	11.643	2.3636	0.1	-27.46
7650	11.643	2.5455	0.1	-22.197
7651	11.643	2.7273	0.1	-18.419
7652	11.643	2.9091	0.1	-16.445
7653	11.643	3.0909	0.1	-16.445
7654	11.643	3.2727	0.1	-18.419
7655	11.643	3.4545	0.1	-22.197
7656	11.643	3.6364	0.1	-27.459
7657	11.643	3.8182	0.1	-33.757
7658	11.643	4.	0.1	-40.541
7659	11.643	4.1818	0.1	-47.197
7660	11.643	4.3636	0.1	-53.096
7661	11.643	4.5455	0.1	-57.627
7662	11.643	4.7273	0.1	-60.248
7663	11.643	4.9091	0.1	-60.507
7664	11.643	5.0909	0.1	-58.068
7665	11.643	5.2727	0.1	-52.722
7666	11.643	5.4545	0.1	-44.397
7667	11.643	5.6364	0.1	-33.133
7668	11.643	5.8182	0.1	-19.614
7669	11.828	0.18182	0.1	-21.558
7670	11.828	0.36364	0.1	-37.921
7671	11.828	0.54545	0.1	-51.399
7672	11.828	0.72727	0.1	-61.394
7673	11.828	0.90909	0.1	-67.882
7674	11.828	1.0909	0.1	-70.945
7675	11.828	1.2727	0.1	-70.817
7676	11.828	1.4545	0.1	-67.874
7677	11.828	1.6364	0.1	-62.634
7678	11.828	1.8182	0.1	-55.734
7679	11.828	2.	0.1	-47.896
7680	11.828	2.1818	0.1	-39.879
7681	11.828	2.3636	0.1	-32.42
7682	11.828	2.5455	0.1	-26.181
7683	11.828	2.7273	0.1	-21.699
7684	11.828	2.9091	0.1	-19.358
7685	11.828	3.0909	0.1	-19.358
7686	11.828	3.2727	0.1	-21.699
7687	11.828	3.4545	0.1	-26.181
7688	11.828	3.6364	0.1	-32.42
7689	11.828	3.8182	0.1	-39.879
7690	11.828	4.	0.1	-47.896
7691	11.828	4.1818	0.1	-55.734
7692	11.828	4.3636	0.1	-62.634
7693	11.828	4.5455	0.1	-67.874
7694	11.828	4.7273	0.1	-70.817
7695	11.828	4.9091	0.1	-70.945
7696	11.828	5.0909	0.1	-67.882
7697	11.828	5.2727	0.1	-61.394
7698	11.828	5.4545	0.1	-51.399
7699	11.828	5.6364	0.1	-37.921
7700	11.828	5.8182	0.1	-21.558
7701	12.013	0.18182	0.1	-23.762
7702	12.013	0.36364	0.1	-43.319
7703	12.013	0.54545	0.1	-59.292
7704	12.013	0.72727	0.1	-71.186
7705	12.013	0.90909	0.1	-79.
7706	12.013	1.0909	0.1	-82.817
7707	12.013	1.2727	0.1	-82.878
7708	12.013	1.4545	0.1	-79.594
7709	12.013	1.6364	0.1	-73.548
7710	12.013	1.8182	0.1	-65.48
7711	12.013	2.	0.1	-56.251
7712	12.013	2.1818	0.1	-46.775
7713	12.013	2.3636	0.1	-37.944
7714	12.013	2.5455	0.1	-30.553
7715	12.013	2.7273	0.1	-25.245
7716	12.013	2.9091	0.1	-22.472
7717	12.013	3.0909	0.1	-22.472
7718	12.013	3.2727	0.1	-25.245
7719	12.013	3.4545	0.1	-30.553
7720	12.013	3.6364	0.1	-37.944
7721	12.013	3.8182	0.1	-46.775
7722	12.013	4.	0.1	-56.251
7723	12.013	4.1818	0.1	-65.48
7724	12.013	4.3636	0.1	-73.548
7725	12.013	4.5455	0.1	-79.594
7726	12.013	4.7273	0.1	-82.878
7727	12.013	4.9091	0.1	-82.817
7728	12.013	5.0909	0.1	-79.
7729	12.013	5.2727	0.1	-71.186
7730	12.013	5.4545	0.1	-59.292
7731	12.013	5.6364	0.1	-43.319
7732	12.013	5.8182	0.1	-23.762
7733	12.197	0.18182	0.1	-26.259
7734	12.197	0.36364	0.1	-49.363
7735	12.197	0.54545	0.1	-68.135
7736	12.197	0.72727	0.1	-82.204
7737	12.197	0.90909	0.1	-91.592
7738	12.197	1.0909	0.1	-96.362
7739	12.197	1.2727	0.1	-96.738
7740	12.197	1.4545	0.1	-93.139
7741	12.197	1.6364	0.1	-86.205
7742	12.197	1.8182	0.1	-76.796
7743	12.197	2.	0.1	-65.939
7744	12.197	2.1818	0.1	-54.746
7745	12.197	2.3636	0.1	-44.301
7746	12.197	2.5455	0.1	-35.564
7747	12.197	2.7273	0.1	-29.297
7748	12.197	2.9091	0.1	-26.027
7749	12.197	3.0909	0.1	-26.027
7750	12.197	3.2727	0.1	-29.297
7751	12.197	3.4545	0.1	-35.564
7752	12.197	3.6364	0.1	-44.301
7753	12.197	3.8182	0.1	-54.746
7754	12.197	4.	0.1	-65.939
7755	12.197	4.1818	0.1	-76.796
7756	12.197	4.3636	0.1	-86.205
7757	12.197	4.5455	0.1	-93.139
7758	12.197	4.7273	0.1	-96.738
7759	12.197	4.9091	0.1	-96.362
7760	12.197	5.0909	0.1	-91.592
7761	12.197	5.2727	0.1	-82.204
7762	12.197	5.4545	0.1	-68.134
7763	12.197	5.6364	0.1	-49.363
7764	12.197	5.8182	0.1	-26.259
7765	12.382	0.18182	0.1	-29.079
7766	12.382	0.36364	0.1	-56.059
7767	12.382	0.54545	0.1	-77.948
7768	12.382	0.72727	0.1	-94.531
7769	12.382	0.90909	0.1	-105.84
7770	12.382	1.0909	0.1	-111.87
7771	12.382	1.2727	0.1	-112.8
7772	12.382	1.4545	0.1	-108.98
7773	12.382	1.6364	0.1	-101.11
7774	12.382	1.8182	0.1	-90.179
7775	12.382	2.	0.1	-77.418
7776	12.382	2.1818	0.1	-64.202
7777	12.382	2.3636	0.1	-51.867
7778	12.382	2.5455	0.1	-41.573
7779	12.382	2.7273	0.1	-34.211
7780	12.382	2.9091	0.1	-30.378
7781	12.382	3.0909	0.1	-30.378
7782	12.382	3.2727	0.1	-34.211
7783	12.382	3.4545	0.1	-41.573
7784	12.382	3.6364	0.1	-51.867
7785	12.382	3.8182	0.1	-64.202
7786	12.382	4.	0.1	-77.418
7787	12.382	4.1818	0.1	-90.179
7788	12.382	4.3636	0.1	-101.11
7789	12.382	4.5455	0.1	-108.98
7790	12.382	4.7273	0.1	-112.8
7791	12.382	4.9091	0.1	-111.87
7792	12.382	5.0909	0.1	-105.84
7793	12.382	5.2727	0.1	-94.531
7794	12.382	5.4545	0.1	-77.948
7795	12.382	5.6364	0.1	-56.059
7796	12.382	5.8182	0.1	-29.079
7797	12.567	0.18182	0.1	-32.237
7798	12.567	0.36364	0.1	-63.355
7799	12.567	0.54545	0.1	-88.696
7800	12.567	0.72727	0.1	-108.22
7801	12.567	0.90909	0.1	-121.94
7802	12.567	1.0909	0.1	-129.73
7803	12.567	1.2727	0.1	-131.6
7804	12.567	1.4545	0.1	-127.8
7805	12.567	1.6364	0.1	-119.
7806	12.567	1.8182	0.1	-106.33
7807	12.567	2.	0.1	-91.329
7808	12.567	2.1818	0.1	-75.714
7809	12.567	2.3636	0.1	-61.164
7810	12.567	2.5455	0.1	-49.085
7811	12.567	2.7273	0.1	-40.502
7812	12.567	2.9091	0.1	-36.057
7813	12.567	3.0909	0.1	-36.057
7814	12.567	3.2727	0.1	-40.502
7815	12.567	3.4545	0.1	-49.085
7816	12.567	3.6364	0.1	-61.164
7817	12.567	3.8182	0.1	-75.714
7818	12.567	4.	0.1	-91.329
7819	12.567	4.1818	0.1	-106.33
7820	12.567	4.3636	0.1	-119.
7821	12.567	4.5455	0.1	-127.8
7822	12.567	4.7273	0.1	-131.6
7823	12.567	4.9091	0.1	-129.73
7824	12.567	5.0909	0.1	-121.94
7825	12.567	5.2727	0.1	-108.22
7826	12.567	5.4545	0.1	-88.696
7827	12.567	5.6364	0.1	-63.355
7828	12.567	5.8182	0.1	-32.237
7829	12.752	0.18182	0.1	-35.723
7830	12.752	0.36364	0.1	-71.12
7831	12.752	0.54545	0.1	-100.25
7832	12.752	0.72727	0.1	-123.27
7833	12.752	0.90909	0.1	-140.13
7834	12.752	1.0909	0.1	-150.46
7835	12.752	1.2727	0.1	-153.94
7836	12.752	1.4545	0.1	-150.57
7837	12.752	1.6364	0.1	-140.92
7838	12.752	1.8182	0.1	-126.29
7839	12.752	2.	0.1	-108.59
7840	12.752	2.1818	0.1	-90.077
7841	12.752	2.3636	0.1	-72.914
7842	12.752	2.5455	0.1	-58.818
7843	12.752	2.7273	0.1	-48.923
7844	12.752	2.9091	0.1	-43.846
7845	12.752	3.0909	0.1	-43.846
7846	12.752	3.2727	0.1	-48.923
7847	12.752	3.4545	0.1	-58.818
7848	12.752	3.6364	0.1	-72.914
7849	12.752	3.8182	0.1	-90.077
7850	12.752	4.	0.1	-108.59
7851	12.752	4.1818	0.1	-126.29
7852	12.752	4.3636	0.1	-140.92
7853	12.752	4.5455	0.1	-150.57
7854	12.752	4.7273	0.1	-153.94
7855	12.752	4.9091	0.1	-150.46
7856	12.752	5.0909	0.1	-140.13
7857	12.752	5.2727	0.1	-123.27
7858	12.752	5.4545	0.1	-100.25
7859	12.752	5.6364	0.1	-71.12
7860	12.752	5.8182	0.1	-35.723
7861	12.937	0.18182	0.1	-39.486
7862	12.937	0.36364	0.1	-79.102
7863	12.937	0.54545	0.1	-112.37
7864	12.937	0.72727	0.1	-139.64
7865	12.937	0.90909	0.1	-160.7
7866	12.937	1.0909	0.1	-174.79
7867	12.937	1.2727	0.1	-181.
7868	12.937	1.4545	0.1	-178.81
7869	12.937	1.6364	0.1	-168.52
7870	12.937	1.8182	0.1	-151.58
7871	12.937	2.	0.1	-130.53
7872	12.937	2.1818	0.1	-108.41
7873	12.937	2.3636	0.1	-88.121
7874	12.937	2.5455	0.1	-71.783
7875	12.937	2.7273	0.1	-60.565
7876	12.937	2.9091	0.1	-54.91
7877	12.937	3.0909	0.1	-54.91
7878	12.937	3.2727	0.1	-60.565
7879	12.937	3.4545	0.1	-71.783
7880	12.937	3.6364	0.1	-88.121
7881	12.937	3.8182	0.1	-108.41
7882	12.937	4.	0.1	-130.52
7883	12.937	4.1818	0.1	-151.58
7884	12.937	4.3636	0.1	-168.52
7885	12.937	4.5455	0.1	-178.81
7886	12.937	4.7273	0.1	-181.
7887	12.937	4.9091	0.1	-174.79
7888	12.937	5.0909	0.1	-160.7
7889	12.937	5.2727	0.1	-139.64
7890	12.937	5.4545	0.1	-112.37
7891	12.937	5.6364	0.1	-79.102
7892	12.937	5.8182	0.1	-39.486
7893	13.122	0.18182	0.1	-43.409
7894	13.122	0.36364	0.1	-86.895
7895	13.122	0.54545	0.1	-124.66
7896	13.122	0.72727	0.1	-157.23
7897	13.122	0.90909	0.1	-184.12
7898	13.122	1.0909	0.1	-203.87
7899	13.122	1.2727	0.1	-214.63
7900	13.122	1.4545	0.1	-214.89
7901	13.122	1.6364	0.1	-204.36
7902	13.122	1.8182	0.1	-184.63
7903	13.122	2.	0.1	-159.14
7904	13.122	2.1818	0.1	-132.3
7905	13.122	2.3636	0.1	-108.18
7906	13.122	2.5455	0.1	-89.409
7907	13.122	2.7273	0.1	-77.017
7908	13.122	2.9091	0.1	-70.963
7909	13.122	3.0909	0.1	-70.963
7910	13.122	3.2727	0.1	-77.017
7911	13.122	3.4545	0.1	-89.409
7912	13.122	3.6364	0.1	-108.18
7913	13.122	3.8182	0.1	-132.3
7914	13.122	4.	0.1	-159.14
7915	13.122	4.1818	0.1	-184.63
7916	13.122	4.3636	0.1	-204.36
7917	13.122	4.5455	0.1	-214.89
7918	13.122	4.7273	0.1	-214.63
7919	13.122	4.9091	0.1	-203.87
7920	13.122	5.0909	0.1	-184.12
7921	13.122	5.2727	0.1	-157.23
7922	13.122	5.4545	0.1	-124.66
7923	13.122	5.6364	0.1	-86.895
7924	13.122	5.8182	0.1	-43.409
7925	13.306	0.18182	0.1	-47.289
7926	13.306	0.36364	0.1	-93.911
7927	13.306	0.54545	0.1	-136.6
7928	13.306	0.72727	0.1	-175.96
7929	13.306	0.90909	0.1	-211.1
7930	13.306	1.0909	0.1	-239.49
7931	13.306	1.2727	0.1	-257.74
7932	13.306	1.4545	0.1	-262.64
7933	13.306	1.6364	0.1	-252.64
7934	13.306	1.8182	0.1	-229.27
7935	13.306	2.	0.1	-197.46
7936	13.306	2.1818	0.1	-164.02
7937	13.306	2.3636	0.1	-135.
7938	13.306	2.5455	0.1	-113.7
7939	13.306	2.7273	0.1	-100.56
7940	13.306	2.9091	0.1	-94.501
7941	13.306	3.0909	0.1	-94.501
7942	13.306	3.2727	0.1	-100.56
7943	13.306	3.4545	0.1	-113.7
7944	13.306	3.6364	0.1	-135.
7945	13.306	3.8182	0.1	-164.02
7946	13.306	4.	0.1	-197.46
7947	13.306	4.1818	0.1	-229.27
7948	13.306	4.3636	0.1	-252.64
7949	13.306	4.5455	0.1	-262.64
7950	13.306	4.7273	0.1	-257.74
7951	13.306	4.9091	0.1	-239.49
7952	13.306	5.0909	0.1	-211.1
7953	13.306	5.2727	0.1	-175.96
7954	13.306	5.4545	0.1	-136.6
7955	13.306	5.6364	0.1	-93.911
7956	13.306	5.8182	0.1	-47.289
7957	13.491	0.18182	0.1	-50.805
7958	13.491	0.36364	0.1	-99.4
7959	13.491	0.54545	0.1	-147.61
7960	13.491	0.72727	0.1	-195.96
7961	13.491	0.90909	0.1	-242.9
7962	13.491	1.0909	0.1	-284.44
7963	13.491	1.2727	0.1	-314.94
7964	13.491	1.4545	0.1	-328.3
7965	13.491	1.6364	0.1	-320.36
7966	13.491	1.8182	0.1	-291.92
7967	13.491	2.	0.1	-250.37
7968	13.491	2.1818	0.1	-206.94
7969	13.491	2.3636	0.1	-171.26
7970	13.491	2.5455	0.1	-147.48
7971	13.491	2.7273	0.1	-134.44
7972	13.491	2.9091	0.1	-129.03
7973	13.491	3.0909	0.1	-129.03
7974	13.491	3.2727	0.1	-134.44
7975	13.491	3.4545	0.1	-147.48
7976	13.491	3.6364	0.1	-171.26
7977	13.491	3.8182	0.1	-206.94
7978	13.491	4.	0.1	-250.37
7979	13.491	4.1818	0.1	-291.92
7980	13.491	4.3636	0.1	-320.36
7981	13.491	4.5455	0.1	-328.3
7982	13.491	4.7273	0.1	-314.94
7983	13.491	4.9091	0.1	-284.44
7984	13.491	5.0909	0.1	-242.9
7985	13.491	5.2727	0.1	-195.96
7986	13.491	5.4545	0.1	-147.61
7987	13.491	5.6364	0.1	-99.4
7988	13.491	5.8182	0.1	-50.805
7989	13.676	0.18182	0.1	-53.511
7990	13.676	0.36364	0.1	-102.58
7991	13.676	0.54545	0.1	-157.39
7992	13.676	0.72727	0.1	-217.98
7993	13.676	0.90909	0.1	-281.78
7994	13.676	1.0909	0.1	-343.05
7995	13.676	1.2727	0.1	-393.35
7996	13.676	1.4545	0.1	-422.07
7997	13.676	1.6364	0.1	-419.4
7998	13.676	1.8182	0.1	-383.69
7999	13.676	2.	0.1	-325.66
8000	13.676	2.1818	0.1	-265.72
8001	13.676	2.3636	0.1	-220.64
8002	13.676	2.5455	0.1	-194.67
8003	13.676	2.7273	0.1	-183.02
8004	13.676	2.9091	0.1	-179.07
8005	13.676	3.0909	0.1	-179.07
8006	13.676	3.2727	0.1	-183.02
8007	13.676	3.4545	0.1	-194.67
8008	13.676	3.6364	0.1	-220.64
8009	13.676	3.8182	0.1	-265.72
8010	13.676	4.	0.1	-325.66
8011	13.676	4.1818	0.1	-383.69
8012	13.676	4.3636	0.1	-419.4
8013	13.676	4.5455	0.1	-422.07
8014	13.676	4.7273	0.1	-393.35
8015	13.676	4.9091	0.1	-343.05
8016	13.676	5.0909	0.1	-281.78
8017	13.676	5.2727	0.1	-217.98
8018	13.676	5.4545	0.1	-157.39
8019	13.676	5.6364	0.1	-102.58
8020	13.676	5.8182	0.1	-53.511
8021	13.861	0.18182	0.1	-54.923
8022	13.861	0.36364	0.1	-103.14
8023	13.861	0.54545	0.1	-166.87
8024	13.861	0.72727	0.1	-244.5
8025	13.861	0.90909	0.1	-331.87
8026	13.861	1.0909	0.1	-421.78
8027	13.861	1.2727	0.1	-503.25
8028	13.861	1.4545	0.1	-560.18
8029	13.861	1.6364	0.1	-572.27
8030	13.861	1.8182	0.1	-525.67
8031	13.861	2.	0.1	-438.16
8032	13.861	2.1818	0.1	-348.7
8033	13.861	2.3636	0.1	-288.36
8034	13.861	2.5455	0.1	-260.67
8035	13.861	2.7273	0.1	-251.49
8036	13.861	2.9091	0.1	-249.27
8037	13.861	3.0909	0.1	-249.27
8038	13.861	3.2727	0.1	-251.49
8039	13.861	3.4545	0.1	-260.67
8040	13.861	3.6364	0.1	-288.36
8041	13.861	3.8182	0.1	-348.7
8042	13.861	4.	0.1	-438.16
8043	13.861	4.1818	0.1	-525.67
8044	13.861	4.3636	0.1	-572.27
8045	13.861	4.5455	0.1	-560.18
8046	13.861	4.7273	0.1	-503.25
8047	13.861	4.9091	0.1	-421.78
8048	13.861	5.0909	0.1	-331.87
8049	13.861	5.2727	0.1	-244.5
8050	13.861	5.4545	0.1	-166.87
8051	13.861	5.6364	0.1	-103.14
8052	13.861	5.8182	0.1	-54.923
8053	14.046	0.18182	0.1	-54.561
8054	14.046	0.36364	0.1	-102.45
8055	14.046	0.54545	0.1	-180.27
8056	14.046	0.72727	0.1	-281.65
8057	14.046	0.90909	0.1	-400.18
8058	14.046	1.0909	0.1	-528.95
8059	14.046	1.2727	0.1	-657.22
8060	14.046	1.4545	0.1	-766.5
8061	14.046	1.6364	0.1	-815.3
8062	14.046	1.8182	0.1	-759.65
8063	14.046	2.	0.1	-614.64
8064	14.046	2.1818	0.1	-464.23
8065	14.046	2.3636	0.1	-381.98
8066	14.046	2.5455	0.1	-352.8
8067	14.046	2.7273	0.1	-343.63
8068	14.046	2.9091	0.1	-341.27
8069	14.046	3.0909	0.1	-341.27
8070	14.046	3.2727	0.1	-343.63
8071	14.046	3.4545	0.1	-352.8
8072	14.046	3.6364	0.1	-381.98
8073	14.046	3.8182	0.1	-464.23
8074	14.046	4.	0.1	-614.64
8075	14.046	4.1818	0.1	-759.64
8076	14.046	4.3636	0.1	-815.3
8077	14.046	4.5455	0.1	-766.5
8078	14.046	4.7273	0.1	-657.22
8079	14.046	4.9091	0.1	-528.95
8080	14.046	5.0909	0.1	-400.18
8081	14.046	5.2727	0.1	-281.65
8082	14.046	5.4545	0.1	-180.27
8083	14.046	5.6364	0.1	-102.45
8084	14.046	5.8182	0.1	-54.561
8085	14.23	0.18182	0.1	-54.758
8086	14.23	0.36364	0.1	-109.81
8087	14.23	0.54545	0.1	-212.38
8088	14.23	0.72727	0.1	-345.14
8089	14.23	0.90909	0.1	-500.9
8090	14.23	1.0909	0.1	-676.96
8091	14.23	1.2727	0.1	-871.95
8092	14.23	1.4545	0.1	-1068.7
8093	14.23	1.6364	0.1	-1234.2
8094	14.23	1.8182	0.1	-1240.3
8095	14.23	2.	0.1	-933.19
8096	14.23	2.1818	0.1	-644.71
8097	14.23	2.3636	0.1	-514.66
8098	14.23	2.5455	0.1	-475.03
8099	14.23	2.7273	0.1	-454.79
8100	14.23	2.9091	0.1	-446.71
8101	14.23	3.0909	0.1	-446.71
8102	14.23	3.2727	0.1	-454.79
8103	14.23	3.4545	0.1	-475.03
8104	14.23	3.6364	0.1	-514.66
8105	14.23	3.8182	0.1	-644.71
8106	14.23	4.	0.1	-933.19
8107	14.23	4.1818	0.1	-1240.3
8108	14.23	4.3636	0.1	-1234.2
8109	14.23	4.5455	0.1	-1068.7
8110	14.23	4.7273	0.1	-871.95
8111	14.23	4.9091	0.1	-676.96
8112	14.23	5.0909	0.1	-500.9
8113	14.23	5.2727	0.1	-345.14
8114	14.23	5.4545	0.1	-212.38
8115	14.23	5.6364	0.1	-109.81
8116	14.23	5.8182	0.1	-54.758
8117	14.415	0.18182	0.1	-74.202
8118	14.415	0.36364	0.1	-170.87
8119	14.415	0.54545	0.1	-316.41
8120	14.415	0.72727	0.1	-489.93
8121	14.415	0.90909	0.1	-691.3
8122	14.415	1.0909	0.1	-926.72
8123	14.415	1.2727	0.1	-1209.7
8124	14.415	1.4545	0.1	-1555.
8125	14.415	1.6364	0.1	-2028.9
8126	14.415	1.8182	0.1	-2381.1
8127	14.415	2.	0.1	-1774.
8128	14.415	2.1818	0.1	-897.89
8129	14.415	2.3636	0.1	-707.1
8130	14.415	2.5455	0.1	-603.9
8131	14.415	2.7273	0.1	-560.
8132	14.415	2.9091	0.1	-538.97
8133	14.415	3.0909	0.1	-538.97
8134	14.415	3.2727	0.1	-560.
8135	14.415	3.4545	0.1	-603.9
8136	14.415	3.6364	0.1	-707.1
8137	14.415	3.8182	0.1	-897.89
8138	14.415	4.	0.1	-1774.
8139	14.415	4.1818	0.1	-2381.1
8140	14.415	4.3636	0.1	-2028.9
8141	14.415	4.5455	0.1	-1555.
8142	14.415	4.7273	0.1	-1209.7
8143	14.415	4.9091	0.1	-926.72
8144	14.415	5.0909	0.1	-691.3
8145	14.415	5.2727	0.1	-489.93
8146	14.415	5.4545	0.1	-316.41
8147	14.415	5.6364	0.1	-170.87
8148	14.415	5.8182	0.1	-74.202
8149	14.767	3.8182	0.1	-777.49
8150	14.767	3.6364	0.1	-716.96
8151	14.767	3.4545	0.1	-617.45
8152	14.767	3.2727	0.1	-562.8
8153	14.767	3.0909	0.1	-537.21
8154	14.767	2.9091	0.1	-537.21
8155	14.767	2.7273	0.1	-562.8
8156	14.767	2.5455	0.1	-617.45
8157	14.767	2.3636	0.1	-716.96
8158	14.767	2.1818	0.1	-777.49
8159	14.6	3.8182	0.1	-1043.7
8160	14.6	3.6364	0.1	-800.33
8161	14.6	3.4545	0.1	-672.94
8162	14.6	3.2727	0.1	-605.95
8163	14.6	3.0909	0.1	-576.03
8164	14.6	2.9091	0.1	-576.03
8165	14.6	2.7273	0.1	-605.95
8166	14.6	2.5455	0.1	-672.94
8167	14.6	2.3636	0.1	-800.33
8168	14.6	2.1818	0.1	-1043.7
8169	14.767	5.8182	0.1	-34.59
8170	14.767	5.6364	0.1	-86.038
8171	14.767	5.4545	0.1	-146.73
8172	14.767	5.2727	0.1	-217.81
8173	14.767	5.0909	0.1	-302.29
8174	14.767	4.9091	0.1	-405.83
8175	14.767	4.7273	0.1	-538.6
8176	14.767	4.5455	0.1	-732.28
8177	14.767	4.3636	0.1	-921.19
8178	14.767	4.1818	0.1	-2096.5
8179	14.767	4.	0.1	-1323.3
8180	14.6	4.	0.1	-2624.5
8181	14.6	4.1818	0.1	-3143.7
8182	14.6	4.3636	0.1	-1609.
8183	14.6	4.5455	0.1	-1235.4
8184	14.6	4.7273	0.1	-919.79
8185	14.6	4.9091	0.1	-692.18
8186	14.6	5.0909	0.1	-512.48
8187	14.6	5.2727	0.1	-364.79
8188	14.6	5.4545	0.1	-241.09
8189	14.6	5.6364	0.1	-137.48
8190	14.6	5.8182	0.1	-52.679
8191	14.767	0.18182	0.1	-34.59
8192	14.767	0.36364	0.1	-86.038
8193	14.767	0.54545	0.1	-146.73
8194	14.767	0.72727	0.1	-217.81
8195	14.767	0.90909	0.1	-302.29
8196	14.767	1.0909	0.1	-405.83
8197	14.767	1.2727	0.1	-538.6
8198	14.767	1.4545	0.1	-732.28
8199	14.767	1.6364	0.1	-921.19
8200	14.767	1.8182	0.1	-2096.5
8201	14.767	2.	0.1	-1323.3
8202	14.6	2.	0.1	-2624.5
8203	14.6	1.8182	0.1	-3143.7
8204	14.6	1.6364	0.1	-1609.
8205	14.6	1.4545	0.1	-1235.4
8206	14.6	1.2727	0.1	-919.79
8207	14.6	1.0909	0.1	-692.18
8208	14.6	0.90909	0.1	-512.48
8209	14.6	0.72727	0.1	-364.79
8210	14.6	0.54545	0.1	-241.09
8211	14.6	0.36364	0.1	-137.48
8212	14.6	0.18182	0.1	-52.679
8213	14.767	6.	0.1	-5.4362
8214	14.951	6.	0.1	-9.6771
8215	15.136	6.	0.1	-11.966
8216	15.321	6.	0.1	-13.451
8217	15.505	6.	0.1	-13.611
8218	15.69	6.	0.1	-12.868
8219	15.875	6.	0.1	-11.74
8220	16.059	6.	0.1	-10.484
8221	16.244	6.	0.1	-9.2655
8222	16.429	6.	0.1	-8.1684
8223	16.613	6.	0.1	-7.2302
8224	16.798	6.	0.1	-6.4601
8225	16.983	6.	0.1	-5.8524
8226	17.167	6.	0.1	-5.394
8227	17.352	6.	0.1	-5.0692
8228	17.537	6.	0.1	-4.8618
8229	17.721	6.	0.1	-4.7566
8230	17.906	6.	0.1	-4.7398
8231	18.091	6.	0.1	-4.7989
8232	18.275	6.	0.1	-4.923
8233	18.46	6.	0.1	-5.1022
8234	18.645	6.	0.1	-5.3281
8235	18.829	6.	0.1	-5.593
8236	19.014	6.	0.1	-5.8905
8237	19.199	6.	0.1	-6.2145
8238	19.383	6.	0.1	-6.5601
8239	19.568	6.	0.1	-6.9226
8240	19.753	6.	0.1	-7.2981
8241	19.937	6.	0.1	-7.6831
8242	20.122	6.	0.1	-8.0744
8243	20.307	6.	0.1	-8.4693
8244	20.491	6.	0.1	-8.8652
8245	20.676	6.	0.1	-9.2597
8246	20.861	6.	0.1	-9.6505
8247	21.045	6.	0.1	-10.035
8248	21.23	6.	0.1	-10.412
8249	21.415	6.	0.1	-10.779
8250	21.599	6.	0.1	-11.132
8251	21.784	6.	0.1	-11.469
8252	21.969	6.	0.1	-11.788
8253	22.153	6.	0.1	-12.083
8254	22.338	6.	0.1	-12.349
8255	22.523	6.	0.1	-12.581
8256	22.707	6.	0.1	-12.77
8257	22.892	6.	0.1	-12.904
8258	23.077	6.	0.1	-12.964
8259	23.261	6.	0.1	-12.925
8260	23.446	6.	0.1	-12.712
8261	23.631	6.	0.1	-12.341
8262	23.815	6.	0.1	-10.499
8263	24.	6.	0.1	-5.5635
8264	24.	5.8182	0.1	-34.595
8265	24.	5.6364	0.1	-60.055
8266	24.	5.4545	0.1	-79.435
8267	24.	5.2727	0.1	-95.332
8268	24.	5.0909	0.1	-108.74
8269	24.	4.9091	0.1	-120.19
8270	24.	4.7273	0.1	-130.
8271	24.	4.5455	0.1	-138.42
8272	24.	4.3636	0.1	-145.6
8273	24.	4.1818	0.1	-151.67
8274	24.	4.	0.1	-156.73
8275	24.	3.8182	0.1	-160.85
8276	24.	3.6364	0.1	-164.08
8277	24.	3.4545	0.1	-166.47
8278	24.	3.2727	0.1	-168.05
8279	24.	3.0909	0.1	-168.83
8280	24.	2.9091	0.1	-168.83
8281	24.	2.7273	0.1	-168.05
8282	24.	2.5455	0.1	-166.47
8283	24.	2.3636	0.1	-164.08
8284	24.	2.1818	0.1	-160.85
8285	24.	2.	0.1	-156.73
8286	24.	1.8182	0.1	-151.67
8287	24.	1.6364	0.1	-145.6
8288	24.	1.4545	0.1	-138.42
8289	24.	1.2727	0.1	-130.
8290	24.	1.0909	0.1	-120.19
8291	24.	0.90909	0.1	-108.74
8292	24.	0.72727	0.1	-95.333
8293	24.	0.54545	0.1	-79.435
8294	24.	0.36364	0.1	-60.055
8295	24.	0.18182	0.1	-34.595
8296	1.5894e-015	0.18182	0.1	1062.2
8297	3.1789e-015	0.36364	0.1	2242.7
8298	4.7683e-015	0.54545	0.1	2786.3
8299	6.3578e-015	0.72727	0.1	3110.9
8300	7.9472e-015	0.90909	0.1	3326.3
8301	9.5366e-015	1.0909	0.1	3479.7
8302	1.1126e-014	1.2727	0.1	3593.
8303	1.2716e-014	1.4545	0.1	3679.
8304	1.4305e-014	1.6364	0.1	3745.2
8305	1.5894e-014	1.8182	0.1	3796.5
8306	1.7484e-014	2.	0.1	3836.2
8307	1.9073e-014	2.1818	0.1	3866.8
8308	2.0663e-014	2.3636	0.1	3889.7
8309	2.2252e-014	2.5455	0.1	3906.
8310	2.3842e-014	2.7273	0.1	3916.6
8311	2.5431e-014	2.9091	0.1	3921.9
8312	2.702e-014	3.0909	0.1	3921.9
8313	2.861e-014	3.2727	0.1	3916.6
8314	3.0199e-014	3.4545	0.1	3906.
8315	3.1789e-014	3.6364	0.1	3889.7
8316	3.3378e-014	3.8182	0.1	3866.8
8317	3.4968e-014	4.	0.1	3836.2
8318	3.6557e-014	4.1818	0.1	3796.5
8319	3.8147e-014	4.3636	0.1	3745.2
8320	3.9736e-014	4.5455	0.1	3679.
8321	4.1325e-014	4.7273	0.1	3593.
8322	4.2915e-014	4.9091	0.1	3479.7
8323	4.4504e-014	5.0909	0.1	3326.3
8324	4.6094e-014	5.2727	0.1	3110.9
8325	4.7683e-014	5.4545	0.1	2786.3
8326	4.9273e-014	5.6364	0.1	2242.7
8327	5.0862e-014	5.8182	0.1	1062.2
8328	24.	0.	0.1	-5.5635
8329	23.815	0.	0.1	-10.499
8330	23.631	0.	0.1	-12.341
8331	23.446	0.	0.1	-12.712
8332	23.261	0.	0.1	-12.925
8333	23.077	0.	0.1	-12.964
8334	22.892	0.	0.1	-12.904
8335	22.707	0.	0.1	-12.77
8336	22.523	0.	0.1	-12.581
8337	22.338	0.	0.1	-12.349
8338	22.153	0.	0.1	-12.083
8339	21.969	0.	0.1	-11.788
8340	21.784	0.	0.1	-11.469
8341	21.599	0.	0.1	-11.132
8342	21.415	0.	0.1	-10.779
8343	21.23	0.	0.1	-10.412
8344	21.045	0.	0.1	-10.035
8345	20.861	0.	0.1	-9.6505
8346	20.676	0.	0.1	-9.2597
8347	20.491	0.	0.1	-8.8652
8348	20.307	0.	0.1	-8.4693
8349	20.122	0.	0.1	-8.0745
8350	19.937	0.	0.1	-7.6831
8351	19.753	0.	0.1	-7.2981
8352	19.568	0.	0.1	-6.9226
8353	19.383	0.	0.1	-6.5601
8354	19.199	0.	0.1	-6.2145
8355	19.014	0.	0.1	-5.8905
8356	18.829	0.	0.1	-5.5931
8357	18.645	0.	0.1	-5.3281
8358	18.46	0.	0.1	-5.1022
8359	18.275	0.	0.1	-4.923
8360	18.091	0.	0.1	-4.7989
8361	17.906	0.	0.1	-4.7398
8362	17.721	0.	0.1	-4.7566
8363	17.537	0.	0.1	-4.8618
8364	17.352	0.	0.1	-5.0692
8365	17.167	0.	0.1	-5.394
8366	16.983	0.	0.1	-5.8524
8367	16.798	0.	0.1	-6.4601
8368	16.613	0.	0.1	-7.2302
8369	16.429	0.	0.1	-8.1685
8370	16.244	0.	0.1	-9.2655
8371	16.059	0.	0.1	-10.484
8372	15.875	0.	0.1	-11.74
8373	15.69	0.	0.1	-12.868
8374	15.505	0.	0.1	-13.611
8375	15.321	0.	0.1	-13.451
8376	15.136	0.	0.1	-11.966
8377	14.951	0.	0.1	-9.6771
8378	14.767	0.	0.1	-5.4362
8379	14.6	0.	0.1	-6.5485
8380	14.415	-1.1978e-030	0.1	-8.32
8381	14.23	-1.1825e-030	0.1	-8.2691
8382	14.046	-1.1671e-030	0.1	-8.2119
8383	13.861	-1.1518e-030	0.1	-7.6048
8384	13.676	-1.1364e-030	0.1	-6.7038
8385	13.491	-1.121e-030	0.1	-5.8687
8386	13.306	-1.1057e-030	0.1	-5.1951
8387	13.122	-1.0903e-030	0.1	-4.7174
8388	12.937	-1.075e-030	0.1	-4.4162
8389	12.752	-1.0596e-030	0.1	-4.2564
8390	12.567	-1.0443e-030	0.1	-4.1987
8391	12.382	-1.0289e-030	0.1	-4.2081
8392	12.197	-1.0135e-030	0.1	-4.2562
8393	12.013	-9.9819e-031	0.1	-4.3215
8394	11.828	-9.8283e-031	0.1	-4.3886
8395	11.643	-9.6748e-031	0.1	-4.4474
8396	11.458	-9.5212e-031	0.1	-4.4915
8397	11.273	-9.3676e-031	0.1	-4.5173
8398	11.089	-9.2141e-031	0.1	-4.5231
8399	10.904	-9.0605e-031	0.1	-4.5085
8400	10.719	-8.9069e-031	0.1	-4.4737
8401	10.534	-8.7534e-031	0.1	-4.4194
8402	10.349	-8.5998e-031	0.1	-4.3464
8403	10.165	-8.4462e-031	0.1	-4.2558
8404	9.9797	-8.2927e-031	0.1	-4.1483
8405	9.7949	-8.1391e-031	0.1	-4.0246
8406	9.6101	-7.9855e-031	0.1	-3.8854
8407	9.4253	-7.8319e-031	0.1	-3.7312
8408	9.2405	-7.6784e-031	0.1	-3.5622
8409	9.0557	-7.5248e-031	0.1	-3.3789
8410	8.8709	-7.3712e-031	0.1	-3.1814
8411	8.6861	-7.2177e-031	0.1	-2.9699
8412	8.5013	-7.0641e-031	0.1	-2.7444
8413	8.3165	-6.9105e-031	0.1	-2.5051
8414	8.1316	-6.757e-031	0.1	-2.2521
8415	7.9468	-6.6034e-031	0.1	-1.9855
8416	7.762	-6.4498e-031	0.1	-1.7056
8417	7.5772	-6.2963e-031	0.1	-1.4129
8418	7.3924	-6.1427e-031	0.1	-1.1077
8419	7.2076	-5.9891e-031	0.1	-0.79102
8420	7.0228	-5.8356e-031	0.1	-0.46458
8421	6.838	-5.682e-031	0.1	-0.46387
8422	6.6532	-5.5284e-031	0.1	-0.50939
8423	6.4684	-5.3749e-031	0.1	-0.55843
8424	6.2835	-5.2213e-031	0.1	-0.61126
8425	6.0987	-5.0677e-031	0.1	-0.66821
8426	5.9139	-4.9142e-031	0.1	-0.72965
8427	5.7291	-4.7606e-031	0.1	-0.79594
8428	5.5443	-4.607e-031	0.1	-0.86753
8429	5.3595	-4.4535e-031	0.1	-0.94487
8430	5.1747	-4.2999e-031	0.1	-1.0285
8431	4.9899	-4.1463e-031	0.1	-1.1189
8432	4.8051	-3.9928e-031	0.1	-1.2168
8433	4.6203	-3.8392e-031	0.1	-1.323
8434	4.4354	-3.6856e-031	0.1	-1.4383
8435	4.2506	-3.5321e-031	0.1	-1.5642
8436	4.0658	-3.3785e-031	0.1	-1.7022
8437	3.881	-3.2249e-031	0.1	-1.8551
8438	3.6962	-3.0714e-031	0.1	-2.0277
8439	3.5114	-2.9178e-031	0.1	-2.2306
8440	3.3266	-2.7642e-031	0.1	-2.4938
8441	3.1418	-2.6106e-031	0.1	-2.9387
8442	2.957	-2.4571e-031	0.1	-4.0349
8443	2.7722	-2.3035e-031	0.1	-6.1126
8444	2.5873	-2.1499e-031	0.1	-8.9499
8445	2.4025	-1.9964e-031	0.1	-12.53
8446	2.2177	-1.8428e-031	0.1	-16.963
8447	2.0329	-1.6892e-031	0.1	-22.418
8448	1.8481	-1.5357e-031	0.1	-29.126
8449	1.6633	-1.3821e-031	0.1	-37.402
8450	1.4785	-1.2285e-031	0.1	-47.677
8451	1.2937	-1.075e-031	0.1	-60.626
8452	1.1089	-9.2141e-032	0.1	-77.149
8453	0.92405	-7.6784e-032	0.1	-99.244
8454	0.73924	-6.1427e-032	0.1	-129.19
8455	0.55443	-4.607e-032	0.1	-175.7
8456	0.36962	-3.0714e-032	0.1	-255.76
8457	0.18481	-1.5357e-032	0.1	-442.22
8458	0.	0.	0.1	-1819.6
8459	3.937e-014	6.	0.1	-1819.6
8460	0.18481	6.	0.1	-442.22
8461	0.36962	6.	0.1	-255.76
8462	0.55443	6.	0.1	-175.7
8463	0.73924	6.	0.1	-129.19
8464	0.92405	6.	0.1	-99.244
8465	1.1089	6.	0.1	-77.149
8466	1.2937	6.	0.1	-60.626
8467	1.4785	6.	0.1	-47.677
8468	1.6633	6.	0.1	-37.402
8469	1.8481	6.	0.1	-29.126
8470	2.0329	6.	0.1	-22.418
8471	2.2177	6.	0.1	-16.963
8472	2.4025	6.	0.1	-12.53
8473	2.5873	6.	0.1	-8.9499
8474	2.7722	6.	0.1	-6.1126
8475	2.957	6.	0.1	-4.035
8476	3.1418	6.	0.1	-2.9387
8477	3.3266	6.	0.1	-2.4938
8478	3.5114	6.	0.1	-2.2306
8479	3.6962	6.	0.1	-2.0277
8480	3.881	6.	0.1	-1.8551
8481	4.0658	6.	0.1	-1.7022
8482	4.2506	6.	0.1	-1.5642
8483	4.4354	6.	0.1	-1.4383
8484	4.6203	6.	0.1	-1.323
8485	4.8051	6.	0.1	-1.2168
8486	4.9899	6.	0.1	-1.1189
8487	5.1747	6.	0.1	-1.0285
8488	5.3595	6.	0.1	-0.94486
8489	5.5443	6.	0.1	-0.86753
8490	5.7291	6.	0.1	-0.79594
8491	5.9139	6.	0.1	-0.72965
8492	6.0987	6.	0.1	-0.66821
8493	6.2835	6.	0.1	-0.61126
8494	6.4684	6.	0.1	-0.55843
8495	6.6532	6.	0.1	-0.50939
8496	6.838	6.	0.1	-0.46387
8497	7.0228	6.	0.1	-0.46457
8498	7.2076	6.	0.1	-0.79101
8499	7.3924	6.	0.1	-1.1077
8500	7.5772	6.	0.1	-1.4129
8501	7.762	6.	0.1	-1.7056
8502	7.9468	6.	0.1	-1.9855
8503	8.1316	6.	0.1	-2.2521
8504	8.3165	6.	0.1	-2.5051
8505	8.5013	6.	0.1	-2.7444
8506	8.6861	6.	0.1	-2.9699
8507	8.8709	6.	0.1	-3.1814
8508	9.0557	6.	0.1	-3.3789
8509	9.2405	6.	0.1	-3.5622
8510	9.4253	6.	0.1	-3.7311
8511	9.6101	6.	0.1	-3.8854
8512	9.7949	6.	0.1	-4.0246
8513	9.9797	6.	0.1	-4.1483
8514	10.165	6.	0.1	-4.2558
8515	10.349	6.	0.1	-4.3464
8516	10.534	6.	0.1	-4.4194
8517	10.719	6.	0.1	-4.4737
8518	10.904	6.	0.1	-4.5084
8519	11.089	6.	0.1	-4.5231
8520	11.273	6.	0.1	-4.5173
8521	11.458	6.	0.1	-4.4915
8522	11.643	6.	0.1	-4.4474
8523	11.828	6.	0.1	-4.3886
8524	12.013	6.	0.1	-4.3215
8525	12.197	6.	0.1	-4.2562
8526	12.382	6.	0.1	-4.2081
8527	12.567	6.	0.1	-4.1987
8528	12.752	6.	0.1	-4.2564
8529	12.937	6.	0.1	-4.4161
8530	13.122	6.	0.1	-4.7174
8531	13.306	6.	0.1	-5.1951
8532	13.491	6.	0.1	-5.8687
8533	13.676	6.	0.1	-6.7038
8534	13.861	6.	0.1	-7.6048
8535	14.046	6.	0.1	-8.2119
8536	14.23	6.	0.1	-8.2691
8537	14.415	6.	0.1	-8.32
8538	14.6	6.	0.1	-6.5485
8539	14.415	6.	0.	-307.92
8540	14.23	6.	0.	-618.07
8541	14.046	6.	0.	-905.15
8542	13.861	6.	0.	-1170.4
8543	13.676	6.	0.	-1412.
8544	13.491	6.	0.	-1628.9
8545	13.306	6.	0.	-1821.7
8546	13.122	6.	0.	-1991.9
8547	12.937	6.	0.	-2141.9
8548	12.752	6.	0.	-2274.2
8549	12.567	6.	0.	-2391.5
8550	12.382	6.	0.	-2496.3
8551	12.197	6.	0.	-2590.7
8552	12.013	6.	0.	-2676.6
8553	11.828	6.	0.	-2755.7
8554	11.643	6.	0.	-2829.2
8555	11.458	6.	0.	-2898.4
8556	11.273	6.	0.	-2964.1
8557	11.089	6.	0.	-3027.1
8558	10.904	6.	0.	-3087.9
8559	10.719	6.	0.	-3147.
8560	10.534	6.	0.	-3204.9
8561	10.349	6.	0.	-3261.8
8562	10.165	6.	0.	-3318.
8563	9.9797	6.	0.	-3373.7
8564	9.7949	6.	0.	-3429.1
8565	9.6101	6.	0.	-3484.2
8566	9.4253	6.	0.	-3539.3
8567	9.2405	6.	0.	-3594.3
8568	9.0557	6.	0.	-3649.3
8569	8.8709	6.	0.	-3704.5
8570	8.6861	6.	0.	-3759.8
8571	8.5013	6.	0.	-3815.2
8572	8.3165	6.	0.	-3870.9
8573	8.1316	6.	0.	-3926.9
8574	7.9468	6.	0.	-3983.1
8575	7.762	6.	0.	-4039.6
8576	7.5772	6.	0.	-4096.5
8577	7.3924	6.	0.	-4153.7
8578	7.2076	6.	0.	-4211.2
8579	7.0228	6.	0.	-4269.2
8580	6.838	6.	0.	-4327.5
8581	6.6532	6.	0.	-4386.3
8582	6.4684	6.	0.	-4445.5
8583	6.2835	6.	0.	-4505.2
8584	6.0987	6.	0.	-4565.4
8585	5.9139	6.	0.	-4626.1
8586	5.7291	6.	0.	-4687.3
8587	5.5443	6.	0.	-4749.1
8588	5.3595	6.	0.	-4811.4
8589	5.1747	6.	0.	-4874.3
8590	4.9899	6.	0.	-4937.8
8591	4.8051	6.	0.	-5001.9
8592	4.6203	6.	0.	-5066.6
8593	4.4354	6.	0.	-5131.8
8594	4.2506	6.	0.	-5197.6
8595	4.0658	6.	0.	-5263.9
8596	3.881	6.	0.	-5330.6
8597	3.6962	6.	0.	-5397.5
8598	3.5114	6.	0.	-5464.6
8599	3.3266	6.	0.	-5531.5
8600	3.1418	6.	0.	-5598.
8601	2.957	6.	0.	-5663.7
8602	2.7722	6.	0.	-5728.
8603	2.5873	6.	0.	-5790.2
8604	2.4025	6.	0.	-5849.3
8605	2.2177	6.	0.	-5904.
8606	2.0329	6.	0.	-5952.4
8607	1.8481	6.	0.	-5992.3
8608	1.6633	6.	0.	-6020.1
8609	1.4785	6.	0.	-6031.1
8610	1.2937	6.	0.	-6018.2
8611	1.1089	6.	0.	-5970.7
8612	0.92405	6.	0.	-5870.9
8613	0.73924	6.	0.	-5690.1
8614	0.55443	6.	0.	-5366.6
8615	0.36962	6.	0.	-4791.6
8616	0.18481	6.	0.	-3579.8
8617	14.6	6.	0.	-28.944
8618	3.937e-014	6.	0.	-765.95
8619	0.18481	-1.5357e-032	0.	-3579.8
8620	0.36962	-3.0714e-032	0.	-4791.6
8621	0.55443	-4.607e-032	0.	-5366.6
8622	0.73924	-6.1427e-032	0.	-5690.1
8623	0.92405	-7.6784e-032	0.	-5870.9
8624	1.1089	-9.2141e-032	0.	-5970.7
8625	1.2937	-1.075e-031	0.	-6018.2
8626	1.4785	-1.2285e-031	0.	-6031.1
8627	1.6633	-1.3821e-031	0.	-6020.1
8628	1.8481	-1.5357e-031	0.	-5992.3
8629	2.0329	-1.6892e-031	0.	-5952.4
8630	2.2177	-1.8428e-031	0.	-5904.
8631	2.4025	-1.9964e-031	0.	-5849.3
8632	2.5873	-2.1499e-031	0.	-5790.2
8633	2.7722	-2.3035e-031	0.	-5728.
8634	2.957	-2.4571e-031	0.	-5663.7
8635	3.1418	-2.6106e-031	0.	-5598.
8636	3.3266	-2.7642e-031	0.	-5531.5
8637	3.5114	-2.9178e-031	0.	-5464.6
8638	3.6962	-3.0714e-031	0.	-5397.5
8639	3.881	-3.2249e-031	0.	-5330.6
8640	4.0658	-3.3785e-031	0.	-5263.9
8641	4.2506	-3.5321e-031	0.	-5197.6
8642	4.4354	-3.6856e-031	0.	-5131.8
8643	4.6203	-3.8392e-031	0.	-5066.6
8644	4.8051	-3.9928e-031	0.	-5001.9
8645	4.9899	-4.1463e-031	0.	-4937.8
8646	5.1747	-4.2999e-031	0.	-4874.3
8647	5.3595	-4.4535e-031	0.	-4811.4
8648	5.5443	-4.607e-031	0.	-4749.
8649	5.7291	-4.7606e-031	0.	-4687.3
8650	5.9139	-4.9142e-031	0.	-4626.1
8651	6.0987	-5.0677e-031	0.	-4565.4
8652	6.2835	-5.2213e-031	0.	-4505.2
8653	6.4684	-5.3749e-031	0.	-4445.5
8654	6.6532	-5.5284e-031	0.	-4386.3
8655	6.838	-5.682e-031	0.	-4327.5
8656	7.0228	-5.8356e-031	0.	-4269.2
8657	7.2076	-5.9891e-031	0.	-4211.2
8658	7.3924	-6.1427e-031	0.	-4153.7
8659	7.5772	-6.2963e-031	0.	-4096.5
8660	7.762	-6.4498e-031	0.	-4039.6
8661	7.9468	-6.6034e-031	0.	-3983.1
8662	8.1316	-6.757e-031	0.	-3926.9
8663	8.3165	-6.9105e-031	0.	-3870.9
8664	8.5013	-7.0641e-031	0.	-3815.2
8665	8.6861	-7.2177e-031	0.	-3759.8
8666	8.8709	-7.3712e-031	0.	-3704.5
8667	9.0557	-7.5248e-031	0.	-3649.3
8668	9.2405	-7.6784e-031	0.	-3594.3
8669	9.4253	-7.8319e-031	0.	-3539.3
8670	9.6101	-7.9855e-031	0.	-3484.2
8671	9.7949	-8.1391e-031	0.	-3429.1
8672	9.9797	-8.2927e-031	0.	-3373.7
8673	10.165	-8.4462e-031	0.	-3318.
8674	10.349	-8.5998e-031	0.	-3261.8
8675	10.534	-8.7534e-031	0.	-3204.9
8676	10.719	-8.9069e-031	0.	-3147.
8677	10.904	-9.0605e-031	0.	-3087.9
8678	11.089	-9.2141e-031	0.	-3027.1
8679	11.273	-9.3676e-031	0.	-2964.1
8680	11.458	-9.5212e-031	0.	-2898.4
8681	11.643	-9.6748e-031	0.	-2829.2
8682	11.828	-9.8283e-031	0.	-2755.7
8683	12.013	-9.9819e-031	0.	-2676.6
8684	12.197	-1.0135e-030	0.	-2590.7
8685	12.382	-1.0289e-030	0.	-2496.3
8686	12.567	-1.0443e-030	0.	-2391.5
8687	12.752	-1.0596e-030	0.	-2274.2
8688	12.937	-1.075e-030	0.	-2141.9
8689	13.122	-1.0903e-030	0.	-1991.9
8690	13.306	-1.1057e-030	0.	-1821.7
8691	13.491	-1.121e-030	0.	-1628.9
8692	13.676	-1.1364e-030	0.	-1412.
8693	13.861	-1.1518e-030	0.	-1170.4
8694	14.046	-1.1671e-030	0.	-905.15
8695	14.23	-1.1825e-030	0.	-618.07
8696	14.415	-1.1978e-030	0.	-307.92
8697	14.6	0.	0.	-28.944
8698	0.	0.	0.	-765.95
8699	14.951	0.	0.	-248.46
8700	15.136	0.	0.	-481.37
8701	15.321	0.	0.	-683.6
8702	15.505	0.	0.	-857.97
8703	15.69	0.	0.	-1004.3
8704	15.875	0.	0.	-1123.
8705	16.059	0.	0.	-1215.7
8706	16.244	0.	0.	-1285.1
8707	16.429	0.	0.	-1333.9
8708	16.613	0.	0.	-1365.1
8709	16.798	0.	0.	-1381.7
8710	16.983	0.	0.	-1386.1
8711	17.167	0.	0.	-1380.6
8712	17.352	0.	0.	-1367.2
8713	17.537	0.	0.	-1347.3
8714	17.721	0.	0.	-1322.3
8715	17.906	0.	0.	-1293.2
8716	18.091	0.	0.	-1261.
8717	18.275	0.	0.	-1226.4
8718	18.46	0.	0.	-1189.8
8719	18.645	0.	0.	-1151.8
8720	18.829	0.	0.	-1112.7
8721	19.014	0.	0.	-1072.8
8722	19.199	0.	0.	-1032.3
8723	19.383	0.	0.	-991.41
8724	19.568	0.	0.	-950.23
8725	19.753	0.	0.	-908.87
8726	19.937	0.	0.	-867.42
8727	20.122	0.	0.	-825.95
8728	20.307	0.	0.	-784.5
8729	20.491	0.	0.	-743.12
8730	20.676	0.	0.	-701.82
8731	20.861	0.	0.	-660.64
8732	21.045	0.	0.	-619.58
8733	21.23	0.	0.	-578.66
8734	21.415	0.	0.	-537.9
8735	21.599	0.	0.	-497.29
8736	21.784	0.	0.	-456.86
8737	21.969	0.	0.	-416.61
8738	22.153	0.	0.	-376.54
8739	22.338	0.	0.	-336.69
8740	22.523	0.	0.	-297.08
8741	22.707	0.	0.	-257.73
8742	22.892	0.	0.	-218.7
8743	23.077	0.	0.	-180.06
8744	23.261	0.	0.	-141.93
8745	23.446	0.	0.	-104.51
8746	23.631	0.	0.	-68.18
8747	23.815	0.	0.	-33.853
8748	14.767	0.	0.	-24.406
8749	24.	0.	0.	-5.3408
8750	5.0862e-014	5.8182	0.	-2499.4
8751	4.9273e-014	5.6364	0.	-4638.5
8752	4.7683e-014	5.4545	0.	-5688.8
8753	4.6094e-014	5.2727	0.	-6334.8
8754	4.4504e-014	5.0909	0.	-6765.9
8755	4.2915e-014	4.9091	0.	-7073.7
8756	4.1325e-014	4.7273	0.	-7301.6
8757	3.9736e-014	4.5455	0.	-7474.5
8758	3.8147e-014	4.3636	0.	-7607.7
8759	3.6557e-014	4.1818	0.	-7711.
8760	3.4968e-014	4.	0.	-7791.
8761	3.3378e-014	3.8182	0.	-7852.4
8762	3.1789e-014	3.6364	0.	-7898.3
8763	3.0199e-014	3.4545	0.	-7931.1
8764	2.861e-014	3.2727	0.	-7952.2
8765	2.702e-014	3.0909	0.	-7962.5
8766	2.5431e-014	2.9091	0.	-7962.5
8767	2.3842e-014	2.7273	0.	-7952.2
8768	2.2252e-014	2.5455	0.	-7931.1
8769	2.0663e-014	2.3636	0.	-7898.3
8770	1.9073e-014	2.1818	0.	-7852.4
8771	1.7484e-014	2.	0.	-7791.
8772	1.5894e-014	1.8182	0.	-7711.
8773	1.4305e-014	1.6364	0.	-7607.7
8774	1.2716e-014	1.4545	0.	-7474.5
8775	1.1126e-014	1.2727	0.	-7301.6
8776	9.5366e-015	1.0909	0.	-7073.7
8777	7.9472e-015	0.90909	0.	-6765.9
8778	6.3578e-015	0.72727	0.	-6334.8
8779	4.7683e-015	0.54545	0.	-5688.8
8780	3.1789e-015	0.36364	0.	-4638.5
8781	1.5894e-015	0.18182	0.	-2499.4
8782	24.	0.18182	0.	-6.7453
8783	24.	0.36364	0.	-7.0775
8784	24.	0.54545	0.	-7.1735
8785	24.	0.72727	0.	-7.1995
8786	24.	0.90909	0.	-7.1743
8787	24.	1.0909	0.	-7.1353
8788	24.	1.2727	0.	-7.0897
8789	24.	1.4545	0.	-7.0438
8790	24.	1.6364	0.	-7.0003
8791	24.	1.8182	0.	-6.9608
8792	24.	2.	0.	-6.9263
8793	24.	2.1818	0.	-6.8973
8794	24.	2.3636	0.	-6.8739
8795	24.	2.5455	0.	-6.8563
8796	24.	2.7273	0.	-6.8446
8797	24.	2.9091	0.	-6.8387
8798	24.	3.0909	0.	-6.8387
8799	24.	3.2727	0.	-6.8446
8800	24.	3.4545	0.	-6.8563
8801	24.	3.6364	0.	-6.8739
8802	24.	3.8182	0.	-6.8973
8803	24.	4.	0.	-6.9263
8804	24.	4.1818	0.	-6.9608
8805	24.	4.3636	0.	-7.0003
8806	24.	4.5455	0.	-7.0438
8807	24.	4.7273	0.	-7.0897
8808	24.	4.9091	0.	-7.1353
8809	24.	5.0909	0.	-7.1743
8810	24.	5.2727	0.	-7.1995
8811	24.	5.4545	0.	-7.1735
8812	24.	5.6364	0.	-7.0774
8813	24.	5.8182	0.	-6.7453
8814	24.	6.	0.	-5.3408
8815	23.815	6.	0.	-33.854
8816	23.631	6.	0.	-68.18
8817	23.446	6.	0.	-104.51
8818	23.261	6.	0.	-141.93
8819	23.077	6.	0.	-180.06
8820	22.892	6.	0.	-218.7
8821	22.707	6.	0.	-257.73
8822	22.523	6.	0.	-297.08
8823	22.338	6.	0.	-336.69
8824	22.153	6.	0.	-376.54
8825	21.969	6.	0.	-416.61
8826	21.784	6.	0.	-456.86
8827	21.599	6.	0.	-497.29
8828	21.415	6.	0.	-537.9
8829	21.23	6.	0.	-578.66
8830	21.045	6.	0.	-619.58
8831	20.861	6.	0.	-660.64
8832	20.676	6.	0.	-701.82
8833	20.491	6.	0.	-743.12
8834	20.307	6.	0.	-784.5
8835	20.122	6.	0.	-825.95
8836	19.937	6.	0.	-867.42
8837	19.753	6.	0.	-908.87
8838	19.568	6.	0.	-950.23
8839	19.383	6.	0.	-991.41
8840	19.199	6.	0.	-1032.3
8841	19.014	6.	0.	-1072.8
8842	18.829	6.	0.	-1112.7
8843	18.645	6.	0.	-1151.8
8844	18.46	6.	0.	-1189.8
8845	18.275	6.	0.	-1226.4
8846	18.091	6.	0.	-1261.
8847	17.906	6.	0.	-1293.2
8848	17.721	6.	0.	-1322.3
8849	17.537	6.	0.	-1347.3
8850	17.352	6.	0.	-1367.2
8851	17.167	6.	0.	-1380.6
8852	16.983	6.	0.	-1386.1
8853	16.798	6.	0.	-1381.7
8854	16.613	6.	0.	-1365.1
8855	16.429	6.	0.	-1333.9
8856	16.244	6.	0.	-1285.1
8857	16.059	6.	0.	-1215.7
8858	15.875	6.	0.	-1123.
8859	15.69	6.	0.	-1004.3
8860	15.505	6.	0.	-857.97
8861	15.321	6.	0.	-683.6
8862	15.136	6.	0.	-481.37
8863	14.951	6.	0.	-248.46
8864	14.767	6.	0.	-24.406
8865	14.6	1.8182	0.	-2487.5
8866	14.6	1.6364	0.	-1653.3
8867	14.6	1.4545	0.	-1320.5
8868	14.6	1.2727	0.	-1077.5
8869	14.6	1.0909	0.	-897.85
8870	14.6	0.90909	0.	-748.26
8871	14.6	0.72727	0.	-615.79
8872	14.6	0.54545	0.	-490.17
8873	14.6	0.36364	0.	-361.85
8874	14.6	0.18182	0.	-211.47
8875	14.6	2.	0.	-10629
8876	14.767	0.18182	0.	-191.33
8877	14.767	0.36364	0.	-337.96
8878	14.767	0.54545	0.	-468.9
8879	14.767	0.72727	0.	-602.01
8880	14.767	0.90909	0.	-747.49
8881	14.767	1.0909	0.	-917.
8882	14.767	1.2727	0.	-1126.7
8883	14.767	1.4545	0.	-1413.8
8884	14.767	1.6364	0.	-1810.6
8885	14.767	1.8182	0.	-2756.7
8886	14.767	2.	0.	-10909
8887	14.6	4.1818	0.	-2487.5
8888	14.6	4.3636	0.	-1653.3
8889	14.6	4.5455	0.	-1320.5
8890	14.6	4.7273	0.	-1077.5
8891	14.6	4.9091	0.	-897.85
8892	14.6	5.0909	0.	-748.26
8893	14.6	5.2727	0.	-615.79
8894	14.6	5.4545	0.	-490.17
8895	14.6	5.6364	0.	-361.85
8896	14.6	5.8182	0.	-211.47
8897	14.6	4.	0.	-10629
8898	14.767	5.8182	0.	-191.33
8899	14.767	5.6364	0.	-337.96
8900	14.767	5.4545	0.	-468.9
8901	14.767	5.2727	0.	-602.01
8902	14.767	5.0909	0.	-747.49
8903	14.767	4.9091	0.	-917.
8904	14.767	4.7273	0.	-1126.7
8905	14.767	4.5455	0.	-1413.8
8906	14.767	4.3636	0.	-1810.6
8907	14.767	4.1818	0.	-2756.7
8908	14.767	4.	0.	-10909
8909	14.6	2.2727	0.	-6731.7
8910	14.683	2.1818	0.	-7442.9
8911	14.508	2.1818	0.	-6463.8
8912	14.6	2.1818	5.e-002	-288.55
8913	14.6	2.0909	0.	-8913.7
8914	14.6	2.4545	0.	-5631.1
8915	14.683	2.3636	0.	-5954.7
8916	14.508	2.3636	0.	-5613.1
8917	14.6	2.3636	5.e-002	-46.796
8918	14.6	2.6364	0.	-5112.8
8919	14.683	2.5455	0.	-5270.5
8920	14.508	2.5455	0.	-5107.8
8921	14.6	2.5455	5.e-002	-22.491
8922	14.6	2.8182	0.	-4862.9
8923	14.683	2.7273	0.	-4920.2
8924	14.508	2.7273	0.	-4834.4
8925	14.6	2.7273	5.e-002	-11.477
8926	14.6	3.	0.	-4788.2
8927	14.683	2.9091	0.	-4770.2
8928	14.508	2.9091	0.	-4711.6
8929	14.6	2.9091	5.e-002	-6.3555
8930	14.6	3.1818	0.	-4862.9
8931	14.683	3.0909	0.	-4770.2
8932	14.508	3.0909	0.	-4711.6
8933	14.6	3.0909	5.e-002	-6.3555
8934	14.6	3.3636	0.	-5112.8
8935	14.683	3.2727	0.	-4920.2
8936	14.508	3.2727	0.	-4834.4
8937	14.6	3.2727	5.e-002	-11.477
8938	14.6	3.5455	0.	-5631.1
8939	14.683	3.4545	0.	-5270.5
8940	14.508	3.4545	0.	-5107.8
8941	14.6	3.4545	5.e-002	-22.491
8942	14.6	3.7273	0.	-6731.7
8943	14.683	3.6364	0.	-5954.7
8944	14.508	3.6364	0.	-5613.1
8945	14.6	3.6364	5.e-002	-46.796
8946	14.683	3.8182	0.	-7442.9
8947	14.508	3.8182	0.	-6463.8
8948	14.6	3.8182	5.e-002	-288.55
8949	14.6	3.9091	0.	-8913.7
8950	14.767	2.2727	0.	-6751.9
8951	14.859	2.1818	0.	-6503.9
8952	14.767	2.1818	5.e-002	-248.2
8953	14.767	2.0909	0.	-9082.9
8954	14.767	2.4545	0.	-5619.2
8955	14.859	2.3636	0.	-5595.7
8956	14.767	2.3636	5.e-002	-51.472
8957	14.767	2.6364	0.	-5084.3
8958	14.859	2.5455	0.	-5054.4
8959	14.767	2.5455	5.e-002	-24.68
8960	14.767	2.8182	0.	-4828.6
8961	14.859	2.7273	0.	-4765.8
8962	14.767	2.7273	5.e-002	-13.787
8963	14.767	3.	0.	-4752.
8964	14.859	2.9091	0.	-4636.6
8965	14.767	2.9091	5.e-002	-9.1986
8966	14.767	3.1818	0.	-4828.6
8967	14.859	3.0909	0.	-4636.6
8968	14.767	3.0909	5.e-002	-9.1986
8969	14.767	3.3636	0.	-5084.3
8970	14.859	3.2727	0.	-4765.8
8971	14.767	3.2727	5.e-002	-13.787
8972	14.767	3.5455	0.	-5619.2
8973	14.859	3.4545	0.	-5054.4
8974	14.767	3.4545	5.e-002	-24.68
8975	14.767	3.7273	0.	-6751.9
8976	14.859	3.6364	0.	-5595.7
8977	14.767	3.6364	5.e-002	-51.472
8978	14.859	3.8182	0.	-6503.9
8979	14.767	3.8182	5.e-002	-248.2
8980	14.767	3.9091	0.	-9082.9
8981	14.415	5.7273	0.	-496.47
8982	14.323	5.8182	0.	-545.17
8983	14.415	5.8182	5.e-002	-35.337
8984	14.415	5.9091	0.	-351.88
8985	14.508	5.8182	0.	-294.26
8986	14.415	5.5455	0.	-663.51
8987	14.323	5.6364	0.	-661.56
8988	14.415	5.6364	5.e-002	-31.961
8989	14.508	5.6364	0.	-443.62
8990	14.415	5.3636	0.	-848.48
8991	14.323	5.4545	0.	-817.85
8992	14.415	5.4545	5.e-002	-33.671
8993	14.508	5.4545	0.	-593.12
8994	14.415	5.1818	0.	-1050.8
8995	14.323	5.2727	0.	-996.84
8996	14.415	5.2727	5.e-002	-37.253
8997	14.508	5.2727	0.	-746.62
8998	14.415	5.	0.	-1281.
8999	14.323	5.0909	0.	-1200.9
9000	14.415	5.0909	5.e-002	-42.701
9001	14.508	5.0909	0.	-912.72
9002	14.415	4.8182	0.	-1556.6
9003	14.323	4.9091	0.	-1440.4
9004	14.415	4.9091	5.e-002	-50.48
9005	14.508	4.9091	0.	-1102.8
9006	14.415	4.6364	0.	-1913.2
9007	14.323	4.7273	0.	-1733.8
9008	14.415	4.7273	5.e-002	-62.612
9009	14.508	4.7273	0.	-1333.8
9010	14.415	4.4545	0.	-2411.7
9011	14.323	4.5455	0.	-2118.
9012	14.415	4.5455	5.e-002	-77.905
9013	14.508	4.5455	0.	-1642.4
9014	14.415	4.2727	0.	-3283.3
9015	14.323	4.3636	0.	-2644.3
9016	14.415	4.3636	5.e-002	-118.36
9017	14.508	4.3636	0.	-2083.3
9018	14.415	4.0909	0.	-4616.7
9019	14.323	4.1818	0.	-3548.4
9020	14.415	4.1818	5.e-002	-224.1
9021	14.508	4.1818	0.	-2883.6
9022	14.415	3.9091	0.	-5439.6
9023	14.323	4.	0.	-4624.6
9024	14.415	4.	5.e-002	-405.6
9025	14.508	4.	0.	-7977.7
9026	14.415	3.7273	0.	-5396.9
9027	14.323	3.8182	0.	-4907.6
9028	14.415	3.8182	5.e-002	-177.28
9029	14.415	3.5455	0.	-5103.7
9030	14.323	3.6364	0.	-4855.9
9031	14.415	3.6364	5.e-002	-77.125
9032	14.415	3.3636	0.	-4833.7
9033	14.323	3.4545	0.	-4682.6
9034	14.415	3.4545	5.e-002	-42.307
9035	14.415	3.1818	0.	-4683.7
9036	14.323	3.2727	0.	-4558.
9037	14.415	3.2727	5.e-002	-25.021
9038	14.415	3.	0.	-4634.8
9039	14.323	3.0909	0.	-4493.
9040	14.415	3.0909	5.e-002	-18.97
9041	14.415	2.8182	0.	-4683.7
9042	14.323	2.9091	0.	-4493.
9043	14.415	2.9091	5.e-002	-18.97
9044	14.415	2.6364	0.	-4833.7
9045	14.323	2.7273	0.	-4558.
9046	14.415	2.7273	5.e-002	-25.021
9047	14.415	2.4545	0.	-5103.7
9048	14.323	2.5455	0.	-4682.6
9049	14.415	2.5455	5.e-002	-42.307
9050	14.415	2.2727	0.	-5396.9
9051	14.323	2.3636	0.	-4855.9
9052	14.415	2.3636	5.e-002	-77.124
9053	14.415	2.0909	0.	-5439.6
9054	14.323	2.1818	0.	-4907.6
9055	14.415	2.1818	5.e-002	-177.28
9056	14.415	1.9091	0.	-4616.7
9057	14.323	2.	0.	-4624.6
9058	14.415	2.	5.e-002	-405.6
9059	14.508	2.	0.	-7977.7
9060	14.415	1.7273	0.	-3283.3
9061	14.323	1.8182	0.	-3548.4
9062	14.415	1.8182	5.e-002	-224.1
9063	14.508	1.8182	0.	-2883.6
9064	14.415	1.5455	0.	-2411.7
9065	14.323	1.6364	0.	-2644.3
9066	14.415	1.6364	5.e-002	-118.36
9067	14.508	1.6364	0.	-2083.3
9068	14.415	1.3636	0.	-1913.2
9069	14.323	1.4545	0.	-2118.
9070	14.415	1.4545	5.e-002	-77.905
9071	14.508	1.4545	0.	-1642.4
9072	14.415	1.1818	0.	-1556.6
9073	14.323	1.2727	0.	-1733.8
9074	14.415	1.2727	5.e-002	-62.612
9075	14.508	1.2727	0.	-1333.8
9076	14.415	1.	0.	-1281.
9077	14.323	1.0909	0.	-1440.4
9078	14.415	1.0909	5.e-002	-50.48
9079	14.508	1.0909	0.	-1102.8
9080	14.415	0.81818	0.	-1050.8
9081	14.323	0.90909	0.	-1200.9
9082	14.415	0.90909	5.e-002	-42.701
9083	14.508	0.90909	0.	-912.72
9084	14.415	0.63636	0.	-848.48
9085	14.323	0.72727	0.	-996.84
9086	14.415	0.72727	5.e-002	-37.253
9087	14.508	0.72727	0.	-746.62
9088	14.415	0.45455	0.	-663.51
9089	14.323	0.54545	0.	-817.85
9090	14.415	0.54545	5.e-002	-33.671
9091	14.508	0.54545	0.	-593.12
9092	14.415	0.27273	0.	-496.47
9093	14.323	0.36364	0.	-661.56
9094	14.415	0.36364	5.e-002	-31.961
9095	14.508	0.36364	0.	-443.62
9096	14.323	0.18182	0.	-545.17
9097	14.415	0.18182	5.e-002	-35.337
9098	14.415	9.0909e-002	0.	-351.88
9099	14.508	0.18182	0.	-294.26
9100	14.23	5.7273	0.	-726.16
9101	14.138	5.8182	0.	-818.18
9102	14.23	5.8182	5.e-002	-32.702
9103	14.23	5.9091	0.	-643.13
9104	14.23	5.5455	0.	-838.64
9105	14.138	5.6364	0.	-893.26
9106	14.23	5.6364	5.e-002	-29.024
9107	14.23	5.3636	0.	-989.73
9108	14.138	5.4545	0.	-1012.8
9109	14.23	5.4545	5.e-002	-29.405
9110	14.23	5.1818	0.	-1171.
9111	14.138	5.2727	0.	-1166.3
9112	14.23	5.2727	5.e-002	-31.014
9113	14.23	5.	0.	-1386.2
9114	14.138	5.0909	0.	-1352.3
9115	14.23	5.0909	5.e-002	-33.764
9116	14.23	4.8182	0.	-1647.7
9117	14.138	4.9091	0.	-1576.
9118	14.23	4.9091	5.e-002	-37.81
9119	14.23	4.6364	0.	-1975.9
9120	14.138	4.7273	0.	-1849.3
9121	14.23	4.7273	5.e-002	-42.959
9122	14.23	4.4545	0.	-2404.7
9123	14.138	4.5455	0.	-2189.3
9124	14.23	4.5455	5.e-002	-52.418
9125	14.23	4.2727	0.	-2954.
9126	14.138	4.3636	0.	-2619.3
9127	14.23	4.3636	5.e-002	-49.044
9128	14.23	4.0909	0.	-3541.9
9129	14.138	4.1818	0.	-3123.8
9130	14.23	4.1818	5.e-002	-70.629
9131	14.23	3.9091	0.	-4053.3
9132	14.138	4.	0.	-3604.2
9133	14.23	4.	5.e-002	-60.055
9134	14.23	3.7273	0.	-4352.1
9135	14.138	3.8182	0.	-3973.2
9136	14.23	3.8182	5.e-002	-84.154
9137	14.23	3.5455	0.	-4429.8
9138	14.138	3.6364	0.	-4153.3
9139	14.23	3.6364	5.e-002	-58.122
9140	14.23	3.3636	0.	-4404.7
9141	14.138	3.4545	0.	-4201.7
9142	14.23	3.4545	5.e-002	-43.377
9143	14.23	3.1818	0.	-4365.6
9144	14.138	3.2727	0.	-4198.2
9145	14.23	3.2727	5.e-002	-30.999
9146	14.23	3.	0.	-4349.6
9147	14.138	3.0909	0.	-4187.9
9148	14.23	3.0909	5.e-002	-25.707
9149	14.23	2.8182	0.	-4365.6
9150	14.138	2.9091	0.	-4187.9
9151	14.23	2.9091	5.e-002	-25.707
9152	14.23	2.6364	0.	-4404.7
9153	14.138	2.7273	0.	-4198.2
9154	14.23	2.7273	5.e-002	-30.999
9155	14.23	2.4545	0.	-4429.8
9156	14.138	2.5455	0.	-4201.7
9157	14.23	2.5455	5.e-002	-43.377
9158	14.23	2.2727	0.	-4352.1
9159	14.138	2.3636	0.	-4153.3
9160	14.23	2.3636	5.e-002	-58.121
9161	14.23	2.0909	0.	-4053.3
9162	14.138	2.1818	0.	-3973.2
9163	14.23	2.1818	5.e-002	-84.154
9164	14.23	1.9091	0.	-3541.9
9165	14.138	2.	0.	-3604.1
9166	14.23	2.	5.e-002	-60.054
9167	14.23	1.7273	0.	-2954.
9168	14.138	1.8182	0.	-3123.8
9169	14.23	1.8182	5.e-002	-70.629
9170	14.23	1.5455	0.	-2404.7
9171	14.138	1.6364	0.	-2619.3
9172	14.23	1.6364	5.e-002	-49.044
9173	14.23	1.3636	0.	-1975.9
9174	14.138	1.4545	0.	-2189.3
9175	14.23	1.4545	5.e-002	-52.418
9176	14.23	1.1818	0.	-1647.7
9177	14.138	1.2727	0.	-1849.3
9178	14.23	1.2727	5.e-002	-42.959
9179	14.23	1.	0.	-1386.2
9180	14.138	1.0909	0.	-1576.
9181	14.23	1.0909	5.e-002	-37.81
9182	14.23	0.81818	0.	-1171.
9183	14.138	0.90909	0.	-1352.3
9184	14.23	0.90909	5.e-002	-33.764
9185	14.23	0.63636	0.	-989.73
9186	14.138	0.72727	0.	-1166.3
9187	14.23	0.72727	5.e-002	-31.014
9188	14.23	0.45455	0.	-838.64
9189	14.138	0.54545	0.	-1012.8
9190	14.23	0.54545	5.e-002	-29.405
9191	14.23	0.27273	0.	-726.16
9192	14.138	0.36364	0.	-893.26
9193	14.23	0.36364	5.e-002	-29.024
9194	14.138	0.18182	0.	-818.18
9195	14.23	0.18182	5.e-002	-32.702
9196	14.23	9.0909e-002	0.	-643.13
9197	14.046	5.7273	0.	-989.12
9198	13.953	5.8182	0.	-1083.7
9199	14.046	5.8182	5.e-002	-30.997
9200	14.046	5.9091	0.	-925.74
9201	14.046	5.5455	0.	-1076.6
9202	13.953	5.6364	0.	-1145.
9203	14.046	5.6364	5.e-002	-27.596
9204	14.046	5.3636	0.	-1202.6
9205	13.953	5.4545	0.	-1243.
9206	14.046	5.4545	5.e-002	-27.757
9207	14.046	5.1818	0.	-1363.3
9208	13.953	5.2727	0.	-1374.9
9209	14.046	5.2727	5.e-002	-28.661
9210	14.046	5.	0.	-1559.9
9211	13.953	5.0909	0.	-1540.2
9212	14.046	5.0909	5.e-002	-30.055
9213	14.046	4.8182	0.	-1797.4
9214	13.953	4.9091	0.	-1740.7
9215	14.046	4.9091	5.e-002	-31.774
9216	14.046	4.6364	0.	-2083.9
9217	13.953	4.7273	0.	-1980.4
9218	14.046	4.7273	5.e-002	-33.164
9219	14.046	4.4545	0.	-2422.3
9220	13.953	4.5455	0.	-2263.3
9221	14.046	4.5455	5.e-002	-32.493
9222	14.046	4.2727	0.	-2800.5
9223	13.953	4.3636	0.	-2583.9
9224	14.046	4.3636	5.e-002	-31.585
9225	14.046	4.0909	0.	-3184.5
9226	13.953	4.1818	0.	-2922.2
9227	14.046	4.1818	5.e-002	-28.895
9228	14.046	3.9091	0.	-3519.9
9229	13.953	4.	0.	-3241.2
9230	14.046	4.	5.e-002	-37.218
9231	14.046	3.7273	0.	-3768.6
9232	13.953	3.8182	0.	-3502.1
9233	14.046	3.8182	5.e-002	-40.392
9234	14.046	3.5455	0.	-3920.1
9235	13.953	3.6364	0.	-3689.3
9236	14.046	3.6364	5.e-002	-40.166
9237	14.046	3.3636	0.	-3991.5
9238	13.953	3.4545	0.	-3799.3
9239	14.046	3.4545	5.e-002	-34.118
9240	14.046	3.1818	0.	-4017.6
9241	13.953	3.2727	0.	-3853.2
9242	14.046	3.2727	5.e-002	-29.24
9243	14.046	3.	0.	-4023.6
9244	13.953	3.0909	0.	-3874.
9245	14.046	3.0909	5.e-002	-26.396
9246	14.046	2.8182	0.	-4017.6
9247	13.953	2.9091	0.	-3874.
9248	14.046	2.9091	5.e-002	-26.396
9249	14.046	2.6364	0.	-3991.5
9250	13.953	2.7273	0.	-3853.2
9251	14.046	2.7273	5.e-002	-29.239
9252	14.046	2.4545	0.	-3920.1
9253	13.953	2.5455	0.	-3799.3
9254	14.046	2.5455	5.e-002	-34.118
9255	14.046	2.2727	0.	-3768.6
9256	13.953	2.3636	0.	-3689.3
9257	14.046	2.3636	5.e-002	-40.166
9258	14.046	2.0909	0.	-3519.9
9259	13.953	2.1818	0.	-3502.1
9260	14.046	2.1818	5.e-002	-40.392
9261	14.046	1.9091	0.	-3184.5
9262	13.953	2.	0.	-3241.2
9263	14.046	2.	5.e-002	-37.218
9264	14.046	1.7273	0.	-2800.5
9265	13.953	1.8182	0.	-2922.2
9266	14.046	1.8182	5.e-002	-28.895
9267	14.046	1.5455	0.	-2422.3
9268	13.953	1.6364	0.	-2583.9
9269	14.046	1.6364	5.e-002	-31.585
9270	14.046	1.3636	0.	-2083.9
9271	13.953	1.4545	0.	-2263.3
9272	14.046	1.4545	5.e-002	-32.493
9273	14.046	1.1818	0.	-1797.4
9274	13.953	1.2727	0.	-1980.4
9275	14.046	1.2727	5.e-002	-33.164
9276	14.046	1.	0.	-1559.9
9277	13.953	1.0909	0.	-1740.7
9278	14.046	1.0909	5.e-002	-31.774
9279	14.046	0.81818	0.	-1363.3
9280	13.953	0.90909	0.	-1540.2
9281	14.046	0.90909	5.e-002	-30.055
9282	14.046	0.63636	0.	-1202.6
9283	13.953	0.72727	0.	-1374.9
9284	14.046	0.72727	5.e-002	-28.661
9285	14.046	0.45455	0.	-1076.6
9286	13.953	0.54545	0.	-1243.
9287	14.046	0.54545	5.e-002	-27.757
9288	14.046	0.27273	0.	-989.12
9289	13.953	0.36364	0.	-1145.
9290	14.046	0.36364	5.e-002	-27.596
9291	13.953	0.18182	0.	-1083.7
9292	14.046	0.18182	5.e-002	-30.997
9293	14.046	9.0909e-002	0.	-925.74
9294	13.861	5.7273	0.	-1241.2
9295	13.768	5.8182	0.	-1329.4
9296	13.861	5.8182	5.e-002	-28.587
9297	13.861	5.9091	0.	-1188.2
9298	13.861	5.5455	0.	-1315.6
9299	13.768	5.6364	0.	-1384.1
9300	13.861	5.6364	5.e-002	-25.394
9301	13.861	5.3636	0.	-1422.6
9302	13.768	5.4545	0.	-1467.8
9303	13.861	5.4545	5.e-002	-25.29
9304	13.861	5.1818	0.	-1561.6
9305	13.768	5.2727	0.	-1581.
9306	13.861	5.2727	5.e-002	-25.526
9307	13.861	5.	0.	-1732.6
9308	13.768	5.0909	0.	-1723.4
9309	13.861	5.0909	5.e-002	-25.79
9310	13.861	4.8182	0.	-1936.3
9311	13.768	4.9091	0.	-1895.
9312	13.861	4.9091	5.e-002	-25.774
9313	13.861	4.6364	0.	-2171.9
9314	13.768	4.7273	0.	-2095.2
9315	13.861	4.7273	5.e-002	-24.986
9316	13.861	4.4545	0.	-2434.6
9317	13.768	4.5455	0.	-2320.7
9318	13.861	4.5455	5.e-002	-23.114
9319	13.861	4.2727	0.	-2711.
9320	13.768	4.3636	0.	-2563.
9321	13.861	4.3636	5.e-002	-20.501
9322	13.861	4.0909	0.	-2980.9
9323	13.768	4.1818	0.	-2806.9
9324	13.861	4.1818	5.e-002	-20.192
9325	13.861	3.9091	0.	-3223.3
9326	13.768	4.	0.	-3035.
9327	13.861	4.	5.e-002	-23.007
9328	13.861	3.7273	0.	-3421.5
9329	13.768	3.8182	0.	-3232.5
9330	13.861	3.8182	5.e-002	-25.392
9331	13.861	3.5455	0.	-3566.2
9332	13.768	3.6364	0.	-3389.
9333	13.861	3.6364	5.e-002	-26.334
9334	13.861	3.3636	0.	-3658.5
9335	13.768	3.4545	0.	-3499.7
9336	13.861	3.4545	5.e-002	-25.651
9337	13.861	3.1818	0.	-3707.2
9338	13.768	3.2727	0.	-3567.2
9339	13.861	3.2727	5.e-002	-24.309
9340	13.861	3.	0.	-3722.1
9341	13.768	3.0909	0.	-3598.5
9342	13.861	3.0909	5.e-002	-23.349
9343	13.861	2.8182	0.	-3707.2
9344	13.768	2.9091	0.	-3598.5
9345	13.861	2.9091	5.e-002	-23.349
9346	13.861	2.6364	0.	-3658.5
9347	13.768	2.7273	0.	-3567.2
9348	13.861	2.7273	5.e-002	-24.309
9349	13.861	2.4545	0.	-3566.2
9350	13.768	2.5455	0.	-3499.7
9351	13.861	2.5455	5.e-002	-25.651
9352	13.861	2.2727	0.	-3421.5
9353	13.768	2.3636	0.	-3389.
9354	13.861	2.3636	5.e-002	-26.334
9355	13.861	2.0909	0.	-3223.3
9356	13.768	2.1818	0.	-3232.5
9357	13.861	2.1818	5.e-002	-25.392
9358	13.861	1.9091	0.	-2980.9
9359	13.768	2.	0.	-3035.
9360	13.861	2.	5.e-002	-23.007
9361	13.861	1.7273	0.	-2711.
9362	13.768	1.8182	0.	-2806.9
9363	13.861	1.8182	5.e-002	-20.192
9364	13.861	1.5455	0.	-2434.6
9365	13.768	1.6364	0.	-2563.
9366	13.861	1.6364	5.e-002	-20.501
9367	13.861	1.3636	0.	-2171.9
9368	13.768	1.4545	0.	-2320.7
9369	13.861	1.4545	5.e-002	-23.114
9370	13.861	1.1818	0.	-1936.3
9371	13.768	1.2727	0.	-2095.2
9372	13.861	1.2727	5.e-002	-24.986
9373	13.861	1.	0.	-1732.6
9374	13.768	1.0909	0.	-1895.
9375	13.861	1.0909	5.e-002	-25.774
9376	13.861	0.81818	0.	-1561.6
9377	13.768	0.90909	0.	-1723.4
9378	13.861	0.90909	5.e-002	-25.79
9379	13.861	0.63636	0.	-1422.6
9380	13.768	0.72727	0.	-1581.
9381	13.861	0.72727	5.e-002	-25.526
9382	13.861	0.45455	0.	-1315.6
9383	13.768	0.54545	0.	-1467.8
9384	13.861	0.54545	5.e-002	-25.29
9385	13.861	0.27273	0.	-1241.2
9386	13.768	0.36364	0.	-1384.1
9387	13.861	0.36364	5.e-002	-25.394
9388	13.768	0.18182	0.	-1329.4
9389	13.861	0.18182	5.e-002	-28.587
9390	13.861	9.0909e-002	0.	-1188.2
9391	13.676	5.7273	0.	-1473.2
9392	13.584	5.8182	0.	-1552.4
9393	13.676	5.8182	5.e-002	-25.723
9394	13.676	5.9091	0.	-1427.6
9395	13.676	5.5455	0.	-1538.5
9396	13.584	5.6364	0.	-1602.1
9397	13.676	5.6364	5.e-002	-22.903
9398	13.676	5.3636	0.	-1630.3
9399	13.584	5.4545	0.	-1674.6
9400	13.676	5.4545	5.e-002	-22.551
9401	13.676	5.1818	0.	-1748.6
9402	13.584	5.2727	0.	-1771.1
9403	13.676	5.2727	5.e-002	-22.291
9404	13.676	5.	0.	-1892.9
9405	13.584	5.0909	0.	-1891.4
9406	13.676	5.0909	5.e-002	-21.834
9407	13.676	4.8182	0.	-2061.6
9408	13.584	4.9091	0.	-2034.2
9409	13.676	4.9091	5.e-002	-20.948
9410	13.676	4.6364	0.	-2251.1
9411	13.584	4.7273	0.	-2196.9
9412	13.676	4.7273	5.e-002	-19.434
9413	13.676	4.4545	0.	-2454.7
9414	13.584	4.5455	0.	-2374.7
9415	13.676	4.5455	5.e-002	-17.31
9416	13.676	4.2727	0.	-2662.5
9417	13.584	4.3636	0.	-2559.8
9418	13.676	4.3636	5.e-002	-15.383
9419	13.676	4.0909	0.	-2862.9
9420	13.584	4.1818	0.	-2742.6
9421	13.676	4.1818	5.e-002	-15.
9422	13.676	3.9091	0.	-3044.9
9423	13.584	4.	0.	-2913.5
9424	13.676	4.	5.e-002	-16.057
9425	13.676	3.7273	0.	-3199.9
9426	13.584	3.8182	0.	-3064.5
9427	13.676	3.8182	5.e-002	-17.366
9428	13.676	3.5455	0.	-3321.6
9429	13.584	3.6364	0.	-3189.6
9430	13.676	3.6364	5.e-002	-18.34
9431	13.676	3.3636	0.	-3407.1
9432	13.584	3.4545	0.	-3284.3
9433	13.676	3.4545	5.e-002	-18.885
9434	13.676	3.1818	0.	-3456.9
9435	13.584	3.2727	0.	-3346.8
9436	13.676	3.2727	5.e-002	-18.978
9437	13.676	3.	0.	-3473.2
9438	13.584	3.0909	0.	-3377.6
9439	13.676	3.0909	5.e-002	-18.916
9440	13.676	2.8182	0.	-3456.9
9441	13.584	2.9091	0.	-3377.6
9442	13.676	2.9091	5.e-002	-18.916
9443	13.676	2.6364	0.	-3407.1
9444	13.584	2.7273	0.	-3346.8
9445	13.676	2.7273	5.e-002	-18.978
9446	13.676	2.4545	0.	-3321.6
9447	13.584	2.5455	0.	-3284.3
9448	13.676	2.5455	5.e-002	-18.885
9449	13.676	2.2727	0.	-3199.9
9450	13.584	2.3636	0.	-3189.6
9451	13.676	2.3636	5.e-002	-18.34
9452	13.676	2.0909	0.	-3044.9
9453	13.584	2.1818	0.	-3064.5
9454	13.676	2.1818	5.e-002	-17.366
9455	13.676	1.9091	0.	-2862.9
9456	13.584	2.	0.	-2913.5
9457	13.676	2.	5.e-002	-16.057
9458	13.676	1.7273	0.	-2662.5
9459	13.584	1.8182	0.	-2742.6
9460	13.676	1.8182	5.e-002	-15.
9461	13.676	1.5455	0.	-2454.7
9462	13.584	1.6364	0.	-2559.8
9463	13.676	1.6364	5.e-002	-15.383
9464	13.676	1.3636	0.	-2251.1
9465	13.584	1.4545	0.	-2374.7
9466	13.676	1.4545	5.e-002	-17.31
9467	13.676	1.1818	0.	-2061.6
9468	13.584	1.2727	0.	-2196.9
9469	13.676	1.2727	5.e-002	-19.434
9470	13.676	1.	0.	-1892.9
9471	13.584	1.0909	0.	-2034.2
9472	13.676	1.0909	5.e-002	-20.948
9473	13.676	0.81818	0.	-1748.6
9474	13.584	0.90909	0.	-1891.4
9475	13.676	0.90909	5.e-002	-21.834
9476	13.676	0.63636	0.	-1630.3
9477	13.584	0.72727	0.	-1771.1
9478	13.676	0.72727	5.e-002	-22.291
9479	13.676	0.45455	0.	-1538.5
9480	13.584	0.54545	0.	-1674.6
9481	13.676	0.54545	5.e-002	-22.551
9482	13.676	0.27273	0.	-1473.2
9483	13.584	0.36364	0.	-1602.1
9484	13.676	0.36364	5.e-002	-22.903
9485	13.584	0.18182	0.	-1552.4
9486	13.676	0.18182	5.e-002	-25.723
9487	13.676	9.0909e-002	0.	-1427.6
9488	13.491	5.7273	0.	-1681.9
9489	13.399	5.8182	0.	-1752.1
9490	13.491	5.8182	5.e-002	-22.673
9491	13.491	5.9091	0.	-1642.5
9492	13.491	5.5455	0.	-1739.5
9493	13.399	5.6364	0.	-1796.8
9494	13.491	5.6364	5.e-002	-20.368
9495	13.491	5.3636	0.	-1817.9
9496	13.399	5.4545	0.	-1859.5
9497	13.491	5.4545	5.e-002	-19.849
9498	13.491	5.1818	0.	-1917.4
9499	13.399	5.2727	0.	-1941.1
9500	13.491	5.2727	5.e-002	-19.291
9501	13.491	5.	0.	-2036.9
9502	13.399	5.0909	0.	-2041.2
9503	13.491	5.0909	5.e-002	-18.473
9504	13.491	4.8182	0.	-2174.
9505	13.399	4.9091	0.	-2158.
9506	13.491	4.9091	5.e-002	-17.274
9507	13.491	4.6364	0.	-2324.7
9508	13.399	4.7273	0.	-2288.5
9509	13.491	4.7273	5.e-002	-15.655
9510	13.491	4.4545	0.	-2483.2
9511	13.399	4.5455	0.	-2428.2
9512	13.491	4.5455	5.e-002	-13.807
9513	13.491	4.2727	0.	-2642.3
9514	13.399	4.3636	0.	-2571.1
9515	13.491	4.3636	5.e-002	-12.25
9516	13.491	4.0909	0.	-2794.7
9517	13.399	4.1818	0.	-2710.7
9518	13.491	4.1818	5.e-002	-11.577
9519	13.491	3.9091	0.	-2933.8
9520	13.399	4.	0.	-2841.2
9521	13.491	4.	5.e-002	-11.772
9522	13.491	3.7273	0.	-3054.4
9523	13.399	3.8182	0.	-2957.6
9524	13.491	3.8182	5.e-002	-12.378
9525	13.491	3.5455	0.	-3152.
9526	13.399	3.6364	0.	-3055.7
9527	13.491	3.6364	5.e-002	-13.093
9528	13.491	3.3636	0.	-3223.4
9529	13.399	3.4545	0.	-3132.2
9530	13.491	3.4545	5.e-002	-13.758
9531	13.491	3.1818	0.	-3266.6
9532	13.399	3.2727	0.	-3184.2
9533	13.491	3.2727	5.e-002	-14.227
9534	13.491	3.	0.	-3281.
9535	13.399	3.0909	0.	-3210.5
9536	13.491	3.0909	5.e-002	-14.451
9537	13.491	2.8182	0.	-3266.6
9538	13.399	2.9091	0.	-3210.5
9539	13.491	2.9091	5.e-002	-14.451
9540	13.491	2.6364	0.	-3223.4
9541	13.399	2.7273	0.	-3184.2
9542	13.491	2.7273	5.e-002	-14.227
9543	13.491	2.4545	0.	-3152.
9544	13.399	2.5455	0.	-3132.2
9545	13.491	2.5455	5.e-002	-13.758
9546	13.491	2.2727	0.	-3054.4
9547	13.399	2.3636	0.	-3055.7
9548	13.491	2.3636	5.e-002	-13.093
9549	13.491	2.0909	0.	-2933.8
9550	13.399	2.1818	0.	-2957.6
9551	13.491	2.1818	5.e-002	-12.378
9552	13.491	1.9091	0.	-2794.7
9553	13.399	2.	0.	-2841.2
9554	13.491	2.	5.e-002	-11.772
9555	13.491	1.7273	0.	-2642.3
9556	13.399	1.8182	0.	-2710.7
9557	13.491	1.8182	5.e-002	-11.577
9558	13.491	1.5455	0.	-2483.2
9559	13.399	1.6364	0.	-2571.1
9560	13.491	1.6364	5.e-002	-12.25
9561	13.491	1.3636	0.	-2324.7
9562	13.399	1.4545	0.	-2428.2
9563	13.491	1.4545	5.e-002	-13.807
9564	13.491	1.1818	0.	-2174.
9565	13.399	1.2727	0.	-2288.5
9566	13.491	1.2727	5.e-002	-15.655
9567	13.491	1.	0.	-2036.9
9568	13.399	1.0909	0.	-2158.
9569	13.491	1.0909	5.e-002	-17.274
9570	13.491	0.81818	0.	-1917.4
9571	13.399	0.90909	0.	-2041.2
9572	13.491	0.90909	5.e-002	-18.473
9573	13.491	0.63636	0.	-1817.9
9574	13.399	0.72727	0.	-1941.1
9575	13.491	0.72727	5.e-002	-19.291
9576	13.491	0.45455	0.	-1739.5
9577	13.399	0.54545	0.	-1859.5
9578	13.491	0.54545	5.e-002	-19.849
9579	13.491	0.27273	0.	-1681.9
9580	13.399	0.36364	0.	-1796.8
9581	13.491	0.36364	5.e-002	-20.368
9582	13.399	0.18182	0.	-1752.1
9583	13.491	0.18182	5.e-002	-22.673
9584	13.491	9.0909e-002	0.	-1642.5
9585	13.306	5.7273	0.	-1867.4
9586	13.214	5.8182	0.	-1929.3
9587	13.306	5.8182	5.e-002	-19.654
9588	13.306	5.9091	0.	-1833.4
9589	13.306	5.5455	0.	-1917.6
9590	13.214	5.6364	0.	-1968.9
9591	13.306	5.6364	5.e-002	-17.962
9592	13.306	5.3636	0.	-1984.1
9593	13.214	5.4545	0.	-2022.5
9594	13.306	5.4545	5.e-002	-17.371
9595	13.306	5.1818	0.	-2066.9
9596	13.214	5.2727	0.	-2091.
9597	13.306	5.2727	5.e-002	-16.677
9598	13.306	5.	0.	-2164.7
9599	13.214	5.0909	0.	-2173.3
9600	13.306	5.0909	5.e-002	-15.738
9601	13.306	4.8182	0.	-2275.1
9602	13.214	4.9091	0.	-2267.9
9603	13.306	4.9091	5.e-002	-14.509
9604	13.306	4.6364	0.	-2394.4
9605	13.214	4.7273	0.	-2371.9
9606	13.306	4.7273	5.e-002	-13.024
9607	13.306	4.4545	0.	-2518.1
9608	13.214	4.5455	0.	-2481.6
9609	13.306	4.5455	5.e-002	-11.45
9610	13.306	4.2727	0.	-2641.
9611	13.214	4.3636	0.	-2592.6
9612	13.306	4.3636	5.e-002	-10.097
9613	13.306	4.0909	0.	-2758.3
9614	13.214	4.1818	0.	-2700.3
9615	13.306	4.1818	5.e-002	-9.2486
9616	13.306	3.9091	0.	-2865.6
9617	13.214	4.	0.	-2800.9
9618	13.306	4.	5.e-002	-8.949
9619	13.306	3.7273	0.	-2959.2
9620	13.214	3.8182	0.	-2890.9
9621	13.306	3.8182	5.e-002	-9.046
9622	13.306	3.5455	0.	-3035.8
9623	13.214	3.6364	0.	-2967.2
9624	13.306	3.6364	5.e-002	-9.3968
9625	13.306	3.3636	0.	-3092.7
9626	13.214	3.4545	0.	-3027.2
9627	13.306	3.4545	5.e-002	-9.862
9628	13.306	3.1818	0.	-3127.7
9629	13.214	3.2727	0.	-3068.6
9630	13.306	3.2727	5.e-002	-10.281
9631	13.306	3.	0.	-3139.5
9632	13.214	3.0909	0.	-3089.7
9633	13.306	3.0909	5.e-002	-10.521
9634	13.306	2.8182	0.	-3127.7
9635	13.214	2.9091	0.	-3089.7
9636	13.306	2.9091	5.e-002	-10.521
9637	13.306	2.6364	0.	-3092.7
9638	13.214	2.7273	0.	-3068.6
9639	13.306	2.7273	5.e-002	-10.281
9640	13.306	2.4545	0.	-3035.8
9641	13.214	2.5455	0.	-3027.2
9642	13.306	2.5455	5.e-002	-9.8619
9643	13.306	2.2727	0.	-2959.2
9644	13.214	2.3636	0.	-2967.2
9645	13.306	2.3636	5.e-002	-9.3968
9646	13.306	2.0909	0.	-2865.6
9647	13.214	2.1818	0.	-2890.9
9648	13.306	2.1818	5.e-002	-9.046
9649	13.306	1.9091	0.	-2758.3
9650	13.214	2.	0.	-2800.9
9651	13.306	2.	5.e-002	-8.949
9652	13.306	1.7273	0.	-2641.
9653	13.214	1.8182	0.	-2700.3
9654	13.306	1.8182	5.e-002	-9.2487
9655	13.306	1.5455	0.	-2518.1
9656	13.214	1.6364	0.	-2592.6
9657	13.306	1.6364	5.e-002	-10.097
9658	13.306	1.3636	0.	-2394.4
9659	13.214	1.4545	0.	-2481.6
9660	13.306	1.4545	5.e-002	-11.45
9661	13.306	1.1818	0.	-2275.1
9662	13.214	1.2727	0.	-2371.9
9663	13.306	1.2727	5.e-002	-13.024
9664	13.306	1.	0.	-2164.7
9665	13.214	1.0909	0.	-2267.9
9666	13.306	1.0909	5.e-002	-14.509
9667	13.306	0.81818	0.	-2066.9
9668	13.214	0.90909	0.	-2173.3
9669	13.306	0.90909	5.e-002	-15.738
9670	13.306	0.63636	0.	-1984.1
9671	13.214	0.72727	0.	-2091.
9672	13.306	0.72727	5.e-002	-16.677
9673	13.306	0.45455	0.	-1917.6
9674	13.214	0.54545	0.	-2022.5
9675	13.306	0.54545	5.e-002	-17.371
9676	13.306	0.27273	0.	-1867.4
9677	13.214	0.36364	0.	-1968.9
9678	13.306	0.36364	5.e-002	-17.962
9679	13.214	0.18182	0.	-1929.3
9680	13.306	0.18182	5.e-002	-19.654
9681	13.306	9.0909e-002	0.	-1833.4
9682	13.122	5.7273	0.	-2031.1
9683	13.029	5.8182	0.	-2085.9
9684	13.122	5.8182	5.e-002	-16.817
9685	13.122	5.9091	0.	-2002.
9686	13.122	5.5455	0.	-2074.3
9687	13.029	5.6364	0.	-2120.3
9688	13.122	5.6364	5.e-002	-15.781
9689	13.122	5.3636	0.	-2130.3
9690	13.029	5.4545	0.	-2165.8
9691	13.122	5.4545	5.e-002	-15.196
9692	13.122	5.1818	0.	-2198.6
9693	13.029	5.2727	0.	-2222.6
9694	13.122	5.2727	5.e-002	-14.476
9695	13.122	5.	0.	-2278.
9696	13.029	5.0909	0.	-2289.9
9697	13.122	5.0909	5.e-002	-13.552
9698	13.122	4.8182	0.	-2366.3
9699	13.029	4.9091	0.	-2366.
9700	13.122	4.9091	5.e-002	-12.417
9701	13.122	4.6364	0.	-2460.6
9702	13.029	4.7273	0.	-2448.6
9703	13.122	4.7273	5.e-002	-11.121
9704	13.122	4.4545	0.	-2557.3
9705	13.029	4.5455	0.	-2534.8
9706	13.122	4.5455	5.e-002	-9.782
9707	13.122	4.2727	0.	-2652.8
9708	13.029	4.3636	0.	-2621.2
9709	13.122	4.3636	5.e-002	-8.5691
9710	13.122	4.0909	0.	-2743.6
9711	13.029	4.1818	0.	-2704.8
9712	13.122	4.1818	5.e-002	-7.63
9713	13.122	3.9091	0.	-2826.6
9714	13.029	4.	0.	-2782.6
9715	13.122	4.	5.e-002	-7.0224
9716	13.122	3.7273	0.	-2899.1
9717	13.029	3.8182	0.	-2852.2
9718	13.122	3.8182	5.e-002	-6.7297
9719	13.122	3.5455	0.	-2958.6
9720	13.029	3.6364	0.	-2911.2
9721	13.122	3.6364	5.e-002	-6.7096
9722	13.122	3.3636	0.	-3003.
9723	13.029	3.4545	0.	-2957.8
9724	13.122	3.4545	5.e-002	-6.8817
9725	13.122	3.1818	0.	-3030.4
9726	13.029	3.2727	0.	-2990.
9727	13.122	3.2727	5.e-002	-7.112
9728	13.122	3.	0.	-3039.7
9729	13.029	3.0909	0.	-3006.4
9730	13.122	3.0909	5.e-002	-7.2662
9731	13.122	2.8182	0.	-3030.4
9732	13.029	2.9091	0.	-3006.4
9733	13.122	2.9091	5.e-002	-7.2662
9734	13.122	2.6364	0.	-3003.
9735	13.029	2.7273	0.	-2990.
9736	13.122	2.7273	5.e-002	-7.1119
9737	13.122	2.4545	0.	-2958.6
9738	13.029	2.5455	0.	-2957.8
9739	13.122	2.5455	5.e-002	-6.8817
9740	13.122	2.2727	0.	-2899.1
9741	13.029	2.3636	0.	-2911.2
9742	13.122	2.3636	5.e-002	-6.7096
9743	13.122	2.0909	0.	-2826.6
9744	13.029	2.1818	0.	-2852.2
9745	13.122	2.1818	5.e-002	-6.7297
9746	13.122	1.9091	0.	-2743.6
9747	13.029	2.	0.	-2782.6
9748	13.122	2.	5.e-002	-7.0224
9749	13.122	1.7273	0.	-2652.8
9750	13.029	1.8182	0.	-2704.8
9751	13.122	1.8182	5.e-002	-7.63
9752	13.122	1.5455	0.	-2557.3
9753	13.029	1.6364	0.	-2621.2
9754	13.122	1.6364	5.e-002	-8.5691
9755	13.122	1.3636	0.	-2460.6
9756	13.029	1.4545	0.	-2534.8
9757	13.122	1.4545	5.e-002	-9.782
9758	13.122	1.1818	0.	-2366.3
9759	13.029	1.2727	0.	-2448.6
9760	13.122	1.2727	5.e-002	-11.121
9761	13.122	1.	0.	-2278.
9762	13.029	1.0909	0.	-2366.
9763	13.122	1.0909	5.e-002	-12.417
9764	13.122	0.81818	0.	-2198.6
9765	13.029	0.90909	0.	-2289.9
9766	13.122	0.90909	5.e-002	-13.552
9767	13.122	0.63636	0.	-2130.3
9768	13.029	0.72727	0.	-2222.6
9769	13.122	0.72727	5.e-002	-14.476
9770	13.122	0.45455	0.	-2074.3
9771	13.029	0.54545	0.	-2165.8
9772	13.122	0.54545	5.e-002	-15.196
9773	13.122	0.27273	0.	-2031.1
9774	13.029	0.36364	0.	-2120.3
9775	13.122	0.36364	5.e-002	-15.781
9776	13.029	0.18182	0.	-2085.9
9777	13.122	0.18182	5.e-002	-16.817
9778	13.122	9.0909e-002	0.	-2002.
9779	12.937	5.7273	0.	-2175.3
9780	12.844	5.8182	0.	-2224.2
9781	12.937	5.8182	5.e-002	-14.248
9782	12.937	5.9091	0.	-2150.5
9783	12.937	5.5455	0.	-2212.1
9784	12.844	5.6364	0.	-2253.7
9785	12.937	5.6364	5.e-002	-13.869
9786	12.937	5.3636	0.	-2258.7
9787	12.844	5.4545	0.	-2291.9
9788	12.937	5.4545	5.e-002	-13.34
9789	12.937	5.1818	0.	-2314.7
9790	12.844	5.2727	0.	-2338.7
9791	12.937	5.2727	5.e-002	-12.66
9792	12.937	5.	0.	-2378.8
9793	12.844	5.0909	0.	-2393.4
9794	12.937	5.0909	5.e-002	-11.815
9795	12.937	4.8182	0.	-2449.3
9796	12.844	4.9091	0.	-2454.4
9797	12.937	4.9091	5.e-002	-10.817
9798	12.937	4.6364	0.	-2523.7
9799	12.844	4.7273	0.	-2519.8
9800	12.937	4.7273	5.e-002	-9.708
9801	12.937	4.4545	0.	-2599.4
9802	12.844	4.5455	0.	-2587.5
9803	12.937	4.5455	5.e-002	-8.5643
9804	12.937	4.2727	0.	-2673.8
9805	12.844	4.3636	0.	-2654.9
9806	12.937	4.3636	5.e-002	-7.4757
9807	12.937	4.0909	0.	-2744.2
9808	12.844	4.1818	0.	-2719.9
9809	12.937	4.1818	5.e-002	-6.5175
9810	12.937	3.9091	0.	-2808.5
9811	12.844	4.	0.	-2780.1
9812	12.937	4.	5.e-002	-5.7326
9813	12.937	3.7273	0.	-2864.5
9814	12.844	3.8182	0.	-2833.9
9815	12.937	3.8182	5.e-002	-5.1466
9816	12.937	3.5455	0.	-2910.5
9817	12.844	3.6364	0.	-2879.5
9818	12.937	3.6364	5.e-002	-4.7812
9819	12.937	3.3636	0.	-2944.7
9820	12.844	3.4545	0.	-2915.3
9821	12.937	3.4545	5.e-002	-4.6285
9822	12.937	3.1818	0.	-2965.9
9823	12.844	3.2727	0.	-2940.1
9824	12.937	3.2727	5.e-002	-4.6187
9825	12.937	3.	0.	-2973.
9826	12.844	3.0909	0.	-2952.7
9827	12.937	3.0909	5.e-002	-4.6494
9828	12.937	2.8182	0.	-2965.9
9829	12.844	2.9091	0.	-2952.7
9830	12.937	2.9091	5.e-002	-4.6493
9831	12.937	2.6364	0.	-2944.7
9832	12.844	2.7273	0.	-2940.1
9833	12.937	2.7273	5.e-002	-4.6187
9834	12.937	2.4545	0.	-2910.5
9835	12.844	2.5455	0.	-2915.3
9836	12.937	2.5455	5.e-002	-4.6285
9837	12.937	2.2727	0.	-2864.5
9838	12.844	2.3636	0.	-2879.5
9839	12.937	2.3636	5.e-002	-4.7812
9840	12.937	2.0909	0.	-2808.5
9841	12.844	2.1818	0.	-2833.9
9842	12.937	2.1818	5.e-002	-5.1466
9843	12.937	1.9091	0.	-2744.2
9844	12.844	2.	0.	-2780.1
9845	12.937	2.	5.e-002	-5.7327
9846	12.937	1.7273	0.	-2673.8
9847	12.844	1.8182	0.	-2719.9
9848	12.937	1.8182	5.e-002	-6.5175
9849	12.937	1.5455	0.	-2599.4
9850	12.844	1.6364	0.	-2654.9
9851	12.937	1.6364	5.e-002	-7.4757
9852	12.937	1.3636	0.	-2523.7
9853	12.844	1.4545	0.	-2587.5
9854	12.937	1.4545	5.e-002	-8.5643
9855	12.937	1.1818	0.	-2449.3
9856	12.844	1.2727	0.	-2519.8
9857	12.937	1.2727	5.e-002	-9.708
9858	12.937	1.	0.	-2378.8
9859	12.844	1.0909	0.	-2454.4
9860	12.937	1.0909	5.e-002	-10.817
9861	12.937	0.81818	0.	-2314.7
9862	12.844	0.90909	0.	-2393.4
9863	12.937	0.90909	5.e-002	-11.815
9864	12.937	0.63636	0.	-2258.7
9865	12.844	0.72727	0.	-2338.7
9866	12.937	0.72727	5.e-002	-12.66
9867	12.937	0.45455	0.	-2212.1
9868	12.844	0.54545	0.	-2291.9
9869	12.937	0.54545	5.e-002	-13.34
9870	12.937	0.27273	0.	-2175.3
9871	12.844	0.36364	0.	-2253.7
9872	12.937	0.36364	5.e-002	-13.869
9873	12.844	0.18182	0.	-2224.2
9874	12.937	0.18182	5.e-002	-14.248
9875	12.937	9.0909e-002	0.	-2150.5
9876	12.752	5.7273	0.	-2302.7
9877	12.659	5.8182	0.	-2346.8
9878	12.752	5.8182	5.e-002	-11.985
9879	12.752	5.9091	0.	-2281.7
9880	12.752	5.5455	0.	-2333.7
9881	12.659	5.6364	0.	-2371.7
9882	12.752	5.6364	5.e-002	-12.232
9883	12.752	5.3636	0.	-2372.2
9884	12.659	5.4545	0.	-2403.4
9885	12.752	5.4545	5.e-002	-11.788
9886	12.752	5.1818	0.	-2417.8
9887	12.659	5.2727	0.	-2441.8
9888	12.752	5.2727	5.e-002	-11.179
9889	12.752	5.	0.	-2469.4
9890	12.659	5.0909	0.	-2486.
9891	12.752	5.0909	5.e-002	-10.437
9892	12.752	4.8182	0.	-2525.4
9893	12.659	4.9091	0.	-2534.7
9894	12.752	4.9091	5.e-002	-9.5815
9895	12.752	4.6364	0.	-2584.1
9896	12.659	4.7273	0.	-2586.5
9897	12.752	4.7273	5.e-002	-8.6429
9898	12.752	4.4545	0.	-2643.4
9899	12.659	4.5455	0.	-2639.6
9900	12.752	4.5455	5.e-002	-7.6669
9901	12.752	4.2727	0.	-2701.4
9902	12.659	4.3636	0.	-2692.3
9903	12.752	4.3636	5.e-002	-6.7008
9904	12.752	4.0909	0.	-2756.
9905	12.659	4.1818	0.	-2742.7
9906	12.752	4.1818	5.e-002	-5.7802
9907	12.752	3.9091	0.	-2805.8
9908	12.659	4.	0.	-2789.4
9909	12.752	4.	5.e-002	-4.9268
9910	12.752	3.7273	0.	-2849.
9911	12.659	3.8182	0.	-2830.9
9912	12.752	3.8182	5.e-002	-4.1598
9913	12.752	3.5455	0.	-2884.4
9914	12.659	3.6364	0.	-2866.
9915	12.752	3.6364	5.e-002	-3.5115
9916	12.752	3.3636	0.	-2910.7
9917	12.659	3.4545	0.	-2893.5
9918	12.752	3.4545	5.e-002	-3.0231
9919	12.752	3.1818	0.	-2926.9
9920	12.659	3.2727	0.	-2912.5
9921	12.752	3.2727	5.e-002	-2.7176
9922	12.752	3.	0.	-2932.4
9923	12.659	3.0909	0.	-2922.1
9924	12.752	3.0909	5.e-002	-2.5795
9925	12.752	2.8182	0.	-2926.9
9926	12.659	2.9091	0.	-2922.1
9927	12.752	2.9091	5.e-002	-2.5795
9928	12.752	2.6364	0.	-2910.7
9929	12.659	2.7273	0.	-2912.5
9930	12.752	2.7273	5.e-002	-2.7176
9931	12.752	2.4545	0.	-2884.4
9932	12.659	2.5455	0.	-2893.5
9933	12.752	2.5455	5.e-002	-3.0231
9934	12.752	2.2727	0.	-2849.
9935	12.659	2.3636	0.	-2866.
9936	12.752	2.3636	5.e-002	-3.5115
9937	12.752	2.0909	0.	-2805.8
9938	12.659	2.1818	0.	-2830.9
9939	12.752	2.1818	5.e-002	-4.1598
9940	12.752	1.9091	0.	-2756.
9941	12.659	2.	0.	-2789.4
9942	12.752	2.	5.e-002	-4.9268
9943	12.752	1.7273	0.	-2701.4
9944	12.659	1.8182	0.	-2742.7
9945	12.752	1.8182	5.e-002	-5.7802
9946	12.752	1.5455	0.	-2643.4
9947	12.659	1.6364	0.	-2692.3
9948	12.752	1.6364	5.e-002	-6.7008
9949	12.752	1.3636	0.	-2584.1
9950	12.659	1.4545	0.	-2639.6
9951	12.752	1.4545	5.e-002	-7.6669
9952	12.752	1.1818	0.	-2525.4
9953	12.659	1.2727	0.	-2586.5
9954	12.752	1.2727	5.e-002	-8.6428
9955	12.752	1.	0.	-2469.4
9956	12.659	1.0909	0.	-2534.7
9957	12.752	1.0909	5.e-002	-9.5814
9958	12.752	0.81818	0.	-2417.8
9959	12.659	0.90909	0.	-2486.
9960	12.752	0.90909	5.e-002	-10.437
9961	12.752	0.63636	0.	-2372.2
9962	12.659	0.72727	0.	-2441.8
9963	12.752	0.72727	5.e-002	-11.178
9964	12.752	0.45455	0.	-2333.7
9965	12.659	0.54545	0.	-2403.4
9966	12.752	0.54545	5.e-002	-11.788
9967	12.752	0.27273	0.	-2302.7
9968	12.659	0.36364	0.	-2371.7
9969	12.752	0.36364	5.e-002	-12.232
9970	12.659	0.18182	0.	-2346.8
9971	12.752	0.18182	5.e-002	-11.985
9972	12.752	9.0909e-002	0.	-2281.7
9973	12.567	5.7273	0.	-2415.8
9974	12.475	5.8182	0.	-2456.
9975	12.567	5.8182	5.e-002	-10.031
9976	12.567	5.9091	0.	-2398.
9977	12.567	5.5455	0.	-2441.6
9978	12.475	5.6364	0.	-2476.8
9979	12.567	5.6364	5.e-002	-10.855
9980	12.567	5.3636	0.	-2473.3
9981	12.475	5.4545	0.	-2503.
9982	12.567	5.4545	5.e-002	-10.505
9983	12.567	5.1818	0.	-2510.2
9984	12.475	5.2727	0.	-2534.3
9985	12.567	5.2727	5.e-002	-9.9791
9986	12.567	5.	0.	-2551.6
9987	12.475	5.0909	0.	-2569.8
9988	12.567	5.0909	5.e-002	-9.3456
9989	12.567	4.8182	0.	-2596.1
9990	12.475	4.9091	0.	-2608.6
9991	12.567	4.9091	5.e-002	-8.6232
9992	12.567	4.6364	0.	-2642.3
9993	12.475	4.7273	0.	-2649.6
9994	12.567	4.7273	5.e-002	-7.8343
9995	12.567	4.4545	0.	-2688.7
9996	12.475	4.5455	0.	-2691.2
9997	12.567	4.5455	5.e-002	-7.006
9998	12.567	4.2727	0.	-2733.9
9999	12.475	4.3636	0.	-2732.3
10000	12.567	4.3636	5.e-002	-6.1629
10001	12.567	4.0909	0.	-2776.3
10002	12.475	4.1818	0.	-2771.5
10003	12.567	4.1818	5.e-002	-5.3213
10004	12.567	3.9091	0.	-2814.7
10005	12.475	4.	0.	-2807.7
10006	12.567	4.	5.e-002	-4.4883
10007	12.567	3.7273	0.	-2848.
10008	12.475	3.8182	0.	-2839.7
10009	12.567	3.8182	5.e-002	-3.6689
10010	12.567	3.5455	0.	-2875.2
10011	12.475	3.6364	0.	-2866.6
10012	12.567	3.6364	5.e-002	-2.8731
10013	12.567	3.3636	0.	-2895.3
10014	12.475	3.4545	0.	-2887.7
10015	12.567	3.4545	5.e-002	-2.1214
10016	12.567	3.1818	0.	-2907.7
10017	12.475	3.2727	0.	-2902.1
10018	12.567	3.2727	5.e-002	-1.4542
10019	12.567	3.	0.	-2911.9
10020	12.475	3.0909	0.	-2909.5
10021	12.567	3.0909	5.e-002	-0.98536
10022	12.567	2.8182	0.	-2907.7
10023	12.475	2.9091	0.	-2909.5
10024	12.567	2.9091	5.e-002	-0.98538
10025	12.567	2.6364	0.	-2895.3
10026	12.475	2.7273	0.	-2902.1
10027	12.567	2.7273	5.e-002	-1.4542
10028	12.567	2.4545	0.	-2875.2
10029	12.475	2.5455	0.	-2887.7
10030	12.567	2.5455	5.e-002	-2.1214
10031	12.567	2.2727	0.	-2848.
10032	12.475	2.3636	0.	-2866.6
10033	12.567	2.3636	5.e-002	-2.8731
10034	12.567	2.0909	0.	-2814.7
10035	12.475	2.1818	0.	-2839.7
10036	12.567	2.1818	5.e-002	-3.6689
10037	12.567	1.9091	0.	-2776.3
10038	12.475	2.	0.	-2807.7
10039	12.567	2.	5.e-002	-4.4883
10040	12.567	1.7273	0.	-2733.9
10041	12.475	1.8182	0.	-2771.5
10042	12.567	1.8182	5.e-002	-5.3212
10043	12.567	1.5455	0.	-2688.7
10044	12.475	1.6364	0.	-2732.3
10045	12.567	1.6364	5.e-002	-6.1629
10046	12.567	1.3636	0.	-2642.3
10047	12.475	1.4545	0.	-2691.2
10048	12.567	1.4545	5.e-002	-7.006
10049	12.567	1.1818	0.	-2596.1
10050	12.475	1.2727	0.	-2649.6
10051	12.567	1.2727	5.e-002	-7.8342
10052	12.567	1.	0.	-2551.6
10053	12.475	1.0909	0.	-2608.6
10054	12.567	1.0909	5.e-002	-8.6231
10055	12.567	0.81818	0.	-2510.2
10056	12.475	0.90909	0.	-2569.8
10057	12.567	0.90909	5.e-002	-9.3455
10058	12.567	0.63636	0.	-2473.3
10059	12.475	0.72727	0.	-2534.3
10060	12.567	0.72727	5.e-002	-9.979
10061	12.567	0.45455	0.	-2441.6
10062	12.475	0.54545	0.	-2503.
10063	12.567	0.54545	5.e-002	-10.505
10064	12.567	0.27273	0.	-2415.8
10065	12.475	0.36364	0.	-2476.8
10066	12.567	0.36364	5.e-002	-10.855
10067	12.475	0.18182	0.	-2456.
10068	12.567	0.18182	5.e-002	-10.031
10069	12.567	9.0909e-002	0.	-2398.
10070	12.382	5.7273	0.	-2517.
10071	12.29	5.8182	0.	-2554.2
10072	12.382	5.8182	5.e-002	-8.3703
10073	12.382	5.9091	0.	-2501.9
10074	12.382	5.5455	0.	-2538.3
10075	12.29	5.6364	0.	-2571.3
10076	12.382	5.6364	5.e-002	-9.7101
10077	12.382	5.3636	0.	-2564.1
10078	12.29	5.4545	0.	-2592.8
10079	12.382	5.4545	5.e-002	-9.4561
10080	12.382	5.1818	0.	-2594.
10081	12.29	5.2727	0.	-2618.1
10082	12.382	5.2727	5.e-002	-9.0134
10083	12.382	5.	0.	-2627.1
10084	12.29	5.0909	0.	-2646.6
10085	12.382	5.0909	5.e-002	-8.4814
10086	12.382	4.8182	0.	-2662.3
10087	12.29	4.9091	0.	-2677.5
10088	12.382	4.9091	5.e-002	-7.8783
10089	12.382	4.6364	0.	-2698.7
10090	12.29	4.7273	0.	-2709.8
10091	12.382	4.7273	5.e-002	-7.2197
10092	12.382	4.4545	0.	-2735.
10093	12.29	4.5455	0.	-2742.4
10094	12.382	4.5455	5.e-002	-6.5224
10095	12.382	4.2727	0.	-2770.1
10096	12.29	4.3636	0.	-2774.4
10097	12.382	4.3636	5.e-002	-5.8001
10098	12.382	4.0909	0.	-2803.
10099	12.29	4.1818	0.	-2804.9
10100	12.382	4.1818	5.e-002	-5.0611
10101	12.382	3.9091	0.	-2832.7
10102	12.29	4.	0.	-2832.8
10103	12.382	4.	5.e-002	-4.3087
10104	12.382	3.7273	0.	-2858.3
10105	12.29	3.8182	0.	-2857.4
10106	12.382	3.8182	5.e-002	-3.5445
10107	12.382	3.5455	0.	-2879.1
10108	12.29	3.6364	0.	-2878.1
10109	12.382	3.6364	5.e-002	-2.7719
10110	12.382	3.3636	0.	-2894.5
10111	12.29	3.4545	0.	-2894.2
10112	12.382	3.4545	5.e-002	-1.9983
10113	12.382	3.1818	0.	-2903.9
10114	12.29	3.2727	0.	-2905.2
10115	12.382	3.2727	5.e-002	-1.2378
10116	12.382	3.	0.	-2907.1
10117	12.29	3.0909	0.	-2910.8
10118	12.382	3.0909	5.e-002	-0.55293
10119	12.382	2.8182	0.	-2903.9
10120	12.29	2.9091	0.	-2910.8
10121	12.382	2.9091	5.e-002	-0.55292
10122	12.382	2.6364	0.	-2894.5
10123	12.29	2.7273	0.	-2905.2
10124	12.382	2.7273	5.e-002	-1.2378
10125	12.382	2.4545	0.	-2879.1
10126	12.29	2.5455	0.	-2894.2
10127	12.382	2.5455	5.e-002	-1.9983
10128	12.382	2.2727	0.	-2858.3
10129	12.29	2.3636	0.	-2878.1
10130	12.382	2.3636	5.e-002	-2.7719
10131	12.382	2.0909	0.	-2832.7
10132	12.29	2.1818	0.	-2857.4
10133	12.382	2.1818	5.e-002	-3.5445
10134	12.382	1.9091	0.	-2803.
10135	12.29	2.	0.	-2832.8
10136	12.382	2.	5.e-002	-4.3087
10137	12.382	1.7273	0.	-2770.1
10138	12.29	1.8182	0.	-2804.9
10139	12.382	1.8182	5.e-002	-5.0611
10140	12.382	1.5455	0.	-2735.
10141	12.29	1.6364	0.	-2774.4
10142	12.382	1.6364	5.e-002	-5.8
10143	12.382	1.3636	0.	-2698.7
10144	12.29	1.4545	0.	-2742.4
10145	12.382	1.4545	5.e-002	-6.5223
10146	12.382	1.1818	0.	-2662.3
10147	12.29	1.2727	0.	-2709.8
10148	12.382	1.2727	5.e-002	-7.2197
10149	12.382	1.	0.	-2627.1
10150	12.29	1.0909	0.	-2677.5
10151	12.382	1.0909	5.e-002	-7.8782
10152	12.382	0.81818	0.	-2594.
10153	12.29	0.90909	0.	-2646.6
10154	12.382	0.90909	5.e-002	-8.4814
10155	12.382	0.63636	0.	-2564.1
10156	12.29	0.72727	0.	-2618.1
10157	12.382	0.72727	5.e-002	-9.0134
10158	12.382	0.45455	0.	-2538.3
10159	12.29	0.54545	0.	-2592.8
10160	12.382	0.54545	5.e-002	-9.4561
10161	12.382	0.27273	0.	-2517.
10162	12.29	0.36364	0.	-2571.3
10163	12.382	0.36364	5.e-002	-9.7101
10164	12.29	0.18182	0.	-2554.2
10165	12.382	0.18182	5.e-002	-8.3702
10166	12.382	9.0909e-002	0.	-2501.9
10167	12.197	5.7273	0.	-2608.4
10168	12.105	5.8182	0.	-2643.2
10169	12.197	5.8182	5.e-002	-6.9739
10170	12.197	5.9091	0.	-2595.6
10171	12.197	5.5455	0.	-2625.8
10172	12.105	5.6364	0.	-2657.2
10173	12.197	5.6364	5.e-002	-8.769
10174	12.197	5.3636	0.	-2646.8
10175	12.105	5.4545	0.	-2674.6
10176	12.197	5.4545	5.e-002	-8.6039
10177	12.197	5.1818	0.	-2670.8
10178	12.105	5.2727	0.	-2695.1
10179	12.197	5.2727	5.e-002	-8.2392
10180	12.197	5.	0.	-2697.2
10181	12.105	5.0909	0.	-2717.9
10182	12.197	5.0909	5.e-002	-7.7983
10183	12.197	4.8182	0.	-2725.1
10184	12.105	4.9091	0.	-2742.3
10185	12.197	4.9091	5.e-002	-7.2992
10186	12.197	4.6364	0.	-2753.6
10187	12.105	4.7273	0.	-2767.7
10188	12.197	4.7273	5.e-002	-6.7533
10189	12.197	4.4545	0.	-2782.
10190	12.105	4.5455	0.	-2793.3
10191	12.197	4.5455	5.e-002	-6.1717
10192	12.197	4.2727	0.	-2809.3
10193	12.105	4.3636	0.	-2818.2
10194	12.197	4.3636	5.e-002	-5.5634
10195	12.197	4.0909	0.	-2834.7
10196	12.105	4.1818	0.	-2841.8
10197	12.197	4.1818	5.e-002	-4.9348
10198	12.197	3.9091	0.	-2857.6
10199	12.105	4.	0.	-2863.3
10200	12.197	4.	5.e-002	-4.2906
10201	12.197	3.7273	0.	-2877.3
10202	12.105	3.8182	0.	-2882.2
10203	12.197	3.8182	5.e-002	-3.6369
10204	12.197	3.5455	0.	-2893.2
10205	12.105	3.6364	0.	-2898.1
10206	12.197	3.6364	5.e-002	-2.9857
10207	12.197	3.3636	0.	-2904.9
10208	12.105	3.4545	0.	-2910.3
10209	12.197	3.4545	5.e-002	-2.3617
10210	12.197	3.1818	0.	-2912.1
10211	12.105	3.2727	0.	-2918.7
10212	12.197	3.2727	5.e-002	-1.8179
10213	12.197	3.	0.	-2914.5
10214	12.105	3.0909	0.	-2923.
10215	12.197	3.0909	5.e-002	-1.4678
10216	12.197	2.8182	0.	-2912.1
10217	12.105	2.9091	0.	-2923.
10218	12.197	2.9091	5.e-002	-1.4678
10219	12.197	2.6364	0.	-2904.9
10220	12.105	2.7273	0.	-2918.7
10221	12.197	2.7273	5.e-002	-1.8179
10222	12.197	2.4545	0.	-2893.2
10223	12.105	2.5455	0.	-2910.3
10224	12.197	2.5455	5.e-002	-2.3616
10225	12.197	2.2727	0.	-2877.3
10226	12.105	2.3636	0.	-2898.1
10227	12.197	2.3636	5.e-002	-2.9857
10228	12.197	2.0909	0.	-2857.6
10229	12.105	2.1818	0.	-2882.2
10230	12.197	2.1818	5.e-002	-3.6369
10231	12.197	1.9091	0.	-2834.7
10232	12.105	2.	0.	-2863.3
10233	12.197	2.	5.e-002	-4.2906
10234	12.197	1.7273	0.	-2809.3
10235	12.105	1.8182	0.	-2841.8
10236	12.197	1.8182	5.e-002	-4.9348
10237	12.197	1.5455	0.	-2782.
10238	12.105	1.6364	0.	-2818.2
10239	12.197	1.6364	5.e-002	-5.5634
10240	12.197	1.3636	0.	-2753.6
10241	12.105	1.4545	0.	-2793.3
10242	12.197	1.4545	5.e-002	-6.1716
10243	12.197	1.1818	0.	-2725.1
10244	12.105	1.2727	0.	-2767.7
10245	12.197	1.2727	5.e-002	-6.7533
10246	12.197	1.	0.	-2697.2
10247	12.105	1.0909	0.	-2742.3
10248	12.197	1.0909	5.e-002	-7.2992
10249	12.197	0.81818	0.	-2670.8
10250	12.105	0.90909	0.	-2717.9
10251	12.197	0.90909	5.e-002	-7.7983
10252	12.197	0.63636	0.	-2646.8
10253	12.105	0.72727	0.	-2695.1
10254	12.197	0.72727	5.e-002	-8.2392
10255	12.197	0.45455	0.	-2625.8
10256	12.105	0.54545	0.	-2674.6
10257	12.197	0.54545	5.e-002	-8.6039
10258	12.197	0.27273	0.	-2608.4
10259	12.105	0.36364	0.	-2657.2
10260	12.197	0.36364	5.e-002	-8.7689
10261	12.105	0.18182	0.	-2643.2
10262	12.197	0.18182	5.e-002	-6.9738
10263	12.197	9.0909e-002	0.	-2595.6
10264	12.013	5.7273	0.	-2691.9
10265	11.92	5.8182	0.	-2724.8
10266	12.013	5.8182	5.e-002	-5.8105
10267	12.013	5.9091	0.	-2680.9
10268	12.013	5.5455	0.	-2706.
10269	11.92	5.6364	0.	-2736.
10270	12.013	5.6364	5.e-002	-8.0014
10271	12.013	5.3636	0.	-2722.9
10272	11.92	5.4545	0.	-2750.1
10273	12.013	5.4545	5.e-002	-7.916
10274	12.013	5.1818	0.	-2742.2
10275	11.92	5.2727	0.	-2766.5
10276	12.013	5.2727	5.e-002	-7.6207
10277	12.013	5.	0.	-2763.1
10278	11.92	5.0909	0.	-2784.7
10279	12.013	5.0909	5.e-002	-7.2593
10280	12.013	4.8182	0.	-2785.1
10281	11.92	4.9091	0.	-2804.
10282	12.013	4.9091	5.e-002	-6.8495
10283	12.013	4.6364	0.	-2807.5
10284	11.92	4.7273	0.	-2824.
10285	12.013	4.7273	5.e-002	-6.4002
10286	12.013	4.4545	0.	-2829.6
10287	11.92	4.5455	0.	-2843.9
10288	12.013	4.5455	5.e-002	-5.9197
10289	12.013	4.2727	0.	-2850.7
10290	11.92	4.3636	0.	-2863.3
10291	12.013	4.3636	5.e-002	-5.415
10292	12.013	4.0909	0.	-2870.4
10293	11.92	4.1818	0.	-2881.5
10294	12.013	4.1818	5.e-002	-4.8928
10295	12.013	3.9091	0.	-2888.
10296	11.92	4.	0.	-2898.1
10297	12.013	4.	5.e-002	-4.36
10298	12.013	3.7273	0.	-2903.
10299	11.92	3.8182	0.	-2912.6
10300	12.013	3.8182	5.e-002	-3.8271
10301	12.013	3.5455	0.	-2915.2
10302	11.92	3.6364	0.	-2924.6
10303	12.013	3.6364	5.e-002	-3.3117
10304	12.013	3.3636	0.	-2924.1
10305	11.92	3.4545	0.	-2934.
10306	12.013	3.4545	5.e-002	-2.8436
10307	12.013	3.1818	0.	-2929.6
10308	11.92	3.2727	0.	-2940.4
10309	12.013	3.2727	5.e-002	-2.4706
10310	12.013	3.	0.	-2931.4
10311	11.92	3.0909	0.	-2943.6
10312	12.013	3.0909	5.e-002	-2.257
10313	12.013	2.8182	0.	-2929.6
10314	11.92	2.9091	0.	-2943.6
10315	12.013	2.9091	5.e-002	-2.257
10316	12.013	2.6364	0.	-2924.1
10317	11.92	2.7273	0.	-2940.4
10318	12.013	2.7273	5.e-002	-2.4706
10319	12.013	2.4545	0.	-2915.2
10320	11.92	2.5455	0.	-2934.
10321	12.013	2.5455	5.e-002	-2.8436
10322	12.013	2.2727	0.	-2903.
10323	11.92	2.3636	0.	-2924.6
10324	12.013	2.3636	5.e-002	-3.3116
10325	12.013	2.0909	0.	-2888.
10326	11.92	2.1818	0.	-2912.6
10327	12.013	2.1818	5.e-002	-3.8271
10328	12.013	1.9091	0.	-2870.4
10329	11.92	2.	0.	-2898.1
10330	12.013	2.	5.e-002	-4.36
10331	12.013	1.7273	0.	-2850.7
10332	11.92	1.8182	0.	-2881.5
10333	12.013	1.8182	5.e-002	-4.8928
10334	12.013	1.5455	0.	-2829.6
10335	11.92	1.6364	0.	-2863.3
10336	12.013	1.6364	5.e-002	-5.415
10337	12.013	1.3636	0.	-2807.5
10338	11.92	1.4545	0.	-2843.9
10339	12.013	1.4545	5.e-002	-5.9196
10340	12.013	1.1818	0.	-2785.1
10341	11.92	1.2727	0.	-2824.
10342	12.013	1.2727	5.e-002	-6.4002
10343	12.013	1.	0.	-2763.1
10344	11.92	1.0909	0.	-2804.
10345	12.013	1.0909	5.e-002	-6.8495
10346	12.013	0.81818	0.	-2742.2
10347	11.92	0.90909	0.	-2784.7
10348	12.013	0.90909	5.e-002	-7.2593
10349	12.013	0.63636	0.	-2722.9
10350	11.92	0.72727	0.	-2766.5
10351	12.013	0.72727	5.e-002	-7.6206
10352	12.013	0.45455	0.	-2706.
10353	11.92	0.54545	0.	-2750.1
10354	12.013	0.54545	5.e-002	-7.916
10355	12.013	0.27273	0.	-2691.9
10356	11.92	0.36364	0.	-2736.
10357	12.013	0.36364	5.e-002	-8.0013
10358	11.92	0.18182	0.	-2724.8
10359	12.013	0.18182	5.e-002	-5.8104
10360	12.013	9.0909e-002	0.	-2680.9
10361	11.828	5.7273	0.	-2768.8
10362	11.735	5.8182	0.	-2800.3
10363	11.828	5.8182	5.e-002	-4.8482
10364	11.828	5.9091	0.	-2759.5
10365	11.828	5.5455	0.	-2780.2
10366	11.735	5.6364	0.	-2809.2
10367	11.828	5.6364	5.e-002	-7.3801
10368	11.828	5.3636	0.	-2793.8
10369	11.735	5.4545	0.	-2820.6
10370	11.828	5.4545	5.e-002	-7.3638
10371	11.828	5.1818	0.	-2809.1
10372	11.735	5.2727	0.	-2833.7
10373	11.828	5.2727	5.e-002	-7.1284
10374	11.828	5.	0.	-2825.7
10375	11.735	5.0909	0.	-2848.1
10376	11.828	5.0909	5.e-002	-6.8351
10377	11.828	4.8182	0.	-2843.
10378	11.735	4.9091	0.	-2863.3
10379	11.828	4.9091	5.e-002	-6.5012
10380	11.828	4.6364	0.	-2860.5
10381	11.735	4.7273	0.	-2878.9
10382	11.828	4.7273	5.e-002	-6.134
10383	11.828	4.4545	0.	-2877.7
10384	11.735	4.5455	0.	-2894.4
10385	11.828	4.5455	5.e-002	-5.7405
10386	11.828	4.2727	0.	-2894.
10387	11.735	4.3636	0.	-2909.4
10388	11.828	4.3636	5.e-002	-5.327
10389	11.828	4.0909	0.	-2909.2
10390	11.735	4.1818	0.	-2923.4
10391	11.828	4.1818	5.e-002	-4.9003
10392	11.828	3.9091	0.	-2922.7
10393	11.735	4.	0.	-2936.2
10394	11.828	4.	5.e-002	-4.469
10395	11.828	3.7273	0.	-2934.2
10396	11.735	3.8182	0.	-2947.3
10397	11.828	3.8182	5.e-002	-4.0448
10398	11.828	3.5455	0.	-2943.4
10399	11.735	3.6364	0.	-2956.5
10400	11.828	3.6364	5.e-002	-3.6458
10401	11.828	3.3636	0.	-2950.2
10402	11.735	3.4545	0.	-2963.5
10403	11.828	3.4545	5.e-002	-3.2975
10404	11.828	3.1818	0.	-2954.4
10405	11.735	3.2727	0.	-2968.4
10406	11.828	3.2727	5.e-002	-3.0335
10407	11.828	3.	0.	-2955.7
10408	11.735	3.0909	0.	-2970.8
10409	11.828	3.0909	5.e-002	-2.8892
10410	11.828	2.8182	0.	-2954.4
10411	11.735	2.9091	0.	-2970.8
10412	11.828	2.9091	5.e-002	-2.8892
10413	11.828	2.6364	0.	-2950.2
10414	11.735	2.7273	0.	-2968.4
10415	11.828	2.7273	5.e-002	-3.0335
10416	11.828	2.4545	0.	-2943.4
10417	11.735	2.5455	0.	-2963.5
10418	11.828	2.5455	5.e-002	-3.2975
10419	11.828	2.2727	0.	-2934.2
10420	11.735	2.3636	0.	-2956.5
10421	11.828	2.3636	5.e-002	-3.6458
10422	11.828	2.0909	0.	-2922.7
10423	11.735	2.1818	0.	-2947.3
10424	11.828	2.1818	5.e-002	-4.0448
10425	11.828	1.9091	0.	-2909.2
10426	11.735	2.	0.	-2936.2
10427	11.828	2.	5.e-002	-4.4689
10428	11.828	1.7273	0.	-2894.
10429	11.735	1.8182	0.	-2923.4
10430	11.828	1.8182	5.e-002	-4.9003
10431	11.828	1.5455	0.	-2877.7
10432	11.735	1.6364	0.	-2909.4
10433	11.828	1.6364	5.e-002	-5.327
10434	11.828	1.3636	0.	-2860.5
10435	11.735	1.4545	0.	-2894.4
10436	11.828	1.4545	5.e-002	-5.7404
10437	11.828	1.1818	0.	-2843.
10438	11.735	1.2727	0.	-2878.9
10439	11.828	1.2727	5.e-002	-6.134
10440	11.828	1.	0.	-2825.7
10441	11.735	1.0909	0.	-2863.3
10442	11.828	1.0909	5.e-002	-6.5011
10443	11.828	0.81818	0.	-2809.1
10444	11.735	0.90909	0.	-2848.1
10445	11.828	0.90909	5.e-002	-6.8351
10446	11.828	0.63636	0.	-2793.8
10447	11.735	0.72727	0.	-2833.7
10448	11.828	0.72727	5.e-002	-7.1284
10449	11.828	0.45455	0.	-2780.2
10450	11.735	0.54545	0.	-2820.6
10451	11.828	0.54545	5.e-002	-7.3637
10452	11.828	0.27273	0.	-2768.8
10453	11.735	0.36364	0.	-2809.2
10454	11.828	0.36364	5.e-002	-7.38
10455	11.735	0.18182	0.	-2800.3
10456	11.828	0.18182	5.e-002	-4.8481
10457	11.828	9.0909e-002	0.	-2759.5
10458	11.643	5.7273	0.	-2840.6
10459	11.551	5.8182	0.	-2871.1
10460	11.643	5.8182	5.e-002	-4.057
10461	11.643	5.9091	0.	-2832.7
10462	11.643	5.5455	0.	-2849.6
10463	11.551	5.6364	0.	-2878.
10464	11.643	5.6364	5.e-002	-6.8806
10465	11.643	5.3636	0.	-2860.5
10466	11.551	5.4545	0.	-2887.
10467	11.643	5.4545	5.e-002	-6.9227
10468	11.643	5.1818	0.	-2872.7
10469	11.551	5.2727	0.	-2897.4
10470	11.643	5.2727	5.e-002	-6.7382
10471	11.643	5.	0.	-2885.7
10472	11.551	5.0909	0.	-2908.8
10473	11.643	5.0909	5.e-002	-6.5022
10474	11.643	4.8182	0.	-2899.3
10475	11.551	4.9091	0.	-2920.7
10476	11.643	4.9091	5.e-002	-6.232
10477	11.643	4.6364	0.	-2912.9
10478	11.551	4.7273	0.	-2932.9
10479	11.643	4.7273	5.e-002	-5.9341
10480	11.643	4.4545	0.	-2926.2
10481	11.551	4.5455	0.	-2944.9
10482	11.643	4.5455	5.e-002	-5.6144
10483	11.643	4.2727	0.	-2938.8
10484	11.551	4.3636	0.	-2956.5
10485	11.643	4.3636	5.e-002	-5.279
10486	11.643	4.0909	0.	-2950.4
10487	11.551	4.1818	0.	-2967.2
10488	11.643	4.1818	5.e-002	-4.9345
10489	11.643	3.9091	0.	-2960.8
10490	11.551	4.	0.	-2976.9
10491	11.643	4.	5.e-002	-4.5896
10492	11.643	3.7273	0.	-2969.5
10493	11.551	3.8182	0.	-2985.4
10494	11.643	3.8182	5.e-002	-4.2558
10495	11.643	3.5455	0.	-2976.6
10496	11.551	3.6364	0.	-2992.4
10497	11.643	3.6364	5.e-002	-3.9486
10498	11.643	3.3636	0.	-2981.7
10499	11.551	3.4545	0.	-2997.7
10500	11.643	3.4545	5.e-002	-3.6877
10501	11.643	3.1818	0.	-2984.8
10502	11.551	3.2727	0.	-3001.4
10503	11.643	3.2727	5.e-002	-3.4955
10504	11.643	3.	0.	-2985.9
10505	11.551	3.0909	0.	-3003.2
10506	11.643	3.0909	5.e-002	-3.3929
10507	11.643	2.8182	0.	-2984.8
10508	11.551	2.9091	0.	-3003.2
10509	11.643	2.9091	5.e-002	-3.3929
10510	11.643	2.6364	0.	-2981.7
10511	11.551	2.7273	0.	-3001.4
10512	11.643	2.7273	5.e-002	-3.4955
10513	11.643	2.4545	0.	-2976.6
10514	11.551	2.5455	0.	-2997.7
10515	11.643	2.5455	5.e-002	-3.6877
10516	11.643	2.2727	0.	-2969.5
10517	11.551	2.3636	0.	-2992.4
10518	11.643	2.3636	5.e-002	-3.9486
10519	11.643	2.0909	0.	-2960.8
10520	11.551	2.1818	0.	-2985.4
10521	11.643	2.1818	5.e-002	-4.2558
10522	11.643	1.9091	0.	-2950.4
10523	11.551	2.	0.	-2976.9
10524	11.643	2.	5.e-002	-4.5896
10525	11.643	1.7273	0.	-2938.8
10526	11.551	1.8182	0.	-2967.2
10527	11.643	1.8182	5.e-002	-4.9345
10528	11.643	1.5455	0.	-2926.2
10529	11.551	1.6364	0.	-2956.5
10530	11.643	1.6364	5.e-002	-5.2789
10531	11.643	1.3636	0.	-2912.9
10532	11.551	1.4545	0.	-2944.9
10533	11.643	1.4545	5.e-002	-5.6144
10534	11.643	1.1818	0.	-2899.3
10535	11.551	1.2727	0.	-2932.9
10536	11.643	1.2727	5.e-002	-5.9341
10537	11.643	1.	0.	-2885.7
10538	11.551	1.0909	0.	-2920.7
10539	11.643	1.0909	5.e-002	-6.232
10540	11.643	0.81818	0.	-2872.7
10541	11.551	0.90909	0.	-2908.8
10542	11.643	0.90909	5.e-002	-6.5021
10543	11.643	0.63636	0.	-2860.5
10544	11.551	0.72727	0.	-2897.4
10545	11.643	0.72727	5.e-002	-6.7382
10546	11.643	0.45455	0.	-2849.6
10547	11.551	0.54545	0.	-2887.
10548	11.643	0.54545	5.e-002	-6.9227
10549	11.643	0.27273	0.	-2840.6
10550	11.551	0.36364	0.	-2878.
10551	11.643	0.36364	5.e-002	-6.8806
10552	11.551	0.18182	0.	-2871.1
10553	11.643	0.18182	5.e-002	-4.0569
10554	11.643	9.0909e-002	0.	-2832.7
10555	11.458	5.7273	0.	-2908.3
10556	11.366	5.8182	0.	-2937.9
10557	11.458	5.8182	5.e-002	-3.4099
10558	11.458	5.9091	0.	-2901.5
10559	11.458	5.5455	0.	-2915.4
10560	11.366	5.6364	0.	-2943.2
10561	11.458	5.6364	5.e-002	-6.4816
10562	11.458	5.3636	0.	-2924.
10563	11.366	5.4545	0.	-2950.4
10564	11.458	5.4545	5.e-002	-6.5724
10565	11.458	5.1818	0.	-2933.6
10566	11.366	5.2727	0.	-2958.5
10567	11.458	5.2727	5.e-002	-6.4302
10568	11.458	5.	0.	-2943.8
10569	11.366	5.0909	0.	-2967.4
10570	11.458	5.0909	5.e-002	-6.2418
10571	11.458	4.8182	0.	-2954.4
10572	11.366	4.9091	0.	-2976.7
10573	11.458	4.9091	5.e-002	-6.0248
10574	11.458	4.6364	0.	-2964.9
10575	11.366	4.7273	0.	-2986.2
10576	11.458	4.7273	5.e-002	-5.7848
10577	11.458	4.4545	0.	-2975.2
10578	11.366	4.5455	0.	-2995.4
10579	11.458	4.5455	5.e-002	-5.5269
10580	11.458	4.2727	0.	-2984.9
10581	11.366	4.3636	0.	-3004.3
10582	11.458	4.3636	5.e-002	-5.2569
10583	11.458	4.0909	0.	-2993.7
10584	11.366	4.1818	0.	-3012.5
10585	11.458	4.1818	5.e-002	-4.9811
10586	11.458	3.9091	0.	-3001.6
10587	11.366	4.	0.	-3019.9
10588	11.458	4.	5.e-002	-4.7075
10589	11.458	3.7273	0.	-3008.2
10590	11.366	3.8182	0.	-3026.3
10591	11.458	3.8182	5.e-002	-4.4461
10592	11.458	3.5455	0.	-3013.5
10593	11.366	3.6364	0.	-3031.5
10594	11.458	3.6364	5.e-002	-4.2096
10595	11.458	3.3636	0.	-3017.4
10596	11.366	3.4545	0.	-3035.6
10597	11.458	3.4545	5.e-002	-4.0124
10598	11.458	3.1818	0.	-3019.8
10599	11.366	3.2727	0.	-3038.3
10600	11.458	3.2727	5.e-002	-3.8697
10601	11.458	3.	0.	-3020.5
10602	11.366	3.0909	0.	-3039.7
10603	11.458	3.0909	5.e-002	-3.7945
10604	11.458	2.8182	0.	-3019.8
10605	11.366	2.9091	0.	-3039.7
10606	11.458	2.9091	5.e-002	-3.7944
10607	11.458	2.6364	0.	-3017.4
10608	11.366	2.7273	0.	-3038.3
10609	11.458	2.7273	5.e-002	-3.8696
10610	11.458	2.4545	0.	-3013.5
10611	11.366	2.5455	0.	-3035.6
10612	11.458	2.5455	5.e-002	-4.0124
10613	11.458	2.2727	0.	-3008.2
10614	11.366	2.3636	0.	-3031.5
10615	11.458	2.3636	5.e-002	-4.2096
10616	11.458	2.0909	0.	-3001.6
10617	11.366	2.1818	0.	-3026.3
10618	11.458	2.1818	5.e-002	-4.4461
10619	11.458	1.9091	0.	-2993.7
10620	11.366	2.	0.	-3019.9
10621	11.458	2.	5.e-002	-4.7075
10622	11.458	1.7273	0.	-2984.9
10623	11.366	1.8182	0.	-3012.5
10624	11.458	1.8182	5.e-002	-4.9811
10625	11.458	1.5455	0.	-2975.2
10626	11.366	1.6364	0.	-3004.3
10627	11.458	1.6364	5.e-002	-5.2569
10628	11.458	1.3636	0.	-2964.9
10629	11.366	1.4545	0.	-2995.4
10630	11.458	1.4545	5.e-002	-5.5269
10631	11.458	1.1818	0.	-2954.4
10632	11.366	1.2727	0.	-2986.2
10633	11.458	1.2727	5.e-002	-5.7847
10634	11.458	1.	0.	-2943.8
10635	11.366	1.0909	0.	-2976.7
10636	11.458	1.0909	5.e-002	-6.0248
10637	11.458	0.81818	0.	-2933.6
10638	11.366	0.90909	0.	-2967.4
10639	11.458	0.90909	5.e-002	-6.2418
10640	11.458	0.63636	0.	-2924.
10641	11.366	0.72727	0.	-2958.5
10642	11.458	0.72727	5.e-002	-6.4301
10643	11.458	0.45455	0.	-2915.4
10644	11.366	0.54545	0.	-2950.4
10645	11.458	0.54545	5.e-002	-6.5724
10646	11.458	0.27273	0.	-2908.3
10647	11.366	0.36364	0.	-2943.2
10648	11.458	0.36364	5.e-002	-6.4816
10649	11.366	0.18182	0.	-2937.9
10650	11.458	0.18182	5.e-002	-3.4098
10651	11.458	9.0909e-002	0.	-2901.5
10652	11.273	5.7273	0.	-2972.8
10653	11.181	5.8182	0.	-3001.8
10654	11.273	5.8182	5.e-002	-2.8837
10655	11.273	5.9091	0.	-2966.9
10656	11.273	5.5455	0.	-2978.2
10657	11.181	5.6364	0.	-3005.7
10658	11.273	5.6364	5.e-002	-6.1654
10659	11.273	5.3636	0.	-2984.9
10660	11.181	5.4545	0.	-3011.2
10661	11.273	5.4545	5.e-002	-6.296
10662	11.273	5.1818	0.	-2992.4
10663	11.181	5.2727	0.	-3017.6
10664	11.273	5.2727	5.e-002	-6.1885
10665	11.273	5.	0.	-3000.4
10666	11.181	5.0909	0.	-3024.5
10667	11.273	5.0909	5.e-002	-6.0395
10668	11.273	4.8182	0.	-3008.5
10669	11.181	4.9091	0.	-3031.7
10670	11.273	4.9091	5.e-002	-5.8664
10671	11.273	4.6364	0.	-3016.7
10672	11.181	4.7273	0.	-3038.9
10673	11.273	4.7273	5.e-002	-5.6742
10674	11.273	4.4545	0.	-3024.5
10675	11.181	4.5455	0.	-3046.
10676	11.273	4.5455	5.e-002	-5.4677
10677	11.273	4.2727	0.	-3031.9
10678	11.181	4.3636	0.	-3052.7
10679	11.273	4.3636	5.e-002	-5.2517
10680	11.273	4.0909	0.	-3038.6
10681	11.181	4.1818	0.	-3059.
10682	11.273	4.1818	5.e-002	-5.0322
10683	11.273	3.9091	0.	-3044.6
10684	11.181	4.	0.	-3064.5
10685	11.273	4.	5.e-002	-4.8162
10686	11.273	3.7273	0.	-3049.6
10687	11.181	3.8182	0.	-3069.3
10688	11.273	3.8182	5.e-002	-4.612
10689	11.273	3.5455	0.	-3053.6
10690	11.181	3.6364	0.	-3073.3
10691	11.273	3.6364	5.e-002	-4.4295
10692	11.273	3.3636	0.	-3056.5
10693	11.181	3.4545	0.	-3076.3
10694	11.273	3.4545	5.e-002	-4.2793
10695	11.273	3.1818	0.	-3058.2
10696	11.181	3.2727	0.	-3078.3
10697	11.273	3.2727	5.e-002	-4.1718
10698	11.273	3.	0.	-3058.8
10699	11.181	3.0909	0.	-3079.3
10700	11.273	3.0909	5.e-002	-4.1157
10701	11.273	2.8182	0.	-3058.2
10702	11.181	2.9091	0.	-3079.3
10703	11.273	2.9091	5.e-002	-4.1157
10704	11.273	2.6364	0.	-3056.5
10705	11.181	2.7273	0.	-3078.3
10706	11.273	2.7273	5.e-002	-4.1718
10707	11.273	2.4545	0.	-3053.6
10708	11.181	2.5455	0.	-3076.3
10709	11.273	2.5455	5.e-002	-4.2793
10710	11.273	2.2727	0.	-3049.6
10711	11.181	2.3636	0.	-3073.3
10712	11.273	2.3636	5.e-002	-4.4295
10713	11.273	2.0909	0.	-3044.6
10714	11.181	2.1818	0.	-3069.3
10715	11.273	2.1818	5.e-002	-4.612
10716	11.273	1.9091	0.	-3038.6
10717	11.181	2.	0.	-3064.5
10718	11.273	2.	5.e-002	-4.8162
10719	11.273	1.7273	0.	-3031.9
10720	11.181	1.8182	0.	-3059.
10721	11.273	1.8182	5.e-002	-5.0322
10722	11.273	1.5455	0.	-3024.5
10723	11.181	1.6364	0.	-3052.7
10724	11.273	1.6364	5.e-002	-5.2517
10725	11.273	1.3636	0.	-3016.7
10726	11.181	1.4545	0.	-3046.
10727	11.273	1.4545	5.e-002	-5.4676
10728	11.273	1.1818	0.	-3008.5
10729	11.181	1.2727	0.	-3038.9
10730	11.273	1.2727	5.e-002	-5.6742
10731	11.273	1.	0.	-3000.4
10732	11.181	1.0909	0.	-3031.7
10733	11.273	1.0909	5.e-002	-5.8663
10734	11.273	0.81818	0.	-2992.4
10735	11.181	0.90909	0.	-3024.5
10736	11.273	0.90909	5.e-002	-6.0394
10737	11.273	0.63636	0.	-2984.9
10738	11.181	0.72727	0.	-3017.6
10739	11.273	0.72727	5.e-002	-6.1884
10740	11.273	0.45455	0.	-2978.2
10741	11.181	0.54545	0.	-3011.2
10742	11.273	0.54545	5.e-002	-6.296
10743	11.273	0.27273	0.	-2972.8
10744	11.181	0.36364	0.	-3005.7
10745	11.273	0.36364	5.e-002	-6.1653
10746	11.181	0.18182	0.	-3001.8
10747	11.273	0.18182	5.e-002	-2.8837
10748	11.273	9.0909e-002	0.	-2966.9
10749	11.089	5.7273	0.	-3034.6
10750	10.996	5.8182	0.	-3063.3
10751	11.089	5.8182	5.e-002	-2.4585
10752	11.089	5.9091	0.	-3029.6
10753	11.089	5.5455	0.	-3038.7
10754	10.996	5.6364	0.	-3066.
10755	11.089	5.6364	5.e-002	-5.9166
10756	11.089	5.3636	0.	-3043.9
10757	10.996	5.4545	0.	-3070.2
10758	11.089	5.4545	5.e-002	-6.0795
10759	11.089	5.1818	0.	-3049.7
10760	10.996	5.2727	0.	-3075.1
10761	11.089	5.2727	5.e-002	-6.0001
10762	11.089	5.	0.	-3055.8
10763	10.996	5.0909	0.	-3080.4
10764	11.089	5.0909	5.e-002	-5.8833
10765	11.089	4.8182	0.	-3062.1
10766	10.996	4.9091	0.	-3085.9
10767	11.089	4.9091	5.e-002	-5.7463
10768	11.089	4.6364	0.	-3068.3
10769	10.996	4.7273	0.	-3091.3
10770	11.089	4.7273	5.e-002	-5.5934
10771	11.089	4.4545	0.	-3074.2
10772	10.996	4.5455	0.	-3096.7
10773	11.089	4.5455	5.e-002	-5.4289
10774	11.089	4.2727	0.	-3079.8
10775	10.996	4.3636	0.	-3101.8
10776	11.089	4.3636	5.e-002	-5.2572
10777	11.089	4.0909	0.	-3084.9
10778	10.996	4.1818	0.	-3106.4
10779	11.089	4.1818	5.e-002	-5.0834
10780	11.089	3.9091	0.	-3089.3
10781	10.996	4.	0.	-3110.6
10782	11.089	4.	5.e-002	-4.9134
10783	11.089	3.7273	0.	-3093.
10784	10.996	3.8182	0.	-3114.1
10785	11.089	3.8182	5.e-002	-4.754
10786	11.089	3.5455	0.	-3096.
10787	10.996	3.6364	0.	-3117.1
10788	11.089	3.6364	5.e-002	-4.6128
10789	11.089	3.3636	0.	-3098.1
10790	10.996	3.4545	0.	-3119.3
10791	11.089	3.4545	5.e-002	-4.4978
10792	11.089	3.1818	0.	-3099.4
10793	10.996	3.2727	0.	-3120.8
10794	11.089	3.2727	5.e-002	-4.4161
10795	11.089	3.	0.	-3099.9
10796	10.996	3.0909	0.	-3121.5
10797	11.089	3.0909	5.e-002	-4.3737
10798	11.089	2.8182	0.	-3099.4
10799	10.996	2.9091	0.	-3121.5
10800	11.089	2.9091	5.e-002	-4.3737
10801	11.089	2.6364	0.	-3098.1
10802	10.996	2.7273	0.	-3120.8
10803	11.089	2.7273	5.e-002	-4.4161
10804	11.089	2.4545	0.	-3096.
10805	10.996	2.5455	0.	-3119.3
10806	11.089	2.5455	5.e-002	-4.4977
10807	11.089	2.2727	0.	-3093.
10808	10.996	2.3636	0.	-3117.1
10809	11.089	2.3636	5.e-002	-4.6128
10810	11.089	2.0909	0.	-3089.3
10811	10.996	2.1818	0.	-3114.1
10812	11.089	2.1818	5.e-002	-4.754
10813	11.089	1.9091	0.	-3084.9
10814	10.996	2.	0.	-3110.6
10815	11.089	2.	5.e-002	-4.9134
10816	11.089	1.7273	0.	-3079.8
10817	10.996	1.8182	0.	-3106.4
10818	11.089	1.8182	5.e-002	-5.0834
10819	11.089	1.5455	0.	-3074.2
10820	10.996	1.6364	0.	-3101.8
10821	11.089	1.6364	5.e-002	-5.2572
10822	11.089	1.3636	0.	-3068.3
10823	10.996	1.4545	0.	-3096.7
10824	11.089	1.4545	5.e-002	-5.4289
10825	11.089	1.1818	0.	-3062.1
10826	10.996	1.2727	0.	-3091.3
10827	11.089	1.2727	5.e-002	-5.5934
10828	11.089	1.	0.	-3055.8
10829	10.996	1.0909	0.	-3085.9
10830	11.089	1.0909	5.e-002	-5.7462
10831	11.089	0.81818	0.	-3049.7
10832	10.996	0.90909	0.	-3080.4
10833	11.089	0.90909	5.e-002	-5.8833
10834	11.089	0.63636	0.	-3043.9
10835	10.996	0.72727	0.	-3075.1
10836	11.089	0.72727	5.e-002	-6.0001
10837	11.089	0.45455	0.	-3038.7
10838	10.996	0.54545	0.	-3070.2
10839	11.089	0.54545	5.e-002	-6.0795
10840	11.089	0.27273	0.	-3034.6
10841	10.996	0.36364	0.	-3066.
10842	11.089	0.36364	5.e-002	-5.9165
10843	10.996	0.18182	0.	-3063.3
10844	11.089	0.18182	5.e-002	-2.4584
10845	11.089	9.0909e-002	0.	-3029.6
10846	10.904	5.7273	0.	-3094.5
10847	10.811	5.8182	0.	-3122.9
10848	10.904	5.8182	5.e-002	-2.1177
10849	10.904	5.9091	0.	-3090.1
10850	10.904	5.5455	0.	-3097.5
10851	10.811	5.6364	0.	-3124.6
10852	10.904	5.6364	5.e-002	-5.7227
10853	10.904	5.3636	0.	-3101.4
10854	10.811	5.4545	0.	-3127.7
10855	10.904	5.4545	5.e-002	-5.9115
10856	10.904	5.1818	0.	-3105.8
10857	10.811	5.2727	0.	-3131.4
10858	10.904	5.2727	5.e-002	-5.8548
10859	10.904	5.	0.	-3110.4
10860	10.811	5.0909	0.	-3135.4
10861	10.904	5.0909	5.e-002	-5.7641
10862	10.904	4.8182	0.	-3115.1
10863	10.811	4.9091	0.	-3139.5
10864	10.904	4.9091	5.e-002	-5.6563
10865	10.904	4.6364	0.	-3119.8
10866	10.811	4.7273	0.	-3143.6
10867	10.904	4.7273	5.e-002	-5.5355
10868	10.904	4.4545	0.	-3124.2
10869	10.811	4.5455	0.	-3147.5
10870	10.904	4.5455	5.e-002	-5.4053
10871	10.904	4.2727	0.	-3128.4
10872	10.811	4.3636	0.	-3151.3
10873	10.904	4.3636	5.e-002	-5.2695
10874	10.904	4.0909	0.	-3132.2
10875	10.811	4.1818	0.	-3154.7
10876	10.904	4.1818	5.e-002	-5.1324
10877	10.904	3.9091	0.	-3135.4
10878	10.811	4.	0.	-3157.8
10879	10.904	4.	5.e-002	-4.999
10880	10.904	3.7273	0.	-3138.2
10881	10.811	3.8182	0.	-3160.4
10882	10.904	3.8182	5.e-002	-4.8746
10883	10.904	3.5455	0.	-3140.3
10884	10.811	3.6364	0.	-3162.5
10885	10.904	3.6364	5.e-002	-4.7653
10886	10.904	3.3636	0.	-3141.9
10887	10.811	3.4545	0.	-3164.1
10888	10.904	3.4545	5.e-002	-4.6767
10889	10.904	3.1818	0.	-3142.9
10890	10.811	3.2727	0.	-3165.2
10891	10.904	3.2727	5.e-002	-4.6143
10892	10.904	3.	0.	-3143.2
10893	10.811	3.0909	0.	-3165.7
10894	10.904	3.0909	5.e-002	-4.5819
10895	10.904	2.8182	0.	-3142.9
10896	10.811	2.9091	0.	-3165.7
10897	10.904	2.9091	5.e-002	-4.5819
10898	10.904	2.6364	0.	-3141.9
10899	10.811	2.7273	0.	-3165.2
10900	10.904	2.7273	5.e-002	-4.6143
10901	10.904	2.4545	0.	-3140.3
10902	10.811	2.5455	0.	-3164.1
10903	10.904	2.5455	5.e-002	-4.6767
10904	10.904	2.2727	0.	-3138.2
10905	10.811	2.3636	0.	-3162.5
10906	10.904	2.3636	5.e-002	-4.7653
10907	10.904	2.0909	0.	-3135.4
10908	10.811	2.1818	0.	-3160.4
10909	10.904	2.1818	5.e-002	-4.8746
10910	10.904	1.9091	0.	-3132.2
10911	10.811	2.	0.	-3157.8
10912	10.904	2.	5.e-002	-4.999
10913	10.904	1.7273	0.	-3128.4
10914	10.811	1.8182	0.	-3154.7
10915	10.904	1.8182	5.e-002	-5.1324
10916	10.904	1.5455	0.	-3124.2
10917	10.811	1.6364	0.	-3151.3
10918	10.904	1.6364	5.e-002	-5.2695
10919	10.904	1.3636	0.	-3119.8
10920	10.811	1.4545	0.	-3147.5
10921	10.904	1.4545	5.e-002	-5.4053
10922	10.904	1.1818	0.	-3115.1
10923	10.811	1.2727	0.	-3143.6
10924	10.904	1.2727	5.e-002	-5.5355
10925	10.904	1.	0.	-3110.4
10926	10.811	1.0909	0.	-3139.5
10927	10.904	1.0909	5.e-002	-5.6563
10928	10.904	0.81818	0.	-3105.8
10929	10.811	0.90909	0.	-3135.4
10930	10.904	0.90909	5.e-002	-5.764
10931	10.904	0.63636	0.	-3101.4
10932	10.811	0.72727	0.	-3131.4
10933	10.904	0.72727	5.e-002	-5.8548
10934	10.904	0.45455	0.	-3097.5
10935	10.811	0.54545	0.	-3127.7
10936	10.904	0.54545	5.e-002	-5.9115
10937	10.904	0.27273	0.	-3094.5
10938	10.811	0.36364	0.	-3124.6
10939	10.904	0.36364	5.e-002	-5.7227
10940	10.811	0.18182	0.	-3122.9
10941	10.904	0.18182	5.e-002	-2.1176
10942	10.904	9.0909e-002	0.	-3090.1
10943	10.719	5.7273	0.	-3152.9
10944	10.627	5.8182	0.	-3181.
10945	10.719	5.8182	5.e-002	-1.8476
10946	10.719	5.9091	0.	-3149.1
10947	10.719	5.5455	0.	-3154.9
10948	10.627	5.6364	0.	-3182.
10949	10.719	5.6364	5.e-002	-5.5735
10950	10.719	5.3636	0.	-3157.7
10951	10.627	5.4545	0.	-3184.2
10952	10.719	5.4545	5.e-002	-5.7827
10953	10.719	5.1818	0.	-3161.
10954	10.627	5.2727	0.	-3186.8
10955	10.719	5.2727	5.e-002	-5.7441
10956	10.719	5.	0.	-3164.4
10957	10.627	5.0909	0.	-3189.7
10958	10.719	5.0909	5.e-002	-5.6744
10959	10.719	4.8182	0.	-3167.9
10960	10.627	4.9091	0.	-3192.7
10961	10.719	4.9091	5.e-002	-5.5903
10962	10.719	4.6364	0.	-3171.3
10963	10.627	4.7273	0.	-3195.7
10964	10.719	4.7273	5.e-002	-5.4956
10965	10.719	4.4545	0.	-3174.6
10966	10.627	4.5455	0.	-3198.5
10967	10.719	4.5455	5.e-002	-5.3931
10968	10.719	4.2727	0.	-3177.6
10969	10.627	4.3636	0.	-3201.3
10970	10.719	4.3636	5.e-002	-5.2862
10971	10.719	4.0909	0.	-3180.3
10972	10.627	4.1818	0.	-3203.7
10973	10.719	4.1818	5.e-002	-5.1785
10974	10.719	3.9091	0.	-3182.7
10975	10.627	4.	0.	-3205.9
10976	10.719	4.	5.e-002	-5.074
10977	10.719	3.7273	0.	-3184.7
10978	10.627	3.8182	0.	-3207.7
10979	10.719	3.8182	5.e-002	-4.9771
10980	10.719	3.5455	0.	-3186.2
10981	10.627	3.6364	0.	-3209.2
10982	10.719	3.6364	5.e-002	-4.8923
10983	10.719	3.3636	0.	-3187.4
10984	10.627	3.4545	0.	-3210.4
10985	10.719	3.4545	5.e-002	-4.824
10986	10.719	3.1818	0.	-3188.
10987	10.627	3.2727	0.	-3211.1
10988	10.719	3.2727	5.e-002	-4.776
10989	10.719	3.	0.	-3188.3
10990	10.627	3.0909	0.	-3211.5
10991	10.719	3.0909	5.e-002	-4.7512
10992	10.719	2.8182	0.	-3188.
10993	10.627	2.9091	0.	-3211.5
10994	10.719	2.9091	5.e-002	-4.7512
10995	10.719	2.6364	0.	-3187.4
10996	10.627	2.7273	0.	-3211.1
10997	10.719	2.7273	5.e-002	-4.776
10998	10.719	2.4545	0.	-3186.2
10999	10.627	2.5455	0.	-3210.4
11000	10.719	2.5455	5.e-002	-4.824
11001	10.719	2.2727	0.	-3184.7
11002	10.627	2.3636	0.	-3209.2
11003	10.719	2.3636	5.e-002	-4.8923
11004	10.719	2.0909	0.	-3182.7
11005	10.627	2.1818	0.	-3207.7
11006	10.719	2.1818	5.e-002	-4.9771
11007	10.719	1.9091	0.	-3180.3
11008	10.627	2.	0.	-3205.9
11009	10.719	2.	5.e-002	-5.074
11010	10.719	1.7273	0.	-3177.6
11011	10.627	1.8182	0.	-3203.7
11012	10.719	1.8182	5.e-002	-5.1785
11013	10.719	1.5455	0.	-3174.6
11014	10.627	1.6364	0.	-3201.3
11015	10.719	1.6364	5.e-002	-5.2862
11016	10.719	1.3636	0.	-3171.3
11017	10.627	1.4545	0.	-3198.5
11018	10.719	1.4545	5.e-002	-5.3931
11019	10.719	1.1818	0.	-3167.9
11020	10.627	1.2727	0.	-3195.7
11021	10.719	1.2727	5.e-002	-5.4955
11022	10.719	1.	0.	-3164.4
11023	10.627	1.0909	0.	-3192.7
11024	10.719	1.0909	5.e-002	-5.5903
11025	10.719	0.81818	0.	-3161.
11026	10.627	0.90909	0.	-3189.7
11027	10.719	0.90909	5.e-002	-5.6743
11028	10.719	0.63636	0.	-3157.7
11029	10.627	0.72727	0.	-3186.8
11030	10.719	0.72727	5.e-002	-5.7441
11031	10.719	0.45455	0.	-3154.9
11032	10.627	0.54545	0.	-3184.2
11033	10.719	0.54545	5.e-002	-5.7827
11034	10.719	0.27273	0.	-3152.9
11035	10.627	0.36364	0.	-3182.
11036	10.719	0.36364	5.e-002	-5.5734
11037	10.627	0.18182	0.	-3181.
11038	10.719	0.18182	5.e-002	-1.8475
11039	10.719	9.0909e-002	0.	-3149.1
11040	10.534	5.7273	0.	-3210.
11041	10.442	5.8182	0.	-3238.1
11042	10.534	5.8182	5.e-002	-1.6372
11043	10.534	5.9091	0.	-3206.8
11044	10.534	5.5455	0.	-3211.2
11045	10.442	5.6364	0.	-3238.3
11046	10.534	5.6364	5.e-002	-5.4602
11047	10.534	5.3636	0.	-3213.2
11048	10.442	5.4545	0.	-3239.8
11049	10.534	5.4545	5.e-002	-5.6855
11050	10.534	5.1818	0.	-3215.5
11051	10.442	5.2727	0.	-3241.6
11052	10.534	5.2727	5.e-002	-5.6613
11053	10.534	5.	0.	-3218.
11054	10.442	5.0909	0.	-3243.6
11055	10.534	5.0909	5.e-002	-5.6084
11056	10.534	4.8182	0.	-3220.5
11057	10.442	4.9091	0.	-3245.7
11058	10.534	4.9091	5.e-002	-5.5434
11059	10.534	4.6364	0.	-3222.9
11060	10.442	4.7273	0.	-3247.7
11061	10.534	4.7273	5.e-002	-5.4696
11062	10.534	4.4545	0.	-3225.2
11063	10.442	4.5455	0.	-3249.7
11064	10.534	4.5455	5.e-002	-5.3895
11065	10.534	4.2727	0.	-3227.3
11066	10.442	4.3636	0.	-3251.6
11067	10.534	4.3636	5.e-002	-5.3058
11068	10.534	4.0909	0.	-3229.3
11069	10.442	4.1818	0.	-3253.3
11070	10.534	4.1818	5.e-002	-5.2216
11071	10.534	3.9091	0.	-3230.9
11072	10.442	4.	0.	-3254.8
11073	10.534	4.	5.e-002	-5.14
11074	10.534	3.7273	0.	-3232.3
11075	10.442	3.8182	0.	-3256.
11076	10.534	3.8182	5.e-002	-5.0646
11077	10.534	3.5455	0.	-3233.4
11078	10.442	3.6364	0.	-3257.
11079	10.534	3.6364	5.e-002	-4.9988
11080	10.534	3.3636	0.	-3234.1
11081	10.442	3.4545	0.	-3257.8
11082	10.534	3.4545	5.e-002	-4.946
11083	10.534	3.1818	0.	-3234.6
11084	10.442	3.2727	0.	-3258.3
11085	10.534	3.2727	5.e-002	-4.909
11086	10.534	3.	0.	-3234.7
11087	10.442	3.0909	0.	-3258.6
11088	10.534	3.0909	5.e-002	-4.8899
11089	10.534	2.8182	0.	-3234.6
11090	10.442	2.9091	0.	-3258.6
11091	10.534	2.9091	5.e-002	-4.8899
11092	10.534	2.6364	0.	-3234.1
11093	10.442	2.7273	0.	-3258.3
11094	10.534	2.7273	5.e-002	-4.909
11095	10.534	2.4545	0.	-3233.4
11096	10.442	2.5455	0.	-3257.8
11097	10.534	2.5455	5.e-002	-4.946
11098	10.534	2.2727	0.	-3232.3
11099	10.442	2.3636	0.	-3257.
11100	10.534	2.3636	5.e-002	-4.9988
11101	10.534	2.0909	0.	-3230.9
11102	10.442	2.1818	0.	-3256.
11103	10.534	2.1818	5.e-002	-5.0646
11104	10.534	1.9091	0.	-3229.3
11105	10.442	2.	0.	-3254.8
11106	10.534	2.	5.e-002	-5.14
11107	10.534	1.7273	0.	-3227.3
11108	10.442	1.8182	0.	-3253.3
11109	10.534	1.8182	5.e-002	-5.2215
11110	10.534	1.5455	0.	-3225.2
11111	10.442	1.6364	0.	-3251.6
11112	10.534	1.6364	5.e-002	-5.3058
11113	10.534	1.3636	0.	-3222.9
11114	10.442	1.4545	0.	-3249.7
11115	10.534	1.4545	5.e-002	-5.3895
11116	10.534	1.1818	0.	-3220.5
11117	10.442	1.2727	0.	-3247.7
11118	10.534	1.2727	5.e-002	-5.4696
11119	10.534	1.	0.	-3218.
11120	10.442	1.0909	0.	-3245.7
11121	10.534	1.0909	5.e-002	-5.5434
11122	10.534	0.81818	0.	-3215.5
11123	10.442	0.90909	0.	-3243.6
11124	10.534	0.90909	5.e-002	-5.6083
11125	10.534	0.63636	0.	-3213.2
11126	10.442	0.72727	0.	-3241.6
11127	10.534	0.72727	5.e-002	-5.6612
11128	10.534	0.45455	0.	-3211.2
11129	10.442	0.54545	0.	-3239.8
11130	10.534	0.54545	5.e-002	-5.6855
11131	10.534	0.27273	0.	-3210.
11132	10.442	0.36364	0.	-3238.3
11133	10.534	0.36364	5.e-002	-5.4602
11134	10.442	0.18182	0.	-3238.1
11135	10.534	0.18182	5.e-002	-1.6371
11136	10.534	9.0909e-002	0.	-3206.8
11137	10.349	5.7273	0.	-3266.3
11138	10.257	5.8182	0.	-3294.4
11139	10.349	5.8182	5.e-002	-1.4778
11140	10.349	5.9091	0.	-3263.5
11141	10.349	5.5455	0.	-3266.9
11142	10.257	5.6364	0.	-3294.
11143	10.349	5.6364	5.e-002	-5.3763
11144	10.349	5.3636	0.	-3268.1
11145	10.257	5.4545	0.	-3294.8
11146	10.349	5.4545	5.e-002	-5.614
11147	10.349	5.1818	0.	-3269.6
11148	10.257	5.2727	0.	-3295.9
11149	10.349	5.2727	5.e-002	-5.6011
11150	10.349	5.	0.	-3271.3
11151	10.257	5.0909	0.	-3297.1
11152	10.349	5.0909	5.e-002	-5.5616
11153	10.349	4.8182	0.	-3272.9
11154	10.257	4.9091	0.	-3298.5
11155	10.349	4.9091	5.e-002	-5.512
11156	10.349	4.6364	0.	-3274.6
11157	10.257	4.7273	0.	-3299.8
11158	10.349	4.7273	5.e-002	-5.455
11159	10.349	4.4545	0.	-3276.1
11160	10.257	4.5455	0.	-3301.1
11161	10.349	4.5455	5.e-002	-5.3929
11162	10.349	4.2727	0.	-3277.5
11163	10.257	4.3636	0.	-3302.3
11164	10.349	4.3636	5.e-002	-5.3277
11165	10.349	4.0909	0.	-3278.8
11166	10.257	4.1818	0.	-3303.4
11167	10.349	4.1818	5.e-002	-5.2621
11168	10.349	3.9091	0.	-3279.9
11169	10.257	4.	0.	-3304.3
11170	10.349	4.	5.e-002	-5.1986
11171	10.349	3.7273	0.	-3280.8
11172	10.257	3.8182	0.	-3305.1
11173	10.349	3.8182	5.e-002	-5.14
11174	10.349	3.5455	0.	-3281.5
11175	10.257	3.6364	0.	-3305.7
11176	10.349	3.6364	5.e-002	-5.0891
11177	10.349	3.3636	0.	-3282.
11178	10.257	3.4545	0.	-3306.2
11179	10.349	3.4545	5.e-002	-5.0482
11180	10.349	3.1818	0.	-3282.3
11181	10.257	3.2727	0.	-3306.5
11182	10.349	3.2727	5.e-002	-5.0197
11183	10.349	3.	0.	-3282.4
11184	10.257	3.0909	0.	-3306.7
11185	10.349	3.0909	5.e-002	-5.005
11186	10.349	2.8182	0.	-3282.3
11187	10.257	2.9091	0.	-3306.7
11188	10.349	2.9091	5.e-002	-5.005
11189	10.349	2.6364	0.	-3282.
11190	10.257	2.7273	0.	-3306.5
11191	10.349	2.7273	5.e-002	-5.0197
11192	10.349	2.4545	0.	-3281.5
11193	10.257	2.5455	0.	-3306.2
11194	10.349	2.5455	5.e-002	-5.0482
11195	10.349	2.2727	0.	-3280.8
11196	10.257	2.3636	0.	-3305.7
11197	10.349	2.3636	5.e-002	-5.089
11198	10.349	2.0909	0.	-3279.9
11199	10.257	2.1818	0.	-3305.1
11200	10.349	2.1818	5.e-002	-5.14
11201	10.349	1.9091	0.	-3278.8
11202	10.257	2.	0.	-3304.3
11203	10.349	2.	5.e-002	-5.1986
11204	10.349	1.7273	0.	-3277.5
11205	10.257	1.8182	0.	-3303.4
11206	10.349	1.8182	5.e-002	-5.2621
11207	10.349	1.5455	0.	-3276.1
11208	10.257	1.6364	0.	-3302.3
11209	10.349	1.6364	5.e-002	-5.3277
11210	10.349	1.3636	0.	-3274.6
11211	10.257	1.4545	0.	-3301.1
11212	10.349	1.4545	5.e-002	-5.3928
11213	10.349	1.1818	0.	-3272.9
11214	10.257	1.2727	0.	-3299.8
11215	10.349	1.2727	5.e-002	-5.455
11216	10.349	1.	0.	-3271.3
11217	10.257	1.0909	0.	-3298.5
11218	10.349	1.0909	5.e-002	-5.5119
11219	10.349	0.81818	0.	-3269.6
11220	10.257	0.90909	0.	-3297.1
11221	10.349	0.90909	5.e-002	-5.5615
11222	10.349	0.63636	0.	-3268.1
11223	10.257	0.72727	0.	-3295.9
11224	10.349	0.72727	5.e-002	-5.601
11225	10.349	0.45455	0.	-3266.9
11226	10.257	0.54545	0.	-3294.8
11227	10.349	0.54545	5.e-002	-5.6139
11228	10.349	0.27273	0.	-3266.3
11229	10.257	0.36364	0.	-3294.
11230	10.349	0.36364	5.e-002	-5.3763
11231	10.257	0.18182	0.	-3294.4
11232	10.349	0.18182	5.e-002	-1.4777
11233	10.349	9.0909e-002	0.	-3263.5
11234	10.165	5.7273	0.	-3322.
11235	10.072	5.8182	0.	-3350.
11236	10.165	5.8182	5.e-002	-1.3622
11237	10.165	5.9091	0.	-3319.6
11238	10.165	5.5455	0.	-3321.9
11239	10.072	5.6364	0.	-3349.1
11240	10.165	5.6364	5.e-002	-5.3161
11241	10.165	5.3636	0.	-3322.6
11242	10.072	5.4545	0.	-3349.4
11243	10.165	5.4545	5.e-002	-5.5631
11244	10.165	5.1818	0.	-3323.4
11245	10.072	5.2727	0.	-3349.9
11246	10.165	5.2727	5.e-002	-5.5592
11247	10.165	5.	0.	-3324.4
11248	10.072	5.0909	0.	-3350.5
11249	10.165	5.0909	5.e-002	-5.5303
11250	10.165	4.8182	0.	-3325.4
11251	10.072	4.9091	0.	-3351.2
11252	10.165	4.9091	5.e-002	-5.493
11253	10.165	4.6364	0.	-3326.3
11254	10.072	4.7273	0.	-3352.
11255	10.165	4.7273	5.e-002	-5.4495
11256	10.165	4.4545	0.	-3327.3
11257	10.072	4.5455	0.	-3352.7
11258	10.165	4.5455	5.e-002	-5.4016
11259	10.165	4.2727	0.	-3328.1
11260	10.072	4.3636	0.	-3353.3
11261	10.165	4.3636	5.e-002	-5.3513
11262	10.165	4.0909	0.	-3328.9
11263	10.072	4.1818	0.	-3353.9
11264	10.165	4.1818	5.e-002	-5.3005
11265	10.165	3.9091	0.	-3329.5
11266	10.072	4.	0.	-3354.4
11267	10.165	4.	5.e-002	-5.2513
11268	10.165	3.7273	0.	-3330.
11269	10.072	3.8182	0.	-3354.8
11270	10.165	3.8182	5.e-002	-5.2059
11271	10.165	3.5455	0.	-3330.4
11272	10.072	3.6364	0.	-3355.1
11273	10.165	3.6364	5.e-002	-5.1665
11274	10.165	3.3636	0.	-3330.7
11275	10.072	3.4545	0.	-3355.3
11276	10.165	3.4545	5.e-002	-5.1349
11277	10.165	3.1818	0.	-3330.9
11278	10.072	3.2727	0.	-3355.5
11279	10.165	3.2727	5.e-002	-5.1129
11280	10.165	3.	0.	-3330.9
11281	10.072	3.0909	0.	-3355.6
11282	10.165	3.0909	5.e-002	-5.1016
11283	10.165	2.8182	0.	-3330.9
11284	10.072	2.9091	0.	-3355.6
11285	10.165	2.9091	5.e-002	-5.1016
11286	10.165	2.6364	0.	-3330.7
11287	10.072	2.7273	0.	-3355.5
11288	10.165	2.7273	5.e-002	-5.1129
11289	10.165	2.4545	0.	-3330.4
11290	10.072	2.5455	0.	-3355.3
11291	10.165	2.5455	5.e-002	-5.1349
11292	10.165	2.2727	0.	-3330.
11293	10.072	2.3636	0.	-3355.1
11294	10.165	2.3636	5.e-002	-5.1665
11295	10.165	2.0909	0.	-3329.5
11296	10.072	2.1818	0.	-3354.8
11297	10.165	2.1818	5.e-002	-5.2059
11298	10.165	1.9091	0.	-3328.9
11299	10.072	2.	0.	-3354.4
11300	10.165	2.	5.e-002	-5.2513
11301	10.165	1.7273	0.	-3328.1
11302	10.072	1.8182	0.	-3353.9
11303	10.165	1.8182	5.e-002	-5.3004
11304	10.165	1.5455	0.	-3327.3
11305	10.072	1.6364	0.	-3353.3
11306	10.165	1.6364	5.e-002	-5.3513
11307	10.165	1.3636	0.	-3326.3
11308	10.072	1.4545	0.	-3352.7
11309	10.165	1.4545	5.e-002	-5.4016
11310	10.165	1.1818	0.	-3325.4
11311	10.072	1.2727	0.	-3352.
11312	10.165	1.2727	5.e-002	-5.4494
11313	10.165	1.	0.	-3324.4
11314	10.072	1.0909	0.	-3351.2
11315	10.165	1.0909	5.e-002	-5.4929
11316	10.165	0.81818	0.	-3323.4
11317	10.072	0.90909	0.	-3350.5
11318	10.165	0.90909	5.e-002	-5.5303
11319	10.165	0.63636	0.	-3322.6
11320	10.072	0.72727	0.	-3349.9
11321	10.165	0.72727	5.e-002	-5.5591
11322	10.165	0.45455	0.	-3321.9
11323	10.072	0.54545	0.	-3349.4
11324	10.165	0.54545	5.e-002	-5.5631
11325	10.165	0.27273	0.	-3322.
11326	10.072	0.36364	0.	-3349.1
11327	10.165	0.36364	5.e-002	-5.3161
11328	10.072	0.18182	0.	-3350.
11329	10.165	0.18182	5.e-002	-1.3621
11330	10.165	9.0909e-002	0.	-3319.6
11331	9.9797	5.7273	0.	-3377.1
11332	9.8873	5.8182	0.	-3405.2
11333	9.9797	5.8182	5.e-002	-1.2845
11334	9.9797	5.9091	0.	-3375.1
11335	9.9797	5.5455	0.	-3376.6
11336	9.8873	5.6364	0.	-3403.9
11337	9.9797	5.6364	5.e-002	-5.275
11338	9.9797	5.3636	0.	-3376.7
11339	9.8873	5.4545	0.	-3403.7
11340	9.9797	5.4545	5.e-002	-5.529
11341	9.9797	5.1818	0.	-3377.
11342	9.8873	5.2727	0.	-3403.7
11343	9.9797	5.2727	5.e-002	-5.532
11344	9.9797	5.	0.	-3377.4
11345	9.8873	5.0909	0.	-3403.8
11346	9.9797	5.0909	5.e-002	-5.5116
11347	9.9797	4.8182	0.	-3377.8
11348	9.8873	4.9091	0.	-3404.
11349	9.9797	4.9091	5.e-002	-5.484
11350	9.9797	4.6364	0.	-3378.3
11351	9.8873	4.7273	0.	-3404.2
11352	9.9797	4.7273	5.e-002	-5.4512
11353	9.9797	4.4545	0.	-3378.7
11354	9.8873	4.5455	0.	-3404.4
11355	9.9797	4.5455	5.e-002	-5.4148
11356	9.9797	4.2727	0.	-3379.1
11357	9.8873	4.3636	0.	-3404.6
11358	9.9797	4.3636	5.e-002	-5.3762
11359	9.9797	4.0909	0.	-3379.4
11360	9.8873	4.1818	0.	-3404.8
11361	9.9797	4.1818	5.e-002	-5.3371
11362	9.9797	3.9091	0.	-3379.7
11363	9.8873	4.	0.	-3404.9
11364	9.9797	4.	5.e-002	-5.2992
11365	9.9797	3.7273	0.	-3379.9
11366	9.8873	3.8182	0.	-3405.
11367	9.9797	3.8182	5.e-002	-5.2642
11368	9.9797	3.5455	0.	-3380.
11369	9.8873	3.6364	0.	-3405.1
11370	9.9797	3.6364	5.e-002	-5.2338
11371	9.9797	3.3636	0.	-3380.1
11372	9.8873	3.4545	0.	-3405.1
11373	9.9797	3.4545	5.e-002	-5.2095
11374	9.9797	3.1818	0.	-3380.2
11375	9.8873	3.2727	0.	-3405.2
11376	9.9797	3.2727	5.e-002	-5.1925
11377	9.9797	3.	0.	-3380.2
11378	9.8873	3.0909	0.	-3405.2
11379	9.9797	3.0909	5.e-002	-5.1838
11380	9.9797	2.8182	0.	-3380.2
11381	9.8873	2.9091	0.	-3405.2
11382	9.9797	2.9091	5.e-002	-5.1838
11383	9.9797	2.6364	0.	-3380.1
11384	9.8873	2.7273	0.	-3405.2
11385	9.9797	2.7273	5.e-002	-5.1925
11386	9.9797	2.4545	0.	-3380.
11387	9.8873	2.5455	0.	-3405.1
11388	9.9797	2.5455	5.e-002	-5.2095
11389	9.9797	2.2727	0.	-3379.9
11390	9.8873	2.3636	0.	-3405.1
11391	9.9797	2.3636	5.e-002	-5.2338
11392	9.9797	2.0909	0.	-3379.7
11393	9.8873	2.1818	0.	-3405.
11394	9.9797	2.1818	5.e-002	-5.2642
11395	9.9797	1.9091	0.	-3379.4
11396	9.8873	2.	0.	-3404.9
11397	9.9797	2.	5.e-002	-5.2992
11398	9.9797	1.7273	0.	-3379.1
11399	9.8873	1.8182	0.	-3404.8
11400	9.9797	1.8182	5.e-002	-5.3371
11401	9.9797	1.5455	0.	-3378.7
11402	9.8873	1.6364	0.	-3404.6
11403	9.9797	1.6364	5.e-002	-5.3762
11404	9.9797	1.3636	0.	-3378.3
11405	9.8873	1.4545	0.	-3404.4
11406	9.9797	1.4545	5.e-002	-5.4147
11407	9.9797	1.1818	0.	-3377.8
11408	9.8873	1.2727	0.	-3404.2
11409	9.9797	1.2727	5.e-002	-5.4512
11410	9.9797	1.	0.	-3377.4
11411	9.8873	1.0909	0.	-3404.
11412	9.9797	1.0909	5.e-002	-5.4839
11413	9.9797	0.81818	0.	-3377.
11414	9.8873	0.90909	0.	-3403.8
11415	9.9797	0.90909	5.e-002	-5.5116
11416	9.9797	0.63636	0.	-3376.7
11417	9.8873	0.72727	0.	-3403.7
11418	9.9797	0.72727	5.e-002	-5.5319
11419	9.9797	0.45455	0.	-3376.6
11420	9.8873	0.54545	0.	-3403.7
11421	9.9797	0.54545	5.e-002	-5.5289
11422	9.9797	0.27273	0.	-3377.1
11423	9.8873	0.36364	0.	-3403.9
11424	9.9797	0.36364	5.e-002	-5.275
11425	9.8873	0.18182	0.	-3405.2
11426	9.9797	0.18182	5.e-002	-1.2844
11427	9.9797	9.0909e-002	0.	-3375.1
11428	9.7949	5.7273	0.	-3432.
11429	9.7025	5.8182	0.	-3460.2
11430	9.7949	5.8182	5.e-002	-1.24
11431	9.7949	5.9091	0.	-3430.3
11432	9.7949	5.5455	0.	-3431.
11433	9.7025	5.6364	0.	-3458.5
11434	9.7949	5.6364	5.e-002	-5.2497
11435	9.7949	5.3636	0.	-3430.7
11436	9.7025	5.4545	0.	-3457.8
11437	9.7949	5.4545	5.e-002	-5.5085
11438	9.7949	5.1818	0.	-3430.5
11439	9.7025	5.2727	0.	-3457.4
11440	9.7949	5.2727	5.e-002	-5.5169
11441	9.7949	5.	0.	-3430.4
11442	9.7025	5.0909	0.	-3457.
11443	9.7949	5.0909	5.e-002	-5.5033
11444	9.7949	4.8182	0.	-3430.4
11445	9.7025	4.9091	0.	-3456.8
11446	9.7949	4.9091	5.e-002	-5.4834
11447	9.7949	4.6364	0.	-3430.3
11448	9.7025	4.7273	0.	-3456.6
11449	9.7949	4.7273	5.e-002	-5.4592
11450	9.7949	4.4545	0.	-3430.3
11451	9.7025	4.5455	0.	-3456.4
11452	9.7949	4.5455	5.e-002	-5.4318
11453	9.7949	4.2727	0.	-3430.3
11454	9.7025	4.3636	0.	-3456.2
11455	9.7949	4.3636	5.e-002	-5.4026
11456	9.7949	4.0909	0.	-3430.3
11457	9.7025	4.1818	0.	-3456.
11458	9.7949	4.1818	5.e-002	-5.3728
11459	9.7949	3.9091	0.	-3430.3
11460	9.7025	4.	0.	-3455.8
11461	9.7949	4.	5.e-002	-5.3438
11462	9.7949	3.7273	0.	-3430.2
11463	9.7025	3.8182	0.	-3455.7
11464	9.7949	3.8182	5.e-002	-5.317
11465	9.7949	3.5455	0.	-3430.2
11466	9.7025	3.6364	0.	-3455.6
11467	9.7949	3.6364	5.e-002	-5.2936
11468	9.7949	3.3636	0.	-3430.1
11469	9.7025	3.4545	0.	-3455.4
11470	9.7949	3.4545	5.e-002	-5.2749
11471	9.7949	3.1818	0.	-3430.1
11472	9.7025	3.2727	0.	-3455.4
11473	9.7949	3.2727	5.e-002	-5.2619
11474	9.7949	3.	0.	-3430.1
11475	9.7025	3.0909	0.	-3455.3
11476	9.7949	3.0909	5.e-002	-5.2551
11477	9.7949	2.8182	0.	-3430.1
11478	9.7025	2.9091	0.	-3455.3
11479	9.7949	2.9091	5.e-002	-5.2551
11480	9.7949	2.6364	0.	-3430.1
11481	9.7025	2.7273	0.	-3455.4
11482	9.7949	2.7273	5.e-002	-5.2618
11483	9.7949	2.4545	0.	-3430.2
11484	9.7025	2.5455	0.	-3455.4
11485	9.7949	2.5455	5.e-002	-5.2749
11486	9.7949	2.2727	0.	-3430.2
11487	9.7025	2.3636	0.	-3455.6
11488	9.7949	2.3636	5.e-002	-5.2936
11489	9.7949	2.0909	0.	-3430.3
11490	9.7025	2.1818	0.	-3455.7
11491	9.7949	2.1818	5.e-002	-5.3169
11492	9.7949	1.9091	0.	-3430.3
11493	9.7025	2.	0.	-3455.8
11494	9.7949	2.	5.e-002	-5.3437
11495	9.7949	1.7273	0.	-3430.3
11496	9.7025	1.8182	0.	-3456.
11497	9.7949	1.8182	5.e-002	-5.3727
11498	9.7949	1.5455	0.	-3430.3
11499	9.7025	1.6364	0.	-3456.2
11500	9.7949	1.6364	5.e-002	-5.4025
11501	9.7949	1.3636	0.	-3430.3
11502	9.7025	1.4545	0.	-3456.4
11503	9.7949	1.4545	5.e-002	-5.4317
11504	9.7949	1.1818	0.	-3430.4
11505	9.7025	1.2727	0.	-3456.6
11506	9.7949	1.2727	5.e-002	-5.4591
11507	9.7949	1.	0.	-3430.4
11508	9.7025	1.0909	0.	-3456.8
11509	9.7949	1.0909	5.e-002	-5.4833
11510	9.7949	0.81818	0.	-3430.5
11511	9.7025	0.90909	0.	-3457.
11512	9.7949	0.90909	5.e-002	-5.5032
11513	9.7949	0.63636	0.	-3430.7
11514	9.7025	0.72727	0.	-3457.4
11515	9.7949	0.72727	5.e-002	-5.5169
11516	9.7949	0.45455	0.	-3431.
11517	9.7025	0.54545	0.	-3457.8
11518	9.7949	0.54545	5.e-002	-5.5084
11519	9.7949	0.27273	0.	-3432.
11520	9.7025	0.36364	0.	-3458.5
11521	9.7949	0.36364	5.e-002	-5.2496
11522	9.7025	0.18182	0.	-3460.2
11523	9.7949	0.18182	5.e-002	-1.2399
11524	9.7949	9.0909e-002	0.	-3430.3
11525	9.6101	5.7273	0.	-3486.6
11526	9.5177	5.8182	0.	-3515.
11527	9.6101	5.8182	5.e-002	-1.2248
11528	9.6101	5.9091	0.	-3485.3
11529	9.6101	5.5455	0.	-3485.3
11530	9.5177	5.6364	0.	-3512.9
11531	9.6101	5.6364	5.e-002	-5.2371
11532	9.6101	5.3636	0.	-3484.5
11533	9.5177	5.4545	0.	-3511.9
11534	9.6101	5.4545	5.e-002	-5.4991
11535	9.6101	5.1818	0.	-3483.9
11536	9.5177	5.2727	0.	-3511.1
11537	9.6101	5.2727	5.e-002	-5.5118
11538	9.6101	5.	0.	-3483.4
11539	9.5177	5.0909	0.	-3510.3
11540	9.6101	5.0909	5.e-002	-5.5035
11541	9.6101	4.8182	0.	-3483.
11542	9.5177	4.9091	0.	-3509.7
11543	9.6101	4.9091	5.e-002	-5.4897
11544	9.6101	4.6364	0.	-3482.6
11545	9.5177	4.7273	0.	-3509.1
11546	9.6101	4.7273	5.e-002	-5.4723
11547	9.6101	4.4545	0.	-3482.2
11548	9.5177	4.5455	0.	-3508.5
11549	9.6101	4.5455	5.e-002	-5.4521
11550	9.6101	4.2727	0.	-3481.9
11551	9.5177	4.3636	0.	-3508.
11552	9.6101	4.3636	5.e-002	-5.4303
11553	9.6101	4.0909	0.	-3481.6
11554	9.5177	4.1818	0.	-3507.5
11555	9.6101	4.1818	5.e-002	-5.4078
11556	9.6101	3.9091	0.	-3481.3
11557	9.5177	4.	0.	-3507.1
11558	9.6101	4.	5.e-002	-5.3858
11559	9.6101	3.7273	0.	-3481.
11560	9.5177	3.8182	0.	-3506.8
11561	9.6101	3.8182	5.e-002	-5.3654
11562	9.6101	3.5455	0.	-3480.8
11563	9.5177	3.6364	0.	-3506.4
11564	9.6101	3.6364	5.e-002	-5.3476
11565	9.6101	3.3636	0.	-3480.7
11566	9.5177	3.4545	0.	-3506.2
11567	9.6101	3.4545	5.e-002	-5.3333
11568	9.6101	3.1818	0.	-3480.6
11569	9.5177	3.2727	0.	-3506.
11570	9.6101	3.2727	5.e-002	-5.3234
11571	9.6101	3.	0.	-3480.5
11572	9.5177	3.0909	0.	-3506.
11573	9.6101	3.0909	5.e-002	-5.3183
11574	9.6101	2.8182	0.	-3480.6
11575	9.5177	2.9091	0.	-3506.
11576	9.6101	2.9091	5.e-002	-5.3182
11577	9.6101	2.6364	0.	-3480.7
11578	9.5177	2.7273	0.	-3506.
11579	9.6101	2.7273	5.e-002	-5.3234
11580	9.6101	2.4545	0.	-3480.8
11581	9.5177	2.5455	0.	-3506.2
11582	9.6101	2.5455	5.e-002	-5.3333
11583	9.6101	2.2727	0.	-3481.
11584	9.5177	2.3636	0.	-3506.4
11585	9.6101	2.3636	5.e-002	-5.3476
11586	9.6101	2.0909	0.	-3481.3
11587	9.5177	2.1818	0.	-3506.8
11588	9.6101	2.1818	5.e-002	-5.3654
11589	9.6101	1.9091	0.	-3481.6
11590	9.5177	2.	0.	-3507.1
11591	9.6101	2.	5.e-002	-5.3858
11592	9.6101	1.7273	0.	-3481.9
11593	9.5177	1.8182	0.	-3507.5
11594	9.6101	1.8182	5.e-002	-5.4078
11595	9.6101	1.5455	0.	-3482.2
11596	9.5177	1.6364	0.	-3508.
11597	9.6101	1.6364	5.e-002	-5.4303
11598	9.6101	1.3636	0.	-3482.6
11599	9.5177	1.4545	0.	-3508.5
11600	9.6101	1.4545	5.e-002	-5.4521
11601	9.6101	1.1818	0.	-3483.
11602	9.5177	1.2727	0.	-3509.1
11603	9.6101	1.2727	5.e-002	-5.4722
11604	9.6101	1.	0.	-3483.4
11605	9.5177	1.0909	0.	-3509.7
11606	9.6101	1.0909	5.e-002	-5.4896
11607	9.6101	0.81818	0.	-3483.9
11608	9.5177	0.90909	0.	-3510.3
11609	9.6101	0.90909	5.e-002	-5.5034
11610	9.6101	0.63636	0.	-3484.5
11611	9.5177	0.72727	0.	-3511.1
11612	9.6101	0.72727	5.e-002	-5.5118
11613	9.6101	0.45455	0.	-3485.3
11614	9.5177	0.54545	0.	-3511.9
11615	9.6101	0.54545	5.e-002	-5.4991
11616	9.6101	0.27273	0.	-3486.6
11617	9.5177	0.36364	0.	-3512.9
11618	9.6101	0.36364	5.e-002	-5.2371
11619	9.5177	0.18182	0.	-3515.
11620	9.6101	0.18182	5.e-002	-1.2247
11621	9.6101	9.0909e-002	0.	-3485.3
11622	9.4253	5.7273	0.	-3541.2
11623	9.3329	5.8182	0.	-3569.7
11624	9.4253	5.8182	5.e-002	-1.2352
11625	9.4253	5.9091	0.	-3540.2
11626	9.4253	5.5455	0.	-3539.5
11627	9.3329	5.6364	0.	-3567.3
11628	9.4253	5.6364	5.e-002	-5.2353
11629	9.4253	5.3636	0.	-3538.4
11630	9.3329	5.4545	0.	-3565.9
11631	9.4253	5.4545	5.e-002	-5.499
11632	9.4253	5.1818	0.	-3537.4
11633	9.3329	5.2727	0.	-3564.8
11634	9.4253	5.2727	5.e-002	-5.515
11635	9.4253	5.	0.	-3536.5
11636	9.3329	5.0909	0.	-3563.7
11637	9.4253	5.0909	5.e-002	-5.5108
11638	9.4253	4.8182	0.	-3535.7
11639	9.3329	4.9091	0.	-3562.7
11640	9.4253	4.9091	5.e-002	-5.5019
11641	9.4253	4.6364	0.	-3535.
11642	9.3329	4.7273	0.	-3561.7
11643	9.4253	4.7273	5.e-002	-5.4898
11644	9.4253	4.4545	0.	-3534.3
11645	9.3329	4.5455	0.	-3560.9
11646	9.4253	4.5455	5.e-002	-5.4754
11647	9.4253	4.2727	0.	-3533.7
11648	9.3329	4.3636	0.	-3560.1
11649	9.4253	4.3636	5.e-002	-5.4594
11650	9.4253	4.0909	0.	-3533.1
11651	9.3329	4.1818	0.	-3559.4
11652	9.4253	4.1818	5.e-002	-5.4428
11653	9.4253	3.9091	0.	-3532.6
11654	9.3329	4.	0.	-3558.7
11655	9.4253	4.	5.e-002	-5.4263
11656	9.4253	3.7273	0.	-3532.2
11657	9.3329	3.8182	0.	-3558.2
11658	9.4253	3.8182	5.e-002	-5.4109
11659	9.4253	3.5455	0.	-3531.8
11660	9.3329	3.6364	0.	-3557.7
11661	9.4253	3.6364	5.e-002	-5.3975
11662	9.4253	3.3636	0.	-3531.6
11663	9.3329	3.4545	0.	-3557.3
11664	9.4253	3.4545	5.e-002	-5.3866
11665	9.4253	3.1818	0.	-3531.4
11666	9.3329	3.2727	0.	-3557.1
11667	9.4253	3.2727	5.e-002	-5.379
11668	9.4253	3.	0.	-3531.4
11669	9.3329	3.0909	0.	-3557.
11670	9.4253	3.0909	5.e-002	-5.3752
11671	9.4253	2.8182	0.	-3531.4
11672	9.3329	2.9091	0.	-3557.
11673	9.4253	2.9091	5.e-002	-5.3751
11674	9.4253	2.6364	0.	-3531.6
11675	9.3329	2.7273	0.	-3557.1
11676	9.4253	2.7273	5.e-002	-5.379
11677	9.4253	2.4545	0.	-3531.8
11678	9.3329	2.5455	0.	-3557.3
11679	9.4253	2.5455	5.e-002	-5.3866
11680	9.4253	2.2727	0.	-3532.2
11681	9.3329	2.3636	0.	-3557.7
11682	9.4253	2.3636	5.e-002	-5.3974
11683	9.4253	2.0909	0.	-3532.6
11684	9.3329	2.1818	0.	-3558.2
11685	9.4253	2.1818	5.e-002	-5.4109
11686	9.4253	1.9091	0.	-3533.1
11687	9.3329	2.	0.	-3558.7
11688	9.4253	2.	5.e-002	-5.4263
11689	9.4253	1.7273	0.	-3533.7
11690	9.3329	1.8182	0.	-3559.4
11691	9.4253	1.8182	5.e-002	-5.4427
11692	9.4253	1.5455	0.	-3534.3
11693	9.3329	1.6364	0.	-3560.1
11694	9.4253	1.6364	5.e-002	-5.4594
11695	9.4253	1.3636	0.	-3535.
11696	9.3329	1.4545	0.	-3560.9
11697	9.4253	1.4545	5.e-002	-5.4754
11698	9.4253	1.1818	0.	-3535.7
11699	9.3329	1.2727	0.	-3561.7
11700	9.4253	1.2727	5.e-002	-5.4898
11701	9.4253	1.	0.	-3536.5
11702	9.3329	1.0909	0.	-3562.7
11703	9.4253	1.0909	5.e-002	-5.5019
11704	9.4253	0.81818	0.	-3537.4
11705	9.3329	0.90909	0.	-3563.7
11706	9.4253	0.90909	5.e-002	-5.5108
11707	9.4253	0.63636	0.	-3538.4
11708	9.3329	0.72727	0.	-3564.8
11709	9.4253	0.72727	5.e-002	-5.515
11710	9.4253	0.45455	0.	-3539.5
11711	9.3329	0.54545	0.	-3565.9
11712	9.4253	0.54545	5.e-002	-5.4989
11713	9.4253	0.27273	0.	-3541.2
11714	9.3329	0.36364	0.	-3567.3
11715	9.4253	0.36364	5.e-002	-5.2352
11716	9.3329	0.18182	0.	-3569.7
11717	9.4253	0.18182	5.e-002	-1.2351
11718	9.4253	9.0909e-002	0.	-3540.2
11719	9.2405	5.7273	0.	-3595.7
11720	9.1481	5.8182	0.	-3624.3
11721	9.2405	5.8182	5.e-002	-1.2685
11722	9.2405	5.9091	0.	-3595.1
11723	9.2405	5.5455	0.	-3593.7
11724	9.1481	5.6364	0.	-3621.7
11725	9.2405	5.6364	5.e-002	-5.2424
11726	9.2405	5.3636	0.	-3592.3
11727	9.1481	5.4545	0.	-3620.
11728	9.2405	5.4545	5.e-002	-5.5066
11729	9.2405	5.1818	0.	-3591.
11730	9.1481	5.2727	0.	-3618.5
11731	9.2405	5.2727	5.e-002	-5.5251
11732	9.2405	5.	0.	-3589.8
11733	9.1481	5.0909	0.	-3617.1
11734	9.2405	5.0909	5.e-002	-5.5243
11735	9.2405	4.8182	0.	-3588.6
11736	9.1481	4.9091	0.	-3615.8
11737	9.2405	4.9091	5.e-002	-5.5192
11738	9.2405	4.6364	0.	-3587.6
11739	9.1481	4.7273	0.	-3614.6
11740	9.2405	4.7273	5.e-002	-5.5114
11741	9.2405	4.4545	0.	-3586.6
11742	9.1481	4.5455	0.	-3613.4
11743	9.2405	4.5455	5.e-002	-5.5015
11744	9.2405	4.2727	0.	-3585.7
11745	9.1481	4.3636	0.	-3612.4
11746	9.2405	4.3636	5.e-002	-5.4901
11747	9.2405	4.0909	0.	-3584.9
11748	9.1481	4.1818	0.	-3611.4
11749	9.2405	4.1818	5.e-002	-5.4781
11750	9.2405	3.9091	0.	-3584.3
11751	9.1481	4.	0.	-3610.6
11752	9.2405	4.	5.e-002	-5.4659
11753	9.2405	3.7273	0.	-3583.7
11754	9.1481	3.8182	0.	-3609.8
11755	9.2405	3.8182	5.e-002	-5.4545
11756	9.2405	3.5455	0.	-3583.2
11757	9.1481	3.6364	0.	-3609.3
11758	9.2405	3.6364	5.e-002	-5.4444
11759	9.2405	3.3636	0.	-3582.9
11760	9.1481	3.4545	0.	-3608.8
11761	9.2405	3.4545	5.e-002	-5.4363
11762	9.2405	3.1818	0.	-3582.6
11763	9.1481	3.2727	0.	-3608.5
11764	9.2405	3.2727	5.e-002	-5.4306
11765	9.2405	3.	0.	-3582.6
11766	9.1481	3.0909	0.	-3608.3
11767	9.2405	3.0909	5.e-002	-5.4276
11768	9.2405	2.8182	0.	-3582.6
11769	9.1481	2.9091	0.	-3608.3
11770	9.2405	2.9091	5.e-002	-5.4276
11771	9.2405	2.6364	0.	-3582.9
11772	9.1481	2.7273	0.	-3608.5
11773	9.2405	2.7273	5.e-002	-5.4306
11774	9.2405	2.4545	0.	-3583.2
11775	9.1481	2.5455	0.	-3608.8
11776	9.2405	2.5455	5.e-002	-5.4363
11777	9.2405	2.2727	0.	-3583.7
11778	9.1481	2.3636	0.	-3609.3
11779	9.2405	2.3636	5.e-002	-5.4444
11780	9.2405	2.0909	0.	-3584.3
11781	9.1481	2.1818	0.	-3609.8
11782	9.2405	2.1818	5.e-002	-5.4545
11783	9.2405	1.9091	0.	-3584.9
11784	9.1481	2.	0.	-3610.6
11785	9.2405	2.	5.e-002	-5.4659
11786	9.2405	1.7273	0.	-3585.7
11787	9.1481	1.8182	0.	-3611.4
11788	9.2405	1.8182	5.e-002	-5.478
11789	9.2405	1.5455	0.	-3586.6
11790	9.1481	1.6364	0.	-3612.4
11791	9.2405	1.6364	5.e-002	-5.4901
11792	9.2405	1.3636	0.	-3587.6
11793	9.1481	1.4545	0.	-3613.4
11794	9.2405	1.4545	5.e-002	-5.5014
11795	9.2405	1.1818	0.	-3588.6
11796	9.1481	1.2727	0.	-3614.6
11797	9.2405	1.2727	5.e-002	-5.5114
11798	9.2405	1.	0.	-3589.8
11799	9.1481	1.0909	0.	-3615.8
11800	9.2405	1.0909	5.e-002	-5.5192
11801	9.2405	0.81818	0.	-3591.
11802	9.1481	0.90909	0.	-3617.1
11803	9.2405	0.90909	5.e-002	-5.5242
11804	9.2405	0.63636	0.	-3592.3
11805	9.1481	0.72727	0.	-3618.5
11806	9.2405	0.72727	5.e-002	-5.5251
11807	9.2405	0.45455	0.	-3593.7
11808	9.1481	0.54545	0.	-3620.
11809	9.2405	0.54545	5.e-002	-5.5065
11810	9.2405	0.27273	0.	-3595.7
11811	9.1481	0.36364	0.	-3621.7
11812	9.2405	0.36364	5.e-002	-5.2423
11813	9.1481	0.18182	0.	-3624.3
11814	9.2405	0.18182	5.e-002	-1.2684
11815	9.2405	9.0909e-002	0.	-3595.1
11816	9.0557	5.7273	0.	-3650.3
11817	8.9633	5.8182	0.	-3679.1
11818	9.0557	5.8182	5.e-002	-1.3223
11819	9.0557	5.9091	0.	-3650.
11820	9.0557	5.5455	0.	-3648.
11821	8.9633	5.6364	0.	-3676.2
11822	9.0557	5.6364	5.e-002	-5.257
11823	9.0557	5.3636	0.	-3646.3
11824	8.9633	5.4545	0.	-3674.2
11825	9.0557	5.4545	5.e-002	-5.5206
11826	9.0557	5.1818	0.	-3644.6
11827	8.9633	5.2727	0.	-3672.4
11828	9.0557	5.2727	5.e-002	-5.5412
11829	9.0557	5.	0.	-3643.1
11830	8.9633	5.0909	0.	-3670.7
11831	9.0557	5.0909	5.e-002	-5.5429
11832	9.0557	4.8182	0.	-3641.7
11833	8.9633	4.9091	0.	-3669.1
11834	9.0557	4.9091	5.e-002	-5.5409
11835	9.0557	4.6364	0.	-3640.4
11836	8.9633	4.7273	0.	-3667.6
11837	9.0557	4.7273	5.e-002	-5.5365
11838	9.0557	4.4545	0.	-3639.1
11839	8.9633	4.5455	0.	-3666.2
11840	9.0557	4.5455	5.e-002	-5.5301
11841	9.0557	4.2727	0.	-3638.
11842	8.9633	4.3636	0.	-3664.9
11843	9.0557	4.3636	5.e-002	-5.5224
11844	9.0557	4.0909	0.	-3637.
11845	8.9633	4.1818	0.	-3663.7
11846	9.0557	4.1818	5.e-002	-5.5139
11847	9.0557	3.9091	0.	-3636.2
11848	8.9633	4.	0.	-3662.7
11849	9.0557	4.	5.e-002	-5.5052
11850	9.0557	3.7273	0.	-3635.4
11851	8.9633	3.8182	0.	-3661.8
11852	9.0557	3.8182	5.e-002	-5.4969
11853	9.0557	3.5455	0.	-3634.8
11854	8.9633	3.6364	0.	-3661.1
11855	9.0557	3.6364	5.e-002	-5.4895
11856	9.0557	3.3636	0.	-3634.4
11857	8.9633	3.4545	0.	-3660.5
11858	9.0557	3.4545	5.e-002	-5.4835
11859	9.0557	3.1818	0.	-3634.2
11860	8.9633	3.2727	0.	-3660.2
11861	9.0557	3.2727	5.e-002	-5.4792
11862	9.0557	3.	0.	-3634.1
11863	8.9633	3.0909	0.	-3660.
11864	9.0557	3.0909	5.e-002	-5.477
11865	9.0557	2.8182	0.	-3634.2
11866	8.9633	2.9091	0.	-3660.
11867	9.0557	2.9091	5.e-002	-5.477
11868	9.0557	2.6364	0.	-3634.4
11869	8.9633	2.7273	0.	-3660.2
11870	9.0557	2.7273	5.e-002	-5.4792
11871	9.0557	2.4545	0.	-3634.8
11872	8.9633	2.5455	0.	-3660.5
11873	9.0557	2.5455	5.e-002	-5.4834
11874	9.0557	2.2727	0.	-3635.4
11875	8.9633	2.3636	0.	-3661.1
11876	9.0557	2.3636	5.e-002	-5.4895
11877	9.0557	2.0909	0.	-3636.2
11878	8.9633	2.1818	0.	-3661.8
11879	9.0557	2.1818	5.e-002	-5.4969
11880	9.0557	1.9091	0.	-3637.
11881	8.9633	2.	0.	-3662.7
11882	9.0557	2.	5.e-002	-5.5052
11883	9.0557	1.7273	0.	-3638.
11884	8.9633	1.8182	0.	-3663.7
11885	9.0557	1.8182	5.e-002	-5.5139
11886	9.0557	1.5455	0.	-3639.1
11887	8.9633	1.6364	0.	-3664.9
11888	9.0557	1.6364	5.e-002	-5.5224
11889	9.0557	1.3636	0.	-3640.4
11890	8.9633	1.4545	0.	-3666.2
11891	9.0557	1.4545	5.e-002	-5.5301
11892	9.0557	1.1818	0.	-3641.7
11893	8.9633	1.2727	0.	-3667.6
11894	9.0557	1.2727	5.e-002	-5.5365
11895	9.0557	1.	0.	-3643.1
11896	8.9633	1.0909	0.	-3669.1
11897	9.0557	1.0909	5.e-002	-5.5409
11898	9.0557	0.81818	0.	-3644.6
11899	8.9633	0.90909	0.	-3670.7
11900	9.0557	0.90909	5.e-002	-5.5429
11901	9.0557	0.63636	0.	-3646.3
11902	8.9633	0.72727	0.	-3672.4
11903	9.0557	0.72727	5.e-002	-5.5411
11904	9.0557	0.45455	0.	-3648.
11905	8.9633	0.54545	0.	-3674.2
11906	9.0557	0.54545	5.e-002	-5.5206
11907	9.0557	0.27273	0.	-3650.3
11908	8.9633	0.36364	0.	-3676.2
11909	9.0557	0.36364	5.e-002	-5.257
11910	8.9633	0.18182	0.	-3679.1
11911	9.0557	0.18182	5.e-002	-1.3222
11912	9.0557	9.0909e-002	0.	-3650.
11913	8.8709	5.7273	0.	-3705.
11914	8.7785	5.8182	0.	-3734.
11915	8.8709	5.8182	5.e-002	-1.3948
11916	8.8709	5.9091	0.	-3705.
11917	8.8709	5.5455	0.	-3702.4
11918	8.7785	5.6364	0.	-3730.8
11919	8.8709	5.6364	5.e-002	-5.2784
11920	8.8709	5.3636	0.	-3700.4
11921	8.7785	5.4545	0.	-3728.5
11922	8.8709	5.4545	5.e-002	-5.5403
11923	8.8709	5.1818	0.	-3698.4
11924	8.7785	5.2727	0.	-3726.4
11925	8.8709	5.2727	5.e-002	-5.5624
11926	8.8709	5.	0.	-3696.6
11927	8.7785	5.0909	0.	-3724.4
11928	8.8709	5.0909	5.e-002	-5.5662
11929	8.8709	4.8182	0.	-3694.9
11930	8.7785	4.9091	0.	-3722.5
11931	8.8709	4.9091	5.e-002	-5.5667
11932	8.8709	4.6364	0.	-3693.3
11933	8.7785	4.7273	0.	-3720.7
11934	8.8709	4.7273	5.e-002	-5.5649
11935	8.8709	4.4545	0.	-3691.9
11936	8.7785	4.5455	0.	-3719.1
11937	8.8709	4.5455	5.e-002	-5.5613
11938	8.8709	4.2727	0.	-3690.5
11939	8.7785	4.3636	0.	-3717.6
11940	8.8709	4.3636	5.e-002	-5.5565
11941	8.8709	4.0909	0.	-3689.4
11942	8.7785	4.1818	0.	-3716.2
11943	8.8709	4.1818	5.e-002	-5.5508
11944	8.8709	3.9091	0.	-3688.3
11945	8.7785	4.	0.	-3715.
11946	8.8709	4.	5.e-002	-5.5448
11947	8.8709	3.7273	0.	-3687.5
11948	8.7785	3.8182	0.	-3714.
11949	8.8709	3.8182	5.e-002	-5.5388
11950	8.8709	3.5455	0.	-3686.8
11951	8.7785	3.6364	0.	-3713.2
11952	8.8709	3.6364	5.e-002	-5.5335
11953	8.8709	3.3636	0.	-3686.3
11954	8.7785	3.4545	0.	-3712.5
11955	8.8709	3.4545	5.e-002	-5.5291
11956	8.8709	3.1818	0.	-3686.
11957	8.7785	3.2727	0.	-3712.1
11958	8.8709	3.2727	5.e-002	-5.526
11959	8.8709	3.	0.	-3685.9
11960	8.7785	3.0909	0.	-3711.9
11961	8.8709	3.0909	5.e-002	-5.5244
11962	8.8709	2.8182	0.	-3686.
11963	8.7785	2.9091	0.	-3711.9
11964	8.8709	2.9091	5.e-002	-5.5244
11965	8.8709	2.6364	0.	-3686.3
11966	8.7785	2.7273	0.	-3712.1
11967	8.8709	2.7273	5.e-002	-5.526
11968	8.8709	2.4545	0.	-3686.8
11969	8.7785	2.5455	0.	-3712.5
11970	8.8709	2.5455	5.e-002	-5.5291
11971	8.8709	2.2727	0.	-3687.5
11972	8.7785	2.3636	0.	-3713.2
11973	8.8709	2.3636	5.e-002	-5.5335
11974	8.8709	2.0909	0.	-3688.3
11975	8.7785	2.1818	0.	-3714.
11976	8.8709	2.1818	5.e-002	-5.5388
11977	8.8709	1.9091	0.	-3689.4
11978	8.7785	2.	0.	-3715.
11979	8.8709	2.	5.e-002	-5.5447
11980	8.8709	1.7273	0.	-3690.5
11981	8.7785	1.8182	0.	-3716.2
11982	8.8709	1.8182	5.e-002	-5.5508
11983	8.8709	1.5455	0.	-3691.9
11984	8.7785	1.6364	0.	-3717.6
11985	8.8709	1.6364	5.e-002	-5.5564
11986	8.8709	1.3636	0.	-3693.3
11987	8.7785	1.4545	0.	-3719.1
11988	8.8709	1.4545	5.e-002	-5.5613
11989	8.8709	1.1818	0.	-3694.9
11990	8.7785	1.2727	0.	-3720.7
11991	8.8709	1.2727	5.e-002	-5.5648
11992	8.8709	1.	0.	-3696.6
11993	8.7785	1.0909	0.	-3722.5
11994	8.8709	1.0909	5.e-002	-5.5666
11995	8.8709	0.81818	0.	-3698.4
11996	8.7785	0.90909	0.	-3724.4
11997	8.8709	0.90909	5.e-002	-5.5662
11998	8.8709	0.63636	0.	-3700.4
11999	8.7785	0.72727	0.	-3726.4
12000	8.8709	0.72727	5.e-002	-5.5623
12001	8.8709	0.45455	0.	-3702.4
12002	8.7785	0.54545	0.	-3728.5
12003	8.8709	0.54545	5.e-002	-5.5403
12004	8.8709	0.27273	0.	-3705.
12005	8.7785	0.36364	0.	-3730.8
12006	8.8709	0.36364	5.e-002	-5.2783
12007	8.7785	0.18182	0.	-3734.
12008	8.8709	0.18182	5.e-002	-1.3947
12009	8.8709	9.0909e-002	0.	-3705.
12010	8.6861	5.7273	0.	-3759.8
12011	8.5937	5.8182	0.	-3789.
12012	8.6861	5.8182	5.e-002	-1.4847
12013	8.6861	5.9091	0.	-3760.1
12014	8.6861	5.5455	0.	-3756.9
12015	8.5937	5.6364	0.	-3785.6
12016	8.6861	5.6364	5.e-002	-5.3055
12017	8.6861	5.3636	0.	-3754.6
12018	8.5937	5.4545	0.	-3783.
12019	8.6861	5.4545	5.e-002	-5.565
12020	8.6861	5.1818	0.	-3752.4
12021	8.5937	5.2727	0.	-3780.6
12022	8.6861	5.2727	5.e-002	-5.5882
12023	8.6861	5.	0.	-3750.3
12024	8.5937	5.0909	0.	-3778.3
12025	8.6861	5.0909	5.e-002	-5.5938
12026	8.6861	4.8182	0.	-3748.3
12027	8.5937	4.9091	0.	-3776.1
12028	8.6861	4.9091	5.e-002	-5.5961
12029	8.6861	4.6364	0.	-3746.5
12030	8.5937	4.7273	0.	-3774.1
12031	8.6861	4.7273	5.e-002	-5.5964
12032	8.6861	4.4545	0.	-3744.8
12033	8.5937	4.5455	0.	-3772.2
12034	8.6861	4.5455	5.e-002	-5.595
12035	8.6861	4.2727	0.	-3743.3
12036	8.5937	4.3636	0.	-3770.5
12037	8.6861	4.3636	5.e-002	-5.5924
12038	8.6861	4.0909	0.	-3741.9
12039	8.5937	4.1818	0.	-3768.9
12040	8.6861	4.1818	5.e-002	-5.5889
12041	8.6861	3.9091	0.	-3740.7
12042	8.5937	4.	0.	-3767.6
12043	8.6861	4.	5.e-002	-5.5849
12044	8.6861	3.7273	0.	-3739.7
12045	8.5937	3.8182	0.	-3766.4
12046	8.6861	3.8182	5.e-002	-5.5809
12047	8.6861	3.5455	0.	-3738.9
12048	8.5937	3.6364	0.	-3765.4
12049	8.6861	3.6364	5.e-002	-5.5772
12050	8.6861	3.3636	0.	-3738.3
12051	8.5937	3.4545	0.	-3764.7
12052	8.6861	3.4545	5.e-002	-5.574
12053	8.6861	3.1818	0.	-3738.
12054	8.5937	3.2727	0.	-3764.2
12055	8.6861	3.2727	5.e-002	-5.5718
12056	8.6861	3.	0.	-3737.9
12057	8.5937	3.0909	0.	-3764.
12058	8.6861	3.0909	5.e-002	-5.5706
12059	8.6861	2.8182	0.	-3738.
12060	8.5937	2.9091	0.	-3764.
12061	8.6861	2.9091	5.e-002	-5.5706
12062	8.6861	2.6364	0.	-3738.3
12063	8.5937	2.7273	0.	-3764.2
12064	8.6861	2.7273	5.e-002	-5.5718
12065	8.6861	2.4545	0.	-3738.9
12066	8.5937	2.5455	0.	-3764.7
12067	8.6861	2.5455	5.e-002	-5.574
12068	8.6861	2.2727	0.	-3739.7
12069	8.5937	2.3636	0.	-3765.4
12070	8.6861	2.3636	5.e-002	-5.5772
12071	8.6861	2.0909	0.	-3740.7
12072	8.5937	2.1818	0.	-3766.4
12073	8.6861	2.1818	5.e-002	-5.5809
12074	8.6861	1.9091	0.	-3741.9
12075	8.5937	2.	0.	-3767.6
12076	8.6861	2.	5.e-002	-5.5849
12077	8.6861	1.7273	0.	-3743.3
12078	8.5937	1.8182	0.	-3768.9
12079	8.6861	1.8182	5.e-002	-5.5889
12080	8.6861	1.5455	0.	-3744.8
12081	8.5937	1.6364	0.	-3770.5
12082	8.6861	1.6364	5.e-002	-5.5924
12083	8.6861	1.3636	0.	-3746.5
12084	8.5937	1.4545	0.	-3772.2
12085	8.6861	1.4545	5.e-002	-5.595
12086	8.6861	1.1818	0.	-3748.3
12087	8.5937	1.2727	0.	-3774.1
12088	8.6861	1.2727	5.e-002	-5.5963
12089	8.6861	1.	0.	-3750.3
12090	8.5937	1.0909	0.	-3776.1
12091	8.6861	1.0909	5.e-002	-5.596
12092	8.6861	0.81818	0.	-3752.4
12093	8.5937	0.90909	0.	-3778.3
12094	8.6861	0.90909	5.e-002	-5.5937
12095	8.6861	0.63636	0.	-3754.6
12096	8.5937	0.72727	0.	-3780.6
12097	8.6861	0.72727	5.e-002	-5.5882
12098	8.6861	0.45455	0.	-3756.9
12099	8.5937	0.54545	0.	-3783.
12100	8.6861	0.54545	5.e-002	-5.5649
12101	8.6861	0.27273	0.	-3759.8
12102	8.5937	0.36364	0.	-3785.6
12103	8.6861	0.36364	5.e-002	-5.3054
12104	8.5937	0.18182	0.	-3789.
12105	8.6861	0.18182	5.e-002	-1.4846
12106	8.6861	9.0909e-002	0.	-3760.1
12107	8.5013	5.7273	0.	-3814.7
12108	8.4089	5.8182	0.	-3844.2
12109	8.5013	5.8182	5.e-002	-1.5912
12110	8.5013	5.9091	0.	-3815.4
12111	8.5013	5.5455	0.	-3811.6
12112	8.4089	5.6364	0.	-3840.5
12113	8.5013	5.6364	5.e-002	-5.338
12114	8.5013	5.3636	0.	-3809.
12115	8.4089	5.4545	0.	-3837.7
12116	8.5013	5.4545	5.e-002	-5.5941
12117	8.5013	5.1818	0.	-3806.5
12118	8.4089	5.2727	0.	-3835.
12119	8.5013	5.2727	5.e-002	-5.6182
12120	8.5013	5.	0.	-3804.2
12121	8.4089	5.0909	0.	-3832.4
12122	8.5013	5.0909	5.e-002	-5.6251
12123	8.5013	4.8182	0.	-3801.9
12124	8.4089	4.9091	0.	-3830.
12125	8.5013	4.9091	5.e-002	-5.629
12126	8.5013	4.6364	0.	-3799.8
12127	8.4089	4.7273	0.	-3827.7
12128	8.5013	4.7273	5.e-002	-5.6309
12129	8.5013	4.4545	0.	-3797.9
12130	8.4089	4.5455	0.	-3825.6
12131	8.5013	4.5455	5.e-002	-5.6312
12132	8.5013	4.2727	0.	-3796.2
12133	8.4089	4.3636	0.	-3823.6
12134	8.5013	4.3636	5.e-002	-5.6304
12135	8.5013	4.0909	0.	-3794.6
12136	8.4089	4.1818	0.	-3821.9
12137	8.5013	4.1818	5.e-002	-5.6286
12138	8.5013	3.9091	0.	-3793.3
12139	8.4089	4.	0.	-3820.3
12140	8.5013	4.	5.e-002	-5.6262
12141	8.5013	3.7273	0.	-3792.1
12142	8.4089	3.8182	0.	-3819.
12143	8.5013	3.8182	5.e-002	-5.6236
12144	8.5013	3.5455	0.	-3791.3
12145	8.4089	3.6364	0.	-3817.9
12146	8.5013	3.6364	5.e-002	-5.6211
12147	8.5013	3.3636	0.	-3790.6
12148	8.4089	3.4545	0.	-3817.1
12149	8.5013	3.4545	5.e-002	-5.6189
12150	8.5013	3.1818	0.	-3790.2
12151	8.4089	3.2727	0.	-3816.6
12152	8.5013	3.2727	5.e-002	-5.6173
12153	8.5013	3.	0.	-3790.1
12154	8.4089	3.0909	0.	-3816.3
12155	8.5013	3.0909	5.e-002	-5.6165
12156	8.5013	2.8182	0.	-3790.2
12157	8.4089	2.9091	0.	-3816.3
12158	8.5013	2.9091	5.e-002	-5.6165
12159	8.5013	2.6364	0.	-3790.6
12160	8.4089	2.7273	0.	-3816.6
12161	8.5013	2.7273	5.e-002	-5.6173
12162	8.5013	2.4545	0.	-3791.3
12163	8.4089	2.5455	0.	-3817.1
12164	8.5013	2.5455	5.e-002	-5.6189
12165	8.5013	2.2727	0.	-3792.1
12166	8.4089	2.3636	0.	-3817.9
12167	8.5013	2.3636	5.e-002	-5.6211
12168	8.5013	2.0909	0.	-3793.3
12169	8.4089	2.1818	0.	-3819.
12170	8.5013	2.1818	5.e-002	-5.6236
12171	8.5013	1.9091	0.	-3794.6
12172	8.4089	2.	0.	-3820.3
12173	8.5013	2.	5.e-002	-5.6262
12174	8.5013	1.7273	0.	-3796.2
12175	8.4089	1.8182	0.	-3821.9
12176	8.5013	1.8182	5.e-002	-5.6285
12177	8.5013	1.5455	0.	-3797.9
12178	8.4089	1.6364	0.	-3823.6
12179	8.5013	1.6364	5.e-002	-5.6304
12180	8.5013	1.3636	0.	-3799.8
12181	8.4089	1.4545	0.	-3825.6
12182	8.5013	1.4545	5.e-002	-5.6312
12183	8.5013	1.1818	0.	-3801.9
12184	8.4089	1.2727	0.	-3827.7
12185	8.5013	1.2727	5.e-002	-5.6309
12186	8.5013	1.	0.	-3804.2
12187	8.4089	1.0909	0.	-3830.
12188	8.5013	1.0909	5.e-002	-5.6289
12189	8.5013	0.81818	0.	-3806.5
12190	8.4089	0.90909	0.	-3832.4
12191	8.5013	0.90909	5.e-002	-5.6251
12192	8.5013	0.63636	0.	-3809.
12193	8.4089	0.72727	0.	-3835.
12194	8.5013	0.72727	5.e-002	-5.6182
12195	8.5013	0.45455	0.	-3811.6
12196	8.4089	0.54545	0.	-3837.7
12197	8.5013	0.54545	5.e-002	-5.594
12198	8.5013	0.27273	0.	-3814.7
12199	8.4089	0.36364	0.	-3840.5
12200	8.5013	0.36364	5.e-002	-5.338
12201	8.4089	0.18182	0.	-3844.2
12202	8.5013	0.18182	5.e-002	-1.5911
12203	8.5013	9.0909e-002	0.	-3815.4
12204	8.3165	5.7273	0.	-3869.9
12205	8.2241	5.8182	0.	-3899.6
12206	8.3165	5.8182	5.e-002	-1.7138
12207	8.3165	5.9091	0.	-3870.9
12208	8.3165	5.5455	0.	-3866.5
12209	8.2241	5.6364	0.	-3895.7
12210	8.3165	5.6364	5.e-002	-5.3756
12211	8.3165	5.3636	0.	-3863.6
12212	8.2241	5.4545	0.	-3892.5
12213	8.3165	5.4545	5.e-002	-5.6275
12214	8.3165	5.1818	0.	-3860.8
12215	8.2241	5.2727	0.	-3889.5
12216	8.3165	5.2727	5.e-002	-5.6522
12217	8.3165	5.	0.	-3858.2
12218	8.2241	5.0909	0.	-3886.7
12219	8.3165	5.0909	5.e-002	-5.6602
12220	8.3165	4.8182	0.	-3855.7
12221	8.2241	4.9091	0.	-3884.
12222	8.3165	4.9091	5.e-002	-5.6652
12223	8.3165	4.6364	0.	-3853.4
12224	8.2241	4.7273	0.	-3881.4
12225	8.3165	4.7273	5.e-002	-5.6684
12226	8.3165	4.4545	0.	-3851.2
12227	8.2241	4.5455	0.	-3879.1
12228	8.3165	4.5455	5.e-002	-5.6701
12229	8.3165	4.2727	0.	-3849.3
12230	8.2241	4.3636	0.	-3876.9
12231	8.3165	4.3636	5.e-002	-5.6705
12232	8.3165	4.0909	0.	-3847.5
12233	8.2241	4.1818	0.	-3875.
12234	8.3165	4.1818	5.e-002	-5.67
12235	8.3165	3.9091	0.	-3846.
12236	8.2241	4.	0.	-3873.2
12237	8.3165	4.	5.e-002	-5.6689
12238	8.3165	3.7273	0.	-3844.8
12239	8.2241	3.8182	0.	-3871.8
12240	8.3165	3.8182	5.e-002	-5.6674
12241	8.3165	3.5455	0.	-3843.8
12242	8.2241	3.6364	0.	-3870.6
12243	8.3165	3.6364	5.e-002	-5.6657
12244	8.3165	3.3636	0.	-3843.1
12245	8.2241	3.4545	0.	-3869.7
12246	8.3165	3.4545	5.e-002	-5.6643
12247	8.3165	3.1818	0.	-3842.6
12248	8.2241	3.2727	0.	-3869.1
12249	8.3165	3.2727	5.e-002	-5.6633
12250	8.3165	3.	0.	-3842.5
12251	8.2241	3.0909	0.	-3868.8
12252	8.3165	3.0909	5.e-002	-5.6627
12253	8.3165	2.8182	0.	-3842.6
12254	8.2241	2.9091	0.	-3868.8
12255	8.3165	2.9091	5.e-002	-5.6627
12256	8.3165	2.6364	0.	-3843.1
12257	8.2241	2.7273	0.	-3869.1
12258	8.3165	2.7273	5.e-002	-5.6632
12259	8.3165	2.4545	0.	-3843.8
12260	8.2241	2.5455	0.	-3869.7
12261	8.3165	2.5455	5.e-002	-5.6643
12262	8.3165	2.2727	0.	-3844.8
12263	8.2241	2.3636	0.	-3870.6
12264	8.3165	2.3636	5.e-002	-5.6657
12265	8.3165	2.0909	0.	-3846.
12266	8.2241	2.1818	0.	-3871.8
12267	8.3165	2.1818	5.e-002	-5.6673
12268	8.3165	1.9091	0.	-3847.5
12269	8.2241	2.	0.	-3873.2
12270	8.3165	2.	5.e-002	-5.6689
12271	8.3165	1.7273	0.	-3849.3
12272	8.2241	1.8182	0.	-3875.
12273	8.3165	1.8182	5.e-002	-5.67
12274	8.3165	1.5455	0.	-3851.2
12275	8.2241	1.6364	0.	-3876.9
12276	8.3165	1.6364	5.e-002	-5.6705
12277	8.3165	1.3636	0.	-3853.4
12278	8.2241	1.4545	0.	-3879.1
12279	8.3165	1.4545	5.e-002	-5.6701
12280	8.3165	1.1818	0.	-3855.7
12281	8.2241	1.2727	0.	-3881.4
12282	8.3165	1.2727	5.e-002	-5.6684
12283	8.3165	1.	0.	-3858.2
12284	8.2241	1.0909	0.	-3884.
12285	8.3165	1.0909	5.e-002	-5.6652
12286	8.3165	0.81818	0.	-3860.8
12287	8.2241	0.90909	0.	-3886.7
12288	8.3165	0.90909	5.e-002	-5.6601
12289	8.3165	0.63636	0.	-3863.6
12290	8.2241	0.72727	0.	-3889.5
12291	8.3165	0.72727	5.e-002	-5.6522
12292	8.3165	0.45455	0.	-3866.5
12293	8.2241	0.54545	0.	-3892.5
12294	8.3165	0.54545	5.e-002	-5.6274
12295	8.3165	0.27273	0.	-3869.9
12296	8.2241	0.36364	0.	-3895.7
12297	8.3165	0.36364	5.e-002	-5.3755
12298	8.2241	0.18182	0.	-3899.6
12299	8.3165	0.18182	5.e-002	-1.7138
12300	8.3165	9.0909e-002	0.	-3870.9
12301	8.1316	5.7273	0.	-3925.3
12302	8.0392	5.8182	0.	-3955.2
12303	8.1316	5.8182	5.e-002	-1.8527
12304	8.1316	5.9091	0.	-3926.7
12305	8.1316	5.5455	0.	-3921.7
12306	8.0392	5.6364	0.	-3951.1
12307	8.1316	5.6364	5.e-002	-5.418
12308	8.1316	5.3636	0.	-3918.5
12309	8.0392	5.4545	0.	-3947.6
12310	8.1316	5.4545	5.e-002	-5.6648
12311	8.1316	5.1818	0.	-3915.4
12312	8.0392	5.2727	0.	-3944.3
12313	8.1316	5.2727	5.e-002	-5.69
12314	8.1316	5.	0.	-3912.5
12315	8.0392	5.0909	0.	-3941.2
12316	8.1316	5.0909	5.e-002	-5.6988
12317	8.1316	4.8182	0.	-3909.7
12318	8.0392	4.9091	0.	-3938.2
12319	8.1316	4.9091	5.e-002	-5.7048
12320	8.1316	4.6364	0.	-3907.1
12321	8.0392	4.7273	0.	-3935.4
12322	8.1316	4.7273	5.e-002	-5.709
12323	8.1316	4.4545	0.	-3904.7
12324	8.0392	4.5455	0.	-3932.8
12325	8.1316	4.5455	5.e-002	-5.7117
12326	8.1316	4.2727	0.	-3902.6
12327	8.0392	4.3636	0.	-3930.4
12328	8.1316	4.3636	5.e-002	-5.7131
12329	8.1316	4.0909	0.	-3900.6
12330	8.0392	4.1818	0.	-3928.2
12331	8.1316	4.1818	5.e-002	-5.7136
12332	8.1316	3.9091	0.	-3899.
12333	8.0392	4.	0.	-3926.3
12334	8.1316	4.	5.e-002	-5.7133
12335	8.1316	3.7273	0.	-3897.6
12336	8.0392	3.8182	0.	-3924.7
12337	8.1316	3.8182	5.e-002	-5.7125
12338	8.1316	3.5455	0.	-3896.5
12339	8.0392	3.6364	0.	-3923.4
12340	8.1316	3.6364	5.e-002	-5.7116
12341	8.1316	3.3636	0.	-3895.7
12342	8.0392	3.4545	0.	-3922.4
12343	8.1316	3.4545	5.e-002	-5.7107
12344	8.1316	3.1818	0.	-3895.2
12345	8.0392	3.2727	0.	-3921.8
12346	8.1316	3.2727	5.e-002	-5.71
12347	8.1316	3.	0.	-3895.1
12348	8.0392	3.0909	0.	-3921.4
12349	8.1316	3.0909	5.e-002	-5.7096
12350	8.1316	2.8182	0.	-3895.2
12351	8.0392	2.9091	0.	-3921.4
12352	8.1316	2.9091	5.e-002	-5.7096
12353	8.1316	2.6364	0.	-3895.7
12354	8.0392	2.7273	0.	-3921.8
12355	8.1316	2.7273	5.e-002	-5.71
12356	8.1316	2.4545	0.	-3896.5
12357	8.0392	2.5455	0.	-3922.4
12358	8.1316	2.5455	5.e-002	-5.7107
12359	8.1316	2.2727	0.	-3897.6
12360	8.0392	2.3636	0.	-3923.4
12361	8.1316	2.3636	5.e-002	-5.7116
12362	8.1316	2.0909	0.	-3899.
12363	8.0392	2.1818	0.	-3924.7
12364	8.1316	2.1818	5.e-002	-5.7125
12365	8.1316	1.9091	0.	-3900.6
12366	8.0392	2.	0.	-3926.3
12367	8.1316	2.	5.e-002	-5.7133
12368	8.1316	1.7273	0.	-3902.6
12369	8.0392	1.8182	0.	-3928.2
12370	8.1316	1.8182	5.e-002	-5.7135
12371	8.1316	1.5455	0.	-3904.7
12372	8.0392	1.6364	0.	-3930.4
12373	8.1316	1.6364	5.e-002	-5.7131
12374	8.1316	1.3636	0.	-3907.1
12375	8.0392	1.4545	0.	-3932.8
12376	8.1316	1.4545	5.e-002	-5.7117
12377	8.1316	1.1818	0.	-3909.7
12378	8.0392	1.2727	0.	-3935.4
12379	8.1316	1.2727	5.e-002	-5.709
12380	8.1316	1.	0.	-3912.5
12381	8.0392	1.0909	0.	-3938.2
12382	8.1316	1.0909	5.e-002	-5.7048
12383	8.1316	0.81818	0.	-3915.4
12384	8.0392	0.90909	0.	-3941.2
12385	8.1316	0.90909	5.e-002	-5.6988
12386	8.1316	0.63636	0.	-3918.5
12387	8.0392	0.72727	0.	-3944.3
12388	8.1316	0.72727	5.e-002	-5.6899
12389	8.1316	0.45455	0.	-3921.7
12390	8.0392	0.54545	0.	-3947.6
12391	8.1316	0.54545	5.e-002	-5.6647
12392	8.1316	0.27273	0.	-3925.3
12393	8.0392	0.36364	0.	-3951.1
12394	8.1316	0.36364	5.e-002	-5.4179
12395	8.0392	0.18182	0.	-3955.2
12396	8.1316	0.18182	5.e-002	-1.8526
12397	8.1316	9.0909e-002	0.	-3926.7
12398	7.9468	5.7273	0.	-3980.9
12399	7.8544	5.8182	0.	-4011.1
12400	7.9468	5.8182	5.e-002	-2.0079
12401	7.9468	5.9091	0.	-3982.7
12402	7.9468	5.5455	0.	-3977.
12403	7.8544	5.6364	0.	-4006.7
12404	7.9468	5.6364	5.e-002	-5.4652
12405	7.9468	5.3636	0.	-3973.5
12406	7.8544	5.4545	0.	-4003.
12407	7.9468	5.4545	5.e-002	-5.706
12408	7.9468	5.1818	0.	-3970.1
12409	7.8544	5.2727	0.	-3999.4
12410	7.9468	5.2727	5.e-002	-5.7316
12411	7.9468	5.	0.	-3966.9
12412	7.8544	5.0909	0.	-3995.9
12413	7.9468	5.0909	5.e-002	-5.7411
12414	7.9468	4.8182	0.	-3963.9
12415	7.8544	4.9091	0.	-3992.6
12416	7.9468	4.9091	5.e-002	-5.7478
12417	7.9468	4.6364	0.	-3961.
12418	7.8544	4.7273	0.	-3989.5
12419	7.9468	4.7273	5.e-002	-5.7527
12420	7.9468	4.4545	0.	-3958.4
12421	7.8544	4.5455	0.	-3986.7
12422	7.9468	4.5455	5.e-002	-5.7562
12423	7.9468	4.2727	0.	-3956.
12424	7.8544	4.3636	0.	-3984.
12425	7.9468	4.3636	5.e-002	-5.7583
12426	7.9468	4.0909	0.	-3953.9
12427	7.8544	4.1818	0.	-3981.7
12428	7.9468	4.1818	5.e-002	-5.7594
12429	7.9468	3.9091	0.	-3952.1
12430	7.8544	4.	0.	-3979.6
12431	7.9468	4.	5.e-002	-5.7598
12432	7.9468	3.7273	0.	-3950.6
12433	7.8544	3.8182	0.	-3977.8
12434	7.9468	3.8182	5.e-002	-5.7596
12435	7.9468	3.5455	0.	-3949.4
12436	7.8544	3.6364	0.	-3976.4
12437	7.9468	3.6364	5.e-002	-5.7591
12438	7.9468	3.3636	0.	-3948.5
12439	7.8544	3.4545	0.	-3975.3
12440	7.9468	3.4545	5.e-002	-5.7586
12441	7.9468	3.1818	0.	-3948.
12442	7.8544	3.2727	0.	-3974.6
12443	7.9468	3.2727	5.e-002	-5.7581
12444	7.9468	3.	0.	-3947.8
12445	7.8544	3.0909	0.	-3974.2
12446	7.9468	3.0909	5.e-002	-5.7578
12447	7.9468	2.8182	0.	-3948.
12448	7.8544	2.9091	0.	-3974.2
12449	7.9468	2.9091	5.e-002	-5.7578
12450	7.9468	2.6364	0.	-3948.5
12451	7.8544	2.7273	0.	-3974.6
12452	7.9468	2.7273	5.e-002	-5.7581
12453	7.9468	2.4545	0.	-3949.4
12454	7.8544	2.5455	0.	-3975.3
12455	7.9468	2.5455	5.e-002	-5.7585
12456	7.9468	2.2727	0.	-3950.6
12457	7.8544	2.3636	0.	-3976.4
12458	7.9468	2.3636	5.e-002	-5.7591
12459	7.9468	2.0909	0.	-3952.1
12460	7.8544	2.1818	0.	-3977.8
12461	7.9468	2.1818	5.e-002	-5.7595
12462	7.9468	1.9091	0.	-3953.9
12463	7.8544	2.	0.	-3979.6
12464	7.9468	2.	5.e-002	-5.7597
12465	7.9468	1.7273	0.	-3956.
12466	7.8544	1.8182	0.	-3981.7
12467	7.9468	1.8182	5.e-002	-5.7594
12468	7.9468	1.5455	0.	-3958.4
12469	7.8544	1.6364	0.	-3984.
12470	7.9468	1.6364	5.e-002	-5.7583
12471	7.9468	1.3636	0.	-3961.
12472	7.8544	1.4545	0.	-3986.7
12473	7.9468	1.4545	5.e-002	-5.7561
12474	7.9468	1.1818	0.	-3963.9
12475	7.8544	1.2727	0.	-3989.5
12476	7.9468	1.2727	5.e-002	-5.7527
12477	7.9468	1.	0.	-3966.9
12478	7.8544	1.0909	0.	-3992.6
12479	7.9468	1.0909	5.e-002	-5.7477
12480	7.9468	0.81818	0.	-3970.1
12481	7.8544	0.90909	0.	-3995.9
12482	7.9468	0.90909	5.e-002	-5.741
12483	7.9468	0.63636	0.	-3973.5
12484	7.8544	0.72727	0.	-3999.4
12485	7.9468	0.72727	5.e-002	-5.7315
12486	7.9468	0.45455	0.	-3977.
12487	7.8544	0.54545	0.	-4003.
12488	7.9468	0.54545	5.e-002	-5.706
12489	7.9468	0.27273	0.	-3980.9
12490	7.8544	0.36364	0.	-4006.7
12491	7.9468	0.36364	5.e-002	-5.4652
12492	7.8544	0.18182	0.	-4011.1
12493	7.9468	0.18182	5.e-002	-2.0079
12494	7.9468	9.0909e-002	0.	-3982.7
12495	7.762	5.7273	0.	-4036.9
12496	7.6696	5.8182	0.	-4067.3
12497	7.762	5.8182	5.e-002	-2.18
12498	7.762	5.9091	0.	-4039.
12499	7.762	5.5455	0.	-4032.6
12500	7.6696	5.6364	0.	-4062.6
12501	7.762	5.6364	5.e-002	-5.5173
12502	7.762	5.3636	0.	-4028.8
12503	7.6696	5.4545	0.	-4058.6
12504	7.762	5.4545	5.e-002	-5.7513
12505	7.762	5.1818	0.	-4025.1
12506	7.6696	5.2727	0.	-4054.6
12507	7.762	5.2727	5.e-002	-5.7769
12508	7.762	5.	0.	-4021.6
12509	7.6696	5.0909	0.	-4050.9
12510	7.762	5.0909	5.e-002	-5.787
12511	7.762	4.8182	0.	-4018.3
12512	7.6696	4.9091	0.	-4047.3
12513	7.762	4.9091	5.e-002	-5.7943
12514	7.762	4.6364	0.	-4015.2
12515	7.6696	4.7273	0.	-4043.9
12516	7.762	4.7273	5.e-002	-5.7998
12517	7.762	4.4545	0.	-4012.3
12518	7.6696	4.5455	0.	-4040.8
12519	7.762	4.5455	5.e-002	-5.8037
12520	7.762	4.2727	0.	-4009.7
12521	7.6696	4.3636	0.	-4037.9
12522	7.762	4.3636	5.e-002	-5.8063
12523	7.762	4.0909	0.	-4007.4
12524	7.6696	4.1818	0.	-4035.3
12525	7.762	4.1818	5.e-002	-5.8079
12526	7.762	3.9091	0.	-4005.4
12527	7.6696	4.	0.	-4033.
12528	7.762	4.	5.e-002	-5.8086
12529	7.762	3.7273	0.	-4003.7
12530	7.6696	3.8182	0.	-4031.1
12531	7.762	3.8182	5.e-002	-5.8087
12532	7.762	3.5455	0.	-4002.4
12533	7.6696	3.6364	0.	-4029.5
12534	7.762	3.6364	5.e-002	-5.8086
12535	7.762	3.3636	0.	-4001.4
12536	7.6696	3.4545	0.	-4028.3
12537	7.762	3.4545	5.e-002	-5.8082
12538	7.762	3.1818	0.	-4000.8
12539	7.6696	3.2727	0.	-4027.5
12540	7.762	3.2727	5.e-002	-5.8079
12541	7.762	3.	0.	-4000.6
12542	7.6696	3.0909	0.	-4027.1
12543	7.762	3.0909	5.e-002	-5.8077
12544	7.762	2.8182	0.	-4000.8
12545	7.6696	2.9091	0.	-4027.1
12546	7.762	2.9091	5.e-002	-5.8077
12547	7.762	2.6364	0.	-4001.4
12548	7.6696	2.7273	0.	-4027.5
12549	7.762	2.7273	5.e-002	-5.8079
12550	7.762	2.4545	0.	-4002.4
12551	7.6696	2.5455	0.	-4028.3
12552	7.762	2.5455	5.e-002	-5.8082
12553	7.762	2.2727	0.	-4003.7
12554	7.6696	2.3636	0.	-4029.5
12555	7.762	2.3636	5.e-002	-5.8086
12556	7.762	2.0909	0.	-4005.4
12557	7.6696	2.1818	0.	-4031.1
12558	7.762	2.1818	5.e-002	-5.8087
12559	7.762	1.9091	0.	-4007.4
12560	7.6696	2.	0.	-4033.
12561	7.762	2.	5.e-002	-5.8086
12562	7.762	1.7273	0.	-4009.7
12563	7.6696	1.8182	0.	-4035.3
12564	7.762	1.8182	5.e-002	-5.8078
12565	7.762	1.5455	0.	-4012.3
12566	7.6696	1.6364	0.	-4037.9
12567	7.762	1.6364	5.e-002	-5.8063
12568	7.762	1.3636	0.	-4015.2
12569	7.6696	1.4545	0.	-4040.8
12570	7.762	1.4545	5.e-002	-5.8037
12571	7.762	1.1818	0.	-4018.3
12572	7.6696	1.2727	0.	-4043.9
12573	7.762	1.2727	5.e-002	-5.7997
12574	7.762	1.	0.	-4021.6
12575	7.6696	1.0909	0.	-4047.3
12576	7.762	1.0909	5.e-002	-5.7943
12577	7.762	0.81818	0.	-4025.1
12578	7.6696	0.90909	0.	-4050.9
12579	7.762	0.90909	5.e-002	-5.787
12580	7.762	0.63636	0.	-4028.8
12581	7.6696	0.72727	0.	-4054.6
12582	7.762	0.72727	5.e-002	-5.7769
12583	7.762	0.45455	0.	-4032.6
12584	7.6696	0.54545	0.	-4058.6
12585	7.762	0.54545	5.e-002	-5.7512
12586	7.762	0.27273	0.	-4036.9
12587	7.6696	0.36364	0.	-4062.6
12588	7.762	0.36364	5.e-002	-5.5172
12589	7.6696	0.18182	0.	-4067.3
12590	7.762	0.18182	5.e-002	-2.18
12591	7.762	9.0909e-002	0.	-4039.
12592	7.5772	5.7273	0.	-4093.1
12593	7.4848	5.8182	0.	-4123.9
12594	7.5772	5.8182	5.e-002	-2.3697
12595	7.5772	5.9091	0.	-4095.7
12596	7.5772	5.5455	0.	-4088.5
12597	7.4848	5.6364	0.	-4118.8
12598	7.5772	5.6364	5.e-002	-5.5743
12599	7.5772	5.3636	0.	-4084.4
12600	7.4848	5.4545	0.	-4114.4
12601	7.5772	5.4545	5.e-002	-5.8006
12602	7.5772	5.1818	0.	-4080.4
12603	7.4848	5.2727	0.	-4110.2
12604	7.5772	5.2727	5.e-002	-5.8263
12605	7.5772	5.	0.	-4076.5
12606	7.4848	5.0909	0.	-4106.1
12607	7.5772	5.0909	5.e-002	-5.8368
12608	7.5772	4.8182	0.	-4072.9
12609	7.4848	4.9091	0.	-4102.2
12610	7.5772	4.9091	5.e-002	-5.8446
12611	7.5772	4.6364	0.	-4069.5
12612	7.4848	4.7273	0.	-4098.5
12613	7.5772	4.7273	5.e-002	-5.8503
12614	7.5772	4.4545	0.	-4066.3
12615	7.4848	4.5455	0.	-4095.
12616	7.5772	4.5455	5.e-002	-5.8546
12617	7.5772	4.2727	0.	-4063.5
12618	7.4848	4.3636	0.	-4091.9
12619	7.5772	4.3636	5.e-002	-5.8574
12620	7.5772	4.0909	0.	-4061.
12621	7.4848	4.1818	0.	-4089.1
12622	7.5772	4.1818	5.e-002	-5.8592
12623	7.5772	3.9091	0.	-4058.8
12624	7.4848	4.	0.	-4086.6
12625	7.5772	4.	5.e-002	-5.8601
12626	7.5772	3.7273	0.	-4056.9
12627	7.4848	3.8182	0.	-4084.5
12628	7.5772	3.8182	5.e-002	-5.8604
12629	7.5772	3.5455	0.	-4055.5
12630	7.4848	3.6364	0.	-4082.8
12631	7.5772	3.6364	5.e-002	-5.8604
12632	7.5772	3.3636	0.	-4054.4
12633	7.4848	3.4545	0.	-4081.5
12634	7.5772	3.4545	5.e-002	-5.8601
12635	7.5772	3.1818	0.	-4053.8
12636	7.4848	3.2727	0.	-4080.6
12637	7.5772	3.2727	5.e-002	-5.8599
12638	7.5772	3.	0.	-4053.6
12639	7.4848	3.0909	0.	-4080.1
12640	7.5772	3.0909	5.e-002	-5.8597
12641	7.5772	2.8182	0.	-4053.8
12642	7.4848	2.9091	0.	-4080.1
12643	7.5772	2.9091	5.e-002	-5.8597
12644	7.5772	2.6364	0.	-4054.4
12645	7.4848	2.7273	0.	-4080.6
12646	7.5772	2.7273	5.e-002	-5.8599
12647	7.5772	2.4545	0.	-4055.5
12648	7.4848	2.5455	0.	-4081.5
12649	7.5772	2.5455	5.e-002	-5.8601
12650	7.5772	2.2727	0.	-4056.9
12651	7.4848	2.3636	0.	-4082.8
12652	7.5772	2.3636	5.e-002	-5.8604
12653	7.5772	2.0909	0.	-4058.8
12654	7.4848	2.1818	0.	-4084.5
12655	7.5772	2.1818	5.e-002	-5.8604
12656	7.5772	1.9091	0.	-4061.
12657	7.4848	2.	0.	-4086.6
12658	7.5772	2.	5.e-002	-5.8601
12659	7.5772	1.7273	0.	-4063.5
12660	7.4848	1.8182	0.	-4089.1
12661	7.5772	1.8182	5.e-002	-5.8592
12662	7.5772	1.5455	0.	-4066.3
12663	7.4848	1.6364	0.	-4091.9
12664	7.5772	1.6364	5.e-002	-5.8574
12665	7.5772	1.3636	0.	-4069.5
12666	7.4848	1.4545	0.	-4095.
12667	7.5772	1.4545	5.e-002	-5.8545
12668	7.5772	1.1818	0.	-4072.9
12669	7.4848	1.2727	0.	-4098.5
12670	7.5772	1.2727	5.e-002	-5.8503
12671	7.5772	1.	0.	-4076.5
12672	7.4848	1.0909	0.	-4102.2
12673	7.5772	1.0909	5.e-002	-5.8444
12674	7.5772	0.81818	0.	-4080.4
12675	7.4848	0.90909	0.	-4106.1
12676	7.5772	0.90909	5.e-002	-5.8368
12677	7.5772	0.63636	0.	-4084.4
12678	7.4848	0.72727	0.	-4110.2
12679	7.5772	0.72727	5.e-002	-5.8262
12680	7.5772	0.45455	0.	-4088.5
12681	7.4848	0.54545	0.	-4114.4
12682	7.5772	0.54545	5.e-002	-5.8005
12683	7.5772	0.27273	0.	-4093.1
12684	7.4848	0.36364	0.	-4118.8
12685	7.5772	0.36364	5.e-002	-5.5743
12686	7.4848	0.18182	0.	-4123.9
12687	7.5772	0.18182	5.e-002	-2.3697
12688	7.5772	9.0909e-002	0.	-4095.7
12689	7.3924	5.7273	0.	-4149.6
12690	7.3	5.8182	0.	-4180.7
12691	7.3924	5.8182	5.e-002	-2.5779
12692	7.3924	5.9091	0.	-4152.6
12693	7.3924	5.5455	0.	-4144.7
12694	7.3	5.6364	0.	-4175.4
12695	7.3924	5.6364	5.e-002	-5.6366
12696	7.3924	5.3636	0.	-4140.2
12697	7.3	5.4545	0.	-4170.6
12698	7.3924	5.4545	5.e-002	-5.8542
12699	7.3924	5.1818	0.	-4135.9
12700	7.3	5.2727	0.	-4166.
12701	7.3924	5.2727	5.e-002	-5.8798
12702	7.3924	5.	0.	-4131.7
12703	7.3	5.0909	0.	-4161.5
12704	7.3924	5.0909	5.e-002	-5.8907
12705	7.3924	4.8182	0.	-4127.7
12706	7.3	4.9091	0.	-4157.3
12707	7.3924	4.9091	5.e-002	-5.8987
12708	7.3924	4.6364	0.	-4124.
12709	7.3	4.7273	0.	-4153.2
12710	7.3924	4.7273	5.e-002	-5.9047
12711	7.3924	4.4545	0.	-4120.6
12712	7.3	4.5455	0.	-4149.5
12713	7.3924	4.5455	5.e-002	-5.909
12714	7.3924	4.2727	0.	-4117.5
12715	7.3	4.3636	0.	-4146.1
12716	7.3924	4.3636	5.e-002	-5.9119
12717	7.3924	4.0909	0.	-4114.7
12718	7.3	4.1818	0.	-4143.
12719	7.3924	4.1818	5.e-002	-5.9137
12720	7.3924	3.9091	0.	-4112.3
12721	7.3	4.	0.	-4140.3
12722	7.3924	4.	5.e-002	-5.9147
12723	7.3924	3.7273	0.	-4110.3
12724	7.3	3.8182	0.	-4138.
12725	7.3924	3.8182	5.e-002	-5.9149
12726	7.3924	3.5455	0.	-4108.7
12727	7.3	3.6364	0.	-4136.1
12728	7.3924	3.6364	5.e-002	-5.9149
12729	7.3924	3.3636	0.	-4107.6
12730	7.3	3.4545	0.	-4134.7
12731	7.3924	3.4545	5.e-002	-5.9146
12732	7.3924	3.1818	0.	-4106.9
12733	7.3	3.2727	0.	-4133.8
12734	7.3924	3.2727	5.e-002	-5.9143
12735	7.3924	3.	0.	-4106.7
12736	7.3	3.0909	0.	-4133.3
12737	7.3924	3.0909	5.e-002	-5.9142
12738	7.3924	2.8182	0.	-4106.9
12739	7.3	2.9091	0.	-4133.3
12740	7.3924	2.9091	5.e-002	-5.9142
12741	7.3924	2.6364	0.	-4107.6
12742	7.3	2.7273	0.	-4133.8
12743	7.3924	2.7273	5.e-002	-5.9143
12744	7.3924	2.4545	0.	-4108.7
12745	7.3	2.5455	0.	-4134.7
12746	7.3924	2.5455	5.e-002	-5.9146
12747	7.3924	2.2727	0.	-4110.3
12748	7.3	2.3636	0.	-4136.1
12749	7.3924	2.3636	5.e-002	-5.9149
12750	7.3924	2.0909	0.	-4112.3
12751	7.3	2.1818	0.	-4138.
12752	7.3924	2.1818	5.e-002	-5.9149
12753	7.3924	1.9091	0.	-4114.7
12754	7.3	2.	0.	-4140.3
12755	7.3924	2.	5.e-002	-5.9146
12756	7.3924	1.7273	0.	-4117.5
12757	7.3	1.8182	0.	-4143.
12758	7.3924	1.8182	5.e-002	-5.9137
12759	7.3924	1.5455	0.	-4120.6
12760	7.3	1.6364	0.	-4146.1
12761	7.3924	1.6364	5.e-002	-5.9119
12762	7.3924	1.3636	0.	-4124.
12763	7.3	1.4545	0.	-4149.5
12764	7.3924	1.4545	5.e-002	-5.909
12765	7.3924	1.1818	0.	-4127.7
12766	7.3	1.2727	0.	-4153.2
12767	7.3924	1.2727	5.e-002	-5.9046
12768	7.3924	1.	0.	-4131.7
12769	7.3	1.0909	0.	-4157.3
12770	7.3924	1.0909	5.e-002	-5.8986
12771	7.3924	0.81818	0.	-4135.9
12772	7.3	0.90909	0.	-4161.5
12773	7.3924	0.90909	5.e-002	-5.8906
12774	7.3924	0.63636	0.	-4140.2
12775	7.3	0.72727	0.	-4166.
12776	7.3924	0.72727	5.e-002	-5.8797
12777	7.3924	0.45455	0.	-4144.7
12778	7.3	0.54545	0.	-4170.6
12779	7.3924	0.54545	5.e-002	-5.8541
12780	7.3924	0.27273	0.	-4149.6
12781	7.3	0.36364	0.	-4175.4
12782	7.3924	0.36364	5.e-002	-5.6365
12783	7.3	0.18182	0.	-4180.7
12784	7.3924	0.18182	5.e-002	-2.5779
12785	7.3924	9.0909e-002	0.	-4152.6
12786	7.2076	5.7273	0.	-4206.4
12787	7.1152	5.8182	0.	-4237.9
12788	7.2076	5.8182	5.e-002	-2.8056
12789	7.2076	5.9091	0.	-4210.
12790	7.2076	5.5455	0.	-4201.2
12791	7.1152	5.6364	0.	-4232.2
12792	7.2076	5.6364	5.e-002	-5.7045
12793	7.2076	5.3636	0.	-4196.3
12794	7.1152	5.4545	0.	-4227.1
12795	7.2076	5.4545	5.e-002	-5.9124
12796	7.2076	5.1818	0.	-4191.6
12797	7.1152	5.2727	0.	-4222.
12798	7.2076	5.2727	5.e-002	-5.9377
12799	7.2076	5.	0.	-4187.1
12800	7.1152	5.0909	0.	-4217.2
12801	7.2076	5.0909	5.e-002	-5.9488
12802	7.2076	4.8182	0.	-4182.8
12803	7.1152	4.9091	0.	-4212.6
12804	7.2076	4.9091	5.e-002	-5.957
12805	7.2076	4.6364	0.	-4178.7
12806	7.1152	4.7273	0.	-4208.2
12807	7.2076	4.7273	5.e-002	-5.9631
12808	7.2076	4.4545	0.	-4175.
12809	7.1152	4.5455	0.	-4204.2
12810	7.2076	4.5455	5.e-002	-5.9674
12811	7.2076	4.2727	0.	-4171.6
12812	7.1152	4.3636	0.	-4200.4
12813	7.2076	4.3636	5.e-002	-5.9702
12814	7.2076	4.0909	0.	-4168.6
12815	7.1152	4.1818	0.	-4197.1
12816	7.2076	4.1818	5.e-002	-5.9718
12817	7.2076	3.9091	0.	-4166.
12818	7.1152	4.	0.	-4194.1
12819	7.2076	4.	5.e-002	-5.9726
12820	7.2076	3.7273	0.	-4163.8
12821	7.1152	3.8182	0.	-4191.6
12822	7.2076	3.8182	5.e-002	-5.9727
12823	7.2076	3.5455	0.	-4162.1
12824	7.1152	3.6364	0.	-4189.6
12825	7.2076	3.6364	5.e-002	-5.9725
12826	7.2076	3.3636	0.	-4160.9
12827	7.1152	3.4545	0.	-4188.1
12828	7.2076	3.4545	5.e-002	-5.972
12829	7.2076	3.1818	0.	-4160.1
12830	7.1152	3.2727	0.	-4187.
12831	7.2076	3.2727	5.e-002	-5.9717
12832	7.2076	3.	0.	-4159.9
12833	7.1152	3.0909	0.	-4186.5
12834	7.2076	3.0909	5.e-002	-5.9715
12835	7.2076	2.8182	0.	-4160.1
12836	7.1152	2.9091	0.	-4186.5
12837	7.2076	2.9091	5.e-002	-5.9715
12838	7.2076	2.6364	0.	-4160.9
12839	7.1152	2.7273	0.	-4187.
12840	7.2076	2.7273	5.e-002	-5.9717
12841	7.2076	2.4545	0.	-4162.1
12842	7.1152	2.5455	0.	-4188.1
12843	7.2076	2.5455	5.e-002	-5.972
12844	7.2076	2.2727	0.	-4163.8
12845	7.1152	2.3636	0.	-4189.6
12846	7.2076	2.3636	5.e-002	-5.9724
12847	7.2076	2.0909	0.	-4166.
12848	7.1152	2.1818	0.	-4191.6
12849	7.2076	2.1818	5.e-002	-5.9727
12850	7.2076	1.9091	0.	-4168.6
12851	7.1152	2.	0.	-4194.1
12852	7.2076	2.	5.e-002	-5.9726
12853	7.2076	1.7273	0.	-4171.6
12854	7.1152	1.8182	0.	-4197.1
12855	7.2076	1.8182	5.e-002	-5.9718
12856	7.2076	1.5455	0.	-4175.
12857	7.1152	1.6364	0.	-4200.4
12858	7.2076	1.6364	5.e-002	-5.9702
12859	7.2076	1.3636	0.	-4178.7
12860	7.1152	1.4545	0.	-4204.2
12861	7.2076	1.4545	5.e-002	-5.9673
12862	7.2076	1.1818	0.	-4182.8
12863	7.1152	1.2727	0.	-4208.2
12864	7.2076	1.2727	5.e-002	-5.963
12865	7.2076	1.	0.	-4187.1
12866	7.1152	1.0909	0.	-4212.6
12867	7.2076	1.0909	5.e-002	-5.9569
12868	7.2076	0.81818	0.	-4191.6
12869	7.1152	0.90909	0.	-4217.2
12870	7.2076	0.90909	5.e-002	-5.9488
12871	7.2076	0.63636	0.	-4196.3
12872	7.1152	0.72727	0.	-4222.
12873	7.2076	0.72727	5.e-002	-5.9376
12874	7.2076	0.45455	0.	-4201.2
12875	7.1152	0.54545	0.	-4227.1
12876	7.2076	0.54545	5.e-002	-5.9123
12877	7.2076	0.27273	0.	-4206.4
12878	7.1152	0.36364	0.	-4232.2
12879	7.2076	0.36364	5.e-002	-5.7043
12880	7.1152	0.18182	0.	-4237.9
12881	7.2076	0.18182	5.e-002	-2.8055
12882	7.2076	9.0909e-002	0.	-4210.
12883	7.0228	5.7273	0.	-4263.6
12884	6.9304	5.8182	0.	-4295.5
12885	7.0228	5.8182	5.e-002	-3.0541
12886	7.0228	5.9091	0.	-4267.7
12887	7.0228	5.5455	0.	-4258.
12888	6.9304	5.6364	0.	-4289.4
12889	7.0228	5.6364	5.e-002	-5.7783
12890	7.0228	5.3636	0.	-4252.8
12891	6.9304	5.4545	0.	-4283.9
12892	7.0228	5.4545	5.e-002	-5.9754
12893	7.0228	5.1818	0.	-4247.6
12894	6.9304	5.2727	0.	-4278.4
12895	7.0228	5.2727	5.e-002	-6.0005
12896	7.0228	5.	0.	-4242.7
12897	6.9304	5.0909	0.	-4273.2
12898	7.0228	5.0909	5.e-002	-6.0117
12899	7.0228	4.8182	0.	-4238.
12900	6.9304	4.9091	0.	-4268.2
12901	7.0228	4.9091	5.e-002	-6.0199
12902	7.0228	4.6364	0.	-4233.7
12903	6.9304	4.7273	0.	-4263.4
12904	7.0228	4.7273	5.e-002	-6.0259
12905	7.0228	4.4545	0.	-4229.6
12906	6.9304	4.5455	0.	-4259.
12907	7.0228	4.5455	5.e-002	-6.03
12908	7.0228	4.2727	0.	-4225.9
12909	6.9304	4.3636	0.	-4255.
12910	7.0228	4.3636	5.e-002	-6.0325
12911	7.0228	4.0909	0.	-4222.6
12912	6.9304	4.1818	0.	-4251.3
12913	7.0228	4.1818	5.e-002	-6.0338
12914	7.0228	3.9091	0.	-4219.8
12915	6.9304	4.	0.	-4248.1
12916	7.0228	4.	5.e-002	-6.0342
12917	7.0228	3.7273	0.	-4217.4
12918	6.9304	3.8182	0.	-4245.4
12919	7.0228	3.8182	5.e-002	-6.034
12920	7.0228	3.5455	0.	-4215.6
12921	6.9304	3.6364	0.	-4243.2
12922	7.0228	3.6364	5.e-002	-6.0335
12923	7.0228	3.3636	0.	-4214.2
12924	6.9304	3.4545	0.	-4241.5
12925	7.0228	3.4545	5.e-002	-6.0328
12926	7.0228	3.1818	0.	-4213.4
12927	6.9304	3.2727	0.	-4240.4
12928	7.0228	3.2727	5.e-002	-6.0323
12929	7.0228	3.	0.	-4213.1
12930	6.9304	3.0909	0.	-4239.8
12931	7.0228	3.0909	5.e-002	-6.032
12932	7.0228	2.8182	0.	-4213.4
12933	6.9304	2.9091	0.	-4239.8
12934	7.0228	2.9091	5.e-002	-6.032
12935	7.0228	2.6364	0.	-4214.2
12936	6.9304	2.7273	0.	-4240.4
12937	7.0228	2.7273	5.e-002	-6.0323
12938	7.0228	2.4545	0.	-4215.6
12939	6.9304	2.5455	0.	-4241.5
12940	7.0228	2.5455	5.e-002	-6.0328
12941	7.0228	2.2727	0.	-4217.4
12942	6.9304	2.3636	0.	-4243.2
12943	7.0228	2.3636	5.e-002	-6.0334
12944	7.0228	2.0909	0.	-4219.8
12945	6.9304	2.1818	0.	-4245.4
12946	7.0228	2.1818	5.e-002	-6.034
12947	7.0228	1.9091	0.	-4222.6
12948	6.9304	2.	0.	-4248.1
12949	7.0228	2.	5.e-002	-6.0342
12950	7.0228	1.7273	0.	-4225.9
12951	6.9304	1.8182	0.	-4251.3
12952	7.0228	1.8182	5.e-002	-6.0338
12953	7.0228	1.5455	0.	-4229.6
12954	6.9304	1.6364	0.	-4255.
12955	7.0228	1.6364	5.e-002	-6.0325
12956	7.0228	1.3636	0.	-4233.7
12957	6.9304	1.4545	0.	-4259.
12958	7.0228	1.4545	5.e-002	-6.03
12959	7.0228	1.1818	0.	-4238.
12960	6.9304	1.2727	0.	-4263.4
12961	7.0228	1.2727	5.e-002	-6.0258
12962	7.0228	1.	0.	-4242.7
12963	6.9304	1.0909	0.	-4268.2
12964	7.0228	1.0909	5.e-002	-6.0198
12965	7.0228	0.81818	0.	-4247.6
12966	6.9304	0.90909	0.	-4273.2
12967	7.0228	0.90909	5.e-002	-6.0117
12968	7.0228	0.63636	0.	-4252.8
12969	6.9304	0.72727	0.	-4278.4
12970	7.0228	0.72727	5.e-002	-6.0003
12971	7.0228	0.45455	0.	-4258.
12972	6.9304	0.54545	0.	-4283.9
12973	7.0228	0.54545	5.e-002	-5.9754
12974	7.0228	0.27273	0.	-4263.6
12975	6.9304	0.36364	0.	-4289.4
12976	7.0228	0.36364	5.e-002	-5.7782
12977	6.9304	0.18182	0.	-4295.5
12978	7.0228	0.18182	5.e-002	-3.0539
12979	7.0228	9.0909e-002	0.	-4267.7
12980	6.838	5.7273	0.	-4321.2
12981	6.7456	5.8182	0.	-4353.5
12982	6.838	5.8182	5.e-002	-3.3246
12983	6.838	5.9091	0.	-4325.8
12984	6.838	5.5455	0.	-4315.2
12985	6.7456	5.6364	0.	-4347.
12986	6.838	5.6364	5.e-002	-5.8585
12987	6.838	5.3636	0.	-4309.5
12988	6.7456	5.4545	0.	-4341.
12989	6.838	5.4545	5.e-002	-6.0438
12990	6.838	5.1818	0.	-4304.
12991	6.7456	5.2727	0.	-4335.1
12992	6.838	5.2727	5.e-002	-6.0683
12993	6.838	5.	0.	-4298.6
12994	6.7456	5.0909	0.	-4329.4
12995	6.838	5.0909	5.e-002	-6.0797
12996	6.838	4.8182	0.	-4293.5
12997	6.7456	4.9091	0.	-4324.
12998	6.838	4.9091	5.e-002	-6.0878
12999	6.838	4.6364	0.	-4288.8
13000	6.7456	4.7273	0.	-4318.8
13001	6.838	4.7273	5.e-002	-6.0935
13002	6.838	4.4545	0.	-4284.4
13003	6.7456	4.5455	0.	-4314.1
13004	6.838	4.5455	5.e-002	-6.0973
13005	6.838	4.2727	0.	-4280.4
13006	6.7456	4.3636	0.	-4309.7
13007	6.838	4.3636	5.e-002	-6.0994
13008	6.838	4.0909	0.	-4276.8
13009	6.7456	4.1818	0.	-4305.7
13010	6.838	4.1818	5.e-002	-6.1002
13011	6.838	3.9091	0.	-4273.7
13012	6.7456	4.	0.	-4302.2
13013	6.838	4.	5.e-002	-6.1001
13014	6.838	3.7273	0.	-4271.1
13015	6.7456	3.8182	0.	-4299.3
13016	6.838	3.8182	5.e-002	-6.0994
13017	6.838	3.5455	0.	-4269.1
13018	6.7456	3.6364	0.	-4296.8
13019	6.838	3.6364	5.e-002	-6.0984
13020	6.838	3.3636	0.	-4267.6
13021	6.7456	3.4545	0.	-4295.
13022	6.838	3.4545	5.e-002	-6.0974
13023	6.838	3.1818	0.	-4266.8
13024	6.7456	3.2727	0.	-4293.8
13025	6.838	3.2727	5.e-002	-6.0966
13026	6.838	3.	0.	-4266.5
13027	6.7456	3.0909	0.	-4293.2
13028	6.838	3.0909	5.e-002	-6.0962
13029	6.838	2.8182	0.	-4266.8
13030	6.7456	2.9091	0.	-4293.2
13031	6.838	2.9091	5.e-002	-6.0962
13032	6.838	2.6364	0.	-4267.6
13033	6.7456	2.7273	0.	-4293.8
13034	6.838	2.7273	5.e-002	-6.0966
13035	6.838	2.4545	0.	-4269.1
13036	6.7456	2.5455	0.	-4295.
13037	6.838	2.5455	5.e-002	-6.0974
13038	6.838	2.2727	0.	-4271.1
13039	6.7456	2.3636	0.	-4296.8
13040	6.838	2.3636	5.e-002	-6.0984
13041	6.838	2.0909	0.	-4273.7
13042	6.7456	2.1818	0.	-4299.3
13043	6.838	2.1818	5.e-002	-6.0994
13044	6.838	1.9091	0.	-4276.8
13045	6.7456	2.	0.	-4302.2
13046	6.838	2.	5.e-002	-6.1001
13047	6.838	1.7273	0.	-4280.4
13048	6.7456	1.8182	0.	-4305.7
13049	6.838	1.8182	5.e-002	-6.1002
13050	6.838	1.5455	0.	-4284.4
13051	6.7456	1.6364	0.	-4309.7
13052	6.838	1.6364	5.e-002	-6.0993
13053	6.838	1.3636	0.	-4288.8
13054	6.7456	1.4545	0.	-4314.1
13055	6.838	1.4545	5.e-002	-6.0973
13056	6.838	1.1818	0.	-4293.5
13057	6.7456	1.2727	0.	-4318.8
13058	6.838	1.2727	5.e-002	-6.0935
13059	6.838	1.	0.	-4298.6
13060	6.7456	1.0909	0.	-4324.
13061	6.838	1.0909	5.e-002	-6.0877
13062	6.838	0.81818	0.	-4304.
13063	6.7456	0.90909	0.	-4329.4
13064	6.838	0.90909	5.e-002	-6.0796
13065	6.838	0.63636	0.	-4309.5
13066	6.7456	0.72727	0.	-4335.1
13067	6.838	0.72727	5.e-002	-6.0683
13068	6.838	0.45455	0.	-4315.2
13069	6.7456	0.54545	0.	-4341.
13070	6.838	0.54545	5.e-002	-6.0438
13071	6.838	0.27273	0.	-4321.2
13072	6.7456	0.36364	0.	-4347.
13073	6.838	0.36364	5.e-002	-5.8585
13074	6.7456	0.18182	0.	-4353.5
13075	6.838	0.18182	5.e-002	-3.3245
13076	6.838	9.0909e-002	0.	-4325.8
13077	6.6532	5.7273	0.	-4379.2
13078	6.5608	5.8182	0.	-4411.9
13079	6.6532	5.8182	5.e-002	-3.6187
13080	6.6532	5.9091	0.	-4384.3
13081	6.6532	5.5455	0.	-4372.7
13082	6.5608	5.6364	0.	-4404.9
13083	6.6532	5.6364	5.e-002	-5.9457
13084	6.6532	5.3636	0.	-4366.6
13085	6.5608	5.4545	0.	-4398.4
13086	6.6532	5.4545	5.e-002	-6.118
13087	6.6532	5.1818	0.	-4360.6
13088	6.5608	5.2727	0.	-4392.1
13089	6.6532	5.2727	5.e-002	-6.1419
13090	6.6532	5.	0.	-4354.8
13091	6.5608	5.0909	0.	-4385.9
13092	6.6532	5.0909	5.e-002	-6.1532
13093	6.6532	4.8182	0.	-4349.3
13094	6.5608	4.9091	0.	-4380.1
13095	6.6532	4.9091	5.e-002	-6.1612
13096	6.6532	4.6364	0.	-4344.1
13097	6.5608	4.7273	0.	-4374.5
13098	6.6532	4.7273	5.e-002	-6.1665
13099	6.6532	4.4545	0.	-4339.3
13100	6.5608	4.5455	0.	-4369.3
13101	6.6532	4.5455	5.e-002	-6.1698
13102	6.6532	4.2727	0.	-4335.
13103	6.5608	4.3636	0.	-4364.5
13104	6.6532	4.3636	5.e-002	-6.1713
13105	6.6532	4.0909	0.	-4331.1
13106	6.5608	4.1818	0.	-4360.2
13107	6.6532	4.1818	5.e-002	-6.1714
13108	6.6532	3.9091	0.	-4327.8
13109	6.5608	4.	0.	-4356.4
13110	6.6532	4.	5.e-002	-6.1706
13111	6.6532	3.7273	0.	-4325.
13112	6.5608	3.8182	0.	-4353.2
13113	6.6532	3.8182	5.e-002	-6.1692
13114	6.6532	3.5455	0.	-4322.7
13115	6.5608	3.6364	0.	-4350.6
13116	6.6532	3.6364	5.e-002	-6.1677
13117	6.6532	3.3636	0.	-4321.2
13118	6.5608	3.4545	0.	-4348.6
13119	6.6532	3.4545	5.e-002	-6.1662
13120	6.6532	3.1818	0.	-4320.2
13121	6.5608	3.2727	0.	-4347.3
13122	6.6532	3.2727	5.e-002	-6.1651
13123	6.6532	3.	0.	-4319.9
13124	6.5608	3.0909	0.	-4346.6
13125	6.6532	3.0909	5.e-002	-6.1645
13126	6.6532	2.8182	0.	-4320.2
13127	6.5608	2.9091	0.	-4346.6
13128	6.6532	2.9091	5.e-002	-6.1645
13129	6.6532	2.6364	0.	-4321.2
13130	6.5608	2.7273	0.	-4347.3
13131	6.6532	2.7273	5.e-002	-6.1651
13132	6.6532	2.4545	0.	-4322.7
13133	6.5608	2.5455	0.	-4348.6
13134	6.6532	2.5455	5.e-002	-6.1662
13135	6.6532	2.2727	0.	-4325.
13136	6.5608	2.3636	0.	-4350.6
13137	6.6532	2.3636	5.e-002	-6.1677
13138	6.6532	2.0909	0.	-4327.8
13139	6.5608	2.1818	0.	-4353.2
13140	6.6532	2.1818	5.e-002	-6.1692
13141	6.6532	1.9091	0.	-4331.1
13142	6.5608	2.	0.	-4356.4
13143	6.6532	2.	5.e-002	-6.1705
13144	6.6532	1.7273	0.	-4335.
13145	6.5608	1.8182	0.	-4360.2
13146	6.6532	1.8182	5.e-002	-6.1714
13147	6.6532	1.5455	0.	-4339.3
13148	6.5608	1.6364	0.	-4364.5
13149	6.6532	1.6364	5.e-002	-6.1712
13150	6.6532	1.3636	0.	-4344.1
13151	6.5608	1.4545	0.	-4369.3
13152	6.6532	1.4545	5.e-002	-6.1698
13153	6.6532	1.1818	0.	-4349.3
13154	6.5608	1.2727	0.	-4374.5
13155	6.6532	1.2727	5.e-002	-6.1665
13156	6.6532	1.	0.	-4354.8
13157	6.5608	1.0909	0.	-4380.1
13158	6.6532	1.0909	5.e-002	-6.1612
13159	6.6532	0.81818	0.	-4360.6
13160	6.5608	0.90909	0.	-4385.9
13161	6.6532	0.90909	5.e-002	-6.1532
13162	6.6532	0.63636	0.	-4366.6
13163	6.5608	0.72727	0.	-4392.1
13164	6.6532	0.72727	5.e-002	-6.1418
13165	6.6532	0.45455	0.	-4372.7
13166	6.5608	0.54545	0.	-4398.4
13167	6.6532	0.54545	5.e-002	-6.118
13168	6.6532	0.27273	0.	-4379.2
13169	6.5608	0.36364	0.	-4404.9
13170	6.6532	0.36364	5.e-002	-5.9456
13171	6.5608	0.18182	0.	-4411.9
13172	6.6532	0.18182	5.e-002	-3.6187
13173	6.6532	9.0909e-002	0.	-4384.3
13174	6.4684	5.7273	0.	-4437.6
13175	6.3759	5.8182	0.	-4470.7
13176	6.4684	5.8182	5.e-002	-3.9381
13177	6.4684	5.9091	0.	-4443.2
13178	6.4684	5.5455	0.	-4430.6
13179	6.3759	5.6364	0.	-4463.3
13180	6.4684	5.6364	5.e-002	-6.0404
13181	6.4684	5.3636	0.	-4424.
13182	6.3759	5.4545	0.	-4456.3
13183	6.4684	5.4545	5.e-002	-6.1986
13184	6.4684	5.1818	0.	-4417.5
13185	6.3759	5.2727	0.	-4449.4
13186	6.4684	5.2727	5.e-002	-6.2218
13187	6.4684	5.	0.	-4411.2
13188	6.3759	5.0909	0.	-4442.8
13189	6.4684	5.0909	5.e-002	-6.233
13190	6.4684	4.8182	0.	-4405.3
13191	6.3759	4.9091	0.	-4436.4
13192	6.4684	4.9091	5.e-002	-6.2406
13193	6.4684	4.6364	0.	-4399.7
13194	6.3759	4.7273	0.	-4430.4
13195	6.4684	4.7273	5.e-002	-6.2454
13196	6.4684	4.4545	0.	-4394.5
13197	6.3759	4.5455	0.	-4424.7
13198	6.4684	4.5455	5.e-002	-6.248
13199	6.4684	4.2727	0.	-4389.7
13200	6.3759	4.3636	0.	-4419.5
13201	6.4684	4.3636	5.e-002	-6.2487
13202	6.4684	4.0909	0.	-4385.5
13203	6.3759	4.1818	0.	-4414.9
13204	6.4684	4.1818	5.e-002	-6.2479
13205	6.4684	3.9091	0.	-4381.9
13206	6.3759	4.	0.	-4410.8
13207	6.4684	4.	5.e-002	-6.2462
13208	6.4684	3.7273	0.	-4378.9
13209	6.3759	3.8182	0.	-4407.3
13210	6.4684	3.8182	5.e-002	-6.2441
13211	6.4684	3.5455	0.	-4376.5
13212	6.3759	3.6364	0.	-4404.4
13213	6.4684	3.6364	5.e-002	-6.2418
13214	6.4684	3.3636	0.	-4374.7
13215	6.3759	3.4545	0.	-4402.3
13216	6.4684	3.4545	5.e-002	-6.2397
13217	6.4684	3.1818	0.	-4373.7
13218	6.3759	3.2727	0.	-4400.8
13219	6.4684	3.2727	5.e-002	-6.2382
13220	6.4684	3.	0.	-4373.3
13221	6.3759	3.0909	0.	-4400.1
13222	6.4684	3.0909	5.e-002	-6.2374
13223	6.4684	2.8182	0.	-4373.7
13224	6.3759	2.9091	0.	-4400.1
13225	6.4684	2.9091	5.e-002	-6.2374
13226	6.4684	2.6364	0.	-4374.7
13227	6.3759	2.7273	0.	-4400.8
13228	6.4684	2.7273	5.e-002	-6.2382
13229	6.4684	2.4545	0.	-4376.5
13230	6.3759	2.5455	0.	-4402.3
13231	6.4684	2.5455	5.e-002	-6.2397
13232	6.4684	2.2727	0.	-4378.9
13233	6.3759	2.3636	0.	-4404.4
13234	6.4684	2.3636	5.e-002	-6.2417
13235	6.4684	2.0909	0.	-4381.9
13236	6.3759	2.1818	0.	-4407.3
13237	6.4684	2.1818	5.e-002	-6.244
13238	6.4684	1.9091	0.	-4385.5
13239	6.3759	2.	0.	-4410.8
13240	6.4684	2.	5.e-002	-6.2462
13241	6.4684	1.7273	0.	-4389.7
13242	6.3759	1.8182	0.	-4414.9
13243	6.4684	1.8182	5.e-002	-6.2479
13244	6.4684	1.5455	0.	-4394.5
13245	6.3759	1.6364	0.	-4419.5
13246	6.4684	1.6364	5.e-002	-6.2485
13247	6.4684	1.3636	0.	-4399.7
13248	6.3759	1.4545	0.	-4424.7
13249	6.4684	1.4545	5.e-002	-6.2479
13250	6.4684	1.1818	0.	-4405.3
13251	6.3759	1.2727	0.	-4430.4
13252	6.4684	1.2727	5.e-002	-6.2454
13253	6.4684	1.	0.	-4411.2
13254	6.3759	1.0909	0.	-4436.4
13255	6.4684	1.0909	5.e-002	-6.2406
13256	6.4684	0.81818	0.	-4417.5
13257	6.3759	0.90909	0.	-4442.8
13258	6.4684	0.90909	5.e-002	-6.2329
13259	6.4684	0.63636	0.	-4424.
13260	6.3759	0.72727	0.	-4449.4
13261	6.4684	0.72727	5.e-002	-6.2216
13262	6.4684	0.45455	0.	-4430.6
13263	6.3759	0.54545	0.	-4456.3
13264	6.4684	0.54545	5.e-002	-6.1985
13265	6.4684	0.27273	0.	-4437.6
13266	6.3759	0.36364	0.	-4463.3
13267	6.4684	0.36364	5.e-002	-6.0404
13268	6.3759	0.18182	0.	-4470.7
13269	6.4684	0.18182	5.e-002	-3.938
13270	6.4684	9.0909e-002	0.	-4443.2
13271	6.2835	5.7273	0.	-4496.4
13272	6.1911	5.8182	0.	-4530.
13273	6.2835	5.8182	5.e-002	-4.2844
13274	6.2835	5.9091	0.	-4502.6
13275	6.2835	5.5455	0.	-4488.9
13276	6.1911	5.6364	0.	-4522.1
13277	6.2835	5.6364	5.e-002	-6.1434
13278	6.2835	5.3636	0.	-4481.7
13279	6.1911	5.4545	0.	-4514.5
13280	6.2835	5.4545	5.e-002	-6.2861
13281	6.2835	5.1818	0.	-4474.7
13282	6.1911	5.2727	0.	-4507.1
13283	6.2835	5.2727	5.e-002	-6.3084
13284	6.2835	5.	0.	-4467.9
13285	6.1911	5.0909	0.	-4499.9
13286	6.2835	5.0909	5.e-002	-6.3194
13287	6.2835	4.8182	0.	-4461.5
13288	6.1911	4.9091	0.	-4493.
13289	6.2835	4.9091	5.e-002	-6.3266
13290	6.2835	4.6364	0.	-4455.4
13291	6.1911	4.7273	0.	-4486.5
13292	6.2835	4.7273	5.e-002	-6.3308
13293	6.2835	4.4545	0.	-4449.8
13294	6.1911	4.5455	0.	-4480.4
13295	6.2835	4.5455	5.e-002	-6.3324
13296	6.2835	4.2727	0.	-4444.7
13297	6.1911	4.3636	0.	-4474.7
13298	6.2835	4.3636	5.e-002	-6.3321
13299	6.2835	4.0909	0.	-4440.1
13300	6.1911	4.1818	0.	-4469.7
13301	6.2835	4.1818	5.e-002	-6.3303
13302	6.2835	3.9091	0.	-4436.2
13303	6.1911	4.	0.	-4465.2
13304	6.2835	4.	5.e-002	-6.3276
13305	6.2835	3.7273	0.	-4432.9
13306	6.1911	3.8182	0.	-4461.4
13307	6.2835	3.8182	5.e-002	-6.3245
13308	6.2835	3.5455	0.	-4430.2
13309	6.1911	3.6364	0.	-4458.3
13310	6.2835	3.6364	5.e-002	-6.3213
13311	6.2835	3.3636	0.	-4428.4
13312	6.1911	3.4545	0.	-4456.
13313	6.2835	3.4545	5.e-002	-6.3185
13314	6.2835	3.1818	0.	-4427.2
13315	6.1911	3.2727	0.	-4454.4
13316	6.2835	3.2727	5.e-002	-6.3165
13317	6.2835	3.	0.	-4426.8
13318	6.1911	3.0909	0.	-4453.6
13319	6.2835	3.0909	5.e-002	-6.3155
13320	6.2835	2.8182	0.	-4427.2
13321	6.1911	2.9091	0.	-4453.6
13322	6.2835	2.9091	5.e-002	-6.3155
13323	6.2835	2.6364	0.	-4428.4
13324	6.1911	2.7273	0.	-4454.4
13325	6.2835	2.7273	5.e-002	-6.3165
13326	6.2835	2.4545	0.	-4430.2
13327	6.1911	2.5455	0.	-4456.
13328	6.2835	2.5455	5.e-002	-6.3185
13329	6.2835	2.2727	0.	-4432.9
13330	6.1911	2.3636	0.	-4458.3
13331	6.2835	2.3636	5.e-002	-6.3212
13332	6.2835	2.0909	0.	-4436.2
13333	6.1911	2.1818	0.	-4461.4
13334	6.2835	2.1818	5.e-002	-6.3244
13335	6.2835	1.9091	0.	-4440.1
13336	6.1911	2.	0.	-4465.2
13337	6.2835	2.	5.e-002	-6.3275
13338	6.2835	1.7273	0.	-4444.7
13339	6.1911	1.8182	0.	-4469.7
13340	6.2835	1.8182	5.e-002	-6.3303
13341	6.2835	1.5455	0.	-4449.8
13342	6.1911	1.6364	0.	-4474.7
13343	6.2835	1.6364	5.e-002	-6.3321
13344	6.2835	1.3636	0.	-4455.4
13345	6.1911	1.4545	0.	-4480.4
13346	6.2835	1.4545	5.e-002	-6.3324
13347	6.2835	1.1818	0.	-4461.5
13348	6.1911	1.2727	0.	-4486.5
13349	6.2835	1.2727	5.e-002	-6.3307
13350	6.2835	1.	0.	-4467.9
13351	6.1911	1.0909	0.	-4493.
13352	6.2835	1.0909	5.e-002	-6.3266
13353	6.2835	0.81818	0.	-4474.7
13354	6.1911	0.90909	0.	-4499.9
13355	6.2835	0.90909	5.e-002	-6.3194
13356	6.2835	0.63636	0.	-4481.7
13357	6.1911	0.72727	0.	-4507.1
13358	6.2835	0.72727	5.e-002	-6.3083
13359	6.2835	0.45455	0.	-4488.9
13360	6.1911	0.54545	0.	-4514.5
13361	6.2835	0.54545	5.e-002	-6.286
13362	6.2835	0.27273	0.	-4496.4
13363	6.1911	0.36364	0.	-4522.1
13364	6.2835	0.36364	5.e-002	-6.1433
13365	6.1911	0.18182	0.	-4530.
13366	6.2835	0.18182	5.e-002	-4.2843
13367	6.2835	9.0909e-002	0.	-4502.6
13368	6.0987	5.7273	0.	-4555.7
13369	6.0063	5.8182	0.	-4589.8
13370	6.0987	5.8182	5.e-002	-4.6596
13371	6.0987	5.9091	0.	-4562.5
13372	6.0987	5.5455	0.	-4547.6
13373	6.0063	5.6364	0.	-4581.3
13374	6.0987	5.6364	5.e-002	-6.2553
13375	6.0987	5.3636	0.	-4539.9
13376	6.0063	5.4545	0.	-4573.1
13377	6.0987	5.4545	5.e-002	-6.3812
13378	6.0987	5.1818	0.	-4532.3
13379	6.0063	5.2727	0.	-4565.1
13380	6.0987	5.2727	5.e-002	-6.4025
13381	6.0987	5.	0.	-4525.
13382	6.0063	5.0909	0.	-4557.4
13383	6.0987	5.0909	5.e-002	-6.4133
13384	6.0987	4.8182	0.	-4518.
13385	6.0063	4.9091	0.	-4549.9
13386	6.0987	4.9091	5.e-002	-6.4199
13387	6.0987	4.6364	0.	-4511.4
13388	6.0063	4.7273	0.	-4542.8
13389	6.0987	4.7273	5.e-002	-6.4233
13390	6.0987	4.4545	0.	-4505.3
13391	6.0063	4.5455	0.	-4536.2
13392	6.0987	4.5455	5.e-002	-6.4239
13393	6.0987	4.2727	0.	-4499.7
13394	6.0063	4.3636	0.	-4530.1
13395	6.0987	4.3636	5.e-002	-6.4224
13396	6.0987	4.0909	0.	-4494.8
13397	6.0063	4.1818	0.	-4524.6
13398	6.0987	4.1818	5.e-002	-6.4193
13399	6.0987	3.9091	0.	-4490.5
13400	6.0063	4.	0.	-4519.8
13401	6.0987	4.	5.e-002	-6.4153
13402	6.0987	3.7273	0.	-4486.9
13403	6.0063	3.8182	0.	-4515.7
13404	6.0987	3.8182	5.e-002	-6.411
13405	6.0987	3.5455	0.	-4484.1
13406	6.0063	3.6364	0.	-4512.3
13407	6.0987	3.6364	5.e-002	-6.4068
13408	6.0987	3.3636	0.	-4482.
13409	6.0063	3.4545	0.	-4509.8
13410	6.0987	3.4545	5.e-002	-6.4032
13411	6.0987	3.1818	0.	-4480.8
13412	6.0063	3.2727	0.	-4508.
13413	6.0987	3.2727	5.e-002	-6.4006
13414	6.0987	3.	0.	-4480.4
13415	6.0063	3.0909	0.	-4507.2
13416	6.0987	3.0909	5.e-002	-6.3993
13417	6.0987	2.8182	0.	-4480.8
13418	6.0063	2.9091	0.	-4507.2
13419	6.0987	2.9091	5.e-002	-6.3993
13420	6.0987	2.6364	0.	-4482.
13421	6.0063	2.7273	0.	-4508.
13422	6.0987	2.7273	5.e-002	-6.4006
13423	6.0987	2.4545	0.	-4484.1
13424	6.0063	2.5455	0.	-4509.8
13425	6.0987	2.5455	5.e-002	-6.4032
13426	6.0987	2.2727	0.	-4486.9
13427	6.0063	2.3636	0.	-4512.3
13428	6.0987	2.3636	5.e-002	-6.4068
13429	6.0987	2.0909	0.	-4490.5
13430	6.0063	2.1818	0.	-4515.7
13431	6.0987	2.1818	5.e-002	-6.4109
13432	6.0987	1.9091	0.	-4494.8
13433	6.0063	2.	0.	-4519.8
13434	6.0987	2.	5.e-002	-6.4153
13435	6.0987	1.7273	0.	-4499.7
13436	6.0063	1.8182	0.	-4524.6
13437	6.0987	1.8182	5.e-002	-6.4193
13438	6.0987	1.5455	0.	-4505.3
13439	6.0063	1.6364	0.	-4530.1
13440	6.0987	1.6364	5.e-002	-6.4223
13441	6.0987	1.3636	0.	-4511.4
13442	6.0063	1.4545	0.	-4536.2
13443	6.0987	1.4545	5.e-002	-6.4238
13444	6.0987	1.1818	0.	-4518.
13445	6.0063	1.2727	0.	-4542.8
13446	6.0987	1.2727	5.e-002	-6.4232
13447	6.0987	1.	0.	-4525.
13448	6.0063	1.0909	0.	-4549.9
13449	6.0987	1.0909	5.e-002	-6.4199
13450	6.0987	0.81818	0.	-4532.3
13451	6.0063	0.90909	0.	-4557.4
13452	6.0987	0.90909	5.e-002	-6.4132
13453	6.0987	0.63636	0.	-4539.9
13454	6.0063	0.72727	0.	-4565.1
13455	6.0987	0.72727	5.e-002	-6.4024
13456	6.0987	0.45455	0.	-4547.6
13457	6.0063	0.54545	0.	-4573.1
13458	6.0987	0.54545	5.e-002	-6.3811
13459	6.0987	0.27273	0.	-4555.7
13460	6.0063	0.36364	0.	-4581.3
13461	6.0987	0.36364	5.e-002	-6.2552
13462	6.0063	0.18182	0.	-4589.8
13463	6.0987	0.18182	5.e-002	-4.6595
13464	6.0987	9.0909e-002	0.	-4562.5
13465	5.9139	5.7273	0.	-4615.4
13466	5.8215	5.8182	0.	-4650.1
13467	5.9139	5.8182	5.e-002	-5.0656
13468	5.9139	5.9091	0.	-4622.9
13469	5.9139	5.5455	0.	-4606.8
13470	5.8215	5.6364	0.	-4641.
13471	5.9139	5.6364	5.e-002	-6.3769
13472	5.9139	5.3636	0.	-4598.4
13473	5.8215	5.4545	0.	-4632.2
13474	5.9139	5.4545	5.e-002	-6.4846
13475	5.9139	5.1818	0.	-4590.2
13476	5.8215	5.2727	0.	-4623.5
13477	5.9139	5.2727	5.e-002	-6.5049
13478	5.9139	5.	0.	-4582.3
13479	5.8215	5.0909	0.	-4615.1
13480	5.9139	5.0909	5.e-002	-6.5153
13481	5.9139	4.8182	0.	-4574.7
13482	5.8215	4.9091	0.	-4607.1
13483	5.9139	4.9091	5.e-002	-6.5213
13484	5.9139	4.6364	0.	-4567.6
13485	5.8215	4.7273	0.	-4599.4
13486	5.9139	4.7273	5.e-002	-6.5237
13487	5.9139	4.4545	0.	-4561.
13488	5.8215	4.5455	0.	-4592.2
13489	5.9139	4.5455	5.e-002	-6.5231
13490	5.9139	4.2727	0.	-4555.
13491	5.8215	4.3636	0.	-4585.6
13492	5.9139	4.3636	5.e-002	-6.5202
13493	5.9139	4.0909	0.	-4549.6
13494	5.8215	4.1818	0.	-4579.7
13495	5.9139	4.1818	5.e-002	-6.5157
13496	5.9139	3.9091	0.	-4545.
13497	5.8215	4.	0.	-4574.5
13498	5.9139	4.	5.e-002	-6.5103
13499	5.9139	3.7273	0.	-4541.1
13500	5.8215	3.8182	0.	-4570.
13501	5.9139	3.8182	5.e-002	-6.5045
13502	5.9139	3.5455	0.	-4538.
13503	5.8215	3.6364	0.	-4566.4
13504	5.9139	3.6364	5.e-002	-6.4991
13505	5.9139	3.3636	0.	-4535.8
13506	5.8215	3.4545	0.	-4563.6
13507	5.9139	3.4545	5.e-002	-6.4945
13508	5.9139	3.1818	0.	-4534.4
13509	5.8215	3.2727	0.	-4561.7
13510	5.9139	3.2727	5.e-002	-6.4913
13511	5.9139	3.	0.	-4534.
13512	5.8215	3.0909	0.	-4560.8
13513	5.9139	3.0909	5.e-002	-6.4896
13514	5.9139	2.8182	0.	-4534.4
13515	5.8215	2.9091	0.	-4560.8
13516	5.9139	2.9091	5.e-002	-6.4896
13517	5.9139	2.6364	0.	-4535.8
13518	5.8215	2.7273	0.	-4561.7
13519	5.9139	2.7273	5.e-002	-6.4912
13520	5.9139	2.4545	0.	-4538.
13521	5.8215	2.5455	0.	-4563.6
13522	5.9139	2.5455	5.e-002	-6.4945
13523	5.9139	2.2727	0.	-4541.1
13524	5.8215	2.3636	0.	-4566.4
13525	5.9139	2.3636	5.e-002	-6.4991
13526	5.9139	2.0909	0.	-4545.
13527	5.8215	2.1818	0.	-4570.
13528	5.9139	2.1818	5.e-002	-6.5045
13529	5.9139	1.9091	0.	-4549.6
13530	5.8215	2.	0.	-4574.5
13531	5.9139	2.	5.e-002	-6.5102
13532	5.9139	1.7273	0.	-4555.
13533	5.8215	1.8182	0.	-4579.7
13534	5.9139	1.8182	5.e-002	-6.5157
13535	5.9139	1.5455	0.	-4561.
13536	5.8215	1.6364	0.	-4585.6
13537	5.9139	1.6364	5.e-002	-6.5202
13538	5.9139	1.3636	0.	-4567.6
13539	5.8215	1.4545	0.	-4592.2
13540	5.9139	1.4545	5.e-002	-6.5231
13541	5.9139	1.1818	0.	-4574.7
13542	5.8215	1.2727	0.	-4599.4
13543	5.9139	1.2727	5.e-002	-6.5237
13544	5.9139	1.	0.	-4582.3
13545	5.8215	1.0909	0.	-4607.1
13546	5.9139	1.0909	5.e-002	-6.5213
13547	5.9139	0.81818	0.	-4590.2
13548	5.8215	0.90909	0.	-4615.1
13549	5.9139	0.90909	5.e-002	-6.5153
13550	5.9139	0.63636	0.	-4598.4
13551	5.8215	0.72727	0.	-4623.5
13552	5.9139	0.72727	5.e-002	-6.5048
13553	5.9139	0.45455	0.	-4606.8
13554	5.8215	0.54545	0.	-4632.2
13555	5.9139	0.54545	5.e-002	-6.4846
13556	5.9139	0.27273	0.	-4615.4
13557	5.8215	0.36364	0.	-4641.
13558	5.9139	0.36364	5.e-002	-6.3768
13559	5.8215	0.18182	0.	-4650.1
13560	5.9139	0.18182	5.e-002	-5.0655
13561	5.9139	9.0909e-002	0.	-4622.9
13562	5.7291	5.7273	0.	-4675.7
13563	5.6367	5.8182	0.	-4711.
13564	5.7291	5.8182	5.e-002	-5.5046
13565	5.7291	5.9091	0.	-4683.8
13566	5.7291	5.5455	0.	-4666.4
13567	5.6367	5.6364	0.	-4701.1
13568	5.7291	5.6364	5.e-002	-6.5091
13569	5.7291	5.3636	0.	-4657.3
13570	5.6367	5.4545	0.	-4691.7
13571	5.7291	5.4545	5.e-002	-6.5974
13572	5.7291	5.1818	0.	-4648.5
13573	5.6367	5.2727	0.	-4682.3
13574	5.7291	5.2727	5.e-002	-6.6164
13575	5.7291	5.	0.	-4639.9
13576	5.6367	5.0909	0.	-4673.3
13577	5.7291	5.0909	5.e-002	-6.6264
13578	5.7291	4.8182	0.	-4631.8
13579	5.6367	4.9091	0.	-4664.5
13580	5.7291	4.9091	5.e-002	-6.6317
13581	5.7291	4.6364	0.	-4624.
13582	5.6367	4.7273	0.	-4656.3
13583	5.7291	4.7273	5.e-002	-6.633
13584	5.7291	4.4545	0.	-4616.9
13585	5.6367	4.5455	0.	-4648.5
13586	5.7291	4.5455	5.e-002	-6.631
13587	5.7291	4.2727	0.	-4610.4
13588	5.6367	4.3636	0.	-4641.4
13589	5.7291	4.3636	5.e-002	-6.6266
13590	5.7291	4.0909	0.	-4604.6
13591	5.6367	4.1818	0.	-4634.9
13592	5.7291	4.1818	5.e-002	-6.6203
13593	5.7291	3.9091	0.	-4599.5
13594	5.6367	4.	0.	-4629.3
13595	5.7291	4.	5.e-002	-6.6131
13596	5.7291	3.7273	0.	-4595.3
13597	5.6367	3.8182	0.	-4624.4
13598	5.7291	3.8182	5.e-002	-6.6058
13599	5.7291	3.5455	0.	-4592.
13600	5.6367	3.6364	0.	-4620.5
13601	5.7291	3.6364	5.e-002	-6.599
13602	5.7291	3.3636	0.	-4589.5
13603	5.6367	3.4545	0.	-4617.5
13604	5.7291	3.4545	5.e-002	-6.5934
13605	5.7291	3.1818	0.	-4588.1
13606	5.6367	3.2727	0.	-4615.4
13607	5.7291	3.2727	5.e-002	-6.5893
13608	5.7291	3.	0.	-4587.6
13609	5.6367	3.0909	0.	-4614.4
13610	5.7291	3.0909	5.e-002	-6.5872
13611	5.7291	2.8182	0.	-4588.1
13612	5.6367	2.9091	0.	-4614.4
13613	5.7291	2.9091	5.e-002	-6.5872
13614	5.7291	2.6364	0.	-4589.5
13615	5.6367	2.7273	0.	-4615.4
13616	5.7291	2.7273	5.e-002	-6.5893
13617	5.7291	2.4545	0.	-4592.
13618	5.6367	2.5455	0.	-4617.5
13619	5.7291	2.5455	5.e-002	-6.5934
13620	5.7291	2.2727	0.	-4595.3
13621	5.6367	2.3636	0.	-4620.5
13622	5.7291	2.3636	5.e-002	-6.599
13623	5.7291	2.0909	0.	-4599.5
13624	5.6367	2.1818	0.	-4624.4
13625	5.7291	2.1818	5.e-002	-6.6058
13626	5.7291	1.9091	0.	-4604.6
13627	5.6367	2.	0.	-4629.3
13628	5.7291	2.	5.e-002	-6.6131
13629	5.7291	1.7273	0.	-4610.4
13630	5.6367	1.8182	0.	-4634.9
13631	5.7291	1.8182	5.e-002	-6.6203
13632	5.7291	1.5455	0.	-4616.9
13633	5.6367	1.6364	0.	-4641.4
13634	5.7291	1.6364	5.e-002	-6.6264
13635	5.7291	1.3636	0.	-4624.
13636	5.6367	1.4545	0.	-4648.5
13637	5.7291	1.4545	5.e-002	-6.631
13638	5.7291	1.1818	0.	-4631.8
13639	5.6367	1.2727	0.	-4656.3
13640	5.7291	1.2727	5.e-002	-6.6329
13641	5.7291	1.	0.	-4639.9
13642	5.6367	1.0909	0.	-4664.5
13643	5.7291	1.0909	5.e-002	-6.6316
13644	5.7291	0.81818	0.	-4648.5
13645	5.6367	0.90909	0.	-4673.3
13646	5.7291	0.90909	5.e-002	-6.6264
13647	5.7291	0.63636	0.	-4657.3
13648	5.6367	0.72727	0.	-4682.3
13649	5.7291	0.72727	5.e-002	-6.6163
13650	5.7291	0.45455	0.	-4666.4
13651	5.6367	0.54545	0.	-4691.7
13652	5.7291	0.54545	5.e-002	-6.5973
13653	5.7291	0.27273	0.	-4675.7
13654	5.6367	0.36364	0.	-4701.1
13655	5.7291	0.36364	5.e-002	-6.509
13656	5.6367	0.18182	0.	-4711.
13657	5.7291	0.18182	5.e-002	-5.5045
13658	5.7291	9.0909e-002	0.	-4683.8
13659	5.5443	5.7273	0.	-4736.4
13660	5.4519	5.8182	0.	-4772.4
13661	5.5443	5.8182	5.e-002	-5.9787
13662	5.5443	5.9091	0.	-4745.3
13663	5.5443	5.5455	0.	-4726.4
13664	5.4519	5.6364	0.	-4761.8
13665	5.5443	5.6364	5.e-002	-6.6528
13666	5.5443	5.3636	0.	-4716.7
13667	5.4519	5.4545	0.	-4751.6
13668	5.5443	5.4545	5.e-002	-6.7201
13669	5.5443	5.1818	0.	-4707.1
13670	5.4519	5.2727	0.	-4741.5
13671	5.5443	5.2727	5.e-002	-6.7378
13672	5.5443	5.	0.	-4697.9
13673	5.4519	5.0909	0.	-4731.7
13674	5.5443	5.0909	5.e-002	-6.7475
13675	5.5443	4.8182	0.	-4689.1
13676	5.4519	4.9091	0.	-4722.3
13677	5.5443	4.9091	5.e-002	-6.752
13678	5.5443	4.6364	0.	-4680.7
13679	5.4519	4.7273	0.	-4713.4
13680	5.5443	4.7273	5.e-002	-6.752
13681	5.5443	4.4545	0.	-4673.
13682	5.4519	4.5455	0.	-4705.
13683	5.5443	4.5455	5.e-002	-6.7485
13684	5.5443	4.2727	0.	-4665.9
13685	5.4519	4.3636	0.	-4697.3
13686	5.5443	4.3636	5.e-002	-6.7422
13687	5.5443	4.0909	0.	-4659.6
13688	5.4519	4.1818	0.	-4690.3
13689	5.5443	4.1818	5.e-002	-6.7341
13690	5.5443	3.9091	0.	-4654.2
13691	5.4519	4.	0.	-4684.2
13692	5.5443	4.	5.e-002	-6.7251
13693	5.5443	3.7273	0.	-4649.6
13694	5.4519	3.8182	0.	-4678.9
13695	5.5443	3.8182	5.e-002	-6.716
13696	5.5443	3.5455	0.	-4646.
13697	5.4519	3.6364	0.	-4674.7
13698	5.5443	3.6364	5.e-002	-6.7075
13699	5.5443	3.3636	0.	-4643.4
13700	5.4519	3.4545	0.	-4671.4
13701	5.5443	3.4545	5.e-002	-6.7007
13702	5.5443	3.1818	0.	-4641.8
13703	5.4519	3.2727	0.	-4669.2
13704	5.5443	3.2727	5.e-002	-6.6956
13705	5.5443	3.	0.	-4641.3
13706	5.4519	3.0909	0.	-4668.1
13707	5.5443	3.0909	5.e-002	-6.6931
13708	5.5443	2.8182	0.	-4641.8
13709	5.4519	2.9091	0.	-4668.1
13710	5.5443	2.9091	5.e-002	-6.6931
13711	5.5443	2.6364	0.	-4643.4
13712	5.4519	2.7273	0.	-4669.2
13713	5.5443	2.7273	5.e-002	-6.6956
13714	5.5443	2.4545	0.	-4646.
13715	5.4519	2.5455	0.	-4671.4
13716	5.5443	2.5455	5.e-002	-6.7006
13717	5.5443	2.2727	0.	-4649.6
13718	5.4519	2.3636	0.	-4674.7
13719	5.5443	2.3636	5.e-002	-6.7075
13720	5.5443	2.0909	0.	-4654.2
13721	5.4519	2.1818	0.	-4678.9
13722	5.5443	2.1818	5.e-002	-6.7159
13723	5.5443	1.9091	0.	-4659.6
13724	5.4519	2.	0.	-4684.2
13725	5.5443	2.	5.e-002	-6.725
13726	5.5443	1.7273	0.	-4665.9
13727	5.4519	1.8182	0.	-4690.3
13728	5.5443	1.8182	5.e-002	-6.7341
13729	5.5443	1.5455	0.	-4673.
13730	5.4519	1.6364	0.	-4697.3
13731	5.5443	1.6364	5.e-002	-6.7422
13732	5.5443	1.3636	0.	-4680.7
13733	5.4519	1.4545	0.	-4705.
13734	5.5443	1.4545	5.e-002	-6.7485
13735	5.5443	1.1818	0.	-4689.1
13736	5.4519	1.2727	0.	-4713.4
13737	5.5443	1.2727	5.e-002	-6.752
13738	5.5443	1.	0.	-4697.9
13739	5.4519	1.0909	0.	-4722.3
13740	5.5443	1.0909	5.e-002	-6.7519
13741	5.5443	0.81818	0.	-4707.1
13742	5.4519	0.90909	0.	-4731.7
13743	5.5443	0.90909	5.e-002	-6.7474
13744	5.5443	0.63636	0.	-4716.7
13745	5.4519	0.72727	0.	-4741.5
13746	5.5443	0.72727	5.e-002	-6.7378
13747	5.5443	0.45455	0.	-4726.4
13748	5.4519	0.54545	0.	-4751.6
13749	5.5443	0.54545	5.e-002	-6.72
13750	5.5443	0.27273	0.	-4736.4
13751	5.4519	0.36364	0.	-4761.8
13752	5.5443	0.36364	5.e-002	-6.6526
13753	5.4519	0.18182	0.	-4772.4
13754	5.5443	0.18182	5.e-002	-5.9787
13755	5.5443	9.0909e-002	0.	-4745.3
13756	5.3595	5.7273	0.	-4797.8
13757	5.2671	5.8182	0.	-4834.4
13758	5.3595	5.8182	5.e-002	-6.4904
13759	5.3595	5.9091	0.	-4807.3
13760	5.3595	5.5455	0.	-4787.
13761	5.2671	5.6364	0.	-4823.
13762	5.3595	5.6364	5.e-002	-6.8086
13763	5.3595	5.3636	0.	-4776.5
13764	5.2671	5.4545	0.	-4812.
13765	5.3595	5.4545	5.e-002	-6.8539
13766	5.3595	5.1818	0.	-4766.2
13767	5.2671	5.2727	0.	-4801.2
13768	5.3595	5.2727	5.e-002	-6.8704
13769	5.3595	5.	0.	-4756.2
13770	5.2671	5.0909	0.	-4790.6
13771	5.3595	5.0909	5.e-002	-6.8796
13772	5.3595	4.8182	0.	-4746.7
13773	5.2671	4.9091	0.	-4780.4
13774	5.3595	4.9091	5.e-002	-6.8832
13775	5.3595	4.6364	0.	-4737.7
13776	5.2671	4.7273	0.	-4770.8
13777	5.3595	4.7273	5.e-002	-6.8819
13778	5.3595	4.4545	0.	-4729.3
13779	5.2671	4.5455	0.	-4761.7
13780	5.3595	4.5455	5.e-002	-6.8768
13781	5.3595	4.2727	0.	-4721.7
13782	5.2671	4.3636	0.	-4753.4
13783	5.3595	4.3636	5.e-002	-6.8685
13784	5.3595	4.0909	0.	-4714.8
13785	5.2671	4.1818	0.	-4745.8
13786	5.3595	4.1818	5.e-002	-6.8583
13787	5.3595	3.9091	0.	-4708.9
13788	5.2671	4.	0.	-4739.2
13789	5.3595	4.	5.e-002	-6.8471
13790	5.3595	3.7273	0.	-4704.
13791	5.2671	3.8182	0.	-4733.5
13792	5.3595	3.8182	5.e-002	-6.8359
13793	5.3595	3.5455	0.	-4700.1
13794	5.2671	3.6364	0.	-4728.9
13795	5.3595	3.6364	5.e-002	-6.8258
13796	5.3595	3.3636	0.	-4697.2
13797	5.2671	3.4545	0.	-4725.4
13798	5.3595	3.4545	5.e-002	-6.8174
13799	5.3595	3.1818	0.	-4695.5
13800	5.2671	3.2727	0.	-4723.
13801	5.3595	3.2727	5.e-002	-6.8114
13802	5.3595	3.	0.	-4695.
13803	5.2671	3.0909	0.	-4721.8
13804	5.3595	3.0909	5.e-002	-6.8083
13805	5.3595	2.8182	0.	-4695.5
13806	5.2671	2.9091	0.	-4721.8
13807	5.3595	2.9091	5.e-002	-6.8083
13808	5.3595	2.6364	0.	-4697.2
13809	5.2671	2.7273	0.	-4723.
13810	5.3595	2.7273	5.e-002	-6.8114
13811	5.3595	2.4545	0.	-4700.1
13812	5.2671	2.5455	0.	-4725.4
13813	5.3595	2.5455	5.e-002	-6.8174
13814	5.3595	2.2727	0.	-4704.
13815	5.2671	2.3636	0.	-4728.9
13816	5.3595	2.3636	5.e-002	-6.8258
13817	5.3595	2.0909	0.	-4708.9
13818	5.2671	2.1818	0.	-4733.5
13819	5.3595	2.1818	5.e-002	-6.8359
13820	5.3595	1.9091	0.	-4714.8
13821	5.2671	2.	0.	-4739.2
13822	5.3595	2.	5.e-002	-6.847
13823	5.3595	1.7273	0.	-4721.7
13824	5.2671	1.8182	0.	-4745.8
13825	5.3595	1.8182	5.e-002	-6.8582
13826	5.3595	1.5455	0.	-4729.3
13827	5.2671	1.6364	0.	-4753.4
13828	5.3595	1.6364	5.e-002	-6.8685
13829	5.3595	1.3636	0.	-4737.7
13830	5.2671	1.4545	0.	-4761.7
13831	5.3595	1.4545	5.e-002	-6.8767
13832	5.3595	1.1818	0.	-4746.7
13833	5.2671	1.2727	0.	-4770.8
13834	5.3595	1.2727	5.e-002	-6.882
13835	5.3595	1.	0.	-4756.2
13836	5.2671	1.0909	0.	-4780.4
13837	5.3595	1.0909	5.e-002	-6.8832
13838	5.3595	0.81818	0.	-4766.2
13839	5.2671	0.90909	0.	-4790.6
13840	5.3595	0.90909	5.e-002	-6.8796
13841	5.3595	0.63636	0.	-4776.5
13842	5.2671	0.72727	0.	-4801.2
13843	5.3595	0.72727	5.e-002	-6.8703
13844	5.3595	0.45455	0.	-4787.
13845	5.2671	0.54545	0.	-4812.
13846	5.3595	0.54545	5.e-002	-6.8539
13847	5.3595	0.27273	0.	-4797.8
13848	5.2671	0.36364	0.	-4823.
13849	5.3595	0.36364	5.e-002	-6.8086
13850	5.2671	0.18182	0.	-4834.4
13851	5.3595	0.18182	5.e-002	-6.4903
13852	5.3595	9.0909e-002	0.	-4807.3
13853	5.1747	5.7273	0.	-4859.7
13854	5.0823	5.8182	0.	-4897.
13855	5.1747	5.8182	5.e-002	-7.0419
13856	5.1747	5.9091	0.	-4869.9
13857	5.1747	5.5455	0.	-4848.1
13858	5.0823	5.6364	0.	-4884.8
13859	5.1747	5.6364	5.e-002	-6.9779
13860	5.1747	5.3636	0.	-4836.7
13861	5.0823	5.4545	0.	-4872.9
13862	5.1747	5.4545	5.e-002	-6.9997
13863	5.1747	5.1818	0.	-4825.6
13864	5.0823	5.2727	0.	-4861.2
13865	5.1747	5.2727	5.e-002	-7.0149
13866	5.1747	5.	0.	-4814.8
13867	5.0823	5.0909	0.	-4849.8
13868	5.1747	5.0909	5.e-002	-7.0239
13869	5.1747	4.8182	0.	-4804.6
13870	5.0823	4.9091	0.	-4838.9
13871	5.1747	4.9091	5.e-002	-7.0267
13872	5.1747	4.6364	0.	-4794.8
13873	5.0823	4.7273	0.	-4828.4
13874	5.1747	4.7273	5.e-002	-7.024
13875	5.1747	4.4545	0.	-4785.8
13876	5.0823	4.5455	0.	-4818.7
13877	5.1747	4.5455	5.e-002	-7.017
13878	5.1747	4.2727	0.	-4777.6
13879	5.0823	4.3636	0.	-4809.7
13880	5.1747	4.3636	5.e-002	-7.0066
13881	5.1747	4.0909	0.	-4770.2
13882	5.0823	4.1818	0.	-4801.5
13883	5.1747	4.1818	5.e-002	-6.994
13884	5.1747	3.9091	0.	-4763.8
13885	5.0823	4.	0.	-4794.4
13886	5.1747	4.	5.e-002	-6.9805
13887	5.1747	3.7273	0.	-4758.5
13888	5.0823	3.8182	0.	-4788.3
13889	5.1747	3.8182	5.e-002	-6.9672
13890	5.1747	3.5455	0.	-4754.2
13891	5.0823	3.6364	0.	-4783.3
13892	5.1747	3.6364	5.e-002	-6.955
13893	5.1747	3.3636	0.	-4751.2
13894	5.0823	3.4545	0.	-4779.5
13895	5.1747	3.4545	5.e-002	-6.945
13896	5.1747	3.1818	0.	-4749.3
13897	5.0823	3.2727	0.	-4776.9
13898	5.1747	3.2727	5.e-002	-6.9379
13899	5.1747	3.	0.	-4748.7
13900	5.0823	3.0909	0.	-4775.6
13901	5.1747	3.0909	5.e-002	-6.9342
13902	5.1747	2.8182	0.	-4749.3
13903	5.0823	2.9091	0.	-4775.6
13904	5.1747	2.9091	5.e-002	-6.9342
13905	5.1747	2.6364	0.	-4751.2
13906	5.0823	2.7273	0.	-4776.9
13907	5.1747	2.7273	5.e-002	-6.9379
13908	5.1747	2.4545	0.	-4754.2
13909	5.0823	2.5455	0.	-4779.5
13910	5.1747	2.5455	5.e-002	-6.945
13911	5.1747	2.2727	0.	-4758.5
13912	5.0823	2.3636	0.	-4783.3
13913	5.1747	2.3636	5.e-002	-6.955
13914	5.1747	2.0909	0.	-4763.8
13915	5.0823	2.1818	0.	-4788.3
13916	5.1747	2.1818	5.e-002	-6.9671
13917	5.1747	1.9091	0.	-4770.2
13918	5.0823	2.	0.	-4794.4
13919	5.1747	2.	5.e-002	-6.9805
13920	5.1747	1.7273	0.	-4777.6
13921	5.0823	1.8182	0.	-4801.5
13922	5.1747	1.8182	5.e-002	-6.994
13923	5.1747	1.5455	0.	-4785.8
13924	5.0823	1.6364	0.	-4809.7
13925	5.1747	1.6364	5.e-002	-7.0066
13926	5.1747	1.3636	0.	-4794.8
13927	5.0823	1.4545	0.	-4818.7
13928	5.1747	1.4545	5.e-002	-7.017
13929	5.1747	1.1818	0.	-4804.6
13930	5.0823	1.2727	0.	-4828.4
13931	5.1747	1.2727	5.e-002	-7.024
13932	5.1747	1.	0.	-4814.8
13933	5.0823	1.0909	0.	-4838.9
13934	5.1747	1.0909	5.e-002	-7.0266
13935	5.1747	0.81818	0.	-4825.6
13936	5.0823	0.90909	0.	-4849.8
13937	5.1747	0.90909	5.e-002	-7.0238
13938	5.1747	0.63636	0.	-4836.7
13939	5.0823	0.72727	0.	-4861.2
13940	5.1747	0.72727	5.e-002	-7.0149
13941	5.1747	0.45455	0.	-4848.1
13942	5.0823	0.54545	0.	-4872.9
13943	5.1747	0.54545	5.e-002	-6.9996
13944	5.1747	0.27273	0.	-4859.7
13945	5.0823	0.36364	0.	-4884.8
13946	5.1747	0.36364	5.e-002	-6.9778
13947	5.0823	0.18182	0.	-4897.
13948	5.1747	0.18182	5.e-002	-7.0418
13949	5.1747	9.0909e-002	0.	-4869.9
13950	4.9899	5.7273	0.	-4922.2
13951	4.8975	5.8182	0.	-4960.3
13952	4.9899	5.8182	5.e-002	-7.6357
13953	4.9899	5.9091	0.	-4933.1
13954	4.9899	5.5455	0.	-4909.7
13955	4.8975	5.6364	0.	-4947.1
13956	4.9899	5.6364	5.e-002	-7.1615
13957	4.9899	5.3636	0.	-4897.4
13958	4.8975	5.4545	0.	-4934.3
13959	4.9899	5.4545	5.e-002	-7.1586
13960	4.9899	5.1818	0.	-4885.5
13961	4.8975	5.2727	0.	-4921.7
13962	4.9899	5.2727	5.e-002	-7.1728
13963	4.9899	5.	0.	-4873.9
13964	4.8975	5.0909	0.	-4909.4
13965	4.9899	5.0909	5.e-002	-7.1816
13966	4.9899	4.8182	0.	-4862.8
13967	4.8975	4.9091	0.	-4897.6
13968	4.9899	4.9091	5.e-002	-7.1836
13969	4.9899	4.6364	0.	-4852.3
13970	4.8975	4.7273	0.	-4886.4
13971	4.9899	4.7273	5.e-002	-7.1796
13972	4.9899	4.4545	0.	-4842.5
13973	4.8975	4.5455	0.	-4875.9
13974	4.9899	4.5455	5.e-002	-7.1708
13975	4.9899	4.2727	0.	-4833.6
13976	4.8975	4.3636	0.	-4866.2
13977	4.9899	4.3636	5.e-002	-7.1581
13978	4.9899	4.0909	0.	-4825.7
13979	4.8975	4.1818	0.	-4857.4
13980	4.9899	4.1818	5.e-002	-7.143
13981	4.9899	3.9091	0.	-4818.8
13982	4.8975	4.	0.	-4849.7
13983	4.9899	4.	5.e-002	-7.1269
13984	4.9899	3.7273	0.	-4813.1
13985	4.8975	3.8182	0.	-4843.1
13986	4.9899	3.8182	5.e-002	-7.111
13987	4.9899	3.5455	0.	-4808.5
13988	4.8975	3.6364	0.	-4837.7
13989	4.9899	3.6364	5.e-002	-7.0967
13990	4.9899	3.3636	0.	-4805.2
13991	4.8975	3.4545	0.	-4833.6
13992	4.9899	3.4545	5.e-002	-7.0851
13993	4.9899	3.1818	0.	-4803.2
13994	4.8975	3.2727	0.	-4830.9
13995	4.9899	3.2727	5.e-002	-7.0767
13996	4.9899	3.	0.	-4802.5
13997	4.8975	3.0909	0.	-4829.5
13998	4.9899	3.0909	5.e-002	-7.0724
13999	4.9899	2.8182	0.	-4803.2
14000	4.8975	2.9091	0.	-4829.5
14001	4.9899	2.9091	5.e-002	-7.0724
14002	4.9899	2.6364	0.	-4805.2
14003	4.8975	2.7273	0.	-4830.9
14004	4.9899	2.7273	5.e-002	-7.0767
14005	4.9899	2.4545	0.	-4808.5
14006	4.8975	2.5455	0.	-4833.6
14007	4.9899	2.5455	5.e-002	-7.085
14008	4.9899	2.2727	0.	-4813.1
14009	4.8975	2.3636	0.	-4837.7
14010	4.9899	2.3636	5.e-002	-7.0968
14011	4.9899	2.0909	0.	-4818.8
14012	4.8975	2.1818	0.	-4843.1
14013	4.9899	2.1818	5.e-002	-7.1111
14014	4.9899	1.9091	0.	-4825.7
14015	4.8975	2.	0.	-4849.7
14016	4.9899	2.	5.e-002	-7.1268
14017	4.9899	1.7273	0.	-4833.6
14018	4.8975	1.8182	0.	-4857.4
14019	4.9899	1.8182	5.e-002	-7.1429
14020	4.9899	1.5455	0.	-4842.5
14021	4.8975	1.6364	0.	-4866.2
14022	4.9899	1.6364	5.e-002	-7.158
14023	4.9899	1.3636	0.	-4852.3
14024	4.8975	1.4545	0.	-4875.9
14025	4.9899	1.4545	5.e-002	-7.1706
14026	4.9899	1.1818	0.	-4862.8
14027	4.8975	1.2727	0.	-4886.4
14028	4.9899	1.2727	5.e-002	-7.1796
14029	4.9899	1.	0.	-4873.9
14030	4.8975	1.0909	0.	-4897.6
14031	4.9899	1.0909	5.e-002	-7.1836
14032	4.9899	0.81818	0.	-4885.5
14033	4.8975	0.90909	0.	-4909.4
14034	4.9899	0.90909	5.e-002	-7.1815
14035	4.9899	0.63636	0.	-4897.4
14036	4.8975	0.72727	0.	-4921.7
14037	4.9899	0.72727	5.e-002	-7.1727
14038	4.9899	0.45455	0.	-4909.7
14039	4.8975	0.54545	0.	-4934.3
14040	4.9899	0.54545	5.e-002	-7.1586
14041	4.9899	0.27273	0.	-4922.2
14042	4.8975	0.36364	0.	-4947.1
14043	4.9899	0.36364	5.e-002	-7.1615
14044	4.8975	0.18182	0.	-4960.3
14045	4.9899	0.18182	5.e-002	-7.6356
14046	4.9899	9.0909e-002	0.	-4933.1
14047	4.8051	5.7273	0.	-4985.3
14048	4.7127	5.8182	0.	-5024.2
14049	4.8051	5.8182	5.e-002	-8.2743
14050	4.8051	5.9091	0.	-4996.9
14051	4.8051	5.5455	0.	-4971.8
14052	4.7127	5.6364	0.	-5010.
14053	4.8051	5.6364	5.e-002	-7.3604
14054	4.8051	5.3636	0.	-4958.6
14055	4.7127	5.4545	0.	-4996.2
14056	4.8051	5.4545	5.e-002	-7.3318
14057	4.8051	5.1818	0.	-4945.7
14058	4.7127	5.2727	0.	-4982.7
14059	4.8051	5.2727	5.e-002	-7.3452
14060	4.8051	5.	0.	-4933.2
14061	4.7127	5.0909	0.	-4969.5
14062	4.8051	5.0909	5.e-002	-7.3541
14063	4.8051	4.8182	0.	-4921.3
14064	4.7127	4.9091	0.	-4956.7
14065	4.8051	4.9091	5.e-002	-7.3556
14066	4.8051	4.6364	0.	-4910.
14067	4.7127	4.7273	0.	-4944.7
14068	4.8051	4.7273	5.e-002	-7.3503
14069	4.8051	4.4545	0.	-4899.5
14070	4.7127	4.5455	0.	-4933.3
14071	4.8051	4.5455	5.e-002	-7.3395
14072	4.8051	4.2727	0.	-4889.9
14073	4.7127	4.3636	0.	-4922.9
14074	4.8051	4.3636	5.e-002	-7.3244
14075	4.8051	4.0909	0.	-4881.4
14076	4.7127	4.1818	0.	-4913.5
14077	4.8051	4.1818	5.e-002	-7.3067
14078	4.8051	3.9091	0.	-4874.
14079	4.7127	4.	0.	-4905.2
14080	4.8051	4.	5.e-002	-7.2879
14081	4.8051	3.7273	0.	-4867.8
14082	4.7127	3.8182	0.	-4898.1
14083	4.8051	3.8182	5.e-002	-7.2695
14084	4.8051	3.5455	0.	-4862.9
14085	4.7127	3.6364	0.	-4892.3
14086	4.8051	3.6364	5.e-002	-7.2529
14087	4.8051	3.3636	0.	-4859.3
14088	4.7127	3.4545	0.	-4888.
14089	4.8051	3.4545	5.e-002	-7.2393
14090	4.8051	3.1818	0.	-4857.2
14091	4.7127	3.2727	0.	-4885.
14092	4.8051	3.2727	5.e-002	-7.2296
14093	4.8051	3.	0.	-4856.5
14094	4.7127	3.0909	0.	-4883.5
14095	4.8051	3.0909	5.e-002	-7.2246
14096	4.8051	2.8182	0.	-4857.2
14097	4.7127	2.9091	0.	-4883.5
14098	4.8051	2.9091	5.e-002	-7.2246
14099	4.8051	2.6364	0.	-4859.3
14100	4.7127	2.7273	0.	-4885.
14101	4.8051	2.7273	5.e-002	-7.2296
14102	4.8051	2.4545	0.	-4862.9
14103	4.7127	2.5455	0.	-4888.
14104	4.8051	2.5455	5.e-002	-7.2393
14105	4.8051	2.2727	0.	-4867.8
14106	4.7127	2.3636	0.	-4892.3
14107	4.8051	2.3636	5.e-002	-7.2529
14108	4.8051	2.0909	0.	-4874.
14109	4.7127	2.1818	0.	-4898.1
14110	4.8051	2.1818	5.e-002	-7.2695
14111	4.8051	1.9091	0.	-4881.4
14112	4.7127	2.	0.	-4905.2
14113	4.8051	2.	5.e-002	-7.2879
14114	4.8051	1.7273	0.	-4889.9
14115	4.7127	1.8182	0.	-4913.5
14116	4.8051	1.8182	5.e-002	-7.3067
14117	4.8051	1.5455	0.	-4899.5
14118	4.7127	1.6364	0.	-4922.9
14119	4.8051	1.6364	5.e-002	-7.3244
14120	4.8051	1.3636	0.	-4910.
14121	4.7127	1.4545	0.	-4933.3
14122	4.8051	1.4545	5.e-002	-7.3394
14123	4.8051	1.1818	0.	-4921.3
14124	4.7127	1.2727	0.	-4944.7
14125	4.8051	1.2727	5.e-002	-7.3503
14126	4.8051	1.	0.	-4933.2
14127	4.7127	1.0909	0.	-4956.7
14128	4.8051	1.0909	5.e-002	-7.3556
14129	4.8051	0.81818	0.	-4945.7
14130	4.7127	0.90909	0.	-4969.5
14131	4.8051	0.90909	5.e-002	-7.354
14132	4.8051	0.63636	0.	-4958.6
14133	4.7127	0.72727	0.	-4982.7
14134	4.8051	0.72727	5.e-002	-7.3451
14135	4.8051	0.45455	0.	-4971.8
14136	4.7127	0.54545	0.	-4996.2
14137	4.8051	0.54545	5.e-002	-7.3318
14138	4.8051	0.27273	0.	-4985.3
14139	4.7127	0.36364	0.	-5010.
14140	4.8051	0.36364	5.e-002	-7.3603
14141	4.7127	0.18182	0.	-5024.2
14142	4.8051	0.18182	5.e-002	-8.2742
14143	4.8051	9.0909e-002	0.	-4996.9
14144	4.6203	5.7273	0.	-5049.
14145	4.5278	5.8182	0.	-5088.8
14146	4.6203	5.8182	5.e-002	-8.9601
14147	4.6203	5.9091	0.	-5061.4
14148	4.6203	5.5455	0.	-5034.4
14149	4.5278	5.6364	0.	-5073.4
14150	4.6203	5.6364	5.e-002	-7.5755
14151	4.6203	5.3636	0.	-5020.3
14152	4.5278	5.4545	0.	-5058.6
14153	4.6203	5.4545	5.e-002	-7.5205
14154	4.6203	5.1818	0.	-5006.4
14155	4.5278	5.2727	0.	-5044.
14156	4.6203	5.2727	5.e-002	-7.5335
14157	4.6203	5.	0.	-4993.
14158	4.5278	5.0909	0.	-5029.9
14159	4.6203	5.0909	5.e-002	-7.543
14160	4.6203	4.8182	0.	-4980.2
14161	4.5278	4.9091	0.	-5016.2
14162	4.6203	4.9091	5.e-002	-7.5443
14163	4.6203	4.6364	0.	-4968.
14164	4.5278	4.7273	0.	-5003.2
14165	4.6203	4.7273	5.e-002	-7.5379
14166	4.6203	4.4545	0.	-4956.8
14167	4.5278	4.5455	0.	-4991.1
14168	4.6203	4.5455	5.e-002	-7.5252
14169	4.6203	4.2727	0.	-4946.5
14170	4.5278	4.3636	0.	-4979.9
14171	4.6203	4.3636	5.e-002	-7.5077
14172	4.6203	4.0909	0.	-4937.3
14173	4.5278	4.1818	0.	-4969.8
14174	4.6203	4.1818	5.e-002	-7.4873
14175	4.6203	3.9091	0.	-4929.3
14176	4.5278	4.	0.	-4960.9
14177	4.6203	4.	5.e-002	-7.4657
14178	4.6203	3.7273	0.	-4922.7
14179	4.5278	3.8182	0.	-4953.3
14180	4.6203	3.8182	5.e-002	-7.4445
14181	4.6203	3.5455	0.	-4917.4
14182	4.5278	3.6364	0.	-4947.1
14183	4.6203	3.6364	5.e-002	-7.4255
14184	4.6203	3.3636	0.	-4913.6
14185	4.5278	3.4545	0.	-4942.4
14186	4.6203	3.4545	5.e-002	-7.4099
14187	4.6203	3.1818	0.	-4911.3
14188	4.5278	3.2727	0.	-4939.3
14189	4.6203	3.2727	5.e-002	-7.3988
14190	4.6203	3.	0.	-4910.5
14191	4.5278	3.0909	0.	-4937.7
14192	4.6203	3.0909	5.e-002	-7.3931
14193	4.6203	2.8182	0.	-4911.3
14194	4.5278	2.9091	0.	-4937.7
14195	4.6203	2.9091	5.e-002	-7.3931
14196	4.6203	2.6364	0.	-4913.6
14197	4.5278	2.7273	0.	-4939.3
14198	4.6203	2.7273	5.e-002	-7.3988
14199	4.6203	2.4545	0.	-4917.4
14200	4.5278	2.5455	0.	-4942.4
14201	4.6203	2.5455	5.e-002	-7.4099
14202	4.6203	2.2727	0.	-4922.7
14203	4.5278	2.3636	0.	-4947.1
14204	4.6203	2.3636	5.e-002	-7.4254
14205	4.6203	2.0909	0.	-4929.3
14206	4.5278	2.1818	0.	-4953.3
14207	4.6203	2.1818	5.e-002	-7.4445
14208	4.6203	1.9091	0.	-4937.3
14209	4.5278	2.	0.	-4960.9
14210	4.6203	2.	5.e-002	-7.4656
14211	4.6203	1.7273	0.	-4946.5
14212	4.5278	1.8182	0.	-4969.8
14213	4.6203	1.8182	5.e-002	-7.4873
14214	4.6203	1.5455	0.	-4956.8
14215	4.5278	1.6364	0.	-4979.9
14216	4.6203	1.6364	5.e-002	-7.5077
14217	4.6203	1.3636	0.	-4968.
14218	4.5278	1.4545	0.	-4991.1
14219	4.6203	1.4545	5.e-002	-7.5251
14220	4.6203	1.1818	0.	-4980.2
14221	4.5278	1.2727	0.	-5003.2
14222	4.6203	1.2727	5.e-002	-7.5378
14223	4.6203	1.	0.	-4993.
14224	4.5278	1.0909	0.	-5016.2
14225	4.6203	1.0909	5.e-002	-7.5442
14226	4.6203	0.81818	0.	-5006.4
14227	4.5278	0.90909	0.	-5029.9
14228	4.6203	0.90909	5.e-002	-7.543
14229	4.6203	0.63636	0.	-5020.3
14230	4.5278	0.72727	0.	-5044.
14231	4.6203	0.72727	5.e-002	-7.5335
14232	4.6203	0.45455	0.	-5034.4
14233	4.5278	0.54545	0.	-5058.6
14234	4.6203	0.54545	5.e-002	-7.5205
14235	4.6203	0.27273	0.	-5049.
14236	4.5278	0.36364	0.	-5073.4
14237	4.6203	0.36364	5.e-002	-7.5754
14238	4.5278	0.18182	0.	-5088.8
14239	4.6203	0.18182	5.e-002	-8.96
14240	4.6203	9.0909e-002	0.	-5061.4
14241	4.4354	5.7273	0.	-5113.3
14242	4.343	5.8182	0.	-5154.1
14243	4.4354	5.8182	5.e-002	-9.6954
14244	4.4354	5.9091	0.	-5126.4
14245	4.4354	5.5455	0.	-5097.6
14246	4.343	5.6364	0.	-5137.4
14247	4.4354	5.6364	5.e-002	-7.8079
14248	4.4354	5.3636	0.	-5082.4
14249	4.343	5.4545	0.	-5121.5
14250	4.4354	5.4545	5.e-002	-7.7261
14251	4.4354	5.1818	0.	-5067.5
14252	4.343	5.2727	0.	-5105.9
14253	4.4354	5.2727	5.e-002	-7.7394
14254	4.4354	5.	0.	-5053.1
14255	4.343	5.0909	0.	-5090.7
14256	4.4354	5.0909	5.e-002	-7.7502
14257	4.4354	4.8182	0.	-5039.3
14258	4.343	4.9091	0.	-5076.
14259	4.4354	4.9091	5.e-002	-7.7515
14260	4.4354	4.6364	0.	-5026.3
14261	4.343	4.7273	0.	-5062.1
14262	4.4354	4.7273	5.e-002	-7.7443
14263	4.4354	4.4545	0.	-5014.3
14264	4.343	4.5455	0.	-5049.1
14265	4.4354	4.5455	5.e-002	-7.7299
14266	4.4354	4.2727	0.	-5003.2
14267	4.343	4.3636	0.	-5037.2
14268	4.4354	4.3636	5.e-002	-7.7101
14269	4.4354	4.0909	0.	-4993.4
14270	4.343	4.1818	0.	-5026.4
14271	4.4354	4.1818	5.e-002	-7.687
14272	4.4354	3.9091	0.	-4984.9
14273	4.343	4.	0.	-5016.9
14274	4.4354	4.	5.e-002	-7.6625
14275	4.4354	3.7273	0.	-4977.8
14276	4.343	3.8182	0.	-5008.8
14277	4.4354	3.8182	5.e-002	-7.6385
14278	4.4354	3.5455	0.	-4972.2
14279	4.343	3.6364	0.	-5002.2
14280	4.4354	3.6364	5.e-002	-7.617
14281	4.4354	3.3636	0.	-4968.1
14282	4.343	3.4545	0.	-4997.2
14283	4.4354	3.4545	5.e-002	-7.5994
14284	4.4354	3.1818	0.	-4965.6
14285	4.343	3.2727	0.	-4993.8
14286	4.4354	3.2727	5.e-002	-7.587
14287	4.4354	3.	0.	-4964.8
14288	4.343	3.0909	0.	-4992.1
14289	4.4354	3.0909	5.e-002	-7.5805
14290	4.4354	2.8182	0.	-4965.6
14291	4.343	2.9091	0.	-4992.1
14292	4.4354	2.9091	5.e-002	-7.5805
14293	4.4354	2.6364	0.	-4968.1
14294	4.343	2.7273	0.	-4993.8
14295	4.4354	2.7273	5.e-002	-7.5869
14296	4.4354	2.4545	0.	-4972.2
14297	4.343	2.5455	0.	-4997.2
14298	4.4354	2.5455	5.e-002	-7.5994
14299	4.4354	2.2727	0.	-4977.8
14300	4.343	2.3636	0.	-5002.2
14301	4.4354	2.3636	5.e-002	-7.617
14302	4.4354	2.0909	0.	-4984.9
14303	4.343	2.1818	0.	-5008.8
14304	4.4354	2.1818	5.e-002	-7.6385
14305	4.4354	1.9091	0.	-4993.4
14306	4.343	2.	0.	-5016.9
14307	4.4354	2.	5.e-002	-7.6624
14308	4.4354	1.7273	0.	-5003.2
14309	4.343	1.8182	0.	-5026.4
14310	4.4354	1.8182	5.e-002	-7.687
14311	4.4354	1.5455	0.	-5014.3
14312	4.343	1.6364	0.	-5037.2
14313	4.4354	1.6364	5.e-002	-7.7101
14314	4.4354	1.3636	0.	-5026.3
14315	4.343	1.4545	0.	-5049.1
14316	4.4354	1.4545	5.e-002	-7.7298
14317	4.4354	1.1818	0.	-5039.3
14318	4.343	1.2727	0.	-5062.1
14319	4.4354	1.2727	5.e-002	-7.7443
14320	4.4354	1.	0.	-5053.1
14321	4.343	1.0909	0.	-5076.
14322	4.4354	1.0909	5.e-002	-7.7515
14323	4.4354	0.81818	0.	-5067.5
14324	4.343	0.90909	0.	-5090.7
14325	4.4354	0.90909	5.e-002	-7.7501
14326	4.4354	0.63636	0.	-5082.4
14327	4.343	0.72727	0.	-5105.9
14328	4.4354	0.72727	5.e-002	-7.7393
14329	4.4354	0.45455	0.	-5097.6
14330	4.343	0.54545	0.	-5121.5
14331	4.4354	0.54545	5.e-002	-7.7261
14332	4.4354	0.27273	0.	-5113.3
14333	4.343	0.36364	0.	-5137.4
14334	4.4354	0.36364	5.e-002	-7.8079
14335	4.343	0.18182	0.	-5154.1
14336	4.4354	0.18182	5.e-002	-9.6954
14337	4.4354	9.0909e-002	0.	-5126.4
14338	4.2506	5.7273	0.	-5178.2
14339	4.1582	5.8182	0.	-5220.
14340	4.2506	5.8182	5.e-002	-10.483
14341	4.2506	5.9091	0.	-5191.9
14342	4.2506	5.5455	0.	-5161.3
14343	4.1582	5.6364	0.	-5201.9
14344	4.2506	5.6364	5.e-002	-8.0587
14345	4.2506	5.3636	0.	-5145.
14346	4.1582	5.4545	0.	-5184.9
14347	4.2506	5.4545	5.e-002	-7.9501
14348	4.2506	5.1818	0.	-5129.1
14349	4.1582	5.2727	0.	-5168.1
14350	4.2506	5.2727	5.e-002	-7.9646
14351	4.2506	5.	0.	-5113.6
14352	4.1582	5.0909	0.	-5151.8
14353	4.2506	5.0909	5.e-002	-7.9774
14354	4.2506	4.8182	0.	-5098.9
14355	4.1582	4.9091	0.	-5136.2
14356	4.2506	4.9091	5.e-002	-7.9796
14357	4.2506	4.6364	0.	-5085.
14358	4.1582	4.7273	0.	-5121.4
14359	4.2506	4.7273	5.e-002	-7.972
14360	4.2506	4.4545	0.	-5072.1
14361	4.1582	4.5455	0.	-5107.5
14362	4.2506	4.5455	5.e-002	-7.9562
14363	4.2506	4.2727	0.	-5060.3
14364	4.1582	4.3636	0.	-5094.7
14365	4.2506	4.3636	5.e-002	-7.9343
14366	4.2506	4.0909	0.	-5049.8
14367	4.1582	4.1818	0.	-5083.2
14368	4.2506	4.1818	5.e-002	-7.9084
14369	4.2506	3.9091	0.	-5040.7
14370	4.1582	4.	0.	-5073.1
14371	4.2506	4.	5.e-002	-7.8811
14372	4.2506	3.7273	0.	-5033.2
14373	4.1582	3.8182	0.	-5064.6
14374	4.2506	3.8182	5.e-002	-7.8544
14375	4.2506	3.5455	0.	-5027.2
14376	4.1582	3.6364	0.	-5057.6
14377	4.2506	3.6364	5.e-002	-7.8304
14378	4.2506	3.3636	0.	-5022.9
14379	4.1582	3.4545	0.	-5052.3
14380	4.2506	3.4545	5.e-002	-7.8108
14381	4.2506	3.1818	0.	-5020.3
14382	4.1582	3.2727	0.	-5048.7
14383	4.2506	3.2727	5.e-002	-7.797
14384	4.2506	3.	0.	-5019.4
14385	4.1582	3.0909	0.	-5046.9
14386	4.2506	3.0909	5.e-002	-7.7898
14387	4.2506	2.8182	0.	-5020.3
14388	4.1582	2.9091	0.	-5046.9
14389	4.2506	2.9091	5.e-002	-7.7898
14390	4.2506	2.6364	0.	-5022.9
14391	4.1582	2.7273	0.	-5048.7
14392	4.2506	2.7273	5.e-002	-7.7969
14393	4.2506	2.4545	0.	-5027.2
14394	4.1582	2.5455	0.	-5052.3
14395	4.2506	2.5455	5.e-002	-7.8108
14396	4.2506	2.2727	0.	-5033.2
14397	4.1582	2.3636	0.	-5057.6
14398	4.2506	2.3636	5.e-002	-7.8304
14399	4.2506	2.0909	0.	-5040.7
14400	4.1582	2.1818	0.	-5064.6
14401	4.2506	2.1818	5.e-002	-7.8544
14402	4.2506	1.9091	0.	-5049.8
14403	4.1582	2.	0.	-5073.1
14404	4.2506	2.	5.e-002	-7.8811
14405	4.2506	1.7273	0.	-5060.3
14406	4.1582	1.8182	0.	-5083.2
14407	4.2506	1.8182	5.e-002	-7.9084
14408	4.2506	1.5455	0.	-5072.1
14409	4.1582	1.6364	0.	-5094.7
14410	4.2506	1.6364	5.e-002	-7.9342
14411	4.2506	1.3636	0.	-5085.
14412	4.1582	1.4545	0.	-5107.5
14413	4.2506	1.4545	5.e-002	-7.9561
14414	4.2506	1.1818	0.	-5098.9
14415	4.1582	1.2727	0.	-5121.4
14416	4.2506	1.2727	5.e-002	-7.9719
14417	4.2506	1.	0.	-5113.6
14418	4.1582	1.0909	0.	-5136.2
14419	4.2506	1.0909	5.e-002	-7.9795
14420	4.2506	0.81818	0.	-5129.1
14421	4.1582	0.90909	0.	-5151.8
14422	4.2506	0.90909	5.e-002	-7.9773
14423	4.2506	0.63636	0.	-5145.
14424	4.1582	0.72727	0.	-5168.1
14425	4.2506	0.72727	5.e-002	-7.9645
14426	4.2506	0.45455	0.	-5161.3
14427	4.1582	0.54545	0.	-5184.9
14428	4.2506	0.54545	5.e-002	-7.95
14429	4.2506	0.27273	0.	-5178.2
14430	4.1582	0.36364	0.	-5201.9
14431	4.2506	0.36364	5.e-002	-8.0586
14432	4.1582	0.18182	0.	-5220.
14433	4.2506	0.18182	5.e-002	-10.483
14434	4.2506	9.0909e-002	0.	-5191.9
14435	4.0658	5.7273	0.	-5243.7
14436	3.9734	5.8182	0.	-5286.5
14437	4.0658	5.8182	5.e-002	-11.324
14438	4.0658	5.9091	0.	-5258.
14439	4.0658	5.5455	0.	-5225.5
14440	3.9734	5.6364	0.	-5267.
14441	4.0658	5.6364	5.e-002	-8.3288
14442	4.0658	5.3636	0.	-5208.1
14443	3.9734	5.4545	0.	-5248.7
14444	4.0658	5.4545	5.e-002	-8.1939
14445	4.0658	5.1818	0.	-5191.
14446	3.9734	5.2727	0.	-5230.8
14447	4.0658	5.2727	5.e-002	-8.211
14448	4.0658	5.	0.	-5174.5
14449	3.9734	5.0909	0.	-5213.4
14450	4.0658	5.0909	5.e-002	-8.2269
14451	4.0658	4.8182	0.	-5158.7
14452	3.9734	4.9091	0.	-5196.7
14453	4.0658	4.9091	5.e-002	-8.2309
14454	4.0658	4.6364	0.	-5143.9
14455	3.9734	4.7273	0.	-5180.9
14456	4.0658	4.7273	5.e-002	-8.2235
14457	4.0658	4.4545	0.	-5130.2
14458	3.9734	4.5455	0.	-5166.1
14459	4.0658	4.5455	5.e-002	-8.2067
14460	4.0658	4.2727	0.	-5117.7
14461	3.9734	4.3636	0.	-5152.6
14462	4.0658	4.3636	5.e-002	-8.1829
14463	4.0658	4.0909	0.	-5106.6
14464	3.9734	4.1818	0.	-5140.4
14465	4.0658	4.1818	5.e-002	-8.1546
14466	4.0658	3.9091	0.	-5096.9
14467	3.9734	4.	0.	-5129.8
14468	4.0658	4.	5.e-002	-8.1247
14469	4.0658	3.7273	0.	-5088.9
14470	3.9734	3.8182	0.	-5120.7
14471	4.0658	3.8182	5.e-002	-8.0954
14472	4.0658	3.5455	0.	-5082.6
14473	3.9734	3.6364	0.	-5113.4
14474	4.0658	3.6364	5.e-002	-8.0691
14475	4.0658	3.3636	0.	-5078.
14476	3.9734	3.4545	0.	-5107.8
14477	4.0658	3.4545	5.e-002	-8.0476
14478	4.0658	3.1818	0.	-5075.3
14479	3.9734	3.2727	0.	-5104.
14480	4.0658	3.2727	5.e-002	-8.0325
14481	4.0658	3.	0.	-5074.4
14482	3.9734	3.0909	0.	-5102.1
14483	4.0658	3.0909	5.e-002	-8.0247
14484	4.0658	2.8182	0.	-5075.3
14485	3.9734	2.9091	0.	-5102.1
14486	4.0658	2.9091	5.e-002	-8.0247
14487	4.0658	2.6364	0.	-5078.
14488	3.9734	2.7273	0.	-5104.
14489	4.0658	2.7273	5.e-002	-8.0325
14490	4.0658	2.4545	0.	-5082.6
14491	3.9734	2.5455	0.	-5107.8
14492	4.0658	2.5455	5.e-002	-8.0476
14493	4.0658	2.2727	0.	-5088.9
14494	3.9734	2.3636	0.	-5113.4
14495	4.0658	2.3636	5.e-002	-8.0691
14496	4.0658	2.0909	0.	-5096.9
14497	3.9734	2.1818	0.	-5120.7
14498	4.0658	2.1818	5.e-002	-8.0953
14499	4.0658	1.9091	0.	-5106.5
14500	3.9734	2.	0.	-5129.8
14501	4.0658	2.	5.e-002	-8.1246
14502	4.0658	1.7273	0.	-5117.7
14503	3.9734	1.8182	0.	-5140.4
14504	4.0658	1.8182	5.e-002	-8.1546
14505	4.0658	1.5455	0.	-5130.2
14506	3.9734	1.6364	0.	-5152.6
14507	4.0658	1.6364	5.e-002	-8.1829
14508	4.0658	1.3636	0.	-5143.9
14509	3.9734	1.4545	0.	-5166.1
14510	4.0658	1.4545	5.e-002	-8.2067
14511	4.0658	1.1818	0.	-5158.7
14512	3.9734	1.2727	0.	-5180.9
14513	4.0658	1.2727	5.e-002	-8.2234
14514	4.0658	1.	0.	-5174.5
14515	3.9734	1.0909	0.	-5196.7
14516	4.0658	1.0909	5.e-002	-8.2308
14517	4.0658	0.81818	0.	-5191.
14518	3.9734	0.90909	0.	-5213.4
14519	4.0658	0.90909	5.e-002	-8.2269
14520	4.0658	0.63636	0.	-5208.1
14521	3.9734	0.72727	0.	-5230.8
14522	4.0658	0.72727	5.e-002	-8.211
14523	4.0658	0.45455	0.	-5225.5
14524	3.9734	0.54545	0.	-5248.7
14525	4.0658	0.54545	5.e-002	-8.1939
14526	4.0658	0.27273	0.	-5243.7
14527	3.9734	0.36364	0.	-5267.
14528	4.0658	0.36364	5.e-002	-8.3287
14529	3.9734	0.18182	0.	-5286.5
14530	4.0658	0.18182	5.e-002	-11.324
14531	4.0658	9.0909e-002	0.	-5258.
14532	3.881	5.7273	0.	-5309.8
14533	3.7886	5.8182	0.	-5353.5
14534	3.881	5.8182	5.e-002	-12.221
14535	3.881	5.9091	0.	-5324.6
14536	3.881	5.5455	0.	-5290.2
14537	3.7886	5.6364	0.	-5332.4
14538	3.881	5.6364	5.e-002	-8.6193
14539	3.881	5.3636	0.	-5271.5
14540	3.7886	5.4545	0.	-5312.9
14541	3.881	5.4545	5.e-002	-8.4596
14542	3.881	5.1818	0.	-5253.2
14543	3.7886	5.2727	0.	-5293.7
14544	3.881	5.2727	5.e-002	-8.481
14545	3.881	5.	0.	-5235.6
14546	3.7886	5.0909	0.	-5275.2
14547	3.881	5.0909	5.e-002	-8.5016
14548	3.881	4.8182	0.	-5218.9
14549	3.7886	4.9091	0.	-5257.5
14550	3.881	4.9091	5.e-002	-8.5083
14551	3.881	4.6364	0.	-5203.2
14552	3.7886	4.7273	0.	-5240.7
14553	3.881	4.7273	5.e-002	-8.502
14554	3.881	4.4545	0.	-5188.6
14555	3.7886	4.5455	0.	-5225.1
14556	3.881	4.5455	5.e-002	-8.4848
14557	3.881	4.2727	0.	-5175.4
14558	3.7886	4.3636	0.	-5210.9
14559	3.881	4.3636	5.e-002	-8.4595
14560	3.881	4.0909	0.	-5163.7
14561	3.7886	4.1818	0.	-5198.1
14562	3.881	4.1818	5.e-002	-8.4292
14563	3.881	3.9091	0.	-5153.6
14564	3.7886	4.	0.	-5186.9
14565	3.881	4.	5.e-002	-8.3969
14566	3.881	3.7273	0.	-5145.1
14567	3.7886	3.8182	0.	-5177.4
14568	3.881	3.8182	5.e-002	-8.3654
14569	3.881	3.5455	0.	-5138.5
14570	3.7886	3.6364	0.	-5169.7
14571	3.881	3.6364	5.e-002	-8.3371
14572	3.881	3.3636	0.	-5133.7
14573	3.7886	3.4545	0.	-5163.9
14574	3.881	3.4545	5.e-002	-8.3142
14575	3.881	3.1818	0.	-5130.8
14576	3.7886	3.2727	0.	-5160.
14577	3.881	3.2727	5.e-002	-8.298
14578	3.881	3.	0.	-5129.9
14579	3.7886	3.0909	0.	-5158.1
14580	3.881	3.0909	5.e-002	-8.2897
14581	3.881	2.8182	0.	-5130.8
14582	3.7886	2.9091	0.	-5158.1
14583	3.881	2.9091	5.e-002	-8.2897
14584	3.881	2.6364	0.	-5133.7
14585	3.7886	2.7273	0.	-5160.
14586	3.881	2.7273	5.e-002	-8.298
14587	3.881	2.4545	0.	-5138.5
14588	3.7886	2.5455	0.	-5163.9
14589	3.881	2.5455	5.e-002	-8.3142
14590	3.881	2.2727	0.	-5145.1
14591	3.7886	2.3636	0.	-5169.7
14592	3.881	2.3636	5.e-002	-8.3371
14593	3.881	2.0909	0.	-5153.6
14594	3.7886	2.1818	0.	-5177.4
14595	3.881	2.1818	5.e-002	-8.3654
14596	3.881	1.9091	0.	-5163.7
14597	3.7886	2.	0.	-5186.9
14598	3.881	2.	5.e-002	-8.3969
14599	3.881	1.7273	0.	-5175.4
14600	3.7886	1.8182	0.	-5198.1
14601	3.881	1.8182	5.e-002	-8.4292
14602	3.881	1.5455	0.	-5188.6
14603	3.7886	1.6364	0.	-5210.9
14604	3.881	1.6364	5.e-002	-8.4595
14605	3.881	1.3636	0.	-5203.2
14606	3.7886	1.4545	0.	-5225.1
14607	3.881	1.4545	5.e-002	-8.4847
14608	3.881	1.1818	0.	-5218.9
14609	3.7886	1.2727	0.	-5240.7
14610	3.881	1.2727	5.e-002	-8.5019
14611	3.881	1.	0.	-5235.6
14612	3.7886	1.0909	0.	-5257.5
14613	3.881	1.0909	5.e-002	-8.5083
14614	3.881	0.81818	0.	-5253.2
14615	3.7886	0.90909	0.	-5275.2
14616	3.881	0.90909	5.e-002	-8.5015
14617	3.881	0.63636	0.	-5271.5
14618	3.7886	0.72727	0.	-5293.7
14619	3.881	0.72727	5.e-002	-8.4809
14620	3.881	0.45455	0.	-5290.2
14621	3.7886	0.54545	0.	-5312.9
14622	3.881	0.54545	5.e-002	-8.4595
14623	3.881	0.27273	0.	-5309.8
14624	3.7886	0.36364	0.	-5332.4
14625	3.881	0.36364	5.e-002	-8.6193
14626	3.7886	0.18182	0.	-5353.5
14627	3.881	0.18182	5.e-002	-12.22
14628	3.881	9.0909e-002	0.	-5324.6
14629	3.6962	5.7273	0.	-5376.3
14630	3.6038	5.8182	0.	-5421.
14631	3.6962	5.8182	5.e-002	-13.174
14632	3.6962	5.9091	0.	-5391.5
14633	3.6962	5.5455	0.	-5355.2
14634	3.6038	5.6364	0.	-5398.2
14635	3.6962	5.6364	5.e-002	-8.9314
14636	3.6962	5.3636	0.	-5335.2
14637	3.6038	5.4545	0.	-5377.3
14638	3.6962	5.4545	5.e-002	-8.7493
14639	3.6962	5.1818	0.	-5315.8
14640	3.6038	5.2727	0.	-5356.9
14641	3.6962	5.2727	5.e-002	-8.7773
14642	3.6962	5.	0.	-5297.1
14643	3.6038	5.0909	0.	-5337.2
14644	3.6962	5.0909	5.e-002	-8.8044
14645	3.6962	4.8182	0.	-5279.3
14646	3.6038	4.9091	0.	-5318.5
14647	3.6962	4.9091	5.e-002	-8.8153
14648	3.6962	4.6364	0.	-5262.7
14649	3.6038	4.7273	0.	-5300.8
14650	3.6962	4.7273	5.e-002	-8.811
14651	3.6962	4.4545	0.	-5247.4
14652	3.6038	4.5455	0.	-5284.4
14653	3.6962	4.5455	5.e-002	-8.7941
14654	3.6962	4.2727	0.	-5233.5
14655	3.6038	4.3636	0.	-5269.5
14656	3.6962	4.3636	5.e-002	-8.7681
14657	3.6962	4.0909	0.	-5221.3
14658	3.6038	4.1818	0.	-5256.2
14659	3.6962	4.1818	5.e-002	-8.7363
14660	3.6962	3.9091	0.	-5210.7
14661	3.6038	4.	0.	-5244.6
14662	3.6962	4.	5.e-002	-8.7022
14663	3.6962	3.7273	0.	-5202.
14664	3.6038	3.8182	0.	-5234.8
14665	3.6962	3.8182	5.e-002	-8.669
14666	3.6962	3.5455	0.	-5195.1
14667	3.6038	3.6364	0.	-5226.8
14668	3.6962	3.6364	5.e-002	-8.6394
14669	3.6962	3.3636	0.	-5190.1
14670	3.6038	3.4545	0.	-5220.9
14671	3.6962	3.4545	5.e-002	-8.6154
14672	3.6962	3.1818	0.	-5187.2
14673	3.6038	3.2727	0.	-5216.9
14674	3.6962	3.2727	5.e-002	-8.5985
14675	3.6962	3.	0.	-5186.2
14676	3.6038	3.0909	0.	-5214.8
14677	3.6962	3.0909	5.e-002	-8.5899
14678	3.6962	2.8182	0.	-5187.2
14679	3.6038	2.9091	0.	-5214.8
14680	3.6962	2.9091	5.e-002	-8.5899
14681	3.6962	2.6364	0.	-5190.1
14682	3.6038	2.7273	0.	-5216.9
14683	3.6962	2.7273	5.e-002	-8.5985
14684	3.6962	2.4545	0.	-5195.1
14685	3.6038	2.5455	0.	-5220.9
14686	3.6962	2.5455	5.e-002	-8.6153
14687	3.6962	2.2727	0.	-5202.
14688	3.6038	2.3636	0.	-5226.8
14689	3.6962	2.3636	5.e-002	-8.6394
14690	3.6962	2.0909	0.	-5210.7
14691	3.6038	2.1818	0.	-5234.8
14692	3.6962	2.1818	5.e-002	-8.669
14693	3.6962	1.9091	0.	-5221.3
14694	3.6038	2.	0.	-5244.6
14695	3.6962	2.	5.e-002	-8.7022
14696	3.6962	1.7273	0.	-5233.5
14697	3.6038	1.8182	0.	-5256.2
14698	3.6962	1.8182	5.e-002	-8.7362
14699	3.6962	1.5455	0.	-5247.4
14700	3.6038	1.6364	0.	-5269.5
14701	3.6962	1.6364	5.e-002	-8.768
14702	3.6962	1.3636	0.	-5262.7
14703	3.6038	1.4545	0.	-5284.4
14704	3.6962	1.4545	5.e-002	-8.7941
14705	3.6962	1.1818	0.	-5279.3
14706	3.6038	1.2727	0.	-5300.8
14707	3.6962	1.2727	5.e-002	-8.8109
14708	3.6962	1.	0.	-5297.1
14709	3.6038	1.0909	0.	-5318.5
14710	3.6962	1.0909	5.e-002	-8.8152
14711	3.6962	0.81818	0.	-5315.8
14712	3.6038	0.90909	0.	-5337.2
14713	3.6962	0.90909	5.e-002	-8.8043
14714	3.6962	0.63636	0.	-5335.2
14715	3.6038	0.72727	0.	-5356.9
14716	3.6962	0.72727	5.e-002	-8.7773
14717	3.6962	0.45455	0.	-5355.2
14718	3.6038	0.54545	0.	-5377.3
14719	3.6962	0.54545	5.e-002	-8.7492
14720	3.6962	0.27273	0.	-5376.3
14721	3.6038	0.36364	0.	-5398.2
14722	3.6962	0.36364	5.e-002	-8.9314
14723	3.6038	0.18182	0.	-5421.
14724	3.6962	0.18182	5.e-002	-13.174
14725	3.6962	9.0909e-002	0.	-5391.5
14726	3.5114	5.7273	0.	-5443.1
14727	3.419	5.8182	0.	-5488.9
14728	3.5114	5.8182	5.e-002	-14.186
14729	3.5114	5.9091	0.	-5458.6
14730	3.5114	5.5455	0.	-5420.4
14731	3.419	5.6364	0.	-5464.1
14732	3.5114	5.6364	5.e-002	-9.2666
14733	3.5114	5.3636	0.	-5399.1
14734	3.419	5.4545	0.	-5441.8
14735	3.5114	5.4545	5.e-002	-9.0656
14736	3.5114	5.1818	0.	-5378.5
14737	3.419	5.2727	0.	-5420.2
14738	3.5114	5.2727	5.e-002	-9.1033
14739	3.5114	5.	0.	-5358.7
14740	3.419	5.0909	0.	-5399.4
14741	3.5114	5.0909	5.e-002	-9.1392
14742	3.5114	4.8182	0.	-5340.
14743	3.419	4.9091	0.	-5379.7
14744	3.5114	4.9091	5.e-002	-9.1559
14745	3.5114	4.6364	0.	-5322.6
14746	3.419	4.7273	0.	-5361.2
14747	3.5114	4.7273	5.e-002	-9.1548
14748	3.5114	4.4545	0.	-5306.6
14749	3.419	4.5455	0.	-5344.1
14750	3.5114	4.5455	5.e-002	-9.1392
14751	3.5114	4.2727	0.	-5292.2
14752	3.419	4.3636	0.	-5328.6
14753	3.5114	4.3636	5.e-002	-9.113
14754	3.5114	4.0909	0.	-5279.5
14755	3.419	4.1818	0.	-5314.9
14756	3.5114	4.1818	5.e-002	-9.0805
14757	3.5114	3.9091	0.	-5268.6
14758	3.419	4.	0.	-5303.
14759	3.5114	4.	5.e-002	-9.0455
14760	3.5114	3.7273	0.	-5259.6
14761	3.419	3.8182	0.	-5293.
14762	3.5114	3.8182	5.e-002	-9.0116
14763	3.5114	3.5455	0.	-5252.5
14764	3.419	3.6364	0.	-5284.9
14765	3.5114	3.6364	5.e-002	-8.9814
14766	3.5114	3.3636	0.	-5247.5
14767	3.419	3.4545	0.	-5278.9
14768	3.5114	3.4545	5.e-002	-8.9572
14769	3.5114	3.1818	0.	-5244.4
14770	3.419	3.2727	0.	-5274.8
14771	3.5114	3.2727	5.e-002	-8.9403
14772	3.5114	3.	0.	-5243.4
14773	3.419	3.0909	0.	-5272.8
14774	3.5114	3.0909	5.e-002	-8.9316
14775	3.5114	2.8182	0.	-5244.4
14776	3.419	2.9091	0.	-5272.8
14777	3.5114	2.9091	5.e-002	-8.9316
14778	3.5114	2.6364	0.	-5247.5
14779	3.419	2.7273	0.	-5274.8
14780	3.5114	2.7273	5.e-002	-8.9403
14781	3.5114	2.4545	0.	-5252.5
14782	3.419	2.5455	0.	-5278.9
14783	3.5114	2.5455	5.e-002	-8.9572
14784	3.5114	2.2727	0.	-5259.6
14785	3.419	2.3636	0.	-5284.9
14786	3.5114	2.3636	5.e-002	-8.9814
14787	3.5114	2.0909	0.	-5268.6
14788	3.419	2.1818	0.	-5293.
14789	3.5114	2.1818	5.e-002	-9.0116
14790	3.5114	1.9091	0.	-5279.5
14791	3.419	2.	0.	-5303.
14792	3.5114	2.	5.e-002	-9.0455
14793	3.5114	1.7273	0.	-5292.2
14794	3.419	1.8182	0.	-5314.9
14795	3.5114	1.8182	5.e-002	-9.0805
14796	3.5114	1.5455	0.	-5306.6
14797	3.419	1.6364	0.	-5328.6
14798	3.5114	1.6364	5.e-002	-9.113
14799	3.5114	1.3636	0.	-5322.6
14800	3.419	1.4545	0.	-5344.1
14801	3.5114	1.4545	5.e-002	-9.1392
14802	3.5114	1.1818	0.	-5340.
14803	3.419	1.2727	0.	-5361.2
14804	3.5114	1.2727	5.e-002	-9.1548
14805	3.5114	1.	0.	-5358.7
14806	3.419	1.0909	0.	-5379.7
14807	3.5114	1.0909	5.e-002	-9.1559
14808	3.5114	0.81818	0.	-5378.5
14809	3.419	0.90909	0.	-5399.4
14810	3.5114	0.90909	5.e-002	-9.1391
14811	3.5114	0.63636	0.	-5399.1
14812	3.419	0.72727	0.	-5420.2
14813	3.5114	0.72727	5.e-002	-9.1033
14814	3.5114	0.45455	0.	-5420.4
14815	3.419	0.54545	0.	-5441.8
14816	3.5114	0.54545	5.e-002	-9.0656
14817	3.5114	0.27273	0.	-5443.1
14818	3.419	0.36364	0.	-5464.1
14819	3.5114	0.36364	5.e-002	-9.2665
14820	3.419	0.18182	0.	-5488.9
14821	3.5114	0.18182	5.e-002	-14.186
14822	3.5114	9.0909e-002	0.	-5458.6
14823	3.3266	5.7273	0.	-5510.
14824	3.2342	5.8182	0.	-5556.8
14825	3.3266	5.8182	5.e-002	-15.255
14826	3.3266	5.9091	0.	-5525.7
14827	3.3266	5.5455	0.	-5485.7
14828	3.2342	5.6364	0.	-5530.
14829	3.3266	5.6364	5.e-002	-9.6265
14830	3.3266	5.3636	0.	-5463.
14831	3.2342	5.4545	0.	-5506.3
14832	3.3266	5.4545	5.e-002	-9.4123
14833	3.3266	5.1818	0.	-5441.2
14834	3.2342	5.2727	0.	-5483.4
14835	3.3266	5.2727	5.e-002	-9.4634
14836	3.3266	5.	0.	-5420.4
14837	3.2342	5.0909	0.	-5461.5
14838	3.3266	5.0909	5.e-002	-9.5107
14839	3.3266	4.8182	0.	-5400.9
14840	3.2342	4.9091	0.	-5440.9
14841	3.3266	4.9091	5.e-002	-9.5352
14842	3.3266	4.6364	0.	-5382.7
14843	3.2342	4.7273	0.	-5421.7
14844	3.3266	4.7273	5.e-002	-9.5386
14845	3.3266	4.4545	0.	-5366.2
14846	3.2342	4.5455	0.	-5404.1
14847	3.3266	4.5455	5.e-002	-9.5251
14848	3.3266	4.2727	0.	-5351.4
14849	3.2342	4.3636	0.	-5388.3
14850	3.3266	4.3636	5.e-002	-9.4997
14851	3.3266	4.0909	0.	-5338.4
14852	3.2342	4.1818	0.	-5374.3
14853	3.3266	4.1818	5.e-002	-9.4674
14854	3.3266	3.9091	0.	-5327.3
14855	3.2342	4.	0.	-5362.3
14856	3.3266	4.	5.e-002	-9.4327
14857	3.3266	3.7273	0.	-5318.2
14858	3.2342	3.8182	0.	-5352.3
14859	3.3266	3.8182	5.e-002	-9.3992
14860	3.3266	3.5455	0.	-5311.2
14861	3.2342	3.6364	0.	-5344.3
14862	3.3266	3.6364	5.e-002	-9.3699
14863	3.3266	3.3636	0.	-5306.1
14864	3.2342	3.4545	0.	-5338.3
14865	3.3266	3.4545	5.e-002	-9.3464
14866	3.3266	3.1818	0.	-5303.1
14867	3.2342	3.2727	0.	-5334.3
14868	3.3266	3.2727	5.e-002	-9.3303
14869	3.3266	3.	0.	-5302.
14870	3.2342	3.0909	0.	-5332.3
14871	3.3266	3.0909	5.e-002	-9.3221
14872	3.3266	2.8182	0.	-5303.1
14873	3.2342	2.9091	0.	-5332.3
14874	3.3266	2.9091	5.e-002	-9.3221
14875	3.3266	2.6364	0.	-5306.1
14876	3.2342	2.7273	0.	-5334.3
14877	3.3266	2.7273	5.e-002	-9.3303
14878	3.3266	2.4545	0.	-5311.2
14879	3.2342	2.5455	0.	-5338.3
14880	3.3266	2.5455	5.e-002	-9.3464
14881	3.3266	2.2727	0.	-5318.2
14882	3.2342	2.3636	0.	-5344.3
14883	3.3266	2.3636	5.e-002	-9.3698
14884	3.3266	2.0909	0.	-5327.3
14885	3.2342	2.1818	0.	-5352.3
14886	3.3266	2.1818	5.e-002	-9.3992
14887	3.3266	1.9091	0.	-5338.4
14888	3.2342	2.	0.	-5362.3
14889	3.3266	2.	5.e-002	-9.4327
14890	3.3266	1.7273	0.	-5351.4
14891	3.2342	1.8182	0.	-5374.3
14892	3.3266	1.8182	5.e-002	-9.4674
14893	3.3266	1.5455	0.	-5366.2
14894	3.2342	1.6364	0.	-5388.3
14895	3.3266	1.6364	5.e-002	-9.4998
14896	3.3266	1.3636	0.	-5382.7
14897	3.2342	1.4545	0.	-5404.1
14898	3.3266	1.4545	5.e-002	-9.5251
14899	3.3266	1.1818	0.	-5400.9
14900	3.2342	1.2727	0.	-5421.7
14901	3.3266	1.2727	5.e-002	-9.5386
14902	3.3266	1.	0.	-5420.4
14903	3.2342	1.0909	0.	-5440.9
14904	3.3266	1.0909	5.e-002	-9.5352
14905	3.3266	0.81818	0.	-5441.2
14906	3.2342	0.90909	0.	-5461.5
14907	3.3266	0.90909	5.e-002	-9.5107
14908	3.3266	0.63636	0.	-5463.
14909	3.2342	0.72727	0.	-5483.4
14910	3.3266	0.72727	5.e-002	-9.4633
14911	3.3266	0.45455	0.	-5485.7
14912	3.2342	0.54545	0.	-5506.3
14913	3.3266	0.54545	5.e-002	-9.4123
14914	3.3266	0.27273	0.	-5510.
14915	3.2342	0.36364	0.	-5530.
14916	3.3266	0.36364	5.e-002	-9.6264
14917	3.2342	0.18182	0.	-5556.8
14918	3.3266	0.18182	5.e-002	-15.255
14919	3.3266	9.0909e-002	0.	-5525.7
14920	3.1418	5.7273	0.	-5576.9
14921	3.0494	5.8182	0.	-5624.6
14922	3.1418	5.8182	5.e-002	-16.38
14923	3.1418	5.9091	0.	-5592.5
14924	3.1418	5.5455	0.	-5550.7
14925	3.0494	5.6364	0.	-5595.5
14926	3.1418	5.6364	5.e-002	-10.014
14927	3.1418	5.3636	0.	-5526.8
14928	3.0494	5.4545	0.	-5570.4
14929	3.1418	5.4545	5.e-002	-9.794
14930	3.1418	5.1818	0.	-5503.8
14931	3.0494	5.2727	0.	-5546.3
14932	3.1418	5.2727	5.e-002	-9.863
14933	3.1418	5.	0.	-5482.1
14934	3.0494	5.0909	0.	-5523.4
14935	3.1418	5.0909	5.e-002	-9.9251
14936	3.1418	4.8182	0.	-5461.8
14937	3.0494	4.9091	0.	-5502.
14938	3.1418	4.9091	5.e-002	-9.9593
14939	3.1418	4.6364	0.	-5443.1
14940	3.0494	4.7273	0.	-5482.3
14941	3.1418	4.7273	5.e-002	-9.9684
14942	3.1418	4.4545	0.	-5426.2
14943	3.0494	4.5455	0.	-5464.4
14944	3.1418	4.5455	5.e-002	-9.9581
14945	3.1418	4.2727	0.	-5411.2
14946	3.0494	4.3636	0.	-5448.5
14947	3.1418	4.3636	5.e-002	-9.9344
14948	3.1418	4.0909	0.	-5398.2
14949	3.0494	4.1818	0.	-5434.6
14950	3.1418	4.1818	5.e-002	-9.9035
14951	3.1418	3.9091	0.	-5387.2
14952	3.0494	4.	0.	-5422.8
14953	3.1418	4.	5.e-002	-9.8704
14954	3.1418	3.7273	0.	-5378.2
14955	3.0494	3.8182	0.	-5413.
14956	3.1418	3.8182	5.e-002	-9.8391
14957	3.1418	3.5455	0.	-5371.3
14958	3.0494	3.6364	0.	-5405.3
14959	3.1418	3.6364	5.e-002	-9.8122
14960	3.1418	3.3636	0.	-5366.3
14961	3.0494	3.4545	0.	-5399.5
14962	3.1418	3.4545	5.e-002	-9.7912
14963	3.1418	3.1818	0.	-5363.4
14964	3.0494	3.2727	0.	-5395.7
14965	3.1418	3.2727	5.e-002	-9.777
14966	3.1418	3.	0.	-5362.4
14967	3.0494	3.0909	0.	-5393.8
14968	3.1418	3.0909	5.e-002	-9.7699
14969	3.1418	2.8182	0.	-5363.4
14970	3.0494	2.9091	0.	-5393.8
14971	3.1418	2.9091	5.e-002	-9.7699
14972	3.1418	2.6364	0.	-5366.3
14973	3.0494	2.7273	0.	-5395.7
14974	3.1418	2.7273	5.e-002	-9.777
14975	3.1418	2.4545	0.	-5371.3
14976	3.0494	2.5455	0.	-5399.5
14977	3.1418	2.5455	5.e-002	-9.7913
14978	3.1418	2.2727	0.	-5378.2
14979	3.0494	2.3636	0.	-5405.3
14980	3.1418	2.3636	5.e-002	-9.8122
14981	3.1418	2.0909	0.	-5387.2
14982	3.0494	2.1818	0.	-5413.
14983	3.1418	2.1818	5.e-002	-9.8391
14984	3.1418	1.9091	0.	-5398.2
14985	3.0494	2.	0.	-5422.8
14986	3.1418	2.	5.e-002	-9.8704
14987	3.1418	1.7273	0.	-5411.2
14988	3.0494	1.8182	0.	-5434.6
14989	3.1418	1.8182	5.e-002	-9.9035
14990	3.1418	1.5455	0.	-5426.2
14991	3.0494	1.6364	0.	-5448.5
14992	3.1418	1.6364	5.e-002	-9.9344
14993	3.1418	1.3636	0.	-5443.1
14994	3.0494	1.4545	0.	-5464.4
14995	3.1418	1.4545	5.e-002	-9.958
14996	3.1418	1.1818	0.	-5461.8
14997	3.0494	1.2727	0.	-5482.3
14998	3.1418	1.2727	5.e-002	-9.9684
14999	3.1418	1.	0.	-5482.1
15000	3.0494	1.0909	0.	-5502.
15001	3.1418	1.0909	5.e-002	-9.9593
15002	3.1418	0.81818	0.	-5503.8
15003	3.0494	0.90909	0.	-5523.4
15004	3.1418	0.90909	5.e-002	-9.9251
15005	3.1418	0.63636	0.	-5526.8
15006	3.0494	0.72727	0.	-5546.3
15007	3.1418	0.72727	5.e-002	-9.863
15008	3.1418	0.45455	0.	-5550.7
15009	3.0494	0.54545	0.	-5570.4
15010	3.1418	0.54545	5.e-002	-9.7939
15011	3.1418	0.27273	0.	-5576.9
15012	3.0494	0.36364	0.	-5595.5
15013	3.1418	0.36364	5.e-002	-10.014
15014	3.0494	0.18182	0.	-5624.6
15015	3.1418	0.18182	5.e-002	-16.38
15016	3.1418	9.0909e-002	0.	-5592.5
15017	2.957	5.7273	0.	-5643.3
15018	2.8646	5.8182	0.	-5691.7
15019	2.957	5.8182	5.e-002	-17.56
15020	2.957	5.9091	0.	-5658.7
15021	2.957	5.5455	0.	-5615.3
15022	2.8646	5.6364	0.	-5660.3
15023	2.957	5.6364	5.e-002	-10.432
15024	2.957	5.3636	0.	-5590.
15025	2.8646	5.4545	0.	-5633.7
15026	2.957	5.4545	5.e-002	-10.217
15027	2.957	5.1818	0.	-5566.
15028	2.8646	5.2727	0.	-5608.4
15029	2.957	5.2727	5.e-002	-10.31
15030	2.957	5.	0.	-5543.5
15031	2.8646	5.0909	0.	-5584.8
15032	2.957	5.0909	5.e-002	-10.39
15033	2.957	4.8182	0.	-5522.6
15034	2.8646	4.9091	0.	-5562.9
15035	2.957	4.9091	5.e-002	-10.436
15036	2.957	4.6364	0.	-5503.7
15037	2.8646	4.7273	0.	-5542.9
15038	2.957	4.7273	5.e-002	-10.452
15039	2.957	4.4545	0.	-5486.7
15040	2.8646	4.5455	0.	-5525.1
15041	2.957	4.5455	5.e-002	-10.445
15042	2.957	4.2727	0.	-5471.9
15043	2.8646	4.3636	0.	-5509.4
15044	2.957	4.3636	5.e-002	-10.424
15045	2.957	4.0909	0.	-5459.1
15046	2.8646	4.1818	0.	-5496.
15047	2.957	4.1818	5.e-002	-10.396
15048	2.957	3.9091	0.	-5448.5
15049	2.8646	4.	0.	-5484.7
15050	2.957	4.	5.e-002	-10.367
15051	2.957	3.7273	0.	-5439.9
15052	2.8646	3.8182	0.	-5475.5
15053	2.957	3.8182	5.e-002	-10.34
15054	2.957	3.5455	0.	-5433.3
15055	2.8646	3.6364	0.	-5468.3
15056	2.957	3.6364	5.e-002	-10.318
15057	2.957	3.3636	0.	-5428.7
15058	2.8646	3.4545	0.	-5463.1
15059	2.957	3.4545	5.e-002	-10.301
15060	2.957	3.1818	0.	-5425.9
15061	2.8646	3.2727	0.	-5459.6
15062	2.957	3.2727	5.e-002	-10.29
15063	2.957	3.	0.	-5425.
15064	2.8646	3.0909	0.	-5457.9
15065	2.957	3.0909	5.e-002	-10.285
15066	2.957	2.8182	0.	-5425.9
15067	2.8646	2.9091	0.	-5457.9
15068	2.957	2.9091	5.e-002	-10.285
15069	2.957	2.6364	0.	-5428.7
15070	2.8646	2.7273	0.	-5459.6
15071	2.957	2.7273	5.e-002	-10.29
15072	2.957	2.4545	0.	-5433.3
15073	2.8646	2.5455	0.	-5463.1
15074	2.957	2.5455	5.e-002	-10.301
15075	2.957	2.2727	0.	-5439.9
15076	2.8646	2.3636	0.	-5468.3
15077	2.957	2.3636	5.e-002	-10.318
15078	2.957	2.0909	0.	-5448.5
15079	2.8646	2.1818	0.	-5475.5
15080	2.957	2.1818	5.e-002	-10.34
15081	2.957	1.9091	0.	-5459.1
15082	2.8646	2.	0.	-5484.7
15083	2.957	2.	5.e-002	-10.367
15084	2.957	1.7273	0.	-5471.9
15085	2.8646	1.8182	0.	-5496.
15086	2.957	1.8182	5.e-002	-10.396
15087	2.957	1.5455	0.	-5486.7
15088	2.8646	1.6364	0.	-5509.4
15089	2.957	1.6364	5.e-002	-10.424
15090	2.957	1.3636	0.	-5503.7
15091	2.8646	1.4545	0.	-5525.1
15092	2.957	1.4545	5.e-002	-10.445
15093	2.957	1.1818	0.	-5522.6
15094	2.8646	1.2727	0.	-5542.9
15095	2.957	1.2727	5.e-002	-10.452
15096	2.957	1.	0.	-5543.5
15097	2.8646	1.0909	0.	-5562.9
15098	2.957	1.0909	5.e-002	-10.436
15099	2.957	0.81818	0.	-5566.
15100	2.8646	0.90909	0.	-5584.8
15101	2.957	0.90909	5.e-002	-10.39
15102	2.957	0.63636	0.	-5590.
15103	2.8646	0.72727	0.	-5608.4
15104	2.957	0.72727	5.e-002	-10.31
15105	2.957	0.45455	0.	-5615.3
15106	2.8646	0.54545	0.	-5633.7
15107	2.957	0.54545	5.e-002	-10.217
15108	2.957	0.27273	0.	-5643.3
15109	2.8646	0.36364	0.	-5660.3
15110	2.957	0.36364	5.e-002	-10.432
15111	2.8646	0.18182	0.	-5691.7
15112	2.957	0.18182	5.e-002	-17.559
15113	2.957	9.0909e-002	0.	-5658.7
15114	2.7722	5.7273	0.	-5708.8
15115	2.6797	5.8182	0.	-5757.8
15116	2.7722	5.8182	5.e-002	-18.788
15117	2.7722	5.9091	0.	-5723.6
15118	2.7722	5.5455	0.	-5678.8
15119	2.6797	5.6364	0.	-5723.7
15120	2.7722	5.6364	5.e-002	-10.887
15121	2.7722	5.3636	0.	-5652.3
15122	2.6797	5.4545	0.	-5695.7
15123	2.7722	5.4545	5.e-002	-10.692
15124	2.7722	5.1818	0.	-5627.4
15125	2.6797	5.2727	0.	-5669.5
15126	2.7722	5.2727	5.e-002	-10.815
15127	2.7722	5.	0.	-5604.3
15128	2.6797	5.0909	0.	-5645.2
15129	2.7722	5.0909	5.e-002	-10.916
15130	2.7722	4.8182	0.	-5583.2
15131	2.6797	4.9091	0.	-5623.1
15132	2.7722	4.9091	5.e-002	-10.975
15133	2.7722	4.6364	0.	-5564.3
15134	2.6797	4.7273	0.	-5603.3
15135	2.7722	4.7273	5.e-002	-10.998
15136	2.7722	4.4545	0.	-5547.7
15137	2.6797	4.5455	0.	-5586.
15138	2.7722	4.5455	5.e-002	-10.995
15139	2.7722	4.2727	0.	-5533.5
15140	2.6797	4.3636	0.	-5571.1
15141	2.7722	4.3636	5.e-002	-10.978
15142	2.7722	4.0909	0.	-5521.4
15143	2.6797	4.1818	0.	-5558.6
15144	2.7722	4.1818	5.e-002	-10.954
15145	2.7722	3.9091	0.	-5511.6
15146	2.6797	4.	0.	-5548.4
15147	2.7722	4.	5.e-002	-10.93
15148	2.7722	3.7273	0.	-5503.8
15149	2.6797	3.8182	0.	-5540.3
15150	2.7722	3.8182	5.e-002	-10.911
15151	2.7722	3.5455	0.	-5497.9
15152	2.6797	3.6364	0.	-5534.1
15153	2.7722	3.6364	5.e-002	-10.896
15154	2.7722	3.3636	0.	-5493.8
15155	2.6797	3.4545	0.	-5529.6
15156	2.7722	3.4545	5.e-002	-10.887
15157	2.7722	3.1818	0.	-5491.4
15158	2.6797	3.2727	0.	-5526.7
15159	2.7722	3.2727	5.e-002	-10.881
15160	2.7722	3.	0.	-5490.6
15161	2.6797	3.0909	0.	-5525.3
15162	2.7722	3.0909	5.e-002	-10.879
15163	2.7722	2.8182	0.	-5491.4
15164	2.6797	2.9091	0.	-5525.3
15165	2.7722	2.9091	5.e-002	-10.879
15166	2.7722	2.6364	0.	-5493.8
15167	2.6797	2.7273	0.	-5526.7
15168	2.7722	2.7273	5.e-002	-10.881
15169	2.7722	2.4545	0.	-5497.9
15170	2.6797	2.5455	0.	-5529.6
15171	2.7722	2.5455	5.e-002	-10.886
15172	2.7722	2.2727	0.	-5503.8
15173	2.6797	2.3636	0.	-5534.1
15174	2.7722	2.3636	5.e-002	-10.896
15175	2.7722	2.0909	0.	-5511.6
15176	2.6797	2.1818	0.	-5540.3
15177	2.7722	2.1818	5.e-002	-10.911
15178	2.7722	1.9091	0.	-5521.4
15179	2.6797	2.	0.	-5548.4
15180	2.7722	2.	5.e-002	-10.93
15181	2.7722	1.7273	0.	-5533.5
15182	2.6797	1.8182	0.	-5558.6
15183	2.7722	1.8182	5.e-002	-10.954
15184	2.7722	1.5455	0.	-5547.7
15185	2.6797	1.6364	0.	-5571.1
15186	2.7722	1.6364	5.e-002	-10.978
15187	2.7722	1.3636	0.	-5564.3
15188	2.6797	1.4545	0.	-5586.
15189	2.7722	1.4545	5.e-002	-10.995
15190	2.7722	1.1818	0.	-5583.2
15191	2.6797	1.2727	0.	-5603.3
15192	2.7722	1.2727	5.e-002	-10.998
15193	2.7722	1.	0.	-5604.3
15194	2.6797	1.0909	0.	-5623.1
15195	2.7722	1.0909	5.e-002	-10.975
15196	2.7722	0.81818	0.	-5627.4
15197	2.6797	0.90909	0.	-5645.2
15198	2.7722	0.90909	5.e-002	-10.916
15199	2.7722	0.63636	0.	-5652.3
15200	2.6797	0.72727	0.	-5669.5
15201	2.7722	0.72727	5.e-002	-10.815
15202	2.7722	0.45455	0.	-5678.8
15203	2.6797	0.54545	0.	-5695.7
15204	2.7722	0.54545	5.e-002	-10.692
15205	2.7722	0.27273	0.	-5708.8
15206	2.6797	0.36364	0.	-5723.7
15207	2.7722	0.36364	5.e-002	-10.886
15208	2.6797	0.18182	0.	-5757.8
15209	2.7722	0.18182	5.e-002	-18.788
15210	2.7722	9.0909e-002	0.	-5723.6
15211	2.5873	5.7273	0.	-5772.8
15212	2.4949	5.8182	0.	-5821.9
15213	2.5873	5.8182	5.e-002	-20.058
15214	2.5873	5.9091	0.	-5786.7
15215	2.5873	5.5455	0.	-5740.7
15216	2.4949	5.6364	0.	-5785.
15217	2.5873	5.6364	5.e-002	-11.387
15218	2.5873	5.3636	0.	-5713.1
15219	2.4949	5.4545	0.	-5755.7
15220	2.5873	5.4545	5.e-002	-11.231
15221	2.5873	5.1818	0.	-5687.5
15222	2.4949	5.2727	0.	-5728.7
15223	2.5873	5.2727	5.e-002	-11.391
15224	2.5873	5.	0.	-5664.1
15225	2.4949	5.0909	0.	-5704.2
15226	2.5873	5.0909	5.e-002	-11.517
15227	2.5873	4.8182	0.	-5643.3
15228	2.4949	4.9091	0.	-5682.3
15229	2.5873	4.9091	5.e-002	-11.589
15230	2.5873	4.6364	0.	-5625.
15231	2.4949	4.7273	0.	-5663.3
15232	2.5873	4.7273	5.e-002	-11.618
15233	2.5873	4.4545	0.	-5609.3
15234	2.4949	4.5455	0.	-5647.1
15235	2.5873	4.5455	5.e-002	-11.619
15236	2.5873	4.2727	0.	-5596.2
15237	2.4949	4.3636	0.	-5633.7
15238	2.5873	4.3636	5.e-002	-11.605
15239	2.5873	4.0909	0.	-5585.4
15240	2.4949	4.1818	0.	-5622.9
15241	2.5873	4.1818	5.e-002	-11.587
15242	2.5873	3.9091	0.	-5576.9
15243	2.4949	4.	0.	-5614.4
15244	2.5873	4.	5.e-002	-11.572
15245	2.5873	3.7273	0.	-5570.4
15246	2.4949	3.8182	0.	-5607.9
15247	2.5873	3.8182	5.e-002	-11.563
15248	2.5873	3.5455	0.	-5565.6
15249	2.4949	3.6364	0.	-5603.2
15250	2.5873	3.6364	5.e-002	-11.559
15251	2.5873	3.3636	0.	-5562.3
15252	2.4949	3.4545	0.	-5600.
15253	2.5873	3.4545	5.e-002	-11.56
15254	2.5873	3.1818	0.	-5560.5
15255	2.4949	3.2727	0.	-5597.9
15256	2.5873	3.2727	5.e-002	-11.562
15257	2.5873	3.	0.	-5559.8
15258	2.4949	3.0909	0.	-5597.
15259	2.5873	3.0909	5.e-002	-11.564
15260	2.5873	2.8182	0.	-5560.5
15261	2.4949	2.9091	0.	-5597.
15262	2.5873	2.9091	5.e-002	-11.564
15263	2.5873	2.6364	0.	-5562.3
15264	2.4949	2.7273	0.	-5597.9
15265	2.5873	2.7273	5.e-002	-11.562
15266	2.5873	2.4545	0.	-5565.6
15267	2.4949	2.5455	0.	-5600.
15268	2.5873	2.5455	5.e-002	-11.56
15269	2.5873	2.2727	0.	-5570.4
15270	2.4949	2.3636	0.	-5603.2
15271	2.5873	2.3636	5.e-002	-11.559
15272	2.5873	2.0909	0.	-5576.9
15273	2.4949	2.1818	0.	-5607.9
15274	2.5873	2.1818	5.e-002	-11.563
15275	2.5873	1.9091	0.	-5585.4
15276	2.4949	2.	0.	-5614.4
15277	2.5873	2.	5.e-002	-11.572
15278	2.5873	1.7273	0.	-5596.2
15279	2.4949	1.8182	0.	-5622.9
15280	2.5873	1.8182	5.e-002	-11.587
15281	2.5873	1.5455	0.	-5609.3
15282	2.4949	1.6364	0.	-5633.7
15283	2.5873	1.6364	5.e-002	-11.605
15284	2.5873	1.3636	0.	-5625.
15285	2.4949	1.4545	0.	-5647.1
15286	2.5873	1.4545	5.e-002	-11.619
15287	2.5873	1.1818	0.	-5643.3
15288	2.4949	1.2727	0.	-5663.3
15289	2.5873	1.2727	5.e-002	-11.618
15290	2.5873	1.	0.	-5664.1
15291	2.4949	1.0909	0.	-5682.3
15292	2.5873	1.0909	5.e-002	-11.589
15293	2.5873	0.81818	0.	-5687.5
15294	2.4949	0.90909	0.	-5704.2
15295	2.5873	0.90909	5.e-002	-11.517
15296	2.5873	0.63636	0.	-5713.1
15297	2.4949	0.72727	0.	-5728.7
15298	2.5873	0.72727	5.e-002	-11.391
15299	2.5873	0.45455	0.	-5740.7
15300	2.4949	0.54545	0.	-5755.7
15301	2.5873	0.54545	5.e-002	-11.231
15302	2.5873	0.27273	0.	-5772.8
15303	2.4949	0.36364	0.	-5785.
15304	2.5873	0.36364	5.e-002	-11.387
15305	2.4949	0.18182	0.	-5821.9
15306	2.5873	0.18182	5.e-002	-20.058
15307	2.5873	9.0909e-002	0.	-5786.7
15308	2.4025	5.7273	0.	-5834.4
15309	2.3101	5.8182	0.	-5883.2
15310	2.4025	5.8182	5.e-002	-21.36
15311	2.4025	5.9091	0.	-5846.9
15312	2.4025	5.5455	0.	-5800.2
15313	2.3101	5.6364	0.	-5843.3
15314	2.4025	5.6364	5.e-002	-11.949
15315	2.4025	5.3636	0.	-5771.6
15316	2.3101	5.4545	0.	-5812.8
15317	2.4025	5.4545	5.e-002	-11.856
15318	2.4025	5.1818	0.	-5745.6
15319	2.3101	5.2727	0.	-5785.4
15320	2.4025	5.2727	5.e-002	-12.061
15321	2.4025	5.	0.	-5722.5
15322	2.3101	5.0909	0.	-5761.1
15323	2.4025	5.0909	5.e-002	-12.213
15324	2.4025	4.8182	0.	-5702.5
15325	2.3101	4.9091	0.	-5740.1
15326	2.4025	4.9091	5.e-002	-12.295
15327	2.4025	4.6364	0.	-5685.5
15328	2.3101	4.7273	0.	-5722.6
15329	2.4025	4.7273	5.e-002	-12.326
15330	2.4025	4.4545	0.	-5671.5
15331	2.3101	4.5455	0.	-5708.4
15332	2.4025	4.5455	5.e-002	-12.328
15333	2.4025	4.2727	0.	-5660.3
15334	2.3101	4.3636	0.	-5697.4
15335	2.4025	4.3636	5.e-002	-12.317
15336	2.4025	4.0909	0.	-5651.6
15337	2.3101	4.1818	0.	-5689.1
15338	2.4025	4.1818	5.e-002	-12.307
15339	2.4025	3.9091	0.	-5645.2
15340	2.3101	4.	0.	-5683.2
15341	2.4025	4.	5.e-002	-12.304
15342	2.4025	3.7273	0.	-5640.5
15343	2.3101	3.8182	0.	-5679.2
15344	2.4025	3.8182	5.e-002	-12.31
15345	2.4025	3.5455	0.	-5637.4
15346	2.3101	3.6364	0.	-5676.7
15347	2.4025	3.6364	5.e-002	-12.321
15348	2.4025	3.3636	0.	-5635.3
15349	2.3101	3.4545	0.	-5675.1
15350	2.4025	3.4545	5.e-002	-12.335
15351	2.4025	3.1818	0.	-5634.2
15352	2.3101	3.2727	0.	-5674.3
15353	2.4025	3.2727	5.e-002	-12.347
15354	2.4025	3.	0.	-5633.8
15355	2.3101	3.0909	0.	-5673.9
15356	2.4025	3.0909	5.e-002	-12.354
15357	2.4025	2.8182	0.	-5634.2
15358	2.3101	2.9091	0.	-5673.9
15359	2.4025	2.9091	5.e-002	-12.354
15360	2.4025	2.6364	0.	-5635.3
15361	2.3101	2.7273	0.	-5674.3
15362	2.4025	2.7273	5.e-002	-12.347
15363	2.4025	2.4545	0.	-5637.4
15364	2.3101	2.5455	0.	-5675.1
15365	2.4025	2.5455	5.e-002	-12.335
15366	2.4025	2.2727	0.	-5640.5
15367	2.3101	2.3636	0.	-5676.7
15368	2.4025	2.3636	5.e-002	-12.321
15369	2.4025	2.0909	0.	-5645.2
15370	2.3101	2.1818	0.	-5679.2
15371	2.4025	2.1818	5.e-002	-12.31
15372	2.4025	1.9091	0.	-5651.6
15373	2.3101	2.	0.	-5683.2
15374	2.4025	2.	5.e-002	-12.304
15375	2.4025	1.7273	0.	-5660.3
15376	2.3101	1.8182	0.	-5689.1
15377	2.4025	1.8182	5.e-002	-12.307
15378	2.4025	1.5455	0.	-5671.5
15379	2.3101	1.6364	0.	-5697.4
15380	2.4025	1.6364	5.e-002	-12.317
15381	2.4025	1.3636	0.	-5685.5
15382	2.3101	1.4545	0.	-5708.4
15383	2.4025	1.4545	5.e-002	-12.328
15384	2.4025	1.1818	0.	-5702.5
15385	2.3101	1.2727	0.	-5722.6
15386	2.4025	1.2727	5.e-002	-12.326
15387	2.4025	1.	0.	-5722.5
15388	2.3101	1.0909	0.	-5740.1
15389	2.4025	1.0909	5.e-002	-12.295
15390	2.4025	0.81818	0.	-5745.6
15391	2.3101	0.90909	0.	-5761.1
15392	2.4025	0.90909	5.e-002	-12.212
15393	2.4025	0.63636	0.	-5771.6
15394	2.3101	0.72727	0.	-5785.4
15395	2.4025	0.72727	5.e-002	-12.061
15396	2.4025	0.45455	0.	-5800.2
15397	2.3101	0.54545	0.	-5812.8
15398	2.4025	0.54545	5.e-002	-11.856
15399	2.4025	0.27273	0.	-5834.4
15400	2.3101	0.36364	0.	-5843.3
15401	2.4025	0.36364	5.e-002	-11.949
15402	2.3101	0.18182	0.	-5883.2
15403	2.4025	0.18182	5.e-002	-21.36
15404	2.4025	9.0909e-002	0.	-5846.9
15405	2.2177	5.7273	0.	-5892.4
15406	2.1253	5.8182	0.	-5940.2
15407	2.2177	5.8182	5.e-002	-22.677
15408	2.2177	5.9091	0.	-5903.
15409	2.2177	5.5455	0.	-5856.1
15410	2.1253	5.6364	0.	-5897.1
15411	2.2177	5.6364	5.e-002	-12.595
15412	2.2177	5.3636	0.	-5826.8
15413	2.1253	5.4545	0.	-5865.7
15414	2.2177	5.4545	5.e-002	-12.598
15415	2.2177	5.1818	0.	-5801.
15416	2.1253	5.2727	0.	-5838.3
15417	2.2177	5.2727	5.e-002	-12.853
15418	2.2177	5.	0.	-5778.8
15419	2.1253	5.0909	0.	-5815.
15420	2.2177	5.0909	5.e-002	-13.027
15421	2.2177	4.8182	0.	-5760.4
15422	2.1253	4.9091	0.	-5795.9
15423	2.2177	4.9091	5.e-002	-13.113
15424	2.2177	4.6364	0.	-5745.6
15425	2.1253	4.7273	0.	-5781.
15426	2.2177	4.7273	5.e-002	-13.14
15427	2.2177	4.4545	0.	-5734.3
15428	2.1253	4.5455	0.	-5770.
15429	2.2177	4.5455	5.e-002	-13.138
15430	2.2177	4.2727	0.	-5726.2
15431	2.1253	4.3636	0.	-5762.6
15432	2.2177	4.3636	5.e-002	-13.13
15433	2.2177	4.0909	0.	-5720.6
15434	2.1253	4.1818	0.	-5758.1
15435	2.2177	4.1818	5.e-002	-13.129
15436	2.2177	3.9091	0.	-5717.1
15437	2.1253	4.	0.	-5755.8
15438	2.2177	4.	5.e-002	-13.142
15439	2.2177	3.7273	0.	-5715.1
15440	2.1253	3.8182	0.	-5755.2
15441	2.2177	3.8182	5.e-002	-13.166
15442	2.2177	3.5455	0.	-5714.2
15443	2.1253	3.6364	0.	-5755.5
15444	2.2177	3.6364	5.e-002	-13.196
15445	2.2177	3.3636	0.	-5713.8
15446	2.1253	3.4545	0.	-5756.3
15447	2.2177	3.4545	5.e-002	-13.227
15448	2.2177	3.1818	0.	-5713.8
15449	2.1253	3.2727	0.	-5757.1
15450	2.2177	3.2727	5.e-002	-13.251
15451	2.2177	3.	0.	-5713.8
15452	2.1253	3.0909	0.	-5757.5
15453	2.2177	3.0909	5.e-002	-13.264
15454	2.2177	2.8182	0.	-5713.8
15455	2.1253	2.9091	0.	-5757.5
15456	2.2177	2.9091	5.e-002	-13.264
15457	2.2177	2.6364	0.	-5713.8
15458	2.1253	2.7273	0.	-5757.1
15459	2.2177	2.7273	5.e-002	-13.251
15460	2.2177	2.4545	0.	-5714.2
15461	2.1253	2.5455	0.	-5756.3
15462	2.2177	2.5455	5.e-002	-13.227
15463	2.2177	2.2727	0.	-5715.1
15464	2.1253	2.3636	0.	-5755.5
15465	2.2177	2.3636	5.e-002	-13.196
15466	2.2177	2.0909	0.	-5717.1
15467	2.1253	2.1818	0.	-5755.2
15468	2.2177	2.1818	5.e-002	-13.166
15469	2.2177	1.9091	0.	-5720.6
15470	2.1253	2.	0.	-5755.8
15471	2.2177	2.	5.e-002	-13.142
15472	2.2177	1.7273	0.	-5726.2
15473	2.1253	1.8182	0.	-5758.1
15474	2.2177	1.8182	5.e-002	-13.129
15475	2.2177	1.5455	0.	-5734.3
15476	2.1253	1.6364	0.	-5762.6
15477	2.2177	1.6364	5.e-002	-13.13
15478	2.2177	1.3636	0.	-5745.6
15479	2.1253	1.4545	0.	-5770.
15480	2.2177	1.4545	5.e-002	-13.138
15481	2.2177	1.1818	0.	-5760.4
15482	2.1253	1.2727	0.	-5781.
15483	2.2177	1.2727	5.e-002	-13.14
15484	2.2177	1.	0.	-5778.8
15485	2.1253	1.0909	0.	-5795.9
15486	2.2177	1.0909	5.e-002	-13.113
15487	2.2177	0.81818	0.	-5801.
15488	2.1253	0.90909	0.	-5815.
15489	2.2177	0.90909	5.e-002	-13.027
15490	2.2177	0.63636	0.	-5826.8
15491	2.1253	0.72727	0.	-5838.3
15492	2.2177	0.72727	5.e-002	-12.853
15493	2.2177	0.45455	0.	-5856.1
15494	2.1253	0.54545	0.	-5865.7
15495	2.2177	0.54545	5.e-002	-12.598
15496	2.2177	0.27273	0.	-5892.4
15497	2.1253	0.36364	0.	-5897.1
15498	2.2177	0.36364	5.e-002	-12.595
15499	2.1253	0.18182	0.	-5940.2
15500	2.2177	0.18182	5.e-002	-22.676
15501	2.2177	9.0909e-002	0.	-5903.
15502	2.0329	5.7273	0.	-5945.2
15503	1.9405	5.8182	0.	-5991.
15504	2.0329	5.8182	5.e-002	-23.987
15505	2.0329	5.9091	0.	-5953.3
15506	2.0329	5.5455	0.	-5906.9
15507	1.9405	5.6364	0.	-5944.5
15508	2.0329	5.6364	5.e-002	-13.367
15509	2.0329	5.3636	0.	-5877.4
15510	1.9405	5.4545	0.	-5912.6
15511	2.0329	5.4545	5.e-002	-13.503
15512	2.0329	5.1818	0.	-5852.4
15513	1.9405	5.2727	0.	-5886.
15514	2.0329	5.2727	5.e-002	-13.81
15515	2.0329	5.	0.	-5832.2
15516	1.9405	5.0909	0.	-5864.8
15517	2.0329	5.0909	5.e-002	-13.995
15518	2.0329	4.8182	0.	-5816.5
15519	1.9405	4.9091	0.	-5848.8
15520	2.0329	4.9091	5.e-002	-14.07
15521	2.0329	4.6364	0.	-5805.3
15522	1.9405	4.7273	0.	-5838.1
15523	2.0329	4.7273	5.e-002	-14.08
15524	2.0329	4.4545	0.	-5798.2
15525	1.9405	4.5455	0.	-5831.9
15526	2.0329	4.5455	5.e-002	-14.067
15527	2.0329	4.2727	0.	-5794.3
15528	1.9405	4.3636	0.	-5829.7
15529	2.0329	4.3636	5.e-002	-14.059
15530	2.0329	4.0909	0.	-5793.1
15531	1.9405	4.1818	0.	-5830.4
15532	2.0329	4.1818	5.e-002	-14.07
15533	2.0329	3.9091	0.	-5793.7
15534	1.9405	4.	0.	-5833.2
15535	2.0329	4.	5.e-002	-14.101
15536	2.0329	3.7273	0.	-5795.3
15537	1.9405	3.8182	0.	-5837.
15538	2.0329	3.8182	5.e-002	-14.148
15539	2.0329	3.5455	0.	-5797.4
15540	1.9405	3.6364	0.	-5841.2
15541	2.0329	3.6364	5.e-002	-14.201
15542	2.0329	3.3636	0.	-5799.2
15543	1.9405	3.4545	0.	-5844.9
15544	2.0329	3.4545	5.e-002	-14.25
15545	2.0329	3.1818	0.	-5800.5
15546	1.9405	3.2727	0.	-5847.7
15547	2.0329	3.2727	5.e-002	-14.288
15548	2.0329	3.	0.	-5801.
15549	1.9405	3.0909	0.	-5849.2
15550	2.0329	3.0909	5.e-002	-14.308
15551	2.0329	2.8182	0.	-5800.5
15552	1.9405	2.9091	0.	-5849.2
15553	2.0329	2.9091	5.e-002	-14.308
15554	2.0329	2.6364	0.	-5799.2
15555	1.9405	2.7273	0.	-5847.7
15556	2.0329	2.7273	5.e-002	-14.288
15557	2.0329	2.4545	0.	-5797.4
15558	1.9405	2.5455	0.	-5844.9
15559	2.0329	2.5455	5.e-002	-14.25
15560	2.0329	2.2727	0.	-5795.3
15561	1.9405	2.3636	0.	-5841.2
15562	2.0329	2.3636	5.e-002	-14.201
15563	2.0329	2.0909	0.	-5793.7
15564	1.9405	2.1818	0.	-5837.
15565	2.0329	2.1818	5.e-002	-14.148
15566	2.0329	1.9091	0.	-5793.1
15567	1.9405	2.	0.	-5833.2
15568	2.0329	2.	5.e-002	-14.101
15569	2.0329	1.7273	0.	-5794.3
15570	1.9405	1.8182	0.	-5830.4
15571	2.0329	1.8182	5.e-002	-14.07
15572	2.0329	1.5455	0.	-5798.2
15573	1.9405	1.6364	0.	-5829.7
15574	2.0329	1.6364	5.e-002	-14.059
15575	2.0329	1.3636	0.	-5805.3
15576	1.9405	1.4545	0.	-5831.9
15577	2.0329	1.4545	5.e-002	-14.067
15578	2.0329	1.1818	0.	-5816.5
15579	1.9405	1.2727	0.	-5838.1
15580	2.0329	1.2727	5.e-002	-14.08
15581	2.0329	1.	0.	-5832.2
15582	1.9405	1.0909	0.	-5848.8
15583	2.0329	1.0909	5.e-002	-14.07
15584	2.0329	0.81818	0.	-5852.4
15585	1.9405	0.90909	0.	-5864.8
15586	2.0329	0.90909	5.e-002	-13.995
15587	2.0329	0.63636	0.	-5877.4
15588	1.9405	0.72727	0.	-5886.
15589	2.0329	0.72727	5.e-002	-13.81
15590	2.0329	0.45455	0.	-5906.9
15591	1.9405	0.54545	0.	-5912.6
15592	2.0329	0.54545	5.e-002	-13.503
15593	2.0329	0.27273	0.	-5945.2
15594	1.9405	0.36364	0.	-5944.5
15595	2.0329	0.36364	5.e-002	-13.367
15596	1.9405	0.18182	0.	-5991.
15597	2.0329	0.18182	5.e-002	-23.987
15598	2.0329	9.0909e-002	0.	-5953.3
15599	1.8481	5.7273	0.	-5990.6
15600	1.7557	5.8182	0.	-6033.
15601	1.8481	5.8182	5.e-002	-25.26
15602	1.8481	5.9091	0.	-5995.4
15603	1.8481	5.5455	0.	-5950.5
15604	1.7557	5.6364	0.	-5983.
15605	1.8481	5.6364	5.e-002	-14.331
15606	1.8481	5.3636	0.	-5921.5
15607	1.7557	5.4545	0.	-5951.2
15608	1.8481	5.4545	5.e-002	-14.642
15609	1.8481	5.1818	0.	-5898.5
15610	1.7557	5.2727	0.	-5926.6
15611	1.8481	5.2727	5.e-002	-14.99
15612	1.8481	5.	0.	-5881.5
15613	1.7557	5.0909	0.	-5909.
15614	1.8481	5.0909	5.e-002	-15.162
15615	1.8481	4.8182	0.	-5870.4
15616	1.7557	4.9091	0.	-5898.2
15617	1.8481	4.9091	5.e-002	-15.2
15618	1.8481	4.6364	0.	-5864.6
15619	1.7557	4.7273	0.	-5893.7
15620	1.8481	4.7273	5.e-002	-15.173
15621	1.8481	4.4545	0.	-5863.3
15622	1.7557	4.5455	0.	-5894.5
15623	1.8481	4.5455	5.e-002	-15.138
15624	1.8481	4.2727	0.	-5865.5
15625	1.7557	4.3636	0.	-5899.5
15626	1.8481	4.3636	5.e-002	-15.126
15627	1.8481	4.0909	0.	-5870.2
15628	1.7557	4.1818	0.	-5907.3
15629	1.8481	4.1818	5.e-002	-15.15
15630	1.8481	3.9091	0.	-5876.2
15631	1.7557	4.	0.	-5916.6
15632	1.8481	4.	5.e-002	-15.204
15633	1.8481	3.7273	0.	-5882.6
15634	1.7557	3.8182	0.	-5926.3
15635	1.8481	3.8182	5.e-002	-15.276
15636	1.8481	3.5455	0.	-5888.5
15637	1.7557	3.6364	0.	-5935.3
15638	1.8481	3.6364	5.e-002	-15.353
15639	1.8481	3.3636	0.	-5893.1
15640	1.7557	3.4545	0.	-5942.8
15641	1.8481	3.4545	5.e-002	-15.422
15642	1.8481	3.1818	0.	-5896.1
15643	1.7557	3.2727	0.	-5948.1
15644	1.8481	3.2727	5.e-002	-15.474
15645	1.8481	3.	0.	-5897.2
15646	1.7557	3.0909	0.	-5950.8
15647	1.8481	3.0909	5.e-002	-15.501
15648	1.8481	2.8182	0.	-5896.1
15649	1.7557	2.9091	0.	-5950.8
15650	1.8481	2.9091	5.e-002	-15.501
15651	1.8481	2.6364	0.	-5893.1
15652	1.7557	2.7273	0.	-5948.1
15653	1.8481	2.7273	5.e-002	-15.474
15654	1.8481	2.4545	0.	-5888.5
15655	1.7557	2.5455	0.	-5942.8
15656	1.8481	2.5455	5.e-002	-15.422
15657	1.8481	2.2727	0.	-5882.6
15658	1.7557	2.3636	0.	-5935.3
15659	1.8481	2.3636	5.e-002	-15.353
15660	1.8481	2.0909	0.	-5876.2
15661	1.7557	2.1818	0.	-5926.3
15662	1.8481	2.1818	5.e-002	-15.276
15663	1.8481	1.9091	0.	-5870.2
15664	1.7557	2.	0.	-5916.6
15665	1.8481	2.	5.e-002	-15.204
15666	1.8481	1.7273	0.	-5865.5
15667	1.7557	1.8182	0.	-5907.3
15668	1.8481	1.8182	5.e-002	-15.15
15669	1.8481	1.5455	0.	-5863.3
15670	1.7557	1.6364	0.	-5899.5
15671	1.8481	1.6364	5.e-002	-15.126
15672	1.8481	1.3636	0.	-5864.6
15673	1.7557	1.4545	0.	-5894.5
15674	1.8481	1.4545	5.e-002	-15.138
15675	1.8481	1.1818	0.	-5870.4
15676	1.7557	1.2727	0.	-5893.7
15677	1.8481	1.2727	5.e-002	-15.173
15678	1.8481	1.	0.	-5881.5
15679	1.7557	1.0909	0.	-5898.2
15680	1.8481	1.0909	5.e-002	-15.2
15681	1.8481	0.81818	0.	-5898.5
15682	1.7557	0.90909	0.	-5909.
15683	1.8481	0.90909	5.e-002	-15.162
15684	1.8481	0.63636	0.	-5921.5
15685	1.7557	0.72727	0.	-5926.6
15686	1.8481	0.72727	5.e-002	-14.99
15687	1.8481	0.45455	0.	-5950.5
15688	1.7557	0.54545	0.	-5951.2
15689	1.8481	0.54545	5.e-002	-14.642
15690	1.8481	0.27273	0.	-5990.6
15691	1.7557	0.36364	0.	-5983.
15692	1.8481	0.36364	5.e-002	-14.331
15693	1.7557	0.18182	0.	-6033.
15694	1.8481	0.18182	5.e-002	-25.26
15695	1.8481	9.0909e-002	0.	-5995.4
15696	1.6633	5.7273	0.	-6025.7
15697	1.5709	5.8182	0.	-6062.4
15698	1.6633	5.8182	5.e-002	-26.453
15699	1.6633	5.9091	0.	-6026.1
15700	1.6633	5.5455	0.	-5984.1
15701	1.5709	5.6364	0.	-6008.9
15702	1.6633	5.6364	5.e-002	-15.596
15703	1.6633	5.3636	0.	-5956.7
15704	1.5709	5.4545	0.	-5978.5
15705	1.6633	5.4545	5.e-002	-16.119
15706	1.6633	5.1818	0.	-5937.3
15707	1.5709	5.2727	0.	-5957.7
15708	1.6633	5.2727	5.e-002	-16.477
15709	1.6633	5.	0.	-5925.8
15710	1.5709	5.0909	0.	-5946.1
15711	1.6633	5.0909	5.e-002	-16.588
15712	1.6633	4.8182	0.	-5921.4
15713	1.5709	4.9091	0.	-5943.2
15714	1.6633	4.9091	5.e-002	-16.544
15715	1.6633	4.6364	0.	-5923.4
15716	1.5709	4.7273	0.	-5947.8
15717	1.6633	4.7273	5.e-002	-16.45
15718	1.6633	4.4545	0.	-5930.4
15719	1.5709	4.5455	0.	-5958.5
15720	1.6633	4.5455	5.e-002	-16.378
15721	1.6633	4.2727	0.	-5940.9
15722	1.5709	4.3636	0.	-5973.2
15723	1.6633	4.3636	5.e-002	-16.359
15724	1.6633	4.0909	0.	-5953.4
15725	1.5709	4.1818	0.	-5990.4
15726	1.6633	4.1818	5.e-002	-16.396
15727	1.6633	3.9091	0.	-5966.4
15728	1.5709	4.	0.	-6008.1
15729	1.6633	4.	5.e-002	-16.473
15730	1.6633	3.7273	0.	-5978.7
15731	1.5709	3.8182	0.	-6025.
15732	1.6633	3.8182	5.e-002	-16.571
15733	1.6633	3.5455	0.	-5989.3
15734	1.5709	3.6364	0.	-6039.9
15735	1.6633	3.6364	5.e-002	-16.671
15736	1.6633	3.3636	0.	-5997.4
15737	1.5709	3.4545	0.	-6051.7
15738	1.6633	3.4545	5.e-002	-16.757
15739	1.6633	3.1818	0.	-6002.5
15740	1.5709	3.2727	0.	-6060.
15741	1.6633	3.2727	5.e-002	-16.82
15742	1.6633	3.	0.	-6004.2
15743	1.5709	3.0909	0.	-6064.3
15744	1.6633	3.0909	5.e-002	-16.852
15745	1.6633	2.8182	0.	-6002.5
15746	1.5709	2.9091	0.	-6064.3
15747	1.6633	2.9091	5.e-002	-16.852
15748	1.6633	2.6364	0.	-5997.4
15749	1.5709	2.7273	0.	-6060.
15750	1.6633	2.7273	5.e-002	-16.819
15751	1.6633	2.4545	0.	-5989.3
15752	1.5709	2.5455	0.	-6051.7
15753	1.6633	2.5455	5.e-002	-16.757
15754	1.6633	2.2727	0.	-5978.7
15755	1.5709	2.3636	0.	-6039.9
15756	1.6633	2.3636	5.e-002	-16.671
15757	1.6633	2.0909	0.	-5966.4
15758	1.5709	2.1818	0.	-6025.
15759	1.6633	2.1818	5.e-002	-16.571
15760	1.6633	1.9091	0.	-5953.4
15761	1.5709	2.	0.	-6008.1
15762	1.6633	2.	5.e-002	-16.473
15763	1.6633	1.7273	0.	-5940.9
15764	1.5709	1.8182	0.	-5990.4
15765	1.6633	1.8182	5.e-002	-16.396
15766	1.6633	1.5455	0.	-5930.4
15767	1.5709	1.6364	0.	-5973.2
15768	1.6633	1.6364	5.e-002	-16.359
15769	1.6633	1.3636	0.	-5923.4
15770	1.5709	1.4545	0.	-5958.5
15771	1.6633	1.4545	5.e-002	-16.378
15772	1.6633	1.1818	0.	-5921.4
15773	1.5709	1.2727	0.	-5947.8
15774	1.6633	1.2727	5.e-002	-16.45
15775	1.6633	1.	0.	-5925.8
15776	1.5709	1.0909	0.	-5943.2
15777	1.6633	1.0909	5.e-002	-16.544
15778	1.6633	0.81818	0.	-5937.3
15779	1.5709	0.90909	0.	-5946.1
15780	1.6633	0.90909	5.e-002	-16.588
15781	1.6633	0.63636	0.	-5956.7
15782	1.5709	0.72727	0.	-5957.7
15783	1.6633	0.72727	5.e-002	-16.477
15784	1.6633	0.45455	0.	-5984.1
15785	1.5709	0.54545	0.	-5978.5
15786	1.6633	0.54545	5.e-002	-16.119
15787	1.6633	0.27273	0.	-6025.7
15788	1.5709	0.36364	0.	-6008.9
15789	1.6633	0.36364	5.e-002	-15.596
15790	1.5709	0.18182	0.	-6062.4
15791	1.6633	0.18182	5.e-002	-26.453
15792	1.6633	9.0909e-002	0.	-6026.1
15793	1.4785	5.7273	0.	-6046.
15794	1.3861	5.8182	0.	-6073.8
15795	1.4785	5.8182	5.e-002	-27.515
15796	1.4785	5.9091	0.	-6040.7
15797	1.4785	5.5455	0.	-6003.7
15798	1.3861	5.6364	0.	-6017.1
15799	1.4785	5.6364	5.e-002	-17.343
15800	1.4785	5.3636	0.	-5979.8
15801	1.3861	5.4545	0.	-5990.
15802	1.4785	5.4545	5.e-002	-18.094
15803	1.4785	5.1818	0.	-5966.6
15804	1.3861	5.2727	0.	-5976.
15805	1.4785	5.2727	5.e-002	-18.385
15806	1.4785	5.	0.	-5963.5
15807	1.3861	5.0909	0.	-5974.1
15808	1.4785	5.0909	5.e-002	-18.347
15809	1.4785	4.8182	0.	-5969.4
15810	1.3861	4.9091	0.	-5983.2
15811	1.4785	4.9091	5.e-002	-18.151
15812	1.4785	4.6364	0.	-5982.6
15813	1.3861	4.7273	0.	-6001.1
15814	1.4785	4.7273	5.e-002	-17.95
15815	1.4785	4.4545	0.	-6000.9
15816	1.3861	4.5455	0.	-6025.2
15817	1.4785	4.5455	5.e-002	-17.824
15818	1.4785	4.2727	0.	-6022.3
15819	1.3861	4.3636	0.	-6053.
15820	1.4785	4.3636	5.e-002	-17.794
15821	1.4785	4.0909	0.	-6044.7
15822	1.3861	4.1818	0.	-6081.9
15823	1.4785	4.1818	5.e-002	-17.842
15824	1.4785	3.9091	0.	-6066.4
15825	1.3861	4.	0.	-6110.
15826	1.4785	4.	5.e-002	-17.94
15827	1.4785	3.7273	0.	-6085.8
15828	1.3861	3.8182	0.	-6135.5
15829	1.4785	3.8182	5.e-002	-18.057
15830	1.4785	3.5455	0.	-6102.
15831	1.3861	3.6364	0.	-6157.1
15832	1.4785	3.6364	5.e-002	-18.171
15833	1.4785	3.3636	0.	-6114.1
15834	1.3861	3.4545	0.	-6174.1
15835	1.4785	3.4545	5.e-002	-18.266
15836	1.4785	3.1818	0.	-6121.5
15837	1.3861	3.2727	0.	-6185.7
15838	1.4785	3.2727	5.e-002	-18.334
15839	1.4785	3.	0.	-6124.
15840	1.3861	3.0909	0.	-6191.6
15841	1.4785	3.0909	5.e-002	-18.369
15842	1.4785	2.8182	0.	-6121.5
15843	1.3861	2.9091	0.	-6191.6
15844	1.4785	2.9091	5.e-002	-18.369
15845	1.4785	2.6364	0.	-6114.1
15846	1.3861	2.7273	0.	-6185.7
15847	1.4785	2.7273	5.e-002	-18.334
15848	1.4785	2.4545	0.	-6102.
15849	1.3861	2.5455	0.	-6174.1
15850	1.4785	2.5455	5.e-002	-18.266
15851	1.4785	2.2727	0.	-6085.8
15852	1.3861	2.3636	0.	-6157.1
15853	1.4785	2.3636	5.e-002	-18.171
15854	1.4785	2.0909	0.	-6066.4
15855	1.3861	2.1818	0.	-6135.5
15856	1.4785	2.1818	5.e-002	-18.057
15857	1.4785	1.9091	0.	-6044.7
15858	1.3861	2.	0.	-6110.
15859	1.4785	2.	5.e-002	-17.94
15860	1.4785	1.7273	0.	-6022.3
15861	1.3861	1.8182	0.	-6081.9
15862	1.4785	1.8182	5.e-002	-17.842
15863	1.4785	1.5455	0.	-6000.9
15864	1.3861	1.6364	0.	-6053.
15865	1.4785	1.6364	5.e-002	-17.794
15866	1.4785	1.3636	0.	-5982.6
15867	1.3861	1.4545	0.	-6025.2
15868	1.4785	1.4545	5.e-002	-17.824
15869	1.4785	1.1818	0.	-5969.4
15870	1.3861	1.2727	0.	-6001.1
15871	1.4785	1.2727	5.e-002	-17.95
15872	1.4785	1.	0.	-5963.5
15873	1.3861	1.0909	0.	-5983.2
15874	1.4785	1.0909	5.e-002	-18.151
15875	1.4785	0.81818	0.	-5966.6
15876	1.3861	0.90909	0.	-5974.1
15877	1.4785	0.90909	5.e-002	-18.347
15878	1.4785	0.63636	0.	-5979.8
15879	1.3861	0.72727	0.	-5976.
15880	1.4785	0.72727	5.e-002	-18.385
15881	1.4785	0.45455	0.	-6003.7
15882	1.3861	0.54545	0.	-5990.
15883	1.4785	0.54545	5.e-002	-18.094
15884	1.4785	0.27273	0.	-6046.
15885	1.3861	0.36364	0.	-6017.1
15886	1.4785	0.36364	5.e-002	-17.343
15887	1.3861	0.18182	0.	-6073.8
15888	1.4785	0.18182	5.e-002	-27.515
15889	1.4785	9.0909e-002	0.	-6040.7
15890	1.2937	5.7273	0.	-6045.3
15891	1.2013	5.8182	0.	-6058.8
15892	1.2937	5.8182	5.e-002	-28.387
15893	1.2937	5.9091	0.	-6032.3
15894	1.2937	5.5455	0.	-6003.8
15895	1.2013	5.6364	0.	-6000.2
15896	1.2937	5.6364	5.e-002	-19.867
15897	1.2937	5.3636	0.	-5986.4
15898	1.2013	5.4545	0.	-5979.8
15899	1.2937	5.4545	5.e-002	-20.794
15900	1.2937	5.1818	0.	-5983.5
15901	1.2013	5.2727	0.	-5977.6
15902	1.2937	5.2727	5.e-002	-20.861
15903	1.2937	5.	0.	-5993.6
15904	1.2013	5.0909	0.	-5991.4
15905	1.2937	5.0909	5.e-002	-20.522
15906	1.2937	4.8182	0.	-6014.5
15907	1.2013	4.9091	0.	-6018.5
15908	1.2937	4.9091	5.e-002	-20.075
15909	1.2937	4.6364	0.	-6043.3
15910	1.2013	4.7273	0.	-6055.3
15911	1.2937	4.7273	5.e-002	-19.718
15912	1.2937	4.4545	0.	-6076.9
15913	1.2013	4.5455	0.	-6097.6
15914	1.2937	4.5455	5.e-002	-19.523
15915	1.2937	4.2727	0.	-6112.2
15916	1.2013	4.3636	0.	-6142.
15917	1.2937	4.3636	5.e-002	-19.475
15918	1.2937	4.0909	0.	-6146.8
15919	1.2013	4.1818	0.	-6185.4
15920	1.2937	4.1818	5.e-002	-19.528
15921	1.2937	3.9091	0.	-6178.8
15922	1.2013	4.	0.	-6225.5
15923	1.2937	4.	5.e-002	-19.632
15924	1.2937	3.7273	0.	-6206.5
15925	1.2013	3.8182	0.	-6260.8
15926	1.2937	3.8182	5.e-002	-19.751
15927	1.2937	3.5455	0.	-6228.9
15928	1.2013	3.6364	0.	-6289.9
15929	1.2937	3.6364	5.e-002	-19.862
15930	1.2937	3.3636	0.	-6245.4
15931	1.2013	3.4545	0.	-6312.3
15932	1.2937	3.4545	5.e-002	-19.951
15933	1.2937	3.1818	0.	-6255.5
15934	1.2013	3.2727	0.	-6327.5
15935	1.2937	3.2727	5.e-002	-20.013
15936	1.2937	3.	0.	-6258.9
15937	1.2013	3.0909	0.	-6335.1
15938	1.2937	3.0909	5.e-002	-20.044
15939	1.2937	2.8182	0.	-6255.5
15940	1.2013	2.9091	0.	-6335.1
15941	1.2937	2.9091	5.e-002	-20.044
15942	1.2937	2.6364	0.	-6245.4
15943	1.2013	2.7273	0.	-6327.5
15944	1.2937	2.7273	5.e-002	-20.013
15945	1.2937	2.4545	0.	-6228.9
15946	1.2013	2.5455	0.	-6312.3
15947	1.2937	2.5455	5.e-002	-19.951
15948	1.2937	2.2727	0.	-6206.5
15949	1.2013	2.3636	0.	-6289.9
15950	1.2937	2.3636	5.e-002	-19.862
15951	1.2937	2.0909	0.	-6178.8
15952	1.2013	2.1818	0.	-6260.8
15953	1.2937	2.1818	5.e-002	-19.751
15954	1.2937	1.9091	0.	-6146.8
15955	1.2013	2.	0.	-6225.5
15956	1.2937	2.	5.e-002	-19.632
15957	1.2937	1.7273	0.	-6112.2
15958	1.2013	1.8182	0.	-6185.4
15959	1.2937	1.8182	5.e-002	-19.528
15960	1.2937	1.5455	0.	-6076.9
15961	1.2013	1.6364	0.	-6142.
15962	1.2937	1.6364	5.e-002	-19.475
15963	1.2937	1.3636	0.	-6043.3
15964	1.2013	1.4545	0.	-6097.6
15965	1.2937	1.4545	5.e-002	-19.523
15966	1.2937	1.1818	0.	-6014.5
15967	1.2013	1.2727	0.	-6055.3
15968	1.2937	1.2727	5.e-002	-19.718
15969	1.2937	1.	0.	-5993.6
15970	1.2013	1.0909	0.	-6018.5
15971	1.2937	1.0909	5.e-002	-20.075
15972	1.2937	0.81818	0.	-5983.5
15973	1.2013	0.90909	0.	-5991.4
15974	1.2937	0.90909	5.e-002	-20.522
15975	1.2937	0.63636	0.	-5986.4
15976	1.2013	0.72727	0.	-5977.6
15977	1.2937	0.72727	5.e-002	-20.861
15978	1.2937	0.45455	0.	-6003.8
15979	1.2013	0.54545	0.	-5979.8
15980	1.2937	0.54545	5.e-002	-20.794
15981	1.2937	0.27273	0.	-6045.3
15982	1.2013	0.36364	0.	-6000.2
15983	1.2937	0.36364	5.e-002	-19.867
15984	1.2013	0.18182	0.	-6058.8
15985	1.2937	0.18182	5.e-002	-28.387
15986	1.2937	9.0909e-002	0.	-6032.3
15987	1.1089	5.7273	0.	-6014.2
15988	1.0165	5.8182	0.	-6004.4
15989	1.1089	5.8182	5.e-002	-29.079
15990	1.1089	5.9091	0.	-5990.5
15991	1.1089	5.5455	0.	-5976.7
15992	1.0165	5.6364	0.	-5946.7
15993	1.1089	5.6364	5.e-002	-23.662
15994	1.1089	5.3636	0.	-5971.2
15995	1.0165	5.4545	0.	-5939.6
15996	1.1089	5.4545	5.e-002	-24.554
15997	1.1089	5.1818	0.	-5985.3
15998	1.0165	5.2727	0.	-5957.8
15999	1.1089	5.2727	5.e-002	-24.088
16000	1.1089	5.	0.	-6015.9
16001	1.0165	5.0909	0.	-5996.8
16002	1.1089	5.0909	5.e-002	-23.209
16003	1.1089	4.8182	0.	-6058.7
16004	1.0165	4.9091	0.	-6050.9
16005	1.1089	4.9091	5.e-002	-22.387
16006	1.1089	4.6364	0.	-6109.
16007	1.0165	4.7273	0.	-6113.9
16008	1.1089	4.7273	5.e-002	-21.834
16009	1.1089	4.4545	0.	-6162.3
16010	1.0165	4.5455	0.	-6180.
16011	1.1089	4.5455	5.e-002	-21.559
16012	1.1089	4.2727	0.	-6214.8
16013	1.0165	4.3636	0.	-6244.7
16014	1.1089	4.3636	5.e-002	-21.482
16015	1.1089	4.0909	0.	-6263.7
16016	1.0165	4.1818	0.	-6304.8
16017	1.1089	4.1818	5.e-002	-21.516
16018	1.1089	3.9091	0.	-6307.2
16019	1.0165	4.	0.	-6358.3
16020	1.1089	4.	5.e-002	-21.597
16021	1.1089	3.7273	0.	-6343.9
16022	1.0165	3.8182	0.	-6403.8
16023	1.1089	3.8182	5.e-002	-21.685
16024	1.1089	3.5455	0.	-6373.1
16025	1.0165	3.6364	0.	-6440.7
16026	1.1089	3.6364	5.e-002	-21.764
16027	1.1089	3.3636	0.	-6394.1
16028	1.0165	3.4545	0.	-6468.5
16029	1.1089	3.4545	5.e-002	-21.824
16030	1.1089	3.1818	0.	-6406.9
16031	1.0165	3.2727	0.	-6487.1
16032	1.1089	3.2727	5.e-002	-21.864
16033	1.1089	3.	0.	-6411.1
16034	1.0165	3.0909	0.	-6496.4
16035	1.1089	3.0909	5.e-002	-21.883
16036	1.1089	2.8182	0.	-6406.9
16037	1.0165	2.9091	0.	-6496.4
16038	1.1089	2.9091	5.e-002	-21.883
16039	1.1089	2.6364	0.	-6394.1
16040	1.0165	2.7273	0.	-6487.1
16041	1.1089	2.7273	5.e-002	-21.864
16042	1.1089	2.4545	0.	-6373.1
16043	1.0165	2.5455	0.	-6468.5
16044	1.1089	2.5455	5.e-002	-21.824
16045	1.1089	2.2727	0.	-6343.9
16046	1.0165	2.3636	0.	-6440.7
16047	1.1089	2.3636	5.e-002	-21.764
16048	1.1089	2.0909	0.	-6307.2
16049	1.0165	2.1818	0.	-6403.8
16050	1.1089	2.1818	5.e-002	-21.685
16051	1.1089	1.9091	0.	-6263.7
16052	1.0165	2.	0.	-6358.3
16053	1.1089	2.	5.e-002	-21.597
16054	1.1089	1.7273	0.	-6214.8
16055	1.0165	1.8182	0.	-6304.8
16056	1.1089	1.8182	5.e-002	-21.516
16057	1.1089	1.5455	0.	-6162.3
16058	1.0165	1.6364	0.	-6244.7
16059	1.1089	1.6364	5.e-002	-21.482
16060	1.1089	1.3636	0.	-6109.
16061	1.0165	1.4545	0.	-6180.
16062	1.1089	1.4545	5.e-002	-21.559
16063	1.1089	1.1818	0.	-6058.7
16064	1.0165	1.2727	0.	-6113.9
16065	1.1089	1.2727	5.e-002	-21.834
16066	1.1089	1.	0.	-6015.9
16067	1.0165	1.0909	0.	-6050.9
16068	1.1089	1.0909	5.e-002	-22.387
16069	1.1089	0.81818	0.	-5985.3
16070	1.0165	0.90909	0.	-5996.8
16071	1.1089	0.90909	5.e-002	-23.209
16072	1.1089	0.63636	0.	-5971.2
16073	1.0165	0.72727	0.	-5957.8
16074	1.1089	0.72727	5.e-002	-24.088
16075	1.1089	0.45455	0.	-5976.7
16076	1.0165	0.54545	0.	-5939.6
16077	1.1089	0.54545	5.e-002	-24.554
16078	1.1089	0.27273	0.	-6014.2
16079	1.0165	0.36364	0.	-5946.7
16080	1.1089	0.36364	5.e-002	-23.662
16081	1.0165	0.18182	0.	-6004.4
16082	1.1089	0.18182	5.e-002	-29.079
16083	1.1089	9.0909e-002	0.	-5990.5
16084	0.92405	5.7273	0.	-5937.4
16085	0.83165	5.8182	0.	-5889.4
16086	0.92405	5.8182	5.e-002	-29.787
16087	0.92405	5.9091	0.	-5898.3
16088	0.92405	5.5455	0.	-5910.
16089	0.83165	5.6364	0.	-5840.1
16090	0.92405	5.6364	5.e-002	-29.51
16091	0.92405	5.3636	0.	-5926.1
16092	0.83165	5.4545	0.	-5859.6
16093	0.92405	5.4545	5.e-002	-29.828
16094	0.92405	5.1818	0.	-5968.8
16095	0.83165	5.2727	0.	-5914.5
16096	0.92405	5.2727	5.e-002	-28.244
16097	0.92405	5.	0.	-6031.1
16098	0.83165	5.0909	0.	-5994.3
16099	0.92405	5.0909	5.e-002	-26.472
16100	0.92405	4.8182	0.	-6105.4
16101	0.83165	4.9091	0.	-6088.2
16102	0.92405	4.9091	5.e-002	-25.146
16103	0.92405	4.6364	0.	-6184.2
16104	0.83165	4.7273	0.	-6186.3
16105	0.92405	4.7273	5.e-002	-24.366
16106	0.92405	4.4545	0.	-6261.9
16107	0.83165	4.5455	0.	-6281.6
16108	0.92405	4.5455	5.e-002	-23.99
16109	0.92405	4.2727	0.	-6334.3
16110	0.83165	4.3636	0.	-6369.5
16111	0.92405	4.3636	5.e-002	-23.842
16112	0.92405	4.0909	0.	-6399.
16113	0.83165	4.1818	0.	-6447.6
16114	0.92405	4.1818	5.e-002	-23.8
16115	0.92405	3.9091	0.	-6454.6
16116	0.83165	4.	0.	-6514.6
16117	0.92405	4.	5.e-002	-23.796
16118	0.92405	3.7273	0.	-6500.4
16119	0.83165	3.8182	0.	-6570.
16120	0.92405	3.8182	5.e-002	-23.8
16121	0.92405	3.5455	0.	-6536.
16122	0.83165	3.6364	0.	-6614.1
16123	0.92405	3.6364	5.e-002	-23.801
16124	0.92405	3.3636	0.	-6561.3
16125	0.83165	3.4545	0.	-6646.8
16126	0.92405	3.4545	5.e-002	-23.798
16127	0.92405	3.1818	0.	-6576.6
16128	0.83165	3.2727	0.	-6668.4
16129	0.92405	3.2727	5.e-002	-23.794
16130	0.92405	3.	0.	-6581.6
16131	0.83165	3.0909	0.	-6679.2
16132	0.92405	3.0909	5.e-002	-23.791
16133	0.92405	2.8182	0.	-6576.6
16134	0.83165	2.9091	0.	-6679.2
16135	0.92405	2.9091	5.e-002	-23.791
16136	0.92405	2.6364	0.	-6561.3
16137	0.83165	2.7273	0.	-6668.4
16138	0.92405	2.7273	5.e-002	-23.794
16139	0.92405	2.4545	0.	-6536.
16140	0.83165	2.5455	0.	-6646.8
16141	0.92405	2.5455	5.e-002	-23.798
16142	0.92405	2.2727	0.	-6500.4
16143	0.83165	2.3636	0.	-6614.1
16144	0.92405	2.3636	5.e-002	-23.801
16145	0.92405	2.0909	0.	-6454.6
16146	0.83165	2.1818	0.	-6570.
16147	0.92405	2.1818	5.e-002	-23.8
16148	0.92405	1.9091	0.	-6399.
16149	0.83165	2.	0.	-6514.6
16150	0.92405	2.	5.e-002	-23.796
16151	0.92405	1.7273	0.	-6334.3
16152	0.83165	1.8182	0.	-6447.6
16153	0.92405	1.8182	5.e-002	-23.8
16154	0.92405	1.5455	0.	-6261.9
16155	0.83165	1.6364	0.	-6369.5
16156	0.92405	1.6364	5.e-002	-23.842
16157	0.92405	1.3636	0.	-6184.2
16158	0.83165	1.4545	0.	-6281.6
16159	0.92405	1.4545	5.e-002	-23.99
16160	0.92405	1.1818	0.	-6105.4
16161	0.83165	1.2727	0.	-6186.3
16162	0.92405	1.2727	5.e-002	-24.366
16163	0.92405	1.	0.	-6031.1
16164	0.83165	1.0909	0.	-6088.2
16165	0.92405	1.0909	5.e-002	-25.146
16166	0.92405	0.81818	0.	-5968.8
16167	0.83165	0.90909	0.	-5994.3
16168	0.92405	0.90909	5.e-002	-26.472
16169	0.92405	0.63636	0.	-5926.1
16170	0.83165	0.72727	0.	-5914.5
16171	0.92405	0.72727	5.e-002	-28.244
16172	0.92405	0.45455	0.	-5910.
16173	0.83165	0.54545	0.	-5859.6
16174	0.92405	0.54545	5.e-002	-29.828
16175	0.92405	0.27273	0.	-5937.4
16176	0.83165	0.36364	0.	-5840.1
16177	0.92405	0.36364	5.e-002	-29.51
16178	0.83165	0.18182	0.	-5889.4
16179	0.92405	0.18182	5.e-002	-29.787
16180	0.92405	9.0909e-002	0.	-5898.3
16181	0.73924	5.7273	0.	-5792.7
16182	0.64684	5.8182	0.	-5672.
16183	0.73924	5.8182	5.e-002	-32.067
16184	0.73924	5.9091	0.	-5728.4
16185	0.73924	5.5455	0.	-5789.9
16186	0.64684	5.6364	0.	-5648.4
16187	0.73924	5.6364	5.e-002	-38.782
16188	0.73924	5.3636	0.	-5847.4
16189	0.64684	5.4545	0.	-5722.9
16190	0.73924	5.4545	5.e-002	-37.15
16191	0.73924	5.1818	0.	-5939.
16192	0.64684	5.2727	0.	-5844.2
16193	0.73924	5.2727	5.e-002	-33.484
16194	0.73924	5.	0.	-6050.4
16195	0.64684	5.0909	0.	-5988.9
16196	0.73924	5.0909	5.e-002	-30.499
16197	0.73924	4.8182	0.	-6168.3
16198	0.64684	4.9091	0.	-6138.
16199	0.73924	4.9091	5.e-002	-28.661
16200	0.73924	4.6364	0.	-6283.2
16201	0.64684	4.7273	0.	-6279.7
16202	0.73924	4.7273	5.e-002	-27.677
16203	0.73924	4.4545	0.	-6388.9
16204	0.64684	4.5455	0.	-6407.5
16205	0.73924	4.5455	5.e-002	-27.163
16206	0.73924	4.2727	0.	-6482.6
16207	0.64684	4.3636	0.	-6519.1
16208	0.73924	4.3636	5.e-002	-26.864
16209	0.73924	4.0909	0.	-6562.9
16210	0.64684	4.1818	0.	-6614.
16211	0.73924	4.1818	5.e-002	-26.655
16212	0.73924	3.9091	0.	-6629.9
16213	0.64684	4.	0.	-6692.8
16214	0.73924	4.	5.e-002	-26.483
16215	0.73924	3.7273	0.	-6683.6
16216	0.64684	3.8182	0.	-6756.5
16217	0.73924	3.8182	5.e-002	-26.334
16218	0.73924	3.5455	0.	-6724.8
16219	0.64684	3.6364	0.	-6806.
16220	0.73924	3.6364	5.e-002	-26.206
16221	0.73924	3.3636	0.	-6753.7
16222	0.64684	3.4545	0.	-6842.4
16223	0.73924	3.4545	5.e-002	-26.104
16224	0.73924	3.1818	0.	-6770.9
16225	0.64684	3.2727	0.	-6866.2
16226	0.73924	3.2727	5.e-002	-26.033
16227	0.73924	3.	0.	-6776.7
16228	0.64684	3.0909	0.	-6878.
16229	0.73924	3.0909	5.e-002	-25.997
16230	0.73924	2.8182	0.	-6770.9
16231	0.64684	2.9091	0.	-6878.
16232	0.73924	2.9091	5.e-002	-25.997
16233	0.73924	2.6364	0.	-6753.7
16234	0.64684	2.7273	0.	-6866.2
16235	0.73924	2.7273	5.e-002	-26.033
16236	0.73924	2.4545	0.	-6724.8
16237	0.64684	2.5455	0.	-6842.4
16238	0.73924	2.5455	5.e-002	-26.104
16239	0.73924	2.2727	0.	-6683.6
16240	0.64684	2.3636	0.	-6806.
16241	0.73924	2.3636	5.e-002	-26.206
16242	0.73924	2.0909	0.	-6629.9
16243	0.64684	2.1818	0.	-6756.5
16244	0.73924	2.1818	5.e-002	-26.334
16245	0.73924	1.9091	0.	-6562.9
16246	0.64684	2.	0.	-6692.8
16247	0.73924	2.	5.e-002	-26.483
16248	0.73924	1.7273	0.	-6482.6
16249	0.64684	1.8182	0.	-6614.
16250	0.73924	1.8182	5.e-002	-26.655
16251	0.73924	1.5455	0.	-6388.9
16252	0.64684	1.6364	0.	-6519.1
16253	0.73924	1.6364	5.e-002	-26.864
16254	0.73924	1.3636	0.	-6283.2
16255	0.64684	1.4545	0.	-6407.5
16256	0.73924	1.4545	5.e-002	-27.163
16257	0.73924	1.1818	0.	-6168.3
16258	0.64684	1.2727	0.	-6279.7
16259	0.73924	1.2727	5.e-002	-27.677
16260	0.73924	1.	0.	-6050.4
16261	0.64684	1.0909	0.	-6138.
16262	0.73924	1.0909	5.e-002	-28.661
16263	0.73924	0.81818	0.	-5939.
16264	0.64684	0.90909	0.	-5988.9
16265	0.73924	0.90909	5.e-002	-30.499
16266	0.73924	0.63636	0.	-5847.4
16267	0.64684	0.72727	0.	-5844.2
16268	0.73924	0.72727	5.e-002	-33.484
16269	0.73924	0.45455	0.	-5789.9
16270	0.64684	0.54545	0.	-5722.9
16271	0.73924	0.54545	5.e-002	-37.15
16272	0.73924	0.27273	0.	-5792.7
16273	0.64684	0.36364	0.	-5648.4
16274	0.73924	0.36364	5.e-002	-38.782
16275	0.64684	0.18182	0.	-5672.
16276	0.73924	0.18182	5.e-002	-32.067
16277	0.73924	9.0909e-002	0.	-5728.4
16278	0.55443	5.7273	0.	-5527.8
16279	0.46203	5.8182	0.	-5281.9
16280	0.55443	5.8182	5.e-002	-40.056
16281	0.55443	5.9091	0.	-5421.
16282	0.55443	5.5455	0.	-5580.5
16283	0.46203	5.6364	0.	-5345.4
16284	0.55443	5.6364	5.e-002	-53.8
16285	0.55443	5.3636	0.	-5717.8
16286	0.46203	5.4545	0.	-5547.2
16287	0.55443	5.4545	5.e-002	-46.867
16288	0.55443	5.1818	0.	-5892.4
16289	0.46203	5.2727	0.	-5791.4
16290	0.55443	5.2727	5.e-002	-39.638
16291	0.55443	5.	0.	-6075.6
16292	0.46203	5.0909	0.	-6032.9
16293	0.55443	5.0909	5.e-002	-35.169
16294	0.55443	4.8182	0.	-6249.
16295	0.46203	4.9091	0.	-6251.1
16296	0.55443	4.9091	5.e-002	-32.695
16297	0.55443	4.6364	0.	-6404.
16298	0.46203	4.7273	0.	-6439.4
16299	0.55443	4.7273	5.e-002	-31.297
16300	0.55443	4.4545	0.	-6537.8
16301	0.46203	4.5455	0.	-6598.
16302	0.55443	4.5455	5.e-002	-30.38
16303	0.55443	4.2727	0.	-6650.6
16304	0.46203	4.3636	0.	-6729.5
16305	0.55443	4.3636	5.e-002	-29.683
16306	0.55443	4.0909	0.	-6743.9
16307	0.46203	4.1818	0.	-6837.1
16308	0.55443	4.1818	5.e-002	-29.106
16309	0.55443	3.9091	0.	-6819.4
16310	0.46203	4.	0.	-6923.9
16311	0.55443	4.	5.e-002	-28.616
16312	0.55443	3.7273	0.	-6878.8
16313	0.46203	3.8182	0.	-6992.6
16314	0.55443	3.8182	5.e-002	-28.205
16315	0.55443	3.5455	0.	-6923.6
16316	0.46203	3.6364	0.	-7045.2
16317	0.55443	3.6364	5.e-002	-27.874
16318	0.55443	3.3636	0.	-6954.8
16319	0.46203	3.4545	0.	-7083.3
16320	0.55443	3.4545	5.e-002	-27.623
16321	0.55443	3.1818	0.	-6973.1
16322	0.46203	3.2727	0.	-7108.1
16323	0.55443	3.2727	5.e-002	-27.454
16324	0.55443	3.	0.	-6979.2
16325	0.46203	3.0909	0.	-7120.3
16326	0.55443	3.0909	5.e-002	-27.37
16327	0.55443	2.8182	0.	-6973.1
16328	0.46203	2.9091	0.	-7120.3
16329	0.55443	2.9091	5.e-002	-27.37
16330	0.55443	2.6364	0.	-6954.8
16331	0.46203	2.7273	0.	-7108.1
16332	0.55443	2.7273	5.e-002	-27.454
16333	0.55443	2.4545	0.	-6923.6
16334	0.46203	2.5455	0.	-7083.3
16335	0.55443	2.5455	5.e-002	-27.623
16336	0.55443	2.2727	0.	-6878.8
16337	0.46203	2.3636	0.	-7045.2
16338	0.55443	2.3636	5.e-002	-27.874
16339	0.55443	2.0909	0.	-6819.4
16340	0.46203	2.1818	0.	-6992.6
16341	0.55443	2.1818	5.e-002	-28.205
16342	0.55443	1.9091	0.	-6743.9
16343	0.46203	2.	0.	-6923.9
16344	0.55443	2.	5.e-002	-28.616
16345	0.55443	1.7273	0.	-6650.6
16346	0.46203	1.8182	0.	-6837.1
16347	0.55443	1.8182	5.e-002	-29.106
16348	0.55443	1.5455	0.	-6537.8
16349	0.46203	1.6364	0.	-6729.5
16350	0.55443	1.6364	5.e-002	-29.683
16351	0.55443	1.3636	0.	-6404.
16352	0.46203	1.4545	0.	-6598.
16353	0.55443	1.4545	5.e-002	-30.38
16354	0.55443	1.1818	0.	-6249.
16355	0.46203	1.2727	0.	-6439.4
16356	0.55443	1.2727	5.e-002	-31.297
16357	0.55443	1.	0.	-6075.6
16358	0.46203	1.0909	0.	-6251.1
16359	0.55443	1.0909	5.e-002	-32.695
16360	0.55443	0.81818	0.	-5892.4
16361	0.46203	0.90909	0.	-6032.9
16362	0.55443	0.90909	5.e-002	-35.169
16363	0.55443	0.63636	0.	-5717.8
16364	0.46203	0.72727	0.	-5791.4
16365	0.55443	0.72727	5.e-002	-39.638
16366	0.55443	0.45455	0.	-5580.5
16367	0.46203	0.54545	0.	-5547.2
16368	0.55443	0.54545	5.e-002	-46.867
16369	0.55443	0.27273	0.	-5527.8
16370	0.46203	0.36364	0.	-5345.4
16371	0.55443	0.36364	5.e-002	-53.8
16372	0.46203	0.18182	0.	-5281.9
16373	0.55443	0.18182	5.e-002	-40.056
16374	0.55443	9.0909e-002	0.	-5421.
16375	0.36962	5.7273	0.	-5098.
16376	0.27722	5.8182	0.	-4465.2
16377	0.36962	5.8182	5.e-002	-70.035
16378	0.36962	5.9091	0.	-4881.1
16379	0.36962	5.5455	0.	-5308.3
16380	0.27722	5.6364	0.	-4825.3
16381	0.36962	5.6364	5.e-002	-77.985
16382	0.36962	5.3636	0.	-5617.6
16383	0.27722	5.4545	0.	-5313.6
16384	0.36962	5.4545	5.e-002	-59.412
16385	0.36962	5.1818	0.	-5930.7
16386	0.27722	5.2727	0.	-5742.1
16387	0.36962	5.2727	5.e-002	-48.904
16388	0.36962	5.	0.	-6208.5
16389	0.27722	5.0909	0.	-6092.6
16390	0.36962	5.0909	5.e-002	-43.519
16391	0.36962	4.8182	0.	-6442.1
16392	0.27722	4.9091	0.	-6371.6
16393	0.36962	4.9091	5.e-002	-40.666
16394	0.36962	4.6364	0.	-6634.
16395	0.27722	4.7273	0.	-6593.
16396	0.36962	4.7273	5.e-002	-38.741
16397	0.36962	4.4545	0.	-6790.2
16398	0.27722	4.5455	0.	-6768.8
16399	0.36962	4.5455	5.e-002	-37.249
16400	0.36962	4.2727	0.	-6916.3
16401	0.27722	4.3636	0.	-6908.7
16402	0.36962	4.3636	5.e-002	-36.018
16403	0.36962	4.0909	0.	-7017.3
16404	0.27722	4.1818	0.	-7019.9
16405	0.36962	4.1818	5.e-002	-34.986
16406	0.36962	3.9091	0.	-7097.2
16407	0.27722	4.	0.	-7107.6
16408	0.36962	4.	5.e-002	-34.129
16409	0.36962	3.7273	0.	-7159.
16410	0.27722	3.8182	0.	-7175.7
16411	0.36962	3.8182	5.e-002	-33.431
16412	0.36962	3.5455	0.	-7204.9
16413	0.27722	3.6364	0.	-7227.3
16414	0.36962	3.6364	5.e-002	-32.883
16415	0.36962	3.3636	0.	-7236.6
16416	0.27722	3.4545	0.	-7264.4
16417	0.36962	3.4545	5.e-002	-32.478
16418	0.36962	3.1818	0.	-7255.2
16419	0.27722	3.2727	0.	-7288.3
16420	0.36962	3.2727	5.e-002	-32.211
16421	0.36962	3.	0.	-7261.3
16422	0.27722	3.0909	0.	-7300.1
16423	0.36962	3.0909	5.e-002	-32.078
16424	0.36962	2.8182	0.	-7255.2
16425	0.27722	2.9091	0.	-7300.1
16426	0.36962	2.9091	5.e-002	-32.078
16427	0.36962	2.6364	0.	-7236.6
16428	0.27722	2.7273	0.	-7288.3
16429	0.36962	2.7273	5.e-002	-32.211
16430	0.36962	2.4545	0.	-7204.9
16431	0.27722	2.5455	0.	-7264.4
16432	0.36962	2.5455	5.e-002	-32.478
16433	0.36962	2.2727	0.	-7159.
16434	0.27722	2.3636	0.	-7227.3
16435	0.36962	2.3636	5.e-002	-32.883
16436	0.36962	2.0909	0.	-7097.2
16437	0.27722	2.1818	0.	-7175.7
16438	0.36962	2.1818	5.e-002	-33.431
16439	0.36962	1.9091	0.	-7017.3
16440	0.27722	2.	0.	-7107.6
16441	0.36962	2.	5.e-002	-34.129
16442	0.36962	1.7273	0.	-6916.3
16443	0.27722	1.8182	0.	-7019.9
16444	0.36962	1.8182	5.e-002	-34.986
16445	0.36962	1.5455	0.	-6790.2
16446	0.27722	1.6364	0.	-6908.7
16447	0.36962	1.6364	5.e-002	-36.018
16448	0.36962	1.3636	0.	-6634.
16449	0.27722	1.4545	0.	-6768.8
16450	0.36962	1.4545	5.e-002	-37.249
16451	0.36962	1.1818	0.	-6442.1
16452	0.27722	1.2727	0.	-6593.
16453	0.36962	1.2727	5.e-002	-38.741
16454	0.36962	1.	0.	-6208.5
16455	0.27722	1.0909	0.	-6371.6
16456	0.36962	1.0909	5.e-002	-40.666
16457	0.36962	0.81818	0.	-5930.7
16458	0.27722	0.90909	0.	-6092.6
16459	0.36962	0.90909	5.e-002	-43.519
16460	0.36962	0.63636	0.	-5617.6
16461	0.27722	0.72727	0.	-5742.1
16462	0.36962	0.72727	5.e-002	-48.904
16463	0.36962	0.45455	0.	-5308.3
16464	0.27722	0.54545	0.	-5313.6
16465	0.36962	0.54545	5.e-002	-59.412
16466	0.36962	0.27273	0.	-5098.
16467	0.27722	0.36364	0.	-4825.3
16468	0.36962	0.36364	5.e-002	-77.985
16469	0.27722	0.18182	0.	-4465.2
16470	0.36962	0.18182	5.e-002	-70.034
16471	0.36962	9.0909e-002	0.	-4881.1
16472	0.18481	5.7273	0.	-4177.4
16473	0.18481	5.8182	5.e-002	-169.68
16474	0.18481	5.9091	0.	-3696.8
16475	9.2405e-002	5.8182	0.	-3196.
16476	0.18481	5.5455	0.	-4830.3
16477	0.18481	5.6364	5.e-002	-108.26
16478	9.2405e-002	5.6364	0.	-4549.
16479	0.18481	5.3636	0.	-5445.3
16480	0.18481	5.4545	5.e-002	-73.443
16481	9.2405e-002	5.4545	0.	-5428.1
16482	0.18481	5.1818	0.	-5910.6
16483	0.18481	5.2727	5.e-002	-56.203
16484	9.2405e-002	5.2727	0.	-6019.9
16485	0.18481	5.	0.	-6260.3
16486	0.18481	5.0909	5.e-002	-47.258
16487	9.2405e-002	5.0909	0.	-6436.5
16488	0.18481	4.8182	0.	-6525.5
16489	0.18481	4.9091	5.e-002	-41.15
16490	9.2405e-002	4.9091	0.	-6741.3
16491	0.18481	4.6364	0.	-6729.7
16492	0.18481	4.7273	5.e-002	-36.695
16493	9.2405e-002	4.7273	0.	-6970.6
16494	0.18481	4.4545	0.	-6888.6
16495	0.18481	4.5455	5.e-002	-33.293
16496	9.2405e-002	4.5455	0.	-7146.4
16497	0.18481	4.2727	0.	-7013.1
16498	0.18481	4.3636	5.e-002	-30.639
16499	9.2405e-002	4.3636	0.	-7282.9
16500	0.18481	4.0909	0.	-7110.6
16501	0.18481	4.1818	5.e-002	-28.548
16502	9.2405e-002	4.1818	0.	-7389.3
16503	0.18481	3.9091	0.	-7186.4
16504	0.18481	4.	5.e-002	-26.903
16505	9.2405e-002	4.	0.	-7472.1
16506	0.18481	3.7273	0.	-7244.3
16507	0.18481	3.8182	5.e-002	-25.623
16508	9.2405e-002	3.8182	0.	-7535.9
16509	0.18481	3.5455	0.	-7286.9
16510	0.18481	3.6364	5.e-002	-24.654
16511	9.2405e-002	3.6364	0.	-7583.7
16512	0.18481	3.3636	0.	-7316.2
16513	0.18481	3.4545	5.e-002	-23.956
16514	9.2405e-002	3.4545	0.	-7617.9
16515	0.18481	3.1818	0.	-7333.3
16516	0.18481	3.2727	5.e-002	-23.504
16517	9.2405e-002	3.2727	0.	-7639.9
16518	0.18481	3.	0.	-7338.9
16519	0.18481	3.0909	5.e-002	-23.281
16520	9.2405e-002	3.0909	0.	-7650.7
16521	0.18481	2.8182	0.	-7333.3
16522	0.18481	2.9091	5.e-002	-23.281
16523	9.2405e-002	2.9091	0.	-7650.7
16524	0.18481	2.6364	0.	-7316.2
16525	0.18481	2.7273	5.e-002	-23.504
16526	9.2405e-002	2.7273	0.	-7639.9
16527	0.18481	2.4545	0.	-7286.9
16528	0.18481	2.5455	5.e-002	-23.956
16529	9.2405e-002	2.5455	0.	-7617.9
16530	0.18481	2.2727	0.	-7244.3
16531	0.18481	2.3636	5.e-002	-24.653
16532	9.2405e-002	2.3636	0.	-7583.7
16533	0.18481	2.0909	0.	-7186.4
16534	0.18481	2.1818	5.e-002	-25.623
16535	9.2405e-002	2.1818	0.	-7535.9
16536	0.18481	1.9091	0.	-7110.6
16537	0.18481	2.	5.e-002	-26.903
16538	9.2405e-002	2.	0.	-7472.1
16539	0.18481	1.7273	0.	-7013.1
16540	0.18481	1.8182	5.e-002	-28.548
16541	9.2405e-002	1.8182	0.	-7389.3
16542	0.18481	1.5455	0.	-6888.6
16543	0.18481	1.6364	5.e-002	-30.639
16544	9.2405e-002	1.6364	0.	-7282.9
16545	0.18481	1.3636	0.	-6729.7
16546	0.18481	1.4545	5.e-002	-33.293
16547	9.2405e-002	1.4545	0.	-7146.4
16548	0.18481	1.1818	0.	-6525.5
16549	0.18481	1.2727	5.e-002	-36.695
16550	9.2405e-002	1.2727	0.	-6970.6
16551	0.18481	1.	0.	-6260.3
16552	0.18481	1.0909	5.e-002	-41.15
16553	9.2405e-002	1.0909	0.	-6741.3
16554	0.18481	0.81818	0.	-5910.6
16555	0.18481	0.90909	5.e-002	-47.257
16556	9.2405e-002	0.90909	0.	-6436.5
16557	0.18481	0.63636	0.	-5445.3
16558	0.18481	0.72727	5.e-002	-56.203
16559	9.2405e-002	0.72727	0.	-6019.9
16560	0.18481	0.45455	0.	-4830.3
16561	0.18481	0.54545	5.e-002	-73.443
16562	9.2405e-002	0.54545	0.	-5428.1
16563	0.18481	0.27273	0.	-4177.4
16564	0.18481	0.36364	5.e-002	-108.26
16565	9.2405e-002	0.36364	0.	-4549.
16566	0.18481	0.18182	5.e-002	-169.68
16567	0.18481	9.0909e-002	0.	-3696.8
16568	9.2405e-002	0.18182	0.	-3196.
16569	14.951	0.27273	0.	-423.19
16570	15.044	0.18182	0.	-445.65
16571	14.951	0.18182	5.e-002	-28.971
16572	14.951	9.0909e-002	0.	-289.7
16573	14.859	0.18182	0.	-254.94
16574	14.951	0.45455	0.	-577.15
16575	15.044	0.36364	0.	-551.72
16576	14.951	0.36364	5.e-002	-26.28
16577	14.859	0.36364	0.	-396.21
16578	14.951	0.63636	0.	-750.49
16579	15.044	0.54545	0.	-696.83
16580	14.951	0.54545	5.e-002	-28.239
16581	14.859	0.54545	0.	-540.86
16582	14.951	0.81818	0.	-944.41
16583	15.044	0.72727	0.	-865.57
16584	14.951	0.72727	5.e-002	-32.019
16585	14.859	0.72727	0.	-693.41
16586	14.951	1.	0.	-1170.7
16587	15.044	0.90909	0.	-1061.7
16588	14.951	0.90909	5.e-002	-37.632
16589	14.859	0.90909	0.	-863.26
16590	14.951	1.1818	0.	-1448.2
16591	15.044	1.0909	0.	-1296.6
16592	14.951	1.0909	5.e-002	-45.566
16593	14.859	1.0909	0.	-1063.
16594	14.951	1.3636	0.	-1813.6
16595	15.044	1.2727	0.	-1589.4
16596	14.951	1.2727	5.e-002	-57.673
16597	14.859	1.2727	0.	-1311.6
16598	14.951	1.5455	0.	-2332.
16599	15.044	1.4545	0.	-1977.3
16600	14.951	1.4545	5.e-002	-73.362
16601	14.859	1.4545	0.	-1648.4
16602	14.951	1.7273	0.	-3232.3
16603	15.044	1.6364	0.	-2513.4
16604	14.951	1.6364	5.e-002	-111.53
16605	14.859	1.6364	0.	-2131.6
16606	14.951	1.9091	0.	-4570.4
16607	15.044	1.8182	0.	-3428.6
16608	14.951	1.8182	5.e-002	-195.8
16609	14.859	1.8182	0.	-3019.5
16610	14.951	2.0909	0.	-5416.1
16611	15.044	2.	0.	-4497.
16612	14.951	2.	5.e-002	-347.12
16613	14.859	2.	0.	-8108.4
16614	14.951	2.2727	0.	-5377.9
16615	15.044	2.1818	0.	-4843.1
16616	14.951	2.1818	5.e-002	-201.87
16617	14.951	2.4545	0.	-5040.8
16618	15.044	2.3636	0.	-4761.2
16619	14.951	2.3636	5.e-002	-86.8
16620	14.951	2.6364	0.	-4738.2
16621	15.044	2.5455	0.	-4553.9
16622	14.951	2.5455	5.e-002	-48.443
16623	14.951	2.8182	0.	-4572.8
16624	15.044	2.7273	0.	-4408.5
16625	14.951	2.7273	5.e-002	-29.746
16626	14.951	3.	0.	-4519.3
16627	15.044	2.9091	0.	-4334.4
16628	14.951	2.9091	5.e-002	-23.324
16629	14.951	3.1818	0.	-4572.8
16630	15.044	3.0909	0.	-4334.4
16631	14.951	3.0909	5.e-002	-23.324
16632	14.951	3.3636	0.	-4738.2
16633	15.044	3.2727	0.	-4408.5
16634	14.951	3.2727	5.e-002	-29.747
16635	14.951	3.5455	0.	-5040.8
16636	15.044	3.4545	0.	-4553.9
16637	14.951	3.4545	5.e-002	-48.444
16638	14.951	3.7273	0.	-5377.9
16639	15.044	3.6364	0.	-4761.2
16640	14.951	3.6364	5.e-002	-86.8
16641	14.951	3.9091	0.	-5416.1
16642	15.044	3.8182	0.	-4843.1
16643	14.951	3.8182	5.e-002	-201.87
16644	14.951	4.0909	0.	-4570.4
16645	15.044	4.	0.	-4497.
16646	14.951	4.	5.e-002	-347.12
16647	14.859	4.	0.	-8108.4
16648	14.951	4.2727	0.	-3232.3
16649	15.044	4.1818	0.	-3428.6
16650	14.951	4.1818	5.e-002	-195.8
16651	14.859	4.1818	0.	-3019.5
16652	14.951	4.4545	0.	-2332.
16653	15.044	4.3636	0.	-2513.4
16654	14.951	4.3636	5.e-002	-111.53
16655	14.859	4.3636	0.	-2131.6
16656	14.951	4.6364	0.	-1813.6
16657	15.044	4.5455	0.	-1977.3
16658	14.951	4.5455	5.e-002	-73.362
16659	14.859	4.5455	0.	-1648.4
16660	14.951	4.8182	0.	-1448.2
16661	15.044	4.7273	0.	-1589.4
16662	14.951	4.7273	5.e-002	-57.673
16663	14.859	4.7273	0.	-1311.6
16664	14.951	5.	0.	-1170.7
16665	15.044	4.9091	0.	-1296.6
16666	14.951	4.9091	5.e-002	-45.566
16667	14.859	4.9091	0.	-1063.
16668	14.951	5.1818	0.	-944.41
16669	15.044	5.0909	0.	-1061.7
16670	14.951	5.0909	5.e-002	-37.632
16671	14.859	5.0909	0.	-863.26
16672	14.951	5.3636	0.	-750.49
16673	15.044	5.2727	0.	-865.57
16674	14.951	5.2727	5.e-002	-32.019
16675	14.859	5.2727	0.	-693.41
16676	14.951	5.5455	0.	-577.15
16677	15.044	5.4545	0.	-696.83
16678	14.951	5.4545	5.e-002	-28.239
16679	14.859	5.4545	0.	-540.86
16680	14.951	5.7273	0.	-423.19
16681	15.044	5.6364	0.	-551.72
16682	14.951	5.6364	5.e-002	-26.28
16683	14.859	5.6364	0.	-396.21
16684	15.044	5.8182	0.	-445.65
16685	14.951	5.8182	5.e-002	-28.971
16686	14.951	5.9091	0.	-289.7
16687	14.859	5.8182	0.	-254.94
16688	15.136	0.27273	0.	-585.12
16689	15.228	0.18182	0.	-641.4
16690	15.136	0.18182	5.e-002	-25.269
16691	15.136	9.0909e-002	0.	-506.13
16692	15.136	0.45455	0.	-687.91
16693	15.228	0.36364	0.	-706.51
16694	15.136	0.36364	5.e-002	-21.64
16695	15.136	0.63636	0.	-828.94
16696	15.228	0.54545	0.	-816.14
16697	15.136	0.54545	5.e-002	-21.906
16698	15.136	0.81818	0.	-1000.4
16699	15.228	0.72727	0.	-958.83
16700	15.136	0.72727	5.e-002	-23.243
16701	15.136	1.	0.	-1206.7
16702	15.228	0.90909	0.	-1133.8
16703	15.136	0.90909	5.e-002	-25.58
16704	15.136	1.1818	0.	-1460.4
16705	15.228	1.0909	0.	-1346.6
16706	15.136	1.0909	5.e-002	-29.08
16707	15.136	1.3636	0.	-1781.6
16708	15.228	1.2727	0.	-1608.8
16709	15.136	1.2727	5.e-002	-33.46
16710	15.136	1.5455	0.	-2200.1
16711	15.228	1.4545	0.	-1937.2
16712	15.136	1.4545	5.e-002	-41.714
16713	15.136	1.7273	0.	-2744.1
16714	15.228	1.6364	0.	-2352.2
16715	15.136	1.6364	5.e-002	-43.596
16716	15.136	1.9091	0.	-3345.4
16717	15.228	1.8182	0.	-2854.3
16718	15.136	1.8182	5.e-002	-66.6
16719	15.136	2.0909	0.	-3884.3
16720	15.228	2.	0.	-3351.8
16721	15.136	2.	5.e-002	-62.936
16722	15.136	2.2727	0.	-4198.3
16723	15.228	2.1818	0.	-3754.2
16724	15.136	2.1818	5.e-002	-91.555
16725	15.136	2.4545	0.	-4262.9
16726	15.228	2.3636	0.	-3936.7
16727	15.136	2.3636	5.e-002	-68.819
16728	15.136	2.6364	0.	-4218.1
16729	15.228	2.5455	0.	-3971.1
16730	15.136	2.5455	5.e-002	-51.623
16731	15.136	2.8182	0.	-4165.3
16732	15.228	2.7273	0.	-3953.6
16733	15.136	2.7273	5.e-002	-37.812
16734	15.136	3.	0.	-4144.8
16735	15.228	2.9091	0.	-3935.9
16736	15.136	2.9091	5.e-002	-31.783
16737	15.136	3.1818	0.	-4165.3
16738	15.228	3.0909	0.	-3935.9
16739	15.136	3.0909	5.e-002	-31.783
16740	15.136	3.3636	0.	-4218.1
16741	15.228	3.2727	0.	-3953.6
16742	15.136	3.2727	5.e-002	-37.812
16743	15.136	3.5455	0.	-4262.9
16744	15.228	3.4545	0.	-3971.1
16745	15.136	3.4545	5.e-002	-51.623
16746	15.136	3.7273	0.	-4198.3
16747	15.228	3.6364	0.	-3936.7
16748	15.136	3.6364	5.e-002	-68.819
16749	15.136	3.9091	0.	-3884.3
16750	15.228	3.8182	0.	-3754.2
16751	15.136	3.8182	5.e-002	-91.555
16752	15.136	4.0909	0.	-3345.4
16753	15.228	4.	0.	-3351.8
16754	15.136	4.	5.e-002	-62.936
16755	15.136	4.2727	0.	-2744.1
16756	15.228	4.1818	0.	-2854.3
16757	15.136	4.1818	5.e-002	-66.6
16758	15.136	4.4545	0.	-2200.1
16759	15.228	4.3636	0.	-2352.2
16760	15.136	4.3636	5.e-002	-43.596
16761	15.136	4.6364	0.	-1781.6
16762	15.228	4.5455	0.	-1937.2
16763	15.136	4.5455	5.e-002	-41.715
16764	15.136	4.8182	0.	-1460.4
16765	15.228	4.7273	0.	-1608.8
16766	15.136	4.7273	5.e-002	-33.46
16767	15.136	5.	0.	-1206.7
16768	15.228	4.9091	0.	-1346.6
16769	15.136	4.9091	5.e-002	-29.08
16770	15.136	5.1818	0.	-1000.4
16771	15.228	5.0909	0.	-1133.8
16772	15.136	5.0909	5.e-002	-25.58
16773	15.136	5.3636	0.	-828.94
16774	15.228	5.2727	0.	-958.83
16775	15.136	5.2727	5.e-002	-23.243
16776	15.136	5.5455	0.	-687.91
16777	15.228	5.4545	0.	-816.14
16778	15.136	5.4545	5.e-002	-21.906
16779	15.136	5.7273	0.	-585.12
16780	15.228	5.6364	0.	-706.51
16781	15.136	5.6364	5.e-002	-21.64
16782	15.228	5.8182	0.	-641.4
16783	15.136	5.8182	5.e-002	-25.269
16784	15.136	5.9091	0.	-506.13
16785	15.321	0.27273	0.	-765.23
16786	15.413	0.18182	0.	-820.81
16787	15.321	0.18182	5.e-002	-23.025
16788	15.321	9.0909e-002	0.	-704.62
16789	15.321	0.45455	0.	-841.72
16790	15.413	0.36364	0.	-870.13
16791	15.321	0.36364	5.e-002	-19.23
16792	15.321	0.63636	0.	-956.45
16793	15.413	0.54545	0.	-957.06
16794	15.321	0.54545	5.e-002	-19.314
16795	15.321	0.81818	0.	-1104.7
16796	15.413	0.72727	0.	-1076.4
16797	15.321	0.72727	5.e-002	-20.032
16798	15.321	1.	0.	-1287.7
16799	15.413	0.90909	0.	-1227.7
16800	15.321	0.90909	5.e-002	-21.173
16801	15.321	1.1818	0.	-1510.7
16802	15.413	1.0909	0.	-1412.8
16803	15.321	1.0909	5.e-002	-22.636
16804	15.321	1.3636	0.	-1781.4
16805	15.413	1.2727	0.	-1635.9
16806	15.321	1.2727	5.e-002	-24.225
16807	15.321	1.5455	0.	-2104.3
16808	15.413	1.4545	0.	-1901.2
16809	15.321	1.4545	5.e-002	-25.03
16810	15.321	1.7273	0.	-2473.1
16811	15.413	1.6364	0.	-2206.6
16812	15.321	1.6364	5.e-002	-26.551
16813	15.321	1.9091	0.	-2862.5
16814	15.413	1.8182	0.	-2539.2
16815	15.321	1.8182	5.e-002	-31.768
16816	15.321	2.0909	0.	-3217.3
16817	15.413	2.	0.	-2869.5
16818	15.321	2.	5.e-002	-41.028
16819	15.321	2.2727	0.	-3481.8
16820	15.413	2.1818	0.	-3150.
16821	15.321	2.1818	5.e-002	-46.656
16822	15.321	2.4545	0.	-3634.6
16823	15.413	2.3636	0.	-3347.7
16824	15.321	2.3636	5.e-002	-49.52
16825	15.321	2.6364	0.	-3698.8
16826	15.413	2.5455	0.	-3456.2
16827	15.321	2.5455	5.e-002	-43.105
16828	15.321	2.8182	0.	-3717.9
16829	15.413	2.7273	0.	-3504.8
16830	15.321	2.7273	5.e-002	-37.494
16831	15.321	3.	0.	-3721.1
16832	15.413	2.9091	0.	-3521.8
16833	15.321	2.9091	5.e-002	-34.106
16834	15.321	3.1818	0.	-3717.9
16835	15.413	3.0909	0.	-3521.8
16836	15.321	3.0909	5.e-002	-34.106
16837	15.321	3.3636	0.	-3698.8
16838	15.413	3.2727	0.	-3504.8
16839	15.321	3.2727	5.e-002	-37.494
16840	15.321	3.5455	0.	-3634.6
16841	15.413	3.4545	0.	-3456.2
16842	15.321	3.4545	5.e-002	-43.105
16843	15.321	3.7273	0.	-3481.8
16844	15.413	3.6364	0.	-3347.7
16845	15.321	3.6364	5.e-002	-49.52
16846	15.321	3.9091	0.	-3217.3
16847	15.413	3.8182	0.	-3150.
16848	15.321	3.8182	5.e-002	-46.656
16849	15.321	4.0909	0.	-2862.5
16850	15.413	4.	0.	-2869.5
16851	15.321	4.	5.e-002	-41.028
16852	15.321	4.2727	0.	-2473.1
16853	15.413	4.1818	0.	-2539.2
16854	15.321	4.1818	5.e-002	-31.768
16855	15.321	4.4545	0.	-2104.3
16856	15.413	4.3636	0.	-2206.6
16857	15.321	4.3636	5.e-002	-26.551
16858	15.321	4.6364	0.	-1781.4
16859	15.413	4.5455	0.	-1901.2
16860	15.321	4.5455	5.e-002	-25.03
16861	15.321	4.8182	0.	-1510.7
16862	15.413	4.7273	0.	-1635.9
16863	15.321	4.7273	5.e-002	-24.225
16864	15.321	5.	0.	-1287.7
16865	15.413	4.9091	0.	-1412.8
16866	15.321	4.9091	5.e-002	-22.636
16867	15.321	5.1818	0.	-1104.7
16868	15.413	5.0909	0.	-1227.7
16869	15.321	5.0909	5.e-002	-21.173
16870	15.321	5.3636	0.	-956.45
16871	15.413	5.2727	0.	-1076.4
16872	15.321	5.2727	5.e-002	-20.032
16873	15.321	5.5455	0.	-841.72
16874	15.413	5.4545	0.	-957.06
16875	15.321	5.4545	5.e-002	-19.314
16876	15.321	5.7273	0.	-765.23
16877	15.413	5.6364	0.	-870.13
16878	15.321	5.6364	5.e-002	-19.23
16879	15.413	5.8182	0.	-820.81
16880	15.321	5.8182	5.e-002	-23.025
16881	15.321	5.9091	0.	-704.62
16882	15.505	0.27273	0.	-926.84
16883	15.598	0.18182	0.	-974.13
16884	15.505	0.18182	5.e-002	-20.425
16885	15.505	9.0909e-002	0.	-876.47
16886	15.505	0.45455	0.	-988.54
16887	15.598	0.36364	0.	-1015.1
16888	15.505	0.36364	5.e-002	-16.404
16889	15.505	0.63636	0.	-1082.7
16890	15.598	0.54545	0.	-1086.5
16891	15.505	0.54545	5.e-002	-16.314
16892	15.505	0.81818	0.	-1207.2
16893	15.598	0.72727	0.	-1185.6
16894	15.505	0.72727	5.e-002	-16.569
16895	15.505	1.	0.	-1362.
16896	15.598	0.90909	0.	-1312.2
16897	15.505	0.90909	5.e-002	-16.902
16898	15.505	1.1818	0.	-1548.
16899	15.598	1.0909	0.	-1466.5
16900	15.505	1.0909	5.e-002	-17.209
16901	15.505	1.3636	0.	-1765.5
16902	15.598	1.2727	0.	-1648.3
16903	15.505	1.2727	5.e-002	-17.38
16904	15.505	1.5455	0.	-2011.9
16905	15.598	1.4545	0.	-1855.8
16906	15.505	1.4545	5.e-002	-17.877
16907	15.505	1.7273	0.	-2278.4
16908	15.598	1.6364	0.	-2083.9
16909	15.505	1.6364	5.e-002	-19.749
16910	15.505	1.9091	0.	-2549.4
16911	15.598	1.8182	0.	-2321.9
16912	15.505	1.8182	5.e-002	-23.124
16913	15.505	2.0909	0.	-2802.5
16914	15.598	2.	0.	-2554.9
16915	15.505	2.	5.e-002	-27.963
16916	15.505	2.2727	0.	-3012.8
16917	15.598	2.1818	0.	-2763.9
16918	15.505	2.1818	5.e-002	-32.532
16919	15.505	2.4545	0.	-3164.
16920	15.598	2.3636	0.	-2930.2
16921	15.505	2.3636	5.e-002	-35.07
16922	15.505	2.6364	0.	-3256.6
16923	15.598	2.5455	0.	-3045.
16924	15.505	2.5455	5.e-002	-34.994
16925	15.505	2.8182	0.	-3303.3
16926	15.598	2.7273	0.	-3112.6
16927	15.505	2.7273	5.e-002	-33.45
16928	15.505	3.	0.	-3317.2
16929	15.598	2.9091	0.	-3142.9
16930	15.505	2.9091	5.e-002	-32.259
16931	15.505	3.1818	0.	-3303.3
16932	15.598	3.0909	0.	-3142.9
16933	15.505	3.0909	5.e-002	-32.259
16934	15.505	3.3636	0.	-3256.6
16935	15.598	3.2727	0.	-3112.6
16936	15.505	3.2727	5.e-002	-33.45
16937	15.505	3.5455	0.	-3164.
16938	15.598	3.4545	0.	-3045.
16939	15.505	3.4545	5.e-002	-34.994
16940	15.505	3.7273	0.	-3012.8
16941	15.598	3.6364	0.	-2930.2
16942	15.505	3.6364	5.e-002	-35.07
16943	15.505	3.9091	0.	-2802.5
16944	15.598	3.8182	0.	-2763.9
16945	15.505	3.8182	5.e-002	-32.532
16946	15.505	4.0909	0.	-2549.4
16947	15.598	4.	0.	-2554.9
16948	15.505	4.	5.e-002	-27.963
16949	15.505	4.2727	0.	-2278.4
16950	15.598	4.1818	0.	-2321.9
16951	15.505	4.1818	5.e-002	-23.124
16952	15.505	4.4545	0.	-2011.9
16953	15.598	4.3636	0.	-2083.9
16954	15.505	4.3636	5.e-002	-19.749
16955	15.505	4.6364	0.	-1765.5
16956	15.598	4.5455	0.	-1855.8
16957	15.505	4.5455	5.e-002	-17.877
16958	15.505	4.8182	0.	-1548.
16959	15.598	4.7273	0.	-1648.3
16960	15.505	4.7273	5.e-002	-17.38
16961	15.505	5.	0.	-1362.
16962	15.598	4.9091	0.	-1466.5
16963	15.505	4.9091	5.e-002	-17.209
16964	15.505	5.1818	0.	-1207.2
16965	15.598	5.0909	0.	-1312.2
16966	15.505	5.0909	5.e-002	-16.902
16967	15.505	5.3636	0.	-1082.7
16968	15.598	5.2727	0.	-1185.6
16969	15.505	5.2727	5.e-002	-16.569
16970	15.505	5.5455	0.	-988.54
16971	15.598	5.4545	0.	-1086.5
16972	15.505	5.4545	5.e-002	-16.314
16973	15.505	5.7273	0.	-926.84
16974	15.598	5.6364	0.	-1015.1
16975	15.505	5.6364	5.e-002	-16.404
16976	15.598	5.8182	0.	-974.13
16977	15.505	5.8182	5.e-002	-20.425
16978	15.505	5.9091	0.	-876.47
16979	15.69	0.27273	0.	-1063.2
16980	15.782	0.18182	0.	-1100.3
16981	15.69	0.18182	5.e-002	-17.612
16982	15.69	9.0909e-002	0.	-1020.5
16983	15.69	0.45455	0.	-1114.7
16984	15.782	0.36364	0.	-1135.3
16985	15.69	0.36364	5.e-002	-13.505
16986	15.69	0.63636	0.	-1192.5
16987	15.782	0.54545	0.	-1194.6
16988	15.69	0.54545	5.e-002	-13.257
16989	15.69	0.81818	0.	-1295.1
16990	15.782	0.72727	0.	-1276.3
16991	15.69	0.72727	5.e-002	-13.227
16992	15.69	1.	0.	-1422.3
16993	15.782	0.90909	0.	-1380.2
16994	15.69	0.90909	5.e-002	-13.164
16995	15.69	1.1818	0.	-1572.8
16996	15.782	1.0909	0.	-1505.4
16997	15.69	1.0909	5.e-002	-13.065
16998	15.69	1.3636	0.	-1744.4
16999	15.782	1.2727	0.	-1650.2
17000	15.69	1.2727	5.e-002	-13.115
17001	15.69	1.5455	0.	-1932.8
17002	15.782	1.4545	0.	-1811.3
17003	15.69	1.4545	5.e-002	-13.742
17004	15.69	1.7273	0.	-2131.1
17005	15.782	1.6364	0.	-1983.7
17006	15.69	1.6364	5.e-002	-15.508
17007	15.69	1.9091	0.	-2329.9
17008	15.782	1.8182	0.	-2160.3
17009	15.69	1.8182	5.e-002	-18.389
17010	15.69	2.0909	0.	-2517.5
17011	15.782	2.	0.	-2332.5
17012	15.69	2.	5.e-002	-21.588
17013	15.69	2.2727	0.	-2680.7
17014	15.782	2.1818	0.	-2490.
17015	15.69	2.1818	5.e-002	-24.634
17016	15.69	2.4545	0.	-2809.
17017	15.782	2.3636	0.	-2622.5
17018	15.69	2.3636	5.e-002	-27.057
17019	15.69	2.6364	0.	-2897.7
17020	15.782	2.5455	0.	-2722.3
17021	15.69	2.5455	5.e-002	-28.362
17022	15.69	2.8182	0.	-2948.5
17023	15.782	2.7273	0.	-2787.3
17024	15.69	2.7273	5.e-002	-28.655
17025	15.69	3.	0.	-2964.9
17026	15.782	2.9091	0.	-2818.8
17027	15.69	2.9091	5.e-002	-28.581
17028	15.69	3.1818	0.	-2948.5
17029	15.782	3.0909	0.	-2818.8
17030	15.69	3.0909	5.e-002	-28.581
17031	15.69	3.3636	0.	-2897.7
17032	15.782	3.2727	0.	-2787.3
17033	15.69	3.2727	5.e-002	-28.655
17034	15.69	3.5455	0.	-2809.
17035	15.782	3.4545	0.	-2722.3
17036	15.69	3.4545	5.e-002	-28.362
17037	15.69	3.7273	0.	-2680.7
17038	15.782	3.6364	0.	-2622.5
17039	15.69	3.6364	5.e-002	-27.057
17040	15.69	3.9091	0.	-2517.5
17041	15.782	3.8182	0.	-2490.
17042	15.69	3.8182	5.e-002	-24.634
17043	15.69	4.0909	0.	-2329.9
17044	15.782	4.	0.	-2332.5
17045	15.69	4.	5.e-002	-21.588
17046	15.69	4.2727	0.	-2131.1
17047	15.782	4.1818	0.	-2160.3
17048	15.69	4.1818	5.e-002	-18.389
17049	15.69	4.4545	0.	-1932.8
17050	15.782	4.3636	0.	-1983.7
17051	15.69	4.3636	5.e-002	-15.508
17052	15.69	4.6364	0.	-1744.4
17053	15.782	4.5455	0.	-1811.3
17054	15.69	4.5455	5.e-002	-13.742
17055	15.69	4.8182	0.	-1572.8
17056	15.782	4.7273	0.	-1650.2
17057	15.69	4.7273	5.e-002	-13.115
17058	15.69	5.	0.	-1422.3
17059	15.782	4.9091	0.	-1505.4
17060	15.69	4.9091	5.e-002	-13.065
17061	15.69	5.1818	0.	-1295.1
17062	15.782	5.0909	0.	-1380.2
17063	15.69	5.0909	5.e-002	-13.164
17064	15.69	5.3636	0.	-1192.5
17065	15.782	5.2727	0.	-1276.3
17066	15.69	5.2727	5.e-002	-13.227
17067	15.69	5.5455	0.	-1114.7
17068	15.782	5.4545	0.	-1194.6
17069	15.69	5.4545	5.e-002	-13.257
17070	15.69	5.7273	0.	-1063.2
17071	15.782	5.6364	0.	-1135.3
17072	15.69	5.6364	5.e-002	-13.505
17073	15.782	5.8182	0.	-1100.3
17074	15.69	5.8182	5.e-002	-17.612
17075	15.69	5.9091	0.	-1020.5
17076	15.875	0.27273	0.	-1173.
17077	15.967	0.18182	0.	-1200.3
17078	15.875	0.18182	5.e-002	-14.79
17079	15.875	9.0909e-002	0.	-1136.9
17080	15.875	0.45455	0.	-1216.3
17081	15.967	0.36364	0.	-1230.1
17082	15.875	0.36364	5.e-002	-10.728
17083	15.875	0.63636	0.	-1280.3
17084	15.967	0.54545	0.	-1279.3
17085	15.875	0.54545	5.e-002	-10.393
17086	15.875	0.81818	0.	-1364.
17087	15.967	0.72727	0.	-1346.1
17088	15.875	0.72727	5.e-002	-10.256
17089	15.875	1.	0.	-1466.6
17090	15.967	0.90909	0.	-1430.
17091	15.875	0.90909	5.e-002	-10.11
17092	15.875	1.1818	0.	-1586.3
17093	15.967	1.0909	0.	-1530.
17094	15.875	1.0909	5.e-002	-10.053
17095	15.875	1.3636	0.	-1720.5
17096	15.967	1.2727	0.	-1644.
17097	15.875	1.2727	5.e-002	-10.327
17098	15.875	1.5455	0.	-1865.2
17099	15.967	1.4545	0.	-1768.7
17100	15.875	1.4545	5.e-002	-11.256
17101	15.875	1.7273	0.	-2015.3
17102	15.967	1.6364	0.	-1900.3
17103	15.875	1.6364	5.e-002	-12.939
17104	15.875	1.9091	0.	-2164.6
17105	15.967	1.8182	0.	-2033.7
17106	15.875	1.8182	5.e-002	-15.137
17107	15.875	2.0909	0.	-2306.1
17108	15.967	2.	0.	-2163.4
17109	15.875	2.	5.e-002	-17.51
17110	15.875	2.2727	0.	-2431.9
17111	15.967	2.1818	0.	-2283.2
17112	15.875	2.1818	5.e-002	-19.833
17113	15.875	2.4545	0.	-2534.9
17114	15.967	2.3636	0.	-2386.4
17115	15.875	2.3636	5.e-002	-21.863
17116	15.875	2.6364	0.	-2610.
17117	15.967	2.5455	0.	-2467.3
17118	15.875	2.5455	5.e-002	-23.345
17119	15.875	2.8182	0.	-2655.2
17120	15.967	2.7273	0.	-2522.3
17121	15.875	2.7273	5.e-002	-24.193
17122	15.875	3.	0.	-2670.3
17123	15.967	2.9091	0.	-2549.9
17124	15.875	2.9091	5.e-002	-24.541
17125	15.875	3.1818	0.	-2655.2
17126	15.967	3.0909	0.	-2549.9
17127	15.875	3.0909	5.e-002	-24.541
17128	15.875	3.3636	0.	-2610.
17129	15.967	3.2727	0.	-2522.3
17130	15.875	3.2727	5.e-002	-24.193
17131	15.875	3.5455	0.	-2534.9
17132	15.967	3.4545	0.	-2467.3
17133	15.875	3.4545	5.e-002	-23.345
17134	15.875	3.7273	0.	-2431.9
17135	15.967	3.6364	0.	-2386.4
17136	15.875	3.6364	5.e-002	-21.863
17137	15.875	3.9091	0.	-2306.1
17138	15.967	3.8182	0.	-2283.2
17139	15.875	3.8182	5.e-002	-19.833
17140	15.875	4.0909	0.	-2164.6
17141	15.967	4.	0.	-2163.4
17142	15.875	4.	5.e-002	-17.51
17143	15.875	4.2727	0.	-2015.3
17144	15.967	4.1818	0.	-2033.7
17145	15.875	4.1818	5.e-002	-15.137
17146	15.875	4.4545	0.	-1865.2
17147	15.967	4.3636	0.	-1900.3
17148	15.875	4.3636	5.e-002	-12.939
17149	15.875	4.6364	0.	-1720.5
17150	15.967	4.5455	0.	-1768.7
17151	15.875	4.5455	5.e-002	-11.256
17152	15.875	4.8182	0.	-1586.3
17153	15.967	4.7273	0.	-1644.
17154	15.875	4.7273	5.e-002	-10.327
17155	15.875	5.	0.	-1466.6
17156	15.967	4.9091	0.	-1530.
17157	15.875	4.9091	5.e-002	-10.053
17158	15.875	5.1818	0.	-1364.
17159	15.967	5.0909	0.	-1430.
17160	15.875	5.0909	5.e-002	-10.11
17161	15.875	5.3636	0.	-1280.3
17162	15.967	5.2727	0.	-1346.1
17163	15.875	5.2727	5.e-002	-10.256
17164	15.875	5.5455	0.	-1216.3
17165	15.967	5.4545	0.	-1279.3
17166	15.875	5.4545	5.e-002	-10.393
17167	15.875	5.7273	0.	-1173.
17168	15.967	5.6364	0.	-1230.1
17169	15.875	5.6364	5.e-002	-10.728
17170	15.967	5.8182	0.	-1200.3
17171	15.875	5.8182	5.e-002	-14.79
17172	15.875	5.9091	0.	-1136.9
17173	16.059	0.27273	0.	-1257.8
17174	16.152	0.18182	0.	-1276.3
17175	16.059	0.18182	5.e-002	-12.118
17176	16.059	9.0909e-002	0.	-1227.6
17177	16.059	0.45455	0.	-1293.7
17178	16.152	0.36364	0.	-1301.2
17179	16.059	0.36364	5.e-002	-8.2012
17180	16.059	0.63636	0.	-1346.1
17181	16.152	0.54545	0.	-1341.6
17182	16.059	0.54545	5.e-002	-7.8606
17183	16.059	0.81818	0.	-1413.6
17184	16.152	0.72727	0.	-1395.7
17185	16.059	0.72727	5.e-002	-7.7545
17186	16.059	1.	0.	-1495.4
17187	16.152	0.90909	0.	-1462.8
17188	16.059	0.90909	5.e-002	-7.7227
17189	16.059	1.1818	0.	-1589.8
17190	16.152	1.0909	0.	-1541.9
17191	16.059	1.0909	5.e-002	-7.8926
17192	16.059	1.3636	0.	-1694.2
17193	16.152	1.2727	0.	-1631.
17194	16.059	1.2727	5.e-002	-8.4538
17195	16.059	1.5455	0.	-1805.7
17196	16.152	1.4545	0.	-1727.6
17197	16.059	1.4545	5.e-002	-9.5287
17198	16.059	1.7273	0.	-1920.2
17199	16.152	1.6364	0.	-1828.4
17200	16.059	1.6364	5.e-002	-11.06
17201	16.059	1.9091	0.	-2033.7
17202	16.152	1.8182	0.	-1930.
17203	16.059	1.8182	5.e-002	-12.85
17204	16.059	2.0909	0.	-2141.3
17205	16.152	2.	0.	-2028.6
17206	16.059	2.	5.e-002	-14.713
17207	16.059	2.2727	0.	-2237.9
17208	16.152	2.1818	0.	-2120.
17209	16.059	2.1818	5.e-002	-16.528
17210	16.059	2.4545	0.	-2318.4
17211	16.152	2.3636	0.	-2199.5
17212	16.059	2.3636	5.e-002	-18.173
17213	16.059	2.6364	0.	-2378.6
17214	16.152	2.5455	0.	-2262.9
17215	16.059	2.5455	5.e-002	-19.495
17216	16.059	2.8182	0.	-2415.6
17217	16.152	2.7273	0.	-2306.8
17218	16.059	2.7273	5.e-002	-20.386
17219	16.059	3.	0.	-2428.1
17220	16.152	2.9091	0.	-2329.3
17221	16.059	2.9091	5.e-002	-20.82
17222	16.059	3.1818	0.	-2415.6
17223	16.152	3.0909	0.	-2329.3
17224	16.059	3.0909	5.e-002	-20.821
17225	16.059	3.3636	0.	-2378.6
17226	16.152	3.2727	0.	-2306.8
17227	16.059	3.2727	5.e-002	-20.386
17228	16.059	3.5455	0.	-2318.4
17229	16.152	3.4545	0.	-2262.9
17230	16.059	3.4545	5.e-002	-19.495
17231	16.059	3.7273	0.	-2237.9
17232	16.152	3.6364	0.	-2199.5
17233	16.059	3.6364	5.e-002	-18.173
17234	16.059	3.9091	0.	-2141.3
17235	16.152	3.8182	0.	-2120.
17236	16.059	3.8182	5.e-002	-16.528
17237	16.059	4.0909	0.	-2033.7
17238	16.152	4.	0.	-2028.6
17239	16.059	4.	5.e-002	-14.713
17240	16.059	4.2727	0.	-1920.2
17241	16.152	4.1818	0.	-1930.
17242	16.059	4.1818	5.e-002	-12.85
17243	16.059	4.4545	0.	-1805.7
17244	16.152	4.3636	0.	-1828.4
17245	16.059	4.3636	5.e-002	-11.06
17246	16.059	4.6364	0.	-1694.2
17247	16.152	4.5455	0.	-1727.6
17248	16.059	4.5455	5.e-002	-9.5287
17249	16.059	4.8182	0.	-1589.8
17250	16.152	4.7273	0.	-1631.
17251	16.059	4.7273	5.e-002	-8.4538
17252	16.059	5.	0.	-1495.4
17253	16.152	4.9091	0.	-1541.9
17254	16.059	4.9091	5.e-002	-7.8926
17255	16.059	5.1818	0.	-1413.6
17256	16.152	5.0909	0.	-1462.8
17257	16.059	5.0909	5.e-002	-7.7227
17258	16.059	5.3636	0.	-1346.1
17259	16.152	5.2727	0.	-1395.7
17260	16.059	5.2727	5.e-002	-7.7545
17261	16.059	5.5455	0.	-1293.7
17262	16.152	5.4545	0.	-1341.6
17263	16.059	5.4545	5.e-002	-7.8606
17264	16.059	5.7273	0.	-1257.8
17265	16.152	5.6364	0.	-1301.2
17266	16.059	5.6364	5.e-002	-8.2012
17267	16.152	5.8182	0.	-1276.3
17268	16.059	5.8182	5.e-002	-12.118
17269	16.059	5.9091	0.	-1227.6
17270	16.244	0.27273	0.	-1320.
17271	16.336	0.18182	0.	-1330.9
17272	16.244	0.18182	5.e-002	-9.6997
17273	16.244	9.0909e-002	0.	-1295.
17274	16.244	0.45455	0.	-1349.5
17275	16.336	0.36364	0.	-1351.4
17276	16.244	0.36364	5.e-002	-5.987
17277	16.244	0.63636	0.	-1391.8
17278	16.336	0.54545	0.	-1384.1
17279	16.244	0.54545	5.e-002	-5.7126
17280	16.244	0.81818	0.	-1445.7
17281	16.336	0.72727	0.	-1427.5
17282	16.244	0.72727	5.e-002	-5.737
17283	16.244	1.	0.	-1510.4
17284	16.336	0.90909	0.	-1480.7
17285	16.244	0.90909	5.e-002	-5.9224
17286	16.244	1.1818	0.	-1584.4
17287	16.336	1.0909	0.	-1542.9
17288	16.244	1.0909	5.e-002	-6.3659
17289	16.244	1.3636	0.	-1665.5
17290	16.336	1.2727	0.	-1612.2
17291	16.244	1.2727	5.e-002	-7.1523
17292	16.244	1.5455	0.	-1751.4
17293	16.336	1.4545	0.	-1686.8
17294	16.244	1.4545	5.e-002	-8.2782
17295	16.244	1.7273	0.	-1839.1
17296	16.336	1.6364	0.	-1764.3
17297	16.244	1.6364	5.e-002	-9.648
17298	16.244	1.9091	0.	-1925.8
17299	16.336	1.8182	0.	-1842.
17300	16.244	1.8182	5.e-002	-11.134
17301	16.244	2.0909	0.	-2007.8
17302	16.336	2.	0.	-1917.2
17303	16.244	2.	5.e-002	-12.636
17304	16.244	2.2727	0.	-2081.7
17305	16.336	2.1818	0.	-1986.7
17306	16.244	2.1818	5.e-002	-14.081
17307	16.244	2.4545	0.	-2143.8
17308	16.336	2.3636	0.	-2047.5
17309	16.244	2.3636	5.e-002	-15.396
17310	16.244	2.6364	0.	-2190.6
17311	16.336	2.5455	0.	-2096.3
17312	16.244	2.5455	5.e-002	-16.483
17313	16.244	2.8182	0.	-2219.7
17314	16.336	2.7273	0.	-2130.4
17315	16.244	2.7273	5.e-002	-17.252
17316	16.244	3.	0.	-2229.6
17317	16.336	2.9091	0.	-2147.9
17318	16.244	2.9091	5.e-002	-17.648
17319	16.244	3.1818	0.	-2219.7
17320	16.336	3.0909	0.	-2147.9
17321	16.244	3.0909	5.e-002	-17.648
17322	16.244	3.3636	0.	-2190.6
17323	16.336	3.2727	0.	-2130.4
17324	16.244	3.2727	5.e-002	-17.252
17325	16.244	3.5455	0.	-2143.8
17326	16.336	3.4545	0.	-2096.3
17327	16.244	3.4545	5.e-002	-16.483
17328	16.244	3.7273	0.	-2081.7
17329	16.336	3.6364	0.	-2047.5
17330	16.244	3.6364	5.e-002	-15.396
17331	16.244	3.9091	0.	-2007.8
17332	16.336	3.8182	0.	-1986.7
17333	16.244	3.8182	5.e-002	-14.081
17334	16.244	4.0909	0.	-1925.8
17335	16.336	4.	0.	-1917.2
17336	16.244	4.	5.e-002	-12.636
17337	16.244	4.2727	0.	-1839.1
17338	16.336	4.1818	0.	-1842.
17339	16.244	4.1818	5.e-002	-11.134
17340	16.244	4.4545	0.	-1751.4
17341	16.336	4.3636	0.	-1764.3
17342	16.244	4.3636	5.e-002	-9.648
17343	16.244	4.6364	0.	-1665.5
17344	16.336	4.5455	0.	-1686.8
17345	16.244	4.5455	5.e-002	-8.2782
17346	16.244	4.8182	0.	-1584.4
17347	16.336	4.7273	0.	-1612.2
17348	16.244	4.7273	5.e-002	-7.1523
17349	16.244	5.	0.	-1510.4
17350	16.336	4.9091	0.	-1542.9
17351	16.244	4.9091	5.e-002	-6.3659
17352	16.244	5.1818	0.	-1445.7
17353	16.336	5.0909	0.	-1480.7
17354	16.244	5.0909	5.e-002	-5.9224
17355	16.244	5.3636	0.	-1391.8
17356	16.336	5.2727	0.	-1427.5
17357	16.244	5.2727	5.e-002	-5.7369
17358	16.244	5.5455	0.	-1349.5
17359	16.336	5.4545	0.	-1384.1
17360	16.244	5.4545	5.e-002	-5.7126
17361	16.244	5.7273	0.	-1320.
17362	16.336	5.6364	0.	-1351.4
17363	16.244	5.6364	5.e-002	-5.987
17364	16.336	5.8182	0.	-1330.9
17365	16.244	5.8182	5.e-002	-9.6997
17366	16.244	5.9091	0.	-1295.
17367	16.429	0.27273	0.	-1362.5
17368	16.521	0.18182	0.	-1367.2
17369	16.429	0.18182	5.e-002	-7.584
17370	16.429	9.0909e-002	0.	-1342.1
17371	16.429	0.45455	0.	-1386.4
17372	16.521	0.36364	0.	-1383.7
17373	16.429	0.36364	5.e-002	-4.1052
17374	16.429	0.63636	0.	-1420.2
17375	16.521	0.54545	0.	-1409.9
17376	16.429	0.54545	5.e-002	-3.9633
17377	16.429	0.81818	0.	-1463.
17378	16.521	0.72727	0.	-1444.2
17379	16.429	0.72727	5.e-002	-4.1933
17380	16.429	1.	0.	-1513.8
17381	16.521	0.90909	0.	-1486.2
17382	16.429	0.90909	5.e-002	-4.6384
17383	16.429	1.1818	0.	-1571.4
17384	16.521	1.0909	0.	-1534.7
17385	16.429	1.0909	5.e-002	-5.3222
17386	16.429	1.3636	0.	-1634.2
17387	16.521	1.2727	0.	-1588.5
17388	16.429	1.2727	5.e-002	-6.2404
17389	16.429	1.5455	0.	-1700.4
17390	16.521	1.4545	0.	-1646.
17391	16.429	1.4545	5.e-002	-7.3441
17392	16.429	1.7273	0.	-1767.7
17393	16.521	1.6364	0.	-1705.4
17394	16.429	1.6364	5.e-002	-8.5574
17395	16.429	1.9091	0.	-1833.8
17396	16.521	1.8182	0.	-1764.8
17397	16.429	1.8182	5.e-002	-9.8052
17398	16.429	2.0909	0.	-1896.4
17399	16.521	2.	0.	-1822.1
17400	16.429	2.	5.e-002	-11.03
17401	16.429	2.2727	0.	-1952.7
17402	16.521	2.1818	0.	-1875.
17403	16.429	2.1818	5.e-002	-12.189
17404	16.429	2.4545	0.	-2000.
17405	16.521	2.3636	0.	-1921.2
17406	16.429	2.3636	5.e-002	-13.232
17407	16.429	2.6364	0.	-2035.9
17408	16.521	2.5455	0.	-1958.4
17409	16.429	2.5455	5.e-002	-14.097
17410	16.429	2.8182	0.	-2058.3
17411	16.521	2.7273	0.	-1984.4
17412	16.429	2.7273	5.e-002	-14.716
17413	16.429	3.	0.	-2065.9
17414	16.521	2.9091	0.	-1997.8
17415	16.429	2.9091	5.e-002	-15.039
17416	16.429	3.1818	0.	-2058.3
17417	16.521	3.0909	0.	-1997.8
17418	16.429	3.0909	5.e-002	-15.039
17419	16.429	3.3636	0.	-2035.9
17420	16.521	3.2727	0.	-1984.4
17421	16.429	3.2727	5.e-002	-14.716
17422	16.429	3.5455	0.	-2000.
17423	16.521	3.4545	0.	-1958.4
17424	16.429	3.4545	5.e-002	-14.097
17425	16.429	3.7273	0.	-1952.7
17426	16.521	3.6364	0.	-1921.2
17427	16.429	3.6364	5.e-002	-13.232
17428	16.429	3.9091	0.	-1896.4
17429	16.521	3.8182	0.	-1875.
17430	16.429	3.8182	5.e-002	-12.189
17431	16.429	4.0909	0.	-1833.8
17432	16.521	4.	0.	-1822.1
17433	16.429	4.	5.e-002	-11.03
17434	16.429	4.2727	0.	-1767.7
17435	16.521	4.1818	0.	-1764.8
17436	16.429	4.1818	5.e-002	-9.8052
17437	16.429	4.4545	0.	-1700.4
17438	16.521	4.3636	0.	-1705.4
17439	16.429	4.3636	5.e-002	-8.5574
17440	16.429	4.6364	0.	-1634.2
17441	16.521	4.5455	0.	-1646.
17442	16.429	4.5455	5.e-002	-7.3441
17443	16.429	4.8182	0.	-1571.4
17444	16.521	4.7273	0.	-1588.5
17445	16.429	4.7273	5.e-002	-6.2404
17446	16.429	5.	0.	-1513.8
17447	16.521	4.9091	0.	-1534.7
17448	16.429	4.9091	5.e-002	-5.3222
17449	16.429	5.1818	0.	-1463.
17450	16.521	5.0909	0.	-1486.2
17451	16.429	5.0909	5.e-002	-4.6384
17452	16.429	5.3636	0.	-1420.2
17453	16.521	5.2727	0.	-1444.2
17454	16.429	5.2727	5.e-002	-4.1933
17455	16.429	5.5455	0.	-1386.4
17456	16.521	5.4545	0.	-1409.9
17457	16.429	5.4545	5.e-002	-3.9633
17458	16.429	5.7273	0.	-1362.5
17459	16.521	5.6364	0.	-1383.7
17460	16.429	5.6364	5.e-002	-4.1052
17461	16.521	5.8182	0.	-1367.2
17462	16.429	5.8182	5.e-002	-7.584
17463	16.429	5.9091	0.	-1342.1
17464	16.613	0.27273	0.	-1388.4
17465	16.706	0.18182	0.	-1388.
17466	16.613	0.18182	5.e-002	-5.7816
17467	16.613	9.0909e-002	0.	-1371.9
17468	16.613	0.45455	0.	-1407.4
17469	16.706	0.36364	0.	-1400.9
17470	16.613	0.36364	5.e-002	-2.5559
17471	16.613	0.63636	0.	-1434.1
17472	16.706	0.54545	0.	-1421.6
17473	16.613	0.54545	5.e-002	-2.634
17474	16.613	0.81818	0.	-1467.7
17475	16.706	0.72727	0.	-1448.6
17476	16.613	0.72727	5.e-002	-3.1287
17477	16.613	1.	0.	-1507.4
17478	16.706	0.90909	0.	-1481.3
17479	16.613	0.90909	5.e-002	-3.8151
17480	16.613	1.1818	0.	-1552.1
17481	16.706	1.0909	0.	-1518.9
17482	16.613	1.0909	5.e-002	-4.6533
17483	16.613	1.3636	0.	-1600.6
17484	16.706	1.2727	0.	-1560.5
17485	16.613	1.2727	5.e-002	-5.6091
17486	16.613	1.5455	0.	-1651.4
17487	16.706	1.4545	0.	-1604.7
17488	16.613	1.4545	5.e-002	-6.6408
17489	16.613	1.7273	0.	-1702.9
17490	16.706	1.6364	0.	-1650.2
17491	16.613	1.6364	5.e-002	-7.7024
17492	16.613	1.9091	0.	-1753.4
17493	16.706	1.8182	0.	-1695.5
17494	16.613	1.8182	5.e-002	-8.7522
17495	16.613	2.0909	0.	-1800.9
17496	16.706	2.	0.	-1739.1
17497	16.613	2.	5.e-002	-9.7573
17498	16.613	2.2727	0.	-1843.7
17499	16.706	2.1818	0.	-1779.2
17500	16.613	2.1818	5.e-002	-10.69
17501	16.613	2.4545	0.	-1879.5
17502	16.706	2.3636	0.	-1814.1
17503	16.613	2.3636	5.e-002	-11.516
17504	16.613	2.6364	0.	-1906.7
17505	16.706	2.5455	0.	-1842.2
17506	16.613	2.5455	5.e-002	-12.194
17507	16.613	2.8182	0.	-1923.7
17508	16.706	2.7273	0.	-1861.8
17509	16.613	2.7273	5.e-002	-12.679
17510	16.613	3.	0.	-1929.5
17511	16.706	2.9091	0.	-1871.9
17512	16.613	2.9091	5.e-002	-12.932
17513	16.613	3.1818	0.	-1923.7
17514	16.706	3.0909	0.	-1871.9
17515	16.613	3.0909	5.e-002	-12.932
17516	16.613	3.3636	0.	-1906.7
17517	16.706	3.2727	0.	-1861.8
17518	16.613	3.2727	5.e-002	-12.679
17519	16.613	3.5455	0.	-1879.5
17520	16.706	3.4545	0.	-1842.2
17521	16.613	3.4545	5.e-002	-12.194
17522	16.613	3.7273	0.	-1843.7
17523	16.706	3.6364	0.	-1814.1
17524	16.613	3.6364	5.e-002	-11.516
17525	16.613	3.9091	0.	-1800.9
17526	16.706	3.8182	0.	-1779.2
17527	16.613	3.8182	5.e-002	-10.69
17528	16.613	4.0909	0.	-1753.4
17529	16.706	4.	0.	-1739.1
17530	16.613	4.	5.e-002	-9.7573
17531	16.613	4.2727	0.	-1702.9
17532	16.706	4.1818	0.	-1695.5
17533	16.613	4.1818	5.e-002	-8.7522
17534	16.613	4.4545	0.	-1651.4
17535	16.706	4.3636	0.	-1650.2
17536	16.613	4.3636	5.e-002	-7.7024
17537	16.613	4.6364	0.	-1600.6
17538	16.706	4.5455	0.	-1604.7
17539	16.613	4.5455	5.e-002	-6.6408
17540	16.613	4.8182	0.	-1552.1
17541	16.706	4.7273	0.	-1560.5
17542	16.613	4.7273	5.e-002	-5.6091
17543	16.613	5.	0.	-1507.4
17544	16.706	4.9091	0.	-1518.9
17545	16.613	4.9091	5.e-002	-4.6533
17546	16.613	5.1818	0.	-1467.7
17547	16.706	5.0909	0.	-1481.3
17548	16.613	5.0909	5.e-002	-3.8151
17549	16.613	5.3636	0.	-1434.1
17550	16.706	5.2727	0.	-1448.6
17551	16.613	5.2727	5.e-002	-3.1287
17552	16.613	5.5455	0.	-1407.4
17553	16.706	5.4545	0.	-1421.6
17554	16.613	5.4545	5.e-002	-2.634
17555	16.613	5.7273	0.	-1388.4
17556	16.706	5.6364	0.	-1400.9
17557	16.613	5.6364	5.e-002	-2.5559
17558	16.706	5.8182	0.	-1388.
17559	16.613	5.8182	5.e-002	-5.7816
17560	16.613	5.9091	0.	-1371.9
17561	16.798	0.27273	0.	-1400.5
17562	16.89	0.18182	0.	-1395.9
17563	16.798	0.18182	5.e-002	-4.2781
17564	16.798	9.0909e-002	0.	-1387.2
17565	16.798	0.45455	0.	-1415.3
17566	16.89	0.36364	0.	-1405.8
17567	16.798	0.36364	5.e-002	-1.3668
17568	16.798	0.63636	0.	-1436.2
17569	16.89	0.54545	0.	-1421.9
17570	16.798	0.54545	5.e-002	-1.8141
17571	16.798	0.81818	0.	-1462.3
17572	16.89	0.72727	0.	-1442.9
17573	16.798	0.72727	5.e-002	-2.5611
17574	16.798	1.	0.	-1493.1
17575	16.89	0.90909	0.	-1468.2
17576	16.798	0.90909	5.e-002	-3.3876
17577	16.798	1.1818	0.	-1527.5
17578	16.89	1.0909	0.	-1497.2
17579	16.798	1.0909	5.e-002	-4.2675
17580	16.798	1.3636	0.	-1564.8
17581	16.89	1.2727	0.	-1529.1
17582	16.798	1.2727	5.e-002	-5.1827
17583	16.798	1.5455	0.	-1603.7
17584	16.89	1.4545	0.	-1562.9
17585	16.798	1.4545	5.e-002	-6.1109
17586	16.798	1.7273	0.	-1643.
17587	16.89	1.6364	0.	-1597.6
17588	16.798	1.6364	5.e-002	-7.0272
17589	16.798	1.9091	0.	-1681.4
17590	16.89	1.8182	0.	-1632.1
17591	16.798	1.8182	5.e-002	-7.9084
17592	16.798	2.0909	0.	-1717.4
17593	16.89	2.	0.	-1665.
17594	16.798	2.	5.e-002	-8.7344
17595	16.798	2.2727	0.	-1749.7
17596	16.89	2.1818	0.	-1695.3
17597	16.798	2.1818	5.e-002	-9.4862
17598	16.798	2.4545	0.	-1776.7
17599	16.89	2.3636	0.	-1721.6
17600	16.798	2.3636	5.e-002	-10.142
17601	16.798	2.6364	0.	-1797.2
17602	16.89	2.5455	0.	-1742.6
17603	16.798	2.5455	5.e-002	-10.673
17604	16.798	2.8182	0.	-1809.9
17605	16.89	2.7273	0.	-1757.4
17606	16.798	2.7273	5.e-002	-11.049
17607	16.798	3.	0.	-1814.3
17608	16.89	2.9091	0.	-1764.9
17609	16.798	2.9091	5.e-002	-11.245
17610	16.798	3.1818	0.	-1809.9
17611	16.89	3.0909	0.	-1764.9
17612	16.798	3.0909	5.e-002	-11.245
17613	16.798	3.3636	0.	-1797.2
17614	16.89	3.2727	0.	-1757.4
17615	16.798	3.2727	5.e-002	-11.049
17616	16.798	3.5455	0.	-1776.7
17617	16.89	3.4545	0.	-1742.6
17618	16.798	3.4545	5.e-002	-10.673
17619	16.798	3.7273	0.	-1749.7
17620	16.89	3.6364	0.	-1721.6
17621	16.798	3.6364	5.e-002	-10.142
17622	16.798	3.9091	0.	-1717.4
17623	16.89	3.8182	0.	-1695.3
17624	16.798	3.8182	5.e-002	-9.4862
17625	16.798	4.0909	0.	-1681.4
17626	16.89	4.	0.	-1665.
17627	16.798	4.	5.e-002	-8.7344
17628	16.798	4.2727	0.	-1643.
17629	16.89	4.1818	0.	-1632.1
17630	16.798	4.1818	5.e-002	-7.9084
17631	16.798	4.4545	0.	-1603.7
17632	16.89	4.3636	0.	-1597.6
17633	16.798	4.3636	5.e-002	-7.0272
17634	16.798	4.6364	0.	-1564.8
17635	16.89	4.5455	0.	-1562.9
17636	16.798	4.5455	5.e-002	-6.1109
17637	16.798	4.8182	0.	-1527.5
17638	16.89	4.7273	0.	-1529.1
17639	16.798	4.7273	5.e-002	-5.1827
17640	16.798	5.	0.	-1493.1
17641	16.89	4.9091	0.	-1497.2
17642	16.798	4.9091	5.e-002	-4.2675
17643	16.798	5.1818	0.	-1462.3
17644	16.89	5.0909	0.	-1468.2
17645	16.798	5.0909	5.e-002	-3.3876
17646	16.798	5.3636	0.	-1436.2
17647	16.89	5.2727	0.	-1442.9
17648	16.798	5.2727	5.e-002	-2.5611
17649	16.798	5.5455	0.	-1415.3
17650	16.89	5.4545	0.	-1421.9
17651	16.798	5.4545	5.e-002	-1.8141
17652	16.798	5.7273	0.	-1400.5
17653	16.89	5.6364	0.	-1405.8
17654	16.798	5.6364	5.e-002	-1.3668
17655	16.89	5.8182	0.	-1395.9
17656	16.798	5.8182	5.e-002	-4.2781
17657	16.798	5.9091	0.	-1387.2
17658	16.983	0.27273	0.	-1401.2
17659	17.075	0.18182	0.	-1393.3
17660	16.983	0.18182	5.e-002	-3.0459
17661	16.983	9.0909e-002	0.	-1390.6
17662	16.983	0.45455	0.	-1412.5
17663	17.075	0.36364	0.	-1400.6
17664	16.983	0.36364	5.e-002	-0.80811
17665	16.983	0.63636	0.	-1428.6
17666	17.075	0.54545	0.	-1413.
17667	16.983	0.54545	5.e-002	-1.632
17668	16.983	0.81818	0.	-1448.8
17669	17.075	0.72727	0.	-1429.
17670	16.983	0.72727	5.e-002	-2.4406
17671	16.983	1.	0.	-1472.4
17672	17.075	0.90909	0.	-1448.4
17673	16.983	0.90909	5.e-002	-3.2565
17674	16.983	1.1818	0.	-1498.8
17675	17.075	1.0909	0.	-1470.6
17676	16.983	1.0909	5.e-002	-4.0804
17677	16.983	1.3636	0.	-1527.3
17678	17.075	1.2727	0.	-1494.9
17679	16.983	1.2727	5.e-002	-4.9036
17680	16.983	1.5455	0.	-1556.9
17681	17.075	1.4545	0.	-1520.7
17682	16.983	1.4545	5.e-002	-5.7128
17683	16.983	1.7273	0.	-1586.7
17684	17.075	1.6364	0.	-1547.
17685	16.983	1.6364	5.e-002	-6.4929
17686	16.983	1.9091	0.	-1615.8
17687	17.075	1.8182	0.	-1573.
17688	16.983	1.8182	5.e-002	-7.2288
17689	16.983	2.0909	0.	-1643.
17690	17.075	2.	0.	-1597.9
17691	16.983	2.	5.e-002	-7.9073
17692	16.983	2.2727	0.	-1667.2
17693	17.075	2.1818	0.	-1620.6
17694	16.983	2.1818	5.e-002	-8.515
17695	16.983	2.4545	0.	-1687.5
17696	17.075	2.3636	0.	-1640.3
17697	16.983	2.3636	5.e-002	-9.0364
17698	16.983	2.6364	0.	-1702.8
17699	17.075	2.5455	0.	-1656.
17700	16.983	2.5455	5.e-002	-9.453
17701	16.983	2.8182	0.	-1712.3
17702	17.075	2.7273	0.	-1666.9
17703	16.983	2.7273	5.e-002	-9.7453
17704	16.983	3.	0.	-1715.5
17705	17.075	2.9091	0.	-1672.6
17706	16.983	2.9091	5.e-002	-9.8963
17707	16.983	3.1818	0.	-1712.3
17708	17.075	3.0909	0.	-1672.6
17709	16.983	3.0909	5.e-002	-9.8963
17710	16.983	3.3636	0.	-1702.8
17711	17.075	3.2727	0.	-1666.9
17712	16.983	3.2727	5.e-002	-9.7453
17713	16.983	3.5455	0.	-1687.5
17714	17.075	3.4545	0.	-1656.
17715	16.983	3.4545	5.e-002	-9.4531
17716	16.983	3.7273	0.	-1667.2
17717	17.075	3.6364	0.	-1640.3
17718	16.983	3.6364	5.e-002	-9.0364
17719	16.983	3.9091	0.	-1643.
17720	17.075	3.8182	0.	-1620.6
17721	16.983	3.8182	5.e-002	-8.515
17722	16.983	4.0909	0.	-1615.8
17723	17.075	4.	0.	-1597.9
17724	16.983	4.	5.e-002	-7.9074
17725	16.983	4.2727	0.	-1586.7
17726	17.075	4.1818	0.	-1573.
17727	16.983	4.1818	5.e-002	-7.2289
17728	16.983	4.4545	0.	-1556.9
17729	17.075	4.3636	0.	-1547.
17730	16.983	4.3636	5.e-002	-6.4929
17731	16.983	4.6364	0.	-1527.3
17732	17.075	4.5455	0.	-1520.7
17733	16.983	4.5455	5.e-002	-5.7128
17734	16.983	4.8182	0.	-1498.8
17735	17.075	4.7273	0.	-1494.9
17736	16.983	4.7273	5.e-002	-4.9036
17737	16.983	5.	0.	-1472.4
17738	17.075	4.9091	0.	-1470.6
17739	16.983	4.9091	5.e-002	-4.0804
17740	16.983	5.1818	0.	-1448.8
17741	17.075	5.0909	0.	-1448.4
17742	16.983	5.0909	5.e-002	-3.2565
17743	16.983	5.3636	0.	-1428.6
17744	17.075	5.2727	0.	-1429.
17745	16.983	5.2727	5.e-002	-2.4406
17746	16.983	5.5455	0.	-1412.5
17747	17.075	5.4545	0.	-1413.
17748	16.983	5.4545	5.e-002	-1.632
17749	16.983	5.7273	0.	-1401.2
17750	17.075	5.6364	0.	-1400.6
17751	16.983	5.6364	5.e-002	-0.80811
17752	17.075	5.8182	0.	-1393.3
17753	16.983	5.8182	5.e-002	-3.046
17754	16.983	5.9091	0.	-1390.6
17755	17.167	0.27273	0.	-1392.7
17756	17.26	0.18182	0.	-1382.2
17757	17.167	0.18182	5.e-002	-2.0521
17758	17.167	9.0909e-002	0.	-1384.3
17759	17.167	0.45455	0.	-1401.1
17760	17.26	0.36364	0.	-1387.4
17761	17.167	0.36364	5.e-002	-1.1734
17762	17.167	0.63636	0.	-1413.4
17763	17.26	0.54545	0.	-1396.6
17764	17.167	0.54545	5.e-002	-1.9164
17765	17.167	0.81818	0.	-1428.7
17766	17.26	0.72727	0.	-1408.7
17767	17.167	0.72727	5.e-002	-2.5992
17768	17.167	1.	0.	-1446.7
17769	17.26	0.90909	0.	-1423.4
17770	17.167	0.90909	5.e-002	-3.3048
17771	17.167	1.1818	0.	-1466.7
17772	17.26	1.0909	0.	-1440.2
17773	17.167	1.0909	5.e-002	-4.0188
17774	17.167	1.3636	0.	-1488.3
17775	17.26	1.2727	0.	-1458.6
17776	17.167	1.2727	5.e-002	-4.7267
17777	17.167	1.5455	0.	-1510.8
17778	17.26	1.4545	0.	-1478.
17779	17.167	1.4545	5.e-002	-5.4146
17780	17.167	1.7273	0.	-1533.3
17781	17.26	1.6364	0.	-1497.8
17782	17.167	1.6364	5.e-002	-6.0699
17783	17.167	1.9091	0.	-1555.1
17784	17.26	1.8182	0.	-1517.4
17785	17.167	1.8182	5.e-002	-6.681
17786	17.167	2.0909	0.	-1575.5
17787	17.26	2.	0.	-1536.
17788	17.167	2.	5.e-002	-7.2375
17789	17.167	2.2727	0.	-1593.6
17790	17.26	2.1818	0.	-1553.
17791	17.167	2.1818	5.e-002	-7.7294
17792	17.167	2.4545	0.	-1608.7
17793	17.26	2.3636	0.	-1567.6
17794	17.167	2.3636	5.e-002	-8.1458
17795	17.167	2.6364	0.	-1620.1
17796	17.26	2.5455	0.	-1579.3
17797	17.167	2.5455	5.e-002	-8.4744
17798	17.167	2.8182	0.	-1627.2
17799	17.26	2.7273	0.	-1587.4
17800	17.167	2.7273	5.e-002	-8.7027
17801	17.167	3.	0.	-1629.6
17802	17.26	2.9091	0.	-1591.5
17803	17.167	2.9091	5.e-002	-8.8198
17804	17.167	3.1818	0.	-1627.2
17805	17.26	3.0909	0.	-1591.5
17806	17.167	3.0909	5.e-002	-8.8198
17807	17.167	3.3636	0.	-1620.1
17808	17.26	3.2727	0.	-1587.4
17809	17.167	3.2727	5.e-002	-8.7027
17810	17.167	3.5455	0.	-1608.7
17811	17.26	3.4545	0.	-1579.3
17812	17.167	3.4545	5.e-002	-8.4744
17813	17.167	3.7273	0.	-1593.6
17814	17.26	3.6364	0.	-1567.6
17815	17.167	3.6364	5.e-002	-8.1458
17816	17.167	3.9091	0.	-1575.5
17817	17.26	3.8182	0.	-1553.
17818	17.167	3.8182	5.e-002	-7.7294
17819	17.167	4.0909	0.	-1555.1
17820	17.26	4.	0.	-1536.
17821	17.167	4.	5.e-002	-7.2375
17822	17.167	4.2727	0.	-1533.3
17823	17.26	4.1818	0.	-1517.4
17824	17.167	4.1818	5.e-002	-6.681
17825	17.167	4.4545	0.	-1510.8
17826	17.26	4.3636	0.	-1497.8
17827	17.167	4.3636	5.e-002	-6.0699
17828	17.167	4.6364	0.	-1488.3
17829	17.26	4.5455	0.	-1478.
17830	17.167	4.5455	5.e-002	-5.4147
17831	17.167	4.8182	0.	-1466.7
17832	17.26	4.7273	0.	-1458.6
17833	17.167	4.7273	5.e-002	-4.7267
17834	17.167	5.	0.	-1446.7
17835	17.26	4.9091	0.	-1440.2
17836	17.167	4.9091	5.e-002	-4.0188
17837	17.167	5.1818	0.	-1428.7
17838	17.26	5.0909	0.	-1423.4
17839	17.167	5.0909	5.e-002	-3.3048
17840	17.167	5.3636	0.	-1413.4
17841	17.26	5.2727	0.	-1408.7
17842	17.167	5.2727	5.e-002	-2.5992
17843	17.167	5.5455	0.	-1401.1
17844	17.26	5.4545	0.	-1396.6
17845	17.167	5.4545	5.e-002	-1.9165
17846	17.167	5.7273	0.	-1392.7
17847	17.26	5.6364	0.	-1387.4
17848	17.167	5.6364	5.e-002	-1.1734
17849	17.26	5.8182	0.	-1382.2
17850	17.167	5.8182	5.e-002	-2.0521
17851	17.167	5.9091	0.	-1384.3
17852	17.352	0.27273	0.	-1376.8
17853	17.444	0.18182	0.	-1364.3
17854	17.352	0.18182	5.e-002	-1.2637
17855	17.352	9.0909e-002	0.	-1370.2
17856	17.352	0.45455	0.	-1382.8
17857	17.444	0.36364	0.	-1367.6
17858	17.352	0.36364	5.e-002	-1.7496
17859	17.352	0.63636	0.	-1392.
17860	17.444	0.54545	0.	-1374.3
17861	17.352	0.54545	5.e-002	-2.3347
17862	17.352	0.81818	0.	-1403.5
17863	17.444	0.72727	0.	-1383.3
17864	17.352	0.72727	5.e-002	-2.8647
17865	17.352	1.	0.	-1417.
17866	17.444	0.90909	0.	-1394.3
17867	17.352	0.90909	5.e-002	-3.4366
17868	17.352	1.1818	0.	-1432.1
17869	17.444	1.0909	0.	-1406.9
17870	17.352	1.0909	5.e-002	-4.0277
17871	17.352	1.3636	0.	-1448.3
17872	17.444	1.2727	0.	-1420.6
17873	17.352	1.2727	5.e-002	-4.6179
17874	17.352	1.5455	0.	-1465.1
17875	17.444	1.4545	0.	-1435.1
17876	17.352	1.4545	5.e-002	-5.1914
17877	17.352	1.7273	0.	-1482.
17878	17.444	1.6364	0.	-1449.9
17879	17.352	1.6364	5.e-002	-5.7354
17880	17.352	1.9091	0.	-1498.3
17881	17.444	1.8182	0.	-1464.5
17882	17.352	1.8182	5.e-002	-6.2395
17883	17.352	2.0909	0.	-1513.5
17884	17.444	2.	0.	-1478.3
17885	17.352	2.	5.e-002	-6.6949
17886	17.352	2.2727	0.	-1526.9
17887	17.444	2.1818	0.	-1490.9
17888	17.352	2.1818	5.e-002	-7.0935
17889	17.352	2.4545	0.	-1538.1
17890	17.444	2.3636	0.	-1501.7
17891	17.352	2.3636	5.e-002	-7.4274
17892	17.352	2.6364	0.	-1546.5
17893	17.444	2.5455	0.	-1510.3
17894	17.352	2.5455	5.e-002	-7.6882
17895	17.352	2.8182	0.	-1551.7
17896	17.444	2.7273	0.	-1516.2
17897	17.352	2.7273	5.e-002	-7.8677
17898	17.352	3.	0.	-1553.5
17899	17.444	2.9091	0.	-1519.3
17900	17.352	2.9091	5.e-002	-7.9594
17901	17.352	3.1818	0.	-1551.7
17902	17.444	3.0909	0.	-1519.3
17903	17.352	3.0909	5.e-002	-7.9594
17904	17.352	3.3636	0.	-1546.5
17905	17.444	3.2727	0.	-1516.2
17906	17.352	3.2727	5.e-002	-7.8677
17907	17.352	3.5455	0.	-1538.1
17908	17.444	3.4545	0.	-1510.3
17909	17.352	3.4545	5.e-002	-7.6882
17910	17.352	3.7273	0.	-1526.9
17911	17.444	3.6364	0.	-1501.7
17912	17.352	3.6364	5.e-002	-7.4274
17913	17.352	3.9091	0.	-1513.5
17914	17.444	3.8182	0.	-1490.9
17915	17.352	3.8182	5.e-002	-7.0935
17916	17.352	4.0909	0.	-1498.3
17917	17.444	4.	0.	-1478.3
17918	17.352	4.	5.e-002	-6.6949
17919	17.352	4.2727	0.	-1482.
17920	17.444	4.1818	0.	-1464.5
17921	17.352	4.1818	5.e-002	-6.2395
17922	17.352	4.4545	0.	-1465.1
17923	17.444	4.3636	0.	-1449.9
17924	17.352	4.3636	5.e-002	-5.7354
17925	17.352	4.6364	0.	-1448.3
17926	17.444	4.5455	0.	-1435.1
17927	17.352	4.5455	5.e-002	-5.1914
17928	17.352	4.8182	0.	-1432.1
17929	17.444	4.7273	0.	-1420.6
17930	17.352	4.7273	5.e-002	-4.6179
17931	17.352	5.	0.	-1417.
17932	17.444	4.9091	0.	-1406.9
17933	17.352	4.9091	5.e-002	-4.0277
17934	17.352	5.1818	0.	-1403.5
17935	17.444	5.0909	0.	-1394.3
17936	17.352	5.0909	5.e-002	-3.4366
17937	17.352	5.3636	0.	-1392.
17938	17.444	5.2727	0.	-1383.3
17939	17.352	5.2727	5.e-002	-2.8647
17940	17.352	5.5455	0.	-1382.8
17941	17.444	5.4545	0.	-1374.3
17942	17.352	5.4545	5.e-002	-2.3347
17943	17.352	5.7273	0.	-1376.8
17944	17.444	5.6364	0.	-1367.6
17945	17.352	5.6364	5.e-002	-1.7496
17946	17.444	5.8182	0.	-1364.3
17947	17.352	5.8182	5.e-002	-1.2637
17948	17.352	5.9091	0.	-1370.2
17949	17.537	0.27273	0.	-1355.
17950	17.629	0.18182	0.	-1340.9
17951	17.537	0.18182	5.e-002	-0.65538
17952	17.537	9.0909e-002	0.	-1349.8
17953	17.537	0.45455	0.	-1359.1
17954	17.629	0.36364	0.	-1342.7
17955	17.537	0.36364	5.e-002	-2.2594
17956	17.537	0.63636	0.	-1365.7
17957	17.629	0.54545	0.	-1347.5
17958	17.537	0.54545	5.e-002	-2.7345
17959	17.537	0.81818	0.	-1374.2
17960	17.629	0.72727	0.	-1354.
17961	17.537	0.72727	5.e-002	-3.1411
17962	17.537	1.	0.	-1384.2
17963	17.629	0.90909	0.	-1362.
17964	17.537	0.90909	5.e-002	-3.5929
17965	17.537	1.1818	0.	-1395.4
17966	17.629	1.0909	0.	-1371.2
17967	17.537	1.0909	5.e-002	-4.0702
17968	17.537	1.3636	0.	-1407.4
17969	17.629	1.2727	0.	-1381.4
17970	17.537	1.2727	5.e-002	-4.5525
17971	17.537	1.5455	0.	-1419.9
17972	17.629	1.4545	0.	-1392.1
17973	17.537	1.4545	5.e-002	-5.0235
17974	17.537	1.7273	0.	-1432.4
17975	17.629	1.6364	0.	-1403.
17976	17.537	1.6364	5.e-002	-5.4706
17977	17.537	1.9091	0.	-1444.5
17978	17.629	1.8182	0.	-1413.8
17979	17.537	1.8182	5.e-002	-5.884
17980	17.537	2.0909	0.	-1455.7
17981	17.629	2.	0.	-1423.9
17982	17.537	2.	5.e-002	-6.2557
17983	17.537	2.2727	0.	-1465.6
17984	17.629	2.1818	0.	-1433.2
17985	17.537	2.1818	5.e-002	-6.5789
17986	17.537	2.4545	0.	-1473.8
17987	17.629	2.3636	0.	-1441.1
17988	17.537	2.3636	5.e-002	-6.8475
17989	17.537	2.6364	0.	-1480.
17990	17.629	2.5455	0.	-1447.3
17991	17.537	2.5455	5.e-002	-7.0557
17992	17.537	2.8182	0.	-1483.8
17993	17.629	2.7273	0.	-1451.7
17994	17.537	2.7273	5.e-002	-7.198
17995	17.537	3.	0.	-1485.1
17996	17.629	2.9091	0.	-1453.9
17997	17.537	2.9091	5.e-002	-7.2703
17998	17.537	3.1818	0.	-1483.8
17999	17.629	3.0909	0.	-1453.9
18000	17.537	3.0909	5.e-002	-7.2703
18001	17.537	3.3636	0.	-1480.
18002	17.629	3.2727	0.	-1451.7
18003	17.537	3.2727	5.e-002	-7.198
18004	17.537	3.5455	0.	-1473.8
18005	17.629	3.4545	0.	-1447.3
18006	17.537	3.4545	5.e-002	-7.0557
18007	17.537	3.7273	0.	-1465.6
18008	17.629	3.6364	0.	-1441.1
18009	17.537	3.6364	5.e-002	-6.8475
18010	17.537	3.9091	0.	-1455.7
18011	17.629	3.8182	0.	-1433.2
18012	17.537	3.8182	5.e-002	-6.5789
18013	17.537	4.0909	0.	-1444.5
18014	17.629	4.	0.	-1423.9
18015	17.537	4.	5.e-002	-6.2557
18016	17.537	4.2727	0.	-1432.4
18017	17.629	4.1818	0.	-1413.8
18018	17.537	4.1818	5.e-002	-5.884
18019	17.537	4.4545	0.	-1419.9
18020	17.629	4.3636	0.	-1403.
18021	17.537	4.3636	5.e-002	-5.4706
18022	17.537	4.6364	0.	-1407.4
18023	17.629	4.5455	0.	-1392.1
18024	17.537	4.5455	5.e-002	-5.0235
18025	17.537	4.8182	0.	-1395.4
18026	17.629	4.7273	0.	-1381.4
18027	17.537	4.7273	5.e-002	-4.5525
18028	17.537	5.	0.	-1384.2
18029	17.629	4.9091	0.	-1371.2
18030	17.537	4.9091	5.e-002	-4.0703
18031	17.537	5.1818	0.	-1374.2
18032	17.629	5.0909	0.	-1362.
18033	17.537	5.0909	5.e-002	-3.5929
18034	17.537	5.3636	0.	-1365.7
18035	17.629	5.2727	0.	-1354.
18036	17.537	5.2727	5.e-002	-3.1412
18037	17.537	5.5455	0.	-1359.1
18038	17.629	5.4545	0.	-1347.5
18039	17.537	5.4545	5.e-002	-2.7345
18040	17.537	5.7273	0.	-1355.
18041	17.629	5.6364	0.	-1342.7
18042	17.537	5.6364	5.e-002	-2.2594
18043	17.629	5.8182	0.	-1340.9
18044	17.537	5.8182	5.e-002	-0.65541
18045	17.537	5.9091	0.	-1349.8
18046	17.721	0.27273	0.	-1328.5
18047	17.814	0.18182	0.	-1313.2
18048	17.721	0.18182	5.e-002	-0.25271
18049	17.721	9.0909e-002	0.	-1324.4
18050	17.721	0.45455	0.	-1331.1
18051	17.814	0.36364	0.	-1313.8
18052	17.721	0.36364	5.e-002	-2.6761
18053	17.721	0.63636	0.	-1335.7
18054	17.814	0.54545	0.	-1316.9
18055	17.721	0.54545	5.e-002	-3.0758
18056	17.721	0.81818	0.	-1341.8
18057	17.814	0.72727	0.	-1321.5
18058	17.721	0.72727	5.e-002	-3.3898
18059	17.721	1.	0.	-1349.
18060	17.814	0.90909	0.	-1327.2
18061	17.721	0.90909	5.e-002	-3.7437
18062	17.721	1.1818	0.	-1357.2
18063	17.814	1.0909	0.	-1333.9
18064	17.721	1.0909	5.e-002	-4.1242
18065	17.721	1.3636	0.	-1366.
18066	17.814	1.2727	0.	-1341.2
18067	17.721	1.2727	5.e-002	-4.5133
18068	17.721	1.5455	0.	-1375.2
18069	17.814	1.4545	0.	-1349.
18070	17.721	1.4545	5.e-002	-4.896
18071	17.721	1.7273	0.	-1384.3
18072	17.814	1.6364	0.	-1357.
18073	17.721	1.6364	5.e-002	-5.2606
18074	17.721	1.9091	0.	-1393.2
18075	17.814	1.8182	0.	-1364.8
18076	17.721	1.8182	5.e-002	-5.5978
18077	17.721	2.0909	0.	-1401.4
18078	17.814	2.	0.	-1372.2
18079	17.721	2.	5.e-002	-5.9003
18080	17.721	2.2727	0.	-1408.6
18081	17.814	2.1818	0.	-1378.8
18082	17.721	2.1818	5.e-002	-6.1624
18083	17.721	2.4545	0.	-1414.5
18084	17.814	2.3636	0.	-1384.6
18085	17.721	2.3636	5.e-002	-6.3791
18086	17.721	2.6364	0.	-1419.
18087	17.814	2.5455	0.	-1389.1
18088	17.721	2.5455	5.e-002	-6.546
18089	17.721	2.8182	0.	-1421.8
18090	17.814	2.7273	0.	-1392.2
18091	17.721	2.7273	5.e-002	-6.6596
18092	17.721	3.	0.	-1422.7
18093	17.814	2.9091	0.	-1393.8
18094	17.721	2.9091	5.e-002	-6.7172
18095	17.721	3.1818	0.	-1421.8
18096	17.814	3.0909	0.	-1393.8
18097	17.721	3.0909	5.e-002	-6.7172
18098	17.721	3.3636	0.	-1419.
18099	17.814	3.2727	0.	-1392.2
18100	17.721	3.2727	5.e-002	-6.6596
18101	17.721	3.5455	0.	-1414.5
18102	17.814	3.4545	0.	-1389.1
18103	17.721	3.4545	5.e-002	-6.546
18104	17.721	3.7273	0.	-1408.6
18105	17.814	3.6364	0.	-1384.6
18106	17.721	3.6364	5.e-002	-6.3791
18107	17.721	3.9091	0.	-1401.4
18108	17.814	3.8182	0.	-1378.8
18109	17.721	3.8182	5.e-002	-6.1624
18110	17.721	4.0909	0.	-1393.2
18111	17.814	4.	0.	-1372.2
18112	17.721	4.	5.e-002	-5.9004
18113	17.721	4.2727	0.	-1384.3
18114	17.814	4.1818	0.	-1364.8
18115	17.721	4.1818	5.e-002	-5.5978
18116	17.721	4.4545	0.	-1375.2
18117	17.814	4.3636	0.	-1357.
18118	17.721	4.3636	5.e-002	-5.2606
18119	17.721	4.6364	0.	-1366.
18120	17.814	4.5455	0.	-1349.
18121	17.721	4.5455	5.e-002	-4.896
18122	17.721	4.8182	0.	-1357.2
18123	17.814	4.7273	0.	-1341.2
18124	17.721	4.7273	5.e-002	-4.5133
18125	17.721	5.	0.	-1349.
18126	17.814	4.9091	0.	-1333.9
18127	17.721	4.9091	5.e-002	-4.1242
18128	17.721	5.1818	0.	-1341.8
18129	17.814	5.0909	0.	-1327.2
18130	17.721	5.0909	5.e-002	-3.7437
18131	17.721	5.3636	0.	-1335.7
18132	17.814	5.2727	0.	-1321.5
18133	17.721	5.2727	5.e-002	-3.3898
18134	17.721	5.5455	0.	-1331.1
18135	17.814	5.4545	0.	-1316.9
18136	17.721	5.4545	5.e-002	-3.0759
18137	17.721	5.7273	0.	-1328.5
18138	17.814	5.6364	0.	-1313.8
18139	17.721	5.6364	5.e-002	-2.6761
18140	17.814	5.8182	0.	-1313.2
18141	17.721	5.8182	5.e-002	-0.25271
18142	17.721	5.9091	0.	-1324.4
18143	17.906	0.27273	0.	-1298.4
18144	17.998	0.18182	0.	-1282.1
18145	17.906	0.18182	5.e-002	-0.32248
18146	17.906	9.0909e-002	0.	-1295.1
18147	17.906	0.45455	0.	-1299.7
18148	17.998	0.36364	0.	-1281.7
18149	17.906	0.36364	5.e-002	-3.008
18150	17.906	0.63636	0.	-1302.7
18151	17.998	0.54545	0.	-1283.6
18152	17.906	0.54545	5.e-002	-3.3544
18153	17.906	0.81818	0.	-1306.9
18154	17.998	0.72727	0.	-1286.6
18155	17.906	0.72727	5.e-002	-3.5991
18156	17.906	1.	0.	-1312.
18157	17.998	0.90909	0.	-1290.6
18158	17.906	0.90909	5.e-002	-3.8759
18159	17.906	1.1818	0.	-1317.9
18160	17.998	1.0909	0.	-1295.2
18161	17.906	1.0909	5.e-002	-4.1774
18162	17.906	1.3636	0.	-1324.2
18163	17.998	1.2727	0.	-1300.4
18164	17.906	1.2727	5.e-002	-4.4889
18165	17.906	1.5455	0.	-1330.8
18166	17.998	1.4545	0.	-1306.
18167	17.906	1.4545	5.e-002	-4.7976
18168	17.906	1.7273	0.	-1337.4
18169	17.998	1.6364	0.	-1311.6
18170	17.906	1.6364	5.e-002	-5.0931
18171	17.906	1.9091	0.	-1343.8
18172	17.998	1.8182	0.	-1317.2
18173	17.906	1.8182	5.e-002	-5.3669
18174	17.906	2.0909	0.	-1349.7
18175	17.998	2.	0.	-1322.5
18176	17.906	2.	5.e-002	-5.6125
18177	17.906	2.2727	0.	-1354.8
18178	17.998	2.1818	0.	-1327.3
18179	17.906	2.1818	5.e-002	-5.825
18180	17.906	2.4545	0.	-1359.1
18181	17.998	2.3636	0.	-1331.3
18182	17.906	2.3636	5.e-002	-6.0001
18183	17.906	2.6364	0.	-1362.3
18184	17.998	2.5455	0.	-1334.6
18185	17.906	2.5455	5.e-002	-6.1345
18186	17.906	2.8182	0.	-1364.3
18187	17.998	2.7273	0.	-1336.8
18188	17.906	2.7273	5.e-002	-6.2257
18189	17.906	3.	0.	-1365.
18190	17.998	2.9091	0.	-1337.9
18191	17.906	2.9091	5.e-002	-6.2718
18192	17.906	3.1818	0.	-1364.3
18193	17.998	3.0909	0.	-1337.9
18194	17.906	3.0909	5.e-002	-6.2718
18195	17.906	3.3636	0.	-1362.3
18196	17.998	3.2727	0.	-1336.8
18197	17.906	3.2727	5.e-002	-6.2257
18198	17.906	3.5455	0.	-1359.1
18199	17.998	3.4545	0.	-1334.6
18200	17.906	3.4545	5.e-002	-6.1345
18201	17.906	3.7273	0.	-1354.8
18202	17.998	3.6364	0.	-1331.3
18203	17.906	3.6364	5.e-002	-6.0001
18204	17.906	3.9091	0.	-1349.7
18205	17.998	3.8182	0.	-1327.3
18206	17.906	3.8182	5.e-002	-5.825
18207	17.906	4.0909	0.	-1343.8
18208	17.998	4.	0.	-1322.5
18209	17.906	4.	5.e-002	-5.6126
18210	17.906	4.2727	0.	-1337.4
18211	17.998	4.1818	0.	-1317.2
18212	17.906	4.1818	5.e-002	-5.3669
18213	17.906	4.4545	0.	-1330.8
18214	17.998	4.3636	0.	-1311.6
18215	17.906	4.3636	5.e-002	-5.0931
18216	17.906	4.6364	0.	-1324.2
18217	17.998	4.5455	0.	-1306.
18218	17.906	4.5455	5.e-002	-4.7977
18219	17.906	4.8182	0.	-1317.9
18220	17.998	4.7273	0.	-1300.4
18221	17.906	4.7273	5.e-002	-4.489
18222	17.906	5.	0.	-1312.
18223	17.998	4.9091	0.	-1295.2
18224	17.906	4.9091	5.e-002	-4.1774
18225	17.906	5.1818	0.	-1306.9
18226	17.998	5.0909	0.	-1290.6
18227	17.906	5.0909	5.e-002	-3.876
18228	17.906	5.3636	0.	-1302.7
18229	17.998	5.2727	0.	-1286.6
18230	17.906	5.2727	5.e-002	-3.5991
18231	17.906	5.5455	0.	-1299.7
18232	17.998	5.4545	0.	-1283.6
18233	17.906	5.4545	5.e-002	-3.3544
18234	17.906	5.7273	0.	-1298.4
18235	17.998	5.6364	0.	-1281.7
18236	17.906	5.6364	5.e-002	-3.008
18237	17.998	5.8182	0.	-1282.1
18238	17.906	5.8182	5.e-002	-0.32249
18239	17.906	5.9091	0.	-1295.1
18240	18.091	0.27273	0.	-1265.4
18241	18.183	0.18182	0.	-1248.3
18242	18.091	0.18182	5.e-002	-0.56396
18243	18.091	9.0909e-002	0.	-1262.7
18244	18.091	0.45455	0.	-1265.7
18245	18.183	0.36364	0.	-1247.2
18246	18.091	0.36364	5.e-002	-3.2684
18247	18.091	0.63636	0.	-1267.5
18248	18.183	0.54545	0.	-1248.1
18249	18.091	0.54545	5.e-002	-3.5761
18250	18.091	0.81818	0.	-1270.2
18251	18.183	0.72727	0.	-1250.
18252	18.091	0.72727	5.e-002	-3.7687
18253	18.091	1.	0.	-1273.7
18254	18.183	0.90909	0.	-1252.5
18255	18.091	0.90909	5.e-002	-3.9857
18256	18.091	1.1818	0.	-1277.7
18257	18.183	1.0909	0.	-1255.6
18258	18.091	1.0909	5.e-002	-4.224
18259	18.091	1.3636	0.	-1282.2
18260	18.183	1.2727	0.	-1259.2
18261	18.091	1.2727	5.e-002	-4.4723
18262	18.091	1.5455	0.	-1286.8
18263	18.183	1.4545	0.	-1263.
18264	18.091	1.4545	5.e-002	-4.7201
18265	18.091	1.7273	0.	-1291.4
18266	18.183	1.6364	0.	-1266.9
18267	18.091	1.6364	5.e-002	-4.9584
18268	18.091	1.9091	0.	-1295.9
18269	18.183	1.8182	0.	-1270.8
18270	18.091	1.8182	5.e-002	-5.18
18271	18.091	2.0909	0.	-1300.1
18272	18.183	2.	0.	-1274.5
18273	18.091	2.	5.e-002	-5.3791
18274	18.091	2.2727	0.	-1303.8
18275	18.183	2.1818	0.	-1277.9
18276	18.091	2.1818	5.e-002	-5.5512
18277	18.091	2.4545	0.	-1306.8
18278	18.183	2.3636	0.	-1280.7
18279	18.091	2.3636	5.e-002	-5.6928
18280	18.091	2.6364	0.	-1309.
18281	18.183	2.5455	0.	-1283.
18282	18.091	2.5455	5.e-002	-5.8014
18283	18.091	2.8182	0.	-1310.4
18284	18.183	2.7273	0.	-1284.5
18285	18.091	2.7273	5.e-002	-5.8749
18286	18.091	3.	0.	-1310.9
18287	18.183	2.9091	0.	-1285.3
18288	18.091	2.9091	5.e-002	-5.912
18289	18.091	3.1818	0.	-1310.4
18290	18.183	3.0909	0.	-1285.3
18291	18.091	3.0909	5.e-002	-5.912
18292	18.091	3.3636	0.	-1309.
18293	18.183	3.2727	0.	-1284.5
18294	18.091	3.2727	5.e-002	-5.8749
18295	18.091	3.5455	0.	-1306.8
18296	18.183	3.4545	0.	-1283.
18297	18.091	3.4545	5.e-002	-5.8014
18298	18.091	3.7273	0.	-1303.8
18299	18.183	3.6364	0.	-1280.7
18300	18.091	3.6364	5.e-002	-5.6928
18301	18.091	3.9091	0.	-1300.1
18302	18.183	3.8182	0.	-1277.9
18303	18.091	3.8182	5.e-002	-5.5512
18304	18.091	4.0909	0.	-1295.9
18305	18.183	4.	0.	-1274.5
18306	18.091	4.	5.e-002	-5.3791
18307	18.091	4.2727	0.	-1291.4
18308	18.183	4.1818	0.	-1270.8
18309	18.091	4.1818	5.e-002	-5.18
18310	18.091	4.4545	0.	-1286.8
18311	18.183	4.3636	0.	-1266.9
18312	18.091	4.3636	5.e-002	-4.9585
18313	18.091	4.6364	0.	-1282.2
18314	18.183	4.5455	0.	-1263.
18315	18.091	4.5455	5.e-002	-4.7201
18316	18.091	4.8182	0.	-1277.7
18317	18.183	4.7273	0.	-1259.2
18318	18.091	4.7273	5.e-002	-4.4723
18319	18.091	5.	0.	-1273.7
18320	18.183	4.9091	0.	-1255.6
18321	18.091	4.9091	5.e-002	-4.224
18322	18.091	5.1818	0.	-1270.2
18323	18.183	5.0909	0.	-1252.5
18324	18.091	5.0909	5.e-002	-3.9857
18325	18.091	5.3636	0.	-1267.5
18326	18.183	5.2727	0.	-1250.
18327	18.091	5.2727	5.e-002	-3.7688
18328	18.091	5.5455	0.	-1265.7
18329	18.183	5.4545	0.	-1248.1
18330	18.091	5.4545	5.e-002	-3.5762
18331	18.091	5.7273	0.	-1265.4
18332	18.183	5.6364	0.	-1247.2
18333	18.091	5.6364	5.e-002	-3.2684
18334	18.183	5.8182	0.	-1248.3
18335	18.091	5.8182	5.e-002	-0.56398
18336	18.091	5.9091	0.	-1262.7
18337	18.275	0.27273	0.	-1230.1
18338	18.368	0.18182	0.	-1212.6
18339	18.275	0.18182	5.e-002	-0.76051
18340	18.275	9.0909e-002	0.	-1227.9
18341	18.275	0.45455	0.	-1229.7
18342	18.368	0.36364	0.	-1210.9
18343	18.275	0.36364	5.e-002	-3.4702
18344	18.275	0.63636	0.	-1230.6
18345	18.368	0.54545	0.	-1211.
18346	18.275	0.54545	5.e-002	-3.7495
18347	18.275	0.81818	0.	-1232.2
18348	18.368	0.72727	0.	-1211.9
18349	18.275	0.72727	5.e-002	-3.9026
18350	18.275	1.	0.	-1234.4
18351	18.368	0.90909	0.	-1213.4
18352	18.275	0.90909	5.e-002	-4.0731
18353	18.275	1.1818	0.	-1237.
18354	18.368	1.0909	0.	-1215.3
18355	18.275	1.0909	5.e-002	-4.2615
18356	18.275	1.3636	0.	-1240.
18357	18.368	1.2727	0.	-1217.6
18358	18.275	1.2727	5.e-002	-4.4591
18359	18.275	1.5455	0.	-1243.1
18360	18.368	1.4545	0.	-1220.1
18361	18.275	1.4545	5.e-002	-4.6574
18362	18.275	1.7273	0.	-1246.3
18363	18.368	1.6364	0.	-1222.8
18364	18.275	1.6364	5.e-002	-4.8491
18365	18.275	1.9091	0.	-1249.4
18366	18.368	1.8182	0.	-1225.4
18367	18.275	1.8182	5.e-002	-5.0279
18368	18.275	2.0909	0.	-1252.3
18369	18.368	2.	0.	-1227.9
18370	18.275	2.	5.e-002	-5.189
18371	18.275	2.2727	0.	-1254.8
18372	18.368	2.1818	0.	-1230.2
18373	18.275	2.1818	5.e-002	-5.3283
18374	18.275	2.4545	0.	-1256.9
18375	18.368	2.3636	0.	-1232.1
18376	18.275	2.3636	5.e-002	-5.4431
18377	18.275	2.6364	0.	-1258.4
18378	18.368	2.5455	0.	-1233.6
18379	18.275	2.5455	5.e-002	-5.531
18380	18.275	2.8182	0.	-1259.4
18381	18.368	2.7273	0.	-1234.7
18382	18.275	2.7273	5.e-002	-5.5904
18383	18.275	3.	0.	-1259.7
18384	18.368	2.9091	0.	-1235.2
18385	18.275	2.9091	5.e-002	-5.6204
18386	18.275	3.1818	0.	-1259.4
18387	18.368	3.0909	0.	-1235.2
18388	18.275	3.0909	5.e-002	-5.6204
18389	18.275	3.3636	0.	-1258.4
18390	18.368	3.2727	0.	-1234.7
18391	18.275	3.2727	5.e-002	-5.5904
18392	18.275	3.5455	0.	-1256.9
18393	18.368	3.4545	0.	-1233.6
18394	18.275	3.4545	5.e-002	-5.5309
18395	18.275	3.7273	0.	-1254.8
18396	18.368	3.6364	0.	-1232.1
18397	18.275	3.6364	5.e-002	-5.4431
18398	18.275	3.9091	0.	-1252.3
18399	18.368	3.8182	0.	-1230.2
18400	18.275	3.8182	5.e-002	-5.3283
18401	18.275	4.0909	0.	-1249.4
18402	18.368	4.	0.	-1227.9
18403	18.275	4.	5.e-002	-5.189
18404	18.275	4.2727	0.	-1246.3
18405	18.368	4.1818	0.	-1225.4
18406	18.275	4.1818	5.e-002	-5.0279
18407	18.275	4.4545	0.	-1243.1
18408	18.368	4.3636	0.	-1222.8
18409	18.275	4.3636	5.e-002	-4.8491
18410	18.275	4.6364	0.	-1240.
18411	18.368	4.5455	0.	-1220.1
18412	18.275	4.5455	5.e-002	-4.6574
18413	18.275	4.8182	0.	-1237.
18414	18.368	4.7273	0.	-1217.6
18415	18.275	4.7273	5.e-002	-4.4591
18416	18.275	5.	0.	-1234.4
18417	18.368	4.9091	0.	-1215.3
18418	18.275	4.9091	5.e-002	-4.2615
18419	18.275	5.1818	0.	-1232.2
18420	18.368	5.0909	0.	-1213.4
18421	18.275	5.0909	5.e-002	-4.0732
18422	18.275	5.3636	0.	-1230.6
18423	18.368	5.2727	0.	-1211.9
18424	18.275	5.2727	5.e-002	-3.9026
18425	18.275	5.5455	0.	-1229.7
18426	18.368	5.4545	0.	-1211.
18427	18.275	5.4545	5.e-002	-3.7495
18428	18.275	5.7273	0.	-1230.1
18429	18.368	5.6364	0.	-1210.9
18430	18.275	5.6364	5.e-002	-3.4702
18431	18.368	5.8182	0.	-1212.6
18432	18.275	5.8182	5.e-002	-0.76055
18433	18.275	5.9091	0.	-1227.9
18434	18.46	0.27273	0.	-1193.2
18435	18.552	0.18182	0.	-1175.3
18436	18.46	0.18182	5.e-002	-0.90615
18437	18.46	9.0909e-002	0.	-1191.3
18438	18.46	0.45455	0.	-1192.2
18439	18.552	0.36364	0.	-1173.1
18440	18.46	0.36364	5.e-002	-3.6247
18441	18.46	0.63636	0.	-1192.3
18442	18.552	0.54545	0.	-1172.6
18443	18.46	0.54545	5.e-002	-3.8829
18444	18.46	0.81818	0.	-1193.1
18445	18.552	0.72727	0.	-1172.8
18446	18.46	0.72727	5.e-002	-4.0059
18447	18.46	1.	0.	-1194.3
18448	18.552	0.90909	0.	-1173.5
18449	18.46	0.90909	5.e-002	-4.1404
18450	18.46	1.1818	0.	-1195.9
18451	18.552	1.0909	0.	-1174.5
18452	18.46	1.0909	5.e-002	-4.2895
18453	18.46	1.3636	0.	-1197.8
18454	18.552	1.2727	0.	-1175.9
18455	18.46	1.2727	5.e-002	-4.4467
18456	18.46	1.5455	0.	-1199.8
18457	18.552	1.4545	0.	-1177.4
18458	18.46	1.4545	5.e-002	-4.6053
18459	18.46	1.7273	0.	-1201.9
18460	18.552	1.6364	0.	-1179.1
18461	18.46	1.6364	5.e-002	-4.7592
18462	18.46	1.9091	0.	-1203.9
18463	18.552	1.8182	0.	-1180.8
18464	18.46	1.8182	5.e-002	-4.9033
18465	18.46	2.0909	0.	-1205.8
18466	18.552	2.	0.	-1182.4
18467	18.46	2.	5.e-002	-5.0335
18468	18.46	2.2727	0.	-1207.5
18469	18.552	2.1818	0.	-1183.9
18470	18.46	2.1818	5.e-002	-5.1463
18471	18.46	2.4545	0.	-1208.9
18472	18.552	2.3636	0.	-1185.2
18473	18.46	2.3636	5.e-002	-5.2393
18474	18.46	2.6364	0.	-1209.9
18475	18.552	2.5455	0.	-1186.2
18476	18.46	2.5455	5.e-002	-5.3105
18477	18.46	2.8182	0.	-1210.6
18478	18.552	2.7273	0.	-1186.8
18479	18.46	2.7273	5.e-002	-5.3587
18480	18.46	3.	0.	-1210.8
18481	18.552	2.9091	0.	-1187.2
18482	18.46	2.9091	5.e-002	-5.383
18483	18.46	3.1818	0.	-1210.6
18484	18.552	3.0909	0.	-1187.2
18485	18.46	3.0909	5.e-002	-5.383
18486	18.46	3.3636	0.	-1209.9
18487	18.552	3.2727	0.	-1186.8
18488	18.46	3.2727	5.e-002	-5.3587
18489	18.46	3.5455	0.	-1208.9
18490	18.552	3.4545	0.	-1186.2
18491	18.46	3.4545	5.e-002	-5.3105
18492	18.46	3.7273	0.	-1207.5
18493	18.552	3.6364	0.	-1185.2
18494	18.46	3.6364	5.e-002	-5.2393
18495	18.46	3.9091	0.	-1205.8
18496	18.552	3.8182	0.	-1183.9
18497	18.46	3.8182	5.e-002	-5.1463
18498	18.46	4.0909	0.	-1203.9
18499	18.552	4.	0.	-1182.4
18500	18.46	4.	5.e-002	-5.0335
18501	18.46	4.2727	0.	-1201.9
18502	18.552	4.1818	0.	-1180.8
18503	18.46	4.1818	5.e-002	-4.9033
18504	18.46	4.4545	0.	-1199.8
18505	18.552	4.3636	0.	-1179.1
18506	18.46	4.3636	5.e-002	-4.7592
18507	18.46	4.6364	0.	-1197.8
18508	18.552	4.5455	0.	-1177.4
18509	18.46	4.5455	5.e-002	-4.6053
18510	18.46	4.8182	0.	-1195.9
18511	18.552	4.7273	0.	-1175.9
18512	18.46	4.7273	5.e-002	-4.4467
18513	18.46	5.	0.	-1194.3
18514	18.552	4.9091	0.	-1174.5
18515	18.46	4.9091	5.e-002	-4.2895
18516	18.46	5.1818	0.	-1193.1
18517	18.552	5.0909	0.	-1173.5
18518	18.46	5.0909	5.e-002	-4.1405
18519	18.46	5.3636	0.	-1192.3
18520	18.552	5.2727	0.	-1172.8
18521	18.46	5.2727	5.e-002	-4.0059
18522	18.46	5.5455	0.	-1192.2
18523	18.552	5.4545	0.	-1172.6
18524	18.46	5.4545	5.e-002	-3.8829
18525	18.46	5.7273	0.	-1193.2
18526	18.552	5.6364	0.	-1173.1
18527	18.46	5.6364	5.e-002	-3.6247
18528	18.552	5.8182	0.	-1175.3
18529	18.46	5.8182	5.e-002	-0.90617
18530	18.46	5.9091	0.	-1191.3
18531	18.645	0.27273	0.	-1155.
18532	18.737	0.18182	0.	-1136.8
18533	18.645	0.18182	5.e-002	-1.0097
18534	18.645	9.0909e-002	0.	-1153.3
18535	18.645	0.45455	0.	-1153.5
18536	18.737	0.36364	0.	-1134.2
18537	18.645	0.36364	5.e-002	-3.7413
18538	18.645	0.63636	0.	-1153.1
18539	18.737	0.54545	0.	-1133.3
18540	18.645	0.54545	5.e-002	-3.9839
18541	18.645	0.81818	0.	-1153.2
18542	18.737	0.72727	0.	-1133.
18543	18.645	0.72727	5.e-002	-4.0837
18544	18.645	1.	0.	-1153.7
18545	18.737	0.90909	0.	-1133.
18546	18.645	0.90909	5.e-002	-4.1904
18547	18.645	1.1818	0.	-1154.5
18548	18.737	1.0909	0.	-1133.4
18549	18.645	1.0909	5.e-002	-4.3087
18550	18.645	1.3636	0.	-1155.6
18551	18.737	1.2727	0.	-1134.1
18552	18.645	1.2727	5.e-002	-4.4339
18553	18.645	1.5455	0.	-1156.8
18554	18.737	1.4545	0.	-1134.9
18555	18.645	1.4545	5.e-002	-4.5607
18556	18.645	1.7273	0.	-1158.
18557	18.737	1.6364	0.	-1135.9
18558	18.645	1.6364	5.e-002	-4.6842
18559	18.645	1.9091	0.	-1159.3
18560	18.737	1.8182	0.	-1136.9
18561	18.645	1.8182	5.e-002	-4.8003
18562	18.645	2.0909	0.	-1160.5
18563	18.737	2.	0.	-1137.8
18564	18.645	2.	5.e-002	-4.9055
18565	18.645	2.2727	0.	-1161.5
18566	18.737	2.1818	0.	-1138.7
18567	18.645	2.1818	5.e-002	-4.9968
18568	18.645	2.4545	0.	-1162.4
18569	18.737	2.3636	0.	-1139.5
18570	18.645	2.3636	5.e-002	-5.0722
18571	18.645	2.6364	0.	-1163.1
18572	18.737	2.5455	0.	-1140.1
18573	18.645	2.5455	5.e-002	-5.1301
18574	18.645	2.8182	0.	-1163.5
18575	18.737	2.7273	0.	-1140.5
18576	18.645	2.7273	5.e-002	-5.1692
18577	18.645	3.	0.	-1163.6
18578	18.737	2.9091	0.	-1140.8
18579	18.645	2.9091	5.e-002	-5.189
18580	18.645	3.1818	0.	-1163.5
18581	18.737	3.0909	0.	-1140.8
18582	18.645	3.0909	5.e-002	-5.189
18583	18.645	3.3636	0.	-1163.1
18584	18.737	3.2727	0.	-1140.5
18585	18.645	3.2727	5.e-002	-5.1692
18586	18.645	3.5455	0.	-1162.4
18587	18.737	3.4545	0.	-1140.1
18588	18.645	3.4545	5.e-002	-5.1301
18589	18.645	3.7273	0.	-1161.5
18590	18.737	3.6364	0.	-1139.5
18591	18.645	3.6364	5.e-002	-5.0722
18592	18.645	3.9091	0.	-1160.5
18593	18.737	3.8182	0.	-1138.7
18594	18.645	3.8182	5.e-002	-4.9968
18595	18.645	4.0909	0.	-1159.3
18596	18.737	4.	0.	-1137.8
18597	18.645	4.	5.e-002	-4.9055
18598	18.645	4.2727	0.	-1158.
18599	18.737	4.1818	0.	-1136.9
18600	18.645	4.1818	5.e-002	-4.8003
18601	18.645	4.4545	0.	-1156.8
18602	18.737	4.3636	0.	-1135.9
18603	18.645	4.3636	5.e-002	-4.6842
18604	18.645	4.6364	0.	-1155.6
18605	18.737	4.5455	0.	-1134.9
18606	18.645	4.5455	5.e-002	-4.5607
18607	18.645	4.8182	0.	-1154.5
18608	18.737	4.7273	0.	-1134.1
18609	18.645	4.7273	5.e-002	-4.4339
18610	18.645	5.	0.	-1153.7
18611	18.737	4.9091	0.	-1133.4
18612	18.645	4.9091	5.e-002	-4.3087
18613	18.645	5.1818	0.	-1153.2
18614	18.737	5.0909	0.	-1133.
18615	18.645	5.0909	5.e-002	-4.1904
18616	18.645	5.3636	0.	-1153.1
18617	18.737	5.2727	0.	-1133.
18618	18.645	5.2727	5.e-002	-4.0837
18619	18.645	5.5455	0.	-1153.5
18620	18.737	5.4545	0.	-1133.3
18621	18.645	5.4545	5.e-002	-3.9839
18622	18.645	5.7273	0.	-1155.
18623	18.737	5.6364	0.	-1134.2
18624	18.645	5.6364	5.e-002	-3.7414
18625	18.737	5.8182	0.	-1136.8
18626	18.645	5.8182	5.e-002	-1.0097
18627	18.645	5.9091	0.	-1153.3
18628	18.829	0.27273	0.	-1115.9
18629	18.922	0.18182	0.	-1097.4
18630	18.829	0.18182	5.e-002	-1.0806
18631	18.829	9.0909e-002	0.	-1114.2
18632	18.829	0.45455	0.	-1114.
18633	18.922	0.36364	0.	-1094.5
18634	18.829	0.36364	5.e-002	-3.8279
18635	18.829	0.63636	0.	-1113.2
18636	18.922	0.54545	0.	-1093.3
18637	18.829	0.54545	5.e-002	-4.0587
18638	18.829	0.81818	0.	-1112.8
18639	18.922	0.72727	0.	-1092.6
18640	18.829	0.72727	5.e-002	-4.1408
18641	18.829	1.	0.	-1112.8
18642	18.922	0.90909	0.	-1092.2
18643	18.829	0.90909	5.e-002	-4.2258
18644	18.829	1.1818	0.	-1113.
18645	18.922	1.0909	0.	-1092.2
18646	18.829	1.0909	5.e-002	-4.32
18647	18.829	1.3636	0.	-1113.4
18648	18.922	1.2727	0.	-1092.3
18649	18.829	1.2727	5.e-002	-4.42
18650	18.829	1.5455	0.	-1114.
18651	18.922	1.4545	0.	-1092.6
18652	18.829	1.4545	5.e-002	-4.5215
18653	18.829	1.7273	0.	-1114.7
18654	18.922	1.6364	0.	-1093.
18655	18.829	1.6364	5.e-002	-4.6208
18656	18.829	1.9091	0.	-1115.4
18657	18.922	1.8182	0.	-1093.5
18658	18.829	1.8182	5.e-002	-4.7144
18659	18.829	2.0909	0.	-1116.1
18660	18.922	2.	0.	-1094.
18661	18.829	2.	5.e-002	-4.7994
18662	18.829	2.2727	0.	-1116.7
18663	18.922	2.1818	0.	-1094.5
18664	18.829	2.1818	5.e-002	-4.8734
18665	18.829	2.4545	0.	-1117.2
18666	18.922	2.3636	0.	-1094.9
18667	18.829	2.3636	5.e-002	-4.9346
18668	18.829	2.6364	0.	-1117.6
18669	18.922	2.5455	0.	-1095.3
18670	18.829	2.5455	5.e-002	-4.9817
18671	18.829	2.8182	0.	-1117.8
18672	18.922	2.7273	0.	-1095.5
18673	18.829	2.7273	5.e-002	-5.0135
18674	18.829	3.	0.	-1117.9
18675	18.922	2.9091	0.	-1095.6
18676	18.829	2.9091	5.e-002	-5.0296
18677	18.829	3.1818	0.	-1117.8
18678	18.922	3.0909	0.	-1095.6
18679	18.829	3.0909	5.e-002	-5.0296
18680	18.829	3.3636	0.	-1117.6
18681	18.922	3.2727	0.	-1095.5
18682	18.829	3.2727	5.e-002	-5.0135
18683	18.829	3.5455	0.	-1117.2
18684	18.922	3.4545	0.	-1095.3
18685	18.829	3.4545	5.e-002	-4.9817
18686	18.829	3.7273	0.	-1116.7
18687	18.922	3.6364	0.	-1094.9
18688	18.829	3.6364	5.e-002	-4.9346
18689	18.829	3.9091	0.	-1116.1
18690	18.922	3.8182	0.	-1094.5
18691	18.829	3.8182	5.e-002	-4.8734
18692	18.829	4.0909	0.	-1115.4
18693	18.922	4.	0.	-1094.
18694	18.829	4.	5.e-002	-4.7994
18695	18.829	4.2727	0.	-1114.7
18696	18.922	4.1818	0.	-1093.5
18697	18.829	4.1818	5.e-002	-4.7144
18698	18.829	4.4545	0.	-1114.
18699	18.922	4.3636	0.	-1093.
18700	18.829	4.3636	5.e-002	-4.6208
18701	18.829	4.6364	0.	-1113.4
18702	18.922	4.5455	0.	-1092.6
18703	18.829	4.5455	5.e-002	-4.5215
18704	18.829	4.8182	0.	-1113.
18705	18.922	4.7273	0.	-1092.3
18706	18.829	4.7273	5.e-002	-4.42
18707	18.829	5.	0.	-1112.8
18708	18.922	4.9091	0.	-1092.2
18709	18.829	4.9091	5.e-002	-4.3201
18710	18.829	5.1818	0.	-1112.8
18711	18.922	5.0909	0.	-1092.2
18712	18.829	5.0909	5.e-002	-4.2258
18713	18.829	5.3636	0.	-1113.2
18714	18.922	5.2727	0.	-1092.6
18715	18.829	5.2727	5.e-002	-4.1408
18716	18.829	5.5455	0.	-1114.
18717	18.922	5.4545	0.	-1093.3
18718	18.829	5.4545	5.e-002	-4.0587
18719	18.829	5.7273	0.	-1115.9
18720	18.922	5.6364	0.	-1094.5
18721	18.829	5.6364	5.e-002	-3.8279
18722	18.922	5.8182	0.	-1097.4
18723	18.829	5.8182	5.e-002	-1.0806
18724	18.829	5.9091	0.	-1114.2
18725	19.014	0.27273	0.	-1076.
18726	19.106	0.18182	0.	-1057.5
18727	19.014	0.18182	5.e-002	-1.1269
18728	19.014	9.0909e-002	0.	-1074.3
18729	19.014	0.45455	0.	-1073.9
18730	19.106	0.36364	0.	-1054.3
18731	19.014	0.36364	5.e-002	-3.8908
18732	19.014	0.63636	0.	-1072.8
18733	19.106	0.54545	0.	-1052.9
18734	19.014	0.54545	5.e-002	-4.1128
18735	19.014	0.81818	0.	-1072.
18736	19.106	0.72727	0.	-1051.9
18737	19.014	0.72727	5.e-002	-4.1812
18738	19.014	1.	0.	-1071.6
18739	19.106	0.90909	0.	-1051.2
18740	19.014	0.90909	5.e-002	-4.2494
18741	19.014	1.1818	0.	-1071.4
18742	19.106	1.0909	0.	-1050.8
18743	19.014	1.0909	5.e-002	-4.3248
18744	19.014	1.3636	0.	-1071.4
18745	19.106	1.2727	0.	-1050.5
18746	19.014	1.2727	5.e-002	-4.4049
18747	19.014	1.5455	0.	-1071.6
18748	19.106	1.4545	0.	-1050.5
18749	19.014	1.4545	5.e-002	-4.4864
18750	19.014	1.7273	0.	-1071.8
18751	19.106	1.6364	0.	-1050.5
18752	19.014	1.6364	5.e-002	-4.5663
18753	19.014	1.9091	0.	-1072.1
18754	19.106	1.8182	0.	-1050.6
18755	19.014	1.8182	5.e-002	-4.6419
18756	19.014	2.0909	0.	-1072.4
18757	19.106	2.	0.	-1050.8
18758	19.014	2.	5.e-002	-4.7107
18759	19.014	2.2727	0.	-1072.7
18760	19.106	2.1818	0.	-1051.
18761	19.014	2.1818	5.e-002	-4.7708
18762	19.014	2.4545	0.	-1073.
18763	19.106	2.3636	0.	-1051.2
18764	19.014	2.3636	5.e-002	-4.8206
18765	19.014	2.6364	0.	-1073.2
18766	19.106	2.5455	0.	-1051.3
18767	19.014	2.5455	5.e-002	-4.8589
18768	19.014	2.8182	0.	-1073.3
18769	19.106	2.7273	0.	-1051.4
18770	19.014	2.7273	5.e-002	-4.8849
18771	19.014	3.	0.	-1073.3
18772	19.106	2.9091	0.	-1051.5
18773	19.014	2.9091	5.e-002	-4.898
18774	19.014	3.1818	0.	-1073.3
18775	19.106	3.0909	0.	-1051.5
18776	19.014	3.0909	5.e-002	-4.898
18777	19.014	3.3636	0.	-1073.2
18778	19.106	3.2727	0.	-1051.4
18779	19.014	3.2727	5.e-002	-4.8849
18780	19.014	3.5455	0.	-1073.
18781	19.106	3.4545	0.	-1051.3
18782	19.014	3.4545	5.e-002	-4.8589
18783	19.014	3.7273	0.	-1072.7
18784	19.106	3.6364	0.	-1051.2
18785	19.014	3.6364	5.e-002	-4.8206
18786	19.014	3.9091	0.	-1072.4
18787	19.106	3.8182	0.	-1051.
18788	19.014	3.8182	5.e-002	-4.7708
18789	19.014	4.0909	0.	-1072.1
18790	19.106	4.	0.	-1050.8
18791	19.014	4.	5.e-002	-4.7107
18792	19.014	4.2727	0.	-1071.8
18793	19.106	4.1818	0.	-1050.6
18794	19.014	4.1818	5.e-002	-4.6419
18795	19.014	4.4545	0.	-1071.6
18796	19.106	4.3636	0.	-1050.5
18797	19.014	4.3636	5.e-002	-4.5663
18798	19.014	4.6364	0.	-1071.4
18799	19.106	4.5455	0.	-1050.5
18800	19.014	4.5455	5.e-002	-4.4864
18801	19.014	4.8182	0.	-1071.4
18802	19.106	4.7273	0.	-1050.5
18803	19.014	4.7273	5.e-002	-4.4049
18804	19.014	5.	0.	-1071.6
18805	19.106	4.9091	0.	-1050.8
18806	19.014	4.9091	5.e-002	-4.3248
18807	19.014	5.1818	0.	-1072.
18808	19.106	5.0909	0.	-1051.2
18809	19.014	5.0909	5.e-002	-4.2494
18810	19.014	5.3636	0.	-1072.8
18811	19.106	5.2727	0.	-1051.9
18812	19.014	5.2727	5.e-002	-4.1812
18813	19.014	5.5455	0.	-1073.9
18814	19.106	5.4545	0.	-1052.9
18815	19.014	5.4545	5.e-002	-4.1129
18816	19.014	5.7273	0.	-1076.
18817	19.106	5.6364	0.	-1054.3
18818	19.014	5.6364	5.e-002	-3.8908
18819	19.106	5.8182	0.	-1057.5
18820	19.014	5.8182	5.e-002	-1.1269
18821	19.014	5.9091	0.	-1074.3
18822	19.199	0.27273	0.	-1035.7
18823	19.291	0.18182	0.	-1017.
18824	19.199	0.18182	5.e-002	-1.1555
18825	19.199	9.0909e-002	0.	-1033.9
18826	19.199	0.45455	0.	-1033.3
18827	19.291	0.36364	0.	-1013.7
18828	19.199	0.36364	5.e-002	-3.9351
18829	19.199	0.63636	0.	-1032.
18830	19.291	0.54545	0.	-1012.1
18831	19.199	0.54545	5.e-002	-4.1506
18832	19.199	0.81818	0.	-1031.
18833	19.291	0.72727	0.	-1010.9
18834	19.199	0.72727	5.e-002	-4.2083
18835	19.199	1.	0.	-1030.3
18836	19.291	0.90909	0.	-1010.
18837	19.199	0.90909	5.e-002	-4.2635
18838	19.199	1.1818	0.	-1029.9
18839	19.291	1.0909	0.	-1009.3
18840	19.199	1.0909	5.e-002	-4.3242
18841	19.199	1.3636	0.	-1029.6
18842	19.291	1.2727	0.	-1008.9
18843	19.199	1.2727	5.e-002	-4.3887
18844	19.199	1.5455	0.	-1029.4
18845	19.291	1.4545	0.	-1008.5
18846	19.199	1.4545	5.e-002	-4.4544
18847	19.199	1.7273	0.	-1029.3
18848	19.291	1.6364	0.	-1008.3
18849	19.199	1.6364	5.e-002	-4.519
18850	19.199	1.9091	0.	-1029.3
18851	19.291	1.8182	0.	-1008.2
18852	19.199	1.8182	5.e-002	-4.5802
18853	19.199	2.0909	0.	-1029.4
18854	19.291	2.	0.	-1008.2
18855	19.199	2.	5.e-002	-4.636
18856	19.199	2.2727	0.	-1029.5
18857	19.291	2.1818	0.	-1008.1
18858	19.199	2.1818	5.e-002	-4.6849
18859	19.199	2.4545	0.	-1029.5
18860	19.291	2.3636	0.	-1008.1
18861	19.199	2.3636	5.e-002	-4.7255
18862	19.199	2.6364	0.	-1029.6
18863	19.291	2.5455	0.	-1008.2
18864	19.199	2.5455	5.e-002	-4.7568
18865	19.199	2.8182	0.	-1029.6
18866	19.291	2.7273	0.	-1008.2
18867	19.199	2.7273	5.e-002	-4.778
18868	19.199	3.	0.	-1029.6
18869	19.291	2.9091	0.	-1008.2
18870	19.199	2.9091	5.e-002	-4.7888
18871	19.199	3.1818	0.	-1029.6
18872	19.291	3.0909	0.	-1008.2
18873	19.199	3.0909	5.e-002	-4.7888
18874	19.199	3.3636	0.	-1029.6
18875	19.291	3.2727	0.	-1008.2
18876	19.199	3.2727	5.e-002	-4.778
18877	19.199	3.5455	0.	-1029.5
18878	19.291	3.4545	0.	-1008.2
18879	19.199	3.4545	5.e-002	-4.7568
18880	19.199	3.7273	0.	-1029.5
18881	19.291	3.6364	0.	-1008.1
18882	19.199	3.6364	5.e-002	-4.7255
18883	19.199	3.9091	0.	-1029.4
18884	19.291	3.8182	0.	-1008.1
18885	19.199	3.8182	5.e-002	-4.6849
18886	19.199	4.0909	0.	-1029.3
18887	19.291	4.	0.	-1008.2
18888	19.199	4.	5.e-002	-4.636
18889	19.199	4.2727	0.	-1029.3
18890	19.291	4.1818	0.	-1008.2
18891	19.199	4.1818	5.e-002	-4.5802
18892	19.199	4.4545	0.	-1029.4
18893	19.291	4.3636	0.	-1008.3
18894	19.199	4.3636	5.e-002	-4.519
18895	19.199	4.6364	0.	-1029.6
18896	19.291	4.5455	0.	-1008.5
18897	19.199	4.5455	5.e-002	-4.4544
18898	19.199	4.8182	0.	-1029.9
18899	19.291	4.7273	0.	-1008.9
18900	19.199	4.7273	5.e-002	-4.3887
18901	19.199	5.	0.	-1030.3
18902	19.291	4.9091	0.	-1009.3
18903	19.199	4.9091	5.e-002	-4.3243
18904	19.199	5.1818	0.	-1031.
18905	19.291	5.0909	0.	-1010.
18906	19.199	5.0909	5.e-002	-4.2635
18907	19.199	5.3636	0.	-1032.
18908	19.291	5.2727	0.	-1010.9
18909	19.199	5.2727	5.e-002	-4.2083
18910	19.199	5.5455	0.	-1033.3
18911	19.291	5.4545	0.	-1012.1
18912	19.199	5.4545	5.e-002	-4.1506
18913	19.199	5.7273	0.	-1035.7
18914	19.291	5.6364	0.	-1013.7
18915	19.199	5.6364	5.e-002	-3.9351
18916	19.291	5.8182	0.	-1017.
18917	19.199	5.8182	5.e-002	-1.1555
18918	19.199	5.9091	0.	-1033.9
18919	19.383	0.27273	0.	-994.95
18920	19.476	0.18182	0.	-976.27
18921	19.383	0.18182	5.e-002	-1.172
18922	19.383	9.0909e-002	0.	-993.11
18923	19.383	0.45455	0.	-992.47
18924	19.476	0.36364	0.	-972.83
18925	19.383	0.36364	5.e-002	-3.9651
18926	19.383	0.63636	0.	-991.01
18927	19.476	0.54545	0.	-971.13
18928	19.383	0.54545	5.e-002	-4.1755
18929	19.383	0.81818	0.	-989.88
18930	19.476	0.72727	0.	-969.82
18931	19.383	0.72727	5.e-002	-4.2251
18932	19.383	1.	0.	-989.
18933	19.476	0.90909	0.	-968.77
18934	19.383	0.90909	5.e-002	-4.2701
18935	19.383	1.1818	0.	-988.33
18936	19.476	1.0909	0.	-967.95
18937	19.383	1.0909	5.e-002	-4.3194
18938	19.383	1.3636	0.	-987.83
18939	19.476	1.2727	0.	-967.31
18940	19.383	1.2727	5.e-002	-4.3716
18941	19.383	1.5455	0.	-987.46
18942	19.476	1.4545	0.	-966.81
18943	19.383	1.4545	5.e-002	-4.4249
18944	19.383	1.7273	0.	-987.2
18945	19.476	1.6364	0.	-966.44
18946	19.383	1.6364	5.e-002	-4.4773
18947	19.383	1.9091	0.	-987.02
18948	19.476	1.8182	0.	-966.16
18949	19.383	1.8182	5.e-002	-4.527
18950	19.383	2.0909	0.	-986.9
18951	19.476	2.	0.	-965.96
18952	19.383	2.	5.e-002	-4.5725
18953	19.383	2.2727	0.	-986.82
18954	19.476	2.1818	0.	-965.81
18955	19.383	2.1818	5.e-002	-4.6125
18956	19.383	2.4545	0.	-986.77
18957	19.476	2.3636	0.	-965.71
18958	19.383	2.3636	5.e-002	-4.6457
18959	19.383	2.6364	0.	-986.74
18960	19.476	2.5455	0.	-965.64
18961	19.383	2.5455	5.e-002	-4.6713
18962	19.383	2.8182	0.	-986.73
18963	19.476	2.7273	0.	-965.59
18964	19.383	2.7273	5.e-002	-4.6887
18965	19.383	3.	0.	-986.72
18966	19.476	2.9091	0.	-965.57
18967	19.383	2.9091	5.e-002	-4.6975
18968	19.383	3.1818	0.	-986.73
18969	19.476	3.0909	0.	-965.57
18970	19.383	3.0909	5.e-002	-4.6975
18971	19.383	3.3636	0.	-986.74
18972	19.476	3.2727	0.	-965.59
18973	19.383	3.2727	5.e-002	-4.6887
18974	19.383	3.5455	0.	-986.77
18975	19.476	3.4545	0.	-965.64
18976	19.383	3.4545	5.e-002	-4.6713
18977	19.383	3.7273	0.	-986.82
18978	19.476	3.6364	0.	-965.71
18979	19.383	3.6364	5.e-002	-4.6457
18980	19.383	3.9091	0.	-986.9
18981	19.476	3.8182	0.	-965.81
18982	19.383	3.8182	5.e-002	-4.6125
18983	19.383	4.0909	0.	-987.02
18984	19.476	4.	0.	-965.96
18985	19.383	4.	5.e-002	-4.5726
18986	19.383	4.2727	0.	-987.2
18987	19.476	4.1818	0.	-966.16
18988	19.383	4.1818	5.e-002	-4.527
18989	19.383	4.4545	0.	-987.46
18990	19.476	4.3636	0.	-966.44
18991	19.383	4.3636	5.e-002	-4.4773
18992	19.383	4.6364	0.	-987.83
18993	19.476	4.5455	0.	-966.81
18994	19.383	4.5455	5.e-002	-4.4249
18995	19.383	4.8182	0.	-988.33
18996	19.476	4.7273	0.	-967.31
18997	19.383	4.7273	5.e-002	-4.3716
18998	19.383	5.	0.	-989.
18999	19.476	4.9091	0.	-967.95
19000	19.383	4.9091	5.e-002	-4.3194
19001	19.383	5.1818	0.	-989.88
19002	19.476	5.0909	0.	-968.77
19003	19.383	5.0909	5.e-002	-4.2701
19004	19.383	5.3636	0.	-991.01
19005	19.476	5.2727	0.	-969.82
19006	19.383	5.2727	5.e-002	-4.2251
19007	19.383	5.5455	0.	-992.47
19008	19.476	5.4545	0.	-971.13
19009	19.383	5.4545	5.e-002	-4.1756
19010	19.383	5.7273	0.	-994.95
19011	19.476	5.6364	0.	-972.83
19012	19.383	5.6364	5.e-002	-3.9651
19013	19.476	5.8182	0.	-976.27
19014	19.383	5.8182	5.e-002	-1.172
19015	19.383	5.9091	0.	-993.11
19016	19.568	0.27273	0.	-954.02
19017	19.66	0.18182	0.	-935.33
19018	19.568	0.18182	5.e-002	-1.1811
19019	19.568	9.0909e-002	0.	-952.04
19020	19.568	0.45455	0.	-951.45
19021	19.66	0.36364	0.	-931.79
19022	19.568	0.36364	5.e-002	-3.9839
19023	19.568	0.63636	0.	-949.91
19024	19.66	0.54545	0.	-930.04
19025	19.568	0.54545	5.e-002	-4.1905
19026	19.568	0.81818	0.	-948.68
19027	19.66	0.72727	0.	-928.66
19028	19.568	0.72727	5.e-002	-4.2337
19029	19.568	1.	0.	-947.69
19030	19.66	0.90909	0.	-927.53
19031	19.568	0.90909	5.e-002	-4.2709
19032	19.568	1.1818	0.	-946.9
19033	19.66	1.0909	0.	-926.62
19034	19.568	1.0909	5.e-002	-4.3113
19035	19.568	1.3636	0.	-946.27
19036	19.66	1.2727	0.	-925.88
19037	19.568	1.2727	5.e-002	-4.3539
19038	19.568	1.5455	0.	-945.77
19039	19.66	1.4545	0.	-925.29
19040	19.568	1.4545	5.e-002	-4.3974
19041	19.568	1.7273	0.	-945.39
19042	19.66	1.6364	0.	-924.82
19043	19.568	1.6364	5.e-002	-4.4402
19044	19.568	1.9091	0.	-945.09
19045	19.66	1.8182	0.	-924.45
19046	19.568	1.8182	5.e-002	-4.4809
19047	19.568	2.0909	0.	-944.86
19048	19.66	2.	0.	-924.16
19049	19.568	2.	5.e-002	-4.5182
19050	19.568	2.2727	0.	-944.69
19051	19.66	2.1818	0.	-923.93
19052	19.568	2.1818	5.e-002	-4.5509
19053	19.568	2.4545	0.	-944.57
19054	19.66	2.3636	0.	-923.76
19055	19.568	2.3636	5.e-002	-4.5782
19056	19.568	2.6364	0.	-944.48
19057	19.66	2.5455	0.	-923.64
19058	19.568	2.5455	5.e-002	-4.5993
19059	19.568	2.8182	0.	-944.43
19060	19.66	2.7273	0.	-923.57
19061	19.568	2.7273	5.e-002	-4.6137
19062	19.568	3.	0.	-944.42
19063	19.66	2.9091	0.	-923.53
19064	19.568	2.9091	5.e-002	-4.6209
19065	19.568	3.1818	0.	-944.43
19066	19.66	3.0909	0.	-923.53
19067	19.568	3.0909	5.e-002	-4.6209
19068	19.568	3.3636	0.	-944.48
19069	19.66	3.2727	0.	-923.57
19070	19.568	3.2727	5.e-002	-4.6137
19071	19.568	3.5455	0.	-944.57
19072	19.66	3.4545	0.	-923.64
19073	19.568	3.4545	5.e-002	-4.5993
19074	19.568	3.7273	0.	-944.69
19075	19.66	3.6364	0.	-923.76
19076	19.568	3.6364	5.e-002	-4.5782
19077	19.568	3.9091	0.	-944.86
19078	19.66	3.8182	0.	-923.93
19079	19.568	3.8182	5.e-002	-4.5509
19080	19.568	4.0909	0.	-945.09
19081	19.66	4.	0.	-924.16
19082	19.568	4.	5.e-002	-4.5182
19083	19.568	4.2727	0.	-945.39
19084	19.66	4.1818	0.	-924.45
19085	19.568	4.1818	5.e-002	-4.4809
19086	19.568	4.4545	0.	-945.77
19087	19.66	4.3636	0.	-924.82
19088	19.568	4.3636	5.e-002	-4.4402
19089	19.568	4.6364	0.	-946.27
19090	19.66	4.5455	0.	-925.29
19091	19.568	4.5455	5.e-002	-4.3974
19092	19.568	4.8182	0.	-946.9
19093	19.66	4.7273	0.	-925.88
19094	19.568	4.7273	5.e-002	-4.3539
19095	19.568	5.	0.	-947.69
19096	19.66	4.9091	0.	-926.62
19097	19.568	4.9091	5.e-002	-4.3113
19098	19.568	5.1818	0.	-948.68
19099	19.66	5.0909	0.	-927.53
19100	19.568	5.0909	5.e-002	-4.2709
19101	19.568	5.3636	0.	-949.91
19102	19.66	5.2727	0.	-928.66
19103	19.568	5.2727	5.e-002	-4.2337
19104	19.568	5.5455	0.	-951.45
19105	19.66	5.4545	0.	-930.04
19106	19.568	5.4545	5.e-002	-4.1905
19107	19.568	5.7273	0.	-954.02
19108	19.66	5.6364	0.	-931.79
19109	19.568	5.6364	5.e-002	-3.984
19110	19.66	5.8182	0.	-935.33
19111	19.568	5.8182	5.e-002	-1.1811
19112	19.568	5.9091	0.	-952.04
19113	19.753	0.27273	0.	-912.96
19114	19.845	0.18182	0.	-894.28
19115	19.753	0.18182	5.e-002	-1.1864
19116	19.753	9.0909e-002	0.	-910.8
19117	19.753	0.45455	0.	-910.33
19118	19.845	0.36364	0.	-890.66
19119	19.753	0.36364	5.e-002	-3.9944
19120	19.753	0.63636	0.	-908.75
19121	19.845	0.54545	0.	-888.89
19122	19.753	0.54545	5.e-002	-4.1979
19123	19.753	0.81818	0.	-907.48
19124	19.845	0.72727	0.	-887.49
19125	19.753	0.72727	5.e-002	-4.2362
19126	19.753	1.	0.	-906.43
19127	19.845	0.90909	0.	-886.34
19128	19.753	0.90909	5.e-002	-4.2673
19129	19.753	1.1818	0.	-905.58
19130	19.845	1.0909	0.	-885.38
19131	19.753	1.0909	5.e-002	-4.3007
19132	19.753	1.3636	0.	-904.88
19133	19.845	1.2727	0.	-884.61
19134	19.753	1.2727	5.e-002	-4.3359
19135	19.753	1.5455	0.	-904.32
19136	19.845	1.4545	0.	-883.97
19137	19.753	1.4545	5.e-002	-4.3717
19138	19.753	1.7273	0.	-903.86
19139	19.845	1.6364	0.	-883.45
19140	19.753	1.6364	5.e-002	-4.4069
19141	19.753	1.9091	0.	-903.5
19142	19.845	1.8182	0.	-883.04
19143	19.753	1.8182	5.e-002	-4.4405
19144	19.753	2.0909	0.	-903.22
19145	19.845	2.	0.	-882.71
19146	19.753	2.	5.e-002	-4.4712
19147	19.753	2.2727	0.	-903.
19148	19.845	2.1818	0.	-882.44
19149	19.753	2.1818	5.e-002	-4.4983
19150	19.753	2.4545	0.	-902.83
19151	19.845	2.3636	0.	-882.24
19152	19.753	2.3636	5.e-002	-4.5209
19153	19.753	2.6364	0.	-902.72
19154	19.845	2.5455	0.	-882.1
19155	19.753	2.5455	5.e-002	-4.5383
19156	19.753	2.8182	0.	-902.65
19157	19.845	2.7273	0.	-882.
19158	19.753	2.7273	5.e-002	-4.5502
19159	19.753	3.	0.	-902.63
19160	19.845	2.9091	0.	-881.96
19161	19.753	2.9091	5.e-002	-4.5563
19162	19.753	3.1818	0.	-902.65
19163	19.845	3.0909	0.	-881.96
19164	19.753	3.0909	5.e-002	-4.5563
19165	19.753	3.3636	0.	-902.72
19166	19.845	3.2727	0.	-882.
19167	19.753	3.2727	5.e-002	-4.5502
19168	19.753	3.5455	0.	-902.83
19169	19.845	3.4545	0.	-882.1
19170	19.753	3.4545	5.e-002	-4.5383
19171	19.753	3.7273	0.	-903.
19172	19.845	3.6364	0.	-882.24
19173	19.753	3.6364	5.e-002	-4.5209
19174	19.753	3.9091	0.	-903.22
19175	19.845	3.8182	0.	-882.44
19176	19.753	3.8182	5.e-002	-4.4983
19177	19.753	4.0909	0.	-903.5
19178	19.845	4.	0.	-882.71
19179	19.753	4.	5.e-002	-4.4712
19180	19.753	4.2727	0.	-903.86
19181	19.845	4.1818	0.	-883.04
19182	19.753	4.1818	5.e-002	-4.4405
19183	19.753	4.4545	0.	-904.32
19184	19.845	4.3636	0.	-883.46
19185	19.753	4.3636	5.e-002	-4.4069
19186	19.753	4.6364	0.	-904.88
19187	19.845	4.5455	0.	-883.97
19188	19.753	4.5455	5.e-002	-4.3717
19189	19.753	4.8182	0.	-905.58
19190	19.845	4.7273	0.	-884.61
19191	19.753	4.7273	5.e-002	-4.3359
19192	19.753	5.	0.	-906.43
19193	19.845	4.9091	0.	-885.38
19194	19.753	4.9091	5.e-002	-4.3007
19195	19.753	5.1818	0.	-907.48
19196	19.845	5.0909	0.	-886.34
19197	19.753	5.0909	5.e-002	-4.2673
19198	19.753	5.3636	0.	-908.75
19199	19.845	5.2727	0.	-887.49
19200	19.753	5.2727	5.e-002	-4.2362
19201	19.753	5.5455	0.	-910.33
19202	19.845	5.4545	0.	-888.9
19203	19.753	5.4545	5.e-002	-4.1979
19204	19.753	5.7273	0.	-912.96
19205	19.845	5.6364	0.	-890.66
19206	19.753	5.6364	5.e-002	-3.9945
19207	19.845	5.8182	0.	-894.29
19208	19.753	5.8182	5.e-002	-1.1864
19209	19.753	5.9091	0.	-910.81
19210	19.937	0.27273	0.	-871.85
19211	20.03	0.18182	0.	-853.19
19212	19.937	0.18182	5.e-002	-1.1911
19213	19.937	9.0909e-002	0.	-869.49
19214	19.937	0.45455	0.	-869.18
19215	20.03	0.36364	0.	-849.52
19216	19.937	0.36364	5.e-002	-3.9987
19217	19.937	0.63636	0.	-867.6
19218	20.03	0.54545	0.	-847.76
19219	19.937	0.54545	5.e-002	-4.1994
19220	19.937	0.81818	0.	-866.32
19221	20.03	0.72727	0.	-846.37
19222	19.937	0.72727	5.e-002	-4.234
19223	19.937	1.	0.	-865.26
19224	20.03	0.90909	0.	-845.22
19225	19.937	0.90909	5.e-002	-4.2604
19226	19.937	1.1818	0.	-864.39
19227	20.03	1.0909	0.	-844.27
19228	19.937	1.0909	5.e-002	-4.2885
19229	19.937	1.3636	0.	-863.67
19230	20.03	1.2727	0.	-843.49
19231	19.937	1.2727	5.e-002	-4.3178
19232	19.937	1.5455	0.	-863.09
19233	20.03	1.4545	0.	-842.85
19234	19.937	1.4545	5.e-002	-4.3476
19235	19.937	1.7273	0.	-862.61
19236	20.03	1.6364	0.	-842.33
19237	19.937	1.6364	5.e-002	-4.377
19238	19.937	1.9091	0.	-862.23
19239	20.03	1.8182	0.	-841.91
19240	19.937	1.8182	5.e-002	-4.4049
19241	19.937	2.0909	0.	-861.92
19242	20.03	2.	0.	-841.57
19243	19.937	2.	5.e-002	-4.4305
19244	19.937	2.2727	0.	-861.68
19245	20.03	2.1818	0.	-841.3
19246	19.937	2.1818	5.e-002	-4.453
19247	19.937	2.4545	0.	-861.5
19248	20.03	2.3636	0.	-841.09
19249	19.937	2.3636	5.e-002	-4.4718
19250	19.937	2.6364	0.	-861.37
19251	20.03	2.5455	0.	-840.94
19252	19.937	2.5455	5.e-002	-4.4864
19253	19.937	2.8182	0.	-861.3
19254	20.03	2.7273	0.	-840.84
19255	19.937	2.7273	5.e-002	-4.4964
19256	19.937	3.	0.	-861.27
19257	20.03	2.9091	0.	-840.79
19258	19.937	2.9091	5.e-002	-4.5014
19259	19.937	3.1818	0.	-861.3
19260	20.03	3.0909	0.	-840.79
19261	19.937	3.0909	5.e-002	-4.5014
19262	19.937	3.3636	0.	-861.37
19263	20.03	3.2727	0.	-840.84
19264	19.937	3.2727	5.e-002	-4.4964
19265	19.937	3.5455	0.	-861.5
19266	20.03	3.4545	0.	-840.94
19267	19.937	3.4545	5.e-002	-4.4864
19268	19.937	3.7273	0.	-861.68
19269	20.03	3.6364	0.	-841.09
19270	19.937	3.6364	5.e-002	-4.4718
19271	19.937	3.9091	0.	-861.92
19272	20.03	3.8182	0.	-841.3
19273	19.937	3.8182	5.e-002	-4.453
19274	19.937	4.0909	0.	-862.23
19275	20.03	4.	0.	-841.57
19276	19.937	4.	5.e-002	-4.4305
19277	19.937	4.2727	0.	-862.61
19278	20.03	4.1818	0.	-841.91
19279	19.937	4.1818	5.e-002	-4.4049
19280	19.937	4.4545	0.	-863.09
19281	20.03	4.3636	0.	-842.33
19282	19.937	4.3636	5.e-002	-4.377
19283	19.937	4.6364	0.	-863.67
19284	20.03	4.5455	0.	-842.85
19285	19.937	4.5455	5.e-002	-4.3477
19286	19.937	4.8182	0.	-864.39
19287	20.03	4.7273	0.	-843.49
19288	19.937	4.7273	5.e-002	-4.3178
19289	19.937	5.	0.	-865.26
19290	20.03	4.9091	0.	-844.27
19291	19.937	4.9091	5.e-002	-4.2885
19292	19.937	5.1818	0.	-866.32
19293	20.03	5.0909	0.	-845.22
19294	19.937	5.0909	5.e-002	-4.2604
19295	19.937	5.3636	0.	-867.6
19296	20.03	5.2727	0.	-846.37
19297	19.937	5.2727	5.e-002	-4.234
19298	19.937	5.5455	0.	-869.18
19299	20.03	5.4545	0.	-847.76
19300	19.937	5.4545	5.e-002	-4.1995
19301	19.937	5.7273	0.	-871.85
19302	20.03	5.6364	0.	-849.52
19303	19.937	5.6364	5.e-002	-3.9987
19304	20.03	5.8182	0.	-853.19
19305	19.937	5.8182	5.e-002	-1.1912
19306	19.937	5.9091	0.	-869.49
19307	20.122	0.27273	0.	-830.72
19308	20.214	0.18182	0.	-812.11
19309	20.122	0.18182	5.e-002	-1.1977
19310	20.122	9.0909e-002	0.	-828.16
19311	20.122	0.45455	0.	-828.05
19312	20.214	0.36364	0.	-808.4
19313	20.122	0.36364	5.e-002	-3.9983
19314	20.122	0.63636	0.	-826.49
19315	20.214	0.54545	0.	-806.67
19316	20.122	0.54545	5.e-002	-4.1967
19317	20.122	0.81818	0.	-825.23
19318	20.214	0.72727	0.	-805.32
19319	20.122	0.72727	5.e-002	-4.2284
19320	20.122	1.	0.	-824.2
19321	20.214	0.90909	0.	-804.2
19322	20.122	0.90909	5.e-002	-4.2512
19323	20.122	1.1818	0.	-823.34
19324	20.214	1.0909	0.	-803.29
19325	20.122	1.0909	5.e-002	-4.2751
19326	20.122	1.3636	0.	-822.64
19327	20.214	1.2727	0.	-802.54
19328	20.122	1.2727	5.e-002	-4.3
19329	20.122	1.5455	0.	-822.07
19330	20.214	1.4545	0.	-801.93
19331	20.122	1.4545	5.e-002	-4.3252
19332	20.122	1.7273	0.	-821.61
19333	20.214	1.6364	0.	-801.43
19334	20.122	1.6364	5.e-002	-4.3499
19335	20.122	1.9091	0.	-821.23
19336	20.214	1.8182	0.	-801.03
19337	20.122	1.8182	5.e-002	-4.3733
19338	20.122	2.0909	0.	-820.93
19339	20.214	2.	0.	-800.71
19340	20.122	2.	5.e-002	-4.3949
19341	20.122	2.2727	0.	-820.7
19342	20.214	2.1818	0.	-800.46
19343	20.122	2.1818	5.e-002	-4.4139
19344	20.122	2.4545	0.	-820.52
19345	20.214	2.3636	0.	-800.26
19346	20.122	2.3636	5.e-002	-4.4298
19347	20.122	2.6364	0.	-820.4
19348	20.214	2.5455	0.	-800.12
19349	20.122	2.5455	5.e-002	-4.442
19350	20.122	2.8182	0.	-820.32
19351	20.214	2.7273	0.	-800.03
19352	20.122	2.7273	5.e-002	-4.4504
19353	20.122	3.	0.	-820.3
19354	20.214	2.9091	0.	-799.99
19355	20.122	2.9091	5.e-002	-4.4547
19356	20.122	3.1818	0.	-820.32
19357	20.214	3.0909	0.	-799.99
19358	20.122	3.0909	5.e-002	-4.4547
19359	20.122	3.3636	0.	-820.4
19360	20.214	3.2727	0.	-800.03
19361	20.122	3.2727	5.e-002	-4.4504
19362	20.122	3.5455	0.	-820.52
19363	20.214	3.4545	0.	-800.12
19364	20.122	3.4545	5.e-002	-4.4421
19365	20.122	3.7273	0.	-820.7
19366	20.214	3.6364	0.	-800.26
19367	20.122	3.6364	5.e-002	-4.4298
19368	20.122	3.9091	0.	-820.93
19369	20.214	3.8182	0.	-800.46
19370	20.122	3.8182	5.e-002	-4.4139
19371	20.122	4.0909	0.	-821.23
19372	20.214	4.	0.	-800.71
19373	20.122	4.	5.e-002	-4.3949
19374	20.122	4.2727	0.	-821.61
19375	20.214	4.1818	0.	-801.03
19376	20.122	4.1818	5.e-002	-4.3734
19377	20.122	4.4545	0.	-822.07
19378	20.214	4.3636	0.	-801.43
19379	20.122	4.3636	5.e-002	-4.3499
19380	20.122	4.6364	0.	-822.64
19381	20.214	4.5455	0.	-801.93
19382	20.122	4.5455	5.e-002	-4.3252
19383	20.122	4.8182	0.	-823.34
19384	20.214	4.7273	0.	-802.54
19385	20.122	4.7273	5.e-002	-4.3
19386	20.122	5.	0.	-824.2
19387	20.214	4.9091	0.	-803.29
19388	20.122	4.9091	5.e-002	-4.2751
19389	20.122	5.1818	0.	-825.23
19390	20.214	5.0909	0.	-804.2
19391	20.122	5.0909	5.e-002	-4.2512
19392	20.122	5.3636	0.	-826.49
19393	20.214	5.2727	0.	-805.32
19394	20.122	5.2727	5.e-002	-4.2284
19395	20.122	5.5455	0.	-828.05
19396	20.214	5.4545	0.	-806.67
19397	20.122	5.4545	5.e-002	-4.1967
19398	20.122	5.7273	0.	-830.72
19399	20.214	5.6364	0.	-808.4
19400	20.122	5.6364	5.e-002	-3.9984
19401	20.214	5.8182	0.	-812.11
19402	20.122	5.8182	5.e-002	-1.1977
19403	20.122	5.9091	0.	-828.16
19404	20.307	0.27273	0.	-789.64
19405	20.399	0.18182	0.	-771.07
19406	20.307	0.18182	5.e-002	-1.2081
19407	20.307	9.0909e-002	0.	-786.86
19408	20.307	0.45455	0.	-786.97
19409	20.399	0.36364	0.	-767.34
19410	20.307	0.36364	5.e-002	-3.9948
19411	20.307	0.63636	0.	-785.46
19412	20.399	0.54545	0.	-765.66
19413	20.307	0.54545	5.e-002	-4.1909
19414	20.307	0.81818	0.	-784.25
19415	20.399	0.72727	0.	-764.36
19416	20.307	0.72727	5.e-002	-4.2203
19417	20.307	1.	0.	-783.26
19418	20.399	0.90909	0.	-763.3
19419	20.307	0.90909	5.e-002	-4.2404
19420	20.307	1.1818	0.	-782.45
19421	20.399	1.0909	0.	-762.45
19422	20.307	1.0909	5.e-002	-4.2612
19423	20.307	1.3636	0.	-781.8
19424	20.399	1.2727	0.	-761.76
19425	20.307	1.2727	5.e-002	-4.2826
19426	20.307	1.5455	0.	-781.27
19427	20.399	1.4545	0.	-761.2
19428	20.307	1.4545	5.e-002	-4.3042
19429	20.307	1.7273	0.	-780.84
19430	20.399	1.6364	0.	-760.76
19431	20.307	1.6364	5.e-002	-4.3253
19432	20.307	1.9091	0.	-780.5
19433	20.399	1.8182	0.	-760.4
19434	20.307	1.8182	5.e-002	-4.3454
19435	20.307	2.0909	0.	-780.22
19436	20.399	2.	0.	-760.12
19437	20.307	2.	5.e-002	-4.3638
19438	20.307	2.2727	0.	-780.01
19439	20.399	2.1818	0.	-759.9
19440	20.307	2.1818	5.e-002	-4.38
19441	20.307	2.4545	0.	-779.85
19442	20.399	2.3636	0.	-759.73
19443	20.307	2.3636	5.e-002	-4.3935
19444	20.307	2.6364	0.	-779.74
19445	20.399	2.5455	0.	-759.61
19446	20.307	2.5455	5.e-002	-4.404
19447	20.307	2.8182	0.	-779.68
19448	20.399	2.7273	0.	-759.53
19449	20.307	2.7273	5.e-002	-4.4112
19450	20.307	3.	0.	-779.66
19451	20.399	2.9091	0.	-759.49
19452	20.307	2.9091	5.e-002	-4.4148
19453	20.307	3.1818	0.	-779.68
19454	20.399	3.0909	0.	-759.49
19455	20.307	3.0909	5.e-002	-4.4148
19456	20.307	3.3636	0.	-779.74
19457	20.399	3.2727	0.	-759.53
19458	20.307	3.2727	5.e-002	-4.4112
19459	20.307	3.5455	0.	-779.85
19460	20.399	3.4545	0.	-759.61
19461	20.307	3.4545	5.e-002	-4.404
19462	20.307	3.7273	0.	-780.01
19463	20.399	3.6364	0.	-759.73
19464	20.307	3.6364	5.e-002	-4.3935
19465	20.307	3.9091	0.	-780.22
19466	20.399	3.8182	0.	-759.9
19467	20.307	3.8182	5.e-002	-4.38
19468	20.307	4.0909	0.	-780.5
19469	20.399	4.	0.	-760.12
19470	20.307	4.	5.e-002	-4.3638
19471	20.307	4.2727	0.	-780.84
19472	20.399	4.1818	0.	-760.4
19473	20.307	4.1818	5.e-002	-4.3454
19474	20.307	4.4545	0.	-781.27
19475	20.399	4.3636	0.	-760.76
19476	20.307	4.3636	5.e-002	-4.3253
19477	20.307	4.6364	0.	-781.8
19478	20.399	4.5455	0.	-761.2
19479	20.307	4.5455	5.e-002	-4.3042
19480	20.307	4.8182	0.	-782.45
19481	20.399	4.7273	0.	-761.76
19482	20.307	4.7273	5.e-002	-4.2826
19483	20.307	5.	0.	-783.26
19484	20.399	4.9091	0.	-762.45
19485	20.307	4.9091	5.e-002	-4.2612
19486	20.307	5.1818	0.	-784.25
19487	20.399	5.0909	0.	-763.3
19488	20.307	5.0909	5.e-002	-4.2404
19489	20.307	5.3636	0.	-785.46
19490	20.399	5.2727	0.	-764.36
19491	20.307	5.2727	5.e-002	-4.2203
19492	20.307	5.5455	0.	-786.97
19493	20.399	5.4545	0.	-765.66
19494	20.307	5.4545	5.e-002	-4.1909
19495	20.307	5.7273	0.	-789.64
19496	20.399	5.6364	0.	-767.34
19497	20.307	5.6364	5.e-002	-3.9948
19498	20.399	5.8182	0.	-771.07
19499	20.307	5.8182	5.e-002	-1.2081
19500	20.307	5.9091	0.	-786.86
19501	20.491	0.27273	0.	-748.61
19502	20.584	0.18182	0.	-730.09
19503	20.491	0.18182	5.e-002	-1.224
19504	20.491	9.0909e-002	0.	-745.62
19505	20.491	0.45455	0.	-745.98
19506	20.584	0.36364	0.	-726.36
19507	20.491	0.36364	5.e-002	-3.9891
19508	20.491	0.63636	0.	-744.52
19509	20.584	0.54545	0.	-724.74
19510	20.491	0.54545	5.e-002	-4.1829
19511	20.491	0.81818	0.	-743.38
19512	20.584	0.72727	0.	-723.52
19513	20.491	0.72727	5.e-002	-4.2106
19514	20.491	1.	0.	-742.46
19515	20.584	0.90909	0.	-722.54
19516	20.491	0.90909	5.e-002	-4.2287
19517	20.491	1.1818	0.	-741.72
19518	20.584	1.0909	0.	-721.76
19519	20.491	1.0909	5.e-002	-4.2471
19520	20.491	1.3636	0.	-741.13
19521	20.584	1.2727	0.	-721.15
19522	20.491	1.2727	5.e-002	-4.2659
19523	20.491	1.5455	0.	-740.67
19524	20.584	1.4545	0.	-720.67
19525	20.491	1.4545	5.e-002	-4.2848
19526	20.491	1.7273	0.	-740.3
19527	20.584	1.6364	0.	-720.29
19528	20.491	1.6364	5.e-002	-4.3032
19529	20.491	1.9091	0.	-740.
19530	20.584	1.8182	0.	-720.
19531	20.491	1.8182	5.e-002	-4.3206
19532	20.491	2.0909	0.	-739.77
19533	20.584	2.	0.	-719.77
19534	20.491	2.	5.e-002	-4.3366
19535	20.491	2.2727	0.	-739.6
19536	20.584	2.1818	0.	-719.59
19537	20.491	2.1818	5.e-002	-4.3506
19538	20.491	2.4545	0.	-739.47
19539	20.584	2.3636	0.	-719.46
19540	20.491	2.3636	5.e-002	-4.3624
19541	20.491	2.6364	0.	-739.38
19542	20.584	2.5455	0.	-719.37
19543	20.491	2.5455	5.e-002	-4.3715
19544	20.491	2.8182	0.	-739.33
19545	20.584	2.7273	0.	-719.31
19546	20.491	2.7273	5.e-002	-4.3777
19547	20.491	3.	0.	-739.31
19548	20.584	2.9091	0.	-719.28
19549	20.491	2.9091	5.e-002	-4.3808
19550	20.491	3.1818	0.	-739.33
19551	20.584	3.0909	0.	-719.28
19552	20.491	3.0909	5.e-002	-4.3808
19553	20.491	3.3636	0.	-739.38
19554	20.584	3.2727	0.	-719.31
19555	20.491	3.2727	5.e-002	-4.3777
19556	20.491	3.5455	0.	-739.47
19557	20.584	3.4545	0.	-719.37
19558	20.491	3.4545	5.e-002	-4.3715
19559	20.491	3.7273	0.	-739.6
19560	20.584	3.6364	0.	-719.46
19561	20.491	3.6364	5.e-002	-4.3624
19562	20.491	3.9091	0.	-739.77
19563	20.584	3.8182	0.	-719.59
19564	20.491	3.8182	5.e-002	-4.3506
19565	20.491	4.0909	0.	-740.
19566	20.584	4.	0.	-719.77
19567	20.491	4.	5.e-002	-4.3366
19568	20.491	4.2727	0.	-740.3
19569	20.584	4.1818	0.	-720.
19570	20.491	4.1818	5.e-002	-4.3206
19571	20.491	4.4545	0.	-740.67
19572	20.584	4.3636	0.	-720.29
19573	20.491	4.3636	5.e-002	-4.3032
19574	20.491	4.6364	0.	-741.13
19575	20.584	4.5455	0.	-720.67
19576	20.491	4.5455	5.e-002	-4.2848
19577	20.491	4.8182	0.	-741.72
19578	20.584	4.7273	0.	-721.15
19579	20.491	4.7273	5.e-002	-4.2659
19580	20.491	5.	0.	-742.46
19581	20.584	4.9091	0.	-721.76
19582	20.491	4.9091	5.e-002	-4.2471
19583	20.491	5.1818	0.	-743.38
19584	20.584	5.0909	0.	-722.54
19585	20.491	5.0909	5.e-002	-4.2287
19586	20.491	5.3636	0.	-744.52
19587	20.584	5.2727	0.	-723.52
19588	20.491	5.2727	5.e-002	-4.2106
19589	20.491	5.5455	0.	-745.98
19590	20.584	5.4545	0.	-724.74
19591	20.491	5.4545	5.e-002	-4.1829
19592	20.491	5.7273	0.	-748.61
19593	20.584	5.6364	0.	-726.36
19594	20.491	5.6364	5.e-002	-3.9891
19595	20.584	5.8182	0.	-730.09
19596	20.491	5.8182	5.e-002	-1.224
19597	20.491	5.9091	0.	-745.62
19598	20.676	0.27273	0.	-707.68
19599	20.768	0.18182	0.	-689.21
19600	20.676	0.18182	5.e-002	-1.2466
19601	20.676	9.0909e-002	0.	-704.46
19602	20.676	0.45455	0.	-705.08
19603	20.768	0.36364	0.	-685.48
19604	20.676	0.36364	5.e-002	-3.982
19605	20.676	0.63636	0.	-703.7
19606	20.768	0.54545	0.	-683.94
19607	20.676	0.54545	5.e-002	-4.1734
19608	20.676	0.81818	0.	-702.64
19609	20.768	0.72727	0.	-682.81
19610	20.676	0.72727	5.e-002	-4.1999
19611	20.676	1.	0.	-701.81
19612	20.768	0.90909	0.	-681.92
19613	20.676	0.90909	5.e-002	-4.2165
19614	20.676	1.1818	0.	-701.16
19615	20.768	1.0909	0.	-681.24
19616	20.676	1.0909	5.e-002	-4.2331
19617	20.676	1.3636	0.	-700.66
19618	20.768	1.2727	0.	-680.72
19619	20.676	1.2727	5.e-002	-4.25
19620	20.676	1.5455	0.	-700.27
19621	20.768	1.4545	0.	-680.33
19622	20.676	1.4545	5.e-002	-4.2669
19623	20.676	1.7273	0.	-699.97
19624	20.768	1.6364	0.	-680.03
19625	20.676	1.6364	5.e-002	-4.2833
19626	20.676	1.9091	0.	-699.74
19627	20.768	1.8182	0.	-679.81
19628	20.676	1.8182	5.e-002	-4.2987
19629	20.676	2.0909	0.	-699.57
19630	20.768	2.	0.	-679.65
19631	20.676	2.	5.e-002	-4.3128
19632	20.676	2.2727	0.	-699.44
19633	20.768	2.1818	0.	-679.52
19634	20.676	2.1818	5.e-002	-4.3253
19635	20.676	2.4545	0.	-699.34
19636	20.768	2.3636	0.	-679.44
19637	20.676	2.3636	5.e-002	-4.3356
19638	20.676	2.6364	0.	-699.28
19639	20.768	2.5455	0.	-679.38
19640	20.676	2.5455	5.e-002	-4.3437
19641	20.676	2.8182	0.	-699.24
19642	20.768	2.7273	0.	-679.34
19643	20.676	2.7273	5.e-002	-4.3492
19644	20.676	3.	0.	-699.23
19645	20.768	2.9091	0.	-679.32
19646	20.676	2.9091	5.e-002	-4.3519
19647	20.676	3.1818	0.	-699.24
19648	20.768	3.0909	0.	-679.32
19649	20.676	3.0909	5.e-002	-4.3519
19650	20.676	3.3636	0.	-699.28
19651	20.768	3.2727	0.	-679.34
19652	20.676	3.2727	5.e-002	-4.3492
19653	20.676	3.5455	0.	-699.34
19654	20.768	3.4545	0.	-679.38
19655	20.676	3.4545	5.e-002	-4.3437
19656	20.676	3.7273	0.	-699.44
19657	20.768	3.6364	0.	-679.44
19658	20.676	3.6364	5.e-002	-4.3356
19659	20.676	3.9091	0.	-699.57
19660	20.768	3.8182	0.	-679.52
19661	20.676	3.8182	5.e-002	-4.3253
19662	20.676	4.0909	0.	-699.74
19663	20.768	4.	0.	-679.65
19664	20.676	4.	5.e-002	-4.3129
19665	20.676	4.2727	0.	-699.97
19666	20.768	4.1818	0.	-679.81
19667	20.676	4.1818	5.e-002	-4.2987
19668	20.676	4.4545	0.	-700.27
19669	20.768	4.3636	0.	-680.03
19670	20.676	4.3636	5.e-002	-4.2833
19671	20.676	4.6364	0.	-700.66
19672	20.768	4.5455	0.	-680.33
19673	20.676	4.5455	5.e-002	-4.2669
19674	20.676	4.8182	0.	-701.16
19675	20.768	4.7273	0.	-680.72
19676	20.676	4.7273	5.e-002	-4.2501
19677	20.676	5.	0.	-701.81
19678	20.768	4.9091	0.	-681.24
19679	20.676	4.9091	5.e-002	-4.2331
19680	20.676	5.1818	0.	-702.64
19681	20.768	5.0909	0.	-681.92
19682	20.676	5.0909	5.e-002	-4.2165
19683	20.676	5.3636	0.	-703.7
19684	20.768	5.2727	0.	-682.81
19685	20.676	5.2727	5.e-002	-4.1999
19686	20.676	5.5455	0.	-705.08
19687	20.768	5.4545	0.	-683.94
19688	20.676	5.4545	5.e-002	-4.1734
19689	20.676	5.7273	0.	-707.68
19690	20.768	5.6364	0.	-685.48
19691	20.676	5.6364	5.e-002	-3.9821
19692	20.768	5.8182	0.	-689.21
19693	20.676	5.8182	5.e-002	-1.2466
19694	20.676	5.9091	0.	-704.46
19695	20.861	0.27273	0.	-666.84
19696	20.953	0.18182	0.	-648.43
19697	20.861	0.18182	5.e-002	-1.2769
19698	20.861	9.0909e-002	0.	-663.42
19699	20.861	0.45455	0.	-664.29
19700	20.953	0.36364	0.	-644.72
19701	20.861	0.36364	5.e-002	-3.9744
19702	20.861	0.63636	0.	-663.
19703	20.953	0.54545	0.	-643.26
19704	20.861	0.54545	5.e-002	-4.1631
19705	20.861	0.81818	0.	-662.05
19706	20.953	0.72727	0.	-642.23
19707	20.861	0.72727	5.e-002	-4.1887
19708	20.861	1.	0.	-661.32
19709	20.953	0.90909	0.	-641.46
19710	20.861	0.90909	5.e-002	-4.2043
19711	20.861	1.1818	0.	-660.77
19712	20.953	1.0909	0.	-640.88
19713	20.861	1.0909	5.e-002	-4.2197
19714	20.861	1.3636	0.	-660.36
19715	20.953	1.2727	0.	-640.47
19716	20.861	1.2727	5.e-002	-4.2353
19717	20.861	1.5455	0.	-660.06
19718	20.953	1.4545	0.	-640.18
19719	20.861	1.4545	5.e-002	-4.2506
19720	20.861	1.7273	0.	-659.85
19721	20.953	1.6364	0.	-639.97
19722	20.861	1.6364	5.e-002	-4.2655
19723	20.861	1.9091	0.	-659.69
19724	20.953	1.8182	0.	-639.83
19725	20.861	1.8182	5.e-002	-4.2795
19726	20.861	2.0909	0.	-659.58
19727	20.953	2.	0.	-639.74
19728	20.861	2.	5.e-002	-4.2923
19729	20.861	2.2727	0.	-659.51
19730	20.953	2.1818	0.	-639.68
19731	20.861	2.1818	5.e-002	-4.3035
19732	20.861	2.4545	0.	-659.46
19733	20.953	2.3636	0.	-639.64
19734	20.861	2.3636	5.e-002	-4.3129
19735	20.861	2.6364	0.	-659.42
19736	20.953	2.5455	0.	-639.62
19737	20.861	2.5455	5.e-002	-4.3201
19738	20.861	2.8182	0.	-659.4
19739	20.953	2.7273	0.	-639.6
19740	20.861	2.7273	5.e-002	-4.3251
19741	20.861	3.	0.	-659.4
19742	20.953	2.9091	0.	-639.6
19743	20.861	2.9091	5.e-002	-4.3276
19744	20.861	3.1818	0.	-659.4
19745	20.953	3.0909	0.	-639.6
19746	20.861	3.0909	5.e-002	-4.3276
19747	20.861	3.3636	0.	-659.42
19748	20.953	3.2727	0.	-639.6
19749	20.861	3.2727	5.e-002	-4.3251
19750	20.861	3.5455	0.	-659.46
19751	20.953	3.4545	0.	-639.62
19752	20.861	3.4545	5.e-002	-4.3201
19753	20.861	3.7273	0.	-659.51
19754	20.953	3.6364	0.	-639.64
19755	20.861	3.6364	5.e-002	-4.3129
19756	20.861	3.9091	0.	-659.58
19757	20.953	3.8182	0.	-639.68
19758	20.861	3.8182	5.e-002	-4.3035
19759	20.861	4.0909	0.	-659.69
19760	20.953	4.	0.	-639.74
19761	20.861	4.	5.e-002	-4.2923
19762	20.861	4.2727	0.	-659.85
19763	20.953	4.1818	0.	-639.83
19764	20.861	4.1818	5.e-002	-4.2795
19765	20.861	4.4545	0.	-660.06
19766	20.953	4.3636	0.	-639.97
19767	20.861	4.3636	5.e-002	-4.2655
19768	20.861	4.6364	0.	-660.36
19769	20.953	4.5455	0.	-640.18
19770	20.861	4.5455	5.e-002	-4.2507
19771	20.861	4.8182	0.	-660.77
19772	20.953	4.7273	0.	-640.47
19773	20.861	4.7273	5.e-002	-4.2353
19774	20.861	5.	0.	-661.32
19775	20.953	4.9091	0.	-640.88
19776	20.861	4.9091	5.e-002	-4.2197
19777	20.861	5.1818	0.	-662.05
19778	20.953	5.0909	0.	-641.46
19779	20.861	5.0909	5.e-002	-4.2043
19780	20.861	5.3636	0.	-663.
19781	20.953	5.2727	0.	-642.23
19782	20.861	5.2727	5.e-002	-4.1887
19783	20.861	5.5455	0.	-664.29
19784	20.953	5.4545	0.	-643.27
19785	20.861	5.4545	5.e-002	-4.1631
19786	20.861	5.7273	0.	-666.84
19787	20.953	5.6364	0.	-644.72
19788	20.861	5.6364	5.e-002	-3.9744
19789	20.953	5.8182	0.	-648.43
19790	20.861	5.8182	5.e-002	-1.2769
19791	20.861	5.9091	0.	-663.42
19792	21.045	0.27273	0.	-626.12
19793	21.138	0.18182	0.	-607.76
19794	21.045	0.18182	5.e-002	-1.3158
19795	21.045	9.0909e-002	0.	-622.49
19796	21.045	0.45455	0.	-623.63
19797	21.138	0.36364	0.	-604.08
19798	21.045	0.36364	5.e-002	-3.9666
19799	21.045	0.63636	0.	-622.44
19800	21.138	0.54545	0.	-602.72
19801	21.045	0.54545	5.e-002	-4.1524
19802	21.045	0.81818	0.	-621.6
19803	21.138	0.72727	0.	-601.8
19804	21.045	0.72727	5.e-002	-4.1775
19805	21.045	1.	0.	-620.98
19806	21.138	0.90909	0.	-601.15
19807	21.045	0.90909	5.e-002	-4.1924
19808	21.045	1.1818	0.	-620.55
19809	21.138	1.0909	0.	-600.69
19810	21.045	1.0909	5.e-002	-4.207
19811	21.045	1.3636	0.	-620.25
19812	21.138	1.2727	0.	-600.4
19813	21.045	1.2727	5.e-002	-4.2217
19814	21.045	1.5455	0.	-620.06
19815	21.138	1.4545	0.	-600.21
19816	21.045	1.4545	5.e-002	-4.2361
19817	21.045	1.7273	0.	-619.93
19818	21.138	1.6364	0.	-600.11
19819	21.045	1.6364	5.e-002	-4.25
19820	21.045	1.9091	0.	-619.86
19821	21.138	1.8182	0.	-600.06
19822	21.045	1.8182	5.e-002	-4.263
19823	21.045	2.0909	0.	-619.82
19824	21.138	2.	0.	-600.04
19825	21.045	2.	5.e-002	-4.2748
19826	21.045	2.2727	0.	-619.8
19827	21.138	2.1818	0.	-600.05
19828	21.045	2.1818	5.e-002	-4.2852
19829	21.045	2.4545	0.	-619.79
19830	21.138	2.3636	0.	-600.06
19831	21.045	2.3636	5.e-002	-4.2938
19832	21.045	2.6364	0.	-619.79
19833	21.138	2.5455	0.	-600.07
19834	21.045	2.5455	5.e-002	-4.3005
19835	21.045	2.8182	0.	-619.79
19836	21.138	2.7273	0.	-600.09
19837	21.045	2.7273	5.e-002	-4.305
19838	21.045	3.	0.	-619.79
19839	21.138	2.9091	0.	-600.09
19840	21.045	2.9091	5.e-002	-4.3073
19841	21.045	3.1818	0.	-619.79
19842	21.138	3.0909	0.	-600.09
19843	21.045	3.0909	5.e-002	-4.3073
19844	21.045	3.3636	0.	-619.79
19845	21.138	3.2727	0.	-600.09
19846	21.045	3.2727	5.e-002	-4.305
19847	21.045	3.5455	0.	-619.79
19848	21.138	3.4545	0.	-600.07
19849	21.045	3.4545	5.e-002	-4.3005
19850	21.045	3.7273	0.	-619.8
19851	21.138	3.6364	0.	-600.06
19852	21.045	3.6364	5.e-002	-4.2938
19853	21.045	3.9091	0.	-619.82
19854	21.138	3.8182	0.	-600.05
19855	21.045	3.8182	5.e-002	-4.2852
19856	21.045	4.0909	0.	-619.86
19857	21.138	4.	0.	-600.04
19858	21.045	4.	5.e-002	-4.2748
19859	21.045	4.2727	0.	-619.93
19860	21.138	4.1818	0.	-600.06
19861	21.045	4.1818	5.e-002	-4.263
19862	21.045	4.4545	0.	-620.06
19863	21.138	4.3636	0.	-600.11
19864	21.045	4.3636	5.e-002	-4.25
19865	21.045	4.6364	0.	-620.25
19866	21.138	4.5455	0.	-600.21
19867	21.045	4.5455	5.e-002	-4.2361
19868	21.045	4.8182	0.	-620.55
19869	21.138	4.7273	0.	-600.4
19870	21.045	4.7273	5.e-002	-4.2217
19871	21.045	5.	0.	-620.98
19872	21.138	4.9091	0.	-600.69
19873	21.045	4.9091	5.e-002	-4.2071
19874	21.045	5.1818	0.	-621.6
19875	21.138	5.0909	0.	-601.15
19876	21.045	5.0909	5.e-002	-4.1924
19877	21.045	5.3636	0.	-622.44
19878	21.138	5.2727	0.	-601.8
19879	21.045	5.2727	5.e-002	-4.1775
19880	21.045	5.5455	0.	-623.63
19881	21.138	5.4545	0.	-602.72
19882	21.045	5.4545	5.e-002	-4.1524
19883	21.045	5.7273	0.	-626.12
19884	21.138	5.6364	0.	-604.08
19885	21.045	5.6364	5.e-002	-3.9666
19886	21.138	5.8182	0.	-607.76
19887	21.045	5.8182	5.e-002	-1.3158
19888	21.045	5.9091	0.	-622.49
19889	21.23	0.27273	0.	-585.53
19890	21.322	0.18182	0.	-567.22
19891	21.23	0.18182	5.e-002	-1.3639
19892	21.23	9.0909e-002	0.	-581.7
19893	21.23	0.45455	0.	-583.1
19894	21.322	0.36364	0.	-563.57
19895	21.23	0.36364	5.e-002	-3.9592
19896	21.23	0.63636	0.	-582.03
19897	21.322	0.54545	0.	-562.32
19898	21.23	0.54545	5.e-002	-4.1418
19899	21.23	0.81818	0.	-581.3
19900	21.322	0.72727	0.	-561.52
19901	21.23	0.72727	5.e-002	-4.1665
19902	21.23	1.	0.	-580.82
19903	21.322	0.90909	0.	-561.
19904	21.23	0.90909	5.e-002	-4.1812
19905	21.23	1.1818	0.	-580.51
19906	21.322	1.0909	0.	-560.68
19907	21.23	1.0909	5.e-002	-4.1954
19908	21.23	1.3636	0.	-580.33
19909	21.322	1.2727	0.	-560.51
19910	21.23	1.2727	5.e-002	-4.2095
19911	21.23	1.5455	0.	-580.24
19912	21.322	1.4545	0.	-560.44
19913	21.23	1.4545	5.e-002	-4.2234
19914	21.23	1.7273	0.	-580.21
19915	21.322	1.6364	0.	-560.44
19916	21.23	1.6364	5.e-002	-4.2367
19917	21.23	1.9091	0.	-580.22
19918	21.322	1.8182	0.	-560.48
19919	21.23	1.8182	5.e-002	-4.2491
19920	21.23	2.0909	0.	-580.25
19921	21.322	2.	0.	-560.55
19922	21.23	2.	5.e-002	-4.2603
19923	21.23	2.2727	0.	-580.29
19924	21.322	2.1818	0.	-560.61
19925	21.23	2.1818	5.e-002	-4.2701
19926	21.23	2.4545	0.	-580.33
19927	21.322	2.3636	0.	-560.68
19928	21.23	2.3636	5.e-002	-4.2782
19929	21.23	2.6364	0.	-580.36
19930	21.322	2.5455	0.	-560.73
19931	21.23	2.5455	5.e-002	-4.2845
19932	21.23	2.8182	0.	-580.38
19933	21.322	2.7273	0.	-560.77
19934	21.23	2.7273	5.e-002	-4.2888
19935	21.23	3.	0.	-580.38
19936	21.322	2.9091	0.	-560.79
19937	21.23	2.9091	5.e-002	-4.291
19938	21.23	3.1818	0.	-580.38
19939	21.322	3.0909	0.	-560.79
19940	21.23	3.0909	5.e-002	-4.291
19941	21.23	3.3636	0.	-580.36
19942	21.322	3.2727	0.	-560.77
19943	21.23	3.2727	5.e-002	-4.2888
19944	21.23	3.5455	0.	-580.33
19945	21.322	3.4545	0.	-560.73
19946	21.23	3.4545	5.e-002	-4.2845
19947	21.23	3.7273	0.	-580.29
19948	21.322	3.6364	0.	-560.68
19949	21.23	3.6364	5.e-002	-4.2783
19950	21.23	3.9091	0.	-580.25
19951	21.322	3.8182	0.	-560.61
19952	21.23	3.8182	5.e-002	-4.2701
19953	21.23	4.0909	0.	-580.22
19954	21.322	4.	0.	-560.55
19955	21.23	4.	5.e-002	-4.2603
19956	21.23	4.2727	0.	-580.21
19957	21.322	4.1818	0.	-560.48
19958	21.23	4.1818	5.e-002	-4.2491
19959	21.23	4.4545	0.	-580.24
19960	21.322	4.3636	0.	-560.44
19961	21.23	4.3636	5.e-002	-4.2367
19962	21.23	4.6364	0.	-580.33
19963	21.322	4.5455	0.	-560.44
19964	21.23	4.5455	5.e-002	-4.2234
19965	21.23	4.8182	0.	-580.51
19966	21.322	4.7273	0.	-560.51
19967	21.23	4.7273	5.e-002	-4.2096
19968	21.23	5.	0.	-580.82
19969	21.322	4.9091	0.	-560.68
19970	21.23	4.9091	5.e-002	-4.1954
19971	21.23	5.1818	0.	-581.3
19972	21.322	5.0909	0.	-561.
19973	21.23	5.0909	5.e-002	-4.1812
19974	21.23	5.3636	0.	-582.03
19975	21.322	5.2727	0.	-561.52
19976	21.23	5.2727	5.e-002	-4.1665
19977	21.23	5.5455	0.	-583.1
19978	21.322	5.4545	0.	-562.32
19979	21.23	5.4545	5.e-002	-4.1418
19980	21.23	5.7273	0.	-585.53
19981	21.322	5.6364	0.	-563.57
19982	21.23	5.6364	5.e-002	-3.9592
19983	21.322	5.8182	0.	-567.22
19984	21.23	5.8182	5.e-002	-1.364
19985	21.23	5.9091	0.	-581.7
19986	21.415	0.27273	0.	-545.05
19987	21.507	0.18182	0.	-526.79
19988	21.415	0.18182	5.e-002	-1.4219
19989	21.415	9.0909e-002	0.	-541.05
19990	21.415	0.45455	0.	-542.71
19991	21.507	0.36364	0.	-523.19
19992	21.415	0.36364	5.e-002	-3.9524
19993	21.415	0.63636	0.	-541.75
19994	21.507	0.54545	0.	-522.06
19995	21.415	0.54545	5.e-002	-4.1315
19996	21.415	0.81818	0.	-541.17
19997	21.507	0.72727	0.	-521.4
19998	21.415	0.72727	5.e-002	-4.1561
19999	21.415	1.	0.	-540.82
20000	21.507	0.90909	0.	-521.01
20001	21.415	0.90909	5.e-002	-4.1708
20002	21.415	1.1818	0.	-540.64
20003	21.507	1.0909	0.	-520.83
20004	21.415	1.0909	5.e-002	-4.185
20005	21.415	1.3636	0.	-540.59
20006	21.507	1.2727	0.	-520.8
20007	21.415	1.2727	5.e-002	-4.199
20008	21.415	1.5455	0.	-540.61
20009	21.507	1.4545	0.	-520.85
20010	21.415	1.4545	5.e-002	-4.2127
20011	21.415	1.7273	0.	-540.69
20012	21.507	1.6364	0.	-520.96
20013	21.415	1.6364	5.e-002	-4.2257
20014	21.415	1.9091	0.	-540.78
20015	21.507	1.8182	0.	-521.1
20016	21.415	1.8182	5.e-002	-4.2378
20017	21.415	2.0909	0.	-540.89
20018	21.507	2.	0.	-521.24
20019	21.415	2.	5.e-002	-4.2487
20020	21.415	2.2727	0.	-540.98
20021	21.507	2.1818	0.	-521.37
20022	21.415	2.1818	5.e-002	-4.2582
20023	21.415	2.4545	0.	-541.06
20024	21.507	2.3636	0.	-521.48
20025	21.415	2.3636	5.e-002	-4.2661
20026	21.415	2.6364	0.	-541.12
20027	21.507	2.5455	0.	-521.57
20028	21.415	2.5455	5.e-002	-4.2721
20029	21.415	2.8182	0.	-541.16
20030	21.507	2.7273	0.	-521.63
20031	21.415	2.7273	5.e-002	-4.2763
20032	21.415	3.	0.	-541.17
20033	21.507	2.9091	0.	-521.66
20034	21.415	2.9091	5.e-002	-4.2783
20035	21.415	3.1818	0.	-541.16
20036	21.507	3.0909	0.	-521.66
20037	21.415	3.0909	5.e-002	-4.2783
20038	21.415	3.3636	0.	-541.12
20039	21.507	3.2727	0.	-521.63
20040	21.415	3.2727	5.e-002	-4.2763
20041	21.415	3.5455	0.	-541.06
20042	21.507	3.4545	0.	-521.57
20043	21.415	3.4545	5.e-002	-4.2721
20044	21.415	3.7273	0.	-540.98
20045	21.507	3.6364	0.	-521.48
20046	21.415	3.6364	5.e-002	-4.2661
20047	21.415	3.9091	0.	-540.89
20048	21.507	3.8182	0.	-521.37
20049	21.415	3.8182	5.e-002	-4.2582
20050	21.415	4.0909	0.	-540.78
20051	21.507	4.	0.	-521.24
20052	21.415	4.	5.e-002	-4.2487
20053	21.415	4.2727	0.	-540.69
20054	21.507	4.1818	0.	-521.1
20055	21.415	4.1818	5.e-002	-4.2378
20056	21.415	4.4545	0.	-540.61
20057	21.507	4.3636	0.	-520.96
20058	21.415	4.3636	5.e-002	-4.2257
20059	21.415	4.6364	0.	-540.59
20060	21.507	4.5455	0.	-520.85
20061	21.415	4.5455	5.e-002	-4.2127
20062	21.415	4.8182	0.	-540.64
20063	21.507	4.7273	0.	-520.8
20064	21.415	4.7273	5.e-002	-4.199
20065	21.415	5.	0.	-540.82
20066	21.507	4.9091	0.	-520.83
20067	21.415	4.9091	5.e-002	-4.185
20068	21.415	5.1818	0.	-541.17
20069	21.507	5.0909	0.	-521.01
20070	21.415	5.0909	5.e-002	-4.1708
20071	21.415	5.3636	0.	-541.76
20072	21.507	5.2727	0.	-521.4
20073	21.415	5.2727	5.e-002	-4.1561
20074	21.415	5.5455	0.	-542.71
20075	21.507	5.4545	0.	-522.06
20076	21.415	5.4545	5.e-002	-4.1315
20077	21.415	5.7273	0.	-545.05
20078	21.507	5.6364	0.	-523.19
20079	21.415	5.6364	5.e-002	-3.9524
20080	21.507	5.8182	0.	-526.79
20081	21.415	5.8182	5.e-002	-1.4219
20082	21.415	5.9091	0.	-541.05
20083	21.599	0.27273	0.	-504.71
20084	21.692	0.18182	0.	-486.49
20085	21.599	0.18182	5.e-002	-1.4902
20086	21.599	9.0909e-002	0.	-500.55
20087	21.599	0.45455	0.	-502.46
20088	21.692	0.36364	0.	-482.96
20089	21.599	0.36364	5.e-002	-3.9466
20090	21.599	0.63636	0.	-501.64
20091	21.692	0.54545	0.	-481.94
20092	21.599	0.54545	5.e-002	-4.1217
20093	21.599	0.81818	0.	-501.19
20094	21.692	0.72727	0.	-481.43
20095	21.599	0.72727	5.e-002	-4.1465
20096	21.599	1.	0.	-500.99
20097	21.692	0.90909	0.	-481.2
20098	21.599	0.90909	5.e-002	-4.1616
20099	21.599	1.1818	0.	-500.95
20100	21.692	1.0909	0.	-481.17
20101	21.599	1.0909	5.e-002	-4.1761
20102	21.599	1.3636	0.	-501.03
20103	21.692	1.2727	0.	-481.27
20104	21.599	1.2727	5.e-002	-4.1903
20105	21.599	1.5455	0.	-501.17
20106	21.692	1.4545	0.	-481.45
20107	21.599	1.4545	5.e-002	-4.2041
20108	21.599	1.7273	0.	-501.35
20109	21.692	1.6364	0.	-481.67
20110	21.599	1.6364	5.e-002	-4.2171
20111	21.599	1.9091	0.	-501.53
20112	21.692	1.8182	0.	-481.9
20113	21.599	1.8182	5.e-002	-4.2292
20114	21.599	2.0909	0.	-501.7
20115	21.692	2.	0.	-482.11
20116	21.599	2.	5.e-002	-4.2401
20117	21.599	2.2727	0.	-501.85
20118	21.692	2.1818	0.	-482.3
20119	21.599	2.1818	5.e-002	-4.2495
20120	21.599	2.4545	0.	-501.98
20121	21.692	2.3636	0.	-482.46
20122	21.599	2.3636	5.e-002	-4.2573
20123	21.599	2.6364	0.	-502.07
20124	21.692	2.5455	0.	-482.59
20125	21.599	2.5455	5.e-002	-4.2632
20126	21.599	2.8182	0.	-502.12
20127	21.692	2.7273	0.	-482.67
20128	21.599	2.7273	5.e-002	-4.2673
20129	21.599	3.	0.	-502.14
20130	21.692	2.9091	0.	-482.71
20131	21.599	2.9091	5.e-002	-4.2693
20132	21.599	3.1818	0.	-502.12
20133	21.692	3.0909	0.	-482.71
20134	21.599	3.0909	5.e-002	-4.2693
20135	21.599	3.3636	0.	-502.07
20136	21.692	3.2727	0.	-482.67
20137	21.599	3.2727	5.e-002	-4.2673
20138	21.599	3.5455	0.	-501.98
20139	21.692	3.4545	0.	-482.59
20140	21.599	3.4545	5.e-002	-4.2632
20141	21.599	3.7273	0.	-501.85
20142	21.692	3.6364	0.	-482.46
20143	21.599	3.6364	5.e-002	-4.2573
20144	21.599	3.9091	0.	-501.7
20145	21.692	3.8182	0.	-482.3
20146	21.599	3.8182	5.e-002	-4.2495
20147	21.599	4.0909	0.	-501.53
20148	21.692	4.	0.	-482.11
20149	21.599	4.	5.e-002	-4.2401
20150	21.599	4.2727	0.	-501.35
20151	21.692	4.1818	0.	-481.9
20152	21.599	4.1818	5.e-002	-4.2292
20153	21.599	4.4545	0.	-501.17
20154	21.692	4.3636	0.	-481.67
20155	21.599	4.3636	5.e-002	-4.2171
20156	21.599	4.6364	0.	-501.03
20157	21.692	4.5455	0.	-481.45
20158	21.599	4.5455	5.e-002	-4.2041
20159	21.599	4.8182	0.	-500.95
20160	21.692	4.7273	0.	-481.27
20161	21.599	4.7273	5.e-002	-4.1903
20162	21.599	5.	0.	-500.99
20163	21.692	4.9091	0.	-481.17
20164	21.599	4.9091	5.e-002	-4.1761
20165	21.599	5.1818	0.	-501.19
20166	21.692	5.0909	0.	-481.2
20167	21.599	5.0909	5.e-002	-4.1616
20168	21.599	5.3636	0.	-501.64
20169	21.692	5.2727	0.	-481.43
20170	21.599	5.2727	5.e-002	-4.1465
20171	21.599	5.5455	0.	-502.46
20172	21.692	5.4545	0.	-481.94
20173	21.599	5.4545	5.e-002	-4.1217
20174	21.599	5.7273	0.	-504.71
20175	21.692	5.6364	0.	-482.96
20176	21.599	5.6364	5.e-002	-3.9466
20177	21.692	5.8182	0.	-486.49
20178	21.599	5.8182	5.e-002	-1.4902
20179	21.599	5.9091	0.	-500.55
20180	21.784	0.27273	0.	-464.5
20181	21.876	0.18182	0.	-446.31
20182	21.784	0.18182	5.e-002	-1.5694
20183	21.784	9.0909e-002	0.	-460.2
20184	21.784	0.45455	0.	-462.36
20185	21.876	0.36364	0.	-442.86
20186	21.784	0.36364	5.e-002	-3.942
20187	21.784	0.63636	0.	-461.67
20188	21.876	0.54545	0.	-441.99
20189	21.784	0.54545	5.e-002	-4.1128
20190	21.784	0.81818	0.	-461.39
20191	21.876	0.72727	0.	-441.63
20192	21.784	0.72727	5.e-002	-4.138
20193	21.784	1.	0.	-461.34
20194	21.876	0.90909	0.	-441.57
20195	21.784	0.90909	5.e-002	-4.1538
20196	21.784	1.1818	0.	-461.45
20197	21.876	1.0909	0.	-441.7
20198	21.784	1.0909	5.e-002	-4.1689
20199	21.784	1.3636	0.	-461.66
20200	21.876	1.2727	0.	-441.94
20201	21.784	1.2727	5.e-002	-4.1837
20202	21.784	1.5455	0.	-461.92
20203	21.876	1.4545	0.	-442.24
20204	21.784	1.4545	5.e-002	-4.1979
20205	21.784	1.7273	0.	-462.19
20206	21.876	1.6364	0.	-442.56
20207	21.784	1.6364	5.e-002	-4.2113
20208	21.784	1.9091	0.	-462.46
20209	21.876	1.8182	0.	-442.87
20210	21.784	1.8182	5.e-002	-4.2236
20211	21.784	2.0909	0.	-462.69
20212	21.876	2.	0.	-443.16
20213	21.784	2.	5.e-002	-4.2346
20214	21.784	2.2727	0.	-462.9
20215	21.876	2.1818	0.	-443.4
20216	21.784	2.1818	5.e-002	-4.2441
20217	21.784	2.4545	0.	-463.06
20218	21.876	2.3636	0.	-443.61
20219	21.784	2.3636	5.e-002	-4.2519
20220	21.784	2.6364	0.	-463.17
20221	21.876	2.5455	0.	-443.76
20222	21.784	2.5455	5.e-002	-4.2579
20223	21.784	2.8182	0.	-463.24
20224	21.876	2.7273	0.	-443.86
20225	21.784	2.7273	5.e-002	-4.2619
20226	21.784	3.	0.	-463.27
20227	21.876	2.9091	0.	-443.91
20228	21.784	2.9091	5.e-002	-4.264
20229	21.784	3.1818	0.	-463.24
20230	21.876	3.0909	0.	-443.91
20231	21.784	3.0909	5.e-002	-4.264
20232	21.784	3.3636	0.	-463.17
20233	21.876	3.2727	0.	-443.86
20234	21.784	3.2727	5.e-002	-4.2619
20235	21.784	3.5455	0.	-463.06
20236	21.876	3.4545	0.	-443.76
20237	21.784	3.4545	5.e-002	-4.2579
20238	21.784	3.7273	0.	-462.9
20239	21.876	3.6364	0.	-443.61
20240	21.784	3.6364	5.e-002	-4.2519
20241	21.784	3.9091	0.	-462.69
20242	21.876	3.8182	0.	-443.4
20243	21.784	3.8182	5.e-002	-4.2441
20244	21.784	4.0909	0.	-462.46
20245	21.876	4.	0.	-443.16
20246	21.784	4.	5.e-002	-4.2346
20247	21.784	4.2727	0.	-462.19
20248	21.876	4.1818	0.	-442.87
20249	21.784	4.1818	5.e-002	-4.2236
20250	21.784	4.4545	0.	-461.92
20251	21.876	4.3636	0.	-442.56
20252	21.784	4.3636	5.e-002	-4.2113
20253	21.784	4.6364	0.	-461.66
20254	21.876	4.5455	0.	-442.24
20255	21.784	4.5455	5.e-002	-4.1979
20256	21.784	4.8182	0.	-461.45
20257	21.876	4.7273	0.	-441.94
20258	21.784	4.7273	5.e-002	-4.1837
20259	21.784	5.	0.	-461.34
20260	21.876	4.9091	0.	-441.7
20261	21.784	4.9091	5.e-002	-4.1689
20262	21.784	5.1818	0.	-461.39
20263	21.876	5.0909	0.	-441.57
20264	21.784	5.0909	5.e-002	-4.1538
20265	21.784	5.3636	0.	-461.67
20266	21.876	5.2727	0.	-441.63
20267	21.784	5.2727	5.e-002	-4.138
20268	21.784	5.5455	0.	-462.36
20269	21.876	5.4545	0.	-441.99
20270	21.784	5.4545	5.e-002	-4.1128
20271	21.784	5.7273	0.	-464.5
20272	21.876	5.6364	0.	-442.86
20273	21.784	5.6364	5.e-002	-3.942
20274	21.876	5.8182	0.	-446.31
20275	21.784	5.8182	5.e-002	-1.5694
20276	21.784	5.9091	0.	-460.2
20277	21.969	0.27273	0.	-424.43
20278	22.061	0.18182	0.	-406.27
20279	21.969	0.18182	5.e-002	-1.6602
20280	21.969	9.0909e-002	0.	-420.01
20281	21.969	0.45455	0.	-422.4
20282	22.061	0.36364	0.	-402.91
20283	21.969	0.36364	5.e-002	-3.9388
20284	21.969	0.63636	0.	-421.88
20285	22.061	0.54545	0.	-402.19
20286	21.969	0.54545	5.e-002	-4.105
20287	21.969	0.81818	0.	-421.76
20288	22.061	0.72727	0.	-402.01
20289	21.969	0.72727	5.e-002	-4.131
20290	21.969	1.	0.	-421.87
20291	22.061	0.90909	0.	-402.12
20292	21.969	0.90909	5.e-002	-4.1478
20293	21.969	1.1818	0.	-422.14
20294	22.061	1.0909	0.	-402.41
20295	21.969	1.0909	5.e-002	-4.1639
20296	21.969	1.3636	0.	-422.48
20297	22.061	1.2727	0.	-402.79
20298	21.969	1.2727	5.e-002	-4.1795
20299	21.969	1.5455	0.	-422.85
20300	22.061	1.4545	0.	-403.21
20301	21.969	1.4545	5.e-002	-4.1944
20302	21.969	1.7273	0.	-423.22
20303	22.061	1.6364	0.	-403.63
20304	21.969	1.6364	5.e-002	-4.2084
20305	21.969	1.9091	0.	-423.55
20306	22.061	1.8182	0.	-404.02
20307	21.969	1.8182	5.e-002	-4.2211
20308	21.969	2.0909	0.	-423.85
20309	22.061	2.	0.	-404.37
20310	21.969	2.	5.e-002	-4.2325
20311	21.969	2.2727	0.	-424.1
20312	22.061	2.1818	0.	-404.66
20313	21.969	2.1818	5.e-002	-4.2422
20314	21.969	2.4545	0.	-424.29
20315	22.061	2.3636	0.	-404.89
20316	21.969	2.3636	5.e-002	-4.2501
20317	21.969	2.6364	0.	-424.43
20318	22.061	2.5455	0.	-405.06
20319	21.969	2.5455	5.e-002	-4.2562
20320	21.969	2.8182	0.	-424.51
20321	22.061	2.7273	0.	-405.18
20322	21.969	2.7273	5.e-002	-4.2603
20323	21.969	3.	0.	-424.54
20324	22.061	2.9091	0.	-405.24
20325	21.969	2.9091	5.e-002	-4.2623
20326	21.969	3.1818	0.	-424.51
20327	22.061	3.0909	0.	-405.24
20328	21.969	3.0909	5.e-002	-4.2623
20329	21.969	3.3636	0.	-424.43
20330	22.061	3.2727	0.	-405.18
20331	21.969	3.2727	5.e-002	-4.2603
20332	21.969	3.5455	0.	-424.29
20333	22.061	3.4545	0.	-405.06
20334	21.969	3.4545	5.e-002	-4.2562
20335	21.969	3.7273	0.	-424.1
20336	22.061	3.6364	0.	-404.89
20337	21.969	3.6364	5.e-002	-4.2501
20338	21.969	3.9091	0.	-423.85
20339	22.061	3.8182	0.	-404.66
20340	21.969	3.8182	5.e-002	-4.2422
20341	21.969	4.0909	0.	-423.55
20342	22.061	4.	0.	-404.37
20343	21.969	4.	5.e-002	-4.2325
20344	21.969	4.2727	0.	-423.22
20345	22.061	4.1818	0.	-404.02
20346	21.969	4.1818	5.e-002	-4.2211
20347	21.969	4.4545	0.	-422.85
20348	22.061	4.3636	0.	-403.63
20349	21.969	4.3636	5.e-002	-4.2084
20350	21.969	4.6364	0.	-422.48
20351	22.061	4.5455	0.	-403.21
20352	21.969	4.5455	5.e-002	-4.1944
20353	21.969	4.8182	0.	-422.14
20354	22.061	4.7273	0.	-402.79
20355	21.969	4.7273	5.e-002	-4.1795
20356	21.969	5.	0.	-421.87
20357	22.061	4.9091	0.	-402.41
20358	21.969	4.9091	5.e-002	-4.1639
20359	21.969	5.1818	0.	-421.76
20360	22.061	5.0909	0.	-402.12
20361	21.969	5.0909	5.e-002	-4.1478
20362	21.969	5.3636	0.	-421.88
20363	22.061	5.2727	0.	-402.01
20364	21.969	5.2727	5.e-002	-4.131
20365	21.969	5.5455	0.	-422.4
20366	22.061	5.4545	0.	-402.19
20367	21.969	5.4545	5.e-002	-4.105
20368	21.969	5.7273	0.	-424.43
20369	22.061	5.6364	0.	-402.91
20370	21.969	5.6364	5.e-002	-3.9388
20371	22.061	5.8182	0.	-406.27
20372	21.969	5.8182	5.e-002	-1.6602
20373	21.969	5.9091	0.	-420.01
20374	22.153	0.27273	0.	-384.49
20375	22.246	0.18182	0.	-366.35
20376	22.153	0.18182	5.e-002	-1.7632
20377	22.153	9.0909e-002	0.	-380.
20378	22.153	0.45455	0.	-382.61
20379	22.246	0.36364	0.	-363.12
20380	22.153	0.36364	5.e-002	-3.9372
20381	22.153	0.63636	0.	-382.25
20382	22.246	0.54545	0.	-362.57
20383	22.153	0.54545	5.e-002	-4.0985
20384	22.153	0.81818	0.	-382.32
20385	22.246	0.72727	0.	-362.58
20386	22.153	0.72727	5.e-002	-4.1256
20387	22.153	1.	0.	-382.6
20388	22.246	0.90909	0.	-362.87
20389	22.153	0.90909	5.e-002	-4.1438
20390	22.153	1.1818	0.	-383.02
20391	22.246	1.0909	0.	-363.32
20392	22.153	1.0909	5.e-002	-4.1613
20393	22.153	1.3636	0.	-383.49
20394	22.246	1.2727	0.	-363.85
20395	22.153	1.2727	5.e-002	-4.1781
20396	22.153	1.5455	0.	-383.97
20397	22.246	1.4545	0.	-364.38
20398	22.153	1.4545	5.e-002	-4.194
20399	22.153	1.7273	0.	-384.41
20400	22.246	1.6364	0.	-364.88
20401	22.153	1.6364	5.e-002	-4.2088
20402	22.153	1.9091	0.	-384.81
20403	22.246	1.8182	0.	-365.33
20404	22.153	1.8182	5.e-002	-4.2222
20405	22.153	2.0909	0.	-385.16
20406	22.246	2.	0.	-365.72
20407	22.153	2.	5.e-002	-4.234
20408	22.153	2.2727	0.	-385.43
20409	22.246	2.1818	0.	-366.04
20410	22.153	2.1818	5.e-002	-4.244
20411	22.153	2.4545	0.	-385.65
20412	22.246	2.3636	0.	-366.3
20413	22.153	2.3636	5.e-002	-4.2521
20414	22.153	2.6364	0.	-385.8
20415	22.246	2.5455	0.	-366.49
20416	22.153	2.5455	5.e-002	-4.2583
20417	22.153	2.8182	0.	-385.89
20418	22.246	2.7273	0.	-366.61
20419	22.153	2.7273	5.e-002	-4.2625
20420	22.153	3.	0.	-385.92
20421	22.246	2.9091	0.	-366.67
20422	22.153	2.9091	5.e-002	-4.2646
20423	22.153	3.1818	0.	-385.89
20424	22.246	3.0909	0.	-366.67
20425	22.153	3.0909	5.e-002	-4.2646
20426	22.153	3.3636	0.	-385.8
20427	22.246	3.2727	0.	-366.61
20428	22.153	3.2727	5.e-002	-4.2625
20429	22.153	3.5455	0.	-385.65
20430	22.246	3.4545	0.	-366.49
20431	22.153	3.4545	5.e-002	-4.2583
20432	22.153	3.7273	0.	-385.43
20433	22.246	3.6364	0.	-366.3
20434	22.153	3.6364	5.e-002	-4.2521
20435	22.153	3.9091	0.	-385.16
20436	22.246	3.8182	0.	-366.04
20437	22.153	3.8182	5.e-002	-4.244
20438	22.153	4.0909	0.	-384.81
20439	22.246	4.	0.	-365.72
20440	22.153	4.	5.e-002	-4.234
20441	22.153	4.2727	0.	-384.41
20442	22.246	4.1818	0.	-365.33
20443	22.153	4.1818	5.e-002	-4.2222
20444	22.153	4.4545	0.	-383.97
20445	22.246	4.3636	0.	-364.88
20446	22.153	4.3636	5.e-002	-4.2088
20447	22.153	4.6364	0.	-383.49
20448	22.246	4.5455	0.	-364.38
20449	22.153	4.5455	5.e-002	-4.194
20450	22.153	4.8182	0.	-383.02
20451	22.246	4.7273	0.	-363.85
20452	22.153	4.7273	5.e-002	-4.1781
20453	22.153	5.	0.	-382.6
20454	22.246	4.9091	0.	-363.32
20455	22.153	4.9091	5.e-002	-4.1613
20456	22.153	5.1818	0.	-382.32
20457	22.246	5.0909	0.	-362.87
20458	22.153	5.0909	5.e-002	-4.1438
20459	22.153	5.3636	0.	-382.25
20460	22.246	5.2727	0.	-362.58
20461	22.153	5.2727	5.e-002	-4.1256
20462	22.153	5.5455	0.	-382.61
20463	22.246	5.4545	0.	-362.57
20464	22.153	5.4545	5.e-002	-4.0985
20465	22.153	5.7273	0.	-384.49
20466	22.246	5.6364	0.	-363.12
20467	22.153	5.6364	5.e-002	-3.9372
20468	22.246	5.8182	0.	-366.35
20469	22.153	5.8182	5.e-002	-1.7632
20470	22.153	5.9091	0.	-380.
20471	22.338	0.27273	0.	-344.7
20472	22.43	0.18182	0.	-326.57
20473	22.338	0.18182	5.e-002	-1.8794
20474	22.338	9.0909e-002	0.	-340.17
20475	22.338	0.45455	0.	-342.98
20476	22.43	0.36364	0.	-323.5
20477	22.338	0.36364	5.e-002	-3.9375
20478	22.338	0.63636	0.	-342.82
20479	22.43	0.54545	0.	-323.14
20480	22.338	0.54545	5.e-002	-4.0937
20481	22.338	0.81818	0.	-343.07
20482	22.43	0.72727	0.	-323.36
20483	22.338	0.72727	5.e-002	-4.1223
20484	22.338	1.	0.	-343.54
20485	22.43	0.90909	0.	-323.84
20486	22.338	0.90909	5.e-002	-4.1425
20487	22.338	1.1818	0.	-344.11
20488	22.43	1.0909	0.	-324.45
20489	22.338	1.0909	5.e-002	-4.1618
20490	22.338	1.3636	0.	-344.69
20491	22.43	1.2727	0.	-325.1
20492	22.338	1.2727	5.e-002	-4.1801
20493	22.338	1.5455	0.	-345.26
20494	22.43	1.4545	0.	-325.72
20495	22.338	1.4545	5.e-002	-4.1973
20496	22.338	1.7273	0.	-345.77
20497	22.43	1.6364	0.	-326.29
20498	22.338	1.6364	5.e-002	-4.213
20499	22.338	1.9091	0.	-346.22
20500	22.43	1.8182	0.	-326.79
20501	22.338	1.8182	5.e-002	-4.2271
20502	22.338	2.0909	0.	-346.59
20503	22.43	2.	0.	-327.21
20504	22.338	2.	5.e-002	-4.2394
20505	22.338	2.2727	0.	-346.89
20506	22.43	2.1818	0.	-327.55
20507	22.338	2.1818	5.e-002	-4.2497
20508	22.338	2.4545	0.	-347.12
20509	22.43	2.3636	0.	-327.81
20510	22.338	2.3636	5.e-002	-4.2581
20511	22.338	2.6364	0.	-347.28
20512	22.43	2.5455	0.	-328.
20513	22.338	2.5455	5.e-002	-4.2644
20514	22.338	2.8182	0.	-347.38
20515	22.43	2.7273	0.	-328.13
20516	22.338	2.7273	5.e-002	-4.2686
20517	22.338	3.	0.	-347.41
20518	22.43	2.9091	0.	-328.19
20519	22.338	2.9091	5.e-002	-4.2707
20520	22.338	3.1818	0.	-347.38
20521	22.43	3.0909	0.	-328.19
20522	22.338	3.0909	5.e-002	-4.2707
20523	22.338	3.3636	0.	-347.28
20524	22.43	3.2727	0.	-328.13
20525	22.338	3.2727	5.e-002	-4.2686
20526	22.338	3.5455	0.	-347.12
20527	22.43	3.4545	0.	-328.
20528	22.338	3.4545	5.e-002	-4.2644
20529	22.338	3.7273	0.	-346.89
20530	22.43	3.6364	0.	-327.81
20531	22.338	3.6364	5.e-002	-4.2581
20532	22.338	3.9091	0.	-346.59
20533	22.43	3.8182	0.	-327.55
20534	22.338	3.8182	5.e-002	-4.2497
20535	22.338	4.0909	0.	-346.22
20536	22.43	4.	0.	-327.21
20537	22.338	4.	5.e-002	-4.2394
20538	22.338	4.2727	0.	-345.77
20539	22.43	4.1818	0.	-326.79
20540	22.338	4.1818	5.e-002	-4.2271
20541	22.338	4.4545	0.	-345.26
20542	22.43	4.3636	0.	-326.29
20543	22.338	4.3636	5.e-002	-4.213
20544	22.338	4.6364	0.	-344.69
20545	22.43	4.5455	0.	-325.72
20546	22.338	4.5455	5.e-002	-4.1973
20547	22.338	4.8182	0.	-344.11
20548	22.43	4.7273	0.	-325.1
20549	22.338	4.7273	5.e-002	-4.1801
20550	22.338	5.	0.	-343.54
20551	22.43	4.9091	0.	-324.45
20552	22.338	4.9091	5.e-002	-4.1618
20553	22.338	5.1818	0.	-343.07
20554	22.43	5.0909	0.	-323.84
20555	22.338	5.0909	5.e-002	-4.1426
20556	22.338	5.3636	0.	-342.82
20557	22.43	5.2727	0.	-323.36
20558	22.338	5.2727	5.e-002	-4.1223
20559	22.338	5.5455	0.	-342.98
20560	22.43	5.4545	0.	-323.14
20561	22.338	5.4545	5.e-002	-4.0937
20562	22.338	5.7273	0.	-344.7
20563	22.43	5.6364	0.	-323.5
20564	22.338	5.6364	5.e-002	-3.9375
20565	22.43	5.8182	0.	-326.57
20566	22.338	5.8182	5.e-002	-1.8794
20567	22.338	5.9091	0.	-340.17
20568	22.523	0.27273	0.	-305.06
20569	22.615	0.18182	0.	-286.94
20570	22.523	0.18182	5.e-002	-2.01
20571	22.523	9.0909e-002	0.	-300.54
20572	22.523	0.45455	0.	-303.54
20573	22.615	0.36364	0.	-284.06
20574	22.523	0.36364	5.e-002	-3.9401
20575	22.523	0.63636	0.	-303.59
20576	22.615	0.54545	0.	-283.93
20577	22.523	0.54545	5.e-002	-4.0909
20578	22.523	0.81818	0.	-304.05
20579	22.615	0.72727	0.	-284.37
20580	22.523	0.72727	5.e-002	-4.1219
20581	22.523	1.	0.	-304.7
20582	22.615	0.90909	0.	-285.04
20583	22.523	0.90909	5.e-002	-4.1446
20584	22.523	1.1818	0.	-305.4
20585	22.615	1.0909	0.	-285.8
20586	22.523	1.0909	5.e-002	-4.166
20587	22.523	1.3636	0.	-306.09
20588	22.615	1.2727	0.	-286.55
20589	22.523	1.2727	5.e-002	-4.1862
20590	22.523	1.5455	0.	-306.73
20591	22.615	1.4545	0.	-287.25
20592	22.523	1.4545	5.e-002	-4.2048
20593	22.523	1.7273	0.	-307.28
20594	22.615	1.6364	0.	-287.85
20595	22.523	1.6364	5.e-002	-4.2216
20596	22.523	1.9091	0.	-307.75
20597	22.615	1.8182	0.	-288.37
20598	22.523	1.8182	5.e-002	-4.2364
20599	22.523	2.0909	0.	-308.14
20600	22.615	2.	0.	-288.8
20601	22.523	2.	5.e-002	-4.2491
20602	22.523	2.2727	0.	-308.45
20603	22.615	2.1818	0.	-289.14
20604	22.523	2.1818	5.e-002	-4.2598
20605	22.523	2.4545	0.	-308.68
20606	22.615	2.3636	0.	-289.4
20607	22.523	2.3636	5.e-002	-4.2683
20608	22.523	2.6364	0.	-308.84
20609	22.615	2.5455	0.	-289.59
20610	22.523	2.5455	5.e-002	-4.2746
20611	22.523	2.8182	0.	-308.94
20612	22.615	2.7273	0.	-289.71
20613	22.523	2.7273	5.e-002	-4.2789
20614	22.523	3.	0.	-308.97
20615	22.615	2.9091	0.	-289.77
20616	22.523	2.9091	5.e-002	-4.281
20617	22.523	3.1818	0.	-308.94
20618	22.615	3.0909	0.	-289.77
20619	22.523	3.0909	5.e-002	-4.281
20620	22.523	3.3636	0.	-308.84
20621	22.615	3.2727	0.	-289.71
20622	22.523	3.2727	5.e-002	-4.2789
20623	22.523	3.5455	0.	-308.68
20624	22.615	3.4545	0.	-289.59
20625	22.523	3.4545	5.e-002	-4.2746
20626	22.523	3.7273	0.	-308.45
20627	22.615	3.6364	0.	-289.4
20628	22.523	3.6364	5.e-002	-4.2683
20629	22.523	3.9091	0.	-308.14
20630	22.615	3.8182	0.	-289.14
20631	22.523	3.8182	5.e-002	-4.2598
20632	22.523	4.0909	0.	-307.75
20633	22.615	4.	0.	-288.8
20634	22.523	4.	5.e-002	-4.2491
20635	22.523	4.2727	0.	-307.28
20636	22.615	4.1818	0.	-288.37
20637	22.523	4.1818	5.e-002	-4.2364
20638	22.523	4.4545	0.	-306.73
20639	22.615	4.3636	0.	-287.85
20640	22.523	4.3636	5.e-002	-4.2216
20641	22.523	4.6364	0.	-306.09
20642	22.615	4.5455	0.	-287.25
20643	22.523	4.5455	5.e-002	-4.2048
20644	22.523	4.8182	0.	-305.4
20645	22.615	4.7273	0.	-286.55
20646	22.523	4.7273	5.e-002	-4.1862
20647	22.523	5.	0.	-304.7
20648	22.615	4.9091	0.	-285.8
20649	22.523	4.9091	5.e-002	-4.166
20650	22.523	5.1818	0.	-304.05
20651	22.615	5.0909	0.	-285.04
20652	22.523	5.0909	5.e-002	-4.1446
20653	22.523	5.3636	0.	-303.59
20654	22.615	5.2727	0.	-284.37
20655	22.523	5.2727	5.e-002	-4.1219
20656	22.523	5.5455	0.	-303.54
20657	22.615	5.4545	0.	-283.93
20658	22.523	5.4545	5.e-002	-4.0909
20659	22.523	5.7273	0.	-305.06
20660	22.615	5.6364	0.	-284.06
20661	22.523	5.6364	5.e-002	-3.9401
20662	22.615	5.8182	0.	-286.94
20663	22.523	5.8182	5.e-002	-2.01
20664	22.523	5.9091	0.	-300.54
20665	22.707	0.27273	0.	-265.6
20666	22.8	0.18182	0.	-247.47
20667	22.707	0.18182	5.e-002	-2.1564
20668	22.707	9.0909e-002	0.	-261.14
20669	22.707	0.45455	0.	-264.31
20670	22.8	0.36364	0.	-244.84
20671	22.707	0.36364	5.e-002	-3.9453
20672	22.707	0.63636	0.	-264.6
20673	22.8	0.54545	0.	-244.96
20674	22.707	0.54545	5.e-002	-4.091
20675	22.707	0.81818	0.	-265.28
20676	22.8	0.72727	0.	-245.64
20677	22.707	0.72727	5.e-002	-4.1251
20678	22.707	1.	0.	-266.09
20679	22.8	0.90909	0.	-246.5
20680	22.707	0.90909	5.e-002	-4.1511
20681	22.707	1.1818	0.	-266.91
20682	22.8	1.0909	0.	-247.39
20683	22.707	1.0909	5.e-002	-4.1752
20684	22.707	1.3636	0.	-267.68
20685	22.8	1.2727	0.	-248.21
20686	22.707	1.2727	5.e-002	-4.1974
20687	22.707	1.5455	0.	-268.35
20688	22.8	1.4545	0.	-248.94
20689	22.707	1.4545	5.e-002	-4.2175
20690	22.707	1.7273	0.	-268.92
20691	22.8	1.6364	0.	-249.55
20692	22.707	1.6364	5.e-002	-4.2352
20693	22.707	1.9091	0.	-269.4
20694	22.8	1.8182	0.	-250.06
20695	22.707	1.8182	5.e-002	-4.2506
20696	22.707	2.0909	0.	-269.78
20697	22.8	2.	0.	-250.47
20698	22.707	2.	5.e-002	-4.2636
20699	22.707	2.2727	0.	-270.07
20700	22.8	2.1818	0.	-250.79
20701	22.707	2.1818	5.e-002	-4.2744
20702	22.707	2.4545	0.	-270.29
20703	22.8	2.3636	0.	-251.03
20704	22.707	2.3636	5.e-002	-4.2829
20705	22.707	2.6364	0.	-270.45
20706	22.8	2.5455	0.	-251.2
20707	22.707	2.5455	5.e-002	-4.2892
20708	22.707	2.8182	0.	-270.53
20709	22.8	2.7273	0.	-251.31
20710	22.707	2.7273	5.e-002	-4.2934
20711	22.707	3.	0.	-270.56
20712	22.8	2.9091	0.	-251.37
20713	22.707	2.9091	5.e-002	-4.2955
20714	22.707	3.1818	0.	-270.53
20715	22.8	3.0909	0.	-251.37
20716	22.707	3.0909	5.e-002	-4.2955
20717	22.707	3.3636	0.	-270.45
20718	22.8	3.2727	0.	-251.31
20719	22.707	3.2727	5.e-002	-4.2934
20720	22.707	3.5455	0.	-270.29
20721	22.8	3.4545	0.	-251.2
20722	22.707	3.4545	5.e-002	-4.2892
20723	22.707	3.7273	0.	-270.07
20724	22.8	3.6364	0.	-251.03
20725	22.707	3.6364	5.e-002	-4.2829
20726	22.707	3.9091	0.	-269.78
20727	22.8	3.8182	0.	-250.79
20728	22.707	3.8182	5.e-002	-4.2744
20729	22.707	4.0909	0.	-269.4
20730	22.8	4.	0.	-250.47
20731	22.707	4.	5.e-002	-4.2636
20732	22.707	4.2727	0.	-268.92
20733	22.8	4.1818	0.	-250.06
20734	22.707	4.1818	5.e-002	-4.2506
20735	22.707	4.4545	0.	-268.35
20736	22.8	4.3636	0.	-249.55
20737	22.707	4.3636	5.e-002	-4.2352
20738	22.707	4.6364	0.	-267.68
20739	22.8	4.5455	0.	-248.94
20740	22.707	4.5455	5.e-002	-4.2175
20741	22.707	4.8182	0.	-266.91
20742	22.8	4.7273	0.	-248.21
20743	22.707	4.7273	5.e-002	-4.1974
20744	22.707	5.	0.	-266.09
20745	22.8	4.9091	0.	-247.39
20746	22.707	4.9091	5.e-002	-4.1752
20747	22.707	5.1818	0.	-265.28
20748	22.8	5.0909	0.	-246.5
20749	22.707	5.0909	5.e-002	-4.1511
20750	22.707	5.3636	0.	-264.6
20751	22.8	5.2727	0.	-245.64
20752	22.707	5.2727	5.e-002	-4.1251
20753	22.707	5.5455	0.	-264.31
20754	22.8	5.4545	0.	-244.96
20755	22.707	5.4545	5.e-002	-4.091
20756	22.707	5.7273	0.	-265.6
20757	22.8	5.6364	0.	-244.84
20758	22.707	5.6364	5.e-002	-3.9453
20759	22.8	5.8182	0.	-247.47
20760	22.707	5.8182	5.e-002	-2.1564
20761	22.707	5.9091	0.	-261.14
20762	22.892	0.27273	0.	-226.33
20763	22.984	0.18182	0.	-208.18
20764	22.892	0.18182	5.e-002	-2.3208
20765	22.892	9.0909e-002	0.	-222.
20766	22.892	0.45455	0.	-225.34
20767	22.984	0.36364	0.	-205.89
20768	22.892	0.36364	5.e-002	-3.9541
20769	22.892	0.63636	0.	-225.89
20770	22.984	0.54545	0.	-206.3
20771	22.892	0.54545	5.e-002	-4.0953
20772	22.892	0.81818	0.	-226.79
20773	22.984	0.72727	0.	-207.23
20774	22.892	0.72727	5.e-002	-4.1337
20775	22.892	1.	0.	-227.74
20776	22.984	0.90909	0.	-208.25
20777	22.892	0.90909	5.e-002	-4.1637
20778	22.892	1.1818	0.	-228.64
20779	22.984	1.0909	0.	-209.21
20780	22.892	1.0909	5.e-002	-4.1908
20781	22.892	1.3636	0.	-229.44
20782	22.984	1.2727	0.	-210.06
20783	22.892	1.2727	5.e-002	-4.2151
20784	22.892	1.5455	0.	-230.11
20785	22.984	1.4545	0.	-210.77
20786	22.892	1.4545	5.e-002	-4.2364
20787	22.892	1.7273	0.	-230.67
20788	22.984	1.6364	0.	-211.35
20789	22.892	1.6364	5.e-002	-4.2547
20790	22.892	1.9091	0.	-231.12
20791	22.984	1.8182	0.	-211.82
20792	22.892	1.8182	5.e-002	-4.2703
20793	22.892	2.0909	0.	-231.47
20794	22.984	2.	0.	-212.18
20795	22.892	2.	5.e-002	-4.2833
20796	22.892	2.2727	0.	-231.73
20797	22.984	2.1818	0.	-212.46
20798	22.892	2.1818	5.e-002	-4.2939
20799	22.892	2.4545	0.	-231.93
20800	22.984	2.3636	0.	-212.67
20801	22.892	2.3636	5.e-002	-4.3021
20802	22.892	2.6364	0.	-232.06
20803	22.984	2.5455	0.	-212.82
20804	22.892	2.5455	5.e-002	-4.3082
20805	22.892	2.8182	0.	-232.14
20806	22.984	2.7273	0.	-212.91
20807	22.892	2.7273	5.e-002	-4.3122
20808	22.892	3.	0.	-232.17
20809	22.984	2.9091	0.	-212.96
20810	22.892	2.9091	5.e-002	-4.3142
20811	22.892	3.1818	0.	-232.14
20812	22.984	3.0909	0.	-212.96
20813	22.892	3.0909	5.e-002	-4.3142
20814	22.892	3.3636	0.	-232.06
20815	22.984	3.2727	0.	-212.91
20816	22.892	3.2727	5.e-002	-4.3122
20817	22.892	3.5455	0.	-231.93
20818	22.984	3.4545	0.	-212.82
20819	22.892	3.4545	5.e-002	-4.3082
20820	22.892	3.7273	0.	-231.73
20821	22.984	3.6364	0.	-212.67
20822	22.892	3.6364	5.e-002	-4.3021
20823	22.892	3.9091	0.	-231.47
20824	22.984	3.8182	0.	-212.46
20825	22.892	3.8182	5.e-002	-4.2939
20826	22.892	4.0909	0.	-231.12
20827	22.984	4.	0.	-212.18
20828	22.892	4.	5.e-002	-4.2833
20829	22.892	4.2727	0.	-230.67
20830	22.984	4.1818	0.	-211.82
20831	22.892	4.1818	5.e-002	-4.2704
20832	22.892	4.4545	0.	-230.11
20833	22.984	4.3636	0.	-211.35
20834	22.892	4.3636	5.e-002	-4.2548
20835	22.892	4.6364	0.	-229.44
20836	22.984	4.5455	0.	-210.77
20837	22.892	4.5455	5.e-002	-4.2364
20838	22.892	4.8182	0.	-228.64
20839	22.984	4.7273	0.	-210.06
20840	22.892	4.7273	5.e-002	-4.2151
20841	22.892	5.	0.	-227.74
20842	22.984	4.9091	0.	-209.21
20843	22.892	4.9091	5.e-002	-4.1908
20844	22.892	5.1818	0.	-226.79
20845	22.984	5.0909	0.	-208.25
20846	22.892	5.0909	5.e-002	-4.1637
20847	22.892	5.3636	0.	-225.89
20848	22.984	5.2727	0.	-207.23
20849	22.892	5.2727	5.e-002	-4.1337
20850	22.892	5.5455	0.	-225.34
20851	22.984	5.4545	0.	-206.3
20852	22.892	5.4545	5.e-002	-4.0953
20853	22.892	5.7273	0.	-226.33
20854	22.984	5.6364	0.	-205.89
20855	22.892	5.6364	5.e-002	-3.9541
20856	22.984	5.8182	0.	-208.18
20857	22.892	5.8182	5.e-002	-2.3208
20858	22.892	5.9091	0.	-222.
20859	23.077	0.27273	0.	-187.31
20860	23.169	0.18182	0.	-169.13
20861	23.077	0.18182	5.e-002	-2.5062
20862	23.077	9.0909e-002	0.	-183.18
20863	23.077	0.45455	0.	-186.68
20864	23.169	0.36364	0.	-167.28
20865	23.077	0.36364	5.e-002	-3.9681
20866	23.077	0.63636	0.	-187.53
20867	23.169	0.54545	0.	-168.03
20868	23.077	0.54545	5.e-002	-4.106
20869	23.077	0.81818	0.	-188.61
20870	23.169	0.72727	0.	-169.18
20871	23.077	0.72727	5.e-002	-4.1503
20872	23.077	1.	0.	-189.66
20873	23.169	0.90909	0.	-170.29
20874	23.077	0.90909	5.e-002	-4.185
20875	23.077	1.1818	0.	-190.59
20876	23.169	1.0909	0.	-171.26
20877	23.077	1.0909	5.e-002	-4.215
20878	23.077	1.3636	0.	-191.36
20879	23.169	1.2727	0.	-172.07
20880	23.077	1.2727	5.e-002	-4.2408
20881	23.077	1.5455	0.	-191.99
20882	23.169	1.4545	0.	-172.71
20883	23.077	1.4545	5.e-002	-4.2627
20884	23.077	1.7273	0.	-192.48
20885	23.169	1.6364	0.	-173.21
20886	23.077	1.6364	5.e-002	-4.281
20887	23.077	1.9091	0.	-192.87
20888	23.169	1.8182	0.	-173.6
20889	23.077	1.8182	5.e-002	-4.2962
20890	23.077	2.0909	0.	-193.17
20891	23.169	2.	0.	-173.9
20892	23.077	2.	5.e-002	-4.3086
20893	23.077	2.2727	0.	-193.39
20894	23.169	2.1818	0.	-174.12
20895	23.077	2.1818	5.e-002	-4.3184
20896	23.077	2.4545	0.	-193.55
20897	23.169	2.3636	0.	-174.29
20898	23.077	2.3636	5.e-002	-4.3261
20899	23.077	2.6364	0.	-193.66
20900	23.169	2.5455	0.	-174.4
20901	23.077	2.5455	5.e-002	-4.3316
20902	23.077	2.8182	0.	-193.72
20903	23.169	2.7273	0.	-174.47
20904	23.077	2.7273	5.e-002	-4.3353
20905	23.077	3.	0.	-193.74
20906	23.169	2.9091	0.	-174.5
20907	23.077	2.9091	5.e-002	-4.337
20908	23.077	3.1818	0.	-193.72
20909	23.169	3.0909	0.	-174.5
20910	23.077	3.0909	5.e-002	-4.337
20911	23.077	3.3636	0.	-193.66
20912	23.169	3.2727	0.	-174.47
20913	23.077	3.2727	5.e-002	-4.3353
20914	23.077	3.5455	0.	-193.55
20915	23.169	3.4545	0.	-174.4
20916	23.077	3.4545	5.e-002	-4.3316
20917	23.077	3.7273	0.	-193.39
20918	23.169	3.6364	0.	-174.29
20919	23.077	3.6364	5.e-002	-4.3261
20920	23.077	3.9091	0.	-193.17
20921	23.169	3.8182	0.	-174.12
20922	23.077	3.8182	5.e-002	-4.3184
20923	23.077	4.0909	0.	-192.87
20924	23.169	4.	0.	-173.9
20925	23.077	4.	5.e-002	-4.3086
20926	23.077	4.2727	0.	-192.48
20927	23.169	4.1818	0.	-173.6
20928	23.077	4.1818	5.e-002	-4.2962
20929	23.077	4.4545	0.	-191.99
20930	23.169	4.3636	0.	-173.21
20931	23.077	4.3636	5.e-002	-4.281
20932	23.077	4.6364	0.	-191.36
20933	23.169	4.5455	0.	-172.71
20934	23.077	4.5455	5.e-002	-4.2627
20935	23.077	4.8182	0.	-190.59
20936	23.169	4.7273	0.	-172.07
20937	23.077	4.7273	5.e-002	-4.2408
20938	23.077	5.	0.	-189.66
20939	23.169	4.9091	0.	-171.26
20940	23.077	4.9091	5.e-002	-4.215
20941	23.077	5.1818	0.	-188.61
20942	23.169	5.0909	0.	-170.29
20943	23.077	5.0909	5.e-002	-4.185
20944	23.077	5.3636	0.	-187.53
20945	23.169	5.2727	0.	-169.18
20946	23.077	5.2727	5.e-002	-4.1503
20947	23.077	5.5455	0.	-186.68
20948	23.169	5.4545	0.	-168.03
20949	23.077	5.4545	5.e-002	-4.106
20950	23.077	5.7273	0.	-187.31
20951	23.169	5.6364	0.	-167.28
20952	23.077	5.6364	5.e-002	-3.9682
20953	23.169	5.8182	0.	-169.13
20954	23.077	5.8182	5.e-002	-2.5062
20955	23.077	5.9091	0.	-183.18
20956	23.261	0.27273	0.	-148.6
20957	23.354	0.18182	0.	-130.38
20958	23.261	0.18182	5.e-002	-2.7178
20959	23.261	9.0909e-002	0.	-144.76
20960	23.261	0.45455	0.	-148.44
20961	23.354	0.36364	0.	-129.16
20962	23.261	0.36364	5.e-002	-3.9907
20963	23.261	0.63636	0.	-149.58
20964	23.354	0.54545	0.	-130.27
20965	23.261	0.54545	5.e-002	-4.1283
20966	23.261	0.81818	0.	-150.79
20967	23.354	0.72727	0.	-131.55
20968	23.261	0.72727	5.e-002	-4.1798
20969	23.261	1.	0.	-151.85
20970	23.354	0.90909	0.	-132.64
20971	23.261	0.90909	5.e-002	-4.2187
20972	23.261	1.1818	0.	-152.71
20973	23.354	1.0909	0.	-133.51
20974	23.261	1.0909	5.e-002	-4.2506
20975	23.261	1.3636	0.	-153.39
20976	23.354	1.2727	0.	-134.19
20977	23.261	1.2727	5.e-002	-4.2766
20978	23.261	1.5455	0.	-153.92
20979	23.354	1.4545	0.	-134.7
20980	23.261	1.4545	5.e-002	-4.2977
20981	23.261	1.7273	0.	-154.32
20982	23.354	1.6364	0.	-135.08
20983	23.261	1.6364	5.e-002	-4.3148
20984	23.261	1.9091	0.	-154.62
20985	23.354	1.8182	0.	-135.37
20986	23.261	1.8182	5.e-002	-4.3286
20987	23.261	2.0909	0.	-154.85
20988	23.354	2.	0.	-135.58
20989	23.261	2.	5.e-002	-4.3396
20990	23.261	2.2727	0.	-155.01
20991	23.354	2.1818	0.	-135.73
20992	23.261	2.1818	5.e-002	-4.3482
20993	23.261	2.4545	0.	-155.12
20994	23.354	2.3636	0.	-135.83
20995	23.261	2.3636	5.e-002	-4.3547
20996	23.261	2.6364	0.	-155.2
20997	23.354	2.5455	0.	-135.91
20998	23.261	2.5455	5.e-002	-4.3594
20999	23.261	2.8182	0.	-155.24
21000	23.354	2.7273	0.	-135.95
21001	23.261	2.7273	5.e-002	-4.3625
21002	23.261	3.	0.	-155.26
21003	23.354	2.9091	0.	-135.97
21004	23.261	2.9091	5.e-002	-4.364
21005	23.261	3.1818	0.	-155.24
21006	23.354	3.0909	0.	-135.97
21007	23.261	3.0909	5.e-002	-4.364
21008	23.261	3.3636	0.	-155.2
21009	23.354	3.2727	0.	-135.95
21010	23.261	3.2727	5.e-002	-4.3625
21011	23.261	3.5455	0.	-155.12
21012	23.354	3.4545	0.	-135.91
21013	23.261	3.4545	5.e-002	-4.3594
21014	23.261	3.7273	0.	-155.01
21015	23.354	3.6364	0.	-135.83
21016	23.261	3.6364	5.e-002	-4.3547
21017	23.261	3.9091	0.	-154.85
21018	23.354	3.8182	0.	-135.73
21019	23.261	3.8182	5.e-002	-4.3482
21020	23.261	4.0909	0.	-154.62
21021	23.354	4.	0.	-135.58
21022	23.261	4.	5.e-002	-4.3396
21023	23.261	4.2727	0.	-154.32
21024	23.354	4.1818	0.	-135.37
21025	23.261	4.1818	5.e-002	-4.3286
21026	23.261	4.4545	0.	-153.92
21027	23.354	4.3636	0.	-135.08
21028	23.261	4.3636	5.e-002	-4.3148
21029	23.261	4.6364	0.	-153.39
21030	23.354	4.5455	0.	-134.7
21031	23.261	4.5455	5.e-002	-4.2977
21032	23.261	4.8182	0.	-152.71
21033	23.354	4.7273	0.	-134.19
21034	23.261	4.7273	5.e-002	-4.2766
21035	23.261	5.	0.	-151.85
21036	23.354	4.9091	0.	-133.51
21037	23.261	4.9091	5.e-002	-4.2506
21038	23.261	5.1818	0.	-150.79
21039	23.354	5.0909	0.	-132.64
21040	23.261	5.0909	5.e-002	-4.2188
21041	23.261	5.3636	0.	-149.58
21042	23.354	5.2727	0.	-131.55
21043	23.261	5.2727	5.e-002	-4.1798
21044	23.261	5.5455	0.	-148.44
21045	23.354	5.4545	0.	-130.27
21046	23.261	5.4545	5.e-002	-4.1283
21047	23.261	5.7273	0.	-148.6
21048	23.354	5.6364	0.	-129.16
21049	23.261	5.6364	5.e-002	-3.9907
21050	23.354	5.8182	0.	-130.38
21051	23.261	5.8182	5.e-002	-2.7178
21052	23.261	5.9091	0.	-144.76
21053	23.446	0.27273	0.	-110.37
21054	23.538	0.18182	0.	-92.132
21055	23.446	0.18182	5.e-002	-2.9624
21056	23.446	9.0909e-002	0.	-106.92
21057	23.446	0.45455	0.	-110.8
21058	23.538	0.36364	0.	-91.794
21059	23.446	0.36364	5.e-002	-4.0316
21060	23.446	0.63636	0.	-112.14
21061	23.538	0.54545	0.	-93.137
21062	23.446	0.54545	5.e-002	-4.1724
21063	23.446	0.81818	0.	-113.34
21064	23.538	0.72727	0.	-94.337
21065	23.446	0.72727	5.e-002	-4.2298
21066	23.446	1.	0.	-114.27
21067	23.538	0.90909	0.	-95.229
21068	23.446	0.90909	5.e-002	-4.2703
21069	23.446	1.1818	0.	-114.97
21070	23.538	1.0909	0.	-95.873
21071	23.446	1.0909	5.e-002	-4.3009
21072	23.446	1.3636	0.	-115.48
21073	23.538	1.2727	0.	-96.332
21074	23.446	1.2727	5.e-002	-4.3244
21075	23.446	1.5455	0.	-115.85
21076	23.538	1.4545	0.	-96.658
21077	23.446	1.4545	5.e-002	-4.3425
21078	23.446	1.7273	0.	-116.12
21079	23.538	1.6364	0.	-96.887
21080	23.446	1.6364	5.e-002	-4.3567
21081	23.446	1.9091	0.	-116.32
21082	23.538	1.8182	0.	-97.047
21083	23.446	1.8182	5.e-002	-4.3677
21084	23.446	2.0909	0.	-116.45
21085	23.538	2.	0.	-97.157
21086	23.446	2.	5.e-002	-4.3763
21087	23.446	2.2727	0.	-116.55
21088	23.538	2.1818	0.	-97.231
21089	23.446	2.1818	5.e-002	-4.3828
21090	23.446	2.4545	0.	-116.62
21091	23.538	2.3636	0.	-97.281
21092	23.446	2.3636	5.e-002	-4.3877
21093	23.446	2.6364	0.	-116.66
21094	23.538	2.5455	0.	-97.312
21095	23.446	2.5455	5.e-002	-4.3912
21096	23.446	2.8182	0.	-116.68
21097	23.538	2.7273	0.	-97.33
21098	23.446	2.7273	5.e-002	-4.3934
21099	23.446	3.	0.	-116.69
21100	23.538	2.9091	0.	-97.339
21101	23.446	2.9091	5.e-002	-4.3945
21102	23.446	3.1818	0.	-116.68
21103	23.538	3.0909	0.	-97.339
21104	23.446	3.0909	5.e-002	-4.3945
21105	23.446	3.3636	0.	-116.66
21106	23.538	3.2727	0.	-97.33
21107	23.446	3.2727	5.e-002	-4.3934
21108	23.446	3.5455	0.	-116.62
21109	23.538	3.4545	0.	-97.312
21110	23.446	3.4545	5.e-002	-4.3912
21111	23.446	3.7273	0.	-116.55
21112	23.538	3.6364	0.	-97.281
21113	23.446	3.6364	5.e-002	-4.3877
21114	23.446	3.9091	0.	-116.45
21115	23.538	3.8182	0.	-97.231
21116	23.446	3.8182	5.e-002	-4.3828
21117	23.446	4.0909	0.	-116.32
21118	23.538	4.	0.	-97.157
21119	23.446	4.	5.e-002	-4.3763
21120	23.446	4.2727	0.	-116.12
21121	23.538	4.1818	0.	-97.047
21122	23.446	4.1818	5.e-002	-4.3677
21123	23.446	4.4545	0.	-115.85
21124	23.538	4.3636	0.	-96.887
21125	23.446	4.3636	5.e-002	-4.3567
21126	23.446	4.6364	0.	-115.48
21127	23.538	4.5455	0.	-96.658
21128	23.446	4.5455	5.e-002	-4.3425
21129	23.446	4.8182	0.	-114.97
21130	23.538	4.7273	0.	-96.332
21131	23.446	4.7273	5.e-002	-4.3244
21132	23.446	5.	0.	-114.27
21133	23.538	4.9091	0.	-95.873
21134	23.446	4.9091	5.e-002	-4.3009
21135	23.446	5.1818	0.	-113.34
21136	23.538	5.0909	0.	-95.229
21137	23.446	5.0909	5.e-002	-4.2703
21138	23.446	5.3636	0.	-112.14
21139	23.538	5.2727	0.	-94.337
21140	23.446	5.2727	5.e-002	-4.2298
21141	23.446	5.5455	0.	-110.8
21142	23.538	5.4545	0.	-93.137
21143	23.446	5.4545	5.e-002	-4.1724
21144	23.446	5.7273	0.	-110.37
21145	23.538	5.6364	0.	-91.794
21146	23.446	5.6364	5.e-002	-4.0316
21147	23.538	5.8182	0.	-92.132
21148	23.446	5.8182	5.e-002	-2.9624
21149	23.446	5.9091	0.	-106.92
21150	23.631	0.27273	0.	-72.922
21151	23.723	0.18182	0.	-55.149
21152	23.631	0.18182	5.e-002	-3.2718
21153	23.631	9.0909e-002	0.	-69.941
21154	23.631	0.45455	0.	-73.974
21155	23.723	0.36364	0.	-55.715
21156	23.631	0.36364	5.e-002	-4.129
21157	23.631	0.63636	0.	-75.266
21158	23.723	0.54545	0.	-56.792
21159	23.631	0.54545	5.e-002	-4.2633
21160	23.631	0.81818	0.	-76.193
21161	23.723	0.72727	0.	-57.55
21162	23.631	0.72727	5.e-002	-4.3174
21163	23.631	1.	0.	-76.816
21164	23.723	0.90909	0.	-58.019
21165	23.631	0.90909	5.e-002	-4.35
21166	23.631	1.1818	0.	-77.234
21167	23.723	1.0909	0.	-58.311
21168	23.631	1.0909	5.e-002	-4.3726
21169	23.631	1.3636	0.	-77.513
21170	23.723	1.2727	0.	-58.487
21171	23.631	1.2727	5.e-002	-4.3886
21172	23.631	1.5455	0.	-77.698
21173	23.723	1.4545	0.	-58.589
21174	23.631	1.4545	5.e-002	-4.4002
21175	23.631	1.7273	0.	-77.818
21176	23.723	1.6364	0.	-58.644
21177	23.631	1.6364	5.e-002	-4.4086
21178	23.631	1.9091	0.	-77.895
21179	23.723	1.8182	0.	-58.668
21180	23.631	1.8182	5.e-002	-4.4149
21181	23.631	2.0909	0.	-77.943
21182	23.723	2.	0.	-58.674
21183	23.631	2.	5.e-002	-4.4195
21184	23.631	2.2727	0.	-77.971
21185	23.723	2.1818	0.	-58.67
21186	23.631	2.1818	5.e-002	-4.4229
21187	23.631	2.4545	0.	-77.986
21188	23.723	2.3636	0.	-58.661
21189	23.631	2.3636	5.e-002	-4.4253
21190	23.631	2.6364	0.	-77.994
21191	23.723	2.5455	0.	-58.651
21192	23.631	2.5455	5.e-002	-4.427
21193	23.631	2.8182	0.	-77.998
21194	23.723	2.7273	0.	-58.643
21195	23.631	2.7273	5.e-002	-4.428
21196	23.631	3.	0.	-77.999
21197	23.723	2.9091	0.	-58.638
21198	23.631	2.9091	5.e-002	-4.4285
21199	23.631	3.1818	0.	-77.998
21200	23.723	3.0909	0.	-58.638
21201	23.631	3.0909	5.e-002	-4.4285
21202	23.631	3.3636	0.	-77.994
21203	23.723	3.2727	0.	-58.643
21204	23.631	3.2727	5.e-002	-4.428
21205	23.631	3.5455	0.	-77.986
21206	23.723	3.4545	0.	-58.651
21207	23.631	3.4545	5.e-002	-4.427
21208	23.631	3.7273	0.	-77.971
21209	23.723	3.6364	0.	-58.661
21210	23.631	3.6364	5.e-002	-4.4253
21211	23.631	3.9091	0.	-77.943
21212	23.723	3.8182	0.	-58.67
21213	23.631	3.8182	5.e-002	-4.4229
21214	23.631	4.0909	0.	-77.895
21215	23.723	4.	0.	-58.674
21216	23.631	4.	5.e-002	-4.4195
21217	23.631	4.2727	0.	-77.818
21218	23.723	4.1818	0.	-58.668
21219	23.631	4.1818	5.e-002	-4.4149
21220	23.631	4.4545	0.	-77.698
21221	23.723	4.3636	0.	-58.644
21222	23.631	4.3636	5.e-002	-4.4086
21223	23.631	4.6364	0.	-77.513
21224	23.723	4.5455	0.	-58.589
21225	23.631	4.5455	5.e-002	-4.4002
21226	23.631	4.8182	0.	-77.234
21227	23.723	4.7273	0.	-58.487
21228	23.631	4.7273	5.e-002	-4.3886
21229	23.631	5.	0.	-76.816
21230	23.723	4.9091	0.	-58.311
21231	23.631	4.9091	5.e-002	-4.3726
21232	23.631	5.1818	0.	-76.193
21233	23.723	5.0909	0.	-58.019
21234	23.631	5.0909	5.e-002	-4.35
21235	23.631	5.3636	0.	-75.266
21236	23.723	5.2727	0.	-57.55
21237	23.631	5.2727	5.e-002	-4.3174
21238	23.631	5.5455	0.	-73.974
21239	23.723	5.4545	0.	-56.792
21240	23.631	5.4545	5.e-002	-4.2633
21241	23.631	5.7273	0.	-72.922
21242	23.723	5.6364	0.	-55.715
21243	23.631	5.6364	5.e-002	-4.129
21244	23.723	5.8182	0.	-55.149
21245	23.631	5.8182	5.e-002	-3.2718
21246	23.631	5.9091	0.	-69.941
21247	23.815	0.27273	0.	-37.391
21248	23.815	0.18182	5.e-002	-3.9239
21249	23.815	9.0909e-002	0.	-34.903
21250	23.908	0.18182	0.	-20.666
21251	23.815	0.45455	0.	-38.466
21252	23.815	0.36364	5.e-002	-4.4722
21253	23.908	0.36364	0.	-21.537
21254	23.815	0.63636	0.	-39.083
21255	23.815	0.54545	5.e-002	-4.5303
21256	23.908	0.54545	0.	-21.994
21257	23.815	0.81818	0.	-39.412
21258	23.815	0.72727	5.e-002	-4.5367
21259	23.908	0.72727	0.	-22.239
21260	23.815	1.	0.	-39.564
21261	23.815	0.90909	5.e-002	-4.5348
21262	23.908	0.90909	0.	-22.345
21263	23.815	1.1818	0.	-39.623
21264	23.815	1.0909	5.e-002	-4.5284
21265	23.908	1.0909	0.	-22.383
21266	23.815	1.3636	0.	-39.629
21267	23.815	1.2727	5.e-002	-4.5201
21268	23.908	1.2727	0.	-22.382
21269	23.815	1.5455	0.	-39.605
21270	23.815	1.4545	5.e-002	-4.5112
21271	23.908	1.4545	0.	-22.362
21272	23.815	1.7273	0.	-39.567
21273	23.815	1.6364	5.e-002	-4.5024
21274	23.908	1.6364	0.	-22.332
21275	23.815	1.9091	0.	-39.522
21276	23.815	1.8182	5.e-002	-4.4943
21277	23.908	1.8182	0.	-22.298
21278	23.815	2.0909	0.	-39.478
21279	23.815	2.	5.e-002	-4.4871
21280	23.908	2.	0.	-22.264
21281	23.815	2.2727	0.	-39.438
21282	23.815	2.1818	5.e-002	-4.4809
21283	23.908	2.1818	0.	-22.233
21284	23.815	2.4545	0.	-39.405
21285	23.815	2.3636	5.e-002	-4.4759
21286	23.908	2.3636	0.	-22.207
21287	23.815	2.6364	0.	-39.38
21288	23.815	2.5455	5.e-002	-4.4721
21289	23.908	2.5455	0.	-22.186
21290	23.815	2.8182	0.	-39.364
21291	23.815	2.7273	5.e-002	-4.4695
21292	23.908	2.7273	0.	-22.172
21293	23.815	3.	0.	-39.359
21294	23.815	2.9091	5.e-002	-4.4682
21295	23.908	2.9091	0.	-22.165
21296	23.815	3.1818	0.	-39.364
21297	23.815	3.0909	5.e-002	-4.4682
21298	23.908	3.0909	0.	-22.165
21299	23.815	3.3636	0.	-39.38
21300	23.815	3.2727	5.e-002	-4.4695
21301	23.908	3.2727	0.	-22.172
21302	23.815	3.5455	0.	-39.405
21303	23.815	3.4545	5.e-002	-4.4721
21304	23.908	3.4545	0.	-22.186
21305	23.815	3.7273	0.	-39.438
21306	23.815	3.6364	5.e-002	-4.4759
21307	23.908	3.6364	0.	-22.207
21308	23.815	3.9091	0.	-39.478
21309	23.815	3.8182	5.e-002	-4.4809
21310	23.908	3.8182	0.	-22.233
21311	23.815	4.0909	0.	-39.522
21312	23.815	4.	5.e-002	-4.4871
21313	23.908	4.	0.	-22.264
21314	23.815	4.2727	0.	-39.567
21315	23.815	4.1818	5.e-002	-4.4943
21316	23.908	4.1818	0.	-22.297
21317	23.815	4.4545	0.	-39.605
21318	23.815	4.3636	5.e-002	-4.5024
21319	23.908	4.3636	0.	-22.332
21320	23.815	4.6364	0.	-39.629
21321	23.815	4.5455	5.e-002	-4.5112
21322	23.908	4.5455	0.	-22.362
21323	23.815	4.8182	0.	-39.623
21324	23.815	4.7273	5.e-002	-4.5201
21325	23.908	4.7273	0.	-22.382
21326	23.815	5.	0.	-39.564
21327	23.815	4.9091	5.e-002	-4.5284
21328	23.908	4.9091	0.	-22.383
21329	23.815	5.1818	0.	-39.412
21330	23.815	5.0909	5.e-002	-4.5348
21331	23.908	5.0909	0.	-22.345
21332	23.815	5.3636	0.	-39.083
21333	23.815	5.2727	5.e-002	-4.5367
21334	23.908	5.2727	0.	-22.239
21335	23.815	5.5455	0.	-38.466
21336	23.815	5.4545	5.e-002	-4.5303
21337	23.908	5.4545	0.	-21.994
21338	23.815	5.7273	0.	-37.391
21339	23.815	5.6364	5.e-002	-4.4722
21340	23.908	5.6364	0.	-21.537
21341	23.815	5.8182	5.e-002	-3.9239
21342	23.908	5.8182	0.	-20.666
21343	23.815	5.9091	0.	-34.903
21344	23.815	5.7273	0.1	-41.973
21345	23.723	5.8182	0.1	-30.722
21346	23.815	5.9091	0.1	-19.694
21347	23.908	5.8182	0.1	-32.617
21348	23.815	5.5455	0.1	-62.134
21349	23.723	5.6364	0.1	-49.641
21350	23.908	5.6364	0.1	-56.253
21351	23.815	5.3636	0.1	-79.035
21352	23.723	5.4545	0.1	-67.082
21353	23.908	5.4545	0.1	-75.199
21354	23.815	5.1818	0.1	-93.255
21355	23.723	5.2727	0.1	-82.02
21356	23.908	5.2727	0.1	-90.873
21357	23.815	5.	0.1	-105.38
21358	23.723	5.0909	0.1	-94.852
21359	23.908	5.0909	0.1	-104.14
21360	23.815	4.8182	0.1	-115.78
21361	23.723	4.9091	0.1	-105.9
21362	23.908	4.9091	0.1	-115.48
21363	23.815	4.6364	0.1	-124.7
21364	23.723	4.7273	0.1	-115.42
21365	23.908	4.7273	0.1	-125.21
21366	23.815	4.4545	0.1	-132.35
21367	23.723	4.5455	0.1	-123.61
21368	23.908	4.5455	0.1	-133.56
21369	23.815	4.2727	0.1	-138.85
21370	23.723	4.3636	0.1	-130.61
21371	23.908	4.3636	0.1	-140.69
21372	23.815	4.0909	0.1	-144.31
21373	23.723	4.1818	0.1	-136.53
21374	23.908	4.1818	0.1	-146.71
21375	23.815	3.9091	0.1	-148.81
21376	23.723	4.	0.1	-141.47
21377	23.908	4.	0.1	-151.74
21378	23.815	3.7273	0.1	-152.42
21379	23.723	3.8182	0.1	-145.49
21380	23.908	3.8182	0.1	-155.82
21381	23.815	3.5455	0.1	-155.18
21382	23.723	3.6364	0.1	-148.65
21383	23.908	3.6364	0.1	-159.03
21384	23.815	3.3636	0.1	-157.13
21385	23.723	3.4545	0.1	-150.99
21386	23.908	3.4545	0.1	-161.41
21387	23.815	3.1818	0.1	-158.29
21388	23.723	3.2727	0.1	-152.53
21389	23.908	3.2727	0.1	-162.97
21390	23.815	3.	0.1	-158.67
21391	23.723	3.0909	0.1	-153.3
21392	23.908	3.0909	0.1	-163.75
21393	23.815	2.8182	0.1	-158.29
21394	23.723	2.9091	0.1	-153.3
21395	23.908	2.9091	0.1	-163.75
21396	23.815	2.6364	0.1	-157.13
21397	23.723	2.7273	0.1	-152.53
21398	23.908	2.7273	0.1	-162.97
21399	23.815	2.4545	0.1	-155.18
21400	23.723	2.5455	0.1	-150.99
21401	23.908	2.5455	0.1	-161.41
21402	23.815	2.2727	0.1	-152.42
21403	23.723	2.3636	0.1	-148.65
21404	23.908	2.3636	0.1	-159.03
21405	23.815	2.0909	0.1	-148.81
21406	23.723	2.1818	0.1	-145.49
21407	23.908	2.1818	0.1	-155.82
21408	23.815	1.9091	0.1	-144.31
21409	23.723	2.	0.1	-141.47
21410	23.908	2.	0.1	-151.74
21411	23.815	1.7273	0.1	-138.85
21412	23.723	1.8182	0.1	-136.53
21413	23.908	1.8182	0.1	-146.71
21414	23.815	1.5455	0.1	-132.35
21415	23.723	1.6364	0.1	-130.61
21416	23.908	1.6364	0.1	-140.69
21417	23.815	1.3636	0.1	-124.7
21418	23.723	1.4545	0.1	-123.61
21419	23.908	1.4545	0.1	-133.56
21420	23.815	1.1818	0.1	-115.78
21421	23.723	1.2727	0.1	-115.42
21422	23.908	1.2727	0.1	-125.21
21423	23.815	1.	0.1	-105.38
21424	23.723	1.0909	0.1	-105.9
21425	23.908	1.0909	0.1	-115.48
21426	23.815	0.81818	0.1	-93.255
21427	23.723	0.90909	0.1	-94.852
21428	23.908	0.90909	0.1	-104.14
21429	23.815	0.63636	0.1	-79.035
21430	23.723	0.72727	0.1	-82.02
21431	23.908	0.72727	0.1	-90.873
21432	23.815	0.45455	0.1	-62.134
21433	23.723	0.54545	0.1	-67.082
21434	23.908	0.54545	0.1	-75.199
21435	23.815	0.27273	0.1	-41.973
21436	23.723	0.36364	0.1	-49.641
21437	23.908	0.36364	0.1	-56.253
21438	23.723	0.18182	0.1	-30.722
21439	23.908	0.18182	0.1	-32.617
21440	23.815	9.0909e-002	0.1	-19.694
21441	23.631	5.7273	0.1	-37.796
21442	23.538	5.8182	0.1	-29.828
21443	23.631	5.9091	0.1	-19.897
21444	23.631	5.5455	0.1	-54.457
21445	23.538	5.6364	0.1	-44.195
21446	23.631	5.3636	0.1	-70.009
21447	23.538	5.4545	0.1	-59.5
21448	23.631	5.1818	0.1	-83.584
21449	23.538	5.2727	0.1	-73.329
21450	23.631	5.	0.1	-95.351
21451	23.538	5.0909	0.1	-85.523
21452	23.631	4.8182	0.1	-105.53
21453	23.538	4.9091	0.1	-96.172
21454	23.631	4.6364	0.1	-114.31
21455	23.538	4.7273	0.1	-105.43
21456	23.631	4.4545	0.1	-121.86
21457	23.538	4.5455	0.1	-113.42
21458	23.631	4.2727	0.1	-128.28
21459	23.538	4.3636	0.1	-120.29
21460	23.631	4.0909	0.1	-133.69
21461	23.538	4.1818	0.1	-126.11
21462	23.631	3.9091	0.1	-138.15
21463	23.538	4.	0.1	-130.97
21464	23.631	3.7273	0.1	-141.72
21465	23.538	3.8182	0.1	-134.93
21466	23.631	3.5455	0.1	-144.46
21467	23.538	3.6364	0.1	-138.04
21468	23.631	3.3636	0.1	-146.39
21469	23.538	3.4545	0.1	-140.35
21470	23.631	3.1818	0.1	-147.54
21471	23.538	3.2727	0.1	-141.87
21472	23.631	3.	0.1	-147.92
21473	23.538	3.0909	0.1	-142.62
21474	23.631	2.8182	0.1	-147.54
21475	23.538	2.9091	0.1	-142.62
21476	23.631	2.6364	0.1	-146.39
21477	23.538	2.7273	0.1	-141.87
21478	23.631	2.4545	0.1	-144.46
21479	23.538	2.5455	0.1	-140.35
21480	23.631	2.2727	0.1	-141.72
21481	23.538	2.3636	0.1	-138.04
21482	23.631	2.0909	0.1	-138.15
21483	23.538	2.1818	0.1	-134.93
21484	23.631	1.9091	0.1	-133.69
21485	23.538	2.	0.1	-130.97
21486	23.631	1.7273	0.1	-128.28
21487	23.538	1.8182	0.1	-126.11
21488	23.631	1.5455	0.1	-121.86
21489	23.538	1.6364	0.1	-120.29
21490	23.631	1.3636	0.1	-114.31
21491	23.538	1.4545	0.1	-113.42
21492	23.631	1.1818	0.1	-105.53
21493	23.538	1.2727	0.1	-105.43
21494	23.631	1.	0.1	-95.352
21495	23.538	1.0909	0.1	-96.172
21496	23.631	0.81818	0.1	-83.584
21497	23.538	0.90909	0.1	-85.523
21498	23.631	0.63636	0.1	-70.009
21499	23.538	0.72727	0.1	-73.33
21500	23.631	0.45455	0.1	-54.457
21501	23.538	0.54545	0.1	-59.5
21502	23.631	0.27273	0.1	-37.796
21503	23.538	0.36364	0.1	-44.195
21504	23.538	0.18182	0.1	-29.828
21505	23.631	9.0909e-002	0.1	-19.897
21506	23.446	5.7273	0.1	-35.593
21507	23.354	5.8182	0.1	-29.584
21508	23.446	5.9091	0.1	-19.914
21509	23.446	5.5455	0.1	-49.056
21510	23.354	5.6364	0.1	-40.631
21511	23.446	5.3636	0.1	-62.741
21512	23.354	5.4545	0.1	-53.678
21513	23.446	5.1818	0.1	-75.225
21514	23.354	5.2727	0.1	-66.067
21515	23.446	5.	0.1	-86.316
21516	23.354	5.0909	0.1	-77.33
21517	23.446	4.8182	0.1	-96.049
21518	23.354	4.9091	0.1	-87.357
21519	23.446	4.6364	0.1	-104.52
21520	23.354	4.7273	0.1	-96.177
21521	23.446	4.4545	0.1	-111.84
21522	23.354	4.5455	0.1	-103.86
21523	23.446	4.2727	0.1	-118.1
21524	23.354	4.3636	0.1	-110.49
21525	23.446	4.0909	0.1	-123.38
21526	23.354	4.1818	0.1	-116.13
21527	23.446	3.9091	0.1	-127.74
21528	23.354	4.	0.1	-120.86
21529	23.446	3.7273	0.1	-131.24
21530	23.354	3.8182	0.1	-124.72
21531	23.446	3.5455	0.1	-133.92
21532	23.354	3.6364	0.1	-127.75
21533	23.446	3.3636	0.1	-135.82
21534	23.354	3.4545	0.1	-130.
21535	23.446	3.1818	0.1	-136.95
21536	23.354	3.2727	0.1	-131.49
21537	23.446	3.	0.1	-137.32
21538	23.354	3.0909	0.1	-132.22
21539	23.446	2.8182	0.1	-136.95
21540	23.354	2.9091	0.1	-132.22
21541	23.446	2.6364	0.1	-135.82
21542	23.354	2.7273	0.1	-131.49
21543	23.446	2.4545	0.1	-133.92
21544	23.354	2.5455	0.1	-130.
21545	23.446	2.2727	0.1	-131.24
21546	23.354	2.3636	0.1	-127.75
21547	23.446	2.0909	0.1	-127.74
21548	23.354	2.1818	0.1	-124.72
21549	23.446	1.9091	0.1	-123.38
21550	23.354	2.	0.1	-120.86
21551	23.446	1.7273	0.1	-118.1
21552	23.354	1.8182	0.1	-116.13
21553	23.446	1.5455	0.1	-111.84
21554	23.354	1.6364	0.1	-110.49
21555	23.446	1.3636	0.1	-104.52
21556	23.354	1.4545	0.1	-103.86
21557	23.446	1.1818	0.1	-96.049
21558	23.354	1.2727	0.1	-96.177
21559	23.446	1.	0.1	-86.316
21560	23.354	1.0909	0.1	-87.357
21561	23.446	0.81818	0.1	-75.225
21562	23.354	0.90909	0.1	-77.33
21563	23.446	0.63636	0.1	-62.741
21564	23.354	0.72727	0.1	-66.067
21565	23.446	0.45455	0.1	-49.056
21566	23.354	0.54545	0.1	-53.678
21567	23.446	0.27273	0.1	-35.593
21568	23.354	0.36364	0.1	-40.631
21569	23.354	0.18182	0.1	-29.584
21570	23.446	9.0909e-002	0.1	-19.914
21571	23.261	5.7273	0.1	-34.062
21572	23.169	5.8182	0.1	-29.315
21573	23.261	5.9091	0.1	-19.846
21574	23.261	5.5455	0.1	-45.051
21575	23.169	5.6364	0.1	-37.994
21576	23.261	5.3636	0.1	-56.902
21577	23.169	5.4545	0.1	-49.071
21578	23.261	5.1818	0.1	-68.114
21579	23.169	5.2727	0.1	-59.979
21580	23.261	5.	0.1	-78.334
21581	23.169	5.0909	0.1	-70.174
21582	23.261	4.8182	0.1	-87.46
21583	23.169	4.9091	0.1	-79.436
21584	23.261	4.6364	0.1	-95.497
21585	23.169	4.7273	0.1	-87.698
21586	23.261	4.4545	0.1	-102.49
21587	23.169	4.5455	0.1	-94.968
21588	23.261	4.2727	0.1	-108.51
21589	23.169	4.3636	0.1	-101.28
21590	23.261	4.0909	0.1	-113.6
21591	23.169	4.1818	0.1	-106.68
21592	23.261	3.9091	0.1	-117.82
21593	23.169	4.	0.1	-111.22
21594	23.261	3.7273	0.1	-121.22
21595	23.169	3.8182	0.1	-114.94
21596	23.261	3.5455	0.1	-123.82
21597	23.169	3.6364	0.1	-117.87
21598	23.261	3.3636	0.1	-125.66
21599	23.169	3.4545	0.1	-120.04
21600	23.261	3.1818	0.1	-126.76
21601	23.169	3.2727	0.1	-121.48
21602	23.261	3.	0.1	-127.12
21603	23.169	3.0909	0.1	-122.19
21604	23.261	2.8182	0.1	-126.76
21605	23.169	2.9091	0.1	-122.19
21606	23.261	2.6364	0.1	-125.66
21607	23.169	2.7273	0.1	-121.48
21608	23.261	2.4545	0.1	-123.82
21609	23.169	2.5455	0.1	-120.04
21610	23.261	2.2727	0.1	-121.22
21611	23.169	2.3636	0.1	-117.87
21612	23.261	2.0909	0.1	-117.82
21613	23.169	2.1818	0.1	-114.94
21614	23.261	1.9091	0.1	-113.6
21615	23.169	2.	0.1	-111.22
21616	23.261	1.7273	0.1	-108.51
21617	23.169	1.8182	0.1	-106.68
21618	23.261	1.5455	0.1	-102.49
21619	23.169	1.6364	0.1	-101.28
21620	23.261	1.3636	0.1	-95.497
21621	23.169	1.4545	0.1	-94.968
21622	23.261	1.1818	0.1	-87.46
21623	23.169	1.2727	0.1	-87.698
21624	23.261	1.	0.1	-78.334
21625	23.169	1.0909	0.1	-79.436
21626	23.261	0.81818	0.1	-68.114
21627	23.169	0.90909	0.1	-70.174
21628	23.261	0.63636	0.1	-56.902
21629	23.169	0.72727	0.1	-59.979
21630	23.261	0.45455	0.1	-45.051
21631	23.169	0.54545	0.1	-49.071
21632	23.261	0.27273	0.1	-34.062
21633	23.169	0.36364	0.1	-37.994
21634	23.169	0.18182	0.1	-29.315
21635	23.261	9.0909e-002	0.1	-19.846
21636	23.077	5.7273	0.1	-32.767
21637	22.984	5.8182	0.1	-28.935
21638	23.077	5.9091	0.1	-19.642
21639	23.077	5.5455	0.1	-41.821
21640	22.984	5.6364	0.1	-35.815
21641	23.077	5.3636	0.1	-52.037
21642	22.984	5.4545	0.1	-45.246
21643	23.077	5.1818	0.1	-61.97
21644	22.984	5.2727	0.1	-54.768
21645	23.077	5.	0.1	-71.231
21646	22.984	5.0909	0.1	-63.87
21647	23.077	4.8182	0.1	-79.642
21648	22.984	4.9091	0.1	-72.292
21649	23.077	4.6364	0.1	-87.145
21650	22.984	4.7273	0.1	-79.913
21651	23.077	4.4545	0.1	-93.737
21652	22.984	4.5455	0.1	-86.69
21653	23.077	4.2727	0.1	-99.441
21654	22.984	4.3636	0.1	-92.622
21655	23.077	4.0909	0.1	-104.29
21656	22.984	4.1818	0.1	-97.728
21657	23.077	3.9091	0.1	-108.33
21658	22.984	4.	0.1	-102.04
21659	23.077	3.7273	0.1	-111.58
21660	22.984	3.8182	0.1	-105.57
21661	23.077	3.5455	0.1	-114.08
21662	22.984	3.6364	0.1	-108.37
21663	23.077	3.3636	0.1	-115.85
21664	22.984	3.4545	0.1	-110.45
21665	23.077	3.1818	0.1	-116.91
21666	22.984	3.2727	0.1	-111.82
21667	23.077	3.	0.1	-117.26
21668	22.984	3.0909	0.1	-112.5
21669	23.077	2.8182	0.1	-116.91
21670	22.984	2.9091	0.1	-112.5
21671	23.077	2.6364	0.1	-115.85
21672	22.984	2.7273	0.1	-111.82
21673	23.077	2.4545	0.1	-114.08
21674	22.984	2.5455	0.1	-110.45
21675	23.077	2.2727	0.1	-111.58
21676	22.984	2.3636	0.1	-108.37
21677	23.077	2.0909	0.1	-108.33
21678	22.984	2.1818	0.1	-105.57
21679	23.077	1.9091	0.1	-104.29
21680	22.984	2.	0.1	-102.04
21681	23.077	1.7273	0.1	-99.441
21682	22.984	1.8182	0.1	-97.728
21683	23.077	1.5455	0.1	-93.737
21684	22.984	1.6364	0.1	-92.622
21685	23.077	1.3636	0.1	-87.145
21686	22.984	1.4545	0.1	-86.69
21687	23.077	1.1818	0.1	-79.642
21688	22.984	1.2727	0.1	-79.913
21689	23.077	1.	0.1	-71.231
21690	22.984	1.0909	0.1	-72.292
21691	23.077	0.81818	0.1	-61.97
21692	22.984	0.90909	0.1	-63.87
21693	23.077	0.63636	0.1	-52.037
21694	22.984	0.72727	0.1	-54.768
21695	23.077	0.45455	0.1	-41.821
21696	22.984	0.54545	0.1	-45.246
21697	23.077	0.27273	0.1	-32.767
21698	22.984	0.36364	0.1	-35.815
21699	22.984	0.18182	0.1	-28.935
21700	23.077	9.0909e-002	0.1	-19.642
21701	22.892	5.7273	0.1	-31.568
21702	22.8	5.8182	0.1	-28.441
21703	22.892	5.9091	0.1	-19.341
21704	22.892	5.5455	0.1	-39.065
21705	22.8	5.6364	0.1	-33.891
21706	22.892	5.3636	0.1	-47.865
21707	22.8	5.4545	0.1	-41.939
21708	22.892	5.1818	0.1	-56.593
21709	22.8	5.2727	0.1	-50.212
21710	22.892	5.	0.1	-64.88
21711	22.8	5.0909	0.1	-58.259
21712	22.892	4.8182	0.1	-72.526
21713	22.8	4.9091	0.1	-65.823
21714	22.892	4.6364	0.1	-79.43
21715	22.8	4.7273	0.1	-72.757
21716	22.892	4.4545	0.1	-85.554
21717	22.8	4.5455	0.1	-78.988
21718	22.892	4.2727	0.1	-90.892
21719	22.8	4.3636	0.1	-84.487
21720	22.892	4.0909	0.1	-95.456
21721	22.8	4.1818	0.1	-89.25
21722	22.892	3.9091	0.1	-99.269
21723	22.8	4.	0.1	-93.287
21724	22.892	3.7273	0.1	-102.35
21725	22.8	3.8182	0.1	-96.615
21726	22.892	3.5455	0.1	-104.72
21727	22.8	3.6364	0.1	-99.252
21728	22.892	3.3636	0.1	-106.41
21729	22.8	3.4545	0.1	-101.21
21730	22.892	3.1818	0.1	-107.41
21731	22.8	3.2727	0.1	-102.51
21732	22.892	3.	0.1	-107.74
21733	22.8	3.0909	0.1	-103.16
21734	22.892	2.8182	0.1	-107.41
21735	22.8	2.9091	0.1	-103.16
21736	22.892	2.6364	0.1	-106.41
21737	22.8	2.7273	0.1	-102.51
21738	22.892	2.4545	0.1	-104.72
21739	22.8	2.5455	0.1	-101.21
21740	22.892	2.2727	0.1	-102.35
21741	22.8	2.3636	0.1	-99.252
21742	22.892	2.0909	0.1	-99.269
21743	22.8	2.1818	0.1	-96.615
21744	22.892	1.9091	0.1	-95.456
21745	22.8	2.	0.1	-93.287
21746	22.892	1.7273	0.1	-90.891
21747	22.8	1.8182	0.1	-89.25
21748	22.892	1.5455	0.1	-85.554
21749	22.8	1.6364	0.1	-84.487
21750	22.892	1.3636	0.1	-79.43
21751	22.8	1.4545	0.1	-78.988
21752	22.892	1.1818	0.1	-72.526
21753	22.8	1.2727	0.1	-72.757
21754	22.892	1.	0.1	-64.88
21755	22.8	1.0909	0.1	-65.823
21756	22.892	0.81818	0.1	-56.593
21757	22.8	0.90909	0.1	-58.259
21758	22.892	0.63636	0.1	-47.865
21759	22.8	0.72727	0.1	-50.212
21760	22.892	0.45455	0.1	-39.065
21761	22.8	0.54545	0.1	-41.939
21762	22.892	0.27273	0.1	-31.568
21763	22.8	0.36364	0.1	-33.891
21764	22.8	0.18182	0.1	-28.441
21765	22.892	9.0909e-002	0.1	-19.342
21766	22.707	5.7273	0.1	-30.399
21767	22.615	5.8182	0.1	-27.845
21768	22.707	5.9091	0.1	-18.963
21769	22.707	5.5455	0.1	-36.609
21770	22.615	5.6364	0.1	-32.114
21771	22.707	5.3636	0.1	-44.179
21772	22.615	5.4545	0.1	-38.981
21773	22.707	5.1818	0.1	-51.802
21774	22.615	5.2727	0.1	-46.14
21775	22.707	5.	0.1	-59.147
21776	22.615	5.0909	0.1	-53.198
21777	22.707	4.8182	0.1	-66.013
21778	22.615	4.9091	0.1	-59.918
21779	22.707	4.6364	0.1	-72.284
21780	22.615	4.7273	0.1	-66.151
21781	22.707	4.4545	0.1	-77.898
21782	22.615	4.5455	0.1	-71.806
21783	22.707	4.2727	0.1	-82.826
21784	22.615	4.3636	0.1	-76.836
21785	22.707	4.0909	0.1	-87.065
21786	22.615	4.1818	0.1	-81.221
21787	22.707	3.9091	0.1	-90.621
21788	22.615	4.	0.1	-84.955
21789	22.707	3.7273	0.1	-93.504
21790	22.615	3.8182	0.1	-88.045
21791	22.707	3.5455	0.1	-95.73
21792	22.615	3.6364	0.1	-90.499
21793	22.707	3.3636	0.1	-97.31
21794	22.615	3.4545	0.1	-92.329
21795	22.707	3.1818	0.1	-98.253
21796	22.615	3.2727	0.1	-93.542
21797	22.707	3.	0.1	-98.567
21798	22.615	3.0909	0.1	-94.148
21799	22.707	2.8182	0.1	-98.253
21800	22.615	2.9091	0.1	-94.148
21801	22.707	2.6364	0.1	-97.31
21802	22.615	2.7273	0.1	-93.542
21803	22.707	2.4545	0.1	-95.73
21804	22.615	2.5455	0.1	-92.328
21805	22.707	2.2727	0.1	-93.504
21806	22.615	2.3636	0.1	-90.499
21807	22.707	2.0909	0.1	-90.621
21808	22.615	2.1818	0.1	-88.045
21809	22.707	1.9091	0.1	-87.065
21810	22.615	2.	0.1	-84.955
21811	22.707	1.7273	0.1	-82.826
21812	22.615	1.8182	0.1	-81.221
21813	22.707	1.5455	0.1	-77.898
21814	22.615	1.6364	0.1	-76.836
21815	22.707	1.3636	0.1	-72.284
21816	22.615	1.4545	0.1	-71.806
21817	22.707	1.1818	0.1	-66.013
21818	22.615	1.2727	0.1	-66.15
21819	22.707	1.	0.1	-59.147
21820	22.615	1.0909	0.1	-59.918
21821	22.707	0.81818	0.1	-51.802
21822	22.615	0.90909	0.1	-53.198
21823	22.707	0.63636	0.1	-44.179
21824	22.615	0.72727	0.1	-46.14
21825	22.707	0.45455	0.1	-36.609
21826	22.615	0.54545	0.1	-38.981
21827	22.707	0.27273	0.1	-30.399
21828	22.615	0.36364	0.1	-32.114
21829	22.615	0.18182	0.1	-27.845
21830	22.707	9.0909e-002	0.1	-18.963
21831	22.523	5.7273	0.1	-29.233
21832	22.43	5.8182	0.1	-27.161
21833	22.523	5.9091	0.1	-18.524
21834	22.523	5.5455	0.1	-34.349
21835	22.43	5.6364	0.1	-30.428
21836	22.523	5.3636	0.1	-40.843
21837	22.43	5.4545	0.1	-36.268
21838	22.523	5.1818	0.1	-47.461
21839	22.43	5.2727	0.1	-42.43
21840	22.523	5.	0.1	-53.913
21841	22.43	5.0909	0.1	-48.571
21842	22.523	4.8182	0.1	-60.013
21843	22.43	4.9091	0.1	-54.481
21844	22.523	4.6364	0.1	-65.639
21845	22.43	4.7273	0.1	-60.017
21846	22.523	4.4545	0.1	-70.719
21847	22.43	4.5455	0.1	-65.084
21848	22.523	4.2727	0.1	-75.209
21849	22.43	4.3636	0.1	-69.624
21850	22.523	4.0909	0.1	-79.093
21851	22.43	4.1818	0.1	-73.605
21852	22.523	3.9091	0.1	-82.364
21853	22.43	4.	0.1	-77.012
21854	22.523	3.7273	0.1	-85.026
21855	22.43	3.8182	0.1	-79.84
21856	22.523	3.5455	0.1	-87.086
21857	22.43	3.6364	0.1	-82.094
21858	22.523	3.3636	0.1	-88.55
21859	22.43	3.4545	0.1	-83.777
21860	22.523	3.1818	0.1	-89.426
21861	22.43	3.2727	0.1	-84.895
21862	22.523	3.	0.1	-89.717
21863	22.43	3.0909	0.1	-85.453
21864	22.523	2.8182	0.1	-89.426
21865	22.43	2.9091	0.1	-85.453
21866	22.523	2.6364	0.1	-88.55
21867	22.43	2.7273	0.1	-84.895
21868	22.523	2.4545	0.1	-87.086
21869	22.43	2.5455	0.1	-83.777
21870	22.523	2.2727	0.1	-85.026
21871	22.43	2.3636	0.1	-82.094
21872	22.523	2.0909	0.1	-82.364
21873	22.43	2.1818	0.1	-79.84
21874	22.523	1.9091	0.1	-79.093
21875	22.43	2.	0.1	-77.012
21876	22.523	1.7273	0.1	-75.209
21877	22.43	1.8182	0.1	-73.605
21878	22.523	1.5455	0.1	-70.719
21879	22.43	1.6364	0.1	-69.624
21880	22.523	1.3636	0.1	-65.639
21881	22.43	1.4545	0.1	-65.084
21882	22.523	1.1818	0.1	-60.013
21883	22.43	1.2727	0.1	-60.017
21884	22.523	1.	0.1	-53.913
21885	22.43	1.0909	0.1	-54.481
21886	22.523	0.81818	0.1	-47.461
21887	22.43	0.90909	0.1	-48.571
21888	22.523	0.63636	0.1	-40.843
21889	22.43	0.72727	0.1	-42.43
21890	22.523	0.45455	0.1	-34.349
21891	22.43	0.54545	0.1	-36.268
21892	22.523	0.27273	0.1	-29.233
21893	22.43	0.36364	0.1	-30.428
21894	22.43	0.18182	0.1	-27.161
21895	22.523	9.0909e-002	0.1	-18.524
21896	22.338	5.7273	0.1	-28.058
21897	22.246	5.8182	0.1	-26.402
21898	22.338	5.9091	0.1	-18.035
21899	22.338	5.5455	0.1	-32.225
21900	22.246	5.6364	0.1	-28.798
21901	22.338	5.3636	0.1	-37.763
21902	22.246	5.4545	0.1	-33.731
21903	22.338	5.1818	0.1	-43.468
21904	22.246	5.2727	0.1	-38.994
21905	22.338	5.	0.1	-49.082
21906	22.246	5.0909	0.1	-44.287
21907	22.338	4.8182	0.1	-54.441
21908	22.246	4.9091	0.1	-49.427
21909	22.338	4.6364	0.1	-59.427
21910	22.246	4.7273	0.1	-54.284
21911	22.338	4.4545	0.1	-63.962
21912	22.246	4.5455	0.1	-58.763
21913	22.338	4.2727	0.1	-67.997
21914	22.246	4.3636	0.1	-62.803
21915	22.338	4.0909	0.1	-71.505
21916	22.246	4.1818	0.1	-66.364
21917	22.338	3.9091	0.1	-74.472
21918	22.246	4.	0.1	-69.425
21919	22.338	3.7273	0.1	-76.893
21920	22.246	3.8182	0.1	-71.975
21921	22.338	3.5455	0.1	-78.772
21922	22.246	3.6364	0.1	-74.012
21923	22.338	3.3636	0.1	-80.109
21924	22.246	3.4545	0.1	-75.536
21925	22.338	3.1818	0.1	-80.91
21926	22.246	3.2727	0.1	-76.551
21927	22.338	3.	0.1	-81.177
21928	22.246	3.0909	0.1	-77.057
21929	22.338	2.8182	0.1	-80.91
21930	22.246	2.9091	0.1	-77.057
21931	22.338	2.6364	0.1	-80.109
21932	22.246	2.7273	0.1	-76.551
21933	22.338	2.4545	0.1	-78.772
21934	22.246	2.5455	0.1	-75.536
21935	22.338	2.2727	0.1	-76.893
21936	22.246	2.3636	0.1	-74.012
21937	22.338	2.0909	0.1	-74.472
21938	22.246	2.1818	0.1	-71.975
21939	22.338	1.9091	0.1	-71.505
21940	22.246	2.	0.1	-69.425
21941	22.338	1.7273	0.1	-67.997
21942	22.246	1.8182	0.1	-66.364
21943	22.338	1.5455	0.1	-63.962
21944	22.246	1.6364	0.1	-62.803
21945	22.338	1.3636	0.1	-59.427
21946	22.246	1.4545	0.1	-58.763
21947	22.338	1.1818	0.1	-54.441
21948	22.246	1.2727	0.1	-54.284
21949	22.338	1.	0.1	-49.082
21950	22.246	1.0909	0.1	-49.427
21951	22.338	0.81818	0.1	-43.468
21952	22.246	0.90909	0.1	-44.287
21953	22.338	0.63636	0.1	-37.763
21954	22.246	0.72727	0.1	-38.994
21955	22.338	0.45455	0.1	-32.225
21956	22.246	0.54545	0.1	-33.731
21957	22.338	0.27273	0.1	-28.058
21958	22.246	0.36364	0.1	-28.798
21959	22.246	0.18182	0.1	-26.402
21960	22.338	9.0909e-002	0.1	-18.035
21961	22.153	5.7273	0.1	-26.869
21962	22.061	5.8182	0.1	-25.579
21963	22.153	5.9091	0.1	-17.504
21964	22.153	5.5455	0.1	-30.195
21965	22.061	5.6364	0.1	-27.206
21966	22.153	5.3636	0.1	-34.876
21967	22.061	5.4545	0.1	-31.322
21968	22.153	5.1818	0.1	-39.745
21969	22.061	5.2727	0.1	-35.768
21970	22.153	5.	0.1	-44.577
21971	22.061	5.0909	0.1	-40.276
21972	22.153	4.8182	0.1	-49.226
21973	22.061	4.9091	0.1	-44.688
21974	22.153	4.6364	0.1	-53.585
21975	22.061	4.7273	0.1	-48.888
21976	22.153	4.4545	0.1	-57.575
21977	22.061	4.5455	0.1	-52.787
21978	22.153	4.2727	0.1	-61.146
21979	22.061	4.3636	0.1	-56.324
21980	22.153	4.0909	0.1	-64.264
21981	22.061	4.1818	0.1	-59.457
21982	22.153	3.9091	0.1	-66.911
21983	22.061	4.	0.1	-62.16
21984	22.153	3.7273	0.1	-69.079
21985	22.061	3.8182	0.1	-64.419
21986	22.153	3.5455	0.1	-70.763
21987	22.061	3.6364	0.1	-66.227
21988	22.153	3.3636	0.1	-71.965
21989	22.061	3.4545	0.1	-67.583
21990	22.153	3.1818	0.1	-72.685
21991	22.061	3.2727	0.1	-68.485
21992	22.153	3.	0.1	-72.925
21993	22.061	3.0909	0.1	-68.936
21994	22.153	2.8182	0.1	-72.685
21995	22.061	2.9091	0.1	-68.936
21996	22.153	2.6364	0.1	-71.965
21997	22.061	2.7273	0.1	-68.485
21998	22.153	2.4545	0.1	-70.763
21999	22.061	2.5455	0.1	-67.583
22000	22.153	2.2727	0.1	-69.079
22001	22.061	2.3636	0.1	-66.227
22002	22.153	2.0909	0.1	-66.911
22003	22.061	2.1818	0.1	-64.419
22004	22.153	1.9091	0.1	-64.264
22005	22.061	2.	0.1	-62.16
22006	22.153	1.7273	0.1	-61.146
22007	22.061	1.8182	0.1	-59.457
22008	22.153	1.5455	0.1	-57.575
22009	22.061	1.6364	0.1	-56.324
22010	22.153	1.3636	0.1	-53.585
22011	22.061	1.4545	0.1	-52.787
22012	22.153	1.1818	0.1	-49.226
22013	22.061	1.2727	0.1	-48.888
22014	22.153	1.	0.1	-44.577
22015	22.061	1.0909	0.1	-44.688
22016	22.153	0.81818	0.1	-39.745
22017	22.061	0.90909	0.1	-40.276
22018	22.153	0.63636	0.1	-34.876
22019	22.061	0.72727	0.1	-35.768
22020	22.153	0.45455	0.1	-30.195
22021	22.061	0.54545	0.1	-31.322
22022	22.153	0.27273	0.1	-26.869
22023	22.061	0.36364	0.1	-27.206
22024	22.061	0.18182	0.1	-25.579
22025	22.153	9.0909e-002	0.1	-17.504
22026	21.969	5.7273	0.1	-25.664
22027	21.876	5.8182	0.1	-24.703
22028	21.969	5.9091	0.1	-16.94
22029	21.969	5.5455	0.1	-28.235
22030	21.876	5.6364	0.1	-25.639
22031	21.969	5.3636	0.1	-32.136
22032	21.876	5.4545	0.1	-29.012
22033	21.969	5.1818	0.1	-36.235
22034	21.876	5.2727	0.1	-32.706
22035	21.969	5.	0.1	-40.334
22036	21.876	5.0909	0.1	-36.483
22037	21.969	4.8182	0.1	-44.307
22038	21.876	4.9091	0.1	-40.207
22039	21.969	4.6364	0.1	-48.055
22040	21.876	4.7273	0.1	-43.774
22041	21.969	4.4545	0.1	-51.507
22042	21.876	4.5455	0.1	-47.105
22043	21.969	4.2727	0.1	-54.61
22044	21.876	4.3636	0.1	-50.141
22045	21.969	4.0909	0.1	-57.331
22046	21.876	4.1818	0.1	-52.841
22047	21.969	3.9091	0.1	-59.649
22048	21.876	4.	0.1	-55.179
22049	21.969	3.7273	0.1	-61.551
22050	21.876	3.8182	0.1	-57.137
22051	21.969	3.5455	0.1	-63.032
22052	21.876	3.6364	0.1	-58.707
22053	21.969	3.3636	0.1	-64.09
22054	21.876	3.4545	0.1	-59.886
22055	21.969	3.1818	0.1	-64.724
22056	21.876	3.2727	0.1	-60.672
22057	21.969	3.	0.1	-64.935
22058	21.876	3.0909	0.1	-61.065
22059	21.969	2.8182	0.1	-64.724
22060	21.876	2.9091	0.1	-61.065
22061	21.969	2.6364	0.1	-64.09
22062	21.876	2.7273	0.1	-60.672
22063	21.969	2.4545	0.1	-63.032
22064	21.876	2.5455	0.1	-59.886
22065	21.969	2.2727	0.1	-61.551
22066	21.876	2.3636	0.1	-58.707
22067	21.969	2.0909	0.1	-59.649
22068	21.876	2.1818	0.1	-57.137
22069	21.969	1.9091	0.1	-57.331
22070	21.876	2.	0.1	-55.179
22071	21.969	1.7273	0.1	-54.61
22072	21.876	1.8182	0.1	-52.841
22073	21.969	1.5455	0.1	-51.507
22074	21.876	1.6364	0.1	-50.141
22075	21.969	1.3636	0.1	-48.055
22076	21.876	1.4545	0.1	-47.105
22077	21.969	1.1818	0.1	-44.307
22078	21.876	1.2727	0.1	-43.774
22079	21.969	1.	0.1	-40.334
22080	21.876	1.0909	0.1	-40.207
22081	21.969	0.81818	0.1	-36.235
22082	21.876	0.90909	0.1	-36.483
22083	21.969	0.63636	0.1	-32.136
22084	21.876	0.72727	0.1	-32.706
22085	21.969	0.45455	0.1	-28.235
22086	21.876	0.54545	0.1	-29.012
22087	21.969	0.27273	0.1	-25.664
22088	21.876	0.36364	0.1	-25.639
22089	21.876	0.18182	0.1	-24.703
22090	21.969	9.0909e-002	0.1	-16.94
22091	21.784	5.7273	0.1	-24.442
22092	21.692	5.8182	0.1	-23.781
22093	21.784	5.9091	0.1	-16.347
22094	21.784	5.5455	0.1	-26.327
22095	21.692	5.6364	0.1	-24.089
22096	21.784	5.3636	0.1	-29.51
22097	21.692	5.4545	0.1	-26.776
22098	21.784	5.1818	0.1	-32.894
22099	21.692	5.2727	0.1	-29.774
22100	21.784	5.	0.1	-36.305
22101	21.692	5.0909	0.1	-32.866
22102	21.784	4.8182	0.1	-39.632
22103	21.692	4.9091	0.1	-35.936
22104	21.784	4.6364	0.1	-42.789
22105	21.692	4.7273	0.1	-38.895
22106	21.784	4.4545	0.1	-45.71
22107	21.692	4.5455	0.1	-41.671
22108	21.784	4.2727	0.1	-48.347
22109	21.692	4.3636	0.1	-44.211
22110	21.784	4.0909	0.1	-50.667
22111	21.692	4.1818	0.1	-46.478
22112	21.784	3.9091	0.1	-52.648
22113	21.692	4.	0.1	-48.444
22114	21.784	3.7273	0.1	-54.276
22115	21.692	3.8182	0.1	-50.095
22116	21.784	3.5455	0.1	-55.546
22117	21.692	3.6364	0.1	-51.42
22118	21.784	3.3636	0.1	-56.454
22119	21.692	3.4545	0.1	-52.415
22120	21.784	3.1818	0.1	-56.999
22121	21.692	3.2727	0.1	-53.079
22122	21.784	3.	0.1	-57.18
22123	21.692	3.0909	0.1	-53.411
22124	21.784	2.8182	0.1	-56.999
22125	21.692	2.9091	0.1	-53.411
22126	21.784	2.6364	0.1	-56.454
22127	21.692	2.7273	0.1	-53.079
22128	21.784	2.4545	0.1	-55.546
22129	21.692	2.5455	0.1	-52.415
22130	21.784	2.2727	0.1	-54.276
22131	21.692	2.3636	0.1	-51.42
22132	21.784	2.0909	0.1	-52.648
22133	21.692	2.1818	0.1	-50.095
22134	21.784	1.9091	0.1	-50.667
22135	21.692	2.	0.1	-48.444
22136	21.784	1.7273	0.1	-48.347
22137	21.692	1.8182	0.1	-46.478
22138	21.784	1.5455	0.1	-45.71
22139	21.692	1.6364	0.1	-44.211
22140	21.784	1.3636	0.1	-42.789
22141	21.692	1.4545	0.1	-41.671
22142	21.784	1.1818	0.1	-39.632
22143	21.692	1.2727	0.1	-38.895
22144	21.784	1.	0.1	-36.305
22145	21.692	1.0909	0.1	-35.936
22146	21.784	0.81818	0.1	-32.894
22147	21.692	0.90909	0.1	-32.866
22148	21.784	0.63636	0.1	-29.51
22149	21.692	0.72727	0.1	-29.774
22150	21.784	0.45455	0.1	-26.327
22151	21.692	0.54545	0.1	-26.776
22152	21.784	0.27273	0.1	-24.442
22153	21.692	0.36364	0.1	-24.089
22154	21.692	0.18182	0.1	-23.781
22155	21.784	9.0909e-002	0.1	-16.347
22156	21.599	5.7273	0.1	-23.206
22157	21.507	5.8182	0.1	-22.821
22158	21.599	5.9091	0.1	-15.73
22159	21.599	5.5455	0.1	-24.457
22160	21.507	5.6364	0.1	-22.551
22161	21.599	5.3636	0.1	-26.973
22162	21.507	5.4545	0.1	-24.599
22163	21.599	5.1818	0.1	-29.689
22164	21.507	5.2727	0.1	-26.944
22165	21.599	5.	0.1	-32.448
22166	21.507	5.0909	0.1	-29.39
22167	21.599	4.8182	0.1	-35.158
22168	21.507	4.9091	0.1	-31.837
22169	21.599	4.6364	0.1	-37.742
22170	21.507	4.7273	0.1	-34.208
22171	21.599	4.4545	0.1	-40.142
22172	21.507	4.5455	0.1	-36.443
22173	21.599	4.2727	0.1	-42.316
22174	21.507	4.3636	0.1	-38.493
22175	21.599	4.0909	0.1	-44.232
22176	21.507	4.1818	0.1	-40.326
22177	21.599	3.9091	0.1	-45.871
22178	21.507	4.	0.1	-41.918
22179	21.599	3.7273	0.1	-47.22
22180	21.507	3.8182	0.1	-43.255
22181	21.599	3.5455	0.1	-48.272
22182	21.507	3.6364	0.1	-44.328
22183	21.599	3.3636	0.1	-49.025
22184	21.507	3.4545	0.1	-45.135
22185	21.599	3.1818	0.1	-49.477
22186	21.507	3.2727	0.1	-45.672
22187	21.599	3.	0.1	-49.627
22188	21.507	3.0909	0.1	-45.941
22189	21.599	2.8182	0.1	-49.477
22190	21.507	2.9091	0.1	-45.941
22191	21.599	2.6364	0.1	-49.025
22192	21.507	2.7273	0.1	-45.672
22193	21.599	2.4545	0.1	-48.272
22194	21.507	2.5455	0.1	-45.135
22195	21.599	2.2727	0.1	-47.22
22196	21.507	2.3636	0.1	-44.329
22197	21.599	2.0909	0.1	-45.871
22198	21.507	2.1818	0.1	-43.255
22199	21.599	1.9091	0.1	-44.232
22200	21.507	2.	0.1	-41.918
22201	21.599	1.7273	0.1	-42.316
22202	21.507	1.8182	0.1	-40.326
22203	21.599	1.5455	0.1	-40.142
22204	21.507	1.6364	0.1	-38.493
22205	21.599	1.3636	0.1	-37.742
22206	21.507	1.4545	0.1	-36.443
22207	21.599	1.1818	0.1	-35.158
22208	21.507	1.2727	0.1	-34.208
22209	21.599	1.	0.1	-32.448
22210	21.507	1.0909	0.1	-31.837
22211	21.599	0.81818	0.1	-29.689
22212	21.507	0.90909	0.1	-29.39
22213	21.599	0.63636	0.1	-26.973
22214	21.507	0.72727	0.1	-26.944
22215	21.599	0.45455	0.1	-24.457
22216	21.507	0.54545	0.1	-24.599
22217	21.599	0.27273	0.1	-23.206
22218	21.507	0.36364	0.1	-22.552
22219	21.507	0.18182	0.1	-22.821
22220	21.599	9.0909e-002	0.1	-15.731
22221	21.415	5.7273	0.1	-21.957
22222	21.322	5.8182	0.1	-21.828
22223	21.415	5.9091	0.1	-15.095
22224	21.415	5.5455	0.1	-22.619
22225	21.322	5.6364	0.1	-21.024
22226	21.415	5.3636	0.1	-24.509
22227	21.322	5.4545	0.1	-22.469
22228	21.415	5.1818	0.1	-26.592
22229	21.322	5.2727	0.1	-24.198
22230	21.415	5.	0.1	-28.732
22231	21.322	5.0909	0.1	-26.029
22232	21.415	4.8182	0.1	-30.848
22233	21.322	4.9091	0.1	-27.878
22234	21.415	4.6364	0.1	-32.875
22235	21.322	4.7273	0.1	-29.68
22236	21.415	4.4545	0.1	-34.764
22237	21.322	4.5455	0.1	-31.383
22238	21.415	4.2727	0.1	-36.477
22239	21.322	4.3636	0.1	-32.949
22240	21.415	4.0909	0.1	-37.989
22241	21.322	4.1818	0.1	-34.348
22242	21.415	3.9091	0.1	-39.282
22243	21.322	4.	0.1	-35.562
22244	21.415	3.7273	0.1	-40.345
22245	21.322	3.8182	0.1	-36.581
22246	21.415	3.5455	0.1	-41.174
22247	21.322	3.6364	0.1	-37.397
22248	21.415	3.3636	0.1	-41.767
22249	21.322	3.4545	0.1	-38.009
22250	21.415	3.1818	0.1	-42.122
22251	21.322	3.2727	0.1	-38.416
22252	21.415	3.	0.1	-42.241
22253	21.322	3.0909	0.1	-38.619
22254	21.415	2.8182	0.1	-42.122
22255	21.322	2.9091	0.1	-38.619
22256	21.415	2.6364	0.1	-41.767
22257	21.322	2.7273	0.1	-38.416
22258	21.415	2.4545	0.1	-41.174
22259	21.322	2.5455	0.1	-38.009
22260	21.415	2.2727	0.1	-40.345
22261	21.322	2.3636	0.1	-37.397
22262	21.415	2.0909	0.1	-39.282
22263	21.322	2.1818	0.1	-36.581
22264	21.415	1.9091	0.1	-37.989
22265	21.322	2.	0.1	-35.562
22266	21.415	1.7273	0.1	-36.477
22267	21.322	1.8182	0.1	-34.348
22268	21.415	1.5455	0.1	-34.764
22269	21.322	1.6364	0.1	-32.949
22270	21.415	1.3636	0.1	-32.875
22271	21.322	1.4545	0.1	-31.383
22272	21.415	1.1818	0.1	-30.848
22273	21.322	1.2727	0.1	-29.68
22274	21.415	1.	0.1	-28.732
22275	21.322	1.0909	0.1	-27.878
22276	21.415	0.81818	0.1	-26.592
22277	21.322	0.90909	0.1	-26.029
22278	21.415	0.63636	0.1	-24.509
22279	21.322	0.72727	0.1	-24.198
22280	21.415	0.45455	0.1	-22.619
22281	21.322	0.54545	0.1	-22.469
22282	21.415	0.27273	0.1	-21.957
22283	21.322	0.36364	0.1	-21.024
22284	21.322	0.18182	0.1	-21.828
22285	21.415	9.0909e-002	0.1	-15.095
22286	21.23	5.7273	0.1	-20.698
22287	21.138	5.8182	0.1	-20.81
22288	21.23	5.9091	0.1	-14.443
22289	21.23	5.5455	0.1	-20.807
22290	21.138	5.6364	0.1	-19.506
22291	21.23	5.3636	0.1	-22.103
22292	21.138	5.4545	0.1	-20.38
22293	21.23	5.1818	0.1	-23.585
22294	21.138	5.2727	0.1	-21.521
22295	21.23	5.	0.1	-25.131
22296	21.138	5.0909	0.1	-22.762
22297	21.23	4.8182	0.1	-26.672
22298	21.138	4.9091	0.1	-24.033
22299	21.23	4.6364	0.1	-28.155
22300	21.138	4.7273	0.1	-25.279
22301	21.23	4.4545	0.1	-29.539
22302	21.138	4.5455	0.1	-26.46
22303	21.23	4.2727	0.1	-30.794
22304	21.138	4.3636	0.1	-27.543
22305	21.23	4.0909	0.1	-31.899
22306	21.138	4.1818	0.1	-28.508
22307	21.23	3.9091	0.1	-32.841
22308	21.138	4.	0.1	-29.34
22309	21.23	3.7273	0.1	-33.614
22310	21.138	3.8182	0.1	-30.034
22311	21.23	3.5455	0.1	-34.214
22312	21.138	3.6364	0.1	-30.586
22313	21.23	3.3636	0.1	-34.642
22314	21.138	3.4545	0.1	-30.998
22315	21.23	3.1818	0.1	-34.898
22316	21.138	3.2727	0.1	-31.27
22317	21.23	3.	0.1	-34.983
22318	21.138	3.0909	0.1	-31.406
22319	21.23	2.8182	0.1	-34.898
22320	21.138	2.9091	0.1	-31.406
22321	21.23	2.6364	0.1	-34.642
22322	21.138	2.7273	0.1	-31.27
22323	21.23	2.4545	0.1	-34.214
22324	21.138	2.5455	0.1	-30.998
22325	21.23	2.2727	0.1	-33.614
22326	21.138	2.3636	0.1	-30.586
22327	21.23	2.0909	0.1	-32.841
22328	21.138	2.1818	0.1	-30.034
22329	21.23	1.9091	0.1	-31.899
22330	21.138	2.	0.1	-29.34
22331	21.23	1.7273	0.1	-30.794
22332	21.138	1.8182	0.1	-28.508
22333	21.23	1.5455	0.1	-29.539
22334	21.138	1.6364	0.1	-27.543
22335	21.23	1.3636	0.1	-28.155
22336	21.138	1.4545	0.1	-26.46
22337	21.23	1.1818	0.1	-26.672
22338	21.138	1.2727	0.1	-25.279
22339	21.23	1.	0.1	-25.131
22340	21.138	1.0909	0.1	-24.033
22341	21.23	0.81818	0.1	-23.585
22342	21.138	0.90909	0.1	-22.762
22343	21.23	0.63636	0.1	-22.103
22344	21.138	0.72727	0.1	-21.521
22345	21.23	0.45455	0.1	-20.807
22346	21.138	0.54545	0.1	-20.38
22347	21.23	0.27273	0.1	-20.698
22348	21.138	0.36364	0.1	-19.506
22349	21.138	0.18182	0.1	-20.81
22350	21.23	9.0909e-002	0.1	-14.443
22351	21.045	5.7273	0.1	-19.43
22352	20.953	5.8182	0.1	-19.771
22353	21.045	5.9091	0.1	-13.779
22354	21.045	5.5455	0.1	-19.016
22355	20.953	5.6364	0.1	-17.997
22356	21.045	5.3636	0.1	-19.746
22357	20.953	5.4545	0.1	-18.324
22358	21.045	5.1818	0.1	-20.651
22359	20.953	5.2727	0.1	-18.901
22360	21.045	5.	0.1	-21.623
22361	20.953	5.0909	0.1	-19.573
22362	21.045	4.8182	0.1	-22.604
22363	20.953	4.9091	0.1	-20.28
22364	21.045	4.6364	0.1	-23.552
22365	20.953	4.7273	0.1	-20.981
22366	21.045	4.4545	0.1	-24.436
22367	20.953	4.5455	0.1	-21.643
22368	21.045	4.2727	0.1	-25.232
22369	20.953	4.3636	0.1	-22.244
22370	21.045	4.0909	0.1	-25.927
22371	20.953	4.1818	0.1	-22.77
22372	21.045	3.9091	0.1	-26.513
22373	20.953	4.	0.1	-23.215
22374	21.045	3.7273	0.1	-26.988
22375	20.953	3.8182	0.1	-23.576
22376	21.045	3.5455	0.1	-27.353
22377	20.953	3.6364	0.1	-23.857
22378	21.045	3.3636	0.1	-27.611
22379	20.953	3.4545	0.1	-24.062
22380	21.045	3.1818	0.1	-27.764
22381	20.953	3.2727	0.1	-24.195
22382	21.045	3.	0.1	-27.815
22383	20.953	3.0909	0.1	-24.261
22384	21.045	2.8182	0.1	-27.764
22385	20.953	2.9091	0.1	-24.261
22386	21.045	2.6364	0.1	-27.611
22387	20.953	2.7273	0.1	-24.195
22388	21.045	2.4545	0.1	-27.353
22389	20.953	2.5455	0.1	-24.062
22390	21.045	2.2727	0.1	-26.988
22391	20.953	2.3636	0.1	-23.857
22392	21.045	2.0909	0.1	-26.513
22393	20.953	2.1818	0.1	-23.576
22394	21.045	1.9091	0.1	-25.927
22395	20.953	2.	0.1	-23.215
22396	21.045	1.7273	0.1	-25.232
22397	20.953	1.8182	0.1	-22.77
22398	21.045	1.5455	0.1	-24.436
22399	20.953	1.6364	0.1	-22.244
22400	21.045	1.3636	0.1	-23.552
22401	20.953	1.4545	0.1	-21.643
22402	21.045	1.1818	0.1	-22.604
22403	20.953	1.2727	0.1	-20.981
22404	21.045	1.	0.1	-21.623
22405	20.953	1.0909	0.1	-20.28
22406	21.045	0.81818	0.1	-20.651
22407	20.953	0.90909	0.1	-19.573
22408	21.045	0.63636	0.1	-19.746
22409	20.953	0.72727	0.1	-18.901
22410	21.045	0.45455	0.1	-19.016
22411	20.953	0.54545	0.1	-18.324
22412	21.045	0.27273	0.1	-19.431
22413	20.953	0.36364	0.1	-17.997
22414	20.953	0.18182	0.1	-19.771
22415	21.045	9.0909e-002	0.1	-13.779
22416	20.861	5.7273	0.1	-18.159
22417	20.768	5.8182	0.1	-18.718
22418	20.861	5.9091	0.1	-13.106
22419	20.861	5.5455	0.1	-17.247
22420	20.768	5.6364	0.1	-16.499
22421	20.861	5.3636	0.1	-17.431
22422	20.768	5.4545	0.1	-16.301
22423	20.861	5.1818	0.1	-17.779
22424	20.768	5.2727	0.1	-16.332
22425	20.861	5.	0.1	-18.191
22426	20.768	5.0909	0.1	-16.448
22427	20.861	4.8182	0.1	-18.622
22428	20.768	4.9091	0.1	-16.602
22429	20.861	4.6364	0.1	-19.041
22430	20.768	4.7273	0.1	-16.762
22431	20.861	4.4545	0.1	-19.424
22432	20.768	4.5455	0.1	-16.906
22433	20.861	4.2727	0.1	-19.758
22434	20.768	4.3636	0.1	-17.021
22435	20.861	4.0909	0.1	-20.036
22436	20.768	4.1818	0.1	-17.102
22437	20.861	3.9091	0.1	-20.258
22438	20.768	4.	0.1	-17.149
22439	20.861	3.7273	0.1	-20.428
22440	20.768	3.8182	0.1	-17.169
22441	20.861	3.5455	0.1	-20.55
22442	20.768	3.6364	0.1	-17.17
22443	20.861	3.3636	0.1	-20.631
22444	20.768	3.4545	0.1	-17.16
22445	20.861	3.1818	0.1	-20.678
22446	20.768	3.2727	0.1	-17.148
22447	20.861	3.	0.1	-20.693
22448	20.768	3.0909	0.1	-17.14
22449	20.861	2.8182	0.1	-20.678
22450	20.768	2.9091	0.1	-17.14
22451	20.861	2.6364	0.1	-20.631
22452	20.768	2.7273	0.1	-17.148
22453	20.861	2.4545	0.1	-20.55
22454	20.768	2.5455	0.1	-17.16
22455	20.861	2.2727	0.1	-20.428
22456	20.768	2.3636	0.1	-17.17
22457	20.861	2.0909	0.1	-20.258
22458	20.768	2.1818	0.1	-17.169
22459	20.861	1.9091	0.1	-20.036
22460	20.768	2.	0.1	-17.149
22461	20.861	1.7273	0.1	-19.758
22462	20.768	1.8182	0.1	-17.102
22463	20.861	1.5455	0.1	-19.424
22464	20.768	1.6364	0.1	-17.021
22465	20.861	1.3636	0.1	-19.041
22466	20.768	1.4545	0.1	-16.906
22467	20.861	1.1818	0.1	-18.622
22468	20.768	1.2727	0.1	-16.762
22469	20.861	1.	0.1	-18.191
22470	20.768	1.0909	0.1	-16.602
22471	20.861	0.81818	0.1	-17.779
22472	20.768	0.90909	0.1	-16.448
22473	20.861	0.63636	0.1	-17.431
22474	20.768	0.72727	0.1	-16.332
22475	20.861	0.45455	0.1	-17.247
22476	20.768	0.54545	0.1	-16.301
22477	20.861	0.27273	0.1	-18.159
22478	20.768	0.36364	0.1	-16.499
22479	20.768	0.18182	0.1	-18.718
22480	20.861	9.0909e-002	0.1	-13.106
22481	20.676	5.7273	0.1	-16.888
22482	20.584	5.8182	0.1	-17.657
22483	20.676	5.9091	0.1	-12.428
22484	20.676	5.5455	0.1	-15.499
22485	20.584	5.6364	0.1	-15.016
22486	20.676	5.3636	0.1	-15.156
22487	20.584	5.4545	0.1	-14.31
22488	20.676	5.1818	0.1	-14.96
22489	20.584	5.2727	0.1	-13.808
22490	20.676	5.	0.1	-14.822
22491	20.584	5.0909	0.1	-13.379
22492	20.676	4.8182	0.1	-14.709
22493	20.584	4.9091	0.1	-12.985
22494	20.676	4.6364	0.1	-14.598
22495	20.584	4.7273	0.1	-12.605
22496	20.676	4.4545	0.1	-14.477
22497	20.584	4.5455	0.1	-12.226
22498	20.676	4.2727	0.1	-14.342
22499	20.584	4.3636	0.1	-11.847
22500	20.676	4.0909	0.1	-14.194
22501	20.584	4.1818	0.1	-11.471
22502	20.676	3.9091	0.1	-14.041
22503	20.584	4.	0.1	-11.109
22504	20.676	3.7273	0.1	-13.894
22505	20.584	3.8182	0.1	-10.775
22506	20.676	3.5455	0.1	-13.764
22507	20.584	3.6364	0.1	-10.483
22508	20.676	3.3636	0.1	-13.661
22509	20.584	3.4545	0.1	-10.248
22510	20.676	3.1818	0.1	-13.596
22511	20.584	3.2727	0.1	-10.084
22512	20.676	3.	0.1	-13.573
22513	20.584	3.0909	0.1	-9.9989
22514	20.676	2.8182	0.1	-13.596
22515	20.584	2.9091	0.1	-9.9989
22516	20.676	2.6364	0.1	-13.661
22517	20.584	2.7273	0.1	-10.084
22518	20.676	2.4545	0.1	-13.764
22519	20.584	2.5455	0.1	-10.248
22520	20.676	2.2727	0.1	-13.894
22521	20.584	2.3636	0.1	-10.483
22522	20.676	2.0909	0.1	-14.041
22523	20.584	2.1818	0.1	-10.775
22524	20.676	1.9091	0.1	-14.194
22525	20.584	2.	0.1	-11.109
22526	20.676	1.7273	0.1	-14.342
22527	20.584	1.8182	0.1	-11.471
22528	20.676	1.5455	0.1	-14.477
22529	20.584	1.6364	0.1	-11.847
22530	20.676	1.3636	0.1	-14.598
22531	20.584	1.4545	0.1	-12.226
22532	20.676	1.1818	0.1	-14.709
22533	20.584	1.2727	0.1	-12.605
22534	20.676	1.	0.1	-14.822
22535	20.584	1.0909	0.1	-12.985
22536	20.676	0.81818	0.1	-14.96
22537	20.584	0.90909	0.1	-13.379
22538	20.676	0.63636	0.1	-15.156
22539	20.584	0.72727	0.1	-13.808
22540	20.676	0.45455	0.1	-15.499
22541	20.584	0.54545	0.1	-14.31
22542	20.676	0.27273	0.1	-16.888
22543	20.584	0.36364	0.1	-15.016
22544	20.584	0.18182	0.1	-17.657
22545	20.676	9.0909e-002	0.1	-12.428
22546	20.491	5.7273	0.1	-15.622
22547	20.399	5.8182	0.1	-16.594
22548	20.491	5.9091	0.1	-11.747
22549	20.491	5.5455	0.1	-13.776
22550	20.399	5.6364	0.1	-13.552
22551	20.491	5.3636	0.1	-12.92
22552	20.399	5.4545	0.1	-12.353
22553	20.491	5.1818	0.1	-12.189
22554	20.399	5.2727	0.1	-11.33
22555	20.491	5.	0.1	-11.507
22556	20.399	5.0909	0.1	-10.361
22557	20.491	4.8182	0.1	-10.849
22558	20.399	4.9091	0.1	-9.4188
22559	20.491	4.6364	0.1	-10.204
22560	20.399	4.7273	0.1	-8.4929
22561	20.491	4.4545	0.1	-9.5708
22562	20.399	4.5455	0.1	-7.5825
22563	20.491	4.2727	0.1	-8.9541
22564	20.399	4.3636	0.1	-6.6958
22565	20.491	4.0909	0.1	-8.3665
22566	20.399	4.1818	0.1	-5.8481
22567	20.491	3.9091	0.1	-7.8245
22568	20.399	4.	0.1	-5.0597
22569	20.491	3.7273	0.1	-7.3466
22570	20.399	3.8182	0.1	-4.3537
22571	20.491	3.5455	0.1	-6.9514
22572	20.399	3.6364	0.1	-3.7538
22573	20.491	3.3636	0.1	-6.6556
22574	20.399	3.4545	0.1	-3.2817
22575	20.491	3.1818	0.1	-6.4725
22576	20.399	3.2727	0.1	-2.9559
22577	20.491	3.	0.1	-6.4105
22578	20.399	3.0909	0.1	-2.7896
22579	20.491	2.8182	0.1	-6.4725
22580	20.399	2.9091	0.1	-2.7896
22581	20.491	2.6364	0.1	-6.6556
22582	20.399	2.7273	0.1	-2.9559
22583	20.491	2.4545	0.1	-6.9514
22584	20.399	2.5455	0.1	-3.2817
22585	20.491	2.2727	0.1	-7.3466
22586	20.399	2.3636	0.1	-3.7537
22587	20.491	2.0909	0.1	-7.8245
22588	20.399	2.1818	0.1	-4.3537
22589	20.491	1.9091	0.1	-8.3665
22590	20.399	2.	0.1	-5.0598
22591	20.491	1.7273	0.1	-8.9541
22592	20.399	1.8182	0.1	-5.8481
22593	20.491	1.5455	0.1	-9.5708
22594	20.399	1.6364	0.1	-6.6958
22595	20.491	1.3636	0.1	-10.204
22596	20.399	1.4545	0.1	-7.5825
22597	20.491	1.1818	0.1	-10.849
22598	20.399	1.2727	0.1	-8.4929
22599	20.491	1.	0.1	-11.507
22600	20.399	1.0909	0.1	-9.4188
22601	20.491	0.81818	0.1	-12.189
22602	20.399	0.90909	0.1	-10.361
22603	20.491	0.63636	0.1	-12.92
22604	20.399	0.72727	0.1	-11.33
22605	20.491	0.45455	0.1	-13.776
22606	20.399	0.54545	0.1	-12.353
22607	20.491	0.27273	0.1	-15.622
22608	20.399	0.36364	0.1	-13.552
22609	20.399	0.18182	0.1	-16.594
22610	20.491	9.0909e-002	0.1	-11.748
22611	20.307	5.7273	0.1	-14.368
22612	20.214	5.8182	0.1	-15.536
22613	20.307	5.9091	0.1	-11.069
22614	20.307	5.5455	0.1	-12.081
22615	20.214	5.6364	0.1	-12.113
22616	20.307	5.3636	0.1	-10.723
22617	20.214	5.4545	0.1	-10.435
22618	20.307	5.1818	0.1	-9.465
22619	20.214	5.2727	0.1	-8.8983
22620	20.307	5.	0.1	-8.2394
22621	20.214	5.0909	0.1	-7.3912
22622	20.307	4.8182	0.1	-7.0326
22623	20.214	4.9091	0.1	-5.897
22624	20.307	4.6364	0.1	-5.8442
22625	20.214	4.7273	0.1	-4.4159
22626	20.307	4.4545	0.1	-4.6839
22627	20.214	4.5455	0.1	-2.9593
22628	20.307	4.2727	0.1	-3.569
22629	20.214	4.3636	0.1	-1.5485
22630	20.307	4.0909	0.1	-2.523
22631	20.214	4.1818	0.1	-0.23399
22632	20.307	3.9091	0.1	-1.5729
22633	20.214	4.	0.1	-2.4361e-002
22634	20.307	3.7273	0.1	-0.74725
22635	20.214	3.8182	0.1	-2.1739e-002
22636	20.307	3.5455	0.1	-8.5957e-002
22637	20.214	3.6364	0.1	-2.1196e-002
22638	20.307	3.3636	0.1	-2.2466e-002
22639	20.214	3.4545	0.1	-2.1027e-002
22640	20.307	3.1818	0.1	-2.1674e-002
22641	20.214	3.2727	0.1	-2.0964e-002
22642	20.307	3.	0.1	-2.1551e-002
22643	20.214	3.0909	0.1	-2.0939e-002
22644	20.307	2.8182	0.1	-2.1675e-002
22645	20.214	2.9091	0.1	-2.094e-002
22646	20.307	2.6364	0.1	-2.2466e-002
22647	20.214	2.7273	0.1	-2.0963e-002
22648	20.307	2.4545	0.1	-8.5953e-002
22649	20.214	2.5455	0.1	-2.1027e-002
22650	20.307	2.2727	0.1	-0.74725
22651	20.214	2.3636	0.1	-2.1196e-002
22652	20.307	2.0909	0.1	-1.5729
22653	20.214	2.1818	0.1	-2.1739e-002
22654	20.307	1.9091	0.1	-2.523
22655	20.214	2.	0.1	-2.4362e-002
22656	20.307	1.7273	0.1	-3.569
22657	20.214	1.8182	0.1	-0.23399
22658	20.307	1.5455	0.1	-4.6839
22659	20.214	1.6364	0.1	-1.5485
22660	20.307	1.3636	0.1	-5.8442
22661	20.214	1.4545	0.1	-2.9593
22662	20.307	1.1818	0.1	-7.0325
22663	20.214	1.2727	0.1	-4.4159
22664	20.307	1.	0.1	-8.2394
22665	20.214	1.0909	0.1	-5.897
22666	20.307	0.81818	0.1	-9.465
22667	20.214	0.90909	0.1	-7.3912
22668	20.307	0.63636	0.1	-10.723
22669	20.214	0.72727	0.1	-8.8983
22670	20.307	0.45455	0.1	-12.081
22671	20.214	0.54545	0.1	-10.435
22672	20.307	0.27273	0.1	-14.368
22673	20.214	0.36364	0.1	-12.113
22674	20.214	0.18182	0.1	-15.536
22675	20.307	9.0909e-002	0.1	-11.069
22676	20.122	5.7273	0.1	-13.133
22677	20.03	5.8182	0.1	-14.492
22678	20.122	5.9091	0.1	-10.397
22679	20.122	5.5455	0.1	-10.422
22680	20.03	5.6364	0.1	-10.709
22681	20.122	5.3636	0.1	-8.5723
22682	20.03	5.4545	0.1	-8.5646
22683	20.122	5.1818	0.1	-6.7897
22684	20.03	5.2727	0.1	-6.5192
22685	20.122	5.	0.1	-5.0174
22686	20.03	5.0909	0.1	-4.4726
22687	20.122	4.8182	0.1	-3.2528
22688	20.03	4.9091	0.1	-2.4194
22689	20.122	4.6364	0.1	-1.5099
22690	20.03	4.7273	0.1	-0.40187
22691	20.122	4.4545	0.1	-6.2963e-002
22692	20.03	4.5455	0.1	-2.496e-002
22693	20.122	4.2727	0.1	-2.3394e-002
22694	20.03	4.3636	0.1	-2.085e-002
22695	20.122	4.0909	0.1	-2.1141e-002
22696	20.03	4.1818	0.1	-2.0142e-002
22697	20.122	3.9091	0.1	-2.063e-002
22698	20.03	4.	0.1	-1.9991e-002
22699	20.122	3.7273	0.1	-2.0476e-002
22700	20.03	3.8182	0.1	-1.9949e-002
22701	20.122	3.5455	0.1	-2.0414e-002
22702	20.03	3.6364	0.1	-1.9914e-002
22703	20.122	3.3636	0.1	-2.0378e-002
22704	20.03	3.4545	0.1	-1.9873e-002
22705	20.122	3.1818	0.1	-2.0355e-002
22706	20.03	3.2727	0.1	-1.9833e-002
22707	20.122	3.	0.1	-2.0347e-002
22708	20.03	3.0909	0.1	-1.981e-002
22709	20.122	2.8182	0.1	-2.0355e-002
22710	20.03	2.9091	0.1	-1.981e-002
22711	20.122	2.6364	0.1	-2.0378e-002
22712	20.03	2.7273	0.1	-1.9833e-002
22713	20.122	2.4545	0.1	-2.0415e-002
22714	20.03	2.5455	0.1	-1.9874e-002
22715	20.122	2.2727	0.1	-2.0476e-002
22716	20.03	2.3636	0.1	-1.9915e-002
22717	20.122	2.0909	0.1	-2.063e-002
22718	20.03	2.1818	0.1	-1.9948e-002
22719	20.122	1.9091	0.1	-2.1141e-002
22720	20.03	2.	0.1	-1.999e-002
22721	20.122	1.7273	0.1	-2.3394e-002
22722	20.03	1.8182	0.1	-2.0142e-002
22723	20.122	1.5455	0.1	-6.2966e-002
22724	20.03	1.6364	0.1	-2.085e-002
22725	20.122	1.3636	0.1	-1.5099
22726	20.03	1.4545	0.1	-2.496e-002
22727	20.122	1.1818	0.1	-3.2528
22728	20.03	1.2727	0.1	-0.40186
22729	20.122	1.	0.1	-5.0174
22730	20.03	1.0909	0.1	-2.4193
22731	20.122	0.81818	0.1	-6.7897
22732	20.03	0.90909	0.1	-4.4725
22733	20.122	0.63636	0.1	-8.5723
22734	20.03	0.72727	0.1	-6.5192
22735	20.122	0.45455	0.1	-10.422
22736	20.03	0.54545	0.1	-8.5646
22737	20.122	0.27273	0.1	-13.133
22738	20.03	0.36364	0.1	-10.709
22739	20.03	0.18182	0.1	-14.493
22740	20.122	9.0909e-002	0.1	-10.397
22741	19.937	5.7273	0.1	-11.926
22742	19.845	5.8182	0.1	-13.472
22743	19.937	5.9091	0.1	-9.7369
22744	19.937	5.5455	0.1	-8.8085
22745	19.845	5.6364	0.1	-9.3506
22746	19.937	5.3636	0.1	-6.4751
22747	19.845	5.4545	0.1	-6.7518
22748	19.937	5.1818	0.1	-4.1689
22749	19.845	5.2727	0.1	-4.202
22750	19.937	5.	0.1	-1.8464
22751	19.845	5.0909	0.1	-1.6149
22752	19.937	4.8182	0.1	-4.7886e-002
22753	19.845	4.9091	0.1	-3.0827e-002
22754	19.937	4.6364	0.1	-2.1617e-002
22755	19.845	4.7273	0.1	-1.9971e-002
22756	19.937	4.4545	0.1	-1.9804e-002
22757	19.845	4.5455	0.1	-1.9076e-002
22758	19.937	4.2727	0.1	-1.952e-002
22759	19.845	4.3636	0.1	-1.907e-002
22760	19.937	4.0909	0.1	-1.9506e-002
22761	19.845	4.1818	0.1	-1.9166e-002
22762	19.937	3.9091	0.1	-1.9511e-002
22763	19.845	4.	0.1	-1.9207e-002
22764	19.937	3.7273	0.1	-1.9481e-002
22765	19.845	3.8182	0.1	-1.9172e-002
22766	19.937	3.5455	0.1	-1.9422e-002
22767	19.845	3.6364	0.1	-1.9083e-002
22768	19.937	3.3636	0.1	-1.9356e-002
22769	19.845	3.4545	0.1	-1.8977e-002
22770	19.937	3.1818	0.1	-1.9307e-002
22771	19.845	3.2727	0.1	-1.8885e-002
22772	19.937	3.	0.1	-1.9288e-002
22773	19.845	3.0909	0.1	-1.8833e-002
22774	19.937	2.8182	0.1	-1.9307e-002
22775	19.845	2.9091	0.1	-1.8833e-002
22776	19.937	2.6364	0.1	-1.9357e-002
22777	19.845	2.7273	0.1	-1.8885e-002
22778	19.937	2.4545	0.1	-1.9422e-002
22779	19.845	2.5455	0.1	-1.8977e-002
22780	19.937	2.2727	0.1	-1.948e-002
22781	19.845	2.3636	0.1	-1.9083e-002
22782	19.937	2.0909	0.1	-1.951e-002
22783	19.845	2.1818	0.1	-1.9172e-002
22784	19.937	1.9091	0.1	-1.9506e-002
22785	19.845	2.	0.1	-1.9207e-002
22786	19.937	1.7273	0.1	-1.9521e-002
22787	19.845	1.8182	0.1	-1.9166e-002
22788	19.937	1.5455	0.1	-1.9804e-002
22789	19.845	1.6364	0.1	-1.907e-002
22790	19.937	1.3636	0.1	-2.1618e-002
22791	19.845	1.4545	0.1	-1.9075e-002
22792	19.937	1.1818	0.1	-4.7887e-002
22793	19.845	1.2727	0.1	-1.9971e-002
22794	19.937	1.	0.1	-1.8464
22795	19.845	1.0909	0.1	-3.0829e-002
22796	19.937	0.81818	0.1	-4.1689
22797	19.845	0.90909	0.1	-1.6149
22798	19.937	0.63636	0.1	-6.4751
22799	19.845	0.72727	0.1	-4.202
22800	19.937	0.45455	0.1	-8.8085
22801	19.845	0.54545	0.1	-6.7519
22802	19.937	0.27273	0.1	-11.926
22803	19.845	0.36364	0.1	-9.3506
22804	19.845	0.18182	0.1	-13.473
22805	19.937	9.0909e-002	0.1	-9.7369
22806	19.753	5.7273	0.1	-10.76
22807	19.66	5.8182	0.1	-12.487
22808	19.753	5.9091	0.1	-9.094
22809	19.753	5.5455	0.1	-7.2527
22810	19.66	5.6364	0.1	-8.0514
22811	19.753	5.3636	0.1	-4.4438
22812	19.66	5.4545	0.1	-5.0121
22813	19.753	5.1818	0.1	-1.6156
22814	19.66	5.2727	0.1	-1.9616
22815	19.753	5.	0.1	-2.6531e-002
22816	19.66	5.0909	0.1	-2.4966e-002
22817	19.753	4.8182	0.1	-1.8986e-002
22818	19.66	4.9091	0.1	-1.8161e-002
22819	19.753	4.6364	0.1	-1.8529e-002
22820	19.66	4.7273	0.1	-1.8102e-002
22821	19.753	4.4545	0.1	-1.87e-002
22822	19.66	4.5455	0.1	-1.8473e-002
22823	19.753	4.2727	0.1	-1.8881e-002
22824	19.66	4.3636	0.1	-1.8757e-002
22825	19.753	4.0909	0.1	-1.8954e-002
22826	19.66	4.1818	0.1	-1.8872e-002
22827	19.753	3.9091	0.1	-1.8918e-002
22828	19.66	4.	0.1	-1.8831e-002
22829	19.753	3.7273	0.1	-1.8803e-002
22830	19.66	3.8182	0.1	-1.868e-002
22831	19.753	3.5455	0.1	-1.8655e-002
22832	19.66	3.6364	0.1	-1.8475e-002
22833	19.753	3.3636	0.1	-1.8516e-002
22834	19.66	3.4545	0.1	-1.827e-002
22835	19.753	3.1818	0.1	-1.8418e-002
22836	19.66	3.2727	0.1	-1.8105e-002
22837	19.753	3.	0.1	-1.8383e-002
22838	19.66	3.0909	0.1	-1.8016e-002
22839	19.753	2.8182	0.1	-1.8418e-002
22840	19.66	2.9091	0.1	-1.8016e-002
22841	19.753	2.6364	0.1	-1.8516e-002
22842	19.66	2.7273	0.1	-1.8106e-002
22843	19.753	2.4545	0.1	-1.8655e-002
22844	19.66	2.5455	0.1	-1.827e-002
22845	19.753	2.2727	0.1	-1.8804e-002
22846	19.66	2.3636	0.1	-1.8475e-002
22847	19.753	2.0909	0.1	-1.8918e-002
22848	19.66	2.1818	0.1	-1.868e-002
22849	19.753	1.9091	0.1	-1.8955e-002
22850	19.66	2.	0.1	-1.8831e-002
22851	19.753	1.7273	0.1	-1.8881e-002
22852	19.66	1.8182	0.1	-1.8872e-002
22853	19.753	1.5455	0.1	-1.8699e-002
22854	19.66	1.6364	0.1	-1.8758e-002
22855	19.753	1.3636	0.1	-1.8528e-002
22856	19.66	1.4545	0.1	-1.8473e-002
22857	19.753	1.1818	0.1	-1.8986e-002
22858	19.66	1.2727	0.1	-1.8101e-002
22859	19.753	1.	0.1	-2.6532e-002
22860	19.66	1.0909	0.1	-1.8161e-002
22861	19.753	0.81818	0.1	-1.6156
22862	19.66	0.90909	0.1	-2.4968e-002
22863	19.753	0.63636	0.1	-4.4438
22864	19.66	0.72727	0.1	-1.9616
22865	19.753	0.45455	0.1	-7.2527
22866	19.66	0.54545	0.1	-5.0121
22867	19.753	0.27273	0.1	-10.76
22868	19.66	0.36364	0.1	-8.0514
22869	19.66	0.18182	0.1	-12.487
22870	19.753	9.0909e-002	0.1	-9.094
22871	19.568	5.7273	0.1	-9.6477
22872	19.476	5.8182	0.1	-11.55
22873	19.568	5.9091	0.1	-8.4753
22874	19.568	5.5455	0.1	-5.771
22875	19.476	5.6364	0.1	-6.8288
22876	19.568	5.3636	0.1	-2.4949
22877	19.476	5.4545	0.1	-3.3643
22878	19.568	5.1818	0.1	-2.6053e-002
22879	19.476	5.2727	0.1	-4.6361e-002
22880	19.568	5.	0.1	-1.7486e-002
22881	19.476	5.0909	0.1	-1.6826e-002
22882	19.568	4.8182	0.1	-1.7706e-002
22883	19.476	4.9091	0.1	-1.7415e-002
22884	19.568	4.6364	0.1	-1.8251e-002
22885	19.476	4.7273	0.1	-1.8193e-002
22886	19.568	4.4545	0.1	-1.8643e-002
22887	19.476	4.5455	0.1	-1.873e-002
22888	19.568	4.2727	0.1	-1.8813e-002
22889	19.476	4.3636	0.1	-1.8972e-002
22890	19.568	4.0909	0.1	-1.8786e-002
22891	19.476	4.1818	0.1	-1.8961e-002
22892	19.568	3.9091	0.1	-1.8613e-002
22893	19.476	4.	0.1	-1.8759e-002
22894	19.568	3.7273	0.1	-1.836e-002
22895	19.476	3.8182	0.1	-1.8444e-002
22896	19.568	3.5455	0.1	-1.8091e-002
22897	19.476	3.6364	0.1	-1.8089e-002
22898	19.568	3.3636	0.1	-1.7856e-002
22899	19.476	3.4545	0.1	-1.7761e-002
22900	19.568	3.1818	0.1	-1.7698e-002
22901	19.476	3.2727	0.1	-1.751e-002
22902	19.568	3.	0.1	-1.7642e-002
22903	19.476	3.0909	0.1	-1.7376e-002
22904	19.568	2.8182	0.1	-1.7697e-002
22905	19.476	2.9091	0.1	-1.7375e-002
22906	19.568	2.6364	0.1	-1.7856e-002
22907	19.476	2.7273	0.1	-1.751e-002
22908	19.568	2.4545	0.1	-1.809e-002
22909	19.476	2.5455	0.1	-1.776e-002
22910	19.568	2.2727	0.1	-1.836e-002
22911	19.476	2.3636	0.1	-1.809e-002
22912	19.568	2.0909	0.1	-1.8612e-002
22913	19.476	2.1818	0.1	-1.8444e-002
22914	19.568	1.9091	0.1	-1.8785e-002
22915	19.476	2.	0.1	-1.8759e-002
22916	19.568	1.7273	0.1	-1.8815e-002
22917	19.476	1.8182	0.1	-1.8961e-002
22918	19.568	1.5455	0.1	-1.8644e-002
22919	19.476	1.6364	0.1	-1.8973e-002
22920	19.568	1.3636	0.1	-1.8251e-002
22921	19.476	1.4545	0.1	-1.8731e-002
22922	19.568	1.1818	0.1	-1.7705e-002
22923	19.476	1.2727	0.1	-1.8192e-002
22924	19.568	1.	0.1	-1.7487e-002
22925	19.476	1.0909	0.1	-1.7414e-002
22926	19.568	0.81818	0.1	-2.6054e-002
22927	19.476	0.90909	0.1	-1.6828e-002
22928	19.568	0.63636	0.1	-2.4949
22929	19.476	0.72727	0.1	-4.6361e-002
22930	19.568	0.45455	0.1	-5.771
22931	19.476	0.54545	0.1	-3.3643
22932	19.568	0.27273	0.1	-9.6477
22933	19.476	0.36364	0.1	-6.8289
22934	19.476	0.18182	0.1	-11.55
22935	19.568	9.0909e-002	0.1	-8.4753
22936	19.383	5.7273	0.1	-8.6058
22937	19.291	5.8182	0.1	-10.676
22938	19.383	5.9091	0.1	-7.8888
22939	19.383	5.5455	0.1	-4.3836
22940	19.291	5.6364	0.1	-5.7039
22941	19.383	5.3636	0.1	-0.65262
22942	19.291	5.4545	0.1	-1.8323
22943	19.383	5.1818	0.1	-1.6248e-002
22944	19.291	5.2727	0.1	-1.5645e-002
22945	19.383	5.	0.1	-1.7048e-002
22946	19.291	5.0909	0.1	-1.6781e-002
22947	19.383	4.8182	0.1	-1.8075e-002
22948	19.291	4.9091	0.1	-1.8152e-002
22949	19.383	4.6364	0.1	-1.8772e-002
22950	19.291	4.7273	0.1	-1.9056e-002
22951	19.383	4.4545	0.1	-1.9116e-002
22952	19.291	4.5455	0.1	-1.9532e-002
22953	19.383	4.2727	0.1	-1.915e-002
22954	19.291	4.3636	0.1	-1.9622e-002
22955	19.383	4.0909	0.1	-1.8946e-002
22956	19.291	4.1818	0.1	-1.9415e-002
22957	19.383	3.9091	0.1	-1.859e-002
22958	19.291	4.	0.1	-1.9005e-002
22959	19.383	3.7273	0.1	-1.8164e-002
22960	19.291	3.8182	0.1	-1.8488e-002
22961	19.383	3.5455	0.1	-1.7744e-002
22962	19.291	3.6364	0.1	-1.7953e-002
22963	19.383	3.3636	0.1	-1.7395e-002
22964	19.291	3.4545	0.1	-1.7478e-002
22965	19.383	3.1818	0.1	-1.7166e-002
22966	19.291	3.2727	0.1	-1.7126e-002
22967	19.383	3.	0.1	-1.7087e-002
22968	19.291	3.0909	0.1	-1.6939e-002
22969	19.383	2.8182	0.1	-1.7166e-002
22970	19.291	2.9091	0.1	-1.6939e-002
22971	19.383	2.6364	0.1	-1.7396e-002
22972	19.291	2.7273	0.1	-1.7127e-002
22973	19.383	2.4545	0.1	-1.7745e-002
22974	19.291	2.5455	0.1	-1.7479e-002
22975	19.383	2.2727	0.1	-1.8165e-002
22976	19.291	2.3636	0.1	-1.7953e-002
22977	19.383	2.0909	0.1	-1.859e-002
22978	19.291	2.1818	0.1	-1.8488e-002
22979	19.383	1.9091	0.1	-1.8946e-002
22980	19.291	2.	0.1	-1.9005e-002
22981	19.383	1.7273	0.1	-1.9149e-002
22982	19.291	1.8182	0.1	-1.9415e-002
22983	19.383	1.5455	0.1	-1.9117e-002
22984	19.291	1.6364	0.1	-1.9622e-002
22985	19.383	1.3636	0.1	-1.8772e-002
22986	19.291	1.4545	0.1	-1.9533e-002
22987	19.383	1.1818	0.1	-1.8075e-002
22988	19.291	1.2727	0.1	-1.9057e-002
22989	19.383	1.	0.1	-1.7049e-002
22990	19.291	1.0909	0.1	-1.8152e-002
22991	19.383	0.81818	0.1	-1.625e-002
22992	19.291	0.90909	0.1	-1.6784e-002
22993	19.383	0.63636	0.1	-0.65262
22994	19.291	0.72727	0.1	-1.5647e-002
22995	19.383	0.45455	0.1	-4.3836
22996	19.291	0.54545	0.1	-1.8324
22997	19.383	0.27273	0.1	-8.6058
22998	19.291	0.36364	0.1	-5.704
22999	19.291	0.18182	0.1	-10.676
23000	19.383	9.0909e-002	0.1	-7.8888
23001	19.199	5.7273	0.1	-7.6542
23002	19.106	5.8182	0.1	-9.8829
23003	19.199	5.9091	0.1	-7.3439
23004	19.199	5.5455	0.1	-3.1153
23005	19.106	5.6364	0.1	-4.7022
23006	19.199	5.3636	0.1	-1.4655e-002
23007	19.106	5.4545	0.1	-0.4455
23008	19.199	5.1818	0.1	-1.6451e-002
23009	19.106	5.2727	0.1	-1.6284e-002
23010	19.199	5.	0.1	-1.8065e-002
23011	19.106	5.0909	0.1	-1.8223e-002
23012	19.199	4.8182	0.1	-1.9232e-002
23013	19.106	4.9091	0.1	-1.9715e-002
23014	19.199	4.6364	0.1	-1.987e-002
23015	19.106	4.7273	0.1	-2.0553e-002
23016	19.199	4.4545	0.1	-2.0062e-002
23017	19.106	4.5455	0.1	-2.0867e-002
23018	19.199	4.2727	0.1	-1.9892e-002
23019	19.106	4.3636	0.1	-2.0737e-002
23020	19.199	4.0909	0.1	-1.9464e-002
23021	19.106	4.1818	0.1	-2.0282e-002
23022	19.199	3.9091	0.1	-1.8883e-002
23023	19.106	4.	0.1	-1.9618e-002
23024	19.199	3.7273	0.1	-1.8249e-002
23025	19.106	3.8182	0.1	-1.8859e-002
23026	19.199	3.5455	0.1	-1.7654e-002
23027	19.106	3.6364	0.1	-1.8113e-002
23028	19.199	3.3636	0.1	-1.7172e-002
23029	19.106	3.4545	0.1	-1.7469e-002
23030	19.199	3.1818	0.1	-1.686e-002
23031	19.106	3.2727	0.1	-1.6998e-002
23032	19.199	3.	0.1	-1.6752e-002
23033	19.106	3.0909	0.1	-1.6752e-002
23034	19.199	2.8182	0.1	-1.686e-002
23035	19.106	2.9091	0.1	-1.6751e-002
23036	19.199	2.6364	0.1	-1.7172e-002
23037	19.106	2.7273	0.1	-1.6999e-002
23038	19.199	2.4545	0.1	-1.7654e-002
23039	19.106	2.5455	0.1	-1.7469e-002
23040	19.199	2.2727	0.1	-1.8248e-002
23041	19.106	2.3636	0.1	-1.8112e-002
23042	19.199	2.0909	0.1	-1.8882e-002
23043	19.106	2.1818	0.1	-1.8859e-002
23044	19.199	1.9091	0.1	-1.9464e-002
23045	19.106	2.	0.1	-1.9618e-002
23046	19.199	1.7273	0.1	-1.9892e-002
23047	19.106	1.8182	0.1	-2.0282e-002
23048	19.199	1.5455	0.1	-2.0062e-002
23049	19.106	1.6364	0.1	-2.0738e-002
23050	19.199	1.3636	0.1	-1.9871e-002
23051	19.106	1.4545	0.1	-2.0867e-002
23052	19.199	1.1818	0.1	-1.9232e-002
23053	19.106	1.2727	0.1	-2.0553e-002
23054	19.199	1.	0.1	-1.8066e-002
23055	19.106	1.0909	0.1	-1.9714e-002
23056	19.199	0.81818	0.1	-1.6453e-002
23057	19.106	0.90909	0.1	-1.8225e-002
23058	19.199	0.63636	0.1	-1.4656e-002
23059	19.106	0.72727	0.1	-1.6287e-002
23060	19.199	0.45455	0.1	-3.1153
23061	19.106	0.54545	0.1	-0.44551
23062	19.199	0.27273	0.1	-7.6543
23063	19.106	0.36364	0.1	-4.7022
23064	19.106	0.18182	0.1	-9.883
23065	19.199	9.0909e-002	0.1	-7.3439
23066	19.014	5.7273	0.1	-6.8166
23067	18.922	5.8182	0.1	-9.1921
23068	19.014	5.9091	0.1	-6.8513
23069	19.014	5.5455	0.1	-1.9966
23070	18.922	5.6364	0.1	-3.854
23071	19.014	5.3636	0.1	-1.5546e-002
23072	18.922	5.4545	0.1	-1.7054e-002
23073	19.014	5.1818	0.1	-1.8256e-002
23074	18.922	5.2727	0.1	-1.8751e-002
23075	19.014	5.	0.1	-1.9967e-002
23076	18.922	5.0909	0.1	-2.0645e-002
23077	19.014	4.8182	0.1	-2.1081e-002
23078	18.922	4.9091	0.1	-2.2062e-002
23079	19.014	4.6364	0.1	-2.1565e-002
23080	18.922	4.7273	0.1	-2.2736e-002
23081	19.014	4.4545	0.1	-2.1535e-002
23082	18.922	4.5455	0.1	-2.2815e-002
23083	19.014	4.2727	0.1	-2.1105e-002
23084	18.922	4.3636	0.1	-2.2403e-002
23085	19.014	4.0909	0.1	-2.0402e-002
23086	18.922	4.1818	0.1	-2.1642e-002
23087	19.014	3.9091	0.1	-1.9551e-002
23088	18.922	4.	0.1	-2.0673e-002
23089	19.014	3.7273	0.1	-1.8672e-002
23090	18.922	3.8182	0.1	-1.9629e-002
23091	19.014	3.5455	0.1	-1.7873e-002
23092	18.922	3.6364	0.1	-1.8636e-002
23093	19.014	3.3636	0.1	-1.7237e-002
23094	18.922	3.4545	0.1	-1.7796e-002
23095	19.014	3.1818	0.1	-1.6829e-002
23096	18.922	3.2727	0.1	-1.719e-002
23097	19.014	3.	0.1	-1.669e-002
23098	18.922	3.0909	0.1	-1.6874e-002
23099	19.014	2.8182	0.1	-1.6829e-002
23100	18.922	2.9091	0.1	-1.6873e-002
23101	19.014	2.6364	0.1	-1.7237e-002
23102	18.922	2.7273	0.1	-1.719e-002
23103	19.014	2.4545	0.1	-1.7872e-002
23104	18.922	2.5455	0.1	-1.7796e-002
23105	19.014	2.2727	0.1	-1.8672e-002
23106	18.922	2.3636	0.1	-1.8636e-002
23107	19.014	2.0909	0.1	-1.955e-002
23108	18.922	2.1818	0.1	-1.9629e-002
23109	19.014	1.9091	0.1	-2.0401e-002
23110	18.922	2.	0.1	-2.0672e-002
23111	19.014	1.7273	0.1	-2.1105e-002
23112	18.922	1.8182	0.1	-2.1642e-002
23113	19.014	1.5455	0.1	-2.1535e-002
23114	18.922	1.6364	0.1	-2.2403e-002
23115	19.014	1.3636	0.1	-2.1564e-002
23116	18.922	1.4545	0.1	-2.2814e-002
23117	19.014	1.1818	0.1	-2.108e-002
23118	18.922	1.2727	0.1	-2.2736e-002
23119	19.014	1.	0.1	-1.9967e-002
23120	18.922	1.0909	0.1	-2.2061e-002
23121	19.014	0.81818	0.1	-1.8258e-002
23122	18.922	0.90909	0.1	-2.0647e-002
23123	19.014	0.63636	0.1	-1.5547e-002
23124	18.922	0.72727	0.1	-1.8754e-002
23125	19.014	0.45455	0.1	-1.9966
23126	18.922	0.54545	0.1	-1.7054e-002
23127	19.014	0.27273	0.1	-6.8167
23128	18.922	0.36364	0.1	-3.854
23129	18.922	0.18182	0.1	-9.1921
23130	19.014	9.0909e-002	0.1	-6.8513
23131	18.829	5.7273	0.1	-6.1207
23132	18.737	5.8182	0.1	-8.6274
23133	18.829	5.9091	0.1	-6.4236
23134	18.829	5.5455	0.1	-1.0665
23135	18.737	5.6364	0.1	-3.1954
23136	18.829	5.3636	0.1	-1.8753e-002
23137	18.737	5.4545	0.1	-2.237e-002
23138	18.829	5.1818	0.1	-2.1145e-002
23139	18.737	5.2727	0.1	-2.2499e-002
23140	18.829	5.	0.1	-2.275e-002
23141	18.737	5.0909	0.1	-2.4116e-002
23142	18.829	4.8182	0.1	-2.3707e-002
23143	18.737	4.9091	0.1	-2.5332e-002
23144	18.829	4.6364	0.1	-2.3958e-002
23145	18.737	4.7273	0.1	-2.5751e-002
23146	18.829	4.4545	0.1	-2.3639e-002
23147	18.737	4.5455	0.1	-2.5513e-002
23148	18.829	4.2727	0.1	-2.2885e-002
23149	18.737	4.3636	0.1	-2.4744e-002
23150	18.829	4.0909	0.1	-2.1848e-002
23151	18.737	4.1818	0.1	-2.3609e-002
23152	18.829	3.9091	0.1	-2.0678e-002
23153	18.737	4.	0.1	-2.2272e-002
23154	18.829	3.7273	0.1	-1.9514e-002
23155	18.737	3.8182	0.1	-2.0893e-002
23156	18.829	3.5455	0.1	-1.8477e-002
23157	18.737	3.6364	0.1	-1.9612e-002
23158	18.829	3.3636	0.1	-1.7664e-002
23159	18.737	3.4545	0.1	-1.8547e-002
23160	18.829	3.1818	0.1	-1.7148e-002
23161	18.737	3.2727	0.1	-1.7786e-002
23162	18.829	3.	0.1	-1.6971e-002
23163	18.737	3.0909	0.1	-1.7391e-002
23164	18.829	2.8182	0.1	-1.7148e-002
23165	18.737	2.9091	0.1	-1.7391e-002
23166	18.829	2.6364	0.1	-1.7664e-002
23167	18.737	2.7273	0.1	-1.7786e-002
23168	18.829	2.4545	0.1	-1.8477e-002
23169	18.737	2.5455	0.1	-1.8547e-002
23170	18.829	2.2727	0.1	-1.9514e-002
23171	18.737	2.3636	0.1	-1.9612e-002
23172	18.829	2.0909	0.1	-2.0678e-002
23173	18.737	2.1818	0.1	-2.0893e-002
23174	18.829	1.9091	0.1	-2.1848e-002
23175	18.737	2.	0.1	-2.2272e-002
23176	18.829	1.7273	0.1	-2.2885e-002
23177	18.737	1.8182	0.1	-2.3609e-002
23178	18.829	1.5455	0.1	-2.3639e-002
23179	18.737	1.6364	0.1	-2.4744e-002
23180	18.829	1.3636	0.1	-2.3958e-002
23181	18.737	1.4545	0.1	-2.5514e-002
23182	18.829	1.1818	0.1	-2.3707e-002
23183	18.737	1.2727	0.1	-2.575e-002
23184	18.829	1.	0.1	-2.2751e-002
23185	18.737	1.0909	0.1	-2.5333e-002
23186	18.829	0.81818	0.1	-2.1147e-002
23187	18.737	0.90909	0.1	-2.4118e-002
23188	18.829	0.63636	0.1	-1.8754e-002
23189	18.737	0.72727	0.1	-2.25e-002
23190	18.829	0.45455	0.1	-1.0665
23191	18.737	0.54545	0.1	-2.237e-002
23192	18.829	0.27273	0.1	-6.1207
23193	18.737	0.36364	0.1	-3.1954
23194	18.737	0.18182	0.1	-8.6275
23195	18.829	9.0909e-002	0.1	-6.4236
23196	18.645	5.7273	0.1	-5.5984
23197	18.552	5.8182	0.1	-8.2167
23198	18.645	5.9091	0.1	-6.0753
23199	18.645	5.5455	0.1	-0.39397
23200	18.552	5.6364	0.1	-2.7682
23201	18.645	5.3636	0.1	-2.3507e-002
23202	18.552	5.4545	0.1	-3.0237e-002
23203	18.645	5.1818	0.1	-2.5248e-002
23204	18.552	5.2727	0.1	-2.7835e-002
23205	18.645	5.	0.1	-2.6607e-002
23206	18.552	5.0909	0.1	-2.8934e-002
23207	18.645	4.8182	0.1	-2.73e-002
23208	18.552	4.9091	0.1	-2.9792e-002
23209	18.645	4.6364	0.1	-2.7226e-002
23210	18.552	4.7273	0.1	-2.983e-002
23211	18.645	4.4545	0.1	-2.653e-002
23212	18.552	4.5455	0.1	-2.9164e-002
23213	18.645	4.2727	0.1	-2.5372e-002
23214	18.552	4.3636	0.1	-2.7935e-002
23215	18.645	4.0909	0.1	-2.393e-002
23216	18.552	4.1818	0.1	-2.6335e-002
23217	18.645	3.9091	0.1	-2.2379e-002
23218	18.552	4.	0.1	-2.4556e-002
23219	18.645	3.7273	0.1	-2.0879e-002
23220	18.552	3.8182	0.1	-2.278e-002
23221	18.645	3.5455	0.1	-1.9567e-002
23222	18.552	3.6364	0.1	-2.1165e-002
23223	18.645	3.3636	0.1	-1.8552e-002
23224	18.552	3.4545	0.1	-1.984e-002
23225	18.645	3.1818	0.1	-1.7912e-002
23226	18.552	3.2727	0.1	-1.8905e-002
23227	18.645	3.	0.1	-1.7693e-002
23228	18.552	3.0909	0.1	-1.8422e-002
23229	18.645	2.8182	0.1	-1.7911e-002
23230	18.552	2.9091	0.1	-1.8421e-002
23231	18.645	2.6364	0.1	-1.8551e-002
23232	18.552	2.7273	0.1	-1.8905e-002
23233	18.645	2.4545	0.1	-1.9567e-002
23234	18.552	2.5455	0.1	-1.9841e-002
23235	18.645	2.2727	0.1	-2.088e-002
23236	18.552	2.3636	0.1	-2.1164e-002
23237	18.645	2.0909	0.1	-2.238e-002
23238	18.552	2.1818	0.1	-2.278e-002
23239	18.645	1.9091	0.1	-2.393e-002
23240	18.552	2.	0.1	-2.4557e-002
23241	18.645	1.7273	0.1	-2.5372e-002
23242	18.552	1.8182	0.1	-2.6335e-002
23243	18.645	1.5455	0.1	-2.6531e-002
23244	18.552	1.6364	0.1	-2.7935e-002
23245	18.645	1.3636	0.1	-2.7226e-002
23246	18.552	1.4545	0.1	-2.9164e-002
23247	18.645	1.1818	0.1	-2.73e-002
23248	18.552	1.2727	0.1	-2.9829e-002
23249	18.645	1.	0.1	-2.6608e-002
23250	18.552	1.0909	0.1	-2.9793e-002
23251	18.645	0.81818	0.1	-2.525e-002
23252	18.552	0.90909	0.1	-2.8936e-002
23253	18.645	0.63636	0.1	-2.3507e-002
23254	18.552	0.72727	0.1	-2.7836e-002
23255	18.645	0.45455	0.1	-0.39398
23256	18.552	0.54545	0.1	-3.0237e-002
23257	18.645	0.27273	0.1	-5.5984
23258	18.552	0.36364	0.1	-2.7682
23259	18.552	0.18182	0.1	-8.2168
23260	18.645	9.0909e-002	0.1	-6.0754
23261	18.46	5.7273	0.1	-5.2865
23262	18.368	5.8182	0.1	-7.9916
23263	18.46	5.9091	0.1	-5.8233
23264	18.46	5.5455	0.1	-0.16214
23265	18.368	5.6364	0.1	-2.6195
23266	18.46	5.3636	0.1	-3.0419e-002
23267	18.368	5.4545	0.1	-4.2765e-002
23268	18.46	5.1818	0.1	-3.1e-002
23269	18.368	5.2727	0.1	-3.5526e-002
23270	18.46	5.	0.1	-3.1891e-002
23271	18.368	5.0909	0.1	-3.5637e-002
23272	18.46	4.8182	0.1	-3.2156e-002
23273	18.368	4.9091	0.1	-3.5856e-002
23274	18.46	4.6364	0.1	-3.1619e-002
23275	18.368	4.7273	0.1	-3.5311e-002
23276	18.46	4.4545	0.1	-3.0423e-002
23277	18.368	4.5455	0.1	-3.4045e-002
23278	18.46	4.2727	0.1	-2.8751e-002
23279	18.368	4.3636	0.1	-3.2211e-002
23280	18.46	4.0909	0.1	-2.681e-002
23281	18.368	4.1818	0.1	-3.0024e-002
23282	18.46	3.9091	0.1	-2.4803e-002
23283	18.368	4.	0.1	-2.7703e-002
23284	18.46	3.7273	0.1	-2.291e-002
23285	18.368	3.8182	0.1	-2.5454e-002
23286	18.46	3.5455	0.1	-2.1282e-002
23287	18.368	3.6364	0.1	-2.3452e-002
23288	18.46	3.3636	0.1	-2.0037e-002
23289	18.368	3.4545	0.1	-2.1838e-002
23290	18.46	3.1818	0.1	-1.9259e-002
23291	18.368	3.2727	0.1	-2.0708e-002
23292	18.46	3.	0.1	-1.8994e-002
23293	18.368	3.0909	0.1	-2.013e-002
23294	18.46	2.8182	0.1	-1.9259e-002
23295	18.368	2.9091	0.1	-2.0129e-002
23296	18.46	2.6364	0.1	-2.0038e-002
23297	18.368	2.7273	0.1	-2.0709e-002
23298	18.46	2.4545	0.1	-2.1282e-002
23299	18.368	2.5455	0.1	-2.1838e-002
23300	18.46	2.2727	0.1	-2.291e-002
23301	18.368	2.3636	0.1	-2.3452e-002
23302	18.46	2.0909	0.1	-2.4803e-002
23303	18.368	2.1818	0.1	-2.5454e-002
23304	18.46	1.9091	0.1	-2.6811e-002
23305	18.368	2.	0.1	-2.7703e-002
23306	18.46	1.7273	0.1	-2.875e-002
23307	18.368	1.8182	0.1	-3.0024e-002
23308	18.46	1.5455	0.1	-3.0422e-002
23309	18.368	1.6364	0.1	-3.2211e-002
23310	18.46	1.3636	0.1	-3.1618e-002
23311	18.368	1.4545	0.1	-3.4045e-002
23312	18.46	1.1818	0.1	-3.2157e-002
23313	18.368	1.2727	0.1	-3.531e-002
23314	18.46	1.	0.1	-3.1893e-002
23315	18.368	1.0909	0.1	-3.5857e-002
23316	18.46	0.81818	0.1	-3.1001e-002
23317	18.368	0.90909	0.1	-3.5639e-002
23318	18.46	0.63636	0.1	-3.042e-002
23319	18.368	0.72727	0.1	-3.5528e-002
23320	18.46	0.45455	0.1	-0.16214
23321	18.368	0.54545	0.1	-4.2765e-002
23322	18.46	0.27273	0.1	-5.2865
23323	18.368	0.36364	0.1	-2.6195
23324	18.368	0.18182	0.1	-7.9916
23325	18.46	9.0909e-002	0.1	-5.8233
23326	18.275	5.7273	0.1	-5.2265
23327	18.183	5.8182	0.1	-7.9878
23328	18.275	5.9091	0.1	-5.6866
23329	18.275	5.5455	0.1	-0.19688
23330	18.183	5.6364	0.1	-2.8
23331	18.275	5.3636	0.1	-4.0892e-002
23332	18.183	5.4545	0.1	-6.5102e-002
23333	18.275	5.1818	0.1	-3.918e-002
23334	18.183	5.2727	0.1	-4.7031e-002
23335	18.275	5.	0.1	-3.9173e-002
23336	18.183	5.0909	0.1	-4.511e-002
23337	18.275	4.8182	0.1	-3.8718e-002
23338	18.183	4.9091	0.1	-4.4161e-002
23339	18.275	4.6364	0.1	-3.7491e-002
23340	18.183	4.7273	0.1	-4.2678e-002
23341	18.275	4.4545	0.1	-3.5606e-002
23342	18.183	4.5455	0.1	-4.0541e-002
23343	18.275	4.2727	0.1	-3.3265e-002
23344	18.183	4.3636	0.1	-3.7885e-002
23345	18.275	4.0909	0.1	-3.0701e-002
23346	18.183	4.1818	0.1	-3.4939e-002
23347	18.275	3.9091	0.1	-2.8141e-002
23348	18.183	4.	0.1	-3.1946e-002
23349	18.275	3.7273	0.1	-2.5787e-002
23350	18.183	3.8182	0.1	-2.9132e-002
23351	18.275	3.5455	0.1	-2.3801e-002
23352	18.183	3.6364	0.1	-2.6687e-002
23353	18.275	3.3636	0.1	-2.2303e-002
23354	18.183	3.4545	0.1	-2.4751e-002
23355	18.275	3.1818	0.1	-2.1375e-002
23356	18.183	3.2727	0.1	-2.3416e-002
23357	18.275	3.	0.1	-2.1061e-002
23358	18.183	3.0909	0.1	-2.2737e-002
23359	18.275	2.8182	0.1	-2.1375e-002
23360	18.183	2.9091	0.1	-2.2737e-002
23361	18.275	2.6364	0.1	-2.2303e-002
23362	18.183	2.7273	0.1	-2.3416e-002
23363	18.275	2.4545	0.1	-2.38e-002
23364	18.183	2.5455	0.1	-2.4751e-002
23365	18.275	2.2727	0.1	-2.5786e-002
23366	18.183	2.3636	0.1	-2.6687e-002
23367	18.275	2.0909	0.1	-2.8142e-002
23368	18.183	2.1818	0.1	-2.9132e-002
23369	18.275	1.9091	0.1	-3.0701e-002
23370	18.183	2.	0.1	-3.1946e-002
23371	18.275	1.7273	0.1	-3.3265e-002
23372	18.183	1.8182	0.1	-3.4938e-002
23373	18.275	1.5455	0.1	-3.5606e-002
23374	18.183	1.6364	0.1	-3.7885e-002
23375	18.275	1.3636	0.1	-3.7491e-002
23376	18.183	1.4545	0.1	-4.0541e-002
23377	18.275	1.1818	0.1	-3.8718e-002
23378	18.183	1.2727	0.1	-4.2679e-002
23379	18.275	1.	0.1	-3.9174e-002
23380	18.183	1.0909	0.1	-4.4161e-002
23381	18.275	0.81818	0.1	-3.9182e-002
23382	18.183	0.90909	0.1	-4.5111e-002
23383	18.275	0.63636	0.1	-4.0894e-002
23384	18.183	0.72727	0.1	-4.7033e-002
23385	18.275	0.45455	0.1	-0.19689
23386	18.183	0.54545	0.1	-6.5103e-002
23387	18.275	0.27273	0.1	-5.2266
23388	18.183	0.36364	0.1	-2.8001
23389	18.183	0.18182	0.1	-7.9879
23390	18.275	9.0909e-002	0.1	-5.6866
23391	18.091	5.7273	0.1	-5.4646
23392	17.998	5.8182	0.1	-8.2454
23393	18.091	5.9091	0.1	-5.6871
23394	18.091	5.5455	0.1	-0.40724
23395	17.998	5.6364	0.1	-3.3645
23396	18.091	5.3636	0.1	-5.7863e-002
23397	17.998	5.4545	0.1	-0.11258
23398	18.091	5.1818	0.1	-5.1161e-002
23399	17.998	5.2727	0.1	-6.5172e-002
23400	18.091	5.	0.1	-4.9344e-002
23401	17.998	5.0909	0.1	-5.8829e-002
23402	18.091	4.8182	0.1	-4.7635e-002
23403	17.998	4.9091	0.1	-5.5674e-002
23404	18.091	4.6364	0.1	-4.5341e-002
23405	17.998	4.7273	0.1	-5.2631e-002
23406	18.091	4.4545	0.1	-4.2479e-002
23407	17.998	4.5455	0.1	-4.9184e-002
23408	18.091	4.2727	0.1	-3.9242e-002
23409	17.998	4.3636	0.1	-4.5377e-002
23410	18.091	4.0909	0.1	-3.5882e-002
23411	17.998	4.1818	0.1	-4.1426e-002
23412	18.091	3.9091	0.1	-3.2647e-002
23413	17.998	4.	0.1	-3.7584e-002
23414	18.091	3.7273	0.1	-2.9752e-002
23415	17.998	3.8182	0.1	-3.4094e-002
23416	18.091	3.5455	0.1	-2.7364e-002
23417	17.998	3.6364	0.1	-3.1145e-002
23418	18.091	3.3636	0.1	-2.5596e-002
23419	17.998	3.4545	0.1	-2.8865e-002
23420	18.091	3.1818	0.1	-2.4514e-002
23421	17.998	3.2727	0.1	-2.7324e-002
23422	18.091	3.	0.1	-2.415e-002
23423	17.998	3.0909	0.1	-2.655e-002
23424	18.091	2.8182	0.1	-2.4514e-002
23425	17.998	2.9091	0.1	-2.655e-002
23426	18.091	2.6364	0.1	-2.5596e-002
23427	17.998	2.7273	0.1	-2.7324e-002
23428	18.091	2.4545	0.1	-2.7365e-002
23429	17.998	2.5455	0.1	-2.8865e-002
23430	18.091	2.2727	0.1	-2.9753e-002
23431	17.998	2.3636	0.1	-3.1145e-002
23432	18.091	2.0909	0.1	-3.2647e-002
23433	17.998	2.1818	0.1	-3.4094e-002
23434	18.091	1.9091	0.1	-3.5882e-002
23435	17.998	2.	0.1	-3.7585e-002
23436	18.091	1.7273	0.1	-3.9242e-002
23437	17.998	1.8182	0.1	-4.1425e-002
23438	18.091	1.5455	0.1	-4.2478e-002
23439	17.998	1.6364	0.1	-4.5377e-002
23440	18.091	1.3636	0.1	-4.5341e-002
23441	17.998	1.4545	0.1	-4.9183e-002
23442	18.091	1.1818	0.1	-4.7635e-002
23443	17.998	1.2727	0.1	-5.2631e-002
23444	18.091	1.	0.1	-4.9345e-002
23445	17.998	1.0909	0.1	-5.5674e-002
23446	18.091	0.81818	0.1	-5.1162e-002
23447	17.998	0.90909	0.1	-5.883e-002
23448	18.091	0.63636	0.1	-5.7864e-002
23449	17.998	0.72727	0.1	-6.5173e-002
23450	18.091	0.45455	0.1	-0.40724
23451	17.998	0.54545	0.1	-0.11258
23452	18.091	0.27273	0.1	-5.4646
23453	17.998	0.36364	0.1	-3.3646
23454	17.998	0.18182	0.1	-8.2455
23455	18.091	9.0909e-002	0.1	-5.6871
23456	17.906	5.7273	0.1	-6.0512
23457	17.814	5.8182	0.1	-8.8085
23458	17.906	5.9091	0.1	-5.8493
23459	17.906	5.5455	0.1	-1.0293
23460	17.814	5.6364	0.1	-4.3725
23461	17.906	5.3636	0.1	-8.8092e-002
23462	17.814	5.4545	0.1	-0.25096
23463	17.906	5.1818	0.1	-6.9403e-002
23464	17.814	5.2727	0.1	-9.5855e-002
23465	17.906	5.	0.1	-6.3837e-002
23466	17.814	5.0909	0.1	-7.9328e-002
23467	17.906	4.8182	0.1	-5.9872e-002
23468	17.814	4.9091	0.1	-7.1899e-002
23469	17.906	4.6364	0.1	-5.5873e-002
23470	17.814	4.7273	0.1	-6.6188e-002
23471	17.906	4.4545	0.1	-5.1576e-002
23472	17.814	4.5455	0.1	-6.0712e-002
23473	17.906	4.2727	0.1	-4.7108e-002
23474	17.814	4.3636	0.1	-5.525e-002
23475	17.906	4.0909	0.1	-4.271e-002
23476	17.814	4.1818	0.1	-4.9933e-002
23477	17.906	3.9091	0.1	-3.8638e-002
23478	17.814	4.	0.1	-4.5001e-002
23479	17.906	3.7273	0.1	-3.5113e-002
23480	17.814	3.8182	0.1	-4.0693e-002
23481	17.906	3.5455	0.1	-3.2289e-002
23482	17.814	3.6364	0.1	-3.7182e-002
23483	17.906	3.3636	0.1	-3.0248e-002
23484	17.814	3.4545	0.1	-3.4559e-002
23485	17.906	3.1818	0.1	-2.9022e-002
23486	17.814	3.2727	0.1	-3.2836e-002
23487	17.906	3.	0.1	-2.8615e-002
23488	17.814	3.0909	0.1	-3.1987e-002
23489	17.906	2.8182	0.1	-2.9022e-002
23490	17.814	2.9091	0.1	-3.1987e-002
23491	17.906	2.6364	0.1	-3.0248e-002
23492	17.814	2.7273	0.1	-3.2836e-002
23493	17.906	2.4545	0.1	-3.2289e-002
23494	17.814	2.5455	0.1	-3.4559e-002
23495	17.906	2.2727	0.1	-3.5113e-002
23496	17.814	2.3636	0.1	-3.7182e-002
23497	17.906	2.0909	0.1	-3.8638e-002
23498	17.814	2.1818	0.1	-4.0692e-002
23499	17.906	1.9091	0.1	-4.2709e-002
23500	17.814	2.	0.1	-4.5001e-002
23501	17.906	1.7273	0.1	-4.7107e-002
23502	17.814	1.8182	0.1	-4.9933e-002
23503	17.906	1.5455	0.1	-5.1575e-002
23504	17.814	1.6364	0.1	-5.525e-002
23505	17.906	1.3636	0.1	-5.5872e-002
23506	17.814	1.4545	0.1	-6.0712e-002
23507	17.906	1.1818	0.1	-5.9872e-002
23508	17.814	1.2727	0.1	-6.6188e-002
23509	17.906	1.	0.1	-6.3837e-002
23510	17.814	1.0909	0.1	-7.19e-002
23511	17.906	0.81818	0.1	-6.9404e-002
23512	17.814	0.90909	0.1	-7.9329e-002
23513	17.906	0.63636	0.1	-8.8093e-002
23514	17.814	0.72727	0.1	-9.5856e-002
23515	17.906	0.45455	0.1	-1.0293
23516	17.814	0.54545	0.1	-0.25095
23517	17.906	0.27273	0.1	-6.0512
23518	17.814	0.36364	0.1	-4.3725
23519	17.814	0.18182	0.1	-8.8085
23520	17.906	9.0909e-002	0.1	-5.8493
23521	17.721	5.7273	0.1	-7.0406
23522	17.629	5.8182	0.1	-9.7246
23523	17.721	5.9091	0.1	-6.1998
23524	17.721	5.5455	0.1	-2.2306
23525	17.629	5.6364	0.1	-5.8865
23526	17.721	5.3636	0.1	-0.15023
23527	17.629	5.4545	0.1	-0.88819
23528	17.721	5.1818	0.1	-9.86e-002
23529	17.629	5.2727	0.1	-0.1531
23530	17.721	5.	0.1	-8.4999e-002
23531	17.629	5.0909	0.1	-0.11118
23532	17.721	4.8182	0.1	-7.6895e-002
23533	17.629	4.9091	0.1	-9.5239e-002
23534	17.721	4.6364	0.1	-7.0096e-002
23535	17.629	4.7273	0.1	-8.4867e-002
23536	17.721	4.4545	0.1	-6.3636e-002
23537	17.629	4.5455	0.1	-7.6173e-002
23538	17.721	4.2727	0.1	-5.7428e-002
23539	17.629	4.3636	0.1	-6.8269e-002
23540	17.721	4.0909	0.1	-5.1644e-002
23541	17.629	4.1818	0.1	-6.1049e-002
23542	17.721	3.9091	0.1	-4.6523e-002
23543	17.629	4.	0.1	-5.4684e-002
23544	17.721	3.7273	0.1	-4.2267e-002
23545	17.629	3.8182	0.1	-4.938e-002
23546	17.721	3.5455	0.1	-3.8988e-002
23547	17.629	3.6364	0.1	-4.5261e-002
23548	17.721	3.3636	0.1	-3.6705e-002
23549	17.629	3.4545	0.1	-4.2334e-002
23550	17.721	3.1818	0.1	-3.5373e-002
23551	17.629	3.2727	0.1	-4.0501e-002
23552	17.721	3.	0.1	-3.4937e-002
23553	17.629	3.0909	0.1	-3.963e-002
23554	17.721	2.8182	0.1	-3.5373e-002
23555	17.629	2.9091	0.1	-3.963e-002
23556	17.721	2.6364	0.1	-3.6705e-002
23557	17.629	2.7273	0.1	-4.0501e-002
23558	17.721	2.4545	0.1	-3.8988e-002
23559	17.629	2.5455	0.1	-4.2335e-002
23560	17.721	2.2727	0.1	-4.2267e-002
23561	17.629	2.3636	0.1	-4.5261e-002
23562	17.721	2.0909	0.1	-4.6523e-002
23563	17.629	2.1818	0.1	-4.9379e-002
23564	17.721	1.9091	0.1	-5.1644e-002
23565	17.629	2.	0.1	-5.4685e-002
23566	17.721	1.7273	0.1	-5.7429e-002
23567	17.629	1.8182	0.1	-6.105e-002
23568	17.721	1.5455	0.1	-6.3637e-002
23569	17.629	1.6364	0.1	-6.827e-002
23570	17.721	1.3636	0.1	-7.0096e-002
23571	17.629	1.4545	0.1	-7.6174e-002
23572	17.721	1.1818	0.1	-7.6895e-002
23573	17.629	1.2727	0.1	-8.4866e-002
23574	17.721	1.	0.1	-8.5001e-002
23575	17.629	1.0909	0.1	-9.5239e-002
23576	17.721	0.81818	0.1	-9.8601e-002
23577	17.629	0.90909	0.1	-0.11118
23578	17.721	0.63636	0.1	-0.15023
23579	17.629	0.72727	0.1	-0.1531
23580	17.721	0.45455	0.1	-2.2306
23581	17.629	0.54545	0.1	-0.88819
23582	17.721	0.27273	0.1	-7.0406
23583	17.629	0.36364	0.1	-5.8865
23584	17.629	0.18182	0.1	-9.7246
23585	17.721	9.0909e-002	0.1	-6.1998
23586	17.537	5.7273	0.1	-8.4887
23587	17.444	5.8182	0.1	-11.043
23588	17.537	5.9091	0.1	-6.767
23589	17.537	5.5455	0.1	-4.0528
23590	17.444	5.6364	0.1	-7.9669
23591	17.537	5.3636	0.1	-0.31366
23592	17.444	5.4545	0.1	-2.789
23593	17.537	5.1818	0.1	-0.14848
23594	17.444	5.2727	0.1	-0.27726
23595	17.537	5.	0.1	-0.11686
23596	17.444	5.0909	0.1	-0.16318
23597	17.537	4.8182	0.1	-0.10098
23598	17.444	4.9091	0.1	-0.12966
23599	17.537	4.6364	0.1	-8.9485e-002
23600	17.444	4.7273	0.1	-0.11098
23601	17.537	4.4545	0.1	-7.9693e-002
23602	17.444	4.5455	0.1	-9.7087e-002
23603	17.537	4.2727	0.1	-7.0965e-002
23604	17.444	4.3636	0.1	-8.5496e-002
23605	17.537	4.0909	0.1	-6.3282e-002
23606	17.444	4.1818	0.1	-7.5555e-002
23607	17.537	3.9091	0.1	-5.6817e-002
23608	17.444	4.	0.1	-6.7256e-002
23609	17.537	3.7273	0.1	-5.1716e-002
23610	17.444	3.8182	0.1	-6.0718e-002
23611	17.537	3.5455	0.1	-4.8003e-002
23612	17.444	3.6364	0.1	-5.597e-002
23613	17.537	3.3636	0.1	-4.5566e-002
23614	17.444	3.4545	0.1	-5.2856e-002
23615	17.537	3.1818	0.1	-4.4218e-002
23616	17.444	3.2727	0.1	-5.1069e-002
23617	17.537	3.	0.1	-4.3791e-002
23618	17.444	3.0909	0.1	-5.0281e-002
23619	17.537	2.8182	0.1	-4.4219e-002
23620	17.444	2.9091	0.1	-5.0281e-002
23621	17.537	2.6364	0.1	-4.5567e-002
23622	17.444	2.7273	0.1	-5.1069e-002
23623	17.537	2.4545	0.1	-4.8003e-002
23624	17.444	2.5455	0.1	-5.2856e-002
23625	17.537	2.2727	0.1	-5.1716e-002
23626	17.444	2.3636	0.1	-5.597e-002
23627	17.537	2.0909	0.1	-5.6817e-002
23628	17.444	2.1818	0.1	-6.0718e-002
23629	17.537	1.9091	0.1	-6.3282e-002
23630	17.444	2.	0.1	-6.7256e-002
23631	17.537	1.7273	0.1	-7.0965e-002
23632	17.444	1.8182	0.1	-7.5556e-002
23633	17.537	1.5455	0.1	-7.9694e-002
23634	17.444	1.6364	0.1	-8.5496e-002
23635	17.537	1.3636	0.1	-8.9486e-002
23636	17.444	1.4545	0.1	-9.7088e-002
23637	17.537	1.1818	0.1	-0.10098
23638	17.444	1.2727	0.1	-0.11098
23639	17.537	1.	0.1	-0.11686
23640	17.444	1.0909	0.1	-0.12966
23641	17.537	0.81818	0.1	-0.14848
23642	17.444	0.90909	0.1	-0.16318
23643	17.537	0.63636	0.1	-0.31366
23644	17.444	0.72727	0.1	-0.27726
23645	17.537	0.45455	0.1	-4.0528
23646	17.444	0.54545	0.1	-2.789
23647	17.537	0.27273	0.1	-8.4888
23648	17.444	0.36364	0.1	-7.967
23649	17.444	0.18182	0.1	-11.043
23650	17.537	9.0909e-002	0.1	-6.767
23651	17.352	5.7273	0.1	-10.45
23652	17.26	5.8182	0.1	-12.813
23653	17.352	5.9091	0.1	-7.5793
23654	17.352	5.5455	0.1	-6.54
23655	17.26	5.6364	0.1	-10.665
23656	17.352	5.3636	0.1	-0.96655
23657	17.26	5.4545	0.1	-5.6873
23658	17.352	5.1818	0.1	-0.24178
23659	17.26	5.2727	0.1	-0.62533
23660	17.352	5.	0.1	-0.16663
23661	17.26	5.0909	0.1	-0.25385
23662	17.352	4.8182	0.1	-0.13576
23663	17.26	4.9091	0.1	-0.18202
23664	17.352	4.6364	0.1	-0.11626
23665	17.26	4.7273	0.1	-0.14817
23666	17.352	4.4545	0.1	-0.10122
23667	17.26	4.5455	0.1	-0.12571
23668	17.352	4.2727	0.1	-8.8752e-002
23669	17.26	4.3636	0.1	-0.10844
23670	17.352	4.0909	0.1	-7.8397e-002
23671	17.26	4.1818	0.1	-9.4498e-002
23672	17.352	3.9091	0.1	-7.0168e-002
23673	17.26	4.	0.1	-8.3502e-002
23674	17.352	3.7273	0.1	-6.4096e-002
23675	17.26	3.8182	0.1	-7.5406e-002
23676	17.352	3.5455	0.1	-6.0037e-002
23677	17.26	3.6364	0.1	-7.0055e-002
23678	17.352	3.3636	0.1	-5.7641e-002
23679	17.26	3.4545	0.1	-6.6999e-002
23680	17.352	3.1818	0.1	-5.6457e-002
23681	17.26	3.2727	0.1	-6.556e-002
23682	17.352	3.	0.1	-5.6111e-002
23683	17.26	3.0909	0.1	-6.5055e-002
23684	17.352	2.8182	0.1	-5.6457e-002
23685	17.26	2.9091	0.1	-6.5055e-002
23686	17.352	2.6364	0.1	-5.764e-002
23687	17.26	2.7273	0.1	-6.556e-002
23688	17.352	2.4545	0.1	-6.0037e-002
23689	17.26	2.5455	0.1	-6.6999e-002
23690	17.352	2.2727	0.1	-6.4096e-002
23691	17.26	2.3636	0.1	-7.0054e-002
23692	17.352	2.0909	0.1	-7.0169e-002
23693	17.26	2.1818	0.1	-7.5406e-002
23694	17.352	1.9091	0.1	-7.8398e-002
23695	17.26	2.	0.1	-8.3502e-002
23696	17.352	1.7273	0.1	-8.8753e-002
23697	17.26	1.8182	0.1	-9.4499e-002
23698	17.352	1.5455	0.1	-0.10122
23699	17.26	1.6364	0.1	-0.10843
23700	17.352	1.3636	0.1	-0.11626
23701	17.26	1.4545	0.1	-0.12571
23702	17.352	1.1818	0.1	-0.13576
23703	17.26	1.2727	0.1	-0.14817
23704	17.352	1.	0.1	-0.16664
23705	17.26	1.0909	0.1	-0.18202
23706	17.352	0.81818	0.1	-0.24178
23707	17.26	0.90909	0.1	-0.25385
23708	17.352	0.63636	0.1	-0.96654
23709	17.26	0.72727	0.1	-0.62532
23710	17.352	0.45455	0.1	-6.54
23711	17.26	0.54545	0.1	-5.6873
23712	17.352	0.27273	0.1	-10.45
23713	17.26	0.36364	0.1	-10.665
23714	17.26	0.18182	0.1	-12.813
23715	17.352	9.0909e-002	0.1	-7.5793
23716	17.167	5.7273	0.1	-12.97
23717	17.075	5.8182	0.1	-15.076
23718	17.167	5.9091	0.1	-8.6632
23719	17.167	5.5455	0.1	-9.7346
23720	17.075	5.6364	0.1	-14.012
23721	17.167	5.3636	0.1	-3.2931
23722	17.075	5.4545	0.1	-9.4159
23723	17.167	5.1818	0.1	-0.44192
23724	17.075	5.2727	0.1	-1.9567
23725	17.167	5.	0.1	-0.24825
23726	17.075	5.0909	0.1	-0.42745
23727	17.167	4.8182	0.1	-0.18734
23728	17.075	4.9091	0.1	-0.26493
23729	17.167	4.6364	0.1	-0.15387
23730	17.075	4.7273	0.1	-0.20247
23731	17.167	4.4545	0.1	-0.13041
23732	17.075	4.5455	0.1	-0.16559
23733	17.167	4.2727	0.1	-0.11224
23734	17.075	4.3636	0.1	-0.13933
23735	17.167	4.0909	0.1	-9.8004e-002
23736	17.075	4.1818	0.1	-0.11935
23737	17.167	3.9091	0.1	-8.7377e-002
23738	17.075	4.	0.1	-0.10446
23739	17.167	3.7273	0.1	-8.0187e-002
23740	17.075	3.8182	0.1	-9.4313e-002
23741	17.167	3.5455	0.1	-7.599e-002
23742	17.075	3.6364	0.1	-8.8445e-002
23743	17.167	3.3636	0.1	-7.4008e-002
23744	17.075	3.4545	0.1	-8.5908e-002
23745	17.167	3.1818	0.1	-7.3323e-002
23746	17.075	3.2727	0.1	-8.5364e-002
23747	17.167	3.	0.1	-7.3189e-002
23748	17.075	3.0909	0.1	-8.5497e-002
23749	17.167	2.8182	0.1	-7.3323e-002
23750	17.075	2.9091	0.1	-8.5496e-002
23751	17.167	2.6364	0.1	-7.4009e-002
23752	17.075	2.7273	0.1	-8.5364e-002
23753	17.167	2.4545	0.1	-7.599e-002
23754	17.075	2.5455	0.1	-8.5908e-002
23755	17.167	2.2727	0.1	-8.0187e-002
23756	17.075	2.3636	0.1	-8.8444e-002
23757	17.167	2.0909	0.1	-8.7377e-002
23758	17.075	2.1818	0.1	-9.4314e-002
23759	17.167	1.9091	0.1	-9.8004e-002
23760	17.075	2.	0.1	-0.10446
23761	17.167	1.7273	0.1	-0.11224
23762	17.075	1.8182	0.1	-0.11935
23763	17.167	1.5455	0.1	-0.13041
23764	17.075	1.6364	0.1	-0.13933
23765	17.167	1.3636	0.1	-0.15387
23766	17.075	1.4545	0.1	-0.16559
23767	17.167	1.1818	0.1	-0.18734
23768	17.075	1.2727	0.1	-0.20247
23769	17.167	1.	0.1	-0.24825
23770	17.075	1.0909	0.1	-0.26493
23771	17.167	0.81818	0.1	-0.44192
23772	17.075	0.90909	0.1	-0.42745
23773	17.167	0.63636	0.1	-3.293
23774	17.075	0.72727	0.1	-1.9567
23775	17.167	0.45455	0.1	-9.7346
23776	17.075	0.54545	0.1	-9.4159
23777	17.167	0.27273	0.1	-12.97
23778	17.075	0.36364	0.1	-14.012
23779	17.075	0.18182	0.1	-15.076
23780	17.167	9.0909e-002	0.1	-8.6633
23781	16.983	5.7273	0.1	-16.079
23782	16.89	5.8182	0.1	-17.863
23783	16.983	5.9091	0.1	-10.04
23784	16.983	5.5455	0.1	-13.659
23785	16.89	5.6364	0.1	-18.006
23786	16.983	5.3636	0.1	-7.1381
23787	16.89	5.4545	0.1	-13.944
23788	16.983	5.1818	0.1	-0.97766
23789	16.89	5.2727	0.1	-5.4678
23790	16.983	5.	0.1	-0.39124
23791	16.89	5.0909	0.1	-0.81165
23792	16.983	4.8182	0.1	-0.26658
23793	16.89	4.9091	0.1	-0.40378
23794	16.983	4.6364	0.1	-0.208
23795	16.89	4.7273	0.1	-0.28457
23796	16.983	4.4545	0.1	-0.17066
23797	16.89	4.5455	0.1	-0.22257
23798	16.983	4.2727	0.1	-0.14359
23799	16.89	4.3636	0.1	-0.18169
23800	16.983	4.0909	0.1	-0.12352
23801	16.89	4.1818	0.1	-0.15224
23802	16.983	3.9091	0.1	-0.1095
23803	16.89	4.	0.1	-0.13144
23804	16.983	3.7273	0.1	-0.10097
23805	16.89	3.8182	0.1	-0.11844
23806	16.983	3.5455	0.1	-9.7017e-002
23807	16.89	3.6364	0.1	-0.11227
23808	16.983	3.3636	0.1	-9.6115e-002
23809	16.89	3.4545	0.1	-0.11107
23810	16.983	3.1818	0.1	-9.6517e-002
23811	16.89	3.2727	0.1	-0.11235
23812	16.983	3.	0.1	-9.6828e-002
23813	16.89	3.0909	0.1	-0.11373
23814	16.983	2.8182	0.1	-9.6517e-002
23815	16.89	2.9091	0.1	-0.11373
23816	16.983	2.6364	0.1	-9.6115e-002
23817	16.89	2.7273	0.1	-0.11235
23818	16.983	2.4545	0.1	-9.7017e-002
23819	16.89	2.5455	0.1	-0.11107
23820	16.983	2.2727	0.1	-0.10097
23821	16.89	2.3636	0.1	-0.11227
23822	16.983	2.0909	0.1	-0.1095
23823	16.89	2.1818	0.1	-0.11844
23824	16.983	1.9091	0.1	-0.12352
23825	16.89	2.	0.1	-0.13144
23826	16.983	1.7273	0.1	-0.14359
23827	16.89	1.8182	0.1	-0.15224
23828	16.983	1.5455	0.1	-0.17066
23829	16.89	1.6364	0.1	-0.18169
23830	16.983	1.3636	0.1	-0.208
23831	16.89	1.4545	0.1	-0.22257
23832	16.983	1.1818	0.1	-0.26658
23833	16.89	1.2727	0.1	-0.28457
23834	16.983	1.	0.1	-0.39124
23835	16.89	1.0909	0.1	-0.40378
23836	16.983	0.81818	0.1	-0.97765
23837	16.89	0.90909	0.1	-0.81165
23838	16.983	0.63636	0.1	-7.1381
23839	16.89	0.72727	0.1	-5.4678
23840	16.983	0.45455	0.1	-13.659
23841	16.89	0.54545	0.1	-13.944
23842	16.983	0.27273	0.1	-16.079
23843	16.89	0.36364	0.1	-18.006
23844	16.89	0.18182	0.1	-17.863
23845	16.983	9.0909e-002	0.1	-10.04
23846	16.798	5.7273	0.1	-19.779
23847	16.706	5.8182	0.1	-21.177
23848	16.798	5.9091	0.1	-11.718
23849	16.798	5.5455	0.1	-18.296
23850	16.706	5.6364	0.1	-22.591
23851	16.798	5.3636	0.1	-11.998
23852	16.706	5.4545	0.1	-19.22
23853	16.798	5.1818	0.1	-2.7805
23854	16.706	5.2727	0.1	-10.577
23855	16.798	5.	0.1	-0.66792
23856	16.706	5.0909	0.1	-1.8709
23857	16.798	4.8182	0.1	-0.39466
23858	16.706	4.9091	0.1	-0.65733
23859	16.798	4.6364	0.1	-0.28868
23860	16.706	4.7273	0.1	-0.41548
23861	16.798	4.4545	0.1	-0.22763
23862	16.706	4.5455	0.1	-0.30733
23863	16.798	4.2727	0.1	-0.18611
23864	16.706	4.3636	0.1	-0.24164
23865	16.798	4.0909	0.1	-0.15683
23866	16.706	4.1818	0.1	-0.19674
23867	16.798	3.9091	0.1	-0.13768
23868	16.706	4.	0.1	-0.16662
23869	16.798	3.7273	0.1	-0.12753
23870	16.706	3.8182	0.1	-0.14931
23871	16.798	3.5455	0.1	-0.12454
23872	16.706	3.6364	0.1	-0.14296
23873	16.798	3.3636	0.1	-0.12587
23874	16.706	3.4545	0.1	-0.14437
23875	16.798	3.1818	0.1	-0.12835
23876	16.706	3.2727	0.1	-0.14902
23877	16.798	3.	0.1	-0.12949
23878	16.706	3.0909	0.1	-0.15262
23879	16.798	2.8182	0.1	-0.12835
23880	16.706	2.9091	0.1	-0.15262
23881	16.798	2.6364	0.1	-0.12587
23882	16.706	2.7273	0.1	-0.14902
23883	16.798	2.4545	0.1	-0.12454
23884	16.706	2.5455	0.1	-0.14437
23885	16.798	2.2727	0.1	-0.12753
23886	16.706	2.3636	0.1	-0.14296
23887	16.798	2.0909	0.1	-0.13768
23888	16.706	2.1818	0.1	-0.14931
23889	16.798	1.9091	0.1	-0.15683
23890	16.706	2.	0.1	-0.16662
23891	16.798	1.7273	0.1	-0.18611
23892	16.706	1.8182	0.1	-0.19674
23893	16.798	1.5455	0.1	-0.22763
23894	16.706	1.6364	0.1	-0.24164
23895	16.798	1.3636	0.1	-0.28868
23896	16.706	1.4545	0.1	-0.30733
23897	16.798	1.1818	0.1	-0.39466
23898	16.706	1.2727	0.1	-0.41548
23899	16.798	1.	0.1	-0.66792
23900	16.706	1.0909	0.1	-0.65733
23901	16.798	0.81818	0.1	-2.7805
23902	16.706	0.90909	0.1	-1.8709
23903	16.798	0.63636	0.1	-11.998
23904	16.706	0.72727	0.1	-10.577
23905	16.798	0.45455	0.1	-18.296
23906	16.706	0.54545	0.1	-19.22
23907	16.798	0.27273	0.1	-19.779
23908	16.706	0.36364	0.1	-22.591
23909	16.706	0.18182	0.1	-21.177
23910	16.798	9.0909e-002	0.1	-11.718
23911	16.613	5.7273	0.1	-24.019
23912	16.521	5.8182	0.1	-24.98
23913	16.613	5.9091	0.1	-13.686
23914	16.613	5.5455	0.1	-23.57
23915	16.521	5.6364	0.1	-27.632
23916	16.613	5.3636	0.1	-17.752
23917	16.521	5.4545	0.1	-25.135
23918	16.613	5.1818	0.1	-7.2142
23919	16.521	5.2727	0.1	-16.832
23920	16.613	5.	0.1	-1.2984
23921	16.521	5.0909	0.1	-5.1319
23922	16.613	4.8182	0.1	-0.61893
23923	16.521	4.9091	0.1	-1.1938
23924	16.613	4.6364	0.1	-0.41589
23925	16.521	4.7273	0.1	-0.64291
23926	16.613	4.4545	0.1	-0.31195
23927	16.521	4.5455	0.1	-0.44152
23928	16.613	4.2727	0.1	-0.24589
23929	16.521	4.3636	0.1	-0.33043
23930	16.613	4.0909	0.1	-0.20161
23931	16.521	4.1818	0.1	-0.2585
23932	16.613	3.9091	0.1	-0.17432
23933	16.521	4.	0.1	-0.21208
23934	16.613	3.7273	0.1	-0.16164
23935	16.521	3.8182	0.1	-0.18778
23936	16.613	3.5455	0.1	-0.16043
23937	16.521	3.6364	0.1	-0.18208
23938	16.613	3.3636	0.1	-0.16575
23939	16.521	3.4545	0.1	-0.18828
23940	16.613	3.1818	0.1	-0.17189
23941	16.521	3.2727	0.1	-0.19859
23942	16.613	3.	0.1	-0.17448
23943	16.521	3.0909	0.1	-0.20585
23944	16.613	2.8182	0.1	-0.17189
23945	16.521	2.9091	0.1	-0.20585
23946	16.613	2.6364	0.1	-0.16575
23947	16.521	2.7273	0.1	-0.19858
23948	16.613	2.4545	0.1	-0.16043
23949	16.521	2.5455	0.1	-0.18828
23950	16.613	2.2727	0.1	-0.16164
23951	16.521	2.3636	0.1	-0.18208
23952	16.613	2.0909	0.1	-0.17432
23953	16.521	2.1818	0.1	-0.18778
23954	16.613	1.9091	0.1	-0.20161
23955	16.521	2.	0.1	-0.21208
23956	16.613	1.7273	0.1	-0.24589
23957	16.521	1.8182	0.1	-0.2585
23958	16.613	1.5455	0.1	-0.31195
23959	16.521	1.6364	0.1	-0.33043
23960	16.613	1.3636	0.1	-0.41589
23961	16.521	1.4545	0.1	-0.44152
23962	16.613	1.1818	0.1	-0.61893
23963	16.521	1.2727	0.1	-0.64291
23964	16.613	1.	0.1	-1.2984
23965	16.521	1.0909	0.1	-1.1938
23966	16.613	0.81818	0.1	-7.2141
23967	16.521	0.90909	0.1	-5.1318
23968	16.613	0.63636	0.1	-17.752
23969	16.521	0.72727	0.1	-16.832
23970	16.613	0.45455	0.1	-23.57
23971	16.521	0.54545	0.1	-25.135
23972	16.613	0.27273	0.1	-24.019
23973	16.521	0.36364	0.1	-27.632
23974	16.521	0.18182	0.1	-24.98
23975	16.613	9.0909e-002	0.1	-13.686
23976	16.429	5.7273	0.1	-28.679
23977	16.336	5.8182	0.1	-29.162
23978	16.429	5.9091	0.1	-15.9
23979	16.429	5.5455	0.1	-29.321
23980	16.336	5.6364	0.1	-32.881
23981	16.429	5.3636	0.1	-24.325
23982	16.336	5.4545	0.1	-31.5
23983	16.429	5.1818	0.1	-13.831
23984	16.336	5.2727	0.1	-24.167
23985	16.429	5.	0.1	-3.1551
23986	16.336	5.0909	0.1	-11.939
23987	16.429	4.8182	0.1	-1.0701
23988	16.336	4.9091	0.1	-2.683
23989	16.429	4.6364	0.1	-0.63526
23990	16.336	4.7273	0.1	-1.1042
23991	16.429	4.4545	0.1	-0.44495
23992	16.336	4.5455	0.1	-0.67848
23993	16.429	4.2727	0.1	-0.33318
23994	16.336	4.3636	0.1	-0.47443
23995	16.429	4.0909	0.1	-0.26143
23996	16.336	4.1818	0.1	-0.35163
23997	16.429	3.9091	0.1	-0.21961
23998	16.336	4.	0.1	-0.27741
23999	16.429	3.7273	0.1	-0.20373
24000	16.336	3.8182	0.1	-0.2401
24001	16.429	3.5455	0.1	-0.20674
24002	16.336	3.6364	0.1	-0.23253
24003	16.429	3.3636	0.1	-0.21896
24004	16.336	3.4545	0.1	-0.24577
24005	16.429	3.1818	0.1	-0.23102
24006	16.336	3.2727	0.1	-0.26495
24007	16.429	3.	0.1	-0.23591
24008	16.336	3.0909	0.1	-0.27763
24009	16.429	2.8182	0.1	-0.23102
24010	16.336	2.9091	0.1	-0.27763
24011	16.429	2.6364	0.1	-0.21896
24012	16.336	2.7273	0.1	-0.26495
24013	16.429	2.4545	0.1	-0.20674
24014	16.336	2.5455	0.1	-0.24577
24015	16.429	2.2727	0.1	-0.20373
24016	16.336	2.3636	0.1	-0.23252
24017	16.429	2.0909	0.1	-0.21961
24018	16.336	2.1818	0.1	-0.2401
24019	16.429	1.9091	0.1	-0.26143
24020	16.336	2.	0.1	-0.27741
24021	16.429	1.7273	0.1	-0.33318
24022	16.336	1.8182	0.1	-0.35163
24023	16.429	1.5455	0.1	-0.44495
24024	16.336	1.6364	0.1	-0.47443
24025	16.429	1.3636	0.1	-0.63526
24026	16.336	1.4545	0.1	-0.67848
24027	16.429	1.1818	0.1	-1.0701
24028	16.336	1.2727	0.1	-1.1042
24029	16.429	1.	0.1	-3.1551
24030	16.336	1.0909	0.1	-2.683
24031	16.429	0.81818	0.1	-13.83
24032	16.336	0.90909	0.1	-11.939
24033	16.429	0.63636	0.1	-24.325
24034	16.336	0.72727	0.1	-24.167
24035	16.429	0.45455	0.1	-29.321
24036	16.336	0.54545	0.1	-31.5
24037	16.429	0.27273	0.1	-28.679
24038	16.336	0.36364	0.1	-32.881
24039	16.336	0.18182	0.1	-29.162
24040	16.429	9.0909e-002	0.1	-15.9
24041	16.244	5.7273	0.1	-33.53
24042	16.152	5.8182	0.1	-33.515
24043	16.244	5.9091	0.1	-18.259
24044	16.244	5.5455	0.1	-35.285
24045	16.152	5.6364	0.1	-37.949
24046	16.244	5.3636	0.1	-31.638
24047	16.152	5.4545	0.1	-38.046
24048	16.244	5.1818	0.1	-22.324
24049	16.152	5.2727	0.1	-32.665
24050	16.244	5.	0.1	-9.068
24051	16.152	5.0909	0.1	-22.077
24052	16.244	4.8182	0.1	-2.2617
24053	16.152	4.9091	0.1	-8.4133
24054	16.244	4.6364	0.1	-1.0822
24055	16.152	4.7273	0.1	-2.3817
24056	16.244	4.4545	0.1	-0.68337
24057	16.152	4.5455	0.1	-1.1824
24058	16.244	4.2727	0.1	-0.47715
24059	16.152	4.3636	0.1	-0.73518
24060	16.244	4.0909	0.1	-0.35548
24061	16.152	4.1818	0.1	-0.49843
24062	16.244	3.9091	0.1	-0.28848
24063	16.152	4.	0.1	-0.35803
24064	16.244	3.7273	0.1	-0.26212
24065	16.152	3.8182	0.1	-0.29608
24066	16.244	3.5455	0.1	-0.2672
24067	16.152	3.6364	0.1	-0.29632
24068	16.244	3.3636	0.1	-0.28925
24069	16.152	3.4545	0.1	-0.3223
24070	16.244	3.1818	0.1	-0.3101
24071	16.152	3.2727	0.1	-0.35227
24072	16.244	3.	0.1	-0.31822
24073	16.152	3.0909	0.1	-0.37149
24074	16.244	2.8182	0.1	-0.3101
24075	16.152	2.9091	0.1	-0.37149
24076	16.244	2.6364	0.1	-0.28925
24077	16.152	2.7273	0.1	-0.35227
24078	16.244	2.4545	0.1	-0.2672
24079	16.152	2.5455	0.1	-0.3223
24080	16.244	2.2727	0.1	-0.26212
24081	16.152	2.3636	0.1	-0.29632
24082	16.244	2.0909	0.1	-0.28848
24083	16.152	2.1818	0.1	-0.29608
24084	16.244	1.9091	0.1	-0.35548
24085	16.152	2.	0.1	-0.35803
24086	16.244	1.7273	0.1	-0.47715
24087	16.152	1.8182	0.1	-0.49843
24088	16.244	1.5455	0.1	-0.68337
24089	16.152	1.6364	0.1	-0.73518
24090	16.244	1.3636	0.1	-1.0822
24091	16.152	1.4545	0.1	-1.1824
24092	16.244	1.1818	0.1	-2.2617
24093	16.152	1.2727	0.1	-2.3816
24094	16.244	1.	0.1	-9.0679
24095	16.152	1.0909	0.1	-8.4132
24096	16.244	0.81818	0.1	-22.324
24097	16.152	0.90909	0.1	-22.077
24098	16.244	0.63636	0.1	-31.638
24099	16.152	0.72727	0.1	-32.665
24100	16.244	0.45455	0.1	-35.285
24101	16.152	0.54545	0.1	-38.046
24102	16.244	0.27273	0.1	-33.53
24103	16.152	0.36364	0.1	-37.949
24104	16.152	0.18182	0.1	-33.515
24105	16.244	9.0909e-002	0.1	-18.259
24106	16.059	5.7273	0.1	-38.208
24107	15.967	5.8182	0.1	-37.692
24108	16.059	5.9091	0.1	-20.584
24109	16.059	5.5455	0.1	-41.087
24110	15.967	5.6364	0.1	-42.303
24111	16.059	5.3636	0.1	-39.646
24112	15.967	5.4545	0.1	-44.479
24113	16.059	5.1818	0.1	-33.097
24114	15.967	5.2727	0.1	-42.635
24115	16.059	5.	0.1	-21.317
24116	15.967	5.0909	0.1	-36.232
24117	16.059	4.8182	0.1	-7.4551
24118	15.967	4.9091	0.1	-24.272
24119	16.059	4.6364	0.1	-2.3485
24120	15.967	4.7273	0.1	-9.1426
24121	16.059	4.4545	0.1	-1.1959
24122	15.967	4.5455	0.1	-2.8223
24123	16.059	4.2727	0.1	-0.73054
24124	15.967	4.3636	0.1	-1.3757
24125	16.059	4.0909	0.1	-0.47996
24126	15.967	4.1818	0.1	-0.80322
24127	16.059	3.9091	0.1	-0.34937
24128	15.967	4.	0.1	-0.54714
24129	16.059	3.7273	0.1	-0.31936
24130	15.967	3.8182	0.1	-0.42984
24131	16.059	3.5455	0.1	-0.34543
24132	15.967	3.6364	0.1	-0.38569
24133	16.059	3.3636	0.1	-0.38275
24134	15.967	3.4545	0.1	-0.42079
24135	16.059	3.1818	0.1	-0.41269
24136	15.967	3.2727	0.1	-0.46536
24137	16.059	3.	0.1	-0.42418
24138	15.967	3.0909	0.1	-0.48624
24139	16.059	2.8182	0.1	-0.41269
24140	15.967	2.9091	0.1	-0.48624
24141	16.059	2.6364	0.1	-0.38275
24142	15.967	2.7273	0.1	-0.46536
24143	16.059	2.4545	0.1	-0.34543
24144	15.967	2.5455	0.1	-0.4208
24145	16.059	2.2727	0.1	-0.31936
24146	15.967	2.3636	0.1	-0.38569
24147	16.059	2.0909	0.1	-0.34937
24148	15.967	2.1818	0.1	-0.42984
24149	16.059	1.9091	0.1	-0.47996
24150	15.967	2.	0.1	-0.54714
24151	16.059	1.7273	0.1	-0.73054
24152	15.967	1.8182	0.1	-0.80322
24153	16.059	1.5455	0.1	-1.1959
24154	15.967	1.6364	0.1	-1.3757
24155	16.059	1.3636	0.1	-2.3485
24156	15.967	1.4545	0.1	-2.8223
24157	16.059	1.1818	0.1	-7.4551
24158	15.967	1.2727	0.1	-9.1425
24159	16.059	1.	0.1	-21.317
24160	15.967	1.0909	0.1	-24.271
24161	16.059	0.81818	0.1	-33.097
24162	15.967	0.90909	0.1	-36.232
24163	16.059	0.63636	0.1	-39.646
24164	15.967	0.72727	0.1	-42.635
24165	16.059	0.45455	0.1	-41.087
24166	15.967	0.54545	0.1	-44.479
24167	16.059	0.27273	0.1	-38.208
24168	15.967	0.36364	0.1	-42.303
24169	15.967	0.18182	0.1	-37.692
24170	16.059	9.0909e-002	0.1	-20.585
24171	15.875	5.7273	0.1	-42.204
24172	15.782	5.8182	0.1	-41.183
24173	15.875	5.9091	0.1	-22.589
24174	15.875	5.5455	0.1	-46.304
24175	15.782	5.6364	0.1	-45.325
24176	15.875	5.3636	0.1	-48.487
24177	15.782	5.4545	0.1	-50.665
24178	15.875	5.1818	0.1	-47.198
24179	15.782	5.2727	0.1	-54.895
24180	15.875	5.	0.1	-40.877
24181	15.782	5.0909	0.1	-56.422
24182	15.875	4.8182	0.1	-27.672
24183	15.782	4.9091	0.1	-52.26
24184	15.875	4.6364	0.1	-10.216
24185	15.782	4.7273	0.1	-38.979
24186	15.875	4.4545	0.1	-3.0169
24187	15.782	4.5455	0.1	-16.684
24188	15.875	4.2727	0.1	-1.4086
24189	15.782	4.3636	0.1	-3.9459
24190	15.875	4.0909	0.1	-0.82924
24191	15.782	4.1818	0.1	-1.538
24192	15.875	3.9091	0.1	-0.59567
24193	15.782	4.	0.1	-0.65995
24194	15.875	3.7273	0.1	-0.47681
24195	15.782	3.8182	0.1	-0.40123
24196	15.875	3.5455	0.1	-0.45317
24197	15.782	3.6364	0.1	-0.53257
24198	15.875	3.3636	0.1	-0.5021
24199	15.782	3.4545	0.1	-0.57747
24200	15.875	3.1818	0.1	-0.53927
24201	15.782	3.2727	0.1	-0.60086
24202	15.875	3.	0.1	-0.54856
24203	15.782	3.0909	0.1	-0.61005
24204	15.875	2.8182	0.1	-0.53927
24205	15.782	2.9091	0.1	-0.61005
24206	15.875	2.6364	0.1	-0.5021
24207	15.782	2.7273	0.1	-0.60086
24208	15.875	2.4545	0.1	-0.45317
24209	15.782	2.5455	0.1	-0.57747
24210	15.875	2.2727	0.1	-0.47681
24211	15.782	2.3636	0.1	-0.53257
24212	15.875	2.0909	0.1	-0.59567
24213	15.782	2.1818	0.1	-0.40123
24214	15.875	1.9091	0.1	-0.82924
24215	15.782	2.	0.1	-0.65995
24216	15.875	1.7273	0.1	-1.4086
24217	15.782	1.8182	0.1	-1.538
24218	15.875	1.5455	0.1	-3.0169
24219	15.782	1.6364	0.1	-3.9458
24220	15.875	1.3636	0.1	-10.216
24221	15.782	1.4545	0.1	-16.683
24222	15.875	1.1818	0.1	-27.672
24223	15.782	1.2727	0.1	-38.979
24224	15.875	1.	0.1	-40.877
24225	15.782	1.0909	0.1	-52.26
24226	15.875	0.81818	0.1	-47.198
24227	15.782	0.90909	0.1	-56.422
24228	15.875	0.63636	0.1	-48.487
24229	15.782	0.72727	0.1	-54.895
24230	15.875	0.45455	0.1	-46.304
24231	15.782	0.54545	0.1	-50.665
24232	15.875	0.27273	0.1	-42.204
24233	15.782	0.36364	0.1	-45.325
24234	15.782	0.18182	0.1	-41.183
24235	15.875	9.0909e-002	0.1	-22.589
24236	15.69	5.7273	0.1	-44.91
24237	15.598	5.8182	0.1	-43.336
24238	15.69	5.9091	0.1	-23.843
24239	15.69	5.5455	0.1	-50.671
24240	15.598	5.6364	0.1	-46.589
24241	15.69	5.3636	0.1	-58.843
24242	15.598	5.4545	0.1	-57.147
24243	15.69	5.1818	0.1	-66.706
24244	15.598	5.2727	0.1	-71.43
24245	15.69	5.	0.1	-71.057
24246	15.598	5.0909	0.1	-86.37
24247	15.69	4.8182	0.1	-67.341
24248	15.598	4.9091	0.1	-97.035
24249	15.69	4.6364	0.1	-50.877
24250	15.598	4.7273	0.1	-96.88
24251	15.69	4.4545	0.1	-21.637
24252	15.598	4.5455	0.1	-78.804
24253	15.69	4.2727	0.1	-4.2269
24254	15.598	4.3636	0.1	-39.827
24255	15.69	4.0909	0.1	-1.2752
24256	15.598	4.1818	0.1	-6.4298
24257	15.69	3.9091	0.1	-0.3894
24258	15.598	4.	0.1	-2.2413
24259	15.69	3.7273	0.1	-0.41728
24260	15.598	3.8182	0.1	-1.3867
24261	15.69	3.5455	0.1	-0.65009
24262	15.598	3.6364	0.1	-0.64434
24263	15.69	3.3636	0.1	-0.68339
24264	15.598	3.4545	0.1	-0.86964
24265	15.69	3.1818	0.1	-0.67555
24266	15.598	3.2727	0.1	-0.79561
24267	15.69	3.	0.1	-0.6711
24268	15.598	3.0909	0.1	-0.7019
24269	15.69	2.8182	0.1	-0.67555
24270	15.598	2.9091	0.1	-0.7019
24271	15.69	2.6364	0.1	-0.68339
24272	15.598	2.7273	0.1	-0.79561
24273	15.69	2.4545	0.1	-0.65009
24274	15.598	2.5455	0.1	-0.86964
24275	15.69	2.2727	0.1	-0.41728
24276	15.598	2.3636	0.1	-0.64434
24277	15.69	2.0909	0.1	-0.3894
24278	15.598	2.1818	0.1	-1.3867
24279	15.69	1.9091	0.1	-1.2752
24280	15.598	2.	0.1	-2.2413
24281	15.69	1.7273	0.1	-4.2269
24282	15.598	1.8182	0.1	-6.4298
24283	15.69	1.5455	0.1	-21.636
24284	15.598	1.6364	0.1	-39.827
24285	15.69	1.3636	0.1	-50.877
24286	15.598	1.4545	0.1	-78.804
24287	15.69	1.1818	0.1	-67.34
24288	15.598	1.2727	0.1	-96.88
24289	15.69	1.	0.1	-71.057
24290	15.598	1.0909	0.1	-97.035
24291	15.69	0.81818	0.1	-66.706
24292	15.598	0.90909	0.1	-86.37
24293	15.69	0.63636	0.1	-58.843
24294	15.598	0.72727	0.1	-71.43
24295	15.69	0.45455	0.1	-50.671
24296	15.598	0.54545	0.1	-57.147
24297	15.69	0.27273	0.1	-44.91
24298	15.598	0.36364	0.1	-46.589
24299	15.598	0.18182	0.1	-43.336
24300	15.69	9.0909e-002	0.1	-23.843
24301	15.505	5.7273	0.1	-45.885
24302	15.413	5.8182	0.1	-43.421
24303	15.505	5.9091	0.1	-23.798
24304	15.505	5.5455	0.1	-54.723
24305	15.413	5.6364	0.1	-46.578
24306	15.505	5.3636	0.1	-72.833
24307	15.413	5.4545	0.1	-66.36
24308	15.505	5.1818	0.1	-95.615
24309	15.413	5.2727	0.1	-96.634
24310	15.505	5.	0.1	-117.95
24311	15.413	5.0909	0.1	-132.24
24312	15.505	4.8182	0.1	-132.74
24313	15.413	4.9091	0.1	-166.81
24314	15.505	4.6364	0.1	-131.03
24315	15.413	4.7273	0.1	-191.56
24316	15.505	4.4545	0.1	-104.08
24317	15.413	4.5455	0.1	-194.57
24318	15.505	4.2727	0.1	-51.062
24319	15.413	4.3636	0.1	-158.96
24320	15.505	4.0909	0.1	-7.5421
24321	15.413	4.1818	0.1	-81.512
24322	15.505	3.9091	0.1	-2.9493
24323	15.413	4.	0.1	-7.7726
24324	15.505	3.7273	0.1	-1.5285
24325	15.413	3.8182	0.1	0.51152
24326	15.505	3.5455	0.1	-0.91812
24327	15.413	3.6364	0.1	-2.9489
24328	15.505	3.3636	0.1	-1.1072
24329	15.413	3.4545	0.1	-4.1379
24330	15.505	3.1818	0.1	-0.88284
24331	15.413	3.2727	0.1	-16.096
24332	15.505	3.	0.1	-0.71333
24333	15.413	3.0909	0.1	-28.459
24334	15.505	2.8182	0.1	-0.88284
24335	15.413	2.9091	0.1	-28.459
24336	15.505	2.6364	0.1	-1.1072
24337	15.413	2.7273	0.1	-16.096
24338	15.505	2.4545	0.1	-0.91812
24339	15.413	2.5455	0.1	-4.1379
24340	15.505	2.2727	0.1	-1.5285
24341	15.413	2.3636	0.1	-2.9489
24342	15.505	2.0909	0.1	-2.9493
24343	15.413	2.1818	0.1	0.51152
24344	15.505	1.9091	0.1	-7.5421
24345	15.413	2.	0.1	-7.7725
24346	15.505	1.7273	0.1	-51.062
24347	15.413	1.8182	0.1	-81.511
24348	15.505	1.5455	0.1	-104.08
24349	15.413	1.6364	0.1	-158.96
24350	15.505	1.3636	0.1	-131.03
24351	15.413	1.4545	0.1	-194.57
24352	15.505	1.1818	0.1	-132.74
24353	15.413	1.2727	0.1	-191.56
24354	15.505	1.	0.1	-117.95
24355	15.413	1.0909	0.1	-166.81
24356	15.505	0.81818	0.1	-95.614
24357	15.413	0.90909	0.1	-132.24
24358	15.505	0.63636	0.1	-72.833
24359	15.413	0.72727	0.1	-96.634
24360	15.505	0.45455	0.1	-54.723
24361	15.413	0.54545	0.1	-66.359
24362	15.505	0.27273	0.1	-45.885
24363	15.413	0.36364	0.1	-46.578
24364	15.413	0.18182	0.1	-43.421
24365	15.505	9.0909e-002	0.1	-23.798
24366	15.321	5.7273	0.1	-45.466
24367	15.228	5.8182	0.1	-41.765
24368	15.321	5.9091	0.1	-21.719
24369	15.321	5.5455	0.1	-61.279
24370	15.228	5.6364	0.1	-49.482
24371	15.321	5.3636	0.1	-95.734
24372	15.228	5.4545	0.1	-86.305
24373	15.321	5.1818	0.1	-140.97
24374	15.228	5.2727	0.1	-140.42
24375	15.321	5.	0.1	-190.32
24376	15.228	5.0909	0.1	-204.54
24377	15.321	4.8182	0.1	-235.68
24378	15.228	4.9091	0.1	-273.16
24379	15.321	4.6364	0.1	-265.04
24380	15.228	4.7273	0.1	-339.68
24381	15.321	4.4545	0.1	-258.09
24382	15.228	4.5455	0.1	-388.49
24383	15.321	4.2727	0.1	-196.18
24384	15.228	4.3636	0.1	-391.62
24385	15.321	4.0909	0.1	-97.788
24386	15.228	4.1818	0.1	-313.04
24387	15.321	3.9091	0.1	-17.321
24388	15.228	4.	0.1	-141.48
24389	15.321	3.7273	0.1	-2.9193
24390	15.228	3.8182	0.1	-68.815
24391	15.321	3.5455	0.1	-27.791
24392	15.228	3.6364	0.1	-95.16
24393	15.321	3.3636	0.1	-60.145
24394	15.228	3.4545	0.1	-136.64
24395	15.321	3.1818	0.1	-82.195
24396	15.228	3.2727	0.1	-161.02
24397	15.321	3.	0.1	-89.612
24398	15.228	3.0909	0.1	-172.66
24399	15.321	2.8182	0.1	-82.195
24400	15.228	2.9091	0.1	-172.66
24401	15.321	2.6364	0.1	-60.144
24402	15.228	2.7273	0.1	-161.02
24403	15.321	2.4545	0.1	-27.791
24404	15.228	2.5455	0.1	-136.64
24405	15.321	2.2727	0.1	-2.9192
24406	15.228	2.3636	0.1	-95.16
24407	15.321	2.0909	0.1	-17.321
24408	15.228	2.1818	0.1	-68.814
24409	15.321	1.9091	0.1	-97.787
24410	15.228	2.	0.1	-141.48
24411	15.321	1.7273	0.1	-196.18
24412	15.228	1.8182	0.1	-313.04
24413	15.321	1.5455	0.1	-258.09
24414	15.228	1.6364	0.1	-391.62
24415	15.321	1.3636	0.1	-265.04
24416	15.228	1.4545	0.1	-388.49
24417	15.321	1.1818	0.1	-235.68
24418	15.228	1.2727	0.1	-339.68
24419	15.321	1.	0.1	-190.32
24420	15.228	1.0909	0.1	-273.16
24421	15.321	0.81818	0.1	-140.97
24422	15.228	0.90909	0.1	-204.54
24423	15.321	0.63636	0.1	-95.734
24424	15.228	0.72727	0.1	-140.42
24425	15.321	0.45455	0.1	-61.279
24426	15.228	0.54545	0.1	-86.305
24427	15.321	0.27273	0.1	-45.466
24428	15.228	0.36364	0.1	-49.482
24429	15.228	0.18182	0.1	-41.765
24430	15.321	9.0909e-002	0.1	-21.719
24431	15.136	5.7273	0.1	-48.532
24432	15.044	5.8182	0.1	-45.126
24433	15.136	5.9091	0.1	-18.187
24434	15.136	5.5455	0.1	-81.058
24435	15.044	5.6364	0.1	-75.883
24436	15.136	5.3636	0.1	-141.14
24437	15.044	5.4545	0.1	-144.7
24438	15.136	5.1818	0.1	-216.35
24439	15.044	5.2727	0.1	-232.05
24440	15.136	5.	0.1	-301.42
24441	15.044	5.0909	0.1	-333.25
24442	15.136	4.8182	0.1	-392.83
24443	15.044	4.9091	0.1	-448.39
24444	15.136	4.6364	0.1	-480.07
24445	15.044	4.7273	0.1	-579.88
24446	15.136	4.4545	0.1	-536.99
24447	15.044	4.5455	0.1	-721.81
24448	15.136	4.2727	0.1	-518.72
24449	15.044	4.3636	0.1	-879.38
24450	15.136	4.0909	0.1	-358.66
24451	15.044	4.1818	0.1	-902.46
24452	15.136	3.9091	0.1	-188.77
24453	15.044	4.	0.1	-538.76
24454	15.136	3.7273	0.1	-155.67
24455	15.044	3.8182	0.1	-288.17
24456	15.136	3.5455	0.1	-195.05
24457	15.044	3.6364	0.1	-320.85
24458	15.136	3.3636	0.1	-229.81
24459	15.044	3.4545	0.1	-329.89
24460	15.136	3.1818	0.1	-245.14
24461	15.044	3.2727	0.1	-334.09
24462	15.136	3.	0.1	-249.83
24463	15.044	3.0909	0.1	-334.62
24464	15.136	2.8182	0.1	-245.14
24465	15.044	2.9091	0.1	-334.62
24466	15.136	2.6364	0.1	-229.81
24467	15.044	2.7273	0.1	-334.09
24468	15.136	2.4545	0.1	-195.05
24469	15.044	2.5455	0.1	-329.89
24470	15.136	2.2727	0.1	-155.67
24471	15.044	2.3636	0.1	-320.85
24472	15.136	2.0909	0.1	-188.77
24473	15.044	2.1818	0.1	-288.17
24474	15.136	1.9091	0.1	-358.66
24475	15.044	2.	0.1	-538.76
24476	15.136	1.7273	0.1	-518.72
24477	15.044	1.8182	0.1	-902.46
24478	15.136	1.5455	0.1	-536.99
24479	15.044	1.6364	0.1	-879.38
24480	15.136	1.3636	0.1	-480.07
24481	15.044	1.4545	0.1	-721.81
24482	15.136	1.1818	0.1	-392.83
24483	15.044	1.2727	0.1	-579.88
24484	15.136	1.	0.1	-301.42
24485	15.044	1.0909	0.1	-448.39
24486	15.136	0.81818	0.1	-216.35
24487	15.044	0.90909	0.1	-333.25
24488	15.136	0.63636	0.1	-141.14
24489	15.044	0.72727	0.1	-232.05
24490	15.136	0.45455	0.1	-81.058
24491	15.044	0.54545	0.1	-144.7
24492	15.136	0.27273	0.1	-48.532
24493	15.044	0.36364	0.1	-75.883
24494	15.044	0.18182	0.1	-45.126
24495	15.136	9.0909e-002	0.1	-18.187
24496	14.951	5.7273	0.1	-81.892
24497	14.859	5.8182	0.1	-24.518
24498	14.951	5.9091	0.1	-21.568
24499	14.951	5.5455	0.1	-154.68
24500	14.859	5.6364	0.1	-77.307
24501	14.951	5.3636	0.1	-251.99
24502	14.859	5.4545	0.1	-149.92
24503	14.951	5.1818	0.1	-366.02
24504	14.859	5.2727	0.1	-234.25
24505	14.951	5.	0.1	-498.99
24506	14.859	5.0909	0.1	-332.12
24507	14.951	4.8182	0.1	-657.79
24508	14.859	4.9091	0.1	-448.43
24509	14.951	4.6364	0.1	-849.83
24510	14.859	4.7273	0.1	-591.41
24511	14.951	4.4545	0.1	-1105.2
24512	14.859	4.5455	0.1	-781.26
24513	14.951	4.2727	0.1	-1297.
24514	14.859	4.3636	0.1	-991.15
24515	14.951	4.0909	0.1	-1072.8
24516	14.859	4.1818	0.1	-1551.8
24517	14.951	3.9091	0.1	-568.03
24518	14.859	4.	0.1	-833.84
24519	14.951	3.7273	0.1	-422.95
24520	14.859	3.8182	0.1	-561.6
24521	14.951	3.5455	0.1	-444.09
24522	14.859	3.6364	0.1	-576.85
24523	14.951	3.3636	0.1	-427.77
24524	14.859	3.4545	0.1	-522.37
24525	14.951	3.1818	0.1	-418.66
24526	14.859	3.2727	0.1	-492.56
24527	14.951	3.	0.1	-414.77
24528	14.859	3.0909	0.1	-476.77
24529	14.951	2.8182	0.1	-418.66
24530	14.859	2.9091	0.1	-476.77
24531	14.951	2.6364	0.1	-427.77
24532	14.859	2.7273	0.1	-492.56
24533	14.951	2.4545	0.1	-444.09
24534	14.859	2.5455	0.1	-522.37
24535	14.951	2.2727	0.1	-422.95
24536	14.859	2.3636	0.1	-576.85
24537	14.951	2.0909	0.1	-568.03
24538	14.859	2.1818	0.1	-561.6
24539	14.951	1.9091	0.1	-1072.8
24540	14.859	2.	0.1	-833.84
24541	14.951	1.7273	0.1	-1297.
24542	14.859	1.8182	0.1	-1551.8
24543	14.951	1.5455	0.1	-1105.2
24544	14.859	1.6364	0.1	-991.15
24545	14.951	1.3636	0.1	-849.83
24546	14.859	1.4545	0.1	-781.26
24547	14.951	1.1818	0.1	-657.79
24548	14.859	1.2727	0.1	-591.41
24549	14.951	1.	0.1	-498.99
24550	14.859	1.0909	0.1	-448.43
24551	14.951	0.81818	0.1	-366.02
24552	14.859	0.90909	0.1	-332.12
24553	14.951	0.63636	0.1	-251.99
24554	14.859	0.72727	0.1	-234.25
24555	14.951	0.45455	0.1	-154.68
24556	14.859	0.54545	0.1	-149.92
24557	14.951	0.27273	0.1	-81.892
24558	14.859	0.36364	0.1	-77.307
24559	14.859	0.18182	0.1	-24.518
24560	14.951	9.0909e-002	0.1	-21.568
24561	0.18481	0.27273	0.1	-448.29
24562	0.27722	0.18182	0.1	-164.9
24563	9.2405e-002	0.18182	0.1	400.41
24564	0.18481	9.0909e-002	0.1	-224.12
24565	0.18481	0.45455	0.1	-676.69
24566	0.27722	0.36364	0.1	-235.81
24567	9.2405e-002	0.36364	0.1	831.73
24568	0.18481	0.63636	0.1	-786.52
24569	0.27722	0.54545	0.1	-279.78
24570	9.2405e-002	0.54545	0.1	1029.1
24571	0.18481	0.81818	0.1	-856.87
24572	0.27722	0.72727	0.1	-311.07
24573	9.2405e-002	0.72727	0.1	1145.6
24574	0.18481	1.	0.1	-904.18
24575	0.27722	0.90909	0.1	-331.11
24576	9.2405e-002	0.90909	0.1	1224.3
24577	0.18481	1.1818	0.1	-938.58
24578	0.27722	1.0909	0.1	-345.72
24579	9.2405e-002	1.0909	0.1	1280.2
24580	0.18481	1.3636	0.1	-964.19
24581	0.27722	1.2727	0.1	-356.47
24582	9.2405e-002	1.2727	0.1	1321.7
24583	0.18481	1.5455	0.1	-983.75
24584	0.27722	1.4545	0.1	-364.64
24585	9.2405e-002	1.4545	0.1	1353.2
24586	0.18481	1.7273	0.1	-998.83
24587	0.27722	1.6364	0.1	-370.93
24588	9.2405e-002	1.6364	0.1	1377.5
24589	0.18481	1.9091	0.1	-1010.5
24590	0.27722	1.8182	0.1	-375.81
24591	9.2405e-002	1.8182	0.1	1396.3
24592	0.18481	2.0909	0.1	-1019.5
24593	0.27722	2.	0.1	-379.6
24594	9.2405e-002	2.	0.1	1410.9
24595	0.18481	2.2727	0.1	-1026.4
24596	0.27722	2.1818	0.1	-382.5
24597	9.2405e-002	2.1818	0.1	1422.1
24598	0.18481	2.4545	0.1	-1031.4
24599	0.27722	2.3636	0.1	-384.67
24600	9.2405e-002	2.3636	0.1	1430.5
24601	0.18481	2.6364	0.1	-1034.8
24602	0.27722	2.5455	0.1	-386.22
24603	9.2405e-002	2.5455	0.1	1436.5
24604	0.18481	2.8182	0.1	-1036.8
24605	0.27722	2.7273	0.1	-387.22
24606	9.2405e-002	2.7273	0.1	1440.3
24607	0.18481	3.	0.1	-1037.5
24608	0.27722	2.9091	0.1	-387.7
24609	9.2405e-002	2.9091	0.1	1442.2
24610	0.18481	3.1818	0.1	-1036.8
24611	0.27722	3.0909	0.1	-387.7
24612	9.2405e-002	3.0909	0.1	1442.2
24613	0.18481	3.3636	0.1	-1034.8
24614	0.27722	3.2727	0.1	-387.22
24615	9.2405e-002	3.2727	0.1	1440.3
24616	0.18481	3.5455	0.1	-1031.4
24617	0.27722	3.4545	0.1	-386.22
24618	9.2405e-002	3.4545	0.1	1436.5
24619	0.18481	3.7273	0.1	-1026.4
24620	0.27722	3.6364	0.1	-384.67
24621	9.2405e-002	3.6364	0.1	1430.5
24622	0.18481	3.9091	0.1	-1019.5
24623	0.27722	3.8182	0.1	-382.5
24624	9.2405e-002	3.8182	0.1	1422.1
24625	0.18481	4.0909	0.1	-1010.5
24626	0.27722	4.	0.1	-379.6
24627	9.2405e-002	4.	0.1	1410.9
24628	0.18481	4.2727	0.1	-998.83
24629	0.27722	4.1818	0.1	-375.81
24630	9.2405e-002	4.1818	0.1	1396.3
24631	0.18481	4.4545	0.1	-983.75
24632	0.27722	4.3636	0.1	-370.93
24633	9.2405e-002	4.3636	0.1	1377.5
24634	0.18481	4.6364	0.1	-964.19
24635	0.27722	4.5455	0.1	-364.64
24636	9.2405e-002	4.5455	0.1	1353.2
24637	0.18481	4.8182	0.1	-938.58
24638	0.27722	4.7273	0.1	-356.47
24639	9.2405e-002	4.7273	0.1	1321.7
24640	0.18481	5.	0.1	-904.18
24641	0.27722	4.9091	0.1	-345.72
24642	9.2405e-002	4.9091	0.1	1280.2
24643	0.18481	5.1818	0.1	-856.87
24644	0.27722	5.0909	0.1	-331.11
24645	9.2405e-002	5.0909	0.1	1224.3
24646	0.18481	5.3636	0.1	-786.52
24647	0.27722	5.2727	0.1	-311.07
24648	9.2405e-002	5.2727	0.1	1145.6
24649	0.18481	5.5455	0.1	-676.69
24650	0.27722	5.4545	0.1	-279.78
24651	9.2405e-002	5.4545	0.1	1029.1
24652	0.18481	5.7273	0.1	-448.29
24653	0.27722	5.6364	0.1	-235.81
24654	9.2405e-002	5.6364	0.1	831.73
24655	0.27722	5.8182	0.1	-164.9
24656	9.2405e-002	5.8182	0.1	400.41
24657	0.18481	5.9091	0.1	-224.12
24658	0.36962	0.27273	0.1	90.408
24659	0.46203	0.18182	0.1	-96.107
24660	0.36962	9.0909e-002	0.1	-132.32
24661	0.36962	0.45455	0.1	161.82
24662	0.46203	0.36364	0.1	48.875
24663	0.36962	0.63636	0.1	195.72
24664	0.46203	0.54545	0.1	67.382
24665	0.36962	0.81818	0.1	214.66
24666	0.46203	0.72727	0.1	76.639
24667	0.36962	1.	0.1	227.32
24668	0.46203	0.90909	0.1	82.472
24669	0.36962	1.1818	0.1	236.36
24670	0.46203	1.0909	0.1	86.509
24671	0.36962	1.3636	0.1	243.06
24672	0.46203	1.2727	0.1	89.439
24673	0.36962	1.5455	0.1	248.15
24674	0.46203	1.4545	0.1	91.642
24675	0.36962	1.7273	0.1	252.07
24676	0.46203	1.6364	0.1	93.328
24677	0.36962	1.9091	0.1	255.1
24678	0.46203	1.8182	0.1	94.63
24679	0.36962	2.0909	0.1	257.43
24680	0.46203	2.	0.1	95.636
24681	0.36962	2.2727	0.1	259.2
24682	0.46203	2.1818	0.1	96.406
24683	0.36962	2.4545	0.1	260.49
24684	0.46203	2.3636	0.1	96.982
24685	0.36962	2.6364	0.1	261.38
24686	0.46203	2.5455	0.1	97.392
24687	0.36962	2.8182	0.1	261.89
24688	0.46203	2.7273	0.1	97.655
24689	0.36962	3.	0.1	262.06
24690	0.46203	2.9091	0.1	97.784
24691	0.36962	3.1818	0.1	261.89
24692	0.46203	3.0909	0.1	97.784
24693	0.36962	3.3636	0.1	261.38
24694	0.46203	3.2727	0.1	97.655
24695	0.36962	3.5455	0.1	260.49
24696	0.46203	3.4545	0.1	97.392
24697	0.36962	3.7273	0.1	259.2
24698	0.46203	3.6364	0.1	96.982
24699	0.36962	3.9091	0.1	257.43
24700	0.46203	3.8182	0.1	96.406
24701	0.36962	4.0909	0.1	255.1
24702	0.46203	4.	0.1	95.636
24703	0.36962	4.2727	0.1	252.07
24704	0.46203	4.1818	0.1	94.63
24705	0.36962	4.4545	0.1	248.15
24706	0.46203	4.3636	0.1	93.328
24707	0.36962	4.6364	0.1	243.06
24708	0.46203	4.5455	0.1	91.642
24709	0.36962	4.8182	0.1	236.36
24710	0.46203	4.7273	0.1	89.439
24711	0.36962	5.	0.1	227.32
24712	0.46203	4.9091	0.1	86.509
24713	0.36962	5.1818	0.1	214.66
24714	0.46203	5.0909	0.1	82.472
24715	0.36962	5.3636	0.1	195.72
24716	0.46203	5.2727	0.1	76.639
24717	0.36962	5.5455	0.1	161.82
24718	0.46203	5.4545	0.1	67.382
24719	0.36962	5.7273	0.1	90.408
24720	0.46203	5.6364	0.1	48.875
24721	0.46203	5.8182	0.1	-96.107
24722	0.36962	5.9091	0.1	-132.32
24723	0.55443	0.27273	0.1	-33.794
24724	0.64684	0.18182	0.1	-86.845
24725	0.55443	9.0909e-002	0.1	-107.28
24726	0.55443	0.45455	0.1	-44.581
24727	0.64684	0.36364	0.1	-17.396
24728	0.55443	0.63636	0.1	-51.486
24729	0.64684	0.54545	0.1	-19.308
24730	0.55443	0.81818	0.1	-55.479
24731	0.64684	0.72727	0.1	-20.724
24732	0.55443	1.	0.1	-58.312
24733	0.64684	0.90909	0.1	-21.718
24734	0.55443	1.1818	0.1	-60.408
24735	0.64684	1.0909	0.1	-22.518
24736	0.55443	1.3636	0.1	-61.981
24737	0.64684	1.2727	0.1	-23.127
24738	0.55443	1.5455	0.1	-63.184
24739	0.64684	1.4545	0.1	-23.6
24740	0.55443	1.7273	0.1	-64.113
24741	0.64684	1.6364	0.1	-23.967
24742	0.55443	1.9091	0.1	-64.833
24743	0.64684	1.8182	0.1	-24.252
24744	0.55443	2.0909	0.1	-65.389
24745	0.64684	2.	0.1	-24.473
24746	0.55443	2.2727	0.1	-65.81
24747	0.64684	2.1818	0.1	-24.643
24748	0.55443	2.4545	0.1	-66.119
24749	0.64684	2.3636	0.1	-24.77
24750	0.55443	2.6364	0.1	-66.33
24751	0.64684	2.5455	0.1	-24.86
24752	0.55443	2.8182	0.1	-66.454
24753	0.64684	2.7273	0.1	-24.918
24754	0.55443	3.	0.1	-66.494
24755	0.64684	2.9091	0.1	-24.947
24756	0.55443	3.1818	0.1	-66.454
24757	0.64684	3.0909	0.1	-24.947
24758	0.55443	3.3636	0.1	-66.33
24759	0.64684	3.2727	0.1	-24.918
24760	0.55443	3.5455	0.1	-66.119
24761	0.64684	3.4545	0.1	-24.86
24762	0.55443	3.7273	0.1	-65.81
24763	0.64684	3.6364	0.1	-24.77
24764	0.55443	3.9091	0.1	-65.389
24765	0.64684	3.8182	0.1	-24.643
24766	0.55443	4.0909	0.1	-64.833
24767	0.64684	4.	0.1	-24.473
24768	0.55443	4.2727	0.1	-64.113
24769	0.64684	4.1818	0.1	-24.252
24770	0.55443	4.4545	0.1	-63.184
24771	0.64684	4.3636	0.1	-23.967
24772	0.55443	4.6364	0.1	-61.981
24773	0.64684	4.5455	0.1	-23.6
24774	0.55443	4.8182	0.1	-60.408
24775	0.64684	4.7273	0.1	-23.127
24776	0.55443	5.	0.1	-58.312
24777	0.64684	4.9091	0.1	-22.518
24778	0.55443	5.1818	0.1	-55.479
24779	0.64684	5.0909	0.1	-21.718
24780	0.55443	5.3636	0.1	-51.486
24781	0.64684	5.2727	0.1	-20.724
24782	0.55443	5.5455	0.1	-44.581
24783	0.64684	5.4545	0.1	-19.308
24784	0.55443	5.7273	0.1	-33.794
24785	0.64684	5.6364	0.1	-17.396
24786	0.64684	5.8182	0.1	-86.845
24787	0.55443	5.9091	0.1	-107.28
24788	0.73924	0.27273	0.1	-0.40808
24789	0.83165	0.18182	0.1	-61.332
24790	0.73924	9.0909e-002	0.1	-72.524
24791	0.73924	0.45455	0.1	8.4393
24792	0.83165	0.36364	0.1	0.40102
24793	0.73924	0.63636	0.1	11.601
24794	0.83165	0.54545	0.1	3.3334
24795	0.73924	0.81818	0.1	13.095
24796	0.83165	0.72727	0.1	4.2124
24797	0.73924	1.	0.1	14.102
24798	0.83165	0.90909	0.1	4.8407
24799	0.73924	1.1818	0.1	14.775
24800	0.83165	1.0909	0.1	5.2079
24801	0.73924	1.3636	0.1	15.259
24802	0.83165	1.2727	0.1	5.4597
24803	0.73924	1.5455	0.1	15.62
24804	0.83165	1.4545	0.1	5.636
24805	0.73924	1.7273	0.1	15.896
24806	0.83165	1.6364	0.1	5.7674
24807	0.73924	1.9091	0.1	16.109
24808	0.83165	1.8182	0.1	5.8676
24809	0.73924	2.0909	0.1	16.274
24810	0.83165	2.	0.1	5.9448
24811	0.73924	2.2727	0.1	16.398
24812	0.83165	2.1818	0.1	6.0041
24813	0.73924	2.4545	0.1	16.49
24814	0.83165	2.3636	0.1	6.0485
24815	0.73924	2.6364	0.1	16.552
24816	0.83165	2.5455	0.1	6.0803
24817	0.73924	2.8182	0.1	16.589
24818	0.83165	2.7273	0.1	6.1008
24819	0.73924	3.	0.1	16.601
24820	0.83165	2.9091	0.1	6.1108
24821	0.73924	3.1818	0.1	16.589
24822	0.83165	3.0909	0.1	6.1108
24823	0.73924	3.3636	0.1	16.552
24824	0.83165	3.2727	0.1	6.1008
24825	0.73924	3.5455	0.1	16.49
24826	0.83165	3.4545	0.1	6.0803
24827	0.73924	3.7273	0.1	16.398
24828	0.83165	3.6364	0.1	6.0485
24829	0.73924	3.9091	0.1	16.274
24830	0.83165	3.8182	0.1	6.0041
24831	0.73924	4.0909	0.1	16.109
24832	0.83165	4.	0.1	5.9448
24833	0.73924	4.2727	0.1	15.896
24834	0.83165	4.1818	0.1	5.8676
24835	0.73924	4.4545	0.1	15.62
24836	0.83165	4.3636	0.1	5.7674
24837	0.73924	4.6364	0.1	15.259
24838	0.83165	4.5455	0.1	5.636
24839	0.73924	4.8182	0.1	14.775
24840	0.83165	4.7273	0.1	5.4597
24841	0.73924	5.	0.1	14.102
24842	0.83165	4.9091	0.1	5.2079
24843	0.73924	5.1818	0.1	13.095
24844	0.83165	5.0909	0.1	4.8407
24845	0.73924	5.3636	0.1	11.601
24846	0.83165	5.2727	0.1	4.2124
24847	0.73924	5.5455	0.1	8.4393
24848	0.83165	5.4545	0.1	3.3334
24849	0.73924	5.7273	0.1	-0.40809
24850	0.83165	5.6364	0.1	0.40102
24851	0.83165	5.8182	0.1	-61.332
24852	0.73924	5.9091	0.1	-72.524
24853	0.92405	0.27273	0.1	-7.0602
24854	1.0165	0.18182	0.1	-43.125
24855	0.92405	9.0909e-002	0.1	-51.257
24856	0.92405	0.45455	0.1	-4.2623
24857	1.0165	0.36364	0.1	-3.3147
24858	0.92405	0.63636	0.1	-3.9462
24859	1.0165	0.54545	0.1	-2.0037
24860	0.92405	0.81818	0.1	-3.9958
24861	1.0165	0.72727	0.1	-1.8597
24862	0.92405	1.	0.1	-4.0309
24863	1.0165	0.90909	0.1	-1.7197
24864	0.92405	1.1818	0.1	-4.095
24865	1.0165	1.0909	0.1	-1.6793
24866	0.92405	1.3636	0.1	-4.1571
24867	1.0165	1.2727	0.1	-1.6657
24868	0.92405	1.5455	0.1	-4.213
24869	1.0165	1.4545	0.1	-1.6692
24870	0.92405	1.7273	0.1	-4.2591
24871	1.0165	1.6364	0.1	-1.6775
24872	0.92405	1.9091	0.1	-4.2957
24873	1.0165	1.8182	0.1	-1.6865
24874	0.92405	2.0909	0.1	-4.3239
24875	1.0165	2.	0.1	-1.6942
24876	0.92405	2.2727	0.1	-4.3452
24877	1.0165	2.1818	0.1	-1.7004
24878	0.92405	2.4545	0.1	-4.3606
24879	1.0165	2.3636	0.1	-1.7049
24880	0.92405	2.6364	0.1	-4.371
24881	1.0165	2.5455	0.1	-1.7081
24882	0.92405	2.8182	0.1	-4.3771
24883	1.0165	2.7273	0.1	-1.7101
24884	0.92405	3.	0.1	-4.379
24885	1.0165	2.9091	0.1	-1.711
24886	0.92405	3.1818	0.1	-4.3771
24887	1.0165	3.0909	0.1	-1.711
24888	0.92405	3.3636	0.1	-4.371
24889	1.0165	3.2727	0.1	-1.7101
24890	0.92405	3.5455	0.1	-4.3606
24891	1.0165	3.4545	0.1	-1.7081
24892	0.92405	3.7273	0.1	-4.3452
24893	1.0165	3.6364	0.1	-1.7049
24894	0.92405	3.9091	0.1	-4.3239
24895	1.0165	3.8182	0.1	-1.7004
24896	0.92405	4.0909	0.1	-4.2957
24897	1.0165	4.	0.1	-1.6942
24898	0.92405	4.2727	0.1	-4.2591
24899	1.0165	4.1818	0.1	-1.6865
24900	0.92405	4.4545	0.1	-4.213
24901	1.0165	4.3636	0.1	-1.6775
24902	0.92405	4.6364	0.1	-4.1571
24903	1.0165	4.5455	0.1	-1.6692
24904	0.92405	4.8182	0.1	-4.0949
24905	1.0165	4.7273	0.1	-1.6657
24906	0.92405	5.	0.1	-4.0309
24907	1.0165	4.9091	0.1	-1.6793
24908	0.92405	5.1818	0.1	-3.9958
24909	1.0165	5.0909	0.1	-1.7197
24910	0.92405	5.3636	0.1	-3.9462
24911	1.0165	5.2727	0.1	-1.8597
24912	0.92405	5.5455	0.1	-4.2623
24913	1.0165	5.4545	0.1	-2.0037
24914	0.92405	5.7273	0.1	-7.0602
24915	1.0165	5.6364	0.1	-3.3147
24916	1.0165	5.8182	0.1	-43.125
24917	0.92405	5.9091	0.1	-51.257
24918	1.1089	0.27273	0.1	-3.9778
24919	1.2013	0.18182	0.1	-28.315
24920	1.1089	9.0909e-002	0.1	-33.542
24921	1.1089	0.45455	0.1	-0.72303
24922	1.2013	0.36364	0.1	-1.889
24923	1.1089	0.63636	0.1	0.16398
24924	1.2013	0.54545	0.1	-0.45484
24925	1.1089	0.81818	0.1	0.45175
24926	1.2013	0.72727	0.1	-0.19462
24927	1.1089	1.	0.1	0.65051
24928	1.2013	0.90909	0.1	2.6745e-002
24929	1.1089	1.1818	0.1	0.76046
24930	1.2013	1.0909	0.1	0.13546
24931	1.1089	1.3636	0.1	0.82828
24932	1.2013	1.2727	0.1	0.2025
24933	1.1089	1.5455	0.1	0.86993
24934	1.2013	1.4545	0.1	0.23964
24935	1.1089	1.7273	0.1	0.89737
24936	1.2013	1.6364	0.1	0.26151
24937	1.1089	1.9091	0.1	0.91643
24938	1.2013	1.8182	0.1	0.27468
24939	1.1089	2.0909	0.1	0.93032
24940	1.2013	2.	0.1	0.28317
24941	1.1089	2.2727	0.1	0.94063
24942	1.2013	2.1818	0.1	0.28894
24943	1.1089	2.4545	0.1	0.94818
24944	1.2013	2.3636	0.1	0.293
24945	1.1089	2.6364	0.1	0.95338
24946	1.2013	2.5455	0.1	0.29583
24947	1.1089	2.8182	0.1	0.95643
24948	1.2013	2.7273	0.1	0.29763
24949	1.1089	3.	0.1	0.95744
24950	1.2013	2.9091	0.1	0.29852
24951	1.1089	3.1818	0.1	0.95643
24952	1.2013	3.0909	0.1	0.29852
24953	1.1089	3.3636	0.1	0.95338
24954	1.2013	3.2727	0.1	0.29763
24955	1.1089	3.5455	0.1	0.94818
24956	1.2013	3.4545	0.1	0.29583
24957	1.1089	3.7273	0.1	0.94063
24958	1.2013	3.6364	0.1	0.293
24959	1.1089	3.9091	0.1	0.93032
24960	1.2013	3.8182	0.1	0.28894
24961	1.1089	4.0909	0.1	0.91643
24962	1.2013	4.	0.1	0.28317
24963	1.1089	4.2727	0.1	0.89737
24964	1.2013	4.1818	0.1	0.27468
24965	1.1089	4.4545	0.1	0.86993
24966	1.2013	4.3636	0.1	0.26151
24967	1.1089	4.6364	0.1	0.82828
24968	1.2013	4.5455	0.1	0.23964
24969	1.1089	4.8182	0.1	0.76046
24970	1.2013	4.7273	0.1	0.2025
24971	1.1089	5.	0.1	0.65051
24972	1.2013	4.9091	0.1	0.13546
24973	1.1089	5.1818	0.1	0.45175
24974	1.2013	5.0909	0.1	2.6745e-002
24975	1.1089	5.3636	0.1	0.16398
24976	1.2013	5.2727	0.1	-0.19462
24977	1.1089	5.5455	0.1	-0.72303
24978	1.2013	5.4545	0.1	-0.45484
24979	1.1089	5.7273	0.1	-3.9778
24980	1.2013	5.6364	0.1	-1.889
24981	1.2013	5.8182	0.1	-28.315
24982	1.1089	5.9091	0.1	-33.542
24983	1.2937	0.27273	0.1	-3.638
24984	1.3861	0.18182	0.1	-18.279
24985	1.2937	9.0909e-002	0.1	-20.229
24986	1.2937	0.45455	0.1	-1.3606
24987	1.3861	0.36364	0.1	-1.8662
24988	1.2937	0.63636	0.1	-0.7498
24989	1.3861	0.54545	0.1	-0.70263
24990	1.2937	0.81818	0.1	-0.59189
24991	1.3861	0.72727	0.1	-0.52794
24992	1.2937	1.	0.1	-0.47327
24993	1.3861	0.90909	0.1	-0.35904
24994	1.2937	1.1818	0.1	-0.41358
24995	1.3861	1.0909	0.1	-0.27777
24996	1.2937	1.3636	0.1	-0.38062
24997	1.3861	1.2727	0.1	-0.22696
24998	1.2937	1.5455	0.1	-0.36527
24999	1.3861	1.4545	0.1	-0.20045
25000	1.2937	1.7273	0.1	-0.35888
25001	1.3861	1.6364	0.1	-0.1868
25002	1.2937	1.9091	0.1	-0.35703
25003	1.3861	1.8182	0.1	-0.18061
25004	1.2937	2.0909	0.1	-0.35712
25005	1.3861	2.	0.1	-0.1782
25006	1.2937	2.2727	0.1	-0.35788
25007	1.3861	2.1818	0.1	-0.17761
25008	1.2937	2.4545	0.1	-0.35872
25009	1.3861	2.3636	0.1	-0.17775
25010	1.2937	2.6364	0.1	-0.35938
25011	1.3861	2.5455	0.1	-0.17812
25012	1.2937	2.8182	0.1	-0.35979
25013	1.3861	2.7273	0.1	-0.17844
25014	1.2937	3.	0.1	-0.35993
25015	1.3861	2.9091	0.1	-0.17862
25016	1.2937	3.1818	0.1	-0.35979
25017	1.3861	3.0909	0.1	-0.17862
25018	1.2937	3.3636	0.1	-0.35938
25019	1.3861	3.2727	0.1	-0.17844
25020	1.2937	3.5455	0.1	-0.35872
25021	1.3861	3.4545	0.1	-0.17812
25022	1.2937	3.7273	0.1	-0.35788
25023	1.3861	3.6364	0.1	-0.17775
25024	1.2937	3.9091	0.1	-0.35712
25025	1.3861	3.8182	0.1	-0.17761
25026	1.2937	4.0909	0.1	-0.35703
25027	1.3861	4.	0.1	-0.1782
25028	1.2937	4.2727	0.1	-0.35888
25029	1.3861	4.1818	0.1	-0.18061
25030	1.2937	4.4545	0.1	-0.36527
25031	1.3861	4.3636	0.1	-0.1868
25032	1.2937	4.6364	0.1	-0.38062
25033	1.3861	4.5455	0.1	-0.20045
25034	1.2937	4.8182	0.1	-0.41358
25035	1.3861	4.7273	0.1	-0.22696
25036	1.2937	5.	0.1	-0.47327
25037	1.3861	4.9091	0.1	-0.27777
25038	1.2937	5.1818	0.1	-0.59189
25039	1.3861	5.0909	0.1	-0.35903
25040	1.2937	5.3636	0.1	-0.7498
25041	1.3861	5.2727	0.1	-0.52794
25042	1.2937	5.5455	0.1	-1.3606
25043	1.3861	5.4545	0.1	-0.70263
25044	1.2937	5.7273	0.1	-3.638
25045	1.3861	5.6364	0.1	-1.8662
25046	1.3861	5.8182	0.1	-18.279
25047	1.2937	5.9091	0.1	-20.229
25048	1.4785	0.27273	0.1	-2.8495
25049	1.5709	0.18182	0.1	-11.844
25050	1.4785	9.0909e-002	0.1	-10.068
25051	1.4785	0.45455	0.1	-1.0035
25052	1.5709	0.36364	0.1	-1.5665
25053	1.4785	0.63636	0.1	-0.42974
25054	1.5709	0.54545	0.1	-0.53183
25055	1.4785	0.81818	0.1	-0.27286
25056	1.5709	0.72727	0.1	-0.37809
25057	1.4785	1.	0.1	-0.15134
25058	1.5709	0.90909	0.1	-0.22282
25059	1.4785	1.1818	0.1	-8.3694e-002
25060	1.5709	1.0909	0.1	-0.1438
25061	1.4785	1.3636	0.1	-4.1976e-002
25062	1.5709	1.2727	0.1	-9.1121e-002
25063	1.4785	1.5455	0.1	-1.8776e-002
25064	1.5709	1.4545	0.1	-6.0969e-002
25065	1.4785	1.7273	0.1	-6.3454e-003
25066	1.5709	1.6364	0.1	-4.3841e-002
25067	1.4785	1.9091	0.1	-2.4902e-004
25068	1.5709	1.8182	0.1	-3.4972e-002
25069	1.4785	2.0909	0.1	2.4299e-003
25070	1.5709	2.	0.1	-3.0799e-002
25071	1.4785	2.2727	0.1	3.3716e-003
25072	1.5709	2.1818	0.1	-2.9192e-002
25073	1.4785	2.4545	0.1	3.5279e-003
25074	1.5709	2.3636	0.1	-2.8847e-002
25075	1.4785	2.6364	0.1	3.4044e-003
25076	1.5709	2.5455	0.1	-2.902e-002
25077	1.4785	2.8182	0.1	3.2554e-003
25078	1.5709	2.7273	0.1	-2.9303e-002
25079	1.4785	3.	0.1	3.195e-003
25080	1.5709	2.9091	0.1	-2.9487e-002
25081	1.4785	3.1818	0.1	3.2554e-003
25082	1.5709	3.0909	0.1	-2.9487e-002
25083	1.4785	3.3636	0.1	3.4044e-003
25084	1.5709	3.2727	0.1	-2.9303e-002
25085	1.4785	3.5455	0.1	3.5279e-003
25086	1.5709	3.4545	0.1	-2.902e-002
25087	1.4785	3.7273	0.1	3.3717e-003
25088	1.5709	3.6364	0.1	-2.8847e-002
25089	1.4785	3.9091	0.1	2.43e-003
25090	1.5709	3.8182	0.1	-2.9192e-002
25091	1.4785	4.0909	0.1	-2.4885e-004
25092	1.5709	4.	0.1	-3.0799e-002
25093	1.4785	4.2727	0.1	-6.3452e-003
25094	1.5709	4.1818	0.1	-3.4972e-002
25095	1.4785	4.4545	0.1	-1.8776e-002
25096	1.5709	4.3636	0.1	-4.3841e-002
25097	1.4785	4.6364	0.1	-4.1976e-002
25098	1.5709	4.5455	0.1	-6.0969e-002
25099	1.4785	4.8182	0.1	-8.3694e-002
25100	1.5709	4.7273	0.1	-9.1121e-002
25101	1.4785	5.	0.1	-0.15134
25102	1.5709	4.9091	0.1	-0.1438
25103	1.4785	5.1818	0.1	-0.27286
25104	1.5709	5.0909	0.1	-0.22282
25105	1.4785	5.3636	0.1	-0.42974
25106	1.5709	5.2727	0.1	-0.37809
25107	1.4785	5.5455	0.1	-1.0035
25108	1.5709	5.4545	0.1	-0.53183
25109	1.4785	5.7273	0.1	-2.8495
25110	1.5709	5.6364	0.1	-1.5665
25111	1.5709	5.8182	0.1	-11.844
25112	1.4785	5.9091	0.1	-10.068
25113	1.6633	0.27273	0.1	-2.3693
25114	1.7557	0.18182	0.1	-7.9715
25115	1.6633	9.0909e-002	0.1	-3.8509
25116	1.6633	0.45455	0.1	-0.93154
25117	1.7557	0.36364	0.1	-1.39
25118	1.6633	0.63636	0.1	-0.43843
25119	1.7557	0.54545	0.1	-0.48681
25120	1.6633	0.81818	0.1	-0.30987
25121	1.7557	0.72727	0.1	-0.3619
25122	1.6633	1.	0.1	-0.20525
25123	1.7557	0.90909	0.1	-0.22671
25124	1.6633	1.1818	0.1	-0.14499
25125	1.7557	1.0909	0.1	-0.15633
25126	1.6633	1.3636	0.1	-0.10598
25127	1.7557	1.2727	0.1	-0.10712
25128	1.6633	1.5455	0.1	-8.3188e-002
25129	1.7557	1.4545	0.1	-7.7335e-002
25130	1.6633	1.7273	0.1	-7.0452e-002
25131	1.7557	1.6364	0.1	-5.9371e-002
25132	1.6633	1.9091	0.1	-6.4057e-002
25133	1.7557	1.8182	0.1	-4.9418e-002
25134	1.6633	2.0909	0.1	-6.1323e-002
25135	1.7557	2.	0.1	-4.4363e-002
25136	1.6633	2.2727	0.1	-6.0556e-002
25137	1.7557	2.1818	0.1	-4.219e-002
25138	1.6633	2.4545	0.1	-6.07e-002
25139	1.7557	2.3636	0.1	-4.1555e-002
25140	1.6633	2.6364	0.1	-6.1131e-002
25141	1.7557	2.5455	0.1	-4.1625e-002
25142	1.6633	2.8182	0.1	-6.1503e-002
25143	1.7557	2.7273	0.1	-4.1895e-002
25144	1.6633	3.	0.1	-6.1643e-002
25145	1.7557	2.9091	0.1	-4.2091e-002
25146	1.6633	3.1818	0.1	-6.1502e-002
25147	1.7557	3.0909	0.1	-4.2091e-002
25148	1.6633	3.3636	0.1	-6.1131e-002
25149	1.7557	3.2727	0.1	-4.1895e-002
25150	1.6633	3.5455	0.1	-6.07e-002
25151	1.7557	3.4545	0.1	-4.1625e-002
25152	1.6633	3.7273	0.1	-6.0556e-002
25153	1.7557	3.6364	0.1	-4.1555e-002
25154	1.6633	3.9091	0.1	-6.1323e-002
25155	1.7557	3.8182	0.1	-4.219e-002
25156	1.6633	4.0909	0.1	-6.4057e-002
25157	1.7557	4.	0.1	-4.4363e-002
25158	1.6633	4.2727	0.1	-7.0452e-002
25159	1.7557	4.1818	0.1	-4.9418e-002
25160	1.6633	4.4545	0.1	-8.3188e-002
25161	1.7557	4.3636	0.1	-5.9371e-002
25162	1.6633	4.6364	0.1	-0.10598
25163	1.7557	4.5455	0.1	-7.7334e-002
25164	1.6633	4.8182	0.1	-0.14499
25165	1.7557	4.7273	0.1	-0.10712
25166	1.6633	5.	0.1	-0.20525
25167	1.7557	4.9091	0.1	-0.15633
25168	1.6633	5.1818	0.1	-0.30987
25169	1.7557	5.0909	0.1	-0.22671
25170	1.6633	5.3636	0.1	-0.43843
25171	1.7557	5.2727	0.1	-0.3619
25172	1.6633	5.5455	0.1	-0.93154
25173	1.7557	5.4545	0.1	-0.48681
25174	1.6633	5.7273	0.1	-2.3693
25175	1.7557	5.6364	0.1	-1.39
25176	1.7557	5.8182	0.1	-7.9715
25177	1.6633	5.9091	0.1	-3.8509
25178	1.8481	0.27273	0.1	-1.96
25179	1.9405	0.18182	0.1	-5.603
25180	1.8481	9.0909e-002	0.1	-1.7991
25181	1.8481	0.45455	0.1	-0.81359
25182	1.9405	0.36364	0.1	-1.2237
25183	1.8481	0.63636	0.1	-0.37563
25184	1.9405	0.54545	0.1	-0.42437
25185	1.8481	0.81818	0.1	-0.26363
25186	1.9405	0.72727	0.1	-0.31954
25187	1.8481	1.	0.1	-0.16943
25188	1.9405	0.90909	0.1	-0.19963
25189	1.8481	1.1818	0.1	-0.11322
25190	1.9405	1.0909	0.1	-0.13599
25191	1.8481	1.3636	0.1	-7.4937e-002
25192	1.9405	1.2727	0.1	-8.9654e-002
25193	1.8481	1.5455	0.1	-5.1023e-002
25194	1.9405	1.4545	0.1	-6.0061e-002
25195	1.8481	1.7273	0.1	-3.652e-002
25196	1.9405	1.6364	0.1	-4.104e-002
25197	1.8481	1.9091	0.1	-2.8366e-002
25198	1.9405	1.8182	0.1	-2.9594e-002
25199	1.8481	2.0909	0.1	-2.4184e-002
25200	1.9405	2.	0.1	-2.3094e-002
25201	1.8481	2.2727	0.1	-2.2356e-002
25202	1.9405	2.1818	0.1	-1.9732e-002
25203	1.8481	2.4545	0.1	-2.179e-002
25204	1.9405	2.3636	0.1	-1.8217e-002
25205	1.8481	2.6364	0.1	-2.1789e-002
25206	1.9405	2.5455	0.1	-1.7692e-002
25207	1.8481	2.8182	0.1	-2.1935e-002
25208	1.9405	2.7273	0.1	-1.7604e-002
25209	1.8481	3.	0.1	-2.2006e-002
25210	1.9405	2.9091	0.1	-1.7634e-002
25211	1.8481	3.1818	0.1	-2.1935e-002
25212	1.9405	3.0909	0.1	-1.7634e-002
25213	1.8481	3.3636	0.1	-2.1789e-002
25214	1.9405	3.2727	0.1	-1.7604e-002
25215	1.8481	3.5455	0.1	-2.179e-002
25216	1.9405	3.4545	0.1	-1.7692e-002
25217	1.8481	3.7273	0.1	-2.2356e-002
25218	1.9405	3.6364	0.1	-1.8217e-002
25219	1.8481	3.9091	0.1	-2.4184e-002
25220	1.9405	3.8182	0.1	-1.9731e-002
25221	1.8481	4.0909	0.1	-2.8366e-002
25222	1.9405	4.	0.1	-2.3094e-002
25223	1.8481	4.2727	0.1	-3.652e-002
25224	1.9405	4.1818	0.1	-2.9594e-002
25225	1.8481	4.4545	0.1	-5.1022e-002
25226	1.9405	4.3636	0.1	-4.104e-002
25227	1.8481	4.6364	0.1	-7.4937e-002
25228	1.9405	4.5455	0.1	-6.006e-002
25229	1.8481	4.8182	0.1	-0.11322
25230	1.9405	4.7273	0.1	-8.9654e-002
25231	1.8481	5.	0.1	-0.16943
25232	1.9405	4.9091	0.1	-0.13599
25233	1.8481	5.1818	0.1	-0.26363
25234	1.9405	5.0909	0.1	-0.19963
25235	1.8481	5.3636	0.1	-0.37563
25236	1.9405	5.2727	0.1	-0.31954
25237	1.8481	5.5455	0.1	-0.81359
25238	1.9405	5.4545	0.1	-0.42437
25239	1.8481	5.7273	0.1	-1.96
25240	1.9405	5.6364	0.1	-1.2237
25241	1.9405	5.8182	0.1	-5.603
25242	1.8481	5.9091	0.1	-1.7991
25243	2.0329	0.27273	0.1	-1.6451
25244	2.1253	0.18182	0.1	-4.1009
25245	2.0329	9.0909e-002	0.1	-1.191
25246	2.0329	0.45455	0.1	-0.72711
25247	2.1253	0.36364	0.1	-1.0871
25248	2.0329	0.63636	0.1	-0.33918
25249	2.1253	0.54545	0.1	-0.37715
25250	2.0329	0.81818	0.1	-0.2428
25251	2.1253	0.72727	0.1	-0.28939
25252	2.0329	1.	0.1	-0.15913
25253	2.1253	0.90909	0.1	-0.18317
25254	2.0329	1.1818	0.1	-0.10798
25255	2.1253	1.0909	0.1	-0.12617
25256	2.0329	1.3636	0.1	-7.1745e-002
25257	2.1253	1.2727	0.1	-8.3299e-002
25258	2.0329	1.5455	0.1	-4.7903e-002
25259	2.1253	1.4545	0.1	-5.4729e-002
25260	2.0329	1.7273	0.1	-3.2496e-002
25261	2.1253	1.6364	0.1	-3.5385e-002
25262	2.0329	1.9091	0.1	-2.3085e-002
25263	2.1253	1.8182	0.1	-2.2948e-002
25264	2.0329	2.0909	0.1	-1.7667e-002
25265	2.1253	2.	0.1	-1.5263e-002
25266	2.0329	2.2727	0.1	-1.48e-002
25267	2.1253	2.1818	0.1	-1.0784e-002
25268	2.0329	2.4545	0.1	-1.3451e-002
25269	2.1253	2.3636	0.1	-8.3497e-003
25270	2.0329	2.6364	0.1	-1.2919e-002
25271	2.1253	2.5455	0.1	-7.1426e-003
25272	2.0329	2.8182	0.1	-1.276e-002
25273	2.1253	2.7273	0.1	-6.6124e-003
25274	2.0329	3.	0.1	-1.2733e-002
25275	2.1253	2.9091	0.1	-6.4257e-003
25276	2.0329	3.1818	0.1	-1.276e-002
25277	2.1253	3.0909	0.1	-6.4257e-003
25278	2.0329	3.3636	0.1	-1.2919e-002
25279	2.1253	3.2727	0.1	-6.6124e-003
25280	2.0329	3.5455	0.1	-1.3451e-002
25281	2.1253	3.4545	0.1	-7.1425e-003
25282	2.0329	3.7273	0.1	-1.48e-002
25283	2.1253	3.6364	0.1	-8.3496e-003
25284	2.0329	3.9091	0.1	-1.7667e-002
25285	2.1253	3.8182	0.1	-1.0784e-002
25286	2.0329	4.0909	0.1	-2.3085e-002
25287	2.1253	4.	0.1	-1.5263e-002
25288	2.0329	4.2727	0.1	-3.2496e-002
25289	2.1253	4.1818	0.1	-2.2948e-002
25290	2.0329	4.4545	0.1	-4.7902e-002
25291	2.1253	4.3636	0.1	-3.5384e-002
25292	2.0329	4.6364	0.1	-7.1745e-002
25293	2.1253	4.5455	0.1	-5.4728e-002
25294	2.0329	4.8182	0.1	-0.10798
25295	2.1253	4.7273	0.1	-8.3299e-002
25296	2.0329	5.	0.1	-0.15913
25297	2.1253	4.9091	0.1	-0.12617
25298	2.0329	5.1818	0.1	-0.2428
25299	2.1253	5.0909	0.1	-0.18317
25300	2.0329	5.3636	0.1	-0.33918
25301	2.1253	5.2727	0.1	-0.28939
25302	2.0329	5.5455	0.1	-0.72711
25303	2.1253	5.4545	0.1	-0.37715
25304	2.0329	5.7273	0.1	-1.6451
25305	2.1253	5.6364	0.1	-1.0871
25306	2.1253	5.8182	0.1	-4.1009
25307	2.0329	5.9091	0.1	-1.191
25308	2.2177	0.27273	0.1	-1.3913
25309	2.3101	0.18182	0.1	-3.1015
25310	2.2177	9.0909e-002	0.1	-0.91741
25311	2.2177	0.45455	0.1	-0.64871
25312	2.3101	0.36364	0.1	-0.96888
25313	2.2177	0.63636	0.1	-0.30267
25314	2.3101	0.54545	0.1	-0.33474
25315	2.2177	0.81818	0.1	-0.2189
25316	2.3101	0.72727	0.1	-0.2607
25317	2.2177	1.	0.1	-0.14419
25318	2.3101	0.90909	0.1	-0.16613
25319	2.2177	1.1818	0.1	-9.7689e-002
25320	2.3101	1.0909	0.1	-0.11506
25321	2.2177	1.3636	0.1	-6.3671e-002
25322	2.3101	1.2727	0.1	-7.5615e-002
25323	2.2177	1.5455	0.1	-4.0314e-002
25324	2.3101	1.4545	0.1	-4.8423e-002
25325	2.2177	1.7273	0.1	-2.4404e-002
25326	2.3101	1.6364	0.1	-2.9209e-002
25327	2.2177	1.9091	0.1	-1.4011e-002
25328	2.3101	1.8182	0.1	-1.6176e-002
25329	2.2177	2.0909	0.1	-7.4848e-003
25330	2.3101	2.	0.1	-7.5772e-003
25331	2.2177	2.2727	0.1	-3.5926e-003
25332	2.3101	2.1818	0.1	-2.1286e-003
25333	2.2177	2.4545	0.1	-1.4068e-003
25334	2.3101	2.3636	0.1	1.1732e-003
25335	2.2177	2.6364	0.1	-2.7079e-004
25336	2.3101	2.5455	0.1	3.0641e-003
25337	2.2177	2.8182	0.1	2.4872e-004
25338	2.3101	2.7273	0.1	4.0589e-003
25339	2.2177	3.	0.1	3.9572e-004
25340	2.3101	2.9091	0.1	4.4792e-003
25341	2.2177	3.1818	0.1	2.4876e-004
25342	2.3101	3.0909	0.1	4.4793e-003
25343	2.2177	3.3636	0.1	-2.7072e-004
25344	2.3101	3.2727	0.1	4.0589e-003
25345	2.2177	3.5455	0.1	-1.4066e-003
25346	2.3101	3.4545	0.1	3.0642e-003
25347	2.2177	3.7273	0.1	-3.5924e-003
25348	2.3101	3.6364	0.1	1.1734e-003
25349	2.2177	3.9091	0.1	-7.4846e-003
25350	2.3101	3.8182	0.1	-2.1284e-003
25351	2.2177	4.0909	0.1	-1.401e-002
25352	2.3101	4.	0.1	-7.5769e-003
25353	2.2177	4.2727	0.1	-2.4404e-002
25354	2.3101	4.1818	0.1	-1.6176e-002
25355	2.2177	4.4545	0.1	-4.0314e-002
25356	2.3101	4.3636	0.1	-2.9209e-002
25357	2.2177	4.6364	0.1	-6.367e-002
25358	2.3101	4.5455	0.1	-4.8423e-002
25359	2.2177	4.8182	0.1	-9.7688e-002
25360	2.3101	4.7273	0.1	-7.5615e-002
25361	2.2177	5.	0.1	-0.14419
25362	2.3101	4.9091	0.1	-0.11506
25363	2.2177	5.1818	0.1	-0.2189
25364	2.3101	5.0909	0.1	-0.16613
25365	2.2177	5.3636	0.1	-0.30267
25366	2.3101	5.2727	0.1	-0.2607
25367	2.2177	5.5455	0.1	-0.64871
25368	2.3101	5.4545	0.1	-0.33474
25369	2.2177	5.7273	0.1	-1.3913
25370	2.3101	5.6364	0.1	-0.96888
25371	2.3101	5.8182	0.1	-3.1015
25372	2.2177	5.9091	0.1	-0.91741
25373	2.4025	0.27273	0.1	-1.1867
25374	2.4949	0.18182	0.1	-2.4081
25375	2.4025	9.0909e-002	0.1	-0.75825
25376	2.4025	0.45455	0.1	-0.5814
25377	2.4949	0.36364	0.1	-0.86705
25378	2.4025	0.63636	0.1	-0.27164
25379	2.4949	0.54545	0.1	-0.29823
25380	2.4025	0.81818	0.1	-0.19859
25381	2.4949	0.72727	0.1	-0.2355
25382	2.4025	1.	0.1	-0.13182
25383	2.4949	0.90909	0.1	-0.15104
25384	2.4025	1.1818	0.1	-8.9707e-002
25385	2.4949	1.0909	0.1	-0.10528
25386	2.4025	1.3636	0.1	-5.8106e-002
25387	2.4949	1.2727	0.1	-6.9183e-002
25388	2.4025	1.5455	0.1	-3.5662e-002
25389	2.4949	1.4545	0.1	-4.362e-002
25390	2.4025	1.7273	0.1	-1.9716e-002
25391	2.4949	1.6364	0.1	-2.4926e-002
25392	2.4025	1.9091	0.1	-8.7434e-003
25393	2.4949	1.8182	0.1	-1.1696e-002
25394	2.4025	2.0909	0.1	-1.4063e-003
25395	2.4949	2.	0.1	-2.5162e-003
25396	2.4025	2.2727	0.1	3.3216e-003
25397	2.4949	2.1818	0.1	3.6569e-003
25398	2.4025	2.4545	0.1	6.2383e-003
25399	2.4949	2.3636	0.1	7.666e-003
25400	2.4025	2.6364	0.1	7.9288e-003
25401	2.4949	2.5455	0.1	1.0147e-002
25402	2.4025	2.8182	0.1	8.7908e-003
25403	2.4949	2.7273	0.1	1.1558e-002
25404	2.4025	3.	0.1	9.0534e-003
25405	2.4949	2.9091	0.1	1.2193e-002
25406	2.4025	3.1818	0.1	8.7909e-003
25407	2.4949	3.0909	0.1	1.2193e-002
25408	2.4025	3.3636	0.1	7.9289e-003
25409	2.4949	3.2727	0.1	1.1558e-002
25410	2.4025	3.5455	0.1	6.2384e-003
25411	2.4949	3.4545	0.1	1.0147e-002
25412	2.4025	3.7273	0.1	3.3218e-003
25413	2.4949	3.6364	0.1	7.6662e-003
25414	2.4025	3.9091	0.1	-1.4061e-003
25415	2.4949	3.8182	0.1	3.6571e-003
25416	2.4025	4.0909	0.1	-8.7431e-003
25417	2.4949	4.	0.1	-2.516e-003
25418	2.4025	4.2727	0.1	-1.9716e-002
25419	2.4949	4.1818	0.1	-1.1695e-002
25420	2.4025	4.4545	0.1	-3.5662e-002
25421	2.4949	4.3636	0.1	-2.4925e-002
25422	2.4025	4.6364	0.1	-5.8106e-002
25423	2.4949	4.5455	0.1	-4.3619e-002
25424	2.4025	4.8182	0.1	-8.9706e-002
25425	2.4949	4.7273	0.1	-6.9183e-002
25426	2.4025	5.	0.1	-0.13182
25427	2.4949	4.9091	0.1	-0.10528
25428	2.4025	5.1818	0.1	-0.19859
25429	2.4949	5.0909	0.1	-0.15104
25430	2.4025	5.3636	0.1	-0.27164
25431	2.4949	5.2727	0.1	-0.2355
25432	2.4025	5.5455	0.1	-0.5814
25433	2.4949	5.4545	0.1	-0.29823
25434	2.4025	5.7273	0.1	-1.1867
25435	2.4949	5.6364	0.1	-0.86705
25436	2.4949	5.8182	0.1	-2.4081
25437	2.4025	5.9091	0.1	-0.75825
25438	2.5873	0.27273	0.1	-1.0193
25439	2.6797	0.18182	0.1	-1.9094
25440	2.5873	9.0909e-002	0.1	-0.65067
25441	2.5873	0.45455	0.1	-0.52221
25442	2.6797	0.36364	0.1	-0.77835
25443	2.5873	0.63636	0.1	-0.24388
25444	2.6797	0.54545	0.1	-0.26619
25445	2.5873	0.81818	0.1	-0.17986
25446	2.6797	0.72727	0.1	-0.2128
25447	2.5873	1.	0.1	-0.12001
25448	2.6797	0.90909	0.1	-0.1371
25449	2.5873	1.1818	0.1	-8.1909e-002
25450	2.6797	1.0909	0.1	-9.6043e-002
25451	2.5873	1.3636	0.1	-5.2727e-002
25452	2.6797	1.2727	0.1	-6.3097e-002
25453	2.5873	1.5455	0.1	-3.1433e-002
25454	2.6797	1.4545	0.1	-3.9264e-002
25455	2.5873	1.7273	0.1	-1.5788e-002
25456	2.6797	1.6364	0.1	-2.1348e-002
25457	2.5873	1.9091	0.1	-4.5758e-003
25458	2.6797	1.8182	0.1	-8.2344e-003
25459	2.5873	2.0909	0.1	3.2832e-003
25460	2.6797	2.	0.1	1.225e-003
25461	2.5873	2.2727	0.1	8.6275e-003
25462	2.6797	2.1818	0.1	7.8727e-003
25463	2.5873	2.4545	0.1	1.2124e-002
25464	2.6797	2.3636	0.1	1.2401e-002
25465	2.5873	2.6364	0.1	1.4276e-002
25466	2.6797	2.5455	0.1	1.5343e-002
25467	2.5873	2.8182	0.1	1.5431e-002
25468	2.6797	2.7273	0.1	1.7093e-002
25469	2.5873	3.	0.1	1.5794e-002
25470	2.6797	2.9091	0.1	1.7905e-002
25471	2.5873	3.1818	0.1	1.5431e-002
25472	2.6797	3.0909	0.1	1.7905e-002
25473	2.5873	3.3636	0.1	1.4276e-002
25474	2.6797	3.2727	0.1	1.7093e-002
25475	2.5873	3.5455	0.1	1.2125e-002
25476	2.6797	3.4545	0.1	1.5343e-002
25477	2.5873	3.7273	0.1	8.6277e-003
25478	2.6797	3.6364	0.1	1.2401e-002
25479	2.5873	3.9091	0.1	3.2835e-003
25480	2.6797	3.8182	0.1	7.8729e-003
25481	2.5873	4.0909	0.1	-4.5755e-003
25482	2.6797	4.	0.1	1.2252e-003
25483	2.5873	4.2727	0.1	-1.5787e-002
25484	2.6797	4.1818	0.1	-8.2341e-003
25485	2.5873	4.4545	0.1	-3.1433e-002
25486	2.6797	4.3636	0.1	-2.1348e-002
25487	2.5873	4.6364	0.1	-5.2727e-002
25488	2.6797	4.5455	0.1	-3.9263e-002
25489	2.5873	4.8182	0.1	-8.1908e-002
25490	2.6797	4.7273	0.1	-6.3097e-002
25491	2.5873	5.	0.1	-0.12001
25492	2.6797	4.9091	0.1	-9.6043e-002
25493	2.5873	5.1818	0.1	-0.17986
25494	2.6797	5.0909	0.1	-0.1371
25495	2.5873	5.3636	0.1	-0.24388
25496	2.6797	5.2727	0.1	-0.2128
25497	2.5873	5.5455	0.1	-0.52221
25498	2.6797	5.4545	0.1	-0.26619
25499	2.5873	5.7273	0.1	-1.0193
25500	2.6797	5.6364	0.1	-0.77835
25501	2.6797	5.8182	0.1	-1.9094
25502	2.5873	5.9091	0.1	-0.65067
25503	2.7722	0.27273	0.1	-0.88115
25504	2.8646	0.18182	0.1	-1.5399
25505	2.7722	9.0909e-002	0.1	-0.57115
25506	2.7722	0.45455	0.1	-0.47017
25507	2.8646	0.36364	0.1	-0.70068
25508	2.7722	0.63636	0.1	-0.21932
25509	2.8646	0.54545	0.1	-0.23807
25510	2.7722	0.81818	0.1	-0.16298
25511	2.8646	0.72727	0.1	-0.19245
25512	2.7722	1.	0.1	-0.10921
25513	2.8646	0.90909	0.1	-0.12441
25514	2.7722	1.1818	0.1	-7.4745e-002
25515	2.8646	1.0909	0.1	-8.751e-002
25516	2.7722	1.3636	0.1	-4.791e-002
25517	2.8646	1.2727	0.1	-5.7485e-002
25518	2.7722	1.5455	0.1	-2.7905e-002
25519	2.8646	1.4545	0.1	-3.5398e-002
25520	2.7722	1.7273	0.1	-1.2807e-002
25521	2.8646	1.6364	0.1	-1.8424e-002
25522	2.7722	1.9091	0.1	-1.6376e-003
25523	2.8646	1.8182	0.1	-5.6638e-003
25524	2.7722	2.0909	0.1	6.4773e-003
25525	2.8646	2.	0.1	3.8243e-003
25526	2.7722	2.2727	0.1	1.2215e-002
25527	2.8646	2.1818	0.1	1.0717e-002
25528	2.7722	2.4545	0.1	1.6124e-002
25529	2.8646	2.3636	0.1	1.5577e-002
25530	2.7722	2.6364	0.1	1.8621e-002
25531	2.8646	2.5455	0.1	1.8842e-002
25532	2.7722	2.8182	0.1	2.0003e-002
25533	2.8646	2.7273	0.1	2.084e-002
25534	2.7722	3.	0.1	2.0445e-002
25535	2.8646	2.9091	0.1	2.1785e-002
25536	2.7722	3.1818	0.1	2.0004e-002
25537	2.8646	3.0909	0.1	2.1785e-002
25538	2.7722	3.3636	0.1	1.8622e-002
25539	2.8646	3.2727	0.1	2.084e-002
25540	2.7722	3.5455	0.1	1.6124e-002
25541	2.8646	3.4545	0.1	1.8842e-002
25542	2.7722	3.7273	0.1	1.2216e-002
25543	2.8646	3.6364	0.1	1.5578e-002
25544	2.7722	3.9091	0.1	6.4775e-003
25545	2.8646	3.8182	0.1	1.0718e-002
25546	2.7722	4.0909	0.1	-1.6374e-003
25547	2.8646	4.	0.1	3.8245e-003
25548	2.7722	4.2727	0.1	-1.2806e-002
25549	2.8646	4.1818	0.1	-5.6635e-003
25550	2.7722	4.4545	0.1	-2.7904e-002
25551	2.8646	4.3636	0.1	-1.8424e-002
25552	2.7722	4.6364	0.1	-4.791e-002
25553	2.8646	4.5455	0.1	-3.5397e-002
25554	2.7722	4.8182	0.1	-7.4744e-002
25555	2.8646	4.7273	0.1	-5.7485e-002
25556	2.7722	5.	0.1	-0.10921
25557	2.8646	4.9091	0.1	-8.751e-002
25558	2.7722	5.1818	0.1	-0.16298
25559	2.8646	5.0909	0.1	-0.1244
25560	2.7722	5.3636	0.1	-0.21932
25561	2.8646	5.2727	0.1	-0.19245
25562	2.7722	5.5455	0.1	-0.47017
25563	2.8646	5.4545	0.1	-0.23807
25564	2.7722	5.7273	0.1	-0.88115
25565	2.8646	5.6364	0.1	-0.70068
25566	2.8646	5.8182	0.1	-1.5399
25567	2.7722	5.9091	0.1	-0.57115
25568	2.957	0.27273	0.1	-0.76601
25569	3.0494	0.18182	0.1	-1.2596
25570	2.957	9.0909e-002	0.1	-0.50876
25571	2.957	0.45455	0.1	-0.42413
25572	3.0494	0.36364	0.1	-0.63223
25573	2.957	0.63636	0.1	-0.19743
25574	3.0494	0.54545	0.1	-0.21327
25575	2.957	0.81818	0.1	-0.14768
25576	3.0494	0.72727	0.1	-0.17416
25577	2.957	1.	0.1	-9.9256e-002
25578	3.0494	0.90909	0.1	-0.11283
25579	2.957	1.1818	0.1	-6.8064e-002
25580	3.0494	1.0909	0.1	-7.9617e-002
25581	2.957	1.3636	0.1	-4.3456e-002
25582	3.0494	1.2727	0.1	-5.2274e-002
25583	2.957	1.5455	0.1	-2.4794e-002
25584	3.0494	1.4545	0.1	-3.1891e-002
25585	2.957	1.7273	0.1	-1.0406e-002
25586	3.0494	1.6364	0.1	-1.5949e-002
25587	2.957	1.9091	0.1	5.0785e-004
25588	3.0494	1.8182	0.1	-3.7064e-003
25589	2.957	2.0909	0.1	8.6598e-003
25590	3.0494	2.	0.1	5.6156e-003
25591	2.957	2.2727	0.1	1.4595e-002
25592	3.0494	2.1818	0.1	1.2563e-002
25593	2.957	2.4545	0.1	1.8756e-002
25594	3.0494	2.3636	0.1	1.7589e-002
25595	2.957	2.6364	0.1	2.1484e-002
25596	3.0494	2.5455	0.1	2.1046e-002
25597	2.957	2.8182	0.1	2.3024e-002
25598	3.0494	2.7273	0.1	2.3204e-002
25599	2.957	3.	0.1	2.3522e-002
25600	3.0494	2.9091	0.1	2.4239e-002
25601	2.957	3.1818	0.1	2.3024e-002
25602	3.0494	3.0909	0.1	2.4239e-002
25603	2.957	3.3636	0.1	2.1484e-002
25604	3.0494	3.2727	0.1	2.3204e-002
25605	2.957	3.5455	0.1	1.8756e-002
25606	3.0494	3.4545	0.1	2.1047e-002
25607	2.957	3.7273	0.1	1.4595e-002
25608	3.0494	3.6364	0.1	1.7589e-002
25609	2.957	3.9091	0.1	8.6601e-003
25610	3.0494	3.8182	0.1	1.2563e-002
25611	2.957	4.0909	0.1	5.0818e-004
25612	3.0494	4.	0.1	5.6159e-003
25613	2.957	4.2727	0.1	-1.0405e-002
25614	3.0494	4.1818	0.1	-3.706e-003
25615	2.957	4.4545	0.1	-2.4793e-002
25616	3.0494	4.3636	0.1	-1.5948e-002
25617	2.957	4.6364	0.1	-4.3455e-002
25618	3.0494	4.5455	0.1	-3.1891e-002
25619	2.957	4.8182	0.1	-6.8064e-002
25620	3.0494	4.7273	0.1	-5.2273e-002
25621	2.957	5.	0.1	-9.9255e-002
25622	3.0494	4.9091	0.1	-7.9616e-002
25623	2.957	5.1818	0.1	-0.14768
25624	3.0494	5.0909	0.1	-0.11283
25625	2.957	5.3636	0.1	-0.19743
25626	3.0494	5.2727	0.1	-0.17416
25627	2.957	5.5455	0.1	-0.42413
25628	3.0494	5.4545	0.1	-0.21327
25629	2.957	5.7273	0.1	-0.76601
25630	3.0494	5.6364	0.1	-0.63223
25631	3.0494	5.8182	0.1	-1.2596
25632	2.957	5.9091	0.1	-0.50876
25633	3.1418	0.27273	0.1	-0.66925
25634	3.2342	0.18182	0.1	-1.0425
25635	3.1418	9.0909e-002	0.1	-0.45779
25636	3.1418	0.45455	0.1	-0.38325
25637	3.2342	0.36364	0.1	-0.57163
25638	3.1418	0.63636	0.1	-0.17793
25639	3.2342	0.54545	0.1	-0.19136
25640	3.1418	0.81818	0.1	-0.13384
25641	3.2342	0.72727	0.1	-0.15771
25642	3.1418	1.	0.1	-9.0142e-002
25643	3.2342	0.90909	0.1	-0.10231
25644	3.1418	1.1818	0.1	-6.1895e-002
25645	3.2342	1.0909	0.1	-7.2364e-002
25646	3.1418	1.3636	0.1	-3.9368e-002
25647	3.2342	1.2727	0.1	-4.7471e-002
25648	3.1418	1.5455	0.1	-2.2051e-002
25649	3.2342	1.4545	0.1	-2.8719e-002
25650	3.1418	1.7273	0.1	-8.4717e-003
25651	3.2342	1.6364	0.1	-1.3844e-002
25652	3.1418	1.9091	0.1	2.0346e-003
25653	3.2342	1.8182	0.1	-2.2264e-003
25654	3.1418	2.0909	0.1	1.0053e-002
25655	3.2342	2.	0.1	6.787e-003
25656	3.1418	2.2727	0.1	1.6022e-002
25657	3.2342	2.1818	0.1	1.3639e-002
25658	3.1418	2.4545	0.1	2.0297e-002
25659	3.2342	2.3636	0.1	1.8693e-002
25660	3.1418	2.6364	0.1	2.3154e-002
25661	3.2342	2.5455	0.1	2.2232e-002
25662	3.1418	2.8182	0.1	2.4788e-002
25663	3.2342	2.7273	0.1	2.4473e-002
25664	3.1418	3.	0.1	2.532e-002
25665	3.2342	2.9091	0.1	2.5558e-002
25666	3.1418	3.1818	0.1	2.4789e-002
25667	3.2342	3.0909	0.1	2.5558e-002
25668	3.1418	3.3636	0.1	2.3154e-002
25669	3.2342	3.2727	0.1	2.4473e-002
25670	3.1418	3.5455	0.1	2.0298e-002
25671	3.2342	3.4545	0.1	2.2232e-002
25672	3.1418	3.7273	0.1	1.6023e-002
25673	3.2342	3.6364	0.1	1.8693e-002
25674	3.1418	3.9091	0.1	1.0054e-002
25675	3.2342	3.8182	0.1	1.3639e-002
25676	3.1418	4.0909	0.1	2.035e-003
25677	3.2342	4.	0.1	6.7874e-003
25678	3.1418	4.2727	0.1	-8.4713e-003
25679	3.2342	4.1818	0.1	-2.2261e-003
25680	3.1418	4.4545	0.1	-2.2051e-002
25681	3.2342	4.3636	0.1	-1.3843e-002
25682	3.1418	4.6364	0.1	-3.9368e-002
25683	3.2342	4.5455	0.1	-2.8719e-002
25684	3.1418	4.8182	0.1	-6.1894e-002
25685	3.2342	4.7273	0.1	-4.747e-002
25686	3.1418	5.	0.1	-9.0141e-002
25687	3.2342	4.9091	0.1	-7.2364e-002
25688	3.1418	5.1818	0.1	-0.13384
25689	3.2342	5.0909	0.1	-0.10231
25690	3.1418	5.3636	0.1	-0.17793
25691	3.2342	5.2727	0.1	-0.15771
25692	3.1418	5.5455	0.1	-0.38325
25693	3.2342	5.4545	0.1	-0.19136
25694	3.1418	5.7273	0.1	-0.66925
25695	3.2342	5.6364	0.1	-0.57162
25696	3.2342	5.8182	0.1	-1.0425
25697	3.1418	5.9091	0.1	-0.45779
25698	3.3266	0.27273	0.1	-0.58733
25699	3.419	0.18182	0.1	-0.87154
25700	3.3266	9.0909e-002	0.1	-0.41495
25701	3.3266	0.45455	0.1	-0.34682
25702	3.419	0.36364	0.1	-0.51771
25703	3.3266	0.63636	0.1	-0.16051
25704	3.419	0.54545	0.1	-0.17193
25705	3.3266	0.81818	0.1	-0.12133
25706	3.419	0.72727	0.1	-0.1429
25707	3.3266	1.	0.1	-8.1828e-002
25708	3.419	0.90909	0.1	-9.2763e-002
25709	3.3266	1.1818	0.1	-5.6228e-002
25710	3.419	1.0909	0.1	-6.5728e-002
25711	3.3266	1.3636	0.1	-3.5632e-002
25712	3.419	1.2727	0.1	-4.3066e-002
25713	3.3266	1.5455	0.1	-1.9628e-002
25714	3.419	1.4545	0.1	-2.5853e-002
25715	3.3266	1.7273	0.1	-6.9063e-003
25716	3.419	1.6364	0.1	-1.2044e-002
25717	3.3266	1.9091	0.1	3.0916e-003
25718	3.419	1.8182	0.1	-1.1131e-003
25719	3.3266	2.0909	0.1	1.0852e-002
25720	3.419	2.	0.1	7.494e-003
25721	3.3266	2.2727	0.1	1.6729e-002
25722	3.419	2.1818	0.1	1.4139e-002
25723	3.3266	2.4545	0.1	2.1006e-002
25724	3.419	2.3636	0.1	1.9114e-002
25725	3.3266	2.6364	0.1	2.3903e-002
25726	3.419	2.5455	0.1	2.2646e-002
25727	3.3266	2.8182	0.1	2.5579e-002
25728	3.419	2.7273	0.1	2.4906e-002
25729	3.3266	3.	0.1	2.6127e-002
25730	3.419	2.9091	0.1	2.6008e-002
25731	3.3266	3.1818	0.1	2.5579e-002
25732	3.419	3.0909	0.1	2.6008e-002
25733	3.3266	3.3636	0.1	2.3904e-002
25734	3.419	3.2727	0.1	2.4906e-002
25735	3.3266	3.5455	0.1	2.1006e-002
25736	3.419	3.4545	0.1	2.2646e-002
25737	3.3266	3.7273	0.1	1.6729e-002
25738	3.419	3.6364	0.1	1.9114e-002
25739	3.3266	3.9091	0.1	1.0852e-002
25740	3.419	3.8182	0.1	1.4139e-002
25741	3.3266	4.0909	0.1	3.0919e-003
25742	3.419	4.	0.1	7.4943e-003
25743	3.3266	4.2727	0.1	-6.9059e-003
25744	3.419	4.1818	0.1	-1.1127e-003
25745	3.3266	4.4545	0.1	-1.9627e-002
25746	3.419	4.3636	0.1	-1.2043e-002
25747	3.3266	4.6364	0.1	-3.5632e-002
25748	3.419	4.5455	0.1	-2.5853e-002
25749	3.3266	4.8182	0.1	-5.6227e-002
25750	3.419	4.7273	0.1	-4.3065e-002
25751	3.3266	5.	0.1	-8.1827e-002
25752	3.419	4.9091	0.1	-6.5728e-002
25753	3.3266	5.1818	0.1	-0.12133
25754	3.419	5.0909	0.1	-9.2762e-002
25755	3.3266	5.3636	0.1	-0.16051
25756	3.419	5.2727	0.1	-0.1429
25757	3.3266	5.5455	0.1	-0.34682
25758	3.419	5.4545	0.1	-0.17193
25759	3.3266	5.7273	0.1	-0.58733
25760	3.419	5.6364	0.1	-0.51771
25761	3.419	5.8182	0.1	-0.87154
25762	3.3266	5.9091	0.1	-0.41495
25763	3.5114	0.27273	0.1	-0.51749
25764	3.6038	0.18182	0.1	-0.7351
25765	3.5114	9.0909e-002	0.1	-0.37817
25766	3.5114	0.45455	0.1	-0.31425
25767	3.6038	0.36364	0.1	-0.46957
25768	3.5114	0.63636	0.1	-0.14493
25769	3.6038	0.54545	0.1	-0.15468
25770	3.5114	0.81818	0.1	-0.11003
25771	3.6038	0.72727	0.1	-0.12956
25772	3.5114	1.	0.1	-7.426e-002
25773	3.6038	0.90909	0.1	-8.4124e-002
25774	3.5114	1.1818	0.1	-5.1042e-002
25775	3.6038	1.0909	0.1	-5.9683e-002
25776	3.5114	1.3636	0.1	-3.2228e-002
25777	3.6038	1.2727	0.1	-3.9051e-002
25778	3.5114	1.5455	0.1	-1.7482e-002
25779	3.6038	1.4545	0.1	-2.3278e-002
25780	3.5114	1.7273	0.1	-5.6328e-003
25781	3.6038	1.6364	0.1	-1.0508e-002
25782	3.5114	1.9091	0.1	3.7951e-003
25783	3.6038	1.8182	0.1	-2.9221e-004
25784	3.5114	2.0909	0.1	1.1211e-002
25785	3.6038	2.	0.1	7.8465e-003
25786	3.5114	2.2727	0.1	1.6902e-002
25787	3.6038	2.1818	0.1	1.4206e-002
25788	3.5114	2.4545	0.1	2.1095e-002
25789	3.6038	2.3636	0.1	1.9024e-002
25790	3.5114	2.6364	0.1	2.3966e-002
25791	3.6038	2.5455	0.1	2.2479e-002
25792	3.5114	2.8182	0.1	2.5639e-002
25793	3.6038	2.7273	0.1	2.4709e-002
25794	3.5114	3.	0.1	2.6189e-002
25795	3.6038	2.9091	0.1	2.5801e-002
25796	3.5114	3.1818	0.1	2.564e-002
25797	3.6038	3.0909	0.1	2.5801e-002
25798	3.5114	3.3636	0.1	2.3966e-002
25799	3.6038	3.2727	0.1	2.4709e-002
25800	3.5114	3.5455	0.1	2.1096e-002
25801	3.6038	3.4545	0.1	2.2479e-002
25802	3.5114	3.7273	0.1	1.6902e-002
25803	3.6038	3.6364	0.1	1.9024e-002
25804	3.5114	3.9091	0.1	1.1211e-002
25805	3.6038	3.8182	0.1	1.4207e-002
25806	3.5114	4.0909	0.1	3.7954e-003
25807	3.6038	4.	0.1	7.8468e-003
25808	3.5114	4.2727	0.1	-5.6324e-003
25809	3.6038	4.1818	0.1	-2.9181e-004
25810	3.5114	4.4545	0.1	-1.7481e-002
25811	3.6038	4.3636	0.1	-1.0507e-002
25812	3.5114	4.6364	0.1	-3.2227e-002
25813	3.6038	4.5455	0.1	-2.3277e-002
25814	3.5114	4.8182	0.1	-5.1041e-002
25815	3.6038	4.7273	0.1	-3.905e-002
25816	3.5114	5.	0.1	-7.4259e-002
25817	3.6038	4.9091	0.1	-5.9683e-002
25818	3.5114	5.1818	0.1	-0.11003
25819	3.6038	5.0909	0.1	-8.4123e-002
25820	3.5114	5.3636	0.1	-0.14493
25821	3.6038	5.2727	0.1	-0.12956
25822	3.5114	5.5455	0.1	-0.31425
25823	3.6038	5.4545	0.1	-0.15468
25824	3.5114	5.7273	0.1	-0.51749
25825	3.6038	5.6364	0.1	-0.46956
25826	3.6038	5.8182	0.1	-0.7351
25827	3.5114	5.9091	0.1	-0.37817
25828	3.6962	0.27273	0.1	-0.4576
25829	3.7886	0.18182	0.1	-0.62491
25830	3.6962	9.0909e-002	0.1	-0.34613
25831	3.6962	0.45455	0.1	-0.28506
25832	3.7886	0.36364	0.1	-0.42642
25833	3.6962	0.63636	0.1	-0.13099
25834	3.7886	0.54545	0.1	-0.13932
25835	3.6962	0.81818	0.1	-9.9829e-002
25836	3.7886	0.72727	0.1	-0.11755
25837	3.6962	1.	0.1	-6.7403e-002
25838	3.7886	0.90909	0.1	-7.6312e-002
25839	3.6962	1.1818	0.1	-4.6331e-002
25840	3.7886	1.0909	0.1	-5.4193e-002
25841	3.6962	1.3636	0.1	-2.9155e-002
25842	3.7886	1.2727	0.1	-3.5407e-002
25843	3.6962	1.5455	0.1	-1.56e-002
25844	3.7886	1.4545	0.1	-2.0972e-002
25845	3.6962	1.7273	0.1	-4.6149e-003
25846	3.7886	1.6364	0.1	-9.2004e-003
25847	3.6962	1.9091	0.1	4.212e-003
25848	3.7886	1.8182	0.1	2.9596e-004
25849	3.6962	2.0909	0.1	1.1228e-002
25850	3.7886	2.	0.1	7.932e-003
25851	3.6962	2.2727	0.1	1.6668e-002
25852	3.7886	2.1818	0.1	1.3956e-002
25853	3.6962	2.4545	0.1	2.0716e-002
25854	3.7886	2.3636	0.1	1.8561e-002
25855	3.6962	2.6364	0.1	2.3509e-002
25856	3.7886	2.5455	0.1	2.1891e-002
25857	3.6962	2.8182	0.1	2.5146e-002
25858	3.7886	2.7273	0.1	2.4052e-002
25859	3.6962	3.	0.1	2.5686e-002
25860	3.7886	2.9091	0.1	2.5116e-002
25861	3.6962	3.1818	0.1	2.5147e-002
25862	3.7886	3.0909	0.1	2.5116e-002
25863	3.6962	3.3636	0.1	2.3509e-002
25864	3.7886	3.2727	0.1	2.4052e-002
25865	3.6962	3.5455	0.1	2.0716e-002
25866	3.7886	3.4545	0.1	2.1891e-002
25867	3.6962	3.7273	0.1	1.6668e-002
25868	3.7886	3.6364	0.1	1.8562e-002
25869	3.6962	3.9091	0.1	1.1228e-002
25870	3.7886	3.8182	0.1	1.3956e-002
25871	3.6962	4.0909	0.1	4.2124e-003
25872	3.7886	4.	0.1	7.9325e-003
25873	3.6962	4.2727	0.1	-4.6145e-003
25874	3.7886	4.1818	0.1	2.9634e-004
25875	3.6962	4.4545	0.1	-1.56e-002
25876	3.7886	4.3636	0.1	-9.1999e-003
25877	3.6962	4.6364	0.1	-2.9154e-002
25878	3.7886	4.5455	0.1	-2.0972e-002
25879	3.6962	4.8182	0.1	-4.633e-002
25880	3.7886	4.7273	0.1	-3.5407e-002
25881	3.6962	5.	0.1	-6.7402e-002
25882	3.7886	4.9091	0.1	-5.4193e-002
25883	3.6962	5.1818	0.1	-9.9829e-002
25884	3.7886	5.0909	0.1	-7.6311e-002
25885	3.6962	5.3636	0.1	-0.13099
25886	3.7886	5.2727	0.1	-0.11755
25887	3.6962	5.5455	0.1	-0.28506
25888	3.7886	5.4545	0.1	-0.13932
25889	3.6962	5.7273	0.1	-0.4576
25890	3.7886	5.6364	0.1	-0.42642
25891	3.7886	5.8182	0.1	-0.62491
25892	3.6962	5.9091	0.1	-0.34613
25893	3.881	0.27273	0.1	-0.40593
25894	3.9734	0.18182	0.1	-0.53501
25895	3.881	9.0909e-002	0.1	-0.31788
25896	3.881	0.45455	0.1	-0.25881
25897	3.9734	0.36364	0.1	-0.38762
25898	3.881	0.63636	0.1	-0.11847
25899	3.9734	0.54545	0.1	-0.12561
25900	3.881	0.81818	0.1	-9.061e-002
25901	3.9734	0.72727	0.1	-0.1067
25902	3.881	1.	0.1	-6.1184e-002
25903	3.9734	0.90909	0.1	-6.9245e-002
25904	3.881	1.1818	0.1	-4.2051e-002
25905	3.9734	1.0909	0.1	-4.9211e-002
25906	3.881	1.3636	0.1	-2.6378e-002
25907	3.9734	1.2727	0.1	-3.2106e-002
25908	3.881	1.5455	0.1	-1.3943e-002
25909	3.9734	1.4545	0.1	-1.8909e-002
25910	3.881	1.7273	0.1	-3.7952e-003
25911	3.9734	1.6364	0.1	-8.0847e-003
25912	3.881	1.9091	0.1	4.4219e-003
25913	3.9734	1.8182	0.1	7.056e-004
25914	3.881	2.0909	0.1	1.1007e-002
25915	3.9734	2.	0.1	7.8257e-003
25916	3.881	2.2727	0.1	1.6155e-002
25917	3.9734	2.1818	0.1	1.3485e-002
25918	3.881	2.4545	0.1	2.0013e-002
25919	3.9734	2.3636	0.1	1.7842e-002
25920	3.881	2.6364	0.1	2.2693e-002
25921	3.9734	2.5455	0.1	2.1012e-002
25922	3.881	2.8182	0.1	2.4271e-002
25923	3.9734	2.7273	0.1	2.308e-002
25924	3.881	3.	0.1	2.4792e-002
25925	3.9734	2.9091	0.1	2.4101e-002
25926	3.881	3.1818	0.1	2.4271e-002
25927	3.9734	3.0909	0.1	2.4101e-002
25928	3.881	3.3636	0.1	2.2693e-002
25929	3.9734	3.2727	0.1	2.308e-002
25930	3.881	3.5455	0.1	2.0014e-002
25931	3.9734	3.4545	0.1	2.1012e-002
25932	3.881	3.7273	0.1	1.6155e-002
25933	3.9734	3.6364	0.1	1.7842e-002
25934	3.881	3.9091	0.1	1.1007e-002
25935	3.9734	3.8182	0.1	1.3485e-002
25936	3.881	4.0909	0.1	4.4224e-003
25937	3.9734	4.	0.1	7.8262e-003
25938	3.881	4.2727	0.1	-3.7947e-003
25939	3.9734	4.1818	0.1	7.0611e-004
25940	3.881	4.4545	0.1	-1.3942e-002
25941	3.9734	4.3636	0.1	-8.0841e-003
25942	3.881	4.6364	0.1	-2.6378e-002
25943	3.9734	4.5455	0.1	-1.8908e-002
25944	3.881	4.8182	0.1	-4.2051e-002
25945	3.9734	4.7273	0.1	-3.2105e-002
25946	3.881	5.	0.1	-6.1183e-002
25947	3.9734	4.9091	0.1	-4.921e-002
25948	3.881	5.1818	0.1	-9.0609e-002
25949	3.9734	5.0909	0.1	-6.9244e-002
25950	3.881	5.3636	0.1	-0.11847
25951	3.9734	5.2727	0.1	-0.1067
25952	3.881	5.5455	0.1	-0.25881
25953	3.9734	5.4545	0.1	-0.12561
25954	3.881	5.7273	0.1	-0.40593
25955	3.9734	5.6364	0.1	-0.38762
25956	3.9734	5.8182	0.1	-0.535
25957	3.881	5.9091	0.1	-0.31788
25958	4.0658	0.27273	0.1	-0.36114
25959	4.1582	0.18182	0.1	-0.46103
25960	4.0658	9.0909e-002	0.1	-0.29276
25961	4.0658	0.45455	0.1	-0.23516
25962	4.1582	0.36364	0.1	-0.35265
25963	4.0658	0.63636	0.1	-0.10723
25964	4.1582	0.54545	0.1	-0.11335
25965	4.0658	0.81818	0.1	-8.2272e-002
25966	4.1582	0.72727	0.1	-9.6903e-002
25967	4.0658	1.	0.1	-5.5551e-002
25968	4.1582	0.90909	0.1	-6.2858e-002
25969	4.0658	1.1818	0.1	-3.8172e-002
25970	4.1582	1.0909	0.1	-4.4701e-002
25971	4.0658	1.3636	0.1	-2.3877e-002
25972	4.1582	1.2727	0.1	-2.9127e-002
25973	4.0658	1.5455	0.1	-1.2486e-002
25974	4.1582	1.4545	0.1	-1.7073e-002
25975	4.0658	1.7273	0.1	-3.1405e-003
25976	4.1582	1.6364	0.1	-7.1408e-003
25977	4.0658	1.9091	0.1	4.4738e-003
25978	4.1582	1.8182	0.1	9.677e-004
25979	4.0658	2.0909	0.1	1.0615e-002
25980	4.1582	2.	0.1	7.5736e-003
25981	4.0658	2.2727	0.1	1.5447e-002
25982	4.1582	2.1818	0.1	1.2855e-002
25983	4.0658	2.4545	0.1	1.909e-002
25984	4.1582	2.3636	0.1	1.6944e-002
25985	4.0658	2.6364	0.1	2.1632e-002
25986	4.1582	2.5455	0.1	1.9933e-002
25987	4.0658	2.8182	0.1	2.3134e-002
25988	4.1582	2.7273	0.1	2.1891e-002
25989	4.0658	3.	0.1	2.3631e-002
25990	4.1582	2.9091	0.1	2.2859e-002
25991	4.0658	3.1818	0.1	2.3134e-002
25992	4.1582	3.0909	0.1	2.2859e-002
25993	4.0658	3.3636	0.1	2.1632e-002
25994	4.1582	3.2727	0.1	2.1891e-002
25995	4.0658	3.5455	0.1	1.909e-002
25996	4.1582	3.4545	0.1	1.9933e-002
25997	4.0658	3.7273	0.1	1.5447e-002
25998	4.1582	3.6364	0.1	1.6944e-002
25999	4.0658	3.9091	0.1	1.0615e-002
26000	4.1582	3.8182	0.1	1.2856e-002
26001	4.0658	4.0909	0.1	4.4743e-003
26002	4.1582	4.	0.1	7.5741e-003
26003	4.0658	4.2727	0.1	-3.1399e-003
26004	4.1582	4.1818	0.1	9.683e-004
26005	4.0658	4.4545	0.1	-1.2486e-002
26006	4.1582	4.3636	0.1	-7.1403e-003
26007	4.0658	4.6364	0.1	-2.3876e-002
26008	4.1582	4.5455	0.1	-1.7073e-002
26009	4.0658	4.8182	0.1	-3.8172e-002
26010	4.1582	4.7273	0.1	-2.9126e-002
26011	4.0658	5.	0.1	-5.555e-002
26012	4.1582	4.9091	0.1	-4.47e-002
26013	4.0658	5.1818	0.1	-8.2272e-002
26014	4.1582	5.0909	0.1	-6.2857e-002
26015	4.0658	5.3636	0.1	-0.10723
26016	4.1582	5.2727	0.1	-9.6903e-002
26017	4.0658	5.5455	0.1	-0.23516
26018	4.1582	5.4545	0.1	-0.11335
26019	4.0658	5.7273	0.1	-0.36114
26020	4.1582	5.6364	0.1	-0.35265
26021	4.1582	5.8182	0.1	-0.46103
26022	4.0658	5.9091	0.1	-0.29276
26023	4.2506	0.27273	0.1	-0.32214
26024	4.343	0.18182	0.1	-0.39972
26025	4.2506	9.0909e-002	0.1	-0.2703
26026	4.2506	0.45455	0.1	-0.21381
26027	4.343	0.36364	0.1	-0.32105
26028	4.2506	0.63636	0.1	-9.712e-002
26029	4.343	0.54545	0.1	-0.10237
26030	4.2506	0.81818	0.1	-7.4741e-002
26031	4.343	0.72727	0.1	-8.8049e-002
26032	4.2506	1.	0.1	-5.0463e-002
26033	4.343	0.90909	0.1	-5.7088e-002
26034	4.2506	1.1818	0.1	-3.4674e-002
26035	4.343	1.0909	0.1	-4.0626e-002
26036	4.2506	1.3636	0.1	-2.1641e-002
26037	4.343	1.2727	0.1	-2.6447e-002
26038	4.2506	1.5455	0.1	-1.1221e-002
26039	4.343	1.4545	0.1	-1.5447e-002
26040	4.2506	1.7273	0.1	-2.6344e-003
26041	4.343	1.6364	0.1	-6.3487e-003
26042	4.2506	1.9091	0.1	4.3949e-003
26043	4.343	1.8182	0.1	1.1098e-003
26044	4.2506	2.0909	0.1	1.0093e-002
26045	4.343	2.	0.1	7.2138e-003
26046	4.2506	2.2727	0.1	1.4599e-002
26047	4.343	2.1818	0.1	1.2117e-002
26048	4.2506	2.4545	0.1	1.8012e-002
26049	4.343	2.3636	0.1	1.5929e-002
26050	4.2506	2.6364	0.1	2.0402e-002
26051	4.343	2.5455	0.1	1.8726e-002
26052	4.2506	2.8182	0.1	2.1818e-002
26053	4.343	2.7273	0.1	2.0564e-002
26054	4.2506	3.	0.1	2.2287e-002
26055	4.343	2.9091	0.1	2.1475e-002
26056	4.2506	3.1818	0.1	2.1818e-002
26057	4.343	3.0909	0.1	2.1475e-002
26058	4.2506	3.3636	0.1	2.0402e-002
26059	4.343	3.2727	0.1	2.0564e-002
26060	4.2506	3.5455	0.1	1.8012e-002
26061	4.343	3.4545	0.1	1.8726e-002
26062	4.2506	3.7273	0.1	1.46e-002
26063	4.343	3.6364	0.1	1.5929e-002
26064	4.2506	3.9091	0.1	1.0094e-002
26065	4.343	3.8182	0.1	1.2117e-002
26066	4.2506	4.0909	0.1	4.3954e-003
26067	4.343	4.	0.1	7.2142e-003
26068	4.2506	4.2727	0.1	-2.6338e-003
26069	4.343	4.1818	0.1	1.1104e-003
26070	4.2506	4.4545	0.1	-1.122e-002
26071	4.343	4.3636	0.1	-6.3481e-003
26072	4.2506	4.6364	0.1	-2.164e-002
26073	4.343	4.5455	0.1	-1.5446e-002
26074	4.2506	4.8182	0.1	-3.4673e-002
26075	4.343	4.7273	0.1	-2.6447e-002
26076	4.2506	5.	0.1	-5.0462e-002
26077	4.343	4.9091	0.1	-4.0625e-002
26078	4.2506	5.1818	0.1	-7.474e-002
26079	4.343	5.0909	0.1	-5.7087e-002
26080	4.2506	5.3636	0.1	-9.712e-002
26081	4.343	5.2727	0.1	-8.8048e-002
26082	4.2506	5.5455	0.1	-0.21381
26083	4.343	5.4545	0.1	-0.10237
26084	4.2506	5.7273	0.1	-0.32213
26085	4.343	5.6364	0.1	-0.32105
26086	4.343	5.8182	0.1	-0.39972
26087	4.2506	5.9091	0.1	-0.2703
26088	4.4354	0.27273	0.1	-0.28803
26089	4.5278	0.18182	0.1	-0.34859
26090	4.4354	9.0909e-002	0.1	-0.2501
26091	4.4354	0.45455	0.1	-0.19449
26092	4.5278	0.36364	0.1	-0.29244
26093	4.4354	0.63636	0.1	-8.8012e-002
26094	4.5278	0.54545	0.1	-9.2523e-002
26095	4.4354	0.81818	0.1	-6.7927e-002
26096	4.5278	0.72727	0.1	-8.0039e-002
26097	4.4354	1.	0.1	-4.5862e-002
26098	4.5278	0.90909	0.1	-5.1876e-002
26099	4.4354	1.1818	0.1	-3.1517e-002
26100	4.5278	1.0909	0.1	-3.6948e-002
26101	4.4354	1.3636	0.1	-1.964e-002
26102	4.5278	1.2727	0.1	-2.4043e-002
26103	4.4354	1.5455	0.1	-1.0119e-002
26104	4.5278	1.4545	0.1	-1.4011e-002
26105	4.4354	1.7273	0.1	-2.2463e-003
26106	4.5278	1.6364	0.1	-5.6891e-003
26107	4.4354	1.9091	0.1	4.2231e-003
26108	4.5278	1.8182	0.1	1.1553e-003
26109	4.4354	2.0909	0.1	9.4886e-003
26110	4.5278	2.	0.1	6.7767e-003
26111	4.4354	2.2727	0.1	1.3669e-002
26112	4.5278	2.1818	0.1	1.1308e-002
26113	4.4354	2.4545	0.1	1.6846e-002
26114	4.5278	2.3636	0.1	1.4844e-002
26115	4.4354	2.6364	0.1	1.9077e-002
26116	4.5278	2.5455	0.1	1.7446e-002
26117	4.4354	2.8182	0.1	2.0402e-002
26118	4.5278	2.7273	0.1	1.9159e-002
26119	4.4354	3.	0.1	2.0842e-002
26120	4.5278	2.9091	0.1	2.001e-002
26121	4.4354	3.1818	0.1	2.0402e-002
26122	4.5278	3.0909	0.1	2.001e-002
26123	4.4354	3.3636	0.1	1.9077e-002
26124	4.5278	3.2727	0.1	1.9159e-002
26125	4.4354	3.5455	0.1	1.6846e-002
26126	4.5278	3.4545	0.1	1.7446e-002
26127	4.4354	3.7273	0.1	1.3669e-002
26128	4.5278	3.6364	0.1	1.4844e-002
26129	4.4354	3.9091	0.1	9.489e-003
26130	4.5278	3.8182	0.1	1.1309e-002
26131	4.4354	4.0909	0.1	4.2236e-003
26132	4.5278	4.	0.1	6.777e-003
26133	4.4354	4.2727	0.1	-2.2457e-003
26134	4.5278	4.1818	0.1	1.1558e-003
26135	4.4354	4.4545	0.1	-1.0118e-002
26136	4.5278	4.3636	0.1	-5.6885e-003
26137	4.4354	4.6364	0.1	-1.9639e-002
26138	4.5278	4.5455	0.1	-1.401e-002
26139	4.4354	4.8182	0.1	-3.1516e-002
26140	4.5278	4.7273	0.1	-2.4042e-002
26141	4.4354	5.	0.1	-4.5861e-002
26142	4.5278	4.9091	0.1	-3.6947e-002
26143	4.4354	5.1818	0.1	-6.7926e-002
26144	4.5278	5.0909	0.1	-5.1875e-002
26145	4.4354	5.3636	0.1	-8.8012e-002
26146	4.5278	5.2727	0.1	-8.0039e-002
26147	4.4354	5.5455	0.1	-0.19449
26148	4.5278	5.4545	0.1	-9.2523e-002
26149	4.4354	5.7273	0.1	-0.28803
26150	4.5278	5.6364	0.1	-0.29243
26151	4.5278	5.8182	0.1	-0.34859
26152	4.4354	5.9091	0.1	-0.2501
26153	4.6203	0.27273	0.1	-0.2581
26154	4.7127	0.18182	0.1	-0.30572
26155	4.6203	9.0909e-002	0.1	-0.23191
26156	4.6203	0.45455	0.1	-0.177
26157	4.7127	0.36364	0.1	-0.26647
26158	4.6203	0.63636	0.1	-7.9805e-002
26159	4.7127	0.54545	0.1	-8.3674e-002
26160	4.6203	0.81818	0.1	-6.1767e-002
26161	4.7127	0.72727	0.1	-7.2787e-002
26162	4.6203	1.	0.1	-4.1711e-002
26163	4.7127	0.90909	0.1	-4.7166e-002
26164	4.6203	1.1818	0.1	-2.8679e-002
26165	4.7127	1.0909	0.1	-3.363e-002
26166	4.6203	1.3636	0.1	-1.7861e-002
26167	4.7127	1.2727	0.1	-2.1887e-002
26168	4.6203	1.5455	0.1	-9.1707e-003
26169	4.7127	1.4545	0.1	-1.2746e-002
26170	4.6203	1.7273	0.1	-1.9652e-003
26171	4.7127	1.6364	0.1	-5.1443e-003
26172	4.6203	1.9091	0.1	3.9738e-003
26173	4.7127	1.8182	0.1	1.1238e-003
26174	4.6203	2.0909	0.1	8.8228e-003
26175	4.7127	2.	0.1	6.2864e-003
26176	4.6203	2.2727	0.1	1.2684e-002
26177	4.7127	2.1818	0.1	1.046e-002
26178	4.6203	2.4545	0.1	1.5627e-002
26179	4.7127	2.3636	0.1	1.3725e-002
26180	4.6203	2.6364	0.1	1.7699e-002
26181	4.7127	2.5455	0.1	1.6134e-002
26182	4.6203	2.8182	0.1	1.8931e-002
26183	4.7127	2.7273	0.1	1.7722e-002
26184	4.6203	3.	0.1	1.934e-002
26185	4.7127	2.9091	0.1	1.8512e-002
26186	4.6203	3.1818	0.1	1.8931e-002
26187	4.7127	3.0909	0.1	1.8512e-002
26188	4.6203	3.3636	0.1	1.7699e-002
26189	4.7127	3.2727	0.1	1.7722e-002
26190	4.6203	3.5455	0.1	1.5627e-002
26191	4.7127	3.4545	0.1	1.6134e-002
26192	4.6203	3.7273	0.1	1.2684e-002
26193	4.7127	3.6364	0.1	1.3726e-002
26194	4.6203	3.9091	0.1	8.8231e-003
26195	4.7127	3.8182	0.1	1.0461e-002
26196	4.6203	4.0909	0.1	3.9742e-003
26197	4.7127	4.	0.1	6.2868e-003
26198	4.6203	4.2727	0.1	-1.9646e-003
26199	4.7127	4.1818	0.1	1.1243e-003
26200	4.6203	4.4545	0.1	-9.1701e-003
26201	4.7127	4.3636	0.1	-5.1438e-003
26202	4.6203	4.6364	0.1	-1.7861e-002
26203	4.7127	4.5455	0.1	-1.2746e-002
26204	4.6203	4.8182	0.1	-2.8678e-002
26205	4.7127	4.7273	0.1	-2.1887e-002
26206	4.6203	5.	0.1	-4.171e-002
26207	4.7127	4.9091	0.1	-3.3629e-002
26208	4.6203	5.1818	0.1	-6.1766e-002
26209	4.7127	5.0909	0.1	-4.7165e-002
26210	4.6203	5.3636	0.1	-7.9804e-002
26211	4.7127	5.2727	0.1	-7.2787e-002
26212	4.6203	5.5455	0.1	-0.177
26213	4.7127	5.4545	0.1	-8.3673e-002
26214	4.6203	5.7273	0.1	-0.2581
26215	4.7127	5.6364	0.1	-0.26647
26216	4.7127	5.8182	0.1	-0.30572
26217	4.6203	5.9091	0.1	-0.23191
26218	4.8051	0.27273	0.1	-0.23174
26219	4.8975	0.18182	0.1	-0.26961
26220	4.8051	9.0909e-002	0.1	-0.21547
26221	4.8051	0.45455	0.1	-0.16112
26222	4.8975	0.36364	0.1	-0.24288
26223	4.8051	0.63636	0.1	-7.2391e-002
26224	4.8975	0.54545	0.1	-7.5708e-002
26225	4.8051	0.81818	0.1	-5.6187e-002
26226	4.8975	0.72727	0.1	-6.6214e-002
26227	4.8051	1.	0.1	-3.7958e-002
26228	4.8975	0.90909	0.1	-4.2909e-002
26229	4.8051	1.1818	0.1	-2.6122e-002
26230	4.8975	1.0909	0.1	-3.0636e-002
26231	4.8051	1.3636	0.1	-1.6275e-002
26232	4.8975	1.2727	0.1	-1.9957e-002
26233	4.8051	1.5455	0.1	-8.3501e-003
26234	4.8975	1.4545	0.1	-1.1633e-002
26235	4.8051	1.7273	0.1	-1.7652e-003
26236	4.8975	1.6364	0.1	-4.6978e-003
26237	4.8051	1.9091	0.1	3.6748e-003
26238	4.8975	1.8182	0.1	1.0326e-003
26239	4.8051	2.0909	0.1	8.1277e-003
26240	4.8975	2.	0.1	5.7629e-003
26241	4.8051	2.2727	0.1	1.1682e-002
26242	4.8975	2.1818	0.1	9.5959e-003
26243	4.8051	2.4545	0.1	1.4397e-002
26244	4.8975	2.3636	0.1	1.2601e-002
26245	4.8051	2.6364	0.1	1.6311e-002
26246	4.8975	2.5455	0.1	1.4821e-002
26247	4.8051	2.8182	0.1	1.7452e-002
26248	4.8975	2.7273	0.1	1.6287e-002
26249	4.8051	3.	0.1	1.783e-002
26250	4.8975	2.9091	0.1	1.7017e-002
26251	4.8051	3.1818	0.1	1.7452e-002
26252	4.8975	3.0909	0.1	1.7017e-002
26253	4.8051	3.3636	0.1	1.6311e-002
26254	4.8975	3.2727	0.1	1.6288e-002
26255	4.8051	3.5455	0.1	1.4397e-002
26256	4.8975	3.4545	0.1	1.4821e-002
26257	4.8051	3.7273	0.1	1.1682e-002
26258	4.8975	3.6364	0.1	1.2601e-002
26259	4.8051	3.9091	0.1	8.1281e-003
26260	4.8975	3.8182	0.1	9.5962e-003
26261	4.8051	4.0909	0.1	3.6754e-003
26262	4.8975	4.	0.1	5.7633e-003
26263	4.8051	4.2727	0.1	-1.7647e-003
26264	4.8975	4.1818	0.1	1.0331e-003
26265	4.8051	4.4545	0.1	-8.3495e-003
26266	4.8975	4.3636	0.1	-4.6973e-003
26267	4.8051	4.6364	0.1	-1.6274e-002
26268	4.8975	4.5455	0.1	-1.1633e-002
26269	4.8051	4.8182	0.1	-2.6121e-002
26270	4.8975	4.7273	0.1	-1.9956e-002
26271	4.8051	5.	0.1	-3.7957e-002
26272	4.8975	4.9091	0.1	-3.0635e-002
26273	4.8051	5.1818	0.1	-5.6186e-002
26274	4.8975	5.0909	0.1	-4.2907e-002
26275	4.8051	5.3636	0.1	-7.2391e-002
26276	4.8975	5.2727	0.1	-6.6214e-002
26277	4.8051	5.5455	0.1	-0.16112
26278	4.8975	5.4545	0.1	-7.5708e-002
26279	4.8051	5.7273	0.1	-0.23174
26280	4.8975	5.6364	0.1	-0.24288
26281	4.8975	5.8182	0.1	-0.26961
26282	4.8051	5.9091	0.1	-0.21547
26283	4.9899	0.27273	0.1	-0.20846
26284	5.0823	0.18182	0.1	-0.23909
26285	4.9899	9.0909e-002	0.1	-0.20063
26286	4.9899	0.45455	0.1	-0.14669
26287	5.0823	0.36364	0.1	-0.22141
26288	4.9899	0.63636	0.1	-6.5692e-002
26289	5.0823	0.54545	0.1	-6.8526e-002
26290	4.9899	0.81818	0.1	-5.1134e-002
26291	5.0823	0.72727	0.1	-6.0249e-002
26292	4.9899	1.	0.1	-3.457e-002
26293	5.0823	0.90909	0.1	-3.9056e-002
26294	4.9899	1.1818	0.1	-2.3825e-002
26295	5.0823	1.0909	0.1	-2.7934e-002
26296	4.9899	1.3636	0.1	-1.4867e-002
26297	5.0823	1.2727	0.1	-1.8227e-002
26298	4.9899	1.5455	0.1	-7.6479e-003
26299	5.0823	1.4545	0.1	-1.0655e-002
26300	4.9899	1.7273	0.1	-1.6386e-003
26301	5.0823	1.6364	0.1	-4.3348e-003
26302	4.9899	1.9091	0.1	3.3354e-003
26303	5.0823	1.8182	0.1	8.9593e-004
26304	4.9899	2.0909	0.1	7.4146e-003
26305	5.0823	2.	0.1	5.2215e-003
26306	4.9899	2.2727	0.1	1.0677e-002
26307	5.0823	2.1818	0.1	8.7327e-003
26308	4.9899	2.4545	0.1	1.3173e-002
26309	5.0823	2.3636	0.1	1.149e-002
26310	4.9899	2.6364	0.1	1.4935e-002
26311	5.0823	2.5455	0.1	1.353e-002
26312	4.9899	2.8182	0.1	1.5986e-002
26313	5.0823	2.7273	0.1	1.4879e-002
26314	4.9899	3.	0.1	1.6336e-002
26315	5.0823	2.9091	0.1	1.5551e-002
26316	4.9899	3.1818	0.1	1.5987e-002
26317	5.0823	3.0909	0.1	1.5551e-002
26318	4.9899	3.3636	0.1	1.4936e-002
26319	5.0823	3.2727	0.1	1.4879e-002
26320	4.9899	3.5455	0.1	1.3173e-002
26321	5.0823	3.4545	0.1	1.353e-002
26322	4.9899	3.7273	0.1	1.0677e-002
26323	5.0823	3.6364	0.1	1.149e-002
26324	4.9899	3.9091	0.1	7.4149e-003
26325	5.0823	3.8182	0.1	8.7331e-003
26326	4.9899	4.0909	0.1	3.3358e-003
26327	5.0823	4.	0.1	5.2218e-003
26328	4.9899	4.2727	0.1	-1.638e-003
26329	5.0823	4.1818	0.1	8.9646e-004
26330	4.9899	4.4545	0.1	-7.6473e-003
26331	5.0823	4.3636	0.1	-4.3342e-003
26332	4.9899	4.6364	0.1	-1.4866e-002
26333	5.0823	4.5455	0.1	-1.0654e-002
26334	4.9899	4.8182	0.1	-2.3824e-002
26335	5.0823	4.7273	0.1	-1.8227e-002
26336	4.9899	5.	0.1	-3.4569e-002
26337	5.0823	4.9091	0.1	-2.7934e-002
26338	4.9899	5.1818	0.1	-5.1133e-002
26339	5.0823	5.0909	0.1	-3.9055e-002
26340	4.9899	5.3636	0.1	-6.5692e-002
26341	5.0823	5.2727	0.1	-6.0249e-002
26342	4.9899	5.5455	0.1	-0.14669
26343	5.0823	5.4545	0.1	-6.8526e-002
26344	4.9899	5.7273	0.1	-0.20845
26345	5.0823	5.6364	0.1	-0.2214
26346	5.0823	5.8182	0.1	-0.23909
26347	4.9899	5.9091	0.1	-0.20063
26348	5.1747	0.27273	0.1	-0.18782
26349	5.2671	0.18182	0.1	-0.21321
26350	5.1747	9.0909e-002	0.1	-0.18721
26351	5.1747	0.45455	0.1	-0.13355
26352	5.2671	0.36364	0.1	-0.20183
26353	5.1747	0.63636	0.1	-5.9624e-002
26354	5.2671	0.54545	0.1	-6.2037e-002
26355	5.1747	0.81818	0.1	-4.6547e-002
26356	5.2671	0.72727	0.1	-5.4828e-002
26357	5.1747	1.	0.1	-3.1503e-002
26358	5.2671	0.90909	0.1	-3.5564e-002
26359	5.1747	1.1818	0.1	-2.1754e-002
26360	5.2671	1.0909	0.1	-2.5491e-002
26361	5.1747	1.3636	0.1	-1.3611e-002
26362	5.2671	1.2727	0.1	-1.6675e-002
26363	5.1747	1.5455	0.1	-7.0417e-003
26364	5.2671	1.4545	0.1	-9.792e-003
26365	5.1747	1.7273	0.1	-1.5647e-003
26366	5.2671	1.6364	0.1	-4.0388e-003
26367	5.1747	1.9091	0.1	2.9755e-003
26368	5.2671	1.8182	0.1	7.2886e-004
26369	5.1747	2.0909	0.1	6.7048e-003
26370	5.2671	2.	0.1	4.6771e-003
26371	5.1747	2.2727	0.1	9.6918e-003
26372	5.2671	2.1818	0.1	7.887e-003
26373	5.1747	2.4545	0.1	1.198e-002
26374	5.2671	2.3636	0.1	1.0411e-002
26375	5.1747	2.6364	0.1	1.3598e-002
26376	5.2671	2.5455	0.1	1.228e-002
26377	5.1747	2.8182	0.1	1.4564e-002
26378	5.2671	2.7273	0.1	1.3518e-002
26379	5.1747	3.	0.1	1.4885e-002
26380	5.2671	2.9091	0.1	1.4134e-002
26381	5.1747	3.1818	0.1	1.4564e-002
26382	5.2671	3.0909	0.1	1.4134e-002
26383	5.1747	3.3636	0.1	1.3598e-002
26384	5.2671	3.2727	0.1	1.3518e-002
26385	5.1747	3.5455	0.1	1.198e-002
26386	5.2671	3.4545	0.1	1.228e-002
26387	5.1747	3.7273	0.1	9.6921e-003
26388	5.2671	3.6364	0.1	1.0411e-002
26389	5.1747	3.9091	0.1	6.7052e-003
26390	5.2671	3.8182	0.1	7.8874e-003
26391	5.1747	4.0909	0.1	2.9759e-003
26392	5.2671	4.	0.1	4.6775e-003
26393	5.1747	4.2727	0.1	-1.5641e-003
26394	5.2671	4.1818	0.1	7.2943e-004
26395	5.1747	4.4545	0.1	-7.0411e-003
26396	5.2671	4.3636	0.1	-4.0382e-003
26397	5.1747	4.6364	0.1	-1.3611e-002
26398	5.2671	4.5455	0.1	-9.7913e-003
26399	5.1747	4.8182	0.1	-2.1753e-002
26400	5.2671	4.7273	0.1	-1.6674e-002
26401	5.1747	5.	0.1	-3.1502e-002
26402	5.2671	4.9091	0.1	-2.549e-002
26403	5.1747	5.1818	0.1	-4.6546e-002
26404	5.2671	5.0909	0.1	-3.5563e-002
26405	5.1747	5.3636	0.1	-5.9623e-002
26406	5.2671	5.2727	0.1	-5.4827e-002
26407	5.1747	5.5455	0.1	-0.13355
26408	5.2671	5.4545	0.1	-6.2036e-002
26409	5.1747	5.7273	0.1	-0.18782
26410	5.2671	5.6364	0.1	-0.20182
26411	5.2671	5.8182	0.1	-0.21321
26412	5.1747	5.9091	0.1	-0.18721
26413	5.3595	0.27273	0.1	-0.16949
26414	5.4519	0.18182	0.1	-0.19124
26415	5.3595	9.0909e-002	0.1	-0.17511
26416	5.3595	0.45455	0.1	-0.12157
26417	5.4519	0.36364	0.1	-0.18396
26418	5.3595	0.63636	0.1	-5.4119e-002
26419	5.4519	0.54545	0.1	-5.6168e-002
26420	5.3595	0.81818	0.1	-4.2379e-002
26421	5.4519	0.72727	0.1	-4.9898e-002
26422	5.3595	1.	0.1	-2.8725e-002
26423	5.4519	0.90909	0.1	-3.24e-002
26424	5.3595	1.1818	0.1	-1.9886e-002
26425	5.4519	1.0909	0.1	-2.3285e-002
26426	5.3595	1.3636	0.1	-1.2491e-002
26427	5.4519	1.2727	0.1	-1.5284e-002
26428	5.3595	1.5455	0.1	-6.5185e-003
26429	5.4519	1.4545	0.1	-9.0345e-003
26430	5.3595	1.7273	0.1	-1.533e-003
26431	5.4519	1.6364	0.1	-3.8035e-003
26432	5.3595	1.9091	0.1	2.6048e-003
26433	5.4519	1.8182	0.1	5.3614e-004
26434	5.3595	2.0909	0.1	6.0081e-003
26435	5.4519	2.	0.1	4.1344e-003
26436	5.3595	2.2727	0.1	8.7374e-003
26437	5.4519	2.1818	0.1	7.0632e-003
26438	5.3595	2.4545	0.1	1.083e-002
26439	5.4519	2.3636	0.1	9.3684e-003
26440	5.3595	2.6364	0.1	1.2312e-002
26441	5.4519	2.5455	0.1	1.1077e-002
26442	5.3595	2.8182	0.1	1.3196e-002
26443	5.4519	2.7273	0.1	1.221e-002
26444	5.3595	3.	0.1	1.349e-002
26445	5.4519	2.9091	0.1	1.2774e-002
26446	5.3595	3.1818	0.1	1.3196e-002
26447	5.4519	3.0909	0.1	1.2774e-002
26448	5.3595	3.3636	0.1	1.2312e-002
26449	5.4519	3.2727	0.1	1.221e-002
26450	5.3595	3.5455	0.1	1.0831e-002
26451	5.4519	3.4545	0.1	1.1078e-002
26452	5.3595	3.7273	0.1	8.7377e-003
26453	5.4519	3.6364	0.1	9.3687e-003
26454	5.3595	3.9091	0.1	6.0085e-003
26455	5.4519	3.8182	0.1	7.0637e-003
26456	5.3595	4.0909	0.1	2.6053e-003
26457	5.4519	4.	0.1	4.1348e-003
26458	5.3595	4.2727	0.1	-1.5325e-003
26459	5.4519	4.1818	0.1	5.367e-004
26460	5.3595	4.4545	0.1	-6.5178e-003
26461	5.4519	4.3636	0.1	-3.803e-003
26462	5.3595	4.6364	0.1	-1.249e-002
26463	5.4519	4.5455	0.1	-9.0337e-003
26464	5.3595	4.8182	0.1	-1.9885e-002
26465	5.4519	4.7273	0.1	-1.5283e-002
26466	5.3595	5.	0.1	-2.8724e-002
26467	5.4519	4.9091	0.1	-2.3284e-002
26468	5.3595	5.1818	0.1	-4.2378e-002
26469	5.4519	5.0909	0.1	-3.2399e-002
26470	5.3595	5.3636	0.1	-5.4119e-002
26471	5.4519	5.2727	0.1	-4.9897e-002
26472	5.3595	5.5455	0.1	-0.12157
26473	5.4519	5.4545	0.1	-5.6167e-002
26474	5.3595	5.7273	0.1	-0.16949
26475	5.4519	5.6364	0.1	-0.18395
26476	5.4519	5.8182	0.1	-0.19124
26477	5.3595	5.9091	0.1	-0.17511
26478	5.5443	0.27273	0.1	-0.15317
26479	5.6367	0.18182	0.1	-0.17257
26480	5.5443	9.0909e-002	0.1	-0.16424
26481	5.5443	0.45455	0.1	-0.11065
26482	5.6367	0.36364	0.1	-0.16762
26483	5.5443	0.63636	0.1	-4.9128e-002
26484	5.6367	0.54545	0.1	-5.0853e-002
26485	5.5443	0.81818	0.1	-3.8596e-002
26486	5.6367	0.72727	0.1	-4.5411e-002
26487	5.5443	1.	0.1	-2.6214e-002
26488	5.6367	0.90909	0.1	-2.9531e-002
26489	5.5443	1.1818	0.1	-1.8209e-002
26490	5.6367	1.0909	0.1	-2.1291e-002
26491	5.5443	1.3636	0.1	-1.1499e-002
26492	5.6367	1.2727	0.1	-1.4038e-002
26493	5.5443	1.5455	0.1	-6.0757e-003
26494	5.6367	1.4545	0.1	-8.3704e-003
26495	5.5443	1.7273	0.1	-1.5433e-003
26496	5.6367	1.6364	0.1	-3.6201e-003
26497	5.5443	1.9091	0.1	2.2226e-003
26498	5.6367	1.8182	0.1	3.2476e-004
26499	5.5443	2.0909	0.1	5.3234e-003
26500	5.6367	2.	0.1	3.5991e-003
26501	5.5443	2.2727	0.1	7.8126e-003
26502	5.6367	2.1818	0.1	6.2671e-003
26503	5.5443	2.4545	0.1	9.7232e-003
26504	5.6367	2.3636	0.1	8.3691e-003
26505	5.5443	2.6364	0.1	1.1076e-002
26506	5.6367	2.5455	0.1	9.9282e-003
26507	5.5443	2.8182	0.1	1.1885e-002
26508	5.6367	2.7273	0.1	1.0962e-002
26509	5.5443	3.	0.1	1.2154e-002
26510	5.6367	2.9091	0.1	1.1478e-002
26511	5.5443	3.1818	0.1	1.1885e-002
26512	5.6367	3.0909	0.1	1.1478e-002
26513	5.5443	3.3636	0.1	1.1077e-002
26514	5.6367	3.2727	0.1	1.0962e-002
26515	5.5443	3.5455	0.1	9.7234e-003
26516	5.6367	3.4545	0.1	9.9285e-003
26517	5.5443	3.7273	0.1	7.8129e-003
26518	5.6367	3.6364	0.1	8.3693e-003
26519	5.5443	3.9091	0.1	5.3239e-003
26520	5.6367	3.8182	0.1	6.2676e-003
26521	5.5443	4.0909	0.1	2.2231e-003
26522	5.6367	4.	0.1	3.5996e-003
26523	5.5443	4.2727	0.1	-1.5427e-003
26524	5.6367	4.1818	0.1	3.2532e-004
26525	5.5443	4.4545	0.1	-6.0751e-003
26526	5.6367	4.3636	0.1	-3.6195e-003
26527	5.5443	4.6364	0.1	-1.1498e-002
26528	5.6367	4.5455	0.1	-8.3695e-003
26529	5.5443	4.8182	0.1	-1.8208e-002
26530	5.6367	4.7273	0.1	-1.4038e-002
26531	5.5443	5.	0.1	-2.6213e-002
26532	5.6367	4.9091	0.1	-2.129e-002
26533	5.5443	5.1818	0.1	-3.8595e-002
26534	5.6367	5.0909	0.1	-2.953e-002
26535	5.5443	5.3636	0.1	-4.9128e-002
26536	5.6367	5.2727	0.1	-4.541e-002
26537	5.5443	5.5455	0.1	-0.11065
26538	5.6367	5.4545	0.1	-5.0852e-002
26539	5.5443	5.7273	0.1	-0.15317
26540	5.6367	5.6364	0.1	-0.16762
26541	5.6367	5.8182	0.1	-0.17256
26542	5.5443	5.9091	0.1	-0.16424
26543	5.7291	0.27273	0.1	-0.13861
26544	5.8215	0.18182	0.1	-0.15672
26545	5.7291	9.0909e-002	0.1	-0.15452
26546	5.7291	0.45455	0.1	-0.10067
26547	5.8215	0.36364	0.1	-0.15269
26548	5.7291	0.63636	0.1	-4.459e-002
26549	5.8215	0.54545	0.1	-4.6036e-002
26550	5.7291	0.81818	0.1	-3.5153e-002
26551	5.8215	0.72727	0.1	-4.1328e-002
26552	5.7291	1.	0.1	-2.3936e-002
26553	5.8215	0.90909	0.1	-2.6931e-002
26554	5.7291	1.1818	0.1	-1.6694e-002
26555	5.8215	1.0909	0.1	-1.9492e-002
26556	5.7291	1.3636	0.1	-1.0614e-002
26557	5.8215	1.2727	0.1	-1.2926e-002
26558	5.7291	1.5455	0.1	-5.6953e-003
26559	5.8215	1.4545	0.1	-7.7917e-003
26560	5.7291	1.7273	0.1	-1.58e-003
26561	5.8215	1.6364	0.1	-3.4837e-003
26562	5.7291	1.9091	0.1	1.8425e-003
26563	5.8215	1.8182	0.1	9.7439e-005
26564	5.7291	2.0909	0.1	4.6634e-003
26565	5.8215	2.	0.1	3.0729e-003
26566	5.7291	2.2727	0.1	6.9301e-003
26567	5.8215	2.1818	0.1	5.4996e-003
26568	5.7291	2.4545	0.1	8.6711e-003
26569	5.8215	2.3636	0.1	7.4131e-003
26570	5.7291	2.6364	0.1	9.9049e-003
26571	5.8215	2.5455	0.1	8.8332e-003
26572	5.7291	2.8182	0.1	1.0642e-002
26573	5.8215	2.7273	0.1	9.7756e-003
26574	5.7291	3.	0.1	1.0888e-002
26575	5.8215	2.9091	0.1	1.0246e-002
26576	5.7291	3.1818	0.1	1.0642e-002
26577	5.8215	3.0909	0.1	1.0246e-002
26578	5.7291	3.3636	0.1	9.905e-003
26579	5.8215	3.2727	0.1	9.7756e-003
26580	5.7291	3.5455	0.1	8.6713e-003
26581	5.8215	3.4545	0.1	8.8335e-003
26582	5.7291	3.7273	0.1	6.9304e-003
26583	5.8215	3.6364	0.1	7.4134e-003
26584	5.7291	3.9091	0.1	4.6639e-003
26585	5.8215	3.8182	0.1	5.5001e-003
26586	5.7291	4.0909	0.1	1.843e-003
26587	5.8215	4.	0.1	3.0733e-003
26588	5.7291	4.2727	0.1	-1.5795e-003
26589	5.8215	4.1818	0.1	9.8072e-005
26590	5.7291	4.4545	0.1	-5.6946e-003
26591	5.8215	4.3636	0.1	-3.4831e-003
26592	5.7291	4.6364	0.1	-1.0613e-002
26593	5.8215	4.5455	0.1	-7.7909e-003
26594	5.7291	4.8182	0.1	-1.6693e-002
26595	5.8215	4.7273	0.1	-1.2925e-002
26596	5.7291	5.	0.1	-2.3935e-002
26597	5.8215	4.9091	0.1	-1.9491e-002
26598	5.7291	5.1818	0.1	-3.5152e-002
26599	5.8215	5.0909	0.1	-2.693e-002
26600	5.7291	5.3636	0.1	-4.459e-002
26601	5.8215	5.2727	0.1	-4.1327e-002
26602	5.7291	5.5455	0.1	-0.10067
26603	5.8215	5.4545	0.1	-4.6035e-002
26604	5.7291	5.7273	0.1	-0.13861
26605	5.8215	5.6364	0.1	-0.15268
26606	5.8215	5.8182	0.1	-0.15672
26607	5.7291	5.9091	0.1	-0.15452
26608	5.9139	0.27273	0.1	-0.1256
26609	6.0063	0.18182	0.1	-0.14332
26610	5.9139	9.0909e-002	0.1	-0.14593
26611	5.9139	0.45455	0.1	-9.1552e-002
26612	6.0063	0.36364	0.1	-0.13901
26613	5.9139	0.63636	0.1	-4.0473e-002
26614	6.0063	0.54545	0.1	-4.1664e-002
26615	5.9139	0.81818	0.1	-3.203e-002
26616	6.0063	0.72727	0.1	-3.7607e-002
26617	5.9139	1.	0.1	-2.1882e-002
26618	6.0063	0.90909	0.1	-2.4573e-002
26619	5.9139	1.1818	0.1	-1.534e-002
26620	6.0063	1.0909	0.1	-1.7868e-002
26621	5.9139	1.3636	0.1	-9.8376e-003
26622	6.0063	1.2727	0.1	-1.1932e-002
26623	5.9139	1.5455	0.1	-5.3828e-003
26624	6.0063	1.4545	0.1	-7.2886e-003
26625	5.9139	1.7273	0.1	-1.6515e-003
26626	6.0063	1.6364	0.1	-3.3871e-003
26627	5.9139	1.9091	0.1	1.4548e-003
26628	6.0063	1.8182	0.1	-1.4066e-004
26629	5.9139	2.0909	0.1	4.0175e-003
26630	6.0063	2.	0.1	2.5594e-003
26631	5.9139	2.2727	0.1	6.0784e-003
26632	6.0063	2.1818	0.1	4.7637e-003
26633	5.9139	2.4545	0.1	7.6625e-003
26634	6.0063	2.3636	0.1	6.503e-003
26635	5.9139	2.6364	0.1	8.7857e-003
26636	6.0063	2.5455	0.1	7.7947e-003
26637	5.9139	2.8182	0.1	9.4574e-003
26638	6.0063	2.7273	0.1	8.6522e-003
26639	5.9139	3.	0.1	9.6811e-003
26640	6.0063	2.9091	0.1	9.0801e-003
26641	5.9139	3.1818	0.1	9.4576e-003
26642	6.0063	3.0909	0.1	9.0802e-003
26643	5.9139	3.3636	0.1	8.7859e-003
26644	6.0063	3.2727	0.1	8.6524e-003
26645	5.9139	3.5455	0.1	7.6628e-003
26646	6.0063	3.4545	0.1	7.7949e-003
26647	5.9139	3.7273	0.1	6.0787e-003
26648	6.0063	3.6364	0.1	6.5033e-003
26649	5.9139	3.9091	0.1	4.0179e-003
26650	6.0063	3.8182	0.1	4.764e-003
26651	5.9139	4.0909	0.1	1.4553e-003
26652	6.0063	4.	0.1	2.5598e-003
26653	5.9139	4.2727	0.1	-1.6509e-003
26654	6.0063	4.1818	0.1	-1.4002e-004
26655	5.9139	4.4545	0.1	-5.3821e-003
26656	6.0063	4.3636	0.1	-3.3865e-003
26657	5.9139	4.6364	0.1	-9.8368e-003
26658	6.0063	4.5455	0.1	-7.2879e-003
26659	5.9139	4.8182	0.1	-1.5339e-002
26660	6.0063	4.7273	0.1	-1.1932e-002
26661	5.9139	5.	0.1	-2.1881e-002
26662	6.0063	4.9091	0.1	-1.7867e-002
26663	5.9139	5.1818	0.1	-3.2029e-002
26664	6.0063	5.0909	0.1	-2.4572e-002
26665	5.9139	5.3636	0.1	-4.0472e-002
26666	6.0063	5.2727	0.1	-3.7606e-002
26667	5.9139	5.5455	0.1	-9.1551e-002
26668	6.0063	5.4545	0.1	-4.1664e-002
26669	5.9139	5.7273	0.1	-0.12559
26670	6.0063	5.6364	0.1	-0.13901
26671	6.0063	5.8182	0.1	-0.14332
26672	5.9139	5.9091	0.1	-0.14593
26673	6.0987	0.27273	0.1	-0.11394
26674	6.1911	0.18182	0.1	-0.13205
26675	6.0987	9.0909e-002	0.1	-0.13843
26676	6.0987	0.45455	0.1	-8.3201e-002
26677	6.1911	0.36364	0.1	-0.12646
26678	6.0987	0.63636	0.1	-3.672e-002
26679	6.1911	0.54545	0.1	-3.7685e-002
26680	6.0987	0.81818	0.1	-2.9181e-002
26681	6.1911	0.72727	0.1	-3.4208e-002
26682	6.0987	1.	0.1	-2.0015e-002
26683	6.1911	0.90909	0.1	-2.2426e-002
26684	6.0987	1.1818	0.1	-1.4115e-002
26685	6.1911	1.0909	0.1	-1.6394e-002
26686	6.0987	1.3636	0.1	-9.1443e-003
26687	6.1911	1.2727	0.1	-1.1038e-002
26688	6.0987	1.5455	0.1	-5.1156e-003
26689	6.1911	1.4545	0.1	-6.8449e-003
26690	6.0987	1.7273	0.1	-1.7373e-003
26691	6.1911	1.6364	0.1	-3.3169e-003
26692	6.0987	1.9091	0.1	1.078e-003
26693	6.1911	1.8182	0.1	-3.7822e-004
26694	6.0987	2.0909	0.1	3.4029e-003
26695	6.1911	2.	0.1	2.0685e-003
26696	6.0987	2.2727	0.1	5.2742e-003
26697	6.1911	2.1818	0.1	4.068e-003
26698	6.0987	2.4545	0.1	6.7135e-003
26699	6.1911	2.3636	0.1	5.6469e-003
26700	6.0987	2.6364	0.1	7.7346e-003
26701	6.1911	2.5455	0.1	6.8202e-003
26702	6.0987	2.8182	0.1	8.3455e-003
26703	6.1911	2.7273	0.1	7.5995e-003
26704	6.0987	3.	0.1	8.549e-003
26705	6.1911	2.9091	0.1	7.9887e-003
26706	6.0987	3.1818	0.1	8.3456e-003
26707	6.1911	3.0909	0.1	7.9886e-003
26708	6.0987	3.3636	0.1	7.7347e-003
26709	6.1911	3.2727	0.1	7.5997e-003
26710	6.0987	3.5455	0.1	6.7137e-003
26711	6.1911	3.4545	0.1	6.8204e-003
26712	6.0987	3.7273	0.1	5.2745e-003
26713	6.1911	3.6364	0.1	5.6472e-003
26714	6.0987	3.9091	0.1	3.4032e-003
26715	6.1911	3.8182	0.1	4.0683e-003
26716	6.0987	4.0909	0.1	1.0784e-003
26717	6.1911	4.	0.1	2.0689e-003
26718	6.0987	4.2727	0.1	-1.7367e-003
26719	6.1911	4.1818	0.1	-3.7768e-004
26720	6.0987	4.4545	0.1	-5.1149e-003
26721	6.1911	4.3636	0.1	-3.3163e-003
26722	6.0987	4.6364	0.1	-9.1436e-003
26723	6.1911	4.5455	0.1	-6.8443e-003
26724	6.0987	4.8182	0.1	-1.4115e-002
26725	6.1911	4.7273	0.1	-1.1037e-002
26726	6.0987	5.	0.1	-2.0014e-002
26727	6.1911	4.9091	0.1	-1.6394e-002
26728	6.0987	5.1818	0.1	-2.918e-002
26729	6.1911	5.0909	0.1	-2.2425e-002
26730	6.0987	5.3636	0.1	-3.6719e-002
26731	6.1911	5.2727	0.1	-3.4207e-002
26732	6.0987	5.5455	0.1	-8.32e-002
26733	6.1911	5.4545	0.1	-3.7685e-002
26734	6.0987	5.7273	0.1	-0.11394
26735	6.1911	5.6364	0.1	-0.12646
26736	6.1911	5.8182	0.1	-0.13205
26737	6.0987	5.9091	0.1	-0.13843
26738	6.2835	0.27273	0.1	-0.10348
26739	6.3759	0.18182	0.1	-0.12269
26740	6.2835	9.0909e-002	0.1	-0.13203
26741	6.2835	0.45455	0.1	-7.5541e-002
26742	6.3759	0.36364	0.1	-0.11493
26743	6.2835	0.63636	0.1	-3.3294e-002
26744	6.3759	0.54545	0.1	-3.4061e-002
26745	6.2835	0.81818	0.1	-2.6579e-002
26746	6.3759	0.72727	0.1	-3.1102e-002
26747	6.2835	1.	0.1	-1.8316e-002
26748	6.3759	0.90909	0.1	-2.0474e-002
26749	6.2835	1.1818	0.1	-1.3007e-002
26750	6.3759	1.0909	0.1	-1.5061e-002
26751	6.2835	1.3636	0.1	-8.5241e-003
26752	6.3759	1.2727	0.1	-1.0237e-002
26753	6.2835	1.5455	0.1	-4.8872e-003
26754	6.3759	1.4545	0.1	-6.4583e-003
26755	6.2835	1.7273	0.1	-1.8333e-003
26756	6.3759	1.6364	0.1	-3.2736e-003
26757	6.2835	1.9091	0.1	7.1449e-004
26758	6.3759	1.8182	0.1	-6.1755e-004
26759	6.2835	2.0909	0.1	2.8208e-003
26760	6.3759	2.	0.1	1.5965e-003
26761	6.2835	2.2727	0.1	4.5177e-003
26762	6.3759	2.1818	0.1	3.4078e-003
26763	6.2835	2.4545	0.1	5.8238e-003
26764	6.3759	2.3636	0.1	4.8395e-003
26765	6.2835	2.6364	0.1	6.751e-003
26766	6.3759	2.5455	0.1	5.9041e-003
26767	6.2835	2.8182	0.1	7.3061e-003
26768	6.3759	2.7273	0.1	6.6116e-003
26769	6.2835	3.	0.1	7.491e-003
26770	6.3759	2.9091	0.1	6.9652e-003
26771	6.2835	3.1818	0.1	7.3061e-003
26772	6.3759	3.0909	0.1	6.9651e-003
26773	6.2835	3.3636	0.1	6.7512e-003
26774	6.3759	3.2727	0.1	6.6117e-003
26775	6.2835	3.5455	0.1	5.8242e-003
26776	6.3759	3.4545	0.1	5.9044e-003
26777	6.2835	3.7273	0.1	4.5181e-003
26778	6.3759	3.6364	0.1	4.8399e-003
26779	6.2835	3.9091	0.1	2.8212e-003
26780	6.3759	3.8182	0.1	3.4082e-003
26781	6.2835	4.0909	0.1	7.1499e-004
26782	6.3759	4.	0.1	1.597e-003
26783	6.2835	4.2727	0.1	-1.8328e-003
26784	6.3759	4.1818	0.1	-6.1705e-004
26785	6.2835	4.4545	0.1	-4.8867e-003
26786	6.3759	4.3636	0.1	-3.273e-003
26787	6.2835	4.6364	0.1	-8.5236e-003
26788	6.3759	4.5455	0.1	-6.4577e-003
26789	6.2835	4.8182	0.1	-1.3006e-002
26790	6.3759	4.7273	0.1	-1.0237e-002
26791	6.2835	5.	0.1	-1.8315e-002
26792	6.3759	4.9091	0.1	-1.506e-002
26793	6.2835	5.1818	0.1	-2.6578e-002
26794	6.3759	5.0909	0.1	-2.0473e-002
26795	6.2835	5.3636	0.1	-3.3293e-002
26796	6.3759	5.2727	0.1	-3.1101e-002
26797	6.2835	5.5455	0.1	-7.554e-002
26798	6.3759	5.4545	0.1	-3.4061e-002
26799	6.2835	5.7273	0.1	-0.10348
26800	6.3759	5.6364	0.1	-0.11493
26801	6.3759	5.8182	0.1	-0.12269
26802	6.2835	5.9091	0.1	-0.13203
26803	6.4684	0.27273	0.1	-9.4089e-002
26804	6.5608	0.18182	0.1	-0.1151
26805	6.4684	9.0909e-002	0.1	-0.12681
26806	6.4684	0.45455	0.1	-6.8517e-002
26807	6.5608	0.36364	0.1	-0.10434
26808	6.4684	0.63636	0.1	-3.0173e-002
26809	6.5608	0.54545	0.1	-3.076e-002
26810	6.4684	0.81818	0.1	-2.4212e-002
26811	6.5608	0.72727	0.1	-2.8266e-002
26812	6.4684	1.	0.1	-1.6779e-002
26813	6.5608	0.90909	0.1	-1.87e-002
26814	6.4684	1.1818	0.1	-1.2013e-002
26815	6.5608	1.0909	0.1	-1.3856e-002
26816	6.4684	1.3636	0.1	-7.9794e-003
26817	6.5608	1.2727	0.1	-9.5228e-003
26818	6.4684	1.5455	0.1	-4.7024e-003
26819	6.5608	1.4545	0.1	-6.1245e-003
26820	6.4684	1.7273	0.1	-1.9464e-003
26821	6.5608	1.6364	0.1	-3.2551e-003
26822	6.4684	1.9091	0.1	3.5592e-004
26823	6.5608	1.8182	0.1	-8.585e-004
26824	6.4684	2.0909	0.1	2.2617e-003
26825	6.5608	2.	0.1	1.1422e-003
26826	6.4684	2.2727	0.1	3.7986e-003
26827	6.5608	2.1818	0.1	2.7813e-003
26828	6.4684	2.4545	0.1	4.9827e-003
26829	6.5608	2.3636	0.1	4.0781e-003
26830	6.4684	2.6364	0.1	5.8237e-003
26831	6.5608	2.5455	0.1	5.043e-003
26832	6.4684	2.8182	0.1	6.3275e-003
26833	6.5608	2.7273	0.1	5.6849e-003
26834	6.4684	3.	0.1	6.4953e-003
26835	6.5608	2.9091	0.1	6.0056e-003
26836	6.4684	3.1818	0.1	6.3275e-003
26837	6.5608	3.0909	0.1	6.0057e-003
26838	6.4684	3.3636	0.1	5.8238e-003
26839	6.5608	3.2727	0.1	5.6848e-003
26840	6.4684	3.5455	0.1	4.9829e-003
26841	6.5608	3.4545	0.1	5.0431e-003
26842	6.4684	3.7273	0.1	3.799e-003
26843	6.5608	3.6364	0.1	4.0784e-003
26844	6.4684	3.9091	0.1	2.2621e-003
26845	6.5608	3.8182	0.1	2.7815e-003
26846	6.4684	4.0909	0.1	3.5642e-004
26847	6.5608	4.	0.1	1.1427e-003
26848	6.4684	4.2727	0.1	-1.9459e-003
26849	6.5608	4.1818	0.1	-8.5797e-004
26850	6.4684	4.4545	0.1	-4.7018e-003
26851	6.5608	4.3636	0.1	-3.2545e-003
26852	6.4684	4.6364	0.1	-7.9787e-003
26853	6.5608	4.5455	0.1	-6.1239e-003
26854	6.4684	4.8182	0.1	-1.2013e-002
26855	6.5608	4.7273	0.1	-9.5221e-003
26856	6.4684	5.	0.1	-1.6778e-002
26857	6.5608	4.9091	0.1	-1.3855e-002
26858	6.4684	5.1818	0.1	-2.4211e-002
26859	6.5608	5.0909	0.1	-1.8699e-002
26860	6.4684	5.3636	0.1	-3.0172e-002
26861	6.5608	5.2727	0.1	-2.8265e-002
26862	6.4684	5.5455	0.1	-6.8516e-002
26863	6.5608	5.4545	0.1	-3.076e-002
26864	6.4684	5.7273	0.1	-9.4088e-002
26865	6.5608	5.6364	0.1	-0.10434
26866	6.5608	5.8182	0.1	-0.11509
26867	6.4684	5.9091	0.1	-0.12681
26868	6.6532	0.27273	0.1	-8.5651e-002
26869	6.7456	0.18182	0.1	-0.10918
26870	6.6532	9.0909e-002	0.1	-0.12289
26871	6.6532	0.45455	0.1	-6.2061e-002
26872	6.7456	0.36364	0.1	-9.4595e-002
26873	6.6532	0.63636	0.1	-2.7321e-002
26874	6.7456	0.54545	0.1	-2.775e-002
26875	6.6532	0.81818	0.1	-2.205e-002
26876	6.7456	0.72727	0.1	-2.5674e-002
26877	6.6532	1.	0.1	-1.5384e-002
26878	6.7456	0.90909	0.1	-1.709e-002
26879	6.6532	1.1818	0.1	-1.1117e-002
26880	6.7456	1.0909	0.1	-1.2769e-002
26881	6.6532	1.3636	0.1	-7.4964e-003
26882	6.7456	1.2727	0.1	-8.8876e-003
26883	6.6532	1.5455	0.1	-4.5502e-003
26884	6.7456	1.4545	0.1	-5.8393e-003
26885	6.6532	1.7273	0.1	-2.0677e-003
26886	6.7456	1.6364	0.1	-3.2594e-003
26887	6.6532	1.9091	0.1	9.4778e-006
26888	6.7456	1.8182	0.1	-1.1006e-003
26889	6.6532	2.0909	0.1	1.7316e-003
26890	6.7456	2.	0.1	7.0475e-004
26891	6.6532	2.2727	0.1	3.1224e-003
26892	6.7456	2.1818	0.1	2.1863e-003
26893	6.6532	2.4545	0.1	4.1946e-003
26894	6.7456	2.3636	0.1	3.36e-003
26895	6.6532	2.6364	0.1	4.9569e-003
26896	6.7456	2.5455	0.1	4.2339e-003
26897	6.6532	2.8182	0.1	5.4138e-003
26898	6.7456	2.7273	0.1	4.8159e-003
26899	6.6532	3.	0.1	5.5661e-003
26900	6.7456	2.9091	0.1	5.1067e-003
26901	6.6532	3.1818	0.1	5.4139e-003
26902	6.7456	3.0909	0.1	5.1068e-003
26903	6.6532	3.3636	0.1	4.9569e-003
26904	6.7456	3.2727	0.1	4.8159e-003
26905	6.6532	3.5455	0.1	4.1949e-003
26906	6.7456	3.4545	0.1	4.234e-003
26907	6.6532	3.7273	0.1	3.1227e-003
26908	6.7456	3.6364	0.1	3.3602e-003
26909	6.6532	3.9091	0.1	1.732e-003
26910	6.7456	3.8182	0.1	2.1865e-003
26911	6.6532	4.0909	0.1	1.0037e-005
26912	6.7456	4.	0.1	7.0528e-004
26913	6.6532	4.2727	0.1	-2.0671e-003
26914	6.7456	4.1818	0.1	-1.1e-003
26915	6.6532	4.4545	0.1	-4.5496e-003
26916	6.7456	4.3636	0.1	-3.2589e-003
26917	6.6532	4.6364	0.1	-7.4959e-003
26918	6.7456	4.5455	0.1	-5.8386e-003
26919	6.6532	4.8182	0.1	-1.1117e-002
26920	6.7456	4.7273	0.1	-8.8869e-003
26921	6.6532	5.	0.1	-1.5383e-002
26922	6.7456	4.9091	0.1	-1.2769e-002
26923	6.6532	5.1818	0.1	-2.2049e-002
26924	6.7456	5.0909	0.1	-1.7088e-002
26925	6.6532	5.3636	0.1	-2.732e-002
26926	6.7456	5.2727	0.1	-2.5673e-002
26927	6.6532	5.5455	0.1	-6.206e-002
26928	6.7456	5.4545	0.1	-2.775e-002
26929	6.6532	5.7273	0.1	-8.565e-002
26930	6.7456	5.6364	0.1	-9.4594e-002
26931	6.7456	5.8182	0.1	-0.10918
26932	6.6532	5.9091	0.1	-0.12289
26933	6.838	0.27273	0.1	-7.8075e-002
26934	6.9304	0.18182	0.1	-0.10498
26935	6.838	9.0909e-002	0.1	-0.12052
26936	6.838	0.45455	0.1	-5.6128e-002
26937	6.9304	0.36364	0.1	-8.5612e-002
26938	6.838	0.63636	0.1	-2.4721e-002
26939	6.9304	0.54545	0.1	-2.5003e-002
26940	6.838	0.81818	0.1	-2.0083e-002
26941	6.9304	0.72727	0.1	-2.3305e-002
26942	6.838	1.	0.1	-1.4125e-002
26943	6.9304	0.90909	0.1	-1.5629e-002
26944	6.838	1.1818	0.1	-1.0318e-002
26945	6.9304	1.0909	0.1	-1.1791e-002
26946	6.838	1.3636	0.1	-7.0779e-003
26947	6.9304	1.2727	0.1	-8.3254e-003
26948	6.838	1.5455	0.1	-4.4355e-003
26949	6.9304	1.4545	0.1	-5.5991e-003
26950	6.838	1.7273	0.1	-2.2037e-003
26951	6.9304	1.6364	0.1	-3.2847e-003
26952	6.838	1.9091	0.1	-3.3257e-004
26953	6.9304	1.8182	0.1	-1.3436e-003
26954	6.838	2.0909	0.1	1.2217e-003
26955	6.9304	2.	0.1	2.8339e-004
26956	6.838	2.2727	0.1	2.4789e-003
26957	6.9304	2.1818	0.1	1.6212e-003
26958	6.838	2.4545	0.1	3.4494e-003
26959	6.9304	2.3636	0.1	2.6827e-003
26960	6.838	2.6364	0.1	4.14e-003
26961	6.9304	2.5455	0.1	3.474e-003
26962	6.838	2.8182	0.1	4.5542e-003
26963	6.9304	2.7273	0.1	4.0016e-003
26964	6.838	3.	0.1	4.6923e-003
26965	6.9304	2.9091	0.1	4.2655e-003
26966	6.838	3.1818	0.1	4.5543e-003
26967	6.9304	3.0909	0.1	4.2654e-003
26968	6.838	3.3636	0.1	4.1402e-003
26969	6.9304	3.2727	0.1	4.0016e-003
26970	6.838	3.5455	0.1	3.4496e-003
26971	6.9304	3.4545	0.1	3.4742e-003
26972	6.838	3.7273	0.1	2.4791e-003
26973	6.9304	3.6364	0.1	2.6829e-003
26974	6.838	3.9091	0.1	1.222e-003
26975	6.9304	3.8182	0.1	1.6214e-003
26976	6.838	4.0909	0.1	-3.32e-004
26977	6.9304	4.	0.1	2.8377e-004
26978	6.838	4.2727	0.1	-2.2032e-003
26979	6.9304	4.1818	0.1	-1.343e-003
26980	6.838	4.4545	0.1	-4.4348e-003
26981	6.9304	4.3636	0.1	-3.2844e-003
26982	6.838	4.6364	0.1	-7.077e-003
26983	6.9304	4.5455	0.1	-5.5981e-003
26984	6.838	4.8182	0.1	-1.0318e-002
26985	6.9304	4.7273	0.1	-8.3247e-003
26986	6.838	5.	0.1	-1.4123e-002
26987	6.9304	4.9091	0.1	-1.179e-002
26988	6.838	5.1818	0.1	-2.0082e-002
26989	6.9304	5.0909	0.1	-1.5627e-002
26990	6.838	5.3636	0.1	-2.4721e-002
26991	6.9304	5.2727	0.1	-2.3305e-002
26992	6.838	5.5455	0.1	-5.6127e-002
26993	6.9304	5.4545	0.1	-2.5003e-002
26994	6.838	5.7273	0.1	-7.8073e-002
26995	6.9304	5.6364	0.1	-8.561e-002
26996	6.9304	5.8182	0.1	-0.10498
26997	6.838	5.9091	0.1	-0.12051
26998	7.0228	0.27273	0.1	-7.127e-002
26999	7.1152	0.18182	0.1	-0.10263
27000	7.0228	9.0909e-002	0.1	-0.12013
27001	7.0228	0.45455	0.1	-5.0661e-002
27002	7.1152	0.36364	0.1	-7.7319e-002
27003	7.0228	0.63636	0.1	-2.2344e-002
27004	7.1152	0.54545	0.1	-2.2494e-002
27005	7.0228	0.81818	0.1	-1.8288e-002
27006	7.1152	0.72727	0.1	-2.114e-002
27007	7.0228	1.	0.1	-1.2983e-002
27008	7.1152	0.90909	0.1	-1.4304e-002
27009	7.0228	1.1818	0.1	-9.6018e-003
27010	7.1152	1.0909	0.1	-1.0912e-002
27011	7.0228	1.3636	0.1	-6.7113e-003
27012	7.1152	1.2727	0.1	-7.8303e-003
27013	7.0228	1.5455	0.1	-4.348e-003
27014	7.1152	1.4545	0.1	-5.3996e-003
27015	7.0228	1.7273	0.1	-2.3459e-003
27016	7.1152	1.6364	0.1	-3.329e-003
27017	7.0228	1.9091	0.1	-6.6302e-004
27018	7.1152	1.8182	0.1	-1.5868e-003
27019	7.0228	2.0909	0.1	7.3818e-004
27020	7.1152	2.	0.1	-1.2238e-004
27021	7.0228	2.2727	0.1	1.8739e-003
27022	7.1152	2.1818	0.1	1.0847e-003
27023	7.0228	2.4545	0.1	2.752e-003
27024	7.1152	2.3636	0.1	2.0447e-003
27025	7.0228	2.6364	0.1	3.3776e-003
27026	7.1152	2.5455	0.1	2.7614e-003
27027	7.0228	2.8182	0.1	3.7533e-003
27028	7.1152	2.7273	0.1	3.2397e-003
27029	7.0228	3.	0.1	3.8786e-003
27030	7.1152	2.9091	0.1	3.4793e-003
27031	7.0228	3.1818	0.1	3.7533e-003
27032	7.1152	3.0909	0.1	3.4793e-003
27033	7.0228	3.3636	0.1	3.3777e-003
27034	7.1152	3.2727	0.1	3.2398e-003
27035	7.0228	3.5455	0.1	2.7522e-003
27036	7.1152	3.4545	0.1	2.7615e-003
27037	7.0228	3.7273	0.1	1.8742e-003
27038	7.1152	3.6364	0.1	2.0449e-003
27039	7.0228	3.9091	0.1	7.3847e-004
27040	7.1152	3.8182	0.1	1.0852e-003
27041	7.0228	4.0909	0.1	-6.6258e-004
27042	7.1152	4.	0.1	-1.2202e-004
27043	7.0228	4.2727	0.1	-2.3455e-003
27044	7.1152	4.1818	0.1	-1.5862e-003
27045	7.0228	4.4545	0.1	-4.3475e-003
27046	7.1152	4.3636	0.1	-3.3286e-003
27047	7.0228	4.6364	0.1	-6.7105e-003
27048	7.1152	4.5455	0.1	-5.3987e-003
27049	7.0228	4.8182	0.1	-9.601e-003
27050	7.1152	4.7273	0.1	-7.8296e-003
27051	7.0228	5.	0.1	-1.2982e-002
27052	7.1152	4.9091	0.1	-1.0911e-002
27053	7.0228	5.1818	0.1	-1.8287e-002
27054	7.1152	5.0909	0.1	-1.4303e-002
27055	7.0228	5.3636	0.1	-2.2343e-002
27056	7.1152	5.2727	0.1	-2.114e-002
27057	7.0228	5.5455	0.1	-5.066e-002
27058	7.1152	5.4545	0.1	-2.2494e-002
27059	7.0228	5.7273	0.1	-7.1269e-002
27060	7.1152	5.6364	0.1	-7.7317e-002
27061	7.1152	5.8182	0.1	-0.10263
27062	7.0228	5.9091	0.1	-0.12013
27063	7.2076	0.27273	0.1	-6.518e-002
27064	7.3	0.18182	0.1	-0.10254
27065	7.2076	9.0909e-002	0.1	-0.12258
27066	7.2076	0.45455	0.1	-4.5622e-002
27067	7.3	0.36364	0.1	-6.9648e-002
27068	7.2076	0.63636	0.1	-2.0174e-002
27069	7.3	0.54545	0.1	-2.02e-002
27070	7.2076	0.81818	0.1	-1.6656e-002
27071	7.3	0.72727	0.1	-1.9161e-002
27072	7.2076	1.	0.1	-1.1957e-002
27073	7.3	0.90909	0.1	-1.3105e-002
27074	7.2076	1.1818	0.1	-8.9673e-003
27075	7.3	1.0909	0.1	-1.0125e-002
27076	7.2076	1.3636	0.1	-6.3992e-003
27077	7.3	1.2727	0.1	-7.3975e-003
27078	7.2076	1.5455	0.1	-4.2922e-003
27079	7.3	1.4545	0.1	-5.2388e-003
27080	7.2076	1.7273	0.1	-2.5004e-003
27081	7.3	1.6364	0.1	-3.3913e-003
27082	7.2076	1.9091	0.1	-9.8896e-004
27083	7.3	1.8182	0.1	-1.8305e-003
27084	7.2076	2.0909	0.1	2.7318e-004
27085	7.3	2.	0.1	-5.1354e-004
27086	7.2076	2.2727	0.1	1.299e-003
27087	7.3	2.1818	0.1	5.7545e-004
27088	7.2076	2.4545	0.1	2.0938e-003
27089	7.3	2.3636	0.1	1.4439e-003
27090	7.2076	2.6364	0.1	2.6608e-003
27091	7.3	2.5455	0.1	2.0934e-003
27092	7.2076	2.8182	0.1	3.0017e-003
27093	7.3	2.7273	0.1	2.5277e-003
27094	7.2076	3.	0.1	3.1155e-003
27095	7.3	2.9091	0.1	2.7453e-003
27096	7.2076	3.1818	0.1	3.0018e-003
27097	7.3	3.0909	0.1	2.7454e-003
27098	7.2076	3.3636	0.1	2.661e-003
27099	7.3	3.2727	0.1	2.5278e-003
27100	7.2076	3.5455	0.1	2.094e-003
27101	7.3	3.4545	0.1	2.0935e-003
27102	7.2076	3.7273	0.1	1.2994e-003
27103	7.3	3.6364	0.1	1.4441e-003
27104	7.2076	3.9091	0.1	2.7368e-004
27105	7.3	3.8182	0.1	5.7596e-004
27106	7.2076	4.0909	0.1	-9.8849e-004
27107	7.3	4.	0.1	-5.1313e-004
27108	7.2076	4.2727	0.1	-2.4998e-003
27109	7.3	4.1818	0.1	-1.8299e-003
27110	7.2076	4.4545	0.1	-4.2914e-003
27111	7.3	4.3636	0.1	-3.3908e-003
27112	7.2076	4.6364	0.1	-6.3985e-003
27113	7.3	4.5455	0.1	-5.238e-003
27114	7.2076	4.8182	0.1	-8.9667e-003
27115	7.3	4.7273	0.1	-7.3968e-003
27116	7.2076	5.	0.1	-1.1956e-002
27117	7.3	4.9091	0.1	-1.0124e-002
27118	7.2076	5.1818	0.1	-1.6655e-002
27119	7.3	5.0909	0.1	-1.3104e-002
27120	7.2076	5.3636	0.1	-2.0173e-002
27121	7.3	5.2727	0.1	-1.916e-002
27122	7.2076	5.5455	0.1	-4.5621e-002
27123	7.3	5.4545	0.1	-2.02e-002
27124	7.2076	5.7273	0.1	-6.5179e-002
27125	7.3	5.6364	0.1	-6.9646e-002
27126	7.3	5.8182	0.1	-0.10253
27127	7.2076	5.9091	0.1	-0.12258
27128	7.3924	0.27273	0.1	-5.975e-002
27129	7.4848	0.18182	0.1	-0.10553
27130	7.3924	9.0909e-002	0.1	-0.12957
27131	7.3924	0.45455	0.1	-4.0963e-002
27132	7.4848	0.36364	0.1	-6.2533e-002
27133	7.3924	0.63636	0.1	-1.8188e-002
27134	7.4848	0.54545	0.1	-1.8099e-002
27135	7.3924	0.81818	0.1	-1.5168e-002
27136	7.4848	0.72727	0.1	-1.7349e-002
27137	7.3924	1.	0.1	-1.1031e-002
27138	7.4848	0.90909	0.1	-1.202e-002
27139	7.3924	1.1818	0.1	-8.4033e-003
27140	7.4848	1.0909	0.1	-9.421e-003
27141	7.3924	1.3636	0.1	-6.1324e-003
27142	7.4848	1.2727	0.1	-7.0206e-003
27143	7.3924	1.5455	0.1	-4.2602e-003
27144	7.4848	1.4545	0.1	-5.1119e-003
27145	7.3924	1.7273	0.1	-2.6602e-003
27146	7.4848	1.6364	0.1	-3.4681e-003
27147	7.3924	1.9091	0.1	-1.3046e-003
27148	7.4848	1.8182	0.1	-2.0721e-003
27149	7.3924	2.0909	0.1	-1.6799e-004
27150	7.4848	2.	0.1	-8.8862e-004
27151	7.3924	2.2727	0.1	7.5879e-004
27152	7.4848	2.1818	0.1	9.4489e-005
27153	7.3924	2.4545	0.1	1.4787e-003
27154	7.4848	2.3636	0.1	8.8091e-004
27155	7.3924	2.6364	0.1	1.9934e-003
27156	7.4848	2.5455	0.1	1.4706e-003
27157	7.3924	2.8182	0.1	2.3033e-003
27158	7.4848	2.7273	0.1	1.8658e-003
27159	7.3924	3.	0.1	2.4068e-003
27160	7.4848	2.9091	0.1	2.0642e-003
27161	7.3924	3.1818	0.1	2.3034e-003
27162	7.4848	3.0909	0.1	2.0642e-003
27163	7.3924	3.3636	0.1	1.9935e-003
27164	7.4848	3.2727	0.1	1.8659e-003
27165	7.3924	3.5455	0.1	1.4789e-003
27166	7.4848	3.4545	0.1	1.4707e-003
27167	7.3924	3.7273	0.1	7.5918e-004
27168	7.4848	3.6364	0.1	8.8124e-004
27169	7.3924	3.9091	0.1	-1.6757e-004
27170	7.4848	3.8182	0.1	9.4872e-005
27171	7.3924	4.0909	0.1	-1.3041e-003
27172	7.4848	4.	0.1	-8.8817e-004
27173	7.3924	4.2727	0.1	-2.6597e-003
27174	7.4848	4.1818	0.1	-2.0716e-003
27175	7.3924	4.4545	0.1	-4.2596e-003
27176	7.4848	4.3636	0.1	-3.4676e-003
27177	7.3924	4.6364	0.1	-6.1316e-003
27178	7.4848	4.5455	0.1	-5.1112e-003
27179	7.3924	4.8182	0.1	-8.4025e-003
27180	7.4848	4.7273	0.1	-7.0199e-003
27181	7.3924	5.	0.1	-1.103e-002
27182	7.4848	4.9091	0.1	-9.4203e-003
27183	7.3924	5.1818	0.1	-1.5166e-002
27184	7.4848	5.0909	0.1	-1.2019e-002
27185	7.3924	5.3636	0.1	-1.8187e-002
27186	7.4848	5.2727	0.1	-1.7348e-002
27187	7.3924	5.5455	0.1	-4.0962e-002
27188	7.4848	5.4545	0.1	-1.8099e-002
27189	7.3924	5.7273	0.1	-5.9749e-002
27190	7.4848	5.6364	0.1	-6.2532e-002
27191	7.4848	5.8182	0.1	-0.10553
27192	7.3924	5.9091	0.1	-0.12957
27193	7.5772	0.27273	0.1	-5.4959e-002
27194	7.6696	0.18182	0.1	-0.11351
27195	7.5772	9.0909e-002	0.1	-0.14505
27196	7.5772	0.45455	0.1	-3.6646e-002
27197	7.6696	0.36364	0.1	-5.5923e-002
27198	7.5772	0.63636	0.1	-1.637e-002
27199	7.6696	0.54545	0.1	-1.6177e-002
27200	7.5772	0.81818	0.1	-1.3813e-002
27201	7.6696	0.72727	0.1	-1.5696e-002
27202	7.5772	1.	0.1	-1.0198e-002
27203	7.6696	0.90909	0.1	-1.1045e-002
27204	7.5772	1.1818	0.1	-7.906e-003
27205	7.6696	1.0909	0.1	-8.7995e-003
27206	7.5772	1.3636	0.1	-5.9088e-003
27207	7.6696	1.2727	0.1	-6.7013e-003
27208	7.5772	1.5455	0.1	-4.252e-003
27209	7.6696	1.4545	0.1	-5.0218e-003
27210	7.5772	1.7273	0.1	-2.8266e-003
27211	7.6696	1.6364	0.1	-3.5641e-003
27212	7.5772	1.9091	0.1	-1.6119e-003
27213	7.6696	1.8182	0.1	-2.317e-003
27214	7.5772	2.0909	0.1	-5.8805e-004
27215	7.6696	2.	0.1	-1.2533e-003
27216	7.5772	2.2727	0.1	2.5055e-004
27217	7.6696	2.1818	0.1	-3.6455e-004
27218	7.5772	2.4545	0.1	9.0398e-004
27219	7.6696	2.3636	0.1	3.4929e-004
27220	7.5772	2.6364	0.1	1.3723e-003
27221	7.6696	2.5455	0.1	8.8653e-004
27222	7.5772	2.8182	0.1	1.655e-003
27223	7.6696	2.7273	0.1	1.2474e-003
27224	7.5772	3.	0.1	1.7496e-003
27225	7.6696	2.9091	0.1	1.429e-003
27226	7.5772	3.1818	0.1	1.655e-003
27227	7.6696	3.0909	0.1	1.429e-003
27228	7.5772	3.3636	0.1	1.3725e-003
27229	7.6696	3.2727	0.1	1.2477e-003
27230	7.5772	3.5455	0.1	9.0421e-004
27231	7.6696	3.4545	0.1	8.8671e-004
27232	7.5772	3.7273	0.1	2.5087e-004
27233	7.6696	3.6364	0.1	3.4974e-004
27234	7.5772	3.9091	0.1	-5.8764e-004
27235	7.6696	3.8182	0.1	-3.642e-004
27236	7.5772	4.0909	0.1	-1.6114e-003
27237	7.6696	4.	0.1	-1.2528e-003
27238	7.5772	4.2727	0.1	-2.826e-003
27239	7.6696	4.1818	0.1	-2.3166e-003
27240	7.5772	4.4545	0.1	-4.2514e-003
27241	7.6696	4.3636	0.1	-3.5635e-003
27242	7.5772	4.6364	0.1	-5.9083e-003
27243	7.6696	4.5455	0.1	-5.0212e-003
27244	7.5772	4.8182	0.1	-7.9054e-003
27245	7.6696	4.7273	0.1	-6.7007e-003
27246	7.5772	5.	0.1	-1.0197e-002
27247	7.6696	4.9091	0.1	-8.7988e-003
27248	7.5772	5.1818	0.1	-1.3811e-002
27249	7.6696	5.0909	0.1	-1.1043e-002
27250	7.5772	5.3636	0.1	-1.6369e-002
27251	7.6696	5.2727	0.1	-1.5695e-002
27252	7.5772	5.5455	0.1	-3.6645e-002
27253	7.6696	5.4545	0.1	-1.6177e-002
27254	7.5772	5.7273	0.1	-5.4958e-002
27255	7.6696	5.6364	0.1	-5.5921e-002
27256	7.6696	5.8182	0.1	-0.11351
27257	7.5772	5.9091	0.1	-0.14505
27258	7.762	0.27273	0.1	-5.0828e-002
27259	7.8544	0.18182	0.1	-0.1312
27260	7.762	9.0909e-002	0.1	-0.17991
27261	7.762	0.45455	0.1	-3.2645e-002
27262	7.8544	0.36364	0.1	-4.9763e-002
27263	7.762	0.63636	0.1	-1.4715e-002
27264	7.8544	0.54545	0.1	-1.4422e-002
27265	7.762	0.81818	0.1	-1.2589e-002
27266	7.8544	0.72727	0.1	-1.4191e-002
27267	7.762	1.	0.1	-9.4626e-003
27268	7.8544	0.90909	0.1	-1.0175e-002
27269	7.762	1.1818	0.1	-7.4807e-003
27270	7.8544	1.0909	0.1	-8.2586e-003
27271	7.762	1.3636	0.1	-5.7355e-003
27272	7.8544	1.2727	0.1	-6.4395e-003
27273	7.762	1.5455	0.1	-4.2752e-003
27274	7.8544	1.4545	0.1	-4.9703e-003
27275	7.762	1.7273	0.1	-3.008e-003
27276	7.8544	1.6364	0.1	-3.6812e-003
27277	7.762	1.9091	0.1	-1.9198e-003
27278	7.8544	1.8182	0.1	-2.5682e-003
27279	7.762	2.0909	0.1	-9.9642e-004
27280	7.8544	2.	0.1	-1.6108e-003
27281	7.762	2.2727	0.1	-2.3593e-004
27282	7.8544	2.1818	0.1	-8.0524e-004
27283	7.762	2.4545	0.1	3.5936e-004
27284	7.8544	2.3636	0.1	-1.5438e-004
27285	7.762	2.6364	0.1	7.8761e-004
27286	7.8544	2.5455	0.1	3.375e-004
27287	7.762	2.8182	0.1	1.0465e-003
27288	7.8544	2.7273	0.1	6.6896e-004
27289	7.762	3.	0.1	1.1333e-003
27290	7.8544	2.9091	0.1	8.361e-004
27291	7.762	3.1818	0.1	1.0468e-003
27292	7.8544	3.0909	0.1	8.3616e-004
27293	7.762	3.3636	0.1	7.8791e-004
27294	7.8544	3.2727	0.1	6.6922e-004
27295	7.762	3.5455	0.1	3.5974e-004
27296	7.8544	3.4545	0.1	3.3761e-004
27297	7.762	3.7273	0.1	-2.3546e-004
27298	7.8544	3.6364	0.1	-1.54e-004
27299	7.762	3.9091	0.1	-9.9595e-004
27300	7.8544	3.8182	0.1	-8.0483e-004
27301	7.762	4.0909	0.1	-1.9193e-003
27302	7.8544	4.	0.1	-1.6103e-003
27303	7.762	4.2727	0.1	-3.0075e-003
27304	7.8544	4.1818	0.1	-2.5677e-003
27305	7.762	4.4545	0.1	-4.2746e-003
27306	7.8544	4.3636	0.1	-3.6806e-003
27307	7.762	4.6364	0.1	-5.7349e-003
27308	7.8544	4.5455	0.1	-4.9696e-003
27309	7.762	4.8182	0.1	-7.48e-003
27310	7.8544	4.7273	0.1	-6.4391e-003
27311	7.762	5.	0.1	-9.4614e-003
27312	7.8544	4.9091	0.1	-8.2577e-003
27313	7.762	5.1818	0.1	-1.2588e-002
27314	7.8544	5.0909	0.1	-1.0173e-002
27315	7.762	5.3636	0.1	-1.4714e-002
27316	7.8544	5.2727	0.1	-1.419e-002
27317	7.762	5.5455	0.1	-3.2644e-002
27318	7.8544	5.4545	0.1	-1.4421e-002
27319	7.762	5.7273	0.1	-5.0827e-002
27320	7.8544	5.6364	0.1	-4.9761e-002
27321	7.8544	5.8182	0.1	-0.1312
27322	7.762	5.9091	0.1	-0.17991
27323	7.9468	0.27273	0.1	-4.7434e-002
27324	8.0392	0.18182	0.1	-0.17368
27325	7.9468	9.0909e-002	0.1	-0.27199
27326	7.9468	0.45455	0.1	-2.8922e-002
27327	8.0392	0.36364	0.1	-4.4005e-002
27328	7.9468	0.63636	0.1	-1.3205e-002
27329	8.0392	0.54545	0.1	-1.282e-002
27330	7.9468	0.81818	0.1	-1.1485e-002
27331	8.0392	0.72727	0.1	-1.2826e-002
27332	7.9468	1.	0.1	-8.8142e-003
27333	8.0392	0.90909	0.1	-9.4071e-003
27334	7.9468	1.1818	0.1	-7.12e-003
27335	8.0392	1.0909	0.1	-7.7969e-003
27336	7.9468	1.3636	0.1	-5.607e-003
27337	8.0392	1.2727	0.1	-6.2366e-003
27338	7.9468	1.5455	0.1	-4.3258e-003
27339	8.0392	1.4545	0.1	-4.9596e-003
27340	7.9468	1.7273	0.1	-3.2012e-003
27341	8.0392	1.6364	0.1	-3.8228e-003
27342	7.9468	1.9091	0.1	-2.2256e-003
27343	8.0392	1.8182	0.1	-2.8291e-003
27344	7.9468	2.0909	0.1	-1.3904e-003
27345	8.0392	2.	0.1	-1.9649e-003
27346	7.9468	2.2727	0.1	-6.9746e-004
27347	8.0392	2.1818	0.1	-1.2313e-003
27348	7.9468	2.4545	0.1	-1.5198e-004
27349	8.0392	2.3636	0.1	-6.3396e-004
27350	7.9468	2.6364	0.1	2.4185e-004
27351	8.0392	2.5455	0.1	-1.8024e-004
27352	7.9468	2.8182	0.1	4.8081e-004
27353	8.0392	2.7273	0.1	1.2683e-004
27354	7.9468	3.	0.1	5.6105e-004
27355	8.0392	2.9091	0.1	2.8205e-004
27356	7.9468	3.1818	0.1	4.809e-004
27357	8.0392	3.0909	0.1	2.8205e-004
27358	7.9468	3.3636	0.1	2.4194e-004
27359	8.0392	3.2727	0.1	1.2692e-004
27360	7.9468	3.5455	0.1	-1.5186e-004
27361	8.0392	3.4545	0.1	-1.8013e-004
27362	7.9468	3.7273	0.1	-6.9714e-004
27363	8.0392	3.6364	0.1	-6.3373e-004
27364	7.9468	3.9091	0.1	-1.39e-003
27365	8.0392	3.8182	0.1	-1.2308e-003
27366	7.9468	4.0909	0.1	-2.2251e-003
27367	8.0392	4.	0.1	-1.9644e-003
27368	7.9468	4.2727	0.1	-3.2006e-003
27369	8.0392	4.1818	0.1	-2.8286e-003
27370	7.9468	4.4545	0.1	-4.3252e-003
27371	8.0392	4.3636	0.1	-3.8221e-003
27372	7.9468	4.6364	0.1	-5.6064e-003
27373	8.0392	4.5455	0.1	-4.9587e-003
27374	7.9468	4.8182	0.1	-7.1194e-003
27375	8.0392	4.7273	0.1	-6.2359e-003
27376	7.9468	5.	0.1	-8.8131e-003
27377	8.0392	4.9091	0.1	-7.7963e-003
27378	7.9468	5.1818	0.1	-1.1484e-002
27379	8.0392	5.0909	0.1	-9.4058e-003
27380	7.9468	5.3636	0.1	-1.3204e-002
27381	8.0392	5.2727	0.1	-1.2825e-002
27382	7.9468	5.5455	0.1	-2.8921e-002
27383	8.0392	5.4545	0.1	-1.282e-002
27384	7.9468	5.7273	0.1	-4.7433e-002
27385	8.0392	5.6364	0.1	-4.4003e-002
27386	8.0392	5.8182	0.1	-0.17368
27387	7.9468	5.9091	0.1	-0.27199
27388	8.1316	0.27273	0.1	-4.5014e-002
27389	8.2241	0.18182	0.1	-0.31093
27390	8.1316	9.0909e-002	0.1	-0.53997
27391	8.1316	0.45455	0.1	-2.5455e-002
27392	8.2241	0.36364	0.1	-3.8604e-002
27393	8.1316	0.63636	0.1	-1.184e-002
27394	8.2241	0.54545	0.1	-1.1363e-002
27395	8.1316	0.81818	0.1	-1.0501e-002
27396	8.2241	0.72727	0.1	-1.1594e-002
27397	8.1316	1.	0.1	-8.2583e-003
27398	8.2241	0.90909	0.1	-8.7392e-003
27399	8.1316	1.1818	0.1	-6.8317e-003
27400	8.2241	1.0909	0.1	-7.4147e-003
27401	8.1316	1.3636	0.1	-5.5323e-003
27402	8.2241	1.2727	0.1	-6.0939e-003
27403	8.1316	1.5455	0.1	-4.4136e-003
27404	8.2241	1.4545	0.1	-4.992e-003
27405	8.1316	1.7273	0.1	-3.4163e-003
27406	8.2241	1.6364	0.1	-3.992e-003
27407	8.1316	1.9091	0.1	-2.5394e-003
27408	8.2241	1.8182	0.1	-3.1031e-003
27409	8.1316	2.0909	0.1	-1.7804e-003
27410	8.2241	2.	0.1	-2.3193e-003
27411	8.1316	2.2727	0.1	-1.1448e-003
27412	8.2241	2.1818	0.1	-1.646e-003
27413	8.1316	2.4545	0.1	-6.4081e-004
27414	8.2241	2.3636	0.1	-1.0929e-003
27415	8.1316	2.6364	0.1	-2.7486e-004
27416	8.2241	2.5455	0.1	-6.6974e-004
27417	8.1316	2.8182	0.1	-5.2101e-005
27418	8.2241	2.7273	0.1	-3.8172e-004
27419	8.1316	3.	0.1	2.2696e-005
27420	8.2241	2.9091	0.1	-2.3595e-004
27421	8.1316	3.1818	0.1	-5.2102e-005
27422	8.2241	3.0909	0.1	-2.3586e-004
27423	8.1316	3.3636	0.1	-2.7474e-004
27424	8.2241	3.2727	0.1	-3.8166e-004
27425	8.1316	3.5455	0.1	-6.4057e-004
27426	8.2241	3.4545	0.1	-6.6947e-004
27427	8.1316	3.7273	0.1	-1.1443e-003
27428	8.2241	3.6364	0.1	-1.0926e-003
27429	8.1316	3.9091	0.1	-1.7798e-003
27430	8.2241	3.8182	0.1	-1.6456e-003
27431	8.1316	4.0909	0.1	-2.5389e-003
27432	8.2241	4.	0.1	-2.3191e-003
27433	8.1316	4.2727	0.1	-3.4157e-003
27434	8.2241	4.1818	0.1	-3.1027e-003
27435	8.1316	4.4545	0.1	-4.4129e-003
27436	8.2241	4.3636	0.1	-3.9913e-003
27437	8.1316	4.6364	0.1	-5.5314e-003
27438	8.2241	4.5455	0.1	-4.9912e-003
27439	8.1316	4.8182	0.1	-6.831e-003
27440	8.2241	4.7273	0.1	-6.0931e-003
27441	8.1316	5.	0.1	-8.2575e-003
27442	8.2241	4.9091	0.1	-7.4143e-003
27443	8.1316	5.1818	0.1	-1.05e-002
27444	8.2241	5.0909	0.1	-8.738e-003
27445	8.1316	5.3636	0.1	-1.1839e-002
27446	8.2241	5.2727	0.1	-1.1593e-002
27447	8.1316	5.5455	0.1	-2.5454e-002
27448	8.2241	5.4545	0.1	-1.1363e-002
27449	8.1316	5.7273	0.1	-4.5012e-002
27450	8.2241	5.6364	0.1	-3.8602e-002
27451	8.2241	5.8182	0.1	-0.31092
27452	8.1316	5.9091	0.1	-0.53996
27453	8.3165	0.27273	0.1	-4.419e-002
27454	8.4089	0.18182	0.1	-0.83617
27455	8.3165	9.0909e-002	0.1	-1.0336
27456	8.3165	0.45455	0.1	-2.2209e-002
27457	8.4089	0.36364	0.1	-3.3519e-002
27458	8.3165	0.63636	0.1	-1.0604e-002
27459	8.4089	0.54545	0.1	-1.0042e-002
27460	8.3165	0.81818	0.1	-9.6272e-003
27461	8.4089	0.72727	0.1	-1.0489e-002
27462	8.3165	1.	0.1	-7.7877e-003
27463	8.4089	0.90909	0.1	-8.1699e-003
27464	8.3165	1.1818	0.1	-6.6097e-003
27465	8.4089	1.0909	0.1	-7.1128e-003
27466	8.3165	1.3636	0.1	-5.5064e-003
27467	8.4089	1.2727	0.1	-6.0134e-003
27468	8.3165	1.5455	0.1	-4.5345e-003
27469	8.4089	1.4545	0.1	-5.0708e-003
27470	8.3165	1.7273	0.1	-3.6498e-003
27471	8.4089	1.6364	0.1	-4.1925e-003
27472	8.3165	1.9091	0.1	-2.8582e-003
27473	8.4089	1.8182	0.1	-3.3944e-003
27474	8.3165	2.0909	0.1	-2.1628e-003
27475	8.4089	2.	0.1	-2.6777e-003
27476	8.3165	2.2727	0.1	-1.5738e-003
27477	8.4089	2.1818	0.1	-2.0528e-003
27478	8.3165	2.4545	0.1	-1.1028e-003
27479	8.4089	2.3636	0.1	-1.5336e-003
27480	8.3165	2.6364	0.1	-7.5842e-004
27481	8.4089	2.5455	0.1	-1.1331e-003
27482	8.3165	2.8182	0.1	-5.4783e-004
27483	8.4089	2.7273	0.1	-8.5894e-004
27484	8.3165	3.	0.1	-4.769e-004
27485	8.4089	2.9091	0.1	-7.1972e-004
27486	8.3165	3.1818	0.1	-5.4768e-004
27487	8.4089	3.0909	0.1	-7.1951e-004
27488	8.3165	3.3636	0.1	-7.5821e-004
27489	8.4089	3.2727	0.1	-8.5886e-004
27490	8.3165	3.5455	0.1	-1.1026e-003
27491	8.4089	3.4545	0.1	-1.1329e-003
27492	8.3165	3.7273	0.1	-1.5737e-003
27493	8.4089	3.6364	0.1	-1.5332e-003
27494	8.3165	3.9091	0.1	-2.1628e-003
27495	8.4089	3.8182	0.1	-2.0525e-003
27496	8.3165	4.0909	0.1	-2.8579e-003
27497	8.4089	4.	0.1	-2.6775e-003
27498	8.3165	4.2727	0.1	-3.6492e-003
27499	8.4089	4.1818	0.1	-3.3939e-003
27500	8.3165	4.4545	0.1	-4.5338e-003
27501	8.4089	4.3636	0.1	-4.1919e-003
27502	8.3165	4.6364	0.1	-5.5058e-003
27503	8.4089	4.5455	0.1	-5.0701e-003
27504	8.3165	4.8182	0.1	-6.6091e-003
27505	8.4089	4.7273	0.1	-6.0127e-003
27506	8.3165	5.	0.1	-7.7869e-003
27507	8.4089	4.9091	0.1	-7.1121e-003
27508	8.3165	5.1818	0.1	-9.6262e-003
27509	8.4089	5.0909	0.1	-8.1686e-003
27510	8.3165	5.3636	0.1	-1.0603e-002
27511	8.4089	5.2727	0.1	-1.0487e-002
27512	8.3165	5.5455	0.1	-2.2208e-002
27513	8.4089	5.4545	0.1	-1.0042e-002
27514	8.3165	5.7273	0.1	-4.4188e-002
27515	8.4089	5.6364	0.1	-3.3518e-002
27516	8.4089	5.8182	0.1	-0.83615
27517	8.3165	5.9091	0.1	-1.0336
27518	8.5013	0.27273	0.1	-4.7079e-002
27519	8.5937	0.18182	0.1	-1.7503
27520	8.5013	9.0909e-002	0.1	-1.6035
27521	8.5013	0.45455	0.1	-1.9163e-002
27522	8.5937	0.36364	0.1	-2.8723e-002
27523	8.5013	0.63636	0.1	-9.4985e-003
27524	8.5937	0.54545	0.1	-8.8498e-003
27525	8.5013	0.81818	0.1	-8.8671e-003
27526	8.5937	0.72727	0.1	-9.5054e-003
27527	8.5013	1.	0.1	-7.4091e-003
27528	8.5937	0.90909	0.1	-7.6986e-003
27529	8.5013	1.1818	0.1	-6.4627e-003
27530	8.5937	1.0909	0.1	-6.8923e-003
27531	8.5013	1.3636	0.1	-5.5395e-003
27532	8.5937	1.2727	0.1	-5.9985e-003
27533	8.5013	1.5455	0.1	-4.6992e-003
27534	8.5937	1.4545	0.1	-5.2001e-003
27535	8.5013	1.7273	0.1	-3.9127e-003
27536	8.5937	1.6364	0.1	-4.4289e-003
27537	8.5013	1.9091	0.1	-3.1927e-003
27538	8.5937	1.8182	0.1	-3.7072e-003
27539	8.5013	2.0909	0.1	-2.5485e-003
27540	8.5937	2.	0.1	-3.0442e-003
27541	8.5013	2.2727	0.1	-1.9947e-003
27542	8.5937	2.1818	0.1	-2.4552e-003
27543	8.5013	2.4545	0.1	-1.547e-003
27544	8.5937	2.3636	0.1	-1.9592e-003
27545	8.5013	2.6364	0.1	-1.2173e-003
27546	8.5937	2.5455	0.1	-1.5727e-003
27547	8.5013	2.8182	0.1	-1.0148e-003
27548	8.5937	2.7273	0.1	-1.3064e-003
27549	8.5013	3.	0.1	-9.4636e-004
27550	8.5937	2.9091	0.1	-1.1705e-003
27551	8.5013	3.1818	0.1	-1.0146e-003
27552	8.5937	3.0909	0.1	-1.1703e-003
27553	8.5013	3.3636	0.1	-1.2172e-003
27554	8.5937	3.2727	0.1	-1.3062e-003
27555	8.5013	3.5455	0.1	-1.5467e-003
27556	8.5937	3.4545	0.1	-1.5726e-003
27557	8.5013	3.7273	0.1	-1.9942e-003
27558	8.5937	3.6364	0.1	-1.9587e-003
27559	8.5013	3.9091	0.1	-2.548e-003
27560	8.5937	3.8182	0.1	-2.4549e-003
27561	8.5013	4.0909	0.1	-3.1922e-003
27562	8.5937	4.	0.1	-3.0437e-003
27563	8.5013	4.2727	0.1	-3.9122e-003
27564	8.5937	4.1818	0.1	-3.7068e-003
27565	8.5013	4.4545	0.1	-4.6986e-003
27566	8.5937	4.3636	0.1	-4.4283e-003
27567	8.5013	4.6364	0.1	-5.5388e-003
27568	8.5937	4.5455	0.1	-5.1995e-003
27569	8.5013	4.8182	0.1	-6.4619e-003
27570	8.5937	4.7273	0.1	-5.9977e-003
27571	8.5013	5.	0.1	-7.4079e-003
27572	8.5937	4.9091	0.1	-6.8916e-003
27573	8.5013	5.1818	0.1	-8.8657e-003
27574	8.5937	5.0909	0.1	-7.6972e-003
27575	8.5013	5.3636	0.1	-9.4976e-003
27576	8.5937	5.2727	0.1	-9.5042e-003
27577	8.5013	5.5455	0.1	-1.9163e-002
27578	8.5937	5.4545	0.1	-8.8493e-003
27579	8.5013	5.7273	0.1	-4.7078e-002
27580	8.5937	5.6364	0.1	-2.8721e-002
27581	8.5937	5.8182	0.1	-1.7503
27582	8.5013	5.9091	0.1	-1.6035
27583	8.6861	0.27273	0.1	-6.5774e-002
27584	8.7785	0.18182	0.1	-2.7279
27585	8.6861	9.0909e-002	0.1	-2.1768
27586	8.6861	0.45455	0.1	-1.6286e-002
27587	8.7785	0.36364	0.1	-2.4226e-002
27588	8.6861	0.63636	0.1	-8.5132e-003
27589	8.7785	0.54545	0.1	-7.7798e-003
27590	8.6861	0.81818	0.1	-8.2118e-003
27591	8.7785	0.72727	0.1	-8.6388e-003
27592	8.6861	1.	0.1	-7.1167e-003
27593	8.7785	0.90909	0.1	-7.3238e-003
27594	8.6861	1.1818	0.1	-6.3867e-003
27595	8.7785	1.0909	0.1	-6.7538e-003
27596	8.6861	1.3636	0.1	-5.629e-003
27597	8.7785	1.2727	0.1	-6.0516e-003
27598	8.6861	1.5455	0.1	-4.906e-003
27599	8.7785	1.4545	0.1	-5.3837e-003
27600	8.6861	1.7273	0.1	-4.2032e-003
27601	8.7785	1.6364	0.1	-4.7051e-003
27602	8.6861	1.9091	0.1	-3.5407e-003
27603	8.7785	1.8182	0.1	-4.0455e-003
27604	8.6861	2.0909	0.1	-2.9343e-003
27605	8.7785	2.	0.1	-3.4215e-003
27606	8.6861	2.2727	0.1	-2.4039e-003
27607	8.7785	2.1818	0.1	-2.8551e-003
27608	8.6861	2.4545	0.1	-1.9697e-003
27609	8.7785	2.3636	0.1	-2.3704e-003
27610	8.6861	2.6364	0.1	-1.6468e-003
27611	8.7785	2.5455	0.1	-1.9884e-003
27612	8.6861	2.8182	0.1	-1.4472e-003
27613	8.7785	2.7273	0.1	-1.7229e-003
27614	8.6861	3.	0.1	-1.3797e-003
27615	8.7785	2.9091	0.1	-1.5868e-003
27616	8.6861	3.1818	0.1	-1.4471e-003
27617	8.7785	3.0909	0.1	-1.5867e-003
27618	8.6861	3.3636	0.1	-1.6466e-003
27619	8.7785	3.2727	0.1	-1.7227e-003
27620	8.6861	3.5455	0.1	-1.9694e-003
27621	8.7785	3.4545	0.1	-1.9882e-003
27622	8.6861	3.7273	0.1	-2.4036e-003
27623	8.7785	3.6364	0.1	-2.3701e-003
27624	8.6861	3.9091	0.1	-2.934e-003
27625	8.7785	3.8182	0.1	-2.8549e-003
27626	8.6861	4.0909	0.1	-3.5404e-003
27627	8.7785	4.	0.1	-3.4212e-003
27628	8.6861	4.2727	0.1	-4.2027e-003
27629	8.7785	4.1818	0.1	-4.045e-003
27630	8.6861	4.4545	0.1	-4.9053e-003
27631	8.7785	4.3636	0.1	-4.7045e-003
27632	8.6861	4.6364	0.1	-5.6283e-003
27633	8.7785	4.5455	0.1	-5.383e-003
27634	8.6861	4.8182	0.1	-6.386e-003
27635	8.7785	4.7273	0.1	-6.0509e-003
27636	8.6861	5.	0.1	-7.1157e-003
27637	8.7785	4.9091	0.1	-6.7532e-003
27638	8.6861	5.1818	0.1	-8.2106e-003
27639	8.7785	5.0909	0.1	-7.3226e-003
27640	8.6861	5.3636	0.1	-8.5124e-003
27641	8.7785	5.2727	0.1	-8.6377e-003
27642	8.6861	5.5455	0.1	-1.6285e-002
27643	8.7785	5.4545	0.1	-7.7793e-003
27644	8.6861	5.7273	0.1	-6.5772e-002
27645	8.7785	5.6364	0.1	-2.4224e-002
27646	8.7785	5.8182	0.1	-2.7279
27647	8.6861	5.9091	0.1	-2.1768
27648	8.8709	0.27273	0.1	-0.41447
27649	8.9633	0.18182	0.1	-3.6927
27650	8.8709	9.0909e-002	0.1	-2.7362
27651	8.8709	0.45455	0.1	-1.3552e-002
27652	8.9633	0.36364	0.1	-2.0305e-002
27653	8.8709	0.63636	0.1	-7.6491e-003
27654	8.9633	0.54545	0.1	-6.8407e-003
27655	8.8709	0.81818	0.1	-7.6635e-003
27656	8.9633	0.72727	0.1	-7.8966e-003
27657	8.8709	1.	0.1	-6.9152e-003
27658	8.9633	0.90909	0.1	-7.0562e-003
27659	8.8709	1.1818	0.1	-6.3887e-003
27660	8.9633	1.0909	0.1	-6.7106e-003
27661	8.8709	1.3636	0.1	-5.7837e-003
27662	8.9633	1.2727	0.1	-6.1885e-003
27663	8.8709	1.5455	0.1	-5.1643e-003
27664	8.9633	1.4545	0.1	-5.6392e-003
27665	8.8709	1.7273	0.1	-4.5312e-003
27666	8.9633	1.6364	0.1	-5.0396e-003
27667	8.8709	1.9091	0.1	-3.9115e-003
27668	8.9633	1.8182	0.1	-4.4269e-003
27669	8.8709	2.0909	0.1	-3.3282e-003
27670	8.9633	2.	0.1	-3.8266e-003
27671	8.8709	2.2727	0.1	-2.8077e-003
27672	8.9633	2.1818	0.1	-3.2677e-003
27673	8.8709	2.4545	0.1	-2.3752e-003
27674	8.9633	2.3636	0.1	-2.7804e-003
27675	8.8709	2.6364	0.1	-2.0505e-003
27676	8.9633	2.5455	0.1	-2.3912e-003
27677	8.8709	2.8182	0.1	-1.8484e-003
27678	8.9633	2.7273	0.1	-2.1186e-003
27679	8.8709	3.	0.1	-1.7797e-003
27680	8.9633	2.9091	0.1	-1.9782e-003
27681	8.8709	3.1818	0.1	-1.8483e-003
27682	8.9633	3.0909	0.1	-1.9779e-003
27683	8.8709	3.3636	0.1	-2.0504e-003
27684	8.9633	3.2727	0.1	-2.1186e-003
27685	8.8709	3.5455	0.1	-2.375e-003
27686	8.9633	3.4545	0.1	-2.391e-003
27687	8.8709	3.7273	0.1	-2.8073e-003
27688	8.9633	3.6364	0.1	-2.78e-003
27689	8.8709	3.9091	0.1	-3.3278e-003
27690	8.9633	3.8182	0.1	-3.2673e-003
27691	8.8709	4.0909	0.1	-3.9109e-003
27692	8.9633	4.	0.1	-3.8263e-003
27693	8.8709	4.2727	0.1	-4.5305e-003
27694	8.9633	4.1818	0.1	-4.4263e-003
27695	8.8709	4.4545	0.1	-5.1636e-003
27696	8.9633	4.3636	0.1	-5.0391e-003
27697	8.8709	4.6364	0.1	-5.7829e-003
27698	8.9633	4.5455	0.1	-5.6382e-003
27699	8.8709	4.8182	0.1	-6.388e-003
27700	8.9633	4.7273	0.1	-6.1879e-003
27701	8.8709	5.	0.1	-6.9143e-003
27702	8.9633	4.9091	0.1	-6.71e-003
27703	8.8709	5.1818	0.1	-7.6623e-003
27704	8.9633	5.0909	0.1	-7.0551e-003
27705	8.8709	5.3636	0.1	-7.6482e-003
27706	8.9633	5.2727	0.1	-7.8953e-003
27707	8.8709	5.5455	0.1	-1.3551e-002
27708	8.9633	5.4545	0.1	-6.8403e-003
27709	8.8709	5.7273	0.1	-0.41445
27710	8.9633	5.6364	0.1	-2.0304e-002
27711	8.9633	5.8182	0.1	-3.6927
27712	8.8709	5.9091	0.1	-2.7361
27713	9.0557	0.27273	0.1	-1.6683
27714	9.1481	0.18182	0.1	-4.6341
27715	9.0557	9.0909e-002	0.1	-3.2783
27716	9.0557	0.45455	0.1	-1.0953e-002
27717	9.1481	0.36364	0.1	-8.9948e-002
27718	9.0557	0.63636	0.1	-6.9247e-003
27719	9.1481	0.54545	0.1	-6.0472e-003
27720	9.0557	0.81818	0.1	-7.2382e-003
27721	9.1481	0.72727	0.1	-7.284e-003
27722	9.0557	1.	0.1	-6.8234e-003
27723	9.1481	0.90909	0.1	-6.9027e-003
27724	9.0557	1.1818	0.1	-6.4907e-003
27725	9.1481	1.0909	0.1	-6.7733e-003
27726	9.0557	1.3636	0.1	-6.0285e-003
27727	9.1481	1.2727	0.1	-6.4245e-003
27728	9.0557	1.5455	0.1	-5.5012e-003
27729	9.1481	1.4545	0.1	-5.9849e-003
27730	9.0557	1.7273	0.1	-4.9233e-003
27731	9.1481	1.6364	0.1	-5.4517e-003
27732	9.0557	1.9091	0.1	-4.3303e-003
27733	9.1481	1.8182	0.1	-4.8706e-003
27734	9.0557	2.0909	0.1	-3.7542e-003
27735	9.1481	2.	0.1	-4.2759e-003
27736	9.0557	2.2727	0.1	-3.228e-003
27737	9.1481	2.1818	0.1	-3.706e-003
27738	9.0557	2.4545	0.1	-2.7834e-003
27739	9.1481	2.3636	0.1	-3.1992e-003
27740	9.0557	2.6364	0.1	-2.4457e-003
27741	9.1481	2.5455	0.1	-2.7885e-003
27742	9.0557	2.8182	0.1	-2.2344e-003
27743	9.1481	2.7273	0.1	-2.4983e-003
27744	9.0557	3.	0.1	-2.1623e-003
27745	9.1481	2.9091	0.1	-2.3482e-003
27746	9.0557	3.1818	0.1	-2.2343e-003
27747	9.1481	3.0909	0.1	-2.348e-003
27748	9.0557	3.3636	0.1	-2.4457e-003
27749	9.1481	3.2727	0.1	-2.4983e-003
27750	9.0557	3.5455	0.1	-2.7831e-003
27751	9.1481	3.4545	0.1	-2.7882e-003
27752	9.0557	3.7273	0.1	-3.2276e-003
27753	9.1481	3.6364	0.1	-3.199e-003
27754	9.0557	3.9091	0.1	-3.7538e-003
27755	9.1481	3.8182	0.1	-3.7056e-003
27756	9.0557	4.0909	0.1	-4.33e-003
27757	9.1481	4.	0.1	-4.2755e-003
27758	9.0557	4.2727	0.1	-4.9229e-003
27759	9.1481	4.1818	0.1	-4.8699e-003
27760	9.0557	4.4545	0.1	-5.5005e-003
27761	9.1481	4.3636	0.1	-5.4513e-003
27762	9.0557	4.6364	0.1	-6.0277e-003
27763	9.1481	4.5455	0.1	-5.9838e-003
27764	9.0557	4.8182	0.1	-6.4901e-003
27765	9.1481	4.7273	0.1	-6.4238e-003
27766	9.0557	5.	0.1	-6.8226e-003
27767	9.1481	4.9091	0.1	-6.7725e-003
27768	9.0557	5.1818	0.1	-7.237e-003
27769	9.1481	5.0909	0.1	-6.9014e-003
27770	9.0557	5.3636	0.1	-6.9239e-003
27771	9.1481	5.2727	0.1	-7.2827e-003
27772	9.0557	5.5455	0.1	-1.0952e-002
27773	9.1481	5.4545	0.1	-6.0468e-003
27774	9.0557	5.7273	0.1	-1.6683
27775	9.1481	5.6364	0.1	-8.993e-002
27776	9.1481	5.8182	0.1	-4.6341
27777	9.0557	5.9091	0.1	-3.2782
27778	9.2405	0.27273	0.1	-2.972
27779	9.3329	0.18182	0.1	-5.554
27780	9.2405	9.0909e-002	0.1	-3.8038
27781	9.2405	0.45455	0.1	-8.4523e-003
27782	9.3329	0.36364	0.1	-1.7544
27783	9.2405	0.63636	0.1	-6.3508e-003
27784	9.3329	0.54545	0.1	-5.5193e-003
27785	9.2405	0.81818	0.1	-6.9303e-003
27786	9.3329	0.72727	0.1	-6.8135e-003
27787	9.2405	1.	0.1	-6.8393e-003
27788	9.3329	0.90909	0.1	-6.8678e-003
27789	9.2405	1.1818	0.1	-6.6971e-003
27790	9.3329	1.0909	0.1	-6.9563e-003
27791	9.2405	1.3636	0.1	-6.3733e-003
27792	9.3329	1.2727	0.1	-6.7848e-003
27793	9.2405	1.5455	0.1	-5.929e-003
27794	9.3329	1.4545	0.1	-6.4516e-003
27795	9.2405	1.7273	0.1	-5.3926e-003
27796	9.3329	1.6364	0.1	-5.9743e-003
27797	9.2405	1.9091	0.1	-4.8088e-003
27798	9.3329	1.8182	0.1	-5.4064e-003
27799	9.2405	2.0909	0.1	-4.2189e-003
27800	9.3329	2.	0.1	-4.7947e-003
27801	9.2405	2.2727	0.1	-3.6666e-003
27802	9.3329	2.1818	0.1	-4.1894e-003
27803	9.2405	2.4545	0.1	-3.192e-003
27804	9.3329	2.3636	0.1	-3.6391e-003
27805	9.2405	2.6364	0.1	-2.8274e-003
27806	9.3329	2.5455	0.1	-3.1877e-003
27807	9.2405	2.8182	0.1	-2.5975e-003
27808	9.3329	2.7273	0.1	-2.8655e-003
27809	9.2405	3.	0.1	-2.519e-003
27810	9.3329	2.9091	0.1	-2.6979e-003
27811	9.2405	3.1818	0.1	-2.5974e-003
27812	9.3329	3.0909	0.1	-2.698e-003
27813	9.2405	3.3636	0.1	-2.8272e-003
27814	9.3329	3.2727	0.1	-2.8654e-003
27815	9.2405	3.5455	0.1	-3.1918e-003
27816	9.3329	3.4545	0.1	-3.1872e-003
27817	9.2405	3.7273	0.1	-3.6664e-003
27818	9.3329	3.6364	0.1	-3.6393e-003
27819	9.2405	3.9091	0.1	-4.2185e-003
27820	9.3329	3.8182	0.1	-4.1891e-003
27821	9.2405	4.0909	0.1	-4.8081e-003
27822	9.3329	4.	0.1	-4.7943e-003
27823	9.2405	4.2727	0.1	-5.3919e-003
27824	9.3329	4.1818	0.1	-5.4057e-003
27825	9.2405	4.4545	0.1	-5.9282e-003
27826	9.3329	4.3636	0.1	-5.9737e-003
27827	9.2405	4.6364	0.1	-6.3724e-003
27828	9.3329	4.5455	0.1	-6.4508e-003
27829	9.2405	4.8182	0.1	-6.6962e-003
27830	9.3329	4.7273	0.1	-6.784e-003
27831	9.2405	5.	0.1	-6.8381e-003
27832	9.3329	4.9091	0.1	-6.9553e-003
27833	9.2405	5.1818	0.1	-6.929e-003
27834	9.3329	5.0909	0.1	-6.8665e-003
27835	9.2405	5.3636	0.1	-6.3499e-003
27836	9.3329	5.2727	0.1	-6.8123e-003
27837	9.2405	5.5455	0.1	-8.4516e-003
27838	9.3329	5.4545	0.1	-5.5189e-003
27839	9.2405	5.7273	0.1	-2.972
27840	9.3329	5.6364	0.1	-1.7543
27841	9.3329	5.8182	0.1	-5.554
27842	9.2405	5.9091	0.1	-3.8038
27843	9.4253	0.27273	0.1	-4.268
27844	9.5177	0.18182	0.1	-6.4581
27845	9.4253	9.0909e-002	0.1	-4.3153
27846	9.4253	0.45455	0.1	-1.2377
27847	9.5177	0.36364	0.1	-3.4462
27848	9.4253	0.63636	0.1	-6.1039e-003
27849	9.5177	0.54545	0.1	-1.1173
27850	9.4253	0.81818	0.1	-6.7553e-003
27851	9.5177	0.72727	0.1	-6.6108e-003
27852	9.4253	1.	0.1	-6.9829e-003
27853	9.5177	0.90909	0.1	-6.9626e-003
27854	9.4253	1.1818	0.1	-7.0465e-003
27855	9.5177	1.0909	0.1	-7.304e-003
27856	9.4253	1.3636	0.1	-6.8692e-003
27857	9.5177	1.2727	0.1	-7.3406e-003
27858	9.4253	1.5455	0.1	-6.5038e-003
27859	9.5177	1.4545	0.1	-7.1214e-003
27860	9.4253	1.7273	0.1	-5.9931e-003
27861	9.5177	1.6364	0.1	-6.6872e-003
27862	9.4253	1.9091	0.1	-5.3938e-003
27863	9.5177	1.8182	0.1	-6.1046e-003
27864	9.4253	2.0909	0.1	-4.7623e-003
27865	9.5177	2.	0.1	-5.4397e-003
27866	9.4253	2.2727	0.1	-4.1545e-003
27867	9.5177	2.1818	0.1	-4.7599e-003
27868	9.4253	2.4545	0.1	-3.6233e-003
27869	9.5177	2.3636	0.1	-4.1293e-003
27870	9.4253	2.6364	0.1	-3.2112e-003
27871	9.5177	2.5455	0.1	-3.6053e-003
27872	9.4253	2.8182	0.1	-2.9494e-003
27873	9.5177	2.7273	0.1	-3.2287e-003
27874	9.4253	3.	0.1	-2.8598e-003
27875	9.5177	2.9091	0.1	-3.0322e-003
27876	9.4253	3.1818	0.1	-2.9494e-003
27877	9.5177	3.0909	0.1	-3.0323e-003
27878	9.4253	3.3636	0.1	-3.2108e-003
27879	9.5177	3.2727	0.1	-3.2287e-003
27880	9.4253	3.5455	0.1	-3.6232e-003
27881	9.5177	3.4545	0.1	-3.6049e-003
27882	9.4253	3.7273	0.1	-4.1545e-003
27883	9.5177	3.6364	0.1	-4.1293e-003
27884	9.4253	3.9091	0.1	-4.7619e-003
27885	9.5177	3.8182	0.1	-4.7594e-003
27886	9.4253	4.0909	0.1	-5.3933e-003
27887	9.5177	4.	0.1	-5.4394e-003
27888	9.4253	4.2727	0.1	-5.9925e-003
27889	9.5177	4.1818	0.1	-6.1039e-003
27890	9.4253	4.4545	0.1	-6.5031e-003
27891	9.5177	4.3636	0.1	-6.6867e-003
27892	9.4253	4.6364	0.1	-6.8686e-003
27893	9.5177	4.5455	0.1	-7.1209e-003
27894	9.4253	4.8182	0.1	-7.0457e-003
27895	9.5177	4.7273	0.1	-7.3399e-003
27896	9.4253	5.	0.1	-6.9818e-003
27897	9.5177	4.9091	0.1	-7.3034e-003
27898	9.4253	5.1818	0.1	-6.754e-003
27899	9.5177	5.0909	0.1	-6.9611e-003
27900	9.4253	5.3636	0.1	-6.1031e-003
27901	9.5177	5.2727	0.1	-6.6096e-003
27902	9.4253	5.5455	0.1	-1.2377
27903	9.5177	5.4545	0.1	-1.1173
27904	9.4253	5.7273	0.1	-4.268
27905	9.5177	5.6364	0.1	-3.4462
27906	9.5177	5.8182	0.1	-6.4581
27907	9.4253	5.9091	0.1	-4.3153
27908	9.6101	0.27273	0.1	-5.5653
27909	9.7025	0.18182	0.1	-7.3541
27910	9.6101	9.0909e-002	0.1	-4.8162
27911	9.6101	0.45455	0.1	-3.3047
27912	9.7025	0.36364	0.1	-5.1623
27913	9.6101	0.63636	0.1	-1.267
27914	9.7025	0.54545	0.1	-3.5827
27915	9.6101	0.81818	0.1	-6.7655e-003
27916	9.7025	0.72727	0.1	-1.7957
27917	9.6101	1.	0.1	-7.2996e-003
27918	9.7025	0.90909	0.1	-7.3749e-003
27919	9.6101	1.1818	0.1	-7.6444e-003
27920	9.7025	1.0909	0.1	-8.1143e-003
27921	9.6101	1.3636	0.1	-7.646e-003
27922	9.7025	1.2727	0.1	-8.4056e-003
27923	9.6101	1.5455	0.1	-7.3531e-003
27924	9.7025	1.4545	0.1	-8.2782e-003
27925	9.6101	1.7273	0.1	-6.8363e-003
27926	9.7025	1.6364	0.1	-7.8257e-003
27927	9.6101	1.9091	0.1	-6.1751e-003
27928	9.7025	1.8182	0.1	-7.1485e-003
27929	9.6101	2.0909	0.1	-5.449e-003
27930	9.7025	2.	0.1	-6.345e-003
27931	9.6101	2.2727	0.1	-4.7349e-003
27932	9.7025	2.1818	0.1	-5.5085e-003
27933	9.6101	2.4545	0.1	-4.102e-003
27934	9.7025	2.3636	0.1	-4.7263e-003
27935	9.6101	2.6364	0.1	-3.6066e-003
27936	9.7025	2.5455	0.1	-4.0718e-003
27937	9.6101	2.8182	0.1	-3.291e-003
27938	9.7025	2.7273	0.1	-3.6012e-003
27939	9.6101	3.	0.1	-3.1829e-003
27940	9.7025	2.9091	0.1	-3.3555e-003
27941	9.6101	3.1818	0.1	-3.2911e-003
27942	9.7025	3.0909	0.1	-3.3552e-003
27943	9.6101	3.3636	0.1	-3.6066e-003
27944	9.7025	3.2727	0.1	-3.6012e-003
27945	9.6101	3.5455	0.1	-4.1017e-003
27946	9.7025	3.4545	0.1	-4.0718e-003
27947	9.6101	3.7273	0.1	-4.7344e-003
27948	9.7025	3.6364	0.1	-4.726e-003
27949	9.6101	3.9091	0.1	-5.4487e-003
27950	9.7025	3.8182	0.1	-5.5083e-003
27951	9.6101	4.0909	0.1	-6.1746e-003
27952	9.7025	4.	0.1	-6.3448e-003
27953	9.6101	4.2727	0.1	-6.8356e-003
27954	9.7025	4.1818	0.1	-7.148e-003
27955	9.6101	4.4545	0.1	-7.3527e-003
27956	9.7025	4.3636	0.1	-7.8251e-003
27957	9.6101	4.6364	0.1	-7.6454e-003
27958	9.7025	4.5455	0.1	-8.2776e-003
27959	9.6101	4.8182	0.1	-7.644e-003
27960	9.7025	4.7273	0.1	-8.405e-003
27961	9.6101	5.	0.1	-7.2986e-003
27962	9.7025	4.9091	0.1	-8.1139e-003
27963	9.6101	5.1818	0.1	-6.764e-003
27964	9.7025	5.0909	0.1	-7.3736e-003
27965	9.6101	5.3636	0.1	-1.267
27966	9.7025	5.2727	0.1	-1.7957
27967	9.6101	5.5455	0.1	-3.3047
27968	9.7025	5.4545	0.1	-3.5827
27969	9.6101	5.7273	0.1	-5.5653
27970	9.7025	5.6364	0.1	-5.1623
27971	9.7025	5.8182	0.1	-7.354
27972	9.6101	5.9091	0.1	-4.8162
27973	9.7949	0.27273	0.1	-6.8789
27974	9.8873	0.18182	0.1	-8.251
27975	9.7949	9.0909e-002	0.1	-5.3105
27976	9.7949	0.45455	0.1	-5.4189
27977	9.8873	0.36364	0.1	-6.9271
27978	9.7949	0.63636	0.1	-4.0942
27979	9.8873	0.54545	0.1	-6.1265
27980	9.7949	0.81818	0.1	-2.4855
27981	9.8873	0.72727	0.1	-5.0139
27982	9.7949	1.	0.1	-0.5747
27983	9.8873	0.90909	0.1	-3.5319
27984	9.7949	1.1818	0.1	-9.7705e-003
27985	9.8873	1.0909	0.1	-1.6953
27986	9.7949	1.3636	0.1	-9.4691e-003
27987	9.8873	1.2727	0.1	-2.2485e-002
27988	9.7949	1.5455	0.1	-9.0185e-003
27989	9.8873	1.4545	0.1	-1.2189e-002
27990	9.7949	1.7273	0.1	-8.3093e-003
27991	9.8873	1.6364	0.1	-1.0547e-002
27992	9.7949	1.9091	0.1	-7.4237e-003
27993	9.8873	1.8182	0.1	-9.2292e-003
27994	9.7949	2.0909	0.1	-6.4621e-003
27995	9.8873	2.	0.1	-7.9401e-003
27996	9.7949	2.2727	0.1	-5.5229e-003
27997	9.8873	2.1818	0.1	-6.7004e-003
27998	9.7949	2.4545	0.1	-4.6943e-003
27999	9.8873	2.3636	0.1	-5.5861e-003
28000	9.7949	2.6364	0.1	-4.048e-003
28001	9.8873	2.5455	0.1	-4.6737e-003
28002	9.7949	2.8182	0.1	-3.6376e-003
28003	9.8873	2.7273	0.1	-4.0263e-003
28004	9.7949	3.	0.1	-3.4967e-003
28005	9.8873	2.9091	0.1	-3.6908e-003
28006	9.7949	3.1818	0.1	-3.6373e-003
28007	9.8873	3.0909	0.1	-3.6904e-003
28008	9.7949	3.3636	0.1	-4.048e-003
28009	9.8873	3.2727	0.1	-4.0265e-003
28010	9.7949	3.5455	0.1	-4.6943e-003
28011	9.8873	3.4545	0.1	-4.6738e-003
28012	9.7949	3.7273	0.1	-5.5228e-003
28013	9.8873	3.6364	0.1	-5.5858e-003
28014	9.7949	3.9091	0.1	-6.462e-003
28015	9.8873	3.8182	0.1	-6.7002e-003
28016	9.7949	4.0909	0.1	-7.4235e-003
28017	9.8873	4.	0.1	-7.9398e-003
28018	9.7949	4.2727	0.1	-8.3088e-003
28019	9.8873	4.1818	0.1	-9.229e-003
28020	9.7949	4.4545	0.1	-9.0178e-003
28021	9.8873	4.3636	0.1	-1.0546e-002
28022	9.7949	4.6364	0.1	-9.4685e-003
28023	9.8873	4.5455	0.1	-1.2188e-002
28024	9.7949	4.8182	0.1	-9.77e-003
28025	9.8873	4.7273	0.1	-2.2484e-002
28026	9.7949	5.	0.1	-0.57469
28027	9.8873	4.9091	0.1	-1.6953
28028	9.7949	5.1818	0.1	-2.4855
28029	9.8873	5.0909	0.1	-3.5319
28030	9.7949	5.3636	0.1	-4.0942
28031	9.8873	5.2727	0.1	-5.0139
28032	9.7949	5.5455	0.1	-5.4189
28033	9.8873	5.4545	0.1	-6.1265
28034	9.7949	5.7273	0.1	-6.8788
28035	9.8873	5.6364	0.1	-6.927
28036	9.8873	5.8182	0.1	-8.251
28037	9.7949	5.9091	0.1	-5.3104
28038	9.9797	0.27273	0.1	-8.2263
28039	10.072	0.18182	0.1	-9.1596
28040	9.9797	9.0909e-002	0.1	-5.803
28041	9.9797	0.45455	0.1	-7.6126
28042	10.072	0.36364	0.1	-8.7683
28043	9.9797	0.63636	0.1	-7.0283
28044	10.072	0.54545	0.1	-8.7893
28045	9.9797	0.81818	0.1	-6.0443
28046	10.072	0.72727	0.1	-8.3748
28047	9.9797	1.	0.1	-4.638
28048	10.072	0.90909	0.1	-7.4622
28049	9.9797	1.1818	0.1	-2.8412
28050	10.072	1.0909	0.1	-6.0642
28051	9.9797	1.3636	0.1	-0.72783
28052	10.072	1.2727	0.1	-4.2337
28053	9.9797	1.5455	0.1	-1.8503e-002
28054	10.072	1.4545	0.1	-2.0577
28055	9.9797	1.7273	0.1	-1.2727e-002
28056	10.072	1.6364	0.1	-6.7437e-002
28057	9.9797	1.9091	0.1	-1.0278e-002
28058	10.072	1.8182	0.1	-1.7751e-002
28059	9.9797	2.0909	0.1	-8.426e-003
28060	10.072	2.	0.1	-1.2192e-002
28061	9.9797	2.2727	0.1	-6.8691e-003
28062	10.072	2.1818	0.1	-9.2231e-003
28063	9.9797	2.4545	0.1	-5.5918e-003
28064	10.072	2.3636	0.1	-7.1214e-003
28065	9.9797	2.6364	0.1	-4.6333e-003
28066	10.072	2.5455	0.1	-5.5843e-003
28067	9.9797	2.8182	0.1	-4.0372e-003
28068	10.072	2.7273	0.1	-4.5542e-003
28069	9.9797	3.	0.1	-3.8349e-003
28070	10.072	2.9091	0.1	-4.0346e-003
28071	9.9797	3.1818	0.1	-4.0373e-003
28072	10.072	3.0909	0.1	-4.0344e-003
28073	9.9797	3.3636	0.1	-4.6334e-003
28074	10.072	3.2727	0.1	-4.5542e-003
28075	9.9797	3.5455	0.1	-5.5916e-003
28076	10.072	3.4545	0.1	-5.5841e-003
28077	9.9797	3.7273	0.1	-6.8687e-003
28078	10.072	3.6364	0.1	-7.1212e-003
28079	9.9797	3.9091	0.1	-8.4256e-003
28080	10.072	3.8182	0.1	-9.2227e-003
28081	9.9797	4.0909	0.1	-1.0278e-002
28082	10.072	4.	0.1	-1.2192e-002
28083	9.9797	4.2727	0.1	-1.2726e-002
28084	10.072	4.1818	0.1	-1.7751e-002
28085	9.9797	4.4545	0.1	-1.8502e-002
28086	10.072	4.3636	0.1	-6.7436e-002
28087	9.9797	4.6364	0.1	-0.72781
28088	10.072	4.5455	0.1	-2.0577
28089	9.9797	4.8182	0.1	-2.8412
28090	10.072	4.7273	0.1	-4.2337
28091	9.9797	5.	0.1	-4.638
28092	10.072	4.9091	0.1	-6.0642
28093	9.9797	5.1818	0.1	-6.0443
28094	10.072	5.0909	0.1	-7.4622
28095	9.9797	5.3636	0.1	-7.0283
28096	10.072	5.2727	0.1	-8.3748
28097	9.9797	5.5455	0.1	-7.6126
28098	10.072	5.4545	0.1	-8.7893
28099	9.9797	5.7273	0.1	-8.2263
28100	10.072	5.6364	0.1	-8.7683
28101	10.072	5.8182	0.1	-9.1596
28102	9.9797	5.9091	0.1	-5.803
28103	10.165	0.27273	0.1	-9.6281
28104	10.257	0.18182	0.1	-10.092
28105	10.165	9.0909e-002	0.1	-6.2992
28106	10.165	0.45455	0.1	-9.9224
28107	10.257	0.36364	0.1	-10.718
28108	10.165	0.63636	0.1	-10.118
28109	10.257	0.54545	0.1	-11.617
28110	10.165	0.81818	0.1	-9.7766
28111	10.257	0.72727	0.1	-11.935
28112	10.165	1.	0.1	-8.8739
28113	10.257	0.90909	0.1	-11.604
28114	10.165	1.1818	0.1	-7.4435
28115	10.257	1.0909	0.1	-10.635
28116	10.165	1.3636	0.1	-5.5584
28117	10.257	1.2727	0.1	-9.09
28118	10.165	1.5455	0.1	-3.3244
28119	10.257	1.4545	0.1	-7.0661
28120	10.165	1.7273	0.1	-0.89163
28121	10.257	1.6364	0.1	-4.693
28122	10.165	1.9091	0.1	-2.8818e-002
28123	10.257	1.8182	0.1	-2.1277
28124	10.165	2.0909	0.1	-1.4737e-002
28125	10.257	2.	0.1	-8.5708e-002
28126	10.165	2.2727	0.1	-1.0022e-002
28127	10.257	2.1818	0.1	-1.9783e-002
28128	10.165	2.4545	0.1	-7.2727e-003
28129	10.257	2.3636	0.1	-1.1304e-002
28130	10.165	2.6364	0.1	-5.5039e-003
28131	10.257	2.5455	0.1	-7.4738e-003
28132	10.165	2.8182	0.1	-4.4812e-003
28133	10.257	2.7273	0.1	-5.3743e-003
28134	10.165	3.	0.1	-4.1441e-003
28135	10.257	2.9091	0.1	-4.4027e-003
28136	10.165	3.1818	0.1	-4.481e-003
28137	10.257	3.0909	0.1	-4.4027e-003
28138	10.165	3.3636	0.1	-5.5036e-003
28139	10.257	3.2727	0.1	-5.3741e-003
28140	10.165	3.5455	0.1	-7.2724e-003
28141	10.257	3.4545	0.1	-7.4736e-003
28142	10.165	3.7273	0.1	-1.0021e-002
28143	10.257	3.6364	0.1	-1.1304e-002
28144	10.165	3.9091	0.1	-1.4737e-002
28145	10.257	3.8182	0.1	-1.9782e-002
28146	10.165	4.0909	0.1	-2.8817e-002
28147	10.257	4.	0.1	-8.5706e-002
28148	10.165	4.2727	0.1	-0.89162
28149	10.257	4.1818	0.1	-2.1277
28150	10.165	4.4545	0.1	-3.3244
28151	10.257	4.3636	0.1	-4.693
28152	10.165	4.6364	0.1	-5.5584
28153	10.257	4.5455	0.1	-7.0661
28154	10.165	4.8182	0.1	-7.4434
28155	10.257	4.7273	0.1	-9.09
28156	10.165	5.	0.1	-8.8739
28157	10.257	4.9091	0.1	-10.635
28158	10.165	5.1818	0.1	-9.7766
28159	10.257	5.0909	0.1	-11.604
28160	10.165	5.3636	0.1	-10.118
28161	10.257	5.2727	0.1	-11.935
28162	10.165	5.5455	0.1	-9.9223
28163	10.257	5.4545	0.1	-11.617
28164	10.165	5.7273	0.1	-9.628
28165	10.257	5.6364	0.1	-10.718
28166	10.257	5.8182	0.1	-10.092
28167	10.165	5.9091	0.1	-6.2992
28168	10.349	0.27273	0.1	-11.107
28169	10.442	0.18182	0.1	-11.062
28170	10.349	9.0909e-002	0.1	-6.8053
28171	10.349	0.45455	0.1	-12.389
28172	10.442	0.36364	0.1	-12.811
28173	10.349	0.63636	0.1	-13.417
28174	10.442	0.54545	0.1	-14.663
28175	10.349	0.81818	0.1	-13.746
28176	10.442	0.72727	0.1	-15.759
28177	10.349	1.	0.1	-13.351
28178	10.442	0.90909	0.1	-16.028
28179	10.349	1.1818	0.1	-12.269
28180	10.442	1.0909	0.1	-15.483
28181	10.349	1.3636	0.1	-10.585
28182	10.442	1.2727	0.1	-14.194
28183	10.349	1.5455	0.1	-8.4237
28184	10.442	1.4545	0.1	-12.278
28185	10.349	1.7273	0.1	-5.9352
28186	10.442	1.6364	0.1	-9.8863
28187	10.349	1.9091	0.1	-3.2926
28188	10.442	1.8182	0.1	-7.1984
28189	10.349	2.0909	0.1	-0.71848
28190	10.442	2.	0.1	-4.4094
28191	10.349	2.2727	0.1	-2.9704e-002
28192	10.442	2.1818	0.1	-1.7267
28193	10.349	2.4545	0.1	-1.281e-002
28194	10.442	2.3636	0.1	-6.412e-002
28195	10.349	2.6364	0.1	-7.5293e-003
28196	10.442	2.5455	0.1	-1.5397e-002
28197	10.349	2.8182	0.1	-5.1757e-003
28198	10.442	2.7273	0.1	-7.5624e-003
28199	10.349	3.	0.1	-4.4703e-003
28200	10.442	2.9091	0.1	-4.9717e-003
28201	10.349	3.1818	0.1	-5.1758e-003
28202	10.442	3.0909	0.1	-4.9717e-003
28203	10.349	3.3636	0.1	-7.5292e-003
28204	10.442	3.2727	0.1	-7.5623e-003
28205	10.349	3.5455	0.1	-1.2809e-002
28206	10.442	3.4545	0.1	-1.5397e-002
28207	10.349	3.7273	0.1	-2.9703e-002
28208	10.442	3.6364	0.1	-6.4119e-002
28209	10.349	3.9091	0.1	-0.71847
28210	10.442	3.8182	0.1	-1.7267
28211	10.349	4.0909	0.1	-3.2926
28212	10.442	4.	0.1	-4.4094
28213	10.349	4.2727	0.1	-5.9351
28214	10.442	4.1818	0.1	-7.1984
28215	10.349	4.4545	0.1	-8.4237
28216	10.442	4.3636	0.1	-9.8863
28217	10.349	4.6364	0.1	-10.585
28218	10.442	4.5455	0.1	-12.278
28219	10.349	4.8182	0.1	-12.269
28220	10.442	4.7273	0.1	-14.194
28221	10.349	5.	0.1	-13.351
28222	10.442	4.9091	0.1	-15.483
28223	10.349	5.1818	0.1	-13.746
28224	10.442	5.0909	0.1	-16.028
28225	10.349	5.3636	0.1	-13.417
28226	10.442	5.2727	0.1	-15.759
28227	10.349	5.5455	0.1	-12.389
28228	10.442	5.4545	0.1	-14.663
28229	10.349	5.7273	0.1	-11.107
28230	10.442	5.6364	0.1	-12.811
28231	10.442	5.8182	0.1	-11.062
28232	10.349	5.9091	0.1	-6.8053
28233	10.534	0.27273	0.1	-12.69
28234	10.627	0.18182	0.1	-12.086
28235	10.534	9.0909e-002	0.1	-7.3289
28236	10.534	0.45455	0.1	-15.061
28237	10.627	0.36364	0.1	-15.088
28238	10.534	0.63636	0.1	-16.987
28239	10.627	0.54545	0.1	-17.985
28240	10.534	0.81818	0.1	-18.025
28241	10.627	0.72727	0.1	-19.919
28242	10.534	1.	0.1	-18.146
28243	10.627	0.90909	0.1	-20.815
28244	10.534	1.1818	0.1	-17.396
28245	10.627	1.0909	0.1	-20.691
28246	10.534	1.3636	0.1	-15.875
28247	10.627	1.2727	0.1	-19.63
28248	10.534	1.5455	0.1	-13.729
28249	10.627	1.4545	0.1	-17.77
28250	10.534	1.7273	0.1	-11.139
28251	10.627	1.6364	0.1	-15.291
28252	10.534	1.9091	0.1	-8.3061
28253	10.627	1.8182	0.1	-12.407
28254	10.534	2.0909	0.1	-5.4442
28255	10.627	2.	0.1	-9.3492
28256	10.534	2.2727	0.1	-2.7652
28257	10.627	2.1818	0.1	-6.3534
28258	10.534	2.4545	0.1	-0.51197
28259	10.627	2.3636	0.1	-3.6444
28260	10.534	2.6364	0.1	-2.1486e-002
28261	10.627	2.5455	0.1	-1.4262
28262	10.534	2.8182	0.1	-7.4564e-003
28263	10.627	2.7273	0.1	-7.074e-002
28264	10.534	3.	0.1	-4.949e-003
28265	10.627	2.9091	0.1	-7.1283e-003
28266	10.534	3.1818	0.1	-7.4563e-003
28267	10.627	3.0909	0.1	-7.1282e-003
28268	10.534	3.3636	0.1	-2.1486e-002
28269	10.627	3.2727	0.1	-7.0739e-002
28270	10.534	3.5455	0.1	-0.51196
28271	10.627	3.4545	0.1	-1.4262
28272	10.534	3.7273	0.1	-2.7652
28273	10.627	3.6364	0.1	-3.6444
28274	10.534	3.9091	0.1	-5.4441
28275	10.627	3.8182	0.1	-6.3534
28276	10.534	4.0909	0.1	-8.306
28277	10.627	4.	0.1	-9.3492
28278	10.534	4.2727	0.1	-11.139
28279	10.627	4.1818	0.1	-12.407
28280	10.534	4.4545	0.1	-13.729
28281	10.627	4.3636	0.1	-15.291
28282	10.534	4.6364	0.1	-15.875
28283	10.627	4.5455	0.1	-17.77
28284	10.534	4.8182	0.1	-17.396
28285	10.627	4.7273	0.1	-19.63
28286	10.534	5.	0.1	-18.146
28287	10.627	4.9091	0.1	-20.691
28288	10.534	5.1818	0.1	-18.025
28289	10.627	5.0909	0.1	-20.815
28290	10.534	5.3636	0.1	-16.987
28291	10.627	5.2727	0.1	-19.919
28292	10.534	5.5455	0.1	-15.061
28293	10.627	5.4545	0.1	-17.985
28294	10.534	5.7273	0.1	-12.69
28295	10.627	5.6364	0.1	-15.088
28296	10.627	5.8182	0.1	-12.086
28297	10.534	5.9091	0.1	-7.3289
28298	10.719	0.27273	0.1	-14.407
28299	10.811	0.18182	0.1	-13.182
28300	10.719	9.0909e-002	0.1	-7.8779
28301	10.719	0.45455	0.1	-17.988
28302	10.811	0.36364	0.1	-17.595
28303	10.719	0.63636	0.1	-20.898
28304	10.811	0.54545	0.1	-21.649
28305	10.719	0.81818	0.1	-22.694
28306	10.811	0.72727	0.1	-24.494
28307	10.719	1.	0.1	-23.347
28308	10.811	0.90909	0.1	-26.056
28309	10.719	1.1818	0.1	-22.914
28310	10.811	1.0909	0.1	-26.355
28311	10.719	1.3636	0.1	-21.514
28312	10.811	1.2727	0.1	-25.492
28313	10.719	1.5455	0.1	-19.32
28314	10.811	1.4545	0.1	-23.631
28315	10.719	1.7273	0.1	-16.548
28316	10.811	1.6364	0.1	-20.987
28317	10.719	1.9091	0.1	-13.44
28318	10.811	1.8182	0.1	-17.816
28319	10.719	2.0909	0.1	-10.248
28320	10.811	2.	0.1	-14.393
28321	10.719	2.2727	0.1	-7.2252
28322	10.811	2.1818	0.1	-11.001
28323	10.719	2.4545	0.1	-4.6007
28324	10.811	2.3636	0.1	-7.9078
28325	10.719	2.6364	0.1	-2.5712
28326	10.811	2.5455	0.1	-5.3531
28327	10.719	2.8182	0.1	-1.2851
28328	10.811	2.7273	0.1	-3.5309
28329	10.719	3.	0.1	-0.84049
28330	10.811	2.9091	0.1	-2.5806
28331	10.719	3.1818	0.1	-1.2851
28332	10.811	3.0909	0.1	-2.5806
28333	10.719	3.3636	0.1	-2.5712
28334	10.811	3.2727	0.1	-3.5309
28335	10.719	3.5455	0.1	-4.6007
28336	10.811	3.4545	0.1	-5.353
28337	10.719	3.7273	0.1	-7.2252
28338	10.811	3.6364	0.1	-7.9077
28339	10.719	3.9091	0.1	-10.248
28340	10.811	3.8182	0.1	-11.001
28341	10.719	4.0909	0.1	-13.44
28342	10.811	4.	0.1	-14.393
28343	10.719	4.2727	0.1	-16.548
28344	10.811	4.1818	0.1	-17.816
28345	10.719	4.4545	0.1	-19.32
28346	10.811	4.3636	0.1	-20.987
28347	10.719	4.6364	0.1	-21.514
28348	10.811	4.5455	0.1	-23.631
28349	10.719	4.8182	0.1	-22.914
28350	10.811	4.7273	0.1	-25.492
28351	10.719	5.	0.1	-23.347
28352	10.811	4.9091	0.1	-26.355
28353	10.719	5.1818	0.1	-22.694
28354	10.811	5.0909	0.1	-26.056
28355	10.719	5.3636	0.1	-20.898
28356	10.811	5.2727	0.1	-24.494
28357	10.719	5.5455	0.1	-17.988
28358	10.811	5.4545	0.1	-21.649
28359	10.719	5.7273	0.1	-14.407
28360	10.811	5.6364	0.1	-17.595
28361	10.811	5.8182	0.1	-13.182
28362	10.719	5.9091	0.1	-7.8779
28363	10.904	0.27273	0.1	-16.292
28364	10.996	0.18182	0.1	-14.371
28365	10.904	9.0909e-002	0.1	-8.462
28366	10.904	0.45455	0.1	-21.232
28367	10.996	0.36364	0.1	-20.383
28368	10.904	0.63636	0.1	-25.228
28369	10.996	0.54545	0.1	-25.729
28370	10.904	0.81818	0.1	-27.842
28371	10.996	0.72727	0.1	-29.576
28372	10.904	1.	0.1	-29.051
28373	10.996	0.90909	0.1	-31.85
28374	10.904	1.1818	0.1	-28.922
28375	10.996	1.0909	0.1	-32.58
28376	10.904	1.3636	0.1	-27.599
28377	10.996	1.2727	0.1	-31.887
28378	10.904	1.5455	0.1	-25.288
28379	10.996	1.4545	0.1	-29.965
28380	10.904	1.7273	0.1	-22.246
28381	10.996	1.6364	0.1	-27.072
28382	10.904	1.9091	0.1	-18.76
28383	10.996	1.8182	0.1	-23.51
28384	10.904	2.0909	0.1	-15.136
28385	10.996	2.	0.1	-19.609
28386	10.904	2.2727	0.1	-11.674
28387	10.996	2.1818	0.1	-15.709
28388	10.904	2.4545	0.1	-8.6506
28389	10.996	2.3636	0.1	-12.132
28390	10.904	2.6364	0.1	-6.3041
28391	10.996	2.5455	0.1	-9.1651
28392	10.904	2.8182	0.1	-4.8169
28393	10.996	2.7273	0.1	-7.0451
28394	10.904	3.	0.1	-4.307
28395	10.996	2.9091	0.1	-5.94
28396	10.904	3.1818	0.1	-4.8169
28397	10.996	3.0909	0.1	-5.94
28398	10.904	3.3636	0.1	-6.3041
28399	10.996	3.2727	0.1	-7.0451
28400	10.904	3.5455	0.1	-8.6505
28401	10.996	3.4545	0.1	-9.1651
28402	10.904	3.7273	0.1	-11.674
28403	10.996	3.6364	0.1	-12.132
28404	10.904	3.9091	0.1	-15.136
28405	10.996	3.8182	0.1	-15.709
28406	10.904	4.0909	0.1	-18.76
28407	10.996	4.	0.1	-19.609
28408	10.904	4.2727	0.1	-22.246
28409	10.996	4.1818	0.1	-23.509
28410	10.904	4.4545	0.1	-25.288
28411	10.996	4.3636	0.1	-27.071
28412	10.904	4.6364	0.1	-27.599
28413	10.996	4.5455	0.1	-29.965
28414	10.904	4.8182	0.1	-28.922
28415	10.996	4.7273	0.1	-31.887
28416	10.904	5.	0.1	-29.051
28417	10.996	4.9091	0.1	-32.58
28418	10.904	5.1818	0.1	-27.842
28419	10.996	5.0909	0.1	-31.85
28420	10.904	5.3636	0.1	-25.228
28421	10.996	5.2727	0.1	-29.576
28422	10.904	5.5455	0.1	-21.232
28423	10.996	5.4545	0.1	-25.729
28424	10.904	5.7273	0.1	-16.292
28425	10.996	5.6364	0.1	-20.383
28426	10.996	5.8182	0.1	-14.371
28427	10.904	5.9091	0.1	-8.462
28428	11.089	0.27273	0.1	-18.382
28429	11.181	0.18182	0.1	-15.677
28430	11.089	9.0909e-002	0.1	-9.0922
28431	11.089	0.45455	0.1	-24.856
28432	11.181	0.36364	0.1	-23.508
28433	11.089	0.63636	0.1	-30.061
28434	11.181	0.54545	0.1	-30.305
28435	11.089	0.81818	0.1	-33.571
28436	11.181	0.72727	0.1	-35.262
28437	11.089	1.	0.1	-35.368
28438	11.181	0.90909	0.1	-38.309
28439	11.089	1.1818	0.1	-35.536
28440	11.181	1.0909	0.1	-39.486
28441	11.089	1.3636	0.1	-34.244
28442	11.181	1.2727	0.1	-38.937
28443	11.089	1.5455	0.1	-31.74
28444	11.181	1.4545	0.1	-36.891
28445	11.089	1.7273	0.1	-28.327
28446	11.181	1.6364	0.1	-33.654
28447	11.089	1.9091	0.1	-24.351
28448	11.181	1.8182	0.1	-29.586
28449	11.089	2.0909	0.1	-20.174
28450	11.181	2.	0.1	-25.082
28451	11.089	2.2727	0.1	-16.158
28452	11.181	2.1818	0.1	-20.545
28453	11.089	2.4545	0.1	-12.637
28454	11.181	2.3636	0.1	-16.365
28455	11.089	2.6364	0.1	-9.896
28456	11.181	2.5455	0.1	-12.889
28457	11.089	2.8182	0.1	-8.1569
28458	11.181	2.7273	0.1	-10.4
28459	11.089	3.	0.1	-7.5607
28460	11.181	2.9091	0.1	-9.1023
28461	11.089	3.1818	0.1	-8.1569
28462	11.181	3.0909	0.1	-9.1023
28463	11.089	3.3636	0.1	-9.8959
28464	11.181	3.2727	0.1	-10.4
28465	11.089	3.5455	0.1	-12.636
28466	11.181	3.4545	0.1	-12.889
28467	11.089	3.7273	0.1	-16.158
28468	11.181	3.6364	0.1	-16.365
28469	11.089	3.9091	0.1	-20.174
28470	11.181	3.8182	0.1	-20.545
28471	11.089	4.0909	0.1	-24.351
28472	11.181	4.	0.1	-25.082
28473	11.089	4.2727	0.1	-28.327
28474	11.181	4.1818	0.1	-29.586
28475	11.089	4.4545	0.1	-31.74
28476	11.181	4.3636	0.1	-33.654
28477	11.089	4.6364	0.1	-34.244
28478	11.181	4.5455	0.1	-36.891
28479	11.089	4.8182	0.1	-35.536
28480	11.181	4.7273	0.1	-38.937
28481	11.089	5.	0.1	-35.368
28482	11.181	4.9091	0.1	-39.486
28483	11.089	5.1818	0.1	-33.571
28484	11.181	5.0909	0.1	-38.309
28485	11.089	5.3636	0.1	-30.061
28486	11.181	5.2727	0.1	-35.262
28487	11.089	5.5455	0.1	-24.856
28488	11.181	5.4545	0.1	-30.305
28489	11.089	5.7273	0.1	-18.382
28490	11.181	5.6364	0.1	-23.508
28491	11.181	5.8182	0.1	-15.677
28492	11.089	5.9091	0.1	-9.0922
28493	11.273	0.27273	0.1	-20.72
28494	11.366	0.18182	0.1	-17.126
28495	11.273	9.0909e-002	0.1	-9.7808
28496	11.273	0.45455	0.1	-28.932
28497	11.366	0.36364	0.1	-27.03
28498	11.273	0.63636	0.1	-35.491
28499	11.366	0.54545	0.1	-35.463
28500	11.273	0.81818	0.1	-39.99
28501	11.366	0.72727	0.1	-41.659
28502	11.273	1.	0.1	-42.419
28503	11.366	0.90909	0.1	-45.557
28504	11.273	1.1818	0.1	-42.881
28505	11.366	1.0909	0.1	-47.208
28506	11.273	1.3636	0.1	-41.578
28507	11.366	1.2727	0.1	-46.781
28508	11.273	1.5455	0.1	-38.8
28509	11.366	1.4545	0.1	-44.548
28510	11.273	1.7273	0.1	-34.907
28511	11.366	1.6364	0.1	-40.868
28512	11.273	1.9091	0.1	-30.311
28513	11.366	1.8182	0.1	-36.166
28514	11.273	2.0909	0.1	-25.446
28515	11.366	2.	0.1	-30.914
28516	11.273	2.2727	0.1	-20.745
28517	11.366	2.1818	0.1	-25.596
28518	11.273	2.4545	0.1	-16.61
28519	11.366	2.3636	0.1	-20.678
28520	11.273	2.6364	0.1	-13.384
28521	11.366	2.5455	0.1	-16.579
28522	11.273	2.8182	0.1	-11.335
28523	11.366	2.7273	0.1	-13.64
28524	11.273	3.	0.1	-10.633
28525	11.366	2.9091	0.1	-12.106
28526	11.273	3.1818	0.1	-11.335
28527	11.366	3.0909	0.1	-12.106
28528	11.273	3.3636	0.1	-13.384
28529	11.366	3.2727	0.1	-13.64
28530	11.273	3.5455	0.1	-16.609
28531	11.366	3.4545	0.1	-16.579
28532	11.273	3.7273	0.1	-20.745
28533	11.366	3.6364	0.1	-20.678
28534	11.273	3.9091	0.1	-25.446
28535	11.366	3.8182	0.1	-25.596
28536	11.273	4.0909	0.1	-30.311
28537	11.366	4.	0.1	-30.914
28538	11.273	4.2727	0.1	-34.907
28539	11.366	4.1818	0.1	-36.166
28540	11.273	4.4545	0.1	-38.8
28541	11.366	4.3636	0.1	-40.868
28542	11.273	4.6364	0.1	-41.578
28543	11.366	4.5455	0.1	-44.548
28544	11.273	4.8182	0.1	-42.881
28545	11.366	4.7273	0.1	-46.781
28546	11.273	5.	0.1	-42.419
28547	11.366	4.9091	0.1	-47.207
28548	11.273	5.1818	0.1	-39.989
28549	11.366	5.0909	0.1	-45.557
28550	11.273	5.3636	0.1	-35.491
28551	11.366	5.2727	0.1	-41.659
28552	11.273	5.5455	0.1	-28.932
28553	11.366	5.4545	0.1	-35.463
28554	11.273	5.7273	0.1	-20.72
28555	11.366	5.6364	0.1	-27.03
28556	11.366	5.8182	0.1	-17.126
28557	11.273	5.9091	0.1	-9.7808
28558	11.458	0.27273	0.1	-23.35
28559	11.551	0.18182	0.1	-18.749
28560	11.458	9.0909e-002	0.1	-10.543
28561	11.458	0.45455	0.1	-33.537
28562	11.551	0.36364	0.1	-31.012
28563	11.458	0.63636	0.1	-41.619
28564	11.551	0.54545	0.1	-41.294
28565	11.458	0.81818	0.1	-47.219
28566	11.551	0.72727	0.1	-48.881
28567	11.458	1.	0.1	-50.341
28568	11.551	0.90909	0.1	-53.727
28569	11.458	1.1818	0.1	-51.105
28570	11.551	1.0909	0.1	-55.894
28571	11.458	1.3636	0.1	-49.75
28572	11.551	1.2727	0.1	-55.58
28573	11.458	1.5455	0.1	-46.614
28574	11.551	1.4545	0.1	-53.099
28575	11.458	1.7273	0.1	-42.124
28576	11.551	1.6364	0.1	-48.87
28577	11.458	1.9091	0.1	-36.765
28578	11.551	1.8182	0.1	-43.396
28579	11.458	2.0909	0.1	-31.059
28580	11.551	2.	0.1	-37.236
28581	11.458	2.2727	0.1	-25.523
28582	11.551	2.1818	0.1	-30.971
28583	11.458	2.4545	0.1	-20.641
28584	11.551	2.3636	0.1	-25.161
28585	11.458	2.6364	0.1	-16.827
28586	11.551	2.5455	0.1	-20.31
28587	11.458	2.8182	0.1	-14.401
28588	11.551	2.7273	0.1	-16.828
28589	11.458	3.	0.1	-13.569
28590	11.551	2.9091	0.1	-15.01
28591	11.458	3.1818	0.1	-14.401
28592	11.551	3.0909	0.1	-15.01
28593	11.458	3.3636	0.1	-16.827
28594	11.551	3.2727	0.1	-16.828
28595	11.458	3.5455	0.1	-20.641
28596	11.551	3.4545	0.1	-20.31
28597	11.458	3.7273	0.1	-25.523
28598	11.551	3.6364	0.1	-25.161
28599	11.458	3.9091	0.1	-31.059
28600	11.551	3.8182	0.1	-30.971
28601	11.458	4.0909	0.1	-36.765
28602	11.551	4.	0.1	-37.236
28603	11.458	4.2727	0.1	-42.124
28604	11.551	4.1818	0.1	-43.396
28605	11.458	4.4545	0.1	-46.614
28606	11.551	4.3636	0.1	-48.87
28607	11.458	4.6364	0.1	-49.75
28608	11.551	4.5455	0.1	-53.099
28609	11.458	4.8182	0.1	-51.105
28610	11.551	4.7273	0.1	-55.58
28611	11.458	5.	0.1	-50.341
28612	11.551	4.9091	0.1	-55.894
28613	11.458	5.1818	0.1	-47.219
28614	11.551	5.0909	0.1	-53.727
28615	11.458	5.3636	0.1	-41.619
28616	11.551	5.2727	0.1	-48.881
28617	11.458	5.5455	0.1	-33.537
28618	11.551	5.4545	0.1	-41.293
28619	11.458	5.7273	0.1	-23.35
28620	11.551	5.6364	0.1	-31.012
28621	11.551	5.8182	0.1	-18.749
28622	11.458	5.9091	0.1	-10.543
28623	11.643	0.27273	0.1	-26.321
28624	11.735	0.18182	0.1	-20.578
28625	11.643	9.0909e-002	0.1	-11.393
28626	11.643	0.45455	0.1	-38.748
28627	11.735	0.36364	0.1	-35.518
28628	11.643	0.63636	0.1	-48.549
28629	11.735	0.54545	0.1	-47.887
28630	11.643	0.81818	0.1	-55.388
28631	11.735	0.72727	0.1	-57.046
28632	11.643	1.	0.1	-59.283
28633	11.735	0.90909	0.1	-62.963
28634	11.643	1.1818	0.1	-60.374
28635	11.735	1.0909	0.1	-65.715
28636	11.643	1.3636	0.1	-58.935
28637	11.735	1.2727	0.1	-65.522
28638	11.643	1.5455	0.1	-55.359
28639	11.735	1.4545	0.1	-62.742
28640	11.643	1.7273	0.1	-50.145
28641	11.735	1.6364	0.1	-57.858
28642	11.643	1.9091	0.1	-43.867
28643	11.735	1.8182	0.1	-51.46
28644	11.643	2.0909	0.1	-37.147
28645	11.735	2.	0.1	-44.214
28646	11.643	2.2727	0.1	-30.606
28647	11.735	2.1818	0.1	-36.815
28648	11.643	2.4545	0.1	-24.826
28649	11.735	2.3636	0.1	-29.938
28650	11.643	2.6364	0.1	-20.305
28651	11.735	2.5455	0.1	-24.188
28652	11.643	2.8182	0.1	-17.428
28653	11.735	2.7273	0.1	-20.059
28654	11.643	3.	0.1	-16.441
28655	11.735	2.9091	0.1	-17.902
28656	11.643	3.1818	0.1	-17.428
28657	11.735	3.0909	0.1	-17.902
28658	11.643	3.3636	0.1	-20.305
28659	11.735	3.2727	0.1	-20.059
28660	11.643	3.5455	0.1	-24.826
28661	11.735	3.4545	0.1	-24.188
28662	11.643	3.7273	0.1	-30.606
28663	11.735	3.6364	0.1	-29.938
28664	11.643	3.9091	0.1	-37.147
28665	11.735	3.8182	0.1	-36.815
28666	11.643	4.0909	0.1	-43.867
28667	11.735	4.	0.1	-44.214
28668	11.643	4.2727	0.1	-50.144
28669	11.735	4.1818	0.1	-51.46
28670	11.643	4.4545	0.1	-55.359
28671	11.735	4.3636	0.1	-57.858
28672	11.643	4.6364	0.1	-58.935
28673	11.735	4.5455	0.1	-62.742
28674	11.643	4.8182	0.1	-60.374
28675	11.735	4.7273	0.1	-65.522
28676	11.643	5.	0.1	-59.283
28677	11.735	4.9091	0.1	-65.715
28678	11.643	5.1818	0.1	-55.388
28679	11.735	5.0909	0.1	-62.963
28680	11.643	5.3636	0.1	-48.549
28681	11.735	5.2727	0.1	-57.046
28682	11.643	5.5455	0.1	-38.748
28683	11.735	5.4545	0.1	-47.887
28684	11.643	5.7273	0.1	-26.321
28685	11.735	5.6364	0.1	-35.518
28686	11.735	5.8182	0.1	-20.578
28687	11.643	5.9091	0.1	-11.393
28688	11.828	0.27273	0.1	-29.681
28689	11.92	0.18182	0.1	-22.647
28690	11.828	9.0909e-002	0.1	-12.35
28691	11.828	0.45455	0.1	-44.641
28692	11.92	0.36364	0.1	-40.605
28693	11.828	0.63636	0.1	-56.385
28694	11.92	0.54545	0.1	-55.328
28695	11.828	0.81818	0.1	-64.631
28696	11.92	0.72727	0.1	-66.27
28697	11.828	1.	0.1	-69.409
28698	11.92	0.90909	0.1	-73.421
28699	11.828	1.1818	0.1	-70.878
28700	11.92	1.0909	0.1	-76.862
28701	11.828	1.3636	0.1	-69.344
28702	11.92	1.2727	0.1	-76.83
28703	11.828	1.5455	0.1	-65.253
28704	11.92	1.4545	0.1	-73.719
28705	11.828	1.7273	0.1	-59.183
28706	11.92	1.6364	0.1	-68.078
28707	11.828	1.9091	0.1	-51.814
28708	11.92	1.8182	0.1	-60.597
28709	11.828	2.0909	0.1	-43.886
28710	11.92	2.	0.1	-52.066
28711	11.828	2.2727	0.1	-36.149
28712	11.92	2.1818	0.1	-43.322
28713	11.828	2.4545	0.1	-29.299
28714	11.92	2.3636	0.1	-35.179
28715	11.828	2.6364	0.1	-23.938
28716	11.92	2.5455	0.1	-28.365
28717	11.828	2.8182	0.1	-20.526
28718	11.92	2.7273	0.1	-23.471
28719	11.828	3.	0.1	-19.354
28720	11.92	2.9091	0.1	-20.915
28721	11.828	3.1818	0.1	-20.526
28722	11.92	3.0909	0.1	-20.915
28723	11.828	3.3636	0.1	-23.938
28724	11.92	3.2727	0.1	-23.471
28725	11.828	3.5455	0.1	-29.299
28726	11.92	3.4545	0.1	-28.365
28727	11.828	3.7273	0.1	-36.148
28728	11.92	3.6364	0.1	-35.179
28729	11.828	3.9091	0.1	-43.886
28730	11.92	3.8182	0.1	-43.322
28731	11.828	4.0909	0.1	-51.814
28732	11.92	4.	0.1	-52.066
28733	11.828	4.2727	0.1	-59.183
28734	11.92	4.1818	0.1	-60.596
28735	11.828	4.4545	0.1	-65.253
28736	11.92	4.3636	0.1	-68.078
28737	11.828	4.6364	0.1	-69.344
28738	11.92	4.5455	0.1	-73.718
28739	11.828	4.8182	0.1	-70.878
28740	11.92	4.7273	0.1	-76.83
28741	11.828	5.	0.1	-69.409
28742	11.92	4.9091	0.1	-76.861
28743	11.828	5.1818	0.1	-64.631
28744	11.92	5.0909	0.1	-73.421
28745	11.828	5.3636	0.1	-56.385
28746	11.92	5.2727	0.1	-66.27
28747	11.828	5.5455	0.1	-44.641
28748	11.92	5.4545	0.1	-55.328
28749	11.828	5.7273	0.1	-29.681
28750	11.92	5.6364	0.1	-40.605
28751	11.92	5.8182	0.1	-22.647
28752	11.828	5.9091	0.1	-12.35
28753	12.013	0.27273	0.1	-33.474
28754	12.105	0.18182	0.1	-24.99
28755	12.013	9.0909e-002	0.1	-13.433
28756	12.013	0.45455	0.1	-51.284
28757	12.105	0.36364	0.1	-46.317
28758	12.013	0.63636	0.1	-65.227
28759	12.105	0.54545	0.1	-63.685
28760	12.013	0.81818	0.1	-75.086
28761	12.105	0.72727	0.1	-76.663
28762	12.013	1.	0.1	-80.904
28763	12.105	0.90909	0.1	-85.263
28764	12.013	1.1818	0.1	-82.845
28765	12.105	1.0909	0.1	-89.556
28766	12.013	1.3636	0.1	-81.235
28767	12.105	1.2727	0.1	-89.777
28768	12.013	1.5455	0.1	-76.57
28769	12.105	1.4545	0.1	-86.339
28770	12.013	1.7273	0.1	-69.513
28771	12.105	1.6364	0.1	-79.853
28772	12.013	1.9091	0.1	-60.865
28773	12.105	1.8182	0.1	-71.119
28774	12.013	2.0909	0.1	-51.513
28775	12.105	2.	0.1	-61.081
28776	12.013	2.2727	0.1	-42.359
28777	12.105	2.1818	0.1	-50.751
28778	12.013	2.4545	0.1	-34.248
28779	12.105	2.3636	0.1	-41.116
28780	12.013	2.6364	0.1	-27.898
28781	12.105	2.5455	0.1	-33.056
28782	12.013	2.8182	0.1	-23.856
28783	12.105	2.7273	0.1	-27.27
28784	12.013	3.	0.1	-22.469
28785	12.105	2.9091	0.1	-24.249
28786	12.013	3.1818	0.1	-23.856
28787	12.105	3.0909	0.1	-24.249
28788	12.013	3.3636	0.1	-27.898
28789	12.105	3.2727	0.1	-27.27
28790	12.013	3.5455	0.1	-34.248
28791	12.105	3.4545	0.1	-33.055
28792	12.013	3.7273	0.1	-42.359
28793	12.105	3.6364	0.1	-41.116
28794	12.013	3.9091	0.1	-51.513
28795	12.105	3.8182	0.1	-50.751
28796	12.013	4.0909	0.1	-60.865
28797	12.105	4.	0.1	-61.081
28798	12.013	4.2727	0.1	-69.513
28799	12.105	4.1818	0.1	-71.119
28800	12.013	4.4545	0.1	-76.57
28801	12.105	4.3636	0.1	-79.853
28802	12.013	4.6364	0.1	-81.235
28803	12.105	4.5455	0.1	-86.339
28804	12.013	4.8182	0.1	-82.845
28805	12.105	4.7273	0.1	-89.777
28806	12.013	5.	0.1	-80.904
28807	12.105	4.9091	0.1	-89.556
28808	12.013	5.1818	0.1	-75.086
28809	12.105	5.0909	0.1	-85.262
28810	12.013	5.3636	0.1	-65.227
28811	12.105	5.2727	0.1	-76.663
28812	12.013	5.5455	0.1	-51.284
28813	12.105	5.4545	0.1	-63.685
28814	12.013	5.7273	0.1	-33.474
28815	12.105	5.6364	0.1	-46.317
28816	12.105	5.8182	0.1	-24.99
28817	12.013	5.9091	0.1	-13.433
28818	12.197	0.27273	0.1	-37.736
28819	12.29	0.18182	0.1	-27.639
28820	12.197	9.0909e-002	0.1	-14.659
28821	12.197	0.45455	0.1	-58.724
28822	12.29	0.36364	0.1	-52.674
28823	12.197	0.63636	0.1	-75.155
28824	12.29	0.54545	0.1	-72.996
28825	12.197	0.81818	0.1	-86.89
28826	12.29	0.72727	0.1	-88.316
28827	12.197	1.	0.1	-93.973
28828	12.29	0.90909	0.1	-98.66
28829	12.197	1.1818	0.1	-96.548
28830	12.29	1.0909	0.1	-104.06
28831	12.197	1.3636	0.1	-94.938
28832	12.29	1.2727	0.1	-104.71
28833	12.197	1.5455	0.1	-89.672
28834	12.29	1.4545	0.1	-101.01
28835	12.197	1.7273	0.1	-81.5
28836	12.29	1.6364	0.1	-93.619
28837	12.197	1.9091	0.1	-71.367
28838	12.29	1.8182	0.1	-83.454
28839	12.197	2.0909	0.1	-60.342
28840	12.29	2.	0.1	-71.654
28841	12.197	2.2727	0.1	-49.523
28842	12.29	2.1818	0.1	-59.456
28843	12.197	2.4545	0.1	-39.933
28844	12.29	2.3636	0.1	-48.073
28845	12.197	2.6364	0.1	-32.43
28846	12.29	2.5455	0.1	-38.563
28847	12.197	2.8182	0.1	-27.66
28848	12.29	2.7273	0.1	-31.752
28849	12.197	3.	0.1	-26.023
28850	12.29	2.9091	0.1	-28.202
28851	12.197	3.1818	0.1	-27.66
28852	12.29	3.0909	0.1	-28.202
28853	12.197	3.3636	0.1	-32.43
28854	12.29	3.2727	0.1	-31.752
28855	12.197	3.5455	0.1	-39.933
28856	12.29	3.4545	0.1	-38.563
28857	12.197	3.7273	0.1	-49.523
28858	12.29	3.6364	0.1	-48.073
28859	12.197	3.9091	0.1	-60.342
28860	12.29	3.8182	0.1	-59.456
28861	12.197	4.0909	0.1	-71.367
28862	12.29	4.	0.1	-71.653
28863	12.197	4.2727	0.1	-81.5
28864	12.29	4.1818	0.1	-83.454
28865	12.197	4.4545	0.1	-89.672
28866	12.29	4.3636	0.1	-93.619
28867	12.197	4.6364	0.1	-94.938
28868	12.29	4.5455	0.1	-101.01
28869	12.197	4.8182	0.1	-96.548
28870	12.29	4.7273	0.1	-104.71
28871	12.197	5.	0.1	-93.973
28872	12.29	4.9091	0.1	-104.06
28873	12.197	5.1818	0.1	-86.89
28874	12.29	5.0909	0.1	-98.659
28875	12.197	5.3636	0.1	-75.155
28876	12.29	5.2727	0.1	-88.316
28877	12.197	5.5455	0.1	-58.724
28878	12.29	5.4545	0.1	-72.996
28879	12.197	5.7273	0.1	-37.736
28880	12.29	5.6364	0.1	-52.674
28881	12.29	5.8182	0.1	-27.638
28882	12.197	5.9091	0.1	-14.659
28883	12.382	0.27273	0.1	-42.483
28884	12.475	0.18182	0.1	-30.611
28885	12.382	9.0909e-002	0.1	-16.046
28886	12.382	0.45455	0.1	-66.973
28887	12.475	0.36364	0.1	-59.649
28888	12.382	0.63636	0.1	-86.223
28889	12.475	0.54545	0.1	-83.25
28890	12.382	0.81818	0.1	-100.18
28891	12.475	0.72727	0.1	-101.29
28892	12.382	1.	0.1	-108.85
28893	12.475	0.90909	0.1	-113.8
28894	12.382	1.1818	0.1	-112.33
28895	12.475	1.0909	0.1	-120.71
28896	12.382	1.3636	0.1	-110.89
28897	12.475	1.2727	0.1	-122.11
28898	12.382	1.5455	0.1	-105.05
28899	12.475	1.4545	0.1	-118.31
28900	12.382	1.7273	0.1	-95.646
28901	12.475	1.6364	0.1	-109.98
28902	12.382	1.9091	0.1	-83.797
28903	12.475	1.8182	0.1	-98.198
28904	12.382	2.0909	0.1	-70.809
28905	12.475	2.	0.1	-84.33
28906	12.382	2.2727	0.1	-58.034
28907	12.475	2.1818	0.1	-69.927
28908	12.382	2.4545	0.1	-46.719
28909	12.475	2.3636	0.1	-56.496
28910	12.382	2.6364	0.1	-37.89
28911	12.475	2.5455	0.1	-45.318
28912	12.382	2.8182	0.1	-32.291
28913	12.475	2.7273	0.1	-37.352
28914	12.382	3.	0.1	-30.373
28915	12.475	2.9091	0.1	-33.217
28916	12.382	3.1818	0.1	-32.291
28917	12.475	3.0909	0.1	-33.217
28918	12.382	3.3636	0.1	-37.89
28919	12.475	3.2727	0.1	-37.352
28920	12.382	3.5455	0.1	-46.719
28921	12.475	3.4545	0.1	-45.318
28922	12.382	3.7273	0.1	-58.034
28923	12.475	3.6364	0.1	-56.496
28924	12.382	3.9091	0.1	-70.809
28925	12.475	3.8182	0.1	-69.927
28926	12.382	4.0909	0.1	-83.797
28927	12.475	4.	0.1	-84.33
28928	12.382	4.2727	0.1	-95.646
28929	12.475	4.1818	0.1	-98.198
28930	12.382	4.4545	0.1	-105.05
28931	12.475	4.3636	0.1	-109.98
28932	12.382	4.6364	0.1	-110.89
28933	12.475	4.5455	0.1	-118.31
28934	12.382	4.8182	0.1	-112.33
28935	12.475	4.7273	0.1	-122.11
28936	12.382	5.	0.1	-108.85
28937	12.475	4.9091	0.1	-120.71
28938	12.382	5.1818	0.1	-100.18
28939	12.475	5.0909	0.1	-113.8
28940	12.382	5.3636	0.1	-86.223
28941	12.475	5.2727	0.1	-101.29
28942	12.382	5.5455	0.1	-66.973
28943	12.475	5.4545	0.1	-83.25
28944	12.382	5.7273	0.1	-42.483
28945	12.475	5.6364	0.1	-59.649
28946	12.475	5.8182	0.1	-30.611
28947	12.382	5.9091	0.1	-16.046
28948	12.567	0.27273	0.1	-47.697
28949	12.659	0.18182	0.1	-33.91
28950	12.567	9.0909e-002	0.1	-17.602
28951	12.567	0.45455	0.1	-75.987
28952	12.659	0.36364	0.1	-67.148
28953	12.567	0.63636	0.1	-98.436
28954	12.659	0.54545	0.1	-94.36
28955	12.567	0.81818	0.1	-115.07
28956	12.659	0.72727	0.1	-115.61
28957	12.567	1.	0.1	-125.83
28958	12.659	0.90909	0.1	-130.88
28959	12.567	1.1818	0.1	-130.67
28960	12.659	1.0909	0.1	-139.94
28961	12.567	1.3636	0.1	-129.7
28962	12.659	1.2727	0.1	-142.61
28963	12.567	1.5455	0.1	-123.4
28964	12.659	1.4545	0.1	-139.04
28965	12.567	1.7273	0.1	-112.66
28966	12.659	1.6364	0.1	-129.84
28967	12.567	1.9091	0.1	-98.827
28968	12.659	1.8182	0.1	-116.21
28969	12.567	2.0909	0.1	-83.517
28970	12.659	2.	0.1	-99.882
28971	12.567	2.2727	0.1	-68.435
28972	12.659	2.1818	0.1	-82.841
28973	12.567	2.4545	0.1	-55.12
28974	12.659	2.3636	0.1	-67.004
28975	12.567	2.6364	0.1	-44.787
28976	12.659	2.5455	0.1	-53.933
28977	12.567	2.8182	0.1	-38.271
28978	12.659	2.7273	0.1	-44.705
28979	12.567	3.	0.1	-36.046
28980	12.659	2.9091	0.1	-39.951
28981	12.567	3.1818	0.1	-38.271
28982	12.659	3.0909	0.1	-39.951
28983	12.567	3.3636	0.1	-44.787
28984	12.659	3.2727	0.1	-44.705
28985	12.567	3.5455	0.1	-55.12
28986	12.659	3.4545	0.1	-53.933
28987	12.567	3.7273	0.1	-68.435
28988	12.659	3.6364	0.1	-67.004
28989	12.567	3.9091	0.1	-83.517
28990	12.659	3.8182	0.1	-82.841
28991	12.567	4.0909	0.1	-98.827
28992	12.659	4.	0.1	-99.882
28993	12.567	4.2727	0.1	-112.66
28994	12.659	4.1818	0.1	-116.21
28995	12.567	4.4545	0.1	-123.4
28996	12.659	4.3636	0.1	-129.84
28997	12.567	4.6364	0.1	-129.7
28998	12.659	4.5455	0.1	-139.04
28999	12.567	4.8182	0.1	-130.67
29000	12.659	4.7273	0.1	-142.61
29001	12.567	5.	0.1	-125.83
29002	12.659	4.9091	0.1	-139.94
29003	12.567	5.1818	0.1	-115.07
29004	12.659	5.0909	0.1	-130.88
29005	12.567	5.3636	0.1	-98.436
29006	12.659	5.2727	0.1	-115.61
29007	12.567	5.5455	0.1	-75.987
29008	12.659	5.4545	0.1	-94.36
29009	12.567	5.7273	0.1	-47.697
29010	12.659	5.6364	0.1	-67.148
29011	12.659	5.8182	0.1	-33.91
29012	12.567	5.9091	0.1	-17.602
29013	12.752	0.27273	0.1	-53.307
29014	12.844	0.18182	0.1	-37.499
29015	12.752	9.0909e-002	0.1	-19.324
29016	12.752	0.45455	0.1	-85.635
29017	12.844	0.36364	0.1	-74.974
29018	12.752	0.63636	0.1	-111.73
29019	12.844	0.54545	0.1	-106.13
29020	12.752	0.81818	0.1	-131.68
29021	12.844	0.72727	0.1	-131.23
29022	12.752	1.	0.1	-145.29
29023	12.844	0.90909	0.1	-150.16
29024	12.752	1.1818	0.1	-152.2
29025	12.844	1.0909	0.1	-162.36
29026	12.752	1.3636	0.1	-152.25
29027	12.844	1.2727	0.1	-167.21
29028	12.752	1.5455	0.1	-145.74
29029	12.844	1.4545	0.1	-164.45
29030	12.752	1.7273	0.1	-133.6
29031	12.844	1.6364	0.1	-154.51
29032	12.752	1.9091	0.1	-117.43
29033	12.844	1.8182	0.1	-138.77
29034	12.752	2.0909	0.1	-99.32
29035	12.844	2.	0.1	-119.43
29036	12.752	2.2727	0.1	-81.483
29037	12.844	2.1818	0.1	-99.15
29038	12.752	2.4545	0.1	-65.852
29039	12.844	2.3636	0.1	-80.458
29040	12.752	2.6364	0.1	-53.853
29041	12.844	2.5455	0.1	-65.268
29042	12.752	2.8182	0.1	-46.364
29043	12.844	2.7273	0.1	-54.732
29044	12.752	3.	0.1	-43.823
29045	12.844	2.9091	0.1	-49.377
29046	12.752	3.1818	0.1	-46.364
29047	12.844	3.0909	0.1	-49.377
29048	12.752	3.3636	0.1	-53.853
29049	12.844	3.2727	0.1	-54.732
29050	12.752	3.5455	0.1	-65.852
29051	12.844	3.4545	0.1	-65.268
29052	12.752	3.7273	0.1	-81.482
29053	12.844	3.6364	0.1	-80.457
29054	12.752	3.9091	0.1	-99.32
29055	12.844	3.8182	0.1	-99.15
29056	12.752	4.0909	0.1	-117.43
29057	12.844	4.	0.1	-119.43
29058	12.752	4.2727	0.1	-133.6
29059	12.844	4.1818	0.1	-138.77
29060	12.752	4.4545	0.1	-145.74
29061	12.844	4.3636	0.1	-154.51
29062	12.752	4.6364	0.1	-152.25
29063	12.844	4.5455	0.1	-164.45
29064	12.752	4.8182	0.1	-152.2
29065	12.844	4.7273	0.1	-167.21
29066	12.752	5.	0.1	-145.29
29067	12.844	4.9091	0.1	-162.36
29068	12.752	5.1818	0.1	-131.68
29069	12.844	5.0909	0.1	-150.16
29070	12.752	5.3636	0.1	-111.73
29071	12.844	5.2727	0.1	-131.23
29072	12.752	5.5455	0.1	-85.635
29073	12.844	5.4545	0.1	-106.13
29074	12.752	5.7273	0.1	-53.307
29075	12.844	5.6364	0.1	-74.974
29076	12.844	5.8182	0.1	-37.499
29077	12.752	5.9091	0.1	-19.324
29078	12.937	0.27273	0.1	-59.161
29079	13.029	0.18182	0.1	-41.293
29080	12.937	9.0909e-002	0.1	-21.183
29081	12.937	0.45455	0.1	-95.666
29082	13.029	0.36364	0.1	-82.789
29083	12.937	0.63636	0.1	-125.96
29084	13.029	0.54545	0.1	-118.23
29085	12.937	0.81818	0.1	-150.15
29086	13.029	0.72727	0.1	-148.07
29087	12.937	1.	0.1	-167.74
29088	13.029	0.90909	0.1	-171.99
29089	12.937	1.1818	0.1	-177.89
29090	13.029	1.0909	0.1	-188.88
29091	12.937	1.3636	0.1	-179.9
29092	13.029	1.2727	0.1	-197.37
29093	12.937	1.5455	0.1	-173.65
29094	13.029	1.4545	0.1	-196.43
29095	12.937	1.7273	0.1	-160.03
29096	13.029	1.6364	0.1	-186.09
29097	12.937	1.9091	0.1	-141.03
29098	13.029	1.8182	0.1	-167.82
29099	12.937	2.0909	0.1	-119.44
29100	13.029	2.	0.1	-144.62
29101	12.937	2.2727	0.1	-98.234
29102	13.029	2.1818	0.1	-120.2
29103	12.937	2.4545	0.1	-79.918
29104	13.029	2.3636	0.1	-98.048
29105	12.937	2.6364	0.1	-66.134
29106	13.029	2.5455	0.1	-80.541
29107	12.937	2.8182	0.1	-57.691
29108	13.029	2.7273	0.1	-68.77
29109	12.937	3.	0.1	-54.86
29110	13.029	2.9091	0.1	-62.934
29111	12.937	3.1818	0.1	-57.691
29112	13.029	3.0909	0.1	-62.934
29113	12.937	3.3636	0.1	-66.134
29114	13.029	3.2727	0.1	-68.77
29115	12.937	3.5455	0.1	-79.918
29116	13.029	3.4545	0.1	-80.541
29117	12.937	3.7273	0.1	-98.234
29118	13.029	3.6364	0.1	-98.047
29119	12.937	3.9091	0.1	-119.44
29120	13.029	3.8182	0.1	-120.2
29121	12.937	4.0909	0.1	-141.03
29122	13.029	4.	0.1	-144.62
29123	12.937	4.2727	0.1	-160.03
29124	13.029	4.1818	0.1	-167.82
29125	12.937	4.4545	0.1	-173.65
29126	13.029	4.3636	0.1	-186.09
29127	12.937	4.6364	0.1	-179.9
29128	13.029	4.5455	0.1	-196.43
29129	12.937	4.8182	0.1	-177.89
29130	13.029	4.7273	0.1	-197.37
29131	12.937	5.	0.1	-167.74
29132	13.029	4.9091	0.1	-188.88
29133	12.937	5.1818	0.1	-150.15
29134	13.029	5.0909	0.1	-171.99
29135	12.937	5.3636	0.1	-125.96
29136	13.029	5.2727	0.1	-148.07
29137	12.937	5.5455	0.1	-95.666
29138	13.029	5.4545	0.1	-118.23
29139	12.937	5.7273	0.1	-59.161
29140	13.029	5.6364	0.1	-82.789
29141	13.029	5.8182	0.1	-41.292
29142	12.937	5.9091	0.1	-21.183
29143	13.122	0.27273	0.1	-64.996
29144	13.214	0.18182	0.1	-45.121
29145	13.122	9.0909e-002	0.1	-23.113
29146	13.122	0.45455	0.1	-105.68
29147	13.214	0.36364	0.1	-90.083
29148	13.122	0.63636	0.1	-140.88
29149	13.214	0.54545	0.1	-130.18
29150	13.122	0.81818	0.1	-170.64
29151	13.214	0.72727	0.1	-166.
29152	13.122	1.	0.1	-193.99
29153	13.214	0.90909	0.1	-196.91
29154	13.122	1.1818	0.1	-209.25
29155	13.214	1.0909	0.1	-220.91
29156	13.122	1.3636	0.1	-214.75
29157	13.214	1.2727	0.1	-235.42
29158	13.122	1.5455	0.1	-209.6
29159	13.214	1.4545	0.1	-238.06
29160	13.122	1.7273	0.1	-194.46
29161	13.214	1.6364	0.1	-227.9
29162	13.122	1.9091	0.1	-171.83
29163	13.214	1.8182	0.1	-206.48
29164	13.122	2.0909	0.1	-145.66
29165	13.214	2.	0.1	-177.95
29166	13.122	2.2727	0.1	-120.17
29167	13.214	2.1818	0.1	-147.91
29168	13.122	2.4545	0.1	-98.718
29169	13.214	2.3636	0.1	-121.42
29170	13.122	2.6364	0.1	-83.127
29171	13.214	2.5455	0.1	-101.47
29172	13.122	2.8182	0.1	-73.892
29173	13.214	2.7273	0.1	-88.756
29174	13.122	3.	0.1	-70.86
29175	13.214	2.9091	0.1	-82.728
29176	13.122	3.1818	0.1	-73.892
29177	13.214	3.0909	0.1	-82.728
29178	13.122	3.3636	0.1	-83.127
29179	13.214	3.2727	0.1	-88.756
29180	13.122	3.5455	0.1	-98.718
29181	13.214	3.4545	0.1	-101.47
29182	13.122	3.7273	0.1	-120.17
29183	13.214	3.6364	0.1	-121.42
29184	13.122	3.9091	0.1	-145.66
29185	13.214	3.8182	0.1	-147.91
29186	13.122	4.0909	0.1	-171.83
29187	13.214	4.	0.1	-177.95
29188	13.122	4.2727	0.1	-194.46
29189	13.214	4.1818	0.1	-206.48
29190	13.122	4.4545	0.1	-209.6
29191	13.214	4.3636	0.1	-227.9
29192	13.122	4.6364	0.1	-214.75
29193	13.214	4.5455	0.1	-238.06
29194	13.122	4.8182	0.1	-209.25
29195	13.214	4.7273	0.1	-235.41
29196	13.122	5.	0.1	-193.99
29197	13.214	4.9091	0.1	-220.91
29198	13.122	5.1818	0.1	-170.64
29199	13.214	5.0909	0.1	-196.91
29200	13.122	5.3636	0.1	-140.88
29201	13.214	5.2727	0.1	-166.
29202	13.122	5.5455	0.1	-105.68
29203	13.214	5.4545	0.1	-130.18
29204	13.122	5.7273	0.1	-64.996
29205	13.214	5.6364	0.1	-90.083
29206	13.214	5.8182	0.1	-45.121
29207	13.122	5.9091	0.1	-23.113
29208	13.306	0.27273	0.1	-70.406
29209	13.399	0.18182	0.1	-48.712
29210	13.306	9.0909e-002	0.1	-24.987
29211	13.306	0.45455	0.1	-115.1
29212	13.399	0.36364	0.1	-96.161
29213	13.306	0.63636	0.1	-156.18
29214	13.399	0.54545	0.1	-141.38
29215	13.306	0.81818	0.1	-193.48
29216	13.399	0.72727	0.1	-184.99
29217	13.306	1.	0.1	-225.28
29218	13.399	0.90909	0.1	-225.81
29219	13.306	1.1818	0.1	-248.61
29220	13.399	1.0909	0.1	-260.65
29221	13.306	1.3636	0.1	-260.16
29222	13.399	1.2727	0.1	-285.02
29223	13.306	1.5455	0.1	-257.58
29224	13.399	1.4545	0.1	-294.26
29225	13.306	1.7273	0.1	-240.86
29226	13.399	1.6364	0.1	-285.49
29227	13.306	1.9091	0.1	-213.26
29228	13.399	1.8182	0.1	-259.82
29229	13.306	2.0909	0.1	-180.62
29230	13.399	2.	0.1	-223.35
29231	13.306	2.2727	0.1	-149.38
29232	13.399	2.1818	0.1	-185.08
29233	13.306	2.4545	0.1	-124.2
29234	13.399	2.3636	0.1	-152.88
29235	13.306	2.6364	0.1	-106.96
29236	13.399	2.5455	0.1	-130.45
29237	13.306	2.8182	0.1	-97.34
29238	13.399	2.7273	0.1	-117.45
29239	13.306	3.	0.1	-94.3
29240	13.399	2.9091	0.1	-111.76
29241	13.306	3.1818	0.1	-97.34
29242	13.399	3.0909	0.1	-111.76
29243	13.306	3.3636	0.1	-106.96
29244	13.399	3.2727	0.1	-117.45
29245	13.306	3.5455	0.1	-124.2
29246	13.399	3.4545	0.1	-130.45
29247	13.306	3.7273	0.1	-149.38
29248	13.399	3.6364	0.1	-152.87
29249	13.306	3.9091	0.1	-180.62
29250	13.399	3.8182	0.1	-185.08
29251	13.306	4.0909	0.1	-213.26
29252	13.399	4.	0.1	-223.35
29253	13.306	4.2727	0.1	-240.86
29254	13.399	4.1818	0.1	-259.82
29255	13.306	4.4545	0.1	-257.58
29256	13.399	4.3636	0.1	-285.49
29257	13.306	4.6364	0.1	-260.16
29258	13.399	4.5455	0.1	-294.26
29259	13.306	4.8182	0.1	-248.61
29260	13.399	4.7273	0.1	-285.02
29261	13.306	5.	0.1	-225.28
29262	13.399	4.9091	0.1	-260.65
29263	13.306	5.1818	0.1	-193.48
29264	13.399	5.0909	0.1	-225.81
29265	13.306	5.3636	0.1	-156.18
29266	13.399	5.2727	0.1	-184.99
29267	13.306	5.5455	0.1	-115.1
29268	13.399	5.4545	0.1	-141.38
29269	13.306	5.7273	0.1	-70.406
29270	13.399	5.6364	0.1	-96.161
29271	13.399	5.8182	0.1	-48.712
29272	13.306	5.9091	0.1	-24.987
29273	13.491	0.27273	0.1	-74.841
29274	13.584	0.18182	0.1	-51.661
29275	13.491	9.0909e-002	0.1	-26.597
29276	13.491	0.45455	0.1	-123.25
29277	13.584	0.36364	0.1	-100.21
29278	13.491	0.63636	0.1	-171.62
29279	13.584	0.54545	0.1	-151.31
29280	13.491	0.81818	0.1	-219.35
29281	13.584	0.72727	0.1	-205.34
29282	13.491	1.	0.1	-263.65
29283	13.584	0.90909	0.1	-260.34
29284	13.491	1.1818	0.1	-299.68
29285	13.584	1.0909	0.1	-311.52
29286	13.491	1.3636	0.1	-321.57
29287	13.584	1.2727	0.1	-351.88
29288	13.491	1.5455	0.1	-324.2
29289	13.584	1.4545	0.1	-373.11
29290	13.491	1.7273	0.1	-305.95
29291	13.584	1.6364	0.1	-368.18
29292	13.491	1.9091	0.1	-270.92
29293	13.584	1.8182	0.1	-336.54
29294	13.491	2.0909	0.1	-228.42
29295	13.584	2.	0.1	-287.13
29296	13.491	2.2727	0.1	-188.85
29297	13.584	2.1818	0.1	-235.73
29298	13.491	2.4545	0.1	-159.08
29299	13.584	2.3636	0.1	-195.58
29300	13.491	2.6364	0.1	-140.63
29301	13.584	2.5455	0.1	-170.88
29302	13.491	2.8182	0.1	-131.37
29303	13.584	2.7273	0.1	-158.66
29304	13.491	3.	0.1	-128.66
29305	13.584	2.9091	0.1	-154.05
29306	13.491	3.1818	0.1	-131.37
29307	13.584	3.0909	0.1	-154.05
29308	13.491	3.3636	0.1	-140.63
29309	13.584	3.2727	0.1	-158.66
29310	13.491	3.5455	0.1	-159.08
29311	13.584	3.4545	0.1	-170.88
29312	13.491	3.7273	0.1	-188.85
29313	13.584	3.6364	0.1	-195.58
29314	13.491	3.9091	0.1	-228.42
29315	13.584	3.8182	0.1	-235.73
29316	13.491	4.0909	0.1	-270.92
29317	13.584	4.	0.1	-287.13
29318	13.491	4.2727	0.1	-305.95
29319	13.584	4.1818	0.1	-336.54
29320	13.491	4.4545	0.1	-324.2
29321	13.584	4.3636	0.1	-368.18
29322	13.491	4.6364	0.1	-321.57
29323	13.584	4.5455	0.1	-373.11
29324	13.491	4.8182	0.1	-299.68
29325	13.584	4.7273	0.1	-351.88
29326	13.491	5.	0.1	-263.65
29327	13.584	4.9091	0.1	-311.52
29328	13.491	5.1818	0.1	-219.35
29329	13.584	5.0909	0.1	-260.34
29330	13.491	5.3636	0.1	-171.62
29331	13.584	5.2727	0.1	-205.34
29332	13.491	5.5455	0.1	-123.25
29333	13.584	5.4545	0.1	-151.31
29334	13.491	5.7273	0.1	-74.841
29335	13.584	5.6364	0.1	-100.21
29336	13.584	5.8182	0.1	-51.661
29337	13.491	5.9091	0.1	-26.597
29338	13.676	0.27273	0.1	-77.658
29339	13.768	0.18182	0.1	-53.456
29340	13.676	9.0909e-002	0.1	-27.619
29341	13.676	0.45455	0.1	-129.57
29342	13.768	0.36364	0.1	-101.57
29343	13.676	0.63636	0.1	-187.41
29344	13.768	0.54545	0.1	-160.11
29345	13.676	0.81818	0.1	-249.76
29346	13.768	0.72727	0.1	-228.49
29347	13.676	1.	0.1	-312.4
29348	13.768	0.90909	0.1	-303.47
29349	13.676	1.1818	0.1	-368.19
29350	13.768	1.0909	0.1	-378.66
29351	13.676	1.3636	0.1	-407.59
29352	13.768	1.2727	0.1	-444.43
29353	13.676	1.5455	0.1	-420.44
29354	13.768	1.4545	0.1	-487.51
29355	13.676	1.7273	0.1	-401.1
29356	13.768	1.6364	0.1	-492.89
29357	13.676	1.9091	0.1	-354.19
29358	13.768	1.8182	0.1	-452.6
29359	13.676	2.0909	0.1	-295.23
29360	13.768	2.	0.1	-380.57
29361	13.676	2.2727	0.1	-242.7
29362	13.768	2.1818	0.1	-306.39
29363	13.676	2.4545	0.1	-207.12
29364	13.768	2.3636	0.1	-254.02
29365	13.676	2.6364	0.1	-188.24
29366	13.768	2.5455	0.1	-227.45
29367	13.676	2.8182	0.1	-180.4
29368	13.768	2.7273	0.1	-217.18
29369	13.676	3.	0.1	-178.42
29370	13.768	2.9091	0.1	-214.17
29371	13.676	3.1818	0.1	-180.4
29372	13.768	3.0909	0.1	-214.17
29373	13.676	3.3636	0.1	-188.24
29374	13.768	3.2727	0.1	-217.18
29375	13.676	3.5455	0.1	-207.12
29376	13.768	3.4545	0.1	-227.45
29377	13.676	3.7273	0.1	-242.7
29378	13.768	3.6364	0.1	-254.02
29379	13.676	3.9091	0.1	-295.23
29380	13.768	3.8182	0.1	-306.39
29381	13.676	4.0909	0.1	-354.19
29382	13.768	4.	0.1	-380.57
29383	13.676	4.2727	0.1	-401.1
29384	13.768	4.1818	0.1	-452.6
29385	13.676	4.4545	0.1	-420.44
29386	13.768	4.3636	0.1	-492.89
29387	13.676	4.6364	0.1	-407.59
29388	13.768	4.5455	0.1	-487.51
29389	13.676	4.8182	0.1	-368.19
29390	13.768	4.7273	0.1	-444.43
29391	13.676	5.	0.1	-312.4
29392	13.768	4.9091	0.1	-378.66
29393	13.676	5.1818	0.1	-249.76
29394	13.768	5.0909	0.1	-303.47
29395	13.676	5.3636	0.1	-187.41
29396	13.768	5.2727	0.1	-228.49
29397	13.676	5.5455	0.1	-129.57
29398	13.768	5.4545	0.1	-160.11
29399	13.676	5.7273	0.1	-77.658
29400	13.768	5.6364	0.1	-101.57
29401	13.768	5.8182	0.1	-53.456
29402	13.676	5.9091	0.1	-27.619
29403	13.861	0.27273	0.1	-78.39
29404	13.953	0.18182	0.1	-53.488
29405	13.861	9.0909e-002	0.1	-27.636
29406	13.861	0.45455	0.1	-134.32
29407	13.953	0.36364	0.1	-100.49
29408	13.861	0.63636	0.1	-205.26
29409	13.953	0.54545	0.1	-170.
29410	13.861	0.81818	0.1	-288.02
29411	13.953	0.72727	0.1	-258.43
29412	13.861	1.	0.1	-376.81
29413	13.953	0.90909	0.1	-360.55
29414	13.861	1.1818	0.1	-462.48
29415	13.953	1.0909	0.1	-469.24
29416	13.861	1.3636	0.1	-531.45
29417	13.953	1.2727	0.1	-573.72
29418	13.861	1.5455	0.1	-565.55
29419	13.953	1.4545	0.1	-656.95
29420	13.861	1.7273	0.1	-547.95
29421	13.953	1.6364	0.1	-688.37
29422	13.861	1.9091	0.1	-480.83
29423	13.953	1.8182	0.1	-639.14
29424	13.861	2.0909	0.1	-392.45
29425	13.953	2.	0.1	-524.37
29426	13.861	2.2727	0.1	-317.6
29427	13.953	2.1818	0.1	-405.43
29428	13.861	2.4545	0.1	-273.52
29429	13.953	2.3636	0.1	-334.71
29430	13.861	2.6364	0.1	-255.05
29431	13.953	2.5455	0.1	-306.59
29432	13.861	2.8182	0.1	-249.35
29433	13.953	2.7273	0.1	-297.53
29434	13.861	3.	0.1	-248.24
29435	13.953	2.9091	0.1	-295.27
29436	13.861	3.1818	0.1	-249.35
29437	13.953	3.0909	0.1	-295.27
29438	13.861	3.3636	0.1	-255.05
29439	13.953	3.2727	0.1	-297.53
29440	13.861	3.5455	0.1	-273.52
29441	13.953	3.4545	0.1	-306.59
29442	13.861	3.7273	0.1	-317.6
29443	13.953	3.6364	0.1	-334.71
29444	13.861	3.9091	0.1	-392.45
29445	13.953	3.8182	0.1	-405.43
29446	13.861	4.0909	0.1	-480.83
29447	13.953	4.	0.1	-524.37
29448	13.861	4.2727	0.1	-547.95
29449	13.953	4.1818	0.1	-639.14
29450	13.861	4.4545	0.1	-565.55
29451	13.953	4.3636	0.1	-688.37
29452	13.861	4.6364	0.1	-531.45
29453	13.953	4.5455	0.1	-656.95
29454	13.861	4.8182	0.1	-462.48
29455	13.953	4.7273	0.1	-573.72
29456	13.861	5.	0.1	-376.81
29457	13.953	4.9091	0.1	-469.24
29458	13.861	5.1818	0.1	-288.02
29459	13.953	5.0909	0.1	-360.55
29460	13.861	5.3636	0.1	-205.26
29461	13.953	5.2727	0.1	-258.43
29462	13.861	5.5455	0.1	-134.32
29463	13.953	5.4545	0.1	-170.
29464	13.861	5.7273	0.1	-78.39
29465	13.953	5.6364	0.1	-100.49
29466	13.953	5.8182	0.1	-53.488
29467	13.861	5.9091	0.1	-27.636
29468	14.046	0.27273	0.1	-77.357
29469	14.138	0.18182	0.1	-52.18
29470	14.046	9.0909e-002	0.1	-26.003
29471	14.046	0.45455	0.1	-140.33
29472	14.138	0.36364	0.1	-101.33
29473	14.046	0.63636	0.1	-230.43
29474	14.138	0.54545	0.1	-189.73
29475	14.046	0.81818	0.1	-340.75
29476	14.138	0.72727	0.1	-305.76
29477	14.046	1.	0.1	-464.56
29478	14.138	0.90909	0.1	-442.1
29479	14.046	1.1818	0.1	-593.
29480	14.138	1.0909	0.1	-593.57
29481	14.046	1.3636	0.1	-711.35
29482	14.138	1.2727	0.1	-754.01
29483	14.046	1.5455	0.1	-789.48
29484	14.138	1.4545	0.1	-905.77
29485	14.046	1.7273	0.1	-784.88
29486	14.138	1.6364	0.1	-1014.
29487	14.046	1.9091	0.1	-684.55
29488	14.138	1.8182	0.1	-991.36
29489	14.046	2.0909	0.1	-537.22
29490	14.138	2.	0.1	-771.26
29491	14.046	2.2727	0.1	-421.1
29492	14.138	2.1818	0.1	-553.54
29493	14.046	2.4545	0.1	-365.51
29494	14.138	2.3636	0.1	-448.18
29495	14.046	2.6364	0.1	-346.59
29496	14.138	2.5455	0.1	-413.9
29497	14.046	2.8182	0.1	-341.03
29498	14.138	2.7273	0.1	-399.2
29499	14.046	3.	0.1	-339.93
29500	14.138	2.9091	0.1	-393.99
29501	14.046	3.1818	0.1	-341.03
29502	14.138	3.0909	0.1	-393.99
29503	14.046	3.3636	0.1	-346.59
29504	14.138	3.2727	0.1	-399.2
29505	14.046	3.5455	0.1	-365.51
29506	14.138	3.4545	0.1	-413.9
29507	14.046	3.7273	0.1	-421.1
29508	14.138	3.6364	0.1	-448.18
29509	14.046	3.9091	0.1	-537.22
29510	14.138	3.8182	0.1	-553.54
29511	14.046	4.0909	0.1	-684.55
29512	14.138	4.	0.1	-771.26
29513	14.046	4.2727	0.1	-784.88
29514	14.138	4.1818	0.1	-991.36
29515	14.046	4.4545	0.1	-789.48
29516	14.138	4.3636	0.1	-1014.
29517	14.046	4.6364	0.1	-711.35
29518	14.138	4.5455	0.1	-905.77
29519	14.046	4.8182	0.1	-593.
29520	14.138	4.7273	0.1	-754.01
29521	14.046	5.	0.1	-464.56
29522	14.138	4.9091	0.1	-593.57
29523	14.046	5.1818	0.1	-340.75
29524	14.138	5.0909	0.1	-442.1
29525	14.046	5.3636	0.1	-230.43
29526	14.138	5.2727	0.1	-305.76
29527	14.046	5.5455	0.1	-140.33
29528	14.138	5.4545	0.1	-189.73
29529	14.046	5.7273	0.1	-77.357
29530	14.138	5.6364	0.1	-101.33
29531	14.138	5.8182	0.1	-52.18
29532	14.046	5.9091	0.1	-26.003
29533	14.23	0.27273	0.1	-80.141
29534	14.323	0.18182	0.1	-56.946
29535	14.23	9.0909e-002	0.1	-23.369
29536	14.23	0.45455	0.1	-159.89
29537	14.323	0.36364	0.1	-128.59
29538	14.23	0.63636	0.1	-278.36
29539	14.323	0.54545	0.1	-252.44
29540	14.23	0.81818	0.1	-422.94
29541	14.323	0.72727	0.1	-405.75
29542	14.23	1.	0.1	-588.92
29543	14.323	0.90909	0.1	-583.84
29544	14.23	1.1818	0.1	-774.3
29545	14.323	1.0909	0.1	-788.14
29546	14.23	1.3636	0.1	-969.6
29547	14.323	1.2727	0.1	-1024.
29548	14.23	1.5455	0.1	-1148.6
29549	14.323	1.4545	0.1	-1289.9
29550	14.23	1.7273	0.1	-1231.8
29551	14.323	1.6364	0.1	-1595.3
29552	14.23	1.9091	0.1	-1076.5
29553	14.323	1.8182	0.1	-1781.4
29554	14.23	2.0909	0.1	-783.35
29555	14.323	2.	0.1	-1340.2
29556	14.23	2.2727	0.1	-574.68
29557	14.323	2.1818	0.1	-769.79
29558	14.23	2.4545	0.1	-491.6
29559	14.323	2.3636	0.1	-609.84
29560	14.23	2.6364	0.1	-462.88
29561	14.323	2.5455	0.1	-538.62
29562	14.23	2.8182	0.1	-449.31
29563	14.323	2.7273	0.1	-507.06
29564	14.23	3.	0.1	-445.45
29565	14.323	2.9091	0.1	-492.8
29566	14.23	3.1818	0.1	-449.31
29567	14.323	3.0909	0.1	-492.8
29568	14.23	3.3636	0.1	-462.88
29569	14.323	3.2727	0.1	-507.06
29570	14.23	3.5455	0.1	-491.6
29571	14.323	3.4545	0.1	-538.62
29572	14.23	3.7273	0.1	-574.68
29573	14.323	3.6364	0.1	-609.84
29574	14.23	3.9091	0.1	-783.35
29575	14.323	3.8182	0.1	-769.79
29576	14.23	4.0909	0.1	-1076.5
29577	14.323	4.	0.1	-1340.2
29578	14.23	4.2727	0.1	-1231.8
29579	14.323	4.1818	0.1	-1781.4
29580	14.23	4.4545	0.1	-1148.6
29581	14.323	4.3636	0.1	-1595.3
29582	14.23	4.6364	0.1	-969.6
29583	14.323	4.5455	0.1	-1289.9
29584	14.23	4.8182	0.1	-774.3
29585	14.323	4.7273	0.1	-1024.
29586	14.23	5.	0.1	-588.92
29587	14.323	4.9091	0.1	-788.14
29588	14.23	5.1818	0.1	-422.94
29589	14.323	5.0909	0.1	-583.84
29590	14.23	5.3636	0.1	-278.36
29591	14.323	5.2727	0.1	-405.75
29592	14.23	5.5455	0.1	-159.89
29593	14.323	5.4545	0.1	-252.44
29594	14.23	5.7273	0.1	-80.141
29595	14.323	5.6364	0.1	-128.59
29596	14.323	5.8182	0.1	-56.946
29597	14.23	5.9091	0.1	-23.369
29598	14.415	0.27273	0.1	-119.87
29599	14.508	0.18182	0.1	-38.141
29600	14.415	9.0909e-002	0.1	-28.554
29601	14.415	0.45455	0.1	-243.18
29602	14.508	0.36364	0.1	-130.1
29603	14.415	0.63636	0.1	-403.1
29604	14.508	0.54545	0.1	-252.37
29605	14.415	0.81818	0.1	-590.58
29606	14.508	0.72727	0.1	-396.53
29607	14.415	1.	0.1	-808.93
29608	14.508	0.90909	0.1	-565.08
29609	14.415	1.1818	0.1	-1068.1
29610	14.508	1.0909	0.1	-765.19
29611	14.415	1.3636	0.1	-1381.8
29612	14.508	1.2727	0.1	-1010.2
29613	14.415	1.5455	0.1	-1790.9
29614	14.508	1.4545	0.1	-1329.8
29615	14.415	1.7273	0.1	-2189.7
29616	14.508	1.6364	0.1	-1720.3
29617	14.415	1.9091	0.1	-2033.8
29618	14.508	1.8182	0.1	-2593.6
29619	14.415	2.0909	0.1	-1278.7
29620	14.508	2.	0.1	-1986.8
29621	14.415	2.2727	0.1	-791.54
29622	14.508	2.1818	0.1	-919.94
29623	14.415	2.4545	0.1	-651.98
29624	14.508	2.3636	0.1	-740.41
29625	14.415	2.6364	0.1	-580.54
29626	14.508	2.5455	0.1	-633.88
29627	14.415	2.8182	0.1	-548.74
29628	14.508	2.7273	0.1	-581.76
29629	14.415	3.	0.1	-538.38
29630	14.508	2.9091	0.1	-557.38
29631	14.415	3.1818	0.1	-548.74
29632	14.508	3.0909	0.1	-557.38
29633	14.415	3.3636	0.1	-580.54
29634	14.508	3.2727	0.1	-581.76
29635	14.415	3.5455	0.1	-651.98
29636	14.508	3.4545	0.1	-633.88
29637	14.415	3.7273	0.1	-791.54
29638	14.508	3.6364	0.1	-740.41
29639	14.415	3.9091	0.1	-1278.7
29640	14.508	3.8182	0.1	-919.94
29641	14.415	4.0909	0.1	-2033.8
29642	14.508	4.	0.1	-1986.8
29643	14.415	4.2727	0.1	-2189.7
29644	14.508	4.1818	0.1	-2593.6
29645	14.415	4.4545	0.1	-1790.9
29646	14.508	4.3636	0.1	-1720.3
29647	14.415	4.6364	0.1	-1381.8
29648	14.508	4.5455	0.1	-1329.8
29649	14.415	4.8182	0.1	-1068.1
29650	14.508	4.7273	0.1	-1010.2
29651	14.415	5.	0.1	-808.93
29652	14.508	4.9091	0.1	-765.19
29653	14.415	5.1818	0.1	-590.58
29654	14.508	5.0909	0.1	-565.08
29655	14.415	5.3636	0.1	-403.1
29656	14.508	5.2727	0.1	-396.53
29657	14.415	5.5455	0.1	-243.18
29658	14.508	5.4545	0.1	-252.37
29659	14.415	5.7273	0.1	-119.87
29660	14.508	5.6364	0.1	-130.1
29661	14.508	5.8182	0.1	-38.141
29662	14.415	5.9091	0.1	-28.554
29663	14.767	3.7273	0.1	-736.6
29664	14.683	3.8182	0.1	-834.82
29665	14.767	3.9091	0.1	-924.71
29666	14.767	3.5455	0.1	-664.76
29667	14.683	3.6364	0.1	-736.72
29668	14.767	3.3636	0.1	-589.33
29669	14.683	3.4545	0.1	-639.5
29670	14.767	3.1818	0.1	-549.48
29671	14.683	3.2727	0.1	-582.88
29672	14.767	3.	0.1	-536.77
29673	14.683	3.0909	0.1	-556.48
29674	14.767	2.8182	0.1	-549.48
29675	14.683	2.9091	0.1	-556.48
29676	14.767	2.6364	0.1	-589.33
29677	14.683	2.7273	0.1	-582.88
29678	14.767	2.4545	0.1	-664.76
29679	14.683	2.5455	0.1	-639.5
29680	14.767	2.2727	0.1	-736.6
29681	14.683	2.3636	0.1	-736.72
29682	14.683	2.1818	0.1	-834.82
29683	14.767	2.0909	0.1	-924.71
29684	14.6	3.7273	0.1	-921.91
29685	14.6	3.9091	0.1	-1708.1
29686	14.6	3.5455	0.1	-736.17
29687	14.6	3.3636	0.1	-639.39
29688	14.6	3.1818	0.1	-590.97
29689	14.6	3.	0.1	-576.02
29690	14.6	2.8182	0.1	-590.97
29691	14.6	2.6364	0.1	-639.39
29692	14.6	2.4545	0.1	-736.17
29693	14.6	2.2727	0.1	-921.91
29694	14.6	2.0909	0.1	-1708.1
29695	14.767	5.7273	0.1	-59.934
29696	14.767	5.9091	0.1	-10.073
29697	14.767	5.8182	5.e-002	-42.745
29698	14.767	5.5455	0.1	-116.28
29699	14.767	5.6364	5.e-002	-91.564
29700	14.767	5.3636	0.1	-182.16
29701	14.767	5.4545	5.e-002	-139.75
29702	14.767	5.1818	0.1	-259.94
29703	14.767	5.2727	5.e-002	-191.97
29704	14.767	5.	0.1	-353.95
29705	14.767	5.0909	5.e-002	-251.15
29706	14.767	4.8182	0.1	-472.08
29707	14.767	4.9091	5.e-002	-321.52
29708	14.767	4.6364	0.1	-635.2
29709	14.767	4.7273	5.e-002	-410.25
29710	14.767	4.4545	0.1	-824.59
29711	14.767	4.5455	5.e-002	-529.8
29712	14.767	4.2727	0.1	-1494.2
29713	14.767	4.3636	5.e-002	-719.41
29714	14.767	4.0909	0.1	-1389.8
29715	14.767	4.1818	5.e-002	-1211.
29716	14.683	4.	0.1	-1265.6
29717	14.767	4.	5.e-002	-1033.2
29718	14.6	4.0909	0.1	-2520.7
29719	14.6	4.	5.e-002	-1306.7
29720	14.6	4.2727	0.1	-2363.9
29721	14.6	4.1818	5.e-002	-1439.4
29722	14.6	4.4545	0.1	-1420.1
29723	14.6	4.3636	5.e-002	-895.08
29724	14.6	4.6364	0.1	-1077.2
29725	14.6	4.5455	5.e-002	-668.74
29726	14.6	4.8182	0.1	-805.7
29727	14.6	4.7273	5.e-002	-526.23
29728	14.6	5.	0.1	-602.06
29729	14.6	4.9091	5.e-002	-417.34
29730	14.6	5.1818	0.1	-438.36
29731	14.6	5.0909	5.e-002	-328.84
29732	14.6	5.3636	0.1	-302.66
29733	14.6	5.2727	5.e-002	-252.74
29734	14.6	5.5455	0.1	-189.01
29735	14.6	5.4545	5.e-002	-184.49
29736	14.6	5.7273	0.1	-94.663
29737	14.6	5.6364	5.e-002	-121.
29738	14.6	5.9091	0.1	-15.907
29739	14.6	5.8182	5.e-002	-57.381
29740	14.767	0.27273	0.1	-59.934
29741	14.767	9.0909e-002	0.1	-10.073
29742	14.767	0.18182	5.e-002	-42.745
29743	14.767	0.45455	0.1	-116.28
29744	14.767	0.36364	5.e-002	-91.564
29745	14.767	0.63636	0.1	-182.16
29746	14.767	0.54545	5.e-002	-139.75
29747	14.767	0.81818	0.1	-259.94
29748	14.767	0.72727	5.e-002	-191.97
29749	14.767	1.	0.1	-353.95
29750	14.767	0.90909	5.e-002	-251.15
29751	14.767	1.1818	0.1	-472.08
29752	14.767	1.0909	5.e-002	-321.52
29753	14.767	1.3636	0.1	-635.2
29754	14.767	1.2727	5.e-002	-410.25
29755	14.767	1.5455	0.1	-824.59
29756	14.767	1.4545	5.e-002	-529.8
29757	14.767	1.7273	0.1	-1494.2
29758	14.767	1.6364	5.e-002	-719.41
29759	14.767	1.9091	0.1	-1389.8
29760	14.767	1.8182	5.e-002	-1211.
29761	14.683	2.	0.1	-1265.6
29762	14.767	2.	5.e-002	-1033.2
29763	14.6	1.9091	0.1	-2520.7
29764	14.6	2.	5.e-002	-1306.7
29765	14.6	1.7273	0.1	-2363.9
29766	14.6	1.8182	5.e-002	-1439.4
29767	14.6	1.5455	0.1	-1420.1
29768	14.6	1.6364	5.e-002	-895.08
29769	14.6	1.3636	0.1	-1077.2
29770	14.6	1.4545	5.e-002	-668.74
29771	14.6	1.1818	0.1	-805.7
29772	14.6	1.2727	5.e-002	-526.23
29773	14.6	1.	0.1	-602.06
29774	14.6	1.0909	5.e-002	-417.34
29775	14.6	0.81818	0.1	-438.36
29776	14.6	0.90909	5.e-002	-328.84
29777	14.6	0.63636	0.1	-302.66
29778	14.6	0.72727	5.e-002	-252.74
29779	14.6	0.45455	0.1	-189.01
29780	14.6	0.54545	5.e-002	-184.49
29781	14.6	0.27273	0.1	-94.663
29782	14.6	0.36364	5.e-002	-121.
29783	14.6	9.0909e-002	0.1	-15.907
29784	14.6	0.18182	5.e-002	-57.381
29785	14.859	6.	0.1	-3.2009
29786	14.767	6.	5.e-002	-13.861
29787	15.044	6.	0.1	-10.089
29788	14.951	6.	5.e-002	-12.092
29789	15.228	6.	0.1	-12.496
29790	15.136	6.	5.e-002	-30.286
29791	15.413	6.	0.1	-13.421
29792	15.321	6.	5.e-002	-40.105
29793	15.598	6.	0.1	-13.167
29794	15.505	6.	5.e-002	-45.797
29795	15.782	6.	0.1	-12.254
29796	15.69	6.	5.e-002	-48.517
29797	15.967	6.	0.1	-11.078
29798	15.875	6.	5.e-002	-49.345
29799	16.152	6.	0.1	-9.8527
29800	16.059	6.	5.e-002	-49.028
29801	16.336	6.	0.1	-8.7034
29802	16.244	6.	5.e-002	-48.112
29803	16.521	6.	0.1	-7.6914
29804	16.429	6.	5.e-002	-46.969
29805	16.706	6.	0.1	-6.8409
29806	16.613	6.	5.e-002	-45.835
29807	16.89	6.	0.1	-6.1543
29808	16.798	6.	5.e-002	-44.847
29809	17.075	6.	0.1	-5.6225
29810	16.983	6.	5.e-002	-44.071
29811	17.26	6.	0.1	-5.2314
29812	17.167	6.	5.e-002	-43.528
29813	17.444	6.	0.1	-4.9654
29814	17.352	6.	5.e-002	-43.21
29815	17.629	6.	0.1	-4.809
29816	17.537	6.	5.e-002	-43.091
29817	17.814	6.	0.1	-4.7477
29818	17.721	6.	5.e-002	-43.139
29819	17.998	6.	0.1	-4.7685
29820	17.906	6.	5.e-002	-43.32
29821	18.183	6.	0.1	-4.8596
29822	18.091	6.	5.e-002	-43.597
29823	18.368	6.	0.1	-5.0109
29824	18.275	6.	5.e-002	-43.938
29825	18.552	6.	0.1	-5.2131
29826	18.46	6.	5.e-002	-44.316
29827	18.737	6.	0.1	-5.4581
29828	18.645	6.	5.e-002	-44.703
29829	18.922	6.	0.1	-5.739
29830	18.829	6.	5.e-002	-45.078
29831	19.106	6.	0.1	-6.0495
29832	19.014	6.	5.e-002	-45.423
29833	19.291	6.	0.1	-6.384
29834	19.199	6.	5.e-002	-45.722
29835	19.476	6.	0.1	-6.7377
29836	19.383	6.	5.e-002	-45.963
29837	19.66	6.	0.1	-7.1065
29838	19.568	6.	5.e-002	-46.135
29839	19.845	6.	0.1	-7.4865
29840	19.753	6.	5.e-002	-46.229
29841	20.03	6.	0.1	-7.8745
29842	19.937	6.	5.e-002	-46.238
29843	20.214	6.	0.1	-8.2673
29844	20.122	6.	5.e-002	-46.155
29845	20.399	6.	0.1	-8.6625
29846	20.307	6.	5.e-002	-45.975
29847	20.584	6.	0.1	-9.0573
29848	20.491	6.	5.e-002	-45.693
29849	20.768	6.	0.1	-9.4497
29850	20.676	6.	5.e-002	-45.304
29851	20.953	6.	0.1	-9.8372
29852	20.861	6.	5.e-002	-44.804
29853	21.138	6.	0.1	-10.218
29854	21.045	6.	5.e-002	-44.188
29855	21.322	6.	0.1	-10.589
29856	21.23	6.	5.e-002	-43.45
29857	21.507	6.	0.1	-10.948
29858	21.415	6.	5.e-002	-42.584
29859	21.692	6.	0.1	-11.293
29860	21.599	6.	5.e-002	-41.584
29861	21.876	6.	0.1	-11.62
29862	21.784	6.	5.e-002	-40.441
29863	22.061	6.	0.1	-11.925
29864	21.969	6.	5.e-002	-39.146
29865	22.246	6.	0.1	-12.204
29866	22.153	6.	5.e-002	-37.687
29867	22.43	6.	0.1	-12.452
29868	22.338	6.	5.e-002	-36.05
29869	22.615	6.	0.1	-12.66
29870	22.523	6.	5.e-002	-34.215
29871	22.8	6.	0.1	-12.818
29872	22.707	6.	5.e-002	-32.161
29873	22.984	6.	0.1	-12.909
29874	22.892	6.	5.e-002	-29.856
29875	23.169	6.	0.1	-12.912
29876	23.077	6.	5.e-002	-27.256
29877	23.354	6.	0.1	-12.773
29878	23.261	6.	5.e-002	-24.297
29879	23.538	6.	0.1	-12.456
29880	23.446	6.	5.e-002	-20.88
29881	23.723	6.	0.1	-11.313
29882	23.631	6.	5.e-002	-16.811
29883	23.908	6.	0.1	-8.029
29884	23.815	6.	5.e-002	-11.49
29885	24.	5.9091	0.1	-19.236
29886	24.	6.	5.e-002	-4.5622
29887	24.	5.7273	0.1	-47.293
29888	24.	5.8182	5.e-002	-4.0869
29889	24.	5.5455	0.1	-69.738
29890	24.	5.6364	5.e-002	-4.5336
29891	24.	5.3636	0.1	-87.38
29892	24.	5.4545	5.e-002	-4.939
29893	24.	5.1818	0.1	-102.03
29894	24.	5.2727	5.e-002	-5.1448
29895	24.	5.	0.1	-114.46
29896	24.	5.0909	5.e-002	-5.2288
29897	24.	4.8182	0.1	-125.09
29898	24.	4.9091	5.e-002	-5.2321
29899	24.	4.6364	0.1	-134.21
29900	24.	4.7273	5.e-002	-5.1821
29901	24.	4.4545	0.1	-142.01
29902	24.	4.5455	5.e-002	-5.0982
29903	24.	4.2727	0.1	-148.63
29904	24.	4.3636	5.e-002	-4.995
29905	24.	4.0909	0.1	-154.2
29906	24.	4.1818	5.e-002	-4.8837
29907	24.	3.9091	0.1	-158.79
29908	24.	4.	5.e-002	-4.7731
29909	24.	3.7273	0.1	-162.46
29910	24.	3.8182	5.e-002	-4.6703
29911	24.	3.5455	0.1	-165.27
29912	24.	3.6364	5.e-002	-4.5811
29913	24.	3.3636	0.1	-167.26
29914	24.	3.4545	5.e-002	-4.5101
29915	24.	3.1818	0.1	-168.44
29916	24.	3.2727	5.e-002	-4.4609
29917	24.	3.	0.1	-168.83
29918	24.	3.0909	5.e-002	-4.4356
29919	24.	2.8182	0.1	-168.44
29920	24.	2.9091	5.e-002	-4.4356
29921	24.	2.6364	0.1	-167.26
29922	24.	2.7273	5.e-002	-4.4609
29923	24.	2.4545	0.1	-165.27
29924	24.	2.5455	5.e-002	-4.5101
29925	24.	2.2727	0.1	-162.46
29926	24.	2.3636	5.e-002	-4.5811
29927	24.	2.0909	0.1	-158.79
29928	24.	2.1818	5.e-002	-4.6703
29929	24.	1.9091	0.1	-154.2
29930	24.	2.	5.e-002	-4.7731
29931	24.	1.7273	0.1	-148.63
29932	24.	1.8182	5.e-002	-4.8837
29933	24.	1.5455	0.1	-142.01
29934	24.	1.6364	5.e-002	-4.9951
29935	24.	1.3636	0.1	-134.21
29936	24.	1.4545	5.e-002	-5.0982
29937	24.	1.1818	0.1	-125.09
29938	24.	1.2727	5.e-002	-5.1821
29939	24.	1.	0.1	-114.46
29940	24.	1.0909	5.e-002	-5.2321
29941	24.	0.81818	0.1	-102.03
29942	24.	0.90909	5.e-002	-5.2289
29943	24.	0.63636	0.1	-87.38
29944	24.	0.72727	5.e-002	-5.1448
29945	24.	0.45455	0.1	-69.738
29946	24.	0.54545	5.e-002	-4.939
29947	24.	0.27273	0.1	-47.293
29948	24.	0.36364	5.e-002	-4.5336
29949	24.	9.0909e-002	0.1	-19.236
29950	24.	0.18182	5.e-002	-4.0869
29951	2.3842e-015	0.27273	0.1	1665.
29952	7.9472e-016	9.0909e-002	0.1	-142.89
29953	1.6109e-015	0.18182	5.e-002	-96.182
29954	3.9736e-015	0.45455	0.1	2515.
29955	3.2219e-015	0.36364	5.e-002	-49.518
29956	5.563e-015	0.63636	0.1	2948.7
29957	4.8328e-015	0.54545	5.e-002	-44.655
29958	7.1525e-015	0.81818	0.1	3218.6
29959	6.4438e-015	0.72727	5.e-002	-39.194
29960	8.7419e-015	1.	0.1	3403.
29961	8.0547e-015	0.90909	5.e-002	-33.283
29962	1.0331e-014	1.1818	0.1	3536.3
29963	9.6657e-015	1.0909	5.e-002	-28.189
29964	1.1921e-014	1.3636	0.1	3636.
29965	1.1277e-014	1.2727	5.e-002	-24.059
29966	1.351e-014	1.5455	0.1	3712.1
29967	1.2888e-014	1.4545	5.e-002	-20.703
29968	1.51e-014	1.7273	0.1	3770.8
29969	1.4498e-014	1.6364	5.e-002	-17.985
29970	1.6689e-014	1.9091	0.1	3816.4
29971	1.6109e-014	1.8182	5.e-002	-15.793
29972	1.8279e-014	2.0909	0.1	3851.5
29973	1.772e-014	2.	5.e-002	-14.04
29974	1.9868e-014	2.2727	0.1	3878.2
29975	1.9331e-014	2.1818	5.e-002	-12.662
29976	2.1457e-014	2.4545	0.1	3897.9
29977	2.0942e-014	2.3636	5.e-002	-11.609
29978	2.3047e-014	2.6364	0.1	3911.3
29979	2.2553e-014	2.5455	5.e-002	-10.847
29980	2.4636e-014	2.8182	0.1	3919.3
29981	2.4164e-014	2.7273	5.e-002	-10.351
29982	2.6226e-014	3.	0.1	3921.9
29983	2.5775e-014	2.9091	5.e-002	-10.107
29984	2.7815e-014	3.1818	0.1	3919.3
29985	2.7386e-014	3.0909	5.e-002	-10.108
29986	2.9405e-014	3.3636	0.1	3911.3
29987	2.8997e-014	3.2727	5.e-002	-10.351
29988	3.0994e-014	3.5455	0.1	3897.9
29989	3.0608e-014	3.4545	5.e-002	-10.847
29990	3.2583e-014	3.7273	0.1	3878.2
29991	3.2219e-014	3.6364	5.e-002	-11.609
29992	3.4173e-014	3.9091	0.1	3851.5
29993	3.383e-014	3.8182	5.e-002	-12.662
29994	3.5762e-014	4.0909	0.1	3816.4
29995	3.5441e-014	4.	5.e-002	-14.04
29996	3.7352e-014	4.2727	0.1	3770.8
29997	3.7052e-014	4.1818	5.e-002	-15.793
29998	3.8941e-014	4.4545	0.1	3712.1
29999	3.8663e-014	4.3636	5.e-002	-17.985
30000	4.0531e-014	4.6364	0.1	3636.
30001	4.0274e-014	4.5455	5.e-002	-20.703
30002	4.212e-014	4.8182	0.1	3536.3
30003	4.1885e-014	4.7273	5.e-002	-24.059
30004	4.371e-014	5.	0.1	3403.
30005	4.3495e-014	4.9091	5.e-002	-28.19
30006	4.5299e-014	5.1818	0.1	3218.6
30007	4.5106e-014	5.0909	5.e-002	-33.283
30008	4.6888e-014	5.3636	0.1	2948.7
30009	4.6717e-014	5.2727	5.e-002	-39.194
30010	4.8478e-014	5.5455	0.1	2515.
30011	4.8328e-014	5.4545	5.e-002	-44.655
30012	5.0067e-014	5.7273	0.1	1665.
30013	4.9939e-014	5.6364	5.e-002	-49.518
30014	5.1657e-014	5.9091	0.1	-142.89
30015	5.155e-014	5.8182	5.e-002	-96.182
30016	23.908	0.	0.1	-8.029
30017	24.	0.	5.e-002	-4.5622
30018	23.723	0.	0.1	-11.313
30019	23.815	0.	5.e-002	-11.49
30020	23.538	0.	0.1	-12.456
30021	23.631	0.	5.e-002	-16.811
30022	23.354	0.	0.1	-12.773
30023	23.446	0.	5.e-002	-20.88
30024	23.169	0.	0.1	-12.912
30025	23.261	0.	5.e-002	-24.297
30026	22.984	0.	0.1	-12.909
30027	23.077	0.	5.e-002	-27.256
30028	22.8	0.	0.1	-12.818
30029	22.892	0.	5.e-002	-29.856
30030	22.615	0.	0.1	-12.66
30031	22.707	0.	5.e-002	-32.161
30032	22.43	0.	0.1	-12.452
30033	22.523	0.	5.e-002	-34.215
30034	22.246	0.	0.1	-12.204
30035	22.338	0.	5.e-002	-36.05
30036	22.061	0.	0.1	-11.925
30037	22.153	0.	5.e-002	-37.687
30038	21.876	0.	0.1	-11.62
30039	21.969	0.	5.e-002	-39.146
30040	21.692	0.	0.1	-11.293
30041	21.784	0.	5.e-002	-40.441
30042	21.507	0.	0.1	-10.948
30043	21.599	0.	5.e-002	-41.584
30044	21.322	0.	0.1	-10.589
30045	21.415	0.	5.e-002	-42.584
30046	21.138	0.	0.1	-10.218
30047	21.23	0.	5.e-002	-43.45
30048	20.953	0.	0.1	-9.8372
30049	21.045	0.	5.e-002	-44.188
30050	20.768	0.	0.1	-9.4497
30051	20.861	0.	5.e-002	-44.804
30052	20.584	0.	0.1	-9.0574
30053	20.676	0.	5.e-002	-45.304
30054	20.399	0.	0.1	-8.6625
30055	20.491	0.	5.e-002	-45.693
30056	20.214	0.	0.1	-8.2674
30057	20.307	0.	5.e-002	-45.975
30058	20.03	0.	0.1	-7.8745
30059	20.122	0.	5.e-002	-46.155
30060	19.845	0.	0.1	-7.4866
30061	19.937	0.	5.e-002	-46.238
30062	19.66	0.	0.1	-7.1065
30063	19.753	0.	5.e-002	-46.229
30064	19.476	0.	0.1	-6.7378
30065	19.568	0.	5.e-002	-46.135
30066	19.291	0.	0.1	-6.384
30067	19.383	0.	5.e-002	-45.963
30068	19.106	0.	0.1	-6.0495
30069	19.199	0.	5.e-002	-45.722
30070	18.922	0.	0.1	-5.739
30071	19.014	0.	5.e-002	-45.423
30072	18.737	0.	0.1	-5.4582
30073	18.829	0.	5.e-002	-45.078
30074	18.552	0.	0.1	-5.2131
30075	18.645	0.	5.e-002	-44.703
30076	18.368	0.	0.1	-5.0109
30077	18.46	0.	5.e-002	-44.316
30078	18.183	0.	0.1	-4.8597
30079	18.275	0.	5.e-002	-43.939
30080	17.998	0.	0.1	-4.7685
30081	18.091	0.	5.e-002	-43.597
30082	17.814	0.	0.1	-4.7477
30083	17.906	0.	5.e-002	-43.32
30084	17.629	0.	0.1	-4.809
30085	17.721	0.	5.e-002	-43.14
30086	17.444	0.	0.1	-4.9654
30087	17.537	0.	5.e-002	-43.091
30088	17.26	0.	0.1	-5.2314
30089	17.352	0.	5.e-002	-43.21
30090	17.075	0.	0.1	-5.6225
30091	17.167	0.	5.e-002	-43.528
30092	16.89	0.	0.1	-6.1543
30093	16.983	0.	5.e-002	-44.071
30094	16.706	0.	0.1	-6.841
30095	16.798	0.	5.e-002	-44.847
30096	16.521	0.	0.1	-7.6914
30097	16.613	0.	5.e-002	-45.835
30098	16.336	0.	0.1	-8.7034
30099	16.429	0.	5.e-002	-46.969
30100	16.152	0.	0.1	-9.8528
30101	16.244	0.	5.e-002	-48.112
30102	15.967	0.	0.1	-11.078
30103	16.059	0.	5.e-002	-49.028
30104	15.782	0.	0.1	-12.254
30105	15.875	0.	5.e-002	-49.345
30106	15.598	0.	0.1	-13.167
30107	15.69	0.	5.e-002	-48.517
30108	15.413	0.	0.1	-13.421
30109	15.505	0.	5.e-002	-45.797
30110	15.228	0.	0.1	-12.496
30111	15.321	0.	5.e-002	-40.105
30112	15.044	0.	0.1	-10.089
30113	15.136	0.	5.e-002	-30.286
30114	14.859	0.	0.1	-3.2009
30115	14.951	0.	5.e-002	-12.092
30116	14.767	0.	5.e-002	-13.861
30117	14.508	-1.2055e-030	0.1	-2.5071
30118	14.6	-1.2132e-030	5.e-002	-16.456
30119	14.323	-1.1901e-030	0.1	-7.4701
30120	14.415	0.	5.e-002	-6.0092
30121	14.138	-1.1748e-030	0.1	-7.9026
30122	14.23	0.	5.e-002	-19.18
30123	13.953	-1.1594e-030	0.1	-7.7173
30124	14.046	0.	5.e-002	-22.495
30125	13.768	-1.1441e-030	0.1	-7.0194
30126	13.861	0.	5.e-002	-20.952
30127	13.584	-1.1287e-030	0.1	-6.1871
30128	13.676	0.	5.e-002	-16.104
30129	13.399	-1.1134e-030	0.1	-5.4596
30130	13.491	0.	5.e-002	-9.446
30131	13.214	-1.098e-030	0.1	-4.9041
30132	13.306	0.	5.e-002	-3.1298
30133	13.029	-1.0827e-030	0.1	-4.5298
30134	13.122	0.	5.e-002	-7.521
30135	12.844	-1.0673e-030	0.1	-4.3104
30136	12.937	0.	5.e-002	-15.121
30137	12.659	-1.0519e-030	0.1	-4.2097
30138	12.752	0.	5.e-002	-22.442
30139	12.475	-1.0366e-030	0.1	-4.1913
30140	12.567	0.	5.e-002	-29.164
30141	12.29	-1.0212e-030	0.1	-4.2241
30142	12.382	0.	5.e-002	-35.19
30143	12.105	-1.0059e-030	0.1	-4.2836
30144	12.197	0.	5.e-002	-40.501
30145	11.92	-9.9051e-031	0.1	-4.3517
30146	12.013	0.	5.e-002	-45.124
30147	11.735	-9.7515e-031	0.1	-4.4159
30148	11.828	0.	5.e-002	-49.107
30149	11.551	-9.598e-031	0.1	-4.4683
30150	11.643	0.	5.e-002	-52.508
30151	11.366	-9.4444e-031	0.1	-4.5037
30152	11.458	0.	5.e-002	-55.387
30153	11.181	-9.2908e-031	0.1	-4.5199
30154	11.273	0.	5.e-002	-57.805
30155	10.996	-9.1373e-031	0.1	-4.5157
30156	11.089	0.	5.e-002	-59.816
30157	10.811	-8.9837e-031	0.1	-4.491
30158	10.904	0.	5.e-002	-61.468
30159	10.627	-8.8301e-031	0.1	-4.4465
30160	10.719	0.	5.e-002	-62.804
30161	10.442	-8.6766e-031	0.1	-4.3829
30162	10.534	0.	5.e-002	-63.86
30163	10.257	-8.523e-031	0.1	-4.301
30164	10.349	0.	5.e-002	-64.667
30165	10.072	-8.3694e-031	0.1	-4.2019
30166	10.165	0.	5.e-002	-65.25
30167	9.8873	-8.2159e-031	0.1	-4.0863
30168	9.9797	0.	5.e-002	-65.63
30169	9.7025	-8.0623e-031	0.1	-3.9548
30170	9.7949	0.	5.e-002	-65.822
30171	9.5177	-7.9087e-031	0.1	-3.808
30172	9.6101	0.	5.e-002	-65.839
30173	9.3329	-7.7552e-031	0.1	-3.6463
30174	9.4253	0.	5.e-002	-65.69
30175	9.1481	-7.6016e-031	0.1	-3.4701
30176	9.2405	0.	5.e-002	-65.381
30177	8.9633	-7.448e-031	0.1	-3.2796
30178	9.0557	0.	5.e-002	-64.916
30179	8.7785	-7.2945e-031	0.1	-3.075
30180	8.8709	0.	5.e-002	-64.295
30181	8.5937	-7.1409e-031	0.1	-2.8564
30182	8.6861	0.	5.e-002	-63.518
30183	8.4089	-6.9873e-031	0.1	-2.6239
30184	8.5013	0.	5.e-002	-62.581
30185	8.2241	-6.8338e-031	0.1	-2.3776
30186	8.3165	0.	5.e-002	-61.48
30187	8.0392	-6.6802e-031	0.1	-2.1176
30188	8.1316	0.	5.e-002	-60.209
30189	7.8544	-6.5266e-031	0.1	-1.8443
30190	7.9468	0.	5.e-002	-58.759
30191	7.6696	-6.3731e-031	0.1	-1.5578
30192	7.762	0.	5.e-002	-57.121
30193	7.4848	-6.2195e-031	0.1	-1.2586
30194	7.5772	0.	5.e-002	-55.285
30195	7.3	-6.0659e-031	0.1	-0.94751
30196	7.3924	0.	5.e-002	-53.237
30197	7.1152	-5.9124e-031	0.1	-0.62532
30198	7.2076	0.	5.e-002	-50.964
30199	6.9304	-5.7588e-031	0.1	-0.44283
30200	7.0228	0.	5.e-002	-48.449
30201	6.7456	-5.6052e-031	0.1	-0.48661
30202	6.838	0.	5.e-002	-45.677
30203	6.5608	-5.4517e-031	0.1	-0.5339
30204	6.6532	0.	5.e-002	-42.627
30205	6.3759	-5.2981e-031	0.1	-0.58483
30206	6.4684	0.	5.e-002	-39.28
30207	6.1911	-5.1445e-031	0.1	-0.63973
30208	6.2835	0.	5.e-002	-35.614
30209	6.0063	-4.9909e-031	0.1	-0.69892
30210	6.0987	0.	5.e-002	-31.603
30211	5.8215	-4.8374e-031	0.1	-0.76278
30212	5.9139	0.	5.e-002	-27.224
30213	5.6367	-4.6838e-031	0.1	-0.83172
30214	5.7291	0.	5.e-002	-22.449
30215	5.4519	-4.5302e-031	0.1	-0.90617
30216	5.5443	0.	5.e-002	-17.253
30217	5.2671	-4.3767e-031	0.1	-0.98663
30218	5.3595	0.	5.e-002	-11.619
30219	5.0823	-4.2231e-031	0.1	-1.0736
30220	5.1747	0.	5.e-002	-5.6142
30221	4.8975	-4.0695e-031	0.1	-1.1678
30222	4.9899	0.	5.e-002	-2.4406
30223	4.7127	-3.916e-031	0.1	-1.2698
30224	4.8051	0.	5.e-002	-8.9956
30225	4.5278	-3.7624e-031	0.1	-1.3805
30226	4.6203	0.	5.e-002	-16.839
30227	4.343	-3.6088e-031	0.1	-1.501
30228	4.4354	0.	5.e-002	-25.424
30229	4.1582	-3.4553e-031	0.1	-1.6328
30230	4.2506	0.	5.e-002	-34.758
30231	3.9734	-3.3017e-031	0.1	-1.778
30232	4.0658	0.	5.e-002	-44.891
30233	3.7886	-3.1481e-031	0.1	-1.9401
30234	3.881	0.	5.e-002	-55.88
30235	3.6038	-2.9946e-031	0.1	-2.1262
30236	3.6962	0.	5.e-002	-67.792
30237	3.419	-2.841e-031	0.1	-2.3536
30238	3.5114	0.	5.e-002	-80.702
30239	3.2342	-2.6874e-031	0.1	-2.6809
30240	3.3266	0.	5.e-002	-94.692
30241	3.0494	-2.5339e-031	0.1	-3.3725
30242	3.1418	0.	5.e-002	-109.85
30243	2.8646	-2.3803e-031	0.1	-4.99
30244	2.957	0.	5.e-002	-126.28
30245	2.6797	-2.2267e-031	0.1	-7.4728
30246	2.7722	0.	5.e-002	-144.11
30247	2.4949	-2.0732e-031	0.1	-10.681
30248	2.5873	0.	5.e-002	-163.45
30249	2.3101	-1.9196e-031	0.1	-14.681
30250	2.4025	0.	5.e-002	-184.47
30251	2.1253	-1.766e-031	0.1	-19.614
30252	2.2177	0.	5.e-002	-207.35
30253	1.9405	-1.6125e-031	0.1	-25.68
30254	2.0329	0.	5.e-002	-232.31
30255	1.7557	-1.4589e-031	0.1	-33.151
30256	1.8481	0.	5.e-002	-259.62
30257	1.5709	-1.3053e-031	0.1	-42.398
30258	1.6633	0.	5.e-002	-289.63
30259	1.3861	-1.1518e-031	0.1	-53.967
30260	1.4785	0.	5.e-002	-322.8
30261	1.2013	-9.9819e-032	0.1	-68.636
30262	1.2937	0.	5.e-002	-359.72
30263	1.0165	-8.4462e-032	0.1	-87.833
30264	1.1089	0.	5.e-002	-401.29
30265	0.83165	-6.9105e-032	0.1	-113.63
30266	0.92405	0.	5.e-002	-448.75
30267	0.64684	-5.3749e-032	0.1	-151.37
30268	0.73924	0.	5.e-002	-504.6
30269	0.46203	-3.8392e-032	0.1	-212.88
30270	0.55443	0.	5.e-002	-572.25
30271	0.27722	-2.3035e-032	0.1	-334.8
30272	0.36962	0.	5.e-002	-663.57
30273	9.2405e-002	-7.6784e-033	0.1	-897.28
30274	0.18481	0.	5.e-002	-844.86
30275	0.	0.	5.e-002	-1120.
30276	9.2405e-002	6.	0.1	-897.28
30277	5.2451e-014	6.	5.e-002	-1120.
30278	0.27722	6.	0.1	-334.8
30279	0.18481	6.	5.e-002	-844.86
30280	0.46203	6.	0.1	-212.88
30281	0.36962	6.	5.e-002	-663.57
30282	0.64684	6.	0.1	-151.37
30283	0.55443	6.	5.e-002	-572.25
30284	0.83165	6.	0.1	-113.63
30285	0.73924	6.	5.e-002	-504.6
30286	1.0165	6.	0.1	-87.833
30287	0.92405	6.	5.e-002	-448.75
30288	1.2013	6.	0.1	-68.636
30289	1.1089	6.	5.e-002	-401.29
30290	1.3861	6.	0.1	-53.967
30291	1.2937	6.	5.e-002	-359.72
30292	1.5709	6.	0.1	-42.398
30293	1.4785	6.	5.e-002	-322.8
30294	1.7557	6.	0.1	-33.151
30295	1.6633	6.	5.e-002	-289.63
30296	1.9405	6.	0.1	-25.68
30297	1.8481	6.	5.e-002	-259.62
30298	2.1253	6.	0.1	-19.614
30299	2.0329	6.	5.e-002	-232.31
30300	2.3101	6.	0.1	-14.681
30301	2.2177	6.	5.e-002	-207.35
30302	2.4949	6.	0.1	-10.681
30303	2.4025	6.	5.e-002	-184.47
30304	2.6797	6.	0.1	-7.4728
30305	2.5873	6.	5.e-002	-163.45
30306	2.8646	6.	0.1	-4.99
30307	2.7722	6.	5.e-002	-144.11
30308	3.0494	6.	0.1	-3.3725
30309	2.957	6.	5.e-002	-126.28
30310	3.2342	6.	0.1	-2.6809
30311	3.1418	6.	5.e-002	-109.85
30312	3.419	6.	0.1	-2.3536
30313	3.3266	6.	5.e-002	-94.692
30314	3.6038	6.	0.1	-2.1262
30315	3.5114	6.	5.e-002	-80.703
30316	3.7886	6.	0.1	-1.9401
30317	3.6962	6.	5.e-002	-67.793
30318	3.9734	6.	0.1	-1.778
30319	3.881	6.	5.e-002	-55.88
30320	4.1582	6.	0.1	-1.6328
30321	4.0658	6.	5.e-002	-44.891
30322	4.343	6.	0.1	-1.501
30323	4.2506	6.	5.e-002	-34.759
30324	4.5278	6.	0.1	-1.3805
30325	4.4354	6.	5.e-002	-25.424
30326	4.7127	6.	0.1	-1.2698
30327	4.6203	6.	5.e-002	-16.839
30328	4.8975	6.	0.1	-1.1678
30329	4.8051	6.	5.e-002	-8.9958
30330	5.0823	6.	0.1	-1.0736
30331	4.9899	6.	5.e-002	-2.4407
30332	5.2671	6.	0.1	-0.98663
30333	5.1747	6.	5.e-002	-5.6142
30334	5.4519	6.	0.1	-0.90617
30335	5.3595	6.	5.e-002	-11.619
30336	5.6367	6.	0.1	-0.83171
30337	5.5443	6.	5.e-002	-17.253
30338	5.8215	6.	0.1	-0.76278
30339	5.7291	6.	5.e-002	-22.449
30340	6.0063	6.	0.1	-0.69892
30341	5.9139	6.	5.e-002	-27.224
30342	6.1911	6.	0.1	-0.63973
30343	6.0987	6.	5.e-002	-31.603
30344	6.3759	6.	0.1	-0.58483
30345	6.2835	6.	5.e-002	-35.614
30346	6.5608	6.	0.1	-0.5339
30347	6.4684	6.	5.e-002	-39.28
30348	6.7456	6.	0.1	-0.48661
30349	6.6532	6.	5.e-002	-42.627
30350	6.9304	6.	0.1	-0.44282
30351	6.838	6.	5.e-002	-45.677
30352	7.1152	6.	0.1	-0.62531
30353	7.0228	6.	5.e-002	-48.449
30354	7.3	6.	0.1	-0.9475
30355	7.2076	6.	5.e-002	-50.964
30356	7.4848	6.	0.1	-1.2586
30357	7.3924	6.	5.e-002	-53.237
30358	7.6696	6.	0.1	-1.5578
30359	7.5772	6.	5.e-002	-55.285
30360	7.8544	6.	0.1	-1.8443
30361	7.762	6.	5.e-002	-57.121
30362	8.0392	6.	0.1	-2.1176
30363	7.9468	6.	5.e-002	-58.759
30364	8.2241	6.	0.1	-2.3776
30365	8.1316	6.	5.e-002	-60.209
30366	8.4089	6.	0.1	-2.6239
30367	8.3165	6.	5.e-002	-61.48
30368	8.5937	6.	0.1	-2.8564
30369	8.5013	6.	5.e-002	-62.581
30370	8.7785	6.	0.1	-3.075
30371	8.6861	6.	5.e-002	-63.518
30372	8.9633	6.	0.1	-3.2796
30373	8.8709	6.	5.e-002	-64.295
30374	9.1481	6.	0.1	-3.4701
30375	9.0557	6.	5.e-002	-64.916
30376	9.3329	6.	0.1	-3.6463
30377	9.2405	6.	5.e-002	-65.381
30378	9.5177	6.	0.1	-3.8079
30379	9.4253	6.	5.e-002	-65.69
30380	9.7025	6.	0.1	-3.9547
30381	9.6101	6.	5.e-002	-65.839
30382	9.8873	6.	0.1	-4.0863
30383	9.7949	6.	5.e-002	-65.822
30384	10.072	6.	0.1	-4.2019
30385	9.9797	6.	5.e-002	-65.629
30386	10.257	6.	0.1	-4.301
30387	10.165	6.	5.e-002	-65.25
30388	10.442	6.	0.1	-4.3829
30389	10.349	6.	5.e-002	-64.667
30390	10.627	6.	0.1	-4.4465
30391	10.534	6.	5.e-002	-63.86
30392	10.811	6.	0.1	-4.491
30393	10.719	6.	5.e-002	-62.804
30394	10.996	6.	0.1	-4.5156
30395	10.904	6.	5.e-002	-61.468
30396	11.181	6.	0.1	-4.5199
30397	11.089	6.	5.e-002	-59.816
30398	11.366	6.	0.1	-4.5037
30399	11.273	6.	5.e-002	-57.805
30400	11.551	6.	0.1	-4.4683
30401	11.458	6.	5.e-002	-55.387
30402	11.735	6.	0.1	-4.4159
30403	11.643	6.	5.e-002	-52.508
30404	11.92	6.	0.1	-4.3517
30405	11.828	6.	5.e-002	-49.107
30406	12.105	6.	0.1	-4.2836
30407	12.013	6.	5.e-002	-45.124
30408	12.29	6.	0.1	-4.2241
30409	12.197	6.	5.e-002	-40.501
30410	12.475	6.	0.1	-4.1913
30411	12.382	6.	5.e-002	-35.19
30412	12.659	6.	0.1	-4.2097
30413	12.567	6.	5.e-002	-29.164
30414	12.844	6.	0.1	-4.3104
30415	12.752	6.	5.e-002	-22.442
30416	13.029	6.	0.1	-4.5298
30417	12.937	6.	5.e-002	-15.121
30418	13.214	6.	0.1	-4.9041
30419	13.122	6.	5.e-002	-7.5209
30420	13.399	6.	0.1	-5.4596
30421	13.306	6.	5.e-002	-3.1298
30422	13.584	6.	0.1	-6.1871
30423	13.491	6.	5.e-002	-9.446
30424	13.768	6.	0.1	-7.0194
30425	13.676	6.	5.e-002	-16.104
30426	13.953	6.	0.1	-7.7173
30427	13.861	6.	5.e-002	-20.952
30428	14.138	6.	0.1	-7.9026
30429	14.046	6.	5.e-002	-22.495
30430	14.323	6.	0.1	-7.4701
30431	14.23	6.	5.e-002	-19.18
30432	14.508	6.	0.1	-2.5071
30433	14.415	6.	5.e-002	-6.0092
30434	14.6	6.	5.e-002	-16.456
30435	14.323	6.	0.	-462.43
30436	14.508	6.	0.	-164.01
30437	14.138	6.	0.	-761.36
30438	13.953	6.	0.	-1037.6
30439	13.768	6.	0.	-1291.1
30440	13.584	6.	0.	-1520.4
30441	13.399	6.	0.	-1725.3
30442	13.214	6.	0.	-1906.8
30443	13.029	6.	0.	-2066.9
30444	12.844	6.	0.	-2208.
30445	12.659	6.	0.	-2332.9
30446	12.475	6.	0.	-2443.9
30447	12.29	6.	0.	-2543.5
30448	12.105	6.	0.	-2633.6
30449	11.92	6.	0.	-2716.1
30450	11.735	6.	0.	-2792.5
30451	11.551	6.	0.	-2863.8
30452	11.366	6.	0.	-2931.3
30453	11.181	6.	0.	-2995.6
30454	10.996	6.	0.	-3057.5
30455	10.811	6.	0.	-3117.4
30456	10.627	6.	0.	-3176.
30457	10.442	6.	0.	-3233.4
30458	10.257	6.	0.	-3289.9
30459	10.072	6.	0.	-3345.9
30460	9.8873	6.	0.	-3401.4
30461	9.7025	6.	0.	-3456.7
30462	9.5177	6.	0.	-3511.8
30463	9.3329	6.	0.	-3566.8
30464	9.1481	6.	0.	-3621.8
30465	8.9633	6.	0.	-3676.9
30466	8.7785	6.	0.	-3732.1
30467	8.5937	6.	0.	-3787.5
30468	8.4089	6.	0.	-3843.1
30469	8.2241	6.	0.	-3898.9
30470	8.0392	6.	0.	-3955.
30471	7.8544	6.	0.	-4011.4
30472	7.6696	6.	0.	-4068.1
30473	7.4848	6.	0.	-4125.1
30474	7.3	6.	0.	-4182.4
30475	7.1152	6.	0.	-4240.2
30476	6.9304	6.	0.	-4298.3
30477	6.7456	6.	0.	-4356.9
30478	6.5608	6.	0.	-4415.9
30479	6.3759	6.	0.	-4475.3
30480	6.1911	6.	0.	-4535.3
30481	6.0063	6.	0.	-4595.7
30482	5.8215	6.	0.	-4656.7
30483	5.6367	6.	0.	-4718.2
30484	5.4519	6.	0.	-4780.2
30485	5.2671	6.	0.	-4842.8
30486	5.0823	6.	0.	-4906.1
30487	4.8975	6.	0.	-4969.9
30488	4.7127	6.	0.	-5034.2
30489	4.5278	6.	0.	-5099.2
30490	4.343	6.	0.	-5164.7
30491	4.1582	6.	0.	-5230.8
30492	3.9734	6.	0.	-5297.2
30493	3.7886	6.	0.	-5364.
30494	3.6038	6.	0.	-5431.
30495	3.419	6.	0.	-5498.
30496	3.2342	6.	0.	-5564.7
30497	3.0494	6.	0.	-5630.8
30498	2.8646	6.	0.	-5695.8
30499	2.6797	6.	0.	-5759.1
30500	2.4949	6.	0.	-5819.7
30501	2.3101	6.	0.	-5876.6
30502	2.1253	6.	0.	-5928.1
30503	1.9405	6.	0.	-5972.3
30504	1.7557	6.	0.	-6006.1
30505	1.5709	6.	0.	-6025.5
30506	1.3861	6.	0.	-6024.5
30507	1.2013	6.	0.	-5994.2
30508	1.0165	6.	0.	-5920.5
30509	0.83165	6.	0.	-5779.9
30510	0.64684	6.	0.	-5527.3
30511	0.46203	6.	0.	-5076.3
30512	0.27722	6.	0.	-4170.
30513	9.2405e-002	6.	0.	-1954.
30514	14.6	5.9091	0.	-115.33
30515	5.1657e-014	5.9091	0.	-1439.5
30516	0.27722	-2.3035e-032	0.	-4170.
30517	9.2405e-002	-7.6784e-033	0.	-1954.
30518	0.46203	-3.8392e-032	0.	-5076.3
30519	0.64684	-5.3749e-032	0.	-5527.3
30520	0.83165	-6.9105e-032	0.	-5779.9
30521	1.0165	-8.4462e-032	0.	-5920.5
30522	1.2013	-9.9819e-032	0.	-5994.2
30523	1.3861	-1.1518e-031	0.	-6024.5
30524	1.5709	-1.3053e-031	0.	-6025.5
30525	1.7557	-1.4589e-031	0.	-6006.1
30526	1.9405	-1.6125e-031	0.	-5972.3
30527	2.1253	-1.766e-031	0.	-5928.1
30528	2.3101	-1.9196e-031	0.	-5876.6
30529	2.4949	-2.0732e-031	0.	-5819.7
30530	2.6797	-2.2267e-031	0.	-5759.1
30531	2.8646	-2.3803e-031	0.	-5695.8
30532	3.0494	-2.5339e-031	0.	-5630.8
30533	3.2342	-2.6874e-031	0.	-5564.7
30534	3.419	-2.841e-031	0.	-5498.
30535	3.6038	-2.9946e-031	0.	-5431.
30536	3.7886	-3.1481e-031	0.	-5364.
30537	3.9734	-3.3017e-031	0.	-5297.2
30538	4.1582	-3.4553e-031	0.	-5230.8
30539	4.343	-3.6088e-031	0.	-5164.7
30540	4.5278	-3.7624e-031	0.	-5099.2
30541	4.7127	-3.916e-031	0.	-5034.2
30542	4.8975	-4.0695e-031	0.	-4969.9
30543	5.0823	-4.2231e-031	0.	-4906.
30544	5.2671	-4.3767e-031	0.	-4842.8
30545	5.4519	-4.5302e-031	0.	-4780.2
30546	5.6367	-4.6838e-031	0.	-4718.2
30547	5.8215	-4.8374e-031	0.	-4656.7
30548	6.0063	-4.9909e-031	0.	-4595.7
30549	6.1911	-5.1445e-031	0.	-4535.3
30550	6.3759	-5.2981e-031	0.	-4475.3
30551	6.5608	-5.4517e-031	0.	-4415.9
30552	6.7456	-5.6052e-031	0.	-4356.9
30553	6.9304	-5.7588e-031	0.	-4298.3
30554	7.1152	-5.9124e-031	0.	-4240.2
30555	7.3	-6.0659e-031	0.	-4182.4
30556	7.4848	-6.2195e-031	0.	-4125.1
30557	7.6696	-6.3731e-031	0.	-4068.1
30558	7.8544	-6.5266e-031	0.	-4011.4
30559	8.0392	-6.6802e-031	0.	-3955.
30560	8.2241	-6.8338e-031	0.	-3898.9
30561	8.4089	-6.9873e-031	0.	-3843.1
30562	8.5937	-7.1409e-031	0.	-3787.5
30563	8.7785	-7.2945e-031	0.	-3732.1
30564	8.9633	-7.448e-031	0.	-3676.9
30565	9.1481	-7.6016e-031	0.	-3621.8
30566	9.3329	-7.7552e-031	0.	-3566.8
30567	9.5177	-7.9087e-031	0.	-3511.8
30568	9.7025	-8.0623e-031	0.	-3456.7
30569	9.8873	-8.2159e-031	0.	-3401.4
30570	10.072	-8.3694e-031	0.	-3345.9
30571	10.257	-8.523e-031	0.	-3289.9
30572	10.442	-8.6766e-031	0.	-3233.4
30573	10.627	-8.8301e-031	0.	-3176.
30574	10.811	-8.9837e-031	0.	-3117.4
30575	10.996	-9.1373e-031	0.	-3057.5
30576	11.181	-9.2908e-031	0.	-2995.6
30577	11.366	-9.4444e-031	0.	-2931.3
30578	11.551	-9.598e-031	0.	-2863.8
30579	11.735	-9.7515e-031	0.	-2792.5
30580	11.92	-9.9051e-031	0.	-2716.1
30581	12.105	-1.0059e-030	0.	-2633.6
30582	12.29	-1.0212e-030	0.	-2543.5
30583	12.475	-1.0366e-030	0.	-2443.9
30584	12.659	-1.0519e-030	0.	-2332.9
30585	12.844	-1.0673e-030	0.	-2208.
30586	13.029	-1.0827e-030	0.	-2066.9
30587	13.214	-1.098e-030	0.	-1906.8
30588	13.399	-1.1134e-030	0.	-1725.3
30589	13.584	-1.1287e-030	0.	-1520.4
30590	13.768	-1.1441e-030	0.	-1291.1
30591	13.953	-1.1594e-030	0.	-1037.6
30592	14.138	-1.1748e-030	0.	-761.36
30593	14.323	-1.1901e-030	0.	-462.43
30594	14.508	-1.2055e-030	0.	-164.01
30595	14.6	9.0909e-002	0.	-115.33
30596	7.9472e-016	9.0909e-002	0.	-1439.5
30597	15.044	0.	0.	-364.53
30598	14.859	0.	0.	-132.61
30599	15.228	0.	0.	-582.33
30600	15.413	0.	0.	-770.69
30601	15.598	0.	0.	-931.05
30602	15.782	0.	0.	-1063.6
30603	15.967	0.	0.	-1169.3
30604	16.152	0.	0.	-1250.4
30605	16.336	0.	0.	-1309.5
30606	16.521	0.	0.	-1349.5
30607	16.706	0.	0.	-1373.4
30608	16.89	0.	0.	-1383.9
30609	17.075	0.	0.	-1383.4
30610	17.26	0.	0.	-1373.9
30611	17.444	0.	0.	-1357.2
30612	17.629	0.	0.	-1334.8
30613	17.814	0.	0.	-1307.7
30614	17.998	0.	0.	-1277.1
30615	18.183	0.	0.	-1243.7
30616	18.368	0.	0.	-1208.1
30617	18.552	0.	0.	-1170.8
30618	18.737	0.	0.	-1132.3
30619	18.922	0.	0.	-1092.8
30620	19.106	0.	0.	-1052.6
30621	19.291	0.	0.	-1011.9
30622	19.476	0.	0.	-970.82
30623	19.66	0.	0.	-929.54
30624	19.845	0.	0.	-888.14
30625	20.03	0.	0.	-846.68
30626	20.214	0.	0.	-805.22
30627	20.399	0.	0.	-763.8
30628	20.584	0.	0.	-722.46
30629	20.768	0.	0.	-681.22
30630	20.953	0.	0.	-640.1
30631	21.138	0.	0.	-599.11
30632	21.322	0.	0.	-558.27
30633	21.507	0.	0.	-517.59
30634	21.692	0.	0.	-477.07
30635	21.876	0.	0.	-436.72
30636	22.061	0.	0.	-396.57
30637	22.246	0.	0.	-356.61
30638	22.43	0.	0.	-316.87
30639	22.615	0.	0.	-277.39
30640	22.8	0.	0.	-238.19
30641	22.984	0.	0.	-199.35
30642	23.169	0.	0.	-160.96
30643	23.354	0.	0.	-123.17
30644	23.538	0.	0.	-86.275
30645	23.723	0.	0.	-50.907
30646	23.908	0.	0.	-18.961
30647	14.767	9.0909e-002	0.	-103.49
30648	24.	9.0909e-002	0.	-5.9853
30649	5.0067e-014	5.7273	0.	-3543.7
30650	4.8478e-014	5.5455	0.	-5163.1
30651	4.6888e-014	5.3636	0.	-6011.7
30652	4.5299e-014	5.1818	0.	-6550.3
30653	4.371e-014	5.	0.	-6919.8
30654	4.212e-014	4.8182	0.	-7187.7
30655	4.0531e-014	4.6364	0.	-7388.1
30656	3.8941e-014	4.4545	0.	-7541.1
30657	3.7352e-014	4.2727	0.	-7659.3
30658	3.5762e-014	4.0909	0.	-7751.
30659	3.4173e-014	3.9091	0.	-7821.7
30660	3.2583e-014	3.7273	0.	-7875.4
30661	3.0994e-014	3.5455	0.	-7914.7
30662	2.9405e-014	3.3636	0.	-7941.6
30663	2.7815e-014	3.1818	0.	-7957.3
30664	2.6226e-014	3.	0.	-7962.5
30665	2.4636e-014	2.8182	0.	-7957.3
30666	2.3047e-014	2.6364	0.	-7941.6
30667	2.1457e-014	2.4545	0.	-7914.7
30668	1.9868e-014	2.2727	0.	-7875.4
30669	1.8279e-014	2.0909	0.	-7821.7
30670	1.6689e-014	1.9091	0.	-7751.
30671	1.51e-014	1.7273	0.	-7659.3
30672	1.351e-014	1.5455	0.	-7541.1
30673	1.1921e-014	1.3636	0.	-7388.1
30674	1.0331e-014	1.1818	0.	-7187.7
30675	8.7419e-015	1.	0.	-6919.8
30676	7.1525e-015	0.81818	0.	-6550.3
30677	5.563e-015	0.63636	0.	-6011.7
30678	3.9736e-015	0.45455	0.	-5163.1
30679	2.3842e-015	0.27273	0.	-3543.7
30680	24.	0.27273	0.	-6.9076
30681	24.	0.45455	0.	-7.1219
30682	24.	0.63636	0.	-7.1838
30683	24.	0.81818	0.	-7.1847
30684	24.	1.	0.	-7.1529
30685	24.	1.1818	0.	-7.1109
30686	24.	1.3636	0.	-7.0653
30687	24.	1.5455	0.	-7.0208
30688	24.	1.7273	0.	-6.9794
30689	24.	1.9091	0.	-6.9426
30690	24.	2.0909	0.	-6.9109
30691	24.	2.2727	0.	-6.8847
30692	24.	2.4545	0.	-6.8643
30693	24.	2.6364	0.	-6.8497
30694	24.	2.8182	0.	-6.8409
30695	24.	3.	0.	-6.8379
30696	24.	3.1818	0.	-6.8409
30697	24.	3.3636	0.	-6.8497
30698	24.	3.5455	0.	-6.8643
30699	24.	3.7273	0.	-6.8847
30700	24.	3.9091	0.	-6.9109
30701	24.	4.0909	0.	-6.9426
30702	24.	4.2727	0.	-6.9794
30703	24.	4.4545	0.	-7.0208
30704	24.	4.6364	0.	-7.0653
30705	24.	4.8182	0.	-7.1109
30706	24.	5.	0.	-7.1529
30707	24.	5.1818	0.	-7.1846
30708	24.	5.3636	0.	-7.1838
30709	24.	5.5455	0.	-7.1219
30710	24.	5.7273	0.	-6.9076
30711	24.	5.9091	0.	-5.9853
30712	23.908	6.	0.	-18.961
30713	23.723	6.	0.	-50.907
30714	23.538	6.	0.	-86.275
30715	23.354	6.	0.	-123.17
30716	23.169	6.	0.	-160.96
30717	22.984	6.	0.	-199.35
30718	22.8	6.	0.	-238.19
30719	22.615	6.	0.	-277.39
30720	22.43	6.	0.	-316.87
30721	22.246	6.	0.	-356.61
30722	22.061	6.	0.	-396.57
30723	21.876	6.	0.	-436.72
30724	21.692	6.	0.	-477.07
30725	21.507	6.	0.	-517.59
30726	21.322	6.	0.	-558.27
30727	21.138	6.	0.	-599.11
30728	20.953	6.	0.	-640.1
30729	20.768	6.	0.	-681.22
30730	20.584	6.	0.	-722.46
30731	20.399	6.	0.	-763.8
30732	20.214	6.	0.	-805.22
30733	20.03	6.	0.	-846.68
30734	19.845	6.	0.	-888.14
30735	19.66	6.	0.	-929.54
30736	19.476	6.	0.	-970.82
30737	19.291	6.	0.	-1011.9
30738	19.106	6.	0.	-1052.6
30739	18.922	6.	0.	-1092.8
30740	18.737	6.	0.	-1132.3
30741	18.552	6.	0.	-1170.8
30742	18.368	6.	0.	-1208.1
30743	18.183	6.	0.	-1243.7
30744	17.998	6.	0.	-1277.1
30745	17.814	6.	0.	-1307.7
30746	17.629	6.	0.	-1334.8
30747	17.444	6.	0.	-1357.2
30748	17.26	6.	0.	-1373.9
30749	17.075	6.	0.	-1383.4
30750	16.89	6.	0.	-1383.9
30751	16.706	6.	0.	-1373.4
30752	16.521	6.	0.	-1349.5
30753	16.336	6.	0.	-1309.5
30754	16.152	6.	0.	-1250.4
30755	15.967	6.	0.	-1169.3
30756	15.782	6.	0.	-1063.6
30757	15.598	6.	0.	-931.05
30758	15.413	6.	0.	-770.69
30759	15.228	6.	0.	-582.33
30760	15.044	6.	0.	-364.53
30761	14.859	6.	0.	-132.61
30762	14.767	5.9091	0.	-103.49
30763	14.6	1.7273	0.	-2061.5
30764	14.6	1.9091	0.	-5840.1
30765	14.6	1.5455	0.	-1485.9
30766	14.6	1.3636	0.	-1198.7
30767	14.6	1.1818	0.	-987.39
30768	14.6	1.	0.	-822.78
30769	14.6	0.81818	0.	-681.76
30770	14.6	0.63636	0.	-552.7
30771	14.6	0.45455	0.	-425.75
30772	14.6	0.27273	0.	-286.5
30773	14.683	2.	0.	-9583.9
30774	14.767	0.27273	0.	-264.57
30775	14.767	0.45455	0.	-403.34
30776	14.767	0.63636	0.	-535.35
30777	14.767	0.81818	0.	-674.64
30778	14.767	1.	0.	-832.13
30779	14.767	1.1818	0.	-1021.7
30780	14.767	1.3636	0.	-1270.
30781	14.767	1.5455	0.	-1611.5
30782	14.767	1.7273	0.	-2278.1
30783	14.767	1.9091	0.	-6176.8
30784	14.6	4.2727	0.	-2061.5
30785	14.6	4.0909	0.	-5840.1
30786	14.6	4.4545	0.	-1485.9
30787	14.6	4.6364	0.	-1198.7
30788	14.6	4.8182	0.	-987.39
30789	14.6	5.	0.	-822.78
30790	14.6	5.1818	0.	-681.76
30791	14.6	5.3636	0.	-552.7
30792	14.6	5.5455	0.	-425.75
30793	14.6	5.7273	0.	-286.5
30794	14.683	4.	0.	-9583.9
30795	14.767	5.7273	0.	-264.57
30796	14.767	5.5455	0.	-403.34
30797	14.767	5.3636	0.	-535.35
30798	14.767	5.1818	0.	-674.64
30799	14.767	5.	0.	-832.13
30800	14.767	4.8182	0.	-1021.7
30801	14.767	4.6364	0.	-1270.
30802	14.767	4.4545	0.	-1611.5
30803	14.767	4.2727	0.	-2278.1
30804	14.767	4.0909	0.	-6176.8
