Node Number	X Location (in)	Y Location (in)	Z Location (in)	Maximum Principal Stress (psi)
1	5.6609	2.5065	0.	232.91
2	5.4148	1.7984	0.	-131.64
3	3.3222	3.579	0.	1212.4
4	5.425	4.1737	0.	-114.89
5	3.1444	2.4526	0.	-95.178
6	2.7621	0.82643	0.	278.23
7	4.8441	0.49274	0.	289.44
8	3.1181	4.6443	0.	244.31
9	2.8549	5.2072	0.	348.79
10	4.5995	5.0813	0.	427.52
11	4.8364	2.6363	0.	597.33
12	1.0269	4.7318	0.	1015.8
13	0.91955	1.1499	0.	1005.1
14	4.9167	1.2716	0.	273.67
15	5.0207	4.7058	0.	257.84
16	1.8377	1.0405	0.	-243.34
17	2.0549	4.5589	0.	-203.39
18	5.807	0.7237	0.	88.1
19	4.8086	5.476	0.	316.92
20	0.94869	2.3119	0.	938.57
21	1.0014	3.5016	0.	983.24
22	1.997	3.224	0.	-200.52
23	6.6903	1.2309	0.	149.05
24	8.0941	1.2155	0.	-40.217
25	9.3258	1.2046	0.	-14.035
26	10.526	1.1953	0.	2.4711
27	11.679	1.1854	0.	1.5181
28	12.816	1.1747	0.	1.1334
29	13.954	1.1731	0.	5.6604
30	15.064	1.1722	0.	11.081
31	16.186	1.1724	0.	14.797
32	17.295	1.1745	0.	19.049
33	18.41	1.1785	0.	24.017
34	19.521	1.1846	0.	31.184
35	20.636	1.1888	0.	41.531
36	21.755	1.1886	0.	57.262
37	22.879	1.195	0.	84.901
38	22.867	2.3931	0.	124.65
39	22.869	3.6016	0.	124.88
40	22.876	4.7968	0.	85.49
41	21.753	4.7927	0.	57.914
42	20.629	4.7911	0.	42.624
43	19.513	4.7414	0.	33.535
44	18.4	4.7015	0.	25.455
45	17.29	4.6814	0.	19.492
46	16.181	4.6744	0.	14.584
47	15.071	4.6745	0.	10.208
48	13.96	4.6761	0.	4.1961
49	12.837	4.7174	0.	0.42663
50	11.696	4.7557	0.	1.2473
51	10.544	4.7524	0.	2.7138
52	9.3514	4.7589	0.	-6.7378
53	8.1101	4.7673	0.	-40.114
54	6.6947	4.7217	0.	184.03
55	5.817	5.26	0.	60.442
56	6.6972	2.4107	0.	-99.686
57	7.9846	2.3906	0.	24.518
58	9.245	2.379	0.	12.935
59	10.465	2.3762	0.	-1.5058e-002
60	11.649	2.3552	0.	-1.7042
61	12.805	2.3523	0.	0.12094
62	13.948	2.3515	0.	1.3975
63	15.061	2.3514	0.	8.01
64	16.182	2.353	0.	13.79
65	17.293	2.3571	0.	19.768
66	18.408	2.363	0.	27.247
67	19.52	2.37	0.	38.235
68	20.634	2.3776	0.	55.309
69	21.749	2.387	0.	82.298
70	21.748	3.5906	0.	83.014
71	20.634	3.5794	0.	55.458
72	19.522	3.5574	0.	37.552
73	18.401	3.533	0.	27.116
74	17.291	3.5204	0.	19.598
75	16.178	3.5135	0.	13.888
76	15.064	3.511	0.	7.5201
77	13.947	3.5128	0.	1.748
78	12.82	3.5136	0.	-0.22615
79	11.654	3.5497	0.	-0.79203
80	10.474	3.5525	0.	2.5314
81	9.256	3.5657	0.	-2.5179
82	7.9954	3.5775	0.	22.554
83	6.784	3.5611	0.	-61.294
84	2.8024	1.6948	0.	121.71
85	3.4044	4.26	0.	1837.7
86	4.6212	0.91405	0.	530.3
87	4.1249	2.6685	0.	3898.
88	4.5594	3.3904	0.	492.91
89	5.6633	3.4484	0.	59.28
90	3.4388	2.62	0.	914.47
91	1.9078	2.0963	0.	-253.13
92	3.9501	3.1271	0.	638.38
93	2.9007	3.8295	0.	604.95
94	2.9007	3.8295	0.1	6629.
95	3.9501	3.1271	0.1	10720
96	1.9078	2.0963	0.1	6496.9
97	3.4388	2.62	0.1	9108.8
98	5.6633	3.4484	0.1	5658.7
99	4.5594	3.3904	0.1	6978.4
100	4.1249	2.6685	0.1	7481.2
101	4.6212	0.91405	0.1	3251.8
102	3.4044	4.26	0.1	9102.
103	2.8024	1.6948	0.1	6450.
104	6.784	3.5611	0.1	4449.8
105	7.9954	3.5775	0.1	3976.3
106	9.256	3.5657	0.1	3574.6
107	10.474	3.5525	0.1	3236.5
108	11.654	3.5497	0.1	2910.1
109	12.82	3.5136	0.1	2599.1
110	13.947	3.5128	0.1	2305.7
111	15.064	3.511	0.1	2021.5
112	16.178	3.5135	0.1	1744.8
113	17.291	3.5204	0.1	1475.7
114	18.401	3.533	0.1	1214.7
115	19.522	3.5574	0.1	958.9
116	20.634	3.5794	0.1	713.32
117	21.748	3.5906	0.1	474.59
118	21.749	2.387	0.1	474.05
119	20.634	2.3776	0.1	713.18
120	19.52	2.37	0.1	959.76
121	18.408	2.363	0.1	1213.2
122	17.293	2.3571	0.1	1475.5
123	16.182	2.353	0.1	1744.
124	15.061	2.3514	0.1	2022.5
125	13.948	2.3515	0.1	2305.7
126	12.805	2.3523	0.1	2605.3
127	11.649	2.3552	0.1	2913.4
128	10.465	2.3762	0.1	3240.
129	9.245	2.379	0.1	3569.5
130	7.9846	2.3906	0.1	3952.8
131	6.6972	2.4107	0.1	4578.7
132	5.817	5.26	0.1	4303.5
133	6.6947	4.7217	0.1	4058.1
134	8.1101	4.7673	0.1	3980.3
135	9.3514	4.7589	0.1	3553.1
136	10.544	4.7524	0.1	3220.3
137	11.696	4.7557	0.1	2905.5
138	12.837	4.7174	0.1	2600.3
139	13.96	4.6761	0.1	2306.8
140	15.071	4.6745	0.1	2023.2
141	16.181	4.6744	0.1	1747.4
142	17.29	4.6814	0.1	1478.9
143	18.4	4.7015	0.1	1217.7
144	19.513	4.7414	0.1	962.75
145	20.629	4.7911	0.1	713.46
146	21.753	4.7927	0.1	469.47
147	22.876	4.7968	0.1	234.26
148	22.869	3.6016	0.1	239.81
149	22.867	2.3931	0.1	240.24
150	22.879	1.195	0.1	233.18
151	21.755	1.1886	0.1	469.12
152	20.636	1.1888	0.1	712.32
153	19.521	1.1846	0.1	961.18
154	18.41	1.1785	0.1	1215.9
155	17.295	1.1745	0.1	1478.7
156	16.186	1.1724	0.1	1747.1
157	15.064	1.1722	0.1	2026.1
158	13.954	1.1731	0.1	2309.
159	12.816	1.1747	0.1	2606.
160	11.679	1.1854	0.1	2909.9
161	10.526	1.1953	0.1	3226.7
162	9.3258	1.2046	0.1	3571.9
163	8.0941	1.2155	0.1	4001.1
164	6.6903	1.2309	0.1	4126.1
165	1.997	3.224	0.1	6136.5
166	1.0014	3.5016	0.1	6638.4
167	0.94869	2.3119	0.1	6580.3
168	4.8086	5.476	0.1	3291.5
169	5.807	0.7237	0.1	3920.5
170	2.0549	4.5589	0.1	5668.3
171	1.8377	1.0405	0.1	5636.9
172	5.0207	4.7058	0.1	5675.
173	4.9167	1.2716	0.1	6215.1
174	0.91955	1.1499	0.1	5777.9
175	1.0269	4.7318	0.1	5867.1
176	4.8364	2.6363	0.1	6767.1
177	4.5995	5.0813	0.1	3540.8
178	2.8549	5.2072	0.1	4524.5
179	3.1181	4.6443	0.1	5946.3
180	4.8441	0.49274	0.1	3656.3
181	2.7621	0.82643	0.1	4705.3
182	3.1444	2.4526	0.1	9807.2
183	5.425	4.1737	0.1	4849.1
184	3.3222	3.579	0.1	8848.9
185	5.4148	1.7984	0.1	5057.8
186	5.6609	2.5065	0.1	5000.6
187	3.9467	4.	0.	2025.2
188	3.9467	4.5	0.	3628.8
189	3.9467	5.	0.	2602.
190	3.9467	5.5	0.	357.68
191	3.78	4.	0.	-19.584
192	3.78	5.5	0.	906.96
193	3.78	5.	0.	1122.3
194	3.78	4.5	0.	8114.4
195	3.9467	2.	0.	2518.2
196	3.9467	1.5	0.	4659.8
197	3.9467	1.	0.	1428.1
198	3.9467	0.5	0.	645.09
199	3.78	2.	0.	-933.96
200	3.78	0.5	0.	1004.
201	3.78	1.	0.	2230.1
202	3.78	1.5	0.	4772.
203	3.9467	6.	0.	146.17
204	5.0607	6.	0.	48.523
205	6.1748	6.	0.	99.494
206	7.2889	6.	0.	-121.1
207	8.403	6.	0.	108.99
208	9.517	6.	0.	4.4159e-002
209	10.631	6.	0.	16.678
210	11.745	6.	0.	7.6009
211	12.859	6.	0.	8.9888
212	13.973	6.	0.	9.7907
213	15.087	6.	0.	11.208
214	16.201	6.	0.	11.273
215	17.316	6.	0.	11.799
216	18.43	6.	0.	12.759
217	19.544	6.	0.	14.326
218	20.658	6.	0.	14.88
219	21.772	6.	0.	14.201
220	22.886	6.	0.	14.529
221	24.	6.	0.	22.192
222	24.	4.8	0.	144.41
223	24.	3.6	0.	184.48
224	24.	2.4	0.	184.52
225	24.	1.2	0.	144.33
226	0.	1.2	0.	-3698.5
227	0.	2.4	0.	-3629.9
228	0.	3.6	0.	-3819.4
229	0.	4.8	0.	-3670.3
230	24.	0.	0.	22.109
231	3.9467	0.	0.	185.19
232	22.886	0.	0.	14.54
233	21.772	0.	0.	15.126
234	20.658	0.	0.	15.567
235	19.544	0.	0.	14.455
236	18.43	0.	0.	13.106
237	17.316	0.	0.	11.882
238	16.201	0.	0.	10.857
239	15.087	0.	0.	9.8717
240	13.973	0.	0.	8.7121
241	12.859	0.	0.	7.5703
242	11.745	0.	0.	6.1892
243	10.631	0.	0.	15.24
244	9.517	0.	0.	14.289
245	8.403	0.	0.	81.031
246	7.2889	0.	0.	-68.666
247	6.1748	0.	0.	108.64
248	5.0607	0.	0.	60.779
249	0.	0.	0.	-799.17
250	3.78	0.	0.	124.08
251	2.835	0.	0.	235.1
252	1.89	0.	0.	227.86
253	0.945	0.	0.	406.95
254	0.	6.	0.	-868.04
255	3.78	6.	0.	244.19
256	0.945	6.	0.	384.95
257	1.89	6.	0.	-108.75
258	2.835	6.	0.	117.31
259	3.9467	4.	0.1	15252
260	3.9467	4.5	0.1	3225.2
261	3.9467	5.	0.1	2642.3
262	3.9467	5.5	0.1	1051.7
263	3.78	5.5	0.1	2031.
264	3.78	5.	0.1	3408.6
265	3.78	4.5	0.1	2828.3
266	3.78	4.	0.1	22481
267	3.9467	2.	0.1	13634
268	3.9467	1.5	0.1	2332.2
269	3.9467	1.	0.1	2481.2
270	3.9467	0.5	0.1	987.55
271	3.78	0.5	0.1	1949.7
272	3.78	1.	0.1	3984.7
273	3.78	1.5	0.1	7131.
274	3.78	2.	0.1	25698
275	3.9467	6.	0.1	665.5
276	5.0607	6.	0.1	3158.2
277	6.1748	6.	0.1	4339.1
278	7.2889	6.	0.1	4132.3
279	8.403	6.	0.1	3752.7
280	9.517	6.	0.1	3533.
281	10.631	6.	0.1	3210.5
282	11.745	6.	0.1	2904.3
283	12.859	6.	0.1	2600.8
284	13.973	6.	0.1	2307.7
285	15.087	6.	0.1	2023.1
286	16.201	6.	0.1	1745.8
287	17.316	6.	0.1	1475.9
288	18.43	6.	0.1	1212.7
289	19.544	6.	0.1	955.78
290	20.658	6.	0.1	705.32
291	21.772	6.	0.1	459.
292	22.886	6.	0.1	215.42
293	24.	6.	0.1	12.738
294	24.	4.8	0.1	3.5818
295	24.	3.6	0.1	3.1378
296	24.	2.4	0.1	2.782
297	24.	1.2	0.1	3.0931
298	0.	1.2	0.1	7526.
299	0.	2.4	0.1	7533.7
300	0.	3.6	0.1	7785.
301	0.	4.8	0.1	7460.
302	24.	0.	0.1	13.129
303	22.886	0.	0.1	215.17
304	21.772	0.	0.1	458.5
305	20.658	0.	0.1	703.6
306	19.544	0.	0.1	954.09
307	18.43	0.	0.1	1211.1
308	17.316	0.	0.1	1474.4
309	16.201	0.	0.1	1745.1
310	15.087	0.	0.1	2022.4
311	13.973	0.	0.1	2308.6
312	12.859	0.	0.1	2602.7
313	11.745	0.	0.1	2906.2
314	10.631	0.	0.1	3211.9
315	9.517	0.	0.1	3524.5
316	8.403	0.	0.1	3746.2
317	7.2889	0.	0.1	4200.4
318	6.1748	0.	0.1	4278.1
319	5.0607	0.	0.1	3257.2
320	3.9467	0.	0.1	751.27
321	3.78	0.	0.1	355.36
322	2.835	0.	0.1	3614.2
323	1.89	0.	0.1	5472.3
324	0.945	0.	0.1	6138.7
325	0.	0.	0.1	2406.4
326	0.	6.	0.1	2465.7
327	0.945	6.	0.1	6158.9
328	1.89	6.	0.1	5632.7
329	2.835	6.	0.1	3502.1
330	3.78	6.	0.1	333.09
331	5.5379	2.1525	0.	14.771
332	5.2486	2.5714	0.	375.23
333	6.1791	2.4586	0.	62.45
334	5.6621	2.9775	0.	117.18
335	5.6609	2.5065	5.e-002	204.11
336	5.1657	1.535	0.	-64.235
337	6.0525	1.5147	0.	-5.7709
338	5.4148	1.7984	5.e-002	157.57
339	4.6807	1.8992	0.	645.81
340	3.3633	3.9195	0.	1364.3
341	3.3805	3.0995	0.	789.1
342	3.1114	3.7042	0.	907.6
343	3.3222	3.579	5.e-002	223.96
344	3.5511	3.7895	0.	461.7
345	5.2228	4.4397	0.	16.333
346	6.0599	4.4477	0.	25.968
347	5.5441	3.8111	0.	-36.015
348	5.425	4.1737	5.e-002	131.09
349	4.6858	4.0869	0.	643.2
350	2.5707	2.8383	0.	-155.11
351	2.9734	2.0737	0.	7.6635
352	3.2916	2.5363	0.	257.76
353	3.0225	3.141	0.	97.58
354	3.1444	2.4526	5.e-002	208.
355	3.4622	1.9763	0.	862.55
356	2.2999	0.93346	0.	-100.85
357	2.7823	1.2606	0.	133.48
358	2.7621	0.82643	5.e-002	51.479
359	3.2711	0.66322	0.	203.26
360	2.7986	0.41322	0.	244.26
361	5.3256	0.60822	0.	159.35
362	4.7326	0.7034	0.	351.72
363	4.8441	0.49274	5.e-002	72.53
364	4.3954	0.49637	0.	97.849
365	4.9524	0.24637	0.	171.45
366	2.9865	4.9257	0.	221.59
367	3.2613	4.4522	0.	989.92
368	3.0094	4.2369	0.	271.16
369	3.1181	4.6443	5.e-002	146.21
370	3.4491	4.8222	0.	442.42
371	2.4549	4.883	0.	-72.851
372	2.8549	5.2072	5.e-002	69.082
373	3.3175	5.3536	0.	256.
374	2.845	5.6036	0.	172.77
375	4.8101	4.8936	0.	280.94
376	4.704	5.2787	0.	351.56
377	4.5995	5.0813	5.e-002	180.53
378	4.2731	5.0407	0.	1136.3
379	4.4807	2.6524	0.	1646.5
380	4.6979	3.0134	0.	486.79
381	4.8364	2.6363	5.e-002	174.91
382	4.3915	2.3182	0.	569.07
383	1.5409	4.6453	0.	405.
384	1.0142	4.1167	0.	999.51
385	1.0269	4.7318	5.e-002	19.789
386	0.51347	4.7659	0.	-1333.3
387	0.98597	5.3659	0.	692.43
388	1.3786	1.0952	0.	380.68
389	0.93412	1.7309	0.	971.78
390	0.91955	1.1499	5.e-002	20.008
391	0.45977	1.175	0.	-1353.9
392	0.93227	0.57497	0.	702.54
393	5.3618	0.99763	0.	106.33
394	4.7689	1.0928	0.	326.52
395	4.9167	1.2716	5.e-002	246.18
396	4.4317	1.3858	0.	1664.4
397	5.4188	4.9829	0.	24.544
398	5.0207	4.7058	5.e-002	240.65
399	4.4837	4.6029	0.	1328.6
400	1.8728	1.5684	0.	-248.25
401	1.8377	1.0405	5.e-002	23.337
402	1.8638	0.52024	0.	-168.81
403	2.0259	3.8914	0.	-202.78
404	2.4778	4.1942	0.	61.222
405	2.0549	4.5589	5.e-002	68.597
406	1.9724	5.2794	0.	-284.01
407	6.2487	0.9773	0.	102.14
408	5.807	0.7237	5.e-002	72.037
409	5.9909	0.36185	0.	51.585
410	5.3128	5.368	0.	137.02
411	4.8086	5.476	5.e-002	81.979
412	4.3776	5.488	0.	108.58
413	4.9347	5.738	0.	159.59
414	0.97505	2.9067	0.	960.85
415	1.4283	2.2041	0.	342.43
416	0.94869	2.3119	5.e-002	30.613
417	0.47435	2.3559	0.	-1387.6
418	1.4992	3.3628	0.	391.3
419	1.0014	3.5016	5.e-002	7.0284
420	0.5007	3.5508	0.	-1429.8
421	1.9524	2.6601	0.	-227.44
422	1.997	3.224	5.e-002	18.451
423	7.3922	1.2232	0.	44.484
424	6.6937	1.8208	0.	18.079
425	6.6903	1.2309	5.e-002	30.189
426	6.9896	0.61545	0.	30.235
427	8.7099	1.2101	0.	-27.175
428	8.0394	1.803	0.	-8.0541
429	8.0941	1.2155	5.e-002	14.294
430	8.2485	0.60773	0.	-0.23929
431	9.9258	1.1999	0.	-5.8785
432	9.2854	1.7918	0.	-0.55445
433	9.3258	1.2046	5.e-002	1.4596
434	9.4214	0.60232	0.	-8.8314
435	11.103	1.1903	0.	1.9936
436	10.495	1.7857	0.	1.1622
437	10.526	1.1953	5.e-002	2.3274
438	10.578	0.59763	0.	1.0468
439	12.248	1.18	0.	1.2729
440	11.664	1.7703	0.	-0.15457
441	11.679	1.1854	5.e-002	1.5121
442	11.712	0.5927	0.	-0.10115
443	13.385	1.1739	0.	2.4586
444	12.81	1.7635	0.	0.45056
445	12.816	1.1747	5.e-002	1.3643
446	12.838	0.58735	0.	3.175
447	14.509	1.1727	0.	8.3411
448	13.951	1.7623	0.	2.5775
449	13.954	1.1731	5.e-002	1.2783
450	13.964	0.58656	0.	7.0547
451	15.625	1.1723	0.	12.914
452	15.062	1.7618	0.	8.923
453	15.064	1.1722	5.e-002	1.1993
454	15.076	0.58612	0.	10.342
455	16.741	1.1734	0.	16.896
456	16.184	1.7627	0.	13.615
457	16.186	1.1724	5.e-002	1.1183
458	16.194	0.5862	0.	12.674
459	17.853	1.1765	0.	21.503
460	17.294	1.7658	0.	18.668
461	17.295	1.1745	5.e-002	1.0906
462	17.305	0.58724	0.	15.275
463	18.966	1.1816	0.	27.568
464	18.409	1.7708	0.	24.827
465	18.41	1.1785	5.e-002	1.132
466	18.42	0.58926	0.	18.318
467	20.078	1.1867	0.	36.326
468	19.52	1.7773	0.	33.848
469	19.521	1.1846	5.e-002	1.2688
470	19.532	0.59232	0.	22.489
471	21.195	1.1887	0.	49.38
472	20.635	1.7832	0.	47.528
473	20.636	1.1888	5.e-002	1.3604
474	20.647	0.5944	0.	28.041
475	22.317	1.1918	0.	71.081
476	21.752	1.7878	0.	68.962
477	21.755	1.1886	5.e-002	1.6014
478	21.763	0.5943	0.	35.299
479	22.873	1.7941	0.	104.24
480	22.879	1.195	5.e-002	2.3327
481	23.44	1.1975	0.	114.38
482	22.882	0.59752	0.	48.133
483	22.868	2.9974	0.	124.46
484	22.308	2.3901	0.	103.47
485	22.867	2.3931	5.e-002	2.4144
486	23.434	2.3965	0.	154.58
487	22.873	4.1992	0.	104.66
488	22.308	3.5961	0.	103.95
489	22.869	3.6016	5.e-002	2.4383
490	23.435	3.6008	0.	154.67
491	22.315	4.7947	0.	71.701
492	22.876	4.7968	5.e-002	2.374
493	22.881	5.3984	0.	48.401
494	23.438	4.7984	0.	114.73
495	21.191	4.7919	0.	50.247
496	21.75	4.1916	0.	69.62
497	21.753	4.7927	5.e-002	1.6471
498	21.763	5.3963	0.	35.151
499	20.071	4.7662	0.	38.035
500	20.631	4.1852	0.	48.158
501	20.629	4.7911	5.e-002	1.2462
502	20.643	5.3955	0.	28.154
503	18.956	4.7214	0.	29.45
504	19.517	4.1494	0.	34.71
505	19.513	4.7414	5.e-002	1.5496
506	19.528	5.3707	0.	23.506
507	17.845	4.6915	0.	22.441
508	18.401	4.1173	0.	25.541
509	18.4	4.7015	5.e-002	1.7805
510	18.415	5.3507	0.	18.72
511	16.736	4.6779	0.	17.014
512	17.291	4.1009	0.	18.879
513	17.29	4.6814	5.e-002	1.837
514	17.303	5.3407	0.	15.282
515	15.626	4.6745	0.	12.375
516	16.18	4.094	0.	13.634
517	16.181	4.6744	5.e-002	1.9023
518	16.191	5.3372	0.	12.598
519	14.515	4.6753	0.	7.1746
520	15.068	4.0928	0.	8.3185
521	15.071	4.6745	5.e-002	2.0275
522	15.079	5.3373	0.	10.41
523	13.398	4.6968	0.	0.69956
524	13.953	4.0945	0.	2.4602
525	13.96	4.6761	5.e-002	2.0612
526	13.966	5.3381	0.	6.7112
527	12.266	4.7365	0.	0.80886
528	12.828	4.1155	0.	5.9967e-002
529	12.837	4.7174	5.e-002	1.9561
530	12.848	5.3587	0.	2.2327
531	11.12	4.754	0.	1.9804
532	11.675	4.1527	0.	0.22429
533	11.696	4.7557	5.e-002	1.7268
534	11.72	5.3778	0.	-0.44876
535	9.9475	4.7556	0.	-2.1038
536	10.509	4.1524	0.	2.6198
537	10.544	4.7524	5.e-002	2.2774
538	10.587	5.3762	0.	1.5296
539	8.7308	4.7631	0.	-23.511
540	9.3037	4.1623	0.	-4.6864
541	9.3514	4.7589	5.e-002	1.7126
542	9.4342	5.3794	0.	-9.1784
543	7.4024	4.7445	0.	66.879
544	8.0528	4.1724	0.	-8.8621
545	8.1101	4.7673	5.e-002	9.0096
546	8.2565	5.3837	0.	10.33
547	6.2559	4.9909	0.	97.765
548	6.7394	4.1414	0.	59.674
549	6.6947	4.7217	5.e-002	32.801
550	6.9918	5.3608	0.	26.217
551	5.817	5.26	5.e-002	118.58
552	5.9959	5.63	0.	54.264
553	7.3409	2.4006	0.	-39.536
554	6.7406	2.9859	0.	-99.483
555	6.6972	2.4107	5.e-002	67.119
556	8.6148	2.3848	0.	18.708
557	7.99	2.984	0.	23.352
558	7.9846	2.3906	5.e-002	8.8942
559	9.8547	2.3776	0.	6.4444
560	9.2505	2.9724	0.	5.2078
561	9.245	2.379	5.e-002	7.9121
562	11.057	2.3657	0.	-0.87675
563	10.469	2.9643	0.	1.2165
564	10.465	2.3762	5.e-002	2.9205
565	12.227	2.3537	0.	-0.81627
566	11.652	2.9524	0.	-1.2485
567	11.649	2.3552	5.e-002	2.2241
568	13.376	2.3519	0.	0.36994
569	12.812	2.933	0.	-7.447e-002
570	12.805	2.3523	5.e-002	1.9516
571	14.504	2.3515	0.	4.4105
572	13.947	2.9322	0.	1.1511
573	13.948	2.3515	5.e-002	1.6474
574	15.621	2.3522	0.	10.894
575	15.063	2.9312	0.	7.191
576	15.061	2.3514	5.e-002	1.3087
577	16.737	2.3551	0.	16.776
578	16.18	2.9333	0.	13.202
579	16.182	2.353	5.e-002	1.2791
580	17.851	2.3601	0.	23.504
581	17.292	2.9387	0.	18.988
582	17.293	2.3571	5.e-002	1.2326
583	18.964	2.3665	0.	32.738
584	18.405	2.948	0.	26.434
585	18.408	2.363	5.e-002	1.263
586	20.077	2.3738	0.	46.771
587	19.521	2.9637	0.	37.114
588	19.52	2.37	5.e-002	1.3926
589	21.192	2.3823	0.	68.803
590	20.634	2.9785	0.	54.63
591	20.634	2.3776	5.e-002	1.5425
592	21.748	2.9888	0.	82.077
593	21.749	2.387	5.e-002	2.0766
594	21.191	3.585	0.	69.236
595	21.748	3.5906	5.e-002	1.9313
596	20.078	3.5684	0.	46.5
597	20.634	3.5794	5.e-002	1.455
598	18.962	3.5452	0.	32.33
599	19.522	3.5574	5.e-002	1.2913
600	17.846	3.5267	0.	23.354
601	18.401	3.533	5.e-002	1.3582
602	16.734	3.5169	0.	16.74
603	17.291	3.5204	5.e-002	1.3299
604	15.621	3.5122	0.	10.699
605	16.178	3.5135	5.e-002	1.2913
606	14.506	3.5119	0.	4.5916
607	15.064	3.511	5.e-002	1.4266
608	13.383	3.5132	0.	4.1958e-003
609	13.947	3.5128	5.e-002	1.619
610	12.237	3.5316	0.	-0.50931
611	12.82	3.5136	5.e-002	1.4771
612	11.064	3.5511	0.	0.86943
613	11.654	3.5497	5.e-002	1.7392
614	9.865	3.5591	0.	-1.0278e-002
615	10.474	3.5525	5.e-002	3.7085
616	8.6257	3.5716	0.	9.9763
617	9.256	3.5657	5.e-002	6.0747
618	7.3897	3.5693	0.	-23.859
619	7.9954	3.5775	5.e-002	4.4017
620	6.2237	3.5048	0.	-7.6394
621	6.784	3.5611	5.e-002	88.263
622	2.3551	1.8955	0.	-76.003
623	2.8024	1.6948	5.e-002	72.887
624	3.2912	1.3474	0.	580.54
625	3.4044	4.26	5.e-002	697.11
626	3.5922	4.38	0.	4122.9
627	4.6212	0.91405	5.e-002	126.31
628	4.2839	0.95703	0.	814.84
629	4.0375	2.8978	0.	2090.9
630	4.1249	2.6685	5.e-002	276.72
631	3.9525	2.3343	0.	211.24
632	5.1113	3.4194	0.	231.13
633	4.2548	3.2588	0.	391.61
634	4.5594	3.3904	5.e-002	209.24
635	4.2531	3.6952	0.	909.02
636	5.6633	3.4484	5.e-002	202.59
637	3.6945	2.8735	0.	600.17
638	3.4388	2.62	5.e-002	358.83
639	3.6094	2.31	0.	-285.78
640	1.9078	2.0963	5.e-002	54.953
641	3.9501	3.1271	5.e-002	387.06
642	3.8651	3.5636	0.	-119.31
643	2.9007	3.8295	5.e-002	106.43
644	2.4778	4.1942	0.1	6148.2
645	3.0094	4.2369	0.1	6100.8
646	3.0225	3.141	0.1	8069.3
647	3.1114	3.7042	0.1	7738.
648	3.6945	2.8735	0.1	9884.1
649	4.2548	3.2588	0.1	8845.5
650	4.0375	2.8978	0.1	9021.1
651	3.8651	3.5636	0.1	16412
652	2.3551	1.8955	0.1	6437.9
653	1.9524	2.6601	0.1	6307.
654	1.4283	2.2041	0.1	6536.9
655	1.8728	1.5684	0.1	6060.3
656	3.2916	2.5363	0.1	9454.5
657	3.3805	3.0995	0.1	8773.3
658	3.6094	2.31	0.1	17386
659	5.1113	3.4194	0.1	6314.5
660	6.2237	3.5048	0.1	5052.6
661	5.5441	3.8111	0.1	5248.8
662	5.6621	2.9775	0.1	5325.9
663	4.6979	3.0134	0.1	6865.
664	4.2531	3.6952	0.1	10864
665	4.4807	2.6524	0.1	7078.7
666	3.9525	2.3343	0.1	16228
667	4.7689	1.0928	0.1	4668.2
668	4.7326	0.7034	0.1	3393.2
669	4.2839	0.95703	0.1	2703.3
670	3.2613	4.4522	0.1	7499.5
671	3.3633	3.9195	0.1	8799.1
672	3.5922	4.38	0.1	5021.9
673	2.7823	1.2606	0.1	5575.3
674	2.9734	2.0737	0.1	8096.2
675	3.2912	1.3474	0.1	4714.
676	7.3897	3.5693	0.1	4212.9
677	6.7406	2.9859	0.1	4513.2
678	6.7394	4.1414	0.1	4253.7
679	8.6257	3.5716	0.1	3775.4
680	7.99	2.984	0.1	3964.4
681	8.0528	4.1724	0.1	3978.2
682	9.865	3.5591	0.1	3405.5
683	9.2505	2.9724	0.1	3571.9
684	9.3037	4.1623	0.1	3563.6
685	11.064	3.5511	0.1	3073.3
686	10.469	2.9643	0.1	3238.
687	10.509	4.1524	0.1	3228.1
688	12.237	3.5316	0.1	2754.6
689	11.652	2.9524	0.1	2911.4
690	11.675	4.1527	0.1	2907.4
691	13.383	3.5132	0.1	2452.4
692	12.812	2.933	0.1	2601.8
693	12.828	4.1155	0.1	2599.3
694	14.506	3.5119	0.1	2163.6
695	13.947	2.9322	0.1	2305.2
696	13.953	4.0945	0.1	2305.7
697	15.621	3.5122	0.1	1883.1
698	15.063	2.9312	0.1	2021.4
699	15.068	4.0928	0.1	2021.8
700	16.734	3.5169	0.1	1610.2
701	16.18	2.9333	0.1	1743.8
702	16.18	4.094	0.1	1745.5
703	17.846	3.5267	0.1	1345.2
704	17.292	2.9387	0.1	1474.9
705	17.291	4.1009	0.1	1476.6
706	18.962	3.5452	0.1	1086.8
707	18.405	2.948	0.1	1213.2
708	18.401	4.1173	0.1	1215.5
709	20.078	3.5684	0.1	836.11
710	19.521	2.9637	0.1	958.55
711	19.517	4.1494	0.1	959.99
712	21.191	3.585	0.1	593.96
713	20.634	2.9785	0.1	712.5
714	20.631	4.1852	0.1	712.51
715	21.748	2.9888	0.1	473.74
716	21.75	4.1916	0.1	471.19
717	22.308	3.5961	0.1	357.2
718	21.192	2.3823	0.1	593.61
719	22.308	2.3901	0.1	357.14
720	21.752	1.7878	0.1	470.77
721	20.077	2.3738	0.1	836.47
722	20.635	1.7832	0.1	711.86
723	18.964	2.3665	0.1	1086.5
724	19.52	1.7773	0.1	959.61
725	17.851	2.3601	0.1	1344.3
726	18.409	1.7708	0.1	1213.7
727	16.737	2.3551	0.1	1609.8
728	17.294	1.7658	0.1	1476.4
729	15.621	2.3522	0.1	1883.3
730	16.184	1.7627	0.1	1744.9
731	14.504	2.3515	0.1	2164.1
732	15.062	1.7618	0.1	2023.7
733	13.376	2.3519	0.1	2455.5
734	13.951	1.7623	0.1	2306.8
735	12.227	2.3537	0.1	2759.4
736	12.81	1.7635	0.1	2605.3
737	11.057	2.3657	0.1	3076.7
738	11.664	1.7703	0.1	2911.3
739	9.8547	2.3776	0.1	3404.7
740	10.495	1.7857	0.1	3233.1
741	8.6148	2.3848	0.1	3761.1
742	9.2854	1.7918	0.1	3570.5
743	7.3409	2.4006	0.1	4265.6
744	8.0394	1.803	0.1	3976.8
745	6.6937	1.8208	0.1	4352.3
746	6.1791	2.4586	0.1	4787.6
747	6.2559	4.9909	0.1	4172.4
748	5.3128	5.368	0.1	3777.4
749	5.4188	4.9829	0.1	4972.1
750	5.9959	5.63	0.1	4293.4
751	7.4024	4.7445	0.1	4019.
752	6.0599	4.4477	0.1	4451.9
753	6.9918	5.3608	0.1	4089.
754	8.7308	4.7631	0.1	3766.7
755	8.2565	5.3837	0.1	3866.5
756	9.9475	4.7556	0.1	3386.7
757	9.4342	5.3794	0.1	3542.8
758	11.12	4.754	0.1	3062.9
759	10.587	5.3762	0.1	3215.2
760	12.266	4.7365	0.1	2752.9
761	11.72	5.3778	0.1	2904.7
762	13.398	4.6968	0.1	2453.6
763	12.848	5.3587	0.1	2600.3
764	14.515	4.6753	0.1	2165.
765	13.966	5.3381	0.1	2307.
766	15.626	4.6745	0.1	1885.3
767	15.079	5.3373	0.1	2022.8
768	16.736	4.6779	0.1	1613.1
769	16.191	5.3372	0.1	1746.3
770	17.845	4.6915	0.1	1348.2
771	17.303	5.3407	0.1	1477.
772	18.956	4.7214	0.1	1090.2
773	18.415	5.3507	0.1	1214.8
774	20.071	4.7662	0.1	838.06
775	19.528	5.3707	0.1	958.86
776	21.191	4.7919	0.1	591.44
777	20.643	5.3955	0.1	708.85
778	22.315	4.7947	0.1	351.86
779	21.763	5.3963	0.1	463.45
780	22.873	4.1992	0.1	236.51
781	22.881	5.3984	0.1	223.36
782	23.438	4.7984	0.1	117.37
783	22.868	2.9974	0.1	239.72
784	23.435	3.6008	0.1	120.3
785	22.873	1.7941	0.1	236.18
786	23.434	2.3965	0.1	120.29
787	22.317	1.1918	0.1	351.14
788	23.44	1.1975	0.1	116.46
789	22.882	0.59752	0.1	222.71
790	21.195	1.1887	0.1	590.7
791	21.763	0.5943	0.1	463.02
792	20.078	1.1867	0.1	836.72
793	20.647	0.5944	0.1	707.51
794	18.966	1.1816	0.1	1088.5
795	19.532	0.59232	0.1	957.33
796	17.853	1.1765	0.1	1347.3
797	18.42	0.58926	0.1	1213.2
798	16.741	1.1734	0.1	1612.9
799	17.305	0.58724	0.1	1476.4
800	15.625	1.1723	0.1	1886.6
801	16.194	0.5862	0.1	1746.
802	14.509	1.1727	0.1	2167.5
803	15.076	0.58612	0.1	2024.1
804	13.385	1.1739	0.1	2457.5
805	13.964	0.58656	0.1	2308.7
806	12.248	1.18	0.1	2757.9
807	12.838	0.58735	0.1	2604.2
808	11.103	1.1903	0.1	3068.3
809	11.712	0.5927	0.1	2907.9
810	9.9258	1.1999	0.1	3399.2
811	10.578	0.59763	0.1	3219.1
812	8.7099	1.2101	0.1	3786.5
813	9.4214	0.60232	0.1	3548.
814	7.3922	1.2232	0.1	4063.5
815	8.2485	0.60773	0.1	3873.6
816	6.2487	0.9773	0.1	4015.
817	6.0525	1.5147	0.1	4589.8
818	6.9896	0.61545	0.1	4158.5
819	1.4992	3.3628	0.1	6387.4
820	2.0259	3.8914	0.1	5872.4
821	2.5707	2.8383	0.1	7949.9
822	0.97505	2.9067	0.1	6605.4
823	1.0142	4.1167	0.1	6242.4
824	0.5007	3.5508	0.1	7210.5
825	0.93412	1.7309	0.1	6171.9
826	0.47435	2.3559	0.1	7054.6
827	4.704	5.2787	0.1	3394.3
828	4.3776	5.488	0.1	1919.3
829	4.9347	5.738	0.1	3212.6
830	5.3618	0.99763	0.1	5047.4
831	5.3256	0.60822	0.1	3776.1
832	5.9909	0.36185	0.1	4051.
833	1.5409	4.6453	0.1	5763.5
834	2.4549	4.883	0.1	5081.9
835	1.9724	5.2794	0.1	5649.6
836	1.3786	1.0952	0.1	5705.9
837	2.2999	0.93346	0.1	5150.5
838	1.8638	0.52024	0.1	5554.
839	4.8101	4.8936	0.1	4570.9
840	5.2228	4.4397	0.1	5217.3
841	4.4837	4.6029	0.1	3944.1
842	5.1657	1.535	0.1	5558.
843	4.4317	1.3858	0.1	3553.7
844	0.45977	1.175	0.1	6639.
845	0.93227	0.57497	0.1	5955.9
846	0.51347	4.7659	0.1	6651.8
847	0.98597	5.3659	0.1	6010.3
848	5.2486	2.5714	0.1	5877.4
849	4.3915	2.3182	0.1	9756.3
850	4.2731	5.0407	0.1	2731.6
851	2.9865	4.9257	0.1	5167.
852	3.3175	5.3536	0.1	2909.5
853	2.845	5.6036	0.1	3985.
854	3.4491	4.8222	0.1	4485.7
855	4.3954	0.49637	0.1	1933.6
856	4.9524	0.24637	0.1	3453.3
857	3.2711	0.66322	0.1	2890.
858	2.7986	0.41322	0.1	4150.1
859	3.4622	1.9763	0.1	7689.4
860	4.6858	4.0869	0.1	9824.9
861	3.5511	3.7895	0.1	15655
862	5.5379	2.1525	0.1	5021.4
863	4.6807	1.8992	0.1	8987.1
864	3.9467	4.25	0.	2429.5
865	3.8633	4.	0.	-462.68
866	3.9467	4.	5.e-002	274.32
867	3.9467	4.75	0.	3053.7
868	3.9467	4.5	5.e-002	169.26
869	3.9467	5.25	0.	1411.9
870	3.9467	5.	5.e-002	628.16
871	3.9467	5.75	0.	68.868
872	3.9467	5.5	5.e-002	196.28
873	3.78	4.25	0.	2256.4
874	3.78	4.	5.e-002	742.92
875	3.78	5.25	0.	1013.2
876	3.78	5.75	0.	342.58
877	3.78	5.5	5.e-002	74.843
878	3.78	4.75	0.	4604.1
879	3.78	5.	5.e-002	236.72
880	3.78	4.5	5.e-002	1388.9
881	3.9467	1.75	0.	3101.9
882	3.8633	2.	0.	-790.44
883	3.9467	2.	5.e-002	124.76
884	3.9467	1.25	0.	3026.1
885	3.9467	1.5	5.e-002	233.81
886	3.9467	0.75	0.	974.28
887	3.9467	1.	5.e-002	513.7
888	3.9467	0.25	0.	104.94
889	3.9467	0.5	5.e-002	124.5
890	3.78	1.75	0.	273.94
891	3.78	2.	5.e-002	1036.6
892	3.78	0.75	0.	1585.1
893	3.78	0.25	0.	348.53
894	3.78	0.5	5.e-002	79.224
895	3.78	1.25	0.	3460.6
896	3.78	1.	5.e-002	223.15
897	3.78	1.5	5.e-002	738.17
898	4.5037	6.	0.	73.04
899	3.9467	6.	5.e-002	27.771
900	5.6178	6.	0.	11.576
901	5.0607	6.	5.e-002	50.744
902	6.7319	6.	0.	-49.927
903	6.1748	6.	5.e-002	56.095
904	7.8459	6.	0.	-30.82
905	7.2889	6.	5.e-002	65.309
906	8.96	6.	0.	53.189
907	8.403	6.	5.e-002	5.7106
908	10.074	6.	0.	8.2352
909	9.517	6.	5.e-002	10.313
910	11.188	6.	0.	12.095
911	10.631	6.	5.e-002	15.641
912	12.302	6.	0.	8.2605
913	11.745	6.	5.e-002	16.68
914	13.416	6.	0.	9.3569
915	12.859	6.	5.e-002	15.665
916	14.53	6.	0.	10.457
917	13.973	6.	5.e-002	14.802
918	15.644	6.	0.	11.199
919	15.087	6.	5.e-002	14.656
920	16.759	6.	0.	11.486
921	16.201	6.	5.e-002	14.452
922	17.873	6.	0.	12.217
923	17.316	6.	5.e-002	13.905
924	18.987	6.	0.	13.454
925	18.43	6.	5.e-002	13.373
926	20.101	6.	0.	14.444
927	19.544	6.	5.e-002	13.286
928	21.215	6.	0.	14.334
929	20.658	6.	5.e-002	13.019
930	22.329	6.	0.	14.003
931	21.772	6.	5.e-002	10.634
932	23.443	6.	0.	14.675
933	22.886	6.	5.e-002	7.8146
934	24.	5.4	0.	76.679
935	24.	6.	5.e-002	4.0522
936	24.	4.2	0.	164.42
937	24.	4.8	5.e-002	3.3263
938	24.	3.	0.	184.39
939	24.	3.6	5.e-002	3.0209
940	24.	1.8	0.	164.42
941	24.	2.4	5.e-002	2.9736
942	24.	0.6	0.	76.64
943	24.	1.2	5.e-002	3.2911
944	0.	1.8	0.	-3665.3
945	0.	0.6	0.	-2338.
946	0.	1.2	5.e-002	124.7
947	0.	3.	0.	-3756.5
948	0.	2.4	5.e-002	134.52
949	0.	4.2	0.	-3759.8
950	0.	3.6	5.e-002	80.188
951	0.	5.4	0.	-2341.6
952	0.	4.8	5.e-002	112.51
953	23.443	0.	0.	14.687
954	24.	0.	5.e-002	4.0922
955	4.5037	0.	0.	83.861
956	3.9467	0.	5.e-002	82.088
957	22.329	0.	0.	14.479
958	22.886	0.	5.e-002	7.8802
959	21.215	0.	0.	15.107
960	21.772	0.	5.e-002	10.657
961	20.101	0.	0.	14.866
962	20.658	0.	5.e-002	12.601
963	18.987	0.	0.	13.686
964	19.544	0.	5.e-002	13.686
965	17.873	0.	0.	12.426
966	18.43	0.	5.e-002	14.599
967	16.759	0.	0.	11.319
968	17.316	0.	5.e-002	15.294
969	15.644	0.	0.	10.325
970	16.201	0.	5.e-002	15.813
971	14.53	0.	0.	9.2571
972	15.087	0.	5.e-002	16.208
973	13.416	0.	0.	8.1116
974	13.973	0.	5.e-002	16.415
975	12.302	0.	0.	6.8113
976	12.859	0.	5.e-002	16.717
977	11.188	0.	0.	10.693
978	11.745	0.	5.e-002	16.872
979	10.074	0.	0.	14.706
980	10.631	0.	5.e-002	16.273
981	8.96	0.	0.	46.584
982	9.517	0.	5.e-002	7.3816
983	7.8459	0.	0.	-15.374
984	8.403	0.	5.e-002	6.8328
985	6.7319	0.	0.	-22.003
986	7.2889	0.	5.e-002	70.475
987	5.6178	0.	0.	4.9203
988	6.1748	0.	5.e-002	54.167
989	5.0607	0.	5.e-002	36.138
990	0.4725	0.	0.	-305.66
991	0.	0.	5.e-002	391.46
992	3.3075	0.	0.	87.338
993	3.78	0.	5.e-002	102.86
994	2.3625	0.	0.	229.33
995	2.835	0.	5.e-002	74.754
996	1.4175	0.	0.	152.95
997	1.89	0.	5.e-002	107.96
998	0.945	0.	5.e-002	53.093
999	0.4725	6.	0.	-312.9
1000	0.	6.	5.e-002	373.36
1001	3.3075	6.	0.	104.97
1002	3.78	6.	5.e-002	174.86
1003	1.4175	6.	0.	49.51
1004	0.945	6.	5.e-002	59.403
1005	2.3625	6.	0.	-14.426
1006	1.89	6.	5.e-002	91.589
1007	2.835	6.	5.e-002	98.411
1008	3.9467	4.25	0.1	8841.8
1009	3.8633	4.	0.1	17304
1010	3.9467	4.75	0.1	2883.8
1011	3.9467	5.25	0.1	1845.7
1012	3.9467	5.75	0.1	608.88
1013	3.78	5.25	0.1	2717.8
1014	3.78	5.75	0.1	930.56
1015	3.78	4.75	0.1	3067.6
1016	3.78	4.25	0.1	10590
1017	3.9467	1.75	0.1	7489.2
1018	3.8633	2.	0.1	17953
1019	3.9467	1.25	0.1	2395.1
1020	3.9467	0.75	0.1	1705.4
1021	3.9467	0.25	0.1	459.41
1022	3.78	0.75	0.1	2938.
1023	3.78	0.25	0.1	915.31
1024	3.78	1.25	0.1	5516.4
1025	3.78	1.75	0.1	15454
1026	4.5037	6.	0.1	1898.4
1027	5.6178	6.	0.1	3718.1
1028	6.7319	6.	0.1	4212.7
1029	7.8459	6.	0.1	3937.4
1030	8.96	6.	0.1	3642.3
1031	10.074	6.	0.1	3371.7
1032	11.188	6.	0.1	3057.4
1033	12.302	6.	0.1	2752.5
1034	13.416	6.	0.1	2454.2
1035	14.53	6.	0.1	2165.3
1036	15.644	6.	0.1	1884.4
1037	16.759	6.	0.1	1610.8
1038	17.873	6.	0.1	1344.3
1039	18.987	6.	0.1	1084.2
1040	20.101	6.	0.1	830.4
1041	21.215	6.	0.1	581.96
1042	22.329	6.	0.1	336.85
1043	23.443	6.	0.1	110.24
1044	24.	5.4	0.1	4.0193
1045	24.	4.2	0.1	3.3435
1046	24.	3.	0.1	2.9017
1047	24.	1.8	0.1	2.9337
1048	24.	0.6	0.1	3.9868
1049	0.	1.8	0.1	7529.6
1050	0.	0.6	0.1	4844.4
1051	0.	3.	0.1	7659.2
1052	0.	4.2	0.1	7622.1
1053	0.	5.4	0.1	4850.6
1054	23.443	0.	0.1	110.35
1055	22.329	0.	0.1	336.48
1056	21.215	0.	0.1	580.81
1057	20.101	0.	0.1	828.7
1058	18.987	0.	0.1	1082.5
1059	17.873	0.	0.1	1342.6
1060	16.759	0.	0.1	1609.7
1061	15.644	0.	0.1	1883.7
1062	14.53	0.	0.1	2165.5
1063	13.416	0.	0.1	2455.7
1064	12.302	0.	0.1	2754.4
1065	11.188	0.	0.1	3059.
1066	10.074	0.	0.1	3368.1
1067	8.96	0.	0.1	3634.8
1068	7.8459	0.	0.1	3968.7
1069	6.7319	0.	0.1	4200.4
1070	5.6178	0.	0.1	3701.7
1071	4.5037	0.	0.1	1943.8
1072	3.3075	0.	0.1	1862.1
1073	2.3625	0.	0.1	4541.1
1074	1.4175	0.	0.1	5804.9
1075	0.4725	0.	0.1	4198.3
1076	0.4725	6.	0.1	4245.3
1077	1.4175	6.	0.1	5893.9
1078	2.3625	6.	0.1	4562.1
1079	3.3075	6.	0.1	1821.3
