Node Number	X Location (in)	Y Location (in)	Z Location (in)	Middle Principal Stress (psi)
1	7.9039	2.7316	0.	1030.2
2	8.5057	3.2092	0.	281.64
3	7.4786	2.2603	0.	-691.75
4	7.5744	2.9645	0.	-741.24
5	9.2152	3.2113	0.	-628.15
6	6.5546	2.2254	0.	455.76
7	8.0902	3.0732	0.	-144.08
8	11.083	2.5396	0.	10.003
9	5.7988	3.4756	0.	-1011.1
10	10.088	4.2074	0.	233.73
11	8.1714	2.613	0.	-572.81
12	9.4357	2.5024	0.	-102.6
13	9.4357	2.5024	0.1	102.6
14	8.1714	2.613	0.1	572.81
15	10.088	4.2074	0.1	-233.73
16	5.7988	3.4756	0.1	1011.1
17	11.083	2.5396	0.1	-10.003
18	8.0902	3.0732	0.1	144.08
19	6.5546	2.2254	0.1	-455.76
20	9.2152	3.2113	0.1	628.15
21	7.5744	2.9645	0.1	741.24
22	7.4786	2.2603	0.1	691.75
23	8.5057	3.2092	0.1	-281.64
24	7.9039	2.7316	0.1	-1030.2
25	8.1667	5.	0.1	895.78
26	8.1667	4.5	0.1	583.8
27	8.1667	4.	0.1	840.42
28	8.	4.	0.1	3181.7
29	8.	4.5	0.1	2276.8
30	8.	5.	0.1	1663.4
31	8.1667	1.	0.1	785.87
32	8.1667	1.5	0.1	1098.7
33	8.1667	2.	0.1	3165.3
34	8.	2.	0.1	980.87
35	8.	1.5	0.1	730.14
36	8.	1.	0.1	771.24
37	8.1667	6.	0.1	324.63
38	10.806	6.	0.1	-112.96
39	13.444	6.	0.1	195.88
40	18.722	6.	0.1	158.68
41	24.	6.	0.1	284.43
42	24.	0.	0.1	275.54
43	18.722	0.	0.1	136.64
44	13.444	0.	0.1	145.15
45	10.806	0.	0.1	-212.45
46	8.1667	0.	0.1	639.22
47	8.	0.	0.1	657.67
48	6.	9.0989e-031	0.1	109.32
49	4.	6.0659e-031	0.1	575.83
50	0.	0.	0.1	3575.1
51	3.937e-014	6.	0.1	3289.
52	4.	6.	0.1	710.92
53	6.	6.	0.1	1094.7
54	8.	6.	0.1	460.67
55	6.	6.	0.	-1094.7
56	4.	6.	0.	-710.92
57	8.	6.	0.	-460.67
58	3.937e-014	6.	0.	-3289.
59	4.	6.0659e-031	0.	-575.83
60	6.	9.0989e-031	0.	-109.32
61	8.	0.	0.	-657.67
62	0.	0.	0.	-3575.1
63	10.806	0.	0.	212.45
64	13.444	0.	0.	-145.15
65	18.722	0.	0.	-136.64
66	8.1667	0.	0.	-639.22
67	24.	0.	0.	-275.54
68	24.	6.	0.	-284.43
69	18.722	6.	0.	-158.68
70	13.444	6.	0.	-195.88
71	10.806	6.	0.	112.96
72	8.1667	6.	0.	-324.63
73	8.	1.5	0.	-730.14
74	8.	1.	0.	-771.24
75	8.	2.	0.	-980.87
76	8.1667	1.	0.	-785.87
77	8.1667	1.5	0.	-1098.7
78	8.1667	2.	0.	-3165.3
79	8.	4.5	0.	-2276.8
80	8.	5.	0.	-1663.4
81	8.	4.	0.	-3181.7
82	8.1667	5.	0.	-895.78
83	8.1667	4.5	0.	-583.8
84	8.1667	4.	0.	-840.42
85	7.7391	2.848	0.	127.76
86	7.9971	2.9024	0.	470.82
87	8.0376	2.6723	0.	248.69
88	7.9039	2.7316	5.e-002	4.6112e-005
89	7.9519	2.3658	0.	54.702
90	8.8605	3.2103	0.	-173.31
91	8.298	3.1412	0.	104.23
92	8.3385	2.9111	0.	-122.03
93	8.5057	3.2092	5.e-002	6.1291e-005
94	8.3362	3.6046	0.	-215.21
95	7.5265	2.6124	0.	-721.59
96	7.0166	2.2428	0.	-120.02
97	7.4786	2.2603	5.e-002	1.5141e-005
98	7.7393	2.1301	0.	-825.03
99	7.0645	2.5949	0.	-166.41
100	7.5744	2.9645	5.e-002	6.7219e-005
101	7.7872	3.4822	0.	-1251.8
102	9.6519	3.7094	0.	-197.41
103	9.3255	2.8569	0.	-355.42
104	9.2152	3.2113	5.e-002	4.8931e-005
105	8.691	2.6057	0.	-1681.2
106	8.691	3.6057	0.	-655.75
107	6.1767	2.8505	0.	-139.06
108	6.5546	2.2254	5.e-002	2.3642e-005
109	6.2773	1.1127	0.	185.65
110	7.2773	1.8627	0.	-210.3
111	7.2773	1.6127	0.	-142.49
112	7.2773	3.3627	0.	-956.52
113	8.0902	3.0732	5.e-002	3.4348e-005
114	8.0451	3.5366	0.	-1175.
115	10.586	3.3735	0.	147.52
116	10.259	2.521	0.	-11.097
117	11.083	2.5396	5.e-002	8.5378e-006
118	10.944	1.2698	0.	127.14
119	12.264	4.2698	0.	-88.146
120	9.6247	1.7698	0.	-455.97
121	5.7988	3.4756	5.e-002	-6.31e-006
122	5.8994	4.7378	0.	-1082.8
123	4.8994	1.7378	0.	-794.9
124	6.8994	4.2378	0.	-1405.3
125	10.088	4.2074	5.e-002	1.055e-004
126	10.447	5.1037	0.	176.9
127	9.1276	4.6037	0.	-292.37
128	9.1276	4.3537	0.	-205.
129	8.1714	2.613	5.e-002	1.2818e-005
130	8.169	2.3065	0.	-1357.3
131	9.4357	2.5024	5.e-002	3.2051e-005
132	8.8012	2.0012	0.	-227.52
133	10.259	2.521	0.1	11.097
134	9.3255	2.8569	0.1	355.42
135	8.8012	2.0012	0.1	227.52
136	8.3385	2.9111	0.1	122.03
137	8.0376	2.6723	0.1	-248.69
138	8.169	2.3065	0.1	1357.3
139	10.586	3.3735	0.1	-147.52
140	9.6519	3.7094	0.1	197.41
141	9.1276	4.6037	0.1	292.37
142	9.1276	4.3537	0.1	205.
143	10.447	5.1037	0.1	-176.9
144	6.1767	2.8505	0.1	139.06
145	6.8994	4.2378	0.1	1405.3
146	4.8994	1.7378	0.1	794.9
147	5.8994	4.7378	0.1	1082.8
148	9.6247	1.7698	0.1	455.97
149	12.264	4.2698	0.1	88.146
150	10.944	1.2698	0.1	-127.14
151	8.298	3.1412	0.1	-104.23
152	7.9971	2.9024	0.1	-470.82
153	8.0451	3.5366	0.1	1175.
154	7.0645	2.5949	0.1	166.41
155	7.0166	2.2428	0.1	120.02
156	7.2773	3.3627	0.1	956.52
157	7.2773	1.8627	0.1	210.3
158	7.2773	1.6127	0.1	142.49
159	6.2773	1.1127	0.1	-185.65
160	8.8605	3.2103	0.1	173.31
161	8.691	3.6057	0.1	655.75
162	8.691	2.6057	0.1	1681.2
163	7.5265	2.6124	0.1	721.59
164	7.7391	2.848	0.1	-127.76
165	7.7872	3.4822	0.1	1251.8
166	7.7393	2.1301	0.1	825.03
167	8.3362	3.6046	0.1	215.21
168	7.9519	2.3658	0.1	-54.702
169	8.1667	4.75	0.1	544.75
170	8.1667	5.5	0.1	583.21
171	8.1667	5.	5.e-002	-4.7023e-014
172	8.1667	4.25	0.1	687.21
173	8.1667	4.5	5.e-002	5.1823e-005
174	8.0833	4.	0.1	2012.6
175	8.1667	4.	5.e-002	3.0164e-004
176	8.	4.25	0.1	2760.9
177	8.	4.	5.e-002	3.3998e-004
178	8.	4.75	0.1	1969.
179	8.	4.5	5.e-002	-7.9662e-005
180	8.	5.5	0.1	1079.
181	8.	5.	5.e-002	-1.3219e-006
182	8.1667	1.25	0.1	856.3
183	8.1667	0.5	0.1	563.65
184	8.1667	1.	5.e-002	-1.4407e-013
185	8.1667	1.75	0.1	2158.3
186	8.1667	1.5	5.e-002	3.5908e-005
187	8.0833	2.	0.1	2256.6
188	8.1667	2.	5.e-002	2.4542e-004
189	8.	1.75	0.1	946.92
190	8.	2.	5.e-002	1.0949e-004
191	8.	1.25	0.1	751.9
192	8.	1.5	5.e-002	-5.6879e-005
193	8.	0.5	0.1	774.26
194	8.	1.	5.e-002	-3.7377e-015
195	9.4861	6.	0.1	111.44
196	8.1667	6.	5.e-002	-6.9231e-005
197	12.125	6.	0.1	25.747
198	10.806	6.	5.e-002	3.682e-006
199	16.083	6.	0.1	180.43
200	13.444	3.	0.1	177.63
201	13.444	6.	5.e-002	3.9401e-005
202	21.361	6.	0.1	223.76
203	18.722	3.	0.1	160.53
204	18.722	6.	5.e-002	8.683e-005
205	24.	3.	0.1	304.4
206	24.	6.	5.e-002	7.6918e-006
207	21.361	0.	0.1	208.38
208	24.	0.	5.e-002	-4.606e-006
209	16.083	0.	0.1	141.34
210	18.722	0.	5.e-002	6.8857e-005
211	12.125	0.	0.1	-44.081
212	13.444	0.	5.e-002	2.5892e-005
213	9.4861	0.	0.1	208.77
214	10.806	0.	5.e-002	-2.6702e-006
215	8.1667	0.	5.e-002	-2.445e-014
216	7.	1.0615e-030	0.1	311.59
217	8.	1.2132e-030	5.e-002	-1.5258e-005
218	5.	7.5824e-031	0.1	277.59
219	6.	0.	5.e-002	-1.0823e-006
220	2.	3.033e-031	0.1	2064.
221	4.	3.	0.1	648.36
222	4.	0.	5.e-002	1.6179e-005
223	2.6226e-014	3.	0.1	3425.3
224	0.	0.	5.e-002	-2.3756e-006
225	2.	6.	0.1	2002.9
226	5.2451e-014	6.	5.e-002	-9.3104e-007
227	5.	6.	0.1	922.32
228	4.	6.	5.e-002	-8.574e-007
229	7.	6.	0.1	779.39
230	6.	6.	5.e-002	-1.0519e-014
231	8.	6.	5.e-002	3.0457e-005
232	5.	6.	0.	-922.32
233	7.	6.	0.	-779.39
234	2.	6.	0.	-2002.9
235	4.	3.	0.	-648.36
236	8.	5.5	0.	-1079.
237	2.6226e-014	3.	0.	-3425.3
238	5.	7.5824e-031	0.	-277.59
239	2.	3.033e-031	0.	-2064.
240	7.	1.0615e-030	0.	-311.59
241	8.	0.5	0.	-774.26
242	12.125	0.	0.	44.081
243	9.4861	0.	0.	-208.77
244	16.083	0.	0.	-141.34
245	13.444	3.	0.	-177.63
246	21.361	0.	0.	-208.38
247	18.722	3.	0.	-160.53
248	8.1667	0.5	0.	-563.65
249	24.	3.	0.	-304.4
250	21.361	6.	0.	-223.76
251	16.083	6.	0.	-180.43
252	12.125	6.	0.	-25.747
253	9.4861	6.	0.	-111.44
254	8.1667	5.5	0.	-583.21
255	8.	1.25	0.	-751.9
256	8.	1.75	0.	-946.92
257	8.0833	2.	0.	-2256.6
258	8.1667	1.25	0.	-856.3
259	8.1667	1.75	0.	-2158.3
260	8.	4.75	0.	-1969.
261	8.	4.25	0.	-2760.9
262	8.0833	4.	0.	-2012.6
263	8.1667	4.75	0.	-544.75
264	8.1667	4.25	0.	-687.21
