Node Number	X Location (in)	Y Location (in)	Z Location (in)	Middle Principal Stress (psi)
1	7.9	2.1818	0.	161.18
2	7.9	2.3636	0.	-36.779
3	7.9	2.5455	0.	0.79598
4	7.9	2.7273	0.	-4.1101
5	7.9	2.9091	0.	-2.1415
6	7.9	3.0909	0.	-2.1415
7	7.9	3.2727	0.	-4.1101
8	7.9	3.4545	0.	0.79598
9	7.9	3.6364	0.	-36.779
10	7.9	3.8182	0.	161.18
11	8.0667	2.1818	0.	84.149
12	8.0667	2.3636	0.	-39.162
13	8.0667	2.5455	0.	1.2928
14	8.0667	2.7273	0.	-4.1647
15	8.0667	2.9091	0.	-2.0358
16	8.0667	3.0909	0.	-2.0358
17	8.0667	3.2727	0.	-4.1647
18	8.0667	3.4545	0.	1.2928
19	8.0667	3.6364	0.	-39.162
20	8.0667	3.8182	0.	84.149
21	7.7163	5.8182	0.	-22.557
22	7.7163	5.6364	0.	-10.536
23	7.7163	5.4545	0.	-7.9472
24	7.7163	5.2727	0.	-6.9617
25	7.7163	5.0909	0.	-6.7995
26	7.7163	4.9091	0.	-8.5836
27	7.7163	4.7273	0.	-6.4313
28	7.7163	4.5455	0.	-24.157
29	7.7163	4.3636	0.	17.4
30	7.7163	4.1818	0.	-138.29
31	7.7163	4.	0.	-570.66
32	7.7163	3.8182	0.	19.399
33	7.7163	3.6364	0.	-16.675
34	7.7163	3.4545	0.	5.2156
35	7.7163	3.2727	0.	-3.3888
36	7.7163	3.0909	0.	-0.69341
37	7.7163	2.9091	0.	-0.69341
38	7.7163	2.7273	0.	-3.3888
39	7.7163	2.5455	0.	5.2156
40	7.7163	2.3636	0.	-16.675
41	7.7163	2.1818	0.	19.399
42	7.7163	2.	0.	-570.66
43	7.7163	1.8182	0.	-138.29
44	7.7163	1.6364	0.	17.4
45	7.7163	1.4545	0.	-24.157
46	7.7163	1.2727	0.	-6.4313
47	7.7163	1.0909	0.	-8.5836
48	7.7163	0.90909	0.	-6.7995
49	7.7163	0.72727	0.	-6.9617
50	7.7163	0.54545	0.	-7.9472
51	7.7163	0.36364	0.	-10.536
52	7.7163	0.18182	0.	-22.557
53	7.5326	5.8182	0.	-5.6905
54	7.5326	5.6364	0.	-2.9014
55	7.5326	5.4545	0.	-1.1949
56	7.5326	5.2727	0.	-0.14424
57	7.5326	5.0909	0.	0.27154
58	7.5326	4.9091	0.	0.69509
59	7.5326	4.7273	0.	0.47517
60	7.5326	4.5455	0.	-7.8103e-002
61	7.5326	4.3636	0.	4.6472
62	7.5326	4.1818	0.	14.763
63	7.5326	4.	0.	72.714
64	7.5326	3.8182	0.	36.593
65	7.5326	3.6364	0.	-5.9025
66	7.5326	3.4545	0.	1.3735
67	7.5326	3.2727	0.	-0.10804
68	7.5326	3.0909	0.	-0.18763
69	7.5326	2.9091	0.	-0.18764
70	7.5326	2.7273	0.	-0.10804
71	7.5326	2.5455	0.	1.3735
72	7.5326	2.3636	0.	-5.9025
73	7.5326	2.1818	0.	36.593
74	7.5326	2.	0.	72.714
75	7.5326	1.8182	0.	14.763
76	7.5326	1.6364	0.	4.6472
77	7.5326	1.4545	0.	-7.81e-002
78	7.5326	1.2727	0.	0.47517
79	7.5326	1.0909	0.	0.69509
80	7.5326	0.90909	0.	0.27155
81	7.5326	0.72727	0.	-0.14424
82	7.5326	0.54545	0.	-1.1949
83	7.5326	0.36364	0.	-2.9014
84	7.5326	0.18182	0.	-5.6905
85	7.3488	5.8182	0.	-2.3382
86	7.3488	5.6364	0.	-2.1923
87	7.3488	5.4545	0.	-1.8125
88	7.3488	5.2727	0.	-1.6036
89	7.3488	5.0909	0.	-1.5958
90	7.3488	4.9091	0.	-1.9835
91	7.3488	4.7273	0.	-2.28
92	7.3488	4.5455	0.	-2.3728
93	7.3488	4.3636	0.	-9.9793
94	7.3488	4.1818	0.	-5.6894
95	7.3488	4.	0.	-13.962
96	7.3488	3.8182	0.	-8.8478
97	7.3488	3.6364	0.	6.0544
98	7.3488	3.4545	0.	0.89189
99	7.3488	3.2727	0.	0.89845
100	7.3488	3.0909	0.	0.61601
101	7.3488	2.9091	0.	0.61601
102	7.3488	2.7273	0.	0.89845
103	7.3488	2.5455	0.	0.89189
104	7.3488	2.3636	0.	6.0544
105	7.3488	2.1818	0.	-8.8478
106	7.3488	2.	0.	-13.962
107	7.3488	1.8182	0.	-5.6894
108	7.3488	1.6364	0.	-9.9793
109	7.3488	1.4545	0.	-2.3728
110	7.3488	1.2727	0.	-2.28
111	7.3488	1.0909	0.	-1.9835
112	7.3488	0.90909	0.	-1.5958
113	7.3488	0.72727	0.	-1.6036
114	7.3488	0.54545	0.	-1.8125
115	7.3488	0.36364	0.	-2.1923
116	7.3488	0.18182	0.	-2.3382
117	7.1651	5.8182	0.	-0.19556
118	7.1651	5.6364	0.	-0.75514
119	7.1651	5.4545	0.	-0.83411
120	7.1651	5.2727	0.	-0.91517
121	7.1651	5.0909	0.	-1.0227
122	7.1651	4.9091	0.	-1.1657
123	7.1651	4.7273	0.	-1.5364
124	7.1651	4.5455	0.	-1.9717
125	7.1651	4.3636	0.	-0.48926
126	7.1651	4.1818	0.	-1.5228
127	7.1651	4.	0.	1.3181
128	7.1651	3.8182	0.	3.0791
129	7.1651	3.6364	0.	0.52901
130	7.1651	3.4545	0.	1.2107
131	7.1651	3.2727	0.	1.031
132	7.1651	3.0909	0.	0.85998
133	7.1651	2.9091	0.	0.85998
134	7.1651	2.7273	0.	1.031
135	7.1651	2.5455	0.	1.2107
136	7.1651	2.3636	0.	0.52901
137	7.1651	2.1818	0.	3.0791
138	7.1651	2.	0.	1.3181
139	7.1651	1.8182	0.	-1.5228
140	7.1651	1.6364	0.	-0.48926
141	7.1651	1.4545	0.	-1.9717
142	7.1651	1.2727	0.	-1.5364
143	7.1651	1.0909	0.	-1.1657
144	7.1651	0.90909	0.	-1.0227
145	7.1651	0.72727	0.	-0.91517
146	7.1651	0.54545	0.	-0.83411
147	7.1651	0.36364	0.	-0.75514
148	7.1651	0.18182	0.	-0.19556
149	6.9814	5.8182	0.	0.32304
150	6.9814	5.6364	0.	-0.41532
151	6.9814	5.4545	0.	-0.54458
152	6.9814	5.2727	0.	-0.75606
153	6.9814	5.0909	0.	-0.92525
154	6.9814	4.9091	0.	-1.1112
155	6.9814	4.7273	0.	-1.2804
156	6.9814	4.5455	0.	-1.5374
157	6.9814	4.3636	0.	-2.0615
158	6.9814	4.1818	0.	-2.0207
159	6.9814	4.	0.	-2.4961
160	6.9814	3.8182	0.	-2.3637
161	6.9814	3.6364	0.	-0.92374
162	6.9814	3.4545	0.	2.4729e-002
163	6.9814	3.2727	0.	0.58874
164	6.9814	3.0909	0.	0.80396
165	6.9814	2.9091	0.	0.80396
166	6.9814	2.7273	0.	0.58873
167	6.9814	2.5455	0.	2.4729e-002
168	6.9814	2.3636	0.	-0.92374
169	6.9814	2.1818	0.	-2.3637
170	6.9814	2.	0.	-2.4961
171	6.9814	1.8182	0.	-2.0207
172	6.9814	1.6364	0.	-2.0615
173	6.9814	1.4545	0.	-1.5374
174	6.9814	1.2727	0.	-1.2804
175	6.9814	1.0909	0.	-1.1112
176	6.9814	0.90909	0.	-0.92524
177	6.9814	0.72727	0.	-0.75606
178	6.9814	0.54545	0.	-0.54458
179	6.9814	0.36364	0.	-0.41532
180	6.9814	0.18182	0.	0.32304
181	6.7977	5.8182	0.	0.45983
182	6.7977	5.6364	0.	-0.25388
183	6.7977	5.4545	0.	-0.32688
184	6.7977	5.2727	0.	-0.55916
185	6.7977	5.0909	0.	-0.72818
186	6.7977	4.9091	0.	-0.89986
187	6.7977	4.7273	0.	-1.0854
188	6.7977	4.5455	0.	-1.2819
189	6.7977	4.3636	0.	-1.5152
190	6.7977	4.1818	0.	-1.9641
191	6.7977	4.	0.	-2.5647
192	6.7977	3.8182	0.	-4.4252
193	6.7977	3.6364	0.	-20.513
194	6.7977	3.4545	0.	-55.182
195	6.7977	3.2727	0.	-75.107
196	6.7977	3.0909	0.	-83.011
197	6.7977	2.9091	0.	-83.011
198	6.7977	2.7273	0.	-75.107
199	6.7977	2.5455	0.	-55.182
200	6.7977	2.3636	0.	-20.513
201	6.7977	2.1818	0.	-4.4252
202	6.7977	2.	0.	-2.5647
203	6.7977	1.8182	0.	-1.9641
204	6.7977	1.6364	0.	-1.5152
205	6.7977	1.4545	0.	-1.2819
206	6.7977	1.2727	0.	-1.0854
207	6.7977	1.0909	0.	-0.89985
208	6.7977	0.90909	0.	-0.72818
209	6.7977	0.72727	0.	-0.55916
210	6.7977	0.54545	0.	-0.32688
211	6.7977	0.36364	0.	-0.25388
212	6.7977	0.18182	0.	0.45983
213	6.614	5.8182	0.	0.40483
214	6.614	5.6364	0.	-0.20693
215	6.614	5.4545	0.	-0.22216
216	6.614	5.2727	0.	-0.43872
217	6.614	5.0909	0.	-0.60603
218	6.614	4.9091	0.	-0.78496
219	6.614	4.7273	0.	-0.99128
220	6.614	4.5455	0.	-1.2786
221	6.614	4.3636	0.	-1.7445
222	6.614	4.1818	0.	-2.6539
223	6.614	4.	0.	-5.8469
224	6.614	3.8182	0.	-35.536
225	6.614	3.6364	0.	-88.647
226	6.614	3.4545	0.	-127.85
227	6.614	3.2727	0.	-151.35
228	6.614	3.0909	0.	-161.94
229	6.614	2.9091	0.	-161.94
230	6.614	2.7273	0.	-151.35
231	6.614	2.5455	0.	-127.85
232	6.614	2.3636	0.	-88.647
233	6.614	2.1818	0.	-35.536
234	6.614	2.	0.	-5.8469
235	6.614	1.8182	0.	-2.6539
236	6.614	1.6364	0.	-1.7445
237	6.614	1.4545	0.	-1.2786
238	6.614	1.2727	0.	-0.99128
239	6.614	1.0909	0.	-0.78495
240	6.614	0.90909	0.	-0.60603
241	6.614	0.72727	0.	-0.43872
242	6.614	0.54545	0.	-0.22215
243	6.614	0.36364	0.	-0.20692
244	6.614	0.18182	0.	0.40484
245	6.4302	5.8182	0.	0.31335
246	6.4302	5.6364	0.	-0.18026
247	6.4302	5.4545	0.	-0.1586
248	6.4302	5.2727	0.	-0.35325
249	6.4302	5.0909	0.	-0.51928
250	6.4302	4.9091	0.	-0.71975
251	6.4302	4.7273	0.	-0.98291
252	6.4302	4.5455	0.	-1.4046
253	6.4302	4.3636	0.	-2.2807
254	6.4302	4.1818	0.	-5.568
255	6.4302	4.	0.	-36.126
256	6.4302	3.8182	0.	-93.408
257	6.4302	3.6364	0.	-144.05
258	6.4302	3.4545	0.	-182.08
259	6.4302	3.2727	0.	-206.54
260	6.4302	3.0909	0.	-218.28
261	6.4302	2.9091	0.	-218.28
262	6.4302	2.7273	0.	-206.54
263	6.4302	2.5455	0.	-182.08
264	6.4302	2.3636	0.	-144.05
265	6.4302	2.1818	0.	-93.408
266	6.4302	2.	0.	-36.126
267	6.4302	1.8182	0.	-5.568
268	6.4302	1.6364	0.	-2.2807
269	6.4302	1.4545	0.	-1.4046
270	6.4302	1.2727	0.	-0.9829
271	6.4302	1.0909	0.	-0.71975
272	6.4302	0.90909	0.	-0.51928
273	6.4302	0.72727	0.	-0.35325
274	6.4302	0.54545	0.	-0.1586
275	6.4302	0.36364	0.	-0.18025
276	6.4302	0.18182	0.	0.31335
277	6.2465	5.8182	0.	0.22781
278	6.2465	5.6364	0.	-0.15933
279	6.2465	5.4545	0.	-0.12575
280	6.2465	5.2727	0.	-0.30462
281	6.2465	5.0909	0.	-0.48047
282	6.2465	4.9091	0.	-0.72475
283	6.2465	4.7273	0.	-1.1108
284	6.2465	4.5455	0.	-1.9297
285	6.2465	4.3636	0.	-5.217
286	6.2465	4.1818	0.	-34.394
287	6.2465	4.	0.	-88.269
288	6.2465	3.8182	0.	-141.64
289	6.2465	3.6364	0.	-187.97
290	6.2465	3.4545	0.	-223.84
291	6.2465	3.2727	0.	-247.83
292	6.2465	3.0909	0.	-259.73
293	6.2465	2.9091	0.	-259.73
294	6.2465	2.7273	0.	-247.83
295	6.2465	2.5455	0.	-223.84
296	6.2465	2.3636	0.	-187.97
297	6.2465	2.1818	0.	-141.64
298	6.2465	2.	0.	-88.269
299	6.2465	1.8182	0.	-34.394
300	6.2465	1.6364	0.	-5.217
301	6.2465	1.4545	0.	-1.9297
302	6.2465	1.2727	0.	-1.1108
303	6.2465	1.0909	0.	-0.72474
304	6.2465	0.90909	0.	-0.48047
305	6.2465	0.72727	0.	-0.30462
306	6.2465	0.54545	0.	-0.12575
307	6.2465	0.36364	0.	-0.15933
308	6.2465	0.18182	0.	0.22781
309	6.0628	5.8182	0.	0.1644
310	6.0628	5.6364	0.	-0.13839
311	6.0628	5.4545	0.	-0.11504
312	6.0628	5.2727	0.	-0.29128
313	6.0628	5.0909	0.	-0.50119
314	6.0628	4.9091	0.	-0.85516
315	6.0628	4.7273	0.	-1.6395
316	6.0628	4.5455	0.	-5.2997
317	6.0628	4.3636	0.	-34.199
318	6.0628	4.1818	0.	-82.268
319	6.0628	4.	0.	-133.19
320	6.0628	3.8182	0.	-181.78
321	6.0628	3.6364	0.	-224.16
322	6.0628	3.4545	0.	-257.55
323	6.0628	3.2727	0.	-280.35
324	6.0628	3.0909	0.	-291.85
325	6.0628	2.9091	0.	-291.85
326	6.0628	2.7273	0.	-280.35
327	6.0628	2.5455	0.	-257.55
328	6.0628	2.3636	0.	-224.16
329	6.0628	2.1818	0.	-181.78
330	6.0628	2.	0.	-133.19
331	6.0628	1.8182	0.	-82.268
332	6.0628	1.6364	0.	-34.199
333	6.0628	1.4545	0.	-5.2997
334	6.0628	1.2727	0.	-1.6395
335	6.0628	1.0909	0.	-0.85516
336	6.0628	0.90909	0.	-0.50119
337	6.0628	0.72727	0.	-0.29128
338	6.0628	0.54545	0.	-0.11504
339	6.0628	0.36364	0.	-0.13839
340	6.0628	0.18182	0.	0.1644
341	5.8791	5.8182	0.	0.12186
342	5.8791	5.6364	0.	-0.1211
343	5.8791	5.4545	0.	-0.12957
344	5.8791	5.2727	0.	-0.33104
345	5.8791	5.0909	0.	-0.65159
346	5.8791	4.9091	0.	-1.4639
347	5.8791	4.7273	0.	-6.5982
348	5.8791	4.5455	0.	-36.162
349	5.8791	4.3636	0.	-78.36
350	5.8791	4.1818	0.	-124.84
351	5.8791	4.	0.	-172.03
352	5.8791	3.8182	0.	-216.57
353	5.8791	3.6364	0.	-255.47
354	5.8791	3.4545	0.	-286.37
355	5.8791	3.2727	0.	-307.69
356	5.8791	3.0909	0.	-318.53
357	5.8791	2.9091	0.	-318.53
358	5.8791	2.7273	0.	-307.69
359	5.8791	2.5455	0.	-286.37
360	5.8791	2.3636	0.	-255.47
361	5.8791	2.1818	0.	-216.57
362	5.8791	2.	0.	-172.03
363	5.8791	1.8182	0.	-124.84
364	5.8791	1.6364	0.	-78.36
365	5.8791	1.4545	0.	-36.162
366	5.8791	1.2727	0.	-6.5982
367	5.8791	1.0909	0.	-1.4639
368	5.8791	0.90909	0.	-0.65159
369	5.8791	0.72727	0.	-0.33104
370	5.8791	0.54545	0.	-0.12957
371	5.8791	0.36364	0.	-0.1211
372	5.8791	0.18182	0.	0.12186
373	5.6953	5.8182	0.	9.178e-002
374	5.6953	5.6364	0.	-0.1182
375	5.6953	5.4545	0.	-0.19398
376	5.6953	5.2727	0.	-0.52315
377	5.6953	5.0909	0.	-1.539
378	5.6953	4.9091	0.	-10.99
379	5.6953	4.7273	0.	-39.892
380	5.6953	4.5455	0.	-76.878
381	5.6953	4.3636	0.	-118.68
382	5.6953	4.1818	0.	-162.89
383	5.6953	4.	0.	-206.92
384	5.6953	3.8182	0.	-248.1
385	5.6953	3.6364	0.	-283.98
386	5.6953	3.4545	0.	-312.56
387	5.6953	3.2727	0.	-332.37
388	5.6953	3.0909	0.	-342.49
389	5.6953	2.9091	0.	-342.49
390	5.6953	2.7273	0.	-332.37
391	5.6953	2.5455	0.	-312.56
392	5.6953	2.3636	0.	-283.98
393	5.6953	2.1818	0.	-248.1
394	5.6953	2.	0.	-206.92
395	5.6953	1.8182	0.	-162.89
396	5.6953	1.6364	0.	-118.68
397	5.6953	1.4545	0.	-76.878
398	5.6953	1.2727	0.	-39.892
399	5.6953	1.0909	0.	-10.99
400	5.6953	0.90909	0.	-1.539
401	5.6953	0.72727	0.	-0.52315
402	5.6953	0.54545	0.	-0.19398
403	5.6953	0.36364	0.	-0.1182
404	5.6953	0.18182	0.	9.1782e-002
405	5.5116	5.8182	0.	5.4273e-002
406	5.5116	5.6364	0.	-0.17345
407	5.5116	5.4545	0.	-0.49926
408	5.5116	5.2727	0.	-2.7922
409	5.5116	5.0909	0.	-18.37
410	5.5116	4.9091	0.	-44.502
411	5.5116	4.7273	0.	-77.154
412	5.5116	4.5455	0.	-114.8
413	5.5116	4.3636	0.	-155.74
414	5.5116	4.1818	0.	-198.03
415	5.5116	4.	0.	-239.48
416	5.5116	3.8182	0.	-277.89
417	5.5116	3.6364	0.	-311.23
418	5.5116	3.4545	0.	-337.76
419	5.5116	3.2727	0.	-356.17
420	5.5116	3.0909	0.	-365.58
421	5.5116	2.9091	0.	-365.58
422	5.5116	2.7273	0.	-356.17
423	5.5116	2.5455	0.	-337.76
424	5.5116	2.3636	0.	-311.23
425	5.5116	2.1818	0.	-277.89
426	5.5116	2.	0.	-239.48
427	5.5116	1.8182	0.	-198.03
428	5.5116	1.6364	0.	-155.74
429	5.5116	1.4545	0.	-114.8
430	5.5116	1.2727	0.	-77.154
431	5.5116	1.0909	0.	-44.502
432	5.5116	0.90909	0.	-18.37
433	5.5116	0.72727	0.	-2.7922
434	5.5116	0.54545	0.	-0.49925
435	5.5116	0.36364	0.	-0.17345
436	5.5116	0.18182	0.	5.4275e-002
437	5.3279	5.8182	0.	-9.0753e-002
438	5.3279	5.6364	0.	-1.0404
439	5.3279	5.4545	0.	-8.6649
440	5.3279	5.2727	0.	-25.245
441	5.3279	5.0909	0.	-48.639
442	5.3279	4.9091	0.	-77.993
443	5.3279	4.7273	0.	-112.32
444	5.3279	4.5455	0.	-150.39
445	5.3279	4.3636	0.	-190.68
446	5.3279	4.1818	0.	-231.47
447	5.3279	4.	0.	-270.9
448	5.3279	3.8182	0.	-307.11
449	5.3279	3.6364	0.	-338.36
450	5.3279	3.4545	0.	-363.16
451	5.3279	3.2727	0.	-380.34
452	5.3279	3.0909	0.	-389.13
453	5.3279	2.9091	0.	-389.13
454	5.3279	2.7273	0.	-380.34
455	5.3279	2.5455	0.	-363.16
456	5.3279	2.3636	0.	-338.36
457	5.3279	2.1818	0.	-307.11
458	5.3279	2.	0.	-270.9
459	5.3279	1.8182	0.	-231.47
460	5.3279	1.6364	0.	-190.68
461	5.3279	1.4545	0.	-150.39
462	5.3279	1.2727	0.	-112.32
463	5.3279	1.0909	0.	-77.993
464	5.3279	0.90909	0.	-48.639
465	5.3279	0.72727	0.	-25.245
466	5.3279	0.54545	0.	-8.6649
467	5.3279	0.36364	0.	-1.0404
468	5.3279	0.18182	0.	-9.0751e-002
469	5.1442	5.8182	0.	-2.68
470	5.1442	5.6364	0.	-12.725
471	5.1442	5.4545	0.	-28.69
472	5.1442	5.2727	0.	-50.506
473	5.1442	5.0909	0.	-77.781
474	5.1442	4.9091	0.	-109.85
475	5.1442	4.7273	0.	-145.78
476	5.1442	4.5455	0.	-184.41
477	5.1442	4.3636	0.	-224.38
478	5.1442	4.1818	0.	-264.14
479	5.1442	4.	0.	-302.08
480	5.1442	3.8182	0.	-336.61
481	5.1442	3.6364	0.	-366.21
482	5.1442	3.4545	0.	-389.62
483	5.1442	3.2727	0.	-405.8
484	5.1442	3.0909	0.	-414.07
485	5.1442	2.9091	0.	-414.07
486	5.1442	2.7273	0.	-405.8
487	5.1442	2.5455	0.	-389.62
488	5.1442	2.3636	0.	-366.21
489	5.1442	2.1818	0.	-336.61
490	5.1442	2.	0.	-302.08
491	5.1442	1.8182	0.	-264.14
492	5.1442	1.6364	0.	-224.38
493	5.1442	1.4545	0.	-184.41
494	5.1442	1.2727	0.	-145.78
495	5.1442	1.0909	0.	-109.85
496	5.1442	0.90909	0.	-77.781
497	5.1442	0.72727	0.	-50.506
498	5.1442	0.54545	0.	-28.69
499	5.1442	0.36364	0.	-12.725
500	5.1442	0.18182	0.	-2.68
501	4.9605	5.8182	0.	-9.0062
502	4.9605	5.6364	0.	-26.16
503	4.9605	5.4545	0.	-47.984
504	4.9605	5.2727	0.	-74.576
505	4.9605	5.0909	0.	-105.59
506	4.9605	4.9091	0.	-140.37
507	4.9605	4.7273	0.	-178.04
508	4.9605	4.5455	0.	-217.52
509	4.9605	4.3636	0.	-257.54
510	4.9605	4.1818	0.	-296.75
511	4.9605	4.	0.	-333.72
512	4.9605	3.8182	0.	-367.06
513	4.9605	3.6364	0.	-395.46
514	4.9605	3.4545	0.	-417.82
515	4.9605	3.2727	0.	-433.23
516	4.9605	3.0909	0.	-441.09
517	4.9605	2.9091	0.	-441.09
518	4.9605	2.7273	0.	-433.23
519	4.9605	2.5455	0.	-417.82
520	4.9605	2.3636	0.	-395.46
521	4.9605	2.1818	0.	-367.06
522	4.9605	2.	0.	-333.72
523	4.9605	1.8182	0.	-296.75
524	4.9605	1.6364	0.	-257.54
525	4.9605	1.4545	0.	-217.52
526	4.9605	1.2727	0.	-178.04
527	4.9605	1.0909	0.	-140.37
528	4.9605	0.90909	0.	-105.59
529	4.9605	0.72727	0.	-74.576
530	4.9605	0.54545	0.	-47.984
531	4.9605	0.36364	0.	-26.16
532	4.9605	0.18182	0.	-9.0062
533	4.7767	5.8182	0.	-15.015
534	4.7767	5.6364	0.	-38.796
535	4.7767	5.4545	0.	-66.262
536	4.7767	5.2727	0.	-97.542
537	4.7767	5.0909	0.	-132.31
538	4.7767	4.9091	0.	-169.94
539	4.7767	4.7273	0.	-209.58
540	4.7767	4.5455	0.	-250.24
541	4.7767	4.3636	0.	-290.75
542	4.7767	4.1818	0.	-329.88
543	4.7767	4.	0.	-366.38
544	4.7767	3.8182	0.	-399.
545	4.7767	3.6364	0.	-426.62
546	4.7767	3.4545	0.	-448.26
547	4.7767	3.2727	0.	-463.13
548	4.7767	3.0909	0.	-470.71
549	4.7767	2.9091	0.	-470.71
550	4.7767	2.7273	0.	-463.13
551	4.7767	2.5455	0.	-448.26
552	4.7767	2.3636	0.	-426.62
553	4.7767	2.1818	0.	-399.
554	4.7767	2.	0.	-366.38
555	4.7767	1.8182	0.	-329.88
556	4.7767	1.6364	0.	-290.75
557	4.7767	1.4545	0.	-250.24
558	4.7767	1.2727	0.	-209.58
559	4.7767	1.0909	0.	-169.94
560	4.7767	0.90909	0.	-132.31
561	4.7767	0.72727	0.	-97.542
562	4.7767	0.54545	0.	-66.262
563	4.7767	0.36364	0.	-38.796
564	4.7767	0.18182	0.	-15.015
565	4.593	5.8182	0.	-20.513
566	4.593	5.6364	0.	-50.673
567	4.593	5.4545	0.	-83.656
568	4.593	5.2727	0.	-119.62
569	4.593	5.0909	0.	-158.25
570	4.593	4.9091	0.	-198.92
571	4.593	4.7273	0.	-240.83
572	4.593	4.5455	0.	-283.03
573	4.593	4.3636	0.	-324.46
574	4.593	4.1818	0.	-364.
575	4.593	4.	0.	-400.5
576	4.593	3.8182	0.	-432.88
577	4.593	3.6364	0.	-460.12
578	4.593	3.4545	0.	-481.36
579	4.593	3.2727	0.	-495.92
580	4.593	3.0909	0.	-503.32
581	4.593	2.9091	0.	-503.32
582	4.593	2.7273	0.	-495.92
583	4.593	2.5455	0.	-481.36
584	4.593	2.3636	0.	-460.12
585	4.593	2.1818	0.	-432.88
586	4.593	2.	0.	-400.5
587	4.593	1.8182	0.	-364.
588	4.593	1.6364	0.	-324.46
589	4.593	1.4545	0.	-283.03
590	4.593	1.2727	0.	-240.83
591	4.593	1.0909	0.	-198.92
592	4.593	0.90909	0.	-158.25
593	4.593	0.72727	0.	-119.62
594	4.593	0.54545	0.	-83.656
595	4.593	0.36364	0.	-50.673
596	4.593	0.18182	0.	-20.513
597	4.4093	5.8182	0.	-25.517
598	4.4093	5.6364	0.	-61.891
599	4.4093	5.4545	0.	-100.34
600	4.4093	5.2727	0.	-141.04
601	4.4093	5.0909	0.	-183.68
602	4.4093	4.9091	0.	-227.65
603	4.4093	4.7273	0.	-272.17
604	4.4093	4.5455	0.	-316.32
605	4.4093	4.3636	0.	-359.12
606	4.4093	4.1818	0.	-399.53
607	4.4093	4.	0.	-436.51
608	4.4093	3.8182	0.	-469.07
609	4.4093	3.6364	0.	-496.31
610	4.4093	3.4545	0.	-517.47
611	4.4093	3.2727	0.	-531.92
612	4.4093	3.0909	0.	-539.26
613	4.4093	2.9091	0.	-539.26
614	4.4093	2.7273	0.	-531.92
615	4.4093	2.5455	0.	-517.47
616	4.4093	2.3636	0.	-496.31
617	4.4093	2.1818	0.	-469.07
618	4.4093	2.	0.	-436.51
619	4.4093	1.8182	0.	-399.53
620	4.4093	1.6364	0.	-359.12
621	4.4093	1.4545	0.	-316.32
622	4.4093	1.2727	0.	-272.17
623	4.4093	1.0909	0.	-227.65
624	4.4093	0.90909	0.	-183.68
625	4.4093	0.72727	0.	-141.04
626	4.4093	0.54545	0.	-100.34
627	4.4093	0.36364	0.	-61.891
628	4.4093	0.18182	0.	-25.517
629	4.2256	5.8182	0.	-30.046
630	4.2256	5.6364	0.	-72.554
631	4.2256	5.4545	0.	-116.47
632	4.2256	5.2727	0.	-162.03
633	4.2256	5.0909	0.	-208.91
634	4.2256	4.9091	0.	-256.47
635	4.2256	4.7273	0.	-303.95
636	4.2256	4.5455	0.	-350.47
637	4.2256	4.3636	0.	-395.09
638	4.2256	4.1818	0.	-436.84
639	4.2256	4.	0.	-474.75
640	4.2256	3.8182	0.	-507.92
641	4.2256	3.6364	0.	-535.53
642	4.2256	3.4545	0.	-556.89
643	4.2256	3.2727	0.	-571.44
644	4.2256	3.0909	0.	-578.82
645	4.2256	2.9091	0.	-578.82
646	4.2256	2.7273	0.	-571.44
647	4.2256	2.5455	0.	-556.89
648	4.2256	2.3636	0.	-535.53
649	4.2256	2.1818	0.	-507.92
650	4.2256	2.	0.	-474.75
651	4.2256	1.8182	0.	-436.84
652	4.2256	1.6364	0.	-395.09
653	4.2256	1.4545	0.	-350.47
654	4.2256	1.2727	0.	-303.95
655	4.2256	1.0909	0.	-256.47
656	4.2256	0.90909	0.	-208.91
657	4.2256	0.72727	0.	-162.03
658	4.2256	0.54545	0.	-116.47
659	4.2256	0.36364	0.	-72.554
660	4.2256	0.18182	0.	-30.046
661	4.0419	5.8182	0.	-34.115
662	4.0419	5.6364	0.	-82.76
663	4.0419	5.4545	0.	-132.23
664	4.0419	5.2727	0.	-182.82
665	4.0419	5.0909	0.	-234.19
666	4.0419	4.9091	0.	-285.68
667	4.0419	4.7273	0.	-336.52
668	4.0419	4.5455	0.	-385.85
669	4.0419	4.3636	0.	-432.74
670	4.0419	4.1818	0.	-476.28
671	4.0419	4.	0.	-515.56
672	4.0419	3.8182	0.	-549.74
673	4.0419	3.6364	0.	-578.06
674	4.0419	3.4545	0.	-599.9
675	4.0419	3.2727	0.	-614.74
676	4.0419	3.0909	0.	-622.24
677	4.0419	2.9091	0.	-622.24
678	4.0419	2.7273	0.	-614.74
679	4.0419	2.5455	0.	-599.9
680	4.0419	2.3636	0.	-578.06
681	4.0419	2.1818	0.	-549.74
682	4.0419	2.	0.	-515.56
683	4.0419	1.8182	0.	-476.28
684	4.0419	1.6364	0.	-432.74
685	4.0419	1.4545	0.	-385.85
686	4.0419	1.2727	0.	-336.52
687	4.0419	1.0909	0.	-285.68
688	4.0419	0.90909	0.	-234.19
689	4.0419	0.72727	0.	-182.82
690	4.0419	0.54545	0.	-132.23
691	4.0419	0.36364	0.	-82.76
692	4.0419	0.18182	0.	-34.115
693	3.8581	5.8182	0.	-37.725
694	3.8581	5.6364	0.	-92.593
695	3.8581	5.4545	0.	-147.76
696	3.8581	5.2727	0.	-203.62
697	3.8581	5.0909	0.	-259.8
698	3.8581	4.9091	0.	-315.59
699	3.8581	4.7273	0.	-370.21
700	3.8581	4.5455	0.	-422.78
701	3.8581	4.3636	0.	-472.41
702	3.8581	4.1818	0.	-518.19
703	3.8581	4.	0.	-559.26
704	3.8581	3.8182	0.	-594.83
705	3.8581	3.6364	0.	-624.19
706	3.8581	3.4545	0.	-646.75
707	3.8581	3.2727	0.	-662.05
708	3.8581	3.0909	0.	-669.78
709	3.8581	2.9091	0.	-669.78
710	3.8581	2.7273	0.	-662.05
711	3.8581	2.5455	0.	-646.75
712	3.8581	2.3636	0.	-624.19
713	3.8581	2.1818	0.	-594.83
714	3.8581	2.	0.	-559.26
715	3.8581	1.8182	0.	-518.19
716	3.8581	1.6364	0.	-472.41
717	3.8581	1.4545	0.	-422.78
718	3.8581	1.2727	0.	-370.21
719	3.8581	1.0909	0.	-315.59
720	3.8581	0.90909	0.	-259.8
721	3.8581	0.72727	0.	-203.62
722	3.8581	0.54545	0.	-147.76
723	3.8581	0.36364	0.	-92.593
724	3.8581	0.18182	0.	-37.725
725	3.6744	5.8182	0.	-40.866
726	3.6744	5.6364	0.	-102.13
727	3.6744	5.4545	0.	-163.22
728	3.6744	5.2727	0.	-224.64
729	3.6744	5.0909	0.	-285.98
730	3.6744	4.9091	0.	-346.5
731	3.6744	4.7273	0.	-405.34
732	3.6744	4.5455	0.	-461.62
733	3.6744	4.3636	0.	-514.44
734	3.6744	4.1818	0.	-562.9
735	3.6744	4.	0.	-606.17
736	3.6744	3.8182	0.	-643.49
737	3.6744	3.6364	0.	-674.18
738	3.6744	3.4545	0.	-697.7
739	3.6744	3.2727	0.	-713.62
740	3.6744	3.0909	0.	-721.65
741	3.6744	2.9091	0.	-721.65
742	3.6744	2.7273	0.	-713.62
743	3.6744	2.5455	0.	-697.7
744	3.6744	2.3636	0.	-674.18
745	3.6744	2.1818	0.	-643.49
746	3.6744	2.	0.	-606.17
747	3.6744	1.8182	0.	-562.9
748	3.6744	1.6364	0.	-514.44
749	3.6744	1.4545	0.	-461.62
750	3.6744	1.2727	0.	-405.34
751	3.6744	1.0909	0.	-346.5
752	3.6744	0.90909	0.	-285.98
753	3.6744	0.72727	0.	-224.64
754	3.6744	0.54545	0.	-163.22
755	3.6744	0.36364	0.	-102.13
756	3.6744	0.18182	0.	-40.866
757	3.4907	5.8182	0.	-43.513
758	3.4907	5.6364	0.	-111.43
759	3.4907	5.4545	0.	-178.73
760	3.4907	5.2727	0.	-246.08
761	3.4907	5.0909	0.	-313.01
762	3.4907	4.9091	0.	-378.7
763	3.4907	4.7273	0.	-442.25
764	3.4907	4.5455	0.	-502.71
765	3.4907	4.3636	0.	-559.18
766	3.4907	4.1818	0.	-610.75
767	3.4907	4.	0.	-656.61
768	3.4907	3.8182	0.	-696.
769	3.4907	3.6364	0.	-728.3
770	3.4907	3.4545	0.	-752.99
771	3.4907	3.2727	0.	-769.67
772	3.4907	3.0909	0.	-778.07
773	3.4907	2.9091	0.	-778.07
774	3.4907	2.7273	0.	-769.67
775	3.4907	2.5455	0.	-752.99
776	3.4907	2.3636	0.	-728.3
777	3.4907	2.1818	0.	-696.
778	3.4907	2.	0.	-656.61
779	3.4907	1.8182	0.	-610.75
780	3.4907	1.6364	0.	-559.18
781	3.4907	1.4545	0.	-502.71
782	3.4907	1.2727	0.	-442.25
783	3.4907	1.0909	0.	-378.7
784	3.4907	0.90909	0.	-313.01
785	3.4907	0.72727	0.	-246.08
786	3.4907	0.54545	0.	-178.73
787	3.4907	0.36364	0.	-111.43
788	3.4907	0.18182	0.	-43.513
789	3.307	5.8182	0.	-45.629
790	3.307	5.6364	0.	-120.54
791	3.307	5.4545	0.	-194.43
792	3.307	5.2727	0.	-268.14
793	3.307	5.0909	0.	-341.15
794	3.307	4.9091	0.	-412.52
795	3.307	4.7273	0.	-481.27
796	3.307	4.5455	0.	-546.42
797	3.307	4.3636	0.	-607.
798	3.307	4.1818	0.	-662.09
799	3.307	4.	0.	-710.88
800	3.307	3.8182	0.	-752.66
801	3.307	3.6364	0.	-786.8
802	3.307	3.4545	0.	-812.84
803	3.307	3.2727	0.	-830.4
804	3.307	3.0909	0.	-839.24
805	3.307	2.9091	0.	-839.24
806	3.307	2.7273	0.	-830.4
807	3.307	2.5455	0.	-812.84
808	3.307	2.3636	0.	-786.8
809	3.307	2.1818	0.	-752.66
810	3.307	2.	0.	-710.88
811	3.307	1.8182	0.	-662.09
812	3.307	1.6364	0.	-607.
813	3.307	1.4545	0.	-546.42
814	3.307	1.2727	0.	-481.27
815	3.307	1.0909	0.	-412.52
816	3.307	0.90909	0.	-341.15
817	3.307	0.72727	0.	-268.14
818	3.307	0.54545	0.	-194.43
819	3.307	0.36364	0.	-120.54
820	3.307	0.18182	0.	-45.629
821	3.1233	5.8182	0.	-47.165
822	3.1233	5.6364	0.	-129.52
823	3.1233	5.4545	0.	-210.45
824	3.1233	5.2727	0.	-291.05
825	3.1233	5.0909	0.	-370.68
826	3.1233	4.9091	0.	-448.3
827	3.1233	4.7273	0.	-522.81
828	3.1233	4.5455	0.	-593.14
829	3.1233	4.3636	0.	-658.27
830	3.1233	4.1818	0.	-717.28
831	3.1233	4.	0.	-769.34
832	3.1233	3.8182	0.	-813.75
833	3.1233	3.6364	0.	-849.95
834	3.1233	3.4545	0.	-877.48
835	3.1233	3.2727	0.	-896.01
836	3.1233	3.0909	0.	-905.33
837	3.1233	2.9091	0.	-905.33
838	3.1233	2.7273	0.	-896.01
839	3.1233	2.5455	0.	-877.48
840	3.1233	2.3636	0.	-849.95
841	3.1233	2.1818	0.	-813.75
842	3.1233	2.	0.	-769.34
843	3.1233	1.8182	0.	-717.28
844	3.1233	1.6364	0.	-658.27
845	3.1233	1.4545	0.	-593.14
846	3.1233	1.2727	0.	-522.81
847	3.1233	1.0909	0.	-448.3
848	3.1233	0.90909	0.	-370.68
849	3.1233	0.72727	0.	-291.05
850	3.1233	0.54545	0.	-210.45
851	3.1233	0.36364	0.	-129.52
852	3.1233	0.18182	0.	-47.165
853	2.9395	5.8182	0.	-48.058
854	2.9395	5.6364	0.	-138.39
855	2.9395	5.4545	0.	-226.95
856	2.9395	5.2727	0.	-315.04
857	2.9395	5.0909	0.	-401.94
858	2.9395	4.9091	0.	-486.43
859	2.9395	4.7273	0.	-567.28
860	2.9395	4.5455	0.	-643.31
861	2.9395	4.3636	0.	-713.44
862	2.9395	4.1818	0.	-776.72
863	2.9395	4.	0.	-832.32
864	2.9395	3.8182	0.	-879.59
865	2.9395	3.6364	0.	-917.98
866	2.9395	3.4545	0.	-947.1
867	2.9395	3.2727	0.	-966.67
868	2.9395	3.0909	0.	-976.49
869	2.9395	2.9091	0.	-976.49
870	2.9395	2.7273	0.	-966.67
871	2.9395	2.5455	0.	-947.1
872	2.9395	2.3636	0.	-917.98
873	2.9395	2.1818	0.	-879.59
874	2.9395	2.	0.	-832.32
875	2.9395	1.8182	0.	-776.72
876	2.9395	1.6364	0.	-713.44
877	2.9395	1.4545	0.	-643.31
878	2.9395	1.2727	0.	-567.28
879	2.9395	1.0909	0.	-486.43
880	2.9395	0.90909	0.	-401.94
881	2.9395	0.72727	0.	-315.04
882	2.9395	0.54545	0.	-226.95
883	2.9395	0.36364	0.	-138.39
884	2.9395	0.18182	0.	-48.058
885	2.7558	5.8182	0.	-48.235
886	2.7558	5.6364	0.	-147.21
887	2.7558	5.4545	0.	-244.07
888	2.7558	5.2727	0.	-340.41
889	2.7558	5.0909	0.	-435.32
890	2.7558	4.9091	0.	-527.38
891	2.7558	4.7273	0.	-615.18
892	2.7558	4.5455	0.	-697.44
893	2.7558	4.3636	0.	-772.99
894	2.7558	4.1818	0.	-840.84
895	2.7558	4.	0.	-900.2
896	2.7558	3.8182	0.	-950.45
897	2.7558	3.6364	0.	-991.12
898	2.7558	3.4545	0.	-1021.9
899	2.7558	3.2727	0.	-1042.5
900	2.7558	3.0909	0.	-1052.8
901	2.7558	2.9091	0.	-1052.8
902	2.7558	2.7273	0.	-1042.5
903	2.7558	2.5455	0.	-1021.9
904	2.7558	2.3636	0.	-991.12
905	2.7558	2.1818	0.	-950.45
906	2.7558	2.	0.	-900.2
907	2.7558	1.8182	0.	-840.84
908	2.7558	1.6364	0.	-772.99
909	2.7558	1.4545	0.	-697.44
910	2.7558	1.2727	0.	-615.18
911	2.7558	1.0909	0.	-527.38
912	2.7558	0.90909	0.	-435.32
913	2.7558	0.72727	0.	-340.41
914	2.7558	0.54545	0.	-244.07
915	2.7558	0.36364	0.	-147.21
916	2.7558	0.18182	0.	-48.235
917	2.5721	5.8182	0.	-47.615
918	2.5721	5.6364	0.	-156.02
919	2.5721	5.4545	0.	-262.04
920	2.5721	5.2727	0.	-367.5
921	2.5721	5.0909	0.	-471.28
922	2.5721	4.9091	0.	-571.7
923	2.5721	4.7273	0.	-667.13
924	2.5721	4.5455	0.	-756.13
925	2.5721	4.3636	0.	-837.45
926	2.5721	4.1818	0.	-910.11
927	2.5721	4.	0.	-973.35
928	2.5721	3.8182	0.	-1026.6
929	2.5721	3.6364	0.	-1069.6
930	2.5721	3.4545	0.	-1101.9
931	2.5721	3.2727	0.	-1123.5
932	2.5721	3.0909	0.	-1134.4
933	2.5721	2.9091	0.	-1134.4
934	2.5721	2.7273	0.	-1123.5
935	2.5721	2.5455	0.	-1101.9
936	2.5721	2.3636	0.	-1069.6
937	2.5721	2.1818	0.	-1026.6
938	2.5721	2.	0.	-973.35
939	2.5721	1.8182	0.	-910.11
940	2.5721	1.6364	0.	-837.45
941	2.5721	1.4545	0.	-756.13
942	2.5721	1.2727	0.	-667.13
943	2.5721	1.0909	0.	-571.7
944	2.5721	0.90909	0.	-471.28
945	2.5721	0.72727	0.	-367.5
946	2.5721	0.54545	0.	-262.04
947	2.5721	0.36364	0.	-156.02
948	2.5721	0.18182	0.	-47.615
949	2.3884	5.8182	0.	-46.115
950	2.3884	5.6364	0.	-164.9
951	2.3884	5.4545	0.	-281.11
952	2.3884	5.2727	0.	-396.77
953	2.3884	5.0909	0.	-510.45
954	2.3884	4.9091	0.	-620.1
955	2.3884	4.7273	0.	-723.85
956	2.3884	4.5455	0.	-820.07
957	2.3884	4.3636	0.	-907.47
958	2.3884	4.1818	0.	-985.05
959	2.3884	4.	0.	-1052.2
960	2.3884	3.8182	0.	-1108.4
961	2.3884	3.6364	0.	-1153.5
962	2.3884	3.4545	0.	-1187.3
963	2.3884	3.2727	0.	-1209.8
964	2.3884	3.0909	0.	-1221.1
965	2.3884	2.9091	0.	-1221.1
966	2.3884	2.7273	0.	-1209.8
967	2.3884	2.5455	0.	-1187.3
968	2.3884	2.3636	0.	-1153.5
969	2.3884	2.1818	0.	-1108.4
970	2.3884	2.	0.	-1052.2
971	2.3884	1.8182	0.	-985.05
972	2.3884	1.6364	0.	-907.47
973	2.3884	1.4545	0.	-820.07
974	2.3884	1.2727	0.	-723.85
975	2.3884	1.0909	0.	-620.1
976	2.3884	0.90909	0.	-510.45
977	2.3884	0.72727	0.	-396.77
978	2.3884	0.54545	0.	-281.11
979	2.3884	0.36364	0.	-164.9
980	2.3884	0.18182	0.	-46.115
981	2.2047	5.8182	0.	-43.662
982	2.2047	5.6364	0.	-173.96
983	2.2047	5.4545	0.	-301.67
984	2.2047	5.2727	0.	-428.84
985	2.2047	5.0909	0.	-553.61
986	2.2047	4.9091	0.	-673.49
987	2.2047	4.7273	0.	-786.27
988	2.2047	4.5455	0.	-890.14
989	2.2047	4.3636	0.	-983.76
990	2.2047	4.1818	0.	-1066.2
991	2.2047	4.	0.	-1137.
992	2.2047	3.8182	0.	-1195.9
993	2.2047	3.6364	0.	-1242.9
994	2.2047	3.4545	0.	-1277.9
995	2.2047	3.2727	0.	-1301.2
996	2.2047	3.0909	0.	-1312.8
997	2.2047	2.9091	0.	-1312.8
998	2.2047	2.7273	0.	-1301.2
999	2.2047	2.5455	0.	-1277.9
1000	2.2047	2.3636	0.	-1242.9
1001	2.2047	2.1818	0.	-1195.9
1002	2.2047	2.	0.	-1137.
1003	2.2047	1.8182	0.	-1066.2
1004	2.2047	1.6364	0.	-983.76
1005	2.2047	1.4545	0.	-890.14
1006	2.2047	1.2727	0.	-786.27
1007	2.2047	1.0909	0.	-673.49
1008	2.2047	0.90909	0.	-553.61
1009	2.2047	0.72727	0.	-428.84
1010	2.2047	0.54545	0.	-301.67
1011	2.2047	0.36364	0.	-173.96
1012	2.2047	0.18182	0.	-43.662
1013	2.0209	5.8182	0.	-40.219
1014	2.0209	5.6364	0.	-183.35
1015	2.0209	5.4545	0.	-324.22
1016	2.0209	5.2727	0.	-464.54
1017	2.0209	5.0909	0.	-601.85
1018	2.0209	4.9091	0.	-733.04
1019	2.0209	4.7273	0.	-855.53
1020	2.0209	4.5455	0.	-967.34
1021	2.0209	4.3636	0.	-1067.2
1022	2.0209	4.1818	0.	-1154.2
1023	2.0209	4.	0.	-1228.3
1024	2.0209	3.8182	0.	-1289.4
1025	2.0209	3.6364	0.	-1337.8
1026	2.0209	3.4545	0.	-1373.7
1027	2.0209	3.2727	0.	-1397.5
1028	2.0209	3.0909	0.	-1409.3
1029	2.0209	2.9091	0.	-1409.3
1030	2.0209	2.7273	0.	-1397.5
1031	2.0209	2.5455	0.	-1373.7
1032	2.0209	2.3636	0.	-1337.8
1033	2.0209	2.1818	0.	-1289.4
1034	2.0209	2.	0.	-1228.3
1035	2.0209	1.8182	0.	-1154.2
1036	2.0209	1.6364	0.	-1067.2
1037	2.0209	1.4545	0.	-967.34
1038	2.0209	1.2727	0.	-855.53
1039	2.0209	1.0909	0.	-733.04
1040	2.0209	0.90909	0.	-601.85
1041	2.0209	0.72727	0.	-464.54
1042	2.0209	0.54545	0.	-324.22
1043	2.0209	0.36364	0.	-183.35
1044	2.0209	0.18182	0.	-40.219
1045	1.8372	5.8182	0.	-35.834
1046	1.8372	5.6364	0.	-193.37
1047	1.8372	5.4545	0.	-349.54
1048	1.8372	5.2727	0.	-505.08
1049	1.8372	5.0909	0.	-656.62
1050	1.8372	4.9091	0.	-800.31
1051	1.8372	4.7273	0.	-933.09
1052	1.8372	4.5455	0.	-1052.9
1053	1.8372	4.3636	0.	-1158.6
1054	1.8372	4.1818	0.	-1249.7
1055	1.8372	4.	0.	-1326.3
1056	1.8372	3.8182	0.	-1388.9
1057	1.8372	3.6364	0.	-1438.1
1058	1.8372	3.4545	0.	-1474.4
1059	1.8372	3.2727	0.	-1498.2
1060	1.8372	3.0909	0.	-1510.1
1061	1.8372	2.9091	0.	-1510.1
1062	1.8372	2.7273	0.	-1498.2
1063	1.8372	2.5455	0.	-1474.4
1064	1.8372	2.3636	0.	-1438.1
1065	1.8372	2.1818	0.	-1388.9
1066	1.8372	2.	0.	-1326.3
1067	1.8372	1.8182	0.	-1249.7
1068	1.8372	1.6364	0.	-1158.6
1069	1.8372	1.4545	0.	-1052.9
1070	1.8372	1.2727	0.	-933.09
1071	1.8372	1.0909	0.	-800.31
1072	1.8372	0.90909	0.	-656.62
1073	1.8372	0.72727	0.	-505.08
1074	1.8372	0.54545	0.	-349.54
1075	1.8372	0.36364	0.	-193.37
1076	1.8372	0.18182	0.	-35.834
1077	1.6535	5.8182	0.	-30.734
1078	1.6535	5.6364	0.	-204.44
1079	1.6535	5.4545	0.	-378.77
1080	1.6535	5.2727	0.	-552.16
1081	1.6535	5.0909	0.	-719.96
1082	1.6535	4.9091	0.	-877.31
1083	1.6535	4.7273	0.	-1020.7
1084	1.6535	4.5455	0.	-1148.2
1085	1.6535	4.3636	0.	-1258.9
1086	1.6535	4.1818	0.	-1353.
1087	1.6535	4.	0.	-1431.1
1088	1.6535	3.8182	0.	-1494.3
1089	1.6535	3.6364	0.	-1543.4
1090	1.6535	3.4545	0.	-1579.3
1091	1.6535	3.2727	0.	-1602.9
1092	1.6535	3.0909	0.	-1614.5
1093	1.6535	2.9091	0.	-1614.5
1094	1.6535	2.7273	0.	-1602.9
1095	1.6535	2.5455	0.	-1579.3
1096	1.6535	2.3636	0.	-1543.4
1097	1.6535	2.1818	0.	-1494.3
1098	1.6535	2.	0.	-1431.1
1099	1.6535	1.8182	0.	-1353.
1100	1.6535	1.6364	0.	-1258.9
1101	1.6535	1.4545	0.	-1148.2
1102	1.6535	1.2727	0.	-1020.7
1103	1.6535	1.0909	0.	-877.31
1104	1.6535	0.90909	0.	-719.96
1105	1.6535	0.72727	0.	-552.16
1106	1.6535	0.54545	0.	-378.77
1107	1.6535	0.36364	0.	-204.44
1108	1.6535	0.18182	0.	-30.735
1109	1.4698	5.8182	0.	-25.467
1110	1.4698	5.6364	0.	-217.34
1111	1.4698	5.4545	0.	-413.7
1112	1.4698	5.2727	0.	-608.35
1113	1.4698	5.0909	0.	-794.71
1114	1.4698	4.9091	0.	-966.72
1115	1.4698	4.7273	0.	-1120.6
1116	1.4698	4.5455	0.	-1254.8
1117	1.4698	4.3636	0.	-1369.1
1118	1.4698	4.1818	0.	-1464.6
1119	1.4698	4.	0.	-1542.8
1120	1.4698	3.8182	0.	-1605.1
1121	1.4698	3.6364	0.	-1653.1
1122	1.4698	3.4545	0.	-1688.
1123	1.4698	3.2727	0.	-1710.7
1124	1.4698	3.0909	0.	-1721.9
1125	1.4698	2.9091	0.	-1721.9
1126	1.4698	2.7273	0.	-1710.7
1127	1.4698	2.5455	0.	-1688.
1128	1.4698	2.3636	0.	-1653.1
1129	1.4698	2.1818	0.	-1605.1
1130	1.4698	2.	0.	-1542.8
1131	1.4698	1.8182	0.	-1464.6
1132	1.4698	1.6364	0.	-1369.1
1133	1.4698	1.4545	0.	-1254.8
1134	1.4698	1.2727	0.	-1120.6
1135	1.4698	1.0909	0.	-966.72
1136	1.4698	0.90909	0.	-794.71
1137	1.4698	0.72727	0.	-608.35
1138	1.4698	0.54545	0.	-413.7
1139	1.4698	0.36364	0.	-217.34
1140	1.4698	0.18182	0.	-25.467
1141	1.286	5.8182	0.	-20.733
1142	1.286	5.6364	0.	-233.24
1143	1.286	5.4545	0.	-457.04
1144	1.286	5.2727	0.	-677.3
1145	1.286	5.0909	0.	-884.64
1146	1.286	4.9091	0.	-1071.7
1147	1.286	4.7273	0.	-1235.
1148	1.286	4.5455	0.	-1373.8
1149	1.286	4.3636	0.	-1489.5
1150	1.286	4.1818	0.	-1584.3
1151	1.286	4.	0.	-1660.5
1152	1.286	3.8182	0.	-1720.5
1153	1.286	3.6364	0.	-1766.3
1154	1.286	3.4545	0.	-1799.2
1155	1.286	3.2727	0.	-1820.6
1156	1.286	3.0909	0.	-1831.1
1157	1.286	2.9091	0.	-1831.1
1158	1.286	2.7273	0.	-1820.6
1159	1.286	2.5455	0.	-1799.2
1160	1.286	2.3636	0.	-1766.3
1161	1.286	2.1818	0.	-1720.5
1162	1.286	2.	0.	-1660.5
1163	1.286	1.8182	0.	-1584.3
1164	1.286	1.6364	0.	-1489.5
1165	1.286	1.4545	0.	-1373.8
1166	1.286	1.2727	0.	-1235.
1167	1.286	1.0909	0.	-1071.7
1168	1.286	0.90909	0.	-884.64
1169	1.286	0.72727	0.	-677.3
1170	1.286	0.54545	0.	-457.04
1171	1.286	0.36364	0.	-233.24
1172	1.286	0.18182	0.	-20.733
1173	1.1023	5.8182	0.	-17.578
1174	1.1023	5.6364	0.	-254.84
1175	1.1023	5.4545	0.	-513.99
1176	1.1023	5.2727	0.	-765.36
1177	1.1023	5.0909	0.	-995.72
1178	1.1023	4.9091	0.	-1196.9
1179	1.1023	4.7273	0.	-1366.8
1180	1.1023	4.5455	0.	-1507.
1181	1.1023	4.3636	0.	-1620.8
1182	1.1023	4.1818	0.	-1712.
1183	1.1023	4.	0.	-1784.2
1184	1.1023	3.8182	0.	-1840.2
1185	1.1023	3.6364	0.	-1882.4
1186	1.1023	3.4545	0.	-1912.7
1187	1.1023	3.2727	0.	-1932.2
1188	1.1023	3.0909	0.	-1941.8
1189	1.1023	2.9091	0.	-1941.8
1190	1.1023	2.7273	0.	-1932.2
1191	1.1023	2.5455	0.	-1912.7
1192	1.1023	2.3636	0.	-1882.4
1193	1.1023	2.1818	0.	-1840.2
1194	1.1023	2.	0.	-1784.2
1195	1.1023	1.8182	0.	-1712.
1196	1.1023	1.6364	0.	-1620.8
1197	1.1023	1.4545	0.	-1507.
1198	1.1023	1.2727	0.	-1366.8
1199	1.1023	1.0909	0.	-1196.9
1200	1.1023	0.90909	0.	-995.72
1201	1.1023	0.72727	0.	-765.36
1202	1.1023	0.54545	0.	-513.99
1203	1.1023	0.36364	0.	-254.84
1204	1.1023	0.18182	0.	-17.578
1205	0.9186	5.8182	0.	-14.43
1206	0.9186	5.6364	0.	-285.01
1207	0.9186	5.4545	0.	-590.5
1208	0.9186	5.2727	0.	-878.86
1209	0.9186	5.0909	0.	-1132.2
1210	0.9186	4.9091	0.	-1343.6
1211	0.9186	4.7273	0.	-1514.8
1212	0.9186	4.5455	0.	-1651.2
1213	0.9186	4.3636	0.	-1758.8
1214	0.9186	4.1818	0.	-1843.2
1215	0.9186	4.	0.	-1908.9
1216	0.9186	3.8182	0.	-1959.3
1217	0.9186	3.6364	0.	-1997.1
1218	0.9186	3.4545	0.	-2023.9
1219	0.9186	3.2727	0.	-2041.1
1220	0.9186	3.0909	0.	-2049.6
1221	0.9186	2.9091	0.	-2049.6
1222	0.9186	2.7273	0.	-2041.1
1223	0.9186	2.5455	0.	-2023.9
1224	0.9186	2.3636	0.	-1997.1
1225	0.9186	2.1818	0.	-1959.3
1226	0.9186	2.	0.	-1908.9
1227	0.9186	1.8182	0.	-1843.2
1228	0.9186	1.6364	0.	-1758.8
1229	0.9186	1.4545	0.	-1651.2
1230	0.9186	1.2727	0.	-1514.8
1231	0.9186	1.0909	0.	-1343.6
1232	0.9186	0.90909	0.	-1132.2
1233	0.9186	0.72727	0.	-878.86
1234	0.9186	0.54545	0.	-590.5
1235	0.9186	0.36364	0.	-285.01
1236	0.9186	0.18182	0.	-14.43
1237	0.73488	5.8182	0.	-18.536
1238	0.73488	5.6364	0.	-339.
1239	0.73488	5.4545	0.	-709.28
1240	0.73488	5.2727	0.	-1040.
1241	0.73488	5.0909	0.	-1311.7
1242	0.73488	4.9091	0.	-1525.
1243	0.73488	4.7273	0.	-1689.3
1244	0.73488	4.5455	0.	-1815.4
1245	0.73488	4.3636	0.	-1912.4
1246	0.73488	4.1818	0.	-1987.1
1247	0.73488	4.	0.	-2044.5
1248	0.73488	3.8182	0.	-2088.2
1249	0.73488	3.6364	0.	-2120.7
1250	0.73488	3.4545	0.	-2143.8
1251	0.73488	3.2727	0.	-2158.6
1252	0.73488	3.0909	0.	-2165.8
1253	0.73488	2.9091	0.	-2165.8
1254	0.73488	2.7273	0.	-2158.6
1255	0.73488	2.5455	0.	-2143.8
1256	0.73488	2.3636	0.	-2120.7
1257	0.73488	2.1818	0.	-2088.2
1258	0.73488	2.	0.	-2044.5
1259	0.73488	1.8182	0.	-1987.1
1260	0.73488	1.6364	0.	-1912.4
1261	0.73488	1.4545	0.	-1815.4
1262	0.73488	1.2727	0.	-1689.3
1263	0.73488	1.0909	0.	-1525.
1264	0.73488	0.90909	0.	-1311.7
1265	0.73488	0.72727	0.	-1040.
1266	0.73488	0.54545	0.	-709.28
1267	0.73488	0.36364	0.	-339.
1268	0.73488	0.18182	0.	-18.536
1269	0.55116	5.8182	0.	-0.86653
1270	0.55116	5.6364	0.	-413.91
1271	0.55116	5.4545	0.	-862.94
1272	0.55116	5.2727	0.	-1226.4
1273	0.55116	5.0909	0.	-1497.5
1274	0.55116	4.9091	0.	-1695.3
1275	0.55116	4.7273	0.	-1840.4
1276	0.55116	4.5455	0.	-1948.5
1277	0.55116	4.3636	0.	-2030.2
1278	0.55116	4.1818	0.	-2092.4
1279	0.55116	4.	0.	-2140.1
1280	0.55116	3.8182	0.	-2176.2
1281	0.55116	3.6364	0.	-2203.1
1282	0.55116	3.4545	0.	-2222.2
1283	0.55116	3.2727	0.	-2234.4
1284	0.55116	3.0909	0.	-2240.4
1285	0.55116	2.9091	0.	-2240.4
1286	0.55116	2.7273	0.	-2234.4
1287	0.55116	2.5455	0.	-2222.2
1288	0.55116	2.3636	0.	-2203.1
1289	0.55116	2.1818	0.	-2176.2
1290	0.55116	2.	0.	-2140.1
1291	0.55116	1.8182	0.	-2092.4
1292	0.55116	1.6364	0.	-2030.2
1293	0.55116	1.4545	0.	-1948.5
1294	0.55116	1.2727	0.	-1840.4
1295	0.55116	1.0909	0.	-1695.3
1296	0.55116	0.90909	0.	-1497.5
1297	0.55116	0.72727	0.	-1226.4
1298	0.55116	0.54545	0.	-862.94
1299	0.55116	0.36364	0.	-413.91
1300	0.55116	0.18182	0.	-0.86654
1301	0.36744	5.8182	0.	-82.066
1302	0.36744	5.6364	0.	-662.32
1303	0.36744	5.4545	0.	-1221.9
1304	0.36744	5.2727	0.	-1595.1
1305	0.36744	5.0909	0.	-1842.8
1306	0.36744	4.9091	0.	-2012.6
1307	0.36744	4.7273	0.	-2134.
1308	0.36744	4.5455	0.	-2223.5
1309	0.36744	4.3636	0.	-2291.
1310	0.36744	4.1818	0.	-2342.6
1311	0.36744	4.	0.	-2382.3
1312	0.36744	3.8182	0.	-2412.4
1313	0.36744	3.6364	0.	-2434.9
1314	0.36744	3.4545	0.	-2450.9
1315	0.36744	3.2727	0.	-2461.1
1316	0.36744	3.0909	0.	-2466.1
1317	0.36744	2.9091	0.	-2466.1
1318	0.36744	2.7273	0.	-2461.1
1319	0.36744	2.5455	0.	-2450.9
1320	0.36744	2.3636	0.	-2434.9
1321	0.36744	2.1818	0.	-2412.4
1322	0.36744	2.	0.	-2382.3
1323	0.36744	1.8182	0.	-2342.6
1324	0.36744	1.6364	0.	-2291.
1325	0.36744	1.4545	0.	-2223.5
1326	0.36744	1.2727	0.	-2134.
1327	0.36744	1.0909	0.	-2012.6
1328	0.36744	0.90909	0.	-1842.8
1329	0.36744	0.72727	0.	-1595.1
1330	0.36744	0.54545	0.	-1221.9
1331	0.36744	0.36364	0.	-662.32
1332	0.36744	0.18182	0.	-82.066
1333	0.18372	5.8182	0.	-0.89079
1334	0.18372	5.6364	0.	-823.5
1335	0.18372	5.4545	0.	-1259.6
1336	0.18372	5.2727	0.	-1509.3
1337	0.18372	5.0909	0.	-1666.6
1338	0.18372	4.9091	0.	-1775.
1339	0.18372	4.7273	0.	-1853.7
1340	0.18372	4.5455	0.	-1912.7
1341	0.18372	4.3636	0.	-1957.8
1342	0.18372	4.1818	0.	-1992.6
1343	0.18372	4.	0.	-2019.5
1344	0.18372	3.8182	0.	-2040.2
1345	0.18372	3.6364	0.	-2055.6
1346	0.18372	3.4545	0.	-2066.6
1347	0.18372	3.2727	0.	-2073.6
1348	0.18372	3.0909	0.	-2077.1
1349	0.18372	2.9091	0.	-2077.1
1350	0.18372	2.7273	0.	-2073.6
1351	0.18372	2.5455	0.	-2066.6
1352	0.18372	2.3636	0.	-2055.6
1353	0.18372	2.1818	0.	-2040.2
1354	0.18372	2.	0.	-2019.5
1355	0.18372	1.8182	0.	-1992.6
1356	0.18372	1.6364	0.	-1957.8
1357	0.18372	1.4545	0.	-1912.7
1358	0.18372	1.2727	0.	-1853.7
1359	0.18372	1.0909	0.	-1775.
1360	0.18372	0.90909	0.	-1666.6
1361	0.18372	0.72727	0.	-1509.3
1362	0.18372	0.54545	0.	-1259.6
1363	0.18372	0.36364	0.	-823.5
1364	0.18372	0.18182	0.	-0.89088
1365	8.2498	5.8182	0.	-21.888
1366	8.433	5.8182	0.	-7.1966
1367	8.6161	5.8182	0.	-3.4319
1368	8.7992	5.8182	0.	-1.0734
1369	8.9824	5.8182	0.	-0.29724
1370	9.1655	5.8182	0.	3.067e-002
1371	9.3487	5.8182	0.	0.11861
1372	9.5318	5.8182	0.	0.12404
1373	9.7149	5.8182	0.	0.10017
1374	9.8981	5.8182	0.	7.2697e-002
1375	10.081	5.8182	0.	4.97e-002
1376	10.264	5.8182	0.	3.292e-002
1377	10.448	5.8182	0.	2.1274e-002
1378	10.631	5.8182	0.	1.2943e-002
1379	10.814	5.8182	0.	6.1044e-003
1380	10.997	5.8182	0.	-8.5048e-004
1381	11.18	5.8182	0.	-9.2759e-003
1382	11.363	5.8182	0.	-2.0135e-002
1383	11.546	5.8182	0.	-3.3739e-002
1384	11.73	5.8182	0.	-4.9229e-002
1385	11.913	5.8182	0.	-6.3919e-002
1386	12.096	5.8182	0.	-7.405e-002
1387	12.279	5.8182	0.	-7.7065e-002
1388	12.462	5.8182	0.	-7.3301e-002
1389	12.645	5.8182	0.	-6.5255e-002
1390	12.828	5.8182	0.	-5.5651e-002
1391	13.011	5.8182	0.	-4.6373e-002
1392	13.195	5.8182	0.	-3.8238e-002
1393	13.378	5.8182	0.	-3.1434e-002
1394	13.561	5.8182	0.	-2.5898e-002
1395	13.744	5.8182	0.	-2.1419e-002
1396	13.927	5.8182	0.	-1.782e-002
1397	14.11	5.8182	0.	-1.494e-002
1398	14.293	5.8182	0.	-1.2583e-002
1399	14.477	5.8182	0.	-1.0651e-002
1400	14.66	5.8182	0.	-9.0688e-003
1401	14.843	5.8182	0.	-7.7554e-003
1402	15.026	5.8182	0.	-6.6485e-003
1403	15.209	5.8182	0.	-5.7177e-003
1404	15.392	5.8182	0.	-4.9442e-003
1405	15.575	5.8182	0.	-4.2628e-003
1406	15.759	5.8182	0.	-3.6665e-003
1407	15.942	5.8182	0.	-3.1551e-003
1408	16.125	5.8182	0.	-2.7045e-003
1409	16.308	5.8182	0.	-2.3034e-003
1410	16.491	5.8182	0.	-1.9559e-003
1411	16.674	5.8182	0.	-1.6391e-003
1412	16.857	5.8182	0.	-1.3388e-003
1413	17.041	5.8182	0.	-1.0824e-003
1414	17.224	5.8182	0.	-8.58e-004
1415	17.407	5.8182	0.	-6.4492e-004
1416	17.59	5.8182	0.	-4.5586e-004
1417	17.773	5.8182	0.	-2.9269e-004
1418	17.956	5.8182	0.	-1.4524e-004
1419	18.139	5.8182	0.	-4.7868e-006
1420	18.323	5.8182	0.	1.0086e-004
1421	18.506	5.8182	0.	1.7925e-004
1422	18.689	5.8182	0.	2.4209e-004
1423	18.872	5.8182	0.	2.7089e-004
1424	19.055	5.8182	0.	2.7713e-004
1425	19.238	5.8182	0.	2.4109e-004
1426	19.421	5.8182	0.	1.5223e-004
1427	19.605	5.8182	0.	2.3354e-005
1428	19.788	5.8182	0.	-1.6066e-004
1429	19.971	5.8182	0.	-4.2366e-004
1430	20.154	5.8182	0.	-7.6845e-004
1431	20.337	5.8182	0.	-1.2123e-003
1432	20.52	5.8182	0.	-1.7836e-003
1433	20.703	5.8182	0.	-2.5082e-003
1434	20.887	5.8182	0.	-3.4044e-003
1435	21.07	5.8182	0.	-4.5183e-003
1436	21.253	5.8182	0.	-5.9026e-003
1437	21.436	5.8182	0.	-7.6154e-003
1438	21.619	5.8182	0.	-9.7298e-003
1439	21.802	5.8182	0.	-1.2359e-002
1440	21.985	5.8182	0.	-1.5623e-002
1441	22.169	5.8182	0.	-1.9695e-002
1442	22.352	5.8182	0.	-2.4825e-002
1443	22.535	5.8182	0.	-3.1312e-002
1444	22.718	5.8182	0.	-3.9703e-002
1445	22.901	5.8182	0.	-5.0276e-002
1446	23.084	5.8182	0.	-6.5502e-002
1447	23.267	5.8182	0.	-8.1031e-002
1448	23.451	5.8182	0.	-0.12072
1449	23.634	5.8182	0.	-0.11049
1450	23.817	5.8182	0.	-0.50415
1451	8.2498	5.6364	0.	-10.775
1452	8.433	5.6364	0.	-4.9953
1453	8.6161	5.6364	0.	-3.6318
1454	8.7992	5.6364	0.	-1.7057
1455	8.9824	5.6364	0.	-0.99648
1456	9.1655	5.6364	0.	-0.62452
1457	9.3487	5.6364	0.	-0.44814
1458	9.5318	5.6364	0.	-0.34293
1459	9.7149	5.6364	0.	-0.27313
1460	9.8981	5.6364	0.	-0.22067
1461	10.081	5.6364	0.	-0.17919
1462	10.264	5.6364	0.	-0.14581
1463	10.448	5.6364	0.	-0.11949
1464	10.631	5.6364	0.	-0.10004
1465	10.814	5.6364	0.	-8.816e-002
1466	10.997	5.6364	0.	-8.6652e-002
1467	11.18	5.6364	0.	-0.10601
1468	11.363	5.6364	0.	-0.20836
1469	11.546	5.6364	0.	-1.0261
1470	11.73	5.6364	0.	-2.5334
1471	11.913	5.6364	0.	-3.6401
1472	12.096	5.6364	0.	-4.304
1473	12.279	5.6364	0.	-4.5912
1474	12.462	5.6364	0.	-4.57
1475	12.645	5.6364	0.	-4.3013
1476	12.828	5.6364	0.	-3.8377
1477	13.011	5.6364	0.	-3.2239
1478	13.195	5.6364	0.	-2.4973
1479	13.378	5.6364	0.	-1.6889
1480	13.561	5.6364	0.	-0.82647
1481	13.744	5.6364	0.	-4.1396e-002
1482	13.927	5.6364	0.	1.2209e-002
1483	14.11	5.6364	0.	1.3918e-002
1484	14.293	5.6364	0.	1.3157e-002
1485	14.477	5.6364	0.	1.1812e-002
1486	14.66	5.6364	0.	1.0272e-002
1487	14.843	5.6364	0.	8.6872e-003
1488	15.026	5.6364	0.	7.1237e-003
1489	15.209	5.6364	0.	5.593e-003
1490	15.392	5.6364	0.	4.0882e-003
1491	15.575	5.6364	0.	2.6607e-003
1492	15.759	5.6364	0.	1.2933e-003
1493	15.942	5.6364	0.	-3.2752e-005
1494	16.125	5.6364	0.	-1.307e-003
1495	16.308	5.6364	0.	-2.5337e-003
1496	16.491	5.6364	0.	-3.73e-003
1497	16.674	5.6364	0.	-4.887e-003
1498	16.857	5.6364	0.	-5.9955e-003
1499	17.041	5.6364	0.	-7.1038e-003
1500	17.224	5.6364	0.	-8.1928e-003
1501	17.407	5.6364	0.	-9.2695e-003
1502	17.59	5.6364	0.	-1.0342e-002
1503	17.773	5.6364	0.	-1.1424e-002
1504	17.956	5.6364	0.	-1.2511e-002
1505	18.139	5.6364	0.	-1.3601e-002
1506	18.323	5.6364	0.	-1.4729e-002
1507	18.506	5.6364	0.	-1.5891e-002
1508	18.689	5.6364	0.	-1.7088e-002
1509	18.872	5.6364	0.	-1.8334e-002
1510	19.055	5.6364	0.	-1.9633e-002
1511	19.238	5.6364	0.	-2.0994e-002
1512	19.421	5.6364	0.	-2.2444e-002
1513	19.605	5.6364	0.	-2.3969e-002
1514	19.788	5.6364	0.	-2.5584e-002
1515	19.971	5.6364	0.	-2.7314e-002
1516	20.154	5.6364	0.	-2.9164e-002
1517	20.337	5.6364	0.	-3.1144e-002
1518	20.52	5.6364	0.	-3.3274e-002
1519	20.703	5.6364	0.	-3.558e-002
1520	20.887	5.6364	0.	-3.8063e-002
1521	21.07	5.6364	0.	-4.0743e-002
1522	21.253	5.6364	0.	-4.3652e-002
1523	21.436	5.6364	0.	-4.6804e-002
1524	21.619	5.6364	0.	-5.0225e-002
1525	21.802	5.6364	0.	-5.3932e-002
1526	21.985	5.6364	0.	-5.7948e-002
1527	22.169	5.6364	0.	-6.2269e-002
1528	22.352	5.6364	0.	-6.6901e-002
1529	22.535	5.6364	0.	-7.1748e-002
1530	22.718	5.6364	0.	-7.6793e-002
1531	22.901	5.6364	0.	-8.1179e-002
1532	23.084	5.6364	0.	-8.6131e-002
1533	23.267	5.6364	0.	-8.2208e-002
1534	23.451	5.6364	0.	-9.5034e-002
1535	23.634	5.6364	0.	4.1236e-003
1536	23.817	5.6364	0.	-0.28117
1537	8.2498	5.4545	0.	-8.179
1538	8.433	5.4545	0.	-2.8373
1539	8.6161	5.4545	0.	-3.1792
1540	8.7992	5.4545	0.	-1.9426
1541	8.9824	5.4545	0.	-1.3335
1542	9.1655	5.4545	0.	-0.8949
1543	9.3487	5.4545	0.	-0.63581
1544	9.5318	5.4545	0.	-0.46553
1545	9.7149	5.4545	0.	-0.35401
1546	9.8981	5.4545	0.	-0.27945
1547	10.081	5.4545	0.	-0.23085
1548	10.264	5.4545	0.	-0.20189
1549	10.448	5.4545	0.	-0.19065
1550	10.631	5.4545	0.	-0.20109
1551	10.814	5.4545	0.	-0.25453
1552	10.997	5.4545	0.	-0.4836
1553	11.18	5.4545	0.	-2.2193
1554	11.363	5.4545	0.	-5.5182
1555	11.546	5.4545	0.	-8.1857
1556	11.73	5.4545	0.	-10.083
1557	11.913	5.4545	0.	-11.303
1558	12.096	5.4545	0.	-11.953
1559	12.279	5.4545	0.	-12.135
1560	12.462	5.4545	0.	-11.939
1561	12.645	5.4545	0.	-11.442
1562	12.828	5.4545	0.	-10.711
1563	13.011	5.4545	0.	-9.8024
1564	13.195	5.4545	0.	-8.7634
1565	13.378	5.4545	0.	-7.6321
1566	13.561	5.4545	0.	-6.4402
1567	13.744	5.4545	0.	-5.2126
1568	13.927	5.4545	0.	-3.9694
1569	14.11	5.4545	0.	-2.7263
1570	14.293	5.4545	0.	-1.4954
1571	14.477	5.4545	0.	-0.29173
1572	14.66	5.4545	0.	-1.06e-004
1573	14.843	5.4545	0.	9.4542e-004
1574	15.026	5.4545	0.	7.9623e-004
1575	15.209	5.4545	0.	4.3725e-004
1576	15.392	5.4545	0.	6.2381e-006
1577	15.575	5.4545	0.	-4.0959e-004
1578	15.759	5.4545	0.	-8.1038e-004
1579	15.942	5.4545	0.	-1.2064e-003
1580	16.125	5.4545	0.	-1.5846e-003
1581	16.308	5.4545	0.	-1.9455e-003
1582	16.491	5.4545	0.	-2.2997e-003
1583	16.674	5.4545	0.	-2.636e-003
1584	16.857	5.4545	0.	-2.9442e-003
1585	17.041	5.4545	0.	-3.261e-003
1586	17.224	5.4545	0.	-3.5735e-003
1587	17.407	5.4545	0.	-3.8743e-003
1588	17.59	5.4545	0.	-4.169e-003
1589	17.773	5.4545	0.	-4.4704e-003
1590	17.956	5.4545	0.	-4.7653e-003
1591	18.139	5.4545	0.	-5.048e-003
1592	18.323	5.4545	0.	-5.3477e-003
1593	18.506	5.4545	0.	-5.6568e-003
1594	18.689	5.4545	0.	-5.9617e-003
1595	18.872	5.4545	0.	-6.2795e-003
1596	19.055	5.4545	0.	-6.5972e-003
1597	19.238	5.4545	0.	-6.931e-003
1598	19.421	5.4545	0.	-7.285e-003
1599	19.605	5.4545	0.	-7.6402e-003
1600	19.788	5.4545	0.	-8.0016e-003
1601	19.971	5.4545	0.	-8.3839e-003
1602	20.154	5.4545	0.	-8.7736e-003
1603	20.337	5.4545	0.	-9.1713e-003
1604	20.52	5.4545	0.	-9.5753e-003
1605	20.703	5.4545	0.	-9.9896e-003
1606	20.887	5.4545	0.	-1.0389e-002
1607	21.07	5.4545	0.	-1.0772e-002
1608	21.253	5.4545	0.	-1.1123e-002
1609	21.436	5.4545	0.	-1.1415e-002
1610	21.619	5.4545	0.	-1.1615e-002
1611	21.802	5.4545	0.	-1.1675e-002
1612	21.985	5.4545	0.	-1.1513e-002
1613	22.169	5.4545	0.	-1.1007e-002
1614	22.352	5.4545	0.	-9.9948e-003
1615	22.535	5.4545	0.	-8.1477e-003
1616	22.718	5.4545	0.	-5.133e-003
1617	22.901	5.4545	0.	4.0527e-004
1618	23.084	5.4545	0.	7.6953e-003
1619	23.267	5.4545	0.	2.8589e-002
1620	23.451	5.4545	0.	3.2376e-002
1621	23.634	5.4545	0.	0.18281
1622	23.817	5.4545	0.	-2.8964e-002
1623	8.2498	5.2727	0.	-7.261
1624	8.433	5.2727	0.	-1.5805
1625	8.6161	5.2727	0.	-2.7954
1626	8.7992	5.2727	0.	-2.0228
1627	8.9824	5.2727	0.	-1.6575
1628	9.1655	5.2727	0.	-1.2859
1629	9.3487	5.2727	0.	-1.0214
1630	9.5318	5.2727	0.	-0.82405
1631	9.7149	5.2727	0.	-0.68567
1632	9.8981	5.2727	0.	-0.59374
1633	10.081	5.2727	0.	-0.54417
1634	10.264	5.2727	0.	-0.54268
1635	10.448	5.2727	0.	-0.6239
1636	10.631	5.2727	0.	-0.96737
1637	10.814	5.2727	0.	-2.9613
1638	10.997	5.2727	0.	-7.8248
1639	11.18	5.2727	0.	-12.314
1640	11.363	5.2727	0.	-15.763
1641	11.546	5.2727	0.	-18.223
1642	11.73	5.2727	0.	-19.82
1643	11.913	5.2727	0.	-20.687
1644	12.096	5.2727	0.	-20.95
1645	12.279	5.2727	0.	-20.721
1646	12.462	5.2727	0.	-20.1
1647	12.645	5.2727	0.	-19.172
1648	12.828	5.2727	0.	-18.009
1649	13.011	5.2727	0.	-16.673
1650	13.195	5.2727	0.	-15.216
1651	13.378	5.2727	0.	-13.678
1652	13.561	5.2727	0.	-12.094
1653	13.744	5.2727	0.	-10.49
1654	13.927	5.2727	0.	-8.8868
1655	14.11	5.2727	0.	-7.3013
1656	14.293	5.2727	0.	-5.7452
1657	14.477	5.2727	0.	-4.2273
1658	14.66	5.2727	0.	-2.7542
1659	14.843	5.2727	0.	-1.3322
1660	15.026	5.2727	0.	-9.2227e-002
1661	15.209	5.2727	0.	-7.9309e-003
1662	15.392	5.2727	0.	-3.5854e-003
1663	15.575	5.2727	0.	-2.3557e-003
1664	15.759	5.2727	0.	-1.9155e-003
1665	15.942	5.2727	0.	-1.7872e-003
1666	16.125	5.2727	0.	-1.8012e-003
1667	16.308	5.2727	0.	-1.8872e-003
1668	16.491	5.2727	0.	-2.0201e-003
1669	16.674	5.2727	0.	-2.1702e-003
1670	16.857	5.2727	0.	-2.3176e-003
1671	17.041	5.2727	0.	-2.4893e-003
1672	17.224	5.2727	0.	-2.6652e-003
1673	17.407	5.2727	0.	-2.8372e-003
1674	17.59	5.2727	0.	-3.0098e-003
1675	17.773	5.2727	0.	-3.1861e-003
1676	17.956	5.2727	0.	-3.3596e-003
1677	18.139	5.2727	0.	-3.5188e-003
1678	18.323	5.2727	0.	-3.69e-003
1679	18.506	5.2727	0.	-3.8622e-003
1680	18.689	5.2727	0.	-4.0279e-003
1681	18.872	5.2727	0.	-4.1946e-003
1682	19.055	5.2727	0.	-4.355e-003
1683	19.238	5.2727	0.	-4.5132e-003
1684	19.421	5.2727	0.	-4.6768e-003
1685	19.605	5.2727	0.	-4.8269e-003
1686	19.788	5.2727	0.	-4.963e-003
1687	19.971	5.2727	0.	-5.0939e-003
1688	20.154	5.2727	0.	-5.206e-003
1689	20.337	5.2727	0.	-5.2958e-003
1690	20.52	5.2727	0.	-5.3536e-003
1691	20.703	5.2727	0.	-5.3781e-003
1692	20.887	5.2727	0.	-5.3357e-003
1693	21.07	5.2727	0.	-5.2168e-003
1694	21.253	5.2727	0.	-4.9954e-003
1695	21.436	5.2727	0.	-4.6315e-003
1696	21.619	5.2727	0.	-4.0701e-003
1697	21.802	5.2727	0.	-3.2403e-003
1698	21.985	5.2727	0.	-2.0431e-003
1699	22.169	5.2727	0.	-3.2285e-004
1700	22.352	5.2727	0.	2.1386e-003
1701	22.535	5.2727	0.	5.7015e-003
1702	22.718	5.2727	0.	1.0756e-002
1703	22.901	5.2727	0.	1.876e-002
1704	23.084	5.2727	0.	2.8887e-002
1705	23.267	5.2727	0.	5.3388e-002
1706	23.451	5.2727	0.	6.2656e-002
1707	23.634	5.2727	0.	0.21993
1708	23.817	5.2727	0.	2.5784e-002
1709	8.2498	5.0909	0.	-7.2605
1710	8.433	5.0909	0.	-1.1379
1711	8.6161	5.0909	0.	-2.7281
1712	8.7992	5.0909	0.	-2.148
1713	8.9824	5.0909	0.	-1.9565
1714	9.1655	5.0909	0.	-1.6813
1715	9.3487	5.0909	0.	-1.4843
1716	9.5318	5.0909	0.	-1.3377
1717	9.7149	5.0909	0.	-1.2595
1718	9.8981	5.0909	0.	-1.2712
1719	10.081	5.0909	0.	-1.4513
1720	10.264	5.0909	0.	-2.1338
1721	10.448	5.0909	0.	-5.0698
1722	10.631	5.0909	0.	-11.461
1723	10.814	5.0909	0.	-17.732
1724	10.997	5.0909	0.	-22.77
1725	11.18	5.0909	0.	-26.54
1726	11.363	5.0909	0.	-29.169
1727	11.546	5.0909	0.	-30.807
1728	11.73	5.0909	0.	-31.605
1729	11.913	5.0909	0.	-31.706
1730	12.096	5.0909	0.	-31.238
1731	12.279	5.0909	0.	-30.314
1732	12.462	5.0909	0.	-29.033
1733	12.645	5.0909	0.	-27.483
1734	12.828	5.0909	0.	-25.733
1735	13.011	5.0909	0.	-23.846
1736	13.195	5.0909	0.	-21.87
1737	13.378	5.0909	0.	-19.847
1738	13.561	5.0909	0.	-17.808
1739	13.744	5.0909	0.	-15.779
1740	13.927	5.0909	0.	-13.779
1741	14.11	5.0909	0.	-11.822
1742	14.293	5.0909	0.	-9.9203
1743	14.477	5.0909	0.	-8.0795
1744	14.66	5.0909	0.	-6.3044
1745	14.843	5.0909	0.	-4.5973
1746	15.026	5.0909	0.	-2.9595
1747	15.209	5.0909	0.	-1.3943
1748	15.392	5.0909	0.	-9.7836e-002
1749	15.575	5.0909	0.	-1.215e-002
1750	15.759	5.0909	0.	-5.6651e-003
1751	15.942	5.0909	0.	-3.4985e-003
1752	16.125	5.0909	0.	-2.4708e-003
1753	16.308	5.0909	0.	-1.902e-003
1754	16.491	5.0909	0.	-1.5677e-003
1755	16.674	5.0909	0.	-1.3523e-003
1756	16.857	5.0909	0.	-1.1911e-003
1757	17.041	5.0909	0.	-1.0934e-003
1758	17.224	5.0909	0.	-1.0278e-003
1759	17.407	5.0909	0.	-9.713e-004
1760	17.59	5.0909	0.	-9.2569e-004
1761	17.773	5.0909	0.	-8.9258e-004
1762	17.956	5.0909	0.	-8.5689e-004
1763	18.139	5.0909	0.	-8.067e-004
1764	18.323	5.0909	0.	-7.6527e-004
1765	18.506	5.0909	0.	-7.2164e-004
1766	18.689	5.0909	0.	-6.647e-004
1767	18.872	5.0909	0.	-5.9557e-004
1768	19.055	5.0909	0.	-5.1143e-004
1769	19.238	5.0909	0.	-4.1261e-004
1770	19.421	5.0909	0.	-3.0554e-004
1771	19.605	5.0909	0.	-1.6353e-004
1772	19.788	5.0909	0.	1.0259e-005
1773	19.971	5.0909	0.	2.1447e-004
1774	20.154	5.0909	0.	4.6168e-004
1775	20.337	5.0909	0.	7.6674e-004
1776	20.52	5.0909	0.	1.1344e-003
1777	20.703	5.0909	0.	1.5762e-003
1778	20.887	5.0909	0.	2.1292e-003
1779	21.07	5.0909	0.	2.811e-003
1780	21.253	5.0909	0.	3.6549e-003
1781	21.436	5.0909	0.	4.7116e-003
1782	21.619	5.0909	0.	6.0424e-003
1783	21.802	5.0909	0.	7.7306e-003
1784	21.985	5.0909	0.	9.8953e-003
1785	22.169	5.0909	0.	1.2714e-002
1786	22.352	5.0909	0.	1.6402e-002
1787	22.535	5.0909	0.	2.1363e-002
1788	22.718	5.0909	0.	2.7991e-002
1789	22.901	5.0909	0.	3.7786e-002
1790	23.084	5.0909	0.	4.9965e-002
1791	23.267	5.0909	0.	7.6985e-002
1792	23.451	5.0909	0.	8.9163e-002
1793	23.634	5.0909	0.	0.25465
1794	23.817	5.0909	0.	7.8178e-002
1795	8.2498	4.9091	0.	-9.1415
1796	8.433	4.9091	0.	-0.83314
1797	8.6161	4.9091	0.	-3.1309
1798	8.7992	4.9091	0.	-2.3677
1799	8.9824	4.9091	0.	-2.3267
1800	9.1655	4.9091	0.	-2.2005
1801	9.3487	4.9091	0.	-2.2222
1802	9.5318	4.9091	0.	-2.4019
1803	9.7149	4.9091	0.	-2.9321
1804	9.8981	4.9091	0.	-4.5655
1805	10.081	4.9091	0.	-9.9255
1806	10.264	4.9091	0.	-18.754
1807	10.448	4.9091	0.	-26.941
1808	10.631	4.9091	0.	-33.478
1809	10.814	4.9091	0.	-38.397
1810	10.997	4.9091	0.	-41.88
1811	11.18	4.9091	0.	-44.122
1812	11.363	4.9091	0.	-45.307
1813	11.546	4.9091	0.	-45.603
1814	11.73	4.9091	0.	-45.166
1815	11.913	4.9091	0.	-44.133
1816	12.096	4.9091	0.	-42.626
1817	12.279	4.9091	0.	-40.753
1818	12.462	4.9091	0.	-38.605
1819	12.645	4.9091	0.	-36.262
1820	12.828	4.9091	0.	-33.788
1821	13.011	4.9091	0.	-31.238
1822	13.195	4.9091	0.	-28.657
1823	13.378	4.9091	0.	-26.078
1824	13.561	4.9091	0.	-23.531
1825	13.744	4.9091	0.	-21.035
1826	13.927	4.9091	0.	-18.607
1827	14.11	4.9091	0.	-16.257
1828	14.293	4.9091	0.	-13.993
1829	14.477	4.9091	0.	-11.818
1830	14.66	4.9091	0.	-9.7343
1831	14.843	4.9091	0.	-7.7419
1832	15.026	4.9091	0.	-5.8387
1833	15.209	4.9091	0.	-4.0222
1834	15.392	4.9091	0.	-2.2905
1835	15.575	4.9091	0.	-0.65987
1836	15.759	4.9091	0.	-2.4447e-002
1837	15.942	4.9091	0.	-7.8717e-003
1838	16.125	4.9091	0.	-3.9138e-003
1839	16.308	4.9091	0.	-2.1716e-003
1840	16.491	4.9091	0.	-1.2082e-003
1841	16.674	4.9091	0.	-5.8948e-004
1842	16.857	4.9091	0.	-1.3905e-004
1843	17.041	4.9091	0.	1.8808e-004
1844	17.224	4.9091	0.	4.4665e-004
1845	17.407	4.9091	0.	6.7178e-004
1846	17.59	4.9091	0.	8.7252e-004
1847	17.773	4.9091	0.	1.055e-003
1848	17.956	4.9091	0.	1.2351e-003
1849	18.139	4.9091	0.	1.4269e-003
1850	18.323	4.9091	0.	1.61e-003
1851	18.506	4.9091	0.	1.7997e-003
1852	18.689	4.9091	0.	2.0055e-003
1853	18.872	4.9091	0.	2.2238e-003
1854	19.055	4.9091	0.	2.4686e-003
1855	19.238	4.9091	0.	2.7355e-003
1856	19.421	4.9091	0.	3.0199e-003
1857	19.605	4.9091	0.	3.3505e-003
1858	19.788	4.9091	0.	3.7226e-003
1859	19.971	4.9091	0.	4.1415e-003
1860	20.154	4.9091	0.	4.6186e-003
1861	20.337	4.9091	0.	5.1688e-003
1862	20.52	4.9091	0.	5.8064e-003
1863	20.703	4.9091	0.	6.538e-003
1864	20.887	4.9091	0.	7.4053e-003
1865	21.07	4.9091	0.	8.4316e-003
1866	21.253	4.9091	0.	9.6521e-003
1867	21.436	4.9091	0.	1.1121e-002
1868	21.619	4.9091	0.	1.2903e-002
1869	21.802	4.9091	0.	1.5092e-002
1870	21.985	4.9091	0.	1.7804e-002
1871	22.169	4.9091	0.	2.1219e-002
1872	22.352	4.9091	0.	2.5567e-002
1873	22.535	4.9091	0.	3.124e-002
1874	22.718	4.9091	0.	3.8646e-002
1875	22.901	4.9091	0.	4.9296e-002
1876	23.084	4.9091	0.	6.2424e-002
1877	23.267	4.9091	0.	9.0743e-002
1878	23.451	4.9091	0.	0.10438
1879	23.634	4.9091	0.	0.27484
1880	23.817	4.9091	0.	0.11099
1881	8.2498	4.7273	0.	-7.8588
1882	8.433	4.7273	0.	-1.2209
1883	8.6161	4.7273	0.	-3.6042
1884	8.7992	4.7273	0.	-2.9004
1885	8.9824	4.7273	0.	-2.8355
1886	9.1655	4.7273	0.	-3.0611
1887	9.3487	4.7273	0.	-3.8737
1888	9.5318	4.7273	0.	-6.4097
1889	9.7149	4.7273	0.	-15.306
1890	9.8981	4.7273	0.	-29.516
1891	10.081	4.7273	0.	-41.459
1892	10.264	4.7273	0.	-50.235
1893	10.448	4.7273	0.	-56.422
1894	10.631	4.7273	0.	-60.567
1895	10.814	4.7273	0.	-63.081
1896	10.997	4.7273	0.	-64.272
1897	11.18	4.7273	0.	-64.385
1898	11.363	4.7273	0.	-63.62
1899	11.546	4.7273	0.	-62.147
1900	11.73	4.7273	0.	-60.111
1901	11.913	4.7273	0.	-57.639
1902	12.096	4.7273	0.	-54.84
1903	12.279	4.7273	0.	-51.808
1904	12.462	4.7273	0.	-48.622
1905	12.645	4.7273	0.	-45.346
1906	12.828	4.7273	0.	-42.036
1907	13.011	4.7273	0.	-38.734
1908	13.195	4.7273	0.	-35.476
1909	13.378	4.7273	0.	-32.289
1910	13.561	4.7273	0.	-29.191
1911	13.744	4.7273	0.	-26.198
1912	13.927	4.7273	0.	-23.319
1913	14.11	4.7273	0.	-20.56
1914	14.293	4.7273	0.	-17.923
1915	14.477	4.7273	0.	-15.409
1916	14.66	4.7273	0.	-13.015
1917	14.843	4.7273	0.	-10.737
1918	15.026	4.7273	0.	-8.5721
1919	15.209	4.7273	0.	-6.5134
1920	15.392	4.7273	0.	-4.5554
1921	15.575	4.7273	0.	-2.6927
1922	15.759	4.7273	0.	-0.93127
1923	15.942	4.7273	0.	-2.9951e-002
1924	16.125	4.7273	0.	-7.397e-003
1925	16.308	4.7273	0.	-2.8399e-003
1926	16.491	4.7273	0.	-8.8299e-004
1927	16.674	4.7273	0.	2.3051e-004
1928	16.857	4.7273	0.	9.8459e-004
1929	17.041	4.7273	0.	1.5263e-003
1930	17.224	4.7273	0.	1.952e-003
1931	17.407	4.7273	0.	2.3227e-003
1932	17.59	4.7273	0.	2.6524e-003
1933	17.773	4.7273	0.	2.9549e-003
1934	17.956	4.7273	0.	3.2492e-003
1935	18.139	4.7273	0.	3.5553e-003
1936	18.323	4.7273	0.	3.8518e-003
1937	18.506	4.7273	0.	4.1549e-003
1938	18.689	4.7273	0.	4.4795e-003
1939	18.872	4.7273	0.	4.8212e-003
1940	19.055	4.7273	0.	5.1935e-003
1941	19.238	4.7273	0.	5.5917e-003
1942	19.421	4.7273	0.	6.0164e-003
1943	19.605	4.7273	0.	6.4943e-003
1944	19.788	4.7273	0.	7.0242e-003
1945	19.971	4.7273	0.	7.6089e-003
1946	20.154	4.7273	0.	8.2629e-003
1947	20.337	4.7273	0.	9.0055e-003
1948	20.52	4.7273	0.	9.8438e-003
1949	20.703	4.7273	0.	1.0797e-002
1950	20.887	4.7273	0.	1.19e-002
1951	21.07	4.7273	0.	1.318e-002
1952	21.253	4.7273	0.	1.4676e-002
1953	21.436	4.7273	0.	1.6439e-002
1954	21.619	4.7273	0.	1.8543e-002
1955	21.802	4.7273	0.	2.1072e-002
1956	21.985	4.7273	0.	2.4152e-002
1957	22.169	4.7273	0.	2.7965e-002
1958	22.352	4.7273	0.	3.2729e-002
1959	22.535	4.7273	0.	3.8853e-002
1960	22.718	4.7273	0.	4.6737e-002
1961	22.901	4.7273	0.	5.7918e-002
1962	23.084	4.7273	0.	7.1666e-002
1963	23.267	4.7273	0.	0.10088
1964	23.451	4.7273	0.	0.11569
1965	23.634	4.7273	0.	0.28999
1966	23.817	4.7273	0.	0.13665
1967	8.2498	4.5455	0.	-24.565
1968	8.433	4.5455	0.	-2.3267
1969	8.6161	4.5455	0.	-4.0876
1970	8.7992	4.5455	0.	-3.6797
1971	8.9824	4.5455	0.	-3.7825
1972	9.1655	4.5455	0.	-5.0725
1973	9.3487	4.5455	0.	-11.433
1974	9.5318	4.5455	0.	-34.179
1975	9.7149	4.5455	0.	-57.05
1976	9.8981	4.5455	0.	-72.298
1977	10.081	4.5455	0.	-81.816
1978	10.264	4.5455	0.	-87.408
1979	10.448	4.5455	0.	-90.269
1980	10.631	4.5455	0.	-91.172
1981	10.814	4.5455	0.	-90.628
1982	10.997	4.5455	0.	-88.993
1983	11.18	4.5455	0.	-86.527
1984	11.363	4.5455	0.	-83.431
1985	11.546	4.5455	0.	-79.863
1986	11.73	4.5455	0.	-75.956
1987	11.913	4.5455	0.	-71.818
1988	12.096	4.5455	0.	-67.539
1989	12.279	4.5455	0.	-63.193
1990	12.462	4.5455	0.	-58.841
1991	12.645	4.5455	0.	-54.532
1992	12.828	4.5455	0.	-50.305
1993	13.011	4.5455	0.	-46.19
1994	13.195	4.5455	0.	-42.208
1995	13.378	4.5455	0.	-38.375
1996	13.561	4.5455	0.	-34.701
1997	13.744	4.5455	0.	-31.193
1998	13.927	4.5455	0.	-27.852
1999	14.11	4.5455	0.	-24.678
2000	14.293	4.5455	0.	-21.666
2001	14.477	4.5455	0.	-18.813
2002	14.66	4.5455	0.	-16.112
2003	14.843	4.5455	0.	-13.555
2004	15.026	4.5455	0.	-11.134
2005	15.209	4.5455	0.	-8.8417
2006	15.392	4.5455	0.	-6.6678
2007	15.575	4.5455	0.	-4.604
2008	15.759	4.5455	0.	-2.6428
2009	15.942	4.5455	0.	-0.7917
2010	16.125	4.5455	0.	-2.0076e-002
2011	16.308	4.5455	0.	-4.3318e-003
2012	16.491	4.5455	0.	-6.1794e-004
2013	16.674	4.5455	0.	1.097e-003
2014	16.857	4.5455	0.	2.1415e-003
2015	17.041	4.5455	0.	2.8618e-003
2016	17.224	4.5455	0.	3.4191e-003
2017	17.407	4.5455	0.	3.8915e-003
2018	17.59	4.5455	0.	4.314e-003
2019	17.773	4.5455	0.	4.6977e-003
2020	17.956	4.5455	0.	5.0766e-003
2021	18.139	4.5455	0.	5.4622e-003
2022	18.323	4.5455	0.	5.8404e-003
2023	18.506	4.5455	0.	6.2263e-003
2024	18.689	4.5455	0.	6.6369e-003
2025	18.872	4.5455	0.	7.0654e-003
2026	19.055	4.5455	0.	7.5296e-003
2027	19.238	4.5455	0.	8.0265e-003
2028	19.421	4.5455	0.	8.553e-003
2029	19.605	4.5455	0.	9.1366e-003
2030	19.788	4.5455	0.	9.7811e-003
2031	19.971	4.5455	0.	1.0486e-002
2032	20.154	4.5455	0.	1.1268e-002
2033	20.337	4.5455	0.	1.2147e-002
2034	20.52	4.5455	0.	1.3131e-002
2035	20.703	4.5455	0.	1.4235e-002
2036	20.887	4.5455	0.	1.5499e-002
2037	21.07	4.5455	0.	1.6958e-002
2038	21.253	4.5455	0.	1.8638e-002
2039	21.436	4.5455	0.	2.0599e-002
2040	21.619	4.5455	0.	2.2914e-002
2041	21.802	4.5455	0.	2.5661e-002
2042	21.985	4.5455	0.	2.8978e-002
2043	22.169	4.5455	0.	3.3026e-002
2044	22.352	4.5455	0.	3.8044e-002
2045	22.535	4.5455	0.	4.4434e-002
2046	22.718	4.5455	0.	5.2604e-002
2047	22.901	4.5455	0.	6.4119e-002
2048	23.084	4.5455	0.	7.8274e-002
2049	23.267	4.5455	0.	0.10814
2050	23.451	4.5455	0.	0.1238
2051	23.634	4.5455	0.	0.30105
2052	23.817	4.5455	0.	0.15633
2053	8.2498	4.3636	0.	9.8023
2054	8.433	4.3636	0.	0.76275
2055	8.6161	4.3636	0.	-11.25
2056	8.7992	4.3636	0.	-3.2071
2057	8.9824	4.3636	0.	-6.0984
2058	9.1655	4.3636	0.	-15.274
2059	9.3487	4.3636	0.	-55.238
2060	9.5318	4.3636	0.	-89.611
2061	9.7149	4.3636	0.	-110.09
2062	9.8981	4.3636	0.	-121.25
2063	10.081	4.3636	0.	-126.46
2064	10.264	4.3636	0.	-127.82
2065	10.448	4.3636	0.	-126.65
2066	10.631	4.3636	0.	-123.79
2067	10.814	4.3636	0.	-119.77
2068	10.997	4.3636	0.	-114.97
2069	11.18	4.3636	0.	-109.63
2070	11.363	4.3636	0.	-103.96
2071	11.546	4.3636	0.	-98.097
2072	11.73	4.3636	0.	-92.149
2073	11.913	4.3636	0.	-86.203
2074	12.096	4.3636	0.	-80.329
2075	12.279	4.3636	0.	-74.576
2076	12.462	4.3636	0.	-68.986
2077	12.645	4.3636	0.	-63.588
2078	12.828	4.3636	0.	-58.401
2079	13.011	4.3636	0.	-53.44
2080	13.195	4.3636	0.	-48.712
2081	13.378	4.3636	0.	-44.221
2082	13.561	4.3636	0.	-39.964
2083	13.744	4.3636	0.	-35.938
2084	13.927	4.3636	0.	-32.137
2085	14.11	4.3636	0.	-28.552
2086	14.293	4.3636	0.	-25.173
2087	14.477	4.3636	0.	-21.989
2088	14.66	4.3636	0.	-18.991
2089	14.843	4.3636	0.	-16.165
2090	15.026	4.3636	0.	-13.5
2091	15.209	4.3636	0.	-10.985
2092	15.392	4.3636	0.	-8.607
2093	15.575	4.3636	0.	-6.3552
2094	15.759	4.3636	0.	-4.2187
2095	15.942	4.3636	0.	-2.1886
2096	16.125	4.3636	0.	-0.30921
2097	16.308	4.3636	0.	-8.0222e-003
2098	16.491	4.3636	0.	-4.2252e-004
2099	16.674	4.3636	0.	2.0312e-003
2100	16.857	4.3636	0.	3.3382e-003
2101	17.041	4.3636	0.	4.1879e-003
2102	17.224	4.3636	0.	4.8292e-003
2103	17.407	4.3636	0.	5.3668e-003
2104	17.59	4.3636	0.	5.8459e-003
2105	17.773	4.3636	0.	6.2869e-003
2106	17.956	4.3636	0.	6.7165e-003
2107	18.139	4.3636	0.	7.159e-003
2108	18.323	4.3636	0.	7.5952e-003
2109	18.506	4.3636	0.	8.0388e-003
2110	18.689	4.3636	0.	8.5107e-003
2111	18.872	4.3636	0.	9.0048e-003
2112	19.055	4.3636	0.	9.5358e-003
2113	19.238	4.3636	0.	1.0102e-002
2114	19.421	4.3636	0.	1.0702e-002
2115	19.605	4.3636	0.	1.1369e-002
2116	19.788	4.3636	0.	1.2094e-002
2117	19.971	4.3636	0.	1.2888e-002
2118	20.154	4.3636	0.	1.3765e-002
2119	20.337	4.3636	0.	1.4739e-002
2120	20.52	4.3636	0.	1.5831e-002
2121	20.703	4.3636	0.	1.7044e-002
2122	20.887	4.3636	0.	1.8431e-002
2123	21.07	4.3636	0.	2.0009e-002
2124	21.253	4.3636	0.	2.1817e-002
2125	21.436	4.3636	0.	2.3913e-002
2126	21.619	4.3636	0.	2.6364e-002
2127	21.802	4.3636	0.	2.926e-002
2128	21.985	4.3636	0.	3.2719e-002
2129	22.169	4.3636	0.	3.6927e-002
2130	22.352	4.3636	0.	4.2103e-002
2131	22.535	4.3636	0.	4.8659e-002
2132	22.718	4.3636	0.	5.7016e-002
2133	22.901	4.3636	0.	6.8766e-002
2134	23.084	4.3636	0.	8.323e-002
2135	23.267	4.3636	0.	0.1136
2136	23.451	4.3636	0.	0.12994
2137	23.634	4.3636	0.	0.30953
2138	23.817	4.3636	0.	0.17199
2139	8.2498	4.1818	0.	-149.15
2140	8.433	4.1818	0.	8.2902
2141	8.6161	4.1818	0.	-8.1911
2142	8.7992	4.1818	0.	-5.4084
2143	8.9824	4.1818	0.	-16.414
2144	9.1655	4.1818	0.	-74.5
2145	9.3487	4.1818	0.	-124.09
2146	9.5318	4.1818	0.	-152.31
2147	9.7149	4.1818	0.	-166.66
2148	9.8981	4.1818	0.	-172.3
2149	10.081	4.1818	0.	-172.45
2150	10.264	4.1818	0.	-169.15
2151	10.448	4.1818	0.	-163.66
2152	10.631	4.1818	0.	-156.81
2153	10.814	4.1818	0.	-149.15
2154	10.997	4.1818	0.	-141.04
2155	11.18	4.1818	0.	-132.72
2156	11.363	4.1818	0.	-124.38
2157	11.546	4.1818	0.	-116.14
2158	11.73	4.1818	0.	-108.09
2159	11.913	4.1818	0.	-100.29
2160	12.096	4.1818	0.	-92.786
2161	12.279	4.1818	0.	-85.602
2162	12.462	4.1818	0.	-78.758
2163	12.645	4.1818	0.	-72.261
2164	12.828	4.1818	0.	-66.113
2165	13.011	4.1818	0.	-60.31
2166	13.195	4.1818	0.	-54.843
2167	13.378	4.1818	0.	-49.703
2168	13.561	4.1818	0.	-44.876
2169	13.744	4.1818	0.	-40.346
2170	13.927	4.1818	0.	-36.1
2171	14.11	4.1818	0.	-32.12
2172	14.293	4.1818	0.	-28.39
2173	14.477	4.1818	0.	-24.894
2174	14.66	4.1818	0.	-21.614
2175	14.843	4.1818	0.	-18.536
2176	15.026	4.1818	0.	-15.643
2177	15.209	4.1818	0.	-12.921
2178	15.392	4.1818	0.	-10.354
2179	15.575	4.1818	0.	-7.9295
2180	15.759	4.1818	0.	-5.6332
2181	15.942	4.1818	0.	-3.453
2182	16.125	4.1818	0.	-1.3813
2183	16.308	4.1818	0.	-2.2599e-002
2184	16.491	4.1818	0.	-3.2558e-004
2185	16.674	4.1818	0.	3.0527e-003
2186	16.857	4.1818	0.	4.5591e-003
2187	17.041	4.1818	0.	5.4765e-003
2188	17.224	4.1818	0.	6.1538e-003
2189	17.407	4.1818	0.	6.7224e-003
2190	17.59	4.1818	0.	7.228e-003
2191	17.773	4.1818	0.	7.6986e-003
2192	17.956	4.1818	0.	8.1619e-003
2193	18.139	4.1818	0.	8.6366e-003
2194	18.323	4.1818	0.	9.1081e-003
2195	18.506	4.1818	0.	9.5924e-003
2196	18.689	4.1818	0.	1.0105e-002
2197	18.872	4.1818	0.	1.0644e-002
2198	19.055	4.1818	0.	1.1225e-002
2199	19.238	4.1818	0.	1.1843e-002
2200	19.421	4.1818	0.	1.2499e-002
2201	19.605	4.1818	0.	1.3219e-002
2202	19.788	4.1818	0.	1.4008e-002
2203	19.971	4.1818	0.	1.4863e-002
2204	20.154	4.1818	0.	1.5808e-002
2205	20.337	4.1818	0.	1.6855e-002
2206	20.52	4.1818	0.	1.802e-002
2207	20.703	4.1818	0.	1.9313e-002
2208	20.887	4.1818	0.	2.0779e-002
2209	21.07	4.1818	0.	2.2443e-002
2210	21.253	4.1818	0.	2.4341e-002
2211	21.436	4.1818	0.	2.6527e-002
2212	21.619	4.1818	0.	2.907e-002
2213	21.802	4.1818	0.	3.2056e-002
2214	21.985	4.1818	0.	3.5615e-002
2215	22.169	4.1818	0.	3.9916e-002
2216	22.352	4.1818	0.	4.5194e-002
2217	22.535	4.1818	0.	5.1858e-002
2218	22.718	4.1818	0.	6.0349e-002
2219	22.901	4.1818	0.	7.227e-002
2220	23.084	4.1818	0.	8.6974e-002
2221	23.267	4.1818	0.	0.11774
2222	23.451	4.1818	0.	0.13462
2223	23.634	4.1818	0.	0.31607
2224	23.817	4.1818	0.	0.18449
2225	8.2498	4.	0.	-551.77
2226	8.433	4.	0.	76.353
2227	8.6161	4.	0.	-16.403
2228	8.7992	4.	0.	-8.8168
2229	8.9824	4.	0.	-85.45
2230	9.1655	4.	0.	-153.65
2231	9.3487	4.	0.	-193.11
2232	9.5318	4.	0.	-213.37
2233	9.7149	4.	0.	-221.4
2234	9.8981	4.	0.	-221.6
2235	10.081	4.	0.	-216.85
2236	10.264	4.	0.	-209.01
2237	10.448	4.	0.	-199.32
2238	10.631	4.	0.	-188.6
2239	10.814	4.	0.	-177.38
2240	10.997	4.	0.	-166.02
2241	11.18	4.	0.	-154.79
2242	11.363	4.	0.	-143.84
2243	11.546	4.	0.	-133.28
2244	11.73	4.	0.	-123.18
2245	11.913	4.	0.	-113.57
2246	12.096	4.	0.	-104.48
2247	12.279	4.	0.	-95.906
2248	12.462	4.	0.	-87.85
2249	12.645	4.	0.	-80.296
2250	12.828	4.	0.	-73.226
2251	13.011	4.	0.	-66.618
2252	13.195	4.	0.	-60.449
2253	13.378	4.	0.	-54.695
2254	13.561	4.	0.	-49.33
2255	13.744	4.	0.	-44.329
2256	13.927	4.	0.	-39.667
2257	14.11	4.	0.	-35.321
2258	14.293	4.	0.	-31.267
2259	14.477	4.	0.	-27.482
2260	14.66	4.	0.	-23.946
2261	14.843	4.	0.	-20.637
2262	15.026	4.	0.	-17.537
2263	15.209	4.	0.	-14.628
2264	15.392	4.	0.	-11.892
2265	15.575	4.	0.	-9.3117
2266	15.759	4.	0.	-6.8727
2267	15.942	4.	0.	-4.5602
2268	16.125	4.	0.	-2.3612
2269	16.308	4.	0.	-0.2987
2270	16.491	4.	0.	-3.8064e-004
2271	16.674	4.	0.	4.178e-003
2272	16.857	4.	0.	5.7787e-003
2273	17.041	4.	0.	6.6987e-003
2274	17.224	4.	0.	7.3654e-003
2275	17.407	4.	0.	7.9318e-003
2276	17.59	4.	0.	8.4433e-003
2277	17.773	4.	0.	8.9221e-003
2278	17.956	4.	0.	9.3995e-003
2279	18.139	4.	0.	9.8941e-003
2280	18.323	4.	0.	1.0387e-002
2281	18.506	4.	0.	1.0899e-002
2282	18.689	4.	0.	1.1439e-002
2283	18.872	4.	0.	1.201e-002
2284	19.055	4.	0.	1.2622e-002
2285	19.238	4.	0.	1.3276e-002
2286	19.421	4.	0.	1.3973e-002
2287	19.605	4.	0.	1.4734e-002
2288	19.788	4.	0.	1.5563e-002
2289	19.971	4.	0.	1.6472e-002
2290	20.154	4.	0.	1.7462e-002
2291	20.337	4.	0.	1.8559e-002
2292	20.52	4.	0.	1.9779e-002
2293	20.703	4.	0.	2.1127e-002
2294	20.887	4.	0.	2.265e-002
2295	21.07	4.	0.	2.4373e-002
2296	21.253	4.	0.	2.6329e-002
2297	21.436	4.	0.	2.8575e-002
2298	21.619	4.	0.	3.1179e-002
2299	21.802	4.	0.	3.423e-002
2300	21.985	4.	0.	3.7845e-002
2301	22.169	4.	0.	4.2208e-002
2302	22.352	4.	0.	4.7551e-002
2303	22.535	4.	0.	5.4293e-002
2304	22.718	4.	0.	6.2879e-002
2305	22.901	4.	0.	7.4934e-002
2306	23.084	4.	0.	8.9827e-002
2307	23.267	4.	0.	0.12091
2308	23.451	4.	0.	0.13822
2309	23.634	4.	0.	0.32113
2310	23.817	4.	0.	0.19447
2311	8.2498	3.8182	0.	-13.838
2312	8.433	3.8182	0.	35.336
2313	8.6161	3.8182	0.	-7.6885
2314	8.7992	3.8182	0.	-55.978
2315	8.9824	3.8182	0.	-157.5
2316	9.1655	3.8182	0.	-217.25
2317	9.3487	3.8182	0.	-250.46
2318	9.5318	3.8182	0.	-265.84
2319	9.7149	3.8182	0.	-269.54
2320	9.8981	3.8182	0.	-265.64
2321	10.081	3.8182	0.	-256.89
2322	10.264	3.8182	0.	-245.19
2323	10.448	3.8182	0.	-231.8
2324	10.631	3.8182	0.	-217.58
2325	10.814	3.8182	0.	-203.12
2326	10.997	3.8182	0.	-188.8
2327	11.18	3.8182	0.	-174.88
2328	11.363	3.8182	0.	-161.52
2329	11.546	3.8182	0.	-148.81
2330	11.73	3.8182	0.	-136.81
2331	11.913	3.8182	0.	-125.53
2332	12.096	3.8182	0.	-114.98
2333	12.279	3.8182	0.	-105.13
2334	12.462	3.8182	0.	-95.965
2335	12.645	3.8182	0.	-87.443
2336	12.828	3.8182	0.	-79.531
2337	13.011	3.8182	0.	-72.19
2338	13.195	3.8182	0.	-65.384
2339	13.378	3.8182	0.	-59.075
2340	13.561	3.8182	0.	-53.225
2341	13.744	3.8182	0.	-47.801
2342	13.927	3.8182	0.	-42.768
2343	14.11	3.8182	0.	-38.095
2344	14.293	3.8182	0.	-33.753
2345	14.477	3.8182	0.	-29.713
2346	14.66	3.8182	0.	-25.95
2347	14.843	3.8182	0.	-22.44
2348	15.026	3.8182	0.	-19.159
2349	15.209	3.8182	0.	-16.086
2350	15.392	3.8182	0.	-13.202
2351	15.575	3.8182	0.	-10.488
2352	15.759	3.8182	0.	-7.9255
2353	15.942	3.8182	0.	-5.4992
2354	16.125	3.8182	0.	-3.1935
2355	16.308	3.8182	0.	-0.99851
2356	16.491	3.8182	0.	-7.2798e-004
2357	16.674	3.8182	0.	5.4033e-003
2358	16.857	3.8182	0.	6.9594e-003
2359	17.041	3.8182	0.	7.8106e-003
2360	17.224	3.8182	0.	8.4362e-003
2361	17.407	3.8182	0.	8.9742e-003
2362	17.59	3.8182	0.	9.4717e-003
2363	17.773	3.8182	0.	9.9486e-003
2364	17.956	3.8182	0.	1.0428e-002
2365	18.139	3.8182	0.	1.0932e-002
2366	18.323	3.8182	0.	1.1438e-002
2367	18.506	3.8182	0.	1.1964e-002
2368	18.689	3.8182	0.	1.2524e-002
2369	18.872	3.8182	0.	1.3115e-002
2370	19.055	3.8182	0.	1.3752e-002
2371	19.238	3.8182	0.	1.443e-002
2372	19.421	3.8182	0.	1.5153e-002
2373	19.605	3.8182	0.	1.5944e-002
2374	19.788	3.8182	0.	1.6808e-002
2375	19.971	3.8182	0.	1.7742e-002
2376	20.154	3.8182	0.	1.8773e-002
2377	20.337	3.8182	0.	1.9908e-002
2378	20.52	3.8182	0.	2.1161e-002
2379	20.703	3.8182	0.	2.2551e-002
2380	20.887	3.8182	0.	2.4113e-002
2381	21.07	3.8182	0.	2.5873e-002
2382	21.253	3.8182	0.	2.7871e-002
2383	21.436	3.8182	0.	3.0157e-002
2384	21.619	3.8182	0.	3.2799e-002
2385	21.802	3.8182	0.	3.5887e-002
2386	21.985	3.8182	0.	3.9542e-002
2387	22.169	3.8182	0.	4.3945e-002
2388	22.352	3.8182	0.	4.9335e-002
2389	22.535	3.8182	0.	5.6131e-002
2390	22.718	3.8182	0.	6.4788e-002
2391	22.901	3.8182	0.	7.6944e-002
2392	23.084	3.8182	0.	9.1981e-002
2393	23.267	3.8182	0.	0.12331
2394	23.451	3.8182	0.	0.14096
2395	23.634	3.8182	0.	0.32503
2396	23.817	3.8182	0.	0.20234
2397	8.2498	3.6364	0.	-17.52
2398	8.433	3.6364	0.	-9.2543
2399	8.6161	3.6364	0.	4.9651
2400	8.7992	3.6364	0.	-80.733
2401	8.9824	3.6364	0.	-190.33
2402	9.1655	3.6364	0.	-255.05
2403	9.3487	3.6364	0.	-290.14
2404	9.5318	3.6364	0.	-305.53
2405	9.7149	3.6364	0.	-307.92
2406	9.8981	3.6364	0.	-301.86
2407	10.081	3.6364	0.	-290.45
2408	10.264	3.6364	0.	-275.84
2409	10.448	3.6364	0.	-259.49
2410	10.631	3.6364	0.	-242.39
2411	10.814	3.6364	0.	-225.19
2412	10.997	3.6364	0.	-208.33
2413	11.18	3.6364	0.	-192.1
2414	11.363	3.6364	0.	-176.66
2415	11.546	3.6364	0.	-162.09
2416	11.73	3.6364	0.	-148.45
2417	11.913	3.6364	0.	-135.73
2418	12.096	3.6364	0.	-123.91
2419	12.279	3.6364	0.	-112.96
2420	12.462	3.6364	0.	-102.83
2421	12.645	3.6364	0.	-93.472
2422	12.828	3.6364	0.	-84.835
2423	13.011	3.6364	0.	-76.866
2424	13.195	3.6364	0.	-69.514
2425	13.378	3.6364	0.	-62.73
2426	13.561	3.6364	0.	-56.468
2427	13.744	3.6364	0.	-50.683
2428	13.927	3.6364	0.	-45.335
2429	14.11	3.6364	0.	-40.387
2430	14.293	3.6364	0.	-35.802
2431	14.477	3.6364	0.	-31.548
2432	14.66	3.6364	0.	-27.596
2433	14.843	3.6364	0.	-23.917
2434	15.026	3.6364	0.	-20.485
2435	15.209	3.6364	0.	-17.277
2436	15.392	3.6364	0.	-14.271
2437	15.575	3.6364	0.	-11.445
2438	15.759	3.6364	0.	-8.7813
2439	15.942	3.6364	0.	-6.2614
2440	16.125	3.6364	0.	-3.8686
2441	16.308	3.6364	0.	-1.5886
2442	16.491	3.6364	0.	-1.8321e-003
2443	16.674	3.6364	0.	6.6885e-003
2444	16.857	3.6364	0.	8.0444e-003
2445	17.041	3.6364	0.	8.7762e-003
2446	17.224	3.6364	0.	9.3321e-003
2447	17.407	3.6364	0.	9.8315e-003
2448	17.59	3.6364	0.	1.031e-002
2449	17.773	3.6364	0.	1.0775e-002
2450	17.956	3.6364	0.	1.125e-002
2451	18.139	3.6364	0.	1.1755e-002
2452	18.323	3.6364	0.	1.2266e-002
2453	18.506	3.6364	0.	1.2801e-002
2454	18.689	3.6364	0.	1.3374e-002
2455	18.872	3.6364	0.	1.3977e-002
2456	19.055	3.6364	0.	1.463e-002
2457	19.238	3.6364	0.	1.5327e-002
2458	19.421	3.6364	0.	1.6069e-002
2459	19.605	3.6364	0.	1.6881e-002
2460	19.788	3.6364	0.	1.7766e-002
2461	19.971	3.6364	0.	1.8726e-002
2462	20.154	3.6364	0.	1.9778e-002
2463	20.337	3.6364	0.	2.0936e-002
2464	20.52	3.6364	0.	2.2219e-002
2465	20.703	3.6364	0.	2.3634e-002
2466	20.887	3.6364	0.	2.5222e-002
2467	21.07	3.6364	0.	2.701e-002
2468	21.253	3.6364	0.	2.9035e-002
2469	21.436	3.6364	0.	3.1343e-002
2470	21.619	3.6364	0.	3.4012e-002
2471	21.802	3.6364	0.	3.7121e-002
2472	21.985	3.6364	0.	4.0802e-002
2473	22.169	3.6364	0.	4.5235e-002
2474	22.352	3.6364	0.	5.0651e-002
2475	22.535	3.6364	0.	5.7491e-002
2476	22.718	3.6364	0.	6.62e-002
2477	22.901	3.6364	0.	7.8434e-002
2478	23.084	3.6364	0.	9.3587e-002
2479	23.267	3.6364	0.	0.1251
2480	23.451	3.6364	0.	0.143
2481	23.634	3.6364	0.	0.32795
2482	23.817	3.6364	0.	0.20836
2483	8.2498	3.4545	0.	4.5938
2484	8.433	3.4545	0.	0.41251
2485	8.6161	3.4545	0.	-0.14503
2486	8.7992	3.4545	0.	-61.723
2487	8.9824	3.4545	0.	-191.49
2488	9.1655	3.4545	0.	-269.73
2489	9.3487	3.4545	0.	-312.62
2490	9.5318	3.4545	0.	-331.83
2491	9.7149	3.4545	0.	-335.42
2492	9.8981	3.4545	0.	-328.93
2493	10.081	3.4545	0.	-316.15
2494	10.264	3.4545	0.	-299.66
2495	10.448	3.4545	0.	-281.19
2496	10.631	3.4545	0.	-261.91
2497	10.814	3.4545	0.	-242.61
2498	10.997	3.4545	0.	-223.77
2499	11.18	3.4545	0.	-205.71
2500	11.363	3.4545	0.	-188.61
2501	11.546	3.4545	0.	-172.57
2502	11.73	3.4545	0.	-157.62
2503	11.913	3.4545	0.	-143.75
2504	12.096	3.4545	0.	-130.92
2505	12.279	3.4545	0.	-119.09
2506	12.462	3.4545	0.	-108.2
2507	12.645	3.4545	0.	-98.182
2508	12.828	3.4545	0.	-88.971
2509	13.011	3.4545	0.	-80.504
2510	13.195	3.4545	0.	-72.721
2511	13.378	3.4545	0.	-65.563
2512	13.561	3.4545	0.	-58.976
2513	13.744	3.4545	0.	-52.909
2514	13.927	3.4545	0.	-47.314
2515	14.11	3.4545	0.	-42.15
2516	14.293	3.4545	0.	-37.376
2517	14.477	3.4545	0.	-32.956
2518	14.66	3.4545	0.	-28.856
2519	14.843	3.4545	0.	-25.046
2520	15.026	3.4545	0.	-21.497
2521	15.209	3.4545	0.	-18.185
2522	15.392	3.4545	0.	-15.084
2523	15.575	3.4545	0.	-12.173
2524	15.759	3.4545	0.	-9.4312
2525	15.942	3.4545	0.	-6.8396
2526	16.125	3.4545	0.	-4.3803
2527	16.308	3.4545	0.	-2.0372
2528	16.491	3.4545	0.	-6.4762e-003
2529	16.674	3.4545	0.	7.9403e-003
2530	16.857	3.4545	0.	8.9626e-003
2531	17.041	3.4545	0.	9.5502e-003
2532	17.224	3.4545	0.	1.0032e-002
2533	17.407	3.4545	0.	1.0492e-002
2534	17.59	3.4545	0.	1.0943e-002
2535	17.773	3.4545	0.	1.1395e-002
2536	17.956	3.4545	0.	1.1866e-002
2537	18.139	3.4545	0.	1.2369e-002
2538	18.323	3.4545	0.	1.2883e-002
2539	18.506	3.4545	0.	1.342e-002
2540	18.689	3.4545	0.	1.4001e-002
2541	18.872	3.4545	0.	1.4614e-002
2542	19.055	3.4545	0.	1.5276e-002
2543	19.238	3.4545	0.	1.5984e-002
2544	19.421	3.4545	0.	1.6738e-002
2545	19.605	3.4545	0.	1.7564e-002
2546	19.788	3.4545	0.	1.8464e-002
2547	19.971	3.4545	0.	1.9438e-002
2548	20.154	3.4545	0.	2.0507e-002
2549	20.337	3.4545	0.	2.1683e-002
2550	20.52	3.4545	0.	2.298e-002
2551	20.703	3.4545	0.	2.4412e-002
2552	20.887	3.4545	0.	2.602e-002
2553	21.07	3.4545	0.	2.7825e-002
2554	21.253	3.4545	0.	2.9864e-002
2555	21.436	3.4545	0.	3.2192e-002
2556	21.619	3.4545	0.	3.4874e-002
2557	21.802	3.4545	0.	3.8002e-002
2558	21.985	3.4545	0.	4.1697e-002
2559	22.169	3.4545	0.	4.6142e-002
2560	22.352	3.4545	0.	5.1584e-002
2561	22.535	3.4545	0.	5.8447e-002
2562	22.718	3.4545	0.	6.7197e-002
2563	22.901	3.4545	0.	7.9489e-002
2564	23.084	3.4545	0.	9.4722e-002
2565	23.267	3.4545	0.	0.12637
2566	23.451	3.4545	0.	0.14446
2567	23.634	3.4545	0.	0.33004
2568	23.817	3.4545	0.	0.21274
2569	8.2498	3.2727	0.	-3.1215
2570	8.433	3.2727	0.	-0.10437
2571	8.6161	3.2727	0.	0.81595
2572	8.7992	3.2727	0.	-33.331
2573	8.9824	3.2727	0.	-179.59
2574	9.1655	3.2727	0.	-271.18
2575	9.3487	3.2727	0.	-322.73
2576	9.5318	3.2727	0.	-346.78
2577	9.7149	3.2727	0.	-352.58
2578	9.8981	3.2727	0.	-346.63
2579	10.081	3.2727	0.	-333.38
2580	10.264	3.2727	0.	-315.84
2581	10.448	3.2727	0.	-296.05
2582	10.631	3.2727	0.	-275.35
2583	10.814	3.2727	0.	-254.63
2584	10.997	3.2727	0.	-234.43
2585	11.18	3.2727	0.	-215.12
2586	11.363	3.2727	0.	-196.88
2587	11.546	3.2727	0.	-179.82
2588	11.73	3.2727	0.	-163.95
2589	11.913	3.2727	0.	-149.28
2590	12.096	3.2727	0.	-135.76
2591	12.279	3.2727	0.	-123.32
2592	12.462	3.2727	0.	-111.89
2593	12.645	3.2727	0.	-101.42
2594	12.828	3.2727	0.	-91.806
2595	13.011	3.2727	0.	-82.995
2596	13.195	3.2727	0.	-74.914
2597	13.378	3.2727	0.	-67.497
2598	13.561	3.2727	0.	-60.686
2599	13.744	3.2727	0.	-54.424
2600	13.927	3.2727	0.	-48.66
2601	14.11	3.2727	0.	-43.347
2602	14.293	3.2727	0.	-38.443
2603	14.477	3.2727	0.	-33.909
2604	14.66	3.2727	0.	-29.708
2605	14.843	3.2727	0.	-25.809
2606	15.026	3.2727	0.	-22.181
2607	15.209	3.2727	0.	-18.797
2608	15.392	3.2727	0.	-15.632
2609	15.575	3.2727	0.	-12.663
2610	15.759	3.2727	0.	-9.8684
2611	15.942	3.2727	0.	-7.2282
2612	16.125	3.2727	0.	-4.7241
2613	16.308	3.2727	0.	-2.3387
2614	16.491	3.2727	0.	-7.0182e-002
2615	16.674	3.2727	0.	8.9782e-003
2616	16.857	3.2727	0.	9.6336e-003
2617	17.041	3.2727	0.	1.0091e-002
2618	17.224	3.2727	0.	1.051e-002
2619	17.407	3.2727	0.	1.0936e-002
2620	17.59	3.2727	0.	1.1369e-002
2621	17.773	3.2727	0.	1.1809e-002
2622	17.956	3.2727	0.	1.2274e-002
2623	18.139	3.2727	0.	1.2774e-002
2624	18.323	3.2727	0.	1.3289e-002
2625	18.506	3.2727	0.	1.3829e-002
2626	18.689	3.2727	0.	1.4413e-002
2627	18.872	3.2727	0.	1.503e-002
2628	19.055	3.2727	0.	1.5699e-002
2629	19.238	3.2727	0.	1.6414e-002
2630	19.421	3.2727	0.	1.7177e-002
2631	19.605	3.2727	0.	1.801e-002
2632	19.788	3.2727	0.	1.8921e-002
2633	19.971	3.2727	0.	1.9905e-002
2634	20.154	3.2727	0.	2.0979e-002
2635	20.337	3.2727	0.	2.2169e-002
2636	20.52	3.2727	0.	2.3479e-002
2637	20.703	3.2727	0.	2.4919e-002
2638	20.887	3.2727	0.	2.6538e-002
2639	21.07	3.2727	0.	2.8352e-002
2640	21.253	3.2727	0.	3.0402e-002
2641	21.436	3.2727	0.	3.2737e-002
2642	21.619	3.2727	0.	3.543e-002
2643	21.802	3.2727	0.	3.8564e-002
2644	21.985	3.2727	0.	4.2266e-002
2645	22.169	3.2727	0.	4.6726e-002
2646	22.352	3.2727	0.	5.2179e-002
2647	22.535	3.2727	0.	5.9059e-002
2648	22.718	3.2727	0.	6.7835e-002
2649	22.901	3.2727	0.	8.0161e-002
2650	23.084	3.2727	0.	9.5449e-002
2651	23.267	3.2727	0.	0.12719
2652	23.451	3.2727	0.	0.1454
2653	23.634	3.2727	0.	0.33139
2654	23.817	3.2727	0.	0.2156
2655	8.2498	3.0909	0.	-0.38626
2656	8.433	3.0909	0.	7.7319e-003
2657	8.6161	3.0909	0.	0.92785
2658	8.7992	3.0909	0.	-15.36
2659	8.9824	3.0909	0.	-169.98
2660	9.1655	3.0909	0.	-269.14
2661	9.3487	3.0909	0.	-326.04
2662	9.5318	3.0909	0.	-353.28
2663	9.7149	3.0909	0.	-360.69
2664	9.8981	3.0909	0.	-355.3
2665	10.081	3.0909	0.	-341.97
2666	10.264	3.0909	0.	-324.01
2667	10.448	3.0909	0.	-303.59
2668	10.631	3.0909	0.	-282.2
2669	10.814	3.0909	0.	-260.76
2670	10.997	3.0909	0.	-239.88
2671	11.18	3.0909	0.	-219.92
2672	11.363	3.0909	0.	-201.1
2673	11.546	3.0909	0.	-183.51
2674	11.73	3.0909	0.	-167.19
2675	11.913	3.0909	0.	-152.11
2676	12.096	3.0909	0.	-138.22
2677	12.279	3.0909	0.	-125.47
2678	12.462	3.0909	0.	-113.77
2679	12.645	3.0909	0.	-103.06
2680	12.828	3.0909	0.	-93.247
2681	13.011	3.0909	0.	-84.26
2682	13.195	3.0909	0.	-76.026
2683	13.378	3.0909	0.	-68.478
2684	13.561	3.0909	0.	-61.552
2685	13.744	3.0909	0.	-55.191
2686	13.927	3.0909	0.	-49.34
2687	14.11	3.0909	0.	-43.953
2688	14.293	3.0909	0.	-38.983
2689	14.477	3.0909	0.	-34.39
2690	14.66	3.0909	0.	-30.138
2691	14.843	3.0909	0.	-26.194
2692	15.026	3.0909	0.	-22.525
2693	15.209	3.0909	0.	-19.105
2694	15.392	3.0909	0.	-15.908
2695	15.575	3.0909	0.	-12.91
2696	15.759	3.0909	0.	-10.088
2697	15.942	3.0909	0.	-7.4235
2698	16.125	3.0909	0.	-4.8967
2699	16.308	3.0909	0.	-2.4901
2700	16.491	3.0909	0.	-0.18771
2701	16.674	3.0909	0.	9.5758e-003
2702	16.857	3.0909	0.	9.9892e-003
2703	17.041	3.0909	0.	1.037e-002
2704	17.224	3.0909	0.	1.0756e-002
2705	17.407	3.0909	0.	1.1161e-002
2706	17.59	3.0909	0.	1.1582e-002
2707	17.773	3.0909	0.	1.2016e-002
2708	17.956	3.0909	0.	1.2477e-002
2709	18.139	3.0909	0.	1.2977e-002
2710	18.323	3.0909	0.	1.349e-002
2711	18.506	3.0909	0.	1.4033e-002
2712	18.689	3.0909	0.	1.4616e-002
2713	18.872	3.0909	0.	1.5237e-002
2714	19.055	3.0909	0.	1.5909e-002
2715	19.238	3.0909	0.	1.6627e-002
2716	19.421	3.0909	0.	1.7392e-002
2717	19.605	3.0909	0.	1.8231e-002
2718	19.788	3.0909	0.	1.9143e-002
2719	19.971	3.0909	0.	2.0131e-002
2720	20.154	3.0909	0.	2.1218e-002
2721	20.337	3.0909	0.	2.2408e-002
2722	20.52	3.0909	0.	2.3721e-002
2723	20.703	3.0909	0.	2.5168e-002
2724	20.887	3.0909	0.	2.6789e-002
2725	21.07	3.0909	0.	2.8612e-002
2726	21.253	3.0909	0.	3.0664e-002
2727	21.436	3.0909	0.	3.3004e-002
2728	21.619	3.0909	0.	3.5702e-002
2729	21.802	3.0909	0.	3.8838e-002
2730	21.985	3.0909	0.	4.2549e-002
2731	22.169	3.0909	0.	4.7007e-002
2732	22.352	3.0909	0.	5.2468e-002
2733	22.535	3.0909	0.	5.9361e-002
2734	22.718	3.0909	0.	6.8146e-002
2735	22.901	3.0909	0.	8.0497e-002
2736	23.084	3.0909	0.	9.5808e-002
2737	23.267	3.0909	0.	0.12758
2738	23.451	3.0909	0.	0.14585
2739	23.634	3.0909	0.	0.33206
2740	23.817	3.0909	0.	0.21701
2741	8.2498	2.9091	0.	-0.38626
2742	8.433	2.9091	0.	7.7317e-003
2743	8.6161	2.9091	0.	0.92785
2744	8.7992	2.9091	0.	-15.36
2745	8.9824	2.9091	0.	-169.98
2746	9.1655	2.9091	0.	-269.14
2747	9.3487	2.9091	0.	-326.04
2748	9.5318	2.9091	0.	-353.28
2749	9.7149	2.9091	0.	-360.69
2750	9.8981	2.9091	0.	-355.3
2751	10.081	2.9091	0.	-341.97
2752	10.264	2.9091	0.	-324.01
2753	10.448	2.9091	0.	-303.6
2754	10.631	2.9091	0.	-282.2
2755	10.814	2.9091	0.	-260.76
2756	10.997	2.9091	0.	-239.88
2757	11.18	2.9091	0.	-219.92
2758	11.363	2.9091	0.	-201.1
2759	11.546	2.9091	0.	-183.51
2760	11.73	2.9091	0.	-167.19
2761	11.913	2.9091	0.	-152.11
2762	12.096	2.9091	0.	-138.22
2763	12.279	2.9091	0.	-125.47
2764	12.462	2.9091	0.	-113.77
2765	12.645	2.9091	0.	-103.06
2766	12.828	2.9091	0.	-93.247
2767	13.011	2.9091	0.	-84.26
2768	13.195	2.9091	0.	-76.026
2769	13.378	2.9091	0.	-68.478
2770	13.561	2.9091	0.	-61.552
2771	13.744	2.9091	0.	-55.191
2772	13.927	2.9091	0.	-49.34
2773	14.11	2.9091	0.	-43.953
2774	14.293	2.9091	0.	-38.983
2775	14.477	2.9091	0.	-34.39
2776	14.66	2.9091	0.	-30.138
2777	14.843	2.9091	0.	-26.194
2778	15.026	2.9091	0.	-22.525
2779	15.209	2.9091	0.	-19.105
2780	15.392	2.9091	0.	-15.908
2781	15.575	2.9091	0.	-12.91
2782	15.759	2.9091	0.	-10.088
2783	15.942	2.9091	0.	-7.4235
2784	16.125	2.9091	0.	-4.8967
2785	16.308	2.9091	0.	-2.4901
2786	16.491	2.9091	0.	-0.18772
2787	16.674	2.9091	0.	9.5772e-003
2788	16.857	2.9091	0.	9.9875e-003
2789	17.041	2.9091	0.	1.0371e-002
2790	17.224	2.9091	0.	1.0754e-002
2791	17.407	2.9091	0.	1.116e-002
2792	17.59	2.9091	0.	1.1582e-002
2793	17.773	2.9091	0.	1.2017e-002
2794	17.956	2.9091	0.	1.2477e-002
2795	18.139	2.9091	0.	1.2975e-002
2796	18.323	2.9091	0.	1.349e-002
2797	18.506	2.9091	0.	1.4031e-002
2798	18.689	2.9091	0.	1.4616e-002
2799	18.872	2.9091	0.	1.5237e-002
2800	19.055	2.9091	0.	1.5909e-002
2801	19.238	2.9091	0.	1.6626e-002
2802	19.421	2.9091	0.	1.7391e-002
2803	19.605	2.9091	0.	1.8231e-002
2804	19.788	2.9091	0.	1.9144e-002
2805	19.971	2.9091	0.	2.0133e-002
2806	20.154	2.9091	0.	2.1214e-002
2807	20.337	2.9091	0.	2.2409e-002
2808	20.52	2.9091	0.	2.3721e-002
2809	20.703	2.9091	0.	2.5168e-002
2810	20.887	2.9091	0.	2.6789e-002
2811	21.07	2.9091	0.	2.861e-002
2812	21.253	2.9091	0.	3.0664e-002
2813	21.436	2.9091	0.	3.3005e-002
2814	21.619	2.9091	0.	3.57e-002
2815	21.802	2.9091	0.	3.8838e-002
2816	21.985	2.9091	0.	4.2545e-002
2817	22.169	2.9091	0.	4.7011e-002
2818	22.352	2.9091	0.	5.2468e-002
2819	22.535	2.9091	0.	5.9357e-002
2820	22.718	2.9091	0.	6.8147e-002
2821	22.901	2.9091	0.	8.0492e-002
2822	23.084	2.9091	0.	9.5805e-002
2823	23.267	2.9091	0.	0.12758
2824	23.451	2.9091	0.	0.14586
2825	23.634	2.9091	0.	0.33206
2826	23.817	2.9091	0.	0.21701
2827	8.2498	2.7273	0.	-3.1215
2828	8.433	2.7273	0.	-0.10437
2829	8.6161	2.7273	0.	0.81595
2830	8.7992	2.7273	0.	-33.331
2831	8.9824	2.7273	0.	-179.59
2832	9.1655	2.7273	0.	-271.18
2833	9.3487	2.7273	0.	-322.73
2834	9.5318	2.7273	0.	-346.78
2835	9.7149	2.7273	0.	-352.58
2836	9.8981	2.7273	0.	-346.63
2837	10.081	2.7273	0.	-333.38
2838	10.264	2.7273	0.	-315.84
2839	10.448	2.7273	0.	-296.05
2840	10.631	2.7273	0.	-275.35
2841	10.814	2.7273	0.	-254.63
2842	10.997	2.7273	0.	-234.43
2843	11.18	2.7273	0.	-215.12
2844	11.363	2.7273	0.	-196.88
2845	11.546	2.7273	0.	-179.82
2846	11.73	2.7273	0.	-163.95
2847	11.913	2.7273	0.	-149.28
2848	12.096	2.7273	0.	-135.76
2849	12.279	2.7273	0.	-123.32
2850	12.462	2.7273	0.	-111.89
2851	12.645	2.7273	0.	-101.42
2852	12.828	2.7273	0.	-91.806
2853	13.011	2.7273	0.	-82.995
2854	13.195	2.7273	0.	-74.914
2855	13.378	2.7273	0.	-67.497
2856	13.561	2.7273	0.	-60.686
2857	13.744	2.7273	0.	-54.424
2858	13.927	2.7273	0.	-48.66
2859	14.11	2.7273	0.	-43.347
2860	14.293	2.7273	0.	-38.443
2861	14.477	2.7273	0.	-33.909
2862	14.66	2.7273	0.	-29.708
2863	14.843	2.7273	0.	-25.809
2864	15.026	2.7273	0.	-22.181
2865	15.209	2.7273	0.	-18.797
2866	15.392	2.7273	0.	-15.632
2867	15.575	2.7273	0.	-12.663
2868	15.759	2.7273	0.	-9.8684
2869	15.942	2.7273	0.	-7.2282
2870	16.125	2.7273	0.	-4.7241
2871	16.308	2.7273	0.	-2.3387
2872	16.491	2.7273	0.	-7.0189e-002
2873	16.674	2.7273	0.	8.9768e-003
2874	16.857	2.7273	0.	9.6336e-003
2875	17.041	2.7273	0.	1.009e-002
2876	17.224	2.7273	0.	1.0513e-002
2877	17.407	2.7273	0.	1.0935e-002
2878	17.59	2.7273	0.	1.1369e-002
2879	17.773	2.7273	0.	1.181e-002
2880	17.956	2.7273	0.	1.2273e-002
2881	18.139	2.7273	0.	1.2774e-002
2882	18.323	2.7273	0.	1.3288e-002
2883	18.506	2.7273	0.	1.3828e-002
2884	18.689	2.7273	0.	1.4413e-002
2885	18.872	2.7273	0.	1.503e-002
2886	19.055	2.7273	0.	1.57e-002
2887	19.238	2.7273	0.	1.6415e-002
2888	19.421	2.7273	0.	1.7175e-002
2889	19.605	2.7273	0.	1.8008e-002
2890	19.788	2.7273	0.	1.8919e-002
2891	19.971	2.7273	0.	1.9902e-002
2892	20.154	2.7273	0.	2.0985e-002
2893	20.337	2.7273	0.	2.2168e-002
2894	20.52	2.7273	0.	2.3477e-002
2895	20.703	2.7273	0.	2.4918e-002
2896	20.887	2.7273	0.	2.6537e-002
2897	21.07	2.7273	0.	2.8353e-002
2898	21.253	2.7273	0.	3.0401e-002
2899	21.436	2.7273	0.	3.2739e-002
2900	21.619	2.7273	0.	3.5427e-002
2901	21.802	2.7273	0.	3.8564e-002
2902	21.985	2.7273	0.	4.2267e-002
2903	22.169	2.7273	0.	4.6727e-002
2904	22.352	2.7273	0.	5.2177e-002
2905	22.535	2.7273	0.	5.9058e-002
2906	22.718	2.7273	0.	6.7835e-002
2907	22.901	2.7273	0.	8.0164e-002
2908	23.084	2.7273	0.	9.545e-002
2909	23.267	2.7273	0.	0.12718
2910	23.451	2.7273	0.	0.1454
2911	23.634	2.7273	0.	0.33139
2912	23.817	2.7273	0.	0.2156
2913	8.2498	2.5455	0.	4.5938
2914	8.433	2.5455	0.	0.41251
2915	8.6161	2.5455	0.	-0.14504
2916	8.7992	2.5455	0.	-61.723
2917	8.9824	2.5455	0.	-191.49
2918	9.1655	2.5455	0.	-269.73
2919	9.3487	2.5455	0.	-312.62
2920	9.5318	2.5455	0.	-331.83
2921	9.7149	2.5455	0.	-335.42
2922	9.8981	2.5455	0.	-328.93
2923	10.081	2.5455	0.	-316.15
2924	10.264	2.5455	0.	-299.66
2925	10.448	2.5455	0.	-281.19
2926	10.631	2.5455	0.	-261.91
2927	10.814	2.5455	0.	-242.61
2928	10.997	2.5455	0.	-223.77
2929	11.18	2.5455	0.	-205.71
2930	11.363	2.5455	0.	-188.61
2931	11.546	2.5455	0.	-172.57
2932	11.73	2.5455	0.	-157.62
2933	11.913	2.5455	0.	-143.75
2934	12.096	2.5455	0.	-130.92
2935	12.279	2.5455	0.	-119.09
2936	12.462	2.5455	0.	-108.2
2937	12.645	2.5455	0.	-98.182
2938	12.828	2.5455	0.	-88.971
2939	13.011	2.5455	0.	-80.504
2940	13.195	2.5455	0.	-72.721
2941	13.378	2.5455	0.	-65.563
2942	13.561	2.5455	0.	-58.976
2943	13.744	2.5455	0.	-52.909
2944	13.927	2.5455	0.	-47.314
2945	14.11	2.5455	0.	-42.15
2946	14.293	2.5455	0.	-37.376
2947	14.477	2.5455	0.	-32.956
2948	14.66	2.5455	0.	-28.856
2949	14.843	2.5455	0.	-25.046
2950	15.026	2.5455	0.	-21.498
2951	15.209	2.5455	0.	-18.185
2952	15.392	2.5455	0.	-15.084
2953	15.575	2.5455	0.	-12.173
2954	15.759	2.5455	0.	-9.4312
2955	15.942	2.5455	0.	-6.8396
2956	16.125	2.5455	0.	-4.3804
2957	16.308	2.5455	0.	-2.0372
2958	16.491	2.5455	0.	-6.4782e-003
2959	16.674	2.5455	0.	7.9403e-003
2960	16.857	2.5455	0.	8.9623e-003
2961	17.041	2.5455	0.	9.5517e-003
2962	17.224	2.5455	0.	1.0032e-002
2963	17.407	2.5455	0.	1.0488e-002
2964	17.59	2.5455	0.	1.0945e-002
2965	17.773	2.5455	0.	1.1395e-002
2966	17.956	2.5455	0.	1.1865e-002
2967	18.139	2.5455	0.	1.2369e-002
2968	18.323	2.5455	0.	1.2881e-002
2969	18.506	2.5455	0.	1.3422e-002
2970	18.689	2.5455	0.	1.3999e-002
2971	18.872	2.5455	0.	1.4613e-002
2972	19.055	2.5455	0.	1.5277e-002
2973	19.238	2.5455	0.	1.5984e-002
2974	19.421	2.5455	0.	1.674e-002
2975	19.605	2.5455	0.	1.7563e-002
2976	19.788	2.5455	0.	1.8462e-002
2977	19.971	2.5455	0.	1.9439e-002
2978	20.154	2.5455	0.	2.0508e-002
2979	20.337	2.5455	0.	2.1683e-002
2980	20.52	2.5455	0.	2.2982e-002
2981	20.703	2.5455	0.	2.4416e-002
2982	20.887	2.5455	0.	2.6019e-002
2983	21.07	2.5455	0.	2.7827e-002
2984	21.253	2.5455	0.	2.9865e-002
2985	21.436	2.5455	0.	3.2192e-002
2986	21.619	2.5455	0.	3.4875e-002
2987	21.802	2.5455	0.	3.8002e-002
2988	21.985	2.5455	0.	4.1697e-002
2989	22.169	2.5455	0.	4.6143e-002
2990	22.352	2.5455	0.	5.1584e-002
2991	22.535	2.5455	0.	5.845e-002
2992	22.718	2.5455	0.	6.7199e-002
2993	22.901	2.5455	0.	7.9488e-002
2994	23.084	2.5455	0.	9.4723e-002
2995	23.267	2.5455	0.	0.12637
2996	23.451	2.5455	0.	0.14446
2997	23.634	2.5455	0.	0.33004
2998	23.817	2.5455	0.	0.21274
2999	8.2498	2.3636	0.	-17.52
3000	8.433	2.3636	0.	-9.2543
3001	8.6161	2.3636	0.	4.965
3002	8.7992	2.3636	0.	-80.733
3003	8.9824	2.3636	0.	-190.33
3004	9.1655	2.3636	0.	-255.05
3005	9.3487	2.3636	0.	-290.14
3006	9.5318	2.3636	0.	-305.53
3007	9.7149	2.3636	0.	-307.92
3008	9.8981	2.3636	0.	-301.86
3009	10.081	2.3636	0.	-290.45
3010	10.264	2.3636	0.	-275.84
3011	10.448	2.3636	0.	-259.49
3012	10.631	2.3636	0.	-242.39
3013	10.814	2.3636	0.	-225.19
3014	10.997	2.3636	0.	-208.33
3015	11.18	2.3636	0.	-192.1
3016	11.363	2.3636	0.	-176.66
3017	11.546	2.3636	0.	-162.09
3018	11.73	2.3636	0.	-148.45
3019	11.913	2.3636	0.	-135.73
3020	12.096	2.3636	0.	-123.91
3021	12.279	2.3636	0.	-112.96
3022	12.462	2.3636	0.	-102.83
3023	12.645	2.3636	0.	-93.472
3024	12.828	2.3636	0.	-84.835
3025	13.011	2.3636	0.	-76.866
3026	13.195	2.3636	0.	-69.514
3027	13.378	2.3636	0.	-62.73
3028	13.561	2.3636	0.	-56.468
3029	13.744	2.3636	0.	-50.683
3030	13.927	2.3636	0.	-45.335
3031	14.11	2.3636	0.	-40.387
3032	14.293	2.3636	0.	-35.802
3033	14.477	2.3636	0.	-31.548
3034	14.66	2.3636	0.	-27.596
3035	14.843	2.3636	0.	-23.917
3036	15.026	2.3636	0.	-20.485
3037	15.209	2.3636	0.	-17.277
3038	15.392	2.3636	0.	-14.271
3039	15.575	2.3636	0.	-11.445
3040	15.759	2.3636	0.	-8.7813
3041	15.942	2.3636	0.	-6.2614
3042	16.125	2.3636	0.	-3.8686
3043	16.308	2.3636	0.	-1.5886
3044	16.491	2.3636	0.	-1.8336e-003
3045	16.674	2.3636	0.	6.6897e-003
3046	16.857	2.3636	0.	8.046e-003
3047	17.041	2.3636	0.	8.7763e-003
3048	17.224	2.3636	0.	9.3325e-003
3049	17.407	2.3636	0.	9.8336e-003
3050	17.59	2.3636	0.	1.0308e-002
3051	17.773	2.3636	0.	1.0775e-002
3052	17.956	2.3636	0.	1.125e-002
3053	18.139	2.3636	0.	1.1755e-002
3054	18.323	2.3636	0.	1.2268e-002
3055	18.506	2.3636	0.	1.2801e-002
3056	18.689	2.3636	0.	1.3374e-002
3057	18.872	2.3636	0.	1.3979e-002
3058	19.055	2.3636	0.	1.4632e-002
3059	19.238	2.3636	0.	1.5329e-002
3060	19.421	2.3636	0.	1.6068e-002
3061	19.605	2.3636	0.	1.6882e-002
3062	19.788	2.3636	0.	1.7765e-002
3063	19.971	2.3636	0.	1.8727e-002
3064	20.154	2.3636	0.	1.9776e-002
3065	20.337	2.3636	0.	2.0941e-002
3066	20.52	2.3636	0.	2.2218e-002
3067	20.703	2.3636	0.	2.3631e-002
3068	20.887	2.3636	0.	2.5221e-002
3069	21.07	2.3636	0.	2.701e-002
3070	21.253	2.3636	0.	2.9032e-002
3071	21.436	2.3636	0.	3.1346e-002
3072	21.619	2.3636	0.	3.4013e-002
3073	21.802	2.3636	0.	3.7123e-002
3074	21.985	2.3636	0.	4.0801e-002
3075	22.169	2.3636	0.	4.5233e-002
3076	22.352	2.3636	0.	5.0653e-002
3077	22.535	2.3636	0.	5.7488e-002
3078	22.718	2.3636	0.	6.62e-002
3079	22.901	2.3636	0.	7.8435e-002
3080	23.084	2.3636	0.	9.3586e-002
3081	23.267	2.3636	0.	0.1251
3082	23.451	2.3636	0.	0.143
3083	23.634	2.3636	0.	0.32795
3084	23.817	2.3636	0.	0.20836
3085	8.2498	2.1818	0.	-13.838
3086	8.433	2.1818	0.	35.336
3087	8.6161	2.1818	0.	-7.6885
3088	8.7992	2.1818	0.	-55.978
3089	8.9824	2.1818	0.	-157.5
3090	9.1655	2.1818	0.	-217.25
3091	9.3487	2.1818	0.	-250.46
3092	9.5318	2.1818	0.	-265.84
3093	9.7149	2.1818	0.	-269.54
3094	9.8981	2.1818	0.	-265.64
3095	10.081	2.1818	0.	-256.89
3096	10.264	2.1818	0.	-245.19
3097	10.448	2.1818	0.	-231.8
3098	10.631	2.1818	0.	-217.58
3099	10.814	2.1818	0.	-203.12
3100	10.997	2.1818	0.	-188.8
3101	11.18	2.1818	0.	-174.88
3102	11.363	2.1818	0.	-161.52
3103	11.546	2.1818	0.	-148.81
3104	11.73	2.1818	0.	-136.81
3105	11.913	2.1818	0.	-125.53
3106	12.096	2.1818	0.	-114.98
3107	12.279	2.1818	0.	-105.13
3108	12.462	2.1818	0.	-95.965
3109	12.645	2.1818	0.	-87.443
3110	12.828	2.1818	0.	-79.531
3111	13.011	2.1818	0.	-72.19
3112	13.195	2.1818	0.	-65.384
3113	13.378	2.1818	0.	-59.075
3114	13.561	2.1818	0.	-53.225
3115	13.744	2.1818	0.	-47.801
3116	13.927	2.1818	0.	-42.768
3117	14.11	2.1818	0.	-38.095
3118	14.293	2.1818	0.	-33.753
3119	14.477	2.1818	0.	-29.713
3120	14.66	2.1818	0.	-25.95
3121	14.843	2.1818	0.	-22.44
3122	15.026	2.1818	0.	-19.159
3123	15.209	2.1818	0.	-16.086
3124	15.392	2.1818	0.	-13.202
3125	15.575	2.1818	0.	-10.488
3126	15.759	2.1818	0.	-7.9256
3127	15.942	2.1818	0.	-5.4992
3128	16.125	2.1818	0.	-3.1935
3129	16.308	2.1818	0.	-0.99853
3130	16.491	2.1818	0.	-7.2739e-004
3131	16.674	2.1818	0.	5.4018e-003
3132	16.857	2.1818	0.	6.9607e-003
3133	17.041	2.1818	0.	7.8108e-003
3134	17.224	2.1818	0.	8.435e-003
3135	17.407	2.1818	0.	8.9739e-003
3136	17.59	2.1818	0.	9.4732e-003
3137	17.773	2.1818	0.	9.9486e-003
3138	17.956	2.1818	0.	1.0429e-002
3139	18.139	2.1818	0.	1.0931e-002
3140	18.323	2.1818	0.	1.1437e-002
3141	18.506	2.1818	0.	1.1963e-002
3142	18.689	2.1818	0.	1.2524e-002
3143	18.872	2.1818	0.	1.3115e-002
3144	19.055	2.1818	0.	1.3751e-002
3145	19.238	2.1818	0.	1.4432e-002
3146	19.421	2.1818	0.	1.5153e-002
3147	19.605	2.1818	0.	1.5945e-002
3148	19.788	2.1818	0.	1.6809e-002
3149	19.971	2.1818	0.	1.7744e-002
3150	20.154	2.1818	0.	1.8774e-002
3151	20.337	2.1818	0.	1.9908e-002
3152	20.52	2.1818	0.	2.1161e-002
3153	20.703	2.1818	0.	2.2551e-002
3154	20.887	2.1818	0.	2.4111e-002
3155	21.07	2.1818	0.	2.5876e-002
3156	21.253	2.1818	0.	2.7871e-002
3157	21.436	2.1818	0.	3.0156e-002
3158	21.619	2.1818	0.	3.28e-002
3159	21.802	2.1818	0.	3.5885e-002
3160	21.985	2.1818	0.	3.9542e-002
3161	22.169	2.1818	0.	4.3944e-002
3162	22.352	2.1818	0.	4.9335e-002
3163	22.535	2.1818	0.	5.6129e-002
3164	22.718	2.1818	0.	6.4788e-002
3165	22.901	2.1818	0.	7.6945e-002
3166	23.084	2.1818	0.	9.1983e-002
3167	23.267	2.1818	0.	0.12331
3168	23.451	2.1818	0.	0.14096
3169	23.634	2.1818	0.	0.32503
3170	23.817	2.1818	0.	0.20234
3171	8.2498	2.	0.	-551.77
3172	8.433	2.	0.	76.353
3173	8.6161	2.	0.	-16.403
3174	8.7992	2.	0.	-8.8169
3175	8.9824	2.	0.	-85.45
3176	9.1655	2.	0.	-153.65
3177	9.3487	2.	0.	-193.11
3178	9.5318	2.	0.	-213.37
3179	9.7149	2.	0.	-221.4
3180	9.8981	2.	0.	-221.6
3181	10.081	2.	0.	-216.85
3182	10.264	2.	0.	-209.01
3183	10.448	2.	0.	-199.32
3184	10.631	2.	0.	-188.6
3185	10.814	2.	0.	-177.38
3186	10.997	2.	0.	-166.02
3187	11.18	2.	0.	-154.79
3188	11.363	2.	0.	-143.84
3189	11.546	2.	0.	-133.28
3190	11.73	2.	0.	-123.18
3191	11.913	2.	0.	-113.57
3192	12.096	2.	0.	-104.48
3193	12.279	2.	0.	-95.906
3194	12.462	2.	0.	-87.85
3195	12.645	2.	0.	-80.296
3196	12.828	2.	0.	-73.226
3197	13.011	2.	0.	-66.618
3198	13.195	2.	0.	-60.449
3199	13.378	2.	0.	-54.695
3200	13.561	2.	0.	-49.33
3201	13.744	2.	0.	-44.329
3202	13.927	2.	0.	-39.667
3203	14.11	2.	0.	-35.321
3204	14.293	2.	0.	-31.267
3205	14.477	2.	0.	-27.482
3206	14.66	2.	0.	-23.946
3207	14.843	2.	0.	-20.637
3208	15.026	2.	0.	-17.537
3209	15.209	2.	0.	-14.628
3210	15.392	2.	0.	-11.892
3211	15.575	2.	0.	-9.3117
3212	15.759	2.	0.	-6.8728
3213	15.942	2.	0.	-4.5602
3214	16.125	2.	0.	-2.3612
3215	16.308	2.	0.	-0.29872
3216	16.491	2.	0.	-3.8063e-004
3217	16.674	2.	0.	4.1778e-003
3218	16.857	2.	0.	5.7793e-003
3219	17.041	2.	0.	6.698e-003
3220	17.224	2.	0.	7.3666e-003
3221	17.407	2.	0.	7.9318e-003
3222	17.59	2.	0.	8.4422e-003
3223	17.773	2.	0.	8.9224e-003
3224	17.956	2.	0.	9.3986e-003
3225	18.139	2.	0.	9.8951e-003
3226	18.323	2.	0.	1.0388e-002
3227	18.506	2.	0.	1.0897e-002
3228	18.689	2.	0.	1.1441e-002
3229	18.872	2.	0.	1.201e-002
3230	19.055	2.	0.	1.2623e-002
3231	19.238	2.	0.	1.3279e-002
3232	19.421	2.	0.	1.3972e-002
3233	19.605	2.	0.	1.4733e-002
3234	19.788	2.	0.	1.5565e-002
3235	19.971	2.	0.	1.647e-002
3236	20.154	2.	0.	1.7461e-002
3237	20.337	2.	0.	1.856e-002
3238	20.52	2.	0.	1.9777e-002
3239	20.703	2.	0.	2.1128e-002
3240	20.887	2.	0.	2.2651e-002
3241	21.07	2.	0.	2.4373e-002
3242	21.253	2.	0.	2.6329e-002
3243	21.436	2.	0.	2.8575e-002
3244	21.619	2.	0.	3.1181e-002
3245	21.802	2.	0.	3.4227e-002
3246	21.985	2.	0.	3.7843e-002
3247	22.169	2.	0.	4.221e-002
3248	22.352	2.	0.	4.7552e-002
3249	22.535	2.	0.	5.4294e-002
3250	22.718	2.	0.	6.2881e-002
3251	22.901	2.	0.	7.4933e-002
3252	23.084	2.	0.	8.9827e-002
3253	23.267	2.	0.	0.12091
3254	23.451	2.	0.	0.13822
3255	23.634	2.	0.	0.32113
3256	23.817	2.	0.	0.19447
3257	8.2498	1.8182	0.	-149.15
3258	8.433	1.8182	0.	8.2902
3259	8.6161	1.8182	0.	-8.1911
3260	8.7992	1.8182	0.	-5.4084
3261	8.9824	1.8182	0.	-16.414
3262	9.1655	1.8182	0.	-74.5
3263	9.3487	1.8182	0.	-124.09
3264	9.5318	1.8182	0.	-152.31
3265	9.7149	1.8182	0.	-166.66
3266	9.8981	1.8182	0.	-172.3
3267	10.081	1.8182	0.	-172.45
3268	10.264	1.8182	0.	-169.15
3269	10.448	1.8182	0.	-163.66
3270	10.631	1.8182	0.	-156.81
3271	10.814	1.8182	0.	-149.15
3272	10.997	1.8182	0.	-141.04
3273	11.18	1.8182	0.	-132.72
3274	11.363	1.8182	0.	-124.38
3275	11.546	1.8182	0.	-116.14
3276	11.73	1.8182	0.	-108.09
3277	11.913	1.8182	0.	-100.29
3278	12.096	1.8182	0.	-92.786
3279	12.279	1.8182	0.	-85.602
3280	12.462	1.8182	0.	-78.758
3281	12.645	1.8182	0.	-72.261
3282	12.828	1.8182	0.	-66.113
3283	13.011	1.8182	0.	-60.31
3284	13.195	1.8182	0.	-54.843
3285	13.378	1.8182	0.	-49.703
3286	13.561	1.8182	0.	-44.876
3287	13.744	1.8182	0.	-40.347
3288	13.927	1.8182	0.	-36.1
3289	14.11	1.8182	0.	-32.12
3290	14.293	1.8182	0.	-28.39
3291	14.477	1.8182	0.	-24.894
3292	14.66	1.8182	0.	-21.614
3293	14.843	1.8182	0.	-18.536
3294	15.026	1.8182	0.	-15.643
3295	15.209	1.8182	0.	-12.921
3296	15.392	1.8182	0.	-10.354
3297	15.575	1.8182	0.	-7.9295
3298	15.759	1.8182	0.	-5.6332
3299	15.942	1.8182	0.	-3.453
3300	16.125	1.8182	0.	-1.3813
3301	16.308	1.8182	0.	-2.26e-002
3302	16.491	1.8182	0.	-3.2573e-004
3303	16.674	1.8182	0.	3.0531e-003
3304	16.857	1.8182	0.	4.5595e-003
3305	17.041	1.8182	0.	5.4789e-003
3306	17.224	1.8182	0.	6.1545e-003
3307	17.407	1.8182	0.	6.7215e-003
3308	17.59	1.8182	0.	7.2284e-003
3309	17.773	1.8182	0.	7.6989e-003
3310	17.956	1.8182	0.	8.1612e-003
3311	18.139	1.8182	0.	8.6359e-003
3312	18.323	1.8182	0.	9.1088e-003
3313	18.506	1.8182	0.	9.5912e-003
3314	18.689	1.8182	0.	1.0106e-002
3315	18.872	1.8182	0.	1.0645e-002
3316	19.055	1.8182	0.	1.1225e-002
3317	19.238	1.8182	0.	1.1843e-002
3318	19.421	1.8182	0.	1.2498e-002
3319	19.605	1.8182	0.	1.322e-002
3320	19.788	1.8182	0.	1.4007e-002
3321	19.971	1.8182	0.	1.4864e-002
3322	20.154	1.8182	0.	1.5808e-002
3323	20.337	1.8182	0.	1.6855e-002
3324	20.52	1.8182	0.	1.8019e-002
3325	20.703	1.8182	0.	1.9313e-002
3326	20.887	1.8182	0.	2.078e-002
3327	21.07	1.8182	0.	2.2444e-002
3328	21.253	1.8182	0.	2.4342e-002
3329	21.436	1.8182	0.	2.6526e-002
3330	21.619	1.8182	0.	2.9068e-002
3331	21.802	1.8182	0.	3.2058e-002
3332	21.985	1.8182	0.	3.5615e-002
3333	22.169	1.8182	0.	3.9916e-002
3334	22.352	1.8182	0.	4.5194e-002
3335	22.535	1.8182	0.	5.186e-002
3336	22.718	1.8182	0.	6.0349e-002
3337	22.901	1.8182	0.	7.2269e-002
3338	23.084	1.8182	0.	8.6971e-002
3339	23.267	1.8182	0.	0.11774
3340	23.451	1.8182	0.	0.13462
3341	23.634	1.8182	0.	0.31606
3342	23.817	1.8182	0.	0.18449
3343	8.2498	1.6364	0.	9.8023
3344	8.433	1.6364	0.	0.76274
3345	8.6161	1.6364	0.	-11.25
3346	8.7992	1.6364	0.	-3.2071
3347	8.9824	1.6364	0.	-6.0984
3348	9.1655	1.6364	0.	-15.275
3349	9.3487	1.6364	0.	-55.238
3350	9.5318	1.6364	0.	-89.611
3351	9.7149	1.6364	0.	-110.09
3352	9.8981	1.6364	0.	-121.25
3353	10.081	1.6364	0.	-126.46
3354	10.264	1.6364	0.	-127.82
3355	10.448	1.6364	0.	-126.65
3356	10.631	1.6364	0.	-123.79
3357	10.814	1.6364	0.	-119.77
3358	10.997	1.6364	0.	-114.97
3359	11.18	1.6364	0.	-109.63
3360	11.363	1.6364	0.	-103.96
3361	11.546	1.6364	0.	-98.097
3362	11.73	1.6364	0.	-92.149
3363	11.913	1.6364	0.	-86.203
3364	12.096	1.6364	0.	-80.329
3365	12.279	1.6364	0.	-74.576
3366	12.462	1.6364	0.	-68.986
3367	12.645	1.6364	0.	-63.588
3368	12.828	1.6364	0.	-58.401
3369	13.011	1.6364	0.	-53.44
3370	13.195	1.6364	0.	-48.713
3371	13.378	1.6364	0.	-44.221
3372	13.561	1.6364	0.	-39.964
3373	13.744	1.6364	0.	-35.938
3374	13.927	1.6364	0.	-32.137
3375	14.11	1.6364	0.	-28.552
3376	14.293	1.6364	0.	-25.173
3377	14.477	1.6364	0.	-21.989
3378	14.66	1.6364	0.	-18.991
3379	14.843	1.6364	0.	-16.165
3380	15.026	1.6364	0.	-13.5
3381	15.209	1.6364	0.	-10.985
3382	15.392	1.6364	0.	-8.607
3383	15.575	1.6364	0.	-6.3552
3384	15.759	1.6364	0.	-4.2187
3385	15.942	1.6364	0.	-2.1887
3386	16.125	1.6364	0.	-0.30923
3387	16.308	1.6364	0.	-8.0224e-003
3388	16.491	1.6364	0.	-4.2309e-004
3389	16.674	1.6364	0.	2.0318e-003
3390	16.857	1.6364	0.	3.3384e-003
3391	17.041	1.6364	0.	4.1886e-003
3392	17.224	1.6364	0.	4.829e-003
3393	17.407	1.6364	0.	5.3672e-003
3394	17.59	1.6364	0.	5.8471e-003
3395	17.773	1.6364	0.	6.2862e-003
3396	17.956	1.6364	0.	6.7176e-003
3397	18.139	1.6364	0.	7.159e-003
3398	18.323	1.6364	0.	7.5947e-003
3399	18.506	1.6364	0.	8.0398e-003
3400	18.689	1.6364	0.	8.5112e-003
3401	18.872	1.6364	0.	9.004e-003
3402	19.055	1.6364	0.	9.5358e-003
3403	19.238	1.6364	0.	1.0104e-002
3404	19.421	1.6364	0.	1.0704e-002
3405	19.605	1.6364	0.	1.1368e-002
3406	19.788	1.6364	0.	1.2095e-002
3407	19.971	1.6364	0.	1.2886e-002
3408	20.154	1.6364	0.	1.3766e-002
3409	20.337	1.6364	0.	1.474e-002
3410	20.52	1.6364	0.	1.583e-002
3411	20.703	1.6364	0.	1.7045e-002
3412	20.887	1.6364	0.	1.8431e-002
3413	21.07	1.6364	0.	2.0008e-002
3414	21.253	1.6364	0.	2.1817e-002
3415	21.436	1.6364	0.	2.3913e-002
3416	21.619	1.6364	0.	2.6366e-002
3417	21.802	1.6364	0.	2.9259e-002
3418	21.985	1.6364	0.	3.272e-002
3419	22.169	1.6364	0.	3.6927e-002
3420	22.352	1.6364	0.	4.2103e-002
3421	22.535	1.6364	0.	4.8659e-002
3422	22.718	1.6364	0.	5.7018e-002
3423	22.901	1.6364	0.	6.8767e-002
3424	23.084	1.6364	0.	8.3231e-002
3425	23.267	1.6364	0.	0.1136
3426	23.451	1.6364	0.	0.12994
3427	23.634	1.6364	0.	0.30953
3428	23.817	1.6364	0.	0.17199
3429	8.2498	1.4545	0.	-24.565
3430	8.433	1.4545	0.	-2.3267
3431	8.6161	1.4545	0.	-4.0876
3432	8.7992	1.4545	0.	-3.6797
3433	8.9824	1.4545	0.	-3.7825
3434	9.1655	1.4545	0.	-5.0725
3435	9.3487	1.4545	0.	-11.433
3436	9.5318	1.4545	0.	-34.179
3437	9.7149	1.4545	0.	-57.05
3438	9.8981	1.4545	0.	-72.298
3439	10.081	1.4545	0.	-81.816
3440	10.264	1.4545	0.	-87.408
3441	10.448	1.4545	0.	-90.269
3442	10.631	1.4545	0.	-91.172
3443	10.814	1.4545	0.	-90.628
3444	10.997	1.4545	0.	-88.993
3445	11.18	1.4545	0.	-86.527
3446	11.363	1.4545	0.	-83.431
3447	11.546	1.4545	0.	-79.863
3448	11.73	1.4545	0.	-75.956
3449	11.913	1.4545	0.	-71.818
3450	12.096	1.4545	0.	-67.539
3451	12.279	1.4545	0.	-63.193
3452	12.462	1.4545	0.	-58.841
3453	12.645	1.4545	0.	-54.532
3454	12.828	1.4545	0.	-50.305
3455	13.011	1.4545	0.	-46.19
3456	13.195	1.4545	0.	-42.208
3457	13.378	1.4545	0.	-38.375
3458	13.561	1.4545	0.	-34.701
3459	13.744	1.4545	0.	-31.193
3460	13.927	1.4545	0.	-27.852
3461	14.11	1.4545	0.	-24.678
3462	14.293	1.4545	0.	-21.666
3463	14.477	1.4545	0.	-18.813
3464	14.66	1.4545	0.	-16.112
3465	14.843	1.4545	0.	-13.555
3466	15.026	1.4545	0.	-11.135
3467	15.209	1.4545	0.	-8.8417
3468	15.392	1.4545	0.	-6.6678
3469	15.575	1.4545	0.	-4.604
3470	15.759	1.4545	0.	-2.6429
3471	15.942	1.4545	0.	-0.79173
3472	16.125	1.4545	0.	-2.0076e-002
3473	16.308	1.4545	0.	-4.3301e-003
3474	16.491	1.4545	0.	-6.1672e-004
3475	16.674	1.4545	0.	1.0948e-003
3476	16.857	1.4545	0.	2.1434e-003
3477	17.041	1.4545	0.	2.8624e-003
3478	17.224	1.4545	0.	3.4184e-003
3479	17.407	1.4545	0.	3.8905e-003
3480	17.59	1.4545	0.	4.3128e-003
3481	17.773	1.4545	0.	4.6997e-003
3482	17.956	1.4545	0.	5.0755e-003
3483	18.139	1.4545	0.	5.4625e-003
3484	18.323	1.4545	0.	5.8413e-003
3485	18.506	1.4545	0.	6.2267e-003
3486	18.689	1.4545	0.	6.6359e-003
3487	18.872	1.4545	0.	7.0664e-003
3488	19.055	1.4545	0.	7.5301e-003
3489	19.238	1.4545	0.	8.0258e-003
3490	19.421	1.4545	0.	8.5508e-003
3491	19.605	1.4545	0.	9.137e-003
3492	19.788	1.4545	0.	9.781e-003
3493	19.971	1.4545	0.	1.0484e-002
3494	20.154	1.4545	0.	1.1269e-002
3495	20.337	1.4545	0.	1.2146e-002
3496	20.52	1.4545	0.	1.3129e-002
3497	20.703	1.4545	0.	1.4235e-002
3498	20.887	1.4545	0.	1.5502e-002
3499	21.07	1.4545	0.	1.6959e-002
3500	21.253	1.4545	0.	1.8636e-002
3501	21.436	1.4545	0.	2.06e-002
3502	21.619	1.4545	0.	2.2913e-002
3503	21.802	1.4545	0.	2.5661e-002
3504	21.985	1.4545	0.	2.8975e-002
3505	22.169	1.4545	0.	3.3025e-002
3506	22.352	1.4545	0.	3.8046e-002
3507	22.535	1.4545	0.	4.4433e-002
3508	22.718	1.4545	0.	5.2602e-002
3509	22.901	1.4545	0.	6.4118e-002
3510	23.084	1.4545	0.	7.8275e-002
3511	23.267	1.4545	0.	0.10814
3512	23.451	1.4545	0.	0.1238
3513	23.634	1.4545	0.	0.30106
3514	23.817	1.4545	0.	0.15633
3515	8.2498	1.2727	0.	-7.8588
3516	8.433	1.2727	0.	-1.2209
3517	8.6161	1.2727	0.	-3.6042
3518	8.7992	1.2727	0.	-2.9004
3519	8.9824	1.2727	0.	-2.8355
3520	9.1655	1.2727	0.	-3.0611
3521	9.3487	1.2727	0.	-3.8737
3522	9.5318	1.2727	0.	-6.4097
3523	9.7149	1.2727	0.	-15.306
3524	9.8981	1.2727	0.	-29.516
3525	10.081	1.2727	0.	-41.46
3526	10.264	1.2727	0.	-50.236
3527	10.448	1.2727	0.	-56.422
3528	10.631	1.2727	0.	-60.567
3529	10.814	1.2727	0.	-63.081
3530	10.997	1.2727	0.	-64.272
3531	11.18	1.2727	0.	-64.386
3532	11.363	1.2727	0.	-63.621
3533	11.546	1.2727	0.	-62.147
3534	11.73	1.2727	0.	-60.111
3535	11.913	1.2727	0.	-57.639
3536	12.096	1.2727	0.	-54.841
3537	12.279	1.2727	0.	-51.808
3538	12.462	1.2727	0.	-48.622
3539	12.645	1.2727	0.	-45.346
3540	12.828	1.2727	0.	-42.036
3541	13.011	1.2727	0.	-38.734
3542	13.195	1.2727	0.	-35.476
3543	13.378	1.2727	0.	-32.289
3544	13.561	1.2727	0.	-29.191
3545	13.744	1.2727	0.	-26.198
3546	13.927	1.2727	0.	-23.319
3547	14.11	1.2727	0.	-20.56
3548	14.293	1.2727	0.	-17.923
3549	14.477	1.2727	0.	-15.409
3550	14.66	1.2727	0.	-13.015
3551	14.843	1.2727	0.	-10.737
3552	15.026	1.2727	0.	-8.5721
3553	15.209	1.2727	0.	-6.5135
3554	15.392	1.2727	0.	-4.5555
3555	15.575	1.2727	0.	-2.6927
3556	15.759	1.2727	0.	-0.9313
3557	15.942	1.2727	0.	-2.9952e-002
3558	16.125	1.2727	0.	-7.397e-003
3559	16.308	1.2727	0.	-2.8396e-003
3560	16.491	1.2727	0.	-8.8322e-004
3561	16.674	1.2727	0.	2.3072e-004
3562	16.857	1.2727	0.	9.8431e-004
3563	17.041	1.2727	0.	1.5261e-003
3564	17.224	1.2727	0.	1.9534e-003
3565	17.407	1.2727	0.	2.3232e-003
3566	17.59	1.2727	0.	2.6514e-003
3567	17.773	1.2727	0.	2.9546e-003
3568	17.956	1.2727	0.	3.2502e-003
3569	18.139	1.2727	0.	3.5547e-003
3570	18.323	1.2727	0.	3.8525e-003
3571	18.506	1.2727	0.	4.1553e-003
3572	18.689	1.2727	0.	4.48e-003
3573	18.872	1.2727	0.	4.8219e-003
3574	19.055	1.2727	0.	5.1928e-003
3575	19.238	1.2727	0.	5.5923e-003
3576	19.421	1.2727	0.	6.0166e-003
3577	19.605	1.2727	0.	6.4957e-003
3578	19.788	1.2727	0.	7.0249e-003
3579	19.971	1.2727	0.	7.6092e-003
3580	20.154	1.2727	0.	8.2633e-003
3581	20.337	1.2727	0.	9.0068e-003
3582	20.52	1.2727	0.	9.8456e-003
3583	20.703	1.2727	0.	1.0797e-002
3584	20.887	1.2727	0.	1.1899e-002
3585	21.07	1.2727	0.	1.3182e-002
3586	21.253	1.2727	0.	1.4678e-002
3587	21.436	1.2727	0.	1.6438e-002
3588	21.619	1.2727	0.	1.8542e-002
3589	21.802	1.2727	0.	2.1071e-002
3590	21.985	1.2727	0.	2.4153e-002
3591	22.169	1.2727	0.	2.7965e-002
3592	22.352	1.2727	0.	3.2731e-002
3593	22.535	1.2727	0.	3.8854e-002
3594	22.718	1.2727	0.	4.6738e-002
3595	22.901	1.2727	0.	5.792e-002
3596	23.084	1.2727	0.	7.1667e-002
3597	23.267	1.2727	0.	0.10088
3598	23.451	1.2727	0.	0.11569
3599	23.634	1.2727	0.	0.28999
3600	23.817	1.2727	0.	0.13665
3601	8.2498	1.0909	0.	-9.1415
3602	8.433	1.0909	0.	-0.83314
3603	8.6161	1.0909	0.	-3.1309
3604	8.7992	1.0909	0.	-2.3677
3605	8.9824	1.0909	0.	-2.3267
3606	9.1655	1.0909	0.	-2.2005
3607	9.3487	1.0909	0.	-2.2222
3608	9.5318	1.0909	0.	-2.4019
3609	9.7149	1.0909	0.	-2.9321
3610	9.8981	1.0909	0.	-4.5655
3611	10.081	1.0909	0.	-9.9255
3612	10.264	1.0909	0.	-18.754
3613	10.448	1.0909	0.	-26.941
3614	10.631	1.0909	0.	-33.478
3615	10.814	1.0909	0.	-38.397
3616	10.997	1.0909	0.	-41.88
3617	11.18	1.0909	0.	-44.122
3618	11.363	1.0909	0.	-45.307
3619	11.546	1.0909	0.	-45.603
3620	11.73	1.0909	0.	-45.166
3621	11.913	1.0909	0.	-44.133
3622	12.096	1.0909	0.	-42.626
3623	12.279	1.0909	0.	-40.753
3624	12.462	1.0909	0.	-38.605
3625	12.645	1.0909	0.	-36.262
3626	12.828	1.0909	0.	-33.788
3627	13.011	1.0909	0.	-31.238
3628	13.195	1.0909	0.	-28.657
3629	13.378	1.0909	0.	-26.078
3630	13.561	1.0909	0.	-23.531
3631	13.744	1.0909	0.	-21.035
3632	13.927	1.0909	0.	-18.607
3633	14.11	1.0909	0.	-16.257
3634	14.293	1.0909	0.	-13.993
3635	14.477	1.0909	0.	-11.818
3636	14.66	1.0909	0.	-9.7344
3637	14.843	1.0909	0.	-7.7419
3638	15.026	1.0909	0.	-5.8388
3639	15.209	1.0909	0.	-4.0223
3640	15.392	1.0909	0.	-2.2905
3641	15.575	1.0909	0.	-0.6599
3642	15.759	1.0909	0.	-2.4447e-002
3643	15.942	1.0909	0.	-7.8719e-003
3644	16.125	1.0909	0.	-3.9137e-003
3645	16.308	1.0909	0.	-2.1716e-003
3646	16.491	1.0909	0.	-1.2085e-003
3647	16.674	1.0909	0.	-5.8973e-004
3648	16.857	1.0909	0.	-1.3877e-004
3649	17.041	1.0909	0.	1.8797e-004
3650	17.224	1.0909	0.	4.4729e-004
3651	17.407	1.0909	0.	6.742e-004
3652	17.59	1.0909	0.	8.7292e-004
3653	17.773	1.0909	0.	1.0557e-003
3654	17.956	1.0909	0.	1.2363e-003
3655	18.139	1.0909	0.	1.4279e-003
3656	18.323	1.0909	0.	1.6099e-003
3657	18.506	1.0909	0.	1.7963e-003
3658	18.689	1.0909	0.	2.0063e-003
3659	18.872	1.0909	0.	2.2235e-003
3660	19.055	1.0909	0.	2.4683e-003
3661	19.238	1.0909	0.	2.7358e-003
3662	19.421	1.0909	0.	3.0185e-003
3663	19.605	1.0909	0.	3.3511e-003
3664	19.788	1.0909	0.	3.7215e-003
3665	19.971	1.0909	0.	4.1403e-003
3666	20.154	1.0909	0.	4.6175e-003
3667	20.337	1.0909	0.	5.1685e-003
3668	20.52	1.0909	0.	5.8059e-003
3669	20.703	1.0909	0.	6.5367e-003
3670	20.887	1.0909	0.	7.404e-003
3671	21.07	1.0909	0.	8.4332e-003
3672	21.253	1.0909	0.	9.6535e-003
3673	21.436	1.0909	0.	1.1121e-002
3674	21.619	1.0909	0.	1.2907e-002
3675	21.802	1.0909	0.	1.5091e-002
3676	21.985	1.0909	0.	1.7805e-002
3677	22.169	1.0909	0.	2.1221e-002
3678	22.352	1.0909	0.	2.5567e-002
3679	22.535	1.0909	0.	3.1242e-002
3680	22.718	1.0909	0.	3.8646e-002
3681	22.901	1.0909	0.	4.9296e-002
3682	23.084	1.0909	0.	6.2424e-002
3683	23.267	1.0909	0.	9.0743e-002
3684	23.451	1.0909	0.	0.10438
3685	23.634	1.0909	0.	0.27484
3686	23.817	1.0909	0.	0.11099
3687	8.2498	0.90909	0.	-7.2605
3688	8.433	0.90909	0.	-1.1379
3689	8.6161	0.90909	0.	-2.7281
3690	8.7992	0.90909	0.	-2.148
3691	8.9824	0.90909	0.	-1.9565
3692	9.1655	0.90909	0.	-1.6813
3693	9.3487	0.90909	0.	-1.4843
3694	9.5318	0.90909	0.	-1.3377
3695	9.7149	0.90909	0.	-1.2595
3696	9.8981	0.90909	0.	-1.2712
3697	10.081	0.90909	0.	-1.4513
3698	10.264	0.90909	0.	-2.1338
3699	10.448	0.90909	0.	-5.0698
3700	10.631	0.90909	0.	-11.461
3701	10.814	0.90909	0.	-17.732
3702	10.997	0.90909	0.	-22.77
3703	11.18	0.90909	0.	-26.54
3704	11.363	0.90909	0.	-29.169
3705	11.546	0.90909	0.	-30.807
3706	11.73	0.90909	0.	-31.606
3707	11.913	0.90909	0.	-31.706
3708	12.096	0.90909	0.	-31.238
3709	12.279	0.90909	0.	-30.314
3710	12.462	0.90909	0.	-29.033
3711	12.645	0.90909	0.	-27.483
3712	12.828	0.90909	0.	-25.733
3713	13.011	0.90909	0.	-23.846
3714	13.195	0.90909	0.	-21.87
3715	13.378	0.90909	0.	-19.847
3716	13.561	0.90909	0.	-17.808
3717	13.744	0.90909	0.	-15.779
3718	13.927	0.90909	0.	-13.779
3719	14.11	0.90909	0.	-11.823
3720	14.293	0.90909	0.	-9.9204
3721	14.477	0.90909	0.	-8.0795
3722	14.66	0.90909	0.	-6.3044
3723	14.843	0.90909	0.	-4.5973
3724	15.026	0.90909	0.	-2.9595
3725	15.209	0.90909	0.	-1.3944
3726	15.392	0.90909	0.	-9.7845e-002
3727	15.575	0.90909	0.	-1.2149e-002
3728	15.759	0.90909	0.	-5.6655e-003
3729	15.942	0.90909	0.	-3.4958e-003
3730	16.125	0.90909	0.	-2.468e-003
3731	16.308	0.90909	0.	-1.8993e-003
3732	16.491	0.90909	0.	-1.566e-003
3733	16.674	0.90909	0.	-1.3499e-003
3734	16.857	0.90909	0.	-1.19e-003
3735	17.041	0.90909	0.	-1.0925e-003
3736	17.224	0.90909	0.	-1.0263e-003
3737	17.407	0.90909	0.	-9.7031e-004
3738	17.59	0.90909	0.	-9.2379e-004
3739	17.773	0.90909	0.	-8.9099e-004
3740	17.956	0.90909	0.	-8.5625e-004
3741	18.139	0.90909	0.	-8.0447e-004
3742	18.323	0.90909	0.	-7.623e-004
3743	18.506	0.90909	0.	-7.1912e-004
3744	18.689	0.90909	0.	-6.5932e-004
3745	18.872	0.90909	0.	-5.9529e-004
3746	19.055	0.90909	0.	-5.0833e-004
3747	19.238	0.90909	0.	-4.1147e-004
3748	19.421	0.90909	0.	-3.0364e-004
3749	19.605	0.90909	0.	-1.613e-004
3750	19.788	0.90909	0.	1.2977e-005
3751	19.971	0.90909	0.	2.1783e-004
3752	20.154	0.90909	0.	4.6576e-004
3753	20.337	0.90909	0.	7.6978e-004
3754	20.52	0.90909	0.	1.1364e-003
3755	20.703	0.90909	0.	1.5763e-003
3756	20.887	0.90909	0.	2.1306e-003
3757	21.07	0.90909	0.	2.8135e-003
3758	21.253	0.90909	0.	3.6566e-003
3759	21.436	0.90909	0.	4.7142e-003
3760	21.619	0.90909	0.	6.0428e-003
3761	21.802	0.90909	0.	7.7347e-003
3762	21.985	0.90909	0.	9.8978e-003
3763	22.169	0.90909	0.	1.2714e-002
3764	22.352	0.90909	0.	1.6404e-002
3765	22.535	0.90909	0.	2.1363e-002
3766	22.718	0.90909	0.	2.7994e-002
3767	22.901	0.90909	0.	3.779e-002
3768	23.084	0.90909	0.	4.9969e-002
3769	23.267	0.90909	0.	7.6988e-002
3770	23.451	0.90909	0.	8.9165e-002
3771	23.634	0.90909	0.	0.25466
3772	23.817	0.90909	0.	7.8179e-002
3773	8.2498	0.72727	0.	-7.261
3774	8.433	0.72727	0.	-1.5805
3775	8.6161	0.72727	0.	-2.7954
3776	8.7992	0.72727	0.	-2.0228
3777	8.9824	0.72727	0.	-1.6575
3778	9.1655	0.72727	0.	-1.2859
3779	9.3487	0.72727	0.	-1.0214
3780	9.5318	0.72727	0.	-0.82405
3781	9.7149	0.72727	0.	-0.68567
3782	9.8981	0.72727	0.	-0.59374
3783	10.081	0.72727	0.	-0.54417
3784	10.264	0.72727	0.	-0.54268
3785	10.448	0.72727	0.	-0.62391
3786	10.631	0.72727	0.	-0.96737
3787	10.814	0.72727	0.	-2.9613
3788	10.997	0.72727	0.	-7.8248
3789	11.18	0.72727	0.	-12.314
3790	11.363	0.72727	0.	-15.763
3791	11.546	0.72727	0.	-18.223
3792	11.73	0.72727	0.	-19.82
3793	11.913	0.72727	0.	-20.687
3794	12.096	0.72727	0.	-20.95
3795	12.279	0.72727	0.	-20.722
3796	12.462	0.72727	0.	-20.1
3797	12.645	0.72727	0.	-19.172
3798	12.828	0.72727	0.	-18.009
3799	13.011	0.72727	0.	-16.673
3800	13.195	0.72727	0.	-15.216
3801	13.378	0.72727	0.	-13.678
3802	13.561	0.72727	0.	-12.094
3803	13.744	0.72727	0.	-10.49
3804	13.927	0.72727	0.	-8.8868
3805	14.11	0.72727	0.	-7.3013
3806	14.293	0.72727	0.	-5.7452
3807	14.477	0.72727	0.	-4.2273
3808	14.66	0.72727	0.	-2.7542
3809	14.843	0.72727	0.	-1.3322
3810	15.026	0.72727	0.	-9.2235e-002
3811	15.209	0.72727	0.	-7.9292e-003
3812	15.392	0.72727	0.	-3.5839e-003
3813	15.575	0.72727	0.	-2.3552e-003
3814	15.759	0.72727	0.	-1.9129e-003
3815	15.942	0.72727	0.	-1.7853e-003
3816	16.125	0.72727	0.	-1.7995e-003
3817	16.308	0.72727	0.	-1.8838e-003
3818	16.491	0.72727	0.	-2.0177e-003
3819	16.674	0.72727	0.	-2.1684e-003
3820	16.857	0.72727	0.	-2.3164e-003
3821	17.041	0.72727	0.	-2.4878e-003
3822	17.224	0.72727	0.	-2.6642e-003
3823	17.407	0.72727	0.	-2.8368e-003
3824	17.59	0.72727	0.	-3.0078e-003
3825	17.773	0.72727	0.	-3.185e-003
3826	17.956	0.72727	0.	-3.3581e-003
3827	18.139	0.72727	0.	-3.516e-003
3828	18.323	0.72727	0.	-3.6878e-003
3829	18.506	0.72727	0.	-3.8618e-003
3830	18.689	0.72727	0.	-4.0275e-003
3831	18.872	0.72727	0.	-4.1933e-003
3832	19.055	0.72727	0.	-4.3516e-003
3833	19.238	0.72727	0.	-4.5103e-003
3834	19.421	0.72727	0.	-4.6729e-003
3835	19.605	0.72727	0.	-4.8241e-003
3836	19.788	0.72727	0.	-4.9618e-003
3837	19.971	0.72727	0.	-5.0902e-003
3838	20.154	0.72727	0.	-5.205e-003
3839	20.337	0.72727	0.	-5.2931e-003
3840	20.52	0.72727	0.	-5.3492e-003
3841	20.703	0.72727	0.	-5.3735e-003
3842	20.887	0.72727	0.	-5.3338e-003
3843	21.07	0.72727	0.	-5.2149e-003
3844	21.253	0.72727	0.	-4.9904e-003
3845	21.436	0.72727	0.	-4.6274e-003
3846	21.619	0.72727	0.	-4.0688e-003
3847	21.802	0.72727	0.	-3.2398e-003
3848	21.985	0.72727	0.	-2.0426e-003
3849	22.169	0.72727	0.	-3.196e-004
3850	22.352	0.72727	0.	2.139e-003
3851	22.535	0.72727	0.	5.7006e-003
3852	22.718	0.72727	0.	1.0756e-002
3853	22.901	0.72727	0.	1.8761e-002
3854	23.084	0.72727	0.	2.8893e-002
3855	23.267	0.72727	0.	5.3391e-002
3856	23.451	0.72727	0.	6.2658e-002
3857	23.634	0.72727	0.	0.21993
3858	23.817	0.72727	0.	2.5787e-002
3859	8.2498	0.54545	0.	-8.179
3860	8.433	0.54545	0.	-2.8373
3861	8.6161	0.54545	0.	-3.1792
3862	8.7992	0.54545	0.	-1.9426
3863	8.9824	0.54545	0.	-1.3335
3864	9.1655	0.54545	0.	-0.8949
3865	9.3487	0.54545	0.	-0.63581
3866	9.5318	0.54545	0.	-0.46553
3867	9.7149	0.54545	0.	-0.35401
3868	9.8981	0.54545	0.	-0.27945
3869	10.081	0.54545	0.	-0.23085
3870	10.264	0.54545	0.	-0.20189
3871	10.448	0.54545	0.	-0.19065
3872	10.631	0.54545	0.	-0.20109
3873	10.814	0.54545	0.	-0.25453
3874	10.997	0.54545	0.	-0.4836
3875	11.18	0.54545	0.	-2.2193
3876	11.363	0.54545	0.	-5.5182
3877	11.546	0.54545	0.	-8.1858
3878	11.73	0.54545	0.	-10.083
3879	11.913	0.54545	0.	-11.303
3880	12.096	0.54545	0.	-11.953
3881	12.279	0.54545	0.	-12.135
3882	12.462	0.54545	0.	-11.939
3883	12.645	0.54545	0.	-11.442
3884	12.828	0.54545	0.	-10.711
3885	13.011	0.54545	0.	-9.8024
3886	13.195	0.54545	0.	-8.7634
3887	13.378	0.54545	0.	-7.6321
3888	13.561	0.54545	0.	-6.4402
3889	13.744	0.54545	0.	-5.2126
3890	13.927	0.54545	0.	-3.9694
3891	14.11	0.54545	0.	-2.7263
3892	14.293	0.54545	0.	-1.4954
3893	14.477	0.54545	0.	-0.29173
3894	14.66	0.54545	0.	-1.0636e-004
3895	14.843	0.54545	0.	9.4438e-004
3896	15.026	0.54545	0.	7.9622e-004
3897	15.209	0.54545	0.	4.3669e-004
3898	15.392	0.54545	0.	5.4947e-006
3899	15.575	0.54545	0.	-4.0846e-004
3900	15.759	0.54545	0.	-8.1064e-004
3901	15.942	0.54545	0.	-1.2065e-003
3902	16.125	0.54545	0.	-1.5845e-003
3903	16.308	0.54545	0.	-1.9461e-003
3904	16.491	0.54545	0.	-2.2998e-003
3905	16.674	0.54545	0.	-2.6365e-003
3906	16.857	0.54545	0.	-2.9445e-003
3907	17.041	0.54545	0.	-3.262e-003
3908	17.224	0.54545	0.	-3.5754e-003
3909	17.407	0.54545	0.	-3.8736e-003
3910	17.59	0.54545	0.	-4.1679e-003
3911	17.773	0.54545	0.	-4.4693e-003
3912	17.956	0.54545	0.	-4.7631e-003
3913	18.139	0.54545	0.	-5.0484e-003
3914	18.323	0.54545	0.	-5.3465e-003
3915	18.506	0.54545	0.	-5.6555e-003
3916	18.689	0.54545	0.	-5.9635e-003
3917	18.872	0.54545	0.	-6.2795e-003
3918	19.055	0.54545	0.	-6.6013e-003
3919	19.238	0.54545	0.	-6.93e-003
3920	19.421	0.54545	0.	-7.2858e-003
3921	19.605	0.54545	0.	-7.6405e-003
3922	19.788	0.54545	0.	-8.0032e-003
3923	19.971	0.54545	0.	-8.3849e-003
3924	20.154	0.54545	0.	-8.7769e-003
3925	20.337	0.54545	0.	-9.1715e-003
3926	20.52	0.54545	0.	-9.5762e-003
3927	20.703	0.54545	0.	-9.9875e-003
3928	20.887	0.54545	0.	-1.0388e-002
3929	21.07	0.54545	0.	-1.0771e-002
3930	21.253	0.54545	0.	-1.1124e-002
3931	21.436	0.54545	0.	-1.1415e-002
3932	21.619	0.54545	0.	-1.1616e-002
3933	21.802	0.54545	0.	-1.1675e-002
3934	21.985	0.54545	0.	-1.1514e-002
3935	22.169	0.54545	0.	-1.1007e-002
3936	22.352	0.54545	0.	-9.9934e-003
3937	22.535	0.54545	0.	-8.1534e-003
3938	22.718	0.54545	0.	-5.1382e-003
3939	22.901	0.54545	0.	4.0722e-004
3940	23.084	0.54545	0.	7.6889e-003
3941	23.267	0.54545	0.	2.8586e-002
3942	23.451	0.54545	0.	3.2376e-002
3943	23.634	0.54545	0.	0.18281
3944	23.817	0.54545	0.	-2.8966e-002
3945	8.2498	0.36364	0.	-10.775
3946	8.433	0.36364	0.	-4.9953
3947	8.6161	0.36364	0.	-3.6318
3948	8.7992	0.36364	0.	-1.7057
3949	8.9824	0.36364	0.	-0.99648
3950	9.1655	0.36364	0.	-0.62452
3951	9.3487	0.36364	0.	-0.44814
3952	9.5318	0.36364	0.	-0.34293
3953	9.7149	0.36364	0.	-0.27313
3954	9.8981	0.36364	0.	-0.22067
3955	10.081	0.36364	0.	-0.17919
3956	10.264	0.36364	0.	-0.1458
3957	10.448	0.36364	0.	-0.11949
3958	10.631	0.36364	0.	-0.10004
3959	10.814	0.36364	0.	-8.8159e-002
3960	10.997	0.36364	0.	-8.6651e-002
3961	11.18	0.36364	0.	-0.10601
3962	11.363	0.36364	0.	-0.20835
3963	11.546	0.36364	0.	-1.0261
3964	11.73	0.36364	0.	-2.5334
3965	11.913	0.36364	0.	-3.64
3966	12.096	0.36364	0.	-4.304
3967	12.279	0.36364	0.	-4.5912
3968	12.462	0.36364	0.	-4.57
3969	12.645	0.36364	0.	-4.3013
3970	12.828	0.36364	0.	-3.8377
3971	13.011	0.36364	0.	-3.2239
3972	13.195	0.36364	0.	-2.4972
3973	13.378	0.36364	0.	-1.6889
3974	13.561	0.36364	0.	-0.82645
3975	13.744	0.36364	0.	-4.1386e-002
3976	13.927	0.36364	0.	1.2209e-002
3977	14.11	0.36364	0.	1.3918e-002
3978	14.293	0.36364	0.	1.3157e-002
3979	14.477	0.36364	0.	1.1812e-002
3980	14.66	0.36364	0.	1.0272e-002
3981	14.843	0.36364	0.	8.6879e-003
3982	15.026	0.36364	0.	7.1226e-003
3983	15.209	0.36364	0.	5.592e-003
3984	15.392	0.36364	0.	4.0886e-003
3985	15.575	0.36364	0.	2.6609e-003
3986	15.759	0.36364	0.	1.2926e-003
3987	15.942	0.36364	0.	-3.2297e-005
3988	16.125	0.36364	0.	-1.3075e-003
3989	16.308	0.36364	0.	-2.5343e-003
3990	16.491	0.36364	0.	-3.7299e-003
3991	16.674	0.36364	0.	-4.8864e-003
3992	16.857	0.36364	0.	-5.9964e-003
3993	17.041	0.36364	0.	-7.1021e-003
3994	17.224	0.36364	0.	-8.1968e-003
3995	17.407	0.36364	0.	-9.2708e-003
3996	17.59	0.36364	0.	-1.0344e-002
3997	17.773	0.36364	0.	-1.1424e-002
3998	17.956	0.36364	0.	-1.2514e-002
3999	18.139	0.36364	0.	-1.3601e-002
4000	18.323	0.36364	0.	-1.4731e-002
4001	18.506	0.36364	0.	-1.5894e-002
4002	18.689	0.36364	0.	-1.7088e-002
4003	18.872	0.36364	0.	-1.8334e-002
4004	19.055	0.36364	0.	-1.9632e-002
4005	19.238	0.36364	0.	-2.0995e-002
4006	19.421	0.36364	0.	-2.2444e-002
4007	19.605	0.36364	0.	-2.3968e-002
4008	19.788	0.36364	0.	-2.5586e-002
4009	19.971	0.36364	0.	-2.7316e-002
4010	20.154	0.36364	0.	-2.9164e-002
4011	20.337	0.36364	0.	-3.1144e-002
4012	20.52	0.36364	0.	-3.3279e-002
4013	20.703	0.36364	0.	-3.5582e-002
4014	20.887	0.36364	0.	-3.8064e-002
4015	21.07	0.36364	0.	-4.0746e-002
4016	21.253	0.36364	0.	-4.3654e-002
4017	21.436	0.36364	0.	-4.6806e-002
4018	21.619	0.36364	0.	-5.0226e-002
4019	21.802	0.36364	0.	-5.3936e-002
4020	21.985	0.36364	0.	-5.7949e-002
4021	22.169	0.36364	0.	-6.2271e-002
4022	22.352	0.36364	0.	-6.6903e-002
4023	22.535	0.36364	0.	-7.1752e-002
4024	22.718	0.36364	0.	-7.6795e-002
4025	22.901	0.36364	0.	-8.1184e-002
4026	23.084	0.36364	0.	-8.6133e-002
4027	23.267	0.36364	0.	-8.2209e-002
4028	23.451	0.36364	0.	-9.5038e-002
4029	23.634	0.36364	0.	4.1222e-003
4030	23.817	0.36364	0.	-0.28117
4031	8.2498	0.18182	0.	-21.888
4032	8.433	0.18182	0.	-7.1966
4033	8.6161	0.18182	0.	-3.4319
4034	8.7992	0.18182	0.	-1.0734
4035	8.9824	0.18182	0.	-0.29724
4036	9.1655	0.18182	0.	3.067e-002
4037	9.3487	0.18182	0.	0.11861
4038	9.5318	0.18182	0.	0.12404
4039	9.7149	0.18182	0.	0.10017
4040	9.8981	0.18182	0.	7.2698e-002
4041	10.081	0.18182	0.	4.9701e-002
4042	10.264	0.18182	0.	3.292e-002
4043	10.448	0.18182	0.	2.1275e-002
4044	10.631	0.18182	0.	1.2944e-002
4045	10.814	0.18182	0.	6.1049e-003
4046	10.997	0.18182	0.	-8.4983e-004
4047	11.18	0.18182	0.	-9.2757e-003
4048	11.363	0.18182	0.	-2.0135e-002
4049	11.546	0.18182	0.	-3.3738e-002
4050	11.73	0.18182	0.	-4.9229e-002
4051	11.913	0.18182	0.	-6.3918e-002
4052	12.096	0.18182	0.	-7.405e-002
4053	12.279	0.18182	0.	-7.7064e-002
4054	12.462	0.18182	0.	-7.3301e-002
4055	12.645	0.18182	0.	-6.5255e-002
4056	12.828	0.18182	0.	-5.5651e-002
4057	13.011	0.18182	0.	-4.6373e-002
4058	13.195	0.18182	0.	-3.8238e-002
4059	13.378	0.18182	0.	-3.1435e-002
4060	13.561	0.18182	0.	-2.5897e-002
4061	13.744	0.18182	0.	-2.1421e-002
4062	13.927	0.18182	0.	-1.782e-002
4063	14.11	0.18182	0.	-1.494e-002
4064	14.293	0.18182	0.	-1.2582e-002
4065	14.477	0.18182	0.	-1.0649e-002
4066	14.66	0.18182	0.	-9.0691e-003
4067	14.843	0.18182	0.	-7.7567e-003
4068	15.026	0.18182	0.	-6.6492e-003
4069	15.209	0.18182	0.	-5.7173e-003
4070	15.392	0.18182	0.	-4.9455e-003
4071	15.575	0.18182	0.	-4.2641e-003
4072	15.759	0.18182	0.	-3.6676e-003
4073	15.942	0.18182	0.	-3.1561e-003
4074	16.125	0.18182	0.	-2.7062e-003
4075	16.308	0.18182	0.	-2.3045e-003
4076	16.491	0.18182	0.	-1.9566e-003
4077	16.674	0.18182	0.	-1.6415e-003
4078	16.857	0.18182	0.	-1.3389e-003
4079	17.041	0.18182	0.	-1.0825e-003
4080	17.224	0.18182	0.	-8.5599e-004
4081	17.407	0.18182	0.	-6.4478e-004
4082	17.59	0.18182	0.	-4.58e-004
4083	17.773	0.18182	0.	-2.9471e-004
4084	17.956	0.18182	0.	-1.4674e-004
4085	18.139	0.18182	0.	-6.7566e-006
4086	18.323	0.18182	0.	9.9954e-005
4087	18.506	0.18182	0.	1.7904e-004
4088	18.689	0.18182	0.	2.4229e-004
4089	18.872	0.18182	0.	2.704e-004
4090	19.055	0.18182	0.	2.7477e-004
4091	19.238	0.18182	0.	2.3903e-004
4092	19.421	0.18182	0.	1.5156e-004
4093	19.605	0.18182	0.	2.4564e-005
4094	19.788	0.18182	0.	-1.626e-004
4095	19.971	0.18182	0.	-4.2562e-004
4096	20.154	0.18182	0.	-7.6992e-004
4097	20.337	0.18182	0.	-1.2165e-003
4098	20.52	0.18182	0.	-1.7843e-003
4099	20.703	0.18182	0.	-2.5096e-003
4100	20.887	0.18182	0.	-3.408e-003
4101	21.07	0.18182	0.	-4.5193e-003
4102	21.253	0.18182	0.	-5.9022e-003
4103	21.436	0.18182	0.	-7.6172e-003
4104	21.619	0.18182	0.	-9.733e-003
4105	21.802	0.18182	0.	-1.236e-002
4106	21.985	0.18182	0.	-1.5623e-002
4107	22.169	0.18182	0.	-1.9695e-002
4108	22.352	0.18182	0.	-2.4827e-002
4109	22.535	0.18182	0.	-3.1306e-002
4110	22.718	0.18182	0.	-3.9702e-002
4111	22.901	0.18182	0.	-5.0277e-002
4112	23.084	0.18182	0.	-6.5498e-002
4113	23.267	0.18182	0.	-8.1028e-002
4114	23.451	0.18182	0.	-0.12072
4115	23.634	0.18182	0.	-0.11049
4116	23.817	0.18182	0.	-0.50415
4117	23.817	0.18182	0.1	0.50415
4118	23.634	0.18182	0.1	0.11049
4119	23.451	0.18182	0.1	0.12072
4120	23.267	0.18182	0.1	8.1028e-002
4121	23.084	0.18182	0.1	6.5499e-002
4122	22.901	0.18182	0.1	5.0278e-002
4123	22.718	0.18182	0.1	3.9702e-002
4124	22.535	0.18182	0.1	3.1308e-002
4125	22.352	0.18182	0.1	2.4826e-002
4126	22.169	0.18182	0.1	1.9696e-002
4127	21.985	0.18182	0.1	1.5624e-002
4128	21.802	0.18182	0.1	1.2359e-002
4129	21.619	0.18182	0.1	9.7341e-003
4130	21.436	0.18182	0.1	7.6162e-003
4131	21.253	0.18182	0.1	5.9016e-003
4132	21.07	0.18182	0.1	4.5198e-003
4133	20.887	0.18182	0.1	3.4073e-003
4134	20.703	0.18182	0.1	2.5106e-003
4135	20.52	0.18182	0.1	1.7849e-003
4136	20.337	0.18182	0.1	1.2159e-003
4137	20.154	0.18182	0.1	7.7074e-004
4138	19.971	0.18182	0.1	4.2446e-004
4139	19.788	0.18182	0.1	1.6181e-004
4140	19.605	0.18182	0.1	-2.4839e-005
4141	19.421	0.18182	0.1	-1.5144e-004
4142	19.238	0.18182	0.1	-2.4009e-004
4143	19.055	0.18182	0.1	-2.7497e-004
4144	18.872	0.18182	0.1	-2.712e-004
4145	18.689	0.18182	0.1	-2.4082e-004
4146	18.506	0.18182	0.1	-1.79e-004
4147	18.323	0.18182	0.1	-9.8933e-005
4148	18.139	0.18182	0.1	5.7821e-006
4149	17.956	0.18182	0.1	1.4659e-004
4150	17.773	0.18182	0.1	2.9354e-004
4151	17.59	0.18182	0.1	4.5723e-004
4152	17.407	0.18182	0.1	6.4445e-004
4153	17.224	0.18182	0.1	8.568e-004
4154	17.041	0.18182	0.1	1.0832e-003
4155	16.857	0.18182	0.1	1.3383e-003
4156	16.674	0.18182	0.1	1.6404e-003
4157	16.491	0.18182	0.1	1.9558e-003
4158	16.308	0.18182	0.1	2.3053e-003
4159	16.125	0.18182	0.1	2.7055e-003
4160	15.942	0.18182	0.1	3.1566e-003
4161	15.759	0.18182	0.1	3.6679e-003
4162	15.575	0.18182	0.1	4.2629e-003
4163	15.392	0.18182	0.1	4.9445e-003
4164	15.209	0.18182	0.1	5.7179e-003
4165	15.026	0.18182	0.1	6.6493e-003
4166	14.843	0.18182	0.1	7.7564e-003
4167	14.66	0.18182	0.1	9.0691e-003
4168	14.477	0.18182	0.1	1.065e-002
4169	14.293	0.18182	0.1	1.2581e-002
4170	14.11	0.18182	0.1	1.494e-002
4171	13.927	0.18182	0.1	1.782e-002
4172	13.744	0.18182	0.1	2.142e-002
4173	13.561	0.18182	0.1	2.5897e-002
4174	13.378	0.18182	0.1	3.1434e-002
4175	13.195	0.18182	0.1	3.8237e-002
4176	13.011	0.18182	0.1	4.6372e-002
4177	12.828	0.18182	0.1	5.5651e-002
4178	12.645	0.18182	0.1	6.5255e-002
4179	12.462	0.18182	0.1	7.3301e-002
4180	12.279	0.18182	0.1	7.7065e-002
4181	12.096	0.18182	0.1	7.4049e-002
4182	11.913	0.18182	0.1	6.3919e-002
4183	11.73	0.18182	0.1	4.9228e-002
4184	11.546	0.18182	0.1	3.3738e-002
4185	11.363	0.18182	0.1	2.0135e-002
4186	11.18	0.18182	0.1	9.2761e-003
4187	10.997	0.18182	0.1	8.4955e-004
4188	10.814	0.18182	0.1	-6.1052e-003
4189	10.631	0.18182	0.1	-1.2943e-002
4190	10.448	0.18182	0.1	-2.1275e-002
4191	10.264	0.18182	0.1	-3.2921e-002
4192	10.081	0.18182	0.1	-4.9701e-002
4193	9.8981	0.18182	0.1	-7.2698e-002
4194	9.7149	0.18182	0.1	-0.10017
4195	9.5318	0.18182	0.1	-0.12404
4196	9.3487	0.18182	0.1	-0.11861
4197	9.1655	0.18182	0.1	-3.0671e-002
4198	8.9824	0.18182	0.1	0.29724
4199	8.7992	0.18182	0.1	1.0734
4200	8.6161	0.18182	0.1	3.432
4201	8.433	0.18182	0.1	7.1966
4202	8.2498	0.18182	0.1	21.888
4203	23.817	0.36364	0.1	0.28117
4204	23.634	0.36364	0.1	-4.1206e-003
4205	23.451	0.36364	0.1	9.5036e-002
4206	23.267	0.36364	0.1	8.2208e-002
4207	23.084	0.36364	0.1	8.6135e-002
4208	22.901	0.36364	0.1	8.1182e-002
4209	22.718	0.36364	0.1	7.6794e-002
4210	22.535	0.36364	0.1	7.1751e-002
4211	22.352	0.36364	0.1	6.6904e-002
4212	22.169	0.36364	0.1	6.2271e-002
4213	21.985	0.36364	0.1	5.795e-002
4214	21.802	0.36364	0.1	5.3937e-002
4215	21.619	0.36364	0.1	5.0226e-002
4216	21.436	0.36364	0.1	4.6807e-002
4217	21.253	0.36364	0.1	4.3654e-002
4218	21.07	0.36364	0.1	4.0746e-002
4219	20.887	0.36364	0.1	3.8064e-002
4220	20.703	0.36364	0.1	3.5582e-002
4221	20.52	0.36364	0.1	3.3278e-002
4222	20.337	0.36364	0.1	3.1146e-002
4223	20.154	0.36364	0.1	2.9165e-002
4224	19.971	0.36364	0.1	2.7315e-002
4225	19.788	0.36364	0.1	2.5586e-002
4226	19.605	0.36364	0.1	2.3968e-002
4227	19.421	0.36364	0.1	2.2446e-002
4228	19.238	0.36364	0.1	2.0995e-002
4229	19.055	0.36364	0.1	1.9631e-002
4230	18.872	0.36364	0.1	1.8336e-002
4231	18.689	0.36364	0.1	1.709e-002
4232	18.506	0.36364	0.1	1.5894e-002
4233	18.323	0.36364	0.1	1.4731e-002
4234	18.139	0.36364	0.1	1.3602e-002
4235	17.956	0.36364	0.1	1.2514e-002
4236	17.773	0.36364	0.1	1.1425e-002
4237	17.59	0.36364	0.1	1.0344e-002
4238	17.407	0.36364	0.1	9.2715e-003
4239	17.224	0.36364	0.1	8.1965e-003
4240	17.041	0.36364	0.1	7.1035e-003
4241	16.857	0.36364	0.1	5.9969e-003
4242	16.674	0.36364	0.1	4.887e-003
4243	16.491	0.36364	0.1	3.7298e-003
4244	16.308	0.36364	0.1	2.534e-003
4245	16.125	0.36364	0.1	1.3067e-003
4246	15.942	0.36364	0.1	3.2848e-005
4247	15.759	0.36364	0.1	-1.2918e-003
4248	15.575	0.36364	0.1	-2.6612e-003
4249	15.392	0.36364	0.1	-4.0883e-003
4250	15.209	0.36364	0.1	-5.5913e-003
4251	15.026	0.36364	0.1	-7.1221e-003
4252	14.843	0.36364	0.1	-8.6873e-003
4253	14.66	0.36364	0.1	-1.0273e-002
4254	14.477	0.36364	0.1	-1.1811e-002
4255	14.293	0.36364	0.1	-1.3157e-002
4256	14.11	0.36364	0.1	-1.3918e-002
4257	13.927	0.36364	0.1	-1.2208e-002
4258	13.744	0.36364	0.1	4.1389e-002
4259	13.561	0.36364	0.1	0.82645
4260	13.378	0.36364	0.1	1.6889
4261	13.195	0.36364	0.1	2.4972
4262	13.011	0.36364	0.1	3.2239
4263	12.828	0.36364	0.1	3.8377
4264	12.645	0.36364	0.1	4.3013
4265	12.462	0.36364	0.1	4.57
4266	12.279	0.36364	0.1	4.5912
4267	12.096	0.36364	0.1	4.304
4268	11.913	0.36364	0.1	3.6401
4269	11.73	0.36364	0.1	2.5334
4270	11.546	0.36364	0.1	1.0261
4271	11.363	0.36364	0.1	0.20835
4272	11.18	0.36364	0.1	0.10601
4273	10.997	0.36364	0.1	8.6651e-002
4274	10.814	0.36364	0.1	8.8159e-002
4275	10.631	0.36364	0.1	0.10004
4276	10.448	0.36364	0.1	0.11949
4277	10.264	0.36364	0.1	0.14581
4278	10.081	0.36364	0.1	0.17919
4279	9.8981	0.36364	0.1	0.22067
4280	9.7149	0.36364	0.1	0.27313
4281	9.5318	0.36364	0.1	0.34293
4282	9.3487	0.36364	0.1	0.44814
4283	9.1655	0.36364	0.1	0.62452
4284	8.9824	0.36364	0.1	0.99648
4285	8.7992	0.36364	0.1	1.7057
4286	8.6161	0.36364	0.1	3.6318
4287	8.433	0.36364	0.1	4.9953
4288	8.2498	0.36364	0.1	10.775
4289	23.817	0.54545	0.1	2.8968e-002
4290	23.634	0.54545	0.1	-0.18281
4291	23.451	0.54545	0.1	-3.2376e-002
4292	23.267	0.54545	0.1	-2.8586e-002
4293	23.084	0.54545	0.1	-7.6893e-003
4294	22.901	0.54545	0.1	-4.0624e-004
4295	22.718	0.54545	0.1	5.1367e-003
4296	22.535	0.54545	0.1	8.1525e-003
4297	22.352	0.54545	0.1	9.993e-003
4298	22.169	0.54545	0.1	1.1007e-002
4299	21.985	0.54545	0.1	1.1514e-002
4300	21.802	0.54545	0.1	1.1675e-002
4301	21.619	0.54545	0.1	1.1615e-002
4302	21.436	0.54545	0.1	1.1415e-002
4303	21.253	0.54545	0.1	1.1123e-002
4304	21.07	0.54545	0.1	1.0771e-002
4305	20.887	0.54545	0.1	1.039e-002
4306	20.703	0.54545	0.1	9.9883e-003
4307	20.52	0.54545	0.1	9.5777e-003
4308	20.337	0.54545	0.1	9.1721e-003
4309	20.154	0.54545	0.1	8.7767e-003
4310	19.971	0.54545	0.1	8.3814e-003
4311	19.788	0.54545	0.1	8.0036e-003
4312	19.605	0.54545	0.1	7.6401e-003
4313	19.421	0.54545	0.1	7.2857e-003
4314	19.238	0.54545	0.1	6.9299e-003
4315	19.055	0.54545	0.1	6.5995e-003
4316	18.872	0.54545	0.1	6.279e-003
4317	18.689	0.54545	0.1	5.9626e-003
4318	18.506	0.54545	0.1	5.6557e-003
4319	18.323	0.54545	0.1	5.3466e-003
4320	18.139	0.54545	0.1	5.0461e-003
4321	17.956	0.54545	0.1	4.7638e-003
4322	17.773	0.54545	0.1	4.4684e-003
4323	17.59	0.54545	0.1	4.1678e-003
4324	17.407	0.54545	0.1	3.874e-003
4325	17.224	0.54545	0.1	3.5751e-003
4326	17.041	0.54545	0.1	3.2618e-003
4327	16.857	0.54545	0.1	2.9448e-003
4328	16.674	0.54545	0.1	2.6358e-003
4329	16.491	0.54545	0.1	2.2992e-003
4330	16.308	0.54545	0.1	1.9472e-003
4331	16.125	0.54545	0.1	1.584e-003
4332	15.942	0.54545	0.1	1.2065e-003
4333	15.759	0.54545	0.1	8.1021e-004
4334	15.575	0.54545	0.1	4.0818e-004
4335	15.392	0.54545	0.1	-5.4111e-006
4336	15.209	0.54545	0.1	-4.3646e-004
4337	15.026	0.54545	0.1	-7.9651e-004
4338	14.843	0.54545	0.1	-9.4482e-004
4339	14.66	0.54545	0.1	1.0636e-004
4340	14.477	0.54545	0.1	0.29174
4341	14.293	0.54545	0.1	1.4954
4342	14.11	0.54545	0.1	2.7263
4343	13.927	0.54545	0.1	3.9694
4344	13.744	0.54545	0.1	5.2126
4345	13.561	0.54545	0.1	6.4402
4346	13.378	0.54545	0.1	7.6321
4347	13.195	0.54545	0.1	8.7634
4348	13.011	0.54545	0.1	9.8024
4349	12.828	0.54545	0.1	10.711
4350	12.645	0.54545	0.1	11.442
4351	12.462	0.54545	0.1	11.939
4352	12.279	0.54545	0.1	12.135
4353	12.096	0.54545	0.1	11.953
4354	11.913	0.54545	0.1	11.303
4355	11.73	0.54545	0.1	10.083
4356	11.546	0.54545	0.1	8.1858
4357	11.363	0.54545	0.1	5.5182
4358	11.18	0.54545	0.1	2.2193
4359	10.997	0.54545	0.1	0.4836
4360	10.814	0.54545	0.1	0.25453
4361	10.631	0.54545	0.1	0.20109
4362	10.448	0.54545	0.1	0.19065
4363	10.264	0.54545	0.1	0.20189
4364	10.081	0.54545	0.1	0.23085
4365	9.8981	0.54545	0.1	0.27945
4366	9.7149	0.54545	0.1	0.35401
4367	9.5318	0.54545	0.1	0.46553
4368	9.3487	0.54545	0.1	0.63581
4369	9.1655	0.54545	0.1	0.8949
4370	8.9824	0.54545	0.1	1.3335
4371	8.7992	0.54545	0.1	1.9426
4372	8.6161	0.54545	0.1	3.1792
4373	8.433	0.54545	0.1	2.8373
4374	8.2498	0.54545	0.1	8.179
4375	23.817	0.72727	0.1	-2.5784e-002
4376	23.634	0.72727	0.1	-0.21993
4377	23.451	0.72727	0.1	-6.2658e-002
4378	23.267	0.72727	0.1	-5.339e-002
4379	23.084	0.72727	0.1	-2.889e-002
4380	22.901	0.72727	0.1	-1.8763e-002
4381	22.718	0.72727	0.1	-1.0756e-002
4382	22.535	0.72727	0.1	-5.7016e-003
4383	22.352	0.72727	0.1	-2.1364e-003
4384	22.169	0.72727	0.1	3.19e-004
4385	21.985	0.72727	0.1	2.0436e-003
4386	21.802	0.72727	0.1	3.2396e-003
4387	21.619	0.72727	0.1	4.0678e-003
4388	21.436	0.72727	0.1	4.6255e-003
4389	21.253	0.72727	0.1	4.9914e-003
4390	21.07	0.72727	0.1	5.2139e-003
4391	20.887	0.72727	0.1	5.3337e-003
4392	20.703	0.72727	0.1	5.3746e-003
4393	20.52	0.72727	0.1	5.3488e-003
4394	20.337	0.72727	0.1	5.2919e-003
4395	20.154	0.72727	0.1	5.2045e-003
4396	19.971	0.72727	0.1	5.0905e-003
4397	19.788	0.72727	0.1	4.9613e-003
4398	19.605	0.72727	0.1	4.8231e-003
4399	19.421	0.72727	0.1	4.6741e-003
4400	19.238	0.72727	0.1	4.5093e-003
4401	19.055	0.72727	0.1	4.3498e-003
4402	18.872	0.72727	0.1	4.1927e-003
4403	18.689	0.72727	0.1	4.0277e-003
4404	18.506	0.72727	0.1	3.8617e-003
4405	18.323	0.72727	0.1	3.6876e-003
4406	18.139	0.72727	0.1	3.5175e-003
4407	17.956	0.72727	0.1	3.3579e-003
4408	17.773	0.72727	0.1	3.1851e-003
4409	17.59	0.72727	0.1	3.0081e-003
4410	17.407	0.72727	0.1	2.8373e-003
4411	17.224	0.72727	0.1	2.6638e-003
4412	17.041	0.72727	0.1	2.487e-003
4413	16.857	0.72727	0.1	2.3169e-003
4414	16.674	0.72727	0.1	2.1679e-003
4415	16.491	0.72727	0.1	2.0172e-003
4416	16.308	0.72727	0.1	1.8833e-003
4417	16.125	0.72727	0.1	1.7992e-003
4418	15.942	0.72727	0.1	1.786e-003
4419	15.759	0.72727	0.1	1.9128e-003
4420	15.575	0.72727	0.1	2.355e-003
4421	15.392	0.72727	0.1	3.5832e-003
4422	15.209	0.72727	0.1	7.9295e-003
4423	15.026	0.72727	0.1	9.2238e-002
4424	14.843	0.72727	0.1	1.3322
4425	14.66	0.72727	0.1	2.7542
4426	14.477	0.72727	0.1	4.2273
4427	14.293	0.72727	0.1	5.7452
4428	14.11	0.72727	0.1	7.3013
4429	13.927	0.72727	0.1	8.8868
4430	13.744	0.72727	0.1	10.49
4431	13.561	0.72727	0.1	12.094
4432	13.378	0.72727	0.1	13.678
4433	13.195	0.72727	0.1	15.216
4434	13.011	0.72727	0.1	16.673
4435	12.828	0.72727	0.1	18.009
4436	12.645	0.72727	0.1	19.172
4437	12.462	0.72727	0.1	20.1
4438	12.279	0.72727	0.1	20.722
4439	12.096	0.72727	0.1	20.95
4440	11.913	0.72727	0.1	20.687
4441	11.73	0.72727	0.1	19.82
4442	11.546	0.72727	0.1	18.223
4443	11.363	0.72727	0.1	15.763
4444	11.18	0.72727	0.1	12.314
4445	10.997	0.72727	0.1	7.8248
4446	10.814	0.72727	0.1	2.9613
4447	10.631	0.72727	0.1	0.96737
4448	10.448	0.72727	0.1	0.62391
4449	10.264	0.72727	0.1	0.54268
4450	10.081	0.72727	0.1	0.54417
4451	9.8981	0.72727	0.1	0.59374
4452	9.7149	0.72727	0.1	0.68567
4453	9.5318	0.72727	0.1	0.82405
4454	9.3487	0.72727	0.1	1.0214
4455	9.1655	0.72727	0.1	1.2859
4456	8.9824	0.72727	0.1	1.6575
4457	8.7992	0.72727	0.1	2.0228
4458	8.6161	0.72727	0.1	2.7954
4459	8.433	0.72727	0.1	1.5805
4460	8.2498	0.72727	0.1	7.261
4461	23.817	0.90909	0.1	-7.8178e-002
4462	23.634	0.90909	0.1	-0.25466
4463	23.451	0.90909	0.1	-8.9164e-002
4464	23.267	0.90909	0.1	-7.6988e-002
4465	23.084	0.90909	0.1	-4.9969e-002
4466	22.901	0.90909	0.1	-3.7791e-002
4467	22.718	0.90909	0.1	-2.7996e-002
4468	22.535	0.90909	0.1	-2.1363e-002
4469	22.352	0.90909	0.1	-1.6403e-002
4470	22.169	0.90909	0.1	-1.2715e-002
4471	21.985	0.90909	0.1	-9.8974e-003
4472	21.802	0.90909	0.1	-7.7343e-003
4473	21.619	0.90909	0.1	-6.0424e-003
4474	21.436	0.90909	0.1	-4.7147e-003
4475	21.253	0.90909	0.1	-3.6541e-003
4476	21.07	0.90909	0.1	-2.8117e-003
4477	20.887	0.90909	0.1	-2.1294e-003
4478	20.703	0.90909	0.1	-1.5764e-003
4479	20.52	0.90909	0.1	-1.1367e-003
4480	20.337	0.90909	0.1	-7.6956e-004
4481	20.154	0.90909	0.1	-4.659e-004
4482	19.971	0.90909	0.1	-2.1688e-004
4483	19.788	0.90909	0.1	-1.3153e-005
4484	19.605	0.90909	0.1	1.6167e-004
4485	19.421	0.90909	0.1	3.0507e-004
4486	19.238	0.90909	0.1	4.1183e-004
4487	19.055	0.90909	0.1	5.0794e-004
4488	18.872	0.90909	0.1	5.9377e-004
4489	18.689	0.90909	0.1	6.6174e-004
4490	18.506	0.90909	0.1	7.2024e-004
4491	18.323	0.90909	0.1	7.6334e-004
4492	18.139	0.90909	0.1	8.0422e-004
4493	17.956	0.90909	0.1	8.5573e-004
4494	17.773	0.90909	0.1	8.919e-004
4495	17.59	0.90909	0.1	9.2491e-004
4496	17.407	0.90909	0.1	9.7019e-004
4497	17.224	0.90909	0.1	1.0259e-003
4498	17.041	0.90909	0.1	1.0917e-003
4499	16.857	0.90909	0.1	1.1906e-003
4500	16.674	0.90909	0.1	1.35e-003
4501	16.491	0.90909	0.1	1.5652e-003
4502	16.308	0.90909	0.1	1.9001e-003
4503	16.125	0.90909	0.1	2.4683e-003
4504	15.942	0.90909	0.1	3.4951e-003
4505	15.759	0.90909	0.1	5.6655e-003
4506	15.575	0.90909	0.1	1.2148e-002
4507	15.392	0.90909	0.1	9.7847e-002
4508	15.209	0.90909	0.1	1.3944
4509	15.026	0.90909	0.1	2.9595
4510	14.843	0.90909	0.1	4.5974
4511	14.66	0.90909	0.1	6.3044
4512	14.477	0.90909	0.1	8.0795
4513	14.293	0.90909	0.1	9.9204
4514	14.11	0.90909	0.1	11.823
4515	13.927	0.90909	0.1	13.779
4516	13.744	0.90909	0.1	15.779
4517	13.561	0.90909	0.1	17.808
4518	13.378	0.90909	0.1	19.847
4519	13.195	0.90909	0.1	21.87
4520	13.011	0.90909	0.1	23.846
4521	12.828	0.90909	0.1	25.733
4522	12.645	0.90909	0.1	27.483
4523	12.462	0.90909	0.1	29.033
4524	12.279	0.90909	0.1	30.314
4525	12.096	0.90909	0.1	31.238
4526	11.913	0.90909	0.1	31.706
4527	11.73	0.90909	0.1	31.605
4528	11.546	0.90909	0.1	30.807
4529	11.363	0.90909	0.1	29.169
4530	11.18	0.90909	0.1	26.54
4531	10.997	0.90909	0.1	22.77
4532	10.814	0.90909	0.1	17.732
4533	10.631	0.90909	0.1	11.461
4534	10.448	0.90909	0.1	5.0698
4535	10.264	0.90909	0.1	2.1338
4536	10.081	0.90909	0.1	1.4513
4537	9.8981	0.90909	0.1	1.2712
4538	9.7149	0.90909	0.1	1.2595
4539	9.5318	0.90909	0.1	1.3377
4540	9.3487	0.90909	0.1	1.4843
4541	9.1655	0.90909	0.1	1.6813
4542	8.9824	0.90909	0.1	1.9565
4543	8.7992	0.90909	0.1	2.148
4544	8.6161	0.90909	0.1	2.7281
4545	8.433	0.90909	0.1	1.1379
4546	8.2498	0.90909	0.1	7.2605
4547	23.817	1.0909	0.1	-0.11099
4548	23.634	1.0909	0.1	-0.27484
4549	23.451	1.0909	0.1	-0.10438
4550	23.267	1.0909	0.1	-9.0743e-002
4551	23.084	1.0909	0.1	-6.2422e-002
4552	22.901	1.0909	0.1	-4.9295e-002
4553	22.718	1.0909	0.1	-3.8648e-002
4554	22.535	1.0909	0.1	-3.124e-002
4555	22.352	1.0909	0.1	-2.5566e-002
4556	22.169	1.0909	0.1	-2.1222e-002
4557	21.985	1.0909	0.1	-1.7804e-002
4558	21.802	1.0909	0.1	-1.5091e-002
4559	21.619	1.0909	0.1	-1.2906e-002
4560	21.436	1.0909	0.1	-1.1121e-002
4561	21.253	1.0909	0.1	-9.6529e-003
4562	21.07	1.0909	0.1	-8.4321e-003
4563	20.887	1.0909	0.1	-7.4053e-003
4564	20.703	1.0909	0.1	-6.5365e-003
4565	20.52	1.0909	0.1	-5.8037e-003
4566	20.337	1.0909	0.1	-5.1691e-003
4567	20.154	1.0909	0.1	-4.6166e-003
4568	19.971	1.0909	0.1	-4.1404e-003
4569	19.788	1.0909	0.1	-3.7214e-003
4570	19.605	1.0909	0.1	-3.3504e-003
4571	19.421	1.0909	0.1	-3.0199e-003
4572	19.238	1.0909	0.1	-2.7351e-003
4573	19.055	1.0909	0.1	-2.4691e-003
4574	18.872	1.0909	0.1	-2.2244e-003
4575	18.689	1.0909	0.1	-2.0056e-003
4576	18.506	1.0909	0.1	-1.7981e-003
4577	18.323	1.0909	0.1	-1.6108e-003
4578	18.139	1.0909	0.1	-1.4277e-003
4579	17.956	1.0909	0.1	-1.2349e-003
4580	17.773	1.0909	0.1	-1.0557e-003
4581	17.59	1.0909	0.1	-8.7414e-004
4582	17.407	1.0909	0.1	-6.7352e-004
4583	17.224	1.0909	0.1	-4.4707e-004
4584	17.041	1.0909	0.1	-1.8923e-004
4585	16.857	1.0909	0.1	1.3912e-004
4586	16.674	1.0909	0.1	5.8954e-004
4587	16.491	1.0909	0.1	1.2076e-003
4588	16.308	1.0909	0.1	2.1721e-003
4589	16.125	1.0909	0.1	3.914e-003
4590	15.942	1.0909	0.1	7.8734e-003
4591	15.759	1.0909	0.1	2.4448e-002
4592	15.575	1.0909	0.1	0.6599
4593	15.392	1.0909	0.1	2.2905
4594	15.209	1.0909	0.1	4.0223
4595	15.026	1.0909	0.1	5.8388
4596	14.843	1.0909	0.1	7.7419
4597	14.66	1.0909	0.1	9.7344
4598	14.477	1.0909	0.1	11.818
4599	14.293	1.0909	0.1	13.993
4600	14.11	1.0909	0.1	16.257
4601	13.927	1.0909	0.1	18.607
4602	13.744	1.0909	0.1	21.035
4603	13.561	1.0909	0.1	23.531
4604	13.378	1.0909	0.1	26.078
4605	13.195	1.0909	0.1	28.657
4606	13.011	1.0909	0.1	31.238
4607	12.828	1.0909	0.1	33.788
4608	12.645	1.0909	0.1	36.262
4609	12.462	1.0909	0.1	38.605
4610	12.279	1.0909	0.1	40.753
4611	12.096	1.0909	0.1	42.626
4612	11.913	1.0909	0.1	44.133
4613	11.73	1.0909	0.1	45.166
4614	11.546	1.0909	0.1	45.603
4615	11.363	1.0909	0.1	45.307
4616	11.18	1.0909	0.1	44.122
4617	10.997	1.0909	0.1	41.88
4618	10.814	1.0909	0.1	38.397
4619	10.631	1.0909	0.1	33.478
4620	10.448	1.0909	0.1	26.941
4621	10.264	1.0909	0.1	18.754
4622	10.081	1.0909	0.1	9.9255
4623	9.8981	1.0909	0.1	4.5655
4624	9.7149	1.0909	0.1	2.9321
4625	9.5318	1.0909	0.1	2.4019
4626	9.3487	1.0909	0.1	2.2222
4627	9.1655	1.0909	0.1	2.2005
4628	8.9824	1.0909	0.1	2.3267
4629	8.7992	1.0909	0.1	2.3677
4630	8.6161	1.0909	0.1	3.1309
4631	8.433	1.0909	0.1	0.83314
4632	8.2498	1.0909	0.1	9.1415
4633	23.817	1.2727	0.1	-0.13665
4634	23.634	1.2727	0.1	-0.28998
4635	23.451	1.2727	0.1	-0.11569
4636	23.267	1.2727	0.1	-0.10088
4637	23.084	1.2727	0.1	-7.1667e-002
4638	22.901	1.2727	0.1	-5.7921e-002
4639	22.718	1.2727	0.1	-4.6738e-002
4640	22.535	1.2727	0.1	-3.8853e-002
4641	22.352	1.2727	0.1	-3.273e-002
4642	22.169	1.2727	0.1	-2.7965e-002
4643	21.985	1.2727	0.1	-2.4152e-002
4644	21.802	1.2727	0.1	-2.1072e-002
4645	21.619	1.2727	0.1	-1.8542e-002
4646	21.436	1.2727	0.1	-1.644e-002
4647	21.253	1.2727	0.1	-1.4676e-002
4648	21.07	1.2727	0.1	-1.3183e-002
4649	20.887	1.2727	0.1	-1.1901e-002
4650	20.703	1.2727	0.1	-1.0796e-002
4651	20.52	1.2727	0.1	-9.8463e-003
4652	20.337	1.2727	0.1	-9.006e-003
4653	20.154	1.2727	0.1	-8.2643e-003
4654	19.971	1.2727	0.1	-7.6093e-003
4655	19.788	1.2727	0.1	-7.025e-003
4656	19.605	1.2727	0.1	-6.4951e-003
4657	19.421	1.2727	0.1	-6.0188e-003
4658	19.238	1.2727	0.1	-5.5927e-003
4659	19.055	1.2727	0.1	-5.1944e-003
4660	18.872	1.2727	0.1	-4.8209e-003
4661	18.689	1.2727	0.1	-4.4803e-003
4662	18.506	1.2727	0.1	-4.155e-003
4663	18.323	1.2727	0.1	-3.8521e-003
4664	18.139	1.2727	0.1	-3.5564e-003
4665	17.956	1.2727	0.1	-3.2496e-003
4666	17.773	1.2727	0.1	-2.9551e-003
4667	17.59	1.2727	0.1	-2.6527e-003
4668	17.407	1.2727	0.1	-2.3225e-003
4669	17.224	1.2727	0.1	-1.952e-003
4670	17.041	1.2727	0.1	-1.5257e-003
4671	16.857	1.2727	0.1	-9.8387e-004
4672	16.674	1.2727	0.1	-2.312e-004
4673	16.491	1.2727	0.1	8.828e-004
4674	16.308	1.2727	0.1	2.8391e-003
4675	16.125	1.2727	0.1	7.3977e-003
4676	15.942	1.2727	0.1	2.9952e-002
4677	15.759	1.2727	0.1	0.9313
4678	15.575	1.2727	0.1	2.6927
4679	15.392	1.2727	0.1	4.5555
4680	15.209	1.2727	0.1	6.5135
4681	15.026	1.2727	0.1	8.5721
4682	14.843	1.2727	0.1	10.737
4683	14.66	1.2727	0.1	13.015
4684	14.477	1.2727	0.1	15.409
4685	14.293	1.2727	0.1	17.923
4686	14.11	1.2727	0.1	20.56
4687	13.927	1.2727	0.1	23.319
4688	13.744	1.2727	0.1	26.198
4689	13.561	1.2727	0.1	29.191
4690	13.378	1.2727	0.1	32.289
4691	13.195	1.2727	0.1	35.476
4692	13.011	1.2727	0.1	38.734
4693	12.828	1.2727	0.1	42.036
4694	12.645	1.2727	0.1	45.346
4695	12.462	1.2727	0.1	48.622
4696	12.279	1.2727	0.1	51.808
4697	12.096	1.2727	0.1	54.841
4698	11.913	1.2727	0.1	57.639
4699	11.73	1.2727	0.1	60.111
4700	11.546	1.2727	0.1	62.147
4701	11.363	1.2727	0.1	63.621
4702	11.18	1.2727	0.1	64.386
4703	10.997	1.2727	0.1	64.272
4704	10.814	1.2727	0.1	63.081
4705	10.631	1.2727	0.1	60.567
4706	10.448	1.2727	0.1	56.422
4707	10.264	1.2727	0.1	50.236
4708	10.081	1.2727	0.1	41.46
4709	9.8981	1.2727	0.1	29.516
4710	9.7149	1.2727	0.1	15.306
4711	9.5318	1.2727	0.1	6.4097
4712	9.3487	1.2727	0.1	3.8737
4713	9.1655	1.2727	0.1	3.0611
4714	8.9824	1.2727	0.1	2.8355
4715	8.7992	1.2727	0.1	2.9004
4716	8.6161	1.2727	0.1	3.6042
4717	8.433	1.2727	0.1	1.2209
4718	8.2498	1.2727	0.1	7.8588
4719	23.817	1.4545	0.1	-0.15633
4720	23.634	1.4545	0.1	-0.30105
4721	23.451	1.4545	0.1	-0.1238
4722	23.267	1.4545	0.1	-0.10814
4723	23.084	1.4545	0.1	-7.8276e-002
4724	22.901	1.4545	0.1	-6.4119e-002
4725	22.718	1.4545	0.1	-5.2603e-002
4726	22.535	1.4545	0.1	-4.4431e-002
4727	22.352	1.4545	0.1	-3.8047e-002
4728	22.169	1.4545	0.1	-3.3027e-002
4729	21.985	1.4545	0.1	-2.8977e-002
4730	21.802	1.4545	0.1	-2.5661e-002
4731	21.619	1.4545	0.1	-2.2911e-002
4732	21.436	1.4545	0.1	-2.0601e-002
4733	21.253	1.4545	0.1	-1.8637e-002
4734	21.07	1.4545	0.1	-1.6958e-002
4735	20.887	1.4545	0.1	-1.5503e-002
4736	20.703	1.4545	0.1	-1.4235e-002
4737	20.52	1.4545	0.1	-1.3128e-002
4738	20.337	1.4545	0.1	-1.2145e-002
4739	20.154	1.4545	0.1	-1.1268e-002
4740	19.971	1.4545	0.1	-1.0486e-002
4741	19.788	1.4545	0.1	-9.78e-003
4742	19.605	1.4545	0.1	-9.1377e-003
4743	19.421	1.4545	0.1	-8.5512e-003
4744	19.238	1.4545	0.1	-8.0261e-003
4745	19.055	1.4545	0.1	-7.5307e-003
4746	18.872	1.4545	0.1	-7.0668e-003
4747	18.689	1.4545	0.1	-6.6356e-003
4748	18.506	1.4545	0.1	-6.2259e-003
4749	18.323	1.4545	0.1	-5.8402e-003
4750	18.139	1.4545	0.1	-5.4629e-003
4751	17.956	1.4545	0.1	-5.0757e-003
4752	17.773	1.4545	0.1	-4.6989e-003
4753	17.59	1.4545	0.1	-4.3133e-003
4754	17.407	1.4545	0.1	-3.8906e-003
4755	17.224	1.4545	0.1	-3.4186e-003
4756	17.041	1.4545	0.1	-2.8627e-003
4757	16.857	1.4545	0.1	-2.1417e-003
4758	16.674	1.4545	0.1	-1.0962e-003
4759	16.491	1.4545	0.1	6.1578e-004
4760	16.308	1.4545	0.1	4.3306e-003
4761	16.125	1.4545	0.1	2.0075e-002
4762	15.942	1.4545	0.1	0.79174
4763	15.759	1.4545	0.1	2.6429
4764	15.575	1.4545	0.1	4.604
4765	15.392	1.4545	0.1	6.6678
4766	15.209	1.4545	0.1	8.8417
4767	15.026	1.4545	0.1	11.135
4768	14.843	1.4545	0.1	13.555
4769	14.66	1.4545	0.1	16.112
4770	14.477	1.4545	0.1	18.813
4771	14.293	1.4545	0.1	21.666
4772	14.11	1.4545	0.1	24.678
4773	13.927	1.4545	0.1	27.852
4774	13.744	1.4545	0.1	31.193
4775	13.561	1.4545	0.1	34.701
4776	13.378	1.4545	0.1	38.375
4777	13.195	1.4545	0.1	42.208
4778	13.011	1.4545	0.1	46.19
4779	12.828	1.4545	0.1	50.305
4780	12.645	1.4545	0.1	54.532
4781	12.462	1.4545	0.1	58.841
4782	12.279	1.4545	0.1	63.193
4783	12.096	1.4545	0.1	67.539
4784	11.913	1.4545	0.1	71.818
4785	11.73	1.4545	0.1	75.956
4786	11.546	1.4545	0.1	79.863
4787	11.363	1.4545	0.1	83.431
4788	11.18	1.4545	0.1	86.527
4789	10.997	1.4545	0.1	88.993
4790	10.814	1.4545	0.1	90.628
4791	10.631	1.4545	0.1	91.172
4792	10.448	1.4545	0.1	90.269
4793	10.264	1.4545	0.1	87.408
4794	10.081	1.4545	0.1	81.816
4795	9.8981	1.4545	0.1	72.298
4796	9.7149	1.4545	0.1	57.05
4797	9.5318	1.4545	0.1	34.179
4798	9.3487	1.4545	0.1	11.433
4799	9.1655	1.4545	0.1	5.0725
4800	8.9824	1.4545	0.1	3.7825
4801	8.7992	1.4545	0.1	3.6797
4802	8.6161	1.4545	0.1	4.0876
4803	8.433	1.4545	0.1	2.3267
4804	8.2498	1.4545	0.1	24.565
4805	23.817	1.6364	0.1	-0.17199
4806	23.634	1.6364	0.1	-0.30953
4807	23.451	1.6364	0.1	-0.12995
4808	23.267	1.6364	0.1	-0.1136
4809	23.084	1.6364	0.1	-8.3232e-002
4810	22.901	1.6364	0.1	-6.8767e-002
4811	22.718	1.6364	0.1	-5.7018e-002
4812	22.535	1.6364	0.1	-4.8658e-002
4813	22.352	1.6364	0.1	-4.2102e-002
4814	22.169	1.6364	0.1	-3.6928e-002
4815	21.985	1.6364	0.1	-3.272e-002
4816	21.802	1.6364	0.1	-2.9259e-002
4817	21.619	1.6364	0.1	-2.6365e-002
4818	21.436	1.6364	0.1	-2.3914e-002
4819	21.253	1.6364	0.1	-2.1816e-002
4820	21.07	1.6364	0.1	-2.001e-002
4821	20.887	1.6364	0.1	-1.8429e-002
4822	20.703	1.6364	0.1	-1.7045e-002
4823	20.52	1.6364	0.1	-1.583e-002
4824	20.337	1.6364	0.1	-1.474e-002
4825	20.154	1.6364	0.1	-1.3764e-002
4826	19.971	1.6364	0.1	-1.2887e-002
4827	19.788	1.6364	0.1	-1.2095e-002
4828	19.605	1.6364	0.1	-1.1368e-002
4829	19.421	1.6364	0.1	-1.0704e-002
4830	19.238	1.6364	0.1	-1.0103e-002
4831	19.055	1.6364	0.1	-9.5363e-003
4832	18.872	1.6364	0.1	-9.004e-003
4833	18.689	1.6364	0.1	-8.5107e-003
4834	18.506	1.6364	0.1	-8.0391e-003
4835	18.323	1.6364	0.1	-7.5935e-003
4836	18.139	1.6364	0.1	-7.1603e-003
4837	17.956	1.6364	0.1	-6.7173e-003
4838	17.773	1.6364	0.1	-6.2875e-003
4839	17.59	1.6364	0.1	-5.8458e-003
4840	17.407	1.6364	0.1	-5.3671e-003
4841	17.224	1.6364	0.1	-4.8285e-003
4842	17.041	1.6364	0.1	-4.189e-003
4843	16.857	1.6364	0.1	-3.3386e-003
4844	16.674	1.6364	0.1	-2.0312e-003
4845	16.491	1.6364	0.1	4.2252e-004
4846	16.308	1.6364	0.1	8.0229e-003
4847	16.125	1.6364	0.1	0.30923
4848	15.942	1.6364	0.1	2.1887
4849	15.759	1.6364	0.1	4.2187
4850	15.575	1.6364	0.1	6.3553
4851	15.392	1.6364	0.1	8.607
4852	15.209	1.6364	0.1	10.985
4853	15.026	1.6364	0.1	13.5
4854	14.843	1.6364	0.1	16.165
4855	14.66	1.6364	0.1	18.991
4856	14.477	1.6364	0.1	21.989
4857	14.293	1.6364	0.1	25.173
4858	14.11	1.6364	0.1	28.552
4859	13.927	1.6364	0.1	32.137
4860	13.744	1.6364	0.1	35.938
4861	13.561	1.6364	0.1	39.964
4862	13.378	1.6364	0.1	44.221
4863	13.195	1.6364	0.1	48.713
4864	13.011	1.6364	0.1	53.44
4865	12.828	1.6364	0.1	58.401
4866	12.645	1.6364	0.1	63.588
4867	12.462	1.6364	0.1	68.986
4868	12.279	1.6364	0.1	74.576
4869	12.096	1.6364	0.1	80.329
4870	11.913	1.6364	0.1	86.203
4871	11.73	1.6364	0.1	92.149
4872	11.546	1.6364	0.1	98.097
4873	11.363	1.6364	0.1	103.96
4874	11.18	1.6364	0.1	109.63
4875	10.997	1.6364	0.1	114.97
4876	10.814	1.6364	0.1	119.77
4877	10.631	1.6364	0.1	123.79
4878	10.448	1.6364	0.1	126.65
4879	10.264	1.6364	0.1	127.82
4880	10.081	1.6364	0.1	126.46
4881	9.8981	1.6364	0.1	121.25
4882	9.7149	1.6364	0.1	110.09
4883	9.5318	1.6364	0.1	89.611
4884	9.3487	1.6364	0.1	55.238
4885	9.1655	1.6364	0.1	15.274
4886	8.9824	1.6364	0.1	6.0984
4887	8.7992	1.6364	0.1	3.2071
4888	8.6161	1.6364	0.1	11.25
4889	8.433	1.6364	0.1	-0.76275
4890	8.2498	1.6364	0.1	-9.8023
4891	23.817	1.8182	0.1	-0.18449
4892	23.634	1.8182	0.1	-0.31606
4893	23.451	1.8182	0.1	-0.13462
4894	23.267	1.8182	0.1	-0.11774
4895	23.084	1.8182	0.1	-8.6972e-002
4896	22.901	1.8182	0.1	-7.2272e-002
4897	22.718	1.8182	0.1	-6.035e-002
4898	22.535	1.8182	0.1	-5.1859e-002
4899	22.352	1.8182	0.1	-4.5193e-002
4900	22.169	1.8182	0.1	-3.9916e-002
4901	21.985	1.8182	0.1	-3.5614e-002
4902	21.802	1.8182	0.1	-3.2058e-002
4903	21.619	1.8182	0.1	-2.9069e-002
4904	21.436	1.8182	0.1	-2.6527e-002
4905	21.253	1.8182	0.1	-2.434e-002
4906	21.07	1.8182	0.1	-2.2444e-002
4907	20.887	1.8182	0.1	-2.0778e-002
4908	20.703	1.8182	0.1	-1.9313e-002
4909	20.52	1.8182	0.1	-1.802e-002
4910	20.337	1.8182	0.1	-1.6856e-002
4911	20.154	1.8182	0.1	-1.5808e-002
4912	19.971	1.8182	0.1	-1.4863e-002
4913	19.788	1.8182	0.1	-1.4007e-002
4914	19.605	1.8182	0.1	-1.3219e-002
4915	19.421	1.8182	0.1	-1.2498e-002
4916	19.238	1.8182	0.1	-1.1843e-002
4917	19.055	1.8182	0.1	-1.1226e-002
4918	18.872	1.8182	0.1	-1.0646e-002
4919	18.689	1.8182	0.1	-1.0106e-002
4920	18.506	1.8182	0.1	-9.5921e-003
4921	18.323	1.8182	0.1	-9.1082e-003
4922	18.139	1.8182	0.1	-8.6374e-003
4923	17.956	1.8182	0.1	-8.1606e-003
4924	17.773	1.8182	0.1	-7.6994e-003
4925	17.59	1.8182	0.1	-7.2282e-003
4926	17.407	1.8182	0.1	-6.7212e-003
4927	17.224	1.8182	0.1	-6.1545e-003
4928	17.041	1.8182	0.1	-5.4783e-003
4929	16.857	1.8182	0.1	-4.5575e-003
4930	16.674	1.8182	0.1	-3.0541e-003
4931	16.491	1.8182	0.1	3.2476e-004
4932	16.308	1.8182	0.1	2.2601e-002
4933	16.125	1.8182	0.1	1.3813
4934	15.942	1.8182	0.1	3.4531
4935	15.759	1.8182	0.1	5.6332
4936	15.575	1.8182	0.1	7.9295
4937	15.392	1.8182	0.1	10.354
4938	15.209	1.8182	0.1	12.921
4939	15.026	1.8182	0.1	15.643
4940	14.843	1.8182	0.1	18.536
4941	14.66	1.8182	0.1	21.614
4942	14.477	1.8182	0.1	24.894
4943	14.293	1.8182	0.1	28.39
4944	14.11	1.8182	0.1	32.12
4945	13.927	1.8182	0.1	36.1
4946	13.744	1.8182	0.1	40.347
4947	13.561	1.8182	0.1	44.876
4948	13.378	1.8182	0.1	49.703
4949	13.195	1.8182	0.1	54.843
4950	13.011	1.8182	0.1	60.31
4951	12.828	1.8182	0.1	66.113
4952	12.645	1.8182	0.1	72.261
4953	12.462	1.8182	0.1	78.758
4954	12.279	1.8182	0.1	85.602
4955	12.096	1.8182	0.1	92.786
4956	11.913	1.8182	0.1	100.29
4957	11.73	1.8182	0.1	108.09
4958	11.546	1.8182	0.1	116.14
4959	11.363	1.8182	0.1	124.38
4960	11.18	1.8182	0.1	132.72
4961	10.997	1.8182	0.1	141.04
4962	10.814	1.8182	0.1	149.15
4963	10.631	1.8182	0.1	156.81
4964	10.448	1.8182	0.1	163.66
4965	10.264	1.8182	0.1	169.15
4966	10.081	1.8182	0.1	172.45
4967	9.8981	1.8182	0.1	172.3
4968	9.7149	1.8182	0.1	166.66
4969	9.5318	1.8182	0.1	152.31
4970	9.3487	1.8182	0.1	124.09
4971	9.1655	1.8182	0.1	74.5
4972	8.9824	1.8182	0.1	16.414
4973	8.7992	1.8182	0.1	5.4084
4974	8.6161	1.8182	0.1	8.1911
4975	8.433	1.8182	0.1	-8.2902
4976	8.2498	1.8182	0.1	149.15
4977	23.817	2.	0.1	-0.19447
4978	23.634	2.	0.1	-0.32113
4979	23.451	2.	0.1	-0.13822
4980	23.267	2.	0.1	-0.1209
4981	23.084	2.	0.1	-8.9826e-002
4982	22.901	2.	0.1	-7.4933e-002
4983	22.718	2.	0.1	-6.2881e-002
4984	22.535	2.	0.1	-5.4293e-002
4985	22.352	2.	0.1	-4.7552e-002
4986	22.169	2.	0.1	-4.2209e-002
4987	21.985	2.	0.1	-3.7844e-002
4988	21.802	2.	0.1	-3.4228e-002
4989	21.619	2.	0.1	-3.118e-002
4990	21.436	2.	0.1	-2.8575e-002
4991	21.253	2.	0.1	-2.6329e-002
4992	21.07	2.	0.1	-2.4374e-002
4993	20.887	2.	0.1	-2.2649e-002
4994	20.703	2.	0.1	-2.1128e-002
4995	20.52	2.	0.1	-1.9776e-002
4996	20.337	2.	0.1	-1.8561e-002
4997	20.154	2.	0.1	-1.7462e-002
4998	19.971	2.	0.1	-1.647e-002
4999	19.788	2.	0.1	-1.5566e-002
5000	19.605	2.	0.1	-1.4733e-002
5001	19.421	2.	0.1	-1.3972e-002
5002	19.238	2.	0.1	-1.3278e-002
5003	19.055	2.	0.1	-1.2624e-002
5004	18.872	2.	0.1	-1.2011e-002
5005	18.689	2.	0.1	-1.144e-002
5006	18.506	2.	0.1	-1.0897e-002
5007	18.323	2.	0.1	-1.0388e-002
5008	18.139	2.	0.1	-9.8941e-003
5009	17.956	2.	0.1	-9.3988e-003
5010	17.773	2.	0.1	-8.9229e-003
5011	17.59	2.	0.1	-8.4416e-003
5012	17.407	2.	0.1	-7.932e-003
5013	17.224	2.	0.1	-7.3661e-003
5014	17.041	2.	0.1	-6.6985e-003
5015	16.857	2.	0.1	-5.7792e-003
5016	16.674	2.	0.1	-4.1774e-003
5017	16.491	2.	0.1	3.8016e-004
5018	16.308	2.	0.1	0.29872
5019	16.125	2.	0.1	2.3612
5020	15.942	2.	0.1	4.5602
5021	15.759	2.	0.1	6.8728
5022	15.575	2.	0.1	9.3117
5023	15.392	2.	0.1	11.892
5024	15.209	2.	0.1	14.628
5025	15.026	2.	0.1	17.537
5026	14.843	2.	0.1	20.637
5027	14.66	2.	0.1	23.946
5028	14.477	2.	0.1	27.482
5029	14.293	2.	0.1	31.267
5030	14.11	2.	0.1	35.321
5031	13.927	2.	0.1	39.667
5032	13.744	2.	0.1	44.329
5033	13.561	2.	0.1	49.33
5034	13.378	2.	0.1	54.695
5035	13.195	2.	0.1	60.449
5036	13.011	2.	0.1	66.618
5037	12.828	2.	0.1	73.226
5038	12.645	2.	0.1	80.296
5039	12.462	2.	0.1	87.85
5040	12.279	2.	0.1	95.906
5041	12.096	2.	0.1	104.48
5042	11.913	2.	0.1	113.57
5043	11.73	2.	0.1	123.18
5044	11.546	2.	0.1	133.28
5045	11.363	2.	0.1	143.84
5046	11.18	2.	0.1	154.79
5047	10.997	2.	0.1	166.02
5048	10.814	2.	0.1	177.38
5049	10.631	2.	0.1	188.6
5050	10.448	2.	0.1	199.32
5051	10.264	2.	0.1	209.01
5052	10.081	2.	0.1	216.85
5053	9.8981	2.	0.1	221.6
5054	9.7149	2.	0.1	221.4
5055	9.5318	2.	0.1	213.37
5056	9.3487	2.	0.1	193.11
5057	9.1655	2.	0.1	153.65
5058	8.9824	2.	0.1	85.45
5059	8.7992	2.	0.1	8.8169
5060	8.6161	2.	0.1	16.403
5061	8.433	2.	0.1	-76.353
5062	8.2498	2.	0.1	551.77
5063	23.817	2.1818	0.1	-0.20233
5064	23.634	2.1818	0.1	-0.32502
5065	23.451	2.1818	0.1	-0.14096
5066	23.267	2.1818	0.1	-0.12331
5067	23.084	2.1818	0.1	-9.1982e-002
5068	22.901	2.1818	0.1	-7.6946e-002
5069	22.718	2.1818	0.1	-6.4789e-002
5070	22.535	2.1818	0.1	-5.6129e-002
5071	22.352	2.1818	0.1	-4.9335e-002
5072	22.169	2.1818	0.1	-4.3948e-002
5073	21.985	2.1818	0.1	-3.9541e-002
5074	21.802	2.1818	0.1	-3.5886e-002
5075	21.619	2.1818	0.1	-3.28e-002
5076	21.436	2.1818	0.1	-3.0156e-002
5077	21.253	2.1818	0.1	-2.7871e-002
5078	21.07	2.1818	0.1	-2.5876e-002
5079	20.887	2.1818	0.1	-2.4113e-002
5080	20.703	2.1818	0.1	-2.2544e-002
5081	20.52	2.1818	0.1	-2.1161e-002
5082	20.337	2.1818	0.1	-1.9906e-002
5083	20.154	2.1818	0.1	-1.8772e-002
5084	19.971	2.1818	0.1	-1.7746e-002
5085	19.788	2.1818	0.1	-1.6809e-002
5086	19.605	2.1818	0.1	-1.5945e-002
5087	19.421	2.1818	0.1	-1.5152e-002
5088	19.238	2.1818	0.1	-1.4433e-002
5089	19.055	2.1818	0.1	-1.3752e-002
5090	18.872	2.1818	0.1	-1.3116e-002
5091	18.689	2.1818	0.1	-1.2524e-002
5092	18.506	2.1818	0.1	-1.1963e-002
5093	18.323	2.1818	0.1	-1.1438e-002
5094	18.139	2.1818	0.1	-1.0933e-002
5095	17.956	2.1818	0.1	-1.0429e-002
5096	17.773	2.1818	0.1	-9.9493e-003
5097	17.59	2.1818	0.1	-9.4729e-003
5098	17.407	2.1818	0.1	-8.9738e-003
5099	17.224	2.1818	0.1	-8.4349e-003
5100	17.041	2.1818	0.1	-7.8122e-003
5101	16.857	2.1818	0.1	-6.9597e-003
5102	16.674	2.1818	0.1	-5.4026e-003
5103	16.491	2.1818	0.1	7.2738e-004
5104	16.308	2.1818	0.1	0.99853
5105	16.125	2.1818	0.1	3.1935
5106	15.942	2.1818	0.1	5.4992
5107	15.759	2.1818	0.1	7.9256
5108	15.575	2.1818	0.1	10.488
5109	15.392	2.1818	0.1	13.202
5110	15.209	2.1818	0.1	16.086
5111	15.026	2.1818	0.1	19.159
5112	14.843	2.1818	0.1	22.44
5113	14.66	2.1818	0.1	25.95
5114	14.477	2.1818	0.1	29.713
5115	14.293	2.1818	0.1	33.753
5116	14.11	2.1818	0.1	38.095
5117	13.927	2.1818	0.1	42.768
5118	13.744	2.1818	0.1	47.801
5119	13.561	2.1818	0.1	53.225
5120	13.378	2.1818	0.1	59.075
5121	13.195	2.1818	0.1	65.384
5122	13.011	2.1818	0.1	72.19
5123	12.828	2.1818	0.1	79.531
5124	12.645	2.1818	0.1	87.443
5125	12.462	2.1818	0.1	95.965
5126	12.279	2.1818	0.1	105.13
5127	12.096	2.1818	0.1	114.98
5128	11.913	2.1818	0.1	125.53
5129	11.73	2.1818	0.1	136.81
5130	11.546	2.1818	0.1	148.81
5131	11.363	2.1818	0.1	161.52
5132	11.18	2.1818	0.1	174.88
5133	10.997	2.1818	0.1	188.8
5134	10.814	2.1818	0.1	203.12
5135	10.631	2.1818	0.1	217.58
5136	10.448	2.1818	0.1	231.8
5137	10.264	2.1818	0.1	245.19
5138	10.081	2.1818	0.1	256.89
5139	9.8981	2.1818	0.1	265.64
5140	9.7149	2.1818	0.1	269.54
5141	9.5318	2.1818	0.1	265.84
5142	9.3487	2.1818	0.1	250.46
5143	9.1655	2.1818	0.1	217.25
5144	8.9824	2.1818	0.1	157.5
5145	8.7992	2.1818	0.1	55.978
5146	8.6161	2.1818	0.1	7.6884
5147	8.433	2.1818	0.1	-35.336
5148	8.2498	2.1818	0.1	13.838
5149	23.817	2.3636	0.1	-0.20836
5150	23.634	2.3636	0.1	-0.32795
5151	23.451	2.3636	0.1	-0.143
5152	23.267	2.3636	0.1	-0.1251
5153	23.084	2.3636	0.1	-9.3585e-002
5154	22.901	2.3636	0.1	-7.8436e-002
5155	22.718	2.3636	0.1	-6.6203e-002
5156	22.535	2.3636	0.1	-5.7489e-002
5157	22.352	2.3636	0.1	-5.0652e-002
5158	22.169	2.3636	0.1	-4.5234e-002
5159	21.985	2.3636	0.1	-4.0803e-002
5160	21.802	2.3636	0.1	-3.7124e-002
5161	21.619	2.3636	0.1	-3.4013e-002
5162	21.436	2.3636	0.1	-3.1344e-002
5163	21.253	2.3636	0.1	-2.9032e-002
5164	21.07	2.3636	0.1	-2.7008e-002
5165	20.887	2.3636	0.1	-2.5223e-002
5166	20.703	2.3636	0.1	-2.3631e-002
5167	20.52	2.3636	0.1	-2.2217e-002
5168	20.337	2.3636	0.1	-2.0939e-002
5169	20.154	2.3636	0.1	-1.9777e-002
5170	19.971	2.3636	0.1	-1.8726e-002
5171	19.788	2.3636	0.1	-1.7766e-002
5172	19.605	2.3636	0.1	-1.6881e-002
5173	19.421	2.3636	0.1	-1.6068e-002
5174	19.238	2.3636	0.1	-1.5329e-002
5175	19.055	2.3636	0.1	-1.4631e-002
5176	18.872	2.3636	0.1	-1.398e-002
5177	18.689	2.3636	0.1	-1.3373e-002
5178	18.506	2.3636	0.1	-1.2801e-002
5179	18.323	2.3636	0.1	-1.2267e-002
5180	18.139	2.3636	0.1	-1.1756e-002
5181	17.956	2.3636	0.1	-1.1251e-002
5182	17.773	2.3636	0.1	-1.0775e-002
5183	17.59	2.3636	0.1	-1.0309e-002
5184	17.407	2.3636	0.1	-9.8327e-003
5185	17.224	2.3636	0.1	-9.333e-003
5186	17.041	2.3636	0.1	-8.7759e-003
5187	16.857	2.3636	0.1	-8.0448e-003
5188	16.674	2.3636	0.1	-6.6901e-003
5189	16.491	2.3636	0.1	1.8321e-003
5190	16.308	2.3636	0.1	1.5886
5191	16.125	2.3636	0.1	3.8686
5192	15.942	2.3636	0.1	6.2614
5193	15.759	2.3636	0.1	8.7813
5194	15.575	2.3636	0.1	11.445
5195	15.392	2.3636	0.1	14.271
5196	15.209	2.3636	0.1	17.277
5197	15.026	2.3636	0.1	20.485
5198	14.843	2.3636	0.1	23.917
5199	14.66	2.3636	0.1	27.596
5200	14.477	2.3636	0.1	31.548
5201	14.293	2.3636	0.1	35.802
5202	14.11	2.3636	0.1	40.387
5203	13.927	2.3636	0.1	45.335
5204	13.744	2.3636	0.1	50.683
5205	13.561	2.3636	0.1	56.468
5206	13.378	2.3636	0.1	62.73
5207	13.195	2.3636	0.1	69.514
5208	13.011	2.3636	0.1	76.866
5209	12.828	2.3636	0.1	84.835
5210	12.645	2.3636	0.1	93.472
5211	12.462	2.3636	0.1	102.83
5212	12.279	2.3636	0.1	112.96
5213	12.096	2.3636	0.1	123.91
5214	11.913	2.3636	0.1	135.73
5215	11.73	2.3636	0.1	148.45
5216	11.546	2.3636	0.1	162.09
5217	11.363	2.3636	0.1	176.66
5218	11.18	2.3636	0.1	192.1
5219	10.997	2.3636	0.1	208.33
5220	10.814	2.3636	0.1	225.19
5221	10.631	2.3636	0.1	242.39
5222	10.448	2.3636	0.1	259.49
5223	10.264	2.3636	0.1	275.84
5224	10.081	2.3636	0.1	290.45
5225	9.8981	2.3636	0.1	301.86
5226	9.7149	2.3636	0.1	307.92
5227	9.5318	2.3636	0.1	305.53
5228	9.3487	2.3636	0.1	290.14
5229	9.1655	2.3636	0.1	255.05
5230	8.9824	2.3636	0.1	190.33
5231	8.7992	2.3636	0.1	80.733
5232	8.6161	2.3636	0.1	-4.965
5233	8.433	2.3636	0.1	9.2543
5234	8.2498	2.3636	0.1	17.52
5235	23.817	2.5455	0.1	-0.21274
5236	23.634	2.5455	0.1	-0.33004
5237	23.451	2.5455	0.1	-0.14446
5238	23.267	2.5455	0.1	-0.12637
5239	23.084	2.5455	0.1	-9.4722e-002
5240	22.901	2.5455	0.1	-7.949e-002
5241	22.718	2.5455	0.1	-6.7198e-002
5242	22.535	2.5455	0.1	-5.8447e-002
5243	22.352	2.5455	0.1	-5.1583e-002
5244	22.169	2.5455	0.1	-4.6144e-002
5245	21.985	2.5455	0.1	-4.1696e-002
5246	21.802	2.5455	0.1	-3.8001e-002
5247	21.619	2.5455	0.1	-3.4876e-002
5248	21.436	2.5455	0.1	-3.2192e-002
5249	21.253	2.5455	0.1	-2.9865e-002
5250	21.07	2.5455	0.1	-2.7827e-002
5251	20.887	2.5455	0.1	-2.6019e-002
5252	20.703	2.5455	0.1	-2.4414e-002
5253	20.52	2.5455	0.1	-2.2982e-002
5254	20.337	2.5455	0.1	-2.1684e-002
5255	20.154	2.5455	0.1	-2.0507e-002
5256	19.971	2.5455	0.1	-1.9439e-002
5257	19.788	2.5455	0.1	-1.8464e-002
5258	19.605	2.5455	0.1	-1.7564e-002
5259	19.421	2.5455	0.1	-1.6738e-002
5260	19.238	2.5455	0.1	-1.5985e-002
5261	19.055	2.5455	0.1	-1.5277e-002
5262	18.872	2.5455	0.1	-1.4613e-002
5263	18.689	2.5455	0.1	-1.3999e-002
5264	18.506	2.5455	0.1	-1.3422e-002
5265	18.323	2.5455	0.1	-1.2882e-002
5266	18.139	2.5455	0.1	-1.2369e-002
5267	17.956	2.5455	0.1	-1.1865e-002
5268	17.773	2.5455	0.1	-1.1395e-002
5269	17.59	2.5455	0.1	-1.0944e-002
5270	17.407	2.5455	0.1	-1.049e-002
5271	17.224	2.5455	0.1	-1.0033e-002
5272	17.041	2.5455	0.1	-9.5506e-003
5273	16.857	2.5455	0.1	-8.9624e-003
5274	16.674	2.5455	0.1	-7.9408e-003
5275	16.491	2.5455	0.1	6.4773e-003
5276	16.308	2.5455	0.1	2.0372
5277	16.125	2.5455	0.1	4.3804
5278	15.942	2.5455	0.1	6.8396
5279	15.759	2.5455	0.1	9.4312
5280	15.575	2.5455	0.1	12.173
5281	15.392	2.5455	0.1	15.084
5282	15.209	2.5455	0.1	18.185
5283	15.026	2.5455	0.1	21.498
5284	14.843	2.5455	0.1	25.046
5285	14.66	2.5455	0.1	28.856
5286	14.477	2.5455	0.1	32.956
5287	14.293	2.5455	0.1	37.376
5288	14.11	2.5455	0.1	42.15
5289	13.927	2.5455	0.1	47.314
5290	13.744	2.5455	0.1	52.909
5291	13.561	2.5455	0.1	58.976
5292	13.378	2.5455	0.1	65.563
5293	13.195	2.5455	0.1	72.721
5294	13.011	2.5455	0.1	80.504
5295	12.828	2.5455	0.1	88.971
5296	12.645	2.5455	0.1	98.182
5297	12.462	2.5455	0.1	108.2
5298	12.279	2.5455	0.1	119.09
5299	12.096	2.5455	0.1	130.92
5300	11.913	2.5455	0.1	143.75
5301	11.73	2.5455	0.1	157.62
5302	11.546	2.5455	0.1	172.57
5303	11.363	2.5455	0.1	188.61
5304	11.18	2.5455	0.1	205.71
5305	10.997	2.5455	0.1	223.77
5306	10.814	2.5455	0.1	242.61
5307	10.631	2.5455	0.1	261.91
5308	10.448	2.5455	0.1	281.19
5309	10.264	2.5455	0.1	299.66
5310	10.081	2.5455	0.1	316.15
5311	9.8981	2.5455	0.1	328.93
5312	9.7149	2.5455	0.1	335.42
5313	9.5318	2.5455	0.1	331.83
5314	9.3487	2.5455	0.1	312.62
5315	9.1655	2.5455	0.1	269.73
5316	8.9824	2.5455	0.1	191.49
5317	8.7992	2.5455	0.1	61.723
5318	8.6161	2.5455	0.1	0.14504
5319	8.433	2.5455	0.1	-0.41251
5320	8.2498	2.5455	0.1	-4.5938
5321	23.817	2.7273	0.1	-0.2156
5322	23.634	2.7273	0.1	-0.33139
5323	23.451	2.7273	0.1	-0.1454
5324	23.267	2.7273	0.1	-0.12719
5325	23.084	2.7273	0.1	-9.5452e-002
5326	22.901	2.7273	0.1	-8.0165e-002
5327	22.718	2.7273	0.1	-6.7836e-002
5328	22.535	2.7273	0.1	-5.906e-002
5329	22.352	2.7273	0.1	-5.2179e-002
5330	22.169	2.7273	0.1	-4.6727e-002
5331	21.985	2.7273	0.1	-4.2267e-002
5332	21.802	2.7273	0.1	-3.8564e-002
5333	21.619	2.7273	0.1	-3.5429e-002
5334	21.436	2.7273	0.1	-3.2738e-002
5335	21.253	2.7273	0.1	-3.0402e-002
5336	21.07	2.7273	0.1	-2.8352e-002
5337	20.887	2.7273	0.1	-2.6536e-002
5338	20.703	2.7273	0.1	-2.4919e-002
5339	20.52	2.7273	0.1	-2.3476e-002
5340	20.337	2.7273	0.1	-2.2168e-002
5341	20.154	2.7273	0.1	-2.0983e-002
5342	19.971	2.7273	0.1	-1.9904e-002
5343	19.788	2.7273	0.1	-1.892e-002
5344	19.605	2.7273	0.1	-1.8009e-002
5345	19.421	2.7273	0.1	-1.7176e-002
5346	19.238	2.7273	0.1	-1.6415e-002
5347	19.055	2.7273	0.1	-1.57e-002
5348	18.872	2.7273	0.1	-1.5031e-002
5349	18.689	2.7273	0.1	-1.4412e-002
5350	18.506	2.7273	0.1	-1.3829e-002
5351	18.323	2.7273	0.1	-1.3289e-002
5352	18.139	2.7273	0.1	-1.2775e-002
5353	17.956	2.7273	0.1	-1.2274e-002
5354	17.773	2.7273	0.1	-1.181e-002
5355	17.59	2.7273	0.1	-1.1369e-002
5356	17.407	2.7273	0.1	-1.0936e-002
5357	17.224	2.7273	0.1	-1.0512e-002
5358	17.041	2.7273	0.1	-1.0091e-002
5359	16.857	2.7273	0.1	-9.6329e-003
5360	16.674	2.7273	0.1	-8.9777e-003
5361	16.491	2.7273	0.1	7.0189e-002
5362	16.308	2.7273	0.1	2.3387
5363	16.125	2.7273	0.1	4.7241
5364	15.942	2.7273	0.1	7.2282
5365	15.759	2.7273	0.1	9.8684
5366	15.575	2.7273	0.1	12.663
5367	15.392	2.7273	0.1	15.632
5368	15.209	2.7273	0.1	18.797
5369	15.026	2.7273	0.1	22.181
5370	14.843	2.7273	0.1	25.809
5371	14.66	2.7273	0.1	29.708
5372	14.477	2.7273	0.1	33.909
5373	14.293	2.7273	0.1	38.443
5374	14.11	2.7273	0.1	43.347
5375	13.927	2.7273	0.1	48.66
5376	13.744	2.7273	0.1	54.424
5377	13.561	2.7273	0.1	60.686
5378	13.378	2.7273	0.1	67.497
5379	13.195	2.7273	0.1	74.914
5380	13.011	2.7273	0.1	82.995
5381	12.828	2.7273	0.1	91.806
5382	12.645	2.7273	0.1	101.42
5383	12.462	2.7273	0.1	111.89
5384	12.279	2.7273	0.1	123.32
5385	12.096	2.7273	0.1	135.76
5386	11.913	2.7273	0.1	149.28
5387	11.73	2.7273	0.1	163.95
5388	11.546	2.7273	0.1	179.82
5389	11.363	2.7273	0.1	196.88
5390	11.18	2.7273	0.1	215.12
5391	10.997	2.7273	0.1	234.43
5392	10.814	2.7273	0.1	254.63
5393	10.631	2.7273	0.1	275.35
5394	10.448	2.7273	0.1	296.05
5395	10.264	2.7273	0.1	315.84
5396	10.081	2.7273	0.1	333.38
5397	9.8981	2.7273	0.1	346.63
5398	9.7149	2.7273	0.1	352.58
5399	9.5318	2.7273	0.1	346.78
5400	9.3487	2.7273	0.1	322.73
5401	9.1655	2.7273	0.1	271.18
5402	8.9824	2.7273	0.1	179.59
5403	8.7992	2.7273	0.1	33.331
5404	8.6161	2.7273	0.1	-0.81594
5405	8.433	2.7273	0.1	0.10437
5406	8.2498	2.7273	0.1	3.1215
5407	23.817	2.9091	0.1	-0.21701
5408	23.634	2.9091	0.1	-0.33205
5409	23.451	2.9091	0.1	-0.14586
5410	23.267	2.9091	0.1	-0.12758
5411	23.084	2.9091	0.1	-9.5804e-002
5412	22.901	2.9091	0.1	-8.0492e-002
5413	22.718	2.9091	0.1	-6.8148e-002
5414	22.535	2.9091	0.1	-5.9357e-002
5415	22.352	2.9091	0.1	-5.2468e-002
5416	22.169	2.9091	0.1	-4.7011e-002
5417	21.985	2.9091	0.1	-4.2546e-002
5418	21.802	2.9091	0.1	-3.8838e-002
5419	21.619	2.9091	0.1	-3.5701e-002
5420	21.436	2.9091	0.1	-3.3005e-002
5421	21.253	2.9091	0.1	-3.0663e-002
5422	21.07	2.9091	0.1	-2.861e-002
5423	20.887	2.9091	0.1	-2.6789e-002
5424	20.703	2.9091	0.1	-2.5168e-002
5425	20.52	2.9091	0.1	-2.3721e-002
5426	20.337	2.9091	0.1	-2.2407e-002
5427	20.154	2.9091	0.1	-2.1214e-002
5428	19.971	2.9091	0.1	-2.0132e-002
5429	19.788	2.9091	0.1	-1.9143e-002
5430	19.605	2.9091	0.1	-1.8231e-002
5431	19.421	2.9091	0.1	-1.7392e-002
5432	19.238	2.9091	0.1	-1.6627e-002
5433	19.055	2.9091	0.1	-1.5909e-002
5434	18.872	2.9091	0.1	-1.5238e-002
5435	18.689	2.9091	0.1	-1.4616e-002
5436	18.506	2.9091	0.1	-1.4033e-002
5437	18.323	2.9091	0.1	-1.349e-002
5438	18.139	2.9091	0.1	-1.2977e-002
5439	17.956	2.9091	0.1	-1.2477e-002
5440	17.773	2.9091	0.1	-1.2016e-002
5441	17.59	2.9091	0.1	-1.1583e-002
5442	17.407	2.9091	0.1	-1.116e-002
5443	17.224	2.9091	0.1	-1.0755e-002
5444	17.041	2.9091	0.1	-1.037e-002
5445	16.857	2.9091	0.1	-9.9882e-003
5446	16.674	2.9091	0.1	-9.5777e-003
5447	16.491	2.9091	0.1	0.18772
5448	16.308	2.9091	0.1	2.4901
5449	16.125	2.9091	0.1	4.8967
5450	15.942	2.9091	0.1	7.4235
5451	15.759	2.9091	0.1	10.088
5452	15.575	2.9091	0.1	12.91
5453	15.392	2.9091	0.1	15.908
5454	15.209	2.9091	0.1	19.105
5455	15.026	2.9091	0.1	22.525
5456	14.843	2.9091	0.1	26.194
5457	14.66	2.9091	0.1	30.138
5458	14.477	2.9091	0.1	34.39
5459	14.293	2.9091	0.1	38.983
5460	14.11	2.9091	0.1	43.953
5461	13.927	2.9091	0.1	49.34
5462	13.744	2.9091	0.1	55.191
5463	13.561	2.9091	0.1	61.552
5464	13.378	2.9091	0.1	68.478
5465	13.195	2.9091	0.1	76.026
5466	13.011	2.9091	0.1	84.26
5467	12.828	2.9091	0.1	93.247
5468	12.645	2.9091	0.1	103.06
5469	12.462	2.9091	0.1	113.77
5470	12.279	2.9091	0.1	125.47
5471	12.096	2.9091	0.1	138.22
5472	11.913	2.9091	0.1	152.11
5473	11.73	2.9091	0.1	167.19
5474	11.546	2.9091	0.1	183.51
5475	11.363	2.9091	0.1	201.1
5476	11.18	2.9091	0.1	219.92
5477	10.997	2.9091	0.1	239.88
5478	10.814	2.9091	0.1	260.76
5479	10.631	2.9091	0.1	282.2
5480	10.448	2.9091	0.1	303.59
5481	10.264	2.9091	0.1	324.01
5482	10.081	2.9091	0.1	341.97
5483	9.8981	2.9091	0.1	355.3
5484	9.7149	2.9091	0.1	360.69
5485	9.5318	2.9091	0.1	353.28
5486	9.3487	2.9091	0.1	326.04
5487	9.1655	2.9091	0.1	269.14
5488	8.9824	2.9091	0.1	169.98
5489	8.7992	2.9091	0.1	15.36
5490	8.6161	2.9091	0.1	-0.92785
5491	8.433	2.9091	0.1	-7.7317e-003
5492	8.2498	2.9091	0.1	0.38626
5493	23.817	3.0909	0.1	-0.21701
5494	23.634	3.0909	0.1	-0.33205
5495	23.451	3.0909	0.1	-0.14585
5496	23.267	3.0909	0.1	-0.12758
5497	23.084	3.0909	0.1	-9.5808e-002
5498	22.901	3.0909	0.1	-8.0495e-002
5499	22.718	3.0909	0.1	-6.8148e-002
5500	22.535	3.0909	0.1	-5.9357e-002
5501	22.352	3.0909	0.1	-5.2468e-002
5502	22.169	3.0909	0.1	-4.7009e-002
5503	21.985	3.0909	0.1	-4.2547e-002
5504	21.802	3.0909	0.1	-3.8838e-002
5505	21.619	3.0909	0.1	-3.57e-002
5506	21.436	3.0909	0.1	-3.3005e-002
5507	21.253	3.0909	0.1	-3.0663e-002
5508	21.07	3.0909	0.1	-2.8611e-002
5509	20.887	3.0909	0.1	-2.679e-002
5510	20.703	3.0909	0.1	-2.5167e-002
5511	20.52	3.0909	0.1	-2.372e-002
5512	20.337	3.0909	0.1	-2.2407e-002
5513	20.154	3.0909	0.1	-2.1216e-002
5514	19.971	3.0909	0.1	-2.0133e-002
5515	19.788	3.0909	0.1	-1.9143e-002
5516	19.605	3.0909	0.1	-1.8231e-002
5517	19.421	3.0909	0.1	-1.7392e-002
5518	19.238	3.0909	0.1	-1.6627e-002
5519	19.055	3.0909	0.1	-1.5909e-002
5520	18.872	3.0909	0.1	-1.5237e-002
5521	18.689	3.0909	0.1	-1.4615e-002
5522	18.506	3.0909	0.1	-1.4032e-002
5523	18.323	3.0909	0.1	-1.349e-002
5524	18.139	3.0909	0.1	-1.2977e-002
5525	17.956	3.0909	0.1	-1.2477e-002
5526	17.773	3.0909	0.1	-1.2017e-002
5527	17.59	3.0909	0.1	-1.1582e-002
5528	17.407	3.0909	0.1	-1.116e-002
5529	17.224	3.0909	0.1	-1.0755e-002
5530	17.041	3.0909	0.1	-1.0371e-002
5531	16.857	3.0909	0.1	-9.9883e-003
5532	16.674	3.0909	0.1	-9.5768e-003
5533	16.491	3.0909	0.1	0.18772
5534	16.308	3.0909	0.1	2.4901
5535	16.125	3.0909	0.1	4.8967
5536	15.942	3.0909	0.1	7.4235
5537	15.759	3.0909	0.1	10.088
5538	15.575	3.0909	0.1	12.91
5539	15.392	3.0909	0.1	15.908
5540	15.209	3.0909	0.1	19.105
5541	15.026	3.0909	0.1	22.525
5542	14.843	3.0909	0.1	26.194
5543	14.66	3.0909	0.1	30.138
5544	14.477	3.0909	0.1	34.39
5545	14.293	3.0909	0.1	38.983
5546	14.11	3.0909	0.1	43.953
5547	13.927	3.0909	0.1	49.34
5548	13.744	3.0909	0.1	55.191
5549	13.561	3.0909	0.1	61.552
5550	13.378	3.0909	0.1	68.478
5551	13.195	3.0909	0.1	76.026
5552	13.011	3.0909	0.1	84.26
5553	12.828	3.0909	0.1	93.247
5554	12.645	3.0909	0.1	103.06
5555	12.462	3.0909	0.1	113.77
5556	12.279	3.0909	0.1	125.47
5557	12.096	3.0909	0.1	138.22
5558	11.913	3.0909	0.1	152.11
5559	11.73	3.0909	0.1	167.19
5560	11.546	3.0909	0.1	183.51
5561	11.363	3.0909	0.1	201.1
5562	11.18	3.0909	0.1	219.92
5563	10.997	3.0909	0.1	239.88
5564	10.814	3.0909	0.1	260.76
5565	10.631	3.0909	0.1	282.2
5566	10.448	3.0909	0.1	303.59
5567	10.264	3.0909	0.1	324.01
5568	10.081	3.0909	0.1	341.97
5569	9.8981	3.0909	0.1	355.3
5570	9.7149	3.0909	0.1	360.69
5571	9.5318	3.0909	0.1	353.28
5572	9.3487	3.0909	0.1	326.04
5573	9.1655	3.0909	0.1	269.14
5574	8.9824	3.0909	0.1	169.98
5575	8.7992	3.0909	0.1	15.36
5576	8.6161	3.0909	0.1	-0.92785
5577	8.433	3.0909	0.1	-7.7319e-003
5578	8.2498	3.0909	0.1	0.38626
5579	23.817	3.2727	0.1	-0.2156
5580	23.634	3.2727	0.1	-0.33139
5581	23.451	3.2727	0.1	-0.1454
5582	23.267	3.2727	0.1	-0.12719
5583	23.084	3.2727	0.1	-9.5449e-002
5584	22.901	3.2727	0.1	-8.0165e-002
5585	22.718	3.2727	0.1	-6.7836e-002
5586	22.535	3.2727	0.1	-5.9059e-002
5587	22.352	3.2727	0.1	-5.2179e-002
5588	22.169	3.2727	0.1	-4.6728e-002
5589	21.985	3.2727	0.1	-4.2267e-002
5590	21.802	3.2727	0.1	-3.8564e-002
5591	21.619	3.2727	0.1	-3.543e-002
5592	21.436	3.2727	0.1	-3.2739e-002
5593	21.253	3.2727	0.1	-3.0401e-002
5594	21.07	3.2727	0.1	-2.8351e-002
5595	20.887	3.2727	0.1	-2.6538e-002
5596	20.703	3.2727	0.1	-2.4919e-002
5597	20.52	3.2727	0.1	-2.3478e-002
5598	20.337	3.2727	0.1	-2.2169e-002
5599	20.154	3.2727	0.1	-2.098e-002
5600	19.971	3.2727	0.1	-1.9905e-002
5601	19.788	3.2727	0.1	-1.8919e-002
5602	19.605	3.2727	0.1	-1.8011e-002
5603	19.421	3.2727	0.1	-1.7176e-002
5604	19.238	3.2727	0.1	-1.6415e-002
5605	19.055	3.2727	0.1	-1.57e-002
5606	18.872	3.2727	0.1	-1.503e-002
5607	18.689	3.2727	0.1	-1.4412e-002
5608	18.506	3.2727	0.1	-1.3829e-002
5609	18.323	3.2727	0.1	-1.3288e-002
5610	18.139	3.2727	0.1	-1.2774e-002
5611	17.956	3.2727	0.1	-1.2274e-002
5612	17.773	3.2727	0.1	-1.181e-002
5613	17.59	3.2727	0.1	-1.1368e-002
5614	17.407	3.2727	0.1	-1.0936e-002
5615	17.224	3.2727	0.1	-1.0511e-002
5616	17.041	3.2727	0.1	-1.009e-002
5617	16.857	3.2727	0.1	-9.6324e-003
5618	16.674	3.2727	0.1	-8.978e-003
5619	16.491	3.2727	0.1	7.0186e-002
5620	16.308	3.2727	0.1	2.3387
5621	16.125	3.2727	0.1	4.7241
5622	15.942	3.2727	0.1	7.2282
5623	15.759	3.2727	0.1	9.8684
5624	15.575	3.2727	0.1	12.663
5625	15.392	3.2727	0.1	15.632
5626	15.209	3.2727	0.1	18.797
5627	15.026	3.2727	0.1	22.181
5628	14.843	3.2727	0.1	25.809
5629	14.66	3.2727	0.1	29.708
5630	14.477	3.2727	0.1	33.909
5631	14.293	3.2727	0.1	38.443
5632	14.11	3.2727	0.1	43.347
5633	13.927	3.2727	0.1	48.66
5634	13.744	3.2727	0.1	54.424
5635	13.561	3.2727	0.1	60.686
5636	13.378	3.2727	0.1	67.497
5637	13.195	3.2727	0.1	74.914
5638	13.011	3.2727	0.1	82.995
5639	12.828	3.2727	0.1	91.806
5640	12.645	3.2727	0.1	101.42
5641	12.462	3.2727	0.1	111.89
5642	12.279	3.2727	0.1	123.32
5643	12.096	3.2727	0.1	135.76
5644	11.913	3.2727	0.1	149.28
5645	11.73	3.2727	0.1	163.95
5646	11.546	3.2727	0.1	179.82
5647	11.363	3.2727	0.1	196.88
5648	11.18	3.2727	0.1	215.12
5649	10.997	3.2727	0.1	234.43
5650	10.814	3.2727	0.1	254.63
5651	10.631	3.2727	0.1	275.35
5652	10.448	3.2727	0.1	296.05
5653	10.264	3.2727	0.1	315.84
5654	10.081	3.2727	0.1	333.38
5655	9.8981	3.2727	0.1	346.63
5656	9.7149	3.2727	0.1	352.58
5657	9.5318	3.2727	0.1	346.78
5658	9.3487	3.2727	0.1	322.73
5659	9.1655	3.2727	0.1	271.18
5660	8.9824	3.2727	0.1	179.59
5661	8.7992	3.2727	0.1	33.331
5662	8.6161	3.2727	0.1	-0.81595
5663	8.433	3.2727	0.1	0.10437
5664	8.2498	3.2727	0.1	3.1215
5665	23.817	3.4545	0.1	-0.21274
5666	23.634	3.4545	0.1	-0.33004
5667	23.451	3.4545	0.1	-0.14446
5668	23.267	3.4545	0.1	-0.12637
5669	23.084	3.4545	0.1	-9.4721e-002
5670	22.901	3.4545	0.1	-7.9491e-002
5671	22.718	3.4545	0.1	-6.7198e-002
5672	22.535	3.4545	0.1	-5.8447e-002
5673	22.352	3.4545	0.1	-5.1583e-002
5674	22.169	3.4545	0.1	-4.6143e-002
5675	21.985	3.4545	0.1	-4.1698e-002
5676	21.802	3.4545	0.1	-3.8002e-002
5677	21.619	3.4545	0.1	-3.4875e-002
5678	21.436	3.4545	0.1	-3.2192e-002
5679	21.253	3.4545	0.1	-2.9865e-002
5680	21.07	3.4545	0.1	-2.7827e-002
5681	20.887	3.4545	0.1	-2.6019e-002
5682	20.703	3.4545	0.1	-2.4413e-002
5683	20.52	3.4545	0.1	-2.2981e-002
5684	20.337	3.4545	0.1	-2.1685e-002
5685	20.154	3.4545	0.1	-2.0508e-002
5686	19.971	3.4545	0.1	-1.944e-002
5687	19.788	3.4545	0.1	-1.8464e-002
5688	19.605	3.4545	0.1	-1.7564e-002
5689	19.421	3.4545	0.1	-1.6738e-002
5690	19.238	3.4545	0.1	-1.5985e-002
5691	19.055	3.4545	0.1	-1.5276e-002
5692	18.872	3.4545	0.1	-1.4614e-002
5693	18.689	3.4545	0.1	-1.3999e-002
5694	18.506	3.4545	0.1	-1.3421e-002
5695	18.323	3.4545	0.1	-1.2882e-002
5696	18.139	3.4545	0.1	-1.2369e-002
5697	17.956	3.4545	0.1	-1.1865e-002
5698	17.773	3.4545	0.1	-1.1395e-002
5699	17.59	3.4545	0.1	-1.0943e-002
5700	17.407	3.4545	0.1	-1.0491e-002
5701	17.224	3.4545	0.1	-1.0032e-002
5702	17.041	3.4545	0.1	-9.5506e-003
5703	16.857	3.4545	0.1	-8.9637e-003
5704	16.674	3.4545	0.1	-7.9407e-003
5705	16.491	3.4545	0.1	6.4765e-003
5706	16.308	3.4545	0.1	2.0372
5707	16.125	3.4545	0.1	4.3803
5708	15.942	3.4545	0.1	6.8396
5709	15.759	3.4545	0.1	9.4312
5710	15.575	3.4545	0.1	12.173
5711	15.392	3.4545	0.1	15.084
5712	15.209	3.4545	0.1	18.185
5713	15.026	3.4545	0.1	21.497
5714	14.843	3.4545	0.1	25.046
5715	14.66	3.4545	0.1	28.856
5716	14.477	3.4545	0.1	32.956
5717	14.293	3.4545	0.1	37.376
5718	14.11	3.4545	0.1	42.15
5719	13.927	3.4545	0.1	47.314
5720	13.744	3.4545	0.1	52.909
5721	13.561	3.4545	0.1	58.976
5722	13.378	3.4545	0.1	65.563
5723	13.195	3.4545	0.1	72.721
5724	13.011	3.4545	0.1	80.504
5725	12.828	3.4545	0.1	88.971
5726	12.645	3.4545	0.1	98.182
5727	12.462	3.4545	0.1	108.2
5728	12.279	3.4545	0.1	119.09
5729	12.096	3.4545	0.1	130.92
5730	11.913	3.4545	0.1	143.75
5731	11.73	3.4545	0.1	157.62
5732	11.546	3.4545	0.1	172.57
5733	11.363	3.4545	0.1	188.61
5734	11.18	3.4545	0.1	205.71
5735	10.997	3.4545	0.1	223.77
5736	10.814	3.4545	0.1	242.61
5737	10.631	3.4545	0.1	261.91
5738	10.448	3.4545	0.1	281.19
5739	10.264	3.4545	0.1	299.66
5740	10.081	3.4545	0.1	316.15
5741	9.8981	3.4545	0.1	328.93
5742	9.7149	3.4545	0.1	335.42
5743	9.5318	3.4545	0.1	331.83
5744	9.3487	3.4545	0.1	312.62
5745	9.1655	3.4545	0.1	269.73
5746	8.9824	3.4545	0.1	191.49
5747	8.7992	3.4545	0.1	61.723
5748	8.6161	3.4545	0.1	0.14503
5749	8.433	3.4545	0.1	-0.41251
5750	8.2498	3.4545	0.1	-4.5938
5751	23.817	3.6364	0.1	-0.20836
5752	23.634	3.6364	0.1	-0.32795
5753	23.451	3.6364	0.1	-0.143
5754	23.267	3.6364	0.1	-0.1251
5755	23.084	3.6364	0.1	-9.3587e-002
5756	22.901	3.6364	0.1	-7.8434e-002
5757	22.718	3.6364	0.1	-6.6202e-002
5758	22.535	3.6364	0.1	-5.7489e-002
5759	22.352	3.6364	0.1	-5.0652e-002
5760	22.169	3.6364	0.1	-4.5234e-002
5761	21.985	3.6364	0.1	-4.0801e-002
5762	21.802	3.6364	0.1	-3.7121e-002
5763	21.619	3.6364	0.1	-3.4011e-002
5764	21.436	3.6364	0.1	-3.1346e-002
5765	21.253	3.6364	0.1	-2.9033e-002
5766	21.07	3.6364	0.1	-2.701e-002
5767	20.887	3.6364	0.1	-2.5222e-002
5768	20.703	3.6364	0.1	-2.3632e-002
5769	20.52	3.6364	0.1	-2.2218e-002
5770	20.337	3.6364	0.1	-2.0937e-002
5771	20.154	3.6364	0.1	-1.9777e-002
5772	19.971	3.6364	0.1	-1.8725e-002
5773	19.788	3.6364	0.1	-1.7765e-002
5774	19.605	3.6364	0.1	-1.6882e-002
5775	19.421	3.6364	0.1	-1.6069e-002
5776	19.238	3.6364	0.1	-1.5328e-002
5777	19.055	3.6364	0.1	-1.4632e-002
5778	18.872	3.6364	0.1	-1.3978e-002
5779	18.689	3.6364	0.1	-1.3374e-002
5780	18.506	3.6364	0.1	-1.2802e-002
5781	18.323	3.6364	0.1	-1.2266e-002
5782	18.139	3.6364	0.1	-1.1755e-002
5783	17.956	3.6364	0.1	-1.1251e-002
5784	17.773	3.6364	0.1	-1.0774e-002
5785	17.59	3.6364	0.1	-1.031e-002
5786	17.407	3.6364	0.1	-9.8316e-003
5787	17.224	3.6364	0.1	-9.3324e-003
5788	17.041	3.6364	0.1	-8.776e-003
5789	16.857	3.6364	0.1	-8.0452e-003
5790	16.674	3.6364	0.1	-6.6892e-003
5791	16.491	3.6364	0.1	1.8318e-003
5792	16.308	3.6364	0.1	1.5886
5793	16.125	3.6364	0.1	3.8686
5794	15.942	3.6364	0.1	6.2614
5795	15.759	3.6364	0.1	8.7813
5796	15.575	3.6364	0.1	11.445
5797	15.392	3.6364	0.1	14.271
5798	15.209	3.6364	0.1	17.277
5799	15.026	3.6364	0.1	20.485
5800	14.843	3.6364	0.1	23.917
5801	14.66	3.6364	0.1	27.596
5802	14.477	3.6364	0.1	31.548
5803	14.293	3.6364	0.1	35.802
5804	14.11	3.6364	0.1	40.387
5805	13.927	3.6364	0.1	45.335
5806	13.744	3.6364	0.1	50.683
5807	13.561	3.6364	0.1	56.468
5808	13.378	3.6364	0.1	62.73
5809	13.195	3.6364	0.1	69.514
5810	13.011	3.6364	0.1	76.866
5811	12.828	3.6364	0.1	84.835
5812	12.645	3.6364	0.1	93.472
5813	12.462	3.6364	0.1	102.83
5814	12.279	3.6364	0.1	112.96
5815	12.096	3.6364	0.1	123.91
5816	11.913	3.6364	0.1	135.73
5817	11.73	3.6364	0.1	148.45
5818	11.546	3.6364	0.1	162.09
5819	11.363	3.6364	0.1	176.66
5820	11.18	3.6364	0.1	192.1
5821	10.997	3.6364	0.1	208.33
5822	10.814	3.6364	0.1	225.19
5823	10.631	3.6364	0.1	242.39
5824	10.448	3.6364	0.1	259.49
5825	10.264	3.6364	0.1	275.84
5826	10.081	3.6364	0.1	290.45
5827	9.8981	3.6364	0.1	301.86
5828	9.7149	3.6364	0.1	307.92
5829	9.5318	3.6364	0.1	305.53
5830	9.3487	3.6364	0.1	290.14
5831	9.1655	3.6364	0.1	255.05
5832	8.9824	3.6364	0.1	190.33
5833	8.7992	3.6364	0.1	80.733
5834	8.6161	3.6364	0.1	-4.9651
5835	8.433	3.6364	0.1	9.2543
5836	8.2498	3.6364	0.1	17.52
5837	23.817	3.8182	0.1	-0.20234
5838	23.634	3.8182	0.1	-0.32503
5839	23.451	3.8182	0.1	-0.14096
5840	23.267	3.8182	0.1	-0.12331
5841	23.084	3.8182	0.1	-9.1982e-002
5842	22.901	3.8182	0.1	-7.6946e-002
5843	22.718	3.8182	0.1	-6.479e-002
5844	22.535	3.8182	0.1	-5.6128e-002
5845	22.352	3.8182	0.1	-4.9335e-002
5846	22.169	3.8182	0.1	-4.3946e-002
5847	21.985	3.8182	0.1	-3.9543e-002
5848	21.802	3.8182	0.1	-3.5886e-002
5849	21.619	3.8182	0.1	-3.28e-002
5850	21.436	3.8182	0.1	-3.0158e-002
5851	21.253	3.8182	0.1	-2.7871e-002
5852	21.07	3.8182	0.1	-2.5875e-002
5853	20.887	3.8182	0.1	-2.4112e-002
5854	20.703	3.8182	0.1	-2.2544e-002
5855	20.52	3.8182	0.1	-2.1159e-002
5856	20.337	3.8182	0.1	-1.9907e-002
5857	20.154	3.8182	0.1	-1.8772e-002
5858	19.971	3.8182	0.1	-1.7744e-002
5859	19.788	3.8182	0.1	-1.6808e-002
5860	19.605	3.8182	0.1	-1.5945e-002
5861	19.421	3.8182	0.1	-1.5153e-002
5862	19.238	3.8182	0.1	-1.4432e-002
5863	19.055	3.8182	0.1	-1.3752e-002
5864	18.872	3.8182	0.1	-1.3116e-002
5865	18.689	3.8182	0.1	-1.2523e-002
5866	18.506	3.8182	0.1	-1.1964e-002
5867	18.323	3.8182	0.1	-1.1438e-002
5868	18.139	3.8182	0.1	-1.0933e-002
5869	17.956	3.8182	0.1	-1.0429e-002
5870	17.773	3.8182	0.1	-9.9488e-003
5871	17.59	3.8182	0.1	-9.4725e-003
5872	17.407	3.8182	0.1	-8.9739e-003
5873	17.224	3.8182	0.1	-8.4354e-003
5874	17.041	3.8182	0.1	-7.8116e-003
5875	16.857	3.8182	0.1	-6.9599e-003
5876	16.674	3.8182	0.1	-5.4028e-003
5877	16.491	3.8182	0.1	7.2724e-004
5878	16.308	3.8182	0.1	0.99851
5879	16.125	3.8182	0.1	3.1935
5880	15.942	3.8182	0.1	5.4992
5881	15.759	3.8182	0.1	7.9255
5882	15.575	3.8182	0.1	10.488
5883	15.392	3.8182	0.1	13.202
5884	15.209	3.8182	0.1	16.086
5885	15.026	3.8182	0.1	19.159
5886	14.843	3.8182	0.1	22.44
5887	14.66	3.8182	0.1	25.95
5888	14.477	3.8182	0.1	29.713
5889	14.293	3.8182	0.1	33.753
5890	14.11	3.8182	0.1	38.095
5891	13.927	3.8182	0.1	42.768
5892	13.744	3.8182	0.1	47.801
5893	13.561	3.8182	0.1	53.225
5894	13.378	3.8182	0.1	59.075
5895	13.195	3.8182	0.1	65.384
5896	13.011	3.8182	0.1	72.19
5897	12.828	3.8182	0.1	79.531
5898	12.645	3.8182	0.1	87.443
5899	12.462	3.8182	0.1	95.965
5900	12.279	3.8182	0.1	105.13
5901	12.096	3.8182	0.1	114.98
5902	11.913	3.8182	0.1	125.53
5903	11.73	3.8182	0.1	136.81
5904	11.546	3.8182	0.1	148.81
5905	11.363	3.8182	0.1	161.52
5906	11.18	3.8182	0.1	174.88
5907	10.997	3.8182	0.1	188.8
5908	10.814	3.8182	0.1	203.12
5909	10.631	3.8182	0.1	217.58
5910	10.448	3.8182	0.1	231.8
5911	10.264	3.8182	0.1	245.19
5912	10.081	3.8182	0.1	256.89
5913	9.8981	3.8182	0.1	265.64
5914	9.7149	3.8182	0.1	269.54
5915	9.5318	3.8182	0.1	265.84
5916	9.3487	3.8182	0.1	250.46
5917	9.1655	3.8182	0.1	217.25
5918	8.9824	3.8182	0.1	157.5
5919	8.7992	3.8182	0.1	55.978
5920	8.6161	3.8182	0.1	7.6885
5921	8.433	3.8182	0.1	-35.336
5922	8.2498	3.8182	0.1	13.838
5923	23.817	4.	0.1	-0.19447
5924	23.634	4.	0.1	-0.32113
5925	23.451	4.	0.1	-0.13822
5926	23.267	4.	0.1	-0.12091
5927	23.084	4.	0.1	-8.9825e-002
5928	22.901	4.	0.1	-7.4934e-002
5929	22.718	4.	0.1	-6.288e-002
5930	22.535	4.	0.1	-5.4294e-002
5931	22.352	4.	0.1	-4.7551e-002
5932	22.169	4.	0.1	-4.221e-002
5933	21.985	4.	0.1	-3.7843e-002
5934	21.802	4.	0.1	-3.4228e-002
5935	21.619	4.	0.1	-3.1178e-002
5936	21.436	4.	0.1	-2.8576e-002
5937	21.253	4.	0.1	-2.6329e-002
5938	21.07	4.	0.1	-2.4372e-002
5939	20.887	4.	0.1	-2.2649e-002
5940	20.703	4.	0.1	-2.1127e-002
5941	20.52	4.	0.1	-1.9778e-002
5942	20.337	4.	0.1	-1.8561e-002
5943	20.154	4.	0.1	-1.7462e-002
5944	19.971	4.	0.1	-1.6471e-002
5945	19.788	4.	0.1	-1.5564e-002
5946	19.605	4.	0.1	-1.4734e-002
5947	19.421	4.	0.1	-1.3972e-002
5948	19.238	4.	0.1	-1.3278e-002
5949	19.055	4.	0.1	-1.2624e-002
5950	18.872	4.	0.1	-1.2011e-002
5951	18.689	4.	0.1	-1.1438e-002
5952	18.506	4.	0.1	-1.0897e-002
5953	18.323	4.	0.1	-1.0388e-002
5954	18.139	4.	0.1	-9.8943e-003
5955	17.956	4.	0.1	-9.3995e-003
5956	17.773	4.	0.1	-8.9224e-003
5957	17.59	4.	0.1	-8.4425e-003
5958	17.407	4.	0.1	-7.9321e-003
5959	17.224	4.	0.1	-7.3666e-003
5960	17.041	4.	0.1	-6.6974e-003
5961	16.857	4.	0.1	-5.7791e-003
5962	16.674	4.	0.1	-4.1776e-003
5963	16.491	4.	0.1	3.8038e-004
5964	16.308	4.	0.1	0.2987
5965	16.125	4.	0.1	2.3612
5966	15.942	4.	0.1	4.5602
5967	15.759	4.	0.1	6.8727
5968	15.575	4.	0.1	9.3117
5969	15.392	4.	0.1	11.892
5970	15.209	4.	0.1	14.628
5971	15.026	4.	0.1	17.537
5972	14.843	4.	0.1	20.637
5973	14.66	4.	0.1	23.946
5974	14.477	4.	0.1	27.482
5975	14.293	4.	0.1	31.267
5976	14.11	4.	0.1	35.321
5977	13.927	4.	0.1	39.667
5978	13.744	4.	0.1	44.329
5979	13.561	4.	0.1	49.33
5980	13.378	4.	0.1	54.695
5981	13.195	4.	0.1	60.449
5982	13.011	4.	0.1	66.618
5983	12.828	4.	0.1	73.226
5984	12.645	4.	0.1	80.296
5985	12.462	4.	0.1	87.85
5986	12.279	4.	0.1	95.906
5987	12.096	4.	0.1	104.48
5988	11.913	4.	0.1	113.57
5989	11.73	4.	0.1	123.18
5990	11.546	4.	0.1	133.28
5991	11.363	4.	0.1	143.84
5992	11.18	4.	0.1	154.79
5993	10.997	4.	0.1	166.02
5994	10.814	4.	0.1	177.38
5995	10.631	4.	0.1	188.6
5996	10.448	4.	0.1	199.32
5997	10.264	4.	0.1	209.01
5998	10.081	4.	0.1	216.85
5999	9.8981	4.	0.1	221.6
6000	9.7149	4.	0.1	221.4
6001	9.5318	4.	0.1	213.37
6002	9.3487	4.	0.1	193.11
6003	9.1655	4.	0.1	153.65
6004	8.9824	4.	0.1	85.45
6005	8.7992	4.	0.1	8.8168
6006	8.6161	4.	0.1	16.403
6007	8.433	4.	0.1	-76.353
6008	8.2498	4.	0.1	551.77
6009	23.817	4.1818	0.1	-0.18449
6010	23.634	4.1818	0.1	-0.31606
6011	23.451	4.1818	0.1	-0.13462
6012	23.267	4.1818	0.1	-0.11774
6013	23.084	4.1818	0.1	-8.6973e-002
6014	22.901	4.1818	0.1	-7.227e-002
6015	22.718	4.1818	0.1	-6.0351e-002
6016	22.535	4.1818	0.1	-5.1859e-002
6017	22.352	4.1818	0.1	-4.5193e-002
6018	22.169	4.1818	0.1	-3.9917e-002
6019	21.985	4.1818	0.1	-3.5614e-002
6020	21.802	4.1818	0.1	-3.2057e-002
6021	21.619	4.1818	0.1	-2.9072e-002
6022	21.436	4.1818	0.1	-2.6526e-002
6023	21.253	4.1818	0.1	-2.434e-002
6024	21.07	4.1818	0.1	-2.2443e-002
6025	20.887	4.1818	0.1	-2.0781e-002
6026	20.703	4.1818	0.1	-1.9313e-002
6027	20.52	4.1818	0.1	-1.802e-002
6028	20.337	4.1818	0.1	-1.6855e-002
6029	20.154	4.1818	0.1	-1.5808e-002
6030	19.971	4.1818	0.1	-1.4865e-002
6031	19.788	4.1818	0.1	-1.4007e-002
6032	19.605	4.1818	0.1	-1.3219e-002
6033	19.421	4.1818	0.1	-1.2499e-002
6034	19.238	4.1818	0.1	-1.1843e-002
6035	19.055	4.1818	0.1	-1.1225e-002
6036	18.872	4.1818	0.1	-1.0644e-002
6037	18.689	4.1818	0.1	-1.0106e-002
6038	18.506	4.1818	0.1	-9.5924e-003
6039	18.323	4.1818	0.1	-9.1073e-003
6040	18.139	4.1818	0.1	-8.6374e-003
6041	17.956	4.1818	0.1	-8.1611e-003
6042	17.773	4.1818	0.1	-7.6992e-003
6043	17.59	4.1818	0.1	-7.228e-003
6044	17.407	4.1818	0.1	-6.721e-003
6045	17.224	4.1818	0.1	-6.1539e-003
6046	17.041	4.1818	0.1	-5.4771e-003
6047	16.857	4.1818	0.1	-4.5592e-003
6048	16.674	4.1818	0.1	-3.0541e-003
6049	16.491	4.1818	0.1	3.2547e-004
6050	16.308	4.1818	0.1	2.26e-002
6051	16.125	4.1818	0.1	1.3813
6052	15.942	4.1818	0.1	3.453
6053	15.759	4.1818	0.1	5.6332
6054	15.575	4.1818	0.1	7.9295
6055	15.392	4.1818	0.1	10.354
6056	15.209	4.1818	0.1	12.921
6057	15.026	4.1818	0.1	15.643
6058	14.843	4.1818	0.1	18.536
6059	14.66	4.1818	0.1	21.614
6060	14.477	4.1818	0.1	24.894
6061	14.293	4.1818	0.1	28.39
6062	14.11	4.1818	0.1	32.12
6063	13.927	4.1818	0.1	36.1
6064	13.744	4.1818	0.1	40.346
6065	13.561	4.1818	0.1	44.876
6066	13.378	4.1818	0.1	49.703
6067	13.195	4.1818	0.1	54.843
6068	13.011	4.1818	0.1	60.31
6069	12.828	4.1818	0.1	66.113
6070	12.645	4.1818	0.1	72.261
6071	12.462	4.1818	0.1	78.758
6072	12.279	4.1818	0.1	85.602
6073	12.096	4.1818	0.1	92.786
6074	11.913	4.1818	0.1	100.29
6075	11.73	4.1818	0.1	108.09
6076	11.546	4.1818	0.1	116.14
6077	11.363	4.1818	0.1	124.38
6078	11.18	4.1818	0.1	132.72
6079	10.997	4.1818	0.1	141.04
6080	10.814	4.1818	0.1	149.15
6081	10.631	4.1818	0.1	156.81
6082	10.448	4.1818	0.1	163.66
6083	10.264	4.1818	0.1	169.15
6084	10.081	4.1818	0.1	172.45
6085	9.8981	4.1818	0.1	172.3
6086	9.7149	4.1818	0.1	166.66
6087	9.5318	4.1818	0.1	152.31
6088	9.3487	4.1818	0.1	124.09
6089	9.1655	4.1818	0.1	74.5
6090	8.9824	4.1818	0.1	16.414
6091	8.7992	4.1818	0.1	5.4084
6092	8.6161	4.1818	0.1	8.1911
6093	8.433	4.1818	0.1	-8.2902
6094	8.2498	4.1818	0.1	149.15
6095	23.817	4.3636	0.1	-0.17199
6096	23.634	4.3636	0.1	-0.30953
6097	23.451	4.3636	0.1	-0.12994
6098	23.267	4.3636	0.1	-0.1136
6099	23.084	4.3636	0.1	-8.3231e-002
6100	22.901	4.3636	0.1	-6.8767e-002
6101	22.718	4.3636	0.1	-5.7018e-002
6102	22.535	4.3636	0.1	-4.8657e-002
6103	22.352	4.3636	0.1	-4.2103e-002
6104	22.169	4.3636	0.1	-3.6928e-002
6105	21.985	4.3636	0.1	-3.272e-002
6106	21.802	4.3636	0.1	-2.926e-002
6107	21.619	4.3636	0.1	-2.6364e-002
6108	21.436	4.3636	0.1	-2.3914e-002
6109	21.253	4.3636	0.1	-2.1816e-002
6110	21.07	4.3636	0.1	-2.0008e-002
6111	20.887	4.3636	0.1	-1.8429e-002
6112	20.703	4.3636	0.1	-1.7045e-002
6113	20.52	4.3636	0.1	-1.5829e-002
6114	20.337	4.3636	0.1	-1.4741e-002
6115	20.154	4.3636	0.1	-1.3764e-002
6116	19.971	4.3636	0.1	-1.2887e-002
6117	19.788	4.3636	0.1	-1.2095e-002
6118	19.605	4.3636	0.1	-1.1368e-002
6119	19.421	4.3636	0.1	-1.0704e-002
6120	19.238	4.3636	0.1	-1.0103e-002
6121	19.055	4.3636	0.1	-9.5361e-003
6122	18.872	4.3636	0.1	-9.0045e-003
6123	18.689	4.3636	0.1	-8.5097e-003
6124	18.506	4.3636	0.1	-8.0388e-003
6125	18.323	4.3636	0.1	-7.5936e-003
6126	18.139	4.3636	0.1	-7.1601e-003
6127	17.956	4.3636	0.1	-6.7175e-003
6128	17.773	4.3636	0.1	-6.2874e-003
6129	17.59	4.3636	0.1	-5.846e-003
6130	17.407	4.3636	0.1	-5.367e-003
6131	17.224	4.3636	0.1	-4.8297e-003
6132	17.041	4.3636	0.1	-4.1887e-003
6133	16.857	4.3636	0.1	-3.3382e-003
6134	16.674	4.3636	0.1	-2.0307e-003
6135	16.491	4.3636	0.1	4.2267e-004
6136	16.308	4.3636	0.1	8.0232e-003
6137	16.125	4.3636	0.1	0.30921
6138	15.942	4.3636	0.1	2.1886
6139	15.759	4.3636	0.1	4.2187
6140	15.575	4.3636	0.1	6.3552
6141	15.392	4.3636	0.1	8.607
6142	15.209	4.3636	0.1	10.985
6143	15.026	4.3636	0.1	13.5
6144	14.843	4.3636	0.1	16.165
6145	14.66	4.3636	0.1	18.991
6146	14.477	4.3636	0.1	21.989
6147	14.293	4.3636	0.1	25.173
6148	14.11	4.3636	0.1	28.552
6149	13.927	4.3636	0.1	32.137
6150	13.744	4.3636	0.1	35.938
6151	13.561	4.3636	0.1	39.964
6152	13.378	4.3636	0.1	44.221
6153	13.195	4.3636	0.1	48.712
6154	13.011	4.3636	0.1	53.44
6155	12.828	4.3636	0.1	58.401
6156	12.645	4.3636	0.1	63.588
6157	12.462	4.3636	0.1	68.986
6158	12.279	4.3636	0.1	74.576
6159	12.096	4.3636	0.1	80.328
6160	11.913	4.3636	0.1	86.203
6161	11.73	4.3636	0.1	92.149
6162	11.546	4.3636	0.1	98.097
6163	11.363	4.3636	0.1	103.96
6164	11.18	4.3636	0.1	109.63
6165	10.997	4.3636	0.1	114.97
6166	10.814	4.3636	0.1	119.77
6167	10.631	4.3636	0.1	123.79
6168	10.448	4.3636	0.1	126.65
6169	10.264	4.3636	0.1	127.82
6170	10.081	4.3636	0.1	126.46
6171	9.8981	4.3636	0.1	121.25
6172	9.7149	4.3636	0.1	110.09
6173	9.5318	4.3636	0.1	89.611
6174	9.3487	4.3636	0.1	55.238
6175	9.1655	4.3636	0.1	15.274
6176	8.9824	4.3636	0.1	6.0984
6177	8.7992	4.3636	0.1	3.2071
6178	8.6161	4.3636	0.1	11.25
6179	8.433	4.3636	0.1	-0.76275
6180	8.2498	4.3636	0.1	-9.8023
6181	23.817	4.5455	0.1	-0.15633
6182	23.634	4.5455	0.1	-0.30105
6183	23.451	4.5455	0.1	-0.1238
6184	23.267	4.5455	0.1	-0.10814
6185	23.084	4.5455	0.1	-7.8275e-002
6186	22.901	4.5455	0.1	-6.4119e-002
6187	22.718	4.5455	0.1	-5.2605e-002
6188	22.535	4.5455	0.1	-4.4434e-002
6189	22.352	4.5455	0.1	-3.8045e-002
6190	22.169	4.5455	0.1	-3.3028e-002
6191	21.985	4.5455	0.1	-2.8976e-002
6192	21.802	4.5455	0.1	-2.5662e-002
6193	21.619	4.5455	0.1	-2.2913e-002
6194	21.436	4.5455	0.1	-2.0599e-002
6195	21.253	4.5455	0.1	-1.8639e-002
6196	21.07	4.5455	0.1	-1.6959e-002
6197	20.887	4.5455	0.1	-1.55e-002
6198	20.703	4.5455	0.1	-1.4235e-002
6199	20.52	4.5455	0.1	-1.313e-002
6200	20.337	4.5455	0.1	-1.2146e-002
6201	20.154	4.5455	0.1	-1.1266e-002
6202	19.971	4.5455	0.1	-1.0488e-002
6203	19.788	4.5455	0.1	-9.7794e-003
6204	19.605	4.5455	0.1	-9.1363e-003
6205	19.421	4.5455	0.1	-8.5523e-003
6206	19.238	4.5455	0.1	-8.026e-003
6207	19.055	4.5455	0.1	-7.5293e-003
6208	18.872	4.5455	0.1	-7.0659e-003
6209	18.689	4.5455	0.1	-6.6365e-003
6210	18.506	4.5455	0.1	-6.2268e-003
6211	18.323	4.5455	0.1	-5.8398e-003
6212	18.139	4.5455	0.1	-5.4626e-003
6213	17.956	4.5455	0.1	-5.0752e-003
6214	17.773	4.5455	0.1	-4.6991e-003
6215	17.59	4.5455	0.1	-4.313e-003
6216	17.407	4.5455	0.1	-3.891e-003
6217	17.224	4.5455	0.1	-3.417e-003
6218	17.041	4.5455	0.1	-2.8628e-003
6219	16.857	4.5455	0.1	-2.1419e-003
6220	16.674	4.5455	0.1	-1.097e-003
6221	16.491	4.5455	0.1	6.1738e-004
6222	16.308	4.5455	0.1	4.3296e-003
6223	16.125	4.5455	0.1	2.0076e-002
6224	15.942	4.5455	0.1	0.79171
6225	15.759	4.5455	0.1	2.6428
6226	15.575	4.5455	0.1	4.604
6227	15.392	4.5455	0.1	6.6678
6228	15.209	4.5455	0.1	8.8417
6229	15.026	4.5455	0.1	11.134
6230	14.843	4.5455	0.1	13.555
6231	14.66	4.5455	0.1	16.112
6232	14.477	4.5455	0.1	18.813
6233	14.293	4.5455	0.1	21.666
6234	14.11	4.5455	0.1	24.678
6235	13.927	4.5455	0.1	27.852
6236	13.744	4.5455	0.1	31.193
6237	13.561	4.5455	0.1	34.701
6238	13.378	4.5455	0.1	38.375
6239	13.195	4.5455	0.1	42.208
6240	13.011	4.5455	0.1	46.19
6241	12.828	4.5455	0.1	50.305
6242	12.645	4.5455	0.1	54.532
6243	12.462	4.5455	0.1	58.841
6244	12.279	4.5455	0.1	63.193
6245	12.096	4.5455	0.1	67.539
6246	11.913	4.5455	0.1	71.818
6247	11.73	4.5455	0.1	75.956
6248	11.546	4.5455	0.1	79.863
6249	11.363	4.5455	0.1	83.431
6250	11.18	4.5455	0.1	86.527
6251	10.997	4.5455	0.1	88.993
6252	10.814	4.5455	0.1	90.628
6253	10.631	4.5455	0.1	91.172
6254	10.448	4.5455	0.1	90.269
6255	10.264	4.5455	0.1	87.408
6256	10.081	4.5455	0.1	81.816
6257	9.8981	4.5455	0.1	72.298
6258	9.7149	4.5455	0.1	57.05
6259	9.5318	4.5455	0.1	34.179
6260	9.3487	4.5455	0.1	11.433
6261	9.1655	4.5455	0.1	5.0725
6262	8.9824	4.5455	0.1	3.7825
6263	8.7992	4.5455	0.1	3.6797
6264	8.6161	4.5455	0.1	4.0876
6265	8.433	4.5455	0.1	2.3267
6266	8.2498	4.5455	0.1	24.565
6267	23.817	4.7273	0.1	-0.13665
6268	23.634	4.7273	0.1	-0.28999
6269	23.451	4.7273	0.1	-0.11569
6270	23.267	4.7273	0.1	-0.10088
6271	23.084	4.7273	0.1	-7.1666e-002
6272	22.901	4.7273	0.1	-5.7921e-002
6273	22.718	4.7273	0.1	-4.6738e-002
6274	22.535	4.7273	0.1	-3.885e-002
6275	22.352	4.7273	0.1	-3.273e-002
6276	22.169	4.7273	0.1	-2.7965e-002
6277	21.985	4.7273	0.1	-2.4153e-002
6278	21.802	4.7273	0.1	-2.1071e-002
6279	21.619	4.7273	0.1	-1.8542e-002
6280	21.436	4.7273	0.1	-1.644e-002
6281	21.253	4.7273	0.1	-1.4675e-002
6282	21.07	4.7273	0.1	-1.3182e-002
6283	20.887	4.7273	0.1	-1.19e-002
6284	20.703	4.7273	0.1	-1.0796e-002
6285	20.52	4.7273	0.1	-9.8441e-003
6286	20.337	4.7273	0.1	-9.0052e-003
6287	20.154	4.7273	0.1	-8.2636e-003
6288	19.971	4.7273	0.1	-7.6093e-003
6289	19.788	4.7273	0.1	-7.0239e-003
6290	19.605	4.7273	0.1	-6.4945e-003
6291	19.421	4.7273	0.1	-6.0172e-003
6292	19.238	4.7273	0.1	-5.5916e-003
6293	19.055	4.7273	0.1	-5.1936e-003
6294	18.872	4.7273	0.1	-4.8212e-003
6295	18.689	4.7273	0.1	-4.4801e-003
6296	18.506	4.7273	0.1	-4.155e-003
6297	18.323	4.7273	0.1	-3.8521e-003
6298	18.139	4.7273	0.1	-3.5559e-003
6299	17.956	4.7273	0.1	-3.2483e-003
6300	17.773	4.7273	0.1	-2.955e-003
6301	17.59	4.7273	0.1	-2.6528e-003
6302	17.407	4.7273	0.1	-2.3225e-003
6303	17.224	4.7273	0.1	-1.9532e-003
6304	17.041	4.7273	0.1	-1.526e-003
6305	16.857	4.7273	0.1	-9.839e-004
6306	16.674	4.7273	0.1	-2.3183e-004
6307	16.491	4.7273	0.1	8.8256e-004
6308	16.308	4.7273	0.1	2.8394e-003
6309	16.125	4.7273	0.1	7.3973e-003
6310	15.942	4.7273	0.1	2.995e-002
6311	15.759	4.7273	0.1	0.93127
6312	15.575	4.7273	0.1	2.6927
6313	15.392	4.7273	0.1	4.5554
6314	15.209	4.7273	0.1	6.5135
6315	15.026	4.7273	0.1	8.5721
6316	14.843	4.7273	0.1	10.737
6317	14.66	4.7273	0.1	13.015
6318	14.477	4.7273	0.1	15.409
6319	14.293	4.7273	0.1	17.923
6320	14.11	4.7273	0.1	20.56
6321	13.927	4.7273	0.1	23.319
6322	13.744	4.7273	0.1	26.198
6323	13.561	4.7273	0.1	29.191
6324	13.378	4.7273	0.1	32.289
6325	13.195	4.7273	0.1	35.476
6326	13.011	4.7273	0.1	38.734
6327	12.828	4.7273	0.1	42.036
6328	12.645	4.7273	0.1	45.346
6329	12.462	4.7273	0.1	48.622
6330	12.279	4.7273	0.1	51.808
6331	12.096	4.7273	0.1	54.84
6332	11.913	4.7273	0.1	57.639
6333	11.73	4.7273	0.1	60.111
6334	11.546	4.7273	0.1	62.147
6335	11.363	4.7273	0.1	63.62
6336	11.18	4.7273	0.1	64.385
6337	10.997	4.7273	0.1	64.272
6338	10.814	4.7273	0.1	63.081
6339	10.631	4.7273	0.1	60.567
6340	10.448	4.7273	0.1	56.422
6341	10.264	4.7273	0.1	50.235
6342	10.081	4.7273	0.1	41.459
6343	9.8981	4.7273	0.1	29.516
6344	9.7149	4.7273	0.1	15.306
6345	9.5318	4.7273	0.1	6.4097
6346	9.3487	4.7273	0.1	3.8737
6347	9.1655	4.7273	0.1	3.0611
6348	8.9824	4.7273	0.1	2.8355
6349	8.7992	4.7273	0.1	2.9004
6350	8.6161	4.7273	0.1	3.6042
6351	8.433	4.7273	0.1	1.2209
6352	8.2498	4.7273	0.1	7.8588
6353	23.817	4.9091	0.1	-0.11099
6354	23.634	4.9091	0.1	-0.27484
6355	23.451	4.9091	0.1	-0.10438
6356	23.267	4.9091	0.1	-9.0742e-002
6357	23.084	4.9091	0.1	-6.2422e-002
6358	22.901	4.9091	0.1	-4.9297e-002
6359	22.718	4.9091	0.1	-3.8646e-002
6360	22.535	4.9091	0.1	-3.1241e-002
6361	22.352	4.9091	0.1	-2.5567e-002
6362	22.169	4.9091	0.1	-2.1222e-002
6363	21.985	4.9091	0.1	-1.7804e-002
6364	21.802	4.9091	0.1	-1.5092e-002
6365	21.619	4.9091	0.1	-1.2904e-002
6366	21.436	4.9091	0.1	-1.1121e-002
6367	21.253	4.9091	0.1	-9.6518e-003
6368	21.07	4.9091	0.1	-8.432e-003
6369	20.887	4.9091	0.1	-7.4046e-003
6370	20.703	4.9091	0.1	-6.5365e-003
6371	20.52	4.9091	0.1	-5.8053e-003
6372	20.337	4.9091	0.1	-5.1703e-003
6373	20.154	4.9091	0.1	-4.6179e-003
6374	19.971	4.9091	0.1	-4.1411e-003
6375	19.788	4.9091	0.1	-3.7231e-003
6376	19.605	4.9091	0.1	-3.35e-003
6377	19.421	4.9091	0.1	-3.0195e-003
6378	19.238	4.9091	0.1	-2.7357e-003
6379	19.055	4.9091	0.1	-2.4687e-003
6380	18.872	4.9091	0.1	-2.2245e-003
6381	18.689	4.9091	0.1	-2.0041e-003
6382	18.506	4.9091	0.1	-1.7977e-003
6383	18.323	4.9091	0.1	-1.6108e-003
6384	18.139	4.9091	0.1	-1.428e-003
6385	17.956	4.9091	0.1	-1.2357e-003
6386	17.773	4.9091	0.1	-1.0553e-003
6387	17.59	4.9091	0.1	-8.7476e-004
6388	17.407	4.9091	0.1	-6.7096e-004
6389	17.224	4.9091	0.1	-4.4704e-004
6390	17.041	4.9091	0.1	-1.8811e-004
6391	16.857	4.9091	0.1	1.391e-004
6392	16.674	4.9091	0.1	5.8993e-004
6393	16.491	4.9091	0.1	1.2078e-003
6394	16.308	4.9091	0.1	2.1721e-003
6395	16.125	4.9091	0.1	3.915e-003
6396	15.942	4.9091	0.1	7.8717e-003
6397	15.759	4.9091	0.1	2.4446e-002
6398	15.575	4.9091	0.1	0.65988
6399	15.392	4.9091	0.1	2.2905
6400	15.209	4.9091	0.1	4.0222
6401	15.026	4.9091	0.1	5.8387
6402	14.843	4.9091	0.1	7.7419
6403	14.66	4.9091	0.1	9.7344
6404	14.477	4.9091	0.1	11.818
6405	14.293	4.9091	0.1	13.993
6406	14.11	4.9091	0.1	16.257
6407	13.927	4.9091	0.1	18.607
6408	13.744	4.9091	0.1	21.035
6409	13.561	4.9091	0.1	23.531
6410	13.378	4.9091	0.1	26.078
6411	13.195	4.9091	0.1	28.657
6412	13.011	4.9091	0.1	31.238
6413	12.828	4.9091	0.1	33.788
6414	12.645	4.9091	0.1	36.262
6415	12.462	4.9091	0.1	38.605
6416	12.279	4.9091	0.1	40.753
6417	12.096	4.9091	0.1	42.626
6418	11.913	4.9091	0.1	44.133
6419	11.73	4.9091	0.1	45.166
6420	11.546	4.9091	0.1	45.603
6421	11.363	4.9091	0.1	45.307
6422	11.18	4.9091	0.1	44.122
6423	10.997	4.9091	0.1	41.88
6424	10.814	4.9091	0.1	38.397
6425	10.631	4.9091	0.1	33.478
6426	10.448	4.9091	0.1	26.941
6427	10.264	4.9091	0.1	18.754
6428	10.081	4.9091	0.1	9.9255
6429	9.8981	4.9091	0.1	4.5655
6430	9.7149	4.9091	0.1	2.9321
6431	9.5318	4.9091	0.1	2.4019
6432	9.3487	4.9091	0.1	2.2222
6433	9.1655	4.9091	0.1	2.2005
6434	8.9824	4.9091	0.1	2.3267
6435	8.7992	4.9091	0.1	2.3677
6436	8.6161	4.9091	0.1	3.1309
6437	8.433	4.9091	0.1	0.83314
6438	8.2498	4.9091	0.1	9.1415
6439	23.817	5.0909	0.1	-7.8176e-002
6440	23.634	5.0909	0.1	-0.25465
6441	23.451	5.0909	0.1	-8.9163e-002
6442	23.267	5.0909	0.1	-7.6986e-002
6443	23.084	5.0909	0.1	-4.9966e-002
6444	22.901	5.0909	0.1	-3.7787e-002
6445	22.718	5.0909	0.1	-2.7993e-002
6446	22.535	5.0909	0.1	-2.136e-002
6447	22.352	5.0909	0.1	-1.6402e-002
6448	22.169	5.0909	0.1	-1.2715e-002
6449	21.985	5.0909	0.1	-9.8984e-003
6450	21.802	5.0909	0.1	-7.7307e-003
6451	21.619	5.0909	0.1	-6.0422e-003
6452	21.436	5.0909	0.1	-4.7123e-003
6453	21.253	5.0909	0.1	-3.6562e-003
6454	21.07	5.0909	0.1	-2.812e-003
6455	20.887	5.0909	0.1	-2.1283e-003
6456	20.703	5.0909	0.1	-1.5753e-003
6457	20.52	5.0909	0.1	-1.1335e-003
6458	20.337	5.0909	0.1	-7.6621e-004
6459	20.154	5.0909	0.1	-4.6124e-004
6460	19.971	5.0909	0.1	-2.1445e-004
6461	19.788	5.0909	0.1	-1.0065e-005
6462	19.605	5.0909	0.1	1.6371e-004
6463	19.421	5.0909	0.1	3.0508e-004
6464	19.238	5.0909	0.1	4.1227e-004
6465	19.055	5.0909	0.1	5.1131e-004
6466	18.872	5.0909	0.1	5.9586e-004
6467	18.689	5.0909	0.1	6.6379e-004
6468	18.506	5.0909	0.1	7.2161e-004
6469	18.323	5.0909	0.1	7.6525e-004
6470	18.139	5.0909	0.1	8.0567e-004
6471	17.956	5.0909	0.1	8.5674e-004
6472	17.773	5.0909	0.1	8.9274e-004
6473	17.59	5.0909	0.1	9.2607e-004
6474	17.407	5.0909	0.1	9.7182e-004
6475	17.224	5.0909	0.1	1.0282e-003
6476	17.041	5.0909	0.1	1.0934e-003
6477	16.857	5.0909	0.1	1.1913e-003
6478	16.674	5.0909	0.1	1.3509e-003
6479	16.491	5.0909	0.1	1.5671e-003
6480	16.308	5.0909	0.1	1.9022e-003
6481	16.125	5.0909	0.1	2.4703e-003
6482	15.942	5.0909	0.1	3.498e-003
6483	15.759	5.0909	0.1	5.6655e-003
6484	15.575	5.0909	0.1	1.215e-002
6485	15.392	5.0909	0.1	9.7837e-002
6486	15.209	5.0909	0.1	1.3943
6487	15.026	5.0909	0.1	2.9595
6488	14.843	5.0909	0.1	4.5973
6489	14.66	5.0909	0.1	6.3044
6490	14.477	5.0909	0.1	8.0795
6491	14.293	5.0909	0.1	9.9204
6492	14.11	5.0909	0.1	11.822
6493	13.927	5.0909	0.1	13.779
6494	13.744	5.0909	0.1	15.779
6495	13.561	5.0909	0.1	17.808
6496	13.378	5.0909	0.1	19.847
6497	13.195	5.0909	0.1	21.87
6498	13.011	5.0909	0.1	23.846
6499	12.828	5.0909	0.1	25.733
6500	12.645	5.0909	0.1	27.483
6501	12.462	5.0909	0.1	29.033
6502	12.279	5.0909	0.1	30.314
6503	12.096	5.0909	0.1	31.238
6504	11.913	5.0909	0.1	31.706
6505	11.73	5.0909	0.1	31.605
6506	11.546	5.0909	0.1	30.807
6507	11.363	5.0909	0.1	29.169
6508	11.18	5.0909	0.1	26.54
6509	10.997	5.0909	0.1	22.77
6510	10.814	5.0909	0.1	17.732
6511	10.631	5.0909	0.1	11.461
6512	10.448	5.0909	0.1	5.0698
6513	10.264	5.0909	0.1	2.1338
6514	10.081	5.0909	0.1	1.4513
6515	9.8981	5.0909	0.1	1.2712
6516	9.7149	5.0909	0.1	1.2595
6517	9.5318	5.0909	0.1	1.3377
6518	9.3487	5.0909	0.1	1.4843
6519	9.1655	5.0909	0.1	1.6813
6520	8.9824	5.0909	0.1	1.9565
6521	8.7992	5.0909	0.1	2.148
6522	8.6161	5.0909	0.1	2.7281
6523	8.433	5.0909	0.1	1.1379
6524	8.2498	5.0909	0.1	7.2605
6525	23.817	5.2727	0.1	-2.5784e-002
6526	23.634	5.2727	0.1	-0.21993
6527	23.451	5.2727	0.1	-6.2656e-002
6528	23.267	5.2727	0.1	-5.3389e-002
6529	23.084	5.2727	0.1	-2.8886e-002
6530	22.901	5.2727	0.1	-1.8761e-002
6531	22.718	5.2727	0.1	-1.0757e-002
6532	22.535	5.2727	0.1	-5.7016e-003
6533	22.352	5.2727	0.1	-2.1376e-003
6534	22.169	5.2727	0.1	3.1919e-004
6535	21.985	5.2727	0.1	2.0458e-003
6536	21.802	5.2727	0.1	3.2417e-003
6537	21.619	5.2727	0.1	4.069e-003
6538	21.436	5.2727	0.1	4.6288e-003
6539	21.253	5.2727	0.1	4.9941e-003
6540	21.07	5.2727	0.1	5.2157e-003
6541	20.887	5.2727	0.1	5.3354e-003
6542	20.703	5.2727	0.1	5.3774e-003
6543	20.52	5.2727	0.1	5.3532e-003
6544	20.337	5.2727	0.1	5.2945e-003
6545	20.154	5.2727	0.1	5.2073e-003
6546	19.971	5.2727	0.1	5.093e-003
6547	19.788	5.2727	0.1	4.9624e-003
6548	19.605	5.2727	0.1	4.8253e-003
6549	19.421	5.2727	0.1	4.6764e-003
6550	19.238	5.2727	0.1	4.5127e-003
6551	19.055	5.2727	0.1	4.3532e-003
6552	18.872	5.2727	0.1	4.1951e-003
6553	18.689	5.2727	0.1	4.028e-003
6554	18.506	5.2727	0.1	3.8626e-003
6555	18.323	5.2727	0.1	3.6908e-003
6556	18.139	5.2727	0.1	3.5182e-003
6557	17.956	5.2727	0.1	3.3602e-003
6558	17.773	5.2727	0.1	3.187e-003
6559	17.59	5.2727	0.1	3.0102e-003
6560	17.407	5.2727	0.1	2.8376e-003
6561	17.224	5.2727	0.1	2.6658e-003
6562	17.041	5.2727	0.1	2.4884e-003
6563	16.857	5.2727	0.1	2.3175e-003
6564	16.674	5.2727	0.1	2.1704e-003
6565	16.491	5.2727	0.1	2.0198e-003
6566	16.308	5.2727	0.1	1.8863e-003
6567	16.125	5.2727	0.1	1.8011e-003
6568	15.942	5.2727	0.1	1.787e-003
6569	15.759	5.2727	0.1	1.9146e-003
6570	15.575	5.2727	0.1	2.3556e-003
6571	15.392	5.2727	0.1	3.5852e-003
6572	15.209	5.2727	0.1	7.9307e-003
6573	15.026	5.2727	0.1	9.2231e-002
6574	14.843	5.2727	0.1	1.3322
6575	14.66	5.2727	0.1	2.7542
6576	14.477	5.2727	0.1	4.2273
6577	14.293	5.2727	0.1	5.7452
6578	14.11	5.2727	0.1	7.3013
6579	13.927	5.2727	0.1	8.8868
6580	13.744	5.2727	0.1	10.49
6581	13.561	5.2727	0.1	12.094
6582	13.378	5.2727	0.1	13.678
6583	13.195	5.2727	0.1	15.216
6584	13.011	5.2727	0.1	16.673
6585	12.828	5.2727	0.1	18.009
6586	12.645	5.2727	0.1	19.172
6587	12.462	5.2727	0.1	20.1
6588	12.279	5.2727	0.1	20.722
6589	12.096	5.2727	0.1	20.95
6590	11.913	5.2727	0.1	20.687
6591	11.73	5.2727	0.1	19.82
6592	11.546	5.2727	0.1	18.223
6593	11.363	5.2727	0.1	15.763
6594	11.18	5.2727	0.1	12.314
6595	10.997	5.2727	0.1	7.8248
6596	10.814	5.2727	0.1	2.9613
6597	10.631	5.2727	0.1	0.96737
6598	10.448	5.2727	0.1	0.6239
6599	10.264	5.2727	0.1	0.54268
6600	10.081	5.2727	0.1	0.54417
6601	9.8981	5.2727	0.1	0.59374
6602	9.7149	5.2727	0.1	0.68567
6603	9.5318	5.2727	0.1	0.82405
6604	9.3487	5.2727	0.1	1.0214
6605	9.1655	5.2727	0.1	1.2859
6606	8.9824	5.2727	0.1	1.6575
6607	8.7992	5.2727	0.1	2.0228
6608	8.6161	5.2727	0.1	2.7954
6609	8.433	5.2727	0.1	1.5805
6610	8.2498	5.2727	0.1	7.261
6611	23.817	5.4545	0.1	2.8964e-002
6612	23.634	5.4545	0.1	-0.18281
6613	23.451	5.4545	0.1	-3.2375e-002
6614	23.267	5.4545	0.1	-2.8589e-002
6615	23.084	5.4545	0.1	-7.6962e-003
6616	22.901	5.4545	0.1	-4.0761e-004
6617	22.718	5.4545	0.1	5.1324e-003
6618	22.535	5.4545	0.1	8.1478e-003
6619	22.352	5.4545	0.1	9.9947e-003
6620	22.169	5.4545	0.1	1.1006e-002
6621	21.985	5.4545	0.1	1.1512e-002
6622	21.802	5.4545	0.1	1.1676e-002
6623	21.619	5.4545	0.1	1.1615e-002
6624	21.436	5.4545	0.1	1.1416e-002
6625	21.253	5.4545	0.1	1.1123e-002
6626	21.07	5.4545	0.1	1.077e-002
6627	20.887	5.4545	0.1	1.0389e-002
6628	20.703	5.4545	0.1	9.9902e-003
6629	20.52	5.4545	0.1	9.5748e-003
6630	20.337	5.4545	0.1	9.172e-003
6631	20.154	5.4545	0.1	8.7733e-003
6632	19.971	5.4545	0.1	8.3832e-003
6633	19.788	5.4545	0.1	8.0042e-003
6634	19.605	5.4545	0.1	7.6403e-003
6635	19.421	5.4545	0.1	7.285e-003
6636	19.238	5.4545	0.1	6.9312e-003
6637	19.055	5.4545	0.1	6.5991e-003
6638	18.872	5.4545	0.1	6.2783e-003
6639	18.689	5.4545	0.1	5.9617e-003
6640	18.506	5.4545	0.1	5.6557e-003
6641	18.323	5.4545	0.1	5.3484e-003
6642	18.139	5.4545	0.1	5.0477e-003
6643	17.956	5.4545	0.1	4.7657e-003
6644	17.773	5.4545	0.1	4.4696e-003
6645	17.59	5.4545	0.1	4.1691e-003
6646	17.407	5.4545	0.1	3.8736e-003
6647	17.224	5.4545	0.1	3.5743e-003
6648	17.041	5.4545	0.1	3.2603e-003
6649	16.857	5.4545	0.1	2.9449e-003
6650	16.674	5.4545	0.1	2.6367e-003
6651	16.491	5.4545	0.1	2.2988e-003
6652	16.308	5.4545	0.1	1.9448e-003
6653	16.125	5.4545	0.1	1.5849e-003
6654	15.942	5.4545	0.1	1.206e-003
6655	15.759	5.4545	0.1	8.1043e-004
6656	15.575	5.4545	0.1	4.091e-004
6657	15.392	5.4545	0.1	-6.1977e-006
6658	15.209	5.4545	0.1	-4.3667e-004
6659	15.026	5.4545	0.1	-7.9656e-004
6660	14.843	5.4545	0.1	-9.452e-004
6661	14.66	5.4545	0.1	1.0606e-004
6662	14.477	5.4545	0.1	0.29173
6663	14.293	5.4545	0.1	1.4954
6664	14.11	5.4545	0.1	2.7263
6665	13.927	5.4545	0.1	3.9694
6666	13.744	5.4545	0.1	5.2126
6667	13.561	5.4545	0.1	6.4402
6668	13.378	5.4545	0.1	7.6321
6669	13.195	5.4545	0.1	8.7634
6670	13.011	5.4545	0.1	9.8024
6671	12.828	5.4545	0.1	10.711
6672	12.645	5.4545	0.1	11.442
6673	12.462	5.4545	0.1	11.939
6674	12.279	5.4545	0.1	12.135
6675	12.096	5.4545	0.1	11.953
6676	11.913	5.4545	0.1	11.303
6677	11.73	5.4545	0.1	10.083
6678	11.546	5.4545	0.1	8.1857
6679	11.363	5.4545	0.1	5.5182
6680	11.18	5.4545	0.1	2.2193
6681	10.997	5.4545	0.1	0.4836
6682	10.814	5.4545	0.1	0.25453
6683	10.631	5.4545	0.1	0.20109
6684	10.448	5.4545	0.1	0.19065
6685	10.264	5.4545	0.1	0.20189
6686	10.081	5.4545	0.1	0.23085
6687	9.8981	5.4545	0.1	0.27945
6688	9.7149	5.4545	0.1	0.35401
6689	9.5318	5.4545	0.1	0.46553
6690	9.3487	5.4545	0.1	0.63581
6691	9.1655	5.4545	0.1	0.8949
6692	8.9824	5.4545	0.1	1.3335
6693	8.7992	5.4545	0.1	1.9426
6694	8.6161	5.4545	0.1	3.1792
6695	8.433	5.4545	0.1	2.8373
6696	8.2498	5.4545	0.1	8.179
6697	23.817	5.6364	0.1	0.28117
6698	23.634	5.6364	0.1	-4.1232e-003
6699	23.451	5.6364	0.1	9.5033e-002
6700	23.267	5.6364	0.1	8.2209e-002
6701	23.084	5.6364	0.1	8.6132e-002
6702	22.901	5.6364	0.1	8.1179e-002
6703	22.718	5.6364	0.1	7.6792e-002
6704	22.535	5.6364	0.1	7.1748e-002
6705	22.352	5.6364	0.1	6.69e-002
6706	22.169	5.6364	0.1	6.2269e-002
6707	21.985	5.6364	0.1	5.7949e-002
6708	21.802	5.6364	0.1	5.3934e-002
6709	21.619	5.6364	0.1	5.0223e-002
6710	21.436	5.6364	0.1	4.6806e-002
6711	21.253	5.6364	0.1	4.3652e-002
6712	21.07	5.6364	0.1	4.0744e-002
6713	20.887	5.6364	0.1	3.8062e-002
6714	20.703	5.6364	0.1	3.5581e-002
6715	20.52	5.6364	0.1	3.3276e-002
6716	20.337	5.6364	0.1	3.1144e-002
6717	20.154	5.6364	0.1	2.9165e-002
6718	19.971	5.6364	0.1	2.7314e-002
6719	19.788	5.6364	0.1	2.5585e-002
6720	19.605	5.6364	0.1	2.3969e-002
6721	19.421	5.6364	0.1	2.2445e-002
6722	19.238	5.6364	0.1	2.0994e-002
6723	19.055	5.6364	0.1	1.9631e-002
6724	18.872	5.6364	0.1	1.8334e-002
6725	18.689	5.6364	0.1	1.7089e-002
6726	18.506	5.6364	0.1	1.5893e-002
6727	18.323	5.6364	0.1	1.4731e-002
6728	18.139	5.6364	0.1	1.3601e-002
6729	17.956	5.6364	0.1	1.2511e-002
6730	17.773	5.6364	0.1	1.1423e-002
6731	17.59	5.6364	0.1	1.0343e-002
6732	17.407	5.6364	0.1	9.2701e-003
6733	17.224	5.6364	0.1	8.1948e-003
6734	17.041	5.6364	0.1	7.1036e-003
6735	16.857	5.6364	0.1	5.9963e-003
6736	16.674	5.6364	0.1	4.8859e-003
6737	16.491	5.6364	0.1	3.7298e-003
6738	16.308	5.6364	0.1	2.5344e-003
6739	16.125	5.6364	0.1	1.3067e-003
6740	15.942	5.6364	0.1	3.3944e-005
6741	15.759	5.6364	0.1	-1.293e-003
6742	15.575	5.6364	0.1	-2.6609e-003
6743	15.392	5.6364	0.1	-4.0878e-003
6744	15.209	5.6364	0.1	-5.5919e-003
6745	15.026	5.6364	0.1	-7.1236e-003
6746	14.843	5.6364	0.1	-8.6876e-003
6747	14.66	5.6364	0.1	-1.0272e-002
6748	14.477	5.6364	0.1	-1.1811e-002
6749	14.293	5.6364	0.1	-1.3157e-002
6750	14.11	5.6364	0.1	-1.3918e-002
6751	13.927	5.6364	0.1	-1.2208e-002
6752	13.744	5.6364	0.1	4.1398e-002
6753	13.561	5.6364	0.1	0.82648
6754	13.378	5.6364	0.1	1.6889
6755	13.195	5.6364	0.1	2.4973
6756	13.011	5.6364	0.1	3.224
6757	12.828	5.6364	0.1	3.8377
6758	12.645	5.6364	0.1	4.3013
6759	12.462	5.6364	0.1	4.57
6760	12.279	5.6364	0.1	4.5912
6761	12.096	5.6364	0.1	4.304
6762	11.913	5.6364	0.1	3.6401
6763	11.73	5.6364	0.1	2.5334
6764	11.546	5.6364	0.1	1.0261
6765	11.363	5.6364	0.1	0.20836
6766	11.18	5.6364	0.1	0.10601
6767	10.997	5.6364	0.1	8.6652e-002
6768	10.814	5.6364	0.1	8.816e-002
6769	10.631	5.6364	0.1	0.10004
6770	10.448	5.6364	0.1	0.11949
6771	10.264	5.6364	0.1	0.14581
6772	10.081	5.6364	0.1	0.17919
6773	9.8981	5.6364	0.1	0.22067
6774	9.7149	5.6364	0.1	0.27313
6775	9.5318	5.6364	0.1	0.34293
6776	9.3487	5.6364	0.1	0.44814
6777	9.1655	5.6364	0.1	0.62452
6778	8.9824	5.6364	0.1	0.99648
6779	8.7992	5.6364	0.1	1.7057
6780	8.6161	5.6364	0.1	3.6318
6781	8.433	5.6364	0.1	4.9953
6782	8.2498	5.6364	0.1	10.775
6783	23.817	5.8182	0.1	0.50415
6784	23.634	5.8182	0.1	0.11049
6785	23.451	5.8182	0.1	0.12072
6786	23.267	5.8182	0.1	8.103e-002
6787	23.084	5.8182	0.1	6.5502e-002
6788	22.901	5.8182	0.1	5.0275e-002
6789	22.718	5.8182	0.1	3.9703e-002
6790	22.535	5.8182	0.1	3.131e-002
6791	22.352	5.8182	0.1	2.4825e-002
6792	22.169	5.8182	0.1	1.9696e-002
6793	21.985	5.8182	0.1	1.5621e-002
6794	21.802	5.8182	0.1	1.2357e-002
6795	21.619	5.8182	0.1	9.7305e-003
6796	21.436	5.8182	0.1	7.6136e-003
6797	21.253	5.8182	0.1	5.9025e-003
6798	21.07	5.8182	0.1	4.5182e-003
6799	20.887	5.8182	0.1	3.4034e-003
6800	20.703	5.8182	0.1	2.5079e-003
6801	20.52	5.8182	0.1	1.7825e-003
6802	20.337	5.8182	0.1	1.2146e-003
6803	20.154	5.8182	0.1	7.6855e-004
6804	19.971	5.8182	0.1	4.2263e-004
6805	19.788	5.8182	0.1	1.6004e-004
6806	19.605	5.8182	0.1	-2.4228e-005
6807	19.421	5.8182	0.1	-1.5365e-004
6808	19.238	5.8182	0.1	-2.4149e-004
6809	19.055	5.8182	0.1	-2.778e-004
6810	18.872	5.8182	0.1	-2.7244e-004
6811	18.689	5.8182	0.1	-2.4169e-004
6812	18.506	5.8182	0.1	-1.8071e-004
6813	18.323	5.8182	0.1	-1.0053e-004
6814	18.139	5.8182	0.1	5.3617e-006
6815	17.956	5.8182	0.1	1.4513e-004
6816	17.773	5.8182	0.1	2.9284e-004
6817	17.59	5.8182	0.1	4.5539e-004
6818	17.407	5.8182	0.1	6.4585e-004
6819	17.224	5.8182	0.1	8.5637e-004
6820	17.041	5.8182	0.1	1.0823e-003
6821	16.857	5.8182	0.1	1.3388e-003
6822	16.674	5.8182	0.1	1.639e-003
6823	16.491	5.8182	0.1	1.9547e-003
6824	16.308	5.8182	0.1	2.3044e-003
6825	16.125	5.8182	0.1	2.7052e-003
6826	15.942	5.8182	0.1	3.1554e-003
6827	15.759	5.8182	0.1	3.6667e-003
6828	15.575	5.8182	0.1	4.2615e-003
6829	15.392	5.8182	0.1	4.9442e-003
6830	15.209	5.8182	0.1	5.7165e-003
6831	15.026	5.8182	0.1	6.6485e-003
6832	14.843	5.8182	0.1	7.7554e-003
6833	14.66	5.8182	0.1	9.0693e-003
6834	14.477	5.8182	0.1	1.065e-002
6835	14.293	5.8182	0.1	1.2582e-002
6836	14.11	5.8182	0.1	1.4939e-002
6837	13.927	5.8182	0.1	1.782e-002
6838	13.744	5.8182	0.1	2.142e-002
6839	13.561	5.8182	0.1	2.5897e-002
6840	13.378	5.8182	0.1	3.1434e-002
6841	13.195	5.8182	0.1	3.8238e-002
6842	13.011	5.8182	0.1	4.6373e-002
6843	12.828	5.8182	0.1	5.5651e-002
6844	12.645	5.8182	0.1	6.5255e-002
6845	12.462	5.8182	0.1	7.3301e-002
6846	12.279	5.8182	0.1	7.7064e-002
6847	12.096	5.8182	0.1	7.405e-002
6848	11.913	5.8182	0.1	6.3918e-002
6849	11.73	5.8182	0.1	4.9229e-002
6850	11.546	5.8182	0.1	3.3738e-002
6851	11.363	5.8182	0.1	2.0136e-002
6852	11.18	5.8182	0.1	9.2761e-003
6853	10.997	5.8182	0.1	8.506e-004
6854	10.814	5.8182	0.1	-6.1043e-003
6855	10.631	5.8182	0.1	-1.2943e-002
6856	10.448	5.8182	0.1	-2.1274e-002
6857	10.264	5.8182	0.1	-3.2919e-002
6858	10.081	5.8182	0.1	-4.97e-002
6859	9.8981	5.8182	0.1	-7.2697e-002
6860	9.7149	5.8182	0.1	-0.10017
6861	9.5318	5.8182	0.1	-0.12404
6862	9.3487	5.8182	0.1	-0.11861
6863	9.1655	5.8182	0.1	-3.067e-002
6864	8.9824	5.8182	0.1	0.29724
6865	8.7992	5.8182	0.1	1.0734
6866	8.6161	5.8182	0.1	3.4319
6867	8.433	5.8182	0.1	7.1966
6868	8.2498	5.8182	0.1	21.888
6869	0.18372	0.18182	0.1	0.8909
6870	0.18372	0.36364	0.1	823.5
6871	0.18372	0.54545	0.1	1259.6
6872	0.18372	0.72727	0.1	1509.3
6873	0.18372	0.90909	0.1	1666.6
6874	0.18372	1.0909	0.1	1775.
6875	0.18372	1.2727	0.1	1853.7
6876	0.18372	1.4545	0.1	1912.7
6877	0.18372	1.6364	0.1	1957.8
6878	0.18372	1.8182	0.1	1992.6
6879	0.18372	2.	0.1	2019.5
6880	0.18372	2.1818	0.1	2040.2
6881	0.18372	2.3636	0.1	2055.6
6882	0.18372	2.5455	0.1	2066.6
6883	0.18372	2.7273	0.1	2073.6
6884	0.18372	2.9091	0.1	2077.1
6885	0.18372	3.0909	0.1	2077.1
6886	0.18372	3.2727	0.1	2073.6
6887	0.18372	3.4545	0.1	2066.6
6888	0.18372	3.6364	0.1	2055.6
6889	0.18372	3.8182	0.1	2040.2
6890	0.18372	4.	0.1	2019.5
6891	0.18372	4.1818	0.1	1992.6
6892	0.18372	4.3636	0.1	1957.8
6893	0.18372	4.5455	0.1	1912.7
6894	0.18372	4.7273	0.1	1853.7
6895	0.18372	4.9091	0.1	1775.
6896	0.18372	5.0909	0.1	1666.6
6897	0.18372	5.2727	0.1	1509.3
6898	0.18372	5.4545	0.1	1259.6
6899	0.18372	5.6364	0.1	823.5
6900	0.18372	5.8182	0.1	0.89078
6901	0.36744	0.18182	0.1	82.066
6902	0.36744	0.36364	0.1	662.32
6903	0.36744	0.54545	0.1	1221.9
6904	0.36744	0.72727	0.1	1595.1
6905	0.36744	0.90909	0.1	1842.8
6906	0.36744	1.0909	0.1	2012.6
6907	0.36744	1.2727	0.1	2134.
6908	0.36744	1.4545	0.1	2223.5
6909	0.36744	1.6364	0.1	2291.
6910	0.36744	1.8182	0.1	2342.6
6911	0.36744	2.	0.1	2382.3
6912	0.36744	2.1818	0.1	2412.4
6913	0.36744	2.3636	0.1	2434.9
6914	0.36744	2.5455	0.1	2450.9
6915	0.36744	2.7273	0.1	2461.1
6916	0.36744	2.9091	0.1	2466.1
6917	0.36744	3.0909	0.1	2466.1
6918	0.36744	3.2727	0.1	2461.1
6919	0.36744	3.4545	0.1	2450.9
6920	0.36744	3.6364	0.1	2434.9
6921	0.36744	3.8182	0.1	2412.4
6922	0.36744	4.	0.1	2382.3
6923	0.36744	4.1818	0.1	2342.6
6924	0.36744	4.3636	0.1	2291.
6925	0.36744	4.5455	0.1	2223.5
6926	0.36744	4.7273	0.1	2134.
6927	0.36744	4.9091	0.1	2012.6
6928	0.36744	5.0909	0.1	1842.8
6929	0.36744	5.2727	0.1	1595.1
6930	0.36744	5.4545	0.1	1221.9
6931	0.36744	5.6364	0.1	662.32
6932	0.36744	5.8182	0.1	82.066
6933	0.55116	0.18182	0.1	0.86654
6934	0.55116	0.36364	0.1	413.91
6935	0.55116	0.54545	0.1	862.94
6936	0.55116	0.72727	0.1	1226.4
6937	0.55116	0.90909	0.1	1497.5
6938	0.55116	1.0909	0.1	1695.3
6939	0.55116	1.2727	0.1	1840.4
6940	0.55116	1.4545	0.1	1948.5
6941	0.55116	1.6364	0.1	2030.2
6942	0.55116	1.8182	0.1	2092.4
6943	0.55116	2.	0.1	2140.1
6944	0.55116	2.1818	0.1	2176.2
6945	0.55116	2.3636	0.1	2203.1
6946	0.55116	2.5455	0.1	2222.2
6947	0.55116	2.7273	0.1	2234.4
6948	0.55116	2.9091	0.1	2240.4
6949	0.55116	3.0909	0.1	2240.4
6950	0.55116	3.2727	0.1	2234.4
6951	0.55116	3.4545	0.1	2222.2
6952	0.55116	3.6364	0.1	2203.1
6953	0.55116	3.8182	0.1	2176.2
6954	0.55116	4.	0.1	2140.1
6955	0.55116	4.1818	0.1	2092.4
6956	0.55116	4.3636	0.1	2030.2
6957	0.55116	4.5455	0.1	1948.5
6958	0.55116	4.7273	0.1	1840.4
6959	0.55116	4.9091	0.1	1695.3
6960	0.55116	5.0909	0.1	1497.5
6961	0.55116	5.2727	0.1	1226.4
6962	0.55116	5.4545	0.1	862.94
6963	0.55116	5.6364	0.1	413.91
6964	0.55116	5.8182	0.1	0.86653
6965	0.73488	0.18182	0.1	18.536
6966	0.73488	0.36364	0.1	339.
6967	0.73488	0.54545	0.1	709.28
6968	0.73488	0.72727	0.1	1040.
6969	0.73488	0.90909	0.1	1311.7
6970	0.73488	1.0909	0.1	1525.
6971	0.73488	1.2727	0.1	1689.3
6972	0.73488	1.4545	0.1	1815.4
6973	0.73488	1.6364	0.1	1912.4
6974	0.73488	1.8182	0.1	1987.1
6975	0.73488	2.	0.1	2044.5
6976	0.73488	2.1818	0.1	2088.2
6977	0.73488	2.3636	0.1	2120.7
6978	0.73488	2.5455	0.1	2143.8
6979	0.73488	2.7273	0.1	2158.6
6980	0.73488	2.9091	0.1	2165.8
6981	0.73488	3.0909	0.1	2165.8
6982	0.73488	3.2727	0.1	2158.6
6983	0.73488	3.4545	0.1	2143.8
6984	0.73488	3.6364	0.1	2120.7
6985	0.73488	3.8182	0.1	2088.2
6986	0.73488	4.	0.1	2044.5
6987	0.73488	4.1818	0.1	1987.1
6988	0.73488	4.3636	0.1	1912.4
6989	0.73488	4.5455	0.1	1815.4
6990	0.73488	4.7273	0.1	1689.3
6991	0.73488	4.9091	0.1	1525.
6992	0.73488	5.0909	0.1	1311.7
6993	0.73488	5.2727	0.1	1040.
6994	0.73488	5.4545	0.1	709.28
6995	0.73488	5.6364	0.1	339.
6996	0.73488	5.8182	0.1	18.536
6997	0.9186	0.18182	0.1	14.43
6998	0.9186	0.36364	0.1	285.01
6999	0.9186	0.54545	0.1	590.5
7000	0.9186	0.72727	0.1	878.86
7001	0.9186	0.90909	0.1	1132.2
7002	0.9186	1.0909	0.1	1343.6
7003	0.9186	1.2727	0.1	1514.8
7004	0.9186	1.4545	0.1	1651.2
7005	0.9186	1.6364	0.1	1758.8
7006	0.9186	1.8182	0.1	1843.2
7007	0.9186	2.	0.1	1908.9
7008	0.9186	2.1818	0.1	1959.3
7009	0.9186	2.3636	0.1	1997.1
7010	0.9186	2.5455	0.1	2023.9
7011	0.9186	2.7273	0.1	2041.1
7012	0.9186	2.9091	0.1	2049.6
7013	0.9186	3.0909	0.1	2049.6
7014	0.9186	3.2727	0.1	2041.1
7015	0.9186	3.4545	0.1	2023.9
7016	0.9186	3.6364	0.1	1997.1
7017	0.9186	3.8182	0.1	1959.3
7018	0.9186	4.	0.1	1908.9
7019	0.9186	4.1818	0.1	1843.2
7020	0.9186	4.3636	0.1	1758.8
7021	0.9186	4.5455	0.1	1651.2
7022	0.9186	4.7273	0.1	1514.8
7023	0.9186	4.9091	0.1	1343.6
7024	0.9186	5.0909	0.1	1132.2
7025	0.9186	5.2727	0.1	878.86
7026	0.9186	5.4545	0.1	590.5
7027	0.9186	5.6364	0.1	285.01
7028	0.9186	5.8182	0.1	14.43
7029	1.1023	0.18182	0.1	17.578
7030	1.1023	0.36364	0.1	254.84
7031	1.1023	0.54545	0.1	513.99
7032	1.1023	0.72727	0.1	765.36
7033	1.1023	0.90909	0.1	995.72
7034	1.1023	1.0909	0.1	1196.9
7035	1.1023	1.2727	0.1	1366.8
7036	1.1023	1.4545	0.1	1507.
7037	1.1023	1.6364	0.1	1620.8
7038	1.1023	1.8182	0.1	1712.
7039	1.1023	2.	0.1	1784.2
7040	1.1023	2.1818	0.1	1840.2
7041	1.1023	2.3636	0.1	1882.4
7042	1.1023	2.5455	0.1	1912.7
7043	1.1023	2.7273	0.1	1932.2
7044	1.1023	2.9091	0.1	1941.8
7045	1.1023	3.0909	0.1	1941.8
7046	1.1023	3.2727	0.1	1932.2
7047	1.1023	3.4545	0.1	1912.7
7048	1.1023	3.6364	0.1	1882.4
7049	1.1023	3.8182	0.1	1840.2
7050	1.1023	4.	0.1	1784.2
7051	1.1023	4.1818	0.1	1712.
7052	1.1023	4.3636	0.1	1620.8
7053	1.1023	4.5455	0.1	1507.
7054	1.1023	4.7273	0.1	1366.8
7055	1.1023	4.9091	0.1	1196.9
7056	1.1023	5.0909	0.1	995.72
7057	1.1023	5.2727	0.1	765.36
7058	1.1023	5.4545	0.1	513.99
7059	1.1023	5.6364	0.1	254.84
7060	1.1023	5.8182	0.1	17.578
7061	1.286	0.18182	0.1	20.733
7062	1.286	0.36364	0.1	233.24
7063	1.286	0.54545	0.1	457.04
7064	1.286	0.72727	0.1	677.3
7065	1.286	0.90909	0.1	884.64
7066	1.286	1.0909	0.1	1071.7
7067	1.286	1.2727	0.1	1235.
7068	1.286	1.4545	0.1	1373.8
7069	1.286	1.6364	0.1	1489.5
7070	1.286	1.8182	0.1	1584.3
7071	1.286	2.	0.1	1660.5
7072	1.286	2.1818	0.1	1720.5
7073	1.286	2.3636	0.1	1766.3
7074	1.286	2.5455	0.1	1799.2
7075	1.286	2.7273	0.1	1820.6
7076	1.286	2.9091	0.1	1831.1
7077	1.286	3.0909	0.1	1831.1
7078	1.286	3.2727	0.1	1820.6
7079	1.286	3.4545	0.1	1799.2
7080	1.286	3.6364	0.1	1766.3
7081	1.286	3.8182	0.1	1720.5
7082	1.286	4.	0.1	1660.5
7083	1.286	4.1818	0.1	1584.3
7084	1.286	4.3636	0.1	1489.5
7085	1.286	4.5455	0.1	1373.8
7086	1.286	4.7273	0.1	1235.
7087	1.286	4.9091	0.1	1071.7
7088	1.286	5.0909	0.1	884.64
7089	1.286	5.2727	0.1	677.3
7090	1.286	5.4545	0.1	457.04
7091	1.286	5.6364	0.1	233.24
7092	1.286	5.8182	0.1	20.733
7093	1.4698	0.18182	0.1	25.467
7094	1.4698	0.36364	0.1	217.34
7095	1.4698	0.54545	0.1	413.7
7096	1.4698	0.72727	0.1	608.35
7097	1.4698	0.90909	0.1	794.71
7098	1.4698	1.0909	0.1	966.72
7099	1.4698	1.2727	0.1	1120.6
7100	1.4698	1.4545	0.1	1254.8
7101	1.4698	1.6364	0.1	1369.1
7102	1.4698	1.8182	0.1	1464.6
7103	1.4698	2.	0.1	1542.8
7104	1.4698	2.1818	0.1	1605.1
7105	1.4698	2.3636	0.1	1653.1
7106	1.4698	2.5455	0.1	1688.
7107	1.4698	2.7273	0.1	1710.7
7108	1.4698	2.9091	0.1	1721.9
7109	1.4698	3.0909	0.1	1721.9
7110	1.4698	3.2727	0.1	1710.7
7111	1.4698	3.4545	0.1	1688.
7112	1.4698	3.6364	0.1	1653.1
7113	1.4698	3.8182	0.1	1605.1
7114	1.4698	4.	0.1	1542.8
7115	1.4698	4.1818	0.1	1464.6
7116	1.4698	4.3636	0.1	1369.1
7117	1.4698	4.5455	0.1	1254.8
7118	1.4698	4.7273	0.1	1120.6
7119	1.4698	4.9091	0.1	966.72
7120	1.4698	5.0909	0.1	794.71
7121	1.4698	5.2727	0.1	608.35
7122	1.4698	5.4545	0.1	413.7
7123	1.4698	5.6364	0.1	217.34
7124	1.4698	5.8182	0.1	25.467
7125	1.6535	0.18182	0.1	30.735
7126	1.6535	0.36364	0.1	204.44
7127	1.6535	0.54545	0.1	378.77
7128	1.6535	0.72727	0.1	552.16
7129	1.6535	0.90909	0.1	719.96
7130	1.6535	1.0909	0.1	877.31
7131	1.6535	1.2727	0.1	1020.7
7132	1.6535	1.4545	0.1	1148.2
7133	1.6535	1.6364	0.1	1258.9
7134	1.6535	1.8182	0.1	1353.
7135	1.6535	2.	0.1	1431.1
7136	1.6535	2.1818	0.1	1494.3
7137	1.6535	2.3636	0.1	1543.4
7138	1.6535	2.5455	0.1	1579.3
7139	1.6535	2.7273	0.1	1602.9
7140	1.6535	2.9091	0.1	1614.5
7141	1.6535	3.0909	0.1	1614.5
7142	1.6535	3.2727	0.1	1602.9
7143	1.6535	3.4545	0.1	1579.3
7144	1.6535	3.6364	0.1	1543.4
7145	1.6535	3.8182	0.1	1494.3
7146	1.6535	4.	0.1	1431.1
7147	1.6535	4.1818	0.1	1353.
7148	1.6535	4.3636	0.1	1258.9
7149	1.6535	4.5455	0.1	1148.2
7150	1.6535	4.7273	0.1	1020.7
7151	1.6535	4.9091	0.1	877.31
7152	1.6535	5.0909	0.1	719.96
7153	1.6535	5.2727	0.1	552.16
7154	1.6535	5.4545	0.1	378.77
7155	1.6535	5.6364	0.1	204.44
7156	1.6535	5.8182	0.1	30.734
7157	1.8372	0.18182	0.1	35.834
7158	1.8372	0.36364	0.1	193.37
7159	1.8372	0.54545	0.1	349.54
7160	1.8372	0.72727	0.1	505.08
7161	1.8372	0.90909	0.1	656.62
7162	1.8372	1.0909	0.1	800.31
7163	1.8372	1.2727	0.1	933.09
7164	1.8372	1.4545	0.1	1052.9
7165	1.8372	1.6364	0.1	1158.6
7166	1.8372	1.8182	0.1	1249.7
7167	1.8372	2.	0.1	1326.3
7168	1.8372	2.1818	0.1	1388.9
7169	1.8372	2.3636	0.1	1438.1
7170	1.8372	2.5455	0.1	1474.4
7171	1.8372	2.7273	0.1	1498.2
7172	1.8372	2.9091	0.1	1510.1
7173	1.8372	3.0909	0.1	1510.1
7174	1.8372	3.2727	0.1	1498.2
7175	1.8372	3.4545	0.1	1474.4
7176	1.8372	3.6364	0.1	1438.1
7177	1.8372	3.8182	0.1	1388.9
7178	1.8372	4.	0.1	1326.3
7179	1.8372	4.1818	0.1	1249.7
7180	1.8372	4.3636	0.1	1158.6
7181	1.8372	4.5455	0.1	1052.9
7182	1.8372	4.7273	0.1	933.09
7183	1.8372	4.9091	0.1	800.31
7184	1.8372	5.0909	0.1	656.62
7185	1.8372	5.2727	0.1	505.08
7186	1.8372	5.4545	0.1	349.54
7187	1.8372	5.6364	0.1	193.37
7188	1.8372	5.8182	0.1	35.834
7189	2.0209	0.18182	0.1	40.219
7190	2.0209	0.36364	0.1	183.35
7191	2.0209	0.54545	0.1	324.22
7192	2.0209	0.72727	0.1	464.54
7193	2.0209	0.90909	0.1	601.85
7194	2.0209	1.0909	0.1	733.04
7195	2.0209	1.2727	0.1	855.53
7196	2.0209	1.4545	0.1	967.34
7197	2.0209	1.6364	0.1	1067.2
7198	2.0209	1.8182	0.1	1154.2
7199	2.0209	2.	0.1	1228.3
7200	2.0209	2.1818	0.1	1289.4
7201	2.0209	2.3636	0.1	1337.8
7202	2.0209	2.5455	0.1	1373.7
7203	2.0209	2.7273	0.1	1397.5
7204	2.0209	2.9091	0.1	1409.3
7205	2.0209	3.0909	0.1	1409.3
7206	2.0209	3.2727	0.1	1397.5
7207	2.0209	3.4545	0.1	1373.7
7208	2.0209	3.6364	0.1	1337.8
7209	2.0209	3.8182	0.1	1289.4
7210	2.0209	4.	0.1	1228.3
7211	2.0209	4.1818	0.1	1154.2
7212	2.0209	4.3636	0.1	1067.2
7213	2.0209	4.5455	0.1	967.34
7214	2.0209	4.7273	0.1	855.53
7215	2.0209	4.9091	0.1	733.04
7216	2.0209	5.0909	0.1	601.85
7217	2.0209	5.2727	0.1	464.54
7218	2.0209	5.4545	0.1	324.22
7219	2.0209	5.6364	0.1	183.35
7220	2.0209	5.8182	0.1	40.219
7221	2.2047	0.18182	0.1	43.662
7222	2.2047	0.36364	0.1	173.96
7223	2.2047	0.54545	0.1	301.67
7224	2.2047	0.72727	0.1	428.84
7225	2.2047	0.90909	0.1	553.61
7226	2.2047	1.0909	0.1	673.49
7227	2.2047	1.2727	0.1	786.27
7228	2.2047	1.4545	0.1	890.14
7229	2.2047	1.6364	0.1	983.76
7230	2.2047	1.8182	0.1	1066.2
7231	2.2047	2.	0.1	1137.
7232	2.2047	2.1818	0.1	1195.9
7233	2.2047	2.3636	0.1	1242.9
7234	2.2047	2.5455	0.1	1277.9
7235	2.2047	2.7273	0.1	1301.2
7236	2.2047	2.9091	0.1	1312.8
7237	2.2047	3.0909	0.1	1312.8
7238	2.2047	3.2727	0.1	1301.2
7239	2.2047	3.4545	0.1	1277.9
7240	2.2047	3.6364	0.1	1242.9
7241	2.2047	3.8182	0.1	1195.9
7242	2.2047	4.	0.1	1137.
7243	2.2047	4.1818	0.1	1066.2
7244	2.2047	4.3636	0.1	983.76
7245	2.2047	4.5455	0.1	890.14
7246	2.2047	4.7273	0.1	786.27
7247	2.2047	4.9091	0.1	673.49
7248	2.2047	5.0909	0.1	553.61
7249	2.2047	5.2727	0.1	428.84
7250	2.2047	5.4545	0.1	301.67
7251	2.2047	5.6364	0.1	173.96
7252	2.2047	5.8182	0.1	43.662
7253	2.3884	0.18182	0.1	46.115
7254	2.3884	0.36364	0.1	164.9
7255	2.3884	0.54545	0.1	281.11
7256	2.3884	0.72727	0.1	396.77
7257	2.3884	0.90909	0.1	510.45
7258	2.3884	1.0909	0.1	620.1
7259	2.3884	1.2727	0.1	723.85
7260	2.3884	1.4545	0.1	820.07
7261	2.3884	1.6364	0.1	907.47
7262	2.3884	1.8182	0.1	985.05
7263	2.3884	2.	0.1	1052.2
7264	2.3884	2.1818	0.1	1108.4
7265	2.3884	2.3636	0.1	1153.5
7266	2.3884	2.5455	0.1	1187.3
7267	2.3884	2.7273	0.1	1209.8
7268	2.3884	2.9091	0.1	1221.1
7269	2.3884	3.0909	0.1	1221.1
7270	2.3884	3.2727	0.1	1209.8
7271	2.3884	3.4545	0.1	1187.3
7272	2.3884	3.6364	0.1	1153.5
7273	2.3884	3.8182	0.1	1108.4
7274	2.3884	4.	0.1	1052.2
7275	2.3884	4.1818	0.1	985.05
7276	2.3884	4.3636	0.1	907.47
7277	2.3884	4.5455	0.1	820.07
7278	2.3884	4.7273	0.1	723.85
7279	2.3884	4.9091	0.1	620.1
7280	2.3884	5.0909	0.1	510.45
7281	2.3884	5.2727	0.1	396.77
7282	2.3884	5.4545	0.1	281.11
7283	2.3884	5.6364	0.1	164.9
7284	2.3884	5.8182	0.1	46.115
7285	2.5721	0.18182	0.1	47.615
7286	2.5721	0.36364	0.1	156.02
7287	2.5721	0.54545	0.1	262.04
7288	2.5721	0.72727	0.1	367.5
7289	2.5721	0.90909	0.1	471.28
7290	2.5721	1.0909	0.1	571.7
7291	2.5721	1.2727	0.1	667.13
7292	2.5721	1.4545	0.1	756.13
7293	2.5721	1.6364	0.1	837.45
7294	2.5721	1.8182	0.1	910.11
7295	2.5721	2.	0.1	973.35
7296	2.5721	2.1818	0.1	1026.6
7297	2.5721	2.3636	0.1	1069.6
7298	2.5721	2.5455	0.1	1101.9
7299	2.5721	2.7273	0.1	1123.5
7300	2.5721	2.9091	0.1	1134.4
7301	2.5721	3.0909	0.1	1134.4
7302	2.5721	3.2727	0.1	1123.5
7303	2.5721	3.4545	0.1	1101.9
7304	2.5721	3.6364	0.1	1069.6
7305	2.5721	3.8182	0.1	1026.6
7306	2.5721	4.	0.1	973.35
7307	2.5721	4.1818	0.1	910.11
7308	2.5721	4.3636	0.1	837.45
7309	2.5721	4.5455	0.1	756.13
7310	2.5721	4.7273	0.1	667.13
7311	2.5721	4.9091	0.1	571.7
7312	2.5721	5.0909	0.1	471.28
7313	2.5721	5.2727	0.1	367.5
7314	2.5721	5.4545	0.1	262.04
7315	2.5721	5.6364	0.1	156.02
7316	2.5721	5.8182	0.1	47.615
7317	2.7558	0.18182	0.1	48.235
7318	2.7558	0.36364	0.1	147.21
7319	2.7558	0.54545	0.1	244.07
7320	2.7558	0.72727	0.1	340.41
7321	2.7558	0.90909	0.1	435.32
7322	2.7558	1.0909	0.1	527.38
7323	2.7558	1.2727	0.1	615.18
7324	2.7558	1.4545	0.1	697.44
7325	2.7558	1.6364	0.1	772.99
7326	2.7558	1.8182	0.1	840.84
7327	2.7558	2.	0.1	900.2
7328	2.7558	2.1818	0.1	950.45
7329	2.7558	2.3636	0.1	991.12
7330	2.7558	2.5455	0.1	1021.9
7331	2.7558	2.7273	0.1	1042.5
7332	2.7558	2.9091	0.1	1052.8
7333	2.7558	3.0909	0.1	1052.8
7334	2.7558	3.2727	0.1	1042.5
7335	2.7558	3.4545	0.1	1021.9
7336	2.7558	3.6364	0.1	991.12
7337	2.7558	3.8182	0.1	950.45
7338	2.7558	4.	0.1	900.2
7339	2.7558	4.1818	0.1	840.84
7340	2.7558	4.3636	0.1	772.99
7341	2.7558	4.5455	0.1	697.44
7342	2.7558	4.7273	0.1	615.18
7343	2.7558	4.9091	0.1	527.38
7344	2.7558	5.0909	0.1	435.32
7345	2.7558	5.2727	0.1	340.41
7346	2.7558	5.4545	0.1	244.07
7347	2.7558	5.6364	0.1	147.21
7348	2.7558	5.8182	0.1	48.235
7349	2.9395	0.18182	0.1	48.058
7350	2.9395	0.36364	0.1	138.39
7351	2.9395	0.54545	0.1	226.95
7352	2.9395	0.72727	0.1	315.04
7353	2.9395	0.90909	0.1	401.94
7354	2.9395	1.0909	0.1	486.43
7355	2.9395	1.2727	0.1	567.28
7356	2.9395	1.4545	0.1	643.31
7357	2.9395	1.6364	0.1	713.44
7358	2.9395	1.8182	0.1	776.72
7359	2.9395	2.	0.1	832.32
7360	2.9395	2.1818	0.1	879.59
7361	2.9395	2.3636	0.1	917.98
7362	2.9395	2.5455	0.1	947.1
7363	2.9395	2.7273	0.1	966.67
7364	2.9395	2.9091	0.1	976.49
7365	2.9395	3.0909	0.1	976.49
7366	2.9395	3.2727	0.1	966.67
7367	2.9395	3.4545	0.1	947.1
7368	2.9395	3.6364	0.1	917.98
7369	2.9395	3.8182	0.1	879.59
7370	2.9395	4.	0.1	832.32
7371	2.9395	4.1818	0.1	776.72
7372	2.9395	4.3636	0.1	713.44
7373	2.9395	4.5455	0.1	643.31
7374	2.9395	4.7273	0.1	567.28
7375	2.9395	4.9091	0.1	486.43
7376	2.9395	5.0909	0.1	401.94
7377	2.9395	5.2727	0.1	315.04
7378	2.9395	5.4545	0.1	226.95
7379	2.9395	5.6364	0.1	138.39
7380	2.9395	5.8182	0.1	48.058
7381	3.1233	0.18182	0.1	47.165
7382	3.1233	0.36364	0.1	129.52
7383	3.1233	0.54545	0.1	210.45
7384	3.1233	0.72727	0.1	291.05
7385	3.1233	0.90909	0.1	370.68
7386	3.1233	1.0909	0.1	448.3
7387	3.1233	1.2727	0.1	522.81
7388	3.1233	1.4545	0.1	593.14
7389	3.1233	1.6364	0.1	658.27
7390	3.1233	1.8182	0.1	717.28
7391	3.1233	2.	0.1	769.34
7392	3.1233	2.1818	0.1	813.75
7393	3.1233	2.3636	0.1	849.95
7394	3.1233	2.5455	0.1	877.48
7395	3.1233	2.7273	0.1	896.01
7396	3.1233	2.9091	0.1	905.33
7397	3.1233	3.0909	0.1	905.33
7398	3.1233	3.2727	0.1	896.01
7399	3.1233	3.4545	0.1	877.48
7400	3.1233	3.6364	0.1	849.95
7401	3.1233	3.8182	0.1	813.75
7402	3.1233	4.	0.1	769.34
7403	3.1233	4.1818	0.1	717.28
7404	3.1233	4.3636	0.1	658.27
7405	3.1233	4.5455	0.1	593.14
7406	3.1233	4.7273	0.1	522.81
7407	3.1233	4.9091	0.1	448.3
7408	3.1233	5.0909	0.1	370.68
7409	3.1233	5.2727	0.1	291.05
7410	3.1233	5.4545	0.1	210.45
7411	3.1233	5.6364	0.1	129.52
7412	3.1233	5.8182	0.1	47.165
7413	3.307	0.18182	0.1	45.629
7414	3.307	0.36364	0.1	120.54
7415	3.307	0.54545	0.1	194.43
7416	3.307	0.72727	0.1	268.14
7417	3.307	0.90909	0.1	341.15
7418	3.307	1.0909	0.1	412.52
7419	3.307	1.2727	0.1	481.27
7420	3.307	1.4545	0.1	546.42
7421	3.307	1.6364	0.1	607.
7422	3.307	1.8182	0.1	662.09
7423	3.307	2.	0.1	710.88
7424	3.307	2.1818	0.1	752.66
7425	3.307	2.3636	0.1	786.8
7426	3.307	2.5455	0.1	812.84
7427	3.307	2.7273	0.1	830.4
7428	3.307	2.9091	0.1	839.24
7429	3.307	3.0909	0.1	839.24
7430	3.307	3.2727	0.1	830.4
7431	3.307	3.4545	0.1	812.84
7432	3.307	3.6364	0.1	786.8
7433	3.307	3.8182	0.1	752.66
7434	3.307	4.	0.1	710.88
7435	3.307	4.1818	0.1	662.09
7436	3.307	4.3636	0.1	607.
7437	3.307	4.5455	0.1	546.42
7438	3.307	4.7273	0.1	481.27
7439	3.307	4.9091	0.1	412.52
7440	3.307	5.0909	0.1	341.15
7441	3.307	5.2727	0.1	268.14
7442	3.307	5.4545	0.1	194.43
7443	3.307	5.6364	0.1	120.54
7444	3.307	5.8182	0.1	45.629
7445	3.4907	0.18182	0.1	43.513
7446	3.4907	0.36364	0.1	111.43
7447	3.4907	0.54545	0.1	178.73
7448	3.4907	0.72727	0.1	246.08
7449	3.4907	0.90909	0.1	313.01
7450	3.4907	1.0909	0.1	378.7
7451	3.4907	1.2727	0.1	442.25
7452	3.4907	1.4545	0.1	502.71
7453	3.4907	1.6364	0.1	559.18
7454	3.4907	1.8182	0.1	610.75
7455	3.4907	2.	0.1	656.61
7456	3.4907	2.1818	0.1	696.
7457	3.4907	2.3636	0.1	728.3
7458	3.4907	2.5455	0.1	752.99
7459	3.4907	2.7273	0.1	769.67
7460	3.4907	2.9091	0.1	778.07
7461	3.4907	3.0909	0.1	778.07
7462	3.4907	3.2727	0.1	769.67
7463	3.4907	3.4545	0.1	752.99
7464	3.4907	3.6364	0.1	728.3
7465	3.4907	3.8182	0.1	696.
7466	3.4907	4.	0.1	656.61
7467	3.4907	4.1818	0.1	610.75
7468	3.4907	4.3636	0.1	559.18
7469	3.4907	4.5455	0.1	502.71
7470	3.4907	4.7273	0.1	442.25
7471	3.4907	4.9091	0.1	378.7
7472	3.4907	5.0909	0.1	313.01
7473	3.4907	5.2727	0.1	246.08
7474	3.4907	5.4545	0.1	178.73
7475	3.4907	5.6364	0.1	111.43
7476	3.4907	5.8182	0.1	43.513
7477	3.6744	0.18182	0.1	40.866
7478	3.6744	0.36364	0.1	102.13
7479	3.6744	0.54545	0.1	163.22
7480	3.6744	0.72727	0.1	224.64
7481	3.6744	0.90909	0.1	285.98
7482	3.6744	1.0909	0.1	346.5
7483	3.6744	1.2727	0.1	405.34
7484	3.6744	1.4545	0.1	461.62
7485	3.6744	1.6364	0.1	514.44
7486	3.6744	1.8182	0.1	562.9
7487	3.6744	2.	0.1	606.17
7488	3.6744	2.1818	0.1	643.49
7489	3.6744	2.3636	0.1	674.18
7490	3.6744	2.5455	0.1	697.7
7491	3.6744	2.7273	0.1	713.62
7492	3.6744	2.9091	0.1	721.65
7493	3.6744	3.0909	0.1	721.65
7494	3.6744	3.2727	0.1	713.62
7495	3.6744	3.4545	0.1	697.7
7496	3.6744	3.6364	0.1	674.18
7497	3.6744	3.8182	0.1	643.49
7498	3.6744	4.	0.1	606.17
7499	3.6744	4.1818	0.1	562.9
7500	3.6744	4.3636	0.1	514.44
7501	3.6744	4.5455	0.1	461.62
7502	3.6744	4.7273	0.1	405.34
7503	3.6744	4.9091	0.1	346.5
7504	3.6744	5.0909	0.1	285.98
7505	3.6744	5.2727	0.1	224.64
7506	3.6744	5.4545	0.1	163.22
7507	3.6744	5.6364	0.1	102.13
7508	3.6744	5.8182	0.1	40.866
7509	3.8581	0.18182	0.1	37.725
7510	3.8581	0.36364	0.1	92.593
7511	3.8581	0.54545	0.1	147.76
7512	3.8581	0.72727	0.1	203.62
7513	3.8581	0.90909	0.1	259.8
7514	3.8581	1.0909	0.1	315.59
7515	3.8581	1.2727	0.1	370.21
7516	3.8581	1.4545	0.1	422.78
7517	3.8581	1.6364	0.1	472.41
7518	3.8581	1.8182	0.1	518.19
7519	3.8581	2.	0.1	559.26
7520	3.8581	2.1818	0.1	594.83
7521	3.8581	2.3636	0.1	624.19
7522	3.8581	2.5455	0.1	646.75
7523	3.8581	2.7273	0.1	662.05
7524	3.8581	2.9091	0.1	669.78
7525	3.8581	3.0909	0.1	669.78
7526	3.8581	3.2727	0.1	662.05
7527	3.8581	3.4545	0.1	646.75
7528	3.8581	3.6364	0.1	624.19
7529	3.8581	3.8182	0.1	594.83
7530	3.8581	4.	0.1	559.26
7531	3.8581	4.1818	0.1	518.19
7532	3.8581	4.3636	0.1	472.41
7533	3.8581	4.5455	0.1	422.78
7534	3.8581	4.7273	0.1	370.21
7535	3.8581	4.9091	0.1	315.59
7536	3.8581	5.0909	0.1	259.8
7537	3.8581	5.2727	0.1	203.62
7538	3.8581	5.4545	0.1	147.76
7539	3.8581	5.6364	0.1	92.593
7540	3.8581	5.8182	0.1	37.725
7541	4.0419	0.18182	0.1	34.115
7542	4.0419	0.36364	0.1	82.76
7543	4.0419	0.54545	0.1	132.23
7544	4.0419	0.72727	0.1	182.82
7545	4.0419	0.90909	0.1	234.19
7546	4.0419	1.0909	0.1	285.68
7547	4.0419	1.2727	0.1	336.52
7548	4.0419	1.4545	0.1	385.85
7549	4.0419	1.6364	0.1	432.74
7550	4.0419	1.8182	0.1	476.28
7551	4.0419	2.	0.1	515.56
7552	4.0419	2.1818	0.1	549.74
7553	4.0419	2.3636	0.1	578.06
7554	4.0419	2.5455	0.1	599.9
7555	4.0419	2.7273	0.1	614.74
7556	4.0419	2.9091	0.1	622.24
7557	4.0419	3.0909	0.1	622.24
7558	4.0419	3.2727	0.1	614.74
7559	4.0419	3.4545	0.1	599.9
7560	4.0419	3.6364	0.1	578.06
7561	4.0419	3.8182	0.1	549.74
7562	4.0419	4.	0.1	515.56
7563	4.0419	4.1818	0.1	476.28
7564	4.0419	4.3636	0.1	432.74
7565	4.0419	4.5455	0.1	385.85
7566	4.0419	4.7273	0.1	336.52
7567	4.0419	4.9091	0.1	285.68
7568	4.0419	5.0909	0.1	234.19
7569	4.0419	5.2727	0.1	182.82
7570	4.0419	5.4545	0.1	132.23
7571	4.0419	5.6364	0.1	82.76
7572	4.0419	5.8182	0.1	34.115
7573	4.2256	0.18182	0.1	30.046
7574	4.2256	0.36364	0.1	72.554
7575	4.2256	0.54545	0.1	116.47
7576	4.2256	0.72727	0.1	162.03
7577	4.2256	0.90909	0.1	208.91
7578	4.2256	1.0909	0.1	256.47
7579	4.2256	1.2727	0.1	303.95
7580	4.2256	1.4545	0.1	350.47
7581	4.2256	1.6364	0.1	395.09
7582	4.2256	1.8182	0.1	436.84
7583	4.2256	2.	0.1	474.75
7584	4.2256	2.1818	0.1	507.92
7585	4.2256	2.3636	0.1	535.53
7586	4.2256	2.5455	0.1	556.89
7587	4.2256	2.7273	0.1	571.44
7588	4.2256	2.9091	0.1	578.82
7589	4.2256	3.0909	0.1	578.82
7590	4.2256	3.2727	0.1	571.44
7591	4.2256	3.4545	0.1	556.89
7592	4.2256	3.6364	0.1	535.53
7593	4.2256	3.8182	0.1	507.92
7594	4.2256	4.	0.1	474.75
7595	4.2256	4.1818	0.1	436.84
7596	4.2256	4.3636	0.1	395.09
7597	4.2256	4.5455	0.1	350.47
7598	4.2256	4.7273	0.1	303.95
7599	4.2256	4.9091	0.1	256.47
7600	4.2256	5.0909	0.1	208.91
7601	4.2256	5.2727	0.1	162.03
7602	4.2256	5.4545	0.1	116.47
7603	4.2256	5.6364	0.1	72.554
7604	4.2256	5.8182	0.1	30.046
7605	4.4093	0.18182	0.1	25.517
7606	4.4093	0.36364	0.1	61.891
7607	4.4093	0.54545	0.1	100.34
7608	4.4093	0.72727	0.1	141.04
7609	4.4093	0.90909	0.1	183.68
7610	4.4093	1.0909	0.1	227.65
7611	4.4093	1.2727	0.1	272.17
7612	4.4093	1.4545	0.1	316.32
7613	4.4093	1.6364	0.1	359.12
7614	4.4093	1.8182	0.1	399.53
7615	4.4093	2.	0.1	436.51
7616	4.4093	2.1818	0.1	469.07
7617	4.4093	2.3636	0.1	496.31
7618	4.4093	2.5455	0.1	517.47
7619	4.4093	2.7273	0.1	531.92
7620	4.4093	2.9091	0.1	539.26
7621	4.4093	3.0909	0.1	539.26
7622	4.4093	3.2727	0.1	531.92
7623	4.4093	3.4545	0.1	517.47
7624	4.4093	3.6364	0.1	496.31
7625	4.4093	3.8182	0.1	469.07
7626	4.4093	4.	0.1	436.51
7627	4.4093	4.1818	0.1	399.53
7628	4.4093	4.3636	0.1	359.12
7629	4.4093	4.5455	0.1	316.32
7630	4.4093	4.7273	0.1	272.17
7631	4.4093	4.9091	0.1	227.65
7632	4.4093	5.0909	0.1	183.68
7633	4.4093	5.2727	0.1	141.04
7634	4.4093	5.4545	0.1	100.34
7635	4.4093	5.6364	0.1	61.891
7636	4.4093	5.8182	0.1	25.517
7637	4.593	0.18182	0.1	20.513
7638	4.593	0.36364	0.1	50.673
7639	4.593	0.54545	0.1	83.656
7640	4.593	0.72727	0.1	119.62
7641	4.593	0.90909	0.1	158.25
7642	4.593	1.0909	0.1	198.92
7643	4.593	1.2727	0.1	240.83
7644	4.593	1.4545	0.1	283.03
7645	4.593	1.6364	0.1	324.46
7646	4.593	1.8182	0.1	364.
7647	4.593	2.	0.1	400.5
7648	4.593	2.1818	0.1	432.88
7649	4.593	2.3636	0.1	460.12
7650	4.593	2.5455	0.1	481.36
7651	4.593	2.7273	0.1	495.92
7652	4.593	2.9091	0.1	503.32
7653	4.593	3.0909	0.1	503.32
7654	4.593	3.2727	0.1	495.92
7655	4.593	3.4545	0.1	481.36
7656	4.593	3.6364	0.1	460.12
7657	4.593	3.8182	0.1	432.88
7658	4.593	4.	0.1	400.5
7659	4.593	4.1818	0.1	364.
7660	4.593	4.3636	0.1	324.46
7661	4.593	4.5455	0.1	283.03
7662	4.593	4.7273	0.1	240.83
7663	4.593	4.9091	0.1	198.92
7664	4.593	5.0909	0.1	158.25
7665	4.593	5.2727	0.1	119.62
7666	4.593	5.4545	0.1	83.656
7667	4.593	5.6364	0.1	50.673
7668	4.593	5.8182	0.1	20.513
7669	4.7767	0.18182	0.1	15.015
7670	4.7767	0.36364	0.1	38.796
7671	4.7767	0.54545	0.1	66.262
7672	4.7767	0.72727	0.1	97.542
7673	4.7767	0.90909	0.1	132.31
7674	4.7767	1.0909	0.1	169.94
7675	4.7767	1.2727	0.1	209.58
7676	4.7767	1.4545	0.1	250.24
7677	4.7767	1.6364	0.1	290.75
7678	4.7767	1.8182	0.1	329.88
7679	4.7767	2.	0.1	366.38
7680	4.7767	2.1818	0.1	399.
7681	4.7767	2.3636	0.1	426.62
7682	4.7767	2.5455	0.1	448.26
7683	4.7767	2.7273	0.1	463.13
7684	4.7767	2.9091	0.1	470.71
7685	4.7767	3.0909	0.1	470.71
7686	4.7767	3.2727	0.1	463.13
7687	4.7767	3.4545	0.1	448.26
7688	4.7767	3.6364	0.1	426.62
7689	4.7767	3.8182	0.1	399.
7690	4.7767	4.	0.1	366.38
7691	4.7767	4.1818	0.1	329.88
7692	4.7767	4.3636	0.1	290.75
7693	4.7767	4.5455	0.1	250.24
7694	4.7767	4.7273	0.1	209.58
7695	4.7767	4.9091	0.1	169.94
7696	4.7767	5.0909	0.1	132.31
7697	4.7767	5.2727	0.1	97.542
7698	4.7767	5.4545	0.1	66.262
7699	4.7767	5.6364	0.1	38.796
7700	4.7767	5.8182	0.1	15.015
7701	4.9605	0.18182	0.1	9.0062
7702	4.9605	0.36364	0.1	26.16
7703	4.9605	0.54545	0.1	47.984
7704	4.9605	0.72727	0.1	74.576
7705	4.9605	0.90909	0.1	105.59
7706	4.9605	1.0909	0.1	140.37
7707	4.9605	1.2727	0.1	178.04
7708	4.9605	1.4545	0.1	217.52
7709	4.9605	1.6364	0.1	257.54
7710	4.9605	1.8182	0.1	296.75
7711	4.9605	2.	0.1	333.72
7712	4.9605	2.1818	0.1	367.06
7713	4.9605	2.3636	0.1	395.46
7714	4.9605	2.5455	0.1	417.81
7715	4.9605	2.7273	0.1	433.23
7716	4.9605	2.9091	0.1	441.09
7717	4.9605	3.0909	0.1	441.09
7718	4.9605	3.2727	0.1	433.23
7719	4.9605	3.4545	0.1	417.82
7720	4.9605	3.6364	0.1	395.46
7721	4.9605	3.8182	0.1	367.06
7722	4.9605	4.	0.1	333.72
7723	4.9605	4.1818	0.1	296.75
7724	4.9605	4.3636	0.1	257.54
7725	4.9605	4.5455	0.1	217.52
7726	4.9605	4.7273	0.1	178.04
7727	4.9605	4.9091	0.1	140.37
7728	4.9605	5.0909	0.1	105.59
7729	4.9605	5.2727	0.1	74.576
7730	4.9605	5.4545	0.1	47.984
7731	4.9605	5.6364	0.1	26.16
7732	4.9605	5.8182	0.1	9.0062
7733	5.1442	0.18182	0.1	2.68
7734	5.1442	0.36364	0.1	12.725
7735	5.1442	0.54545	0.1	28.69
7736	5.1442	0.72727	0.1	50.506
7737	5.1442	0.90909	0.1	77.781
7738	5.1442	1.0909	0.1	109.85
7739	5.1442	1.2727	0.1	145.78
7740	5.1442	1.4545	0.1	184.41
7741	5.1442	1.6364	0.1	224.38
7742	5.1442	1.8182	0.1	264.14
7743	5.1442	2.	0.1	302.08
7744	5.1442	2.1818	0.1	336.61
7745	5.1442	2.3636	0.1	366.21
7746	5.1442	2.5455	0.1	389.62
7747	5.1442	2.7273	0.1	405.8
7748	5.1442	2.9091	0.1	414.07
7749	5.1442	3.0909	0.1	414.07
7750	5.1442	3.2727	0.1	405.8
7751	5.1442	3.4545	0.1	389.62
7752	5.1442	3.6364	0.1	366.21
7753	5.1442	3.8182	0.1	336.61
7754	5.1442	4.	0.1	302.08
7755	5.1442	4.1818	0.1	264.14
7756	5.1442	4.3636	0.1	224.38
7757	5.1442	4.5455	0.1	184.41
7758	5.1442	4.7273	0.1	145.78
7759	5.1442	4.9091	0.1	109.85
7760	5.1442	5.0909	0.1	77.781
7761	5.1442	5.2727	0.1	50.506
7762	5.1442	5.4545	0.1	28.69
7763	5.1442	5.6364	0.1	12.725
7764	5.1442	5.8182	0.1	2.68
7765	5.3279	0.18182	0.1	9.0751e-002
7766	5.3279	0.36364	0.1	1.0404
7767	5.3279	0.54545	0.1	8.6649
7768	5.3279	0.72727	0.1	25.245
7769	5.3279	0.90909	0.1	48.639
7770	5.3279	1.0909	0.1	77.993
7771	5.3279	1.2727	0.1	112.32
7772	5.3279	1.4545	0.1	150.39
7773	5.3279	1.6364	0.1	190.68
7774	5.3279	1.8182	0.1	231.47
7775	5.3279	2.	0.1	270.9
7776	5.3279	2.1818	0.1	307.11
7777	5.3279	2.3636	0.1	338.36
7778	5.3279	2.5455	0.1	363.16
7779	5.3279	2.7273	0.1	380.34
7780	5.3279	2.9091	0.1	389.13
7781	5.3279	3.0909	0.1	389.13
7782	5.3279	3.2727	0.1	380.34
7783	5.3279	3.4545	0.1	363.16
7784	5.3279	3.6364	0.1	338.36
7785	5.3279	3.8182	0.1	307.11
7786	5.3279	4.	0.1	270.9
7787	5.3279	4.1818	0.1	231.47
7788	5.3279	4.3636	0.1	190.68
7789	5.3279	4.5455	0.1	150.39
7790	5.3279	4.7273	0.1	112.32
7791	5.3279	4.9091	0.1	77.993
7792	5.3279	5.0909	0.1	48.639
7793	5.3279	5.2727	0.1	25.245
7794	5.3279	5.4545	0.1	8.6649
7795	5.3279	5.6364	0.1	1.0404
7796	5.3279	5.8182	0.1	9.0753e-002
7797	5.5116	0.18182	0.1	-5.4275e-002
7798	5.5116	0.36364	0.1	0.17345
7799	5.5116	0.54545	0.1	0.49925
7800	5.5116	0.72727	0.1	2.7922
7801	5.5116	0.90909	0.1	18.37
7802	5.5116	1.0909	0.1	44.502
7803	5.5116	1.2727	0.1	77.154
7804	5.5116	1.4545	0.1	114.8
7805	5.5116	1.6364	0.1	155.74
7806	5.5116	1.8182	0.1	198.03
7807	5.5116	2.	0.1	239.48
7808	5.5116	2.1818	0.1	277.89
7809	5.5116	2.3636	0.1	311.23
7810	5.5116	2.5455	0.1	337.76
7811	5.5116	2.7273	0.1	356.17
7812	5.5116	2.9091	0.1	365.58
7813	5.5116	3.0909	0.1	365.58
7814	5.5116	3.2727	0.1	356.17
7815	5.5116	3.4545	0.1	337.76
7816	5.5116	3.6364	0.1	311.23
7817	5.5116	3.8182	0.1	277.89
7818	5.5116	4.	0.1	239.48
7819	5.5116	4.1818	0.1	198.03
7820	5.5116	4.3636	0.1	155.74
7821	5.5116	4.5455	0.1	114.8
7822	5.5116	4.7273	0.1	77.154
7823	5.5116	4.9091	0.1	44.502
7824	5.5116	5.0909	0.1	18.37
7825	5.5116	5.2727	0.1	2.7922
7826	5.5116	5.4545	0.1	0.49926
7827	5.5116	5.6364	0.1	0.17345
7828	5.5116	5.8182	0.1	-5.4273e-002
7829	5.6953	0.18182	0.1	-9.1782e-002
7830	5.6953	0.36364	0.1	0.1182
7831	5.6953	0.54545	0.1	0.19398
7832	5.6953	0.72727	0.1	0.52315
7833	5.6953	0.90909	0.1	1.539
7834	5.6953	1.0909	0.1	10.99
7835	5.6953	1.2727	0.1	39.892
7836	5.6953	1.4545	0.1	76.878
7837	5.6953	1.6364	0.1	118.68
7838	5.6953	1.8182	0.1	162.89
7839	5.6953	2.	0.1	206.92
7840	5.6953	2.1818	0.1	248.1
7841	5.6953	2.3636	0.1	283.98
7842	5.6953	2.5455	0.1	312.56
7843	5.6953	2.7273	0.1	332.37
7844	5.6953	2.9091	0.1	342.49
7845	5.6953	3.0909	0.1	342.49
7846	5.6953	3.2727	0.1	332.37
7847	5.6953	3.4545	0.1	312.56
7848	5.6953	3.6364	0.1	283.98
7849	5.6953	3.8182	0.1	248.1
7850	5.6953	4.	0.1	206.92
7851	5.6953	4.1818	0.1	162.89
7852	5.6953	4.3636	0.1	118.68
7853	5.6953	4.5455	0.1	76.878
7854	5.6953	4.7273	0.1	39.892
7855	5.6953	4.9091	0.1	10.99
7856	5.6953	5.0909	0.1	1.539
7857	5.6953	5.2727	0.1	0.52315
7858	5.6953	5.4545	0.1	0.19398
7859	5.6953	5.6364	0.1	0.1182
7860	5.6953	5.8182	0.1	-9.178e-002
7861	5.8791	0.18182	0.1	-0.12186
7862	5.8791	0.36364	0.1	0.1211
7863	5.8791	0.54545	0.1	0.12957
7864	5.8791	0.72727	0.1	0.33104
7865	5.8791	0.90909	0.1	0.65159
7866	5.8791	1.0909	0.1	1.4639
7867	5.8791	1.2727	0.1	6.5982
7868	5.8791	1.4545	0.1	36.162
7869	5.8791	1.6364	0.1	78.36
7870	5.8791	1.8182	0.1	124.84
7871	5.8791	2.	0.1	172.03
7872	5.8791	2.1818	0.1	216.57
7873	5.8791	2.3636	0.1	255.47
7874	5.8791	2.5455	0.1	286.37
7875	5.8791	2.7273	0.1	307.69
7876	5.8791	2.9091	0.1	318.53
7877	5.8791	3.0909	0.1	318.53
7878	5.8791	3.2727	0.1	307.69
7879	5.8791	3.4545	0.1	286.37
7880	5.8791	3.6364	0.1	255.47
7881	5.8791	3.8182	0.1	216.57
7882	5.8791	4.	0.1	172.03
7883	5.8791	4.1818	0.1	124.84
7884	5.8791	4.3636	0.1	78.36
7885	5.8791	4.5455	0.1	36.162
7886	5.8791	4.7273	0.1	6.5982
7887	5.8791	4.9091	0.1	1.4639
7888	5.8791	5.0909	0.1	0.65159
7889	5.8791	5.2727	0.1	0.33104
7890	5.8791	5.4545	0.1	0.12957
7891	5.8791	5.6364	0.1	0.1211
7892	5.8791	5.8182	0.1	-0.12186
7893	6.0628	0.18182	0.1	-0.1644
7894	6.0628	0.36364	0.1	0.13839
7895	6.0628	0.54545	0.1	0.11504
7896	6.0628	0.72727	0.1	0.29128
7897	6.0628	0.90909	0.1	0.50119
7898	6.0628	1.0909	0.1	0.85516
7899	6.0628	1.2727	0.1	1.6395
7900	6.0628	1.4545	0.1	5.2997
7901	6.0628	1.6364	0.1	34.199
7902	6.0628	1.8182	0.1	82.268
7903	6.0628	2.	0.1	133.19
7904	6.0628	2.1818	0.1	181.78
7905	6.0628	2.3636	0.1	224.16
7906	6.0628	2.5455	0.1	257.55
7907	6.0628	2.7273	0.1	280.35
7908	6.0628	2.9091	0.1	291.85
7909	6.0628	3.0909	0.1	291.85
7910	6.0628	3.2727	0.1	280.35
7911	6.0628	3.4545	0.1	257.55
7912	6.0628	3.6364	0.1	224.16
7913	6.0628	3.8182	0.1	181.78
7914	6.0628	4.	0.1	133.19
7915	6.0628	4.1818	0.1	82.268
7916	6.0628	4.3636	0.1	34.199
7917	6.0628	4.5455	0.1	5.2997
7918	6.0628	4.7273	0.1	1.6395
7919	6.0628	4.9091	0.1	0.85516
7920	6.0628	5.0909	0.1	0.50119
7921	6.0628	5.2727	0.1	0.29128
7922	6.0628	5.4545	0.1	0.11504
7923	6.0628	5.6364	0.1	0.13839
7924	6.0628	5.8182	0.1	-0.1644
7925	6.2465	0.18182	0.1	-0.22781
7926	6.2465	0.36364	0.1	0.15933
7927	6.2465	0.54545	0.1	0.12575
7928	6.2465	0.72727	0.1	0.30462
7929	6.2465	0.90909	0.1	0.48047
7930	6.2465	1.0909	0.1	0.72474
7931	6.2465	1.2727	0.1	1.1108
7932	6.2465	1.4545	0.1	1.9297
7933	6.2465	1.6364	0.1	5.217
7934	6.2465	1.8182	0.1	34.394
7935	6.2465	2.	0.1	88.269
7936	6.2465	2.1818	0.1	141.64
7937	6.2465	2.3636	0.1	187.97
7938	6.2465	2.5455	0.1	223.84
7939	6.2465	2.7273	0.1	247.83
7940	6.2465	2.9091	0.1	259.73
7941	6.2465	3.0909	0.1	259.73
7942	6.2465	3.2727	0.1	247.83
7943	6.2465	3.4545	0.1	223.84
7944	6.2465	3.6364	0.1	187.97
7945	6.2465	3.8182	0.1	141.64
7946	6.2465	4.	0.1	88.269
7947	6.2465	4.1818	0.1	34.394
7948	6.2465	4.3636	0.1	5.217
7949	6.2465	4.5455	0.1	1.9297
7950	6.2465	4.7273	0.1	1.1108
7951	6.2465	4.9091	0.1	0.72475
7952	6.2465	5.0909	0.1	0.48047
7953	6.2465	5.2727	0.1	0.30462
7954	6.2465	5.4545	0.1	0.12575
7955	6.2465	5.6364	0.1	0.15933
7956	6.2465	5.8182	0.1	-0.22781
7957	6.4302	0.18182	0.1	-0.31335
7958	6.4302	0.36364	0.1	0.18025
7959	6.4302	0.54545	0.1	0.1586
7960	6.4302	0.72727	0.1	0.35325
7961	6.4302	0.90909	0.1	0.51928
7962	6.4302	1.0909	0.1	0.71975
7963	6.4302	1.2727	0.1	0.9829
7964	6.4302	1.4545	0.1	1.4046
7965	6.4302	1.6364	0.1	2.2807
7966	6.4302	1.8182	0.1	5.568
7967	6.4302	2.	0.1	36.126
7968	6.4302	2.1818	0.1	93.408
7969	6.4302	2.3636	0.1	144.05
7970	6.4302	2.5455	0.1	182.08
7971	6.4302	2.7273	0.1	206.53
7972	6.4302	2.9091	0.1	218.28
7973	6.4302	3.0909	0.1	218.28
7974	6.4302	3.2727	0.1	206.54
7975	6.4302	3.4545	0.1	182.08
7976	6.4302	3.6364	0.1	144.05
7977	6.4302	3.8182	0.1	93.408
7978	6.4302	4.	0.1	36.126
7979	6.4302	4.1818	0.1	5.568
7980	6.4302	4.3636	0.1	2.2807
7981	6.4302	4.5455	0.1	1.4046
7982	6.4302	4.7273	0.1	0.98291
7983	6.4302	4.9091	0.1	0.71975
7984	6.4302	5.0909	0.1	0.51928
7985	6.4302	5.2727	0.1	0.35325
7986	6.4302	5.4545	0.1	0.1586
7987	6.4302	5.6364	0.1	0.18026
7988	6.4302	5.8182	0.1	-0.31335
7989	6.614	0.18182	0.1	-0.40484
7990	6.614	0.36364	0.1	0.20692
7991	6.614	0.54545	0.1	0.22215
7992	6.614	0.72727	0.1	0.43872
7993	6.614	0.90909	0.1	0.60603
7994	6.614	1.0909	0.1	0.78495
7995	6.614	1.2727	0.1	0.99128
7996	6.614	1.4545	0.1	1.2786
7997	6.614	1.6364	0.1	1.7445
7998	6.614	1.8182	0.1	2.6539
7999	6.614	2.	0.1	5.8469
8000	6.614	2.1818	0.1	35.536
8001	6.614	2.3636	0.1	88.647
8002	6.614	2.5455	0.1	127.85
8003	6.614	2.7273	0.1	151.35
8004	6.614	2.9091	0.1	161.94
8005	6.614	3.0909	0.1	161.94
8006	6.614	3.2727	0.1	151.35
8007	6.614	3.4545	0.1	127.85
8008	6.614	3.6364	0.1	88.647
8009	6.614	3.8182	0.1	35.536
8010	6.614	4.	0.1	5.8469
8011	6.614	4.1818	0.1	2.6539
8012	6.614	4.3636	0.1	1.7445
8013	6.614	4.5455	0.1	1.2786
8014	6.614	4.7273	0.1	0.99128
8015	6.614	4.9091	0.1	0.78496
8016	6.614	5.0909	0.1	0.60603
8017	6.614	5.2727	0.1	0.43872
8018	6.614	5.4545	0.1	0.22216
8019	6.614	5.6364	0.1	0.20693
8020	6.614	5.8182	0.1	-0.40483
8021	6.7977	0.18182	0.1	-0.45983
8022	6.7977	0.36364	0.1	0.25388
8023	6.7977	0.54545	0.1	0.32688
8024	6.7977	0.72727	0.1	0.55916
8025	6.7977	0.90909	0.1	0.72818
8026	6.7977	1.0909	0.1	0.89985
8027	6.7977	1.2727	0.1	1.0854
8028	6.7977	1.4545	0.1	1.2819
8029	6.7977	1.6364	0.1	1.5152
8030	6.7977	1.8182	0.1	1.9641
8031	6.7977	2.	0.1	2.5647
8032	6.7977	2.1818	0.1	4.4252
8033	6.7977	2.3636	0.1	20.513
8034	6.7977	2.5455	0.1	55.182
8035	6.7977	2.7273	0.1	75.107
8036	6.7977	2.9091	0.1	83.011
8037	6.7977	3.0909	0.1	83.011
8038	6.7977	3.2727	0.1	75.107
8039	6.7977	3.4545	0.1	55.182
8040	6.7977	3.6364	0.1	20.513
8041	6.7977	3.8182	0.1	4.4252
8042	6.7977	4.	0.1	2.5647
8043	6.7977	4.1818	0.1	1.9641
8044	6.7977	4.3636	0.1	1.5152
8045	6.7977	4.5455	0.1	1.2819
8046	6.7977	4.7273	0.1	1.0854
8047	6.7977	4.9091	0.1	0.89986
8048	6.7977	5.0909	0.1	0.72818
8049	6.7977	5.2727	0.1	0.55916
8050	6.7977	5.4545	0.1	0.32688
8051	6.7977	5.6364	0.1	0.25388
8052	6.7977	5.8182	0.1	-0.45983
8053	6.9814	0.18182	0.1	-0.32304
8054	6.9814	0.36364	0.1	0.41532
8055	6.9814	0.54545	0.1	0.54458
8056	6.9814	0.72727	0.1	0.75606
8057	6.9814	0.90909	0.1	0.92524
8058	6.9814	1.0909	0.1	1.1112
8059	6.9814	1.2727	0.1	1.2804
8060	6.9814	1.4545	0.1	1.5374
8061	6.9814	1.6364	0.1	2.0615
8062	6.9814	1.8182	0.1	2.0207
8063	6.9814	2.	0.1	2.4961
8064	6.9814	2.1818	0.1	2.3637
8065	6.9814	2.3636	0.1	0.92374
8066	6.9814	2.5455	0.1	-2.4729e-002
8067	6.9814	2.7273	0.1	-0.58873
8068	6.9814	2.9091	0.1	-0.80396
8069	6.9814	3.0909	0.1	-0.80396
8070	6.9814	3.2727	0.1	-0.58874
8071	6.9814	3.4545	0.1	-2.4729e-002
8072	6.9814	3.6364	0.1	0.92374
8073	6.9814	3.8182	0.1	2.3637
8074	6.9814	4.	0.1	2.4961
8075	6.9814	4.1818	0.1	2.0207
8076	6.9814	4.3636	0.1	2.0615
8077	6.9814	4.5455	0.1	1.5374
8078	6.9814	4.7273	0.1	1.2804
8079	6.9814	4.9091	0.1	1.1112
8080	6.9814	5.0909	0.1	0.92525
8081	6.9814	5.2727	0.1	0.75606
8082	6.9814	5.4545	0.1	0.54458
8083	6.9814	5.6364	0.1	0.41532
8084	6.9814	5.8182	0.1	-0.32304
8085	7.1651	0.18182	0.1	0.19556
8086	7.1651	0.36364	0.1	0.75514
8087	7.1651	0.54545	0.1	0.83411
8088	7.1651	0.72727	0.1	0.91517
8089	7.1651	0.90909	0.1	1.0227
8090	7.1651	1.0909	0.1	1.1657
8091	7.1651	1.2727	0.1	1.5364
8092	7.1651	1.4545	0.1	1.9717
8093	7.1651	1.6364	0.1	0.48926
8094	7.1651	1.8182	0.1	1.5228
8095	7.1651	2.	0.1	-1.3181
8096	7.1651	2.1818	0.1	-3.0791
8097	7.1651	2.3636	0.1	-0.52901
8098	7.1651	2.5455	0.1	-1.2107
8099	7.1651	2.7273	0.1	-1.031
8100	7.1651	2.9091	0.1	-0.85998
8101	7.1651	3.0909	0.1	-0.85998
8102	7.1651	3.2727	0.1	-1.031
8103	7.1651	3.4545	0.1	-1.2107
8104	7.1651	3.6364	0.1	-0.52901
8105	7.1651	3.8182	0.1	-3.0791
8106	7.1651	4.	0.1	-1.3181
8107	7.1651	4.1818	0.1	1.5228
8108	7.1651	4.3636	0.1	0.48926
8109	7.1651	4.5455	0.1	1.9717
8110	7.1651	4.7273	0.1	1.5364
8111	7.1651	4.9091	0.1	1.1657
8112	7.1651	5.0909	0.1	1.0227
8113	7.1651	5.2727	0.1	0.91517
8114	7.1651	5.4545	0.1	0.83411
8115	7.1651	5.6364	0.1	0.75514
8116	7.1651	5.8182	0.1	0.19556
8117	7.3488	0.18182	0.1	2.3382
8118	7.3488	0.36364	0.1	2.1923
8119	7.3488	0.54545	0.1	1.8125
8120	7.3488	0.72727	0.1	1.6036
8121	7.3488	0.90909	0.1	1.5958
8122	7.3488	1.0909	0.1	1.9835
8123	7.3488	1.2727	0.1	2.28
8124	7.3488	1.4545	0.1	2.3728
8125	7.3488	1.6364	0.1	9.9793
8126	7.3488	1.8182	0.1	5.6894
8127	7.3488	2.	0.1	13.962
8128	7.3488	2.1818	0.1	8.8478
8129	7.3488	2.3636	0.1	-6.0544
8130	7.3488	2.5455	0.1	-0.89189
8131	7.3488	2.7273	0.1	-0.89845
8132	7.3488	2.9091	0.1	-0.61601
8133	7.3488	3.0909	0.1	-0.61601
8134	7.3488	3.2727	0.1	-0.89845
8135	7.3488	3.4545	0.1	-0.89189
8136	7.3488	3.6364	0.1	-6.0544
8137	7.3488	3.8182	0.1	8.8478
8138	7.3488	4.	0.1	13.962
8139	7.3488	4.1818	0.1	5.6894
8140	7.3488	4.3636	0.1	9.9793
8141	7.3488	4.5455	0.1	2.3728
8142	7.3488	4.7273	0.1	2.28
8143	7.3488	4.9091	0.1	1.9835
8144	7.3488	5.0909	0.1	1.5958
8145	7.3488	5.2727	0.1	1.6036
8146	7.3488	5.4545	0.1	1.8125
8147	7.3488	5.6364	0.1	2.1924
8148	7.3488	5.8182	0.1	2.3382
8149	7.5326	0.18182	0.1	5.6905
8150	7.5326	0.36364	0.1	2.9014
8151	7.5326	0.54545	0.1	1.1949
8152	7.5326	0.72727	0.1	0.14424
8153	7.5326	0.90909	0.1	-0.27155
8154	7.5326	1.0909	0.1	-0.69509
8155	7.5326	1.2727	0.1	-0.47517
8156	7.5326	1.4545	0.1	7.81e-002
8157	7.5326	1.6364	0.1	-4.6472
8158	7.5326	1.8182	0.1	-14.763
8159	7.5326	2.	0.1	-72.714
8160	7.5326	2.1818	0.1	-36.593
8161	7.5326	2.3636	0.1	5.9025
8162	7.5326	2.5455	0.1	-1.3735
8163	7.5326	2.7273	0.1	0.10804
8164	7.5326	2.9091	0.1	0.18764
8165	7.5326	3.0909	0.1	0.18763
8166	7.5326	3.2727	0.1	0.10804
8167	7.5326	3.4545	0.1	-1.3735
8168	7.5326	3.6364	0.1	5.9025
8169	7.5326	3.8182	0.1	-36.593
8170	7.5326	4.	0.1	-72.714
8171	7.5326	4.1818	0.1	-14.763
8172	7.5326	4.3636	0.1	-4.6472
8173	7.5326	4.5455	0.1	7.8103e-002
8174	7.5326	4.7273	0.1	-0.47517
8175	7.5326	4.9091	0.1	-0.69509
8176	7.5326	5.0909	0.1	-0.27154
8177	7.5326	5.2727	0.1	0.14424
8178	7.5326	5.4545	0.1	1.1949
8179	7.5326	5.6364	0.1	2.9014
8180	7.5326	5.8182	0.1	5.6905
8181	7.7163	0.18182	0.1	22.557
8182	7.7163	0.36364	0.1	10.536
8183	7.7163	0.54545	0.1	7.9472
8184	7.7163	0.72727	0.1	6.9617
8185	7.7163	0.90909	0.1	6.7995
8186	7.7163	1.0909	0.1	8.5836
8187	7.7163	1.2727	0.1	6.4313
8188	7.7163	1.4545	0.1	24.157
8189	7.7163	1.6364	0.1	-17.4
8190	7.7163	1.8182	0.1	138.29
8191	7.7163	2.	0.1	570.66
8192	7.7163	2.1818	0.1	-19.399
8193	7.7163	2.3636	0.1	16.675
8194	7.7163	2.5455	0.1	-5.2156
8195	7.7163	2.7273	0.1	3.3888
8196	7.7163	2.9091	0.1	0.69341
8197	7.7163	3.0909	0.1	0.69341
8198	7.7163	3.2727	0.1	3.3888
8199	7.7163	3.4545	0.1	-5.2156
8200	7.7163	3.6364	0.1	16.675
8201	7.7163	3.8182	0.1	-19.399
8202	7.7163	4.	0.1	570.66
8203	7.7163	4.1818	0.1	138.29
8204	7.7163	4.3636	0.1	-17.4
8205	7.7163	4.5455	0.1	24.157
8206	7.7163	4.7273	0.1	6.4313
8207	7.7163	4.9091	0.1	8.5836
8208	7.7163	5.0909	0.1	6.7995
8209	7.7163	5.2727	0.1	6.9617
8210	7.7163	5.4545	0.1	7.9472
8211	7.7163	5.6364	0.1	10.536
8212	7.7163	5.8182	0.1	22.557
8213	8.0667	3.8182	0.1	-84.149
8214	8.0667	3.6364	0.1	39.162
8215	8.0667	3.4545	0.1	-1.2928
8216	8.0667	3.2727	0.1	4.1647
8217	8.0667	3.0909	0.1	2.0358
8218	8.0667	2.9091	0.1	2.0358
8219	8.0667	2.7273	0.1	4.1647
8220	8.0667	2.5455	0.1	-1.2928
8221	8.0667	2.3636	0.1	39.162
8222	8.0667	2.1818	0.1	-84.149
8223	7.9	3.8182	0.1	-161.18
8224	7.9	3.6364	0.1	36.779
8225	7.9	3.4545	0.1	-0.79598
8226	7.9	3.2727	0.1	4.1101
8227	7.9	3.0909	0.1	2.1415
8228	7.9	2.9091	0.1	2.1415
8229	7.9	2.7273	0.1	4.1101
8230	7.9	2.5455	0.1	-0.79598
8231	7.9	2.3636	0.1	36.779
8232	7.9	2.1818	0.1	-161.18
8233	8.0667	5.8182	0.1	-10.075
8234	8.0667	5.6364	0.1	-14.529
8235	8.0667	5.4545	0.1	-14.786
8236	8.0667	5.2727	0.1	-16.476
8237	8.0667	5.0909	0.1	-19.23
8238	8.0667	4.9091	0.1	-21.651
8239	8.0667	4.7273	0.1	-31.837
8240	8.0667	4.5455	0.1	-28.409
8241	8.0667	4.3636	0.1	-111.03
8242	8.0667	4.1818	0.1	18.522
8243	8.0667	4.	0.1	1147.7
8244	7.9	4.	0.1	842.99
8245	7.9	4.1818	0.1	16.595
8246	7.9	4.3636	0.1	-117.99
8247	7.9	4.5455	0.1	-30.776
8248	7.9	4.7273	0.1	-35.465
8249	7.9	4.9091	0.1	-24.573
8250	7.9	5.0909	0.1	-22.216
8251	7.9	5.2727	0.1	-19.354
8252	7.9	5.4545	0.1	-17.61
8253	7.9	5.6364	0.1	-17.388
8254	7.9	5.8182	0.1	-12.72
8255	8.0667	0.18182	0.1	-10.075
8256	8.0667	0.36364	0.1	-14.529
8257	8.0667	0.54545	0.1	-14.786
8258	8.0667	0.72727	0.1	-16.476
8259	8.0667	0.90909	0.1	-19.23
8260	8.0667	1.0909	0.1	-21.651
8261	8.0667	1.2727	0.1	-31.837
8262	8.0667	1.4545	0.1	-28.409
8263	8.0667	1.6364	0.1	-111.03
8264	8.0667	1.8182	0.1	18.522
8265	8.0667	2.	0.1	1147.7
8266	7.9	2.	0.1	842.99
8267	7.9	1.8182	0.1	16.595
8268	7.9	1.6364	0.1	-117.99
8269	7.9	1.4545	0.1	-30.776
8270	7.9	1.2727	0.1	-35.465
8271	7.9	1.0909	0.1	-24.573
8272	7.9	0.90909	0.1	-22.216
8273	7.9	0.72727	0.1	-19.354
8274	7.9	0.54545	0.1	-17.61
8275	7.9	0.36364	0.1	-17.388
8276	7.9	0.18182	0.1	-12.72
8277	8.0667	6.	0.1	31.529
8278	8.2498	6.	0.1	3.4259
8279	8.433	6.	0.1	-2.7139
8280	8.6161	6.	0.1	-0.6366
8281	8.7992	6.	0.1	-0.13551
8282	8.9824	6.	0.1	0.50302
8283	9.1655	6.	0.1	0.82628
8284	9.3487	6.	0.1	0.98677
8285	9.5318	6.	0.1	1.0094
8286	9.7149	6.	0.1	0.94789
8287	9.8981	6.	0.1	0.8376
8288	10.081	6.	0.1	0.70534
8289	10.264	6.	0.1	0.56853
8290	10.448	6.	0.1	0.43798
8291	10.631	6.	0.1	0.31972
8292	10.814	6.	0.1	0.21652
8293	10.997	6.	0.1	0.12913
8294	11.18	6.	0.1	5.7039e-002
8295	11.363	6.	0.1	-9.7094e-004
8296	11.546	6.	0.1	-4.6474e-002
8297	11.73	6.	0.1	-8.1073e-002
8298	11.913	6.	0.1	-0.10643
8299	12.096	6.	0.1	-0.12408
8300	12.279	6.	0.1	-0.1354
8301	12.462	6.	0.1	-0.14158
8302	12.645	6.	0.1	-0.14368
8303	12.828	6.	0.1	-0.14259
8304	13.011	6.	0.1	-0.13899
8305	13.195	6.	0.1	-0.13351
8306	13.378	6.	0.1	-0.12667
8307	13.561	6.	0.1	-0.11884
8308	13.744	6.	0.1	-0.11037
8309	13.927	6.	0.1	-0.10149
8310	14.11	6.	0.1	-9.2392e-002
8311	14.293	6.	0.1	-8.3266e-002
8312	14.477	6.	0.1	-7.4209e-002
8313	14.66	6.	0.1	-6.5296e-002
8314	14.843	6.	0.1	-5.6596e-002
8315	15.026	6.	0.1	-4.8153e-002
8316	15.209	6.	0.1	-3.9985e-002
8317	15.392	6.	0.1	-3.2082e-002
8318	15.575	6.	0.1	-2.4485e-002
8319	15.759	6.	0.1	-1.7173e-002
8320	15.942	6.	0.1	-1.0121e-002
8321	16.125	6.	0.1	-3.3228e-003
8322	16.308	6.	0.1	3.2486e-003
8323	16.491	6.	0.1	9.6195e-003
8324	16.674	6.	0.1	1.5808e-002
8325	16.857	6.	0.1	2.1834e-002
8326	17.041	6.	0.1	2.7753e-002
8327	17.224	6.	0.1	3.3584e-002
8328	17.407	6.	0.1	3.9346e-002
8329	17.59	6.	0.1	4.5083e-002
8330	17.773	6.	0.1	5.0829e-002
8331	17.956	6.	0.1	5.661e-002
8332	18.139	6.	0.1	6.2451e-002
8333	18.323	6.	0.1	6.8411e-002
8334	18.506	6.	0.1	7.4516e-002
8335	18.689	6.	0.1	8.08e-002
8336	18.872	6.	0.1	8.7305e-002
8337	19.055	6.	0.1	9.4068e-002
8338	19.238	6.	0.1	0.10113
8339	19.421	6.	0.1	0.10856
8340	19.605	6.	0.1	0.11638
8341	19.788	6.	0.1	0.12464
8342	19.971	6.	0.1	0.13342
8343	20.154	6.	0.1	0.14276
8344	20.337	6.	0.1	0.15273
8345	20.52	6.	0.1	0.16341
8346	20.703	6.	0.1	0.17489
8347	20.887	6.	0.1	0.18725
8348	21.07	6.	0.1	0.20059
8349	21.253	6.	0.1	0.21507
8350	21.436	6.	0.1	0.2308
8351	21.619	6.	0.1	0.24799
8352	21.802	6.	0.1	0.26685
8353	21.985	6.	0.1	0.28765
8354	22.169	6.	0.1	0.31074
8355	22.352	6.	0.1	0.33659
8356	22.535	6.	0.1	0.3658
8357	22.718	6.	0.1	0.3993
8358	22.901	6.	0.1	0.43809
8359	23.084	6.	0.1	0.48496
8360	23.267	6.	0.1	0.539
8361	23.451	6.	0.1	0.6235
8362	23.634	6.	0.1	0.69908
8363	23.817	6.	0.1	1.0573
8364	24.	6.	0.1	-1.0599
8365	24.	5.8182	0.1	-2.1536
8366	24.	5.6364	0.1	-2.1876
8367	24.	5.4545	0.1	-2.3919
8368	24.	5.2727	0.1	-2.425
8369	24.	5.0909	0.1	-2.4625
8370	24.	4.9091	0.1	-2.4843
8371	24.	4.7273	0.1	-2.5017
8372	24.	4.5455	0.1	-2.5147
8373	24.	4.3636	0.1	-2.5248
8374	24.	4.1818	0.1	-2.5327
8375	24.	4.	0.1	-2.5389
8376	24.	3.8182	0.1	-2.5437
8377	24.	3.6364	0.1	-2.5474
8378	24.	3.4545	0.1	-2.55
8379	24.	3.2727	0.1	-2.5517
8380	24.	3.0909	0.1	-2.5525
8381	24.	2.9091	0.1	-2.5525
8382	24.	2.7273	0.1	-2.5517
8383	24.	2.5455	0.1	-2.55
8384	24.	2.3636	0.1	-2.5474
8385	24.	2.1818	0.1	-2.5437
8386	24.	2.	0.1	-2.5389
8387	24.	1.8182	0.1	-2.5327
8388	24.	1.6364	0.1	-2.5248
8389	24.	1.4545	0.1	-2.5147
8390	24.	1.2727	0.1	-2.5017
8391	24.	1.0909	0.1	-2.4843
8392	24.	0.90909	0.1	-2.4625
8393	24.	0.72727	0.1	-2.425
8394	24.	0.54545	0.1	-2.3919
8395	24.	0.36364	0.1	-2.1876
8396	24.	0.18182	0.1	-2.1536
8397	1.5894e-015	0.18182	0.1	1196.5
8398	3.1789e-015	0.36364	0.1	2311.4
8399	4.7683e-015	0.54545	0.1	2828.3
8400	6.3578e-015	0.72727	0.1	3137.6
8401	7.9472e-015	0.90909	0.1	3344.8
8402	9.5366e-015	1.0909	0.1	3493.4
8403	1.1126e-014	1.2727	0.1	3603.5
8404	1.2716e-014	1.4545	0.1	3687.1
8405	1.4305e-014	1.6364	0.1	3751.4
8406	1.5894e-014	1.8182	0.1	3801.3
8407	1.7484e-014	2.	0.1	3840.
8408	1.9073e-014	2.1818	0.1	3869.5
8409	2.0663e-014	2.3636	0.1	3891.6
8410	2.2252e-014	2.5455	0.1	3907.3
8411	2.3842e-014	2.7273	0.1	3917.4
8412	2.5431e-014	2.9091	0.1	3922.2
8413	2.702e-014	3.0909	0.1	3922.2
8414	2.861e-014	3.2727	0.1	3917.4
8415	3.0199e-014	3.4545	0.1	3907.3
8416	3.1789e-014	3.6364	0.1	3891.6
8417	3.3378e-014	3.8182	0.1	3869.5
8418	3.4968e-014	4.	0.1	3840.
8419	3.6557e-014	4.1818	0.1	3801.3
8420	3.8147e-014	4.3636	0.1	3751.4
8421	3.9736e-014	4.5455	0.1	3687.1
8422	4.1325e-014	4.7273	0.1	3603.5
8423	4.2915e-014	4.9091	0.1	3493.4
8424	4.4504e-014	5.0909	0.1	3344.8
8425	4.6094e-014	5.2727	0.1	3137.6
8426	4.7683e-014	5.4545	0.1	2828.3
8427	4.9273e-014	5.6364	0.1	2311.4
8428	5.0862e-014	5.8182	0.1	1196.5
8429	24.	0.	0.1	-1.0599
8430	23.817	0.	0.1	1.0573
8431	23.634	0.	0.1	0.69908
8432	23.451	0.	0.1	0.6235
8433	23.267	0.	0.1	0.539
8434	23.084	0.	0.1	0.48497
8435	22.901	0.	0.1	0.43809
8436	22.718	0.	0.1	0.3993
8437	22.535	0.	0.1	0.36581
8438	22.352	0.	0.1	0.33659
8439	22.169	0.	0.1	0.31073
8440	21.985	0.	0.1	0.28765
8441	21.802	0.	0.1	0.26685
8442	21.619	0.	0.1	0.24799
8443	21.436	0.	0.1	0.23081
8444	21.253	0.	0.1	0.21507
8445	21.07	0.	0.1	0.20059
8446	20.887	0.	0.1	0.18725
8447	20.703	0.	0.1	0.17489
8448	20.52	0.	0.1	0.16341
8449	20.337	0.	0.1	0.15273
8450	20.154	0.	0.1	0.14276
8451	19.971	0.	0.1	0.13342
8452	19.788	0.	0.1	0.12464
8453	19.605	0.	0.1	0.11638
8454	19.421	0.	0.1	0.10856
8455	19.238	0.	0.1	0.10114
8456	19.055	0.	0.1	9.4069e-002
8457	18.872	0.	0.1	8.7306e-002
8458	18.689	0.	0.1	8.0801e-002
8459	18.506	0.	0.1	7.4518e-002
8460	18.323	0.	0.1	6.8413e-002
8461	18.139	0.	0.1	6.2453e-002
8462	17.956	0.	0.1	5.6611e-002
8463	17.773	0.	0.1	5.0829e-002
8464	17.59	0.	0.1	4.5083e-002
8465	17.407	0.	0.1	3.9347e-002
8466	17.224	0.	0.1	3.3583e-002
8467	17.041	0.	0.1	2.7753e-002
8468	16.857	0.	0.1	2.1837e-002
8469	16.674	0.	0.1	1.581e-002
8470	16.491	0.	0.1	9.6217e-003
8471	16.308	0.	0.1	3.249e-003
8472	16.125	0.	0.1	-3.3224e-003
8473	15.942	0.	0.1	-1.0122e-002
8474	15.759	0.	0.1	-1.7173e-002
8475	15.575	0.	0.1	-2.4484e-002
8476	15.392	0.	0.1	-3.208e-002
8477	15.209	0.	0.1	-3.9984e-002
8478	15.026	0.	0.1	-4.8152e-002
8479	14.843	0.	0.1	-5.6595e-002
8480	14.66	0.	0.1	-6.5296e-002
8481	14.477	0.	0.1	-7.4208e-002
8482	14.293	0.	0.1	-8.3265e-002
8483	14.11	0.	0.1	-9.2392e-002
8484	13.927	0.	0.1	-0.10149
8485	13.744	0.	0.1	-0.11037
8486	13.561	0.	0.1	-0.11884
8487	13.378	0.	0.1	-0.12667
8488	13.195	0.	0.1	-0.13351
8489	13.011	0.	0.1	-0.13899
8490	12.828	0.	0.1	-0.14259
8491	12.645	0.	0.1	-0.14368
8492	12.462	0.	0.1	-0.14158
8493	12.279	0.	0.1	-0.1354
8494	12.096	0.	0.1	-0.12408
8495	11.913	0.	0.1	-0.10643
8496	11.73	0.	0.1	-8.1073e-002
8497	11.546	0.	0.1	-4.6475e-002
8498	11.363	0.	0.1	-9.7173e-004
8499	11.18	0.	0.1	5.7039e-002
8500	10.997	0.	0.1	0.12913
8501	10.814	0.	0.1	0.21652
8502	10.631	0.	0.1	0.31972
8503	10.448	0.	0.1	0.43798
8504	10.264	0.	0.1	0.56853
8505	10.081	0.	0.1	0.70534
8506	9.8981	0.	0.1	0.8376
8507	9.7149	0.	0.1	0.94788
8508	9.5318	0.	0.1	1.0094
8509	9.3487	0.	0.1	0.98676
8510	9.1655	0.	0.1	0.82628
8511	8.9824	0.	0.1	0.50302
8512	8.7992	0.	0.1	-0.13551
8513	8.6161	0.	0.1	-0.6366
8514	8.433	0.	0.1	-2.7139
8515	8.2498	0.	0.1	3.4259
8516	8.0667	0.	0.1	31.529
8517	7.9	0.	0.1	36.264
8518	7.7163	1.5405e-030	0.1	4.5255
8519	7.5326	1.5038e-030	0.1	-2.4259
8520	7.3488	1.4671e-030	0.1	-9.5008e-002
8521	7.1651	1.4304e-030	0.1	0.40794
8522	6.9814	1.3938e-030	0.1	1.085
8523	6.7977	1.3571e-030	0.1	1.3924
8524	6.614	1.3204e-030	0.1	1.5076
8525	6.4302	1.2837e-030	0.1	1.4569
8526	6.2465	1.247e-030	0.1	1.302
8527	6.0628	1.2104e-030	0.1	1.0841
8528	5.8791	1.1737e-030	0.1	0.83482
8529	5.6953	1.137e-030	0.1	0.57578
8530	5.5116	1.1003e-030	0.1	0.32217
8531	5.3279	1.0637e-030	0.1	8.9705e-002
8532	5.1442	1.027e-030	0.1	-5.8019e-002
8533	4.9605	9.903e-031	0.1	0.229
8534	4.7767	9.5362e-031	0.1	0.71977
8535	4.593	9.1694e-031	0.1	1.1272
8536	4.4093	8.8026e-031	0.1	1.4122
8537	4.2256	8.4359e-031	0.1	1.5554
8538	4.0419	8.0691e-031	0.1	1.5365
8539	3.8581	7.7023e-031	0.1	1.3325
8540	3.6744	7.3355e-031	0.1	0.91882
8541	3.4907	6.9688e-031	0.1	0.27472
8542	3.307	6.602e-031	0.1	-0.59014
8543	3.1233	6.2352e-031	0.1	-1.5234
8544	2.9395	5.8684e-031	0.1	-2.1779
8545	2.7558	5.5016e-031	0.1	-2.5805
8546	2.5721	5.1349e-031	0.1	-2.9057
8547	2.3884	4.7681e-031	0.1	-3.2175
8548	2.2047	4.4013e-031	0.1	-3.5389
8549	2.0209	4.0345e-031	0.1	-3.8831
8550	1.8372	3.6678e-031	0.1	-4.2594
8551	1.6535	3.301e-031	0.1	-4.6823
8552	1.4698	2.9342e-031	0.1	-5.1523
8553	1.286	2.5674e-031	0.1	-5.7328
8554	1.1023	2.2007e-031	0.1	-6.2937
8555	0.9186	1.8339e-031	0.1	-7.367
8556	0.73488	1.4671e-031	0.1	-7.5274
8557	0.55116	1.1003e-031	0.1	-10.295
8558	0.36744	7.3355e-032	0.1	-16.47
8559	0.18372	3.6678e-032	0.1	51.608
8560	0.	0.	0.1	-353.48
8561	3.937e-014	6.	0.1	-353.48
8562	0.18372	6.	0.1	51.609
8563	0.36744	6.	0.1	-16.47
8564	0.55116	6.	0.1	-10.295
8565	0.73488	6.	0.1	-7.5274
8566	0.9186	6.	0.1	-7.367
8567	1.1023	6.	0.1	-6.2937
8568	1.286	6.	0.1	-5.7328
8569	1.4698	6.	0.1	-5.1523
8570	1.6535	6.	0.1	-4.6823
8571	1.8372	6.	0.1	-4.2594
8572	2.0209	6.	0.1	-3.8831
8573	2.2047	6.	0.1	-3.5389
8574	2.3884	6.	0.1	-3.2175
8575	2.5721	6.	0.1	-2.9057
8576	2.7558	6.	0.1	-2.5805
8577	2.9395	6.	0.1	-2.1779
8578	3.1233	6.	0.1	-1.5234
8579	3.307	6.	0.1	-0.59015
8580	3.4907	6.	0.1	0.27471
8581	3.6744	6.	0.1	0.91881
8582	3.8581	6.	0.1	1.3325
8583	4.0419	6.	0.1	1.5364
8584	4.2256	6.	0.1	1.5554
8585	4.4093	6.	0.1	1.4122
8586	4.593	6.	0.1	1.1272
8587	4.7767	6.	0.1	0.71977
8588	4.9605	6.	0.1	0.229
8589	5.1442	6.	0.1	-5.8018e-002
8590	5.3279	6.	0.1	8.9705e-002
8591	5.5116	6.	0.1	0.32217
8592	5.6953	6.	0.1	0.57578
8593	5.8791	6.	0.1	0.83482
8594	6.0628	6.	0.1	1.0841
8595	6.2465	6.	0.1	1.302
8596	6.4302	6.	0.1	1.4569
8597	6.614	6.	0.1	1.5076
8598	6.7977	6.	0.1	1.3924
8599	6.9814	6.	0.1	1.085
8600	7.1651	6.	0.1	0.40794
8601	7.3488	6.	0.1	-9.5007e-002
8602	7.5326	6.	0.1	-2.4259
8603	7.7163	6.	0.1	4.5255
8604	7.9	6.	0.1	36.264
8605	7.7163	6.	0.	-4.5255
8606	7.5326	6.	0.	2.4259
8607	7.3488	6.	0.	9.5007e-002
8608	7.1651	6.	0.	-0.40794
8609	6.9814	6.	0.	-1.085
8610	6.7977	6.	0.	-1.3924
8611	6.614	6.	0.	-1.5076
8612	6.4302	6.	0.	-1.4569
8613	6.2465	6.	0.	-1.302
8614	6.0628	6.	0.	-1.0841
8615	5.8791	6.	0.	-0.83482
8616	5.6953	6.	0.	-0.57578
8617	5.5116	6.	0.	-0.32217
8618	5.3279	6.	0.	-8.9705e-002
8619	5.1442	6.	0.	5.8018e-002
8620	4.9605	6.	0.	-0.229
8621	4.7767	6.	0.	-0.71977
8622	4.593	6.	0.	-1.1272
8623	4.4093	6.	0.	-1.4122
8624	4.2256	6.	0.	-1.5554
8625	4.0419	6.	0.	-1.5364
8626	3.8581	6.	0.	-1.3325
8627	3.6744	6.	0.	-0.91881
8628	3.4907	6.	0.	-0.27471
8629	3.307	6.	0.	0.59015
8630	3.1233	6.	0.	1.5234
8631	2.9395	6.	0.	2.1779
8632	2.7558	6.	0.	2.5805
8633	2.5721	6.	0.	2.9057
8634	2.3884	6.	0.	3.2175
8635	2.2047	6.	0.	3.5389
8636	2.0209	6.	0.	3.8831
8637	1.8372	6.	0.	4.2594
8638	1.6535	6.	0.	4.6823
8639	1.4698	6.	0.	5.1523
8640	1.286	6.	0.	5.7328
8641	1.1023	6.	0.	6.2937
8642	0.9186	6.	0.	7.367
8643	0.73488	6.	0.	7.5274
8644	0.55116	6.	0.	10.295
8645	0.36744	6.	0.	16.47
8646	0.18372	6.	0.	-51.609
8647	7.9	6.	0.	-36.264
8648	3.937e-014	6.	0.	353.48
8649	0.18372	3.6678e-032	0.	-51.608
8650	0.36744	7.3355e-032	0.	16.47
8651	0.55116	1.1003e-031	0.	10.295
8652	0.73488	1.4671e-031	0.	7.5274
8653	0.9186	1.8339e-031	0.	7.367
8654	1.1023	2.2007e-031	0.	6.2937
8655	1.286	2.5674e-031	0.	5.7328
8656	1.4698	2.9342e-031	0.	5.1523
8657	1.6535	3.301e-031	0.	4.6823
8658	1.8372	3.6678e-031	0.	4.2594
8659	2.0209	4.0345e-031	0.	3.8831
8660	2.2047	4.4013e-031	0.	3.5389
8661	2.3884	4.7681e-031	0.	3.2175
8662	2.5721	5.1349e-031	0.	2.9057
8663	2.7558	5.5016e-031	0.	2.5805
8664	2.9395	5.8684e-031	0.	2.1779
8665	3.1233	6.2352e-031	0.	1.5234
8666	3.307	6.602e-031	0.	0.59014
8667	3.4907	6.9688e-031	0.	-0.27472
8668	3.6744	7.3355e-031	0.	-0.91882
8669	3.8581	7.7023e-031	0.	-1.3325
8670	4.0419	8.0691e-031	0.	-1.5365
8671	4.2256	8.4359e-031	0.	-1.5554
8672	4.4093	8.8026e-031	0.	-1.4122
8673	4.593	9.1694e-031	0.	-1.1272
8674	4.7767	9.5362e-031	0.	-0.71977
8675	4.9605	9.903e-031	0.	-0.229
8676	5.1442	1.027e-030	0.	5.8019e-002
8677	5.3279	1.0637e-030	0.	-8.9705e-002
8678	5.5116	1.1003e-030	0.	-0.32217
8679	5.6953	1.137e-030	0.	-0.57578
8680	5.8791	1.1737e-030	0.	-0.83482
8681	6.0628	1.2104e-030	0.	-1.0841
8682	6.2465	1.247e-030	0.	-1.302
8683	6.4302	1.2837e-030	0.	-1.4569
8684	6.614	1.3204e-030	0.	-1.5076
8685	6.7977	1.3571e-030	0.	-1.3924
8686	6.9814	1.3938e-030	0.	-1.085
8687	7.1651	1.4304e-030	0.	-0.40794
8688	7.3488	1.4671e-030	0.	9.5008e-002
8689	7.5326	1.5038e-030	0.	2.4259
8690	7.7163	1.5405e-030	0.	-4.5255
8691	7.9	0.	0.	-36.264
8692	0.	0.	0.	353.48
8693	8.2498	0.	0.	-3.4259
8694	8.433	0.	0.	2.7139
8695	8.6161	0.	0.	0.6366
8696	8.7992	0.	0.	0.13551
8697	8.9824	0.	0.	-0.50302
8698	9.1655	0.	0.	-0.82628
8699	9.3487	0.	0.	-0.98676
8700	9.5318	0.	0.	-1.0094
8701	9.7149	0.	0.	-0.94788
8702	9.8981	0.	0.	-0.8376
8703	10.081	0.	0.	-0.70534
8704	10.264	0.	0.	-0.56853
8705	10.448	0.	0.	-0.43798
8706	10.631	0.	0.	-0.31972
8707	10.814	0.	0.	-0.21652
8708	10.997	0.	0.	-0.12913
8709	11.18	0.	0.	-5.7039e-002
8710	11.363	0.	0.	9.723e-004
8711	11.546	0.	0.	4.6475e-002
8712	11.73	0.	0.	8.1073e-002
8713	11.913	0.	0.	0.10643
8714	12.096	0.	0.	0.12408
8715	12.279	0.	0.	0.1354
8716	12.462	0.	0.	0.14158
8717	12.645	0.	0.	0.14368
8718	12.828	0.	0.	0.14259
8719	13.011	0.	0.	0.13899
8720	13.195	0.	0.	0.13351
8721	13.378	0.	0.	0.12667
8722	13.561	0.	0.	0.11884
8723	13.744	0.	0.	0.11037
8724	13.927	0.	0.	0.10149
8725	14.11	0.	0.	9.2393e-002
8726	14.293	0.	0.	8.3264e-002
8727	14.477	0.	0.	7.4208e-002
8728	14.66	0.	0.	6.5297e-002
8729	14.843	0.	0.	5.6596e-002
8730	15.026	0.	0.	4.8154e-002
8731	15.209	0.	0.	3.9984e-002
8732	15.392	0.	0.	3.2081e-002
8733	15.575	0.	0.	2.4485e-002
8734	15.759	0.	0.	1.7174e-002
8735	15.942	0.	0.	1.0123e-002
8736	16.125	0.	0.	3.3241e-003
8737	16.308	0.	0.	-3.2474e-003
8738	16.491	0.	0.	-9.6193e-003
8739	16.674	0.	0.	-1.581e-002
8740	16.857	0.	0.	-2.1834e-002
8741	17.041	0.	0.	-2.7753e-002
8742	17.224	0.	0.	-3.3583e-002
8743	17.407	0.	0.	-3.9347e-002
8744	17.59	0.	0.	-4.5083e-002
8745	17.773	0.	0.	-5.083e-002
8746	17.956	0.	0.	-5.661e-002
8747	18.139	0.	0.	-6.2452e-002
8748	18.323	0.	0.	-6.841e-002
8749	18.506	0.	0.	-7.4517e-002
8750	18.689	0.	0.	-8.08e-002
8751	18.872	0.	0.	-8.7304e-002
8752	19.055	0.	0.	-9.4067e-002
8753	19.238	0.	0.	-0.10114
8754	19.421	0.	0.	-0.10856
8755	19.605	0.	0.	-0.11638
8756	19.788	0.	0.	-0.12464
8757	19.971	0.	0.	-0.13342
8758	20.154	0.	0.	-0.14276
8759	20.337	0.	0.	-0.15273
8760	20.52	0.	0.	-0.16341
8761	20.703	0.	0.	-0.17489
8762	20.887	0.	0.	-0.18724
8763	21.07	0.	0.	-0.20059
8764	21.253	0.	0.	-0.21507
8765	21.436	0.	0.	-0.2308
8766	21.619	0.	0.	-0.24799
8767	21.802	0.	0.	-0.26685
8768	21.985	0.	0.	-0.28765
8769	22.169	0.	0.	-0.31074
8770	22.352	0.	0.	-0.33659
8771	22.535	0.	0.	-0.3658
8772	22.718	0.	0.	-0.3993
8773	22.901	0.	0.	-0.43809
8774	23.084	0.	0.	-0.48496
8775	23.267	0.	0.	-0.539
8776	23.451	0.	0.	-0.6235
8777	23.634	0.	0.	-0.69908
8778	23.817	0.	0.	-1.0573
8779	8.0667	0.	0.	-31.529
8780	24.	0.	0.	1.0599
8781	5.0862e-014	5.8182	0.	-1196.5
8782	4.9273e-014	5.6364	0.	-2311.4
8783	4.7683e-014	5.4545	0.	-2828.3
8784	4.6094e-014	5.2727	0.	-3137.6
8785	4.4504e-014	5.0909	0.	-3344.8
8786	4.2915e-014	4.9091	0.	-3493.4
8787	4.1325e-014	4.7273	0.	-3603.5
8788	3.9736e-014	4.5455	0.	-3687.1
8789	3.8147e-014	4.3636	0.	-3751.4
8790	3.6557e-014	4.1818	0.	-3801.3
8791	3.4968e-014	4.	0.	-3840.
8792	3.3378e-014	3.8182	0.	-3869.5
8793	3.1789e-014	3.6364	0.	-3891.6
8794	3.0199e-014	3.4545	0.	-3907.3
8795	2.861e-014	3.2727	0.	-3917.4
8796	2.702e-014	3.0909	0.	-3922.2
8797	2.5431e-014	2.9091	0.	-3922.2
8798	2.3842e-014	2.7273	0.	-3917.4
8799	2.2252e-014	2.5455	0.	-3907.3
8800	2.0663e-014	2.3636	0.	-3891.6
8801	1.9073e-014	2.1818	0.	-3869.5
8802	1.7484e-014	2.	0.	-3840.
8803	1.5894e-014	1.8182	0.	-3801.3
8804	1.4305e-014	1.6364	0.	-3751.4
8805	1.2716e-014	1.4545	0.	-3687.1
8806	1.1126e-014	1.2727	0.	-3603.5
8807	9.5366e-015	1.0909	0.	-3493.4
8808	7.9472e-015	0.90909	0.	-3344.8
8809	6.3578e-015	0.72727	0.	-3137.6
8810	4.7683e-015	0.54545	0.	-2828.3
8811	3.1789e-015	0.36364	0.	-2311.4
8812	1.5894e-015	0.18182	0.	-1196.5
8813	24.	0.18182	0.	2.1536
8814	24.	0.36364	0.	2.1876
8815	24.	0.54545	0.	2.3919
8816	24.	0.72727	0.	2.425
8817	24.	0.90909	0.	2.4625
8818	24.	1.0909	0.	2.4843
8819	24.	1.2727	0.	2.5017
8820	24.	1.4545	0.	2.5147
8821	24.	1.6364	0.	2.5248
8822	24.	1.8182	0.	2.5327
8823	24.	2.	0.	2.5389
8824	24.	2.1818	0.	2.5437
8825	24.	2.3636	0.	2.5474
8826	24.	2.5455	0.	2.55
8827	24.	2.7273	0.	2.5517
8828	24.	2.9091	0.	2.5525
8829	24.	3.0909	0.	2.5525
8830	24.	3.2727	0.	2.5517
8831	24.	3.4545	0.	2.55
8832	24.	3.6364	0.	2.5474
8833	24.	3.8182	0.	2.5437
8834	24.	4.	0.	2.5389
8835	24.	4.1818	0.	2.5327
8836	24.	4.3636	0.	2.5248
8837	24.	4.5455	0.	2.5147
8838	24.	4.7273	0.	2.5017
8839	24.	4.9091	0.	2.4843
8840	24.	5.0909	0.	2.4625
8841	24.	5.2727	0.	2.425
8842	24.	5.4545	0.	2.3919
8843	24.	5.6364	0.	2.1876
8844	24.	5.8182	0.	2.1536
8845	24.	6.	0.	1.0599
8846	23.817	6.	0.	-1.0573
8847	23.634	6.	0.	-0.69908
8848	23.451	6.	0.	-0.6235
8849	23.267	6.	0.	-0.539
8850	23.084	6.	0.	-0.48496
8851	22.901	6.	0.	-0.43809
8852	22.718	6.	0.	-0.3993
8853	22.535	6.	0.	-0.3658
8854	22.352	6.	0.	-0.33659
8855	22.169	6.	0.	-0.31074
8856	21.985	6.	0.	-0.28765
8857	21.802	6.	0.	-0.26685
8858	21.619	6.	0.	-0.24799
8859	21.436	6.	0.	-0.2308
8860	21.253	6.	0.	-0.21507
8861	21.07	6.	0.	-0.20059
8862	20.887	6.	0.	-0.18725
8863	20.703	6.	0.	-0.17489
8864	20.52	6.	0.	-0.16341
8865	20.337	6.	0.	-0.15273
8866	20.154	6.	0.	-0.14276
8867	19.971	6.	0.	-0.13342
8868	19.788	6.	0.	-0.12464
8869	19.605	6.	0.	-0.11638
8870	19.421	6.	0.	-0.10856
8871	19.238	6.	0.	-0.10113
8872	19.055	6.	0.	-9.4066e-002
8873	18.872	6.	0.	-8.7305e-002
8874	18.689	6.	0.	-8.08e-002
8875	18.506	6.	0.	-7.4517e-002
8876	18.323	6.	0.	-6.8411e-002
8877	18.139	6.	0.	-6.245e-002
8878	17.956	6.	0.	-5.6609e-002
8879	17.773	6.	0.	-5.0828e-002
8880	17.59	6.	0.	-4.5082e-002
8881	17.407	6.	0.	-3.9347e-002
8882	17.224	6.	0.	-3.3582e-002
8883	17.041	6.	0.	-2.7753e-002
8884	16.857	6.	0.	-2.1833e-002
8885	16.674	6.	0.	-1.581e-002
8886	16.491	6.	0.	-9.6196e-003
8887	16.308	6.	0.	-3.2489e-003
8888	16.125	6.	0.	3.3223e-003
8889	15.942	6.	0.	1.0122e-002
8890	15.759	6.	0.	1.7174e-002
8891	15.575	6.	0.	2.4486e-002
8892	15.392	6.	0.	3.2081e-002
8893	15.209	6.	0.	3.9983e-002
8894	15.026	6.	0.	4.8154e-002
8895	14.843	6.	0.	5.6596e-002
8896	14.66	6.	0.	6.5296e-002
8897	14.477	6.	0.	7.4209e-002
8898	14.293	6.	0.	8.3267e-002
8899	14.11	6.	0.	9.2392e-002
8900	13.927	6.	0.	0.10149
8901	13.744	6.	0.	0.11037
8902	13.561	6.	0.	0.11884
8903	13.378	6.	0.	0.12667
8904	13.195	6.	0.	0.13351
8905	13.011	6.	0.	0.13899
8906	12.828	6.	0.	0.14259
8907	12.645	6.	0.	0.14368
8908	12.462	6.	0.	0.14159
8909	12.279	6.	0.	0.1354
8910	12.096	6.	0.	0.12408
8911	11.913	6.	0.	0.10643
8912	11.73	6.	0.	8.1073e-002
8913	11.546	6.	0.	4.6474e-002
8914	11.363	6.	0.	9.7142e-004
8915	11.18	6.	0.	-5.7039e-002
8916	10.997	6.	0.	-0.12913
8917	10.814	6.	0.	-0.21652
8918	10.631	6.	0.	-0.31972
8919	10.448	6.	0.	-0.43798
8920	10.264	6.	0.	-0.56853
8921	10.081	6.	0.	-0.70534
8922	9.8981	6.	0.	-0.8376
8923	9.7149	6.	0.	-0.94789
8924	9.5318	6.	0.	-1.0094
8925	9.3487	6.	0.	-0.98677
8926	9.1655	6.	0.	-0.82628
8927	8.9824	6.	0.	-0.50302
8928	8.7992	6.	0.	0.13551
8929	8.6161	6.	0.	0.6366
8930	8.433	6.	0.	2.7139
8931	8.2498	6.	0.	-3.4259
8932	8.0667	6.	0.	-31.529
8933	7.9	1.8182	0.	-16.595
8934	7.9	1.6364	0.	117.99
8935	7.9	1.4545	0.	30.776
8936	7.9	1.2727	0.	35.465
8937	7.9	1.0909	0.	24.573
8938	7.9	0.90909	0.	22.216
8939	7.9	0.72727	0.	19.354
8940	7.9	0.54545	0.	17.61
8941	7.9	0.36364	0.	17.388
8942	7.9	0.18182	0.	12.72
8943	7.9	2.	0.	-842.99
8944	8.0667	0.18182	0.	10.075
8945	8.0667	0.36364	0.	14.529
8946	8.0667	0.54545	0.	14.786
8947	8.0667	0.72727	0.	16.476
8948	8.0667	0.90909	0.	19.23
8949	8.0667	1.0909	0.	21.651
8950	8.0667	1.2727	0.	31.837
8951	8.0667	1.4545	0.	28.409
8952	8.0667	1.6364	0.	111.03
8953	8.0667	1.8182	0.	-18.522
8954	8.0667	2.	0.	-1147.7
8955	7.9	4.1818	0.	-16.595
8956	7.9	4.3636	0.	117.99
8957	7.9	4.5455	0.	30.776
8958	7.9	4.7273	0.	35.465
8959	7.9	4.9091	0.	24.573
8960	7.9	5.0909	0.	22.216
8961	7.9	5.2727	0.	19.354
8962	7.9	5.4545	0.	17.61
8963	7.9	5.6364	0.	17.388
8964	7.9	5.8182	0.	12.72
8965	7.9	4.	0.	-842.99
8966	8.0667	5.8182	0.	10.075
8967	8.0667	5.6364	0.	14.529
8968	8.0667	5.4545	0.	14.786
8969	8.0667	5.2727	0.	16.476
8970	8.0667	5.0909	0.	19.23
8971	8.0667	4.9091	0.	21.651
8972	8.0667	4.7273	0.	31.837
8973	8.0667	4.5455	0.	28.409
8974	8.0667	4.3636	0.	111.03
8975	8.0667	4.1818	0.	-18.522
8976	8.0667	4.	0.	-1147.7
8977	7.9	2.2727	0.	59.804
8978	7.9833	2.1818	0.	120.52
8979	7.8081	2.1818	0.	89.323
8980	7.9	2.1818	5.e-002	1.6079e-004
8981	7.9	2.0909	0.	-384.34
8982	7.9	2.4545	0.	-17.69
8983	7.9833	2.3636	0.	-37.917
8984	7.8081	2.3636	0.	-26.765
8985	7.9	2.3636	5.e-002	1.9953e-004
8986	7.9	2.6364	0.	-1.646
8987	7.9833	2.5455	0.	0.9811
8988	7.8081	2.5455	0.	3.0287
8989	7.9	2.5455	5.e-002	1.4376e-004
8990	7.9	2.8182	0.	-3.1021
8991	7.9833	2.7273	0.	-4.163
8992	7.8081	2.7273	0.	-3.7698
8993	7.9	2.7273	5.e-002	4.2731e-005
8994	7.9	3.	0.	-2.1245
8995	7.9833	2.9091	0.	-2.1093
8996	7.8081	2.9091	0.	-1.4351
8997	7.9	2.9091	5.e-002	5.7056e-005
8998	7.9	3.1818	0.	-3.1021
8999	7.9833	3.0909	0.	-2.1093
9000	7.8081	3.0909	0.	-1.4351
9001	7.9	3.0909	5.e-002	4.3815e-005
9002	7.9	3.3636	0.	-1.646
9003	7.9833	3.2727	0.	-4.163
9004	7.8081	3.2727	0.	-3.7698
9005	7.9	3.2727	5.e-002	8.2586e-006
9006	7.9	3.5455	0.	-17.69
9007	7.9833	3.4545	0.	0.9811
9008	7.8081	3.4545	0.	3.0287
9009	7.9	3.4545	5.e-002	4.8352e-006
9010	7.9	3.7273	0.	59.804
9011	7.9833	3.6364	0.	-37.917
9012	7.8081	3.6364	0.	-26.765
9013	7.9	3.6364	5.e-002	-1.4414e-005
9014	7.9833	3.8182	0.	120.52
9015	7.8081	3.8182	0.	89.322
9016	7.9	3.8182	5.e-002	-2.1617e-005
9017	7.9	3.9091	0.	-384.34
9018	8.0667	2.2727	0.	26.124
9019	8.1582	2.1818	0.	32.668
9020	8.0667	2.1818	5.e-002	1.5076e-004
9021	8.0667	2.0909	0.	-574.33
9022	8.0667	2.4545	0.	-18.507
9023	8.1582	2.3636	0.	-28.298
9024	8.0667	2.3636	5.e-002	1.8866e-004
9025	8.0667	2.6364	0.	-1.4053
9026	8.1582	2.5455	0.	3.1056
9027	8.0667	2.5455	5.e-002	1.7975e-004
9028	8.0667	2.8182	0.	-3.0693
9029	8.1582	2.7273	0.	-3.6557
9030	8.0667	2.7273	5.e-002	2.1841e-005
9031	8.0667	3.	0.	-2.0137
9032	8.1582	2.9091	0.	-1.2302
9033	8.0667	2.9091	5.e-002	4.7551e-005
9034	8.0667	3.1818	0.	-3.0693
9035	8.1582	3.0909	0.	-1.2302
9036	8.0667	3.0909	5.e-002	4.557e-005
9037	8.0667	3.3636	0.	-1.4053
9038	8.1582	3.2727	0.	-3.6557
9039	8.0667	3.2727	5.e-002	3.4145e-005
9040	8.0667	3.5455	0.	-18.507
9041	8.1582	3.4545	0.	3.1056
9042	8.0667	3.4545	5.e-002	1.9543e-005
9043	8.0667	3.7273	0.	26.124
9044	8.1582	3.6364	0.	-28.298
9045	8.0667	3.6364	5.e-002	1.2478e-005
9046	8.1582	3.8182	0.	32.668
9047	8.0667	3.8182	5.e-002	-9.5817e-006
9048	8.0667	3.9091	0.	-574.33
9049	7.7163	5.7273	0.	-15.23
9050	7.6244	5.8182	0.	-15.261
9051	7.7163	5.8182	5.e-002	8.1489e-007
9052	7.7163	5.9091	0.	-14.234
9053	7.8081	5.8182	0.	1.4847
9054	7.7163	5.5455	0.	-8.7596
9055	7.6244	5.6364	0.	-7.6067
9056	7.7163	5.6364	5.e-002	-6.0729e-006
9057	7.8081	5.6364	0.	3.4722
9058	7.7163	5.3636	0.	-7.3196
9059	7.6244	5.4545	0.	-4.9622
9060	7.7163	5.4545	5.e-002	-1.3209e-014
9061	7.8081	5.4545	0.	2.22
9062	7.7163	5.1818	0.	-6.8319
9063	7.6244	5.2727	0.	-3.7737
9064	7.7163	5.2727	5.e-002	-1.3627e-005
9065	7.8081	5.2727	0.	2.1639
9066	7.7163	5.	0.	-7.6718
9067	7.6244	5.0909	0.	-3.4021
9068	7.7163	5.0909	5.e-002	-2.6454e-006
9069	7.8081	5.0909	0.	2.5077
9070	7.7163	4.8182	0.	-7.5051
9071	7.6244	4.9091	0.	-4.0273
9072	7.7163	4.9091	5.e-002	-2.5766e-006
9073	7.8081	4.9091	0.	0.89879
9074	7.7163	4.6364	0.	-15.299
9075	7.6244	4.7273	0.	-2.9747
9076	7.7163	4.7273	5.e-002	-6.4401e-006
9077	7.8081	4.7273	0.	6.6673
9078	7.7163	4.4545	0.	-3.3353
9079	7.6244	4.5455	0.	-12.137
9080	7.7163	4.5455	5.e-002	-1.0172e-005
9081	7.8081	4.5455	0.	-17.415
9082	7.7163	4.2727	0.	-61.131
9083	7.6244	4.3636	0.	11.328
9084	7.7163	4.3636	5.e-002	-7.2299e-005
9085	7.8081	4.3636	0.	72.371
9086	7.7163	4.0909	0.	-361.78
9087	7.6244	4.1818	0.	-62.307
9088	7.7163	4.1818	5.e-002	-6.2006e-006
9089	7.8081	4.1818	0.	-321.63
9090	7.7163	3.9091	0.	-252.87
9091	7.6244	4.	0.	-251.03
9092	7.7163	4.	5.e-002	-4.8453e-005
9093	7.8081	4.	0.	-380.43
9094	7.7163	3.7273	0.	2.3542
9095	7.6244	3.8182	0.	31.396
9096	7.7163	3.8182	5.e-002	1.1099e-005
9097	7.7163	3.5455	0.	-5.7525
9098	7.6244	3.6364	0.	-11.25
9099	7.7163	3.6364	5.e-002	1.3016e-005
9100	7.7163	3.3636	0.	0.99977
9101	7.6244	3.4545	0.	3.3045
9102	7.7163	3.4545	5.e-002	1.3585e-005
9103	7.7163	3.1818	0.	-2.0217
9104	7.6244	3.2727	0.	-1.7541
9105	7.7163	3.2727	5.e-002	4.0279e-005
9106	7.7163	3.	0.	-0.67382
9107	7.6244	3.0909	0.	-0.44826
9108	7.7163	3.0909	5.e-002	3.4443e-005
9109	7.7163	2.8182	0.	-2.0217
9110	7.6244	2.9091	0.	-0.44826
9111	7.7163	2.9091	5.e-002	4.5453e-005
9112	7.7163	2.6364	0.	0.99977
9113	7.6244	2.7273	0.	-1.7541
9114	7.7163	2.7273	5.e-002	5.7434e-005
9115	7.7163	2.4545	0.	-5.7525
9116	7.6244	2.5455	0.	3.3045
9117	7.7163	2.5455	5.e-002	8.3339e-005
9118	7.7163	2.2727	0.	2.3542
9119	7.6244	2.3636	0.	-11.25
9120	7.7163	2.3636	5.e-002	9.8692e-005
9121	7.7163	2.0909	0.	-252.87
9122	7.6244	2.1818	0.	31.396
9123	7.7163	2.1818	5.e-002	5.3017e-005
9124	7.7163	1.9091	0.	-361.78
9125	7.6244	2.	0.	-251.03
9126	7.7163	2.	5.e-002	1.7777e-004
9127	7.8081	2.	0.	-380.43
9128	7.7163	1.7273	0.	-61.131
9129	7.6244	1.8182	0.	-62.307
9130	7.7163	1.8182	5.e-002	2.478e-004
9131	7.8081	1.8182	0.	-321.63
9132	7.7163	1.5455	0.	-3.3353
9133	7.6244	1.6364	0.	11.328
9134	7.7163	1.6364	5.e-002	9.6854e-005
9135	7.8081	1.6364	0.	72.371
9136	7.7163	1.3636	0.	-15.299
9137	7.6244	1.4545	0.	-12.137
9138	7.7163	1.4545	5.e-002	5.3917e-005
9139	7.8081	1.4545	0.	-17.415
9140	7.7163	1.1818	0.	-7.5051
9141	7.6244	1.2727	0.	-2.9747
9142	7.7163	1.2727	5.e-002	1.0304e-005
9143	7.8081	1.2727	0.	6.6673
9144	7.7163	1.	0.	-7.6718
9145	7.6244	1.0909	0.	-4.0273
9146	7.7163	1.0909	5.e-002	3.373e-005
9147	7.8081	1.0909	0.	0.89879
9148	7.7163	0.81818	0.	-6.8319
9149	7.6244	0.90909	0.	-3.4021
9150	7.7163	0.90909	5.e-002	-1.6784e-014
9151	7.8081	0.90909	0.	2.5077
9152	7.7163	0.63636	0.	-7.3196
9153	7.6244	0.72727	0.	-3.7737
9154	7.7163	0.72727	5.e-002	-1.4629e-014
9155	7.8081	0.72727	0.	2.1639
9156	7.7163	0.45455	0.	-8.7596
9157	7.6244	0.54545	0.	-4.9622
9158	7.7163	0.54545	5.e-002	-1.3209e-014
9159	7.8081	0.54545	0.	2.22
9160	7.7163	0.27273	0.	-15.23
9161	7.6244	0.36364	0.	-7.6067
9162	7.7163	0.36364	5.e-002	7.528e-007
9163	7.8081	0.36364	0.	3.4722
9164	7.6244	0.18182	0.	-15.261
9165	7.7163	0.18182	5.e-002	-1.3945e-014
9166	7.7163	9.0909e-002	0.	-14.234
9167	7.8081	0.18182	0.	1.4847
9168	7.5326	5.7273	0.	-4.261
9169	7.4407	5.8182	0.	-3.7514
9170	7.5326	5.8182	5.e-002	-1.1465e-006
9171	7.5326	5.9091	0.	-0.7765
9172	7.5326	5.5455	0.	-1.7732
9173	7.4407	5.6364	0.	-2.549
9174	7.5326	5.6364	5.e-002	-2.4474e-006
9175	7.5326	5.3636	0.	-0.56787
9176	7.4407	5.4545	0.	-1.537
9177	7.5326	5.4545	5.e-002	-1.1136e-014
9178	7.5326	5.1818	0.	0.10241
9179	7.4407	5.2727	0.	-0.89081
9180	7.5326	5.2727	5.e-002	-1.8794e-006
9181	7.5326	5.	0.	0.49866
9182	7.4407	5.0909	0.	-0.66828
9183	7.5326	5.0909	5.e-002	-5.6521e-006
9184	7.5326	4.8182	0.	0.59266
9185	7.4407	4.9091	0.	-0.64443
9186	7.5326	4.9091	5.e-002	-6.47e-006
9187	7.5326	4.6364	0.	0.19847
9188	7.4407	4.7273	0.	-0.90206
9189	7.5326	4.7273	5.e-002	-6.7931e-006
9190	7.5326	4.4545	0.	2.25
9191	7.4407	4.5455	0.	-1.2317
9192	7.5326	4.5455	5.e-002	-1.0967e-005
9193	7.5326	4.2727	0.	10.041
9194	7.4407	4.3636	0.	-2.6669
9195	7.5326	4.3636	5.e-002	-1.8873e-014
9196	7.5326	4.0909	0.	43.866
9197	7.4407	4.1818	0.	4.6134
9198	7.5326	4.1818	5.e-002	-1.8885e-005
9199	7.5326	3.9091	0.	54.807
9200	7.4407	4.	0.	29.325
9201	7.5326	4.	5.e-002	-2.3964e-014
9202	7.5326	3.7273	0.	15.605
9203	7.4407	3.8182	0.	13.871
9204	7.5326	3.8182	5.e-002	1.3719e-005
9205	7.5326	3.5455	0.	-2.272
9206	7.4407	3.6364	0.	0.20156
9207	7.5326	3.6364	5.e-002	1.1444e-005
9208	7.5326	3.3636	0.	0.64378
9209	7.4407	3.4545	0.	1.1583
9210	7.5326	3.4545	5.e-002	2.6978e-005
9211	7.5326	3.1818	0.	-0.12748
9212	7.4407	3.2727	0.	0.39793
9213	7.5326	3.2727	5.e-002	3.5264e-005
9214	7.5326	3.	0.	-0.17078
9215	7.4407	3.0909	0.	0.21294
9216	7.5326	3.0909	5.e-002	3.2302e-005
9217	7.5326	2.8182	0.	-0.12749
9218	7.4407	2.9091	0.	0.21294
9219	7.5326	2.9091	5.e-002	5.1355e-005
9220	7.5326	2.6364	0.	0.64378
9221	7.4407	2.7273	0.	0.39793
9222	7.5326	2.7273	5.e-002	4.235e-005
9223	7.5326	2.4545	0.	-2.272
9224	7.4407	2.5455	0.	1.1583
9225	7.5326	2.5455	5.e-002	4.3199e-005
9226	7.5326	2.2727	0.	15.605
9227	7.4407	2.3636	0.	0.20156
9228	7.5326	2.3636	5.e-002	3.8088e-005
9229	7.5326	2.0909	0.	54.807
9230	7.4407	2.1818	0.	13.871
9231	7.5326	2.1818	5.e-002	3.2193e-005
9232	7.5326	1.9091	0.	43.866
9233	7.4407	2.	0.	29.325
9234	7.5326	2.	5.e-002	-7.0022e-006
9235	7.5326	1.7273	0.	10.041
9236	7.4407	1.8182	0.	4.6134
9237	7.5326	1.8182	5.e-002	2.0594e-004
9238	7.5326	1.5455	0.	2.25
9239	7.4407	1.6364	0.	-2.6669
9240	7.5326	1.6364	5.e-002	1.3197e-004
9241	7.5326	1.3636	0.	0.19848
9242	7.4407	1.4545	0.	-1.2317
9243	7.5326	1.4545	5.e-002	3.8384e-005
9244	7.5326	1.1818	0.	0.59266
9245	7.4407	1.2727	0.	-0.90205
9246	7.5326	1.2727	5.e-002	2.8175e-005
9247	7.5326	1.	0.	0.49866
9248	7.4407	1.0909	0.	-0.64443
9249	7.5326	1.0909	5.e-002	2.414e-005
9250	7.5326	0.81818	0.	0.10241
9251	7.4407	0.90909	0.	-0.66828
9252	7.5326	0.90909	5.e-002	1.2773e-005
9253	7.5326	0.63636	0.	-0.56786
9254	7.4407	0.72727	0.	-0.89081
9255	7.5326	0.72727	5.e-002	7.7413e-006
9256	7.5326	0.45455	0.	-1.7732
9257	7.4407	0.54545	0.	-1.537
9258	7.5326	0.54545	5.e-002	3.739e-006
9259	7.5326	0.27273	0.	-4.261
9260	7.4407	0.36364	0.	-2.549
9261	7.5326	0.36364	5.e-002	2.2601e-006
9262	7.4407	0.18182	0.	-3.7514
9263	7.5326	0.18182	5.e-002	9.3163e-007
9264	7.5326	9.0909e-002	0.	-0.7765
9265	7.3488	5.7273	0.	-2.3041
9266	7.257	5.8182	0.	-1.1385
9267	7.3488	5.8182	5.e-002	-1.1985e-014
9268	7.3488	5.9091	0.	-0.59795
9269	7.3488	5.5455	0.	-1.9482
9270	7.257	5.6364	0.	-1.4076
9271	7.3488	5.6364	5.e-002	-3.5716e-007
9272	7.3488	5.3636	0.	-1.6704
9273	7.257	5.4545	0.	-1.3091
9274	7.3488	5.4545	5.e-002	-1.5683e-006
9275	7.3488	5.1818	0.	-1.5814
9276	7.257	5.2727	0.	-1.2584
9277	7.3488	5.2727	5.e-002	-1.0702e-014
9278	7.3488	5.	0.	-1.7819
9279	7.257	5.0909	0.	-1.31
9280	7.3488	5.0909	5.e-002	-9.4166e-007
9281	7.3488	4.8182	0.	-2.1319
9282	7.257	4.9091	0.	-1.5747
9283	7.3488	4.9091	5.e-002	-1.169e-006
9284	7.3488	4.6364	0.	-2.3312
9285	7.257	4.7273	0.	-1.9076
9286	7.3488	4.7273	5.e-002	-1.1946e-005
9287	7.3488	4.4545	0.	-6.1744
9288	7.257	4.5455	0.	-2.1673
9289	7.3488	4.5455	5.e-002	-1.2198e-014
9290	7.3488	4.2727	0.	-7.8557
9291	7.257	4.3636	0.	-5.2232
9292	7.3488	4.3636	5.e-002	-4.2137e-005
9293	7.3488	4.0909	0.	-9.8302
9294	7.257	4.1818	0.	-3.6161
9295	7.3488	4.1818	5.e-002	1.0245e-008
9296	7.3488	3.9091	0.	-11.398
9297	7.257	4.	0.	-6.3564
9298	7.3488	4.	5.e-002	2.5433e-006
9299	7.3488	3.7273	0.	-1.1767
9300	7.257	3.8182	0.	-2.8919
9301	7.3488	3.8182	5.e-002	-4.2291e-006
9302	7.3488	3.5455	0.	3.4957
9303	7.257	3.6364	0.	3.407
9304	7.3488	3.6364	5.e-002	1.1266e-005
9305	7.3488	3.3636	0.	0.89386
9306	7.257	3.4545	0.	1.0978
9307	7.3488	3.4545	5.e-002	2.1038e-005
9308	7.3488	3.1818	0.	0.76203
9309	7.257	3.2727	0.	0.97348
9310	7.3488	3.2727	5.e-002	1.9714e-005
9311	7.3488	3.	0.	0.62399
9312	7.257	3.0909	0.	0.73862
9313	7.3488	3.0909	5.e-002	1.9639e-005
9314	7.3488	2.8182	0.	0.76203
9315	7.257	2.9091	0.	0.73862
9316	7.3488	2.9091	5.e-002	2.2316e-005
9317	7.3488	2.6364	0.	0.89386
9318	7.257	2.7273	0.	0.97349
9319	7.3488	2.7273	5.e-002	2.9903e-005
9320	7.3488	2.4545	0.	3.4957
9321	7.257	2.5455	0.	1.0978
9322	7.3488	2.5455	5.e-002	2.233e-005
9323	7.3488	2.2727	0.	-1.1767
9324	7.257	2.3636	0.	3.407
9325	7.3488	2.3636	5.e-002	1.8953e-005
9326	7.3488	2.0909	0.	-11.398
9327	7.257	2.1818	0.	-2.8919
9328	7.3488	2.1818	5.e-002	7.3666e-005
9329	7.3488	1.9091	0.	-9.8302
9330	7.257	2.	0.	-6.3564
9331	7.3488	2.	5.e-002	1.3447e-006
9332	7.3488	1.7273	0.	-7.8557
9333	7.257	1.8182	0.	-3.6161
9334	7.3488	1.8182	5.e-002	1.2813e-004
9335	7.3488	1.5455	0.	-6.1743
9336	7.257	1.6364	0.	-5.2232
9337	7.3488	1.6364	5.e-002	6.0427e-005
9338	7.3488	1.3636	0.	-2.3312
9339	7.257	1.4545	0.	-2.1673
9340	7.3488	1.4545	5.e-002	8.5216e-005
9341	7.3488	1.1818	0.	-2.1319
9342	7.257	1.2727	0.	-1.9076
9343	7.3488	1.2727	5.e-002	4.2058e-005
9344	7.3488	1.	0.	-1.7818
9345	7.257	1.0909	0.	-1.5747
9346	7.3488	1.0909	5.e-002	2.9692e-005
9347	7.3488	0.81818	0.	-1.5814
9348	7.257	0.90909	0.	-1.31
9349	7.3488	0.90909	5.e-002	1.9176e-005
9350	7.3488	0.63636	0.	-1.6704
9351	7.257	0.72727	0.	-1.2584
9352	7.3488	0.72727	5.e-002	9.701e-006
9353	7.3488	0.45455	0.	-1.9482
9354	7.257	0.54545	0.	-1.3091
9355	7.3488	0.54545	5.e-002	6.2956e-006
9356	7.3488	0.27273	0.	-2.3041
9357	7.257	0.36364	0.	-1.4076
9358	7.3488	0.36364	5.e-002	3.5396e-006
9359	7.257	0.18182	0.	-1.1385
9360	7.3488	0.18182	5.e-002	1.4791e-006
9361	7.3488	9.0909e-002	0.	-0.59794
9362	7.1651	5.7273	0.	-0.50005
9363	7.0733	5.8182	0.	0.11765
9364	7.1651	5.8182	5.e-002	8.3412e-007
9365	7.1651	5.9091	0.	4.6456e-002
9366	7.1651	5.5455	0.	-0.7943
9367	7.0733	5.6364	0.	-0.55252
9368	7.1651	5.6364	5.e-002	9.4934e-007
9369	7.1651	5.3636	0.	-0.86929
9370	7.0733	5.4545	0.	-0.67636
9371	7.1651	5.4545	5.e-002	-1.8963e-006
9372	7.1651	5.1818	0.	-0.96545
9373	7.0733	5.2727	0.	-0.83278
9374	7.1651	5.2727	5.e-002	-7.7519e-007
9375	7.1651	5.	0.	-1.0942
9376	7.0733	5.0909	0.	-0.97423
9377	7.1651	5.0909	5.e-002	-9.5404e-015
9378	7.1651	4.8182	0.	-1.3538
9379	7.0733	4.9091	0.	-1.1383
9380	7.1651	4.9091	5.e-002	-9.5388e-015
9381	7.1651	4.6364	0.	-1.7575
9382	7.0733	4.7273	0.	-1.4056
9383	7.1651	4.7273	5.e-002	-7.8635e-006
9384	7.1651	4.4545	0.	-1.2288
9385	7.0733	4.5455	0.	-1.7487
9386	7.1651	4.5455	5.e-002	-8.6934e-015
9387	7.1651	4.2727	0.	-0.99327
9388	7.0733	4.3636	0.	-1.271
9389	7.1651	4.3636	5.e-002	1.0758e-006
9390	7.1651	4.0909	0.	-8.2779e-002
9391	7.0733	4.1818	0.	-1.7671
9392	7.1651	4.1818	5.e-002	1.8481e-010
9393	7.1651	3.9091	0.	2.1984
9394	7.0733	4.	0.	-0.57928
9395	7.1651	4.	5.e-002	2.3594e-006
9396	7.1651	3.7273	0.	1.8265
9397	7.0733	3.8182	0.	0.45689
9398	7.1651	3.8182	5.e-002	1.5772e-005
9399	7.1651	3.5455	0.	0.91821
9400	7.0733	3.6364	0.	5.8964e-002
9401	7.1651	3.6364	5.e-002	-1.0859e-006
9402	7.1651	3.3636	0.	1.1307
9403	7.0733	3.4545	0.	0.8918
9404	7.1651	3.4545	5.e-002	1.3229e-005
9405	7.1651	3.1818	0.	0.94543
9406	7.0733	3.2727	0.	0.91126
9407	7.1651	3.2727	5.e-002	1.3602e-005
9408	7.1651	3.	0.	0.86029
9409	7.0733	3.0909	0.	0.84055
9410	7.1651	3.0909	5.e-002	1.8371e-005
9411	7.1651	2.8182	0.	0.94543
9412	7.0733	2.9091	0.	0.84055
9413	7.1651	2.9091	5.e-002	1.6006e-005
9414	7.1651	2.6364	0.	1.1307
9415	7.0733	2.7273	0.	0.91126
9416	7.1651	2.7273	5.e-002	1.7966e-005
9417	7.1651	2.4545	0.	0.91821
9418	7.0733	2.5455	0.	0.8918
9419	7.1651	2.5455	5.e-002	1.4832e-005
9420	7.1651	2.2727	0.	1.8265
9421	7.0733	2.3636	0.	5.8964e-002
9422	7.1651	2.3636	5.e-002	3.0139e-005
9423	7.1651	2.0909	0.	2.1984
9424	7.0733	2.1818	0.	0.45689
9425	7.1651	2.1818	5.e-002	6.689e-005
9426	7.1651	1.9091	0.	-8.2778e-002
9427	7.0733	2.	0.	-0.57928
9428	7.1651	2.	5.e-002	-5.7951e-006
9429	7.1651	1.7273	0.	-0.99327
9430	7.0733	1.8182	0.	-1.7671
9431	7.1651	1.8182	5.e-002	1.8342e-004
9432	7.1651	1.5455	0.	-1.2288
9433	7.0733	1.6364	0.	-1.271
9434	7.1651	1.6364	5.e-002	1.0675e-004
9435	7.1651	1.3636	0.	-1.7575
9436	7.0733	1.4545	0.	-1.7487
9437	7.1651	1.4545	5.e-002	7.4348e-005
9438	7.1651	1.1818	0.	-1.3538
9439	7.0733	1.2727	0.	-1.4056
9440	7.1651	1.2727	5.e-002	6.0868e-005
9441	7.1651	1.	0.	-1.0942
9442	7.0733	1.0909	0.	-1.1383
9443	7.1651	1.0909	5.e-002	2.6761e-005
9444	7.1651	0.81818	0.	-0.96545
9445	7.0733	0.90909	0.	-0.97423
9446	7.1651	0.90909	5.e-002	2.9082e-005
9447	7.1651	0.63636	0.	-0.86929
9448	7.0733	0.72727	0.	-0.83277
9449	7.1651	0.72727	5.e-002	1.3321e-005
9450	7.1651	0.45455	0.	-0.7943
9451	7.0733	0.54545	0.	-0.67636
9452	7.1651	0.54545	5.e-002	6.2605e-006
9453	7.1651	0.27273	0.	-0.50005
9454	7.0733	0.36364	0.	-0.55252
9455	7.1651	0.36364	5.e-002	4.3686e-006
9456	7.0733	0.18182	0.	0.11765
9457	7.1651	0.18182	5.e-002	1.5491e-006
9458	7.1651	9.0909e-002	0.	4.6458e-002
9459	6.9814	5.7273	0.	-6.3338e-002
9460	6.8895	5.8182	0.	0.41169
9461	6.9814	5.8182	5.e-002	6.1188e-007
9462	6.9814	5.9091	0.	9.5412e-004
9463	6.9814	5.5455	0.	-0.48532
9464	6.8895	5.6364	0.	-0.32252
9465	6.9814	5.6364	5.e-002	3.8368e-007
9466	6.9814	5.3636	0.	-0.65328
9467	6.8895	5.4545	0.	-0.42982
9468	6.9814	5.4545	5.e-002	-9.2441e-007
9469	6.9814	5.1818	0.	-0.84293
9470	6.8895	5.2727	0.	-0.65617
9471	6.9814	5.2727	5.e-002	9.3456e-007
9472	6.9814	5.	0.	-1.0209
9473	6.8895	5.0909	0.	-0.82694
9474	6.9814	5.0909	5.e-002	2.7431e-006
9475	6.9814	4.8182	0.	-1.1987
9476	6.8895	4.9091	0.	-1.005
9477	6.9814	4.9091	5.e-002	-2.5461e-006
9478	6.9814	4.6364	0.	-1.4096
9479	6.8895	4.7273	0.	-1.1799
9480	6.9814	4.7273	5.e-002	4.6272e-006
9481	6.9814	4.4545	0.	-1.7922
9482	6.8895	4.5455	0.	-1.4027
9483	6.9814	4.5455	5.e-002	1.0973e-006
9484	6.9814	4.2727	0.	-2.0186
9485	6.8895	4.3636	0.	-1.7762
9486	6.9814	4.3636	5.e-002	1.9085e-006
9487	6.9814	4.0909	0.	-2.2229
9488	6.8895	4.1818	0.	-1.9673
9489	6.9814	4.1818	5.e-002	-3.4608e-007
9490	6.9814	3.9091	0.	-2.3952
9491	6.8895	4.	0.	-2.433
9492	6.9814	4.	5.e-002	3.9052e-005
9493	6.9814	3.7273	0.	-1.6384
9494	6.8895	3.8182	0.	-2.7942
9495	6.9814	3.8182	5.e-002	-7.6636e-006
9496	6.9814	3.5455	0.	-0.4725
9497	6.8895	3.6364	0.	-3.2233
9498	6.9814	3.6364	5.e-002	4.7702e-006
9499	6.9814	3.3636	0.	0.30814
9500	6.8895	3.4545	0.	-9.1155
9501	6.9814	3.4545	5.e-002	6.5399e-006
9502	6.9814	3.1818	0.	0.71726
9503	6.8895	3.2727	0.	-22.011
9504	6.9814	3.2727	5.e-002	5.5066e-006
9505	6.9814	3.	0.	0.82362
9506	6.8895	3.0909	0.	-27.365
9507	6.9814	3.0909	5.e-002	7.3486e-006
9508	6.9814	2.8182	0.	0.71726
9509	6.8895	2.9091	0.	-27.365
9510	6.9814	2.9091	5.e-002	7.7826e-006
9511	6.9814	2.6364	0.	0.30814
9512	6.8895	2.7273	0.	-22.011
9513	6.9814	2.7273	5.e-002	5.8725e-006
9514	6.9814	2.4545	0.	-0.4725
9515	6.8895	2.5455	0.	-9.1155
9516	6.9814	2.5455	5.e-002	1.5592e-005
9517	6.9814	2.2727	0.	-1.6384
9518	6.8895	2.3636	0.	-3.2233
9519	6.9814	2.3636	5.e-002	7.0839e-006
9520	6.9814	2.0909	0.	-2.3952
9521	6.8895	2.1818	0.	-2.7942
9522	6.9814	2.1818	5.e-002	2.9262e-005
9523	6.9814	1.9091	0.	-2.2229
9524	6.8895	2.	0.	-2.433
9525	6.9814	2.	5.e-002	2.347e-005
9526	6.9814	1.7273	0.	-2.0186
9527	6.8895	1.8182	0.	-1.9673
9528	6.9814	1.8182	5.e-002	1.809e-004
9529	6.9814	1.5455	0.	-1.7922
9530	6.8895	1.6364	0.	-1.7762
9531	6.9814	1.6364	5.e-002	1.85e-004
9532	6.9814	1.3636	0.	-1.4096
9533	6.8895	1.4545	0.	-1.4027
9534	6.9814	1.4545	5.e-002	6.487e-005
9535	6.9814	1.1818	0.	-1.1987
9536	6.8895	1.2727	0.	-1.1799
9537	6.9814	1.2727	5.e-002	4.9895e-005
9538	6.9814	1.	0.	-1.0209
9539	6.8895	1.0909	0.	-1.005
9540	6.9814	1.0909	5.e-002	3.901e-005
9541	6.9814	0.81818	0.	-0.84292
9542	6.8895	0.90909	0.	-0.82694
9543	6.9814	0.90909	5.e-002	2.1954e-005
9544	6.9814	0.63636	0.	-0.65328
9545	6.8895	0.72727	0.	-0.65617
9546	6.9814	0.72727	5.e-002	1.1484e-005
9547	6.9814	0.45455	0.	-0.48532
9548	6.8895	0.54545	0.	-0.42982
9549	6.9814	0.54545	5.e-002	7.0806e-006
9550	6.9814	0.27273	0.	-6.3336e-002
9551	6.8895	0.36364	0.	-0.32252
9552	6.9814	0.36364	5.e-002	3.0052e-006
9553	6.8895	0.18182	0.	0.41169
9554	6.9814	0.18182	5.e-002	1.6482e-006
9555	6.9814	9.0909e-002	0.	9.5568e-004
9556	6.7977	5.7273	0.	9.4446e-002
9557	6.7058	5.8182	0.	0.43844
9558	6.7977	5.8182	5.e-002	4.7585e-007
9559	6.7977	5.9091	0.	2.861e-003
9560	6.7977	5.5455	0.	-0.29288
9561	6.7058	5.6364	0.	-0.22688
9562	6.7977	5.6364	5.e-002	4.7651e-007
9563	6.7977	5.3636	0.	-0.44566
9564	6.7058	5.4545	0.	-0.27267
9565	6.7977	5.4545	5.e-002	9.4549e-007
9566	6.7977	5.1818	0.	-0.64618
9567	6.7058	5.2727	0.	-0.49859
9568	6.7977	5.2727	5.e-002	9.2894e-007
9569	6.7977	5.	0.	-0.81617
9570	6.7058	5.0909	0.	-0.66715
9571	6.7977	5.0909	5.e-002	-3.5985e-006
9572	6.7977	4.8182	0.	-0.99339
9573	6.7058	4.9091	0.	-0.84129
9574	6.7977	4.9091	5.e-002	-6.77e-006
9575	6.7977	4.6364	0.	-1.18
9576	6.7058	4.7273	0.	-1.0342
9577	6.7977	4.7273	5.e-002	4.2307e-006
9578	6.7977	4.4545	0.	-1.3841
9579	6.7058	4.5455	0.	-1.2699
9580	6.7977	4.5455	5.e-002	3.7266e-006
9581	6.7977	4.2727	0.	-1.7005
9582	6.7058	4.3636	0.	-1.6029
9583	6.7977	4.3636	5.e-002	6.8562e-006
9584	6.7977	4.0909	0.	-2.1594
9585	6.7058	4.1818	0.	-2.2119
9586	6.7977	4.1818	5.e-002	4.7785e-009
9587	6.7977	3.9091	0.	-3.0543
9588	6.7058	4.	0.	-3.5051
9589	6.7977	4.	5.e-002	-1.4753e-005
9590	6.7977	3.7273	0.	-7.4532
9591	6.7058	3.8182	0.	-11.021
9592	6.7977	3.8182	5.e-002	-1.0328e-005
9593	6.7977	3.5455	0.	-37.189
9594	6.7058	3.6364	0.	-53.426
9595	6.7977	3.6364	5.e-002	-9.9237e-006
9596	6.7977	3.3636	0.	-65.928
9597	6.7058	3.4545	0.	-91.674
9598	6.7977	3.4545	5.e-002	6.1235e-008
9599	6.7977	3.1818	0.	-80.037
9600	6.7058	3.2727	0.	-113.31
9601	6.7977	3.2727	5.e-002	8.5177e-008
9602	6.7977	3.	0.	-84.04
9603	6.7058	3.0909	0.	-122.49
9604	6.7977	3.0909	5.e-002	1.2451e-007
9605	6.7977	2.8182	0.	-80.037
9606	6.7058	2.9091	0.	-122.49
9607	6.7977	2.9091	5.e-002	2.1608e-006
9608	6.7977	2.6364	0.	-65.928
9609	6.7058	2.7273	0.	-113.31
9610	6.7977	2.7273	5.e-002	3.2329e-006
9611	6.7977	2.4545	0.	-37.189
9612	6.7058	2.5455	0.	-91.674
9613	6.7977	2.5455	5.e-002	1.8766e-006
9614	6.7977	2.2727	0.	-7.4532
9615	6.7058	2.3636	0.	-53.426
9616	6.7977	2.3636	5.e-002	1.9386e-006
9617	6.7977	2.0909	0.	-3.0543
9618	6.7058	2.1818	0.	-11.021
9619	6.7977	2.1818	5.e-002	3.8823e-005
9620	6.7977	1.9091	0.	-2.1594
9621	6.7058	2.	0.	-3.5051
9622	6.7977	2.	5.e-002	8.0998e-005
9623	6.7977	1.7273	0.	-1.7005
9624	6.7058	1.8182	0.	-2.2119
9625	6.7977	1.8182	5.e-002	6.1054e-005
9626	6.7977	1.5455	0.	-1.3841
9627	6.7058	1.6364	0.	-1.6029
9628	6.7977	1.6364	5.e-002	8.0493e-005
9629	6.7977	1.3636	0.	-1.18
9630	6.7058	1.4545	0.	-1.2699
9631	6.7977	1.4545	5.e-002	1.1194e-004
9632	6.7977	1.1818	0.	-0.99339
9633	6.7058	1.2727	0.	-1.0342
9634	6.7977	1.2727	5.e-002	6.7224e-005
9635	6.7977	1.	0.	-0.81616
9636	6.7058	1.0909	0.	-0.84129
9637	6.7977	1.0909	5.e-002	2.2274e-005
9638	6.7977	0.81818	0.	-0.64618
9639	6.7058	0.90909	0.	-0.66715
9640	6.7977	0.90909	5.e-002	2.1572e-005
9641	6.7977	0.63636	0.	-0.44566
9642	6.7058	0.72727	0.	-0.49859
9643	6.7977	0.72727	5.e-002	9.8569e-006
9644	6.7977	0.45455	0.	-0.29288
9645	6.7058	0.54545	0.	-0.27267
9646	6.7977	0.54545	5.e-002	9.2125e-006
9647	6.7977	0.27273	0.	9.4448e-002
9648	6.7058	0.36364	0.	-0.22687
9649	6.7977	0.36364	5.e-002	2.5821e-006
9650	6.7058	0.18182	0.	0.43844
9651	6.7977	0.18182	5.e-002	4.3975e-007
9652	6.7977	9.0909e-002	0.	2.8618e-003
9653	6.614	5.7273	0.	9.9948e-002
9654	6.5221	5.8182	0.	0.3595
9655	6.614	5.8182	5.e-002	-7.7221e-015
9656	6.614	5.9091	0.	-2.1247e-002
9657	6.614	5.5455	0.	-0.21366
9658	6.5221	5.6364	0.	-0.19321
9659	6.614	5.6364	5.e-002	1.4302e-006
9660	6.614	5.3636	0.	-0.33088
9661	6.5221	5.4545	0.	-0.19019
9662	6.614	5.4545	5.e-002	2.8353e-006
9663	6.614	5.1818	0.	-0.52307
9664	6.5221	5.2727	0.	-0.39599
9665	6.614	5.2727	5.e-002	2.7242e-006
9666	6.614	5.	0.	-0.69542
9667	6.5221	5.0909	0.	-0.56218
9668	6.614	5.0909	5.e-002	1.7629e-006
9669	6.614	4.8182	0.	-0.88541
9670	6.5221	4.9091	0.	-0.74985
9671	6.614	4.9091	5.e-002	3.2111e-006
9672	6.614	4.6364	0.	-1.125
9673	6.5221	4.7273	0.	-0.97908
9674	6.614	4.7273	5.e-002	1.4698e-005
9675	6.614	4.4545	0.	-1.4813
9676	6.5221	4.5455	0.	-1.3174
9677	6.614	4.5455	5.e-002	1.7075e-006
9678	6.614	4.2727	0.	-2.0947
9679	6.5221	4.3636	0.	-1.9207
9680	6.614	4.3636	5.e-002	6.8245e-006
9681	6.614	4.0909	0.	-3.5784
9682	6.5221	4.1818	0.	-3.415
9683	6.614	4.1818	5.e-002	6.1636e-005
9684	6.614	3.9091	0.	-12.982
9685	6.5221	4.	0.	-13.209
9686	6.614	4.	5.e-002	-5.9283e-006
9687	6.614	3.7273	0.	-61.507
9688	6.5221	3.8182	0.	-64.038
9689	6.614	3.8182	5.e-002	6.5278e-005
9690	6.614	3.5455	0.	-108.57
9691	6.5221	3.6364	0.	-116.58
9692	6.614	3.6364	5.e-002	8.1063e-006
9693	6.614	3.3636	0.	-140.08
9694	6.5221	3.4545	0.	-155.13
9695	6.614	3.4545	5.e-002	1.5554e-006
9696	6.614	3.1818	0.	-157.21
9697	6.5221	3.2727	0.	-179.
9698	6.614	3.2727	5.e-002	-7.2514e-006
9699	6.614	3.	0.	-162.53
9700	6.5221	3.0909	0.	-190.12
9701	6.614	3.0909	5.e-002	-1.8441e-006
9702	6.614	2.8182	0.	-157.21
9703	6.5221	2.9091	0.	-190.12
9704	6.614	2.9091	5.e-002	-2.9299e-006
9705	6.614	2.6364	0.	-140.08
9706	6.5221	2.7273	0.	-179.
9707	6.614	2.7273	5.e-002	-1.193e-006
9708	6.614	2.4545	0.	-108.57
9709	6.5221	2.5455	0.	-155.13
9710	6.614	2.5455	5.e-002	2.0551e-005
9711	6.614	2.2727	0.	-61.507
9712	6.5221	2.3636	0.	-116.58
9713	6.614	2.3636	5.e-002	9.0098e-006
9714	6.614	2.0909	0.	-12.982
9715	6.5221	2.1818	0.	-64.038
9716	6.614	2.1818	5.e-002	5.7914e-005
9717	6.614	1.9091	0.	-3.5784
9718	6.5221	2.	0.	-13.209
9719	6.614	2.	5.e-002	-1.6782e-005
9720	6.614	1.7273	0.	-2.0947
9721	6.5221	1.8182	0.	-3.415
9722	6.614	1.8182	5.e-002	1.2466e-004
9723	6.614	1.5455	0.	-1.4813
9724	6.5221	1.6364	0.	-1.9207
9725	6.614	1.6364	5.e-002	7.9091e-005
9726	6.614	1.3636	0.	-1.125
9727	6.5221	1.4545	0.	-1.3174
9728	6.614	1.4545	5.e-002	7.336e-005
9729	6.614	1.1818	0.	-0.88541
9730	6.5221	1.2727	0.	-0.97908
9731	6.614	1.2727	5.e-002	3.8941e-005
9732	6.614	1.	0.	-0.69542
9733	6.5221	1.0909	0.	-0.74985
9734	6.614	1.0909	5.e-002	3.7614e-005
9735	6.614	0.81818	0.	-0.52306
9736	6.5221	0.90909	0.	-0.56218
9737	6.614	0.90909	5.e-002	2.5508e-005
9738	6.614	0.63636	0.	-0.33088
9739	6.5221	0.72727	0.	-0.39599
9740	6.614	0.72727	5.e-002	1.4629e-005
9741	6.614	0.45455	0.	-0.21366
9742	6.5221	0.54545	0.	-0.19019
9743	6.614	0.54545	5.e-002	6.6596e-006
9744	6.614	0.27273	0.	9.995e-002
9745	6.5221	0.36364	0.	-0.19321
9746	6.614	0.36364	5.e-002	3.2087e-006
9747	6.5221	0.18182	0.	0.35951
9748	6.614	0.18182	5.e-002	1.1673e-006
9749	6.614	9.0909e-002	0.	-2.1245e-002
9750	6.4302	5.7273	0.	7.5504e-002
9751	6.3384	5.8182	0.	0.26907
9752	6.4302	5.8182	5.e-002	1.2928e-006
9753	6.4302	5.9091	0.	-2.8427e-002
9754	6.4302	5.5455	0.	-0.16607
9755	6.3384	5.6364	0.	-0.17035
9756	6.4302	5.6364	5.e-002	1.9072e-006
9757	6.4302	5.3636	0.	-0.25425
9758	6.3384	5.4545	0.	-0.14241
9759	6.4302	5.4545	5.e-002	9.4433e-007
9760	6.4302	5.1818	0.	-0.43464
9761	6.3384	5.2727	0.	-0.32865
9762	6.4302	5.2727	5.e-002	1.8363e-006
9763	6.4302	5.	0.	-0.61627
9764	6.3384	5.0909	0.	-0.49806
9765	6.4302	5.0909	5.e-002	3.4731e-006
9766	6.4302	4.8182	0.	-0.84293
9767	6.3384	4.9091	0.	-0.71585
9768	6.4302	4.9091	5.e-002	4.6818e-006
9769	6.4302	4.6364	0.	-1.1694
9770	6.3384	4.7273	0.	-1.0255
9771	6.4302	4.7273	5.e-002	6.1372e-006
9772	6.4302	4.4545	0.	-1.7528
9773	6.3384	4.5455	0.	-1.5785
9774	6.4302	4.5455	5.e-002	6.7105e-006
9775	6.4302	4.2727	0.	-3.2631
9776	6.3384	4.3636	0.	-3.0161
9777	6.4302	4.3636	5.e-002	5.3953e-005
9778	6.4302	4.0909	0.	-13.779
9779	6.3384	4.1818	0.	-13.007
9780	6.4302	4.1818	5.e-002	2.735e-006
9781	6.4302	3.9091	0.	-64.126
9782	6.3384	4.	0.	-61.794
9783	6.4302	4.	5.e-002	5.6783e-005
9784	6.4302	3.7273	0.	-118.82
9785	6.3384	3.8182	0.	-117.72
9786	6.4302	3.8182	5.e-002	-8.8747e-006
9787	6.4302	3.5455	0.	-163.28
9788	6.3384	3.6364	0.	-166.18
9789	6.4302	3.6364	5.e-002	1.2979e-005
9790	6.4302	3.3636	0.	-194.59
9791	6.3384	3.4545	0.	-203.06
9792	6.4302	3.4545	5.e-002	1.6248e-005
9793	6.4302	3.1818	0.	-212.72
9794	6.3384	3.2727	0.	-227.22
9795	6.4302	3.2727	5.e-002	-4.0061e-006
9796	6.4302	3.	0.	-218.61
9797	6.3384	3.0909	0.	-239.01
9798	6.4302	3.0909	5.e-002	-2.9934e-006
9799	6.4302	2.8182	0.	-212.72
9800	6.3384	2.9091	0.	-239.01
9801	6.4302	2.9091	5.e-002	-4.3071e-006
9802	6.4302	2.6364	0.	-194.59
9803	6.3384	2.7273	0.	-227.22
9804	6.4302	2.7273	5.e-002	2.0457e-007
9805	6.4302	2.4545	0.	-163.28
9806	6.3384	2.5455	0.	-203.06
9807	6.4302	2.5455	5.e-002	4.08e-005
9808	6.4302	2.2727	0.	-118.82
9809	6.3384	2.3636	0.	-166.18
9810	6.4302	2.3636	5.e-002	1.48e-005
9811	6.4302	2.0909	0.	-64.126
9812	6.3384	2.1818	0.	-117.72
9813	6.4302	2.1818	5.e-002	-1.7414e-005
9814	6.4302	1.9091	0.	-13.779
9815	6.3384	2.	0.	-61.794
9816	6.4302	2.	5.e-002	4.9426e-005
9817	6.4302	1.7273	0.	-3.2631
9818	6.3384	1.8182	0.	-13.007
9819	6.4302	1.8182	5.e-002	1.2735e-004
9820	6.4302	1.5455	0.	-1.7528
9821	6.3384	1.6364	0.	-3.0161
9822	6.4302	1.6364	5.e-002	1.2243e-004
9823	6.4302	1.3636	0.	-1.1694
9824	6.3384	1.4545	0.	-1.5785
9825	6.4302	1.4545	5.e-002	3.3651e-005
9826	6.4302	1.1818	0.	-0.84293
9827	6.3384	1.2727	0.	-1.0255
9828	6.4302	1.2727	5.e-002	2.9452e-005
9829	6.4302	1.	0.	-0.61627
9830	6.3384	1.0909	0.	-0.71585
9831	6.4302	1.0909	5.e-002	1.8435e-005
9832	6.4302	0.81818	0.	-0.43464
9833	6.3384	0.90909	0.	-0.49806
9834	6.4302	0.90909	5.e-002	1.4807e-005
9835	6.4302	0.63636	0.	-0.25425
9836	6.3384	0.72727	0.	-0.32865
9837	6.4302	0.72727	5.e-002	1.02e-005
9838	6.4302	0.45455	0.	-0.16607
9839	6.3384	0.54545	0.	-0.14241
9840	6.4302	0.54545	5.e-002	6.438e-006
9841	6.4302	0.27273	0.	7.5506e-002
9842	6.3384	0.36364	0.	-0.17035
9843	6.4302	0.36364	5.e-002	5.5192e-007
9844	6.3384	0.18182	0.	0.26907
9845	6.4302	0.18182	5.e-002	-4.5246e-007
9846	6.4302	9.0909e-002	0.	-2.8425e-002
9847	6.2465	5.7273	0.	4.8144e-002
9848	6.1547	5.8182	0.	0.19432
9849	6.2465	5.8182	5.e-002	9.8889e-007
9850	6.2465	5.9091	0.	-2.6415e-002
9851	6.2465	5.5455	0.	-0.13764
9852	6.1547	5.6364	0.	-0.14943
9853	6.2465	5.6364	5.e-002	9.5358e-007
9854	6.2465	5.3636	0.	-0.21172
9855	6.1547	5.4545	0.	-0.12027
9856	6.2465	5.4545	5.e-002	9.4299e-007
9857	6.2465	5.1818	0.	-0.38828
9858	6.1547	5.2727	0.	-0.29636
9859	6.2465	5.2727	5.e-002	1.8262e-006
9860	6.2465	5.	0.	-0.59434
9861	6.1547	5.0909	0.	-0.48499
9862	6.2465	5.0909	5.e-002	2.5741e-006
9863	6.2465	4.8182	0.	-0.89607
9864	6.1547	4.9091	0.	-0.76922
9865	6.2465	4.9091	5.e-002	3.0662e-006
9866	6.2465	4.6364	0.	-1.4389
9867	6.1547	4.7273	0.	-1.2808
9868	6.2465	4.7273	5.e-002	6.4389e-006
9869	6.2465	4.4545	0.	-2.9106
9870	6.1547	4.5455	0.	-2.6888
9871	6.2465	4.5455	5.e-002	2.5816e-006
9872	6.2465	4.2727	0.	-13.992
9873	6.1547	4.3636	0.	-13.523
9874	6.2465	4.3636	5.e-002	1.0639e-005
9875	6.2465	4.0909	0.	-60.803
9876	6.1547	4.1818	0.	-57.973
9877	6.2465	4.1818	5.e-002	4.7996e-006
9878	6.2465	3.9091	0.	-114.96
9879	6.1547	4.	0.	-110.86
9880	6.2465	4.	5.e-002	-2.2778e-006
9881	6.2465	3.7273	0.	-164.89
9882	6.1547	3.8182	0.	-161.85
9883	6.2465	3.8182	5.e-002	4.1748e-005
9884	6.2465	3.5455	0.	-206.04
9885	6.1547	3.6364	0.	-206.16
9886	6.2465	3.6364	5.e-002	-9.6858e-006
9887	6.2465	3.3636	0.	-235.99
9888	6.1547	3.4545	0.	-240.75
9889	6.2465	3.4545	5.e-002	2.0344e-005
9890	6.2465	3.1818	0.	-253.95
9891	6.1547	3.2727	0.	-264.11
9892	6.2465	3.2727	5.e-002	-3.5738e-006
9893	6.2465	3.	0.	-259.91
9894	6.1547	3.0909	0.	-275.79
9895	6.2465	3.0909	5.e-002	-5.9821e-006
9896	6.2465	2.8182	0.	-253.95
9897	6.1547	2.9091	0.	-275.79
9898	6.2465	2.9091	5.e-002	-1.6591e-007
9899	6.2465	2.6364	0.	-235.99
9900	6.1547	2.7273	0.	-264.11
9901	6.2465	2.7273	5.e-002	1.6693e-006
9902	6.2465	2.4545	0.	-206.04
9903	6.1547	2.5455	0.	-240.75
9904	6.2465	2.5455	5.e-002	1.9548e-005
9905	6.2465	2.2727	0.	-164.89
9906	6.1547	2.3636	0.	-206.16
9907	6.2465	2.3636	5.e-002	5.2358e-005
9908	6.2465	2.0909	0.	-114.96
9909	6.1547	2.1818	0.	-161.85
9910	6.2465	2.1818	5.e-002	3.7517e-005
9911	6.2465	1.9091	0.	-60.802
9912	6.1547	2.	0.	-110.86
9913	6.2465	2.	5.e-002	-3.2379e-006
9914	6.2465	1.7273	0.	-13.992
9915	6.1547	1.8182	0.	-57.973
9916	6.2465	1.8182	5.e-002	1.8729e-004
9917	6.2465	1.5455	0.	-2.9106
9918	6.1547	1.6364	0.	-13.523
9919	6.2465	1.6364	5.e-002	1.1569e-004
9920	6.2465	1.3636	0.	-1.4389
9921	6.1547	1.4545	0.	-2.6888
9922	6.2465	1.4545	5.e-002	6.1719e-005
9923	6.2465	1.1818	0.	-0.89607
9924	6.1547	1.2727	0.	-1.2808
9925	6.2465	1.2727	5.e-002	4.783e-005
9926	6.2465	1.	0.	-0.59434
9927	6.1547	1.0909	0.	-0.76922
9928	6.2465	1.0909	5.e-002	3.8334e-005
9929	6.2465	0.81818	0.	-0.38827
9930	6.1547	0.90909	0.	-0.48499
9931	6.2465	0.90909	5.e-002	2.1395e-005
9932	6.2465	0.63636	0.	-0.21172
9933	6.1547	0.72727	0.	-0.29636
9934	6.2465	0.72727	5.e-002	7.4578e-006
9935	6.2465	0.45455	0.	-0.13764
9936	6.1547	0.54545	0.	-0.12027
9937	6.2465	0.54545	5.e-002	3.2124e-006
9938	6.2465	0.27273	0.	4.8146e-002
9939	6.1547	0.36364	0.	-0.14943
9940	6.2465	0.36364	5.e-002	1.5851e-006
9941	6.1547	0.18182	0.	0.19432
9942	6.2465	0.18182	5.e-002	-7.1761e-007
9943	6.2465	9.0909e-002	0.	-2.6414e-002
9944	6.0628	5.7273	0.	2.8668e-002
9945	5.9709	5.8182	0.	0.14183
9946	6.0628	5.8182	5.e-002	7.112e-007
9947	6.0628	5.9091	0.	-1.6037e-002
9948	6.0628	5.5455	0.	-0.12085
9949	5.9709	5.6364	0.	-0.1297
9950	6.0628	5.6364	5.e-002	1.2972e-006
9951	6.0628	5.3636	0.	-0.1978
9952	5.9709	5.4545	0.	-0.12064
9953	6.0628	5.4545	5.e-002	9.7146e-007
9954	6.0628	5.1818	0.	-0.38771
9955	5.9709	5.2727	0.	-0.3049
9956	6.0628	5.2727	5.e-002	3.6319e-006
9957	6.0628	5.	0.	-0.65721
9958	5.9709	5.0909	0.	-0.55301
9959	6.0628	5.0909	5.e-002	2.9759e-006
9960	6.0628	4.8182	0.	-1.1653
9961	5.9709	4.9091	0.	-1.0383
9962	6.0628	4.9091	5.e-002	3.0399e-006
9963	6.0628	4.6364	0.	-2.6735
9964	5.9709	4.7273	0.	-2.5485
9965	6.0628	4.7273	5.e-002	5.817e-006
9966	6.0628	4.4545	0.	-15.504
9967	5.9709	4.5455	0.	-15.934
9968	6.0628	4.5455	5.e-002	2.0228e-006
9969	6.0628	4.2727	0.	-57.898
9970	5.9709	4.3636	0.	-56.032
9971	6.0628	4.3636	5.e-002	4.457e-006
9972	6.0628	4.0909	0.	-107.71
9973	5.9709	4.1818	0.	-103.63
9974	6.0628	4.1818	5.e-002	6.0145e-005
9975	6.0628	3.9091	0.	-157.52
9976	5.9709	4.	0.	-152.7
9977	6.0628	4.	5.e-002	6.1231e-007
9978	6.0628	3.7273	0.	-203.03
9979	5.9709	3.8182	0.	-199.25
9980	6.0628	3.8182	5.e-002	-4.6343e-006
9981	6.0628	3.5455	0.	-240.93
9982	5.9709	3.6364	0.	-239.87
9983	6.0628	3.6364	5.e-002	-9.1417e-006
9984	6.0628	3.3636	0.	-269.04
9985	5.9709	3.4545	0.	-271.99
9986	6.0628	3.4545	5.e-002	1.1919e-005
9987	6.0628	3.1818	0.	-286.19
9988	5.9709	3.2727	0.	-294.03
9989	6.0628	3.2727	5.e-002	-8.3229e-006
9990	6.0628	3.	0.	-291.95
9991	5.9709	3.0909	0.	-305.19
9992	6.0628	3.0909	5.e-002	-9.6397e-006
9993	6.0628	2.8182	0.	-286.19
9994	5.9709	2.9091	0.	-305.19
9995	6.0628	2.9091	5.e-002	-9.8509e-006
9996	6.0628	2.6364	0.	-269.04
9997	5.9709	2.7273	0.	-294.03
9998	6.0628	2.7273	5.e-002	7.2915e-007
9999	6.0628	2.4545	0.	-240.93
10000	5.9709	2.5455	0.	-271.99
10001	6.0628	2.5455	5.e-002	3.8194e-005
10002	6.0628	2.2727	0.	-203.03
10003	5.9709	2.3636	0.	-239.87
10004	6.0628	2.3636	5.e-002	3.3036e-005
10005	6.0628	2.0909	0.	-157.52
10006	5.9709	2.1818	0.	-199.25
10007	6.0628	2.1818	5.e-002	-7.3292e-006
10008	6.0628	1.9091	0.	-107.71
10009	5.9709	2.	0.	-152.7
10010	6.0628	2.	5.e-002	1.8065e-006
10011	6.0628	1.7273	0.	-57.898
10012	5.9709	1.8182	0.	-103.63
10013	6.0628	1.8182	5.e-002	1.7831e-004
10014	6.0628	1.5455	0.	-15.504
10015	5.9709	1.6364	0.	-56.032
10016	6.0628	1.6364	5.e-002	2.1227e-005
10017	6.0628	1.3636	0.	-2.6735
10018	5.9709	1.4545	0.	-15.934
10019	6.0628	1.4545	5.e-002	5.1575e-005
10020	6.0628	1.1818	0.	-1.1653
10021	5.9709	1.2727	0.	-2.5485
10022	6.0628	1.2727	5.e-002	4.3548e-005
10023	6.0628	1.	0.	-0.65721
10024	5.9709	1.0909	0.	-1.0383
10025	6.0628	1.0909	5.e-002	5.3707e-005
10026	6.0628	0.81818	0.	-0.3877
10027	5.9709	0.90909	0.	-0.55301
10028	6.0628	0.90909	5.e-002	1.2532e-005
10029	6.0628	0.63636	0.	-0.1978
10030	5.9709	0.72727	0.	-0.3049
10031	6.0628	0.72727	5.e-002	6.5185e-006
10032	6.0628	0.45455	0.	-0.12085
10033	5.9709	0.54545	0.	-0.12064
10034	6.0628	0.54545	5.e-002	5.7804e-006
10035	6.0628	0.27273	0.	2.867e-002
10036	5.9709	0.36364	0.	-0.1297
10037	6.0628	0.36364	5.e-002	3.986e-007
10038	5.9709	0.18182	0.	0.14183
10039	6.0628	0.18182	5.e-002	-9.0863e-007
10040	6.0628	9.0909e-002	0.	-1.6036e-002
10041	5.8791	5.7273	0.	1.5302e-002
10042	5.7872	5.8182	0.	0.10668
10043	5.8791	5.8182	5.e-002	4.7502e-007
10044	5.8791	5.9091	0.	-8.4654e-004
10045	5.8791	5.5455	0.	-0.11844
10046	5.7872	5.6364	0.	-0.11755
10047	5.8791	5.6364	5.e-002	1.4291e-006
10048	5.8791	5.3636	0.	-0.22131
10049	5.7872	5.4545	0.	-0.15376
10050	5.8791	5.4545	5.e-002	1.4062e-006
10051	5.8791	5.1818	0.	-0.46972
10052	5.7872	5.2727	0.	-0.3943
10053	5.8791	5.2727	5.e-002	2.666e-006
10054	5.8791	5.	0.	-0.96137
10055	5.7872	5.0909	0.	-0.87731
10056	5.8791	5.0909	5.e-002	1.8993e-006
10057	5.8791	4.8182	0.	-2.7525
10058	5.7872	4.9091	0.	-2.8892
10059	5.8791	4.9091	5.e-002	3.6249e-006
10060	5.8791	4.6364	0.	-19.168
10061	5.7872	4.7273	0.	-20.672
10062	5.8791	4.7273	5.e-002	3.5541e-006
10063	5.8791	4.4545	0.	-57.092
10064	5.7872	4.5455	0.	-56.385
10065	5.8791	4.5455	5.e-002	3.8515e-005
10066	5.8791	4.2727	0.	-101.58
10067	5.7872	4.3636	0.	-98.555
10068	5.8791	4.3636	5.e-002	3.6212e-006
10069	5.8791	4.0909	0.	-148.45
10070	5.7872	4.1818	0.	-143.92
10071	5.8791	4.1818	5.e-002	5.4926e-005
10072	5.8791	3.9091	0.	-194.33
10073	5.7872	4.	0.	-189.52
10074	5.8791	4.	5.e-002	3.0732e-006
10075	5.8791	3.7273	0.	-236.06
10076	5.7872	3.8182	0.	-232.37
10077	5.8791	3.8182	5.e-002	-7.8805e-007
10078	5.8791	3.5455	0.	-270.97
10079	5.7872	3.6364	0.	-269.75
10080	5.8791	3.6364	5.e-002	1.0285e-004
10081	5.8791	3.3636	0.	-297.08
10082	5.7872	3.4545	0.	-299.48
10083	5.8791	3.4545	5.e-002	2.8e-005
10084	5.8791	3.1818	0.	-313.17
10085	5.7872	3.2727	0.	-320.03
10086	5.8791	3.2727	5.e-002	-1.2771e-005
10087	5.8791	3.	0.	-318.59
10088	5.7872	3.0909	0.	-330.51
10089	5.8791	3.0909	5.e-002	-9.4451e-006
10090	5.8791	2.8182	0.	-313.17
10091	5.7872	2.9091	0.	-330.51
10092	5.8791	2.9091	5.e-002	-1.3615e-005
10093	5.8791	2.6364	0.	-297.08
10094	5.7872	2.7273	0.	-320.03
10095	5.8791	2.7273	5.e-002	-5.525e-006
10096	5.8791	2.4545	0.	-270.97
10097	5.7872	2.5455	0.	-299.48
10098	5.8791	2.5455	5.e-002	6.5135e-005
10099	5.8791	2.2727	0.	-236.06
10100	5.7872	2.3636	0.	-269.75
10101	5.8791	2.3636	5.e-002	1.0016e-004
10102	5.8791	2.0909	0.	-194.33
10103	5.7872	2.1818	0.	-232.37
10104	5.8791	2.1818	5.e-002	5.9255e-005
10105	5.8791	1.9091	0.	-148.45
10106	5.7872	2.	0.	-189.52
10107	5.8791	2.	5.e-002	6.955e-006
10108	5.8791	1.7273	0.	-101.58
10109	5.7872	1.8182	0.	-143.92
10110	5.8791	1.8182	5.e-002	1.1683e-004
10111	5.8791	1.5455	0.	-57.092
10112	5.7872	1.6364	0.	-98.555
10113	5.8791	1.6364	5.e-002	6.1037e-005
10114	5.8791	1.3636	0.	-19.167
10115	5.7872	1.4545	0.	-56.385
10116	5.8791	1.4545	5.e-002	4.8328e-005
10117	5.8791	1.1818	0.	-2.7525
10118	5.7872	1.2727	0.	-20.672
10119	5.8791	1.2727	5.e-002	7.9484e-005
10120	5.8791	1.	0.	-0.96136
10121	5.7872	1.0909	0.	-2.8892
10122	5.8791	1.0909	5.e-002	5.292e-005
10123	5.8791	0.81818	0.	-0.46971
10124	5.7872	0.90909	0.	-0.87731
10125	5.8791	0.90909	5.e-002	1.2486e-005
10126	5.8791	0.63636	0.	-0.22131
10127	5.7872	0.72727	0.	-0.39429
10128	5.8791	0.72727	5.e-002	8.9846e-006
10129	5.8791	0.45455	0.	-0.11844
10130	5.7872	0.54545	0.	-0.15376
10131	5.8791	0.54545	5.e-002	6.0238e-006
10132	5.8791	0.27273	0.	1.5304e-002
10133	5.7872	0.36364	0.	-0.11755
10134	5.8791	0.36364	5.e-002	8.5072e-007
10135	5.7872	0.18182	0.	0.10668
10136	5.8791	0.18182	5.e-002	1.1881e-007
10137	5.8791	9.0909e-002	0.	-8.4496e-004
10138	5.6953	5.7273	0.	-1.8927e-004
10139	5.6035	5.8182	0.	7.65e-002
10140	5.6953	5.8182	5.e-002	5.9514e-007
10141	5.6953	5.9091	0.	1.6205e-002
10142	5.6953	5.5455	0.	-0.14604
10143	5.6035	5.6364	0.	-0.13285
10144	5.6953	5.6364	5.e-002	5.3588e-007
10145	5.6953	5.3636	0.	-0.33354
10146	5.6035	5.4545	0.	-0.28055
10147	5.6953	5.4545	5.e-002	1.1654e-006
10148	5.6953	5.1818	0.	-0.87704
10149	5.6035	5.2727	0.	-0.87809
10150	5.6953	5.2727	5.e-002	2.4806e-006
10151	5.6953	5.	0.	-3.939
10152	5.6035	5.0909	0.	-5.2791
10153	5.6953	5.0909	5.e-002	3.8741e-006
10154	5.6953	4.8182	0.	-24.834
10155	5.6035	4.9091	0.	-26.992
10156	5.6953	4.9091	5.e-002	4.5898e-006
10157	5.6953	4.6364	0.	-58.315
10158	5.6035	4.7273	0.	-58.461
10159	5.6953	4.7273	5.e-002	4.8443e-006
10160	5.6953	4.4545	0.	-97.767
10161	5.6035	4.5455	0.	-95.851
10162	5.6953	4.5455	5.e-002	6.214e-006
10163	5.6953	4.2727	0.	-140.79
10164	5.6035	4.3636	0.	-137.24
10165	5.6953	4.3636	5.e-002	4.1608e-006
10166	5.6953	4.0909	0.	-184.92
10167	5.6035	4.1818	0.	-180.49
10168	5.6953	4.1818	5.e-002	5.1363e-005
10169	5.6953	3.9091	0.	-227.53
10170	5.6035	4.	0.	-223.22
10171	5.6953	4.	5.e-002	5.1855e-006
10172	5.6953	3.7273	0.	-266.07
10173	5.6035	3.8182	0.	-263.01
10174	5.6953	3.8182	5.e-002	2.6256e-006
10175	5.6953	3.5455	0.	-298.3
10176	5.6035	3.6364	0.	-297.62
10177	5.6953	3.6364	5.e-002	-7.3925e-007
10178	5.6953	3.3636	0.	-322.5
10179	5.6035	3.4545	0.	-325.17
10180	5.6953	3.4545	5.e-002	5.0016e-005
10181	5.6953	3.1818	0.	-337.46
10182	5.6035	3.2727	0.	-344.27
10183	5.6953	3.2727	5.e-002	-8.553e-006
10184	5.6953	3.	0.	-342.53
10185	5.6035	3.0909	0.	-354.04
10186	5.6953	3.0909	5.e-002	-6.7669e-006
10187	5.6953	2.8182	0.	-337.46
10188	5.6035	2.9091	0.	-354.04
10189	5.6953	2.9091	5.e-002	-4.5477e-007
10190	5.6953	2.6364	0.	-322.5
10191	5.6035	2.7273	0.	-344.27
10192	5.6953	2.7273	5.e-002	2.5669e-005
10193	5.6953	2.4545	0.	-298.3
10194	5.6035	2.5455	0.	-325.17
10195	5.6953	2.5455	5.e-002	1.0282e-004
10196	5.6953	2.2727	0.	-266.07
10197	5.6035	2.3636	0.	-297.62
10198	5.6953	2.3636	5.e-002	-7.7515e-007
10199	5.6953	2.0909	0.	-227.53
10200	5.6035	2.1818	0.	-263.01
10201	5.6953	2.1818	5.e-002	4.2129e-006
10202	5.6953	1.9091	0.	-184.92
10203	5.6035	2.	0.	-223.22
10204	5.6953	2.	5.e-002	6.3045e-005
10205	5.6953	1.7273	0.	-140.79
10206	5.6035	1.8182	0.	-180.49
10207	5.6953	1.8182	5.e-002	1.4762e-004
10208	5.6953	1.5455	0.	-97.767
10209	5.6035	1.6364	0.	-137.24
10210	5.6953	1.6364	5.e-002	5.414e-005
10211	5.6953	1.3636	0.	-58.315
10212	5.6035	1.4545	0.	-95.851
10213	5.6953	1.4545	5.e-002	1.8428e-005
10214	5.6953	1.1818	0.	-24.834
10215	5.6035	1.2727	0.	-58.461
10216	5.6953	1.2727	5.e-002	3.5795e-005
10217	5.6953	1.	0.	-3.939
10218	5.6035	1.0909	0.	-26.992
10219	5.6953	1.0909	5.e-002	1.1646e-005
10220	5.6953	0.81818	0.	-0.87703
10221	5.6035	0.90909	0.	-5.2791
10222	5.6953	0.90909	5.e-002	1.955e-005
10223	5.6953	0.63636	0.	-0.33353
10224	5.6035	0.72727	0.	-0.87809
10225	5.6953	0.72727	5.e-002	1.4803e-005
10226	5.6953	0.45455	0.	-0.14603
10227	5.6035	0.54545	0.	-0.28055
10228	5.6953	0.54545	5.e-002	3.8156e-006
10229	5.6953	0.27273	0.	-1.8736e-004
10230	5.6035	0.36364	0.	-0.13285
10231	5.6953	0.36364	5.e-002	1.2038e-006
10232	5.6035	0.18182	0.	7.6502e-002
10233	5.6953	0.18182	5.e-002	-5.9544e-007
10234	5.6953	9.0909e-002	0.	1.6206e-002
10235	5.5116	5.7273	0.	-4.587e-002
10236	5.4198	5.8182	0.	1.3596e-002
10237	5.5116	5.8182	5.e-002	3.8741e-007
10238	5.5116	5.9091	0.	3.0499e-002
10239	5.5116	5.5455	0.	-0.29771
10240	5.4198	5.6364	0.	-0.30321
10241	5.5116	5.6364	5.e-002	4.621e-007
10242	5.5116	5.3636	0.	-1.1312
10243	5.4198	5.4545	0.	-1.5842
10244	5.5116	5.4545	5.e-002	1.6361e-006
10245	5.5116	5.1818	0.	-9.3294
10246	5.4198	5.2727	0.	-12.304
10247	5.5116	5.2727	5.e-002	1.8606e-006
10248	5.5116	5.	0.	-31.321
10249	5.4198	5.0909	0.	-33.342
10250	5.5116	5.0909	5.e-002	2.1021e-006
10251	5.5116	4.8182	0.	-60.802
10252	5.4198	4.9091	0.	-61.221
10253	5.5116	4.9091	5.e-002	4.1988e-006
10254	5.5116	4.6364	0.	-95.969
10255	5.4198	4.7273	0.	-94.741
10256	5.5116	4.7273	5.e-002	4.1407e-006
10257	5.5116	4.4545	0.	-135.27
10258	5.4198	4.5455	0.	-132.6
10259	5.5116	4.5455	5.e-002	3.7285e-006
10260	5.5116	4.2727	0.	-176.89
10261	5.4198	4.3636	0.	-173.22
10262	5.5116	4.3636	5.e-002	3.8143e-006
10263	5.5116	4.0909	0.	-218.77
10264	5.4198	4.1818	0.	-214.76
10265	5.5116	4.1818	5.e-002	4.1695e-005
10266	5.5116	3.9091	0.	-258.7
10267	5.4198	4.	0.	-255.2
10268	5.5116	4.	5.e-002	4.2111e-006
10269	5.5116	3.7273	0.	-294.58
10270	5.4198	3.8182	0.	-292.51
10271	5.5116	3.8182	5.e-002	5.4676e-005
10272	5.5116	3.5455	0.	-324.52
10273	5.4198	3.6364	0.	-324.8
10274	5.5116	3.6364	5.e-002	3.271e-006
10275	5.5116	3.3636	0.	-346.99
10276	5.4198	3.4545	0.	-350.46
10277	5.5116	3.4545	5.e-002	6.1307e-005
10278	5.5116	3.1818	0.	-360.9
10279	5.4198	3.2727	0.	-368.26
10280	5.5116	3.2727	5.e-002	5.9935e-005
10281	5.5116	3.	0.	-365.61
10282	5.4198	3.0909	0.	-377.36
10283	5.5116	3.0909	5.e-002	3.7526e-005
10284	5.5116	2.8182	0.	-360.9
10285	5.4198	2.9091	0.	-377.36
10286	5.5116	2.9091	5.e-002	3.7649e-005
10287	5.5116	2.6364	0.	-346.99
10288	5.4198	2.7273	0.	-368.26
10289	5.5116	2.7273	5.e-002	1.206e-004
10290	5.5116	2.4545	0.	-324.52
10291	5.4198	2.5455	0.	-350.46
10292	5.5116	2.5455	5.e-002	6.1665e-005
10293	5.5116	2.2727	0.	-294.58
10294	5.4198	2.3636	0.	-324.8
10295	5.5116	2.3636	5.e-002	1.1706e-004
10296	5.5116	2.0909	0.	-258.7
10297	5.4198	2.1818	0.	-292.51
10298	5.5116	2.1818	5.e-002	5.907e-005
10299	5.5116	1.9091	0.	-218.77
10300	5.4198	2.	0.	-255.2
10301	5.5116	2.	5.e-002	1.0438e-005
10302	5.5116	1.7273	0.	-176.89
10303	5.4198	1.8182	0.	-214.76
10304	5.5116	1.8182	5.e-002	5.2888e-005
10305	5.5116	1.5455	0.	-135.27
10306	5.4198	1.6364	0.	-173.22
10307	5.5116	1.6364	5.e-002	4.7217e-005
10308	5.5116	1.3636	0.	-95.969
10309	5.4198	1.4545	0.	-132.6
10310	5.5116	1.4545	5.e-002	4.066e-005
10311	5.5116	1.1818	0.	-60.801
10312	5.4198	1.2727	0.	-94.741
10313	5.5116	1.2727	5.e-002	1.3641e-005
10314	5.5116	1.	0.	-31.321
10315	5.4198	1.0909	0.	-61.221
10316	5.5116	1.0909	5.e-002	3.8627e-005
10317	5.5116	0.81818	0.	-9.3293
10318	5.4198	0.90909	0.	-33.342
10319	5.5116	0.90909	5.e-002	2.357e-005
10320	5.5116	0.63636	0.	-1.1312
10321	5.4198	0.72727	0.	-12.304
10322	5.5116	0.72727	5.e-002	7.5348e-006
10323	5.5116	0.45455	0.	-0.2977
10324	5.4198	0.54545	0.	-1.5842
10325	5.5116	0.54545	5.e-002	7.1135e-006
10326	5.5116	0.27273	0.	-4.5868e-002
10327	5.4198	0.36364	0.	-0.3032
10328	5.5116	0.36364	5.e-002	2.7677e-006
10329	5.4198	0.18182	0.	1.3598e-002
10330	5.5116	0.18182	5.e-002	2.0202e-007
10331	5.5116	9.0909e-002	0.	3.0501e-002
10332	5.3279	5.7273	0.	-0.41458
10333	5.236	5.8182	0.	-0.52493
10334	5.3279	5.8182	5.e-002	4.482e-007
10335	5.3279	5.9091	0.	2.126e-002
10336	5.3279	5.5455	0.	-4.0996
10337	5.236	5.6364	0.	-5.7723
10338	5.3279	5.6364	5.e-002	5.5805e-007
10339	5.3279	5.3636	0.	-16.862
10340	5.236	5.4545	0.	-18.525
10341	5.3279	5.4545	5.e-002	9.142e-007
10342	5.3279	5.1818	0.	-36.918
10343	5.236	5.2727	0.	-37.837
10344	5.3279	5.2727	5.e-002	6.5702e-007
10345	5.3279	5.	0.	-63.306
10346	5.236	5.0909	0.	-63.198
10347	5.3279	5.0909	5.e-002	1.3e-006
10348	5.3279	4.8182	0.	-95.154
10349	5.236	4.9091	0.	-93.917
10350	5.3279	4.9091	5.e-002	1.5215e-006
10351	5.3279	4.6364	0.	-131.36
10352	5.236	4.7273	0.	-129.05
10353	5.3279	4.7273	5.e-002	-2.1441e-015
10354	5.3279	4.4545	0.	-170.54
10355	5.236	4.5455	0.	-167.4
10356	5.3279	4.5455	5.e-002	-1.9956e-015
10357	5.3279	4.2727	0.	-211.08
10358	5.236	4.3636	0.	-207.53
10359	5.3279	4.3636	5.e-002	2.9376e-005
10360	5.3279	4.0909	0.	-251.2
10361	5.236	4.1818	0.	-247.81
10362	5.3279	4.1818	5.e-002	3.8121e-006
10363	5.3279	3.9091	0.	-289.02
10364	5.236	4.	0.	-286.5
10365	5.3279	4.	5.e-002	2.1961e-006
10366	5.3279	3.7273	0.	-322.75
10367	5.236	3.8182	0.	-321.86
10368	5.3279	3.8182	5.e-002	3.2178e-006
10369	5.3279	3.5455	0.	-350.77
10370	5.236	3.6364	0.	-352.29
10371	5.3279	3.6364	5.e-002	4.3797e-005
10372	5.3279	3.3636	0.	-371.77
10373	5.236	3.4545	0.	-376.39
10374	5.3279	3.4545	5.e-002	8.6706e-005
10375	5.3279	3.1818	0.	-384.75
10376	5.236	3.2727	0.	-393.07
10377	5.3279	3.2727	5.e-002	3.9038e-007
10378	5.3279	3.	0.	-389.15
10379	5.236	3.0909	0.	-401.6
10380	5.3279	3.0909	5.e-002	6.9707e-006
10381	5.3279	2.8182	0.	-384.75
10382	5.236	2.9091	0.	-401.6
10383	5.3279	2.9091	5.e-002	2.204e-006
10384	5.3279	2.6364	0.	-371.77
10385	5.236	2.7273	0.	-393.07
10386	5.3279	2.7273	5.e-002	-1.6853e-006
10387	5.3279	2.4545	0.	-350.77
10388	5.236	2.5455	0.	-376.39
10389	5.3279	2.5455	5.e-002	8.9059e-005
10390	5.3279	2.2727	0.	-322.75
10391	5.236	2.3636	0.	-352.29
10392	5.3279	2.3636	5.e-002	4.6747e-005
10393	5.3279	2.0909	0.	-289.02
10394	5.236	2.1818	0.	-321.86
10395	5.3279	2.1818	5.e-002	4.8759e-005
10396	5.3279	1.9091	0.	-251.2
10397	5.236	2.	0.	-286.5
10398	5.3279	2.	5.e-002	8.7842e-006
10399	5.3279	1.7273	0.	-211.08
10400	5.236	1.8182	0.	-247.81
10401	5.3279	1.8182	5.e-002	7.6809e-005
10402	5.3279	1.5455	0.	-170.54
10403	5.236	1.6364	0.	-207.53
10404	5.3279	1.6364	5.e-002	6.7956e-005
10405	5.3279	1.3636	0.	-131.36
10406	5.236	1.4545	0.	-167.4
10407	5.3279	1.4545	5.e-002	3.3045e-005
10408	5.3279	1.1818	0.	-95.154
10409	5.236	1.2727	0.	-129.05
10410	5.3279	1.2727	5.e-002	1.5527e-005
10411	5.3279	1.	0.	-63.306
10412	5.236	1.0909	0.	-93.917
10413	5.3279	1.0909	5.e-002	9.8715e-006
10414	5.3279	0.81818	0.	-36.918
10415	5.236	0.90909	0.	-63.198
10416	5.3279	0.90909	5.e-002	2.6956e-005
10417	5.3279	0.63636	0.	-16.862
10418	5.236	0.72727	0.	-37.837
10419	5.3279	0.72727	5.e-002	1.1563e-005
10420	5.3279	0.45455	0.	-4.0996
10421	5.236	0.54545	0.	-18.525
10422	5.3279	0.54545	5.e-002	4.7648e-006
10423	5.3279	0.27273	0.	-0.41458
10424	5.236	0.36364	0.	-5.7723
10425	5.3279	0.36364	5.e-002	1.9252e-006
10426	5.236	0.18182	0.	-0.52493
10427	5.3279	0.18182	5.e-002	7.2753e-007
10428	5.3279	9.0909e-002	0.	2.1261e-002
10429	5.1442	5.7273	0.	-7.5938
10430	5.0523	5.8182	0.	-5.7612
10431	5.1442	5.8182	5.e-002	5.8764e-007
10432	5.1442	5.9091	0.	-1.135
10433	5.1442	5.5455	0.	-20.696
10434	5.0523	5.6364	0.	-19.421
10435	5.1442	5.6364	5.e-002	1.0034e-006
10436	5.1442	5.3636	0.	-39.592
10437	5.0523	5.4545	0.	-38.326
10438	5.1442	5.4545	5.e-002	8.8047e-007
10439	5.1442	5.1818	0.	-64.139
10440	5.0523	5.2727	0.	-62.534
10441	5.1442	5.2727	5.e-002	4.3126e-007
10442	5.1442	5.	0.	-93.811
10443	5.0523	5.0909	0.	-91.681
10444	5.1442	5.0909	5.e-002	-2.2245e-015
10445	5.1442	4.8182	0.	-127.81
10446	5.0523	4.9091	0.	-125.11
10447	5.1442	4.9091	5.e-002	-2.1416e-015
10448	5.1442	4.6364	0.	-165.1
10449	5.0523	4.7273	0.	-161.91
10450	5.1442	4.7273	5.e-002	1.6676e-006
10451	5.1442	4.4545	0.	-204.4
10452	5.0523	4.5455	0.	-200.96
10453	5.1442	4.5455	5.e-002	4.06e-005
10454	5.1442	4.2727	0.	-244.27
10455	5.0523	4.3636	0.	-240.96
10456	5.1442	4.3636	5.e-002	7.1716e-005
10457	5.1442	4.0909	0.	-283.12
10458	5.0523	4.1818	0.	-280.45
10459	5.1442	4.1818	5.e-002	1.5944e-006
10460	5.1442	3.9091	0.	-319.36
10461	5.0523	4.	0.	-317.9
10462	5.1442	4.	5.e-002	2.8551e-006
10463	5.1442	3.7273	0.	-351.42
10464	5.0523	3.8182	0.	-351.83
10465	5.1442	3.8182	5.e-002	9.065e-007
10466	5.1442	3.5455	0.	-377.93
10467	5.0523	3.6364	0.	-380.84
10468	5.1442	3.6364	5.e-002	1.3337e-006
10469	5.1442	3.3636	0.	-397.73
10470	5.0523	3.4545	0.	-403.72
10471	5.1442	3.4545	5.e-002	2.1826e-005
10472	5.1442	3.1818	0.	-409.95
10473	5.0523	3.2727	0.	-419.52
10474	5.1442	3.2727	5.e-002	1.2984e-005
10475	5.1442	3.	0.	-414.09
10476	5.0523	3.0909	0.	-427.58
10477	5.1442	3.0909	5.e-002	-8.7407e-006
10478	5.1442	2.8182	0.	-409.95
10479	5.0523	2.9091	0.	-427.58
10480	5.1442	2.9091	5.e-002	-7.0552e-006
10481	5.1442	2.6364	0.	-397.73
10482	5.0523	2.7273	0.	-419.52
10483	5.1442	2.7273	5.e-002	8.3687e-006
10484	5.1442	2.4545	0.	-377.93
10485	5.0523	2.5455	0.	-403.72
10486	5.1442	2.5455	5.e-002	2.3407e-005
10487	5.1442	2.2727	0.	-351.42
10488	5.0523	2.3636	0.	-380.84
10489	5.1442	2.3636	5.e-002	3.5986e-005
10490	5.1442	2.0909	0.	-319.36
10491	5.0523	2.1818	0.	-351.83
10492	5.1442	2.1818	5.e-002	3.626e-006
10493	5.1442	1.9091	0.	-283.12
10494	5.0523	2.	0.	-317.9
10495	5.1442	2.	5.e-002	6.1567e-006
10496	5.1442	1.7273	0.	-244.27
10497	5.0523	1.8182	0.	-280.45
10498	5.1442	1.8182	5.e-002	8.5584e-006
10499	5.1442	1.5455	0.	-204.4
10500	5.0523	1.6364	0.	-240.96
10501	5.1442	1.6364	5.e-002	8.148e-005
10502	5.1442	1.3636	0.	-165.1
10503	5.0523	1.4545	0.	-200.96
10504	5.1442	1.4545	5.e-002	7.0798e-005
10505	5.1442	1.1818	0.	-127.81
10506	5.0523	1.2727	0.	-161.91
10507	5.1442	1.2727	5.e-002	9.3416e-006
10508	5.1442	1.	0.	-93.811
10509	5.0523	1.0909	0.	-125.11
10510	5.1442	1.0909	5.e-002	2.27e-005
10511	5.1442	0.81818	0.	-64.139
10512	5.0523	0.90909	0.	-91.681
10513	5.1442	0.90909	5.e-002	7.426e-006
10514	5.1442	0.63636	0.	-39.592
10515	5.0523	0.72727	0.	-62.534
10516	5.1442	0.72727	5.e-002	1.2651e-005
10517	5.1442	0.45455	0.	-20.696
10518	5.0523	0.54545	0.	-38.326
10519	5.1442	0.54545	5.e-002	1.2811e-005
10520	5.1442	0.27273	0.	-7.5938
10521	5.0523	0.36364	0.	-19.421
10522	5.1442	0.36364	5.e-002	2.2253e-006
10523	5.0523	0.18182	0.	-5.7612
10524	5.1442	0.18182	5.e-002	1.5724e-006
10525	5.1442	9.0909e-002	0.	-1.135
10526	4.9605	5.7273	0.	-17.547
10527	4.8686	5.8182	0.	-12.005
10528	4.9605	5.8182	5.e-002	2.9328e-007
10529	4.9605	5.9091	0.	-4.5913
10530	4.9605	5.5455	0.	-37.071
10531	4.8686	5.6364	0.	-32.475
10532	4.9605	5.6364	5.e-002	9.1126e-007
10533	4.9605	5.3636	0.	-61.278
10534	4.8686	5.4545	0.	-57.12
10535	4.9605	5.4545	5.e-002	4.406e-007
10536	4.9605	5.1818	0.	-90.08
10537	4.8686	5.2727	0.	-86.057
10538	4.9605	5.2727	5.e-002	-2.1535e-015
10539	4.9605	5.	0.	-122.98
10540	4.8686	5.0909	0.	-118.95
10541	4.9605	5.0909	5.e-002	2.7609e-006
10542	4.9605	4.8182	0.	-159.21
10543	4.8686	4.9091	0.	-155.15
10544	4.9605	4.9091	5.e-002	1.5262e-006
10545	4.9605	4.6364	0.	-197.78
10546	4.8686	4.7273	0.	-193.81
10547	4.9605	4.7273	5.e-002	-1.2334e-006
10548	4.9605	4.4545	0.	-237.54
10549	4.8686	4.5455	0.	-233.88
10550	4.9605	4.5455	5.e-002	2.5956e-006
10551	4.9605	4.2727	0.	-277.16
10552	4.8686	4.3636	0.	-274.14
10553	4.9605	4.3636	5.e-002	1.4036e-006
10554	4.9605	4.0909	0.	-315.25
10555	4.8686	4.1818	0.	-313.32
10556	4.9605	4.1818	5.e-002	2.0472e-005
10557	4.9605	3.9091	0.	-350.4
10558	4.8686	4.	0.	-350.05
10559	4.9605	4.	5.e-002	1.8093e-005
10560	4.9605	3.7273	0.	-381.27
10561	4.8686	3.8182	0.	-383.03
10562	4.9605	3.8182	5.e-002	3.1021e-007
10563	4.9605	3.5455	0.	-406.65
10564	4.8686	3.6364	0.	-411.04
10565	4.9605	3.6364	5.e-002	1.576e-005
10566	4.9605	3.3636	0.	-425.54
10567	4.8686	3.4545	0.	-433.04
10568	4.9605	3.4545	5.e-002	-2.4904e-006
10569	4.9605	3.1818	0.	-437.17
10570	4.8686	3.2727	0.	-448.18
10571	4.9605	3.2727	5.e-002	-6.5974e-006
10572	4.9605	3.	0.	-441.11
10573	4.8686	3.0909	0.	-455.9
10574	4.9605	3.0909	5.e-002	-1.0809e-005
10575	4.9605	2.8182	0.	-437.17
10576	4.8686	2.9091	0.	-455.9
10577	4.9605	2.9091	5.e-002	-5.4349e-006
10578	4.9605	2.6364	0.	-425.54
10579	4.8686	2.7273	0.	-448.18
10580	4.9605	2.7273	5.e-002	1.2053e-005
10581	4.9605	2.4545	0.	-406.65
10582	4.8686	2.5455	0.	-433.04
10583	4.9605	2.5455	5.e-002	-2.1738e-006
10584	4.9605	2.2727	0.	-381.27
10585	4.8686	2.3636	0.	-411.04
10586	4.9605	2.3636	5.e-002	4.079e-005
10587	4.9605	2.0909	0.	-350.4
10588	4.8686	2.1818	0.	-383.03
10589	4.9605	2.1818	5.e-002	3.6787e-006
10590	4.9605	1.9091	0.	-315.25
10591	4.8686	2.	0.	-350.05
10592	4.9605	2.	5.e-002	2.7299e-005
10593	4.9605	1.7273	0.	-277.16
10594	4.8686	1.8182	0.	-313.32
10595	4.9605	1.8182	5.e-002	5.0706e-005
10596	4.9605	1.5455	0.	-237.54
10597	4.8686	1.6364	0.	-274.14
10598	4.9605	1.6364	5.e-002	2.4071e-005
10599	4.9605	1.3636	0.	-197.78
10600	4.8686	1.4545	0.	-233.88
10601	4.9605	1.4545	5.e-002	2.7836e-005
10602	4.9605	1.1818	0.	-159.21
10603	4.8686	1.2727	0.	-193.81
10604	4.9605	1.2727	5.e-002	3.742e-005
10605	4.9605	1.	0.	-122.98
10606	4.8686	1.0909	0.	-155.15
10607	4.9605	1.0909	5.e-002	3.2062e-005
10608	4.9605	0.81818	0.	-90.08
10609	4.8686	0.90909	0.	-118.95
10610	4.9605	0.90909	5.e-002	1.7279e-005
10611	4.9605	0.63636	0.	-61.278
10612	4.8686	0.72727	0.	-86.057
10613	4.9605	0.72727	5.e-002	7.1226e-006
10614	4.9605	0.45455	0.	-37.071
10615	4.8686	0.54545	0.	-57.12
10616	4.9605	0.54545	5.e-002	9.3818e-006
10617	4.9605	0.27273	0.	-17.547
10618	4.8686	0.36364	0.	-32.475
10619	4.9605	0.36364	5.e-002	2.9178e-006
10620	4.8686	0.18182	0.	-12.005
10621	4.9605	0.18182	5.e-002	9.5461e-007
10622	4.9605	9.0909e-002	0.	-4.5914
10623	4.7767	5.7273	0.	-26.869
10624	4.6849	5.8182	0.	-17.767
10625	4.7767	5.8182	5.e-002	1.1557e-007
10626	4.7767	5.9091	0.	-7.8003
10627	4.7767	5.5455	0.	-52.528
10628	4.6849	5.6364	0.	-44.736
10629	4.7767	5.6364	5.e-002	8.8844e-007
10630	4.7767	5.3636	0.	-81.901
10631	4.6849	5.4545	0.	-74.96
10632	4.7767	5.4545	5.e-002	1.1456e-006
10633	4.7767	5.1818	0.	-114.93
10634	4.6849	5.2727	0.	-108.58
10635	4.7767	5.2727	5.e-002	2.597e-006
10636	4.7767	5.	0.	-151.12
10637	4.6849	5.0909	0.	-145.28
10638	4.7767	5.0909	5.e-002	1.4309e-006
10639	4.7767	4.8182	0.	-189.76
10640	4.6849	4.9091	0.	-184.43
10641	4.7767	4.9091	5.e-002	1.5409e-006
10642	4.7767	4.6364	0.	-229.91
10643	4.6849	4.7273	0.	-225.21
10644	4.7767	4.7273	5.e-002	-1.9143e-015
10645	4.7767	4.4545	0.	-270.5
10646	4.6849	4.5455	0.	-266.64
10647	4.7767	4.5455	5.e-002	2.9612e-007
10648	4.7767	4.2727	0.	-310.32
10649	4.6849	4.3636	0.	-307.61
10650	4.7767	4.3636	5.e-002	-9.7412e-007
10651	4.7767	4.0909	0.	-348.14
10652	4.6849	4.1818	0.	-346.94
10653	4.7767	4.1818	5.e-002	-9.1372e-007
10654	4.7767	3.9091	0.	-382.7
10655	4.6849	4.	0.	-383.44
10656	4.7767	4.	5.e-002	-6.4458e-008
10657	4.7767	3.7273	0.	-412.82
10658	4.6849	3.8182	0.	-415.94
10659	4.7767	3.8182	5.e-002	-4.6924e-006
10660	4.7767	3.5455	0.	-437.45
10661	4.6849	3.6364	0.	-443.37
10662	4.7767	3.6364	5.e-002	-5.9089e-006
10663	4.7767	3.3636	0.	-455.71
10664	4.6849	3.4545	0.	-464.81
10665	4.7767	3.4545	5.e-002	2.5485e-006
10666	4.7767	3.1818	0.	-466.93
10667	4.6849	3.2727	0.	-479.52
10668	4.7767	3.2727	5.e-002	-1.1618e-005
10669	4.7767	3.	0.	-470.72
10670	4.6849	3.0909	0.	-487.01
10671	4.7767	3.0909	5.e-002	-1.5749e-005
10672	4.7767	2.8182	0.	-466.93
10673	4.6849	2.9091	0.	-487.01
10674	4.7767	2.9091	5.e-002	-1.0449e-005
10675	4.7767	2.6364	0.	-455.71
10676	4.6849	2.7273	0.	-479.52
10677	4.7767	2.7273	5.e-002	-3.6995e-006
10678	4.7767	2.4545	0.	-437.45
10679	4.6849	2.5455	0.	-464.81
10680	4.7767	2.5455	5.e-002	1.4854e-005
10681	4.7767	2.2727	0.	-412.82
10682	4.6849	2.3636	0.	-443.37
10683	4.7767	2.3636	5.e-002	2.0621e-006
10684	4.7767	2.0909	0.	-382.7
10685	4.6849	2.1818	0.	-415.94
10686	4.7767	2.1818	5.e-002	4.6601e-006
10687	4.7767	1.9091	0.	-348.14
10688	4.6849	2.	0.	-383.44
10689	4.7767	2.	5.e-002	2.3191e-005
10690	4.7767	1.7273	0.	-310.32
10691	4.6849	1.8182	0.	-346.94
10692	4.7767	1.8182	5.e-002	2.887e-005
10693	4.7767	1.5455	0.	-270.5
10694	4.6849	1.6364	0.	-307.61
10695	4.7767	1.6364	5.e-002	2.6181e-005
10696	4.7767	1.3636	0.	-229.91
10697	4.6849	1.4545	0.	-266.64
10698	4.7767	1.4545	5.e-002	6.5535e-006
10699	4.7767	1.1818	0.	-189.76
10700	4.6849	1.2727	0.	-225.21
10701	4.7767	1.2727	5.e-002	3.7876e-005
10702	4.7767	1.	0.	-151.12
10703	4.6849	1.0909	0.	-184.43
10704	4.7767	1.0909	5.e-002	7.78e-006
10705	4.7767	0.81818	0.	-114.93
10706	4.6849	0.90909	0.	-145.28
10707	4.7767	0.90909	5.e-002	9.8632e-006
10708	4.7767	0.63636	0.	-81.901
10709	4.6849	0.72727	0.	-108.58
10710	4.7767	0.72727	5.e-002	5.3127e-006
10711	4.7767	0.45455	0.	-52.528
10712	4.6849	0.54545	0.	-74.96
10713	4.7767	0.54545	5.e-002	6.8737e-006
10714	4.7767	0.27273	0.	-26.869
10715	4.6849	0.36364	0.	-44.736
10716	4.7767	0.36364	5.e-002	8.027e-006
10717	4.6849	0.18182	0.	-17.767
10718	4.7767	0.18182	5.e-002	1.3125e-006
10719	4.7767	9.0909e-002	0.	-7.8003
10720	4.593	5.7273	0.	-35.55
10721	4.5012	5.8182	0.	-23.023
10722	4.593	5.8182	5.e-002	1.1607e-006
10723	4.593	5.9091	0.	-10.708
10724	4.593	5.5455	0.	-67.162
10725	4.5012	5.6364	0.	-56.288
10726	4.593	5.6364	5.e-002	8.6e-007
10727	4.593	5.3636	0.	-101.64
10728	4.5012	5.4545	0.	-92.001
10729	4.593	5.4545	5.e-002	-1.9954e-015
10730	4.593	5.1818	0.	-138.93
10731	4.5012	5.2727	0.	-130.33
10732	4.593	5.2727	5.e-002	-1.9906e-015
10733	4.593	5.	0.	-178.58
10734	4.5012	5.0909	0.	-170.97
10735	4.593	5.0909	5.e-002	1.487e-006
10736	4.593	4.8182	0.	-219.88
10737	4.5012	4.9091	0.	-213.29
10738	4.593	4.9091	5.e-002	-1.9372e-015
10739	4.593	4.6364	0.	-261.94
10740	4.5012	4.7273	0.	-256.5
10741	4.593	4.7273	5.e-002	-1.4547e-006
10742	4.593	4.4545	0.	-303.76
10743	4.5012	4.5455	0.	-299.68
10744	4.593	4.5455	5.e-002	-1.8187e-015
10745	4.593	4.2727	0.	-344.24
10746	4.5012	4.3636	0.	-341.8
10747	4.593	4.3636	5.e-002	8.4082e-007
10748	4.593	4.0909	0.	-382.26
10749	4.5012	4.1818	0.	-381.77
10750	4.593	4.1818	5.e-002	-4.7883e-006
10751	4.593	3.9091	0.	-416.7
10752	4.5012	4.	0.	-418.51
10753	4.593	4.	5.e-002	9.3366e-006
10754	4.593	3.7273	0.	-446.51
10755	4.5012	3.8182	0.	-450.97
10756	4.593	3.8182	5.e-002	1.0172e-005
10757	4.593	3.5455	0.	-470.75
10758	4.5012	3.6364	0.	-478.22
10759	4.593	3.6364	5.e-002	-6.7078e-006
10760	4.593	3.3636	0.	-488.65
10761	4.5012	3.4545	0.	-499.41
10762	4.593	3.4545	5.e-002	-4.607e-006
10763	4.593	3.1818	0.	-499.63
10764	4.5012	3.2727	0.	-513.92
10765	4.593	3.2727	5.e-002	-1.1917e-006
10766	4.593	3.	0.	-503.33
10767	4.5012	3.0909	0.	-521.29
10768	4.593	3.0909	5.e-002	-4.3779e-006
10769	4.593	2.8182	0.	-499.63
10770	4.5012	2.9091	0.	-521.29
10771	4.593	2.9091	5.e-002	-3.0145e-006
10772	4.593	2.6364	0.	-488.65
10773	4.5012	2.7273	0.	-513.92
10774	4.593	2.7273	5.e-002	-8.0442e-006
10775	4.593	2.4545	0.	-470.75
10776	4.5012	2.5455	0.	-499.41
10777	4.593	2.5455	5.e-002	1.5712e-006
10778	4.593	2.2727	0.	-446.51
10779	4.5012	2.3636	0.	-478.22
10780	4.593	2.3636	5.e-002	7.7032e-007
10781	4.593	2.0909	0.	-416.7
10782	4.5012	2.1818	0.	-450.97
10783	4.593	2.1818	5.e-002	1.6593e-005
10784	4.593	1.9091	0.	-382.26
10785	4.5012	2.	0.	-418.51
10786	4.593	2.	5.e-002	2.0031e-005
10787	4.593	1.7273	0.	-344.24
10788	4.5012	1.8182	0.	-381.77
10789	4.593	1.8182	5.e-002	9.7731e-006
10790	4.593	1.5455	0.	-303.76
10791	4.5012	1.6364	0.	-341.8
10792	4.593	1.6364	5.e-002	2.5922e-005
10793	4.593	1.3636	0.	-261.94
10794	4.5012	1.4545	0.	-299.68
10795	4.593	1.4545	5.e-002	2.3166e-005
10796	4.593	1.1818	0.	-219.88
10797	4.5012	1.2727	0.	-256.5
10798	4.593	1.2727	5.e-002	2.4558e-005
10799	4.593	1.	0.	-178.58
10800	4.5012	1.0909	0.	-213.29
10801	4.593	1.0909	5.e-002	1.9445e-005
10802	4.593	0.81818	0.	-138.93
10803	4.5012	0.90909	0.	-170.97
10804	4.593	0.90909	5.e-002	1.7162e-005
10805	4.593	0.63636	0.	-101.64
10806	4.5012	0.72727	0.	-130.33
10807	4.593	0.72727	5.e-002	7.5463e-006
10808	4.593	0.45455	0.	-67.163
10809	4.5012	0.54545	0.	-92.001
10810	4.593	0.54545	5.e-002	2.1327e-005
10811	4.593	0.27273	0.	-35.55
10812	4.5012	0.36364	0.	-56.288
10813	4.593	0.36364	5.e-002	1.6532e-005
10814	4.5012	0.18182	0.	-23.023
10815	4.593	0.18182	5.e-002	4.722e-006
10816	4.593	9.0909e-002	0.	-10.708
10817	4.4093	5.7273	0.	-43.652
10818	4.3174	5.8182	0.	-27.795
10819	4.4093	5.8182	5.e-002	-2.5536e-015
10820	4.4093	5.9091	0.	-13.324
10821	4.4093	5.5455	0.	-81.11
10822	4.3174	5.6364	0.	-67.233
10823	4.4093	5.6364	5.e-002	-1.9689e-015
10824	4.4093	5.3636	0.	-120.68
10825	4.3174	5.4545	0.	-108.41
10826	4.4093	5.4545	5.e-002	-1.9481e-015
10827	4.4093	5.1818	0.	-162.36
10828	4.3174	5.2727	0.	-151.54
10829	4.4093	5.2727	5.e-002	-1.9499e-015
10830	4.4093	5.	0.	-205.67
10831	4.3174	5.0909	0.	-196.31
10832	4.4093	5.0909	5.e-002	-1.9399e-015
10833	4.4093	4.8182	0.	-249.91
10834	4.3174	4.9091	0.	-242.07
10835	4.4093	4.9091	5.e-002	1.0851e-005
10836	4.4093	4.6364	0.	-294.25
10837	4.3174	4.7273	0.	-288.07
10838	4.4093	4.7273	5.e-002	1.6294e-006
10839	4.4093	4.4545	0.	-337.73
10840	4.3174	4.5455	0.	-333.4
10841	4.4093	4.5455	5.e-002	-1.8212e-015
10842	4.4093	4.2727	0.	-379.33
10843	4.3174	4.3636	0.	-377.11
10844	4.4093	4.3636	5.e-002	1.2181e-005
10845	4.4093	4.0909	0.	-418.03
10846	4.3174	4.1818	0.	-418.19
10847	4.4093	4.1818	5.e-002	-5.8311e-006
10848	4.4093	3.9091	0.	-452.8
10849	4.3174	4.	0.	-455.63
10850	4.4093	4.	5.e-002	-6.7848e-006
10851	4.4093	3.7273	0.	-482.71
10852	4.3174	3.8182	0.	-488.5
10853	4.4093	3.8182	5.e-002	1.0866e-005
10854	4.4093	3.5455	0.	-506.91
10855	4.3174	3.6364	0.	-515.92
10856	4.4093	3.6364	5.e-002	-4.6024e-006
10857	4.4093	3.3636	0.	-524.71
10858	4.3174	3.4545	0.	-537.18
10859	4.4093	3.4545	5.e-002	-8.0538e-006
10860	4.4093	3.1818	0.	-535.61
10861	4.3174	3.2727	0.	-551.68
10862	4.4093	3.2727	5.e-002	-4.5621e-006
10863	4.4093	3.	0.	-539.28
10864	4.3174	3.0909	0.	-559.04
10865	4.4093	3.0909	5.e-002	-8.165e-006
10866	4.4093	2.8182	0.	-535.61
10867	4.3174	2.9091	0.	-559.04
10868	4.4093	2.9091	5.e-002	-6.8854e-006
10869	4.4093	2.6364	0.	-524.71
10870	4.3174	2.7273	0.	-551.68
10871	4.4093	2.7273	5.e-002	6.5549e-006
10872	4.4093	2.4545	0.	-506.91
10873	4.3174	2.5455	0.	-537.18
10874	4.4093	2.5455	5.e-002	-2.3584e-006
10875	4.4093	2.2727	0.	-482.71
10876	4.3174	2.3636	0.	-515.92
10877	4.4093	2.3636	5.e-002	1.5886e-006
10878	4.4093	2.0909	0.	-452.8
10879	4.3174	2.1818	0.	-488.5
10880	4.4093	2.1818	5.e-002	2.1082e-005
10881	4.4093	1.9091	0.	-418.03
10882	4.3174	2.	0.	-455.63
10883	4.4093	2.	5.e-002	4.1493e-006
10884	4.4093	1.7273	0.	-379.33
10885	4.3174	1.8182	0.	-418.19
10886	4.4093	1.8182	5.e-002	5.5026e-006
10887	4.4093	1.5455	0.	-337.73
10888	4.3174	1.6364	0.	-377.11
10889	4.4093	1.6364	5.e-002	2.0818e-005
10890	4.4093	1.3636	0.	-294.25
10891	4.3174	1.4545	0.	-333.4
10892	4.4093	1.4545	5.e-002	4.1368e-006
10893	4.4093	1.1818	0.	-249.91
10894	4.3174	1.2727	0.	-288.07
10895	4.4093	1.2727	5.e-002	1.4103e-005
10896	4.4093	1.	0.	-205.67
10897	4.3174	1.0909	0.	-242.07
10898	4.4093	1.0909	5.e-002	1.7355e-005
10899	4.4093	0.81818	0.	-162.36
10900	4.3174	0.90909	0.	-196.31
10901	4.4093	0.90909	5.e-002	1.7377e-005
10902	4.4093	0.63636	0.	-120.68
10903	4.3174	0.72727	0.	-151.54
10904	4.4093	0.72727	5.e-002	2.024e-005
10905	4.4093	0.45455	0.	-81.11
10906	4.3174	0.54545	0.	-108.41
10907	4.4093	0.54545	5.e-002	4.8273e-006
10908	4.4093	0.27273	0.	-43.652
10909	4.3174	0.36364	0.	-67.233
10910	4.4093	0.36364	5.e-002	5.1849e-006
10911	4.3174	0.18182	0.	-27.795
10912	4.4093	0.18182	5.e-002	5.5823e-006
10913	4.4093	9.0909e-002	0.	-13.324
10914	4.2256	5.7273	0.	-51.237
10915	4.1337	5.8182	0.	-32.1
10916	4.2256	5.8182	5.e-002	8.6961e-007
10917	4.2256	5.9091	0.	-15.655
10918	4.2256	5.5455	0.	-94.508
10919	4.1337	5.6364	0.	-77.673
10920	4.2256	5.6364	5.e-002	-1.9462e-015
10921	4.2256	5.3636	0.	-139.25
10922	4.1337	5.4545	0.	-124.37
10923	4.2256	5.4545	5.e-002	-1.9244e-015
10924	4.2256	5.1818	0.	-185.47
10925	4.1337	5.2727	0.	-172.44
10926	4.2256	5.2727	5.e-002	-1.9309e-015
10927	4.2256	5.	0.	-232.69
10928	4.1337	5.0909	0.	-221.56
10929	4.2256	5.0909	5.e-002	1.6087e-006
10930	4.2256	4.8182	0.	-280.21
10931	4.1337	4.9091	0.	-271.09
10932	4.2256	4.9091	5.e-002	1.6339e-006
10933	4.2256	4.6364	0.	-327.22
10934	4.1337	4.7273	0.	-320.25
10935	4.2256	4.7273	5.e-002	1.2228e-005
10936	4.2256	4.4545	0.	-372.79
10937	4.1337	4.5455	0.	-368.17
10938	4.2256	4.5455	5.e-002	-1.8368e-015
10939	4.2256	4.2727	0.	-415.97
10940	4.1337	4.3636	0.	-413.93
10941	4.2256	4.3636	5.e-002	-5.8214e-006
10942	4.2256	4.0909	0.	-455.8
10943	4.1337	4.1818	0.	-456.57
10944	4.2256	4.1818	5.e-002	2.3728e-005
10945	4.2256	3.9091	0.	-491.35
10946	4.1337	4.	0.	-495.16
10947	4.2256	4.	5.e-002	-3.0862e-006
10948	4.2256	3.7273	0.	-521.74
10949	4.1337	3.8182	0.	-528.83
10950	4.2256	3.8182	5.e-002	-6.8832e-007
10951	4.2256	3.5455	0.	-546.23
10952	4.1337	3.6364	0.	-556.8
10953	4.2256	3.6364	5.e-002	-6.7017e-007
10954	4.2256	3.3636	0.	-564.19
10955	4.1337	3.4545	0.	-578.39
10956	4.2256	3.4545	5.e-002	-4.603e-006
10957	4.2256	3.1818	0.	-575.15
10958	4.1337	3.2727	0.	-593.09
10959	4.2256	3.2727	5.e-002	-1.3588e-006
10960	4.2256	3.	0.	-578.84
10961	4.1337	3.0909	0.	-600.53
10962	4.2256	3.0909	5.e-002	-7.7873e-006
10963	4.2256	2.8182	0.	-575.15
10964	4.1337	2.9091	0.	-600.53
10965	4.2256	2.9091	5.e-002	-6.5713e-006
10966	4.2256	2.6364	0.	-564.19
10967	4.1337	2.7273	0.	-593.09
10968	4.2256	2.7273	5.e-002	3.9104e-006
10969	4.2256	2.4545	0.	-546.23
10970	4.1337	2.5455	0.	-578.39
10971	4.2256	2.5455	5.e-002	-2.1754e-006
10972	4.2256	2.2727	0.	-521.74
10973	4.1337	2.3636	0.	-556.8
10974	4.2256	2.3636	5.e-002	1.2685e-005
10975	4.2256	2.0909	0.	-491.35
10976	4.1337	2.1818	0.	-528.83
10977	4.2256	2.1818	5.e-002	1.1165e-006
10978	4.2256	1.9091	0.	-455.8
10979	4.1337	2.	0.	-495.16
10980	4.2256	2.	5.e-002	1.7566e-005
10981	4.2256	1.7273	0.	-415.97
10982	4.1337	1.8182	0.	-456.57
10983	4.2256	1.8182	5.e-002	3.319e-005
10984	4.2256	1.5455	0.	-372.79
10985	4.1337	1.6364	0.	-413.93
10986	4.2256	1.6364	5.e-002	8.444e-006
10987	4.2256	1.3636	0.	-327.22
10988	4.1337	1.4545	0.	-368.17
10989	4.2256	1.4545	5.e-002	2.8751e-006
10990	4.2256	1.1818	0.	-280.21
10991	4.1337	1.2727	0.	-320.25
10992	4.2256	1.2727	5.e-002	3.3911e-005
10993	4.2256	1.	0.	-232.69
10994	4.1337	1.0909	0.	-271.09
10995	4.2256	1.0909	5.e-002	2.0049e-005
10996	4.2256	0.81818	0.	-185.47
10997	4.1337	0.90909	0.	-221.56
10998	4.2256	0.90909	5.e-002	1.9377e-005
10999	4.2256	0.63636	0.	-139.25
11000	4.1337	0.72727	0.	-172.44
11001	4.2256	0.72727	5.e-002	2.1168e-005
11002	4.2256	0.45455	0.	-94.508
11003	4.1337	0.54545	0.	-124.37
11004	4.2256	0.54545	5.e-002	3.042e-005
11005	4.2256	0.27273	0.	-51.237
11006	4.1337	0.36364	0.	-77.673
11007	4.2256	0.36364	5.e-002	2.0918e-006
11008	4.1337	0.18182	0.	-32.1
11009	4.2256	0.18182	5.e-002	1.1841e-005
11010	4.2256	9.0909e-002	0.	-15.655
11011	4.0419	5.7273	0.	-58.361
11012	3.95	5.8182	0.	-35.946
11013	4.0419	5.8182	5.e-002	-6.5053e-006
11014	4.0419	5.9091	0.	-17.702
11015	4.0419	5.5455	0.	-107.49
11016	3.95	5.6364	0.	-87.699
11017	4.0419	5.6364	5.e-002	7.4914e-007
11018	4.0419	5.3636	0.	-157.52
11019	3.95	5.4545	0.	-140.02
11020	4.0419	5.4545	5.e-002	-1.9207e-015
11021	4.0419	5.1818	0.	-208.5
11022	3.95	5.2727	0.	-193.24
11023	4.0419	5.2727	5.e-002	-1.9307e-015
11024	4.0419	5.	0.	-259.94
11025	3.95	5.0909	0.	-247.01
11026	4.0419	5.0909	5.e-002	1.4106e-005
11027	4.0419	4.8182	0.	-311.11
11028	3.95	4.9091	0.	-300.66
11029	4.0419	4.9091	5.e-002	-1.9218e-015
11030	4.0419	4.6364	0.	-361.19
11031	3.95	4.7273	0.	-353.39
11032	4.0419	4.7273	5.e-002	-1.8989e-015
11033	4.0419	4.4545	0.	-409.3
11034	3.95	4.5455	0.	-404.33
11035	4.0419	4.5455	5.e-002	7.8883e-006
11036	4.0419	4.2727	0.	-454.52
11037	3.95	4.3636	0.	-452.59
11038	4.0419	4.3636	5.e-002	-1.6144e-006
11039	4.0419	4.0909	0.	-495.93
11040	3.95	4.1818	0.	-497.24
11041	4.0419	4.1818	5.e-002	-4.5679e-006
11042	4.0419	3.9091	0.	-532.67
11043	3.95	4.	0.	-537.42
11044	4.0419	4.	5.e-002	-8.4614e-006
11045	4.0419	3.7273	0.	-563.92
11046	3.95	3.8182	0.	-572.29
11047	4.0419	3.8182	5.e-002	-1.5118e-005
11048	4.0419	3.5455	0.	-589.
11049	3.95	3.6364	0.	-601.13
11050	4.0419	3.6364	5.e-002	-3.2536e-006
11051	4.0419	3.3636	0.	-607.34
11052	3.95	3.4545	0.	-623.32
11053	4.0419	3.4545	5.e-002	-2.2128e-006
11054	4.0419	3.1818	0.	-618.52
11055	3.95	3.2727	0.	-638.39
11056	4.0419	3.2727	5.e-002	-8.7116e-006
11057	4.0419	3.	0.	-622.27
11058	3.95	3.0909	0.	-646.01
11059	4.0419	3.0909	5.e-002	-3.8322e-007
11060	4.0419	2.8182	0.	-618.52
11061	3.95	2.9091	0.	-646.01
11062	4.0419	2.9091	5.e-002	7.9565e-007
11063	4.0419	2.6364	0.	-607.34
11064	3.95	2.7273	0.	-638.39
11065	4.0419	2.7273	5.e-002	-5.2486e-006
11066	4.0419	2.4545	0.	-589.
11067	3.95	2.5455	0.	-623.32
11068	4.0419	2.5455	5.e-002	3.4496e-006
11069	4.0419	2.2727	0.	-563.92
11070	3.95	2.3636	0.	-601.13
11071	4.0419	2.3636	5.e-002	4.0693e-006
11072	4.0419	2.0909	0.	-532.67
11073	3.95	2.1818	0.	-572.29
11074	4.0419	2.1818	5.e-002	1.2801e-006
11075	4.0419	1.9091	0.	-495.93
11076	3.95	2.	0.	-537.42
11077	4.0419	2.	5.e-002	2.4715e-006
11078	4.0419	1.7273	0.	-454.52
11079	3.95	1.8182	0.	-497.24
11080	4.0419	1.8182	5.e-002	3.1876e-005
11081	4.0419	1.5455	0.	-409.3
11082	3.95	1.6364	0.	-452.59
11083	4.0419	1.6364	5.e-002	2.2256e-006
11084	4.0419	1.3636	0.	-361.19
11085	3.95	1.4545	0.	-404.33
11086	4.0419	1.4545	5.e-002	1.78e-005
11087	4.0419	1.1818	0.	-311.11
11088	3.95	1.2727	0.	-353.39
11089	4.0419	1.2727	5.e-002	5.5788e-005
11090	4.0419	1.	0.	-259.94
11091	3.95	1.0909	0.	-300.66
11092	4.0419	1.0909	5.e-002	3.7489e-005
11093	4.0419	0.81818	0.	-208.5
11094	3.95	0.90909	0.	-247.01
11095	4.0419	0.90909	5.e-002	4.0158e-005
11096	4.0419	0.63636	0.	-157.52
11097	3.95	0.72727	0.	-193.24
11098	4.0419	0.72727	5.e-002	2.2154e-005
11099	4.0419	0.45455	0.	-107.49
11100	3.95	0.54545	0.	-140.02
11101	4.0419	0.54545	5.e-002	4.8841e-006
11102	4.0419	0.27273	0.	-58.361
11103	3.95	0.36364	0.	-87.699
11104	4.0419	0.36364	5.e-002	3.1315e-006
11105	3.95	0.18182	0.	-35.946
11106	4.0419	0.18182	5.e-002	7.6825e-006
11107	4.0419	9.0909e-002	0.	-17.702
11108	3.8581	5.7273	0.	-65.066
11109	3.7663	5.8182	0.	-39.329
11110	3.8581	5.8182	5.e-002	4.1815e-007
11111	3.8581	5.9091	0.	-19.457
11112	3.8581	5.5455	0.	-120.17
11113	3.7663	5.6364	0.	-97.391
11114	3.8581	5.6364	5.e-002	-1.9624e-015
11115	3.8581	5.3636	0.	-175.69
11116	3.7663	5.4545	0.	-155.52
11117	3.8581	5.4545	5.e-002	-1.9341e-015
11118	3.8581	5.1818	0.	-231.71
11119	3.7663	5.2727	0.	-214.16
11120	3.8581	5.2727	5.e-002	-1.9467e-015
11121	3.8581	5.	0.	-287.7
11122	3.7663	5.0909	0.	-272.92
11123	3.8581	5.0909	5.e-002	-1.9523e-015
11124	3.8581	4.8182	0.	-342.91
11125	3.7663	4.9091	0.	-331.07
11126	3.8581	4.9091	5.e-002	-1.7213e-006
11127	3.8581	4.6364	0.	-396.5
11128	3.7663	4.7273	0.	-387.8
11129	3.8581	4.7273	5.e-002	-4.4693e-006
11130	3.8581	4.4545	0.	-447.61
11131	3.7663	4.5455	0.	-442.22
11132	3.8581	4.5455	5.e-002	-2.8278e-006
11133	3.8581	4.2727	0.	-495.31
11134	3.7663	4.3636	0.	-493.44
11135	3.8581	4.3636	5.e-002	-1.8649e-015
11136	3.8581	4.0909	0.	-538.75
11137	3.7663	4.1818	0.	-540.56
11138	3.8581	4.1818	5.e-002	-6.0556e-006
11139	3.8581	3.9091	0.	-577.07
11140	3.7663	4.	0.	-582.73
11141	3.8581	4.	5.e-002	-6.3282e-006
11142	3.8581	3.7273	0.	-609.54
11143	3.7663	3.8182	0.	-619.17
11144	3.8581	3.8182	5.e-002	6.0259e-006
11145	3.8581	3.5455	0.	-635.5
11146	3.7663	3.6364	0.	-649.19
11147	3.8581	3.6364	5.e-002	1.4035e-005
11148	3.8581	3.3636	0.	-654.43
11149	3.7663	3.4545	0.	-672.23
11150	3.8581	3.4545	5.e-002	-2.2775e-006
11151	3.8581	3.1818	0.	-665.95
11152	3.7663	3.2727	0.	-687.84
11153	3.8581	3.2727	5.e-002	-4.0096e-007
11154	3.8581	3.	0.	-669.82
11155	3.7663	3.0909	0.	-695.72
11156	3.8581	3.0909	5.e-002	-8.0143e-006
11157	3.8581	2.8182	0.	-665.95
11158	3.7663	2.9091	0.	-695.72
11159	3.8581	2.9091	5.e-002	-6.8537e-006
11160	3.8581	2.6364	0.	-654.43
11161	3.7663	2.7273	0.	-687.84
11162	3.8581	2.7273	5.e-002	3.2527e-006
11163	3.8581	2.4545	0.	-635.5
11164	3.7663	2.5455	0.	-672.23
11165	3.8581	2.5455	5.e-002	6.7538e-006
11166	3.8581	2.2727	0.	-609.54
11167	3.7663	2.3636	0.	-649.19
11168	3.8581	2.3636	5.e-002	2.5936e-005
11169	3.8581	2.0909	0.	-577.07
11170	3.7663	2.1818	0.	-619.17
11171	3.8581	2.1818	5.e-002	1.5015e-005
11172	3.8581	1.9091	0.	-538.75
11173	3.7663	2.	0.	-582.73
11174	3.8581	2.	5.e-002	1.269e-005
11175	3.8581	1.7273	0.	-495.31
11176	3.7663	1.8182	0.	-540.56
11177	3.8581	1.8182	5.e-002	3.2058e-006
11178	3.8581	1.5455	0.	-447.61
11179	3.7663	1.6364	0.	-493.44
11180	3.8581	1.6364	5.e-002	8.4216e-006
11181	3.8581	1.3636	0.	-396.5
11182	3.7663	1.4545	0.	-442.22
11183	3.8581	1.4545	5.e-002	5.5248e-006
11184	3.8581	1.1818	0.	-342.91
11185	3.7663	1.2727	0.	-387.8
11186	3.8581	1.2727	5.e-002	9.1541e-006
11187	3.8581	1.	0.	-287.7
11188	3.7663	1.0909	0.	-331.07
11189	3.8581	1.0909	5.e-002	4.0619e-005
11190	3.8581	0.81818	0.	-231.71
11191	3.7663	0.90909	0.	-272.92
11192	3.8581	0.90909	5.e-002	4.3894e-005
11193	3.8581	0.63636	0.	-175.69
11194	3.7663	0.72727	0.	-214.16
11195	3.8581	0.72727	5.e-002	3.7621e-005
11196	3.8581	0.45455	0.	-120.17
11197	3.7663	0.54545	0.	-155.52
11198	3.8581	0.54545	5.e-002	2.0667e-006
11199	3.8581	0.27273	0.	-65.067
11200	3.7663	0.36364	0.	-97.391
11201	3.8581	0.36364	5.e-002	3.3417e-006
11202	3.7663	0.18182	0.	-39.329
11203	3.8581	0.18182	5.e-002	1.7948e-005
11204	3.8581	9.0909e-002	0.	-19.457
11205	3.6744	5.7273	0.	-71.385
11206	3.5826	5.8182	0.	-42.23
11207	3.6744	5.8182	5.e-002	-2.9845e-015
11208	3.6744	5.9091	0.	-20.903
11209	3.6744	5.5455	0.	-132.66
11210	3.5826	5.6364	0.	-106.82
11211	3.6744	5.6364	5.e-002	-1.9949e-015
11212	3.6744	5.3636	0.	-193.92
11213	3.5826	5.4545	0.	-171.01
11214	3.6744	5.4545	5.e-002	-1.7911e-006
11215	3.6744	5.1818	0.	-255.31
11216	3.5826	5.2727	0.	-235.39
11217	3.6744	5.2727	5.e-002	-1.2819e-006
11218	3.6744	5.	0.	-316.24
11219	3.5826	5.0909	0.	-299.53
11220	3.6744	5.0909	5.e-002	-1.9863e-015
11221	3.6744	4.8182	0.	-375.92
11222	3.5826	4.9091	0.	-362.63
11223	3.6744	4.9091	5.e-002	-5.2552e-006
11224	3.6744	4.6364	0.	-433.49
11225	3.5826	4.7273	0.	-423.82
11226	3.6744	4.7273	5.e-002	-7.9076e-006
11227	3.6744	4.4545	0.	-488.04
11228	3.5826	4.5455	0.	-482.19
11229	3.6744	4.5455	5.e-002	-5.5574e-006
11230	3.6744	4.2727	0.	-538.69
11231	3.5826	4.3636	0.	-536.83
11232	3.6744	4.3636	5.e-002	-1.9204e-015
11233	3.6744	4.0909	0.	-584.56
11234	3.5826	4.1818	0.	-586.84
11235	3.6744	4.1818	5.e-002	-1.5478e-006
11236	3.6744	3.9091	0.	-624.86
11237	3.5826	4.	0.	-631.4
11238	3.6744	4.	5.e-002	8.8478e-006
11239	3.6744	3.7273	0.	-658.87
11240	3.5826	3.8182	0.	-669.75
11241	3.6744	3.8182	5.e-002	6.1909e-006
11242	3.6744	3.5455	0.	-685.98
11243	3.5826	3.6364	0.	-701.25
11244	3.6744	3.6364	5.e-002	-2.1171e-006
11245	3.6744	3.3636	0.	-705.7
11246	3.5826	3.4545	0.	-725.35
11247	3.6744	3.4545	5.e-002	-8.8801e-006
11248	3.6744	3.1818	0.	-717.68
11249	3.5826	3.2727	0.	-741.64
11250	3.6744	3.2727	5.e-002	-7.799e-006
11251	3.6744	3.	0.	-721.69
11252	3.5826	3.0909	0.	-749.86
11253	3.6744	3.0909	5.e-002	-4.3313e-007
11254	3.6744	2.8182	0.	-717.68
11255	3.5826	2.9091	0.	-749.86
11256	3.6744	2.9091	5.e-002	7.3283e-007
11257	3.6744	2.6364	0.	-705.7
11258	3.5826	2.7273	0.	-741.64
11259	3.6744	2.7273	5.e-002	-4.4091e-006
11260	3.6744	2.4545	0.	-685.98
11261	3.5826	2.5455	0.	-725.35
11262	3.6744	2.5455	5.e-002	-4.0664e-006
11263	3.6744	2.2727	0.	-658.87
11264	3.5826	2.3636	0.	-701.25
11265	3.6744	2.3636	5.e-002	-1.6953e-006
11266	3.6744	2.0909	0.	-624.86
11267	3.5826	2.1818	0.	-669.75
11268	3.6744	2.1818	5.e-002	7.7541e-006
11269	3.6744	1.9091	0.	-584.56
11270	3.5826	2.	0.	-631.4
11271	3.6744	2.	5.e-002	2.626e-005
11272	3.6744	1.7273	0.	-538.69
11273	3.5826	1.8182	0.	-586.84
11274	3.6744	1.8182	5.e-002	-2.8006e-006
11275	3.6744	1.5455	0.	-488.04
11276	3.5826	1.6364	0.	-536.83
11277	3.6744	1.6364	5.e-002	2.2982e-005
11278	3.6744	1.3636	0.	-433.49
11279	3.5826	1.4545	0.	-482.19
11280	3.6744	1.4545	5.e-002	5.5431e-005
11281	3.6744	1.1818	0.	-375.92
11282	3.5826	1.2727	0.	-423.82
11283	3.6744	1.2727	5.e-002	3.0141e-005
11284	3.6744	1.	0.	-316.24
11285	3.5826	1.0909	0.	-362.63
11286	3.6744	1.0909	5.e-002	4.5052e-005
11287	3.6744	0.81818	0.	-255.31
11288	3.5826	0.90909	0.	-299.53
11289	3.6744	0.90909	5.e-002	2.4212e-005
11290	3.6744	0.63636	0.	-193.92
11291	3.5826	0.72727	0.	-235.39
11292	3.6744	0.72727	5.e-002	2.7178e-005
11293	3.6744	0.45455	0.	-132.66
11294	3.5826	0.54545	0.	-171.01
11295	3.6744	0.54545	5.e-002	2.54e-005
11296	3.6744	0.27273	0.	-71.385
11297	3.5826	0.36364	0.	-106.82
11298	3.6744	0.36364	5.e-002	2.8493e-006
11299	3.5826	0.18182	0.	-42.23
11300	3.6744	0.18182	5.e-002	1.7248e-006
11301	3.6744	9.0909e-002	0.	-20.903
11302	3.4907	5.7273	0.	-77.332
11303	3.3988	5.8182	0.	-44.62
11304	3.4907	5.8182	5.e-002	-9.153e-006
11305	3.4907	5.9091	0.	-22.015
11306	3.4907	5.5455	0.	-145.07
11307	3.3988	5.6364	0.	-116.03
11308	3.4907	5.6364	5.e-002	-2.0406e-015
11309	3.4907	5.3636	0.	-212.4
11310	3.3988	5.4545	0.	-186.62
11311	3.4907	5.4545	5.e-002	-3.6956e-006
11312	3.4907	5.1818	0.	-279.54
11313	3.3988	5.2727	0.	-257.15
11314	3.4907	5.2727	5.e-002	-3.6848e-006
11315	3.4907	5.	0.	-345.86
11316	3.3988	5.0909	0.	-327.12
11317	3.4907	5.0909	5.e-002	-2.0336e-015
11318	3.4907	4.8182	0.	-410.48
11319	3.3988	4.9091	0.	-395.65
11320	3.4907	4.9091	5.e-002	-2.0358e-015
11321	3.4907	4.6364	0.	-472.49
11322	3.3988	4.7273	0.	-461.79
11323	3.4907	4.7273	5.e-002	-6.1549e-006
11324	3.4907	4.4545	0.	-530.96
11325	3.3988	4.5455	0.	-524.6
11326	3.4907	4.5455	5.e-002	-7.1583e-006
11327	3.4907	4.2727	0.	-584.99
11328	3.3988	4.3636	0.	-583.11
11329	3.4907	4.3636	5.e-002	-1.6587e-006
11330	3.4907	4.0909	0.	-633.71
11331	3.3988	4.1818	0.	-636.44
11332	3.4907	4.1818	5.e-002	-1.5624e-006
11333	3.4907	3.9091	0.	-676.34
11334	3.3988	4.	0.	-683.76
11335	3.4907	4.	5.e-002	-1.0631e-005
11336	3.4907	3.7273	0.	-712.19
11337	3.3988	3.8182	0.	-724.34
11338	3.4907	3.8182	5.e-002	-3.7859e-006
11339	3.4907	3.5455	0.	-740.69
11340	3.3988	3.6364	0.	-757.56
11341	3.4907	3.6364	5.e-002	-9.6214e-006
11342	3.4907	3.3636	0.	-761.37
11343	3.3988	3.4545	0.	-782.92
11344	3.4907	3.4545	5.e-002	-7.3171e-006
11345	3.4907	3.1818	0.	-773.92
11346	3.3988	3.2727	0.	-800.03
11347	3.4907	3.2727	5.e-002	-4.4427e-007
11348	3.4907	3.	0.	-778.12
11349	3.3988	3.0909	0.	-808.66
11350	3.4907	3.0909	5.e-002	-4.254e-007
11351	3.4907	2.8182	0.	-773.92
11352	3.3988	2.9091	0.	-808.66
11353	3.4907	2.9091	5.e-002	7.326e-007
11354	3.4907	2.6364	0.	-761.37
11355	3.3988	2.7273	0.	-800.03
11356	3.4907	2.7273	5.e-002	2.994e-006
11357	3.4907	2.4545	0.	-740.69
11358	3.3988	2.5455	0.	-782.92
11359	3.4907	2.5455	5.e-002	-1.4018e-006
11360	3.4907	2.2727	0.	-712.19
11361	3.3988	2.3636	0.	-757.56
11362	3.4907	2.3636	5.e-002	-9.8153e-006
11363	3.4907	2.0909	0.	-676.34
11364	3.3988	2.1818	0.	-724.34
11365	3.4907	2.1818	5.e-002	1.2682e-005
11366	3.4907	1.9091	0.	-633.71
11367	3.3988	2.	0.	-683.76
11368	3.4907	2.	5.e-002	5.7288e-006
11369	3.4907	1.7273	0.	-584.99
11370	3.3988	1.8182	0.	-636.44
11371	3.4907	1.8182	5.e-002	2.2387e-005
11372	3.4907	1.5455	0.	-530.96
11373	3.3988	1.6364	0.	-583.11
11374	3.4907	1.6364	5.e-002	2.5953e-006
11375	3.4907	1.3636	0.	-472.49
11376	3.3988	1.4545	0.	-524.6
11377	3.4907	1.4545	5.e-002	2.623e-005
11378	3.4907	1.1818	0.	-410.48
11379	3.3988	1.2727	0.	-461.79
11380	3.4907	1.2727	5.e-002	2.6492e-005
11381	3.4907	1.	0.	-345.86
11382	3.3988	1.0909	0.	-395.65
11383	3.4907	1.0909	5.e-002	2.444e-005
11384	3.4907	0.81818	0.	-279.54
11385	3.3988	0.90909	0.	-327.12
11386	3.4907	0.90909	5.e-002	1.0978e-005
11387	3.4907	0.63636	0.	-212.4
11388	3.3988	0.72727	0.	-257.15
11389	3.4907	0.72727	5.e-002	4.9687e-006
11390	3.4907	0.45455	0.	-145.07
11391	3.3988	0.54545	0.	-186.62
11392	3.4907	0.54545	5.e-002	9.8967e-006
11393	3.4907	0.27273	0.	-77.332
11394	3.3988	0.36364	0.	-116.03
11395	3.4907	0.36364	5.e-002	2.1506e-005
11396	3.3988	0.18182	0.	-44.62
11397	3.4907	0.18182	5.e-002	1.8306e-005
11398	3.4907	9.0909e-002	0.	-22.015
11399	3.307	5.7273	0.	-82.915
11400	3.2151	5.8182	0.	-46.455
11401	3.307	5.8182	5.e-002	4.0008e-007
11402	3.307	5.9091	0.	-22.759
11403	3.307	5.5455	0.	-157.47
11404	3.2151	5.6364	0.	-125.08
11405	3.307	5.6364	5.e-002	-2.0979e-015
11406	3.307	5.3636	0.	-231.28
11407	3.2151	5.4545	0.	-202.49
11408	3.307	5.4545	5.e-002	-2.059e-015
11409	3.307	5.1818	0.	-304.64
11410	3.2151	5.2727	0.	-279.64
11411	3.307	5.2727	5.e-002	-8.2152e-006
11412	3.307	5.	0.	-376.83
11413	3.2151	5.0909	0.	-355.96
11414	3.307	5.0909	5.e-002	-3.7351e-006
11415	3.307	4.8182	0.	-446.9
11416	3.2151	4.9091	0.	-430.45
11417	3.307	4.9091	5.e-002	-7.3847e-006
11418	3.307	4.6364	0.	-513.86
11419	3.2151	4.7273	0.	-502.08
11420	3.307	4.7273	5.e-002	-7.2496e-006
11421	3.307	4.4545	0.	-576.73
11422	3.2151	4.5455	0.	-569.81
11423	3.307	4.5455	5.e-002	-7.0455e-006
11424	3.307	4.2727	0.	-634.57
11425	3.2151	4.3636	0.	-632.66
11426	3.307	4.3636	5.e-002	1.6291e-005
11427	3.307	4.0909	0.	-686.52
11428	3.2151	4.1818	0.	-689.71
11429	3.307	4.1818	5.e-002	-1.5843e-006
11430	3.307	3.9091	0.	-731.81
11431	3.2151	4.	0.	-740.13
11432	3.307	4.	5.e-002	-9.1943e-006
11433	3.307	3.7273	0.	-769.78
11434	3.2151	3.8182	0.	-783.22
11435	3.307	3.8182	5.e-002	-9.2003e-006
11436	3.307	3.5455	0.	-799.88
11437	3.2151	3.6364	0.	-818.38
11438	3.307	3.6364	5.e-002	-3.1389e-006
11439	3.307	3.3636	0.	-821.68
11440	3.2151	3.4545	0.	-845.16
11441	3.307	3.4545	5.e-002	-1.5675e-006
11442	3.307	3.1818	0.	-834.88
11443	3.2151	3.2727	0.	-863.21
11444	3.307	3.2727	5.e-002	-1.6708e-005
11445	3.307	3.	0.	-839.3
11446	3.2151	3.0909	0.	-872.28
11447	3.307	3.0909	5.e-002	-1.5807e-005
11448	3.307	2.8182	0.	-834.88
11449	3.2151	2.9091	0.	-872.28
11450	3.307	2.9091	5.e-002	-1.4633e-005
11451	3.307	2.6364	0.	-821.68
11452	3.2151	2.7273	0.	-863.21
11453	3.307	2.7273	5.e-002	-5.5589e-006
11454	3.307	2.4545	0.	-799.88
11455	3.2151	2.5455	0.	-845.16
11456	3.307	2.5455	5.e-002	-6.7837e-007
11457	3.307	2.2727	0.	-769.78
11458	3.2151	2.3636	0.	-818.38
11459	3.307	2.3636	5.e-002	-1.2496e-006
11460	3.307	2.0909	0.	-731.81
11461	3.2151	2.1818	0.	-783.22
11462	3.307	2.1818	5.e-002	1.5318e-005
11463	3.307	1.9091	0.	-686.52
11464	3.2151	2.	0.	-740.13
11465	3.307	2.	5.e-002	1.7846e-005
11466	3.307	1.7273	0.	-634.57
11467	3.2151	1.8182	0.	-689.71
11468	3.307	1.8182	5.e-002	7.9216e-006
11469	3.307	1.5455	0.	-576.73
11470	3.2151	1.6364	0.	-632.66
11471	3.307	1.6364	5.e-002	2.3041e-005
11472	3.307	1.3636	0.	-513.86
11473	3.2151	1.4545	0.	-569.81
11474	3.307	1.4545	5.e-002	2.2338e-005
11475	3.307	1.1818	0.	-446.9
11476	3.2151	1.2727	0.	-502.08
11477	3.307	1.2727	5.e-002	5.2892e-005
11478	3.307	1.	0.	-376.83
11479	3.2151	1.0909	0.	-430.45
11480	3.307	1.0909	5.e-002	1.2383e-005
11481	3.307	0.81818	0.	-304.64
11482	3.2151	0.90909	0.	-355.96
11483	3.307	0.90909	5.e-002	5.9841e-005
11484	3.307	0.63636	0.	-231.28
11485	3.2151	0.72727	0.	-279.64
11486	3.307	0.72727	5.e-002	2.6932e-005
11487	3.307	0.45455	0.	-157.47
11488	3.2151	0.54545	0.	-202.49
11489	3.307	0.54545	5.e-002	2.9794e-005
11490	3.307	0.27273	0.	-82.915
11491	3.2151	0.36364	0.	-125.08
11492	3.307	0.36364	5.e-002	4.8998e-005
11493	3.2151	0.18182	0.	-46.455
11494	3.307	0.18182	5.e-002	9.8249e-006
11495	3.307	9.0909e-002	0.	-22.759
11496	3.1233	5.7273	0.	-88.127
11497	3.0314	5.8182	0.	-47.678
11498	3.1233	5.8182	5.e-002	-9.646e-006
11499	3.1233	5.9091	0.	-23.088
11500	3.1233	5.5455	0.	-169.97
11501	3.0314	5.6364	0.	-134.02
11502	3.1233	5.6364	5.e-002	-2.1659e-015
11503	3.1233	5.3636	0.	-250.75
11504	3.0314	5.4545	0.	-218.76
11505	3.1233	5.4545	5.e-002	-3.8114e-006
11506	3.1233	5.1818	0.	-330.86
11507	3.0314	5.2727	0.	-303.1
11508	3.1233	5.2727	5.e-002	-2.1487e-015
11509	3.1233	5.	0.	-409.49
11510	3.0314	5.0909	0.	-386.37
11511	3.1233	5.0909	5.e-002	-2.1321e-006
11512	3.1233	4.8182	0.	-485.56
11513	3.0314	4.9091	0.	-467.41
11514	3.1233	4.9091	5.e-002	-2.1758e-015
11515	3.1233	4.6364	0.	-557.99
11516	3.0314	4.7273	0.	-545.09
11517	3.1233	4.7273	5.e-002	-3.6911e-006
11518	3.1233	4.4545	0.	-625.73
11519	3.0314	4.5455	0.	-618.26
11520	3.1233	4.5455	5.e-002	-2.1646e-015
11521	3.1233	4.2727	0.	-687.81
11522	3.0314	4.3636	0.	-685.89
11523	3.1233	4.3636	5.e-002	-1.7188e-006
11524	3.1233	4.0909	0.	-743.35
11525	3.0314	4.1818	0.	-747.02
11526	3.1233	4.1818	5.e-002	-3.2217e-006
11527	3.1233	3.9091	0.	-791.6
11528	3.0314	4.	0.	-800.85
11529	3.1233	4.	5.e-002	1.8012e-006
11530	3.1233	3.7273	0.	-831.91
11531	3.0314	3.8182	0.	-846.68
11532	3.1233	3.8182	5.e-002	-3.8386e-006
11533	3.1233	3.5455	0.	-863.78
11534	3.0314	3.6364	0.	-883.97
11535	3.1233	3.6364	5.e-002	-3.6804e-006
11536	3.1233	3.3636	0.	-886.82
11537	3.0314	3.4545	0.	-912.29
11538	3.1233	3.4545	5.e-002	-2.353e-006
11539	3.1233	3.1818	0.	-900.74
11540	3.0314	3.2727	0.	-931.34
11541	3.1233	3.2727	5.e-002	-4.5204e-007
11542	3.1233	3.	0.	-905.4
11543	3.0314	3.0909	0.	-940.91
11544	3.1233	3.0909	5.e-002	-2.3487e-007
11545	3.1233	2.8182	0.	-900.74
11546	3.0314	2.9091	0.	-940.91
11547	3.1233	2.9091	5.e-002	9.7551e-007
11548	3.1233	2.6364	0.	-886.82
11549	3.0314	2.7273	0.	-931.34
11550	3.1233	2.7273	5.e-002	-4.4406e-006
11551	3.1233	2.4545	0.	-863.78
11552	3.0314	2.5455	0.	-912.29
11553	3.1233	2.5455	5.e-002	-1.1054e-005
11554	3.1233	2.2727	0.	-831.91
11555	3.0314	2.3636	0.	-883.97
11556	3.1233	2.3636	5.e-002	4.7319e-006
11557	3.1233	2.0909	0.	-791.6
11558	3.0314	2.1818	0.	-846.68
11559	3.1233	2.1818	5.e-002	9.9641e-007
11560	3.1233	1.9091	0.	-743.35
11561	3.0314	2.	0.	-800.85
11562	3.1233	2.	5.e-002	1.8317e-005
11563	3.1233	1.7273	0.	-687.81
11564	3.0314	1.8182	0.	-747.02
11565	3.1233	1.8182	5.e-002	5.8611e-007
11566	3.1233	1.5455	0.	-625.73
11567	3.0314	1.6364	0.	-685.89
11568	3.1233	1.6364	5.e-002	1.0313e-005
11569	3.1233	1.3636	0.	-557.99
11570	3.0314	1.4545	0.	-618.26
11571	3.1233	1.4545	5.e-002	5.6657e-006
11572	3.1233	1.1818	0.	-485.56
11573	3.0314	1.2727	0.	-545.09
11574	3.1233	1.2727	5.e-002	3.0196e-005
11575	3.1233	1.	0.	-409.49
11576	3.0314	1.0909	0.	-467.41
11577	3.1233	1.0909	5.e-002	5.2587e-006
11578	3.1233	0.81818	0.	-330.86
11579	3.0314	0.90909	0.	-386.37
11580	3.1233	0.90909	5.e-002	1.1147e-004
11581	3.1233	0.63636	0.	-250.75
11582	3.0314	0.72727	0.	-303.1
11583	3.1233	0.72727	5.e-002	5.6696e-005
11584	3.1233	0.45455	0.	-169.97
11585	3.0314	0.54545	0.	-218.76
11586	3.1233	0.54545	5.e-002	1.1434e-005
11587	3.1233	0.27273	0.	-88.127
11588	3.0314	0.36364	0.	-134.02
11589	3.1233	0.36364	5.e-002	8.6615e-005
11590	3.0314	0.18182	0.	-47.679
11591	3.1233	0.18182	5.e-002	2.0873e-005
11592	3.1233	9.0909e-002	0.	-23.088
11593	2.9395	5.7273	0.	-92.952
11594	2.8477	5.8182	0.	-48.223
11595	2.9395	5.8182	5.e-002	-3.8018e-015
11596	2.9395	5.9091	0.	-22.946
11597	2.9395	5.5455	0.	-182.65
11598	2.8477	5.6364	0.	-142.88
11599	2.9395	5.6364	5.e-002	-3.8145e-006
11600	2.9395	5.3636	0.	-270.99
11601	2.8477	5.4545	0.	-235.58
11602	2.9395	5.4545	5.e-002	-2.2048e-015
11603	2.9395	5.1818	0.	-358.49
11604	2.8477	5.2727	0.	-327.79
11605	2.9395	5.2727	5.e-002	-2.2323e-015
11606	2.9395	5.	0.	-444.19
11607	2.8477	5.0909	0.	-418.69
11608	2.9395	5.0909	5.e-002	-3.8133e-006
11609	2.9395	4.8182	0.	-526.86
11610	2.8477	4.9091	0.	-506.96
11611	2.9395	4.9091	5.e-002	1.9864e-005
11612	2.9395	4.6364	0.	-605.31
11613	2.8477	4.7273	0.	-591.28
11614	2.9395	4.7273	5.e-002	2.4777e-005
11615	2.9395	4.4545	0.	-678.41
11616	2.8477	4.5455	0.	-670.41
11617	2.9395	4.5455	5.e-002	-3.6531e-006
11618	2.9395	4.2727	0.	-745.12
11619	2.8477	4.3636	0.	-743.25
11620	2.9395	4.3636	5.e-002	-2.2468e-015
11621	2.9395	4.0909	0.	-804.57
11622	2.8477	4.1818	0.	-808.8
11623	2.9395	4.1818	5.e-002	2.8205e-005
11624	2.9395	3.9091	0.	-856.02
11625	2.8477	4.	0.	-866.28
11626	2.9395	4.	5.e-002	2.2569e-006
11627	2.9395	3.7273	0.	-898.85
11628	2.8477	3.8182	0.	-915.03
11629	2.9395	3.8182	5.e-002	-2.5902e-006
11630	2.9395	3.5455	0.	-932.62
11631	2.8477	3.6364	0.	-954.56
11632	2.9395	3.6364	5.e-002	-4.241e-006
11633	2.9395	3.3636	0.	-956.97
11634	2.8477	3.4545	0.	-984.49
11635	2.9395	3.4545	5.e-002	3.0875e-006
11636	2.9395	3.1818	0.	-971.67
11637	2.8477	3.2727	0.	-1004.6
11638	2.9395	3.2727	5.e-002	-5.725e-007
11639	2.9395	3.	0.	-976.58
11640	2.8477	3.0909	0.	-1014.7
11641	2.9395	3.0909	5.e-002	-8.2102e-006
11642	2.9395	2.8182	0.	-971.67
11643	2.8477	2.9091	0.	-1014.7
11644	2.9395	2.9091	5.e-002	-6.9998e-006
11645	2.9395	2.6364	0.	-956.97
11646	2.8477	2.7273	0.	-1004.6
11647	2.9395	2.7273	5.e-002	-4.5549e-006
11648	2.9395	2.4545	0.	-932.62
11649	2.8477	2.5455	0.	-984.49
11650	2.9395	2.5455	5.e-002	8.6029e-006
11651	2.9395	2.2727	0.	-898.85
11652	2.8477	2.3636	0.	-954.56
11653	2.9395	2.3636	5.e-002	4.241e-006
11654	2.9395	2.0909	0.	-856.02
11655	2.8477	2.1818	0.	-915.03
11656	2.9395	2.1818	5.e-002	2.1408e-005
11657	2.9395	1.9091	0.	-804.57
11658	2.8477	2.	0.	-866.28
11659	2.9395	2.	5.e-002	2.2621e-005
11660	2.9395	1.7273	0.	-745.12
11661	2.8477	1.8182	0.	-808.8
11662	2.9395	1.8182	5.e-002	3.9682e-005
11663	2.9395	1.5455	0.	-678.41
11664	2.8477	1.6364	0.	-743.25
11665	2.9395	1.6364	5.e-002	1.8405e-005
11666	2.9395	1.3636	0.	-605.31
11667	2.8477	1.4545	0.	-670.41
11668	2.9395	1.4545	5.e-002	2.5383e-005
11669	2.9395	1.1818	0.	-526.86
11670	2.8477	1.2727	0.	-591.28
11671	2.9395	1.2727	5.e-002	5.33e-005
11672	2.9395	1.	0.	-444.19
11673	2.8477	1.0909	0.	-506.96
11674	2.9395	1.0909	5.e-002	7.5909e-006
11675	2.9395	0.81818	0.	-358.49
11676	2.8477	0.90909	0.	-418.69
11677	2.9395	0.90909	5.e-002	3.1557e-005
11678	2.9395	0.63636	0.	-270.99
11679	2.8477	0.72727	0.	-327.79
11680	2.9395	0.72727	5.e-002	3.8128e-006
11681	2.9395	0.45455	0.	-182.65
11682	2.8477	0.54545	0.	-235.58
11683	2.9395	0.54545	5.e-002	7.286e-005
11684	2.9395	0.27273	0.	-92.952
11685	2.8477	0.36364	0.	-142.88
11686	2.9395	0.36364	5.e-002	3.0857e-005
11687	2.8477	0.18182	0.	-48.223
11688	2.9395	0.18182	5.e-002	7.8146e-007
11689	2.9395	9.0909e-002	0.	-22.946
11690	2.7558	5.7273	0.	-97.367
11691	2.664	5.8182	0.	-48.012
11692	2.7558	5.8182	5.e-002	-1.0844e-005
11693	2.7558	5.9091	0.	-22.264
11694	2.7558	5.5455	0.	-195.62
11695	2.664	5.6364	0.	-151.7
11696	2.7558	5.6364	5.e-002	-2.3335e-015
11697	2.7558	5.3636	0.	-292.23
11698	2.664	5.4545	0.	-253.14
11699	2.7558	5.4545	5.e-002	-3.7486e-006
11700	2.7558	5.1818	0.	-387.86
11701	2.664	5.2727	0.	-354.03
11702	2.7558	5.2727	5.e-002	-1.642e-006
11703	2.7558	5.	0.	-481.35
11704	2.664	5.0909	0.	-453.37
11705	2.7558	5.0909	5.e-002	-2.3579e-015
11706	2.7558	4.8182	0.	-571.29
11707	2.664	4.9091	0.	-549.6
11708	2.7558	4.9091	5.e-002	2.9994e-005
11709	2.7558	4.6364	0.	-656.34
11710	2.664	4.7273	0.	-641.21
11711	2.7558	4.7273	5.e-002	2.3082e-005
11712	2.7558	4.4545	0.	-735.25
11713	2.664	4.5455	0.	-726.82
11714	2.7558	4.5455	5.e-002	-3.7083e-006
11715	2.7558	4.2727	0.	-806.96
11716	2.664	4.3636	0.	-805.25
11717	2.7558	4.3636	5.e-002	-3.5619e-006
11718	2.7558	4.0909	0.	-870.58
11719	2.664	4.1818	0.	-875.5
11720	2.7558	4.1818	5.e-002	-6.6718e-006
11721	2.7558	3.9091	0.	-925.4
11722	2.664	4.	0.	-936.79
11723	2.7558	4.	5.e-002	1.0396e-005
11724	2.7558	3.7273	0.	-970.87
11725	2.664	3.8182	0.	-988.55
11726	2.7558	3.8182	5.e-002	-1.0519e-005
11727	2.7558	3.5455	0.	-1006.6
11728	2.664	3.6364	0.	-1030.3
11729	2.7558	3.6364	5.e-002	-1.0182e-005
11730	2.7558	3.3636	0.	-1032.3
11731	2.664	3.4545	0.	-1061.9
11732	2.7558	3.4545	5.e-002	-1.9805e-006
11733	2.7558	3.1818	0.	-1047.8
11734	2.664	3.2727	0.	-1083.
11735	2.7558	3.2727	5.e-002	7.4911e-008
11736	2.7558	3.	0.	-1052.9
11737	2.664	3.0909	0.	-1093.6
11738	2.7558	3.0909	5.e-002	-5.7508e-007
11739	2.7558	2.8182	0.	-1047.8
11740	2.664	2.9091	0.	-1093.6
11741	2.7558	2.9091	5.e-002	6.367e-007
11742	2.7558	2.6364	0.	-1032.3
11743	2.664	2.7273	0.	-1083.
11744	2.7558	2.7273	5.e-002	3.9707e-006
11745	2.7558	2.4545	0.	-1006.6
11746	2.664	2.5455	0.	-1061.9
11747	2.7558	2.5455	5.e-002	-1.3594e-006
11748	2.7558	2.2727	0.	-970.87
11749	2.664	2.3636	0.	-1030.3
11750	2.7558	2.3636	5.e-002	5.3486e-006
11751	2.7558	2.0909	0.	-925.4
11752	2.664	2.1818	0.	-988.55
11753	2.7558	2.1818	5.e-002	1.2838e-006
11754	2.7558	1.9091	0.	-870.58
11755	2.664	2.	0.	-936.79
11756	2.7558	2.	5.e-002	1.3325e-005
11757	2.7558	1.7273	0.	-806.96
11758	2.664	1.8182	0.	-875.5
11759	2.7558	1.8182	5.e-002	3.2437e-005
11760	2.7558	1.5455	0.	-735.25
11761	2.664	1.6364	0.	-805.25
11762	2.7558	1.6364	5.e-002	2.5098e-005
11763	2.7558	1.3636	0.	-656.34
11764	2.664	1.4545	0.	-726.82
11765	2.7558	1.4545	5.e-002	3.0778e-005
11766	2.7558	1.1818	0.	-571.29
11767	2.664	1.2727	0.	-641.21
11768	2.7558	1.2727	5.e-002	1.5149e-005
11769	2.7558	1.	0.	-481.35
11770	2.664	1.0909	0.	-549.6
11771	2.7558	1.0909	5.e-002	-6.5975e-008
11772	2.7558	0.81818	0.	-387.86
11773	2.664	0.90909	0.	-453.37
11774	2.7558	0.90909	5.e-002	3.4679e-005
11775	2.7558	0.63636	0.	-292.23
11776	2.664	0.72727	0.	-354.03
11777	2.7558	0.72727	5.e-002	1.0807e-004
11778	2.7558	0.45455	0.	-195.62
11779	2.664	0.54545	0.	-253.14
11780	2.7558	0.54545	5.e-002	3.6174e-005
11781	2.7558	0.27273	0.	-97.367
11782	2.664	0.36364	0.	-151.7
11783	2.7558	0.36364	5.e-002	3.7855e-006
11784	2.664	0.18182	0.	-48.012
11785	2.7558	0.18182	5.e-002	2.6228e-005
11786	2.7558	9.0909e-002	0.	-22.264
11787	2.5721	5.7273	0.	-101.35
11788	2.4802	5.8182	0.	-46.962
11789	2.5721	5.8182	5.e-002	-4.3053e-015
11790	2.5721	5.9091	0.	-20.959
11791	2.5721	5.5455	0.	-209.
11792	2.4802	5.6364	0.	-160.56
11793	2.5721	5.6364	5.e-002	-2.4346e-015
11794	2.5721	5.3636	0.	-314.76
11795	2.4802	5.4545	0.	-271.67
11796	2.5721	5.4545	5.e-002	-2.407e-015
11797	2.5721	5.1818	0.	-419.39
11798	2.4802	5.2727	0.	-382.22
11799	2.5721	5.2727	5.e-002	-2.4476e-015
11800	2.5721	5.	0.	-521.5
11801	2.4802	5.0909	0.	-490.94
11802	2.5721	5.0909	5.e-002	-2.4792e-015
11803	2.5721	4.8182	0.	-619.43
11804	2.4802	4.9091	0.	-595.96
11805	2.5721	4.9091	5.e-002	-3.8053e-006
11806	2.5721	4.6364	0.	-711.66
11807	2.4802	4.7273	0.	-695.54
11808	2.5721	4.7273	5.e-002	-3.8103e-006
11809	2.5721	4.4545	0.	-796.83
11810	2.4802	4.5455	0.	-788.14
11811	2.5721	4.5455	5.e-002	-8.2515e-006
11812	2.5721	4.2727	0.	-873.84
11813	2.4802	4.3636	0.	-872.49
11814	2.5721	4.3636	5.e-002	-2.4903e-015
11815	2.5721	4.0909	0.	-941.81
11816	2.4802	4.1818	0.	-947.6
11817	2.5721	4.1818	5.e-002	-1.2344e-005
11818	2.5721	3.9091	0.	-1000.1
11819	2.4802	4.	0.	-1012.8
11820	2.5721	4.	5.e-002	9.295e-006
11821	2.5721	3.7273	0.	-1048.2
11822	2.4802	3.8182	0.	-1067.5
11823	2.5721	3.8182	5.e-002	-5.3036e-006
11824	2.5721	3.5455	0.	-1085.8
11825	2.4802	3.6364	0.	-1111.5
11826	2.5721	3.6364	5.e-002	-3.2326e-006
11827	2.5721	3.3636	0.	-1112.8
11828	2.4802	3.4545	0.	-1144.6
11829	2.5721	3.4545	5.e-002	7.9014e-007
11830	2.5721	3.1818	0.	-1129.1
11831	2.4802	3.2727	0.	-1166.7
11832	2.5721	3.2727	5.e-002	-1.9495e-006
11833	2.5721	3.	0.	-1134.5
11834	2.4802	3.0909	0.	-1177.7
11835	2.5721	3.0909	5.e-002	-5.952e-007
11836	2.5721	2.8182	0.	-1129.1
11837	2.4802	2.9091	0.	-1177.7
11838	2.5721	2.9091	5.e-002	6.1572e-007
11839	2.5721	2.6364	0.	-1112.8
11840	2.4802	2.7273	0.	-1166.7
11841	2.5721	2.7273	5.e-002	1.9495e-006
11842	2.5721	2.4545	0.	-1085.8
11843	2.4802	2.5455	0.	-1144.6
11844	2.5721	2.5455	5.e-002	6.3557e-006
11845	2.5721	2.2727	0.	-1048.2
11846	2.4802	2.3636	0.	-1111.5
11847	2.5721	2.3636	5.e-002	9.6464e-006
11848	2.5721	2.0909	0.	-1000.1
11849	2.4802	2.1818	0.	-1067.5
11850	2.5721	2.1818	5.e-002	6.6295e-006
11851	2.5721	1.9091	0.	-941.81
11852	2.4802	2.	0.	-1012.8
11853	2.5721	2.	5.e-002	2.1559e-005
11854	2.5721	1.7273	0.	-873.84
11855	2.4802	1.8182	0.	-947.6
11856	2.5721	1.8182	5.e-002	6.7771e-006
11857	2.5721	1.5455	0.	-796.83
11858	2.4802	1.6364	0.	-872.49
11859	2.5721	1.6364	5.e-002	1.4464e-005
11860	2.5721	1.3636	0.	-711.66
11861	2.4802	1.4545	0.	-788.14
11862	2.5721	1.4545	5.e-002	7.5058e-006
11863	2.5721	1.1818	0.	-619.43
11864	2.4802	1.2727	0.	-695.54
11865	2.5721	1.2727	5.e-002	7.6206e-006
11866	2.5721	1.	0.	-521.5
11867	2.4802	1.0909	0.	-595.96
11868	2.5721	1.0909	5.e-002	4.0266e-005
11869	2.5721	0.81818	0.	-419.39
11870	2.4802	0.90909	0.	-490.94
11871	2.5721	0.90909	5.e-002	-2.4792e-015
11872	2.5721	0.63636	0.	-314.76
11873	2.4802	0.72727	0.	-382.22
11874	2.5721	0.72727	5.e-002	3.6915e-006
11875	2.5721	0.45455	0.	-209.
11876	2.4802	0.54545	0.	-271.67
11877	2.5721	0.54545	5.e-002	7.2612e-006
11878	2.5721	0.27273	0.	-101.35
11879	2.4802	0.36364	0.	-160.56
11880	2.5721	0.36364	5.e-002	7.5857e-005
11881	2.4802	0.18182	0.	-46.962
11882	2.5721	0.18182	5.e-002	1.226e-005
11883	2.5721	9.0909e-002	0.	-20.959
11884	2.3884	5.7273	0.	-104.86
11885	2.2965	5.8182	0.	-44.994
11886	2.3884	5.8182	5.e-002	-1.3e-005
11887	2.3884	5.9091	0.	-18.937
11888	2.3884	5.5455	0.	-222.98
11889	2.2965	5.6364	0.	-169.55
11890	2.3884	5.6364	5.e-002	-4.1795e-005
11891	2.3884	5.3636	0.	-338.93
11892	2.2965	5.4545	0.	-291.5
11893	2.3884	5.4545	5.e-002	-1.1885e-014
11894	2.3884	5.1818	0.	-453.61
11895	2.2965	5.2727	0.	-412.9
11896	2.3884	5.2727	5.e-002	-3.5456e-006
11897	2.3884	5.	0.	-565.28
11898	2.2965	5.0909	0.	-532.11
11899	2.3884	5.0909	5.e-002	-2.6222e-015
11900	2.3884	4.8182	0.	-672.
11901	2.2965	4.9091	0.	-646.86
11902	2.3884	4.9091	5.e-002	-2.6419e-015
11903	2.3884	4.6364	0.	-772.
11904	2.2965	4.7273	0.	-755.11
11905	2.3884	4.7273	5.e-002	-3.8135e-006
11906	2.3884	4.4545	0.	-863.83
11907	2.2965	4.5455	0.	-855.14
11908	2.3884	4.5455	5.e-002	2.2939e-005
11909	2.3884	4.2727	0.	-946.33
11910	2.2965	4.3636	0.	-945.64
11911	2.3884	4.3636	5.e-002	-3.6616e-006
11912	2.3884	4.0909	0.	-1018.7
11913	2.2965	4.1818	0.	-1025.7
11914	2.3884	4.1818	5.e-002	-3.4335e-006
11915	2.3884	3.9091	0.	-1080.4
11916	2.2965	4.	0.	-1094.6
11917	2.3884	4.	5.e-002	-3.1008e-006
11918	2.3884	3.7273	0.	-1131.
11919	2.2965	3.8182	0.	-1152.2
11920	2.3884	3.8182	5.e-002	-1.5746e-005
11921	2.3884	3.5455	0.	-1170.5
11922	2.2965	3.6364	0.	-1198.2
11923	2.3884	3.6364	5.e-002	-4.3254e-006
11924	2.3884	3.3636	0.	-1198.7
11925	2.2965	3.4545	0.	-1232.6
11926	2.3884	3.4545	5.e-002	-2.3842e-006
11927	2.3884	3.1818	0.	-1215.6
11928	2.2965	3.2727	0.	-1255.5
11929	2.3884	3.2727	5.e-002	-4.5108e-007
11930	2.3884	3.	0.	-1221.2
11931	2.2965	3.0909	0.	-1267.
11932	2.3884	3.0909	5.e-002	-5.7175e-007
11933	2.3884	2.8182	0.	-1215.6
11934	2.2965	2.9091	0.	-1267.
11935	2.3884	2.9091	5.e-002	6.5343e-007
11936	2.3884	2.6364	0.	-1198.7
11937	2.2965	2.7273	0.	-1255.5
11938	2.3884	2.7273	5.e-002	3.1916e-006
11939	2.3884	2.4545	0.	-1170.5
11940	2.2965	2.5455	0.	-1232.6
11941	2.3884	2.5455	5.e-002	5.9544e-006
11942	2.3884	2.2727	0.	-1131.
11943	2.2965	2.3636	0.	-1198.2
11944	2.3884	2.3636	5.e-002	-9.5888e-006
11945	2.3884	2.0909	0.	-1080.4
11946	2.2965	2.1818	0.	-1152.2
11947	2.3884	2.1818	5.e-002	5.3447e-006
11948	2.3884	1.9091	0.	-1018.7
11949	2.2965	2.	0.	-1094.6
11950	2.3884	2.	5.e-002	9.3025e-006
11951	2.3884	1.7273	0.	-946.33
11952	2.2965	1.8182	0.	-1025.7
11953	2.3884	1.8182	5.e-002	6.867e-006
11954	2.3884	1.5455	0.	-863.83
11955	2.2965	1.6364	0.	-945.64
11956	2.3884	1.6364	5.e-002	7.3233e-006
11957	2.3884	1.3636	0.	-772.
11958	2.2965	1.4545	0.	-855.14
11959	2.3884	1.4545	5.e-002	3.4294e-005
11960	2.3884	1.1818	0.	-672.
11961	2.2965	1.2727	0.	-755.11
11962	2.3884	1.2727	5.e-002	3.8899e-005
11963	2.3884	1.	0.	-565.28
11964	2.2965	1.0909	0.	-646.86
11965	2.3884	1.0909	5.e-002	7.4552e-005
11966	2.3884	0.81818	0.	-453.61
11967	2.2965	0.90909	0.	-532.11
11968	2.3884	0.90909	5.e-002	4.2598e-005
11969	2.3884	0.63636	0.	-338.93
11970	2.2965	0.72727	0.	-412.9
11971	2.3884	0.72727	5.e-002	1.2888e-004
11972	2.3884	0.45455	0.	-222.98
11973	2.2965	0.54545	0.	-291.5
11974	2.3884	0.54545	5.e-002	8.7447e-005
11975	2.3884	0.27273	0.	-104.86
11976	2.2965	0.36364	0.	-169.55
11977	2.3884	0.36364	5.e-002	4.1795e-005
11978	2.2965	0.18182	0.	-44.994
11979	2.3884	0.18182	5.e-002	2.6001e-005
11980	2.3884	9.0909e-002	0.	-18.938
11981	2.2047	5.7273	0.	-107.9
11982	2.1128	5.8182	0.	-42.048
11983	2.2047	5.8182	5.e-002	-1.3896e-005
11984	2.2047	5.9091	0.	-16.093
11985	2.2047	5.5455	0.	-237.77
11986	2.1128	5.6364	0.	-178.79
11987	2.2047	5.6364	5.e-002	-2.6861e-015
11988	2.2047	5.3636	0.	-365.24
11989	2.1128	5.4545	0.	-313.07
11990	2.2047	5.4545	5.e-002	-2.692e-015
11991	2.2047	5.1818	0.	-491.22
11992	2.1128	5.2727	0.	-446.8
11993	2.2047	5.2727	5.e-002	-2.7514e-015
11994	2.2047	5.	0.	-613.56
11995	2.1128	5.0909	0.	-577.82
11996	2.2047	5.0909	5.e-002	-7.0513e-006
11997	2.2047	4.8182	0.	-729.91
11998	2.1128	4.9091	0.	-703.34
11999	2.2047	4.9091	5.e-002	-2.861e-006
12000	2.2047	4.6364	0.	-838.25
12001	2.1128	4.7273	0.	-820.95
12002	2.2047	4.7273	5.e-002	-3.7969e-006
12003	2.2047	4.4545	0.	-937.02
12004	2.1128	4.5455	0.	-928.77
12005	2.2047	4.5455	5.e-002	-3.8048e-006
12006	2.2047	4.2727	0.	-1025.1
12007	2.1128	4.3636	0.	-1025.5
12008	2.2047	4.3636	5.e-002	-1.1091e-005
12009	2.2047	4.0909	0.	-1101.7
12010	2.1128	4.1818	0.	-1110.2
12011	2.2047	4.1818	5.e-002	1.4333e-005
12012	2.2047	3.9091	0.	-1166.6
12013	2.1128	4.	0.	-1182.7
12014	2.2047	4.	5.e-002	-1.8256e-005
12015	2.2047	3.7273	0.	-1219.5
12016	2.1128	3.8182	0.	-1242.7
12017	2.2047	3.8182	5.e-002	-1.34e-006
12018	2.2047	3.5455	0.	-1260.5
12019	2.1128	3.6364	0.	-1290.3
12020	2.2047	3.6364	5.e-002	-3.2373e-006
12021	2.2047	3.3636	0.	-1289.7
12022	2.1128	3.4545	0.	-1325.8
12023	2.2047	3.4545	5.e-002	-2.7634e-006
12024	2.2047	3.1818	0.	-1307.2
12025	2.1128	3.2727	0.	-1349.4
12026	2.2047	3.2727	5.e-002	-1.9236e-006
12027	2.2047	3.	0.	-1313.
12028	2.1128	3.0909	0.	-1361.1
12029	2.2047	3.0909	5.e-002	-6.2565e-007
12030	2.2047	2.8182	0.	-1307.2
12031	2.1128	2.9091	0.	-1361.1
12032	2.2047	2.9091	5.e-002	6.2565e-007
12033	2.2047	2.6364	0.	-1289.7
12034	2.1128	2.7273	0.	-1349.4
12035	2.2047	2.7273	5.e-002	1.9236e-006
12036	2.2047	2.4545	0.	-1260.5
12037	2.1128	2.5455	0.	-1325.8
12038	2.2047	2.5455	5.e-002	3.1582e-006
12039	2.2047	2.2727	0.	-1219.5
12040	2.1128	2.3636	0.	-1290.3
12041	2.2047	2.3636	5.e-002	4.3164e-006
12042	2.2047	2.0909	0.	-1166.6
12043	2.1128	2.1818	0.	-1242.7
12044	2.2047	2.1818	5.e-002	2.2959e-005
12045	2.2047	1.9091	0.	-1101.7
12046	2.1128	2.	0.	-1182.7
12047	2.2047	2.	5.e-002	3.1233e-006
12048	2.2047	1.7273	0.	-1025.1
12049	2.1128	1.8182	0.	-1110.2
12050	2.2047	1.8182	5.e-002	3.4677e-006
12051	2.2047	1.5455	0.	-937.02
12052	2.1128	1.6364	0.	-1025.5
12053	2.2047	1.6364	5.e-002	5.3394e-005
12054	2.2047	1.3636	0.	-838.25
12055	2.1128	1.4545	0.	-928.77
12056	2.2047	1.4545	5.e-002	3.9734e-005
12057	2.2047	1.1818	0.	-729.91
12058	2.1128	1.2727	0.	-820.95
12059	2.2047	1.2727	5.e-002	7.5938e-006
12060	2.2047	1.	0.	-613.56
12061	2.1128	1.0909	0.	-703.34
12062	2.2047	1.0909	5.e-002	4.5534e-005
12063	2.2047	0.81818	0.	-491.22
12064	2.1128	0.90909	0.	-577.82
12065	2.2047	0.90909	5.e-002	9.1392e-005
12066	2.2047	0.63636	0.	-365.24
12067	2.1128	0.72727	0.	-446.8
12068	2.2047	0.72727	5.e-002	4.5397e-005
12069	2.2047	0.45455	0.	-237.77
12070	2.1128	0.54545	0.	-313.07
12071	2.2047	0.54545	5.e-002	-2.692e-015
12072	2.2047	0.27273	0.	-107.9
12073	2.1128	0.36364	0.	-178.79
12074	2.2047	0.36364	5.e-002	4.5864e-005
12075	2.1128	0.18182	0.	-42.048
12076	2.2047	0.18182	5.e-002	1.3896e-005
12077	2.2047	9.0909e-002	0.	-16.093
12078	2.0209	5.7273	0.	-110.45
12079	1.9291	5.8182	0.	-38.125
12080	2.0209	5.8182	5.e-002	-6.5738e-006
12081	2.0209	5.9091	0.	-12.334
12082	2.0209	5.5455	0.	-253.74
12083	1.9291	5.6364	0.	-188.52
12084	2.0209	5.6364	5.e-002	-2.8497e-015
12085	2.0209	5.3636	0.	-394.37
12086	1.9291	5.4545	0.	-337.02
12087	2.0209	5.4545	5.e-002	-5.5543e-006
12088	2.0209	5.1818	0.	-533.2
12089	1.9291	5.2727	0.	-484.93
12090	2.0209	5.2727	5.e-002	-2.9533e-015
12091	2.0209	5.	0.	-667.47
12092	1.9291	5.0909	0.	-629.33
12093	2.0209	5.0909	5.e-002	-2.9956e-015
12094	2.0209	4.8182	0.	-794.33
12095	1.9291	4.9091	0.	-766.74
12096	2.0209	4.9091	5.e-002	-3.0128e-015
12097	2.0209	4.6364	0.	-911.5
12098	1.9291	4.7273	0.	-894.36
12099	2.0209	4.7273	5.e-002	-7.5258e-006
12100	2.0209	4.4545	0.	-1017.3
12101	1.9291	4.5455	0.	-1010.1
12102	2.0209	4.5455	5.e-002	2.9837e-005
12103	2.0209	4.2727	0.	-1110.8
12104	1.9291	4.3636	0.	-1112.9
12105	2.0209	4.3636	5.e-002	-3.0042e-015
12106	2.0209	4.0909	0.	-1191.4
12107	1.9291	4.1818	0.	-1202.
12108	2.0209	4.1818	5.e-002	1.1191e-005
12109	2.0209	3.9091	0.	-1259.
12110	1.9291	4.	0.	-1277.3
12111	2.0209	4.	5.e-002	6.8067e-006
12112	2.0209	3.7273	0.	-1313.8
12113	1.9291	3.8182	0.	-1339.2
12114	2.0209	3.8182	5.e-002	3.3823e-006
12115	2.0209	3.5455	0.	-1355.9
12116	1.9291	3.6364	0.	-1387.9
12117	2.0209	3.6364	5.e-002	9.6693e-007
12118	2.0209	3.3636	0.	-1385.8
12119	1.9291	3.4545	0.	-1424.
12120	2.0209	3.4545	5.e-002	1.0988e-006
12121	2.0209	3.1818	0.	-1403.6
12122	1.9291	3.2727	0.	-1447.9
12123	2.0209	3.2727	5.e-002	-7.027e-007
12124	2.0209	3.	0.	-1409.5
12125	1.9291	3.0909	0.	-1459.7
12126	2.0209	3.0909	5.e-002	-4.6839e-007
12127	2.0209	2.8182	0.	-1403.6
12128	1.9291	2.9091	0.	-1459.7
12129	2.0209	2.9091	5.e-002	7.1832e-007
12130	2.0209	2.6364	0.	-1385.8
12131	1.9291	2.7273	0.	-1447.9
12132	2.0209	2.7273	5.e-002	2.8387e-006
12133	2.0209	2.4545	0.	-1355.9
12134	1.9291	2.5455	0.	-1424.
12135	2.0209	2.5455	5.e-002	5.7675e-006
12136	2.0209	2.2727	0.	-1313.8
12137	1.9291	2.3636	0.	-1387.9
12138	2.0209	2.3636	5.e-002	9.5182e-006
12139	2.0209	2.0909	0.	-1259.
12140	1.9291	2.1818	0.	-1339.2
12141	2.0209	2.1818	5.e-002	2.2786e-005
12142	2.0209	1.9091	0.	-1191.4
12143	1.9291	2.	0.	-1277.3
12144	2.0209	2.	5.e-002	6.2587e-006
12145	2.0209	1.7273	0.	-1110.8
12146	1.9291	1.8182	0.	-1202.
12147	2.0209	1.8182	5.e-002	2.1182e-005
12148	2.0209	1.5455	0.	-1017.3
12149	1.9291	1.6364	0.	-1112.9
12150	2.0209	1.6364	5.e-002	7.4438e-006
12151	2.0209	1.3636	0.	-911.5
12152	1.9291	1.4545	0.	-1010.1
12153	2.0209	1.4545	5.e-002	7.473e-005
12154	2.0209	1.1818	0.	-794.33
12155	1.9291	1.2727	0.	-894.36
12156	2.0209	1.2727	5.e-002	7.8583e-005
12157	2.0209	1.	0.	-667.47
12158	1.9291	1.0909	0.	-766.74
12159	2.0209	1.0909	5.e-002	-3.0128e-015
12160	2.0209	0.81818	0.	-533.2
12161	1.9291	0.90909	0.	-629.33
12162	2.0209	0.90909	5.e-002	5.2031e-005
12163	2.0209	0.63636	0.	-394.37
12164	1.9291	0.72727	0.	-484.93
12165	2.0209	0.72727	5.e-002	4.8963e-005
12166	2.0209	0.45455	0.	-253.74
12167	1.9291	0.54545	0.	-337.02
12168	2.0209	0.54545	5.e-002	1.5987e-004
12169	2.0209	0.27273	0.	-110.45
12170	1.9291	0.36364	0.	-188.52
12171	2.0209	0.36364	5.e-002	1.0009e-004
12172	1.9291	0.18182	0.	-38.125
12173	2.0209	0.18182	5.e-002	3.0059e-005
12174	2.0209	9.0909e-002	0.	-12.334
12175	1.8372	5.7273	0.	-112.57
12176	1.7453	5.8182	0.	-33.348
12177	1.8372	5.8182	5.e-002	-5.3811e-015
12178	1.8372	5.9091	0.	-7.7039
12179	1.8372	5.5455	0.	-271.4
12180	1.7453	5.6364	0.	-199.09
12181	1.8372	5.6364	5.e-002	-3.0553e-015
12182	1.8372	5.3636	0.	-427.3
12183	1.7453	5.4545	0.	-364.32
12184	1.8372	5.4545	5.e-002	-3.1263e-015
12185	1.8372	5.1818	0.	-580.86
12186	1.7453	5.2727	0.	-528.75
12187	1.8372	5.2727	5.e-002	-5.3371e-006
12188	1.8372	5.	0.	-728.5
12189	1.7453	5.0909	0.	-688.38
12190	1.8372	5.0909	5.e-002	-6.1822e-006
12191	1.8372	4.8182	0.	-866.77
12192	1.7453	4.9091	0.	-838.87
12193	1.8372	4.9091	5.e-002	-3.251e-015
12194	1.8372	4.6364	0.	-993.09
12195	1.7453	4.7273	0.	-976.95
12196	1.8372	4.7273	5.e-002	-3.2445e-015
12197	1.8372	4.4545	0.	-1105.8
12198	1.7453	4.5455	0.	-1100.6
12199	1.8372	4.5455	5.e-002	-3.2348e-015
12200	1.8372	4.2727	0.	-1204.2
12201	1.7453	4.3636	0.	-1208.7
12202	1.8372	4.3636	5.e-002	-7.4711e-006
12203	1.8372	4.0909	0.	-1288.1
12204	1.7453	4.1818	0.	-1301.3
12205	1.8372	4.1818	5.e-002	-3.4922e-006
12206	1.8372	3.9091	0.	-1357.8
12207	1.7453	4.	0.	-1378.7
12208	1.8372	4.	5.e-002	-6.2289e-006
12209	1.8372	3.7273	0.	-1413.7
12210	1.7453	3.8182	0.	-1441.6
12211	1.8372	3.8182	5.e-002	-2.6387e-006
12212	1.8372	3.5455	0.	-1456.4
12213	1.7453	3.6364	0.	-1490.7
12214	1.8372	3.6364	5.e-002	-4.1964e-006
12215	1.8372	3.3636	0.	-1486.5
12216	1.7453	3.4545	0.	-1526.8
12217	1.8372	3.4545	5.e-002	-3.0375e-006
12218	1.8372	3.1818	0.	-1504.3
12219	1.7453	3.2727	0.	-1550.6
12220	1.8372	3.2727	5.e-002	-1.6064e-006
12221	1.8372	3.	0.	-1510.2
12222	1.7453	3.0909	0.	-1562.3
12223	1.8372	3.0909	5.e-002	-5.5638e-007
12224	1.8372	2.8182	0.	-1504.3
12225	1.7453	2.9091	0.	-1562.3
12226	1.8372	2.9091	5.e-002	5.5638e-007
12227	1.8372	2.6364	0.	-1486.5
12228	1.7453	2.7273	0.	-1550.6
12229	1.8372	2.7273	5.e-002	3.6294e-006
12230	1.8372	2.4545	0.	-1456.4
12231	1.7453	2.5455	0.	-1526.8
12232	1.8372	2.5455	5.e-002	5.5605e-006
12233	1.8372	2.2727	0.	-1413.7
12234	1.7453	2.3636	0.	-1490.7
12235	1.8372	2.3636	5.e-002	1.4258e-005
12236	1.8372	2.0909	0.	-1357.8
12237	1.7453	2.1818	0.	-1441.6
12238	1.8372	2.1818	5.e-002	1.3756e-005
12239	1.8372	1.9091	0.	-1288.1
12240	1.7453	2.	0.	-1378.7
12241	1.8372	2.	5.e-002	9.3433e-006
12242	1.8372	1.7273	0.	-1204.2
12243	1.7453	1.8182	0.	-1301.3
12244	1.8372	1.8182	5.e-002	1.0477e-005
12245	1.8372	1.5455	0.	-1105.8
12246	1.7453	1.6364	0.	-1208.7
12247	1.8372	1.6364	5.e-002	3.9275e-005
12248	1.8372	1.3636	0.	-993.09
12249	1.7453	1.4545	0.	-1100.6
12250	1.8372	1.4545	5.e-002	7.3162e-005
12251	1.8372	1.1818	0.	-866.77
12252	1.7453	1.2727	0.	-976.95
12253	1.8372	1.2727	5.e-002	3.7359e-005
12254	1.8372	1.	0.	-728.5
12255	1.7453	1.0909	0.	-838.87
12256	1.8372	1.0909	5.e-002	5.0262e-005
12257	1.8372	0.81818	0.	-580.86
12258	1.7453	0.90909	0.	-688.38
12259	1.8372	0.90909	5.e-002	1.0298e-004
12260	1.8372	0.63636	0.	-427.3
12261	1.7453	0.72727	0.	-528.75
12262	1.8372	0.72727	5.e-002	5.7662e-005
12263	1.8372	0.45455	0.	-271.4
12264	1.7453	0.54545	0.	-364.32
12265	1.8372	0.54545	5.e-002	1.6948e-004
12266	1.8372	0.27273	0.	-112.57
12267	1.7453	0.36364	0.	-199.09
12268	1.8372	0.36364	5.e-002	5.8953e-005
12269	1.7453	0.18182	0.	-33.348
12270	1.8372	0.18182	5.e-002	1.6522e-005
12271	1.8372	9.0909e-002	0.	-7.7039
12272	1.6535	5.7273	0.	-114.36
12273	1.5616	5.8182	0.	-28.096
12274	1.6535	5.8182	5.e-002	-5.6303e-015
12275	1.6535	5.9091	0.	-3.1343
12276	1.6535	5.5455	0.	-291.53
12277	1.5616	5.6364	0.	-211.11
12278	1.6535	5.6364	5.e-002	-3.3263e-015
12279	1.6535	5.3636	0.	-465.45
12280	1.5616	5.4545	0.	-396.42
12281	1.6535	5.4545	5.e-002	-6.1283e-005
12282	1.6535	5.1818	0.	-636.08
12283	1.5616	5.2727	0.	-580.39
12284	1.6535	5.2727	5.e-002	-4.4538e-006
12285	1.6535	5.	0.	-798.69
12286	1.5616	5.0909	0.	-757.42
12287	1.6535	5.0909	5.e-002	-5.6255e-006
12288	1.6535	4.8182	0.	-949.11
12289	1.5616	4.9091	0.	-922.06
12290	1.6535	4.9091	5.e-002	-6.6427e-006
12291	1.6535	4.6364	0.	-1084.6
12292	1.5616	4.7273	0.	-1070.7
12293	1.6535	4.7273	5.e-002	7.7602e-005
12294	1.6535	4.4545	0.	-1203.7
12295	1.5616	4.5455	0.	-1201.5
12296	1.6535	4.5455	5.e-002	-7.6252e-006
12297	1.6535	4.2727	0.	-1306.1
12298	1.5616	4.3636	0.	-1314.
12299	1.6535	4.3636	5.e-002	1.6921e-005
12300	1.6535	4.0909	0.	-1392.2
12301	1.5616	4.1818	0.	-1408.8
12302	1.6535	4.1818	5.e-002	-3.4931e-015
12303	1.6535	3.9091	0.	-1462.9
12304	1.5616	4.	0.	-1487.
12305	1.6535	4.	5.e-002	-3.5055e-015
12306	1.6535	3.7273	0.	-1519.
12307	1.5616	3.8182	0.	-1549.7
12308	1.6535	3.8182	5.e-002	2.8861e-006
12309	1.6535	3.5455	0.	-1561.5
12310	1.5616	3.6364	0.	-1598.2
12311	1.6535	3.6364	5.e-002	-4.0736e-006
12312	1.6535	3.3636	0.	-1591.3
12313	1.5616	3.4545	0.	-1633.7
12314	1.6535	3.4545	5.e-002	-7.3267e-007
12315	1.6535	3.1818	0.	-1608.9
12316	1.5616	3.2727	0.	-1656.8
12317	1.6535	3.2727	5.e-002	1.1029e-007
12318	1.6535	3.	0.	-1614.7
12319	1.5616	3.0909	0.	-1668.2
12320	1.6535	3.0909	5.e-002	-5.1506e-007
12321	1.6535	2.8182	0.	-1608.9
12322	1.5616	2.9091	0.	-1668.2
12323	1.6535	2.9091	5.e-002	1.5788e-005
12324	1.6535	2.6364	0.	-1591.3
12325	1.5616	2.7273	0.	-1656.8
12326	1.6535	2.7273	5.e-002	3.4177e-006
12327	1.6535	2.4545	0.	-1561.5
12328	1.5616	2.5455	0.	-1633.7
12329	1.6535	2.5455	5.e-002	2.9307e-006
12330	1.6535	2.2727	0.	-1519.
12331	1.5616	2.3636	0.	-1598.2
12332	1.6535	2.3636	5.e-002	2.2868e-005
12333	1.6535	2.0909	0.	-1462.9
12334	1.5616	2.1818	0.	-1549.7
12335	1.6535	2.1818	5.e-002	2.1261e-005
12336	1.6535	1.9091	0.	-1392.2
12337	1.5616	2.	0.	-1487.
12338	1.6535	2.	5.e-002	2.4735e-005
12339	1.6535	1.7273	0.	-1306.1
12340	1.5616	1.8182	0.	-1408.8
12341	1.6535	1.8182	5.e-002	2.1399e-005
12342	1.6535	1.5455	0.	-1203.7
12343	1.5616	1.6364	0.	-1314.
12344	1.6535	1.6364	5.e-002	3.7371e-006
12345	1.6535	1.3636	0.	-1084.6
12346	1.5616	1.4545	0.	-1201.5
12347	1.6535	1.4545	5.e-002	3.5347e-005
12348	1.6535	1.1818	0.	-949.11
12349	1.5616	1.2727	0.	-1070.7
12350	1.6535	1.2727	5.e-002	8.4945e-005
12351	1.6535	1.	0.	-798.69
12352	1.5616	1.0909	0.	-922.06
12353	1.6535	1.0909	5.e-002	1.5224e-005
12354	1.6535	0.81818	0.	-636.08
12355	1.5616	0.90909	0.	-757.42
12356	1.6535	0.90909	5.e-002	1.6465e-004
12357	1.6535	0.63636	0.	-465.45
12358	1.5616	0.72727	0.	-580.39
12359	1.6535	0.72727	5.e-002	5.9749e-005
12360	1.6535	0.45455	0.	-291.53
12361	1.5616	0.54545	0.	-396.42
12362	1.6535	0.54545	5.e-002	1.7379e-004
12363	1.6535	0.27273	0.	-114.36
12364	1.5616	0.36364	0.	-211.11
12365	1.6535	0.36364	5.e-002	6.1374e-005
12366	1.5616	0.18182	0.	-28.096
12367	1.6535	0.18182	5.e-002	1.8567e-005
12368	1.6535	9.0909e-002	0.	-3.1343
12369	1.4698	5.7273	0.	-116.08
12370	1.3779	5.8182	0.	-23.024
12371	1.4698	5.8182	5.e-002	-5.8527e-015
12372	1.4698	5.9091	0.	-0.93175
12373	1.4698	5.5455	0.	-315.43
12374	1.3779	5.6364	0.	-225.55
12375	1.4698	5.6364	5.e-002	-3.701e-015
12376	1.4698	5.3636	0.	-511.03
12377	1.3779	5.4545	0.	-435.57
12378	1.4698	5.4545	5.e-002	-3.8641e-015
12379	1.4698	5.1818	0.	-701.58
12380	1.3779	5.2727	0.	-642.96
12381	1.4698	5.2727	5.e-002	4.1911e-007
12382	1.4698	5.	0.	-880.82
12383	1.3779	5.0909	0.	-839.75
12384	1.4698	5.0909	5.e-002	-3.9183e-015
12385	1.4698	4.8182	0.	-1043.8
12386	1.3779	4.9091	0.	-1019.3
12387	1.4698	4.9091	5.e-002	-3.8756e-015
12388	1.4698	4.6364	0.	-1187.9
12389	1.3779	4.7273	0.	-1177.8
12390	1.4698	4.7273	5.e-002	-3.8308e-015
12391	1.4698	4.4545	0.	-1312.1
12392	1.3779	4.5455	0.	-1314.3
12393	1.4698	4.5455	5.e-002	-3.8014e-015
12394	1.4698	4.2727	0.	-1417.1
12395	1.3779	4.3636	0.	-1429.3
12396	1.4698	4.3636	5.e-002	-3.7233e-006
12397	1.4698	4.0909	0.	-1503.9
12398	1.3779	4.1818	0.	-1524.5
12399	1.4698	4.1818	5.e-002	1.3726e-005
12400	1.4698	3.9091	0.	-1574.1
12401	1.3779	4.	0.	-1601.7
12402	1.4698	4.	5.e-002	1.234e-005
12403	1.4698	3.7273	0.	-1629.3
12404	1.3779	3.8182	0.	-1662.8
12405	1.4698	3.8182	5.e-002	4.936e-006
12406	1.4698	3.5455	0.	-1670.7
12407	1.3779	3.6364	0.	-1709.7
12408	1.4698	3.6364	5.e-002	2.3458e-006
12409	1.4698	3.3636	0.	-1699.5
12410	1.3779	3.4545	0.	-1743.6
12411	1.4698	3.4545	5.e-002	2.2015e-008
12412	1.4698	3.1818	0.	-1716.5
12413	1.3779	3.2727	0.	-1765.7
12414	1.4698	3.2727	5.e-002	-1.4638e-006
12415	1.4698	3.	0.	-1722.1
12416	1.3779	3.0909	0.	-1776.5
12417	1.4698	3.0909	5.e-002	1.4832e-005
12418	1.4698	2.8182	0.	-1716.5
12419	1.3779	2.9091	0.	-1776.5
12420	1.4698	2.9091	5.e-002	5.6896e-007
12421	1.4698	2.6364	0.	-1699.5
12422	1.3779	2.7273	0.	-1765.7
12423	1.4698	2.7273	5.e-002	1.4638e-006
12424	1.4698	2.4545	0.	-1670.7
12425	1.3779	2.5455	0.	-1743.6
12426	1.4698	2.5455	5.e-002	7.0213e-006
12427	1.4698	2.2727	0.	-1629.3
12428	1.3779	2.3636	0.	-1709.7
12429	1.4698	2.3636	5.e-002	1.2499e-005
12430	1.4698	2.0909	0.	-1574.1
12431	1.3779	2.1818	0.	-1662.8
12432	1.4698	2.1818	5.e-002	1.242e-005
12433	1.4698	1.9091	0.	-1503.9
12434	1.3779	2.	0.	-1601.7
12435	1.4698	2.	5.e-002	1.234e-005
12436	1.4698	1.7273	0.	-1417.1
12437	1.3779	1.8182	0.	-1524.5
12438	1.4698	1.8182	5.e-002	2.4015e-005
12439	1.4698	1.5455	0.	-1312.1
12440	1.3779	1.6364	0.	-1429.3
12441	1.4698	1.6364	5.e-002	2.7599e-005
12442	1.4698	1.3636	0.	-1187.9
12443	1.3779	1.4545	0.	-1314.3
12444	1.4698	1.4545	5.e-002	1.8541e-005
12445	1.4698	1.1818	0.	-1043.8
12446	1.3779	1.2727	0.	-1177.8
12447	1.4698	1.2727	5.e-002	4.5001e-005
12448	1.4698	1.	0.	-880.82
12449	1.3779	1.0909	0.	-1019.3
12450	1.4698	1.0909	5.e-002	6.3847e-006
12451	1.4698	0.81818	0.	-701.58
12452	1.3779	0.90909	0.	-839.75
12453	1.4698	0.90909	5.e-002	5.4359e-005
12454	1.4698	0.63636	0.	-511.03
12455	1.3779	0.72727	0.	-642.96
12456	1.4698	0.72727	5.e-002	6.1159e-005
12457	1.4698	0.45455	0.	-315.43
12458	1.3779	0.54545	0.	-435.57
12459	1.4698	0.54545	5.e-002	6.0006e-005
12460	1.4698	0.27273	0.	-116.08
12461	1.3779	0.36364	0.	-225.55
12462	1.4698	0.36364	5.e-002	6.0212e-005
12463	1.3779	0.18182	0.	-23.024
12464	1.4698	0.18182	5.e-002	4.2968e-005
12465	1.4698	9.0909e-002	0.	-0.93175
12466	1.286	5.7273	0.	-118.16
12467	1.1942	5.8182	0.	-19.057
12468	1.286	5.8182	5.e-002	-1.5078e-005
12469	1.286	5.9091	0.	-0.16008
12470	1.286	5.5455	0.	-345.04
12471	1.1942	5.6364	0.	-244.36
12472	1.286	5.6364	5.e-002	-4.2422e-015
12473	1.286	5.3636	0.	-567.19
12474	1.1942	5.4545	0.	-485.73
12475	1.286	5.4545	5.e-002	-6.097e-005
12476	1.286	5.1818	0.	-781.06
12477	1.1942	5.2727	0.	-721.44
12478	1.286	5.2727	5.e-002	-4.4545e-015
12479	1.286	5.	0.	-978.35
12480	1.1942	5.0909	0.	-940.22
12481	1.286	5.0909	5.e-002	-4.5298e-006
12482	1.286	4.8182	0.	-1153.6
12483	1.1942	4.9091	0.	-1134.3
12484	1.286	4.9091	5.e-002	-4.283e-015
12485	1.286	4.6364	0.	-1304.6
12486	1.1942	4.7273	0.	-1300.9
12487	1.286	4.7273	5.e-002	-4.2047e-015
12488	1.286	4.4545	0.	-1431.9
12489	1.1942	4.5455	0.	-1440.4
12490	1.286	4.5455	5.e-002	-4.1603e-015
12491	1.286	4.2727	0.	-1537.1
12492	1.1942	4.3636	0.	-1555.2
12493	1.286	4.3636	5.e-002	-7.3722e-006
12494	1.286	4.0909	0.	-1622.6
12495	1.1942	4.1818	0.	-1648.2
12496	1.286	4.1818	5.e-002	-4.1544e-015
12497	1.286	3.9091	0.	-1690.7
12498	1.1942	4.	0.	-1722.4
12499	1.286	4.	5.e-002	-4.1729e-015
12500	1.286	3.7273	0.	-1743.6
12501	1.1942	3.8182	0.	-1780.4
12502	1.286	3.8182	5.e-002	-3.5647e-006
12503	1.286	3.5455	0.	-1782.9
12504	1.1942	3.6364	0.	-1824.4
12505	1.286	3.6364	5.e-002	-2.7654e-006
12506	1.286	3.3636	0.	-1810.1
12507	1.1942	3.4545	0.	-1856.
12508	1.286	3.4545	5.e-002	1.3157e-005
12509	1.286	3.1818	0.	-1826.
12510	1.1942	3.2727	0.	-1876.4
12511	1.286	3.2727	5.e-002	1.4767e-005
12512	1.286	3.	0.	-1831.2
12513	1.1942	3.0909	0.	-1886.4
12514	1.286	3.0909	5.e-002	-3.9004e-007
12515	1.286	2.8182	0.	-1826.
12516	1.1942	2.9091	0.	-1886.4
12517	1.286	2.9091	5.e-002	4.2254e-007
12518	1.286	2.6364	0.	-1810.1
12519	1.1942	2.7273	0.	-1876.4
12520	1.286	2.7273	5.e-002	2.0175e-006
12521	1.286	2.4545	0.	-1782.9
12522	1.1942	2.5455	0.	-1856.
12523	1.286	2.5455	5.e-002	6.3322e-006
12524	1.286	2.2727	0.	-1743.6
12525	1.1942	2.3636	0.	-1824.4
12526	1.286	2.3636	5.e-002	7.4879e-006
12527	1.286	2.0909	0.	-1690.7
12528	1.1942	2.1818	0.	-1780.4
12529	1.286	2.1818	5.e-002	1.1399e-005
12530	1.286	1.9091	0.	-1622.6
12531	1.1942	2.	0.	-1722.4
12532	1.286	2.	5.e-002	2.2164e-005
12533	1.286	1.7273	0.	-1537.1
12534	1.1942	1.8182	0.	-1648.2
12535	1.286	1.8182	5.e-002	2.259e-005
12536	1.286	1.5455	0.	-1431.9
12537	1.1942	1.6364	0.	-1555.2
12538	1.286	1.6364	5.e-002	3.0033e-005
12539	1.286	1.3636	0.	-1304.6
12540	1.1942	1.4545	0.	-1440.4
12541	1.286	1.4545	5.e-002	4.9791e-005
12542	1.286	1.1818	0.	-1153.6
12543	1.1942	1.2727	0.	-1300.9
12544	1.286	1.2727	5.e-002	2.9111e-005
12545	1.286	1.	0.	-978.35
12546	1.1942	1.0909	0.	-1134.3
12547	1.286	1.0909	5.e-002	4.8212e-005
12548	1.286	0.81818	0.	-781.06
12549	1.1942	0.90909	0.	-940.22
12550	1.286	0.90909	5.e-002	4.5298e-006
12551	1.286	0.63636	0.	-567.19
12552	1.1942	0.72727	0.	-721.44
12553	1.286	0.72727	5.e-002	2.4947e-006
12554	1.286	0.45455	0.	-345.04
12555	1.1942	0.54545	0.	-485.73
12556	1.286	0.54545	5.e-002	1.2244e-004
12557	1.286	0.27273	0.	-118.16
12558	1.1942	0.36364	0.	-244.36
12559	1.286	0.36364	5.e-002	1.8287e-004
12560	1.1942	0.18182	0.	-19.057
12561	1.286	0.18182	5.e-002	2.5829e-005
12562	1.286	9.0909e-002	0.	-0.16009
12563	1.1023	5.7273	0.	-121.9
12564	1.0105	5.8182	0.	-15.993
12565	1.1023	5.8182	5.e-002	-6.1831e-015
12566	1.1023	5.9091	0.	1.5112e-003
12567	1.1023	5.5455	0.	-384.3
12568	1.0105	5.6364	0.	-270.3
12569	1.1023	5.6364	5.e-002	-5.9727e-005
12570	1.1023	5.3636	0.	-639.74
12571	1.0105	5.4545	0.	-552.46
12572	1.1023	5.4545	5.e-002	-5.2434e-015
12573	1.1023	5.1818	0.	-880.73
12574	1.0105	5.2727	0.	-822.18
12575	1.1023	5.2727	5.e-002	-5.141e-015
12576	1.1023	5.	0.	-1096.6
12577	1.0105	5.0909	0.	-1064.
12578	1.1023	5.0909	5.e-002	-4.9506e-015
12579	1.1023	4.8182	0.	-1282.2
12580	1.0105	4.9091	0.	-1270.3
12581	1.1023	4.9091	5.e-002	-4.7726e-015
12582	1.1023	4.6364	0.	-1437.2
12583	1.0105	4.7273	0.	-1440.9
12584	1.1023	4.7273	5.e-002	-7.3648e-006
12585	1.1023	4.4545	0.	-1564.2
12586	1.0105	4.5455	0.	-1579.1
12587	1.1023	4.5455	5.e-002	-4.5905e-015
12588	1.1023	4.2727	0.	-1666.7
12589	1.0105	4.3636	0.	-1689.9
12590	1.1023	4.3636	5.e-002	2.879e-006
12591	1.1023	4.0909	0.	-1748.3
12592	1.0105	4.1818	0.	-1777.7
12593	1.1023	4.1818	5.e-002	-3.2181e-006
12594	1.1023	3.9091	0.	-1812.3
12595	1.0105	4.	0.	-1846.6
12596	1.1023	4.	5.e-002	-4.5873e-015
12597	1.1023	3.7273	0.	-1861.5
12598	1.0105	3.8182	0.	-1899.8
12599	1.1023	3.8182	5.e-002	2.3206e-005
12600	1.1023	3.5455	0.	-1897.7
12601	1.0105	3.6364	0.	-1939.8
12602	1.1023	3.6364	5.e-002	-2.5677e-006
12603	1.1023	3.3636	0.	-1922.6
12604	1.0105	3.4545	0.	-1968.3
12605	1.1023	3.4545	5.e-002	3.6564e-007
12606	1.1023	3.1818	0.	-1937.1
12607	1.0105	3.2727	0.	-1986.7
12608	1.1023	3.2727	5.e-002	1.7067e-008
12609	1.1023	3.	0.	-1941.9
12610	1.0105	3.0909	0.	-1995.7
12611	1.1023	3.0909	5.e-002	-2.9851e-007
12612	1.1023	2.8182	0.	-1937.1
12613	1.0105	2.9091	0.	-1995.7
12614	1.1023	2.9091	5.e-002	3.7339e-007
12615	1.1023	2.6364	0.	-1922.6
12616	1.0105	2.7273	0.	-1986.7
12617	1.1023	2.7273	5.e-002	1.6286e-006
12618	1.1023	2.4545	0.	-1897.7
12619	1.0105	2.5455	0.	-1968.3
12620	1.1023	2.5455	5.e-002	3.9951e-006
12621	1.1023	2.2727	0.	-1861.5
12622	1.0105	2.3636	0.	-1939.8
12623	1.1023	2.3636	5.e-002	6.6688e-006
12624	1.1023	2.0909	0.	-1812.3
12625	1.0105	2.1818	0.	-1899.8
12626	1.1023	2.1818	5.e-002	4.4489e-006
12627	1.1023	1.9091	0.	-1748.3
12628	1.0105	2.	0.	-1846.6
12629	1.1023	2.	5.e-002	-4.5873e-015
12630	1.1023	1.7273	0.	-1666.7
12631	1.0105	1.8182	0.	-1777.7
12632	1.1023	1.8182	5.e-002	2.0566e-005
12633	1.1023	1.5455	0.	-1564.2
12634	1.0105	1.6364	0.	-1689.9
12635	1.1023	1.6364	5.e-002	2.4253e-005
12636	1.1023	1.3636	0.	-1437.2
12637	1.0105	1.4545	0.	-1579.1
12638	1.1023	1.4545	5.e-002	4.8361e-005
12639	1.1023	1.1818	0.	-1282.2
12640	1.0105	1.2727	0.	-1440.9
12641	1.1023	1.2727	5.e-002	8.9971e-005
12642	1.1023	1.	0.	-1096.6
12643	1.0105	1.0909	0.	-1270.3
12644	1.1023	1.0909	5.e-002	5.7595e-005
12645	1.1023	0.81818	0.	-880.73
12646	1.0105	0.90909	0.	-1064.
12647	1.1023	0.90909	5.e-002	1.1319e-004
12648	1.1023	0.63636	0.	-639.74
12649	1.0105	0.72727	0.	-822.18
12650	1.1023	0.72727	5.e-002	1.2393e-004
12651	1.1023	0.45455	0.	-384.3
12652	1.0105	0.54545	0.	-552.46
12653	1.1023	0.54545	5.e-002	-8.8375e-007
12654	1.1023	0.27273	0.	-121.9
12655	1.0105	0.36364	0.	-270.3
12656	1.1023	0.36364	5.e-002	5.9809e-005
12657	1.0105	0.18182	0.	-15.993
12658	1.1023	0.18182	5.e-002	3.2557e-005
12659	1.1023	9.0909e-002	0.	1.5109e-003
12660	0.9186	5.7273	0.	-128.21
12661	0.82674	5.8182	0.	-16.502
12662	0.9186	5.8182	5.e-002	-6.3381e-015
12663	0.9186	5.9091	0.	1.0267
12664	0.9186	5.5455	0.	-437.67
12665	0.82674	5.6364	0.	-312.47
12666	0.9186	5.6364	5.e-002	-5.6524e-005
12667	0.9186	5.3636	0.	-734.89
12668	0.82674	5.4545	0.	-650.07
12669	0.9186	5.4545	5.e-002	-6.3664e-015
12670	0.9186	5.1818	0.	-1005.9
12671	0.82674	5.2727	0.	-959.46
12672	0.9186	5.2727	5.e-002	-6.0237e-015
12673	0.9186	5.	0.	-1238.4
12674	0.82674	5.0909	0.	-1222.
12675	0.9186	5.0909	5.e-002	-4.2486e-006
12676	0.9186	4.8182	0.	-1429.7
12677	0.82674	4.9091	0.	-1434.4
12678	0.9186	4.9091	5.e-002	-5.3569e-015
12679	0.9186	4.6364	0.	-1583.4
12680	0.82674	4.7273	0.	-1602.2
12681	0.9186	4.7273	5.e-002	-7.5141e-006
12682	0.9186	4.4545	0.	-1705.3
12683	0.82674	4.5455	0.	-1733.4
12684	0.9186	4.5455	5.e-002	2.5884e-005
12685	0.9186	4.2727	0.	-1801.2
12686	0.82674	4.3636	0.	-1835.7
12687	0.9186	4.3636	5.e-002	-3.4758e-006
12688	0.9186	4.0909	0.	-1876.2
12689	0.82674	4.1818	0.	-1915.2
12690	0.9186	4.1818	5.e-002	1.2253e-005
12691	0.9186	3.9091	0.	-1934.3
12692	0.82674	4.	0.	-1976.8
12693	0.9186	4.	5.e-002	2.8847e-005
12694	0.9186	3.7273	0.	-1978.3
12695	0.82674	3.8182	0.	-2023.8
12696	0.9186	3.8182	5.e-002	-2.0459e-006
12697	0.9186	3.5455	0.	-2010.6
12698	0.82674	3.6364	0.	-2058.9
12699	0.9186	3.6364	5.e-002	1.4925e-005
12700	0.9186	3.3636	0.	-2032.6
12701	0.82674	3.4545	0.	-2083.8
12702	0.9186	3.4545	5.e-002	-1.3759e-006
12703	0.9186	3.1818	0.	-2045.4
12704	0.82674	3.2727	0.	-2099.9
12705	0.9186	3.2727	5.e-002	8.5324e-008
12706	0.9186	3.	0.	-2049.7
12707	0.82674	3.0909	0.	-2107.7
12708	0.9186	3.0909	5.e-002	-2.3507e-007
12709	0.9186	2.8182	0.	-2045.4
12710	0.82674	2.9091	0.	-2107.7
12711	0.9186	2.9091	5.e-002	3.7417e-007
12712	0.9186	2.6364	0.	-2032.6
12713	0.82674	2.7273	0.	-2099.9
12714	0.9186	2.7273	5.e-002	1.4312e-006
12715	0.9186	2.4545	0.	-2010.6
12716	0.82674	2.5455	0.	-2083.8
12717	0.9186	2.5455	5.e-002	1.651e-006
12718	0.9186	2.2727	0.	-1978.3
12719	0.82674	2.3636	0.	-2058.9
12720	0.9186	2.3636	5.e-002	3.1279e-006
12721	0.9186	2.0909	0.	-1934.3
12722	0.82674	2.1818	0.	-2023.8
12723	0.9186	2.1818	5.e-002	3.2229e-005
12724	0.9186	1.9091	0.	-1876.2
12725	0.82674	2.	0.	-1976.8
12726	0.9186	2.	5.e-002	2.6167e-005
12727	0.9186	1.7273	0.	-1801.2
12728	0.82674	1.8182	0.	-1915.2
12729	0.9186	1.8182	5.e-002	6.0689e-006
12730	0.9186	1.5455	0.	-1705.3
12731	0.82674	1.6364	0.	-1835.7
12732	0.9186	1.6364	5.e-002	3.5668e-005
12733	0.9186	1.3636	0.	-1583.4
12734	0.82674	1.4545	0.	-1733.4
12735	0.9186	1.4545	5.e-002	1.6329e-005
12736	0.9186	1.1818	0.	-1429.7
12737	0.82674	1.2727	0.	-1602.2
12738	0.9186	1.2727	5.e-002	7.912e-005
12739	0.9186	1.	0.	-1238.4
12740	0.82674	1.0909	0.	-1434.4
12741	0.9186	1.0909	5.e-002	5.3104e-005
12742	0.9186	0.81818	0.	-1005.9
12743	0.82674	0.90909	0.	-1222.
12744	0.9186	0.90909	5.e-002	1.2448e-004
12745	0.9186	0.63636	0.	-734.89
12746	0.82674	0.72727	0.	-959.46
12747	0.9186	0.72727	5.e-002	6.1837e-005
12748	0.9186	0.45455	0.	-437.67
12749	0.82674	0.54545	0.	-650.07
12750	0.9186	0.54545	5.e-002	1.1991e-004
12751	0.9186	0.27273	0.	-128.21
12752	0.82674	0.36364	0.	-312.47
12753	0.9186	0.36364	5.e-002	5.6524e-005
12754	0.82674	0.18182	0.	-16.502
12755	0.9186	0.18182	5.e-002	4.2931e-005
12756	0.9186	9.0909e-002	0.	1.0267
12757	0.73488	5.7273	0.	-146.59
12758	0.64302	5.8182	0.	-9.9651
12759	0.73488	5.8182	5.e-002	-6.8347e-015
12760	0.73488	5.9091	0.	-1.4385
12761	0.73488	5.5455	0.	-524.2
12762	0.64302	5.6364	0.	-376.89
12763	0.73488	5.6364	5.e-002	-8.2792e-015
12764	0.73488	5.3636	0.	-875.18
12765	0.64302	5.4545	0.	-786.15
12766	0.73488	5.4545	5.e-002	-7.922e-015
12767	0.73488	5.1818	0.	-1176.6
12768	0.64302	5.2727	0.	-1133.3
12769	0.73488	5.2727	5.e-002	-7.1341e-015
12770	0.73488	5.	0.	-1419.
12771	0.64302	5.0909	0.	-1404.9
12772	0.73488	5.0909	5.e-002	-6.4948e-015
12773	0.73488	4.8182	0.	-1607.7
12774	0.64302	4.9091	0.	-1610.5
12775	0.73488	4.9091	5.e-002	4.6393e-006
12776	0.73488	4.6364	0.	-1752.8
12777	0.64302	4.7273	0.	-1765.3
12778	0.73488	4.7273	5.e-002	-5.8869e-015
12779	0.73488	4.4545	0.	-1864.2
12780	0.64302	4.5455	0.	-1882.3
12781	0.73488	4.5455	5.e-002	-5.773e-015
12782	0.73488	4.2727	0.	-1949.9
12783	0.64302	4.3636	0.	-1971.5
12784	0.73488	4.3636	5.e-002	-3.2453e-006
12785	0.73488	4.0909	0.	-2015.9
12786	0.64302	4.1818	0.	-2039.9
12787	0.73488	4.1818	5.e-002	-5.6558e-015
12788	0.73488	3.9091	0.	-2066.4
12789	0.64302	4.	0.	-2092.4
12790	0.73488	4.	5.e-002	-3.4361e-006
12791	0.73488	3.7273	0.	-2104.5
12792	0.64302	3.8182	0.	-2132.3
12793	0.73488	3.8182	5.e-002	-9.1396e-007
12794	0.73488	3.5455	0.	-2132.3
12795	0.64302	3.6364	0.	-2162.
12796	0.73488	3.6364	5.e-002	7.0826e-007
12797	0.73488	3.3636	0.	-2151.2
12798	0.64302	3.4545	0.	-2183.
12799	0.73488	3.4545	5.e-002	3.8904e-008
12800	0.73488	3.1818	0.	-2162.2
12801	0.64302	3.2727	0.	-2196.5
12802	0.73488	3.2727	5.e-002	-7.9467e-007
12803	0.73488	3.	0.	-2165.8
12804	0.64302	3.0909	0.	-2203.1
12805	0.73488	3.0909	5.e-002	-2.3331e-007
12806	0.73488	2.8182	0.	-2162.2
12807	0.64302	2.9091	0.	-2203.1
12808	0.73488	2.9091	5.e-002	3.0168e-007
12809	0.73488	2.6364	0.	-2151.2
12810	0.64302	2.7273	0.	-2196.5
12811	0.73488	2.7273	5.e-002	1.2192e-006
12812	0.73488	2.4545	0.	-2132.3
12813	0.64302	2.5455	0.	-2183.
12814	0.73488	2.5455	5.e-002	3.2731e-005
12815	0.73488	2.2727	0.	-2104.5
12816	0.64302	2.3636	0.	-2162.
12817	0.73488	2.3636	5.e-002	3.3652e-005
12818	0.73488	2.0909	0.	-2066.4
12819	0.64302	2.1818	0.	-2132.3
12820	0.73488	2.1818	5.e-002	1.4851e-005
12821	0.73488	1.9091	0.	-2015.9
12822	0.64302	2.	0.	-2092.4
12823	0.73488	2.	5.e-002	2.4427e-005
12824	0.73488	1.7273	0.	-1949.9
12825	0.64302	1.8182	0.	-2039.9
12826	0.73488	1.8182	5.e-002	1.8415e-005
12827	0.73488	1.5455	0.	-1864.2
12828	0.64302	1.6364	0.	-1971.5
12829	0.73488	1.6364	5.e-002	4.9925e-005
12830	0.73488	1.3636	0.	-1752.8
12831	0.64302	1.4545	0.	-1882.3
12832	0.73488	1.4545	5.e-002	6.0065e-005
12833	0.73488	1.1818	0.	-1607.7
12834	0.64302	1.2727	0.	-1765.3
12835	0.73488	1.2727	5.e-002	3.033e-005
12836	0.73488	1.	0.	-1419.
12837	0.64302	1.0909	0.	-1610.5
12838	0.73488	1.0909	5.e-002	6.1155e-005
12839	0.73488	0.81818	0.	-1176.6
12840	0.64302	0.90909	0.	-1404.9
12841	0.73488	0.90909	5.e-002	1.2112e-004
12842	0.73488	0.63636	0.	-875.18
12843	0.64302	0.72727	0.	-1133.3
12844	0.73488	0.72727	5.e-002	1.2522e-004
12845	0.73488	0.45455	0.	-524.2
12846	0.64302	0.54545	0.	-786.15
12847	0.73488	0.54545	5.e-002	1.1859e-004
12848	0.73488	0.27273	0.	-146.59
12849	0.64302	0.36364	0.	-376.89
12850	0.73488	0.36364	5.e-002	2.0851e-006
12851	0.64302	0.18182	0.	-9.9651
12852	0.73488	0.18182	5.e-002	1.6809e-004
12853	0.73488	9.0909e-002	0.	-1.4385
12854	0.55116	5.7273	0.	-170.19
12855	0.4593	5.8182	0.	-41.689
12856	0.55116	5.8182	5.e-002	-8.5563e-015
12857	0.55116	5.9091	0.	9.062
12858	0.55116	5.5455	0.	-639.13
12859	0.4593	5.6364	0.	-538.35
12860	0.55116	5.6364	5.e-002	-1.1472e-014
12861	0.55116	5.3636	0.	-1045.9
12862	0.4593	5.4545	0.	-1042.5
12863	0.55116	5.4545	5.e-002	-9.9798e-015
12864	0.55116	5.1818	0.	-1363.1
12865	0.4593	5.2727	0.	-1411.4
12866	0.55116	5.2727	5.e-002	-5.9427e-005
12867	0.55116	5.	0.	-1597.2
12868	0.4593	5.0909	0.	-1671.1
12869	0.55116	5.0909	5.e-002	-7.4843e-015
12870	0.55116	4.8182	0.	-1768.4
12871	0.4593	4.9091	0.	-1854.8
12872	0.55116	4.9091	5.e-002	-6.955e-015
12873	0.55116	4.6364	0.	-1894.8
12874	0.4593	4.7273	0.	-1987.9
12875	0.55116	4.7273	5.e-002	8.9546e-006
12876	0.55116	4.4545	0.	-1989.6
12877	0.4593	4.5455	0.	-2086.5
12878	0.55116	4.5455	5.e-002	-1.0277e-005
12879	0.55116	4.2727	0.	-2061.4
12880	0.4593	4.3636	0.	-2160.9
12881	0.55116	4.3636	5.e-002	9.9422e-006
12882	0.55116	4.0909	0.	-2116.4
12883	0.4593	4.1818	0.	-2217.8
12884	0.55116	4.1818	5.e-002	2.6754e-005
12885	0.55116	3.9091	0.	-2158.2
12886	0.4593	4.	0.	-2261.3
12887	0.55116	4.	5.e-002	2.8104e-005
12888	0.55116	3.7273	0.	-2189.7
12889	0.4593	3.8182	0.	-2294.4
12890	0.55116	3.8182	5.e-002	-8.187e-007
12891	0.55116	3.5455	0.	-2212.7
12892	0.4593	3.6364	0.	-2319.1
12893	0.55116	3.6364	5.e-002	-1.2432e-006
12894	0.55116	3.3636	0.	-2228.3
12895	0.4593	3.4545	0.	-2336.6
12896	0.55116	3.4545	5.e-002	9.6085e-007
12897	0.55116	3.1818	0.	-2237.4
12898	0.4593	3.2727	0.	-2347.8
12899	0.55116	3.2727	5.e-002	-5.1639e-007
12900	0.55116	3.	0.	-2240.4
12901	0.4593	3.0909	0.	-2353.3
12902	0.55116	3.0909	5.e-002	-1.8173e-007
12903	0.55116	2.8182	0.	-2237.4
12904	0.4593	2.9091	0.	-2353.3
12905	0.55116	2.9091	5.e-002	2.3914e-007
12906	0.55116	2.6364	0.	-2228.3
12907	0.4593	2.7273	0.	-2347.8
12908	0.55116	2.7273	5.e-002	1.0555e-006
12909	0.55116	2.4545	0.	-2212.7
12910	0.4593	2.5455	0.	-2336.6
12911	0.55116	2.5455	5.e-002	3.1312e-005
12912	0.55116	2.2727	0.	-2189.7
12913	0.4593	2.3636	0.	-2319.1
12914	0.55116	2.3636	5.e-002	3.8418e-006
12915	0.55116	2.0909	0.	-2158.2
12916	0.4593	2.1818	0.	-2294.4
12917	0.55116	2.1818	5.e-002	3.1497e-005
12918	0.55116	1.9091	0.	-2116.4
12919	0.4593	2.	0.	-2261.3
12920	0.55116	2.	5.e-002	3.0885e-006
12921	0.55116	1.7273	0.	-2061.4
12922	0.4593	1.8182	0.	-2217.8
12923	0.55116	1.8182	5.e-002	6.7307e-005
12924	0.55116	1.5455	0.	-1989.6
12925	0.4593	1.6364	0.	-2160.9
12926	0.55116	1.6364	5.e-002	3.0755e-005
12927	0.55116	1.3636	0.	-1894.8
12928	0.4593	1.4545	0.	-2086.5
12929	0.55116	1.4545	5.e-002	7.6666e-005
12930	0.55116	1.1818	0.	-1768.4
12931	0.4593	1.2727	0.	-1987.9
12932	0.55116	1.2727	5.e-002	5.7947e-005
12933	0.55116	1.	0.	-1597.2
12934	0.4593	1.0909	0.	-1854.8
12935	0.55116	1.0909	5.e-002	9.0059e-005
12936	0.55116	0.81818	0.	-1363.1
12937	0.4593	0.90909	0.	-1671.1
12938	0.55116	0.90909	5.e-002	1.0162e-004
12939	0.55116	0.63636	0.	-1045.9
12940	0.4593	0.72727	0.	-1411.4
12941	0.55116	0.72727	5.e-002	6.4315e-005
12942	0.55116	0.45455	0.	-639.13
12943	0.4593	0.54545	0.	-1042.5
12944	0.55116	0.54545	5.e-002	1.1747e-004
12945	0.55116	0.27273	0.	-170.19
12946	0.4593	0.36364	0.	-538.35
12947	0.55116	0.36364	5.e-002	5.2374e-005
12948	0.4593	0.18182	0.	-41.689
12949	0.55116	0.18182	5.e-002	2.8438e-008
12950	0.55116	9.0909e-002	0.	9.062
12951	0.36744	5.7273	0.	-307.9
12952	0.27558	5.8182	0.	-3.7402
12953	0.36744	5.8182	5.e-002	-1.4957e-014
12954	0.36744	5.9091	0.	-23.766
12955	0.36744	5.5455	0.	-944.59
12956	0.27558	5.6364	0.	-745.25
12957	0.36744	5.6364	5.e-002	-1.6595e-014
12958	0.36744	5.3636	0.	-1410.9
12959	0.27558	5.4545	0.	-1246.9
12960	0.36744	5.4545	5.e-002	-1.2633e-014
12961	0.36744	5.1818	0.	-1720.4
12962	0.27558	5.2727	0.	-1557.3
12963	0.36744	5.2727	5.e-002	-1.0395e-014
12964	0.36744	5.	0.	-1928.5
12965	0.27558	5.0909	0.	-1758.1
12966	0.36744	5.0909	5.e-002	-9.244e-015
12967	0.36744	4.8182	0.	-2073.7
12968	0.27558	4.9091	0.	-1896.
12969	0.36744	4.9091	5.e-002	-8.6294e-015
12970	0.36744	4.6364	0.	-2178.9
12971	0.27558	4.7273	0.	-1995.1
12972	0.36744	4.7273	5.e-002	-8.2129e-015
12973	0.36744	4.4545	0.	-2257.4
12974	0.27558	4.5455	0.	-2068.9
12975	0.36744	4.5455	5.e-002	1.0749e-005
12976	0.36744	4.2727	0.	-2316.9
12977	0.27558	4.3636	0.	-2124.9
12978	0.36744	4.3636	5.e-002	-7.6224e-015
12979	0.36744	4.0909	0.	-2362.5
12980	0.27558	4.1818	0.	-2167.9
12981	0.36744	4.1818	5.e-002	4.1762e-006
12982	0.36744	3.9091	0.	-2397.4
12983	0.27558	4.	0.	-2201.1
12984	0.36744	4.	5.e-002	-4.1238e-007
12985	0.36744	3.7273	0.	-2423.7
12986	0.27558	3.8182	0.	-2226.4
12987	0.36744	3.8182	5.e-002	-6.5156e-007
12988	0.36744	3.5455	0.	-2442.9
12989	0.27558	3.6364	0.	-2245.3
12990	0.36744	3.6364	5.e-002	3.0543e-005
12991	0.36744	3.3636	0.	-2456.
12992	0.27558	3.4545	0.	-2258.8
12993	0.36744	3.4545	5.e-002	1.5709e-007
12994	0.36744	3.1818	0.	-2463.6
12995	0.27558	3.2727	0.	-2267.4
12996	0.36744	3.2727	5.e-002	-3.0547e-007
12997	0.36744	3.	0.	-2466.2
12998	0.27558	3.0909	0.	-2271.6
12999	0.36744	3.0909	5.e-002	-9.2567e-008
13000	0.36744	2.8182	0.	-2463.6
13001	0.27558	2.9091	0.	-2271.6
13002	0.36744	2.9091	5.e-002	1.6869e-007
13003	0.36744	2.6364	0.	-2456.
13004	0.27558	2.7273	0.	-2267.4
13005	0.36744	2.7273	5.e-002	3.0863e-005
13006	0.36744	2.4545	0.	-2442.9
13007	0.27558	2.5455	0.	-2258.8
13008	0.36744	2.5455	5.e-002	8.6084e-007
13009	0.36744	2.2727	0.	-2423.7
13010	0.27558	2.3636	0.	-2245.3
13011	0.36744	2.3636	5.e-002	1.4777e-006
13012	0.36744	2.0909	0.	-2397.4
13013	0.27558	2.1818	0.	-2226.4
13014	0.36744	2.1818	5.e-002	3.7905e-006
13015	0.36744	1.9091	0.	-2362.5
13016	0.27558	2.	0.	-2201.1
13017	0.36744	2.	5.e-002	2.8867e-006
13018	0.36744	1.7273	0.	-2316.9
13019	0.27558	1.8182	0.	-2167.9
13020	0.36744	1.8182	5.e-002	3.6921e-005
13021	0.36744	1.5455	0.	-2257.4
13022	0.27558	1.6364	0.	-2124.9
13023	0.36744	1.6364	5.e-002	6.1275e-006
13024	0.36744	1.3636	0.	-2178.9
13025	0.27558	1.4545	0.	-2068.9
13026	0.36744	1.4545	5.e-002	1.6562e-005
13027	0.36744	1.1818	0.	-2073.7
13028	0.27558	1.2727	0.	-1995.1
13029	0.36744	1.2727	5.e-002	6.7358e-006
13030	0.36744	1.	0.	-1928.5
13031	0.27558	1.0909	0.	-1896.
13032	0.36744	1.0909	5.e-002	1.0043e-004
13033	0.36744	0.81818	0.	-1720.4
13034	0.27558	0.90909	0.	-1758.1
13035	0.36744	0.90909	5.e-002	8.4292e-005
13036	0.36744	0.63636	0.	-1410.9
13037	0.27558	0.72727	0.	-1557.3
13038	0.36744	0.72727	5.e-002	1.1004e-005
13039	0.36744	0.45455	0.	-944.59
13040	0.27558	0.54545	0.	-1246.9
13041	0.36744	0.54545	5.e-002	1.8437e-004
13042	0.36744	0.27273	0.	-307.9
13043	0.27558	0.36364	0.	-745.25
13044	0.36744	0.36364	5.e-002	4.5574e-005
13045	0.27558	0.18182	0.	-3.7402
13046	0.36744	0.18182	5.e-002	9.025e-007
13047	0.36744	9.0909e-002	0.	-23.766
13048	0.18372	5.7273	0.	-413.74
13049	0.18372	5.8182	5.e-002	-1.8557e-006
13050	0.18372	5.9091	0.	88.669
13051	9.186e-002	5.8182	0.	-573.45
13052	0.18372	5.5455	0.	-1047.1
13053	0.18372	5.6364	5.e-002	1.6879e-006
13054	9.186e-002	5.6364	0.	-1567.
13055	0.18372	5.3636	0.	-1386.1
13056	0.18372	5.4545	5.e-002	-2.2844e-006
13057	9.186e-002	5.4545	0.	-2043.5
13058	0.18372	5.1818	0.	-1588.5
13059	0.18372	5.2727	5.e-002	-1.1959e-014
13060	9.186e-002	5.2727	0.	-2321.9
13061	0.18372	5.	0.	-1721.
13062	0.18372	5.0909	5.e-002	-1.0059e-014
13063	9.186e-002	5.0909	0.	-2504.1
13064	0.18372	4.8182	0.	-1814.4
13065	0.18372	4.9091	5.e-002	-8.7613e-015
13066	9.186e-002	4.9091	0.	-2632.7
13067	0.18372	4.6364	0.	-1883.2
13068	0.18372	4.7273	5.e-002	-7.8142e-015
13069	9.186e-002	4.7273	0.	-2727.3
13070	0.18372	4.4545	0.	-1935.3
13071	0.18372	4.5455	5.e-002	1.3095e-005
13072	9.186e-002	4.5455	0.	-2798.8
13073	0.18372	4.2727	0.	-1975.2
13074	0.18372	4.3636	5.e-002	8.3515e-006
13075	9.186e-002	4.3636	0.	-2853.7
13076	0.18372	4.0909	0.	-2006.1
13077	0.18372	4.1818	5.e-002	-2.8089e-007
13078	9.186e-002	4.1818	0.	-2896.3
13079	0.18372	3.9091	0.	-2029.9
13080	0.18372	4.	5.e-002	1.8232e-005
13081	9.186e-002	4.	0.	-2929.2
13082	0.18372	3.7273	0.	-2047.9
13083	0.18372	3.8182	5.e-002	-2.8556e-007
13084	9.186e-002	3.8182	0.	-2954.4
13085	0.18372	3.5455	0.	-2061.1
13086	0.18372	3.6364	5.e-002	2.6717e-006
13087	9.186e-002	3.6364	0.	-2973.3
13088	0.18372	3.3636	0.	-2070.1
13089	0.18372	3.4545	5.e-002	-2.3444e-007
13090	9.186e-002	3.4545	0.	-2986.8
13091	0.18372	3.1818	0.	-2075.4
13092	0.18372	3.2727	5.e-002	-2.3341e-007
13093	9.186e-002	3.2727	0.	-2995.4
13094	0.18372	3.	0.	-2077.1
13095	0.18372	3.0909	5.e-002	3.0405e-005
13096	9.186e-002	3.0909	0.	-2999.6
13097	0.18372	2.8182	0.	-2075.4
13098	0.18372	2.9091	5.e-002	3.0624e-005
13099	9.186e-002	2.9091	0.	-2999.6
13100	0.18372	2.6364	0.	-2070.1
13101	0.18372	2.7273	5.e-002	3.0823e-005
13102	9.186e-002	2.7273	0.	-2995.4
13103	0.18372	2.4545	0.	-2061.1
13104	0.18372	2.5455	5.e-002	8.3355e-007
13105	9.186e-002	2.5455	0.	-2986.8
13106	0.18372	2.2727	0.	-2047.9
13107	0.18372	2.3636	5.e-002	1.3948e-006
13108	9.186e-002	2.3636	0.	-2973.3
13109	0.18372	2.0909	0.	-2029.9
13110	0.18372	2.1818	5.e-002	1.9989e-006
13111	9.186e-002	2.1818	0.	-2954.4
13112	0.18372	1.9091	0.	-2006.1
13113	0.18372	2.	5.e-002	3.0555e-006
13114	9.186e-002	2.	0.	-2929.2
13115	0.18372	1.7273	0.	-1975.2
13116	0.18372	1.8182	5.e-002	5.0611e-005
13117	9.186e-002	1.8182	0.	-2896.3
13118	0.18372	1.5455	0.	-1935.3
13119	0.18372	1.6364	5.e-002	1.8415e-005
13120	9.186e-002	1.6364	0.	-2853.7
13121	0.18372	1.3636	0.	-1883.2
13122	0.18372	1.4545	5.e-002	4.2404e-005
13123	9.186e-002	1.4545	0.	-2798.8
13124	0.18372	1.1818	0.	-1814.4
13125	0.18372	1.2727	5.e-002	3.1717e-005
13126	9.186e-002	1.2727	0.	-2727.3
13127	0.18372	1.	0.	-1721.
13128	0.18372	1.0909	5.e-002	1.8897e-005
13129	9.186e-002	1.0909	0.	-2632.7
13130	0.18372	0.81818	0.	-1588.5
13131	0.18372	0.90909	5.e-002	9.5406e-005
13132	9.186e-002	0.90909	0.	-2504.1
13133	0.18372	0.63636	0.	-1386.1
13134	0.18372	0.72727	5.e-002	1.8998e-005
13135	9.186e-002	0.72727	0.	-2321.9
13136	0.18372	0.45455	0.	-1047.1
13137	0.18372	0.54545	5.e-002	1.7553e-004
13138	9.186e-002	0.54545	0.	-2043.5
13139	0.18372	0.27273	0.	-413.74
13140	0.18372	0.36364	5.e-002	1.1728e-004
13141	9.186e-002	0.36364	0.	-1567.
13142	0.18372	0.18182	5.e-002	7.6915e-005
13143	0.18372	9.0909e-002	0.	88.669
13144	9.186e-002	0.18182	0.	-573.45
13145	8.3414	5.8182	0.	-15.823
13146	8.2498	5.7273	0.	-15.376
13147	8.2498	5.8182	5.e-002	-1.1916e-014
13148	8.2498	5.9091	0.	-13.152
13149	8.1582	5.8182	0.	0.11843
13150	8.5245	5.8182	0.	-5.1097
13151	8.433	5.7273	0.	-6.3626
13152	8.433	5.8182	5.e-002	-1.0527e-014
13153	8.433	5.9091	0.	-0.86661
13154	8.7077	5.8182	0.	-2.1379
13155	8.6161	5.7273	0.	-3.677
13156	8.6161	5.8182	5.e-002	1.2885e-006
13157	8.6161	5.9091	0.	-0.50007
13158	8.8908	5.8182	0.	-0.63401
13159	8.7992	5.7273	0.	-1.4457
13160	8.7992	5.8182	5.e-002	6.9774e-007
13161	8.7992	5.9091	0.	7.6426e-002
13162	9.0739	5.8182	0.	-0.11185
13163	8.9824	5.7273	0.	-0.67214
13164	8.9824	5.8182	5.e-002	1.4879e-006
13165	8.9824	5.9091	0.	4.1757e-002
13166	9.2571	5.8182	0.	8.305e-002
13167	9.1655	5.7273	0.	-0.30892
13168	9.1655	5.8182	5.e-002	1.7881e-006
13169	9.1655	5.9091	0.	4.1734e-002
13170	9.4402	5.8182	0.	0.12406
13171	9.3487	5.7273	0.	-0.16874
13172	9.3487	5.8182	5.e-002	1.7989e-006
13173	9.3487	5.9091	0.	1.8621e-002
13174	9.6234	5.8182	0.	0.1125
13175	9.5318	5.7273	0.	-0.1078
13176	9.5318	5.8182	5.e-002	1.4282e-006
13177	9.5318	5.9091	0.	9.0961e-003
13178	9.8065	5.8182	0.	8.5992e-002
13179	9.7149	5.7273	0.	-8.1098e-002
13180	9.7149	5.8182	5.e-002	1.4745e-006
13181	9.7149	5.9091	0.	6.5798e-003
13182	9.9897	5.8182	0.	6.0573e-002
13183	9.8981	5.7273	0.	-6.6509e-002
13184	9.8981	5.8182	5.e-002	1.6412e-006
13185	9.8981	5.9091	0.	1.0288e-002
13186	10.173	5.8182	0.	4.0763e-002
13187	10.081	5.7273	0.	-5.6479e-002
13188	10.081	5.8182	5.e-002	2.2058e-006
13189	10.081	5.9091	0.	1.7391e-002
13190	10.356	5.8182	0.	2.672e-002
13191	10.264	5.7273	0.	-4.8279e-002
13192	10.264	5.8182	5.e-002	2.2518e-006
13193	10.264	5.9091	0.	2.6136e-002
13194	10.539	5.8182	0.	1.6924e-002
13195	10.448	5.7273	0.	-4.1493e-002
13196	10.448	5.8182	5.e-002	1.3588e-006
13197	10.448	5.9091	0.	3.5114e-002
13198	10.722	5.8182	0.	9.537e-003
13199	10.631	5.7273	0.	-3.6501e-002
13200	10.631	5.8182	5.e-002	1.5144e-006
13201	10.631	5.9091	0.	4.3335e-002
13202	10.905	5.8182	0.	2.8458e-003
13203	10.814	5.7273	0.	-3.4053e-002
13204	10.814	5.8182	5.e-002	1.5894e-006
13205	10.814	5.9091	0.	5.0051e-002
13206	11.089	5.8182	0.	-4.6257e-003
13207	10.997	5.7273	0.	-3.5361e-002
13208	10.997	5.8182	5.e-002	2.8535e-006
13209	10.997	5.9091	0.	5.4601e-002
13210	11.272	5.8182	0.	-1.4049e-002
13211	11.18	5.7273	0.	-4.2741e-002
13212	11.18	5.8182	5.e-002	2.8182e-006
13213	11.18	5.9091	0.	5.6312e-002
13214	11.455	5.8182	0.	-2.6117e-002
13215	11.363	5.7273	0.	-6.1644e-002
13216	11.363	5.8182	5.e-002	1.0667e-005
13217	11.363	5.9091	0.	5.4581e-002
13218	11.638	5.8182	0.	-4.0663e-002
13219	11.546	5.7273	0.	-0.10882
13220	11.546	5.8182	5.e-002	6.1158e-005
13221	11.546	5.9091	0.	4.9055e-002
13222	11.821	5.8182	0.	-5.5994e-002
13223	11.73	5.7273	0.	-0.24932
13224	11.73	5.8182	5.e-002	-7.0759e-007
13225	11.73	5.9091	0.	3.9964e-002
13226	12.004	5.8182	0.	-6.8776e-002
13227	11.913	5.7273	0.	-0.60671
13228	11.913	5.8182	5.e-002	3.4148e-005
13229	11.913	5.9091	0.	2.8652e-002
13230	12.187	5.8182	0.	-7.5583e-002
13231	12.096	5.7273	0.	-0.96688
13232	12.096	5.8182	5.e-002	9.5738e-006
13233	12.096	5.9091	0.	1.7236e-002
13234	12.37	5.8182	0.	-7.5187e-002
13235	12.279	5.7273	0.	-1.114
13236	12.279	5.8182	5.e-002	8.0295e-006
13237	12.279	5.9091	0.	7.6568e-003
13238	12.554	5.8182	0.	-6.9137e-002
13239	12.462	5.7273	0.	-1.0427
13240	12.462	5.8182	5.e-002	7.4589e-006
13241	12.462	5.9091	0.	8.8957e-004
13242	12.737	5.8182	0.	-6.0201e-002
13243	12.645	5.7273	0.	-0.79752
13244	12.645	5.8182	5.e-002	-3.2885e-007
13245	12.645	5.9091	0.	-3.1089e-003
13246	12.92	5.8182	0.	-5.0728e-002
13247	12.828	5.7273	0.	-0.45512
13248	12.828	5.8182	5.e-002	6.6773e-006
13249	12.828	5.9091	0.	-4.9489e-003
13250	13.103	5.8182	0.	-4.2045e-002
13251	13.011	5.7273	0.	-0.17963
13252	13.011	5.8182	5.e-002	7.5243e-006
13253	13.011	5.9091	0.	-5.431e-003
13254	13.286	5.8182	0.	-3.462e-002
13255	13.195	5.7273	0.	-7.0457e-002
13256	13.195	5.8182	5.e-002	1.1835e-006
13257	13.195	5.9091	0.	-5.136e-003
13258	13.469	5.8182	0.	-2.8496e-002
13259	13.378	5.7273	0.	-3.2544e-002
13260	13.378	5.8182	5.e-002	7.7358e-006
13261	13.378	5.9091	0.	-4.4621e-003
13262	13.652	5.8182	0.	-2.3529e-002
13263	13.561	5.7273	0.	-1.6267e-002
13264	13.561	5.8182	5.e-002	1.7803e-005
13265	13.561	5.9091	0.	-3.68e-003
13266	13.836	5.8182	0.	-1.9521e-002
13267	13.744	5.7273	0.	-8.1369e-003
13268	13.744	5.8182	5.e-002	2.8351e-006
13269	13.744	5.9091	0.	-2.9134e-003
13270	14.019	5.8182	0.	-1.6306e-002
13271	13.927	5.7273	0.	-3.7533e-003
13272	13.927	5.8182	5.e-002	1.2506e-006
13273	13.927	5.9091	0.	-2.2485e-003
13274	14.202	5.8182	0.	-1.3705e-002
13275	14.11	5.7273	0.	-1.3483e-003
13276	14.11	5.8182	5.e-002	7.8518e-006
13277	14.11	5.9091	0.	-1.7321e-003
13278	14.385	5.8182	0.	-1.1574e-002
13279	14.293	5.7273	0.	-2.6924e-005
13280	14.293	5.8182	5.e-002	7.5528e-006
13281	14.293	5.9091	0.	-1.3175e-003
13282	14.568	5.8182	0.	-9.8271e-003
13283	14.477	5.7273	0.	6.3232e-004
13284	14.477	5.8182	5.e-002	3.5746e-006
13285	14.477	5.9091	0.	-1.018e-003
13286	14.751	5.8182	0.	-8.387e-003
13287	14.66	5.7273	0.	8.6189e-004
13288	14.66	5.8182	5.e-002	1.0763e-005
13289	14.66	5.9091	0.	-8.3345e-004
13290	14.934	5.8182	0.	-7.1824e-003
13291	14.843	5.7273	0.	8.2434e-004
13292	14.843	5.8182	5.e-002	9.6977e-006
13293	14.843	5.9091	0.	-7.3714e-004
13294	15.118	5.8182	0.	-6.1678e-003
13295	15.026	5.7273	0.	6.2141e-004
13296	15.026	5.8182	5.e-002	4.4409e-006
13297	15.026	5.9091	0.	-7.0967e-004
13298	15.301	5.8182	0.	-5.3189e-003
13299	15.209	5.7273	0.	3.001e-004
13300	15.209	5.8182	5.e-002	7.9739e-006
13301	15.209	5.9091	0.	-7.4727e-004
13302	15.484	5.8182	0.	-4.5938e-003
13303	15.392	5.7273	0.	-1.1645e-004
13304	15.392	5.8182	5.e-002	7.5832e-006
13305	15.392	5.9091	0.	-8.5576e-004
13306	15.667	5.8182	0.	-3.9568e-003
13307	15.575	5.7273	0.	-5.5861e-004
13308	15.575	5.8182	5.e-002	6.9983e-006
13309	15.575	5.9091	0.	-9.8201e-004
13310	15.85	5.8182	0.	-3.4044e-003
13311	15.759	5.7273	0.	-1.0241e-003
13312	15.759	5.8182	5.e-002	7.156e-006
13313	15.759	5.9091	0.	-1.1362e-003
13314	16.033	5.8182	0.	-2.9246e-003
13315	15.942	5.7273	0.	-1.5175e-003
13316	15.942	5.8182	5.e-002	6.864e-006
13317	15.942	5.9091	0.	-1.3226e-003
13318	16.216	5.8182	0.	-2.4996e-003
13319	16.125	5.7273	0.	-2.0187e-003
13320	16.125	5.8182	5.e-002	5.3567e-006
13321	16.125	5.9091	0.	-1.5261e-003
13322	16.4	5.8182	0.	-2.1259e-003
13323	16.308	5.7273	0.	-2.5222e-003
13324	16.308	5.8182	5.e-002	4.5306e-006
13325	16.308	5.9091	0.	-1.743e-003
13326	16.583	5.8182	0.	-1.7943e-003
13327	16.491	5.7273	0.	-3.0375e-003
13328	16.491	5.8182	5.e-002	3.2985e-006
13329	16.491	5.9091	0.	-1.9768e-003
13330	16.766	5.8182	0.	-1.4862e-003
13331	16.674	5.7273	0.	-3.5483e-003
13332	16.674	5.8182	5.e-002	4.7386e-006
13333	16.674	5.9091	0.	-2.215e-003
13334	16.949	5.8182	0.	-1.2081e-003
13335	16.857	5.7273	0.	-4.0427e-003
13336	16.857	5.8182	5.e-002	7.1988e-006
13337	16.857	5.9091	0.	-2.4414e-003
13338	17.132	5.8182	0.	-9.6796e-004
13339	17.041	5.7273	0.	-4.5584e-003
13340	17.041	5.8182	5.e-002	1.4502e-005
13341	17.041	5.9091	0.	-2.6895e-003
13342	17.315	5.8182	0.	-7.4938e-004
13343	17.224	5.7273	0.	-5.0802e-003
13344	17.224	5.8182	5.e-002	2.3215e-005
13345	17.224	5.9091	0.	-2.9447e-003
13346	17.498	5.8182	0.	-5.4842e-004
13347	17.407	5.7273	0.	-5.6017e-003
13348	17.407	5.8182	5.e-002	2.8437e-005
13349	17.407	5.9091	0.	-3.1943e-003
13350	17.682	5.8182	0.	-3.7237e-004
13351	17.59	5.7273	0.	-6.1337e-003
13352	17.59	5.8182	5.e-002	3.3955e-005
13353	17.59	5.9091	0.	-3.447e-003
13354	17.865	5.8182	0.	-2.1709e-004
13355	17.773	5.7273	0.	-6.6844e-003
13356	17.773	5.8182	5.e-002	2.7111e-005
13357	17.773	5.9091	0.	-3.708e-003
13358	18.048	5.8182	0.	-7.3111e-005
13359	17.956	5.7273	0.	-7.2469e-003
13360	17.956	5.8182	5.e-002	2.906e-005
13361	17.956	5.9091	0.	-3.9679e-003
13362	18.231	5.8182	0.	5.0003e-005
13363	18.139	5.7273	0.	-7.8173e-003
13364	18.139	5.8182	5.e-002	3.1429e-005
13365	18.139	5.9091	0.	-4.2158e-003
13366	18.414	5.8182	0.	1.4213e-004
13367	18.323	5.7273	0.	-8.4265e-003
13368	18.323	5.8182	5.e-002	2.1552e-005
13369	18.323	5.9091	0.	-4.4803e-003
13370	18.597	5.8182	0.	2.1289e-004
13371	18.506	5.7273	0.	-9.0701e-003
13372	18.506	5.8182	5.e-002	3.1651e-005
13373	18.506	5.9091	0.	-4.7513e-003
13374	18.78	5.8182	0.	2.5891e-004
13375	18.689	5.7273	0.	-9.743e-003
13376	18.689	5.8182	5.e-002	1.9594e-005
13377	18.689	5.9091	0.	-5.0181e-003
13378	18.964	5.8182	0.	2.7668e-004
13379	18.872	5.7273	0.	-1.0463e-002
13380	18.872	5.8182	5.e-002	2.7632e-005
13381	18.872	5.9091	0.	-5.2924e-003
13382	19.147	5.8182	0.	2.6211e-004
13383	19.055	5.7273	0.	-1.1226e-002
13384	19.055	5.8182	5.e-002	1.7483e-005
13385	19.055	5.9091	0.	-5.5617e-003
13386	19.33	5.8182	0.	2.0006e-004
13387	19.238	5.7273	0.	-1.2049e-002
13388	19.238	5.8182	5.e-002	2.7223e-005
13389	19.238	5.9091	0.	-5.8372e-003
13390	19.513	5.8182	0.	9.1688e-005
13391	19.421	5.7273	0.	-1.2951e-002
13392	19.421	5.8182	5.e-002	2.5144e-005
13393	19.421	5.9091	0.	-6.1267e-003
13394	19.696	5.8182	0.	-6.4153e-005
13395	19.605	5.7273	0.	-1.3919e-002
13396	19.605	5.8182	5.e-002	2.0617e-005
13397	19.605	5.9091	0.	-6.4063e-003
13398	19.879	5.8182	0.	-2.8692e-004
13399	19.788	5.7273	0.	-1.497e-002
13400	19.788	5.8182	5.e-002	1.9306e-005
13401	19.788	5.9091	0.	-6.6834e-003
13402	20.062	5.8182	0.	-5.899e-004
13403	19.971	5.7273	0.	-1.6131e-002
13404	19.971	5.8182	5.e-002	1.1213e-005
13405	19.971	5.9091	0.	-6.9629e-003
13406	20.246	5.8182	0.	-9.8309e-004
13407	20.154	5.7273	0.	-1.7404e-002
13408	20.154	5.8182	5.e-002	1.9848e-005
13409	20.154	5.9091	0.	-7.2351e-003
13410	20.429	5.8182	0.	-1.4893e-003
13411	20.337	5.7273	0.	-1.8808e-002
13412	20.337	5.8182	5.e-002	1.378e-005
13413	20.337	5.9091	0.	-7.496e-003
13414	20.612	5.8182	0.	-2.1356e-003
13415	20.52	5.7273	0.	-2.0366e-002
13416	20.52	5.8182	5.e-002	1.857e-005
13417	20.52	5.9091	0.	-7.7434e-003
13418	20.795	5.8182	0.	-2.9438e-003
13419	20.703	5.7273	0.	-2.2108e-002
13420	20.703	5.8182	5.e-002	1.8991e-005
13421	20.703	5.9091	0.	-7.9714e-003
13422	20.978	5.8182	0.	-3.9462e-003
13423	20.887	5.7273	0.	-2.4044e-002
13424	20.887	5.8182	5.e-002	1.6756e-005
13425	20.887	5.9091	0.	-8.1594e-003
13426	21.161	5.8182	0.	-5.1919e-003
13427	21.07	5.7273	0.	-2.6211e-002
13428	21.07	5.8182	5.e-002	1.1121e-005
13429	21.07	5.9091	0.	-8.2952e-003
13430	21.344	5.8182	0.	-6.7362e-003
13431	21.253	5.7273	0.	-2.8653e-002
13432	21.253	5.8182	5.e-002	1.209e-005
13433	21.253	5.9091	0.	-8.3651e-003
13434	21.528	5.8182	0.	-8.6442e-003
13435	21.436	5.7273	0.	-3.141e-002
13436	21.436	5.8182	5.e-002	1.0572e-005
13437	21.436	5.9091	0.	-8.3363e-003
13438	21.711	5.8182	0.	-1.1009e-002
13439	21.619	5.7273	0.	-3.4533e-002
13440	21.619	5.8182	5.e-002	5.2186e-006
13441	21.619	5.9091	0.	-8.1706e-003
13442	21.894	5.8182	0.	-1.3945e-002
13443	21.802	5.7273	0.	-3.809e-002
13444	21.802	5.8182	5.e-002	4.2599e-006
13445	21.802	5.9091	0.	-7.8171e-003
13446	22.077	5.8182	0.	-1.7601e-002
13447	21.985	5.7273	0.	-4.2157e-002
13448	21.985	5.8182	5.e-002	6.6603e-006
13449	21.985	5.9091	0.	-7.1938e-003
13450	22.26	5.8182	0.	-2.2184e-002
13451	22.169	5.7273	0.	-4.6817e-002
13452	22.169	5.8182	5.e-002	9.0029e-006
13453	22.169	5.9091	0.	-6.1829e-003
13454	22.443	5.8182	0.	-2.7967e-002
13455	22.352	5.7273	0.	-5.2197e-002
13456	22.352	5.8182	5.e-002	9.8395e-006
13457	22.352	5.9091	0.	-4.6268e-003
13458	22.626	5.8182	0.	-3.5371e-002
13459	22.535	5.7273	0.	-5.8389e-002
13460	22.535	5.8182	5.e-002	1.0098e-005
13461	22.535	5.9091	0.	-2.2307e-003
13462	22.81	5.8182	0.	-4.4801e-002
13463	22.718	5.7273	0.	-6.5632e-002
13464	22.718	5.8182	5.e-002	7.9702e-006
13465	22.718	5.9091	0.	1.3571e-003
13466	22.993	5.8182	0.	-5.7626e-002
13467	22.901	5.7273	0.	-7.3577e-002
13468	22.901	5.8182	5.e-002	6.4099e-006
13469	22.901	5.9091	0.	7.2404e-003
13470	23.176	5.8182	0.	-7.2898e-002
13471	23.084	5.7273	0.	-8.3936e-002
13472	23.084	5.8182	5.e-002	1.1168e-005
13473	23.084	5.9091	0.	1.5463e-002
13474	23.359	5.8182	0.	-0.10042
13475	23.267	5.7273	0.	-8.9471e-002
13476	23.267	5.8182	5.e-002	9.2793e-006
13477	23.267	5.9091	0.	3.4208e-002
13478	23.542	5.8182	0.	-0.11539
13479	23.451	5.7273	0.	-0.11414
13480	23.451	5.8182	5.e-002	6.8103e-006
13481	23.451	5.9091	0.	4.817e-002
13482	23.725	5.8182	0.	-0.30833
13483	23.634	5.7273	0.	-5.4321e-002
13484	23.634	5.8182	5.e-002	7.7715e-006
13485	23.634	5.9091	0.	0.14262
13486	23.817	5.7273	0.	-0.38003
13487	23.817	5.8182	5.e-002	1.4791e-005
13488	23.908	5.8182	0.	-2.6629e-002
13489	23.817	5.9091	0.	-7.0144e-002
13490	8.3414	5.6364	0.	-8.972
13491	8.2498	5.5455	0.	-9.0187
13492	8.2498	5.6364	5.e-002	1.0073e-006
13493	8.1582	5.6364	0.	3.0618
13494	8.5245	5.6364	0.	-4.4685
13495	8.433	5.5455	0.	-3.6121
13496	8.433	5.6364	5.e-002	-3.758e-006
13497	8.7077	5.6364	0.	-2.6222
13498	8.6161	5.5455	0.	-3.3694
13499	8.6161	5.6364	5.e-002	1.8323e-006
13500	8.8908	5.6364	0.	-1.3146
13501	8.7992	5.5455	0.	-1.8408
13502	8.7992	5.6364	5.e-002	3.1262e-006
13503	9.0739	5.6364	0.	-0.79399
13504	8.9824	5.5455	0.	-1.176
13505	8.9824	5.6364	5.e-002	2.68e-006
13506	9.2571	5.6364	0.	-0.52979
13507	9.1655	5.5455	0.	-0.76159
13508	9.1655	5.6364	5.e-002	3.9533e-006
13509	9.4402	5.6364	0.	-0.39323
13510	9.3487	5.5455	0.	-0.53792
13511	9.3487	5.6364	5.e-002	3.5155e-006
13512	9.6234	5.6364	0.	-0.30742
13513	9.5318	5.5455	0.	-0.39677
13514	9.5318	5.6364	5.e-002	2.8131e-006
13515	9.8065	5.6364	0.	-0.2469
13516	9.7149	5.5455	0.	-0.30426
13517	9.7149	5.6364	5.e-002	4.3973e-006
13518	9.9897	5.6364	0.	-0.20009
13519	9.8981	5.5455	0.	-0.23972
13520	9.8981	5.6364	5.e-002	5.4645e-006
13521	10.173	5.6364	0.	-0.16264
13522	10.081	5.5455	0.	-0.19395
13523	10.081	5.6364	5.e-002	3.4987e-006
13524	10.356	5.6364	0.	-0.13266
13525	10.264	5.5455	0.	-0.16186
13526	10.264	5.6364	5.e-002	7.8339e-006
13527	10.539	5.6364	0.	-0.10956
13528	10.448	5.5455	0.	-0.14126
13529	10.448	5.6364	5.e-002	8.4771e-006
13530	10.722	5.6364	0.	-9.35e-002
13531	10.631	5.5455	0.	-0.13233
13532	10.631	5.6364	5.e-002	4.1751e-006
13533	10.905	5.6364	0.	-8.5886e-002
13534	10.814	5.5455	0.	-0.13967
13535	10.814	5.6364	5.e-002	-6.3538e-006
13536	11.089	5.6364	0.	-9.1742e-002
13537	10.997	5.5455	0.	-0.18402
13538	10.997	5.6364	5.e-002	3.2808e-006
13539	11.272	5.6364	0.	-0.13281
13540	11.18	5.5455	0.	-0.41921
13541	11.18	5.6364	5.e-002	-2.263e-007
13542	11.455	5.6364	0.	-0.40142
13543	11.363	5.5455	0.	-2.1483
13544	11.363	5.6364	5.e-002	5.0722e-007
13545	11.638	5.6364	0.	-1.7395
13546	11.546	5.5455	0.	-4.5272
13547	11.546	5.6364	5.e-002	1.0841e-006
13548	11.821	5.6364	0.	-3.083
13549	11.73	5.5455	0.	-6.3021
13550	11.73	5.6364	5.e-002	2.4749e-006
13551	12.004	5.6364	0.	-3.9718
13552	11.913	5.5455	0.	-7.4757
13553	11.913	5.6364	5.e-002	3.1281e-006
13554	12.187	5.6364	0.	-4.4483
13555	12.096	5.5455	0.	-8.1361
13556	12.096	5.6364	5.e-002	1.6472e-006
13557	12.37	5.6364	0.	-4.5817
13558	12.279	5.5455	0.	-8.372
13559	12.279	5.6364	5.e-002	2.5938e-006
13560	12.554	5.6364	0.	-4.4371
13561	12.462	5.5455	0.	-8.2639
13562	12.462	5.6364	5.e-002	4.9584e-006
13563	12.737	5.6364	0.	-4.0712
13564	12.645	5.5455	0.	-7.8815
13565	12.645	5.6364	5.e-002	3.5768e-006
13566	12.92	5.6364	0.	-3.5326
13567	12.828	5.5455	0.	-7.2845
13568	12.828	5.6364	5.e-002	3.7315e-006
13569	13.103	5.6364	0.	-2.8625
13570	13.011	5.5455	0.	-6.5236
13571	13.011	5.6364	5.e-002	4.1283e-006
13572	13.286	5.6364	0.	-2.0949
13573	13.195	5.5455	0.	-5.6406
13574	13.195	5.6364	5.e-002	3.0662e-006
13575	13.469	5.6364	0.	-1.2589
13576	13.378	5.5455	0.	-4.6703
13577	13.378	5.6364	5.e-002	3.9849e-006
13578	13.652	5.6364	0.	-0.38686
13579	13.561	5.5455	0.	-3.6409
13580	13.561	5.6364	5.e-002	4.642e-006
13581	13.836	5.6364	0.	6.3103e-003
13582	13.744	5.5455	0.	-2.5752
13583	13.744	5.6364	5.e-002	4.0849e-006
13584	14.019	5.6364	0.	1.3668e-002
13585	13.927	5.5455	0.	-1.4911
13586	13.927	5.6364	5.e-002	4.2342e-006
13587	14.202	5.6364	0.	1.366e-002
13588	14.11	5.5455	0.	-0.40298
13589	14.11	5.6364	5.e-002	4.4194e-006
13590	14.385	5.6364	0.	1.2526e-002
13591	14.293	5.5455	0.	9.5146e-003
13592	14.293	5.6364	5.e-002	5.5547e-006
13593	14.568	5.6364	0.	1.106e-002
13594	14.477	5.5455	0.	8.1503e-003
13595	14.477	5.6364	5.e-002	6.0111e-006
13596	14.751	5.6364	0.	9.4885e-003
13597	14.66	5.5455	0.	6.8179e-003
13598	14.66	5.6364	5.e-002	5.869e-006
13599	14.934	5.6364	0.	7.9103e-003
13600	14.843	5.5455	0.	5.5676e-003
13601	14.843	5.6364	5.e-002	5.3137e-006
13602	15.118	5.6364	0.	6.3612e-003
13603	15.026	5.5455	0.	4.3995e-003
13604	15.026	5.6364	5.e-002	5.8563e-006
13605	15.301	5.6364	0.	4.8423e-003
13606	15.209	5.5455	0.	3.2945e-003
13607	15.209	5.6364	5.e-002	5.3716e-006
13608	15.484	5.6364	0.	3.3755e-003
13609	15.392	5.5455	0.	2.2285e-003
13610	15.392	5.6364	5.e-002	5.5409e-006
13611	15.667	5.6364	0.	1.9777e-003
13612	15.575	5.5455	0.	1.2414e-003
13613	15.575	5.6364	5.e-002	5.2654e-006
13614	15.85	5.6364	0.	6.3075e-004
13615	15.759	5.5455	0.	3.1118e-004
13616	15.759	5.6364	5.e-002	6.4888e-006
13617	16.033	5.6364	0.	-6.6954e-004
13618	15.942	5.5455	0.	-5.8342e-004
13619	15.942	5.6364	5.e-002	7.5255e-006
13620	16.216	5.6364	0.	-1.9201e-003
13621	16.125	5.5455	0.	-1.4348e-003
13622	16.125	5.6364	5.e-002	6.3487e-006
13623	16.4	5.6364	0.	-3.1316e-003
13624	16.308	5.5455	0.	-2.2477e-003
13625	16.308	5.6364	5.e-002	6.5267e-006
13626	16.583	5.6364	0.	-4.3083e-003
13627	16.491	5.5455	0.	-3.0378e-003
13628	16.491	5.6364	5.e-002	4.4866e-006
13629	16.766	5.6364	0.	-5.4411e-003
13630	16.674	5.5455	0.	-3.7961e-003
13631	16.674	5.6364	5.e-002	4.3853e-006
13632	16.949	5.6364	0.	-6.5495e-003
13633	16.857	5.5455	0.	-4.5136e-003
13634	16.857	5.6364	5.e-002	6.1919e-006
13635	17.132	5.6364	0.	-7.6481e-003
13636	17.041	5.5455	0.	-5.2335e-003
13637	17.041	5.6364	5.e-002	6.9799e-006
13638	17.315	5.6364	0.	-8.731e-003
13639	17.224	5.5455	0.	-5.94e-003
13640	17.224	5.6364	5.e-002	6.7651e-006
13641	17.498	5.6364	0.	-9.8056e-003
13642	17.407	5.5455	0.	-6.6335e-003
13643	17.407	5.6364	5.e-002	8.074e-006
13644	17.682	5.6364	0.	-1.0883e-002
13645	17.59	5.5455	0.	-7.3209e-003
13646	17.59	5.6364	5.e-002	8.0476e-006
13647	17.865	5.6364	0.	-1.1967e-002
13648	17.773	5.5455	0.	-8.0154e-003
13649	17.773	5.6364	5.e-002	7.5165e-006
13650	18.048	5.6364	0.	-1.3056e-002
13651	17.956	5.5455	0.	-8.7085e-003
13652	17.956	5.6364	5.e-002	9.0572e-006
13653	18.231	5.6364	0.	-1.4165e-002
13654	18.139	5.5455	0.	-9.3968e-003
13655	18.139	5.6364	5.e-002	7.6345e-006
13656	18.414	5.6364	0.	-1.531e-002
13657	18.323	5.5455	0.	-1.0112e-002
13658	18.323	5.6364	5.e-002	8.5615e-006
13659	18.597	5.6364	0.	-1.6489e-002
13660	18.506	5.5455	0.	-1.0848e-002
13661	18.506	5.6364	5.e-002	7.7131e-006
13662	18.78	5.6364	0.	-1.7711e-002
13663	18.689	5.5455	0.	-1.1598e-002
13664	18.689	5.6364	5.e-002	7.5646e-006
13665	18.964	5.6364	0.	-1.8983e-002
13666	18.872	5.5455	0.	-1.238e-002
13667	18.872	5.6364	5.e-002	6.0839e-006
13668	19.147	5.6364	0.	-2.0313e-002
13669	19.055	5.5455	0.	-1.3186e-002
13670	19.055	5.6364	5.e-002	7.052e-006
13671	19.33	5.6364	0.	-2.1719e-002
13672	19.238	5.5455	0.	-1.4031e-002
13673	19.238	5.6364	5.e-002	7.4516e-006
13674	19.513	5.6364	0.	-2.3206e-002
13675	19.421	5.5455	0.	-1.493e-002
13676	19.421	5.6364	5.e-002	6.7841e-006
13677	19.696	5.6364	0.	-2.4775e-002
13678	19.605	5.5455	0.	-1.5865e-002
13679	19.605	5.6364	5.e-002	8.3752e-006
13680	19.879	5.6364	0.	-2.6448e-002
13681	19.788	5.5455	0.	-1.6848e-002
13682	19.788	5.6364	5.e-002	7.1163e-006
13683	20.062	5.6364	0.	-2.8238e-002
13684	19.971	5.5455	0.	-1.7897e-002
13685	19.971	5.6364	5.e-002	7.0195e-006
13686	20.246	5.6364	0.	-3.0153e-002
13687	20.154	5.5455	0.	-1.9007e-002
13688	20.154	5.6364	5.e-002	9.0878e-006
13689	20.429	5.6364	0.	-3.2208e-002
13690	20.337	5.5455	0.	-2.0185e-002
13691	20.337	5.6364	5.e-002	7.8771e-006
13692	20.612	5.6364	0.	-3.4426e-002
13693	20.52	5.5455	0.	-2.1437e-002
13694	20.52	5.6364	5.e-002	1.0843e-005
13695	20.795	5.6364	0.	-3.6821e-002
13696	20.703	5.5455	0.	-2.2779e-002
13697	20.703	5.6364	5.e-002	9.7341e-006
13698	20.978	5.6364	0.	-3.9402e-002
13699	20.887	5.5455	0.	-2.4197e-002
13700	20.887	5.6364	5.e-002	8.9316e-006
13701	21.161	5.6364	0.	-4.2197e-002
13702	21.07	5.5455	0.	-2.57e-002
13703	21.07	5.6364	5.e-002	9.6659e-006
13704	21.344	5.6364	0.	-4.5229e-002
13705	21.253	5.5455	0.	-2.7294e-002
13706	21.253	5.6364	5.e-002	8.7665e-006
13707	21.528	5.6364	0.	-4.8517e-002
13708	21.436	5.5455	0.	-2.8971e-002
13709	21.436	5.6364	5.e-002	7.0565e-006
13710	21.711	5.6364	0.	-5.2083e-002
13711	21.619	5.5455	0.	-3.0724e-002
13712	21.619	5.6364	5.e-002	5.2661e-006
13713	21.894	5.6364	0.	-5.5949e-002
13714	21.802	5.5455	0.	-3.2535e-002
13715	21.802	5.6364	5.e-002	4.8098e-006
13716	22.077	5.6364	0.	-6.0124e-002
13717	21.985	5.5455	0.	-3.437e-002
13718	21.985	5.6364	5.e-002	5.47e-006
13719	22.26	5.6364	0.	-6.4611e-002
13720	22.169	5.5455	0.	-3.6156e-002
13721	22.169	5.6364	5.e-002	4.6054e-006
13722	22.443	5.6364	0.	-6.9371e-002
13723	22.352	5.5455	0.	-3.7807e-002
13724	22.352	5.6364	5.e-002	1.0635e-005
13725	22.626	5.6364	0.	-7.4354e-002
13726	22.535	5.5455	0.	-3.9095e-002
13727	22.535	5.6364	5.e-002	1.0177e-005
13728	22.81	5.6364	0.	-7.9139e-002
13729	22.718	5.5455	0.	-3.9821e-002
13730	22.718	5.6364	5.e-002	8.7097e-006
13731	22.993	5.6364	0.	-8.3954e-002
13732	22.901	5.5455	0.	-3.8845e-002
13733	22.901	5.6364	5.e-002	8.0201e-006
13734	23.176	5.6364	0.	-8.4801e-002
13735	23.084	5.5455	0.	-3.7111e-002
13736	23.084	5.6364	5.e-002	1.261e-005
13737	23.359	5.6364	0.	-9.0127e-002
13738	23.267	5.5455	0.	-2.3895e-002
13739	23.267	5.6364	5.e-002	1.2925e-005
13740	23.542	5.6364	0.	-5.0004e-002
13741	23.451	5.5455	0.	-2.7235e-002
13742	23.451	5.6364	5.e-002	1.0241e-005
13743	23.725	5.6364	0.	-0.15973
13744	23.634	5.5455	0.	9.9174e-002
13745	23.634	5.6364	5.e-002	1.3105e-005
13746	23.817	5.5455	0.	-0.14688
13747	23.817	5.6364	5.e-002	1.831e-005
13748	23.908	5.6364	0.	0.17151
13749	8.3414	5.4545	0.	-6.0146
13750	8.2498	5.3636	0.	-7.5921
13751	8.2498	5.4545	5.e-002	1.202e-006
13752	8.1582	5.4545	0.	1.9634
13753	8.5245	5.4545	0.	-3.1368
13754	8.433	5.3636	0.	-2.0838
13755	8.433	5.4545	5.e-002	1.7835e-006
13756	8.7077	5.4545	0.	-2.5866
13757	8.6161	5.3636	0.	-2.9389
13758	8.6161	5.4545	5.e-002	4.1254e-006
13759	8.8908	5.4545	0.	-1.6344
13760	8.7992	5.3636	0.	-1.9822
13761	8.7992	5.4545	5.e-002	1.808e-006
13762	9.0739	5.4545	0.	-1.1089
13763	8.9824	5.3636	0.	-1.5037
13764	8.9824	5.4545	5.e-002	2.6977e-006
13765	9.2571	5.4545	0.	-0.76253
13766	9.1655	5.3636	0.	-1.0928
13767	9.1655	5.4545	5.e-002	6.1118e-006
13768	9.4402	5.4545	0.	-0.54959
13769	9.3487	5.3636	0.	-0.82361
13770	9.3487	5.4545	5.e-002	3.518e-006
13771	9.6234	5.4545	0.	-0.4095
13772	9.5318	5.3636	0.	-0.63392
13773	9.5318	5.4545	5.e-002	7.5198e-006
13774	9.8065	5.4545	0.	-0.31672
13775	9.7149	5.3636	0.	-0.50443
13776	9.7149	5.4545	5.e-002	5.0319e-006
13777	9.9897	5.4545	0.	-0.25508
13778	9.8981	5.3636	0.	-0.41696
13779	9.8981	5.4545	5.e-002	6.7197e-006
13780	10.173	5.4545	0.	-0.21598
13781	10.081	5.3636	0.	-0.36234
13782	10.081	5.4545	5.e-002	7.5236e-006
13783	10.356	5.4545	0.	-0.19515
13784	10.264	5.3636	0.	-0.337
13785	10.264	5.4545	5.e-002	8.6263e-006
13786	10.539	5.4545	0.	-0.19293
13787	10.448	5.3636	0.	-0.34657
13788	10.448	5.4545	5.e-002	3.1421e-005
13789	10.722	5.4545	0.	-0.21861
13790	10.631	5.3636	0.	-0.42289
13791	10.631	5.4545	5.e-002	-2.0605e-006
13792	10.905	5.4545	0.	-0.31863
13793	10.814	5.3636	0.	-0.75713
13794	10.814	5.4545	5.e-002	2.9473e-005
13795	11.089	5.4545	0.	-0.91171
13796	10.997	5.3636	0.	-2.9666
13797	10.997	5.4545	5.e-002	2.1816e-005
13798	11.272	5.4545	0.	-3.7847
13799	11.18	5.3636	0.	-7.1366
13800	11.18	5.4545	5.e-002	8.253e-007
13801	11.455	5.4545	0.	-6.8429
13802	11.363	5.3636	0.	-10.632
13803	11.363	5.4545	5.e-002	4.0526e-007
13804	11.638	5.4545	0.	-9.1322
13805	11.546	5.3636	0.	-13.209
13806	11.546	5.4545	5.e-002	2.132e-007
13807	11.821	5.4545	0.	-10.692
13808	11.73	5.3636	0.	-14.96
13809	11.73	5.4545	5.e-002	1.198e-006
13810	12.004	5.4545	0.	-11.628
13811	11.913	5.3636	0.	-16.005
13812	11.913	5.4545	5.e-002	1.1562e-006
13813	12.187	5.4545	0.	-12.045
13814	12.096	5.3636	0.	-16.462
13815	12.096	5.4545	5.e-002	-3.1815e-007
13816	12.37	5.4545	0.	-12.038
13817	12.279	5.3636	0.	-16.439
13818	12.279	5.4545	5.e-002	1.9462e-006
13819	12.554	5.4545	0.	-11.691
13820	12.462	5.3636	0.	-16.03
13821	12.462	5.4545	5.e-002	2.0469e-006
13822	12.737	5.4545	0.	-11.078
13823	12.645	5.3636	0.	-15.317
13824	12.645	5.4545	5.e-002	1.1075e-006
13825	12.92	5.4545	0.	-10.258
13826	12.828	5.3636	0.	-14.371
13827	12.828	5.4545	5.e-002	2.5561e-006
13828	13.103	5.4545	0.	-9.2846
13829	13.011	5.3636	0.	-13.249
13830	13.011	5.4545	5.e-002	2.4636e-006
13831	13.286	5.4545	0.	-8.1996
13832	13.195	5.3636	0.	-12.001
13833	13.195	5.4545	5.e-002	1.3926e-006
13834	13.469	5.4545	0.	-7.038
13835	13.378	5.3636	0.	-10.667
13836	13.378	5.4545	5.e-002	1.9406e-006
13837	13.652	5.4545	0.	-5.8282
13838	13.561	5.3636	0.	-9.2787
13839	13.561	5.4545	5.e-002	2.4486e-006
13840	13.836	5.4545	0.	-4.5929
13841	13.744	5.3636	0.	-7.863
13842	13.744	5.4545	5.e-002	2.1107e-006
13843	14.019	5.4545	0.	-3.3497
13844	13.927	5.3636	0.	-6.4402
13845	13.927	5.4545	5.e-002	2.8682e-006
13846	14.202	5.4545	0.	-2.1126
13847	14.11	5.3636	0.	-5.0262
13848	14.11	5.4545	5.e-002	2.9478e-006
13849	14.385	5.4545	0.	-0.89278
13850	14.293	5.3636	0.	-3.6329
13851	14.293	5.4545	5.e-002	4.0275e-006
13852	14.568	5.4545	0.	-5.5574e-003
13853	14.477	5.3636	0.	-2.2695
13854	14.477	5.4545	5.e-002	3.6503e-006
13855	14.751	5.4545	0.	7.6446e-004
13856	14.66	5.3636	0.	-0.94518
13857	14.66	5.4545	5.e-002	3.5065e-006
13858	14.934	5.4545	0.	9.2445e-004
13859	14.843	5.3636	0.	-1.9832e-002
13860	14.843	5.4545	5.e-002	3.3425e-006
13861	15.118	5.4545	0.	6.3429e-004
13862	15.026	5.3636	0.	-3.1555e-003
13863	15.026	5.4545	5.e-002	4.705e-006
13864	15.301	5.4545	0.	2.2957e-004
13865	15.209	5.3636	0.	-1.4561e-003
13866	15.209	5.4545	5.e-002	4.1239e-006
13867	15.484	5.4545	0.	-1.9754e-004
13868	15.392	5.3636	0.	-1.1024e-003
13869	15.392	5.4545	5.e-002	4.0562e-006
13870	15.667	5.4545	0.	-6.0756e-004
13871	15.575	5.3636	0.	-1.0987e-003
13872	15.575	5.4545	5.e-002	3.1333e-006
13873	15.85	5.4545	0.	-1.0068e-003
13874	15.759	5.3636	0.	-1.2337e-003
13875	15.759	5.4545	5.e-002	4.8177e-006
13876	16.033	5.4545	0.	-1.3945e-003
13877	15.942	5.3636	0.	-1.4398e-003
13878	15.942	5.4545	5.e-002	5.2338e-006
13879	16.216	5.4545	0.	-1.7643e-003
13880	16.125	5.3636	0.	-1.6733e-003
13881	16.125	5.4545	5.e-002	4.e-006
13882	16.4	5.4545	0.	-2.1221e-003
13883	16.308	5.3636	0.	-1.9171e-003
13884	16.308	5.4545	5.e-002	4.2078e-006
13885	16.583	5.4545	0.	-2.4675e-003
13886	16.491	5.3636	0.	-2.1719e-003
13887	16.491	5.4545	5.e-002	2.1136e-006
13888	16.766	5.4545	0.	-2.7899e-003
13889	16.674	5.3636	0.	-2.421e-003
13890	16.674	5.4545	5.e-002	2.7952e-006
13891	16.949	5.4545	0.	-3.1024e-003
13892	16.857	5.3636	0.	-2.6514e-003
13893	16.857	5.4545	5.e-002	4.0872e-006
13894	17.132	5.4545	0.	-3.4171e-003
13895	17.041	5.3636	0.	-2.8961e-003
13896	17.041	5.4545	5.e-002	4.717e-006
13897	17.315	5.4545	0.	-3.7238e-003
13898	17.224	5.3636	0.	-3.1394e-003
13899	17.224	5.4545	5.e-002	4.5829e-006
13900	17.498	5.4545	0.	-4.0216e-003
13901	17.407	5.3636	0.	-3.3738e-003
13902	17.407	5.4545	5.e-002	6.0123e-006
13903	17.682	5.4545	0.	-4.3197e-003
13904	17.59	5.3636	0.	-3.6048e-003
13905	17.59	5.4545	5.e-002	5.8931e-006
13906	17.865	5.4545	0.	-4.6179e-003
13907	17.773	5.3636	0.	-3.8403e-003
13908	17.773	5.4545	5.e-002	4.8765e-006
13909	18.048	5.4545	0.	-4.9067e-003
13910	17.956	5.3636	0.	-4.0707e-003
13911	17.956	5.4545	5.e-002	6.38e-006
13912	18.231	5.4545	0.	-5.198e-003
13913	18.139	5.3636	0.	-4.2873e-003
13914	18.139	5.4545	5.e-002	4.4944e-006
13915	18.414	5.4545	0.	-5.5024e-003
13916	18.323	5.3636	0.	-4.5179e-003
13917	18.323	5.4545	5.e-002	5.588e-006
13918	18.597	5.4545	0.	-5.8094e-003
13919	18.506	5.3636	0.	-4.7532e-003
13920	18.506	5.4545	5.e-002	5.4235e-006
13921	18.78	5.4545	0.	-6.1209e-003
13922	18.689	5.3636	0.	-4.9826e-003
13923	18.689	5.4545	5.e-002	5.8302e-006
13924	18.964	5.4545	0.	-6.4387e-003
13925	18.872	5.3636	0.	-5.2184e-003
13926	18.872	5.4545	5.e-002	4.3617e-006
13927	19.147	5.4545	0.	-6.7646e-003
13928	19.055	5.3636	0.	-5.4502e-003
13929	19.055	5.4545	5.e-002	4.7548e-006
13930	19.33	5.4545	0.	-7.1086e-003
13931	19.238	5.3636	0.	-5.6881e-003
13932	19.238	5.4545	5.e-002	4.6463e-006
13933	19.513	5.4545	0.	-7.4634e-003
13934	19.421	5.3636	0.	-5.938e-003
13935	19.421	5.4545	5.e-002	4.8061e-006
13936	19.696	5.4545	0.	-7.8219e-003
13937	19.605	5.3636	0.	-6.1806e-003
13938	19.605	5.4545	5.e-002	5.6016e-006
13939	19.879	5.4545	0.	-8.1941e-003
13940	19.788	5.3636	0.	-6.418e-003
13941	19.788	5.4545	5.e-002	5.3587e-006
13942	20.062	5.4545	0.	-8.5805e-003
13943	19.971	5.3636	0.	-6.6618e-003
13944	19.971	5.4545	5.e-002	3.311e-006
13945	20.246	5.4545	0.	-8.9747e-003
13946	20.154	5.3636	0.	-6.8982e-003
13947	20.154	5.4545	5.e-002	6.9761e-006
13948	20.429	5.4545	0.	-9.3763e-003
13949	20.337	5.3636	0.	-7.1254e-003
13950	20.337	5.4545	5.e-002	4.8845e-006
13951	20.612	5.4545	0.	-9.7863e-003
13952	20.52	5.3636	0.	-7.3373e-003
13953	20.52	5.4545	5.e-002	7.8372e-006
13954	20.795	5.4545	0.	-1.0194e-002
13955	20.703	5.3636	0.	-7.5348e-003
13956	20.703	5.4545	5.e-002	7.0145e-006
13957	20.978	5.4545	0.	-1.0587e-002
13958	20.887	5.3636	0.	-7.6879e-003
13959	20.887	5.4545	5.e-002	5.3799e-006
13960	21.161	5.4545	0.	-1.0956e-002
13961	21.07	5.3636	0.	-7.7904e-003
13962	21.07	5.4545	5.e-002	4.6966e-006
13963	21.344	5.4545	0.	-1.1281e-002
13964	21.253	5.3636	0.	-7.8208e-003
13965	21.253	5.4545	5.e-002	4.6449e-006
13966	21.528	5.4545	0.	-1.1532e-002
13967	21.436	5.3636	0.	-7.7445e-003
13968	21.436	5.4545	5.e-002	4.8791e-006
13969	21.711	5.4545	0.	-1.1668e-002
13970	21.619	5.3636	0.	-7.5154e-003
13971	21.619	5.4545	5.e-002	3.2875e-006
13972	21.894	5.4545	0.	-1.1627e-002
13973	21.802	5.3636	0.	-7.0734e-003
13974	21.802	5.4545	5.e-002	2.8593e-006
13975	22.077	5.4545	0.	-1.1308e-002
13976	21.985	5.3636	0.	-6.3247e-003
13977	21.985	5.4545	5.e-002	3.9748e-006
13978	22.26	5.4545	0.	-1.0571e-002
13979	22.169	5.3636	0.	-5.1276e-003
13980	22.169	5.4545	5.e-002	2.0972e-006
13981	22.443	5.4545	0.	-9.177e-003
13982	22.352	5.3636	0.	-3.2879e-003
13983	22.352	5.4545	5.e-002	8.114e-006
13984	22.626	5.4545	0.	-6.8066e-003
13985	22.535	5.3636	0.	-4.5595e-004
13986	22.535	5.4545	5.e-002	7.7513e-006
13987	22.81	5.4545	0.	-2.6378e-003
13988	22.718	5.3636	0.	3.7364e-003
13989	22.718	5.4545	5.e-002	4.7009e-006
13990	22.993	5.4545	0.	3.5697e-003
13991	22.901	5.3636	0.	1.0706e-002
13992	22.901	5.4545	5.e-002	5.4423e-006
13993	23.176	5.4545	0.	1.7218e-002
13994	23.084	5.3636	0.	1.9661e-002
13995	23.084	5.4545	5.e-002	9.8409e-006
13996	23.359	5.4545	0.	2.8429e-002
13997	23.267	5.3636	0.	4.266e-002
13998	23.267	5.4545	5.e-002	1.1334e-005
13999	23.542	5.4545	0.	0.10179
14000	23.451	5.3636	0.	4.9538e-002
14001	23.451	5.4545	5.e-002	1.069e-005
14002	23.725	5.4545	0.	5.0255e-002
14003	23.634	5.3636	0.	0.20379
14004	23.634	5.4545	5.e-002	1.1136e-005
14005	23.817	5.3636	0.	1.5605e-003
14006	23.817	5.4545	5.e-002	1.5156e-005
14007	23.908	5.4545	0.	0.36559
14008	8.3414	5.2727	0.	-4.7469
14009	8.2498	5.1818	0.	-7.2169
14010	8.2498	5.2727	5.e-002	-1.3016e-014
14011	8.1582	5.2727	0.	1.9345
14012	8.5245	5.2727	0.	-2.2534
14013	8.433	5.1818	0.	-1.3134
14014	8.433	5.2727	5.e-002	-1.8511e-007
14015	8.7077	5.2727	0.	-2.4386
14016	8.6161	5.1818	0.	-2.7372
14017	8.6161	5.2727	5.e-002	8.1e-006
14018	8.8908	5.2727	0.	-1.8529
14019	8.7992	5.1818	0.	-2.0831
14020	8.7992	5.2727	5.e-002	4.2965e-006
14021	9.0739	5.2727	0.	-1.4772
14022	8.9824	5.1818	0.	-1.8128
14023	8.9824	5.2727	5.e-002	6.6973e-006
14024	9.2571	5.2727	0.	-1.1564
14025	9.1655	5.1818	0.	-1.4845
14026	9.1655	5.2727	5.e-002	3.7358e-006
14027	9.4402	5.2727	0.	-0.92421
14028	9.3487	5.1818	0.	-1.2422
14029	9.3487	5.2727	5.e-002	7.0439e-006
14030	9.6234	5.2727	0.	-0.75558
14031	9.5318	5.1818	0.	-1.0559
14032	9.5318	5.2727	5.e-002	9.4404e-006
14033	9.8065	5.2727	0.	-0.63956
14034	9.7149	5.1818	0.	-0.9295
14035	9.7149	5.2727	5.e-002	9.4029e-006
14036	9.9897	5.2727	0.	-0.56736
14037	9.8981	5.1818	0.	-0.86099
14038	9.8981	5.2727	5.e-002	1.1199e-005
14039	10.173	5.2727	0.	-0.53858
14040	10.081	5.1818	0.	-0.86408
14041	10.081	5.2727	5.e-002	8.5824e-006
14042	10.356	5.2727	0.	-0.56839
14043	10.264	5.1818	0.	-0.99589
14044	10.264	5.2727	5.e-002	7.2006e-006
14045	10.539	5.2727	0.	-0.72893
14046	10.448	5.1818	0.	-1.5363
14047	10.448	5.2727	5.e-002	6.1825e-005
14048	10.722	5.2727	0.	-1.4919
14049	10.631	5.1818	0.	-4.2145
14050	10.631	5.2727	5.e-002	-4.6284e-006
14051	10.905	5.2727	0.	-5.1513
14052	10.814	5.1818	0.	-9.9263
14053	10.814	5.2727	5.e-002	1.0901e-005
14054	11.089	5.2727	0.	-10.043
14055	10.997	5.1818	0.	-15.252
14056	10.997	5.2727	5.e-002	1.5942e-005
14057	11.272	5.2727	0.	-14.033
14058	11.18	5.1818	0.	-19.424
14059	11.18	5.2727	5.e-002	1.823e-006
14060	11.455	5.2727	0.	-16.991
14061	11.363	5.1818	0.	-22.472
14062	11.363	5.2727	5.e-002	-5.2303e-006
14063	11.638	5.2727	0.	-19.02
14064	11.546	5.1818	0.	-24.523
14065	11.546	5.2727	5.e-002	-1.2469e-007
14066	11.821	5.2727	0.	-20.253
14067	11.73	5.1818	0.	-25.722
14068	11.73	5.2727	5.e-002	-2.0109e-006
14069	12.004	5.2727	0.	-20.819
14070	11.913	5.1818	0.	-26.207
14071	11.913	5.2727	5.e-002	2.3659e-011
14072	12.187	5.2727	0.	-20.836
14073	12.096	5.1818	0.	-26.104
14074	12.096	5.2727	5.e-002	-1.0635e-006
14075	12.37	5.2727	0.	-20.412
14076	12.279	5.1818	0.	-25.528
14077	12.279	5.2727	5.e-002	2.0943e-006
14078	12.554	5.2727	0.	-19.637
14079	12.462	5.1818	0.	-24.577
14080	12.462	5.2727	5.e-002	2.062e-006
14081	12.737	5.2727	0.	-18.592
14082	12.645	5.1818	0.	-23.337
14083	12.645	5.2727	5.e-002	1.183e-006
14084	12.92	5.2727	0.	-17.343
14085	12.828	5.1818	0.	-21.881
14086	12.828	5.2727	5.e-002	1.6418e-006
14087	13.103	5.2727	0.	-15.946
14088	13.011	5.1818	0.	-20.27
14089	13.011	5.2727	5.e-002	1.8705e-006
14090	13.286	5.2727	0.	-14.449
14091	13.195	5.1818	0.	-18.554
14092	13.195	5.2727	5.e-002	8.0967e-007
14093	13.469	5.2727	0.	-12.888
14094	13.378	5.1818	0.	-16.773
14095	13.378	5.2727	5.e-002	1.7308e-006
14096	13.652	5.2727	0.	-11.293
14097	13.561	5.1818	0.	-14.962
14098	13.561	5.2727	5.e-002	1.3573e-006
14099	13.836	5.2727	0.	-9.6899
14100	13.744	5.1818	0.	-13.146
14101	13.744	5.2727	5.e-002	1.7557e-006
14102	14.019	5.2727	0.	-8.0957
14103	13.927	5.1818	0.	-11.344
14104	13.927	5.2727	5.e-002	2.3594e-006
14105	14.202	5.2727	0.	-6.5249
14106	14.11	5.1818	0.	-9.5736
14107	14.11	5.2727	5.e-002	2.3743e-006
14108	14.385	5.2727	0.	-4.9878
14109	14.293	5.1818	0.	-7.8447
14110	14.293	5.2727	5.e-002	3.5548e-006
14111	14.568	5.2727	0.	-3.4922
14112	14.477	5.1818	0.	-6.1656
14113	14.477	5.2727	5.e-002	3.6003e-006
14114	14.751	5.2727	0.	-2.0438
14115	14.66	5.1818	0.	-4.5416
14116	14.66	5.2727	5.e-002	2.9013e-006
14117	14.934	5.2727	0.	-0.65548
14118	14.843	5.1818	0.	-2.9761
14119	14.843	5.2727	5.e-002	3.0379e-006
14120	15.118	5.2727	0.	-1.6705e-002
14121	15.026	5.1818	0.	-1.4736
14122	15.026	5.2727	5.e-002	4.6862e-006
14123	15.301	5.2727	0.	-4.9992e-003
14124	15.209	5.1818	0.	-0.1422
14125	15.209	5.2727	5.e-002	4.1254e-006
14126	15.484	5.2727	0.	-2.8132e-003
14127	15.392	5.1818	0.	-1.1604e-002
14128	15.392	5.2727	5.e-002	3.8071e-006
14129	15.667	5.2727	0.	-2.0792e-003
14130	15.575	5.1818	0.	-5.2482e-003
14131	15.575	5.2727	5.e-002	2.8456e-006
14132	15.85	5.2727	0.	-1.8251e-003
14133	15.759	5.1818	0.	-3.3168e-003
14134	15.759	5.2727	5.e-002	4.3495e-006
14135	16.033	5.2727	0.	-1.7801e-003
14136	15.942	5.1818	0.	-2.4919e-003
14137	15.942	5.2727	5.e-002	4.766e-006
14138	16.216	5.2727	0.	-1.8357e-003
14139	16.125	5.1818	0.	-2.0894e-003
14140	16.125	5.2727	5.e-002	3.3176e-006
14141	16.4	5.2727	0.	-1.9482e-003
14142	16.308	5.1818	0.	-1.8886e-003
14143	16.308	5.2727	5.e-002	3.5308e-006
14144	16.583	5.2727	0.	-2.0915e-003
14145	16.491	5.1818	0.	-1.8048e-003
14146	16.491	5.2727	5.e-002	1.7492e-006
14147	16.766	5.2727	0.	-2.2414e-003
14148	16.674	5.1818	0.	-1.7787e-003
14149	16.674	5.2727	5.e-002	2.6017e-006
14150	16.949	5.2727	0.	-2.4016e-003
14151	16.857	5.1818	0.	-1.7732e-003
14152	16.857	5.2727	5.e-002	4.0403e-006
14153	17.132	5.2727	0.	-2.5759e-003
14154	17.041	5.1818	0.	-1.8091e-003
14155	17.041	5.2727	5.e-002	4.5682e-006
14156	17.315	5.2727	0.	-2.7503e-003
14157	17.224	5.1818	0.	-1.8618e-003
14158	17.224	5.2727	5.e-002	4.2865e-006
14159	17.498	5.2727	0.	-2.9228e-003
14160	17.407	5.1818	0.	-1.9162e-003
14161	17.407	5.2727	5.e-002	6.1228e-006
14162	17.682	5.2727	0.	-3.0975e-003
14163	17.59	5.1818	0.	-1.9758e-003
14164	17.59	5.2727	5.e-002	5.45e-006
14165	17.865	5.2727	0.	-3.2726e-003
14166	17.773	5.1818	0.	-2.0431e-003
14167	17.773	5.2727	5.e-002	4.863e-006
14168	18.048	5.2727	0.	-3.4391e-003
14169	17.956	5.1818	0.	-2.1074e-003
14170	17.956	5.2727	5.e-002	5.5825e-006
14171	18.231	5.2727	0.	-3.6044e-003
14172	18.139	5.1818	0.	-2.1571e-003
14173	18.139	5.2727	5.e-002	3.6072e-006
14174	18.414	5.2727	0.	-3.7763e-003
14175	18.323	5.1818	0.	-2.2169e-003
14176	18.323	5.2727	5.e-002	5.2606e-006
14177	18.597	5.2727	0.	-3.9454e-003
14178	18.506	5.1818	0.	-2.2758e-003
14179	18.506	5.2727	5.e-002	5.7988e-006
14180	18.78	5.2727	0.	-4.1118e-003
14181	18.689	5.1818	0.	-2.3244e-003
14182	18.689	5.2727	5.e-002	5.8626e-006
14183	18.964	5.2727	0.	-4.2756e-003
14184	18.872	5.1818	0.	-2.3671e-003
14185	18.872	5.2727	5.e-002	4.0779e-006
14186	19.147	5.2727	0.	-4.4352e-003
14187	19.055	5.1818	0.	-2.3986e-003
14188	19.055	5.2727	5.e-002	3.4483e-006
14189	19.33	5.2727	0.	-4.5964e-003
14190	19.238	5.1818	0.	-2.4212e-003
14191	19.238	5.2727	5.e-002	3.3559e-006
14192	19.513	5.2727	0.	-4.7536e-003
14193	19.421	5.1818	0.	-2.4417e-003
14194	19.421	5.2727	5.e-002	4.3083e-006
14195	19.696	5.2727	0.	-4.8972e-003
14196	19.605	5.1818	0.	-2.4372e-003
14197	19.605	5.2727	5.e-002	4.5338e-006
14198	19.879	5.2727	0.	-5.0312e-003
14199	19.788	5.1818	0.	-2.409e-003
14200	19.788	5.2727	5.e-002	4.3618e-006
14201	20.062	5.2727	0.	-5.1534e-003
14202	19.971	5.1818	0.	-2.3621e-003
14203	19.971	5.2727	5.e-002	2.9617e-006
14204	20.246	5.2727	0.	-5.2552e-003
14205	20.154	5.1818	0.	-2.283e-003
14206	20.154	5.2727	5.e-002	6.8859e-006
14207	20.429	5.2727	0.	-5.3301e-003
14208	20.337	5.1818	0.	-2.1626e-003
14209	20.337	5.2727	5.e-002	4.3206e-006
14210	20.612	5.2727	0.	-5.3728e-003
14211	20.52	5.1818	0.	-1.9934e-003
14212	20.52	5.2727	5.e-002	6.7004e-006
14213	20.795	5.2727	0.	-5.3657e-003
14214	20.703	5.1818	0.	-1.7687e-003
14215	20.703	5.2727	5.e-002	5.9933e-006
14216	20.978	5.2727	0.	-5.2876e-003
14217	20.887	5.1818	0.	-1.4527e-003
14218	20.887	5.2727	5.e-002	4.9254e-006
14219	21.161	5.2727	0.	-5.1208e-003
14220	21.07	5.1818	0.	-1.0317e-003
14221	21.07	5.2727	5.e-002	3.9638e-006
14222	21.344	5.2727	0.	-4.8327e-003
14223	21.253	5.1818	0.	-4.7551e-004
14224	21.253	5.2727	5.e-002	3.4207e-006
14225	21.528	5.2727	0.	-4.3762e-003
14226	21.436	5.1818	0.	2.6186e-004
14227	21.436	5.2727	5.e-002	2.3133e-006
14228	21.711	5.2727	0.	-3.6894e-003
14229	21.619	5.1818	0.	1.2391e-003
14230	21.619	5.2727	5.e-002	1.912e-006
14231	21.894	5.2727	0.	-2.6884e-003
14232	21.802	5.1818	0.	2.5341e-003
14233	21.802	5.2727	5.e-002	1.9001e-006
14234	22.077	5.2727	0.	-1.2479e-003
14235	21.985	5.1818	0.	4.257e-003
14236	21.985	5.2727	5.e-002	3.2747e-006
14237	22.26	5.2727	0.	8.1528e-004
14238	22.169	5.1818	0.	6.5756e-003
14239	22.169	5.2727	5.e-002	1.9207e-006
14240	22.443	5.2727	0.	3.7842e-003
14241	22.352	5.1818	0.	9.7075e-003
14242	22.352	5.2727	5.e-002	6.7326e-006
14243	22.626	5.2727	0.	8.0218e-003
14244	22.535	5.1818	0.	1.4037e-002
14245	22.535	5.2727	5.e-002	5.8165e-006
14246	22.81	5.2727	0.	1.4428e-002
14247	22.718	5.1818	0.	1.9957e-002
14248	22.718	5.2727	5.e-002	2.4558e-006
14249	22.993	5.2727	0.	2.326e-002
14250	22.901	5.1818	0.	2.8949e-002
14251	22.901	5.2727	5.e-002	3.7277e-006
14252	23.176	5.2727	0.	4.0078e-002
14253	23.084	5.1818	0.	4.0206e-002
14254	23.084	5.2727	5.e-002	9.1443e-006
14255	23.359	5.2727	0.	5.5702e-002
14256	23.267	5.1818	0.	6.6079e-002
14257	23.267	5.2727	5.e-002	9.9152e-006
14258	23.542	5.2727	0.	0.13478
14259	23.451	5.1818	0.	7.6918e-002
14260	23.451	5.2727	5.e-002	1.0212e-005
14261	23.725	5.2727	0.	9.283e-002
14262	23.634	5.1818	0.	0.23843
14263	23.634	5.2727	5.e-002	1.2276e-005
14264	23.817	5.1818	0.	5.3519e-002
14265	23.817	5.2727	5.e-002	1.402e-005
14266	23.908	5.2727	0.	0.37852
14267	8.3414	5.0909	0.	-4.4505
14268	8.2498	5.	0.	-8.1851
14269	8.2498	5.0909	5.e-002	1.5129e-006
14270	8.1582	5.0909	0.	2.2549
14271	8.5245	5.0909	0.	-1.9673
14272	8.433	5.	0.	-0.96946
14273	8.433	5.0909	5.e-002	-3.3888e-014
14274	8.7077	5.0909	0.	-2.4551
14275	8.6161	5.	0.	-2.9202
14276	8.6161	5.0909	5.e-002	9.9967e-006
14277	8.8908	5.0909	0.	-2.0639
14278	8.7992	5.	0.	-2.2591
14279	8.7992	5.0909	5.e-002	8.3672e-006
14280	9.0739	5.0909	0.	-1.8269
14281	8.9824	5.	0.	-2.1455
14282	8.9824	5.0909	5.e-002	1.586e-005
14283	9.2571	5.0909	0.	-1.5879
14284	9.1655	5.	0.	-1.9347
14285	9.1655	5.0909	5.e-002	1.8964e-005
14286	9.4402	5.0909	0.	-1.4132
14287	9.3487	5.	0.	-1.8195
14288	9.3487	5.0909	5.e-002	2.1793e-005
14289	9.6234	5.0909	0.	-1.2971
14290	9.5318	5.	0.	-1.7774
14291	9.5318	5.0909	5.e-002	6.2233e-006
14292	9.8065	5.0909	0.	-1.2568
14293	9.7149	5.	0.	-1.8612
14294	9.7149	5.0909	5.e-002	1.2958e-005
14295	9.9897	5.0909	0.	-1.3324
14296	9.8981	5.	0.	-2.2083
14297	9.8981	5.0909	5.e-002	3.3616e-005
14298	10.173	5.0909	0.	-1.674
14299	10.081	5.	0.	-3.3955
14300	10.081	5.0909	5.e-002	6.1181e-006
14301	10.356	5.0909	0.	-3.0416
14302	10.264	5.	0.	-7.7053
14303	10.264	5.0909	5.e-002	1.8577e-006
14304	10.539	5.0909	0.	-7.9266
14305	10.448	5.	0.	-15.252
14306	10.448	5.0909	5.e-002	2.5129e-005
14307	10.722	5.0909	0.	-14.551
14308	10.631	5.	0.	-22.348
14309	10.631	5.0909	5.e-002	6.6005e-005
14310	10.905	5.0909	0.	-20.243
14311	10.814	5.	0.	-28.041
14312	10.814	5.0909	5.e-002	9.1916e-006
14313	11.089	5.0909	0.	-24.653
14314	10.997	5.	0.	-32.324
14315	10.997	5.0909	5.e-002	-1.0851e-005
14316	11.272	5.0909	0.	-27.853
14317	11.18	5.	0.	-35.337
14318	11.18	5.0909	5.e-002	9.2597e-006
14319	11.455	5.0909	0.	-29.987
14320	11.363	5.	0.	-37.246
14321	11.363	5.0909	5.e-002	-6.1928e-007
14322	11.638	5.0909	0.	-31.206
14323	11.546	5.	0.	-38.214
14324	11.546	5.0909	5.e-002	-5.3303e-006
14325	11.821	5.0909	0.	-31.656
14326	11.73	5.	0.	-38.395
14327	11.73	5.0909	5.e-002	1.1891e-006
14328	12.004	5.0909	0.	-31.472
14329	11.913	5.	0.	-37.929
14330	11.913	5.0909	5.e-002	-2.112e-006
14331	12.187	5.0909	0.	-30.776
14332	12.096	5.	0.	-36.941
14333	12.096	5.0909	5.e-002	-1.717e-006
14334	12.37	5.0909	0.	-29.674
14335	12.279	5.	0.	-35.543
14336	12.279	5.0909	5.e-002	3.0019e-006
14337	12.554	5.0909	0.	-28.259
14338	12.462	5.	0.	-33.829
14339	12.462	5.0909	5.e-002	2.4512e-006
14340	12.737	5.0909	0.	-26.609
14341	12.645	5.	0.	-31.882
14342	12.645	5.0909	5.e-002	-9.5392e-008
14343	12.92	5.0909	0.	-24.791
14344	12.828	5.	0.	-29.77
14345	12.828	5.0909	5.e-002	1.5499e-006
14346	13.103	5.0909	0.	-22.86
14347	13.011	5.	0.	-27.552
14348	13.011	5.0909	5.e-002	1.4106e-006
14349	13.286	5.0909	0.	-20.86
14350	13.195	5.	0.	-25.274
14351	13.195	5.0909	5.e-002	4.7815e-009
14352	13.469	5.0909	0.	-18.829
14353	13.378	5.	0.	-22.973
14354	13.378	5.0909	5.e-002	6.799e-007
14355	13.652	5.0909	0.	-16.795
14356	13.561	5.	0.	-20.68
14357	13.561	5.0909	5.e-002	1.3228e-006
14358	13.836	5.0909	0.	-14.78
14359	13.744	5.	0.	-18.418
14360	13.744	5.0909	5.e-002	1.3537e-006
14361	14.019	5.0909	0.	-12.802
14362	13.927	5.	0.	-16.204
14363	13.927	5.0909	5.e-002	1.9839e-006
14364	14.202	5.0909	0.	-10.873
14365	14.11	5.	0.	-14.051
14366	14.11	5.0909	5.e-002	2.3773e-006
14367	14.385	5.0909	0.	-9.0013
14368	14.293	5.	0.	-11.968
14369	14.293	5.0909	5.e-002	3.091e-006
14370	14.568	5.0909	0.	-7.1933
14371	14.477	5.	0.	-9.9603
14372	14.477	5.0909	5.e-002	2.7949e-006
14373	14.751	5.0909	0.	-5.4521
14374	14.66	5.	0.	-8.0313
14375	14.66	5.0909	5.e-002	2.1895e-006
14376	14.934	5.0909	0.	-3.7795
14377	14.843	5.	0.	-6.1818
14378	14.843	5.0909	5.e-002	2.4753e-006
14379	15.118	5.0909	0.	-2.1767
14380	15.026	5.	0.	-4.4113
14381	15.026	5.0909	5.e-002	4.2894e-006
14382	15.301	5.0909	0.	-0.6593
14383	15.209	5.	0.	-2.719
14384	15.209	5.0909	5.e-002	3.6198e-006
14385	15.484	5.0909	0.	-2.3756e-002
14386	15.392	5.	0.	-1.11
14387	15.392	5.0909	5.e-002	3.523e-006
14388	15.667	5.0909	0.	-7.8941e-003
14389	15.575	5.	0.	-4.7463e-002
14390	15.575	5.0909	5.e-002	2.1254e-006
14391	15.85	5.0909	0.	-4.3627e-003
14392	15.759	5.	0.	-1.0477e-002
14393	15.759	5.0909	5.e-002	3.7468e-006
14394	16.033	5.0909	0.	-2.9049e-003
14395	15.942	5.	0.	-5.122e-003
14396	15.942	5.0909	5.e-002	3.7469e-006
14397	16.216	5.0909	0.	-2.149e-003
14398	16.125	5.	0.	-3.0714e-003
14399	16.125	5.0909	5.e-002	2.3686e-006
14400	16.4	5.0909	0.	-1.7145e-003
14401	16.308	5.	0.	-2.0176e-003
14402	16.308	5.0909	5.e-002	2.7901e-006
14403	16.583	5.0909	0.	-1.4478e-003
14404	16.491	5.	0.	-1.3981e-003
14405	16.491	5.0909	5.e-002	1.0259e-006
14406	16.766	5.0909	0.	-1.2639e-003
14407	16.674	5.	0.	-9.8906e-004
14408	16.674	5.0909	5.e-002	1.6574e-006
14409	16.949	5.0909	0.	-1.137e-003
14410	16.857	5.	0.	-6.8358e-004
14411	16.857	5.0909	5.e-002	3.7046e-006
14412	17.132	5.0909	0.	-1.0569e-003
14413	17.041	5.	0.	-4.6856e-004
14414	17.041	5.0909	5.e-002	4.5267e-006
14415	17.315	5.0909	0.	-9.9694e-004
14416	17.224	5.	0.	-3.0261e-004
14417	17.224	5.0909	5.e-002	4.0136e-006
14418	17.498	5.0909	0.	-9.4664e-004
14419	17.407	5.	0.	-1.5747e-004
14420	17.407	5.0909	5.e-002	5.6758e-006
14421	17.682	5.0909	0.	-9.0783e-004
14422	17.59	5.	0.	-2.9753e-005
14423	17.59	5.0909	5.e-002	5.14e-006
14424	17.865	5.0909	0.	-8.7387e-004
14425	17.773	5.	0.	8.265e-005
14426	17.773	5.0909	5.e-002	3.9203e-006
14427	18.048	5.0909	0.	-8.3129e-004
14428	17.956	5.	0.	1.9524e-004
14429	17.956	5.0909	5.e-002	5.0359e-006
14430	18.231	5.0909	0.	-7.858e-004
14431	18.139	5.	0.	3.2093e-004
14432	18.139	5.0909	5.e-002	2.7731e-006
14433	18.414	5.0909	0.	-7.4357e-004
14434	18.323	5.	0.	4.3804e-004
14435	18.323	5.0909	5.e-002	4.568e-006
14436	18.597	5.0909	0.	-6.9358e-004
14437	18.506	5.	0.	5.5959e-004
14438	18.506	5.0909	5.e-002	5.2288e-006
14439	18.78	5.0909	0.	-6.3086e-004
14440	18.689	5.	0.	6.9608e-004
14441	18.689	5.0909	5.e-002	5.344e-006
14442	18.964	5.0909	0.	-5.5456e-004
14443	18.872	5.	0.	8.4508e-004
14444	18.872	5.0909	5.e-002	3.4194e-006
14445	19.147	5.0909	0.	-4.6346e-004
14446	19.055	5.	0.	1.0151e-003
14447	19.055	5.0909	5.e-002	2.3012e-006
14448	19.33	5.0909	0.	-3.6095e-004
14449	19.238	5.	0.	1.2039e-003
14450	19.238	5.0909	5.e-002	2.6189e-006
14451	19.513	5.0909	0.	-2.3693e-004
14452	19.421	5.	0.	1.4059e-003
14453	19.421	5.0909	5.e-002	3.2328e-006
14454	19.696	5.0909	0.	-7.9649e-005
14455	19.605	5.	0.	1.6489e-003
14456	19.605	5.0909	5.e-002	4.4283e-006
14457	19.879	5.0909	0.	1.086e-004
14458	19.788	5.	0.	1.9292e-003
14459	19.788	5.0909	5.e-002	3.7328e-006
14460	20.062	5.0909	0.	3.3338e-004
14461	19.971	5.	0.	2.2486e-003
14462	19.971	5.0909	5.e-002	2.5286e-006
14463	20.246	5.0909	0.	6.0836e-004
14464	20.154	5.	0.	2.6194e-003
14465	20.154	5.0909	5.e-002	5.6942e-006
14466	20.429	5.0909	0.	9.4328e-004
14467	20.337	5.	0.	3.0565e-003
14468	20.337	5.0909	5.e-002	3.6068e-006
14469	20.612	5.0909	0.	1.3462e-003
14470	20.52	5.	0.	3.5695e-003
14471	20.52	5.0909	5.e-002	6.3414e-006
14472	20.795	5.0909	0.	1.8412e-003
14473	20.703	5.	0.	4.1676e-003
14474	20.703	5.0909	5.e-002	4.8028e-006
14475	20.978	5.0909	0.	2.4556e-003
14476	20.887	5.	0.	4.8905e-003
14477	20.887	5.0909	5.e-002	4.0257e-006
14478	21.161	5.0909	0.	3.2144e-003
14479	21.07	5.	0.	5.7587e-003
14480	21.07	5.0909	5.e-002	2.6874e-006
14481	21.344	5.0909	0.	4.1593e-003
14482	21.253	5.	0.	6.8067e-003
14483	21.253	5.0909	5.e-002	2.3357e-006
14484	21.528	5.0909	0.	5.3458e-003
14485	21.436	5.	0.	8.0873e-003
14486	21.436	5.0909	5.e-002	1.6752e-006
14487	21.711	5.0909	0.	6.8453e-003
14488	21.619	5.	0.	9.6636e-003
14489	21.619	5.0909	5.e-002	1.4505e-006
14490	21.894	5.0909	0.	8.7576e-003
14491	21.802	5.	0.	1.1625e-002
14492	21.802	5.0909	5.e-002	1.8171e-006
14493	22.077	5.0909	0.	1.1229e-002
14494	21.985	5.	0.	1.4088e-002
14495	21.985	5.0909	5.e-002	1.6489e-006
14496	22.26	5.0909	0.	1.4452e-002
14497	22.169	5.	0.	1.7234e-002
14498	22.169	5.0909	5.e-002	9.6567e-008
14499	22.443	5.0909	0.	1.8729e-002
14500	22.352	5.	0.	2.1284e-002
14501	22.352	5.0909	5.e-002	4.7439e-006
14502	22.626	5.0909	0.	2.4447e-002
14503	22.535	5.	0.	2.6637e-002
14504	22.535	5.0909	5.e-002	5.6221e-006
14505	22.81	5.0909	0.	3.2525e-002
14506	22.718	5.	0.	3.3695e-002
14507	22.718	5.0909	5.e-002	1.7378e-006
14508	22.993	5.0909	0.	4.3262e-002
14509	22.901	5.	0.	4.3961e-002
14510	22.901	5.0909	5.e-002	2.6803e-006
14511	23.176	5.0909	0.	6.2329e-002
14512	23.084	5.	0.	5.6661e-002
14513	23.084	5.0909	5.e-002	8.0033e-006
14514	23.359	5.0909	0.	8.0575e-002
14515	23.267	5.	0.	8.4377e-002
14516	23.267	5.0909	5.e-002	8.2992e-006
14517	23.542	5.0909	0.	0.16492
14518	23.451	5.	0.	9.733e-002
14519	23.451	5.0909	5.e-002	9.576e-006
14520	23.725	5.0909	0.	0.13376
14521	23.634	5.	0.	0.26537
14522	23.634	5.0909	5.e-002	1.0953e-005
14523	23.817	5.	0.	9.5483e-002
14524	23.817	5.0909	5.e-002	1.203e-005
14525	23.908	5.0909	0.	0.40202
14526	8.3414	4.9091	0.	-5.2021
14527	8.2498	4.8182	0.	-8.4998
14528	8.2498	4.9091	5.e-002	-1.834e-014
14529	8.1582	4.9091	0.	0.85469
14530	8.5245	4.9091	0.	-2.0005
14531	8.433	4.8182	0.	-1.0209
14532	8.433	4.9091	5.e-002	-1.2041e-014
14533	8.7077	4.9091	0.	-2.7514
14534	8.6161	4.8182	0.	-3.3681
14535	8.6161	4.9091	5.e-002	5.0865e-006
14536	8.8908	4.9091	0.	-2.3467
14537	8.7992	4.8182	0.	-2.6367
14538	8.7992	4.9091	5.e-002	4.9379e-006
14539	9.0739	4.9091	0.	-2.26
14540	8.9824	4.8182	0.	-2.5775
14541	8.9824	4.9091	5.e-002	1.1816e-005
14542	9.2571	4.9091	0.	-2.2022
14543	9.1655	4.8182	0.	-2.5953
14544	9.1655	4.9091	5.e-002	1.7919e-005
14545	9.4402	4.9091	0.	-2.2884
14546	9.3487	4.8182	0.	-2.8911
14547	9.3487	4.9091	5.e-002	2.749e-006
14548	9.6234	4.9091	0.	-2.5976
14549	9.5318	4.8182	0.	-3.6953
14550	9.5318	4.9091	5.e-002	3.4198e-005
14551	9.8065	4.9091	0.	-3.4866
14552	9.7149	4.8182	0.	-6.1545
14553	9.7149	4.9091	5.e-002	6.0554e-006
14554	9.9897	4.9091	0.	-6.4724
14555	9.8981	4.8182	0.	-13.767
14556	9.8981	4.9091	5.e-002	3.4109e-005
14557	10.173	4.9091	0.	-14.042
14558	10.081	4.8182	0.	-24.768
14559	10.081	4.9091	5.e-002	7.3601e-007
14560	10.356	4.9091	0.	-22.824
14561	10.264	4.8182	0.	-34.295
14562	10.264	4.9091	5.e-002	-4.4621e-006
14563	10.539	4.9091	0.	-30.218
14564	10.448	4.8182	0.	-41.629
14565	10.448	4.9091	5.e-002	-6.1779e-006
14566	10.722	4.9091	0.	-35.945
14567	10.631	4.8182	0.	-47.009
14568	10.631	4.9091	5.e-002	3.3462e-005
14569	10.905	4.9091	0.	-40.142
14570	10.814	4.8182	0.	-50.739
14571	10.814	4.9091	5.e-002	4.5557e-006
14572	11.089	4.9091	0.	-43.002
14573	10.997	4.8182	0.	-53.081
14574	10.997	4.9091	5.e-002	-8.228e-006
14575	11.272	4.9091	0.	-44.714
14576	11.18	4.8182	0.	-54.261
14577	11.18	4.9091	5.e-002	-1.1109e-006
14578	11.455	4.9091	0.	-45.454
14579	11.363	4.8182	0.	-54.472
14580	11.363	4.9091	5.e-002	-8.5907e-006
14581	11.638	4.9091	0.	-45.384
14582	11.546	4.8182	0.	-53.884
14583	11.546	4.9091	5.e-002	1.5706e-006
14584	11.821	4.9091	0.	-44.649
14585	11.73	4.8182	0.	-52.647
14586	11.73	4.9091	5.e-002	-5.6241e-006
14587	12.004	4.9091	0.	-43.38
14588	11.913	4.8182	0.	-50.895
14589	11.913	4.9091	5.e-002	-2.9196e-006
14590	12.187	4.9091	0.	-41.69
14591	12.096	4.8182	0.	-48.742
14592	12.096	4.9091	5.e-002	5.7665e-007
14593	12.37	4.9091	0.	-39.68
14594	12.279	4.8182	0.	-46.289
14595	12.279	4.9091	5.e-002	-2.7822e-008
14596	12.554	4.9091	0.	-37.434
14597	12.462	4.8182	0.	-43.622
14598	12.462	4.9091	5.e-002	1.5541e-006
14599	12.737	4.9091	0.	-35.026
14600	12.645	4.8182	0.	-40.813
14601	12.645	4.9091	5.e-002	-5.6965e-007
14602	12.92	4.9091	0.	-32.514
14603	12.828	4.8182	0.	-37.921
14604	12.828	4.9091	5.e-002	1.3321e-006
14605	13.103	4.9091	0.	-29.949
14606	13.011	4.8182	0.	-34.995
14607	13.011	4.9091	5.e-002	8.9267e-007
14608	13.286	4.9091	0.	-27.369
14609	13.195	4.8182	0.	-32.076
14610	13.195	4.9091	5.e-002	1.1119e-006
14611	13.469	4.9091	0.	-24.806
14612	13.378	4.8182	0.	-29.193
14613	13.378	4.9091	5.e-002	-6.6239e-008
14614	13.652	4.9091	0.	-22.285
14615	13.561	4.8182	0.	-26.371
14616	13.561	4.9091	5.e-002	1.153e-006
14617	13.836	4.9091	0.	-19.822
14618	13.744	4.8182	0.	-23.627
14619	13.744	4.9091	5.e-002	1.5053e-006
14620	14.019	4.9091	0.	-17.433
14621	13.927	4.8182	0.	-20.973
14622	13.927	4.9091	5.e-002	2.1202e-006
14623	14.202	4.9091	0.	-15.126
14624	14.11	4.8182	0.	-18.419
14625	14.11	4.9091	5.e-002	1.8938e-006
14626	14.385	4.9091	0.	-12.906
14627	14.293	4.8182	0.	-15.969
14628	14.293	4.9091	5.e-002	2.8786e-006
14629	14.568	4.9091	0.	-10.777
14630	14.477	4.8182	0.	-13.624
14631	14.477	4.9091	5.e-002	3.0774e-006
14632	14.751	4.9091	0.	-8.7393
14633	14.66	4.8182	0.	-11.386
14634	14.66	4.9091	5.e-002	2.7228e-006
14635	14.934	4.9091	0.	-6.7914
14636	14.843	4.8182	0.	-9.2513
14637	14.843	4.9091	5.e-002	3.1569e-006
14638	15.118	4.9091	0.	-4.9314
14639	15.026	4.8182	0.	-7.2174
14640	15.026	4.9091	5.e-002	5.0752e-006
14641	15.301	4.9091	0.	-3.1567
14642	15.209	4.8182	0.	-5.2801
14643	15.209	4.9091	5.e-002	4.2743e-006
14644	15.484	4.9091	0.	-1.4682
14645	15.392	4.8182	0.	-3.4349
14646	15.392	4.9091	5.e-002	4.1344e-006
14647	15.667	4.9091	0.	-9.7765e-002
14648	15.575	4.8182	0.	-1.6803
14649	15.575	4.9091	5.e-002	2.3336e-006
14650	15.85	4.9091	0.	-1.2597e-002
14651	15.759	4.8182	0.	-0.1565
14652	15.759	4.9091	5.e-002	3.8852e-006
14653	16.033	4.9091	0.	-5.4353e-003
14654	15.942	4.8182	0.	-1.3556e-002
14655	15.942	4.9091	5.e-002	3.9519e-006
14656	16.216	4.9091	0.	-2.9051e-003
14657	16.125	4.8182	0.	-5.2608e-003
14658	16.125	4.9091	5.e-002	2.6817e-006
14659	16.4	4.9091	0.	-1.6315e-003
14660	16.308	4.8182	0.	-2.4566e-003
14661	16.308	4.9091	5.e-002	3.3079e-006
14662	16.583	4.9091	0.	-8.6898e-004
14663	16.491	4.8182	0.	-1.0547e-003
14664	16.491	4.9091	5.e-002	1.5383e-006
14665	16.766	4.9091	0.	-3.4707e-004
14666	16.674	4.8182	0.	-1.9864e-004
14667	16.674	4.9091	5.e-002	2.8618e-006
14668	16.949	4.9091	0.	3.5221e-005
14669	16.857	4.8182	0.	4.0495e-004
14670	16.857	4.9091	5.e-002	4.5199e-006
14671	17.132	4.9091	0.	3.2441e-004
14672	17.041	4.8182	0.	8.4375e-004
14673	17.041	4.9091	5.e-002	5.4483e-006
14674	17.315	4.9091	0.	5.6401e-004
14675	17.224	4.8182	0.	1.1909e-003
14676	17.224	4.9091	5.e-002	4.685e-006
14677	17.498	4.9091	0.	7.7547e-004
14678	17.407	4.8182	0.	1.4939e-003
14679	17.407	4.9091	5.e-002	6.5391e-006
14680	17.682	4.9091	0.	9.6604e-004
14681	17.59	4.8182	0.	1.764e-003
14682	17.59	4.9091	5.e-002	5.433e-006
14683	17.865	4.9091	0.	1.1466e-003
14684	17.773	4.8182	0.	2.0111e-003
14685	17.773	4.9091	5.e-002	4.8723e-006
14686	18.048	4.9091	0.	1.3319e-003
14687	17.956	4.8182	0.	2.2527e-003
14688	17.956	4.9091	5.e-002	5.5529e-006
14689	18.231	4.9091	0.	1.5189e-003
14690	18.139	4.8182	0.	2.506e-003
14691	18.139	4.9091	5.e-002	3.5249e-006
14692	18.414	4.9091	0.	1.7048e-003
14693	18.323	4.8182	0.	2.7501e-003
14694	18.323	4.9091	5.e-002	5.2936e-006
14695	18.597	4.9091	0.	1.9022e-003
14696	18.506	4.8182	0.	3.0007e-003
14697	18.506	4.9091	5.e-002	6.3816e-006
14698	18.78	4.9091	0.	2.1138e-003
14699	18.689	4.8182	0.	3.2702e-003
14700	18.689	4.9091	5.e-002	6.4445e-006
14701	18.964	4.9091	0.	2.3449e-003
14702	18.872	4.8182	0.	3.5545e-003
14703	18.872	4.9091	5.e-002	3.7398e-006
14704	19.147	4.9091	0.	2.6003e-003
14705	19.055	4.8182	0.	3.8676e-003
14706	19.055	4.9091	5.e-002	3.4258e-006
14707	19.33	4.9091	0.	2.8754e-003
14708	19.238	4.8182	0.	4.2049e-003
14709	19.238	4.9091	5.e-002	3.3632e-006
14710	19.513	4.9091	0.	3.1822e-003
14711	19.421	4.8182	0.	4.5643e-003
14712	19.421	4.9091	5.e-002	4.1025e-006
14713	19.696	4.9091	0.	3.5328e-003
14714	19.605	4.8182	0.	4.9737e-003
14715	19.605	4.9091	5.e-002	5.3109e-006
14716	19.879	4.9091	0.	3.9274e-003
14717	19.788	4.8182	0.	5.4303e-003
14718	19.788	4.9091	5.e-002	4.1645e-006
14719	20.062	4.9091	0.	4.3743e-003
14720	19.971	4.8182	0.	5.9379e-003
14721	19.971	4.9091	5.e-002	3.5238e-006
14722	20.246	4.9091	0.	4.8866e-003
14723	20.154	4.8182	0.	6.5098e-003
14724	20.154	4.9091	5.e-002	6.5607e-006
14725	20.429	4.9091	0.	5.4789e-003
14726	20.337	4.8182	0.	7.1631e-003
14727	20.337	4.9091	5.e-002	4.2216e-006
14728	20.612	4.9091	0.	6.1613e-003
14729	20.52	4.8182	0.	7.9085e-003
14730	20.52	4.9091	5.e-002	7.7076e-006
14731	20.795	4.9091	0.	6.9581e-003
14732	20.703	4.8182	0.	8.7588e-003
14733	20.703	4.9091	5.e-002	6.0814e-006
14734	20.978	4.9091	0.	7.9015e-003
14735	20.887	4.8182	0.	9.7531e-003
14736	20.887	4.9091	5.e-002	4.2151e-006
14737	21.161	4.9091	0.	9.0204e-003
14738	21.07	4.8182	0.	1.0916e-002
14739	21.07	4.9091	5.e-002	3.5116e-006
14740	21.344	4.9091	0.	1.0359e-002
14741	21.253	4.8182	0.	1.2284e-002
14742	21.253	4.9091	5.e-002	3.8945e-006
14743	21.528	4.9091	0.	1.1977e-002
14744	21.436	4.8182	0.	1.3912e-002
14745	21.436	4.9091	5.e-002	2.9258e-006
14746	21.711	4.9091	0.	1.3951e-002
14747	21.619	4.8182	0.	1.5868e-002
14748	21.619	4.9091	5.e-002	2.1166e-006
14749	21.894	4.9091	0.	1.6386e-002
14750	21.802	4.8182	0.	1.8241e-002
14751	21.802	4.9091	5.e-002	1.1079e-006
14752	22.077	4.9091	0.	1.9428e-002
14753	21.985	4.8182	0.	2.1152e-002
14754	21.985	4.9091	5.e-002	2.7507e-006
14755	22.26	4.9091	0.	2.3278e-002
14756	22.169	4.8182	0.	2.4783e-002
14757	22.169	4.9091	5.e-002	1.4907e-006
14758	22.443	4.9091	0.	2.8239e-002
14759	22.352	4.8182	0.	2.9358e-002
14760	22.352	4.9091	5.e-002	6.9913e-006
14761	22.626	4.9091	0.	3.4697e-002
14762	22.535	4.8182	0.	3.5276e-002
14763	22.535	4.9091	5.e-002	5.5717e-006
14764	22.81	4.9091	0.	4.3586e-002
14765	22.718	4.8182	0.	4.2942e-002
14766	22.718	4.9091	5.e-002	2.2963e-006
14767	22.993	4.9091	0.	5.5211e-002
14768	22.901	4.8182	0.	5.388e-002
14769	22.901	4.9091	5.e-002	5.309e-006
14770	23.176	4.9091	0.	7.5374e-002
14771	23.084	4.8182	0.	6.734e-002
14772	23.084	4.9091	5.e-002	9.9352e-006
14773	23.359	4.9091	0.	9.4931e-002
14774	23.267	4.8182	0.	9.613e-002
14775	23.267	4.9091	5.e-002	1.2747e-005
14776	23.542	4.9091	0.	0.18227
14777	23.451	4.8182	0.	0.11037
14778	23.451	4.9091	5.e-002	1.034e-005
14779	23.725	4.9091	0.	0.15814
14780	23.634	4.8182	0.	0.28279
14781	23.634	4.9091	5.e-002	1.245e-005
14782	23.817	4.8182	0.	0.12441
14783	23.817	4.9091	5.e-002	1.1564e-005
14784	23.908	4.9091	0.	0.41242
14785	8.3414	4.7273	0.	-4.7105
14786	8.2498	4.6364	0.	-16.219
14787	8.2498	4.7273	5.e-002	-2.3117e-014
14788	8.1582	4.7273	0.	6.0102
14789	8.5245	4.7273	0.	-2.4144
14790	8.433	4.6364	0.	-1.7714
14791	8.433	4.7273	5.e-002	9.1705e-006
14792	8.7077	4.7273	0.	-3.2409
14793	8.6161	4.6364	0.	-3.8478
14794	8.6161	4.7273	5.e-002	1.7438e-005
14795	8.8908	4.7273	0.	-2.8402
14796	8.7992	4.6364	0.	-3.2827
14797	8.7992	4.7273	5.e-002	5.8036e-006
14798	9.0739	4.7273	0.	-2.8988
14799	8.9824	4.6364	0.	-3.2712
14800	8.9824	4.7273	5.e-002	1.1708e-005
14801	9.2571	4.7273	0.	-3.3465
14802	9.1655	4.6364	0.	-3.8653
14803	9.1655	4.7273	5.e-002	1.6019e-005
14804	9.4402	4.7273	0.	-4.7021
14805	9.3487	4.6364	0.	-6.1415
14806	9.3487	4.7273	5.e-002	1.1626e-005
14807	9.6234	4.7273	0.	-9.4506
14808	9.5318	4.6364	0.	-15.705
14809	9.5318	4.7273	5.e-002	6.4964e-005
14810	9.8065	4.7273	0.	-22.056
14811	9.7149	4.6364	0.	-34.785
14812	9.7149	4.7273	5.e-002	3.2709e-005
14813	9.9897	4.7273	0.	-35.572
14814	9.8981	4.6364	0.	-50.615
14815	9.8981	4.7273	5.e-002	-2.223e-006
14816	10.173	4.7273	0.	-45.932
14817	10.081	4.6364	0.	-61.553
14818	10.081	4.7273	5.e-002	2.3284e-005
14819	10.356	4.7273	0.	-53.381
14820	10.264	4.6364	0.	-68.794
14821	10.264	4.7273	5.e-002	-8.7432e-006
14822	10.539	4.7273	0.	-58.523
14823	10.448	4.6364	0.	-73.339
14824	10.448	4.7273	5.e-002	1.1448e-005
14825	10.722	4.7273	0.	-61.838
14826	10.631	4.6364	0.	-75.871
14827	10.631	4.7273	5.e-002	2.6316e-005
14828	10.905	4.7273	0.	-63.682
14829	10.814	4.6364	0.	-76.859
14830	10.814	4.7273	5.e-002	4.7756e-005
14831	11.089	4.7273	0.	-64.331
14832	10.997	4.6364	0.	-76.639
14833	10.997	4.7273	5.e-002	6.6017e-007
14834	11.272	4.7273	0.	-64.003
14835	11.18	4.6364	0.	-75.464
14836	11.18	4.7273	5.e-002	6.1241e-006
14837	11.455	4.7273	0.	-62.883
14838	11.363	4.6364	0.	-73.533
14839	11.363	4.7273	5.e-002	1.0457e-005
14840	11.638	4.7273	0.	-61.129
14841	11.546	4.6364	0.	-71.013
14842	11.546	4.7273	5.e-002	-2.8319e-006
14843	11.821	4.7273	0.	-58.875
14844	11.73	4.6364	0.	-68.041
14845	11.73	4.7273	5.e-002	-6.5659e-006
14846	12.004	4.7273	0.	-56.24
14847	11.913	4.6364	0.	-64.736
14848	11.913	4.7273	5.e-002	-4.4265e-006
14849	12.187	4.7273	0.	-53.325
14850	12.096	4.6364	0.	-61.197
14851	12.096	4.7273	5.e-002	-4.4049e-007
14852	12.37	4.7273	0.	-50.216
14853	12.279	4.6364	0.	-57.508
14854	12.279	4.7273	5.e-002	2.1151e-006
14855	12.554	4.7273	0.	-46.985
14856	12.462	4.6364	0.	-53.739
14857	12.462	4.7273	5.e-002	4.4198e-007
14858	12.737	4.7273	0.	-43.692
14859	12.645	4.6364	0.	-49.947
14860	12.645	4.7273	5.e-002	-4.1232e-007
14861	12.92	4.7273	0.	-40.386
14862	12.828	4.6364	0.	-46.178
14863	12.828	4.7273	5.e-002	1.9674e-006
14864	13.103	4.7273	0.	-37.106
14865	13.011	4.6364	0.	-42.47
14866	13.011	4.7273	5.e-002	9.9725e-007
14867	13.286	4.7273	0.	-33.884
14868	13.195	4.6364	0.	-38.85
14869	13.195	4.7273	5.e-002	-5.917e-008
14870	13.469	4.7273	0.	-30.741
14871	13.378	4.6364	0.	-35.34
14872	13.378	4.7273	5.e-002	-7.7557e-007
14873	13.652	4.7273	0.	-27.696
14874	13.561	4.6364	0.	-31.955
14875	13.561	4.7273	5.e-002	2.0721e-007
14876	13.836	4.7273	0.	-24.76
14877	13.744	4.6364	0.	-28.705
14878	13.744	4.7273	5.e-002	1.0089e-006
14879	14.019	4.7273	0.	-21.941
14880	13.927	4.6364	0.	-25.595
14881	13.927	4.7273	5.e-002	1.4955e-006
14882	14.202	4.7273	0.	-19.243
14883	14.11	4.6364	0.	-22.629
14884	14.11	4.7273	5.e-002	1.6622e-006
14885	14.385	4.7273	0.	-16.667
14886	14.293	4.6364	0.	-19.805
14887	14.293	4.7273	5.e-002	2.8269e-006
14888	14.568	4.7273	0.	-14.213
14889	14.477	4.6364	0.	-17.121
14890	14.477	4.7273	5.e-002	2.5039e-006
14891	14.751	4.7273	0.	-11.877
14892	14.66	4.6364	0.	-14.574
14893	14.66	4.7273	5.e-002	2.1285e-006
14894	14.934	4.7273	0.	-9.6556
14895	14.843	4.6364	0.	-12.157
14896	14.843	4.7273	5.e-002	2.7183e-006
14897	15.118	4.7273	0.	-7.5437
14898	15.026	4.6364	0.	-9.8649
14899	15.026	4.7273	5.e-002	4.2725e-006
14900	15.301	4.7273	0.	-5.5352
14901	15.209	4.6364	0.	-7.6895
14902	15.209	4.7273	5.e-002	3.8445e-006
14903	15.484	4.7273	0.	-3.6244
14904	15.392	4.6364	0.	-5.6238
14905	15.392	4.7273	5.e-002	3.1794e-006
14906	15.667	4.7273	0.	-1.8081
14907	15.575	4.6364	0.	-3.6605
14908	15.575	4.7273	5.e-002	2.0511e-006
14909	15.85	4.7273	0.	-0.1939
14910	15.759	4.6364	0.	-1.7954
14911	15.759	4.7273	5.e-002	3.0754e-006
14912	16.033	4.7273	0.	-1.3187e-002
14913	15.942	4.6364	0.	-0.16051
14914	15.942	4.7273	5.e-002	3.265e-006
14915	16.216	4.7273	0.	-4.5673e-003
14916	16.125	4.6364	0.	-1.133e-002
14917	16.125	4.7273	5.e-002	1.9075e-006
14918	16.4	4.7273	0.	-1.7071e-003
14919	16.308	4.6364	0.	-3.4548e-003
14920	16.308	4.7273	5.e-002	2.3723e-006
14921	16.583	4.7273	0.	-2.6298e-004
14922	16.491	4.6364	0.	-7.5762e-004
14923	16.491	4.7273	5.e-002	1.0829e-006
14924	16.766	4.7273	0.	6.3926e-004
14925	16.674	4.6364	0.	6.4345e-004
14926	16.674	4.7273	5.e-002	1.993e-006
14927	16.949	4.7273	0.	1.2734e-003
14928	16.857	4.6364	0.	1.5466e-003
14929	16.857	4.7273	5.e-002	4.3057e-006
14930	17.132	4.7273	0.	1.7502e-003
14931	17.041	4.6364	0.	2.1838e-003
14932	17.041	4.7273	5.e-002	5.1277e-006
14933	17.315	4.7273	0.	2.1445e-003
14934	17.224	4.6364	0.	2.6814e-003
14935	17.224	4.7273	5.e-002	4.4255e-006
14936	17.498	4.7273	0.	2.4923e-003
14937	17.407	4.6364	0.	3.1083e-003
14938	17.407	4.7273	5.e-002	6.1576e-006
14939	17.682	4.7273	0.	2.8068e-003
14940	17.59	4.6364	0.	3.4892e-003
14941	17.59	4.7273	5.e-002	5.4919e-006
14942	17.865	4.7273	0.	3.1041e-003
14943	17.773	4.6364	0.	3.8366e-003
14944	17.773	4.7273	5.e-002	4.0607e-006
14945	18.048	4.7273	0.	3.4035e-003
14946	17.956	4.6364	0.	4.1772e-003
14947	17.956	4.7273	5.e-002	5.2646e-006
14948	18.231	4.7273	0.	3.7041e-003
14949	18.139	4.6364	0.	4.5268e-003
14950	18.139	4.7273	5.e-002	2.8628e-006
14951	18.414	4.7273	0.	4.0033e-003
14952	18.323	4.6364	0.	4.8677e-003
14953	18.323	4.7273	5.e-002	4.7323e-006
14954	18.597	4.7273	0.	4.3166e-003
14955	18.506	4.6364	0.	5.2157e-003
14956	18.506	4.7273	5.e-002	5.4157e-006
14957	18.78	4.7273	0.	4.6492e-003
14958	18.689	4.6364	0.	5.5868e-003
14959	18.689	4.7273	5.e-002	5.6055e-006
14960	18.964	4.7273	0.	5.0057e-003
14961	18.872	4.6364	0.	5.9754e-003
14962	18.872	4.7273	5.e-002	3.3756e-006
14963	19.147	4.7273	0.	5.3904e-003
14964	19.055	4.6364	0.	6.3971e-003
14965	19.055	4.7273	5.e-002	2.7786e-006
14966	19.33	4.7273	0.	5.8012e-003
14967	19.238	4.6364	0.	6.8483e-003
14968	19.238	4.7273	5.e-002	2.8998e-006
14969	19.513	4.7273	0.	6.2518e-003
14970	19.421	4.6364	0.	7.3277e-003
14971	19.421	4.7273	5.e-002	3.3436e-006
14972	19.696	4.7273	0.	6.7548e-003
14973	19.605	4.6364	0.	7.8623e-003
14974	19.605	4.7273	5.e-002	4.3412e-006
14975	19.879	4.7273	0.	7.3111e-003
14976	19.788	4.6364	0.	8.4536e-003
14977	19.788	4.7273	5.e-002	3.5994e-006
14978	20.062	4.7273	0.	7.9292e-003
14979	19.971	4.6364	0.	9.1029e-003
14980	19.971	4.7273	5.e-002	3.0122e-006
14981	20.246	4.7273	0.	8.626e-003
14982	20.154	4.6364	0.	9.8252e-003
14983	20.154	4.7273	5.e-002	5.4644e-006
14984	20.429	4.7273	0.	9.4147e-003
14985	20.337	4.6364	0.	1.0641e-002
14986	20.337	4.7273	5.e-002	3.1033e-006
14987	20.612	4.7273	0.	1.0308e-002
14988	20.52	4.6364	0.	1.1558e-002
14989	20.52	4.7273	5.e-002	6.4036e-006
14990	20.795	4.7273	0.	1.1333e-002
14991	20.703	4.6364	0.	1.2591e-002
14992	20.703	4.7273	5.e-002	4.6837e-006
14993	20.978	4.7273	0.	1.2522e-002
14994	20.887	4.6364	0.	1.3782e-002
14995	20.887	4.7273	5.e-002	3.5436e-006
14996	21.161	4.7273	0.	1.3904e-002
14997	21.07	4.6364	0.	1.5157e-002
14998	21.07	4.7273	5.e-002	3.2242e-006
14999	21.344	4.7273	0.	1.5528e-002
15000	21.253	4.6364	0.	1.6752e-002
15001	21.253	4.7273	5.e-002	3.3352e-006
15002	21.528	4.7273	0.	1.7453e-002
15003	21.436	4.6364	0.	1.8622e-002
15004	21.436	4.7273	5.e-002	2.4179e-006
15005	21.711	4.7273	0.	1.9758e-002
15006	21.619	4.6364	0.	2.084e-002
15007	21.619	4.7273	5.e-002	1.9941e-006
15008	21.894	4.7273	0.	2.2546e-002
15009	21.802	4.6364	0.	2.3487e-002
15010	21.802	4.7273	5.e-002	1.5885e-006
15011	22.077	4.7273	0.	2.597e-002
15012	21.985	4.6364	0.	2.6695e-002
15013	21.985	4.7273	5.e-002	2.2563e-006
15014	22.26	4.7273	0.	3.0225e-002
15015	22.169	4.6364	0.	3.0636e-002
15016	22.169	4.7273	5.e-002	5.4036e-007
15017	22.443	4.7273	0.	3.5618e-002
15018	22.352	4.6364	0.	3.5538e-002
15019	22.352	4.7273	5.e-002	6.0294e-006
15020	22.626	4.7273	0.	4.2538e-002
15021	22.535	4.6364	0.	4.1806e-002
15022	22.535	4.7273	5.e-002	3.7151e-006
15023	22.81	4.7273	0.	5.1925e-002
15024	22.718	4.6364	0.	4.9844e-002
15025	22.718	4.7273	5.e-002	1.1661e-006
15026	22.993	4.7273	0.	6.4115e-002
15027	22.901	4.6364	0.	6.1204e-002
15028	22.901	4.7273	5.e-002	4.0887e-006
15029	23.176	4.7273	0.	8.5017e-002
15030	23.084	4.6364	0.	7.5167e-002
15031	23.084	4.7273	5.e-002	7.7677e-006
15032	23.359	4.7273	0.	0.10555
15033	23.267	4.6364	0.	0.10472
15034	23.267	4.7273	5.e-002	8.8876e-006
15035	23.542	4.7273	0.	0.19523
15036	23.451	4.6364	0.	0.11997
15037	23.451	4.7273	5.e-002	8.9302e-006
15038	23.725	4.7273	0.	0.17677
15039	23.634	4.6364	0.	0.29577
15040	23.634	4.7273	5.e-002	1.1119e-005
15041	23.817	4.6364	0.	0.14692
15042	23.817	4.7273	5.e-002	1.3039e-005
15043	23.908	4.7273	0.	0.42062
15044	8.3414	4.5455	0.	-13.662
15045	8.2498	4.4545	0.	-7.3085
15046	8.2498	4.5455	5.e-002	1.0722e-005
15047	8.1582	4.5455	0.	-15.492
15048	8.5245	4.5455	0.	-3.2021
15049	8.433	4.4545	0.	-0.79734
15050	8.433	4.5455	5.e-002	4.8483e-006
15051	8.7077	4.5455	0.	-3.8389
15052	8.6161	4.4545	0.	-7.6469
15053	8.6161	4.5455	5.e-002	5.2161e-006
15054	8.8908	4.5455	0.	-3.6437
15055	8.7992	4.4545	0.	-3.3851
15056	8.7992	4.5455	5.e-002	3.4355e-006
15057	9.0739	4.5455	0.	-4.1596
15058	8.9824	4.4545	0.	-4.7132
15059	8.9824	4.5455	5.e-002	1.2128e-005
15060	9.2571	4.5455	0.	-6.8014
15061	9.1655	4.4545	0.	-7.932
15062	9.1655	4.5455	5.e-002	3.5579e-005
15063	9.4402	4.5455	0.	-20.286
15064	9.3487	4.4545	0.	-28.415
15065	9.3487	4.5455	5.e-002	2.6617e-006
15066	9.6234	4.5455	0.	-45.826
15067	9.5318	4.4545	0.	-61.204
15068	9.5318	4.5455	5.e-002	5.7899e-005
15069	9.8065	4.5455	0.	-64.979
15070	9.7149	4.4545	0.	-83.427
15071	9.7149	4.5455	5.e-002	2.3211e-005
15072	9.9897	4.5455	0.	-77.252
15073	9.8981	4.4545	0.	-96.731
15074	9.8981	4.5455	5.e-002	1.6108e-005
15075	10.173	4.5455	0.	-84.724
15076	10.081	4.4545	0.	-104.12
15077	10.081	4.5455	5.e-002	3.709e-005
15078	10.356	4.5455	0.	-88.899
15079	10.264	4.4545	0.	-107.61
15080	10.264	4.5455	5.e-002	9.1808e-006
15081	10.539	4.5455	0.	-90.752
15082	10.448	4.4545	0.	-108.47
15083	10.448	4.5455	5.e-002	4.2478e-005
15084	10.722	4.5455	0.	-90.915
15085	10.631	4.4545	0.	-107.49
15086	10.631	4.5455	5.e-002	2.4168e-006
15087	10.905	4.5455	0.	-89.817
15088	10.814	4.4545	0.	-105.21
15089	10.814	4.5455	5.e-002	9.9406e-006
15090	11.089	4.5455	0.	-87.762
15091	10.997	4.4545	0.	-101.99
15092	10.997	4.5455	5.e-002	-1.2122e-005
15093	11.272	4.5455	0.	-84.979
15094	11.18	4.4545	0.	-98.086
15095	11.18	4.5455	5.e-002	-1.2262e-005
15096	11.455	4.5455	0.	-81.647
15097	11.363	4.4545	0.	-93.703
15098	11.363	4.5455	5.e-002	-3.4603e-006
15099	11.638	4.5455	0.	-77.91
15100	11.546	4.4545	0.	-88.986
15101	11.546	4.5455	5.e-002	5.3247e-007
15102	11.821	4.5455	0.	-73.887
15103	11.73	4.4545	0.	-84.059
15104	11.73	4.5455	5.e-002	-7.5109e-006
15105	12.004	4.5455	0.	-69.679
15106	11.913	4.4545	0.	-79.017
15107	11.913	4.5455	5.e-002	-5.9537e-006
15108	12.187	4.5455	0.	-65.367
15109	12.096	4.4545	0.	-73.94
15110	12.096	4.5455	5.e-002	-2.9046e-006
15111	12.37	4.5455	0.	-61.018
15112	12.279	4.4545	0.	-68.891
15113	12.279	4.5455	5.e-002	-2.0053e-006
15114	12.554	4.5455	0.	-56.688
15115	12.462	4.4545	0.	-63.92
15116	12.462	4.5455	5.e-002	-6.5514e-007
15117	12.737	4.5455	0.	-52.42
15118	12.645	4.4545	0.	-59.067
15119	12.645	4.5455	5.e-002	-3.219e-007
15120	12.92	4.5455	0.	-48.248
15121	12.828	4.4545	0.	-54.36
15122	12.828	4.5455	5.e-002	-1.0677e-006
15123	13.103	4.5455	0.	-44.2
15124	13.011	4.4545	0.	-49.822
15125	13.011	4.5455	5.e-002	-5.9042e-007
15126	13.286	4.5455	0.	-40.292
15127	13.195	4.4545	0.	-45.468
15128	13.195	4.5455	5.e-002	3.589e-008
15129	13.469	4.5455	0.	-36.539
15130	13.378	4.4545	0.	-41.306
15131	13.378	4.5455	5.e-002	-1.483e-007
15132	13.652	4.5455	0.	-32.948
15133	13.561	4.4545	0.	-37.341
15134	13.561	4.5455	5.e-002	5.1428e-007
15135	13.836	4.5455	0.	-29.524
15136	13.744	4.4545	0.	-33.574
15137	13.744	4.5455	5.e-002	-1.6949e-007
15138	14.019	4.5455	0.	-26.266
15139	13.927	4.4545	0.	-30.003
15140	13.927	4.5455	5.e-002	1.1887e-006
15141	14.202	4.5455	0.	-23.173
15142	14.11	4.4545	0.	-26.624
15143	14.11	4.5455	5.e-002	1.5401e-006
15144	14.385	4.5455	0.	-20.241
15145	14.293	4.4545	0.	-23.429
15146	14.293	4.5455	5.e-002	2.2132e-006
15147	14.568	4.5455	0.	-17.463
15148	14.477	4.4545	0.	-20.411
15149	14.477	4.5455	5.e-002	2.1344e-006
15150	14.751	4.5455	0.	-14.834
15151	14.66	4.4545	0.	-17.562
15152	14.66	4.5455	5.e-002	1.7507e-006
15153	14.934	4.5455	0.	-12.346
15154	14.843	4.4545	0.	-14.871
15155	14.843	4.5455	5.e-002	2.256e-006
15156	15.118	4.5455	0.	-9.9888
15157	15.026	4.4545	0.	-12.329
15158	15.026	4.5455	5.e-002	4.0381e-006
15159	15.301	4.5455	0.	-7.7554
15160	15.209	4.4545	0.	-9.9248
15161	15.209	4.5455	5.e-002	3.436e-006
15162	15.484	4.5455	0.	-5.6365
15163	15.392	4.4545	0.	-7.6493
15164	15.392	4.5455	5.e-002	2.9826e-006
15165	15.667	4.5455	0.	-3.6236
15166	15.575	4.4545	0.	-5.4918
15167	15.575	4.5455	5.e-002	1.5038e-006
15168	15.85	4.5455	0.	-1.7117
15169	15.759	4.4545	0.	-3.443
15170	15.759	4.5455	5.e-002	2.5622e-006
15171	16.033	4.5455	0.	-0.105
15172	15.942	4.4545	0.	-1.498
15173	15.942	4.5455	5.e-002	2.8414e-006
15174	16.216	4.5455	0.	-8.7282e-003
15175	16.125	4.4545	0.	-5.1909e-002
15176	16.125	4.5455	5.e-002	1.5126e-006
15177	16.4	4.5455	0.	-2.0569e-003
15178	16.308	4.4545	0.	-5.7335e-003
15179	16.308	4.5455	5.e-002	1.8289e-006
15180	16.583	4.5455	0.	3.6325e-004
15181	16.491	4.4545	0.	-5.2403e-004
15182	16.491	4.5455	5.e-002	8.0112e-007
15183	16.766	4.5455	0.	1.6713e-003
15184	16.674	4.4545	0.	1.5426e-003
15185	16.674	4.5455	5.e-002	2.0438e-006
15186	16.949	4.5455	0.	2.5281e-003
15187	16.857	4.4545	0.	2.7257e-003
15188	16.857	4.5455	5.e-002	3.9631e-006
15189	17.132	4.5455	0.	3.1555e-003
15190	17.041	4.4545	0.	3.5187e-003
15191	17.041	4.5455	5.e-002	4.8384e-006
15192	17.315	4.5455	0.	3.6645e-003
15193	17.224	4.4545	0.	4.1246e-003
15194	17.224	4.5455	5.e-002	4.6819e-006
15195	17.498	4.5455	0.	4.1086e-003
15196	17.407	4.4545	0.	4.6349e-003
15197	17.407	4.5455	5.e-002	6.2557e-006
15198	17.682	4.5455	0.	4.5096e-003
15199	17.59	4.4545	0.	5.0902e-003
15200	17.59	4.5455	5.e-002	5.4997e-006
15201	17.865	4.5455	0.	4.8895e-003
15202	17.773	4.4545	0.	5.5063e-003
15203	17.773	4.5455	5.e-002	4.0327e-006
15204	18.048	4.5455	0.	5.2707e-003
15205	17.956	4.4545	0.	5.9139e-003
15206	17.956	4.5455	5.e-002	5.0916e-006
15207	18.231	4.5455	0.	5.6518e-003
15208	18.139	4.4545	0.	6.331e-003
15209	18.139	4.5455	5.e-002	2.8834e-006
15210	18.414	4.5455	0.	6.0332e-003
15211	18.323	4.4545	0.	6.7411e-003
15212	18.323	4.5455	5.e-002	4.9374e-006
15213	18.597	4.5455	0.	6.4308e-003
15214	18.506	4.4545	0.	7.1585e-003
15215	18.506	4.5455	5.e-002	4.7331e-006
15216	18.78	4.5455	0.	6.8498e-003
15217	18.689	4.4545	0.	7.6025e-003
15218	18.689	4.5455	5.e-002	5.4613e-006
15219	18.964	4.5455	0.	7.2955e-003
15220	18.872	4.4545	0.	8.0665e-003
15221	18.872	4.5455	5.e-002	2.91e-006
15222	19.147	4.5455	0.	7.7754e-003
15223	19.055	4.4545	0.	8.5667e-003
15224	19.055	4.5455	5.e-002	2.3026e-006
15225	19.33	4.5455	0.	8.2864e-003
15226	19.238	4.4545	0.	9.101e-003
15227	19.238	4.5455	5.e-002	2.1996e-006
15228	19.513	4.5455	0.	8.8407e-003
15229	19.421	4.4545	0.	9.6673e-003
15230	19.421	4.5455	5.e-002	2.9875e-006
15231	19.696	4.5455	0.	9.4538e-003
15232	19.605	4.4545	0.	1.0295e-002
15233	19.605	4.5455	5.e-002	3.8984e-006
15234	19.879	4.5455	0.	1.0128e-002
15235	19.788	4.4545	0.	1.0983e-002
15236	19.788	4.5455	5.e-002	4.0514e-006
15237	20.062	4.5455	0.	1.087e-002
15238	19.971	4.4545	0.	1.1736e-002
15239	19.971	4.5455	5.e-002	2.6806e-006
15240	20.246	4.5455	0.	1.1698e-002
15241	20.154	4.4545	0.	1.2568e-002
15242	20.154	4.5455	5.e-002	6.025e-006
15243	20.429	4.5455	0.	1.2628e-002
15244	20.337	4.4545	0.	1.3499e-002
15245	20.337	4.5455	5.e-002	3.4785e-006
15246	20.612	4.5455	0.	1.3669e-002
15247	20.52	4.4545	0.	1.454e-002
15248	20.52	4.5455	5.e-002	6.2392e-006
15249	20.795	4.5455	0.	1.485e-002
15250	20.703	4.4545	0.	1.5702e-002
15251	20.703	4.5455	5.e-002	5.0456e-006
15252	20.978	4.5455	0.	1.6208e-002
15253	20.887	4.4545	0.	1.7032e-002
15254	20.887	4.5455	5.e-002	3.1914e-006
15255	21.161	4.5455	0.	1.7773e-002
15256	21.07	4.4545	0.	1.8555e-002
15257	21.07	4.5455	5.e-002	2.0175e-006
15258	21.344	4.5455	0.	1.9587e-002
15259	21.253	4.4545	0.	2.0304e-002
15260	21.253	4.5455	5.e-002	2.0726e-006
15261	21.528	4.5455	0.	2.1716e-002
15262	21.436	4.4545	0.	2.2338e-002
15263	21.436	4.5455	5.e-002	2.3243e-006
15264	21.711	4.5455	0.	2.4235e-002
15265	21.619	4.4545	0.	2.4726e-002
15266	21.619	4.5455	5.e-002	2.2022e-006
15267	21.894	4.5455	0.	2.7251e-002
15268	21.802	4.4545	0.	2.7554e-002
15269	21.802	4.5455	5.e-002	1.746e-006
15270	22.077	4.5455	0.	3.091e-002
15271	21.985	4.4545	0.	3.0948e-002
15272	21.985	4.5455	5.e-002	2.0613e-006
15273	22.26	4.5455	0.	3.5409e-002
15274	22.169	4.4545	0.	3.5082e-002
15275	22.169	4.5455	5.e-002	1.0996e-007
15276	22.443	4.5455	0.	4.1059e-002
15277	22.352	4.4545	0.	4.0186e-002
15278	22.352	4.5455	5.e-002	5.8531e-006
15279	22.626	4.5455	0.	4.8252e-002
15280	22.535	4.4545	0.	4.6665e-002
15281	22.535	4.5455	5.e-002	4.5568e-006
15282	22.81	4.5455	0.	5.7945e-002
15283	22.718	4.4545	0.	5.4935e-002
15284	22.718	4.5455	5.e-002	-4.1578e-007
15285	22.993	4.5455	0.	7.0498e-002
15286	22.901	4.4545	0.	6.6574e-002
15287	22.901	4.5455	5.e-002	3.368e-006
15288	23.176	4.5455	0.	9.191e-002
15289	23.084	4.4545	0.	8.0891e-002
15290	23.084	4.5455	5.e-002	8.4268e-006
15291	23.359	4.5455	0.	0.11316
15292	23.267	4.4545	0.	0.11102
15293	23.267	4.5455	5.e-002	1.0843e-005
15294	23.542	4.5455	0.	0.2046
15295	23.451	4.4545	0.	0.12703
15296	23.451	4.5455	5.e-002	8.7257e-006
15297	23.725	4.5455	0.	0.19064
15298	23.634	4.4545	0.	0.30547
15299	23.634	4.5455	5.e-002	8.3232e-006
15300	23.817	4.4545	0.	0.16449
15301	23.817	4.5455	5.e-002	9.2507e-006
15302	23.908	4.5455	0.	0.42617
15303	8.3414	4.3636	0.	5.2361
15304	8.2498	4.2727	0.	-69.905
15305	8.2498	4.3636	5.e-002	2.0655e-006
15306	8.1582	4.3636	0.	66.96
15307	8.5245	4.3636	0.	-5.2384
15308	8.433	4.2727	0.	5.0011
15309	8.433	4.3636	5.e-002	3.6292e-005
15310	8.7077	4.3636	0.	-7.1044
15311	8.6161	4.2727	0.	-9.6548
15312	8.6161	4.3636	5.e-002	1.6553e-005
15313	8.8908	4.3636	0.	-4.3345
15314	8.7992	4.2727	0.	-4.0717
15315	8.7992	4.3636	5.e-002	2.8962e-007
15316	9.0739	4.3636	0.	-8.0717
15317	8.9824	4.2727	0.	-8.671
15318	8.9824	4.3636	5.e-002	-1.081e-006
15319	9.2571	4.3636	0.	-31.329
15320	9.1655	4.2727	0.	-38.632
15321	9.1655	4.3636	5.e-002	-7.6195e-006
15322	9.4402	4.3636	0.	-73.056
15323	9.3487	4.2727	0.	-89.189
15324	9.3487	4.3636	5.e-002	1.6524e-005
15325	9.6234	4.3636	0.	-100.41
15326	9.5318	4.2727	0.	-120.9
15327	9.5318	4.3636	5.e-002	1.1883e-005
15328	9.8065	4.3636	0.	-116.01
15329	9.7149	4.2727	0.	-138.37
15330	9.7149	4.3636	5.e-002	3.6903e-005
15331	9.9897	4.3636	0.	-124.05
15332	9.8981	4.2727	0.	-146.78
15333	9.8981	4.3636	5.e-002	5.1587e-006
15334	10.173	4.3636	0.	-127.25
15335	10.081	4.2727	0.	-149.46
15336	10.081	4.3636	5.e-002	2.7433e-005
15337	10.356	4.3636	0.	-127.3
15338	10.264	4.2727	0.	-148.49
15339	10.264	4.3636	5.e-002	-1.5752e-005
15340	10.539	4.3636	0.	-125.25
15341	10.448	4.2727	0.	-145.16
15342	10.448	4.3636	5.e-002	-1.0288e-006
15343	10.722	4.3636	0.	-121.8
15344	10.631	4.2727	0.	-140.31
15345	10.631	4.3636	5.e-002	-2.0854e-006
15346	10.905	4.3636	0.	-117.38
15347	10.814	4.2727	0.	-134.47
15348	10.814	4.3636	5.e-002	1.811e-005
15349	11.089	4.3636	0.	-112.3
15350	10.997	4.2727	0.	-128.01
15351	10.997	4.3636	5.e-002	-3.8681e-006
15352	11.272	4.3636	0.	-106.8
15353	11.18	4.2727	0.	-121.18
15354	11.18	4.3636	5.e-002	9.2774e-006
15355	11.455	4.3636	0.	-101.03
15356	11.363	4.2727	0.	-114.18
15357	11.363	4.3636	5.e-002	-9.407e-006
15358	11.638	4.3636	0.	-95.123
15359	11.546	4.2727	0.	-107.12
15360	11.546	4.3636	5.e-002	3.3804e-006
15361	11.821	4.3636	0.	-89.176
15362	11.73	4.2727	0.	-100.13
15363	11.73	4.3636	5.e-002	2.1758e-007
15364	12.004	4.3636	0.	-83.266
15365	11.913	4.2727	0.	-93.252
15366	11.913	4.3636	5.e-002	-2.734e-006
15367	12.187	4.3636	0.	-77.453
15368	12.096	4.2727	0.	-86.562
15369	12.096	4.3636	5.e-002	-5.9444e-007
15370	12.37	4.3636	0.	-71.782
15371	12.279	4.2727	0.	-80.094
15372	12.279	4.3636	5.e-002	1.1513e-007
15373	12.554	4.3636	0.	-66.288
15374	12.462	4.2727	0.	-73.877
15375	12.462	4.3636	5.e-002	4.2237e-007
15376	12.737	4.3636	0.	-60.995
15377	12.645	4.2727	0.	-67.93
15378	12.645	4.3636	5.e-002	-1.3357e-006
15379	12.92	4.3636	0.	-55.921
15380	12.828	4.2727	0.	-62.263
15381	12.828	4.3636	5.e-002	-5.2664e-007
15382	13.103	4.3636	0.	-51.077
15383	13.011	4.2727	0.	-56.881
15384	13.011	4.3636	5.e-002	-1.1744e-006
15385	13.286	4.3636	0.	-46.468
15386	13.195	4.2727	0.	-51.785
15387	13.195	4.3636	5.e-002	-1.0386e-006
15388	13.469	4.3636	0.	-42.093
15389	13.378	4.2727	0.	-46.969
15390	13.378	4.3636	5.e-002	-7.2611e-007
15391	13.652	4.3636	0.	-37.952
15392	13.561	4.2727	0.	-42.427
15393	13.561	4.3636	5.e-002	-5.0283e-007
15394	13.836	4.3636	0.	-34.038
15395	13.744	4.2727	0.	-38.15
15396	13.744	4.3636	5.e-002	-4.6507e-007
15397	14.019	4.3636	0.	-30.345
15398	13.927	4.2727	0.	-34.127
15399	13.927	4.3636	5.e-002	1.1077e-006
15400	14.202	4.3636	0.	-26.863
15401	14.11	4.2727	0.	-30.345
15402	14.11	4.3636	5.e-002	1.3835e-006
15403	14.385	4.3636	0.	-23.582
15404	14.293	4.2727	0.	-26.79
15405	14.293	4.3636	5.e-002	2.6926e-006
15406	14.568	4.3636	0.	-20.491
15407	14.477	4.2727	0.	-23.451
15408	14.477	4.3636	5.e-002	2.0484e-006
15409	14.751	4.3636	0.	-17.578
15410	14.66	4.2727	0.	-20.312
15411	14.66	4.3636	5.e-002	2.136e-006
15412	14.934	4.3636	0.	-14.833
15413	14.843	4.2727	0.	-17.361
15414	14.843	4.3636	5.e-002	2.4085e-006
15415	15.118	4.3636	0.	-12.243
15416	15.026	4.2727	0.	-14.582
15417	15.026	4.3636	5.e-002	4.0325e-006
15418	15.301	4.3636	0.	-9.7964
15419	15.209	4.2727	0.	-11.964
15420	15.209	4.3636	5.e-002	3.7931e-006
15421	15.484	4.3636	0.	-7.4816
15422	15.392	4.2727	0.	-9.4922
15423	15.392	4.3636	5.e-002	3.1228e-006
15424	15.667	4.3636	0.	-5.2874
15425	15.575	4.2727	0.	-7.1543
15426	15.575	4.3636	5.e-002	1.9516e-006
15427	15.85	4.3636	0.	-3.2034
15428	15.759	4.2727	0.	-4.9382
15429	15.759	4.3636	5.e-002	2.8024e-006
15430	16.033	4.3636	0.	-1.2261
15431	15.942	4.2727	0.	-2.833
15432	15.942	4.3636	5.e-002	2.9443e-006
15433	16.216	4.3636	0.	-2.6184e-002
15434	16.125	4.2727	0.	-0.8397
15435	16.125	4.3636	5.e-002	1.7495e-006
15436	16.4	4.3636	0.	-2.9105e-003
15437	16.308	4.2727	0.	-1.2333e-002
15438	16.308	4.3636	5.e-002	2.5657e-006
15439	16.583	4.3636	0.	1.0356e-003
15440	16.491	4.2727	0.	-3.7152e-004
15441	16.491	4.3636	5.e-002	1.3578e-006
15442	16.766	4.3636	0.	2.7626e-003
15443	16.674	4.2727	0.	2.5197e-003
15444	16.674	4.3636	5.e-002	2.7342e-006
15445	16.949	4.3636	0.	3.798e-003
15446	16.857	4.2727	0.	3.9382e-003
15447	16.857	4.3636	5.e-002	4.7974e-006
15448	17.132	4.3636	0.	4.5269e-003
15449	17.041	4.2727	0.	4.8311e-003
15450	17.041	4.3636	5.e-002	5.7211e-006
15451	17.315	4.3636	0.	5.1085e-003
15452	17.224	4.2727	0.	5.497e-003
15453	17.224	4.3636	5.e-002	5.2028e-006
15454	17.498	4.3636	0.	5.6127e-003
15455	17.407	4.2727	0.	6.0549e-003
15456	17.407	4.3636	5.e-002	6.7414e-006
15457	17.682	4.3636	0.	6.0703e-003
15458	17.59	4.2727	0.	6.551e-003
15459	17.59	4.3636	5.e-002	6.135e-006
15460	17.865	4.3636	0.	6.5039e-003
15461	17.773	4.2727	0.	7.0099e-003
15462	17.773	4.3636	5.e-002	4.9003e-006
15463	18.048	4.3636	0.	6.9388e-003
15464	17.956	4.2727	0.	7.4589e-003
15465	17.956	4.3636	5.e-002	5.6104e-006
15466	18.231	4.3636	0.	7.3773e-003
15467	18.139	4.2727	0.	7.9199e-003
15468	18.139	4.3636	5.e-002	3.3923e-006
15469	18.414	4.3636	0.	7.8165e-003
15470	18.323	4.2727	0.	8.3759e-003
15471	18.323	4.3636	5.e-002	5.4769e-006
15472	18.597	4.3636	0.	8.2736e-003
15473	18.506	4.2727	0.	8.8419e-003
15474	18.506	4.3636	5.e-002	5.7788e-006
15475	18.78	4.3636	0.	8.7559e-003
15476	18.689	4.2727	0.	9.3364e-003
15477	18.689	4.3636	5.e-002	6.3332e-006
15478	18.964	4.3636	0.	9.2678e-003
15479	18.872	4.2727	0.	9.8549e-003
15480	18.872	4.3636	5.e-002	3.6008e-006
15481	19.147	4.3636	0.	9.8157e-003
15482	19.055	4.2727	0.	1.0413e-002
15483	19.055	4.3636	5.e-002	2.5438e-006
15484	19.33	4.3636	0.	1.0398e-002
15485	19.238	4.2727	0.	1.1007e-002
15486	19.238	4.3636	5.e-002	2.6666e-006
15487	19.513	4.3636	0.	1.1031e-002
15488	19.421	4.2727	0.	1.1637e-002
15489	19.421	4.3636	5.e-002	3.2446e-006
15490	19.696	4.3636	0.	1.1726e-002
15491	19.605	4.2727	0.	1.2332e-002
15492	19.605	4.3636	5.e-002	4.3971e-006
15493	19.879	4.3636	0.	1.2484e-002
15494	19.788	4.2727	0.	1.3092e-002
15495	19.788	4.3636	5.e-002	3.8648e-006
15496	20.062	4.3636	0.	1.3318e-002
15497	19.971	4.2727	0.	1.3918e-002
15498	19.971	4.3636	5.e-002	3.1409e-006
15499	20.246	4.3636	0.	1.4242e-002
15500	20.154	4.2727	0.	1.4832e-002
15501	20.154	4.3636	5.e-002	6.8395e-006
15502	20.429	4.3636	0.	1.5273e-002
15503	20.337	4.2727	0.	1.5845e-002
15504	20.337	4.3636	5.e-002	4.5265e-006
15505	20.612	4.3636	0.	1.6423e-002
15506	20.52	4.2727	0.	1.6976e-002
15507	20.52	4.3636	5.e-002	8.3088e-006
15508	20.795	4.3636	0.	1.772e-002
15509	20.703	4.2727	0.	1.8232e-002
15510	20.703	4.3636	5.e-002	5.573e-006
15511	20.978	4.3636	0.	1.9198e-002
15512	20.887	4.2727	0.	1.9661e-002
15513	20.887	4.3636	5.e-002	5.3398e-006
15514	21.161	4.3636	0.	2.0886e-002
15515	21.07	4.2727	0.	2.1285e-002
15516	21.07	4.3636	5.e-002	4.4793e-006
15517	21.344	4.3636	0.	2.2832e-002
15518	21.253	4.2727	0.	2.3142e-002
15519	21.253	4.3636	5.e-002	3.3712e-006
15520	21.528	4.3636	0.	2.5097e-002
15521	21.436	4.2727	0.	2.5286e-002
15522	21.436	4.3636	5.e-002	3.3266e-006
15523	21.711	4.3636	0.	2.7758e-002
15524	21.619	4.2727	0.	2.7787e-002
15525	21.619	4.3636	5.e-002	3.5332e-006
15526	21.894	4.3636	0.	3.0919e-002
15527	21.802	4.2727	0.	3.0732e-002
15528	21.802	4.3636	5.e-002	3.2387e-006
15529	22.077	4.3636	0.	3.4728e-002
15530	21.985	4.2727	0.	3.4244e-002
15531	21.985	4.3636	5.e-002	2.8525e-006
15532	22.26	4.3636	0.	3.9385e-002
15533	22.169	4.2727	0.	3.8503e-002
15534	22.169	4.3636	5.e-002	2.7225e-006
15535	22.443	4.3636	0.	4.5196e-002
15536	22.352	4.2727	0.	4.3734e-002
15537	22.352	4.3636	5.e-002	5.6417e-006
15538	22.626	4.3636	0.	5.2564e-002
15539	22.535	4.2727	0.	5.0348e-002
15540	22.535	4.3636	5.e-002	6.2596e-006
15541	22.81	4.3636	0.	6.2464e-002
15542	22.718	4.2727	0.	5.8777e-002
15543	22.718	4.3636	5.e-002	1.3799e-006
15544	22.993	4.3636	0.	7.5282e-002
15545	22.901	4.2727	0.	7.0616e-002
15546	22.901	4.3636	5.e-002	5.032e-006
15547	23.176	4.3636	0.	9.7088e-002
15548	23.084	4.2727	0.	8.5204e-002
15549	23.084	4.3636	5.e-002	9.1666e-006
15550	23.359	4.3636	0.	0.1189
15551	23.267	4.2727	0.	0.11578
15552	23.267	4.3636	5.e-002	1.0533e-005
15553	23.542	4.3636	0.	0.21174
15554	23.451	4.2727	0.	0.1324
15555	23.451	4.3636	5.e-002	9.5119e-006
15556	23.725	4.3636	0.	0.20143
15557	23.634	4.2727	0.	0.31294
15558	23.634	4.3636	5.e-002	1.2051e-005
15559	23.817	4.2727	0.	0.17851
15560	23.817	4.3636	5.e-002	1.0964e-005
15561	23.908	4.3636	0.	0.43032
15562	8.3414	4.1818	0.	-70.604
15563	8.2498	4.0909	0.	-356.56
15564	8.2498	4.1818	5.e-002	2.3824e-006
15565	8.1582	4.1818	0.	-297.22
15566	8.5245	4.1818	0.	-8.7205e-002
15567	8.433	4.0909	0.	42.626
15568	8.433	4.1818	5.e-002	2.2058e-007
15569	8.7077	4.1818	0.	-6.5103
15570	8.6161	4.0909	0.	-12.253
15571	8.6161	4.1818	5.e-002	-5.8767e-006
15572	8.8908	4.1818	0.	-7.8525
15573	8.7992	4.0909	0.	-5.1993
15574	8.7992	4.1818	5.e-002	1.7855e-006
15575	9.0739	4.1818	0.	-38.676
15576	8.9824	4.0909	0.	-41.819
15577	8.9824	4.1818	5.e-002	-9.0611e-006
15578	9.2571	4.1818	0.	-100.34
15579	9.1655	4.0909	0.	-113.78
15580	9.1655	4.1818	5.e-002	-9.3895e-006
15581	9.4402	4.1818	0.	-139.06
15582	9.3487	4.0909	0.	-158.66
15583	9.3487	4.1818	5.e-002	1.084e-005
15584	9.6234	4.1818	0.	-160.02
15585	9.5318	4.0909	0.	-182.9
15586	9.5318	4.1818	5.e-002	1.341e-006
15587	9.8065	4.1818	0.	-169.8
15588	9.7149	4.0909	0.	-194.07
15589	9.7149	4.1818	5.e-002	-1.8577e-006
15590	9.9897	4.1818	0.	-172.56
15591	9.8981	4.0909	0.	-196.97
15592	9.8981	4.1818	5.e-002	1.5257e-005
15593	10.173	4.1818	0.	-170.9
15594	10.081	4.0909	0.	-194.67
15595	10.081	4.1818	5.e-002	2.5157e-005
15596	10.356	4.1818	0.	-166.46
15597	10.264	4.0909	0.	-189.09
15598	10.264	4.1818	5.e-002	2.115e-005
15599	10.539	4.1818	0.	-160.26
15600	10.448	4.0909	0.	-181.5
15601	10.448	4.1818	5.e-002	6.8754e-006
15602	10.722	4.1818	0.	-153.
15603	10.631	4.0909	0.	-172.71
15604	10.631	4.1818	5.e-002	-1.5207e-005
15605	10.905	4.1818	0.	-145.1
15606	10.814	4.0909	0.	-163.27
15607	10.814	4.1818	5.e-002	2.6875e-006
15608	11.089	4.1818	0.	-136.88
15609	10.997	4.0909	0.	-153.54
15610	10.997	4.1818	5.e-002	-8.8274e-006
15611	11.272	4.1818	0.	-128.55
15612	11.18	4.0909	0.	-143.76
15613	11.18	4.1818	5.e-002	-7.8675e-006
15614	11.455	4.1818	0.	-120.26
15615	11.363	4.0909	0.	-134.12
15616	11.363	4.1818	5.e-002	-6.9207e-006
15617	11.638	4.1818	0.	-112.12
15618	11.546	4.0909	0.	-124.71
15619	11.546	4.1818	5.e-002	-6.7859e-006
15620	11.821	4.1818	0.	-104.19
15621	11.73	4.0909	0.	-115.64
15622	11.73	4.1818	5.e-002	-4.3982e-006
15623	12.004	4.1818	0.	-96.539
15624	11.913	4.0909	0.	-106.93
15625	11.913	4.1818	5.e-002	-8.9231e-007
15626	12.187	4.1818	0.	-89.194
15627	12.096	4.0909	0.	-98.635
15628	12.096	4.1818	5.e-002	-5.8333e-006
15629	12.37	4.1818	0.	-82.181
15630	12.279	4.0909	0.	-90.758
15631	12.279	4.1818	5.e-002	-3.5397e-006
15632	12.554	4.1818	0.	-75.51
15633	12.462	4.0909	0.	-83.308
15634	12.462	4.1818	5.e-002	-1.5273e-006
15635	12.737	4.1818	0.	-69.188
15636	12.645	4.0909	0.	-76.283
15637	12.645	4.1818	5.e-002	-3.1638e-006
15638	12.92	4.1818	0.	-63.212
15639	12.828	4.0909	0.	-69.674
15640	12.828	4.1818	5.e-002	-1.9046e-006
15641	13.103	4.1818	0.	-57.577
15642	13.011	4.0909	0.	-63.469
15643	13.011	4.1818	5.e-002	-1.7386e-006
15644	13.286	4.1818	0.	-52.274
15645	13.195	4.0909	0.	-57.652
15646	13.195	4.1818	5.e-002	-1.0239e-006
15647	13.469	4.1818	0.	-47.29
15648	13.378	4.0909	0.	-52.205
15649	13.378	4.1818	5.e-002	-2.7804e-007
15650	13.652	4.1818	0.	-42.612
15651	13.561	4.0909	0.	-47.11
15652	13.561	4.1818	5.e-002	-6.65e-007
15653	13.836	4.1818	0.	-38.224
15654	13.744	4.0909	0.	-42.345
15655	13.744	4.1818	5.e-002	2.3932e-007
15656	14.019	4.1818	0.	-34.111
15657	13.927	4.0909	0.	-37.891
15658	13.927	4.1818	5.e-002	-1.285e-007
15659	14.202	4.1818	0.	-30.256
15660	14.11	4.0909	0.	-33.729
15661	14.11	4.1818	5.e-002	9.574e-007
15662	14.385	4.1818	0.	-26.642
15663	14.293	4.0909	0.	-29.837
15664	14.293	4.1818	5.e-002	2.2019e-006
15665	14.568	4.1818	0.	-23.254
15666	14.477	4.0909	0.	-26.197
15667	14.477	4.1818	5.e-002	1.7459e-006
15668	14.751	4.1818	0.	-20.075
15669	14.66	4.0909	0.	-22.789
15670	14.66	4.1818	5.e-002	1.9523e-006
15671	14.934	4.1818	0.	-17.09
15672	14.843	4.0909	0.	-19.596
15673	14.843	4.1818	5.e-002	1.9439e-006
15674	15.118	4.1818	0.	-14.282
15675	15.026	4.0909	0.	-16.601
15676	15.026	4.1818	5.e-002	3.6151e-006
15677	15.301	4.1818	0.	-11.638
15678	15.209	4.0909	0.	-13.785
15679	15.209	4.1818	5.e-002	3.1556e-006
15680	15.484	4.1818	0.	-9.1423
15681	15.392	4.0909	0.	-11.134
15682	15.392	4.1818	5.e-002	2.7265e-006
15683	15.667	4.1818	0.	-6.7817
15684	15.575	4.0909	0.	-8.6323
15685	15.575	4.1818	5.e-002	1.0056e-006
15686	15.85	4.1818	0.	-4.5433
15687	15.759	4.0909	0.	-6.265
15688	15.759	4.1818	5.e-002	2.2118e-006
15689	16.033	4.1818	0.	-2.4158
15690	15.942	4.0909	0.	-4.0189
15691	15.942	4.1818	5.e-002	2.5833e-006
15692	16.216	4.1818	0.	-0.41805
15693	16.125	4.0909	0.	-1.8831
15694	16.125	4.1818	5.e-002	1.0934e-006
15695	16.4	4.1818	0.	-4.9496e-003
15696	16.308	4.0909	0.	-6.4012e-002
15697	16.308	4.1818	5.e-002	1.984e-006
15698	16.583	4.1818	0.	1.7855e-003
15699	16.491	4.0909	0.	-3.3715e-004
15700	16.491	4.1818	5.e-002	8.2084e-007
15701	16.766	4.1818	0.	3.9128e-003
15702	16.674	4.0909	0.	3.5938e-003
15703	16.674	4.1818	5.e-002	2.1248e-006
15704	16.949	4.1818	0.	5.0594e-003
15705	16.857	4.0909	0.	5.164e-003
15706	16.857	4.1818	5.e-002	4.3913e-006
15707	17.132	4.1818	0.	5.8351e-003
15708	17.041	4.0909	0.	6.0925e-003
15709	17.041	4.1818	5.e-002	5.2446e-006
15710	17.315	4.1818	0.	6.4489e-003
15711	17.224	4.0909	0.	6.7703e-003
15712	17.224	4.1818	5.e-002	4.8511e-006
15713	17.498	4.1818	0.	6.9813e-003
15714	17.407	4.0909	0.	7.3417e-003
15715	17.407	4.1818	5.e-002	6.764e-006
15716	17.682	4.1818	0.	7.4668e-003
15717	17.59	4.0909	0.	7.8531e-003
15718	17.59	4.1818	5.e-002	5.8165e-006
15719	17.865	4.1818	0.	7.9321e-003
15720	17.773	4.0909	0.	8.33e-003
15721	17.773	4.1818	5.e-002	4.3831e-006
15722	18.048	4.1818	0.	8.3999e-003
15723	17.956	4.0909	0.	8.8023e-003
15724	17.956	4.1818	5.e-002	5.4025e-006
15725	18.231	4.1818	0.	8.872e-003
15726	18.139	4.0909	0.	9.2885e-003
15727	18.139	4.1818	5.e-002	3.0752e-006
15728	18.414	4.1818	0.	9.3492e-003
15729	18.323	4.0909	0.	9.7722e-003
15730	18.323	4.1818	5.e-002	4.5062e-006
15731	18.597	4.1818	0.	9.8472e-003
15732	18.506	4.0909	0.	1.0272e-002
15733	18.506	4.1818	5.e-002	5.3746e-006
15734	18.78	4.1818	0.	1.0373e-002
15735	18.689	4.0909	0.	1.08e-002
15736	18.689	4.1818	5.e-002	5.3687e-006
15737	18.964	4.1818	0.	1.0932e-002
15738	18.872	4.0909	0.	1.1356e-002
15739	18.872	4.1818	5.e-002	2.916e-006
15740	19.147	4.1818	0.	1.153e-002
15741	19.055	4.0909	0.	1.1954e-002
15742	19.055	4.1818	5.e-002	2.3378e-006
15743	19.33	4.1818	0.	1.2166e-002
15744	19.238	4.0909	0.	1.2591e-002
15745	19.238	4.1818	5.e-002	2.4548e-006
15746	19.513	4.1818	0.	1.2853e-002
15747	19.421	4.0909	0.	1.3269e-002
15748	19.421	4.1818	5.e-002	3.0755e-006
15749	19.696	4.1818	0.	1.3607e-002
15750	19.605	4.0909	0.	1.4011e-002
15751	19.605	4.1818	5.e-002	3.9585e-006
15752	19.879	4.1818	0.	1.4428e-002
15753	19.788	4.0909	0.	1.4822e-002
15754	19.788	4.1818	5.e-002	3.2727e-006
15755	20.062	4.1818	0.	1.5326e-002
15756	19.971	4.0909	0.	1.5706e-002
15757	19.971	4.1818	5.e-002	2.2475e-006
15758	20.246	4.1818	0.	1.6321e-002
15759	20.154	4.0909	0.	1.6675e-002
15760	20.154	4.1818	5.e-002	5.9808e-006
15761	20.429	4.1818	0.	1.7425e-002
15762	20.337	4.0909	0.	1.7749e-002
15763	20.337	4.1818	5.e-002	4.1263e-006
15764	20.612	4.1818	0.	1.8651e-002
15765	20.52	4.0909	0.	1.8943e-002
15766	20.52	4.1818	5.e-002	7.0342e-006
15767	20.795	4.1818	0.	2.0028e-002
15768	20.703	4.0909	0.	2.0266e-002
15769	20.703	4.1818	5.e-002	5.2147e-006
15770	20.978	4.1818	0.	2.1588e-002
15771	20.887	4.0909	0.	2.1762e-002
15772	20.887	4.1818	5.e-002	3.3761e-006
15773	21.161	4.1818	0.	2.3364e-002
15774	21.07	4.0909	0.	2.3458e-002
15775	21.07	4.1818	5.e-002	3.4828e-006
15776	21.344	4.1818	0.	2.54e-002
15777	21.253	4.0909	0.	2.5387e-002
15778	21.253	4.1818	5.e-002	3.0126e-006
15779	21.528	4.1818	0.	2.7755e-002
15780	21.436	4.0909	0.	2.7606e-002
15781	21.436	4.1818	5.e-002	3.3586e-006
15782	21.711	4.1818	0.	3.0507e-002
15783	21.619	4.0909	0.	3.0182e-002
15784	21.619	4.1818	5.e-002	2.128e-006
15785	21.894	4.1818	0.	3.3762e-002
15786	21.802	4.0909	0.	3.3202e-002
15787	21.802	4.1818	5.e-002	2.5074e-006
15788	22.077	4.1818	0.	3.7668e-002
15789	21.985	4.0909	0.	3.6792e-002
15790	21.985	4.1818	5.e-002	2.8106e-006
15791	22.26	4.1818	0.	4.2421e-002
15792	22.169	4.0909	0.	4.1127e-002
15793	22.169	4.1818	5.e-002	-4.645e-007
15794	22.443	4.1818	0.	4.8336e-002
15795	22.352	4.0909	0.	4.644e-002
15796	22.352	4.1818	5.e-002	6.3524e-006
15797	22.626	4.1818	0.	5.5824e-002
15798	22.535	4.0909	0.	5.3146e-002
15799	22.535	4.1818	5.e-002	6.0815e-006
15800	22.81	4.1818	0.	6.5874e-002
15801	22.718	4.0909	0.	6.1687e-002
15802	22.718	4.1818	5.e-002	1.4062e-006
15803	22.993	4.1818	0.	7.8892e-002
15804	22.901	4.0909	0.	7.3678e-002
15805	22.901	4.1818	5.e-002	3.0822e-006
15806	23.176	4.1818	0.	0.101
15807	23.084	4.0909	0.	8.848e-002
15808	23.084	4.1818	5.e-002	8.8522e-006
15809	23.359	4.1818	0.	0.12326
15810	23.267	4.0909	0.	0.11941
15811	23.267	4.1818	5.e-002	8.297e-006
15812	23.542	4.1818	0.	0.2172
15813	23.451	4.0909	0.	0.13651
15814	23.451	4.1818	5.e-002	7.5095e-006
15815	23.725	4.1818	0.	0.20986
15816	23.634	4.0909	0.	0.31871
15817	23.634	4.1818	5.e-002	1.2073e-005
15818	23.817	4.0909	0.	0.18971
15819	23.817	4.1818	5.e-002	7.2294e-006
15820	23.908	4.1818	0.	0.4334
15821	8.3414	4.	0.	-241.73
15822	8.2498	3.9091	0.	-241.01
15823	8.2498	4.	5.e-002	1.957e-006
15824	8.1582	4.	0.	-453.04
15825	8.5245	4.	0.	30.177
15826	8.433	3.9091	0.	57.012
15827	8.433	4.	5.e-002	1.0298e-005
15828	8.7077	4.	0.	-9.9285
15829	8.6161	3.9091	0.	-12.028
15830	8.6161	4.	5.e-002	-4.1431e-006
15831	8.8908	4.	0.	-35.727
15832	8.7992	3.9091	0.	-20.866
15833	8.7992	4.	5.e-002	2.4612e-005
15834	9.0739	4.	0.	-120.97
15835	8.9824	3.9091	0.	-121.69
15836	8.9824	4.	5.e-002	-1.4981e-005
15837	9.2571	4.	0.	-174.56
15838	9.1655	3.9091	0.	-185.8
15839	9.1655	4.	5.e-002	-1.4794e-005
15840	9.4402	4.	0.	-204.
15841	9.3487	3.9091	0.	-222.
15842	9.3487	4.	5.e-002	-6.4826e-006
15843	9.6234	4.	0.	-217.85
15844	9.5318	3.9091	0.	-239.73
15845	9.5318	4.	5.e-002	2.2333e-005
15846	9.8065	4.	0.	-221.77
15847	9.7149	3.9091	0.	-245.54
15848	9.7149	4.	5.e-002	9.5029e-006
15849	9.9897	4.	0.	-219.38
15850	9.8981	3.9091	0.	-243.66
15851	9.8981	4.	5.e-002	1.4821e-005
15852	10.173	4.	0.	-213.02
15853	10.081	3.9091	0.	-236.9
15854	10.081	4.	5.e-002	1.8711e-006
15855	10.356	4.	0.	-204.21
15856	10.264	3.9091	0.	-227.12
15857	10.264	4.	5.e-002	5.1186e-007
15858	10.539	4.	0.	-193.98
15859	10.448	3.9091	0.	-215.57
15860	10.448	4.	5.e-002	-7.7679e-006
15861	10.722	4.	0.	-183.
15862	10.631	3.9091	0.	-203.09
15863	10.631	4.	5.e-002	-6.9283e-006
15864	10.905	4.	0.	-171.7
15865	10.814	3.9091	0.	-190.25
15866	10.814	4.	5.e-002	-6.4523e-006
15867	11.089	4.	0.	-160.41
15868	10.997	3.9091	0.	-177.42
15869	10.997	4.	5.e-002	-1.1018e-005
15870	11.272	4.	0.	-149.32
15871	11.18	3.9091	0.	-164.84
15872	11.18	4.	5.e-002	-1.1233e-005
15873	11.455	4.	0.	-138.56
15874	11.363	3.9091	0.	-152.68
15875	11.363	4.	5.e-002	-1.1525e-005
15876	11.638	4.	0.	-128.23
15877	11.546	3.9091	0.	-141.05
15878	11.546	4.	5.e-002	-1.4828e-006
15879	11.821	4.	0.	-118.37
15880	11.73	3.9091	0.	-130.
15881	11.73	4.	5.e-002	-2.21e-006
15882	12.004	4.	0.	-109.02
15883	11.913	3.9091	0.	-119.55
15884	11.913	4.	5.e-002	-4.0365e-006
15885	12.187	4.	0.	-100.19
15886	12.096	3.9091	0.	-109.73
15887	12.096	4.	5.e-002	-4.0059e-006
15888	12.37	4.	0.	-91.879
15889	12.279	3.9091	0.	-100.52
15890	12.279	4.	5.e-002	-1.0106e-006
15891	12.554	4.	0.	-84.074
15892	12.462	3.9091	0.	-91.911
15893	12.462	4.	5.e-002	-1.6114e-006
15894	12.737	4.	0.	-76.761
15895	12.645	3.9091	0.	-83.874
15896	12.645	4.	5.e-002	-2.6037e-006
15897	12.92	4.	0.	-69.922
15898	12.828	3.9091	0.	-76.383
15899	12.828	4.	5.e-002	-3.2362e-006
15900	13.103	4.	0.	-63.534
15901	13.011	3.9091	0.	-69.409
15902	13.011	4.	5.e-002	-2.4033e-006
15903	13.286	4.	0.	-57.573
15904	13.195	3.9091	0.	-62.922
15905	13.195	4.	5.e-002	-1.1709e-006
15906	13.469	4.	0.	-52.013
15907	13.378	3.9091	0.	-56.891
15908	13.378	4.	5.e-002	-6.8063e-007
15909	13.652	4.	0.	-46.83
15910	13.561	3.9091	0.	-51.284
15911	13.561	4.	5.e-002	-1.2108e-007
15912	13.836	4.	0.	-41.999
15913	13.744	3.9091	0.	-46.072
15914	13.744	4.	5.e-002	-4.6184e-008
15915	14.019	4.	0.	-37.495
15916	13.927	3.9091	0.	-41.225
15917	13.927	4.	5.e-002	1.7558e-006
15918	14.202	4.	0.	-33.294
15919	14.11	3.9091	0.	-36.716
15920	14.11	4.	5.e-002	1.6365e-006
15921	14.385	4.	0.	-29.375
15922	14.293	3.9091	0.	-32.518
15923	14.293	4.	5.e-002	2.21e-006
15924	14.568	4.	0.	-25.714
15925	14.477	3.9091	0.	-28.606
15926	14.477	4.	5.e-002	2.9359e-006
15927	14.751	4.	0.	-22.292
15928	14.66	3.9091	0.	-24.957
15929	14.66	4.	5.e-002	2.6822e-006
15930	14.934	4.	0.	-19.088
15931	14.843	3.9091	0.	-21.548
15932	14.843	4.	5.e-002	2.7717e-006
15933	15.118	4.	0.	-16.083
15934	15.026	3.9091	0.	-18.358
15935	15.026	4.	5.e-002	4.6652e-006
15936	15.301	4.	0.	-13.26
15937	15.209	3.9091	0.	-15.368
15938	15.209	4.	5.e-002	4.4843e-006
15939	15.484	4.	0.	-10.602
15940	15.392	3.9091	0.	-12.558
15941	15.392	4.	5.e-002	3.6405e-006
15942	15.667	4.	0.	-8.0925
15943	15.575	3.9091	0.	-9.9111
15944	15.575	4.	5.e-002	2.1564e-006
15945	15.85	4.	0.	-5.7166
15946	15.759	3.9091	0.	-7.4109
15947	15.759	4.	5.e-002	3.4006e-006
15948	16.033	4.	0.	-3.4605
15949	15.942	3.9091	0.	-5.0418
15950	15.942	4.	5.e-002	3.476e-006
15951	16.216	4.	0.	-1.3144
15952	16.125	3.9091	0.	-2.7897
15953	16.125	4.	5.e-002	2.1642e-006
15954	16.4	4.	0.	-1.1184e-002
15955	16.308	3.9091	0.	-0.65152
15956	16.308	4.	5.e-002	3.1634e-006
15957	16.583	4.	0.	2.6611e-003
15958	16.491	3.9091	0.	-5.0413e-004
15959	16.491	4.	5.e-002	2.0074e-006
15960	16.766	4.	0.	5.1117e-003
15961	16.674	3.9091	0.	4.773e-003
15962	16.674	4.	5.e-002	3.6983e-006
15963	16.949	4.	0.	6.2832e-003
15964	16.857	3.9091	0.	6.372e-003
15965	16.857	4.	5.e-002	5.8111e-006
15966	17.132	4.	0.	7.0516e-003
15967	17.041	3.9091	0.	7.2662e-003
15968	17.041	4.	5.e-002	6.9785e-006
15969	17.315	4.	0.	7.6584e-003
15970	17.224	3.9091	0.	7.9167e-003
15971	17.224	4.	5.e-002	6.3519e-006
15972	17.498	4.	0.	8.1927e-003
15973	17.407	3.9091	0.	8.4715e-003
15974	17.407	4.	5.e-002	7.9464e-006
15975	17.682	4.	0.	8.6853e-003
15976	17.59	3.9091	0.	8.9778e-003
15977	17.59	4.	5.e-002	7.2411e-006
15978	17.865	4.	0.	9.1618e-003
15979	17.773	3.9091	0.	9.457e-003
15980	17.773	4.	5.e-002	6.1827e-006
15981	18.048	4.	0.	9.6468e-003
15982	17.956	3.9091	0.	9.9365e-003
15983	17.956	4.	5.e-002	6.456e-006
15984	18.231	4.	0.	1.014e-002
15985	18.139	3.9091	0.	1.0437e-002
15986	18.139	4.	5.e-002	4.6021e-006
15987	18.414	4.	0.	1.0641e-002
15988	18.323	3.9091	0.	1.0937e-002
15989	18.323	4.	5.e-002	5.796e-006
15990	18.597	4.	0.	1.1167e-002
15991	18.506	3.9091	0.	1.1457e-002
15992	18.506	4.	5.e-002	6.8122e-006
15993	18.78	4.	0.	1.1722e-002
15994	18.689	3.9091	0.	1.2008e-002
15995	18.689	4.	5.e-002	7.0019e-006
15996	18.964	4.	0.	1.2313e-002
15997	18.872	3.9091	0.	1.259e-002
15998	18.872	4.	5.e-002	4.2911e-006
15999	19.147	4.	0.	1.2945e-002
16000	19.055	3.9091	0.	1.3216e-002
16001	19.055	4.	5.e-002	2.798e-006
16002	19.33	4.	0.	1.3619e-002
16003	19.238	3.9091	0.	1.3883e-002
16004	19.238	4.	5.e-002	3.1411e-006
16005	19.513	4.	0.	1.4347e-002
16006	19.421	3.9091	0.	1.4594e-002
16007	19.421	4.	5.e-002	4.2513e-006
16008	19.696	4.	0.	1.5142e-002
16009	19.605	3.9091	0.	1.5371e-002
16010	19.605	4.	5.e-002	5.4513e-006
16011	19.879	4.	0.	1.601e-002
16012	19.788	3.9091	0.	1.6219e-002
16013	19.788	4.	5.e-002	5.4168e-006
16014	20.062	4.	0.	1.6958e-002
16015	19.971	3.9091	0.	1.7142e-002
16016	19.971	4.	5.e-002	4.7923e-006
16017	20.246	4.	0.	1.7999e-002
16018	20.154	3.9091	0.	1.8153e-002
16019	20.154	4.	5.e-002	7.9505e-006
16020	20.429	4.	0.	1.9156e-002
16021	20.337	3.9091	0.	1.9271e-002
16022	20.337	4.	5.e-002	5.6358e-006
16023	20.612	4.	0.	2.0437e-002
16024	20.52	3.9091	0.	2.0508e-002
16025	20.52	4.	5.e-002	9.4199e-006
16026	20.795	4.	0.	2.1869e-002
16027	20.703	3.9091	0.	2.1879e-002
16028	20.703	4.	5.e-002	7.6911e-006
16029	20.978	4.	0.	2.3488e-002
16030	20.887	3.9091	0.	2.3423e-002
16031	20.887	4.	5.e-002	6.3533e-006
16032	21.161	4.	0.	2.5322e-002
16033	21.07	3.9091	0.	2.5166e-002
16034	21.07	4.	5.e-002	5.4718e-006
16035	21.344	4.	0.	2.7417e-002
16036	21.253	3.9091	0.	2.7145e-002
16037	21.253	4.	5.e-002	4.751e-006
16038	21.528	4.	0.	2.9833e-002
16039	21.436	3.9091	0.	2.9413e-002
16040	21.436	4.	5.e-002	5.3617e-006
16041	21.711	4.	0.	3.2647e-002
16042	21.619	3.9091	0.	3.2037e-002
16043	21.619	4.	5.e-002	4.5933e-006
16044	21.894	4.	0.	3.5963e-002
16045	21.802	3.9091	0.	3.5108e-002
16046	21.802	4.	5.e-002	6.4039e-006
16047	22.077	4.	0.	3.9927e-002
16048	21.985	3.9091	0.	3.8745e-002
16049	21.985	4.	5.e-002	6.6955e-006
16050	22.26	4.	0.	4.4743e-002
16051	22.169	3.9091	0.	4.313e-002
16052	22.169	4.	5.e-002	2.4859e-006
16053	22.443	4.	0.	5.073e-002
16054	22.352	3.9091	0.	4.8499e-002
16055	22.352	4.	5.e-002	6.9972e-006
16056	22.626	4.	0.	5.8302e-002
16057	22.535	3.9091	0.	5.5269e-002
16058	22.535	4.	5.e-002	6.8403e-006
16059	22.81	4.	0.	6.8464e-002
16060	22.718	3.9091	0.	6.3893e-002
16061	22.718	4.	5.e-002	3.9417e-006
16062	22.993	4.	0.	8.164e-002
16063	22.901	3.9091	0.	7.6e-002
16064	22.901	4.	5.e-002	5.7177e-006
16065	23.176	4.	0.	0.10399
16066	23.084	3.9091	0.	9.0968e-002
16067	23.084	4.	5.e-002	1.1365e-005
16068	23.359	4.	0.	0.1266
16069	23.267	3.9091	0.	0.12218
16070	23.267	4.	5.e-002	1.3527e-005
16071	23.542	4.	0.	0.22142
16072	23.451	3.9091	0.	0.13966
16073	23.451	4.	5.e-002	1.0968e-005
16074	23.725	4.	0.	0.21649
16075	23.634	3.9091	0.	0.32317
16076	23.634	4.	5.e-002	1.0089e-005
16077	23.817	3.9091	0.	0.1986
16078	23.817	4.	5.e-002	1.2481e-005
16079	23.908	4.	0.	0.43572
16080	8.3414	3.8182	0.	14.996
16081	8.2498	3.7273	0.	-11.009
16082	8.2498	3.8182	5.e-002	3.4377e-005
16083	8.5245	3.8182	0.	14.445
16084	8.433	3.7273	0.	13.388
16085	8.433	3.8182	5.e-002	1.0429e-005
16086	8.7077	3.8182	0.	-5.17
16087	8.6161	3.7273	0.	-7.8923e-002
16088	8.6161	3.8182	5.e-002	1.456e-005
16089	8.8908	3.8182	0.	-108.4
16090	8.7992	3.7273	0.	-70.307
16091	8.7992	3.8182	5.e-002	3.395e-006
16092	9.0739	3.8182	0.	-188.75
16093	8.9824	3.7273	0.	-175.09
16094	8.9824	3.8182	5.e-002	-6.778e-006
16095	9.2571	3.8182	0.	-234.79
16096	9.1655	3.7273	0.	-236.8
16097	9.1655	3.8182	5.e-002	-7.8899e-006
16098	9.4402	3.8182	0.	-258.75
16099	9.3487	3.7273	0.	-270.66
16100	9.3487	3.8182	5.e-002	-1.7436e-005
16101	9.6234	3.8182	0.	-268.06
16102	9.5318	3.7273	0.	-285.88
16103	9.5318	3.8182	5.e-002	-1.2648e-005
16104	9.8065	3.8182	0.	-267.81
16105	9.7149	3.7273	0.	-288.84
16106	9.7149	3.8182	5.e-002	-8.1162e-006
16107	9.9897	3.8182	0.	-261.39
16108	9.8981	3.7273	0.	-283.81
16109	9.8981	3.8182	5.e-002	-1.2229e-005
16110	10.173	3.8182	0.	-251.11
16111	10.081	3.7273	0.	-273.71
16112	10.081	3.8182	5.e-002	-3.0147e-006
16113	10.356	3.8182	0.	-238.53
16114	10.264	3.7273	0.	-260.53
16115	10.264	3.8182	5.e-002	-9.912e-006
16116	10.539	3.8182	0.	-224.71
16117	10.448	3.7273	0.	-245.66
16118	10.448	3.8182	5.e-002	-9.1669e-006
16119	10.722	3.8182	0.	-210.36
16120	10.631	3.7273	0.	-229.99
16121	10.631	3.8182	5.e-002	-4.3015e-006
16122	10.905	3.8182	0.	-195.96
16123	10.814	3.7273	0.	-214.16
16124	10.814	3.8182	5.e-002	-2.3351e-006
16125	11.089	3.8182	0.	-181.84
16126	10.997	3.7273	0.	-198.57
16127	10.997	3.8182	5.e-002	-7.7771e-006
16128	11.272	3.8182	0.	-168.2
16129	11.18	3.7273	0.	-183.49
16130	11.18	3.8182	5.e-002	-9.091e-006
16131	11.455	3.8182	0.	-155.16
16132	11.363	3.7273	0.	-169.09
16133	11.363	3.8182	5.e-002	-6.8782e-006
16134	11.638	3.8182	0.	-142.81
16135	11.546	3.7273	0.	-155.45
16136	11.546	3.8182	5.e-002	-9.3583e-006
16137	11.821	3.8182	0.	-131.17
16138	11.73	3.7273	0.	-142.63
16139	11.73	3.8182	5.e-002	-7.1444e-006
16140	12.004	3.8182	0.	-120.26
16141	11.913	3.7273	0.	-130.63
16142	11.913	3.8182	5.e-002	-4.1403e-006
16143	12.187	3.8182	0.	-110.06
16144	12.096	3.7273	0.	-119.45
16145	12.096	3.8182	5.e-002	-5.8877e-006
16146	12.37	3.8182	0.	-100.55
16147	12.279	3.7273	0.	-109.05
16148	12.279	3.8182	5.e-002	-4.4717e-006
16149	12.554	3.8182	0.	-91.705
16150	12.462	3.7273	0.	-99.4
16151	12.462	3.8182	5.e-002	-1.1857e-006
16152	12.737	3.8182	0.	-83.487
16153	12.645	3.7273	0.	-90.461
16154	12.645	3.8182	5.e-002	-1.5443e-006
16155	12.92	3.8182	0.	-75.861
16156	12.828	3.7273	0.	-82.186
16157	12.828	3.8182	5.e-002	-5.2541e-007
16158	13.103	3.8182	0.	-68.788
16159	13.011	3.7273	0.	-74.532
16160	13.011	3.8182	5.e-002	-3.4441e-006
16161	13.286	3.8182	0.	-62.23
16162	13.195	3.7273	0.	-67.454
16163	13.195	3.8182	5.e-002	-1.2437e-006
16164	13.469	3.8182	0.	-56.151
16165	13.378	3.7273	0.	-60.908
16166	13.378	3.8182	5.e-002	-1.4241e-006
16167	13.652	3.8182	0.	-50.513
16168	13.561	3.7273	0.	-54.852
16169	13.561	3.8182	5.e-002	-4.8245e-007
16170	13.836	3.8182	0.	-45.285
16171	13.744	3.7273	0.	-49.248
16172	13.744	3.8182	5.e-002	-1.1492e-006
16173	14.019	3.8182	0.	-40.432
16174	13.927	3.7273	0.	-44.058
16175	13.927	3.8182	5.e-002	8.3779e-007
16176	14.202	3.8182	0.	-35.924
16177	14.11	3.7273	0.	-39.248
16178	14.11	3.8182	5.e-002	1.2115e-006
16179	14.385	3.8182	0.	-31.733
16180	14.293	3.7273	0.	-34.785
16181	14.293	3.8182	5.e-002	1.9488e-006
16182	14.568	3.8182	0.	-27.832
16183	14.477	3.7273	0.	-30.639
16184	14.477	3.8182	5.e-002	1.8164e-006
16185	14.751	3.8182	0.	-24.195
16186	14.66	3.7273	0.	-26.782
16187	14.66	3.8182	5.e-002	1.4893e-006
16188	14.934	3.8182	0.	-20.799
16189	14.843	3.7273	0.	-23.188
16190	14.843	3.8182	5.e-002	2.0311e-006
16191	15.118	3.8182	0.	-17.623
16192	15.026	3.7273	0.	-19.832
16193	15.026	3.8182	5.e-002	4.0006e-006
16194	15.301	3.8182	0.	-14.644
16195	15.209	3.7273	0.	-16.692
16196	15.209	3.8182	5.e-002	3.0482e-006
16197	15.484	3.8182	0.	-11.845
16198	15.392	3.7273	0.	-13.747
16199	15.392	3.8182	5.e-002	2.2411e-006
16200	15.667	3.8182	0.	-9.2068
16201	15.575	3.7273	0.	-10.978
16202	15.575	3.8182	5.e-002	8.2944e-007
16203	15.85	3.8182	0.	-6.7125
16204	15.759	3.7273	0.	-8.365
16205	15.759	3.8182	5.e-002	2.0974e-006
16206	16.033	3.8182	0.	-4.3463
16207	15.942	3.7273	0.	-5.8922
16208	15.942	3.8182	5.e-002	2.4597e-006
16209	16.216	3.8182	0.	-2.0944
16210	16.125	3.7273	0.	-3.5434
16211	16.125	3.8182	5.e-002	1.0683e-006
16212	16.4	3.8182	0.	-6.7619e-002
16213	16.308	3.7273	0.	-1.3055
16214	16.308	3.8182	5.e-002	1.924e-006
16215	16.583	3.8182	0.	3.7212e-003
16216	16.491	3.7273	0.	-1.1094e-003
16217	16.491	3.8182	5.e-002	8.1774e-007
16218	16.766	3.8182	0.	6.3288e-003
16219	16.674	3.7273	0.	6.0384e-003
16220	16.674	3.8182	5.e-002	2.515e-006
16221	16.949	3.8182	0.	7.4268e-003
16222	16.857	3.7273	0.	7.5148e-003
16223	16.857	3.8182	5.e-002	4.5184e-006
16224	17.132	3.8182	0.	8.1401e-003
16225	17.041	3.7273	0.	8.3119e-003
16226	17.041	3.8182	5.e-002	5.7587e-006
16227	17.315	3.8182	0.	8.7129e-003
16228	17.224	3.7273	0.	8.9049e-003
16229	17.224	3.8182	5.e-002	5.5182e-006
16230	17.498	3.8182	0.	9.2266e-003
16231	17.407	3.7273	0.	9.4247e-003
16232	17.407	3.8182	5.e-002	7.066e-006
16233	17.682	3.8182	0.	9.7116e-003
16234	17.59	3.7273	0.	9.9132e-003
16235	17.59	3.8182	5.e-002	6.0523e-006
16236	17.865	3.8182	0.	1.0188e-002
16237	17.773	3.7273	0.	1.0385e-002
16238	17.773	3.8182	5.e-002	4.7459e-006
16239	18.048	3.8182	0.	1.0679e-002
16240	17.956	3.7273	0.	1.0863e-002
16241	17.956	3.8182	5.e-002	5.2514e-006
16242	18.231	3.8182	0.	1.1183e-002
16243	18.139	3.7273	0.	1.1368e-002
16244	18.139	3.8182	5.e-002	3.0094e-006
16245	18.414	3.8182	0.	1.1699e-002
16246	18.323	3.7273	0.	1.1877e-002
16247	18.323	3.8182	5.e-002	4.5792e-006
16248	18.597	3.8182	0.	1.2241e-002
16249	18.506	3.7273	0.	1.2408e-002
16250	18.506	3.8182	5.e-002	5.1065e-006
16251	18.78	3.8182	0.	1.2816e-002
16252	18.689	3.7273	0.	1.2975e-002
16253	18.689	3.8182	5.e-002	5.5475e-006
16254	18.964	3.8182	0.	1.343e-002
16255	18.872	3.7273	0.	1.3573e-002
16256	18.872	3.8182	5.e-002	2.8633e-006
16257	19.147	3.8182	0.	1.4086e-002
16258	19.055	3.7273	0.	1.4219e-002
16259	19.055	3.8182	5.e-002	1.8222e-006
16260	19.33	3.8182	0.	1.4786e-002
16261	19.238	3.7273	0.	1.4907e-002
16262	19.238	3.8182	5.e-002	1.777e-006
16263	19.513	3.8182	0.	1.5542e-002
16264	19.421	3.7273	0.	1.564e-002
16265	19.421	3.8182	5.e-002	3.3614e-006
16266	19.696	3.8182	0.	1.6369e-002
16267	19.605	3.7273	0.	1.6442e-002
16268	19.605	3.8182	5.e-002	4.0339e-006
16269	19.879	3.8182	0.	1.7267e-002
16270	19.788	3.7273	0.	1.7318e-002
16271	19.788	3.8182	5.e-002	4.0201e-006
16272	20.062	3.8182	0.	1.8248e-002
16273	19.971	3.7273	0.	1.8265e-002
16274	19.971	3.8182	5.e-002	2.9518e-006
16275	20.246	3.8182	0.	1.9329e-002
16276	20.154	3.7273	0.	1.9308e-002
16277	20.154	3.8182	5.e-002	6.6144e-006
16278	20.429	3.8182	0.	2.0521e-002
16279	20.337	3.7273	0.	2.0456e-002
16280	20.337	3.8182	5.e-002	4.7284e-006
16281	20.612	3.8182	0.	2.1839e-002
16282	20.52	3.7273	0.	2.1725e-002
16283	20.52	3.8182	5.e-002	8.1205e-006
16284	20.795	3.8182	0.	2.3312e-002
16285	20.703	3.7273	0.	2.3128e-002
16286	20.703	3.8182	5.e-002	6.7612e-006
16287	20.978	3.8182	0.	2.4969e-002
16288	20.887	3.7273	0.	2.4704e-002
16289	20.887	3.8182	5.e-002	5.4012e-006
16290	21.161	3.8182	0.	2.6842e-002
16291	21.07	3.7273	0.	2.6479e-002
16292	21.07	3.8182	5.e-002	4.0066e-006
16293	21.344	3.8182	0.	2.8978e-002
16294	21.253	3.7273	0.	2.8492e-002
16295	21.253	3.8182	5.e-002	3.8872e-006
16296	21.528	3.8182	0.	3.1432e-002
16297	21.436	3.7273	0.	3.0791e-002
16298	21.436	3.8182	5.e-002	2.8676e-006
16299	21.711	3.8182	0.	3.4284e-002
16300	21.619	3.7273	0.	3.3447e-002
16301	21.619	3.8182	5.e-002	2.7185e-006
16302	21.894	3.8182	0.	3.7638e-002
16303	21.802	3.7273	0.	3.6547e-002
16304	21.802	3.8182	5.e-002	3.7109e-006
16305	22.077	3.8182	0.	4.1643e-002
16306	21.985	3.7273	0.	4.0216e-002
16307	21.985	3.8182	5.e-002	3.8237e-006
16308	22.26	3.8182	0.	4.6502e-002
16309	22.169	3.7273	0.	4.4636e-002
16310	22.169	3.8182	5.e-002	-3.8653e-007
16311	22.443	3.8182	0.	5.2537e-002
16312	22.352	3.7273	0.	5.004e-002
16313	22.352	3.8182	5.e-002	4.9471e-006
16314	22.626	3.8182	0.	6.0172e-002
16315	22.535	3.7273	0.	5.6859e-002
16316	22.535	3.8182	5.e-002	5.7448e-006
16317	22.81	3.8182	0.	7.0418e-002
16318	22.718	3.7273	0.	6.5544e-002
16319	22.718	3.8182	5.e-002	1.7992e-006
16320	22.993	3.8182	0.	8.3713e-002
16321	22.901	3.7273	0.	7.7741e-002
16322	22.901	3.8182	5.e-002	3.6618e-006
16323	23.176	3.8182	0.	0.10626
16324	23.084	3.7273	0.	9.2838e-002
16325	23.084	3.8182	5.e-002	9.0868e-006
16326	23.359	3.8182	0.	0.12914
16327	23.267	3.7273	0.	0.12426
16328	23.267	3.8182	5.e-002	1.1217e-005
16329	23.542	3.8182	0.	0.22464
16330	23.451	3.7273	0.	0.14204
16331	23.451	3.8182	5.e-002	8.6973e-006
16332	23.725	3.8182	0.	0.22163
16333	23.634	3.7273	0.	0.32657
16334	23.634	3.8182	5.e-002	7.9593e-006
16335	23.817	3.7273	0.	0.20553
16336	23.817	3.8182	5.e-002	6.6039e-006
16337	23.908	3.8182	0.	0.43747
16338	8.3414	3.6364	0.	-13.346
16339	8.2498	3.5455	0.	-6.2945
16340	8.2498	3.6364	5.e-002	2.5179e-005
16341	8.5245	3.6364	0.	-2.1056
16342	8.433	3.5455	0.	-4.2919
16343	8.433	3.6364	5.e-002	2.3412e-005
16344	8.7077	3.6364	0.	-0.13079
16345	8.6161	3.5455	0.	2.4005
16346	8.6161	3.6364	5.e-002	1.9783e-005
16347	8.8908	3.6364	0.	-136.63
16348	8.7992	3.5455	0.	-74.389
16349	8.7992	3.6364	5.e-002	1.1361e-005
16350	9.0739	3.6364	0.	-223.6
16351	8.9824	3.5455	0.	-192.65
16352	8.9824	3.6364	5.e-002	1.2489e-005
16353	9.2571	3.6364	0.	-273.24
16354	9.1655	3.5455	0.	-263.34
16355	9.1655	3.6364	5.e-002	-7.7192e-006
16356	9.4402	3.6364	0.	-298.26
16357	9.3487	3.5455	0.	-301.9
16358	9.3487	3.6364	5.e-002	-9.1104e-006
16359	9.6234	3.6364	0.	-306.99
16360	9.5318	3.5455	0.	-318.96
16361	9.5318	3.6364	5.e-002	-1.458e-005
16362	9.8065	3.6364	0.	-305.04
16363	9.7149	3.5455	0.	-321.82
16364	9.7149	3.6364	5.e-002	-1.1509e-005
16365	9.9897	3.6364	0.	-296.24
16366	9.8981	3.5455	0.	-315.47
16367	9.8981	3.6364	5.e-002	-3.3193e-006
16368	10.173	3.6364	0.	-283.19
16369	10.081	3.5455	0.	-303.34
16370	10.081	3.6364	5.e-002	-1.0783e-005
16371	10.356	3.6364	0.	-267.69
16372	10.264	3.5455	0.	-287.77
16373	10.264	3.6364	5.e-002	-2.5572e-006
16374	10.539	3.6364	0.	-250.95
16375	10.448	3.5455	0.	-270.35
16376	10.448	3.6364	5.e-002	-1.173e-005
16377	10.722	3.6364	0.	-233.79
16378	10.631	3.5455	0.	-252.16
16379	10.631	3.6364	5.e-002	-1.3169e-005
16380	10.905	3.6364	0.	-216.76
16381	10.814	3.5455	0.	-233.9
16382	10.814	3.6364	5.e-002	-1.1175e-005
16383	11.089	3.6364	0.	-200.22
16384	10.997	3.5455	0.	-216.05
16385	10.997	3.6364	5.e-002	-8.1296e-006
16386	11.272	3.6364	0.	-184.38
16387	11.18	3.5455	0.	-198.91
16388	11.18	3.6364	5.e-002	-6.23e-006
16389	11.455	3.6364	0.	-169.38
16390	11.363	3.5455	0.	-182.64
16391	11.363	3.6364	5.e-002	-7.7147e-006
16392	11.638	3.6364	0.	-155.27
16393	11.546	3.5455	0.	-167.33
16394	11.546	3.6364	5.e-002	-8.8759e-006
16395	11.821	3.6364	0.	-142.09
16396	11.73	3.5455	0.	-153.04
16397	11.73	3.6364	5.e-002	-4.4973e-006
16398	12.004	3.6364	0.	-129.82
16399	11.913	3.5455	0.	-139.74
16400	11.913	3.6364	5.e-002	-5.0522e-006
16401	12.187	3.6364	0.	-118.43
16402	12.096	3.5455	0.	-127.42
16403	12.096	3.6364	5.e-002	-4.3093e-006
16404	12.37	3.6364	0.	-107.89
16405	12.279	3.5455	0.	-116.03
16406	12.279	3.6364	5.e-002	-2.9344e-006
16407	12.554	3.6364	0.	-98.15
16408	12.462	3.5455	0.	-105.52
16409	12.462	3.6364	5.e-002	-3.4839e-006
16410	12.737	3.6364	0.	-89.153
16411	12.645	3.5455	0.	-95.83
16412	12.645	3.6364	5.e-002	-2.7879e-006
16413	12.92	3.6364	0.	-80.851
16414	12.828	3.5455	0.	-86.906
16415	12.828	3.6364	5.e-002	-1.1839e-006
16416	13.103	3.6364	0.	-73.19
16417	13.011	3.5455	0.	-78.689
16418	13.011	3.6364	5.e-002	-2.5865e-006
16419	13.286	3.6364	0.	-66.122
16420	13.195	3.5455	0.	-71.122
16421	13.195	3.6364	5.e-002	-1.4913e-006
16422	13.469	3.6364	0.	-59.599
16423	13.378	3.5455	0.	-64.152
16424	13.378	3.6364	5.e-002	-2.3447e-007
16425	13.652	3.6364	0.	-53.576
16426	13.561	3.5455	0.	-57.727
16427	13.561	3.6364	5.e-002	-7.011e-007
16428	13.836	3.6364	0.	-48.01
16429	13.744	3.5455	0.	-51.802
16430	13.744	3.6364	5.e-002	-3.2007e-007
16431	14.019	3.6364	0.	-42.861
16432	13.927	3.5455	0.	-46.332
16433	13.927	3.6364	5.e-002	3.1975e-007
16434	14.202	3.6364	0.	-38.095
16435	14.11	3.5455	0.	-41.276
16436	14.11	3.6364	5.e-002	7.0907e-007
16437	14.385	3.6364	0.	-33.675
16438	14.293	3.5455	0.	-36.597
16439	14.293	3.6364	5.e-002	2.2335e-006
16440	14.568	3.6364	0.	-29.572
16441	14.477	3.5455	0.	-32.26
16442	14.477	3.6364	5.e-002	2.2622e-006
16443	14.751	3.6364	0.	-25.757
16444	14.66	3.5455	0.	-28.235
16445	14.66	3.6364	5.e-002	1.5651e-006
16446	14.934	3.6364	0.	-22.201
16447	14.843	3.5455	0.	-24.49
16448	14.843	3.6364	5.e-002	2.5368e-006
16449	15.118	3.6364	0.	-18.881
16450	15.026	3.5455	0.	-21.001
16451	15.026	3.6364	5.e-002	3.773e-006
16452	15.301	3.6364	0.	-15.774
16453	15.209	3.5455	0.	-17.741
16454	15.209	3.6364	5.e-002	3.0664e-006
16455	15.484	3.6364	0.	-12.858
16456	15.392	3.5455	0.	-14.688
16457	15.392	3.6364	5.e-002	2.8414e-006
16458	15.667	3.6364	0.	-10.113
16459	15.575	3.5455	0.	-11.82
16460	15.575	3.6364	5.e-002	1.1958e-006
16461	15.85	3.6364	0.	-7.5214
16462	15.759	3.5455	0.	-9.1176
16463	15.759	3.6364	5.e-002	2.3324e-006
16464	16.033	3.6364	0.	-5.065
16465	15.942	3.5455	0.	-6.5623
16466	15.942	3.6364	5.e-002	2.4562e-006
16467	16.216	3.6364	0.	-2.7282
16468	16.125	3.5455	0.	-4.1367
16469	16.125	3.6364	5.e-002	1.354e-006
16470	16.4	3.6364	0.	-0.50388
16471	16.308	3.5455	0.	-1.8253
16472	16.308	3.6364	5.e-002	2.2946e-006
16473	16.583	3.6364	0.	5.027e-003
16474	16.491	3.5455	0.	-3.1391e-003
16475	16.491	3.6364	5.e-002	1.1138e-006
16476	16.766	3.6364	0.	7.5046e-003
16477	16.674	3.5455	0.	7.3264e-003
16478	16.674	3.6364	5.e-002	2.8884e-006
16479	16.949	3.6364	0.	8.4434e-003
16480	16.857	3.5455	0.	8.5277e-003
16481	16.857	3.6364	5.e-002	4.9834e-006
16482	17.132	3.6364	0.	9.0661e-003
16483	17.041	3.5455	0.	9.1884e-003
16484	17.041	3.6364	5.e-002	6.3624e-006
16485	17.315	3.6364	0.	9.5867e-003
16486	17.224	3.5455	0.	9.7068e-003
16487	17.224	3.6364	5.e-002	5.7622e-006
16488	17.498	3.6364	0.	1.0072e-002
16489	17.407	3.5455	0.	1.0186e-002
16490	17.407	3.6364	5.e-002	7.489e-006
16491	17.682	3.6364	0.	1.0543e-002
16492	17.59	3.5455	0.	1.0651e-002
16493	17.59	3.6364	5.e-002	6.7739e-006
16494	17.865	3.6364	0.	1.1012e-002
16495	17.773	3.5455	0.	1.1109e-002
16496	17.773	3.6364	5.e-002	5.5989e-006
16497	18.048	3.6364	0.	1.1501e-002
16498	17.956	3.5455	0.	1.1582e-002
16499	17.956	3.6364	5.e-002	5.6016e-006
16500	18.231	3.6364	0.	1.2009e-002
16501	18.139	3.5455	0.	1.2087e-002
16502	18.139	3.6364	5.e-002	3.9555e-006
16503	18.414	3.6364	0.	1.2531e-002
16504	18.323	3.5455	0.	1.2599e-002
16505	18.323	3.6364	5.e-002	5.2818e-006
16506	18.597	3.6364	0.	1.3084e-002
16507	18.506	3.5455	0.	1.3136e-002
16508	18.506	3.6364	5.e-002	5.7955e-006
16509	18.78	3.6364	0.	1.3672e-002
16510	18.689	3.5455	0.	1.3713e-002
16511	18.689	3.6364	5.e-002	6.0076e-006
16512	18.964	3.6364	0.	1.4299e-002
16513	18.872	3.5455	0.	1.4322e-002
16514	18.872	3.6364	5.e-002	3.0808e-006
16515	19.147	3.6364	0.	1.4974e-002
16516	19.055	3.5455	0.	1.4979e-002
16517	19.055	3.6364	5.e-002	2.5577e-006
16518	19.33	3.6364	0.	1.5692e-002
16519	19.238	3.5455	0.	1.5683e-002
16520	19.238	3.6364	5.e-002	2.7261e-006
16521	19.513	3.6364	0.	1.6468e-002
16522	19.421	3.5455	0.	1.6431e-002
16523	19.421	3.6364	5.e-002	4.3315e-006
16524	19.696	3.6364	0.	1.7316e-002
16525	19.605	3.5455	0.	1.725e-002
16526	19.605	3.6364	5.e-002	4.0899e-006
16527	19.879	3.6364	0.	1.8237e-002
16528	19.788	3.5455	0.	1.8143e-002
16529	19.788	3.6364	5.e-002	4.0423e-006
16530	20.062	3.6364	0.	1.9241e-002
16531	19.971	3.5455	0.	1.9111e-002
16532	19.971	3.6364	5.e-002	3.4614e-006
16533	20.246	3.6364	0.	2.0345e-002
16534	20.154	3.5455	0.	2.0172e-002
16535	20.154	3.6364	5.e-002	7.212e-006
16536	20.429	3.6364	0.	2.1564e-002
16537	20.337	3.5455	0.	2.1341e-002
16538	20.337	3.6364	5.e-002	5.3172e-006
16539	20.612	3.6364	0.	2.291e-002
16540	20.52	3.5455	0.	2.2632e-002
16541	20.52	3.6364	5.e-002	9.1419e-006
16542	20.795	3.6364	0.	2.4407e-002
16543	20.703	3.5455	0.	2.4055e-002
16544	20.703	3.6364	5.e-002	7.2868e-006
16545	20.978	3.6364	0.	2.6091e-002
16546	20.887	3.5455	0.	2.5654e-002
16547	20.887	3.6364	5.e-002	6.3951e-006
16548	21.161	3.6364	0.	2.7992e-002
16549	21.07	3.5455	0.	2.7452e-002
16550	21.07	3.6364	5.e-002	4.5341e-006
16551	21.344	3.6364	0.	3.0152e-002
16552	21.253	3.5455	0.	2.9485e-002
16553	21.253	3.6364	5.e-002	4.7335e-006
16554	21.528	3.6364	0.	3.2631e-002
16555	21.436	3.5455	0.	3.1804e-002
16556	21.436	3.6364	5.e-002	4.7343e-006
16557	21.711	3.6364	0.	3.5507e-002
16558	21.619	3.5455	0.	3.448e-002
16559	21.619	3.6364	5.e-002	4.6159e-006
16560	21.894	3.6364	0.	3.8884e-002
16561	21.802	3.5455	0.	3.76e-002
16562	21.802	3.6364	5.e-002	4.5521e-006
16563	22.077	3.6364	0.	4.2916e-002
16564	21.985	3.5455	0.	4.1289e-002
16565	21.985	3.6364	5.e-002	4.7398e-006
16566	22.26	3.6364	0.	4.7803e-002
16567	22.169	3.5455	0.	4.5729e-002
16568	22.169	3.6364	5.e-002	2.2595e-006
16569	22.443	3.6364	0.	5.3873e-002
16570	22.352	3.5455	0.	5.1159e-002
16571	22.352	3.6364	5.e-002	6.5068e-006
16572	22.626	3.6364	0.	6.1555e-002
16573	22.535	3.5455	0.	5.8011e-002
16574	22.535	3.6364	5.e-002	5.4803e-006
16575	22.81	3.6364	0.	7.1865e-002
16576	22.718	3.5455	0.	6.6742e-002
16577	22.718	3.6364	5.e-002	2.5558e-006
16578	22.993	3.6364	0.	8.5254e-002
16579	22.901	3.5455	0.	7.9006e-002
16580	22.901	3.6364	5.e-002	5.3688e-006
16581	23.176	3.6364	0.	0.10794
16582	23.084	3.5455	0.	9.4202e-002
16583	23.084	3.6364	5.e-002	8.7115e-006
16584	23.359	3.6364	0.	0.13103
16585	23.267	3.5455	0.	0.12578
16586	23.267	3.6364	5.e-002	1.0777e-005
16587	23.542	3.6364	0.	0.22706
16588	23.451	3.5455	0.	0.14379
16589	23.451	3.6364	5.e-002	8.4245e-006
16590	23.725	3.6364	0.	0.22553
16591	23.634	3.5455	0.	0.32907
16592	23.634	3.6364	5.e-002	1.1645e-005
16593	23.817	3.5455	0.	0.21072
16594	23.817	3.6364	5.e-002	1.2011e-005
16595	23.908	3.6364	0.	0.43875
16596	8.3414	3.4545	0.	2.521
16597	8.2498	3.3636	0.	0.94351
16598	8.2498	3.4545	5.e-002	4.8104e-005
16599	8.5245	3.4545	0.	0.20315
16600	8.433	3.3636	0.	0.2678
16601	8.433	3.4545	5.e-002	4.3452e-005
16602	8.7077	3.4545	0.	-0.7298
16603	8.6161	3.3636	0.	0.41313
16604	8.6161	3.4545	5.e-002	2.8171e-005
16605	8.8908	3.4545	0.	-126.94
16606	8.7992	3.3636	0.	-51.087
16607	8.7992	3.4545	5.e-002	1.6397e-005
16608	9.0739	3.4545	0.	-231.08
16609	8.9824	3.3636	0.	-187.7
16610	8.9824	3.4545	5.e-002	7.4815e-006
16611	9.2571	3.4545	0.	-291.53
16612	9.1655	3.3636	0.	-271.68
16613	9.1655	3.4545	5.e-002	4.6923e-006
16614	9.4402	3.4545	0.	-322.46
16615	9.3487	3.3636	0.	-318.35
16616	9.3487	3.4545	5.e-002	-2.6357e-006
16617	9.6234	3.4545	0.	-333.77
16618	9.5318	3.3636	0.	-339.67
16619	9.5318	3.4545	5.e-002	3.9759e-006
16620	9.8065	3.4545	0.	-332.26
16621	9.7149	3.3636	0.	-344.19
16622	9.7149	3.4545	5.e-002	-9.0845e-006
16623	9.9897	3.4545	0.	-322.59
16624	9.8981	3.3636	0.	-337.88
16625	9.8981	3.4545	5.e-002	-9.22e-006
16626	10.173	3.4545	0.	-307.93
16627	10.081	3.3636	0.	-324.82
16628	10.081	3.4545	5.e-002	-8.2822e-006
16629	10.356	3.4545	0.	-290.44
16630	10.264	3.3636	0.	-307.78
16631	10.264	3.4545	5.e-002	-7.8156e-006
16632	10.539	3.4545	0.	-271.56
16633	10.448	3.3636	0.	-288.63
16634	10.448	3.4545	5.e-002	-6.5678e-006
16635	10.722	3.4545	0.	-252.26
16636	10.631	3.3636	0.	-268.64
16637	10.631	3.4545	5.e-002	-7.8518e-006
16638	10.905	3.4545	0.	-233.19
16639	10.814	3.3636	0.	-248.62
16640	10.814	3.4545	5.e-002	-9.6959e-006
16641	11.089	3.4545	0.	-214.74
16642	10.997	3.3636	0.	-229.1
16643	10.997	3.4545	5.e-002	-7.1405e-006
16644	11.272	3.4545	0.	-197.16
16645	11.18	3.3636	0.	-210.41
16646	11.18	3.4545	5.e-002	-8.1149e-006
16647	11.455	3.4545	0.	-180.59
16648	11.363	3.3636	0.	-192.75
16649	11.363	3.4545	5.e-002	-6.8771e-006
16650	11.638	3.4545	0.	-165.1
16651	11.546	3.3636	0.	-176.2
16652	11.546	3.4545	5.e-002	-8.1086e-006
16653	11.821	3.4545	0.	-150.69
16654	11.73	3.3636	0.	-160.79
16655	11.73	3.4545	5.e-002	-4.7073e-006
16656	12.004	3.4545	0.	-137.34
16657	11.913	3.3636	0.	-146.52
16658	11.913	3.4545	5.e-002	-5.3453e-006
16659	12.187	3.4545	0.	-125.01
16660	12.096	3.3636	0.	-133.34
16661	12.096	3.4545	5.e-002	-7.9493e-006
16662	12.37	3.4545	0.	-113.65
16663	12.279	3.3636	0.	-121.21
16664	12.279	3.4545	5.e-002	-3.0243e-006
16665	12.554	3.4545	0.	-103.19
16666	12.462	3.3636	0.	-110.05
16667	12.462	3.4545	5.e-002	-3.3025e-006
16668	12.737	3.4545	0.	-93.577
16669	12.645	3.3636	0.	-99.801
16670	12.645	3.4545	5.e-002	-3.4962e-006
16671	12.92	3.4545	0.	-84.738
16672	12.828	3.3636	0.	-90.391
16673	12.828	3.4545	5.e-002	-2.283e-006
16674	13.103	3.4545	0.	-76.613
16675	13.011	3.3636	0.	-81.753
16676	13.011	3.4545	5.e-002	-2.3712e-006
16677	13.286	3.4545	0.	-69.142
16678	13.195	3.3636	0.	-73.822
16679	13.195	3.4545	5.e-002	-4.1605e-006
16680	13.469	3.4545	0.	-62.27
16681	13.378	3.3636	0.	-66.535
16682	13.378	3.4545	5.e-002	-2.1823e-006
16683	13.652	3.4545	0.	-55.943
16684	13.561	3.3636	0.	-59.836
16685	13.561	3.4545	5.e-002	-1.1501e-006
16686	13.836	3.4545	0.	-50.112
16687	13.744	3.3636	0.	-53.672
16688	13.744	3.4545	5.e-002	-6.0974e-007
16689	14.019	3.4545	0.	-44.732
16690	13.927	3.3636	0.	-47.993
16691	13.927	3.4545	5.e-002	3.633e-007
16692	14.202	3.4545	0.	-39.763
16693	14.11	3.3636	0.	-42.756
16694	14.11	3.4545	5.e-002	3.5939e-007
16695	14.385	3.4545	0.	-35.166
16696	14.293	3.3636	0.	-37.917
16697	14.293	3.4545	5.e-002	1.79e-006
16698	14.568	3.4545	0.	-30.906
16699	14.477	3.3636	0.	-33.44
16700	14.477	3.4545	5.e-002	1.5598e-006
16701	14.751	3.4545	0.	-26.951
16702	14.66	3.3636	0.	-29.291
16703	14.66	3.4545	5.e-002	1.3568e-006
16704	14.934	3.4545	0.	-23.272
16705	14.843	3.3636	0.	-25.436
16706	14.843	3.4545	5.e-002	2.326e-006
16707	15.118	3.4545	0.	-19.841
16708	15.026	3.3636	0.	-21.849
16709	15.026	3.4545	5.e-002	3.7896e-006
16710	15.301	3.4545	0.	-16.635
16711	15.209	3.3636	0.	-18.501
16712	15.209	3.4545	5.e-002	2.726e-006
16713	15.484	3.4545	0.	-13.629
16714	15.392	3.3636	0.	-15.369
16715	15.392	3.4545	5.e-002	2.3687e-006
16716	15.667	3.4545	0.	-10.802
16717	15.575	3.3636	0.	-12.429
16718	15.575	3.4545	5.e-002	8.358e-007
16719	15.85	3.4545	0.	-8.1354
16720	15.759	3.3636	0.	-9.6611
16721	15.759	3.4545	5.e-002	2.0335e-006
16722	16.033	3.4545	0.	-5.61
16723	15.942	3.3636	0.	-7.0456
16724	15.942	3.4545	5.e-002	2.4521e-006
16725	16.216	3.4545	0.	-3.2087
16726	16.125	3.3636	0.	-4.5643
16727	16.125	3.4545	5.e-002	1.1717e-006
16728	16.4	3.4545	0.	-0.9171
16729	16.308	3.3636	0.	-2.2004
16730	16.308	3.4545	5.e-002	2.1848e-006
16731	16.583	3.4545	0.	6.5864e-003
16732	16.491	3.3636	0.	-1.7365e-002
16733	16.491	3.4545	5.e-002	1.0201e-006
16734	16.766	3.4545	0.	8.552e-003
16735	16.674	3.3636	0.	8.4995e-003
16736	16.674	3.4545	5.e-002	2.717e-006
16737	16.949	3.4545	0.	9.2767e-003
16738	16.857	3.3636	0.	9.3333e-003
16739	16.857	3.4545	5.e-002	4.8815e-006
16740	17.132	3.4545	0.	9.7973e-003
16741	17.041	3.3636	0.	9.8515e-003
16742	17.041	3.4545	5.e-002	6.1301e-006
16743	17.315	3.4545	0.	1.0264e-002
16744	17.224	3.3636	0.	1.0299e-002
16745	17.224	3.4545	5.e-002	5.7665e-006
16746	17.498	3.4545	0.	1.0717e-002
16747	17.407	3.3636	0.	1.0741e-002
16748	17.407	3.4545	5.e-002	7.4949e-006
16749	17.682	3.4545	0.	1.1168e-002
16750	17.59	3.3636	0.	1.1182e-002
16751	17.59	3.4545	5.e-002	6.6582e-006
16752	17.865	3.4545	0.	1.1628e-002
16753	17.773	3.3636	0.	1.1627e-002
16754	17.773	3.4545	5.e-002	5.4703e-006
16755	18.048	3.4545	0.	1.2115e-002
16756	17.956	3.3636	0.	1.2094e-002
16757	17.956	3.4545	5.e-002	6.0788e-006
16758	18.231	3.4545	0.	1.2623e-002
16759	18.139	3.3636	0.	1.2596e-002
16760	18.139	3.4545	5.e-002	4.071e-006
16761	18.414	3.4545	0.	1.3148e-002
16762	18.323	3.3636	0.	1.311e-002
16763	18.323	3.4545	5.e-002	5.5077e-006
16764	18.597	3.4545	0.	1.3707e-002
16765	18.506	3.3636	0.	1.365e-002
16766	18.506	3.4545	5.e-002	5.2887e-006
16767	18.78	3.4545	0.	1.4303e-002
16768	18.689	3.3636	0.	1.4232e-002
16769	18.689	3.4545	5.e-002	5.7526e-006
16770	18.964	3.4545	0.	1.494e-002
16771	18.872	3.3636	0.	1.4847e-002
16772	18.872	3.4545	5.e-002	3.321e-006
16773	19.147	3.4545	0.	1.5624e-002
16774	19.055	3.3636	0.	1.5513e-002
16775	19.055	3.4545	5.e-002	2.095e-006
16776	19.33	3.4545	0.	1.6355e-002
16777	19.238	3.3636	0.	1.6225e-002
16778	19.238	3.4545	5.e-002	2.5294e-006
16779	19.513	3.4545	0.	1.7144e-002
16780	19.421	3.3636	0.	1.6984e-002
16781	19.421	3.4545	5.e-002	3.664e-006
16782	19.696	3.4545	0.	1.8006e-002
16783	19.605	3.3636	0.	1.7814e-002
16784	19.605	3.4545	5.e-002	5.0973e-006
16785	19.879	3.4545	0.	1.8942e-002
16786	19.788	3.3636	0.	1.8719e-002
16787	19.788	3.4545	5.e-002	4.1071e-006
16788	20.062	3.4545	0.	1.9962e-002
16789	19.971	3.3636	0.	1.9699e-002
16790	19.971	3.4545	5.e-002	3.5541e-006
16791	20.246	3.4545	0.	2.1083e-002
16792	20.154	3.3636	0.	2.0771e-002
16793	20.154	3.4545	5.e-002	6.8323e-006
16794	20.429	3.4545	0.	2.2317e-002
16795	20.337	3.3636	0.	2.1955e-002
16796	20.337	3.4545	5.e-002	6.36e-006
16797	20.612	3.4545	0.	2.3679e-002
16798	20.52	3.3636	0.	2.3259e-002
16799	20.52	3.4545	5.e-002	8.7506e-006
16800	20.795	3.4545	0.	2.5196e-002
16801	20.703	3.3636	0.	2.4696e-002
16802	20.703	3.4545	5.e-002	7.8533e-006
16803	20.978	3.4545	0.	2.6898e-002
16804	20.887	3.3636	0.	2.631e-002
16805	20.887	3.4545	5.e-002	6.9428e-006
16806	21.161	3.4545	0.	2.8814e-002
16807	21.07	3.3636	0.	2.812e-002
16808	21.07	3.4545	5.e-002	5.5521e-006
16809	21.344	3.4545	0.	3.099e-002
16810	21.253	3.3636	0.	3.0165e-002
16811	21.253	3.4545	5.e-002	3.7957e-006
16812	21.528	3.4545	0.	3.3486e-002
16813	21.436	3.3636	0.	3.2498e-002
16814	21.436	3.4545	5.e-002	5.7091e-006
16815	21.711	3.4545	0.	3.6379e-002
16816	21.619	3.3636	0.	3.5186e-002
16817	21.619	3.4545	5.e-002	4.6493e-006
16818	21.894	3.4545	0.	3.9772e-002
16819	21.802	3.3636	0.	3.8318e-002
16820	21.802	3.4545	5.e-002	3.6871e-006
16821	22.077	3.4545	0.	4.3817e-002
16822	21.985	3.3636	0.	4.2017e-002
16823	21.985	3.4545	5.e-002	4.7312e-006
16824	22.26	3.4545	0.	4.8723e-002
16825	22.169	3.3636	0.	4.6471e-002
16826	22.169	3.4545	5.e-002	3.1303e-006
16827	22.443	3.4545	0.	5.4817e-002
16828	22.352	3.3636	0.	5.1919e-002
16829	22.352	3.4545	5.e-002	8.1831e-006
16830	22.626	3.4545	0.	6.2529e-002
16831	22.535	3.3636	0.	5.8792e-002
16832	22.535	3.4545	5.e-002	5.2676e-006
16833	22.81	3.4545	0.	7.2887e-002
16834	22.718	3.3636	0.	6.7556e-002
16835	22.718	3.4545	5.e-002	3.338e-006
16836	22.993	3.4545	0.	8.6344e-002
16837	22.901	3.3636	0.	7.9866e-002
16838	22.901	3.4545	5.e-002	4.2354e-006
16839	23.176	3.4545	0.	0.10914
16840	23.084	3.3636	0.	9.5128e-002
16841	23.084	3.4545	5.e-002	6.4862e-006
16842	23.359	3.4545	0.	0.13238
16843	23.267	3.3636	0.	0.12682
16844	23.267	3.4545	5.e-002	6.5823e-006
16845	23.542	3.4545	0.	0.22878
16846	23.451	3.3636	0.	0.14498
16847	23.451	3.4545	5.e-002	8.1692e-006
16848	23.725	3.4545	0.	0.22834
16849	23.634	3.3636	0.	0.33078
16850	23.634	3.4545	5.e-002	7.7432e-006
16851	23.817	3.3636	0.	0.21433
16852	23.817	3.4545	5.e-002	8.0265e-006
16853	23.908	3.4545	0.	0.43966
16854	8.3414	3.2727	0.	-1.5971
16855	8.2498	3.1818	0.	-1.7078
16856	8.2498	3.2727	5.e-002	5.2851e-005
16857	8.5245	3.2727	0.	0.38009
16858	8.433	3.1818	0.	2.6939e-002
16859	8.433	3.2727	5.e-002	4.235e-005
16860	8.7077	3.2727	0.	0.67431
16861	8.6161	3.1818	0.	0.94066
16862	8.6161	3.2727	5.e-002	3.2403e-005
16863	8.8908	3.2727	0.	-106.37
16864	8.7992	3.1818	0.	-27.958
16865	8.7992	3.2727	5.e-002	1.9312e-005
16866	9.0739	3.2727	0.	-225.54
16867	8.9824	3.1818	0.	-177.16
16868	8.9824	3.2727	5.e-002	9.4823e-006
16869	9.2571	3.2727	0.	-297.08
16870	9.1655	3.1818	0.	-271.57
16871	9.1655	3.2727	5.e-002	1.7953e-007
16872	9.4402	3.2727	0.	-334.84
16873	9.3487	3.1818	0.	-325.18
16874	9.3487	3.2727	5.e-002	-5.3009e-006
16875	9.6234	3.2727	0.	-349.74
16876	9.5318	3.1818	0.	-350.46
16877	9.5318	3.2727	5.e-002	-1.3248e-006
16878	9.8065	3.2727	0.	-349.64
16879	9.7149	3.1818	0.	-356.86
16880	9.7149	3.2727	5.e-002	-6.9173e-006
16881	9.9897	3.2727	0.	-340.02
16882	9.8981	3.1818	0.	-351.08
16883	9.8981	3.2727	5.e-002	-6.6291e-006
16884	10.173	3.2727	0.	-324.62
16885	10.081	3.1818	0.	-337.73
16886	10.081	3.2727	5.e-002	-4.8042e-006
16887	10.356	3.2727	0.	-305.95
16888	10.264	3.1818	0.	-319.95
16889	10.264	3.2727	5.e-002	-8.4652e-006
16890	10.539	3.2727	0.	-285.71
16891	10.448	3.1818	0.	-299.84
16892	10.448	3.2727	5.e-002	-6.5849e-006
16893	10.722	3.2727	0.	-264.99
16894	10.631	3.1818	0.	-278.78
16895	10.631	3.2727	5.e-002	-2.8883e-006
16896	10.905	3.2727	0.	-244.53
16897	10.814	3.1818	0.	-257.69
16898	10.814	3.2727	5.e-002	-9.9282e-006
16899	11.089	3.2727	0.	-224.77
16900	10.997	3.1818	0.	-237.15
16901	10.997	3.2727	5.e-002	-9.5913e-006
16902	11.272	3.2727	0.	-206.
16903	11.18	3.1818	0.	-217.52
16904	11.18	3.2727	5.e-002	-8.9448e-006
16905	11.455	3.2727	0.	-188.35
16906	11.363	3.1818	0.	-198.99
16907	11.363	3.2727	5.e-002	-9.3616e-006
16908	11.638	3.2727	0.	-171.88
16909	11.546	3.1818	0.	-181.66
16910	11.546	3.2727	5.e-002	-9.3584e-006
16911	11.821	3.2727	0.	-156.62
16912	11.73	3.1818	0.	-165.57
16913	11.73	3.2727	5.e-002	-2.9079e-006
16914	12.004	3.2727	0.	-142.52
16915	11.913	3.1818	0.	-150.7
16916	11.913	3.2727	5.e-002	-4.6158e-006
16917	12.187	3.2727	0.	-129.54
16918	12.096	3.1818	0.	-136.99
16919	12.096	3.2727	5.e-002	-4.6124e-006
16920	12.37	3.2727	0.	-117.61
16921	12.279	3.1818	0.	-124.39
16922	12.279	3.2727	5.e-002	-3.5474e-006
16923	12.554	3.2727	0.	-106.65
16924	12.462	3.1818	0.	-112.84
16925	12.462	3.2727	5.e-002	-2.3508e-006
16926	12.737	3.2727	0.	-96.611
16927	12.645	3.1818	0.	-102.24
16928	12.645	3.2727	5.e-002	-4.1393e-006
16929	12.92	3.2727	0.	-87.4
16930	12.828	3.1818	0.	-92.529
16931	12.828	3.2727	5.e-002	-2.2003e-006
16932	13.103	3.2727	0.	-78.954
16933	13.011	3.1818	0.	-83.631
16934	13.011	3.2727	5.e-002	-1.192e-006
16935	13.286	3.2727	0.	-71.205
16936	13.195	3.1818	0.	-75.474
16937	13.195	3.2727	5.e-002	-1.1e-006
16938	13.469	3.2727	0.	-64.092
16939	13.378	3.1818	0.	-67.992
16940	13.378	3.2727	5.e-002	-1.6427e-007
16941	13.652	3.2727	0.	-57.555
16942	13.561	3.1818	0.	-61.124
16943	13.561	3.2727	5.e-002	-1.0973e-006
16944	13.836	3.2727	0.	-51.542
16945	13.744	3.1818	0.	-54.813
16946	13.744	3.2727	5.e-002	-1.1031e-007
16947	14.019	3.2727	0.	-46.004
16948	13.927	3.1818	0.	-49.006
16949	13.927	3.2727	5.e-002	1.341e-006
16950	14.202	3.2727	0.	-40.895
16951	14.11	3.1818	0.	-43.657
16952	14.11	3.2727	5.e-002	8.808e-007
16953	14.385	3.2727	0.	-36.176
16954	14.293	3.1818	0.	-38.72
16955	14.293	3.2727	5.e-002	2.7912e-006
16956	14.568	3.2727	0.	-31.809
16957	14.477	3.1818	0.	-34.157
16958	14.477	3.2727	5.e-002	2.3206e-006
16959	14.751	3.2727	0.	-27.759
16960	14.66	3.1818	0.	-29.932
16961	14.66	3.2727	5.e-002	2.3336e-006
16962	14.934	3.2727	0.	-23.995
16963	14.843	3.1818	0.	-26.01
16964	14.843	3.2727	5.e-002	2.3457e-006
16965	15.118	3.2727	0.	-20.489
16966	15.026	3.1818	0.	-22.363
16967	15.026	3.2727	5.e-002	4.2714e-006
16968	15.301	3.2727	0.	-17.215
16969	15.209	3.1818	0.	-18.961
16970	15.209	3.2727	5.e-002	3.3267e-006
16971	15.484	3.2727	0.	-14.148
16972	15.392	3.1818	0.	-15.781
16973	15.392	3.2727	5.e-002	2.9699e-006
16974	15.667	3.2727	0.	-11.266
16975	15.575	3.1818	0.	-12.797
16976	15.575	3.2727	5.e-002	1.1923e-006
16977	15.85	3.2727	0.	-8.5483
16978	15.759	3.1818	0.	-9.9895
16979	15.759	3.2727	5.e-002	2.6262e-006
16980	16.033	3.2727	0.	-5.9762
16981	15.942	3.1818	0.	-7.3375
16982	15.942	3.2727	5.e-002	2.927e-006
16983	16.216	3.2727	0.	-3.5314
16984	16.125	3.1818	0.	-4.8224
16985	16.125	3.2727	5.e-002	1.8832e-006
16986	16.4	3.2727	0.	-1.1975
16987	16.308	3.1818	0.	-2.4268
16988	16.308	3.2727	5.e-002	2.7079e-006
16989	16.583	3.2727	0.	8.1993e-003
16990	16.491	3.1818	0.	-0.1375
16991	16.491	3.2727	5.e-002	1.7628e-006
16992	16.766	3.2727	0.	9.3519e-003
16993	16.674	3.1818	0.	9.3453e-003
16994	16.674	3.2727	5.e-002	3.4805e-006
16995	16.949	3.2727	0.	9.8699e-003
16996	16.857	3.1818	0.	9.8547e-003
16997	16.857	3.2727	5.e-002	6.0167e-006
16998	17.132	3.2727	0.	1.0302e-002
16999	17.041	3.1818	0.	1.0265e-002
17000	17.041	3.2727	5.e-002	6.9678e-006
17001	17.315	3.2727	0.	1.0723e-002
17002	17.224	3.1818	0.	1.0663e-002
17003	17.224	3.2727	5.e-002	6.5478e-006
17004	17.498	3.2727	0.	1.1151e-002
17005	17.407	3.1818	0.	1.1077e-002
17006	17.407	3.2727	5.e-002	8.3949e-006
17007	17.682	3.2727	0.	1.1587e-002
17008	17.59	3.1818	0.	1.1502e-002
17009	17.59	3.2727	5.e-002	7.7374e-006
17010	17.865	3.2727	0.	1.2039e-002
17011	17.773	3.1818	0.	1.1939e-002
17012	17.773	3.2727	5.e-002	6.4289e-006
17013	18.048	3.2727	0.	1.2521e-002
17014	17.956	3.1818	0.	1.24e-002
17015	17.956	3.2727	5.e-002	6.7921e-006
17016	18.231	3.2727	0.	1.3028e-002
17017	18.139	3.1818	0.	1.29e-002
17018	18.139	3.2727	5.e-002	4.6575e-006
17019	18.414	3.2727	0.	1.3555e-002
17020	18.323	3.1818	0.	1.3414e-002
17021	18.323	3.2727	5.e-002	6.4468e-006
17022	18.597	3.2727	0.	1.4117e-002
17023	18.506	3.1818	0.	1.3955e-002
17024	18.506	3.2727	5.e-002	6.4627e-006
17025	18.78	3.2727	0.	1.4717e-002
17026	18.689	3.1818	0.	1.4539e-002
17027	18.689	3.2727	5.e-002	6.4534e-006
17028	18.964	3.2727	0.	1.5359e-002
17029	18.872	3.1818	0.	1.5158e-002
17030	18.872	3.2727	5.e-002	3.8017e-006
17031	19.147	3.2727	0.	1.6051e-002
17032	19.055	3.1818	0.	1.5829e-002
17033	19.055	3.2727	5.e-002	2.591e-006
17034	19.33	3.2727	0.	1.6789e-002
17035	19.238	3.1818	0.	1.6546e-002
17036	19.238	3.2727	5.e-002	3.0419e-006
17037	19.513	3.2727	0.	1.7586e-002
17038	19.421	3.1818	0.	1.731e-002
17039	19.421	3.2727	5.e-002	4.6789e-006
17040	19.696	3.2727	0.	1.8457e-002
17041	19.605	3.1818	0.	1.8146e-002
17042	19.605	3.2727	5.e-002	5.6291e-006
17043	19.879	3.2727	0.	1.9403e-002
17044	19.788	3.1818	0.	1.9058e-002
17045	19.788	3.2727	5.e-002	4.6633e-006
17046	20.062	3.2727	0.	2.0431e-002
17047	19.971	3.1818	0.	2.0045e-002
17048	19.971	3.2727	5.e-002	5.0843e-006
17049	20.246	3.2727	0.	2.1562e-002
17050	20.154	3.1818	0.	2.1126e-002
17051	20.154	3.2727	5.e-002	8.3876e-006
17052	20.429	3.2727	0.	2.2809e-002
17053	20.337	3.1818	0.	2.2317e-002
17054	20.337	3.2727	5.e-002	6.9622e-006
17055	20.612	3.2727	0.	2.4181e-002
17056	20.52	3.1818	0.	2.3628e-002
17057	20.52	3.2727	5.e-002	9.8238e-006
17058	20.795	3.2727	0.	2.5707e-002
17059	20.703	3.1818	0.	2.5073e-002
17060	20.703	3.2727	5.e-002	8.4199e-006
17061	20.978	3.2727	0.	2.7419e-002
17062	20.887	3.1818	0.	2.6693e-002
17063	20.887	3.2727	5.e-002	7.4965e-006
17064	21.161	3.2727	0.	2.9346e-002
17065	21.07	3.1818	0.	2.8512e-002
17066	21.07	3.2727	5.e-002	5.6135e-006
17067	21.344	3.2727	0.	3.1532e-002
17068	21.253	3.1818	0.	3.0564e-002
17069	21.253	3.2727	5.e-002	5.7064e-006
17070	21.528	3.2727	0.	3.4036e-002
17071	21.436	3.1818	0.	3.2902e-002
17072	21.436	3.2727	5.e-002	7.6106e-006
17073	21.711	3.2727	0.	3.6937e-002
17074	21.619	3.1818	0.	3.5599e-002
17075	21.619	3.2727	5.e-002	6.6023e-006
17076	21.894	3.2727	0.	4.0337e-002
17077	21.802	3.1818	0.	3.8735e-002
17078	21.802	3.2727	5.e-002	4.6984e-006
17079	22.077	3.2727	0.	4.4393e-002
17080	21.985	3.1818	0.	4.2442e-002
17081	21.985	3.2727	5.e-002	7.6121e-006
17082	22.26	3.2727	0.	4.9311e-002
17083	22.169	3.1818	0.	4.6902e-002
17084	22.169	3.2727	5.e-002	4.9241e-006
17085	22.443	3.2727	0.	5.5419e-002
17086	22.352	3.1818	0.	5.2359e-002
17087	22.352	3.2727	5.e-002	8.9292e-006
17088	22.626	3.2727	0.	6.3152e-002
17089	22.535	3.1818	0.	5.9247e-002
17090	22.535	3.2727	5.e-002	7.9211e-006
17091	22.81	3.2727	0.	7.354e-002
17092	22.718	3.1818	0.	6.8028e-002
17093	22.718	3.2727	5.e-002	1.235e-006
17094	22.993	3.2727	0.	8.7041e-002
17095	22.901	3.1818	0.	8.0368e-002
17096	22.901	3.2727	5.e-002	6.9162e-006
17097	23.176	3.2727	0.	0.1099
17098	23.084	3.1818	0.	9.5669e-002
17099	23.084	3.2727	5.e-002	1.1882e-005
17100	23.359	3.2727	0.	0.13324
17101	23.267	3.1818	0.	0.12743
17102	23.267	3.2727	5.e-002	8.1259e-006
17103	23.542	3.2727	0.	0.22989
17104	23.451	3.1818	0.	0.14567
17105	23.451	3.2727	5.e-002	1.1748e-005
17106	23.725	3.2727	0.	0.23016
17107	23.634	3.1818	0.	0.33179
17108	23.634	3.2727	5.e-002	9.5902e-006
17109	23.817	3.1818	0.	0.21646
17110	23.817	3.2727	5.e-002	7.8485e-006
17111	23.908	3.2727	0.	0.44024
17112	8.3414	3.0909	0.	-0.19838
17113	8.2498	3.	0.	-0.34696
17114	8.2498	3.0909	5.e-002	5.2626e-005
17115	8.5245	3.0909	0.	0.468
17116	8.433	3.	0.	6.1028e-002
17117	8.433	3.0909	5.e-002	3.54e-005
17118	8.7077	3.0909	0.	1.0309
17119	8.6161	3.	0.	0.98984
17120	8.6161	3.0909	5.e-002	3.3344e-005
17121	8.8908	3.0909	0.	-92.603
17122	8.7992	3.	0.	-18.829
17123	8.7992	3.0909	5.e-002	1.8872e-005
17124	9.0739	3.0909	0.	-219.58
17125	8.9824	3.	0.	-172.42
17126	8.9824	3.0909	5.e-002	1.2449e-005
17127	9.2571	3.0909	0.	-297.6
17128	9.1655	3.	0.	-270.62
17129	9.1655	3.0909	5.e-002	7.8462e-006
17130	9.4402	3.0909	0.	-339.67
17131	9.3487	3.	0.	-326.88
17132	9.3487	3.0909	5.e-002	5.5476e-006
17133	9.6234	3.0909	0.	-356.99
17134	9.5318	3.	0.	-353.74
17135	9.5318	3.0909	5.e-002	-2.221e-006
17136	9.8065	3.0909	0.	-358.
17137	9.7149	3.	0.	-360.93
17138	9.7149	3.0909	5.e-002	-5.7279e-006
17139	9.9897	3.0909	0.	-348.64
17140	9.8981	3.	0.	-355.42
17141	9.8981	3.0909	5.e-002	-9.4107e-006
17142	10.173	3.0909	0.	-332.99
17143	10.081	3.	0.	-342.03
17144	10.081	3.0909	5.e-002	-1.7046e-005
17145	10.356	3.0909	0.	-313.8
17146	10.264	3.	0.	-324.04
17147	10.264	3.0909	5.e-002	-8.9413e-006
17148	10.539	3.0909	0.	-292.9
17149	10.448	3.	0.	-303.61
17150	10.448	3.0909	5.e-002	-1.2829e-006
17151	10.722	3.0909	0.	-271.48
17152	10.631	3.	0.	-282.2
17153	10.631	3.0909	5.e-002	-4.9438e-006
17154	10.905	3.0909	0.	-250.32
17155	10.814	3.	0.	-260.76
17156	10.814	3.0909	5.e-002	-4.8193e-006
17157	11.089	3.0909	0.	-229.9
17158	10.997	3.	0.	-239.88
17159	10.997	3.0909	5.e-002	-8.394e-006
17160	11.272	3.0909	0.	-210.51
17161	11.18	3.	0.	-219.92
17162	11.18	3.0909	5.e-002	-8.2783e-006
17163	11.455	3.0909	0.	-192.31
17164	11.363	3.	0.	-201.1
17165	11.363	3.0909	5.e-002	-6.3156e-006
17166	11.638	3.0909	0.	-175.35
17167	11.546	3.	0.	-183.51
17168	11.546	3.0909	5.e-002	-8.1029e-006
17169	11.821	3.0909	0.	-159.65
17170	11.73	3.	0.	-167.19
17171	11.73	3.0909	5.e-002	-7.9817e-006
17172	12.004	3.0909	0.	-145.16
17173	11.913	3.	0.	-152.11
17174	11.913	3.0909	5.e-002	-4.1127e-006
17175	12.187	3.0909	0.	-131.85
17176	12.096	3.	0.	-138.22
17177	12.096	3.0909	5.e-002	-4.0674e-006
17178	12.37	3.0909	0.	-119.62
17179	12.279	3.	0.	-125.47
17180	12.279	3.0909	5.e-002	-2.1331e-006
17181	12.554	3.0909	0.	-108.42
17182	12.462	3.	0.	-113.78
17183	12.462	3.0909	5.e-002	-1.1237e-006
17184	12.737	3.0909	0.	-98.154
17185	12.645	3.	0.	-103.06
17186	12.645	3.0909	5.e-002	-2.9943e-006
17187	12.92	3.0909	0.	-88.754
17188	12.828	3.	0.	-93.25
17189	12.828	3.0909	5.e-002	-2.9536e-006
17190	13.103	3.0909	0.	-80.143
17191	13.011	3.	0.	-84.263
17192	13.011	3.0909	5.e-002	-1.9862e-006
17193	13.286	3.0909	0.	-72.252
17194	13.195	3.	0.	-76.03
17195	13.195	3.0909	5.e-002	-1.9636e-006
17196	13.469	3.0909	0.	-65.015
17197	13.378	3.	0.	-68.482
17198	13.378	3.0909	5.e-002	-1.0107e-006
17199	13.652	3.0909	0.	-58.371
17200	13.561	3.	0.	-61.557
17201	13.561	3.0909	5.e-002	-5.1786e-007
17202	13.836	3.0909	0.	-52.266
17203	13.744	3.	0.	-55.196
17204	13.744	3.0909	5.e-002	-5.168e-007
17205	14.019	3.0909	0.	-46.646
17206	13.927	3.	0.	-49.347
17207	13.927	3.0909	5.e-002	9.2236e-007
17208	14.202	3.0909	0.	-41.468
17209	14.11	3.	0.	-43.959
17210	14.11	3.0909	5.e-002	1.8808e-006
17211	14.385	3.0909	0.	-36.686
17212	14.293	3.	0.	-38.99
17213	14.293	3.0909	5.e-002	3.3175e-006
17214	14.568	3.0909	0.	-32.264
17215	14.477	3.	0.	-34.398
17216	14.477	3.0909	5.e-002	3.0803e-006
17217	14.751	3.0909	0.	-28.166
17218	14.66	3.	0.	-30.147
17219	14.66	3.0909	5.e-002	2.8425e-006
17220	14.934	3.0909	0.	-24.36
17221	14.843	3.	0.	-26.203
17222	14.843	3.0909	5.e-002	2.8486e-006
17223	15.118	3.0909	0.	-20.815
17224	15.026	3.	0.	-22.535
17225	15.026	3.0909	5.e-002	4.7618e-006
17226	15.301	3.0909	0.	-17.507
17227	15.209	3.	0.	-19.115
17228	15.209	3.0909	5.e-002	3.5729e-006
17229	15.484	3.0909	0.	-14.409
17230	15.392	3.	0.	-15.918
17231	15.392	3.0909	5.e-002	3.3345e-006
17232	15.667	3.0909	0.	-11.499
17233	15.575	3.	0.	-12.92
17234	15.575	3.0909	5.e-002	1.9076e-006
17235	15.85	3.0909	0.	-8.7559
17236	15.759	3.	0.	-10.099
17237	15.759	3.0909	5.e-002	3.2198e-006
17238	16.033	3.0909	0.	-6.1601
17239	15.942	3.	0.	-7.4351
17240	15.942	3.0909	5.e-002	3.4587e-006
17241	16.216	3.0909	0.	-3.6934
17242	16.125	3.	0.	-4.9087
17243	16.125	3.0909	5.e-002	2.2966e-006
17244	16.4	3.0909	0.	-1.3387
17245	16.308	3.	0.	-2.5025
17246	16.308	3.0909	5.e-002	3.6155e-006
17247	16.583	3.0909	0.	9.3175e-003
17248	16.491	3.	0.	-0.19986
17249	16.491	3.0909	5.e-002	2.3857e-006
17250	16.766	3.0909	0.	9.7869e-003
17251	16.674	3.	0.	9.6569e-003
17252	16.674	3.0909	5.e-002	4.0013e-006
17253	16.949	3.0909	0.	1.0179e-002
17254	16.857	3.	0.	1.0035e-002
17255	16.857	3.0909	5.e-002	6.6597e-006
17256	17.132	3.0909	0.	1.0561e-002
17257	17.041	3.	0.	1.0406e-002
17258	17.041	3.0909	5.e-002	7.5975e-006
17259	17.315	3.0909	0.	1.0956e-002
17260	17.224	3.	0.	1.0786e-002
17261	17.224	3.0909	5.e-002	7.686e-006
17262	17.498	3.0909	0.	1.1369e-002
17263	17.407	3.	0.	1.1189e-002
17264	17.407	3.0909	5.e-002	9.1758e-006
17265	17.682	3.0909	0.	1.1797e-002
17266	17.59	3.	0.	1.1609e-002
17267	17.59	3.0909	5.e-002	8.4604e-006
17268	17.865	3.0909	0.	1.2244e-002
17269	17.773	3.	0.	1.2042e-002
17270	17.773	3.0909	5.e-002	7.2685e-006
17271	18.048	3.0909	0.	1.2724e-002
17272	17.956	3.	0.	1.2502e-002
17273	17.956	3.0909	5.e-002	7.7475e-006
17274	18.231	3.0909	0.	1.323e-002
17275	18.139	3.	0.	1.3001e-002
17276	18.139	3.0909	5.e-002	5.4861e-006
17277	18.414	3.0909	0.	1.3758e-002
17278	18.323	3.	0.	1.3515e-002
17279	18.323	3.0909	5.e-002	7.1563e-006
17280	18.597	3.0909	0.	1.432e-002
17281	18.506	3.	0.	1.4056e-002
17282	18.506	3.0909	5.e-002	7.3991e-006
17283	18.78	3.0909	0.	1.4922e-002
17284	18.689	3.	0.	1.4641e-002
17285	18.689	3.0909	5.e-002	7.3962e-006
17286	18.964	3.0909	0.	1.5568e-002
17287	18.872	3.	0.	1.5262e-002
17288	18.872	3.0909	5.e-002	5.2407e-006
17289	19.147	3.0909	0.	1.6262e-002
17290	19.055	3.	0.	1.5934e-002
17291	19.055	3.0909	5.e-002	4.2799e-006
17292	19.33	3.0909	0.	1.7003e-002
17293	19.238	3.	0.	1.6652e-002
17294	19.238	3.0909	5.e-002	4.7478e-006
17295	19.513	3.0909	0.	1.7804e-002
17296	19.421	3.	0.	1.7417e-002
17297	19.421	3.0909	5.e-002	5.6916e-006
17298	19.696	3.0909	0.	1.8679e-002
17299	19.605	3.	0.	1.8257e-002
17300	19.605	3.0909	5.e-002	6.6431e-006
17301	19.879	3.0909	0.	1.9628e-002
17302	19.788	3.	0.	1.917e-002
17303	19.788	3.0909	5.e-002	6.6378e-006
17304	20.062	3.0909	0.	2.0664e-002
17305	19.971	3.	0.	2.0159e-002
17306	19.971	3.0909	5.e-002	6.145e-006
17307	20.246	3.0909	0.	2.18e-002
17308	20.154	3.	0.	2.1243e-002
17309	20.154	3.0909	5.e-002	9.9468e-006
17310	20.429	3.0909	0.	2.3049e-002
17311	20.337	3.	0.	2.2436e-002
17312	20.337	3.0909	5.e-002	8.5181e-006
17313	20.612	3.0909	0.	2.4427e-002
17314	20.52	3.	0.	2.3749e-002
17315	20.52	3.0909	5.e-002	1.138e-005
17316	20.795	3.0909	0.	2.5958e-002
17317	20.703	3.	0.	2.5197e-002
17318	20.703	3.0909	5.e-002	9.4804e-006
17319	20.978	3.0909	0.	2.7675e-002
17320	20.887	3.	0.	2.6819e-002
17321	20.887	3.0909	5.e-002	9.0135e-006
17322	21.161	3.0909	0.	2.9607e-002
17323	21.07	3.	0.	2.8641e-002
17324	21.07	3.0909	5.e-002	8.0658e-006
17325	21.344	3.0909	0.	3.1796e-002
17326	21.253	3.	0.	3.0695e-002
17327	21.253	3.0909	5.e-002	9.5287e-006
17328	21.528	3.0909	0.	3.4306e-002
17329	21.436	3.	0.	3.3036e-002
17330	21.436	3.0909	5.e-002	7.6206e-006
17331	21.711	3.0909	0.	3.721e-002
17332	21.619	3.	0.	3.5733e-002
17333	21.619	3.0909	5.e-002	9.5081e-006
17334	21.894	3.0909	0.	4.0615e-002
17335	21.802	3.	0.	3.8871e-002
17336	21.802	3.0909	5.e-002	7.602e-006
17337	22.077	3.0909	0.	4.4674e-002
17338	21.985	3.	0.	4.2581e-002
17339	21.985	3.0909	5.e-002	7.621e-006
17340	22.26	3.0909	0.	4.9596e-002
17341	22.169	3.	0.	4.7043e-002
17342	22.169	3.0909	5.e-002	5.7721e-006
17343	22.443	3.0909	0.	5.5714e-002
17344	22.352	3.	0.	5.2503e-002
17345	22.352	3.0909	5.e-002	7.7425e-006
17346	22.626	3.0909	0.	6.3458e-002
17347	22.535	3.	0.	5.9395e-002
17348	22.535	3.0909	5.e-002	7.7232e-006
17349	22.81	3.0909	0.	7.3863e-002
17350	22.718	3.	0.	6.8183e-002
17351	22.718	3.0909	5.e-002	4.8575e-006
17352	22.993	3.0909	0.	8.7387e-002
17353	22.901	3.	0.	8.0532e-002
17354	22.901	3.0909	5.e-002	7.7077e-006
17355	23.176	3.0909	0.	0.11028
17356	23.084	3.	0.	9.5846e-002
17357	23.084	3.0909	5.e-002	1.1588e-005
17358	23.359	3.0909	0.	0.13367
17359	23.267	3.	0.	0.12763
17360	23.267	3.0909	5.e-002	9.6994e-006
17361	23.542	3.0909	0.	0.23043
17362	23.451	3.	0.	0.1459
17363	23.451	3.0909	5.e-002	7.7289e-006
17364	23.725	3.0909	0.	0.23105
17365	23.634	3.	0.	0.33212
17366	23.634	3.0909	5.e-002	1.1459e-005
17367	23.817	3.	0.	0.21716
17368	23.817	3.0909	5.e-002	9.6053e-006
17369	23.908	3.0909	0.	0.44052
17370	8.3414	2.9091	0.	-0.19838
17371	8.2498	2.8182	0.	-1.7078
17372	8.2498	2.9091	5.e-002	3.8873e-005
17373	8.5245	2.9091	0.	0.468
17374	8.433	2.8182	0.	2.6938e-002
17375	8.433	2.9091	5.e-002	3.2997e-005
17376	8.7077	2.9091	0.	1.0309
17377	8.6161	2.8182	0.	0.94066
17378	8.6161	2.9091	5.e-002	2.1978e-005
17379	8.8908	2.9091	0.	-92.603
17380	8.7992	2.8182	0.	-27.958
17381	8.7992	2.9091	5.e-002	1.4505e-005
17382	9.0739	2.9091	0.	-219.58
17383	8.9824	2.8182	0.	-177.16
17384	8.9824	2.9091	5.e-002	6.5934e-006
17385	9.2571	2.9091	0.	-297.6
17386	9.1655	2.8182	0.	-271.57
17387	9.1655	2.9091	5.e-002	1.6495e-006
17388	9.4402	2.9091	0.	-339.67
17389	9.3487	2.8182	0.	-325.18
17390	9.3487	2.9091	5.e-002	-1.8212e-006
17391	9.6234	2.9091	0.	-356.99
17392	9.5318	2.8182	0.	-350.46
17393	9.5318	2.9091	5.e-002	-5.6728e-006
17394	9.8065	2.9091	0.	-358.
17395	9.7149	2.8182	0.	-356.86
17396	9.7149	2.9091	5.e-002	-5.4657e-006
17397	9.9897	2.9091	0.	-348.64
17398	9.8981	2.8182	0.	-351.08
17399	9.8981	2.9091	5.e-002	-1.8831e-006
17400	10.173	2.9091	0.	-332.99
17401	10.081	2.8182	0.	-337.73
17402	10.081	2.9091	5.e-002	-6.0662e-006
17403	10.356	2.9091	0.	-313.8
17404	10.264	2.8182	0.	-319.95
17405	10.264	2.9091	5.e-002	-1.3573e-005
17406	10.539	2.9091	0.	-292.9
17407	10.448	2.8182	0.	-299.84
17408	10.448	2.9091	5.e-002	-1.0076e-005
17409	10.722	2.9091	0.	-271.48
17410	10.631	2.8182	0.	-278.78
17411	10.631	2.9091	5.e-002	-2.7333e-006
17412	10.905	2.9091	0.	-250.32
17413	10.814	2.8182	0.	-257.69
17414	10.814	2.9091	5.e-002	-1.437e-005
17415	11.089	2.9091	0.	-229.9
17416	10.997	2.8182	0.	-237.15
17417	10.997	2.9091	5.e-002	-8.6755e-006
17418	11.272	2.9091	0.	-210.51
17419	11.18	2.8182	0.	-217.52
17420	11.18	2.9091	5.e-002	-6.8971e-006
17421	11.455	2.9091	0.	-192.31
17422	11.363	2.8182	0.	-198.99
17423	11.363	2.9091	5.e-002	-7.0339e-006
17424	11.638	2.9091	0.	-175.35
17425	11.546	2.8182	0.	-181.66
17426	11.546	2.9091	5.e-002	-5.1881e-006
17427	11.821	2.9091	0.	-159.65
17428	11.73	2.8182	0.	-165.57
17429	11.73	2.9091	5.e-002	-7.181e-006
17430	12.004	2.9091	0.	-145.16
17431	11.913	2.8182	0.	-150.7
17432	11.913	2.9091	5.e-002	-7.2903e-006
17433	12.187	2.9091	0.	-131.85
17434	12.096	2.8182	0.	-136.99
17435	12.096	2.9091	5.e-002	-7.3433e-006
17436	12.37	2.9091	0.	-119.62
17437	12.279	2.8182	0.	-124.39
17438	12.279	2.9091	5.e-002	-7.2558e-007
17439	12.554	2.9091	0.	-108.42
17440	12.462	2.8182	0.	-112.84
17441	12.462	2.9091	5.e-002	-1.7348e-006
17442	12.737	2.9091	0.	-98.154
17443	12.645	2.8182	0.	-102.24
17444	12.645	2.9091	5.e-002	-2.7369e-006
17445	12.92	2.9091	0.	-88.754
17446	12.828	2.8182	0.	-92.529
17447	12.828	2.9091	5.e-002	-2.7565e-006
17448	13.103	2.9091	0.	-80.143
17449	13.011	2.8182	0.	-83.631
17450	13.011	2.9091	5.e-002	7.4504e-008
17451	13.286	2.9091	0.	-72.252
17452	13.195	2.8182	0.	-75.474
17453	13.195	2.9091	5.e-002	-8.9382e-007
17454	13.469	2.9091	0.	-65.015
17455	13.378	2.8182	0.	-67.992
17456	13.378	2.9091	5.e-002	-1.8521e-006
17457	13.652	2.9091	0.	-58.371
17458	13.561	2.8182	0.	-61.124
17459	13.561	2.9091	5.e-002	-4.2654e-007
17460	13.836	2.9091	0.	-52.266
17461	13.744	2.8182	0.	-54.813
17462	13.744	2.9091	5.e-002	4.1493e-008
17463	14.019	2.9091	0.	-46.646
17464	13.927	2.8182	0.	-49.006
17465	13.927	2.9091	5.e-002	3.5109e-008
17466	14.202	2.9091	0.	-41.468
17467	14.11	2.8182	0.	-43.657
17468	14.11	2.9091	5.e-002	5.087e-007
17469	14.385	2.9091	0.	-36.686
17470	14.293	2.8182	0.	-38.72
17471	14.293	2.9091	5.e-002	1.9336e-006
17472	14.568	2.9091	0.	-32.264
17473	14.477	2.8182	0.	-34.157
17474	14.477	2.9091	5.e-002	1.2153e-006
17475	14.751	2.9091	0.	-28.166
17476	14.66	2.8182	0.	-29.932
17477	14.66	2.9091	5.e-002	1.2133e-006
17478	14.934	2.9091	0.	-24.36
17479	14.843	2.8182	0.	-26.01
17480	14.843	2.9091	5.e-002	2.1599e-006
17481	15.118	2.9091	0.	-20.815
17482	15.026	2.8182	0.	-22.363
17483	15.026	2.9091	5.e-002	3.3462e-006
17484	15.301	2.9091	0.	-17.507
17485	15.209	2.8182	0.	-18.961
17486	15.209	2.9091	5.e-002	2.6277e-006
17487	15.484	2.9091	0.	-14.409
17488	15.392	2.8182	0.	-15.781
17489	15.392	2.9091	5.e-002	2.2701e-006
17490	15.667	2.9091	0.	-11.499
17491	15.575	2.8182	0.	-12.797
17492	15.575	2.9091	5.e-002	7.1632e-007
17493	15.85	2.9091	0.	-8.7559
17494	15.759	2.8182	0.	-9.9895
17495	15.759	2.9091	5.e-002	2.2052e-006
17496	16.033	2.9091	0.	-6.1601
17497	15.942	2.8182	0.	-7.3375
17498	15.942	2.9091	5.e-002	2.3237e-006
17499	16.216	2.9091	0.	-3.6934
17500	16.125	2.8182	0.	-4.8224
17501	16.125	2.9091	5.e-002	1.1015e-006
17502	16.4	2.9091	0.	-1.3387
17503	16.308	2.8182	0.	-2.4268
17504	16.308	2.9091	5.e-002	2.3211e-006
17505	16.583	2.9091	0.	9.3182e-003
17506	16.491	2.8182	0.	-0.1375
17507	16.491	2.9091	5.e-002	1.161e-006
17508	16.766	2.9091	0.	9.7868e-003
17509	16.674	2.8182	0.	9.3453e-003
17510	16.674	2.9091	5.e-002	2.857e-006
17511	16.949	2.9091	0.	1.0178e-002
17512	16.857	2.8182	0.	9.8538e-003
17513	16.857	2.9091	5.e-002	5.1121e-006
17514	17.132	2.9091	0.	1.0561e-002
17515	17.041	2.8182	0.	1.0265e-002
17516	17.041	2.9091	5.e-002	6.7668e-006
17517	17.315	2.9091	0.	1.0955e-002
17518	17.224	2.8182	0.	1.0664e-002
17519	17.224	2.9091	5.e-002	6.0228e-006
17520	17.498	2.9091	0.	1.1369e-002
17521	17.407	2.8182	0.	1.1076e-002
17522	17.407	2.9091	5.e-002	7.9896e-006
17523	17.682	2.9091	0.	1.1797e-002
17524	17.59	2.8182	0.	1.1502e-002
17525	17.59	2.9091	5.e-002	7.1554e-006
17526	17.865	2.9091	0.	1.2244e-002
17527	17.773	2.8182	0.	1.1939e-002
17528	17.773	2.9091	5.e-002	5.8434e-006
17529	18.048	2.9091	0.	1.2723e-002
17530	17.956	2.8182	0.	1.24e-002
17531	17.956	2.9091	5.e-002	6.4372e-006
17532	18.231	2.9091	0.	1.3229e-002
17533	18.139	2.8182	0.	1.2899e-002
17534	18.139	2.9091	5.e-002	4.0494e-006
17535	18.414	2.9091	0.	1.3757e-002
17536	18.323	2.8182	0.	1.3414e-002
17537	18.323	2.9091	5.e-002	5.7175e-006
17538	18.597	2.9091	0.	1.432e-002
17539	18.506	2.8182	0.	1.3954e-002
17540	18.506	2.9091	5.e-002	5.9511e-006
17541	18.78	2.9091	0.	1.4922e-002
17542	18.689	2.8182	0.	1.4539e-002
17543	18.689	2.9091	5.e-002	6.1917e-006
17544	18.964	2.9091	0.	1.5568e-002
17545	18.872	2.8182	0.	1.5159e-002
17546	18.872	2.9091	5.e-002	3.579e-006
17547	19.147	2.9091	0.	1.6262e-002
17548	19.055	2.8182	0.	1.5829e-002
17549	19.055	2.9091	5.e-002	2.8705e-006
17550	19.33	2.9091	0.	1.7002e-002
17551	19.238	2.8182	0.	1.6546e-002
17552	19.238	2.9091	5.e-002	2.8784e-006
17553	19.513	2.9091	0.	1.7804e-002
17554	19.421	2.8182	0.	1.7309e-002
17555	19.421	2.9091	5.e-002	3.6048e-006
17556	19.696	2.9091	0.	1.8679e-002
17557	19.605	2.8182	0.	1.8146e-002
17558	19.605	2.9091	5.e-002	5.7526e-006
17559	19.879	2.9091	0.	1.9629e-002
17560	19.788	2.8182	0.	1.9058e-002
17561	19.788	2.9091	5.e-002	4.8037e-006
17562	20.062	2.9091	0.	2.0662e-002
17563	19.971	2.8182	0.	2.0044e-002
17564	19.971	2.9091	5.e-002	4.3425e-006
17565	20.246	2.9091	0.	2.1798e-002
17566	20.154	2.8182	0.	2.1127e-002
17567	20.154	2.9091	5.e-002	7.693e-006
17568	20.429	2.9091	0.	2.305e-002
17569	20.337	2.8182	0.	2.2316e-002
17570	20.337	2.9091	5.e-002	7.2139e-006
17571	20.612	2.9091	0.	2.4427e-002
17572	20.52	2.8182	0.	2.3627e-002
17573	20.52	2.9091	5.e-002	1.0075e-005
17574	20.795	2.9091	0.	2.5958e-002
17575	20.703	2.8182	0.	2.5072e-002
17576	20.703	2.9091	5.e-002	8.6357e-006
17577	20.978	2.9091	0.	2.7674e-002
17578	20.887	2.8182	0.	2.6693e-002
17579	20.887	2.9091	5.e-002	7.6721e-006
17580	21.161	2.9091	0.	2.9606e-002
17581	21.07	2.8182	0.	2.8512e-002
17582	21.07	2.9091	5.e-002	6.7117e-006
17583	21.344	2.9091	0.	3.1797e-002
17584	21.253	2.8182	0.	3.0564e-002
17585	21.253	2.9091	5.e-002	6.6798e-006
17586	21.528	2.9091	0.	3.4305e-002
17587	21.436	2.8182	0.	3.2904e-002
17588	21.436	2.9091	5.e-002	6.6812e-006
17589	21.711	2.9091	0.	3.7209e-002
17590	21.619	2.8182	0.	3.5596e-002
17591	21.619	2.9091	5.e-002	5.75e-006
17592	21.894	2.9091	0.	4.0613e-002
17593	21.802	2.8182	0.	3.8734e-002
17594	21.802	2.9091	5.e-002	5.7511e-006
17595	22.077	2.9091	0.	4.4674e-002
17596	21.985	2.8182	0.	4.244e-002
17597	21.985	2.9091	5.e-002	6.6835e-006
17598	22.26	2.9091	0.	4.9598e-002
17599	22.169	2.8182	0.	4.6904e-002
17600	22.169	2.9091	5.e-002	3.7634e-006
17601	22.443	2.9091	0.	5.5712e-002
17602	22.352	2.8182	0.	5.2358e-002
17603	22.352	2.9091	5.e-002	6.5644e-006
17604	22.626	2.9091	0.	6.3457e-002
17605	22.535	2.8182	0.	5.9244e-002
17606	22.535	2.9091	5.e-002	5.6234e-006
17607	22.81	2.9091	0.	7.3861e-002
17608	22.718	2.8182	0.	6.8028e-002
17609	22.718	2.9091	5.e-002	1.8079e-006
17610	22.993	2.9091	0.	8.7383e-002
17611	22.901	2.8182	0.	8.0367e-002
17612	22.901	2.9091	5.e-002	6.5867e-006
17613	23.176	2.9091	0.	0.11028
17614	23.084	2.8182	0.	9.5668e-002
17615	23.084	2.9091	5.e-002	9.3831e-006
17616	23.359	2.9091	0.	0.13367
17617	23.267	2.8182	0.	0.12743
17618	23.267	2.9091	5.e-002	9.3608e-006
17619	23.542	2.9091	0.	0.23044
17620	23.451	2.8182	0.	0.14568
17621	23.451	2.9091	5.e-002	7.5154e-006
17622	23.725	2.9091	0.	0.23105
17623	23.634	2.8182	0.	0.33179
17624	23.634	2.9091	5.e-002	7.6022e-006
17625	23.817	2.8182	0.	0.21646
17626	23.817	2.9091	5.e-002	5.6419e-006
17627	23.908	2.9091	0.	0.44052
17628	8.3414	2.7273	0.	-1.5971
17629	8.2498	2.6364	0.	0.94351
17630	8.2498	2.7273	5.e-002	5.2518e-005
17631	8.5245	2.7273	0.	0.38009
17632	8.433	2.6364	0.	0.26779
17633	8.433	2.7273	5.e-002	3.0968e-005
17634	8.7077	2.7273	0.	0.67431
17635	8.6161	2.6364	0.	0.41313
17636	8.6161	2.7273	5.e-002	1.8668e-005
17637	8.8908	2.7273	0.	-106.37
17638	8.7992	2.6364	0.	-51.087
17639	8.7992	2.7273	5.e-002	9.4203e-006
17640	9.0739	2.7273	0.	-225.54
17641	8.9824	2.6364	0.	-187.7
17642	8.9824	2.7273	5.e-002	5.2057e-006
17643	9.2571	2.7273	0.	-297.08
17644	9.1655	2.6364	0.	-271.68
17645	9.1655	2.7273	5.e-002	-4.4447e-007
17646	9.4402	2.7273	0.	-334.84
17647	9.3487	2.6364	0.	-318.35
17648	9.3487	2.7273	5.e-002	7.0668e-006
17649	9.6234	2.7273	0.	-349.74
17650	9.5318	2.6364	0.	-339.67
17651	9.5318	2.7273	5.e-002	-3.2075e-006
17652	9.8065	2.7273	0.	-349.64
17653	9.7149	2.6364	0.	-344.19
17654	9.7149	2.7273	5.e-002	-1.0167e-005
17655	9.9897	2.7273	0.	-340.02
17656	9.8981	2.6364	0.	-337.88
17657	9.8981	2.7273	5.e-002	-7.1938e-006
17658	10.173	2.7273	0.	-324.62
17659	10.081	2.6364	0.	-324.82
17660	10.081	2.7273	5.e-002	-2.6371e-006
17661	10.356	2.7273	0.	-305.95
17662	10.264	2.6364	0.	-307.78
17663	10.264	2.7273	5.e-002	-1.1032e-005
17664	10.539	2.7273	0.	-285.71
17665	10.448	2.6364	0.	-288.63
17666	10.448	2.7273	5.e-002	-7.1562e-006
17667	10.722	2.7273	0.	-264.99
17668	10.631	2.6364	0.	-268.64
17669	10.631	2.7273	5.e-002	-1.153e-005
17670	10.905	2.7273	0.	-244.53
17671	10.814	2.6364	0.	-248.62
17672	10.814	2.7273	5.e-002	-7.7146e-007
17673	11.089	2.7273	0.	-224.77
17674	10.997	2.6364	0.	-229.1
17675	10.997	2.7273	5.e-002	-4.8925e-006
17676	11.272	2.7273	0.	-206.
17677	11.18	2.6364	0.	-210.41
17678	11.18	2.7273	5.e-002	-4.903e-006
17679	11.455	2.7273	0.	-188.35
17680	11.363	2.6364	0.	-192.75
17681	11.363	2.7273	5.e-002	-5.9038e-006
17682	11.638	2.7273	0.	-171.88
17683	11.546	2.6364	0.	-176.2
17684	11.546	2.7273	5.e-002	-6.3979e-006
17685	11.821	2.7273	0.	-156.62
17686	11.73	2.6364	0.	-160.79
17687	11.73	2.7273	5.e-002	-4.3641e-006
17688	12.004	2.7273	0.	-142.52
17689	11.913	2.6364	0.	-146.52
17690	11.913	2.7273	5.e-002	-2.7376e-006
17691	12.187	2.7273	0.	-129.54
17692	12.096	2.6364	0.	-133.34
17693	12.096	2.7273	5.e-002	-4.9272e-006
17694	12.37	2.7273	0.	-117.61
17695	12.279	2.6364	0.	-121.21
17696	12.279	2.7273	5.e-002	-2.1992e-006
17697	12.554	2.7273	0.	-106.65
17698	12.462	2.6364	0.	-110.05
17699	12.462	2.7273	5.e-002	-3.8019e-007
17700	12.737	2.7273	0.	-96.611
17701	12.645	2.6364	0.	-99.801
17702	12.645	2.7273	5.e-002	-1.4661e-006
17703	12.92	2.7273	0.	-87.4
17704	12.828	2.6364	0.	-90.391
17705	12.828	2.7273	5.e-002	-6.6948e-007
17706	13.103	2.7273	0.	-78.954
17707	13.011	2.6364	0.	-81.753
17708	13.011	2.7273	5.e-002	-1.6711e-006
17709	13.286	2.7273	0.	-71.205
17710	13.195	2.6364	0.	-73.822
17711	13.195	2.7273	5.e-002	-3.6134e-006
17712	13.469	2.7273	0.	-64.092
17713	13.378	2.6364	0.	-66.535
17714	13.378	2.7273	5.e-002	-2.7058e-006
17715	13.652	2.7273	0.	-57.555
17716	13.561	2.6364	0.	-59.836
17717	13.561	2.7273	5.e-002	-1.287e-006
17718	13.836	2.7273	0.	-51.542
17719	13.744	2.6364	0.	-53.672
17720	13.744	2.7273	5.e-002	-3.6004e-007
17721	14.019	2.7273	0.	-46.004
17722	13.927	2.6364	0.	-47.993
17723	13.927	2.7273	5.e-002	1.0637e-006
17724	14.202	2.7273	0.	-40.895
17725	14.11	2.6364	0.	-42.756
17726	14.11	2.7273	5.e-002	1.0099e-007
17727	14.385	2.7273	0.	-36.176
17728	14.293	2.6364	0.	-37.917
17729	14.293	2.7273	5.e-002	1.9829e-006
17730	14.568	2.7273	0.	-31.809
17731	14.477	2.6364	0.	-33.44
17732	14.477	2.7273	5.e-002	1.265e-006
17733	14.751	2.7273	0.	-27.759
17734	14.66	2.6364	0.	-29.291
17735	14.66	2.7273	5.e-002	1.2619e-006
17736	14.934	2.7273	0.	-23.995
17737	14.843	2.6364	0.	-25.436
17738	14.843	2.7273	5.e-002	1.715e-006
17739	15.118	2.7273	0.	-20.489
17740	15.026	2.6364	0.	-21.849
17741	15.026	2.7273	5.e-002	3.3639e-006
17742	15.301	2.7273	0.	-17.215
17743	15.209	2.6364	0.	-18.501
17744	15.209	2.7273	5.e-002	2.8779e-006
17745	15.484	2.7273	0.	-14.148
17746	15.392	2.6364	0.	-15.369
17747	15.392	2.7273	5.e-002	2.1613e-006
17748	15.667	2.7273	0.	-11.266
17749	15.575	2.6364	0.	-12.429
17750	15.575	2.7273	5.e-002	4.8099e-007
17751	15.85	2.7273	0.	-8.5483
17752	15.759	2.6364	0.	-9.6611
17753	15.759	2.7273	5.e-002	1.8482e-006
17754	16.033	2.7273	0.	-5.9762
17755	15.942	2.6364	0.	-7.0456
17756	15.942	2.7273	5.e-002	2.2031e-006
17757	16.216	2.7273	0.	-3.5314
17758	16.125	2.6364	0.	-4.5643
17759	16.125	2.7273	5.e-002	9.213e-007
17760	16.4	2.7273	0.	-1.1976
17761	16.308	2.6364	0.	-2.2004
17762	16.308	2.7273	5.e-002	1.9016e-006
17763	16.583	2.7273	0.	8.198e-003
17764	16.491	2.6364	0.	-1.737e-002
17765	16.491	2.7273	5.e-002	1.0099e-006
17766	16.766	2.7273	0.	9.3511e-003
17767	16.674	2.6364	0.	8.4988e-003
17768	16.674	2.7273	5.e-002	2.5994e-006
17769	16.949	2.7273	0.	9.8693e-003
17770	16.857	2.6364	0.	9.3331e-003
17771	16.857	2.7273	5.e-002	5.3822e-006
17772	17.132	2.7273	0.	1.0303e-002
17773	17.041	2.6364	0.	9.8517e-003
17774	17.041	2.7273	5.e-002	6.1737e-006
17775	17.315	2.7273	0.	1.0724e-002
17776	17.224	2.6364	0.	1.0301e-002
17777	17.224	2.7273	5.e-002	6.5044e-006
17778	17.498	2.7273	0.	1.1151e-002
17779	17.407	2.6364	0.	1.0738e-002
17780	17.407	2.7273	5.e-002	7.5771e-006
17781	17.682	2.7273	0.	1.1587e-002
17782	17.59	2.6364	0.	1.1183e-002
17783	17.59	2.7273	5.e-002	6.9208e-006
17784	17.865	2.7273	0.	1.2039e-002
17785	17.773	2.6364	0.	1.1627e-002
17786	17.773	2.7273	5.e-002	5.6082e-006
17787	18.048	2.7273	0.	1.252e-002
17788	17.956	2.6364	0.	1.2094e-002
17789	17.956	2.7273	5.e-002	6.0787e-006
17790	18.231	2.7273	0.	1.3028e-002
17791	18.139	2.6364	0.	1.2596e-002
17792	18.139	2.7273	5.e-002	3.8038e-006
17793	18.414	2.7273	0.	1.3555e-002
17794	18.323	2.6364	0.	1.3109e-002
17795	18.323	2.7273	5.e-002	5.7051e-006
17796	18.597	2.7273	0.	1.4116e-002
17797	18.506	2.6364	0.	1.365e-002
17798	18.506	2.7273	5.e-002	5.6939e-006
17799	18.78	2.7273	0.	1.4717e-002
17800	18.689	2.6364	0.	1.4231e-002
17801	18.689	2.7273	5.e-002	5.9392e-006
17802	18.964	2.7273	0.	1.536e-002
17803	18.872	2.6364	0.	1.4847e-002
17804	18.872	2.7273	5.e-002	3.1056e-006
17805	19.147	2.7273	0.	1.6052e-002
17806	19.055	2.6364	0.	1.5514e-002
17807	19.055	2.7273	5.e-002	2.4115e-006
17808	19.33	2.7273	0.	1.6789e-002
17809	19.238	2.6364	0.	1.6226e-002
17810	19.238	2.7273	5.e-002	3.39e-006
17811	19.513	2.7273	0.	1.7584e-002
17812	19.421	2.6364	0.	1.6983e-002
17813	19.421	2.7273	5.e-002	4.1335e-006
17814	19.696	2.7273	0.	1.8455e-002
17815	19.605	2.6364	0.	1.7812e-002
17816	19.605	2.7273	5.e-002	5.3306e-006
17817	19.879	2.7273	0.	1.9401e-002
17818	19.788	2.6364	0.	1.8718e-002
17819	19.788	2.7273	5.e-002	4.872e-006
17820	20.062	2.7273	0.	2.0433e-002
17821	19.971	2.6364	0.	1.9698e-002
17822	19.971	2.7273	5.e-002	4.9183e-006
17823	20.246	2.7273	0.	2.1564e-002
17824	20.154	2.6364	0.	2.0775e-002
17825	20.154	2.7273	5.e-002	8.7711e-006
17826	20.429	2.7273	0.	2.2807e-002
17827	20.337	2.6364	0.	2.1954e-002
17828	20.337	2.7273	5.e-002	6.8591e-006
17829	20.612	2.7273	0.	2.418e-002
17830	20.52	2.6364	0.	2.3259e-002
17831	20.52	2.7273	5.e-002	9.722e-006
17832	20.795	2.7273	0.	2.5707e-002
17833	20.703	2.6364	0.	2.4697e-002
17834	20.703	2.7273	5.e-002	8.7363e-006
17835	20.978	2.7273	0.	2.7419e-002
17836	20.887	2.6364	0.	2.6309e-002
17837	20.887	2.7273	5.e-002	7.7602e-006
17838	21.161	2.7273	0.	2.9346e-002
17839	21.07	2.6364	0.	2.8122e-002
17840	21.07	2.7273	5.e-002	7.7333e-006
17841	21.344	2.7273	0.	3.1532e-002
17842	21.253	2.6364	0.	3.0165e-002
17843	21.253	2.7273	5.e-002	5.7339e-006
17844	21.528	2.7273	0.	3.4036e-002
17845	21.436	2.6364	0.	3.2499e-002
17846	21.436	2.7273	5.e-002	5.7443e-006
17847	21.711	2.7273	0.	3.6935e-002
17848	21.619	2.6364	0.	3.5185e-002
17849	21.619	2.7273	5.e-002	6.7717e-006
17850	21.894	2.7273	0.	4.0337e-002
17851	21.802	2.6364	0.	3.8318e-002
17852	21.802	2.7273	5.e-002	5.8194e-006
17853	22.077	2.7273	0.	4.4393e-002
17854	21.985	2.6364	0.	4.2018e-002
17855	21.985	2.7273	5.e-002	4.8069e-006
17856	22.26	2.7273	0.	4.9311e-002
17857	22.169	2.6364	0.	4.6472e-002
17858	22.169	2.7273	5.e-002	3.6689e-006
17859	22.443	2.7273	0.	5.5418e-002
17860	22.352	2.6364	0.	5.1918e-002
17861	22.352	2.7273	5.e-002	7.3049e-006
17862	22.626	2.7273	0.	6.3152e-002
17863	22.535	2.6364	0.	5.8793e-002
17864	22.535	2.7273	5.e-002	6.3788e-006
17865	22.81	2.7273	0.	7.3542e-002
17866	22.718	2.6364	0.	6.7556e-002
17867	22.718	2.7273	5.e-002	6.5283e-007
17868	22.993	2.7273	0.	8.7043e-002
17869	22.901	2.6364	0.	7.9867e-002
17870	22.901	2.7273	5.e-002	6.3946e-006
17871	23.176	2.7273	0.	0.10991
17872	23.084	2.6364	0.	9.5129e-002
17873	23.084	2.7273	5.e-002	7.1619e-006
17874	23.359	2.7273	0.	0.13324
17875	23.267	2.6364	0.	0.12682
17876	23.267	2.7273	5.e-002	7.0904e-006
17877	23.542	2.7273	0.	0.22989
17878	23.451	2.6364	0.	0.14498
17879	23.451	2.7273	5.e-002	5.3693e-006
17880	23.725	2.7273	0.	0.23015
17881	23.634	2.6364	0.	0.33078
17882	23.634	2.7273	5.e-002	7.5326e-006
17883	23.817	2.6364	0.	0.21433
17884	23.817	2.7273	5.e-002	5.4618e-006
17885	23.908	2.7273	0.	0.44024
17886	8.3414	2.5455	0.	2.521
17887	8.2498	2.4545	0.	-6.2945
17888	8.2498	2.5455	5.e-002	4.4268e-005
17889	8.5245	2.5455	0.	0.20315
17890	8.433	2.4545	0.	-4.2919
17891	8.433	2.5455	5.e-002	2.8512e-005
17892	8.7077	2.5455	0.	-0.72981
17893	8.6161	2.4545	0.	2.4005
17894	8.6161	2.5455	5.e-002	1.335e-005
17895	8.8908	2.5455	0.	-126.94
17896	8.7992	2.4545	0.	-74.389
17897	8.7992	2.5455	5.e-002	6.0928e-006
17898	9.0739	2.5455	0.	-231.08
17899	8.9824	2.4545	0.	-192.65
17900	8.9824	2.5455	5.e-002	3.7946e-006
17901	9.2571	2.5455	0.	-291.53
17902	9.1655	2.4545	0.	-263.34
17903	9.1655	2.5455	5.e-002	3.1445e-006
17904	9.4402	2.5455	0.	-322.46
17905	9.3487	2.4545	0.	-301.9
17906	9.3487	2.5455	5.e-002	-1.8293e-006
17907	9.6234	2.5455	0.	-333.77
17908	9.5318	2.4545	0.	-318.96
17909	9.5318	2.5455	5.e-002	1.054e-005
17910	9.8065	2.5455	0.	-332.26
17911	9.7149	2.4545	0.	-321.82
17912	9.7149	2.5455	5.e-002	1.0728e-006
17913	9.9897	2.5455	0.	-322.59
17914	9.8981	2.4545	0.	-315.47
17915	9.8981	2.5455	5.e-002	9.0699e-007
17916	10.173	2.5455	0.	-307.93
17917	10.081	2.4545	0.	-303.34
17918	10.081	2.5455	5.e-002	-8.6518e-006
17919	10.356	2.5455	0.	-290.44
17920	10.264	2.4545	0.	-287.77
17921	10.264	2.5455	5.e-002	-3.6232e-007
17922	10.539	2.5455	0.	-271.56
17923	10.448	2.4545	0.	-270.35
17924	10.448	2.5455	5.e-002	-5.894e-006
17925	10.722	2.5455	0.	-252.26
17926	10.631	2.4545	0.	-252.16
17927	10.631	2.5455	5.e-002	-3.6233e-006
17928	10.905	2.5455	0.	-233.19
17929	10.814	2.4545	0.	-233.9
17930	10.814	2.5455	5.e-002	-6.9204e-006
17931	11.089	2.5455	0.	-214.74
17932	10.997	2.4545	0.	-216.05
17933	10.997	2.5455	5.e-002	-1.7171e-006
17934	11.272	2.5455	0.	-197.16
17935	11.18	2.4545	0.	-198.91
17936	11.18	2.5455	5.e-002	-5.5907e-006
17937	11.455	2.5455	0.	-180.59
17938	11.363	2.4545	0.	-182.64
17939	11.363	2.5455	5.e-002	-3.3037e-006
17940	11.638	2.5455	0.	-165.1
17941	11.546	2.4545	0.	-167.33
17942	11.546	2.5455	5.e-002	-3.4532e-006
17943	11.821	2.5455	0.	-150.69
17944	11.73	2.4545	0.	-153.04
17945	11.73	2.5455	5.e-002	-3.4199e-006
17946	12.004	2.5455	0.	-137.34
17947	11.913	2.4545	0.	-139.74
17948	11.913	2.5455	5.e-002	-6.1539e-006
17949	12.187	2.5455	0.	-125.01
17950	12.096	2.4545	0.	-127.42
17951	12.096	2.5455	5.e-002	-4.1644e-006
17952	12.37	2.5455	0.	-113.65
17953	12.279	2.4545	0.	-116.03
17954	12.279	2.5455	5.e-002	-2.7916e-006
17955	12.554	2.5455	0.	-103.19
17956	12.462	2.4545	0.	-105.52
17957	12.462	2.5455	5.e-002	-2.8293e-006
17958	12.737	2.5455	0.	-93.577
17959	12.645	2.4545	0.	-95.83
17960	12.645	2.5455	5.e-002	-3.2142e-006
17961	12.92	2.5455	0.	-84.738
17962	12.828	2.4545	0.	-86.906
17963	12.828	2.5455	5.e-002	-1.3529e-006
17964	13.103	2.5455	0.	-76.613
17965	13.011	2.4545	0.	-78.689
17966	13.011	2.5455	5.e-002	-2.5992e-006
17967	13.286	2.5455	0.	-69.142
17968	13.195	2.4545	0.	-71.122
17969	13.195	2.5455	5.e-002	1.9916e-007
17970	13.469	2.5455	0.	-62.27
17971	13.378	2.4545	0.	-64.152
17972	13.378	2.5455	5.e-002	-2.6132e-006
17973	13.652	2.5455	0.	-55.943
17974	13.561	2.4545	0.	-57.727
17975	13.561	2.5455	5.e-002	-2.698e-007
17976	13.836	2.5455	0.	-50.112
17977	13.744	2.4545	0.	-51.802
17978	13.744	2.5455	5.e-002	-2.4265e-007
17979	14.019	2.5455	0.	-44.732
17980	13.927	2.4545	0.	-46.332
17981	13.927	2.5455	5.e-002	6.706e-007
17982	14.202	2.5455	0.	-39.763
17983	14.11	2.4545	0.	-41.276
17984	14.11	2.5455	5.e-002	1.5804e-006
17985	14.385	2.5455	0.	-35.166
17986	14.293	2.4545	0.	-36.597
17987	14.293	2.5455	5.e-002	2.49e-006
17988	14.568	2.5455	0.	-30.906
17989	14.477	2.4545	0.	-32.26
17990	14.477	2.5455	5.e-002	2.0176e-006
17991	14.751	2.5455	0.	-26.951
17992	14.66	2.4545	0.	-28.235
17993	14.66	2.5455	5.e-002	1.778e-006
17994	14.934	2.5455	0.	-23.272
17995	14.843	2.4545	0.	-24.49
17996	14.843	2.5455	5.e-002	1.9808e-006
17997	15.118	2.5455	0.	-19.841
17998	15.026	2.4545	0.	-21.001
17999	15.026	2.5455	5.e-002	4.0929e-006
18000	15.301	2.5455	0.	-16.635
18001	15.209	2.4545	0.	-17.741
18002	15.209	2.5455	5.e-002	3.6018e-006
18003	15.484	2.5455	0.	-13.629
18004	15.392	2.4545	0.	-14.688
18005	15.392	2.5455	5.e-002	2.2882e-006
18006	15.667	2.5455	0.	-10.802
18007	15.575	2.4545	0.	-11.82
18008	15.575	2.5455	5.e-002	1.3158e-006
18009	15.85	2.5455	0.	-8.1354
18010	15.759	2.4545	0.	-9.1176
18011	15.759	2.5455	5.e-002	2.2641e-006
18012	16.033	2.5455	0.	-5.61
18013	15.942	2.4545	0.	-6.5623
18014	15.942	2.5455	5.e-002	2.5592e-006
18015	16.216	2.5455	0.	-3.2087
18016	16.125	2.4545	0.	-4.1367
18017	16.125	2.5455	5.e-002	1.6947e-006
18018	16.4	2.5455	0.	-0.91711
18019	16.308	2.4545	0.	-1.8253
18020	16.308	2.5455	5.e-002	2.5092e-006
18021	16.583	2.5455	0.	6.5863e-003
18022	16.491	2.4545	0.	-3.1406e-003
18023	16.491	2.5455	5.e-002	1.7527e-006
18024	16.766	2.5455	0.	8.5518e-003
18025	16.674	2.4545	0.	7.327e-003
18026	16.674	2.5455	5.e-002	3.2808e-006
18027	16.949	2.5455	0.	9.2773e-003
18028	16.857	2.4545	0.	8.5284e-003
18029	16.857	2.5455	5.e-002	5.7867e-006
18030	17.132	2.5455	0.	9.7984e-003
18031	17.041	2.4545	0.	9.1892e-003
18032	17.041	2.5455	5.e-002	7.3102e-006
18033	17.315	2.5455	0.	1.0262e-002
18034	17.224	2.4545	0.	9.7074e-003
18035	17.224	2.5455	5.e-002	6.9251e-006
18036	17.498	2.5455	0.	1.0717e-002
18037	17.407	2.4545	0.	1.0186e-002
18038	17.407	2.5455	5.e-002	8.416e-006
18039	17.682	2.5455	0.	1.1169e-002
18040	17.59	2.4545	0.	1.0651e-002
18041	17.59	2.5455	5.e-002	8.1166e-006
18042	17.865	2.5455	0.	1.1628e-002
18043	17.773	2.4545	0.	1.1109e-002
18044	17.773	2.5455	5.e-002	6.6866e-006
18045	18.048	2.5455	0.	1.2115e-002
18046	17.956	2.4545	0.	1.1582e-002
18047	17.956	2.5455	5.e-002	7.1516e-006
18048	18.231	2.5455	0.	1.2622e-002
18049	18.139	2.4545	0.	1.2087e-002
18050	18.139	2.5455	5.e-002	4.8638e-006
18051	18.414	2.5455	0.	1.3149e-002
18052	18.323	2.4545	0.	1.2599e-002
18053	18.323	2.5455	5.e-002	5.9347e-006
18054	18.597	2.5455	0.	1.3707e-002
18055	18.506	2.4545	0.	1.3137e-002
18056	18.506	2.5455	5.e-002	6.6299e-006
18057	18.78	2.5455	0.	1.4302e-002
18058	18.689	2.4545	0.	1.3712e-002
18059	18.689	2.5455	5.e-002	6.6374e-006
18060	18.964	2.5455	0.	1.494e-002
18061	18.872	2.4545	0.	1.4322e-002
18062	18.872	2.5455	5.e-002	4.056e-006
18063	19.147	2.5455	0.	1.5625e-002
18064	19.055	2.4545	0.	1.498e-002
18065	19.055	2.5455	5.e-002	3.6288e-006
18066	19.33	2.5455	0.	1.6356e-002
18067	19.238	2.4545	0.	1.5683e-002
18068	19.238	2.5455	5.e-002	3.6554e-006
18069	19.513	2.5455	0.	1.7144e-002
18070	19.421	2.4545	0.	1.6431e-002
18071	19.421	2.5455	5.e-002	4.9172e-006
18072	19.696	2.5455	0.	1.8005e-002
18073	19.605	2.4545	0.	1.725e-002
18074	19.605	2.5455	5.e-002	6.8339e-006
18075	19.879	2.5455	0.	1.8941e-002
18076	19.788	2.4545	0.	1.8142e-002
18077	19.788	2.5455	5.e-002	5.4372e-006
18078	20.062	2.5455	0.	1.9962e-002
18079	19.971	2.4545	0.	1.9112e-002
18080	19.971	2.5455	5.e-002	5.9945e-006
18081	20.246	2.5455	0.	2.1083e-002
18082	20.154	2.4545	0.	2.0172e-002
18083	20.154	2.5455	5.e-002	9.8602e-006
18084	20.429	2.5455	0.	2.2318e-002
18085	20.337	2.4545	0.	2.1343e-002
18086	20.337	2.5455	5.e-002	8.4311e-006
18087	20.612	2.5455	0.	2.3681e-002
18088	20.52	2.4545	0.	2.2631e-002
18089	20.52	2.5455	5.e-002	1.1297e-005
18090	20.795	2.5455	0.	2.5197e-002
18091	20.703	2.4545	0.	2.4055e-002
18092	20.703	2.5455	5.e-002	1.0299e-005
18093	20.978	2.5455	0.	2.6898e-002
18094	20.887	2.4545	0.	2.5653e-002
18095	20.887	2.5455	5.e-002	8.8027e-006
18096	21.161	2.5455	0.	2.8815e-002
18097	21.07	2.4545	0.	2.7453e-002
18098	21.07	2.5455	5.e-002	7.8282e-006
18099	21.344	2.5455	0.	3.0991e-002
18100	21.253	2.4545	0.	2.9484e-002
18101	21.253	2.5455	5.e-002	8.6297e-006
18102	21.528	2.5455	0.	3.3487e-002
18103	21.436	2.4545	0.	3.1805e-002
18104	21.436	2.5455	5.e-002	7.6817e-006
18105	21.711	2.5455	0.	3.6378e-002
18106	21.619	2.4545	0.	3.4481e-002
18107	21.619	2.5455	5.e-002	7.7987e-006
18108	21.894	2.5455	0.	3.9772e-002
18109	21.802	2.4545	0.	3.76e-002
18110	21.802	2.5455	5.e-002	7.8117e-006
18111	22.077	2.5455	0.	4.3817e-002
18112	21.985	2.4545	0.	4.1288e-002
18113	21.985	2.5455	5.e-002	1.0555e-005
18114	22.26	2.5455	0.	4.8723e-002
18115	22.169	2.4545	0.	4.5729e-002
18116	22.169	2.5455	5.e-002	5.4595e-006
18117	22.443	2.5455	0.	5.4818e-002
18118	22.352	2.4545	0.	5.116e-002
18119	22.352	2.5455	5.e-002	1.0895e-005
18120	22.626	2.5455	0.	6.2531e-002
18121	22.535	2.4545	0.	5.8011e-002
18122	22.535	2.5455	5.e-002	9.0561e-006
18123	22.81	2.5455	0.	7.2888e-002
18124	22.718	2.4545	0.	6.6743e-002
18125	22.718	2.5455	5.e-002	4.2636e-006
18126	22.993	2.5455	0.	8.6344e-002
18127	22.901	2.4545	0.	7.9007e-002
18128	22.901	2.5455	5.e-002	6.2239e-006
18129	23.176	2.5455	0.	0.10914
18130	23.084	2.4545	0.	9.4201e-002
18131	23.084	2.5455	5.e-002	8.7716e-006
18132	23.359	2.5455	0.	0.13238
18133	23.267	2.4545	0.	0.12579
18134	23.267	2.5455	5.e-002	6.7489e-006
18135	23.542	2.5455	0.	0.22878
18136	23.451	2.4545	0.	0.14379
18137	23.451	2.5455	5.e-002	8.9583e-006
18138	23.725	2.5455	0.	0.22834
18139	23.634	2.4545	0.	0.32907
18140	23.634	2.5455	5.e-002	7.4945e-006
18141	23.817	2.4545	0.	0.21072
18142	23.817	2.5455	5.e-002	5.3284e-006
18143	23.908	2.5455	0.	0.43966
18144	8.3414	2.3636	0.	-13.346
18145	8.2498	2.2727	0.	-11.009
18146	8.2498	2.3636	5.e-002	4.0814e-005
18147	8.5245	2.3636	0.	-2.1056
18148	8.433	2.2727	0.	13.388
18149	8.433	2.3636	5.e-002	2.7804e-005
18150	8.7077	2.3636	0.	-0.13083
18151	8.6161	2.2727	0.	-7.8923e-002
18152	8.6161	2.3636	5.e-002	9.0608e-006
18153	8.8908	2.3636	0.	-136.63
18154	8.7992	2.2727	0.	-70.308
18155	8.7992	2.3636	5.e-002	4.0678e-006
18156	9.0739	2.3636	0.	-223.6
18157	8.9824	2.2727	0.	-175.09
18158	8.9824	2.3636	5.e-002	6.5296e-006
18159	9.2571	2.3636	0.	-273.24
18160	9.1655	2.2727	0.	-236.8
18161	9.1655	2.3636	5.e-002	-1.9533e-006
18162	9.4402	2.3636	0.	-298.26
18163	9.3487	2.2727	0.	-270.66
18164	9.3487	2.3636	5.e-002	8.2646e-007
18165	9.6234	2.3636	0.	-306.99
18166	9.5318	2.2727	0.	-285.88
18167	9.5318	2.3636	5.e-002	-2.8577e-006
18168	9.8065	2.3636	0.	-305.04
18169	9.7149	2.2727	0.	-288.84
18170	9.7149	2.3636	5.e-002	8.8713e-007
18171	9.9897	2.3636	0.	-296.24
18172	9.8981	2.2727	0.	-283.81
18173	9.8981	2.3636	5.e-002	1.6704e-006
18174	10.173	2.3636	0.	-283.19
18175	10.081	2.2727	0.	-273.71
18176	10.081	2.3636	5.e-002	-2.7904e-006
18177	10.356	2.3636	0.	-267.69
18178	10.264	2.2727	0.	-260.53
18179	10.264	2.3636	5.e-002	3.2569e-006
18180	10.539	2.3636	0.	-250.95
18181	10.448	2.2727	0.	-245.66
18182	10.448	2.3636	5.e-002	-6.6326e-006
18183	10.722	2.3636	0.	-233.79
18184	10.631	2.2727	0.	-229.99
18185	10.631	2.3636	5.e-002	-8.8652e-006
18186	10.905	2.3636	0.	-216.76
18187	10.814	2.2727	0.	-214.16
18188	10.814	2.3636	5.e-002	2.5385e-006
18189	11.089	2.3636	0.	-200.22
18190	10.997	2.2727	0.	-198.57
18191	10.997	2.3636	5.e-002	-2.1089e-006
18192	11.272	2.3636	0.	-184.38
18193	11.18	2.2727	0.	-183.49
18194	11.18	2.3636	5.e-002	-1.9481e-006
18195	11.455	2.3636	0.	-169.38
18196	11.363	2.2727	0.	-169.09
18197	11.363	2.3636	5.e-002	-1.1194e-006
18198	11.638	2.3636	0.	-155.27
18199	11.546	2.2727	0.	-155.45
18200	11.546	2.3636	5.e-002	-1.583e-006
18201	11.821	2.3636	0.	-142.09
18202	11.73	2.2727	0.	-142.63
18203	11.73	2.3636	5.e-002	-4.4713e-006
18204	12.004	2.3636	0.	-129.82
18205	11.913	2.2727	0.	-130.63
18206	11.913	2.3636	5.e-002	-4.9894e-006
18207	12.187	2.3636	0.	-118.43
18208	12.096	2.2727	0.	-119.45
18209	12.096	2.3636	5.e-002	-2.6482e-006
18210	12.37	2.3636	0.	-107.89
18211	12.279	2.2727	0.	-109.05
18212	12.279	2.3636	5.e-002	-1.1095e-006
18213	12.554	2.3636	0.	-98.15
18214	12.462	2.2727	0.	-99.4
18215	12.462	2.3636	5.e-002	-9.5586e-007
18216	12.737	2.3636	0.	-89.153
18217	12.645	2.2727	0.	-90.461
18218	12.645	2.3636	5.e-002	-1.8314e-006
18219	12.92	2.3636	0.	-80.851
18220	12.828	2.2727	0.	-82.186
18221	12.828	2.3636	5.e-002	-9.0776e-007
18222	13.103	2.3636	0.	-73.19
18223	13.011	2.2727	0.	-74.533
18224	13.011	2.3636	5.e-002	-2.4102e-006
18225	13.286	2.3636	0.	-66.122
18226	13.195	2.2727	0.	-67.454
18227	13.195	2.3636	5.e-002	2.4062e-007
18228	13.469	2.3636	0.	-59.599
18229	13.378	2.2727	0.	-60.908
18230	13.378	2.3636	5.e-002	-8.8524e-007
18231	13.652	2.3636	0.	-53.576
18232	13.561	2.2727	0.	-54.852
18233	13.561	2.3636	5.e-002	-1.5109e-007
18234	13.836	2.3636	0.	-48.01
18235	13.744	2.2727	0.	-49.248
18236	13.744	2.3636	5.e-002	2.0005e-007
18237	14.019	2.3636	0.	-42.861
18238	13.927	2.2727	0.	-44.058
18239	13.927	2.3636	5.e-002	6.9779e-007
18240	14.202	2.3636	0.	-38.095
18241	14.11	2.2727	0.	-39.248
18242	14.11	2.3636	5.e-002	6.4385e-007
18243	14.385	2.3636	0.	-33.675
18244	14.293	2.2727	0.	-34.785
18245	14.293	2.3636	5.e-002	2.0622e-006
18246	14.568	2.3636	0.	-29.572
18247	14.477	2.2727	0.	-30.639
18248	14.477	2.3636	5.e-002	2.0625e-006
18249	14.751	2.3636	0.	-25.757
18250	14.66	2.2727	0.	-26.782
18251	14.66	2.3636	5.e-002	2.0633e-006
18252	14.934	2.3636	0.	-22.201
18253	14.843	2.2727	0.	-23.188
18254	14.843	2.3636	5.e-002	2.003e-006
18255	15.118	2.3636	0.	-18.881
18256	15.026	2.2727	0.	-19.832
18257	15.026	2.3636	5.e-002	3.884e-006
18258	15.301	2.3636	0.	-15.774
18259	15.209	2.2727	0.	-16.692
18260	15.209	2.3636	5.e-002	3.2612e-006
18261	15.484	2.3636	0.	-12.858
18262	15.392	2.2727	0.	-13.747
18263	15.392	2.3636	5.e-002	2.6612e-006
18264	15.667	2.3636	0.	-10.113
18265	15.575	2.2727	0.	-10.978
18266	15.575	2.3636	5.e-002	1.3282e-006
18267	15.85	2.3636	0.	-7.5214
18268	15.759	2.2727	0.	-8.365
18269	15.759	2.3636	5.e-002	2.441e-006
18270	16.033	2.3636	0.	-5.0651
18271	15.942	2.2727	0.	-5.8922
18272	15.942	2.3636	5.e-002	2.8028e-006
18273	16.216	2.3636	0.	-2.7282
18274	16.125	2.2727	0.	-3.5434
18275	16.125	2.3636	5.e-002	1.6318e-006
18276	16.4	2.3636	0.	-0.50389
18277	16.308	2.2727	0.	-1.3056
18278	16.308	2.3636	5.e-002	2.7304e-006
18279	16.583	2.3636	0.	5.0272e-003
18280	16.491	2.2727	0.	-1.1098e-003
18281	16.491	2.3636	5.e-002	1.7529e-006
18282	16.766	2.3636	0.	7.506e-003
18283	16.674	2.2727	0.	6.0383e-003
18284	16.674	2.3636	5.e-002	3.6424e-006
18285	16.949	2.3636	0.	8.4443e-003
18286	16.857	2.2727	0.	7.5162e-003
18287	16.857	2.3636	5.e-002	6.3107e-006
18288	17.132	2.3636	0.	9.0663e-003
18289	17.041	2.2727	0.	8.3121e-003
18290	17.041	2.3636	5.e-002	7.4046e-006
18291	17.315	2.3636	0.	9.5879e-003
18292	17.224	2.2727	0.	8.9045e-003
18293	17.224	2.3636	5.e-002	6.9316e-006
18294	17.498	2.3636	0.	1.0072e-002
18295	17.407	2.2727	0.	9.4256e-003
18296	17.407	2.3636	5.e-002	9.0745e-006
18297	17.682	2.3636	0.	1.0542e-002
18298	17.59	2.2727	0.	9.9131e-003
18299	17.59	2.3636	5.e-002	8.e-006
18300	17.865	2.3636	0.	1.1012e-002
18301	17.773	2.2727	0.	1.0385e-002
18302	17.773	2.3636	5.e-002	6.9235e-006
18303	18.048	2.3636	0.	1.1501e-002
18304	17.956	2.2727	0.	1.0863e-002
18305	17.956	2.3636	5.e-002	7.2704e-006
18306	18.231	2.3636	0.	1.2009e-002
18307	18.139	2.2727	0.	1.1368e-002
18308	18.139	2.3636	5.e-002	4.9732e-006
18309	18.414	2.3636	0.	1.2532e-002
18310	18.323	2.2727	0.	1.1877e-002
18311	18.323	2.3636	5.e-002	6.403e-006
18312	18.597	2.3636	0.	1.3084e-002
18313	18.506	2.2727	0.	1.2408e-002
18314	18.506	2.3636	5.e-002	6.6099e-006
18315	18.78	2.3636	0.	1.3672e-002
18316	18.689	2.2727	0.	1.2975e-002
18317	18.689	2.3636	5.e-002	7.0992e-006
18318	18.964	2.3636	0.	1.4301e-002
18319	18.872	2.2727	0.	1.3574e-002
18320	18.872	2.3636	5.e-002	4.0757e-006
18321	19.147	2.3636	0.	1.4975e-002
18322	19.055	2.2727	0.	1.4219e-002
18323	19.055	2.3636	5.e-002	3.8936e-006
18324	19.33	2.3636	0.	1.5693e-002
18325	19.238	2.2727	0.	1.4909e-002
18326	19.238	2.3636	5.e-002	3.9425e-006
18327	19.513	2.3636	0.	1.6468e-002
18328	19.421	2.2727	0.	1.5639e-002
18329	19.421	2.3636	5.e-002	5.2084e-006
18330	19.696	2.3636	0.	1.7316e-002
18331	19.605	2.2727	0.	1.6443e-002
18332	19.605	2.3636	5.e-002	6.4153e-006
18333	19.879	2.3636	0.	1.8237e-002
18334	19.788	2.2727	0.	1.7318e-002
18335	19.788	2.3636	5.e-002	5.023e-006
18336	20.062	2.3636	0.	1.9241e-002
18337	19.971	2.2727	0.	1.8267e-002
18338	19.971	2.3636	5.e-002	6.5448e-006
18339	20.246	2.3636	0.	2.0346e-002
18340	20.154	2.2727	0.	1.9307e-002
18341	20.154	2.3636	5.e-002	9.5212e-006
18342	20.429	2.3636	0.	2.1565e-002
18343	20.337	2.2727	0.	2.0458e-002
18344	20.337	2.3636	5.e-002	8.567e-006
18345	20.612	2.3636	0.	2.2907e-002
18346	20.52	2.2727	0.	2.1724e-002
18347	20.52	2.3636	5.e-002	1.1919e-005
18348	20.795	2.3636	0.	2.4406e-002
18349	20.703	2.2727	0.	2.3126e-002
18350	20.703	2.3636	5.e-002	1.0436e-005
18351	20.978	2.3636	0.	2.6091e-002
18352	20.887	2.2727	0.	2.4703e-002
18353	20.887	2.3636	5.e-002	9.8828e-006
18354	21.161	2.3636	0.	2.7991e-002
18355	21.07	2.2727	0.	2.6481e-002
18356	21.07	2.3636	5.e-002	9.3442e-006
18357	21.344	2.3636	0.	3.0152e-002
18358	21.253	2.2727	0.	2.8491e-002
18359	21.253	2.3636	5.e-002	8.6778e-006
18360	21.528	2.3636	0.	3.2633e-002
18361	21.436	2.2727	0.	3.0791e-002
18362	21.436	2.3636	5.e-002	9.6184e-006
18363	21.711	2.3636	0.	3.5509e-002
18364	21.619	2.2727	0.	3.3448e-002
18365	21.619	2.3636	5.e-002	7.916e-006
18366	21.894	2.3636	0.	3.8885e-002
18367	21.802	2.2727	0.	3.6547e-002
18368	21.802	2.3636	5.e-002	7.8575e-006
18369	22.077	2.3636	0.	4.2915e-002
18370	21.985	2.2727	0.	4.0216e-002
18371	21.985	2.3636	5.e-002	8.7246e-006
18372	22.26	2.3636	0.	4.7803e-002
18373	22.169	2.2727	0.	4.4635e-002
18374	22.169	2.3636	5.e-002	5.3902e-006
18375	22.443	2.3636	0.	5.3873e-002
18376	22.352	2.2727	0.	5.0041e-002
18377	22.352	2.3636	5.e-002	8.8176e-006
18378	22.626	2.3636	0.	6.1553e-002
18379	22.535	2.2727	0.	5.6857e-002
18380	22.535	2.3636	5.e-002	7.9238e-006
18381	22.81	2.3636	0.	7.1865e-002
18382	22.718	2.2727	0.	6.5544e-002
18383	22.718	2.3636	5.e-002	3.1293e-006
18384	22.993	2.3636	0.	8.5254e-002
18385	22.901	2.2727	0.	7.7742e-002
18386	22.901	2.3636	5.e-002	7.0395e-006
18387	23.176	2.3636	0.	0.10794
18388	23.084	2.2727	0.	9.2838e-002
18389	23.084	2.3636	5.e-002	8.4963e-006
18390	23.359	2.3636	0.	0.13103
18391	23.267	2.2727	0.	0.12426
18392	23.267	2.3636	5.e-002	6.4427e-006
18393	23.542	2.3636	0.	0.22706
18394	23.451	2.2727	0.	0.14204
18395	23.451	2.3636	5.e-002	8.7456e-006
18396	23.725	2.3636	0.	0.22553
18397	23.634	2.2727	0.	0.32657
18398	23.634	2.3636	5.e-002	1.1254e-005
18399	23.817	2.2727	0.	0.20553
18400	23.817	2.3636	5.e-002	7.1146e-006
18401	23.908	2.3636	0.	0.43875
18402	8.3414	2.1818	0.	14.996
18403	8.2498	2.0909	0.	-241.01
18404	8.2498	2.1818	5.e-002	3.5289e-005
18405	8.5245	2.1818	0.	14.445
18406	8.433	2.0909	0.	57.012
18407	8.433	2.1818	5.e-002	1.8341e-005
18408	8.7077	2.1818	0.	-5.17
18409	8.6161	2.0909	0.	-12.028
18410	8.6161	2.1818	5.e-002	2.3363e-005
18411	8.8908	2.1818	0.	-108.4
18412	8.7992	2.0909	0.	-20.866
18413	8.7992	2.1818	5.e-002	-1.077e-005
18414	9.0739	2.1818	0.	-188.75
18415	8.9824	2.0909	0.	-121.69
18416	8.9824	2.1818	5.e-002	1.3861e-005
18417	9.2571	2.1818	0.	-234.79
18418	9.1655	2.0909	0.	-185.8
18419	9.1655	2.1818	5.e-002	1.39e-005
18420	9.4402	2.1818	0.	-258.75
18421	9.3487	2.0909	0.	-222.
18422	9.3487	2.1818	5.e-002	-9.0229e-006
18423	9.6234	2.1818	0.	-268.06
18424	9.5318	2.0909	0.	-239.73
18425	9.5318	2.1818	5.e-002	2.1933e-005
18426	9.8065	2.1818	0.	-267.81
18427	9.7149	2.0909	0.	-245.54
18428	9.7149	2.1818	5.e-002	1.6532e-006
18429	9.9897	2.1818	0.	-261.39
18430	9.8981	2.0909	0.	-243.66
18431	9.8981	2.1818	5.e-002	1.7199e-005
18432	10.173	2.1818	0.	-251.11
18433	10.081	2.0909	0.	-236.9
18434	10.081	2.1818	5.e-002	1.0187e-005
18435	10.356	2.1818	0.	-238.53
18436	10.264	2.0909	0.	-227.12
18437	10.264	2.1818	5.e-002	1.1327e-005
18438	10.539	2.1818	0.	-224.71
18439	10.448	2.0909	0.	-215.57
18440	10.448	2.1818	5.e-002	-2.4626e-006
18441	10.722	2.1818	0.	-210.36
18442	10.631	2.0909	0.	-203.09
18443	10.631	2.1818	5.e-002	3.8387e-006
18444	10.905	2.1818	0.	-195.96
18445	10.814	2.0909	0.	-190.25
18446	10.814	2.1818	5.e-002	4.4258e-006
18447	11.089	2.1818	0.	-181.84
18448	10.997	2.0909	0.	-177.42
18449	10.997	2.1818	5.e-002	-2.6065e-006
18450	11.272	2.1818	0.	-168.2
18451	11.18	2.0909	0.	-164.84
18452	11.18	2.1818	5.e-002	2.9034e-006
18453	11.455	2.1818	0.	-155.16
18454	11.363	2.0909	0.	-152.68
18455	11.363	2.1818	5.e-002	-6.3659e-006
18456	11.638	2.1818	0.	-142.81
18457	11.546	2.0909	0.	-141.05
18458	11.546	2.1818	5.e-002	-2.0292e-006
18459	11.821	2.1818	0.	-131.17
18460	11.73	2.0909	0.	-130.
18461	11.73	2.1818	5.e-002	2.2234e-007
18462	12.004	2.1818	0.	-120.26
18463	11.913	2.0909	0.	-119.55
18464	11.913	2.1818	5.e-002	-2.8511e-007
18465	12.187	2.1818	0.	-110.06
18466	12.096	2.0909	0.	-109.73
18467	12.096	2.1818	5.e-002	-2.1662e-006
18468	12.37	2.1818	0.	-100.55
18469	12.279	2.0909	0.	-100.52
18470	12.279	2.1818	5.e-002	-4.8749e-007
18471	12.554	2.1818	0.	-91.705
18472	12.462	2.0909	0.	-91.911
18473	12.462	2.1818	5.e-002	-3.2189e-007
18474	12.737	2.1818	0.	-83.487
18475	12.645	2.0909	0.	-83.874
18476	12.645	2.1818	5.e-002	-1.6435e-006
18477	12.92	2.1818	0.	-75.861
18478	12.828	2.0909	0.	-76.383
18479	12.828	2.1818	5.e-002	1.1107e-006
18480	13.103	2.1818	0.	-68.788
18481	13.011	2.0909	0.	-69.409
18482	13.011	2.1818	5.e-002	-5.3093e-007
18483	13.286	2.1818	0.	-62.23
18484	13.195	2.0909	0.	-62.922
18485	13.195	2.1818	5.e-002	-1.3367e-006
18486	13.469	2.1818	0.	-56.151
18487	13.378	2.0909	0.	-56.891
18488	13.378	2.1818	5.e-002	-1.1965e-006
18489	13.652	2.1818	0.	-50.513
18490	13.561	2.0909	0.	-51.284
18491	13.561	2.1818	5.e-002	1.9865e-007
18492	13.836	2.1818	0.	-45.285
18493	13.744	2.0909	0.	-46.072
18494	13.744	2.1818	5.e-002	4.9633e-007
18495	14.019	2.1818	0.	-40.432
18496	13.927	2.0909	0.	-41.225
18497	13.927	2.1818	5.e-002	1.8101e-006
18498	14.202	2.1818	0.	-35.924
18499	14.11	2.0909	0.	-36.716
18500	14.11	2.1818	5.e-002	6.7556e-007
18501	14.385	2.1818	0.	-31.733
18502	14.293	2.0909	0.	-32.518
18503	14.293	2.1818	5.e-002	2.755e-006
18504	14.568	2.1818	0.	-27.832
18505	14.477	2.0909	0.	-28.606
18506	14.477	2.1818	5.e-002	2.6087e-006
18507	14.751	2.1818	0.	-24.195
18508	14.66	2.0909	0.	-24.957
18509	14.66	2.1818	5.e-002	2.0515e-006
18510	14.934	2.1818	0.	-20.799
18511	14.843	2.0909	0.	-21.548
18512	14.843	2.1818	5.e-002	2.5061e-006
18513	15.118	2.1818	0.	-17.623
18514	15.026	2.0909	0.	-18.358
18515	15.026	2.1818	5.e-002	4.4052e-006
18516	15.301	2.1818	0.	-14.644
18517	15.209	2.0909	0.	-15.368
18518	15.209	2.1818	5.e-002	3.5e-006
18519	15.484	2.1818	0.	-11.845
18520	15.392	2.0909	0.	-12.558
18521	15.392	2.1818	5.e-002	2.7897e-006
18522	15.667	2.1818	0.	-9.2068
18523	15.575	2.0909	0.	-9.9111
18524	15.575	2.1818	5.e-002	1.6529e-006
18525	15.85	2.1818	0.	-6.7125
18526	15.759	2.0909	0.	-7.4109
18527	15.759	2.1818	5.e-002	2.923e-006
18528	16.033	2.1818	0.	-4.3464
18529	15.942	2.0909	0.	-5.0418
18530	15.942	2.1818	5.e-002	3.0948e-006
18531	16.216	2.1818	0.	-2.0944
18532	16.125	2.0909	0.	-2.7897
18533	16.125	2.1818	5.e-002	1.8977e-006
18534	16.4	2.1818	0.	-6.7627e-002
18535	16.308	2.0909	0.	-0.65154
18536	16.308	2.1818	5.e-002	3.0611e-006
18537	16.583	2.1818	0.	3.721e-003
18538	16.491	2.0909	0.	-5.0382e-004
18539	16.491	2.1818	5.e-002	2.2272e-006
18540	16.766	2.1818	0.	6.3286e-003
18541	16.674	2.0909	0.	4.7721e-003
18542	16.674	2.1818	5.e-002	3.7379e-006
18543	16.949	2.1818	0.	7.4275e-003
18544	16.857	2.0909	0.	6.3729e-003
18545	16.857	2.1818	5.e-002	6.5356e-006
18546	17.132	2.1818	0.	8.1396e-003
18547	17.041	2.0909	0.	7.266e-003
18548	17.041	2.1818	5.e-002	7.3495e-006
18549	17.315	2.1818	0.	8.7121e-003
18550	17.224	2.0909	0.	7.9167e-003
18551	17.224	2.1818	5.e-002	7.4227e-006
18552	17.498	2.1818	0.	9.2272e-003
18553	17.407	2.0909	0.	8.4713e-003
18554	17.407	2.1818	5.e-002	9.0844e-006
18555	17.682	2.1818	0.	9.7124e-003
18556	17.59	2.0909	0.	8.978e-003
18557	17.59	2.1818	5.e-002	8.3692e-006
18558	17.865	2.1818	0.	1.0189e-002
18559	17.773	2.0909	0.	9.4572e-003
18560	17.773	2.1818	5.e-002	7.2749e-006
18561	18.048	2.1818	0.	1.068e-002
18562	17.956	2.0909	0.	9.9368e-003
18563	17.956	2.1818	5.e-002	7.6136e-006
18564	18.231	2.1818	0.	1.1183e-002
18565	18.139	2.0909	0.	1.0437e-002
18566	18.139	2.1818	5.e-002	5.4528e-006
18567	18.414	2.1818	0.	1.1698e-002
18568	18.323	2.0909	0.	1.0937e-002
18569	18.323	2.1818	5.e-002	6.8853e-006
18570	18.597	2.1818	0.	1.2241e-002
18571	18.506	2.0909	0.	1.1456e-002
18572	18.506	2.1818	5.e-002	7.0746e-006
18573	18.78	2.1818	0.	1.2816e-002
18574	18.689	2.0909	0.	1.2009e-002
18575	18.689	2.1818	5.e-002	7.3216e-006
18576	18.964	2.1818	0.	1.3429e-002
18577	18.872	2.0909	0.	1.259e-002
18578	18.872	2.1818	5.e-002	4.5566e-006
18579	19.147	2.1818	0.	1.4087e-002
18580	19.055	2.0909	0.	1.3216e-002
18581	19.055	2.1818	5.e-002	4.1867e-006
18582	19.33	2.1818	0.	1.4787e-002
18583	19.238	2.0909	0.	1.3885e-002
18584	19.238	2.1818	5.e-002	4.4527e-006
18585	19.513	2.1818	0.	1.5543e-002
18586	19.421	2.0909	0.	1.4593e-002
18587	19.421	2.1818	5.e-002	5.4996e-006
18588	19.696	2.1818	0.	1.637e-002
18589	19.605	2.0909	0.	1.5371e-002
18590	19.605	2.1818	5.e-002	6.9534e-006
18591	19.879	2.1818	0.	1.7268e-002
18592	19.788	2.0909	0.	1.622e-002
18593	19.788	2.1818	5.e-002	6.5239e-006
18594	20.062	2.1818	0.	1.8249e-002
18595	19.971	2.0909	0.	1.7141e-002
18596	19.971	2.1818	5.e-002	6.6707e-006
18597	20.246	2.1818	0.	1.9329e-002
18598	20.154	2.0909	0.	1.8153e-002
18599	20.154	2.1818	5.e-002	1.0141e-005
18600	20.429	2.1818	0.	2.052e-002
18601	20.337	2.0909	0.	1.9271e-002
18602	20.337	2.1818	5.e-002	9.1811e-006
18603	20.612	2.1818	0.	2.1839e-002
18604	20.52	2.0909	0.	2.0507e-002
18605	20.52	2.1818	5.e-002	1.155e-005
18606	20.795	2.1818	0.	2.3311e-002
18607	20.703	2.0909	0.	2.1879e-002
18608	20.703	2.1818	5.e-002	1.1977e-005
18609	20.978	2.1818	0.	2.497e-002
18610	20.887	2.0909	0.	2.3423e-002
18611	20.887	2.1818	5.e-002	1.0464e-005
18612	21.161	2.1818	0.	2.6844e-002
18613	21.07	2.0909	0.	2.5167e-002
18614	21.07	2.1818	5.e-002	9.9328e-006
18615	21.344	2.1818	0.	2.8977e-002
18616	21.253	2.0909	0.	2.7145e-002
18617	21.253	2.1818	5.e-002	9.6434e-006
18618	21.528	2.1818	0.	3.1432e-002
18619	21.436	2.0909	0.	2.9412e-002
18620	21.436	2.1818	5.e-002	8.7581e-006
18621	21.711	2.1818	0.	3.4284e-002
18622	21.619	2.0909	0.	3.2038e-002
18623	21.619	2.1818	5.e-002	9.8832e-006
18624	21.894	2.1818	0.	3.7638e-002
18625	21.802	2.0909	0.	3.5106e-002
18626	21.802	2.1818	5.e-002	1.083e-005
18627	22.077	2.1818	0.	4.1642e-002
18628	21.985	2.0909	0.	3.8744e-002
18629	21.985	2.1818	5.e-002	9.7786e-006
18630	22.26	2.1818	0.	4.6501e-002
18631	22.169	2.0909	0.	4.3131e-002
18632	22.169	2.1818	5.e-002	7.2017e-006
18633	22.443	2.1818	0.	5.2536e-002
18634	22.352	2.0909	0.	4.8499e-002
18635	22.352	2.1818	5.e-002	8.6537e-006
18636	22.626	2.1818	0.	6.017e-002
18637	22.535	2.0909	0.	5.5268e-002
18638	22.535	2.1818	5.e-002	9.6634e-006
18639	22.81	2.1818	0.	7.0418e-002
18640	22.718	2.0909	0.	6.3894e-002
18641	22.718	2.1818	5.e-002	5.7497e-006
18642	22.993	2.1818	0.	8.3714e-002
18643	22.901	2.0909	0.	7.6e-002
18644	22.901	2.1818	5.e-002	6.8921e-006
18645	23.176	2.1818	0.	0.10626
18646	23.084	2.0909	0.	9.0969e-002
18647	23.084	2.1818	5.e-002	7.2107e-006
18648	23.359	2.1818	0.	0.12914
18649	23.267	2.0909	0.	0.12218
18650	23.267	2.1818	5.e-002	1.1768e-005
18651	23.542	2.1818	0.	0.22464
18652	23.451	2.0909	0.	0.13966
18653	23.451	2.1818	5.e-002	6.6234e-006
18654	23.725	2.1818	0.	0.22163
18655	23.634	2.0909	0.	0.32317
18656	23.634	2.1818	5.e-002	9.3763e-006
18657	23.817	2.0909	0.	0.1986
18658	23.817	2.1818	5.e-002	7.0409e-006
18659	23.908	2.1818	0.	0.43747
18660	8.3414	2.	0.	-241.73
18661	8.2498	1.9091	0.	-356.56
18662	8.2498	2.	5.e-002	1.838e-005
18663	8.1582	2.	0.	-453.04
18664	8.5245	2.	0.	30.177
18665	8.433	1.9091	0.	42.626
18666	8.433	2.	5.e-002	-2.9425e-005
18667	8.7077	2.	0.	-9.9285
18668	8.6161	1.9091	0.	-12.253
18669	8.6161	2.	5.e-002	4.3637e-005
18670	8.8908	2.	0.	-35.727
18671	8.7992	1.9091	0.	-5.1993
18672	8.7992	2.	5.e-002	2.9985e-005
18673	9.0739	2.	0.	-120.97
18674	8.9824	1.9091	0.	-41.819
18675	8.9824	2.	5.e-002	4.0716e-005
18676	9.2571	2.	0.	-174.56
18677	9.1655	1.9091	0.	-113.78
18678	9.1655	2.	5.e-002	1.3568e-005
18679	9.4402	2.	0.	-204.
18680	9.3487	1.9091	0.	-158.66
18681	9.3487	2.	5.e-002	-5.4958e-006
18682	9.6234	2.	0.	-217.85
18683	9.5318	1.9091	0.	-182.9
18684	9.5318	2.	5.e-002	2.0151e-005
18685	9.8065	2.	0.	-221.77
18686	9.7149	1.9091	0.	-194.07
18687	9.7149	2.	5.e-002	3.5425e-005
18688	9.9897	2.	0.	-219.38
18689	9.8981	1.9091	0.	-196.97
18690	9.8981	2.	5.e-002	2.251e-005
18691	10.173	2.	0.	-213.02
18692	10.081	1.9091	0.	-194.67
18693	10.081	2.	5.e-002	1.9397e-005
18694	10.356	2.	0.	-204.22
18695	10.264	1.9091	0.	-189.09
18696	10.264	2.	5.e-002	1.8953e-005
18697	10.539	2.	0.	-193.98
18698	10.448	1.9091	0.	-181.5
18699	10.448	2.	5.e-002	5.1992e-006
18700	10.722	2.	0.	-183.
18701	10.631	1.9091	0.	-172.71
18702	10.631	2.	5.e-002	1.2716e-005
18703	10.905	2.	0.	-171.7
18704	10.814	1.9091	0.	-163.27
18705	10.814	2.	5.e-002	1.1119e-005
18706	11.089	2.	0.	-160.41
18707	10.997	1.9091	0.	-153.54
18708	10.997	2.	5.e-002	2.6576e-006
18709	11.272	2.	0.	-149.32
18710	11.18	1.9091	0.	-143.76
18711	11.18	2.	5.e-002	-2.9561e-006
18712	11.455	2.	0.	-138.56
18713	11.363	1.9091	0.	-134.12
18714	11.363	2.	5.e-002	-3.1821e-006
18715	11.638	2.	0.	-128.23
18716	11.546	1.9091	0.	-124.71
18717	11.546	2.	5.e-002	-1.3568e-006
18718	11.821	2.	0.	-118.37
18719	11.73	1.9091	0.	-115.64
18720	11.73	2.	5.e-002	2.2215e-006
18721	12.004	2.	0.	-109.02
18722	11.913	1.9091	0.	-106.93
18723	11.913	2.	5.e-002	6.8337e-007
18724	12.187	2.	0.	-100.19
18725	12.096	1.9091	0.	-98.635
18726	12.096	2.	5.e-002	-9.0838e-007
18727	12.37	2.	0.	-91.879
18728	12.279	1.9091	0.	-90.758
18729	12.279	2.	5.e-002	-3.3451e-007
18730	12.554	2.	0.	-84.074
18731	12.462	1.9091	0.	-83.308
18732	12.462	2.	5.e-002	-2.6046e-006
18733	12.737	2.	0.	-76.761
18734	12.645	1.9091	0.	-76.283
18735	12.645	2.	5.e-002	-1.4087e-006
18736	12.92	2.	0.	-69.922
18737	12.828	1.9091	0.	-69.674
18738	12.828	2.	5.e-002	-7.141e-007
18739	13.103	2.	0.	-63.534
18740	13.011	1.9091	0.	-63.469
18741	13.011	2.	5.e-002	-1.2173e-006
18742	13.286	2.	0.	-57.573
18743	13.195	1.9091	0.	-57.652
18744	13.195	2.	5.e-002	-5.2005e-007
18745	13.469	2.	0.	-52.013
18746	13.378	1.9091	0.	-52.206
18747	13.378	2.	5.e-002	-1.119e-006
18748	13.652	2.	0.	-46.83
18749	13.561	1.9091	0.	-47.11
18750	13.561	2.	5.e-002	4.1238e-007
18751	13.836	2.	0.	-41.999
18752	13.744	1.9091	0.	-42.345
18753	13.744	2.	5.e-002	2.3167e-007
18754	14.019	2.	0.	-37.495
18755	13.927	1.9091	0.	-37.891
18756	13.927	2.	5.e-002	1.3623e-006
18757	14.202	2.	0.	-33.294
18758	14.11	1.9091	0.	-33.729
18759	14.11	2.	5.e-002	1.2392e-006
18760	14.385	2.	0.	-29.375
18761	14.293	1.9091	0.	-29.837
18762	14.293	2.	5.e-002	2.359e-006
18763	14.568	2.	0.	-25.714
18764	14.477	1.9091	0.	-26.197
18765	14.477	2.	5.e-002	2.3543e-006
18766	14.751	2.	0.	-22.292
18767	14.66	1.9091	0.	-22.789
18768	14.66	2.	5.e-002	1.8718e-006
18769	14.934	2.	0.	-19.088
18770	14.843	1.9091	0.	-19.597
18771	14.843	2.	5.e-002	2.0756e-006
18772	15.118	2.	0.	-16.083
18773	15.026	1.9091	0.	-16.601
18774	15.026	2.	5.e-002	3.6772e-006
18775	15.301	2.	0.	-13.26
18776	15.209	1.9091	0.	-13.785
18777	15.209	2.	5.e-002	2.7892e-006
18778	15.484	2.	0.	-10.602
18779	15.392	1.9091	0.	-11.134
18780	15.392	2.	5.e-002	2.7647e-006
18781	15.667	2.	0.	-8.0925
18782	15.575	1.9091	0.	-8.6323
18783	15.575	2.	5.e-002	1.3221e-006
18784	15.85	2.	0.	-5.7167
18785	15.759	1.9091	0.	-6.265
18786	15.759	2.	5.e-002	2.5273e-006
18787	16.033	2.	0.	-3.4605
18788	15.942	1.9091	0.	-4.0189
18789	15.942	2.	5.e-002	2.6991e-006
18790	16.216	2.	0.	-1.3144
18791	16.125	1.9091	0.	-1.8831
18792	16.125	2.	5.e-002	1.4051e-006
18793	16.4	2.	0.	-1.1185e-002
18794	16.308	1.9091	0.	-6.4019e-002
18795	16.308	2.	5.e-002	2.6084e-006
18796	16.583	2.	0.	2.661e-003
18797	16.491	1.9091	0.	-3.3722e-004
18798	16.491	2.	5.e-002	1.839e-006
18799	16.766	2.	0.	5.1118e-003
18800	16.674	1.9091	0.	3.5939e-003
18801	16.674	2.	5.e-002	3.4618e-006
18802	16.949	2.	0.	6.2831e-003
18803	16.857	1.9091	0.	5.1645e-003
18804	16.857	2.	5.e-002	5.9871e-006
18805	17.132	2.	0.	7.0518e-003
18806	17.041	1.9091	0.	6.0933e-003
18807	17.041	2.	5.e-002	7.142e-006
18808	17.315	2.	0.	7.659e-003
18809	17.224	1.9091	0.	6.7712e-003
18810	17.224	2.	5.e-002	7.0671e-006
18811	17.498	2.	0.	8.1921e-003
18812	17.407	1.9091	0.	7.3412e-003
18813	17.407	2.	5.e-002	8.6733e-006
18814	17.682	2.	0.	8.6849e-003
18815	17.59	1.9091	0.	7.8527e-003
18816	17.59	2.	5.e-002	8.2564e-006
18817	17.865	2.	0.	9.1615e-003
18818	17.773	1.9091	0.	8.3303e-003
18819	17.773	2.	5.e-002	6.5929e-006
18820	18.048	2.	0.	9.6468e-003
18821	17.956	1.9091	0.	8.8015e-003
18822	17.956	2.	5.e-002	7.5042e-006
18823	18.231	2.	0.	1.0141e-002
18824	18.139	1.9091	0.	9.2887e-003
18825	18.139	2.	5.e-002	5.3205e-006
18826	18.414	2.	0.	1.0641e-002
18827	18.323	1.9091	0.	9.773e-003
18828	18.323	2.	5.e-002	6.385e-006
18829	18.597	2.	0.	1.1166e-002
18830	18.506	1.9091	0.	1.027e-002
18831	18.506	2.	5.e-002	6.3328e-006
18832	18.78	2.	0.	1.1723e-002
18833	18.689	1.9091	0.	1.0801e-002
18834	18.689	2.	5.e-002	6.8461e-006
18835	18.964	2.	0.	1.2313e-002
18836	18.872	1.9091	0.	1.1357e-002
18837	18.872	2.	5.e-002	4.334e-006
18838	19.147	2.	0.	1.2947e-002
18839	19.055	1.9091	0.	1.1955e-002
18840	19.055	2.	5.e-002	3.4485e-006
18841	19.33	2.	0.	1.362e-002
18842	19.238	1.9091	0.	1.2593e-002
18843	19.238	2.	5.e-002	3.8325e-006
18844	19.513	2.	0.	1.4346e-002
18845	19.421	1.9091	0.	1.3268e-002
18846	19.421	2.	5.e-002	4.8385e-006
18847	19.696	2.	0.	1.5142e-002
18848	19.605	1.9091	0.	1.4011e-002
18849	19.605	2.	5.e-002	5.5823e-006
18850	19.879	2.	0.	1.6009e-002
18851	19.788	1.9091	0.	1.4823e-002
18852	19.788	2.	5.e-002	6.5571e-006
18853	20.062	2.	0.	1.6956e-002
18854	19.971	1.9091	0.	1.5705e-002
18855	19.971	2.	5.e-002	6.2663e-006
18856	20.246	2.	0.	1.8e-002
18857	20.154	1.9091	0.	1.6675e-002
18858	20.154	2.	5.e-002	1.0778e-005
18859	20.429	2.	0.	1.9155e-002
18860	20.337	1.9091	0.	1.775e-002
18861	20.337	2.	5.e-002	9.305e-006
18862	20.612	2.	0.	2.0436e-002
18863	20.52	1.9091	0.	1.8942e-002
18864	20.52	2.	5.e-002	1.2624e-005
18865	20.795	2.	0.	2.187e-002
18866	20.703	1.9091	0.	2.0266e-002
18867	20.703	2.	5.e-002	1.1618e-005
18868	20.978	2.	0.	2.3488e-002
18869	20.887	1.9091	0.	2.1763e-002
18870	20.887	2.	5.e-002	1.0596e-005
18871	21.161	2.	0.	2.5322e-002
18872	21.07	1.9091	0.	2.3458e-002
18873	21.07	2.	5.e-002	1.0001e-005
18874	21.344	2.	0.	2.7416e-002
18875	21.253	1.9091	0.	2.5388e-002
18876	21.253	2.	5.e-002	8.7606e-006
18877	21.528	2.	0.	2.9833e-002
18878	21.436	1.9091	0.	2.7605e-002
18879	21.436	2.	5.e-002	9.7626e-006
18880	21.711	2.	0.	3.2647e-002
18881	21.619	1.9091	0.	3.0182e-002
18882	21.619	2.	5.e-002	1.0977e-005
18883	21.894	2.	0.	3.5961e-002
18884	21.802	1.9091	0.	3.3203e-002
18885	21.802	2.	5.e-002	9.9877e-006
18886	22.077	2.	0.	3.9927e-002
18887	21.985	1.9091	0.	3.6792e-002
18888	21.985	2.	5.e-002	1.1681e-005
18889	22.26	2.	0.	4.4745e-002
18890	22.169	1.9091	0.	4.1128e-002
18891	22.169	2.	5.e-002	6.2388e-006
18892	22.443	2.	0.	5.073e-002
18893	22.352	1.9091	0.	4.6441e-002
18894	22.352	2.	5.e-002	1.0332e-005
18895	22.626	2.	0.	5.8303e-002
18896	22.535	1.9091	0.	5.3147e-002
18897	22.535	2.	5.e-002	8.5492e-006
18898	22.81	2.	0.	6.8464e-002
18899	22.718	1.9091	0.	6.1688e-002
18900	22.718	2.	5.e-002	4.615e-006
18901	22.993	2.	0.	8.1639e-002
18902	22.901	1.9091	0.	7.3677e-002
18903	22.901	2.	5.e-002	6.6883e-006
18904	23.176	2.	0.	0.10399
18905	23.084	1.9091	0.	8.8478e-002
18906	23.084	2.	5.e-002	8.883e-006
18907	23.359	2.	0.	0.1266
18908	23.267	1.9091	0.	0.11941
18909	23.267	2.	5.e-002	7.655e-006
18910	23.542	2.	0.	0.22142
18911	23.451	1.9091	0.	0.13651
18912	23.451	2.	5.e-002	4.5453e-006
18913	23.725	2.	0.	0.21649
18914	23.634	1.9091	0.	0.31871
18915	23.634	2.	5.e-002	9.3462e-006
18916	23.817	1.9091	0.	0.18971
18917	23.817	2.	5.e-002	3.2367e-006
18918	23.908	2.	0.	0.43572
18919	8.3414	1.8182	0.	-70.604
18920	8.2498	1.7273	0.	-69.905
18921	8.2498	1.8182	5.e-002	2.3687e-004
18922	8.1582	1.8182	0.	-297.22
18923	8.5245	1.8182	0.	-8.7206e-002
18924	8.433	1.7273	0.	5.0011
18925	8.433	1.8182	5.e-002	1.2872e-004
18926	8.7077	1.8182	0.	-6.5103
18927	8.6161	1.7273	0.	-9.6548
18928	8.6161	1.8182	5.e-002	1.4849e-004
18929	8.8908	1.8182	0.	-7.8525
18930	8.7992	1.7273	0.	-4.0717
18931	8.7992	1.8182	5.e-002	6.9664e-005
18932	9.0739	1.8182	0.	-38.676
18933	8.9824	1.7273	0.	-8.671
18934	8.9824	1.8182	5.e-002	2.5998e-005
18935	9.2571	1.8182	0.	-100.34
18936	9.1655	1.7273	0.	-38.632
18937	9.1655	1.8182	5.e-002	1.9268e-005
18938	9.4402	1.8182	0.	-139.06
18939	9.3487	1.7273	0.	-89.189
18940	9.3487	1.8182	5.e-002	4.7917e-005
18941	9.6234	1.8182	0.	-160.02
18942	9.5318	1.7273	0.	-120.9
18943	9.5318	1.8182	5.e-002	2.2448e-005
18944	9.8065	1.8182	0.	-169.8
18945	9.7149	1.7273	0.	-138.37
18946	9.7149	1.8182	5.e-002	2.6752e-007
18947	9.9897	1.8182	0.	-172.56
18948	9.8981	1.7273	0.	-146.78
18949	9.8981	1.8182	5.e-002	3.3324e-005
18950	10.173	1.8182	0.	-170.9
18951	10.081	1.7273	0.	-149.46
18952	10.081	1.8182	5.e-002	3.3646e-005
18953	10.356	1.8182	0.	-166.46
18954	10.264	1.7273	0.	-148.49
18955	10.264	1.8182	5.e-002	2.6071e-005
18956	10.539	1.8182	0.	-160.26
18957	10.448	1.7273	0.	-145.16
18958	10.448	1.8182	5.e-002	2.4677e-005
18959	10.722	1.8182	0.	-153.
18960	10.631	1.7273	0.	-140.31
18961	10.631	1.8182	5.e-002	9.4331e-006
18962	10.905	1.8182	0.	-145.1
18963	10.814	1.7273	0.	-134.47
18964	10.814	1.8182	5.e-002	-1.4303e-006
18965	11.089	1.8182	0.	-136.88
18966	10.997	1.7273	0.	-128.01
18967	10.997	1.8182	5.e-002	5.0603e-006
18968	11.272	1.8182	0.	-128.55
18969	11.18	1.7273	0.	-121.18
18970	11.18	1.8182	5.e-002	-3.2574e-006
18971	11.455	1.8182	0.	-120.26
18972	11.363	1.7273	0.	-114.18
18973	11.363	1.8182	5.e-002	1.3103e-006
18974	11.638	1.8182	0.	-112.12
18975	11.546	1.7273	0.	-107.12
18976	11.546	1.8182	5.e-002	-1.2116e-006
18977	11.821	1.8182	0.	-104.19
18978	11.73	1.7273	0.	-100.13
18979	11.73	1.8182	5.e-002	-3.9347e-006
18980	12.004	1.8182	0.	-96.539
18981	11.913	1.7273	0.	-93.252
18982	11.913	1.8182	5.e-002	3.5277e-007
18983	12.187	1.8182	0.	-89.194
18984	12.096	1.7273	0.	-86.562
18985	12.096	1.8182	5.e-002	-5.636e-006
18986	12.37	1.8182	0.	-82.181
18987	12.279	1.7273	0.	-80.094
18988	12.279	1.8182	5.e-002	-2.561e-006
18989	12.554	1.8182	0.	-75.51
18990	12.462	1.7273	0.	-73.877
18991	12.462	1.8182	5.e-002	1.2512e-006
18992	12.737	1.8182	0.	-69.188
18993	12.645	1.7273	0.	-67.93
18994	12.645	1.8182	5.e-002	-8.7261e-007
18995	12.92	1.8182	0.	-63.212
18996	12.828	1.7273	0.	-62.263
18997	12.828	1.8182	5.e-002	-7.4288e-007
18998	13.103	1.8182	0.	-57.577
18999	13.011	1.7273	0.	-56.881
19000	13.011	1.8182	5.e-002	4.9438e-008
19001	13.286	1.8182	0.	-52.274
19002	13.195	1.7273	0.	-51.785
19003	13.195	1.8182	5.e-002	-6.3025e-007
19004	13.469	1.8182	0.	-47.29
19005	13.378	1.7273	0.	-46.969
19006	13.378	1.8182	5.e-002	-6.4255e-008
19007	13.652	1.8182	0.	-42.612
19008	13.561	1.7273	0.	-42.427
19009	13.561	1.8182	5.e-002	2.2167e-007
19010	13.836	1.8182	0.	-38.224
19011	13.744	1.7273	0.	-38.15
19012	13.744	1.8182	5.e-002	5.4212e-007
19013	14.019	1.8182	0.	-34.111
19014	13.927	1.7273	0.	-34.127
19015	13.927	1.8182	5.e-002	1.5033e-006
19016	14.202	1.8182	0.	-30.256
19017	14.11	1.7273	0.	-30.345
19018	14.11	1.8182	5.e-002	1.5544e-006
19019	14.385	1.8182	0.	-26.642
19020	14.293	1.7273	0.	-26.79
19021	14.293	1.8182	5.e-002	2.4427e-006
19022	14.568	1.8182	0.	-23.254
19023	14.477	1.7273	0.	-23.451
19024	14.477	1.8182	5.e-002	2.0015e-006
19025	14.751	1.8182	0.	-20.076
19026	14.66	1.7273	0.	-20.312
19027	14.66	1.8182	5.e-002	1.7001e-006
19028	14.934	1.8182	0.	-17.09
19029	14.843	1.7273	0.	-17.361
19030	14.843	1.8182	5.e-002	2.2855e-006
19031	15.118	1.8182	0.	-14.282
19032	15.026	1.7273	0.	-14.582
19033	15.026	1.8182	5.e-002	3.415e-006
19034	15.301	1.8182	0.	-11.638
19035	15.209	1.7273	0.	-11.964
19036	15.209	1.8182	5.e-002	2.685e-006
19037	15.484	1.8182	0.	-9.1423
19038	15.392	1.7273	0.	-9.4922
19039	15.392	1.8182	5.e-002	2.2182e-006
19040	15.667	1.8182	0.	-6.7817
19041	15.575	1.7273	0.	-7.1543
19042	15.575	1.8182	5.e-002	5.5776e-007
19043	15.85	1.8182	0.	-4.5433
19044	15.759	1.7273	0.	-4.9382
19045	15.759	1.8182	5.e-002	2.2234e-006
19046	16.033	1.8182	0.	-2.4159
19047	15.942	1.7273	0.	-2.8331
19048	15.942	1.8182	5.e-002	2.4671e-006
19049	16.216	1.8182	0.	-0.41808
19050	16.125	1.7273	0.	-0.83973
19051	16.125	1.8182	5.e-002	1.2232e-006
19052	16.4	1.8182	0.	-4.9496e-003
19053	16.308	1.7273	0.	-1.2333e-002
19054	16.308	1.8182	5.e-002	2.4617e-006
19055	16.583	1.8182	0.	1.7857e-003
19056	16.491	1.7273	0.	-3.7188e-004
19057	16.491	1.8182	5.e-002	1.3621e-006
19058	16.766	1.8182	0.	3.9132e-003
19059	16.674	1.7273	0.	2.5203e-003
19060	16.674	1.8182	5.e-002	3.0135e-006
19061	16.949	1.8182	0.	5.0608e-003
19062	16.857	1.7273	0.	3.9385e-003
19063	16.857	1.8182	5.e-002	5.8888e-006
19064	17.132	1.8182	0.	5.8367e-003
19065	17.041	1.7273	0.	4.8327e-003
19066	17.041	1.8182	5.e-002	6.9078e-006
19067	17.315	1.8182	0.	6.4487e-003
19068	17.224	1.7273	0.	5.4972e-003
19069	17.224	1.8182	5.e-002	6.8301e-006
19070	17.498	1.8182	0.	6.981e-003
19071	17.407	1.7273	0.	6.0546e-003
19072	17.407	1.8182	5.e-002	8.3828e-006
19073	17.682	1.8182	0.	7.4671e-003
19074	17.59	1.7273	0.	6.5518e-003
19075	17.59	1.8182	5.e-002	7.5357e-006
19076	17.865	1.8182	0.	7.9318e-003
19077	17.773	1.7273	0.	7.0096e-003
19078	17.773	1.8182	5.e-002	6.2279e-006
19079	18.048	1.8182	0.	8.3992e-003
19080	17.956	1.7273	0.	7.4591e-003
19081	17.956	1.8182	5.e-002	7.3853e-006
19082	18.231	1.8182	0.	8.872e-003
19083	18.139	1.7273	0.	7.9195e-003
19084	18.139	1.8182	5.e-002	4.3646e-006
19085	18.414	1.8182	0.	9.349e-003
19086	18.323	1.7273	0.	8.376e-003
19087	18.323	1.8182	5.e-002	5.8829e-006
19088	18.597	1.8182	0.	9.847e-003
19089	18.506	1.7273	0.	8.8418e-003
19090	18.506	1.8182	5.e-002	6.0801e-006
19091	18.78	1.8182	0.	1.0373e-002
19092	18.689	1.7273	0.	9.337e-003
19093	18.689	1.8182	5.e-002	6.3369e-006
19094	18.964	1.8182	0.	1.0932e-002
19095	18.872	1.7273	0.	9.8549e-003
19096	18.872	1.8182	5.e-002	3.8439e-006
19097	19.147	1.8182	0.	1.153e-002
19098	19.055	1.7273	0.	1.0413e-002
19099	19.055	1.8182	5.e-002	2.45e-006
19100	19.33	1.8182	0.	1.2166e-002
19101	19.238	1.7273	0.	1.1008e-002
19102	19.238	1.8182	5.e-002	3.0689e-006
19103	19.513	1.8182	0.	1.2854e-002
19104	19.421	1.7273	0.	1.1637e-002
19105	19.421	1.8182	5.e-002	4.1733e-006
19106	19.696	1.8182	0.	1.3607e-002
19107	19.605	1.7273	0.	1.2332e-002
19108	19.605	1.8182	5.e-002	5.6355e-006
19109	19.879	1.8182	0.	1.4428e-002
19110	19.788	1.7273	0.	1.3092e-002
19111	19.788	1.8182	5.e-002	5.4333e-006
19112	20.062	1.8182	0.	1.5327e-002
19113	19.971	1.7273	0.	1.3918e-002
19114	19.971	1.8182	5.e-002	5.9328e-006
19115	20.246	1.8182	0.	1.6321e-002
19116	20.154	1.7273	0.	1.4832e-002
19117	20.154	1.8182	5.e-002	9.4314e-006
19118	20.429	1.8182	0.	1.7424e-002
19119	20.337	1.7273	0.	1.5845e-002
19120	20.337	1.8182	5.e-002	7.9623e-006
19121	20.612	1.8182	0.	1.8651e-002
19122	20.52	1.7273	0.	1.6975e-002
19123	20.52	1.8182	5.e-002	1.1361e-005
19124	20.795	1.8182	0.	2.0028e-002
19125	20.703	1.7273	0.	1.8232e-002
19126	20.703	1.8182	5.e-002	1.0818e-005
19127	20.978	1.8182	0.	2.1589e-002
19128	20.887	1.7273	0.	1.9662e-002
19129	20.887	1.8182	5.e-002	1.0201e-005
19130	21.161	1.8182	0.	2.3365e-002
19131	21.07	1.7273	0.	2.1285e-002
19132	21.07	1.8182	5.e-002	9.1455e-006
19133	21.344	1.8182	0.	2.5399e-002
19134	21.253	1.7273	0.	2.3142e-002
19135	21.253	1.8182	5.e-002	9.7926e-006
19136	21.528	1.8182	0.	2.7754e-002
19137	21.436	1.7273	0.	2.5285e-002
19138	21.436	1.8182	5.e-002	9.2713e-006
19139	21.711	1.8182	0.	3.0507e-002
19140	21.619	1.7273	0.	2.7787e-002
19141	21.619	1.8182	5.e-002	1.0067e-005
19142	21.894	1.8182	0.	3.3764e-002
19143	21.802	1.7273	0.	3.0732e-002
19144	21.802	1.8182	5.e-002	1.0115e-005
19145	22.077	1.8182	0.	3.7668e-002
19146	21.985	1.7273	0.	3.4245e-002
19147	21.985	1.8182	5.e-002	1.0775e-005
19148	22.26	1.8182	0.	4.2421e-002
19149	22.169	1.7273	0.	3.8503e-002
19150	22.169	1.8182	5.e-002	5.1412e-006
19151	22.443	1.8182	0.	4.8337e-002
19152	22.352	1.7273	0.	4.3734e-002
19153	22.352	1.8182	5.e-002	9.0716e-006
19154	22.626	1.8182	0.	5.5825e-002
19155	22.535	1.7273	0.	5.0349e-002
19156	22.535	1.8182	5.e-002	8.3858e-006
19157	22.81	1.8182	0.	6.5873e-002
19158	22.718	1.7273	0.	5.8777e-002
19159	22.718	1.8182	5.e-002	4.4619e-006
19160	22.993	1.8182	0.	7.889e-002
19161	22.901	1.7273	0.	7.0616e-002
19162	22.901	1.8182	5.e-002	4.6231e-006
19163	23.176	1.8182	0.	0.101
19164	23.084	1.7273	0.	8.5204e-002
19165	23.084	1.8182	5.e-002	7.4474e-006
19166	23.359	1.8182	0.	0.12326
19167	23.267	1.7273	0.	0.11578
19168	23.267	1.8182	5.e-002	5.4225e-006
19169	23.542	1.8182	0.	0.2172
19170	23.451	1.7273	0.	0.1324
19171	23.451	1.8182	5.e-002	6.1755e-006
19172	23.725	1.8182	0.	0.20986
19173	23.634	1.7273	0.	0.31294
19174	23.634	1.8182	5.e-002	7.3775e-006
19175	23.817	1.7273	0.	0.17851
19176	23.817	1.8182	5.e-002	3.0289e-006
19177	23.908	1.8182	0.	0.4334
19178	8.3414	1.6364	0.	5.2361
19179	8.2498	1.5455	0.	-7.3085
19180	8.2498	1.6364	5.e-002	5.3133e-005
19181	8.1582	1.6364	0.	66.96
19182	8.5245	1.6364	0.	-5.2384
19183	8.433	1.5455	0.	-0.79734
19184	8.433	1.6364	5.e-002	9.6327e-005
19185	8.7077	1.6364	0.	-7.1044
19186	8.6161	1.5455	0.	-7.6469
19187	8.6161	1.6364	5.e-002	3.469e-005
19188	8.8908	1.6364	0.	-4.3345
19189	8.7992	1.5455	0.	-3.3851
19190	8.7992	1.6364	5.e-002	7.7866e-005
19191	9.0739	1.6364	0.	-8.0717
19192	8.9824	1.5455	0.	-4.7132
19193	8.9824	1.6364	5.e-002	5.878e-005
19194	9.2571	1.6364	0.	-31.329
19195	9.1655	1.5455	0.	-7.932
19196	9.1655	1.6364	5.e-002	4.8632e-005
19197	9.4402	1.6364	0.	-73.057
19198	9.3487	1.5455	0.	-28.415
19199	9.3487	1.6364	5.e-002	4.3774e-005
19200	9.6234	1.6364	0.	-100.41
19201	9.5318	1.5455	0.	-61.204
19202	9.5318	1.6364	5.e-002	3.6378e-005
19203	9.8065	1.6364	0.	-116.01
19204	9.7149	1.5455	0.	-83.427
19205	9.7149	1.6364	5.e-002	5.9361e-005
19206	9.9897	1.6364	0.	-124.05
19207	9.8981	1.5455	0.	-96.731
19208	9.8981	1.6364	5.e-002	7.5089e-005
19209	10.173	1.6364	0.	-127.25
19210	10.081	1.5455	0.	-104.12
19211	10.081	1.6364	5.e-002	6.7076e-005
19212	10.356	1.6364	0.	-127.3
19213	10.264	1.5455	0.	-107.61
19214	10.264	1.6364	5.e-002	4.0091e-006
19215	10.539	1.6364	0.	-125.25
19216	10.448	1.5455	0.	-108.47
19217	10.448	1.6364	5.e-002	3.7206e-006
19218	10.722	1.6364	0.	-121.8
19219	10.631	1.5455	0.	-107.49
19220	10.631	1.6364	5.e-002	2.9009e-006
19221	10.905	1.6364	0.	-117.38
19222	10.814	1.5455	0.	-105.21
19223	10.814	1.6364	5.e-002	2.1462e-005
19224	11.089	1.6364	0.	-112.3
19225	10.997	1.5455	0.	-101.99
19226	10.997	1.6364	5.e-002	-1.221e-006
19227	11.272	1.6364	0.	-106.8
19228	11.18	1.5455	0.	-98.087
19229	11.18	1.6364	5.e-002	6.7628e-006
19230	11.455	1.6364	0.	-101.03
19231	11.363	1.5455	0.	-93.703
19232	11.363	1.6364	5.e-002	4.5315e-006
19233	11.638	1.6364	0.	-95.123
19234	11.546	1.5455	0.	-88.986
19235	11.546	1.6364	5.e-002	7.7469e-006
19236	11.821	1.6364	0.	-89.176
19237	11.73	1.5455	0.	-84.059
19238	11.73	1.6364	5.e-002	1.7369e-006
19239	12.004	1.6364	0.	-83.266
19240	11.913	1.5455	0.	-79.017
19241	11.913	1.6364	5.e-002	-1.6162e-006
19242	12.187	1.6364	0.	-77.453
19243	12.096	1.5455	0.	-73.94
19244	12.096	1.6364	5.e-002	2.3638e-006
19245	12.37	1.6364	0.	-71.782
19246	12.279	1.5455	0.	-68.891
19247	12.279	1.6364	5.e-002	9.7078e-007
19248	12.554	1.6364	0.	-66.288
19249	12.462	1.5455	0.	-63.92
19250	12.462	1.6364	5.e-002	3.0097e-006
19251	12.737	1.6364	0.	-60.995
19252	12.645	1.5455	0.	-59.067
19253	12.645	1.6364	5.e-002	-1.0146e-006
19254	12.92	1.6364	0.	-55.922
19255	12.828	1.5455	0.	-54.36
19256	12.828	1.6364	5.e-002	-3.1689e-007
19257	13.103	1.6364	0.	-51.077
19258	13.011	1.5455	0.	-49.822
19259	13.011	1.6364	5.e-002	-1.1135e-007
19260	13.286	1.6364	0.	-46.468
19261	13.195	1.5455	0.	-45.468
19262	13.195	1.6364	5.e-002	-1.0845e-007
19263	13.469	1.6364	0.	-42.093
19264	13.378	1.5455	0.	-41.306
19265	13.378	1.6364	5.e-002	-2.0019e-007
19266	13.652	1.6364	0.	-37.952
19267	13.561	1.5455	0.	-37.341
19268	13.561	1.6364	5.e-002	5.3393e-007
19269	13.836	1.6364	0.	-34.039
19270	13.744	1.5455	0.	-33.574
19271	13.744	1.6364	5.e-002	6.1184e-007
19272	14.019	1.6364	0.	-30.345
19273	13.927	1.5455	0.	-30.003
19274	13.927	1.6364	5.e-002	1.196e-006
19275	14.202	1.6364	0.	-26.863
19276	14.11	1.5455	0.	-26.624
19277	14.11	1.6364	5.e-002	1.4045e-006
19278	14.385	1.6364	0.	-23.582
19279	14.293	1.5455	0.	-23.429
19280	14.293	1.6364	5.e-002	2.1677e-006
19281	14.568	1.6364	0.	-20.491
19282	14.477	1.5455	0.	-20.411
19283	14.477	1.6364	5.e-002	2.3074e-006
19284	14.751	1.6364	0.	-17.578
19285	14.66	1.5455	0.	-17.562
19286	14.66	1.6364	5.e-002	1.2124e-006
19287	14.934	1.6364	0.	-14.833
19288	14.843	1.5455	0.	-14.871
19289	14.843	1.6364	5.e-002	2.1821e-006
19290	15.118	1.6364	0.	-12.243
19291	15.026	1.5455	0.	-12.329
19292	15.026	1.6364	5.e-002	3.7292e-006
19293	15.301	1.6364	0.	-9.7965
19294	15.209	1.5455	0.	-9.9248
19295	15.209	1.6364	5.e-002	2.7018e-006
19296	15.484	1.6364	0.	-7.4816
19297	15.392	1.5455	0.	-7.6493
19298	15.392	1.6364	5.e-002	2.327e-006
19299	15.667	1.6364	0.	-5.2874
19300	15.575	1.5455	0.	-5.4918
19301	15.575	1.6364	5.e-002	9.42e-007
19302	15.85	1.6364	0.	-3.2035
19303	15.759	1.5455	0.	-3.443
19304	15.759	1.6364	5.e-002	2.4196e-006
19305	16.033	1.6364	0.	-1.2261
19306	15.942	1.5455	0.	-1.498
19307	15.942	1.6364	5.e-002	2.1117e-006
19308	16.216	1.6364	0.	-2.6186e-002
19309	16.125	1.5455	0.	-5.1914e-002
19310	16.125	1.6364	5.e-002	1.2912e-006
19311	16.4	1.6364	0.	-2.9108e-003
19312	16.308	1.5455	0.	-5.7327e-003
19313	16.308	1.6364	5.e-002	2.4875e-006
19314	16.583	1.6364	0.	1.0357e-003
19315	16.491	1.5455	0.	-5.237e-004
19316	16.491	1.6364	5.e-002	1.3941e-006
19317	16.766	1.6364	0.	2.763e-003
19318	16.674	1.5455	0.	1.5418e-003
19319	16.674	1.6364	5.e-002	3.1357e-006
19320	16.949	1.6364	0.	3.7984e-003
19321	16.857	1.5455	0.	2.7267e-003
19322	16.857	1.6364	5.e-002	5.6606e-006
19323	17.132	1.6364	0.	4.5271e-003
19324	17.041	1.5455	0.	3.5193e-003
19325	17.041	1.6364	5.e-002	6.6282e-006
19326	17.315	1.6364	0.	5.1086e-003
19327	17.224	1.5455	0.	4.1241e-003
19328	17.224	1.6364	5.e-002	6.4119e-006
19329	17.498	1.6364	0.	5.6135e-003
19330	17.407	1.5455	0.	4.6346e-003
19331	17.407	1.6364	5.e-002	8.3487e-006
19332	17.682	1.6364	0.	6.0705e-003
19333	17.59	1.5455	0.	5.0902e-003
19334	17.59	1.6364	5.e-002	7.8057e-006
19335	17.865	1.6364	0.	6.5041e-003
19336	17.773	1.5455	0.	5.5069e-003
19337	17.773	1.6364	5.e-002	6.2113e-006
19338	18.048	1.6364	0.	6.9394e-003
19339	17.956	1.5455	0.	5.9139e-003
19340	17.956	1.6364	5.e-002	7.1311e-006
19341	18.231	1.6364	0.	7.377e-003
19342	18.139	1.5455	0.	6.3312e-003
19343	18.139	1.6364	5.e-002	4.395e-006
19344	18.414	1.6364	0.	7.8167e-003
19345	18.323	1.5455	0.	6.7413e-003
19346	18.323	1.6364	5.e-002	5.8953e-006
19347	18.597	1.6364	0.	8.2743e-003
19348	18.506	1.5455	0.	7.1593e-003
19349	18.506	1.6364	5.e-002	6.0341e-006
19350	18.78	1.6364	0.	8.7557e-003
19351	18.689	1.5455	0.	7.6022e-003
19352	18.689	1.6364	5.e-002	6.0718e-006
19353	18.964	1.6364	0.	9.2674e-003
19354	18.872	1.5455	0.	8.0666e-003
19355	18.872	1.6364	5.e-002	3.5433e-006
19356	19.147	1.6364	0.	9.8168e-003
19357	19.055	1.5455	0.	8.567e-003
19358	19.055	1.6364	5.e-002	2.7455e-006
19359	19.33	1.6364	0.	1.04e-002
19360	19.238	1.5455	0.	9.1017e-003
19361	19.238	1.6364	5.e-002	2.8256e-006
19362	19.513	1.6364	0.	1.1031e-002
19363	19.421	1.5455	0.	9.6668e-003
19364	19.421	1.6364	5.e-002	3.916e-006
19365	19.696	1.6364	0.	1.1726e-002
19366	19.605	1.5455	0.	1.0295e-002
19367	19.605	1.6364	5.e-002	5.1929e-006
19368	19.879	1.6364	0.	1.2484e-002
19369	19.788	1.5455	0.	1.0984e-002
19370	19.788	1.6364	5.e-002	5.5155e-006
19371	20.062	1.6364	0.	1.3318e-002
19372	19.971	1.5455	0.	1.1734e-002
19373	19.971	1.6364	5.e-002	5.4963e-006
19374	20.246	1.6364	0.	1.4243e-002
19375	20.154	1.5455	0.	1.2569e-002
19376	20.154	1.6364	5.e-002	9.0866e-006
19377	20.429	1.6364	0.	1.5273e-002
19378	20.337	1.5455	0.	1.3498e-002
19379	20.337	1.6364	5.e-002	7.5823e-006
19380	20.612	1.6364	0.	1.6423e-002
19381	20.52	1.5455	0.	1.4538e-002
19382	20.52	1.6364	5.e-002	1.194e-005
19383	20.795	1.6364	0.	1.772e-002
19384	20.703	1.5455	0.	1.5703e-002
19385	20.703	1.6364	5.e-002	1.082e-005
19386	20.978	1.6364	0.	1.9197e-002
19387	20.887	1.5455	0.	1.7034e-002
19388	20.887	1.6364	5.e-002	1.0422e-005
19389	21.161	1.6364	0.	2.0885e-002
19390	21.07	1.5455	0.	1.8555e-002
19391	21.07	1.6364	5.e-002	9.8358e-006
19392	21.344	1.6364	0.	2.2831e-002
19393	21.253	1.5455	0.	2.0303e-002
19394	21.253	1.6364	5.e-002	9.2932e-006
19395	21.528	1.6364	0.	2.5097e-002
19396	21.436	1.5455	0.	2.2338e-002
19397	21.436	1.6364	5.e-002	9.8823e-006
19398	21.711	1.6364	0.	2.7758e-002
19399	21.619	1.5455	0.	2.4726e-002
19400	21.619	1.6364	5.e-002	1.0636e-005
19401	21.894	1.6364	0.	3.0918e-002
19402	21.802	1.5455	0.	2.7553e-002
19403	21.802	1.6364	5.e-002	1.1207e-005
19404	22.077	1.6364	0.	3.4728e-002
19405	21.985	1.5455	0.	3.0946e-002
19406	21.985	1.6364	5.e-002	1.1695e-005
19407	22.26	1.6364	0.	3.9385e-002
19408	22.169	1.5455	0.	3.5082e-002
19409	22.169	1.6364	5.e-002	5.0641e-006
19410	22.443	1.6364	0.	4.5196e-002
19411	22.352	1.5455	0.	4.0186e-002
19412	22.352	1.6364	5.e-002	9.9372e-006
19413	22.626	1.6364	0.	5.2565e-002
19414	22.535	1.5455	0.	4.6664e-002
19415	22.535	1.6364	5.e-002	8.9085e-006
19416	22.81	1.6364	0.	6.2466e-002
19417	22.718	1.5455	0.	5.4935e-002
19418	22.718	1.6364	5.e-002	3.2094e-006
19419	22.993	1.6364	0.	7.5283e-002
19420	22.901	1.5455	0.	6.6575e-002
19421	22.901	1.6364	5.e-002	6.1195e-006
19422	23.176	1.6364	0.	9.7089e-002
19423	23.084	1.5455	0.	8.0892e-002
19424	23.084	1.6364	5.e-002	7.1152e-006
19425	23.359	1.6364	0.	0.1189
19426	23.267	1.5455	0.	0.11102
19427	23.267	1.6364	5.e-002	5.9599e-006
19428	23.542	1.6364	0.	0.21174
19429	23.451	1.5455	0.	0.12703
19430	23.451	1.6364	5.e-002	3.9352e-006
19431	23.725	1.6364	0.	0.20143
19432	23.634	1.5455	0.	0.30547
19433	23.634	1.6364	5.e-002	5.4496e-006
19434	23.817	1.5455	0.	0.16449
19435	23.817	1.6364	5.e-002	1.0179e-006
19436	23.908	1.6364	0.	0.43032
19437	8.3414	1.4545	0.	-13.662
19438	8.2498	1.3636	0.	-16.219
19439	8.2498	1.4545	5.e-002	7.3542e-005
19440	8.1582	1.4545	0.	-15.492
19441	8.5245	1.4545	0.	-3.2021
19442	8.433	1.3636	0.	-1.7714
19443	8.433	1.4545	5.e-002	5.2472e-005
19444	8.7077	1.4545	0.	-3.8389
19445	8.6161	1.3636	0.	-3.8478
19446	8.6161	1.4545	5.e-002	5.7421e-005
19447	8.8908	1.4545	0.	-3.6437
19448	8.7992	1.3636	0.	-3.2827
19449	8.7992	1.4545	5.e-002	7.5614e-005
19450	9.0739	1.4545	0.	-4.1596
19451	8.9824	1.3636	0.	-3.2712
19452	8.9824	1.4545	5.e-002	4.9302e-005
19453	9.2571	1.4545	0.	-6.8014
19454	9.1655	1.3636	0.	-3.8653
19455	9.1655	1.4545	5.e-002	1.0004e-004
19456	9.4402	1.4545	0.	-20.286
19457	9.3487	1.3636	0.	-6.1415
19458	9.3487	1.4545	5.e-002	9.2049e-005
19459	9.6234	1.4545	0.	-45.826
19460	9.5318	1.3636	0.	-15.705
19461	9.5318	1.4545	5.e-002	8.7435e-005
19462	9.8065	1.4545	0.	-64.979
19463	9.7149	1.3636	0.	-34.785
19464	9.7149	1.4545	5.e-002	2.2834e-005
19465	9.9897	1.4545	0.	-77.252
19466	9.8981	1.3636	0.	-50.615
19467	9.8981	1.4545	5.e-002	4.4893e-005
19468	10.173	1.4545	0.	-84.724
19469	10.081	1.3636	0.	-61.553
19470	10.081	1.4545	5.e-002	6.2092e-005
19471	10.356	1.4545	0.	-88.899
19472	10.264	1.3636	0.	-68.795
19473	10.264	1.4545	5.e-002	3.2531e-005
19474	10.539	1.4545	0.	-90.752
19475	10.448	1.3636	0.	-73.339
19476	10.448	1.4545	5.e-002	6.4619e-005
19477	10.722	1.4545	0.	-90.915
19478	10.631	1.3636	0.	-75.871
19479	10.631	1.4545	5.e-002	2.113e-005
19480	10.905	1.4545	0.	-89.817
19481	10.814	1.3636	0.	-76.859
19482	10.814	1.4545	5.e-002	1.525e-005
19483	11.089	1.4545	0.	-87.762
19484	10.997	1.3636	0.	-76.639
19485	10.997	1.4545	5.e-002	7.4265e-009
19486	11.272	1.4545	0.	-84.979
19487	11.18	1.3636	0.	-75.464
19488	11.18	1.4545	5.e-002	-8.7091e-006
19489	11.455	1.4545	0.	-81.647
19490	11.363	1.3636	0.	-73.533
19491	11.363	1.4545	5.e-002	-4.4681e-007
19492	11.638	1.4545	0.	-77.91
19493	11.546	1.3636	0.	-71.013
19494	11.546	1.4545	5.e-002	8.8325e-006
19495	11.821	1.4545	0.	-73.887
19496	11.73	1.3636	0.	-68.041
19497	11.73	1.4545	5.e-002	-1.1156e-006
19498	12.004	1.4545	0.	-69.679
19499	11.913	1.3636	0.	-64.736
19500	11.913	1.4545	5.e-002	-3.6847e-006
19501	12.187	1.4545	0.	-65.367
19502	12.096	1.3636	0.	-61.197
19503	12.096	1.4545	5.e-002	-6.561e-008
19504	12.37	1.4545	0.	-61.018
19505	12.279	1.3636	0.	-57.508
19506	12.279	1.4545	5.e-002	-2.4731e-006
19507	12.554	1.4545	0.	-56.688
19508	12.462	1.3636	0.	-53.739
19509	12.462	1.4545	5.e-002	3.2172e-007
19510	12.737	1.4545	0.	-52.42
19511	12.645	1.3636	0.	-49.947
19512	12.645	1.4545	5.e-002	-4.2745e-007
19513	12.92	1.4545	0.	-48.248
19514	12.828	1.3636	0.	-46.178
19515	12.828	1.4545	5.e-002	-1.3512e-006
19516	13.103	1.4545	0.	-44.2
19517	13.011	1.3636	0.	-42.47
19518	13.011	1.4545	5.e-002	-5.4744e-007
19519	13.286	1.4545	0.	-40.292
19520	13.195	1.3636	0.	-38.85
19521	13.195	1.4545	5.e-002	7.1561e-007
19522	13.469	1.4545	0.	-36.539
19523	13.378	1.3636	0.	-35.34
19524	13.378	1.4545	5.e-002	7.0653e-007
19525	13.652	1.4545	0.	-32.948
19526	13.561	1.3636	0.	-31.955
19527	13.561	1.4545	5.e-002	4.7384e-007
19528	13.836	1.4545	0.	-29.524
19529	13.744	1.3636	0.	-28.705
19530	13.744	1.4545	5.e-002	6.6259e-007
19531	14.019	1.4545	0.	-26.266
19532	13.927	1.3636	0.	-25.595
19533	13.927	1.4545	5.e-002	1.0195e-006
19534	14.202	1.4545	0.	-23.173
19535	14.11	1.3636	0.	-22.629
19536	14.11	1.4545	5.e-002	1.026e-006
19537	14.385	1.4545	0.	-20.241
19538	14.293	1.3636	0.	-19.805
19539	14.293	1.4545	5.e-002	1.6121e-006
19540	14.568	1.4545	0.	-17.463
19541	14.477	1.3636	0.	-17.121
19542	14.477	1.4545	5.e-002	1.8838e-006
19543	14.751	1.4545	0.	-14.834
19544	14.66	1.3636	0.	-14.574
19545	14.66	1.4545	5.e-002	1.1825e-006
19546	14.934	1.4545	0.	-12.346
19547	14.843	1.3636	0.	-12.157
19548	14.843	1.4545	5.e-002	1.5698e-006
19549	15.118	1.4545	0.	-9.9888
19550	15.026	1.3636	0.	-9.8649
19551	15.026	1.4545	5.e-002	3.3716e-006
19552	15.301	1.4545	0.	-7.7554
19553	15.209	1.3636	0.	-7.6895
19554	15.209	1.4545	5.e-002	2.7699e-006
19555	15.484	1.4545	0.	-5.6365
19556	15.392	1.3636	0.	-5.6238
19557	15.392	1.4545	5.e-002	1.9661e-006
19558	15.667	1.4545	0.	-3.6236
19559	15.575	1.3636	0.	-3.6606
19560	15.575	1.4545	5.e-002	5.8859e-007
19561	15.85	1.4545	0.	-1.7118
19562	15.759	1.3636	0.	-1.7954
19563	15.759	1.4545	5.e-002	1.9992e-006
19564	16.033	1.4545	0.	-0.10501
19565	15.942	1.3636	0.	-0.16053
19566	15.942	1.4545	5.e-002	2.3539e-006
19567	16.216	1.4545	0.	-8.7273e-003
19568	16.125	1.3636	0.	-1.133e-002
19569	16.125	1.4545	5.e-002	8.8612e-007
19570	16.4	1.4545	0.	-2.0554e-003
19571	16.308	1.3636	0.	-3.4538e-003
19572	16.308	1.4545	5.e-002	2.264e-006
19573	16.583	1.4545	0.	3.6281e-004
19574	16.491	1.3636	0.	-7.5712e-004
19575	16.491	1.4545	5.e-002	1.1661e-006
19576	16.766	1.4545	0.	1.6712e-003
19577	16.674	1.3636	0.	6.4248e-004
19578	16.674	1.4545	5.e-002	2.8078e-006
19579	16.949	1.4545	0.	2.5293e-003
19580	16.857	1.3636	0.	1.5474e-003
19581	16.857	1.4545	5.e-002	5.6335e-006
19582	17.132	1.4545	0.	3.1554e-003
19583	17.041	1.3636	0.	2.184e-003
19584	17.041	1.4545	5.e-002	6.4348e-006
19585	17.315	1.4545	0.	3.6637e-003
19586	17.224	1.3636	0.	2.6817e-003
19587	17.224	1.4545	5.e-002	6.2257e-006
19588	17.498	1.4545	0.	4.1075e-003
19589	17.407	1.3636	0.	3.1081e-003
19590	17.407	1.4545	5.e-002	7.9802e-006
19591	17.682	1.4545	0.	4.51e-003
19592	17.59	1.3636	0.	3.4881e-003
19593	17.59	1.4545	5.e-002	7.4586e-006
19594	17.865	1.4545	0.	4.8899e-003
19595	17.773	1.3636	0.	3.8375e-003
19596	17.773	1.4545	5.e-002	6.5679e-006
19597	18.048	1.4545	0.	5.2703e-003
19598	17.956	1.3636	0.	4.1771e-003
19599	17.956	1.4545	5.e-002	6.81e-006
19600	18.231	1.4545	0.	5.6524e-003
19601	18.139	1.3636	0.	4.5267e-003
19602	18.139	1.4545	5.e-002	4.3386e-006
19603	18.414	1.4545	0.	6.0338e-003
19604	18.323	1.3636	0.	4.8685e-003
19605	18.323	1.4545	5.e-002	5.6612e-006
19606	18.597	1.4545	0.	6.4305e-003
19607	18.506	1.3636	0.	5.2161e-003
19608	18.506	1.4545	5.e-002	6.0172e-006
19609	18.78	1.4545	0.	6.8497e-003
19610	18.689	1.3636	0.	5.5865e-003
19611	18.689	1.4545	5.e-002	6.535e-006
19612	18.964	1.4545	0.	7.2963e-003
19613	18.872	1.3636	0.	5.9762e-003
19614	18.872	1.4545	5.e-002	3.3393e-006
19615	19.147	1.4545	0.	7.7753e-003
19616	19.055	1.3636	0.	6.397e-003
19617	19.055	1.4545	5.e-002	2.0585e-006
19618	19.33	1.4545	0.	8.2849e-003
19619	19.238	1.3636	0.	6.8482e-003
19620	19.238	1.4545	5.e-002	2.7739e-006
19621	19.513	1.4545	0.	8.8397e-003
19622	19.421	1.3636	0.	7.3266e-003
19623	19.421	1.4545	5.e-002	3.0243e-006
19624	19.696	1.4545	0.	9.4539e-003
19625	19.605	1.3636	0.	7.8632e-003
19626	19.605	1.4545	5.e-002	4.8201e-006
19627	19.879	1.4545	0.	1.0126e-002
19628	19.788	1.3636	0.	8.4539e-003
19629	19.788	1.4545	5.e-002	5.3463e-006
19630	20.062	1.4545	0.	1.0869e-002
19631	19.971	1.3636	0.	9.1019e-003
19632	19.971	1.4545	5.e-002	5.4834e-006
19633	20.246	1.4545	0.	1.1699e-002
19634	20.154	1.3636	0.	9.826e-003
19635	20.154	1.4545	5.e-002	9.7555e-006
19636	20.429	1.4545	0.	1.2627e-002
19637	20.337	1.3636	0.	1.0641e-002
19638	20.337	1.4545	5.e-002	8.7132e-006
19639	20.612	1.4545	0.	1.3669e-002
19640	20.52	1.3636	0.	1.1557e-002
19641	20.52	1.4545	5.e-002	1.0617e-005
19642	20.795	1.4545	0.	1.4852e-002
19643	20.703	1.3636	0.	1.2592e-002
19644	20.703	1.4545	5.e-002	1.1006e-005
19645	20.978	1.4545	0.	1.621e-002
19646	20.887	1.3636	0.	1.3782e-002
19647	20.887	1.4545	5.e-002	9.8708e-006
19648	21.161	1.4545	0.	1.7773e-002
19649	21.07	1.3636	0.	1.5159e-002
19650	21.07	1.4545	5.e-002	1.0364e-005
19651	21.344	1.4545	0.	1.9586e-002
19652	21.253	1.3636	0.	1.6753e-002
19653	21.253	1.4545	5.e-002	9.3407e-006
19654	21.528	1.4545	0.	2.1716e-002
19655	21.436	1.3636	0.	1.8622e-002
19656	21.436	1.4545	5.e-002	8.8095e-006
19657	21.711	1.4545	0.	2.4235e-002
19658	21.619	1.3636	0.	2.0839e-002
19659	21.619	1.4545	5.e-002	9.7888e-006
19660	21.894	1.4545	0.	2.725e-002
19661	21.802	1.3636	0.	2.3486e-002
19662	21.802	1.4545	5.e-002	1.1187e-005
19663	22.077	1.4545	0.	3.0908e-002
19664	21.985	1.3636	0.	2.6694e-002
19665	21.985	1.4545	5.e-002	1.1926e-005
19666	22.26	1.4545	0.	3.5409e-002
19667	22.169	1.3636	0.	3.0635e-002
19668	22.169	1.4545	5.e-002	8.8745e-006
19669	22.443	1.4545	0.	4.106e-002
19670	22.352	1.3636	0.	3.554e-002
19671	22.352	1.4545	5.e-002	8.7814e-006
19672	22.626	1.4545	0.	4.8251e-002
19673	22.535	1.3636	0.	4.1806e-002
19674	22.535	1.4545	5.e-002	7.3238e-006
19675	22.81	1.4545	0.	5.7944e-002
19676	22.718	1.3636	0.	4.9844e-002
19677	22.718	1.4545	5.e-002	4.8491e-006
19678	22.993	1.4545	0.	7.0498e-002
19679	22.901	1.3636	0.	6.1205e-002
19680	22.901	1.4545	5.e-002	5.0845e-006
19681	23.176	1.4545	0.	9.1912e-002
19682	23.084	1.3636	0.	7.5168e-002
19683	23.084	1.4545	5.e-002	6.9272e-006
19684	23.359	1.4545	0.	0.11316
19685	23.267	1.3636	0.	0.10472
19686	23.267	1.4545	5.e-002	5.4767e-006
19687	23.542	1.4545	0.	0.20461
19688	23.451	1.3636	0.	0.11997
19689	23.451	1.4545	5.e-002	3.6889e-006
19690	23.725	1.4545	0.	0.19064
19691	23.634	1.3636	0.	0.29578
19692	23.634	1.4545	5.e-002	5.6326e-006
19693	23.817	1.3636	0.	0.14692
19694	23.817	1.4545	5.e-002	-5.5688e-007
19695	23.908	1.4545	0.	0.42617
19696	8.3414	1.2727	0.	-4.7105
19697	8.2498	1.1818	0.	-8.4998
19698	8.2498	1.2727	5.e-002	-2.3117e-014
19699	8.1582	1.2727	0.	6.0103
19700	8.5245	1.2727	0.	-2.4144
19701	8.433	1.1818	0.	-1.0209
19702	8.433	1.2727	5.e-002	1.8875e-005
19703	8.7077	1.2727	0.	-3.2409
19704	8.6161	1.1818	0.	-3.3681
19705	8.6161	1.2727	5.e-002	6.0523e-005
19706	8.8908	1.2727	0.	-2.8402
19707	8.7992	1.1818	0.	-2.6367
19708	8.7992	1.2727	5.e-002	2.3187e-005
19709	9.0739	1.2727	0.	-2.8988
19710	8.9824	1.1818	0.	-2.5775
19711	8.9824	1.2727	5.e-002	7.0304e-005
19712	9.2571	1.2727	0.	-3.3465
19713	9.1655	1.1818	0.	-2.5953
19714	9.1655	1.2727	5.e-002	2.2865e-005
19715	9.4402	1.2727	0.	-4.7021
19716	9.3487	1.1818	0.	-2.8911
19717	9.3487	1.2727	5.e-002	4.2879e-005
19718	9.6234	1.2727	0.	-9.4506
19719	9.5318	1.1818	0.	-3.6953
19720	9.5318	1.2727	5.e-002	6.8088e-005
19721	9.8065	1.2727	0.	-22.057
19722	9.7149	1.1818	0.	-6.1545
19723	9.7149	1.2727	5.e-002	9.452e-005
19724	9.9897	1.2727	0.	-35.572
19725	9.8981	1.1818	0.	-13.767
19726	9.8981	1.2727	5.e-002	-2.2674e-006
19727	10.173	1.2727	0.	-45.933
19728	10.081	1.1818	0.	-24.768
19729	10.081	1.2727	5.e-002	5.1893e-005
19730	10.356	1.2727	0.	-53.381
19731	10.264	1.1818	0.	-34.295
19732	10.264	1.2727	5.e-002	-1.124e-005
19733	10.539	1.2727	0.	-58.523
19734	10.448	1.1818	0.	-41.629
19735	10.448	1.2727	5.e-002	3.4965e-005
19736	10.722	1.2727	0.	-61.838
19737	10.631	1.1818	0.	-47.009
19738	10.631	1.2727	5.e-002	2.6524e-005
19739	10.905	1.2727	0.	-63.683
19740	10.814	1.1818	0.	-50.739
19741	10.814	1.2727	5.e-002	4.9831e-005
19742	11.089	1.2727	0.	-64.331
19743	10.997	1.1818	0.	-53.081
19744	10.997	1.2727	5.e-002	1.4037e-005
19745	11.272	1.2727	0.	-64.003
19746	11.18	1.1818	0.	-54.261
19747	11.18	1.2727	5.e-002	9.4075e-006
19748	11.455	1.2727	0.	-62.883
19749	11.363	1.1818	0.	-54.472
19750	11.363	1.2727	5.e-002	1.2894e-005
19751	11.638	1.2727	0.	-61.129
19752	11.546	1.1818	0.	-53.884
19753	11.546	1.2727	5.e-002	-5.2989e-006
19754	11.821	1.2727	0.	-58.875
19755	11.73	1.1818	0.	-52.647
19756	11.73	1.2727	5.e-002	-3.5706e-007
19757	12.004	1.2727	0.	-56.24
19758	11.913	1.1818	0.	-50.895
19759	11.913	1.2727	5.e-002	-3.795e-006
19760	12.187	1.2727	0.	-53.325
19761	12.096	1.1818	0.	-48.742
19762	12.096	1.2727	5.e-002	1.0944e-006
19763	12.37	1.2727	0.	-50.216
19764	12.279	1.1818	0.	-46.289
19765	12.279	1.2727	5.e-002	3.2481e-006
19766	12.554	1.2727	0.	-46.985
19767	12.462	1.1818	0.	-43.622
19768	12.462	1.2727	5.e-002	1.9517e-006
19769	12.737	1.2727	0.	-43.692
19770	12.645	1.1818	0.	-40.813
19771	12.645	1.2727	5.e-002	-9.8344e-007
19772	12.92	1.2727	0.	-40.386
19773	12.828	1.1818	0.	-37.921
19774	12.828	1.2727	5.e-002	1.0147e-006
19775	13.103	1.2727	0.	-37.107
19776	13.011	1.1818	0.	-34.995
19777	13.011	1.2727	5.e-002	5.5695e-007
19778	13.286	1.2727	0.	-33.884
19779	13.195	1.1818	0.	-32.076
19780	13.195	1.2727	5.e-002	3.4782e-007
19781	13.469	1.2727	0.	-30.741
19782	13.378	1.1818	0.	-29.193
19783	13.378	1.2727	5.e-002	1.9389e-007
19784	13.652	1.2727	0.	-27.696
19785	13.561	1.1818	0.	-26.371
19786	13.561	1.2727	5.e-002	1.1947e-006
19787	13.836	1.2727	0.	-24.76
19788	13.744	1.1818	0.	-23.627
19789	13.744	1.2727	5.e-002	6.6811e-007
19790	14.019	1.2727	0.	-21.941
19791	13.927	1.1818	0.	-20.973
19792	13.927	1.2727	5.e-002	1.2172e-006
19793	14.202	1.2727	0.	-19.243
19794	14.11	1.1818	0.	-18.419
19795	14.11	1.2727	5.e-002	1.5415e-006
19796	14.385	1.2727	0.	-16.667
19797	14.293	1.1818	0.	-15.969
19798	14.293	1.2727	5.e-002	1.7555e-006
19799	14.568	1.2727	0.	-14.213
19800	14.477	1.1818	0.	-13.624
19801	14.477	1.2727	5.e-002	1.5842e-006
19802	14.751	1.2727	0.	-11.877
19803	14.66	1.1818	0.	-11.386
19804	14.66	1.2727	5.e-002	1.445e-006
19805	14.934	1.2727	0.	-9.6557
19806	14.843	1.1818	0.	-9.2514
19807	14.843	1.2727	5.e-002	1.8057e-006
19808	15.118	1.2727	0.	-7.5437
19809	15.026	1.1818	0.	-7.2175
19810	15.026	1.2727	5.e-002	3.3353e-006
19811	15.301	1.2727	0.	-5.5352
19812	15.209	1.1818	0.	-5.2801
19813	15.209	1.2727	5.e-002	2.3272e-006
19814	15.484	1.2727	0.	-3.6245
19815	15.392	1.1818	0.	-3.4349
19816	15.392	1.2727	5.e-002	1.6909e-006
19817	15.667	1.2727	0.	-1.8081
19818	15.575	1.1818	0.	-1.6803
19819	15.575	1.2727	5.e-002	9.6352e-007
19820	15.85	1.2727	0.	-0.19392
19821	15.759	1.1818	0.	-0.15651
19822	15.759	1.2727	5.e-002	1.9431e-006
19823	16.033	1.2727	0.	-1.3187e-002
19824	15.942	1.1818	0.	-1.3556e-002
19825	15.942	1.2727	5.e-002	2.2178e-006
19826	16.216	1.2727	0.	-4.5671e-003
19827	16.125	1.1818	0.	-5.2608e-003
19828	16.125	1.2727	5.e-002	9.1433e-007
19829	16.4	1.2727	0.	-1.707e-003
19830	16.308	1.1818	0.	-2.4564e-003
19831	16.308	1.2727	5.e-002	1.8472e-006
19832	16.583	1.2727	0.	-2.6298e-004
19833	16.491	1.1818	0.	-1.0549e-003
19834	16.491	1.2727	5.e-002	1.0858e-006
19835	16.766	1.2727	0.	6.3922e-004
19836	16.674	1.1818	0.	-1.9866e-004
19837	16.674	1.2727	5.e-002	2.7459e-006
19838	16.949	1.2727	0.	1.2732e-003
19839	16.857	1.1818	0.	4.0495e-004
19840	16.857	1.2727	5.e-002	5.1778e-006
19841	17.132	1.2727	0.	1.7508e-003
19842	17.041	1.1818	0.	8.436e-004
19843	17.041	1.2727	5.e-002	5.947e-006
19844	17.315	1.2727	0.	2.1455e-003
19845	17.224	1.1818	0.	1.1919e-003
19846	17.224	1.2727	5.e-002	5.7749e-006
19847	17.498	1.2727	0.	2.4921e-003
19848	17.407	1.1818	0.	1.4954e-003
19849	17.407	1.2727	5.e-002	7.7471e-006
19850	17.682	1.2727	0.	2.8062e-003
19851	17.59	1.1818	0.	1.7637e-003
19852	17.59	1.2727	5.e-002	7.1341e-006
19853	17.865	1.2727	0.	3.1044e-003
19854	17.773	1.1818	0.	2.0113e-003
19855	17.773	1.2727	5.e-002	6.4516e-006
19856	18.048	1.2727	0.	3.4037e-003
19857	17.956	1.1818	0.	2.2538e-003
19858	17.956	1.2727	5.e-002	6.9401e-006
19859	18.231	1.2727	0.	3.7042e-003
19860	18.139	1.1818	0.	2.5062e-003
19861	18.139	1.2727	5.e-002	3.9936e-006
19862	18.414	1.2727	0.	4.0038e-003
19863	18.323	1.1818	0.	2.7504e-003
19864	18.323	1.2727	5.e-002	5.5044e-006
19865	18.597	1.2727	0.	4.3171e-003
19866	18.506	1.1818	0.	2.9992e-003
19867	18.506	1.2727	5.e-002	5.8824e-006
19868	18.78	1.2727	0.	4.6499e-003
19869	18.689	1.1818	0.	3.2708e-003
19870	18.689	1.2727	5.e-002	5.3901e-006
19871	18.964	1.2727	0.	5.0057e-003
19872	18.872	1.1818	0.	3.5548e-003
19873	18.872	1.2727	5.e-002	3.5159e-006
19874	19.147	1.2727	0.	5.3903e-003
19875	19.055	1.1818	0.	3.8671e-003
19876	19.055	1.2727	5.e-002	1.7421e-006
19877	19.33	1.2727	0.	5.8016e-003
19878	19.238	1.1818	0.	4.2053e-003
19879	19.238	1.2727	5.e-002	2.1327e-006
19880	19.513	1.2727	0.	6.2526e-003
19881	19.421	1.1818	0.	4.5637e-003
19882	19.421	1.2727	5.e-002	2.341e-006
19883	19.696	1.2727	0.	6.7559e-003
19884	19.605	1.1818	0.	4.9747e-003
19885	19.605	1.2727	5.e-002	4.4058e-006
19886	19.879	1.2727	0.	7.3116e-003
19887	19.788	1.1818	0.	5.4301e-003
19888	19.788	1.2727	5.e-002	4.9624e-006
19889	20.062	1.2727	0.	7.9296e-003
19890	19.971	1.1818	0.	5.9375e-003
19891	19.971	1.2727	5.e-002	5.4699e-006
19892	20.246	1.2727	0.	8.6269e-003
19893	20.154	1.1818	0.	6.5095e-003
19894	20.154	1.2727	5.e-002	9.2419e-006
19895	20.429	1.2727	0.	9.4162e-003
19896	20.337	1.1818	0.	7.1636e-003
19897	20.337	1.2727	5.e-002	7.387e-006
19898	20.612	1.2727	0.	1.0309e-002
19899	20.52	1.1818	0.	7.9091e-003
19900	20.52	1.2727	5.e-002	1.0717e-005
19901	20.795	1.2727	0.	1.1333e-002
19902	20.703	1.1818	0.	8.7582e-003
19903	20.703	1.2727	5.e-002	9.6258e-006
19904	20.978	1.2727	0.	1.2522e-002
19905	20.887	1.1818	0.	9.7517e-003
19906	20.887	1.2727	5.e-002	9.1334e-006
19907	21.161	1.2727	0.	1.3907e-002
19908	21.07	1.1818	0.	1.0918e-002
19909	21.07	1.2727	5.e-002	1.0462e-005
19910	21.344	1.2727	0.	1.5528e-002
19911	21.253	1.1818	0.	1.2286e-002
19912	21.253	1.2727	5.e-002	9.3892e-006
19913	21.528	1.2727	0.	1.7452e-002
19914	21.436	1.1818	0.	1.3912e-002
19915	21.436	1.2727	5.e-002	8.704e-006
19916	21.711	1.2727	0.	1.9757e-002
19917	21.619	1.1818	0.	1.5869e-002
19918	21.619	1.2727	5.e-002	9.2877e-006
19919	21.894	1.2727	0.	2.2546e-002
19920	21.802	1.1818	0.	1.824e-002
19921	21.802	1.2727	5.e-002	1.0993e-005
19922	22.077	1.2727	0.	2.5971e-002
19923	21.985	1.1818	0.	2.1153e-002
19924	21.985	1.2727	5.e-002	1.3203e-005
19925	22.26	1.2727	0.	3.0226e-002
19926	22.169	1.1818	0.	2.4784e-002
19927	22.169	1.2727	5.e-002	9.7073e-006
19928	22.443	1.2727	0.	3.5619e-002
19929	22.352	1.1818	0.	2.9359e-002
19930	22.352	1.2727	5.e-002	9.1114e-006
19931	22.626	1.2727	0.	4.2539e-002
19932	22.535	1.1818	0.	3.5278e-002
19933	22.535	1.2727	5.e-002	8.7997e-006
19934	22.81	1.2727	0.	5.1926e-002
19935	22.718	1.1818	0.	4.2943e-002
19936	22.718	1.2727	5.e-002	3.7138e-006
19937	22.993	1.2727	0.	6.4116e-002
19938	22.901	1.1818	0.	5.3881e-002
19939	22.901	1.2727	5.e-002	6.0164e-006
19940	23.176	1.2727	0.	8.5017e-002
19941	23.084	1.1818	0.	6.734e-002
19942	23.084	1.2727	5.e-002	5.9118e-006
19943	23.359	1.2727	0.	0.10556
19944	23.267	1.1818	0.	9.613e-002
19945	23.267	1.2727	5.e-002	5.317e-006
19946	23.542	1.2727	0.	0.19523
19947	23.451	1.1818	0.	0.11037
19948	23.451	1.2727	5.e-002	2.7252e-006
19949	23.725	1.2727	0.	0.17677
19950	23.634	1.1818	0.	0.28279
19951	23.634	1.2727	5.e-002	5.1118e-006
19952	23.817	1.1818	0.	0.12441
19953	23.817	1.2727	5.e-002	1.3069e-006
19954	23.908	1.2727	0.	0.42062
19955	8.3414	1.0909	0.	-5.2021
19956	8.2498	1.	0.	-8.1851
19957	8.2498	1.0909	5.e-002	-1.834e-014
19958	8.1582	1.0909	0.	0.85469
19959	8.5245	1.0909	0.	-2.0005
19960	8.433	1.	0.	-0.96946
19961	8.433	1.0909	5.e-002	1.405e-005
19962	8.7077	1.0909	0.	-2.7514
19963	8.6161	1.	0.	-2.9202
19964	8.6161	1.0909	5.e-002	1.5259e-005
19965	8.8908	1.0909	0.	-2.3467
19966	8.7992	1.	0.	-2.2591
19967	8.7992	1.0909	5.e-002	4.3692e-005
19968	9.0739	1.0909	0.	-2.26
19969	8.9824	1.	0.	-2.1455
19970	8.9824	1.0909	5.e-002	5.0161e-005
19971	9.2571	1.0909	0.	-2.2022
19972	9.1655	1.	0.	-1.9347
19973	9.1655	1.0909	5.e-002	4.8637e-005
19974	9.4402	1.0909	0.	-2.2884
19975	9.3487	1.	0.	-1.8195
19976	9.3487	1.0909	5.e-002	6.8969e-005
19977	9.6234	1.0909	0.	-2.5976
19978	9.5318	1.	0.	-1.7774
19979	9.5318	1.0909	5.e-002	5.9197e-005
19980	9.8065	1.0909	0.	-3.4867
19981	9.7149	1.	0.	-1.8612
19982	9.7149	1.0909	5.e-002	3.6933e-005
19983	9.9897	1.0909	0.	-6.4724
19984	9.8981	1.	0.	-2.2084
19985	9.8981	1.0909	5.e-002	3.5446e-005
19986	10.173	1.0909	0.	-14.042
19987	10.081	1.	0.	-3.3955
19988	10.081	1.0909	5.e-002	7.3205e-007
19989	10.356	1.0909	0.	-22.824
19990	10.264	1.	0.	-7.7054
19991	10.264	1.0909	5.e-002	-4.6332e-006
19992	10.539	1.0909	0.	-30.218
19993	10.448	1.	0.	-15.252
19994	10.448	1.0909	5.e-002	1.8112e-005
19995	10.722	1.0909	0.	-35.945
19996	10.631	1.	0.	-22.348
19997	10.631	1.0909	5.e-002	3.1938e-005
19998	10.905	1.0909	0.	-40.142
19999	10.814	1.	0.	-28.041
20000	10.814	1.0909	5.e-002	7.574e-006
20001	11.089	1.0909	0.	-43.002
20002	10.997	1.	0.	-32.324
20003	10.997	1.0909	5.e-002	3.5349e-006
20004	11.272	1.0909	0.	-44.714
20005	11.18	1.	0.	-35.337
20006	11.18	1.0909	5.e-002	1.7498e-006
20007	11.455	1.0909	0.	-45.454
20008	11.363	1.	0.	-37.246
20009	11.363	1.0909	5.e-002	-5.4059e-006
20010	11.638	1.0909	0.	-45.384
20011	11.546	1.	0.	-38.214
20012	11.546	1.0909	5.e-002	5.764e-006
20013	11.821	1.0909	0.	-44.649
20014	11.73	1.	0.	-38.395
20015	11.73	1.0909	5.e-002	-4.9554e-006
20016	12.004	1.0909	0.	-43.38
20017	11.913	1.	0.	-37.929
20018	11.913	1.0909	5.e-002	-3.7705e-006
20019	12.187	1.0909	0.	-41.69
20020	12.096	1.	0.	-36.941
20021	12.096	1.0909	5.e-002	3.4797e-006
20022	12.37	1.0909	0.	-39.68
20023	12.279	1.	0.	-35.543
20024	12.279	1.0909	5.e-002	6.3684e-007
20025	12.554	1.0909	0.	-37.435
20026	12.462	1.	0.	-33.829
20027	12.462	1.0909	5.e-002	2.6024e-006
20028	12.737	1.0909	0.	-35.026
20029	12.645	1.	0.	-31.882
20030	12.645	1.0909	5.e-002	-1.0915e-006
20031	12.92	1.0909	0.	-32.515
20032	12.828	1.	0.	-29.77
20033	12.828	1.0909	5.e-002	-1.6832e-007
20034	13.103	1.0909	0.	-29.949
20035	13.011	1.	0.	-27.552
20036	13.011	1.0909	5.e-002	-1.9963e-007
20037	13.286	1.0909	0.	-27.369
20038	13.195	1.	0.	-25.274
20039	13.195	1.0909	5.e-002	-8.1768e-008
20040	13.469	1.0909	0.	-24.806
20041	13.378	1.	0.	-22.973
20042	13.378	1.0909	5.e-002	2.7836e-007
20043	13.652	1.0909	0.	-22.285
20044	13.561	1.	0.	-20.68
20045	13.561	1.0909	5.e-002	1.368e-006
20046	13.836	1.0909	0.	-19.823
20047	13.744	1.	0.	-18.418
20048	13.744	1.0909	5.e-002	1.2134e-006
20049	14.019	1.0909	0.	-17.433
20050	13.927	1.	0.	-16.204
20051	13.927	1.0909	5.e-002	1.9318e-006
20052	14.202	1.0909	0.	-15.126
20053	14.11	1.	0.	-14.051
20054	14.11	1.0909	5.e-002	1.3151e-006
20055	14.385	1.0909	0.	-12.906
20056	14.293	1.	0.	-11.968
20057	14.293	1.0909	5.e-002	1.0331e-006
20058	14.568	1.0909	0.	-10.777
20059	14.477	1.	0.	-9.9604
20060	14.477	1.0909	5.e-002	1.832e-006
20061	14.751	1.0909	0.	-8.7393
20062	14.66	1.	0.	-8.0313
20063	14.66	1.0909	5.e-002	1.2911e-006
20064	14.934	1.0909	0.	-6.7914
20065	14.843	1.	0.	-6.1818
20066	14.843	1.0909	5.e-002	1.7751e-006
20067	15.118	1.0909	0.	-4.9314
20068	15.026	1.	0.	-4.4113
20069	15.026	1.0909	5.e-002	3.5918e-006
20070	15.301	1.0909	0.	-3.1568
20071	15.209	1.	0.	-2.7191
20072	15.209	1.0909	5.e-002	2.3977e-006
20073	15.484	1.0909	0.	-1.4682
20074	15.392	1.	0.	-1.1101
20075	15.392	1.0909	5.e-002	1.7274e-006
20076	15.667	1.0909	0.	-9.7776e-002
20077	15.575	1.	0.	-4.7467e-002
20078	15.575	1.0909	5.e-002	7.3081e-007
20079	15.85	1.0909	0.	-1.2597e-002
20080	15.759	1.	0.	-1.0477e-002
20081	15.759	1.0909	5.e-002	2.2795e-006
20082	16.033	1.0909	0.	-5.4353e-003
20083	15.942	1.	0.	-5.1207e-003
20084	15.942	1.0909	5.e-002	2.1789e-006
20085	16.216	1.0909	0.	-2.9049e-003
20086	16.125	1.	0.	-3.07e-003
20087	16.125	1.0909	5.e-002	7.7562e-007
20088	16.4	1.0909	0.	-1.6317e-003
20089	16.308	1.	0.	-2.0162e-003
20090	16.308	1.0909	5.e-002	1.8266e-006
20091	16.583	1.0909	0.	-8.6925e-004
20092	16.491	1.	0.	-1.3975e-003
20093	16.491	1.0909	5.e-002	9.5108e-007
20094	16.766	1.0909	0.	-3.4706e-004
20095	16.674	1.	0.	-9.8796e-004
20096	16.674	1.0909	5.e-002	2.9568e-006
20097	16.949	1.0909	0.	3.5307e-005
20098	16.857	1.	0.	-6.8292e-004
20099	16.857	1.0909	5.e-002	5.1899e-006
20100	17.132	1.0909	0.	3.2467e-004
20101	17.041	1.	0.	-4.6815e-004
20102	17.041	1.0909	5.e-002	5.4444e-006
20103	17.315	1.0909	0.	5.6554e-004
20104	17.224	1.	0.	-3.0155e-004
20105	17.224	1.0909	5.e-002	5.0606e-006
20106	17.498	1.0909	0.	7.7688e-004
20107	17.407	1.	0.	-1.5577e-004
20108	17.407	1.0909	5.e-002	7.5118e-006
20109	17.682	1.0909	0.	9.6662e-004
20110	17.59	1.	0.	-2.8603e-005
20111	17.59	1.0909	5.e-002	7.5023e-006
20112	17.865	1.0909	0.	1.1476e-003
20113	17.773	1.	0.	8.3826e-005
20114	17.773	1.0909	5.e-002	6.9381e-006
20115	18.048	1.0909	0.	1.333e-003
20116	17.956	1.	0.	1.9615e-004
20117	17.956	1.0909	5.e-002	7.2482e-006
20118	18.231	1.0909	0.	1.5193e-003
20119	18.139	1.	0.	3.2254e-004
20120	18.139	1.0909	5.e-002	3.8765e-006
20121	18.414	1.0909	0.	1.7031e-003
20122	18.323	1.	0.	4.3946e-004
20123	18.323	1.0909	5.e-002	4.9286e-006
20124	18.597	1.0909	0.	1.9009e-003
20125	18.506	1.	0.	5.5918e-004
20126	18.506	1.0909	5.e-002	6.1529e-006
20127	18.78	1.0909	0.	2.114e-003
20128	18.689	1.	0.	6.9914e-004
20129	18.689	1.0909	5.e-002	5.7324e-006
20130	18.964	1.0909	0.	2.3446e-003
20131	18.872	1.	0.	8.4508e-004
20132	18.872	1.0909	5.e-002	2.4974e-006
20133	19.147	1.0909	0.	2.6003e-003
20134	19.055	1.	0.	1.0165e-003
20135	19.055	1.0909	5.e-002	2.2816e-006
20136	19.33	1.0909	0.	2.8748e-003
20137	19.238	1.	0.	1.2046e-003
20138	19.238	1.0909	5.e-002	2.4227e-006
20139	19.513	1.0909	0.	3.1818e-003
20140	19.421	1.	0.	1.4061e-003
20141	19.421	1.0909	5.e-002	1.8095e-006
20142	19.696	1.0909	0.	3.5325e-003
20143	19.605	1.	0.	1.6503e-003
20144	19.605	1.0909	5.e-002	4.9434e-006
20145	19.879	1.0909	0.	3.9263e-003
20146	19.788	1.	0.	1.93e-003
20147	19.788	1.0909	5.e-002	5.1236e-006
20148	20.062	1.0909	0.	4.3732e-003
20149	19.971	1.	0.	2.2497e-003
20150	19.971	1.0909	5.e-002	6.2391e-006
20151	20.246	1.0909	0.	4.8859e-003
20152	20.154	1.	0.	2.6209e-003
20153	20.154	1.0909	5.e-002	9.7262e-006
20154	20.429	1.0909	0.	5.4784e-003
20155	20.337	1.	0.	3.0578e-003
20156	20.337	1.0909	5.e-002	7.2698e-006
20157	20.612	1.0909	0.	6.1604e-003
20158	20.52	1.	0.	3.5702e-003
20159	20.52	1.0909	5.e-002	1.1132e-005
20160	20.795	1.0909	0.	6.9568e-003
20161	20.703	1.	0.	4.167e-003
20162	20.703	1.0909	5.e-002	9.0868e-006
20163	20.978	1.0909	0.	7.9016e-003
20164	20.887	1.	0.	4.8905e-003
20165	20.887	1.0909	5.e-002	8.7806e-006
20166	21.161	1.0909	0.	9.0219e-003
20167	21.07	1.	0.	5.7608e-003
20168	21.07	1.0909	5.e-002	9.6129e-006
20169	21.344	1.0909	0.	1.036e-002
20170	21.253	1.	0.	6.8082e-003
20171	21.253	1.0909	5.e-002	7.0217e-006
20172	21.528	1.0909	0.	1.1979e-002
20173	21.436	1.	0.	8.0888e-003
20174	21.436	1.0909	5.e-002	8.1952e-006
20175	21.711	1.0909	0.	1.3953e-002
20176	21.619	1.	0.	9.6657e-003
20177	21.619	1.0909	5.e-002	9.823e-006
20178	21.894	1.0909	0.	1.6387e-002
20179	21.802	1.	0.	1.1626e-002
20180	21.802	1.0909	5.e-002	1.1867e-005
20181	22.077	1.0909	0.	1.943e-002
20182	21.985	1.	0.	1.409e-002
20183	21.985	1.0909	5.e-002	1.4429e-005
20184	22.26	1.0909	0.	2.3279e-002
20185	22.169	1.	0.	1.7235e-002
20186	22.169	1.0909	5.e-002	8.454e-006
20187	22.443	1.0909	0.	2.824e-002
20188	22.352	1.	0.	2.1285e-002
20189	22.352	1.0909	5.e-002	1.0333e-005
20190	22.626	1.0909	0.	3.4698e-002
20191	22.535	1.	0.	2.6639e-002
20192	22.535	1.0909	5.e-002	1.0049e-005
20193	22.81	1.0909	0.	4.3586e-002
20194	22.718	1.	0.	3.3696e-002
20195	22.718	1.0909	5.e-002	3.4029e-006
20196	22.993	1.0909	0.	5.521e-002
20197	22.901	1.	0.	4.3963e-002
20198	22.901	1.0909	5.e-002	5.756e-006
20199	23.176	1.0909	0.	7.5374e-002
20200	23.084	1.	0.	5.6662e-002
20201	23.084	1.0909	5.e-002	6.8051e-006
20202	23.359	1.0909	0.	9.4931e-002
20203	23.267	1.	0.	8.4378e-002
20204	23.267	1.0909	5.e-002	5.0121e-006
20205	23.542	1.0909	0.	0.18227
20206	23.451	1.	0.	9.7331e-002
20207	23.451	1.0909	5.e-002	1.4496e-006
20208	23.725	1.0909	0.	0.15814
20209	23.634	1.	0.	0.26537
20210	23.634	1.0909	5.e-002	5.0021e-006
20211	23.817	1.	0.	9.5484e-002
20212	23.817	1.0909	5.e-002	1.4311e-007
20213	23.908	1.0909	0.	0.41242
20214	8.3414	0.90909	0.	-4.4505
20215	8.2498	0.81818	0.	-7.2169
20216	8.2498	0.90909	5.e-002	-1.522e-014
20217	8.1582	0.90909	0.	2.2549
20218	8.5245	0.90909	0.	-1.9673
20219	8.433	0.81818	0.	-1.3134
20220	8.433	0.90909	5.e-002	3.5542e-006
20221	8.7077	0.90909	0.	-2.4551
20222	8.6161	0.81818	0.	-2.7372
20223	8.6161	0.90909	5.e-002	1.823e-005
20224	8.8908	0.90909	0.	-2.0639
20225	8.7992	0.81818	0.	-2.0831
20226	8.7992	0.90909	5.e-002	1.8416e-005
20227	9.0739	0.90909	0.	-1.8269
20228	8.9824	0.81818	0.	-1.8128
20229	8.9824	0.90909	5.e-002	3.2732e-005
20230	9.2571	0.90909	0.	-1.5879
20231	9.1655	0.81818	0.	-1.4845
20232	9.1655	0.90909	5.e-002	3.4715e-005
20233	9.4402	0.90909	0.	-1.4132
20234	9.3487	0.81818	0.	-1.2422
20235	9.3487	0.90909	5.e-002	5.0936e-005
20236	9.6234	0.90909	0.	-1.2971
20237	9.5318	0.81818	0.	-1.0559
20238	9.5318	0.90909	5.e-002	3.1493e-005
20239	9.8065	0.90909	0.	-1.2568
20240	9.7149	0.81818	0.	-0.9295
20241	9.7149	0.90909	5.e-002	3.3759e-005
20242	9.9897	0.90909	0.	-1.3324
20243	9.8981	0.81818	0.	-0.86099
20244	9.8981	0.90909	5.e-002	5.5616e-005
20245	10.173	0.90909	0.	-1.674
20246	10.081	0.81818	0.	-0.86408
20247	10.081	0.90909	5.e-002	6.0479e-005
20248	10.356	0.90909	0.	-3.0416
20249	10.264	0.81818	0.	-0.99589
20250	10.264	0.90909	5.e-002	3.1844e-005
20251	10.539	0.90909	0.	-7.9267
20252	10.448	0.81818	0.	-1.5363
20253	10.448	0.90909	5.e-002	5.5104e-005
20254	10.722	0.90909	0.	-14.551
20255	10.631	0.81818	0.	-4.2146
20256	10.631	0.90909	5.e-002	6.6102e-005
20257	10.905	0.90909	0.	-20.243
20258	10.814	0.81818	0.	-9.9264
20259	10.814	0.90909	5.e-002	7.8311e-006
20260	11.089	0.90909	0.	-24.653
20261	10.997	0.81818	0.	-15.252
20262	10.997	0.90909	5.e-002	-7.174e-006
20263	11.272	0.90909	0.	-27.853
20264	11.18	0.81818	0.	-19.425
20265	11.18	0.90909	5.e-002	9.6225e-006
20266	11.455	0.90909	0.	-29.987
20267	11.363	0.81818	0.	-22.472
20268	11.363	0.90909	5.e-002	8.7922e-007
20269	11.638	0.90909	0.	-31.206
20270	11.546	0.81818	0.	-24.523
20271	11.546	0.90909	5.e-002	-4.2841e-006
20272	11.821	0.90909	0.	-31.656
20273	11.73	0.81818	0.	-25.722
20274	11.73	0.90909	5.e-002	4.2021e-007
20275	12.004	0.90909	0.	-31.472
20276	11.913	0.81818	0.	-26.207
20277	11.913	0.90909	5.e-002	-8.4331e-007
20278	12.187	0.90909	0.	-30.776
20279	12.096	0.81818	0.	-26.104
20280	12.096	0.90909	5.e-002	-3.0818e-007
20281	12.37	0.90909	0.	-29.674
20282	12.279	0.81818	0.	-25.528
20283	12.279	0.90909	5.e-002	1.3593e-006
20284	12.554	0.90909	0.	-28.259
20285	12.462	0.81818	0.	-24.577
20286	12.462	0.90909	5.e-002	3.6799e-006
20287	12.737	0.90909	0.	-26.609
20288	12.645	0.81818	0.	-23.337
20289	12.645	0.90909	5.e-002	-2.9206e-007
20290	12.92	0.90909	0.	-24.791
20291	12.828	0.81818	0.	-21.881
20292	12.828	0.90909	5.e-002	1.4135e-006
20293	13.103	0.90909	0.	-22.86
20294	13.011	0.81818	0.	-20.27
20295	13.011	0.90909	5.e-002	1.1933e-006
20296	13.286	0.90909	0.	-20.86
20297	13.195	0.81818	0.	-18.554
20298	13.195	0.90909	5.e-002	3.6182e-007
20299	13.469	0.90909	0.	-18.829
20300	13.378	0.81818	0.	-16.773
20301	13.378	0.90909	5.e-002	1.7196e-006
20302	13.652	0.90909	0.	-16.795
20303	13.561	0.81818	0.	-14.962
20304	13.561	0.90909	5.e-002	1.6665e-006
20305	13.836	0.90909	0.	-14.78
20306	13.744	0.81818	0.	-13.146
20307	13.744	0.90909	5.e-002	1.4844e-006
20308	14.019	0.90909	0.	-12.802
20309	13.927	0.81818	0.	-11.344
20310	13.927	0.90909	5.e-002	1.5604e-006
20311	14.202	0.90909	0.	-10.873
20312	14.11	0.81818	0.	-9.5736
20313	14.11	0.90909	5.e-002	1.9087e-006
20314	14.385	0.90909	0.	-9.0014
20315	14.293	0.81818	0.	-7.8448
20316	14.293	0.90909	5.e-002	1.3072e-006
20317	14.568	0.90909	0.	-7.1933
20318	14.477	0.81818	0.	-6.1656
20319	14.477	0.90909	5.e-002	1.5953e-006
20320	14.751	0.90909	0.	-5.4522
20321	14.66	0.81818	0.	-4.5416
20322	14.66	0.90909	5.e-002	1.7324e-006
20323	14.934	0.90909	0.	-3.7795
20324	14.843	0.81818	0.	-2.9762
20325	14.843	0.90909	5.e-002	2.151e-006
20326	15.118	0.90909	0.	-2.1767
20327	15.026	0.81818	0.	-1.4736
20328	15.026	0.90909	5.e-002	3.5634e-006
20329	15.301	0.90909	0.	-0.65933
20330	15.209	0.81818	0.	-0.14222
20331	15.209	0.90909	5.e-002	2.4215e-006
20332	15.484	0.90909	0.	-2.3755e-002
20333	15.392	0.81818	0.	-1.1602e-002
20334	15.392	0.90909	5.e-002	8.2633e-007
20335	15.667	0.90909	0.	-7.8934e-003
20336	15.575	0.81818	0.	-5.2471e-003
20337	15.575	0.90909	5.e-002	4.5178e-007
20338	15.85	0.90909	0.	-4.3615e-003
20339	15.759	0.81818	0.	-3.3157e-003
20340	15.759	0.90909	5.e-002	2.0059e-006
20341	16.033	0.90909	0.	-2.9021e-003
20342	15.942	0.81818	0.	-2.4895e-003
20343	15.942	0.90909	5.e-002	1.5943e-006
20344	16.216	0.90909	0.	-2.1463e-003
20345	16.125	0.81818	0.	-2.0872e-003
20346	16.125	0.90909	5.e-002	4.3547e-007
20347	16.4	0.90909	0.	-1.7124e-003
20348	16.308	0.81818	0.	-1.8856e-003
20349	16.308	0.90909	5.e-002	1.5975e-006
20350	16.583	0.90909	0.	-1.4458e-003
20351	16.491	0.81818	0.	-1.8028e-003
20352	16.491	0.90909	5.e-002	9.3934e-007
20353	16.766	0.90909	0.	-1.2621e-003
20354	16.674	0.81818	0.	-1.7765e-003
20355	16.674	0.90909	5.e-002	3.2175e-006
20356	16.949	0.90909	0.	-1.136e-003
20357	16.857	0.81818	0.	-1.7721e-003
20358	16.857	0.90909	5.e-002	6.3435e-006
20359	17.132	0.90909	0.	-1.0557e-003
20360	17.041	0.81818	0.	-1.808e-003
20361	17.041	0.90909	5.e-002	7.045e-006
20362	17.315	0.90909	0.	-9.957e-004
20363	17.224	0.81818	0.	-1.8605e-003
20364	17.224	0.90909	5.e-002	6.8532e-006
20365	17.498	0.90909	0.	-9.452e-004
20366	17.407	0.81818	0.	-1.9154e-003
20367	17.407	0.90909	5.e-002	8.6311e-006
20368	17.682	0.90909	0.	-9.0609e-004
20369	17.59	0.81818	0.	-1.9738e-003
20370	17.59	0.90909	5.e-002	9.0088e-006
20371	17.865	0.90909	0.	-8.7275e-004
20372	17.773	0.81818	0.	-2.0417e-003
20373	17.773	0.90909	5.e-002	7.4946e-006
20374	18.048	0.90909	0.	-8.2986e-004
20375	17.956	0.81818	0.	-2.1064e-003
20376	17.956	0.90909	5.e-002	6.7027e-006
20377	18.231	0.90909	0.	-7.832e-004
20378	18.139	0.81818	0.	-2.1546e-003
20379	18.139	0.90909	5.e-002	4.3405e-006
20380	18.414	0.90909	0.	-7.4082e-004
20381	18.323	0.81818	0.	-2.2143e-003
20382	18.323	0.90909	5.e-002	5.6366e-006
20383	18.597	0.90909	0.	-6.8963e-004
20384	18.506	0.81818	0.	-2.2744e-003
20385	18.506	0.90909	5.e-002	6.7975e-006
20386	18.78	0.90909	0.	-6.2803e-004
20387	18.689	0.81818	0.	-2.3215e-003
20388	18.689	0.90909	5.e-002	7.9803e-006
20389	18.964	0.90909	0.	-5.5287e-004
20390	18.872	0.81818	0.	-2.3663e-003
20391	18.872	0.90909	5.e-002	4.1394e-006
20392	19.147	0.90909	0.	-4.6134e-004
20393	19.055	0.81818	0.	-2.3953e-003
20394	19.055	0.90909	5.e-002	1.4621e-006
20395	19.33	0.90909	0.	-3.5943e-004
20396	19.238	0.81818	0.	-2.4191e-003
20397	19.238	0.90909	5.e-002	2.0634e-006
20398	19.513	0.90909	0.	-2.3487e-004
20399	19.421	0.81818	0.	-2.4388e-003
20400	19.421	0.90909	5.e-002	4.3398e-006
20401	19.696	0.90909	0.	-7.7177e-005
20402	19.605	0.81818	0.	-2.4347e-003
20403	19.605	0.90909	5.e-002	6.0688e-006
20404	19.879	0.90909	0.	1.1164e-004
20405	19.788	0.81818	0.	-2.4071e-003
20406	19.788	0.90909	5.e-002	6.4101e-006
20407	20.062	0.90909	0.	3.371e-004
20408	19.971	0.81818	0.	-2.3586e-003
20409	19.971	0.90909	5.e-002	6.4215e-006
20410	20.246	0.90909	0.	6.1192e-004
20411	20.154	0.81818	0.	-2.2805e-003
20412	20.154	0.90909	5.e-002	9.0105e-006
20413	20.429	0.90909	0.	9.458e-004
20414	20.337	0.81818	0.	-2.1598e-003
20415	20.337	0.90909	5.e-002	7.8063e-006
20416	20.612	0.90909	0.	1.3472e-003
20417	20.52	0.81818	0.	-1.9902e-003
20418	20.52	0.90909	5.e-002	9.725e-006
20419	20.795	0.90909	0.	1.842e-003
20420	20.703	0.81818	0.	-1.7663e-003
20421	20.703	0.90909	5.e-002	8.4041e-006
20422	20.978	0.90909	0.	2.4575e-003
20423	20.887	0.81818	0.	-1.4511e-003
20424	20.887	0.90909	5.e-002	6.344e-006
20425	21.161	0.90909	0.	3.2165e-003
20426	21.07	0.81818	0.	-1.0295e-003
20427	21.07	0.90909	5.e-002	4.8076e-006
20428	21.344	0.90909	0.	4.1615e-003
20429	21.253	0.81818	0.	-4.7215e-004
20430	21.253	0.90909	5.e-002	3.4004e-006
20431	21.528	0.90909	0.	5.3473e-003
20432	21.436	0.81818	0.	2.6521e-004
20433	21.436	0.90909	5.e-002	7.5908e-006
20434	21.711	0.90909	0.	6.8475e-003
20435	21.619	0.81818	0.	1.2399e-003
20436	21.619	0.90909	5.e-002	9.6045e-006
20437	21.894	0.90909	0.	8.7609e-003
20438	21.802	0.81818	0.	2.5365e-003
20439	21.802	0.90909	5.e-002	1.2014e-005
20440	22.077	0.90909	0.	1.123e-002
20441	21.985	0.81818	0.	4.2585e-003
20442	21.985	0.90909	5.e-002	1.4266e-005
20443	22.26	0.90909	0.	1.4453e-002
20444	22.169	0.81818	0.	6.5774e-003
20445	22.169	0.90909	5.e-002	8.8394e-006
20446	22.443	0.90909	0.	1.873e-002
20447	22.352	0.81818	0.	9.7086e-003
20448	22.352	0.90909	5.e-002	1.3312e-005
20449	22.626	0.90909	0.	2.4448e-002
20450	22.535	0.81818	0.	1.4037e-002
20451	22.535	0.90909	5.e-002	1.1505e-005
20452	22.81	0.90909	0.	3.2529e-002
20453	22.718	0.81818	0.	1.9959e-002
20454	22.718	0.90909	5.e-002	4.252e-006
20455	22.993	0.90909	0.	4.3266e-002
20456	22.901	0.81818	0.	2.8951e-002
20457	22.901	0.90909	5.e-002	4.0557e-006
20458	23.176	0.90909	0.	6.2332e-002
20459	23.084	0.81818	0.	4.021e-002
20460	23.084	0.90909	5.e-002	4.5512e-006
20461	23.359	0.90909	0.	8.0578e-002
20462	23.267	0.81818	0.	6.6082e-002
20463	23.267	0.90909	5.e-002	2.7254e-006
20464	23.542	0.90909	0.	0.16493
20465	23.451	0.81818	0.	7.6921e-002
20466	23.451	0.90909	5.e-002	-1.6932e-006
20467	23.725	0.90909	0.	0.13377
20468	23.634	0.81818	0.	0.23843
20469	23.634	0.90909	5.e-002	4.2464e-006
20470	23.817	0.81818	0.	5.3521e-002
20471	23.817	0.90909	5.e-002	-2.2711e-006
20472	23.908	0.90909	0.	0.40202
20473	8.3414	0.72727	0.	-4.7469
20474	8.2498	0.63636	0.	-7.5921
20475	8.2498	0.72727	5.e-002	-2.1154e-006
20476	8.1582	0.72727	0.	1.9345
20477	8.5245	0.72727	0.	-2.2534
20478	8.433	0.63636	0.	-2.0838
20479	8.433	0.72727	5.e-002	4.0614e-006
20480	8.7077	0.72727	0.	-2.4386
20481	8.6161	0.63636	0.	-2.9389
20482	8.6161	0.72727	5.e-002	1.083e-005
20483	8.8908	0.72727	0.	-1.8529
20484	8.7992	0.63636	0.	-1.9822
20485	8.7992	0.72727	5.e-002	8.3314e-006
20486	9.0739	0.72727	0.	-1.4772
20487	8.9824	0.63636	0.	-1.5037
20488	8.9824	0.72727	5.e-002	1.5306e-005
20489	9.2571	0.72727	0.	-1.1564
20490	9.1655	0.63636	0.	-1.0928
20491	9.1655	0.72727	5.e-002	1.1663e-005
20492	9.4402	0.72727	0.	-0.92421
20493	9.3487	0.63636	0.	-0.82361
20494	9.3487	0.72727	5.e-002	1.3173e-005
20495	9.6234	0.72727	0.	-0.75558
20496	9.5318	0.63636	0.	-0.63392
20497	9.5318	0.72727	5.e-002	1.5999e-005
20498	9.8065	0.72727	0.	-0.63956
20499	9.7149	0.63636	0.	-0.50443
20500	9.7149	0.72727	5.e-002	2.1973e-005
20501	9.9897	0.72727	0.	-0.56736
20502	9.8981	0.63636	0.	-0.41696
20503	9.8981	0.72727	5.e-002	1.3668e-005
20504	10.173	0.72727	0.	-0.53858
20505	10.081	0.63636	0.	-0.36234
20506	10.081	0.72727	5.e-002	2.8367e-005
20507	10.356	0.72727	0.	-0.56839
20508	10.264	0.63636	0.	-0.337
20509	10.264	0.72727	5.e-002	8.2117e-006
20510	10.539	0.72727	0.	-0.72894
20511	10.448	0.63636	0.	-0.34657
20512	10.448	0.72727	5.e-002	6.1632e-005
20513	10.722	0.72727	0.	-1.4919
20514	10.631	0.63636	0.	-0.42289
20515	10.631	0.72727	5.e-002	2.026e-005
20516	10.905	0.72727	0.	-5.1514
20517	10.814	0.63636	0.	-0.75713
20518	10.814	0.72727	5.e-002	2.9293e-005
20519	11.089	0.72727	0.	-10.043
20520	10.997	0.63636	0.	-2.9666
20521	10.997	0.72727	5.e-002	1.4113e-005
20522	11.272	0.72727	0.	-14.033
20523	11.18	0.63636	0.	-7.1367
20524	11.18	0.72727	5.e-002	-5.8244e-006
20525	11.455	0.72727	0.	-16.991
20526	11.363	0.63636	0.	-10.632
20527	11.363	0.72727	5.e-002	-4.8143e-006
20528	11.638	0.72727	0.	-19.02
20529	11.546	0.63636	0.	-13.209
20530	11.546	0.72727	5.e-002	3.367e-006
20531	11.821	0.72727	0.	-20.253
20532	11.73	0.63636	0.	-14.96
20533	11.73	0.72727	5.e-002	1.5523e-007
20534	12.004	0.72727	0.	-20.819
20535	11.913	0.63636	0.	-16.005
20536	11.913	0.72727	5.e-002	4.5514e-007
20537	12.187	0.72727	0.	-20.837
20538	12.096	0.63636	0.	-16.462
20539	12.096	0.72727	5.e-002	-1.1846e-006
20540	12.37	0.72727	0.	-20.412
20541	12.279	0.63636	0.	-16.439
20542	12.279	0.72727	5.e-002	2.6885e-006
20543	12.554	0.72727	0.	-19.637
20544	12.462	0.63636	0.	-16.03
20545	12.462	0.72727	5.e-002	1.6235e-006
20546	12.737	0.72727	0.	-18.592
20547	12.645	0.63636	0.	-15.317
20548	12.645	0.72727	5.e-002	4.6653e-007
20549	12.92	0.72727	0.	-17.343
20550	12.828	0.63636	0.	-14.371
20551	12.828	0.72727	5.e-002	9.2256e-007
20552	13.103	0.72727	0.	-15.946
20553	13.011	0.63636	0.	-13.249
20554	13.011	0.72727	5.e-002	2.0503e-006
20555	13.286	0.72727	0.	-14.449
20556	13.195	0.63636	0.	-12.001
20557	13.195	0.72727	5.e-002	5.2199e-007
20558	13.469	0.72727	0.	-12.888
20559	13.378	0.63636	0.	-10.667
20560	13.378	0.72727	5.e-002	3.3384e-007
20561	13.652	0.72727	0.	-11.294
20562	13.561	0.63636	0.	-9.2787
20563	13.561	0.72727	5.e-002	1.7749e-006
20564	13.836	0.72727	0.	-9.69
20565	13.744	0.63636	0.	-7.863
20566	13.744	0.72727	5.e-002	2.2256e-006
20567	14.019	0.72727	0.	-8.0957
20568	13.927	0.63636	0.	-6.4402
20569	13.927	0.72727	5.e-002	1.8848e-006
20570	14.202	0.72727	0.	-6.5249
20571	14.11	0.63636	0.	-5.0262
20572	14.11	0.72727	5.e-002	3.0855e-006
20573	14.385	0.72727	0.	-4.9878
20574	14.293	0.63636	0.	-3.6329
20575	14.293	0.72727	5.e-002	3.7636e-006
20576	14.568	0.72727	0.	-3.4922
20577	14.477	0.63636	0.	-2.2695
20578	14.477	0.72727	5.e-002	2.9148e-006
20579	14.751	0.72727	0.	-2.0438
20580	14.66	0.63636	0.	-0.94519
20581	14.66	0.72727	5.e-002	2.5373e-006
20582	14.934	0.72727	0.	-0.6555
20583	14.843	0.63636	0.	-1.9832e-002
20584	14.843	0.72727	5.e-002	2.4354e-006
20585	15.118	0.72727	0.	-1.6704e-002
20586	15.026	0.63636	0.	-3.1548e-003
20587	15.026	0.72727	5.e-002	4.0248e-006
20588	15.301	0.72727	0.	-4.9975e-003
20589	15.209	0.63636	0.	-1.4554e-003
20590	15.209	0.72727	5.e-002	2.8146e-006
20591	15.484	0.72727	0.	-2.8122e-003
20592	15.392	0.63636	0.	-1.102e-003
20593	15.392	0.72727	5.e-002	1.9738e-006
20594	15.667	0.72727	0.	-2.0777e-003
20595	15.575	0.63636	0.	-1.0979e-003
20596	15.575	0.72727	5.e-002	-5.6075e-007
20597	15.85	0.72727	0.	-1.8229e-003
20598	15.759	0.63636	0.	-1.2326e-003
20599	15.759	0.72727	5.e-002	8.7269e-007
20600	16.033	0.72727	0.	-1.7782e-003
20601	15.942	0.63636	0.	-1.4389e-003
20602	15.942	0.72727	5.e-002	1.5228e-006
20603	16.216	0.72727	0.	-1.8332e-003
20604	16.125	0.63636	0.	-1.6724e-003
20605	16.125	0.72727	5.e-002	1.2355e-007
20606	16.4	0.72727	0.	-1.9454e-003
20607	16.308	0.63636	0.	-1.9158e-003
20608	16.308	0.72727	5.e-002	1.9282e-006
20609	16.583	0.72727	0.	-2.0894e-003
20610	16.491	0.63636	0.	-2.1708e-003
20611	16.491	0.72727	5.e-002	7.0501e-007
20612	16.766	0.72727	0.	-2.2398e-003
20613	16.674	0.63636	0.	-2.4203e-003
20614	16.674	0.72727	5.e-002	3.2761e-006
20615	16.949	0.72727	0.	-2.4003e-003
20616	16.857	0.63636	0.	-2.651e-003
20617	16.857	0.72727	5.e-002	7.165e-006
20618	17.132	0.72727	0.	-2.5747e-003
20619	17.041	0.63636	0.	-2.8959e-003
20620	17.041	0.72727	5.e-002	9.4376e-006
20621	17.315	0.72727	0.	-2.7495e-003
20622	17.224	0.63636	0.	-3.1399e-003
20623	17.224	0.72727	5.e-002	9.1718e-006
20624	17.498	0.72727	0.	-2.9216e-003
20625	17.407	0.63636	0.	-3.3733e-003
20626	17.407	0.72727	5.e-002	9.9165e-006
20627	17.682	0.72727	0.	-3.0959e-003
20628	17.59	0.63636	0.	-3.6032e-003
20629	17.59	0.72727	5.e-002	8.4402e-006
20630	17.865	0.72727	0.	-3.2713e-003
20631	17.773	0.63636	0.	-3.8392e-003
20632	17.773	0.72727	5.e-002	6.1879e-006
20633	18.048	0.72727	0.	-3.4369e-003
20634	17.956	0.63636	0.	-4.0688e-003
20635	17.956	0.72727	5.e-002	6.3253e-006
20636	18.231	0.72727	0.	-3.6019e-003
20637	18.139	0.63636	0.	-4.2861e-003
20638	18.139	0.72727	5.e-002	4.7624e-006
20639	18.414	0.72727	0.	-3.775e-003
20640	18.323	0.63636	0.	-4.5162e-003
20641	18.323	0.72727	5.e-002	5.3124e-006
20642	18.597	0.72727	0.	-3.945e-003
20643	18.506	0.63636	0.	-4.7524e-003
20644	18.506	0.72727	5.e-002	5.5152e-006
20645	18.78	0.72727	0.	-4.111e-003
20646	18.689	0.63636	0.	-4.9833e-003
20647	18.689	0.72727	5.e-002	7.1123e-006
20648	18.964	0.72727	0.	-4.2732e-003
20649	18.872	0.63636	0.	-5.2177e-003
20650	18.872	0.72727	5.e-002	5.0367e-006
20651	19.147	0.72727	0.	-4.432e-003
20652	19.055	0.63636	0.	-5.4505e-003
20653	19.055	0.72727	5.e-002	2.0433e-006
20654	19.33	0.72727	0.	-4.593e-003
20655	19.238	0.63636	0.	-5.6862e-003
20656	19.238	0.72727	5.e-002	3.751e-006
20657	19.513	0.72727	0.	-4.7502e-003
20658	19.421	0.63636	0.	-5.9365e-003
20659	19.421	0.72727	5.e-002	7.2456e-006
20660	19.696	0.72727	0.	-4.8951e-003
20661	19.605	0.63636	0.	-6.1793e-003
20662	19.605	0.72727	5.e-002	7.7397e-006
20663	19.879	0.72727	0.	-5.0287e-003
20664	19.788	0.63636	0.	-6.4182e-003
20665	19.788	0.72727	5.e-002	6.5614e-006
20666	20.062	0.72727	0.	-5.1511e-003
20667	19.971	0.63636	0.	-6.6605e-003
20668	19.971	0.72727	5.e-002	5.2525e-006
20669	20.246	0.72727	0.	-5.2534e-003
20670	20.154	0.63636	0.	-6.8994e-003
20671	20.154	0.72727	5.e-002	8.5231e-006
20672	20.429	0.72727	0.	-5.3266e-003
20673	20.337	0.63636	0.	-7.1241e-003
20674	20.337	0.72727	5.e-002	7.0299e-006
20675	20.612	0.72727	0.	-5.3682e-003
20676	20.52	0.63636	0.	-7.3355e-003
20677	20.52	0.72727	5.e-002	1.2422e-005
20678	20.795	0.72727	0.	-5.3625e-003
20679	20.703	0.63636	0.	-7.5314e-003
20680	20.703	0.72727	5.e-002	1.0099e-005
20681	20.978	0.72727	0.	-5.2856e-003
20682	20.887	0.63636	0.	-7.6865e-003
20683	20.887	0.72727	5.e-002	4.9982e-006
20684	21.161	0.72727	0.	-5.1173e-003
20685	21.07	0.63636	0.	-7.7892e-003
20686	21.07	0.72727	5.e-002	2.5259e-007
20687	21.344	0.72727	0.	-4.8281e-003
20688	21.253	0.63636	0.	-7.8187e-003
20689	21.253	0.72727	5.e-002	-8.2046e-007
20690	21.528	0.72727	0.	-4.3736e-003
20691	21.436	0.63636	0.	-7.7425e-003
20692	21.436	0.72727	5.e-002	4.8294e-006
20693	21.711	0.72727	0.	-3.6885e-003
20694	21.619	0.63636	0.	-7.5152e-003
20695	21.619	0.72727	5.e-002	8.3678e-006
20696	21.894	0.72727	0.	-2.6879e-003
20697	21.802	0.63636	0.	-7.073e-003
20698	21.802	0.72727	5.e-002	1.0763e-005
20699	22.077	0.72727	0.	-1.2461e-003
20700	21.985	0.63636	0.	-6.3247e-003
20701	21.985	0.72727	5.e-002	1.182e-005
20702	22.26	0.72727	0.	8.1715e-004
20703	22.169	0.63636	0.	-5.126e-003
20704	22.169	0.72727	5.e-002	8.5747e-006
20705	22.443	0.72727	0.	3.784e-003
20706	22.352	0.63636	0.	-3.287e-003
20707	22.352	0.72727	5.e-002	1.3641e-005
20708	22.626	0.72727	0.	8.0216e-003
20709	22.535	0.63636	0.	-4.5927e-004
20710	22.535	0.72727	5.e-002	1.0544e-005
20711	22.81	0.72727	0.	1.4428e-002
20712	22.718	0.63636	0.	3.734e-003
20713	22.718	0.72727	5.e-002	2.5905e-006
20714	22.993	0.72727	0.	2.3263e-002
20715	22.901	0.63636	0.	1.0707e-002
20716	22.901	0.72727	5.e-002	6.5097e-007
20717	23.176	0.72727	0.	4.0082e-002
20718	23.084	0.63636	0.	1.966e-002
20719	23.084	0.72727	5.e-002	6.6241e-007
20720	23.359	0.72727	0.	5.5705e-002
20721	23.267	0.63636	0.	4.266e-002
20722	23.267	0.72727	5.e-002	-6.9606e-007
20723	23.542	0.72727	0.	0.13478
20724	23.451	0.63636	0.	4.9539e-002
20725	23.451	0.72727	5.e-002	-2.7216e-006
20726	23.725	0.72727	0.	9.2833e-002
20727	23.634	0.63636	0.	0.20379
20728	23.634	0.72727	5.e-002	2.4638e-006
20729	23.817	0.63636	0.	1.5617e-003
20730	23.817	0.72727	5.e-002	6.9809e-007
20731	23.908	0.72727	0.	0.37852
20732	8.3414	0.54545	0.	-6.0146
20733	8.2498	0.45455	0.	-9.0187
20734	8.2498	0.54545	5.e-002	-1.2975e-005
20735	8.1582	0.54545	0.	1.9634
20736	8.5245	0.54545	0.	-3.1368
20737	8.433	0.45455	0.	-3.6121
20738	8.433	0.54545	5.e-002	1.7835e-006
20739	8.7077	0.54545	0.	-2.5866
20740	8.6161	0.45455	0.	-3.3694
20741	8.6161	0.54545	5.e-002	7.2419e-006
20742	8.8908	0.54545	0.	-1.6344
20743	8.7992	0.45455	0.	-1.8408
20744	8.7992	0.54545	5.e-002	9.2669e-006
20745	9.0739	0.54545	0.	-1.1089
20746	8.9824	0.45455	0.	-1.176
20747	8.9824	0.54545	5.e-002	1.0902e-005
20748	9.2571	0.54545	0.	-0.76253
20749	9.1655	0.45455	0.	-0.76158
20750	9.1655	0.54545	5.e-002	1.0672e-005
20751	9.4402	0.54545	0.	-0.54959
20752	9.3487	0.45455	0.	-0.53792
20753	9.3487	0.54545	5.e-002	1.0418e-005
20754	9.6234	0.54545	0.	-0.4095
20755	9.5318	0.45455	0.	-0.39677
20756	9.5318	0.54545	5.e-002	9.7717e-006
20757	9.8065	0.54545	0.	-0.31672
20758	9.7149	0.45455	0.	-0.30426
20759	9.7149	0.54545	5.e-002	9.6775e-006
20760	9.9897	0.54545	0.	-0.25508
20761	9.8981	0.45455	0.	-0.23972
20762	9.8981	0.54545	5.e-002	2.1076e-005
20763	10.173	0.54545	0.	-0.21598
20764	10.081	0.45455	0.	-0.19395
20765	10.081	0.54545	5.e-002	9.5328e-006
20766	10.356	0.54545	0.	-0.19515
20767	10.264	0.45455	0.	-0.16186
20768	10.264	0.54545	5.e-002	7.8685e-006
20769	10.539	0.54545	0.	-0.19293
20770	10.448	0.45455	0.	-0.14126
20771	10.448	0.54545	5.e-002	8.1901e-005
20772	10.722	0.54545	0.	-0.21861
20773	10.631	0.45455	0.	-0.13233
20774	10.631	0.54545	5.e-002	-2.8472e-006
20775	10.905	0.54545	0.	-0.31863
20776	10.814	0.45455	0.	-0.13967
20777	10.814	0.54545	5.e-002	2.9424e-005
20778	11.089	0.54545	0.	-0.91172
20779	10.997	0.45455	0.	-0.18402
20780	10.997	0.54545	5.e-002	3.1449e-005
20781	11.272	0.54545	0.	-3.7847
20782	11.18	0.45455	0.	-0.41921
20783	11.18	0.54545	5.e-002	2.2874e-006
20784	11.455	0.54545	0.	-6.8429
20785	11.363	0.45455	0.	-2.1483
20786	11.363	0.54545	5.e-002	3.7141e-006
20787	11.638	0.54545	0.	-9.1322
20788	11.546	0.45455	0.	-4.5272
20789	11.546	0.54545	5.e-002	5.792e-006
20790	11.821	0.54545	0.	-10.692
20791	11.73	0.45455	0.	-6.3021
20792	11.73	0.54545	5.e-002	2.8293e-007
20793	12.004	0.54545	0.	-11.628
20794	11.913	0.45455	0.	-7.4757
20795	11.913	0.54545	5.e-002	5.9678e-006
20796	12.187	0.54545	0.	-12.045
20797	12.096	0.45455	0.	-8.1361
20798	12.096	0.54545	5.e-002	1.3191e-007
20799	12.37	0.54545	0.	-12.038
20800	12.279	0.45455	0.	-8.372
20801	12.279	0.54545	5.e-002	3.042e-006
20802	12.554	0.54545	0.	-11.691
20803	12.462	0.45455	0.	-8.2639
20804	12.462	0.54545	5.e-002	1.9669e-006
20805	12.737	0.54545	0.	-11.078
20806	12.645	0.45455	0.	-7.8815
20807	12.645	0.54545	5.e-002	4.3664e-007
20808	12.92	0.54545	0.	-10.258
20809	12.828	0.45455	0.	-7.2845
20810	12.828	0.54545	5.e-002	1.5056e-006
20811	13.103	0.54545	0.	-9.2846
20812	13.011	0.45455	0.	-6.5236
20813	13.011	0.54545	5.e-002	2.0704e-006
20814	13.286	0.54545	0.	-8.1996
20815	13.195	0.45455	0.	-5.6406
20816	13.195	0.54545	5.e-002	1.5298e-006
20817	13.469	0.54545	0.	-7.038
20818	13.378	0.45455	0.	-4.6703
20819	13.378	0.54545	5.e-002	1.0778e-006
20820	13.652	0.54545	0.	-5.8282
20821	13.561	0.45455	0.	-3.6409
20822	13.561	0.54545	5.e-002	1.5392e-006
20823	13.836	0.54545	0.	-4.5929
20824	13.744	0.45455	0.	-2.5752
20825	13.744	0.54545	5.e-002	2.7558e-006
20826	14.019	0.54545	0.	-3.3497
20827	13.927	0.45455	0.	-1.4911
20828	13.927	0.54545	5.e-002	2.6107e-006
20829	14.202	0.54545	0.	-2.1126
20830	14.11	0.45455	0.	-0.40296
20831	14.11	0.54545	5.e-002	4.677e-006
20832	14.385	0.54545	0.	-0.89279
20833	14.293	0.45455	0.	9.5148e-003
20834	14.293	0.54545	5.e-002	6.2541e-006
20835	14.568	0.54545	0.	-5.557e-003
20836	14.477	0.45455	0.	8.1503e-003
20837	14.477	0.54545	5.e-002	5.0702e-006
20838	14.751	0.54545	0.	7.6376e-004
20839	14.66	0.45455	0.	6.8178e-003
20840	14.66	0.54545	5.e-002	2.8808e-006
20841	14.934	0.54545	0.	9.2393e-004
20842	14.843	0.45455	0.	5.5675e-003
20843	14.843	0.54545	5.e-002	1.7379e-006
20844	15.118	0.54545	0.	6.3401e-004
20845	15.026	0.45455	0.	4.399e-003
20846	15.026	0.54545	5.e-002	3.589e-006
20847	15.301	0.54545	0.	2.2892e-004
20848	15.209	0.45455	0.	3.2937e-003
20849	15.209	0.54545	5.e-002	4.0217e-006
20850	15.484	0.54545	0.	-1.9735e-004
20851	15.392	0.45455	0.	2.2284e-003
20852	15.392	0.54545	5.e-002	2.8772e-006
20853	15.667	0.54545	0.	-6.0712e-004
20854	15.575	0.45455	0.	1.2421e-003
20855	15.575	0.54545	5.e-002	-8.1733e-007
20856	15.85	0.54545	0.	-1.0071e-003
20857	15.759	0.45455	0.	3.1071e-004
20858	15.759	0.54545	5.e-002	-2.7656e-007
20859	16.033	0.54545	0.	-1.3945e-003
20860	15.942	0.45455	0.	-5.8327e-004
20861	15.942	0.54545	5.e-002	2.0383e-006
20862	16.216	0.54545	0.	-1.7646e-003
20863	16.125	0.45455	0.	-1.435e-003
20864	16.125	0.54545	5.e-002	7.4143e-007
20865	16.4	0.54545	0.	-2.1225e-003
20866	16.308	0.45455	0.	-2.2484e-003
20867	16.308	0.54545	5.e-002	1.4791e-006
20868	16.583	0.54545	0.	-2.4678e-003
20869	16.491	0.45455	0.	-3.0378e-003
20870	16.491	0.54545	5.e-002	1.0904e-006
20871	16.766	0.54545	0.	-2.7902e-003
20872	16.674	0.45455	0.	-3.796e-003
20873	16.674	0.54545	5.e-002	2.8477e-006
20874	16.949	0.54545	0.	-3.1031e-003
20875	16.857	0.45455	0.	-4.5142e-003
20876	16.857	0.54545	5.e-002	8.5785e-006
20877	17.132	0.54545	0.	-3.4186e-003
20878	17.041	0.45455	0.	-5.2331e-003
20879	17.041	0.54545	5.e-002	1.1848e-005
20880	17.315	0.54545	0.	-3.7244e-003
20881	17.224	0.45455	0.	-5.943e-003
20882	17.224	0.54545	5.e-002	8.8204e-006
20883	17.498	0.54545	0.	-4.0207e-003
20884	17.407	0.45455	0.	-6.6338e-003
20885	17.407	0.54545	5.e-002	9.2074e-006
20886	17.682	0.54545	0.	-4.3186e-003
20887	17.59	0.45455	0.	-7.3212e-003
20888	17.59	0.54545	5.e-002	7.6891e-006
20889	17.865	0.54545	0.	-4.6162e-003
20890	17.773	0.45455	0.	-8.0149e-003
20891	17.773	0.54545	5.e-002	5.7216e-006
20892	18.048	0.54545	0.	-4.9058e-003
20893	17.956	0.45455	0.	-8.7089e-003
20894	17.956	0.54545	5.e-002	8.1391e-006
20895	18.231	0.54545	0.	-5.1975e-003
20896	18.139	0.45455	0.	-9.3969e-003
20897	18.139	0.54545	5.e-002	5.3709e-006
20898	18.414	0.54545	0.	-5.5012e-003
20899	18.323	0.45455	0.	-1.0112e-002
20900	18.323	0.54545	5.e-002	5.3168e-006
20901	18.597	0.54545	0.	-5.8097e-003
20902	18.506	0.45455	0.	-1.0848e-002
20903	18.506	0.54545	5.e-002	5.9227e-006
20904	18.78	0.54545	0.	-6.1218e-003
20905	18.689	0.45455	0.	-1.1599e-002
20906	18.689	0.54545	5.e-002	5.0087e-006
20907	18.964	0.54545	0.	-6.4408e-003
20908	18.872	0.45455	0.	-1.238e-002
20909	18.872	0.54545	5.e-002	2.7992e-006
20910	19.147	0.54545	0.	-6.7661e-003
20911	19.055	0.45455	0.	-1.3188e-002
20912	19.055	0.54545	5.e-002	2.0061e-006
20913	19.33	0.54545	0.	-7.1085e-003
20914	19.238	0.45455	0.	-1.4031e-002
20915	19.238	0.54545	5.e-002	4.5401e-006
20916	19.513	0.54545	0.	-7.464e-003
20917	19.421	0.45455	0.	-1.493e-002
20918	19.421	0.54545	5.e-002	9.3082e-006
20919	19.696	0.54545	0.	-7.8229e-003
20920	19.605	0.45455	0.	-1.5865e-002
20921	19.605	0.54545	5.e-002	8.3427e-006
20922	19.879	0.54545	0.	-8.1954e-003
20923	19.788	0.45455	0.	-1.685e-002
20924	19.788	0.54545	5.e-002	6.6367e-006
20925	20.062	0.54545	0.	-8.5826e-003
20926	19.971	0.45455	0.	-1.7898e-002
20927	19.971	0.54545	5.e-002	4.7228e-006
20928	20.246	0.54545	0.	-8.9765e-003
20929	20.154	0.45455	0.	-1.9009e-002
20930	20.154	0.54545	5.e-002	9.4779e-006
20931	20.429	0.54545	0.	-9.3768e-003
20932	20.337	0.45455	0.	-2.0184e-002
20933	20.337	0.54545	5.e-002	8.8274e-006
20934	20.612	0.54545	0.	-9.7857e-003
20935	20.52	0.45455	0.	-2.1439e-002
20936	20.52	0.54545	5.e-002	1.351e-005
20937	20.795	0.54545	0.	-1.0193e-002
20938	20.703	0.45455	0.	-2.2778e-002
20939	20.703	0.54545	5.e-002	1.0862e-005
20940	20.978	0.54545	0.	-1.0586e-002
20941	20.887	0.45455	0.	-2.4197e-002
20942	20.887	0.54545	5.e-002	5.7856e-006
20943	21.161	0.54545	0.	-1.0956e-002
20944	21.07	0.45455	0.	-2.5701e-002
20945	21.07	0.54545	5.e-002	-1.1711e-006
20946	21.344	0.54545	0.	-1.1282e-002
20947	21.253	0.45455	0.	-2.7295e-002
20948	21.253	0.54545	5.e-002	-1.2863e-006
20949	21.528	0.54545	0.	-1.1532e-002
20950	21.436	0.45455	0.	-2.8972e-002
20951	21.436	0.54545	5.e-002	3.5573e-006
20952	21.711	0.54545	0.	-1.1669e-002
20953	21.619	0.45455	0.	-3.0725e-002
20954	21.619	0.54545	5.e-002	7.8579e-006
20955	21.894	0.54545	0.	-1.1627e-002
20956	21.802	0.45455	0.	-3.2537e-002
20957	21.802	0.54545	5.e-002	1.3427e-005
20958	22.077	0.54545	0.	-1.1308e-002
20959	21.985	0.45455	0.	-3.437e-002
20960	21.985	0.54545	5.e-002	1.3817e-005
20961	22.26	0.54545	0.	-1.057e-002
20962	22.169	0.45455	0.	-3.6157e-002
20963	22.169	0.54545	5.e-002	1.0361e-005
20964	22.443	0.54545	0.	-9.1791e-003
20965	22.352	0.45455	0.	-3.7807e-002
20966	22.352	0.54545	5.e-002	1.3434e-005
20967	22.626	0.54545	0.	-6.812e-003
20968	22.535	0.45455	0.	-3.9099e-002
20969	22.535	0.54545	5.e-002	8.363e-006
20970	22.81	0.54545	0.	-2.6394e-003
20971	22.718	0.45455	0.	-3.9825e-002
20972	22.718	0.54545	5.e-002	-3.7404e-008
20973	22.993	0.54545	0.	3.5674e-003
20974	22.901	0.45455	0.	-3.8847e-002
20975	22.901	0.54545	5.e-002	-2.7483e-006
20976	23.176	0.54545	0.	1.7213e-002
20977	23.084	0.45455	0.	-3.7115e-002
20978	23.084	0.54545	5.e-002	-1.6869e-006
20979	23.359	0.54545	0.	2.8428e-002
20980	23.267	0.45455	0.	-2.3897e-002
20981	23.267	0.54545	5.e-002	-3.9557e-006
20982	23.542	0.54545	0.	0.1018
20983	23.451	0.45455	0.	-2.7238e-002
20984	23.451	0.54545	5.e-002	-6.3853e-006
20985	23.725	0.54545	0.	5.0255e-002
20986	23.634	0.45455	0.	9.9174e-002
20987	23.634	0.54545	5.e-002	2.1621e-006
20988	23.817	0.45455	0.	-0.14688
20989	23.817	0.54545	5.e-002	2.0199e-006
20990	23.908	0.54545	0.	0.36559
20991	8.3414	0.36364	0.	-8.972
20992	8.2498	0.27273	0.	-15.376
20993	8.2498	0.36364	5.e-002	-2.8074e-006
20994	8.1582	0.36364	0.	3.0618
20995	8.5245	0.36364	0.	-4.4685
20996	8.433	0.27273	0.	-6.3626
20997	8.433	0.36364	5.e-002	-1.9077e-007
20998	8.7077	0.36364	0.	-2.6222
20999	8.6161	0.27273	0.	-3.677
21000	8.6161	0.36364	5.e-002	2.7485e-006
21001	8.8908	0.36364	0.	-1.3146
21002	8.7992	0.27273	0.	-1.4457
21003	8.7992	0.36364	5.e-002	3.5894e-006
21004	9.0739	0.36364	0.	-0.79399
21005	8.9824	0.27273	0.	-0.67214
21006	8.9824	0.36364	5.e-002	3.3792e-006
21007	9.2571	0.36364	0.	-0.52979
21008	9.1655	0.27273	0.	-0.30892
21009	9.1655	0.36364	5.e-002	4.8978e-006
21010	9.4402	0.36364	0.	-0.39323
21011	9.3487	0.27273	0.	-0.16874
21012	9.3487	0.36364	5.e-002	3.7498e-006
21013	9.6234	0.36364	0.	-0.30742
21014	9.5318	0.27273	0.	-0.1078
21015	9.5318	0.36364	5.e-002	4.2614e-006
21016	9.8065	0.36364	0.	-0.2469
21017	9.7149	0.27273	0.	-8.1098e-002
21018	9.7149	0.36364	5.e-002	4.3973e-006
21019	9.9897	0.36364	0.	-0.20009
21020	9.8981	0.27273	0.	-6.6508e-002
21021	9.8981	0.36364	5.e-002	4.1824e-006
21022	10.173	0.36364	0.	-0.16264
21023	10.081	0.27273	0.	-5.6478e-002
21024	10.081	0.36364	5.e-002	3.7816e-006
21025	10.356	0.36364	0.	-0.13266
21026	10.264	0.27273	0.	-4.8278e-002
21027	10.264	0.36364	5.e-002	7.2752e-006
21028	10.539	0.36364	0.	-0.10956
21029	10.448	0.27273	0.	-4.1492e-002
21030	10.448	0.36364	5.e-002	1.3386e-005
21031	10.722	0.36364	0.	-9.3499e-002
21032	10.631	0.27273	0.	-3.65e-002
21033	10.631	0.36364	5.e-002	2.7976e-005
21034	10.905	0.36364	0.	-8.5885e-002
21035	10.814	0.27273	0.	-3.4052e-002
21036	10.814	0.36364	5.e-002	-7.303e-006
21037	11.089	0.36364	0.	-9.1741e-002
21038	10.997	0.27273	0.	-3.5361e-002
21039	10.997	0.36364	5.e-002	-2.5801e-006
21040	11.272	0.36364	0.	-0.1328
21041	11.18	0.27273	0.	-4.2741e-002
21042	11.18	0.36364	5.e-002	-1.7628e-006
21043	11.455	0.36364	0.	-0.40141
21044	11.363	0.27273	0.	-6.1644e-002
21045	11.363	0.36364	5.e-002	1.0081e-006
21046	11.638	0.36364	0.	-1.7395
21047	11.546	0.27273	0.	-0.10882
21048	11.546	0.36364	5.e-002	-2.3363e-007
21049	11.821	0.36364	0.	-3.083
21050	11.73	0.27273	0.	-0.24932
21051	11.73	0.36364	5.e-002	2.6989e-006
21052	12.004	0.36364	0.	-3.9717
21053	11.913	0.27273	0.	-0.6067
21054	11.913	0.36364	5.e-002	2.5013e-006
21055	12.187	0.36364	0.	-4.4483
21056	12.096	0.27273	0.	-0.96686
21057	12.096	0.36364	5.e-002	1.8755e-006
21058	12.37	0.36364	0.	-4.5817
21059	12.279	0.27273	0.	-1.114
21060	12.279	0.36364	5.e-002	3.4228e-006
21061	12.554	0.36364	0.	-4.4371
21062	12.462	0.27273	0.	-1.0426
21063	12.462	0.36364	5.e-002	2.4497e-006
21064	12.737	0.36364	0.	-4.0712
21065	12.645	0.27273	0.	-0.7975
21066	12.645	0.36364	5.e-002	1.1486e-006
21067	12.92	0.36364	0.	-3.5326
21068	12.828	0.27273	0.	-0.45511
21069	12.828	0.36364	5.e-002	4.2872e-007
21070	13.103	0.36364	0.	-2.8625
21071	13.011	0.27273	0.	-0.17962
21072	13.011	0.36364	5.e-002	3.4527e-006
21073	13.286	0.36364	0.	-2.0949
21074	13.195	0.27273	0.	-7.0455e-002
21075	13.195	0.36364	5.e-002	4.3702e-006
21076	13.469	0.36364	0.	-1.2589
21077	13.378	0.27273	0.	-3.2544e-002
21078	13.378	0.36364	5.e-002	3.6206e-006
21079	13.652	0.36364	0.	-0.38684
21080	13.561	0.27273	0.	-1.6267e-002
21081	13.561	0.36364	5.e-002	2.8424e-006
21082	13.836	0.36364	0.	6.3117e-003
21083	13.744	0.27273	0.	-8.1372e-003
21084	13.744	0.36364	5.e-002	2.516e-006
21085	14.019	0.36364	0.	1.3668e-002
21086	13.927	0.27273	0.	-3.7532e-003
21087	13.927	0.36364	5.e-002	3.7787e-006
21088	14.202	0.36364	0.	1.366e-002
21089	14.11	0.27273	0.	-1.3485e-003
21090	14.11	0.36364	5.e-002	4.4536e-006
21091	14.385	0.36364	0.	1.2526e-002
21092	14.293	0.27273	0.	-2.6395e-005
21093	14.293	0.36364	5.e-002	7.1636e-006
21094	14.568	0.36364	0.	1.106e-002
21095	14.477	0.27273	0.	6.3248e-004
21096	14.477	0.36364	5.e-002	5.2446e-006
21097	14.751	0.36364	0.	9.4889e-003
21098	14.66	0.27273	0.	8.6186e-004
21099	14.66	0.36364	5.e-002	3.0779e-006
21100	14.934	0.36364	0.	7.91e-003
21101	14.843	0.27273	0.	8.2412e-004
21102	14.843	0.36364	5.e-002	2.6417e-006
21103	15.118	0.36364	0.	6.3601e-003
21104	15.026	0.27273	0.	6.2055e-004
21105	15.026	0.36364	5.e-002	3.5141e-006
21106	15.301	0.36364	0.	4.842e-003
21107	15.209	0.27273	0.	2.9979e-004
21108	15.209	0.36364	5.e-002	3.8714e-006
21109	15.484	0.36364	0.	3.3759e-003
21110	15.392	0.27273	0.	-1.1681e-004
21111	15.392	0.36364	5.e-002	3.1769e-006
21112	15.667	0.36364	0.	1.9775e-003
21113	15.575	0.27273	0.	-5.5904e-004
21114	15.575	0.36364	5.e-002	7.1521e-007
21115	15.85	0.36364	0.	6.3064e-004
21116	15.759	0.27273	0.	-1.0249e-003
21117	15.759	0.36364	5.e-002	1.1131e-006
21118	16.033	0.36364	0.	-6.6953e-004
21119	15.942	0.27273	0.	-1.5178e-003
21120	15.942	0.36364	5.e-002	2.3256e-006
21121	16.216	0.36364	0.	-1.9206e-003
21122	16.125	0.27273	0.	-2.0198e-003
21123	16.125	0.36364	5.e-002	1.0307e-006
21124	16.4	0.36364	0.	-3.1319e-003
21125	16.308	0.27273	0.	-2.523e-003
21126	16.308	0.36364	5.e-002	1.2789e-006
21127	16.583	0.36364	0.	-4.3079e-003
21128	16.491	0.27273	0.	-3.0379e-003
21129	16.491	0.36364	5.e-002	5.0684e-007
21130	16.766	0.36364	0.	-5.4412e-003
21131	16.674	0.27273	0.	-3.5492e-003
21132	16.674	0.36364	5.e-002	3.9195e-006
21133	16.949	0.36364	0.	-6.5491e-003
21134	16.857	0.27273	0.	-4.0431e-003
21135	16.857	0.36364	5.e-002	8.0222e-006
21136	17.132	0.36364	0.	-7.6493e-003
21137	17.041	0.27273	0.	-4.5576e-003
21138	17.041	0.36364	5.e-002	9.8813e-006
21139	17.315	0.36364	0.	-8.7336e-003
21140	17.224	0.27273	0.	-5.0811e-003
21141	17.224	0.36364	5.e-002	1.0297e-005
21142	17.498	0.36364	0.	-9.8071e-003
21143	17.407	0.27273	0.	-5.6023e-003
21144	17.407	0.36364	5.e-002	1.0257e-005
21145	17.682	0.36364	0.	-1.0884e-002
21146	17.59	0.27273	0.	-6.1356e-003
21147	17.59	0.36364	5.e-002	6.9124e-006
21148	17.865	0.36364	0.	-1.1969e-002
21149	17.773	0.27273	0.	-6.6854e-003
21150	17.773	0.36364	5.e-002	6.3463e-006
21151	18.048	0.36364	0.	-1.3057e-002
21152	17.956	0.27273	0.	-7.2492e-003
21153	17.956	0.36364	5.e-002	9.1411e-006
21154	18.231	0.36364	0.	-1.4166e-002
21155	18.139	0.27273	0.	-7.8182e-003
21156	18.139	0.36364	5.e-002	6.7707e-006
21157	18.414	0.36364	0.	-1.5312e-002
21158	18.323	0.27273	0.	-8.4278e-003
21159	18.323	0.36364	5.e-002	6.2879e-006
21160	18.597	0.36364	0.	-1.6491e-002
21161	18.506	0.27273	0.	-9.0716e-003
21162	18.506	0.36364	5.e-002	4.0107e-006
21163	18.78	0.36364	0.	-1.7711e-002
21164	18.689	0.27273	0.	-9.7432e-003
21165	18.689	0.36364	5.e-002	3.6239e-006
21166	18.964	0.36364	0.	-1.8983e-002
21167	18.872	0.27273	0.	-1.0463e-002
21168	18.872	0.36364	5.e-002	6.8471e-007
21169	19.147	0.36364	0.	-2.0313e-002
21170	19.055	0.27273	0.	-1.1227e-002
21171	19.055	0.36364	5.e-002	1.8076e-006
21172	19.33	0.36364	0.	-2.1719e-002
21173	19.238	0.27273	0.	-1.2051e-002
21174	19.238	0.36364	5.e-002	3.3761e-006
21175	19.513	0.36364	0.	-2.3205e-002
21176	19.421	0.27273	0.	-1.2951e-002
21177	19.421	0.36364	5.e-002	7.1672e-006
21178	19.696	0.36364	0.	-2.4776e-002
21179	19.605	0.27273	0.	-1.3918e-002
21180	19.605	0.36364	5.e-002	9.228e-006
21181	19.879	0.36364	0.	-2.645e-002
21182	19.788	0.27273	0.	-1.4972e-002
21183	19.788	0.36364	5.e-002	6.5533e-006
21184	20.062	0.36364	0.	-2.8239e-002
21185	19.971	0.27273	0.	-1.6132e-002
21186	19.971	0.36364	5.e-002	5.0066e-006
21187	20.246	0.36364	0.	-3.0153e-002
21188	20.154	0.27273	0.	-1.7405e-002
21189	20.154	0.36364	5.e-002	9.9299e-006
21190	20.429	0.36364	0.	-3.221e-002
21191	20.337	0.27273	0.	-1.8809e-002
21192	20.337	0.36364	5.e-002	1.0164e-005
21193	20.612	0.36364	0.	-3.4429e-002
21194	20.52	0.27273	0.	-2.0369e-002
21195	20.52	0.36364	5.e-002	1.3033e-005
21196	20.795	0.36364	0.	-3.6822e-002
21197	20.703	0.27273	0.	-2.2109e-002
21198	20.703	0.36364	5.e-002	8.3638e-006
21199	20.978	0.36364	0.	-3.9405e-002
21200	20.887	0.27273	0.	-2.4046e-002
21201	20.887	0.36364	5.e-002	6.2335e-006
21202	21.161	0.36364	0.	-4.22e-002
21203	21.07	0.27273	0.	-2.6213e-002
21204	21.07	0.36364	5.e-002	1.9715e-006
21205	21.344	0.36364	0.	-4.5231e-002
21206	21.253	0.27273	0.	-2.8654e-002
21207	21.253	0.36364	5.e-002	1.9814e-006
21208	21.528	0.36364	0.	-4.8519e-002
21209	21.436	0.27273	0.	-3.1412e-002
21210	21.436	0.36364	5.e-002	1.6276e-006
21211	21.711	0.36364	0.	-5.2086e-002
21212	21.619	0.27273	0.	-3.4535e-002
21213	21.619	0.36364	5.e-002	8.3853e-006
21214	21.894	0.36364	0.	-5.5951e-002
21215	21.802	0.27273	0.	-3.8093e-002
21216	21.802	0.36364	5.e-002	1.0341e-005
21217	22.077	0.36364	0.	-6.0125e-002
21218	21.985	0.27273	0.	-4.2158e-002
21219	21.985	0.36364	5.e-002	1.7529e-005
21220	22.26	0.36364	0.	-6.4613e-002
21221	22.169	0.27273	0.	-4.6818e-002
21222	22.169	0.36364	5.e-002	1.6909e-005
21223	22.443	0.36364	0.	-6.9374e-002
21224	22.352	0.27273	0.	-5.2199e-002
21225	22.352	0.36364	5.e-002	1.4606e-005
21226	22.626	0.36364	0.	-7.4356e-002
21227	22.535	0.27273	0.	-5.8387e-002
21228	22.535	0.36364	5.e-002	7.9875e-006
21229	22.81	0.36364	0.	-7.9143e-002
21230	22.718	0.27273	0.	-6.5632e-002
21231	22.718	0.36364	5.e-002	4.7616e-007
21232	22.993	0.36364	0.	-8.3958e-002
21233	22.901	0.27273	0.	-7.3581e-002
21234	22.901	0.36364	5.e-002	-1.9734e-006
21235	23.176	0.36364	0.	-8.4802e-002
21236	23.084	0.27273	0.	-8.3935e-002
21237	23.084	0.36364	5.e-002	-1.5269e-006
21238	23.359	0.36364	0.	-9.013e-002
21239	23.267	0.27273	0.	-8.947e-002
21240	23.267	0.36364	5.e-002	-5.2033e-006
21241	23.542	0.36364	0.	-5.0007e-002
21242	23.451	0.27273	0.	-0.11414
21243	23.451	0.36364	5.e-002	-2.4489e-006
21244	23.725	0.36364	0.	-0.15973
21245	23.634	0.27273	0.	-5.4323e-002
21246	23.634	0.36364	5.e-002	3.0324e-006
21247	23.817	0.27273	0.	-0.38003
21248	23.817	0.36364	5.e-002	9.684e-006
21249	23.908	0.36364	0.	0.17151
21250	8.3414	0.18182	0.	-15.823
21251	8.2498	0.18182	5.e-002	-5.9584e-006
21252	8.2498	9.0909e-002	0.	-13.152
21253	8.1582	0.18182	0.	0.11843
21254	8.5245	0.18182	0.	-5.1097
21255	8.433	0.18182	5.e-002	1.3659e-006
21256	8.433	9.0909e-002	0.	-0.86661
21257	8.7077	0.18182	0.	-2.1379
21258	8.6161	0.18182	5.e-002	5.8566e-007
21259	8.6161	9.0909e-002	0.	-0.50007
21260	8.8908	0.18182	0.	-0.63401
21261	8.7992	0.18182	5.e-002	1.6584e-006
21262	8.7992	9.0909e-002	0.	7.6426e-002
21263	9.0739	0.18182	0.	-0.11185
21264	8.9824	0.18182	5.e-002	1.7259e-006
21265	8.9824	9.0909e-002	0.	4.1758e-002
21266	9.2571	0.18182	0.	8.3051e-002
21267	9.1655	0.18182	5.e-002	2.0265e-006
21268	9.1655	9.0909e-002	0.	4.1734e-002
21269	9.4402	0.18182	0.	0.12406
21270	9.3487	0.18182	5.e-002	1.612e-006
21271	9.3487	9.0909e-002	0.	1.8622e-002
21272	9.6234	0.18182	0.	0.1125
21273	9.5318	0.18182	5.e-002	9.8959e-007
21274	9.5318	9.0909e-002	0.	9.097e-003
21275	9.8065	0.18182	0.	8.5992e-002
21276	9.7149	0.18182	5.e-002	5.9643e-007
21277	9.7149	9.0909e-002	0.	6.5806e-003
21278	9.9897	0.18182	0.	6.0573e-002
21279	9.8981	0.18182	5.e-002	1.1464e-006
21280	9.8981	9.0909e-002	0.	1.0289e-002
21281	10.173	0.18182	0.	4.0764e-002
21282	10.081	0.18182	5.e-002	1.3759e-006
21283	10.081	9.0909e-002	0.	1.7392e-002
21284	10.356	0.18182	0.	2.672e-002
21285	10.264	0.18182	5.e-002	1.1985e-006
21286	10.264	9.0909e-002	0.	2.6137e-002
21287	10.539	0.18182	0.	1.6925e-002
21288	10.448	0.18182	5.e-002	1.5419e-006
21289	10.448	9.0909e-002	0.	3.5115e-002
21290	10.722	0.18182	0.	9.5375e-003
21291	10.631	0.18182	5.e-002	1.4535e-006
21292	10.631	9.0909e-002	0.	4.3336e-002
21293	10.905	0.18182	0.	2.8463e-003
21294	10.814	0.18182	5.e-002	1.681e-006
21295	10.814	9.0909e-002	0.	5.0052e-002
21296	11.089	0.18182	0.	-4.6253e-003
21297	10.997	0.18182	5.e-002	1.7546e-006
21298	10.997	9.0909e-002	0.	5.4602e-002
21299	11.272	0.18182	0.	-1.4049e-002
21300	11.18	0.18182	5.e-002	5.0473e-006
21301	11.18	9.0909e-002	0.	5.6313e-002
21302	11.455	0.18182	0.	-2.6116e-002
21303	11.363	0.18182	5.e-002	2.1672e-005
21304	11.363	9.0909e-002	0.	5.4582e-002
21305	11.638	0.18182	0.	-4.0662e-002
21306	11.546	0.18182	5.e-002	6.1104e-005
21307	11.546	9.0909e-002	0.	4.9055e-002
21308	11.821	0.18182	0.	-5.5993e-002
21309	11.73	0.18182	5.e-002	-1.9696e-006
21310	11.73	9.0909e-002	0.	3.9965e-002
21311	12.004	0.18182	0.	-6.8776e-002
21312	11.913	0.18182	5.e-002	2.447e-005
21313	11.913	9.0909e-002	0.	2.8653e-002
21314	12.187	0.18182	0.	-7.5582e-002
21315	12.096	0.18182	5.e-002	1.335e-006
21316	12.096	9.0909e-002	0.	1.7236e-002
21317	12.37	0.18182	0.	-7.5186e-002
21318	12.279	0.18182	5.e-002	3.1566e-006
21319	12.279	9.0909e-002	0.	7.6576e-003
21320	12.554	0.18182	0.	-6.9137e-002
21321	12.462	0.18182	5.e-002	2.5633e-006
21322	12.462	9.0909e-002	0.	8.896e-004
21323	12.737	0.18182	0.	-6.02e-002
21324	12.645	0.18182	5.e-002	1.5115e-007
21325	12.645	9.0909e-002	0.	-3.1089e-003
21326	12.92	0.18182	0.	-5.0728e-002
21327	12.828	0.18182	5.e-002	1.1068e-005
21328	12.828	9.0909e-002	0.	-4.9486e-003
21329	13.103	0.18182	0.	-4.2045e-002
21330	13.011	0.18182	5.e-002	7.5689e-006
21331	13.011	9.0909e-002	0.	-5.4302e-003
21332	13.286	0.18182	0.	-3.4621e-002
21333	13.195	0.18182	5.e-002	3.6981e-006
21334	13.195	9.0909e-002	0.	-5.1354e-003
21335	13.469	0.18182	0.	-2.8496e-002
21336	13.378	0.18182	5.e-002	7.9405e-006
21337	13.378	9.0909e-002	0.	-4.4607e-003
21338	13.652	0.18182	0.	-2.3529e-002
21339	13.561	0.18182	5.e-002	1.2914e-005
21340	13.561	9.0909e-002	0.	-3.6784e-003
21341	13.836	0.18182	0.	-1.9522e-002
21342	13.744	0.18182	5.e-002	7.0576e-006
21343	13.744	9.0909e-002	0.	-2.9133e-003
21344	14.019	0.18182	0.	-1.6306e-002
21345	13.927	0.18182	5.e-002	9.4463e-006
21346	13.927	9.0909e-002	0.	-2.2485e-003
21347	14.202	0.18182	0.	-1.3705e-002
21348	14.11	0.18182	5.e-002	3.0765e-006
21349	14.11	9.0909e-002	0.	-1.7309e-003
21350	14.385	0.18182	0.	-1.1573e-002
21351	14.293	0.18182	5.e-002	8.4289e-006
21352	14.293	9.0909e-002	0.	-1.3188e-003
21353	14.568	0.18182	0.	-9.8267e-003
21354	14.477	0.18182	5.e-002	1.201e-005
21355	14.477	9.0909e-002	0.	-1.0171e-003
21356	14.751	0.18182	0.	-8.3877e-003
21357	14.66	0.18182	5.e-002	8.1194e-006
21358	14.66	9.0909e-002	0.	-8.325e-004
21359	14.934	0.18182	0.	-7.1834e-003
21360	14.843	0.18182	5.e-002	1.4793e-006
21361	14.843	9.0909e-002	0.	-7.3774e-004
21362	15.118	0.18182	0.	-6.168e-003
21363	15.026	0.18182	5.e-002	8.9736e-006
21364	15.026	9.0909e-002	0.	-7.0967e-004
21365	15.301	0.18182	0.	-5.3193e-003
21366	15.209	0.18182	5.e-002	6.7378e-006
21367	15.209	9.0909e-002	0.	-7.4607e-004
21368	15.484	0.18182	0.	-4.5951e-003
21369	15.392	0.18182	5.e-002	8.0821e-006
21370	15.392	9.0909e-002	0.	-8.5554e-004
21371	15.667	0.18182	0.	-3.9581e-003
21372	15.575	0.18182	5.e-002	4.2636e-006
21373	15.575	9.0909e-002	0.	-9.8391e-004
21374	15.85	0.18182	0.	-3.4055e-003
21375	15.759	0.18182	5.e-002	4.6154e-006
21376	15.759	9.0909e-002	0.	-1.1353e-003
21377	16.033	0.18182	0.	-2.9259e-003
21378	15.942	0.18182	5.e-002	4.116e-006
21379	15.942	9.0909e-002	0.	-1.3231e-003
21380	16.216	0.18182	0.	-2.501e-003
21381	16.125	0.18182	5.e-002	2.7055e-006
21382	16.125	9.0909e-002	0.	-1.5264e-003
21383	16.4	0.18182	0.	-2.1269e-003
21384	16.308	0.18182	5.e-002	3.4428e-006
21385	16.308	9.0909e-002	0.	-1.7422e-003
21386	16.583	0.18182	0.	-1.7959e-003
21387	16.491	0.18182	5.e-002	2.243e-006
21388	16.491	9.0909e-002	0.	-1.9779e-003
21389	16.766	0.18182	0.	-1.4874e-003
21390	16.674	0.18182	5.e-002	8.5502e-006
21391	16.674	9.0909e-002	0.	-2.2154e-003
21392	16.949	0.18182	0.	-1.2082e-003
21393	16.857	0.18182	5.e-002	1.1067e-005
21394	16.857	9.0909e-002	0.	-2.4415e-003
21395	17.132	0.18182	0.	-9.6702e-004
21396	17.041	0.18182	5.e-002	1.9362e-005
21397	17.041	9.0909e-002	0.	-2.6883e-003
21398	17.315	0.18182	0.	-7.4831e-004
21399	17.224	0.18182	5.e-002	1.5198e-005
21400	17.224	9.0909e-002	0.	-2.9423e-003
21401	17.498	0.18182	0.	-5.4942e-004
21402	17.407	0.18182	5.e-002	2.9791e-005
21403	17.407	9.0909e-002	0.	-3.1937e-003
21404	17.682	0.18182	0.	-3.7445e-004
21405	17.59	0.18182	5.e-002	3.3619e-005
21406	17.59	9.0909e-002	0.	-3.4475e-003
21407	17.865	0.18182	0.	-2.1884e-004
21408	17.773	0.18182	5.e-002	2.6358e-005
21409	17.773	9.0909e-002	0.	-3.7089e-003
21410	18.048	0.18182	0.	-7.4845e-005
21411	17.956	0.18182	5.e-002	3.0708e-005
21412	17.956	9.0909e-002	0.	-3.9674e-003
21413	18.231	0.18182	0.	4.8566e-005
21414	18.139	0.18182	5.e-002	1.9929e-005
21415	18.139	9.0909e-002	0.	-4.2173e-003
21416	18.414	0.18182	0.	1.4157e-004
21417	18.323	0.18182	5.e-002	1.7228e-005
21418	18.323	9.0909e-002	0.	-4.4799e-003
21419	18.597	0.18182	0.	2.1289e-004
21420	18.506	0.18182	5.e-002	2.7055e-005
21421	18.506	9.0909e-002	0.	-4.7513e-003
21422	18.78	0.18182	0.	2.5877e-004
21423	18.689	0.18182	5.e-002	2.5106e-005
21424	18.689	9.0909e-002	0.	-5.018e-003
21425	18.964	0.18182	0.	2.7526e-004
21426	18.872	0.18182	5.e-002	2.583e-005
21427	18.872	9.0909e-002	0.	-5.2912e-003
21428	19.147	0.18182	0.	2.599e-004
21429	19.055	0.18182	5.e-002	1.6308e-006
21430	19.055	9.0909e-002	0.	-5.5626e-003
21431	19.33	0.18182	0.	1.9869e-004
21432	19.238	0.18182	5.e-002	1.8645e-005
21433	19.238	9.0909e-002	0.	-5.8401e-003
21434	19.513	0.18182	0.	9.1956e-005
21435	19.421	0.18182	5.e-002	2.2273e-005
21436	19.421	9.0909e-002	0.	-6.1262e-003
21437	19.696	0.18182	0.	-6.4514e-005
21438	19.605	0.18182	5.e-002	1.9426e-005
21439	19.605	9.0909e-002	0.	-6.4063e-003
21440	19.879	0.18182	0.	-2.8886e-004
21441	19.788	0.18182	5.e-002	1.7777e-005
21442	19.788	9.0909e-002	0.	-6.6829e-003
21443	20.062	0.18182	0.	-5.9162e-004
21444	19.971	0.18182	5.e-002	1.6759e-005
21445	19.971	9.0909e-002	0.	-6.9637e-003
21446	20.246	0.18182	0.	-9.8593e-004
21447	20.154	0.18182	5.e-002	2.9546e-005
21448	20.154	9.0909e-002	0.	-7.2366e-003
21449	20.429	0.18182	0.	-1.4917e-003
21450	20.337	0.18182	5.e-002	2.3969e-005
21451	20.337	9.0909e-002	0.	-7.4963e-003
21452	20.612	0.18182	0.	-2.1366e-003
21453	20.52	0.18182	5.e-002	3.0372e-005
21454	20.52	9.0909e-002	0.	-7.7423e-003
21455	20.795	0.18182	0.	-2.9463e-003
21456	20.703	0.18182	5.e-002	2.7071e-005
21457	20.703	9.0909e-002	0.	-7.9741e-003
21458	20.978	0.18182	0.	-3.9485e-003
21459	20.887	0.18182	5.e-002	1.834e-005
21460	20.887	9.0909e-002	0.	-8.1606e-003
21461	21.161	0.18182	0.	-5.1923e-003
21462	21.07	0.18182	5.e-002	2.1242e-005
21463	21.07	9.0909e-002	0.	-8.2938e-003
21464	21.344	0.18182	0.	-6.7369e-003
21465	21.253	0.18182	5.e-002	1.5247e-005
21466	21.253	9.0909e-002	0.	-8.3651e-003
21467	21.528	0.18182	0.	-8.6467e-003
21468	21.436	0.18182	5.e-002	1.6198e-005
21469	21.436	9.0909e-002	0.	-8.3388e-003
21470	21.711	0.18182	0.	-1.1011e-002
21471	21.619	0.18182	5.e-002	2.1035e-005
21472	21.619	9.0909e-002	0.	-8.1697e-003
21473	21.894	0.18182	0.	-1.3946e-002
21474	21.802	0.18182	5.e-002	1.8822e-005
21475	21.802	9.0909e-002	0.	-7.8155e-003
21476	22.077	0.18182	0.	-1.7601e-002
21477	21.985	0.18182	5.e-002	2.9656e-005
21478	21.985	9.0909e-002	0.	-7.1933e-003
21479	22.26	0.18182	0.	-2.2185e-002
21480	22.169	0.18182	5.e-002	1.7614e-005
21481	22.169	9.0909e-002	0.	-6.1795e-003
21482	22.443	0.18182	0.	-2.7966e-002
21483	22.352	0.18182	5.e-002	1.4427e-005
21484	22.352	9.0909e-002	0.	-4.6249e-003
21485	22.626	0.18182	0.	-3.5368e-002
21486	22.535	0.18182	5.e-002	1.2553e-005
21487	22.535	9.0909e-002	0.	-2.2276e-003
21488	22.81	0.18182	0.	-4.4802e-002
21489	22.718	0.18182	5.e-002	9.4788e-006
21490	22.718	9.0909e-002	0.	1.3601e-003
21491	22.993	0.18182	0.	-5.7625e-002
21492	22.901	0.18182	5.e-002	8.2754e-006
21493	22.901	9.0909e-002	0.	7.241e-003
21494	23.176	0.18182	0.	-7.2895e-002
21495	23.084	0.18182	5.e-002	8.2534e-006
21496	23.084	9.0909e-002	0.	1.5464e-002
21497	23.359	0.18182	0.	-0.10042
21498	23.267	0.18182	5.e-002	5.4234e-006
21499	23.267	9.0909e-002	0.	3.4208e-002
21500	23.542	0.18182	0.	-0.1154
21501	23.451	0.18182	5.e-002	4.4635e-006
21502	23.451	9.0909e-002	0.	4.817e-002
21503	23.725	0.18182	0.	-0.30833
21504	23.634	0.18182	5.e-002	1.2162e-005
21505	23.634	9.0909e-002	0.	0.14262
21506	23.817	0.18182	5.e-002	1.1857e-005
21507	23.817	9.0909e-002	0.	-7.0143e-002
21508	23.908	0.18182	0.	-2.663e-002
21509	23.725	0.18182	0.1	0.30833
21510	23.817	0.27273	0.1	0.38003
21511	23.908	0.18182	0.1	2.6632e-002
21512	23.817	9.0909e-002	0.1	7.0151e-002
21513	23.542	0.18182	0.1	0.1154
21514	23.634	0.27273	0.1	5.4323e-002
21515	23.634	9.0909e-002	0.1	-0.14262
21516	23.359	0.18182	0.1	0.10042
21517	23.451	0.27273	0.1	0.11414
21518	23.451	9.0909e-002	0.1	-4.8172e-002
21519	23.176	0.18182	0.1	7.2895e-002
21520	23.267	0.27273	0.1	8.947e-002
21521	23.267	9.0909e-002	0.1	-3.4208e-002
21522	22.993	0.18182	0.1	5.7625e-002
21523	23.084	0.27273	0.1	8.3936e-002
21524	23.084	9.0909e-002	0.1	-1.5462e-002
21525	22.81	0.18182	0.1	4.4802e-002
21526	22.901	0.27273	0.1	7.358e-002
21527	22.901	9.0909e-002	0.1	-7.2416e-003
21528	22.626	0.18182	0.1	3.5369e-002
21529	22.718	0.27273	0.1	6.5632e-002
21530	22.718	9.0909e-002	0.1	-1.3591e-003
21531	22.443	0.18182	0.1	2.7966e-002
21532	22.535	0.27273	0.1	5.8388e-002
21533	22.535	9.0909e-002	0.1	2.2301e-003
21534	22.26	0.18182	0.1	2.2185e-002
21535	22.352	0.27273	0.1	5.2199e-002
21536	22.352	9.0909e-002	0.1	4.6253e-003
21537	22.077	0.18182	0.1	1.7602e-002
21538	22.169	0.27273	0.1	4.6819e-002
21539	22.169	9.0909e-002	0.1	6.1828e-003
21540	21.894	0.18182	0.1	1.3946e-002
21541	21.985	0.27273	0.1	4.2158e-002
21542	21.985	9.0909e-002	0.1	7.1954e-003
21543	21.711	0.18182	0.1	1.1011e-002
21544	21.802	0.27273	0.1	3.8093e-002
21545	21.802	9.0909e-002	0.1	7.8157e-003
21546	21.528	0.18182	0.1	8.6467e-003
21547	21.619	0.27273	0.1	3.4535e-002
21548	21.619	9.0909e-002	0.1	8.1721e-003
21549	21.344	0.18182	0.1	6.7361e-003
21550	21.436	0.27273	0.1	3.1411e-002
21551	21.436	9.0909e-002	0.1	8.3366e-003
21552	21.161	0.18182	0.1	5.1922e-003
21553	21.253	0.27273	0.1	2.8654e-002
21554	21.253	9.0909e-002	0.1	8.3675e-003
21555	20.978	0.18182	0.1	3.9484e-003
21556	21.07	0.27273	0.1	2.6213e-002
21557	21.07	9.0909e-002	0.1	8.294e-003
21558	20.795	0.18182	0.1	2.9465e-003
21559	20.887	0.27273	0.1	2.4046e-002
21560	20.887	9.0909e-002	0.1	8.1605e-003
21561	20.612	0.18182	0.1	2.1374e-003
21562	20.703	0.27273	0.1	2.211e-002
21563	20.703	9.0909e-002	0.1	7.9751e-003
21564	20.429	0.18182	0.1	1.4918e-003
21565	20.52	0.27273	0.1	2.0369e-002
21566	20.52	9.0909e-002	0.1	7.7432e-003
21567	20.246	0.18182	0.1	9.8605e-004
21568	20.337	0.27273	0.1	1.881e-002
21569	20.337	9.0909e-002	0.1	7.4977e-003
21570	20.062	0.18182	0.1	5.9145e-004
21571	20.154	0.27273	0.1	1.7406e-002
21572	20.154	9.0909e-002	0.1	7.2372e-003
21573	19.879	0.18182	0.1	2.8789e-004
21574	19.971	0.27273	0.1	1.6131e-002
21575	19.971	9.0909e-002	0.1	6.9633e-003
21576	19.696	0.18182	0.1	6.3986e-005
21577	19.788	0.27273	0.1	1.4972e-002
21578	19.788	9.0909e-002	0.1	6.6837e-003
21579	19.513	0.18182	0.1	-9.2039e-005
21580	19.605	0.27273	0.1	1.3918e-002
21581	19.605	9.0909e-002	0.1	6.4074e-003
21582	19.33	0.18182	0.1	-1.9917e-004
21583	19.421	0.27273	0.1	1.2952e-002
21584	19.421	9.0909e-002	0.1	6.1272e-003
21585	19.147	0.18182	0.1	-2.6053e-004
21586	19.238	0.27273	0.1	1.205e-002
21587	19.238	9.0909e-002	0.1	5.8384e-003
21588	18.964	0.18182	0.1	-2.7577e-004
21589	19.055	0.27273	0.1	1.1227e-002
21590	19.055	9.0909e-002	0.1	5.5637e-003
21591	18.78	0.18182	0.1	-2.5843e-004
21592	18.872	0.27273	0.1	1.0464e-002
21593	18.872	9.0909e-002	0.1	5.291e-003
21594	18.597	0.18182	0.1	-2.1213e-004
21595	18.689	0.27273	0.1	9.7445e-003
21596	18.689	9.0909e-002	0.1	5.0191e-003
21597	18.414	0.18182	0.1	-1.4104e-004
21598	18.506	0.27273	0.1	9.0717e-003
21599	18.506	9.0909e-002	0.1	4.7517e-003
21600	18.231	0.18182	0.1	-4.8542e-005
21601	18.323	0.27273	0.1	8.4283e-003
21602	18.323	9.0909e-002	0.1	4.4819e-003
21603	18.048	0.18182	0.1	7.428e-005
21604	18.139	0.27273	0.1	7.8183e-003
21605	18.139	9.0909e-002	0.1	4.218e-003
21606	17.865	0.18182	0.1	2.1818e-004
21607	17.956	0.27273	0.1	7.2492e-003
21608	17.956	9.0909e-002	0.1	3.9685e-003
21609	17.682	0.18182	0.1	3.7348e-004
21610	17.773	0.27273	0.1	6.6855e-003
21611	17.773	9.0909e-002	0.1	3.7085e-003
21612	17.498	0.18182	0.1	5.4887e-004
21613	17.59	0.27273	0.1	6.1353e-003
21614	17.59	9.0909e-002	0.1	3.4479e-003
21615	17.315	0.18182	0.1	7.4855e-004
21616	17.407	0.27273	0.1	5.6025e-003
21617	17.407	9.0909e-002	0.1	3.194e-003
21618	17.132	0.18182	0.1	9.6774e-004
21619	17.224	0.27273	0.1	5.0815e-003
21620	17.224	9.0909e-002	0.1	2.944e-003
21621	16.949	0.18182	0.1	1.2083e-003
21622	17.041	0.27273	0.1	4.5585e-003
21623	17.041	9.0909e-002	0.1	2.6896e-003
21624	16.766	0.18182	0.1	1.4866e-003
21625	16.857	0.27273	0.1	4.043e-003
21626	16.857	9.0909e-002	0.1	2.4428e-003
21627	16.583	0.18182	0.1	1.795e-003
21628	16.674	0.27273	0.1	3.549e-003
21629	16.674	9.0909e-002	0.1	2.2157e-003
21630	16.4	0.18182	0.1	2.1269e-003
21631	16.491	0.27273	0.1	3.0373e-003
21632	16.491	9.0909e-002	0.1	1.977e-003
21633	16.216	0.18182	0.1	2.501e-003
21634	16.308	0.27273	0.1	2.5233e-003
21635	16.308	9.0909e-002	0.1	1.7427e-003
21636	16.033	0.18182	0.1	2.9258e-003
21637	16.125	0.27273	0.1	2.019e-003
21638	16.125	9.0909e-002	0.1	1.5263e-003
21639	15.85	0.18182	0.1	3.4059e-003
21640	15.942	0.27273	0.1	1.5183e-003
21641	15.942	9.0909e-002	0.1	1.3231e-003
21642	15.667	0.18182	0.1	3.9576e-003
21643	15.759	0.27273	0.1	1.0255e-003
21644	15.759	9.0909e-002	0.1	1.1364e-003
21645	15.484	0.18182	0.1	4.5941e-003
21646	15.575	0.27273	0.1	5.5836e-004
21647	15.575	9.0909e-002	0.1	9.8242e-004
21648	15.301	0.18182	0.1	5.3191e-003
21649	15.392	0.27273	0.1	1.1654e-004
21650	15.392	9.0909e-002	0.1	8.5617e-004
21651	15.118	0.18182	0.1	6.1682e-003
21652	15.209	0.27273	0.1	-2.992e-004
21653	15.209	9.0909e-002	0.1	7.4722e-004
21654	14.934	0.18182	0.1	7.1833e-003
21655	15.026	0.27273	0.1	-6.2026e-004
21656	15.026	9.0909e-002	0.1	7.1008e-004
21657	14.751	0.18182	0.1	8.3876e-003
21658	14.843	0.27273	0.1	-8.2389e-004
21659	14.843	9.0909e-002	0.1	7.3804e-004
21660	14.568	0.18182	0.1	9.8268e-003
21661	14.66	0.27273	0.1	-8.6201e-004
21662	14.66	9.0909e-002	0.1	8.3292e-004
21663	14.385	0.18182	0.1	1.1573e-002
21664	14.477	0.27273	0.1	-6.3195e-004
21665	14.477	9.0909e-002	0.1	1.0175e-003
21666	14.202	0.18182	0.1	1.3704e-002
21667	14.293	0.27273	0.1	2.635e-005
21668	14.293	9.0909e-002	0.1	1.3189e-003
21669	14.019	0.18182	0.1	1.6306e-002
21670	14.11	0.27273	0.1	1.3478e-003
21671	14.11	9.0909e-002	0.1	1.7315e-003
21672	13.836	0.18182	0.1	1.9522e-002
21673	13.927	0.27273	0.1	3.7539e-003
21674	13.927	9.0909e-002	0.1	2.249e-003
21675	13.652	0.18182	0.1	2.3529e-002
21676	13.744	0.27273	0.1	8.1368e-003
21677	13.744	9.0909e-002	0.1	2.9132e-003
21678	13.469	0.18182	0.1	2.8496e-002
21679	13.561	0.27273	0.1	1.6267e-002
21680	13.561	9.0909e-002	0.1	3.6793e-003
21681	13.286	0.18182	0.1	3.462e-002
21682	13.378	0.27273	0.1	3.2544e-002
21683	13.378	9.0909e-002	0.1	4.4609e-003
21684	13.103	0.18182	0.1	4.2044e-002
21685	13.195	0.27273	0.1	7.0454e-002
21686	13.195	9.0909e-002	0.1	5.1376e-003
21687	12.92	0.18182	0.1	5.0728e-002
21688	13.011	0.27273	0.1	0.17963
21689	13.011	9.0909e-002	0.1	5.4309e-003
21690	12.737	0.18182	0.1	6.02e-002
21691	12.828	0.27273	0.1	0.45511
21692	12.828	9.0909e-002	0.1	4.9484e-003
21693	12.554	0.18182	0.1	6.9137e-002
21694	12.645	0.27273	0.1	0.79751
21695	12.645	9.0909e-002	0.1	3.1084e-003
21696	12.37	0.18182	0.1	7.5187e-002
21697	12.462	0.27273	0.1	1.0426
21698	12.462	9.0909e-002	0.1	-8.8861e-004
21699	12.187	0.18182	0.1	7.5582e-002
21700	12.279	0.27273	0.1	1.114
21701	12.279	9.0909e-002	0.1	-7.6571e-003
21702	12.004	0.18182	0.1	6.8775e-002
21703	12.096	0.27273	0.1	0.96687
21704	12.096	9.0909e-002	0.1	-1.7236e-002
21705	11.821	0.18182	0.1	5.5993e-002
21706	11.913	0.27273	0.1	0.6067
21707	11.913	9.0909e-002	0.1	-2.8652e-002
21708	11.638	0.18182	0.1	4.0662e-002
21709	11.73	0.27273	0.1	0.24932
21710	11.73	9.0909e-002	0.1	-3.9964e-002
21711	11.455	0.18182	0.1	2.6116e-002
21712	11.546	0.27273	0.1	0.10882
21713	11.546	9.0909e-002	0.1	-4.9056e-002
21714	11.272	0.18182	0.1	1.4049e-002
21715	11.363	0.27273	0.1	6.1643e-002
21716	11.363	9.0909e-002	0.1	-5.4581e-002
21717	11.089	0.18182	0.1	4.6254e-003
21718	11.18	0.27273	0.1	4.2741e-002
21719	11.18	9.0909e-002	0.1	-5.6313e-002
21720	10.905	0.18182	0.1	-2.8467e-003
21721	10.997	0.27273	0.1	3.5361e-002
21722	10.997	9.0909e-002	0.1	-5.4602e-002
21723	10.722	0.18182	0.1	-9.5374e-003
21724	10.814	0.27273	0.1	3.4052e-002
21725	10.814	9.0909e-002	0.1	-5.0052e-002
21726	10.539	0.18182	0.1	-1.6924e-002
21727	10.631	0.27273	0.1	3.65e-002
21728	10.631	9.0909e-002	0.1	-4.3336e-002
21729	10.356	0.18182	0.1	-2.672e-002
21730	10.448	0.27273	0.1	4.1492e-002
21731	10.448	9.0909e-002	0.1	-3.5115e-002
21732	10.173	0.18182	0.1	-4.0764e-002
21733	10.264	0.27273	0.1	4.8278e-002
21734	10.264	9.0909e-002	0.1	-2.6137e-002
21735	9.9897	0.18182	0.1	-6.0574e-002
21736	10.081	0.27273	0.1	5.6478e-002
21737	10.081	9.0909e-002	0.1	-1.7392e-002
21738	9.8065	0.18182	0.1	-8.5992e-002
21739	9.8981	0.27273	0.1	6.6508e-002
21740	9.8981	9.0909e-002	0.1	-1.0289e-002
21741	9.6234	0.18182	0.1	-0.1125
21742	9.7149	0.27273	0.1	8.1098e-002
21743	9.7149	9.0909e-002	0.1	-6.5805e-003
21744	9.4402	0.18182	0.1	-0.12406
21745	9.5318	0.27273	0.1	0.1078
21746	9.5318	9.0909e-002	0.1	-9.097e-003
21747	9.2571	0.18182	0.1	-8.3051e-002
21748	9.3487	0.27273	0.1	0.16874
21749	9.3487	9.0909e-002	0.1	-1.8622e-002
21750	9.0739	0.18182	0.1	0.11185
21751	9.1655	0.27273	0.1	0.30892
21752	9.1655	9.0909e-002	0.1	-4.1734e-002
21753	8.8908	0.18182	0.1	0.63401
21754	8.9824	0.27273	0.1	0.67214
21755	8.9824	9.0909e-002	0.1	-4.1758e-002
21756	8.7077	0.18182	0.1	2.1379
21757	8.7992	0.27273	0.1	1.4457
21758	8.7992	9.0909e-002	0.1	-7.6427e-002
21759	8.5245	0.18182	0.1	5.1097
21760	8.6161	0.27273	0.1	3.677
21761	8.6161	9.0909e-002	0.1	0.50007
21762	8.3414	0.18182	0.1	15.823
21763	8.433	0.27273	0.1	6.3626
21764	8.433	9.0909e-002	0.1	0.86661
21765	8.2498	0.27273	0.1	15.376
21766	8.1582	0.18182	0.1	-0.11843
21767	8.2498	9.0909e-002	0.1	13.152
21768	23.725	0.36364	0.1	0.15973
21769	23.817	0.45455	0.1	0.14688
21770	23.908	0.36364	0.1	-0.17151
21771	23.542	0.36364	0.1	5.0006e-002
21772	23.634	0.45455	0.1	-9.9172e-002
21773	23.359	0.36364	0.1	9.0129e-002
21774	23.451	0.45455	0.1	2.7237e-002
21775	23.176	0.36364	0.1	8.4803e-002
21776	23.267	0.45455	0.1	2.3897e-002
21777	22.993	0.36364	0.1	8.3958e-002
21778	23.084	0.45455	0.1	3.7116e-002
21779	22.81	0.36364	0.1	7.9141e-002
21780	22.901	0.45455	0.1	3.8846e-002
21781	22.626	0.36364	0.1	7.4355e-002
21782	22.718	0.45455	0.1	3.9823e-002
21783	22.443	0.36364	0.1	6.9374e-002
21784	22.535	0.45455	0.1	3.9098e-002
21785	22.26	0.36364	0.1	6.4614e-002
21786	22.352	0.45455	0.1	3.7807e-002
21787	22.077	0.36364	0.1	6.0126e-002
21788	22.169	0.45455	0.1	3.6157e-002
21789	21.894	0.36364	0.1	5.5952e-002
21790	21.985	0.45455	0.1	3.437e-002
21791	21.711	0.36364	0.1	5.2086e-002
21792	21.802	0.45455	0.1	3.2538e-002
21793	21.528	0.36364	0.1	4.8519e-002
21794	21.619	0.45455	0.1	3.0725e-002
21795	21.344	0.36364	0.1	4.5231e-002
21796	21.436	0.45455	0.1	2.8972e-002
21797	21.161	0.36364	0.1	4.22e-002
21798	21.253	0.45455	0.1	2.7295e-002
21799	20.978	0.36364	0.1	3.9405e-002
21800	21.07	0.45455	0.1	2.5701e-002
21801	20.795	0.36364	0.1	3.6822e-002
21802	20.887	0.45455	0.1	2.4197e-002
21803	20.612	0.36364	0.1	3.4429e-002
21804	20.703	0.45455	0.1	2.2779e-002
21805	20.429	0.36364	0.1	3.2211e-002
21806	20.52	0.45455	0.1	2.144e-002
21807	20.246	0.36364	0.1	3.0154e-002
21808	20.337	0.45455	0.1	2.0186e-002
21809	20.062	0.36364	0.1	2.8239e-002
21810	20.154	0.45455	0.1	1.9009e-002
21811	19.879	0.36364	0.1	2.645e-002
21812	19.971	0.45455	0.1	1.7896e-002
21813	19.696	0.36364	0.1	2.4776e-002
21814	19.788	0.45455	0.1	1.685e-002
21815	19.513	0.36364	0.1	2.3206e-002
21816	19.605	0.45455	0.1	1.5865e-002
21817	19.33	0.36364	0.1	2.172e-002
21818	19.421	0.45455	0.1	1.4931e-002
21819	19.147	0.36364	0.1	2.0313e-002
21820	19.238	0.45455	0.1	1.4031e-002
21821	18.964	0.36364	0.1	1.8983e-002
21822	19.055	0.45455	0.1	1.3186e-002
21823	18.78	0.36364	0.1	1.7712e-002
21824	18.872	0.45455	0.1	1.238e-002
21825	18.597	0.36364	0.1	1.6492e-002
21826	18.689	0.45455	0.1	1.16e-002
21827	18.414	0.36364	0.1	1.5312e-002
21828	18.506	0.45455	0.1	1.0849e-002
21829	18.231	0.36364	0.1	1.4166e-002
21830	18.323	0.45455	0.1	1.0112e-002
21831	18.048	0.36364	0.1	1.3058e-002
21832	18.139	0.45455	0.1	9.3963e-003
21833	17.865	0.36364	0.1	1.1969e-002
21834	17.956	0.45455	0.1	8.7093e-003
21835	17.682	0.36364	0.1	1.0884e-002
21836	17.773	0.45455	0.1	8.0151e-003
21837	17.498	0.36364	0.1	9.8075e-003
21838	17.59	0.45455	0.1	7.3212e-003
21839	17.315	0.36364	0.1	8.7338e-003
21840	17.407	0.45455	0.1	6.6343e-003
21841	17.132	0.36364	0.1	7.6498e-003
21842	17.224	0.45455	0.1	5.9427e-003
21843	16.949	0.36364	0.1	6.55e-003
21844	17.041	0.45455	0.1	5.2337e-003
21845	16.766	0.36364	0.1	5.4418e-003
21846	16.857	0.45455	0.1	4.5146e-003
21847	16.583	0.36364	0.1	4.3082e-003
21848	16.674	0.45455	0.1	3.796e-003
21849	16.4	0.36364	0.1	3.1317e-003
21850	16.491	0.45455	0.1	3.0375e-003
21851	16.216	0.36364	0.1	1.9201e-003
21852	16.308	0.45455	0.1	2.2487e-003
21853	16.033	0.36364	0.1	6.694e-004
21854	16.125	0.45455	0.1	1.4343e-003
21855	15.85	0.36364	0.1	-6.2998e-004
21856	15.942	0.45455	0.1	5.8355e-004
21857	15.667	0.36364	0.1	-1.9772e-003
21858	15.759	0.45455	0.1	-3.1055e-004
21859	15.484	0.36364	0.1	-3.3758e-003
21860	15.575	0.45455	0.1	-1.2423e-003
21861	15.301	0.36364	0.1	-4.8415e-003
21862	15.392	0.45455	0.1	-2.2282e-003
21863	15.118	0.36364	0.1	-6.3595e-003
21864	15.209	0.45455	0.1	-3.2932e-003
21865	14.934	0.36364	0.1	-7.9095e-003
21866	15.026	0.45455	0.1	-4.3989e-003
21867	14.751	0.36364	0.1	-9.4887e-003
21868	14.843	0.45455	0.1	-5.5674e-003
21869	14.568	0.36364	0.1	-1.106e-002
21870	14.66	0.45455	0.1	-6.8179e-003
21871	14.385	0.36364	0.1	-1.2525e-002
21872	14.477	0.45455	0.1	-8.1503e-003
21873	14.202	0.36364	0.1	-1.366e-002
21874	14.293	0.45455	0.1	-9.5148e-003
21875	14.019	0.36364	0.1	-1.3668e-002
21876	14.11	0.45455	0.1	0.40297
21877	13.836	0.36364	0.1	-6.3109e-003
21878	13.927	0.45455	0.1	1.4911
21879	13.652	0.36364	0.1	0.38685
21880	13.744	0.45455	0.1	2.5752
21881	13.469	0.36364	0.1	1.2589
21882	13.561	0.45455	0.1	3.6409
21883	13.286	0.36364	0.1	2.0949
21884	13.378	0.45455	0.1	4.6703
21885	13.103	0.36364	0.1	2.8625
21886	13.195	0.45455	0.1	5.6406
21887	12.92	0.36364	0.1	3.5326
21888	13.011	0.45455	0.1	6.5236
21889	12.737	0.36364	0.1	4.0712
21890	12.828	0.45455	0.1	7.2845
21891	12.554	0.36364	0.1	4.4371
21892	12.645	0.45455	0.1	7.8815
21893	12.37	0.36364	0.1	4.5817
21894	12.462	0.45455	0.1	8.2639
21895	12.187	0.36364	0.1	4.4483
21896	12.279	0.45455	0.1	8.3721
21897	12.004	0.36364	0.1	3.9717
21898	12.096	0.45455	0.1	8.1361
21899	11.821	0.36364	0.1	3.083
21900	11.913	0.45455	0.1	7.4757
21901	11.638	0.36364	0.1	1.7395
21902	11.73	0.45455	0.1	6.3021
21903	11.455	0.36364	0.1	0.40142
21904	11.546	0.45455	0.1	4.5272
21905	11.272	0.36364	0.1	0.1328
21906	11.363	0.45455	0.1	2.1483
21907	11.089	0.36364	0.1	9.1741e-002
21908	11.18	0.45455	0.1	0.41921
21909	10.905	0.36364	0.1	8.5885e-002
21910	10.997	0.45455	0.1	0.18402
21911	10.722	0.36364	0.1	9.3499e-002
21912	10.814	0.45455	0.1	0.13967
21913	10.539	0.36364	0.1	0.10956
21914	10.631	0.45455	0.1	0.13233
21915	10.356	0.36364	0.1	0.13266
21916	10.448	0.45455	0.1	0.14126
21917	10.173	0.36364	0.1	0.16264
21918	10.264	0.45455	0.1	0.16186
21919	9.9897	0.36364	0.1	0.20009
21920	10.081	0.45455	0.1	0.19395
21921	9.8065	0.36364	0.1	0.2469
21922	9.8981	0.45455	0.1	0.23972
21923	9.6234	0.36364	0.1	0.30742
21924	9.7149	0.45455	0.1	0.30426
21925	9.4402	0.36364	0.1	0.39323
21926	9.5318	0.45455	0.1	0.39677
21927	9.2571	0.36364	0.1	0.52979
21928	9.3487	0.45455	0.1	0.53792
21929	9.0739	0.36364	0.1	0.79399
21930	9.1655	0.45455	0.1	0.76159
21931	8.8908	0.36364	0.1	1.3146
21932	8.9824	0.45455	0.1	1.176
21933	8.7077	0.36364	0.1	2.6222
21934	8.7992	0.45455	0.1	1.8408
21935	8.5245	0.36364	0.1	4.4685
21936	8.6161	0.45455	0.1	3.3694
21937	8.3414	0.36364	0.1	8.972
21938	8.433	0.45455	0.1	3.6121
21939	8.2498	0.45455	0.1	9.0187
21940	8.1582	0.36364	0.1	-3.0618
21941	23.725	0.54545	0.1	-5.0254e-002
21942	23.817	0.63636	0.1	-1.5591e-003
21943	23.908	0.54545	0.1	-0.36559
21944	23.542	0.54545	0.1	-0.10179
21945	23.634	0.63636	0.1	-0.20379
21946	23.359	0.54545	0.1	-2.8428e-002
21947	23.451	0.63636	0.1	-4.9539e-002
21948	23.176	0.54545	0.1	-1.7214e-002
21949	23.267	0.63636	0.1	-4.266e-002
21950	22.993	0.54545	0.1	-3.5672e-003
21951	23.084	0.63636	0.1	-1.9659e-002
21952	22.81	0.54545	0.1	2.6391e-003
21953	22.901	0.63636	0.1	-1.0708e-002
21954	22.626	0.54545	0.1	6.8108e-003
21955	22.718	0.63636	0.1	-3.7348e-003
21956	22.443	0.54545	0.1	9.1785e-003
21957	22.535	0.63636	0.1	4.5831e-004
21958	22.26	0.54545	0.1	1.057e-002
21959	22.352	0.63636	0.1	3.2881e-003
21960	22.077	0.54545	0.1	1.1307e-002
21961	22.169	0.63636	0.1	5.1253e-003
21962	21.894	0.54545	0.1	1.1627e-002
21963	21.985	0.63636	0.1	6.325e-003
21964	21.711	0.54545	0.1	1.1668e-002
21965	21.802	0.63636	0.1	7.0728e-003
21966	21.528	0.54545	0.1	1.1532e-002
21967	21.619	0.63636	0.1	7.5144e-003
21968	21.344	0.54545	0.1	1.1281e-002
21969	21.436	0.63636	0.1	7.7412e-003
21970	21.161	0.54545	0.1	1.0956e-002
21971	21.253	0.63636	0.1	7.8186e-003
21972	20.978	0.54545	0.1	1.0587e-002
21973	21.07	0.63636	0.1	7.7887e-003
21974	20.795	0.54545	0.1	1.0194e-002
21975	20.887	0.63636	0.1	7.6872e-003
21976	20.612	0.54545	0.1	9.7869e-003
21977	20.703	0.63636	0.1	7.5324e-003
21978	20.429	0.54545	0.1	9.3779e-003
21979	20.52	0.63636	0.1	7.3361e-003
21980	20.246	0.54545	0.1	8.9767e-003
21981	20.337	0.63636	0.1	7.1238e-003
21982	20.062	0.54545	0.1	8.5808e-003
21983	20.154	0.63636	0.1	6.899e-003
21984	19.879	0.54545	0.1	8.1939e-003
21985	19.971	0.63636	0.1	6.6589e-003
21986	19.696	0.54545	0.1	7.8229e-003
21987	19.788	0.63636	0.1	6.4182e-003
21988	19.513	0.54545	0.1	7.4637e-003
21989	19.605	0.63636	0.1	6.1786e-003
21990	19.33	0.54545	0.1	7.1084e-003
21991	19.421	0.63636	0.1	5.937e-003
21992	19.147	0.54545	0.1	6.7652e-003
21993	19.238	0.63636	0.1	5.6856e-003
21994	18.964	0.54545	0.1	6.4396e-003
21995	19.055	0.63636	0.1	5.4487e-003
21996	18.78	0.54545	0.1	6.1211e-003
21997	18.872	0.63636	0.1	5.2172e-003
21998	18.597	0.54545	0.1	5.8094e-003
21999	18.689	0.63636	0.1	4.983e-003
22000	18.414	0.54545	0.1	5.5013e-003
22001	18.506	0.63636	0.1	4.7524e-003
22002	18.231	0.54545	0.1	5.1965e-003
22003	18.323	0.63636	0.1	4.5162e-003
22004	18.048	0.54545	0.1	4.905e-003
22005	18.139	0.63636	0.1	4.2857e-003
22006	17.865	0.54545	0.1	4.6161e-003
22007	17.956	0.63636	0.1	4.069e-003
22008	17.682	0.54545	0.1	4.3181e-003
22009	17.773	0.63636	0.1	3.8388e-003
22010	17.498	0.54545	0.1	4.0209e-003
22011	17.59	0.63636	0.1	3.6034e-003
22012	17.315	0.54545	0.1	3.7245e-003
22013	17.407	0.63636	0.1	3.3737e-003
22014	17.132	0.54545	0.1	3.4183e-003
22015	17.224	0.63636	0.1	3.1395e-003
22016	16.949	0.54545	0.1	3.1031e-003
22017	17.041	0.63636	0.1	2.8954e-003
22018	16.766	0.54545	0.1	2.79e-003
22019	16.857	0.63636	0.1	2.6513e-003
22020	16.583	0.54545	0.1	2.4671e-003
22021	16.674	0.63636	0.1	2.4197e-003
22022	16.4	0.54545	0.1	2.1227e-003
22023	16.491	0.63636	0.1	2.1702e-003
22024	16.216	0.54545	0.1	1.7649e-003
22025	16.308	0.63636	0.1	1.916e-003
22026	16.033	0.54545	0.1	1.3943e-003
22027	16.125	0.63636	0.1	1.672e-003
22028	15.85	0.54545	0.1	1.0068e-003
22029	15.942	0.63636	0.1	1.4392e-003
22030	15.667	0.54545	0.1	6.0677e-004
22031	15.759	0.63636	0.1	1.2323e-003
22032	15.484	0.54545	0.1	1.9724e-004
22033	15.575	0.63636	0.1	1.0976e-003
22034	15.301	0.54545	0.1	-2.2876e-004
22035	15.392	0.63636	0.1	1.1018e-003
22036	15.118	0.54545	0.1	-6.3404e-004
22037	15.209	0.63636	0.1	1.4558e-003
22038	14.934	0.54545	0.1	-9.2428e-004
22039	15.026	0.63636	0.1	3.1548e-003
22040	14.751	0.54545	0.1	-7.64e-004
22041	14.843	0.63636	0.1	1.9832e-002
22042	14.568	0.54545	0.1	5.5577e-003
22043	14.66	0.63636	0.1	0.9452
22044	14.385	0.54545	0.1	0.8928
22045	14.477	0.63636	0.1	2.2695
22046	14.202	0.54545	0.1	2.1126
22047	14.293	0.63636	0.1	3.6329
22048	14.019	0.54545	0.1	3.3497
22049	14.11	0.63636	0.1	5.0262
22050	13.836	0.54545	0.1	4.5929
22051	13.927	0.63636	0.1	6.4402
22052	13.652	0.54545	0.1	5.8283
22053	13.744	0.63636	0.1	7.8631
22054	13.469	0.54545	0.1	7.038
22055	13.561	0.63636	0.1	9.2787
22056	13.286	0.54545	0.1	8.1996
22057	13.378	0.63636	0.1	10.667
22058	13.103	0.54545	0.1	9.2846
22059	13.195	0.63636	0.1	12.001
22060	12.92	0.54545	0.1	10.258
22061	13.011	0.63636	0.1	13.249
22062	12.737	0.54545	0.1	11.078
22063	12.828	0.63636	0.1	14.371
22064	12.554	0.54545	0.1	11.691
22065	12.645	0.63636	0.1	15.317
22066	12.37	0.54545	0.1	12.038
22067	12.462	0.63636	0.1	16.03
22068	12.187	0.54545	0.1	12.045
22069	12.279	0.63636	0.1	16.439
22070	12.004	0.54545	0.1	11.628
22071	12.096	0.63636	0.1	16.462
22072	11.821	0.54545	0.1	10.692
22073	11.913	0.63636	0.1	16.005
22074	11.638	0.54545	0.1	9.1322
22075	11.73	0.63636	0.1	14.96
22076	11.455	0.54545	0.1	6.8429
22077	11.546	0.63636	0.1	13.209
22078	11.272	0.54545	0.1	3.7847
22079	11.363	0.63636	0.1	10.632
22080	11.089	0.54545	0.1	0.91171
22081	11.18	0.63636	0.1	7.1367
22082	10.905	0.54545	0.1	0.31863
22083	10.997	0.63636	0.1	2.9666
22084	10.722	0.54545	0.1	0.21861
22085	10.814	0.63636	0.1	0.75713
22086	10.539	0.54545	0.1	0.19293
22087	10.631	0.63636	0.1	0.42289
22088	10.356	0.54545	0.1	0.19515
22089	10.448	0.63636	0.1	0.34657
22090	10.173	0.54545	0.1	0.21598
22091	10.264	0.63636	0.1	0.337
22092	9.9897	0.54545	0.1	0.25508
22093	10.081	0.63636	0.1	0.36234
22094	9.8065	0.54545	0.1	0.31672
22095	9.8981	0.63636	0.1	0.41696
22096	9.6234	0.54545	0.1	0.4095
22097	9.7149	0.63636	0.1	0.50443
22098	9.4402	0.54545	0.1	0.54959
22099	9.5318	0.63636	0.1	0.63392
22100	9.2571	0.54545	0.1	0.76253
22101	9.3487	0.63636	0.1	0.82361
22102	9.0739	0.54545	0.1	1.1089
22103	9.1655	0.63636	0.1	1.0928
22104	8.8908	0.54545	0.1	1.6344
22105	8.9824	0.63636	0.1	1.5037
22106	8.7077	0.54545	0.1	2.5866
22107	8.7992	0.63636	0.1	1.9822
22108	8.5245	0.54545	0.1	3.1368
22109	8.6161	0.63636	0.1	2.9389
22110	8.3414	0.54545	0.1	6.0146
22111	8.433	0.63636	0.1	2.0838
22112	8.2498	0.63636	0.1	7.5921
22113	8.1582	0.54545	0.1	-1.9634
22114	23.725	0.72727	0.1	-9.2831e-002
22115	23.817	0.81818	0.1	-5.3519e-002
22116	23.908	0.72727	0.1	-0.37852
22117	23.542	0.72727	0.1	-0.13478
22118	23.634	0.81818	0.1	-0.23843
22119	23.359	0.72727	0.1	-5.5704e-002
22120	23.451	0.81818	0.1	-7.692e-002
22121	23.176	0.72727	0.1	-4.008e-002
22122	23.267	0.81818	0.1	-6.6082e-002
22123	22.993	0.72727	0.1	-2.3263e-002
22124	23.084	0.81818	0.1	-4.0209e-002
22125	22.81	0.72727	0.1	-1.4429e-002
22126	22.901	0.81818	0.1	-2.8952e-002
22127	22.626	0.72727	0.1	-8.0221e-003
22128	22.718	0.81818	0.1	-1.996e-002
22129	22.443	0.72727	0.1	-3.7832e-003
22130	22.535	0.81818	0.1	-1.4037e-002
22131	22.26	0.72727	0.1	-8.1613e-004
22132	22.352	0.81818	0.1	-9.7072e-003
22133	22.077	0.72727	0.1	1.2463e-003
22134	22.169	0.81818	0.1	-6.5778e-003
22135	21.894	0.72727	0.1	2.6883e-003
22136	21.985	0.81818	0.1	-4.2578e-003
22137	21.711	0.72727	0.1	3.6879e-003
22138	21.802	0.81818	0.1	-2.5363e-003
22139	21.528	0.72727	0.1	4.3721e-003
22140	21.619	0.81818	0.1	-1.2402e-003
22141	21.344	0.72727	0.1	4.8277e-003
22142	21.436	0.81818	0.1	-2.664e-004
22143	21.161	0.72727	0.1	5.1173e-003
22144	21.253	0.81818	0.1	4.739e-004
22145	20.978	0.72727	0.1	5.2851e-003
22146	21.07	0.81818	0.1	1.0299e-003
22147	20.795	0.72727	0.1	5.363e-003
22148	20.887	0.81818	0.1	1.4517e-003
22149	20.612	0.72727	0.1	5.3686e-003
22150	20.703	0.81818	0.1	1.7668e-003
22151	20.429	0.72727	0.1	5.3258e-003
22152	20.52	0.81818	0.1	1.9899e-003
22153	20.246	0.72727	0.1	5.2525e-003
22154	20.337	0.81818	0.1	2.1593e-003
22155	20.062	0.72727	0.1	5.1509e-003
22156	20.154	0.81818	0.1	2.2802e-003
22157	19.879	0.72727	0.1	5.0286e-003
22158	19.971	0.81818	0.1	2.3592e-003
22159	19.696	0.72727	0.1	4.8944e-003
22160	19.788	0.81818	0.1	2.4067e-003
22161	19.513	0.72727	0.1	4.7503e-003
22162	19.605	0.81818	0.1	2.4344e-003
22163	19.33	0.72727	0.1	4.5931e-003
22164	19.421	0.81818	0.1	2.4401e-003
22165	19.147	0.72727	0.1	4.4306e-003
22166	19.238	0.81818	0.1	2.4188e-003
22167	18.964	0.72727	0.1	4.2721e-003
22168	19.055	0.81818	0.1	2.3943e-003
22169	18.78	0.72727	0.1	4.1108e-003
22170	18.872	0.81818	0.1	2.3653e-003
22171	18.597	0.72727	0.1	3.9451e-003
22172	18.689	0.81818	0.1	2.3229e-003
22173	18.414	0.72727	0.1	3.7749e-003
22174	18.506	0.81818	0.1	2.2749e-003
22175	18.231	0.72727	0.1	3.6026e-003
22176	18.323	0.81818	0.1	2.2148e-003
22177	18.048	0.72727	0.1	3.4376e-003
22178	18.139	0.81818	0.1	2.1552e-003
22179	17.865	0.72727	0.1	3.2712e-003
22180	17.956	0.81818	0.1	2.106e-003
22181	17.682	0.72727	0.1	3.0961e-003
22182	17.773	0.81818	0.1	2.0422e-003
22183	17.498	0.72727	0.1	2.922e-003
22184	17.59	0.81818	0.1	1.9745e-003
22185	17.315	0.72727	0.1	2.7496e-003
22186	17.407	0.81818	0.1	1.9156e-003
22187	17.132	0.72727	0.1	2.5741e-003
22188	17.224	0.81818	0.1	1.8601e-003
22189	16.949	0.72727	0.1	2.4001e-003
22190	17.041	0.81818	0.1	1.8072e-003
22191	16.766	0.72727	0.1	2.2399e-003
22192	16.857	0.81818	0.1	1.7727e-003
22193	16.583	0.72727	0.1	2.0889e-003
22194	16.674	0.81818	0.1	1.7763e-003
22195	16.4	0.72727	0.1	1.9448e-003
22196	16.491	0.81818	0.1	1.8021e-003
22197	16.216	0.72727	0.1	1.8328e-003
22198	16.308	0.81818	0.1	1.8858e-003
22199	16.033	0.72727	0.1	1.7784e-003
22200	16.125	0.81818	0.1	2.0871e-003
22201	15.85	0.72727	0.1	1.8232e-003
22202	15.942	0.81818	0.1	2.4895e-003
22203	15.667	0.72727	0.1	2.0775e-003
22204	15.759	0.81818	0.1	3.3156e-003
22205	15.484	0.72727	0.1	2.8117e-003
22206	15.575	0.81818	0.1	5.2469e-003
22207	15.301	0.72727	0.1	4.9973e-003
22208	15.392	0.81818	0.1	1.1602e-002
22209	15.118	0.72727	0.1	1.6705e-002
22210	15.209	0.81818	0.1	0.14222
22211	14.934	0.72727	0.1	0.6555
22212	15.026	0.81818	0.1	1.4736
22213	14.751	0.72727	0.1	2.0438
22214	14.843	0.81818	0.1	2.9762
22215	14.568	0.72727	0.1	3.4922
22216	14.66	0.81818	0.1	4.5416
22217	14.385	0.72727	0.1	4.9878
22218	14.477	0.81818	0.1	6.1656
22219	14.202	0.72727	0.1	6.5249
22220	14.293	0.81818	0.1	7.8448
22221	14.019	0.72727	0.1	8.0957
22222	14.11	0.81818	0.1	9.5736
22223	13.836	0.72727	0.1	9.69
22224	13.927	0.81818	0.1	11.344
22225	13.652	0.72727	0.1	11.294
22226	13.744	0.81818	0.1	13.146
22227	13.469	0.72727	0.1	12.888
22228	13.561	0.81818	0.1	14.962
22229	13.286	0.72727	0.1	14.449
22230	13.378	0.81818	0.1	16.773
22231	13.103	0.72727	0.1	15.946
22232	13.195	0.81818	0.1	18.554
22233	12.92	0.72727	0.1	17.343
22234	13.011	0.81818	0.1	20.27
22235	12.737	0.72727	0.1	18.592
22236	12.828	0.81818	0.1	21.881
22237	12.554	0.72727	0.1	19.637
22238	12.645	0.81818	0.1	23.337
22239	12.37	0.72727	0.1	20.412
22240	12.462	0.81818	0.1	24.577
22241	12.187	0.72727	0.1	20.837
22242	12.279	0.81818	0.1	25.528
22243	12.004	0.72727	0.1	20.819
22244	12.096	0.81818	0.1	26.104
22245	11.821	0.72727	0.1	20.253
22246	11.913	0.81818	0.1	26.207
22247	11.638	0.72727	0.1	19.02
22248	11.73	0.81818	0.1	25.722
22249	11.455	0.72727	0.1	16.991
22250	11.546	0.81818	0.1	24.523
22251	11.272	0.72727	0.1	14.033
22252	11.363	0.81818	0.1	22.472
22253	11.089	0.72727	0.1	10.043
22254	11.18	0.81818	0.1	19.425
22255	10.905	0.72727	0.1	5.1514
22256	10.997	0.81818	0.1	15.252
22257	10.722	0.72727	0.1	1.4919
22258	10.814	0.81818	0.1	9.9264
22259	10.539	0.72727	0.1	0.72894
22260	10.631	0.81818	0.1	4.2146
22261	10.356	0.72727	0.1	0.56839
22262	10.448	0.81818	0.1	1.5363
22263	10.173	0.72727	0.1	0.53858
22264	10.264	0.81818	0.1	0.99589
22265	9.9897	0.72727	0.1	0.56736
22266	10.081	0.81818	0.1	0.86408
22267	9.8065	0.72727	0.1	0.63956
22268	9.8981	0.81818	0.1	0.86099
22269	9.6234	0.72727	0.1	0.75558
22270	9.7149	0.81818	0.1	0.9295
22271	9.4402	0.72727	0.1	0.92421
22272	9.5318	0.81818	0.1	1.0559
22273	9.2571	0.72727	0.1	1.1564
22274	9.3487	0.81818	0.1	1.2422
22275	9.0739	0.72727	0.1	1.4772
22276	9.1655	0.81818	0.1	1.4845
22277	8.8908	0.72727	0.1	1.8529
22278	8.9824	0.81818	0.1	1.8128
22279	8.7077	0.72727	0.1	2.4386
22280	8.7992	0.81818	0.1	2.0831
22281	8.5245	0.72727	0.1	2.2534
22282	8.6161	0.81818	0.1	2.7372
22283	8.3414	0.72727	0.1	4.7469
22284	8.433	0.81818	0.1	1.3134
22285	8.2498	0.81818	0.1	7.2169
22286	8.1582	0.72727	0.1	-1.9345
22287	23.725	0.90909	0.1	-0.13377
22288	23.817	1.	0.1	-9.5482e-002
22289	23.908	0.90909	0.1	-0.40202
22290	23.542	0.90909	0.1	-0.16493
22291	23.634	1.	0.1	-0.26537
22292	23.359	0.90909	0.1	-8.0578e-002
22293	23.451	1.	0.1	-9.7332e-002
22294	23.176	0.90909	0.1	-6.2332e-002
22295	23.267	1.	0.1	-8.4378e-002
22296	22.993	0.90909	0.1	-4.3266e-002
22297	23.084	1.	0.1	-5.6661e-002
22298	22.81	0.90909	0.1	-3.253e-002
22299	22.901	1.	0.1	-4.3963e-002
22300	22.626	0.90909	0.1	-2.4449e-002
22301	22.718	1.	0.1	-3.3698e-002
22302	22.443	0.90909	0.1	-1.873e-002
22303	22.535	1.	0.1	-2.6637e-002
22304	22.26	0.90909	0.1	-1.4453e-002
22305	22.352	1.	0.1	-2.1284e-002
22306	22.077	0.90909	0.1	-1.123e-002
22307	22.169	1.	0.1	-1.7236e-002
22308	21.894	0.90909	0.1	-8.7605e-003
22309	21.985	1.	0.1	-1.4089e-002
22310	21.711	0.90909	0.1	-6.8471e-003
22311	21.802	1.	0.1	-1.1626e-002
22312	21.528	0.90909	0.1	-5.3474e-003
22313	21.619	1.	0.1	-9.6652e-003
22314	21.344	0.90909	0.1	-4.1605e-003
22315	21.436	1.	0.1	-8.089e-003
22316	21.161	0.90909	0.1	-3.2143e-003
22317	21.253	1.	0.1	-6.8067e-003
22318	20.978	0.90909	0.1	-2.456e-003
22319	21.07	1.	0.1	-5.7593e-003
22320	20.795	0.90909	0.1	-1.8414e-003
22321	20.887	1.	0.1	-4.8906e-003
22322	20.612	0.90909	0.1	-1.3474e-003
22323	20.703	1.	0.1	-4.1669e-003
22324	20.429	0.90909	0.1	-9.4583e-004
22325	20.52	1.	0.1	-3.5692e-003
22326	20.246	0.90909	0.1	-6.1188e-004
22327	20.337	1.	0.1	-3.058e-003
22328	20.062	0.90909	0.1	-3.367e-004
22329	20.154	1.	0.1	-2.6205e-003
22330	19.879	0.90909	0.1	-1.1125e-004
22331	19.971	1.	0.1	-2.2493e-003
22332	19.696	0.90909	0.1	7.7274e-005
22333	19.788	1.	0.1	-1.93e-003
22334	19.513	0.90909	0.1	2.3577e-004
22335	19.605	1.	0.1	-1.6498e-003
22336	19.33	0.90909	0.1	3.6033e-004
22337	19.421	1.	0.1	-1.4062e-003
22338	19.147	0.90909	0.1	4.6132e-004
22339	19.238	1.	0.1	-1.2041e-003
22340	18.964	0.90909	0.1	5.5192e-004
22341	19.055	1.	0.1	-1.0171e-003
22342	18.78	0.90909	0.1	6.2848e-004
22343	18.872	1.	0.1	-8.4628e-004
22344	18.597	0.90909	0.1	6.914e-004
22345	18.689	1.	0.1	-6.9761e-004
22346	18.414	0.90909	0.1	7.4191e-004
22347	18.506	1.	0.1	-5.5953e-004
22348	18.231	0.90909	0.1	7.8359e-004
22349	18.323	1.	0.1	-4.3938e-004
22350	18.048	0.90909	0.1	8.2947e-004
22351	18.139	1.	0.1	-3.2257e-004
22352	17.865	0.90909	0.1	8.7295e-004
22353	17.956	1.	0.1	-1.9572e-004
22354	17.682	0.90909	0.1	9.0711e-004
22355	17.773	1.	0.1	-8.337e-005
22356	17.498	0.90909	0.1	9.457e-004
22357	17.59	1.	0.1	2.8557e-005
22358	17.315	0.90909	0.1	9.9543e-004
22359	17.407	1.	0.1	1.5605e-004
22360	17.132	0.90909	0.1	1.0551e-003
22361	17.224	1.	0.1	3.0145e-004
22362	16.949	0.90909	0.1	1.1359e-003
22363	17.041	1.	0.1	4.6715e-004
22364	16.766	0.90909	0.1	1.2625e-003
22365	16.857	1.	0.1	6.8339e-004
22366	16.583	0.90909	0.1	1.4454e-003
22367	16.674	1.	0.1	9.8792e-004
22368	16.4	0.90909	0.1	1.7124e-003
22369	16.491	1.	0.1	1.3966e-003
22370	16.216	0.90909	0.1	2.1468e-003
22371	16.308	1.	0.1	2.0169e-003
22372	16.033	0.90909	0.1	2.9019e-003
22373	16.125	1.	0.1	3.0702e-003
22374	15.85	0.90909	0.1	4.3611e-003
22375	15.942	1.	0.1	5.121e-003
22376	15.667	0.90909	0.1	7.8934e-003
22377	15.759	1.	0.1	1.0477e-002
22378	15.484	0.90909	0.1	2.3755e-002
22379	15.575	1.	0.1	4.7465e-002
22380	15.301	0.90909	0.1	0.65934
22381	15.392	1.	0.1	1.1101
22382	15.118	0.90909	0.1	2.1767
22383	15.209	1.	0.1	2.7191
22384	14.934	0.90909	0.1	3.7795
22385	15.026	1.	0.1	4.4113
22386	14.751	0.90909	0.1	5.4522
22387	14.843	1.	0.1	6.1818
22388	14.568	0.90909	0.1	7.1933
22389	14.66	1.	0.1	8.0313
22390	14.385	0.90909	0.1	9.0014
22391	14.477	1.	0.1	9.9604
22392	14.202	0.90909	0.1	10.873
22393	14.293	1.	0.1	11.968
22394	14.019	0.90909	0.1	12.802
22395	14.11	1.	0.1	14.051
22396	13.836	0.90909	0.1	14.78
22397	13.927	1.	0.1	16.204
22398	13.652	0.90909	0.1	16.795
22399	13.744	1.	0.1	18.418
22400	13.469	0.90909	0.1	18.829
22401	13.561	1.	0.1	20.68
22402	13.286	0.90909	0.1	20.86
22403	13.378	1.	0.1	22.973
22404	13.103	0.90909	0.1	22.86
22405	13.195	1.	0.1	25.274
22406	12.92	0.90909	0.1	24.791
22407	13.011	1.	0.1	27.552
22408	12.737	0.90909	0.1	26.609
22409	12.828	1.	0.1	29.77
22410	12.554	0.90909	0.1	28.259
22411	12.645	1.	0.1	31.882
22412	12.37	0.90909	0.1	29.674
22413	12.462	1.	0.1	33.829
22414	12.187	0.90909	0.1	30.776
22415	12.279	1.	0.1	35.543
22416	12.004	0.90909	0.1	31.472
22417	12.096	1.	0.1	36.941
22418	11.821	0.90909	0.1	31.656
22419	11.913	1.	0.1	37.929
22420	11.638	0.90909	0.1	31.206
22421	11.73	1.	0.1	38.395
22422	11.455	0.90909	0.1	29.987
22423	11.546	1.	0.1	38.214
22424	11.272	0.90909	0.1	27.853
22425	11.363	1.	0.1	37.246
22426	11.089	0.90909	0.1	24.653
22427	11.18	1.	0.1	35.337
22428	10.905	0.90909	0.1	20.243
22429	10.997	1.	0.1	32.324
22430	10.722	0.90909	0.1	14.551
22431	10.814	1.	0.1	28.041
22432	10.539	0.90909	0.1	7.9267
22433	10.631	1.	0.1	22.348
22434	10.356	0.90909	0.1	3.0416
22435	10.448	1.	0.1	15.252
22436	10.173	0.90909	0.1	1.674
22437	10.264	1.	0.1	7.7054
22438	9.9897	0.90909	0.1	1.3324
22439	10.081	1.	0.1	3.3955
22440	9.8065	0.90909	0.1	1.2568
22441	9.8981	1.	0.1	2.2084
22442	9.6234	0.90909	0.1	1.2971
22443	9.7149	1.	0.1	1.8612
22444	9.4402	0.90909	0.1	1.4132
22445	9.5318	1.	0.1	1.7774
22446	9.2571	0.90909	0.1	1.5879
22447	9.3487	1.	0.1	1.8195
22448	9.0739	0.90909	0.1	1.8269
22449	9.1655	1.	0.1	1.9347
22450	8.8908	0.90909	0.1	2.0639
22451	8.9824	1.	0.1	2.1455
22452	8.7077	0.90909	0.1	2.4551
22453	8.7992	1.	0.1	2.2591
22454	8.5245	0.90909	0.1	1.9673
22455	8.6161	1.	0.1	2.9202
22456	8.3414	0.90909	0.1	4.4505
22457	8.433	1.	0.1	0.96946
22458	8.2498	1.	0.1	8.1851
22459	8.1582	0.90909	0.1	-2.2549
22460	23.725	1.0909	0.1	-0.15814
22461	23.817	1.1818	0.1	-0.12441
22462	23.908	1.0909	0.1	-0.41242
22463	23.542	1.0909	0.1	-0.18227
22464	23.634	1.1818	0.1	-0.28279
22465	23.359	1.0909	0.1	-9.4931e-002
22466	23.451	1.1818	0.1	-0.11037
22467	23.176	1.0909	0.1	-7.5373e-002
22468	23.267	1.1818	0.1	-9.613e-002
22469	22.993	1.0909	0.1	-5.5209e-002
22470	23.084	1.1818	0.1	-6.7339e-002
22471	22.81	1.0909	0.1	-4.3586e-002
22472	22.901	1.1818	0.1	-5.3881e-002
22473	22.626	1.0909	0.1	-3.4699e-002
22474	22.718	1.1818	0.1	-4.2944e-002
22475	22.443	1.0909	0.1	-2.8238e-002
22476	22.535	1.1818	0.1	-3.5276e-002
22477	22.26	1.0909	0.1	-2.3279e-002
22478	22.352	1.1818	0.1	-2.9358e-002
22479	22.077	1.0909	0.1	-1.943e-002
22480	22.169	1.1818	0.1	-2.4785e-002
22481	21.894	1.0909	0.1	-1.6386e-002
22482	21.985	1.1818	0.1	-2.1152e-002
22483	21.711	1.0909	0.1	-1.3953e-002
22484	21.802	1.1818	0.1	-1.824e-002
22485	21.528	1.0909	0.1	-1.1979e-002
22486	21.619	1.1818	0.1	-1.5869e-002
22487	21.344	1.0909	0.1	-1.036e-002
22488	21.436	1.1818	0.1	-1.3913e-002
22489	21.161	1.0909	0.1	-9.0211e-003
22490	21.253	1.1818	0.1	-1.2285e-002
22491	20.978	1.0909	0.1	-7.9017e-003
22492	21.07	1.1818	0.1	-1.0917e-002
22493	20.795	1.0909	0.1	-6.9573e-003
22494	20.887	1.1818	0.1	-9.7535e-003
22495	20.612	1.0909	0.1	-6.1592e-003
22496	20.703	1.1818	0.1	-8.7574e-003
22497	20.429	1.0909	0.1	-5.4776e-003
22498	20.52	1.1818	0.1	-7.9083e-003
22499	20.246	1.0909	0.1	-4.8858e-003
22500	20.337	1.1818	0.1	-7.1635e-003
22501	20.062	1.0909	0.1	-4.3728e-003
22502	20.154	1.1818	0.1	-6.5096e-003
22503	19.879	1.0909	0.1	-3.9263e-003
22504	19.971	1.1818	0.1	-5.9376e-003
22505	19.696	1.0909	0.1	-3.5322e-003
22506	19.788	1.1818	0.1	-5.4301e-003
22507	19.513	1.0909	0.1	-3.1822e-003
22508	19.605	1.1818	0.1	-4.9741e-003
22509	19.33	1.0909	0.1	-2.8752e-003
22510	19.421	1.1818	0.1	-4.5655e-003
22511	19.147	1.0909	0.1	-2.6003e-003
22512	19.238	1.1818	0.1	-4.2051e-003
22513	18.964	1.0909	0.1	-2.3455e-003
22514	19.055	1.1818	0.1	-3.8683e-003
22515	18.78	1.0909	0.1	-2.1142e-003
22516	18.872	1.1818	0.1	-3.5547e-003
22517	18.597	1.0909	0.1	-1.9015e-003
22518	18.689	1.1818	0.1	-3.2707e-003
22519	18.414	1.0909	0.1	-1.7045e-003
22520	18.506	1.1818	0.1	-3.e-003
22521	18.231	1.0909	0.1	-1.5197e-003
22522	18.323	1.1818	0.1	-2.7506e-003
22523	18.048	1.0909	0.1	-1.3322e-003
22524	18.139	1.1818	0.1	-2.5069e-003
22525	17.865	1.0909	0.1	-1.1469e-003
22526	17.956	1.1818	0.1	-2.2528e-003
22527	17.682	1.0909	0.1	-9.6723e-004
22528	17.773	1.1818	0.1	-2.0116e-003
22529	17.498	1.0909	0.1	-7.7715e-004
22530	17.59	1.1818	0.1	-1.7649e-003
22531	17.315	1.0909	0.1	-5.6509e-004
22532	17.407	1.1818	0.1	-1.4947e-003
22533	17.132	1.0909	0.1	-3.2519e-004
22534	17.224	1.1818	0.1	-1.1912e-003
22535	16.949	1.0909	0.1	-3.576e-005
22536	17.041	1.1818	0.1	-8.4402e-004
22537	16.766	1.0909	0.1	3.4714e-004
22538	16.857	1.1818	0.1	-4.0455e-004
22539	16.583	1.0909	0.1	8.6869e-004
22540	16.674	1.1818	0.1	1.9832e-004
22541	16.4	1.0909	0.1	1.6314e-003
22542	16.491	1.1818	0.1	1.0543e-003
22543	16.216	1.0909	0.1	2.9053e-003
22544	16.308	1.1818	0.1	2.4564e-003
22545	16.033	1.0909	0.1	5.4362e-003
22546	16.125	1.1818	0.1	5.2612e-003
22547	15.85	1.0909	0.1	1.2597e-002
22548	15.942	1.1818	0.1	1.3557e-002
22549	15.667	1.0909	0.1	9.7776e-002
22550	15.759	1.1818	0.1	0.15652
22551	15.484	1.0909	0.1	1.4682
22552	15.575	1.1818	0.1	1.6803
22553	15.301	1.0909	0.1	3.1568
22554	15.392	1.1818	0.1	3.4349
22555	15.118	1.0909	0.1	4.9315
22556	15.209	1.1818	0.1	5.2801
22557	14.934	1.0909	0.1	6.7914
22558	15.026	1.1818	0.1	7.2175
22559	14.751	1.0909	0.1	8.7393
22560	14.843	1.1818	0.1	9.2514
22561	14.568	1.0909	0.1	10.777
22562	14.66	1.1818	0.1	11.386
22563	14.385	1.0909	0.1	12.906
22564	14.477	1.1818	0.1	13.624
22565	14.202	1.0909	0.1	15.126
22566	14.293	1.1818	0.1	15.969
22567	14.019	1.0909	0.1	17.433
22568	14.11	1.1818	0.1	18.419
22569	13.836	1.0909	0.1	19.823
22570	13.927	1.1818	0.1	20.973
22571	13.652	1.0909	0.1	22.285
22572	13.744	1.1818	0.1	23.627
22573	13.469	1.0909	0.1	24.806
22574	13.561	1.1818	0.1	26.371
22575	13.286	1.0909	0.1	27.369
22576	13.378	1.1818	0.1	29.193
22577	13.103	1.0909	0.1	29.949
22578	13.195	1.1818	0.1	32.076
22579	12.92	1.0909	0.1	32.515
22580	13.011	1.1818	0.1	34.995
22581	12.737	1.0909	0.1	35.026
22582	12.828	1.1818	0.1	37.921
22583	12.554	1.0909	0.1	37.435
22584	12.645	1.1818	0.1	40.813
22585	12.37	1.0909	0.1	39.68
22586	12.462	1.1818	0.1	43.622
22587	12.187	1.0909	0.1	41.69
22588	12.279	1.1818	0.1	46.289
22589	12.004	1.0909	0.1	43.38
22590	12.096	1.1818	0.1	48.742
22591	11.821	1.0909	0.1	44.649
22592	11.913	1.1818	0.1	50.895
22593	11.638	1.0909	0.1	45.384
22594	11.73	1.1818	0.1	52.647
22595	11.455	1.0909	0.1	45.454
22596	11.546	1.1818	0.1	53.884
22597	11.272	1.0909	0.1	44.714
22598	11.363	1.1818	0.1	54.472
22599	11.089	1.0909	0.1	43.002
22600	11.18	1.1818	0.1	54.261
22601	10.905	1.0909	0.1	40.142
22602	10.997	1.1818	0.1	53.081
22603	10.722	1.0909	0.1	35.945
22604	10.814	1.1818	0.1	50.739
22605	10.539	1.0909	0.1	30.218
22606	10.631	1.1818	0.1	47.009
22607	10.356	1.0909	0.1	22.824
22608	10.448	1.1818	0.1	41.629
22609	10.173	1.0909	0.1	14.042
22610	10.264	1.1818	0.1	34.295
22611	9.9897	1.0909	0.1	6.4724
22612	10.081	1.1818	0.1	24.768
22613	9.8065	1.0909	0.1	3.4867
22614	9.8981	1.1818	0.1	13.767
22615	9.6234	1.0909	0.1	2.5976
22616	9.7149	1.1818	0.1	6.1545
22617	9.4402	1.0909	0.1	2.2884
22618	9.5318	1.1818	0.1	3.6953
22619	9.2571	1.0909	0.1	2.2022
22620	9.3487	1.1818	0.1	2.8911
22621	9.0739	1.0909	0.1	2.26
22622	9.1655	1.1818	0.1	2.5953
22623	8.8908	1.0909	0.1	2.3467
22624	8.9824	1.1818	0.1	2.5775
22625	8.7077	1.0909	0.1	2.7514
22626	8.7992	1.1818	0.1	2.6367
22627	8.5245	1.0909	0.1	2.0005
22628	8.6161	1.1818	0.1	3.3681
22629	8.3414	1.0909	0.1	5.2021
22630	8.433	1.1818	0.1	1.0209
22631	8.2498	1.1818	0.1	8.4998
22632	8.1582	1.0909	0.1	-0.85469
22633	23.725	1.2727	0.1	-0.17677
22634	23.817	1.3636	0.1	-0.14692
22635	23.908	1.2727	0.1	-0.42062
22636	23.542	1.2727	0.1	-0.19523
22637	23.634	1.3636	0.1	-0.29577
22638	23.359	1.2727	0.1	-0.10556
22639	23.451	1.3636	0.1	-0.11997
22640	23.176	1.2727	0.1	-8.5017e-002
22641	23.267	1.3636	0.1	-0.10472
22642	22.993	1.2727	0.1	-6.4117e-002
22643	23.084	1.3636	0.1	-7.5168e-002
22644	22.81	1.2727	0.1	-5.1927e-002
22645	22.901	1.3636	0.1	-6.1206e-002
22646	22.626	1.2727	0.1	-4.2538e-002
22647	22.718	1.3636	0.1	-4.9844e-002
22648	22.443	1.2727	0.1	-3.5618e-002
22649	22.535	1.3636	0.1	-4.1804e-002
22650	22.26	1.2727	0.1	-3.0226e-002
22651	22.352	1.3636	0.1	-3.554e-002
22652	22.077	1.2727	0.1	-2.597e-002
22653	22.169	1.3636	0.1	-3.0636e-002
22654	21.894	1.2727	0.1	-2.2546e-002
22655	21.985	1.3636	0.1	-2.6694e-002
22656	21.711	1.2727	0.1	-1.9757e-002
22657	21.802	1.3636	0.1	-2.3487e-002
22658	21.528	1.2727	0.1	-1.7452e-002
22659	21.619	1.3636	0.1	-2.0838e-002
22660	21.344	1.2727	0.1	-1.5528e-002
22661	21.436	1.3636	0.1	-1.8623e-002
22662	21.161	1.2727	0.1	-1.3906e-002
22663	21.253	1.3636	0.1	-1.6752e-002
22664	20.978	1.2727	0.1	-1.2523e-002
22665	21.07	1.3636	0.1	-1.5159e-002
22666	20.795	1.2727	0.1	-1.1333e-002
22667	20.887	1.3636	0.1	-1.3784e-002
22668	20.612	1.2727	0.1	-1.0309e-002
22669	20.703	1.3636	0.1	-1.2591e-002
22670	20.429	1.2727	0.1	-9.4161e-003
22671	20.52	1.3636	0.1	-1.1557e-002
22672	20.246	1.2727	0.1	-8.627e-003
22673	20.337	1.3636	0.1	-1.064e-002
22674	20.062	1.2727	0.1	-7.9301e-003
22675	20.154	1.3636	0.1	-9.8262e-003
22676	19.879	1.2727	0.1	-7.3117e-003
22677	19.971	1.3636	0.1	-9.1028e-003
22678	19.696	1.2727	0.1	-6.7556e-003
22679	19.788	1.3636	0.1	-8.4534e-003
22680	19.513	1.2727	0.1	-6.2534e-003
22681	19.605	1.3636	0.1	-7.8632e-003
22682	19.33	1.2727	0.1	-5.8029e-003
22683	19.421	1.3636	0.1	-7.3279e-003
22684	19.147	1.2727	0.1	-5.3913e-003
22685	19.238	1.3636	0.1	-6.8486e-003
22686	18.964	1.2727	0.1	-5.006e-003
22687	19.055	1.3636	0.1	-6.3981e-003
22688	18.78	1.2727	0.1	-4.6495e-003
22689	18.872	1.3636	0.1	-5.9759e-003
22690	18.597	1.2727	0.1	-4.3171e-003
22691	18.689	1.3636	0.1	-5.5865e-003
22692	18.414	1.2727	0.1	-4.0035e-003
22693	18.506	1.3636	0.1	-5.2156e-003
22694	18.231	1.2727	0.1	-3.7048e-003
22695	18.323	1.3636	0.1	-4.8678e-003
22696	18.048	1.2727	0.1	-3.4042e-003
22697	18.139	1.3636	0.1	-4.5277e-003
22698	17.865	1.2727	0.1	-3.1044e-003
22699	17.956	1.3636	0.1	-4.177e-003
22700	17.682	1.2727	0.1	-2.8071e-003
22701	17.773	1.3636	0.1	-3.8373e-003
22702	17.498	1.2727	0.1	-2.4924e-003
22703	17.59	1.3636	0.1	-3.489e-003
22704	17.315	1.2727	0.1	-2.1444e-003
22705	17.407	1.3636	0.1	-3.1077e-003
22706	17.132	1.2727	0.1	-1.7499e-003
22707	17.224	1.3636	0.1	-2.6811e-003
22708	16.949	1.2727	0.1	-1.2728e-003
22709	17.041	1.3636	0.1	-2.1839e-003
22710	16.766	1.2727	0.1	-6.3924e-004
22711	16.857	1.3636	0.1	-1.5463e-003
22712	16.583	1.2727	0.1	2.6254e-004
22713	16.674	1.3636	0.1	-6.4337e-004
22714	16.4	1.2727	0.1	1.7065e-003
22715	16.491	1.3636	0.1	7.5644e-004
22716	16.216	1.2727	0.1	4.5672e-003
22717	16.308	1.3636	0.1	3.4538e-003
22718	16.033	1.2727	0.1	1.3187e-002
22719	16.125	1.3636	0.1	1.133e-002
22720	15.85	1.2727	0.1	0.19392
22721	15.942	1.3636	0.1	0.16053
22722	15.667	1.2727	0.1	1.8081
22723	15.759	1.3636	0.1	1.7954
22724	15.484	1.2727	0.1	3.6245
22725	15.575	1.3636	0.1	3.6606
22726	15.301	1.2727	0.1	5.5352
22727	15.392	1.3636	0.1	5.6239
22728	15.118	1.2727	0.1	7.5437
22729	15.209	1.3636	0.1	7.6895
22730	14.934	1.2727	0.1	9.6557
22731	15.026	1.3636	0.1	9.8649
22732	14.751	1.2727	0.1	11.877
22733	14.843	1.3636	0.1	12.157
22734	14.568	1.2727	0.1	14.213
22735	14.66	1.3636	0.1	14.574
22736	14.385	1.2727	0.1	16.667
22737	14.477	1.3636	0.1	17.121
22738	14.202	1.2727	0.1	19.243
22739	14.293	1.3636	0.1	19.805
22740	14.019	1.2727	0.1	21.941
22741	14.11	1.3636	0.1	22.629
22742	13.836	1.2727	0.1	24.76
22743	13.927	1.3636	0.1	25.595
22744	13.652	1.2727	0.1	27.696
22745	13.744	1.3636	0.1	28.705
22746	13.469	1.2727	0.1	30.741
22747	13.561	1.3636	0.1	31.955
22748	13.286	1.2727	0.1	33.884
22749	13.378	1.3636	0.1	35.34
22750	13.103	1.2727	0.1	37.107
22751	13.195	1.3636	0.1	38.85
22752	12.92	1.2727	0.1	40.386
22753	13.011	1.3636	0.1	42.47
22754	12.737	1.2727	0.1	43.692
22755	12.828	1.3636	0.1	46.178
22756	12.554	1.2727	0.1	46.985
22757	12.645	1.3636	0.1	49.947
22758	12.37	1.2727	0.1	50.216
22759	12.462	1.3636	0.1	53.739
22760	12.187	1.2727	0.1	53.325
22761	12.279	1.3636	0.1	57.508
22762	12.004	1.2727	0.1	56.24
22763	12.096	1.3636	0.1	61.197
22764	11.821	1.2727	0.1	58.875
22765	11.913	1.3636	0.1	64.736
22766	11.638	1.2727	0.1	61.129
22767	11.73	1.3636	0.1	68.041
22768	11.455	1.2727	0.1	62.883
22769	11.546	1.3636	0.1	71.013
22770	11.272	1.2727	0.1	64.003
22771	11.363	1.3636	0.1	73.533
22772	11.089	1.2727	0.1	64.331
22773	11.18	1.3636	0.1	75.464
22774	10.905	1.2727	0.1	63.683
22775	10.997	1.3636	0.1	76.639
22776	10.722	1.2727	0.1	61.838
22777	10.814	1.3636	0.1	76.859
22778	10.539	1.2727	0.1	58.523
22779	10.631	1.3636	0.1	75.871
22780	10.356	1.2727	0.1	53.381
22781	10.448	1.3636	0.1	73.339
22782	10.173	1.2727	0.1	45.933
22783	10.264	1.3636	0.1	68.795
22784	9.9897	1.2727	0.1	35.572
22785	10.081	1.3636	0.1	61.553
22786	9.8065	1.2727	0.1	22.057
22787	9.8981	1.3636	0.1	50.615
22788	9.6234	1.2727	0.1	9.4506
22789	9.7149	1.3636	0.1	34.785
22790	9.4402	1.2727	0.1	4.7021
22791	9.5318	1.3636	0.1	15.705
22792	9.2571	1.2727	0.1	3.3465
22793	9.3487	1.3636	0.1	6.1415
22794	9.0739	1.2727	0.1	2.8988
22795	9.1655	1.3636	0.1	3.8653
22796	8.8908	1.2727	0.1	2.8402
22797	8.9824	1.3636	0.1	3.2712
22798	8.7077	1.2727	0.1	3.2409
22799	8.7992	1.3636	0.1	3.2827
22800	8.5245	1.2727	0.1	2.4144
22801	8.6161	1.3636	0.1	3.8478
22802	8.3414	1.2727	0.1	4.7105
22803	8.433	1.3636	0.1	1.7714
22804	8.2498	1.3636	0.1	16.219
22805	8.1582	1.2727	0.1	-6.0103
22806	23.725	1.4545	0.1	-0.19064
22807	23.817	1.5455	0.1	-0.16449
22808	23.908	1.4545	0.1	-0.42617
22809	23.542	1.4545	0.1	-0.2046
22810	23.634	1.5455	0.1	-0.30547
22811	23.359	1.4545	0.1	-0.11316
22812	23.451	1.5455	0.1	-0.12703
22813	23.176	1.4545	0.1	-9.1912e-002
22814	23.267	1.5455	0.1	-0.11102
22815	22.993	1.4545	0.1	-7.0499e-002
22816	23.084	1.5455	0.1	-8.0892e-002
22817	22.81	1.4545	0.1	-5.7945e-002
22818	22.901	1.5455	0.1	-6.6575e-002
22819	22.626	1.4545	0.1	-4.825e-002
22820	22.718	1.5455	0.1	-5.4935e-002
22821	22.443	1.4545	0.1	-4.1059e-002
22822	22.535	1.5455	0.1	-4.6663e-002
22823	22.26	1.4545	0.1	-3.541e-002
22824	22.352	1.5455	0.1	-4.0187e-002
22825	22.077	1.4545	0.1	-3.091e-002
22826	22.169	1.5455	0.1	-3.5083e-002
22827	21.894	1.4545	0.1	-2.725e-002
22828	21.985	1.5455	0.1	-3.0947e-002
22829	21.711	1.4545	0.1	-2.4234e-002
22830	21.802	1.5455	0.1	-2.7553e-002
22831	21.528	1.4545	0.1	-2.1715e-002
22832	21.619	1.5455	0.1	-2.4725e-002
22833	21.344	1.4545	0.1	-1.9587e-002
22834	21.436	1.5455	0.1	-2.2339e-002
22835	21.161	1.4545	0.1	-1.7772e-002
22836	21.253	1.5455	0.1	-2.0303e-002
22837	20.978	1.4545	0.1	-1.621e-002
22838	21.07	1.5455	0.1	-1.8556e-002
22839	20.795	1.4545	0.1	-1.4852e-002
22840	20.887	1.5455	0.1	-1.7033e-002
22841	20.612	1.4545	0.1	-1.3668e-002
22842	20.703	1.5455	0.1	-1.5703e-002
22843	20.429	1.4545	0.1	-1.2626e-002
22844	20.52	1.5455	0.1	-1.4538e-002
22845	20.246	1.4545	0.1	-1.1698e-002
22846	20.337	1.5455	0.1	-1.3498e-002
22847	20.062	1.4545	0.1	-1.087e-002
22848	20.154	1.5455	0.1	-1.2568e-002
22849	19.879	1.4545	0.1	-1.0127e-002
22850	19.971	1.5455	0.1	-1.1735e-002
22851	19.696	1.4545	0.1	-9.4537e-003
22852	19.788	1.5455	0.1	-1.0983e-002
22853	19.513	1.4545	0.1	-8.8403e-003
22854	19.605	1.5455	0.1	-1.0295e-002
22855	19.33	1.4545	0.1	-8.2853e-003
22856	19.421	1.5455	0.1	-9.667e-003
22857	19.147	1.4545	0.1	-7.7757e-003
22858	19.238	1.5455	0.1	-9.1015e-003
22859	18.964	1.4545	0.1	-7.2967e-003
22860	19.055	1.5455	0.1	-8.5675e-003
22861	18.78	1.4545	0.1	-6.8498e-003
22862	18.872	1.5455	0.1	-8.0668e-003
22863	18.597	1.4545	0.1	-6.4299e-003
22864	18.689	1.5455	0.1	-7.6018e-003
22865	18.414	1.4545	0.1	-6.0328e-003
22866	18.506	1.5455	0.1	-7.1585e-003
22867	18.231	1.4545	0.1	-5.652e-003
22868	18.323	1.5455	0.1	-6.7401e-003
22869	18.048	1.4545	0.1	-5.2706e-003
22870	18.139	1.5455	0.1	-6.332e-003
22871	17.865	1.4545	0.1	-4.8896e-003
22872	17.956	1.5455	0.1	-5.9139e-003
22873	17.682	1.4545	0.1	-4.5098e-003
22874	17.773	1.5455	0.1	-5.5072e-003
22875	17.498	1.4545	0.1	-4.1078e-003
22876	17.59	1.5455	0.1	-5.0898e-003
22877	17.315	1.4545	0.1	-3.6638e-003
22878	17.407	1.5455	0.1	-4.6347e-003
22879	17.132	1.4545	0.1	-3.1557e-003
22880	17.224	1.5455	0.1	-4.124e-003
22881	16.949	1.4545	0.1	-2.5286e-003
22882	17.041	1.5455	0.1	-3.5197e-003
22883	16.766	1.4545	0.1	-1.671e-003
22884	16.857	1.5455	0.1	-2.726e-003
22885	16.583	1.4545	0.1	-3.6392e-004
22886	16.674	1.5455	0.1	-1.5422e-003
22887	16.4	1.4545	0.1	2.0552e-003
22888	16.491	1.5455	0.1	5.2295e-004
22889	16.216	1.4545	0.1	8.7271e-003
22890	16.308	1.5455	0.1	5.7332e-003
22891	16.033	1.4545	0.1	0.10501
22892	16.125	1.5455	0.1	5.1913e-002
22893	15.85	1.4545	0.1	1.7118
22894	15.942	1.5455	0.1	1.498
22895	15.667	1.4545	0.1	3.6236
22896	15.759	1.5455	0.1	3.443
22897	15.484	1.4545	0.1	5.6365
22898	15.575	1.5455	0.1	5.4918
22899	15.301	1.4545	0.1	7.7555
22900	15.392	1.5455	0.1	7.6493
22901	15.118	1.4545	0.1	9.9889
22902	15.209	1.5455	0.1	9.9248
22903	14.934	1.4545	0.1	12.346
22904	15.026	1.5455	0.1	12.329
22905	14.751	1.4545	0.1	14.834
22906	14.843	1.5455	0.1	14.871
22907	14.568	1.4545	0.1	17.463
22908	14.66	1.5455	0.1	17.562
22909	14.385	1.4545	0.1	20.241
22910	14.477	1.5455	0.1	20.411
22911	14.202	1.4545	0.1	23.173
22912	14.293	1.5455	0.1	23.429
22913	14.019	1.4545	0.1	26.266
22914	14.11	1.5455	0.1	26.624
22915	13.836	1.4545	0.1	29.524
22916	13.927	1.5455	0.1	30.003
22917	13.652	1.4545	0.1	32.948
22918	13.744	1.5455	0.1	33.574
22919	13.469	1.4545	0.1	36.539
22920	13.561	1.5455	0.1	37.341
22921	13.286	1.4545	0.1	40.292
22922	13.378	1.5455	0.1	41.306
22923	13.103	1.4545	0.1	44.2
22924	13.195	1.5455	0.1	45.468
22925	12.92	1.4545	0.1	48.248
22926	13.011	1.5455	0.1	49.822
22927	12.737	1.4545	0.1	52.42
22928	12.828	1.5455	0.1	54.36
22929	12.554	1.4545	0.1	56.688
22930	12.645	1.5455	0.1	59.067
22931	12.37	1.4545	0.1	61.018
22932	12.462	1.5455	0.1	63.92
22933	12.187	1.4545	0.1	65.367
22934	12.279	1.5455	0.1	68.891
22935	12.004	1.4545	0.1	69.679
22936	12.096	1.5455	0.1	73.94
22937	11.821	1.4545	0.1	73.887
22938	11.913	1.5455	0.1	79.017
22939	11.638	1.4545	0.1	77.91
22940	11.73	1.5455	0.1	84.059
22941	11.455	1.4545	0.1	81.647
22942	11.546	1.5455	0.1	88.986
22943	11.272	1.4545	0.1	84.979
22944	11.363	1.5455	0.1	93.703
22945	11.089	1.4545	0.1	87.762
22946	11.18	1.5455	0.1	98.087
22947	10.905	1.4545	0.1	89.817
22948	10.997	1.5455	0.1	101.99
22949	10.722	1.4545	0.1	90.915
22950	10.814	1.5455	0.1	105.21
22951	10.539	1.4545	0.1	90.752
22952	10.631	1.5455	0.1	107.49
22953	10.356	1.4545	0.1	88.899
22954	10.448	1.5455	0.1	108.47
22955	10.173	1.4545	0.1	84.724
22956	10.264	1.5455	0.1	107.61
22957	9.9897	1.4545	0.1	77.252
22958	10.081	1.5455	0.1	104.12
22959	9.8065	1.4545	0.1	64.979
22960	9.8981	1.5455	0.1	96.731
22961	9.6234	1.4545	0.1	45.826
22962	9.7149	1.5455	0.1	83.427
22963	9.4402	1.4545	0.1	20.286
22964	9.5318	1.5455	0.1	61.204
22965	9.2571	1.4545	0.1	6.8014
22966	9.3487	1.5455	0.1	28.415
22967	9.0739	1.4545	0.1	4.1596
22968	9.1655	1.5455	0.1	7.932
22969	8.8908	1.4545	0.1	3.6437
22970	8.9824	1.5455	0.1	4.7132
22971	8.7077	1.4545	0.1	3.8389
22972	8.7992	1.5455	0.1	3.3851
22973	8.5245	1.4545	0.1	3.2021
22974	8.6161	1.5455	0.1	7.6469
22975	8.3414	1.4545	0.1	13.662
22976	8.433	1.5455	0.1	0.79734
22977	8.2498	1.5455	0.1	7.3085
22978	8.1582	1.4545	0.1	15.492
22979	23.725	1.6364	0.1	-0.20142
22980	23.817	1.7273	0.1	-0.1785
22981	23.908	1.6364	0.1	-0.43032
22982	23.542	1.6364	0.1	-0.21174
22983	23.634	1.7273	0.1	-0.31293
22984	23.359	1.6364	0.1	-0.1189
22985	23.451	1.7273	0.1	-0.1324
22986	23.176	1.6364	0.1	-9.7089e-002
22987	23.267	1.7273	0.1	-0.11578
22988	22.993	1.6364	0.1	-7.5283e-002
22989	23.084	1.7273	0.1	-8.5204e-002
22990	22.81	1.6364	0.1	-6.2465e-002
22991	22.901	1.7273	0.1	-7.0617e-002
22992	22.626	1.6364	0.1	-5.2564e-002
22993	22.718	1.7273	0.1	-5.8777e-002
22994	22.443	1.6364	0.1	-4.5195e-002
22995	22.535	1.7273	0.1	-5.0348e-002
22996	22.26	1.6364	0.1	-3.9385e-002
22997	22.352	1.7273	0.1	-4.3733e-002
22998	22.077	1.6364	0.1	-3.4729e-002
22999	22.169	1.7273	0.1	-3.8504e-002
23000	21.894	1.6364	0.1	-3.0918e-002
23001	21.985	1.7273	0.1	-3.4245e-002
23002	21.711	1.6364	0.1	-2.7758e-002
23003	21.802	1.7273	0.1	-3.0732e-002
23004	21.528	1.6364	0.1	-2.5098e-002
23005	21.619	1.7273	0.1	-2.7787e-002
23006	21.344	1.6364	0.1	-2.2832e-002
23007	21.436	1.7273	0.1	-2.5287e-002
23008	21.161	1.6364	0.1	-2.0886e-002
23009	21.253	1.7273	0.1	-2.3141e-002
23010	20.978	1.6364	0.1	-1.9198e-002
23011	21.07	1.7273	0.1	-2.1286e-002
23012	20.795	1.6364	0.1	-1.7719e-002
23013	20.887	1.7273	0.1	-1.966e-002
23014	20.612	1.6364	0.1	-1.6423e-002
23015	20.703	1.7273	0.1	-1.8232e-002
23016	20.429	1.6364	0.1	-1.5273e-002
23017	20.52	1.7273	0.1	-1.6975e-002
23018	20.246	1.6364	0.1	-1.4242e-002
23019	20.337	1.7273	0.1	-1.5846e-002
23020	20.062	1.6364	0.1	-1.3318e-002
23021	20.154	1.7273	0.1	-1.4832e-002
23022	19.879	1.6364	0.1	-1.2484e-002
23023	19.971	1.7273	0.1	-1.3918e-002
23024	19.696	1.6364	0.1	-1.1726e-002
23025	19.788	1.7273	0.1	-1.3092e-002
23026	19.513	1.6364	0.1	-1.1031e-002
23027	19.605	1.7273	0.1	-1.2332e-002
23028	19.33	1.6364	0.1	-1.04e-002
23029	19.421	1.7273	0.1	-1.1637e-002
23030	19.147	1.6364	0.1	-9.8167e-003
23031	19.238	1.7273	0.1	-1.1007e-002
23032	18.964	1.6364	0.1	-9.2676e-003
23033	19.055	1.7273	0.1	-1.0413e-002
23034	18.78	1.6364	0.1	-8.7555e-003
23035	18.872	1.7273	0.1	-9.8554e-003
23036	18.597	1.6364	0.1	-8.2737e-003
23037	18.689	1.7273	0.1	-9.3368e-003
23038	18.414	1.6364	0.1	-7.8158e-003
23039	18.506	1.7273	0.1	-8.8419e-003
23040	18.231	1.6364	0.1	-7.3771e-003
23041	18.323	1.7273	0.1	-8.3751e-003
23042	18.048	1.6364	0.1	-6.9399e-003
23043	18.139	1.7273	0.1	-7.9209e-003
23044	17.865	1.6364	0.1	-6.5047e-003
23045	17.956	1.7273	0.1	-7.4587e-003
23046	17.682	1.6364	0.1	-6.0705e-003
23047	17.773	1.7273	0.1	-7.0106e-003
23048	17.498	1.6364	0.1	-5.6128e-003
23049	17.59	1.7273	0.1	-6.551e-003
23050	17.315	1.6364	0.1	-5.1084e-003
23051	17.407	1.7273	0.1	-6.0545e-003
23052	17.132	1.6364	0.1	-4.5271e-003
23053	17.224	1.7273	0.1	-5.497e-003
23054	16.949	1.6364	0.1	-3.7987e-003
23055	17.041	1.7273	0.1	-4.8326e-003
23056	16.766	1.6364	0.1	-2.7628e-003
23057	16.857	1.7273	0.1	-3.9376e-003
23058	16.583	1.6364	0.1	-1.0357e-003
23059	16.674	1.7273	0.1	-2.5205e-003
23060	16.4	1.6364	0.1	2.9107e-003
23061	16.491	1.7273	0.1	3.7111e-004
23062	16.216	1.6364	0.1	2.6186e-002
23063	16.308	1.7273	0.1	1.2334e-002
23064	16.033	1.6364	0.1	1.2261
23065	16.125	1.7273	0.1	0.83973
23066	15.85	1.6364	0.1	3.2035
23067	15.942	1.7273	0.1	2.8331
23068	15.667	1.6364	0.1	5.2874
23069	15.759	1.7273	0.1	4.9382
23070	15.484	1.6364	0.1	7.4816
23071	15.575	1.7273	0.1	7.1543
23072	15.301	1.6364	0.1	9.7965
23073	15.392	1.7273	0.1	9.4922
23074	15.118	1.6364	0.1	12.243
23075	15.209	1.7273	0.1	11.964
23076	14.934	1.6364	0.1	14.833
23077	15.026	1.7273	0.1	14.582
23078	14.751	1.6364	0.1	17.578
23079	14.843	1.7273	0.1	17.361
23080	14.568	1.6364	0.1	20.491
23081	14.66	1.7273	0.1	20.312
23082	14.385	1.6364	0.1	23.582
23083	14.477	1.7273	0.1	23.451
23084	14.202	1.6364	0.1	26.863
23085	14.293	1.7273	0.1	26.79
23086	14.019	1.6364	0.1	30.345
23087	14.11	1.7273	0.1	30.345
23088	13.836	1.6364	0.1	34.039
23089	13.927	1.7273	0.1	34.127
23090	13.652	1.6364	0.1	37.952
23091	13.744	1.7273	0.1	38.15
23092	13.469	1.6364	0.1	42.093
23093	13.561	1.7273	0.1	42.427
23094	13.286	1.6364	0.1	46.468
23095	13.378	1.7273	0.1	46.969
23096	13.103	1.6364	0.1	51.077
23097	13.195	1.7273	0.1	51.785
23098	12.92	1.6364	0.1	55.922
23099	13.011	1.7273	0.1	56.881
23100	12.737	1.6364	0.1	60.995
23101	12.828	1.7273	0.1	62.263
23102	12.554	1.6364	0.1	66.288
23103	12.645	1.7273	0.1	67.93
23104	12.37	1.6364	0.1	71.782
23105	12.462	1.7273	0.1	73.877
23106	12.187	1.6364	0.1	77.453
23107	12.279	1.7273	0.1	80.094
23108	12.004	1.6364	0.1	83.266
23109	12.096	1.7273	0.1	86.562
23110	11.821	1.6364	0.1	89.176
23111	11.913	1.7273	0.1	93.252
23112	11.638	1.6364	0.1	95.123
23113	11.73	1.7273	0.1	100.13
23114	11.455	1.6364	0.1	101.03
23115	11.546	1.7273	0.1	107.12
23116	11.272	1.6364	0.1	106.8
23117	11.363	1.7273	0.1	114.18
23118	11.089	1.6364	0.1	112.3
23119	11.18	1.7273	0.1	121.18
23120	10.905	1.6364	0.1	117.38
23121	10.997	1.7273	0.1	128.01
23122	10.722	1.6364	0.1	121.8
23123	10.814	1.7273	0.1	134.47
23124	10.539	1.6364	0.1	125.25
23125	10.631	1.7273	0.1	140.31
23126	10.356	1.6364	0.1	127.3
23127	10.448	1.7273	0.1	145.16
23128	10.173	1.6364	0.1	127.25
23129	10.264	1.7273	0.1	148.49
23130	9.9897	1.6364	0.1	124.05
23131	10.081	1.7273	0.1	149.46
23132	9.8065	1.6364	0.1	116.01
23133	9.8981	1.7273	0.1	146.78
23134	9.6234	1.6364	0.1	100.41
23135	9.7149	1.7273	0.1	138.37
23136	9.4402	1.6364	0.1	73.057
23137	9.5318	1.7273	0.1	120.9
23138	9.2571	1.6364	0.1	31.329
23139	9.3487	1.7273	0.1	89.189
23140	9.0739	1.6364	0.1	8.0717
23141	9.1655	1.7273	0.1	38.632
23142	8.8908	1.6364	0.1	4.3345
23143	8.9824	1.7273	0.1	8.671
23144	8.7077	1.6364	0.1	7.1044
23145	8.7992	1.7273	0.1	4.0717
23146	8.5245	1.6364	0.1	5.2384
23147	8.6161	1.7273	0.1	9.6548
23148	8.3414	1.6364	0.1	-5.2361
23149	8.433	1.7273	0.1	-5.0011
23150	8.2498	1.7273	0.1	69.905
23151	8.1582	1.6364	0.1	-66.96
23152	23.725	1.8182	0.1	-0.20986
23153	23.817	1.9091	0.1	-0.18971
23154	23.908	1.8182	0.1	-0.4334
23155	23.542	1.8182	0.1	-0.2172
23156	23.634	1.9091	0.1	-0.31871
23157	23.359	1.8182	0.1	-0.12326
23158	23.451	1.9091	0.1	-0.13651
23159	23.176	1.8182	0.1	-0.101
23160	23.267	1.9091	0.1	-0.11941
23161	22.993	1.8182	0.1	-7.8892e-002
23162	23.084	1.9091	0.1	-8.8478e-002
23163	22.81	1.8182	0.1	-6.5875e-002
23164	22.901	1.9091	0.1	-7.3678e-002
23165	22.626	1.8182	0.1	-5.5825e-002
23166	22.718	1.9091	0.1	-6.1689e-002
23167	22.443	1.8182	0.1	-4.8337e-002
23168	22.535	1.9091	0.1	-5.3147e-002
23169	22.26	1.8182	0.1	-4.2421e-002
23170	22.352	1.9091	0.1	-4.644e-002
23171	22.077	1.8182	0.1	-3.7668e-002
23172	22.169	1.9091	0.1	-4.1128e-002
23173	21.894	1.8182	0.1	-3.3763e-002
23174	21.985	1.9091	0.1	-3.6792e-002
23175	21.711	1.8182	0.1	-3.0508e-002
23176	21.802	1.9091	0.1	-3.3202e-002
23177	21.528	1.8182	0.1	-2.7755e-002
23178	21.619	1.9091	0.1	-3.0182e-002
23179	21.344	1.8182	0.1	-2.5399e-002
23180	21.436	1.9091	0.1	-2.7606e-002
23181	21.161	1.8182	0.1	-2.3364e-002
23182	21.253	1.9091	0.1	-2.5387e-002
23183	20.978	1.8182	0.1	-2.1588e-002
23184	21.07	1.9091	0.1	-2.3459e-002
23185	20.795	1.8182	0.1	-2.0027e-002
23186	20.887	1.9091	0.1	-2.1761e-002
23187	20.612	1.8182	0.1	-1.8651e-002
23188	20.703	1.9091	0.1	-2.0266e-002
23189	20.429	1.8182	0.1	-1.7425e-002
23190	20.52	1.9091	0.1	-1.8942e-002
23191	20.246	1.8182	0.1	-1.6321e-002
23192	20.337	1.9091	0.1	-1.775e-002
23193	20.062	1.8182	0.1	-1.5327e-002
23194	20.154	1.9091	0.1	-1.6675e-002
23195	19.879	1.8182	0.1	-1.4428e-002
23196	19.971	1.9091	0.1	-1.5705e-002
23197	19.696	1.8182	0.1	-1.3607e-002
23198	19.788	1.9091	0.1	-1.4823e-002
23199	19.513	1.8182	0.1	-1.2853e-002
23200	19.605	1.9091	0.1	-1.4011e-002
23201	19.33	1.8182	0.1	-1.2166e-002
23202	19.421	1.9091	0.1	-1.3268e-002
23203	19.147	1.8182	0.1	-1.1531e-002
23204	19.238	1.9091	0.1	-1.2592e-002
23205	18.964	1.8182	0.1	-1.0933e-002
23206	19.055	1.9091	0.1	-1.1956e-002
23207	18.78	1.8182	0.1	-1.0374e-002
23208	18.872	1.9091	0.1	-1.1358e-002
23209	18.597	1.8182	0.1	-9.8475e-003
23210	18.689	1.9091	0.1	-1.0801e-002
23211	18.414	1.8182	0.1	-9.3491e-003
23212	18.506	1.9091	0.1	-1.0271e-002
23213	18.231	1.8182	0.1	-8.8725e-003
23214	18.323	1.9091	0.1	-9.773e-003
23215	18.048	1.8182	0.1	-8.3996e-003
23216	18.139	1.9091	0.1	-9.2889e-003
23217	17.865	1.8182	0.1	-7.9317e-003
23218	17.956	1.9091	0.1	-8.8012e-003
23219	17.682	1.8182	0.1	-7.4672e-003
23220	17.773	1.9091	0.1	-8.3308e-003
23221	17.498	1.8182	0.1	-6.9808e-003
23222	17.59	1.9091	0.1	-7.8523e-003
23223	17.315	1.8182	0.1	-6.4486e-003
23224	17.407	1.9091	0.1	-7.3412e-003
23225	17.132	1.8182	0.1	-5.8364e-003
23226	17.224	1.9091	0.1	-6.771e-003
23227	16.949	1.8182	0.1	-5.0595e-003
23228	17.041	1.9091	0.1	-6.0933e-003
23229	16.766	1.8182	0.1	-3.9127e-003
23230	16.857	1.9091	0.1	-5.1635e-003
23231	16.583	1.8182	0.1	-1.7867e-003
23232	16.674	1.9091	0.1	-3.5942e-003
23233	16.4	1.8182	0.1	4.9497e-003
23234	16.491	1.9091	0.1	3.365e-004
23235	16.216	1.8182	0.1	0.41808
23236	16.308	1.9091	0.1	6.402e-002
23237	16.033	1.8182	0.1	2.4159
23238	16.125	1.9091	0.1	1.8831
23239	15.85	1.8182	0.1	4.5433
23240	15.942	1.9091	0.1	4.0189
23241	15.667	1.8182	0.1	6.7817
23242	15.759	1.9091	0.1	6.265
23243	15.484	1.8182	0.1	9.1423
23244	15.575	1.9091	0.1	8.6323
23245	15.301	1.8182	0.1	11.638
23246	15.392	1.9091	0.1	11.134
23247	15.118	1.8182	0.1	14.282
23248	15.209	1.9091	0.1	13.785
23249	14.934	1.8182	0.1	17.09
23250	15.026	1.9091	0.1	16.601
23251	14.751	1.8182	0.1	20.076
23252	14.843	1.9091	0.1	19.597
23253	14.568	1.8182	0.1	23.254
23254	14.66	1.9091	0.1	22.789
23255	14.385	1.8182	0.1	26.642
23256	14.477	1.9091	0.1	26.197
23257	14.202	1.8182	0.1	30.256
23258	14.293	1.9091	0.1	29.837
23259	14.019	1.8182	0.1	34.111
23260	14.11	1.9091	0.1	33.729
23261	13.836	1.8182	0.1	38.224
23262	13.927	1.9091	0.1	37.891
23263	13.652	1.8182	0.1	42.612
23264	13.744	1.9091	0.1	42.345
23265	13.469	1.8182	0.1	47.29
23266	13.561	1.9091	0.1	47.11
23267	13.286	1.8182	0.1	52.274
23268	13.378	1.9091	0.1	52.206
23269	13.103	1.8182	0.1	57.577
23270	13.195	1.9091	0.1	57.652
23271	12.92	1.8182	0.1	63.212
23272	13.011	1.9091	0.1	63.469
23273	12.737	1.8182	0.1	69.188
23274	12.828	1.9091	0.1	69.674
23275	12.554	1.8182	0.1	75.51
23276	12.645	1.9091	0.1	76.283
23277	12.37	1.8182	0.1	82.181
23278	12.462	1.9091	0.1	83.308
23279	12.187	1.8182	0.1	89.194
23280	12.279	1.9091	0.1	90.758
23281	12.004	1.8182	0.1	96.539
23282	12.096	1.9091	0.1	98.635
23283	11.821	1.8182	0.1	104.19
23284	11.913	1.9091	0.1	106.93
23285	11.638	1.8182	0.1	112.12
23286	11.73	1.9091	0.1	115.64
23287	11.455	1.8182	0.1	120.26
23288	11.546	1.9091	0.1	124.71
23289	11.272	1.8182	0.1	128.55
23290	11.363	1.9091	0.1	134.12
23291	11.089	1.8182	0.1	136.88
23292	11.18	1.9091	0.1	143.76
23293	10.905	1.8182	0.1	145.1
23294	10.997	1.9091	0.1	153.54
23295	10.722	1.8182	0.1	153.
23296	10.814	1.9091	0.1	163.27
23297	10.539	1.8182	0.1	160.26
23298	10.631	1.9091	0.1	172.71
23299	10.356	1.8182	0.1	166.46
23300	10.448	1.9091	0.1	181.5
23301	10.173	1.8182	0.1	170.9
23302	10.264	1.9091	0.1	189.09
23303	9.9897	1.8182	0.1	172.56
23304	10.081	1.9091	0.1	194.67
23305	9.8065	1.8182	0.1	169.8
23306	9.8981	1.9091	0.1	196.97
23307	9.6234	1.8182	0.1	160.02
23308	9.7149	1.9091	0.1	194.07
23309	9.4402	1.8182	0.1	139.06
23310	9.5318	1.9091	0.1	182.9
23311	9.2571	1.8182	0.1	100.34
23312	9.3487	1.9091	0.1	158.66
23313	9.0739	1.8182	0.1	38.676
23314	9.1655	1.9091	0.1	113.78
23315	8.8908	1.8182	0.1	7.8525
23316	8.9824	1.9091	0.1	41.819
23317	8.7077	1.8182	0.1	6.5103
23318	8.7992	1.9091	0.1	5.1993
23319	8.5245	1.8182	0.1	8.7207e-002
23320	8.6161	1.9091	0.1	12.253
23321	8.3414	1.8182	0.1	70.604
23322	8.433	1.9091	0.1	-42.626
23323	8.2498	1.9091	0.1	356.56
23324	8.1582	1.8182	0.1	297.22
23325	23.725	2.	0.1	-0.21649
23326	23.817	2.0909	0.1	-0.1986
23327	23.908	2.	0.1	-0.43572
23328	23.542	2.	0.1	-0.22142
23329	23.634	2.0909	0.1	-0.32317
23330	23.359	2.	0.1	-0.1266
23331	23.451	2.0909	0.1	-0.13966
23332	23.176	2.	0.1	-0.10399
23333	23.267	2.0909	0.1	-0.12218
23334	22.993	2.	0.1	-8.1638e-002
23335	23.084	2.0909	0.1	-9.0968e-002
23336	22.81	2.	0.1	-6.8464e-002
23337	22.901	2.0909	0.1	-7.6001e-002
23338	22.626	2.	0.1	-5.8303e-002
23339	22.718	2.0909	0.1	-6.3894e-002
23340	22.443	2.	0.1	-5.073e-002
23341	22.535	2.0909	0.1	-5.5269e-002
23342	22.26	2.	0.1	-4.4744e-002
23343	22.352	2.0909	0.1	-4.8499e-002
23344	22.077	2.	0.1	-3.9927e-002
23345	22.169	2.0909	0.1	-4.3132e-002
23346	21.894	2.	0.1	-3.5961e-002
23347	21.985	2.0909	0.1	-3.8744e-002
23348	21.711	2.	0.1	-3.2646e-002
23349	21.802	2.0909	0.1	-3.5107e-002
23350	21.528	2.	0.1	-2.9833e-002
23351	21.619	2.0909	0.1	-3.2038e-002
23352	21.344	2.	0.1	-2.7416e-002
23353	21.436	2.0909	0.1	-2.9412e-002
23354	21.161	2.	0.1	-2.5323e-002
23355	21.253	2.0909	0.1	-2.7145e-002
23356	20.978	2.	0.1	-2.3488e-002
23357	21.07	2.0909	0.1	-2.5168e-002
23358	20.795	2.	0.1	-2.1869e-002
23359	20.887	2.0909	0.1	-2.3422e-002
23360	20.612	2.	0.1	-2.0436e-002
23361	20.703	2.0909	0.1	-2.1878e-002
23362	20.429	2.	0.1	-1.9155e-002
23363	20.52	2.0909	0.1	-2.0507e-002
23364	20.246	2.	0.1	-1.8e-002
23365	20.337	2.0909	0.1	-1.9271e-002
23366	20.062	2.	0.1	-1.6956e-002
23367	20.154	2.0909	0.1	-1.8153e-002
23368	19.879	2.	0.1	-1.601e-002
23369	19.971	2.0909	0.1	-1.7142e-002
23370	19.696	2.	0.1	-1.5142e-002
23371	19.788	2.0909	0.1	-1.622e-002
23372	19.513	2.	0.1	-1.4347e-002
23373	19.605	2.0909	0.1	-1.5371e-002
23374	19.33	2.	0.1	-1.362e-002
23375	19.421	2.0909	0.1	-1.4593e-002
23376	19.147	2.	0.1	-1.2947e-002
23377	19.238	2.0909	0.1	-1.3885e-002
23378	18.964	2.	0.1	-1.2314e-002
23379	19.055	2.0909	0.1	-1.3217e-002
23380	18.78	2.	0.1	-1.1722e-002
23381	18.872	2.0909	0.1	-1.2591e-002
23382	18.597	2.	0.1	-1.1166e-002
23383	18.689	2.0909	0.1	-1.2009e-002
23384	18.414	2.	0.1	-1.0641e-002
23385	18.506	2.0909	0.1	-1.1456e-002
23386	18.231	2.	0.1	-1.014e-002
23387	18.323	2.0909	0.1	-1.0938e-002
23388	18.048	2.	0.1	-9.6464e-003
23389	18.139	2.0909	0.1	-1.0437e-002
23390	17.865	2.	0.1	-9.1619e-003
23391	17.956	2.0909	0.1	-9.9367e-003
23392	17.682	2.	0.1	-8.6848e-003
23393	17.773	2.0909	0.1	-9.4578e-003
23394	17.498	2.	0.1	-8.1919e-003
23395	17.59	2.0909	0.1	-8.9775e-003
23396	17.315	2.	0.1	-7.6588e-003
23397	17.407	2.0909	0.1	-8.4714e-003
23398	17.132	2.	0.1	-7.0518e-003
23399	17.224	2.0909	0.1	-7.9164e-003
23400	16.949	2.	0.1	-6.2833e-003
23401	17.041	2.0909	0.1	-7.2669e-003
23402	16.766	2.	0.1	-5.1116e-003
23403	16.857	2.0909	0.1	-6.3724e-003
23404	16.583	2.	0.1	-2.661e-003
23405	16.674	2.0909	0.1	-4.7724e-003
23406	16.4	2.	0.1	1.1185e-002
23407	16.491	2.0909	0.1	5.0358e-004
23408	16.216	2.	0.1	1.3144
23409	16.308	2.0909	0.1	0.65155
23410	16.033	2.	0.1	3.4605
23411	16.125	2.0909	0.1	2.7897
23412	15.85	2.	0.1	5.7167
23413	15.942	2.0909	0.1	5.0418
23414	15.667	2.	0.1	8.0925
23415	15.759	2.0909	0.1	7.411
23416	15.484	2.	0.1	10.602
23417	15.575	2.0909	0.1	9.9111
23418	15.301	2.	0.1	13.26
23419	15.392	2.0909	0.1	12.558
23420	15.118	2.	0.1	16.083
23421	15.209	2.0909	0.1	15.368
23422	14.934	2.	0.1	19.088
23423	15.026	2.0909	0.1	18.358
23424	14.751	2.	0.1	22.292
23425	14.843	2.0909	0.1	21.548
23426	14.568	2.	0.1	25.714
23427	14.66	2.0909	0.1	24.957
23428	14.385	2.	0.1	29.375
23429	14.477	2.0909	0.1	28.606
23430	14.202	2.	0.1	33.294
23431	14.293	2.0909	0.1	32.518
23432	14.019	2.	0.1	37.495
23433	14.11	2.0909	0.1	36.716
23434	13.836	2.	0.1	41.999
23435	13.927	2.0909	0.1	41.225
23436	13.652	2.	0.1	46.83
23437	13.744	2.0909	0.1	46.072
23438	13.469	2.	0.1	52.013
23439	13.561	2.0909	0.1	51.284
23440	13.286	2.	0.1	57.573
23441	13.378	2.0909	0.1	56.891
23442	13.103	2.	0.1	63.534
23443	13.195	2.0909	0.1	62.922
23444	12.92	2.	0.1	69.922
23445	13.011	2.0909	0.1	69.409
23446	12.737	2.	0.1	76.761
23447	12.828	2.0909	0.1	76.383
23448	12.554	2.	0.1	84.074
23449	12.645	2.0909	0.1	83.874
23450	12.37	2.	0.1	91.879
23451	12.462	2.0909	0.1	91.911
23452	12.187	2.	0.1	100.19
23453	12.279	2.0909	0.1	100.52
23454	12.004	2.	0.1	109.02
23455	12.096	2.0909	0.1	109.73
23456	11.821	2.	0.1	118.37
23457	11.913	2.0909	0.1	119.55
23458	11.638	2.	0.1	128.23
23459	11.73	2.0909	0.1	130.
23460	11.455	2.	0.1	138.56
23461	11.546	2.0909	0.1	141.05
23462	11.272	2.	0.1	149.32
23463	11.363	2.0909	0.1	152.68
23464	11.089	2.	0.1	160.41
23465	11.18	2.0909	0.1	164.84
23466	10.905	2.	0.1	171.7
23467	10.997	2.0909	0.1	177.42
23468	10.722	2.	0.1	183.
23469	10.814	2.0909	0.1	190.25
23470	10.539	2.	0.1	193.98
23471	10.631	2.0909	0.1	203.09
23472	10.356	2.	0.1	204.21
23473	10.448	2.0909	0.1	215.57
23474	10.173	2.	0.1	213.02
23475	10.264	2.0909	0.1	227.12
23476	9.9897	2.	0.1	219.38
23477	10.081	2.0909	0.1	236.9
23478	9.8065	2.	0.1	221.77
23479	9.8981	2.0909	0.1	243.66
23480	9.6234	2.	0.1	217.85
23481	9.7149	2.0909	0.1	245.54
23482	9.4402	2.	0.1	204.
23483	9.5318	2.0909	0.1	239.73
23484	9.2571	2.	0.1	174.56
23485	9.3487	2.0909	0.1	222.
23486	9.0739	2.	0.1	120.97
23487	9.1655	2.0909	0.1	185.8
23488	8.8908	2.	0.1	35.727
23489	8.9824	2.0909	0.1	121.69
23490	8.7077	2.	0.1	9.9285
23491	8.7992	2.0909	0.1	20.866
23492	8.5245	2.	0.1	-30.177
23493	8.6161	2.0909	0.1	12.028
23494	8.3414	2.	0.1	241.73
23495	8.433	2.0909	0.1	-57.012
23496	8.2498	2.0909	0.1	241.01
23497	8.1582	2.	0.1	453.04
23498	23.725	2.1818	0.1	-0.22163
23499	23.817	2.2727	0.1	-0.20553
23500	23.908	2.1818	0.1	-0.43747
23501	23.542	2.1818	0.1	-0.22464
23502	23.634	2.2727	0.1	-0.32657
23503	23.359	2.1818	0.1	-0.12914
23504	23.451	2.2727	0.1	-0.14205
23505	23.176	2.1818	0.1	-0.10626
23506	23.267	2.2727	0.1	-0.12426
23507	22.993	2.1818	0.1	-8.3714e-002
23508	23.084	2.2727	0.1	-9.2837e-002
23509	22.81	2.1818	0.1	-7.0419e-002
23510	22.901	2.2727	0.1	-7.7742e-002
23511	22.626	2.1818	0.1	-6.0171e-002
23512	22.718	2.2727	0.1	-6.5546e-002
23513	22.443	2.1818	0.1	-5.2537e-002
23514	22.535	2.2727	0.1	-5.6857e-002
23515	22.26	2.1818	0.1	-4.6503e-002
23516	22.352	2.2727	0.1	-5.004e-002
23517	22.077	2.1818	0.1	-4.1643e-002
23518	22.169	2.2727	0.1	-4.4636e-002
23519	21.894	2.1818	0.1	-3.7638e-002
23520	21.985	2.2727	0.1	-4.0217e-002
23521	21.711	2.1818	0.1	-3.4285e-002
23522	21.802	2.2727	0.1	-3.6548e-002
23523	21.528	2.1818	0.1	-3.1433e-002
23524	21.619	2.2727	0.1	-3.3448e-002
23525	21.344	2.1818	0.1	-2.8977e-002
23526	21.436	2.2727	0.1	-3.0791e-002
23527	21.161	2.1818	0.1	-2.6844e-002
23528	21.253	2.2727	0.1	-2.8491e-002
23529	20.978	2.1818	0.1	-2.497e-002
23530	21.07	2.2727	0.1	-2.648e-002
23531	20.795	2.1818	0.1	-2.3311e-002
23532	20.887	2.2727	0.1	-2.4704e-002
23533	20.612	2.1818	0.1	-2.1838e-002
23534	20.703	2.2727	0.1	-2.3125e-002
23535	20.429	2.1818	0.1	-2.052e-002
23536	20.52	2.2727	0.1	-2.1723e-002
23537	20.246	2.1818	0.1	-1.9327e-002
23538	20.337	2.2727	0.1	-2.0456e-002
23539	20.062	2.1818	0.1	-1.8249e-002
23540	20.154	2.2727	0.1	-1.9307e-002
23541	19.879	2.1818	0.1	-1.7269e-002
23542	19.971	2.2727	0.1	-1.8267e-002
23543	19.696	2.1818	0.1	-1.6369e-002
23544	19.788	2.2727	0.1	-1.7318e-002
23545	19.513	2.1818	0.1	-1.5542e-002
23546	19.605	2.2727	0.1	-1.6442e-002
23547	19.33	2.1818	0.1	-1.4787e-002
23548	19.421	2.2727	0.1	-1.5639e-002
23549	19.147	2.1818	0.1	-1.4088e-002
23550	19.238	2.2727	0.1	-1.4909e-002
23551	18.964	2.1818	0.1	-1.343e-002
23552	19.055	2.2727	0.1	-1.4219e-002
23553	18.78	2.1818	0.1	-1.2817e-002
23554	18.872	2.2727	0.1	-1.3575e-002
23555	18.597	2.1818	0.1	-1.2241e-002
23556	18.689	2.2727	0.1	-1.2975e-002
23557	18.414	2.1818	0.1	-1.1699e-002
23558	18.506	2.2727	0.1	-1.2408e-002
23559	18.231	2.1818	0.1	-1.1184e-002
23560	18.323	2.2727	0.1	-1.1878e-002
23561	18.048	2.1818	0.1	-1.068e-002
23562	18.139	2.2727	0.1	-1.1369e-002
23563	17.865	2.1818	0.1	-1.0189e-002
23564	17.956	2.2727	0.1	-1.0864e-002
23565	17.682	2.1818	0.1	-9.7126e-003
23566	17.773	2.2727	0.1	-1.0385e-002
23567	17.498	2.1818	0.1	-9.227e-003
23568	17.59	2.2727	0.1	-9.9134e-003
23569	17.315	2.1818	0.1	-8.712e-003
23570	17.407	2.2727	0.1	-9.4251e-003
23571	17.132	2.1818	0.1	-8.1402e-003
23572	17.224	2.2727	0.1	-8.9047e-003
23573	16.949	2.1818	0.1	-7.4278e-003
23574	17.041	2.2727	0.1	-8.3126e-003
23575	16.766	2.1818	0.1	-6.3286e-003
23576	16.857	2.2727	0.1	-7.5152e-003
23577	16.583	2.1818	0.1	-3.7213e-003
23578	16.674	2.2727	0.1	-6.0389e-003
23579	16.4	2.1818	0.1	6.7628e-002
23580	16.491	2.2727	0.1	1.1091e-003
23581	16.216	2.1818	0.1	2.0944
23582	16.308	2.2727	0.1	1.3056
23583	16.033	2.1818	0.1	4.3464
23584	16.125	2.2727	0.1	3.5434
23585	15.85	2.1818	0.1	6.7125
23586	15.942	2.2727	0.1	5.8923
23587	15.667	2.1818	0.1	9.2068
23588	15.759	2.2727	0.1	8.365
23589	15.484	2.1818	0.1	11.845
23590	15.575	2.2727	0.1	10.978
23591	15.301	2.1818	0.1	14.644
23592	15.392	2.2727	0.1	13.747
23593	15.118	2.1818	0.1	17.623
23594	15.209	2.2727	0.1	16.692
23595	14.934	2.1818	0.1	20.799
23596	15.026	2.2727	0.1	19.832
23597	14.751	2.1818	0.1	24.195
23598	14.843	2.2727	0.1	23.188
23599	14.568	2.1818	0.1	27.832
23600	14.66	2.2727	0.1	26.782
23601	14.385	2.1818	0.1	31.733
23602	14.477	2.2727	0.1	30.639
23603	14.202	2.1818	0.1	35.924
23604	14.293	2.2727	0.1	34.785
23605	14.019	2.1818	0.1	40.432
23606	14.11	2.2727	0.1	39.248
23607	13.836	2.1818	0.1	45.285
23608	13.927	2.2727	0.1	44.058
23609	13.652	2.1818	0.1	50.513
23610	13.744	2.2727	0.1	49.248
23611	13.469	2.1818	0.1	56.151
23612	13.561	2.2727	0.1	54.852
23613	13.286	2.1818	0.1	62.23
23614	13.378	2.2727	0.1	60.908
23615	13.103	2.1818	0.1	68.788
23616	13.195	2.2727	0.1	67.454
23617	12.92	2.1818	0.1	75.861
23618	13.011	2.2727	0.1	74.533
23619	12.737	2.1818	0.1	83.487
23620	12.828	2.2727	0.1	82.186
23621	12.554	2.1818	0.1	91.705
23622	12.645	2.2727	0.1	90.461
23623	12.37	2.1818	0.1	100.55
23624	12.462	2.2727	0.1	99.4
23625	12.187	2.1818	0.1	110.06
23626	12.279	2.2727	0.1	109.05
23627	12.004	2.1818	0.1	120.26
23628	12.096	2.2727	0.1	119.45
23629	11.821	2.1818	0.1	131.17
23630	11.913	2.2727	0.1	130.63
23631	11.638	2.1818	0.1	142.81
23632	11.73	2.2727	0.1	142.63
23633	11.455	2.1818	0.1	155.16
23634	11.546	2.2727	0.1	155.45
23635	11.272	2.1818	0.1	168.2
23636	11.363	2.2727	0.1	169.09
23637	11.089	2.1818	0.1	181.84
23638	11.18	2.2727	0.1	183.49
23639	10.905	2.1818	0.1	195.96
23640	10.997	2.2727	0.1	198.57
23641	10.722	2.1818	0.1	210.36
23642	10.814	2.2727	0.1	214.16
23643	10.539	2.1818	0.1	224.71
23644	10.631	2.2727	0.1	229.99
23645	10.356	2.1818	0.1	238.53
23646	10.448	2.2727	0.1	245.66
23647	10.173	2.1818	0.1	251.11
23648	10.264	2.2727	0.1	260.53
23649	9.9897	2.1818	0.1	261.39
23650	10.081	2.2727	0.1	273.71
23651	9.8065	2.1818	0.1	267.81
23652	9.8981	2.2727	0.1	283.81
23653	9.6234	2.1818	0.1	268.06
23654	9.7149	2.2727	0.1	288.84
23655	9.4402	2.1818	0.1	258.75
23656	9.5318	2.2727	0.1	285.88
23657	9.2571	2.1818	0.1	234.79
23658	9.3487	2.2727	0.1	270.66
23659	9.0739	2.1818	0.1	188.75
23660	9.1655	2.2727	0.1	236.8
23661	8.8908	2.1818	0.1	108.4
23662	8.9824	2.2727	0.1	175.09
23663	8.7077	2.1818	0.1	5.17
23664	8.7992	2.2727	0.1	70.308
23665	8.5245	2.1818	0.1	-14.445
23666	8.6161	2.2727	0.1	7.8923e-002
23667	8.3414	2.1818	0.1	-14.996
23668	8.433	2.2727	0.1	-13.388
23669	8.2498	2.2727	0.1	11.009
23670	8.1582	2.1818	0.1	-32.668
23671	23.725	2.3636	0.1	-0.22553
23672	23.817	2.4545	0.1	-0.21072
23673	23.908	2.3636	0.1	-0.43875
23674	23.542	2.3636	0.1	-0.22706
23675	23.634	2.4545	0.1	-0.32907
23676	23.359	2.3636	0.1	-0.13103
23677	23.451	2.4545	0.1	-0.14379
23678	23.176	2.3636	0.1	-0.10794
23679	23.267	2.4545	0.1	-0.12578
23680	22.993	2.3636	0.1	-8.5254e-002
23681	23.084	2.4545	0.1	-9.4201e-002
23682	22.81	2.3636	0.1	-7.1866e-002
23683	22.901	2.4545	0.1	-7.9008e-002
23684	22.626	2.3636	0.1	-6.1554e-002
23685	22.718	2.4545	0.1	-6.6744e-002
23686	22.443	2.3636	0.1	-5.3873e-002
23687	22.535	2.4545	0.1	-5.801e-002
23688	22.26	2.3636	0.1	-4.7803e-002
23689	22.352	2.4545	0.1	-5.1159e-002
23690	22.077	2.3636	0.1	-4.2916e-002
23691	22.169	2.4545	0.1	-4.5729e-002
23692	21.894	2.3636	0.1	-3.8887e-002
23693	21.985	2.4545	0.1	-4.1289e-002
23694	21.711	2.3636	0.1	-3.5509e-002
23695	21.802	2.4545	0.1	-3.7601e-002
23696	21.528	2.3636	0.1	-3.2632e-002
23697	21.619	2.4545	0.1	-3.4481e-002
23698	21.344	2.3636	0.1	-3.0151e-002
23699	21.436	2.4545	0.1	-3.1804e-002
23700	21.161	2.3636	0.1	-2.799e-002
23701	21.253	2.4545	0.1	-2.9484e-002
23702	20.978	2.3636	0.1	-2.6091e-002
23703	21.07	2.4545	0.1	-2.7452e-002
23704	20.795	2.3636	0.1	-2.4406e-002
23705	20.887	2.4545	0.1	-2.5654e-002
23706	20.612	2.3636	0.1	-2.2907e-002
23707	20.703	2.4545	0.1	-2.4055e-002
23708	20.429	2.3636	0.1	-2.1564e-002
23709	20.52	2.4545	0.1	-2.2631e-002
23710	20.246	2.3636	0.1	-2.0346e-002
23711	20.337	2.4545	0.1	-2.1342e-002
23712	20.062	2.3636	0.1	-1.9241e-002
23713	20.154	2.4545	0.1	-2.0172e-002
23714	19.879	2.3636	0.1	-1.8237e-002
23715	19.971	2.4545	0.1	-1.9112e-002
23716	19.696	2.3636	0.1	-1.7316e-002
23717	19.788	2.4545	0.1	-1.8144e-002
23718	19.513	2.3636	0.1	-1.6467e-002
23719	19.605	2.4545	0.1	-1.725e-002
23720	19.33	2.3636	0.1	-1.5693e-002
23721	19.421	2.4545	0.1	-1.643e-002
23722	19.147	2.3636	0.1	-1.4975e-002
23723	19.238	2.4545	0.1	-1.5684e-002
23724	18.964	2.3636	0.1	-1.4301e-002
23725	19.055	2.4545	0.1	-1.498e-002
23726	18.78	2.3636	0.1	-1.3672e-002
23727	18.872	2.4545	0.1	-1.4322e-002
23728	18.597	2.3636	0.1	-1.3084e-002
23729	18.689	2.4545	0.1	-1.3711e-002
23730	18.414	2.3636	0.1	-1.2531e-002
23731	18.506	2.4545	0.1	-1.3136e-002
23732	18.231	2.3636	0.1	-1.2009e-002
23733	18.323	2.4545	0.1	-1.2599e-002
23734	18.048	2.3636	0.1	-1.1502e-002
23735	18.139	2.4545	0.1	-1.2087e-002
23736	17.865	2.3636	0.1	-1.1012e-002
23737	17.956	2.4545	0.1	-1.1582e-002
23738	17.682	2.3636	0.1	-1.0542e-002
23739	17.773	2.4545	0.1	-1.1109e-002
23740	17.498	2.3636	0.1	-1.0072e-002
23741	17.59	2.4545	0.1	-1.0651e-002
23742	17.315	2.3636	0.1	-9.5877e-003
23743	17.407	2.4545	0.1	-1.0186e-002
23744	17.132	2.3636	0.1	-9.0664e-003
23745	17.224	2.4545	0.1	-9.7077e-003
23746	16.949	2.3636	0.1	-8.4435e-003
23747	17.041	2.4545	0.1	-9.1885e-003
23748	16.766	2.3636	0.1	-7.5056e-003
23749	16.857	2.4545	0.1	-8.5278e-003
23750	16.583	2.3636	0.1	-5.028e-003
23751	16.674	2.4545	0.1	-7.3274e-003
23752	16.4	2.3636	0.1	0.50389
23753	16.491	2.4545	0.1	3.1395e-003
23754	16.216	2.3636	0.1	2.7282
23755	16.308	2.4545	0.1	1.8254
23756	16.033	2.3636	0.1	5.0651
23757	16.125	2.4545	0.1	4.1367
23758	15.85	2.3636	0.1	7.5214
23759	15.942	2.4545	0.1	6.5623
23760	15.667	2.3636	0.1	10.113
23761	15.759	2.4545	0.1	9.1176
23762	15.484	2.3636	0.1	12.858
23763	15.575	2.4545	0.1	11.82
23764	15.301	2.3636	0.1	15.774
23765	15.392	2.4545	0.1	14.688
23766	15.118	2.3636	0.1	18.881
23767	15.209	2.4545	0.1	17.741
23768	14.934	2.3636	0.1	22.201
23769	15.026	2.4545	0.1	21.001
23770	14.751	2.3636	0.1	25.757
23771	14.843	2.4545	0.1	24.49
23772	14.568	2.3636	0.1	29.572
23773	14.66	2.4545	0.1	28.235
23774	14.385	2.3636	0.1	33.675
23775	14.477	2.4545	0.1	32.26
23776	14.202	2.3636	0.1	38.095
23777	14.293	2.4545	0.1	36.597
23778	14.019	2.3636	0.1	42.861
23779	14.11	2.4545	0.1	41.276
23780	13.836	2.3636	0.1	48.01
23781	13.927	2.4545	0.1	46.332
23782	13.652	2.3636	0.1	53.576
23783	13.744	2.4545	0.1	51.802
23784	13.469	2.3636	0.1	59.599
23785	13.561	2.4545	0.1	57.727
23786	13.286	2.3636	0.1	66.122
23787	13.378	2.4545	0.1	64.152
23788	13.103	2.3636	0.1	73.19
23789	13.195	2.4545	0.1	71.122
23790	12.92	2.3636	0.1	80.851
23791	13.011	2.4545	0.1	78.689
23792	12.737	2.3636	0.1	89.153
23793	12.828	2.4545	0.1	86.906
23794	12.554	2.3636	0.1	98.15
23795	12.645	2.4545	0.1	95.83
23796	12.37	2.3636	0.1	107.89
23797	12.462	2.4545	0.1	105.52
23798	12.187	2.3636	0.1	118.43
23799	12.279	2.4545	0.1	116.03
23800	12.004	2.3636	0.1	129.82
23801	12.096	2.4545	0.1	127.42
23802	11.821	2.3636	0.1	142.09
23803	11.913	2.4545	0.1	139.74
23804	11.638	2.3636	0.1	155.27
23805	11.73	2.4545	0.1	153.04
23806	11.455	2.3636	0.1	169.38
23807	11.546	2.4545	0.1	167.33
23808	11.272	2.3636	0.1	184.38
23809	11.363	2.4545	0.1	182.64
23810	11.089	2.3636	0.1	200.22
23811	11.18	2.4545	0.1	198.91
23812	10.905	2.3636	0.1	216.76
23813	10.997	2.4545	0.1	216.05
23814	10.722	2.3636	0.1	233.79
23815	10.814	2.4545	0.1	233.9
23816	10.539	2.3636	0.1	250.95
23817	10.631	2.4545	0.1	252.16
23818	10.356	2.3636	0.1	267.69
23819	10.448	2.4545	0.1	270.35
23820	10.173	2.3636	0.1	283.19
23821	10.264	2.4545	0.1	287.77
23822	9.9897	2.3636	0.1	296.24
23823	10.081	2.4545	0.1	303.34
23824	9.8065	2.3636	0.1	305.04
23825	9.8981	2.4545	0.1	315.47
23826	9.6234	2.3636	0.1	306.99
23827	9.7149	2.4545	0.1	321.82
23828	9.4402	2.3636	0.1	298.26
23829	9.5318	2.4545	0.1	318.96
23830	9.2571	2.3636	0.1	273.24
23831	9.3487	2.4545	0.1	301.9
23832	9.0739	2.3636	0.1	223.6
23833	9.1655	2.4545	0.1	263.34
23834	8.8908	2.3636	0.1	136.63
23835	8.9824	2.4545	0.1	192.65
23836	8.7077	2.3636	0.1	0.13084
23837	8.7992	2.4545	0.1	74.389
23838	8.5245	2.3636	0.1	2.1056
23839	8.6161	2.4545	0.1	-2.4005
23840	8.3414	2.3636	0.1	13.346
23841	8.433	2.4545	0.1	4.2919
23842	8.2498	2.4545	0.1	6.2945
23843	8.1582	2.3636	0.1	28.298
23844	23.725	2.5455	0.1	-0.22833
23845	23.817	2.6364	0.1	-0.21433
23846	23.908	2.5455	0.1	-0.43966
23847	23.542	2.5455	0.1	-0.22878
23848	23.634	2.6364	0.1	-0.33078
23849	23.359	2.5455	0.1	-0.13238
23850	23.451	2.6364	0.1	-0.14498
23851	23.176	2.5455	0.1	-0.10914
23852	23.267	2.6364	0.1	-0.12682
23853	22.993	2.5455	0.1	-8.6345e-002
23854	23.084	2.6364	0.1	-9.513e-002
23855	22.81	2.5455	0.1	-7.2888e-002
23856	22.901	2.6364	0.1	-7.9868e-002
23857	22.626	2.5455	0.1	-6.2529e-002
23858	22.718	2.6364	0.1	-6.7557e-002
23859	22.443	2.5455	0.1	-5.4816e-002
23860	22.535	2.6364	0.1	-5.8792e-002
23861	22.26	2.5455	0.1	-4.8723e-002
23862	22.352	2.6364	0.1	-5.1919e-002
23863	22.077	2.5455	0.1	-4.3817e-002
23864	22.169	2.6364	0.1	-4.6472e-002
23865	21.894	2.5455	0.1	-3.9771e-002
23866	21.985	2.6364	0.1	-4.2018e-002
23867	21.711	2.5455	0.1	-3.6379e-002
23868	21.802	2.6364	0.1	-3.8317e-002
23869	21.528	2.5455	0.1	-3.3487e-002
23870	21.619	2.6364	0.1	-3.5186e-002
23871	21.344	2.5455	0.1	-3.0991e-002
23872	21.436	2.6364	0.1	-3.2499e-002
23873	21.161	2.5455	0.1	-2.8815e-002
23874	21.253	2.6364	0.1	-3.0166e-002
23875	20.978	2.5455	0.1	-2.6898e-002
23876	21.07	2.6364	0.1	-2.8121e-002
23877	20.795	2.5455	0.1	-2.5196e-002
23878	20.887	2.6364	0.1	-2.6309e-002
23879	20.612	2.5455	0.1	-2.3681e-002
23880	20.703	2.6364	0.1	-2.4697e-002
23881	20.429	2.5455	0.1	-2.2318e-002
23882	20.52	2.6364	0.1	-2.3259e-002
23883	20.246	2.5455	0.1	-2.1083e-002
23884	20.337	2.6364	0.1	-2.1955e-002
23885	20.062	2.5455	0.1	-1.9962e-002
23886	20.154	2.6364	0.1	-2.0773e-002
23887	19.879	2.5455	0.1	-1.8942e-002
23888	19.971	2.6364	0.1	-1.9699e-002
23889	19.696	2.5455	0.1	-1.8006e-002
23890	19.788	2.6364	0.1	-1.8719e-002
23891	19.513	2.5455	0.1	-1.7144e-002
23892	19.605	2.6364	0.1	-1.7813e-002
23893	19.33	2.5455	0.1	-1.6355e-002
23894	19.421	2.6364	0.1	-1.6983e-002
23895	19.147	2.5455	0.1	-1.5625e-002
23896	19.238	2.6364	0.1	-1.6226e-002
23897	18.964	2.5455	0.1	-1.494e-002
23898	19.055	2.6364	0.1	-1.5514e-002
23899	18.78	2.5455	0.1	-1.4302e-002
23900	18.872	2.6364	0.1	-1.4847e-002
23901	18.597	2.5455	0.1	-1.3706e-002
23902	18.689	2.6364	0.1	-1.4231e-002
23903	18.414	2.5455	0.1	-1.3149e-002
23904	18.506	2.6364	0.1	-1.365e-002
23905	18.231	2.5455	0.1	-1.2623e-002
23906	18.323	2.6364	0.1	-1.311e-002
23907	18.048	2.5455	0.1	-1.2115e-002
23908	18.139	2.6364	0.1	-1.2597e-002
23909	17.865	2.5455	0.1	-1.1629e-002
23910	17.956	2.6364	0.1	-1.2094e-002
23911	17.682	2.5455	0.1	-1.1169e-002
23912	17.773	2.6364	0.1	-1.1628e-002
23913	17.498	2.5455	0.1	-1.0717e-002
23914	17.59	2.6364	0.1	-1.1182e-002
23915	17.315	2.5455	0.1	-1.0263e-002
23916	17.407	2.6364	0.1	-1.074e-002
23917	17.132	2.5455	0.1	-9.7979e-003
23918	17.224	2.6364	0.1	-1.0301e-002
23919	16.949	2.5455	0.1	-9.2769e-003
23920	17.041	2.6364	0.1	-9.8519e-003
23921	16.766	2.5455	0.1	-8.5521e-003
23922	16.857	2.6364	0.1	-9.3328e-003
23923	16.583	2.5455	0.1	-6.5867e-003
23924	16.674	2.6364	0.1	-8.4995e-003
23925	16.4	2.5455	0.1	0.91712
23926	16.491	2.6364	0.1	1.7369e-002
23927	16.216	2.5455	0.1	3.2087
23928	16.308	2.6364	0.1	2.2004
23929	16.033	2.5455	0.1	5.61
23930	16.125	2.6364	0.1	4.5643
23931	15.85	2.5455	0.1	8.1354
23932	15.942	2.6364	0.1	7.0456
23933	15.667	2.5455	0.1	10.802
23934	15.759	2.6364	0.1	9.6611
23935	15.484	2.5455	0.1	13.629
23936	15.575	2.6364	0.1	12.429
23937	15.301	2.5455	0.1	16.635
23938	15.392	2.6364	0.1	15.369
23939	15.118	2.5455	0.1	19.841
23940	15.209	2.6364	0.1	18.501
23941	14.934	2.5455	0.1	23.272
23942	15.026	2.6364	0.1	21.849
23943	14.751	2.5455	0.1	26.951
23944	14.843	2.6364	0.1	25.436
23945	14.568	2.5455	0.1	30.906
23946	14.66	2.6364	0.1	29.291
23947	14.385	2.5455	0.1	35.166
23948	14.477	2.6364	0.1	33.44
23949	14.202	2.5455	0.1	39.763
23950	14.293	2.6364	0.1	37.917
23951	14.019	2.5455	0.1	44.732
23952	14.11	2.6364	0.1	42.756
23953	13.836	2.5455	0.1	50.112
23954	13.927	2.6364	0.1	47.993
23955	13.652	2.5455	0.1	55.943
23956	13.744	2.6364	0.1	53.672
23957	13.469	2.5455	0.1	62.27
23958	13.561	2.6364	0.1	59.836
23959	13.286	2.5455	0.1	69.142
23960	13.378	2.6364	0.1	66.535
23961	13.103	2.5455	0.1	76.613
23962	13.195	2.6364	0.1	73.822
23963	12.92	2.5455	0.1	84.738
23964	13.011	2.6364	0.1	81.753
23965	12.737	2.5455	0.1	93.577
23966	12.828	2.6364	0.1	90.391
23967	12.554	2.5455	0.1	103.19
23968	12.645	2.6364	0.1	99.801
23969	12.37	2.5455	0.1	113.65
23970	12.462	2.6364	0.1	110.05
23971	12.187	2.5455	0.1	125.01
23972	12.279	2.6364	0.1	121.21
23973	12.004	2.5455	0.1	137.34
23974	12.096	2.6364	0.1	133.34
23975	11.821	2.5455	0.1	150.69
23976	11.913	2.6364	0.1	146.52
23977	11.638	2.5455	0.1	165.1
23978	11.73	2.6364	0.1	160.79
23979	11.455	2.5455	0.1	180.59
23980	11.546	2.6364	0.1	176.2
23981	11.272	2.5455	0.1	197.16
23982	11.363	2.6364	0.1	192.75
23983	11.089	2.5455	0.1	214.74
23984	11.18	2.6364	0.1	210.41
23985	10.905	2.5455	0.1	233.19
23986	10.997	2.6364	0.1	229.1
23987	10.722	2.5455	0.1	252.26
23988	10.814	2.6364	0.1	248.62
23989	10.539	2.5455	0.1	271.56
23990	10.631	2.6364	0.1	268.64
23991	10.356	2.5455	0.1	290.44
23992	10.448	2.6364	0.1	288.63
23993	10.173	2.5455	0.1	307.93
23994	10.264	2.6364	0.1	307.78
23995	9.9897	2.5455	0.1	322.59
23996	10.081	2.6364	0.1	324.82
23997	9.8065	2.5455	0.1	332.26
23998	9.8981	2.6364	0.1	337.88
23999	9.6234	2.5455	0.1	333.77
24000	9.7149	2.6364	0.1	344.19
24001	9.4402	2.5455	0.1	322.46
24002	9.5318	2.6364	0.1	339.67
24003	9.2571	2.5455	0.1	291.53
24004	9.3487	2.6364	0.1	318.35
24005	9.0739	2.5455	0.1	231.08
24006	9.1655	2.6364	0.1	271.68
24007	8.8908	2.5455	0.1	126.94
24008	8.9824	2.6364	0.1	187.7
24009	8.7077	2.5455	0.1	0.72981
24010	8.7992	2.6364	0.1	51.087
24011	8.5245	2.5455	0.1	-0.20314
24012	8.6161	2.6364	0.1	-0.41313
24013	8.3414	2.5455	0.1	-2.521
24014	8.433	2.6364	0.1	-0.26779
24015	8.2498	2.6364	0.1	-0.94351
24016	8.1582	2.5455	0.1	-3.1056
24017	23.725	2.7273	0.1	-0.23015
24018	23.817	2.8182	0.1	-0.21645
24019	23.908	2.7273	0.1	-0.44024
24020	23.542	2.7273	0.1	-0.22989
24021	23.634	2.8182	0.1	-0.33179
24022	23.359	2.7273	0.1	-0.13324
24023	23.451	2.8182	0.1	-0.14568
24024	23.176	2.7273	0.1	-0.10991
24025	23.267	2.8182	0.1	-0.12743
24026	22.993	2.7273	0.1	-8.7044e-002
24027	23.084	2.8182	0.1	-9.5668e-002
24028	22.81	2.7273	0.1	-7.3543e-002
24029	22.901	2.8182	0.1	-8.0367e-002
24030	22.626	2.7273	0.1	-6.3154e-002
24031	22.718	2.8182	0.1	-6.8029e-002
24032	22.443	2.7273	0.1	-5.5419e-002
24033	22.535	2.8182	0.1	-5.9245e-002
24034	22.26	2.7273	0.1	-4.9311e-002
24035	22.352	2.8182	0.1	-5.2359e-002
24036	22.077	2.7273	0.1	-4.4394e-002
24037	22.169	2.8182	0.1	-4.6904e-002
24038	21.894	2.7273	0.1	-4.0338e-002
24039	21.985	2.8182	0.1	-4.2441e-002
24040	21.711	2.7273	0.1	-3.6936e-002
24041	21.802	2.8182	0.1	-3.8734e-002
24042	21.528	2.7273	0.1	-3.4036e-002
24043	21.619	2.8182	0.1	-3.5597e-002
24044	21.344	2.7273	0.1	-3.1532e-002
24045	21.436	2.8182	0.1	-3.2904e-002
24046	21.161	2.7273	0.1	-2.9346e-002
24047	21.253	2.8182	0.1	-3.0563e-002
24048	20.978	2.7273	0.1	-2.7419e-002
24049	21.07	2.8182	0.1	-2.8512e-002
24050	20.795	2.7273	0.1	-2.5707e-002
24051	20.887	2.8182	0.1	-2.6693e-002
24052	20.612	2.7273	0.1	-2.418e-002
24053	20.703	2.8182	0.1	-2.5072e-002
24054	20.429	2.7273	0.1	-2.2807e-002
24055	20.52	2.8182	0.1	-2.3627e-002
24056	20.246	2.7273	0.1	-2.1563e-002
24057	20.337	2.8182	0.1	-2.2316e-002
24058	20.062	2.7273	0.1	-2.0432e-002
24059	20.154	2.8182	0.1	-2.1126e-002
24060	19.879	2.7273	0.1	-1.9402e-002
24061	19.971	2.8182	0.1	-2.0045e-002
24062	19.696	2.7273	0.1	-1.8456e-002
24063	19.788	2.8182	0.1	-1.9058e-002
24064	19.513	2.7273	0.1	-1.7585e-002
24065	19.605	2.8182	0.1	-1.8146e-002
24066	19.33	2.7273	0.1	-1.6789e-002
24067	19.421	2.8182	0.1	-1.7309e-002
24068	19.147	2.7273	0.1	-1.6052e-002
24069	19.238	2.8182	0.1	-1.6546e-002
24070	18.964	2.7273	0.1	-1.536e-002
24071	19.055	2.8182	0.1	-1.5829e-002
24072	18.78	2.7273	0.1	-1.4717e-002
24073	18.872	2.8182	0.1	-1.5159e-002
24074	18.597	2.7273	0.1	-1.4117e-002
24075	18.689	2.8182	0.1	-1.4539e-002
24076	18.414	2.7273	0.1	-1.3556e-002
24077	18.506	2.8182	0.1	-1.3956e-002
24078	18.231	2.7273	0.1	-1.3029e-002
24079	18.323	2.8182	0.1	-1.3414e-002
24080	18.048	2.7273	0.1	-1.2522e-002
24081	18.139	2.8182	0.1	-1.2901e-002
24082	17.865	2.7273	0.1	-1.204e-002
24083	17.956	2.8182	0.1	-1.2401e-002
24084	17.682	2.7273	0.1	-1.1588e-002
24085	17.773	2.8182	0.1	-1.1939e-002
24086	17.498	2.7273	0.1	-1.1151e-002
24087	17.59	2.8182	0.1	-1.1502e-002
24088	17.315	2.7273	0.1	-1.0723e-002
24089	17.407	2.8182	0.1	-1.1076e-002
24090	17.132	2.7273	0.1	-1.0303e-002
24091	17.224	2.8182	0.1	-1.0664e-002
24092	16.949	2.7273	0.1	-9.8697e-003
24093	17.041	2.8182	0.1	-1.0265e-002
24094	16.766	2.7273	0.1	-9.3513e-003
24095	16.857	2.8182	0.1	-9.8538e-003
24096	16.583	2.7273	0.1	-8.1988e-003
24097	16.674	2.8182	0.1	-9.346e-003
24098	16.4	2.7273	0.1	1.1976
24099	16.491	2.8182	0.1	0.1375
24100	16.216	2.7273	0.1	3.5314
24101	16.308	2.8182	0.1	2.4268
24102	16.033	2.7273	0.1	5.9762
24103	16.125	2.8182	0.1	4.8224
24104	15.85	2.7273	0.1	8.5483
24105	15.942	2.8182	0.1	7.3375
24106	15.667	2.7273	0.1	11.266
24107	15.759	2.8182	0.1	9.9895
24108	15.484	2.7273	0.1	14.148
24109	15.575	2.8182	0.1	12.797
24110	15.301	2.7273	0.1	17.215
24111	15.392	2.8182	0.1	15.781
24112	15.118	2.7273	0.1	20.489
24113	15.209	2.8182	0.1	18.961
24114	14.934	2.7273	0.1	23.995
24115	15.026	2.8182	0.1	22.363
24116	14.751	2.7273	0.1	27.759
24117	14.843	2.8182	0.1	26.01
24118	14.568	2.7273	0.1	31.809
24119	14.66	2.8182	0.1	29.932
24120	14.385	2.7273	0.1	36.176
24121	14.477	2.8182	0.1	34.157
24122	14.202	2.7273	0.1	40.895
24123	14.293	2.8182	0.1	38.72
24124	14.019	2.7273	0.1	46.004
24125	14.11	2.8182	0.1	43.657
24126	13.836	2.7273	0.1	51.542
24127	13.927	2.8182	0.1	49.006
24128	13.652	2.7273	0.1	57.555
24129	13.744	2.8182	0.1	54.813
24130	13.469	2.7273	0.1	64.092
24131	13.561	2.8182	0.1	61.124
24132	13.286	2.7273	0.1	71.205
24133	13.378	2.8182	0.1	67.992
24134	13.103	2.7273	0.1	78.954
24135	13.195	2.8182	0.1	75.474
24136	12.92	2.7273	0.1	87.4
24137	13.011	2.8182	0.1	83.631
24138	12.737	2.7273	0.1	96.611
24139	12.828	2.8182	0.1	92.529
24140	12.554	2.7273	0.1	106.65
24141	12.645	2.8182	0.1	102.24
24142	12.37	2.7273	0.1	117.61
24143	12.462	2.8182	0.1	112.84
24144	12.187	2.7273	0.1	129.54
24145	12.279	2.8182	0.1	124.39
24146	12.004	2.7273	0.1	142.52
24147	12.096	2.8182	0.1	136.99
24148	11.821	2.7273	0.1	156.62
24149	11.913	2.8182	0.1	150.7
24150	11.638	2.7273	0.1	171.88
24151	11.73	2.8182	0.1	165.57
24152	11.455	2.7273	0.1	188.35
24153	11.546	2.8182	0.1	181.66
24154	11.272	2.7273	0.1	206.
24155	11.363	2.8182	0.1	198.99
24156	11.089	2.7273	0.1	224.77
24157	11.18	2.8182	0.1	217.52
24158	10.905	2.7273	0.1	244.53
24159	10.997	2.8182	0.1	237.15
24160	10.722	2.7273	0.1	264.99
24161	10.814	2.8182	0.1	257.69
24162	10.539	2.7273	0.1	285.71
24163	10.631	2.8182	0.1	278.78
24164	10.356	2.7273	0.1	305.95
24165	10.448	2.8182	0.1	299.84
24166	10.173	2.7273	0.1	324.62
24167	10.264	2.8182	0.1	319.95
24168	9.9897	2.7273	0.1	340.02
24169	10.081	2.8182	0.1	337.73
24170	9.8065	2.7273	0.1	349.64
24171	9.8981	2.8182	0.1	351.08
24172	9.6234	2.7273	0.1	349.74
24173	9.7149	2.8182	0.1	356.86
24174	9.4402	2.7273	0.1	334.84
24175	9.5318	2.8182	0.1	350.46
24176	9.2571	2.7273	0.1	297.08
24177	9.3487	2.8182	0.1	325.18
24178	9.0739	2.7273	0.1	225.54
24179	9.1655	2.8182	0.1	271.57
24180	8.8908	2.7273	0.1	106.37
24181	8.9824	2.8182	0.1	177.16
24182	8.7077	2.7273	0.1	-0.67431
24183	8.7992	2.8182	0.1	27.958
24184	8.5245	2.7273	0.1	-0.38009
24185	8.6161	2.8182	0.1	-0.94066
24186	8.3414	2.7273	0.1	1.5971
24187	8.433	2.8182	0.1	-2.6938e-002
24188	8.2498	2.8182	0.1	1.7078
24189	8.1582	2.7273	0.1	3.6557
24190	23.725	2.9091	0.1	-0.23105
24191	23.817	3.	0.1	-0.21716
24192	23.908	2.9091	0.1	-0.44052
24193	23.542	2.9091	0.1	-0.23043
24194	23.634	3.	0.1	-0.33212
24195	23.359	2.9091	0.1	-0.13367
24196	23.451	3.	0.1	-0.1459
24197	23.176	2.9091	0.1	-0.11028
24198	23.267	3.	0.1	-0.12763
24199	22.993	2.9091	0.1	-8.7383e-002
24200	23.084	3.	0.1	-9.5846e-002
24201	22.81	2.9091	0.1	-7.3861e-002
24202	22.901	3.	0.1	-8.0532e-002
24203	22.626	2.9091	0.1	-6.3457e-002
24204	22.718	3.	0.1	-6.8184e-002
24205	22.443	2.9091	0.1	-5.5712e-002
24206	22.535	3.	0.1	-5.9393e-002
24207	22.26	2.9091	0.1	-4.9597e-002
24208	22.352	3.	0.1	-5.2503e-002
24209	22.077	2.9091	0.1	-4.4674e-002
24210	22.169	3.	0.1	-4.7044e-002
24211	21.894	2.9091	0.1	-4.0614e-002
24212	21.985	3.	0.1	-4.258e-002
24213	21.711	2.9091	0.1	-3.7209e-002
24214	21.802	3.	0.1	-3.8871e-002
24215	21.528	2.9091	0.1	-3.4306e-002
24216	21.619	3.	0.1	-3.5733e-002
24217	21.344	2.9091	0.1	-3.1796e-002
24218	21.436	3.	0.1	-3.3037e-002
24219	21.161	2.9091	0.1	-2.9606e-002
24220	21.253	3.	0.1	-3.0694e-002
24221	20.978	2.9091	0.1	-2.7675e-002
24222	21.07	3.	0.1	-2.8641e-002
24223	20.795	2.9091	0.1	-2.5957e-002
24224	20.887	3.	0.1	-2.6819e-002
24225	20.612	2.9091	0.1	-2.4426e-002
24226	20.703	3.	0.1	-2.5196e-002
24227	20.429	2.9091	0.1	-2.3049e-002
24228	20.52	3.	0.1	-2.3748e-002
24229	20.246	2.9091	0.1	-2.1798e-002
24230	20.337	3.	0.1	-2.2435e-002
24231	20.062	2.9091	0.1	-2.0662e-002
24232	20.154	3.	0.1	-2.1242e-002
24233	19.879	2.9091	0.1	-1.9628e-002
24234	19.971	3.	0.1	-2.0159e-002
24235	19.696	2.9091	0.1	-1.8679e-002
24236	19.788	3.	0.1	-1.9169e-002
24237	19.513	2.9091	0.1	-1.7804e-002
24238	19.605	3.	0.1	-1.8256e-002
24239	19.33	2.9091	0.1	-1.7003e-002
24240	19.421	3.	0.1	-1.7417e-002
24241	19.147	2.9091	0.1	-1.6262e-002
24242	19.238	3.	0.1	-1.6652e-002
24243	18.964	2.9091	0.1	-1.5568e-002
24244	19.055	3.	0.1	-1.5934e-002
24245	18.78	2.9091	0.1	-1.4923e-002
24246	18.872	3.	0.1	-1.5262e-002
24247	18.597	2.9091	0.1	-1.432e-002
24248	18.689	3.	0.1	-1.464e-002
24249	18.414	2.9091	0.1	-1.3758e-002
24250	18.506	3.	0.1	-1.4057e-002
24251	18.231	2.9091	0.1	-1.323e-002
24252	18.323	3.	0.1	-1.3515e-002
24253	18.048	2.9091	0.1	-1.2724e-002
24254	18.139	3.	0.1	-1.3001e-002
24255	17.865	2.9091	0.1	-1.2244e-002
24256	17.956	3.	0.1	-1.2502e-002
24257	17.682	2.9091	0.1	-1.1797e-002
24258	17.773	3.	0.1	-1.2042e-002
24259	17.498	2.9091	0.1	-1.1369e-002
24260	17.59	3.	0.1	-1.1609e-002
24261	17.315	2.9091	0.1	-1.0955e-002
24262	17.407	3.	0.1	-1.1189e-002
24263	17.132	2.9091	0.1	-1.0561e-002
24264	17.224	3.	0.1	-1.0786e-002
24265	16.949	2.9091	0.1	-1.0178e-002
24266	17.041	3.	0.1	-1.0406e-002
24267	16.766	2.9091	0.1	-9.7873e-003
24268	16.857	3.	0.1	-1.0034e-002
24269	16.583	2.9091	0.1	-9.3189e-003
24270	16.674	3.	0.1	-9.6577e-003
24271	16.4	2.9091	0.1	1.3387
24272	16.491	3.	0.1	0.19986
24273	16.216	2.9091	0.1	3.6934
24274	16.308	3.	0.1	2.5025
24275	16.033	2.9091	0.1	6.1601
24276	16.125	3.	0.1	4.9087
24277	15.85	2.9091	0.1	8.7559
24278	15.942	3.	0.1	7.4351
24279	15.667	2.9091	0.1	11.499
24280	15.759	3.	0.1	10.099
24281	15.484	2.9091	0.1	14.409
24282	15.575	3.	0.1	12.92
24283	15.301	2.9091	0.1	17.507
24284	15.392	3.	0.1	15.918
24285	15.118	2.9091	0.1	20.815
24286	15.209	3.	0.1	19.115
24287	14.934	2.9091	0.1	24.36
24288	15.026	3.	0.1	22.535
24289	14.751	2.9091	0.1	28.166
24290	14.843	3.	0.1	26.203
24291	14.568	2.9091	0.1	32.264
24292	14.66	3.	0.1	30.147
24293	14.385	2.9091	0.1	36.686
24294	14.477	3.	0.1	34.398
24295	14.202	2.9091	0.1	41.468
24296	14.293	3.	0.1	38.99
24297	14.019	2.9091	0.1	46.646
24298	14.11	3.	0.1	43.959
24299	13.836	2.9091	0.1	52.266
24300	13.927	3.	0.1	49.347
24301	13.652	2.9091	0.1	58.371
24302	13.744	3.	0.1	55.196
24303	13.469	2.9091	0.1	65.015
24304	13.561	3.	0.1	61.557
24305	13.286	2.9091	0.1	72.252
24306	13.378	3.	0.1	68.482
24307	13.103	2.9091	0.1	80.143
24308	13.195	3.	0.1	76.03
24309	12.92	2.9091	0.1	88.754
24310	13.011	3.	0.1	84.263
24311	12.737	2.9091	0.1	98.154
24312	12.828	3.	0.1	93.25
24313	12.554	2.9091	0.1	108.42
24314	12.645	3.	0.1	103.06
24315	12.37	2.9091	0.1	119.62
24316	12.462	3.	0.1	113.78
24317	12.187	2.9091	0.1	131.85
24318	12.279	3.	0.1	125.47
24319	12.004	2.9091	0.1	145.16
24320	12.096	3.	0.1	138.22
24321	11.821	2.9091	0.1	159.65
24322	11.913	3.	0.1	152.11
24323	11.638	2.9091	0.1	175.35
24324	11.73	3.	0.1	167.19
24325	11.455	2.9091	0.1	192.31
24326	11.546	3.	0.1	183.51
24327	11.272	2.9091	0.1	210.51
24328	11.363	3.	0.1	201.1
24329	11.089	2.9091	0.1	229.9
24330	11.18	3.	0.1	219.92
24331	10.905	2.9091	0.1	250.32
24332	10.997	3.	0.1	239.88
24333	10.722	2.9091	0.1	271.48
24334	10.814	3.	0.1	260.76
24335	10.539	2.9091	0.1	292.9
24336	10.631	3.	0.1	282.2
24337	10.356	2.9091	0.1	313.8
24338	10.448	3.	0.1	303.61
24339	10.173	2.9091	0.1	332.99
24340	10.264	3.	0.1	324.04
24341	9.9897	2.9091	0.1	348.64
24342	10.081	3.	0.1	342.03
24343	9.8065	2.9091	0.1	358.
24344	9.8981	3.	0.1	355.42
24345	9.6234	2.9091	0.1	356.99
24346	9.7149	3.	0.1	360.93
24347	9.4402	2.9091	0.1	339.67
24348	9.5318	3.	0.1	353.74
24349	9.2571	2.9091	0.1	297.6
24350	9.3487	3.	0.1	326.88
24351	9.0739	2.9091	0.1	219.58
24352	9.1655	3.	0.1	270.62
24353	8.8908	2.9091	0.1	92.603
24354	8.9824	3.	0.1	172.42
24355	8.7077	2.9091	0.1	-1.0309
24356	8.7992	3.	0.1	18.83
24357	8.5245	2.9091	0.1	-0.468
24358	8.6161	3.	0.1	-0.98984
24359	8.3414	2.9091	0.1	0.19838
24360	8.433	3.	0.1	-6.1028e-002
24361	8.2498	3.	0.1	0.34696
24362	8.1582	2.9091	0.1	1.2302
24363	23.725	3.0909	0.1	-0.23105
24364	23.817	3.1818	0.1	-0.21645
24365	23.908	3.0909	0.1	-0.44052
24366	23.542	3.0909	0.1	-0.23043
24367	23.634	3.1818	0.1	-0.33179
24368	23.359	3.0909	0.1	-0.13366
24369	23.451	3.1818	0.1	-0.14568
24370	23.176	3.0909	0.1	-0.11028
24371	23.267	3.1818	0.1	-0.12743
24372	22.993	3.0909	0.1	-8.7386e-002
24373	23.084	3.1818	0.1	-9.5669e-002
24374	22.81	3.0909	0.1	-7.3863e-002
24375	22.901	3.1818	0.1	-8.0369e-002
24376	22.626	3.0909	0.1	-6.3457e-002
24377	22.718	3.1818	0.1	-6.8029e-002
24378	22.443	3.0909	0.1	-5.5712e-002
24379	22.535	3.1818	0.1	-5.9244e-002
24380	22.26	3.0909	0.1	-4.9597e-002
24381	22.352	3.1818	0.1	-5.2359e-002
24382	22.077	3.0909	0.1	-4.4675e-002
24383	22.169	3.1818	0.1	-4.6903e-002
24384	21.894	3.0909	0.1	-4.0615e-002
24385	21.985	3.1818	0.1	-4.2441e-002
24386	21.711	3.0909	0.1	-3.7209e-002
24387	21.802	3.1818	0.1	-3.8734e-002
24388	21.528	3.0909	0.1	-3.4305e-002
24389	21.619	3.1818	0.1	-3.5598e-002
24390	21.344	3.0909	0.1	-3.1796e-002
24391	21.436	3.1818	0.1	-3.2904e-002
24392	21.161	3.0909	0.1	-2.9606e-002
24393	21.253	3.1818	0.1	-3.0563e-002
24394	20.978	3.0909	0.1	-2.7675e-002
24395	21.07	3.1818	0.1	-2.8512e-002
24396	20.795	3.0909	0.1	-2.5958e-002
24397	20.887	3.1818	0.1	-2.6694e-002
24398	20.612	3.0909	0.1	-2.4426e-002
24399	20.703	3.1818	0.1	-2.5072e-002
24400	20.429	3.0909	0.1	-2.3049e-002
24401	20.52	3.1818	0.1	-2.3628e-002
24402	20.246	3.0909	0.1	-2.1799e-002
24403	20.337	3.1818	0.1	-2.2316e-002
24404	20.062	3.0909	0.1	-2.0664e-002
24405	20.154	3.1818	0.1	-2.1126e-002
24406	19.879	3.0909	0.1	-1.9629e-002
24407	19.971	3.1818	0.1	-2.0046e-002
24408	19.696	3.0909	0.1	-1.8678e-002
24409	19.788	3.1818	0.1	-1.9057e-002
24410	19.513	3.0909	0.1	-1.7804e-002
24411	19.605	3.1818	0.1	-1.8147e-002
24412	19.33	3.0909	0.1	-1.7003e-002
24413	19.421	3.1818	0.1	-1.731e-002
24414	19.147	3.0909	0.1	-1.6262e-002
24415	19.238	3.1818	0.1	-1.6546e-002
24416	18.964	3.0909	0.1	-1.5568e-002
24417	19.055	3.1818	0.1	-1.583e-002
24418	18.78	3.0909	0.1	-1.4921e-002
24419	18.872	3.1818	0.1	-1.5158e-002
24420	18.597	3.0909	0.1	-1.4319e-002
24421	18.689	3.1818	0.1	-1.4538e-002
24422	18.414	3.0909	0.1	-1.3757e-002
24423	18.506	3.1818	0.1	-1.3955e-002
24424	18.231	3.0909	0.1	-1.323e-002
24425	18.323	3.1818	0.1	-1.3414e-002
24426	18.048	3.0909	0.1	-1.2724e-002
24427	18.139	3.1818	0.1	-1.29e-002
24428	17.865	3.0909	0.1	-1.2244e-002
24429	17.956	3.1818	0.1	-1.2401e-002
24430	17.682	3.0909	0.1	-1.1797e-002
24431	17.773	3.1818	0.1	-1.1939e-002
24432	17.498	3.0909	0.1	-1.1369e-002
24433	17.59	3.1818	0.1	-1.1502e-002
24434	17.315	3.0909	0.1	-1.0956e-002
24435	17.407	3.1818	0.1	-1.1076e-002
24436	17.132	3.0909	0.1	-1.0561e-002
24437	17.224	3.1818	0.1	-1.0663e-002
24438	16.949	3.0909	0.1	-1.0179e-002
24439	17.041	3.1818	0.1	-1.0265e-002
24440	16.766	3.0909	0.1	-9.787e-003
24441	16.857	3.1818	0.1	-9.8536e-003
24442	16.583	3.0909	0.1	-9.3184e-003
24443	16.674	3.1818	0.1	-9.3457e-003
24444	16.4	3.0909	0.1	1.3387
24445	16.491	3.1818	0.1	0.1375
24446	16.216	3.0909	0.1	3.6934
24447	16.308	3.1818	0.1	2.4268
24448	16.033	3.0909	0.1	6.1601
24449	16.125	3.1818	0.1	4.8224
24450	15.85	3.0909	0.1	8.7559
24451	15.942	3.1818	0.1	7.3375
24452	15.667	3.0909	0.1	11.499
24453	15.759	3.1818	0.1	9.9895
24454	15.484	3.0909	0.1	14.409
24455	15.575	3.1818	0.1	12.797
24456	15.301	3.0909	0.1	17.507
24457	15.392	3.1818	0.1	15.781
24458	15.118	3.0909	0.1	20.815
24459	15.209	3.1818	0.1	18.961
24460	14.934	3.0909	0.1	24.36
24461	15.026	3.1818	0.1	22.363
24462	14.751	3.0909	0.1	28.166
24463	14.843	3.1818	0.1	26.01
24464	14.568	3.0909	0.1	32.264
24465	14.66	3.1818	0.1	29.932
24466	14.385	3.0909	0.1	36.686
24467	14.477	3.1818	0.1	34.157
24468	14.202	3.0909	0.1	41.468
24469	14.293	3.1818	0.1	38.72
24470	14.019	3.0909	0.1	46.646
24471	14.11	3.1818	0.1	43.657
24472	13.836	3.0909	0.1	52.266
24473	13.927	3.1818	0.1	49.006
24474	13.652	3.0909	0.1	58.371
24475	13.744	3.1818	0.1	54.813
24476	13.469	3.0909	0.1	65.015
24477	13.561	3.1818	0.1	61.124
24478	13.286	3.0909	0.1	72.252
24479	13.378	3.1818	0.1	67.992
24480	13.103	3.0909	0.1	80.143
24481	13.195	3.1818	0.1	75.474
24482	12.92	3.0909	0.1	88.754
24483	13.011	3.1818	0.1	83.631
24484	12.737	3.0909	0.1	98.154
24485	12.828	3.1818	0.1	92.529
24486	12.554	3.0909	0.1	108.42
24487	12.645	3.1818	0.1	102.24
24488	12.37	3.0909	0.1	119.62
24489	12.462	3.1818	0.1	112.84
24490	12.187	3.0909	0.1	131.85
24491	12.279	3.1818	0.1	124.39
24492	12.004	3.0909	0.1	145.16
24493	12.096	3.1818	0.1	136.99
24494	11.821	3.0909	0.1	159.65
24495	11.913	3.1818	0.1	150.7
24496	11.638	3.0909	0.1	175.35
24497	11.73	3.1818	0.1	165.57
24498	11.455	3.0909	0.1	192.31
24499	11.546	3.1818	0.1	181.66
24500	11.272	3.0909	0.1	210.51
24501	11.363	3.1818	0.1	198.99
24502	11.089	3.0909	0.1	229.9
24503	11.18	3.1818	0.1	217.52
24504	10.905	3.0909	0.1	250.32
24505	10.997	3.1818	0.1	237.15
24506	10.722	3.0909	0.1	271.48
24507	10.814	3.1818	0.1	257.69
24508	10.539	3.0909	0.1	292.9
24509	10.631	3.1818	0.1	278.78
24510	10.356	3.0909	0.1	313.8
24511	10.448	3.1818	0.1	299.84
24512	10.173	3.0909	0.1	332.99
24513	10.264	3.1818	0.1	319.95
24514	9.9897	3.0909	0.1	348.64
24515	10.081	3.1818	0.1	337.73
24516	9.8065	3.0909	0.1	358.
24517	9.8981	3.1818	0.1	351.08
24518	9.6234	3.0909	0.1	356.99
24519	9.7149	3.1818	0.1	356.86
24520	9.4402	3.0909	0.1	339.67
24521	9.5318	3.1818	0.1	350.46
24522	9.2571	3.0909	0.1	297.6
24523	9.3487	3.1818	0.1	325.18
24524	9.0739	3.0909	0.1	219.58
24525	9.1655	3.1818	0.1	271.57
24526	8.8908	3.0909	0.1	92.603
24527	8.9824	3.1818	0.1	177.16
24528	8.7077	3.0909	0.1	-1.0309
24529	8.7992	3.1818	0.1	27.958
24530	8.5245	3.0909	0.1	-0.468
24531	8.6161	3.1818	0.1	-0.94066
24532	8.3414	3.0909	0.1	0.19838
24533	8.433	3.1818	0.1	-2.6938e-002
24534	8.2498	3.1818	0.1	1.7078
24535	8.1582	3.0909	0.1	1.2302
24536	23.725	3.2727	0.1	-0.23015
24537	23.817	3.3636	0.1	-0.21433
24538	23.908	3.2727	0.1	-0.44024
24539	23.542	3.2727	0.1	-0.22989
24540	23.634	3.3636	0.1	-0.33078
24541	23.359	3.2727	0.1	-0.13324
24542	23.451	3.3636	0.1	-0.14498
24543	23.176	3.2727	0.1	-0.10991
24544	23.267	3.3636	0.1	-0.12682
24545	22.993	3.2727	0.1	-8.7043e-002
24546	23.084	3.3636	0.1	-9.5128e-002
24547	22.81	3.2727	0.1	-7.3543e-002
24548	22.901	3.3636	0.1	-7.9869e-002
24549	22.626	3.2727	0.1	-6.3153e-002
24550	22.718	3.3636	0.1	-6.7557e-002
24551	22.443	3.2727	0.1	-5.5419e-002
24552	22.535	3.3636	0.1	-5.8792e-002
24553	22.26	3.2727	0.1	-4.9312e-002
24554	22.352	3.3636	0.1	-5.1919e-002
24555	22.077	3.2727	0.1	-4.4394e-002
24556	22.169	3.3636	0.1	-4.6472e-002
24557	21.894	3.2727	0.1	-4.0338e-002
24558	21.985	3.3636	0.1	-4.2018e-002
24559	21.711	3.2727	0.1	-3.6937e-002
24560	21.802	3.3636	0.1	-3.8318e-002
24561	21.528	3.2727	0.1	-3.4037e-002
24562	21.619	3.3636	0.1	-3.5187e-002
24563	21.344	3.2727	0.1	-3.1532e-002
24564	21.436	3.3636	0.1	-3.2499e-002
24565	21.161	3.2727	0.1	-2.9346e-002
24566	21.253	3.3636	0.1	-3.0166e-002
24567	20.978	3.2727	0.1	-2.7419e-002
24568	21.07	3.3636	0.1	-2.8121e-002
24569	20.795	3.2727	0.1	-2.5708e-002
24570	20.887	3.3636	0.1	-2.6309e-002
24571	20.612	3.2727	0.1	-2.4181e-002
24572	20.703	3.3636	0.1	-2.4696e-002
24573	20.429	3.2727	0.1	-2.2809e-002
24574	20.52	3.3636	0.1	-2.3259e-002
24575	20.246	3.2727	0.1	-2.1562e-002
24576	20.337	3.3636	0.1	-2.1956e-002
24577	20.062	3.2727	0.1	-2.0432e-002
24578	20.154	3.3636	0.1	-2.0772e-002
24579	19.879	3.2727	0.1	-1.9402e-002
24580	19.971	3.3636	0.1	-1.97e-002
24581	19.696	3.2727	0.1	-1.8456e-002
24582	19.788	3.3636	0.1	-1.8719e-002
24583	19.513	3.2727	0.1	-1.7586e-002
24584	19.605	3.3636	0.1	-1.7814e-002
24585	19.33	3.2727	0.1	-1.6789e-002
24586	19.421	3.3636	0.1	-1.6983e-002
24587	19.147	3.2727	0.1	-1.6052e-002
24588	19.238	3.3636	0.1	-1.6226e-002
24589	18.964	3.2727	0.1	-1.536e-002
24590	19.055	3.3636	0.1	-1.5514e-002
24591	18.78	3.2727	0.1	-1.4717e-002
24592	18.872	3.3636	0.1	-1.4848e-002
24593	18.597	3.2727	0.1	-1.4116e-002
24594	18.689	3.3636	0.1	-1.423e-002
24595	18.414	3.2727	0.1	-1.3555e-002
24596	18.506	3.3636	0.1	-1.365e-002
24597	18.231	3.2727	0.1	-1.3028e-002
24598	18.323	3.3636	0.1	-1.311e-002
24599	18.048	3.2727	0.1	-1.2521e-002
24600	18.139	3.3636	0.1	-1.2596e-002
24601	17.865	3.2727	0.1	-1.204e-002
24602	17.956	3.3636	0.1	-1.2094e-002
24603	17.682	3.2727	0.1	-1.1587e-002
24604	17.773	3.3636	0.1	-1.1628e-002
24605	17.498	3.2727	0.1	-1.1151e-002
24606	17.59	3.3636	0.1	-1.1181e-002
24607	17.315	3.2727	0.1	-1.0723e-002
24608	17.407	3.3636	0.1	-1.074e-002
24609	17.132	3.2727	0.1	-1.0302e-002
24610	17.224	3.3636	0.1	-1.03e-002
24611	16.949	3.2727	0.1	-9.8689e-003
24612	17.041	3.3636	0.1	-9.8513e-003
24613	16.766	3.2727	0.1	-9.3511e-003
24614	16.857	3.3636	0.1	-9.3332e-003
24615	16.583	3.2727	0.1	-8.1991e-003
24616	16.674	3.3636	0.1	-8.4996e-003
24617	16.4	3.2727	0.1	1.1975
24618	16.491	3.3636	0.1	1.7367e-002
24619	16.216	3.2727	0.1	3.5314
24620	16.308	3.3636	0.1	2.2004
24621	16.033	3.2727	0.1	5.9762
24622	16.125	3.3636	0.1	4.5643
24623	15.85	3.2727	0.1	8.5483
24624	15.942	3.3636	0.1	7.0456
24625	15.667	3.2727	0.1	11.266
24626	15.759	3.3636	0.1	9.6611
24627	15.484	3.2727	0.1	14.148
24628	15.575	3.3636	0.1	12.429
24629	15.301	3.2727	0.1	17.215
24630	15.392	3.3636	0.1	15.369
24631	15.118	3.2727	0.1	20.489
24632	15.209	3.3636	0.1	18.501
24633	14.934	3.2727	0.1	23.995
24634	15.026	3.3636	0.1	21.849
24635	14.751	3.2727	0.1	27.759
24636	14.843	3.3636	0.1	25.436
24637	14.568	3.2727	0.1	31.809
24638	14.66	3.3636	0.1	29.291
24639	14.385	3.2727	0.1	36.176
24640	14.477	3.3636	0.1	33.44
24641	14.202	3.2727	0.1	40.895
24642	14.293	3.3636	0.1	37.917
24643	14.019	3.2727	0.1	46.004
24644	14.11	3.3636	0.1	42.756
24645	13.836	3.2727	0.1	51.542
24646	13.927	3.3636	0.1	47.993
24647	13.652	3.2727	0.1	57.555
24648	13.744	3.3636	0.1	53.672
24649	13.469	3.2727	0.1	64.092
24650	13.561	3.3636	0.1	59.836
24651	13.286	3.2727	0.1	71.205
24652	13.378	3.3636	0.1	66.535
24653	13.103	3.2727	0.1	78.954
24654	13.195	3.3636	0.1	73.822
24655	12.92	3.2727	0.1	87.4
24656	13.011	3.3636	0.1	81.753
24657	12.737	3.2727	0.1	96.611
24658	12.828	3.3636	0.1	90.391
24659	12.554	3.2727	0.1	106.65
24660	12.645	3.3636	0.1	99.801
24661	12.37	3.2727	0.1	117.61
24662	12.462	3.3636	0.1	110.05
24663	12.187	3.2727	0.1	129.54
24664	12.279	3.3636	0.1	121.21
24665	12.004	3.2727	0.1	142.52
24666	12.096	3.3636	0.1	133.34
24667	11.821	3.2727	0.1	156.62
24668	11.913	3.3636	0.1	146.52
24669	11.638	3.2727	0.1	171.88
24670	11.73	3.3636	0.1	160.79
24671	11.455	3.2727	0.1	188.35
24672	11.546	3.3636	0.1	176.2
24673	11.272	3.2727	0.1	206.
24674	11.363	3.3636	0.1	192.75
24675	11.089	3.2727	0.1	224.77
24676	11.18	3.3636	0.1	210.41
24677	10.905	3.2727	0.1	244.53
24678	10.997	3.3636	0.1	229.1
24679	10.722	3.2727	0.1	264.99
24680	10.814	3.3636	0.1	248.62
24681	10.539	3.2727	0.1	285.71
24682	10.631	3.3636	0.1	268.64
24683	10.356	3.2727	0.1	305.95
24684	10.448	3.3636	0.1	288.63
24685	10.173	3.2727	0.1	324.62
24686	10.264	3.3636	0.1	307.78
24687	9.9897	3.2727	0.1	340.02
24688	10.081	3.3636	0.1	324.82
24689	9.8065	3.2727	0.1	349.64
24690	9.8981	3.3636	0.1	337.88
24691	9.6234	3.2727	0.1	349.74
24692	9.7149	3.3636	0.1	344.19
24693	9.4402	3.2727	0.1	334.84
24694	9.5318	3.3636	0.1	339.67
24695	9.2571	3.2727	0.1	297.08
24696	9.3487	3.3636	0.1	318.35
24697	9.0739	3.2727	0.1	225.54
24698	9.1655	3.3636	0.1	271.68
24699	8.8908	3.2727	0.1	106.37
24700	8.9824	3.3636	0.1	187.7
24701	8.7077	3.2727	0.1	-0.67431
24702	8.7992	3.3636	0.1	51.087
24703	8.5245	3.2727	0.1	-0.38009
24704	8.6161	3.3636	0.1	-0.41313
24705	8.3414	3.2727	0.1	1.5971
24706	8.433	3.3636	0.1	-0.26779
24707	8.2498	3.3636	0.1	-0.94351
24708	8.1582	3.2727	0.1	3.6557
24709	23.725	3.4545	0.1	-0.22833
24710	23.817	3.5455	0.1	-0.21072
24711	23.908	3.4545	0.1	-0.43966
24712	23.542	3.4545	0.1	-0.22878
24713	23.634	3.5455	0.1	-0.32907
24714	23.359	3.4545	0.1	-0.13238
24715	23.451	3.5455	0.1	-0.14379
24716	23.176	3.4545	0.1	-0.10914
24717	23.267	3.5455	0.1	-0.12578
24718	22.993	3.4545	0.1	-8.6345e-002
24719	23.084	3.5455	0.1	-9.4201e-002
24720	22.81	3.4545	0.1	-7.2889e-002
24721	22.901	3.5455	0.1	-7.9007e-002
24722	22.626	3.4545	0.1	-6.253e-002
24723	22.718	3.5455	0.1	-6.6744e-002
24724	22.443	3.4545	0.1	-5.4816e-002
24725	22.535	3.5455	0.1	-5.8011e-002
24726	22.26	3.4545	0.1	-4.8723e-002
24727	22.352	3.5455	0.1	-5.1159e-002
24728	22.077	3.4545	0.1	-4.3818e-002
24729	22.169	3.5455	0.1	-4.5729e-002
24730	21.894	3.4545	0.1	-3.9772e-002
24731	21.985	3.5455	0.1	-4.1289e-002
24732	21.711	3.4545	0.1	-3.6379e-002
24733	21.802	3.5455	0.1	-3.7599e-002
24734	21.528	3.4545	0.1	-3.3487e-002
24735	21.619	3.5455	0.1	-3.4481e-002
24736	21.344	3.4545	0.1	-3.0991e-002
24737	21.436	3.5455	0.1	-3.1805e-002
24738	21.161	3.4545	0.1	-2.8815e-002
24739	21.253	3.5455	0.1	-2.9484e-002
24740	20.978	3.4545	0.1	-2.6898e-002
24741	21.07	3.5455	0.1	-2.7453e-002
24742	20.795	3.4545	0.1	-2.5195e-002
24743	20.887	3.5455	0.1	-2.5654e-002
24744	20.612	3.4545	0.1	-2.368e-002
24745	20.703	3.5455	0.1	-2.4055e-002
24746	20.429	3.4545	0.1	-2.2318e-002
24747	20.52	3.5455	0.1	-2.2631e-002
24748	20.246	3.4545	0.1	-2.1084e-002
24749	20.337	3.5455	0.1	-2.1342e-002
24750	20.062	3.4545	0.1	-1.9963e-002
24751	20.154	3.5455	0.1	-2.0172e-002
24752	19.879	3.4545	0.1	-1.8943e-002
24753	19.971	3.5455	0.1	-1.9112e-002
24754	19.696	3.4545	0.1	-1.8006e-002
24755	19.788	3.5455	0.1	-1.8143e-002
24756	19.513	3.4545	0.1	-1.7144e-002
24757	19.605	3.5455	0.1	-1.7251e-002
24758	19.33	3.4545	0.1	-1.6356e-002
24759	19.421	3.5455	0.1	-1.6431e-002
24760	19.147	3.4545	0.1	-1.5625e-002
24761	19.238	3.5455	0.1	-1.5683e-002
24762	18.964	3.4545	0.1	-1.494e-002
24763	19.055	3.5455	0.1	-1.498e-002
24764	18.78	3.4545	0.1	-1.4302e-002
24765	18.872	3.5455	0.1	-1.4322e-002
24766	18.597	3.4545	0.1	-1.3706e-002
24767	18.689	3.5455	0.1	-1.3712e-002
24768	18.414	3.4545	0.1	-1.3149e-002
24769	18.506	3.5455	0.1	-1.3137e-002
24770	18.231	3.4545	0.1	-1.2623e-002
24771	18.323	3.5455	0.1	-1.2599e-002
24772	18.048	3.4545	0.1	-1.2115e-002
24773	18.139	3.5455	0.1	-1.2087e-002
24774	17.865	3.4545	0.1	-1.1628e-002
24775	17.956	3.5455	0.1	-1.1582e-002
24776	17.682	3.4545	0.1	-1.1168e-002
24777	17.773	3.5455	0.1	-1.1109e-002
24778	17.498	3.4545	0.1	-1.0717e-002
24779	17.59	3.5455	0.1	-1.0651e-002
24780	17.315	3.4545	0.1	-1.0264e-002
24781	17.407	3.5455	0.1	-1.0186e-002
24782	17.132	3.4545	0.1	-9.7978e-003
24783	17.224	3.5455	0.1	-9.7073e-003
24784	16.949	3.4545	0.1	-9.2775e-003
24785	17.041	3.5455	0.1	-9.1885e-003
24786	16.766	3.4545	0.1	-8.5527e-003
24787	16.857	3.5455	0.1	-8.5287e-003
24788	16.583	3.4545	0.1	-6.5868e-003
24789	16.674	3.5455	0.1	-7.3269e-003
24790	16.4	3.4545	0.1	0.91711
24791	16.491	3.5455	0.1	3.139e-003
24792	16.216	3.4545	0.1	3.2087
24793	16.308	3.5455	0.1	1.8253
24794	16.033	3.4545	0.1	5.61
24795	16.125	3.5455	0.1	4.1367
24796	15.85	3.4545	0.1	8.1354
24797	15.942	3.5455	0.1	6.5623
24798	15.667	3.4545	0.1	10.802
24799	15.759	3.5455	0.1	9.1176
24800	15.484	3.4545	0.1	13.629
24801	15.575	3.5455	0.1	11.82
24802	15.301	3.4545	0.1	16.635
24803	15.392	3.5455	0.1	14.688
24804	15.118	3.4545	0.1	19.841
24805	15.209	3.5455	0.1	17.741
24806	14.934	3.4545	0.1	23.272
24807	15.026	3.5455	0.1	21.001
24808	14.751	3.4545	0.1	26.951
24809	14.843	3.5455	0.1	24.49
24810	14.568	3.4545	0.1	30.906
24811	14.66	3.5455	0.1	28.235
24812	14.385	3.4545	0.1	35.166
24813	14.477	3.5455	0.1	32.26
24814	14.202	3.4545	0.1	39.763
24815	14.293	3.5455	0.1	36.597
24816	14.019	3.4545	0.1	44.732
24817	14.11	3.5455	0.1	41.276
24818	13.836	3.4545	0.1	50.112
24819	13.927	3.5455	0.1	46.332
24820	13.652	3.4545	0.1	55.943
24821	13.744	3.5455	0.1	51.802
24822	13.469	3.4545	0.1	62.27
24823	13.561	3.5455	0.1	57.727
24824	13.286	3.4545	0.1	69.142
24825	13.378	3.5455	0.1	64.152
24826	13.103	3.4545	0.1	76.613
24827	13.195	3.5455	0.1	71.122
24828	12.92	3.4545	0.1	84.738
24829	13.011	3.5455	0.1	78.689
24830	12.737	3.4545	0.1	93.577
24831	12.828	3.5455	0.1	86.906
24832	12.554	3.4545	0.1	103.19
24833	12.645	3.5455	0.1	95.83
24834	12.37	3.4545	0.1	113.65
24835	12.462	3.5455	0.1	105.52
24836	12.187	3.4545	0.1	125.01
24837	12.279	3.5455	0.1	116.03
24838	12.004	3.4545	0.1	137.34
24839	12.096	3.5455	0.1	127.42
24840	11.821	3.4545	0.1	150.69
24841	11.913	3.5455	0.1	139.74
24842	11.638	3.4545	0.1	165.1
24843	11.73	3.5455	0.1	153.04
24844	11.455	3.4545	0.1	180.59
24845	11.546	3.5455	0.1	167.33
24846	11.272	3.4545	0.1	197.16
24847	11.363	3.5455	0.1	182.64
24848	11.089	3.4545	0.1	214.74
24849	11.18	3.5455	0.1	198.91
24850	10.905	3.4545	0.1	233.19
24851	10.997	3.5455	0.1	216.05
24852	10.722	3.4545	0.1	252.26
24853	10.814	3.5455	0.1	233.9
24854	10.539	3.4545	0.1	271.56
24855	10.631	3.5455	0.1	252.16
24856	10.356	3.4545	0.1	290.44
24857	10.448	3.5455	0.1	270.35
24858	10.173	3.4545	0.1	307.93
24859	10.264	3.5455	0.1	287.77
24860	9.9897	3.4545	0.1	322.59
24861	10.081	3.5455	0.1	303.34
24862	9.8065	3.4545	0.1	332.26
24863	9.8981	3.5455	0.1	315.47
24864	9.6234	3.4545	0.1	333.77
24865	9.7149	3.5455	0.1	321.82
24866	9.4402	3.4545	0.1	322.46
24867	9.5318	3.5455	0.1	318.96
24868	9.2571	3.4545	0.1	291.53
24869	9.3487	3.5455	0.1	301.9
24870	9.0739	3.4545	0.1	231.08
24871	9.1655	3.5455	0.1	263.34
24872	8.8908	3.4545	0.1	126.94
24873	8.9824	3.5455	0.1	192.65
24874	8.7077	3.4545	0.1	0.72981
24875	8.7992	3.5455	0.1	74.389
24876	8.5245	3.4545	0.1	-0.20315
24877	8.6161	3.5455	0.1	-2.4005
24878	8.3414	3.4545	0.1	-2.521
24879	8.433	3.5455	0.1	4.2919
24880	8.2498	3.5455	0.1	6.2945
24881	8.1582	3.4545	0.1	-3.1056
24882	23.725	3.6364	0.1	-0.22553
24883	23.817	3.7273	0.1	-0.20553
24884	23.908	3.6364	0.1	-0.43875
24885	23.542	3.6364	0.1	-0.22706
24886	23.634	3.7273	0.1	-0.32657
24887	23.359	3.6364	0.1	-0.13103
24888	23.451	3.7273	0.1	-0.14204
24889	23.176	3.6364	0.1	-0.10794
24890	23.267	3.7273	0.1	-0.12426
24891	22.993	3.6364	0.1	-8.5254e-002
24892	23.084	3.7273	0.1	-9.2838e-002
24893	22.81	3.6364	0.1	-7.1866e-002
24894	22.901	3.7273	0.1	-7.7742e-002
24895	22.626	3.6364	0.1	-6.1555e-002
24896	22.718	3.7273	0.1	-6.5546e-002
24897	22.443	3.6364	0.1	-5.3873e-002
24898	22.535	3.7273	0.1	-5.6857e-002
24899	22.26	3.6364	0.1	-4.7803e-002
24900	22.352	3.7273	0.1	-5.004e-002
24901	22.077	3.6364	0.1	-4.2916e-002
24902	22.169	3.7273	0.1	-4.4636e-002
24903	21.894	3.6364	0.1	-3.8884e-002
24904	21.985	3.7273	0.1	-4.0216e-002
24905	21.711	3.6364	0.1	-3.5507e-002
24906	21.802	3.7273	0.1	-3.6546e-002
24907	21.528	3.6364	0.1	-3.2632e-002
24908	21.619	3.7273	0.1	-3.3447e-002
24909	21.344	3.6364	0.1	-3.0152e-002
24910	21.436	3.7273	0.1	-3.0792e-002
24911	21.161	3.6364	0.1	-2.7992e-002
24912	21.253	3.7273	0.1	-2.8491e-002
24913	20.978	3.6364	0.1	-2.6092e-002
24914	21.07	3.7273	0.1	-2.648e-002
24915	20.795	3.6364	0.1	-2.4407e-002
24916	20.887	3.7273	0.1	-2.4703e-002
24917	20.612	3.6364	0.1	-2.2908e-002
24918	20.703	3.7273	0.1	-2.3126e-002
24919	20.429	3.6364	0.1	-2.1563e-002
24920	20.52	3.7273	0.1	-2.1723e-002
24921	20.246	3.6364	0.1	-2.0345e-002
24922	20.337	3.7273	0.1	-2.0455e-002
24923	20.062	3.6364	0.1	-1.9241e-002
24924	20.154	3.7273	0.1	-1.9307e-002
24925	19.879	3.6364	0.1	-1.8236e-002
24926	19.971	3.7273	0.1	-1.8266e-002
24927	19.696	3.6364	0.1	-1.7316e-002
24928	19.788	3.7273	0.1	-1.7317e-002
24929	19.513	3.6364	0.1	-1.6469e-002
24930	19.605	3.7273	0.1	-1.6443e-002
24931	19.33	3.6364	0.1	-1.5692e-002
24932	19.421	3.7273	0.1	-1.564e-002
24933	19.147	3.6364	0.1	-1.4975e-002
24934	19.238	3.7273	0.1	-1.4908e-002
24935	18.964	3.6364	0.1	-1.43e-002
24936	19.055	3.7273	0.1	-1.4219e-002
24937	18.78	3.6364	0.1	-1.3672e-002
24938	18.872	3.7273	0.1	-1.3574e-002
24939	18.597	3.6364	0.1	-1.3085e-002
24940	18.689	3.7273	0.1	-1.2975e-002
24941	18.414	3.6364	0.1	-1.2531e-002
24942	18.506	3.7273	0.1	-1.2408e-002
24943	18.231	3.6364	0.1	-1.2009e-002
24944	18.323	3.7273	0.1	-1.1877e-002
24945	18.048	3.6364	0.1	-1.1501e-002
24946	18.139	3.7273	0.1	-1.1368e-002
24947	17.865	3.6364	0.1	-1.1012e-002
24948	17.956	3.7273	0.1	-1.0863e-002
24949	17.682	3.6364	0.1	-1.0542e-002
24950	17.773	3.7273	0.1	-1.0385e-002
24951	17.498	3.6364	0.1	-1.0072e-002
24952	17.59	3.7273	0.1	-9.9137e-003
24953	17.315	3.6364	0.1	-9.5869e-003
24954	17.407	3.7273	0.1	-9.4246e-003
24955	17.132	3.6364	0.1	-9.0661e-003
24956	17.224	3.7273	0.1	-8.9047e-003
24957	16.949	3.6364	0.1	-8.4437e-003
24958	17.041	3.7273	0.1	-8.3123e-003
24959	16.766	3.6364	0.1	-7.5054e-003
24960	16.857	3.7273	0.1	-7.5155e-003
24961	16.583	3.6364	0.1	-5.0276e-003
24962	16.674	3.7273	0.1	-6.0385e-003
24963	16.4	3.6364	0.1	0.50388
24964	16.491	3.7273	0.1	1.1089e-003
24965	16.216	3.6364	0.1	2.7282
24966	16.308	3.7273	0.1	1.3055
24967	16.033	3.6364	0.1	5.065
24968	16.125	3.7273	0.1	3.5434
24969	15.85	3.6364	0.1	7.5214
24970	15.942	3.7273	0.1	5.8922
24971	15.667	3.6364	0.1	10.113
24972	15.759	3.7273	0.1	8.365
24973	15.484	3.6364	0.1	12.858
24974	15.575	3.7273	0.1	10.978
24975	15.301	3.6364	0.1	15.774
24976	15.392	3.7273	0.1	13.747
24977	15.118	3.6364	0.1	18.881
24978	15.209	3.7273	0.1	16.692
24979	14.934	3.6364	0.1	22.201
24980	15.026	3.7273	0.1	19.832
24981	14.751	3.6364	0.1	25.757
24982	14.843	3.7273	0.1	23.188
24983	14.568	3.6364	0.1	29.572
24984	14.66	3.7273	0.1	26.782
24985	14.385	3.6364	0.1	33.675
24986	14.477	3.7273	0.1	30.639
24987	14.202	3.6364	0.1	38.095
24988	14.293	3.7273	0.1	34.785
24989	14.019	3.6364	0.1	42.861
24990	14.11	3.7273	0.1	39.248
24991	13.836	3.6364	0.1	48.01
24992	13.927	3.7273	0.1	44.058
24993	13.652	3.6364	0.1	53.576
24994	13.744	3.7273	0.1	49.248
24995	13.469	3.6364	0.1	59.599
24996	13.561	3.7273	0.1	54.852
24997	13.286	3.6364	0.1	66.122
24998	13.378	3.7273	0.1	60.908
24999	13.103	3.6364	0.1	73.19
25000	13.195	3.7273	0.1	67.454
25001	12.92	3.6364	0.1	80.851
25002	13.011	3.7273	0.1	74.532
25003	12.737	3.6364	0.1	89.153
25004	12.828	3.7273	0.1	82.186
25005	12.554	3.6364	0.1	98.15
25006	12.645	3.7273	0.1	90.461
25007	12.37	3.6364	0.1	107.89
25008	12.462	3.7273	0.1	99.4
25009	12.187	3.6364	0.1	118.43
25010	12.279	3.7273	0.1	109.05
25011	12.004	3.6364	0.1	129.82
25012	12.096	3.7273	0.1	119.45
25013	11.821	3.6364	0.1	142.09
25014	11.913	3.7273	0.1	130.63
25015	11.638	3.6364	0.1	155.27
25016	11.73	3.7273	0.1	142.63
25017	11.455	3.6364	0.1	169.37
25018	11.546	3.7273	0.1	155.45
25019	11.272	3.6364	0.1	184.38
25020	11.363	3.7273	0.1	169.09
25021	11.089	3.6364	0.1	200.22
25022	11.18	3.7273	0.1	183.49
25023	10.905	3.6364	0.1	216.76
25024	10.997	3.7273	0.1	198.57
25025	10.722	3.6364	0.1	233.79
25026	10.814	3.7273	0.1	214.16
25027	10.539	3.6364	0.1	250.95
25028	10.631	3.7273	0.1	229.99
25029	10.356	3.6364	0.1	267.69
25030	10.448	3.7273	0.1	245.66
25031	10.173	3.6364	0.1	283.19
25032	10.264	3.7273	0.1	260.53
25033	9.9897	3.6364	0.1	296.24
25034	10.081	3.7273	0.1	273.71
25035	9.8065	3.6364	0.1	305.04
25036	9.8981	3.7273	0.1	283.81
25037	9.6234	3.6364	0.1	306.99
25038	9.7149	3.7273	0.1	288.84
25039	9.4402	3.6364	0.1	298.26
25040	9.5318	3.7273	0.1	285.88
25041	9.2571	3.6364	0.1	273.24
25042	9.3487	3.7273	0.1	270.66
25043	9.0739	3.6364	0.1	223.6
25044	9.1655	3.7273	0.1	236.8
25045	8.8908	3.6364	0.1	136.63
25046	8.9824	3.7273	0.1	175.09
25047	8.7077	3.6364	0.1	0.1308
25048	8.7992	3.7273	0.1	70.307
25049	8.5245	3.6364	0.1	2.1056
25050	8.6161	3.7273	0.1	7.8924e-002
25051	8.3414	3.6364	0.1	13.346
25052	8.433	3.7273	0.1	-13.388
25053	8.2498	3.7273	0.1	11.009
25054	8.1582	3.6364	0.1	28.298
25055	23.725	3.8182	0.1	-0.22163
25056	23.817	3.9091	0.1	-0.1986
25057	23.908	3.8182	0.1	-0.43747
25058	23.542	3.8182	0.1	-0.22464
25059	23.634	3.9091	0.1	-0.32317
25060	23.359	3.8182	0.1	-0.12914
25061	23.451	3.9091	0.1	-0.13966
25062	23.176	3.8182	0.1	-0.10626
25063	23.267	3.9091	0.1	-0.12218
25064	22.993	3.8182	0.1	-8.3714e-002
25065	23.084	3.9091	0.1	-9.0967e-002
25066	22.81	3.8182	0.1	-7.042e-002
25067	22.901	3.9091	0.1	-7.6001e-002
25068	22.626	3.8182	0.1	-6.0171e-002
25069	22.718	3.9091	0.1	-6.3894e-002
25070	22.443	3.8182	0.1	-5.2536e-002
25071	22.535	3.9091	0.1	-5.5269e-002
25072	22.26	3.8182	0.1	-4.6502e-002
25073	22.352	3.9091	0.1	-4.8498e-002
25074	22.077	3.8182	0.1	-4.1643e-002
25075	22.169	3.9091	0.1	-4.3132e-002
25076	21.894	3.8182	0.1	-3.7639e-002
25077	21.985	3.9091	0.1	-3.8745e-002
25078	21.711	3.8182	0.1	-3.4285e-002
25079	21.802	3.9091	0.1	-3.5107e-002
25080	21.528	3.8182	0.1	-3.1433e-002
25081	21.619	3.9091	0.1	-3.2037e-002
25082	21.344	3.8182	0.1	-2.8978e-002
25083	21.436	3.9091	0.1	-2.9413e-002
25084	21.161	3.8182	0.1	-2.6843e-002
25085	21.253	3.9091	0.1	-2.7144e-002
25086	20.978	3.8182	0.1	-2.4969e-002
25087	21.07	3.9091	0.1	-2.5166e-002
25088	20.795	3.8182	0.1	-2.331e-002
25089	20.887	3.9091	0.1	-2.3422e-002
25090	20.612	3.8182	0.1	-2.1838e-002
25091	20.703	3.9091	0.1	-2.1878e-002
25092	20.429	3.8182	0.1	-2.0519e-002
25093	20.52	3.9091	0.1	-2.0507e-002
25094	20.246	3.8182	0.1	-1.9328e-002
25095	20.337	3.9091	0.1	-1.9271e-002
25096	20.062	3.8182	0.1	-1.8248e-002
25097	20.154	3.9091	0.1	-1.8153e-002
25098	19.879	3.8182	0.1	-1.7268e-002
25099	19.971	3.9091	0.1	-1.7142e-002
25100	19.696	3.8182	0.1	-1.6369e-002
25101	19.788	3.9091	0.1	-1.622e-002
25102	19.513	3.8182	0.1	-1.5542e-002
25103	19.605	3.9091	0.1	-1.5371e-002
25104	19.33	3.8182	0.1	-1.4787e-002
25105	19.421	3.9091	0.1	-1.4593e-002
25106	19.147	3.8182	0.1	-1.4087e-002
25107	19.238	3.9091	0.1	-1.3885e-002
25108	18.964	3.8182	0.1	-1.343e-002
25109	19.055	3.9091	0.1	-1.3217e-002
25110	18.78	3.8182	0.1	-1.2816e-002
25111	18.872	3.9091	0.1	-1.2591e-002
25112	18.597	3.8182	0.1	-1.2241e-002
25113	18.689	3.9091	0.1	-1.2008e-002
25114	18.414	3.8182	0.1	-1.1699e-002
25115	18.506	3.9091	0.1	-1.1457e-002
25116	18.231	3.8182	0.1	-1.1184e-002
25117	18.323	3.9091	0.1	-1.0938e-002
25118	18.048	3.8182	0.1	-1.068e-002
25119	18.139	3.9091	0.1	-1.0437e-002
25120	17.865	3.8182	0.1	-1.0189e-002
25121	17.956	3.9091	0.1	-9.9369e-003
25122	17.682	3.8182	0.1	-9.7121e-003
25123	17.773	3.9091	0.1	-9.4573e-003
25124	17.498	3.8182	0.1	-9.2268e-003
25125	17.59	3.9091	0.1	-8.9778e-003
25126	17.315	3.8182	0.1	-8.7123e-003
25127	17.407	3.9091	0.1	-8.4715e-003
25128	17.132	3.8182	0.1	-8.1402e-003
25129	17.224	3.9091	0.1	-7.9169e-003
25130	16.949	3.8182	0.1	-7.4276e-003
25131	17.041	3.9091	0.1	-7.2661e-003
25132	16.766	3.8182	0.1	-6.3288e-003
25133	16.857	3.9091	0.1	-6.3725e-003
25134	16.583	3.8182	0.1	-3.7214e-003
25135	16.674	3.9091	0.1	-4.7725e-003
25136	16.4	3.8182	0.1	6.7621e-002
25137	16.491	3.9091	0.1	5.0363e-004
25138	16.216	3.8182	0.1	2.0944
25139	16.308	3.9091	0.1	0.65153
25140	16.033	3.8182	0.1	4.3464
25141	16.125	3.9091	0.1	2.7897
25142	15.85	3.8182	0.1	6.7125
25143	15.942	3.9091	0.1	5.0418
25144	15.667	3.8182	0.1	9.2068
25145	15.759	3.9091	0.1	7.4109
25146	15.484	3.8182	0.1	11.845
25147	15.575	3.9091	0.1	9.9111
25148	15.301	3.8182	0.1	14.644
25149	15.392	3.9091	0.1	12.558
25150	15.118	3.8182	0.1	17.623
25151	15.209	3.9091	0.1	15.368
25152	14.934	3.8182	0.1	20.799
25153	15.026	3.9091	0.1	18.358
25154	14.751	3.8182	0.1	24.195
25155	14.843	3.9091	0.1	21.548
25156	14.568	3.8182	0.1	27.832
25157	14.66	3.9091	0.1	24.957
25158	14.385	3.8182	0.1	31.733
25159	14.477	3.9091	0.1	28.606
25160	14.202	3.8182	0.1	35.924
25161	14.293	3.9091	0.1	32.518
25162	14.019	3.8182	0.1	40.432
25163	14.11	3.9091	0.1	36.716
25164	13.836	3.8182	0.1	45.285
25165	13.927	3.9091	0.1	41.225
25166	13.652	3.8182	0.1	50.513
25167	13.744	3.9091	0.1	46.072
25168	13.469	3.8182	0.1	56.151
25169	13.561	3.9091	0.1	51.284
25170	13.286	3.8182	0.1	62.23
25171	13.378	3.9091	0.1	56.891
25172	13.103	3.8182	0.1	68.788
25173	13.195	3.9091	0.1	62.922
25174	12.92	3.8182	0.1	75.861
25175	13.011	3.9091	0.1	69.409
25176	12.737	3.8182	0.1	83.487
25177	12.828	3.9091	0.1	76.383
25178	12.554	3.8182	0.1	91.705
25179	12.645	3.9091	0.1	83.874
25180	12.37	3.8182	0.1	100.55
25181	12.462	3.9091	0.1	91.911
25182	12.187	3.8182	0.1	110.06
25183	12.279	3.9091	0.1	100.52
25184	12.004	3.8182	0.1	120.26
25185	12.096	3.9091	0.1	109.73
25186	11.821	3.8182	0.1	131.17
25187	11.913	3.9091	0.1	119.55
25188	11.638	3.8182	0.1	142.81
25189	11.73	3.9091	0.1	130.
25190	11.455	3.8182	0.1	155.16
25191	11.546	3.9091	0.1	141.05
25192	11.272	3.8182	0.1	168.2
25193	11.363	3.9091	0.1	152.68
25194	11.089	3.8182	0.1	181.84
25195	11.18	3.9091	0.1	164.84
25196	10.905	3.8182	0.1	195.96
25197	10.997	3.9091	0.1	177.42
25198	10.722	3.8182	0.1	210.36
25199	10.814	3.9091	0.1	190.25
25200	10.539	3.8182	0.1	224.71
25201	10.631	3.9091	0.1	203.09
25202	10.356	3.8182	0.1	238.53
25203	10.448	3.9091	0.1	215.57
25204	10.173	3.8182	0.1	251.11
25205	10.264	3.9091	0.1	227.12
25206	9.9897	3.8182	0.1	261.39
25207	10.081	3.9091	0.1	236.9
25208	9.8065	3.8182	0.1	267.81
25209	9.8981	3.9091	0.1	243.66
25210	9.6234	3.8182	0.1	268.06
25211	9.7149	3.9091	0.1	245.54
25212	9.4402	3.8182	0.1	258.75
25213	9.5318	3.9091	0.1	239.73
25214	9.2571	3.8182	0.1	234.79
25215	9.3487	3.9091	0.1	222.
25216	9.0739	3.8182	0.1	188.75
25217	9.1655	3.9091	0.1	185.8
25218	8.8908	3.8182	0.1	108.4
25219	8.9824	3.9091	0.1	121.69
25220	8.7077	3.8182	0.1	5.17
25221	8.7992	3.9091	0.1	20.866
25222	8.5245	3.8182	0.1	-14.445
25223	8.6161	3.9091	0.1	12.028
25224	8.3414	3.8182	0.1	-14.996
25225	8.433	3.9091	0.1	-57.012
25226	8.2498	3.9091	0.1	241.01
25227	8.1582	3.8182	0.1	-32.668
25228	23.725	4.	0.1	-0.21649
25229	23.817	4.0909	0.1	-0.18971
25230	23.908	4.	0.1	-0.43572
25231	23.542	4.	0.1	-0.22142
25232	23.634	4.0909	0.1	-0.31871
25233	23.359	4.	0.1	-0.1266
25234	23.451	4.0909	0.1	-0.13651
25235	23.176	4.	0.1	-0.10399
25236	23.267	4.0909	0.1	-0.11941
25237	22.993	4.	0.1	-8.1638e-002
25238	23.084	4.0909	0.1	-8.8478e-002
25239	22.81	4.	0.1	-6.8464e-002
25240	22.901	4.0909	0.1	-7.3678e-002
25241	22.626	4.	0.1	-5.8303e-002
25242	22.718	4.0909	0.1	-6.1689e-002
25243	22.443	4.	0.1	-5.073e-002
25244	22.535	4.0909	0.1	-5.3147e-002
25245	22.26	4.	0.1	-4.4744e-002
25246	22.352	4.0909	0.1	-4.644e-002
25247	22.077	4.	0.1	-3.9927e-002
25248	22.169	4.0909	0.1	-4.1129e-002
25249	21.894	4.	0.1	-3.5961e-002
25250	21.985	4.0909	0.1	-3.6791e-002
25251	21.711	4.	0.1	-3.2646e-002
25252	21.802	4.0909	0.1	-3.3202e-002
25253	21.528	4.	0.1	-2.9832e-002
25254	21.619	4.0909	0.1	-3.0182e-002
25255	21.344	4.	0.1	-2.7417e-002
25256	21.436	4.0909	0.1	-2.7606e-002
25257	21.161	4.	0.1	-2.5322e-002
25258	21.253	4.0909	0.1	-2.5387e-002
25259	20.978	4.	0.1	-2.3487e-002
25260	21.07	4.0909	0.1	-2.3458e-002
25261	20.795	4.	0.1	-2.1869e-002
25262	20.887	4.0909	0.1	-2.1763e-002
25263	20.612	4.	0.1	-2.0436e-002
25264	20.703	4.0909	0.1	-2.0265e-002
25265	20.429	4.	0.1	-1.9156e-002
25266	20.52	4.0909	0.1	-1.8943e-002
25267	20.246	4.	0.1	-1.8e-002
25268	20.337	4.0909	0.1	-1.775e-002
25269	20.062	4.	0.1	-1.6957e-002
25270	20.154	4.0909	0.1	-1.6675e-002
25271	19.879	4.	0.1	-1.601e-002
25272	19.971	4.0909	0.1	-1.5706e-002
25273	19.696	4.	0.1	-1.5142e-002
25274	19.788	4.0909	0.1	-1.4822e-002
25275	19.513	4.	0.1	-1.4347e-002
25276	19.605	4.0909	0.1	-1.4011e-002
25277	19.33	4.	0.1	-1.362e-002
25278	19.421	4.0909	0.1	-1.3269e-002
25279	19.147	4.	0.1	-1.2947e-002
25280	19.238	4.0909	0.1	-1.2593e-002
25281	18.964	4.	0.1	-1.2314e-002
25282	19.055	4.0909	0.1	-1.1955e-002
25283	18.78	4.	0.1	-1.1722e-002
25284	18.872	4.0909	0.1	-1.1357e-002
25285	18.597	4.	0.1	-1.1166e-002
25286	18.689	4.0909	0.1	-1.08e-002
25287	18.414	4.	0.1	-1.0641e-002
25288	18.506	4.0909	0.1	-1.0271e-002
25289	18.231	4.	0.1	-1.014e-002
25290	18.323	4.0909	0.1	-9.7722e-003
25291	18.048	4.	0.1	-9.6468e-003
25292	18.139	4.0909	0.1	-9.289e-003
25293	17.865	4.	0.1	-9.162e-003
25294	17.956	4.0909	0.1	-8.8019e-003
25295	17.682	4.	0.1	-8.685e-003
25296	17.773	4.0909	0.1	-8.3304e-003
25297	17.498	4.	0.1	-8.1925e-003
25298	17.59	4.0909	0.1	-7.8527e-003
25299	17.315	4.	0.1	-7.6592e-003
25300	17.407	4.0909	0.1	-7.3411e-003
25301	17.132	4.	0.1	-7.0515e-003
25302	17.224	4.0909	0.1	-6.771e-003
25303	16.949	4.	0.1	-6.2827e-003
25304	17.041	4.0909	0.1	-6.0921e-003
25305	16.766	4.	0.1	-5.1116e-003
25306	16.857	4.0909	0.1	-5.1643e-003
25307	16.583	4.	0.1	-2.661e-003
25308	16.674	4.0909	0.1	-3.5943e-003
25309	16.4	4.	0.1	1.1184e-002
25310	16.491	4.0909	0.1	3.3697e-004
25311	16.216	4.	0.1	1.3144
25312	16.308	4.0909	0.1	6.4014e-002
25313	16.033	4.	0.1	3.4605
25314	16.125	4.0909	0.1	1.8831
25315	15.85	4.	0.1	5.7167
25316	15.942	4.0909	0.1	4.0189
25317	15.667	4.	0.1	8.0925
25318	15.759	4.0909	0.1	6.265
25319	15.484	4.	0.1	10.602
25320	15.575	4.0909	0.1	8.6323
25321	15.301	4.	0.1	13.26
25322	15.392	4.0909	0.1	11.134
25323	15.118	4.	0.1	16.083
25324	15.209	4.0909	0.1	13.785
25325	14.934	4.	0.1	19.088
25326	15.026	4.0909	0.1	16.601
25327	14.751	4.	0.1	22.292
25328	14.843	4.0909	0.1	19.596
25329	14.568	4.	0.1	25.714
25330	14.66	4.0909	0.1	22.789
25331	14.385	4.	0.1	29.375
25332	14.477	4.0909	0.1	26.197
25333	14.202	4.	0.1	33.294
25334	14.293	4.0909	0.1	29.837
25335	14.019	4.	0.1	37.495
25336	14.11	4.0909	0.1	33.729
25337	13.836	4.	0.1	41.999
25338	13.927	4.0909	0.1	37.891
25339	13.652	4.	0.1	46.83
25340	13.744	4.0909	0.1	42.345
25341	13.469	4.	0.1	52.013
25342	13.561	4.0909	0.1	47.11
25343	13.286	4.	0.1	57.573
25344	13.378	4.0909	0.1	52.205
25345	13.103	4.	0.1	63.534
25346	13.195	4.0909	0.1	57.652
25347	12.92	4.	0.1	69.922
25348	13.011	4.0909	0.1	63.469
25349	12.737	4.	0.1	76.761
25350	12.828	4.0909	0.1	69.674
25351	12.554	4.	0.1	84.074
25352	12.645	4.0909	0.1	76.283
25353	12.37	4.	0.1	91.879
25354	12.462	4.0909	0.1	83.308
25355	12.187	4.	0.1	100.19
25356	12.279	4.0909	0.1	90.758
25357	12.004	4.	0.1	109.02
25358	12.096	4.0909	0.1	98.635
25359	11.821	4.	0.1	118.37
25360	11.913	4.0909	0.1	106.93
25361	11.638	4.	0.1	128.23
25362	11.73	4.0909	0.1	115.64
25363	11.455	4.	0.1	138.56
25364	11.546	4.0909	0.1	124.71
25365	11.272	4.	0.1	149.32
25366	11.363	4.0909	0.1	134.12
25367	11.089	4.	0.1	160.41
25368	11.18	4.0909	0.1	143.76
25369	10.905	4.	0.1	171.7
25370	10.997	4.0909	0.1	153.54
25371	10.722	4.	0.1	183.
25372	10.814	4.0909	0.1	163.27
25373	10.539	4.	0.1	193.98
25374	10.631	4.0909	0.1	172.71
25375	10.356	4.	0.1	204.21
25376	10.448	4.0909	0.1	181.5
25377	10.173	4.	0.1	213.02
25378	10.264	4.0909	0.1	189.09
25379	9.9897	4.	0.1	219.38
25380	10.081	4.0909	0.1	194.67
25381	9.8065	4.	0.1	221.77
25382	9.8981	4.0909	0.1	196.97
25383	9.6234	4.	0.1	217.85
25384	9.7149	4.0909	0.1	194.07
25385	9.4402	4.	0.1	204.
25386	9.5318	4.0909	0.1	182.9
25387	9.2571	4.	0.1	174.56
25388	9.3487	4.0909	0.1	158.66
25389	9.0739	4.	0.1	120.97
25390	9.1655	4.0909	0.1	113.78
25391	8.8908	4.	0.1	35.727
25392	8.9824	4.0909	0.1	41.819
25393	8.7077	4.	0.1	9.9285
25394	8.7992	4.0909	0.1	5.1993
25395	8.5245	4.	0.1	-30.177
25396	8.6161	4.0909	0.1	12.253
25397	8.3414	4.	0.1	241.73
25398	8.433	4.0909	0.1	-42.626
25399	8.2498	4.0909	0.1	356.56
25400	8.1582	4.	0.1	453.04
25401	23.725	4.1818	0.1	-0.20986
25402	23.817	4.2727	0.1	-0.1785
25403	23.908	4.1818	0.1	-0.4334
25404	23.542	4.1818	0.1	-0.2172
25405	23.634	4.2727	0.1	-0.31293
25406	23.359	4.1818	0.1	-0.12326
25407	23.451	4.2727	0.1	-0.1324
25408	23.176	4.1818	0.1	-0.101
25409	23.267	4.2727	0.1	-0.11578
25410	22.993	4.1818	0.1	-7.8892e-002
25411	23.084	4.2727	0.1	-8.5205e-002
25412	22.81	4.1818	0.1	-6.5875e-002
25413	22.901	4.2727	0.1	-7.0616e-002
25414	22.626	4.1818	0.1	-5.5825e-002
25415	22.718	4.2727	0.1	-5.8778e-002
25416	22.443	4.1818	0.1	-4.8337e-002
25417	22.535	4.2727	0.1	-5.0348e-002
25418	22.26	4.1818	0.1	-4.2421e-002
25419	22.352	4.2727	0.1	-4.3734e-002
25420	22.077	4.1818	0.1	-3.7668e-002
25421	22.169	4.2727	0.1	-3.8504e-002
25422	21.894	4.1818	0.1	-3.3762e-002
25423	21.985	4.2727	0.1	-3.4245e-002
25424	21.711	4.1818	0.1	-3.0508e-002
25425	21.802	4.2727	0.1	-3.0732e-002
25426	21.528	4.1818	0.1	-2.7755e-002
25427	21.619	4.2727	0.1	-2.7787e-002
25428	21.344	4.1818	0.1	-2.5399e-002
25429	21.436	4.2727	0.1	-2.5286e-002
25430	21.161	4.1818	0.1	-2.3364e-002
25431	21.253	4.2727	0.1	-2.3141e-002
25432	20.978	4.1818	0.1	-2.1589e-002
25433	21.07	4.2727	0.1	-2.1285e-002
25434	20.795	4.1818	0.1	-2.0028e-002
25435	20.887	4.2727	0.1	-1.9661e-002
25436	20.612	4.1818	0.1	-1.8651e-002
25437	20.703	4.2727	0.1	-1.8232e-002
25438	20.429	4.1818	0.1	-1.7425e-002
25439	20.52	4.2727	0.1	-1.6975e-002
25440	20.246	4.1818	0.1	-1.6321e-002
25441	20.337	4.2727	0.1	-1.5846e-002
25442	20.062	4.1818	0.1	-1.5327e-002
25443	20.154	4.2727	0.1	-1.4831e-002
25444	19.879	4.1818	0.1	-1.4428e-002
25445	19.971	4.2727	0.1	-1.3919e-002
25446	19.696	4.1818	0.1	-1.3607e-002
25447	19.788	4.2727	0.1	-1.3092e-002
25448	19.513	4.1818	0.1	-1.2853e-002
25449	19.605	4.2727	0.1	-1.2332e-002
25450	19.33	4.1818	0.1	-1.2167e-002
25451	19.421	4.2727	0.1	-1.1638e-002
25452	19.147	4.1818	0.1	-1.1531e-002
25453	19.238	4.2727	0.1	-1.1007e-002
25454	18.964	4.1818	0.1	-1.0932e-002
25455	19.055	4.2727	0.1	-1.0413e-002
25456	18.78	4.1818	0.1	-1.0373e-002
25457	18.872	4.2727	0.1	-9.8548e-003
25458	18.597	4.1818	0.1	-9.8477e-003
25459	18.689	4.2727	0.1	-9.3363e-003
25460	18.414	4.1818	0.1	-9.3488e-003
25461	18.506	4.2727	0.1	-8.8419e-003
25462	18.231	4.1818	0.1	-8.8721e-003
25463	18.323	4.2727	0.1	-8.3747e-003
25464	18.048	4.1818	0.1	-8.3999e-003
25465	18.139	4.2727	0.1	-7.9208e-003
25466	17.865	4.1818	0.1	-7.9319e-003
25467	17.956	4.2727	0.1	-7.459e-003
25468	17.682	4.1818	0.1	-7.4671e-003
25469	17.773	4.2727	0.1	-7.0104e-003
25470	17.498	4.1818	0.1	-6.9806e-003
25471	17.59	4.2727	0.1	-6.551e-003
25472	17.315	4.1818	0.1	-6.4482e-003
25473	17.407	4.2727	0.1	-6.0543e-003
25474	17.132	4.1818	0.1	-5.8355e-003
25475	17.224	4.2727	0.1	-5.4973e-003
25476	16.949	4.1818	0.1	-5.0597e-003
25477	17.041	4.2727	0.1	-4.8318e-003
25478	16.766	4.1818	0.1	-3.9136e-003
25479	16.857	4.2727	0.1	-3.9382e-003
25480	16.583	4.1818	0.1	-1.7863e-003
25481	16.674	4.2727	0.1	-2.5202e-003
25482	16.4	4.1818	0.1	4.9497e-003
25483	16.491	4.2727	0.1	3.7154e-004
25484	16.216	4.1818	0.1	0.41806
25485	16.308	4.2727	0.1	1.2333e-002
25486	16.033	4.1818	0.1	2.4158
25487	16.125	4.2727	0.1	0.8397
25488	15.85	4.1818	0.1	4.5433
25489	15.942	4.2727	0.1	2.833
25490	15.667	4.1818	0.1	6.7817
25491	15.759	4.2727	0.1	4.9382
25492	15.484	4.1818	0.1	9.1423
25493	15.575	4.2727	0.1	7.1543
25494	15.301	4.1818	0.1	11.638
25495	15.392	4.2727	0.1	9.4922
25496	15.118	4.1818	0.1	14.282
25497	15.209	4.2727	0.1	11.964
25498	14.934	4.1818	0.1	17.09
25499	15.026	4.2727	0.1	14.582
25500	14.751	4.1818	0.1	20.075
25501	14.843	4.2727	0.1	17.361
25502	14.568	4.1818	0.1	23.254
25503	14.66	4.2727	0.1	20.312
25504	14.385	4.1818	0.1	26.642
25505	14.477	4.2727	0.1	23.451
25506	14.202	4.1818	0.1	30.256
25507	14.293	4.2727	0.1	26.79
25508	14.019	4.1818	0.1	34.111
25509	14.11	4.2727	0.1	30.345
25510	13.836	4.1818	0.1	38.224
25511	13.927	4.2727	0.1	34.127
25512	13.652	4.1818	0.1	42.612
25513	13.744	4.2727	0.1	38.15
25514	13.469	4.1818	0.1	47.29
25515	13.561	4.2727	0.1	42.427
25516	13.286	4.1818	0.1	52.274
25517	13.378	4.2727	0.1	46.969
25518	13.103	4.1818	0.1	57.577
25519	13.195	4.2727	0.1	51.785
25520	12.92	4.1818	0.1	63.212
25521	13.011	4.2727	0.1	56.881
25522	12.737	4.1818	0.1	69.188
25523	12.828	4.2727	0.1	62.263
25524	12.554	4.1818	0.1	75.51
25525	12.645	4.2727	0.1	67.93
25526	12.37	4.1818	0.1	82.181
25527	12.462	4.2727	0.1	73.877
25528	12.187	4.1818	0.1	89.194
25529	12.279	4.2727	0.1	80.094
25530	12.004	4.1818	0.1	96.539
25531	12.096	4.2727	0.1	86.562
25532	11.821	4.1818	0.1	104.19
25533	11.913	4.2727	0.1	93.252
25534	11.638	4.1818	0.1	112.12
25535	11.73	4.2727	0.1	100.13
25536	11.455	4.1818	0.1	120.26
25537	11.546	4.2727	0.1	107.12
25538	11.272	4.1818	0.1	128.55
25539	11.363	4.2727	0.1	114.18
25540	11.089	4.1818	0.1	136.88
25541	11.18	4.2727	0.1	121.18
25542	10.905	4.1818	0.1	145.1
25543	10.997	4.2727	0.1	128.01
25544	10.722	4.1818	0.1	153.
25545	10.814	4.2727	0.1	134.47
25546	10.539	4.1818	0.1	160.26
25547	10.631	4.2727	0.1	140.31
25548	10.356	4.1818	0.1	166.46
25549	10.448	4.2727	0.1	145.16
25550	10.173	4.1818	0.1	170.9
25551	10.264	4.2727	0.1	148.49
25552	9.9897	4.1818	0.1	172.56
25553	10.081	4.2727	0.1	149.46
25554	9.8065	4.1818	0.1	169.8
25555	9.8981	4.2727	0.1	146.78
25556	9.6234	4.1818	0.1	160.02
25557	9.7149	4.2727	0.1	138.37
25558	9.4402	4.1818	0.1	139.06
25559	9.5318	4.2727	0.1	120.9
25560	9.2571	4.1818	0.1	100.34
25561	9.3487	4.2727	0.1	89.189
25562	9.0739	4.1818	0.1	38.676
25563	9.1655	4.2727	0.1	38.632
25564	8.8908	4.1818	0.1	7.8525
25565	8.9824	4.2727	0.1	8.671
25566	8.7077	4.1818	0.1	6.5103
25567	8.7992	4.2727	0.1	4.0717
25568	8.5245	4.1818	0.1	8.7204e-002
25569	8.6161	4.2727	0.1	9.6548
25570	8.3414	4.1818	0.1	70.604
25571	8.433	4.2727	0.1	-5.0011
25572	8.2498	4.2727	0.1	69.905
25573	8.1582	4.1818	0.1	297.22
25574	23.725	4.3636	0.1	-0.20143
25575	23.817	4.4545	0.1	-0.16449
25576	23.908	4.3636	0.1	-0.43032
25577	23.542	4.3636	0.1	-0.21174
25578	23.634	4.4545	0.1	-0.30547
25579	23.359	4.3636	0.1	-0.1189
25580	23.451	4.4545	0.1	-0.12703
25581	23.176	4.3636	0.1	-9.7088e-002
25582	23.267	4.4545	0.1	-0.11102
25583	22.993	4.3636	0.1	-7.5283e-002
25584	23.084	4.4545	0.1	-8.0892e-002
25585	22.81	4.3636	0.1	-6.2465e-002
25586	22.901	4.4545	0.1	-6.6575e-002
25587	22.626	4.3636	0.1	-5.2564e-002
25588	22.718	4.4545	0.1	-5.4937e-002
25589	22.443	4.3636	0.1	-4.5195e-002
25590	22.535	4.4545	0.1	-4.6664e-002
25591	22.26	4.3636	0.1	-3.9385e-002
25592	22.352	4.4545	0.1	-4.0186e-002
25593	22.077	4.3636	0.1	-3.4729e-002
25594	22.169	4.4545	0.1	-3.5083e-002
25595	21.894	4.3636	0.1	-3.0919e-002
25596	21.985	4.4545	0.1	-3.0947e-002
25597	21.711	4.3636	0.1	-2.7757e-002
25598	21.802	4.4545	0.1	-2.7554e-002
25599	21.528	4.3636	0.1	-2.5097e-002
25600	21.619	4.4545	0.1	-2.4726e-002
25601	21.344	4.3636	0.1	-2.2832e-002
25602	21.436	4.4545	0.1	-2.2338e-002
25603	21.161	4.3636	0.1	-2.0886e-002
25604	21.253	4.4545	0.1	-2.0304e-002
25605	20.978	4.3636	0.1	-1.9197e-002
25606	21.07	4.4545	0.1	-1.8555e-002
25607	20.795	4.3636	0.1	-1.7719e-002
25608	20.887	4.4545	0.1	-1.7032e-002
25609	20.612	4.3636	0.1	-1.6422e-002
25610	20.703	4.4545	0.1	-1.5703e-002
25611	20.429	4.3636	0.1	-1.5273e-002
25612	20.52	4.4545	0.1	-1.4538e-002
25613	20.246	4.3636	0.1	-1.4243e-002
25614	20.337	4.4545	0.1	-1.3499e-002
25615	20.062	4.3636	0.1	-1.3318e-002
25616	20.154	4.4545	0.1	-1.2567e-002
25617	19.879	4.3636	0.1	-1.2484e-002
25618	19.971	4.4545	0.1	-1.1736e-002
25619	19.696	4.3636	0.1	-1.1725e-002
25620	19.788	4.4545	0.1	-1.0982e-002
25621	19.513	4.3636	0.1	-1.1031e-002
25622	19.605	4.4545	0.1	-1.0294e-002
25623	19.33	4.3636	0.1	-1.0399e-002
25624	19.421	4.4545	0.1	-9.6677e-003
25625	19.147	4.3636	0.1	-9.8162e-003
25626	19.238	4.4545	0.1	-9.1011e-003
25627	18.964	4.3636	0.1	-9.2679e-003
25628	19.055	4.4545	0.1	-8.5667e-003
25629	18.78	4.3636	0.1	-8.7553e-003
25630	18.872	4.4545	0.1	-8.0666e-003
25631	18.597	4.3636	0.1	-8.273e-003
25632	18.689	4.4545	0.1	-7.6018e-003
25633	18.414	4.3636	0.1	-7.8156e-003
25634	18.506	4.4545	0.1	-7.1588e-003
25635	18.231	4.3636	0.1	-7.377e-003
25636	18.323	4.4545	0.1	-6.7399e-003
25637	18.048	4.3636	0.1	-6.9399e-003
25638	18.139	4.4545	0.1	-6.3318e-003
25639	17.865	4.3636	0.1	-6.5046e-003
25640	17.956	4.4545	0.1	-5.9137e-003
25641	17.682	4.3636	0.1	-6.0705e-003
25642	17.773	4.4545	0.1	-5.5072e-003
25643	17.498	4.3636	0.1	-5.6128e-003
25644	17.59	4.4545	0.1	-5.0897e-003
25645	17.315	4.3636	0.1	-5.1089e-003
25646	17.407	4.4545	0.1	-4.6348e-003
25647	17.132	4.3636	0.1	-4.5275e-003
25648	17.224	4.4545	0.1	-4.1238e-003
25649	16.949	4.3636	0.1	-3.7984e-003
25650	17.041	4.4545	0.1	-3.5196e-003
25651	16.766	4.3636	0.1	-2.7624e-003
25652	16.857	4.4545	0.1	-2.7259e-003
25653	16.583	4.3636	0.1	-1.0353e-003
25654	16.674	4.4545	0.1	-1.5424e-003
25655	16.4	4.3636	0.1	2.911e-003
25656	16.491	4.4545	0.1	5.2383e-004
25657	16.216	4.3636	0.1	2.6185e-002
25658	16.308	4.4545	0.1	5.7328e-003
25659	16.033	4.3636	0.1	1.2261
25660	16.125	4.4545	0.1	5.191e-002
25661	15.85	4.3636	0.1	3.2034
25662	15.942	4.4545	0.1	1.498
25663	15.667	4.3636	0.1	5.2874
25664	15.759	4.4545	0.1	3.443
25665	15.484	4.3636	0.1	7.4816
25666	15.575	4.4545	0.1	5.4918
25667	15.301	4.3636	0.1	9.7965
25668	15.392	4.4545	0.1	7.6493
25669	15.118	4.3636	0.1	12.243
25670	15.209	4.4545	0.1	9.9248
25671	14.934	4.3636	0.1	14.833
25672	15.026	4.4545	0.1	12.329
25673	14.751	4.3636	0.1	17.578
25674	14.843	4.4545	0.1	14.871
25675	14.568	4.3636	0.1	20.491
25676	14.66	4.4545	0.1	17.562
25677	14.385	4.3636	0.1	23.582
25678	14.477	4.4545	0.1	20.411
25679	14.202	4.3636	0.1	26.863
25680	14.293	4.4545	0.1	23.429
25681	14.019	4.3636	0.1	30.345
25682	14.11	4.4545	0.1	26.624
25683	13.836	4.3636	0.1	34.038
25684	13.927	4.4545	0.1	30.003
25685	13.652	4.3636	0.1	37.952
25686	13.744	4.4545	0.1	33.574
25687	13.469	4.3636	0.1	42.093
25688	13.561	4.4545	0.1	37.341
25689	13.286	4.3636	0.1	46.468
25690	13.378	4.4545	0.1	41.306
25691	13.103	4.3636	0.1	51.077
25692	13.195	4.4545	0.1	45.468
25693	12.92	4.3636	0.1	55.921
25694	13.011	4.4545	0.1	49.822
25695	12.737	4.3636	0.1	60.995
25696	12.828	4.4545	0.1	54.36
25697	12.554	4.3636	0.1	66.288
25698	12.645	4.4545	0.1	59.067
25699	12.37	4.3636	0.1	71.782
25700	12.462	4.4545	0.1	63.92
25701	12.187	4.3636	0.1	77.453
25702	12.279	4.4545	0.1	68.891
25703	12.004	4.3636	0.1	83.266
25704	12.096	4.4545	0.1	73.94
25705	11.821	4.3636	0.1	89.176
25706	11.913	4.4545	0.1	79.017
25707	11.638	4.3636	0.1	95.123
25708	11.73	4.4545	0.1	84.059
25709	11.455	4.3636	0.1	101.03
25710	11.546	4.4545	0.1	88.986
25711	11.272	4.3636	0.1	106.8
25712	11.363	4.4545	0.1	93.703
25713	11.089	4.3636	0.1	112.3
25714	11.18	4.4545	0.1	98.086
25715	10.905	4.3636	0.1	117.38
25716	10.997	4.4545	0.1	101.99
25717	10.722	4.3636	0.1	121.8
25718	10.814	4.4545	0.1	105.21
25719	10.539	4.3636	0.1	125.25
25720	10.631	4.4545	0.1	107.49
25721	10.356	4.3636	0.1	127.3
25722	10.448	4.4545	0.1	108.47
25723	10.173	4.3636	0.1	127.25
25724	10.264	4.4545	0.1	107.61
25725	9.9897	4.3636	0.1	124.05
25726	10.081	4.4545	0.1	104.12
25727	9.8065	4.3636	0.1	116.01
25728	9.8981	4.4545	0.1	96.731
25729	9.6234	4.3636	0.1	100.41
25730	9.7149	4.4545	0.1	83.427
25731	9.4402	4.3636	0.1	73.056
25732	9.5318	4.4545	0.1	61.204
25733	9.2571	4.3636	0.1	31.329
25734	9.3487	4.4545	0.1	28.415
25735	9.0739	4.3636	0.1	8.0717
25736	9.1655	4.4545	0.1	7.932
25737	8.8908	4.3636	0.1	4.3345
25738	8.9824	4.4545	0.1	4.7132
25739	8.7077	4.3636	0.1	7.1044
25740	8.7992	4.4545	0.1	3.3851
25741	8.5245	4.3636	0.1	5.2384
25742	8.6161	4.4545	0.1	7.6469
25743	8.3414	4.3636	0.1	-5.2361
25744	8.433	4.4545	0.1	0.79734
25745	8.2498	4.4545	0.1	7.3085
25746	8.1582	4.3636	0.1	-66.96
25747	23.725	4.5455	0.1	-0.19063
25748	23.817	4.6364	0.1	-0.14692
25749	23.908	4.5455	0.1	-0.42617
25750	23.542	4.5455	0.1	-0.2046
25751	23.634	4.6364	0.1	-0.29577
25752	23.359	4.5455	0.1	-0.11316
25753	23.451	4.6364	0.1	-0.11997
25754	23.176	4.5455	0.1	-9.1912e-002
25755	23.267	4.6364	0.1	-0.10472
25756	22.993	4.5455	0.1	-7.0499e-002
25757	23.084	4.6364	0.1	-7.5168e-002
25758	22.81	4.5455	0.1	-5.7946e-002
25759	22.901	4.6364	0.1	-6.1205e-002
25760	22.626	4.5455	0.1	-4.8253e-002
25761	22.718	4.6364	0.1	-4.9845e-002
25762	22.443	4.5455	0.1	-4.1059e-002
25763	22.535	4.6364	0.1	-4.1804e-002
25764	22.26	4.5455	0.1	-3.541e-002
25765	22.352	4.6364	0.1	-3.5538e-002
25766	22.077	4.5455	0.1	-3.091e-002
25767	22.169	4.6364	0.1	-3.0636e-002
25768	21.894	4.5455	0.1	-2.725e-002
25769	21.985	4.6364	0.1	-2.6694e-002
25770	21.711	4.5455	0.1	-2.4235e-002
25771	21.802	4.6364	0.1	-2.3486e-002
25772	21.528	4.5455	0.1	-2.1716e-002
25773	21.619	4.6364	0.1	-2.0839e-002
25774	21.344	4.5455	0.1	-1.9587e-002
25775	21.436	4.6364	0.1	-1.8623e-002
25776	21.161	4.5455	0.1	-1.7774e-002
25777	21.253	4.6364	0.1	-1.6753e-002
25778	20.978	4.5455	0.1	-1.6209e-002
25779	21.07	4.6364	0.1	-1.5159e-002
25780	20.795	4.5455	0.1	-1.4851e-002
25781	20.887	4.6364	0.1	-1.3782e-002
25782	20.612	4.5455	0.1	-1.3669e-002
25783	20.703	4.6364	0.1	-1.2591e-002
25784	20.429	4.5455	0.1	-1.2627e-002
25785	20.52	4.6364	0.1	-1.1557e-002
25786	20.246	4.5455	0.1	-1.1697e-002
25787	20.337	4.6364	0.1	-1.064e-002
25788	20.062	4.5455	0.1	-1.0869e-002
25789	20.154	4.6364	0.1	-9.8248e-003
25790	19.879	4.5455	0.1	-1.0127e-002
25791	19.971	4.6364	0.1	-9.1037e-003
25792	19.696	4.5455	0.1	-9.4527e-003
25793	19.788	4.6364	0.1	-8.4526e-003
25794	19.513	4.5455	0.1	-8.8401e-003
25795	19.605	4.6364	0.1	-7.8622e-003
25796	19.33	4.5455	0.1	-8.2858e-003
25797	19.421	4.6364	0.1	-7.3277e-003
25798	19.147	4.5455	0.1	-7.775e-003
25799	19.238	4.6364	0.1	-6.848e-003
25800	18.964	4.5455	0.1	-7.2956e-003
25801	19.055	4.6364	0.1	-6.397e-003
25802	18.78	4.5455	0.1	-6.8498e-003
25803	18.872	4.6364	0.1	-5.9756e-003
25804	18.597	4.5455	0.1	-6.4308e-003
25805	18.689	4.6364	0.1	-5.5869e-003
25806	18.414	4.5455	0.1	-6.0331e-003
25807	18.506	4.6364	0.1	-5.2161e-003
25808	18.231	4.5455	0.1	-5.6517e-003
25809	18.323	4.6364	0.1	-4.8676e-003
25810	18.048	4.5455	0.1	-5.2702e-003
25811	18.139	4.6364	0.1	-4.5273e-003
25812	17.865	4.5455	0.1	-4.8895e-003
25813	17.956	4.6364	0.1	-4.176e-003
25814	17.682	4.5455	0.1	-4.5098e-003
25815	17.773	4.6364	0.1	-3.8374e-003
25816	17.498	4.5455	0.1	-4.1078e-003
25817	17.59	4.6364	0.1	-3.4889e-003
25818	17.315	4.5455	0.1	-3.6632e-003
25819	17.407	4.6364	0.1	-3.108e-003
25820	17.132	4.5455	0.1	-3.155e-003
25821	17.224	4.6364	0.1	-2.6809e-003
25822	16.949	4.5455	0.1	-2.5288e-003
25823	17.041	4.6364	0.1	-2.1842e-003
25824	16.766	4.5455	0.1	-1.6715e-003
25825	16.857	4.6364	0.1	-1.5464e-003
25826	16.583	4.5455	0.1	-3.6353e-004
25827	16.674	4.6364	0.1	-6.4409e-004
25828	16.4	4.5455	0.1	2.0555e-003
25829	16.491	4.6364	0.1	7.5712e-004
25830	16.216	4.5455	0.1	8.7271e-003
25831	16.308	4.6364	0.1	3.4535e-003
25832	16.033	4.5455	0.1	0.105
25833	16.125	4.6364	0.1	1.133e-002
25834	15.85	4.5455	0.1	1.7117
25835	15.942	4.6364	0.1	0.16051
25836	15.667	4.5455	0.1	3.6236
25837	15.759	4.6364	0.1	1.7954
25838	15.484	4.5455	0.1	5.6365
25839	15.575	4.6364	0.1	3.6605
25840	15.301	4.5455	0.1	7.7554
25841	15.392	4.6364	0.1	5.6238
25842	15.118	4.5455	0.1	9.9888
25843	15.209	4.6364	0.1	7.6895
25844	14.934	4.5455	0.1	12.346
25845	15.026	4.6364	0.1	9.8649
25846	14.751	4.5455	0.1	14.834
25847	14.843	4.6364	0.1	12.157
25848	14.568	4.5455	0.1	17.463
25849	14.66	4.6364	0.1	14.574
25850	14.385	4.5455	0.1	20.241
25851	14.477	4.6364	0.1	17.121
25852	14.202	4.5455	0.1	23.173
25853	14.293	4.6364	0.1	19.805
25854	14.019	4.5455	0.1	26.266
25855	14.11	4.6364	0.1	22.629
25856	13.836	4.5455	0.1	29.524
25857	13.927	4.6364	0.1	25.595
25858	13.652	4.5455	0.1	32.948
25859	13.744	4.6364	0.1	28.705
25860	13.469	4.5455	0.1	36.539
25861	13.561	4.6364	0.1	31.955
25862	13.286	4.5455	0.1	40.292
25863	13.378	4.6364	0.1	35.34
25864	13.103	4.5455	0.1	44.2
25865	13.195	4.6364	0.1	38.85
25866	12.92	4.5455	0.1	48.248
25867	13.011	4.6364	0.1	42.47
25868	12.737	4.5455	0.1	52.42
25869	12.828	4.6364	0.1	46.178
25870	12.554	4.5455	0.1	56.688
25871	12.645	4.6364	0.1	49.947
25872	12.37	4.5455	0.1	61.018
25873	12.462	4.6364	0.1	53.739
25874	12.187	4.5455	0.1	65.366
25875	12.279	4.6364	0.1	57.508
25876	12.004	4.5455	0.1	69.679
25877	12.096	4.6364	0.1	61.197
25878	11.821	4.5455	0.1	73.887
25879	11.913	4.6364	0.1	64.736
25880	11.638	4.5455	0.1	77.91
25881	11.73	4.6364	0.1	68.041
25882	11.455	4.5455	0.1	81.647
25883	11.546	4.6364	0.1	71.013
25884	11.272	4.5455	0.1	84.979
25885	11.363	4.6364	0.1	73.533
25886	11.089	4.5455	0.1	87.762
25887	11.18	4.6364	0.1	75.464
25888	10.905	4.5455	0.1	89.817
25889	10.997	4.6364	0.1	76.639
25890	10.722	4.5455	0.1	90.915
25891	10.814	4.6364	0.1	76.859
25892	10.539	4.5455	0.1	90.752
25893	10.631	4.6364	0.1	75.871
25894	10.356	4.5455	0.1	88.899
25895	10.448	4.6364	0.1	73.339
25896	10.173	4.5455	0.1	84.724
25897	10.264	4.6364	0.1	68.794
25898	9.9897	4.5455	0.1	77.252
25899	10.081	4.6364	0.1	61.553
25900	9.8065	4.5455	0.1	64.979
25901	9.8981	4.6364	0.1	50.615
25902	9.6234	4.5455	0.1	45.826
25903	9.7149	4.6364	0.1	34.785
25904	9.4402	4.5455	0.1	20.286
25905	9.5318	4.6364	0.1	15.705
25906	9.2571	4.5455	0.1	6.8014
25907	9.3487	4.6364	0.1	6.1415
25908	9.0739	4.5455	0.1	4.1596
25909	9.1655	4.6364	0.1	3.8653
25910	8.8908	4.5455	0.1	3.6437
25911	8.9824	4.6364	0.1	3.2712
25912	8.7077	4.5455	0.1	3.8389
25913	8.7992	4.6364	0.1	3.2827
25914	8.5245	4.5455	0.1	3.2021
25915	8.6161	4.6364	0.1	3.8478
25916	8.3414	4.5455	0.1	13.662
25917	8.433	4.6364	0.1	1.7714
25918	8.2498	4.6364	0.1	16.219
25919	8.1582	4.5455	0.1	15.492
25920	23.725	4.7273	0.1	-0.17677
25921	23.817	4.8182	0.1	-0.12441
25922	23.908	4.7273	0.1	-0.42062
25923	23.542	4.7273	0.1	-0.19523
25924	23.634	4.8182	0.1	-0.28279
25925	23.359	4.7273	0.1	-0.10556
25926	23.451	4.8182	0.1	-0.11037
25927	23.176	4.7273	0.1	-8.5017e-002
25928	23.267	4.8182	0.1	-9.613e-002
25929	22.993	4.7273	0.1	-6.4117e-002
25930	23.084	4.8182	0.1	-6.7339e-002
25931	22.81	4.7273	0.1	-5.1927e-002
25932	22.901	4.8182	0.1	-5.3881e-002
25933	22.626	4.7273	0.1	-4.2537e-002
25934	22.718	4.8182	0.1	-4.2943e-002
25935	22.443	4.7273	0.1	-3.5617e-002
25936	22.535	4.8182	0.1	-3.5275e-002
25937	22.26	4.7273	0.1	-3.0226e-002
25938	22.352	4.8182	0.1	-2.9358e-002
25939	22.077	4.7273	0.1	-2.5971e-002
25940	22.169	4.8182	0.1	-2.4785e-002
25941	21.894	4.7273	0.1	-2.2547e-002
25942	21.985	4.8182	0.1	-2.1153e-002
25943	21.711	4.7273	0.1	-1.9757e-002
25944	21.802	4.8182	0.1	-1.824e-002
25945	21.528	4.7273	0.1	-1.7453e-002
25946	21.619	4.8182	0.1	-1.5868e-002
25947	21.344	4.7273	0.1	-1.5528e-002
25948	21.436	4.8182	0.1	-1.3913e-002
25949	21.161	4.7273	0.1	-1.3905e-002
25950	21.253	4.8182	0.1	-1.2284e-002
25951	20.978	4.7273	0.1	-1.2522e-002
25952	21.07	4.8182	0.1	-1.0917e-002
25953	20.795	4.7273	0.1	-1.1333e-002
25954	20.887	4.8182	0.1	-9.7525e-003
25955	20.612	4.7273	0.1	-1.0308e-002
25956	20.703	4.8182	0.1	-8.7576e-003
25957	20.429	4.7273	0.1	-9.4147e-003
25958	20.52	4.8182	0.1	-7.9081e-003
25959	20.246	4.7273	0.1	-8.6263e-003
25960	20.337	4.8182	0.1	-7.1637e-003
25961	20.062	4.7273	0.1	-7.9298e-003
25962	20.154	4.8182	0.1	-6.5099e-003
25963	19.879	4.7273	0.1	-7.3111e-003
25964	19.971	4.8182	0.1	-5.938e-003
25965	19.696	4.7273	0.1	-6.7548e-003
25966	19.788	4.8182	0.1	-5.4304e-003
25967	19.513	4.7273	0.1	-6.2522e-003
25968	19.605	4.8182	0.1	-4.9736e-003
25969	19.33	4.7273	0.1	-5.8015e-003
25970	19.421	4.8182	0.1	-4.5645e-003
25971	19.147	4.7273	0.1	-5.3904e-003
25972	19.238	4.8182	0.1	-4.2049e-003
25973	18.964	4.7273	0.1	-5.0058e-003
25974	19.055	4.8182	0.1	-3.8677e-003
25975	18.78	4.7273	0.1	-4.6496e-003
25976	18.872	4.8182	0.1	-3.5549e-003
25977	18.597	4.7273	0.1	-4.317e-003
25978	18.689	4.8182	0.1	-3.2698e-003
25979	18.414	4.7273	0.1	-4.0036e-003
25980	18.506	4.8182	0.1	-2.9998e-003
25981	18.231	4.7273	0.1	-3.7046e-003
25982	18.323	4.8182	0.1	-2.7507e-003
25983	18.048	4.7273	0.1	-3.4033e-003
25984	18.139	4.8182	0.1	-2.5069e-003
25985	17.865	4.7273	0.1	-3.1037e-003
25986	17.956	4.8182	0.1	-2.2526e-003
25987	17.682	4.7273	0.1	-2.8071e-003
25988	17.773	4.8182	0.1	-2.0113e-003
25989	17.498	4.7273	0.1	-2.4924e-003
25990	17.59	4.8182	0.1	-1.7653e-003
25991	17.315	4.7273	0.1	-2.145e-003
25992	17.407	4.8182	0.1	-1.4934e-003
25993	17.132	4.7273	0.1	-1.7507e-003
25994	17.224	4.8182	0.1	-1.1917e-003
25995	16.949	4.7273	0.1	-1.2729e-003
25996	17.041	4.8182	0.1	-8.4362e-004
25997	16.766	4.7273	0.1	-6.3957e-004
25998	16.857	4.8182	0.1	-4.0458e-004
25999	16.583	4.7273	0.1	2.621e-004
26000	16.674	4.8182	0.1	1.9821e-004
26001	16.4	4.7273	0.1	1.7066e-003
26002	16.491	4.8182	0.1	1.0542e-003
26003	16.216	4.7273	0.1	4.5672e-003
26004	16.308	4.8182	0.1	2.4566e-003
26005	16.033	4.7273	0.1	1.3187e-002
26006	16.125	4.8182	0.1	5.2616e-003
26007	15.85	4.7273	0.1	0.1939
26008	15.942	4.8182	0.1	1.3555e-002
26009	15.667	4.7273	0.1	1.8081
26010	15.759	4.8182	0.1	0.1565
26011	15.484	4.7273	0.1	3.6244
26012	15.575	4.8182	0.1	1.6803
26013	15.301	4.7273	0.1	5.5352
26014	15.392	4.8182	0.1	3.4349
26015	15.118	4.7273	0.1	7.5437
26016	15.209	4.8182	0.1	5.2801
26017	14.934	4.7273	0.1	9.6556
26018	15.026	4.8182	0.1	7.2175
26019	14.751	4.7273	0.1	11.877
26020	14.843	4.8182	0.1	9.2513
26021	14.568	4.7273	0.1	14.213
26022	14.66	4.8182	0.1	11.386
26023	14.385	4.7273	0.1	16.667
26024	14.477	4.8182	0.1	13.624
26025	14.202	4.7273	0.1	19.243
26026	14.293	4.8182	0.1	15.969
26027	14.019	4.7273	0.1	21.941
26028	14.11	4.8182	0.1	18.419
26029	13.836	4.7273	0.1	24.76
26030	13.927	4.8182	0.1	20.973
26031	13.652	4.7273	0.1	27.696
26032	13.744	4.8182	0.1	23.627
26033	13.469	4.7273	0.1	30.741
26034	13.561	4.8182	0.1	26.371
26035	13.286	4.7273	0.1	33.884
26036	13.378	4.8182	0.1	29.193
26037	13.103	4.7273	0.1	37.106
26038	13.195	4.8182	0.1	32.076
26039	12.92	4.7273	0.1	40.386
26040	13.011	4.8182	0.1	34.995
26041	12.737	4.7273	0.1	43.692
26042	12.828	4.8182	0.1	37.921
26043	12.554	4.7273	0.1	46.985
26044	12.645	4.8182	0.1	40.813
26045	12.37	4.7273	0.1	50.216
26046	12.462	4.8182	0.1	43.622
26047	12.187	4.7273	0.1	53.325
26048	12.279	4.8182	0.1	46.289
26049	12.004	4.7273	0.1	56.24
26050	12.096	4.8182	0.1	48.742
26051	11.821	4.7273	0.1	58.875
26052	11.913	4.8182	0.1	50.895
26053	11.638	4.7273	0.1	61.129
26054	11.73	4.8182	0.1	52.647
26055	11.455	4.7273	0.1	62.883
26056	11.546	4.8182	0.1	53.884
26057	11.272	4.7273	0.1	64.003
26058	11.363	4.8182	0.1	54.472
26059	11.089	4.7273	0.1	64.331
26060	11.18	4.8182	0.1	54.261
26061	10.905	4.7273	0.1	63.682
26062	10.997	4.8182	0.1	53.081
26063	10.722	4.7273	0.1	61.838
26064	10.814	4.8182	0.1	50.739
26065	10.539	4.7273	0.1	58.523
26066	10.631	4.8182	0.1	47.009
26067	10.356	4.7273	0.1	53.381
26068	10.448	4.8182	0.1	41.629
26069	10.173	4.7273	0.1	45.932
26070	10.264	4.8182	0.1	34.295
26071	9.9897	4.7273	0.1	35.572
26072	10.081	4.8182	0.1	24.768
26073	9.8065	4.7273	0.1	22.056
26074	9.8981	4.8182	0.1	13.767
26075	9.6234	4.7273	0.1	9.4506
26076	9.7149	4.8182	0.1	6.1545
26077	9.4402	4.7273	0.1	4.7021
26078	9.5318	4.8182	0.1	3.6953
26079	9.2571	4.7273	0.1	3.3465
26080	9.3487	4.8182	0.1	2.8911
26081	9.0739	4.7273	0.1	2.8988
26082	9.1655	4.8182	0.1	2.5953
26083	8.8908	4.7273	0.1	2.8402
26084	8.9824	4.8182	0.1	2.5775
26085	8.7077	4.7273	0.1	3.2409
26086	8.7992	4.8182	0.1	2.6367
26087	8.5245	4.7273	0.1	2.4144
26088	8.6161	4.8182	0.1	3.3681
26089	8.3414	4.7273	0.1	4.7105
26090	8.433	4.8182	0.1	1.0209
26091	8.2498	4.8182	0.1	8.4998
26092	8.1582	4.7273	0.1	-6.0102
26093	23.725	4.9091	0.1	-0.15814
26094	23.817	5.	0.1	-9.5481e-002
26095	23.908	4.9091	0.1	-0.41242
26096	23.542	4.9091	0.1	-0.18227
26097	23.634	5.	0.1	-0.26537
26098	23.359	4.9091	0.1	-9.493e-002
26099	23.451	5.	0.1	-9.733e-002
26100	23.176	4.9091	0.1	-7.5372e-002
26101	23.267	5.	0.1	-8.4377e-002
26102	22.993	4.9091	0.1	-5.521e-002
26103	23.084	5.	0.1	-5.666e-002
26104	22.81	4.9091	0.1	-4.3586e-002
26105	22.901	5.	0.1	-4.3962e-002
26106	22.626	4.9091	0.1	-3.4698e-002
26107	22.718	5.	0.1	-3.3695e-002
26108	22.443	4.9091	0.1	-2.8239e-002
26109	22.535	5.	0.1	-2.6637e-002
26110	22.26	4.9091	0.1	-2.3279e-002
26111	22.352	5.	0.1	-2.1284e-002
26112	22.077	4.9091	0.1	-1.943e-002
26113	22.169	5.	0.1	-1.7235e-002
26114	21.894	4.9091	0.1	-1.6386e-002
26115	21.985	5.	0.1	-1.409e-002
26116	21.711	4.9091	0.1	-1.3952e-002
26117	21.802	5.	0.1	-1.1624e-002
26118	21.528	4.9091	0.1	-1.1977e-002
26119	21.619	5.	0.1	-9.664e-003
26120	21.344	4.9091	0.1	-1.0359e-002
26121	21.436	5.	0.1	-8.0875e-003
26122	21.161	4.9091	0.1	-9.0205e-003
26123	21.253	5.	0.1	-6.8072e-003
26124	20.978	4.9091	0.1	-7.9013e-003
26125	21.07	5.	0.1	-5.7594e-003
26126	20.795	4.9091	0.1	-6.957e-003
26127	20.887	5.	0.1	-4.8897e-003
26128	20.612	4.9091	0.1	-6.16e-003
26129	20.703	5.	0.1	-4.1664e-003
26130	20.429	4.9091	0.1	-5.479e-003
26131	20.52	5.	0.1	-3.5685e-003
26132	20.246	4.9091	0.1	-4.887e-003
26133	20.337	5.	0.1	-3.0569e-003
26134	20.062	4.9091	0.1	-4.3738e-003
26135	20.154	5.	0.1	-2.6188e-003
26136	19.879	4.9091	0.1	-3.9275e-003
26137	19.971	5.	0.1	-2.2484e-003
26138	19.696	4.9091	0.1	-3.5328e-003
26139	19.788	5.	0.1	-1.9293e-003
26140	19.513	4.9091	0.1	-3.1818e-003
26141	19.605	5.	0.1	-1.6486e-003
26142	19.33	4.9091	0.1	-2.8753e-003
26143	19.421	5.	0.1	-1.4059e-003
26144	19.147	4.9091	0.1	-2.6004e-003
26145	19.238	5.	0.1	-1.2042e-003
26146	18.964	4.9091	0.1	-2.3453e-003
26147	19.055	5.	0.1	-1.0152e-003
26148	18.78	4.9091	0.1	-2.1134e-003
26149	18.872	5.	0.1	-8.4527e-004
26150	18.597	4.9091	0.1	-1.9005e-003
26151	18.689	5.	0.1	-6.9583e-004
26152	18.414	4.9091	0.1	-1.7043e-003
26153	18.506	5.	0.1	-5.5864e-004
26154	18.231	4.9091	0.1	-1.5199e-003
26155	18.323	5.	0.1	-4.3844e-004
26156	18.048	4.9091	0.1	-1.3328e-003
26157	18.139	5.	0.1	-3.2202e-004
26158	17.865	4.9091	0.1	-1.147e-003
26159	17.956	5.	0.1	-1.956e-004
26160	17.682	4.9091	0.1	-9.6732e-004
26161	17.773	5.	0.1	-8.2727e-005
26162	17.498	4.9091	0.1	-7.7618e-004
26163	17.59	5.	0.1	2.8823e-005
26164	17.315	4.9091	0.1	-5.6379e-004
26165	17.407	5.	0.1	1.5814e-004
26166	17.132	4.9091	0.1	-3.2461e-004
26167	17.224	5.	0.1	3.0262e-004
26168	16.949	4.9091	0.1	-3.5215e-005
26169	17.041	5.	0.1	4.6856e-004
26170	16.766	4.9091	0.1	3.4732e-004
26171	16.857	5.	0.1	6.8372e-004
26172	16.583	4.9091	0.1	8.6897e-004
26173	16.674	5.	0.1	9.8859e-004
26174	16.4	4.9091	0.1	1.6315e-003
26175	16.491	5.	0.1	1.3976e-003
26176	16.216	4.9091	0.1	2.9058e-003
26177	16.308	5.	0.1	2.0179e-003
26178	16.033	4.9091	0.1	5.4359e-003
26179	16.125	5.	0.1	3.0718e-003
26180	15.85	4.9091	0.1	1.2596e-002
26181	15.942	5.	0.1	5.1217e-003
26182	15.667	4.9091	0.1	9.7767e-002
26183	15.759	5.	0.1	1.0477e-002
26184	15.484	4.9091	0.1	1.4682
26185	15.575	5.	0.1	4.7464e-002
26186	15.301	4.9091	0.1	3.1568
26187	15.392	5.	0.1	1.11
26188	15.118	4.9091	0.1	4.9314
26189	15.209	5.	0.1	2.719
26190	14.934	4.9091	0.1	6.7914
26191	15.026	5.	0.1	4.4113
26192	14.751	4.9091	0.1	8.7393
26193	14.843	5.	0.1	6.1818
26194	14.568	4.9091	0.1	10.777
26195	14.66	5.	0.1	8.0313
26196	14.385	4.9091	0.1	12.906
26197	14.477	5.	0.1	9.9603
26198	14.202	4.9091	0.1	15.126
26199	14.293	5.	0.1	11.968
26200	14.019	4.9091	0.1	17.433
26201	14.11	5.	0.1	14.051
26202	13.836	4.9091	0.1	19.822
26203	13.927	5.	0.1	16.204
26204	13.652	4.9091	0.1	22.285
26205	13.744	5.	0.1	18.418
26206	13.469	4.9091	0.1	24.806
26207	13.561	5.	0.1	20.68
26208	13.286	4.9091	0.1	27.369
26209	13.378	5.	0.1	22.973
26210	13.103	4.9091	0.1	29.949
26211	13.195	5.	0.1	25.274
26212	12.92	4.9091	0.1	32.514
26213	13.011	5.	0.1	27.552
26214	12.737	4.9091	0.1	35.026
26215	12.828	5.	0.1	29.77
26216	12.554	4.9091	0.1	37.434
26217	12.645	5.	0.1	31.882
26218	12.37	4.9091	0.1	39.68
26219	12.462	5.	0.1	33.829
26220	12.187	4.9091	0.1	41.69
26221	12.279	5.	0.1	35.543
26222	12.004	4.9091	0.1	43.38
26223	12.096	5.	0.1	36.941
26224	11.821	4.9091	0.1	44.649
26225	11.913	5.	0.1	37.929
26226	11.638	4.9091	0.1	45.384
26227	11.73	5.	0.1	38.395
26228	11.455	4.9091	0.1	45.454
26229	11.546	5.	0.1	38.214
26230	11.272	4.9091	0.1	44.714
26231	11.363	5.	0.1	37.246
26232	11.089	4.9091	0.1	43.002
26233	11.18	5.	0.1	35.337
26234	10.905	4.9091	0.1	40.142
26235	10.997	5.	0.1	32.324
26236	10.722	4.9091	0.1	35.945
26237	10.814	5.	0.1	28.041
26238	10.539	4.9091	0.1	30.218
26239	10.631	5.	0.1	22.348
26240	10.356	4.9091	0.1	22.824
26241	10.448	5.	0.1	15.252
26242	10.173	4.9091	0.1	14.042
26243	10.264	5.	0.1	7.7053
26244	9.9897	4.9091	0.1	6.4724
26245	10.081	5.	0.1	3.3955
26246	9.8065	4.9091	0.1	3.4866
26247	9.8981	5.	0.1	2.2083
26248	9.6234	4.9091	0.1	2.5976
26249	9.7149	5.	0.1	1.8612
26250	9.4402	4.9091	0.1	2.2884
26251	9.5318	5.	0.1	1.7774
26252	9.2571	4.9091	0.1	2.2022
26253	9.3487	5.	0.1	1.8195
26254	9.0739	4.9091	0.1	2.26
26255	9.1655	5.	0.1	1.9347
26256	8.8908	4.9091	0.1	2.3467
26257	8.9824	5.	0.1	2.1455
26258	8.7077	4.9091	0.1	2.7514
26259	8.7992	5.	0.1	2.2591
26260	8.5245	4.9091	0.1	2.0005
26261	8.6161	5.	0.1	2.9202
26262	8.3414	4.9091	0.1	5.2021
26263	8.433	5.	0.1	0.96946
26264	8.2498	5.	0.1	8.1851
26265	8.1582	4.9091	0.1	-0.85469
26266	23.725	5.0909	0.1	-0.13376
26267	23.817	5.1818	0.1	-5.3518e-002
26268	23.908	5.0909	0.1	-0.40202
26269	23.542	5.0909	0.1	-0.16492
26270	23.634	5.1818	0.1	-0.23843
26271	23.359	5.0909	0.1	-8.0576e-002
26272	23.451	5.1818	0.1	-7.6918e-002
26273	23.176	5.0909	0.1	-6.233e-002
26274	23.267	5.1818	0.1	-6.6081e-002
26275	22.993	5.0909	0.1	-4.3263e-002
26276	23.084	5.1818	0.1	-4.0206e-002
26277	22.81	5.0909	0.1	-3.2527e-002
26278	22.901	5.1818	0.1	-2.8949e-002
26279	22.626	5.0909	0.1	-2.4446e-002
26280	22.718	5.1818	0.1	-1.9959e-002
26281	22.443	5.0909	0.1	-1.8728e-002
26282	22.535	5.1818	0.1	-1.4036e-002
26283	22.26	5.0909	0.1	-1.4452e-002
26284	22.352	5.1818	0.1	-9.7073e-003
26285	22.077	5.0909	0.1	-1.1231e-002
26286	22.169	5.1818	0.1	-6.5776e-003
26287	21.894	5.0909	0.1	-8.7592e-003
26288	21.985	5.1818	0.1	-4.2572e-003
26289	21.711	5.0909	0.1	-6.8452e-003
26290	21.802	5.1818	0.1	-2.5335e-003
26291	21.528	5.0909	0.1	-5.346e-003
26292	21.619	5.1818	0.1	-1.2395e-003
26293	21.344	5.0909	0.1	-4.1603e-003
26294	21.436	5.1818	0.1	-2.635e-004
26295	21.161	5.0909	0.1	-3.2155e-003
26296	21.253	5.1818	0.1	4.7419e-004
26297	20.978	5.0909	0.1	-2.4556e-003
26298	21.07	5.1818	0.1	1.0307e-003
26299	20.795	5.0909	0.1	-1.8403e-003
26300	20.887	5.1818	0.1	1.453e-003
26301	20.612	5.0909	0.1	-1.3453e-003
26302	20.703	5.1818	0.1	1.7687e-003
26303	20.429	5.0909	0.1	-9.4257e-004
26304	20.52	5.1818	0.1	1.9936e-003
26305	20.246	5.0909	0.1	-6.0787e-004
26306	20.337	5.1818	0.1	2.1623e-003
26307	20.062	5.0909	0.1	-3.3315e-004
26308	20.154	5.1818	0.1	2.2839e-003
26309	19.879	5.0909	0.1	-1.0849e-004
26310	19.971	5.1818	0.1	2.3616e-003
26311	19.696	5.0909	0.1	7.9833e-005
26312	19.788	5.1818	0.1	2.4088e-003
26313	19.513	5.0909	0.1	2.3678e-004
26314	19.605	5.1818	0.1	2.4365e-003
26315	19.33	5.0909	0.1	3.6055e-004
26316	19.421	5.1818	0.1	2.4412e-003
26317	19.147	5.0909	0.1	4.6323e-004
26318	19.238	5.1818	0.1	2.4207e-003
26319	18.964	5.0909	0.1	5.5464e-004
26320	19.055	5.1818	0.1	2.3977e-003
26321	18.78	5.0909	0.1	6.3055e-004
26322	18.872	5.1818	0.1	2.3675e-003
26323	18.597	5.0909	0.1	6.9311e-004
26324	18.689	5.1818	0.1	2.324e-003
26325	18.414	5.0909	0.1	7.4355e-004
26326	18.506	5.1818	0.1	2.276e-003
26327	18.231	5.0909	0.1	7.8528e-004
26328	18.323	5.1818	0.1	2.2173e-003
26329	18.048	5.0909	0.1	8.307e-004
26330	18.139	5.1818	0.1	2.1563e-003
26331	17.865	5.0909	0.1	8.7387e-004
26332	17.956	5.1818	0.1	2.1077e-003
26333	17.682	5.0909	0.1	9.081e-004
26334	17.773	5.1818	0.1	2.0437e-003
26335	17.498	5.0909	0.1	9.4709e-004
26336	17.59	5.1818	0.1	1.9761e-003
26337	17.315	5.0909	0.1	9.9739e-004
26338	17.407	5.1818	0.1	1.9166e-003
26339	17.132	5.0909	0.1	1.0571e-003
26340	17.224	5.1818	0.1	1.8623e-003
26341	16.949	5.0909	0.1	1.1371e-003
26342	17.041	5.1818	0.1	1.8087e-003
26343	16.766	5.0909	0.1	1.2633e-003
26344	16.857	5.1818	0.1	1.7733e-003
26345	16.583	5.0909	0.1	1.4468e-003
26346	16.674	5.1818	0.1	1.778e-003
26347	16.4	5.0909	0.1	1.7143e-003
26348	16.491	5.1818	0.1	1.8043e-003
26349	16.216	5.0909	0.1	2.1489e-003
26350	16.308	5.1818	0.1	1.8883e-003
26351	16.033	5.0909	0.1	2.9043e-003
26352	16.125	5.1818	0.1	2.0891e-003
26353	15.85	5.0909	0.1	4.3626e-003
26354	15.942	5.1818	0.1	2.4915e-003
26355	15.667	5.0909	0.1	7.8942e-003
26356	15.759	5.1818	0.1	3.3166e-003
26357	15.484	5.0909	0.1	2.3756e-002
26358	15.575	5.1818	0.1	5.2481e-003
26359	15.301	5.0909	0.1	0.65931
26360	15.392	5.1818	0.1	1.1604e-002
26361	15.118	5.0909	0.1	2.1767
26362	15.209	5.1818	0.1	0.14221
26363	14.934	5.0909	0.1	3.7795
26364	15.026	5.1818	0.1	1.4736
26365	14.751	5.0909	0.1	5.4521
26366	14.843	5.1818	0.1	2.9761
26367	14.568	5.0909	0.1	7.1933
26368	14.66	5.1818	0.1	4.5416
26369	14.385	5.0909	0.1	9.0013
26370	14.477	5.1818	0.1	6.1656
26371	14.202	5.0909	0.1	10.873
26372	14.293	5.1818	0.1	7.8447
26373	14.019	5.0909	0.1	12.802
26374	14.11	5.1818	0.1	9.5736
26375	13.836	5.0909	0.1	14.78
26376	13.927	5.1818	0.1	11.344
26377	13.652	5.0909	0.1	16.795
26378	13.744	5.1818	0.1	13.146
26379	13.469	5.0909	0.1	18.829
26380	13.561	5.1818	0.1	14.962
26381	13.286	5.0909	0.1	20.86
26382	13.378	5.1818	0.1	16.773
26383	13.103	5.0909	0.1	22.86
26384	13.195	5.1818	0.1	18.554
26385	12.92	5.0909	0.1	24.791
26386	13.011	5.1818	0.1	20.27
26387	12.737	5.0909	0.1	26.609
26388	12.828	5.1818	0.1	21.881
26389	12.554	5.0909	0.1	28.259
26390	12.645	5.1818	0.1	23.337
26391	12.37	5.0909	0.1	29.674
26392	12.462	5.1818	0.1	24.577
26393	12.187	5.0909	0.1	30.776
26394	12.279	5.1818	0.1	25.528
26395	12.004	5.0909	0.1	31.472
26396	12.096	5.1818	0.1	26.104
26397	11.821	5.0909	0.1	31.656
26398	11.913	5.1818	0.1	26.207
26399	11.638	5.0909	0.1	31.206
26400	11.73	5.1818	0.1	25.722
26401	11.455	5.0909	0.1	29.987
26402	11.546	5.1818	0.1	24.523
26403	11.272	5.0909	0.1	27.853
26404	11.363	5.1818	0.1	22.472
26405	11.089	5.0909	0.1	24.653
26406	11.18	5.1818	0.1	19.424
26407	10.905	5.0909	0.1	20.243
26408	10.997	5.1818	0.1	15.252
26409	10.722	5.0909	0.1	14.551
26410	10.814	5.1818	0.1	9.9263
26411	10.539	5.0909	0.1	7.9266
26412	10.631	5.1818	0.1	4.2145
26413	10.356	5.0909	0.1	3.0416
26414	10.448	5.1818	0.1	1.5363
26415	10.173	5.0909	0.1	1.674
26416	10.264	5.1818	0.1	0.99589
26417	9.9897	5.0909	0.1	1.3324
26418	10.081	5.1818	0.1	0.86408
26419	9.8065	5.0909	0.1	1.2568
26420	9.8981	5.1818	0.1	0.86099
26421	9.6234	5.0909	0.1	1.2971
26422	9.7149	5.1818	0.1	0.9295
26423	9.4402	5.0909	0.1	1.4132
26424	9.5318	5.1818	0.1	1.0559
26425	9.2571	5.0909	0.1	1.5879
26426	9.3487	5.1818	0.1	1.2422
26427	9.0739	5.0909	0.1	1.8269
26428	9.1655	5.1818	0.1	1.4845
26429	8.8908	5.0909	0.1	2.0639
26430	8.9824	5.1818	0.1	1.8128
26431	8.7077	5.0909	0.1	2.4551
26432	8.7992	5.1818	0.1	2.0831
26433	8.5245	5.0909	0.1	1.9673
26434	8.6161	5.1818	0.1	2.7372
26435	8.3414	5.0909	0.1	4.4505
26436	8.433	5.1818	0.1	1.3134
26437	8.2498	5.1818	0.1	7.2169
26438	8.1582	5.0909	0.1	-2.2549
26439	23.725	5.2727	0.1	-9.283e-002
26440	23.817	5.3636	0.1	-1.5608e-003
26441	23.908	5.2727	0.1	-0.37851
26442	23.542	5.2727	0.1	-0.13477
26443	23.634	5.3636	0.1	-0.20379
26444	23.359	5.2727	0.1	-5.5703e-002
26445	23.451	5.3636	0.1	-4.9537e-002
26446	23.176	5.2727	0.1	-4.0078e-002
26447	23.267	5.3636	0.1	-4.2661e-002
26448	22.993	5.2727	0.1	-2.326e-002
26449	23.084	5.3636	0.1	-1.9661e-002
26450	22.81	5.2727	0.1	-1.4429e-002
26451	22.901	5.3636	0.1	-1.0707e-002
26452	22.626	5.2727	0.1	-8.0227e-003
26453	22.718	5.3636	0.1	-3.7376e-003
26454	22.443	5.2727	0.1	-3.7838e-003
26455	22.535	5.3636	0.1	4.5601e-004
26456	22.26	5.2727	0.1	-8.1664e-004
26457	22.352	5.3636	0.1	3.2883e-003
26458	22.077	5.2727	0.1	1.2474e-003
26459	22.169	5.3636	0.1	5.1252e-003
26460	21.894	5.2727	0.1	2.6904e-003
26461	21.985	5.3636	0.1	6.3254e-003
26462	21.711	5.2727	0.1	3.6896e-003
26463	21.802	5.3636	0.1	7.0745e-003
26464	21.528	5.2727	0.1	4.3744e-003
26465	21.619	5.3636	0.1	7.5152e-003
26466	21.344	5.2727	0.1	4.8307e-003
26467	21.436	5.3636	0.1	7.7435e-003
26468	21.161	5.2727	0.1	5.1196e-003
26469	21.253	5.3636	0.1	7.82e-003
26470	20.978	5.2727	0.1	5.2869e-003
26471	21.07	5.3636	0.1	7.7889e-003
26472	20.795	5.2727	0.1	5.3652e-003
26473	20.887	5.3636	0.1	7.6877e-003
26474	20.612	5.2727	0.1	5.3722e-003
26475	20.703	5.3636	0.1	7.5347e-003
26476	20.429	5.2727	0.1	5.3293e-003
26477	20.52	5.3636	0.1	7.3368e-003
26478	20.246	5.2727	0.1	5.2552e-003
26479	20.337	5.3636	0.1	7.1251e-003
26480	20.062	5.2727	0.1	5.1536e-003
26481	20.154	5.3636	0.1	6.8987e-003
26482	19.879	5.2727	0.1	5.0304e-003
26483	19.971	5.3636	0.1	6.661e-003
26484	19.696	5.2727	0.1	4.896e-003
26485	19.788	5.3636	0.1	6.419e-003
26486	19.513	5.2727	0.1	4.7526e-003
26487	19.605	5.3636	0.1	6.1798e-003
26488	19.33	5.2727	0.1	4.5959e-003
26489	19.421	5.3636	0.1	5.9378e-003
26490	19.147	5.2727	0.1	4.434e-003
26491	19.238	5.3636	0.1	5.688e-003
26492	18.964	5.2727	0.1	4.275e-003
26493	19.055	5.3636	0.1	5.4502e-003
26494	18.78	5.2727	0.1	4.1122e-003
26495	18.872	5.3636	0.1	5.218e-003
26496	18.597	5.2727	0.1	3.9457e-003
26497	18.689	5.3636	0.1	4.9827e-003
26498	18.414	5.2727	0.1	3.7769e-003
26499	18.506	5.3636	0.1	4.7528e-003
26500	18.231	5.2727	0.1	3.6045e-003
26501	18.323	5.3636	0.1	4.5186e-003
26502	18.048	5.2727	0.1	3.4391e-003
26503	18.139	5.3636	0.1	4.2868e-003
26504	17.865	5.2727	0.1	3.2733e-003
26505	17.956	5.3636	0.1	4.0712e-003
26506	17.682	5.2727	0.1	3.0981e-003
26507	17.773	5.3636	0.1	3.8404e-003
26508	17.498	5.2727	0.1	2.9232e-003
26509	17.59	5.3636	0.1	3.605e-003
26510	17.315	5.2727	0.1	2.7508e-003
26511	17.407	5.3636	0.1	3.3737e-003
26512	17.132	5.2727	0.1	2.5758e-003
26513	17.224	5.3636	0.1	3.1401e-003
26514	16.949	5.2727	0.1	2.4011e-003
26515	17.041	5.3636	0.1	2.8953e-003
26516	16.766	5.2727	0.1	2.2414e-003
26517	16.857	5.3636	0.1	2.6517e-003
26518	16.583	5.2727	0.1	2.0914e-003
26519	16.674	5.3636	0.1	2.4214e-003
26520	16.4	5.2727	0.1	1.9476e-003
26521	16.491	5.3636	0.1	2.1713e-003
26522	16.216	5.2727	0.1	1.8352e-003
26523	16.308	5.3636	0.1	1.9163e-003
26524	16.033	5.2727	0.1	1.7799e-003
26525	16.125	5.3636	0.1	1.6734e-003
26526	15.85	5.2727	0.1	1.8246e-003
26527	15.942	5.3636	0.1	1.4395e-003
26528	15.667	5.2727	0.1	2.0787e-003
26529	15.759	5.3636	0.1	1.2333e-003
26530	15.484	5.2727	0.1	2.8131e-003
26531	15.575	5.3636	0.1	1.0984e-003
26532	15.301	5.2727	0.1	4.999e-003
26533	15.392	5.3636	0.1	1.1024e-003
26534	15.118	5.2727	0.1	1.6706e-002
26535	15.209	5.3636	0.1	1.4563e-003
26536	14.934	5.2727	0.1	0.65549
26537	15.026	5.3636	0.1	3.1557e-003
26538	14.751	5.2727	0.1	2.0438
26539	14.843	5.3636	0.1	1.9832e-002
26540	14.568	5.2727	0.1	3.4922
26541	14.66	5.3636	0.1	0.94519
26542	14.385	5.2727	0.1	4.9878
26543	14.477	5.3636	0.1	2.2695
26544	14.202	5.2727	0.1	6.5249
26545	14.293	5.3636	0.1	3.6329
26546	14.019	5.2727	0.1	8.0957
26547	14.11	5.3636	0.1	5.0262
26548	13.836	5.2727	0.1	9.69
26549	13.927	5.3636	0.1	6.4402
26550	13.652	5.2727	0.1	11.294
26551	13.744	5.3636	0.1	7.863
26552	13.469	5.2727	0.1	12.888
26553	13.561	5.3636	0.1	9.2787
26554	13.286	5.2727	0.1	14.449
26555	13.378	5.3636	0.1	10.667
26556	13.103	5.2727	0.1	15.946
26557	13.195	5.3636	0.1	12.001
26558	12.92	5.2727	0.1	17.343
26559	13.011	5.3636	0.1	13.249
26560	12.737	5.2727	0.1	18.592
26561	12.828	5.3636	0.1	14.371
26562	12.554	5.2727	0.1	19.637
26563	12.645	5.3636	0.1	15.317
26564	12.37	5.2727	0.1	20.412
26565	12.462	5.3636	0.1	16.03
26566	12.187	5.2727	0.1	20.836
26567	12.279	5.3636	0.1	16.439
26568	12.004	5.2727	0.1	20.819
26569	12.096	5.3636	0.1	16.462
26570	11.821	5.2727	0.1	20.253
26571	11.913	5.3636	0.1	16.005
26572	11.638	5.2727	0.1	19.02
26573	11.73	5.3636	0.1	14.96
26574	11.455	5.2727	0.1	16.991
26575	11.546	5.3636	0.1	13.209
26576	11.272	5.2727	0.1	14.033
26577	11.363	5.3636	0.1	10.632
26578	11.089	5.2727	0.1	10.043
26579	11.18	5.3636	0.1	7.1366
26580	10.905	5.2727	0.1	5.1513
26581	10.997	5.3636	0.1	2.9666
26582	10.722	5.2727	0.1	1.4919
26583	10.814	5.3636	0.1	0.75713
26584	10.539	5.2727	0.1	0.72893
26585	10.631	5.3636	0.1	0.42289
26586	10.356	5.2727	0.1	0.56839
26587	10.448	5.3636	0.1	0.34657
26588	10.173	5.2727	0.1	0.53858
26589	10.264	5.3636	0.1	0.337
26590	9.9897	5.2727	0.1	0.56736
26591	10.081	5.3636	0.1	0.36234
26592	9.8065	5.2727	0.1	0.63956
26593	9.8981	5.3636	0.1	0.41696
26594	9.6234	5.2727	0.1	0.75558
26595	9.7149	5.3636	0.1	0.50443
26596	9.4402	5.2727	0.1	0.92421
26597	9.5318	5.3636	0.1	0.63392
26598	9.2571	5.2727	0.1	1.1564
26599	9.3487	5.3636	0.1	0.82361
26600	9.0739	5.2727	0.1	1.4772
26601	9.1655	5.3636	0.1	1.0928
26602	8.8908	5.2727	0.1	1.8529
26603	8.9824	5.3636	0.1	1.5037
26604	8.7077	5.2727	0.1	2.4386
26605	8.7992	5.3636	0.1	1.9822
26606	8.5245	5.2727	0.1	2.2534
26607	8.6161	5.3636	0.1	2.9389
26608	8.3414	5.2727	0.1	4.7469
26609	8.433	5.3636	0.1	2.0838
26610	8.2498	5.3636	0.1	7.5921
26611	8.1582	5.2727	0.1	-1.9345
26612	23.725	5.4545	0.1	-5.0255e-002
26613	23.817	5.5455	0.1	0.14688
26614	23.908	5.4545	0.1	-0.36559
26615	23.542	5.4545	0.1	-0.10179
26616	23.634	5.5455	0.1	-9.9174e-002
26617	23.359	5.4545	0.1	-2.8429e-002
26618	23.451	5.5455	0.1	2.7236e-002
26619	23.176	5.4545	0.1	-1.7219e-002
26620	23.267	5.5455	0.1	2.3896e-002
26621	22.993	5.4545	0.1	-3.5713e-003
26622	23.084	5.5455	0.1	3.7111e-002
26623	22.81	5.4545	0.1	2.6363e-003
26624	22.901	5.5455	0.1	3.8844e-002
26625	22.626	5.4545	0.1	6.8064e-003
26626	22.718	5.5455	0.1	3.982e-002
26627	22.443	5.4545	0.1	9.1769e-003
26628	22.535	5.5455	0.1	3.9095e-002
26629	22.26	5.4545	0.1	1.057e-002
26630	22.352	5.5455	0.1	3.7806e-002
26631	22.077	5.4545	0.1	1.1306e-002
26632	22.169	5.5455	0.1	3.6155e-002
26633	21.894	5.4545	0.1	1.1627e-002
26634	21.985	5.5455	0.1	3.4369e-002
26635	21.711	5.4545	0.1	1.1669e-002
26636	21.802	5.5455	0.1	3.2537e-002
26637	21.528	5.4545	0.1	1.1532e-002
26638	21.619	5.5455	0.1	3.0723e-002
26639	21.344	5.4545	0.1	1.1281e-002
26640	21.436	5.5455	0.1	2.8972e-002
26641	21.161	5.4545	0.1	1.0955e-002
26642	21.253	5.5455	0.1	2.7293e-002
26643	20.978	5.4545	0.1	1.0586e-002
26644	21.07	5.5455	0.1	2.5699e-002
26645	20.795	5.4545	0.1	1.0195e-002
26646	20.887	5.5455	0.1	2.4196e-002
26647	20.612	5.4545	0.1	9.7864e-003
26648	20.703	5.5455	0.1	2.2779e-002
26649	20.429	5.4545	0.1	9.3764e-003
26650	20.52	5.5455	0.1	2.1437e-002
26651	20.246	5.4545	0.1	8.9749e-003
26652	20.337	5.5455	0.1	2.0185e-002
26653	20.062	5.4545	0.1	8.58e-003
26654	20.154	5.5455	0.1	1.9008e-002
26655	19.879	5.4545	0.1	8.195e-003
26656	19.971	5.5455	0.1	1.7897e-002
26657	19.696	5.4545	0.1	7.8233e-003
26658	19.788	5.5455	0.1	1.685e-002
26659	19.513	5.4545	0.1	7.4635e-003
26660	19.605	5.5455	0.1	1.5866e-002
26661	19.33	5.4545	0.1	7.1087e-003
26662	19.421	5.5455	0.1	1.493e-002
26663	19.147	5.4545	0.1	6.7656e-003
26664	19.238	5.5455	0.1	1.4032e-002
26665	18.964	5.4545	0.1	6.4391e-003
26666	19.055	5.5455	0.1	1.3186e-002
26667	18.78	5.4545	0.1	6.1203e-003
26668	18.872	5.5455	0.1	1.2379e-002
26669	18.597	5.4545	0.1	5.8089e-003
26670	18.689	5.5455	0.1	1.1599e-002
26671	18.414	5.4545	0.1	5.5022e-003
26672	18.506	5.5455	0.1	1.0848e-002
26673	18.231	5.4545	0.1	5.1982e-003
26674	18.323	5.5455	0.1	1.0113e-002
26675	18.048	5.4545	0.1	4.9068e-003
26676	18.139	5.5455	0.1	9.3965e-003
26677	17.865	5.4545	0.1	4.6176e-003
26678	17.956	5.5455	0.1	8.7089e-003
26679	17.682	5.4545	0.1	4.3193e-003
26680	17.773	5.5455	0.1	8.0147e-003
26681	17.498	5.4545	0.1	4.0213e-003
26682	17.59	5.5455	0.1	7.3214e-003
26683	17.315	5.4545	0.1	3.7239e-003
26684	17.407	5.5455	0.1	6.6335e-003
26685	17.132	5.4545	0.1	3.4172e-003
26686	17.224	5.5455	0.1	5.9415e-003
26687	16.949	5.4545	0.1	3.1024e-003
26688	17.041	5.5455	0.1	5.233e-003
26689	16.766	5.4545	0.1	2.7905e-003
26690	16.857	5.5455	0.1	4.5143e-003
26691	16.583	5.4545	0.1	2.4674e-003
26692	16.674	5.5455	0.1	3.7959e-003
26693	16.4	5.4545	0.1	2.1213e-003
26694	16.491	5.5455	0.1	3.0372e-003
26695	16.216	5.4545	0.1	1.7641e-003
26696	16.308	5.5455	0.1	2.2477e-003
26697	16.033	5.4545	0.1	1.3944e-003
26698	16.125	5.5455	0.1	1.4348e-003
26699	15.85	5.4545	0.1	1.0067e-003
26700	15.942	5.5455	0.1	5.8383e-004
26701	15.667	5.4545	0.1	6.0733e-004
26702	15.759	5.5455	0.1	-3.11e-004
26703	15.484	5.4545	0.1	1.9731e-004
26704	15.575	5.5455	0.1	-1.2417e-003
26705	15.301	5.4545	0.1	-2.2926e-004
26706	15.392	5.5455	0.1	-2.2283e-003
26707	15.118	5.4545	0.1	-6.3417e-004
26708	15.209	5.5455	0.1	-3.2936e-003
26709	14.934	5.4545	0.1	-9.2451e-004
26710	15.026	5.5455	0.1	-4.3996e-003
26711	14.751	5.4545	0.1	-7.6432e-004
26712	14.843	5.5455	0.1	-5.5677e-003
26713	14.568	5.4545	0.1	5.5574e-003
26714	14.66	5.5455	0.1	-6.8177e-003
26715	14.385	5.4545	0.1	0.89279
26716	14.477	5.5455	0.1	-8.1503e-003
26717	14.202	5.4545	0.1	2.1126
26718	14.293	5.5455	0.1	-9.5139e-003
26719	14.019	5.4545	0.1	3.3497
26720	14.11	5.5455	0.1	0.40298
26721	13.836	5.4545	0.1	4.5929
26722	13.927	5.5455	0.1	1.4911
26723	13.652	5.4545	0.1	5.8282
26724	13.744	5.5455	0.1	2.5752
26725	13.469	5.4545	0.1	7.038
26726	13.561	5.5455	0.1	3.6409
26727	13.286	5.4545	0.1	8.1996
26728	13.378	5.5455	0.1	4.6703
26729	13.103	5.4545	0.1	9.2846
26730	13.195	5.5455	0.1	5.6406
26731	12.92	5.4545	0.1	10.258
26732	13.011	5.5455	0.1	6.5236
26733	12.737	5.4545	0.1	11.078
26734	12.828	5.5455	0.1	7.2845
26735	12.554	5.4545	0.1	11.691
26736	12.645	5.5455	0.1	7.8815
26737	12.37	5.4545	0.1	12.038
26738	12.462	5.5455	0.1	8.2639
26739	12.187	5.4545	0.1	12.045
26740	12.279	5.5455	0.1	8.3721
26741	12.004	5.4545	0.1	11.628
26742	12.096	5.5455	0.1	8.1361
26743	11.821	5.4545	0.1	10.692
26744	11.913	5.5455	0.1	7.4757
26745	11.638	5.4545	0.1	9.1322
26746	11.73	5.5455	0.1	6.3021
26747	11.455	5.4545	0.1	6.8429
26748	11.546	5.5455	0.1	4.5272
26749	11.272	5.4545	0.1	3.7847
26750	11.363	5.5455	0.1	2.1483
26751	11.089	5.4545	0.1	0.91171
26752	11.18	5.5455	0.1	0.41921
26753	10.905	5.4545	0.1	0.31863
26754	10.997	5.5455	0.1	0.18402
26755	10.722	5.4545	0.1	0.21861
26756	10.814	5.5455	0.1	0.13967
26757	10.539	5.4545	0.1	0.19293
26758	10.631	5.5455	0.1	0.13233
26759	10.356	5.4545	0.1	0.19515
26760	10.448	5.5455	0.1	0.14126
26761	10.173	5.4545	0.1	0.21598
26762	10.264	5.5455	0.1	0.16186
26763	9.9897	5.4545	0.1	0.25508
26764	10.081	5.5455	0.1	0.19395
26765	9.8065	5.4545	0.1	0.31672
26766	9.8981	5.5455	0.1	0.23972
26767	9.6234	5.4545	0.1	0.4095
26768	9.7149	5.5455	0.1	0.30426
26769	9.4402	5.4545	0.1	0.54959
26770	9.5318	5.5455	0.1	0.39677
26771	9.2571	5.4545	0.1	0.76253
26772	9.3487	5.5455	0.1	0.53792
26773	9.0739	5.4545	0.1	1.1089
26774	9.1655	5.5455	0.1	0.76159
26775	8.8908	5.4545	0.1	1.6344
26776	8.9824	5.5455	0.1	1.176
26777	8.7077	5.4545	0.1	2.5866
26778	8.7992	5.5455	0.1	1.8408
26779	8.5245	5.4545	0.1	3.1368
26780	8.6161	5.5455	0.1	3.3694
26781	8.3414	5.4545	0.1	6.0146
26782	8.433	5.5455	0.1	3.6121
26783	8.2498	5.5455	0.1	9.0187
26784	8.1582	5.4545	0.1	-1.9634
26785	23.725	5.6364	0.1	0.15973
26786	23.817	5.7273	0.1	0.38003
26787	23.908	5.6364	0.1	-0.17151
26788	23.542	5.6364	0.1	5.0004e-002
26789	23.634	5.7273	0.1	5.4321e-002
26790	23.359	5.6364	0.1	9.0127e-002
26791	23.451	5.7273	0.1	0.11413
26792	23.176	5.6364	0.1	8.4802e-002
26793	23.267	5.7273	0.1	8.9471e-002
26794	22.993	5.6364	0.1	8.3955e-002
26795	23.084	5.7273	0.1	8.3936e-002
26796	22.81	5.6364	0.1	7.9139e-002
26797	22.901	5.7273	0.1	7.3577e-002
26798	22.626	5.6364	0.1	7.4353e-002
26799	22.718	5.7273	0.1	6.5631e-002
26800	22.443	5.6364	0.1	6.9371e-002
26801	22.535	5.7273	0.1	5.8388e-002
26802	22.26	5.6364	0.1	6.4611e-002
26803	22.352	5.7273	0.1	5.2197e-002
26804	22.077	5.6364	0.1	6.0124e-002
26805	22.169	5.7273	0.1	4.6818e-002
26806	21.894	5.6364	0.1	5.595e-002
26807	21.985	5.7273	0.1	4.2157e-002
26808	21.711	5.6364	0.1	5.2083e-002
26809	21.802	5.7273	0.1	3.8091e-002
26810	21.528	5.6364	0.1	4.8517e-002
26811	21.619	5.7273	0.1	3.4532e-002
26812	21.344	5.6364	0.1	4.523e-002
26813	21.436	5.7273	0.1	3.141e-002
26814	21.161	5.6364	0.1	4.2198e-002
26815	21.253	5.7273	0.1	2.8653e-002
26816	20.978	5.6364	0.1	3.9403e-002
26817	21.07	5.7273	0.1	2.6211e-002
26818	20.795	5.6364	0.1	3.6821e-002
26819	20.887	5.7273	0.1	2.4043e-002
26820	20.612	5.6364	0.1	3.4428e-002
26821	20.703	5.7273	0.1	2.2108e-002
26822	20.429	5.6364	0.1	3.2209e-002
26823	20.52	5.7273	0.1	2.0366e-002
26824	20.246	5.6364	0.1	3.0153e-002
26825	20.337	5.7273	0.1	1.8809e-002
26826	20.062	5.6364	0.1	2.8239e-002
26827	20.154	5.7273	0.1	1.7405e-002
26828	19.879	5.6364	0.1	2.6449e-002
26829	19.971	5.7273	0.1	1.613e-002
26830	19.696	5.6364	0.1	2.4776e-002
26831	19.788	5.7273	0.1	1.4971e-002
26832	19.513	5.6364	0.1	2.3206e-002
26833	19.605	5.7273	0.1	1.3919e-002
26834	19.33	5.6364	0.1	2.1719e-002
26835	19.421	5.7273	0.1	1.2951e-002
26836	19.147	5.6364	0.1	2.0312e-002
26837	19.238	5.7273	0.1	1.2049e-002
26838	18.964	5.6364	0.1	1.8982e-002
26839	19.055	5.7273	0.1	1.1225e-002
26840	18.78	5.6364	0.1	1.7711e-002
26841	18.872	5.7273	0.1	1.0462e-002
26842	18.597	5.6364	0.1	1.649e-002
26843	18.689	5.7273	0.1	9.7436e-003
26844	18.414	5.6364	0.1	1.5311e-002
26845	18.506	5.7273	0.1	9.07e-003
26846	18.231	5.6364	0.1	1.4166e-002
26847	18.323	5.7273	0.1	8.4274e-003
26848	18.048	5.6364	0.1	1.3056e-002
26849	18.139	5.7273	0.1	7.8174e-003
26850	17.865	5.6364	0.1	1.1967e-002
26851	17.956	5.7273	0.1	7.2472e-003
26852	17.682	5.6364	0.1	1.0883e-002
26853	17.773	5.7273	0.1	6.6842e-003
26854	17.498	5.6364	0.1	9.8064e-003
26855	17.59	5.7273	0.1	6.134e-003
26856	17.315	5.6364	0.1	8.7323e-003
26857	17.407	5.7273	0.1	5.6026e-003
26858	17.132	5.6364	0.1	7.649e-003
26859	17.224	5.7273	0.1	5.0804e-003
26860	16.949	5.6364	0.1	6.5498e-003
26861	17.041	5.7273	0.1	4.5582e-003
26862	16.766	5.6364	0.1	5.4409e-003
26863	16.857	5.7273	0.1	4.043e-003
26864	16.583	5.6364	0.1	4.3076e-003
26865	16.674	5.7273	0.1	3.5478e-003
26866	16.4	5.6364	0.1	3.1319e-003
26867	16.491	5.7273	0.1	3.0368e-003
26868	16.216	5.6364	0.1	1.9203e-003
26869	16.308	5.7273	0.1	2.5231e-003
26870	16.033	5.6364	0.1	6.6995e-004
26871	16.125	5.7273	0.1	2.0189e-003
26872	15.85	5.6364	0.1	-6.3001e-004
26873	15.942	5.7273	0.1	1.5183e-003
26874	15.667	5.6364	0.1	-1.9776e-003
26875	15.759	5.7273	0.1	1.0244e-003
26876	15.484	5.6364	0.1	-3.3754e-003
26877	15.575	5.7273	0.1	5.5786e-004
26878	15.301	5.6364	0.1	-4.8416e-003
26879	15.392	5.7273	0.1	1.1668e-004
26880	15.118	5.6364	0.1	-6.3605e-003
26881	15.209	5.7273	0.1	-3.0007e-004
26882	14.934	5.6364	0.1	-7.9104e-003
26883	15.026	5.7273	0.1	-6.2138e-004
26884	14.751	5.6364	0.1	-9.4885e-003
26885	14.843	5.7273	0.1	-8.2455e-004
26886	14.568	5.6364	0.1	-1.1059e-002
26887	14.66	5.7273	0.1	-8.6151e-004
26888	14.385	5.6364	0.1	-1.2525e-002
26889	14.477	5.7273	0.1	-6.3215e-004
26890	14.202	5.6364	0.1	-1.366e-002
26891	14.293	5.7273	0.1	2.6893e-005
26892	14.019	5.6364	0.1	-1.3668e-002
26893	14.11	5.7273	0.1	1.3478e-003
26894	13.836	5.6364	0.1	-6.3102e-003
26895	13.927	5.7273	0.1	3.7536e-003
26896	13.652	5.6364	0.1	0.38687
26897	13.744	5.7273	0.1	8.1367e-003
26898	13.469	5.6364	0.1	1.2589
26899	13.561	5.7273	0.1	1.6268e-002
26900	13.286	5.6364	0.1	2.095
26901	13.378	5.7273	0.1	3.2544e-002
26902	13.103	5.6364	0.1	2.8625
26903	13.195	5.7273	0.1	7.0457e-002
26904	12.92	5.6364	0.1	3.5327
26905	13.011	5.7273	0.1	0.17963
26906	12.737	5.6364	0.1	4.0712
26907	12.828	5.7273	0.1	0.45512
26908	12.554	5.6364	0.1	4.4371
26909	12.645	5.7273	0.1	0.79752
26910	12.37	5.6364	0.1	4.5818
26911	12.462	5.7273	0.1	1.0427
26912	12.187	5.6364	0.1	4.4483
26913	12.279	5.7273	0.1	1.114
26914	12.004	5.6364	0.1	3.9718
26915	12.096	5.7273	0.1	0.96688
26916	11.821	5.6364	0.1	3.083
26917	11.913	5.7273	0.1	0.60671
26918	11.638	5.6364	0.1	1.7395
26919	11.73	5.7273	0.1	0.24932
26920	11.455	5.6364	0.1	0.40142
26921	11.546	5.7273	0.1	0.10882
26922	11.272	5.6364	0.1	0.13281
26923	11.363	5.7273	0.1	6.1644e-002
26924	11.089	5.6364	0.1	9.1742e-002
26925	11.18	5.7273	0.1	4.2741e-002
26926	10.905	5.6364	0.1	8.5886e-002
26927	10.997	5.7273	0.1	3.5362e-002
26928	10.722	5.6364	0.1	9.35e-002
26929	10.814	5.7273	0.1	3.4053e-002
26930	10.539	5.6364	0.1	0.10956
26931	10.631	5.7273	0.1	3.6501e-002
26932	10.356	5.6364	0.1	0.13266
26933	10.448	5.7273	0.1	4.1493e-002
26934	10.173	5.6364	0.1	0.16264
26935	10.264	5.7273	0.1	4.8279e-002
26936	9.9897	5.6364	0.1	0.20009
26937	10.081	5.7273	0.1	5.6479e-002
26938	9.8065	5.6364	0.1	0.2469
26939	9.8981	5.7273	0.1	6.6509e-002
26940	9.6234	5.6364	0.1	0.30742
26941	9.7149	5.7273	0.1	8.1098e-002
26942	9.4402	5.6364	0.1	0.39324
26943	9.5318	5.7273	0.1	0.1078
26944	9.2571	5.6364	0.1	0.52979
26945	9.3487	5.7273	0.1	0.16874
26946	9.0739	5.6364	0.1	0.79399
26947	9.1655	5.7273	0.1	0.30892
26948	8.8908	5.6364	0.1	1.3146
26949	8.9824	5.7273	0.1	0.67214
26950	8.7077	5.6364	0.1	2.6222
26951	8.7992	5.7273	0.1	1.4457
26952	8.5245	5.6364	0.1	4.4685
26953	8.6161	5.7273	0.1	3.677
26954	8.3414	5.6364	0.1	8.972
26955	8.433	5.7273	0.1	6.3626
26956	8.2498	5.7273	0.1	15.376
26957	8.1582	5.6364	0.1	-3.0618
26958	23.725	5.8182	0.1	0.30833
26959	23.817	5.9091	0.1	7.0144e-002
26960	23.908	5.8182	0.1	2.663e-002
26961	23.542	5.8182	0.1	0.11539
26962	23.634	5.9091	0.1	-0.14262
26963	23.359	5.8182	0.1	0.10042
26964	23.451	5.9091	0.1	-4.8169e-002
26965	23.176	5.8182	0.1	7.2898e-002
26966	23.267	5.9091	0.1	-3.421e-002
26967	22.993	5.8182	0.1	5.7625e-002
26968	23.084	5.9091	0.1	-1.5461e-002
26969	22.81	5.8182	0.1	4.4801e-002
26970	22.901	5.9091	0.1	-7.2391e-003
26971	22.626	5.8182	0.1	3.537e-002
26972	22.718	5.9091	0.1	-1.3575e-003
26973	22.443	5.8182	0.1	2.7967e-002
26974	22.535	5.9091	0.1	2.2314e-003
26975	22.26	5.8182	0.1	2.2184e-002
26976	22.352	5.9091	0.1	4.6278e-003
26977	22.077	5.8182	0.1	1.7601e-002
26978	22.169	5.9091	0.1	6.1831e-003
26979	21.894	5.8182	0.1	1.3944e-002
26980	21.985	5.9091	0.1	7.1933e-003
26981	21.711	5.8182	0.1	1.1008e-002
26982	21.802	5.9091	0.1	7.8166e-003
26983	21.528	5.8182	0.1	8.6437e-003
26984	21.619	5.9091	0.1	8.171e-003
26985	21.344	5.8182	0.1	6.7352e-003
26986	21.436	5.9091	0.1	8.3368e-003
26987	21.161	5.8182	0.1	5.1918e-003
26988	21.253	5.9091	0.1	8.3669e-003
26989	20.978	5.8182	0.1	3.9457e-003
26990	21.07	5.9091	0.1	8.2966e-003
26991	20.795	5.8182	0.1	2.9432e-003
26992	20.887	5.9091	0.1	8.1606e-003
26993	20.612	5.8182	0.1	2.1349e-003
26994	20.703	5.9091	0.1	7.9727e-003
26995	20.429	5.8182	0.1	1.4899e-003
26996	20.52	5.9091	0.1	7.7435e-003
26997	20.246	5.8182	0.1	9.8431e-004
26998	20.337	5.9091	0.1	7.4972e-003
26999	20.062	5.8182	0.1	5.8944e-004
27000	20.154	5.9091	0.1	7.2359e-003
27001	19.879	5.8182	0.1	2.8609e-004
27002	19.971	5.9091	0.1	6.963e-003
27003	19.696	5.8182	0.1	6.3403e-005
27004	19.788	5.9091	0.1	6.684e-003
27005	19.513	5.8182	0.1	-9.2834e-005
27006	19.605	5.9091	0.1	6.4068e-003
27007	19.33	5.8182	0.1	-2.0097e-004
27008	19.421	5.9091	0.1	6.1266e-003
27009	19.147	5.8182	0.1	-2.6265e-004
27010	19.238	5.9091	0.1	5.839e-003
27011	18.964	5.8182	0.1	-2.778e-004
27012	19.055	5.9091	0.1	5.5619e-003
27013	18.78	5.8182	0.1	-2.5949e-004
27014	18.872	5.9091	0.1	5.2914e-003
27015	18.597	5.8182	0.1	-2.1342e-004
27016	18.689	5.9091	0.1	5.0187e-003
27017	18.414	5.8182	0.1	-1.4269e-004
27018	18.506	5.9091	0.1	4.7515e-003
27019	18.231	5.8182	0.1	-4.9549e-005
27020	18.323	5.9091	0.1	4.4817e-003
27021	18.048	5.8182	0.1	7.3339e-005
27022	18.139	5.9091	0.1	4.2172e-003
27023	17.865	5.8182	0.1	2.171e-004
27024	17.956	5.9091	0.1	3.9685e-003
27025	17.682	5.8182	0.1	3.7221e-004
27026	17.773	5.9091	0.1	3.7091e-003
27027	17.498	5.8182	0.1	5.4866e-004
27028	17.59	5.9091	0.1	3.4472e-003
27029	17.315	5.8182	0.1	7.4904e-004
27030	17.407	5.9091	0.1	3.1952e-003
27031	17.132	5.8182	0.1	9.6708e-004
27032	17.224	5.9091	0.1	2.9455e-003
27033	16.949	5.8182	0.1	1.2081e-003
27034	17.041	5.9091	0.1	2.6895e-003
27035	16.766	5.8182	0.1	1.4861e-003
27036	16.857	5.9091	0.1	2.4419e-003
27037	16.583	5.8182	0.1	1.7937e-003
27038	16.674	5.9091	0.1	2.2141e-003
27039	16.4	5.8182	0.1	2.1259e-003
27040	16.491	5.9091	0.1	1.9768e-003
27041	16.216	5.8182	0.1	2.5005e-003
27042	16.308	5.9091	0.1	1.7435e-003
27043	16.033	5.8182	0.1	2.9251e-003
27044	16.125	5.9091	0.1	1.5268e-003
27045	15.85	5.8182	0.1	3.4047e-003
27046	15.942	5.9091	0.1	1.3243e-003
27047	15.667	5.8182	0.1	3.9563e-003
27048	15.759	5.9091	0.1	1.1364e-003
27049	15.484	5.8182	0.1	4.5932e-003
27050	15.575	5.9091	0.1	9.8255e-004
27051	15.301	5.8182	0.1	5.3183e-003
27052	15.392	5.9091	0.1	8.5515e-004
27053	15.118	5.8182	0.1	6.1672e-003
27054	15.209	5.9091	0.1	7.4738e-004
27055	14.934	5.8182	0.1	7.1824e-003
27056	15.026	5.9091	0.1	7.0985e-004
27057	14.751	5.8182	0.1	8.3872e-003
27058	14.843	5.9091	0.1	7.3793e-004
27059	14.568	5.8182	0.1	9.8269e-003
27060	14.66	5.9091	0.1	8.3361e-004
27061	14.385	5.8182	0.1	1.1573e-002
27062	14.477	5.9091	0.1	1.0183e-003
27063	14.202	5.8182	0.1	1.3704e-002
27064	14.293	5.9091	0.1	1.318e-003
27065	14.019	5.8182	0.1	1.6305e-002
27066	14.11	5.9091	0.1	1.732e-003
27067	13.836	5.8182	0.1	1.9521e-002
27068	13.927	5.9091	0.1	2.2488e-003
27069	13.652	5.8182	0.1	2.3529e-002
27070	13.744	5.9091	0.1	2.9136e-003
27071	13.469	5.8182	0.1	2.8496e-002
27072	13.561	5.9091	0.1	3.6804e-003
27073	13.286	5.8182	0.1	3.462e-002
27074	13.378	5.9091	0.1	4.4622e-003
27075	13.103	5.8182	0.1	4.2045e-002
27076	13.195	5.9091	0.1	5.1364e-003
27077	12.92	5.8182	0.1	5.0728e-002
27078	13.011	5.9091	0.1	5.4315e-003
27079	12.737	5.8182	0.1	6.02e-002
27080	12.828	5.9091	0.1	4.9497e-003
27081	12.554	5.8182	0.1	6.9137e-002
27082	12.645	5.9091	0.1	3.1089e-003
27083	12.37	5.8182	0.1	7.5187e-002
27084	12.462	5.9091	0.1	-8.8849e-004
27085	12.187	5.8182	0.1	7.5583e-002
27086	12.279	5.9091	0.1	-7.6569e-003
27087	12.004	5.8182	0.1	6.8776e-002
27088	12.096	5.9091	0.1	-1.7235e-002
27089	11.821	5.8182	0.1	5.5993e-002
27090	11.913	5.9091	0.1	-2.8652e-002
27091	11.638	5.8182	0.1	4.0662e-002
27092	11.73	5.9091	0.1	-3.9964e-002
27093	11.455	5.8182	0.1	2.6116e-002
27094	11.546	5.9091	0.1	-4.9054e-002
27095	11.272	5.8182	0.1	1.4049e-002
27096	11.363	5.9091	0.1	-5.4581e-002
27097	11.089	5.8182	0.1	4.6259e-003
27098	11.18	5.9091	0.1	-5.6312e-002
27099	10.905	5.8182	0.1	-2.8457e-003
27100	10.997	5.9091	0.1	-5.4601e-002
27101	10.722	5.8182	0.1	-9.5369e-003
27102	10.814	5.9091	0.1	-5.0051e-002
27103	10.539	5.8182	0.1	-1.6924e-002
27104	10.631	5.9091	0.1	-4.3335e-002
27105	10.356	5.8182	0.1	-2.6719e-002
27106	10.448	5.9091	0.1	-3.5114e-002
27107	10.173	5.8182	0.1	-4.0763e-002
27108	10.264	5.9091	0.1	-2.6136e-002
27109	9.9897	5.8182	0.1	-6.0573e-002
27110	10.081	5.9091	0.1	-1.739e-002
27111	9.8065	5.8182	0.1	-8.5992e-002
27112	9.8981	5.9091	0.1	-1.0288e-002
27113	9.6234	5.8182	0.1	-0.1125
27114	9.7149	5.9091	0.1	-6.5797e-003
27115	9.4402	5.8182	0.1	-0.12406
27116	9.5318	5.9091	0.1	-9.0961e-003
27117	9.2571	5.8182	0.1	-8.3051e-002
27118	9.3487	5.9091	0.1	-1.8621e-002
27119	9.0739	5.8182	0.1	0.11185
27120	9.1655	5.9091	0.1	-4.1733e-002
27121	8.8908	5.8182	0.1	0.63401
27122	8.9824	5.9091	0.1	-4.1757e-002
27123	8.7077	5.8182	0.1	2.1379
27124	8.7992	5.9091	0.1	-7.6425e-002
27125	8.5245	5.8182	0.1	5.1097
27126	8.6161	5.9091	0.1	0.50007
27127	8.3414	5.8182	0.1	15.823
27128	8.433	5.9091	0.1	0.86661
27129	8.1582	5.8182	0.1	-0.11843
27130	8.2498	5.9091	0.1	13.152
27131	0.18372	0.27273	0.1	413.74
27132	0.27558	0.18182	0.1	3.7403
27133	9.186e-002	0.18182	0.1	573.45
27134	0.18372	9.0909e-002	0.1	-88.669
27135	0.18372	0.45455	0.1	1047.1
27136	0.27558	0.36364	0.1	745.25
27137	9.186e-002	0.36364	0.1	1567.
27138	0.18372	0.63636	0.1	1386.1
27139	0.27558	0.54545	0.1	1246.9
27140	9.186e-002	0.54545	0.1	2043.5
27141	0.18372	0.81818	0.1	1588.5
27142	0.27558	0.72727	0.1	1557.3
27143	9.186e-002	0.72727	0.1	2321.9
27144	0.18372	1.	0.1	1721.
27145	0.27558	0.90909	0.1	1758.1
27146	9.186e-002	0.90909	0.1	2504.1
27147	0.18372	1.1818	0.1	1814.4
27148	0.27558	1.0909	0.1	1896.
27149	9.186e-002	1.0909	0.1	2632.7
27150	0.18372	1.3636	0.1	1883.2
27151	0.27558	1.2727	0.1	1995.1
27152	9.186e-002	1.2727	0.1	2727.3
27153	0.18372	1.5455	0.1	1935.3
27154	0.27558	1.4545	0.1	2068.9
27155	9.186e-002	1.4545	0.1	2798.8
27156	0.18372	1.7273	0.1	1975.2
27157	0.27558	1.6364	0.1	2124.9
27158	9.186e-002	1.6364	0.1	2853.7
27159	0.18372	1.9091	0.1	2006.1
27160	0.27558	1.8182	0.1	2167.9
27161	9.186e-002	1.8182	0.1	2896.3
27162	0.18372	2.0909	0.1	2029.9
27163	0.27558	2.	0.1	2201.1
27164	9.186e-002	2.	0.1	2929.2
27165	0.18372	2.2727	0.1	2047.9
27166	0.27558	2.1818	0.1	2226.4
27167	9.186e-002	2.1818	0.1	2954.4
27168	0.18372	2.4545	0.1	2061.1
27169	0.27558	2.3636	0.1	2245.3
27170	9.186e-002	2.3636	0.1	2973.3
27171	0.18372	2.6364	0.1	2070.1
27172	0.27558	2.5455	0.1	2258.8
27173	9.186e-002	2.5455	0.1	2986.8
27174	0.18372	2.8182	0.1	2075.4
27175	0.27558	2.7273	0.1	2267.4
27176	9.186e-002	2.7273	0.1	2995.4
27177	0.18372	3.	0.1	2077.1
27178	0.27558	2.9091	0.1	2271.6
27179	9.186e-002	2.9091	0.1	2999.6
27180	0.18372	3.1818	0.1	2075.4
27181	0.27558	3.0909	0.1	2271.6
27182	9.186e-002	3.0909	0.1	2999.6
27183	0.18372	3.3636	0.1	2070.1
27184	0.27558	3.2727	0.1	2267.4
27185	9.186e-002	3.2727	0.1	2995.4
27186	0.18372	3.5455	0.1	2061.1
27187	0.27558	3.4545	0.1	2258.8
27188	9.186e-002	3.4545	0.1	2986.8
27189	0.18372	3.7273	0.1	2047.9
27190	0.27558	3.6364	0.1	2245.3
27191	9.186e-002	3.6364	0.1	2973.3
27192	0.18372	3.9091	0.1	2029.9
27193	0.27558	3.8182	0.1	2226.4
27194	9.186e-002	3.8182	0.1	2954.4
27195	0.18372	4.0909	0.1	2006.1
27196	0.27558	4.	0.1	2201.1
27197	9.186e-002	4.	0.1	2929.2
27198	0.18372	4.2727	0.1	1975.2
27199	0.27558	4.1818	0.1	2167.9
27200	9.186e-002	4.1818	0.1	2896.3
27201	0.18372	4.4545	0.1	1935.3
27202	0.27558	4.3636	0.1	2124.9
27203	9.186e-002	4.3636	0.1	2853.7
27204	0.18372	4.6364	0.1	1883.2
27205	0.27558	4.5455	0.1	2068.9
27206	9.186e-002	4.5455	0.1	2798.8
27207	0.18372	4.8182	0.1	1814.4
27208	0.27558	4.7273	0.1	1995.1
27209	9.186e-002	4.7273	0.1	2727.3
27210	0.18372	5.	0.1	1721.
27211	0.27558	4.9091	0.1	1896.
27212	9.186e-002	4.9091	0.1	2632.7
27213	0.18372	5.1818	0.1	1588.5
27214	0.27558	5.0909	0.1	1758.1
27215	9.186e-002	5.0909	0.1	2504.1
27216	0.18372	5.3636	0.1	1386.1
27217	0.27558	5.2727	0.1	1557.3
27218	9.186e-002	5.2727	0.1	2321.9
27219	0.18372	5.5455	0.1	1047.1
27220	0.27558	5.4545	0.1	1246.9
27221	9.186e-002	5.4545	0.1	2043.5
27222	0.18372	5.7273	0.1	413.74
27223	0.27558	5.6364	0.1	745.25
27224	9.186e-002	5.6364	0.1	1567.
27225	0.27558	5.8182	0.1	3.7402
27226	9.186e-002	5.8182	0.1	573.45
27227	0.18372	5.9091	0.1	-88.669
27228	0.36744	0.27273	0.1	307.9
27229	0.4593	0.18182	0.1	41.689
27230	0.36744	9.0909e-002	0.1	23.766
27231	0.36744	0.45455	0.1	944.59
27232	0.4593	0.36364	0.1	538.35
27233	0.36744	0.63636	0.1	1410.9
27234	0.4593	0.54545	0.1	1042.5
27235	0.36744	0.81818	0.1	1720.4
27236	0.4593	0.72727	0.1	1411.4
27237	0.36744	1.	0.1	1928.5
27238	0.4593	0.90909	0.1	1671.1
27239	0.36744	1.1818	0.1	2073.7
27240	0.4593	1.0909	0.1	1854.8
27241	0.36744	1.3636	0.1	2178.9
27242	0.4593	1.2727	0.1	1987.9
27243	0.36744	1.5455	0.1	2257.4
27244	0.4593	1.4545	0.1	2086.5
27245	0.36744	1.7273	0.1	2316.9
27246	0.4593	1.6364	0.1	2160.9
27247	0.36744	1.9091	0.1	2362.5
27248	0.4593	1.8182	0.1	2217.8
27249	0.36744	2.0909	0.1	2397.4
27250	0.4593	2.	0.1	2261.3
27251	0.36744	2.2727	0.1	2423.7
27252	0.4593	2.1818	0.1	2294.4
27253	0.36744	2.4545	0.1	2442.9
27254	0.4593	2.3636	0.1	2319.1
27255	0.36744	2.6364	0.1	2456.
27256	0.4593	2.5455	0.1	2336.6
27257	0.36744	2.8182	0.1	2463.6
27258	0.4593	2.7273	0.1	2347.8
27259	0.36744	3.	0.1	2466.2
27260	0.4593	2.9091	0.1	2353.3
27261	0.36744	3.1818	0.1	2463.6
27262	0.4593	3.0909	0.1	2353.3
27263	0.36744	3.3636	0.1	2456.
27264	0.4593	3.2727	0.1	2347.8
27265	0.36744	3.5455	0.1	2442.9
27266	0.4593	3.4545	0.1	2336.6
27267	0.36744	3.7273	0.1	2423.7
27268	0.4593	3.6364	0.1	2319.1
27269	0.36744	3.9091	0.1	2397.4
27270	0.4593	3.8182	0.1	2294.4
27271	0.36744	4.0909	0.1	2362.5
27272	0.4593	4.	0.1	2261.3
27273	0.36744	4.2727	0.1	2316.9
27274	0.4593	4.1818	0.1	2217.8
27275	0.36744	4.4545	0.1	2257.4
27276	0.4593	4.3636	0.1	2160.9
27277	0.36744	4.6364	0.1	2178.9
27278	0.4593	4.5455	0.1	2086.5
27279	0.36744	4.8182	0.1	2073.7
27280	0.4593	4.7273	0.1	1987.9
27281	0.36744	5.	0.1	1928.5
27282	0.4593	4.9091	0.1	1854.8
27283	0.36744	5.1818	0.1	1720.4
27284	0.4593	5.0909	0.1	1671.1
27285	0.36744	5.3636	0.1	1410.9
27286	0.4593	5.2727	0.1	1411.4
27287	0.36744	5.5455	0.1	944.59
27288	0.4593	5.4545	0.1	1042.5
27289	0.36744	5.7273	0.1	307.9
27290	0.4593	5.6364	0.1	538.35
27291	0.4593	5.8182	0.1	41.689
27292	0.36744	5.9091	0.1	23.766
27293	0.55116	0.27273	0.1	170.19
27294	0.64302	0.18182	0.1	9.9651
27295	0.55116	9.0909e-002	0.1	-9.062
27296	0.55116	0.45455	0.1	639.13
27297	0.64302	0.36364	0.1	376.89
27298	0.55116	0.63636	0.1	1045.9
27299	0.64302	0.54545	0.1	786.15
27300	0.55116	0.81818	0.1	1363.1
27301	0.64302	0.72727	0.1	1133.3
27302	0.55116	1.	0.1	1597.2
27303	0.64302	0.90909	0.1	1404.9
27304	0.55116	1.1818	0.1	1768.4
27305	0.64302	1.0909	0.1	1610.5
27306	0.55116	1.3636	0.1	1894.8
27307	0.64302	1.2727	0.1	1765.3
27308	0.55116	1.5455	0.1	1989.6
27309	0.64302	1.4545	0.1	1882.3
27310	0.55116	1.7273	0.1	2061.4
27311	0.64302	1.6364	0.1	1971.5
27312	0.55116	1.9091	0.1	2116.4
27313	0.64302	1.8182	0.1	2039.9
27314	0.55116	2.0909	0.1	2158.2
27315	0.64302	2.	0.1	2092.4
27316	0.55116	2.2727	0.1	2189.7
27317	0.64302	2.1818	0.1	2132.3
27318	0.55116	2.4545	0.1	2212.7
27319	0.64302	2.3636	0.1	2162.
27320	0.55116	2.6364	0.1	2228.3
27321	0.64302	2.5455	0.1	2183.
27322	0.55116	2.8182	0.1	2237.4
27323	0.64302	2.7273	0.1	2196.5
27324	0.55116	3.	0.1	2240.4
27325	0.64302	2.9091	0.1	2203.1
27326	0.55116	3.1818	0.1	2237.4
27327	0.64302	3.0909	0.1	2203.1
27328	0.55116	3.3636	0.1	2228.3
27329	0.64302	3.2727	0.1	2196.5
27330	0.55116	3.5455	0.1	2212.7
27331	0.64302	3.4545	0.1	2183.
27332	0.55116	3.7273	0.1	2189.7
27333	0.64302	3.6364	0.1	2162.
27334	0.55116	3.9091	0.1	2158.2
27335	0.64302	3.8182	0.1	2132.3
27336	0.55116	4.0909	0.1	2116.4
27337	0.64302	4.	0.1	2092.4
27338	0.55116	4.2727	0.1	2061.4
27339	0.64302	4.1818	0.1	2039.9
27340	0.55116	4.4545	0.1	1989.6
27341	0.64302	4.3636	0.1	1971.5
27342	0.55116	4.6364	0.1	1894.8
27343	0.64302	4.5455	0.1	1882.3
27344	0.55116	4.8182	0.1	1768.4
27345	0.64302	4.7273	0.1	1765.3
27346	0.55116	5.	0.1	1597.2
27347	0.64302	4.9091	0.1	1610.5
27348	0.55116	5.1818	0.1	1363.1
27349	0.64302	5.0909	0.1	1404.9
27350	0.55116	5.3636	0.1	1045.9
27351	0.64302	5.2727	0.1	1133.3
27352	0.55116	5.5455	0.1	639.13
27353	0.64302	5.4545	0.1	786.15
27354	0.55116	5.7273	0.1	170.19
27355	0.64302	5.6364	0.1	376.89
27356	0.64302	5.8182	0.1	9.9651
27357	0.55116	5.9091	0.1	-9.062
27358	0.73488	0.27273	0.1	146.59
27359	0.82674	0.18182	0.1	16.502
27360	0.73488	9.0909e-002	0.1	1.4385
27361	0.73488	0.45455	0.1	524.2
27362	0.82674	0.36364	0.1	312.47
27363	0.73488	0.63636	0.1	875.18
27364	0.82674	0.54545	0.1	650.07
27365	0.73488	0.81818	0.1	1176.6
27366	0.82674	0.72727	0.1	959.46
27367	0.73488	1.	0.1	1419.
27368	0.82674	0.90909	0.1	1222.
27369	0.73488	1.1818	0.1	1607.7
27370	0.82674	1.0909	0.1	1434.4
27371	0.73488	1.3636	0.1	1752.8
27372	0.82674	1.2727	0.1	1602.2
27373	0.73488	1.5455	0.1	1864.2
27374	0.82674	1.4545	0.1	1733.4
27375	0.73488	1.7273	0.1	1949.9
27376	0.82674	1.6364	0.1	1835.7
27377	0.73488	1.9091	0.1	2015.9
27378	0.82674	1.8182	0.1	1915.2
27379	0.73488	2.0909	0.1	2066.4
27380	0.82674	2.	0.1	1976.8
27381	0.73488	2.2727	0.1	2104.5
27382	0.82674	2.1818	0.1	2023.8
27383	0.73488	2.4545	0.1	2132.3
27384	0.82674	2.3636	0.1	2058.9
27385	0.73488	2.6364	0.1	2151.2
27386	0.82674	2.5455	0.1	2083.8
27387	0.73488	2.8182	0.1	2162.2
27388	0.82674	2.7273	0.1	2099.9
27389	0.73488	3.	0.1	2165.8
27390	0.82674	2.9091	0.1	2107.7
27391	0.73488	3.1818	0.1	2162.2
27392	0.82674	3.0909	0.1	2107.7
27393	0.73488	3.3636	0.1	2151.2
27394	0.82674	3.2727	0.1	2099.9
27395	0.73488	3.5455	0.1	2132.3
27396	0.82674	3.4545	0.1	2083.8
27397	0.73488	3.7273	0.1	2104.5
27398	0.82674	3.6364	0.1	2058.9
27399	0.73488	3.9091	0.1	2066.4
27400	0.82674	3.8182	0.1	2023.8
27401	0.73488	4.0909	0.1	2015.9
27402	0.82674	4.	0.1	1976.8
27403	0.73488	4.2727	0.1	1949.9
27404	0.82674	4.1818	0.1	1915.2
27405	0.73488	4.4545	0.1	1864.2
27406	0.82674	4.3636	0.1	1835.7
27407	0.73488	4.6364	0.1	1752.8
27408	0.82674	4.5455	0.1	1733.4
27409	0.73488	4.8182	0.1	1607.7
27410	0.82674	4.7273	0.1	1602.2
27411	0.73488	5.	0.1	1419.
27412	0.82674	4.9091	0.1	1434.4
27413	0.73488	5.1818	0.1	1176.6
27414	0.82674	5.0909	0.1	1222.
27415	0.73488	5.3636	0.1	875.18
27416	0.82674	5.2727	0.1	959.46
27417	0.73488	5.5455	0.1	524.2
27418	0.82674	5.4545	0.1	650.07
27419	0.73488	5.7273	0.1	146.59
27420	0.82674	5.6364	0.1	312.47
27421	0.82674	5.8182	0.1	16.502
27422	0.73488	5.9091	0.1	1.4385
27423	0.9186	0.27273	0.1	128.21
27424	1.0105	0.18182	0.1	15.993
27425	0.9186	9.0909e-002	0.1	-1.0267
27426	0.9186	0.45455	0.1	437.67
27427	1.0105	0.36364	0.1	270.3
27428	0.9186	0.63636	0.1	734.89
27429	1.0105	0.54545	0.1	552.46
27430	0.9186	0.81818	0.1	1005.9
27431	1.0105	0.72727	0.1	822.18
27432	0.9186	1.	0.1	1238.4
27433	1.0105	0.90909	0.1	1064.
27434	0.9186	1.1818	0.1	1429.7
27435	1.0105	1.0909	0.1	1270.3
27436	0.9186	1.3636	0.1	1583.4
27437	1.0105	1.2727	0.1	1440.9
27438	0.9186	1.5455	0.1	1705.3
27439	1.0105	1.4545	0.1	1579.1
27440	0.9186	1.7273	0.1	1801.2
27441	1.0105	1.6364	0.1	1689.9
27442	0.9186	1.9091	0.1	1876.2
27443	1.0105	1.8182	0.1	1777.7
27444	0.9186	2.0909	0.1	1934.3
27445	1.0105	2.	0.1	1846.6
27446	0.9186	2.2727	0.1	1978.3
27447	1.0105	2.1818	0.1	1899.8
27448	0.9186	2.4545	0.1	2010.6
27449	1.0105	2.3636	0.1	1939.8
27450	0.9186	2.6364	0.1	2032.6
27451	1.0105	2.5455	0.1	1968.3
27452	0.9186	2.8182	0.1	2045.4
27453	1.0105	2.7273	0.1	1986.7
27454	0.9186	3.	0.1	2049.7
27455	1.0105	2.9091	0.1	1995.7
27456	0.9186	3.1818	0.1	2045.4
27457	1.0105	3.0909	0.1	1995.7
27458	0.9186	3.3636	0.1	2032.6
27459	1.0105	3.2727	0.1	1986.7
27460	0.9186	3.5455	0.1	2010.6
27461	1.0105	3.4545	0.1	1968.3
27462	0.9186	3.7273	0.1	1978.3
27463	1.0105	3.6364	0.1	1939.8
27464	0.9186	3.9091	0.1	1934.3
27465	1.0105	3.8182	0.1	1899.8
27466	0.9186	4.0909	0.1	1876.2
27467	1.0105	4.	0.1	1846.6
27468	0.9186	4.2727	0.1	1801.2
27469	1.0105	4.1818	0.1	1777.7
27470	0.9186	4.4545	0.1	1705.3
27471	1.0105	4.3636	0.1	1689.9
27472	0.9186	4.6364	0.1	1583.4
27473	1.0105	4.5455	0.1	1579.1
27474	0.9186	4.8182	0.1	1429.7
27475	1.0105	4.7273	0.1	1440.9
27476	0.9186	5.	0.1	1238.4
27477	1.0105	4.9091	0.1	1270.3
27478	0.9186	5.1818	0.1	1005.9
27479	1.0105	5.0909	0.1	1064.
27480	0.9186	5.3636	0.1	734.89
27481	1.0105	5.2727	0.1	822.18
27482	0.9186	5.5455	0.1	437.67
27483	1.0105	5.4545	0.1	552.46
27484	0.9186	5.7273	0.1	128.21
27485	1.0105	5.6364	0.1	270.3
27486	1.0105	5.8182	0.1	15.993
27487	0.9186	5.9091	0.1	-1.0267
27488	1.1023	0.27273	0.1	121.9
27489	1.1942	0.18182	0.1	19.057
27490	1.1023	9.0909e-002	0.1	-1.5108e-003
27491	1.1023	0.45455	0.1	384.3
27492	1.1942	0.36364	0.1	244.36
27493	1.1023	0.63636	0.1	639.74
27494	1.1942	0.54545	0.1	485.73
27495	1.1023	0.81818	0.1	880.73
27496	1.1942	0.72727	0.1	721.44
27497	1.1023	1.	0.1	1096.6
27498	1.1942	0.90909	0.1	940.22
27499	1.1023	1.1818	0.1	1282.2
27500	1.1942	1.0909	0.1	1134.3
27501	1.1023	1.3636	0.1	1437.2
27502	1.1942	1.2727	0.1	1300.9
27503	1.1023	1.5455	0.1	1564.2
27504	1.1942	1.4545	0.1	1440.4
27505	1.1023	1.7273	0.1	1666.7
27506	1.1942	1.6364	0.1	1555.2
27507	1.1023	1.9091	0.1	1748.3
27508	1.1942	1.8182	0.1	1648.2
27509	1.1023	2.0909	0.1	1812.3
27510	1.1942	2.	0.1	1722.4
27511	1.1023	2.2727	0.1	1861.5
27512	1.1942	2.1818	0.1	1780.4
27513	1.1023	2.4545	0.1	1897.7
27514	1.1942	2.3636	0.1	1824.4
27515	1.1023	2.6364	0.1	1922.6
27516	1.1942	2.5455	0.1	1856.
27517	1.1023	2.8182	0.1	1937.1
27518	1.1942	2.7273	0.1	1876.4
27519	1.1023	3.	0.1	1941.9
27520	1.1942	2.9091	0.1	1886.4
27521	1.1023	3.1818	0.1	1937.1
27522	1.1942	3.0909	0.1	1886.4
27523	1.1023	3.3636	0.1	1922.6
27524	1.1942	3.2727	0.1	1876.4
27525	1.1023	3.5455	0.1	1897.7
27526	1.1942	3.4545	0.1	1856.
27527	1.1023	3.7273	0.1	1861.5
27528	1.1942	3.6364	0.1	1824.4
27529	1.1023	3.9091	0.1	1812.3
27530	1.1942	3.8182	0.1	1780.4
27531	1.1023	4.0909	0.1	1748.3
27532	1.1942	4.	0.1	1722.4
27533	1.1023	4.2727	0.1	1666.7
27534	1.1942	4.1818	0.1	1648.2
27535	1.1023	4.4545	0.1	1564.2
27536	1.1942	4.3636	0.1	1555.2
27537	1.1023	4.6364	0.1	1437.2
27538	1.1942	4.5455	0.1	1440.4
27539	1.1023	4.8182	0.1	1282.2
27540	1.1942	4.7273	0.1	1300.9
27541	1.1023	5.	0.1	1096.6
27542	1.1942	4.9091	0.1	1134.3
27543	1.1023	5.1818	0.1	880.73
27544	1.1942	5.0909	0.1	940.22
27545	1.1023	5.3636	0.1	639.74
27546	1.1942	5.2727	0.1	721.44
27547	1.1023	5.5455	0.1	384.3
27548	1.1942	5.4545	0.1	485.73
27549	1.1023	5.7273	0.1	121.9
27550	1.1942	5.6364	0.1	244.36
27551	1.1942	5.8182	0.1	19.057
27552	1.1023	5.9091	0.1	-1.5112e-003
27553	1.286	0.27273	0.1	118.16
27554	1.3779	0.18182	0.1	23.024
27555	1.286	9.0909e-002	0.1	0.16009
27556	1.286	0.45455	0.1	345.04
27557	1.3779	0.36364	0.1	225.55
27558	1.286	0.63636	0.1	567.19
27559	1.3779	0.54545	0.1	435.57
27560	1.286	0.81818	0.1	781.06
27561	1.3779	0.72727	0.1	642.96
27562	1.286	1.	0.1	978.35
27563	1.3779	0.90909	0.1	839.75
27564	1.286	1.1818	0.1	1153.6
27565	1.3779	1.0909	0.1	1019.3
27566	1.286	1.3636	0.1	1304.6
27567	1.3779	1.2727	0.1	1177.8
27568	1.286	1.5455	0.1	1431.9
27569	1.3779	1.4545	0.1	1314.3
27570	1.286	1.7273	0.1	1537.1
27571	1.3779	1.6364	0.1	1429.3
27572	1.286	1.9091	0.1	1622.6
27573	1.3779	1.8182	0.1	1524.5
27574	1.286	2.0909	0.1	1690.7
27575	1.3779	2.	0.1	1601.7
27576	1.286	2.2727	0.1	1743.6
27577	1.3779	2.1818	0.1	1662.8
27578	1.286	2.4545	0.1	1782.9
27579	1.3779	2.3636	0.1	1709.7
27580	1.286	2.6364	0.1	1810.1
27581	1.3779	2.5455	0.1	1743.6
27582	1.286	2.8182	0.1	1826.
27583	1.3779	2.7273	0.1	1765.7
27584	1.286	3.	0.1	1831.2
27585	1.3779	2.9091	0.1	1776.5
27586	1.286	3.1818	0.1	1826.
27587	1.3779	3.0909	0.1	1776.5
27588	1.286	3.3636	0.1	1810.1
27589	1.3779	3.2727	0.1	1765.7
27590	1.286	3.5455	0.1	1782.9
27591	1.3779	3.4545	0.1	1743.6
27592	1.286	3.7273	0.1	1743.6
27593	1.3779	3.6364	0.1	1709.7
27594	1.286	3.9091	0.1	1690.7
27595	1.3779	3.8182	0.1	1662.8
27596	1.286	4.0909	0.1	1622.6
27597	1.3779	4.	0.1	1601.7
27598	1.286	4.2727	0.1	1537.1
27599	1.3779	4.1818	0.1	1524.5
27600	1.286	4.4545	0.1	1431.9
27601	1.3779	4.3636	0.1	1429.3
27602	1.286	4.6364	0.1	1304.6
27603	1.3779	4.5455	0.1	1314.3
27604	1.286	4.8182	0.1	1153.6
27605	1.3779	4.7273	0.1	1177.8
27606	1.286	5.	0.1	978.35
27607	1.3779	4.9091	0.1	1019.3
27608	1.286	5.1818	0.1	781.06
27609	1.3779	5.0909	0.1	839.75
27610	1.286	5.3636	0.1	567.19
27611	1.3779	5.2727	0.1	642.96
27612	1.286	5.5455	0.1	345.04
27613	1.3779	5.4545	0.1	435.57
27614	1.286	5.7273	0.1	118.16
27615	1.3779	5.6364	0.1	225.55
27616	1.3779	5.8182	0.1	23.024
27617	1.286	5.9091	0.1	0.16008
27618	1.4698	0.27273	0.1	116.08
27619	1.5616	0.18182	0.1	28.096
27620	1.4698	9.0909e-002	0.1	0.93175
27621	1.4698	0.45455	0.1	315.43
27622	1.5616	0.36364	0.1	211.11
27623	1.4698	0.63636	0.1	511.03
27624	1.5616	0.54545	0.1	396.42
27625	1.4698	0.81818	0.1	701.58
27626	1.5616	0.72727	0.1	580.39
27627	1.4698	1.	0.1	880.82
27628	1.5616	0.90909	0.1	757.42
27629	1.4698	1.1818	0.1	1043.8
27630	1.5616	1.0909	0.1	922.06
27631	1.4698	1.3636	0.1	1187.9
27632	1.5616	1.2727	0.1	1070.7
27633	1.4698	1.5455	0.1	1312.1
27634	1.5616	1.4545	0.1	1201.5
27635	1.4698	1.7273	0.1	1417.1
27636	1.5616	1.6364	0.1	1314.
27637	1.4698	1.9091	0.1	1503.9
27638	1.5616	1.8182	0.1	1408.8
27639	1.4698	2.0909	0.1	1574.1
27640	1.5616	2.	0.1	1487.
27641	1.4698	2.2727	0.1	1629.3
27642	1.5616	2.1818	0.1	1549.7
27643	1.4698	2.4545	0.1	1670.7
27644	1.5616	2.3636	0.1	1598.2
27645	1.4698	2.6364	0.1	1699.5
27646	1.5616	2.5455	0.1	1633.7
27647	1.4698	2.8182	0.1	1716.5
27648	1.5616	2.7273	0.1	1656.8
27649	1.4698	3.	0.1	1722.1
27650	1.5616	2.9091	0.1	1668.2
27651	1.4698	3.1818	0.1	1716.5
27652	1.5616	3.0909	0.1	1668.2
27653	1.4698	3.3636	0.1	1699.5
27654	1.5616	3.2727	0.1	1656.8
27655	1.4698	3.5455	0.1	1670.7
27656	1.5616	3.4545	0.1	1633.7
27657	1.4698	3.7273	0.1	1629.3
27658	1.5616	3.6364	0.1	1598.2
27659	1.4698	3.9091	0.1	1574.1
27660	1.5616	3.8182	0.1	1549.7
27661	1.4698	4.0909	0.1	1503.9
27662	1.5616	4.	0.1	1487.
27663	1.4698	4.2727	0.1	1417.1
27664	1.5616	4.1818	0.1	1408.8
27665	1.4698	4.4545	0.1	1312.1
27666	1.5616	4.3636	0.1	1314.
27667	1.4698	4.6364	0.1	1187.9
27668	1.5616	4.5455	0.1	1201.5
27669	1.4698	4.8182	0.1	1043.8
27670	1.5616	4.7273	0.1	1070.7
27671	1.4698	5.	0.1	880.82
27672	1.5616	4.9091	0.1	922.06
27673	1.4698	5.1818	0.1	701.58
27674	1.5616	5.0909	0.1	757.42
27675	1.4698	5.3636	0.1	511.03
27676	1.5616	5.2727	0.1	580.39
27677	1.4698	5.5455	0.1	315.43
27678	1.5616	5.4545	0.1	396.42
27679	1.4698	5.7273	0.1	116.08
27680	1.5616	5.6364	0.1	211.11
27681	1.5616	5.8182	0.1	28.096
27682	1.4698	5.9091	0.1	0.93175
27683	1.6535	0.27273	0.1	114.36
27684	1.7453	0.18182	0.1	33.348
27685	1.6535	9.0909e-002	0.1	3.1343
27686	1.6535	0.45455	0.1	291.53
27687	1.7453	0.36364	0.1	199.09
27688	1.6535	0.63636	0.1	465.45
27689	1.7453	0.54545	0.1	364.32
27690	1.6535	0.81818	0.1	636.08
27691	1.7453	0.72727	0.1	528.75
27692	1.6535	1.	0.1	798.69
27693	1.7453	0.90909	0.1	688.38
27694	1.6535	1.1818	0.1	949.11
27695	1.7453	1.0909	0.1	838.87
27696	1.6535	1.3636	0.1	1084.6
27697	1.7453	1.2727	0.1	976.95
27698	1.6535	1.5455	0.1	1203.7
27699	1.7453	1.4545	0.1	1100.6
27700	1.6535	1.7273	0.1	1306.1
27701	1.7453	1.6364	0.1	1208.7
27702	1.6535	1.9091	0.1	1392.2
27703	1.7453	1.8182	0.1	1301.3
27704	1.6535	2.0909	0.1	1462.9
27705	1.7453	2.	0.1	1378.7
27706	1.6535	2.2727	0.1	1519.
27707	1.7453	2.1818	0.1	1441.6
27708	1.6535	2.4545	0.1	1561.5
27709	1.7453	2.3636	0.1	1490.7
27710	1.6535	2.6364	0.1	1591.3
27711	1.7453	2.5455	0.1	1526.8
27712	1.6535	2.8182	0.1	1608.9
27713	1.7453	2.7273	0.1	1550.6
27714	1.6535	3.	0.1	1614.7
27715	1.7453	2.9091	0.1	1562.3
27716	1.6535	3.1818	0.1	1608.9
27717	1.7453	3.0909	0.1	1562.3
27718	1.6535	3.3636	0.1	1591.3
27719	1.7453	3.2727	0.1	1550.6
27720	1.6535	3.5455	0.1	1561.5
27721	1.7453	3.4545	0.1	1526.8
27722	1.6535	3.7273	0.1	1519.
27723	1.7453	3.6364	0.1	1490.7
27724	1.6535	3.9091	0.1	1462.9
27725	1.7453	3.8182	0.1	1441.6
27726	1.6535	4.0909	0.1	1392.2
27727	1.7453	4.	0.1	1378.7
27728	1.6535	4.2727	0.1	1306.1
27729	1.7453	4.1818	0.1	1301.3
27730	1.6535	4.4545	0.1	1203.7
27731	1.7453	4.3636	0.1	1208.7
27732	1.6535	4.6364	0.1	1084.6
27733	1.7453	4.5455	0.1	1100.6
27734	1.6535	4.8182	0.1	949.11
27735	1.7453	4.7273	0.1	976.95
27736	1.6535	5.	0.1	798.69
27737	1.7453	4.9091	0.1	838.87
27738	1.6535	5.1818	0.1	636.08
27739	1.7453	5.0909	0.1	688.38
27740	1.6535	5.3636	0.1	465.45
27741	1.7453	5.2727	0.1	528.75
27742	1.6535	5.5455	0.1	291.53
27743	1.7453	5.4545	0.1	364.32
27744	1.6535	5.7273	0.1	114.36
27745	1.7453	5.6364	0.1	199.09
27746	1.7453	5.8182	0.1	33.348
27747	1.6535	5.9091	0.1	3.1343
27748	1.8372	0.27273	0.1	112.57
27749	1.9291	0.18182	0.1	38.125
27750	1.8372	9.0909e-002	0.1	7.7039
27751	1.8372	0.45455	0.1	271.4
27752	1.9291	0.36364	0.1	188.52
27753	1.8372	0.63636	0.1	427.3
27754	1.9291	0.54545	0.1	337.02
27755	1.8372	0.81818	0.1	580.86
27756	1.9291	0.72727	0.1	484.93
27757	1.8372	1.	0.1	728.5
27758	1.9291	0.90909	0.1	629.33
27759	1.8372	1.1818	0.1	866.77
27760	1.9291	1.0909	0.1	766.74
27761	1.8372	1.3636	0.1	993.09
27762	1.9291	1.2727	0.1	894.36
27763	1.8372	1.5455	0.1	1105.8
27764	1.9291	1.4545	0.1	1010.1
27765	1.8372	1.7273	0.1	1204.2
27766	1.9291	1.6364	0.1	1112.9
27767	1.8372	1.9091	0.1	1288.1
27768	1.9291	1.8182	0.1	1202.
27769	1.8372	2.0909	0.1	1357.8
27770	1.9291	2.	0.1	1277.3
27771	1.8372	2.2727	0.1	1413.7
27772	1.9291	2.1818	0.1	1339.2
27773	1.8372	2.4545	0.1	1456.4
27774	1.9291	2.3636	0.1	1387.9
27775	1.8372	2.6364	0.1	1486.5
27776	1.9291	2.5455	0.1	1424.
27777	1.8372	2.8182	0.1	1504.3
27778	1.9291	2.7273	0.1	1447.9
27779	1.8372	3.	0.1	1510.2
27780	1.9291	2.9091	0.1	1459.7
27781	1.8372	3.1818	0.1	1504.3
27782	1.9291	3.0909	0.1	1459.7
27783	1.8372	3.3636	0.1	1486.5
27784	1.9291	3.2727	0.1	1447.9
27785	1.8372	3.5455	0.1	1456.4
27786	1.9291	3.4545	0.1	1424.
27787	1.8372	3.7273	0.1	1413.7
27788	1.9291	3.6364	0.1	1387.9
27789	1.8372	3.9091	0.1	1357.8
27790	1.9291	3.8182	0.1	1339.2
27791	1.8372	4.0909	0.1	1288.1
27792	1.9291	4.	0.1	1277.3
27793	1.8372	4.2727	0.1	1204.2
27794	1.9291	4.1818	0.1	1202.
27795	1.8372	4.4545	0.1	1105.8
27796	1.9291	4.3636	0.1	1112.9
27797	1.8372	4.6364	0.1	993.09
27798	1.9291	4.5455	0.1	1010.1
27799	1.8372	4.8182	0.1	866.77
27800	1.9291	4.7273	0.1	894.36
27801	1.8372	5.	0.1	728.5
27802	1.9291	4.9091	0.1	766.74
27803	1.8372	5.1818	0.1	580.86
27804	1.9291	5.0909	0.1	629.33
27805	1.8372	5.3636	0.1	427.3
27806	1.9291	5.2727	0.1	484.93
27807	1.8372	5.5455	0.1	271.4
27808	1.9291	5.4545	0.1	337.02
27809	1.8372	5.7273	0.1	112.57
27810	1.9291	5.6364	0.1	188.52
27811	1.9291	5.8182	0.1	38.125
27812	1.8372	5.9091	0.1	7.7039
27813	2.0209	0.27273	0.1	110.45
27814	2.1128	0.18182	0.1	42.048
27815	2.0209	9.0909e-002	0.1	12.334
27816	2.0209	0.45455	0.1	253.74
27817	2.1128	0.36364	0.1	178.79
27818	2.0209	0.63636	0.1	394.37
27819	2.1128	0.54545	0.1	313.07
27820	2.0209	0.81818	0.1	533.2
27821	2.1128	0.72727	0.1	446.8
27822	2.0209	1.	0.1	667.47
27823	2.1128	0.90909	0.1	577.82
27824	2.0209	1.1818	0.1	794.33
27825	2.1128	1.0909	0.1	703.34
27826	2.0209	1.3636	0.1	911.5
27827	2.1128	1.2727	0.1	820.95
27828	2.0209	1.5455	0.1	1017.3
27829	2.1128	1.4545	0.1	928.77
27830	2.0209	1.7273	0.1	1110.8
27831	2.1128	1.6364	0.1	1025.5
27832	2.0209	1.9091	0.1	1191.4
27833	2.1128	1.8182	0.1	1110.2
27834	2.0209	2.0909	0.1	1259.
27835	2.1128	2.	0.1	1182.7
27836	2.0209	2.2727	0.1	1313.8
27837	2.1128	2.1818	0.1	1242.7
27838	2.0209	2.4545	0.1	1355.9
27839	2.1128	2.3636	0.1	1290.3
27840	2.0209	2.6364	0.1	1385.8
27841	2.1128	2.5455	0.1	1325.8
27842	2.0209	2.8182	0.1	1403.6
27843	2.1128	2.7273	0.1	1349.4
27844	2.0209	3.	0.1	1409.5
27845	2.1128	2.9091	0.1	1361.1
27846	2.0209	3.1818	0.1	1403.6
27847	2.1128	3.0909	0.1	1361.1
27848	2.0209	3.3636	0.1	1385.8
27849	2.1128	3.2727	0.1	1349.4
27850	2.0209	3.5455	0.1	1355.9
27851	2.1128	3.4545	0.1	1325.8
27852	2.0209	3.7273	0.1	1313.8
27853	2.1128	3.6364	0.1	1290.3
27854	2.0209	3.9091	0.1	1259.
27855	2.1128	3.8182	0.1	1242.7
27856	2.0209	4.0909	0.1	1191.4
27857	2.1128	4.	0.1	1182.7
27858	2.0209	4.2727	0.1	1110.8
27859	2.1128	4.1818	0.1	1110.2
27860	2.0209	4.4545	0.1	1017.3
27861	2.1128	4.3636	0.1	1025.5
27862	2.0209	4.6364	0.1	911.5
27863	2.1128	4.5455	0.1	928.77
27864	2.0209	4.8182	0.1	794.33
27865	2.1128	4.7273	0.1	820.95
27866	2.0209	5.	0.1	667.47
27867	2.1128	4.9091	0.1	703.34
27868	2.0209	5.1818	0.1	533.2
27869	2.1128	5.0909	0.1	577.82
27870	2.0209	5.3636	0.1	394.37
27871	2.1128	5.2727	0.1	446.8
27872	2.0209	5.5455	0.1	253.74
27873	2.1128	5.4545	0.1	313.07
27874	2.0209	5.7273	0.1	110.45
27875	2.1128	5.6364	0.1	178.79
27876	2.1128	5.8182	0.1	42.048
27877	2.0209	5.9091	0.1	12.334
27878	2.2047	0.27273	0.1	107.9
27879	2.2965	0.18182	0.1	44.994
27880	2.2047	9.0909e-002	0.1	16.093
27881	2.2047	0.45455	0.1	237.77
27882	2.2965	0.36364	0.1	169.55
27883	2.2047	0.63636	0.1	365.24
27884	2.2965	0.54545	0.1	291.5
27885	2.2047	0.81818	0.1	491.22
27886	2.2965	0.72727	0.1	412.9
27887	2.2047	1.	0.1	613.56
27888	2.2965	0.90909	0.1	532.11
27889	2.2047	1.1818	0.1	729.91
27890	2.2965	1.0909	0.1	646.86
27891	2.2047	1.3636	0.1	838.25
27892	2.2965	1.2727	0.1	755.11
27893	2.2047	1.5455	0.1	937.02
27894	2.2965	1.4545	0.1	855.14
27895	2.2047	1.7273	0.1	1025.1
27896	2.2965	1.6364	0.1	945.64
27897	2.2047	1.9091	0.1	1101.7
27898	2.2965	1.8182	0.1	1025.7
27899	2.2047	2.0909	0.1	1166.6
27900	2.2965	2.	0.1	1094.6
27901	2.2047	2.2727	0.1	1219.5
27902	2.2965	2.1818	0.1	1152.2
27903	2.2047	2.4545	0.1	1260.5
27904	2.2965	2.3636	0.1	1198.2
27905	2.2047	2.6364	0.1	1289.7
27906	2.2965	2.5455	0.1	1232.6
27907	2.2047	2.8182	0.1	1307.2
27908	2.2965	2.7273	0.1	1255.5
27909	2.2047	3.	0.1	1313.
27910	2.2965	2.9091	0.1	1267.
27911	2.2047	3.1818	0.1	1307.2
27912	2.2965	3.0909	0.1	1267.
27913	2.2047	3.3636	0.1	1289.7
27914	2.2965	3.2727	0.1	1255.5
27915	2.2047	3.5455	0.1	1260.5
27916	2.2965	3.4545	0.1	1232.6
27917	2.2047	3.7273	0.1	1219.5
27918	2.2965	3.6364	0.1	1198.2
27919	2.2047	3.9091	0.1	1166.6
27920	2.2965	3.8182	0.1	1152.2
27921	2.2047	4.0909	0.1	1101.7
27922	2.2965	4.	0.1	1094.6
27923	2.2047	4.2727	0.1	1025.1
27924	2.2965	4.1818	0.1	1025.7
27925	2.2047	4.4545	0.1	937.02
27926	2.2965	4.3636	0.1	945.64
27927	2.2047	4.6364	0.1	838.25
27928	2.2965	4.5455	0.1	855.14
27929	2.2047	4.8182	0.1	729.91
27930	2.2965	4.7273	0.1	755.11
27931	2.2047	5.	0.1	613.56
27932	2.2965	4.9091	0.1	646.86
27933	2.2047	5.1818	0.1	491.22
27934	2.2965	5.0909	0.1	532.11
27935	2.2047	5.3636	0.1	365.24
27936	2.2965	5.2727	0.1	412.9
27937	2.2047	5.5455	0.1	237.77
27938	2.2965	5.4545	0.1	291.5
27939	2.2047	5.7273	0.1	107.9
27940	2.2965	5.6364	0.1	169.55
27941	2.2965	5.8182	0.1	44.994
27942	2.2047	5.9091	0.1	16.093
27943	2.3884	0.27273	0.1	104.86
27944	2.4802	0.18182	0.1	46.962
27945	2.3884	9.0909e-002	0.1	18.938
27946	2.3884	0.45455	0.1	222.98
27947	2.4802	0.36364	0.1	160.56
27948	2.3884	0.63636	0.1	338.93
27949	2.4802	0.54545	0.1	271.67
27950	2.3884	0.81818	0.1	453.61
27951	2.4802	0.72727	0.1	382.22
27952	2.3884	1.	0.1	565.28
27953	2.4802	0.90909	0.1	490.94
27954	2.3884	1.1818	0.1	672.
27955	2.4802	1.0909	0.1	595.96
27956	2.3884	1.3636	0.1	772.
27957	2.4802	1.2727	0.1	695.54
27958	2.3884	1.5455	0.1	863.83
27959	2.4802	1.4545	0.1	788.14
27960	2.3884	1.7273	0.1	946.33
27961	2.4802	1.6364	0.1	872.49
27962	2.3884	1.9091	0.1	1018.7
27963	2.4802	1.8182	0.1	947.6
27964	2.3884	2.0909	0.1	1080.4
27965	2.4802	2.	0.1	1012.8
27966	2.3884	2.2727	0.1	1131.
27967	2.4802	2.1818	0.1	1067.5
27968	2.3884	2.4545	0.1	1170.5
27969	2.4802	2.3636	0.1	1111.5
27970	2.3884	2.6364	0.1	1198.7
27971	2.4802	2.5455	0.1	1144.6
27972	2.3884	2.8182	0.1	1215.6
27973	2.4802	2.7273	0.1	1166.7
27974	2.3884	3.	0.1	1221.2
27975	2.4802	2.9091	0.1	1177.7
27976	2.3884	3.1818	0.1	1215.6
27977	2.4802	3.0909	0.1	1177.7
27978	2.3884	3.3636	0.1	1198.7
27979	2.4802	3.2727	0.1	1166.7
27980	2.3884	3.5455	0.1	1170.5
27981	2.4802	3.4545	0.1	1144.6
27982	2.3884	3.7273	0.1	1131.
27983	2.4802	3.6364	0.1	1111.5
27984	2.3884	3.9091	0.1	1080.4
27985	2.4802	3.8182	0.1	1067.5
27986	2.3884	4.0909	0.1	1018.7
27987	2.4802	4.	0.1	1012.8
27988	2.3884	4.2727	0.1	946.33
27989	2.4802	4.1818	0.1	947.6
27990	2.3884	4.4545	0.1	863.83
27991	2.4802	4.3636	0.1	872.49
27992	2.3884	4.6364	0.1	772.
27993	2.4802	4.5455	0.1	788.14
27994	2.3884	4.8182	0.1	672.
27995	2.4802	4.7273	0.1	695.54
27996	2.3884	5.	0.1	565.28
27997	2.4802	4.9091	0.1	595.96
27998	2.3884	5.1818	0.1	453.61
27999	2.4802	5.0909	0.1	490.94
28000	2.3884	5.3636	0.1	338.93
28001	2.4802	5.2727	0.1	382.22
28002	2.3884	5.5455	0.1	222.98
28003	2.4802	5.4545	0.1	271.67
28004	2.3884	5.7273	0.1	104.86
28005	2.4802	5.6364	0.1	160.56
28006	2.4802	5.8182	0.1	46.962
28007	2.3884	5.9091	0.1	18.937
28008	2.5721	0.27273	0.1	101.35
28009	2.664	0.18182	0.1	48.012
28010	2.5721	9.0909e-002	0.1	20.959
28011	2.5721	0.45455	0.1	209.
28012	2.664	0.36364	0.1	151.7
28013	2.5721	0.63636	0.1	314.76
28014	2.664	0.54545	0.1	253.14
28015	2.5721	0.81818	0.1	419.39
28016	2.664	0.72727	0.1	354.03
28017	2.5721	1.	0.1	521.5
28018	2.664	0.90909	0.1	453.37
28019	2.5721	1.1818	0.1	619.43
28020	2.664	1.0909	0.1	549.6
28021	2.5721	1.3636	0.1	711.66
28022	2.664	1.2727	0.1	641.21
28023	2.5721	1.5455	0.1	796.83
28024	2.664	1.4545	0.1	726.82
28025	2.5721	1.7273	0.1	873.84
28026	2.664	1.6364	0.1	805.25
28027	2.5721	1.9091	0.1	941.81
28028	2.664	1.8182	0.1	875.5
28029	2.5721	2.0909	0.1	1000.1
28030	2.664	2.	0.1	936.79
28031	2.5721	2.2727	0.1	1048.2
28032	2.664	2.1818	0.1	988.55
28033	2.5721	2.4545	0.1	1085.8
28034	2.664	2.3636	0.1	1030.3
28035	2.5721	2.6364	0.1	1112.8
28036	2.664	2.5455	0.1	1061.9
28037	2.5721	2.8182	0.1	1129.1
28038	2.664	2.7273	0.1	1083.
28039	2.5721	3.	0.1	1134.5
28040	2.664	2.9091	0.1	1093.6
28041	2.5721	3.1818	0.1	1129.1
28042	2.664	3.0909	0.1	1093.6
28043	2.5721	3.3636	0.1	1112.8
28044	2.664	3.2727	0.1	1083.
28045	2.5721	3.5455	0.1	1085.8
28046	2.664	3.4545	0.1	1061.9
28047	2.5721	3.7273	0.1	1048.2
28048	2.664	3.6364	0.1	1030.3
28049	2.5721	3.9091	0.1	1000.1
28050	2.664	3.8182	0.1	988.55
28051	2.5721	4.0909	0.1	941.81
28052	2.664	4.	0.1	936.79
28053	2.5721	4.2727	0.1	873.84
28054	2.664	4.1818	0.1	875.5
28055	2.5721	4.4545	0.1	796.83
28056	2.664	4.3636	0.1	805.25
28057	2.5721	4.6364	0.1	711.66
28058	2.664	4.5455	0.1	726.82
28059	2.5721	4.8182	0.1	619.43
28060	2.664	4.7273	0.1	641.21
28061	2.5721	5.	0.1	521.5
28062	2.664	4.9091	0.1	549.6
28063	2.5721	5.1818	0.1	419.39
28064	2.664	5.0909	0.1	453.37
28065	2.5721	5.3636	0.1	314.76
28066	2.664	5.2727	0.1	354.03
28067	2.5721	5.5455	0.1	209.
28068	2.664	5.4545	0.1	253.14
28069	2.5721	5.7273	0.1	101.35
28070	2.664	5.6364	0.1	151.7
28071	2.664	5.8182	0.1	48.012
28072	2.5721	5.9091	0.1	20.959
28073	2.7558	0.27273	0.1	97.367
28074	2.8477	0.18182	0.1	48.223
28075	2.7558	9.0909e-002	0.1	22.264
28076	2.7558	0.45455	0.1	195.62
28077	2.8477	0.36364	0.1	142.88
28078	2.7558	0.63636	0.1	292.23
28079	2.8477	0.54545	0.1	235.58
28080	2.7558	0.81818	0.1	387.86
28081	2.8477	0.72727	0.1	327.79
28082	2.7558	1.	0.1	481.35
28083	2.8477	0.90909	0.1	418.69
28084	2.7558	1.1818	0.1	571.29
28085	2.8477	1.0909	0.1	506.96
28086	2.7558	1.3636	0.1	656.34
28087	2.8477	1.2727	0.1	591.28
28088	2.7558	1.5455	0.1	735.25
28089	2.8477	1.4545	0.1	670.41
28090	2.7558	1.7273	0.1	806.96
28091	2.8477	1.6364	0.1	743.25
28092	2.7558	1.9091	0.1	870.58
28093	2.8477	1.8182	0.1	808.8
28094	2.7558	2.0909	0.1	925.4
28095	2.8477	2.	0.1	866.28
28096	2.7558	2.2727	0.1	970.87
28097	2.8477	2.1818	0.1	915.03
28098	2.7558	2.4545	0.1	1006.6
28099	2.8477	2.3636	0.1	954.56
28100	2.7558	2.6364	0.1	1032.3
28101	2.8477	2.5455	0.1	984.49
28102	2.7558	2.8182	0.1	1047.8
28103	2.8477	2.7273	0.1	1004.6
28104	2.7558	3.	0.1	1052.9
28105	2.8477	2.9091	0.1	1014.7
28106	2.7558	3.1818	0.1	1047.8
28107	2.8477	3.0909	0.1	1014.7
28108	2.7558	3.3636	0.1	1032.3
28109	2.8477	3.2727	0.1	1004.6
28110	2.7558	3.5455	0.1	1006.6
28111	2.8477	3.4545	0.1	984.49
28112	2.7558	3.7273	0.1	970.87
28113	2.8477	3.6364	0.1	954.56
28114	2.7558	3.9091	0.1	925.4
28115	2.8477	3.8182	0.1	915.03
28116	2.7558	4.0909	0.1	870.58
28117	2.8477	4.	0.1	866.28
28118	2.7558	4.2727	0.1	806.96
28119	2.8477	4.1818	0.1	808.8
28120	2.7558	4.4545	0.1	735.25
28121	2.8477	4.3636	0.1	743.25
28122	2.7558	4.6364	0.1	656.34
28123	2.8477	4.5455	0.1	670.41
28124	2.7558	4.8182	0.1	571.29
28125	2.8477	4.7273	0.1	591.28
28126	2.7558	5.	0.1	481.35
28127	2.8477	4.9091	0.1	506.96
28128	2.7558	5.1818	0.1	387.86
28129	2.8477	5.0909	0.1	418.69
28130	2.7558	5.3636	0.1	292.23
28131	2.8477	5.2727	0.1	327.79
28132	2.7558	5.5455	0.1	195.62
28133	2.8477	5.4545	0.1	235.58
28134	2.7558	5.7273	0.1	97.367
28135	2.8477	5.6364	0.1	142.88
28136	2.8477	5.8182	0.1	48.223
28137	2.7558	5.9091	0.1	22.264
28138	2.9395	0.27273	0.1	92.952
28139	3.0314	0.18182	0.1	47.679
28140	2.9395	9.0909e-002	0.1	22.946
28141	2.9395	0.45455	0.1	182.65
28142	3.0314	0.36364	0.1	134.02
28143	2.9395	0.63636	0.1	270.99
28144	3.0314	0.54545	0.1	218.76
28145	2.9395	0.81818	0.1	358.49
28146	3.0314	0.72727	0.1	303.1
28147	2.9395	1.	0.1	444.19
28148	3.0314	0.90909	0.1	386.37
28149	2.9395	1.1818	0.1	526.86
28150	3.0314	1.0909	0.1	467.41
28151	2.9395	1.3636	0.1	605.31
28152	3.0314	1.2727	0.1	545.09
28153	2.9395	1.5455	0.1	678.41
28154	3.0314	1.4545	0.1	618.26
28155	2.9395	1.7273	0.1	745.12
28156	3.0314	1.6364	0.1	685.89
28157	2.9395	1.9091	0.1	804.57
28158	3.0314	1.8182	0.1	747.02
28159	2.9395	2.0909	0.1	856.02
28160	3.0314	2.	0.1	800.85
28161	2.9395	2.2727	0.1	898.85
28162	3.0314	2.1818	0.1	846.68
28163	2.9395	2.4545	0.1	932.62
28164	3.0314	2.3636	0.1	883.97
28165	2.9395	2.6364	0.1	956.97
28166	3.0314	2.5455	0.1	912.29
28167	2.9395	2.8182	0.1	971.67
28168	3.0314	2.7273	0.1	931.34
28169	2.9395	3.	0.1	976.58
28170	3.0314	2.9091	0.1	940.91
28171	2.9395	3.1818	0.1	971.67
28172	3.0314	3.0909	0.1	940.91
28173	2.9395	3.3636	0.1	956.97
28174	3.0314	3.2727	0.1	931.34
28175	2.9395	3.5455	0.1	932.62
28176	3.0314	3.4545	0.1	912.29
28177	2.9395	3.7273	0.1	898.85
28178	3.0314	3.6364	0.1	883.97
28179	2.9395	3.9091	0.1	856.02
28180	3.0314	3.8182	0.1	846.68
28181	2.9395	4.0909	0.1	804.57
28182	3.0314	4.	0.1	800.85
28183	2.9395	4.2727	0.1	745.12
28184	3.0314	4.1818	0.1	747.02
28185	2.9395	4.4545	0.1	678.41
28186	3.0314	4.3636	0.1	685.89
28187	2.9395	4.6364	0.1	605.31
28188	3.0314	4.5455	0.1	618.26
28189	2.9395	4.8182	0.1	526.86
28190	3.0314	4.7273	0.1	545.09
28191	2.9395	5.	0.1	444.19
28192	3.0314	4.9091	0.1	467.41
28193	2.9395	5.1818	0.1	358.49
28194	3.0314	5.0909	0.1	386.37
28195	2.9395	5.3636	0.1	270.99
28196	3.0314	5.2727	0.1	303.1
28197	2.9395	5.5455	0.1	182.65
28198	3.0314	5.4545	0.1	218.76
28199	2.9395	5.7273	0.1	92.952
28200	3.0314	5.6364	0.1	134.02
28201	3.0314	5.8182	0.1	47.678
28202	2.9395	5.9091	0.1	22.946
28203	3.1233	0.27273	0.1	88.127
28204	3.2151	0.18182	0.1	46.455
28205	3.1233	9.0909e-002	0.1	23.088
28206	3.1233	0.45455	0.1	169.97
28207	3.2151	0.36364	0.1	125.08
28208	3.1233	0.63636	0.1	250.75
28209	3.2151	0.54545	0.1	202.49
28210	3.1233	0.81818	0.1	330.86
28211	3.2151	0.72727	0.1	279.64
28212	3.1233	1.	0.1	409.49
28213	3.2151	0.90909	0.1	355.96
28214	3.1233	1.1818	0.1	485.56
28215	3.2151	1.0909	0.1	430.45
28216	3.1233	1.3636	0.1	557.99
28217	3.2151	1.2727	0.1	502.08
28218	3.1233	1.5455	0.1	625.73
28219	3.2151	1.4545	0.1	569.81
28220	3.1233	1.7273	0.1	687.81
28221	3.2151	1.6364	0.1	632.66
28222	3.1233	1.9091	0.1	743.35
28223	3.2151	1.8182	0.1	689.71
28224	3.1233	2.0909	0.1	791.6
28225	3.2151	2.	0.1	740.13
28226	3.1233	2.2727	0.1	831.91
28227	3.2151	2.1818	0.1	783.22
28228	3.1233	2.4545	0.1	863.78
28229	3.2151	2.3636	0.1	818.38
28230	3.1233	2.6364	0.1	886.82
28231	3.2151	2.5455	0.1	845.16
28232	3.1233	2.8182	0.1	900.74
28233	3.2151	2.7273	0.1	863.21
28234	3.1233	3.	0.1	905.4
28235	3.2151	2.9091	0.1	872.28
28236	3.1233	3.1818	0.1	900.74
28237	3.2151	3.0909	0.1	872.28
28238	3.1233	3.3636	0.1	886.82
28239	3.2151	3.2727	0.1	863.21
28240	3.1233	3.5455	0.1	863.78
28241	3.2151	3.4545	0.1	845.16
28242	3.1233	3.7273	0.1	831.91
28243	3.2151	3.6364	0.1	818.38
28244	3.1233	3.9091	0.1	791.6
28245	3.2151	3.8182	0.1	783.22
28246	3.1233	4.0909	0.1	743.35
28247	3.2151	4.	0.1	740.13
28248	3.1233	4.2727	0.1	687.81
28249	3.2151	4.1818	0.1	689.71
28250	3.1233	4.4545	0.1	625.73
28251	3.2151	4.3636	0.1	632.66
28252	3.1233	4.6364	0.1	557.99
28253	3.2151	4.5455	0.1	569.81
28254	3.1233	4.8182	0.1	485.56
28255	3.2151	4.7273	0.1	502.08
28256	3.1233	5.	0.1	409.49
28257	3.2151	4.9091	0.1	430.45
28258	3.1233	5.1818	0.1	330.86
28259	3.2151	5.0909	0.1	355.96
28260	3.1233	5.3636	0.1	250.75
28261	3.2151	5.2727	0.1	279.64
28262	3.1233	5.5455	0.1	169.97
28263	3.2151	5.4545	0.1	202.49
28264	3.1233	5.7273	0.1	88.127
28265	3.2151	5.6364	0.1	125.08
28266	3.2151	5.8182	0.1	46.455
28267	3.1233	5.9091	0.1	23.088
28268	3.307	0.27273	0.1	82.915
28269	3.3988	0.18182	0.1	44.62
28270	3.307	9.0909e-002	0.1	22.759
28271	3.307	0.45455	0.1	157.47
28272	3.3988	0.36364	0.1	116.03
28273	3.307	0.63636	0.1	231.28
28274	3.3988	0.54545	0.1	186.62
28275	3.307	0.81818	0.1	304.64
28276	3.3988	0.72727	0.1	257.15
28277	3.307	1.	0.1	376.83
28278	3.3988	0.90909	0.1	327.12
28279	3.307	1.1818	0.1	446.9
28280	3.3988	1.0909	0.1	395.65
28281	3.307	1.3636	0.1	513.86
28282	3.3988	1.2727	0.1	461.79
28283	3.307	1.5455	0.1	576.73
28284	3.3988	1.4545	0.1	524.6
28285	3.307	1.7273	0.1	634.57
28286	3.3988	1.6364	0.1	583.11
28287	3.307	1.9091	0.1	686.52
28288	3.3988	1.8182	0.1	636.44
28289	3.307	2.0909	0.1	731.81
28290	3.3988	2.	0.1	683.76
28291	3.307	2.2727	0.1	769.78
28292	3.3988	2.1818	0.1	724.34
28293	3.307	2.4545	0.1	799.88
28294	3.3988	2.3636	0.1	757.56
28295	3.307	2.6364	0.1	821.68
28296	3.3988	2.5455	0.1	782.92
28297	3.307	2.8182	0.1	834.88
28298	3.3988	2.7273	0.1	800.03
28299	3.307	3.	0.1	839.3
28300	3.3988	2.9091	0.1	808.66
28301	3.307	3.1818	0.1	834.88
28302	3.3988	3.0909	0.1	808.66
28303	3.307	3.3636	0.1	821.68
28304	3.3988	3.2727	0.1	800.03
28305	3.307	3.5455	0.1	799.88
28306	3.3988	3.4545	0.1	782.92
28307	3.307	3.7273	0.1	769.78
28308	3.3988	3.6364	0.1	757.56
28309	3.307	3.9091	0.1	731.81
28310	3.3988	3.8182	0.1	724.34
28311	3.307	4.0909	0.1	686.52
28312	3.3988	4.	0.1	683.76
28313	3.307	4.2727	0.1	634.57
28314	3.3988	4.1818	0.1	636.44
28315	3.307	4.4545	0.1	576.73
28316	3.3988	4.3636	0.1	583.11
28317	3.307	4.6364	0.1	513.86
28318	3.3988	4.5455	0.1	524.6
28319	3.307	4.8182	0.1	446.9
28320	3.3988	4.7273	0.1	461.79
28321	3.307	5.	0.1	376.83
28322	3.3988	4.9091	0.1	395.65
28323	3.307	5.1818	0.1	304.64
28324	3.3988	5.0909	0.1	327.12
28325	3.307	5.3636	0.1	231.28
28326	3.3988	5.2727	0.1	257.15
28327	3.307	5.5455	0.1	157.47
28328	3.3988	5.4545	0.1	186.62
28329	3.307	5.7273	0.1	82.915
28330	3.3988	5.6364	0.1	116.03
28331	3.3988	5.8182	0.1	44.62
28332	3.307	5.9091	0.1	22.759
28333	3.4907	0.27273	0.1	77.332
28334	3.5826	0.18182	0.1	42.23
28335	3.4907	9.0909e-002	0.1	22.015
28336	3.4907	0.45455	0.1	145.07
28337	3.5826	0.36364	0.1	106.82
28338	3.4907	0.63636	0.1	212.4
28339	3.5826	0.54545	0.1	171.01
28340	3.4907	0.81818	0.1	279.54
28341	3.5826	0.72727	0.1	235.39
28342	3.4907	1.	0.1	345.86
28343	3.5826	0.90909	0.1	299.53
28344	3.4907	1.1818	0.1	410.48
28345	3.5826	1.0909	0.1	362.63
28346	3.4907	1.3636	0.1	472.49
28347	3.5826	1.2727	0.1	423.82
28348	3.4907	1.5455	0.1	530.96
28349	3.5826	1.4545	0.1	482.19
28350	3.4907	1.7273	0.1	584.99
28351	3.5826	1.6364	0.1	536.83
28352	3.4907	1.9091	0.1	633.71
28353	3.5826	1.8182	0.1	586.84
28354	3.4907	2.0909	0.1	676.34
28355	3.5826	2.	0.1	631.4
28356	3.4907	2.2727	0.1	712.19
28357	3.5826	2.1818	0.1	669.75
28358	3.4907	2.4545	0.1	740.69
28359	3.5826	2.3636	0.1	701.25
28360	3.4907	2.6364	0.1	761.37
28361	3.5826	2.5455	0.1	725.35
28362	3.4907	2.8182	0.1	773.92
28363	3.5826	2.7273	0.1	741.64
28364	3.4907	3.	0.1	778.12
28365	3.5826	2.9091	0.1	749.86
28366	3.4907	3.1818	0.1	773.92
28367	3.5826	3.0909	0.1	749.86
28368	3.4907	3.3636	0.1	761.37
28369	3.5826	3.2727	0.1	741.64
28370	3.4907	3.5455	0.1	740.69
28371	3.5826	3.4545	0.1	725.35
28372	3.4907	3.7273	0.1	712.19
28373	3.5826	3.6364	0.1	701.25
28374	3.4907	3.9091	0.1	676.34
28375	3.5826	3.8182	0.1	669.75
28376	3.4907	4.0909	0.1	633.71
28377	3.5826	4.	0.1	631.4
28378	3.4907	4.2727	0.1	584.99
28379	3.5826	4.1818	0.1	586.84
28380	3.4907	4.4545	0.1	530.96
28381	3.5826	4.3636	0.1	536.83
28382	3.4907	4.6364	0.1	472.49
28383	3.5826	4.5455	0.1	482.19
28384	3.4907	4.8182	0.1	410.48
28385	3.5826	4.7273	0.1	423.82
28386	3.4907	5.	0.1	345.86
28387	3.5826	4.9091	0.1	362.63
28388	3.4907	5.1818	0.1	279.54
28389	3.5826	5.0909	0.1	299.53
28390	3.4907	5.3636	0.1	212.4
28391	3.5826	5.2727	0.1	235.39
28392	3.4907	5.5455	0.1	145.07
28393	3.5826	5.4545	0.1	171.01
28394	3.4907	5.7273	0.1	77.332
28395	3.5826	5.6364	0.1	106.82
28396	3.5826	5.8182	0.1	42.23
28397	3.4907	5.9091	0.1	22.015
28398	3.6744	0.27273	0.1	71.385
28399	3.7663	0.18182	0.1	39.329
28400	3.6744	9.0909e-002	0.1	20.903
28401	3.6744	0.45455	0.1	132.66
28402	3.7663	0.36364	0.1	97.391
28403	3.6744	0.63636	0.1	193.92
28404	3.7663	0.54545	0.1	155.52
28405	3.6744	0.81818	0.1	255.31
28406	3.7663	0.72727	0.1	214.16
28407	3.6744	1.	0.1	316.24
28408	3.7663	0.90909	0.1	272.92
28409	3.6744	1.1818	0.1	375.92
28410	3.7663	1.0909	0.1	331.07
28411	3.6744	1.3636	0.1	433.49
28412	3.7663	1.2727	0.1	387.8
28413	3.6744	1.5455	0.1	488.04
28414	3.7663	1.4545	0.1	442.22
28415	3.6744	1.7273	0.1	538.69
28416	3.7663	1.6364	0.1	493.44
28417	3.6744	1.9091	0.1	584.56
28418	3.7663	1.8182	0.1	540.56
28419	3.6744	2.0909	0.1	624.86
28420	3.7663	2.	0.1	582.73
28421	3.6744	2.2727	0.1	658.87
28422	3.7663	2.1818	0.1	619.17
28423	3.6744	2.4545	0.1	685.98
28424	3.7663	2.3636	0.1	649.19
28425	3.6744	2.6364	0.1	705.7
28426	3.7663	2.5455	0.1	672.23
28427	3.6744	2.8182	0.1	717.68
28428	3.7663	2.7273	0.1	687.84
28429	3.6744	3.	0.1	721.69
28430	3.7663	2.9091	0.1	695.72
28431	3.6744	3.1818	0.1	717.68
28432	3.7663	3.0909	0.1	695.72
28433	3.6744	3.3636	0.1	705.7
28434	3.7663	3.2727	0.1	687.84
28435	3.6744	3.5455	0.1	685.98
28436	3.7663	3.4545	0.1	672.23
28437	3.6744	3.7273	0.1	658.87
28438	3.7663	3.6364	0.1	649.19
28439	3.6744	3.9091	0.1	624.86
28440	3.7663	3.8182	0.1	619.17
28441	3.6744	4.0909	0.1	584.56
28442	3.7663	4.	0.1	582.73
28443	3.6744	4.2727	0.1	538.69
28444	3.7663	4.1818	0.1	540.56
28445	3.6744	4.4545	0.1	488.04
28446	3.7663	4.3636	0.1	493.44
28447	3.6744	4.6364	0.1	433.49
28448	3.7663	4.5455	0.1	442.22
28449	3.6744	4.8182	0.1	375.92
28450	3.7663	4.7273	0.1	387.8
28451	3.6744	5.	0.1	316.24
28452	3.7663	4.9091	0.1	331.07
28453	3.6744	5.1818	0.1	255.31
28454	3.7663	5.0909	0.1	272.92
28455	3.6744	5.3636	0.1	193.92
28456	3.7663	5.2727	0.1	214.16
28457	3.6744	5.5455	0.1	132.66
28458	3.7663	5.4545	0.1	155.52
28459	3.6744	5.7273	0.1	71.385
28460	3.7663	5.6364	0.1	97.391
28461	3.7663	5.8182	0.1	39.329
28462	3.6744	5.9091	0.1	20.903
28463	3.8581	0.27273	0.1	65.067
28464	3.95	0.18182	0.1	35.946
28465	3.8581	9.0909e-002	0.1	19.457
28466	3.8581	0.45455	0.1	120.17
28467	3.95	0.36364	0.1	87.699
28468	3.8581	0.63636	0.1	175.69
28469	3.95	0.54545	0.1	140.02
28470	3.8581	0.81818	0.1	231.71
28471	3.95	0.72727	0.1	193.24
28472	3.8581	1.	0.1	287.7
28473	3.95	0.90909	0.1	247.01
28474	3.8581	1.1818	0.1	342.91
28475	3.95	1.0909	0.1	300.66
28476	3.8581	1.3636	0.1	396.5
28477	3.95	1.2727	0.1	353.39
28478	3.8581	1.5455	0.1	447.61
28479	3.95	1.4545	0.1	404.33
28480	3.8581	1.7273	0.1	495.31
28481	3.95	1.6364	0.1	452.59
28482	3.8581	1.9091	0.1	538.75
28483	3.95	1.8182	0.1	497.24
28484	3.8581	2.0909	0.1	577.07
28485	3.95	2.	0.1	537.42
28486	3.8581	2.2727	0.1	609.54
28487	3.95	2.1818	0.1	572.29
28488	3.8581	2.4545	0.1	635.5
28489	3.95	2.3636	0.1	601.13
28490	3.8581	2.6364	0.1	654.43
28491	3.95	2.5455	0.1	623.32
28492	3.8581	2.8182	0.1	665.95
28493	3.95	2.7273	0.1	638.39
28494	3.8581	3.	0.1	669.82
28495	3.95	2.9091	0.1	646.01
28496	3.8581	3.1818	0.1	665.95
28497	3.95	3.0909	0.1	646.01
28498	3.8581	3.3636	0.1	654.43
28499	3.95	3.2727	0.1	638.39
28500	3.8581	3.5455	0.1	635.5
28501	3.95	3.4545	0.1	623.32
28502	3.8581	3.7273	0.1	609.54
28503	3.95	3.6364	0.1	601.13
28504	3.8581	3.9091	0.1	577.07
28505	3.95	3.8182	0.1	572.29
28506	3.8581	4.0909	0.1	538.75
28507	3.95	4.	0.1	537.42
28508	3.8581	4.2727	0.1	495.31
28509	3.95	4.1818	0.1	497.24
28510	3.8581	4.4545	0.1	447.61
28511	3.95	4.3636	0.1	452.59
28512	3.8581	4.6364	0.1	396.5
28513	3.95	4.5455	0.1	404.33
28514	3.8581	4.8182	0.1	342.91
28515	3.95	4.7273	0.1	353.39
28516	3.8581	5.	0.1	287.7
28517	3.95	4.9091	0.1	300.66
28518	3.8581	5.1818	0.1	231.71
28519	3.95	5.0909	0.1	247.01
28520	3.8581	5.3636	0.1	175.69
28521	3.95	5.2727	0.1	193.24
28522	3.8581	5.5455	0.1	120.17
28523	3.95	5.4545	0.1	140.02
28524	3.8581	5.7273	0.1	65.066
28525	3.95	5.6364	0.1	87.699
28526	3.95	5.8182	0.1	35.946
28527	3.8581	5.9091	0.1	19.457
28528	4.0419	0.27273	0.1	58.361
28529	4.1337	0.18182	0.1	32.1
28530	4.0419	9.0909e-002	0.1	17.702
28531	4.0419	0.45455	0.1	107.49
28532	4.1337	0.36364	0.1	77.673
28533	4.0419	0.63636	0.1	157.52
28534	4.1337	0.54545	0.1	124.37
28535	4.0419	0.81818	0.1	208.5
28536	4.1337	0.72727	0.1	172.44
28537	4.0419	1.	0.1	259.94
28538	4.1337	0.90909	0.1	221.56
28539	4.0419	1.1818	0.1	311.11
28540	4.1337	1.0909	0.1	271.09
28541	4.0419	1.3636	0.1	361.19
28542	4.1337	1.2727	0.1	320.25
28543	4.0419	1.5455	0.1	409.3
28544	4.1337	1.4545	0.1	368.17
28545	4.0419	1.7273	0.1	454.52
28546	4.1337	1.6364	0.1	413.93
28547	4.0419	1.9091	0.1	495.93
28548	4.1337	1.8182	0.1	456.57
28549	4.0419	2.0909	0.1	532.67
28550	4.1337	2.	0.1	495.16
28551	4.0419	2.2727	0.1	563.92
28552	4.1337	2.1818	0.1	528.83
28553	4.0419	2.4545	0.1	589.
28554	4.1337	2.3636	0.1	556.8
28555	4.0419	2.6364	0.1	607.34
28556	4.1337	2.5455	0.1	578.39
28557	4.0419	2.8182	0.1	618.52
28558	4.1337	2.7273	0.1	593.09
28559	4.0419	3.	0.1	622.27
28560	4.1337	2.9091	0.1	600.53
28561	4.0419	3.1818	0.1	618.52
28562	4.1337	3.0909	0.1	600.53
28563	4.0419	3.3636	0.1	607.34
28564	4.1337	3.2727	0.1	593.09
28565	4.0419	3.5455	0.1	589.
28566	4.1337	3.4545	0.1	578.39
28567	4.0419	3.7273	0.1	563.92
28568	4.1337	3.6364	0.1	556.8
28569	4.0419	3.9091	0.1	532.67
28570	4.1337	3.8182	0.1	528.83
28571	4.0419	4.0909	0.1	495.93
28572	4.1337	4.	0.1	495.16
28573	4.0419	4.2727	0.1	454.52
28574	4.1337	4.1818	0.1	456.57
28575	4.0419	4.4545	0.1	409.3
28576	4.1337	4.3636	0.1	413.93
28577	4.0419	4.6364	0.1	361.19
28578	4.1337	4.5455	0.1	368.17
28579	4.0419	4.8182	0.1	311.11
28580	4.1337	4.7273	0.1	320.25
28581	4.0419	5.	0.1	259.94
28582	4.1337	4.9091	0.1	271.09
28583	4.0419	5.1818	0.1	208.5
28584	4.1337	5.0909	0.1	221.56
28585	4.0419	5.3636	0.1	157.52
28586	4.1337	5.2727	0.1	172.44
28587	4.0419	5.5455	0.1	107.49
28588	4.1337	5.4545	0.1	124.37
28589	4.0419	5.7273	0.1	58.361
28590	4.1337	5.6364	0.1	77.673
28591	4.1337	5.8182	0.1	32.1
28592	4.0419	5.9091	0.1	17.702
28593	4.2256	0.27273	0.1	51.237
28594	4.3174	0.18182	0.1	27.795
28595	4.2256	9.0909e-002	0.1	15.655
28596	4.2256	0.45455	0.1	94.508
28597	4.3174	0.36364	0.1	67.233
28598	4.2256	0.63636	0.1	139.25
28599	4.3174	0.54545	0.1	108.41
28600	4.2256	0.81818	0.1	185.47
28601	4.3174	0.72727	0.1	151.54
28602	4.2256	1.	0.1	232.69
28603	4.3174	0.90909	0.1	196.31
28604	4.2256	1.1818	0.1	280.21
28605	4.3174	1.0909	0.1	242.07
28606	4.2256	1.3636	0.1	327.22
28607	4.3174	1.2727	0.1	288.07
28608	4.2256	1.5455	0.1	372.79
28609	4.3174	1.4545	0.1	333.4
28610	4.2256	1.7273	0.1	415.97
28611	4.3174	1.6364	0.1	377.11
28612	4.2256	1.9091	0.1	455.8
28613	4.3174	1.8182	0.1	418.19
28614	4.2256	2.0909	0.1	491.35
28615	4.3174	2.	0.1	455.63
28616	4.2256	2.2727	0.1	521.74
28617	4.3174	2.1818	0.1	488.5
28618	4.2256	2.4545	0.1	546.23
28619	4.3174	2.3636	0.1	515.92
28620	4.2256	2.6364	0.1	564.19
28621	4.3174	2.5455	0.1	537.18
28622	4.2256	2.8182	0.1	575.15
28623	4.3174	2.7273	0.1	551.68
28624	4.2256	3.	0.1	578.84
28625	4.3174	2.9091	0.1	559.04
28626	4.2256	3.1818	0.1	575.15
28627	4.3174	3.0909	0.1	559.04
28628	4.2256	3.3636	0.1	564.19
28629	4.3174	3.2727	0.1	551.68
28630	4.2256	3.5455	0.1	546.23
28631	4.3174	3.4545	0.1	537.18
28632	4.2256	3.7273	0.1	521.74
28633	4.3174	3.6364	0.1	515.92
28634	4.2256	3.9091	0.1	491.35
28635	4.3174	3.8182	0.1	488.5
28636	4.2256	4.0909	0.1	455.8
28637	4.3174	4.	0.1	455.63
28638	4.2256	4.2727	0.1	415.97
28639	4.3174	4.1818	0.1	418.19
28640	4.2256	4.4545	0.1	372.79
28641	4.3174	4.3636	0.1	377.11
28642	4.2256	4.6364	0.1	327.22
28643	4.3174	4.5455	0.1	333.4
28644	4.2256	4.8182	0.1	280.21
28645	4.3174	4.7273	0.1	288.07
28646	4.2256	5.	0.1	232.69
28647	4.3174	4.9091	0.1	242.07
28648	4.2256	5.1818	0.1	185.47
28649	4.3174	5.0909	0.1	196.31
28650	4.2256	5.3636	0.1	139.25
28651	4.3174	5.2727	0.1	151.54
28652	4.2256	5.5455	0.1	94.508
28653	4.3174	5.4545	0.1	108.41
28654	4.2256	5.7273	0.1	51.237
28655	4.3174	5.6364	0.1	67.233
28656	4.3174	5.8182	0.1	27.795
28657	4.2256	5.9091	0.1	15.655
28658	4.4093	0.27273	0.1	43.652
28659	4.5012	0.18182	0.1	23.023
28660	4.4093	9.0909e-002	0.1	13.324
28661	4.4093	0.45455	0.1	81.11
28662	4.5012	0.36364	0.1	56.288
28663	4.4093	0.63636	0.1	120.68
28664	4.5012	0.54545	0.1	92.001
28665	4.4093	0.81818	0.1	162.36
28666	4.5012	0.72727	0.1	130.33
28667	4.4093	1.	0.1	205.67
28668	4.5012	0.90909	0.1	170.97
28669	4.4093	1.1818	0.1	249.91
28670	4.5012	1.0909	0.1	213.29
28671	4.4093	1.3636	0.1	294.25
28672	4.5012	1.2727	0.1	256.5
28673	4.4093	1.5455	0.1	337.73
28674	4.5012	1.4545	0.1	299.68
28675	4.4093	1.7273	0.1	379.33
28676	4.5012	1.6364	0.1	341.8
28677	4.4093	1.9091	0.1	418.03
28678	4.5012	1.8182	0.1	381.77
28679	4.4093	2.0909	0.1	452.8
28680	4.5012	2.	0.1	418.51
28681	4.4093	2.2727	0.1	482.71
28682	4.5012	2.1818	0.1	450.97
28683	4.4093	2.4545	0.1	506.91
28684	4.5012	2.3636	0.1	478.22
28685	4.4093	2.6364	0.1	524.71
28686	4.5012	2.5455	0.1	499.41
28687	4.4093	2.8182	0.1	535.61
28688	4.5012	2.7273	0.1	513.92
28689	4.4093	3.	0.1	539.28
28690	4.5012	2.9091	0.1	521.29
28691	4.4093	3.1818	0.1	535.61
28692	4.5012	3.0909	0.1	521.29
28693	4.4093	3.3636	0.1	524.71
28694	4.5012	3.2727	0.1	513.92
28695	4.4093	3.5455	0.1	506.91
28696	4.5012	3.4545	0.1	499.41
28697	4.4093	3.7273	0.1	482.71
28698	4.5012	3.6364	0.1	478.22
28699	4.4093	3.9091	0.1	452.8
28700	4.5012	3.8182	0.1	450.97
28701	4.4093	4.0909	0.1	418.03
28702	4.5012	4.	0.1	418.51
28703	4.4093	4.2727	0.1	379.33
28704	4.5012	4.1818	0.1	381.77
28705	4.4093	4.4545	0.1	337.73
28706	4.5012	4.3636	0.1	341.8
28707	4.4093	4.6364	0.1	294.25
28708	4.5012	4.5455	0.1	299.68
28709	4.4093	4.8182	0.1	249.91
28710	4.5012	4.7273	0.1	256.5
28711	4.4093	5.	0.1	205.67
28712	4.5012	4.9091	0.1	213.29
28713	4.4093	5.1818	0.1	162.36
28714	4.5012	5.0909	0.1	170.97
28715	4.4093	5.3636	0.1	120.68
28716	4.5012	5.2727	0.1	130.33
28717	4.4093	5.5455	0.1	81.11
28718	4.5012	5.4545	0.1	92.001
28719	4.4093	5.7273	0.1	43.652
28720	4.5012	5.6364	0.1	56.288
28721	4.5012	5.8182	0.1	23.023
28722	4.4093	5.9091	0.1	13.324
28723	4.593	0.27273	0.1	35.55
28724	4.6849	0.18182	0.1	17.767
28725	4.593	9.0909e-002	0.1	10.708
28726	4.593	0.45455	0.1	67.162
28727	4.6849	0.36364	0.1	44.736
28728	4.593	0.63636	0.1	101.64
28729	4.6849	0.54545	0.1	74.96
28730	4.593	0.81818	0.1	138.93
28731	4.6849	0.72727	0.1	108.58
28732	4.593	1.	0.1	178.58
28733	4.6849	0.90909	0.1	145.28
28734	4.593	1.1818	0.1	219.88
28735	4.6849	1.0909	0.1	184.43
28736	4.593	1.3636	0.1	261.94
28737	4.6849	1.2727	0.1	225.21
28738	4.593	1.5455	0.1	303.76
28739	4.6849	1.4545	0.1	266.64
28740	4.593	1.7273	0.1	344.24
28741	4.6849	1.6364	0.1	307.61
28742	4.593	1.9091	0.1	382.26
28743	4.6849	1.8182	0.1	346.94
28744	4.593	2.0909	0.1	416.7
28745	4.6849	2.	0.1	383.44
28746	4.593	2.2727	0.1	446.51
28747	4.6849	2.1818	0.1	415.94
28748	4.593	2.4545	0.1	470.75
28749	4.6849	2.3636	0.1	443.37
28750	4.593	2.6364	0.1	488.65
28751	4.6849	2.5455	0.1	464.81
28752	4.593	2.8182	0.1	499.63
28753	4.6849	2.7273	0.1	479.52
28754	4.593	3.	0.1	503.33
28755	4.6849	2.9091	0.1	487.01
28756	4.593	3.1818	0.1	499.63
28757	4.6849	3.0909	0.1	487.01
28758	4.593	3.3636	0.1	488.65
28759	4.6849	3.2727	0.1	479.52
28760	4.593	3.5455	0.1	470.75
28761	4.6849	3.4545	0.1	464.81
28762	4.593	3.7273	0.1	446.51
28763	4.6849	3.6364	0.1	443.37
28764	4.593	3.9091	0.1	416.7
28765	4.6849	3.8182	0.1	415.94
28766	4.593	4.0909	0.1	382.26
28767	4.6849	4.	0.1	383.44
28768	4.593	4.2727	0.1	344.24
28769	4.6849	4.1818	0.1	346.94
28770	4.593	4.4545	0.1	303.76
28771	4.6849	4.3636	0.1	307.61
28772	4.593	4.6364	0.1	261.94
28773	4.6849	4.5455	0.1	266.64
28774	4.593	4.8182	0.1	219.88
28775	4.6849	4.7273	0.1	225.21
28776	4.593	5.	0.1	178.58
28777	4.6849	4.9091	0.1	184.43
28778	4.593	5.1818	0.1	138.93
28779	4.6849	5.0909	0.1	145.28
28780	4.593	5.3636	0.1	101.64
28781	4.6849	5.2727	0.1	108.58
28782	4.593	5.5455	0.1	67.162
28783	4.6849	5.4545	0.1	74.96
28784	4.593	5.7273	0.1	35.55
28785	4.6849	5.6364	0.1	44.736
28786	4.6849	5.8182	0.1	17.767
28787	4.593	5.9091	0.1	10.708
28788	4.7767	0.27273	0.1	26.869
28789	4.8686	0.18182	0.1	12.005
28790	4.7767	9.0909e-002	0.1	7.8003
28791	4.7767	0.45455	0.1	52.528
28792	4.8686	0.36364	0.1	32.475
28793	4.7767	0.63636	0.1	81.901
28794	4.8686	0.54545	0.1	57.12
28795	4.7767	0.81818	0.1	114.93
28796	4.8686	0.72727	0.1	86.057
28797	4.7767	1.	0.1	151.12
28798	4.8686	0.90909	0.1	118.95
28799	4.7767	1.1818	0.1	189.76
28800	4.8686	1.0909	0.1	155.15
28801	4.7767	1.3636	0.1	229.91
28802	4.8686	1.2727	0.1	193.81
28803	4.7767	1.5455	0.1	270.5
28804	4.8686	1.4545	0.1	233.88
28805	4.7767	1.7273	0.1	310.32
28806	4.8686	1.6364	0.1	274.14
28807	4.7767	1.9091	0.1	348.14
28808	4.8686	1.8182	0.1	313.32
28809	4.7767	2.0909	0.1	382.7
28810	4.8686	2.	0.1	350.05
28811	4.7767	2.2727	0.1	412.82
28812	4.8686	2.1818	0.1	383.03
28813	4.7767	2.4545	0.1	437.45
28814	4.8686	2.3636	0.1	411.04
28815	4.7767	2.6364	0.1	455.71
28816	4.8686	2.5455	0.1	433.04
28817	4.7767	2.8182	0.1	466.93
28818	4.8686	2.7273	0.1	448.18
28819	4.7767	3.	0.1	470.72
28820	4.8686	2.9091	0.1	455.9
28821	4.7767	3.1818	0.1	466.93
28822	4.8686	3.0909	0.1	455.9
28823	4.7767	3.3636	0.1	455.71
28824	4.8686	3.2727	0.1	448.18
28825	4.7767	3.5455	0.1	437.45
28826	4.8686	3.4545	0.1	433.04
28827	4.7767	3.7273	0.1	412.82
28828	4.8686	3.6364	0.1	411.04
28829	4.7767	3.9091	0.1	382.7
28830	4.8686	3.8182	0.1	383.03
28831	4.7767	4.0909	0.1	348.14
28832	4.8686	4.	0.1	350.05
28833	4.7767	4.2727	0.1	310.32
28834	4.8686	4.1818	0.1	313.32
28835	4.7767	4.4545	0.1	270.5
28836	4.8686	4.3636	0.1	274.14
28837	4.7767	4.6364	0.1	229.91
28838	4.8686	4.5455	0.1	233.88
28839	4.7767	4.8182	0.1	189.76
28840	4.8686	4.7273	0.1	193.81
28841	4.7767	5.	0.1	151.12
28842	4.8686	4.9091	0.1	155.15
28843	4.7767	5.1818	0.1	114.93
28844	4.8686	5.0909	0.1	118.95
28845	4.7767	5.3636	0.1	81.901
28846	4.8686	5.2727	0.1	86.057
28847	4.7767	5.5455	0.1	52.528
28848	4.8686	5.4545	0.1	57.12
28849	4.7767	5.7273	0.1	26.869
28850	4.8686	5.6364	0.1	32.475
28851	4.8686	5.8182	0.1	12.005
28852	4.7767	5.9091	0.1	7.8003
28853	4.9605	0.27273	0.1	17.547
28854	5.0523	0.18182	0.1	5.7612
28855	4.9605	9.0909e-002	0.1	4.5914
28856	4.9605	0.45455	0.1	37.071
28857	5.0523	0.36364	0.1	19.421
28858	4.9605	0.63636	0.1	61.278
28859	5.0523	0.54545	0.1	38.326
28860	4.9605	0.81818	0.1	90.08
28861	5.0523	0.72727	0.1	62.534
28862	4.9605	1.	0.1	122.98
28863	5.0523	0.90909	0.1	91.681
28864	4.9605	1.1818	0.1	159.21
28865	5.0523	1.0909	0.1	125.11
28866	4.9605	1.3636	0.1	197.78
28867	5.0523	1.2727	0.1	161.91
28868	4.9605	1.5455	0.1	237.54
28869	5.0523	1.4545	0.1	200.96
28870	4.9605	1.7273	0.1	277.16
28871	5.0523	1.6364	0.1	240.96
28872	4.9605	1.9091	0.1	315.25
28873	5.0523	1.8182	0.1	280.45
28874	4.9605	2.0909	0.1	350.4
28875	5.0523	2.	0.1	317.9
28876	4.9605	2.2727	0.1	381.27
28877	5.0523	2.1818	0.1	351.83
28878	4.9605	2.4545	0.1	406.65
28879	5.0523	2.3636	0.1	380.84
28880	4.9605	2.6364	0.1	425.54
28881	5.0523	2.5455	0.1	403.72
28882	4.9605	2.8182	0.1	437.17
28883	5.0523	2.7273	0.1	419.52
28884	4.9605	3.	0.1	441.11
28885	5.0523	2.9091	0.1	427.58
28886	4.9605	3.1818	0.1	437.17
28887	5.0523	3.0909	0.1	427.58
28888	4.9605	3.3636	0.1	425.54
28889	5.0523	3.2727	0.1	419.52
28890	4.9605	3.5455	0.1	406.65
28891	5.0523	3.4545	0.1	403.72
28892	4.9605	3.7273	0.1	381.27
28893	5.0523	3.6364	0.1	380.84
28894	4.9605	3.9091	0.1	350.4
28895	5.0523	3.8182	0.1	351.83
28896	4.9605	4.0909	0.1	315.25
28897	5.0523	4.	0.1	317.9
28898	4.9605	4.2727	0.1	277.16
28899	5.0523	4.1818	0.1	280.45
28900	4.9605	4.4545	0.1	237.54
28901	5.0523	4.3636	0.1	240.96
28902	4.9605	4.6364	0.1	197.78
28903	5.0523	4.5455	0.1	200.96
28904	4.9605	4.8182	0.1	159.21
28905	5.0523	4.7273	0.1	161.91
28906	4.9605	5.	0.1	122.98
28907	5.0523	4.9091	0.1	125.11
28908	4.9605	5.1818	0.1	90.08
28909	5.0523	5.0909	0.1	91.681
28910	4.9605	5.3636	0.1	61.278
28911	5.0523	5.2727	0.1	62.534
28912	4.9605	5.5455	0.1	37.071
28913	5.0523	5.4545	0.1	38.326
28914	4.9605	5.7273	0.1	17.547
28915	5.0523	5.6364	0.1	19.421
28916	5.0523	5.8182	0.1	5.7612
28917	4.9605	5.9091	0.1	4.5913
28918	5.1442	0.27273	0.1	7.5938
28919	5.236	0.18182	0.1	0.52493
28920	5.1442	9.0909e-002	0.1	1.135
28921	5.1442	0.45455	0.1	20.696
28922	5.236	0.36364	0.1	5.7723
28923	5.1442	0.63636	0.1	39.592
28924	5.236	0.54545	0.1	18.525
28925	5.1442	0.81818	0.1	64.139
28926	5.236	0.72727	0.1	37.837
28927	5.1442	1.	0.1	93.811
28928	5.236	0.90909	0.1	63.198
28929	5.1442	1.1818	0.1	127.81
28930	5.236	1.0909	0.1	93.917
28931	5.1442	1.3636	0.1	165.1
28932	5.236	1.2727	0.1	129.05
28933	5.1442	1.5455	0.1	204.4
28934	5.236	1.4545	0.1	167.4
28935	5.1442	1.7273	0.1	244.27
28936	5.236	1.6364	0.1	207.53
28937	5.1442	1.9091	0.1	283.12
28938	5.236	1.8182	0.1	247.81
28939	5.1442	2.0909	0.1	319.36
28940	5.236	2.	0.1	286.5
28941	5.1442	2.2727	0.1	351.42
28942	5.236	2.1818	0.1	321.86
28943	5.1442	2.4545	0.1	377.93
28944	5.236	2.3636	0.1	352.29
28945	5.1442	2.6364	0.1	397.73
28946	5.236	2.5455	0.1	376.39
28947	5.1442	2.8182	0.1	409.95
28948	5.236	2.7273	0.1	393.07
28949	5.1442	3.	0.1	414.09
28950	5.236	2.9091	0.1	401.6
28951	5.1442	3.1818	0.1	409.95
28952	5.236	3.0909	0.1	401.6
28953	5.1442	3.3636	0.1	397.73
28954	5.236	3.2727	0.1	393.07
28955	5.1442	3.5455	0.1	377.93
28956	5.236	3.4545	0.1	376.39
28957	5.1442	3.7273	0.1	351.42
28958	5.236	3.6364	0.1	352.29
28959	5.1442	3.9091	0.1	319.36
28960	5.236	3.8182	0.1	321.86
28961	5.1442	4.0909	0.1	283.12
28962	5.236	4.	0.1	286.5
28963	5.1442	4.2727	0.1	244.27
28964	5.236	4.1818	0.1	247.81
28965	5.1442	4.4545	0.1	204.4
28966	5.236	4.3636	0.1	207.53
28967	5.1442	4.6364	0.1	165.1
28968	5.236	4.5455	0.1	167.4
28969	5.1442	4.8182	0.1	127.81
28970	5.236	4.7273	0.1	129.05
28971	5.1442	5.	0.1	93.811
28972	5.236	4.9091	0.1	93.917
28973	5.1442	5.1818	0.1	64.139
28974	5.236	5.0909	0.1	63.198
28975	5.1442	5.3636	0.1	39.592
28976	5.236	5.2727	0.1	37.837
28977	5.1442	5.5455	0.1	20.696
28978	5.236	5.4545	0.1	18.525
28979	5.1442	5.7273	0.1	7.5938
28980	5.236	5.6364	0.1	5.7723
28981	5.236	5.8182	0.1	0.52493
28982	5.1442	5.9091	0.1	1.135
28983	5.3279	0.27273	0.1	0.41458
28984	5.4198	0.18182	0.1	-1.3598e-002
28985	5.3279	9.0909e-002	0.1	-2.1261e-002
28986	5.3279	0.45455	0.1	4.0996
28987	5.4198	0.36364	0.1	0.3032
28988	5.3279	0.63636	0.1	16.862
28989	5.4198	0.54545	0.1	1.5842
28990	5.3279	0.81818	0.1	36.918
28991	5.4198	0.72727	0.1	12.304
28992	5.3279	1.	0.1	63.306
28993	5.4198	0.90909	0.1	33.342
28994	5.3279	1.1818	0.1	95.154
28995	5.4198	1.0909	0.1	61.221
28996	5.3279	1.3636	0.1	131.36
28997	5.4198	1.2727	0.1	94.741
28998	5.3279	1.5455	0.1	170.54
28999	5.4198	1.4545	0.1	132.6
29000	5.3279	1.7273	0.1	211.08
29001	5.4198	1.6364	0.1	173.22
29002	5.3279	1.9091	0.1	251.2
29003	5.4198	1.8182	0.1	214.76
29004	5.3279	2.0909	0.1	289.02
29005	5.4198	2.	0.1	255.2
29006	5.3279	2.2727	0.1	322.75
29007	5.4198	2.1818	0.1	292.51
29008	5.3279	2.4545	0.1	350.77
29009	5.4198	2.3636	0.1	324.8
29010	5.3279	2.6364	0.1	371.77
29011	5.4198	2.5455	0.1	350.46
29012	5.3279	2.8182	0.1	384.75
29013	5.4198	2.7273	0.1	368.26
29014	5.3279	3.	0.1	389.15
29015	5.4198	2.9091	0.1	377.36
29016	5.3279	3.1818	0.1	384.75
29017	5.4198	3.0909	0.1	377.36
29018	5.3279	3.3636	0.1	371.77
29019	5.4198	3.2727	0.1	368.26
29020	5.3279	3.5455	0.1	350.77
29021	5.4198	3.4545	0.1	350.46
29022	5.3279	3.7273	0.1	322.75
29023	5.4198	3.6364	0.1	324.8
29024	5.3279	3.9091	0.1	289.02
29025	5.4198	3.8182	0.1	292.51
29026	5.3279	4.0909	0.1	251.2
29027	5.4198	4.	0.1	255.2
29028	5.3279	4.2727	0.1	211.08
29029	5.4198	4.1818	0.1	214.76
29030	5.3279	4.4545	0.1	170.54
29031	5.4198	4.3636	0.1	173.22
29032	5.3279	4.6364	0.1	131.36
29033	5.4198	4.5455	0.1	132.6
29034	5.3279	4.8182	0.1	95.154
29035	5.4198	4.7273	0.1	94.741
29036	5.3279	5.	0.1	63.306
29037	5.4198	4.9091	0.1	61.221
29038	5.3279	5.1818	0.1	36.918
29039	5.4198	5.0909	0.1	33.342
29040	5.3279	5.3636	0.1	16.862
29041	5.4198	5.2727	0.1	12.304
29042	5.3279	5.5455	0.1	4.0996
29043	5.4198	5.4545	0.1	1.5842
29044	5.3279	5.7273	0.1	0.41458
29045	5.4198	5.6364	0.1	0.30321
29046	5.4198	5.8182	0.1	-1.3596e-002
29047	5.3279	5.9091	0.1	-2.126e-002
29048	5.5116	0.27273	0.1	4.5868e-002
29049	5.6035	0.18182	0.1	-7.6502e-002
29050	5.5116	9.0909e-002	0.1	-3.0501e-002
29051	5.5116	0.45455	0.1	0.2977
29052	5.6035	0.36364	0.1	0.13285
29053	5.5116	0.63636	0.1	1.1312
29054	5.6035	0.54545	0.1	0.28055
29055	5.5116	0.81818	0.1	9.3293
29056	5.6035	0.72727	0.1	0.87809
29057	5.5116	1.	0.1	31.321
29058	5.6035	0.90909	0.1	5.2791
29059	5.5116	1.1818	0.1	60.801
29060	5.6035	1.0909	0.1	26.992
29061	5.5116	1.3636	0.1	95.969
29062	5.6035	1.2727	0.1	58.461
29063	5.5116	1.5455	0.1	135.27
29064	5.6035	1.4545	0.1	95.851
29065	5.5116	1.7273	0.1	176.89
29066	5.6035	1.6364	0.1	137.24
29067	5.5116	1.9091	0.1	218.77
29068	5.6035	1.8182	0.1	180.49
29069	5.5116	2.0909	0.1	258.7
29070	5.6035	2.	0.1	223.22
29071	5.5116	2.2727	0.1	294.58
29072	5.6035	2.1818	0.1	263.01
29073	5.5116	2.4545	0.1	324.52
29074	5.6035	2.3636	0.1	297.62
29075	5.5116	2.6364	0.1	346.99
29076	5.6035	2.5455	0.1	325.17
29077	5.5116	2.8182	0.1	360.9
29078	5.6035	2.7273	0.1	344.27
29079	5.5116	3.	0.1	365.61
29080	5.6035	2.9091	0.1	354.04
29081	5.5116	3.1818	0.1	360.9
29082	5.6035	3.0909	0.1	354.04
29083	5.5116	3.3636	0.1	346.99
29084	5.6035	3.2727	0.1	344.27
29085	5.5116	3.5455	0.1	324.52
29086	5.6035	3.4545	0.1	325.17
29087	5.5116	3.7273	0.1	294.58
29088	5.6035	3.6364	0.1	297.62
29089	5.5116	3.9091	0.1	258.7
29090	5.6035	3.8182	0.1	263.01
29091	5.5116	4.0909	0.1	218.77
29092	5.6035	4.	0.1	223.22
29093	5.5116	4.2727	0.1	176.89
29094	5.6035	4.1818	0.1	180.49
29095	5.5116	4.4545	0.1	135.27
29096	5.6035	4.3636	0.1	137.24
29097	5.5116	4.6364	0.1	95.969
29098	5.6035	4.5455	0.1	95.851
29099	5.5116	4.8182	0.1	60.802
29100	5.6035	4.7273	0.1	58.461
29101	5.5116	5.	0.1	31.321
29102	5.6035	4.9091	0.1	26.992
29103	5.5116	5.1818	0.1	9.3294
29104	5.6035	5.0909	0.1	5.2791
29105	5.5116	5.3636	0.1	1.1312
29106	5.6035	5.2727	0.1	0.87809
29107	5.5116	5.5455	0.1	0.29771
29108	5.6035	5.4545	0.1	0.28055
29109	5.5116	5.7273	0.1	4.587e-002
29110	5.6035	5.6364	0.1	0.13285
29111	5.6035	5.8182	0.1	-7.65e-002
29112	5.5116	5.9091	0.1	-3.0499e-002
29113	5.6953	0.27273	0.1	1.873e-004
29114	5.7872	0.18182	0.1	-0.10668
29115	5.6953	9.0909e-002	0.1	-1.6206e-002
29116	5.6953	0.45455	0.1	0.14603
29117	5.7872	0.36364	0.1	0.11755
29118	5.6953	0.63636	0.1	0.33353
29119	5.7872	0.54545	0.1	0.15376
29120	5.6953	0.81818	0.1	0.87703
29121	5.7872	0.72727	0.1	0.39429
29122	5.6953	1.	0.1	3.939
29123	5.7872	0.90909	0.1	0.87731
29124	5.6953	1.1818	0.1	24.834
29125	5.7872	1.0909	0.1	2.8892
29126	5.6953	1.3636	0.1	58.315
29127	5.7872	1.2727	0.1	20.672
29128	5.6953	1.5455	0.1	97.767
29129	5.7872	1.4545	0.1	56.385
29130	5.6953	1.7273	0.1	140.79
29131	5.7872	1.6364	0.1	98.555
29132	5.6953	1.9091	0.1	184.92
29133	5.7872	1.8182	0.1	143.92
29134	5.6953	2.0909	0.1	227.53
29135	5.7872	2.	0.1	189.52
29136	5.6953	2.2727	0.1	266.07
29137	5.7872	2.1818	0.1	232.37
29138	5.6953	2.4545	0.1	298.3
29139	5.7872	2.3636	0.1	269.75
29140	5.6953	2.6364	0.1	322.5
29141	5.7872	2.5455	0.1	299.48
29142	5.6953	2.8182	0.1	337.46
29143	5.7872	2.7273	0.1	320.03
29144	5.6953	3.	0.1	342.53
29145	5.7872	2.9091	0.1	330.51
29146	5.6953	3.1818	0.1	337.46
29147	5.7872	3.0909	0.1	330.51
29148	5.6953	3.3636	0.1	322.5
29149	5.7872	3.2727	0.1	320.03
29150	5.6953	3.5455	0.1	298.3
29151	5.7872	3.4545	0.1	299.48
29152	5.6953	3.7273	0.1	266.07
29153	5.7872	3.6364	0.1	269.75
29154	5.6953	3.9091	0.1	227.53
29155	5.7872	3.8182	0.1	232.37
29156	5.6953	4.0909	0.1	184.92
29157	5.7872	4.	0.1	189.52
29158	5.6953	4.2727	0.1	140.79
29159	5.7872	4.1818	0.1	143.92
29160	5.6953	4.4545	0.1	97.767
29161	5.7872	4.3636	0.1	98.555
29162	5.6953	4.6364	0.1	58.315
29163	5.7872	4.5455	0.1	56.385
29164	5.6953	4.8182	0.1	24.834
29165	5.7872	4.7273	0.1	20.672
29166	5.6953	5.	0.1	3.939
29167	5.7872	4.9091	0.1	2.8892
29168	5.6953	5.1818	0.1	0.87704
29169	5.7872	5.0909	0.1	0.87731
29170	5.6953	5.3636	0.1	0.33354
29171	5.7872	5.2727	0.1	0.3943
29172	5.6953	5.5455	0.1	0.14604
29173	5.7872	5.4545	0.1	0.15376
29174	5.6953	5.7273	0.1	1.8932e-004
29175	5.7872	5.6364	0.1	0.11755
29176	5.7872	5.8182	0.1	-0.10668
29177	5.6953	5.9091	0.1	-1.6205e-002
29178	5.8791	0.27273	0.1	-1.5304e-002
29179	5.9709	0.18182	0.1	-0.14183
29180	5.8791	9.0909e-002	0.1	8.4494e-004
29181	5.8791	0.45455	0.1	0.11844
29182	5.9709	0.36364	0.1	0.1297
29183	5.8791	0.63636	0.1	0.22131
29184	5.9709	0.54545	0.1	0.12064
29185	5.8791	0.81818	0.1	0.46971
29186	5.9709	0.72727	0.1	0.3049
29187	5.8791	1.	0.1	0.96136
29188	5.9709	0.90909	0.1	0.55301
29189	5.8791	1.1818	0.1	2.7525
29190	5.9709	1.0909	0.1	1.0383
29191	5.8791	1.3636	0.1	19.167
29192	5.9709	1.2727	0.1	2.5485
29193	5.8791	1.5455	0.1	57.092
29194	5.9709	1.4545	0.1	15.934
29195	5.8791	1.7273	0.1	101.58
29196	5.9709	1.6364	0.1	56.032
29197	5.8791	1.9091	0.1	148.45
29198	5.9709	1.8182	0.1	103.63
29199	5.8791	2.0909	0.1	194.33
29200	5.9709	2.	0.1	152.7
29201	5.8791	2.2727	0.1	236.06
29202	5.9709	2.1818	0.1	199.25
29203	5.8791	2.4545	0.1	270.97
29204	5.9709	2.3636	0.1	239.87
29205	5.8791	2.6364	0.1	297.08
29206	5.9709	2.5455	0.1	271.99
29207	5.8791	2.8182	0.1	313.17
29208	5.9709	2.7273	0.1	294.03
29209	5.8791	3.	0.1	318.59
29210	5.9709	2.9091	0.1	305.19
29211	5.8791	3.1818	0.1	313.17
29212	5.9709	3.0909	0.1	305.19
29213	5.8791	3.3636	0.1	297.08
29214	5.9709	3.2727	0.1	294.03
29215	5.8791	3.5455	0.1	270.97
29216	5.9709	3.4545	0.1	271.99
29217	5.8791	3.7273	0.1	236.06
29218	5.9709	3.6364	0.1	239.87
29219	5.8791	3.9091	0.1	194.33
29220	5.9709	3.8182	0.1	199.25
29221	5.8791	4.0909	0.1	148.45
29222	5.9709	4.	0.1	152.7
29223	5.8791	4.2727	0.1	101.58
29224	5.9709	4.1818	0.1	103.63
29225	5.8791	4.4545	0.1	57.092
29226	5.9709	4.3636	0.1	56.032
29227	5.8791	4.6364	0.1	19.168
29228	5.9709	4.5455	0.1	15.934
29229	5.8791	4.8182	0.1	2.7525
29230	5.9709	4.7273	0.1	2.5485
29231	5.8791	5.	0.1	0.96137
29232	5.9709	4.9091	0.1	1.0383
29233	5.8791	5.1818	0.1	0.46972
29234	5.9709	5.0909	0.1	0.55301
29235	5.8791	5.3636	0.1	0.22131
29236	5.9709	5.2727	0.1	0.3049
29237	5.8791	5.5455	0.1	0.11844
29238	5.9709	5.4545	0.1	0.12064
29239	5.8791	5.7273	0.1	-1.5302e-002
29240	5.9709	5.6364	0.1	0.1297
29241	5.9709	5.8182	0.1	-0.14183
29242	5.8791	5.9091	0.1	8.4647e-004
29243	6.0628	0.27273	0.1	-2.867e-002
29244	6.1547	0.18182	0.1	-0.19432
29245	6.0628	9.0909e-002	0.1	1.6036e-002
29246	6.0628	0.45455	0.1	0.12085
29247	6.1547	0.36364	0.1	0.14943
29248	6.0628	0.63636	0.1	0.1978
29249	6.1547	0.54545	0.1	0.12027
29250	6.0628	0.81818	0.1	0.3877
29251	6.1547	0.72727	0.1	0.29636
29252	6.0628	1.	0.1	0.65721
29253	6.1547	0.90909	0.1	0.48499
29254	6.0628	1.1818	0.1	1.1653
29255	6.1547	1.0909	0.1	0.76922
29256	6.0628	1.3636	0.1	2.6735
29257	6.1547	1.2727	0.1	1.2808
29258	6.0628	1.5455	0.1	15.504
29259	6.1547	1.4545	0.1	2.6888
29260	6.0628	1.7273	0.1	57.898
29261	6.1547	1.6364	0.1	13.523
29262	6.0628	1.9091	0.1	107.71
29263	6.1547	1.8182	0.1	57.973
29264	6.0628	2.0909	0.1	157.52
29265	6.1547	2.	0.1	110.86
29266	6.0628	2.2727	0.1	203.03
29267	6.1547	2.1818	0.1	161.85
29268	6.0628	2.4545	0.1	240.93
29269	6.1547	2.3636	0.1	206.16
29270	6.0628	2.6364	0.1	269.04
29271	6.1547	2.5455	0.1	240.75
29272	6.0628	2.8182	0.1	286.19
29273	6.1547	2.7273	0.1	264.11
29274	6.0628	3.	0.1	291.95
29275	6.1547	2.9091	0.1	275.79
29276	6.0628	3.1818	0.1	286.19
29277	6.1547	3.0909	0.1	275.79
29278	6.0628	3.3636	0.1	269.04
29279	6.1547	3.2727	0.1	264.11
29280	6.0628	3.5455	0.1	240.93
29281	6.1547	3.4545	0.1	240.75
29282	6.0628	3.7273	0.1	203.03
29283	6.1547	3.6364	0.1	206.16
29284	6.0628	3.9091	0.1	157.52
29285	6.1547	3.8182	0.1	161.85
29286	6.0628	4.0909	0.1	107.71
29287	6.1547	4.	0.1	110.86
29288	6.0628	4.2727	0.1	57.898
29289	6.1547	4.1818	0.1	57.973
29290	6.0628	4.4545	0.1	15.504
29291	6.1547	4.3636	0.1	13.523
29292	6.0628	4.6364	0.1	2.6735
29293	6.1547	4.5455	0.1	2.6888
29294	6.0628	4.8182	0.1	1.1653
29295	6.1547	4.7273	0.1	1.2808
29296	6.0628	5.	0.1	0.65721
29297	6.1547	4.9091	0.1	0.76922
29298	6.0628	5.1818	0.1	0.38771
29299	6.1547	5.0909	0.1	0.48499
29300	6.0628	5.3636	0.1	0.1978
29301	6.1547	5.2727	0.1	0.29636
29302	6.0628	5.5455	0.1	0.12085
29303	6.1547	5.4545	0.1	0.12027
29304	6.0628	5.7273	0.1	-2.8668e-002
29305	6.1547	5.6364	0.1	0.14943
29306	6.1547	5.8182	0.1	-0.19432
29307	6.0628	5.9091	0.1	1.6037e-002
29308	6.2465	0.27273	0.1	-4.8146e-002
29309	6.3384	0.18182	0.1	-0.26907
29310	6.2465	9.0909e-002	0.1	2.6414e-002
29311	6.2465	0.45455	0.1	0.13764
29312	6.3384	0.36364	0.1	0.17035
29313	6.2465	0.63636	0.1	0.21172
29314	6.3384	0.54545	0.1	0.14241
29315	6.2465	0.81818	0.1	0.38827
29316	6.3384	0.72727	0.1	0.32865
29317	6.2465	1.	0.1	0.59434
29318	6.3384	0.90909	0.1	0.49806
29319	6.2465	1.1818	0.1	0.89607
29320	6.3384	1.0909	0.1	0.71585
29321	6.2465	1.3636	0.1	1.4389
29322	6.3384	1.2727	0.1	1.0255
29323	6.2465	1.5455	0.1	2.9106
29324	6.3384	1.4545	0.1	1.5785
29325	6.2465	1.7273	0.1	13.992
29326	6.3384	1.6364	0.1	3.0161
29327	6.2465	1.9091	0.1	60.802
29328	6.3384	1.8182	0.1	13.007
29329	6.2465	2.0909	0.1	114.96
29330	6.3384	2.	0.1	61.794
29331	6.2465	2.2727	0.1	164.89
29332	6.3384	2.1818	0.1	117.72
29333	6.2465	2.4545	0.1	206.04
29334	6.3384	2.3636	0.1	166.18
29335	6.2465	2.6364	0.1	235.99
29336	6.3384	2.5455	0.1	203.06
29337	6.2465	2.8182	0.1	253.95
29338	6.3384	2.7273	0.1	227.22
29339	6.2465	3.	0.1	259.91
29340	6.3384	2.9091	0.1	239.01
29341	6.2465	3.1818	0.1	253.95
29342	6.3384	3.0909	0.1	239.01
29343	6.2465	3.3636	0.1	235.99
29344	6.3384	3.2727	0.1	227.22
29345	6.2465	3.5455	0.1	206.04
29346	6.3384	3.4545	0.1	203.06
29347	6.2465	3.7273	0.1	164.89
29348	6.3384	3.6364	0.1	166.18
29349	6.2465	3.9091	0.1	114.96
29350	6.3384	3.8182	0.1	117.72
29351	6.2465	4.0909	0.1	60.803
29352	6.3384	4.	0.1	61.794
29353	6.2465	4.2727	0.1	13.992
29354	6.3384	4.1818	0.1	13.007
29355	6.2465	4.4545	0.1	2.9106
29356	6.3384	4.3636	0.1	3.0161
29357	6.2465	4.6364	0.1	1.4389
29358	6.3384	4.5455	0.1	1.5785
29359	6.2465	4.8182	0.1	0.89607
29360	6.3384	4.7273	0.1	1.0255
29361	6.2465	5.	0.1	0.59434
29362	6.3384	4.9091	0.1	0.71585
29363	6.2465	5.1818	0.1	0.38828
29364	6.3384	5.0909	0.1	0.49806
29365	6.2465	5.3636	0.1	0.21172
29366	6.3384	5.2727	0.1	0.32865
29367	6.2465	5.5455	0.1	0.13764
29368	6.3384	5.4545	0.1	0.14241
29369	6.2465	5.7273	0.1	-4.8144e-002
29370	6.3384	5.6364	0.1	0.17035
29371	6.3384	5.8182	0.1	-0.26907
29372	6.2465	5.9091	0.1	2.6415e-002
29373	6.4302	0.27273	0.1	-7.5505e-002
29374	6.5221	0.18182	0.1	-0.35951
29375	6.4302	9.0909e-002	0.1	2.8426e-002
29376	6.4302	0.45455	0.1	0.16607
29377	6.5221	0.36364	0.1	0.19321
29378	6.4302	0.63636	0.1	0.25425
29379	6.5221	0.54545	0.1	0.19019
29380	6.4302	0.81818	0.1	0.43464
29381	6.5221	0.72727	0.1	0.39599
29382	6.4302	1.	0.1	0.61627
29383	6.5221	0.90909	0.1	0.56218
29384	6.4302	1.1818	0.1	0.84293
29385	6.5221	1.0909	0.1	0.74985
29386	6.4302	1.3636	0.1	1.1694
29387	6.5221	1.2727	0.1	0.97908
29388	6.4302	1.5455	0.1	1.7528
29389	6.5221	1.4545	0.1	1.3174
29390	6.4302	1.7273	0.1	3.2631
29391	6.5221	1.6364	0.1	1.9207
29392	6.4302	1.9091	0.1	13.779
29393	6.5221	1.8182	0.1	3.415
29394	6.4302	2.0909	0.1	64.126
29395	6.5221	2.	0.1	13.209
29396	6.4302	2.2727	0.1	118.82
29397	6.5221	2.1818	0.1	64.038
29398	6.4302	2.4545	0.1	163.28
29399	6.5221	2.3636	0.1	116.58
29400	6.4302	2.6364	0.1	194.59
29401	6.5221	2.5455	0.1	155.13
29402	6.4302	2.8182	0.1	212.72
29403	6.5221	2.7273	0.1	179.
29404	6.4302	3.	0.1	218.61
29405	6.5221	2.9091	0.1	190.12
29406	6.4302	3.1818	0.1	212.72
29407	6.5221	3.0909	0.1	190.12
29408	6.4302	3.3636	0.1	194.59
29409	6.5221	3.2727	0.1	179.
29410	6.4302	3.5455	0.1	163.28
29411	6.5221	3.4545	0.1	155.13
29412	6.4302	3.7273	0.1	118.82
29413	6.5221	3.6364	0.1	116.58
29414	6.4302	3.9091	0.1	64.126
29415	6.5221	3.8182	0.1	64.038
29416	6.4302	4.0909	0.1	13.779
29417	6.5221	4.	0.1	13.209
29418	6.4302	4.2727	0.1	3.2631
29419	6.5221	4.1818	0.1	3.415
29420	6.4302	4.4545	0.1	1.7528
29421	6.5221	4.3636	0.1	1.9207
29422	6.4302	4.6364	0.1	1.1694
29423	6.5221	4.5455	0.1	1.3174
29424	6.4302	4.8182	0.1	0.84293
29425	6.5221	4.7273	0.1	0.97908
29426	6.4302	5.	0.1	0.61627
29427	6.5221	4.9091	0.1	0.74985
29428	6.4302	5.1818	0.1	0.43464
29429	6.5221	5.0909	0.1	0.56218
29430	6.4302	5.3636	0.1	0.25425
29431	6.5221	5.2727	0.1	0.39599
29432	6.4302	5.5455	0.1	0.16607
29433	6.5221	5.4545	0.1	0.19019
29434	6.4302	5.7273	0.1	-7.5504e-002
29435	6.5221	5.6364	0.1	0.19321
29436	6.5221	5.8182	0.1	-0.3595
29437	6.4302	5.9091	0.1	2.8427e-002
29438	6.614	0.27273	0.1	-9.995e-002
29439	6.7058	0.18182	0.1	-0.43844
29440	6.614	9.0909e-002	0.1	2.1245e-002
29441	6.614	0.45455	0.1	0.21366
29442	6.7058	0.36364	0.1	0.22687
29443	6.614	0.63636	0.1	0.33088
29444	6.7058	0.54545	0.1	0.27267
29445	6.614	0.81818	0.1	0.52306
29446	6.7058	0.72727	0.1	0.49859
29447	6.614	1.	0.1	0.69542
29448	6.7058	0.90909	0.1	0.66715
29449	6.614	1.1818	0.1	0.88541
29450	6.7058	1.0909	0.1	0.84129
29451	6.614	1.3636	0.1	1.125
29452	6.7058	1.2727	0.1	1.0342
29453	6.614	1.5455	0.1	1.4813
29454	6.7058	1.4545	0.1	1.2699
29455	6.614	1.7273	0.1	2.0947
29456	6.7058	1.6364	0.1	1.6029
29457	6.614	1.9091	0.1	3.5784
29458	6.7058	1.8182	0.1	2.2119
29459	6.614	2.0909	0.1	12.982
29460	6.7058	2.	0.1	3.5051
29461	6.614	2.2727	0.1	61.507
29462	6.7058	2.1818	0.1	11.021
29463	6.614	2.4545	0.1	108.57
29464	6.7058	2.3636	0.1	53.426
29465	6.614	2.6364	0.1	140.08
29466	6.7058	2.5455	0.1	91.674
29467	6.614	2.8182	0.1	157.21
29468	6.7058	2.7273	0.1	113.31
29469	6.614	3.	0.1	162.53
29470	6.7058	2.9091	0.1	122.49
29471	6.614	3.1818	0.1	157.21
29472	6.7058	3.0909	0.1	122.49
29473	6.614	3.3636	0.1	140.08
29474	6.7058	3.2727	0.1	113.31
29475	6.614	3.5455	0.1	108.57
29476	6.7058	3.4545	0.1	91.674
29477	6.614	3.7273	0.1	61.507
29478	6.7058	3.6364	0.1	53.426
29479	6.614	3.9091	0.1	12.982
29480	6.7058	3.8182	0.1	11.021
29481	6.614	4.0909	0.1	3.5784
29482	6.7058	4.	0.1	3.5051
29483	6.614	4.2727	0.1	2.0947
29484	6.7058	4.1818	0.1	2.2119
29485	6.614	4.4545	0.1	1.4813
29486	6.7058	4.3636	0.1	1.6029
29487	6.614	4.6364	0.1	1.125
29488	6.7058	4.5455	0.1	1.2699
29489	6.614	4.8182	0.1	0.88541
29490	6.7058	4.7273	0.1	1.0342
29491	6.614	5.	0.1	0.69542
29492	6.7058	4.9091	0.1	0.84129
29493	6.614	5.1818	0.1	0.52307
29494	6.7058	5.0909	0.1	0.66715
29495	6.614	5.3636	0.1	0.33088
29496	6.7058	5.2727	0.1	0.49859
29497	6.614	5.5455	0.1	0.21366
29498	6.7058	5.4545	0.1	0.27267
29499	6.614	5.7273	0.1	-9.9948e-002
29500	6.7058	5.6364	0.1	0.22688
29501	6.7058	5.8182	0.1	-0.43844
29502	6.614	5.9091	0.1	2.1247e-002
29503	6.7977	0.27273	0.1	-9.4448e-002
29504	6.8895	0.18182	0.1	-0.41169
29505	6.7977	9.0909e-002	0.1	-2.8618e-003
29506	6.7977	0.45455	0.1	0.29288
29507	6.8895	0.36364	0.1	0.32252
29508	6.7977	0.63636	0.1	0.44566
29509	6.8895	0.54545	0.1	0.42982
29510	6.7977	0.81818	0.1	0.64618
29511	6.8895	0.72727	0.1	0.65617
29512	6.7977	1.	0.1	0.81616
29513	6.8895	0.90909	0.1	0.82694
29514	6.7977	1.1818	0.1	0.99339
29515	6.8895	1.0909	0.1	1.005
29516	6.7977	1.3636	0.1	1.18
29517	6.8895	1.2727	0.1	1.1799
29518	6.7977	1.5455	0.1	1.3841
29519	6.8895	1.4545	0.1	1.4027
29520	6.7977	1.7273	0.1	1.7005
29521	6.8895	1.6364	0.1	1.7762
29522	6.7977	1.9091	0.1	2.1594
29523	6.8895	1.8182	0.1	1.9673
29524	6.7977	2.0909	0.1	3.0543
29525	6.8895	2.	0.1	2.433
29526	6.7977	2.2727	0.1	7.4531
29527	6.8895	2.1818	0.1	2.7942
29528	6.7977	2.4545	0.1	37.189
29529	6.8895	2.3636	0.1	3.2233
29530	6.7977	2.6364	0.1	65.928
29531	6.8895	2.5455	0.1	9.1155
29532	6.7977	2.8182	0.1	80.037
29533	6.8895	2.7273	0.1	22.011
29534	6.7977	3.	0.1	84.04
29535	6.8895	2.9091	0.1	27.365
29536	6.7977	3.1818	0.1	80.037
29537	6.8895	3.0909	0.1	27.365
29538	6.7977	3.3636	0.1	65.928
29539	6.8895	3.2727	0.1	22.011
29540	6.7977	3.5455	0.1	37.189
29541	6.8895	3.4545	0.1	9.1155
29542	6.7977	3.7273	0.1	7.4532
29543	6.8895	3.6364	0.1	3.2233
29544	6.7977	3.9091	0.1	3.0543
29545	6.8895	3.8182	0.1	2.7942
29546	6.7977	4.0909	0.1	2.1594
29547	6.8895	4.	0.1	2.433
29548	6.7977	4.2727	0.1	1.7005
29549	6.8895	4.1818	0.1	1.9673
29550	6.7977	4.4545	0.1	1.3841
29551	6.8895	4.3636	0.1	1.7762
29552	6.7977	4.6364	0.1	1.18
29553	6.8895	4.5455	0.1	1.4027
29554	6.7977	4.8182	0.1	0.99339
29555	6.8895	4.7273	0.1	1.1799
29556	6.7977	5.	0.1	0.81617
29557	6.8895	4.9091	0.1	1.005
29558	6.7977	5.1818	0.1	0.64618
29559	6.8895	5.0909	0.1	0.82694
29560	6.7977	5.3636	0.1	0.44566
29561	6.8895	5.2727	0.1	0.65617
29562	6.7977	5.5455	0.1	0.29288
29563	6.8895	5.4545	0.1	0.42982
29564	6.7977	5.7273	0.1	-9.4446e-002
29565	6.8895	5.6364	0.1	0.32252
29566	6.8895	5.8182	0.1	-0.41169
29567	6.7977	5.9091	0.1	-2.8612e-003
29568	6.9814	0.27273	0.1	6.3336e-002
29569	7.0733	0.18182	0.1	-0.11765
29570	6.9814	9.0909e-002	0.1	-9.5591e-004
29571	6.9814	0.45455	0.1	0.48532
29572	7.0733	0.36364	0.1	0.55252
29573	6.9814	0.63636	0.1	0.65328
29574	7.0733	0.54545	0.1	0.67636
29575	6.9814	0.81818	0.1	0.84292
29576	7.0733	0.72727	0.1	0.83277
29577	6.9814	1.	0.1	1.0209
29578	7.0733	0.90909	0.1	0.97423
29579	6.9814	1.1818	0.1	1.1987
29580	7.0733	1.0909	0.1	1.1383
29581	6.9814	1.3636	0.1	1.4096
29582	7.0733	1.2727	0.1	1.4056
29583	6.9814	1.5455	0.1	1.7922
29584	7.0733	1.4545	0.1	1.7487
29585	6.9814	1.7273	0.1	2.0186
29586	7.0733	1.6364	0.1	1.271
29587	6.9814	1.9091	0.1	2.2229
29588	7.0733	1.8182	0.1	1.7671
29589	6.9814	2.0909	0.1	2.3952
29590	7.0733	2.	0.1	0.57928
29591	6.9814	2.2727	0.1	1.6384
29592	7.0733	2.1818	0.1	-0.45689
29593	6.9814	2.4545	0.1	0.4725
29594	7.0733	2.3636	0.1	-5.8964e-002
29595	6.9814	2.6364	0.1	-0.30814
29596	7.0733	2.5455	0.1	-0.8918
29597	6.9814	2.8182	0.1	-0.71726
29598	7.0733	2.7273	0.1	-0.91126
29599	6.9814	3.	0.1	-0.82362
29600	7.0733	2.9091	0.1	-0.84055
29601	6.9814	3.1818	0.1	-0.71726
29602	7.0733	3.0909	0.1	-0.84055
29603	6.9814	3.3636	0.1	-0.30814
29604	7.0733	3.2727	0.1	-0.91126
29605	6.9814	3.5455	0.1	0.4725
29606	7.0733	3.4545	0.1	-0.8918
29607	6.9814	3.7273	0.1	1.6384
29608	7.0733	3.6364	0.1	-5.8964e-002
29609	6.9814	3.9091	0.1	2.3952
29610	7.0733	3.8182	0.1	-0.45689
29611	6.9814	4.0909	0.1	2.2229
29612	7.0733	4.	0.1	0.57928
29613	6.9814	4.2727	0.1	2.0186
29614	7.0733	4.1818	0.1	1.7671
29615	6.9814	4.4545	0.1	1.7922
29616	7.0733	4.3636	0.1	1.271
29617	6.9814	4.6364	0.1	1.4096
29618	7.0733	4.5455	0.1	1.7487
29619	6.9814	4.8182	0.1	1.1987
29620	7.0733	4.7273	0.1	1.4056
29621	6.9814	5.	0.1	1.0209
29622	7.0733	4.9091	0.1	1.1383
29623	6.9814	5.1818	0.1	0.84293
29624	7.0733	5.0909	0.1	0.97423
29625	6.9814	5.3636	0.1	0.65328
29626	7.0733	5.2727	0.1	0.83278
29627	6.9814	5.5455	0.1	0.48532
29628	7.0733	5.4545	0.1	0.67636
29629	6.9814	5.7273	0.1	6.3338e-002
29630	7.0733	5.6364	0.1	0.55252
29631	7.0733	5.8182	0.1	-0.11765
29632	6.9814	5.9091	0.1	-9.5413e-004
29633	7.1651	0.27273	0.1	0.50005
29634	7.257	0.18182	0.1	1.1385
29635	7.1651	9.0909e-002	0.1	-4.6458e-002
29636	7.1651	0.45455	0.1	0.7943
29637	7.257	0.36364	0.1	1.4076
29638	7.1651	0.63636	0.1	0.86929
29639	7.257	0.54545	0.1	1.3091
29640	7.1651	0.81818	0.1	0.96545
29641	7.257	0.72727	0.1	1.2584
29642	7.1651	1.	0.1	1.0942
29643	7.257	0.90909	0.1	1.31
29644	7.1651	1.1818	0.1	1.3538
29645	7.257	1.0909	0.1	1.5747
29646	7.1651	1.3636	0.1	1.7575
29647	7.257	1.2727	0.1	1.9076
29648	7.1651	1.5455	0.1	1.2288
29649	7.257	1.4545	0.1	2.1673
29650	7.1651	1.7273	0.1	0.99327
29651	7.257	1.6364	0.1	5.2232
29652	7.1651	1.9091	0.1	8.2778e-002
29653	7.257	1.8182	0.1	3.6161
29654	7.1651	2.0909	0.1	-2.1984
29655	7.257	2.	0.1	6.3564
29656	7.1651	2.2727	0.1	-1.8265
29657	7.257	2.1818	0.1	2.8919
29658	7.1651	2.4545	0.1	-0.91821
29659	7.257	2.3636	0.1	-3.407
29660	7.1651	2.6364	0.1	-1.1307
29661	7.257	2.5455	0.1	-1.0978
29662	7.1651	2.8182	0.1	-0.94543
29663	7.257	2.7273	0.1	-0.97349
29664	7.1651	3.	0.1	-0.86029
29665	7.257	2.9091	0.1	-0.73862
29666	7.1651	3.1818	0.1	-0.94543
29667	7.257	3.0909	0.1	-0.73862
29668	7.1651	3.3636	0.1	-1.1307
29669	7.257	3.2727	0.1	-0.97348
29670	7.1651	3.5455	0.1	-0.91821
29671	7.257	3.4545	0.1	-1.0978
29672	7.1651	3.7273	0.1	-1.8265
29673	7.257	3.6364	0.1	-3.407
29674	7.1651	3.9091	0.1	-2.1984
29675	7.257	3.8182	0.1	2.8919
29676	7.1651	4.0909	0.1	8.2779e-002
29677	7.257	4.	0.1	6.3564
29678	7.1651	4.2727	0.1	0.99327
29679	7.257	4.1818	0.1	3.6161
29680	7.1651	4.4545	0.1	1.2288
29681	7.257	4.3636	0.1	5.2232
29682	7.1651	4.6364	0.1	1.7575
29683	7.257	4.5455	0.1	2.1673
29684	7.1651	4.8182	0.1	1.3538
29685	7.257	4.7273	0.1	1.9076
29686	7.1651	5.	0.1	1.0942
29687	7.257	4.9091	0.1	1.5747
29688	7.1651	5.1818	0.1	0.96545
29689	7.257	5.0909	0.1	1.31
29690	7.1651	5.3636	0.1	0.86929
29691	7.257	5.2727	0.1	1.2584
29692	7.1651	5.5455	0.1	0.7943
29693	7.257	5.4545	0.1	1.3091
29694	7.1651	5.7273	0.1	0.50005
29695	7.257	5.6364	0.1	1.4076
29696	7.257	5.8182	0.1	1.1385
29697	7.1651	5.9091	0.1	-4.6456e-002
29698	7.3488	0.27273	0.1	2.3041
29699	7.4407	0.18182	0.1	3.7514
29700	7.3488	9.0909e-002	0.1	0.59794
29701	7.3488	0.45455	0.1	1.9482
29702	7.4407	0.36364	0.1	2.549
29703	7.3488	0.63636	0.1	1.6704
29704	7.4407	0.54545	0.1	1.537
29705	7.3488	0.81818	0.1	1.5814
29706	7.4407	0.72727	0.1	0.89081
29707	7.3488	1.	0.1	1.7818
29708	7.4407	0.90909	0.1	0.66828
29709	7.3488	1.1818	0.1	2.1319
29710	7.4407	1.0909	0.1	0.64443
29711	7.3488	1.3636	0.1	2.3312
29712	7.4407	1.2727	0.1	0.90205
29713	7.3488	1.5455	0.1	6.1743
29714	7.4407	1.4545	0.1	1.2317
29715	7.3488	1.7273	0.1	7.8557
29716	7.4407	1.6364	0.1	2.6669
29717	7.3488	1.9091	0.1	9.8302
29718	7.4407	1.8182	0.1	-4.6134
29719	7.3488	2.0909	0.1	11.398
29720	7.4407	2.	0.1	-29.325
29721	7.3488	2.2727	0.1	1.1767
29722	7.4407	2.1818	0.1	-13.871
29723	7.3488	2.4545	0.1	-3.4957
29724	7.4407	2.3636	0.1	-0.20156
29725	7.3488	2.6364	0.1	-0.89386
29726	7.4407	2.5455	0.1	-1.1583
29727	7.3488	2.8182	0.1	-0.76202
29728	7.4407	2.7273	0.1	-0.39793
29729	7.3488	3.	0.1	-0.62399
29730	7.4407	2.9091	0.1	-0.21294
29731	7.3488	3.1818	0.1	-0.76203
29732	7.4407	3.0909	0.1	-0.21294
29733	7.3488	3.3636	0.1	-0.89386
29734	7.4407	3.2727	0.1	-0.39793
29735	7.3488	3.5455	0.1	-3.4957
29736	7.4407	3.4545	0.1	-1.1583
29737	7.3488	3.7273	0.1	1.1767
29738	7.4407	3.6364	0.1	-0.20156
29739	7.3488	3.9091	0.1	11.398
29740	7.4407	3.8182	0.1	-13.871
29741	7.3488	4.0909	0.1	9.8302
29742	7.4407	4.	0.1	-29.325
29743	7.3488	4.2727	0.1	7.8557
29744	7.4407	4.1818	0.1	-4.6134
29745	7.3488	4.4545	0.1	6.1744
29746	7.4407	4.3636	0.1	2.6669
29747	7.3488	4.6364	0.1	2.3312
29748	7.4407	4.5455	0.1	1.2317
29749	7.3488	4.8182	0.1	2.1319
29750	7.4407	4.7273	0.1	0.90206
29751	7.3488	5.	0.1	1.7819
29752	7.4407	4.9091	0.1	0.64443
29753	7.3488	5.1818	0.1	1.5814
29754	7.4407	5.0909	0.1	0.66828
29755	7.3488	5.3636	0.1	1.6704
29756	7.4407	5.2727	0.1	0.89081
29757	7.3488	5.5455	0.1	1.9482
29758	7.4407	5.4545	0.1	1.537
29759	7.3488	5.7273	0.1	2.3041
29760	7.4407	5.6364	0.1	2.549
29761	7.4407	5.8182	0.1	3.7514
29762	7.3488	5.9091	0.1	0.59795
29763	7.5326	0.27273	0.1	4.261
29764	7.6244	0.18182	0.1	15.261
29765	7.5326	9.0909e-002	0.1	0.7765
29766	7.5326	0.45455	0.1	1.7732
29767	7.6244	0.36364	0.1	7.6067
29768	7.5326	0.63636	0.1	0.56786
29769	7.6244	0.54545	0.1	4.9622
29770	7.5326	0.81818	0.1	-0.10241
29771	7.6244	0.72727	0.1	3.7737
29772	7.5326	1.	0.1	-0.49866
29773	7.6244	0.90909	0.1	3.4021
29774	7.5326	1.1818	0.1	-0.59266
29775	7.6244	1.0909	0.1	4.0273
29776	7.5326	1.3636	0.1	-0.19848
29777	7.6244	1.2727	0.1	2.9747
29778	7.5326	1.5455	0.1	-2.25
29779	7.6244	1.4545	0.1	12.137
29780	7.5326	1.7273	0.1	-10.041
29781	7.6244	1.6364	0.1	-11.328
29782	7.5326	1.9091	0.1	-43.866
29783	7.6244	1.8182	0.1	62.307
29784	7.5326	2.0909	0.1	-54.807
29785	7.6244	2.	0.1	251.03
29786	7.5326	2.2727	0.1	-15.605
29787	7.6244	2.1818	0.1	-31.396
29788	7.5326	2.4545	0.1	2.272
29789	7.6244	2.3636	0.1	11.25
29790	7.5326	2.6364	0.1	-0.64378
29791	7.6244	2.5455	0.1	-3.3045
29792	7.5326	2.8182	0.1	0.12749
29793	7.6244	2.7273	0.1	1.7541
29794	7.5326	3.	0.1	0.17078
29795	7.6244	2.9091	0.1	0.44826
29796	7.5326	3.1818	0.1	0.12748
29797	7.6244	3.0909	0.1	0.44826
29798	7.5326	3.3636	0.1	-0.64378
29799	7.6244	3.2727	0.1	1.7541
29800	7.5326	3.5455	0.1	2.272
29801	7.6244	3.4545	0.1	-3.3045
29802	7.5326	3.7273	0.1	-15.605
29803	7.6244	3.6364	0.1	11.25
29804	7.5326	3.9091	0.1	-54.807
29805	7.6244	3.8182	0.1	-31.396
29806	7.5326	4.0909	0.1	-43.866
29807	7.6244	4.	0.1	251.03
29808	7.5326	4.2727	0.1	-10.041
29809	7.6244	4.1818	0.1	62.307
29810	7.5326	4.4545	0.1	-2.25
29811	7.6244	4.3636	0.1	-11.328
29812	7.5326	4.6364	0.1	-0.19847
29813	7.6244	4.5455	0.1	12.137
29814	7.5326	4.8182	0.1	-0.59266
29815	7.6244	4.7273	0.1	2.9747
29816	7.5326	5.	0.1	-0.49866
29817	7.6244	4.9091	0.1	4.0273
29818	7.5326	5.1818	0.1	-0.10241
29819	7.6244	5.0909	0.1	3.4021
29820	7.5326	5.3636	0.1	0.56787
29821	7.6244	5.2727	0.1	3.7737
29822	7.5326	5.5455	0.1	1.7732
29823	7.6244	5.4545	0.1	4.9622
29824	7.5326	5.7273	0.1	4.261
29825	7.6244	5.6364	0.1	7.6067
29826	7.6244	5.8182	0.1	15.261
29827	7.5326	5.9091	0.1	0.7765
29828	7.7163	0.27273	0.1	15.23
29829	7.8081	0.18182	0.1	-1.4847
29830	7.7163	9.0909e-002	0.1	14.234
29831	7.7163	0.45455	0.1	8.7596
29832	7.8081	0.36364	0.1	-3.4722
29833	7.7163	0.63636	0.1	7.3196
29834	7.8081	0.54545	0.1	-2.22
29835	7.7163	0.81818	0.1	6.8319
29836	7.8081	0.72727	0.1	-2.1639
29837	7.7163	1.	0.1	7.6718
29838	7.8081	0.90909	0.1	-2.5077
29839	7.7163	1.1818	0.1	7.5051
29840	7.8081	1.0909	0.1	-0.89879
29841	7.7163	1.3636	0.1	15.299
29842	7.8081	1.2727	0.1	-6.6673
29843	7.7163	1.5455	0.1	3.3353
29844	7.8081	1.4545	0.1	17.415
29845	7.7163	1.7273	0.1	61.131
29846	7.8081	1.6364	0.1	-72.371
29847	7.7163	1.9091	0.1	361.78
29848	7.8081	1.8182	0.1	321.63
29849	7.7163	2.0909	0.1	252.87
29850	7.8081	2.	0.1	380.43
29851	7.7163	2.2727	0.1	-2.3542
29852	7.8081	2.1818	0.1	-89.323
29853	7.7163	2.4545	0.1	5.7525
29854	7.8081	2.3636	0.1	26.765
29855	7.7163	2.6364	0.1	-0.99977
29856	7.8081	2.5455	0.1	-3.0287
29857	7.7163	2.8182	0.1	2.0217
29858	7.8081	2.7273	0.1	3.7698
29859	7.7163	3.	0.1	0.67382
29860	7.8081	2.9091	0.1	1.4351
29861	7.7163	3.1818	0.1	2.0217
29862	7.8081	3.0909	0.1	1.4351
29863	7.7163	3.3636	0.1	-0.99977
29864	7.8081	3.2727	0.1	3.7698
29865	7.7163	3.5455	0.1	5.7525
29866	7.8081	3.4545	0.1	-3.0287
29867	7.7163	3.7273	0.1	-2.3542
29868	7.8081	3.6364	0.1	26.765
29869	7.7163	3.9091	0.1	252.87
29870	7.8081	3.8182	0.1	-89.322
29871	7.7163	4.0909	0.1	361.78
29872	7.8081	4.	0.1	380.43
29873	7.7163	4.2727	0.1	61.131
29874	7.8081	4.1818	0.1	321.63
29875	7.7163	4.4545	0.1	3.3353
29876	7.8081	4.3636	0.1	-72.371
29877	7.7163	4.6364	0.1	15.299
29878	7.8081	4.5455	0.1	17.415
29879	7.7163	4.8182	0.1	7.5051
29880	7.8081	4.7273	0.1	-6.6673
29881	7.7163	5.	0.1	7.6718
29882	7.8081	4.9091	0.1	-0.89879
29883	7.7163	5.1818	0.1	6.8319
29884	7.8081	5.0909	0.1	-2.5077
29885	7.7163	5.3636	0.1	7.3196
29886	7.8081	5.2727	0.1	-2.1639
29887	7.7163	5.5455	0.1	8.7596
29888	7.8081	5.4545	0.1	-2.22
29889	7.7163	5.7273	0.1	15.23
29890	7.8081	5.6364	0.1	-3.4722
29891	7.8081	5.8182	0.1	-1.4847
29892	7.7163	5.9091	0.1	14.234
29893	8.0667	3.7273	0.1	-26.124
29894	7.9833	3.8182	0.1	-120.52
29895	8.0667	3.9091	0.1	574.33
29896	8.0667	3.5455	0.1	18.507
29897	7.9833	3.6364	0.1	37.917
29898	8.0667	3.3636	0.1	1.4053
29899	7.9833	3.4545	0.1	-0.9811
29900	8.0667	3.1818	0.1	3.0693
29901	7.9833	3.2727	0.1	4.163
29902	8.0667	3.	0.1	2.0137
29903	7.9833	3.0909	0.1	2.1093
29904	8.0667	2.8182	0.1	3.0693
29905	7.9833	2.9091	0.1	2.1093
29906	8.0667	2.6364	0.1	1.4053
29907	7.9833	2.7273	0.1	4.163
29908	8.0667	2.4545	0.1	18.507
29909	7.9833	2.5455	0.1	-0.9811
29910	8.0667	2.2727	0.1	-26.124
29911	7.9833	2.3636	0.1	37.917
29912	7.9833	2.1818	0.1	-120.52
29913	8.0667	2.0909	0.1	574.34
29914	7.9	3.7273	0.1	-59.804
29915	7.9	3.9091	0.1	384.34
29916	7.9	3.5455	0.1	17.69
29917	7.9	3.3636	0.1	1.646
29918	7.9	3.1818	0.1	3.1021
29919	7.9	3.	0.1	2.1245
29920	7.9	2.8182	0.1	3.1021
29921	7.9	2.6364	0.1	1.646
29922	7.9	2.4545	0.1	17.69
29923	7.9	2.2727	0.1	-59.804
29924	7.9	2.0909	0.1	384.34
29925	8.0667	5.7273	0.1	-12.847
29926	8.0667	5.9091	0.1	-0.81925
29927	8.0667	5.8182	5.e-002	3.3306e-006
29928	8.0667	5.5455	0.1	-14.686
29929	8.0667	5.6364	5.e-002	-3.8713e-014
29930	8.0667	5.3636	0.1	-15.637
29931	8.0667	5.4545	5.e-002	-5.9065e-014
29932	8.0667	5.1818	0.1	-17.855
29933	8.0667	5.2727	5.e-002	-8.1078e-014
29934	8.0667	5.	0.1	-20.44
29935	8.0667	5.0909	5.e-002	-1.0593e-013
29936	8.0667	4.8182	0.1	-26.75
29937	8.0667	4.9091	5.e-002	-7.3122e-008
29938	8.0667	4.6364	0.1	-30.216
29939	8.0667	4.7273	5.e-002	-1.7218e-013
29940	8.0667	4.4545	0.1	-72.431
29941	8.0667	4.5455	5.e-002	-9.2161e-008
29942	8.0667	4.2727	0.1	-61.407
29943	8.0667	4.3636	5.e-002	-2.9977e-013
29944	8.0667	4.0909	0.1	1235.3
29945	8.0667	4.1818	5.e-002	-4.9952e-013
29946	7.9833	4.	0.1	1969.2
29947	8.0667	4.	5.e-002	6.1081e-006
29948	7.9	4.0909	0.1	1104.4
29949	7.9	4.	5.e-002	7.5495e-005
29950	7.9	4.2727	0.1	-60.33
29951	7.9	4.1818	5.e-002	3.0109e-005
29952	7.9	4.4545	0.1	-76.676
29953	7.9	4.3636	5.e-002	-2.7886e-007
29954	7.9	4.6364	0.1	-33.185
29955	7.9	4.5455	5.e-002	-8.2261e-008
29956	7.9	4.8182	0.1	-30.025
29957	7.9	4.7273	5.e-002	-6.5431e-008
29958	7.9	5.	0.1	-23.394
29959	7.9	4.9091	5.e-002	-1.5986e-013
29960	7.9	5.1818	0.1	-20.787
29961	7.9	5.0909	5.e-002	-1.2604e-013
29962	7.9	5.3636	0.1	-18.488
29963	7.9	5.2727	5.e-002	-9.6985e-014
29964	7.9	5.5455	0.1	-17.527
29965	7.9	5.4545	5.e-002	-7.0905e-014
29966	7.9	5.7273	0.1	-15.603
29967	7.9	5.6364	5.e-002	-4.6576e-014
29968	7.9	5.9091	0.1	-3.3325
29969	7.9	5.8182	5.e-002	1.6302e-006
29970	8.0667	0.27273	0.1	-12.847
29971	8.0667	9.0909e-002	0.1	-0.81925
29972	8.0667	0.18182	5.e-002	-1.3083e-006
29973	8.0667	0.45455	0.1	-14.686
29974	8.0667	0.36364	5.e-002	-2.3593e-006
29975	8.0667	0.63636	0.1	-15.637
29976	8.0667	0.54545	5.e-002	-1.5556e-007
29977	8.0667	0.81818	0.1	-17.855
29978	8.0667	0.72727	5.e-002	-1.0262e-007
29979	8.0667	1.	0.1	-20.44
29980	8.0667	0.90909	5.e-002	-1.6103e-007
29981	8.0667	1.1818	0.1	-26.75
29982	8.0667	1.0909	5.e-002	-7.3122e-008
29983	8.0667	1.3636	0.1	-30.216
29984	8.0667	1.2727	5.e-002	-1.7218e-013
29985	8.0667	1.5455	0.1	-72.431
29986	8.0667	1.4545	5.e-002	4.5448e-006
29987	8.0667	1.7273	0.1	-61.407
29988	8.0667	1.6364	5.e-002	-1.9295e-007
29989	8.0667	1.9091	0.1	1235.3
29990	8.0667	1.8182	5.e-002	-4.5463e-005
29991	7.9833	2.	0.1	1969.2
29992	8.0667	2.	5.e-002	6.4433e-004
29993	7.9	1.9091	0.1	1104.4
29994	7.9	2.	5.e-002	8.7266e-005
29995	7.9	1.7273	0.1	-60.33
29996	7.9	1.8182	5.e-002	-9.0756e-005
29997	7.9	1.5455	0.1	-76.676
29998	7.9	1.6364	5.e-002	-3.4302e-013
29999	7.9	1.3636	0.1	-33.185
30000	7.9	1.4545	5.e-002	-2.5637e-013
30001	7.9	1.1818	0.1	-30.025
30002	7.9	1.2727	5.e-002	-6.5431e-008
30003	7.9	1.	0.1	-23.394
30004	7.9	1.0909	5.e-002	-1.3402e-007
30005	7.9	0.81818	0.1	-20.787
30006	7.9	0.90909	5.e-002	-1.5109e-007
30007	7.9	0.63636	0.1	-18.488
30008	7.9	0.72727	5.e-002	-9.6985e-014
30009	7.9	0.45455	0.1	-17.527
30010	7.9	0.54545	5.e-002	-7.6083e-008
30011	7.9	0.27273	0.1	-15.603
30012	7.9	0.36364	5.e-002	-3.1913e-007
30013	7.9	9.0909e-002	0.1	-3.3325
30014	7.9	0.18182	5.e-002	-2.1975e-014
30015	8.1582	6.	0.1	16.863
30016	8.0667	6.	5.e-002	4.2623e-007
30017	8.3414	6.	0.1	-0.25861
30018	8.2498	6.	5.e-002	-1.9681e-007
30019	8.5245	6.	0.1	-1.794
30020	8.433	6.	5.e-002	1.7301e-006
30021	8.7077	6.	0.1	-0.41122
30022	8.6161	6.	5.e-002	9.5286e-007
30023	8.8908	6.	0.1	0.17704
30024	8.7992	6.	5.e-002	1.4266e-006
30025	9.0739	6.	0.1	0.66227
30026	8.9824	6.	5.e-002	1.9069e-006
30027	9.2571	6.	0.1	0.90582
30028	9.1655	6.	5.e-002	1.4297e-006
30029	9.4402	6.	0.1	0.99797
30030	9.3487	6.	5.e-002	1.3102e-006
30031	9.6234	6.	0.1	0.97875
30032	9.5318	6.	5.e-002	1.3126e-006
30033	9.8065	6.	0.1	0.89291
30034	9.7149	6.	5.e-002	1.4887e-006
30035	9.9897	6.	0.1	0.77163
30036	9.8981	6.	5.e-002	1.6084e-006
30037	10.173	6.	0.1	0.63707
30038	10.081	6.	5.e-002	1.9459e-006
30039	10.356	6.	0.1	0.50335
30040	10.264	6.	5.e-002	1.9375e-006
30041	10.539	6.	0.1	0.37891
30042	10.448	6.	5.e-002	1.8441e-006
30043	10.722	6.	0.1	0.26816
30044	10.631	6.	5.e-002	1.9886e-006
30045	10.905	6.	0.1	0.17285
30046	10.814	6.	5.e-002	1.9742e-006
30047	11.089	6.	0.1	9.3095e-002
30048	10.997	6.	5.e-002	2.3421e-006
30049	11.272	6.	0.1	2.8036e-002
30050	11.18	6.	5.e-002	2.25e-006
30051	11.455	6.	0.1	-2.3726e-002
30052	11.363	6.	5.e-002	2.2054e-006
30053	11.638	6.	0.1	-6.378e-002
30054	11.546	6.	5.e-002	2.5645e-006
30055	11.821	6.	0.1	-9.3757e-002
30056	11.73	6.	5.e-002	2.9208e-006
30057	12.004	6.	0.1	-0.11526
30058	11.913	6.	5.e-002	2.6235e-006
30059	12.187	6.	0.1	-0.12975
30060	12.096	6.	5.e-002	2.563e-006
30061	12.37	6.	0.1	-0.1385
30062	12.279	6.	5.e-002	1.8031e-006
30063	12.554	6.	0.1	-0.14263
30064	12.462	6.	5.e-002	3.5166e-006
30065	12.737	6.	0.1	-0.14313
30066	12.645	6.	5.e-002	3.1016e-006
30067	12.92	6.	0.1	-0.14079
30068	12.828	6.	5.e-002	2.4437e-006
30069	13.103	6.	0.1	-0.13625
30070	13.011	6.	5.e-002	3.3378e-006
30071	13.286	6.	0.1	-0.13009
30072	13.195	6.	5.e-002	2.9802e-006
30073	13.469	6.	0.1	-0.12275
30074	13.378	6.	5.e-002	2.861e-006
30075	13.652	6.	0.1	-0.1146
30076	13.561	6.	5.e-002	3.457e-006
30077	13.836	6.	0.1	-0.10593
30078	13.744	6.	5.e-002	3.5052e-006
30079	14.019	6.	0.1	-9.6942e-002
30080	13.927	6.	5.e-002	2.9692e-006
30081	14.202	6.	0.1	-8.7829e-002
30082	14.11	6.	5.e-002	3.3979e-006
30083	14.385	6.	0.1	-7.8737e-002
30084	14.293	6.	5.e-002	3.6537e-006
30085	14.568	6.	0.1	-6.9753e-002
30086	14.477	6.	5.e-002	4.1805e-006
30087	14.751	6.	0.1	-6.0946e-002
30088	14.66	6.	5.e-002	3.7622e-006
30089	14.934	6.	0.1	-5.2374e-002
30090	14.843	6.	5.e-002	4.4048e-006
30091	15.118	6.	0.1	-4.4069e-002
30092	15.026	6.	5.e-002	3.6308e-006
30093	15.301	6.	0.1	-3.6033e-002
30094	15.209	6.	5.e-002	3.2229e-006
30095	15.484	6.	0.1	-2.8283e-002
30096	15.392	6.	5.e-002	3.934e-006
30097	15.667	6.	0.1	-2.0829e-002
30098	15.575	6.	5.e-002	4.4704e-006
30099	15.85	6.	0.1	-1.3647e-002
30100	15.759	6.	5.e-002	4.1146e-006
30101	16.033	6.	0.1	-6.7218e-003
30102	15.942	6.	5.e-002	5.126e-006
30103	16.216	6.	0.1	-3.7074e-005
30104	16.125	6.	5.e-002	4.0531e-006
30105	16.4	6.	0.1	6.434e-003
30106	16.308	6.	5.e-002	5.0071e-006
30107	16.583	6.	0.1	1.2714e-002
30108	16.491	6.	5.e-002	4.1723e-006
30109	16.766	6.	0.1	1.8821e-002
30110	16.674	6.	5.e-002	3.2783e-006
30111	16.949	6.	0.1	2.4794e-002
30112	16.857	6.	5.e-002	5.3026e-006
30113	17.132	6.	0.1	3.0669e-002
30114	17.041	6.	5.e-002	4.7656e-006
30115	17.315	6.	0.1	3.6465e-002
30116	17.224	6.	5.e-002	5.6625e-006
30117	17.498	6.	0.1	4.2214e-002
30118	17.407	6.	5.e-002	4.8239e-006
30119	17.682	6.	0.1	4.7956e-002
30120	17.59	6.	5.e-002	6.0202e-006
30121	17.865	6.	0.1	5.372e-002
30122	17.773	6.	5.e-002	5.1857e-006
30123	18.048	6.	0.1	5.9531e-002
30124	17.956	6.	5.e-002	5.7877e-006
30125	18.231	6.	0.1	6.5431e-002
30126	18.139	6.	5.e-002	6.0202e-006
30127	18.414	6.	0.1	7.1463e-002
30128	18.323	6.	5.e-002	5.9607e-006
30129	18.597	6.	0.1	7.7658e-002
30130	18.506	6.	5.e-002	5.015e-006
30131	18.78	6.	0.1	8.4052e-002
30132	18.689	6.	5.e-002	5.4838e-006
30133	18.964	6.	0.1	9.0686e-002
30134	18.872	6.	5.e-002	5.3646e-006
30135	19.147	6.	0.1	9.7601e-002
30136	19.055	6.	5.e-002	6.6165e-006
30137	19.33	6.	0.1	0.10485
30138	19.238	6.	5.e-002	5.9722e-006
30139	19.513	6.	0.1	0.11247
30140	19.421	6.	5.e-002	6.0081e-006
30141	19.696	6.	0.1	0.12051
30142	19.605	6.	5.e-002	6.1858e-006
30143	19.879	6.	0.1	0.12903
30144	19.788	6.	5.e-002	6.0204e-006
30145	20.062	6.	0.1	0.13809
30146	19.971	6.	5.e-002	6.3188e-006
30147	20.246	6.	0.1	0.14774
30148	20.154	6.	5.e-002	6.4378e-006
30149	20.429	6.	0.1	0.15807
30150	20.337	6.	5.e-002	5.8422e-006
30151	20.612	6.	0.1	0.16915
30152	20.52	6.	5.e-002	8.4143e-006
30153	20.795	6.	0.1	0.18107
30154	20.703	6.	5.e-002	6.3039e-006
30155	20.978	6.	0.1	0.19392
30156	20.887	6.	5.e-002	8.0368e-006
30157	21.161	6.	0.1	0.20783
30158	21.07	6.	5.e-002	7.7169e-006
30159	21.344	6.	0.1	0.22293
30160	21.253	6.	5.e-002	6.3767e-006
30161	21.528	6.	0.1	0.2394
30162	21.436	6.	5.e-002	7.4556e-006
30163	21.711	6.	0.1	0.25742
30164	21.619	6.	5.e-002	7.8089e-006
30165	21.894	6.	0.1	0.27725
30166	21.802	6.	5.e-002	6.5461e-006
30167	22.077	6.	0.1	0.29919
30168	21.985	6.	5.e-002	7.7342e-006
30169	22.26	6.	0.1	0.32366
30170	22.169	6.	5.e-002	7.0675e-006
30171	22.443	6.	0.1	0.3512
30172	22.352	6.	5.e-002	7.0342e-006
30173	22.626	6.	0.1	0.38255
30174	22.535	6.	5.e-002	9.0893e-006
30175	22.81	6.	0.1	0.4187
30176	22.718	6.	5.e-002	7.7738e-006
30177	22.993	6.	0.1	0.46154
30178	22.901	6.	5.e-002	9.0057e-006
30179	23.176	6.	0.1	0.51201
30180	23.084	6.	5.e-002	8.367e-006
30181	23.359	6.	0.1	0.58138
30182	23.267	6.	5.e-002	7.0292e-006
30183	23.542	6.	0.1	0.66162
30184	23.451	6.	5.e-002	7.677e-006
30185	23.725	6.	0.1	0.87999
30186	23.634	6.	5.e-002	7.7865e-006
30187	23.908	6.	0.1	0.65263
30188	23.817	6.	5.e-002	8.3409e-006
30189	24.	5.9091	0.1	-2.39
30190	24.	6.	5.e-002	3.8773e-005
30191	24.	5.7273	0.1	-2.1998
30192	24.	5.8182	5.e-002	1.8907e-005
30193	24.	5.5455	0.1	-2.2929
30194	24.	5.6364	5.e-002	1.5618e-005
30195	24.	5.3636	0.1	-2.4093
30196	24.	5.4545	5.e-002	1.0353e-005
30197	24.	5.1818	0.1	-2.4441
30198	24.	5.2727	5.e-002	5.198e-006
30199	24.	5.	0.1	-2.4736
30200	24.	5.0909	5.e-002	3.4185e-006
30201	24.	4.8182	0.1	-2.4932
30202	24.	4.9091	5.e-002	2.3036e-006
30203	24.	4.6364	0.1	-2.5083
30204	24.	4.7273	5.e-002	2.8254e-006
30205	24.	4.4545	0.1	-2.5198
30206	24.	4.5455	5.e-002	1.6441e-006
30207	24.	4.2727	0.1	-2.5288
30208	24.	4.3636	5.e-002	2.772e-006
30209	24.	4.0909	0.1	-2.5359
30210	24.	4.1818	5.e-002	2.9474e-006
30211	24.	3.9091	0.1	-2.5414
30212	24.	4.	5.e-002	6.4395e-006
30213	24.	3.7273	0.1	-2.5456
30214	24.	3.8182	5.e-002	4.2119e-006
30215	24.	3.5455	0.1	-2.5487
30216	24.	3.6364	5.e-002	1.1246e-006
30217	24.	3.3636	0.1	-2.5509
30218	24.	3.4545	5.e-002	1.6557e-006
30219	24.	3.1818	0.1	-2.5521
30220	24.	3.2727	5.e-002	2.3416e-006
30221	24.	3.	0.1	-2.5525
30222	24.	3.0909	5.e-002	3.4186e-006
30223	24.	2.8182	0.1	-2.5521
30224	24.	2.9091	5.e-002	8.0059e-006
30225	24.	2.6364	0.1	-2.5509
30226	24.	2.7273	5.e-002	5.1484e-006
30227	24.	2.4545	0.1	-2.5487
30228	24.	2.5455	5.e-002	2.3115e-006
30229	24.	2.2727	0.1	-2.5456
30230	24.	2.3636	5.e-002	6.5141e-006
30231	24.	2.0909	0.1	-2.5414
30232	24.	2.1818	5.e-002	3.7907e-006
30233	24.	1.9091	0.1	-2.5359
30234	24.	2.	5.e-002	7.4255e-006
30235	24.	1.7273	0.1	-2.5288
30236	24.	1.8182	5.e-002	7.873e-006
30237	24.	1.5455	0.1	-2.5198
30238	24.	1.6364	5.e-002	7.9587e-006
30239	24.	1.3636	0.1	-2.5083
30240	24.	1.4545	5.e-002	3.1721e-006
30241	24.	1.1818	0.1	-2.4932
30242	24.	1.2727	5.e-002	3.6663e-006
30243	24.	1.	0.1	-2.4736
30244	24.	1.0909	5.e-002	1.2992e-006
30245	24.	0.81818	0.1	-2.4441
30246	24.	0.90909	5.e-002	2.273e-006
30247	24.	0.63636	0.1	-2.4093
30248	24.	0.72727	5.e-002	3.2964e-006
30249	24.	0.45455	0.1	-2.2929
30250	24.	0.54545	5.e-002	5.7098e-006
30251	24.	0.27273	0.1	-2.1998
30252	24.	0.36364	5.e-002	8.5598e-006
30253	24.	9.0909e-002	0.1	-2.39
30254	24.	0.18182	5.e-002	9.3111e-006
30255	2.3842e-015	0.27273	0.1	1766.5
30256	7.9472e-016	9.0909e-002	0.1	378.72
30257	1.6109e-015	0.18182	5.e-002	7.6895e-005
30258	3.9736e-015	0.45455	0.1	2569.9
30259	3.2219e-015	0.36364	5.e-002	6.3524e-005
30260	5.563e-015	0.63636	0.1	2983.
30261	4.8328e-015	0.54545	5.e-002	1.545e-004
30262	7.1525e-015	0.81818	0.1	3241.2
30263	6.4438e-015	0.72727	5.e-002	8.3811e-005
30264	8.7419e-015	1.	0.1	3419.1
30265	8.0547e-015	0.90909	5.e-002	1.272e-004
30266	1.0331e-014	1.1818	0.1	3548.4
30267	9.6657e-015	1.0909	5.e-002	6.2454e-005
30268	1.1921e-014	1.3636	0.1	3645.3
30269	1.1277e-014	1.2727	5.e-002	6.9039e-005
30270	1.351e-014	1.5455	0.1	3719.2
30271	1.2888e-014	1.4545	5.e-002	2.1012e-006
30272	1.51e-014	1.7273	0.1	3776.4
30273	1.4498e-014	1.6364	5.e-002	1.6721e-006
30274	1.6689e-014	1.9091	0.1	3820.7
30275	1.6109e-014	1.8182	5.e-002	1.2174e-004
30276	1.8279e-014	2.0909	0.1	3854.8
30277	1.772e-014	2.	5.e-002	9.3927e-007
30278	1.9868e-014	2.2727	0.1	3880.6
30279	1.9331e-014	2.1818	5.e-002	6.1305e-005
30280	2.1457e-014	2.4545	0.1	3899.5
30281	2.0942e-014	2.3636	5.e-002	4.5469e-007
30282	2.3047e-014	2.6364	0.1	3912.3
30283	2.2553e-014	2.5455	5.e-002	2.6886e-007
30284	2.4636e-014	2.8182	0.1	3919.8
30285	2.4164e-014	2.7273	5.e-002	2.3708e-007
30286	2.6226e-014	3.	0.1	3922.2
30287	2.5775e-014	2.9091	5.e-002	6.1064e-005
30288	2.7815e-014	3.1818	0.1	3919.8
30289	2.7386e-014	3.0909	5.e-002	6.1004e-005
30290	2.9405e-014	3.3636	0.1	3912.3
30291	2.8997e-014	3.2727	5.e-002	6.104e-005
30292	3.0994e-014	3.5455	0.1	3899.5
30293	3.0608e-014	3.4545	5.e-002	2.4457e-007
30294	3.2583e-014	3.7273	0.1	3880.6
30295	3.2219e-014	3.6364	5.e-002	6.077e-005
30296	3.4173e-014	3.9091	0.1	3854.8
30297	3.383e-014	3.8182	5.e-002	5.9032e-008
30298	3.5762e-014	4.0909	0.1	3820.7
30299	3.5441e-014	4.	5.e-002	1.1741e-007
30300	3.7352e-014	4.2727	0.1	3776.4
30301	3.7052e-014	4.1818	5.e-002	2.1754e-007
30302	3.8941e-014	4.4545	0.1	3719.2
30303	3.8663e-014	4.3636	5.e-002	2.7868e-007
30304	4.0531e-014	4.6364	0.1	3645.3
30305	4.0274e-014	4.5455	5.e-002	2.8017e-007
30306	4.212e-014	4.8182	0.1	3548.4
30307	4.1885e-014	4.7273	5.e-002	3.9697e-007
30308	4.371e-014	5.	0.1	3419.1
30309	4.3495e-014	4.9091	5.e-002	5.4671e-007
30310	4.5299e-014	5.1818	0.1	3241.2
30311	4.5106e-014	5.0909	5.e-002	6.4147e-007
30312	4.6888e-014	5.3636	0.1	2983.
30313	4.6717e-014	5.2727	5.e-002	5.2892e-007
30314	4.8478e-014	5.5455	0.1	2569.9
30315	4.8328e-014	5.4545	5.e-002	7.1888e-007
30316	5.0067e-014	5.7273	0.1	1766.5
30317	4.9939e-014	5.6364	5.e-002	-1.0568e-014
30318	5.1657e-014	5.9091	0.1	378.72
30319	5.155e-014	5.8182	5.e-002	-2.0232e-014
30320	23.908	0.	0.1	0.65263
30321	24.	0.	5.e-002	2.3591e-005
30322	23.725	0.	0.1	0.88
30323	23.817	0.	5.e-002	7.4215e-006
30324	23.542	0.	0.1	0.66162
30325	23.634	0.	5.e-002	9.6057e-006
30326	23.359	0.	0.1	0.58138
30327	23.451	0.	5.e-002	9.5948e-006
30328	23.176	0.	0.1	0.51201
30329	23.267	0.	5.e-002	8.3031e-006
30330	22.993	0.	0.1	0.46154
30331	23.084	0.	5.e-002	1.0541e-005
30332	22.81	0.	0.1	0.4187
30333	22.901	0.	5.e-002	8.7006e-006
30334	22.626	0.	0.1	0.38255
30335	22.718	0.	5.e-002	5.2433e-006
30336	22.443	0.	0.1	0.3512
30337	22.535	0.	5.e-002	8.8716e-006
30338	22.26	0.	0.1	0.32366
30339	22.352	0.	5.e-002	8.775e-006
30340	22.077	0.	0.1	0.29919
30341	22.169	0.	5.e-002	6.8956e-006
30342	21.894	0.	0.1	0.27725
30343	21.985	0.	5.e-002	5.9075e-006
30344	21.711	0.	0.1	0.25742
30345	21.802	0.	5.e-002	7.8414e-006
30346	21.528	0.	0.1	0.2394
30347	21.619	0.	5.e-002	8.3246e-006
30348	21.344	0.	0.1	0.22294
30349	21.436	0.	5.e-002	7.6013e-006
30350	21.161	0.	0.1	0.20783
30351	21.253	0.	5.e-002	9.2698e-006
30352	20.978	0.	0.1	0.19392
30353	21.07	0.	5.e-002	6.5845e-006
30354	20.795	0.	0.1	0.18107
30355	20.887	0.	5.e-002	7.864e-006
30356	20.612	0.	0.1	0.16915
30357	20.703	0.	5.e-002	6.6467e-006
30358	20.429	0.	0.1	0.15807
30359	20.52	0.	5.e-002	7.3925e-006
30360	20.246	0.	0.1	0.14774
30361	20.337	0.	5.e-002	5.6634e-006
30362	20.062	0.	0.1	0.13809
30363	20.154	0.	5.e-002	9.1199e-006
30364	19.879	0.	0.1	0.12903
30365	19.971	0.	5.e-002	5.051e-006
30366	19.696	0.	0.1	0.12051
30367	19.788	0.	5.e-002	5.8416e-006
30368	19.513	0.	0.1	0.11247
30369	19.605	0.	5.e-002	5.6495e-006
30370	19.33	0.	0.1	0.10485
30371	19.421	0.	5.e-002	6.9742e-006
30372	19.147	0.	0.1	9.7603e-002
30373	19.238	0.	5.e-002	5.1857e-006
30374	18.964	0.	0.1	9.0687e-002
30375	19.055	0.	5.e-002	5.6033e-006
30376	18.78	0.	0.1	8.4054e-002
30377	18.872	0.	5.e-002	6.5065e-006
30378	18.597	0.	0.1	7.766e-002
30379	18.689	0.	5.e-002	7.6297e-006
30380	18.414	0.	0.1	7.1466e-002
30381	18.506	0.	5.e-002	5.8414e-006
30382	18.231	0.	0.1	6.5433e-002
30383	18.323	0.	5.e-002	6.7208e-006
30384	18.048	0.	0.1	5.9532e-002
30385	18.139	0.	5.e-002	4.0465e-006
30386	17.865	0.	0.1	5.372e-002
30387	17.956	0.	5.e-002	6.205e-006
30388	17.682	0.	0.1	4.7956e-002
30389	17.773	0.	5.e-002	3.7009e-006
30390	17.498	0.	0.1	4.2215e-002
30391	17.59	0.	5.e-002	5.548e-006
30392	17.315	0.	0.1	3.6465e-002
30393	17.407	0.	5.e-002	5.8454e-006
30394	17.132	0.	0.1	3.0668e-002
30395	17.224	0.	5.e-002	4.1724e-006
30396	16.949	0.	0.1	2.4795e-002
30397	17.041	0.	5.e-002	4.2348e-006
30398	16.766	0.	0.1	1.8824e-002
30399	16.857	0.	5.e-002	6.2585e-006
30400	16.583	0.	0.1	1.2716e-002
30401	16.674	0.	5.e-002	3.8131e-006
30402	16.4	0.	0.1	6.4354e-003
30403	16.491	0.	5.e-002	4.5886e-006
30404	16.216	0.	0.1	-3.6671e-005
30405	16.308	0.	5.e-002	4.53e-006
30406	16.033	0.	0.1	-6.722e-003
30407	16.125	0.	5.e-002	4.9472e-006
30408	15.85	0.	0.1	-1.3647e-002
30409	15.942	0.	5.e-002	4.7684e-006
30410	15.667	0.	0.1	-2.0829e-002
30411	15.759	0.	5.e-002	4.6492e-006
30412	15.484	0.	0.1	-2.8282e-002
30413	15.575	0.	5.e-002	3.6955e-006
30414	15.301	0.	0.1	-3.6032e-002
30415	15.392	0.	5.e-002	3.9305e-006
30416	15.118	0.	0.1	-4.4068e-002
30417	15.209	0.	5.e-002	4.4066e-006
30418	14.934	0.	0.1	-5.2374e-002
30419	15.026	0.	5.e-002	4.1128e-006
30420	14.751	0.	0.1	-6.0945e-002
30421	14.843	0.	5.e-002	3.2842e-006
30422	14.568	0.	0.1	-6.9752e-002
30423	14.66	0.	5.e-002	3.8147e-006
30424	14.385	0.	0.1	-7.8736e-002
30425	14.477	0.	5.e-002	3.6955e-006
30426	14.202	0.	0.1	-8.7828e-002
30427	14.293	0.	5.e-002	3.0398e-006
30428	14.019	0.	0.1	-9.6942e-002
30429	14.11	0.	5.e-002	3.2186e-006
30430	13.836	0.	0.1	-0.10593
30431	13.927	0.	5.e-002	3.5171e-006
30432	13.652	0.	0.1	-0.1146
30433	13.744	0.	5.e-002	3.0994e-006
30434	13.469	0.	0.1	-0.12275
30435	13.561	0.	5.e-002	3.4577e-006
30436	13.286	0.	0.1	-0.13009
30437	13.378	0.	5.e-002	3.3974e-006
30438	13.103	0.	0.1	-0.13625
30439	13.195	0.	5.e-002	2.3255e-006
30440	12.92	0.	0.1	-0.14079
30441	13.011	0.	5.e-002	3.6954e-006
30442	12.737	0.	0.1	-0.14313
30443	12.828	0.	5.e-002	2.6832e-006
30444	12.554	0.	0.1	-0.14263
30445	12.645	0.	5.e-002	2.5479e-006
30446	12.37	0.	0.1	-0.1385
30447	12.462	0.	5.e-002	3.0398e-006
30448	12.187	0.	0.1	-0.12975
30449	12.279	0.	5.e-002	2.5639e-006
30450	12.004	0.	0.1	-0.11526
30451	12.096	0.	5.e-002	2.7558e-006
30452	11.821	0.	0.1	-9.3757e-002
30453	11.913	0.	5.e-002	2.7321e-006
30454	11.638	0.	0.1	-6.378e-002
30455	11.73	0.	5.e-002	2.8016e-006
30456	11.455	0.	0.1	-2.3727e-002
30457	11.546	0.	5.e-002	2.5034e-006
30458	11.272	0.	0.1	2.8035e-002
30459	11.363	0.	5.e-002	2.5575e-006
30460	11.089	0.	0.1	9.3095e-002
30461	11.18	0.	5.e-002	2.1024e-006
30462	10.905	0.	0.1	0.17285
30463	10.997	0.	5.e-002	2.4315e-006
30464	10.722	0.	0.1	0.26816
30465	10.814	0.	5.e-002	2.1456e-006
30466	10.539	0.	0.1	0.37891
30467	10.631	0.	5.e-002	2.212e-006
30468	10.356	0.	0.1	0.50335
30469	10.448	0.	5.e-002	1.9409e-006
30470	10.173	0.	0.1	0.63706
30471	10.264	0.	5.e-002	1.7277e-006
30472	9.9897	0.	0.1	0.77163
30473	10.081	0.	5.e-002	2.1246e-006
30474	9.8065	0.	0.1	0.89291
30475	9.8981	0.	5.e-002	1.7174e-006
30476	9.6234	0.	0.1	0.97875
30477	9.7149	0.	5.e-002	1.3696e-006
30478	9.4402	0.	0.1	0.99797
30479	9.5318	0.	5.e-002	1.4291e-006
30480	9.2571	0.	0.1	0.90582
30481	9.3487	0.	5.e-002	1.6513e-006
30482	9.0739	0.	0.1	0.66227
30483	9.1655	0.	5.e-002	1.3934e-006
30484	8.8908	0.	0.1	0.17704
30485	8.9824	0.	5.e-002	1.0638e-006
30486	8.7077	0.	0.1	-0.41123
30487	8.7992	0.	5.e-002	9.5367e-007
30488	8.5245	0.	0.1	-1.794
30489	8.6161	0.	5.e-002	9.5286e-007
30490	8.3414	0.	0.1	-0.25861
30491	8.433	0.	5.e-002	1.4151e-006
30492	8.1582	0.	0.1	16.863
30493	8.2498	0.	5.e-002	1.9681e-007
30494	8.0667	0.	5.e-002	-6.1848e-007
30495	7.8081	1.5588e-030	0.1	19.669
30496	7.9	1.5771e-030	5.e-002	1.9034e-006
30497	7.6244	1.5221e-030	0.1	0.47917
30498	7.7163	0.	5.e-002	-1.7929e-006
30499	7.4407	1.4854e-030	0.1	-1.4048
30500	7.5326	0.	5.e-002	1.4157e-006
30501	7.257	1.4488e-030	0.1	0.12631
30502	7.3488	0.	5.e-002	1.0744e-006
30503	7.0733	1.4121e-030	0.1	0.73813
30504	7.1651	0.	5.e-002	-1.4097e-014
30505	6.8895	1.3754e-030	0.1	1.2357
30506	6.9814	0.	5.e-002	9.5227e-007
30507	6.7058	1.3387e-030	0.1	1.4491
30508	6.7977	0.	5.e-002	1.1173e-006
30509	6.5221	1.3021e-030	0.1	1.4822
30510	6.614	0.	5.e-002	9.4978e-007
30511	6.3384	1.2654e-030	0.1	1.3797
30512	6.4302	0.	5.e-002	1.0246e-006
30513	6.1547	1.2287e-030	0.1	1.1934
30514	6.2465	0.	5.e-002	7.1111e-007
30515	5.9709	1.192e-030	0.1	0.95971
30516	6.0628	0.	5.e-002	1.1245e-006
30517	5.7872	1.1553e-030	0.1	0.70536
30518	5.8791	0.	5.e-002	8.6536e-007
30519	5.6035	1.1187e-030	0.1	0.44852
30520	5.6953	0.	5.e-002	1.018e-006
30521	5.4198	1.082e-030	0.1	0.20339
30522	5.5116	0.	5.e-002	4.7608e-007
30523	5.236	1.0453e-030	0.1	-4.9213e-003
30524	5.3279	0.	5.e-002	4.7672e-007
30525	5.0523	1.0086e-030	0.1	8.2192e-003
30526	5.1442	0.	5.e-002	3.576e-007
30527	4.8686	9.7196e-031	0.1	0.4672
30528	4.9605	0.	5.e-002	7.6898e-007
30529	4.6849	9.3528e-031	0.1	0.92494
30530	4.7767	0.	5.e-002	-5.5604e-015
30531	4.5012	8.986e-031	0.1	1.274
30532	4.593	0.	5.e-002	1.2615e-006
30533	4.3174	8.6193e-031	0.1	1.4905
30534	4.4093	0.	5.e-002	-7.8715e-015
30535	4.1337	8.2525e-031	0.1	1.5551
30536	4.2256	0.	5.e-002	5.6469e-007
30537	3.95	7.8857e-031	0.1	1.4461
30538	4.0419	0.	5.e-002	-1.1202e-014
30539	3.7663	7.5189e-031	0.1	1.1396
30540	3.8581	0.	5.e-002	2.5045e-007
30541	3.5826	7.1521e-031	0.1	0.61137
30542	3.6744	0.	5.e-002	-1.0107e-007
30543	3.3988	6.7854e-031	0.1	-0.14962
30544	3.4907	0.	5.e-002	2.0863e-007
30545	3.2151	6.4186e-031	0.1	-1.084
30546	3.307	0.	5.e-002	3.7956e-007
30547	3.0314	6.0518e-031	0.1	-1.9047
30548	3.1233	0.	5.e-002	1.7304e-007
30549	2.8477	5.685e-031	0.1	-2.4006
30550	2.9395	0.	5.e-002	-2.7396e-014
30551	2.664	5.3183e-031	0.1	-2.7505
30552	2.7558	0.	5.e-002	1.4581e-007
30553	2.4802	4.9515e-031	0.1	-3.0647
30554	2.5721	0.	5.e-002	-3.515e-014
30555	2.2965	4.5847e-031	0.1	-3.3798
30556	2.3884	0.	5.e-002	1.2567e-007
30557	2.1128	4.2179e-031	0.1	-3.712
30558	2.2047	0.	5.e-002	-4.4384e-014
30559	1.9291	3.8512e-031	0.1	-4.0718
30560	2.0209	0.	5.e-002	2.22e-007
30561	1.7453	3.4844e-031	0.1	-4.4712
30562	1.8372	0.	5.e-002	-5.5425e-014
30563	1.5616	3.1176e-031	0.1	-4.9175
30564	1.6535	0.	5.e-002	1.0051e-007
30565	1.3779	2.7508e-031	0.1	-5.4426
30566	1.4698	0.	5.e-002	9.65e-008
30567	1.1942	2.384e-031	0.1	-6.013
30568	1.286	0.	5.e-002	9.3106e-008
30569	1.0105	2.0173e-031	0.1	-6.8299
30570	1.1023	0.	5.e-002	9.0039e-008
30571	0.82674	1.6505e-031	0.1	-7.4448
30572	0.9186	0.	5.e-002	8.7067e-008
30573	0.64302	1.2837e-031	0.1	-8.9001
30574	0.73488	0.	5.e-002	-1.0731e-013
30575	0.4593	9.1694e-032	0.1	-13.394
30576	0.55116	0.	5.e-002	1.5315e-007
30577	0.27558	5.5016e-032	0.1	19.053
30578	0.36744	0.	5.e-002	-1.4098e-013
30579	9.186e-002	1.8339e-032	0.1	-165.71
30580	0.18372	0.	5.e-002	-1.1444e-005
30581	0.	0.	5.e-002	9.0274e-005
30582	9.186e-002	6.	0.1	-165.71
30583	5.2451e-014	6.	5.e-002	-1.5266e-005
30584	0.27558	6.	0.1	19.053
30585	0.18372	6.	5.e-002	-3.1585e-012
30586	0.4593	6.	0.1	-13.394
30587	0.36744	6.	5.e-002	-1.4098e-013
30588	0.64302	6.	0.1	-8.9001
30589	0.55116	6.	5.e-002	-1.2164e-013
30590	0.82674	6.	0.1	-7.4448
30591	0.73488	6.	5.e-002	-1.0731e-013
30592	1.0105	6.	0.1	-6.8299
30593	0.9186	6.	5.e-002	-9.5475e-014
30594	1.1942	6.	0.1	-6.013
30595	1.1023	6.	5.e-002	-8.5421e-014
30596	1.3779	6.	0.1	-5.4426
30597	1.286	6.	5.e-002	-7.6614e-014
30598	1.5616	6.	0.1	-4.9175
30599	1.4698	6.	5.e-002	-6.8795e-014
30600	1.7453	6.	0.1	-4.4712
30601	1.6535	6.	5.e-002	-6.1775e-014
30602	1.9291	6.	0.1	-4.0718
30603	1.8372	6.	5.e-002	-5.5425e-014
30604	2.1128	6.	0.1	-3.7119
30605	2.0209	6.	5.e-002	-4.9652e-014
30606	2.2965	6.	0.1	-3.3798
30607	2.2047	6.	5.e-002	-4.4384e-014
30608	2.4802	6.	0.1	-3.0647
30609	2.3884	6.	5.e-002	-3.9565e-014
30610	2.664	6.	0.1	-2.7505
30611	2.5721	6.	5.e-002	-3.515e-014
30612	2.8477	6.	0.1	-2.4006
30613	2.7558	6.	5.e-002	-1.4581e-007
30614	3.0314	6.	0.1	-1.9047
30615	2.9395	6.	5.e-002	-2.7396e-014
30616	3.2151	6.	0.1	-1.084
30617	3.1233	6.	5.e-002	-1.7304e-007
30618	3.3988	6.	0.1	-0.14963
30619	3.307	6.	5.e-002	-2.0905e-014
30620	3.5826	6.	0.1	0.61136
30621	3.4907	6.	5.e-002	-1.8086e-014
30622	3.7663	6.	0.1	1.1395
30623	3.6744	6.	5.e-002	-1.5535e-014
30624	3.95	6.	0.1	1.4461
30625	3.8581	6.	5.e-002	-1.3242e-014
30626	4.1337	6.	0.1	1.5551
30627	4.0419	6.	5.e-002	-1.1202e-014
30628	4.3174	6.	0.1	1.4905
30629	4.2256	6.	5.e-002	-9.4115e-015
30630	4.5012	6.	0.1	1.274
30631	4.4093	6.	5.e-002	-7.8716e-015
30632	4.6849	6.	0.1	0.92493
30633	4.593	6.	5.e-002	5.0265e-007
30634	4.8686	6.	0.1	0.46719
30635	4.7767	6.	5.e-002	3.5709e-007
30636	5.0523	6.	0.1	8.2185e-003
30637	4.9605	6.	5.e-002	4.0818e-007
30638	5.236	6.	0.1	-4.9205e-003
30639	5.1442	6.	5.e-002	2.384e-007
30640	5.4198	6.	0.1	0.20339
30641	5.3279	6.	5.e-002	4.4696e-007
30642	5.6035	6.	0.1	0.44852
30643	5.5116	6.	5.e-002	4.7608e-007
30644	5.7872	6.	0.1	0.70536
30645	5.6953	6.	5.e-002	5.9395e-007
30646	5.9709	6.	0.1	0.95971
30647	5.8791	6.	5.e-002	4.7439e-007
30648	6.1547	6.	0.1	1.1934
30649	6.0628	6.	5.e-002	4.7403e-007
30650	6.3384	6.	0.1	1.3797
30651	6.2465	6.	5.e-002	3.5695e-007
30652	6.5221	6.	0.1	1.4822
30653	6.4302	6.	5.e-002	2.019e-007
30654	6.7058	6.	0.1	1.4491
30655	6.614	6.	5.e-002	2.2598e-007
30656	6.8895	6.	0.1	1.2357
30657	6.7977	6.	5.e-002	7.1324e-007
30658	7.0733	6.	0.1	0.73814
30659	6.9814	6.	5.e-002	9.5227e-007
30660	7.257	6.	0.1	0.12631
30661	7.1651	6.	5.e-002	9.534e-007
30662	7.4407	6.	0.1	-1.4048
30663	7.3488	6.	5.e-002	8.236e-007
30664	7.6244	6.	0.1	0.47917
30665	7.5326	6.	5.e-002	1.4157e-006
30666	7.8081	6.	0.1	19.669
30667	7.7163	6.	5.e-002	1.0943e-006
30668	7.9	6.	5.e-002	-3.1908e-007
30669	7.6244	6.	0.	-0.47917
30670	7.8081	6.	0.	-19.669
30671	7.4407	6.	0.	1.4048
30672	7.257	6.	0.	-0.12631
30673	7.0733	6.	0.	-0.73814
30674	6.8895	6.	0.	-1.2357
30675	6.7058	6.	0.	-1.4491
30676	6.5221	6.	0.	-1.4822
30677	6.3384	6.	0.	-1.3797
30678	6.1547	6.	0.	-1.1934
30679	5.9709	6.	0.	-0.95971
30680	5.7872	6.	0.	-0.70536
30681	5.6035	6.	0.	-0.44852
30682	5.4198	6.	0.	-0.20339
30683	5.236	6.	0.	4.9204e-003
30684	5.0523	6.	0.	-8.2183e-003
30685	4.8686	6.	0.	-0.46719
30686	4.6849	6.	0.	-0.92493
30687	4.5012	6.	0.	-1.274
30688	4.3174	6.	0.	-1.4905
30689	4.1337	6.	0.	-1.5551
30690	3.95	6.	0.	-1.4461
30691	3.7663	6.	0.	-1.1395
30692	3.5826	6.	0.	-0.61136
30693	3.3988	6.	0.	0.14963
30694	3.2151	6.	0.	1.084
30695	3.0314	6.	0.	1.9047
30696	2.8477	6.	0.	2.4006
30697	2.664	6.	0.	2.7505
30698	2.4802	6.	0.	3.0647
30699	2.2965	6.	0.	3.3798
30700	2.1128	6.	0.	3.7119
30701	1.9291	6.	0.	4.0718
30702	1.7453	6.	0.	4.4712
30703	1.5616	6.	0.	4.9175
30704	1.3779	6.	0.	5.4426
30705	1.1942	6.	0.	6.013
30706	1.0105	6.	0.	6.8299
30707	0.82674	6.	0.	7.4448
30708	0.64302	6.	0.	8.9001
30709	0.4593	6.	0.	13.394
30710	0.27558	6.	0.	-19.053
30711	9.186e-002	6.	0.	165.71
30712	7.9	5.9091	0.	3.3325
30713	5.1657e-014	5.9091	0.	-378.72
30714	0.27558	5.5016e-032	0.	-19.053
30715	9.186e-002	1.8339e-032	0.	165.71
30716	0.4593	9.1694e-032	0.	13.394
30717	0.64302	1.2837e-031	0.	8.9001
30718	0.82674	1.6505e-031	0.	7.4448
30719	1.0105	2.0173e-031	0.	6.8299
30720	1.1942	2.384e-031	0.	6.013
30721	1.3779	2.7508e-031	0.	5.4426
30722	1.5616	3.1176e-031	0.	4.9175
30723	1.7453	3.4844e-031	0.	4.4712
30724	1.9291	3.8512e-031	0.	4.0718
30725	2.1128	4.2179e-031	0.	3.712
30726	2.2965	4.5847e-031	0.	3.3798
30727	2.4802	4.9515e-031	0.	3.0647
30728	2.664	5.3183e-031	0.	2.7505
30729	2.8477	5.685e-031	0.	2.4006
30730	3.0314	6.0518e-031	0.	1.9047
30731	3.2151	6.4186e-031	0.	1.084
30732	3.3988	6.7854e-031	0.	0.14962
30733	3.5826	7.1521e-031	0.	-0.61137
30734	3.7663	7.5189e-031	0.	-1.1396
30735	3.95	7.8857e-031	0.	-1.4461
30736	4.1337	8.2525e-031	0.	-1.5551
30737	4.3174	8.6193e-031	0.	-1.4905
30738	4.5012	8.986e-031	0.	-1.274
30739	4.6849	9.3528e-031	0.	-0.92493
30740	4.8686	9.7196e-031	0.	-0.46719
30741	5.0523	1.0086e-030	0.	-8.2188e-003
30742	5.236	1.0453e-030	0.	4.9212e-003
30743	5.4198	1.082e-030	0.	-0.20339
30744	5.6035	1.1187e-030	0.	-0.44852
30745	5.7872	1.1553e-030	0.	-0.70536
30746	5.9709	1.192e-030	0.	-0.95971
30747	6.1547	1.2287e-030	0.	-1.1934
30748	6.3384	1.2654e-030	0.	-1.3797
30749	6.5221	1.3021e-030	0.	-1.4822
30750	6.7058	1.3387e-030	0.	-1.4491
30751	6.8895	1.3754e-030	0.	-1.2357
30752	7.0733	1.4121e-030	0.	-0.73813
30753	7.257	1.4488e-030	0.	-0.12631
30754	7.4407	1.4854e-030	0.	1.4048
30755	7.6244	1.5221e-030	0.	-0.47917
30756	7.8081	1.5588e-030	0.	-19.669
30757	7.9	9.0909e-002	0.	3.3325
30758	7.9472e-016	9.0909e-002	0.	-378.72
30759	8.3414	0.	0.	0.25861
30760	8.1582	0.	0.	-16.863
30761	8.5245	0.	0.	1.794
30762	8.7077	0.	0.	0.41123
30763	8.8908	0.	0.	-0.17704
30764	9.0739	0.	0.	-0.66227
30765	9.2571	0.	0.	-0.90582
30766	9.4402	0.	0.	-0.99797
30767	9.6234	0.	0.	-0.97875
30768	9.8065	0.	0.	-0.89291
30769	9.9897	0.	0.	-0.77163
30770	10.173	0.	0.	-0.63706
30771	10.356	0.	0.	-0.50335
30772	10.539	0.	0.	-0.37891
30773	10.722	0.	0.	-0.26816
30774	10.905	0.	0.	-0.17285
30775	11.089	0.	0.	-9.3094e-002
30776	11.272	0.	0.	-2.8035e-002
30777	11.455	0.	0.	2.3727e-002
30778	11.638	0.	0.	6.378e-002
30779	11.821	0.	0.	9.3758e-002
30780	12.004	0.	0.	0.11526
30781	12.187	0.	0.	0.12975
30782	12.37	0.	0.	0.1385
30783	12.554	0.	0.	0.14263
30784	12.737	0.	0.	0.14313
30785	12.92	0.	0.	0.14079
30786	13.103	0.	0.	0.13625
30787	13.286	0.	0.	0.13009
30788	13.469	0.	0.	0.12275
30789	13.652	0.	0.	0.11461
30790	13.836	0.	0.	0.10593
30791	14.019	0.	0.	9.6942e-002
30792	14.202	0.	0.	8.7828e-002
30793	14.385	0.	0.	7.8736e-002
30794	14.568	0.	0.	6.9752e-002
30795	14.751	0.	0.	6.0946e-002
30796	14.934	0.	0.	5.2375e-002
30797	15.118	0.	0.	4.4069e-002
30798	15.301	0.	0.	3.6033e-002
30799	15.484	0.	0.	2.8283e-002
30800	15.667	0.	0.	2.083e-002
30801	15.85	0.	0.	1.3648e-002
30802	16.033	0.	0.	6.7233e-003
30803	16.216	0.	0.	3.8317e-005
30804	16.4	0.	0.	-6.4334e-003
30805	16.583	0.	0.	-1.2715e-002
30806	16.766	0.	0.	-1.8822e-002
30807	16.949	0.	0.	-2.4794e-002
30808	17.132	0.	0.	-3.0668e-002
30809	17.315	0.	0.	-3.6465e-002
30810	17.498	0.	0.	-4.2215e-002
30811	17.682	0.	0.	-4.7956e-002
30812	17.865	0.	0.	-5.3719e-002
30813	18.048	0.	0.	-5.9531e-002
30814	18.231	0.	0.	-6.5431e-002
30815	18.414	0.	0.	-7.1463e-002
30816	18.597	0.	0.	-7.7658e-002
30817	18.78	0.	0.	-8.4052e-002
30818	18.964	0.	0.	-9.0686e-002
30819	19.147	0.	0.	-9.7602e-002
30820	19.33	0.	0.	-0.10485
30821	19.513	0.	0.	-0.11247
30822	19.696	0.	0.	-0.12051
30823	19.879	0.	0.	-0.12903
30824	20.062	0.	0.	-0.13809
30825	20.246	0.	0.	-0.14774
30826	20.429	0.	0.	-0.15807
30827	20.612	0.	0.	-0.16915
30828	20.795	0.	0.	-0.18107
30829	20.978	0.	0.	-0.19392
30830	21.161	0.	0.	-0.20783
30831	21.344	0.	0.	-0.22293
30832	21.528	0.	0.	-0.2394
30833	21.711	0.	0.	-0.25742
30834	21.894	0.	0.	-0.27725
30835	22.077	0.	0.	-0.29919
30836	22.26	0.	0.	-0.32366
30837	22.443	0.	0.	-0.35119
30838	22.626	0.	0.	-0.38255
30839	22.81	0.	0.	-0.4187
30840	22.993	0.	0.	-0.46154
30841	23.176	0.	0.	-0.51201
30842	23.359	0.	0.	-0.58138
30843	23.542	0.	0.	-0.66162
30844	23.725	0.	0.	-0.88
30845	23.908	0.	0.	-0.65263
30846	8.0667	9.0909e-002	0.	0.81925
30847	24.	9.0909e-002	0.	2.39
30848	5.0067e-014	5.7273	0.	-1766.5
30849	4.8478e-014	5.5455	0.	-2569.9
30850	4.6888e-014	5.3636	0.	-2983.
30851	4.5299e-014	5.1818	0.	-3241.2
30852	4.371e-014	5.	0.	-3419.1
30853	4.212e-014	4.8182	0.	-3548.4
30854	4.0531e-014	4.6364	0.	-3645.3
30855	3.8941e-014	4.4545	0.	-3719.2
30856	3.7352e-014	4.2727	0.	-3776.4
30857	3.5762e-014	4.0909	0.	-3820.7
30858	3.4173e-014	3.9091	0.	-3854.8
30859	3.2583e-014	3.7273	0.	-3880.6
30860	3.0994e-014	3.5455	0.	-3899.5
30861	2.9405e-014	3.3636	0.	-3912.3
30862	2.7815e-014	3.1818	0.	-3919.8
30863	2.6226e-014	3.	0.	-3922.2
30864	2.4636e-014	2.8182	0.	-3919.8
30865	2.3047e-014	2.6364	0.	-3912.3
30866	2.1457e-014	2.4545	0.	-3899.5
30867	1.9868e-014	2.2727	0.	-3880.6
30868	1.8279e-014	2.0909	0.	-3854.8
30869	1.6689e-014	1.9091	0.	-3820.7
30870	1.51e-014	1.7273	0.	-3776.4
30871	1.351e-014	1.5455	0.	-3719.2
30872	1.1921e-014	1.3636	0.	-3645.3
30873	1.0331e-014	1.1818	0.	-3548.4
30874	8.7419e-015	1.	0.	-3419.1
30875	7.1525e-015	0.81818	0.	-3241.2
30876	5.563e-015	0.63636	0.	-2983.
30877	3.9736e-015	0.45455	0.	-2569.9
30878	2.3842e-015	0.27273	0.	-1766.5
30879	24.	0.27273	0.	2.1998
30880	24.	0.45455	0.	2.2929
30881	24.	0.63636	0.	2.4093
30882	24.	0.81818	0.	2.4441
30883	24.	1.	0.	2.4736
30884	24.	1.1818	0.	2.4932
30885	24.	1.3636	0.	2.5083
30886	24.	1.5455	0.	2.5198
30887	24.	1.7273	0.	2.5288
30888	24.	1.9091	0.	2.5359
30889	24.	2.0909	0.	2.5414
30890	24.	2.2727	0.	2.5456
30891	24.	2.4545	0.	2.5487
30892	24.	2.6364	0.	2.5509
30893	24.	2.8182	0.	2.5521
30894	24.	3.	0.	2.5525
30895	24.	3.1818	0.	2.5521
30896	24.	3.3636	0.	2.5509
30897	24.	3.5455	0.	2.5487
30898	24.	3.7273	0.	2.5456
30899	24.	3.9091	0.	2.5414
30900	24.	4.0909	0.	2.5359
30901	24.	4.2727	0.	2.5288
30902	24.	4.4545	0.	2.5198
30903	24.	4.6364	0.	2.5083
30904	24.	4.8182	0.	2.4932
30905	24.	5.	0.	2.4736
30906	24.	5.1818	0.	2.4441
30907	24.	5.3636	0.	2.4093
30908	24.	5.5455	0.	2.2929
30909	24.	5.7273	0.	2.1998
30910	24.	5.9091	0.	2.39
30911	23.908	6.	0.	-0.65262
30912	23.725	6.	0.	-0.87999
30913	23.542	6.	0.	-0.66162
30914	23.359	6.	0.	-0.58138
30915	23.176	6.	0.	-0.51201
30916	22.993	6.	0.	-0.46154
30917	22.81	6.	0.	-0.4187
30918	22.626	6.	0.	-0.38255
30919	22.443	6.	0.	-0.3512
30920	22.26	6.	0.	-0.32366
30921	22.077	6.	0.	-0.29919
30922	21.894	6.	0.	-0.27725
30923	21.711	6.	0.	-0.25742
30924	21.528	6.	0.	-0.2394
30925	21.344	6.	0.	-0.22293
30926	21.161	6.	0.	-0.20783
30927	20.978	6.	0.	-0.19392
30928	20.795	6.	0.	-0.18107
30929	20.612	6.	0.	-0.16915
30930	20.429	6.	0.	-0.15807
30931	20.246	6.	0.	-0.14774
30932	20.062	6.	0.	-0.13809
30933	19.879	6.	0.	-0.12903
30934	19.696	6.	0.	-0.12051
30935	19.513	6.	0.	-0.11247
30936	19.33	6.	0.	-0.10485
30937	19.147	6.	0.	-9.76e-002
30938	18.964	6.	0.	-9.0685e-002
30939	18.78	6.	0.	-8.4052e-002
30940	18.597	6.	0.	-7.7658e-002
30941	18.414	6.	0.	-7.1464e-002
30942	18.231	6.	0.	-6.543e-002
30943	18.048	6.	0.	-5.9529e-002
30944	17.865	6.	0.	-5.3719e-002
30945	17.682	6.	0.	-4.7955e-002
30946	17.498	6.	0.	-4.2214e-002
30947	17.315	6.	0.	-3.6464e-002
30948	17.132	6.	0.	-3.0668e-002
30949	16.949	6.	0.	-2.4793e-002
30950	16.766	6.	0.	-1.8822e-002
30951	16.583	6.	0.	-1.2715e-002
30952	16.4	6.	0.	-6.4343e-003
30953	16.216	6.	0.	3.6651e-005
30954	16.033	6.	0.	6.7222e-003
30955	15.85	6.	0.	1.3648e-002
30956	15.667	6.	0.	2.083e-002
30957	15.484	6.	0.	2.8283e-002
30958	15.301	6.	0.	3.6032e-002
30959	15.118	6.	0.	4.4068e-002
30960	14.934	6.	0.	5.2375e-002
30961	14.751	6.	0.	6.0946e-002
30962	14.568	6.	0.	6.9753e-002
30963	14.385	6.	0.	7.8738e-002
30964	14.202	6.	0.	8.7829e-002
30965	14.019	6.	0.	9.6942e-002
30966	13.836	6.	0.	0.10593
30967	13.652	6.	0.	0.1146
30968	13.469	6.	0.	0.12275
30969	13.286	6.	0.	0.13009
30970	13.103	6.	0.	0.13625
30971	12.92	6.	0.	0.14079
30972	12.737	6.	0.	0.14313
30973	12.554	6.	0.	0.14263
30974	12.37	6.	0.	0.1385
30975	12.187	6.	0.	0.12975
30976	12.004	6.	0.	0.11526
30977	11.821	6.	0.	9.3758e-002
30978	11.638	6.	0.	6.378e-002
30979	11.455	6.	0.	2.3727e-002
30980	11.272	6.	0.	-2.8035e-002
30981	11.089	6.	0.	-9.3095e-002
30982	10.905	6.	0.	-0.17285
30983	10.722	6.	0.	-0.26816
30984	10.539	6.	0.	-0.37892
30985	10.356	6.	0.	-0.50335
30986	10.173	6.	0.	-0.63706
30987	9.9897	6.	0.	-0.77163
30988	9.8065	6.	0.	-0.89291
30989	9.6234	6.	0.	-0.97875
30990	9.4402	6.	0.	-0.99797
30991	9.2571	6.	0.	-0.90582
30992	9.0739	6.	0.	-0.66227
30993	8.8908	6.	0.	-0.17704
30994	8.7077	6.	0.	0.41122
30995	8.5245	6.	0.	1.794
30996	8.3414	6.	0.	0.25861
30997	8.1582	6.	0.	-16.863
30998	8.0667	5.9091	0.	0.81925
30999	7.9	1.7273	0.	60.33
31000	7.9	1.9091	0.	-1104.4
31001	7.9	1.5455	0.	76.676
31002	7.9	1.3636	0.	33.185
31003	7.9	1.1818	0.	30.025
31004	7.9	1.	0.	23.394
31005	7.9	0.81818	0.	20.787
31006	7.9	0.63636	0.	18.488
31007	7.9	0.45455	0.	17.527
31008	7.9	0.27273	0.	15.603
31009	7.9833	2.	0.	-1969.2
31010	8.0667	0.27273	0.	12.847
31011	8.0667	0.45455	0.	14.686
31012	8.0667	0.63636	0.	15.637
31013	8.0667	0.81818	0.	17.855
31014	8.0667	1.	0.	20.44
31015	8.0667	1.1818	0.	26.75
31016	8.0667	1.3636	0.	30.216
31017	8.0667	1.5455	0.	72.431
31018	8.0667	1.7273	0.	61.407
31019	8.0667	1.9091	0.	-1235.3
31020	7.9	4.2727	0.	60.33
31021	7.9	4.0909	0.	-1104.4
31022	7.9	4.4545	0.	76.676
31023	7.9	4.6364	0.	33.185
31024	7.9	4.8182	0.	30.025
31025	7.9	5.	0.	23.394
31026	7.9	5.1818	0.	20.787
31027	7.9	5.3636	0.	18.488
31028	7.9	5.5455	0.	17.527
31029	7.9	5.7273	0.	15.603
31030	7.9833	4.	0.	-1969.2
31031	8.0667	5.7273	0.	12.847
31032	8.0667	5.5455	0.	14.686
31033	8.0667	5.3636	0.	15.637
31034	8.0667	5.1818	0.	17.855
31035	8.0667	5.	0.	20.44
31036	8.0667	4.8182	0.	26.75
31037	8.0667	4.6364	0.	30.216
31038	8.0667	4.4545	0.	72.431
31039	8.0667	4.2727	0.	61.407
31040	8.0667	4.0909	0.	-1235.3
