Node Number	X Location (in)	Y Location (in)	Z Location (in)	Minimum Principal Stress (psi)
1	21.5	2.1818	0.	-1823.
2	21.5	2.3636	0.	-1430.3
3	21.5	2.5455	0.	-1264.8
4	21.5	2.7273	0.	-1180.2
5	21.5	2.9091	0.	-1144.2
6	21.5	3.0909	0.	-1144.2
7	21.5	3.2727	0.	-1180.2
8	21.5	3.4545	0.	-1264.8
9	21.5	3.6364	0.	-1430.3
10	21.5	3.8182	0.	-1823.
11	21.667	2.1818	0.	-1862.4
12	21.667	2.3636	0.	-1430.7
13	21.667	2.5455	0.	-1243.8
14	21.667	2.7273	0.	-1152.5
15	21.667	2.9091	0.	-1113.6
16	21.667	3.0909	0.	-1113.6
17	21.667	3.2727	0.	-1152.5
18	21.667	3.4545	0.	-1243.8
19	21.667	3.6364	0.	-1430.7
20	21.667	3.8182	0.	-1862.4
21	21.316	5.8182	0.	-118.05
22	21.316	5.6364	0.	-158.47
23	21.316	5.4545	0.	-204.89
24	21.316	5.2727	0.	-254.19
25	21.316	5.0909	0.	-307.78
26	21.316	4.9091	0.	-368.62
27	21.316	4.7273	0.	-441.39
28	21.316	4.5455	0.	-538.28
29	21.316	4.3636	0.	-674.54
30	21.316	4.1818	0.	-959.84
31	21.316	4.	0.	-1351.6
32	21.316	3.8182	0.	-1347.6
33	21.316	3.6364	0.	-1279.4
34	21.316	3.4545	0.	-1201.7
35	21.316	3.2727	0.	-1155.4
36	21.316	3.0909	0.	-1133.
37	21.316	2.9091	0.	-1133.
38	21.316	2.7273	0.	-1155.4
39	21.316	2.5455	0.	-1201.7
40	21.316	2.3636	0.	-1279.4
41	21.316	2.1818	0.	-1347.6
42	21.316	2.	0.	-1351.6
43	21.316	1.8182	0.	-959.84
44	21.316	1.6364	0.	-674.54
45	21.316	1.4545	0.	-538.28
46	21.316	1.2727	0.	-441.39
47	21.316	1.0909	0.	-368.62
48	21.316	0.90909	0.	-307.78
49	21.316	0.72727	0.	-254.19
50	21.316	0.54545	0.	-204.89
51	21.316	0.36364	0.	-158.47
52	21.316	0.18182	0.	-118.05
53	21.132	5.8182	0.	-201.
54	21.132	5.6364	0.	-225.34
55	21.132	5.4545	0.	-260.98
56	21.132	5.2727	0.	-304.23
57	21.132	5.0909	0.	-354.67
58	21.132	4.9091	0.	-414.07
59	21.132	4.7273	0.	-486.72
60	21.132	4.5455	0.	-578.82
61	21.132	4.3636	0.	-704.13
62	21.132	4.1818	0.	-855.88
63	21.132	4.	0.	-994.
64	21.132	3.8182	0.	-1085.6
65	21.132	3.6364	0.	-1114.4
66	21.132	3.4545	0.	-1111.2
67	21.132	3.2727	0.	-1100.9
68	21.132	3.0909	0.	-1093.8
69	21.132	2.9091	0.	-1093.8
70	21.132	2.7273	0.	-1100.9
71	21.132	2.5455	0.	-1111.2
72	21.132	2.3636	0.	-1114.4
73	21.132	2.1818	0.	-1085.6
74	21.132	2.	0.	-994.
75	21.132	1.8182	0.	-855.88
76	21.132	1.6364	0.	-704.13
77	21.132	1.4545	0.	-578.82
78	21.132	1.2727	0.	-486.72
79	21.132	1.0909	0.	-414.07
80	21.132	0.90909	0.	-354.67
81	21.132	0.72727	0.	-304.23
82	21.132	0.54545	0.	-260.98
83	21.132	0.36364	0.	-225.34
84	21.132	0.18182	0.	-201.
85	20.949	5.8182	0.	-290.6
86	20.949	5.6364	0.	-310.14
87	20.949	5.4545	0.	-339.53
88	20.949	5.2727	0.	-377.88
89	20.949	5.0909	0.	-424.87
90	20.949	4.9091	0.	-481.33
91	20.949	4.7273	0.	-549.11
92	20.949	4.5455	0.	-630.73
93	20.949	4.3636	0.	-724.94
94	20.949	4.1818	0.	-824.26
95	20.949	4.	0.	-912.4
96	20.949	3.8182	0.	-975.61
97	20.949	3.6364	0.	-1016.
98	20.949	3.4545	0.	-1036.5
99	20.949	3.2727	0.	-1044.8
100	20.949	3.0909	0.	-1047.4
101	20.949	2.9091	0.	-1047.4
102	20.949	2.7273	0.	-1044.8
103	20.949	2.5455	0.	-1036.5
104	20.949	2.3636	0.	-1016.
105	20.949	2.1818	0.	-975.61
106	20.949	2.	0.	-912.4
107	20.949	1.8182	0.	-824.26
108	20.949	1.6364	0.	-724.94
109	20.949	1.4545	0.	-630.73
110	20.949	1.2727	0.	-549.11
111	20.949	1.0909	0.	-481.33
112	20.949	0.90909	0.	-424.87
113	20.949	0.72727	0.	-377.88
114	20.949	0.54545	0.	-339.53
115	20.949	0.36364	0.	-310.14
116	20.949	0.18182	0.	-290.6
117	20.765	5.8182	0.	-378.91
118	20.765	5.6364	0.	-396.58
119	20.765	5.4545	0.	-422.15
120	20.765	5.2727	0.	-456.03
121	20.765	5.0909	0.	-498.16
122	20.765	4.9091	0.	-548.7
123	20.765	4.7273	0.	-607.77
124	20.765	4.5455	0.	-674.68
125	20.765	4.3636	0.	-746.62
126	20.765	4.1818	0.	-817.13
127	20.765	4.	0.	-879.15
128	20.765	3.8182	0.	-928.22
129	20.765	3.6364	0.	-963.89
130	20.765	3.4545	0.	-987.66
131	20.765	3.2727	0.	-1001.5
132	20.765	3.0909	0.	-1007.8
133	20.765	2.9091	0.	-1007.8
134	20.765	2.7273	0.	-1001.5
135	20.765	2.5455	0.	-987.66
136	20.765	2.3636	0.	-963.89
137	20.765	2.1818	0.	-928.22
138	20.765	2.	0.	-879.15
139	20.765	1.8182	0.	-817.13
140	20.765	1.6364	0.	-746.62
141	20.765	1.4545	0.	-674.68
142	20.765	1.2727	0.	-607.77
143	20.765	1.0909	0.	-548.7
144	20.765	0.90909	0.	-498.16
145	20.765	0.72727	0.	-456.03
146	20.765	0.54545	0.	-422.15
147	20.765	0.36364	0.	-396.58
148	20.765	0.18182	0.	-378.91
149	20.581	5.8182	0.	-464.06
150	20.581	5.6364	0.	-480.46
151	20.581	5.4545	0.	-503.22
152	20.581	5.2727	0.	-533.02
153	20.581	5.0909	0.	-569.82
154	20.581	4.9091	0.	-613.33
155	20.581	4.7273	0.	-662.8
156	20.581	4.5455	0.	-716.63
157	20.581	4.3636	0.	-771.87
158	20.581	4.1818	0.	-824.61
159	20.581	4.	0.	-871.13
160	20.581	3.8182	0.	-909.37
161	20.581	3.6364	0.	-938.97
162	20.581	3.4545	0.	-960.33
163	20.581	3.2727	0.	-974.06
164	20.581	3.0909	0.	-980.73
165	20.581	2.9091	0.	-980.73
166	20.581	2.7273	0.	-974.06
167	20.581	2.5455	0.	-960.33
168	20.581	2.3636	0.	-938.97
169	20.581	2.1818	0.	-909.37
170	20.581	2.	0.	-871.13
171	20.581	1.8182	0.	-824.61
172	20.581	1.6364	0.	-771.87
173	20.581	1.4545	0.	-716.63
174	20.581	1.2727	0.	-662.8
175	20.581	1.0909	0.	-613.33
176	20.581	0.90909	0.	-569.82
177	20.581	0.72727	0.	-533.02
178	20.581	0.54545	0.	-503.22
179	20.581	0.36364	0.	-480.46
180	20.581	0.18182	0.	-464.06
181	20.397	5.8182	0.	-545.
182	20.397	5.6364	0.	-560.08
183	20.397	5.4545	0.	-580.33
184	20.397	5.2727	0.	-606.3
185	20.397	5.0909	0.	-637.85
186	20.397	4.9091	0.	-674.44
187	20.397	4.7273	0.	-715.05
188	20.397	4.5455	0.	-757.99
189	20.397	4.3636	0.	-800.98
190	20.397	4.1818	0.	-841.48
191	20.397	4.	0.	-877.35
192	20.397	3.8182	0.	-907.39
193	20.397	3.6364	0.	-931.28
194	20.397	3.4545	0.	-949.08
195	20.397	3.2727	0.	-960.9
196	20.397	3.0909	0.	-966.79
197	20.397	2.9091	0.	-966.79
198	20.397	2.7273	0.	-960.9
199	20.397	2.5455	0.	-949.08
200	20.397	2.3636	0.	-931.28
201	20.397	2.1818	0.	-907.39
202	20.397	2.	0.	-877.35
203	20.397	1.8182	0.	-841.48
204	20.397	1.6364	0.	-800.98
205	20.397	1.4545	0.	-757.99
206	20.397	1.2727	0.	-715.05
207	20.397	1.0909	0.	-674.44
208	20.397	0.90909	0.	-637.85
209	20.397	0.72727	0.	-606.3
210	20.397	0.54545	0.	-580.33
211	20.397	0.36364	0.	-560.08
212	20.397	0.18182	0.	-545.
213	20.214	5.8182	0.	-621.31
214	20.214	5.6364	0.	-634.9
215	20.214	5.4545	0.	-652.73
216	20.214	5.2727	0.	-675.13
217	20.214	5.0909	0.	-701.8
218	20.214	4.9091	0.	-732.15
219	20.214	4.7273	0.	-765.15
220	20.214	4.5455	0.	-799.37
221	20.214	4.3636	0.	-833.11
222	20.214	4.1818	0.	-864.67
223	20.214	4.	0.	-892.7
224	20.214	3.8182	0.	-916.4
225	20.214	3.6364	0.	-935.48
226	20.214	3.4545	0.	-949.86
227	20.214	3.2727	0.	-959.51
228	20.214	3.0909	0.	-964.36
229	20.214	2.9091	0.	-964.36
230	20.214	2.7273	0.	-959.51
231	20.214	2.5455	0.	-949.86
232	20.214	2.3636	0.	-935.48
233	20.214	2.1818	0.	-916.4
234	20.214	2.	0.	-892.7
235	20.214	1.8182	0.	-864.67
236	20.214	1.6364	0.	-833.11
237	20.214	1.4545	0.	-799.37
238	20.214	1.2727	0.	-765.15
239	20.214	1.0909	0.	-732.15
240	20.214	0.90909	0.	-701.8
241	20.214	0.72727	0.	-675.13
242	20.214	0.54545	0.	-652.73
243	20.214	0.36364	0.	-634.9
244	20.214	0.18182	0.	-621.31
245	20.03	5.8182	0.	-692.99
246	20.03	5.6364	0.	-704.96
247	20.03	5.4545	0.	-720.47
248	20.03	5.2727	0.	-739.58
249	20.03	5.0909	0.	-761.92
250	20.03	4.9091	0.	-786.88
251	20.03	4.7273	0.	-813.57
252	20.03	4.5455	0.	-840.87
253	20.03	4.3636	0.	-867.5
254	20.03	4.1818	0.	-892.31
255	20.03	4.	0.	-914.38
256	20.03	3.8182	0.	-933.12
257	20.03	3.6364	0.	-948.29
258	20.03	3.4545	0.	-959.76
259	20.03	3.2727	0.	-967.47
260	20.03	3.0909	0.	-971.34
261	20.03	2.9091	0.	-971.34
262	20.03	2.7273	0.	-967.47
263	20.03	2.5455	0.	-959.76
264	20.03	2.3636	0.	-948.29
265	20.03	2.1818	0.	-933.12
266	20.03	2.	0.	-914.38
267	20.03	1.8182	0.	-892.31
268	20.03	1.6364	0.	-867.5
269	20.03	1.4545	0.	-840.87
270	20.03	1.2727	0.	-813.57
271	20.03	1.0909	0.	-786.88
272	20.03	0.90909	0.	-761.92
273	20.03	0.72727	0.	-739.58
274	20.03	0.54545	0.	-720.47
275	20.03	0.36364	0.	-704.96
276	20.03	0.18182	0.	-692.99
277	19.846	5.8182	0.	-760.3
278	19.846	5.6364	0.	-770.62
279	19.846	5.4545	0.	-783.96
280	19.846	5.2727	0.	-800.12
281	19.846	5.0909	0.	-818.69
282	19.846	4.9091	0.	-839.13
283	19.846	4.7273	0.	-860.69
284	19.846	4.5455	0.	-882.49
285	19.846	4.3636	0.	-903.61
286	19.846	4.1818	0.	-923.22
287	19.846	4.	0.	-940.66
288	19.846	3.8182	0.	-955.51
289	19.846	3.6364	0.	-967.54
290	19.846	3.4545	0.	-976.65
291	19.846	3.2727	0.	-982.76
292	19.846	3.0909	0.	-985.84
293	19.846	2.9091	0.	-985.84
294	19.846	2.7273	0.	-982.76
295	19.846	2.5455	0.	-976.65
296	19.846	2.3636	0.	-967.54
297	19.846	2.1818	0.	-955.51
298	19.846	2.	0.	-940.66
299	19.846	1.8182	0.	-923.22
300	19.846	1.6364	0.	-903.61
301	19.846	1.4545	0.	-882.49
302	19.846	1.2727	0.	-860.69
303	19.846	1.0909	0.	-839.13
304	19.846	0.90909	0.	-818.69
305	19.846	0.72727	0.	-800.12
306	19.846	0.54545	0.	-783.96
307	19.846	0.36364	0.	-770.62
308	19.846	0.18182	0.	-760.3
309	19.662	5.8182	0.	-823.67
310	19.662	5.6364	0.	-832.4
311	19.662	5.4545	0.	-843.75
312	19.662	5.2727	0.	-857.31
313	19.662	5.0909	0.	-872.68
314	19.662	4.9091	0.	-889.36
315	19.662	4.7273	0.	-906.77
316	19.662	4.5455	0.	-924.22
317	19.662	4.3636	0.	-941.02
318	19.662	4.1818	0.	-956.58
319	19.662	4.	0.	-970.41
320	19.662	3.8182	0.	-982.19
321	19.662	3.6364	0.	-991.75
322	19.662	3.4545	0.	-998.97
323	19.662	3.2727	0.	-1003.8
324	19.662	3.0909	0.	-1006.2
325	19.662	2.9091	0.	-1006.2
326	19.662	2.7273	0.	-1003.8
327	19.662	2.5455	0.	-998.97
328	19.662	2.3636	0.	-991.75
329	19.662	2.1818	0.	-982.19
330	19.662	2.	0.	-970.41
331	19.662	1.8182	0.	-956.58
332	19.662	1.6364	0.	-941.02
333	19.662	1.4545	0.	-924.22
334	19.662	1.2727	0.	-906.77
335	19.662	1.0909	0.	-889.36
336	19.662	0.90909	0.	-872.68
337	19.662	0.72727	0.	-857.31
338	19.662	0.54545	0.	-843.75
339	19.662	0.36364	0.	-832.4
340	19.662	0.18182	0.	-823.67
341	19.479	5.8182	0.	-883.61
342	19.479	5.6364	0.	-890.84
343	19.479	5.4545	0.	-900.41
344	19.479	5.2727	0.	-911.73
345	19.479	5.0909	0.	-924.4
346	19.479	4.9091	0.	-938.01
347	19.479	4.7273	0.	-952.07
348	19.479	4.5455	0.	-966.05
349	19.479	4.3636	0.	-979.46
350	19.479	4.1818	0.	-991.84
351	19.479	4.	0.	-1002.8
352	19.479	3.8182	0.	-1012.2
353	19.479	3.6364	0.	-1019.8
354	19.479	3.4545	0.	-1025.5
355	19.479	3.2727	0.	-1029.4
356	19.479	3.0909	0.	-1031.3
357	19.479	2.9091	0.	-1031.3
358	19.479	2.7273	0.	-1029.4
359	19.479	2.5455	0.	-1025.5
360	19.479	2.3636	0.	-1019.8
361	19.479	2.1818	0.	-1012.2
362	19.479	2.	0.	-1002.8
363	19.479	1.8182	0.	-991.84
364	19.479	1.6364	0.	-979.46
365	19.479	1.4545	0.	-966.05
366	19.479	1.2727	0.	-952.07
367	19.479	1.0909	0.	-938.01
368	19.479	0.90909	0.	-924.4
369	19.479	0.72727	0.	-911.73
370	19.479	0.54545	0.	-900.41
371	19.479	0.36364	0.	-890.84
372	19.479	0.18182	0.	-883.61
373	19.295	5.8182	0.	-940.62
374	19.295	5.6364	0.	-946.48
375	19.295	5.4545	0.	-954.5
376	19.295	5.2727	0.	-963.9
377	19.295	5.0909	0.	-974.32
378	19.295	4.9091	0.	-985.4
379	19.295	4.7273	0.	-996.77
380	19.295	4.5455	0.	-1008.
381	19.295	4.3636	0.	-1018.7
382	19.295	4.1818	0.	-1028.6
383	19.295	4.	0.	-1037.4
384	19.295	3.8182	0.	-1044.8
385	19.295	3.6364	0.	-1050.9
386	19.295	3.4545	0.	-1055.4
387	19.295	3.2727	0.	-1058.5
388	19.295	3.0909	0.	-1060.
389	19.295	2.9091	0.	-1060.
390	19.295	2.7273	0.	-1058.5
391	19.295	2.5455	0.	-1055.4
392	19.295	2.3636	0.	-1050.9
393	19.295	2.1818	0.	-1044.8
394	19.295	2.	0.	-1037.4
395	19.295	1.8182	0.	-1028.6
396	19.295	1.6364	0.	-1018.7
397	19.295	1.4545	0.	-1008.
398	19.295	1.2727	0.	-996.77
399	19.295	1.0909	0.	-985.4
400	19.295	0.90909	0.	-974.32
401	19.295	0.72727	0.	-963.9
402	19.295	0.54545	0.	-954.5
403	19.295	0.36364	0.	-946.48
404	19.295	0.18182	0.	-940.62
405	19.111	5.8182	0.	-995.17
406	19.111	5.6364	0.	-999.81
407	19.111	5.4545	0.	-1006.5
408	19.111	5.2727	0.	-1014.3
409	19.111	5.0909	0.	-1022.8
410	19.111	4.9091	0.	-1031.8
411	19.111	4.7273	0.	-1041.
412	19.111	4.5455	0.	-1050.1
413	19.111	4.3636	0.	-1058.7
414	19.111	4.1818	0.	-1066.6
415	19.111	4.	0.	-1073.6
416	19.111	3.8182	0.	-1079.5
417	19.111	3.6364	0.	-1084.3
418	19.111	3.4545	0.	-1088.
419	19.111	3.2727	0.	-1090.4
420	19.111	3.0909	0.	-1091.6
421	19.111	2.9091	0.	-1091.6
422	19.111	2.7273	0.	-1090.4
423	19.111	2.5455	0.	-1088.
424	19.111	2.3636	0.	-1084.3
425	19.111	2.1818	0.	-1079.5
426	19.111	2.	0.	-1073.6
427	19.111	1.8182	0.	-1066.6
428	19.111	1.6364	0.	-1058.7
429	19.111	1.4545	0.	-1050.1
430	19.111	1.2727	0.	-1041.
431	19.111	1.0909	0.	-1031.8
432	19.111	0.90909	0.	-1022.8
433	19.111	0.72727	0.	-1014.3
434	19.111	0.54545	0.	-1006.5
435	19.111	0.36364	0.	-999.81
436	19.111	0.18182	0.	-995.17
437	18.927	5.8182	0.	-1047.7
438	18.927	5.6364	0.	-1051.3
439	18.927	5.4545	0.	-1056.8
440	18.927	5.2727	0.	-1063.2
441	18.927	5.0909	0.	-1070.2
442	18.927	4.9091	0.	-1077.5
443	18.927	4.7273	0.	-1085.
444	18.927	4.5455	0.	-1092.3
445	18.927	4.3636	0.	-1099.2
446	18.927	4.1818	0.	-1105.5
447	18.927	4.	0.	-1111.1
448	18.927	3.8182	0.	-1115.9
449	18.927	3.6364	0.	-1119.7
450	18.927	3.4545	0.	-1122.6
451	18.927	3.2727	0.	-1124.6
452	18.927	3.0909	0.	-1125.6
453	18.927	2.9091	0.	-1125.6
454	18.927	2.7273	0.	-1124.6
455	18.927	2.5455	0.	-1122.6
456	18.927	2.3636	0.	-1119.7
457	18.927	2.1818	0.	-1115.9
458	18.927	2.	0.	-1111.1
459	18.927	1.8182	0.	-1105.5
460	18.927	1.6364	0.	-1099.2
461	18.927	1.4545	0.	-1092.3
462	18.927	1.2727	0.	-1085.
463	18.927	1.0909	0.	-1077.5
464	18.927	0.90909	0.	-1070.2
465	18.927	0.72727	0.	-1063.2
466	18.927	0.54545	0.	-1056.8
467	18.927	0.36364	0.	-1051.3
468	18.927	0.18182	0.	-1047.7
469	18.744	5.8182	0.	-1098.6
470	18.744	5.6364	0.	-1101.2
471	18.744	5.4545	0.	-1105.7
472	18.744	5.2727	0.	-1111.
473	18.744	5.0909	0.	-1116.7
474	18.744	4.9091	0.	-1122.7
475	18.744	4.7273	0.	-1128.7
476	18.744	4.5455	0.	-1134.6
477	18.744	4.3636	0.	-1140.2
478	18.744	4.1818	0.	-1145.3
479	18.744	4.	0.	-1149.8
480	18.744	3.8182	0.	-1153.6
481	18.744	3.6364	0.	-1156.7
482	18.744	3.4545	0.	-1159.
483	18.744	3.2727	0.	-1160.6
484	18.744	3.0909	0.	-1161.3
485	18.744	2.9091	0.	-1161.3
486	18.744	2.7273	0.	-1160.6
487	18.744	2.5455	0.	-1159.
488	18.744	2.3636	0.	-1156.7
489	18.744	2.1818	0.	-1153.6
490	18.744	2.	0.	-1149.8
491	18.744	1.8182	0.	-1145.3
492	18.744	1.6364	0.	-1140.2
493	18.744	1.4545	0.	-1134.6
494	18.744	1.2727	0.	-1128.7
495	18.744	1.0909	0.	-1122.7
496	18.744	0.90909	0.	-1116.7
497	18.744	0.72727	0.	-1111.
498	18.744	0.54545	0.	-1105.7
499	18.744	0.36364	0.	-1101.2
500	18.744	0.18182	0.	-1098.6
501	18.56	5.8182	0.	-1148.1
502	18.56	5.6364	0.	-1150.
503	18.56	5.4545	0.	-1153.6
504	18.56	5.2727	0.	-1157.9
505	18.56	5.0909	0.	-1162.6
506	18.56	4.9091	0.	-1167.5
507	18.56	4.7273	0.	-1172.4
508	18.56	4.5455	0.	-1177.1
509	18.56	4.3636	0.	-1181.6
510	18.56	4.1818	0.	-1185.7
511	18.56	4.	0.	-1189.3
512	18.56	3.8182	0.	-1192.4
513	18.56	3.6364	0.	-1194.9
514	18.56	3.4545	0.	-1196.7
515	18.56	3.2727	0.	-1198.
516	18.56	3.0909	0.	-1198.6
517	18.56	2.9091	0.	-1198.6
518	18.56	2.7273	0.	-1198.
519	18.56	2.5455	0.	-1196.7
520	18.56	2.3636	0.	-1194.9
521	18.56	2.1818	0.	-1192.4
522	18.56	2.	0.	-1189.3
523	18.56	1.8182	0.	-1185.7
524	18.56	1.6364	0.	-1181.6
525	18.56	1.4545	0.	-1177.1
526	18.56	1.2727	0.	-1172.4
527	18.56	1.0909	0.	-1167.5
528	18.56	0.90909	0.	-1162.6
529	18.56	0.72727	0.	-1157.9
530	18.56	0.54545	0.	-1153.6
531	18.56	0.36364	0.	-1150.
532	18.56	0.18182	0.	-1148.1
533	18.376	5.8182	0.	-1196.6
534	18.376	5.6364	0.	-1197.8
535	18.376	5.4545	0.	-1200.7
536	18.376	5.2727	0.	-1204.2
537	18.376	5.0909	0.	-1208.
538	18.376	4.9091	0.	-1212.
539	18.376	4.7273	0.	-1215.9
540	18.376	4.5455	0.	-1219.8
541	18.376	4.3636	0.	-1223.4
542	18.376	4.1818	0.	-1226.7
543	18.376	4.	0.	-1229.6
544	18.376	3.8182	0.	-1232.1
545	18.376	3.6364	0.	-1234.1
546	18.376	3.4545	0.	-1235.6
547	18.376	3.2727	0.	-1236.6
548	18.376	3.0909	0.	-1237.1
549	18.376	2.9091	0.	-1237.1
550	18.376	2.7273	0.	-1236.6
551	18.376	2.5455	0.	-1235.6
552	18.376	2.3636	0.	-1234.1
553	18.376	2.1818	0.	-1232.1
554	18.376	2.	0.	-1229.6
555	18.376	1.8182	0.	-1226.7
556	18.376	1.6364	0.	-1223.4
557	18.376	1.4545	0.	-1219.8
558	18.376	1.2727	0.	-1215.9
559	18.376	1.0909	0.	-1212.
560	18.376	0.90909	0.	-1208.
561	18.376	0.72727	0.	-1204.2
562	18.376	0.54545	0.	-1200.7
563	18.376	0.36364	0.	-1197.8
564	18.376	0.18182	0.	-1196.6
565	18.192	5.8182	0.	-1244.3
566	18.192	5.6364	0.	-1244.8
567	18.192	5.4545	0.	-1247.2
568	18.192	5.2727	0.	-1250.
569	18.192	5.0909	0.	-1253.1
570	18.192	4.9091	0.	-1256.3
571	18.192	4.7273	0.	-1259.5
572	18.192	4.5455	0.	-1262.6
573	18.192	4.3636	0.	-1265.5
574	18.192	4.1818	0.	-1268.2
575	18.192	4.	0.	-1270.5
576	18.192	3.8182	0.	-1272.5
577	18.192	3.6364	0.	-1274.1
578	18.192	3.4545	0.	-1275.4
579	18.192	3.2727	0.	-1276.2
580	18.192	3.0909	0.	-1276.6
581	18.192	2.9091	0.	-1276.6
582	18.192	2.7273	0.	-1276.2
583	18.192	2.5455	0.	-1275.4
584	18.192	2.3636	0.	-1274.1
585	18.192	2.1818	0.	-1272.5
586	18.192	2.	0.	-1270.5
587	18.192	1.8182	0.	-1268.2
588	18.192	1.6364	0.	-1265.5
589	18.192	1.4545	0.	-1262.6
590	18.192	1.2727	0.	-1259.5
591	18.192	1.0909	0.	-1256.3
592	18.192	0.90909	0.	-1253.1
593	18.192	0.72727	0.	-1250.
594	18.192	0.54545	0.	-1247.2
595	18.192	0.36364	0.	-1244.8
596	18.192	0.18182	0.	-1244.3
597	18.009	5.8182	0.	-1291.3
598	18.009	5.6364	0.	-1291.3
599	18.009	5.4545	0.	-1293.2
600	18.009	5.2727	0.	-1295.5
601	18.009	5.0909	0.	-1298.
602	18.009	4.9091	0.	-1300.5
603	18.009	4.7273	0.	-1303.1
604	18.009	4.5455	0.	-1305.6
605	18.009	4.3636	0.	-1308.
606	18.009	4.1818	0.	-1310.1
607	18.009	4.	0.	-1312.
608	18.009	3.8182	0.	-1313.6
609	18.009	3.6364	0.	-1314.9
610	18.009	3.4545	0.	-1315.9
611	18.009	3.2727	0.	-1316.6
612	18.009	3.0909	0.	-1316.9
613	18.009	2.9091	0.	-1316.9
614	18.009	2.7273	0.	-1316.6
615	18.009	2.5455	0.	-1315.9
616	18.009	2.3636	0.	-1314.9
617	18.009	2.1818	0.	-1313.6
618	18.009	2.	0.	-1312.
619	18.009	1.8182	0.	-1310.1
620	18.009	1.6364	0.	-1308.
621	18.009	1.4545	0.	-1305.6
622	18.009	1.2727	0.	-1303.1
623	18.009	1.0909	0.	-1300.5
624	18.009	0.90909	0.	-1298.
625	18.009	0.72727	0.	-1295.5
626	18.009	0.54545	0.	-1293.2
627	18.009	0.36364	0.	-1291.3
628	18.009	0.18182	0.	-1291.3
629	17.825	5.8182	0.	-1337.8
630	17.825	5.6364	0.	-1337.4
631	17.825	5.4545	0.	-1338.9
632	17.825	5.2727	0.	-1340.7
633	17.825	5.0909	0.	-1342.7
634	17.825	4.9091	0.	-1344.7
635	17.825	4.7273	0.	-1346.8
636	17.825	4.5455	0.	-1348.8
637	17.825	4.3636	0.	-1350.7
638	17.825	4.1818	0.	-1352.4
639	17.825	4.	0.	-1354.
640	17.825	3.8182	0.	-1355.3
641	17.825	3.6364	0.	-1356.3
642	17.825	3.4545	0.	-1357.1
643	17.825	3.2727	0.	-1357.6
644	17.825	3.0909	0.	-1357.9
645	17.825	2.9091	0.	-1357.9
646	17.825	2.7273	0.	-1357.6
647	17.825	2.5455	0.	-1357.1
648	17.825	2.3636	0.	-1356.3
649	17.825	2.1818	0.	-1355.3
650	17.825	2.	0.	-1354.
651	17.825	1.8182	0.	-1352.4
652	17.825	1.6364	0.	-1350.7
653	17.825	1.4545	0.	-1348.8
654	17.825	1.2727	0.	-1346.8
655	17.825	1.0909	0.	-1344.7
656	17.825	0.90909	0.	-1342.7
657	17.825	0.72727	0.	-1340.7
658	17.825	0.54545	0.	-1338.9
659	17.825	0.36364	0.	-1337.4
660	17.825	0.18182	0.	-1337.8
661	17.641	5.8182	0.	-1384.
662	17.641	5.6364	0.	-1383.2
663	17.641	5.4545	0.	-1384.3
664	17.641	5.2727	0.	-1385.7
665	17.641	5.0909	0.	-1387.3
666	17.641	4.9091	0.	-1388.9
667	17.641	4.7273	0.	-1390.6
668	17.641	4.5455	0.	-1392.2
669	17.641	4.3636	0.	-1393.7
670	17.641	4.1818	0.	-1395.1
671	17.641	4.	0.	-1396.3
672	17.641	3.8182	0.	-1397.4
673	17.641	3.6364	0.	-1398.2
674	17.641	3.4545	0.	-1398.9
675	17.641	3.2727	0.	-1399.3
676	17.641	3.0909	0.	-1399.5
677	17.641	2.9091	0.	-1399.5
678	17.641	2.7273	0.	-1399.3
679	17.641	2.5455	0.	-1398.9
680	17.641	2.3636	0.	-1398.2
681	17.641	2.1818	0.	-1397.4
682	17.641	2.	0.	-1396.3
683	17.641	1.8182	0.	-1395.1
684	17.641	1.6364	0.	-1393.7
685	17.641	1.4545	0.	-1392.2
686	17.641	1.2727	0.	-1390.6
687	17.641	1.0909	0.	-1388.9
688	17.641	0.90909	0.	-1387.3
689	17.641	0.72727	0.	-1385.7
690	17.641	0.54545	0.	-1384.3
691	17.641	0.36364	0.	-1383.2
692	17.641	0.18182	0.	-1384.
693	17.457	5.8182	0.	-1429.9
694	17.457	5.6364	0.	-1428.8
695	17.457	5.4545	0.	-1429.6
696	17.457	5.2727	0.	-1430.7
697	17.457	5.0909	0.	-1431.9
698	17.457	4.9091	0.	-1433.2
699	17.457	4.7273	0.	-1434.5
700	17.457	4.5455	0.	-1435.8
701	17.457	4.3636	0.	-1437.
702	17.457	4.1818	0.	-1438.1
703	17.457	4.	0.	-1439.1
704	17.457	3.8182	0.	-1439.9
705	17.457	3.6364	0.	-1440.6
706	17.457	3.4545	0.	-1441.1
707	17.457	3.2727	0.	-1441.5
708	17.457	3.0909	0.	-1441.6
709	17.457	2.9091	0.	-1441.6
710	17.457	2.7273	0.	-1441.5
711	17.457	2.5455	0.	-1441.1
712	17.457	2.3636	0.	-1440.6
713	17.457	2.1818	0.	-1439.9
714	17.457	2.	0.	-1439.1
715	17.457	1.8182	0.	-1438.1
716	17.457	1.6364	0.	-1437.
717	17.457	1.4545	0.	-1435.8
718	17.457	1.2727	0.	-1434.5
719	17.457	1.0909	0.	-1433.2
720	17.457	0.90909	0.	-1431.9
721	17.457	0.72727	0.	-1430.7
722	17.457	0.54545	0.	-1429.6
723	17.457	0.36364	0.	-1428.8
724	17.457	0.18182	0.	-1429.9
725	17.274	5.8182	0.	-1475.6
726	17.274	5.6364	0.	-1474.3
727	17.274	5.4545	0.	-1474.8
728	17.274	5.2727	0.	-1475.6
729	17.274	5.0909	0.	-1476.5
730	17.274	4.9091	0.	-1477.5
731	17.274	4.7273	0.	-1478.5
732	17.274	4.5455	0.	-1479.5
733	17.274	4.3636	0.	-1480.5
734	17.274	4.1818	0.	-1481.4
735	17.274	4.	0.	-1482.2
736	17.274	3.8182	0.	-1482.8
737	17.274	3.6364	0.	-1483.4
738	17.274	3.4545	0.	-1483.8
739	17.274	3.2727	0.	-1484.1
740	17.274	3.0909	0.	-1484.2
741	17.274	2.9091	0.	-1484.2
742	17.274	2.7273	0.	-1484.1
743	17.274	2.5455	0.	-1483.8
744	17.274	2.3636	0.	-1483.4
745	17.274	2.1818	0.	-1482.8
746	17.274	2.	0.	-1482.2
747	17.274	1.8182	0.	-1481.4
748	17.274	1.6364	0.	-1480.5
749	17.274	1.4545	0.	-1479.5
750	17.274	1.2727	0.	-1478.5
751	17.274	1.0909	0.	-1477.5
752	17.274	0.90909	0.	-1476.5
753	17.274	0.72727	0.	-1475.6
754	17.274	0.54545	0.	-1474.8
755	17.274	0.36364	0.	-1474.3
756	17.274	0.18182	0.	-1475.6
757	17.09	5.8182	0.	-1521.2
758	17.09	5.6364	0.	-1519.6
759	17.09	5.4545	0.	-1519.9
760	17.09	5.2727	0.	-1520.5
761	17.09	5.0909	0.	-1521.2
762	17.09	4.9091	0.	-1521.9
763	17.09	4.7273	0.	-1522.7
764	17.09	4.5455	0.	-1523.5
765	17.09	4.3636	0.	-1524.2
766	17.09	4.1818	0.	-1524.9
767	17.09	4.	0.	-1525.5
768	17.09	3.8182	0.	-1526.1
769	17.09	3.6364	0.	-1526.5
770	17.09	3.4545	0.	-1526.8
771	17.09	3.2727	0.	-1527.
772	17.09	3.0909	0.	-1527.2
773	17.09	2.9091	0.	-1527.2
774	17.09	2.7273	0.	-1527.
775	17.09	2.5455	0.	-1526.8
776	17.09	2.3636	0.	-1526.5
777	17.09	2.1818	0.	-1526.1
778	17.09	2.	0.	-1525.5
779	17.09	1.8182	0.	-1524.9
780	17.09	1.6364	0.	-1524.2
781	17.09	1.4545	0.	-1523.5
782	17.09	1.2727	0.	-1522.7
783	17.09	1.0909	0.	-1521.9
784	17.09	0.90909	0.	-1521.2
785	17.09	0.72727	0.	-1520.5
786	17.09	0.54545	0.	-1519.9
787	17.09	0.36364	0.	-1519.6
788	17.09	0.18182	0.	-1521.2
789	16.906	5.8182	0.	-1566.7
790	16.906	5.6364	0.	-1565.
791	16.906	5.4545	0.	-1565.1
792	16.906	5.2727	0.	-1565.4
793	16.906	5.0909	0.	-1565.9
794	16.906	4.9091	0.	-1566.4
795	16.906	4.7273	0.	-1567.
796	16.906	4.5455	0.	-1567.6
797	16.906	4.3636	0.	-1568.2
798	16.906	4.1818	0.	-1568.7
799	16.906	4.	0.	-1569.2
800	16.906	3.8182	0.	-1569.6
801	16.906	3.6364	0.	-1570.
802	16.906	3.4545	0.	-1570.2
803	16.906	3.2727	0.	-1570.4
804	16.906	3.0909	0.	-1570.5
805	16.906	2.9091	0.	-1570.5
806	16.906	2.7273	0.	-1570.4
807	16.906	2.5455	0.	-1570.2
808	16.906	2.3636	0.	-1570.
809	16.906	2.1818	0.	-1569.6
810	16.906	2.	0.	-1569.2
811	16.906	1.8182	0.	-1568.7
812	16.906	1.6364	0.	-1568.2
813	16.906	1.4545	0.	-1567.6
814	16.906	1.2727	0.	-1567.
815	16.906	1.0909	0.	-1566.4
816	16.906	0.90909	0.	-1565.9
817	16.906	0.72727	0.	-1565.4
818	16.906	0.54545	0.	-1565.1
819	16.906	0.36364	0.	-1565.
820	16.906	0.18182	0.	-1566.7
821	16.722	5.8182	0.	-1612.2
822	16.722	5.6364	0.	-1610.3
823	16.722	5.4545	0.	-1610.3
824	16.722	5.2727	0.	-1610.5
825	16.722	5.0909	0.	-1610.7
826	16.722	4.9091	0.	-1611.1
827	16.722	4.7273	0.	-1611.5
828	16.722	4.5455	0.	-1612.
829	16.722	4.3636	0.	-1612.4
830	16.722	4.1818	0.	-1612.8
831	16.722	4.	0.	-1613.1
832	16.722	3.8182	0.	-1613.5
833	16.722	3.6364	0.	-1613.7
834	16.722	3.4545	0.	-1613.9
835	16.722	3.2727	0.	-1614.
836	16.722	3.0909	0.	-1614.1
837	16.722	2.9091	0.	-1614.1
838	16.722	2.7273	0.	-1614.
839	16.722	2.5455	0.	-1613.9
840	16.722	2.3636	0.	-1613.7
841	16.722	2.1818	0.	-1613.5
842	16.722	2.	0.	-1613.1
843	16.722	1.8182	0.	-1612.8
844	16.722	1.6364	0.	-1612.4
845	16.722	1.4545	0.	-1612.
846	16.722	1.2727	0.	-1611.5
847	16.722	1.0909	0.	-1611.1
848	16.722	0.90909	0.	-1610.7
849	16.722	0.72727	0.	-1610.5
850	16.722	0.54545	0.	-1610.3
851	16.722	0.36364	0.	-1610.3
852	16.722	0.18182	0.	-1612.2
853	16.538	5.8182	0.	-1657.8
854	16.538	5.6364	0.	-1655.8
855	16.538	5.4545	0.	-1655.5
856	16.538	5.2727	0.	-1655.6
857	16.538	5.0909	0.	-1655.7
858	16.538	4.9091	0.	-1655.9
859	16.538	4.7273	0.	-1656.2
860	16.538	4.5455	0.	-1656.5
861	16.538	4.3636	0.	-1656.8
862	16.538	4.1818	0.	-1657.1
863	16.538	4.	0.	-1657.3
864	16.538	3.8182	0.	-1657.6
865	16.538	3.6364	0.	-1657.7
866	16.538	3.4545	0.	-1657.9
867	16.538	3.2727	0.	-1658.
868	16.538	3.0909	0.	-1658.
869	16.538	2.9091	0.	-1658.
870	16.538	2.7273	0.	-1658.
871	16.538	2.5455	0.	-1657.9
872	16.538	2.3636	0.	-1657.7
873	16.538	2.1818	0.	-1657.6
874	16.538	2.	0.	-1657.3
875	16.538	1.8182	0.	-1657.1
876	16.538	1.6364	0.	-1656.8
877	16.538	1.4545	0.	-1656.5
878	16.538	1.2727	0.	-1656.2
879	16.538	1.0909	0.	-1655.9
880	16.538	0.90909	0.	-1655.7
881	16.538	0.72727	0.	-1655.6
882	16.538	0.54545	0.	-1655.5
883	16.538	0.36364	0.	-1655.8
884	16.538	0.18182	0.	-1657.8
885	16.355	5.8182	0.	-1703.4
886	16.355	5.6364	0.	-1701.2
887	16.355	5.4545	0.	-1700.9
888	16.355	5.2727	0.	-1700.8
889	16.355	5.0909	0.	-1700.8
890	16.355	4.9091	0.	-1700.9
891	16.355	4.7273	0.	-1701.
892	16.355	4.5455	0.	-1701.2
893	16.355	4.3636	0.	-1701.4
894	16.355	4.1818	0.	-1701.6
895	16.355	4.	0.	-1701.8
896	16.355	3.8182	0.	-1701.9
897	16.355	3.6364	0.	-1702.1
898	16.355	3.4545	0.	-1702.2
899	16.355	3.2727	0.	-1702.2
900	16.355	3.0909	0.	-1702.3
901	16.355	2.9091	0.	-1702.3
902	16.355	2.7273	0.	-1702.2
903	16.355	2.5455	0.	-1702.2
904	16.355	2.3636	0.	-1702.1
905	16.355	2.1818	0.	-1701.9
906	16.355	2.	0.	-1701.8
907	16.355	1.8182	0.	-1701.6
908	16.355	1.6364	0.	-1701.4
909	16.355	1.4545	0.	-1701.2
910	16.355	1.2727	0.	-1701.
911	16.355	1.0909	0.	-1700.9
912	16.355	0.90909	0.	-1700.8
913	16.355	0.72727	0.	-1700.8
914	16.355	0.54545	0.	-1700.9
915	16.355	0.36364	0.	-1701.2
916	16.355	0.18182	0.	-1703.4
917	16.171	5.8182	0.	-1749.1
918	16.171	5.6364	0.	-1746.8
919	16.171	5.4545	0.	-1746.4
920	16.171	5.2727	0.	-1746.2
921	16.171	5.0909	0.	-1746.1
922	16.171	4.9091	0.	-1746.
923	16.171	4.7273	0.	-1746.1
924	16.171	4.5455	0.	-1746.1
925	16.171	4.3636	0.	-1746.2
926	16.171	4.1818	0.	-1746.3
927	16.171	4.	0.	-1746.4
928	16.171	3.8182	0.	-1746.5
929	16.171	3.6364	0.	-1746.6
930	16.171	3.4545	0.	-1746.7
931	16.171	3.2727	0.	-1746.7
932	16.171	3.0909	0.	-1746.7
933	16.171	2.9091	0.	-1746.7
934	16.171	2.7273	0.	-1746.7
935	16.171	2.5455	0.	-1746.7
936	16.171	2.3636	0.	-1746.6
937	16.171	2.1818	0.	-1746.5
938	16.171	2.	0.	-1746.4
939	16.171	1.8182	0.	-1746.3
940	16.171	1.6364	0.	-1746.2
941	16.171	1.4545	0.	-1746.1
942	16.171	1.2727	0.	-1746.1
943	16.171	1.0909	0.	-1746.
944	16.171	0.90909	0.	-1746.1
945	16.171	0.72727	0.	-1746.2
946	16.171	0.54545	0.	-1746.4
947	16.171	0.36364	0.	-1746.8
948	16.171	0.18182	0.	-1749.1
949	15.987	5.8182	0.	-1794.8
950	15.987	5.6364	0.	-1792.5
951	15.987	5.4545	0.	-1792.
952	15.987	5.2727	0.	-1791.7
953	15.987	5.0909	0.	-1791.5
954	15.987	4.9091	0.	-1791.3
955	15.987	4.7273	0.	-1791.3
956	15.987	4.5455	0.	-1791.2
957	15.987	4.3636	0.	-1791.3
958	15.987	4.1818	0.	-1791.3
959	15.987	4.	0.	-1791.3
960	15.987	3.8182	0.	-1791.4
961	15.987	3.6364	0.	-1791.4
962	15.987	3.4545	0.	-1791.4
963	15.987	3.2727	0.	-1791.5
964	15.987	3.0909	0.	-1791.5
965	15.987	2.9091	0.	-1791.5
966	15.987	2.7273	0.	-1791.5
967	15.987	2.5455	0.	-1791.4
968	15.987	2.3636	0.	-1791.4
969	15.987	2.1818	0.	-1791.4
970	15.987	2.	0.	-1791.3
971	15.987	1.8182	0.	-1791.3
972	15.987	1.6364	0.	-1791.3
973	15.987	1.4545	0.	-1791.2
974	15.987	1.2727	0.	-1791.3
975	15.987	1.0909	0.	-1791.3
976	15.987	0.90909	0.	-1791.5
977	15.987	0.72727	0.	-1791.7
978	15.987	0.54545	0.	-1792.
979	15.987	0.36364	0.	-1792.5
980	15.987	0.18182	0.	-1794.8
981	15.803	5.8182	0.	-1840.7
982	15.803	5.6364	0.	-1838.3
983	15.803	5.4545	0.	-1837.7
984	15.803	5.2727	0.	-1837.3
985	15.803	5.0909	0.	-1837.
986	15.803	4.9091	0.	-1836.8
987	15.803	4.7273	0.	-1836.7
988	15.803	4.5455	0.	-1836.6
989	15.803	4.3636	0.	-1836.5
990	15.803	4.1818	0.	-1836.5
991	15.803	4.	0.	-1836.4
992	15.803	3.8182	0.	-1836.4
993	15.803	3.6364	0.	-1836.4
994	15.803	3.4545	0.	-1836.4
995	15.803	3.2727	0.	-1836.4
996	15.803	3.0909	0.	-1836.4
997	15.803	2.9091	0.	-1836.4
998	15.803	2.7273	0.	-1836.4
999	15.803	2.5455	0.	-1836.4
1000	15.803	2.3636	0.	-1836.4
1001	15.803	2.1818	0.	-1836.4
1002	15.803	2.	0.	-1836.4
1003	15.803	1.8182	0.	-1836.5
1004	15.803	1.6364	0.	-1836.5
1005	15.803	1.4545	0.	-1836.6
1006	15.803	1.2727	0.	-1836.7
1007	15.803	1.0909	0.	-1836.8
1008	15.803	0.90909	0.	-1837.
1009	15.803	0.72727	0.	-1837.3
1010	15.803	0.54545	0.	-1837.7
1011	15.803	0.36364	0.	-1838.3
1012	15.803	0.18182	0.	-1840.7
1013	15.62	5.8182	0.	-1886.7
1014	15.62	5.6364	0.	-1884.3
1015	15.62	5.4545	0.	-1883.6
1016	15.62	5.2727	0.	-1883.1
1017	15.62	5.0909	0.	-1882.7
1018	15.62	4.9091	0.	-1882.5
1019	15.62	4.7273	0.	-1882.2
1020	15.62	4.5455	0.	-1882.1
1021	15.62	4.3636	0.	-1881.9
1022	15.62	4.1818	0.	-1881.8
1023	15.62	4.	0.	-1881.8
1024	15.62	3.8182	0.	-1881.7
1025	15.62	3.6364	0.	-1881.7
1026	15.62	3.4545	0.	-1881.7
1027	15.62	3.2727	0.	-1881.7
1028	15.62	3.0909	0.	-1881.7
1029	15.62	2.9091	0.	-1881.7
1030	15.62	2.7273	0.	-1881.7
1031	15.62	2.5455	0.	-1881.7
1032	15.62	2.3636	0.	-1881.7
1033	15.62	2.1818	0.	-1881.7
1034	15.62	2.	0.	-1881.8
1035	15.62	1.8182	0.	-1881.8
1036	15.62	1.6364	0.	-1881.9
1037	15.62	1.4545	0.	-1882.1
1038	15.62	1.2727	0.	-1882.2
1039	15.62	1.0909	0.	-1882.5
1040	15.62	0.90909	0.	-1882.7
1041	15.62	0.72727	0.	-1883.1
1042	15.62	0.54545	0.	-1883.6
1043	15.62	0.36364	0.	-1884.3
1044	15.62	0.18182	0.	-1886.7
1045	15.436	5.8182	0.	-1932.9
1046	15.436	5.6364	0.	-1930.4
1047	15.436	5.4545	0.	-1929.6
1048	15.436	5.2727	0.	-1929.1
1049	15.436	5.0909	0.	-1928.6
1050	15.436	4.9091	0.	-1928.3
1051	15.436	4.7273	0.	-1928.
1052	15.436	4.5455	0.	-1927.8
1053	15.436	4.3636	0.	-1927.6
1054	15.436	4.1818	0.	-1927.4
1055	15.436	4.	0.	-1927.3
1056	15.436	3.8182	0.	-1927.2
1057	15.436	3.6364	0.	-1927.2
1058	15.436	3.4545	0.	-1927.1
1059	15.436	3.2727	0.	-1927.1
1060	15.436	3.0909	0.	-1927.1
1061	15.436	2.9091	0.	-1927.1
1062	15.436	2.7273	0.	-1927.1
1063	15.436	2.5455	0.	-1927.1
1064	15.436	2.3636	0.	-1927.2
1065	15.436	2.1818	0.	-1927.2
1066	15.436	2.	0.	-1927.3
1067	15.436	1.8182	0.	-1927.4
1068	15.436	1.6364	0.	-1927.6
1069	15.436	1.4545	0.	-1927.8
1070	15.436	1.2727	0.	-1928.
1071	15.436	1.0909	0.	-1928.3
1072	15.436	0.90909	0.	-1928.6
1073	15.436	0.72727	0.	-1929.1
1074	15.436	0.54545	0.	-1929.6
1075	15.436	0.36364	0.	-1930.4
1076	15.436	0.18182	0.	-1932.9
1077	15.252	5.8182	0.	-1979.2
1078	15.252	5.6364	0.	-1976.6
1079	15.252	5.4545	0.	-1975.8
1080	15.252	5.2727	0.	-1975.2
1081	15.252	5.0909	0.	-1974.7
1082	15.252	4.9091	0.	-1974.3
1083	15.252	4.7273	0.	-1973.9
1084	15.252	4.5455	0.	-1973.7
1085	15.252	4.3636	0.	-1973.4
1086	15.252	4.1818	0.	-1973.2
1087	15.252	4.	0.	-1973.1
1088	15.252	3.8182	0.	-1973.
1089	15.252	3.6364	0.	-1972.9
1090	15.252	3.4545	0.	-1972.8
1091	15.252	3.2727	0.	-1972.8
1092	15.252	3.0909	0.	-1972.7
1093	15.252	2.9091	0.	-1972.7
1094	15.252	2.7273	0.	-1972.8
1095	15.252	2.5455	0.	-1972.8
1096	15.252	2.3636	0.	-1972.9
1097	15.252	2.1818	0.	-1973.
1098	15.252	2.	0.	-1973.1
1099	15.252	1.8182	0.	-1973.2
1100	15.252	1.6364	0.	-1973.4
1101	15.252	1.4545	0.	-1973.7
1102	15.252	1.2727	0.	-1973.9
1103	15.252	1.0909	0.	-1974.3
1104	15.252	0.90909	0.	-1974.7
1105	15.252	0.72727	0.	-1975.2
1106	15.252	0.54545	0.	-1975.8
1107	15.252	0.36364	0.	-1976.6
1108	15.252	0.18182	0.	-1979.2
1109	15.068	5.8182	0.	-2025.6
1110	15.068	5.6364	0.	-2023.
1111	15.068	5.4545	0.	-2022.2
1112	15.068	5.2727	0.	-2021.5
1113	15.068	5.0909	0.	-2021.
1114	15.068	4.9091	0.	-2020.5
1115	15.068	4.7273	0.	-2020.1
1116	15.068	4.5455	0.	-2019.8
1117	15.068	4.3636	0.	-2019.5
1118	15.068	4.1818	0.	-2019.2
1119	15.068	4.	0.	-2019.1
1120	15.068	3.8182	0.	-2018.9
1121	15.068	3.6364	0.	-2018.8
1122	15.068	3.4545	0.	-2018.7
1123	15.068	3.2727	0.	-2018.6
1124	15.068	3.0909	0.	-2018.6
1125	15.068	2.9091	0.	-2018.6
1126	15.068	2.7273	0.	-2018.6
1127	15.068	2.5455	0.	-2018.7
1128	15.068	2.3636	0.	-2018.8
1129	15.068	2.1818	0.	-2018.9
1130	15.068	2.	0.	-2019.1
1131	15.068	1.8182	0.	-2019.2
1132	15.068	1.6364	0.	-2019.5
1133	15.068	1.4545	0.	-2019.8
1134	15.068	1.2727	0.	-2020.1
1135	15.068	1.0909	0.	-2020.5
1136	15.068	0.90909	0.	-2021.
1137	15.068	0.72727	0.	-2021.5
1138	15.068	0.54545	0.	-2022.2
1139	15.068	0.36364	0.	-2023.
1140	15.068	0.18182	0.	-2025.6
1141	14.885	5.8182	0.	-2072.2
1142	14.885	5.6364	0.	-2069.6
1143	14.885	5.4545	0.	-2068.7
1144	14.885	5.2727	0.	-2068.
1145	14.885	5.0909	0.	-2067.4
1146	14.885	4.9091	0.	-2066.9
1147	14.885	4.7273	0.	-2066.4
1148	14.885	4.5455	0.	-2066.
1149	14.885	4.3636	0.	-2065.7
1150	14.885	4.1818	0.	-2065.4
1151	14.885	4.	0.	-2065.2
1152	14.885	3.8182	0.	-2065.
1153	14.885	3.6364	0.	-2064.9
1154	14.885	3.4545	0.	-2064.8
1155	14.885	3.2727	0.	-2064.7
1156	14.885	3.0909	0.	-2064.7
1157	14.885	2.9091	0.	-2064.7
1158	14.885	2.7273	0.	-2064.7
1159	14.885	2.5455	0.	-2064.8
1160	14.885	2.3636	0.	-2064.9
1161	14.885	2.1818	0.	-2065.
1162	14.885	2.	0.	-2065.2
1163	14.885	1.8182	0.	-2065.4
1164	14.885	1.6364	0.	-2065.7
1165	14.885	1.4545	0.	-2066.
1166	14.885	1.2727	0.	-2066.4
1167	14.885	1.0909	0.	-2066.9
1168	14.885	0.90909	0.	-2067.4
1169	14.885	0.72727	0.	-2068.
1170	14.885	0.54545	0.	-2068.7
1171	14.885	0.36364	0.	-2069.6
1172	14.885	0.18182	0.	-2072.2
1173	14.701	5.8182	0.	-2119.
1174	14.701	5.6364	0.	-2116.3
1175	14.701	5.4545	0.	-2115.4
1176	14.701	5.2727	0.	-2114.6
1177	14.701	5.0909	0.	-2114.
1178	14.701	4.9091	0.	-2113.4
1179	14.701	4.7273	0.	-2112.9
1180	14.701	4.5455	0.	-2112.5
1181	14.701	4.3636	0.	-2112.2
1182	14.701	4.1818	0.	-2111.9
1183	14.701	4.	0.	-2111.6
1184	14.701	3.8182	0.	-2111.4
1185	14.701	3.6364	0.	-2111.2
1186	14.701	3.4545	0.	-2111.1
1187	14.701	3.2727	0.	-2111.
1188	14.701	3.0909	0.	-2111.
1189	14.701	2.9091	0.	-2111.
1190	14.701	2.7273	0.	-2111.
1191	14.701	2.5455	0.	-2111.1
1192	14.701	2.3636	0.	-2111.2
1193	14.701	2.1818	0.	-2111.4
1194	14.701	2.	0.	-2111.6
1195	14.701	1.8182	0.	-2111.9
1196	14.701	1.6364	0.	-2112.2
1197	14.701	1.4545	0.	-2112.5
1198	14.701	1.2727	0.	-2112.9
1199	14.701	1.0909	0.	-2113.4
1200	14.701	0.90909	0.	-2114.
1201	14.701	0.72727	0.	-2114.6
1202	14.701	0.54545	0.	-2115.4
1203	14.701	0.36364	0.	-2116.3
1204	14.701	0.18182	0.	-2119.
1205	14.517	5.8182	0.	-2166.
1206	14.517	5.6364	0.	-2163.3
1207	14.517	5.4545	0.	-2162.3
1208	14.517	5.2727	0.	-2161.5
1209	14.517	5.0909	0.	-2160.8
1210	14.517	4.9091	0.	-2160.2
1211	14.517	4.7273	0.	-2159.7
1212	14.517	4.5455	0.	-2159.2
1213	14.517	4.3636	0.	-2158.8
1214	14.517	4.1818	0.	-2158.5
1215	14.517	4.	0.	-2158.2
1216	14.517	3.8182	0.	-2158.
1217	14.517	3.6364	0.	-2157.8
1218	14.517	3.4545	0.	-2157.6
1219	14.517	3.2727	0.	-2157.6
1220	14.517	3.0909	0.	-2157.5
1221	14.517	2.9091	0.	-2157.5
1222	14.517	2.7273	0.	-2157.6
1223	14.517	2.5455	0.	-2157.6
1224	14.517	2.3636	0.	-2157.8
1225	14.517	2.1818	0.	-2158.
1226	14.517	2.	0.	-2158.2
1227	14.517	1.8182	0.	-2158.5
1228	14.517	1.6364	0.	-2158.8
1229	14.517	1.4545	0.	-2159.2
1230	14.517	1.2727	0.	-2159.7
1231	14.517	1.0909	0.	-2160.2
1232	14.517	0.90909	0.	-2160.8
1233	14.517	0.72727	0.	-2161.5
1234	14.517	0.54545	0.	-2162.3
1235	14.517	0.36364	0.	-2163.3
1236	14.517	0.18182	0.	-2166.
1237	14.333	5.8182	0.	-2213.1
1238	14.333	5.6364	0.	-2210.4
1239	14.333	5.4545	0.	-2209.3
1240	14.333	5.2727	0.	-2208.5
1241	14.333	5.0909	0.	-2207.8
1242	14.333	4.9091	0.	-2207.1
1243	14.333	4.7273	0.	-2206.6
1244	14.333	4.5455	0.	-2206.1
1245	14.333	4.3636	0.	-2205.6
1246	14.333	4.1818	0.	-2205.3
1247	14.333	4.	0.	-2205.
1248	14.333	3.8182	0.	-2204.7
1249	14.333	3.6364	0.	-2204.5
1250	14.333	3.4545	0.	-2204.4
1251	14.333	3.2727	0.	-2204.3
1252	14.333	3.0909	0.	-2204.2
1253	14.333	2.9091	0.	-2204.2
1254	14.333	2.7273	0.	-2204.3
1255	14.333	2.5455	0.	-2204.4
1256	14.333	2.3636	0.	-2204.5
1257	14.333	2.1818	0.	-2204.7
1258	14.333	2.	0.	-2205.
1259	14.333	1.8182	0.	-2205.3
1260	14.333	1.6364	0.	-2205.6
1261	14.333	1.4545	0.	-2206.1
1262	14.333	1.2727	0.	-2206.6
1263	14.333	1.0909	0.	-2207.1
1264	14.333	0.90909	0.	-2207.8
1265	14.333	0.72727	0.	-2208.5
1266	14.333	0.54545	0.	-2209.3
1267	14.333	0.36364	0.	-2210.4
1268	14.333	0.18182	0.	-2213.1
1269	14.15	5.8182	0.	-2260.4
1270	14.15	5.6364	0.	-2257.7
1271	14.15	5.4545	0.	-2256.6
1272	14.15	5.2727	0.	-2255.7
1273	14.15	5.0909	0.	-2255.
1274	14.15	4.9091	0.	-2254.3
1275	14.15	4.7273	0.	-2253.7
1276	14.15	4.5455	0.	-2253.1
1277	14.15	4.3636	0.	-2252.7
1278	14.15	4.1818	0.	-2252.3
1279	14.15	4.	0.	-2251.9
1280	14.15	3.8182	0.	-2251.7
1281	14.15	3.6364	0.	-2251.5
1282	14.15	3.4545	0.	-2251.3
1283	14.15	3.2727	0.	-2251.2
1284	14.15	3.0909	0.	-2251.1
1285	14.15	2.9091	0.	-2251.1
1286	14.15	2.7273	0.	-2251.2
1287	14.15	2.5455	0.	-2251.3
1288	14.15	2.3636	0.	-2251.5
1289	14.15	2.1818	0.	-2251.7
1290	14.15	2.	0.	-2251.9
1291	14.15	1.8182	0.	-2252.3
1292	14.15	1.6364	0.	-2252.7
1293	14.15	1.4545	0.	-2253.1
1294	14.15	1.2727	0.	-2253.7
1295	14.15	1.0909	0.	-2254.3
1296	14.15	0.90909	0.	-2255.
1297	14.15	0.72727	0.	-2255.7
1298	14.15	0.54545	0.	-2256.6
1299	14.15	0.36364	0.	-2257.7
1300	14.15	0.18182	0.	-2260.4
1301	13.966	5.8182	0.	-2307.9
1302	13.966	5.6364	0.	-2305.1
1303	13.966	5.4545	0.	-2304.
1304	13.966	5.2727	0.	-2303.1
1305	13.966	5.0909	0.	-2302.3
1306	13.966	4.9091	0.	-2301.6
1307	13.966	4.7273	0.	-2301.
1308	13.966	4.5455	0.	-2300.4
1309	13.966	4.3636	0.	-2299.9
1310	13.966	4.1818	0.	-2299.5
1311	13.966	4.	0.	-2299.1
1312	13.966	3.8182	0.	-2298.8
1313	13.966	3.6364	0.	-2298.6
1314	13.966	3.4545	0.	-2298.4
1315	13.966	3.2727	0.	-2298.3
1316	13.966	3.0909	0.	-2298.3
1317	13.966	2.9091	0.	-2298.3
1318	13.966	2.7273	0.	-2298.3
1319	13.966	2.5455	0.	-2298.4
1320	13.966	2.3636	0.	-2298.6
1321	13.966	2.1818	0.	-2298.8
1322	13.966	2.	0.	-2299.1
1323	13.966	1.8182	0.	-2299.5
1324	13.966	1.6364	0.	-2299.9
1325	13.966	1.4545	0.	-2300.4
1326	13.966	1.2727	0.	-2301.
1327	13.966	1.0909	0.	-2301.6
1328	13.966	0.90909	0.	-2302.3
1329	13.966	0.72727	0.	-2303.1
1330	13.966	0.54545	0.	-2304.
1331	13.966	0.36364	0.	-2305.1
1332	13.966	0.18182	0.	-2307.9
1333	13.782	5.8182	0.	-2355.5
1334	13.782	5.6364	0.	-2352.8
1335	13.782	5.4545	0.	-2351.7
1336	13.782	5.2727	0.	-2350.7
1337	13.782	5.0909	0.	-2349.9
1338	13.782	4.9091	0.	-2349.1
1339	13.782	4.7273	0.	-2348.5
1340	13.782	4.5455	0.	-2347.9
1341	13.782	4.3636	0.	-2347.3
1342	13.782	4.1818	0.	-2346.9
1343	13.782	4.	0.	-2346.5
1344	13.782	3.8182	0.	-2346.2
1345	13.782	3.6364	0.	-2345.9
1346	13.782	3.4545	0.	-2345.8
1347	13.782	3.2727	0.	-2345.6
1348	13.782	3.0909	0.	-2345.6
1349	13.782	2.9091	0.	-2345.6
1350	13.782	2.7273	0.	-2345.6
1351	13.782	2.5455	0.	-2345.8
1352	13.782	2.3636	0.	-2345.9
1353	13.782	2.1818	0.	-2346.2
1354	13.782	2.	0.	-2346.5
1355	13.782	1.8182	0.	-2346.9
1356	13.782	1.6364	0.	-2347.3
1357	13.782	1.4545	0.	-2347.9
1358	13.782	1.2727	0.	-2348.5
1359	13.782	1.0909	0.	-2349.1
1360	13.782	0.90909	0.	-2349.9
1361	13.782	0.72727	0.	-2350.7
1362	13.782	0.54545	0.	-2351.7
1363	13.782	0.36364	0.	-2352.8
1364	13.782	0.18182	0.	-2355.5
1365	13.598	5.8182	0.	-2403.4
1366	13.598	5.6364	0.	-2400.6
1367	13.598	5.4545	0.	-2399.5
1368	13.598	5.2727	0.	-2398.5
1369	13.598	5.0909	0.	-2397.6
1370	13.598	4.9091	0.	-2396.9
1371	13.598	4.7273	0.	-2396.1
1372	13.598	4.5455	0.	-2395.5
1373	13.598	4.3636	0.	-2395.
1374	13.598	4.1818	0.	-2394.5
1375	13.598	4.	0.	-2394.1
1376	13.598	3.8182	0.	-2393.8
1377	13.598	3.6364	0.	-2393.5
1378	13.598	3.4545	0.	-2393.3
1379	13.598	3.2727	0.	-2393.2
1380	13.598	3.0909	0.	-2393.1
1381	13.598	2.9091	0.	-2393.1
1382	13.598	2.7273	0.	-2393.2
1383	13.598	2.5455	0.	-2393.3
1384	13.598	2.3636	0.	-2393.5
1385	13.598	2.1818	0.	-2393.8
1386	13.598	2.	0.	-2394.1
1387	13.598	1.8182	0.	-2394.5
1388	13.598	1.6364	0.	-2395.
1389	13.598	1.4545	0.	-2395.5
1390	13.598	1.2727	0.	-2396.1
1391	13.598	1.0909	0.	-2396.9
1392	13.598	0.90909	0.	-2397.6
1393	13.598	0.72727	0.	-2398.5
1394	13.598	0.54545	0.	-2399.5
1395	13.598	0.36364	0.	-2400.6
1396	13.598	0.18182	0.	-2403.4
1397	13.415	5.8182	0.	-2451.5
1398	13.415	5.6364	0.	-2448.7
1399	13.415	5.4545	0.	-2447.5
1400	13.415	5.2727	0.	-2446.5
1401	13.415	5.0909	0.	-2445.6
1402	13.415	4.9091	0.	-2444.8
1403	13.415	4.7273	0.	-2444.
1404	13.415	4.5455	0.	-2443.4
1405	13.415	4.3636	0.	-2442.8
1406	13.415	4.1818	0.	-2442.3
1407	13.415	4.	0.	-2441.9
1408	13.415	3.8182	0.	-2441.5
1409	13.415	3.6364	0.	-2441.2
1410	13.415	3.4545	0.	-2441.
1411	13.415	3.2727	0.	-2440.9
1412	13.415	3.0909	0.	-2440.8
1413	13.415	2.9091	0.	-2440.8
1414	13.415	2.7273	0.	-2440.9
1415	13.415	2.5455	0.	-2441.
1416	13.415	2.3636	0.	-2441.2
1417	13.415	2.1818	0.	-2441.5
1418	13.415	2.	0.	-2441.9
1419	13.415	1.8182	0.	-2442.3
1420	13.415	1.6364	0.	-2442.8
1421	13.415	1.4545	0.	-2443.4
1422	13.415	1.2727	0.	-2444.
1423	13.415	1.0909	0.	-2444.8
1424	13.415	0.90909	0.	-2445.6
1425	13.415	0.72727	0.	-2446.5
1426	13.415	0.54545	0.	-2447.5
1427	13.415	0.36364	0.	-2448.7
1428	13.415	0.18182	0.	-2451.5
1429	13.231	5.8182	0.	-2499.7
1430	13.231	5.6364	0.	-2496.9
1431	13.231	5.4545	0.	-2495.7
1432	13.231	5.2727	0.	-2494.7
1433	13.231	5.0909	0.	-2493.7
1434	13.231	4.9091	0.	-2492.9
1435	13.231	4.7273	0.	-2492.1
1436	13.231	4.5455	0.	-2491.4
1437	13.231	4.3636	0.	-2490.8
1438	13.231	4.1818	0.	-2490.3
1439	13.231	4.	0.	-2489.8
1440	13.231	3.8182	0.	-2489.5
1441	13.231	3.6364	0.	-2489.2
1442	13.231	3.4545	0.	-2488.9
1443	13.231	3.2727	0.	-2488.8
1444	13.231	3.0909	0.	-2488.7
1445	13.231	2.9091	0.	-2488.7
1446	13.231	2.7273	0.	-2488.8
1447	13.231	2.5455	0.	-2488.9
1448	13.231	2.3636	0.	-2489.2
1449	13.231	2.1818	0.	-2489.5
1450	13.231	2.	0.	-2489.8
1451	13.231	1.8182	0.	-2490.3
1452	13.231	1.6364	0.	-2490.8
1453	13.231	1.4545	0.	-2491.4
1454	13.231	1.2727	0.	-2492.1
1455	13.231	1.0909	0.	-2492.9
1456	13.231	0.90909	0.	-2493.7
1457	13.231	0.72727	0.	-2494.7
1458	13.231	0.54545	0.	-2495.7
1459	13.231	0.36364	0.	-2496.9
1460	13.231	0.18182	0.	-2499.7
1461	13.047	5.8182	0.	-2548.1
1462	13.047	5.6364	0.	-2545.3
1463	13.047	5.4545	0.	-2544.1
1464	13.047	5.2727	0.	-2543.
1465	13.047	5.0909	0.	-2542.1
1466	13.047	4.9091	0.	-2541.2
1467	13.047	4.7273	0.	-2540.4
1468	13.047	4.5455	0.	-2539.7
1469	13.047	4.3636	0.	-2539.
1470	13.047	4.1818	0.	-2538.5
1471	13.047	4.	0.	-2538.
1472	13.047	3.8182	0.	-2537.6
1473	13.047	3.6364	0.	-2537.3
1474	13.047	3.4545	0.	-2537.1
1475	13.047	3.2727	0.	-2536.9
1476	13.047	3.0909	0.	-2536.8
1477	13.047	2.9091	0.	-2536.8
1478	13.047	2.7273	0.	-2536.9
1479	13.047	2.5455	0.	-2537.1
1480	13.047	2.3636	0.	-2537.3
1481	13.047	2.1818	0.	-2537.6
1482	13.047	2.	0.	-2538.
1483	13.047	1.8182	0.	-2538.5
1484	13.047	1.6364	0.	-2539.
1485	13.047	1.4545	0.	-2539.7
1486	13.047	1.2727	0.	-2540.4
1487	13.047	1.0909	0.	-2541.2
1488	13.047	0.90909	0.	-2542.1
1489	13.047	0.72727	0.	-2543.
1490	13.047	0.54545	0.	-2544.1
1491	13.047	0.36364	0.	-2545.3
1492	13.047	0.18182	0.	-2548.1
1493	12.863	5.8182	0.	-2596.8
1494	12.863	5.6364	0.	-2594.
1495	12.863	5.4545	0.	-2592.7
1496	12.863	5.2727	0.	-2591.6
1497	12.863	5.0909	0.	-2590.6
1498	12.863	4.9091	0.	-2589.7
1499	12.863	4.7273	0.	-2588.8
1500	12.863	4.5455	0.	-2588.1
1501	12.863	4.3636	0.	-2587.4
1502	12.863	4.1818	0.	-2586.8
1503	12.863	4.	0.	-2586.4
1504	12.863	3.8182	0.	-2585.9
1505	12.863	3.6364	0.	-2585.6
1506	12.863	3.4545	0.	-2585.4
1507	12.863	3.2727	0.	-2585.2
1508	12.863	3.0909	0.	-2585.1
1509	12.863	2.9091	0.	-2585.1
1510	12.863	2.7273	0.	-2585.2
1511	12.863	2.5455	0.	-2585.4
1512	12.863	2.3636	0.	-2585.6
1513	12.863	2.1818	0.	-2585.9
1514	12.863	2.	0.	-2586.4
1515	12.863	1.8182	0.	-2586.8
1516	12.863	1.6364	0.	-2587.4
1517	12.863	1.4545	0.	-2588.1
1518	12.863	1.2727	0.	-2588.8
1519	12.863	1.0909	0.	-2589.7
1520	12.863	0.90909	0.	-2590.6
1521	12.863	0.72727	0.	-2591.6
1522	12.863	0.54545	0.	-2592.7
1523	12.863	0.36364	0.	-2594.
1524	12.863	0.18182	0.	-2596.8
1525	12.679	5.8182	0.	-2645.6
1526	12.679	5.6364	0.	-2642.8
1527	12.679	5.4545	0.	-2641.5
1528	12.679	5.2727	0.	-2640.4
1529	12.679	5.0909	0.	-2639.3
1530	12.679	4.9091	0.	-2638.4
1531	12.679	4.7273	0.	-2637.5
1532	12.679	4.5455	0.	-2636.7
1533	12.679	4.3636	0.	-2636.
1534	12.679	4.1818	0.	-2635.4
1535	12.679	4.	0.	-2634.9
1536	12.679	3.8182	0.	-2634.5
1537	12.679	3.6364	0.	-2634.1
1538	12.679	3.4545	0.	-2633.9
1539	12.679	3.2727	0.	-2633.7
1540	12.679	3.0909	0.	-2633.6
1541	12.679	2.9091	0.	-2633.6
1542	12.679	2.7273	0.	-2633.7
1543	12.679	2.5455	0.	-2633.9
1544	12.679	2.3636	0.	-2634.1
1545	12.679	2.1818	0.	-2634.5
1546	12.679	2.	0.	-2634.9
1547	12.679	1.8182	0.	-2635.4
1548	12.679	1.6364	0.	-2636.
1549	12.679	1.4545	0.	-2636.7
1550	12.679	1.2727	0.	-2637.5
1551	12.679	1.0909	0.	-2638.4
1552	12.679	0.90909	0.	-2639.3
1553	12.679	0.72727	0.	-2640.4
1554	12.679	0.54545	0.	-2641.5
1555	12.679	0.36364	0.	-2642.8
1556	12.679	0.18182	0.	-2645.6
1557	12.496	5.8182	0.	-2694.7
1558	12.496	5.6364	0.	-2691.8
1559	12.496	5.4545	0.	-2690.5
1560	12.496	5.2727	0.	-2689.3
1561	12.496	5.0909	0.	-2688.2
1562	12.496	4.9091	0.	-2687.2
1563	12.496	4.7273	0.	-2686.3
1564	12.496	4.5455	0.	-2685.5
1565	12.496	4.3636	0.	-2684.8
1566	12.496	4.1818	0.	-2684.2
1567	12.496	4.	0.	-2683.6
1568	12.496	3.8182	0.	-2683.2
1569	12.496	3.6364	0.	-2682.8
1570	12.496	3.4545	0.	-2682.6
1571	12.496	3.2727	0.	-2682.4
1572	12.496	3.0909	0.	-2682.3
1573	12.496	2.9091	0.	-2682.3
1574	12.496	2.7273	0.	-2682.4
1575	12.496	2.5455	0.	-2682.6
1576	12.496	2.3636	0.	-2682.8
1577	12.496	2.1818	0.	-2683.2
1578	12.496	2.	0.	-2683.6
1579	12.496	1.8182	0.	-2684.2
1580	12.496	1.6364	0.	-2684.8
1581	12.496	1.4545	0.	-2685.5
1582	12.496	1.2727	0.	-2686.3
1583	12.496	1.0909	0.	-2687.2
1584	12.496	0.90909	0.	-2688.2
1585	12.496	0.72727	0.	-2689.3
1586	12.496	0.54545	0.	-2690.5
1587	12.496	0.36364	0.	-2691.8
1588	12.496	0.18182	0.	-2694.7
1589	12.312	5.8182	0.	-2743.9
1590	12.312	5.6364	0.	-2741.1
1591	12.312	5.4545	0.	-2739.7
1592	12.312	5.2727	0.	-2738.5
1593	12.312	5.0909	0.	-2737.4
1594	12.312	4.9091	0.	-2736.3
1595	12.312	4.7273	0.	-2735.4
1596	12.312	4.5455	0.	-2734.6
1597	12.312	4.3636	0.	-2733.8
1598	12.312	4.1818	0.	-2733.1
1599	12.312	4.	0.	-2732.6
1600	12.312	3.8182	0.	-2732.1
1601	12.312	3.6364	0.	-2731.7
1602	12.312	3.4545	0.	-2731.4
1603	12.312	3.2727	0.	-2731.3
1604	12.312	3.0909	0.	-2731.2
1605	12.312	2.9091	0.	-2731.2
1606	12.312	2.7273	0.	-2731.3
1607	12.312	2.5455	0.	-2731.4
1608	12.312	2.3636	0.	-2731.7
1609	12.312	2.1818	0.	-2732.1
1610	12.312	2.	0.	-2732.6
1611	12.312	1.8182	0.	-2733.1
1612	12.312	1.6364	0.	-2733.8
1613	12.312	1.4545	0.	-2734.6
1614	12.312	1.2727	0.	-2735.4
1615	12.312	1.0909	0.	-2736.3
1616	12.312	0.90909	0.	-2737.4
1617	12.312	0.72727	0.	-2738.5
1618	12.312	0.54545	0.	-2739.7
1619	12.312	0.36364	0.	-2741.1
1620	12.312	0.18182	0.	-2743.9
1621	12.128	5.8182	0.	-2793.4
1622	12.128	5.6364	0.	-2790.5
1623	12.128	5.4545	0.	-2789.1
1624	12.128	5.2727	0.	-2787.8
1625	12.128	5.0909	0.	-2786.7
1626	12.128	4.9091	0.	-2785.6
1627	12.128	4.7273	0.	-2784.6
1628	12.128	4.5455	0.	-2783.8
1629	12.128	4.3636	0.	-2783.
1630	12.128	4.1818	0.	-2782.3
1631	12.128	4.	0.	-2781.7
1632	12.128	3.8182	0.	-2781.2
1633	12.128	3.6364	0.	-2780.8
1634	12.128	3.4545	0.	-2780.5
1635	12.128	3.2727	0.	-2780.3
1636	12.128	3.0909	0.	-2780.2
1637	12.128	2.9091	0.	-2780.2
1638	12.128	2.7273	0.	-2780.3
1639	12.128	2.5455	0.	-2780.5
1640	12.128	2.3636	0.	-2780.8
1641	12.128	2.1818	0.	-2781.2
1642	12.128	2.	0.	-2781.7
1643	12.128	1.8182	0.	-2782.3
1644	12.128	1.6364	0.	-2783.
1645	12.128	1.4545	0.	-2783.8
1646	12.128	1.2727	0.	-2784.6
1647	12.128	1.0909	0.	-2785.6
1648	12.128	0.90909	0.	-2786.7
1649	12.128	0.72727	0.	-2787.8
1650	12.128	0.54545	0.	-2789.1
1651	12.128	0.36364	0.	-2790.5
1652	12.128	0.18182	0.	-2793.4
1653	11.944	5.8182	0.	-2843.
1654	11.944	5.6364	0.	-2840.1
1655	11.944	5.4545	0.	-2838.7
1656	11.944	5.2727	0.	-2837.4
1657	11.944	5.0909	0.	-2836.2
1658	11.944	4.9091	0.	-2835.1
1659	11.944	4.7273	0.	-2834.1
1660	11.944	4.5455	0.	-2833.2
1661	11.944	4.3636	0.	-2832.4
1662	11.944	4.1818	0.	-2831.6
1663	11.944	4.	0.	-2831.
1664	11.944	3.8182	0.	-2830.5
1665	11.944	3.6364	0.	-2830.1
1666	11.944	3.4545	0.	-2829.8
1667	11.944	3.2727	0.	-2829.6
1668	11.944	3.0909	0.	-2829.5
1669	11.944	2.9091	0.	-2829.5
1670	11.944	2.7273	0.	-2829.6
1671	11.944	2.5455	0.	-2829.8
1672	11.944	2.3636	0.	-2830.1
1673	11.944	2.1818	0.	-2830.5
1674	11.944	2.	0.	-2831.
1675	11.944	1.8182	0.	-2831.6
1676	11.944	1.6364	0.	-2832.4
1677	11.944	1.4545	0.	-2833.2
1678	11.944	1.2727	0.	-2834.1
1679	11.944	1.0909	0.	-2835.1
1680	11.944	0.90909	0.	-2836.2
1681	11.944	0.72727	0.	-2837.4
1682	11.944	0.54545	0.	-2838.7
1683	11.944	0.36364	0.	-2840.1
1684	11.944	0.18182	0.	-2843.
1685	11.761	5.8182	0.	-2892.9
1686	11.761	5.6364	0.	-2890.
1687	11.761	5.4545	0.	-2888.5
1688	11.761	5.2727	0.	-2887.2
1689	11.761	5.0909	0.	-2885.9
1690	11.761	4.9091	0.	-2884.8
1691	11.761	4.7273	0.	-2883.7
1692	11.761	4.5455	0.	-2882.8
1693	11.761	4.3636	0.	-2881.9
1694	11.761	4.1818	0.	-2881.2
1695	11.761	4.	0.	-2880.5
1696	11.761	3.8182	0.	-2880.
1697	11.761	3.6364	0.	-2879.5
1698	11.761	3.4545	0.	-2879.2
1699	11.761	3.2727	0.	-2879.
1700	11.761	3.0909	0.	-2878.9
1701	11.761	2.9091	0.	-2878.9
1702	11.761	2.7273	0.	-2879.
1703	11.761	2.5455	0.	-2879.2
1704	11.761	2.3636	0.	-2879.5
1705	11.761	2.1818	0.	-2880.
1706	11.761	2.	0.	-2880.5
1707	11.761	1.8182	0.	-2881.2
1708	11.761	1.6364	0.	-2881.9
1709	11.761	1.4545	0.	-2882.8
1710	11.761	1.2727	0.	-2883.7
1711	11.761	1.0909	0.	-2884.8
1712	11.761	0.90909	0.	-2885.9
1713	11.761	0.72727	0.	-2887.2
1714	11.761	0.54545	0.	-2888.5
1715	11.761	0.36364	0.	-2890.
1716	11.761	0.18182	0.	-2892.9
1717	11.577	5.8182	0.	-2943.
1718	11.577	5.6364	0.	-2940.1
1719	11.577	5.4545	0.	-2938.5
1720	11.577	5.2727	0.	-2937.1
1721	11.577	5.0909	0.	-2935.8
1722	11.577	4.9091	0.	-2934.6
1723	11.577	4.7273	0.	-2933.6
1724	11.577	4.5455	0.	-2932.6
1725	11.577	4.3636	0.	-2931.7
1726	11.577	4.1818	0.	-2930.9
1727	11.577	4.	0.	-2930.2
1728	11.577	3.8182	0.	-2929.6
1729	11.577	3.6364	0.	-2929.2
1730	11.577	3.4545	0.	-2928.8
1731	11.577	3.2727	0.	-2928.6
1732	11.577	3.0909	0.	-2928.5
1733	11.577	2.9091	0.	-2928.5
1734	11.577	2.7273	0.	-2928.6
1735	11.577	2.5455	0.	-2928.8
1736	11.577	2.3636	0.	-2929.2
1737	11.577	2.1818	0.	-2929.6
1738	11.577	2.	0.	-2930.2
1739	11.577	1.8182	0.	-2930.9
1740	11.577	1.6364	0.	-2931.7
1741	11.577	1.4545	0.	-2932.6
1742	11.577	1.2727	0.	-2933.6
1743	11.577	1.0909	0.	-2934.6
1744	11.577	0.90909	0.	-2935.8
1745	11.577	0.72727	0.	-2937.1
1746	11.577	0.54545	0.	-2938.5
1747	11.577	0.36364	0.	-2940.1
1748	11.577	0.18182	0.	-2943.
1749	11.393	5.8182	0.	-2993.3
1750	11.393	5.6364	0.	-2990.3
1751	11.393	5.4545	0.	-2988.7
1752	11.393	5.2727	0.	-2987.3
1753	11.393	5.0909	0.	-2986.
1754	11.393	4.9091	0.	-2984.7
1755	11.393	4.7273	0.	-2983.6
1756	11.393	4.5455	0.	-2982.5
1757	11.393	4.3636	0.	-2981.6
1758	11.393	4.1818	0.	-2980.8
1759	11.393	4.	0.	-2980.1
1760	11.393	3.8182	0.	-2979.5
1761	11.393	3.6364	0.	-2979.
1762	11.393	3.4545	0.	-2978.6
1763	11.393	3.2727	0.	-2978.4
1764	11.393	3.0909	0.	-2978.3
1765	11.393	2.9091	0.	-2978.3
1766	11.393	2.7273	0.	-2978.4
1767	11.393	2.5455	0.	-2978.6
1768	11.393	2.3636	0.	-2979.
1769	11.393	2.1818	0.	-2979.5
1770	11.393	2.	0.	-2980.1
1771	11.393	1.8182	0.	-2980.8
1772	11.393	1.6364	0.	-2981.6
1773	11.393	1.4545	0.	-2982.5
1774	11.393	1.2727	0.	-2983.6
1775	11.393	1.0909	0.	-2984.7
1776	11.393	0.90909	0.	-2986.
1777	11.393	0.72727	0.	-2987.3
1778	11.393	0.54545	0.	-2988.7
1779	11.393	0.36364	0.	-2990.3
1780	11.393	0.18182	0.	-2993.3
1781	11.209	5.8182	0.	-3043.8
1782	11.209	5.6364	0.	-3040.8
1783	11.209	5.4545	0.	-3039.2
1784	11.209	5.2727	0.	-3037.7
1785	11.209	5.0909	0.	-3036.3
1786	11.209	4.9091	0.	-3035.
1787	11.209	4.7273	0.	-3033.8
1788	11.209	4.5455	0.	-3032.7
1789	11.209	4.3636	0.	-3031.7
1790	11.209	4.1818	0.	-3030.9
1791	11.209	4.	0.	-3030.1
1792	11.209	3.8182	0.	-3029.5
1793	11.209	3.6364	0.	-3029.
1794	11.209	3.4545	0.	-3028.6
1795	11.209	3.2727	0.	-3028.4
1796	11.209	3.0909	0.	-3028.2
1797	11.209	2.9091	0.	-3028.2
1798	11.209	2.7273	0.	-3028.4
1799	11.209	2.5455	0.	-3028.6
1800	11.209	2.3636	0.	-3029.
1801	11.209	2.1818	0.	-3029.5
1802	11.209	2.	0.	-3030.1
1803	11.209	1.8182	0.	-3030.9
1804	11.209	1.6364	0.	-3031.7
1805	11.209	1.4545	0.	-3032.7
1806	11.209	1.2727	0.	-3033.8
1807	11.209	1.0909	0.	-3035.
1808	11.209	0.90909	0.	-3036.3
1809	11.209	0.72727	0.	-3037.7
1810	11.209	0.54545	0.	-3039.2
1811	11.209	0.36364	0.	-3040.8
1812	11.209	0.18182	0.	-3043.8
1813	11.026	5.8182	0.	-3094.6
1814	11.026	5.6364	0.	-3091.5
1815	11.026	5.4545	0.	-3089.8
1816	11.026	5.2727	0.	-3088.3
1817	11.026	5.0909	0.	-3086.8
1818	11.026	4.9091	0.	-3085.5
1819	11.026	4.7273	0.	-3084.2
1820	11.026	4.5455	0.	-3083.1
1821	11.026	4.3636	0.	-3082.1
1822	11.026	4.1818	0.	-3081.2
1823	11.026	4.	0.	-3080.4
1824	11.026	3.8182	0.	-3079.7
1825	11.026	3.6364	0.	-3079.2
1826	11.026	3.4545	0.	-3078.8
1827	11.026	3.2727	0.	-3078.5
1828	11.026	3.0909	0.	-3078.4
1829	11.026	2.9091	0.	-3078.4
1830	11.026	2.7273	0.	-3078.5
1831	11.026	2.5455	0.	-3078.8
1832	11.026	2.3636	0.	-3079.2
1833	11.026	2.1818	0.	-3079.7
1834	11.026	2.	0.	-3080.4
1835	11.026	1.8182	0.	-3081.2
1836	11.026	1.6364	0.	-3082.1
1837	11.026	1.4545	0.	-3083.1
1838	11.026	1.2727	0.	-3084.2
1839	11.026	1.0909	0.	-3085.5
1840	11.026	0.90909	0.	-3086.8
1841	11.026	0.72727	0.	-3088.3
1842	11.026	0.54545	0.	-3089.8
1843	11.026	0.36364	0.	-3091.5
1844	11.026	0.18182	0.	-3094.6
1845	10.842	5.8182	0.	-3145.6
1846	10.842	5.6364	0.	-3142.5
1847	10.842	5.4545	0.	-3140.7
1848	10.842	5.2727	0.	-3139.1
1849	10.842	5.0909	0.	-3137.6
1850	10.842	4.9091	0.	-3136.1
1851	10.842	4.7273	0.	-3134.8
1852	10.842	4.5455	0.	-3133.6
1853	10.842	4.3636	0.	-3132.6
1854	10.842	4.1818	0.	-3131.6
1855	10.842	4.	0.	-3130.8
1856	10.842	3.8182	0.	-3130.1
1857	10.842	3.6364	0.	-3129.5
1858	10.842	3.4545	0.	-3129.1
1859	10.842	3.2727	0.	-3128.8
1860	10.842	3.0909	0.	-3128.7
1861	10.842	2.9091	0.	-3128.7
1862	10.842	2.7273	0.	-3128.8
1863	10.842	2.5455	0.	-3129.1
1864	10.842	2.3636	0.	-3129.5
1865	10.842	2.1818	0.	-3130.1
1866	10.842	2.	0.	-3130.8
1867	10.842	1.8182	0.	-3131.6
1868	10.842	1.6364	0.	-3132.6
1869	10.842	1.4545	0.	-3133.6
1870	10.842	1.2727	0.	-3134.8
1871	10.842	1.0909	0.	-3136.1
1872	10.842	0.90909	0.	-3137.6
1873	10.842	0.72727	0.	-3139.1
1874	10.842	0.54545	0.	-3140.7
1875	10.842	0.36364	0.	-3142.5
1876	10.842	0.18182	0.	-3145.6
1877	10.658	5.8182	0.	-3196.7
1878	10.658	5.6364	0.	-3193.6
1879	10.658	5.4545	0.	-3191.8
1880	10.658	5.2727	0.	-3190.1
1881	10.658	5.0909	0.	-3188.5
1882	10.658	4.9091	0.	-3187.
1883	10.658	4.7273	0.	-3185.6
1884	10.658	4.5455	0.	-3184.4
1885	10.658	4.3636	0.	-3183.3
1886	10.658	4.1818	0.	-3182.3
1887	10.658	4.	0.	-3181.4
1888	10.658	3.8182	0.	-3180.7
1889	10.658	3.6364	0.	-3180.1
1890	10.658	3.4545	0.	-3179.6
1891	10.658	3.2727	0.	-3179.3
1892	10.658	3.0909	0.	-3179.2
1893	10.658	2.9091	0.	-3179.2
1894	10.658	2.7273	0.	-3179.3
1895	10.658	2.5455	0.	-3179.6
1896	10.658	2.3636	0.	-3180.1
1897	10.658	2.1818	0.	-3180.7
1898	10.658	2.	0.	-3181.4
1899	10.658	1.8182	0.	-3182.3
1900	10.658	1.6364	0.	-3183.3
1901	10.658	1.4545	0.	-3184.4
1902	10.658	1.2727	0.	-3185.6
1903	10.658	1.0909	0.	-3187.
1904	10.658	0.90909	0.	-3188.5
1905	10.658	0.72727	0.	-3190.1
1906	10.658	0.54545	0.	-3191.8
1907	10.658	0.36364	0.	-3193.6
1908	10.658	0.18182	0.	-3196.7
1909	10.474	5.8182	0.	-3248.2
1910	10.474	5.6364	0.	-3245.
1911	10.474	5.4545	0.	-3243.1
1912	10.474	5.2727	0.	-3241.3
1913	10.474	5.0909	0.	-3239.6
1914	10.474	4.9091	0.	-3238.1
1915	10.474	4.7273	0.	-3236.6
1916	10.474	4.5455	0.	-3235.3
1917	10.474	4.3636	0.	-3234.1
1918	10.474	4.1818	0.	-3233.1
1919	10.474	4.	0.	-3232.2
1920	10.474	3.8182	0.	-3231.4
1921	10.474	3.6364	0.	-3230.8
1922	10.474	3.4545	0.	-3230.3
1923	10.474	3.2727	0.	-3230.
1924	10.474	3.0909	0.	-3229.8
1925	10.474	2.9091	0.	-3229.8
1926	10.474	2.7273	0.	-3230.
1927	10.474	2.5455	0.	-3230.3
1928	10.474	2.3636	0.	-3230.8
1929	10.474	2.1818	0.	-3231.4
1930	10.474	2.	0.	-3232.2
1931	10.474	1.8182	0.	-3233.1
1932	10.474	1.6364	0.	-3234.1
1933	10.474	1.4545	0.	-3235.3
1934	10.474	1.2727	0.	-3236.6
1935	10.474	1.0909	0.	-3238.1
1936	10.474	0.90909	0.	-3239.6
1937	10.474	0.72727	0.	-3241.3
1938	10.474	0.54545	0.	-3243.1
1939	10.474	0.36364	0.	-3245.
1940	10.474	0.18182	0.	-3248.2
1941	10.291	5.8182	0.	-3299.8
1942	10.291	5.6364	0.	-3296.6
1943	10.291	5.4545	0.	-3294.6
1944	10.291	5.2727	0.	-3292.7
1945	10.291	5.0909	0.	-3291.
1946	10.291	4.9091	0.	-3289.4
1947	10.291	4.7273	0.	-3287.8
1948	10.291	4.5455	0.	-3286.5
1949	10.291	4.3636	0.	-3285.2
1950	10.291	4.1818	0.	-3284.1
1951	10.291	4.	0.	-3283.1
1952	10.291	3.8182	0.	-3282.3
1953	10.291	3.6364	0.	-3281.7
1954	10.291	3.4545	0.	-3281.2
1955	10.291	3.2727	0.	-3280.8
1956	10.291	3.0909	0.	-3280.7
1957	10.291	2.9091	0.	-3280.7
1958	10.291	2.7273	0.	-3280.8
1959	10.291	2.5455	0.	-3281.2
1960	10.291	2.3636	0.	-3281.7
1961	10.291	2.1818	0.	-3282.3
1962	10.291	2.	0.	-3283.1
1963	10.291	1.8182	0.	-3284.1
1964	10.291	1.6364	0.	-3285.2
1965	10.291	1.4545	0.	-3286.5
1966	10.291	1.2727	0.	-3287.8
1967	10.291	1.0909	0.	-3289.4
1968	10.291	0.90909	0.	-3291.
1969	10.291	0.72727	0.	-3292.7
1970	10.291	0.54545	0.	-3294.6
1971	10.291	0.36364	0.	-3296.6
1972	10.291	0.18182	0.	-3299.8
1973	10.107	5.8182	0.	-3351.7
1974	10.107	5.6364	0.	-3348.4
1975	10.107	5.4545	0.	-3346.3
1976	10.107	5.2727	0.	-3344.4
1977	10.107	5.0909	0.	-3342.6
1978	10.107	4.9091	0.	-3340.8
1979	10.107	4.7273	0.	-3339.2
1980	10.107	4.5455	0.	-3337.8
1981	10.107	4.3636	0.	-3336.5
1982	10.107	4.1818	0.	-3335.3
1983	10.107	4.	0.	-3334.3
1984	10.107	3.8182	0.	-3333.4
1985	10.107	3.6364	0.	-3332.7
1986	10.107	3.4545	0.	-3332.2
1987	10.107	3.2727	0.	-3331.8
1988	10.107	3.0909	0.	-3331.6
1989	10.107	2.9091	0.	-3331.6
1990	10.107	2.7273	0.	-3331.8
1991	10.107	2.5455	0.	-3332.2
1992	10.107	2.3636	0.	-3332.7
1993	10.107	2.1818	0.	-3333.4
1994	10.107	2.	0.	-3334.3
1995	10.107	1.8182	0.	-3335.3
1996	10.107	1.6364	0.	-3336.5
1997	10.107	1.4545	0.	-3337.8
1998	10.107	1.2727	0.	-3339.2
1999	10.107	1.0909	0.	-3340.8
2000	10.107	0.90909	0.	-3342.6
2001	10.107	0.72727	0.	-3344.4
2002	10.107	0.54545	0.	-3346.3
2003	10.107	0.36364	0.	-3348.4
2004	10.107	0.18182	0.	-3351.7
2005	9.9231	5.8182	0.	-3403.9
2006	9.9231	5.6364	0.	-3400.5
2007	9.9231	5.4545	0.	-3398.3
2008	9.9231	5.2727	0.	-3396.3
2009	9.9231	5.0909	0.	-3394.3
2010	9.9231	4.9091	0.	-3392.5
2011	9.9231	4.7273	0.	-3390.8
2012	9.9231	4.5455	0.	-3389.3
2013	9.9231	4.3636	0.	-3387.9
2014	9.9231	4.1818	0.	-3386.6
2015	9.9231	4.	0.	-3385.6
2016	9.9231	3.8182	0.	-3384.6
2017	9.9231	3.6364	0.	-3383.9
2018	9.9231	3.4545	0.	-3383.4
2019	9.9231	3.2727	0.	-3383.
2020	9.9231	3.0909	0.	-3382.8
2021	9.9231	2.9091	0.	-3382.8
2022	9.9231	2.7273	0.	-3383.
2023	9.9231	2.5455	0.	-3383.4
2024	9.9231	2.3636	0.	-3383.9
2025	9.9231	2.1818	0.	-3384.6
2026	9.9231	2.	0.	-3385.6
2027	9.9231	1.8182	0.	-3386.6
2028	9.9231	1.6364	0.	-3387.9
2029	9.9231	1.4545	0.	-3389.3
2030	9.9231	1.2727	0.	-3390.8
2031	9.9231	1.0909	0.	-3392.5
2032	9.9231	0.90909	0.	-3394.3
2033	9.9231	0.72727	0.	-3396.3
2034	9.9231	0.54545	0.	-3398.3
2035	9.9231	0.36364	0.	-3400.5
2036	9.9231	0.18182	0.	-3403.9
2037	9.7393	5.8182	0.	-3456.2
2038	9.7393	5.6364	0.	-3452.8
2039	9.7393	5.4545	0.	-3450.5
2040	9.7393	5.2727	0.	-3448.4
2041	9.7393	5.0909	0.	-3446.3
2042	9.7393	4.9091	0.	-3444.4
2043	9.7393	4.7273	0.	-3442.6
2044	9.7393	4.5455	0.	-3441.
2045	9.7393	4.3636	0.	-3439.5
2046	9.7393	4.1818	0.	-3438.2
2047	9.7393	4.	0.	-3437.
2048	9.7393	3.8182	0.	-3436.1
2049	9.7393	3.6364	0.	-3435.3
2050	9.7393	3.4545	0.	-3434.7
2051	9.7393	3.2727	0.	-3434.3
2052	9.7393	3.0909	0.	-3434.1
2053	9.7393	2.9091	0.	-3434.1
2054	9.7393	2.7273	0.	-3434.3
2055	9.7393	2.5455	0.	-3434.7
2056	9.7393	2.3636	0.	-3435.3
2057	9.7393	2.1818	0.	-3436.1
2058	9.7393	2.	0.	-3437.
2059	9.7393	1.8182	0.	-3438.2
2060	9.7393	1.6364	0.	-3439.5
2061	9.7393	1.4545	0.	-3441.
2062	9.7393	1.2727	0.	-3442.6
2063	9.7393	1.0909	0.	-3444.4
2064	9.7393	0.90909	0.	-3446.3
2065	9.7393	0.72727	0.	-3448.4
2066	9.7393	0.54545	0.	-3450.5
2067	9.7393	0.36364	0.	-3452.8
2068	9.7393	0.18182	0.	-3456.2
2069	9.5556	5.8182	0.	-3508.9
2070	9.5556	5.6364	0.	-3505.4
2071	9.5556	5.4545	0.	-3502.9
2072	9.5556	5.2727	0.	-3500.7
2073	9.5556	5.0909	0.	-3498.5
2074	9.5556	4.9091	0.	-3496.5
2075	9.5556	4.7273	0.	-3494.6
2076	9.5556	4.5455	0.	-3492.9
2077	9.5556	4.3636	0.	-3491.3
2078	9.5556	4.1818	0.	-3489.9
2079	9.5556	4.	0.	-3488.7
2080	9.5556	3.8182	0.	-3487.6
2081	9.5556	3.6364	0.	-3486.8
2082	9.5556	3.4545	0.	-3486.2
2083	9.5556	3.2727	0.	-3485.8
2084	9.5556	3.0909	0.	-3485.6
2085	9.5556	2.9091	0.	-3485.6
2086	9.5556	2.7273	0.	-3485.8
2087	9.5556	2.5455	0.	-3486.2
2088	9.5556	2.3636	0.	-3486.8
2089	9.5556	2.1818	0.	-3487.6
2090	9.5556	2.	0.	-3488.7
2091	9.5556	1.8182	0.	-3489.9
2092	9.5556	1.6364	0.	-3491.3
2093	9.5556	1.4545	0.	-3492.9
2094	9.5556	1.2727	0.	-3494.6
2095	9.5556	1.0909	0.	-3496.5
2096	9.5556	0.90909	0.	-3498.5
2097	9.5556	0.72727	0.	-3500.7
2098	9.5556	0.54545	0.	-3502.9
2099	9.5556	0.36364	0.	-3505.4
2100	9.5556	0.18182	0.	-3508.9
2101	9.3718	5.8182	0.	-3561.8
2102	9.3718	5.6364	0.	-3558.1
2103	9.3718	5.4545	0.	-3555.6
2104	9.3718	5.2727	0.	-3553.2
2105	9.3718	5.0909	0.	-3550.9
2106	9.3718	4.9091	0.	-3548.8
2107	9.3718	4.7273	0.	-3546.8
2108	9.3718	4.5455	0.	-3544.9
2109	9.3718	4.3636	0.	-3543.3
2110	9.3718	4.1818	0.	-3541.8
2111	9.3718	4.	0.	-3540.5
2112	9.3718	3.8182	0.	-3539.4
2113	9.3718	3.6364	0.	-3538.5
2114	9.3718	3.4545	0.	-3537.8
2115	9.3718	3.2727	0.	-3537.4
2116	9.3718	3.0909	0.	-3537.2
2117	9.3718	2.9091	0.	-3537.2
2118	9.3718	2.7273	0.	-3537.4
2119	9.3718	2.5455	0.	-3537.8
2120	9.3718	2.3636	0.	-3538.5
2121	9.3718	2.1818	0.	-3539.4
2122	9.3718	2.	0.	-3540.5
2123	9.3718	1.8182	0.	-3541.8
2124	9.3718	1.6364	0.	-3543.3
2125	9.3718	1.4545	0.	-3544.9
2126	9.3718	1.2727	0.	-3546.8
2127	9.3718	1.0909	0.	-3548.8
2128	9.3718	0.90909	0.	-3550.9
2129	9.3718	0.72727	0.	-3553.2
2130	9.3718	0.54545	0.	-3555.6
2131	9.3718	0.36364	0.	-3558.1
2132	9.3718	0.18182	0.	-3561.8
2133	9.188	5.8182	0.	-3614.9
2134	9.188	5.6364	0.	-3611.2
2135	9.188	5.4545	0.	-3608.5
2136	9.188	5.2727	0.	-3606.
2137	9.188	5.0909	0.	-3603.6
2138	9.188	4.9091	0.	-3601.3
2139	9.188	4.7273	0.	-3599.2
2140	9.188	4.5455	0.	-3597.2
2141	9.188	4.3636	0.	-3595.4
2142	9.188	4.1818	0.	-3593.8
2143	9.188	4.	0.	-3592.5
2144	9.188	3.8182	0.	-3591.3
2145	9.188	3.6364	0.	-3590.3
2146	9.188	3.4545	0.	-3589.6
2147	9.188	3.2727	0.	-3589.2
2148	9.188	3.0909	0.	-3588.9
2149	9.188	2.9091	0.	-3588.9
2150	9.188	2.7273	0.	-3589.2
2151	9.188	2.5455	0.	-3589.6
2152	9.188	2.3636	0.	-3590.3
2153	9.188	2.1818	0.	-3591.3
2154	9.188	2.	0.	-3592.5
2155	9.188	1.8182	0.	-3593.8
2156	9.188	1.6364	0.	-3595.4
2157	9.188	1.4545	0.	-3597.2
2158	9.188	1.2727	0.	-3599.2
2159	9.188	1.0909	0.	-3601.3
2160	9.188	0.90909	0.	-3603.6
2161	9.188	0.72727	0.	-3606.
2162	9.188	0.54545	0.	-3608.5
2163	9.188	0.36364	0.	-3611.2
2164	9.188	0.18182	0.	-3614.9
2165	9.0043	5.8182	0.	-3668.3
2166	9.0043	5.6364	0.	-3664.5
2167	9.0043	5.4545	0.	-3661.7
2168	9.0043	5.2727	0.	-3659.
2169	9.0043	5.0909	0.	-3656.4
2170	9.0043	4.9091	0.	-3654.
2171	9.0043	4.7273	0.	-3651.7
2172	9.0043	4.5455	0.	-3649.6
2173	9.0043	4.3636	0.	-3647.8
2174	9.0043	4.1818	0.	-3646.1
2175	9.0043	4.	0.	-3644.6
2176	9.0043	3.8182	0.	-3643.3
2177	9.0043	3.6364	0.	-3642.3
2178	9.0043	3.4545	0.	-3641.6
2179	9.0043	3.2727	0.	-3641.1
2180	9.0043	3.0909	0.	-3640.8
2181	9.0043	2.9091	0.	-3640.8
2182	9.0043	2.7273	0.	-3641.1
2183	9.0043	2.5455	0.	-3641.6
2184	9.0043	2.3636	0.	-3642.3
2185	9.0043	2.1818	0.	-3643.3
2186	9.0043	2.	0.	-3644.6
2187	9.0043	1.8182	0.	-3646.1
2188	9.0043	1.6364	0.	-3647.8
2189	9.0043	1.4545	0.	-3649.6
2190	9.0043	1.2727	0.	-3651.7
2191	9.0043	1.0909	0.	-3654.
2192	9.0043	0.90909	0.	-3656.4
2193	9.0043	0.72727	0.	-3659.
2194	9.0043	0.54545	0.	-3661.7
2195	9.0043	0.36364	0.	-3664.5
2196	9.0043	0.18182	0.	-3668.3
2197	8.8205	5.8182	0.	-3722.
2198	8.8205	5.6364	0.	-3718.
2199	8.8205	5.4545	0.	-3715.
2200	8.8205	5.2727	0.	-3712.2
2201	8.8205	5.0909	0.	-3709.5
2202	8.8205	4.9091	0.	-3706.9
2203	8.8205	4.7273	0.	-3704.5
2204	8.8205	4.5455	0.	-3702.3
2205	8.8205	4.3636	0.	-3700.3
2206	8.8205	4.1818	0.	-3698.5
2207	8.8205	4.	0.	-3696.9
2208	8.8205	3.8182	0.	-3695.6
2209	8.8205	3.6364	0.	-3694.5
2210	8.8205	3.4545	0.	-3693.7
2211	8.8205	3.2727	0.	-3693.1
2212	8.8205	3.0909	0.	-3692.8
2213	8.8205	2.9091	0.	-3692.8
2214	8.8205	2.7273	0.	-3693.1
2215	8.8205	2.5455	0.	-3693.7
2216	8.8205	2.3636	0.	-3694.5
2217	8.8205	2.1818	0.	-3695.6
2218	8.8205	2.	0.	-3696.9
2219	8.8205	1.8182	0.	-3698.5
2220	8.8205	1.6364	0.	-3700.3
2221	8.8205	1.4545	0.	-3702.3
2222	8.8205	1.2727	0.	-3704.5
2223	8.8205	1.0909	0.	-3706.9
2224	8.8205	0.90909	0.	-3709.5
2225	8.8205	0.72727	0.	-3712.2
2226	8.8205	0.54545	0.	-3715.
2227	8.8205	0.36364	0.	-3718.
2228	8.8205	0.18182	0.	-3722.
2229	8.6368	5.8182	0.	-3776.
2230	8.6368	5.6364	0.	-3771.9
2231	8.6368	5.4545	0.	-3768.7
2232	8.6368	5.2727	0.	-3765.7
2233	8.6368	5.0909	0.	-3762.8
2234	8.6368	4.9091	0.	-3760.
2235	8.6368	4.7273	0.	-3757.5
2236	8.6368	4.5455	0.	-3755.1
2237	8.6368	4.3636	0.	-3752.9
2238	8.6368	4.1818	0.	-3751.
2239	8.6368	4.	0.	-3749.3
2240	8.6368	3.8182	0.	-3747.9
2241	8.6368	3.6364	0.	-3746.8
2242	8.6368	3.4545	0.	-3745.9
2243	8.6368	3.2727	0.	-3745.3
2244	8.6368	3.0909	0.	-3745.
2245	8.6368	2.9091	0.	-3745.
2246	8.6368	2.7273	0.	-3745.3
2247	8.6368	2.5455	0.	-3745.9
2248	8.6368	2.3636	0.	-3746.8
2249	8.6368	2.1818	0.	-3747.9
2250	8.6368	2.	0.	-3749.3
2251	8.6368	1.8182	0.	-3751.
2252	8.6368	1.6364	0.	-3752.9
2253	8.6368	1.4545	0.	-3755.1
2254	8.6368	1.2727	0.	-3757.5
2255	8.6368	1.0909	0.	-3760.
2256	8.6368	0.90909	0.	-3762.8
2257	8.6368	0.72727	0.	-3765.7
2258	8.6368	0.54545	0.	-3768.7
2259	8.6368	0.36364	0.	-3771.9
2260	8.6368	0.18182	0.	-3776.
2261	8.453	5.8182	0.	-3830.2
2262	8.453	5.6364	0.	-3826.
2263	8.453	5.4545	0.	-3822.6
2264	8.453	5.2727	0.	-3819.4
2265	8.453	5.0909	0.	-3816.3
2266	8.453	4.9091	0.	-3813.4
2267	8.453	4.7273	0.	-3810.6
2268	8.453	4.5455	0.	-3808.1
2269	8.453	4.3636	0.	-3805.8
2270	8.453	4.1818	0.	-3803.7
2271	8.453	4.	0.	-3801.9
2272	8.453	3.8182	0.	-3800.4
2273	8.453	3.6364	0.	-3799.2
2274	8.453	3.4545	0.	-3798.2
2275	8.453	3.2727	0.	-3797.6
2276	8.453	3.0909	0.	-3797.3
2277	8.453	2.9091	0.	-3797.3
2278	8.453	2.7273	0.	-3797.6
2279	8.453	2.5455	0.	-3798.2
2280	8.453	2.3636	0.	-3799.2
2281	8.453	2.1818	0.	-3800.4
2282	8.453	2.	0.	-3801.9
2283	8.453	1.8182	0.	-3803.7
2284	8.453	1.6364	0.	-3805.8
2285	8.453	1.4545	0.	-3808.1
2286	8.453	1.2727	0.	-3810.6
2287	8.453	1.0909	0.	-3813.4
2288	8.453	0.90909	0.	-3816.3
2289	8.453	0.72727	0.	-3819.4
2290	8.453	0.54545	0.	-3822.6
2291	8.453	0.36364	0.	-3826.
2292	8.453	0.18182	0.	-3830.2
2293	8.2692	5.8182	0.	-3884.8
2294	8.2692	5.6364	0.	-3880.4
2295	8.2692	5.4545	0.	-3876.8
2296	8.2692	5.2727	0.	-3873.3
2297	8.2692	5.0909	0.	-3870.1
2298	8.2692	4.9091	0.	-3866.9
2299	8.2692	4.7273	0.	-3864.
2300	8.2692	4.5455	0.	-3861.3
2301	8.2692	4.3636	0.	-3858.8
2302	8.2692	4.1818	0.	-3856.6
2303	8.2692	4.	0.	-3854.7
2304	8.2692	3.8182	0.	-3853.
2305	8.2692	3.6364	0.	-3851.7
2306	8.2692	3.4545	0.	-3850.7
2307	8.2692	3.2727	0.	-3850.
2308	8.2692	3.0909	0.	-3849.7
2309	8.2692	2.9091	0.	-3849.7
2310	8.2692	2.7273	0.	-3850.
2311	8.2692	2.5455	0.	-3850.7
2312	8.2692	2.3636	0.	-3851.7
2313	8.2692	2.1818	0.	-3853.
2314	8.2692	2.	0.	-3854.7
2315	8.2692	1.8182	0.	-3856.6
2316	8.2692	1.6364	0.	-3858.8
2317	8.2692	1.4545	0.	-3861.3
2318	8.2692	1.2727	0.	-3864.
2319	8.2692	1.0909	0.	-3866.9
2320	8.2692	0.90909	0.	-3870.1
2321	8.2692	0.72727	0.	-3873.3
2322	8.2692	0.54545	0.	-3876.8
2323	8.2692	0.36364	0.	-3880.4
2324	8.2692	0.18182	0.	-3884.8
2325	8.0855	5.8182	0.	-3939.6
2326	8.0855	5.6364	0.	-3935.
2327	8.0855	5.4545	0.	-3931.2
2328	8.0855	5.2727	0.	-3927.6
2329	8.0855	5.0909	0.	-3924.
2330	8.0855	4.9091	0.	-3920.7
2331	8.0855	4.7273	0.	-3917.6
2332	8.0855	4.5455	0.	-3914.7
2333	8.0855	4.3636	0.	-3912.
2334	8.0855	4.1818	0.	-3909.6
2335	8.0855	4.	0.	-3907.6
2336	8.0855	3.8182	0.	-3905.8
2337	8.0855	3.6364	0.	-3904.4
2338	8.0855	3.4545	0.	-3903.3
2339	8.0855	3.2727	0.	-3902.6
2340	8.0855	3.0909	0.	-3902.2
2341	8.0855	2.9091	0.	-3902.2
2342	8.0855	2.7273	0.	-3902.6
2343	8.0855	2.5455	0.	-3903.3
2344	8.0855	2.3636	0.	-3904.4
2345	8.0855	2.1818	0.	-3905.8
2346	8.0855	2.	0.	-3907.6
2347	8.0855	1.8182	0.	-3909.6
2348	8.0855	1.6364	0.	-3912.
2349	8.0855	1.4545	0.	-3914.7
2350	8.0855	1.2727	0.	-3917.6
2351	8.0855	1.0909	0.	-3920.7
2352	8.0855	0.90909	0.	-3924.
2353	8.0855	0.72727	0.	-3927.6
2354	8.0855	0.54545	0.	-3931.2
2355	8.0855	0.36364	0.	-3935.
2356	8.0855	0.18182	0.	-3939.6
2357	7.9017	5.8182	0.	-3994.8
2358	7.9017	5.6364	0.	-3990.
2359	7.9017	5.4545	0.	-3986.
2360	7.9017	5.2727	0.	-3982.
2361	7.9017	5.0909	0.	-3978.3
2362	7.9017	4.9091	0.	-3974.7
2363	7.9017	4.7273	0.	-3971.3
2364	7.9017	4.5455	0.	-3968.2
2365	7.9017	4.3636	0.	-3965.4
2366	7.9017	4.1818	0.	-3962.8
2367	7.9017	4.	0.	-3960.6
2368	7.9017	3.8182	0.	-3958.7
2369	7.9017	3.6364	0.	-3957.2
2370	7.9017	3.4545	0.	-3956.
2371	7.9017	3.2727	0.	-3955.2
2372	7.9017	3.0909	0.	-3954.8
2373	7.9017	2.9091	0.	-3954.8
2374	7.9017	2.7273	0.	-3955.2
2375	7.9017	2.5455	0.	-3956.
2376	7.9017	2.3636	0.	-3957.2
2377	7.9017	2.1818	0.	-3958.7
2378	7.9017	2.	0.	-3960.6
2379	7.9017	1.8182	0.	-3962.8
2380	7.9017	1.6364	0.	-3965.4
2381	7.9017	1.4545	0.	-3968.2
2382	7.9017	1.2727	0.	-3971.3
2383	7.9017	1.0909	0.	-3974.7
2384	7.9017	0.90909	0.	-3978.3
2385	7.9017	0.72727	0.	-3982.
2386	7.9017	0.54545	0.	-3986.
2387	7.9017	0.36364	0.	-3990.
2388	7.9017	0.18182	0.	-3994.8
2389	7.7179	5.8182	0.	-4050.3
2390	7.7179	5.6364	0.	-4045.3
2391	7.7179	5.4545	0.	-4041.
2392	7.7179	5.2727	0.	-4036.8
2393	7.7179	5.0909	0.	-4032.7
2394	7.7179	4.9091	0.	-4028.9
2395	7.7179	4.7273	0.	-4025.3
2396	7.7179	4.5455	0.	-4022.
2397	7.7179	4.3636	0.	-4018.9
2398	7.7179	4.1818	0.	-4016.2
2399	7.7179	4.	0.	-4013.8
2400	7.7179	3.8182	0.	-4011.7
2401	7.7179	3.6364	0.	-4010.1
2402	7.7179	3.4545	0.	-4008.8
2403	7.7179	3.2727	0.	-4008.
2404	7.7179	3.0909	0.	-4007.6
2405	7.7179	2.9091	0.	-4007.6
2406	7.7179	2.7273	0.	-4008.
2407	7.7179	2.5455	0.	-4008.8
2408	7.7179	2.3636	0.	-4010.1
2409	7.7179	2.1818	0.	-4011.7
2410	7.7179	2.	0.	-4013.8
2411	7.7179	1.8182	0.	-4016.2
2412	7.7179	1.6364	0.	-4018.9
2413	7.7179	1.4545	0.	-4022.
2414	7.7179	1.2727	0.	-4025.3
2415	7.7179	1.0909	0.	-4028.9
2416	7.7179	0.90909	0.	-4032.7
2417	7.7179	0.72727	0.	-4036.8
2418	7.7179	0.54545	0.	-4041.
2419	7.7179	0.36364	0.	-4045.3
2420	7.7179	0.18182	0.	-4050.3
2421	7.5342	5.8182	0.	-4106.2
2422	7.5342	5.6364	0.	-4100.9
2423	7.5342	5.4545	0.	-4096.3
2424	7.5342	5.2727	0.	-4091.8
2425	7.5342	5.0909	0.	-4087.5
2426	7.5342	4.9091	0.	-4083.4
2427	7.5342	4.7273	0.	-4079.5
2428	7.5342	4.5455	0.	-4075.9
2429	7.5342	4.3636	0.	-4072.6
2430	7.5342	4.1818	0.	-4069.7
2431	7.5342	4.	0.	-4067.1
2432	7.5342	3.8182	0.	-4064.9
2433	7.5342	3.6364	0.	-4063.1
2434	7.5342	3.4545	0.	-4061.8
2435	7.5342	3.2727	0.	-4060.9
2436	7.5342	3.0909	0.	-4060.4
2437	7.5342	2.9091	0.	-4060.4
2438	7.5342	2.7273	0.	-4060.9
2439	7.5342	2.5455	0.	-4061.8
2440	7.5342	2.3636	0.	-4063.1
2441	7.5342	2.1818	0.	-4064.9
2442	7.5342	2.	0.	-4067.1
2443	7.5342	1.8182	0.	-4069.7
2444	7.5342	1.6364	0.	-4072.6
2445	7.5342	1.4545	0.	-4075.9
2446	7.5342	1.2727	0.	-4079.5
2447	7.5342	1.0909	0.	-4083.4
2448	7.5342	0.90909	0.	-4087.5
2449	7.5342	0.72727	0.	-4091.8
2450	7.5342	0.54545	0.	-4096.3
2451	7.5342	0.36364	0.	-4100.9
2452	7.5342	0.18182	0.	-4106.2
2453	7.3504	5.8182	0.	-4162.4
2454	7.3504	5.6364	0.	-4156.8
2455	7.3504	5.4545	0.	-4151.9
2456	7.3504	5.2727	0.	-4147.1
2457	7.3504	5.0909	0.	-4142.5
2458	7.3504	4.9091	0.	-4138.
2459	7.3504	4.7273	0.	-4133.9
2460	7.3504	4.5455	0.	-4130.
2461	7.3504	4.3636	0.	-4126.5
2462	7.3504	4.1818	0.	-4123.3
2463	7.3504	4.	0.	-4120.5
2464	7.3504	3.8182	0.	-4118.2
2465	7.3504	3.6364	0.	-4116.2
2466	7.3504	3.4545	0.	-4114.8
2467	7.3504	3.2727	0.	-4113.8
2468	7.3504	3.0909	0.	-4113.3
2469	7.3504	2.9091	0.	-4113.3
2470	7.3504	2.7273	0.	-4113.8
2471	7.3504	2.5455	0.	-4114.8
2472	7.3504	2.3636	0.	-4116.2
2473	7.3504	2.1818	0.	-4118.2
2474	7.3504	2.	0.	-4120.5
2475	7.3504	1.8182	0.	-4123.3
2476	7.3504	1.6364	0.	-4126.5
2477	7.3504	1.4545	0.	-4130.
2478	7.3504	1.2727	0.	-4133.9
2479	7.3504	1.0909	0.	-4138.
2480	7.3504	0.90909	0.	-4142.5
2481	7.3504	0.72727	0.	-4147.1
2482	7.3504	0.54545	0.	-4151.9
2483	7.3504	0.36364	0.	-4156.8
2484	7.3504	0.18182	0.	-4162.4
2485	7.1667	5.8182	0.	-4219.
2486	7.1667	5.6364	0.	-4213.1
2487	7.1667	5.4545	0.	-4207.8
2488	7.1667	5.2727	0.	-4202.7
2489	7.1667	5.0909	0.	-4197.7
2490	7.1667	4.9091	0.	-4193.
2491	7.1667	4.7273	0.	-4188.5
2492	7.1667	4.5455	0.	-4184.3
2493	7.1667	4.3636	0.	-4180.5
2494	7.1667	4.1818	0.	-4177.1
2495	7.1667	4.	0.	-4174.1
2496	7.1667	3.8182	0.	-4171.5
2497	7.1667	3.6364	0.	-4169.5
2498	7.1667	3.4545	0.	-4167.9
2499	7.1667	3.2727	0.	-4166.8
2500	7.1667	3.0909	0.	-4166.3
2501	7.1667	2.9091	0.	-4166.3
2502	7.1667	2.7273	0.	-4166.8
2503	7.1667	2.5455	0.	-4167.9
2504	7.1667	2.3636	0.	-4169.5
2505	7.1667	2.1818	0.	-4171.5
2506	7.1667	2.	0.	-4174.1
2507	7.1667	1.8182	0.	-4177.1
2508	7.1667	1.6364	0.	-4180.5
2509	7.1667	1.4545	0.	-4184.3
2510	7.1667	1.2727	0.	-4188.5
2511	7.1667	1.0909	0.	-4193.
2512	7.1667	0.90909	0.	-4197.7
2513	7.1667	0.72727	0.	-4202.7
2514	7.1667	0.54545	0.	-4207.8
2515	7.1667	0.36364	0.	-4213.1
2516	7.1667	0.18182	0.	-4219.
2517	6.9829	5.8182	0.	-4276.
2518	6.9829	5.6364	0.	-4269.8
2519	6.9829	5.4545	0.	-4264.1
2520	6.9829	5.2727	0.	-4258.5
2521	6.9829	5.0909	0.	-4253.2
2522	6.9829	4.9091	0.	-4248.1
2523	6.9829	4.7273	0.	-4243.3
2524	6.9829	4.5455	0.	-4238.8
2525	6.9829	4.3636	0.	-4234.7
2526	6.9829	4.1818	0.	-4231.
2527	6.9829	4.	0.	-4227.8
2528	6.9829	3.8182	0.	-4225.
2529	6.9829	3.6364	0.	-4222.8
2530	6.9829	3.4545	0.	-4221.1
2531	6.9829	3.2727	0.	-4219.9
2532	6.9829	3.0909	0.	-4219.4
2533	6.9829	2.9091	0.	-4219.4
2534	6.9829	2.7273	0.	-4219.9
2535	6.9829	2.5455	0.	-4221.1
2536	6.9829	2.3636	0.	-4222.8
2537	6.9829	2.1818	0.	-4225.
2538	6.9829	2.	0.	-4227.8
2539	6.9829	1.8182	0.	-4231.
2540	6.9829	1.6364	0.	-4234.7
2541	6.9829	1.4545	0.	-4238.8
2542	6.9829	1.2727	0.	-4243.3
2543	6.9829	1.0909	0.	-4248.1
2544	6.9829	0.90909	0.	-4253.2
2545	6.9829	0.72727	0.	-4258.5
2546	6.9829	0.54545	0.	-4264.1
2547	6.9829	0.36364	0.	-4269.8
2548	6.9829	0.18182	0.	-4276.
2549	6.7991	5.8182	0.	-4333.4
2550	6.7991	5.6364	0.	-4326.8
2551	6.7991	5.4545	0.	-4320.7
2552	6.7991	5.2727	0.	-4314.7
2553	6.7991	5.0909	0.	-4309.
2554	6.7991	4.9091	0.	-4303.5
2555	6.7991	4.7273	0.	-4298.3
2556	6.7991	4.5455	0.	-4293.5
2557	6.7991	4.3636	0.	-4289.
2558	6.7991	4.1818	0.	-4285.1
2559	6.7991	4.	0.	-4281.6
2560	6.7991	3.8182	0.	-4278.6
2561	6.7991	3.6364	0.	-4276.2
2562	6.7991	3.4545	0.	-4274.3
2563	6.7991	3.2727	0.	-4273.1
2564	6.7991	3.0909	0.	-4272.5
2565	6.7991	2.9091	0.	-4272.5
2566	6.7991	2.7273	0.	-4273.1
2567	6.7991	2.5455	0.	-4274.3
2568	6.7991	2.3636	0.	-4276.2
2569	6.7991	2.1818	0.	-4278.6
2570	6.7991	2.	0.	-4281.6
2571	6.7991	1.8182	0.	-4285.1
2572	6.7991	1.6364	0.	-4289.1
2573	6.7991	1.4545	0.	-4293.5
2574	6.7991	1.2727	0.	-4298.3
2575	6.7991	1.0909	0.	-4303.5
2576	6.7991	0.90909	0.	-4309.
2577	6.7991	0.72727	0.	-4314.7
2578	6.7991	0.54545	0.	-4320.7
2579	6.7991	0.36364	0.	-4326.8
2580	6.7991	0.18182	0.	-4333.4
2581	6.6154	5.8182	0.	-4391.2
2582	6.6154	5.6364	0.	-4384.2
2583	6.6154	5.4545	0.	-4377.6
2584	6.6154	5.2727	0.	-4371.2
2585	6.6154	5.0909	0.	-4365.1
2586	6.6154	4.9091	0.	-4359.2
2587	6.6154	4.7273	0.	-4353.6
2588	6.6154	4.5455	0.	-4348.3
2589	6.6154	4.3636	0.	-4343.6
2590	6.6154	4.1818	0.	-4339.3
2591	6.6154	4.	0.	-4335.5
2592	6.6154	3.8182	0.	-4332.3
2593	6.6154	3.6364	0.	-4329.7
2594	6.6154	3.4545	0.	-4327.7
2595	6.6154	3.2727	0.	-4326.3
2596	6.6154	3.0909	0.	-4325.7
2597	6.6154	2.9091	0.	-4325.7
2598	6.6154	2.7273	0.	-4326.3
2599	6.6154	2.5455	0.	-4327.7
2600	6.6154	2.3636	0.	-4329.7
2601	6.6154	2.1818	0.	-4332.3
2602	6.6154	2.	0.	-4335.5
2603	6.6154	1.8182	0.	-4339.3
2604	6.6154	1.6364	0.	-4343.6
2605	6.6154	1.4545	0.	-4348.4
2606	6.6154	1.2727	0.	-4353.6
2607	6.6154	1.0909	0.	-4359.2
2608	6.6154	0.90909	0.	-4365.1
2609	6.6154	0.72727	0.	-4371.2
2610	6.6154	0.54545	0.	-4377.6
2611	6.6154	0.36364	0.	-4384.2
2612	6.6154	0.18182	0.	-4391.2
2613	6.4316	5.8182	0.	-4449.4
2614	6.4316	5.6364	0.	-4442.
2615	6.4316	5.4545	0.	-4435.
2616	6.4316	5.2727	0.	-4428.1
2617	6.4316	5.0909	0.	-4421.4
2618	6.4316	4.9091	0.	-4415.1
2619	6.4316	4.7273	0.	-4409.
2620	6.4316	4.5455	0.	-4403.4
2621	6.4316	4.3636	0.	-4398.2
2622	6.4316	4.1818	0.	-4393.6
2623	6.4316	4.	0.	-4389.5
2624	6.4316	3.8182	0.	-4386.
2625	6.4316	3.6364	0.	-4383.2
2626	6.4316	3.4545	0.	-4381.1
2627	6.4316	3.2727	0.	-4379.6
2628	6.4316	3.0909	0.	-4378.9
2629	6.4316	2.9091	0.	-4378.9
2630	6.4316	2.7273	0.	-4379.6
2631	6.4316	2.5455	0.	-4381.1
2632	6.4316	2.3636	0.	-4383.2
2633	6.4316	2.1818	0.	-4386.
2634	6.4316	2.	0.	-4389.5
2635	6.4316	1.8182	0.	-4393.6
2636	6.4316	1.6364	0.	-4398.2
2637	6.4316	1.4545	0.	-4403.4
2638	6.4316	1.2727	0.	-4409.
2639	6.4316	1.0909	0.	-4415.1
2640	6.4316	0.90909	0.	-4421.4
2641	6.4316	0.72727	0.	-4428.1
2642	6.4316	0.54545	0.	-4435.
2643	6.4316	0.36364	0.	-4442.
2644	6.4316	0.18182	0.	-4449.4
2645	6.2479	5.8182	0.	-4508.1
2646	6.2479	5.6364	0.	-4500.2
2647	6.2479	5.4545	0.	-4492.7
2648	6.2479	5.2727	0.	-4485.3
2649	6.2479	5.0909	0.	-4478.1
2650	6.2479	4.9091	0.	-4471.2
2651	6.2479	4.7273	0.	-4464.7
2652	6.2479	4.5455	0.	-4458.7
2653	6.2479	4.3636	0.	-4453.1
2654	6.2479	4.1818	0.	-4448.1
2655	6.2479	4.	0.	-4443.7
2656	6.2479	3.8182	0.	-4439.9
2657	6.2479	3.6364	0.	-4436.8
2658	6.2479	3.4545	0.	-4434.5
2659	6.2479	3.2727	0.	-4432.9
2660	6.2479	3.0909	0.	-4432.1
2661	6.2479	2.9091	0.	-4432.1
2662	6.2479	2.7273	0.	-4432.9
2663	6.2479	2.5455	0.	-4434.5
2664	6.2479	2.3636	0.	-4436.8
2665	6.2479	2.1818	0.	-4439.9
2666	6.2479	2.	0.	-4443.7
2667	6.2479	1.8182	0.	-4448.1
2668	6.2479	1.6364	0.	-4453.1
2669	6.2479	1.4545	0.	-4458.7
2670	6.2479	1.2727	0.	-4464.7
2671	6.2479	1.0909	0.	-4471.2
2672	6.2479	0.90909	0.	-4478.1
2673	6.2479	0.72727	0.	-4485.3
2674	6.2479	0.54545	0.	-4492.7
2675	6.2479	0.36364	0.	-4500.2
2676	6.2479	0.18182	0.	-4508.1
2677	6.0641	5.8182	0.	-4567.3
2678	6.0641	5.6364	0.	-4558.8
2679	6.0641	5.4545	0.	-4550.8
2680	6.0641	5.2727	0.	-4542.8
2681	6.0641	5.0909	0.	-4535.1
2682	6.0641	4.9091	0.	-4527.7
2683	6.0641	4.7273	0.	-4520.7
2684	6.0641	4.5455	0.	-4514.1
2685	6.0641	4.3636	0.	-4508.1
2686	6.0641	4.1818	0.	-4502.7
2687	6.0641	4.	0.	-4497.9
2688	6.0641	3.8182	0.	-4493.8
2689	6.0641	3.6364	0.	-4490.5
2690	6.0641	3.4545	0.	-4488.
2691	6.0641	3.2727	0.	-4486.3
2692	6.0641	3.0909	0.	-4485.5
2693	6.0641	2.9091	0.	-4485.5
2694	6.0641	2.7273	0.	-4486.3
2695	6.0641	2.5455	0.	-4488.
2696	6.0641	2.3636	0.	-4490.5
2697	6.0641	2.1818	0.	-4493.8
2698	6.0641	2.	0.	-4497.9
2699	6.0641	1.8182	0.	-4502.7
2700	6.0641	1.6364	0.	-4508.1
2701	6.0641	1.4545	0.	-4514.1
2702	6.0641	1.2727	0.	-4520.7
2703	6.0641	1.0909	0.	-4527.7
2704	6.0641	0.90909	0.	-4535.1
2705	6.0641	0.72727	0.	-4542.8
2706	6.0641	0.54545	0.	-4550.8
2707	6.0641	0.36364	0.	-4558.8
2708	6.0641	0.18182	0.	-4567.3
2709	5.8803	5.8182	0.	-4627.
2710	5.8803	5.6364	0.	-4618.
2711	5.8803	5.4545	0.	-4609.3
2712	5.8803	5.2727	0.	-4600.7
2713	5.8803	5.0909	0.	-4592.4
2714	5.8803	4.9091	0.	-4584.4
2715	5.8803	4.7273	0.	-4576.9
2716	5.8803	4.5455	0.	-4569.8
2717	5.8803	4.3636	0.	-4563.3
2718	5.8803	4.1818	0.	-4557.4
2719	5.8803	4.	0.	-4552.3
2720	5.8803	3.8182	0.	-4547.9
2721	5.8803	3.6364	0.	-4544.3
2722	5.8803	3.4545	0.	-4541.5
2723	5.8803	3.2727	0.	-4539.7
2724	5.8803	3.0909	0.	-4538.8
2725	5.8803	2.9091	0.	-4538.8
2726	5.8803	2.7273	0.	-4539.7
2727	5.8803	2.5455	0.	-4541.5
2728	5.8803	2.3636	0.	-4544.3
2729	5.8803	2.1818	0.	-4547.9
2730	5.8803	2.	0.	-4552.3
2731	5.8803	1.8182	0.	-4557.4
2732	5.8803	1.6364	0.	-4563.3
2733	5.8803	1.4545	0.	-4569.8
2734	5.8803	1.2727	0.	-4576.9
2735	5.8803	1.0909	0.	-4584.4
2736	5.8803	0.90909	0.	-4592.4
2737	5.8803	0.72727	0.	-4600.7
2738	5.8803	0.54545	0.	-4609.3
2739	5.8803	0.36364	0.	-4618.
2740	5.8803	0.18182	0.	-4627.
2741	5.6966	5.8182	0.	-4687.3
2742	5.6966	5.6364	0.	-4677.6
2743	5.6966	5.4545	0.	-4668.2
2744	5.6966	5.2727	0.	-4659.
2745	5.6966	5.0909	0.	-4650.1
2746	5.6966	4.9091	0.	-4641.5
2747	5.6966	4.7273	0.	-4633.3
2748	5.6966	4.5455	0.	-4625.7
2749	5.6966	4.3636	0.	-4618.6
2750	5.6966	4.1818	0.	-4612.3
2751	5.6966	4.	0.	-4606.7
2752	5.6966	3.8182	0.	-4602.
2753	5.6966	3.6364	0.	-4598.1
2754	5.6966	3.4545	0.	-4595.1
2755	5.6966	3.2727	0.	-4593.2
2756	5.6966	3.0909	0.	-4592.2
2757	5.6966	2.9091	0.	-4592.2
2758	5.6966	2.7273	0.	-4593.2
2759	5.6966	2.5455	0.	-4595.1
2760	5.6966	2.3636	0.	-4598.1
2761	5.6966	2.1818	0.	-4602.
2762	5.6966	2.	0.	-4606.7
2763	5.6966	1.8182	0.	-4612.3
2764	5.6966	1.6364	0.	-4618.6
2765	5.6966	1.4545	0.	-4625.7
2766	5.6966	1.2727	0.	-4633.3
2767	5.6966	1.0909	0.	-4641.5
2768	5.6966	0.90909	0.	-4650.1
2769	5.6966	0.72727	0.	-4659.
2770	5.6966	0.54545	0.	-4668.2
2771	5.6966	0.36364	0.	-4677.6
2772	5.6966	0.18182	0.	-4687.3
2773	5.5128	5.8182	0.	-4748.1
2774	5.5128	5.6364	0.	-4737.7
2775	5.5128	5.4545	0.	-4727.6
2776	5.5128	5.2727	0.	-4717.7
2777	5.5128	5.0909	0.	-4708.1
2778	5.5128	4.9091	0.	-4698.8
2779	5.5128	4.7273	0.	-4690.
2780	5.5128	4.5455	0.	-4681.8
2781	5.5128	4.3636	0.	-4674.2
2782	5.5128	4.1818	0.	-4667.3
2783	5.5128	4.	0.	-4661.3
2784	5.5128	3.8182	0.	-4656.2
2785	5.5128	3.6364	0.	-4652.
2786	5.5128	3.4545	0.	-4648.8
2787	5.5128	3.2727	0.	-4646.6
2788	5.5128	3.0909	0.	-4645.6
2789	5.5128	2.9091	0.	-4645.6
2790	5.5128	2.7273	0.	-4646.6
2791	5.5128	2.5455	0.	-4648.8
2792	5.5128	2.3636	0.	-4652.
2793	5.5128	2.1818	0.	-4656.2
2794	5.5128	2.	0.	-4661.3
2795	5.5128	1.8182	0.	-4667.3
2796	5.5128	1.6364	0.	-4674.2
2797	5.5128	1.4545	0.	-4681.8
2798	5.5128	1.2727	0.	-4690.
2799	5.5128	1.0909	0.	-4698.8
2800	5.5128	0.90909	0.	-4708.1
2801	5.5128	0.72727	0.	-4717.7
2802	5.5128	0.54545	0.	-4727.6
2803	5.5128	0.36364	0.	-4737.7
2804	5.5128	0.18182	0.	-4748.1
2805	5.3291	5.8182	0.	-4809.5
2806	5.3291	5.6364	0.	-4798.3
2807	5.3291	5.4545	0.	-4787.5
2808	5.3291	5.2727	0.	-4776.8
2809	5.3291	5.0909	0.	-4766.4
2810	5.3291	4.9091	0.	-4756.4
2811	5.3291	4.7273	0.	-4747.
2812	5.3291	4.5455	0.	-4738.1
2813	5.3291	4.3636	0.	-4729.9
2814	5.3291	4.1818	0.	-4722.5
2815	5.3291	4.	0.	-4716.
2816	5.3291	3.8182	0.	-4710.4
2817	5.3291	3.6364	0.	-4705.9
2818	5.3291	3.4545	0.	-4702.5
2819	5.3291	3.2727	0.	-4700.2
2820	5.3291	3.0909	0.	-4699.
2821	5.3291	2.9091	0.	-4699.
2822	5.3291	2.7273	0.	-4700.2
2823	5.3291	2.5455	0.	-4702.5
2824	5.3291	2.3636	0.	-4705.9
2825	5.3291	2.1818	0.	-4710.4
2826	5.3291	2.	0.	-4716.
2827	5.3291	1.8182	0.	-4722.5
2828	5.3291	1.6364	0.	-4729.9
2829	5.3291	1.4545	0.	-4738.1
2830	5.3291	1.2727	0.	-4747.
2831	5.3291	1.0909	0.	-4756.4
2832	5.3291	0.90909	0.	-4766.4
2833	5.3291	0.72727	0.	-4776.8
2834	5.3291	0.54545	0.	-4787.5
2835	5.3291	0.36364	0.	-4798.3
2836	5.3291	0.18182	0.	-4809.5
2837	5.1453	5.8182	0.	-4871.5
2838	5.1453	5.6364	0.	-4859.5
2839	5.1453	5.4545	0.	-4847.8
2840	5.1453	5.2727	0.	-4836.3
2841	5.1453	5.0909	0.	-4825.2
2842	5.1453	4.9091	0.	-4814.4
2843	5.1453	4.7273	0.	-4804.2
2844	5.1453	4.5455	0.	-4794.6
2845	5.1453	4.3636	0.	-4785.8
2846	5.1453	4.1818	0.	-4777.8
2847	5.1453	4.	0.	-4770.8
2848	5.1453	3.8182	0.	-4764.8
2849	5.1453	3.6364	0.	-4760.
2850	5.1453	3.4545	0.	-4756.2
2851	5.1453	3.2727	0.	-4753.7
2852	5.1453	3.0909	0.	-4752.5
2853	5.1453	2.9091	0.	-4752.5
2854	5.1453	2.7273	0.	-4753.7
2855	5.1453	2.5455	0.	-4756.2
2856	5.1453	2.3636	0.	-4760.
2857	5.1453	2.1818	0.	-4764.8
2858	5.1453	2.	0.	-4770.8
2859	5.1453	1.8182	0.	-4777.8
2860	5.1453	1.6364	0.	-4785.8
2861	5.1453	1.4545	0.	-4794.6
2862	5.1453	1.2727	0.	-4804.2
2863	5.1453	1.0909	0.	-4814.4
2864	5.1453	0.90909	0.	-4825.2
2865	5.1453	0.72727	0.	-4836.3
2866	5.1453	0.54545	0.	-4847.8
2867	5.1453	0.36364	0.	-4859.5
2868	5.1453	0.18182	0.	-4871.5
2869	4.9615	5.8182	0.	-4934.1
2870	4.9615	5.6364	0.	-4921.2
2871	4.9615	5.4545	0.	-4908.7
2872	4.9615	5.2727	0.	-4896.3
2873	4.9615	5.0909	0.	-4884.3
2874	4.9615	4.9091	0.	-4872.7
2875	4.9615	4.7273	0.	-4861.7
2876	4.9615	4.5455	0.	-4851.4
2877	4.9615	4.3636	0.	-4841.9
2878	4.9615	4.1818	0.	-4833.4
2879	4.9615	4.	0.	-4825.8
2880	4.9615	3.8182	0.	-4819.4
2881	4.9615	3.6364	0.	-4814.1
2882	4.9615	3.4545	0.	-4810.1
2883	4.9615	3.2727	0.	-4807.4
2884	4.9615	3.0909	0.	-4806.
2885	4.9615	2.9091	0.	-4806.
2886	4.9615	2.7273	0.	-4807.4
2887	4.9615	2.5455	0.	-4810.1
2888	4.9615	2.3636	0.	-4814.1
2889	4.9615	2.1818	0.	-4819.4
2890	4.9615	2.	0.	-4825.8
2891	4.9615	1.8182	0.	-4833.4
2892	4.9615	1.6364	0.	-4841.9
2893	4.9615	1.4545	0.	-4851.4
2894	4.9615	1.2727	0.	-4861.7
2895	4.9615	1.0909	0.	-4872.7
2896	4.9615	0.90909	0.	-4884.3
2897	4.9615	0.72727	0.	-4896.3
2898	4.9615	0.54545	0.	-4908.7
2899	4.9615	0.36364	0.	-4921.2
2900	4.9615	0.18182	0.	-4934.1
2901	4.7778	5.8182	0.	-4997.4
2902	4.7778	5.6364	0.	-4983.5
2903	4.7778	5.4545	0.	-4970.
2904	4.7778	5.2727	0.	-4956.7
2905	4.7778	5.0909	0.	-4943.8
2906	4.7778	4.9091	0.	-4931.4
2907	4.7778	4.7273	0.	-4919.6
2908	4.7778	4.5455	0.	-4908.5
2909	4.7778	4.3636	0.	-4898.3
2910	4.7778	4.1818	0.	-4889.1
2911	4.7778	4.	0.	-4880.9
2912	4.7778	3.8182	0.	-4874.
2913	4.7778	3.6364	0.	-4868.4
2914	4.7778	3.4545	0.	-4864.1
2915	4.7778	3.2727	0.	-4861.2
2916	4.7778	3.0909	0.	-4859.7
2917	4.7778	2.9091	0.	-4859.7
2918	4.7778	2.7273	0.	-4861.2
2919	4.7778	2.5455	0.	-4864.1
2920	4.7778	2.3636	0.	-4868.4
2921	4.7778	2.1818	0.	-4874.
2922	4.7778	2.	0.	-4880.9
2923	4.7778	1.8182	0.	-4889.1
2924	4.7778	1.6364	0.	-4898.3
2925	4.7778	1.4545	0.	-4908.5
2926	4.7778	1.2727	0.	-4919.6
2927	4.7778	1.0909	0.	-4931.4
2928	4.7778	0.90909	0.	-4943.8
2929	4.7778	0.72727	0.	-4956.7
2930	4.7778	0.54545	0.	-4970.
2931	4.7778	0.36364	0.	-4983.5
2932	4.7778	0.18182	0.	-4997.4
2933	4.594	5.8182	0.	-5061.3
2934	4.594	5.6364	0.	-5046.3
2935	4.594	5.4545	0.	-5031.9
2936	4.594	5.2727	0.	-5017.6
2937	4.594	5.0909	0.	-5003.7
2938	4.594	4.9091	0.	-4990.4
2939	4.594	4.7273	0.	-4977.7
2940	4.594	4.5455	0.	-4965.8
2941	4.594	4.3636	0.	-4954.9
2942	4.594	4.1818	0.	-4945.
2943	4.594	4.	0.	-4936.3
2944	4.594	3.8182	0.	-4928.8
2945	4.594	3.6364	0.	-4922.8
2946	4.594	3.4545	0.	-4918.2
2947	4.594	3.2727	0.	-4915.1
2948	4.594	3.0909	0.	-4913.5
2949	4.594	2.9091	0.	-4913.5
2950	4.594	2.7273	0.	-4915.1
2951	4.594	2.5455	0.	-4918.2
2952	4.594	2.3636	0.	-4922.8
2953	4.594	2.1818	0.	-4928.8
2954	4.594	2.	0.	-4936.3
2955	4.594	1.8182	0.	-4945.
2956	4.594	1.6364	0.	-4954.9
2957	4.594	1.4545	0.	-4965.8
2958	4.594	1.2727	0.	-4977.7
2959	4.594	1.0909	0.	-4990.4
2960	4.594	0.90909	0.	-5003.7
2961	4.594	0.72727	0.	-5017.6
2962	4.594	0.54545	0.	-5031.9
2963	4.594	0.36364	0.	-5046.3
2964	4.594	0.18182	0.	-5061.3
2965	4.4103	5.8182	0.	-5125.9
2966	4.4103	5.6364	0.	-5109.7
2967	4.4103	5.4545	0.	-5094.2
2968	4.4103	5.2727	0.	-5078.9
2969	4.4103	5.0909	0.	-5064.
2970	4.4103	4.9091	0.	-5049.7
2971	4.4103	4.7273	0.	-5036.1
2972	4.4103	4.5455	0.	-5023.4
2973	4.4103	4.3636	0.	-5011.7
2974	4.4103	4.1818	0.	-5001.1
2975	4.4103	4.	0.	-4991.8
2976	4.4103	3.8182	0.	-4983.9
2977	4.4103	3.6364	0.	-4977.4
2978	4.4103	3.4545	0.	-4972.5
2979	4.4103	3.2727	0.	-4969.2
2980	4.4103	3.0909	0.	-4967.6
2981	4.4103	2.9091	0.	-4967.6
2982	4.4103	2.7273	0.	-4969.2
2983	4.4103	2.5455	0.	-4972.5
2984	4.4103	2.3636	0.	-4977.4
2985	4.4103	2.1818	0.	-4983.9
2986	4.4103	2.	0.	-4991.8
2987	4.4103	1.8182	0.	-5001.1
2988	4.4103	1.6364	0.	-5011.7
2989	4.4103	1.4545	0.	-5023.4
2990	4.4103	1.2727	0.	-5036.1
2991	4.4103	1.0909	0.	-5049.7
2992	4.4103	0.90909	0.	-5064.
2993	4.4103	0.72727	0.	-5078.9
2994	4.4103	0.54545	0.	-5094.2
2995	4.4103	0.36364	0.	-5109.7
2996	4.4103	0.18182	0.	-5125.9
2997	4.2265	5.8182	0.	-5191.2
2998	4.2265	5.6364	0.	-5173.7
2999	4.2265	5.4545	0.	-5157.
3000	4.2265	5.2727	0.	-5140.6
3001	4.2265	5.0909	0.	-5124.7
3002	4.2265	4.9091	0.	-5109.4
3003	4.2265	4.7273	0.	-5094.9
3004	4.2265	4.5455	0.	-5081.3
3005	4.2265	4.3636	0.	-5068.8
3006	4.2265	4.1818	0.	-5057.6
3007	4.2265	4.	0.	-5047.7
3008	4.2265	3.8182	0.	-5039.2
3009	4.2265	3.6364	0.	-5032.4
3010	4.2265	3.4545	0.	-5027.2
3011	4.2265	3.2727	0.	-5023.7
3012	4.2265	3.0909	0.	-5021.9
3013	4.2265	2.9091	0.	-5021.9
3014	4.2265	2.7273	0.	-5023.7
3015	4.2265	2.5455	0.	-5027.2
3016	4.2265	2.3636	0.	-5032.4
3017	4.2265	2.1818	0.	-5039.2
3018	4.2265	2.	0.	-5047.7
3019	4.2265	1.8182	0.	-5057.6
3020	4.2265	1.6364	0.	-5068.8
3021	4.2265	1.4545	0.	-5081.3
3022	4.2265	1.2727	0.	-5094.9
3023	4.2265	1.0909	0.	-5109.4
3024	4.2265	0.90909	0.	-5124.7
3025	4.2265	0.72727	0.	-5140.6
3026	4.2265	0.54545	0.	-5157.
3027	4.2265	0.36364	0.	-5173.7
3028	4.2265	0.18182	0.	-5191.2
3029	4.0427	5.8182	0.	-5257.1
3030	4.0427	5.6364	0.	-5238.1
3031	4.0427	5.4545	0.	-5220.3
3032	4.0427	5.2727	0.	-5202.8
3033	4.0427	5.0909	0.	-5185.8
3034	4.0427	4.9091	0.	-5169.4
3035	4.0427	4.7273	0.	-5154.
3036	4.0427	4.5455	0.	-5139.5
3037	4.0427	4.3636	0.	-5126.2
3038	4.0427	4.1818	0.	-5114.3
3039	4.0427	4.	0.	-5103.8
3040	4.0427	3.8182	0.	-5094.9
3041	4.0427	3.6364	0.	-5087.7
3042	4.0427	3.4545	0.	-5082.2
3043	4.0427	3.2727	0.	-5078.5
3044	4.0427	3.0909	0.	-5076.6
3045	4.0427	2.9091	0.	-5076.6
3046	4.0427	2.7273	0.	-5078.5
3047	4.0427	2.5455	0.	-5082.2
3048	4.0427	2.3636	0.	-5087.7
3049	4.0427	2.1818	0.	-5094.9
3050	4.0427	2.	0.	-5103.8
3051	4.0427	1.8182	0.	-5114.3
3052	4.0427	1.6364	0.	-5126.2
3053	4.0427	1.4545	0.	-5139.5
3054	4.0427	1.2727	0.	-5154.
3055	4.0427	1.0909	0.	-5169.4
3056	4.0427	0.90909	0.	-5185.8
3057	4.0427	0.72727	0.	-5202.8
3058	4.0427	0.54545	0.	-5220.3
3059	4.0427	0.36364	0.	-5238.1
3060	4.0427	0.18182	0.	-5257.1
3061	3.859	5.8182	0.	-5323.5
3062	3.859	5.6364	0.	-5303.
3063	3.859	5.4545	0.	-5284.
3064	3.859	5.2727	0.	-5265.2
3065	3.859	5.0909	0.	-5247.1
3066	3.859	4.9091	0.	-5229.8
3067	3.859	4.7273	0.	-5213.3
3068	3.859	4.5455	0.	-5198.
3069	3.859	4.3636	0.	-5184.
3070	3.859	4.1818	0.	-5171.4
3071	3.859	4.	0.	-5160.4
3072	3.859	3.8182	0.	-5151.1
3073	3.859	3.6364	0.	-5143.5
3074	3.859	3.4545	0.	-5137.8
3075	3.859	3.2727	0.	-5133.9
3076	3.859	3.0909	0.	-5132.
3077	3.859	2.9091	0.	-5132.
3078	3.859	2.7273	0.	-5133.9
3079	3.859	2.5455	0.	-5137.8
3080	3.859	2.3636	0.	-5143.5
3081	3.859	2.1818	0.	-5151.1
3082	3.859	2.	0.	-5160.4
3083	3.859	1.8182	0.	-5171.4
3084	3.859	1.6364	0.	-5184.
3085	3.859	1.4545	0.	-5198.
3086	3.859	1.2727	0.	-5213.3
3087	3.859	1.0909	0.	-5229.8
3088	3.859	0.90909	0.	-5247.1
3089	3.859	0.72727	0.	-5265.2
3090	3.859	0.54545	0.	-5284.
3091	3.859	0.36364	0.	-5303.
3092	3.859	0.18182	0.	-5323.5
3093	3.6752	5.8182	0.	-5390.5
3094	3.6752	5.6364	0.	-5368.3
3095	3.6752	5.4545	0.	-5347.9
3096	3.6752	5.2727	0.	-5328.
3097	3.6752	5.0909	0.	-5308.7
3098	3.6752	4.9091	0.	-5290.3
3099	3.6752	4.7273	0.	-5273.
3100	3.6752	4.5455	0.	-5256.9
3101	3.6752	4.3636	0.	-5242.2
3102	3.6752	4.1818	0.	-5229.
3103	3.6752	4.	0.	-5217.5
3104	3.6752	3.8182	0.	-5207.8
3105	3.6752	3.6364	0.	-5200.
3106	3.6752	3.4545	0.	-5194.
3107	3.6752	3.2727	0.	-5190.
3108	3.6752	3.0909	0.	-5188.
3109	3.6752	2.9091	0.	-5188.
3110	3.6752	2.7273	0.	-5190.
3111	3.6752	2.5455	0.	-5194.
3112	3.6752	2.3636	0.	-5200.
3113	3.6752	2.1818	0.	-5207.8
3114	3.6752	2.	0.	-5217.5
3115	3.6752	1.8182	0.	-5229.
3116	3.6752	1.6364	0.	-5242.2
3117	3.6752	1.4545	0.	-5256.9
3118	3.6752	1.2727	0.	-5273.
3119	3.6752	1.0909	0.	-5290.3
3120	3.6752	0.90909	0.	-5308.7
3121	3.6752	0.72727	0.	-5328.
3122	3.6752	0.54545	0.	-5347.9
3123	3.6752	0.36364	0.	-5368.3
3124	3.6752	0.18182	0.	-5390.5
3125	3.4915	5.8182	0.	-5457.8
3126	3.4915	5.6364	0.	-5433.8
3127	3.4915	5.4545	0.	-5412.1
3128	3.4915	5.2727	0.	-5390.9
3129	3.4915	5.0909	0.	-5370.5
3130	3.4915	4.9091	0.	-5351.1
3131	3.4915	4.7273	0.	-5332.9
3132	3.4915	4.5455	0.	-5316.1
3133	3.4915	4.3636	0.	-5300.8
3134	3.4915	4.1818	0.	-5287.2
3135	3.4915	4.	0.	-5275.3
3136	3.4915	3.8182	0.	-5265.3
3137	3.4915	3.6364	0.	-5257.3
3138	3.4915	3.4545	0.	-5251.2
3139	3.4915	3.2727	0.	-5247.2
3140	3.4915	3.0909	0.	-5245.1
3141	3.4915	2.9091	0.	-5245.1
3142	3.4915	2.7273	0.	-5247.2
3143	3.4915	2.5455	0.	-5251.2
3144	3.4915	2.3636	0.	-5257.3
3145	3.4915	2.1818	0.	-5265.3
3146	3.4915	2.	0.	-5275.3
3147	3.4915	1.8182	0.	-5287.2
3148	3.4915	1.6364	0.	-5300.8
3149	3.4915	1.4545	0.	-5316.1
3150	3.4915	1.2727	0.	-5332.9
3151	3.4915	1.0909	0.	-5351.1
3152	3.4915	0.90909	0.	-5370.5
3153	3.4915	0.72727	0.	-5390.9
3154	3.4915	0.54545	0.	-5412.1
3155	3.4915	0.36364	0.	-5433.8
3156	3.4915	0.18182	0.	-5457.8
3157	3.3077	5.8182	0.	-5525.4
3158	3.3077	5.6364	0.	-5499.4
3159	3.3077	5.4545	0.	-5476.3
3160	3.3077	5.2727	0.	-5453.8
3161	3.3077	5.0909	0.	-5432.4
3162	3.3077	4.9091	0.	-5412.
3163	3.3077	4.7273	0.	-5393.1
3164	3.3077	4.5455	0.	-5375.6
3165	3.3077	4.3636	0.	-5359.9
3166	3.3077	4.1818	0.	-5345.9
3167	3.3077	4.	0.	-5333.9
3168	3.3077	3.8182	0.	-5323.8
3169	3.3077	3.6364	0.	-5315.7
3170	3.3077	3.4545	0.	-5309.7
3171	3.3077	3.2727	0.	-5305.6
3172	3.3077	3.0909	0.	-5303.6
3173	3.3077	2.9091	0.	-5303.6
3174	3.3077	2.7273	0.	-5305.6
3175	3.3077	2.5455	0.	-5309.7
3176	3.3077	2.3636	0.	-5315.7
3177	3.3077	2.1818	0.	-5323.8
3178	3.3077	2.	0.	-5333.9
3179	3.3077	1.8182	0.	-5345.9
3180	3.3077	1.6364	0.	-5359.9
3181	3.3077	1.4545	0.	-5375.6
3182	3.3077	1.2727	0.	-5393.1
3183	3.3077	1.0909	0.	-5412.
3184	3.3077	0.90909	0.	-5432.4
3185	3.3077	0.72727	0.	-5453.8
3186	3.3077	0.54545	0.	-5476.3
3187	3.3077	0.36364	0.	-5499.4
3188	3.3077	0.18182	0.	-5525.4
3189	3.1239	5.8182	0.	-5592.9
3190	3.1239	5.6364	0.	-5564.8
3191	3.1239	5.4545	0.	-5540.2
3192	3.1239	5.2727	0.	-5516.5
3193	3.1239	5.0909	0.	-5494.
3194	3.1239	4.9091	0.	-5472.9
3195	3.1239	4.7273	0.	-5453.3
3196	3.1239	4.5455	0.	-5435.5
3197	3.1239	4.3636	0.	-5419.5
3198	3.1239	4.1818	0.	-5405.5
3199	3.1239	4.	0.	-5393.5
3200	3.1239	3.8182	0.	-5383.6
3201	3.1239	3.6364	0.	-5375.6
3202	3.1239	3.4545	0.	-5369.7
3203	3.1239	3.2727	0.	-5365.8
3204	3.1239	3.0909	0.	-5363.8
3205	3.1239	2.9091	0.	-5363.8
3206	3.1239	2.7273	0.	-5365.8
3207	3.1239	2.5455	0.	-5369.7
3208	3.1239	2.3636	0.	-5375.6
3209	3.1239	2.1818	0.	-5383.6
3210	3.1239	2.	0.	-5393.5
3211	3.1239	1.8182	0.	-5405.5
3212	3.1239	1.6364	0.	-5419.5
3213	3.1239	1.4545	0.	-5435.5
3214	3.1239	1.2727	0.	-5453.3
3215	3.1239	1.0909	0.	-5472.9
3216	3.1239	0.90909	0.	-5494.
3217	3.1239	0.72727	0.	-5516.5
3218	3.1239	0.54545	0.	-5540.2
3219	3.1239	0.36364	0.	-5564.8
3220	3.1239	0.18182	0.	-5592.9
3221	2.9402	5.8182	0.	-5660.
3222	2.9402	5.6364	0.	-5629.6
3223	2.9402	5.4545	0.	-5603.6
3224	2.9402	5.2727	0.	-5578.7
3225	2.9402	5.0909	0.	-5555.3
3226	2.9402	4.9091	0.	-5533.6
3227	2.9402	4.7273	0.	-5513.6
3228	2.9402	4.5455	0.	-5495.7
3229	2.9402	4.3636	0.	-5479.8
3230	2.9402	4.1818	0.	-5466.
3231	2.9402	4.	0.	-5454.4
3232	2.9402	3.8182	0.	-5444.9
3233	2.9402	3.6364	0.	-5437.4
3234	2.9402	3.4545	0.	-5431.8
3235	2.9402	3.2727	0.	-5428.2
3236	2.9402	3.0909	0.	-5426.4
3237	2.9402	2.9091	0.	-5426.4
3238	2.9402	2.7273	0.	-5428.2
3239	2.9402	2.5455	0.	-5431.8
3240	2.9402	2.3636	0.	-5437.4
3241	2.9402	2.1818	0.	-5444.9
3242	2.9402	2.	0.	-5454.4
3243	2.9402	1.8182	0.	-5466.
3244	2.9402	1.6364	0.	-5479.8
3245	2.9402	1.4545	0.	-5495.7
3246	2.9402	1.2727	0.	-5513.6
3247	2.9402	1.0909	0.	-5533.6
3248	2.9402	0.90909	0.	-5555.3
3249	2.9402	0.72727	0.	-5578.7
3250	2.9402	0.54545	0.	-5603.6
3251	2.9402	0.36364	0.	-5629.6
3252	2.9402	0.18182	0.	-5660.
3253	2.7564	5.8182	0.	-5726.3
3254	2.7564	5.6364	0.	-5693.3
3255	2.7564	5.4545	0.	-5665.9
3256	2.7564	5.2727	0.	-5640.
3257	2.7564	5.0909	0.	-5615.9
3258	2.7564	4.9091	0.	-5593.8
3259	2.7564	4.7273	0.	-5573.8
3260	2.7564	4.5455	0.	-5556.1
3261	2.7564	4.3636	0.	-5540.8
3262	2.7564	4.1818	0.	-5527.7
3263	2.7564	4.	0.	-5516.9
3264	2.7564	3.8182	0.	-5508.2
3265	2.7564	3.6364	0.	-5501.5
3266	2.7564	3.4545	0.	-5496.6
3267	2.7564	3.2727	0.	-5493.4
3268	2.7564	3.0909	0.	-5491.8
3269	2.7564	2.9091	0.	-5491.8
3270	2.7564	2.7273	0.	-5493.4
3271	2.7564	2.5455	0.	-5496.6
3272	2.7564	2.3636	0.	-5501.5
3273	2.7564	2.1818	0.	-5508.2
3274	2.7564	2.	0.	-5516.9
3275	2.7564	1.8182	0.	-5527.7
3276	2.7564	1.6364	0.	-5540.8
3277	2.7564	1.4545	0.	-5556.1
3278	2.7564	1.2727	0.	-5573.8
3279	2.7564	1.0909	0.	-5593.8
3280	2.7564	0.90909	0.	-5615.9
3281	2.7564	0.72727	0.	-5640.
3282	2.7564	0.54545	0.	-5665.9
3283	2.7564	0.36364	0.	-5693.3
3284	2.7564	0.18182	0.	-5726.3
3285	2.5726	5.8182	0.	-5791.1
3286	2.5726	5.6364	0.	-5755.4
3287	2.5726	5.4545	0.	-5726.6
3288	2.5726	5.2727	0.	-5699.9
3289	2.5726	5.0909	0.	-5675.3
3290	2.5726	4.9091	0.	-5653.2
3291	2.5726	4.7273	0.	-5633.7
3292	2.5726	4.5455	0.	-5616.8
3293	2.5726	4.3636	0.	-5602.6
3294	2.5726	4.1818	0.	-5590.8
3295	2.5726	4.	0.	-5581.4
3296	2.5726	3.8182	0.	-5574.1
3297	2.5726	3.6364	0.	-5568.6
3298	2.5726	3.4545	0.	-5564.7
3299	2.5726	3.2727	0.	-5562.3
3300	2.5726	3.0909	0.	-5561.1
3301	2.5726	2.9091	0.	-5561.1
3302	2.5726	2.7273	0.	-5562.3
3303	2.5726	2.5455	0.	-5564.7
3304	2.5726	2.3636	0.	-5568.6
3305	2.5726	2.1818	0.	-5574.1
3306	2.5726	2.	0.	-5581.4
3307	2.5726	1.8182	0.	-5590.8
3308	2.5726	1.6364	0.	-5602.6
3309	2.5726	1.4545	0.	-5616.8
3310	2.5726	1.2727	0.	-5633.7
3311	2.5726	1.0909	0.	-5653.2
3312	2.5726	0.90909	0.	-5675.3
3313	2.5726	0.72727	0.	-5699.9
3314	2.5726	0.54545	0.	-5726.6
3315	2.5726	0.36364	0.	-5755.4
3316	2.5726	0.18182	0.	-5791.1
3317	2.3889	5.8182	0.	-5853.5
3318	2.3889	5.6364	0.	-5814.9
3319	2.3889	5.4545	0.	-5784.9
3320	2.3889	5.2727	0.	-5757.5
3321	2.3889	5.0909	0.	-5733.
3322	2.3889	4.9091	0.	-5711.4
3323	2.3889	4.7273	0.	-5693.
3324	2.3889	4.5455	0.	-5677.7
3325	2.3889	4.3636	0.	-5665.4
3326	2.3889	4.1818	0.	-5655.8
3327	2.3889	4.	0.	-5648.5
3328	2.3889	3.8182	0.	-5643.3
3329	2.3889	3.6364	0.	-5639.6
3330	2.3889	3.4545	0.	-5637.2
3331	2.3889	3.2727	0.	-5635.7
3332	2.3889	3.0909	0.	-5635.1
3333	2.3889	2.9091	0.	-5635.1
3334	2.3889	2.7273	0.	-5635.7
3335	2.3889	2.5455	0.	-5637.2
3336	2.3889	2.3636	0.	-5639.6
3337	2.3889	2.1818	0.	-5643.3
3338	2.3889	2.	0.	-5648.5
3339	2.3889	1.8182	0.	-5655.8
3340	2.3889	1.6364	0.	-5665.4
3341	2.3889	1.4545	0.	-5677.7
3342	2.3889	1.2727	0.	-5693.
3343	2.3889	1.0909	0.	-5711.4
3344	2.3889	0.90909	0.	-5733.
3345	2.3889	0.72727	0.	-5757.5
3346	2.3889	0.54545	0.	-5784.9
3347	2.3889	0.36364	0.	-5814.9
3348	2.3889	0.18182	0.	-5853.5
3349	2.2051	5.8182	0.	-5912.4
3350	2.2051	5.6364	0.	-5870.7
3351	2.2051	5.4545	0.	-5839.6
3352	2.2051	5.2727	0.	-5812.
3353	2.2051	5.0909	0.	-5788.1
3354	2.2051	4.9091	0.	-5767.9
3355	2.2051	4.7273	0.	-5751.5
3356	2.2051	4.5455	0.	-5738.8
3357	2.2051	4.3636	0.	-5729.5
3358	2.2051	4.1818	0.	-5723.
3359	2.2051	4.	0.	-5718.9
3360	2.2051	3.8182	0.	-5716.5
3361	2.2051	3.6364	0.	-5715.4
3362	2.2051	3.4545	0.	-5715.
3363	2.2051	3.2727	0.	-5715.
3364	2.2051	3.0909	0.	-5715.
3365	2.2051	2.9091	0.	-5715.
3366	2.2051	2.7273	0.	-5715.
3367	2.2051	2.5455	0.	-5715.
3368	2.2051	2.3636	0.	-5715.4
3369	2.2051	2.1818	0.	-5716.5
3370	2.2051	2.	0.	-5718.9
3371	2.2051	1.8182	0.	-5723.
3372	2.2051	1.6364	0.	-5729.5
3373	2.2051	1.4545	0.	-5738.8
3374	2.2051	1.2727	0.	-5751.5
3375	2.2051	1.0909	0.	-5767.9
3376	2.2051	0.90909	0.	-5788.1
3377	2.2051	0.72727	0.	-5812.
3378	2.2051	0.54545	0.	-5839.6
3379	2.2051	0.36364	0.	-5870.7
3380	2.2051	0.18182	0.	-5912.4
3381	2.0214	5.8182	0.	-5966.2
3382	2.0214	5.6364	0.	-5921.2
3383	2.0214	5.4545	0.	-5889.4
3384	2.0214	5.2727	0.	-5862.2
3385	2.0214	5.0909	0.	-5839.7
3386	2.0214	4.9091	0.	-5822.
3387	2.0214	4.7273	0.	-5808.9
3388	2.0214	4.5455	0.	-5800.2
3389	2.0214	4.3636	0.	-5795.2
3390	2.0214	4.1818	0.	-5793.2
3391	2.0214	4.	0.	-5793.4
3392	2.0214	3.8182	0.	-5795.
3393	2.0214	3.6364	0.	-5797.2
3394	2.0214	3.4545	0.	-5799.5
3395	2.0214	3.2727	0.	-5801.3
3396	2.0214	3.0909	0.	-5802.2
3397	2.0214	2.9091	0.	-5802.2
3398	2.0214	2.7273	0.	-5801.3
3399	2.0214	2.5455	0.	-5799.5
3400	2.0214	2.3636	0.	-5797.2
3401	2.0214	2.1818	0.	-5795.
3402	2.0214	2.	0.	-5793.4
3403	2.0214	1.8182	0.	-5793.2
3404	2.0214	1.6364	0.	-5795.2
3405	2.0214	1.4545	0.	-5800.2
3406	2.0214	1.2727	0.	-5808.9
3407	2.0214	1.0909	0.	-5822.
3408	2.0214	0.90909	0.	-5839.7
3409	2.0214	0.72727	0.	-5862.2
3410	2.0214	0.54545	0.	-5889.4
3411	2.0214	0.36364	0.	-5921.2
3412	2.0214	0.18182	0.	-5966.2
3413	1.8376	5.8182	0.	-6012.7
3414	1.8376	5.6364	0.	-5964.2
3415	1.8376	5.4545	0.	-5932.1
3416	1.8376	5.2727	0.	-5906.3
3417	1.8376	5.0909	0.	-5886.5
3418	1.8376	4.9091	0.	-5872.8
3419	1.8376	4.7273	0.	-5864.9
3420	1.8376	4.5455	0.	-5862.
3421	1.8376	4.3636	0.	-5863.2
3422	1.8376	4.1818	0.	-5867.3
3423	1.8376	4.	0.	-5873.3
3424	1.8376	3.8182	0.	-5880.
3425	1.8376	3.6364	0.	-5886.6
3426	1.8376	3.4545	0.	-5892.2
3427	1.8376	3.2727	0.	-5896.3
3428	1.8376	3.0909	0.	-5898.4
3429	1.8376	2.9091	0.	-5898.4
3430	1.8376	2.7273	0.	-5896.3
3431	1.8376	2.5455	0.	-5892.2
3432	1.8376	2.3636	0.	-5886.6
3433	1.8376	2.1818	0.	-5880.
3434	1.8376	2.	0.	-5873.3
3435	1.8376	1.8182	0.	-5867.3
3436	1.8376	1.6364	0.	-5863.2
3437	1.8376	1.4545	0.	-5862.
3438	1.8376	1.2727	0.	-5864.9
3439	1.8376	1.0909	0.	-5872.8
3440	1.8376	0.90909	0.	-5886.5
3441	1.8376	0.72727	0.	-5906.3
3442	1.8376	0.54545	0.	-5932.1
3443	1.8376	0.36364	0.	-5964.2
3444	1.8376	0.18182	0.	-6012.7
3445	1.6538	5.8182	0.	-6048.7
3446	1.6538	5.6364	0.	-5996.6
3447	1.6538	5.4545	0.	-5965.2
3448	1.6538	5.2727	0.	-5942.1
3449	1.6538	5.0909	0.	-5927.1
3450	1.6538	4.9091	0.	-5919.7
3451	1.6538	4.7273	0.	-5919.3
3452	1.6538	4.5455	0.	-5924.7
3453	1.6538	4.3636	0.	-5934.3
3454	1.6538	4.1818	0.	-5946.7
3455	1.6538	4.	0.	-5960.1
3456	1.6538	3.8182	0.	-5973.4
3457	1.6538	3.6364	0.	-5985.4
3458	1.6538	3.4545	0.	-5995.1
3459	1.6538	3.2727	0.	-6001.9
3460	1.6538	3.0909	0.	-6005.4
3461	1.6538	2.9091	0.	-6005.4
3462	1.6538	2.7273	0.	-6001.9
3463	1.6538	2.5455	0.	-5995.1
3464	1.6538	2.3636	0.	-5985.4
3465	1.6538	2.1818	0.	-5973.4
3466	1.6538	2.	0.	-5960.1
3467	1.6538	1.8182	0.	-5946.7
3468	1.6538	1.6364	0.	-5934.3
3469	1.6538	1.4545	0.	-5924.7
3470	1.6538	1.2727	0.	-5919.3
3471	1.6538	1.0909	0.	-5919.7
3472	1.6538	0.90909	0.	-5927.1
3473	1.6538	0.72727	0.	-5942.1
3474	1.6538	0.54545	0.	-5965.2
3475	1.6538	0.36364	0.	-5996.6
3476	1.6538	0.18182	0.	-6048.7
3477	1.4701	5.8182	0.	-6069.8
3478	1.4701	5.6364	0.	-6014.4
3479	1.4701	5.4545	0.	-5985.1
3480	1.4701	5.2727	0.	-5967.
3481	1.4701	5.0909	0.	-5959.5
3482	1.4701	4.9091	0.	-5961.8
3483	1.4701	4.7273	0.	-5972.4
3484	1.4701	4.5455	0.	-5989.3
3485	1.4701	4.3636	0.	-6010.3
3486	1.4701	4.1818	0.	-6033.2
3487	1.4701	4.	0.	-6056.
3488	1.4701	3.8182	0.	-6077.3
3489	1.4701	3.6364	0.	-6095.6
3490	1.4701	3.4545	0.	-6110.1
3491	1.4701	3.2727	0.	-6120.1
3492	1.4701	3.0909	0.	-6125.2
3493	1.4701	2.9091	0.	-6125.2
3494	1.4701	2.7273	0.	-6120.1
3495	1.4701	2.5455	0.	-6110.1
3496	1.4701	2.3636	0.	-6095.6
3497	1.4701	2.1818	0.	-6077.3
3498	1.4701	2.	0.	-6056.
3499	1.4701	1.8182	0.	-6033.2
3500	1.4701	1.6364	0.	-6010.3
3501	1.4701	1.4545	0.	-5989.3
3502	1.4701	1.2727	0.	-5972.4
3503	1.4701	1.0909	0.	-5961.8
3504	1.4701	0.90909	0.	-5959.5
3505	1.4701	0.72727	0.	-5967.
3506	1.4701	0.54545	0.	-5985.1
3507	1.4701	0.36364	0.	-6014.4
3508	1.4701	0.18182	0.	-6069.8
3509	1.2863	5.8182	0.	-6069.5
3510	1.2863	5.6364	0.	-6011.3
3511	1.2863	5.4545	0.	-5986.6
3512	1.2863	5.2727	0.	-5977.2
3513	1.2863	5.0909	0.	-5981.9
3514	1.2863	4.9091	0.	-5998.8
3515	1.2863	4.7273	0.	-6025.2
3516	1.2863	4.5455	0.	-6057.8
3517	1.2863	4.3636	0.	-6093.6
3518	1.2863	4.1818	0.	-6129.6
3519	1.2863	4.	0.	-6163.7
3520	1.2863	3.8182	0.	-6194.2
3521	1.2863	3.6364	0.	-6219.7
3522	1.2863	3.4545	0.	-6239.5
3523	1.2863	3.2727	0.	-6253.
3524	1.2863	3.0909	0.	-6259.8
3525	1.2863	2.9091	0.	-6259.8
3526	1.2863	2.7273	0.	-6253.
3527	1.2863	2.5455	0.	-6239.5
3528	1.2863	2.3636	0.	-6219.7
3529	1.2863	2.1818	0.	-6194.2
3530	1.2863	2.	0.	-6163.7
3531	1.2863	1.8182	0.	-6129.6
3532	1.2863	1.6364	0.	-6093.6
3533	1.2863	1.4545	0.	-6057.8
3534	1.2863	1.2727	0.	-6025.2
3535	1.2863	1.0909	0.	-5998.8
3536	1.2863	0.90909	0.	-5981.9
3537	1.2863	0.72727	0.	-5977.2
3538	1.2863	0.54545	0.	-5986.6
3539	1.2863	0.36364	0.	-6011.3
3540	1.2863	0.18182	0.	-6069.5
3541	1.1026	5.8182	0.	-6037.9
3542	1.1026	5.6364	0.	-5978.7
3543	1.1026	5.4545	0.	-5963.1
3544	1.1026	5.2727	0.	-5968.8
3545	1.1026	5.0909	0.	-5993.
3546	1.1026	4.9091	0.	-6031.8
3547	1.1026	4.7273	0.	-6080.4
3548	1.1026	4.5455	0.	-6133.9
3549	1.1026	4.3636	0.	-6188.2
3550	1.1026	4.1818	0.	-6240.
3551	1.1026	4.	0.	-6286.9
3552	1.1026	3.8182	0.	-6327.6
3553	1.1026	3.6364	0.	-6360.8
3554	1.1026	3.4545	0.	-6386.2
3555	1.1026	3.2727	0.	-6403.2
3556	1.1026	3.0909	0.	-6411.7
3557	1.1026	2.9091	0.	-6411.7
3558	1.1026	2.7273	0.	-6403.2
3559	1.1026	2.5455	0.	-6386.2
3560	1.1026	2.3636	0.	-6360.8
3561	1.1026	2.1818	0.	-6327.6
3562	1.1026	2.	0.	-6286.9
3563	1.1026	1.8182	0.	-6240.
3564	1.1026	1.6364	0.	-6188.2
3565	1.1026	1.4545	0.	-6133.9
3566	1.1026	1.2727	0.	-6080.4
3567	1.1026	1.0909	0.	-6031.8
3568	1.1026	0.90909	0.	-5993.
3569	1.1026	0.72727	0.	-5968.8
3570	1.1026	0.54545	0.	-5963.1
3571	1.1026	0.36364	0.	-5978.7
3572	1.1026	0.18182	0.	-6037.9
3573	0.9188	5.8182	0.	-5958.6
3574	0.9188	5.6364	0.	-5902.3
3575	0.9188	5.4545	0.	-5904.4
3576	0.9188	5.2727	0.	-5936.4
3577	0.9188	5.0909	0.	-5992.
3578	0.9188	4.9091	0.	-6063.3
3579	0.9188	4.7273	0.	-6142.4
3580	0.9188	4.5455	0.	-6222.5
3581	0.9188	4.3636	0.	-6298.8
3582	0.9188	4.1818	0.	-6368.2
3583	0.9188	4.	0.	-6428.9
3584	0.9188	3.8182	0.	-6479.9
3585	0.9188	3.6364	0.	-6520.7
3586	0.9188	3.4545	0.	-6551.3
3587	0.9188	3.2727	0.	-6571.6
3588	0.9188	3.0909	0.	-6581.7
3589	0.9188	2.9091	0.	-6581.7
3590	0.9188	2.7273	0.	-6571.6
3591	0.9188	2.5455	0.	-6551.3
3592	0.9188	2.3636	0.	-6520.7
3593	0.9188	2.1818	0.	-6479.9
3594	0.9188	2.	0.	-6428.9
3595	0.9188	1.8182	0.	-6368.2
3596	0.9188	1.6364	0.	-6298.8
3597	0.9188	1.4545	0.	-6222.5
3598	0.9188	1.2727	0.	-6142.4
3599	0.9188	1.0909	0.	-6063.3
3600	0.9188	0.90909	0.	-5992.
3601	0.9188	0.72727	0.	-5936.4
3602	0.9188	0.54545	0.	-5904.4
3603	0.9188	0.36364	0.	-5902.3
3604	0.9188	0.18182	0.	-5958.6
3605	0.73504	5.8182	0.	-5806.
3606	0.73504	5.6364	0.	-5763.6
3607	0.73504	5.4545	0.	-5801.9
3608	0.73504	5.2727	0.	-5881.5
3609	0.73504	5.0909	0.	-5988.
3610	0.73504	4.9091	0.	-6106.6
3611	0.73504	4.7273	0.	-6225.6
3612	0.73504	4.5455	0.	-6337.4
3613	0.73504	4.3636	0.	-6437.9
3614	0.73504	4.1818	0.	-6525.2
3615	0.73504	4.	0.	-6599.
3616	0.73504	3.8182	0.	-6659.3
3617	0.73504	3.6364	0.	-6706.6
3618	0.73504	3.4545	0.	-6741.6
3619	0.73504	3.2727	0.	-6764.6
3620	0.73504	3.0909	0.	-6776.
3621	0.73504	2.9091	0.	-6776.
3622	0.73504	2.7273	0.	-6764.6
3623	0.73504	2.5455	0.	-6741.6
3624	0.73504	2.3636	0.	-6706.6
3625	0.73504	2.1818	0.	-6659.3
3626	0.73504	2.	0.	-6599.
3627	0.73504	1.8182	0.	-6525.2
3628	0.73504	1.6364	0.	-6437.9
3629	0.73504	1.4545	0.	-6337.4
3630	0.73504	1.2727	0.	-6225.6
3631	0.73504	1.0909	0.	-6106.6
3632	0.73504	0.90909	0.	-5988.
3633	0.73504	0.72727	0.	-5881.5
3634	0.73504	0.54545	0.	-5801.9
3635	0.73504	0.36364	0.	-5763.6
3636	0.73504	0.18182	0.	-5806.
3637	0.55128	5.8182	0.	-5521.9
3638	0.55128	5.6364	0.	-5517.4
3639	0.55128	5.4545	0.	-5630.1
3640	0.55128	5.2727	0.	-5796.2
3641	0.55128	5.0909	0.	-5982.2
3642	0.55128	4.9091	0.	-6164.3
3643	0.55128	4.7273	0.	-6330.1
3644	0.55128	4.5455	0.	-6474.8
3645	0.55128	4.3636	0.	-6597.9
3646	0.55128	4.1818	0.	-6700.6
3647	0.55128	4.	0.	-6784.5
3648	0.55128	3.8182	0.	-6851.6
3649	0.55128	3.6364	0.	-6903.3
3650	0.55128	3.4545	0.	-6941.
3651	0.55128	3.2727	0.	-6965.6
3652	0.55128	3.0909	0.	-6977.7
3653	0.55128	2.9091	0.	-6977.7
3654	0.55128	2.7273	0.	-6965.6
3655	0.55128	2.5455	0.	-6941.
3656	0.55128	2.3636	0.	-6903.3
3657	0.55128	2.1818	0.	-6851.6
3658	0.55128	2.	0.	-6784.5
3659	0.55128	1.8182	0.	-6700.6
3660	0.55128	1.6364	0.	-6597.9
3661	0.55128	1.4545	0.	-6474.8
3662	0.55128	1.2727	0.	-6330.1
3663	0.55128	1.0909	0.	-6164.3
3664	0.55128	0.90909	0.	-5982.2
3665	0.55128	0.72727	0.	-5796.2
3666	0.55128	0.54545	0.	-5630.1
3667	0.55128	0.36364	0.	-5517.4
3668	0.55128	0.18182	0.	-5521.9
3669	0.36752	5.8182	0.	-5025.8
3670	0.36752	5.6364	0.	-5157.
3671	0.36752	5.4545	0.	-5451.6
3672	0.36752	5.2727	0.	-5778.5
3673	0.36752	5.0909	0.	-6078.5
3674	0.36752	4.9091	0.	-6334.2
3675	0.36752	4.7273	0.	-6545.5
3676	0.36752	4.5455	0.	-6717.8
3677	0.36752	4.3636	0.	-6857.5
3678	0.36752	4.1818	0.	-6969.8
3679	0.36752	4.	0.	-7059.2
3680	0.36752	3.8182	0.	-7129.3
3681	0.36752	3.6364	0.	-7182.5
3682	0.36752	3.4545	0.	-7220.9
3683	0.36752	3.2727	0.	-7245.8
3684	0.36752	3.0909	0.	-7258.1
3685	0.36752	2.9091	0.	-7258.1
3686	0.36752	2.7273	0.	-7245.8
3687	0.36752	2.5455	0.	-7220.9
3688	0.36752	2.3636	0.	-7182.5
3689	0.36752	2.1818	0.	-7129.3
3690	0.36752	2.	0.	-7059.2
3691	0.36752	1.8182	0.	-6969.8
3692	0.36752	1.6364	0.	-6857.5
3693	0.36752	1.4545	0.	-6717.8
3694	0.36752	1.2727	0.	-6545.5
3695	0.36752	1.0909	0.	-6334.2
3696	0.36752	0.90909	0.	-6078.5
3697	0.36752	0.72727	0.	-5778.5
3698	0.36752	0.54545	0.	-5451.6
3699	0.36752	0.36364	0.	-5157.
3700	0.36752	0.18182	0.	-5025.8
3701	0.18376	5.8182	0.	-3886.4
3702	0.18376	5.6364	0.	-4486.5
3703	0.18376	5.4545	0.	-5180.2
3704	0.18376	5.2727	0.	-5710.5
3705	0.18376	5.0909	0.	-6109.1
3706	0.18376	4.9091	0.	-6409.1
3707	0.18376	4.7273	0.	-6638.9
3708	0.18376	4.5455	0.	-6816.9
3709	0.18376	4.3636	0.	-6956.2
3710	0.18376	4.1818	0.	-7065.4
3711	0.18376	4.	0.	-7150.8
3712	0.18376	3.8182	0.	-7216.7
3713	0.18376	3.6364	0.	-7266.3
3714	0.18376	3.4545	0.	-7301.9
3715	0.18376	3.2727	0.	-7324.8
3716	0.18376	3.0909	0.	-7336.
3717	0.18376	2.9091	0.	-7336.
3718	0.18376	2.7273	0.	-7324.8
3719	0.18376	2.5455	0.	-7301.9
3720	0.18376	2.3636	0.	-7266.3
3721	0.18376	2.1818	0.	-7216.7
3722	0.18376	2.	0.	-7150.8
3723	0.18376	1.8182	0.	-7065.4
3724	0.18376	1.6364	0.	-6956.2
3725	0.18376	1.4545	0.	-6816.9
3726	0.18376	1.2727	0.	-6638.9
3727	0.18376	1.0909	0.	-6409.1
3728	0.18376	0.90909	0.	-6109.1
3729	0.18376	0.72727	0.	-5710.5
3730	0.18376	0.54545	0.	-5180.2
3731	0.18376	0.36364	0.	-4486.5
3732	0.18376	0.18182	0.	-3886.4
3733	21.846	0.18182	0.	-55.724
3734	21.846	0.36364	0.	-82.425
3735	21.846	0.54545	0.	-115.4
3736	21.846	0.72727	0.	-154.07
3737	21.846	0.90909	0.	-200.93
3738	21.846	1.0909	0.	-259.85
3739	21.846	1.2727	0.	-337.06
3740	21.846	1.4545	0.	-445.05
3741	21.846	1.6364	0.	-606.52
3742	21.846	1.8182	0.	-920.24
3743	21.846	2.	0.	-1303.
3744	21.846	2.1818	0.	-1364.7
3745	21.846	2.3636	0.	-1246.9
3746	21.846	2.5455	0.	-1131.4
3747	21.846	2.7273	0.	-1066.9
3748	21.846	2.9091	0.	-1036.9
3749	21.846	3.0909	0.	-1036.9
3750	21.846	3.2727	0.	-1066.9
3751	21.846	3.4545	0.	-1131.4
3752	21.846	3.6364	0.	-1246.9
3753	21.846	3.8182	0.	-1364.7
3754	21.846	4.	0.	-1303.
3755	21.846	4.1818	0.	-920.24
3756	21.846	4.3636	0.	-606.52
3757	21.846	4.5455	0.	-445.05
3758	21.846	4.7273	0.	-337.06
3759	21.846	4.9091	0.	-259.85
3760	21.846	5.0909	0.	-200.93
3761	21.846	5.2727	0.	-154.07
3762	21.846	5.4545	0.	-115.4
3763	21.846	5.6364	0.	-82.425
3764	21.846	5.8182	0.	-55.724
3765	22.026	0.18182	0.	-79.061
3766	22.026	0.36364	0.	-94.913
3767	22.026	0.54545	0.	-121.03
3768	22.026	0.72727	0.	-154.76
3769	22.026	0.90909	0.	-196.87
3770	22.026	1.0909	0.	-249.77
3771	22.026	1.2727	0.	-317.6
3772	22.026	1.4545	0.	-406.73
3773	22.026	1.6364	0.	-525.44
3774	22.026	1.8182	0.	-686.89
3775	22.026	2.	0.	-850.06
3776	22.026	2.1818	0.	-972.05
3777	22.026	2.3636	0.	-991.23
3778	22.026	2.5455	0.	-967.27
3779	22.026	2.7273	0.	-940.28
3780	22.026	2.9091	0.	-925.36
3781	22.026	3.0909	0.	-925.36
3782	22.026	3.2727	0.	-940.28
3783	22.026	3.4545	0.	-967.27
3784	22.026	3.6364	0.	-991.23
3785	22.026	3.8182	0.	-972.05
3786	22.026	4.	0.	-850.06
3787	22.026	4.1818	0.	-686.89
3788	22.026	4.3636	0.	-525.44
3789	22.026	4.5455	0.	-406.73
3790	22.026	4.7273	0.	-317.6
3791	22.026	4.9091	0.	-249.77
3792	22.026	5.0909	0.	-196.87
3793	22.026	5.2727	0.	-154.76
3794	22.026	5.4545	0.	-121.03
3795	22.026	5.6364	0.	-94.913
3796	22.026	5.8182	0.	-79.061
3797	22.205	0.18182	0.	-99.528
3798	22.205	0.36364	0.	-110.27
3799	22.205	0.54545	0.	-130.73
3800	22.205	0.72727	0.	-159.2
3801	22.205	0.90909	0.	-195.87
3802	22.205	1.0909	0.	-241.89
3803	22.205	1.2727	0.	-299.21
3804	22.205	1.4545	0.	-370.51
3805	22.205	1.6364	0.	-457.4
3806	22.205	1.8182	0.	-558.92
3807	22.205	2.	0.	-663.66
3808	22.205	2.1818	0.	-745.76
3809	22.205	2.3636	0.	-790.15
3810	22.205	2.5455	0.	-802.9
3811	22.205	2.7273	0.	-802.15
3812	22.205	2.9091	0.	-799.32
3813	22.205	3.0909	0.	-799.32
3814	22.205	3.2727	0.	-802.15
3815	22.205	3.4545	0.	-802.9
3816	22.205	3.6364	0.	-790.15
3817	22.205	3.8182	0.	-745.76
3818	22.205	4.	0.	-663.66
3819	22.205	4.1818	0.	-558.92
3820	22.205	4.3636	0.	-457.4
3821	22.205	4.5455	0.	-370.51
3822	22.205	4.7273	0.	-299.21
3823	22.205	4.9091	0.	-241.89
3824	22.205	5.0909	0.	-195.87
3825	22.205	5.2727	0.	-159.2
3826	22.205	5.4545	0.	-130.73
3827	22.205	5.6364	0.	-110.27
3828	22.205	5.8182	0.	-99.528
3829	22.385	0.18182	0.	-113.42
3830	22.385	0.36364	0.	-121.34
3831	22.385	0.54545	0.	-137.57
3832	22.385	0.72727	0.	-160.93
3833	22.385	0.90909	0.	-191.52
3834	22.385	1.0909	0.	-229.74
3835	22.385	1.2727	0.	-276.21
3836	22.385	1.4545	0.	-331.45
3837	22.385	1.6364	0.	-395.35
3838	22.385	1.8182	0.	-465.69
3839	22.385	2.	0.	-536.16
3840	22.385	2.1818	0.	-596.36
3841	22.385	2.3636	0.	-638.24
3842	22.385	2.5455	0.	-661.44
3843	22.385	2.7273	0.	-671.77
3844	22.385	2.9091	0.	-675.32
3845	22.385	3.0909	0.	-675.32
3846	22.385	3.2727	0.	-671.77
3847	22.385	3.4545	0.	-661.44
3848	22.385	3.6364	0.	-638.24
3849	22.385	3.8182	0.	-596.36
3850	22.385	4.	0.	-536.16
3851	22.385	4.1818	0.	-465.69
3852	22.385	4.3636	0.	-395.35
3853	22.385	4.5455	0.	-331.45
3854	22.385	4.7273	0.	-276.21
3855	22.385	4.9091	0.	-229.74
3856	22.385	5.0909	0.	-191.52
3857	22.385	5.2727	0.	-160.93
3858	22.385	5.4545	0.	-137.57
3859	22.385	5.6364	0.	-121.34
3860	22.385	5.8182	0.	-113.42
3861	22.564	0.18182	0.	-120.49
3862	22.564	0.36364	0.	-126.47
3863	22.564	0.54545	0.	-139.46
3864	22.564	0.72727	0.	-158.34
3865	22.564	0.90909	0.	-183.14
3866	22.564	1.0909	0.	-213.91
3867	22.564	1.2727	0.	-250.62
3868	22.564	1.4545	0.	-293.09
3869	22.564	1.6364	0.	-340.58
3870	22.564	1.8182	0.	-391.3
3871	22.564	2.	0.	-441.51
3872	22.564	2.1818	0.	-486.
3873	22.564	2.3636	0.	-520.32
3874	22.564	2.5455	0.	-543.21
3875	22.564	2.7273	0.	-556.26
3876	22.564	2.9091	0.	-561.96
3877	22.564	3.0909	0.	-561.96
3878	22.564	3.2727	0.	-556.26
3879	22.564	3.4545	0.	-543.21
3880	22.564	3.6364	0.	-520.32
3881	22.564	3.8182	0.	-486.
3882	22.564	4.	0.	-441.51
3883	22.564	4.1818	0.	-391.3
3884	22.564	4.3636	0.	-340.58
3885	22.564	4.5455	0.	-293.09
3886	22.564	4.7273	0.	-250.62
3887	22.564	4.9091	0.	-213.91
3888	22.564	5.0909	0.	-183.14
3889	22.564	5.2727	0.	-158.34
3890	22.564	5.4545	0.	-139.46
3891	22.564	5.6364	0.	-126.47
3892	22.564	5.8182	0.	-120.49
3893	22.744	0.18182	0.	-121.07
3894	22.744	0.36364	0.	-125.53
3895	22.744	0.54545	0.	-135.9
3896	22.744	0.72727	0.	-151.
3897	22.744	0.90909	0.	-170.74
3898	22.744	1.0909	0.	-194.99
3899	22.744	1.2727	0.	-223.53
3900	22.744	1.4545	0.	-255.95
3901	22.744	1.6364	0.	-291.47
3902	22.744	1.8182	0.	-328.67
3903	22.744	2.	0.	-365.22
3904	22.744	2.1818	0.	-398.12
3905	22.744	2.3636	0.	-424.79
3906	22.744	2.5455	0.	-444.03
3907	22.744	2.7273	0.	-456.02
3908	22.744	2.9091	0.	-461.68
3909	22.744	3.0909	0.	-461.68
3910	22.744	3.2727	0.	-456.02
3911	22.744	3.4545	0.	-444.03
3912	22.744	3.6364	0.	-424.79
3913	22.744	3.8182	0.	-398.12
3914	22.744	4.	0.	-365.22
3915	22.744	4.1818	0.	-328.67
3916	22.744	4.3636	0.	-291.47
3917	22.744	4.5455	0.	-255.95
3918	22.744	4.7273	0.	-223.53
3919	22.744	4.9091	0.	-194.99
3920	22.744	5.0909	0.	-170.74
3921	22.744	5.2727	0.	-151.
3922	22.744	5.4545	0.	-135.9
3923	22.744	5.6364	0.	-125.53
3924	22.744	5.8182	0.	-121.07
3925	22.923	0.18182	0.	-115.83
3926	22.923	0.36364	0.	-119.03
3927	22.923	0.54545	0.	-127.28
3928	22.923	0.72727	0.	-139.24
3929	22.923	0.90909	0.	-154.72
3930	22.923	1.0909	0.	-173.55
3931	22.923	1.2727	0.	-195.45
3932	22.923	1.4545	0.	-219.99
3933	22.923	1.6364	0.	-246.49
3934	22.923	1.8182	0.	-273.86
3935	22.923	2.	0.	-300.52
3936	22.923	2.1818	0.	-324.62
3937	22.923	2.3636	0.	-344.55
3938	22.923	2.5455	0.	-359.41
3939	22.923	2.7273	0.	-369.04
3940	22.923	2.9091	0.	-373.72
3941	22.923	3.0909	0.	-373.72
3942	22.923	3.2727	0.	-369.04
3943	22.923	3.4545	0.	-359.41
3944	22.923	3.6364	0.	-344.55
3945	22.923	3.8182	0.	-324.62
3946	22.923	4.	0.	-300.52
3947	22.923	4.1818	0.	-273.86
3948	22.923	4.3636	0.	-246.49
3949	22.923	4.5455	0.	-219.99
3950	22.923	4.7273	0.	-195.45
3951	22.923	4.9091	0.	-173.55
3952	22.923	5.0909	0.	-154.72
3953	22.923	5.2727	0.	-139.24
3954	22.923	5.4545	0.	-127.28
3955	22.923	5.6364	0.	-119.03
3956	22.923	5.8182	0.	-115.83
3957	23.103	0.18182	0.	-105.54
3958	23.103	0.36364	0.	-107.76
3959	23.103	0.54545	0.	-114.3
3960	23.103	0.72727	0.	-123.69
3961	23.103	0.90909	0.	-135.69
3962	23.103	1.0909	0.	-150.09
3963	23.103	1.2727	0.	-166.65
3964	23.103	1.4545	0.	-185.
3965	23.103	1.6364	0.	-204.56
3966	23.103	1.8182	0.	-224.49
3967	23.103	2.	0.	-243.67
3968	23.103	2.1818	0.	-260.88
3969	23.103	2.3636	0.	-275.11
3970	23.103	2.5455	0.	-285.79
3971	23.103	2.7273	0.	-292.76
3972	23.103	2.9091	0.	-296.18
3973	23.103	3.0909	0.	-296.18
3974	23.103	3.2727	0.	-292.76
3975	23.103	3.4545	0.	-285.79
3976	23.103	3.6364	0.	-275.11
3977	23.103	3.8182	0.	-260.88
3978	23.103	4.	0.	-243.67
3979	23.103	4.1818	0.	-224.49
3980	23.103	4.3636	0.	-204.56
3981	23.103	4.5455	0.	-185.
3982	23.103	4.7273	0.	-166.65
3983	23.103	4.9091	0.	-150.09
3984	23.103	5.0909	0.	-135.69
3985	23.103	5.2727	0.	-123.69
3986	23.103	5.4545	0.	-114.3
3987	23.103	5.6364	0.	-107.76
3988	23.103	5.8182	0.	-105.54
3989	23.282	0.18182	0.	-91.012
3990	23.282	0.36364	0.	-92.559
3991	23.282	0.54545	0.	-97.788
3992	23.282	0.72727	0.	-105.12
3993	23.282	0.90909	0.	-114.28
3994	23.282	1.0909	0.	-125.12
3995	23.282	1.2727	0.	-137.43
3996	23.282	1.4545	0.	-150.9
3997	23.282	1.6364	0.	-165.06
3998	23.282	1.8182	0.	-179.23
3999	23.282	2.	0.	-192.57
4000	23.282	2.1818	0.	-204.25
4001	23.282	2.3636	0.	-213.65
4002	23.282	2.5455	0.	-220.51
4003	23.282	2.7273	0.	-224.86
4004	23.282	2.9091	0.	-226.94
4005	23.282	3.0909	0.	-226.94
4006	23.282	3.2727	0.	-224.86
4007	23.282	3.4545	0.	-220.51
4008	23.282	3.6364	0.	-213.65
4009	23.282	3.8182	0.	-204.25
4010	23.282	4.	0.	-192.57
4011	23.282	4.1818	0.	-179.23
4012	23.282	4.3636	0.	-165.06
4013	23.282	4.5455	0.	-150.9
4014	23.282	4.7273	0.	-137.43
4015	23.282	4.9091	0.	-125.12
4016	23.282	5.0909	0.	-114.28
4017	23.282	5.2727	0.	-105.12
4018	23.282	5.4545	0.	-97.788
4019	23.282	5.6364	0.	-92.559
4020	23.282	5.8182	0.	-91.012
4021	23.462	0.18182	0.	-73.018
4022	23.462	0.36364	0.	-74.289
4023	23.462	0.54545	0.	-78.58
4024	23.462	0.72727	0.	-84.281
4025	23.462	0.90909	0.	-91.18
4026	23.462	1.0909	0.	-99.2
4027	23.462	1.2727	0.	-108.2
4028	23.462	1.4545	0.	-117.92
4029	23.462	1.6364	0.	-127.92
4030	23.462	1.8182	0.	-137.63
4031	23.462	2.	0.	-146.37
4032	23.462	2.1818	0.	-153.51
4033	23.462	2.3636	0.	-158.69
4034	23.462	2.5455	0.	-161.91
4035	23.462	2.7273	0.	-163.54
4036	23.462	2.9091	0.	-164.14
4037	23.462	3.0909	0.	-164.14
4038	23.462	3.2727	0.	-163.54
4039	23.462	3.4545	0.	-161.91
4040	23.462	3.6364	0.	-158.69
4041	23.462	3.8182	0.	-153.51
4042	23.462	4.	0.	-146.37
4043	23.462	4.1818	0.	-137.63
4044	23.462	4.3636	0.	-127.92
4045	23.462	4.5455	0.	-117.92
4046	23.462	4.7273	0.	-108.2
4047	23.462	4.9091	0.	-99.2
4048	23.462	5.0909	0.	-91.179
4049	23.462	5.2727	0.	-84.281
4050	23.462	5.4545	0.	-78.58
4051	23.462	5.6364	0.	-74.289
4052	23.462	5.8182	0.	-73.018
4053	23.641	0.18182	0.	-52.27
4054	23.641	0.36364	0.	-53.836
4055	23.641	0.54545	0.	-57.461
4056	23.641	0.72727	0.	-61.893
4057	23.641	0.90909	0.	-67.096
4058	23.641	1.0909	0.	-73.071
4059	23.641	1.2727	0.	-79.712
4060	23.641	1.4545	0.	-86.779
4061	23.641	1.6364	0.	-93.868
4062	23.641	1.8182	0.	-100.42
4063	23.641	2.	0.	-105.78
4064	23.641	2.1818	0.	-109.37
4065	23.641	2.3636	0.	-110.85
4066	23.641	2.5455	0.	-110.24
4067	23.641	2.7273	0.	-108.2
4068	23.641	2.9091	0.	-106.24
4069	23.641	3.0909	0.	-106.24
4070	23.641	3.2727	0.	-108.2
4071	23.641	3.4545	0.	-110.24
4072	23.641	3.6364	0.	-110.85
4073	23.641	3.8182	0.	-109.37
4074	23.641	4.	0.	-105.78
4075	23.641	4.1818	0.	-100.42
4076	23.641	4.3636	0.	-93.868
4077	23.641	4.5455	0.	-86.779
4078	23.641	4.7273	0.	-79.712
4079	23.641	4.9091	0.	-73.071
4080	23.641	5.0909	0.	-67.096
4081	23.641	5.2727	0.	-61.893
4082	23.641	5.4545	0.	-57.461
4083	23.641	5.6364	0.	-53.836
4084	23.641	5.8182	0.	-52.27
4085	23.821	0.18182	0.	-30.281
4086	23.821	0.36364	0.	-32.642
4087	23.821	0.54545	0.	-35.852
4088	23.821	0.72727	0.	-39.659
4089	23.821	0.90909	0.	-44.102
4090	23.821	1.0909	0.	-49.197
4091	23.821	1.2727	0.	-54.833
4092	23.821	1.4545	0.	-60.763
4093	23.821	1.6364	0.	-66.572
4094	23.821	1.8182	0.	-71.705
4095	23.821	2.	0.	-75.544
4096	23.821	2.1818	0.	-77.531
4097	23.821	2.3636	0.	-77.301
4098	23.821	2.5455	0.	-74.781
4099	23.821	2.7273	0.	-70.308
4100	23.821	2.9091	0.	-65.289
4101	23.821	3.0909	0.	-65.289
4102	23.821	3.2727	0.	-70.308
4103	23.821	3.4545	0.	-74.781
4104	23.821	3.6364	0.	-77.302
4105	23.821	3.8182	0.	-77.531
4106	23.821	4.	0.	-75.544
4107	23.821	4.1818	0.	-71.705
4108	23.821	4.3636	0.	-66.572
4109	23.821	4.5455	0.	-60.763
4110	23.821	4.7273	0.	-54.833
4111	23.821	4.9091	0.	-49.197
4112	23.821	5.0909	0.	-44.102
4113	23.821	5.2727	0.	-39.659
4114	23.821	5.4545	0.	-35.852
4115	23.821	5.6364	0.	-32.642
4116	23.821	5.8182	0.	-30.281
4117	23.821	5.8182	0.1	-24.221
4118	23.821	5.6364	0.1	-35.52
4119	23.821	5.4545	0.1	-41.453
4120	23.821	5.2727	0.1	-42.728
4121	23.821	5.0909	0.1	-40.531
4122	23.821	4.9091	0.1	-35.791
4123	23.821	4.7273	0.1	-29.306
4124	23.821	4.5455	0.1	-21.747
4125	23.821	4.3636	0.1	-13.673
4126	23.821	4.1818	0.1	-5.8916
4127	23.821	4.	0.1	-1.6433
4128	23.821	3.8182	0.1	-0.81309
4129	23.821	3.6364	0.1	-0.56946
4130	23.821	3.4545	0.1	-0.45879
4131	23.821	3.2727	0.1	-0.40128
4132	23.821	3.0909	0.1	-0.37557
4133	23.821	2.9091	0.1	-0.37557
4134	23.821	2.7273	0.1	-0.40128
4135	23.821	2.5455	0.1	-0.45879
4136	23.821	2.3636	0.1	-0.56945
4137	23.821	2.1818	0.1	-0.81309
4138	23.821	2.	0.1	-1.6433
4139	23.821	1.8182	0.1	-5.8915
4140	23.821	1.6364	0.1	-13.673
4141	23.821	1.4545	0.1	-21.747
4142	23.821	1.2727	0.1	-29.306
4143	23.821	1.0909	0.1	-35.791
4144	23.821	0.90909	0.1	-40.531
4145	23.821	0.72727	0.1	-42.728
4146	23.821	0.54545	0.1	-41.453
4147	23.821	0.36364	0.1	-35.52
4148	23.821	0.18182	0.1	-24.221
4149	23.641	5.8182	0.1	-20.246
4150	23.641	5.6364	0.1	-26.004
4151	23.641	5.4545	0.1	-29.279
4152	23.641	5.2727	0.1	-28.754
4153	23.641	5.0909	0.1	-24.995
4154	23.641	4.9091	0.1	-18.719
4155	23.641	4.7273	0.1	-10.654
4156	23.641	4.5455	0.1	-1.6886
4157	23.641	4.3636	0.1	-0.37765
4158	23.641	4.1818	0.1	-0.37983
4159	23.641	4.	0.1	-0.39906
4160	23.641	3.8182	0.1	-0.42031
4161	23.641	3.6364	0.1	-0.43959
4162	23.641	3.4545	0.1	-0.45491
4163	23.641	3.2727	0.1	-0.46531
4164	23.641	3.0909	0.1	-0.47052
4165	23.641	2.9091	0.1	-0.47052
4166	23.641	2.7273	0.1	-0.46531
4167	23.641	2.5455	0.1	-0.45491
4168	23.641	2.3636	0.1	-0.43959
4169	23.641	2.1818	0.1	-0.42031
4170	23.641	2.	0.1	-0.39906
4171	23.641	1.8182	0.1	-0.37983
4172	23.641	1.6364	0.1	-0.37765
4173	23.641	1.4545	0.1	-1.6885
4174	23.641	1.2727	0.1	-10.654
4175	23.641	1.0909	0.1	-18.719
4176	23.641	0.90909	0.1	-24.995
4177	23.641	0.72727	0.1	-28.754
4178	23.641	0.54545	0.1	-29.279
4179	23.641	0.36364	0.1	-26.004
4180	23.641	0.18182	0.1	-20.246
4181	23.462	5.8182	0.1	-18.088
4182	23.462	5.6364	0.1	-19.95
4183	23.462	5.4545	0.1	-20.658
4184	23.462	5.2727	0.1	-18.413
4185	23.462	5.0909	0.1	-13.337
4186	23.462	4.9091	0.1	-5.9225
4187	23.462	4.7273	0.1	-0.12222
4188	23.462	4.5455	0.1	-0.13201
4189	23.462	4.3636	0.1	-0.14774
4190	23.462	4.1818	0.1	-0.16598
4191	23.462	4.	0.1	-0.18598
4192	23.462	3.8182	0.1	-0.20625
4193	23.462	3.6364	0.1	-0.22479
4194	23.462	3.4545	0.1	-0.23972
4195	23.462	3.2727	0.1	-0.24986
4196	23.462	3.0909	0.1	-0.25487
4197	23.462	2.9091	0.1	-0.25487
4198	23.462	2.7273	0.1	-0.24986
4199	23.462	2.5455	0.1	-0.23972
4200	23.462	2.3636	0.1	-0.22479
4201	23.462	2.1818	0.1	-0.20625
4202	23.462	2.	0.1	-0.18598
4203	23.462	1.8182	0.1	-0.16598
4204	23.462	1.6364	0.1	-0.14774
4205	23.462	1.4545	0.1	-0.13201
4206	23.462	1.2727	0.1	-0.12222
4207	23.462	1.0909	0.1	-5.9224
4208	23.462	0.90909	0.1	-13.337
4209	23.462	0.72727	0.1	-18.413
4210	23.462	0.54545	0.1	-20.658
4211	23.462	0.36364	0.1	-19.95
4212	23.462	0.18182	0.1	-18.088
4213	23.282	5.8182	0.1	-16.433
4214	23.282	5.6364	0.1	-15.673
4215	23.282	5.4545	0.1	-14.182
4216	23.282	5.2727	0.1	-10.27
4217	23.282	5.0909	0.1	-3.9235
4218	23.282	4.9091	0.1	-0.14585
4219	23.282	4.7273	0.1	-0.11746
4220	23.282	4.5455	0.1	-0.12046
4221	23.282	4.3636	0.1	-0.13089
4222	23.282	4.1818	0.1	-0.14682
4223	23.282	4.	0.1	-0.1678
4224	23.282	3.8182	0.1	-0.19238
4225	23.282	3.6364	0.1	-0.21698
4226	23.282	3.4545	0.1	-0.23737
4227	23.282	3.2727	0.1	-0.25122
4228	23.282	3.0909	0.1	-0.258
4229	23.282	2.9091	0.1	-0.258
4230	23.282	2.7273	0.1	-0.25122
4231	23.282	2.5455	0.1	-0.23736
4232	23.282	2.3636	0.1	-0.21698
4233	23.282	2.1818	0.1	-0.19238
4234	23.282	2.	0.1	-0.1678
4235	23.282	1.8182	0.1	-0.14682
4236	23.282	1.6364	0.1	-0.13089
4237	23.282	1.4545	0.1	-0.12046
4238	23.282	1.2727	0.1	-0.11746
4239	23.282	1.0909	0.1	-0.14585
4240	23.282	0.90909	0.1	-3.9235
4241	23.282	0.72727	0.1	-10.27
4242	23.282	0.54545	0.1	-14.182
4243	23.282	0.36364	0.1	-15.673
4244	23.282	0.18182	0.1	-16.433
4245	23.103	5.8182	0.1	-15.103
4246	23.103	5.6364	0.1	-12.451
4247	23.103	5.4545	0.1	-9.2099
4248	23.103	5.2727	0.1	-3.9089
4249	23.103	5.0909	0.1	-0.20504
4250	23.103	4.9091	0.1	-0.11233
4251	23.103	4.7273	0.1	-9.8049e-002
4252	23.103	4.5455	0.1	-9.6645e-002
4253	23.103	4.3636	0.1	-0.10256
4254	23.103	4.1818	0.1	-0.11673
4255	23.103	4.	0.1	-0.14032
4256	23.103	3.8182	0.1	-0.16997
4257	23.103	3.6364	0.1	-0.20029
4258	23.103	3.4545	0.1	-0.22592
4259	23.103	3.2727	0.1	-0.24236
4260	23.103	3.0909	0.1	-0.24969
4261	23.103	2.9091	0.1	-0.24969
4262	23.103	2.7273	0.1	-0.24236
4263	23.103	2.5455	0.1	-0.22592
4264	23.103	2.3636	0.1	-0.20029
4265	23.103	2.1818	0.1	-0.16997
4266	23.103	2.	0.1	-0.14032
4267	23.103	1.8182	0.1	-0.11673
4268	23.103	1.6364	0.1	-0.10256
4269	23.103	1.4545	0.1	-9.6643e-002
4270	23.103	1.2727	0.1	-9.8048e-002
4271	23.103	1.0909	0.1	-0.11233
4272	23.103	0.90909	0.1	-0.20503
4273	23.103	0.72727	0.1	-3.9089
4274	23.103	0.54545	0.1	-9.2099
4275	23.103	0.36364	0.1	-12.451
4276	23.103	0.18182	0.1	-15.103
4277	22.923	5.8182	0.1	-13.989
4278	22.923	5.6364	0.1	-9.9157
4279	22.923	5.4545	0.1	-5.4104
4280	22.923	5.2727	0.1	-0.57956
4281	22.923	5.0909	0.1	-0.16211
4282	22.923	4.9091	0.1	-0.11247
4283	22.923	4.7273	0.1	-9.4453e-002
4284	22.923	4.5455	0.1	-8.6719e-002
4285	22.923	4.3636	0.1	-8.6929e-002
4286	22.923	4.1818	0.1	-9.7268e-002
4287	22.923	4.	0.1	-0.12098
4288	22.923	3.8182	0.1	-0.16321
4289	22.923	3.6364	0.1	-0.21129
4290	22.923	3.4545	0.1	-0.24459
4291	22.923	3.2727	0.1	-0.26103
4292	22.923	3.0909	0.1	-0.26627
4293	22.923	2.9091	0.1	-0.26628
4294	22.923	2.7273	0.1	-0.26103
4295	22.923	2.5455	0.1	-0.24459
4296	22.923	2.3636	0.1	-0.21129
4297	22.923	2.1818	0.1	-0.16321
4298	22.923	2.	0.1	-0.12098
4299	22.923	1.8182	0.1	-9.727e-002
4300	22.923	1.6364	0.1	-8.6928e-002
4301	22.923	1.4545	0.1	-8.6719e-002
4302	22.923	1.2727	0.1	-9.4455e-002
4303	22.923	1.0909	0.1	-0.11247
4304	22.923	0.90909	0.1	-0.16211
4305	22.923	0.72727	0.1	-0.57956
4306	22.923	0.54545	0.1	-5.4104
4307	22.923	0.36364	0.1	-9.9157
4308	22.923	0.18182	0.1	-13.989
4309	22.744	5.8182	0.1	-12.968
4310	22.744	5.6364	0.1	-7.8233
4311	22.744	5.4545	0.1	-2.767
4312	22.744	5.2727	0.1	-0.3827
4313	22.744	5.0909	0.1	-0.1902
4314	22.744	4.9091	0.1	-0.1333
4315	22.744	4.7273	0.1	-0.10348
4316	22.744	4.5455	0.1	-8.636e-002
4317	22.744	4.3636	0.1	-7.9128e-002
4318	22.744	4.1818	0.1	-9.1697e-002
4319	22.744	4.	0.1	-0.14437
4320	22.744	3.8182	0.1	-0.20256
4321	22.744	3.6364	0.1	-0.24828
4322	22.744	3.4545	0.1	-0.28658
4323	22.744	3.2727	0.1	-0.29531
4324	22.744	3.0909	0.1	-0.28899
4325	22.744	2.9091	0.1	-0.289
4326	22.744	2.7273	0.1	-0.29531
4327	22.744	2.5455	0.1	-0.28658
4328	22.744	2.3636	0.1	-0.24828
4329	22.744	2.1818	0.1	-0.20256
4330	22.744	2.	0.1	-0.14437
4331	22.744	1.8182	0.1	-9.1696e-002
4332	22.744	1.6364	0.1	-7.9128e-002
4333	22.744	1.4545	0.1	-8.636e-002
4334	22.744	1.2727	0.1	-0.10348
4335	22.744	1.0909	0.1	-0.1333
4336	22.744	0.90909	0.1	-0.1902
4337	22.744	0.72727	0.1	-0.38269
4338	22.744	0.54545	0.1	-2.767
4339	22.744	0.36364	0.1	-7.8233
4340	22.744	0.18182	0.1	-12.968
4341	22.564	5.8182	0.1	-11.888
4342	22.564	5.6364	0.1	-6.0392
4343	22.564	5.4545	0.1	-1.6403
4344	22.564	5.2727	0.1	-0.48263
4345	22.564	5.0909	0.1	-0.28345
4346	22.564	4.9091	0.1	-0.19799
4347	22.564	4.7273	0.1	-0.14429
4348	22.564	4.5455	0.1	-9.4426e-002
4349	22.564	4.3636	0.1	-4.772e-002
4350	22.564	4.1818	0.1	-3.9087e-002
4351	22.564	4.	0.1	-2.2538e-002
4352	22.564	3.8182	0.1	-0.15771
4353	22.564	3.6364	0.1	-0.35686
4354	22.564	3.4545	0.1	-0.38786
4355	22.564	3.2727	0.1	-0.35136
4356	22.564	3.0909	0.1	-0.31235
4357	22.564	2.9091	0.1	-0.31235
4358	22.564	2.7273	0.1	-0.35136
4359	22.564	2.5455	0.1	-0.38787
4360	22.564	2.3636	0.1	-0.35686
4361	22.564	2.1818	0.1	-0.15771
4362	22.564	2.	0.1	-2.2539e-002
4363	22.564	1.8182	0.1	-3.9087e-002
4364	22.564	1.6364	0.1	-4.7721e-002
4365	22.564	1.4545	0.1	-9.4427e-002
4366	22.564	1.2727	0.1	-0.14429
4367	22.564	1.0909	0.1	-0.19799
4368	22.564	0.90909	0.1	-0.28345
4369	22.564	0.72727	0.1	-0.48264
4370	22.564	0.54545	0.1	-1.6403
4371	22.564	0.36364	0.1	-6.0392
4372	22.564	0.18182	0.1	-11.888
4373	22.385	5.8182	0.1	-10.593
4374	22.385	5.6364	0.1	-4.6206
4375	22.385	5.4545	0.1	-1.6585
4376	22.385	5.2727	0.1	-0.83951
4377	22.385	5.0909	0.1	-0.57334
4378	22.385	4.9091	0.1	-0.42953
4379	22.385	4.7273	0.1	-0.29946
4380	22.385	4.5455	0.1	-0.19023
4381	22.385	4.3636	0.1	-0.18632
4382	22.385	4.1818	0.1	-0.13498
4383	22.385	4.	0.1	-0.60967
4384	22.385	3.8182	0.1	-0.74578
4385	22.385	3.6364	0.1	-0.55605
4386	22.385	3.4545	0.1	-0.65135
4387	22.385	3.2727	0.1	-0.46937
4388	22.385	3.0909	0.1	-0.31733
4389	22.385	2.9091	0.1	-0.31733
4390	22.385	2.7273	0.1	-0.46936
4391	22.385	2.5455	0.1	-0.65135
4392	22.385	2.3636	0.1	-0.55605
4393	22.385	2.1818	0.1	-0.74578
4394	22.385	2.	0.1	-0.60967
4395	22.385	1.8182	0.1	-0.13498
4396	22.385	1.6364	0.1	-0.18632
4397	22.385	1.4545	0.1	-0.19024
4398	22.385	1.2727	0.1	-0.29946
4399	22.385	1.0909	0.1	-0.42953
4400	22.385	0.90909	0.1	-0.57334
4401	22.385	0.72727	0.1	-0.83951
4402	22.385	0.54545	0.1	-1.6585
4403	22.385	0.36364	0.1	-4.6206
4404	22.385	0.18182	0.1	-10.593
4405	22.205	5.8182	0.1	-8.9761
4406	22.205	5.6364	0.1	-3.9214
4407	22.205	5.4545	0.1	-2.5815
4408	22.205	5.2727	0.1	-2.1894
4409	22.205	5.0909	0.1	-1.8987
4410	22.205	4.9091	0.1	-1.5159
4411	22.205	4.7273	0.1	-1.1292
4412	22.205	4.5455	0.1	-0.70696
4413	22.205	4.3636	0.1	0.15153
4414	22.205	4.1818	0.1	0.35749
4415	22.205	4.	0.1	1.8219
4416	22.205	3.8182	0.1	0.14646
4417	22.205	3.6364	0.1	-2.2997
4418	22.205	3.4545	0.1	-1.7631
4419	22.205	3.2727	0.1	-1.545
4420	22.205	3.0909	0.1	-0.74449
4421	22.205	2.9091	0.1	-0.74448
4422	22.205	2.7273	0.1	-1.545
4423	22.205	2.5455	0.1	-1.7631
4424	22.205	2.3636	0.1	-2.2997
4425	22.205	2.1818	0.1	0.14647
4426	22.205	2.	0.1	1.8219
4427	22.205	1.8182	0.1	0.35749
4428	22.205	1.6364	0.1	0.15153
4429	22.205	1.4545	0.1	-0.70696
4430	22.205	1.2727	0.1	-1.1292
4431	22.205	1.0909	0.1	-1.5159
4432	22.205	0.90909	0.1	-1.8987
4433	22.205	0.72727	0.1	-2.1894
4434	22.205	0.54545	0.1	-2.5815
4435	22.205	0.36364	0.1	-3.9215
4436	22.205	0.18182	0.1	-8.9761
4437	22.026	5.8182	0.1	-7.4296
4438	22.026	5.6364	0.1	-4.8831
4439	22.026	5.4545	0.1	-6.3866
4440	22.026	5.2727	0.1	-9.1899
4441	22.026	5.0909	0.1	-12.239
4442	22.026	4.9091	0.1	-14.726
4443	22.026	4.7273	0.1	-15.629
4444	22.026	4.5455	0.1	-12.999
4445	22.026	4.3636	0.1	-5.8548
4446	22.026	4.1818	0.1	-4.1023
4447	22.026	4.	0.1	-11.351
4448	22.026	3.8182	0.1	-8.3602
4449	22.026	3.6364	0.1	-14.917
4450	22.026	3.4545	0.1	-33.113
4451	22.026	3.2727	0.1	-43.914
4452	22.026	3.0909	0.1	-48.768
4453	22.026	2.9091	0.1	-48.768
4454	22.026	2.7273	0.1	-43.914
4455	22.026	2.5455	0.1	-33.113
4456	22.026	2.3636	0.1	-14.917
4457	22.026	2.1818	0.1	-8.3602
4458	22.026	2.	0.1	-11.351
4459	22.026	1.8182	0.1	-4.1023
4460	22.026	1.6364	0.1	-5.8549
4461	22.026	1.4545	0.1	-12.999
4462	22.026	1.2727	0.1	-15.629
4463	22.026	1.0909	0.1	-14.726
4464	22.026	0.90909	0.1	-12.239
4465	22.026	0.72727	0.1	-9.1899
4466	22.026	0.54545	0.1	-6.3866
4467	22.026	0.36364	0.1	-4.8831
4468	22.026	0.18182	0.1	-7.4296
4469	21.846	5.8182	0.1	-8.5662
4470	21.846	5.6364	0.1	-12.444
4471	21.846	5.4545	0.1	-20.288
4472	21.846	5.2727	0.1	-29.723
4473	21.846	5.0909	0.1	-40.741
4474	21.846	4.9091	0.1	-53.898
4475	21.846	4.7273	0.1	-70.503
4476	21.846	4.5455	0.1	-89.854
4477	21.846	4.3636	0.1	-122.96
4478	21.846	4.1818	0.1	-103.97
4479	21.846	4.	0.1	-18.947
4480	21.846	3.8182	0.1	-64.063
4481	21.846	3.6364	0.1	-97.361
4482	21.846	3.4545	0.1	-102.26
4483	21.846	3.2727	0.1	-104.24
4484	21.846	3.0909	0.1	-104.33
4485	21.846	2.9091	0.1	-104.33
4486	21.846	2.7273	0.1	-104.24
4487	21.846	2.5455	0.1	-102.26
4488	21.846	2.3636	0.1	-97.361
4489	21.846	2.1818	0.1	-64.063
4490	21.846	2.	0.1	-18.947
4491	21.846	1.8182	0.1	-103.97
4492	21.846	1.6364	0.1	-122.96
4493	21.846	1.4545	0.1	-89.854
4494	21.846	1.2727	0.1	-70.503
4495	21.846	1.0909	0.1	-53.898
4496	21.846	0.90909	0.1	-40.741
4497	21.846	0.72727	0.1	-29.723
4498	21.846	0.54545	0.1	-20.288
4499	21.846	0.36364	0.1	-12.444
4500	21.846	0.18182	0.1	-8.5662
4501	0.18376	0.18182	0.1	-314.32
4502	0.18376	0.36364	0.1	-610.47
4503	0.18376	0.54545	0.1	-743.17
4504	0.18376	0.72727	0.1	-828.61
4505	0.18376	0.90909	0.1	-883.41
4506	0.18376	1.0909	0.1	-922.98
4507	0.18376	1.2727	0.1	-952.04
4508	0.18376	1.4545	0.1	-974.09
4509	0.18376	1.6364	0.1	-991.05
4510	0.18376	1.8182	0.1	-1004.2
4511	0.18376	2.	0.1	-1014.4
4512	0.18376	2.1818	0.1	-1022.2
4513	0.18376	2.3636	0.1	-1028.
4514	0.18376	2.5455	0.1	-1032.2
4515	0.18376	2.7273	0.1	-1034.9
4516	0.18376	2.9091	0.1	-1036.2
4517	0.18376	3.0909	0.1	-1036.2
4518	0.18376	3.2727	0.1	-1034.9
4519	0.18376	3.4545	0.1	-1032.2
4520	0.18376	3.6364	0.1	-1028.
4521	0.18376	3.8182	0.1	-1022.2
4522	0.18376	4.	0.1	-1014.4
4523	0.18376	4.1818	0.1	-1004.2
4524	0.18376	4.3636	0.1	-991.05
4525	0.18376	4.5455	0.1	-974.09
4526	0.18376	4.7273	0.1	-952.04
4527	0.18376	4.9091	0.1	-922.98
4528	0.18376	5.0909	0.1	-883.41
4529	0.18376	5.2727	0.1	-828.61
4530	0.18376	5.4545	0.1	-743.17
4531	0.18376	5.6364	0.1	-610.47
4532	0.18376	5.8182	0.1	-314.32
4533	0.36752	0.18182	0.1	-92.188
4534	0.36752	0.36364	0.1	137.94
4535	0.36752	0.54545	0.1	183.78
4536	0.36752	0.72727	0.1	206.92
4537	0.36752	0.90909	0.1	221.82
4538	0.36752	1.0909	0.1	232.28
4539	0.36752	1.2727	0.1	239.92
4540	0.36752	1.4545	0.1	245.68
4541	0.36752	1.6364	0.1	250.09
4542	0.36752	1.8182	0.1	253.5
4543	0.36752	2.	0.1	256.14
4544	0.36752	2.1818	0.1	258.16
4545	0.36752	2.3636	0.1	259.67
4546	0.36752	2.5455	0.1	260.75
4547	0.36752	2.7273	0.1	261.44
4548	0.36752	2.9091	0.1	261.78
4549	0.36752	3.0909	0.1	261.78
4550	0.36752	3.2727	0.1	261.44
4551	0.36752	3.4545	0.1	260.75
4552	0.36752	3.6364	0.1	259.67
4553	0.36752	3.8182	0.1	258.16
4554	0.36752	4.	0.1	256.14
4555	0.36752	4.1818	0.1	253.5
4556	0.36752	4.3636	0.1	250.09
4557	0.36752	4.5455	0.1	245.68
4558	0.36752	4.7273	0.1	239.92
4559	0.36752	4.9091	0.1	232.28
4560	0.36752	5.0909	0.1	221.82
4561	0.36752	5.2727	0.1	206.92
4562	0.36752	5.4545	0.1	183.78
4563	0.36752	5.6364	0.1	137.94
4564	0.36752	5.8182	0.1	-92.188
4565	0.55128	0.18182	0.1	-103.7
4566	0.55128	0.36364	0.1	-40.517
4567	0.55128	0.54545	0.1	-49.23
4568	0.55128	0.72727	0.1	-53.878
4569	0.55128	0.90909	0.1	-57.114
4570	0.55128	1.0909	0.1	-59.501
4571	0.55128	1.2727	0.1	-61.277
4572	0.55128	1.4545	0.1	-62.629
4573	0.55128	1.6364	0.1	-63.67
4574	0.55128	1.8182	0.1	-64.477
4575	0.55128	2.	0.1	-65.103
4576	0.55128	2.1818	0.1	-65.582
4577	0.55128	2.3636	0.1	-65.941
4578	0.55128	2.5455	0.1	-66.197
4579	0.55128	2.7273	0.1	-66.362
4580	0.55128	2.9091	0.1	-66.442
4581	0.55128	3.0909	0.1	-66.442
4582	0.55128	3.2727	0.1	-66.362
4583	0.55128	3.4545	0.1	-66.197
4584	0.55128	3.6364	0.1	-65.941
4585	0.55128	3.8182	0.1	-65.582
4586	0.55128	4.	0.1	-65.103
4587	0.55128	4.1818	0.1	-64.477
4588	0.55128	4.3636	0.1	-63.67
4589	0.55128	4.5455	0.1	-62.629
4590	0.55128	4.7273	0.1	-61.277
4591	0.55128	4.9091	0.1	-59.501
4592	0.55128	5.0909	0.1	-57.114
4593	0.55128	5.2727	0.1	-53.878
4594	0.55128	5.4545	0.1	-49.23
4595	0.55128	5.6364	0.1	-40.517
4596	0.55128	5.8182	0.1	-103.7
4597	0.73504	0.18182	0.1	-71.952
4598	0.73504	0.36364	0.1	5.7393
4599	0.73504	0.54545	0.1	10.624
4600	0.73504	0.72727	0.1	12.429
4601	0.73504	0.90909	0.1	13.673
4602	0.73504	1.0909	0.1	14.463
4603	0.73504	1.2727	0.1	15.026
4604	0.73504	1.4545	0.1	15.439
4605	0.73504	1.6364	0.1	15.753
4606	0.73504	1.8182	0.1	15.995
4607	0.73504	2.	0.1	16.182
4608	0.73504	2.1818	0.1	16.326
4609	0.73504	2.3636	0.1	16.433
4610	0.73504	2.5455	0.1	16.51
4611	0.73504	2.7273	0.1	16.559
4612	0.73504	2.9091	0.1	16.584
4613	0.73504	3.0909	0.1	16.584
4614	0.73504	3.2727	0.1	16.559
4615	0.73504	3.4545	0.1	16.51
4616	0.73504	3.6364	0.1	16.433
4617	0.73504	3.8182	0.1	16.326
4618	0.73504	4.	0.1	16.182
4619	0.73504	4.1818	0.1	15.995
4620	0.73504	4.3636	0.1	15.753
4621	0.73504	4.5455	0.1	15.439
4622	0.73504	4.7273	0.1	15.026
4623	0.73504	4.9091	0.1	14.463
4624	0.73504	5.0909	0.1	13.673
4625	0.73504	5.2727	0.1	12.429
4626	0.73504	5.4545	0.1	10.624
4627	0.73504	5.6364	0.1	5.7393
4628	0.73504	5.8182	0.1	-71.952
4629	0.9188	0.18182	0.1	-52.796
4630	0.9188	0.36364	0.1	-4.9297
4631	0.9188	0.54545	0.1	-3.9604
4632	0.9188	0.72727	0.1	-4.0204
4633	0.9188	0.90909	0.1	-4.0168
4634	0.9188	1.0909	0.1	-4.0779
4635	0.9188	1.2727	0.1	-4.1394
4636	0.9188	1.4545	0.1	-4.1985
4637	0.9188	1.6364	0.1	-4.248
4638	0.9188	1.8182	0.1	-4.2878
4639	0.9188	2.	0.1	-4.3188
4640	0.9188	2.1818	0.1	-4.3423
4641	0.9188	2.3636	0.1	-4.3597
4642	0.9188	2.5455	0.1	-4.3719
4643	0.9188	2.7273	0.1	-4.3797
4644	0.9188	2.9091	0.1	-4.3834
4645	0.9188	3.0909	0.1	-4.3834
4646	0.9188	3.2727	0.1	-4.3797
4647	0.9188	3.4545	0.1	-4.3719
4648	0.9188	3.6364	0.1	-4.3597
4649	0.9188	3.8182	0.1	-4.3423
4650	0.9188	4.	0.1	-4.3188
4651	0.9188	4.1818	0.1	-4.2878
4652	0.9188	4.3636	0.1	-4.248
4653	0.9188	4.5455	0.1	-4.1985
4654	0.9188	4.7273	0.1	-4.1394
4655	0.9188	4.9091	0.1	-4.0779
4656	0.9188	5.0909	0.1	-4.0168
4657	0.9188	5.2727	0.1	-4.0204
4658	0.9188	5.4545	0.1	-3.9604
4659	0.9188	5.6364	0.1	-4.9297
4660	0.9188	5.8182	0.1	-52.796
4661	1.1026	0.18182	0.1	-35.209
4662	1.1026	0.36364	0.1	-1.6948
4663	1.1026	0.54545	0.1	-4.0065e-002
4664	1.1026	0.72727	0.1	0.30041
4665	1.1026	0.90909	0.1	0.56997
4666	1.1026	1.0909	0.1	0.70678
4667	1.1026	1.2727	0.1	0.79256
4668	1.1026	1.4545	0.1	0.84366
4669	1.1026	1.6364	0.1	0.87691
4670	1.1026	1.8182	0.1	0.89966
4671	1.1026	2.	0.1	0.91619
4672	1.1026	2.1818	0.1	0.92853
4673	1.1026	2.3636	0.1	0.93776
4674	1.1026	2.5455	0.1	0.9444
4675	1.1026	2.7273	0.1	0.94872
4676	1.1026	2.9091	0.1	0.95085
4677	1.1026	3.0909	0.1	0.95085
4678	1.1026	3.2727	0.1	0.94872
4679	1.1026	3.4545	0.1	0.9444
4680	1.1026	3.6364	0.1	0.93776
4681	1.1026	3.8182	0.1	0.92853
4682	1.1026	4.	0.1	0.91619
4683	1.1026	4.1818	0.1	0.89966
4684	1.1026	4.3636	0.1	0.87691
4685	1.1026	4.5455	0.1	0.84366
4686	1.1026	4.7273	0.1	0.79256
4687	1.1026	4.9091	0.1	0.70678
4688	1.1026	5.0909	0.1	0.56997
4689	1.1026	5.2727	0.1	0.30041
4690	1.1026	5.4545	0.1	-4.0066e-002
4691	1.1026	5.6364	0.1	-1.6948
4692	1.1026	5.8182	0.1	-35.209
4693	1.2863	0.18182	0.1	-23.041
4694	1.2863	0.36364	0.1	-2.0847
4695	1.2863	0.54545	0.1	-0.86441
4696	1.2863	0.72727	0.1	-0.68832
4697	1.2863	0.90909	0.1	-0.51978
4698	1.2863	1.0909	0.1	-0.44364
4699	1.2863	1.2727	0.1	-0.39859
4700	1.2863	1.4545	0.1	-0.37741
4701	1.2863	1.6364	0.1	-0.36784
4702	1.2863	1.8182	0.1	-0.36444
4703	1.2863	2.	0.1	-0.36377
4704	1.2863	2.1818	0.1	-0.36416
4705	1.2863	2.3636	0.1	-0.36481
4706	1.2863	2.5455	0.1	-0.3654
4707	1.2863	2.7273	0.1	-0.3658
4708	1.2863	2.9091	0.1	-0.366
4709	1.2863	3.0909	0.1	-0.366
4710	1.2863	3.2727	0.1	-0.3658
4711	1.2863	3.4545	0.1	-0.3654
4712	1.2863	3.6364	0.1	-0.36481
4713	1.2863	3.8182	0.1	-0.36416
4714	1.2863	4.	0.1	-0.36377
4715	1.2863	4.1818	0.1	-0.36444
4716	1.2863	4.3636	0.1	-0.36784
4717	1.2863	4.5455	0.1	-0.37741
4718	1.2863	4.7273	0.1	-0.39859
4719	1.2863	4.9091	0.1	-0.44364
4720	1.2863	5.0909	0.1	-0.51978
4721	1.2863	5.2727	0.1	-0.68832
4722	1.2863	5.4545	0.1	-0.86441
4723	1.2863	5.6364	0.1	-2.0847
4724	1.2863	5.8182	0.1	-23.041
4725	1.4701	0.18182	0.1	-14.796
4726	1.4701	0.36364	0.1	-1.6528
4727	1.4701	0.54545	0.1	-0.53736
4728	1.4701	0.72727	0.1	-0.3657
4729	1.4701	0.90909	0.1	-0.19912
4730	1.4701	1.0909	0.1	-0.11603
4731	1.4701	1.2727	0.1	-6.2287e-002
4732	1.4701	1.4545	0.1	-3.2602e-002
4733	1.4701	1.6364	0.1	-1.6287e-002
4734	1.4701	1.8182	0.1	-8.0832e-003
4735	1.4701	2.	0.1	-4.2672e-003
4736	1.4701	2.1818	0.1	-2.7398e-003
4737	1.4701	2.3636	0.1	-2.2948e-003
4738	1.4701	2.5455	0.1	-2.2942e-003
4739	1.4701	2.7273	0.1	-2.4132e-003
4740	1.4701	2.9091	0.1	-2.5016e-003
4741	1.4701	3.0909	0.1	-2.5016e-003
4742	1.4701	3.2727	0.1	-2.4132e-003
4743	1.4701	3.4545	0.1	-2.2942e-003
4744	1.4701	3.6364	0.1	-2.2948e-003
4745	1.4701	3.8182	0.1	-2.7397e-003
4746	1.4701	4.	0.1	-4.2671e-003
4747	1.4701	4.1818	0.1	-8.0831e-003
4748	1.4701	4.3636	0.1	-1.6287e-002
4749	1.4701	4.5455	0.1	-3.2602e-002
4750	1.4701	4.7273	0.1	-6.2287e-002
4751	1.4701	4.9091	0.1	-0.11603
4752	1.4701	5.0909	0.1	-0.19912
4753	1.4701	5.2727	0.1	-0.3657
4754	1.4701	5.4545	0.1	-0.53736
4755	1.4701	5.6364	0.1	-1.6528
4756	1.4701	5.8182	0.1	-14.796
4757	1.6538	0.18182	0.1	-9.7683
4758	1.6538	0.36364	0.1	-1.4876
4759	1.6538	0.54545	0.1	-0.52457
4760	1.6538	0.72727	0.1	-0.38913
4761	1.6538	0.90909	0.1	-0.24653
4762	1.6538	1.0909	0.1	-0.17385
4763	1.6538	1.2727	0.1	-0.12448
4764	1.6538	1.4545	0.1	-9.583e-002
4765	1.6538	1.6364	0.1	-7.94e-002
4766	1.6538	1.8182	0.1	-7.0921e-002
4767	1.6538	2.	0.1	-6.7062e-002
4768	1.6538	2.1818	0.1	-6.5758e-002
4769	1.6538	2.3636	0.1	-6.5704e-002
4770	1.6538	2.5455	0.1	-6.6129e-002
4771	1.6538	2.7273	0.1	-6.6596e-002
4772	1.6538	2.9091	0.1	-6.6878e-002
4773	1.6538	3.0909	0.1	-6.6878e-002
4774	1.6538	3.2727	0.1	-6.6596e-002
4775	1.6538	3.4545	0.1	-6.6128e-002
4776	1.6538	3.6364	0.1	-6.5703e-002
4777	1.6538	3.8182	0.1	-6.5758e-002
4778	1.6538	4.	0.1	-6.7061e-002
4779	1.6538	4.1818	0.1	-7.092e-002
4780	1.6538	4.3636	0.1	-7.9399e-002
4781	1.6538	4.5455	0.1	-9.583e-002
4782	1.6538	4.7273	0.1	-0.12448
4783	1.6538	4.9091	0.1	-0.17385
4784	1.6538	5.0909	0.1	-0.24653
4785	1.6538	5.2727	0.1	-0.38913
4786	1.6538	5.4545	0.1	-0.52457
4787	1.6538	5.6364	0.1	-1.4876
4788	1.6538	5.8182	0.1	-9.7683
4789	1.8376	0.18182	0.1	-6.7144
4790	1.8376	0.36364	0.1	-1.3012
4791	1.8376	0.54545	0.1	-0.44882
4792	1.8376	0.72727	0.1	-0.33415
4793	1.8376	0.90909	0.1	-0.20687
4794	1.8376	1.0909	0.1	-0.14025
4795	1.8376	1.2727	0.1	-9.2861e-002
4796	1.8376	1.4545	0.1	-6.357e-002
4797	1.8376	1.6364	0.1	-4.5478e-002
4798	1.8376	1.8182	0.1	-3.5162e-002
4799	1.8376	2.	0.1	-2.973e-002
4800	1.8376	2.1818	0.1	-2.7252e-002
4801	1.8376	2.3636	0.1	-2.6406e-002
4802	1.8376	2.5455	0.1	-2.6344e-002
4803	1.8376	2.7273	0.1	-2.6543e-002
4804	1.8376	2.9091	0.1	-2.6709e-002
4805	1.8376	3.0909	0.1	-2.6709e-002
4806	1.8376	3.2727	0.1	-2.6543e-002
4807	1.8376	3.4545	0.1	-2.6344e-002
4808	1.8376	3.6364	0.1	-2.6406e-002
4809	1.8376	3.8182	0.1	-2.7251e-002
4810	1.8376	4.	0.1	-2.9729e-002
4811	1.8376	4.1818	0.1	-3.5162e-002
4812	1.8376	4.3636	0.1	-4.5477e-002
4813	1.8376	4.5455	0.1	-6.3569e-002
4814	1.8376	4.7273	0.1	-9.2861e-002
4815	1.8376	4.9091	0.1	-0.14025
4816	1.8376	5.0909	0.1	-0.20687
4817	1.8376	5.2727	0.1	-0.33415
4818	1.8376	5.4545	0.1	-0.44882
4819	1.8376	5.6364	0.1	-1.3012
4820	1.8376	5.8182	0.1	-6.7144
4821	2.0214	0.18182	0.1	-4.8215
4822	2.0214	0.36364	0.1	-1.1558
4823	2.0214	0.54545	0.1	-0.40084
4824	2.0214	0.72727	0.1	-0.3052
4825	2.0214	0.90909	0.1	-0.19263
4826	2.0214	1.0909	0.1	-0.13286
4827	2.0214	1.2727	0.1	-8.8737e-002
4828	2.0214	1.4545	0.1	-6.0117e-002
4829	2.0214	1.6364	0.1	-4.1371e-002
4830	2.0214	1.8182	0.1	-2.9836e-002
4831	2.0214	2.	0.1	-2.3108e-002
4832	2.0214	2.1818	0.1	-1.9498e-002
4833	2.0214	2.3636	0.1	-1.7775e-002
4834	2.0214	2.5455	0.1	-1.7098e-002
4835	2.0214	2.7273	0.1	-1.6913e-002
4836	2.0214	2.9091	0.1	-1.6897e-002
4837	2.0214	3.0909	0.1	-1.6897e-002
4838	2.0214	3.2727	0.1	-1.6913e-002
4839	2.0214	3.4545	0.1	-1.7097e-002
4840	2.0214	3.6364	0.1	-1.7775e-002
4841	2.0214	3.8182	0.1	-1.9498e-002
4842	2.0214	4.	0.1	-2.3108e-002
4843	2.0214	4.1818	0.1	-2.9836e-002
4844	2.0214	4.3636	0.1	-4.1371e-002
4845	2.0214	4.5455	0.1	-6.0117e-002
4846	2.0214	4.7273	0.1	-8.8736e-002
4847	2.0214	4.9091	0.1	-0.13286
4848	2.0214	5.0909	0.1	-0.19263
4849	2.0214	5.2727	0.1	-0.3052
4850	2.0214	5.4545	0.1	-0.40084
4851	2.0214	5.6364	0.1	-1.1558
4852	2.0214	5.8182	0.1	-4.8215
4853	2.2051	0.18182	0.1	-3.5903
4854	2.2051	0.36364	0.1	-1.0285
4855	2.2051	0.54545	0.1	-0.35522
4856	2.2051	0.72727	0.1	-0.27454
4857	2.2051	0.90909	0.1	-0.17431
4858	2.2051	1.0909	0.1	-0.12058
4859	2.2051	1.2727	0.1	-7.972e-002
4860	2.2051	1.4545	0.1	-5.2154e-002
4861	2.2051	1.6364	0.1	-3.3188e-002
4862	2.2051	1.8182	0.1	-2.0758e-002
4863	2.2051	2.	0.1	-1.2898e-002
4864	2.2051	2.1818	0.1	-8.1835e-003
4865	2.2051	2.3636	0.1	-5.5228e-003
4866	2.2051	2.5455	0.1	-4.1333e-003
4867	2.2051	2.7273	0.1	-3.4782e-003
4868	2.2051	2.9091	0.1	-3.2288e-003
4869	2.2051	3.0909	0.1	-3.2288e-003
4870	2.2051	3.2727	0.1	-3.4782e-003
4871	2.2051	3.4545	0.1	-4.1331e-003
4872	2.2051	3.6364	0.1	-5.5227e-003
4873	2.2051	3.8182	0.1	-8.1833e-003
4874	2.2051	4.	0.1	-1.2898e-002
4875	2.2051	4.1818	0.1	-2.0758e-002
4876	2.2051	4.3636	0.1	-3.3188e-002
4877	2.2051	4.5455	0.1	-5.2154e-002
4878	2.2051	4.7273	0.1	-7.972e-002
4879	2.2051	4.9091	0.1	-0.12058
4880	2.2051	5.0909	0.1	-0.1743
4881	2.2051	5.2727	0.1	-0.27454
4882	2.2051	5.4545	0.1	-0.35522
4883	2.2051	5.6364	0.1	-1.0285
4884	2.2051	5.8182	0.1	-3.5903
4885	2.3889	0.18182	0.1	-2.7538
4886	2.3889	0.36364	0.1	-0.91956
4887	2.3889	0.54545	0.1	-0.31663
4888	2.3889	0.72727	0.1	-0.24837
4889	2.3889	0.90909	0.1	-0.1589
4890	2.3889	1.0909	0.1	-0.11069
4891	2.3889	1.2727	0.1	-7.3142e-002
4892	2.3889	1.4545	0.1	-4.7009e-002
4893	2.3889	1.6364	0.1	-2.8306e-002
4894	2.3889	1.8182	0.1	-1.5423e-002
4895	2.3889	2.	0.1	-6.7682e-003
4896	2.3889	2.1818	0.1	-1.1683e-003
4897	2.3889	2.3636	0.1	2.3089e-003
4898	2.3889	2.5455	0.1	4.3558e-003
4899	2.3889	2.7273	0.1	5.4641e-003
4900	2.3889	2.9091	0.1	5.9433e-003
4901	2.3889	3.0909	0.1	5.9433e-003
4902	2.3889	3.2727	0.1	5.4641e-003
4903	2.3889	3.4545	0.1	4.3559e-003
4904	2.3889	3.6364	0.1	2.309e-003
4905	2.3889	3.8182	0.1	-1.1679e-003
4906	2.3889	4.	0.1	-6.7679e-003
4907	2.3889	4.1818	0.1	-1.5423e-002
4908	2.3889	4.3636	0.1	-2.8306e-002
4909	2.3889	4.5455	0.1	-4.7009e-002
4910	2.3889	4.7273	0.1	-7.3141e-002
4911	2.3889	4.9091	0.1	-0.11069
4912	2.3889	5.0909	0.1	-0.1589
4913	2.3889	5.2727	0.1	-0.24837
4914	2.3889	5.4545	0.1	-0.31663
4915	2.3889	5.6364	0.1	-0.91956
4916	2.3889	5.8182	0.1	-2.7538
4917	2.5726	0.18182	0.1	-2.1624
4918	2.5726	0.36364	0.1	-0.82483
4919	2.5726	0.54545	0.1	-0.28262
4920	2.5726	0.72727	0.1	-0.22457
4921	2.5726	0.90909	0.1	-0.14442
4922	2.5726	1.0909	0.1	-0.10112
4923	2.5726	1.2727	0.1	-6.6743e-002
4924	2.5726	1.4545	0.1	-4.2218e-002
4925	2.5726	1.6364	0.1	-2.4101e-002
4926	2.5726	1.8182	0.1	-1.1121e-002
4927	2.5726	2.	0.1	-1.9874e-003
4928	2.5726	2.1818	0.1	4.2525e-003
4929	2.5726	2.3636	0.1	8.3747e-003
4930	2.5726	2.5455	0.1	1.0971e-002
4931	2.5726	2.7273	0.1	1.2471e-002
4932	2.5726	2.9091	0.1	1.3154e-002
4933	2.5726	3.0909	0.1	1.3154e-002
4934	2.5726	3.2727	0.1	1.2471e-002
4935	2.5726	3.4545	0.1	1.0971e-002
4936	2.5726	3.6364	0.1	8.3748e-003
4937	2.5726	3.8182	0.1	4.2529e-003
4938	2.5726	4.	0.1	-1.987e-003
4939	2.5726	4.1818	0.1	-1.112e-002
4940	2.5726	4.3636	0.1	-2.41e-002
4941	2.5726	4.5455	0.1	-4.2218e-002
4942	2.5726	4.7273	0.1	-6.6742e-002
4943	2.5726	4.9091	0.1	-0.10112
4944	2.5726	5.0909	0.1	-0.14442
4945	2.5726	5.2727	0.1	-0.22457
4946	2.5726	5.4545	0.1	-0.28262
4947	2.5726	5.6364	0.1	-0.82483
4948	2.5726	5.8182	0.1	-2.1624
4949	2.7564	0.18182	0.1	-1.7304
4950	2.7564	0.36364	0.1	-0.74209
4951	2.7564	0.54545	0.1	-0.25282
4952	2.7564	0.72727	0.1	-0.20327
4953	2.7564	0.90909	0.1	-0.13125
4954	2.7564	1.0909	0.1	-9.2315e-002
4955	2.7564	1.2727	0.1	-6.0908e-002
4956	2.7564	1.4545	0.1	-3.8066e-002
4957	2.7564	1.6364	0.1	-2.0757e-002
4958	2.7564	1.8182	0.1	-7.9651e-003
4959	2.7564	2.	0.1	1.3638e-003
4960	2.7564	2.1818	0.1	7.9989e-003
4961	2.7564	2.3636	0.1	1.2575e-002
4962	2.7564	2.5455	0.1	1.5584e-002
4963	2.7564	2.7273	0.1	1.7392e-002
4964	2.7564	2.9091	0.1	1.8237e-002
4965	2.7564	3.0909	0.1	1.8237e-002
4966	2.7564	3.2727	0.1	1.7392e-002
4967	2.7564	3.4545	0.1	1.5584e-002
4968	2.7564	3.6364	0.1	1.2575e-002
4969	2.7564	3.8182	0.1	7.9992e-003
4970	2.7564	4.	0.1	1.3642e-003
4971	2.7564	4.1818	0.1	-7.9649e-003
4972	2.7564	4.3636	0.1	-2.0756e-002
4973	2.7564	4.5455	0.1	-3.8065e-002
4974	2.7564	4.7273	0.1	-6.0908e-002
4975	2.7564	4.9091	0.1	-9.2314e-002
4976	2.7564	5.0909	0.1	-0.13125
4977	2.7564	5.2727	0.1	-0.20327
4978	2.7564	5.4545	0.1	-0.25282
4979	2.7564	5.6364	0.1	-0.74209
4980	2.7564	5.8182	0.1	-1.7304
4981	2.9402	0.18182	0.1	-1.4064
4982	2.9402	0.36364	0.1	-0.66934
4983	2.9402	0.54545	0.1	-0.22655
4984	2.9402	0.72727	0.1	-0.18409
4985	2.9402	0.90909	0.1	-0.1192
4986	2.9402	1.0909	0.1	-8.4135e-002
4987	2.9402	1.2727	0.1	-5.5479e-002
4988	2.9402	1.4545	0.1	-3.4314e-002
4989	2.9402	1.6364	0.1	-1.7949e-002
4990	2.9402	1.8182	0.1	-5.5519e-003
4991	2.9402	2.	0.1	3.7446e-003
4992	2.9402	2.1818	0.1	1.0561e-002
4993	2.9402	2.3636	0.1	1.5412e-002
4994	2.9402	2.5455	0.1	1.8698e-002
4995	2.9402	2.7273	0.1	2.0724e-002
4996	2.9402	2.9091	0.1	2.1687e-002
4997	2.9402	3.0909	0.1	2.1687e-002
4998	2.9402	3.2727	0.1	2.0724e-002
4999	2.9402	3.4545	0.1	1.8698e-002
5000	2.9402	3.6364	0.1	1.5412e-002
5001	2.9402	3.8182	0.1	1.0561e-002
5002	2.9402	4.	0.1	3.745e-003
5003	2.9402	4.1818	0.1	-5.5516e-003
5004	2.9402	4.3636	0.1	-1.7948e-002
5005	2.9402	4.5455	0.1	-3.4314e-002
5006	2.9402	4.7273	0.1	-5.5478e-002
5007	2.9402	4.9091	0.1	-8.4134e-002
5008	2.9402	5.0909	0.1	-0.1192
5009	2.9402	5.2727	0.1	-0.18409
5010	2.9402	5.4545	0.1	-0.22655
5011	2.9402	5.6364	0.1	-0.66934
5012	2.9402	5.8182	0.1	-1.4064
5013	3.1239	0.18182	0.1	-1.1578
5014	3.1239	0.36364	0.1	-0.60505
5015	3.1239	0.54545	0.1	-0.20334
5016	3.1239	0.72727	0.1	-0.16683
5017	3.1239	0.90909	0.1	-0.10823
5018	3.1239	1.0909	0.1	-7.66e-002
5019	3.1239	1.2727	0.1	-5.047e-002
5020	3.1239	1.4545	0.1	-3.0935e-002
5021	3.1239	1.6364	0.1	-1.5581e-002
5022	3.1239	1.8182	0.1	-3.7218e-003
5023	3.1239	2.	0.1	5.3688e-003
5024	3.1239	2.1818	0.1	1.2192e-002
5025	3.1239	2.3636	0.1	1.7162e-002
5026	3.1239	2.5455	0.1	2.0604e-002
5027	3.1239	2.7273	0.1	2.2763e-002
5028	3.1239	2.9091	0.1	2.3802e-002
5029	3.1239	3.0909	0.1	2.3802e-002
5030	3.1239	3.2727	0.1	2.2763e-002
5031	3.1239	3.4545	0.1	2.0604e-002
5032	3.1239	3.6364	0.1	1.7162e-002
5033	3.1239	3.8182	0.1	1.2192e-002
5034	3.1239	4.	0.1	5.3691e-003
5035	3.1239	4.1818	0.1	-3.7214e-003
5036	3.1239	4.3636	0.1	-1.5581e-002
5037	3.1239	4.5455	0.1	-3.0934e-002
5038	3.1239	4.7273	0.1	-5.0469e-002
5039	3.1239	4.9091	0.1	-7.6599e-002
5040	3.1239	5.0909	0.1	-0.10822
5041	3.1239	5.2727	0.1	-0.16683
5042	3.1239	5.4545	0.1	-0.20334
5043	3.1239	5.6364	0.1	-0.60505
5044	3.1239	5.8182	0.1	-1.1578
5045	3.3077	0.18182	0.1	-0.96372
5046	3.3077	0.36364	0.1	-0.54795
5047	3.3077	0.54545	0.1	-0.18276
5048	3.3077	0.72727	0.1	-0.15128
5049	3.3077	0.90909	0.1	-9.8244e-002
5050	3.3077	1.0909	0.1	-6.9676e-002
5051	3.3077	1.2727	0.1	-4.5855e-002
5052	3.3077	1.4545	0.1	-2.7873e-002
5053	3.3077	1.6364	0.1	-1.3556e-002
5054	3.3077	1.8182	0.1	-2.3239e-003
5055	3.3077	2.	0.1	6.4359e-003
5056	3.3077	2.1818	0.1	1.3131e-002
5057	3.3077	2.3636	0.1	1.8096e-002
5058	3.3077	2.5455	0.1	2.159e-002
5059	3.3077	2.7273	0.1	2.3811e-002
5060	3.3077	2.9091	0.1	2.4889e-002
5061	3.3077	3.0909	0.1	2.4889e-002
5062	3.3077	3.2727	0.1	2.3811e-002
5063	3.3077	3.4545	0.1	2.159e-002
5064	3.3077	3.6364	0.1	1.8096e-002
5065	3.3077	3.8182	0.1	1.3132e-002
5066	3.3077	4.	0.1	6.4362e-003
5067	3.3077	4.1818	0.1	-2.3235e-003
5068	3.3077	4.3636	0.1	-1.3555e-002
5069	3.3077	4.5455	0.1	-2.7873e-002
5070	3.3077	4.7273	0.1	-4.5854e-002
5071	3.3077	4.9091	0.1	-6.9675e-002
5072	3.3077	5.0909	0.1	-9.8243e-002
5073	3.3077	5.2727	0.1	-0.15128
5074	3.3077	5.4545	0.1	-0.18276
5075	3.3077	5.6364	0.1	-0.54795
5076	3.3077	5.8182	0.1	-0.96372
5077	3.4915	0.18182	0.1	-0.80977
5078	3.4915	0.36364	0.1	-0.49702
5079	3.4915	0.54545	0.1	-0.16448
5080	3.4915	0.72727	0.1	-0.13726
5081	3.4915	0.90909	0.1	-8.9181e-002
5082	3.4915	1.0909	0.1	-6.334e-002
5083	3.4915	1.2727	0.1	-4.1625e-002
5084	3.4915	1.4545	0.1	-2.5108e-002
5085	3.4915	1.6364	0.1	-1.1818e-002
5086	3.4915	1.8182	0.1	-1.2634e-003
5087	3.4915	2.	0.1	7.0813e-003
5088	3.4915	2.1818	0.1	1.3551e-002
5089	3.4915	2.3636	0.1	1.8414e-002
5090	3.4915	2.5455	0.1	2.1879e-002
5091	3.4915	2.7273	0.1	2.4103e-002
5092	3.4915	2.9091	0.1	2.519e-002
5093	3.4915	3.0909	0.1	2.519e-002
5094	3.4915	3.2727	0.1	2.4103e-002
5095	3.4915	3.4545	0.1	2.1879e-002
5096	3.4915	3.6364	0.1	1.8415e-002
5097	3.4915	3.8182	0.1	1.3551e-002
5098	3.4915	4.	0.1	7.0817e-003
5099	3.4915	4.1818	0.1	-1.2628e-003
5100	3.4915	4.3636	0.1	-1.1818e-002
5101	3.4915	4.5455	0.1	-2.5108e-002
5102	3.4915	4.7273	0.1	-4.1624e-002
5103	3.4915	4.9091	0.1	-6.334e-002
5104	3.4915	5.0909	0.1	-8.918e-002
5105	3.4915	5.2727	0.1	-0.13726
5106	3.4915	5.4545	0.1	-0.16448
5107	3.4915	5.6364	0.1	-0.49702
5108	3.4915	5.8182	0.1	-0.80976
5109	3.6752	0.18182	0.1	-0.68611
5110	3.6752	0.36364	0.1	-0.45145
5111	3.6752	0.54545	0.1	-0.14821
5112	3.6752	0.72727	0.1	-0.12462
5113	3.6752	0.90909	0.1	-8.0971e-002
5114	3.6752	1.0909	0.1	-5.7571e-002
5115	3.6752	1.2727	0.1	-3.7775e-002
5116	3.6752	1.4545	0.1	-2.2627e-002
5117	3.6752	1.6364	0.1	-1.0336e-002
5118	3.6752	1.8182	0.1	-4.7836e-004
5119	3.6752	2.	0.1	7.3992e-003
5120	3.6752	2.1818	0.1	1.3575e-002
5121	3.6752	2.3636	0.1	1.8268e-002
5122	3.6752	2.5455	0.1	2.1643e-002
5123	3.6752	2.7273	0.1	2.3825e-002
5124	3.6752	2.9091	0.1	2.4896e-002
5125	3.6752	3.0909	0.1	2.4896e-002
5126	3.6752	3.2727	0.1	2.3825e-002
5127	3.6752	3.4545	0.1	2.1643e-002
5128	3.6752	3.6364	0.1	1.8268e-002
5129	3.6752	3.8182	0.1	1.3575e-002
5130	3.6752	4.	0.1	7.3996e-003
5131	3.6752	4.1818	0.1	-4.7792e-004
5132	3.6752	4.3636	0.1	-1.0336e-002
5133	3.6752	4.5455	0.1	-2.2626e-002
5134	3.6752	4.7273	0.1	-3.7774e-002
5135	3.6752	4.9091	0.1	-5.7571e-002
5136	3.6752	5.0909	0.1	-8.097e-002
5137	3.6752	5.2727	0.1	-0.12462
5138	3.6752	5.4545	0.1	-0.14821
5139	3.6752	5.6364	0.1	-0.45145
5140	3.6752	5.8182	0.1	-0.68611
5141	3.859	0.18182	0.1	-0.58571
5142	3.859	0.36364	0.1	-0.41053
5143	3.859	0.54545	0.1	-0.13369
5144	3.859	0.72727	0.1	-0.11321
5145	3.859	0.90909	0.1	-7.3542e-002
5146	3.859	1.0909	0.1	-5.2332e-002
5147	3.859	1.2727	0.1	-3.4285e-002
5148	3.859	1.4545	0.1	-2.0409e-002
5149	3.859	1.6364	0.1	-9.0752e-003
5150	3.859	1.8182	0.1	8.5783e-005
5151	3.859	2.	0.1	7.4694e-003
5152	3.859	2.1818	0.1	1.3309e-002
5153	3.859	2.3636	0.1	1.7783e-002
5154	3.859	2.5455	0.1	2.1024e-002
5155	3.859	2.7273	0.1	2.3133e-002
5156	3.859	2.9091	0.1	2.4171e-002
5157	3.859	3.0909	0.1	2.4171e-002
5158	3.859	3.2727	0.1	2.3133e-002
5159	3.859	3.4545	0.1	2.1025e-002
5160	3.859	3.6364	0.1	1.7783e-002
5161	3.859	3.8182	0.1	1.3309e-002
5162	3.859	4.	0.1	7.4698e-003
5163	3.859	4.1818	0.1	8.6252e-005
5164	3.859	4.3636	0.1	-9.0747e-003
5165	3.859	4.5455	0.1	-2.0409e-002
5166	3.859	4.7273	0.1	-3.4284e-002
5167	3.859	4.9091	0.1	-5.2332e-002
5168	3.859	5.0909	0.1	-7.3541e-002
5169	3.859	5.2727	0.1	-0.11321
5170	3.859	5.4545	0.1	-0.13369
5171	3.859	5.6364	0.1	-0.41053
5172	3.859	5.8182	0.1	-0.58571
5173	4.0427	0.18182	0.1	-0.50344
5174	4.0427	0.36364	0.1	-0.37368
5175	4.0427	0.54545	0.1	-0.12072
5176	4.0427	0.72727	0.1	-0.10289
5177	4.0427	0.90909	0.1	-6.6817e-002
5178	4.0427	1.0909	0.1	-4.7578e-002
5179	4.0427	1.2727	0.1	-3.1125e-002
5180	4.0427	1.4545	0.1	-1.8428e-002
5181	4.0427	1.6364	0.1	-8.0003e-003
5182	4.0427	1.8182	0.1	4.7973e-004
5183	4.0427	2.	0.1	7.3606e-003
5184	4.0427	2.1818	0.1	1.284e-002
5185	4.0427	2.3636	0.1	1.7066e-002
5186	4.0427	2.5455	0.1	2.0144e-002
5187	4.0427	2.7273	0.1	2.2156e-002
5188	4.0427	2.9091	0.1	2.315e-002
5189	4.0427	3.0909	0.1	2.315e-002
5190	4.0427	3.2727	0.1	2.2156e-002
5191	4.0427	3.4545	0.1	2.0145e-002
5192	4.0427	3.6364	0.1	1.7066e-002
5193	4.0427	3.8182	0.1	1.284e-002
5194	4.0427	4.	0.1	7.3609e-003
5195	4.0427	4.1818	0.1	4.8034e-004
5196	4.0427	4.3636	0.1	-7.9997e-003
5197	4.0427	4.5455	0.1	-1.8427e-002
5198	4.0427	4.7273	0.1	-3.1124e-002
5199	4.0427	4.9091	0.1	-4.7578e-002
5200	4.0427	5.0909	0.1	-6.6816e-002
5201	4.0427	5.2727	0.1	-0.10289
5202	4.0427	5.4545	0.1	-0.12072
5203	4.0427	5.6364	0.1	-0.37368
5204	4.0427	5.8182	0.1	-0.50344
5205	4.2265	0.18182	0.1	-0.43549
5206	4.2265	0.36364	0.1	-0.34041
5207	4.2265	0.54545	0.1	-0.10909
5208	4.2265	0.72727	0.1	-9.3565e-002
5209	4.2265	0.90909	0.1	-6.0729e-002
5210	4.2265	1.0909	0.1	-4.3269e-002
5211	4.2265	1.2727	0.1	-2.827e-002
5212	4.2265	1.4545	0.1	-1.6661e-002
5213	4.2265	1.6364	0.1	-7.0863e-003
5214	4.2265	1.8182	0.1	7.3805e-004
5215	4.2265	2.	0.1	7.1206e-003
5216	4.2265	2.1818	0.1	1.2231e-002
5217	4.2265	2.3636	0.1	1.6192e-002
5218	4.2265	2.5455	0.1	1.9091e-002
5219	4.2265	2.7273	0.1	2.0991e-002
5220	4.2265	2.9091	0.1	2.1932e-002
5221	4.2265	3.0909	0.1	2.1932e-002
5222	4.2265	3.2727	0.1	2.0991e-002
5223	4.2265	3.4545	0.1	1.9091e-002
5224	4.2265	3.6364	0.1	1.6192e-002
5225	4.2265	3.8182	0.1	1.2231e-002
5226	4.2265	4.	0.1	7.1209e-003
5227	4.2265	4.1818	0.1	7.3852e-004
5228	4.2265	4.3636	0.1	-7.0858e-003
5229	4.2265	4.5455	0.1	-1.666e-002
5230	4.2265	4.7273	0.1	-2.827e-002
5231	4.2265	4.9091	0.1	-4.3268e-002
5232	4.2265	5.0909	0.1	-6.0728e-002
5233	4.2265	5.2727	0.1	-9.3564e-002
5234	4.2265	5.4545	0.1	-0.10909
5235	4.2265	5.6364	0.1	-0.34041
5236	4.2265	5.8182	0.1	-0.43548
5237	4.4103	0.18182	0.1	-0.37899
5238	4.4103	0.36364	0.1	-0.31032
5239	4.4103	0.54545	0.1	-9.8673e-002
5240	4.4103	0.72727	0.1	-8.5128e-002
5241	4.4103	0.90909	0.1	-5.5229e-002
5242	4.4103	1.0909	0.1	-3.9377e-002
5243	4.4103	1.2727	0.1	-2.5705e-002
5244	4.4103	1.4545	0.1	-1.5099e-002
5245	4.4103	1.6364	0.1	-6.3216e-003
5246	4.4103	1.8182	0.1	8.7882e-004
5247	4.4103	2.	0.1	6.7768e-003
5248	4.4103	2.1818	0.1	1.1519e-002
5249	4.4103	2.3636	0.1	1.521e-002
5250	4.4103	2.5455	0.1	1.792e-002
5251	4.4103	2.7273	0.1	1.9702e-002
5252	4.4103	2.9091	0.1	2.0586e-002
5253	4.4103	3.0909	0.1	2.0586e-002
5254	4.4103	3.2727	0.1	1.9702e-002
5255	4.4103	3.4545	0.1	1.7921e-002
5256	4.4103	3.6364	0.1	1.521e-002
5257	4.4103	3.8182	0.1	1.1519e-002
5258	4.4103	4.	0.1	6.7772e-003
5259	4.4103	4.1818	0.1	8.7934e-004
5260	4.4103	4.3636	0.1	-6.3211e-003
5261	4.4103	4.5455	0.1	-1.5099e-002
5262	4.4103	4.7273	0.1	-2.5705e-002
5263	4.4103	4.9091	0.1	-3.9376e-002
5264	4.4103	5.0909	0.1	-5.5227e-002
5265	4.4103	5.2727	0.1	-8.5127e-002
5266	4.4103	5.4545	0.1	-9.8672e-002
5267	4.4103	5.6364	0.1	-0.31032
5268	4.4103	5.8182	0.1	-0.37899
5269	4.594	0.18182	0.1	-0.33176
5270	4.594	0.36364	0.1	-0.28305
5271	4.594	0.54545	0.1	-8.9313e-002
5272	4.594	0.72727	0.1	-7.7489e-002
5273	4.594	0.90909	0.1	-5.0255e-002
5274	4.594	1.0909	0.1	-3.5861e-002
5275	4.594	1.2727	0.1	-2.3402e-002
5276	4.594	1.4545	0.1	-1.372e-002
5277	4.594	1.6364	0.1	-5.6841e-003
5278	4.594	1.8182	0.1	9.2775e-004
5279	4.594	2.	0.1	6.3612e-003
5280	4.594	2.1818	0.1	1.0745e-002
5281	4.594	2.3636	0.1	1.4167e-002
5282	4.594	2.5455	0.1	1.6687e-002
5283	4.594	2.7273	0.1	1.8347e-002
5284	4.594	2.9091	0.1	1.9171e-002
5285	4.594	3.0909	0.1	1.9171e-002
5286	4.594	3.2727	0.1	1.8347e-002
5287	4.594	3.4545	0.1	1.6687e-002
5288	4.594	3.6364	0.1	1.4167e-002
5289	4.594	3.8182	0.1	1.0745e-002
5290	4.594	4.	0.1	6.3617e-003
5291	4.594	4.1818	0.1	9.2821e-004
5292	4.594	4.3636	0.1	-5.6834e-003
5293	4.594	4.5455	0.1	-1.3719e-002
5294	4.594	4.7273	0.1	-2.3401e-002
5295	4.594	4.9091	0.1	-3.586e-002
5296	4.594	5.0909	0.1	-5.0254e-002
5297	4.594	5.2727	0.1	-7.7488e-002
5298	4.594	5.4545	0.1	-8.9312e-002
5299	4.594	5.6364	0.1	-0.28304
5300	4.594	5.8182	0.1	-0.33176
5301	4.7778	0.18182	0.1	-0.29208
5302	4.7778	0.36364	0.1	-0.25828
5303	4.7778	0.54545	0.1	-8.0885e-002
5304	4.7778	0.72727	0.1	-7.0559e-002
5305	4.7778	0.90909	0.1	-4.575e-002
5306	4.7778	1.0909	0.1	-3.268e-002
5307	4.7778	1.2727	0.1	-2.1329e-002
5308	4.7778	1.4545	0.1	-1.2496e-002
5309	4.7778	1.6364	0.1	-5.1488e-003
5310	4.7778	1.8182	0.1	9.1075e-004
5311	4.7778	2.	0.1	5.9036e-003
5312	4.7778	2.1818	0.1	9.9418e-003
5313	4.7778	2.3636	0.1	1.3102e-002
5314	4.7778	2.5455	0.1	1.5434e-002
5315	4.7778	2.7273	0.1	1.6973e-002
5316	4.7778	2.9091	0.1	1.7738e-002
5317	4.7778	3.0909	0.1	1.7738e-002
5318	4.7778	3.2727	0.1	1.6973e-002
5319	4.7778	3.4545	0.1	1.5434e-002
5320	4.7778	3.6364	0.1	1.3103e-002
5321	4.7778	3.8182	0.1	9.9422e-003
5322	4.7778	4.	0.1	5.904e-003
5323	4.7778	4.1818	0.1	9.1128e-004
5324	4.7778	4.3636	0.1	-5.1483e-003
5325	4.7778	4.5455	0.1	-1.2496e-002
5326	4.7778	4.7273	0.1	-2.1329e-002
5327	4.7778	4.9091	0.1	-3.2679e-002
5328	4.7778	5.0909	0.1	-4.5749e-002
5329	4.7778	5.2727	0.1	-7.0558e-002
5330	4.7778	5.4545	0.1	-8.0885e-002
5331	4.7778	5.6364	0.1	-0.25828
5332	4.7778	5.8182	0.1	-0.29208
5333	4.9615	0.18182	0.1	-0.25862
5334	4.9615	0.36364	0.1	-0.23576
5335	4.9615	0.54545	0.1	-7.3293e-002
5336	4.9615	0.72727	0.1	-6.4273e-002
5337	4.9615	0.90909	0.1	-4.1674e-002
5338	4.9615	1.0909	0.1	-2.9808e-002
5339	4.9615	1.2727	0.1	-1.9471e-002
5340	4.9615	1.4545	0.1	-1.1419e-002
5341	4.9615	1.6364	0.1	-4.7082e-003
5342	4.9615	1.8182	0.1	8.3647e-004
5343	4.9615	2.	0.1	5.4142e-003
5344	4.9615	2.1818	0.1	9.1246e-003
5345	4.9615	2.3636	0.1	1.2034e-002
5346	4.9615	2.5455	0.1	1.4184e-002
5347	4.9615	2.7273	0.1	1.5605e-002
5348	4.9615	2.9091	0.1	1.6312e-002
5349	4.9615	3.0909	0.1	1.6312e-002
5350	4.9615	3.2727	0.1	1.5605e-002
5351	4.9615	3.4545	0.1	1.4184e-002
5352	4.9615	3.6364	0.1	1.2034e-002
5353	4.9615	3.8182	0.1	9.1249e-003
5354	4.9615	4.	0.1	5.4148e-003
5355	4.9615	4.1818	0.1	8.3704e-004
5356	4.9615	4.3636	0.1	-4.7077e-003
5357	4.9615	4.5455	0.1	-1.1418e-002
5358	4.9615	4.7273	0.1	-1.9471e-002
5359	4.9615	4.9091	0.1	-2.9807e-002
5360	4.9615	5.0909	0.1	-4.1673e-002
5361	4.9615	5.2727	0.1	-6.4272e-002
5362	4.9615	5.4545	0.1	-7.3292e-002
5363	4.9615	5.6364	0.1	-0.23576
5364	4.9615	5.8182	0.1	-0.25862
5365	5.1453	0.18182	0.1	-0.23034
5366	5.1453	0.36364	0.1	-0.21527
5367	5.1453	0.54545	0.1	-6.6446e-002
5368	5.1453	0.72727	0.1	-5.857e-002
5369	5.1453	0.90909	0.1	-3.7988e-002
5370	5.1453	1.0909	0.1	-2.7218e-002
5371	5.1453	1.2727	0.1	-1.7809e-002
5372	5.1453	1.4545	0.1	-1.0474e-002
5373	5.1453	1.6364	0.1	-4.3513e-003
5374	5.1453	1.8182	0.1	7.15e-004
5375	5.1453	2.	0.1	4.9044e-003
5376	5.1453	2.1818	0.1	8.3055e-003
5377	5.1453	2.3636	0.1	1.0976e-002
5378	5.1453	2.5455	0.1	1.2953e-002
5379	5.1453	2.7273	0.1	1.426e-002
5380	5.1453	2.9091	0.1	1.4911e-002
5381	5.1453	3.0909	0.1	1.4911e-002
5382	5.1453	3.2727	0.1	1.426e-002
5383	5.1453	3.4545	0.1	1.2953e-002
5384	5.1453	3.6364	0.1	1.0977e-002
5385	5.1453	3.8182	0.1	8.3059e-003
5386	5.1453	4.	0.1	4.9048e-003
5387	5.1453	4.1818	0.1	7.1548e-004
5388	5.1453	4.3636	0.1	-4.3505e-003
5389	5.1453	4.5455	0.1	-1.0473e-002
5390	5.1453	4.7273	0.1	-1.7808e-002
5391	5.1453	4.9091	0.1	-2.7217e-002
5392	5.1453	5.0909	0.1	-3.7986e-002
5393	5.1453	5.2727	0.1	-5.8569e-002
5394	5.1453	5.4545	0.1	-6.6445e-002
5395	5.1453	5.6364	0.1	-0.21526
5396	5.1453	5.8182	0.1	-0.23033
5397	5.3291	0.18182	0.1	-0.20637
5398	5.3291	0.36364	0.1	-0.19658
5399	5.3291	0.54545	0.1	-6.0254e-002
5400	5.3291	0.72727	0.1	-5.3382e-002
5401	5.3291	0.90909	0.1	-3.4642e-002
5402	5.3291	1.0909	0.1	-2.4872e-002
5403	5.3291	1.2727	0.1	-1.6314e-002
5404	5.3291	1.4545	0.1	-9.6371e-003
5405	5.3291	1.6364	0.1	-4.0569e-003
5406	5.3291	1.8182	0.1	5.6608e-004
5407	5.3291	2.	0.1	4.3937e-003
5408	5.3291	2.1818	0.1	7.5053e-003
5409	5.3291	2.3636	0.1	9.9515e-003
5410	5.3291	2.5455	0.1	1.1763e-002
5411	5.3291	2.7273	0.1	1.2963e-002
5412	5.3291	2.9091	0.1	1.356e-002
5413	5.3291	3.0909	0.1	1.356e-002
5414	5.3291	3.2727	0.1	1.2963e-002
5415	5.3291	3.4545	0.1	1.1763e-002
5416	5.3291	3.6364	0.1	9.9517e-003
5417	5.3291	3.8182	0.1	7.5057e-003
5418	5.3291	4.	0.1	4.3941e-003
5419	5.3291	4.1818	0.1	5.6653e-004
5420	5.3291	4.3636	0.1	-4.0563e-003
5421	5.3291	4.5455	0.1	-9.6366e-003
5422	5.3291	4.7273	0.1	-1.6313e-002
5423	5.3291	4.9091	0.1	-2.4872e-002
5424	5.3291	5.0909	0.1	-3.4641e-002
5425	5.3291	5.2727	0.1	-5.3381e-002
5426	5.3291	5.4545	0.1	-6.0254e-002
5427	5.3291	5.6364	0.1	-0.19658
5428	5.3291	5.8182	0.1	-0.20636
5429	5.5128	0.18182	0.1	-0.18604
5430	5.5128	0.36364	0.1	-0.17952
5431	5.5128	0.54545	0.1	-5.4648e-002
5432	5.5128	0.72727	0.1	-4.8659e-002
5433	5.5128	0.90909	0.1	-3.1604e-002
5434	5.5128	1.0909	0.1	-2.2748e-002
5435	5.5128	1.2727	0.1	-1.4968e-002
5436	5.5128	1.4545	0.1	-8.8961e-003
5437	5.5128	1.6364	0.1	-3.8156e-003
5438	5.5128	1.8182	0.1	3.9748e-004
5439	5.5128	2.	0.1	3.8897e-003
5440	5.5128	2.1818	0.1	6.731e-003
5441	5.5128	2.3636	0.1	8.9671e-003
5442	5.5128	2.5455	0.1	1.0624e-002
5443	5.5128	2.7273	0.1	1.1723e-002
5444	5.5128	2.9091	0.1	1.227e-002
5445	5.5128	3.0909	0.1	1.227e-002
5446	5.5128	3.2727	0.1	1.1723e-002
5447	5.5128	3.4545	0.1	1.0625e-002
5448	5.5128	3.6364	0.1	8.9675e-003
5449	5.5128	3.8182	0.1	6.7315e-003
5450	5.5128	4.	0.1	3.89e-003
5451	5.5128	4.1818	0.1	3.9802e-004
5452	5.5128	4.3636	0.1	-3.8149e-003
5453	5.5128	4.5455	0.1	-8.8954e-003
5454	5.5128	4.7273	0.1	-1.4967e-002
5455	5.5128	4.9091	0.1	-2.2747e-002
5456	5.5128	5.0909	0.1	-3.1603e-002
5457	5.5128	5.2727	0.1	-4.8658e-002
5458	5.5128	5.4545	0.1	-5.4647e-002
5459	5.5128	5.6364	0.1	-0.17952
5460	5.5128	5.8182	0.1	-0.18604
5461	5.6966	0.18182	0.1	-0.16884
5462	5.6966	0.36364	0.1	-0.16395
5463	5.6966	0.54545	0.1	-4.9572e-002
5464	5.6966	0.72727	0.1	-4.4362e-002
5465	5.6966	0.90909	0.1	-2.8851e-002
5466	5.6966	1.0909	0.1	-2.0828e-002
5467	5.6966	1.2727	0.1	-1.3763e-002
5468	5.6966	1.4545	0.1	-8.2464e-003
5469	5.6966	1.6364	0.1	-3.6257e-003
5470	5.6966	1.8182	0.1	2.091e-004
5471	5.6966	2.	0.1	3.3905e-003
5472	5.6966	2.1818	0.1	5.9814e-003
5473	5.6966	2.3636	0.1	8.0218e-003
5474	5.6966	2.5455	0.1	9.5348e-003
5475	5.6966	2.7273	0.1	1.0538e-002
5476	5.6966	2.9091	0.1	1.1038e-002
5477	5.6966	3.0909	0.1	1.1038e-002
5478	5.6966	3.2727	0.1	1.0538e-002
5479	5.6966	3.4545	0.1	9.5351e-003
5480	5.6966	3.6364	0.1	8.0221e-003
5481	5.6966	3.8182	0.1	5.9818e-003
5482	5.6966	4.	0.1	3.3908e-003
5483	5.6966	4.1818	0.1	2.0967e-004
5484	5.6966	4.3636	0.1	-3.625e-003
5485	5.6966	4.5455	0.1	-8.2456e-003
5486	5.6966	4.7273	0.1	-1.3762e-002
5487	5.6966	4.9091	0.1	-2.0827e-002
5488	5.6966	5.0909	0.1	-2.8849e-002
5489	5.6966	5.2727	0.1	-4.4361e-002
5490	5.6966	5.4545	0.1	-4.9571e-002
5491	5.6966	5.6364	0.1	-0.16395
5492	5.6966	5.8182	0.1	-0.16884
5493	5.8803	0.18182	0.1	-0.15433
5494	5.8803	0.36364	0.1	-0.14972
5495	5.8803	0.54545	0.1	-4.4972e-002
5496	5.8803	0.72727	0.1	-4.0451e-002
5497	5.8803	0.90909	0.1	-2.6354e-002
5498	5.8803	1.0909	0.1	-1.9095e-002
5499	5.8803	1.2727	0.1	-1.2684e-002
5500	5.8803	1.4545	0.1	-7.6781e-003
5501	5.8803	1.6364	0.1	-3.4806e-003
5502	5.8803	1.8182	0.1	5.7329e-006
5503	5.8803	2.	0.1	2.8999e-003
5504	5.8803	2.1818	0.1	5.259e-003
5505	5.8803	2.3636	0.1	7.1178e-003
5506	5.8803	2.5455	0.1	8.4968e-003
5507	5.8803	2.7273	0.1	9.4114e-003
5508	5.8803	2.9091	0.1	9.8677e-003
5509	5.8803	3.0909	0.1	9.8676e-003
5510	5.8803	3.2727	0.1	9.4116e-003
5511	5.8803	3.4545	0.1	8.4969e-003
5512	5.8803	3.6364	0.1	7.1181e-003
5513	5.8803	3.8182	0.1	5.2593e-003
5514	5.8803	4.	0.1	2.9003e-003
5515	5.8803	4.1818	0.1	6.1484e-006
5516	5.8803	4.3636	0.1	-3.4799e-003
5517	5.8803	4.5455	0.1	-7.6775e-003
5518	5.8803	4.7273	0.1	-1.2684e-002
5519	5.8803	4.9091	0.1	-1.9094e-002
5520	5.8803	5.0909	0.1	-2.6353e-002
5521	5.8803	5.2727	0.1	-4.0451e-002
5522	5.8803	5.4545	0.1	-4.4972e-002
5523	5.8803	5.6364	0.1	-0.14972
5524	5.8803	5.8182	0.1	-0.15433
5525	6.0641	0.18182	0.1	-0.14217
5526	6.0641	0.36364	0.1	-0.1367
5527	6.0641	0.54545	0.1	-4.079e-002
5528	6.0641	0.72727	0.1	-3.6881e-002
5529	6.0641	0.90909	0.1	-2.4079e-002
5530	6.0641	1.0909	0.1	-1.7519e-002
5531	6.0641	1.2727	0.1	-1.171e-002
5532	6.0641	1.4545	0.1	-7.1723e-003
5533	6.0641	1.6364	0.1	-3.3637e-003
5534	6.0641	1.8182	0.1	-1.9861e-004
5535	6.0641	2.	0.1	2.4309e-003
5536	6.0641	2.1818	0.1	4.5755e-003
5537	6.0641	2.3636	0.1	6.2664e-003
5538	6.0641	2.5455	0.1	7.5212e-003
5539	6.0641	2.7273	0.1	8.354e-003
5540	6.0641	2.9091	0.1	8.7693e-003
5541	6.0641	3.0909	0.1	8.7693e-003
5542	6.0641	3.2727	0.1	8.3541e-003
5543	6.0641	3.4545	0.1	7.5215e-003
5544	6.0641	3.6364	0.1	6.2668e-003
5545	6.0641	3.8182	0.1	4.576e-003
5546	6.0641	4.	0.1	2.4313e-003
5547	6.0641	4.1818	0.1	-1.9813e-004
5548	6.0641	4.3636	0.1	-3.3633e-003
5549	6.0641	4.5455	0.1	-7.1715e-003
5550	6.0641	4.7273	0.1	-1.1709e-002
5551	6.0641	4.9091	0.1	-1.7518e-002
5552	6.0641	5.0909	0.1	-2.4078e-002
5553	6.0641	5.2727	0.1	-3.688e-002
5554	6.0641	5.4545	0.1	-4.079e-002
5555	6.0641	5.6364	0.1	-0.1367
5556	6.0641	5.8182	0.1	-0.14216
5557	6.2479	0.18182	0.1	-0.1321
5558	6.2479	0.36364	0.1	-0.12478
5559	6.2479	0.54545	0.1	-3.6989e-002
5560	6.2479	0.72727	0.1	-3.3623e-002
5561	6.2479	0.90909	0.1	-2.2011e-002
5562	6.2479	1.0909	0.1	-1.6091e-002
5563	6.2479	1.2727	0.1	-1.0834e-002
5564	6.2479	1.4545	0.1	-6.727e-003
5565	6.2479	1.6364	0.1	-3.2764e-003
5566	6.2479	1.8182	0.1	-4.0665e-004
5567	6.2479	2.	0.1	1.9791e-003
5568	6.2479	2.1818	0.1	3.9261e-003
5569	6.2479	2.3636	0.1	5.4618e-003
5570	6.2479	2.5455	0.1	6.6017e-003
5571	6.2479	2.7273	0.1	7.3587e-003
5572	6.2479	2.9091	0.1	7.7363e-003
5573	6.2479	3.0909	0.1	7.7365e-003
5574	6.2479	3.2727	0.1	7.3588e-003
5575	6.2479	3.4545	0.1	6.602e-003
5576	6.2479	3.6364	0.1	5.4622e-003
5577	6.2479	3.8182	0.1	3.9263e-003
5578	6.2479	4.	0.1	1.9795e-003
5579	6.2479	4.1818	0.1	-4.0612e-004
5580	6.2479	4.3636	0.1	-3.2757e-003
5581	6.2479	4.5455	0.1	-6.7264e-003
5582	6.2479	4.7273	0.1	-1.0833e-002
5583	6.2479	4.9091	0.1	-1.609e-002
5584	6.2479	5.0909	0.1	-2.201e-002
5585	6.2479	5.2727	0.1	-3.3622e-002
5586	6.2479	5.4545	0.1	-3.6989e-002
5587	6.2479	5.6364	0.1	-0.12478
5588	6.2479	5.8182	0.1	-0.13209
5589	6.4316	0.18182	0.1	-0.12394
5590	6.4316	0.36364	0.1	-0.11387
5591	6.4316	0.54545	0.1	-3.3532e-002
5592	6.4316	0.72727	0.1	-3.065e-002
5593	6.4316	0.90909	0.1	-2.013e-002
5594	6.4316	1.0909	0.1	-1.4797e-002
5595	6.4316	1.2727	0.1	-1.0047e-002
5596	6.4316	1.4545	0.1	-6.3353e-003
5597	6.4316	1.6364	0.1	-3.2136e-003
5598	6.4316	1.8182	0.1	-6.1557e-004
5599	6.4316	2.	0.1	1.5454e-003
5600	6.4316	2.1818	0.1	3.3104e-003
5601	6.4316	2.3636	0.1	4.7033e-003
5602	6.4316	2.5455	0.1	5.7374e-003
5603	6.4316	2.7273	0.1	6.424e-003
5604	6.4316	2.9091	0.1	6.7671e-003
5605	6.4316	3.0909	0.1	6.767e-003
5606	6.4316	3.2727	0.1	6.4245e-003
5607	6.4316	3.4545	0.1	5.7375e-003
5608	6.4316	3.6364	0.1	4.7035e-003
5609	6.4316	3.8182	0.1	3.3108e-003
5610	6.4316	4.	0.1	1.5458e-003
5611	6.4316	4.1818	0.1	-6.1495e-004
5612	6.4316	4.3636	0.1	-3.213e-003
5613	6.4316	4.5455	0.1	-6.3346e-003
5614	6.4316	4.7273	0.1	-1.0046e-002
5615	6.4316	4.9091	0.1	-1.4796e-002
5616	6.4316	5.0909	0.1	-2.0129e-002
5617	6.4316	5.2727	0.1	-3.0649e-002
5618	6.4316	5.4545	0.1	-3.3531e-002
5619	6.4316	5.6364	0.1	-0.11387
5620	6.4316	5.8182	0.1	-0.12394
5621	6.6154	0.18182	0.1	-0.11758
5622	6.6154	0.36364	0.1	-0.10386
5623	6.6154	0.54545	0.1	-3.0377e-002
5624	6.6154	0.72727	0.1	-2.7928e-002
5625	6.6154	0.90909	0.1	-1.8412e-002
5626	6.6154	1.0909	0.1	-1.3617e-002
5627	6.6154	1.2727	0.1	-9.3334e-003
5628	6.6154	1.4545	0.1	-5.9848e-003
5629	6.6154	1.6364	0.1	-3.1654e-003
5630	6.6154	1.8182	0.1	-8.1721e-004
5631	6.6154	2.	0.1	1.1374e-003
5632	6.6154	2.1818	0.1	2.7345e-003
5633	6.6154	2.3636	0.1	3.9956e-003
5634	6.6154	2.5455	0.1	4.9322e-003
5635	6.6154	2.7273	0.1	5.5547e-003
5636	6.6154	2.9091	0.1	5.8653e-003
5637	6.6154	3.0909	0.1	5.8654e-003
5638	6.6154	3.2727	0.1	5.5546e-003
5639	6.6154	3.4545	0.1	4.9323e-003
5640	6.6154	3.6364	0.1	3.9959e-003
5641	6.6154	3.8182	0.1	2.735e-003
5642	6.6154	4.	0.1	1.1378e-003
5643	6.6154	4.1818	0.1	-8.1697e-004
5644	6.6154	4.3636	0.1	-3.1646e-003
5645	6.6154	4.5455	0.1	-5.9841e-003
5646	6.6154	4.7273	0.1	-9.3325e-003
5647	6.6154	4.9091	0.1	-1.3617e-002
5648	6.6154	5.0909	0.1	-1.8411e-002
5649	6.6154	5.2727	0.1	-2.7927e-002
5650	6.6154	5.4545	0.1	-3.0377e-002
5651	6.6154	5.6364	0.1	-0.10386
5652	6.6154	5.8182	0.1	-0.11758
5653	6.7991	0.18182	0.1	-0.11302
5654	6.7991	0.36364	0.1	-9.4694e-002
5655	6.7991	0.54545	0.1	-2.7506e-002
5656	6.7991	0.72727	0.1	-2.5444e-002
5657	6.7991	0.90909	0.1	-1.685e-002
5658	6.7991	1.0909	0.1	-1.255e-002
5659	6.7991	1.2727	0.1	-8.6941e-003
5660	6.7991	1.4545	0.1	-5.6795e-003
5661	6.7991	1.6364	0.1	-3.138e-003
5662	6.7991	1.8182	0.1	-1.0199e-003
5663	6.7991	2.	0.1	7.4498e-004
5664	6.7991	2.1818	0.1	2.1881e-003
5665	6.7991	2.3636	0.1	3.3279e-003
5666	6.7991	2.5455	0.1	4.1749e-003
5667	6.7991	2.7273	0.1	4.7378e-003
5668	6.7991	2.9091	0.1	5.0189e-003
5669	6.7991	3.0909	0.1	5.0192e-003
5670	6.7991	3.2727	0.1	4.7379e-003
5671	6.7991	3.4545	0.1	4.1754e-003
5672	6.7991	3.6364	0.1	3.3284e-003
5673	6.7991	3.8182	0.1	2.1885e-003
5674	6.7991	4.	0.1	7.4534e-004
5675	6.7991	4.1818	0.1	-1.0193e-003
5676	6.7991	4.3636	0.1	-3.1373e-003
5677	6.7991	4.5455	0.1	-5.679e-003
5678	6.7991	4.7273	0.1	-8.6933e-003
5679	6.7991	4.9091	0.1	-1.2549e-002
5680	6.7991	5.0909	0.1	-1.6849e-002
5681	6.7991	5.2727	0.1	-2.5443e-002
5682	6.7991	5.4545	0.1	-2.7505e-002
5683	6.7991	5.6364	0.1	-9.4693e-002
5684	6.7991	5.8182	0.1	-0.11302
5685	6.9829	0.18182	0.1	-0.11034
5686	6.9829	0.36364	0.1	-8.6289e-002
5687	6.9829	0.54545	0.1	-2.4889e-002
5688	6.9829	0.72727	0.1	-2.3175e-002
5689	6.9829	0.90909	0.1	-1.543e-002
5690	6.9829	1.0909	0.1	-1.1584e-002
5691	6.9829	1.2727	0.1	-8.1217e-003
5692	6.9829	1.4545	0.1	-5.4142e-003
5693	6.9829	1.6364	0.1	-3.128e-003
5694	6.9829	1.8182	0.1	-1.2209e-003
5695	6.9829	2.	0.1	3.6923e-004
5696	6.9829	2.1818	0.1	1.6706e-003
5697	6.9829	2.3636	0.1	2.6991e-003
5698	6.9829	2.5455	0.1	3.4635e-003
5699	6.9829	2.7273	0.1	3.9718e-003
5700	6.9829	2.9091	0.1	4.2258e-003
5701	6.9829	3.0909	0.1	4.2258e-003
5702	6.9829	3.2727	0.1	3.9721e-003
5703	6.9829	3.4545	0.1	3.4635e-003
5704	6.9829	3.6364	0.1	2.6995e-003
5705	6.9829	3.8182	0.1	1.6709e-003
5706	6.9829	4.	0.1	3.697e-004
5707	6.9829	4.1818	0.1	-1.2204e-003
5708	6.9829	4.3636	0.1	-3.1273e-003
5709	6.9829	4.5455	0.1	-5.4134e-003
5710	6.9829	4.7273	0.1	-8.1208e-003
5711	6.9829	4.9091	0.1	-1.1583e-002
5712	6.9829	5.0909	0.1	-1.5429e-002
5713	6.9829	5.2727	0.1	-2.3174e-002
5714	6.9829	5.4545	0.1	-2.4888e-002
5715	6.9829	5.6364	0.1	-8.6287e-002
5716	6.9829	5.8182	0.1	-0.11034
5717	7.1667	0.18182	0.1	-0.1098
5718	7.1667	0.36364	0.1	-7.8574e-002
5719	7.1667	0.54545	0.1	-2.2496e-002
5720	7.1667	0.72727	0.1	-2.1096e-002
5721	7.1667	0.90909	0.1	-1.4132e-002
5722	7.1667	1.0909	0.1	-1.0703e-002
5723	7.1667	1.2727	0.1	-7.6029e-003
5724	7.1667	1.4545	0.1	-5.1776e-003
5725	7.1667	1.6364	0.1	-3.1263e-003
5726	7.1667	1.8182	0.1	-1.4135e-003
5727	7.1667	2.	0.1	1.629e-005
5728	7.1667	2.1818	0.1	1.1876e-003
5729	7.1667	2.3636	0.1	2.1136e-003
5730	7.1667	2.5455	0.1	2.8022e-003
5731	7.1667	2.7273	0.1	3.2602e-003
5732	7.1667	2.9091	0.1	3.4891e-003
5733	7.1667	3.0909	0.1	3.4893e-003
5734	7.1667	3.2727	0.1	3.2602e-003
5735	7.1667	3.4545	0.1	2.8024e-003
5736	7.1667	3.6364	0.1	2.114e-003
5737	7.1667	3.8182	0.1	1.1878e-003
5738	7.1667	4.	0.1	1.6586e-005
5739	7.1667	4.1818	0.1	-1.4129e-003
5740	7.1667	4.3636	0.1	-3.1259e-003
5741	7.1667	4.5455	0.1	-5.1768e-003
5742	7.1667	4.7273	0.1	-7.6023e-003
5743	7.1667	4.9091	0.1	-1.0702e-002
5744	7.1667	5.0909	0.1	-1.4131e-002
5745	7.1667	5.2727	0.1	-2.1095e-002
5746	7.1667	5.4545	0.1	-2.2496e-002
5747	7.1667	5.6364	0.1	-7.8572e-002
5748	7.1667	5.8182	0.1	-0.1098
5749	7.3504	0.18182	0.1	-0.11194
5750	7.3504	0.36364	0.1	-7.1489e-002
5751	7.3504	0.54545	0.1	-2.0306e-002
5752	7.3504	0.72727	0.1	-1.919e-002
5753	7.3504	0.90909	0.1	-1.2945e-002
5754	7.3504	1.0909	0.1	-9.8992e-003
5755	7.3504	1.2727	0.1	-7.1322e-003
5756	7.3504	1.4545	0.1	-4.9663e-003
5757	7.3504	1.6364	0.1	-3.1311e-003
5758	7.3504	1.8182	0.1	-1.5965e-003
5759	7.3504	2.	0.1	-3.1422e-004
5760	7.3504	2.1818	0.1	7.3718e-004
5761	7.3504	2.3636	0.1	1.5696e-003
5762	7.3504	2.5455	0.1	2.1883e-003
5763	7.3504	2.7273	0.1	2.6004e-003
5764	7.3504	2.9091	0.1	2.8062e-003
5765	7.3504	3.0909	0.1	2.8064e-003
5766	7.3504	3.2727	0.1	2.6005e-003
5767	7.3504	3.4545	0.1	2.1884e-003
5768	7.3504	3.6364	0.1	1.5696e-003
5769	7.3504	3.8182	0.1	7.3778e-004
5770	7.3504	4.	0.1	-3.1375e-004
5771	7.3504	4.1818	0.1	-1.5959e-003
5772	7.3504	4.3636	0.1	-3.1302e-003
5773	7.3504	4.5455	0.1	-4.9658e-003
5774	7.3504	4.7273	0.1	-7.1313e-003
5775	7.3504	4.9091	0.1	-9.8987e-003
5776	7.3504	5.0909	0.1	-1.2943e-002
5777	7.3504	5.2727	0.1	-1.919e-002
5778	7.3504	5.4545	0.1	-2.0306e-002
5779	7.3504	5.6364	0.1	-7.1488e-002
5780	7.3504	5.8182	0.1	-0.11194
5781	7.5342	0.18182	0.1	-0.11785
5782	7.5342	0.36364	0.1	-6.4991e-002
5783	7.5342	0.54545	0.1	-1.8308e-002
5784	7.5342	0.72727	0.1	-1.7449e-002
5785	7.5342	0.90909	0.1	-1.1866e-002
5786	7.5342	1.0909	0.1	-9.1733e-003
5787	7.5342	1.2727	0.1	-6.7124e-003
5788	7.5342	1.4545	0.1	-4.785e-003
5789	7.5342	1.6364	0.1	-3.1478e-003
5790	7.5342	1.8182	0.1	-1.7775e-003
5791	7.5342	2.	0.1	-6.3026e-004
5792	7.5342	2.1818	0.1	3.1092e-004
5793	7.5342	2.3636	0.1	1.0568e-003
5794	7.5342	2.5455	0.1	1.6115e-003
5795	7.5342	2.7273	0.1	1.9814e-003
5796	7.5342	2.9091	0.1	2.166e-003
5797	7.5342	3.0909	0.1	2.166e-003
5798	7.5342	3.2727	0.1	1.9815e-003
5799	7.5342	3.4545	0.1	1.6117e-003
5800	7.5342	3.6364	0.1	1.0572e-003
5801	7.5342	3.8182	0.1	3.1139e-004
5802	7.5342	4.	0.1	-6.3009e-004
5803	7.5342	4.1818	0.1	-1.777e-003
5804	7.5342	4.3636	0.1	-3.1474e-003
5805	7.5342	4.5455	0.1	-4.7844e-003
5806	7.5342	4.7273	0.1	-6.7115e-003
5807	7.5342	4.9091	0.1	-9.1725e-003
5808	7.5342	5.0909	0.1	-1.1865e-002
5809	7.5342	5.2727	0.1	-1.7448e-002
5810	7.5342	5.4545	0.1	-1.8308e-002
5811	7.5342	5.6364	0.1	-6.4989e-002
5812	7.5342	5.8182	0.1	-0.11785
5813	7.7179	0.18182	0.1	-0.12979
5814	7.7179	0.36364	0.1	-5.9028e-002
5815	7.7179	0.54545	0.1	-1.6483e-002
5816	7.7179	0.72727	0.1	-1.586e-002
5817	7.7179	0.90909	0.1	-1.0887e-002
5818	7.7179	1.0909	0.1	-8.518e-003
5819	7.7179	1.2727	0.1	-6.3386e-003
5820	7.7179	1.4545	0.1	-4.6305e-003
5821	7.7179	1.6364	0.1	-3.176e-003
5822	7.7179	1.8182	0.1	-1.9559e-003
5823	7.7179	2.	0.1	-9.3341e-004
5824	7.7179	2.1818	0.1	-9.2753e-005
5825	7.7179	2.3636	0.1	5.7387e-004
5826	7.7179	2.5455	0.1	1.0698e-003
5827	7.7179	2.7273	0.1	1.4004e-003
5828	7.7179	2.9091	0.1	1.5663e-003
5829	7.7179	3.0909	0.1	1.5661e-003
5830	7.7179	3.2727	0.1	1.4008e-003
5831	7.7179	3.4545	0.1	1.07e-003
5832	7.7179	3.6364	0.1	5.7417e-004
5833	7.7179	3.8182	0.1	-9.2276e-005
5834	7.7179	4.	0.1	-9.3311e-004
5835	7.7179	4.1818	0.1	-1.9554e-003
5836	7.7179	4.3636	0.1	-3.1753e-003
5837	7.7179	4.5455	0.1	-4.6297e-003
5838	7.7179	4.7273	0.1	-6.3381e-003
5839	7.7179	4.9091	0.1	-8.5174e-003
5840	7.7179	5.0909	0.1	-1.0885e-002
5841	7.7179	5.2727	0.1	-1.5859e-002
5842	7.7179	5.4545	0.1	-1.6483e-002
5843	7.7179	5.6364	0.1	-5.9027e-002
5844	7.7179	5.8182	0.1	-0.12979
5845	7.9017	0.18182	0.1	-0.15305
5846	7.9017	0.36364	0.1	-5.3553e-002
5847	7.9017	0.54545	0.1	-1.481e-002
5848	7.9017	0.72727	0.1	-1.4402e-002
5849	7.9017	0.90909	0.1	-9.9924e-003
5850	7.9017	1.0909	0.1	-7.9219e-003
5851	7.9017	1.2727	0.1	-6.0017e-003
5852	7.9017	1.4545	0.1	-4.4946e-003
5853	7.9017	1.6364	0.1	-3.2076e-003
5854	7.9017	1.8182	0.1	-2.1255e-003
5855	7.9017	2.	0.1	-1.2175e-003
5856	7.9017	2.1818	0.1	-4.6913e-004
5857	7.9017	2.3636	0.1	1.2436e-004
5858	7.9017	2.5455	0.1	5.6674e-004
5859	7.9017	2.7273	0.1	8.6177e-004
5860	7.9017	2.9091	0.1	1.0096e-003
5861	7.9017	3.0909	0.1	1.0096e-003
5862	7.9017	3.2727	0.1	8.6183e-004
5863	7.9017	3.4545	0.1	5.6674e-004
5864	7.9017	3.6364	0.1	1.2472e-004
5865	7.9017	3.8182	0.1	-4.689e-004
5866	7.9017	4.	0.1	-1.2167e-003
5867	7.9017	4.1818	0.1	-2.1251e-003
5868	7.9017	4.3636	0.1	-3.2068e-003
5869	7.9017	4.5455	0.1	-4.4942e-003
5870	7.9017	4.7273	0.1	-6.001e-003
5871	7.9017	4.9091	0.1	-7.9212e-003
5872	7.9017	5.0909	0.1	-9.9909e-003
5873	7.9017	5.2727	0.1	-1.4401e-002
5874	7.9017	5.4545	0.1	-1.481e-002
5875	7.9017	5.6364	0.1	-5.3552e-002
5876	7.9017	5.8182	0.1	-0.15305
5877	8.0855	0.18182	0.1	-0.20247
5878	8.0855	0.36364	0.1	-4.8526e-002
5879	8.0855	0.54545	0.1	-1.3276e-002
5880	8.0855	0.72727	0.1	-1.3066e-002
5881	8.0855	0.90909	0.1	-9.1752e-003
5882	8.0855	1.0909	0.1	-7.3796e-003
5883	8.0855	1.2727	0.1	-5.6971e-003
5884	8.0855	1.4545	0.1	-4.3753e-003
5885	8.0855	1.6364	0.1	-3.2414e-003
5886	8.0855	1.8182	0.1	-2.2867e-003
5887	8.0855	2.	0.1	-1.4829e-003
5888	8.0855	2.1818	0.1	-8.1985e-004
5889	8.0855	2.3636	0.1	-2.9294e-004
5890	8.0855	2.5455	0.1	9.9963e-005
5891	8.0855	2.7273	0.1	3.6242e-004
5892	8.0855	2.9091	0.1	4.9387e-004
5893	8.0855	3.0909	0.1	4.9381e-004
5894	8.0855	3.2727	0.1	3.6242e-004
5895	8.0855	3.4545	0.1	9.9904e-005
5896	8.0855	3.6364	0.1	-2.9216e-004
5897	8.0855	3.8182	0.1	-8.1961e-004
5898	8.0855	4.	0.1	-1.4826e-003
5899	8.0855	4.1818	0.1	-2.2861e-003
5900	8.0855	4.3636	0.1	-3.241e-003
5901	8.0855	4.5455	0.1	-4.3744e-003
5902	8.0855	4.7273	0.1	-5.6965e-003
5903	8.0855	4.9091	0.1	-7.3786e-003
5904	8.0855	5.0909	0.1	-9.1742e-003
5905	8.0855	5.2727	0.1	-1.3065e-002
5906	8.0855	5.4545	0.1	-1.3275e-002
5907	8.0855	5.6364	0.1	-4.8525e-002
5908	8.0855	5.8182	0.1	-0.20247
5909	8.2692	0.18182	0.1	-0.33176
5910	8.2692	0.36364	0.1	-4.3923e-002
5911	8.2692	0.54545	0.1	-1.1874e-002
5912	8.2692	0.72727	0.1	-1.1849e-002
5913	8.2692	0.90909	0.1	-8.4387e-003
5914	8.2692	1.0909	0.1	-6.8943e-003
5915	8.2692	1.2727	0.1	-5.4308e-003
5916	8.2692	1.4545	0.1	-4.2783e-003
5917	8.2692	1.6364	0.1	-3.2856e-003
5918	8.2692	1.8182	0.1	-2.4468e-003
5919	8.2692	2.	0.1	-1.7394e-003
5920	8.2692	2.1818	0.1	-1.1538e-003
5921	8.2692	2.3636	0.1	-6.8798e-004
5922	8.2692	2.5455	0.1	-3.4062e-004
5923	8.2692	2.7273	0.1	-1.0827e-004
5924	8.2692	2.9091	0.1	8.5887e-006
5925	8.2692	3.0909	0.1	8.5291e-006
5926	8.2692	3.2727	0.1	-1.0791e-004
5927	8.2692	3.4545	0.1	-3.4038e-004
5928	8.2692	3.6364	0.1	-6.8775e-004
5929	8.2692	3.8182	0.1	-1.1533e-003
5930	8.2692	4.	0.1	-1.7386e-003
5931	8.2692	4.1818	0.1	-2.4462e-003
5932	8.2692	4.3636	0.1	-3.285e-003
5933	8.2692	4.5455	0.1	-4.2776e-003
5934	8.2692	4.7273	0.1	-5.43e-003
5935	8.2692	4.9091	0.1	-6.8935e-003
5936	8.2692	5.0909	0.1	-8.437e-003
5937	8.2692	5.2727	0.1	-1.1848e-002
5938	8.2692	5.4545	0.1	-1.1874e-002
5939	8.2692	5.6364	0.1	-4.3921e-002
5940	8.2692	5.8182	0.1	-0.33176
5941	8.453	0.18182	0.1	-0.72593
5942	8.453	0.36364	0.1	-3.9712e-002
5943	8.453	0.54545	0.1	-1.0593e-002
5944	8.453	0.72727	0.1	-1.0742e-002
5945	8.453	0.90909	0.1	-7.7733e-003
5946	8.453	1.0909	0.1	-6.4607e-003
5947	8.453	1.2727	0.1	-5.1979e-003
5948	8.453	1.4545	0.1	-4.2006e-003
5949	8.453	1.6364	0.1	-3.3368e-003
5950	8.453	1.8182	0.1	-2.6042e-003
5951	8.453	2.	0.1	-1.9845e-003
5952	8.453	2.1818	0.1	-1.4704e-003
5953	8.453	2.3636	0.1	-1.0605e-003
5954	8.453	2.5455	0.1	-7.544e-004
5955	8.453	2.7273	0.1	-5.4933e-004
5956	8.453	2.9091	0.1	-4.4669e-004
5957	8.453	3.0909	0.1	-4.4651e-004
5958	8.453	3.2727	0.1	-5.4957e-004
5959	8.453	3.4545	0.1	-7.5404e-004
5960	8.453	3.6364	0.1	-1.0603e-003
5961	8.453	3.8182	0.1	-1.4701e-003
5962	8.453	4.	0.1	-1.9841e-003
5963	8.453	4.1818	0.1	-2.6041e-003
5964	8.453	4.3636	0.1	-3.3362e-003
5965	8.453	4.5455	0.1	-4.2e-003
5966	8.453	4.7273	0.1	-5.197e-003
5967	8.453	4.9091	0.1	-6.4603e-003
5968	8.453	5.0909	0.1	-7.7721e-003
5969	8.453	5.2727	0.1	-1.0741e-002
5970	8.453	5.4545	0.1	-1.0593e-002
5971	8.453	5.6364	0.1	-3.9711e-002
5972	8.453	5.8182	0.1	-0.72593
5973	8.6368	0.18182	0.1	-1.4718
5974	8.6368	0.36364	0.1	-3.587e-002
5975	8.6368	0.54545	0.1	-9.4185e-003
5976	8.6368	0.72727	0.1	-9.7304e-003
5977	8.6368	0.90909	0.1	-7.1711e-003
5978	8.6368	1.0909	0.1	-6.0713e-003
5979	8.6368	1.2727	0.1	-4.9912e-003
5980	8.6368	1.4545	0.1	-4.1358e-003
5981	8.6368	1.6364	0.1	-3.3901e-003
5982	8.6368	1.8182	0.1	-2.7548e-003
5983	8.6368	2.	0.1	-2.2152e-003
5984	8.6368	2.1818	0.1	-1.7661e-003
5985	8.6368	2.3636	0.1	-1.4073e-003
5986	8.6368	2.5455	0.1	-1.1392e-003
5987	8.6368	2.7273	0.1	-9.5914e-004
5988	8.6368	2.9091	0.1	-8.6877e-004
5989	8.6368	3.0909	0.1	-8.6853e-004
5990	8.6368	3.2727	0.1	-9.589e-004
5991	8.6368	3.4545	0.1	-1.1391e-003
5992	8.6368	3.6364	0.1	-1.4072e-003
5993	8.6368	3.8182	0.1	-1.7657e-003
5994	8.6368	4.	0.1	-2.2148e-003
5995	8.6368	4.1818	0.1	-2.7544e-003
5996	8.6368	4.3636	0.1	-3.3895e-003
5997	8.6368	4.5455	0.1	-4.135e-003
5998	8.6368	4.7273	0.1	-4.9906e-003
5999	8.6368	4.9091	0.1	-6.0702e-003
6000	8.6368	5.0909	0.1	-7.1697e-003
6001	8.6368	5.2727	0.1	-9.7298e-003
6002	8.6368	5.4545	0.1	-9.4178e-003
6003	8.6368	5.6364	0.1	-3.5869e-002
6004	8.6368	5.8182	0.1	-1.4718
6005	8.8205	0.18182	0.1	-2.3237
6006	8.8205	0.36364	0.1	-3.2396e-002
6007	8.8205	0.54545	0.1	-8.3473e-003
6008	8.8205	0.72727	0.1	-8.8164e-003
6009	8.8205	0.90909	0.1	-6.6339e-003
6010	8.8205	1.0909	0.1	-5.7282e-003
6011	8.8205	1.2727	0.1	-4.8156e-003
6012	8.8205	1.4545	0.1	-4.0894e-003
6013	8.8205	1.6364	0.1	-3.4507e-003
6014	8.8205	1.8182	0.1	-2.904e-003
6015	8.8205	2.	0.1	-2.437e-003
6016	8.8205	2.1818	0.1	-2.0474e-003
6017	8.8205	2.3636	0.1	-1.7353e-003
6018	8.8205	2.5455	0.1	-1.5016e-003
6019	8.8205	2.7273	0.1	-1.3447e-003
6020	8.8205	2.9091	0.1	-1.2656e-003
6021	8.8205	3.0909	0.1	-1.2655e-003
6022	8.8205	3.2727	0.1	-1.3443e-003
6023	8.8205	3.4545	0.1	-1.5014e-003
6024	8.8205	3.6364	0.1	-1.735e-003
6025	8.8205	3.8182	0.1	-2.0471e-003
6026	8.8205	4.	0.1	-2.437e-003
6027	8.8205	4.1818	0.1	-2.9033e-003
6028	8.8205	4.3636	0.1	-3.45e-003
6029	8.8205	4.5455	0.1	-4.0887e-003
6030	8.8205	4.7273	0.1	-4.815e-003
6031	8.8205	4.9091	0.1	-5.7274e-003
6032	8.8205	5.0909	0.1	-6.6328e-003
6033	8.8205	5.2727	0.1	-8.8152e-003
6034	8.8205	5.4545	0.1	-8.3468e-003
6035	8.8205	5.6364	0.1	-3.2395e-002
6036	8.8205	5.8182	0.1	-2.3237
6037	9.0043	0.18182	0.1	-3.1682
6038	9.0043	0.36364	0.1	-2.9313e-002
6039	9.0043	0.54545	0.1	-7.3758e-003
6040	9.0043	0.72727	0.1	-7.9971e-003
6041	9.0043	0.90909	0.1	-6.1622e-003
6042	9.0043	1.0909	0.1	-5.433e-003
6043	9.0043	1.2727	0.1	-4.6723e-003
6044	9.0043	1.4545	0.1	-4.0632e-003
6045	9.0043	1.6364	0.1	-3.5214e-003
6046	9.0043	1.8182	0.1	-3.0552e-003
6047	9.0043	2.	0.1	-2.6548e-003
6048	9.0043	2.1818	0.1	-2.3184e-003
6049	9.0043	2.3636	0.1	-2.0488e-003
6050	9.0043	2.5455	0.1	-1.8464e-003
6051	9.0043	2.7273	0.1	-1.7104e-003
6052	9.0043	2.9091	0.1	-1.6413e-003
6053	9.0043	3.0909	0.1	-1.6415e-003
6054	9.0043	3.2727	0.1	-1.7101e-003
6055	9.0043	3.4545	0.1	-1.8464e-003
6056	9.0043	3.6364	0.1	-2.0487e-003
6057	9.0043	3.8182	0.1	-2.3181e-003
6058	9.0043	4.	0.1	-2.6543e-003
6059	9.0043	4.1818	0.1	-3.0546e-003
6060	9.0043	4.3636	0.1	-3.5209e-003
6061	9.0043	4.5455	0.1	-4.0624e-003
6062	9.0043	4.7273	0.1	-4.6716e-003
6063	9.0043	4.9091	0.1	-5.4321e-003
6064	9.0043	5.0909	0.1	-6.1609e-003
6065	9.0043	5.2727	0.1	-7.9961e-003
6066	9.0043	5.4545	0.1	-7.3753e-003
6067	9.0043	5.6364	0.1	-2.9312e-002
6068	9.0043	5.8182	0.1	-3.1682
6069	9.188	0.18182	0.1	-3.9793
6070	9.188	0.36364	0.1	-2.6717e-002
6071	9.188	0.54545	0.1	-6.4931e-003
6072	9.188	0.72727	0.1	-7.265e-003
6073	9.188	0.90909	0.1	-5.7493e-003
6074	9.188	1.0909	0.1	-5.1786e-003
6075	9.188	1.2727	0.1	-4.5548e-003
6076	9.188	1.4545	0.1	-4.0506e-003
6077	9.188	1.6364	0.1	-3.5967e-003
6078	9.188	1.8182	0.1	-3.2019e-003
6079	9.188	2.	0.1	-2.8617e-003
6080	9.188	2.1818	0.1	-2.5744e-003
6081	9.188	2.3636	0.1	-2.3428e-003
6082	9.188	2.5455	0.1	-2.1688e-003
6083	9.188	2.7273	0.1	-2.0512e-003
6084	9.188	2.9091	0.1	-1.9919e-003
6085	9.188	3.0909	0.1	-1.9917e-003
6086	9.188	3.2727	0.1	-2.0511e-003
6087	9.188	3.4545	0.1	-2.1684e-003
6088	9.188	3.6364	0.1	-2.3424e-003
6089	9.188	3.8182	0.1	-2.5741e-003
6090	9.188	4.	0.1	-2.8612e-003
6091	9.188	4.1818	0.1	-3.2017e-003
6092	9.188	4.3636	0.1	-3.5959e-003
6093	9.188	4.5455	0.1	-4.0499e-003
6094	9.188	4.7273	0.1	-4.5542e-003
6095	9.188	4.9091	0.1	-5.1781e-003
6096	9.188	5.0909	0.1	-5.7478e-003
6097	9.188	5.2727	0.1	-7.264e-003
6098	9.188	5.4545	0.1	-6.4932e-003
6099	9.188	5.6364	0.1	-2.6716e-002
6100	9.188	5.8182	0.1	-3.9793
6101	9.3718	0.18182	0.1	-4.751
6102	9.3718	0.36364	0.1	-2.5038e-002
6103	9.3718	0.54545	0.1	-5.7001e-003
6104	9.3718	0.72727	0.1	-6.62e-003
6105	9.3718	0.90909	0.1	-5.3948e-003
6106	9.3718	1.0909	0.1	-4.9649e-003
6107	9.3718	1.2727	0.1	-4.4629e-003
6108	9.3718	1.4545	0.1	-4.052e-003
6109	9.3718	1.6364	0.1	-3.6756e-003
6110	9.3718	1.8182	0.1	-3.3456e-003
6111	9.3718	2.	0.1	-3.0585e-003
6112	9.3718	2.1818	0.1	-2.8145e-003
6113	9.3718	2.3636	0.1	-2.6174e-003
6114	9.3718	2.5455	0.1	-2.4688e-003
6115	9.3718	2.7273	0.1	-2.3681e-003
6116	9.3718	2.9091	0.1	-2.3173e-003
6117	9.3718	3.0909	0.1	-2.3173e-003
6118	9.3718	3.2727	0.1	-2.3682e-003
6119	9.3718	3.4545	0.1	-2.4688e-003
6120	9.3718	3.6364	0.1	-2.6172e-003
6121	9.3718	3.8182	0.1	-2.8145e-003
6122	9.3718	4.	0.1	-3.0577e-003
6123	9.3718	4.1818	0.1	-3.3454e-003
6124	9.3718	4.3636	0.1	-3.675e-003
6125	9.3718	4.5455	0.1	-4.051e-003
6126	9.3718	4.7273	0.1	-4.4621e-003
6127	9.3718	4.9091	0.1	-4.9645e-003
6128	9.3718	5.0909	0.1	-5.3932e-003
6129	9.3718	5.2727	0.1	-6.6189e-003
6130	9.3718	5.4545	0.1	-5.6996e-003
6131	9.3718	5.6364	0.1	-2.5037e-002
6132	9.3718	5.8182	0.1	-4.751
6133	9.5556	0.18182	0.1	-5.4829
6134	9.5556	0.36364	0.1	-2.8307e-002
6135	9.5556	0.54545	0.1	-5.0159e-003
6136	9.5556	0.72727	0.1	-6.0828e-003
6137	9.5556	0.90909	0.1	-5.1161e-003
6138	9.5556	1.0909	0.1	-4.8084e-003
6139	9.5556	1.2727	0.1	-4.411e-003
6140	9.5556	1.4545	0.1	-4.0815e-003
6141	9.5556	1.6364	0.1	-3.7727e-003
6142	9.5556	1.8182	0.1	-3.4997e-003
6143	9.5556	2.	0.1	-3.2596e-003
6144	9.5556	2.1818	0.1	-3.0546e-003
6145	9.5556	2.3636	0.1	-2.8877e-003
6146	9.5556	2.5455	0.1	-2.7621e-003
6147	9.5556	2.7273	0.1	-2.676e-003
6148	9.5556	2.9091	0.1	-2.6329e-003
6149	9.5556	3.0909	0.1	-2.6329e-003
6150	9.5556	3.2727	0.1	-2.6763e-003
6151	9.5556	3.4545	0.1	-2.7618e-003
6152	9.5556	3.6364	0.1	-2.8872e-003
6153	9.5556	3.8182	0.1	-3.0541e-003
6154	9.5556	4.	0.1	-3.2593e-003
6155	9.5556	4.1818	0.1	-3.4994e-003
6156	9.5556	4.3636	0.1	-3.7724e-003
6157	9.5556	4.5455	0.1	-4.0808e-003
6158	9.5556	4.7273	0.1	-4.4106e-003
6159	9.5556	4.9091	0.1	-4.8075e-003
6160	9.5556	5.0909	0.1	-5.1146e-003
6161	9.5556	5.2727	0.1	-6.0817e-003
6162	9.5556	5.4545	0.1	-5.0152e-003
6163	9.5556	5.6364	0.1	-2.8306e-002
6164	9.5556	5.8182	0.1	-5.4829
6165	9.7393	0.18182	0.1	-6.1759
6166	9.7393	0.36364	0.1	-0.55465
6167	9.7393	0.54545	0.1	-4.4404e-003
6168	9.7393	0.72727	0.1	-5.6405e-003
6169	9.7393	0.90909	0.1	-4.8941e-003
6170	9.7393	1.0909	0.1	-4.6843e-003
6171	9.7393	1.2727	0.1	-4.375e-003
6172	9.7393	1.4545	0.1	-4.113e-003
6173	9.7393	1.6364	0.1	-3.8627e-003
6174	9.7393	1.8182	0.1	-3.6376e-003
6175	9.7393	2.	0.1	-3.4381e-003
6176	9.7393	2.1818	0.1	-3.2666e-003
6177	9.7393	2.3636	0.1	-3.1269e-003
6178	9.7393	2.5455	0.1	-3.0205e-003
6179	9.7393	2.7273	0.1	-2.9487e-003
6180	9.7393	2.9091	0.1	-2.9117e-003
6181	9.7393	3.0909	0.1	-2.9116e-003
6182	9.7393	3.2727	0.1	-2.9487e-003
6183	9.7393	3.4545	0.1	-3.0207e-003
6184	9.7393	3.6364	0.1	-3.1262e-003
6185	9.7393	3.8182	0.1	-3.2662e-003
6186	9.7393	4.	0.1	-3.4383e-003
6187	9.7393	4.1818	0.1	-3.6371e-003
6188	9.7393	4.3636	0.1	-3.862e-003
6189	9.7393	4.5455	0.1	-4.1127e-003
6190	9.7393	4.7273	0.1	-4.3739e-003
6191	9.7393	4.9091	0.1	-4.6835e-003
6192	9.7393	5.0909	0.1	-4.8927e-003
6193	9.7393	5.2727	0.1	-5.6395e-003
6194	9.7393	5.4545	0.1	-4.4396e-003
6195	9.7393	5.6364	0.1	-0.55465
6196	9.7393	5.8182	0.1	-6.1759
6197	9.9231	0.18182	0.1	-6.8319
6198	9.9231	0.36364	0.1	-1.5431
6199	9.9231	0.54545	0.1	-4.093e-003
6200	9.9231	0.72727	0.1	-5.3583e-003
6201	9.9231	0.90909	0.1	-4.7747e-003
6202	9.9231	1.0909	0.1	-4.6321e-003
6203	9.9231	1.2727	0.1	-4.3886e-003
6204	9.9231	1.4545	0.1	-4.1803e-003
6205	9.9231	1.6364	0.1	-3.9753e-003
6206	9.9231	1.8182	0.1	-3.7906e-003
6207	9.9231	2.	0.1	-3.6259e-003
6208	9.9231	2.1818	0.1	-3.4826e-003
6209	9.9231	2.3636	0.1	-3.3647e-003
6210	9.9231	2.5455	0.1	-3.2765e-003
6211	9.9231	2.7273	0.1	-3.215e-003
6212	9.9231	2.9091	0.1	-3.1841e-003
6213	9.9231	3.0909	0.1	-3.1843e-003
6214	9.9231	3.2727	0.1	-3.2151e-003
6215	9.9231	3.4545	0.1	-3.276e-003
6216	9.9231	3.6364	0.1	-3.365e-003
6217	9.9231	3.8182	0.1	-3.4821e-003
6218	9.9231	4.	0.1	-3.6251e-003
6219	9.9231	4.1818	0.1	-3.7904e-003
6220	9.9231	4.3636	0.1	-3.9748e-003
6221	9.9231	4.5455	0.1	-4.1792e-003
6222	9.9231	4.7273	0.1	-4.3881e-003
6223	9.9231	4.9091	0.1	-4.6314e-003
6224	9.9231	5.0909	0.1	-4.7732e-003
6225	9.9231	5.2727	0.1	-5.3572e-003
6226	9.9231	5.4545	0.1	-4.0924e-003
6227	9.9231	5.6364	0.1	-1.5431
6228	9.9231	5.8182	0.1	-6.8319
6229	10.107	0.18182	0.1	-7.4532
6230	10.107	0.36364	0.1	-2.4741
6231	10.107	0.54545	0.1	-4.4524e-003
6232	10.107	0.72727	0.1	-5.3506e-003
6233	10.107	0.90909	0.1	-4.8233e-003
6234	10.107	1.0909	0.1	-4.7007e-003
6235	10.107	1.2727	0.1	-4.496e-003
6236	10.107	1.4545	0.1	-4.3211e-003
6237	10.107	1.6364	0.1	-4.1508e-003
6238	10.107	1.8182	0.1	-3.9958e-003
6239	10.107	2.	0.1	-3.8575e-003
6240	10.107	2.1818	0.1	-3.7372e-003
6241	10.107	2.3636	0.1	-3.6385e-003
6242	10.107	2.5455	0.1	-3.5637e-003
6243	10.107	2.7273	0.1	-3.5122e-003
6244	10.107	2.9091	0.1	-3.4858e-003
6245	10.107	3.0909	0.1	-3.4856e-003
6246	10.107	3.2727	0.1	-3.5119e-003
6247	10.107	3.4545	0.1	-3.5634e-003
6248	10.107	3.6364	0.1	-3.6379e-003
6249	10.107	3.8182	0.1	-3.7364e-003
6250	10.107	4.	0.1	-3.8574e-003
6251	10.107	4.1818	0.1	-3.9955e-003
6252	10.107	4.3636	0.1	-4.1498e-003
6253	10.107	4.5455	0.1	-4.3209e-003
6254	10.107	4.7273	0.1	-4.495e-003
6255	10.107	4.9091	0.1	-4.7003e-003
6256	10.107	5.0909	0.1	-4.822e-003
6257	10.107	5.2727	0.1	-5.3488e-003
6258	10.107	5.4545	0.1	-4.4524e-003
6259	10.107	5.6364	0.1	-2.4741
6260	10.107	5.8182	0.1	-7.4532
6261	10.291	0.18182	0.1	-8.0417
6262	10.291	0.36364	0.1	-3.3481
6263	10.291	0.54545	0.1	-2.2063e-002
6264	10.291	0.72727	0.1	-5.7561e-003
6265	10.291	0.90909	0.1	-5.0299e-003
6266	10.291	1.0909	0.1	-4.8461e-003
6267	10.291	1.2727	0.1	-4.638e-003
6268	10.291	1.4545	0.1	-4.4738e-003
6269	10.291	1.6364	0.1	-4.3202e-003
6270	10.291	1.8182	0.1	-4.184e-003
6271	10.291	2.	0.1	-4.0638e-003
6272	10.291	2.1818	0.1	-3.9601e-003
6273	10.291	2.3636	0.1	-3.8753e-003
6274	10.291	2.5455	0.1	-3.8115e-003
6275	10.291	2.7273	0.1	-3.7676e-003
6276	10.291	2.9091	0.1	-3.7453e-003
6277	10.291	3.0909	0.1	-3.745e-003
6278	10.291	3.2727	0.1	-3.7673e-003
6279	10.291	3.4545	0.1	-3.8115e-003
6280	10.291	3.6364	0.1	-3.875e-003
6281	10.291	3.8182	0.1	-3.96e-003
6282	10.291	4.	0.1	-4.0638e-003
6283	10.291	4.1818	0.1	-4.1836e-003
6284	10.291	4.3636	0.1	-4.3199e-003
6285	10.291	4.5455	0.1	-4.473e-003
6286	10.291	4.7273	0.1	-4.6376e-003
6287	10.291	4.9091	0.1	-4.8457e-003
6288	10.291	5.0909	0.1	-5.0282e-003
6289	10.291	5.2727	0.1	-5.7551e-003
6290	10.291	5.4545	0.1	-2.2064e-002
6291	10.291	5.6364	0.1	-3.3481
6292	10.291	5.8182	0.1	-8.0417
6293	10.474	0.18182	0.1	-8.5998
6294	10.474	0.36364	0.1	-4.1695
6295	10.474	0.54545	0.1	-1.0064
6296	10.474	0.72727	0.1	-7.3568e-003
6297	10.474	0.90909	0.1	-5.5479e-003
6298	10.474	1.0909	0.1	-5.1351e-003
6299	10.474	1.2727	0.1	-4.8561e-003
6300	10.474	1.4545	0.1	-4.6659e-003
6301	10.474	1.6364	0.1	-4.5071e-003
6302	10.474	1.8182	0.1	-4.3749e-003
6303	10.474	2.	0.1	-4.2628e-003
6304	10.474	2.1818	0.1	-4.168e-003
6305	10.474	2.3636	0.1	-4.092e-003
6306	10.474	2.5455	0.1	-4.0351e-003
6307	10.474	2.7273	0.1	-3.9961e-003
6308	10.474	2.9091	0.1	-3.9761e-003
6309	10.474	3.0909	0.1	-3.9763e-003
6310	10.474	3.2727	0.1	-3.9961e-003
6311	10.474	3.4545	0.1	-4.035e-003
6312	10.474	3.6364	0.1	-4.0914e-003
6313	10.474	3.8182	0.1	-4.1678e-003
6314	10.474	4.	0.1	-4.2626e-003
6315	10.474	4.1818	0.1	-4.3743e-003
6316	10.474	4.3636	0.1	-4.5062e-003
6317	10.474	4.5455	0.1	-4.6651e-003
6318	10.474	4.7273	0.1	-4.8552e-003
6319	10.474	4.9091	0.1	-5.1343e-003
6320	10.474	5.0909	0.1	-5.5467e-003
6321	10.474	5.2727	0.1	-7.3559e-003
6322	10.474	5.4545	0.1	-1.0064
6323	10.474	5.6364	0.1	-4.1695
6324	10.474	5.8182	0.1	-8.5998
6325	10.658	0.18182	0.1	-9.1294
6326	10.658	0.36364	0.1	-4.942
6327	10.658	0.54545	0.1	-2.0399
6328	10.658	0.72727	0.1	-1.6204e-002
6329	10.658	0.90909	0.1	-6.7445e-003
6330	10.658	1.0909	0.1	-5.6663e-003
6331	10.658	1.2727	0.1	-5.1858e-003
6332	10.658	1.4545	0.1	-4.9105e-003
6333	10.658	1.6364	0.1	-4.7137e-003
6334	10.658	1.8182	0.1	-4.5651e-003
6335	10.658	2.	0.1	-4.447e-003
6336	10.658	2.1818	0.1	-4.3519e-003
6337	10.658	2.3636	0.1	-4.2777e-003
6338	10.658	2.5455	0.1	-4.2236e-003
6339	10.658	2.7273	0.1	-4.1871e-003
6340	10.658	2.9091	0.1	-4.1684e-003
6341	10.658	3.0909	0.1	-4.168e-003
6342	10.658	3.2727	0.1	-4.1876e-003
6343	10.658	3.4545	0.1	-4.2235e-003
6344	10.658	3.6364	0.1	-4.278e-003
6345	10.658	3.8182	0.1	-4.3511e-003
6346	10.658	4.	0.1	-4.4467e-003
6347	10.658	4.1818	0.1	-4.5646e-003
6348	10.658	4.3636	0.1	-4.7132e-003
6349	10.658	4.5455	0.1	-4.91e-003
6350	10.658	4.7273	0.1	-5.1849e-003
6351	10.658	4.9091	0.1	-5.666e-003
6352	10.658	5.0909	0.1	-6.7434e-003
6353	10.658	5.2727	0.1	-1.6204e-002
6354	10.658	5.4545	0.1	-2.0399
6355	10.658	5.6364	0.1	-4.942
6356	10.658	5.8182	0.1	-9.1294
6357	10.842	0.18182	0.1	-9.6326
6358	10.842	0.36364	0.1	-5.6697
6359	10.842	0.54545	0.1	-3.0108
6360	10.842	0.72727	0.1	-0.543
6361	10.842	0.90909	0.1	-1.0151e-002
6362	10.842	1.0909	0.1	-6.7803e-003
6363	10.842	1.2727	0.1	-5.7951e-003
6364	10.842	1.4545	0.1	-5.323e-003
6365	10.842	1.6364	0.1	-5.0341e-003
6366	10.842	1.8182	0.1	-4.8373e-003
6367	10.842	2.	0.1	-4.6943e-003
6368	10.842	2.1818	0.1	-4.5857e-003
6369	10.842	2.3636	0.1	-4.505e-003
6370	10.842	2.5455	0.1	-4.4475e-003
6371	10.842	2.7273	0.1	-4.4095e-003
6372	10.842	2.9091	0.1	-4.3908e-003
6373	10.842	3.0909	0.1	-4.3907e-003
6374	10.842	3.2727	0.1	-4.4095e-003
6375	10.842	3.4545	0.1	-4.4476e-003
6376	10.842	3.6364	0.1	-4.5046e-003
6377	10.842	3.8182	0.1	-4.5855e-003
6378	10.842	4.	0.1	-4.6943e-003
6379	10.842	4.1818	0.1	-4.8367e-003
6380	10.842	4.3636	0.1	-5.0338e-003
6381	10.842	4.5455	0.1	-5.3227e-003
6382	10.842	4.7273	0.1	-5.7943e-003
6383	10.842	4.9091	0.1	-6.7795e-003
6384	10.842	5.0909	0.1	-1.0149e-002
6385	10.842	5.2727	0.1	-0.54302
6386	10.842	5.4545	0.1	-3.0108
6387	10.842	5.6364	0.1	-5.6697
6388	10.842	5.8182	0.1	-9.6326
6389	11.026	0.18182	0.1	-10.111
6390	11.026	0.36364	0.1	-6.3562
6391	11.026	0.54545	0.1	-3.9237
6392	11.026	0.72727	0.1	-1.6635
6393	11.026	0.90909	0.1	-3.1021e-002
6394	11.026	1.0909	0.1	-9.3608e-003
6395	11.026	1.2727	0.1	-6.9255e-003
6396	11.026	1.4545	0.1	-6.0052e-003
6397	11.026	1.6364	0.1	-5.519e-003
6398	11.026	1.8182	0.1	-5.221e-003
6399	11.026	2.	0.1	-5.0213e-003
6400	11.026	2.1818	0.1	-4.88e-003
6401	11.026	2.3636	0.1	-4.7798e-003
6402	11.026	2.5455	0.1	-4.7117e-003
6403	11.026	2.7273	0.1	-4.6675e-003
6404	11.026	2.9091	0.1	-4.6459e-003
6405	11.026	3.0909	0.1	-4.6454e-003
6406	11.026	3.2727	0.1	-4.6673e-003
6407	11.026	3.4545	0.1	-4.7116e-003
6408	11.026	3.6364	0.1	-4.7797e-003
6409	11.026	3.8182	0.1	-4.8795e-003
6410	11.026	4.	0.1	-5.0209e-003
6411	11.026	4.1818	0.1	-5.2206e-003
6412	11.026	4.3636	0.1	-5.5186e-003
6413	11.026	4.5455	0.1	-6.0043e-003
6414	11.026	4.7273	0.1	-6.9253e-003
6415	11.026	4.9091	0.1	-9.36e-003
6416	11.026	5.0909	0.1	-3.1021e-002
6417	11.026	5.2727	0.1	-1.6635
6418	11.026	5.4545	0.1	-3.9237
6419	11.026	5.6364	0.1	-6.3562
6420	11.026	5.8182	0.1	-10.111
6421	11.209	0.18182	0.1	-10.568
6422	11.209	0.36364	0.1	-7.0047
6423	11.209	0.54545	0.1	-4.7832
6424	11.209	0.72727	0.1	-2.7259
6425	11.209	0.90909	0.1	-0.78595
6426	11.209	1.0909	0.1	-1.8553e-002
6427	11.209	1.2727	0.1	-9.2473e-003
6428	11.209	1.4545	0.1	-7.122e-003
6429	11.209	1.6364	0.1	-6.1987e-003
6430	11.209	1.8182	0.1	-5.6936e-003
6431	11.209	2.	0.1	-5.3815e-003
6432	11.209	2.1818	0.1	-5.1758e-003
6433	11.209	2.3636	0.1	-5.0362e-003
6434	11.209	2.5455	0.1	-4.9442e-003
6435	11.209	2.7273	0.1	-4.8866e-003
6436	11.209	2.9091	0.1	-4.8589e-003
6437	11.209	3.0909	0.1	-4.8586e-003
6438	11.209	3.2727	0.1	-4.8868e-003
6439	11.209	3.4545	0.1	-4.9436e-003
6440	11.209	3.6364	0.1	-5.0359e-003
6441	11.209	3.8182	0.1	-5.1752e-003
6442	11.209	4.	0.1	-5.3815e-003
6443	11.209	4.1818	0.1	-5.6928e-003
6444	11.209	4.3636	0.1	-6.1981e-003
6445	11.209	4.5455	0.1	-7.1216e-003
6446	11.209	4.7273	0.1	-9.2469e-003
6447	11.209	4.9091	0.1	-1.8553e-002
6448	11.209	5.0909	0.1	-0.78598
6449	11.209	5.2727	0.1	-2.7259
6450	11.209	5.4545	0.1	-4.7833
6451	11.209	5.6364	0.1	-7.0047
6452	11.209	5.8182	0.1	-10.568
6453	11.393	0.18182	0.1	-11.003
6454	11.393	0.36364	0.1	-7.6187
6455	11.393	0.54545	0.1	-5.5944
6456	11.393	0.72727	0.1	-3.7277
6457	11.393	0.90909	0.1	-1.9607
6458	11.393	1.0909	0.1	-0.33823
6459	11.393	1.2727	0.1	-1.6832e-002
6460	11.393	1.4545	0.1	-9.4917e-003
6461	11.393	1.6364	0.1	-7.3775e-003
6462	11.393	1.8182	0.1	-6.4041e-003
6463	11.393	2.	0.1	-5.8618e-003
6464	11.393	2.1818	0.1	-5.5281e-003
6465	11.393	2.3636	0.1	-5.3145e-003
6466	11.393	2.5455	0.1	-5.1776e-003
6467	11.393	2.7273	0.1	-5.0949e-003
6468	11.393	2.9091	0.1	-5.0559e-003
6469	11.393	3.0909	0.1	-5.0557e-003
6470	11.393	3.2727	0.1	-5.0952e-003
6471	11.393	3.4545	0.1	-5.1776e-003
6472	11.393	3.6364	0.1	-5.3141e-003
6473	11.393	3.8182	0.1	-5.5278e-003
6474	11.393	4.	0.1	-5.8618e-003
6475	11.393	4.1818	0.1	-6.4035e-003
6476	11.393	4.3636	0.1	-7.3768e-003
6477	11.393	4.5455	0.1	-9.4915e-003
6478	11.393	4.7273	0.1	-1.6831e-002
6479	11.393	4.9091	0.1	-0.33825
6480	11.393	5.0909	0.1	-1.9607
6481	11.393	5.2727	0.1	-3.7278
6482	11.393	5.4545	0.1	-5.5944
6483	11.393	5.6364	0.1	-7.6187
6484	11.393	5.8182	0.1	-11.003
6485	11.577	0.18182	0.1	-11.419
6486	11.577	0.36364	0.1	-8.201
6487	11.577	0.54545	0.1	-6.3612
6488	11.577	0.72727	0.1	-4.6736
6489	11.577	0.90909	0.1	-3.0765
6490	11.577	1.0909	0.1	-1.5782
6491	11.577	1.2727	0.1	-0.24228
6492	11.577	1.4545	0.1	-1.8015e-002
6493	11.577	1.6364	0.1	-1.0094e-002
6494	11.577	1.8182	0.1	-7.7168e-003
6495	11.577	2.	0.1	-6.6155e-003
6496	11.577	2.1818	0.1	-6.0074e-003
6497	11.577	2.3636	0.1	-5.642e-003
6498	11.577	2.5455	0.1	-5.4197e-003
6499	11.577	2.7273	0.1	-5.2885e-003
6500	11.577	2.9091	0.1	-5.2279e-003
6501	11.577	3.0909	0.1	-5.2278e-003
6502	11.577	3.2727	0.1	-5.2887e-003
6503	11.577	3.4545	0.1	-5.4196e-003
6504	11.577	3.6364	0.1	-5.642e-003
6505	11.577	3.8182	0.1	-6.0068e-003
6506	11.577	4.	0.1	-6.6155e-003
6507	11.577	4.1818	0.1	-7.7162e-003
6508	11.577	4.3636	0.1	-1.0093e-002
6509	11.577	4.5455	0.1	-1.8015e-002
6510	11.577	4.7273	0.1	-0.2423
6511	11.577	4.9091	0.1	-1.5782
6512	11.577	5.0909	0.1	-3.0765
6513	11.577	5.2727	0.1	-4.6737
6514	11.577	5.4545	0.1	-6.3612
6515	11.577	5.6364	0.1	-8.201
6516	11.577	5.8182	0.1	-11.419
6517	11.761	0.18182	0.1	-11.817
6518	11.761	0.36364	0.1	-8.7547
6519	11.761	0.54545	0.1	-7.0882
6520	11.761	0.72727	0.1	-5.5689
6521	11.761	0.90909	0.1	-4.1327
6522	11.761	1.0909	0.1	-2.7842
6523	11.761	1.2727	0.1	-1.5333
6524	11.761	1.4545	0.1	-0.40908
6525	11.761	1.6364	0.1	-2.4519e-002
6526	11.761	1.8182	0.1	-1.1564e-002
6527	11.761	2.	0.1	-8.3281e-003
6528	11.761	2.1818	0.1	-6.9298e-003
6529	11.761	2.3636	0.1	-6.1942e-003
6530	11.761	2.5455	0.1	-5.7783e-003
6531	11.761	2.7273	0.1	-5.5464e-003
6532	11.761	2.9091	0.1	-5.4416e-003
6533	11.761	3.0909	0.1	-5.4414e-003
6534	11.761	3.2727	0.1	-5.5463e-003
6535	11.761	3.4545	0.1	-5.7783e-003
6536	11.761	3.6364	0.1	-6.1939e-003
6537	11.761	3.8182	0.1	-6.9294e-003
6538	11.761	4.	0.1	-8.3285e-003
6539	11.761	4.1818	0.1	-1.1563e-002
6540	11.761	4.3636	0.1	-2.4518e-002
6541	11.761	4.5455	0.1	-0.4091
6542	11.761	4.7273	0.1	-1.5334
6543	11.761	4.9091	0.1	-2.7842
6544	11.761	5.0909	0.1	-4.1327
6545	11.761	5.2727	0.1	-5.569
6546	11.761	5.4545	0.1	-7.0882
6547	11.761	5.6364	0.1	-8.7547
6548	11.761	5.8182	0.1	-11.817
6549	11.944	0.18182	0.1	-12.2
6550	11.944	0.36364	0.1	-9.2824
6551	11.944	0.54545	0.1	-7.7791
6552	11.944	0.72727	0.1	-6.4186
6553	11.944	0.90909	0.1	-5.1344
6554	11.944	1.0909	0.1	-3.9295
6555	11.944	1.2727	0.1	-2.8109
6556	11.944	1.4545	0.1	-1.7857
6557	11.944	1.6364	0.1	-0.86332
6558	11.944	1.8182	0.1	-0.12106
6559	11.944	2.	0.1	-1.7247e-002
6560	11.944	2.1818	0.1	-9.8273e-003
6561	11.944	2.3636	0.1	-7.4718e-003
6562	11.944	2.5455	0.1	-6.4106e-003
6563	11.944	2.7273	0.1	-5.8875e-003
6564	11.944	2.9091	0.1	-5.6648e-003
6565	11.944	3.0909	0.1	-5.6651e-003
6566	11.944	3.2727	0.1	-5.8874e-003
6567	11.944	3.4545	0.1	-6.4105e-003
6568	11.944	3.6364	0.1	-7.4716e-003
6569	11.944	3.8182	0.1	-9.8269e-003
6570	11.944	4.	0.1	-1.7247e-002
6571	11.944	4.1818	0.1	-0.12107
6572	11.944	4.3636	0.1	-0.86335
6573	11.944	4.5455	0.1	-1.7857
6574	11.944	4.7273	0.1	-2.8109
6575	11.944	4.9091	0.1	-3.9295
6576	11.944	5.0909	0.1	-5.1344
6577	11.944	5.2727	0.1	-6.4186
6578	11.944	5.4545	0.1	-7.7791
6579	11.944	5.6364	0.1	-9.2824
6580	11.944	5.8182	0.1	-12.2
6581	12.128	0.18182	0.1	-12.567
6582	12.128	0.36364	0.1	-9.7864
6583	12.128	0.54545	0.1	-8.4374
6584	12.128	0.72727	0.1	-7.2271
6585	12.128	0.90909	0.1	-6.087
6586	12.128	1.0909	0.1	-5.0187
6587	12.128	1.2727	0.1	-4.0277
6588	12.128	1.4545	0.1	-3.1193
6589	12.128	1.6364	0.1	-2.2988
6590	12.128	1.8182	0.1	-1.5708
6591	12.128	2.	0.1	-0.93999
6592	12.128	2.1818	0.1	-0.41276
6593	12.128	2.3636	0.1	-5.1511e-002
6594	12.128	2.5455	0.1	-1.1093e-002
6595	12.128	2.7273	0.1	-6.9907e-003
6596	12.128	2.9091	0.1	-5.8986e-003
6597	12.128	3.0909	0.1	-5.8985e-003
6598	12.128	3.2727	0.1	-6.9906e-003
6599	12.128	3.4545	0.1	-1.1092e-002
6600	12.128	3.6364	0.1	-5.1514e-002
6601	12.128	3.8182	0.1	-0.41277
6602	12.128	4.	0.1	-0.94001
6603	12.128	4.1818	0.1	-1.5708
6604	12.128	4.3636	0.1	-2.2988
6605	12.128	4.5455	0.1	-3.1194
6606	12.128	4.7273	0.1	-4.0277
6607	12.128	4.9091	0.1	-5.0187
6608	12.128	5.0909	0.1	-6.0871
6609	12.128	5.2727	0.1	-7.2272
6610	12.128	5.4545	0.1	-8.4374
6611	12.128	5.6364	0.1	-9.7864
6612	12.128	5.8182	0.1	-12.567
6613	12.312	0.18182	0.1	-12.921
6614	12.312	0.36364	0.1	-10.269
6615	12.312	0.54545	0.1	-9.0669
6616	12.312	0.72727	0.1	-7.9994
6617	12.312	0.90909	0.1	-6.9963
6618	12.312	1.0909	0.1	-6.058
6619	12.312	1.2727	0.1	-5.1888
6620	12.312	1.4545	0.1	-4.3931
6621	12.312	1.6364	0.1	-3.6748
6622	12.312	1.8182	0.1	-3.0377
6623	12.312	2.	0.1	-2.485
6624	12.312	2.1818	0.1	-2.0195
6625	12.312	2.3636	0.1	-1.6439
6626	12.312	2.5455	0.1	-1.36
6627	12.312	2.7273	0.1	-1.1697
6628	12.312	2.9091	0.1	-1.0741
6629	12.312	3.0909	0.1	-1.0741
6630	12.312	3.2727	0.1	-1.1697
6631	12.312	3.4545	0.1	-1.3601
6632	12.312	3.6364	0.1	-1.6439
6633	12.312	3.8182	0.1	-2.0196
6634	12.312	4.	0.1	-2.485
6635	12.312	4.1818	0.1	-3.0377
6636	12.312	4.3636	0.1	-3.6748
6637	12.312	4.5455	0.1	-4.3931
6638	12.312	4.7273	0.1	-5.1889
6639	12.312	4.9091	0.1	-6.0581
6640	12.312	5.0909	0.1	-6.9964
6641	12.312	5.2727	0.1	-7.9994
6642	12.312	5.4545	0.1	-9.0669
6643	12.312	5.6364	0.1	-10.269
6644	12.312	5.8182	0.1	-12.921
6645	12.496	0.18182	0.1	-13.262
6646	12.496	0.36364	0.1	-10.734
6647	12.496	0.54545	0.1	-9.6709
6648	12.496	0.72727	0.1	-8.7396
6649	12.496	0.90909	0.1	-7.8675
6650	12.496	1.0909	0.1	-7.0535
6651	12.496	1.2727	0.1	-6.3009
6652	12.496	1.4545	0.1	-5.6131
6653	12.496	1.6364	0.1	-4.9931
6654	12.496	1.8182	0.1	-4.4438
6655	12.496	2.	0.1	-3.9678
6656	12.496	2.1818	0.1	-3.5674
6657	12.496	2.3636	0.1	-3.2446
6658	12.496	2.5455	0.1	-3.001
6659	12.496	2.7273	0.1	-2.8379
6660	12.496	2.9091	0.1	-2.7561
6661	12.496	3.0909	0.1	-2.7561
6662	12.496	3.2727	0.1	-2.8379
6663	12.496	3.4545	0.1	-3.001
6664	12.496	3.6364	0.1	-3.2446
6665	12.496	3.8182	0.1	-3.5674
6666	12.496	4.	0.1	-3.9678
6667	12.496	4.1818	0.1	-4.4438
6668	12.496	4.3636	0.1	-4.9931
6669	12.496	4.5455	0.1	-5.6131
6670	12.496	4.7273	0.1	-6.3009
6671	12.496	4.9091	0.1	-7.0535
6672	12.496	5.0909	0.1	-7.8676
6673	12.496	5.2727	0.1	-8.7397
6674	12.496	5.4545	0.1	-9.6709
6675	12.496	5.6364	0.1	-10.734
6676	12.496	5.8182	0.1	-13.262
6677	12.679	0.18182	0.1	-13.592
6678	12.679	0.36364	0.1	-11.181
6679	12.679	0.54545	0.1	-10.252
6680	12.679	0.72727	0.1	-9.4519
6681	12.679	0.90909	0.1	-8.7055
6682	12.679	1.0909	0.1	-8.0109
6683	12.679	1.2727	0.1	-7.3704
6684	12.679	1.4545	0.1	-6.7862
6685	12.679	1.6364	0.1	-6.2608
6686	12.679	1.8182	0.1	-5.7961
6687	12.679	2.	0.1	-5.3939
6688	12.679	2.1818	0.1	-5.0561
6689	12.679	2.3636	0.1	-4.784
6690	12.679	2.5455	0.1	-4.5788
6691	12.679	2.7273	0.1	-4.4415
6692	12.679	2.9091	0.1	-4.3727
6693	12.679	3.0909	0.1	-4.3727
6694	12.679	3.2727	0.1	-4.4415
6695	12.679	3.4545	0.1	-4.5788
6696	12.679	3.6364	0.1	-4.784
6697	12.679	3.8182	0.1	-5.0561
6698	12.679	4.	0.1	-5.3939
6699	12.679	4.1818	0.1	-5.7961
6700	12.679	4.3636	0.1	-6.2608
6701	12.679	4.5455	0.1	-6.7863
6702	12.679	4.7273	0.1	-7.3704
6703	12.679	4.9091	0.1	-8.0109
6704	12.679	5.0909	0.1	-8.7055
6705	12.679	5.2727	0.1	-9.4519
6706	12.679	5.4545	0.1	-10.252
6707	12.679	5.6364	0.1	-11.181
6708	12.679	5.8182	0.1	-13.592
6709	12.863	0.18182	0.1	-13.912
6710	12.863	0.36364	0.1	-11.614
6711	12.863	0.54545	0.1	-10.814
6712	12.863	0.72727	0.1	-10.14
6713	12.863	0.90909	0.1	-9.5152
6714	12.863	1.0909	0.1	-8.936
6715	12.863	1.2727	0.1	-8.4038
6716	12.863	1.4545	0.1	-7.9199
6717	12.863	1.6364	0.1	-7.4858
6718	12.863	1.8182	0.1	-7.1028
6719	12.863	2.	0.1	-6.772
6720	12.863	2.1818	0.1	-6.4946
6721	12.863	2.3636	0.1	-6.2714
6722	12.863	2.5455	0.1	-6.1033
6723	12.863	2.7273	0.1	-5.9909
6724	12.863	2.9091	0.1	-5.9345
6725	12.863	3.0909	0.1	-5.9345
6726	12.863	3.2727	0.1	-5.9909
6727	12.863	3.4545	0.1	-6.1033
6728	12.863	3.6364	0.1	-6.2714
6729	12.863	3.8182	0.1	-6.4946
6730	12.863	4.	0.1	-6.772
6731	12.863	4.1818	0.1	-7.1028
6732	12.863	4.3636	0.1	-7.4859
6733	12.863	4.5455	0.1	-7.92
6734	12.863	4.7273	0.1	-8.4038
6735	12.863	4.9091	0.1	-8.936
6736	12.863	5.0909	0.1	-9.5153
6737	12.863	5.2727	0.1	-10.14
6738	12.863	5.4545	0.1	-10.814
6739	12.863	5.6364	0.1	-11.614
6740	12.863	5.8182	0.1	-13.912
6741	13.047	0.18182	0.1	-14.222
6742	13.047	0.36364	0.1	-12.034
6743	13.047	0.54545	0.1	-11.36
6744	13.047	0.72727	0.1	-10.808
6745	13.047	0.90909	0.1	-10.301
6746	13.047	1.0909	0.1	-9.8343
6747	13.047	1.2727	0.1	-9.4073
6748	13.047	1.4545	0.1	-9.0209
6749	13.047	1.6364	0.1	-8.6756
6750	13.047	1.8182	0.1	-8.372
6751	13.047	2.	0.1	-8.1105
6752	13.047	2.1818	0.1	-7.8916
6753	13.047	2.3636	0.1	-7.7159
6754	13.047	2.5455	0.1	-7.5838
6755	13.047	2.7273	0.1	-7.4955
6756	13.047	2.9091	0.1	-7.4513
6757	13.047	3.0909	0.1	-7.4513
6758	13.047	3.2727	0.1	-7.4955
6759	13.047	3.4545	0.1	-7.5838
6760	13.047	3.6364	0.1	-7.7159
6761	13.047	3.8182	0.1	-7.8916
6762	13.047	4.	0.1	-8.1105
6763	13.047	4.1818	0.1	-8.372
6764	13.047	4.3636	0.1	-8.6757
6765	13.047	4.5455	0.1	-9.0209
6766	13.047	4.7273	0.1	-9.4073
6767	13.047	4.9091	0.1	-9.8343
6768	13.047	5.0909	0.1	-10.301
6769	13.047	5.2727	0.1	-10.808
6770	13.047	5.4545	0.1	-11.36
6771	13.047	5.6364	0.1	-12.034
6772	13.047	5.8182	0.1	-14.222
6773	13.231	0.18182	0.1	-14.524
6774	13.231	0.36364	0.1	-12.443
6775	13.231	0.54545	0.1	-11.892
6776	13.231	0.72727	0.1	-11.46
6777	13.231	0.90909	0.1	-11.069
6778	13.231	1.0909	0.1	-10.711
6779	13.231	1.2727	0.1	-10.387
6780	13.231	1.4545	0.1	-10.096
6781	13.231	1.6364	0.1	-9.8378
6782	13.231	1.8182	0.1	-9.6117
6783	13.231	2.	0.1	-9.4179
6784	13.231	2.1818	0.1	-9.2563
6785	13.231	2.3636	0.1	-9.127
6786	13.231	2.5455	0.1	-9.0299
6787	13.231	2.7273	0.1	-8.9651
6788	13.231	2.9091	0.1	-8.9328
6789	13.231	3.0909	0.1	-8.9328
6790	13.231	3.2727	0.1	-8.9651
6791	13.231	3.4545	0.1	-9.0299
6792	13.231	3.6364	0.1	-9.127
6793	13.231	3.8182	0.1	-9.2563
6794	13.231	4.	0.1	-9.4179
6795	13.231	4.1818	0.1	-9.6117
6796	13.231	4.3636	0.1	-9.8378
6797	13.231	4.5455	0.1	-10.096
6798	13.231	4.7273	0.1	-10.387
6799	13.231	4.9091	0.1	-10.711
6800	13.231	5.0909	0.1	-11.069
6801	13.231	5.2727	0.1	-11.46
6802	13.231	5.4545	0.1	-11.892
6803	13.231	5.6364	0.1	-12.443
6804	13.231	5.8182	0.1	-14.524
6805	13.415	0.18182	0.1	-14.819
6806	13.415	0.36364	0.1	-12.844
6807	13.415	0.54545	0.1	-12.413
6808	13.415	0.72727	0.1	-12.099
6809	13.415	0.90909	0.1	-11.822
6810	13.415	1.0909	0.1	-11.572
6811	13.415	1.2727	0.1	-11.35
6812	13.415	1.4545	0.1	-11.152
6813	13.415	1.6364	0.1	-10.979
6814	13.415	1.8182	0.1	-10.83
6815	13.415	2.	0.1	-10.702
6816	13.415	2.1818	0.1	-10.597
6817	13.415	2.3636	0.1	-10.513
6818	13.415	2.5455	0.1	-10.451
6819	13.415	2.7273	0.1	-10.409
6820	13.415	2.9091	0.1	-10.388
6821	13.415	3.0909	0.1	-10.388
6822	13.415	3.2727	0.1	-10.409
6823	13.415	3.4545	0.1	-10.451
6824	13.415	3.6364	0.1	-10.513
6825	13.415	3.8182	0.1	-10.597
6826	13.415	4.	0.1	-10.702
6827	13.415	4.1818	0.1	-10.83
6828	13.415	4.3636	0.1	-10.979
6829	13.415	4.5455	0.1	-11.152
6830	13.415	4.7273	0.1	-11.35
6831	13.415	4.9091	0.1	-11.572
6832	13.415	5.0909	0.1	-11.822
6833	13.415	5.2727	0.1	-12.099
6834	13.415	5.4545	0.1	-12.413
6835	13.415	5.6364	0.1	-12.844
6836	13.415	5.8182	0.1	-14.819
6837	13.598	0.18182	0.1	-15.106
6838	13.598	0.36364	0.1	-13.237
6839	13.598	0.54545	0.1	-12.926
6840	13.598	0.72727	0.1	-12.729
6841	13.598	0.90909	0.1	-12.564
6842	13.598	1.0909	0.1	-12.422
6843	13.598	1.2727	0.1	-12.3
6844	13.598	1.4545	0.1	-12.196
6845	13.598	1.6364	0.1	-12.108
6846	13.598	1.8182	0.1	-12.033
6847	13.598	2.	0.1	-11.972
6848	13.598	2.1818	0.1	-11.922
6849	13.598	2.3636	0.1	-11.884
6850	13.598	2.5455	0.1	-11.855
6851	13.598	2.7273	0.1	-11.836
6852	13.598	2.9091	0.1	-11.827
6853	13.598	3.0909	0.1	-11.827
6854	13.598	3.2727	0.1	-11.836
6855	13.598	3.4545	0.1	-11.855
6856	13.598	3.6364	0.1	-11.884
6857	13.598	3.8182	0.1	-11.922
6858	13.598	4.	0.1	-11.972
6859	13.598	4.1818	0.1	-12.033
6860	13.598	4.3636	0.1	-12.108
6861	13.598	4.5455	0.1	-12.196
6862	13.598	4.7273	0.1	-12.3
6863	13.598	4.9091	0.1	-12.422
6864	13.598	5.0909	0.1	-12.564
6865	13.598	5.2727	0.1	-12.729
6866	13.598	5.4545	0.1	-12.926
6867	13.598	5.6364	0.1	-13.237
6868	13.598	5.8182	0.1	-15.106
6869	13.782	0.18182	0.1	-15.388
6870	13.782	0.36364	0.1	-13.624
6871	13.782	0.54545	0.1	-13.433
6872	13.782	0.72727	0.1	-13.354
6873	13.782	0.90909	0.1	-13.301
6874	13.782	1.0909	0.1	-13.266
6875	13.782	1.2727	0.1	-13.245
6876	13.782	1.4545	0.1	-13.234
6877	13.782	1.6364	0.1	-13.23
6878	13.782	1.8182	0.1	-13.231
6879	13.782	2.	0.1	-13.235
6880	13.782	2.1818	0.1	-13.241
6881	13.782	2.3636	0.1	-13.247
6882	13.782	2.5455	0.1	-13.252
6883	13.782	2.7273	0.1	-13.255
6884	13.782	2.9091	0.1	-13.258
6885	13.782	3.0909	0.1	-13.258
6886	13.782	3.2727	0.1	-13.256
6887	13.782	3.4545	0.1	-13.252
6888	13.782	3.6364	0.1	-13.247
6889	13.782	3.8182	0.1	-13.241
6890	13.782	4.	0.1	-13.235
6891	13.782	4.1818	0.1	-13.231
6892	13.782	4.3636	0.1	-13.23
6893	13.782	4.5455	0.1	-13.234
6894	13.782	4.7273	0.1	-13.245
6895	13.782	4.9091	0.1	-13.267
6896	13.782	5.0909	0.1	-13.301
6897	13.782	5.2727	0.1	-13.354
6898	13.782	5.4545	0.1	-13.433
6899	13.782	5.6364	0.1	-13.624
6900	13.782	5.8182	0.1	-15.388
6901	13.966	0.18182	0.1	-15.664
6902	13.966	0.36364	0.1	-14.007
6903	13.966	0.54545	0.1	-13.937
6904	13.966	0.72727	0.1	-13.976
6905	13.966	0.90909	0.1	-14.038
6906	13.966	1.0909	0.1	-14.11
6907	13.966	1.2727	0.1	-14.19
6908	13.966	1.4545	0.1	-14.272
6909	13.966	1.6364	0.1	-14.353
6910	13.966	1.8182	0.1	-14.429
6911	13.966	2.	0.1	-14.499
6912	13.966	2.1818	0.1	-14.56
6913	13.966	2.3636	0.1	-14.611
6914	13.966	2.5455	0.1	-14.65
6915	13.966	2.7273	0.1	-14.676
6916	13.966	2.9091	0.1	-14.689
6917	13.966	3.0909	0.1	-14.689
6918	13.966	3.2727	0.1	-14.676
6919	13.966	3.4545	0.1	-14.65
6920	13.966	3.6364	0.1	-14.611
6921	13.966	3.8182	0.1	-14.56
6922	13.966	4.	0.1	-14.499
6923	13.966	4.1818	0.1	-14.429
6924	13.966	4.3636	0.1	-14.353
6925	13.966	4.5455	0.1	-14.272
6926	13.966	4.7273	0.1	-14.19
6927	13.966	4.9091	0.1	-14.111
6928	13.966	5.0909	0.1	-14.038
6929	13.966	5.2727	0.1	-13.976
6930	13.966	5.4545	0.1	-13.937
6931	13.966	5.6364	0.1	-14.007
6932	13.966	5.8182	0.1	-15.664
6933	14.15	0.18182	0.1	-15.934
6934	14.15	0.36364	0.1	-14.389
6935	14.15	0.54545	0.1	-14.441
6936	14.15	0.72727	0.1	-14.6
6937	14.15	0.90909	0.1	-14.777
6938	14.15	1.0909	0.1	-14.959
6939	14.15	1.2727	0.1	-15.141
6940	14.15	1.4545	0.1	-15.317
6941	14.15	1.6364	0.1	-15.484
6942	14.15	1.8182	0.1	-15.637
6943	14.15	2.	0.1	-15.772
6944	14.15	2.1818	0.1	-15.889
6945	14.15	2.3636	0.1	-15.985
6946	14.15	2.5455	0.1	-16.057
6947	14.15	2.7273	0.1	-16.106
6948	14.15	2.9091	0.1	-16.131
6949	14.15	3.0909	0.1	-16.131
6950	14.15	3.2727	0.1	-16.106
6951	14.15	3.4545	0.1	-16.057
6952	14.15	3.6364	0.1	-15.985
6953	14.15	3.8182	0.1	-15.889
6954	14.15	4.	0.1	-15.773
6955	14.15	4.1818	0.1	-15.637
6956	14.15	4.3636	0.1	-15.484
6957	14.15	4.5455	0.1	-15.318
6958	14.15	4.7273	0.1	-15.141
6959	14.15	4.9091	0.1	-14.959
6960	14.15	5.0909	0.1	-14.777
6961	14.15	5.2727	0.1	-14.6
6962	14.15	5.4545	0.1	-14.441
6963	14.15	5.6364	0.1	-14.389
6964	14.15	5.8182	0.1	-15.934
6965	14.333	0.18182	0.1	-16.201
6966	14.333	0.36364	0.1	-14.769
6967	14.333	0.54545	0.1	-14.948
6968	14.333	0.72727	0.1	-15.23
6969	14.333	0.90909	0.1	-15.524
6970	14.333	1.0909	0.1	-15.818
6971	14.333	1.2727	0.1	-16.105
6972	14.333	1.4545	0.1	-16.377
6973	14.333	1.6364	0.1	-16.63
6974	14.333	1.8182	0.1	-16.86
6975	14.333	2.	0.1	-17.063
6976	14.333	2.1818	0.1	-17.236
6977	14.333	2.3636	0.1	-17.377
6978	14.333	2.5455	0.1	-17.484
6979	14.333	2.7273	0.1	-17.556
6980	14.333	2.9091	0.1	-17.592
6981	14.333	3.0909	0.1	-17.592
6982	14.333	3.2727	0.1	-17.556
6983	14.333	3.4545	0.1	-17.484
6984	14.333	3.6364	0.1	-17.377
6985	14.333	3.8182	0.1	-17.236
6986	14.333	4.	0.1	-17.063
6987	14.333	4.1818	0.1	-16.86
6988	14.333	4.3636	0.1	-16.63
6989	14.333	4.5455	0.1	-16.377
6990	14.333	4.7273	0.1	-16.105
6991	14.333	4.9091	0.1	-15.818
6992	14.333	5.0909	0.1	-15.524
6993	14.333	5.2727	0.1	-15.23
6994	14.333	5.4545	0.1	-14.948
6995	14.333	5.6364	0.1	-14.769
6996	14.333	5.8182	0.1	-16.201
6997	14.517	0.18182	0.1	-16.463
6998	14.517	0.36364	0.1	-15.151
6999	14.517	0.54545	0.1	-15.459
7000	14.517	0.72727	0.1	-15.868
7001	14.517	0.90909	0.1	-16.284
7002	14.517	1.0909	0.1	-16.693
7003	14.517	1.2727	0.1	-17.086
7004	14.517	1.4545	0.1	-17.457
7005	14.517	1.6364	0.1	-17.799
7006	14.517	1.8182	0.1	-18.108
7007	14.517	2.	0.1	-18.379
7008	14.517	2.1818	0.1	-18.609
7009	14.517	2.3636	0.1	-18.796
7010	14.517	2.5455	0.1	-18.937
7011	14.517	2.7273	0.1	-19.032
7012	14.517	2.9091	0.1	-19.08
7013	14.517	3.0909	0.1	-19.08
7014	14.517	3.2727	0.1	-19.032
7015	14.517	3.4545	0.1	-18.937
7016	14.517	3.6364	0.1	-18.796
7017	14.517	3.8182	0.1	-18.609
7018	14.517	4.	0.1	-18.379
7019	14.517	4.1818	0.1	-18.108
7020	14.517	4.3636	0.1	-17.799
7021	14.517	4.5455	0.1	-17.457
7022	14.517	4.7273	0.1	-17.086
7023	14.517	4.9091	0.1	-16.693
7024	14.517	5.0909	0.1	-16.284
7025	14.517	5.2727	0.1	-15.868
7026	14.517	5.4545	0.1	-15.459
7027	14.517	5.6364	0.1	-15.151
7028	14.517	5.8182	0.1	-16.463
7029	14.701	0.18182	0.1	-16.721
7030	14.701	0.36364	0.1	-15.535
7031	14.701	0.54545	0.1	-15.979
7032	14.701	0.72727	0.1	-16.519
7033	14.701	0.90909	0.1	-17.061
7034	14.701	1.0909	0.1	-17.589
7035	14.701	1.2727	0.1	-18.093
7036	14.701	1.4545	0.1	-18.566
7037	14.701	1.6364	0.1	-18.999
7038	14.701	1.8182	0.1	-19.388
7039	14.701	2.	0.1	-19.729
7040	14.701	2.1818	0.1	-20.017
7041	14.701	2.3636	0.1	-20.25
7042	14.701	2.5455	0.1	-20.427
7043	14.701	2.7273	0.1	-20.545
7044	14.701	2.9091	0.1	-20.604
7045	14.701	3.0909	0.1	-20.604
7046	14.701	3.2727	0.1	-20.545
7047	14.701	3.4545	0.1	-20.427
7048	14.701	3.6364	0.1	-20.25
7049	14.701	3.8182	0.1	-20.017
7050	14.701	4.	0.1	-19.729
7051	14.701	4.1818	0.1	-19.388
7052	14.701	4.3636	0.1	-18.999
7053	14.701	4.5455	0.1	-18.566
7054	14.701	4.7273	0.1	-18.093
7055	14.701	4.9091	0.1	-17.589
7056	14.701	5.0909	0.1	-17.062
7057	14.701	5.2727	0.1	-16.519
7058	14.701	5.4545	0.1	-15.979
7059	14.701	5.6364	0.1	-15.535
7060	14.701	5.8182	0.1	-16.721
7061	14.885	0.18182	0.1	-16.976
7062	14.885	0.36364	0.1	-15.924
7063	14.885	0.54545	0.1	-16.51
7064	14.885	0.72727	0.1	-17.188
7065	14.885	0.90909	0.1	-17.862
7066	14.885	1.0909	0.1	-18.513
7067	14.885	1.2727	0.1	-19.132
7068	14.885	1.4545	0.1	-19.709
7069	14.885	1.6364	0.1	-20.237
7070	14.885	1.8182	0.1	-20.709
7071	14.885	2.	0.1	-21.121
7072	14.885	2.1818	0.1	-21.468
7073	14.885	2.3636	0.1	-21.749
7074	14.885	2.5455	0.1	-21.962
7075	14.885	2.7273	0.1	-22.104
7076	14.885	2.9091	0.1	-22.175
7077	14.885	3.0909	0.1	-22.175
7078	14.885	3.2727	0.1	-22.104
7079	14.885	3.4545	0.1	-21.962
7080	14.885	3.6364	0.1	-21.749
7081	14.885	3.8182	0.1	-21.468
7082	14.885	4.	0.1	-21.121
7083	14.885	4.1818	0.1	-20.709
7084	14.885	4.3636	0.1	-20.237
7085	14.885	4.5455	0.1	-19.709
7086	14.885	4.7273	0.1	-19.132
7087	14.885	4.9091	0.1	-18.513
7088	14.885	5.0909	0.1	-17.862
7089	14.885	5.2727	0.1	-17.188
7090	14.885	5.4545	0.1	-16.51
7091	14.885	5.6364	0.1	-15.924
7092	14.885	5.8182	0.1	-16.976
7093	15.068	0.18182	0.1	-17.227
7094	15.068	0.36364	0.1	-16.319
7095	15.068	0.54545	0.1	-17.055
7096	15.068	0.72727	0.1	-17.878
7097	15.068	0.90909	0.1	-18.69
7098	15.068	1.0909	0.1	-19.472
7099	15.068	1.2727	0.1	-20.21
7100	15.068	1.4545	0.1	-20.896
7101	15.068	1.6364	0.1	-21.522
7102	15.068	1.8182	0.1	-22.079
7103	15.068	2.	0.1	-22.564
7104	15.068	2.1818	0.1	-22.973
7105	15.068	2.3636	0.1	-23.302
7106	15.068	2.5455	0.1	-23.55
7107	15.068	2.7273	0.1	-23.717
7108	15.068	2.9091	0.1	-23.8
7109	15.068	3.0909	0.1	-23.8
7110	15.068	3.2727	0.1	-23.717
7111	15.068	3.4545	0.1	-23.55
7112	15.068	3.6364	0.1	-23.302
7113	15.068	3.8182	0.1	-22.973
7114	15.068	4.	0.1	-22.564
7115	15.068	4.1818	0.1	-22.079
7116	15.068	4.3636	0.1	-21.522
7117	15.068	4.5455	0.1	-20.896
7118	15.068	4.7273	0.1	-20.21
7119	15.068	4.9091	0.1	-19.472
7120	15.068	5.0909	0.1	-18.69
7121	15.068	5.2727	0.1	-17.878
7122	15.068	5.4545	0.1	-17.055
7123	15.068	5.6364	0.1	-16.319
7124	15.068	5.8182	0.1	-17.227
7125	15.252	0.18182	0.1	-17.475
7126	15.252	0.36364	0.1	-16.722
7127	15.252	0.54545	0.1	-17.618
7128	15.252	0.72727	0.1	-18.595
7129	15.252	0.90909	0.1	-19.553
7130	15.252	1.0909	0.1	-20.471
7131	15.252	1.2727	0.1	-21.335
7132	15.252	1.4545	0.1	-22.135
7133	15.252	1.6364	0.1	-22.862
7134	15.252	1.8182	0.1	-23.508
7135	15.252	2.	0.1	-24.068
7136	15.252	2.1818	0.1	-24.539
7137	15.252	2.3636	0.1	-24.918
7138	15.252	2.5455	0.1	-25.203
7139	15.252	2.7273	0.1	-25.394
7140	15.252	2.9091	0.1	-25.489
7141	15.252	3.0909	0.1	-25.489
7142	15.252	3.2727	0.1	-25.394
7143	15.252	3.4545	0.1	-25.203
7144	15.252	3.6364	0.1	-24.918
7145	15.252	3.8182	0.1	-24.539
7146	15.252	4.	0.1	-24.068
7147	15.252	4.1818	0.1	-23.508
7148	15.252	4.3636	0.1	-22.862
7149	15.252	4.5455	0.1	-22.135
7150	15.252	4.7273	0.1	-21.335
7151	15.252	4.9091	0.1	-20.471
7152	15.252	5.0909	0.1	-19.553
7153	15.252	5.2727	0.1	-18.595
7154	15.252	5.4545	0.1	-17.618
7155	15.252	5.6364	0.1	-16.722
7156	15.252	5.8182	0.1	-17.475
7157	15.436	0.18182	0.1	-17.721
7158	15.436	0.36364	0.1	-17.135
7159	15.436	0.54545	0.1	-18.202
7160	15.436	0.72727	0.1	-19.343
7161	15.436	0.90909	0.1	-20.456
7162	15.436	1.0909	0.1	-21.519
7163	15.436	1.2727	0.1	-22.516
7164	15.436	1.4545	0.1	-23.435
7165	15.436	1.6364	0.1	-24.266
7166	15.436	1.8182	0.1	-25.004
7167	15.436	2.	0.1	-25.642
7168	15.436	2.1818	0.1	-26.177
7169	15.436	2.3636	0.1	-26.606
7170	15.436	2.5455	0.1	-26.929
7171	15.436	2.7273	0.1	-27.145
7172	15.436	2.9091	0.1	-27.252
7173	15.436	3.0909	0.1	-27.252
7174	15.436	3.2727	0.1	-27.145
7175	15.436	3.4545	0.1	-26.929
7176	15.436	3.6364	0.1	-26.606
7177	15.436	3.8182	0.1	-26.177
7178	15.436	4.	0.1	-25.642
7179	15.436	4.1818	0.1	-25.004
7180	15.436	4.3636	0.1	-24.266
7181	15.436	4.5455	0.1	-23.435
7182	15.436	4.7273	0.1	-22.516
7183	15.436	4.9091	0.1	-21.519
7184	15.436	5.0909	0.1	-20.456
7185	15.436	5.2727	0.1	-19.343
7186	15.436	5.4545	0.1	-18.202
7187	15.436	5.6364	0.1	-17.135
7188	15.436	5.8182	0.1	-17.721
7189	15.62	0.18182	0.1	-17.963
7190	15.62	0.36364	0.1	-17.562
7191	15.62	0.54545	0.1	-18.812
7192	15.62	0.72727	0.1	-20.129
7193	15.62	0.90909	0.1	-21.408
7194	15.62	1.0909	0.1	-22.623
7195	15.62	1.2727	0.1	-23.76
7196	15.62	1.4545	0.1	-24.804
7197	15.62	1.6364	0.1	-25.746
7198	15.62	1.8182	0.1	-26.578
7199	15.62	2.	0.1	-27.296
7200	15.62	2.1818	0.1	-27.897
7201	15.62	2.3636	0.1	-28.378
7202	15.62	2.5455	0.1	-28.738
7203	15.62	2.7273	0.1	-28.979
7204	15.62	2.9091	0.1	-29.099
7205	15.62	3.0909	0.1	-29.099
7206	15.62	3.2727	0.1	-28.979
7207	15.62	3.4545	0.1	-28.738
7208	15.62	3.6364	0.1	-28.378
7209	15.62	3.8182	0.1	-27.897
7210	15.62	4.	0.1	-27.296
7211	15.62	4.1818	0.1	-26.578
7212	15.62	4.3636	0.1	-25.746
7213	15.62	4.5455	0.1	-24.804
7214	15.62	4.7273	0.1	-23.76
7215	15.62	4.9091	0.1	-22.624
7216	15.62	5.0909	0.1	-21.408
7217	15.62	5.2727	0.1	-20.129
7218	15.62	5.4545	0.1	-18.812
7219	15.62	5.6364	0.1	-17.562
7220	15.62	5.8182	0.1	-17.963
7221	15.803	0.18182	0.1	-18.203
7222	15.803	0.36364	0.1	-18.003
7223	15.803	0.54545	0.1	-19.452
7224	15.803	0.72727	0.1	-20.958
7225	15.803	0.90909	0.1	-22.415
7226	15.803	1.0909	0.1	-23.794
7227	15.803	1.2727	0.1	-25.078
7228	15.803	1.4545	0.1	-26.254
7229	15.803	1.6364	0.1	-27.311
7230	15.803	1.8182	0.1	-28.242
7231	15.803	2.	0.1	-29.042
7232	15.803	2.1818	0.1	-29.709
7233	15.803	2.3636	0.1	-30.242
7234	15.803	2.5455	0.1	-30.641
7235	15.803	2.7273	0.1	-30.907
7236	15.803	2.9091	0.1	-31.039
7237	15.803	3.0909	0.1	-31.039
7238	15.803	3.2727	0.1	-30.907
7239	15.803	3.4545	0.1	-30.641
7240	15.803	3.6364	0.1	-30.242
7241	15.803	3.8182	0.1	-29.709
7242	15.803	4.	0.1	-29.042
7243	15.803	4.1818	0.1	-28.242
7244	15.803	4.3636	0.1	-27.311
7245	15.803	4.5455	0.1	-26.254
7246	15.803	4.7273	0.1	-25.078
7247	15.803	4.9091	0.1	-23.794
7248	15.803	5.0909	0.1	-22.415
7249	15.803	5.2727	0.1	-20.958
7250	15.803	5.4545	0.1	-19.452
7251	15.803	5.6364	0.1	-18.003
7252	15.803	5.8182	0.1	-18.203
7253	15.987	0.18182	0.1	-18.44
7254	15.987	0.36364	0.1	-18.462
7255	15.987	0.54545	0.1	-20.128
7256	15.987	0.72727	0.1	-21.839
7257	15.987	0.90909	0.1	-23.486
7258	15.987	1.0909	0.1	-25.04
7259	15.987	1.2727	0.1	-26.482
7260	15.987	1.4545	0.1	-27.796
7261	15.987	1.6364	0.1	-28.973
7262	15.987	1.8182	0.1	-30.006
7263	15.987	2.	0.1	-30.89
7264	15.987	2.1818	0.1	-31.625
7265	15.987	2.3636	0.1	-32.211
7266	15.987	2.5455	0.1	-32.648
7267	15.987	2.7273	0.1	-32.938
7268	15.987	2.9091	0.1	-33.083
7269	15.987	3.0909	0.1	-33.083
7270	15.987	3.2727	0.1	-32.938
7271	15.987	3.4545	0.1	-32.648
7272	15.987	3.6364	0.1	-32.211
7273	15.987	3.8182	0.1	-31.625
7274	15.987	4.	0.1	-30.89
7275	15.987	4.1818	0.1	-30.006
7276	15.987	4.3636	0.1	-28.973
7277	15.987	4.5455	0.1	-27.796
7278	15.987	4.7273	0.1	-26.482
7279	15.987	4.9091	0.1	-25.04
7280	15.987	5.0909	0.1	-23.486
7281	15.987	5.2727	0.1	-21.839
7282	15.987	5.4545	0.1	-20.128
7283	15.987	5.6364	0.1	-18.462
7284	15.987	5.8182	0.1	-18.44
7285	16.171	0.18182	0.1	-18.673
7286	16.171	0.36364	0.1	-18.942
7287	16.171	0.54545	0.1	-20.844
7288	16.171	0.72727	0.1	-22.778
7289	16.171	0.90909	0.1	-24.631
7290	16.171	1.0909	0.1	-26.373
7291	16.171	1.2727	0.1	-27.982
7292	16.171	1.4545	0.1	-29.443
7293	16.171	1.6364	0.1	-30.745
7294	16.171	1.8182	0.1	-31.883
7295	16.171	2.	0.1	-32.854
7296	16.171	2.1818	0.1	-33.657
7297	16.171	2.3636	0.1	-34.295
7298	16.171	2.5455	0.1	-34.77
7299	16.171	2.7273	0.1	-35.085
7300	16.171	2.9091	0.1	-35.241
7301	16.171	3.0909	0.1	-35.241
7302	16.171	3.2727	0.1	-35.085
7303	16.171	3.4545	0.1	-34.77
7304	16.171	3.6364	0.1	-34.295
7305	16.171	3.8182	0.1	-33.657
7306	16.171	4.	0.1	-32.854
7307	16.171	4.1818	0.1	-31.883
7308	16.171	4.3636	0.1	-30.745
7309	16.171	4.5455	0.1	-29.443
7310	16.171	4.7273	0.1	-27.982
7311	16.171	4.9091	0.1	-26.373
7312	16.171	5.0909	0.1	-24.631
7313	16.171	5.2727	0.1	-22.778
7314	16.171	5.4545	0.1	-20.844
7315	16.171	5.6364	0.1	-18.942
7316	16.171	5.8182	0.1	-18.673
7317	16.355	0.18182	0.1	-18.903
7318	16.355	0.36364	0.1	-19.447
7319	16.355	0.54545	0.1	-21.608
7320	16.355	0.72727	0.1	-23.784
7321	16.355	0.90909	0.1	-25.862
7322	16.355	1.0909	0.1	-27.805
7323	16.355	1.2727	0.1	-29.593
7324	16.355	1.4545	0.1	-31.208
7325	16.355	1.6364	0.1	-32.641
7326	16.355	1.8182	0.1	-33.887
7327	16.355	2.	0.1	-34.945
7328	16.355	2.1818	0.1	-35.817
7329	16.355	2.3636	0.1	-36.507
7330	16.355	2.5455	0.1	-37.018
7331	16.355	2.7273	0.1	-37.357
7332	16.355	2.9091	0.1	-37.525
7333	16.355	3.0909	0.1	-37.525
7334	16.355	3.2727	0.1	-37.357
7335	16.355	3.4545	0.1	-37.018
7336	16.355	3.6364	0.1	-36.507
7337	16.355	3.8182	0.1	-35.817
7338	16.355	4.	0.1	-34.945
7339	16.355	4.1818	0.1	-33.887
7340	16.355	4.3636	0.1	-32.641
7341	16.355	4.5455	0.1	-31.208
7342	16.355	4.7273	0.1	-29.593
7343	16.355	4.9091	0.1	-27.805
7344	16.355	5.0909	0.1	-25.862
7345	16.355	5.2727	0.1	-23.785
7346	16.355	5.4545	0.1	-21.608
7347	16.355	5.6364	0.1	-19.447
7348	16.355	5.8182	0.1	-18.903
7349	16.538	0.18182	0.1	-19.13
7350	16.538	0.36364	0.1	-19.98
7351	16.538	0.54545	0.1	-22.427
7352	16.538	0.72727	0.1	-24.869
7353	16.538	0.90909	0.1	-27.19
7354	16.538	1.0909	0.1	-29.351
7355	16.538	1.2727	0.1	-31.329
7356	16.538	1.4545	0.1	-33.107
7357	16.538	1.6364	0.1	-34.676
7358	16.538	1.8182	0.1	-36.033
7359	16.538	2.	0.1	-37.18
7360	16.538	2.1818	0.1	-38.119
7361	16.538	2.3636	0.1	-38.859
7362	16.538	2.5455	0.1	-39.406
7363	16.538	2.7273	0.1	-39.766
7364	16.538	2.9091	0.1	-39.945
7365	16.538	3.0909	0.1	-39.945
7366	16.538	3.2727	0.1	-39.766
7367	16.538	3.4545	0.1	-39.406
7368	16.538	3.6364	0.1	-38.859
7369	16.538	3.8182	0.1	-38.119
7370	16.538	4.	0.1	-37.18
7371	16.538	4.1818	0.1	-36.034
7372	16.538	4.3636	0.1	-34.676
7373	16.538	4.5455	0.1	-33.107
7374	16.538	4.7273	0.1	-31.329
7375	16.538	4.9091	0.1	-29.351
7376	16.538	5.0909	0.1	-27.19
7377	16.538	5.2727	0.1	-24.869
7378	16.538	5.4545	0.1	-22.427
7379	16.538	5.6364	0.1	-19.98
7380	16.538	5.8182	0.1	-19.13
7381	16.722	0.18182	0.1	-19.353
7382	16.722	0.36364	0.1	-20.547
7383	16.722	0.54545	0.1	-23.31
7384	16.722	0.72727	0.1	-26.044
7385	16.722	0.90909	0.1	-28.629
7386	16.722	1.0909	0.1	-31.026
7387	16.722	1.2727	0.1	-33.207
7388	16.722	1.4545	0.1	-35.157
7389	16.722	1.6364	0.1	-36.868
7390	16.722	1.8182	0.1	-38.338
7391	16.722	2.	0.1	-39.572
7392	16.722	2.1818	0.1	-40.578
7393	16.722	2.3636	0.1	-41.365
7394	16.722	2.5455	0.1	-41.944
7395	16.722	2.7273	0.1	-42.324
7396	16.722	2.9091	0.1	-42.512
7397	16.722	3.0909	0.1	-42.512
7398	16.722	3.2727	0.1	-42.324
7399	16.722	3.4545	0.1	-41.944
7400	16.722	3.6364	0.1	-41.365
7401	16.722	3.8182	0.1	-40.578
7402	16.722	4.	0.1	-39.572
7403	16.722	4.1818	0.1	-38.338
7404	16.722	4.3636	0.1	-36.868
7405	16.722	4.5455	0.1	-35.157
7406	16.722	4.7273	0.1	-33.207
7407	16.722	4.9091	0.1	-31.026
7408	16.722	5.0909	0.1	-28.63
7409	16.722	5.2727	0.1	-26.044
7410	16.722	5.4545	0.1	-23.31
7411	16.722	5.6364	0.1	-20.547
7412	16.722	5.8182	0.1	-19.353
7413	16.906	0.18182	0.1	-19.572
7414	16.906	0.36364	0.1	-21.152
7415	16.906	0.54545	0.1	-24.265
7416	16.906	0.72727	0.1	-27.321
7417	16.906	0.90909	0.1	-30.197
7418	16.906	1.0909	0.1	-32.848
7419	16.906	1.2727	0.1	-35.247
7420	16.906	1.4545	0.1	-37.378
7421	16.906	1.6364	0.1	-39.235
7422	16.906	1.8182	0.1	-40.82
7423	16.906	2.	0.1	-42.141
7424	16.906	2.1818	0.1	-43.209
7425	16.906	2.3636	0.1	-44.039
7426	16.906	2.5455	0.1	-44.647
7427	16.906	2.7273	0.1	-45.044
7428	16.906	2.9091	0.1	-45.24
7429	16.906	3.0909	0.1	-45.24
7430	16.906	3.2727	0.1	-45.044
7431	16.906	3.4545	0.1	-44.647
7432	16.906	3.6364	0.1	-44.04
7433	16.906	3.8182	0.1	-43.209
7434	16.906	4.	0.1	-42.141
7435	16.906	4.1818	0.1	-40.82
7436	16.906	4.3636	0.1	-39.235
7437	16.906	4.5455	0.1	-37.378
7438	16.906	4.7273	0.1	-35.247
7439	16.906	4.9091	0.1	-32.848
7440	16.906	5.0909	0.1	-30.197
7441	16.906	5.2727	0.1	-27.321
7442	16.906	5.4545	0.1	-24.265
7443	16.906	5.6364	0.1	-21.152
7444	16.906	5.8182	0.1	-19.572
7445	17.09	0.18182	0.1	-19.786
7446	17.09	0.36364	0.1	-21.802
7447	17.09	0.54545	0.1	-25.305
7448	17.09	0.72727	0.1	-28.717
7449	17.09	0.90909	0.1	-31.91
7450	17.09	1.0909	0.1	-34.837
7451	17.09	1.2727	0.1	-37.469
7452	17.09	1.4545	0.1	-39.792
7453	17.09	1.6364	0.1	-41.8
7454	17.09	1.8182	0.1	-43.499
7455	17.09	2.	0.1	-44.903
7456	17.09	2.1818	0.1	-46.029
7457	17.09	2.3636	0.1	-46.898
7458	17.09	2.5455	0.1	-47.528
7459	17.09	2.7273	0.1	-47.937
7460	17.09	2.9091	0.1	-48.139
7461	17.09	3.0909	0.1	-48.139
7462	17.09	3.2727	0.1	-47.937
7463	17.09	3.4545	0.1	-47.528
7464	17.09	3.6364	0.1	-46.898
7465	17.09	3.8182	0.1	-46.029
7466	17.09	4.	0.1	-44.903
7467	17.09	4.1818	0.1	-43.499
7468	17.09	4.3636	0.1	-41.8
7469	17.09	4.5455	0.1	-39.792
7470	17.09	4.7273	0.1	-37.469
7471	17.09	4.9091	0.1	-34.837
7472	17.09	5.0909	0.1	-31.91
7473	17.09	5.2727	0.1	-28.717
7474	17.09	5.4545	0.1	-25.305
7475	17.09	5.6364	0.1	-21.802
7476	17.09	5.8182	0.1	-19.786
7477	17.274	0.18182	0.1	-19.996
7478	17.274	0.36364	0.1	-22.504
7479	17.274	0.54545	0.1	-26.442
7480	17.274	0.72727	0.1	-30.248
7481	17.274	0.90909	0.1	-33.791
7482	17.274	1.0909	0.1	-37.018
7483	17.274	1.2727	0.1	-39.9
7484	17.274	1.4545	0.1	-42.423
7485	17.274	1.6364	0.1	-44.586
7486	17.274	1.8182	0.1	-46.399
7487	17.274	2.	0.1	-47.882
7488	17.274	2.1818	0.1	-49.058
7489	17.274	2.3636	0.1	-49.956
7490	17.274	2.5455	0.1	-50.602
7491	17.274	2.7273	0.1	-51.018
7492	17.274	2.9091	0.1	-51.222
7493	17.274	3.0909	0.1	-51.222
7494	17.274	3.2727	0.1	-51.018
7495	17.274	3.4545	0.1	-50.602
7496	17.274	3.6364	0.1	-49.956
7497	17.274	3.8182	0.1	-49.058
7498	17.274	4.	0.1	-47.882
7499	17.274	4.1818	0.1	-46.399
7500	17.274	4.3636	0.1	-44.586
7501	17.274	4.5455	0.1	-42.423
7502	17.274	4.7273	0.1	-39.9
7503	17.274	4.9091	0.1	-37.018
7504	17.274	5.0909	0.1	-33.791
7505	17.274	5.2727	0.1	-30.248
7506	17.274	5.4545	0.1	-26.442
7507	17.274	5.6364	0.1	-22.504
7508	17.274	5.8182	0.1	-19.996
7509	17.457	0.18182	0.1	-20.2
7510	17.457	0.36364	0.1	-23.265
7511	17.457	0.54545	0.1	-27.691
7512	17.457	0.72727	0.1	-31.935
7513	17.457	0.90909	0.1	-35.862
7514	17.457	1.0909	0.1	-39.416
7515	17.457	1.2727	0.1	-42.566
7516	17.457	1.4545	0.1	-45.301
7517	17.457	1.6364	0.1	-47.621
7518	17.457	1.8182	0.1	-49.545
7519	17.457	2.	0.1	-51.099
7520	17.457	2.1818	0.1	-52.316
7521	17.457	2.3636	0.1	-53.233
7522	17.457	2.5455	0.1	-53.884
7523	17.457	2.7273	0.1	-54.3
7524	17.457	2.9091	0.1	-54.502
7525	17.457	3.0909	0.1	-54.502
7526	17.457	3.2727	0.1	-54.3
7527	17.457	3.4545	0.1	-53.884
7528	17.457	3.6364	0.1	-53.233
7529	17.457	3.8182	0.1	-52.316
7530	17.457	4.	0.1	-51.099
7531	17.457	4.1818	0.1	-49.545
7532	17.457	4.3636	0.1	-47.621
7533	17.457	4.5455	0.1	-45.301
7534	17.457	4.7273	0.1	-42.566
7535	17.457	4.9091	0.1	-39.416
7536	17.457	5.0909	0.1	-35.862
7537	17.457	5.2727	0.1	-31.935
7538	17.457	5.4545	0.1	-27.691
7539	17.457	5.6364	0.1	-23.265
7540	17.457	5.8182	0.1	-20.2
7541	17.641	0.18182	0.1	-20.399
7542	17.641	0.36364	0.1	-24.094
7543	17.641	0.54545	0.1	-29.067
7544	17.641	0.72727	0.1	-33.799
7545	17.641	0.90909	0.1	-38.15
7546	17.641	1.0909	0.1	-42.062
7547	17.641	1.2727	0.1	-45.501
7548	17.641	1.4545	0.1	-48.458
7549	17.641	1.6364	0.1	-50.939
7550	17.641	1.8182	0.1	-52.968
7551	17.641	2.	0.1	-54.583
7552	17.641	2.1818	0.1	-55.828
7553	17.641	2.3636	0.1	-56.749
7554	17.641	2.5455	0.1	-57.392
7555	17.641	2.7273	0.1	-57.798
7556	17.641	2.9091	0.1	-57.993
7557	17.641	3.0909	0.1	-57.993
7558	17.641	3.2727	0.1	-57.798
7559	17.641	3.4545	0.1	-57.392
7560	17.641	3.6364	0.1	-56.749
7561	17.641	3.8182	0.1	-55.828
7562	17.641	4.	0.1	-54.583
7563	17.641	4.1818	0.1	-52.968
7564	17.641	4.3636	0.1	-50.939
7565	17.641	4.5455	0.1	-48.458
7566	17.641	4.7273	0.1	-45.501
7567	17.641	4.9091	0.1	-42.062
7568	17.641	5.0909	0.1	-38.151
7569	17.641	5.2727	0.1	-33.799
7570	17.641	5.4545	0.1	-29.067
7571	17.641	5.6364	0.1	-24.094
7572	17.641	5.8182	0.1	-20.399
7573	17.825	0.18182	0.1	-20.592
7574	17.825	0.36364	0.1	-25.003
7575	17.825	0.54545	0.1	-30.59
7576	17.825	0.72727	0.1	-35.866
7577	17.825	0.90909	0.1	-40.688
7578	17.825	1.0909	0.1	-44.991
7579	17.825	1.2727	0.1	-48.742
7580	17.825	1.4545	0.1	-51.932
7581	17.825	1.6364	0.1	-54.574
7582	17.825	1.8182	0.1	-56.703
7583	17.825	2.	0.1	-58.365
7584	17.825	2.1818	0.1	-59.619
7585	17.825	2.3636	0.1	-60.526
7586	17.825	2.5455	0.1	-61.145
7587	17.825	2.7273	0.1	-61.526
7588	17.825	2.9091	0.1	-61.708
7589	17.825	3.0909	0.1	-61.708
7590	17.825	3.2727	0.1	-61.526
7591	17.825	3.4545	0.1	-61.145
7592	17.825	3.6364	0.1	-60.526
7593	17.825	3.8182	0.1	-59.619
7594	17.825	4.	0.1	-58.365
7595	17.825	4.1818	0.1	-56.703
7596	17.825	4.3636	0.1	-54.574
7597	17.825	4.5455	0.1	-51.932
7598	17.825	4.7273	0.1	-48.742
7599	17.825	4.9091	0.1	-44.991
7600	17.825	5.0909	0.1	-40.688
7601	17.825	5.2727	0.1	-35.866
7602	17.825	5.4545	0.1	-30.59
7603	17.825	5.6364	0.1	-25.003
7604	17.825	5.8182	0.1	-20.592
7605	18.009	0.18182	0.1	-20.779
7606	18.009	0.36364	0.1	-26.001
7607	18.009	0.54545	0.1	-32.279
7608	18.009	0.72727	0.1	-38.163
7609	18.009	0.90909	0.1	-43.508
7610	18.009	1.0909	0.1	-48.242
7611	18.009	1.2727	0.1	-52.331
7612	18.009	1.4545	0.1	-55.767
7613	18.009	1.6364	0.1	-58.572
7614	18.009	1.8182	0.1	-60.789
7615	18.009	2.	0.1	-62.48
7616	18.009	2.1818	0.1	-63.721
7617	18.009	2.3636	0.1	-64.589
7618	18.009	2.5455	0.1	-65.161
7619	18.009	2.7273	0.1	-65.503
7620	18.009	2.9091	0.1	-65.661
7621	18.009	3.0909	0.1	-65.661
7622	18.009	3.2727	0.1	-65.503
7623	18.009	3.4545	0.1	-65.161
7624	18.009	3.6364	0.1	-64.589
7625	18.009	3.8182	0.1	-63.721
7626	18.009	4.	0.1	-62.48
7627	18.009	4.1818	0.1	-60.789
7628	18.009	4.3636	0.1	-58.572
7629	18.009	4.5455	0.1	-55.767
7630	18.009	4.7273	0.1	-52.331
7631	18.009	4.9091	0.1	-48.242
7632	18.009	5.0909	0.1	-43.508
7633	18.009	5.2727	0.1	-38.163
7634	18.009	5.4545	0.1	-32.279
7635	18.009	5.6364	0.1	-26.001
7636	18.009	5.8182	0.1	-20.779
7637	18.192	0.18182	0.1	-20.959
7638	18.192	0.36364	0.1	-27.101
7639	18.192	0.54545	0.1	-34.156
7640	18.192	0.72727	0.1	-40.723
7641	18.192	0.90909	0.1	-46.651
7642	18.192	1.0909	0.1	-51.861
7643	18.192	1.2727	0.1	-56.318
7644	18.192	1.4545	0.1	-60.015
7645	18.192	1.6364	0.1	-62.982
7646	18.192	1.8182	0.1	-65.275
7647	18.192	2.	0.1	-66.972
7648	18.192	2.1818	0.1	-68.17
7649	18.192	2.3636	0.1	-68.968
7650	18.192	2.5455	0.1	-69.466
7651	18.192	2.7273	0.1	-69.746
7652	18.192	2.9091	0.1	-69.87
7653	18.192	3.0909	0.1	-69.87
7654	18.192	3.2727	0.1	-69.746
7655	18.192	3.4545	0.1	-69.466
7656	18.192	3.6364	0.1	-68.968
7657	18.192	3.8182	0.1	-68.17
7658	18.192	4.	0.1	-66.973
7659	18.192	4.1818	0.1	-65.275
7660	18.192	4.3636	0.1	-62.982
7661	18.192	4.5455	0.1	-60.015
7662	18.192	4.7273	0.1	-56.318
7663	18.192	4.9091	0.1	-51.861
7664	18.192	5.0909	0.1	-46.651
7665	18.192	5.2727	0.1	-40.723
7666	18.192	5.4545	0.1	-34.156
7667	18.192	5.6364	0.1	-27.101
7668	18.192	5.8182	0.1	-20.959
7669	18.376	0.18182	0.1	-21.133
7670	18.376	0.36364	0.1	-28.316
7671	18.376	0.54545	0.1	-36.245
7672	18.376	0.72727	0.1	-43.578
7673	18.376	0.90909	0.1	-50.158
7674	18.376	1.0909	0.1	-55.899
7675	18.376	1.2727	0.1	-60.76
7676	18.376	1.4545	0.1	-64.738
7677	18.376	1.6364	0.1	-67.868
7678	18.376	1.8182	0.1	-70.22
7679	18.376	2.	0.1	-71.894
7680	18.376	2.1818	0.1	-73.01
7681	18.376	2.3636	0.1	-73.699
7682	18.376	2.5455	0.1	-74.084
7683	18.376	2.7273	0.1	-74.275
7684	18.376	2.9091	0.1	-74.349
7685	18.376	3.0909	0.1	-74.349
7686	18.376	3.2727	0.1	-74.275
7687	18.376	3.4545	0.1	-74.084
7688	18.376	3.6364	0.1	-73.699
7689	18.376	3.8182	0.1	-73.01
7690	18.376	4.	0.1	-71.894
7691	18.376	4.1818	0.1	-70.22
7692	18.376	4.3636	0.1	-67.868
7693	18.376	4.5455	0.1	-64.738
7694	18.376	4.7273	0.1	-60.76
7695	18.376	4.9091	0.1	-55.899
7696	18.376	5.0909	0.1	-50.158
7697	18.376	5.2727	0.1	-43.578
7698	18.376	5.4545	0.1	-36.245
7699	18.376	5.6364	0.1	-28.316
7700	18.376	5.8182	0.1	-21.133
7701	18.56	0.18182	0.1	-21.299
7702	18.56	0.36364	0.1	-29.657
7703	18.56	0.54545	0.1	-38.57
7704	18.56	0.72727	0.1	-46.763
7705	18.56	0.90909	0.1	-54.077
7706	18.56	1.0909	0.1	-60.415
7707	18.56	1.2727	0.1	-65.727
7708	18.56	1.4545	0.1	-70.009
7709	18.56	1.6364	0.1	-73.303
7710	18.56	1.8182	0.1	-75.695
7711	18.56	2.	0.1	-77.308
7712	18.56	2.1818	0.1	-78.295
7713	18.56	2.3636	0.1	-78.821
7714	18.56	2.5455	0.1	-79.047
7715	18.56	2.7273	0.1	-79.111
7716	18.56	2.9091	0.1	-79.117
7717	18.56	3.0909	0.1	-79.117
7718	18.56	3.2727	0.1	-79.111
7719	18.56	3.4545	0.1	-79.047
7720	18.56	3.6364	0.1	-78.821
7721	18.56	3.8182	0.1	-78.295
7722	18.56	4.	0.1	-77.308
7723	18.56	4.1818	0.1	-75.695
7724	18.56	4.3636	0.1	-73.303
7725	18.56	4.5455	0.1	-70.009
7726	18.56	4.7273	0.1	-65.727
7727	18.56	4.9091	0.1	-60.415
7728	18.56	5.0909	0.1	-54.077
7729	18.56	5.2727	0.1	-46.763
7730	18.56	5.4545	0.1	-38.57
7731	18.56	5.6364	0.1	-29.657
7732	18.56	5.8182	0.1	-21.299
7733	18.744	0.18182	0.1	-21.459
7734	18.744	0.36364	0.1	-31.135
7735	18.744	0.54545	0.1	-41.152
7736	18.744	0.72727	0.1	-50.315
7737	18.744	0.90909	0.1	-58.46
7738	18.744	1.0909	0.1	-65.475
7739	18.744	1.2727	0.1	-71.298
7740	18.744	1.4545	0.1	-75.919
7741	18.744	1.6364	0.1	-79.382
7742	18.744	1.8182	0.1	-81.79
7743	18.744	2.	0.1	-83.295
7744	18.744	2.1818	0.1	-84.09
7745	18.744	2.3636	0.1	-84.387
7746	18.744	2.5455	0.1	-84.391
7747	18.744	2.7273	0.1	-84.282
7748	18.744	2.9091	0.1	-84.193
7749	18.744	3.0909	0.1	-84.193
7750	18.744	3.2727	0.1	-84.282
7751	18.744	3.4545	0.1	-84.391
7752	18.744	3.6364	0.1	-84.387
7753	18.744	3.8182	0.1	-84.09
7754	18.744	4.	0.1	-83.295
7755	18.744	4.1818	0.1	-81.79
7756	18.744	4.3636	0.1	-79.382
7757	18.744	4.5455	0.1	-75.919
7758	18.744	4.7273	0.1	-71.299
7759	18.744	4.9091	0.1	-65.475
7760	18.744	5.0909	0.1	-58.461
7761	18.744	5.2727	0.1	-50.315
7762	18.744	5.4545	0.1	-41.152
7763	18.744	5.6364	0.1	-31.135
7764	18.744	5.8182	0.1	-21.459
7765	18.927	0.18182	0.1	-21.61
7766	18.927	0.36364	0.1	-32.758
7767	18.927	0.54545	0.1	-44.01
7768	18.927	0.72727	0.1	-54.268
7769	18.927	0.90909	0.1	-63.362
7770	18.927	1.0909	0.1	-71.158
7771	18.927	1.2727	0.1	-77.573
7772	18.927	1.4545	0.1	-82.58
7773	18.927	1.6364	0.1	-86.224
7774	18.927	1.8182	0.1	-88.62
7775	18.927	2.	0.1	-89.959
7776	18.927	2.1818	0.1	-90.481
7777	18.927	2.3636	0.1	-90.459
7778	18.927	2.5455	0.1	-90.159
7779	18.927	2.7273	0.1	-89.816
7780	18.927	2.9091	0.1	-89.599
7781	18.927	3.0909	0.1	-89.599
7782	18.927	3.2727	0.1	-89.816
7783	18.927	3.4545	0.1	-90.159
7784	18.927	3.6364	0.1	-90.459
7785	18.927	3.8182	0.1	-90.481
7786	18.927	4.	0.1	-89.959
7787	18.927	4.1818	0.1	-88.62
7788	18.927	4.3636	0.1	-86.224
7789	18.927	4.5455	0.1	-82.58
7790	18.927	4.7273	0.1	-77.573
7791	18.927	4.9091	0.1	-71.158
7792	18.927	5.0909	0.1	-63.362
7793	18.927	5.2727	0.1	-54.268
7794	18.927	5.4545	0.1	-44.01
7795	18.927	5.6364	0.1	-32.758
7796	18.927	5.8182	0.1	-21.61
7797	19.111	0.18182	0.1	-21.753
7798	19.111	0.36364	0.1	-34.526
7799	19.111	0.54545	0.1	-47.154
7800	19.111	0.72727	0.1	-58.653
7801	19.111	0.90909	0.1	-68.841
7802	19.111	1.0909	0.1	-77.553
7803	19.111	1.2727	0.1	-84.67
7804	19.111	1.4545	0.1	-90.137
7805	19.111	1.6364	0.1	-93.982
7806	19.111	1.8182	0.1	-96.337
7807	19.111	2.	0.1	-97.433
7808	19.111	2.1818	0.1	-97.576
7809	19.111	2.3636	0.1	-97.118
7810	19.111	2.5455	0.1	-96.407
7811	19.111	2.7273	0.1	-95.747
7812	19.111	2.9091	0.1	-95.359
7813	19.111	3.0909	0.1	-95.359
7814	19.111	3.2727	0.1	-95.747
7815	19.111	3.4545	0.1	-96.407
7816	19.111	3.6364	0.1	-97.118
7817	19.111	3.8182	0.1	-97.576
7818	19.111	4.	0.1	-97.433
7819	19.111	4.1818	0.1	-96.338
7820	19.111	4.3636	0.1	-93.982
7821	19.111	4.5455	0.1	-90.137
7822	19.111	4.7273	0.1	-84.67
7823	19.111	4.9091	0.1	-77.553
7824	19.111	5.0909	0.1	-68.841
7825	19.111	5.2727	0.1	-58.653
7826	19.111	5.4545	0.1	-47.154
7827	19.111	5.6364	0.1	-34.526
7828	19.111	5.8182	0.1	-21.753
7829	19.295	0.18182	0.1	-21.884
7830	19.295	0.36364	0.1	-36.429
7831	19.295	0.54545	0.1	-50.583
7832	19.295	0.72727	0.1	-63.49
7833	19.295	0.90909	0.1	-74.956
7834	19.295	1.0909	0.1	-84.768
7835	19.295	1.2727	0.1	-92.746
7836	19.295	1.4545	0.1	-98.778
7837	19.295	1.6364	0.1	-102.87
7838	19.295	1.8182	0.1	-105.14
7839	19.295	2.	0.1	-105.9
7840	19.295	2.1818	0.1	-105.52
7841	19.295	2.3636	0.1	-104.47
7842	19.295	2.5455	0.1	-103.2
7843	19.295	2.7273	0.1	-102.12
7844	19.295	2.9091	0.1	-101.5
7845	19.295	3.0909	0.1	-101.5
7846	19.295	3.2727	0.1	-102.12
7847	19.295	3.4545	0.1	-103.2
7848	19.295	3.6364	0.1	-104.47
7849	19.295	3.8182	0.1	-105.52
7850	19.295	4.	0.1	-105.9
7851	19.295	4.1818	0.1	-105.14
7852	19.295	4.3636	0.1	-102.87
7853	19.295	4.5455	0.1	-98.778
7854	19.295	4.7273	0.1	-92.746
7855	19.295	4.9091	0.1	-84.768
7856	19.295	5.0909	0.1	-74.956
7857	19.295	5.2727	0.1	-63.49
7858	19.295	5.4545	0.1	-50.583
7859	19.295	5.6364	0.1	-36.429
7860	19.295	5.8182	0.1	-21.884
7861	19.479	0.18182	0.1	-21.998
7862	19.479	0.36364	0.1	-38.44
7863	19.479	0.54545	0.1	-54.272
7864	19.479	0.72727	0.1	-68.788
7865	19.479	0.90909	0.1	-81.771
7866	19.479	1.0909	0.1	-92.933
7867	19.479	1.2727	0.1	-102.
7868	19.479	1.4545	0.1	-108.76
7869	19.479	1.6364	0.1	-113.16
7870	19.479	1.8182	0.1	-115.32
7871	19.479	2.	0.1	-115.6
7872	19.479	2.1818	0.1	-114.5
7873	19.479	2.3636	0.1	-112.64
7874	19.479	2.5455	0.1	-110.63
7875	19.479	2.7273	0.1	-108.98
7876	19.479	2.9091	0.1	-108.06
7877	19.479	3.0909	0.1	-108.06
7878	19.479	3.2727	0.1	-108.98
7879	19.479	3.4545	0.1	-110.63
7880	19.479	3.6364	0.1	-112.64
7881	19.479	3.8182	0.1	-114.5
7882	19.479	4.	0.1	-115.6
7883	19.479	4.1818	0.1	-115.32
7884	19.479	4.3636	0.1	-113.16
7885	19.479	4.5455	0.1	-108.76
7886	19.479	4.7273	0.1	-102.
7887	19.479	4.9091	0.1	-92.934
7888	19.479	5.0909	0.1	-81.771
7889	19.479	5.2727	0.1	-68.788
7890	19.479	5.4545	0.1	-54.272
7891	19.479	5.6364	0.1	-38.44
7892	19.479	5.8182	0.1	-21.998
7893	19.662	0.18182	0.1	-22.085
7894	19.662	0.36364	0.1	-40.508
7895	19.662	0.54545	0.1	-58.17
7896	19.662	0.72727	0.1	-74.533
7897	19.662	0.90909	0.1	-89.348
7898	19.662	1.0909	0.1	-102.22
7899	19.662	1.2727	0.1	-112.7
7900	19.662	1.4545	0.1	-120.45
7901	19.662	1.6364	0.1	-125.27
7902	19.662	1.8182	0.1	-127.27
7903	19.662	2.	0.1	-126.87
7904	19.662	2.1818	0.1	-124.77
7905	19.662	2.3636	0.1	-121.81
7906	19.662	2.5455	0.1	-118.79
7907	19.662	2.7273	0.1	-116.39
7908	19.662	2.9091	0.1	-115.07
7909	19.662	3.0909	0.1	-115.07
7910	19.662	3.2727	0.1	-116.39
7911	19.662	3.4545	0.1	-118.79
7912	19.662	3.6364	0.1	-121.81
7913	19.662	3.8182	0.1	-124.77
7914	19.662	4.	0.1	-126.87
7915	19.662	4.1818	0.1	-127.27
7916	19.662	4.3636	0.1	-125.27
7917	19.662	4.5455	0.1	-120.45
7918	19.662	4.7273	0.1	-112.7
7919	19.662	4.9091	0.1	-102.22
7920	19.662	5.0909	0.1	-89.348
7921	19.662	5.2727	0.1	-74.533
7922	19.662	5.4545	0.1	-58.17
7923	19.662	5.6364	0.1	-40.508
7924	19.662	5.8182	0.1	-22.085
7925	19.846	0.18182	0.1	-22.13
7926	19.846	0.36364	0.1	-42.546
7927	19.846	0.54545	0.1	-62.183
7928	19.846	0.72727	0.1	-80.685
7929	19.846	0.90909	0.1	-97.758
7930	19.846	1.0909	0.1	-112.83
7931	19.846	1.2727	0.1	-125.24
7932	19.846	1.4545	0.1	-134.35
7933	19.846	1.6364	0.1	-139.78
7934	19.846	1.8182	0.1	-141.55
7935	19.846	2.	0.1	-140.21
7936	19.846	2.1818	0.1	-136.7
7937	19.846	2.3636	0.1	-132.2
7938	19.846	2.5455	0.1	-127.81
7939	19.846	2.7273	0.1	-124.42
7940	19.846	2.9091	0.1	-122.6
7941	19.846	3.0909	0.1	-122.6
7942	19.846	3.2727	0.1	-124.42
7943	19.846	3.4545	0.1	-127.81
7944	19.846	3.6364	0.1	-132.2
7945	19.846	3.8182	0.1	-136.7
7946	19.846	4.	0.1	-140.21
7947	19.846	4.1818	0.1	-141.56
7948	19.846	4.3636	0.1	-139.78
7949	19.846	4.5455	0.1	-134.35
7950	19.846	4.7273	0.1	-125.24
7951	19.846	4.9091	0.1	-112.83
7952	19.846	5.0909	0.1	-97.758
7953	19.846	5.2727	0.1	-80.685
7954	19.846	5.4545	0.1	-62.183
7955	19.846	5.6364	0.1	-42.546
7956	19.846	5.8182	0.1	-22.13
7957	20.03	0.18182	0.1	-22.105
7958	20.03	0.36364	0.1	-44.427
7959	20.03	0.54545	0.1	-66.166
7960	20.03	0.72727	0.1	-87.173
7961	20.03	0.90909	0.1	-107.08
7962	20.03	1.0909	0.1	-125.09
7963	20.03	1.2727	0.1	-140.17
7964	20.03	1.4545	0.1	-151.25
7965	20.03	1.6364	0.1	-157.59
7966	20.03	1.8182	0.1	-159.06
7967	20.03	2.	0.1	-156.32
7968	20.03	2.1818	0.1	-150.76
7969	20.03	2.3636	0.1	-144.09
7970	20.03	2.5455	0.1	-137.85
7971	20.03	2.7273	0.1	-133.18
7972	20.03	2.9091	0.1	-130.71
7973	20.03	3.0909	0.1	-130.71
7974	20.03	3.2727	0.1	-133.18
7975	20.03	3.4545	0.1	-137.85
7976	20.03	3.6364	0.1	-144.09
7977	20.03	3.8182	0.1	-150.76
7978	20.03	4.	0.1	-156.32
7979	20.03	4.1818	0.1	-159.06
7980	20.03	4.3636	0.1	-157.59
7981	20.03	4.5455	0.1	-151.25
7982	20.03	4.7273	0.1	-140.17
7983	20.03	4.9091	0.1	-125.09
7984	20.03	5.0909	0.1	-107.08
7985	20.03	5.2727	0.1	-87.173
7986	20.03	5.4545	0.1	-66.166
7987	20.03	5.6364	0.1	-44.427
7988	20.03	5.8182	0.1	-22.105
7989	20.214	0.18182	0.1	-21.971
7990	20.214	0.36364	0.1	-45.972
7991	20.214	0.54545	0.1	-69.927
7992	20.214	0.72727	0.1	-93.899
7993	20.214	0.90909	0.1	-117.43
7994	20.214	1.0909	0.1	-139.41
7995	20.214	1.2727	0.1	-158.28
7996	20.214	1.4545	0.1	-172.31
7997	20.214	1.6364	0.1	-180.08
7998	20.214	1.8182	0.1	-181.11
7999	20.214	2.	0.1	-176.27
8000	20.214	2.1818	0.1	-167.65
8001	20.214	2.3636	0.1	-157.84
8002	20.214	2.5455	0.1	-149.09
8003	20.214	2.7273	0.1	-142.78
8004	20.214	2.9091	0.1	-139.53
8005	20.214	3.0909	0.1	-139.53
8006	20.214	3.2727	0.1	-142.78
8007	20.214	3.4545	0.1	-149.09
8008	20.214	3.6364	0.1	-157.84
8009	20.214	3.8182	0.1	-167.65
8010	20.214	4.	0.1	-176.27
8011	20.214	4.1818	0.1	-181.11
8012	20.214	4.3636	0.1	-180.08
8013	20.214	4.5455	0.1	-172.31
8014	20.214	4.7273	0.1	-158.28
8015	20.214	4.9091	0.1	-139.41
8016	20.214	5.0909	0.1	-117.43
8017	20.214	5.2727	0.1	-93.9
8018	20.214	5.4545	0.1	-69.927
8019	20.214	5.6364	0.1	-45.972
8020	20.214	5.8182	0.1	-21.971
8021	20.397	0.18182	0.1	-21.678
8022	20.397	0.36364	0.1	-46.965
8023	20.397	0.54545	0.1	-73.246
8024	20.397	0.72727	0.1	-100.78
8025	20.397	0.90909	0.1	-129.
8026	20.397	1.0909	0.1	-156.4
8027	20.397	1.2727	0.1	-180.76
8028	20.397	1.4545	0.1	-199.32
8029	20.397	1.6364	0.1	-209.47
8030	20.397	1.8182	0.1	-209.92
8031	20.397	2.	0.1	-201.74
8032	20.397	2.1818	0.1	-188.32
8033	20.397	2.3636	0.1	-173.87
8034	20.397	2.5455	0.1	-161.67
8035	20.397	2.7273	0.1	-153.34
8036	20.397	2.9091	0.1	-149.21
8037	20.397	3.0909	0.1	-149.21
8038	20.397	3.2727	0.1	-153.34
8039	20.397	3.4545	0.1	-161.67
8040	20.397	3.6364	0.1	-173.87
8041	20.397	3.8182	0.1	-188.32
8042	20.397	4.	0.1	-201.74
8043	20.397	4.1818	0.1	-209.92
8044	20.397	4.3636	0.1	-209.47
8045	20.397	4.5455	0.1	-199.32
8046	20.397	4.7273	0.1	-180.76
8047	20.397	4.9091	0.1	-156.4
8048	20.397	5.0909	0.1	-129.
8049	20.397	5.2727	0.1	-100.78
8050	20.397	5.4545	0.1	-73.246
8051	20.397	5.6364	0.1	-46.965
8052	20.397	5.8182	0.1	-21.678
8053	20.581	0.18182	0.1	-21.16
8054	20.581	0.36364	0.1	-47.186
8055	20.581	0.54545	0.1	-75.962
8056	20.581	0.72727	0.1	-107.86
8057	20.581	0.90909	0.1	-142.13
8058	20.581	1.0909	0.1	-176.92
8059	20.581	1.2727	0.1	-209.28
8060	20.581	1.4545	0.1	-235.03
8061	20.581	1.6364	0.1	-249.38
8062	20.581	1.8182	0.1	-249.19
8063	20.581	2.	0.1	-235.48
8064	20.581	2.1818	0.1	-214.12
8065	20.581	2.3636	0.1	-192.58
8066	20.581	2.5455	0.1	-175.72
8067	20.581	2.7273	0.1	-164.99
8068	20.581	2.9091	0.1	-159.94
8069	20.581	3.0909	0.1	-159.94
8070	20.581	3.2727	0.1	-164.99
8071	20.581	3.4545	0.1	-175.72
8072	20.581	3.6364	0.1	-192.58
8073	20.581	3.8182	0.1	-214.12
8074	20.581	4.	0.1	-235.48
8075	20.581	4.1818	0.1	-249.19
8076	20.581	4.3636	0.1	-249.38
8077	20.581	4.5455	0.1	-235.03
8078	20.581	4.7273	0.1	-209.28
8079	20.581	4.9091	0.1	-176.92
8080	20.581	5.0909	0.1	-142.13
8081	20.581	5.2727	0.1	-107.86
8082	20.581	5.4545	0.1	-75.962
8083	20.581	5.6364	0.1	-47.186
8084	20.581	5.8182	0.1	-21.16
8085	20.765	0.18182	0.1	-20.367
8086	20.765	0.36364	0.1	-46.538
8087	20.765	0.54545	0.1	-78.22
8088	20.765	0.72727	0.1	-115.57
8089	20.765	0.90909	0.1	-157.57
8090	20.765	1.0909	0.1	-202.18
8091	20.765	1.2727	0.1	-246.01
8092	20.765	1.4545	0.1	-283.51
8093	20.765	1.6364	0.1	-306.32
8094	20.765	1.8182	0.1	-305.81
8095	20.765	2.	0.1	-282.51
8096	20.765	2.1818	0.1	-247.32
8097	20.765	2.3636	0.1	-214.26
8098	20.765	2.5455	0.1	-191.12
8099	20.765	2.7273	0.1	-177.75
8100	20.765	2.9091	0.1	-171.77
8101	20.765	3.0909	0.1	-171.77
8102	20.765	3.2727	0.1	-177.75
8103	20.765	3.4545	0.1	-191.12
8104	20.765	3.6364	0.1	-214.26
8105	20.765	3.8182	0.1	-247.32
8106	20.765	4.	0.1	-282.52
8107	20.765	4.1818	0.1	-305.81
8108	20.765	4.3636	0.1	-306.32
8109	20.765	4.5455	0.1	-283.51
8110	20.765	4.7273	0.1	-246.01
8111	20.765	4.9091	0.1	-202.18
8112	20.765	5.0909	0.1	-157.57
8113	20.765	5.2727	0.1	-115.57
8114	20.765	5.4545	0.1	-78.22
8115	20.765	5.6364	0.1	-46.538
8116	20.765	5.8182	0.1	-20.367
8117	20.949	0.18182	0.1	-19.255
8118	20.949	0.36364	0.1	-45.351
8119	20.949	0.54545	0.1	-81.016
8120	20.949	0.72727	0.1	-125.29
8121	20.949	0.90909	0.1	-176.7
8122	20.949	1.0909	0.1	-233.58
8123	20.949	1.2727	0.1	-293.14
8124	20.949	1.4545	0.1	-350.
8125	20.949	1.6364	0.1	-390.19
8126	20.949	1.8182	0.1	-393.57
8127	20.949	2.	0.1	-352.61
8128	20.949	2.1818	0.1	-289.83
8129	20.949	2.3636	0.1	-238.52
8130	20.949	2.5455	0.1	-207.53
8131	20.949	2.7273	0.1	-191.06
8132	20.949	2.9091	0.1	-184.09
8133	20.949	3.0909	0.1	-184.09
8134	20.949	3.2727	0.1	-191.06
8135	20.949	3.4545	0.1	-207.53
8136	20.949	3.6364	0.1	-238.52
8137	20.949	3.8182	0.1	-289.83
8138	20.949	4.	0.1	-352.61
8139	20.949	4.1818	0.1	-393.57
8140	20.949	4.3636	0.1	-390.19
8141	20.949	4.5455	0.1	-350.
8142	20.949	4.7273	0.1	-293.14
8143	20.949	4.9091	0.1	-233.58
8144	20.949	5.0909	0.1	-176.7
8145	20.949	5.2727	0.1	-125.29
8146	20.949	5.4545	0.1	-81.016
8147	20.949	5.6364	0.1	-45.351
8148	20.949	5.8182	0.1	-19.255
8149	21.132	0.18182	0.1	-18.519
8150	21.132	0.36364	0.1	-46.031
8151	21.132	0.54545	0.1	-88.211
8152	21.132	0.72727	0.1	-141.06
8153	21.132	0.90909	0.1	-202.94
8154	21.132	1.0909	0.1	-273.54
8155	21.132	1.2727	0.1	-353.32
8156	21.132	1.4545	0.1	-438.62
8157	21.132	1.6364	0.1	-522.28
8158	21.132	1.8182	0.1	-555.31
8159	21.132	2.	0.1	-472.52
8160	21.132	2.1818	0.1	-348.95
8161	21.132	2.3636	0.1	-264.31
8162	21.132	2.5455	0.1	-222.96
8163	21.132	2.7273	0.1	-202.75
8164	21.132	2.9091	0.1	-194.4
8165	21.132	3.0909	0.1	-194.4
8166	21.132	3.2727	0.1	-202.75
8167	21.132	3.4545	0.1	-222.96
8168	21.132	3.6364	0.1	-264.31
8169	21.132	3.8182	0.1	-348.95
8170	21.132	4.	0.1	-472.52
8171	21.132	4.1818	0.1	-555.31
8172	21.132	4.3636	0.1	-522.28
8173	21.132	4.5455	0.1	-438.62
8174	21.132	4.7273	0.1	-353.32
8175	21.132	4.9091	0.1	-273.54
8176	21.132	5.0909	0.1	-202.94
8177	21.132	5.2727	0.1	-141.06
8178	21.132	5.4545	0.1	-88.211
8179	21.132	5.6364	0.1	-46.031
8180	21.132	5.8182	0.1	-18.519
8181	21.316	0.18182	0.1	-23.433
8182	21.316	0.36364	0.1	-61.284
8183	21.316	0.54545	0.1	-114.91
8184	21.316	0.72727	0.1	-178.67
8185	21.316	0.90909	0.1	-252.67
8186	21.316	1.0909	0.1	-339.
8187	21.316	1.2727	0.1	-442.26
8188	21.316	1.4545	0.1	-568.83
8189	21.316	1.6364	0.1	-739.24
8190	21.316	1.8182	0.1	-910.24
8191	21.316	2.	0.1	-752.54
8192	21.316	2.1818	0.1	-422.59
8193	21.316	2.3636	0.1	-285.51
8194	21.316	2.5455	0.1	-230.25
8195	21.316	2.7273	0.1	-206.97
8196	21.316	2.9091	0.1	-196.91
8197	21.316	3.0909	0.1	-196.91
8198	21.316	3.2727	0.1	-206.97
8199	21.316	3.4545	0.1	-230.25
8200	21.316	3.6364	0.1	-285.51
8201	21.316	3.8182	0.1	-422.59
8202	21.316	4.	0.1	-752.54
8203	21.316	4.1818	0.1	-910.24
8204	21.316	4.3636	0.1	-739.24
8205	21.316	4.5455	0.1	-568.83
8206	21.316	4.7273	0.1	-442.26
8207	21.316	4.9091	0.1	-339.
8208	21.316	5.0909	0.1	-252.67
8209	21.316	5.2727	0.1	-178.67
8210	21.316	5.4545	0.1	-114.91
8211	21.316	5.6364	0.1	-61.284
8212	21.316	5.8182	0.1	-23.433
8213	21.667	3.8182	0.1	-207.76
8214	21.667	3.6364	0.1	-195.55
8215	21.667	3.4545	0.1	-171.84
8216	21.667	3.2727	0.1	-159.28
8217	21.667	3.0909	0.1	-153.26
8218	21.667	2.9091	0.1	-153.26
8219	21.667	2.7273	0.1	-159.28
8220	21.667	2.5455	0.1	-171.84
8221	21.667	2.3636	0.1	-195.55
8222	21.667	2.1818	0.1	-207.76
8223	21.5	3.8182	0.1	-428.06
8224	21.5	3.6364	0.1	-263.06
8225	21.5	3.4545	0.1	-215.68
8226	21.5	3.2727	0.1	-192.88
8227	21.5	3.0909	0.1	-183.27
8228	21.5	2.9091	0.1	-183.27
8229	21.5	2.7273	0.1	-192.88
8230	21.5	2.5455	0.1	-215.68
8231	21.5	2.3636	0.1	-263.06
8232	21.5	2.1818	0.1	-428.06
8233	21.667	5.8182	0.1	-3.8938
8234	21.667	5.6364	0.1	-8.5553
8235	21.667	5.4545	0.1	-13.84
8236	21.667	5.2727	0.1	-19.911
8237	21.667	5.0909	0.1	-27.226
8238	21.667	4.9091	0.1	-36.59
8239	21.667	4.7273	0.1	-48.969
8240	21.667	4.5455	0.1	-70.573
8241	21.667	4.3636	0.1	-77.466
8242	21.667	4.1818	0.1	-279.57
8243	21.667	4.	0.1	-194.19
8244	21.5	4.	0.1	-1195.9
8245	21.5	4.1818	0.1	-1113.1
8246	21.5	4.3636	0.1	-625.12
8247	21.5	4.5455	0.1	-472.64
8248	21.5	4.7273	0.1	-354.09
8249	21.5	4.9091	0.1	-266.28
8250	21.5	5.0909	0.1	-196.35
8251	21.5	5.2727	0.1	-138.65
8252	21.5	5.4545	0.1	-90.458
8253	21.5	5.6364	0.1	-50.574
8254	21.5	5.8182	0.1	-18.801
8255	21.667	0.18182	0.1	-3.8938
8256	21.667	0.36364	0.1	-8.5553
8257	21.667	0.54545	0.1	-13.84
8258	21.667	0.72727	0.1	-19.911
8259	21.667	0.90909	0.1	-27.226
8260	21.667	1.0909	0.1	-36.59
8261	21.667	1.2727	0.1	-48.969
8262	21.667	1.4545	0.1	-70.573
8263	21.667	1.6364	0.1	-77.467
8264	21.667	1.8182	0.1	-279.57
8265	21.667	2.	0.1	-194.19
8266	21.5	2.	0.1	-1195.9
8267	21.5	1.8182	0.1	-1113.1
8268	21.5	1.6364	0.1	-625.12
8269	21.5	1.4545	0.1	-472.64
8270	21.5	1.2727	0.1	-354.09
8271	21.5	1.0909	0.1	-266.28
8272	21.5	0.90909	0.1	-196.35
8273	21.5	0.72727	0.1	-138.65
8274	21.5	0.54545	0.1	-90.458
8275	21.5	0.36364	0.1	-50.574
8276	21.5	0.18182	0.1	-18.801
8277	21.667	6.	0.1	-0.89304
8278	21.846	6.	0.1	-2.2514
8279	22.026	6.	0.1	-3.6606
8280	22.205	6.	0.1	-4.8447
8281	22.385	6.	0.1	-5.7122
8282	22.564	6.	0.1	-6.3473
8283	22.744	6.	0.1	-6.8691
8284	22.923	6.	0.1	-7.3519
8285	23.103	6.	0.1	-7.8467
8286	23.282	6.	0.1	-8.3796
8287	23.462	6.	0.1	-8.9128
8288	23.641	6.	0.1	-9.4605
8289	23.821	6.	0.1	-8.6974
8290	24.	6.	0.1	-5.1236
8291	24.	5.8182	0.1	-27.977
8292	24.	5.6364	0.1	-42.516
8293	24.	5.4545	0.1	-48.643
8294	24.	5.2727	0.1	-49.581
8295	24.	5.0909	0.1	-46.877
8296	24.	4.9091	0.1	-41.719
8297	24.	4.7273	0.1	-35.156
8298	24.	4.5455	0.1	-28.102
8299	24.	4.3636	0.1	-21.247
8300	24.	4.1818	0.1	-14.972
8301	24.	4.	0.1	-9.387
8302	24.	3.8182	0.1	-4.4951
8303	24.	3.6364	0.1	-2.9411
8304	24.	3.4545	0.1	-2.9939
8305	24.	3.2727	0.1	-3.0425
8306	24.	3.0909	0.1	-3.0691
8307	24.	2.9091	0.1	-3.0691
8308	24.	2.7273	0.1	-3.0425
8309	24.	2.5455	0.1	-2.9939
8310	24.	2.3636	0.1	-2.9411
8311	24.	2.1818	0.1	-4.4951
8312	24.	2.	0.1	-9.387
8313	24.	1.8182	0.1	-14.972
8314	24.	1.6364	0.1	-21.246
8315	24.	1.4545	0.1	-28.102
8316	24.	1.2727	0.1	-35.156
8317	24.	1.0909	0.1	-41.719
8318	24.	0.90909	0.1	-46.877
8319	24.	0.72727	0.1	-49.581
8320	24.	0.54545	0.1	-48.643
8321	24.	0.36364	0.1	-42.516
8322	24.	0.18182	0.1	-27.977
8323	1.5894e-015	0.18182	0.1	1060.8
8324	3.1789e-015	0.36364	0.1	2241.2
8325	4.7683e-015	0.54545	0.1	2784.2
8326	6.3578e-015	0.72727	0.1	3108.4
8327	7.9472e-015	0.90909	0.1	3323.4
8328	9.5366e-015	1.0909	0.1	3476.5
8329	1.1126e-014	1.2727	0.1	3589.7
8330	1.2716e-014	1.4545	0.1	3675.5
8331	1.4305e-014	1.6364	0.1	3741.5
8332	1.5894e-014	1.8182	0.1	3792.7
8333	1.7484e-014	2.	0.1	3832.4
8334	1.9073e-014	2.1818	0.1	3862.9
8335	2.0663e-014	2.3636	0.1	3885.7
8336	2.2252e-014	2.5455	0.1	3902.
8337	2.3842e-014	2.7273	0.1	3912.6
8338	2.5431e-014	2.9091	0.1	3917.8
8339	2.702e-014	3.0909	0.1	3917.8
8340	2.861e-014	3.2727	0.1	3912.6
8341	3.0199e-014	3.4545	0.1	3902.
8342	3.1789e-014	3.6364	0.1	3885.7
8343	3.3378e-014	3.8182	0.1	3862.9
8344	3.4968e-014	4.	0.1	3832.4
8345	3.6557e-014	4.1818	0.1	3792.7
8346	3.8147e-014	4.3636	0.1	3741.5
8347	3.9736e-014	4.5455	0.1	3675.5
8348	4.1325e-014	4.7273	0.1	3589.7
8349	4.2915e-014	4.9091	0.1	3476.5
8350	4.4504e-014	5.0909	0.1	3323.4
8351	4.6094e-014	5.2727	0.1	3108.4
8352	4.7683e-014	5.4545	0.1	2784.2
8353	4.9273e-014	5.6364	0.1	2241.2
8354	5.0862e-014	5.8182	0.1	1060.8
8355	24.	0.	0.1	-5.1236
8356	23.821	0.	0.1	-8.6974
8357	23.641	0.	0.1	-9.4605
8358	23.462	0.	0.1	-8.9128
8359	23.282	0.	0.1	-8.3796
8360	23.103	0.	0.1	-7.8467
8361	22.923	0.	0.1	-7.3519
8362	22.744	0.	0.1	-6.8691
8363	22.564	0.	0.1	-6.3473
8364	22.385	0.	0.1	-5.7122
8365	22.205	0.	0.1	-4.8447
8366	22.026	0.	0.1	-3.6606
8367	21.846	0.	0.1	-2.2514
8368	21.667	0.	0.1	-0.89304
8369	21.5	0.	0.1	-1.9203
8370	21.316	-3.849e-030	0.1	-1.5797
8371	21.132	-3.8158e-030	0.1	-1.3506
8372	20.949	-3.7826e-030	0.1	-1.5093
8373	20.765	-3.7495e-030	0.1	-1.7664
8374	20.581	-3.7163e-030	0.1	-2.0935
8375	20.397	-3.6831e-030	0.1	-2.5209
8376	20.214	-3.6499e-030	0.1	-3.0214
8377	20.03	-3.6167e-030	0.1	-3.5692
8378	19.846	-3.5836e-030	0.1	-4.1349
8379	19.662	-3.5504e-030	0.1	-4.6942
8380	19.479	-3.5172e-030	0.1	-5.2278
8381	19.295	-3.484e-030	0.1	-5.7228
8382	19.111	-3.4508e-030	0.1	-6.1713
8383	18.927	-3.4177e-030	0.1	-6.5698
8384	18.744	-3.3845e-030	0.1	-6.9179
8385	18.56	-3.3513e-030	0.1	-7.2172
8386	18.376	-3.3181e-030	0.1	-7.4709
8387	18.192	-3.2849e-030	0.1	-7.6824
8388	18.009	-3.2517e-030	0.1	-7.8559
8389	17.825	-3.2186e-030	0.1	-7.9953
8390	17.641	-3.1854e-030	0.1	-8.1046
8391	17.457	-3.1522e-030	0.1	-8.1873
8392	17.274	-3.119e-030	0.1	-8.2467
8393	17.09	-3.0858e-030	0.1	-8.2857
8394	16.906	-3.0527e-030	0.1	-8.3069
8395	16.722	-3.0195e-030	0.1	-8.3126
8396	16.538	-2.9863e-030	0.1	-8.3048
8397	16.355	-2.9531e-030	0.1	-8.2854
8398	16.171	-2.9199e-030	0.1	-8.2557
8399	15.987	-2.8868e-030	0.1	-8.2171
8400	15.803	-2.8536e-030	0.1	-8.1708
8401	15.62	-2.8204e-030	0.1	-8.1177
8402	15.436	-2.7872e-030	0.1	-8.0585
8403	15.252	-2.754e-030	0.1	-7.9941
8404	15.068	-2.7209e-030	0.1	-7.925
8405	14.885	-2.6877e-030	0.1	-7.8518
8406	14.701	-2.6545e-030	0.1	-7.7748
8407	14.517	-2.6213e-030	0.1	-7.6943
8408	14.333	-2.5881e-030	0.1	-7.6108
8409	14.15	-2.5549e-030	0.1	-7.5242
8410	13.966	-2.5218e-030	0.1	-7.4349
8411	13.782	-2.4886e-030	0.1	-7.3429
8412	13.598	-2.4554e-030	0.1	-7.2483
8413	13.415	-2.4222e-030	0.1	-7.1512
8414	13.231	-2.389e-030	0.1	-7.0514
8415	13.047	-2.3559e-030	0.1	-6.949
8416	12.863	-2.3227e-030	0.1	-6.844
8417	12.679	-2.2895e-030	0.1	-6.7361
8418	12.496	-2.2563e-030	0.1	-6.6253
8419	12.312	-2.2231e-030	0.1	-6.5114
8420	12.128	-2.19e-030	0.1	-6.3941
8421	11.944	-2.1568e-030	0.1	-6.2735
8422	11.761	-2.1236e-030	0.1	-6.149
8423	11.577	-2.0904e-030	0.1	-6.0204
8424	11.393	-2.0572e-030	0.1	-5.8877
8425	11.209	-2.024e-030	0.1	-5.7502
8426	11.026	-1.9909e-030	0.1	-5.6079
8427	10.842	-1.9577e-030	0.1	-5.4602
8428	10.658	-1.9245e-030	0.1	-5.3068
8429	10.474	-1.8913e-030	0.1	-5.1475
8430	10.291	-1.8581e-030	0.1	-4.9816
8431	10.107	-1.825e-030	0.1	-4.8088
8432	9.9231	-1.7918e-030	0.1	-4.6286
8433	9.7393	-1.7586e-030	0.1	-4.4408
8434	9.5556	-1.7254e-030	0.1	-4.2447
8435	9.3718	-1.6922e-030	0.1	-4.0399
8436	9.188	-1.6591e-030	0.1	-3.826
8437	9.0043	-1.6259e-030	0.1	-3.6026
8438	8.8205	-1.5927e-030	0.1	-3.3692
8439	8.6368	-1.5595e-030	0.1	-3.1255
8440	8.453	-1.5263e-030	0.1	-2.8711
8441	8.2692	-1.4931e-030	0.1	-2.6059
8442	8.0855	-1.46e-030	0.1	-2.3295
8443	7.9017	-1.4268e-030	0.1	-2.0419
8444	7.7179	-1.3936e-030	0.1	-1.7432
8445	7.5342	-1.3604e-030	0.1	-1.4336
8446	7.3504	-1.3272e-030	0.1	-1.1134
8447	7.1667	-1.2941e-030	0.1	-0.7834
8448	6.9829	-1.2609e-030	0.1	-0.45678
8449	6.7991	-1.2277e-030	0.1	-0.49022
8450	6.6154	-1.1945e-030	0.1	-0.53473
8451	6.4316	-1.1613e-030	0.1	-0.58297
8452	6.2479	-1.1282e-030	0.1	-0.63516
8453	6.0641	-1.095e-030	0.1	-0.69162
8454	5.8803	-1.0618e-030	0.1	-0.75269
8455	5.6966	-1.0286e-030	0.1	-0.81873
8456	5.5128	-9.9543e-031	0.1	-0.89016
8457	5.3291	-9.6225e-031	0.1	-0.96743
8458	5.1453	-9.2907e-031	0.1	-1.051
8459	4.9615	-8.9589e-031	0.1	-1.1416
8460	4.7778	-8.6271e-031	0.1	-1.2396
8461	4.594	-8.2953e-031	0.1	-1.3461
8462	4.4103	-7.9635e-031	0.1	-1.4618
8463	4.2265	-7.6317e-031	0.1	-1.588
8464	4.0427	-7.2998e-031	0.1	-1.7266
8465	3.859	-6.968e-031	0.1	-1.8803
8466	3.6752	-6.6362e-031	0.1	-2.054
8467	3.4915	-6.3044e-031	0.1	-2.2592
8468	3.3077	-5.9726e-031	0.1	-2.5279
8469	3.1239	-5.6408e-031	0.1	-2.9934
8470	2.9402	-5.309e-031	0.1	-4.1455
8471	2.7564	-4.9772e-031	0.1	-6.2685
8472	2.5726	-4.6454e-031	0.1	-9.1398
8473	2.3889	-4.3135e-031	0.1	-12.753
8474	2.2051	-3.9817e-031	0.1	-17.218
8475	2.0214	-3.6499e-031	0.1	-22.707
8476	1.8376	-3.3181e-031	0.1	-29.449
8477	1.6538	-2.9863e-031	0.1	-37.76
8478	1.4701	-2.6545e-031	0.1	-48.071
8479	1.2863	-2.3227e-031	0.1	-61.056
8480	1.1026	-1.9909e-031	0.1	-77.616
8481	0.9188	-1.6591e-031	0.1	-99.752
8482	0.73504	-1.3272e-031	0.1	-129.74
8483	0.55128	-9.9543e-032	0.1	-176.28
8484	0.36752	-6.6362e-032	0.1	-256.53
8485	0.18376	-3.3181e-032	0.1	-442.55
8486	0.	0.	0.1	-1822.
8487	3.937e-014	6.	0.1	-1822.
8488	0.18376	6.	0.1	-442.55
8489	0.36752	6.	0.1	-256.53
8490	0.55128	6.	0.1	-176.28
8491	0.73504	6.	0.1	-129.74
8492	0.9188	6.	0.1	-99.752
8493	1.1026	6.	0.1	-77.616
8494	1.2863	6.	0.1	-61.056
8495	1.4701	6.	0.1	-48.071
8496	1.6538	6.	0.1	-37.76
8497	1.8376	6.	0.1	-29.449
8498	2.0214	6.	0.1	-22.707
8499	2.2051	6.	0.1	-17.218
8500	2.3889	6.	0.1	-12.753
8501	2.5726	6.	0.1	-9.1398
8502	2.7564	6.	0.1	-6.2685
8503	2.9402	6.	0.1	-4.1455
8504	3.1239	6.	0.1	-2.9934
8505	3.3077	6.	0.1	-2.5279
8506	3.4915	6.	0.1	-2.2592
8507	3.6752	6.	0.1	-2.054
8508	3.859	6.	0.1	-1.8803
8509	4.0427	6.	0.1	-1.7266
8510	4.2265	6.	0.1	-1.588
8511	4.4103	6.	0.1	-1.4618
8512	4.594	6.	0.1	-1.3461
8513	4.7778	6.	0.1	-1.2396
8514	4.9615	6.	0.1	-1.1416
8515	5.1453	6.	0.1	-1.051
8516	5.3291	6.	0.1	-0.96743
8517	5.5128	6.	0.1	-0.89016
8518	5.6966	6.	0.1	-0.81873
8519	5.8803	6.	0.1	-0.75269
8520	6.0641	6.	0.1	-0.69162
8521	6.2479	6.	0.1	-0.63516
8522	6.4316	6.	0.1	-0.58297
8523	6.6154	6.	0.1	-0.53473
8524	6.7991	6.	0.1	-0.49022
8525	6.9829	6.	0.1	-0.45678
8526	7.1667	6.	0.1	-0.7834
8527	7.3504	6.	0.1	-1.1134
8528	7.5342	6.	0.1	-1.4336
8529	7.7179	6.	0.1	-1.7432
8530	7.9017	6.	0.1	-2.0419
8531	8.0855	6.	0.1	-2.3295
8532	8.2692	6.	0.1	-2.6059
8533	8.453	6.	0.1	-2.8711
8534	8.6368	6.	0.1	-3.1255
8535	8.8205	6.	0.1	-3.3692
8536	9.0043	6.	0.1	-3.6026
8537	9.188	6.	0.1	-3.826
8538	9.3718	6.	0.1	-4.0399
8539	9.5556	6.	0.1	-4.2447
8540	9.7393	6.	0.1	-4.4408
8541	9.9231	6.	0.1	-4.6286
8542	10.107	6.	0.1	-4.8088
8543	10.291	6.	0.1	-4.9816
8544	10.474	6.	0.1	-5.1475
8545	10.658	6.	0.1	-5.3068
8546	10.842	6.	0.1	-5.4602
8547	11.026	6.	0.1	-5.6079
8548	11.209	6.	0.1	-5.7502
8549	11.393	6.	0.1	-5.8877
8550	11.577	6.	0.1	-6.0204
8551	11.761	6.	0.1	-6.149
8552	11.944	6.	0.1	-6.2735
8553	12.128	6.	0.1	-6.3941
8554	12.312	6.	0.1	-6.5114
8555	12.496	6.	0.1	-6.6253
8556	12.679	6.	0.1	-6.7361
8557	12.863	6.	0.1	-6.844
8558	13.047	6.	0.1	-6.949
8559	13.231	6.	0.1	-7.0514
8560	13.415	6.	0.1	-7.1512
8561	13.598	6.	0.1	-7.2483
8562	13.782	6.	0.1	-7.3429
8563	13.966	6.	0.1	-7.4349
8564	14.15	6.	0.1	-7.5242
8565	14.333	6.	0.1	-7.6108
8566	14.517	6.	0.1	-7.6943
8567	14.701	6.	0.1	-7.7748
8568	14.885	6.	0.1	-7.8518
8569	15.068	6.	0.1	-7.925
8570	15.252	6.	0.1	-7.9941
8571	15.436	6.	0.1	-8.0586
8572	15.62	6.	0.1	-8.1177
8573	15.803	6.	0.1	-8.1708
8574	15.987	6.	0.1	-8.2171
8575	16.171	6.	0.1	-8.2557
8576	16.355	6.	0.1	-8.2854
8577	16.538	6.	0.1	-8.3048
8578	16.722	6.	0.1	-8.3126
8579	16.906	6.	0.1	-8.3069
8580	17.09	6.	0.1	-8.2857
8581	17.274	6.	0.1	-8.2467
8582	17.457	6.	0.1	-8.1873
8583	17.641	6.	0.1	-8.1046
8584	17.825	6.	0.1	-7.9954
8585	18.009	6.	0.1	-7.8559
8586	18.192	6.	0.1	-7.6824
8587	18.376	6.	0.1	-7.4709
8588	18.56	6.	0.1	-7.2173
8589	18.744	6.	0.1	-6.9179
8590	18.927	6.	0.1	-6.5698
8591	19.111	6.	0.1	-6.1713
8592	19.295	6.	0.1	-5.7228
8593	19.479	6.	0.1	-5.2278
8594	19.662	6.	0.1	-4.6942
8595	19.846	6.	0.1	-4.135
8596	20.03	6.	0.1	-3.5692
8597	20.214	6.	0.1	-3.0214
8598	20.397	6.	0.1	-2.5209
8599	20.581	6.	0.1	-2.0935
8600	20.765	6.	0.1	-1.7664
8601	20.949	6.	0.1	-1.5093
8602	21.132	6.	0.1	-1.3506
8603	21.316	6.	0.1	-1.5797
8604	21.5	6.	0.1	-1.9202
8605	21.316	6.	0.	-89.21
8606	21.132	6.	0.	-185.21
8607	20.949	6.	0.	-278.55
8608	20.765	6.	0.	-368.91
8609	20.581	6.	0.	-455.33
8610	20.397	6.	0.	-537.06
8611	20.214	6.	0.	-613.83
8612	20.03	6.	0.	-685.74
8613	19.846	6.	0.	-753.12
8614	19.662	6.	0.	-816.45
8615	19.479	6.	0.	-876.29
8616	19.295	6.	0.	-933.15
8617	19.111	6.	0.	-987.54
8618	18.927	6.	0.	-1039.9
8619	18.744	6.	0.	-1090.6
8620	18.56	6.	0.	-1140.
8621	18.376	6.	0.	-1188.4
8622	18.192	6.	0.	-1236.
8623	18.009	6.	0.	-1282.9
8624	17.825	6.	0.	-1329.4
8625	17.641	6.	0.	-1375.5
8626	17.457	6.	0.	-1421.4
8627	17.274	6.	0.	-1467.1
8628	17.09	6.	0.	-1512.7
8629	16.906	6.	0.	-1558.2
8630	16.722	6.	0.	-1603.8
8631	16.538	6.	0.	-1649.4
8632	16.355	6.	0.	-1695.
8633	16.171	6.	0.	-1740.7
8634	15.987	6.	0.	-1786.6
8635	15.803	6.	0.	-1832.5
8636	15.62	6.	0.	-1878.6
8637	15.436	6.	0.	-1924.8
8638	15.252	6.	0.	-1971.2
8639	15.068	6.	0.	-2017.7
8640	14.885	6.	0.	-2064.4
8641	14.701	6.	0.	-2111.3
8642	14.517	6.	0.	-2158.3
8643	14.333	6.	0.	-2205.5
8644	14.15	6.	0.	-2252.9
8645	13.966	6.	0.	-2300.5
8646	13.782	6.	0.	-2348.3
8647	13.598	6.	0.	-2396.3
8648	13.415	6.	0.	-2444.5
8649	13.231	6.	0.	-2492.8
8650	13.047	6.	0.	-2541.4
8651	12.863	6.	0.	-2590.2
8652	12.679	6.	0.	-2639.1
8653	12.496	6.	0.	-2688.3
8654	12.312	6.	0.	-2737.7
8655	12.128	6.	0.	-2787.3
8656	11.944	6.	0.	-2837.1
8657	11.761	6.	0.	-2887.2
8658	11.577	6.	0.	-2937.4
8659	11.393	6.	0.	-2987.9
8660	11.209	6.	0.	-3038.6
8661	11.026	6.	0.	-3089.5
8662	10.842	6.	0.	-3140.7
8663	10.658	6.	0.	-3192.1
8664	10.474	6.	0.	-3243.8
8665	10.291	6.	0.	-3295.6
8666	10.107	6.	0.	-3347.8
8667	9.9231	6.	0.	-3400.2
8668	9.7393	6.	0.	-3452.8
8669	9.5556	6.	0.	-3505.7
8670	9.3718	6.	0.	-3558.9
8671	9.188	6.	0.	-3612.4
8672	9.0043	6.	0.	-3666.1
8673	8.8205	6.	0.	-3720.1
8674	8.6368	6.	0.	-3774.5
8675	8.453	6.	0.	-3829.1
8676	8.2692	6.	0.	-3884.1
8677	8.0855	6.	0.	-3939.4
8678	7.9017	6.	0.	-3995.
8679	7.7179	6.	0.	-4051.
8680	7.5342	6.	0.	-4107.3
8681	7.3504	6.	0.	-4164.
8682	7.1667	6.	0.	-4221.2
8683	6.9829	6.	0.	-4278.7
8684	6.7991	6.	0.	-4336.6
8685	6.6154	6.	0.	-4395.
8686	6.4316	6.	0.	-4453.9
8687	6.2479	6.	0.	-4513.2
8688	6.0641	6.	0.	-4573.1
8689	5.8803	6.	0.	-4633.4
8690	5.6966	6.	0.	-4694.3
8691	5.5128	6.	0.	-4755.8
8692	5.3291	6.	0.	-4817.8
8693	5.1453	6.	0.	-4880.4
8694	4.9615	6.	0.	-4943.6
8695	4.7778	6.	0.	-5007.3
8696	4.594	6.	0.	-5071.7
8697	4.4103	6.	0.	-5136.6
8698	4.2265	6.	0.	-5202.
8699	4.0427	6.	0.	-5267.9
8700	3.859	6.	0.	-5334.2
8701	3.6752	6.	0.	-5400.8
8702	3.4915	6.	0.	-5467.4
8703	3.3077	6.	0.	-5533.9
8704	3.1239	6.	0.	-5600.
8705	2.9402	6.	0.	-5665.2
8706	2.7564	6.	0.	-5729.
8707	2.5726	6.	0.	-5790.6
8708	2.3889	6.	0.	-5849.
8709	2.2051	6.	0.	-5903.
8710	2.0214	6.	0.	-5950.7
8711	1.8376	6.	0.	-5989.8
8712	1.6538	6.	0.	-6016.7
8713	1.4701	6.	0.	-6026.8
8714	1.2863	6.	0.	-6012.8
8715	1.1026	6.	0.	-5964.2
8716	0.9188	6.	0.	-5863.1
8717	0.73504	6.	0.	-5681.
8718	0.55128	6.	0.	-5356.1
8719	0.36752	6.	0.	-4779.9
8720	0.18376	6.	0.	-3567.1
8721	21.5	6.	0.	-7.9344
8722	3.937e-014	6.	0.	-761.04
8723	0.18376	-3.3181e-032	0.	-3567.1
8724	0.36752	-6.6362e-032	0.	-4779.9
8725	0.55128	-9.9543e-032	0.	-5356.1
8726	0.73504	-1.3272e-031	0.	-5681.
8727	0.9188	-1.6591e-031	0.	-5863.1
8728	1.1026	-1.9909e-031	0.	-5964.2
8729	1.2863	-2.3227e-031	0.	-6012.8
8730	1.4701	-2.6545e-031	0.	-6026.8
8731	1.6538	-2.9863e-031	0.	-6016.7
8732	1.8376	-3.3181e-031	0.	-5989.8
8733	2.0214	-3.6499e-031	0.	-5950.7
8734	2.2051	-3.9817e-031	0.	-5903.
8735	2.3889	-4.3135e-031	0.	-5849.
8736	2.5726	-4.6454e-031	0.	-5790.6
8737	2.7564	-4.9772e-031	0.	-5729.
8738	2.9402	-5.309e-031	0.	-5665.2
8739	3.1239	-5.6408e-031	0.	-5600.
8740	3.3077	-5.9726e-031	0.	-5533.9
8741	3.4915	-6.3044e-031	0.	-5467.4
8742	3.6752	-6.6362e-031	0.	-5400.8
8743	3.859	-6.968e-031	0.	-5334.2
8744	4.0427	-7.2998e-031	0.	-5267.9
8745	4.2265	-7.6317e-031	0.	-5202.
8746	4.4103	-7.9635e-031	0.	-5136.6
8747	4.594	-8.2953e-031	0.	-5071.7
8748	4.7778	-8.6271e-031	0.	-5007.3
8749	4.9615	-8.9589e-031	0.	-4943.6
8750	5.1453	-9.2907e-031	0.	-4880.4
8751	5.3291	-9.6225e-031	0.	-4817.8
8752	5.5128	-9.9543e-031	0.	-4755.8
8753	5.6966	-1.0286e-030	0.	-4694.3
8754	5.8803	-1.0618e-030	0.	-4633.4
8755	6.0641	-1.095e-030	0.	-4573.1
8756	6.2479	-1.1282e-030	0.	-4513.2
8757	6.4316	-1.1613e-030	0.	-4453.9
8758	6.6154	-1.1945e-030	0.	-4395.
8759	6.7991	-1.2277e-030	0.	-4336.6
8760	6.9829	-1.2609e-030	0.	-4278.7
8761	7.1667	-1.2941e-030	0.	-4221.2
8762	7.3504	-1.3272e-030	0.	-4164.
8763	7.5342	-1.3604e-030	0.	-4107.3
8764	7.7179	-1.3936e-030	0.	-4051.
8765	7.9017	-1.4268e-030	0.	-3995.
8766	8.0855	-1.46e-030	0.	-3939.4
8767	8.2692	-1.4931e-030	0.	-3884.1
8768	8.453	-1.5263e-030	0.	-3829.1
8769	8.6368	-1.5595e-030	0.	-3774.5
8770	8.8205	-1.5927e-030	0.	-3720.1
8771	9.0043	-1.6259e-030	0.	-3666.1
8772	9.188	-1.6591e-030	0.	-3612.4
8773	9.3718	-1.6922e-030	0.	-3558.9
8774	9.5556	-1.7254e-030	0.	-3505.7
8775	9.7393	-1.7586e-030	0.	-3452.8
8776	9.9231	-1.7918e-030	0.	-3400.2
8777	10.107	-1.825e-030	0.	-3347.8
8778	10.291	-1.8581e-030	0.	-3295.6
8779	10.474	-1.8913e-030	0.	-3243.8
8780	10.658	-1.9245e-030	0.	-3192.1
8781	10.842	-1.9577e-030	0.	-3140.7
8782	11.026	-1.9909e-030	0.	-3089.5
8783	11.209	-2.024e-030	0.	-3038.6
8784	11.393	-2.0572e-030	0.	-2987.9
8785	11.577	-2.0904e-030	0.	-2937.4
8786	11.761	-2.1236e-030	0.	-2887.2
8787	11.944	-2.1568e-030	0.	-2837.1
8788	12.128	-2.19e-030	0.	-2787.3
8789	12.312	-2.2231e-030	0.	-2737.7
8790	12.496	-2.2563e-030	0.	-2688.3
8791	12.679	-2.2895e-030	0.	-2639.1
8792	12.863	-2.3227e-030	0.	-2590.2
8793	13.047	-2.3559e-030	0.	-2541.4
8794	13.231	-2.389e-030	0.	-2492.8
8795	13.415	-2.4222e-030	0.	-2444.5
8796	13.598	-2.4554e-030	0.	-2396.3
8797	13.782	-2.4886e-030	0.	-2348.3
8798	13.966	-2.5218e-030	0.	-2300.5
8799	14.15	-2.5549e-030	0.	-2252.9
8800	14.333	-2.5881e-030	0.	-2205.5
8801	14.517	-2.6213e-030	0.	-2158.3
8802	14.701	-2.6545e-030	0.	-2111.3
8803	14.885	-2.6877e-030	0.	-2064.4
8804	15.068	-2.7209e-030	0.	-2017.7
8805	15.252	-2.754e-030	0.	-1971.2
8806	15.436	-2.7872e-030	0.	-1924.8
8807	15.62	-2.8204e-030	0.	-1878.6
8808	15.803	-2.8536e-030	0.	-1832.5
8809	15.987	-2.8868e-030	0.	-1786.6
8810	16.171	-2.9199e-030	0.	-1740.7
8811	16.355	-2.9531e-030	0.	-1695.
8812	16.538	-2.9863e-030	0.	-1649.4
8813	16.722	-3.0195e-030	0.	-1603.8
8814	16.906	-3.0527e-030	0.	-1558.2
8815	17.09	-3.0858e-030	0.	-1512.7
8816	17.274	-3.119e-030	0.	-1467.1
8817	17.457	-3.1522e-030	0.	-1421.4
8818	17.641	-3.1854e-030	0.	-1375.5
8819	17.825	-3.2186e-030	0.	-1329.4
8820	18.009	-3.2517e-030	0.	-1282.9
8821	18.192	-3.2849e-030	0.	-1236.
8822	18.376	-3.3181e-030	0.	-1188.4
8823	18.56	-3.3513e-030	0.	-1140.
8824	18.744	-3.3845e-030	0.	-1090.6
8825	18.927	-3.4177e-030	0.	-1039.9
8826	19.111	-3.4508e-030	0.	-987.54
8827	19.295	-3.484e-030	0.	-933.15
8828	19.479	-3.5172e-030	0.	-876.29
8829	19.662	-3.5504e-030	0.	-816.45
8830	19.846	-3.5836e-030	0.	-753.12
8831	20.03	-3.6167e-030	0.	-685.74
8832	20.214	-3.6499e-030	0.	-613.83
8833	20.397	-3.6831e-030	0.	-537.06
8834	20.581	-3.7163e-030	0.	-455.33
8835	20.765	-3.7495e-030	0.	-368.91
8836	20.949	-3.7826e-030	0.	-278.55
8837	21.132	-3.8158e-030	0.	-185.21
8838	21.316	-3.849e-030	0.	-89.21
8839	21.5	0.	0.	-7.9344
8840	0.	0.	0.	-761.04
8841	21.846	0.	0.	-35.763
8842	22.026	0.	0.	-65.442
8843	22.205	0.	0.	-87.386
8844	22.385	0.	0.	-102.24
8845	22.564	0.	0.	-110.21
8846	22.744	0.	0.	-111.67
8847	22.923	0.	0.	-107.27
8848	23.103	0.	0.	-97.758
8849	23.282	0.	0.	-83.991
8850	23.462	0.	0.	-66.821
8851	23.641	0.	0.	-47.127
8852	23.821	0.	0.	-25.955
8853	21.667	0.	0.	-3.693
8854	24.	0.	0.	-5.011
8855	5.0862e-014	5.8182	0.	-2497.1
8856	4.9273e-014	5.6364	0.	-4635.5
8857	4.7683e-014	5.4545	0.	-5684.6
8858	4.6094e-014	5.2727	0.	-6329.7
8859	4.4504e-014	5.0909	0.	-6760.2
8860	4.2915e-014	4.9091	0.	-7067.5
8861	4.1325e-014	4.7273	0.	-7294.9
8862	3.9736e-014	4.5455	0.	-7467.5
8863	3.8147e-014	4.3636	0.	-7600.4
8864	3.6557e-014	4.1818	0.	-7703.4
8865	3.4968e-014	4.	0.	-7783.2
8866	3.3378e-014	3.8182	0.	-7844.5
8867	3.1789e-014	3.6364	0.	-7890.3
8868	3.0199e-014	3.4545	0.	-7923.
8869	2.861e-014	3.2727	0.	-7944.
8870	2.702e-014	3.0909	0.	-7954.3
8871	2.5431e-014	2.9091	0.	-7954.3
8872	2.3842e-014	2.7273	0.	-7944.
8873	2.2252e-014	2.5455	0.	-7923.
8874	2.0663e-014	2.3636	0.	-7890.3
8875	1.9073e-014	2.1818	0.	-7844.5
8876	1.7484e-014	2.	0.	-7783.2
8877	1.5894e-014	1.8182	0.	-7703.4
8878	1.4305e-014	1.6364	0.	-7600.4
8879	1.2716e-014	1.4545	0.	-7467.5
8880	1.1126e-014	1.2727	0.	-7294.9
8881	9.5366e-015	1.0909	0.	-7067.5
8882	7.9472e-015	0.90909	0.	-6760.2
8883	6.3578e-015	0.72727	0.	-6329.7
8884	4.7683e-015	0.54545	0.	-5684.6
8885	3.1789e-015	0.36364	0.	-4635.5
8886	1.5894e-015	0.18182	0.	-2497.1
8887	24.	0.18182	0.	-6.9231
8888	24.	0.36364	0.	-8.4552
8889	24.	0.54545	0.	-10.212
8890	24.	0.72727	0.	-12.41
8891	24.	0.90909	0.	-15.146
8892	24.	1.0909	0.	-18.566
8893	24.	1.2727	0.	-22.778
8894	24.	1.4545	0.	-27.799
8895	24.	1.6364	0.	-33.46
8896	24.	1.8182	0.	-39.356
8897	24.	2.	0.	-44.925
8898	24.	2.1818	0.	-49.635
8899	24.	2.3636	0.	-53.154
8900	24.	2.5455	0.	-55.429
8901	24.	2.7273	0.	-56.657
8902	24.	2.9091	0.	-57.153
8903	24.	3.0909	0.	-57.153
8904	24.	3.2727	0.	-56.657
8905	24.	3.4545	0.	-55.429
8906	24.	3.6364	0.	-53.154
8907	24.	3.8182	0.	-49.635
8908	24.	4.	0.	-44.925
8909	24.	4.1818	0.	-39.356
8910	24.	4.3636	0.	-33.46
8911	24.	4.5455	0.	-27.799
8912	24.	4.7273	0.	-22.778
8913	24.	4.9091	0.	-18.566
8914	24.	5.0909	0.	-15.146
8915	24.	5.2727	0.	-12.41
8916	24.	5.4545	0.	-10.212
8917	24.	5.6364	0.	-8.4552
8918	24.	5.8182	0.	-6.9231
8919	24.	6.	0.	-5.0109
8920	23.821	6.	0.	-25.955
8921	23.641	6.	0.	-47.127
8922	23.462	6.	0.	-66.821
8923	23.282	6.	0.	-83.991
8924	23.103	6.	0.	-97.758
8925	22.923	6.	0.	-107.27
8926	22.744	6.	0.	-111.67
8927	22.564	6.	0.	-110.21
8928	22.385	6.	0.	-102.24
8929	22.205	6.	0.	-87.386
8930	22.026	6.	0.	-65.442
8931	21.846	6.	0.	-35.763
8932	21.667	6.	0.	-3.693
8933	21.5	1.8182	0.	-550.9
8934	21.5	1.6364	0.	-370.36
8935	21.5	1.4545	0.	-302.35
8936	21.5	1.2727	0.	-251.56
8937	21.5	1.0909	0.	-213.58
8938	21.5	0.90909	0.	-180.82
8939	21.5	0.72727	0.	-150.97
8940	21.5	0.54545	0.	-121.87
8941	21.5	0.36364	0.	-91.444
8942	21.5	0.18182	0.	-54.826
8943	21.5	2.	0.	-2557.9
8944	21.667	0.18182	0.	-33.097
8945	21.667	0.36364	0.	-62.222
8946	21.667	0.54545	0.	-91.32
8947	21.667	0.72727	0.	-123.93
8948	21.667	0.90909	0.	-162.66
8949	21.667	1.0909	0.	-210.82
8950	21.667	1.2727	0.	-273.32
8951	21.667	1.4545	0.	-361.01
8952	21.667	1.6364	0.	-484.41
8953	21.667	1.8182	0.	-756.33
8954	21.667	2.	0.	-2799.1
8955	21.5	4.1818	0.	-550.9
8956	21.5	4.3636	0.	-370.36
8957	21.5	4.5455	0.	-302.35
8958	21.5	4.7273	0.	-251.56
8959	21.5	4.9091	0.	-213.58
8960	21.5	5.0909	0.	-180.82
8961	21.5	5.2727	0.	-150.97
8962	21.5	5.4545	0.	-121.87
8963	21.5	5.6364	0.	-91.444
8964	21.5	5.8182	0.	-54.826
8965	21.5	4.	0.	-2557.9
8966	21.667	5.8182	0.	-33.097
8967	21.667	5.6364	0.	-62.222
8968	21.667	5.4545	0.	-91.32
8969	21.667	5.2727	0.	-123.93
8970	21.667	5.0909	0.	-162.66
8971	21.667	4.9091	0.	-210.82
8972	21.667	4.7273	0.	-273.32
8973	21.667	4.5455	0.	-361.01
8974	21.667	4.3636	0.	-484.41
8975	21.667	4.1818	0.	-756.33
8976	21.667	4.	0.	-2799.1
8977	21.5	2.2727	0.	-1625.1
8978	21.583	2.1818	0.	-1822.4
8979	21.408	2.1818	0.	-1568.8
8980	21.5	2.1818	5.e-002	-92.607
8981	21.5	2.0909	0.	-2143.4
8982	21.5	2.4545	0.	-1347.5
8983	21.583	2.3636	0.	-1425.
8984	21.408	2.3636	0.	-1351.6
8985	21.5	2.3636	5.e-002	-11.154
8986	21.5	2.6364	0.	-1222.4
8987	21.583	2.5455	0.	-1252.8
8988	21.408	2.5455	0.	-1232.2
8989	21.5	2.5455	5.e-002	-4.6563
8990	21.5	2.8182	0.	-1162.1
8991	21.583	2.7273	0.	-1166.
8992	21.408	2.7273	0.	-1167.5
8993	21.5	2.7273	5.e-002	-1.8686
8994	21.5	3.	0.	-1144.2
8995	21.583	2.9091	0.	-1128.9
8996	21.408	2.9091	0.	-1138.6
8997	21.5	2.9091	5.e-002	-0.49159
8998	21.5	3.1818	0.	-1162.1
8999	21.583	3.0909	0.	-1128.9
9000	21.408	3.0909	0.	-1138.6
9001	21.5	3.0909	5.e-002	-0.49158
9002	21.5	3.3636	0.	-1222.4
9003	21.583	3.2727	0.	-1166.
9004	21.408	3.2727	0.	-1167.5
9005	21.5	3.2727	5.e-002	-1.8686
9006	21.5	3.5455	0.	-1347.5
9007	21.583	3.4545	0.	-1252.8
9008	21.408	3.4545	0.	-1232.2
9009	21.5	3.4545	5.e-002	-4.6563
9010	21.5	3.7273	0.	-1625.1
9011	21.583	3.6364	0.	-1425.
9012	21.408	3.6364	0.	-1351.6
9013	21.5	3.6364	5.e-002	-11.154
9014	21.583	3.8182	0.	-1822.4
9015	21.408	3.8182	0.	-1568.8
9016	21.5	3.8182	5.e-002	-92.607
9017	21.5	3.9091	0.	-2143.4
9018	21.667	2.2727	0.	-1640.6
9019	21.756	2.1818	0.	-1603.5
9020	21.667	2.1818	5.e-002	-67.066
9021	21.667	2.0909	0.	-2284.4
9022	21.667	2.4545	0.	-1335.7
9023	21.756	2.3636	0.	-1334.9
9024	21.667	2.3636	5.e-002	-14.908
9025	21.667	2.6364	0.	-1197.5
9026	21.756	2.5455	0.	-1186.2
9027	21.667	2.5455	5.e-002	-6.8047
9028	21.667	2.8182	0.	-1132.6
9029	21.756	2.7273	0.	-1109.3
9030	21.667	2.7273	5.e-002	-4.1205
9031	21.667	3.	0.	-1113.2
9032	21.756	2.9091	0.	-1075.2
9033	21.667	2.9091	5.e-002	-3.207
9034	21.667	3.1818	0.	-1132.6
9035	21.756	3.0909	0.	-1075.2
9036	21.667	3.0909	5.e-002	-3.207
9037	21.667	3.3636	0.	-1197.5
9038	21.756	3.2727	0.	-1109.3
9039	21.667	3.2727	5.e-002	-4.1205
9040	21.667	3.5455	0.	-1335.7
9041	21.756	3.4545	0.	-1186.2
9042	21.667	3.4545	5.e-002	-6.8047
9043	21.667	3.7273	0.	-1640.6
9044	21.756	3.6364	0.	-1334.9
9045	21.667	3.6364	5.e-002	-14.908
9046	21.756	3.8182	0.	-1603.5
9047	21.667	3.8182	5.e-002	-67.066
9048	21.667	3.9091	0.	-2284.4
9049	21.316	5.7273	0.	-137.78
9050	21.224	5.8182	0.	-157.1
9051	21.316	5.8182	5.e-002	-10.254
9052	21.316	5.9091	0.	-100.33
9053	21.408	5.8182	0.	-80.03
9054	21.316	5.5455	0.	-181.62
9055	21.224	5.6364	0.	-188.27
9056	21.316	5.6364	5.e-002	-9.3939
9057	21.408	5.6364	0.	-117.97
9058	21.316	5.3636	0.	-229.54
9059	21.224	5.4545	0.	-229.25
9060	21.316	5.4545	5.e-002	-9.8014
9061	21.408	5.4545	0.	-155.46
9062	21.316	5.1818	0.	-280.98
9063	21.224	5.2727	0.	-275.59
9064	21.316	5.2727	5.e-002	-10.652
9065	21.408	5.2727	0.	-193.28
9066	21.316	5.	0.	-338.18
9067	21.224	5.0909	0.	-327.52
9068	21.316	5.0909	5.e-002	-11.957
9069	21.408	5.0909	0.	-233.26
9070	21.316	4.8182	0.	-404.95
9071	21.224	4.9091	0.	-387.28
9072	21.316	4.9091	5.e-002	-13.843
9073	21.408	4.9091	0.	-277.85
9074	21.316	4.6364	0.	-489.66
9075	21.224	4.7273	0.	-459.18
9076	21.316	4.7273	5.e-002	-16.875
9077	21.408	4.7273	0.	-330.59
9078	21.316	4.4545	0.	-606.06
9079	21.224	4.5455	0.	-552.25
9080	21.316	4.5455	5.e-002	-20.733
9081	21.408	4.5455	0.	-399.96
9082	21.316	4.2727	0.	-812.18
9083	21.224	4.3636	0.	-678.99
9084	21.316	4.3636	5.e-002	-31.562
9085	21.408	4.3636	0.	-498.29
9086	21.316	4.0909	0.	-1139.4
9087	21.224	4.1818	0.	-898.96
9088	21.316	4.1818	5.e-002	-64.488
9089	21.408	4.1818	0.	-676.36
9090	21.316	3.9091	0.	-1334.4
9091	21.224	4.	0.	-1169.
9092	21.316	4.	5.e-002	-114.48
9093	21.408	4.	0.	-1930.6
9094	21.316	3.7273	0.	-1312.3
9095	21.224	3.8182	0.	-1216.4
9096	21.316	3.8182	5.e-002	-37.66
9097	21.316	3.5455	0.	-1240.3
9098	21.224	3.6364	0.	-1196.6
9099	21.316	3.6364	5.e-002	-17.135
9100	21.316	3.3636	0.	-1178.5
9101	21.224	3.4545	0.	-1156.2
9102	21.316	3.4545	5.e-002	-8.4413
9103	21.316	3.1818	0.	-1144.2
9104	21.224	3.2727	0.	-1128.1
9105	21.316	3.2727	5.e-002	-4.3668
9106	21.316	3.	0.	-1133.
9107	21.224	3.0909	0.	-1113.4
9108	21.316	3.0909	5.e-002	-2.931
9109	21.316	2.8182	0.	-1144.2
9110	21.224	2.9091	0.	-1113.4
9111	21.316	2.9091	5.e-002	-2.931
9112	21.316	2.6364	0.	-1178.5
9113	21.224	2.7273	0.	-1128.1
9114	21.316	2.7273	5.e-002	-4.3668
9115	21.316	2.4545	0.	-1240.3
9116	21.224	2.5455	0.	-1156.2
9117	21.316	2.5455	5.e-002	-8.4413
9118	21.316	2.2727	0.	-1312.3
9119	21.224	2.3636	0.	-1196.6
9120	21.316	2.3636	5.e-002	-17.135
9121	21.316	2.0909	0.	-1334.4
9122	21.224	2.1818	0.	-1216.4
9123	21.316	2.1818	5.e-002	-37.66
9124	21.316	1.9091	0.	-1139.4
9125	21.224	2.	0.	-1169.
9126	21.316	2.	5.e-002	-114.48
9127	21.408	2.	0.	-1930.6
9128	21.316	1.7273	0.	-812.18
9129	21.224	1.8182	0.	-898.96
9130	21.316	1.8182	5.e-002	-64.488
9131	21.408	1.8182	0.	-676.36
9132	21.316	1.5455	0.	-606.06
9133	21.224	1.6364	0.	-678.99
9134	21.316	1.6364	5.e-002	-31.562
9135	21.408	1.6364	0.	-498.29
9136	21.316	1.3636	0.	-489.66
9137	21.224	1.4545	0.	-552.25
9138	21.316	1.4545	5.e-002	-20.733
9139	21.408	1.4545	0.	-399.96
9140	21.316	1.1818	0.	-404.95
9141	21.224	1.2727	0.	-459.18
9142	21.316	1.2727	5.e-002	-16.875
9143	21.408	1.2727	0.	-330.59
9144	21.316	1.	0.	-338.18
9145	21.224	1.0909	0.	-387.28
9146	21.316	1.0909	5.e-002	-13.843
9147	21.408	1.0909	0.	-277.85
9148	21.316	0.81818	0.	-280.98
9149	21.224	0.90909	0.	-327.52
9150	21.316	0.90909	5.e-002	-11.957
9151	21.408	0.90909	0.	-233.26
9152	21.316	0.63636	0.	-229.54
9153	21.224	0.72727	0.	-275.59
9154	21.316	0.72727	5.e-002	-10.652
9155	21.408	0.72727	0.	-193.28
9156	21.316	0.45455	0.	-181.62
9157	21.224	0.54545	0.	-229.25
9158	21.316	0.54545	5.e-002	-9.8014
9159	21.408	0.54545	0.	-155.46
9160	21.316	0.27273	0.	-137.78
9161	21.224	0.36364	0.	-188.27
9162	21.316	0.36364	5.e-002	-9.3939
9163	21.408	0.36364	0.	-117.97
9164	21.224	0.18182	0.	-157.1
9165	21.316	0.18182	5.e-002	-10.254
9166	21.316	9.0909e-002	0.	-100.33
9167	21.408	0.18182	0.	-80.031
9168	21.132	5.7273	0.	-212.59
9169	21.041	5.8182	0.	-245.08
9170	21.132	5.8182	5.e-002	-10.009
9171	21.132	5.9091	0.	-191.34
9172	21.132	5.5455	0.	-242.85
9173	21.041	5.6364	0.	-266.35
9174	21.132	5.6364	5.e-002	-9.2932
9175	21.132	5.3636	0.	-282.5
9176	21.041	5.4545	0.	-298.37
9177	21.132	5.4545	5.e-002	-9.5343
9178	21.132	5.1818	0.	-329.43
9179	21.041	5.2727	0.	-338.88
9180	21.132	5.2727	5.e-002	-10.12
9181	21.132	5.	0.	-384.37
9182	21.041	5.0909	0.	-387.38
9183	21.132	5.0909	5.e-002	-11.041
9184	21.132	4.8182	0.	-450.35
9185	21.041	4.9091	0.	-445.06
9186	21.132	4.9091	5.e-002	-12.352
9187	21.132	4.6364	0.	-532.55
9188	21.041	4.7273	0.	-514.95
9189	21.132	4.7273	5.e-002	-14.076
9190	21.132	4.4545	0.	-640.57
9191	21.041	4.5455	0.	-601.46
9192	21.132	4.5455	5.e-002	-16.996
9193	21.132	4.2727	0.	-778.
9194	21.041	4.3636	0.	-711.48
9195	21.132	4.3636	5.e-002	-15.822
9196	21.132	4.0909	0.	-921.
9197	21.041	4.1818	0.	-837.83
9198	21.132	4.1818	5.e-002	-19.743
9199	21.132	3.9091	0.	-1038.1
9200	21.041	4.	0.	-952.74
9201	21.132	4.	5.e-002	-14.824
9202	21.132	3.7273	0.	-1099.3
9203	21.041	3.8182	0.	-1030.5
9204	21.132	3.8182	5.e-002	-19.409
9205	21.132	3.5455	0.	-1112.5
9206	21.041	3.6364	0.	-1065.2
9207	21.132	3.6364	5.e-002	-12.075
9208	21.132	3.3636	0.	-1105.9
9209	21.041	3.4545	0.	-1073.8
9210	21.132	3.4545	5.e-002	-8.2213
9211	21.132	3.1818	0.	-1097.3
9212	21.041	3.2727	0.	-1072.8
9213	21.132	3.2727	5.e-002	-5.2634
9214	21.132	3.	0.	-1093.8
9215	21.041	3.0909	0.	-1070.6
9216	21.132	3.0909	5.e-002	-4.0449
9217	21.132	2.8182	0.	-1097.3
9218	21.041	2.9091	0.	-1070.6
9219	21.132	2.9091	5.e-002	-4.0449
9220	21.132	2.6364	0.	-1105.9
9221	21.041	2.7273	0.	-1072.8
9222	21.132	2.7273	5.e-002	-5.2634
9223	21.132	2.4545	0.	-1112.5
9224	21.041	2.5455	0.	-1073.8
9225	21.132	2.5455	5.e-002	-8.2213
9226	21.132	2.2727	0.	-1099.3
9227	21.041	2.3636	0.	-1065.2
9228	21.132	2.3636	5.e-002	-12.075
9229	21.132	2.0909	0.	-1038.1
9230	21.041	2.1818	0.	-1030.5
9231	21.132	2.1818	5.e-002	-19.409
9232	21.132	1.9091	0.	-921.
9233	21.041	2.	0.	-952.74
9234	21.132	2.	5.e-002	-14.824
9235	21.132	1.7273	0.	-778.
9236	21.041	1.8182	0.	-837.83
9237	21.132	1.8182	5.e-002	-19.743
9238	21.132	1.5455	0.	-640.57
9239	21.041	1.6364	0.	-711.48
9240	21.132	1.6364	5.e-002	-15.822
9241	21.132	1.3636	0.	-532.55
9242	21.041	1.4545	0.	-601.46
9243	21.132	1.4545	5.e-002	-16.996
9244	21.132	1.1818	0.	-450.35
9245	21.041	1.2727	0.	-514.95
9246	21.132	1.2727	5.e-002	-14.076
9247	21.132	1.	0.	-384.37
9248	21.041	1.0909	0.	-445.06
9249	21.132	1.0909	5.e-002	-12.352
9250	21.132	0.81818	0.	-329.43
9251	21.041	0.90909	0.	-387.38
9252	21.132	0.90909	5.e-002	-11.041
9253	21.132	0.63636	0.	-282.5
9254	21.041	0.72727	0.	-338.88
9255	21.132	0.72727	5.e-002	-10.12
9256	21.132	0.45455	0.	-242.85
9257	21.041	0.54545	0.	-298.37
9258	21.132	0.54545	5.e-002	-9.5343
9259	21.132	0.27273	0.	-212.59
9260	21.041	0.36364	0.	-266.35
9261	21.132	0.36364	5.e-002	-9.2932
9262	21.041	0.18182	0.	-245.08
9263	21.132	0.18182	5.e-002	-10.009
9264	21.132	9.0909e-002	0.	-191.34
9265	20.949	5.7273	0.	-299.98
9266	20.857	5.8182	0.	-334.38
9267	20.949	5.8182	5.e-002	-9.7842
9268	20.949	5.9091	0.	-283.58
9269	20.949	5.5455	0.	-324.52
9270	20.857	5.6364	0.	-352.68
9271	20.949	5.6364	5.e-002	-9.2707
9272	20.949	5.3636	0.	-358.55
9273	20.857	5.4545	0.	-379.81
9274	20.949	5.4545	5.e-002	-9.4432
9275	20.949	5.1818	0.	-401.33
9276	20.857	5.2727	0.	-415.63
9277	20.949	5.2727	5.e-002	-9.8356
9278	20.949	5.	0.	-453.09
9279	20.857	5.0909	0.	-459.96
9280	20.949	5.0909	5.e-002	-10.396
9281	20.949	4.8182	0.	-515.19
9282	20.857	4.9091	0.	-513.28
9283	20.949	4.9091	5.e-002	-11.085
9284	20.949	4.6364	0.	-589.75
9285	20.857	4.7273	0.	-576.61
9286	20.949	4.7273	5.e-002	-11.674
9287	20.949	4.4545	0.	-677.33
9288	20.857	4.5455	0.	-650.92
9289	20.949	4.5455	5.e-002	-11.608
9290	20.949	4.2727	0.	-773.59
9291	20.857	4.3636	0.	-734.32
9292	20.949	4.3636	5.e-002	-11.189
9293	20.949	4.0909	0.	-867.3
9294	20.857	4.1818	0.	-819.87
9295	20.949	4.1818	5.e-002	-8.1964
9296	20.949	3.9091	0.	-943.32
9297	20.857	4.	0.	-895.42
9298	20.949	4.	5.e-002	-9.1951
9299	20.949	3.7273	0.	-995.5
9300	20.857	3.8182	0.	-951.8
9301	20.949	3.8182	5.e-002	-9.5425
9302	20.949	3.5455	0.	-1026.1
9303	20.857	3.6364	0.	-989.92
9304	20.949	3.6364	5.e-002	-7.8954
9305	20.949	3.3636	0.	-1040.5
9306	20.857	3.4545	0.	-1012.1
9307	20.949	3.4545	5.e-002	-5.9153
9308	20.949	3.1818	0.	-1046.
9309	20.857	3.2727	0.	-1023.2
9310	20.949	3.2727	5.e-002	-4.497
9311	20.949	3.	0.	-1047.3
9312	20.857	3.0909	0.	-1027.6
9313	20.949	3.0909	5.e-002	-3.7664
9314	20.949	2.8182	0.	-1046.
9315	20.857	2.9091	0.	-1027.6
9316	20.949	2.9091	5.e-002	-3.7664
9317	20.949	2.6364	0.	-1040.5
9318	20.857	2.7273	0.	-1023.2
9319	20.949	2.7273	5.e-002	-4.497
9320	20.949	2.4545	0.	-1026.1
9321	20.857	2.5455	0.	-1012.1
9322	20.949	2.5455	5.e-002	-5.9153
9323	20.949	2.2727	0.	-995.5
9324	20.857	2.3636	0.	-989.92
9325	20.949	2.3636	5.e-002	-7.8954
9326	20.949	2.0909	0.	-943.32
9327	20.857	2.1818	0.	-951.8
9328	20.949	2.1818	5.e-002	-9.5425
9329	20.949	1.9091	0.	-867.3
9330	20.857	2.	0.	-895.42
9331	20.949	2.	5.e-002	-9.1951
9332	20.949	1.7273	0.	-773.59
9333	20.857	1.8182	0.	-819.87
9334	20.949	1.8182	5.e-002	-8.1964
9335	20.949	1.5455	0.	-677.33
9336	20.857	1.6364	0.	-734.32
9337	20.949	1.6364	5.e-002	-11.189
9338	20.949	1.3636	0.	-589.75
9339	20.857	1.4545	0.	-650.92
9340	20.949	1.4545	5.e-002	-11.608
9341	20.949	1.1818	0.	-515.19
9342	20.857	1.2727	0.	-576.61
9343	20.949	1.2727	5.e-002	-11.674
9344	20.949	1.	0.	-453.09
9345	20.857	1.0909	0.	-513.28
9346	20.949	1.0909	5.e-002	-11.085
9347	20.949	0.81818	0.	-401.33
9348	20.857	0.90909	0.	-459.96
9349	20.949	0.90909	5.e-002	-10.396
9350	20.949	0.63636	0.	-358.55
9351	20.857	0.72727	0.	-415.63
9352	20.949	0.72727	5.e-002	-9.8356
9353	20.949	0.45455	0.	-324.52
9354	20.857	0.54545	0.	-379.81
9355	20.949	0.54545	5.e-002	-9.4432
9356	20.949	0.27273	0.	-299.98
9357	20.857	0.36364	0.	-352.68
9358	20.949	0.36364	5.e-002	-9.2707
9359	20.857	0.18182	0.	-334.38
9360	20.949	0.18182	5.e-002	-9.7842
9361	20.949	9.0909e-002	0.	-283.58
9362	20.765	5.7273	0.	-387.47
9363	20.673	5.8182	0.	-421.25
9364	20.765	5.8182	5.e-002	-9.2787
9365	20.765	5.9091	0.	-373.38
9366	20.765	5.5455	0.	-409.13
9367	20.673	5.6364	0.	-438.13
9368	20.765	5.6364	5.e-002	-8.9553
9369	20.765	5.3636	0.	-438.95
9370	20.673	5.4545	0.	-462.09
9371	20.765	5.4545	5.e-002	-9.04
9372	20.765	5.1818	0.	-477.04
9373	20.673	5.2727	0.	-493.72
9374	20.765	5.2727	5.e-002	-9.2213
9375	20.765	5.	0.	-523.43
9376	20.673	5.0909	0.	-533.03
9377	20.765	5.0909	5.e-002	-9.435
9378	20.765	4.8182	0.	-578.22
9379	20.673	4.9091	0.	-579.94
9380	20.765	4.9091	5.e-002	-9.5777
9381	20.765	4.6364	0.	-641.13
9382	20.673	4.7273	0.	-634.19
9383	20.765	4.7273	5.e-002	-9.4675
9384	20.765	4.4545	0.	-710.4
9385	20.673	4.5455	0.	-694.65
9386	20.765	4.5455	5.e-002	-8.8675
9387	20.765	4.2727	0.	-781.47
9388	20.673	4.3636	0.	-758.48
9389	20.765	4.3636	5.e-002	-7.5021
9390	20.765	4.0909	0.	-847.73
9391	20.673	4.1818	0.	-820.4
9392	20.765	4.1818	5.e-002	-6.2909
9393	20.765	3.9091	0.	-903.39
9394	20.673	4.	0.	-874.91
9395	20.765	4.	5.e-002	-5.9259
9396	20.765	3.7273	0.	-945.89
9397	20.673	3.8182	0.	-918.69
9398	20.765	3.8182	5.e-002	-5.5523
9399	20.765	3.5455	0.	-975.67
9400	20.673	3.6364	0.	-951.38
9401	20.765	3.6364	5.e-002	-4.8702
9402	20.765	3.3636	0.	-994.52
9403	20.673	3.4545	0.	-973.97
9404	20.765	3.4545	5.e-002	-3.902
9405	20.765	3.1818	0.	-1004.6
9406	20.673	3.2727	0.	-987.79
9407	20.765	3.2727	5.e-002	-3.1436
9408	20.765	3.	0.	-1007.7
9409	20.673	3.0909	0.	-994.24
9410	20.765	3.0909	5.e-002	-2.7296
9411	20.765	2.8182	0.	-1004.6
9412	20.673	2.9091	0.	-994.24
9413	20.765	2.9091	5.e-002	-2.7296
9414	20.765	2.6364	0.	-994.52
9415	20.673	2.7273	0.	-987.79
9416	20.765	2.7273	5.e-002	-3.1436
9417	20.765	2.4545	0.	-975.67
9418	20.673	2.5455	0.	-973.97
9419	20.765	2.5455	5.e-002	-3.902
9420	20.765	2.2727	0.	-945.89
9421	20.673	2.3636	0.	-951.38
9422	20.765	2.3636	5.e-002	-4.8702
9423	20.765	2.0909	0.	-903.39
9424	20.673	2.1818	0.	-918.69
9425	20.765	2.1818	5.e-002	-5.5523
9426	20.765	1.9091	0.	-847.73
9427	20.673	2.	0.	-874.91
9428	20.765	2.	5.e-002	-5.9259
9429	20.765	1.7273	0.	-781.47
9430	20.673	1.8182	0.	-820.4
9431	20.765	1.8182	5.e-002	-6.2909
9432	20.765	1.5455	0.	-710.4
9433	20.673	1.6364	0.	-758.48
9434	20.765	1.6364	5.e-002	-7.5021
9435	20.765	1.3636	0.	-641.13
9436	20.673	1.4545	0.	-694.65
9437	20.765	1.4545	5.e-002	-8.8675
9438	20.765	1.1818	0.	-578.22
9439	20.673	1.2727	0.	-634.19
9440	20.765	1.2727	5.e-002	-9.4675
9441	20.765	1.	0.	-523.43
9442	20.673	1.0909	0.	-579.94
9443	20.765	1.0909	5.e-002	-9.5777
9444	20.765	0.81818	0.	-477.04
9445	20.673	0.90909	0.	-533.03
9446	20.765	0.90909	5.e-002	-9.435
9447	20.765	0.63636	0.	-438.95
9448	20.673	0.72727	0.	-493.72
9449	20.765	0.72727	5.e-002	-9.2213
9450	20.765	0.45455	0.	-409.13
9451	20.673	0.54545	0.	-462.09
9452	20.765	0.54545	5.e-002	-9.04
9453	20.765	0.27273	0.	-387.47
9454	20.673	0.36364	0.	-438.13
9455	20.765	0.36364	5.e-002	-8.9553
9456	20.673	0.18182	0.	-421.25
9457	20.765	0.18182	5.e-002	-9.2787
9458	20.765	9.0909e-002	0.	-373.38
9459	20.581	5.7273	0.	-472.05
9460	20.489	5.8182	0.	-504.38
9461	20.581	5.8182	5.e-002	-8.5887
9462	20.581	5.9091	0.	-459.45
9463	20.581	5.5455	0.	-491.67
9464	20.489	5.6364	0.	-520.03
9465	20.581	5.6364	5.e-002	-8.5012
9466	20.581	5.3636	0.	-518.01
9467	20.489	5.4545	0.	-541.41
9468	20.581	5.4545	5.e-002	-8.5072
9469	20.581	5.1818	0.	-551.37
9470	20.489	5.2727	0.	-569.17
9471	20.581	5.2727	5.e-002	-8.5214
9472	20.581	5.	0.	-591.57
9473	20.489	5.0909	0.	-603.25
9474	20.581	5.0909	5.e-002	-8.491
9475	20.581	4.8182	0.	-638.06
9476	20.489	4.9091	0.	-643.24
9477	20.581	4.9091	5.e-002	-8.328
9478	20.581	4.6364	0.	-689.67
9479	20.489	4.7273	0.	-688.28
9480	20.581	4.7273	5.e-002	-7.923
9481	20.581	4.4545	0.	-744.14
9482	20.489	4.5455	0.	-736.74
9483	20.581	4.5455	5.e-002	-7.1758
9484	20.581	4.2727	0.	-798.07
9485	20.489	4.3636	0.	-785.99
9486	20.581	4.3636	5.e-002	-6.153
9487	20.581	4.0909	0.	-847.69
9488	20.489	4.1818	0.	-832.77
9489	20.581	4.1818	5.e-002	-5.171
9490	20.581	3.9091	0.	-890.12
9491	20.489	4.	0.	-874.09
9492	20.581	4.	5.e-002	-4.5155
9493	20.581	3.7273	0.	-924.08
9494	20.489	3.8182	0.	-908.3
9495	20.581	3.8182	5.e-002	-3.9707
9496	20.581	3.5455	0.	-949.59
9497	20.489	3.6364	0.	-935.08
9498	20.581	3.6364	5.e-002	-3.2553
9499	20.581	3.3636	0.	-967.15
9500	20.489	3.4545	0.	-954.69
9501	20.581	3.4545	5.e-002	-2.4931
9502	20.581	3.1818	0.	-977.35
9503	20.489	3.2727	0.	-967.47
9504	20.581	3.2727	5.e-002	-1.8617
9505	20.581	3.	0.	-980.69
9506	20.489	3.0909	0.	-973.76
9507	20.581	3.0909	5.e-002	-1.4953
9508	20.581	2.8182	0.	-977.35
9509	20.489	2.9091	0.	-973.76
9510	20.581	2.9091	5.e-002	-1.4953
9511	20.581	2.6364	0.	-967.15
9512	20.489	2.7273	0.	-967.47
9513	20.581	2.7273	5.e-002	-1.8617
9514	20.581	2.4545	0.	-949.59
9515	20.489	2.5455	0.	-954.69
9516	20.581	2.5455	5.e-002	-2.493
9517	20.581	2.2727	0.	-924.08
9518	20.489	2.3636	0.	-935.08
9519	20.581	2.3636	5.e-002	-3.2553
9520	20.581	2.0909	0.	-890.12
9521	20.489	2.1818	0.	-908.3
9522	20.581	2.1818	5.e-002	-3.9707
9523	20.581	1.9091	0.	-847.69
9524	20.489	2.	0.	-874.09
9525	20.581	2.	5.e-002	-4.5155
9526	20.581	1.7273	0.	-798.07
9527	20.489	1.8182	0.	-832.77
9528	20.581	1.8182	5.e-002	-5.171
9529	20.581	1.5455	0.	-744.14
9530	20.489	1.6364	0.	-785.99
9531	20.581	1.6364	5.e-002	-6.153
9532	20.581	1.3636	0.	-689.67
9533	20.489	1.4545	0.	-736.74
9534	20.581	1.4545	5.e-002	-7.1758
9535	20.581	1.1818	0.	-638.06
9536	20.489	1.2727	0.	-688.28
9537	20.581	1.2727	5.e-002	-7.9229
9538	20.581	1.	0.	-591.57
9539	20.489	1.0909	0.	-643.24
9540	20.581	1.0909	5.e-002	-8.328
9541	20.581	0.81818	0.	-551.37
9542	20.489	0.90909	0.	-603.25
9543	20.581	0.90909	5.e-002	-8.491
9544	20.581	0.63636	0.	-518.01
9545	20.489	0.72727	0.	-569.17
9546	20.581	0.72727	5.e-002	-8.5214
9547	20.581	0.45455	0.	-491.67
9548	20.489	0.54545	0.	-541.41
9549	20.581	0.54545	5.e-002	-8.5072
9550	20.581	0.27273	0.	-472.05
9551	20.489	0.36364	0.	-520.03
9552	20.581	0.36364	5.e-002	-8.5012
9553	20.489	0.18182	0.	-504.38
9554	20.581	0.18182	5.e-002	-8.5887
9555	20.581	9.0909e-002	0.	-459.45
9556	20.397	5.7273	0.	-552.38
9557	20.306	5.8182	0.	-583.05
9558	20.397	5.8182	5.e-002	-7.7972
9559	20.397	5.9091	0.	-540.93
9560	20.397	5.5455	0.	-570.08
9561	20.306	5.6364	0.	-597.33
9562	20.397	5.6364	5.e-002	-7.9827
9563	20.397	5.3636	0.	-593.24
9564	20.306	5.4545	0.	-616.3
9565	20.397	5.4545	5.e-002	-7.935
9566	20.397	5.1818	0.	-622.04
9567	20.306	5.2727	0.	-640.42
9568	20.397	5.2727	5.e-002	-7.8399
9569	20.397	5.	0.	-656.14
9570	20.306	5.0909	0.	-669.47
9571	20.397	5.0909	5.e-002	-7.6705
9572	20.397	4.8182	0.	-694.74
9573	20.306	4.9091	0.	-702.91
9574	20.397	4.9091	5.e-002	-7.3724
9575	20.397	4.6364	0.	-736.5
9576	20.306	4.7273	0.	-739.72
9577	20.397	4.7273	5.e-002	-6.8911
9578	20.397	4.4545	0.	-779.44
9579	20.306	4.5455	0.	-778.35
9580	20.397	4.5455	5.e-002	-6.2124
9581	20.397	4.2727	0.	-821.16
9582	20.306	4.3636	0.	-816.79
9583	20.397	4.3636	5.e-002	-5.405
9584	20.397	4.0909	0.	-859.34
9585	20.306	4.1818	0.	-852.91
9586	20.397	4.1818	5.e-002	-4.6174
9587	20.397	3.9091	0.	-892.31
9588	20.306	4.	0.	-884.92
9589	20.397	4.	5.e-002	-3.9288
9590	20.397	3.7273	0.	-919.29
9591	20.306	3.8182	0.	-911.84
9592	20.397	3.8182	5.e-002	-3.2721
9593	20.397	3.5455	0.	-940.15
9594	20.306	3.6364	0.	-933.35
9595	20.397	3.6364	5.e-002	-2.5622
9596	20.397	3.3636	0.	-954.97
9597	20.306	3.4545	0.	-949.46
9598	20.397	3.4545	5.e-002	-1.814
9599	20.397	3.1818	0.	-963.83
9600	20.306	3.2727	0.	-960.2
9601	20.397	3.2727	5.e-002	-1.0853
9602	20.397	3.	0.	-966.77
9603	20.306	3.0909	0.	-965.57
9604	20.397	3.0909	5.e-002	-0.44185
9605	20.397	2.8182	0.	-963.83
9606	20.306	2.9091	0.	-965.57
9607	20.397	2.9091	5.e-002	-0.44184
9608	20.397	2.6364	0.	-954.97
9609	20.306	2.7273	0.	-960.2
9610	20.397	2.7273	5.e-002	-1.0853
9611	20.397	2.4545	0.	-940.15
9612	20.306	2.5455	0.	-949.46
9613	20.397	2.5455	5.e-002	-1.814
9614	20.397	2.2727	0.	-919.29
9615	20.306	2.3636	0.	-933.35
9616	20.397	2.3636	5.e-002	-2.5622
9617	20.397	2.0909	0.	-892.31
9618	20.306	2.1818	0.	-911.84
9619	20.397	2.1818	5.e-002	-3.2721
9620	20.397	1.9091	0.	-859.34
9621	20.306	2.	0.	-884.92
9622	20.397	2.	5.e-002	-3.9288
9623	20.397	1.7273	0.	-821.16
9624	20.306	1.8182	0.	-852.91
9625	20.397	1.8182	5.e-002	-4.6174
9626	20.397	1.5455	0.	-779.44
9627	20.306	1.6364	0.	-816.79
9628	20.397	1.6364	5.e-002	-5.405
9629	20.397	1.3636	0.	-736.5
9630	20.306	1.4545	0.	-778.35
9631	20.397	1.4545	5.e-002	-6.2124
9632	20.397	1.1818	0.	-694.74
9633	20.306	1.2727	0.	-739.72
9634	20.397	1.2727	5.e-002	-6.8911
9635	20.397	1.	0.	-656.14
9636	20.306	1.0909	0.	-702.91
9637	20.397	1.0909	5.e-002	-7.3724
9638	20.397	0.81818	0.	-622.04
9639	20.306	0.90909	0.	-669.47
9640	20.397	0.90909	5.e-002	-7.6705
9641	20.397	0.63636	0.	-593.24
9642	20.306	0.72727	0.	-640.42
9643	20.397	0.72727	5.e-002	-7.8399
9644	20.397	0.45455	0.	-570.08
9645	20.306	0.54545	0.	-616.3
9646	20.397	0.54545	5.e-002	-7.935
9647	20.397	0.27273	0.	-552.38
9648	20.306	0.36364	0.	-597.33
9649	20.397	0.36364	5.e-002	-7.9826
9650	20.306	0.18182	0.	-583.05
9651	20.397	0.18182	5.e-002	-7.7971
9652	20.397	9.0909e-002	0.	-540.93
9653	20.214	5.7273	0.	-627.97
9654	20.122	5.8182	0.	-657.08
9655	20.214	5.8182	5.e-002	-6.9731
9656	20.214	5.9091	0.	-617.51
9657	20.214	5.5455	0.	-643.72
9658	20.122	5.6364	0.	-669.82
9659	20.214	5.6364	5.e-002	-7.4548
9660	20.214	5.3636	0.	-663.87
9661	20.122	5.4545	0.	-686.46
9662	20.214	5.4545	5.e-002	-7.3834
9663	20.214	5.1818	0.	-688.44
9664	20.122	5.2727	0.	-707.17
9665	20.214	5.2727	5.e-002	-7.2298
9666	20.214	5.	0.	-716.97
9667	20.122	5.0909	0.	-731.64
9668	20.214	5.0909	5.e-002	-6.9991
9669	20.214	4.8182	0.	-748.65
9670	20.122	4.9091	0.	-759.29
9671	20.214	4.9091	5.e-002	-6.6633
9672	20.214	4.6364	0.	-782.25
9673	20.122	4.7273	0.	-789.14
9674	20.214	4.7273	5.e-002	-6.2032
9675	20.214	4.4545	0.	-816.22
9676	20.122	4.5455	0.	-819.92
9677	20.214	4.5455	5.e-002	-5.6272
9678	20.214	4.2727	0.	-848.86
9679	20.122	4.3636	0.	-850.16
9680	20.214	4.3636	5.e-002	-4.9835
9681	20.214	4.0909	0.	-878.65
9682	20.122	4.1818	0.	-878.39
9683	20.214	4.1818	5.e-002	-4.3364
9684	20.214	3.9091	0.	-904.52
9685	20.122	4.	0.	-903.47
9686	20.214	4.	5.e-002	-3.7176
9687	20.214	3.7273	0.	-925.92
9688	20.122	3.8182	0.	-924.73
9689	20.214	3.8182	5.e-002	-3.1067
9690	20.214	3.5455	0.	-942.66
9691	20.122	3.6364	0.	-941.86
9692	20.214	3.6364	5.e-002	-2.4764
9693	20.214	3.3636	0.	-954.68
9694	20.122	3.4545	0.	-954.8
9695	20.214	3.4545	5.e-002	-1.8361
9696	20.214	3.1818	0.	-961.92
9697	20.122	3.2727	0.	-963.48
9698	20.214	3.2727	5.e-002	-1.2351
9699	20.214	3.	0.	-964.35
9700	20.122	3.0909	0.	-967.85
9701	20.214	3.0909	5.e-002	-0.78924
9702	20.214	2.8182	0.	-961.92
9703	20.122	2.9091	0.	-967.85
9704	20.214	2.9091	5.e-002	-0.78924
9705	20.214	2.6364	0.	-954.68
9706	20.122	2.7273	0.	-963.48
9707	20.214	2.7273	5.e-002	-1.2351
9708	20.214	2.4545	0.	-942.66
9709	20.122	2.5455	0.	-954.8
9710	20.214	2.5455	5.e-002	-1.8361
9711	20.214	2.2727	0.	-925.92
9712	20.122	2.3636	0.	-941.86
9713	20.214	2.3636	5.e-002	-2.4764
9714	20.214	2.0909	0.	-904.52
9715	20.122	2.1818	0.	-924.73
9716	20.214	2.1818	5.e-002	-3.1067
9717	20.214	1.9091	0.	-878.65
9718	20.122	2.	0.	-903.47
9719	20.214	2.	5.e-002	-3.7176
9720	20.214	1.7273	0.	-848.86
9721	20.122	1.8182	0.	-878.39
9722	20.214	1.8182	5.e-002	-4.3364
9723	20.214	1.5455	0.	-816.22
9724	20.122	1.6364	0.	-850.16
9725	20.214	1.6364	5.e-002	-4.9835
9726	20.214	1.3636	0.	-782.25
9727	20.122	1.4545	0.	-819.92
9728	20.214	1.4545	5.e-002	-5.6272
9729	20.214	1.1818	0.	-748.65
9730	20.122	1.2727	0.	-789.14
9731	20.214	1.2727	5.e-002	-6.2032
9732	20.214	1.	0.	-716.97
9733	20.122	1.0909	0.	-759.29
9734	20.214	1.0909	5.e-002	-6.6633
9735	20.214	0.81818	0.	-688.44
9736	20.122	0.90909	0.	-731.64
9737	20.214	0.90909	5.e-002	-6.9991
9738	20.214	0.63636	0.	-663.87
9739	20.122	0.72727	0.	-707.17
9740	20.214	0.72727	5.e-002	-7.2298
9741	20.214	0.45455	0.	-643.72
9742	20.122	0.54545	0.	-686.46
9743	20.214	0.54545	5.e-002	-7.3834
9744	20.214	0.27273	0.	-627.97
9745	20.122	0.36364	0.	-669.82
9746	20.214	0.36364	5.e-002	-7.4548
9747	20.122	0.18182	0.	-657.08
9748	20.214	0.18182	5.e-002	-6.973
9749	20.214	9.0909e-002	0.	-617.51
9750	20.03	5.7273	0.	-698.85
9751	19.938	5.8182	0.	-726.59
9752	20.03	5.8182	5.e-002	-6.1669
9753	20.03	5.9091	0.	-689.28
9754	20.03	5.5455	0.	-712.64
9755	19.938	5.6364	0.	-737.72
9756	20.03	5.6364	5.e-002	-6.9535
9757	20.03	5.3636	0.	-729.98
9758	19.938	5.4545	0.	-752.12
9759	20.03	5.4545	5.e-002	-6.8829
9760	20.03	5.1818	0.	-750.72
9761	19.938	5.2727	0.	-769.73
9762	20.03	5.2727	5.e-002	-6.7079
9763	20.03	5.	0.	-774.39
9764	19.938	5.0909	0.	-790.17
9765	20.03	5.0909	5.e-002	-6.4639
9766	20.03	4.8182	0.	-800.23
9767	19.938	4.9091	0.	-812.87
9768	20.03	4.9091	5.e-002	-6.14
9769	20.03	4.6364	0.	-827.22
9770	19.938	4.7273	0.	-837.
9771	20.03	4.7273	5.e-002	-5.7328
9772	20.03	4.4545	0.	-854.18
9773	19.938	4.5455	0.	-861.56
9774	20.03	4.5455	5.e-002	-5.2557
9775	20.03	4.2727	0.	-879.9
9776	19.938	4.3636	0.	-885.47
9777	20.03	4.3636	5.e-002	-4.7377
9778	20.03	4.0909	0.	-903.33
9779	19.938	4.1818	0.	-907.7
9780	20.03	4.1818	5.e-002	-4.2111
9781	20.03	3.9091	0.	-923.74
9782	19.938	4.	0.	-927.48
9783	20.03	4.	5.e-002	-3.6922
9784	20.03	3.7273	0.	-940.7
9785	19.938	3.8182	0.	-944.29
9786	20.03	3.8182	5.e-002	-3.1797
9787	20.03	3.5455	0.	-954.02
9788	19.938	3.6364	0.	-957.9
9789	20.03	3.6364	5.e-002	-2.6729
9790	20.03	3.3636	0.	-963.61
9791	19.938	3.4545	0.	-968.2
9792	20.03	3.4545	5.e-002	-2.1933
9793	20.03	3.1818	0.	-969.4
9794	19.938	3.2727	0.	-975.11
9795	20.03	3.2727	5.e-002	-1.7923
9796	20.03	3.	0.	-971.34
9797	19.938	3.0909	0.	-978.59
9798	20.03	3.0909	5.e-002	-1.5516
9799	20.03	2.8182	0.	-969.4
9800	19.938	2.9091	0.	-978.59
9801	20.03	2.9091	5.e-002	-1.5516
9802	20.03	2.6364	0.	-963.61
9803	19.938	2.7273	0.	-975.11
9804	20.03	2.7273	5.e-002	-1.7923
9805	20.03	2.4545	0.	-954.02
9806	19.938	2.5455	0.	-968.2
9807	20.03	2.5455	5.e-002	-2.1933
9808	20.03	2.2727	0.	-940.7
9809	19.938	2.3636	0.	-957.9
9810	20.03	2.3636	5.e-002	-2.6729
9811	20.03	2.0909	0.	-923.74
9812	19.938	2.1818	0.	-944.29
9813	20.03	2.1818	5.e-002	-3.1797
9814	20.03	1.9091	0.	-903.33
9815	19.938	2.	0.	-927.48
9816	20.03	2.	5.e-002	-3.6922
9817	20.03	1.7273	0.	-879.9
9818	19.938	1.8182	0.	-907.7
9819	20.03	1.8182	5.e-002	-4.2111
9820	20.03	1.5455	0.	-854.18
9821	19.938	1.6364	0.	-885.47
9822	20.03	1.6364	5.e-002	-4.7377
9823	20.03	1.3636	0.	-827.22
9824	19.938	1.4545	0.	-861.56
9825	20.03	1.4545	5.e-002	-5.2557
9826	20.03	1.1818	0.	-800.23
9827	19.938	1.2727	0.	-837.
9828	20.03	1.2727	5.e-002	-5.7328
9829	20.03	1.	0.	-774.39
9830	19.938	1.0909	0.	-812.87
9831	20.03	1.0909	5.e-002	-6.14
9832	20.03	0.81818	0.	-750.72
9833	19.938	0.90909	0.	-790.17
9834	20.03	0.90909	5.e-002	-6.4639
9835	20.03	0.63636	0.	-729.98
9836	19.938	0.72727	0.	-769.73
9837	20.03	0.72727	5.e-002	-6.7079
9838	20.03	0.45455	0.	-712.64
9839	19.938	0.54545	0.	-752.12
9840	20.03	0.54545	5.e-002	-6.8829
9841	20.03	0.27273	0.	-698.85
9842	19.938	0.36364	0.	-737.72
9843	20.03	0.36364	5.e-002	-6.9535
9844	19.938	0.18182	0.	-726.59
9845	20.03	0.18182	5.e-002	-6.1669
9846	20.03	9.0909e-002	0.	-689.28
9847	19.846	5.7273	0.	-765.35
9848	19.754	5.8182	0.	-791.95
9849	19.846	5.8182	5.e-002	-5.4109
9850	19.846	5.9091	0.	-756.55
9851	19.846	5.5455	0.	-777.23
9852	19.754	5.6364	0.	-801.46
9853	19.846	5.6364	5.e-002	-6.4984
9854	19.846	5.3636	0.	-792.
9855	19.754	5.4545	0.	-813.79
9856	19.846	5.4545	5.e-002	-6.4457
9857	19.846	5.1818	0.	-809.38
9858	19.754	5.2727	0.	-828.64
9859	19.846	5.2727	5.e-002	-6.2729
9860	19.846	5.	0.	-828.9
9861	19.754	5.0909	0.	-845.6
9862	19.846	5.0909	5.e-002	-6.0414
9863	19.846	4.8182	0.	-849.9
9864	19.754	4.9091	0.	-864.16
9865	19.846	4.9091	5.e-002	-5.7507
9866	19.846	4.6364	0.	-871.59
9867	19.754	4.7273	0.	-883.65
9868	19.846	4.7273	5.e-002	-5.4037
9869	19.846	4.4545	0.	-893.05
9870	19.754	4.5455	0.	-903.28
9871	19.846	4.5455	5.e-002	-5.0121
9872	19.846	4.2727	0.	-913.41
9873	19.754	4.3636	0.	-922.26
9874	19.846	4.3636	5.e-002	-4.5946
9875	19.846	4.0909	0.	-931.94
9876	19.754	4.1818	0.	-939.86
9877	19.846	4.1818	5.e-002	-4.1697
9878	19.846	3.9091	0.	-948.08
9879	19.754	4.	0.	-955.51
9880	19.846	4.	5.e-002	-3.7491
9881	19.846	3.7273	0.	-961.53
9882	19.754	3.8182	0.	-968.84
9883	19.846	3.8182	5.e-002	-3.3389
9884	19.846	3.5455	0.	-972.1
9885	19.754	3.6364	0.	-979.64
9886	19.846	3.6364	5.e-002	-2.9483
9887	19.846	3.3636	0.	-979.71
9888	19.754	3.4545	0.	-987.81
9889	19.846	3.4545	5.e-002	-2.5988
9890	19.846	3.1818	0.	-984.3
9891	19.754	3.2727	0.	-993.29
9892	19.846	3.2727	5.e-002	-2.3263
9893	19.846	3.	0.	-985.84
9894	19.754	3.0909	0.	-996.04
9895	19.846	3.0909	5.e-002	-2.1741
9896	19.846	2.8182	0.	-984.3
9897	19.754	2.9091	0.	-996.04
9898	19.846	2.9091	5.e-002	-2.1741
9899	19.846	2.6364	0.	-979.71
9900	19.754	2.7273	0.	-993.29
9901	19.846	2.7273	5.e-002	-2.3263
9902	19.846	2.4545	0.	-972.1
9903	19.754	2.5455	0.	-987.81
9904	19.846	2.5455	5.e-002	-2.5988
9905	19.846	2.2727	0.	-961.53
9906	19.754	2.3636	0.	-979.64
9907	19.846	2.3636	5.e-002	-2.9483
9908	19.846	2.0909	0.	-948.08
9909	19.754	2.1818	0.	-968.84
9910	19.846	2.1818	5.e-002	-3.3389
9911	19.846	1.9091	0.	-931.94
9912	19.754	2.	0.	-955.51
9913	19.846	2.	5.e-002	-3.7491
9914	19.846	1.7273	0.	-913.41
9915	19.754	1.8182	0.	-939.86
9916	19.846	1.8182	5.e-002	-4.1697
9917	19.846	1.5455	0.	-893.05
9918	19.754	1.6364	0.	-922.26
9919	19.846	1.6364	5.e-002	-4.5946
9920	19.846	1.3636	0.	-871.59
9921	19.754	1.4545	0.	-903.28
9922	19.846	1.4545	5.e-002	-5.0121
9923	19.846	1.1818	0.	-849.9
9924	19.754	1.2727	0.	-883.65
9925	19.846	1.2727	5.e-002	-5.4037
9926	19.846	1.	0.	-828.9
9927	19.754	1.0909	0.	-864.16
9928	19.846	1.0909	5.e-002	-5.7507
9929	19.846	0.81818	0.	-809.38
9930	19.754	0.90909	0.	-845.6
9931	19.846	0.90909	5.e-002	-6.0414
9932	19.846	0.63636	0.	-792.
9933	19.754	0.72727	0.	-828.64
9934	19.846	0.72727	5.e-002	-6.2729
9935	19.846	0.45455	0.	-777.23
9936	19.754	0.54545	0.	-813.79
9937	19.846	0.54545	5.e-002	-6.4456
9938	19.846	0.27273	0.	-765.35
9939	19.754	0.36364	0.	-801.46
9940	19.846	0.36364	5.e-002	-6.4984
9941	19.754	0.18182	0.	-791.95
9942	19.846	0.18182	5.e-002	-5.4109
9943	19.846	9.0909e-002	0.	-756.55
9944	19.662	5.7273	0.	-827.94
9945	19.571	5.8182	0.	-853.62
9946	19.662	5.8182	5.e-002	-4.7225
9947	19.662	5.9091	0.	-819.81
9948	19.662	5.5455	0.	-838.03
9949	19.571	5.6364	0.	-861.59
9950	19.662	5.6364	5.e-002	-6.0982
9951	19.662	5.3636	0.	-850.5
9952	19.571	5.4545	0.	-872.04
9953	19.662	5.4545	5.e-002	-6.0731
9954	19.662	5.1818	0.	-864.98
9955	19.571	5.2727	0.	-884.48
9956	19.662	5.2727	5.e-002	-5.9156
9957	19.662	5.	0.	-881.01
9958	19.571	5.0909	0.	-898.49
9959	19.662	5.0909	5.e-002	-5.7088
9960	19.662	4.8182	0.	-898.06
9961	19.571	4.9091	0.	-913.64
9962	19.662	4.9091	5.e-002	-5.458
9963	19.662	4.6364	0.	-915.49
9964	19.571	4.7273	0.	-929.37
9965	19.662	4.7273	5.e-002	-5.1682
9966	19.662	4.4545	0.	-932.62
9967	19.571	4.5455	0.	-945.09
9968	19.662	4.5455	5.e-002	-4.849
9969	19.662	4.2727	0.	-948.8
9970	19.571	4.3636	0.	-960.21
9971	19.662	4.3636	5.e-002	-4.513
9972	19.662	4.0909	0.	-963.49
9973	19.571	4.1818	0.	-974.19
9974	19.662	4.1818	5.e-002	-4.1724
9975	19.662	3.9091	0.	-976.3
9976	19.571	4.	0.	-986.61
9977	19.662	4.	5.e-002	-3.8371
9978	19.662	3.7273	0.	-986.97
9979	19.571	3.8182	0.	-997.19
9980	19.662	3.8182	5.e-002	-3.5151
9981	19.662	3.5455	0.	-995.36
9982	19.571	3.6364	0.	-1005.8
9983	19.662	3.6364	5.e-002	-3.2174
9984	19.662	3.3636	0.	-1001.4
9985	19.571	3.4545	0.	-1012.2
9986	19.662	3.4545	5.e-002	-2.961
9987	19.662	3.1818	0.	-1005.
9988	19.571	3.2727	0.	-1016.6
9989	19.662	3.2727	5.e-002	-2.7691
9990	19.662	3.	0.	-1006.2
9991	19.571	3.0909	0.	-1018.8
9992	19.662	3.0909	5.e-002	-2.6654
9993	19.662	2.8182	0.	-1005.
9994	19.571	2.9091	0.	-1018.8
9995	19.662	2.9091	5.e-002	-2.6654
9996	19.662	2.6364	0.	-1001.4
9997	19.571	2.7273	0.	-1016.6
9998	19.662	2.7273	5.e-002	-2.7691
9999	19.662	2.4545	0.	-995.36
10000	19.571	2.5455	0.	-1012.2
10001	19.662	2.5455	5.e-002	-2.961
10002	19.662	2.2727	0.	-986.97
10003	19.571	2.3636	0.	-1005.8
10004	19.662	2.3636	5.e-002	-3.2174
10005	19.662	2.0909	0.	-976.3
10006	19.571	2.1818	0.	-997.19
10007	19.662	2.1818	5.e-002	-3.5151
10008	19.662	1.9091	0.	-963.49
10009	19.571	2.	0.	-986.61
10010	19.662	2.	5.e-002	-3.8371
10011	19.662	1.7273	0.	-948.8
10012	19.571	1.8182	0.	-974.19
10013	19.662	1.8182	5.e-002	-4.1724
10014	19.662	1.5455	0.	-932.62
10015	19.571	1.6364	0.	-960.21
10016	19.662	1.6364	5.e-002	-4.513
10017	19.662	1.3636	0.	-915.49
10018	19.571	1.4545	0.	-945.09
10019	19.662	1.4545	5.e-002	-4.849
10020	19.662	1.1818	0.	-898.06
10021	19.571	1.2727	0.	-929.37
10022	19.662	1.2727	5.e-002	-5.1682
10023	19.662	1.	0.	-881.01
10024	19.571	1.0909	0.	-913.64
10025	19.662	1.0909	5.e-002	-5.458
10026	19.662	0.81818	0.	-864.98
10027	19.571	0.90909	0.	-898.49
10028	19.662	0.90909	5.e-002	-5.7088
10029	19.662	0.63636	0.	-850.5
10030	19.571	0.72727	0.	-884.48
10031	19.662	0.72727	5.e-002	-5.9156
10032	19.662	0.45455	0.	-838.03
10033	19.571	0.54545	0.	-872.04
10034	19.662	0.54545	5.e-002	-6.0731
10035	19.662	0.27273	0.	-827.94
10036	19.571	0.36364	0.	-861.59
10037	19.662	0.36364	5.e-002	-6.0982
10038	19.571	0.18182	0.	-853.62
10039	19.662	0.18182	5.e-002	-4.7225
10040	19.662	9.0909e-002	0.	-819.81
10041	19.479	5.7273	0.	-887.13
10042	19.387	5.8182	0.	-912.1
10043	19.479	5.8182	5.e-002	-4.1084
10044	19.479	5.9091	0.	-879.59
10045	19.479	5.5455	0.	-895.59
10046	19.387	5.6364	0.	-918.64
10047	19.479	5.6364	5.e-002	-5.7542
10048	19.479	5.3636	0.	-906.05
10049	19.387	5.4545	0.	-927.43
10050	19.479	5.4545	5.e-002	-5.761
10051	19.479	5.1818	0.	-918.05
10052	19.387	5.2727	0.	-937.79
10053	19.479	5.2727	5.e-002	-5.6248
10054	19.479	5.	0.	-931.2
10055	19.387	5.0909	0.	-949.33
10056	19.479	5.0909	5.e-002	-5.4468
10057	19.479	4.8182	0.	-945.03
10058	19.387	4.9091	0.	-961.68
10059	19.479	4.9091	5.e-002	-5.2358
10060	19.479	4.6364	0.	-959.06
10061	19.387	4.7273	0.	-974.39
10062	19.479	4.7273	5.e-002	-4.997
10063	19.479	4.4545	0.	-972.76
10064	19.387	4.5455	0.	-987.
10065	19.479	4.5455	5.e-002	-4.7381
10066	19.479	4.2727	0.	-985.65
10067	19.387	4.3636	0.	-999.07
10068	19.479	4.3636	5.e-002	-4.4683
10069	19.479	4.0909	0.	-997.34
10070	19.387	4.1818	0.	-1010.2
10071	19.479	4.1818	5.e-002	-4.1967
10072	19.479	3.9091	0.	-1007.5
10073	19.387	4.	0.	-1020.1
10074	19.479	4.	5.e-002	-3.9314
10075	19.479	3.7273	0.	-1016.
10076	19.387	3.8182	0.	-1028.5
10077	19.479	3.8182	5.e-002	-3.6804
10078	19.479	3.5455	0.	-1022.7
10079	19.387	3.6364	0.	-1035.3
10080	19.479	3.6364	5.e-002	-3.4535
10081	19.479	3.3636	0.	-1027.4
10082	19.387	3.4545	0.	-1040.5
10083	19.479	3.4545	5.e-002	-3.2632
10084	19.479	3.1818	0.	-1030.3
10085	19.387	3.2727	0.	-1043.9
10086	19.479	3.2727	5.e-002	-3.1242
10087	19.479	3.	0.	-1031.3
10088	19.387	3.0909	0.	-1045.7
10089	19.479	3.0909	5.e-002	-3.0505
10090	19.479	2.8182	0.	-1030.3
10091	19.387	2.9091	0.	-1045.7
10092	19.479	2.9091	5.e-002	-3.0505
10093	19.479	2.6364	0.	-1027.4
10094	19.387	2.7273	0.	-1043.9
10095	19.479	2.7273	5.e-002	-3.1242
10096	19.479	2.4545	0.	-1022.7
10097	19.387	2.5455	0.	-1040.5
10098	19.479	2.5455	5.e-002	-3.2632
10099	19.479	2.2727	0.	-1016.
10100	19.387	2.3636	0.	-1035.3
10101	19.479	2.3636	5.e-002	-3.4535
10102	19.479	2.0909	0.	-1007.5
10103	19.387	2.1818	0.	-1028.5
10104	19.479	2.1818	5.e-002	-3.6804
10105	19.479	1.9091	0.	-997.34
10106	19.387	2.	0.	-1020.1
10107	19.479	2.	5.e-002	-3.9314
10108	19.479	1.7273	0.	-985.65
10109	19.387	1.8182	0.	-1010.2
10110	19.479	1.8182	5.e-002	-4.1967
10111	19.479	1.5455	0.	-972.76
10112	19.387	1.6364	0.	-999.07
10113	19.479	1.6364	5.e-002	-4.4683
10114	19.479	1.3636	0.	-959.06
10115	19.387	1.4545	0.	-987.
10116	19.479	1.4545	5.e-002	-4.7381
10117	19.479	1.1818	0.	-945.03
10118	19.387	1.2727	0.	-974.39
10119	19.479	1.2727	5.e-002	-4.997
10120	19.479	1.	0.	-931.2
10121	19.387	1.0909	0.	-961.68
10122	19.479	1.0909	5.e-002	-5.2358
10123	19.479	0.81818	0.	-918.05
10124	19.387	0.90909	0.	-949.33
10125	19.479	0.90909	5.e-002	-5.4468
10126	19.479	0.63636	0.	-906.05
10127	19.387	0.72727	0.	-937.79
10128	19.479	0.72727	5.e-002	-5.6247
10129	19.479	0.45455	0.	-895.59
10130	19.387	0.54545	0.	-927.43
10131	19.479	0.54545	5.e-002	-5.761
10132	19.479	0.27273	0.	-887.13
10133	19.387	0.36364	0.	-918.64
10134	19.479	0.36364	5.e-002	-5.7542
10135	19.387	0.18182	0.	-912.1
10136	19.479	0.18182	5.e-002	-4.1084
10137	19.479	9.0909e-002	0.	-879.59
10138	19.295	5.7273	0.	-943.46
10139	19.203	5.8182	0.	-967.89
10140	19.295	5.8182	5.e-002	-3.5685
10141	19.295	5.9091	0.	-936.42
10142	19.295	5.5455	0.	-950.46
10143	19.203	5.6364	0.	-973.14
10144	19.295	5.6364	5.e-002	-5.4636
10145	19.295	5.3636	0.	-959.18
10146	19.203	5.4545	0.	-980.48
10147	19.295	5.4545	5.e-002	-5.503
10148	19.295	5.1818	0.	-969.1
10149	19.203	5.2727	0.	-989.07
10150	19.295	5.2727	5.e-002	-5.3895
10151	19.295	5.	0.	-979.85
10152	19.203	5.0909	0.	-998.55
10153	19.295	5.0909	5.e-002	-5.2402
10154	19.295	4.8182	0.	-991.08
10155	19.203	4.9091	0.	-1008.6
10156	19.295	4.9091	5.e-002	-5.0656
10157	19.295	4.6364	0.	-1002.4
10158	19.203	4.7273	0.	-1018.9
10159	19.295	4.7273	5.e-002	-4.8707
10160	19.295	4.4545	0.	-1013.4
10161	19.203	4.5455	0.	-1029.
10162	19.295	4.5455	5.e-002	-4.6618
10163	19.295	4.2727	0.	-1023.7
10164	19.203	4.3636	0.	-1038.7
10165	19.295	4.3636	5.e-002	-4.4458
10166	19.295	4.0909	0.	-1033.
10167	19.203	4.1818	0.	-1047.6
10168	19.295	4.1818	5.e-002	-4.2299
10169	19.295	3.9091	0.	-1041.1
10170	19.203	4.	0.	-1055.5
10171	19.295	4.	5.e-002	-4.0208
10172	19.295	3.7273	0.	-1047.8
10173	19.203	3.8182	0.	-1062.2
10174	19.295	3.8182	5.e-002	-3.8254
10175	19.295	3.5455	0.	-1053.1
10176	19.203	3.6364	0.	-1067.6
10177	19.295	3.6364	5.e-002	-3.6517
10178	19.295	3.3636	0.	-1057.
10179	19.203	3.4545	0.	-1071.7
10180	19.295	3.4545	5.e-002	-3.5088
10181	19.295	3.1818	0.	-1059.2
10182	19.203	3.2727	0.	-1074.4
10183	19.295	3.2727	5.e-002	-3.4062
10184	19.295	3.	0.	-1060.
10185	19.203	3.0909	0.	-1075.8
10186	19.295	3.0909	5.e-002	-3.3524
10187	19.295	2.8182	0.	-1059.2
10188	19.203	2.9091	0.	-1075.8
10189	19.295	2.9091	5.e-002	-3.3524
10190	19.295	2.6364	0.	-1057.
10191	19.203	2.7273	0.	-1074.4
10192	19.295	2.7273	5.e-002	-3.4062
10193	19.295	2.4545	0.	-1053.1
10194	19.203	2.5455	0.	-1071.7
10195	19.295	2.5455	5.e-002	-3.5087
10196	19.295	2.2727	0.	-1047.8
10197	19.203	2.3636	0.	-1067.6
10198	19.295	2.3636	5.e-002	-3.6517
10199	19.295	2.0909	0.	-1041.1
10200	19.203	2.1818	0.	-1062.2
10201	19.295	2.1818	5.e-002	-3.8254
10202	19.295	1.9091	0.	-1033.
10203	19.203	2.	0.	-1055.5
10204	19.295	2.	5.e-002	-4.0208
10205	19.295	1.7273	0.	-1023.7
10206	19.203	1.8182	0.	-1047.6
10207	19.295	1.8182	5.e-002	-4.2299
10208	19.295	1.5455	0.	-1013.4
10209	19.203	1.6364	0.	-1038.7
10210	19.295	1.6364	5.e-002	-4.4458
10211	19.295	1.3636	0.	-1002.4
10212	19.203	1.4545	0.	-1029.
10213	19.295	1.4545	5.e-002	-4.6618
10214	19.295	1.1818	0.	-991.08
10215	19.203	1.2727	0.	-1018.9
10216	19.295	1.2727	5.e-002	-4.8707
10217	19.295	1.	0.	-979.85
10218	19.203	1.0909	0.	-1008.6
10219	19.295	1.0909	5.e-002	-5.0656
10220	19.295	0.81818	0.	-969.1
10221	19.203	0.90909	0.	-998.55
10222	19.295	0.90909	5.e-002	-5.2402
10223	19.295	0.63636	0.	-959.18
10224	19.203	0.72727	0.	-989.07
10225	19.295	0.72727	5.e-002	-5.3895
10226	19.295	0.45455	0.	-950.46
10227	19.203	0.54545	0.	-980.48
10228	19.295	0.54545	5.e-002	-5.503
10229	19.295	0.27273	0.	-943.46
10230	19.203	0.36364	0.	-973.14
10231	19.295	0.36364	5.e-002	-5.4636
10232	19.203	0.18182	0.	-967.89
10233	19.295	0.18182	5.e-002	-3.5685
10234	19.295	9.0909e-002	0.	-936.42
10235	19.111	5.7273	0.	-997.41
10236	19.019	5.8182	0.	-1021.4
10237	19.111	5.8182	5.e-002	-3.0984
10238	19.111	5.9091	0.	-990.78
10239	19.111	5.5455	0.	-1003.1
10240	19.019	5.6364	0.	-1025.5
10241	19.111	5.6364	5.e-002	-5.2215
10242	19.111	5.3636	0.	-1010.4
10243	19.019	5.4545	0.	-1031.6
10244	19.111	5.4545	5.e-002	-5.2918
10245	19.111	5.1818	0.	-1018.5
10246	19.019	5.2727	0.	-1038.7
10247	19.111	5.2727	5.e-002	-5.2001
10248	19.111	5.	0.	-1027.3
10249	19.019	5.0909	0.	-1046.5
10250	19.111	5.0909	5.e-002	-5.0772
10251	19.111	4.8182	0.	-1036.4
10252	19.019	4.9091	0.	-1054.7
10253	19.111	4.9091	5.e-002	-4.9346
10254	19.111	4.6364	0.	-1045.5
10255	19.019	4.7273	0.	-1063.
10256	19.111	4.7273	5.e-002	-4.7767
10257	19.111	4.4545	0.	-1054.4
10258	19.019	4.5455	0.	-1071.2
10259	19.111	4.5455	5.e-002	-4.6089
10260	19.111	4.2727	0.	-1062.6
10261	19.019	4.3636	0.	-1078.9
10262	19.111	4.3636	5.e-002	-4.4365
10263	19.111	4.0909	0.	-1070.1
10264	19.019	4.1818	0.	-1086.
10265	19.111	4.1818	5.e-002	-4.2652
10266	19.111	3.9091	0.	-1076.5
10267	19.019	4.	0.	-1092.3
10268	19.111	4.	5.e-002	-4.1006
10269	19.111	3.7273	0.	-1081.9
10270	19.019	3.8182	0.	-1097.7
10271	19.111	3.8182	5.e-002	-3.9484
10272	19.111	3.5455	0.	-1086.2
10273	19.019	3.6364	0.	-1102.
10274	19.111	3.6364	5.e-002	-3.8149
10275	19.111	3.3636	0.	-1089.2
10276	19.019	3.4545	0.	-1105.3
10277	19.111	3.4545	5.e-002	-3.7064
10278	19.111	3.1818	0.	-1091.
10279	19.019	3.2727	0.	-1107.5
10280	19.111	3.2727	5.e-002	-3.6295
10281	19.111	3.	0.	-1091.6
10282	19.019	3.0909	0.	-1108.6
10283	19.111	3.0909	5.e-002	-3.5895
10284	19.111	2.8182	0.	-1091.
10285	19.019	2.9091	0.	-1108.6
10286	19.111	2.9091	5.e-002	-3.5895
10287	19.111	2.6364	0.	-1089.2
10288	19.019	2.7273	0.	-1107.5
10289	19.111	2.7273	5.e-002	-3.6295
10290	19.111	2.4545	0.	-1086.2
10291	19.019	2.5455	0.	-1105.3
10292	19.111	2.5455	5.e-002	-3.7064
10293	19.111	2.2727	0.	-1081.9
10294	19.019	2.3636	0.	-1102.
10295	19.111	2.3636	5.e-002	-3.8148
10296	19.111	2.0909	0.	-1076.5
10297	19.019	2.1818	0.	-1097.7
10298	19.111	2.1818	5.e-002	-3.9484
10299	19.111	1.9091	0.	-1070.1
10300	19.019	2.	0.	-1092.3
10301	19.111	2.	5.e-002	-4.1006
10302	19.111	1.7273	0.	-1062.6
10303	19.019	1.8182	0.	-1086.
10304	19.111	1.8182	5.e-002	-4.2652
10305	19.111	1.5455	0.	-1054.4
10306	19.019	1.6364	0.	-1078.9
10307	19.111	1.6364	5.e-002	-4.4365
10308	19.111	1.3636	0.	-1045.5
10309	19.019	1.4545	0.	-1071.2
10310	19.111	1.4545	5.e-002	-4.6089
10311	19.111	1.1818	0.	-1036.4
10312	19.019	1.2727	0.	-1063.
10313	19.111	1.2727	5.e-002	-4.7767
10314	19.111	1.	0.	-1027.3
10315	19.019	1.0909	0.	-1054.7
10316	19.111	1.0909	5.e-002	-4.9345
10317	19.111	0.81818	0.	-1018.5
10318	19.019	0.90909	0.	-1046.5
10319	19.111	0.90909	5.e-002	-5.0772
10320	19.111	0.63636	0.	-1010.4
10321	19.019	0.72727	0.	-1038.7
10322	19.111	0.72727	5.e-002	-5.2001
10323	19.111	0.45455	0.	-1003.1
10324	19.019	0.54545	0.	-1031.6
10325	19.111	0.54545	5.e-002	-5.2917
10326	19.111	0.27273	0.	-997.41
10327	19.019	0.36364	0.	-1025.5
10328	19.111	0.36364	5.e-002	-5.2214
10329	19.019	0.18182	0.	-1021.4
10330	19.111	0.18182	5.e-002	-3.0984
10331	19.111	9.0909e-002	0.	-990.78
10332	18.927	5.7273	0.	-1049.4
10333	18.835	5.8182	0.	-1073.1
10334	18.927	5.8182	5.e-002	-2.6918
10335	18.927	5.9091	0.	-1043.1
10336	18.927	5.5455	0.	-1054.
10337	18.835	5.6364	0.	-1076.2
10338	18.927	5.6364	5.e-002	-5.0219
10339	18.927	5.3636	0.	-1060.
10340	18.835	5.4545	0.	-1081.3
10341	18.927	5.4545	5.e-002	-5.1204
10342	18.927	5.1818	0.	-1066.7
10343	18.835	5.2727	0.	-1087.1
10344	18.927	5.2727	5.e-002	-5.0485
10345	18.927	5.	0.	-1073.9
10346	18.835	5.0909	0.	-1093.5
10347	18.927	5.0909	5.e-002	-4.9488
10348	18.927	4.8182	0.	-1081.3
10349	18.835	4.9091	0.	-1100.1
10350	18.927	4.9091	5.e-002	-4.8334
10351	18.927	4.6364	0.	-1088.6
10352	18.835	4.7273	0.	-1106.9
10353	18.927	4.7273	5.e-002	-4.7064
10354	18.927	4.4545	0.	-1095.7
10355	18.835	4.5455	0.	-1113.4
10356	18.927	4.5455	5.e-002	-4.5721
10357	18.927	4.2727	0.	-1102.3
10358	18.835	4.3636	0.	-1119.7
10359	18.927	4.3636	5.e-002	-4.4348
10360	18.927	4.0909	0.	-1108.3
10361	18.835	4.1818	0.	-1125.4
10362	18.927	4.1818	5.e-002	-4.2992
10363	18.927	3.9091	0.	-1113.5
10364	18.835	4.	0.	-1130.4
10365	18.927	4.	5.e-002	-4.1698
10366	18.927	3.7273	0.	-1117.8
10367	18.835	3.8182	0.	-1134.7
10368	18.927	3.8182	5.e-002	-4.0511
10369	18.927	3.5455	0.	-1121.2
10370	18.835	3.6364	0.	-1138.2
10371	18.927	3.6364	5.e-002	-3.9479
10372	18.927	3.3636	0.	-1123.6
10373	18.835	3.4545	0.	-1140.8
10374	18.927	3.4545	5.e-002	-3.8649
10375	18.927	3.1818	0.	-1125.1
10376	18.835	3.2727	0.	-1142.6
10377	18.927	3.2727	5.e-002	-3.8066
10378	18.927	3.	0.	-1125.5
10379	18.835	3.0909	0.	-1143.4
10380	18.927	3.0909	5.e-002	-3.7765
10381	18.927	2.8182	0.	-1125.1
10382	18.835	2.9091	0.	-1143.4
10383	18.927	2.9091	5.e-002	-3.7765
10384	18.927	2.6364	0.	-1123.6
10385	18.835	2.7273	0.	-1142.6
10386	18.927	2.7273	5.e-002	-3.8066
10387	18.927	2.4545	0.	-1121.2
10388	18.835	2.5455	0.	-1140.8
10389	18.927	2.5455	5.e-002	-3.8649
10390	18.927	2.2727	0.	-1117.8
10391	18.835	2.3636	0.	-1138.2
10392	18.927	2.3636	5.e-002	-3.9478
10393	18.927	2.0909	0.	-1113.5
10394	18.835	2.1818	0.	-1134.7
10395	18.927	2.1818	5.e-002	-4.0511
10396	18.927	1.9091	0.	-1108.3
10397	18.835	2.	0.	-1130.4
10398	18.927	2.	5.e-002	-4.1698
10399	18.927	1.7273	0.	-1102.3
10400	18.835	1.8182	0.	-1125.4
10401	18.927	1.8182	5.e-002	-4.2992
10402	18.927	1.5455	0.	-1095.7
10403	18.835	1.6364	0.	-1119.7
10404	18.927	1.6364	5.e-002	-4.4348
10405	18.927	1.3636	0.	-1088.6
10406	18.835	1.4545	0.	-1113.4
10407	18.927	1.4545	5.e-002	-4.5721
10408	18.927	1.1818	0.	-1081.3
10409	18.835	1.2727	0.	-1106.9
10410	18.927	1.2727	5.e-002	-4.7064
10411	18.927	1.	0.	-1073.9
10412	18.835	1.0909	0.	-1100.1
10413	18.927	1.0909	5.e-002	-4.8334
10414	18.927	0.81818	0.	-1066.7
10415	18.835	0.90909	0.	-1093.5
10416	18.927	0.90909	5.e-002	-4.9488
10417	18.927	0.63636	0.	-1060.
10418	18.835	0.72727	0.	-1087.1
10419	18.927	0.72727	5.e-002	-5.0486
10420	18.927	0.45455	0.	-1054.
10421	18.835	0.54545	0.	-1081.3
10422	18.927	0.54545	5.e-002	-5.1204
10423	18.927	0.27273	0.	-1049.4
10424	18.835	0.36364	0.	-1076.2
10425	18.927	0.36364	5.e-002	-5.0219
10426	18.835	0.18182	0.	-1073.1
10427	18.927	0.18182	5.e-002	-2.6918
10428	18.927	9.0909e-002	0.	-1043.1
10429	18.744	5.7273	0.	-1099.8
10430	18.652	5.8182	0.	-1123.3
10431	18.744	5.8182	5.e-002	-2.3414
10432	18.744	5.9091	0.	-1093.8
10433	18.744	5.5455	0.	-1103.4
10434	18.652	5.6364	0.	-1125.6
10435	18.744	5.6364	5.e-002	-4.859
10436	18.744	5.3636	0.	-1108.3
10437	18.652	5.4545	0.	-1129.7
10438	18.744	5.4545	5.e-002	-4.9826
10439	18.744	5.1818	0.	-1113.8
10440	18.652	5.2727	0.	-1134.5
10441	18.744	5.2727	5.e-002	-4.9279
10442	18.744	5.	0.	-1119.7
10443	18.652	5.0909	0.	-1139.7
10444	18.744	5.0909	5.e-002	-4.8479
10445	18.744	4.8182	0.	-1125.7
10446	18.652	4.9091	0.	-1145.1
10447	18.744	4.9091	5.e-002	-4.7553
10448	18.744	4.6364	0.	-1131.7
10449	18.652	4.7273	0.	-1150.5
10450	18.744	4.7273	5.e-002	-4.6537
10451	18.744	4.4545	0.	-1137.4
10452	18.652	4.5455	0.	-1155.9
10453	18.744	4.5455	5.e-002	-4.5467
10454	18.744	4.2727	0.	-1142.7
10455	18.652	4.3636	0.	-1160.9
10456	18.744	4.3636	5.e-002	-4.4377
10457	18.744	4.0909	0.	-1147.5
10458	18.652	4.1818	0.	-1165.5
10459	18.744	4.1818	5.e-002	-4.3305
10460	18.744	3.9091	0.	-1151.7
10461	18.652	4.	0.	-1169.5
10462	18.744	4.	5.e-002	-4.2287
10463	18.744	3.7273	0.	-1155.1
10464	18.652	3.8182	0.	-1173.
10465	18.744	3.8182	5.e-002	-4.1359
10466	18.744	3.5455	0.	-1157.8
10467	18.652	3.6364	0.	-1175.8
10468	18.744	3.6364	5.e-002	-4.0559
10469	18.744	3.3636	0.	-1159.8
10470	18.652	3.4545	0.	-1177.9
10471	18.744	3.4545	5.e-002	-3.992
10472	18.744	3.1818	0.	-1160.9
10473	18.652	3.2727	0.	-1179.3
10474	18.744	3.2727	5.e-002	-3.9474
10475	18.744	3.	0.	-1161.3
10476	18.652	3.0909	0.	-1180.
10477	18.744	3.0909	5.e-002	-3.9245
10478	18.744	2.8182	0.	-1160.9
10479	18.652	2.9091	0.	-1180.
10480	18.744	2.9091	5.e-002	-3.9245
10481	18.744	2.6364	0.	-1159.8
10482	18.652	2.7273	0.	-1179.3
10483	18.744	2.7273	5.e-002	-3.9474
10484	18.744	2.4545	0.	-1157.8
10485	18.652	2.5455	0.	-1177.9
10486	18.744	2.5455	5.e-002	-3.992
10487	18.744	2.2727	0.	-1155.1
10488	18.652	2.3636	0.	-1175.8
10489	18.744	2.3636	5.e-002	-4.0559
10490	18.744	2.0909	0.	-1151.7
10491	18.652	2.1818	0.	-1173.
10492	18.744	2.1818	5.e-002	-4.1359
10493	18.744	1.9091	0.	-1147.5
10494	18.652	2.	0.	-1169.5
10495	18.744	2.	5.e-002	-4.2287
10496	18.744	1.7273	0.	-1142.7
10497	18.652	1.8182	0.	-1165.5
10498	18.744	1.8182	5.e-002	-4.3305
10499	18.744	1.5455	0.	-1137.4
10500	18.652	1.6364	0.	-1160.9
10501	18.744	1.6364	5.e-002	-4.4377
10502	18.744	1.3636	0.	-1131.7
10503	18.652	1.4545	0.	-1155.9
10504	18.744	1.4545	5.e-002	-4.5467
10505	18.744	1.1818	0.	-1125.7
10506	18.652	1.2727	0.	-1150.5
10507	18.744	1.2727	5.e-002	-4.6537
10508	18.744	1.	0.	-1119.7
10509	18.652	1.0909	0.	-1145.1
10510	18.744	1.0909	5.e-002	-4.7553
10511	18.744	0.81818	0.	-1113.8
10512	18.652	0.90909	0.	-1139.7
10513	18.744	0.90909	5.e-002	-4.8479
10514	18.744	0.63636	0.	-1108.3
10515	18.652	0.72727	0.	-1134.5
10516	18.744	0.72727	5.e-002	-4.9279
10517	18.744	0.45455	0.	-1103.4
10518	18.652	0.54545	0.	-1129.7
10519	18.744	0.54545	5.e-002	-4.9826
10520	18.744	0.27273	0.	-1099.8
10521	18.652	0.36364	0.	-1125.6
10522	18.744	0.36364	5.e-002	-4.859
10523	18.652	0.18182	0.	-1123.3
10524	18.744	0.18182	5.e-002	-2.3414
10525	18.744	9.0909e-002	0.	-1093.8
10526	18.56	5.7273	0.	-1149.
10527	18.468	5.8182	0.	-1172.4
10528	18.56	5.8182	5.e-002	-2.0401
10529	18.56	5.9091	0.	-1143.2
10530	18.56	5.5455	0.	-1151.8
10531	18.468	5.6364	0.	-1173.9
10532	18.56	5.6364	5.e-002	-4.7272
10533	18.56	5.3636	0.	-1155.8
10534	18.468	5.4545	0.	-1177.2
10535	18.56	5.4545	5.e-002	-4.8727
10536	18.56	5.1818	0.	-1160.3
10537	18.468	5.2727	0.	-1181.1
10538	18.56	5.2727	5.e-002	-4.8325
10539	18.56	5.	0.	-1165.
10540	18.468	5.0909	0.	-1185.3
10541	18.56	5.0909	5.e-002	-4.7691
10542	18.56	4.8182	0.	-1169.9
10543	18.468	4.9091	0.	-1189.7
10544	18.56	4.9091	5.e-002	-4.6953
10545	18.56	4.6364	0.	-1174.7
10546	18.468	4.7273	0.	-1194.1
10547	18.56	4.7273	5.e-002	-4.6145
10548	18.56	4.4545	0.	-1179.3
10549	18.468	4.5455	0.	-1198.4
10550	18.56	4.5455	5.e-002	-4.5294
10551	18.56	4.2727	0.	-1183.6
10552	18.468	4.3636	0.	-1202.5
10553	18.56	4.3636	5.e-002	-4.4431
10554	18.56	4.0909	0.	-1187.5
10555	18.468	4.1818	0.	-1206.2
10556	18.56	4.1818	5.e-002	-4.3585
10557	18.56	3.9091	0.	-1190.8
10558	18.468	4.	0.	-1209.4
10559	18.56	4.	5.e-002	-4.2785
10560	18.56	3.7273	0.	-1193.6
10561	18.468	3.8182	0.	-1212.2
10562	18.56	3.8182	5.e-002	-4.2059
10563	18.56	3.5455	0.	-1195.8
10564	18.468	3.6364	0.	-1214.5
10565	18.56	3.6364	5.e-002	-4.1437
10566	18.56	3.3636	0.	-1197.3
10567	18.468	3.4545	0.	-1216.2
10568	18.56	3.4545	5.e-002	-4.0942
10569	18.56	3.1818	0.	-1198.3
10570	18.468	3.2727	0.	-1217.3
10571	18.56	3.2727	5.e-002	-4.0599
10572	18.56	3.	0.	-1198.6
10573	18.468	3.0909	0.	-1217.8
10574	18.56	3.0909	5.e-002	-4.0423
10575	18.56	2.8182	0.	-1198.3
10576	18.468	2.9091	0.	-1217.8
10577	18.56	2.9091	5.e-002	-4.0423
10578	18.56	2.6364	0.	-1197.3
10579	18.468	2.7273	0.	-1217.3
10580	18.56	2.7273	5.e-002	-4.0599
10581	18.56	2.4545	0.	-1195.8
10582	18.468	2.5455	0.	-1216.2
10583	18.56	2.5455	5.e-002	-4.0942
10584	18.56	2.2727	0.	-1193.6
10585	18.468	2.3636	0.	-1214.5
10586	18.56	2.3636	5.e-002	-4.1437
10587	18.56	2.0909	0.	-1190.8
10588	18.468	2.1818	0.	-1212.2
10589	18.56	2.1818	5.e-002	-4.2059
10590	18.56	1.9091	0.	-1187.5
10591	18.468	2.	0.	-1209.4
10592	18.56	2.	5.e-002	-4.2784
10593	18.56	1.7273	0.	-1183.6
10594	18.468	1.8182	0.	-1206.2
10595	18.56	1.8182	5.e-002	-4.3585
10596	18.56	1.5455	0.	-1179.3
10597	18.468	1.6364	0.	-1202.5
10598	18.56	1.6364	5.e-002	-4.4431
10599	18.56	1.3636	0.	-1174.7
10600	18.468	1.4545	0.	-1198.4
10601	18.56	1.4545	5.e-002	-4.5294
10602	18.56	1.1818	0.	-1169.9
10603	18.468	1.2727	0.	-1194.1
10604	18.56	1.2727	5.e-002	-4.6144
10605	18.56	1.	0.	-1165.
10606	18.468	1.0909	0.	-1189.7
10607	18.56	1.0909	5.e-002	-4.6953
10608	18.56	0.81818	0.	-1160.3
10609	18.468	0.90909	0.	-1185.3
10610	18.56	0.90909	5.e-002	-4.769
10611	18.56	0.63636	0.	-1155.8
10612	18.468	0.72727	0.	-1181.1
10613	18.56	0.72727	5.e-002	-4.8325
10614	18.56	0.45455	0.	-1151.8
10615	18.468	0.54545	0.	-1177.2
10616	18.56	0.54545	5.e-002	-4.8727
10617	18.56	0.27273	0.	-1149.
10618	18.468	0.36364	0.	-1173.9
10619	18.56	0.36364	5.e-002	-4.7272
10620	18.468	0.18182	0.	-1172.4
10621	18.56	0.18182	5.e-002	-2.0401
10622	18.56	9.0909e-002	0.	-1143.2
10623	18.376	5.7273	0.	-1197.1
10624	18.284	5.8182	0.	-1220.4
10625	18.376	5.8182	5.e-002	-1.7811
10626	18.376	5.9091	0.	-1191.6
10627	18.376	5.5455	0.	-1199.2
10628	18.284	5.6364	0.	-1221.3
10629	18.376	5.6364	5.e-002	-4.6215
10630	18.376	5.3636	0.	-1202.5
10631	18.284	5.4545	0.	-1224.
10632	18.376	5.4545	5.e-002	-4.7859
10633	18.376	5.1818	0.	-1206.1
10634	18.284	5.2727	0.	-1227.1
10635	18.376	5.2727	5.e-002	-4.7577
10636	18.376	5.	0.	-1210.
10637	18.284	5.0909	0.	-1230.6
10638	18.376	5.0909	5.e-002	-4.7079
10639	18.376	4.8182	0.	-1213.9
10640	18.284	4.9091	0.	-1234.1
10641	18.376	4.9091	5.e-002	-4.6495
10642	18.376	4.6364	0.	-1217.8
10643	18.284	4.7273	0.	-1237.7
10644	18.376	4.7273	5.e-002	-4.5856
10645	18.376	4.4545	0.	-1221.6
10646	18.284	4.5455	0.	-1241.2
10647	18.376	4.5455	5.e-002	-4.5183
10648	18.376	4.2727	0.	-1225.
10649	18.284	4.3636	0.	-1244.5
10650	18.376	4.3636	5.e-002	-4.4501
10651	18.376	4.0909	0.	-1228.1
10652	18.284	4.1818	0.	-1247.4
10653	18.376	4.1818	5.e-002	-4.3834
10654	18.376	3.9091	0.	-1230.8
10655	18.284	4.	0.	-1250.1
10656	18.376	4.	5.e-002	-4.3205
10657	18.376	3.7273	0.	-1233.1
10658	18.284	3.8182	0.	-1252.3
10659	18.376	3.8182	5.e-002	-4.2637
10660	18.376	3.5455	0.	-1234.8
10661	18.284	3.6364	0.	-1254.1
10662	18.376	3.6364	5.e-002	-4.2152
10663	18.376	3.3636	0.	-1236.1
10664	18.284	3.4545	0.	-1255.5
10665	18.376	3.4545	5.e-002	-4.1768
10666	18.376	3.1818	0.	-1236.8
10667	18.284	3.2727	0.	-1256.4
10668	18.376	3.2727	5.e-002	-4.1503
10669	18.376	3.	0.	-1237.1
10670	18.284	3.0909	0.	-1256.8
10671	18.376	3.0909	5.e-002	-4.1367
10672	18.376	2.8182	0.	-1236.8
10673	18.284	2.9091	0.	-1256.8
10674	18.376	2.9091	5.e-002	-4.1367
10675	18.376	2.6364	0.	-1236.1
10676	18.284	2.7273	0.	-1256.4
10677	18.376	2.7273	5.e-002	-4.1503
10678	18.376	2.4545	0.	-1234.8
10679	18.284	2.5455	0.	-1255.5
10680	18.376	2.5455	5.e-002	-4.1768
10681	18.376	2.2727	0.	-1233.1
10682	18.284	2.3636	0.	-1254.1
10683	18.376	2.3636	5.e-002	-4.2152
10684	18.376	2.0909	0.	-1230.8
10685	18.284	2.1818	0.	-1252.3
10686	18.376	2.1818	5.e-002	-4.2637
10687	18.376	1.9091	0.	-1228.1
10688	18.284	2.	0.	-1250.1
10689	18.376	2.	5.e-002	-4.3205
10690	18.376	1.7273	0.	-1225.
10691	18.284	1.8182	0.	-1247.4
10692	18.376	1.8182	5.e-002	-4.3834
10693	18.376	1.5455	0.	-1221.6
10694	18.284	1.6364	0.	-1244.5
10695	18.376	1.6364	5.e-002	-4.4501
10696	18.376	1.3636	0.	-1217.8
10697	18.284	1.4545	0.	-1241.2
10698	18.376	1.4545	5.e-002	-4.5183
10699	18.376	1.1818	0.	-1213.9
10700	18.284	1.2727	0.	-1237.7
10701	18.376	1.2727	5.e-002	-4.5855
10702	18.376	1.	0.	-1210.
10703	18.284	1.0909	0.	-1234.1
10704	18.376	1.0909	5.e-002	-4.6495
10705	18.376	0.81818	0.	-1206.1
10706	18.284	0.90909	0.	-1230.6
10707	18.376	0.90909	5.e-002	-4.7079
10708	18.376	0.63636	0.	-1202.5
10709	18.284	0.72727	0.	-1227.1
10710	18.376	0.72727	5.e-002	-4.7577
10711	18.376	0.45455	0.	-1199.2
10712	18.284	0.54545	0.	-1224.
10713	18.376	0.54545	5.e-002	-4.7859
10714	18.376	0.27273	0.	-1197.1
10715	18.284	0.36364	0.	-1221.3
10716	18.376	0.36364	5.e-002	-4.6215
10717	18.284	0.18182	0.	-1220.4
10718	18.376	0.18182	5.e-002	-1.7811
10719	18.376	9.0909e-002	0.	-1191.6
10720	18.192	5.7273	0.	-1244.5
10721	18.1	5.8182	0.	-1267.8
10722	18.192	5.8182	5.e-002	-1.5585
10723	18.192	5.9091	0.	-1239.2
10724	18.192	5.5455	0.	-1246.
10725	18.1	5.6364	0.	-1268.1
10726	18.192	5.6364	5.e-002	-4.5376
10727	18.192	5.3636	0.	-1248.6
10728	18.1	5.4545	0.	-1270.2
10729	18.192	5.4545	5.e-002	-4.7182
10730	18.192	5.1818	0.	-1251.6
10731	18.1	5.2727	0.	-1272.8
10732	18.192	5.2727	5.e-002	-4.6999
10733	18.192	5.	0.	-1254.7
10734	18.1	5.0909	0.	-1275.5
10735	18.192	5.0909	5.e-002	-4.6611
10736	18.192	4.8182	0.	-1257.9
10737	18.1	4.9091	0.	-1278.4
10738	18.192	4.9091	5.e-002	-4.6152
10739	18.192	4.6364	0.	-1261.1
10740	18.1	4.7273	0.	-1281.3
10741	18.192	4.7273	5.e-002	-4.5648
10742	18.192	4.4545	0.	-1264.1
10743	18.1	4.5455	0.	-1284.1
10744	18.192	4.5455	5.e-002	-4.5117
10745	18.192	4.2727	0.	-1266.9
10746	18.1	4.3636	0.	-1286.8
10747	18.192	4.3636	5.e-002	-4.458
10748	18.192	4.0909	0.	-1269.4
10749	18.1	4.1818	0.	-1289.2
10750	18.192	4.1818	5.e-002	-4.4056
10751	18.192	3.9091	0.	-1271.5
10752	18.1	4.	0.	-1291.3
10753	18.192	4.	5.e-002	-4.3562
10754	18.192	3.7273	0.	-1273.3
10755	18.1	3.8182	0.	-1293.1
10756	18.192	3.8182	5.e-002	-4.3118
10757	18.192	3.5455	0.	-1274.7
10758	18.1	3.6364	0.	-1294.5
10759	18.192	3.6364	5.e-002	-4.2739
10760	18.192	3.3636	0.	-1275.8
10761	18.1	3.4545	0.	-1295.6
10762	18.192	3.4545	5.e-002	-4.244
10763	18.192	3.1818	0.	-1276.4
10764	18.1	3.2727	0.	-1296.4
10765	18.192	3.2727	5.e-002	-4.2234
10766	18.192	3.	0.	-1276.6
10767	18.1	3.0909	0.	-1296.7
10768	18.192	3.0909	5.e-002	-4.2129
10769	18.192	2.8182	0.	-1276.4
10770	18.1	2.9091	0.	-1296.7
10771	18.192	2.9091	5.e-002	-4.2129
10772	18.192	2.6364	0.	-1275.8
10773	18.1	2.7273	0.	-1296.4
10774	18.192	2.7273	5.e-002	-4.2234
10775	18.192	2.4545	0.	-1274.7
10776	18.1	2.5455	0.	-1295.6
10777	18.192	2.5455	5.e-002	-4.244
10778	18.192	2.2727	0.	-1273.3
10779	18.1	2.3636	0.	-1294.5
10780	18.192	2.3636	5.e-002	-4.2739
10781	18.192	2.0909	0.	-1271.5
10782	18.1	2.1818	0.	-1293.1
10783	18.192	2.1818	5.e-002	-4.3118
10784	18.192	1.9091	0.	-1269.4
10785	18.1	2.	0.	-1291.3
10786	18.192	2.	5.e-002	-4.3562
10787	18.192	1.7273	0.	-1266.9
10788	18.1	1.8182	0.	-1289.2
10789	18.192	1.8182	5.e-002	-4.4056
10790	18.192	1.5455	0.	-1264.1
10791	18.1	1.6364	0.	-1286.8
10792	18.192	1.6364	5.e-002	-4.458
10793	18.192	1.3636	0.	-1261.1
10794	18.1	1.4545	0.	-1284.1
10795	18.192	1.4545	5.e-002	-4.5117
10796	18.192	1.1818	0.	-1257.9
10797	18.1	1.2727	0.	-1281.3
10798	18.192	1.2727	5.e-002	-4.5648
10799	18.192	1.	0.	-1254.7
10800	18.1	1.0909	0.	-1278.4
10801	18.192	1.0909	5.e-002	-4.6152
10802	18.192	0.81818	0.	-1251.6
10803	18.1	0.90909	0.	-1275.5
10804	18.192	0.90909	5.e-002	-4.6611
10805	18.192	0.63636	0.	-1248.6
10806	18.1	0.72727	0.	-1272.8
10807	18.192	0.72727	5.e-002	-4.6998
10808	18.192	0.45455	0.	-1246.
10809	18.1	0.54545	0.	-1270.2
10810	18.192	0.54545	5.e-002	-4.7182
10811	18.192	0.27273	0.	-1244.5
10812	18.1	0.36364	0.	-1268.1
10813	18.192	0.36364	5.e-002	-4.5375
10814	18.1	0.18182	0.	-1267.8
10815	18.192	0.18182	5.e-002	-1.5584
10816	18.192	9.0909e-002	0.	-1239.2
10817	18.009	5.7273	0.	-1291.2
10818	17.917	5.8182	0.	-1314.6
10819	18.009	5.8182	5.e-002	-1.3667
10820	18.009	5.9091	0.	-1286.1
10821	18.009	5.5455	0.	-1292.2
10822	17.917	5.6364	0.	-1314.4
10823	18.009	5.6364	5.e-002	-4.4716
10824	18.009	5.3636	0.	-1294.3
10825	17.917	5.4545	0.	-1316.
10826	18.009	5.4545	5.e-002	-4.6662
10827	18.009	5.1818	0.	-1296.7
10828	17.917	5.2727	0.	-1318.1
10829	18.009	5.2727	5.e-002	-4.6558
10830	18.009	5.	0.	-1299.2
10831	17.917	5.0909	0.	-1320.3
10832	18.009	5.0909	5.e-002	-4.6259
10833	18.009	4.8182	0.	-1301.8
10834	17.917	4.9091	0.	-1322.6
10835	18.009	4.9091	5.e-002	-4.5901
10836	18.009	4.6364	0.	-1304.4
10837	17.917	4.7273	0.	-1325.
10838	18.009	4.7273	5.e-002	-4.5506
10839	18.009	4.4545	0.	-1306.8
10840	17.917	4.5455	0.	-1327.2
10841	18.009	4.5455	5.e-002	-4.5089
10842	18.009	4.2727	0.	-1309.
10843	17.917	4.3636	0.	-1329.4
10844	18.009	4.3636	5.e-002	-4.4667
10845	18.009	4.0909	0.	-1311.1
10846	17.917	4.1818	0.	-1331.3
10847	18.009	4.1818	5.e-002	-4.4256
10848	18.009	3.9091	0.	-1312.8
10849	17.917	4.	0.	-1333.
10850	18.009	4.	5.e-002	-4.3869
10851	18.009	3.7273	0.	-1314.3
10852	17.917	3.8182	0.	-1334.5
10853	18.009	3.8182	5.e-002	-4.3521
10854	18.009	3.5455	0.	-1315.4
10855	17.917	3.6364	0.	-1335.6
10856	18.009	3.6364	5.e-002	-4.3225
10857	18.009	3.3636	0.	-1316.2
10858	17.917	3.4545	0.	-1336.5
10859	18.009	3.4545	5.e-002	-4.2992
10860	18.009	3.1818	0.	-1316.7
10861	17.917	3.2727	0.	-1337.1
10862	18.009	3.2727	5.e-002	-4.2832
10863	18.009	3.	0.	-1316.9
10864	17.917	3.0909	0.	-1337.4
10865	18.009	3.0909	5.e-002	-4.275
10866	18.009	2.8182	0.	-1316.7
10867	17.917	2.9091	0.	-1337.4
10868	18.009	2.9091	5.e-002	-4.275
10869	18.009	2.6364	0.	-1316.2
10870	17.917	2.7273	0.	-1337.1
10871	18.009	2.7273	5.e-002	-4.2832
10872	18.009	2.4545	0.	-1315.4
10873	17.917	2.5455	0.	-1336.5
10874	18.009	2.5455	5.e-002	-4.2992
10875	18.009	2.2727	0.	-1314.3
10876	17.917	2.3636	0.	-1335.6
10877	18.009	2.3636	5.e-002	-4.3225
10878	18.009	2.0909	0.	-1312.8
10879	17.917	2.1818	0.	-1334.5
10880	18.009	2.1818	5.e-002	-4.3521
10881	18.009	1.9091	0.	-1311.1
10882	17.917	2.	0.	-1333.
10883	18.009	2.	5.e-002	-4.3869
10884	18.009	1.7273	0.	-1309.
10885	17.917	1.8182	0.	-1331.3
10886	18.009	1.8182	5.e-002	-4.4256
10887	18.009	1.5455	0.	-1306.8
10888	17.917	1.6364	0.	-1329.4
10889	18.009	1.6364	5.e-002	-4.4667
10890	18.009	1.3636	0.	-1304.4
10891	17.917	1.4545	0.	-1327.2
10892	18.009	1.4545	5.e-002	-4.5089
10893	18.009	1.1818	0.	-1301.8
10894	17.917	1.2727	0.	-1325.
10895	18.009	1.2727	5.e-002	-4.5506
10896	18.009	1.	0.	-1299.2
10897	17.917	1.0909	0.	-1322.6
10898	18.009	1.0909	5.e-002	-4.5901
10899	18.009	0.81818	0.	-1296.7
10900	17.917	0.90909	0.	-1320.3
10901	18.009	0.90909	5.e-002	-4.6259
10902	18.009	0.63636	0.	-1294.3
10903	17.917	0.72727	0.	-1318.1
10904	18.009	0.72727	5.e-002	-4.6558
10905	18.009	0.45455	0.	-1292.2
10906	17.917	0.54545	0.	-1316.
10907	18.009	0.54545	5.e-002	-4.6662
10908	18.009	0.27273	0.	-1291.2
10909	17.917	0.36364	0.	-1314.4
10910	18.009	0.36364	5.e-002	-4.4716
10911	17.917	0.18182	0.	-1314.6
10912	18.009	0.18182	5.e-002	-1.3667
10913	18.009	9.0909e-002	0.	-1286.1
10914	17.825	5.7273	0.	-1337.5
10915	17.733	5.8182	0.	-1360.9
10916	17.825	5.8182	5.e-002	-1.2013
10917	17.825	5.9091	0.	-1332.5
10918	17.825	5.5455	0.	-1338.1
10919	17.733	5.6364	0.	-1360.3
10920	17.825	5.6364	5.e-002	-4.4204
10921	17.825	5.3636	0.	-1339.8
10922	17.733	5.4545	0.	-1361.6
10923	17.825	5.4545	5.e-002	-4.6269
10924	17.825	5.1818	0.	-1341.6
10925	17.733	5.2727	0.	-1363.2
10926	17.825	5.2727	5.e-002	-4.6229
10927	17.825	5.	0.	-1343.7
10928	17.733	5.0909	0.	-1365.
10929	17.825	5.0909	5.e-002	-4.6002
10930	17.825	4.8182	0.	-1345.8
10931	17.733	4.9091	0.	-1366.8
10932	17.825	4.9091	5.e-002	-4.5724
10933	17.825	4.6364	0.	-1347.8
10934	17.733	4.7273	0.	-1368.7
10935	17.825	4.7273	5.e-002	-4.5415
10936	17.825	4.4545	0.	-1349.8
10937	17.733	4.5455	0.	-1370.5
10938	17.825	4.5455	5.e-002	-4.509
10939	17.825	4.2727	0.	-1351.6
10940	17.733	4.3636	0.	-1372.2
10941	17.825	4.3636	5.e-002	-4.4759
10942	17.825	4.0909	0.	-1353.2
10943	17.733	4.1818	0.	-1373.8
10944	17.825	4.1818	5.e-002	-4.4437
10945	17.825	3.9091	0.	-1354.6
10946	17.733	4.	0.	-1375.2
10947	17.825	4.	5.e-002	-4.4134
10948	17.825	3.7273	0.	-1355.8
10949	17.733	3.8182	0.	-1376.3
10950	17.825	3.8182	5.e-002	-4.3863
10951	17.825	3.5455	0.	-1356.7
10952	17.733	3.6364	0.	-1377.3
10953	17.825	3.6364	5.e-002	-4.3631
10954	17.825	3.3636	0.	-1357.4
10955	17.733	3.4545	0.	-1378.
10956	17.825	3.4545	5.e-002	-4.345
10957	17.825	3.1818	0.	-1357.8
10958	17.733	3.2727	0.	-1378.5
10959	17.825	3.2727	5.e-002	-4.3325
10960	17.825	3.	0.	-1357.9
10961	17.733	3.0909	0.	-1378.7
10962	17.825	3.0909	5.e-002	-4.3261
10963	17.825	2.8182	0.	-1357.8
10964	17.733	2.9091	0.	-1378.7
10965	17.825	2.9091	5.e-002	-4.3261
10966	17.825	2.6364	0.	-1357.4
10967	17.733	2.7273	0.	-1378.5
10968	17.825	2.7273	5.e-002	-4.3325
10969	17.825	2.4545	0.	-1356.7
10970	17.733	2.5455	0.	-1378.
10971	17.825	2.5455	5.e-002	-4.345
10972	17.825	2.2727	0.	-1355.8
10973	17.733	2.3636	0.	-1377.3
10974	17.825	2.3636	5.e-002	-4.3631
10975	17.825	2.0909	0.	-1354.6
10976	17.733	2.1818	0.	-1376.3
10977	17.825	2.1818	5.e-002	-4.3863
10978	17.825	1.9091	0.	-1353.2
10979	17.733	2.	0.	-1375.2
10980	17.825	2.	5.e-002	-4.4134
10981	17.825	1.7273	0.	-1351.6
10982	17.733	1.8182	0.	-1373.8
10983	17.825	1.8182	5.e-002	-4.4437
10984	17.825	1.5455	0.	-1349.8
10985	17.733	1.6364	0.	-1372.2
10986	17.825	1.6364	5.e-002	-4.4759
10987	17.825	1.3636	0.	-1347.8
10988	17.733	1.4545	0.	-1370.5
10989	17.825	1.4545	5.e-002	-4.509
10990	17.825	1.1818	0.	-1345.8
10991	17.733	1.2727	0.	-1368.7
10992	17.825	1.2727	5.e-002	-4.5415
10993	17.825	1.	0.	-1343.7
10994	17.733	1.0909	0.	-1366.8
10995	17.825	1.0909	5.e-002	-4.5724
10996	17.825	0.81818	0.	-1341.6
10997	17.733	0.90909	0.	-1365.
10998	17.825	0.90909	5.e-002	-4.6001
10999	17.825	0.63636	0.	-1339.8
11000	17.733	0.72727	0.	-1363.2
11001	17.825	0.72727	5.e-002	-4.6229
11002	17.825	0.45455	0.	-1338.1
11003	17.733	0.54545	0.	-1361.6
11004	17.825	0.54545	5.e-002	-4.6269
11005	17.825	0.27273	0.	-1337.5
11006	17.733	0.36364	0.	-1360.3
11007	17.825	0.36364	5.e-002	-4.4204
11008	17.733	0.18182	0.	-1360.9
11009	17.825	0.18182	5.e-002	-1.2013
11010	17.825	9.0909e-002	0.	-1332.5
11011	17.641	5.7273	0.	-1383.5
11012	17.549	5.8182	0.	-1406.9
11013	17.641	5.8182	5.e-002	-1.0583
11014	17.641	5.9091	0.	-1378.6
11015	17.641	5.5455	0.	-1383.7
11016	17.549	5.6364	0.	-1406.
11017	17.641	5.6364	5.e-002	-4.3813
11018	17.641	5.3636	0.	-1385.
11019	17.549	5.4545	0.	-1406.9
11020	17.641	5.4545	5.e-002	-4.5981
11021	17.641	5.1818	0.	-1386.5
11022	17.549	5.2727	0.	-1408.2
11023	17.641	5.2727	5.e-002	-4.5992
11024	17.641	5.	0.	-1388.1
11025	17.549	5.0909	0.	-1409.6
11026	17.641	5.0909	5.e-002	-4.5821
11027	17.641	4.8182	0.	-1389.7
11028	17.549	4.9091	0.	-1411.
11029	17.641	4.9091	5.e-002	-4.5607
11030	17.641	4.6364	0.	-1391.4
11031	17.549	4.7273	0.	-1412.5
11032	17.641	4.7273	5.e-002	-4.5368
11033	17.641	4.4545	0.	-1393.
11034	17.549	4.5455	0.	-1414.
11035	17.641	4.5455	5.e-002	-4.5114
11036	17.641	4.2727	0.	-1394.4
11037	17.549	4.3636	0.	-1415.4
11038	17.641	4.3636	5.e-002	-4.4857
11039	17.641	4.0909	0.	-1395.7
11040	17.549	4.1818	0.	-1416.6
11041	17.641	4.1818	5.e-002	-4.4605
11042	17.641	3.9091	0.	-1396.9
11043	17.549	4.	0.	-1417.7
11044	17.641	4.	5.e-002	-4.4369
11045	17.641	3.7273	0.	-1397.8
11046	17.549	3.8182	0.	-1418.7
11047	17.641	3.8182	5.e-002	-4.4157
11048	17.641	3.5455	0.	-1398.5
11049	17.549	3.6364	0.	-1419.4
11050	17.641	3.6364	5.e-002	-4.3977
11051	17.641	3.3636	0.	-1399.1
11052	17.549	3.4545	0.	-1420.
11053	17.641	3.4545	5.e-002	-4.3835
11054	17.641	3.1818	0.	-1399.4
11055	17.549	3.2727	0.	-1420.4
11056	17.641	3.2727	5.e-002	-4.3738
11057	17.641	3.	0.	-1399.5
11058	17.549	3.0909	0.	-1420.6
11059	17.641	3.0909	5.e-002	-4.3688
11060	17.641	2.8182	0.	-1399.4
11061	17.549	2.9091	0.	-1420.6
11062	17.641	2.9091	5.e-002	-4.3688
11063	17.641	2.6364	0.	-1399.1
11064	17.549	2.7273	0.	-1420.4
11065	17.641	2.7273	5.e-002	-4.3738
11066	17.641	2.4545	0.	-1398.5
11067	17.549	2.5455	0.	-1420.
11068	17.641	2.5455	5.e-002	-4.3835
11069	17.641	2.2727	0.	-1397.8
11070	17.549	2.3636	0.	-1419.4
11071	17.641	2.3636	5.e-002	-4.3977
11072	17.641	2.0909	0.	-1396.9
11073	17.549	2.1818	0.	-1418.7
11074	17.641	2.1818	5.e-002	-4.4157
11075	17.641	1.9091	0.	-1395.7
11076	17.549	2.	0.	-1417.7
11077	17.641	2.	5.e-002	-4.4369
11078	17.641	1.7273	0.	-1394.4
11079	17.549	1.8182	0.	-1416.6
11080	17.641	1.8182	5.e-002	-4.4605
11081	17.641	1.5455	0.	-1393.
11082	17.549	1.6364	0.	-1415.4
11083	17.641	1.6364	5.e-002	-4.4857
11084	17.641	1.3636	0.	-1391.4
11085	17.549	1.4545	0.	-1414.
11086	17.641	1.4545	5.e-002	-4.5114
11087	17.641	1.1818	0.	-1389.7
11088	17.549	1.2727	0.	-1412.5
11089	17.641	1.2727	5.e-002	-4.5368
11090	17.641	1.	0.	-1388.1
11091	17.549	1.0909	0.	-1411.
11092	17.641	1.0909	5.e-002	-4.5607
11093	17.641	0.81818	0.	-1386.5
11094	17.549	0.90909	0.	-1409.6
11095	17.641	0.90909	5.e-002	-4.5821
11096	17.641	0.63636	0.	-1385.
11097	17.549	0.72727	0.	-1408.2
11098	17.641	0.72727	5.e-002	-4.5992
11099	17.641	0.45455	0.	-1383.7
11100	17.549	0.54545	0.	-1406.9
11101	17.641	0.54545	5.e-002	-4.5981
11102	17.641	0.27273	0.	-1383.5
11103	17.549	0.36364	0.	-1406.
11104	17.641	0.36364	5.e-002	-4.3813
11105	17.549	0.18182	0.	-1406.9
11106	17.641	0.18182	5.e-002	-1.0583
11107	17.641	9.0909e-002	0.	-1378.6
11108	17.457	5.7273	0.	-1429.3
11109	17.365	5.8182	0.	-1452.7
11110	17.457	5.8182	5.e-002	-0.9343
11111	17.457	5.9091	0.	-1424.5
11112	17.457	5.5455	0.	-1429.2
11113	17.365	5.6364	0.	-1451.5
11114	17.457	5.6364	5.e-002	-4.3522
11115	17.457	5.3636	0.	-1430.1
11116	17.365	5.4545	0.	-1452.2
11117	17.457	5.4545	5.e-002	-4.5779
11118	17.457	5.1818	0.	-1431.2
11119	17.365	5.2727	0.	-1453.1
11120	17.457	5.2727	5.e-002	-4.583
11121	17.457	5.	0.	-1432.5
11122	17.365	5.0909	0.	-1454.2
11123	17.457	5.0909	5.e-002	-4.5704
11124	17.457	4.8182	0.	-1433.8
11125	17.365	4.9091	0.	-1455.3
11126	17.457	4.9091	5.e-002	-4.554
11127	17.457	4.6364	0.	-1435.1
11128	17.365	4.7273	0.	-1456.5
11129	17.457	4.7273	5.e-002	-4.5356
11130	17.457	4.4545	0.	-1436.4
11131	17.365	4.5455	0.	-1457.6
11132	17.457	4.5455	5.e-002	-4.516
11133	17.457	4.2727	0.	-1437.5
11134	17.365	4.3636	0.	-1458.7
11135	17.457	4.3636	5.e-002	-4.496
11136	17.457	4.0909	0.	-1438.6
11137	17.365	4.1818	0.	-1459.7
11138	17.457	4.1818	5.e-002	-4.4764
11139	17.457	3.9091	0.	-1439.5
11140	17.365	4.	0.	-1460.6
11141	17.457	4.	5.e-002	-4.458
11142	17.457	3.7273	0.	-1440.3
11143	17.365	3.8182	0.	-1461.4
11144	17.457	3.8182	5.e-002	-4.4415
11145	17.457	3.5455	0.	-1440.9
11146	17.365	3.6364	0.	-1462.
11147	17.457	3.6364	5.e-002	-4.4275
11148	17.457	3.3636	0.	-1441.3
11149	17.365	3.4545	0.	-1462.5
11150	17.457	3.4545	5.e-002	-4.4165
11151	17.457	3.1818	0.	-1441.5
11152	17.365	3.2727	0.	-1462.8
11153	17.457	3.2727	5.e-002	-4.4089
11154	17.457	3.	0.	-1441.6
11155	17.365	3.0909	0.	-1462.9
11156	17.457	3.0909	5.e-002	-4.405
11157	17.457	2.8182	0.	-1441.5
11158	17.365	2.9091	0.	-1462.9
11159	17.457	2.9091	5.e-002	-4.405
11160	17.457	2.6364	0.	-1441.3
11161	17.365	2.7273	0.	-1462.8
11162	17.457	2.7273	5.e-002	-4.4089
11163	17.457	2.4545	0.	-1440.9
11164	17.365	2.5455	0.	-1462.5
11165	17.457	2.5455	5.e-002	-4.4165
11166	17.457	2.2727	0.	-1440.3
11167	17.365	2.3636	0.	-1462.
11168	17.457	2.3636	5.e-002	-4.4275
11169	17.457	2.0909	0.	-1439.5
11170	17.365	2.1818	0.	-1461.4
11171	17.457	2.1818	5.e-002	-4.4415
11172	17.457	1.9091	0.	-1438.6
11173	17.365	2.	0.	-1460.6
11174	17.457	2.	5.e-002	-4.458
11175	17.457	1.7273	0.	-1437.5
11176	17.365	1.8182	0.	-1459.7
11177	17.457	1.8182	5.e-002	-4.4764
11178	17.457	1.5455	0.	-1436.4
11179	17.365	1.6364	0.	-1458.7
11180	17.457	1.6364	5.e-002	-4.496
11181	17.457	1.3636	0.	-1435.1
11182	17.365	1.4545	0.	-1457.6
11183	17.457	1.4545	5.e-002	-4.516
11184	17.457	1.1818	0.	-1433.8
11185	17.365	1.2727	0.	-1456.5
11186	17.457	1.2727	5.e-002	-4.5356
11187	17.457	1.	0.	-1432.5
11188	17.365	1.0909	0.	-1455.3
11189	17.457	1.0909	5.e-002	-4.554
11190	17.457	0.81818	0.	-1431.2
11191	17.365	0.90909	0.	-1454.2
11192	17.457	0.90909	5.e-002	-4.5704
11193	17.457	0.63636	0.	-1430.1
11194	17.365	0.72727	0.	-1453.1
11195	17.457	0.72727	5.e-002	-4.583
11196	17.457	0.45455	0.	-1429.2
11197	17.365	0.54545	0.	-1452.2
11198	17.457	0.54545	5.e-002	-4.5779
11199	17.457	0.27273	0.	-1429.3
11200	17.365	0.36364	0.	-1451.5
11201	17.457	0.36364	5.e-002	-4.3522
11202	17.365	0.18182	0.	-1452.7
11203	17.457	0.18182	5.e-002	-0.9343
11204	17.457	9.0909e-002	0.	-1424.5
11205	17.274	5.7273	0.	-1474.8
11206	17.182	5.8182	0.	-1498.4
11207	17.274	5.8182	5.e-002	-0.8266
11208	17.274	5.9091	0.	-1470.2
11209	17.274	5.5455	0.	-1474.5
11210	17.182	5.6364	0.	-1496.9
11211	17.274	5.6364	5.e-002	-4.3311
11212	17.274	5.3636	0.	-1475.1
11213	17.182	5.4545	0.	-1497.3
11214	17.274	5.4545	5.e-002	-4.5645
11215	17.274	5.1818	0.	-1476.
11216	17.182	5.2727	0.	-1498.
11217	17.274	5.2727	5.e-002	-4.5729
11218	17.274	5.	0.	-1477.
11219	17.182	5.0909	0.	-1498.8
11220	17.274	5.0909	5.e-002	-4.5638
11221	17.274	4.8182	0.	-1478.
11222	17.182	4.9091	0.	-1499.7
11223	17.274	4.9091	5.e-002	-4.5514
11224	17.274	4.6364	0.	-1479.
11225	17.182	4.7273	0.	-1500.6
11226	17.274	4.7273	5.e-002	-4.5373
11227	17.274	4.4545	0.	-1480.
11228	17.182	4.5455	0.	-1501.5
11229	17.274	4.5455	5.e-002	-4.5222
11230	17.274	4.2727	0.	-1480.9
11231	17.182	4.3636	0.	-1502.4
11232	17.274	4.3636	5.e-002	-4.5068
11233	17.274	4.0909	0.	-1481.8
11234	17.182	4.1818	0.	-1503.1
11235	17.274	4.1818	5.e-002	-4.4916
11236	17.274	3.9091	0.	-1482.5
11237	17.182	4.	0.	-1503.8
11238	17.274	4.	5.e-002	-4.4774
11239	17.274	3.7273	0.	-1483.1
11240	17.182	3.8182	0.	-1504.4
11241	17.274	3.8182	5.e-002	-4.4645
11242	17.274	3.5455	0.	-1483.6
11243	17.182	3.6364	0.	-1504.9
11244	17.274	3.6364	5.e-002	-4.4536
11245	17.274	3.3636	0.	-1483.9
11246	17.182	3.4545	0.	-1505.3
11247	17.274	3.4545	5.e-002	-4.4451
11248	17.274	3.1818	0.	-1484.1
11249	17.182	3.2727	0.	-1505.6
11250	17.274	3.2727	5.e-002	-4.4392
11251	17.274	3.	0.	-1484.2
11252	17.182	3.0909	0.	-1505.7
11253	17.274	3.0909	5.e-002	-4.4362
11254	17.274	2.8182	0.	-1484.1
11255	17.182	2.9091	0.	-1505.7
11256	17.274	2.9091	5.e-002	-4.4362
11257	17.274	2.6364	0.	-1483.9
11258	17.182	2.7273	0.	-1505.6
11259	17.274	2.7273	5.e-002	-4.4392
11260	17.274	2.4545	0.	-1483.6
11261	17.182	2.5455	0.	-1505.3
11262	17.274	2.5455	5.e-002	-4.4451
11263	17.274	2.2727	0.	-1483.1
11264	17.182	2.3636	0.	-1504.9
11265	17.274	2.3636	5.e-002	-4.4536
11266	17.274	2.0909	0.	-1482.5
11267	17.182	2.1818	0.	-1504.4
11268	17.274	2.1818	5.e-002	-4.4645
11269	17.274	1.9091	0.	-1481.8
11270	17.182	2.	0.	-1503.8
11271	17.274	2.	5.e-002	-4.4774
11272	17.274	1.7273	0.	-1480.9
11273	17.182	1.8182	0.	-1503.1
11274	17.274	1.8182	5.e-002	-4.4916
11275	17.274	1.5455	0.	-1480.
11276	17.182	1.6364	0.	-1502.4
11277	17.274	1.6364	5.e-002	-4.5068
11278	17.274	1.3636	0.	-1479.
11279	17.182	1.4545	0.	-1501.5
11280	17.274	1.4545	5.e-002	-4.5222
11281	17.274	1.1818	0.	-1478.
11282	17.182	1.2727	0.	-1500.6
11283	17.274	1.2727	5.e-002	-4.5373
11284	17.274	1.	0.	-1477.
11285	17.182	1.0909	0.	-1499.7
11286	17.274	1.0909	5.e-002	-4.5514
11287	17.274	0.81818	0.	-1476.
11288	17.182	0.90909	0.	-1498.8
11289	17.274	0.90909	5.e-002	-4.5637
11290	17.274	0.63636	0.	-1475.1
11291	17.182	0.72727	0.	-1498.
11292	17.274	0.72727	5.e-002	-4.5729
11293	17.274	0.45455	0.	-1474.5
11294	17.182	0.54545	0.	-1497.3
11295	17.274	0.54545	5.e-002	-4.5645
11296	17.274	0.27273	0.	-1474.8
11297	17.182	0.36364	0.	-1496.9
11298	17.274	0.36364	5.e-002	-4.3311
11299	17.182	0.18182	0.	-1498.4
11300	17.274	0.18182	5.e-002	-0.8266
11301	17.274	9.0909e-002	0.	-1470.2
11302	17.09	5.7273	0.	-1520.3
11303	16.998	5.8182	0.	-1543.9
11304	17.09	5.8182	5.e-002	-0.73281
11305	17.09	5.9091	0.	-1515.7
11306	17.09	5.5455	0.	-1519.8
11307	16.998	5.6364	0.	-1542.3
11308	17.09	5.6364	5.e-002	-4.3167
11309	17.09	5.3636	0.	-1520.2
11310	16.998	5.4545	0.	-1542.5
11311	17.09	5.4545	5.e-002	-4.5569
11312	17.09	5.1818	0.	-1520.8
11313	16.998	5.2727	0.	-1542.9
11314	17.09	5.2727	5.e-002	-4.5678
11315	17.09	5.	0.	-1521.5
11316	16.998	5.0909	0.	-1543.5
11317	17.09	5.0909	5.e-002	-4.5614
11318	17.09	4.8182	0.	-1522.3
11319	16.998	4.9091	0.	-1544.2
11320	17.09	4.9091	5.e-002	-4.5522
11321	17.09	4.6364	0.	-1523.1
11322	16.998	4.7273	0.	-1544.9
11323	17.09	4.7273	5.e-002	-4.5415
11324	17.09	4.4545	0.	-1523.8
11325	16.998	4.5455	0.	-1545.5
11326	17.09	4.5455	5.e-002	-4.53
11327	17.09	4.2727	0.	-1524.6
11328	16.998	4.3636	0.	-1546.2
11329	17.09	4.3636	5.e-002	-4.5181
11330	17.09	4.0909	0.	-1525.2
11331	16.998	4.1818	0.	-1546.8
11332	17.09	4.1818	5.e-002	-4.5064
11333	17.09	3.9091	0.	-1525.8
11334	16.998	4.	0.	-1547.4
11335	17.09	4.	5.e-002	-4.4954
11336	17.09	3.7273	0.	-1526.3
11337	16.998	3.8182	0.	-1547.8
11338	17.09	3.8182	5.e-002	-4.4855
11339	17.09	3.5455	0.	-1526.7
11340	16.998	3.6364	0.	-1548.2
11341	17.09	3.6364	5.e-002	-4.4771
11342	17.09	3.3636	0.	-1526.9
11343	16.998	3.4545	0.	-1548.5
11344	17.09	3.4545	5.e-002	-4.4705
11345	17.09	3.1818	0.	-1527.1
11346	16.998	3.2727	0.	-1548.7
11347	17.09	3.2727	5.e-002	-4.4659
11348	17.09	3.	0.	-1527.1
11349	16.998	3.0909	0.	-1548.8
11350	17.09	3.0909	5.e-002	-4.4636
11351	17.09	2.8182	0.	-1527.1
11352	16.998	2.9091	0.	-1548.8
11353	17.09	2.9091	5.e-002	-4.4636
11354	17.09	2.6364	0.	-1526.9
11355	16.998	2.7273	0.	-1548.7
11356	17.09	2.7273	5.e-002	-4.4659
11357	17.09	2.4545	0.	-1526.7
11358	16.998	2.5455	0.	-1548.5
11359	17.09	2.5455	5.e-002	-4.4705
11360	17.09	2.2727	0.	-1526.3
11361	16.998	2.3636	0.	-1548.2
11362	17.09	2.3636	5.e-002	-4.4771
11363	17.09	2.0909	0.	-1525.8
11364	16.998	2.1818	0.	-1547.8
11365	17.09	2.1818	5.e-002	-4.4855
11366	17.09	1.9091	0.	-1525.2
11367	16.998	2.	0.	-1547.4
11368	17.09	2.	5.e-002	-4.4954
11369	17.09	1.7273	0.	-1524.6
11370	16.998	1.8182	0.	-1546.8
11371	17.09	1.8182	5.e-002	-4.5064
11372	17.09	1.5455	0.	-1523.8
11373	16.998	1.6364	0.	-1546.2
11374	17.09	1.6364	5.e-002	-4.5181
11375	17.09	1.3636	0.	-1523.1
11376	16.998	1.4545	0.	-1545.5
11377	17.09	1.4545	5.e-002	-4.53
11378	17.09	1.1818	0.	-1522.3
11379	16.998	1.2727	0.	-1544.9
11380	17.09	1.2727	5.e-002	-4.5415
11381	17.09	1.	0.	-1521.5
11382	16.998	1.0909	0.	-1544.2
11383	17.09	1.0909	5.e-002	-4.5522
11384	17.09	0.81818	0.	-1520.8
11385	16.998	0.90909	0.	-1543.5
11386	17.09	0.90909	5.e-002	-4.5614
11387	17.09	0.63636	0.	-1520.2
11388	16.998	0.72727	0.	-1542.9
11389	17.09	0.72727	5.e-002	-4.5677
11390	17.09	0.45455	0.	-1519.8
11391	16.998	0.54545	0.	-1542.5
11392	17.09	0.54545	5.e-002	-4.5569
11393	17.09	0.27273	0.	-1520.3
11394	16.998	0.36364	0.	-1542.3
11395	17.09	0.36364	5.e-002	-4.3167
11396	16.998	0.18182	0.	-1543.9
11397	17.09	0.18182	5.e-002	-0.73281
11398	17.09	9.0909e-002	0.	-1515.7
11399	16.906	5.7273	0.	-1565.8
11400	16.814	5.8182	0.	-1589.5
11401	16.906	5.8182	5.e-002	-0.651
11402	16.906	5.9091	0.	-1561.3
11403	16.906	5.5455	0.	-1565.
11404	16.814	5.6364	0.	-1587.7
11405	16.906	5.6364	5.e-002	-4.3077
11406	16.906	5.3636	0.	-1565.2
11407	16.814	5.4545	0.	-1587.7
11408	16.906	5.4545	5.e-002	-4.5539
11409	16.906	5.1818	0.	-1565.6
11410	16.814	5.2727	0.	-1587.9
11411	16.906	5.2727	5.e-002	-4.5667
11412	16.906	5.	0.	-1566.2
11413	16.814	5.0909	0.	-1588.3
11414	16.906	5.0909	5.e-002	-4.5625
11415	16.906	4.8182	0.	-1566.7
11416	16.814	4.9091	0.	-1588.8
11417	16.906	4.9091	5.e-002	-4.5557
11418	16.906	4.6364	0.	-1567.3
11419	16.814	4.7273	0.	-1589.3
11420	16.906	4.7273	5.e-002	-4.5478
11421	16.906	4.4545	0.	-1567.9
11422	16.814	4.5455	0.	-1589.8
11423	16.906	4.5455	5.e-002	-4.539
11424	16.906	4.2727	0.	-1568.4
11425	16.814	4.3636	0.	-1590.3
11426	16.906	4.3636	5.e-002	-4.53
11427	16.906	4.0909	0.	-1569.
11428	16.814	4.1818	0.	-1590.8
11429	16.906	4.1818	5.e-002	-4.5211
11430	16.906	3.9091	0.	-1569.4
11431	16.814	4.	0.	-1591.2
11432	16.906	4.	5.e-002	-4.5126
11433	16.906	3.7273	0.	-1569.8
11434	16.814	3.8182	0.	-1591.5
11435	16.906	3.8182	5.e-002	-4.505
11436	16.906	3.5455	0.	-1570.1
11437	16.814	3.6364	0.	-1591.8
11438	16.906	3.6364	5.e-002	-4.4985
11439	16.906	3.3636	0.	-1570.3
11440	16.814	3.4545	0.	-1592.1
11441	16.906	3.4545	5.e-002	-4.4934
11442	16.906	3.1818	0.	-1570.4
11443	16.814	3.2727	0.	-1592.2
11444	16.906	3.2727	5.e-002	-4.4899
11445	16.906	3.	0.	-1570.5
11446	16.814	3.0909	0.	-1592.3
11447	16.906	3.0909	5.e-002	-4.4881
11448	16.906	2.8182	0.	-1570.4
11449	16.814	2.9091	0.	-1592.3
11450	16.906	2.9091	5.e-002	-4.4881
11451	16.906	2.6364	0.	-1570.3
11452	16.814	2.7273	0.	-1592.2
11453	16.906	2.7273	5.e-002	-4.4899
11454	16.906	2.4545	0.	-1570.1
11455	16.814	2.5455	0.	-1592.1
11456	16.906	2.5455	5.e-002	-4.4934
11457	16.906	2.2727	0.	-1569.8
11458	16.814	2.3636	0.	-1591.8
11459	16.906	2.3636	5.e-002	-4.4985
11460	16.906	2.0909	0.	-1569.4
11461	16.814	2.1818	0.	-1591.5
11462	16.906	2.1818	5.e-002	-4.505
11463	16.906	1.9091	0.	-1569.
11464	16.814	2.	0.	-1591.2
11465	16.906	2.	5.e-002	-4.5126
11466	16.906	1.7273	0.	-1568.4
11467	16.814	1.8182	0.	-1590.8
11468	16.906	1.8182	5.e-002	-4.5211
11469	16.906	1.5455	0.	-1567.9
11470	16.814	1.6364	0.	-1590.3
11471	16.906	1.6364	5.e-002	-4.53
11472	16.906	1.3636	0.	-1567.3
11473	16.814	1.4545	0.	-1589.8
11474	16.906	1.4545	5.e-002	-4.539
11475	16.906	1.1818	0.	-1566.7
11476	16.814	1.2727	0.	-1589.3
11477	16.906	1.2727	5.e-002	-4.5478
11478	16.906	1.	0.	-1566.2
11479	16.814	1.0909	0.	-1588.8
11480	16.906	1.0909	5.e-002	-4.5557
11481	16.906	0.81818	0.	-1565.6
11482	16.814	0.90909	0.	-1588.3
11483	16.906	0.90909	5.e-002	-4.5625
11484	16.906	0.63636	0.	-1565.2
11485	16.814	0.72727	0.	-1587.9
11486	16.906	0.72727	5.e-002	-4.5667
11487	16.906	0.45455	0.	-1565.
11488	16.814	0.54545	0.	-1587.7
11489	16.906	0.54545	5.e-002	-4.5539
11490	16.906	0.27273	0.	-1565.8
11491	16.814	0.36364	0.	-1587.7
11492	16.906	0.36364	5.e-002	-4.3077
11493	16.814	0.18182	0.	-1589.5
11494	16.906	0.18182	5.e-002	-0.65099
11495	16.906	9.0909e-002	0.	-1561.3
11496	16.722	5.7273	0.	-1611.2
11497	16.63	5.8182	0.	-1635.
11498	16.722	5.8182	5.e-002	-0.57952
11499	16.722	5.9091	0.	-1606.8
11500	16.722	5.5455	0.	-1610.3
11501	16.63	5.6364	0.	-1633.
11502	16.722	5.6364	5.e-002	-4.3032
11503	16.722	5.3636	0.	-1610.3
11504	16.63	5.4545	0.	-1632.9
11505	16.722	5.4545	5.e-002	-4.5547
11506	16.722	5.1818	0.	-1610.6
11507	16.63	5.2727	0.	-1633.
11508	16.722	5.2727	5.e-002	-4.5691
11509	16.722	5.	0.	-1610.9
11510	16.63	5.0909	0.	-1633.2
11511	16.722	5.0909	5.e-002	-4.5665
11512	16.722	4.8182	0.	-1611.3
11513	16.63	4.9091	0.	-1633.5
11514	16.722	4.9091	5.e-002	-4.5617
11515	16.722	4.6364	0.	-1611.7
11516	16.63	4.7273	0.	-1633.9
11517	16.722	4.7273	5.e-002	-4.5558
11518	16.722	4.4545	0.	-1612.2
11519	16.63	4.5455	0.	-1634.2
11520	16.722	4.5455	5.e-002	-4.5493
11521	16.722	4.2727	0.	-1612.6
11522	16.63	4.3636	0.	-1634.6
11523	16.722	4.3636	5.e-002	-4.5425
11524	16.722	4.0909	0.	-1612.9
11525	16.63	4.1818	0.	-1634.9
11526	16.722	4.1818	5.e-002	-4.5357
11527	16.722	3.9091	0.	-1613.3
11528	16.63	4.	0.	-1635.2
11529	16.722	4.	5.e-002	-4.5293
11530	16.722	3.7273	0.	-1613.6
11531	16.63	3.8182	0.	-1635.5
11532	16.722	3.8182	5.e-002	-4.5234
11533	16.722	3.5455	0.	-1613.8
11534	16.63	3.6364	0.	-1635.7
11535	16.722	3.6364	5.e-002	-4.5185
11536	16.722	3.3636	0.	-1614.
11537	16.63	3.4545	0.	-1635.9
11538	16.722	3.4545	5.e-002	-4.5146
11539	16.722	3.1818	0.	-1614.1
11540	16.63	3.2727	0.	-1636.
11541	16.722	3.2727	5.e-002	-4.5119
11542	16.722	3.	0.	-1614.1
11543	16.63	3.0909	0.	-1636.1
11544	16.722	3.0909	5.e-002	-4.5105
11545	16.722	2.8182	0.	-1614.1
11546	16.63	2.9091	0.	-1636.1
11547	16.722	2.9091	5.e-002	-4.5105
11548	16.722	2.6364	0.	-1614.
11549	16.63	2.7273	0.	-1636.
11550	16.722	2.7273	5.e-002	-4.5119
11551	16.722	2.4545	0.	-1613.8
11552	16.63	2.5455	0.	-1635.9
11553	16.722	2.5455	5.e-002	-4.5146
11554	16.722	2.2727	0.	-1613.6
11555	16.63	2.3636	0.	-1635.7
11556	16.722	2.3636	5.e-002	-4.5185
11557	16.722	2.0909	0.	-1613.3
11558	16.63	2.1818	0.	-1635.5
11559	16.722	2.1818	5.e-002	-4.5234
11560	16.722	1.9091	0.	-1612.9
11561	16.63	2.	0.	-1635.2
11562	16.722	2.	5.e-002	-4.5293
11563	16.722	1.7273	0.	-1612.6
11564	16.63	1.8182	0.	-1634.9
11565	16.722	1.8182	5.e-002	-4.5357
11566	16.722	1.5455	0.	-1612.2
11567	16.63	1.6364	0.	-1634.6
11568	16.722	1.6364	5.e-002	-4.5424
11569	16.722	1.3636	0.	-1611.7
11570	16.63	1.4545	0.	-1634.2
11571	16.722	1.4545	5.e-002	-4.5493
11572	16.722	1.1818	0.	-1611.3
11573	16.63	1.2727	0.	-1633.9
11574	16.722	1.2727	5.e-002	-4.5558
11575	16.722	1.	0.	-1610.9
11576	16.63	1.0909	0.	-1633.5
11577	16.722	1.0909	5.e-002	-4.5617
11578	16.722	0.81818	0.	-1610.6
11579	16.63	0.90909	0.	-1633.2
11580	16.722	0.90909	5.e-002	-4.5665
11581	16.722	0.63636	0.	-1610.3
11582	16.63	0.72727	0.	-1633.
11583	16.722	0.72727	5.e-002	-4.5691
11584	16.722	0.45455	0.	-1610.3
11585	16.63	0.54545	0.	-1632.9
11586	16.722	0.54545	5.e-002	-4.5547
11587	16.722	0.27273	0.	-1611.2
11588	16.63	0.36364	0.	-1633.
11589	16.722	0.36364	5.e-002	-4.3032
11590	16.63	0.18182	0.	-1635.
11591	16.722	0.18182	5.e-002	-0.57952
11592	16.722	9.0909e-002	0.	-1606.8
11593	16.538	5.7273	0.	-1656.7
11594	16.447	5.8182	0.	-1680.6
11595	16.538	5.8182	5.e-002	-0.51705
11596	16.538	5.9091	0.	-1652.4
11597	16.538	5.5455	0.	-1655.6
11598	16.447	5.6364	0.	-1678.5
11599	16.538	5.6364	5.e-002	-4.3024
11600	16.538	5.3636	0.	-1655.5
11601	16.447	5.4545	0.	-1678.2
11602	16.538	5.4545	5.e-002	-4.5586
11603	16.538	5.1818	0.	-1655.6
11604	16.447	5.2727	0.	-1678.2
11605	16.538	5.2727	5.e-002	-4.5743
11606	16.538	5.	0.	-1655.8
11607	16.447	5.0909	0.	-1678.3
11608	16.538	5.0909	5.e-002	-4.573
11609	16.538	4.8182	0.	-1656.1
11610	16.447	4.9091	0.	-1678.4
11611	16.538	4.9091	5.e-002	-4.5696
11612	16.538	4.6364	0.	-1656.3
11613	16.447	4.7273	0.	-1678.6
11614	16.538	4.7273	5.e-002	-4.5654
11615	16.538	4.4545	0.	-1656.6
11616	16.447	4.5455	0.	-1678.9
11617	16.538	4.5455	5.e-002	-4.5606
11618	16.538	4.2727	0.	-1656.9
11619	16.447	4.3636	0.	-1679.1
11620	16.538	4.3636	5.e-002	-4.5555
11621	16.538	4.0909	0.	-1657.2
11622	16.447	4.1818	0.	-1679.3
11623	16.538	4.1818	5.e-002	-4.5504
11624	16.538	3.9091	0.	-1657.4
11625	16.447	4.	0.	-1679.5
11626	16.538	4.	5.e-002	-4.5456
11627	16.538	3.7273	0.	-1657.6
11628	16.447	3.8182	0.	-1679.7
11629	16.538	3.8182	5.e-002	-4.5412
11630	16.538	3.5455	0.	-1657.8
11631	16.447	3.6364	0.	-1679.9
11632	16.538	3.6364	5.e-002	-4.5374
11633	16.538	3.3636	0.	-1657.9
11634	16.447	3.4545	0.	-1680.
11635	16.538	3.4545	5.e-002	-4.5344
11636	16.538	3.1818	0.	-1658.
11637	16.447	3.2727	0.	-1680.1
11638	16.538	3.2727	5.e-002	-4.5324
11639	16.538	3.	0.	-1658.
11640	16.447	3.0909	0.	-1680.2
11641	16.538	3.0909	5.e-002	-4.5313
11642	16.538	2.8182	0.	-1658.
11643	16.447	2.9091	0.	-1680.2
11644	16.538	2.9091	5.e-002	-4.5313
11645	16.538	2.6364	0.	-1657.9
11646	16.447	2.7273	0.	-1680.1
11647	16.538	2.7273	5.e-002	-4.5324
11648	16.538	2.4545	0.	-1657.8
11649	16.447	2.5455	0.	-1680.
11650	16.538	2.5455	5.e-002	-4.5344
11651	16.538	2.2727	0.	-1657.6
11652	16.447	2.3636	0.	-1679.9
11653	16.538	2.3636	5.e-002	-4.5374
11654	16.538	2.0909	0.	-1657.4
11655	16.447	2.1818	0.	-1679.7
11656	16.538	2.1818	5.e-002	-4.5412
11657	16.538	1.9091	0.	-1657.2
11658	16.447	2.	0.	-1679.5
11659	16.538	2.	5.e-002	-4.5456
11660	16.538	1.7273	0.	-1656.9
11661	16.447	1.8182	0.	-1679.3
11662	16.538	1.8182	5.e-002	-4.5504
11663	16.538	1.5455	0.	-1656.6
11664	16.447	1.6364	0.	-1679.1
11665	16.538	1.6364	5.e-002	-4.5555
11666	16.538	1.3636	0.	-1656.3
11667	16.447	1.4545	0.	-1678.9
11668	16.538	1.4545	5.e-002	-4.5606
11669	16.538	1.1818	0.	-1656.1
11670	16.447	1.2727	0.	-1678.6
11671	16.538	1.2727	5.e-002	-4.5654
11672	16.538	1.	0.	-1655.8
11673	16.447	1.0909	0.	-1678.4
11674	16.538	1.0909	5.e-002	-4.5696
11675	16.538	0.81818	0.	-1655.6
11676	16.447	0.90909	0.	-1678.3
11677	16.538	0.90909	5.e-002	-4.573
11678	16.538	0.63636	0.	-1655.5
11679	16.447	0.72727	0.	-1678.2
11680	16.538	0.72727	5.e-002	-4.5742
11681	16.538	0.45455	0.	-1655.6
11682	16.447	0.54545	0.	-1678.2
11683	16.538	0.54545	5.e-002	-4.5586
11684	16.538	0.27273	0.	-1656.7
11685	16.447	0.36364	0.	-1678.5
11686	16.538	0.36364	5.e-002	-4.3023
11687	16.447	0.18182	0.	-1680.6
11688	16.538	0.18182	5.e-002	-0.51704
11689	16.538	9.0909e-002	0.	-1652.4
11690	16.355	5.7273	0.	-1702.2
11691	16.263	5.8182	0.	-1726.2
11692	16.355	5.8182	5.e-002	-0.46236
11693	16.355	5.9091	0.	-1698.
11694	16.355	5.5455	0.	-1701.1
11695	16.263	5.6364	0.	-1724.
11696	16.355	5.6364	5.e-002	-4.3045
11697	16.355	5.3636	0.	-1700.8
11698	16.263	5.4545	0.	-1723.6
11699	16.355	5.4545	5.e-002	-4.565
11700	16.355	5.1818	0.	-1700.8
11701	16.263	5.2727	0.	-1723.5
11702	16.355	5.2727	5.e-002	-4.5817
11703	16.355	5.	0.	-1700.8
11704	16.263	5.0909	0.	-1723.4
11705	16.355	5.0909	5.e-002	-4.5814
11706	16.355	4.8182	0.	-1701.
11707	16.263	4.9091	0.	-1723.5
11708	16.355	4.9091	5.e-002	-4.5792
11709	16.355	4.6364	0.	-1701.1
11710	16.263	4.7273	0.	-1723.6
11711	16.355	4.7273	5.e-002	-4.5762
11712	16.355	4.4545	0.	-1701.3
11713	16.263	4.5455	0.	-1723.7
11714	16.355	4.5455	5.e-002	-4.5728
11715	16.355	4.2727	0.	-1701.5
11716	16.263	4.3636	0.	-1723.8
11717	16.355	4.3636	5.e-002	-4.5691
11718	16.355	4.0909	0.	-1701.7
11719	16.263	4.1818	0.	-1724.
11720	16.355	4.1818	5.e-002	-4.5653
11721	16.355	3.9091	0.	-1701.8
11722	16.263	4.	0.	-1724.1
11723	16.355	4.	5.e-002	-4.5617
11724	16.355	3.7273	0.	-1702.
11725	16.263	3.8182	0.	-1724.2
11726	16.355	3.8182	5.e-002	-4.5584
11727	16.355	3.5455	0.	-1702.1
11728	16.263	3.6364	0.	-1724.3
11729	16.355	3.6364	5.e-002	-4.5556
11730	16.355	3.3636	0.	-1702.2
11731	16.263	3.4545	0.	-1724.4
11732	16.355	3.4545	5.e-002	-4.5533
11733	16.355	3.1818	0.	-1702.2
11734	16.263	3.2727	0.	-1724.5
11735	16.355	3.2727	5.e-002	-4.5518
11736	16.355	3.	0.	-1702.2
11737	16.263	3.0909	0.	-1724.5
11738	16.355	3.0909	5.e-002	-4.551
11739	16.355	2.8182	0.	-1702.2
11740	16.263	2.9091	0.	-1724.5
11741	16.355	2.9091	5.e-002	-4.551
11742	16.355	2.6364	0.	-1702.2
11743	16.263	2.7273	0.	-1724.5
11744	16.355	2.7273	5.e-002	-4.5518
11745	16.355	2.4545	0.	-1702.1
11746	16.263	2.5455	0.	-1724.4
11747	16.355	2.5455	5.e-002	-4.5533
11748	16.355	2.2727	0.	-1702.
11749	16.263	2.3636	0.	-1724.3
11750	16.355	2.3636	5.e-002	-4.5556
11751	16.355	2.0909	0.	-1701.8
11752	16.263	2.1818	0.	-1724.2
11753	16.355	2.1818	5.e-002	-4.5584
11754	16.355	1.9091	0.	-1701.7
11755	16.263	2.	0.	-1724.1
11756	16.355	2.	5.e-002	-4.5617
11757	16.355	1.7273	0.	-1701.5
11758	16.263	1.8182	0.	-1724.
11759	16.355	1.8182	5.e-002	-4.5653
11760	16.355	1.5455	0.	-1701.3
11761	16.263	1.6364	0.	-1723.8
11762	16.355	1.6364	5.e-002	-4.569
11763	16.355	1.3636	0.	-1701.1
11764	16.263	1.4545	0.	-1723.7
11765	16.355	1.4545	5.e-002	-4.5728
11766	16.355	1.1818	0.	-1701.
11767	16.263	1.2727	0.	-1723.6
11768	16.355	1.2727	5.e-002	-4.5762
11769	16.355	1.	0.	-1700.8
11770	16.263	1.0909	0.	-1723.5
11771	16.355	1.0909	5.e-002	-4.5792
11772	16.355	0.81818	0.	-1700.8
11773	16.263	0.90909	0.	-1723.4
11774	16.355	0.90909	5.e-002	-4.5814
11775	16.355	0.63636	0.	-1700.8
11776	16.263	0.72727	0.	-1723.5
11777	16.355	0.72727	5.e-002	-4.5817
11778	16.355	0.45455	0.	-1701.1
11779	16.263	0.54545	0.	-1723.6
11780	16.355	0.54545	5.e-002	-4.565
11781	16.355	0.27273	0.	-1702.2
11782	16.263	0.36364	0.	-1724.
11783	16.355	0.36364	5.e-002	-4.3045
11784	16.263	0.18182	0.	-1726.2
11785	16.355	0.18182	5.e-002	-0.46236
11786	16.355	9.0909e-002	0.	-1698.
11787	16.171	5.7273	0.	-1747.9
11788	16.079	5.8182	0.	-1772.
11789	16.171	5.8182	5.e-002	-0.41451
11790	16.171	5.9091	0.	-1743.7
11791	16.171	5.5455	0.	-1746.6
11792	16.079	5.6364	0.	-1769.7
11793	16.171	5.6364	5.e-002	-4.3091
11794	16.171	5.3636	0.	-1746.3
11795	16.079	5.4545	0.	-1769.2
11796	16.171	5.4545	5.e-002	-4.5736
11797	16.171	5.1818	0.	-1746.1
11798	16.079	5.2727	0.	-1768.9
11799	16.171	5.2727	5.e-002	-4.591
11800	16.171	5.	0.	-1746.
11801	16.079	5.0909	0.	-1768.8
11802	16.171	5.0909	5.e-002	-4.5914
11803	16.171	4.8182	0.	-1746.
11804	16.079	4.9091	0.	-1768.7
11805	16.171	4.9091	5.e-002	-4.5901
11806	16.171	4.6364	0.	-1746.1
11807	16.079	4.7273	0.	-1768.7
11808	16.171	4.7273	5.e-002	-4.5881
11809	16.171	4.4545	0.	-1746.2
11810	16.079	4.5455	0.	-1768.7
11811	16.171	4.5455	5.e-002	-4.5857
11812	16.171	4.2727	0.	-1746.3
11813	16.079	4.3636	0.	-1768.7
11814	16.171	4.3636	5.e-002	-4.5831
11815	16.171	4.0909	0.	-1746.4
11816	16.079	4.1818	0.	-1768.8
11817	16.171	4.1818	5.e-002	-4.5804
11818	16.171	3.9091	0.	-1746.5
11819	16.079	4.	0.	-1768.9
11820	16.171	4.	5.e-002	-4.5778
11821	16.171	3.7273	0.	-1746.6
11822	16.079	3.8182	0.	-1768.9
11823	16.171	3.8182	5.e-002	-4.5753
11824	16.171	3.5455	0.	-1746.6
11825	16.079	3.6364	0.	-1769.
11826	16.171	3.6364	5.e-002	-4.5733
11827	16.171	3.3636	0.	-1746.7
11828	16.079	3.4545	0.	-1769.1
11829	16.171	3.4545	5.e-002	-4.5716
11830	16.171	3.1818	0.	-1746.7
11831	16.079	3.2727	0.	-1769.1
11832	16.171	3.2727	5.e-002	-4.5704
11833	16.171	3.	0.	-1746.7
11834	16.079	3.0909	0.	-1769.1
11835	16.171	3.0909	5.e-002	-4.5698
11836	16.171	2.8182	0.	-1746.7
11837	16.079	2.9091	0.	-1769.1
11838	16.171	2.9091	5.e-002	-4.5698
11839	16.171	2.6364	0.	-1746.7
11840	16.079	2.7273	0.	-1769.1
11841	16.171	2.7273	5.e-002	-4.5704
11842	16.171	2.4545	0.	-1746.6
11843	16.079	2.5455	0.	-1769.1
11844	16.171	2.5455	5.e-002	-4.5716
11845	16.171	2.2727	0.	-1746.6
11846	16.079	2.3636	0.	-1769.
11847	16.171	2.3636	5.e-002	-4.5733
11848	16.171	2.0909	0.	-1746.5
11849	16.079	2.1818	0.	-1768.9
11850	16.171	2.1818	5.e-002	-4.5753
11851	16.171	1.9091	0.	-1746.4
11852	16.079	2.	0.	-1768.9
11853	16.171	2.	5.e-002	-4.5778
11854	16.171	1.7273	0.	-1746.3
11855	16.079	1.8182	0.	-1768.8
11856	16.171	1.8182	5.e-002	-4.5804
11857	16.171	1.5455	0.	-1746.2
11858	16.079	1.6364	0.	-1768.7
11859	16.171	1.6364	5.e-002	-4.5831
11860	16.171	1.3636	0.	-1746.1
11861	16.079	1.4545	0.	-1768.7
11862	16.171	1.4545	5.e-002	-4.5857
11863	16.171	1.1818	0.	-1746.
11864	16.079	1.2727	0.	-1768.7
11865	16.171	1.2727	5.e-002	-4.5881
11866	16.171	1.	0.	-1746.
11867	16.079	1.0909	0.	-1768.7
11868	16.171	1.0909	5.e-002	-4.5901
11869	16.171	0.81818	0.	-1746.1
11870	16.079	0.90909	0.	-1768.8
11871	16.171	0.90909	5.e-002	-4.5914
11872	16.171	0.63636	0.	-1746.3
11873	16.079	0.72727	0.	-1768.9
11874	16.171	0.72727	5.e-002	-4.591
11875	16.171	0.45455	0.	-1746.6
11876	16.079	0.54545	0.	-1769.2
11877	16.171	0.54545	5.e-002	-4.5736
11878	16.171	0.27273	0.	-1747.9
11879	16.079	0.36364	0.	-1769.7
11880	16.171	0.36364	5.e-002	-4.3091
11881	16.079	0.18182	0.	-1772.
11882	16.171	0.18182	5.e-002	-0.4145
11883	16.171	9.0909e-002	0.	-1743.7
11884	15.987	5.7273	0.	-1793.6
11885	15.895	5.8182	0.	-1817.8
11886	15.987	5.8182	5.e-002	-0.37269
11887	15.987	5.9091	0.	-1789.5
11888	15.987	5.5455	0.	-1792.2
11889	15.895	5.6364	0.	-1815.4
11890	15.987	5.6364	5.e-002	-4.3159
11891	15.987	5.3636	0.	-1791.8
11892	15.895	5.4545	0.	-1814.8
11893	15.987	5.4545	5.e-002	-4.5839
11894	15.987	5.1818	0.	-1791.5
11895	15.895	5.2727	0.	-1814.5
11896	15.987	5.2727	5.e-002	-4.6019
11897	15.987	5.	0.	-1791.4
11898	15.895	5.0909	0.	-1814.2
11899	15.987	5.0909	5.e-002	-4.6029
11900	15.987	4.8182	0.	-1791.3
11901	15.895	4.9091	0.	-1814.1
11902	15.987	4.9091	5.e-002	-4.6023
11903	15.987	4.6364	0.	-1791.2
11904	15.895	4.7273	0.	-1814.
11905	15.987	4.7273	5.e-002	-4.6011
11906	15.987	4.4545	0.	-1791.2
11907	15.895	4.5455	0.	-1813.9
11908	15.987	4.5455	5.e-002	-4.5995
11909	15.987	4.2727	0.	-1791.3
11910	15.895	4.3636	0.	-1813.9
11911	15.987	4.3636	5.e-002	-4.5977
11912	15.987	4.0909	0.	-1791.3
11913	15.895	4.1818	0.	-1813.9
11914	15.987	4.1818	5.e-002	-4.5958
11915	15.987	3.9091	0.	-1791.3
11916	15.895	4.	0.	-1813.9
11917	15.987	4.	5.e-002	-4.5939
11918	15.987	3.7273	0.	-1791.4
11919	15.895	3.8182	0.	-1813.9
11920	15.987	3.8182	5.e-002	-4.5922
11921	15.987	3.5455	0.	-1791.4
11922	15.895	3.6364	0.	-1813.9
11923	15.987	3.6364	5.e-002	-4.5907
11924	15.987	3.3636	0.	-1791.4
11925	15.895	3.4545	0.	-1813.9
11926	15.987	3.4545	5.e-002	-4.5895
11927	15.987	3.1818	0.	-1791.5
11928	15.895	3.2727	0.	-1814.
11929	15.987	3.2727	5.e-002	-4.5886
11930	15.987	3.	0.	-1791.5
11931	15.895	3.0909	0.	-1814.
11932	15.987	3.0909	5.e-002	-4.5882
11933	15.987	2.8182	0.	-1791.5
11934	15.895	2.9091	0.	-1814.
11935	15.987	2.9091	5.e-002	-4.5882
11936	15.987	2.6364	0.	-1791.4
11937	15.895	2.7273	0.	-1814.
11938	15.987	2.7273	5.e-002	-4.5886
11939	15.987	2.4545	0.	-1791.4
11940	15.895	2.5455	0.	-1813.9
11941	15.987	2.5455	5.e-002	-4.5895
11942	15.987	2.2727	0.	-1791.4
11943	15.895	2.3636	0.	-1813.9
11944	15.987	2.3636	5.e-002	-4.5907
11945	15.987	2.0909	0.	-1791.3
11946	15.895	2.1818	0.	-1813.9
11947	15.987	2.1818	5.e-002	-4.5922
11948	15.987	1.9091	0.	-1791.3
11949	15.895	2.	0.	-1813.9
11950	15.987	2.	5.e-002	-4.5939
11951	15.987	1.7273	0.	-1791.3
11952	15.895	1.8182	0.	-1813.9
11953	15.987	1.8182	5.e-002	-4.5958
11954	15.987	1.5455	0.	-1791.2
11955	15.895	1.6364	0.	-1813.9
11956	15.987	1.6364	5.e-002	-4.5977
11957	15.987	1.3636	0.	-1791.2
11958	15.895	1.4545	0.	-1813.9
11959	15.987	1.4545	5.e-002	-4.5995
11960	15.987	1.1818	0.	-1791.3
11961	15.895	1.2727	0.	-1814.
11962	15.987	1.2727	5.e-002	-4.6011
11963	15.987	1.	0.	-1791.4
11964	15.895	1.0909	0.	-1814.1
11965	15.987	1.0909	5.e-002	-4.6023
11966	15.987	0.81818	0.	-1791.5
11967	15.895	0.90909	0.	-1814.2
11968	15.987	0.90909	5.e-002	-4.6029
11969	15.987	0.63636	0.	-1791.8
11970	15.895	0.72727	0.	-1814.5
11971	15.987	0.72727	5.e-002	-4.6019
11972	15.987	0.45455	0.	-1792.2
11973	15.895	0.54545	0.	-1814.8
11974	15.987	0.54545	5.e-002	-4.5839
11975	15.987	0.27273	0.	-1793.6
11976	15.895	0.36364	0.	-1815.4
11977	15.987	0.36364	5.e-002	-4.3159
11978	15.895	0.18182	0.	-1817.8
11979	15.987	0.18182	5.e-002	-0.37269
11980	15.987	9.0909e-002	0.	-1789.5
11981	15.803	5.7273	0.	-1839.5
11982	15.712	5.8182	0.	-1863.7
11983	15.803	5.8182	5.e-002	-0.33616
11984	15.803	5.9091	0.	-1835.4
11985	15.803	5.5455	0.	-1838.
11986	15.712	5.6364	0.	-1861.3
11987	15.803	5.6364	5.e-002	-4.3244
11988	15.803	5.3636	0.	-1837.5
11989	15.712	5.4545	0.	-1860.6
11990	15.803	5.4545	5.e-002	-4.5956
11991	15.803	5.1818	0.	-1837.1
11992	15.712	5.2727	0.	-1860.2
11993	15.803	5.2727	5.e-002	-4.6141
11994	15.803	5.	0.	-1836.9
11995	15.712	5.0909	0.	-1859.9
11996	15.803	5.0909	5.e-002	-4.6156
11997	15.803	4.8182	0.	-1836.7
11998	15.712	4.9091	0.	-1859.6
11999	15.803	4.9091	5.e-002	-4.6155
12000	15.803	4.6364	0.	-1836.6
12001	15.712	4.7273	0.	-1859.4
12002	15.803	4.7273	5.e-002	-4.6149
12003	15.803	4.4545	0.	-1836.5
12004	15.712	4.5455	0.	-1859.3
12005	15.803	4.5455	5.e-002	-4.6139
12006	15.803	4.2727	0.	-1836.5
12007	15.712	4.3636	0.	-1859.2
12008	15.803	4.3636	5.e-002	-4.6128
12009	15.803	4.0909	0.	-1836.4
12010	15.712	4.1818	0.	-1859.2
12011	15.803	4.1818	5.e-002	-4.6115
12012	15.803	3.9091	0.	-1836.4
12013	15.712	4.	0.	-1859.1
12014	15.803	4.	5.e-002	-4.6102
12015	15.803	3.7273	0.	-1836.4
12016	15.712	3.8182	0.	-1859.1
12017	15.803	3.8182	5.e-002	-4.609
12018	15.803	3.5455	0.	-1836.4
12019	15.712	3.6364	0.	-1859.1
12020	15.803	3.6364	5.e-002	-4.608
12021	15.803	3.3636	0.	-1836.4
12022	15.712	3.4545	0.	-1859.1
12023	15.803	3.4545	5.e-002	-4.6071
12024	15.803	3.1818	0.	-1836.4
12025	15.712	3.2727	0.	-1859.1
12026	15.803	3.2727	5.e-002	-4.6065
12027	15.803	3.	0.	-1836.4
12028	15.712	3.0909	0.	-1859.
12029	15.803	3.0909	5.e-002	-4.6062
12030	15.803	2.8182	0.	-1836.4
12031	15.712	2.9091	0.	-1859.
12032	15.803	2.9091	5.e-002	-4.6062
12033	15.803	2.6364	0.	-1836.4
12034	15.712	2.7273	0.	-1859.1
12035	15.803	2.7273	5.e-002	-4.6065
12036	15.803	2.4545	0.	-1836.4
12037	15.712	2.5455	0.	-1859.1
12038	15.803	2.5455	5.e-002	-4.6071
12039	15.803	2.2727	0.	-1836.4
12040	15.712	2.3636	0.	-1859.1
12041	15.803	2.3636	5.e-002	-4.608
12042	15.803	2.0909	0.	-1836.4
12043	15.712	2.1818	0.	-1859.1
12044	15.803	2.1818	5.e-002	-4.609
12045	15.803	1.9091	0.	-1836.4
12046	15.712	2.	0.	-1859.1
12047	15.803	2.	5.e-002	-4.6102
12048	15.803	1.7273	0.	-1836.5
12049	15.712	1.8182	0.	-1859.2
12050	15.803	1.8182	5.e-002	-4.6115
12051	15.803	1.5455	0.	-1836.5
12052	15.712	1.6364	0.	-1859.2
12053	15.803	1.6364	5.e-002	-4.6128
12054	15.803	1.3636	0.	-1836.6
12055	15.712	1.4545	0.	-1859.3
12056	15.803	1.4545	5.e-002	-4.6139
12057	15.803	1.1818	0.	-1836.7
12058	15.712	1.2727	0.	-1859.4
12059	15.803	1.2727	5.e-002	-4.6149
12060	15.803	1.	0.	-1836.9
12061	15.712	1.0909	0.	-1859.6
12062	15.803	1.0909	5.e-002	-4.6155
12063	15.803	0.81818	0.	-1837.1
12064	15.712	0.90909	0.	-1859.9
12065	15.803	0.90909	5.e-002	-4.6156
12066	15.803	0.63636	0.	-1837.5
12067	15.712	0.72727	0.	-1860.2
12068	15.803	0.72727	5.e-002	-4.6141
12069	15.803	0.45455	0.	-1838.
12070	15.712	0.54545	0.	-1860.6
12071	15.803	0.54545	5.e-002	-4.5956
12072	15.803	0.27273	0.	-1839.5
12073	15.712	0.36364	0.	-1861.3
12074	15.803	0.36364	5.e-002	-4.3244
12075	15.712	0.18182	0.	-1863.7
12076	15.803	0.18182	5.e-002	-0.33616
12077	15.803	9.0909e-002	0.	-1835.4
12078	15.62	5.7273	0.	-1885.4
12079	15.528	5.8182	0.	-1909.8
12080	15.62	5.8182	5.e-002	-0.30429
12081	15.62	5.9091	0.	-1881.4
12082	15.62	5.5455	0.	-1883.9
12083	15.528	5.6364	0.	-1907.3
12084	15.62	5.6364	5.e-002	-4.3343
12085	15.62	5.3636	0.	-1883.3
12086	15.528	5.4545	0.	-1906.6
12087	15.62	5.4545	5.e-002	-4.6085
12088	15.62	5.1818	0.	-1882.9
12089	15.528	5.2727	0.	-1906.1
12090	15.62	5.2727	5.e-002	-4.6275
12091	15.62	5.	0.	-1882.6
12092	15.528	5.0909	0.	-1905.7
12093	15.62	5.0909	5.e-002	-4.6293
12094	15.62	4.8182	0.	-1882.3
12095	15.528	4.9091	0.	-1905.4
12096	15.62	4.9091	5.e-002	-4.6296
12097	15.62	4.6364	0.	-1882.1
12098	15.528	4.7273	0.	-1905.1
12099	15.62	4.7273	5.e-002	-4.6294
12100	15.62	4.4545	0.	-1882.
12101	15.528	4.5455	0.	-1904.9
12102	15.62	4.5455	5.e-002	-4.629
12103	15.62	4.2727	0.	-1881.9
12104	15.528	4.3636	0.	-1904.8
12105	15.62	4.3636	5.e-002	-4.6283
12106	15.62	4.0909	0.	-1881.8
12107	15.528	4.1818	0.	-1904.6
12108	15.62	4.1818	5.e-002	-4.6275
12109	15.62	3.9091	0.	-1881.7
12110	15.528	4.	0.	-1904.6
12111	15.62	4.	5.e-002	-4.6267
12112	15.62	3.7273	0.	-1881.7
12113	15.528	3.8182	0.	-1904.5
12114	15.62	3.8182	5.e-002	-4.6259
12115	15.62	3.5455	0.	-1881.7
12116	15.528	3.6364	0.	-1904.4
12117	15.62	3.6364	5.e-002	-4.6252
12118	15.62	3.3636	0.	-1881.7
12119	15.528	3.4545	0.	-1904.4
12120	15.62	3.4545	5.e-002	-4.6246
12121	15.62	3.1818	0.	-1881.6
12122	15.528	3.2727	0.	-1904.4
12123	15.62	3.2727	5.e-002	-4.6242
12124	15.62	3.	0.	-1881.6
12125	15.528	3.0909	0.	-1904.4
12126	15.62	3.0909	5.e-002	-4.624
12127	15.62	2.8182	0.	-1881.6
12128	15.528	2.9091	0.	-1904.4
12129	15.62	2.9091	5.e-002	-4.624
12130	15.62	2.6364	0.	-1881.7
12131	15.528	2.7273	0.	-1904.4
12132	15.62	2.7273	5.e-002	-4.6242
12133	15.62	2.4545	0.	-1881.7
12134	15.528	2.5455	0.	-1904.4
12135	15.62	2.5455	5.e-002	-4.6246
12136	15.62	2.2727	0.	-1881.7
12137	15.528	2.3636	0.	-1904.4
12138	15.62	2.3636	5.e-002	-4.6252
12139	15.62	2.0909	0.	-1881.7
12140	15.528	2.1818	0.	-1904.5
12141	15.62	2.1818	5.e-002	-4.6259
12142	15.62	1.9091	0.	-1881.8
12143	15.528	2.	0.	-1904.6
12144	15.62	2.	5.e-002	-4.6267
12145	15.62	1.7273	0.	-1881.9
12146	15.528	1.8182	0.	-1904.6
12147	15.62	1.8182	5.e-002	-4.6275
12148	15.62	1.5455	0.	-1882.
12149	15.528	1.6364	0.	-1904.8
12150	15.62	1.6364	5.e-002	-4.6283
12151	15.62	1.3636	0.	-1882.1
12152	15.528	1.4545	0.	-1904.9
12153	15.62	1.4545	5.e-002	-4.629
12154	15.62	1.1818	0.	-1882.3
12155	15.528	1.2727	0.	-1905.1
12156	15.62	1.2727	5.e-002	-4.6294
12157	15.62	1.	0.	-1882.6
12158	15.528	1.0909	0.	-1905.4
12159	15.62	1.0909	5.e-002	-4.6296
12160	15.62	0.81818	0.	-1882.9
12161	15.528	0.90909	0.	-1905.7
12162	15.62	0.90909	5.e-002	-4.6293
12163	15.62	0.63636	0.	-1883.3
12164	15.528	0.72727	0.	-1906.1
12165	15.62	0.72727	5.e-002	-4.6275
12166	15.62	0.45455	0.	-1883.9
12167	15.528	0.54545	0.	-1906.6
12168	15.62	0.54545	5.e-002	-4.6085
12169	15.62	0.27273	0.	-1885.4
12170	15.528	0.36364	0.	-1907.3
12171	15.62	0.36364	5.e-002	-4.3343
12172	15.528	0.18182	0.	-1909.8
12173	15.62	0.18182	5.e-002	-0.30429
12174	15.62	9.0909e-002	0.	-1881.4
12175	15.436	5.7273	0.	-1931.6
12176	15.344	5.8182	0.	-1956.
12177	15.436	5.8182	5.e-002	-0.27651
12178	15.436	5.9091	0.	-1927.6
12179	15.436	5.5455	0.	-1930.
12180	15.344	5.6364	0.	-1953.5
12181	15.436	5.6364	5.e-002	-4.3455
12182	15.436	5.3636	0.	-1929.3
12183	15.344	5.4545	0.	-1952.7
12184	15.436	5.4545	5.e-002	-4.6225
12185	15.436	5.1818	0.	-1928.8
12186	15.344	5.2727	0.	-1952.1
12187	15.436	5.2727	5.e-002	-4.6417
12188	15.436	5.	0.	-1928.4
12189	15.344	5.0909	0.	-1951.7
12190	15.436	5.0909	5.e-002	-4.6438
12191	15.436	4.8182	0.	-1928.1
12192	15.344	4.9091	0.	-1951.3
12193	15.436	4.9091	5.e-002	-4.6444
12194	15.436	4.6364	0.	-1927.9
12195	15.344	4.7273	0.	-1951.
12196	15.436	4.7273	5.e-002	-4.6446
12197	15.436	4.4545	0.	-1927.7
12198	15.344	4.5455	0.	-1950.7
12199	15.436	4.5455	5.e-002	-4.6445
12200	15.436	4.2727	0.	-1927.5
12201	15.344	4.3636	0.	-1950.5
12202	15.436	4.3636	5.e-002	-4.6443
12203	15.436	4.0909	0.	-1927.4
12204	15.344	4.1818	0.	-1950.3
12205	15.436	4.1818	5.e-002	-4.6439
12206	15.436	3.9091	0.	-1927.3
12207	15.344	4.	0.	-1950.2
12208	15.436	4.	5.e-002	-4.6434
12209	15.436	3.7273	0.	-1927.2
12210	15.344	3.8182	0.	-1950.1
12211	15.436	3.8182	5.e-002	-4.643
12212	15.436	3.5455	0.	-1927.1
12213	15.344	3.6364	0.	-1950.
12214	15.436	3.6364	5.e-002	-4.6425
12215	15.436	3.3636	0.	-1927.1
12216	15.344	3.4545	0.	-1950.
12217	15.436	3.4545	5.e-002	-4.6422
12218	15.436	3.1818	0.	-1927.1
12219	15.344	3.2727	0.	-1949.9
12220	15.436	3.2727	5.e-002	-4.6419
12221	15.436	3.	0.	-1927.1
12222	15.344	3.0909	0.	-1949.9
12223	15.436	3.0909	5.e-002	-4.6418
12224	15.436	2.8182	0.	-1927.1
12225	15.344	2.9091	0.	-1949.9
12226	15.436	2.9091	5.e-002	-4.6418
12227	15.436	2.6364	0.	-1927.1
12228	15.344	2.7273	0.	-1949.9
12229	15.436	2.7273	5.e-002	-4.6419
12230	15.436	2.4545	0.	-1927.1
12231	15.344	2.5455	0.	-1950.
12232	15.436	2.5455	5.e-002	-4.6422
12233	15.436	2.2727	0.	-1927.2
12234	15.344	2.3636	0.	-1950.
12235	15.436	2.3636	5.e-002	-4.6425
12236	15.436	2.0909	0.	-1927.3
12237	15.344	2.1818	0.	-1950.1
12238	15.436	2.1818	5.e-002	-4.643
12239	15.436	1.9091	0.	-1927.4
12240	15.344	2.	0.	-1950.2
12241	15.436	2.	5.e-002	-4.6434
12242	15.436	1.7273	0.	-1927.5
12243	15.344	1.8182	0.	-1950.3
12244	15.436	1.8182	5.e-002	-4.6439
12245	15.436	1.5455	0.	-1927.7
12246	15.344	1.6364	0.	-1950.5
12247	15.436	1.6364	5.e-002	-4.6443
12248	15.436	1.3636	0.	-1927.9
12249	15.344	1.4545	0.	-1950.7
12250	15.436	1.4545	5.e-002	-4.6445
12251	15.436	1.1818	0.	-1928.1
12252	15.344	1.2727	0.	-1951.
12253	15.436	1.2727	5.e-002	-4.6446
12254	15.436	1.	0.	-1928.4
12255	15.344	1.0909	0.	-1951.3
12256	15.436	1.0909	5.e-002	-4.6444
12257	15.436	0.81818	0.	-1928.8
12258	15.344	0.90909	0.	-1951.7
12259	15.436	0.90909	5.e-002	-4.6438
12260	15.436	0.63636	0.	-1929.3
12261	15.344	0.72727	0.	-1952.1
12262	15.436	0.72727	5.e-002	-4.6417
12263	15.436	0.45455	0.	-1930.
12264	15.344	0.54545	0.	-1952.7
12265	15.436	0.54545	5.e-002	-4.6225
12266	15.436	0.27273	0.	-1931.6
12267	15.344	0.36364	0.	-1953.5
12268	15.436	0.36364	5.e-002	-4.3455
12269	15.344	0.18182	0.	-1956.
12270	15.436	0.18182	5.e-002	-0.27651
12271	15.436	9.0909e-002	0.	-1927.6
12272	15.252	5.7273	0.	-1977.8
12273	15.16	5.8182	0.	-2002.4
12274	15.252	5.8182	5.e-002	-0.25231
12275	15.252	5.9091	0.	-1974.
12276	15.252	5.5455	0.	-1976.2
12277	15.16	5.6364	0.	-1999.8
12278	15.252	5.6364	5.e-002	-4.3578
12279	15.252	5.3636	0.	-1975.5
12280	15.16	5.4545	0.	-1999.
12281	15.252	5.4545	5.e-002	-4.6373
12282	15.252	5.1818	0.	-1974.9
12283	15.16	5.2727	0.	-1998.4
12284	15.252	5.2727	5.e-002	-4.6569
12285	15.252	5.	0.	-1974.5
12286	15.16	5.0909	0.	-1997.8
12287	15.252	5.0909	5.e-002	-4.6591
12288	15.252	4.8182	0.	-1974.1
12289	15.16	4.9091	0.	-1997.4
12290	15.252	4.9091	5.e-002	-4.66
12291	15.252	4.6364	0.	-1973.8
12292	15.16	4.7273	0.	-1997.
12293	15.252	4.7273	5.e-002	-4.6604
12294	15.252	4.4545	0.	-1973.5
12295	15.16	4.5455	0.	-1996.7
12296	15.252	4.5455	5.e-002	-4.6607
12297	15.252	4.2727	0.	-1973.3
12298	15.16	4.3636	0.	-1996.4
12299	15.252	4.3636	5.e-002	-4.6607
12300	15.252	4.0909	0.	-1973.1
12301	15.16	4.1818	0.	-1996.2
12302	15.252	4.1818	5.e-002	-4.6606
12303	15.252	3.9091	0.	-1973.
12304	15.16	4.	0.	-1996.1
12305	15.252	4.	5.e-002	-4.6604
12306	15.252	3.7273	0.	-1972.9
12307	15.16	3.8182	0.	-1995.9
12308	15.252	3.8182	5.e-002	-4.6602
12309	15.252	3.5455	0.	-1972.8
12310	15.16	3.6364	0.	-1995.8
12311	15.252	3.6364	5.e-002	-4.66
12312	15.252	3.3636	0.	-1972.8
12313	15.16	3.4545	0.	-1995.8
12314	15.252	3.4545	5.e-002	-4.6598
12315	15.252	3.1818	0.	-1972.7
12316	15.16	3.2727	0.	-1995.7
12317	15.252	3.2727	5.e-002	-4.6597
12318	15.252	3.	0.	-1972.7
12319	15.16	3.0909	0.	-1995.7
12320	15.252	3.0909	5.e-002	-4.6596
12321	15.252	2.8182	0.	-1972.7
12322	15.16	2.9091	0.	-1995.7
12323	15.252	2.9091	5.e-002	-4.6596
12324	15.252	2.6364	0.	-1972.8
12325	15.16	2.7273	0.	-1995.7
12326	15.252	2.7273	5.e-002	-4.6597
12327	15.252	2.4545	0.	-1972.8
12328	15.16	2.5455	0.	-1995.8
12329	15.252	2.5455	5.e-002	-4.6598
12330	15.252	2.2727	0.	-1972.9
12331	15.16	2.3636	0.	-1995.8
12332	15.252	2.3636	5.e-002	-4.66
12333	15.252	2.0909	0.	-1973.
12334	15.16	2.1818	0.	-1995.9
12335	15.252	2.1818	5.e-002	-4.6602
12336	15.252	1.9091	0.	-1973.1
12337	15.16	2.	0.	-1996.1
12338	15.252	2.	5.e-002	-4.6604
12339	15.252	1.7273	0.	-1973.3
12340	15.16	1.8182	0.	-1996.2
12341	15.252	1.8182	5.e-002	-4.6606
12342	15.252	1.5455	0.	-1973.5
12343	15.16	1.6364	0.	-1996.4
12344	15.252	1.6364	5.e-002	-4.6607
12345	15.252	1.3636	0.	-1973.8
12346	15.16	1.4545	0.	-1996.7
12347	15.252	1.4545	5.e-002	-4.6607
12348	15.252	1.1818	0.	-1974.1
12349	15.16	1.2727	0.	-1997.
12350	15.252	1.2727	5.e-002	-4.6604
12351	15.252	1.	0.	-1974.5
12352	15.16	1.0909	0.	-1997.4
12353	15.252	1.0909	5.e-002	-4.66
12354	15.252	0.81818	0.	-1974.9
12355	15.16	0.90909	0.	-1997.8
12356	15.252	0.90909	5.e-002	-4.6591
12357	15.252	0.63636	0.	-1975.5
12358	15.16	0.72727	0.	-1998.4
12359	15.252	0.72727	5.e-002	-4.6569
12360	15.252	0.45455	0.	-1976.2
12361	15.16	0.54545	0.	-1999.
12362	15.252	0.54545	5.e-002	-4.6373
12363	15.252	0.27273	0.	-1977.8
12364	15.16	0.36364	0.	-1999.8
12365	15.252	0.36364	5.e-002	-4.3578
12366	15.16	0.18182	0.	-2002.4
12367	15.252	0.18182	5.e-002	-0.2523
12368	15.252	9.0909e-002	0.	-1974.
12369	15.068	5.7273	0.	-2024.3
12370	14.976	5.8182	0.	-2048.9
12371	15.068	5.8182	5.e-002	-0.23118
12372	15.068	5.9091	0.	-2020.5
12373	15.068	5.5455	0.	-2022.6
12374	14.976	5.6364	0.	-2046.3
12375	15.068	5.6364	5.e-002	-4.371
12376	15.068	5.3636	0.	-2021.8
12377	14.976	5.4545	0.	-2045.4
12378	15.068	5.4545	5.e-002	-4.6529
12379	15.068	5.1818	0.	-2021.2
12380	14.976	5.2727	0.	-2044.7
12381	15.068	5.2727	5.e-002	-4.6727
12382	15.068	5.	0.	-2020.7
12383	14.976	5.0909	0.	-2044.2
12384	15.068	5.0909	5.e-002	-4.6752
12385	15.068	4.8182	0.	-2020.3
12386	14.976	4.9091	0.	-2043.7
12387	15.068	4.9091	5.e-002	-4.6762
12388	15.068	4.6364	0.	-2019.9
12389	14.976	4.7273	0.	-2043.3
12390	15.068	4.7273	5.e-002	-4.6768
12391	15.068	4.4545	0.	-2019.6
12392	14.976	4.5455	0.	-2042.9
12393	15.068	4.5455	5.e-002	-4.6773
12394	15.068	4.2727	0.	-2019.3
12395	14.976	4.3636	0.	-2042.6
12396	15.068	4.3636	5.e-002	-4.6776
12397	15.068	4.0909	0.	-2019.1
12398	14.976	4.1818	0.	-2042.3
12399	15.068	4.1818	5.e-002	-4.6777
12400	15.068	3.9091	0.	-2019.
12401	14.976	4.	0.	-2042.1
12402	15.068	4.	5.e-002	-4.6778
12403	15.068	3.7273	0.	-2018.8
12404	14.976	3.8182	0.	-2042.
12405	15.068	3.8182	5.e-002	-4.6778
12406	15.068	3.5455	0.	-2018.7
12407	14.976	3.6364	0.	-2041.8
12408	15.068	3.6364	5.e-002	-4.6777
12409	15.068	3.3636	0.	-2018.7
12410	14.976	3.4545	0.	-2041.8
12411	15.068	3.4545	5.e-002	-4.6777
12412	15.068	3.1818	0.	-2018.6
12413	14.976	3.2727	0.	-2041.7
12414	15.068	3.2727	5.e-002	-4.6776
12415	15.068	3.	0.	-2018.6
12416	14.976	3.0909	0.	-2041.7
12417	15.068	3.0909	5.e-002	-4.6776
12418	15.068	2.8182	0.	-2018.6
12419	14.976	2.9091	0.	-2041.7
12420	15.068	2.9091	5.e-002	-4.6776
12421	15.068	2.6364	0.	-2018.7
12422	14.976	2.7273	0.	-2041.7
12423	15.068	2.7273	5.e-002	-4.6776
12424	15.068	2.4545	0.	-2018.7
12425	14.976	2.5455	0.	-2041.8
12426	15.068	2.5455	5.e-002	-4.6777
12427	15.068	2.2727	0.	-2018.8
12428	14.976	2.3636	0.	-2041.8
12429	15.068	2.3636	5.e-002	-4.6777
12430	15.068	2.0909	0.	-2019.
12431	14.976	2.1818	0.	-2042.
12432	15.068	2.1818	5.e-002	-4.6778
12433	15.068	1.9091	0.	-2019.1
12434	14.976	2.	0.	-2042.1
12435	15.068	2.	5.e-002	-4.6778
12436	15.068	1.7273	0.	-2019.3
12437	14.976	1.8182	0.	-2042.3
12438	15.068	1.8182	5.e-002	-4.6777
12439	15.068	1.5455	0.	-2019.6
12440	14.976	1.6364	0.	-2042.6
12441	15.068	1.6364	5.e-002	-4.6776
12442	15.068	1.3636	0.	-2019.9
12443	14.976	1.4545	0.	-2042.9
12444	15.068	1.4545	5.e-002	-4.6773
12445	15.068	1.1818	0.	-2020.3
12446	14.976	1.2727	0.	-2043.3
12447	15.068	1.2727	5.e-002	-4.6768
12448	15.068	1.	0.	-2020.7
12449	14.976	1.0909	0.	-2043.7
12450	15.068	1.0909	5.e-002	-4.6762
12451	15.068	0.81818	0.	-2021.2
12452	14.976	0.90909	0.	-2044.2
12453	15.068	0.90909	5.e-002	-4.6752
12454	15.068	0.63636	0.	-2021.8
12455	14.976	0.72727	0.	-2044.7
12456	15.068	0.72727	5.e-002	-4.6728
12457	15.068	0.45455	0.	-2022.6
12458	14.976	0.54545	0.	-2045.4
12459	15.068	0.54545	5.e-002	-4.6529
12460	15.068	0.27273	0.	-2024.3
12461	14.976	0.36364	0.	-2046.3
12462	15.068	0.36364	5.e-002	-4.371
12463	14.976	0.18182	0.	-2048.9
12464	15.068	0.18182	5.e-002	-0.23118
12465	15.068	9.0909e-002	0.	-2020.5
12466	14.885	5.7273	0.	-2070.9
12467	14.793	5.8182	0.	-2095.6
12468	14.885	5.8182	5.e-002	-0.21264
12469	14.885	5.9091	0.	-2067.1
12470	14.885	5.5455	0.	-2069.1
12471	14.793	5.6364	0.	-2093.
12472	14.885	5.6364	5.e-002	-4.3851
12473	14.885	5.3636	0.	-2068.3
12474	14.793	5.4545	0.	-2092.
12475	14.885	5.4545	5.e-002	-4.6692
12476	14.885	5.1818	0.	-2067.7
12477	14.793	5.2727	0.	-2091.3
12478	14.885	5.2727	5.e-002	-4.6892
12479	14.885	5.	0.	-2067.1
12480	14.793	5.0909	0.	-2090.7
12481	14.885	5.0909	5.e-002	-4.6917
12482	14.885	4.8182	0.	-2066.6
12483	14.793	4.9091	0.	-2090.2
12484	14.885	4.9091	5.e-002	-4.6929
12485	14.885	4.6364	0.	-2066.2
12486	14.793	4.7273	0.	-2089.7
12487	14.885	4.7273	5.e-002	-4.6937
12488	14.885	4.4545	0.	-2065.9
12489	14.793	4.5455	0.	-2089.3
12490	14.885	4.5455	5.e-002	-4.6944
12491	14.885	4.2727	0.	-2065.6
12492	14.793	4.3636	0.	-2088.9
12493	14.885	4.3636	5.e-002	-4.6948
12494	14.885	4.0909	0.	-2065.3
12495	14.793	4.1818	0.	-2088.7
12496	14.885	4.1818	5.e-002	-4.6951
12497	14.885	3.9091	0.	-2065.1
12498	14.793	4.	0.	-2088.4
12499	14.885	4.	5.e-002	-4.6954
12500	14.885	3.7273	0.	-2065.
12501	14.793	3.8182	0.	-2088.2
12502	14.885	3.8182	5.e-002	-4.6955
12503	14.885	3.5455	0.	-2064.8
12504	14.793	3.6364	0.	-2088.1
12505	14.885	3.6364	5.e-002	-4.6956
12506	14.885	3.3636	0.	-2064.8
12507	14.793	3.4545	0.	-2088.
12508	14.885	3.4545	5.e-002	-4.6956
12509	14.885	3.1818	0.	-2064.7
12510	14.793	3.2727	0.	-2087.9
12511	14.885	3.2727	5.e-002	-4.6957
12512	14.885	3.	0.	-2064.7
12513	14.793	3.0909	0.	-2087.9
12514	14.885	3.0909	5.e-002	-4.6957
12515	14.885	2.8182	0.	-2064.7
12516	14.793	2.9091	0.	-2087.9
12517	14.885	2.9091	5.e-002	-4.6957
12518	14.885	2.6364	0.	-2064.8
12519	14.793	2.7273	0.	-2087.9
12520	14.885	2.7273	5.e-002	-4.6957
12521	14.885	2.4545	0.	-2064.8
12522	14.793	2.5455	0.	-2088.
12523	14.885	2.5455	5.e-002	-4.6956
12524	14.885	2.2727	0.	-2065.
12525	14.793	2.3636	0.	-2088.1
12526	14.885	2.3636	5.e-002	-4.6956
12527	14.885	2.0909	0.	-2065.1
12528	14.793	2.1818	0.	-2088.2
12529	14.885	2.1818	5.e-002	-4.6955
12530	14.885	1.9091	0.	-2065.3
12531	14.793	2.	0.	-2088.4
12532	14.885	2.	5.e-002	-4.6954
12533	14.885	1.7273	0.	-2065.6
12534	14.793	1.8182	0.	-2088.7
12535	14.885	1.8182	5.e-002	-4.6951
12536	14.885	1.5455	0.	-2065.9
12537	14.793	1.6364	0.	-2088.9
12538	14.885	1.6364	5.e-002	-4.6948
12539	14.885	1.3636	0.	-2066.2
12540	14.793	1.4545	0.	-2089.3
12541	14.885	1.4545	5.e-002	-4.6944
12542	14.885	1.1818	0.	-2066.6
12543	14.793	1.2727	0.	-2089.7
12544	14.885	1.2727	5.e-002	-4.6937
12545	14.885	1.	0.	-2067.1
12546	14.793	1.0909	0.	-2090.2
12547	14.885	1.0909	5.e-002	-4.6929
12548	14.885	0.81818	0.	-2067.7
12549	14.793	0.90909	0.	-2090.7
12550	14.885	0.90909	5.e-002	-4.6917
12551	14.885	0.63636	0.	-2068.3
12552	14.793	0.72727	0.	-2091.3
12553	14.885	0.72727	5.e-002	-4.6892
12554	14.885	0.45455	0.	-2069.1
12555	14.793	0.54545	0.	-2092.
12556	14.885	0.54545	5.e-002	-4.6692
12557	14.885	0.27273	0.	-2070.9
12558	14.793	0.36364	0.	-2093.
12559	14.885	0.36364	5.e-002	-4.3851
12560	14.793	0.18182	0.	-2095.6
12561	14.885	0.18182	5.e-002	-0.21264
12562	14.885	9.0909e-002	0.	-2067.1
12563	14.701	5.7273	0.	-2117.6
12564	14.609	5.8182	0.	-2142.5
12565	14.701	5.8182	5.e-002	-0.19623
12566	14.701	5.9091	0.	-2114.
12567	14.701	5.5455	0.	-2115.9
12568	14.609	5.6364	0.	-2139.8
12569	14.701	5.6364	5.e-002	-4.3998
12570	14.701	5.3636	0.	-2115.
12571	14.609	5.4545	0.	-2138.8
12572	14.701	5.4545	5.e-002	-4.686
12573	14.701	5.1818	0.	-2114.3
12574	14.609	5.2727	0.	-2138.1
12575	14.701	5.2727	5.e-002	-4.7062
12576	14.701	5.	0.	-2113.7
12577	14.609	5.0909	0.	-2137.4
12578	14.701	5.0909	5.e-002	-4.7088
12579	14.701	4.8182	0.	-2113.2
12580	14.609	4.9091	0.	-2136.8
12581	14.701	4.9091	5.e-002	-4.7101
12582	14.701	4.6364	0.	-2112.7
12583	14.609	4.7273	0.	-2136.3
12584	14.701	4.7273	5.e-002	-4.711
12585	14.701	4.4545	0.	-2112.3
12586	14.609	4.5455	0.	-2135.9
12587	14.701	4.5455	5.e-002	-4.7118
12588	14.701	4.2727	0.	-2112.
12589	14.609	4.3636	0.	-2135.5
12590	14.701	4.3636	5.e-002	-4.7124
12591	14.701	4.0909	0.	-2111.7
12592	14.609	4.1818	0.	-2135.2
12593	14.701	4.1818	5.e-002	-4.7129
12594	14.701	3.9091	0.	-2111.5
12595	14.609	4.	0.	-2134.9
12596	14.701	4.	5.e-002	-4.7133
12597	14.701	3.7273	0.	-2111.3
12598	14.609	3.8182	0.	-2134.7
12599	14.701	3.8182	5.e-002	-4.7135
12600	14.701	3.5455	0.	-2111.2
12601	14.609	3.6364	0.	-2134.5
12602	14.701	3.6364	5.e-002	-4.7137
12603	14.701	3.3636	0.	-2111.1
12604	14.609	3.4545	0.	-2134.4
12605	14.701	3.4545	5.e-002	-4.7138
12606	14.701	3.1818	0.	-2111.
12607	14.609	3.2727	0.	-2134.3
12608	14.701	3.2727	5.e-002	-4.7139
12609	14.701	3.	0.	-2111.
12610	14.609	3.0909	0.	-2134.3
12611	14.701	3.0909	5.e-002	-4.714
12612	14.701	2.8182	0.	-2111.
12613	14.609	2.9091	0.	-2134.3
12614	14.701	2.9091	5.e-002	-4.714
12615	14.701	2.6364	0.	-2111.1
12616	14.609	2.7273	0.	-2134.3
12617	14.701	2.7273	5.e-002	-4.7139
12618	14.701	2.4545	0.	-2111.2
12619	14.609	2.5455	0.	-2134.4
12620	14.701	2.5455	5.e-002	-4.7138
12621	14.701	2.2727	0.	-2111.3
12622	14.609	2.3636	0.	-2134.5
12623	14.701	2.3636	5.e-002	-4.7137
12624	14.701	2.0909	0.	-2111.5
12625	14.609	2.1818	0.	-2134.7
12626	14.701	2.1818	5.e-002	-4.7135
12627	14.701	1.9091	0.	-2111.7
12628	14.609	2.	0.	-2134.9
12629	14.701	2.	5.e-002	-4.7133
12630	14.701	1.7273	0.	-2112.
12631	14.609	1.8182	0.	-2135.2
12632	14.701	1.8182	5.e-002	-4.7129
12633	14.701	1.5455	0.	-2112.3
12634	14.609	1.6364	0.	-2135.5
12635	14.701	1.6364	5.e-002	-4.7124
12636	14.701	1.3636	0.	-2112.7
12637	14.609	1.4545	0.	-2135.9
12638	14.701	1.4545	5.e-002	-4.7118
12639	14.701	1.1818	0.	-2113.2
12640	14.609	1.2727	0.	-2136.3
12641	14.701	1.2727	5.e-002	-4.711
12642	14.701	1.	0.	-2113.7
12643	14.609	1.0909	0.	-2136.8
12644	14.701	1.0909	5.e-002	-4.71
12645	14.701	0.81818	0.	-2114.3
12646	14.609	0.90909	0.	-2137.4
12647	14.701	0.90909	5.e-002	-4.7088
12648	14.701	0.63636	0.	-2115.
12649	14.609	0.72727	0.	-2138.1
12650	14.701	0.72727	5.e-002	-4.7062
12651	14.701	0.45455	0.	-2115.9
12652	14.609	0.54545	0.	-2138.8
12653	14.701	0.54545	5.e-002	-4.686
12654	14.701	0.27273	0.	-2117.6
12655	14.609	0.36364	0.	-2139.8
12656	14.701	0.36364	5.e-002	-4.3998
12657	14.609	0.18182	0.	-2142.5
12658	14.701	0.18182	5.e-002	-0.19623
12659	14.701	9.0909e-002	0.	-2114.
12660	14.517	5.7273	0.	-2164.6
12661	14.425	5.8182	0.	-2189.5
12662	14.517	5.8182	5.e-002	-0.18153
12663	14.517	5.9091	0.	-2161.
12664	14.517	5.5455	0.	-2162.8
12665	14.425	5.6364	0.	-2186.8
12666	14.517	5.6364	5.e-002	-4.4152
12667	14.517	5.3636	0.	-2161.9
12668	14.425	5.4545	0.	-2185.8
12669	14.517	5.4545	5.e-002	-4.7033
12670	14.517	5.1818	0.	-2161.1
12671	14.425	5.2727	0.	-2185.
12672	14.517	5.2727	5.e-002	-4.7237
12673	14.517	5.	0.	-2160.5
12674	14.425	5.0909	0.	-2184.3
12675	14.517	5.0909	5.e-002	-4.7264
12676	14.517	4.8182	0.	-2159.9
12677	14.425	4.9091	0.	-2183.7
12678	14.517	4.9091	5.e-002	-4.7277
12679	14.517	4.6364	0.	-2159.4
12680	14.425	4.7273	0.	-2183.1
12681	14.517	4.7273	5.e-002	-4.7288
12682	14.517	4.4545	0.	-2159.
12683	14.425	4.5455	0.	-2182.6
12684	14.517	4.5455	5.e-002	-4.7297
12685	14.517	4.2727	0.	-2158.6
12686	14.425	4.3636	0.	-2182.2
12687	14.517	4.3636	5.e-002	-4.7304
12688	14.517	4.0909	0.	-2158.3
12689	14.425	4.1818	0.	-2181.9
12690	14.517	4.1818	5.e-002	-4.731
12691	14.517	3.9091	0.	-2158.1
12692	14.425	4.	0.	-2181.6
12693	14.517	4.	5.e-002	-4.7315
12694	14.517	3.7273	0.	-2157.9
12695	14.425	3.8182	0.	-2181.3
12696	14.517	3.8182	5.e-002	-4.7318
12697	14.517	3.5455	0.	-2157.7
12698	14.425	3.6364	0.	-2181.1
12699	14.517	3.6364	5.e-002	-4.7321
12700	14.517	3.3636	0.	-2157.6
12701	14.425	3.4545	0.	-2181.
12702	14.517	3.4545	5.e-002	-4.7323
12703	14.517	3.1818	0.	-2157.5
12704	14.425	3.2727	0.	-2180.9
12705	14.517	3.2727	5.e-002	-4.7324
12706	14.517	3.	0.	-2157.5
12707	14.425	3.0909	0.	-2180.9
12708	14.517	3.0909	5.e-002	-4.7325
12709	14.517	2.8182	0.	-2157.5
12710	14.425	2.9091	0.	-2180.9
12711	14.517	2.9091	5.e-002	-4.7325
12712	14.517	2.6364	0.	-2157.6
12713	14.425	2.7273	0.	-2180.9
12714	14.517	2.7273	5.e-002	-4.7324
12715	14.517	2.4545	0.	-2157.7
12716	14.425	2.5455	0.	-2181.
12717	14.517	2.5455	5.e-002	-4.7323
12718	14.517	2.2727	0.	-2157.9
12719	14.425	2.3636	0.	-2181.1
12720	14.517	2.3636	5.e-002	-4.7321
12721	14.517	2.0909	0.	-2158.1
12722	14.425	2.1818	0.	-2181.3
12723	14.517	2.1818	5.e-002	-4.7318
12724	14.517	1.9091	0.	-2158.3
12725	14.425	2.	0.	-2181.6
12726	14.517	2.	5.e-002	-4.7315
12727	14.517	1.7273	0.	-2158.6
12728	14.425	1.8182	0.	-2181.9
12729	14.517	1.8182	5.e-002	-4.731
12730	14.517	1.5455	0.	-2159.
12731	14.425	1.6364	0.	-2182.2
12732	14.517	1.6364	5.e-002	-4.7304
12733	14.517	1.3636	0.	-2159.4
12734	14.425	1.4545	0.	-2182.6
12735	14.517	1.4545	5.e-002	-4.7297
12736	14.517	1.1818	0.	-2159.9
12737	14.425	1.2727	0.	-2183.1
12738	14.517	1.2727	5.e-002	-4.7288
12739	14.517	1.	0.	-2160.5
12740	14.425	1.0909	0.	-2183.7
12741	14.517	1.0909	5.e-002	-4.7277
12742	14.517	0.81818	0.	-2161.1
12743	14.425	0.90909	0.	-2184.3
12744	14.517	0.90909	5.e-002	-4.7264
12745	14.517	0.63636	0.	-2161.9
12746	14.425	0.72727	0.	-2185.
12747	14.517	0.72727	5.e-002	-4.7237
12748	14.517	0.45455	0.	-2162.8
12749	14.425	0.54545	0.	-2185.8
12750	14.517	0.54545	5.e-002	-4.7033
12751	14.517	0.27273	0.	-2164.6
12752	14.425	0.36364	0.	-2186.8
12753	14.517	0.36364	5.e-002	-4.4152
12754	14.425	0.18182	0.	-2189.5
12755	14.517	0.18182	5.e-002	-0.18153
12756	14.517	9.0909e-002	0.	-2161.
12757	14.333	5.7273	0.	-2211.7
12758	14.241	5.8182	0.	-2236.7
12759	14.333	5.8182	5.e-002	-0.16811
12760	14.333	5.9091	0.	-2208.2
12761	14.333	5.5455	0.	-2209.8
12762	14.241	5.6364	0.	-2234.
12763	14.333	5.6364	5.e-002	-4.4312
12764	14.333	5.3636	0.	-2208.9
12765	14.241	5.4545	0.	-2233.
12766	14.333	5.4545	5.e-002	-4.7211
12767	14.333	5.1818	0.	-2208.1
12768	14.241	5.2727	0.	-2232.1
12769	14.333	5.2727	5.e-002	-4.7416
12770	14.333	5.	0.	-2207.5
12771	14.241	5.0909	0.	-2231.4
12772	14.333	5.0909	5.e-002	-4.7444
12773	14.333	4.8182	0.	-2206.8
12774	14.241	4.9091	0.	-2230.7
12775	14.333	4.9091	5.e-002	-4.7458
12776	14.333	4.6364	0.	-2206.3
12777	14.241	4.7273	0.	-2230.1
12778	14.333	4.7273	5.e-002	-4.747
12779	14.333	4.4545	0.	-2205.8
12780	14.241	4.5455	0.	-2229.6
12781	14.333	4.5455	5.e-002	-4.7479
12782	14.333	4.2727	0.	-2205.4
12783	14.241	4.3636	0.	-2229.2
12784	14.333	4.3636	5.e-002	-4.7488
12785	14.333	4.0909	0.	-2205.1
12786	14.241	4.1818	0.	-2228.8
12787	14.333	4.1818	5.e-002	-4.7494
12788	14.333	3.9091	0.	-2204.8
12789	14.241	4.	0.	-2228.5
12790	14.333	4.	5.e-002	-4.75
12791	14.333	3.7273	0.	-2204.6
12792	14.241	3.8182	0.	-2228.2
12793	14.333	3.8182	5.e-002	-4.7504
12794	14.333	3.5455	0.	-2204.4
12795	14.241	3.6364	0.	-2228.
12796	14.333	3.6364	5.e-002	-4.7508
12797	14.333	3.3636	0.	-2204.3
12798	14.241	3.4545	0.	-2227.8
12799	14.333	3.4545	5.e-002	-4.751
12800	14.333	3.1818	0.	-2204.2
12801	14.241	3.2727	0.	-2227.7
12802	14.333	3.2727	5.e-002	-4.7512
12803	14.333	3.	0.	-2204.2
12804	14.241	3.0909	0.	-2227.7
12805	14.333	3.0909	5.e-002	-4.7513
12806	14.333	2.8182	0.	-2204.2
12807	14.241	2.9091	0.	-2227.7
12808	14.333	2.9091	5.e-002	-4.7513
12809	14.333	2.6364	0.	-2204.3
12810	14.241	2.7273	0.	-2227.7
12811	14.333	2.7273	5.e-002	-4.7512
12812	14.333	2.4545	0.	-2204.4
12813	14.241	2.5455	0.	-2227.8
12814	14.333	2.5455	5.e-002	-4.7511
12815	14.333	2.2727	0.	-2204.6
12816	14.241	2.3636	0.	-2228.
12817	14.333	2.3636	5.e-002	-4.7508
12818	14.333	2.0909	0.	-2204.8
12819	14.241	2.1818	0.	-2228.2
12820	14.333	2.1818	5.e-002	-4.7504
12821	14.333	1.9091	0.	-2205.1
12822	14.241	2.	0.	-2228.5
12823	14.333	2.	5.e-002	-4.75
12824	14.333	1.7273	0.	-2205.4
12825	14.241	1.8182	0.	-2228.8
12826	14.333	1.8182	5.e-002	-4.7494
12827	14.333	1.5455	0.	-2205.8
12828	14.241	1.6364	0.	-2229.2
12829	14.333	1.6364	5.e-002	-4.7488
12830	14.333	1.3636	0.	-2206.3
12831	14.241	1.4545	0.	-2229.6
12832	14.333	1.4545	5.e-002	-4.7479
12833	14.333	1.1818	0.	-2206.8
12834	14.241	1.2727	0.	-2230.1
12835	14.333	1.2727	5.e-002	-4.747
12836	14.333	1.	0.	-2207.5
12837	14.241	1.0909	0.	-2230.7
12838	14.333	1.0909	5.e-002	-4.7458
12839	14.333	0.81818	0.	-2208.1
12840	14.241	0.90909	0.	-2231.4
12841	14.333	0.90909	5.e-002	-4.7444
12842	14.333	0.63636	0.	-2208.9
12843	14.241	0.72727	0.	-2232.1
12844	14.333	0.72727	5.e-002	-4.7416
12845	14.333	0.45455	0.	-2209.8
12846	14.241	0.54545	0.	-2233.
12847	14.333	0.54545	5.e-002	-4.7211
12848	14.333	0.27273	0.	-2211.7
12849	14.241	0.36364	0.	-2234.
12850	14.333	0.36364	5.e-002	-4.4312
12851	14.241	0.18182	0.	-2236.7
12852	14.333	0.18182	5.e-002	-0.16811
12853	14.333	9.0909e-002	0.	-2208.2
12854	14.15	5.7273	0.	-2259.
12855	14.058	5.8182	0.	-2284.1
12856	14.15	5.8182	5.e-002	-0.15558
12857	14.15	5.9091	0.	-2255.5
12858	14.15	5.5455	0.	-2257.1
12859	14.058	5.6364	0.	-2281.4
12860	14.15	5.6364	5.e-002	-4.4477
12861	14.15	5.3636	0.	-2256.2
12862	14.058	5.4545	0.	-2280.3
12863	14.15	5.4545	5.e-002	-4.7393
12864	14.15	5.1818	0.	-2255.3
12865	14.058	5.2727	0.	-2279.4
12866	14.15	5.2727	5.e-002	-4.76
12867	14.15	5.	0.	-2254.6
12868	14.058	5.0909	0.	-2278.6
12869	14.15	5.0909	5.e-002	-4.7627
12870	14.15	4.8182	0.	-2254.
12871	14.058	4.9091	0.	-2277.9
12872	14.15	4.9091	5.e-002	-4.7642
12873	14.15	4.6364	0.	-2253.4
12874	14.058	4.7273	0.	-2277.3
12875	14.15	4.7273	5.e-002	-4.7654
12876	14.15	4.4545	0.	-2252.9
12877	14.058	4.5455	0.	-2276.8
12878	14.15	4.5455	5.e-002	-4.7665
12879	14.15	4.2727	0.	-2252.5
12880	14.058	4.3636	0.	-2276.3
12881	14.15	4.3636	5.e-002	-4.7674
12882	14.15	4.0909	0.	-2252.1
12883	14.058	4.1818	0.	-2275.9
12884	14.15	4.1818	5.e-002	-4.7682
12885	14.15	3.9091	0.	-2251.8
12886	14.058	4.	0.	-2275.5
12887	14.15	4.	5.e-002	-4.7688
12888	14.15	3.7273	0.	-2251.6
12889	14.058	3.8182	0.	-2275.3
12890	14.15	3.8182	5.e-002	-4.7693
12891	14.15	3.5455	0.	-2251.4
12892	14.058	3.6364	0.	-2275.
12893	14.15	3.6364	5.e-002	-4.7697
12894	14.15	3.3636	0.	-2251.2
12895	14.058	3.4545	0.	-2274.9
12896	14.15	3.4545	5.e-002	-4.77
12897	14.15	3.1818	0.	-2251.2
12898	14.058	3.2727	0.	-2274.8
12899	14.15	3.2727	5.e-002	-4.7702
12900	14.15	3.	0.	-2251.1
12901	14.058	3.0909	0.	-2274.7
12902	14.15	3.0909	5.e-002	-4.7703
12903	14.15	2.8182	0.	-2251.2
12904	14.058	2.9091	0.	-2274.7
12905	14.15	2.9091	5.e-002	-4.7703
12906	14.15	2.6364	0.	-2251.2
12907	14.058	2.7273	0.	-2274.8
12908	14.15	2.7273	5.e-002	-4.7702
12909	14.15	2.4545	0.	-2251.4
12910	14.058	2.5455	0.	-2274.9
12911	14.15	2.5455	5.e-002	-4.77
12912	14.15	2.2727	0.	-2251.6
12913	14.058	2.3636	0.	-2275.
12914	14.15	2.3636	5.e-002	-4.7697
12915	14.15	2.0909	0.	-2251.8
12916	14.058	2.1818	0.	-2275.3
12917	14.15	2.1818	5.e-002	-4.7693
12918	14.15	1.9091	0.	-2252.1
12919	14.058	2.	0.	-2275.5
12920	14.15	2.	5.e-002	-4.7688
12921	14.15	1.7273	0.	-2252.5
12922	14.058	1.8182	0.	-2275.9
12923	14.15	1.8182	5.e-002	-4.7682
12924	14.15	1.5455	0.	-2252.9
12925	14.058	1.6364	0.	-2276.3
12926	14.15	1.6364	5.e-002	-4.7674
12927	14.15	1.3636	0.	-2253.4
12928	14.058	1.4545	0.	-2276.8
12929	14.15	1.4545	5.e-002	-4.7665
12930	14.15	1.1818	0.	-2254.
12931	14.058	1.2727	0.	-2277.3
12932	14.15	1.2727	5.e-002	-4.7654
12933	14.15	1.	0.	-2254.6
12934	14.058	1.0909	0.	-2277.9
12935	14.15	1.0909	5.e-002	-4.7642
12936	14.15	0.81818	0.	-2255.3
12937	14.058	0.90909	0.	-2278.6
12938	14.15	0.90909	5.e-002	-4.7627
12939	14.15	0.63636	0.	-2256.2
12940	14.058	0.72727	0.	-2279.4
12941	14.15	0.72727	5.e-002	-4.76
12942	14.15	0.45455	0.	-2257.1
12943	14.058	0.54545	0.	-2280.3
12944	14.15	0.54545	5.e-002	-4.7393
12945	14.15	0.27273	0.	-2259.
12946	14.058	0.36364	0.	-2281.4
12947	14.15	0.36364	5.e-002	-4.4477
12948	14.058	0.18182	0.	-2284.1
12949	14.15	0.18182	5.e-002	-0.15558
12950	14.15	9.0909e-002	0.	-2255.5
12951	13.966	5.7273	0.	-2306.4
12952	13.874	5.8182	0.	-2331.7
12953	13.966	5.8182	5.e-002	-0.14359
12954	13.966	5.9091	0.	-2303.1
12955	13.966	5.5455	0.	-2304.6
12956	13.874	5.6364	0.	-2328.9
12957	13.966	5.6364	5.e-002	-4.4647
12958	13.966	5.3636	0.	-2303.6
12959	13.874	5.4545	0.	-2327.8
12960	13.966	5.4545	5.e-002	-4.7579
12961	13.966	5.1818	0.	-2302.7
12962	13.874	5.2727	0.	-2326.9
12963	13.966	5.2727	5.e-002	-4.7786
12964	13.966	5.	0.	-2302.
12965	13.874	5.0909	0.	-2326.1
12966	13.966	5.0909	5.e-002	-4.7815
12967	13.966	4.8182	0.	-2301.3
12968	13.874	4.9091	0.	-2325.4
12969	13.966	4.9091	5.e-002	-4.783
12970	13.966	4.6364	0.	-2300.7
12971	13.874	4.7273	0.	-2324.7
12972	13.966	4.7273	5.e-002	-4.7843
12973	13.966	4.4545	0.	-2300.1
12974	13.874	4.5455	0.	-2324.1
12975	13.966	4.5455	5.e-002	-4.7855
12976	13.966	4.2727	0.	-2299.7
12977	13.874	4.3636	0.	-2323.6
12978	13.966	4.3636	5.e-002	-4.7864
12979	13.966	4.0909	0.	-2299.3
12980	13.874	4.1818	0.	-2323.2
12981	13.966	4.1818	5.e-002	-4.7872
12982	13.966	3.9091	0.	-2299.
12983	13.874	4.	0.	-2322.8
12984	13.966	4.	5.e-002	-4.7879
12985	13.966	3.7273	0.	-2298.7
12986	13.874	3.8182	0.	-2322.5
12987	13.966	3.8182	5.e-002	-4.7885
12988	13.966	3.5455	0.	-2298.5
12989	13.874	3.6364	0.	-2322.3
12990	13.966	3.6364	5.e-002	-4.7889
12991	13.966	3.3636	0.	-2298.4
12992	13.874	3.4545	0.	-2322.1
12993	13.966	3.4545	5.e-002	-4.7893
12994	13.966	3.1818	0.	-2298.3
12995	13.874	3.2727	0.	-2322.
12996	13.966	3.2727	5.e-002	-4.7895
12997	13.966	3.	0.	-2298.2
12998	13.874	3.0909	0.	-2321.9
12999	13.966	3.0909	5.e-002	-4.7896
13000	13.966	2.8182	0.	-2298.3
13001	13.874	2.9091	0.	-2321.9
13002	13.966	2.9091	5.e-002	-4.7896
13003	13.966	2.6364	0.	-2298.4
13004	13.874	2.7273	0.	-2322.
13005	13.966	2.7273	5.e-002	-4.7895
13006	13.966	2.4545	0.	-2298.5
13007	13.874	2.5455	0.	-2322.1
13008	13.966	2.5455	5.e-002	-4.7893
13009	13.966	2.2727	0.	-2298.7
13010	13.874	2.3636	0.	-2322.3
13011	13.966	2.3636	5.e-002	-4.789
13012	13.966	2.0909	0.	-2299.
13013	13.874	2.1818	0.	-2322.5
13014	13.966	2.1818	5.e-002	-4.7885
13015	13.966	1.9091	0.	-2299.3
13016	13.874	2.	0.	-2322.8
13017	13.966	2.	5.e-002	-4.7879
13018	13.966	1.7273	0.	-2299.7
13019	13.874	1.8182	0.	-2323.2
13020	13.966	1.8182	5.e-002	-4.7872
13021	13.966	1.5455	0.	-2300.1
13022	13.874	1.6364	0.	-2323.6
13023	13.966	1.6364	5.e-002	-4.7864
13024	13.966	1.3636	0.	-2300.7
13025	13.874	1.4545	0.	-2324.1
13026	13.966	1.4545	5.e-002	-4.7855
13027	13.966	1.1818	0.	-2301.3
13028	13.874	1.2727	0.	-2324.7
13029	13.966	1.2727	5.e-002	-4.7843
13030	13.966	1.	0.	-2302.
13031	13.874	1.0909	0.	-2325.4
13032	13.966	1.0909	5.e-002	-4.783
13033	13.966	0.81818	0.	-2302.7
13034	13.874	0.90909	0.	-2326.1
13035	13.966	0.90909	5.e-002	-4.7815
13036	13.966	0.63636	0.	-2303.6
13037	13.874	0.72727	0.	-2326.9
13038	13.966	0.72727	5.e-002	-4.7786
13039	13.966	0.45455	0.	-2304.6
13040	13.874	0.54545	0.	-2327.8
13041	13.966	0.54545	5.e-002	-4.7579
13042	13.966	0.27273	0.	-2306.4
13043	13.874	0.36364	0.	-2328.9
13044	13.966	0.36364	5.e-002	-4.4647
13045	13.874	0.18182	0.	-2331.7
13046	13.966	0.18182	5.e-002	-0.14359
13047	13.966	9.0909e-002	0.	-2303.1
13048	13.782	5.7273	0.	-2354.1
13049	13.69	5.8182	0.	-2379.5
13050	13.782	5.8182	5.e-002	-0.13181
13051	13.782	5.9091	0.	-2350.8
13052	13.782	5.5455	0.	-2352.2
13053	13.69	5.6364	0.	-2376.7
13054	13.782	5.6364	5.e-002	-4.4822
13055	13.782	5.3636	0.	-2351.2
13056	13.69	5.4545	0.	-2375.6
13057	13.782	5.4545	5.e-002	-4.7768
13058	13.782	5.1818	0.	-2350.3
13059	13.69	5.2727	0.	-2374.6
13060	13.782	5.2727	5.e-002	-4.7977
13061	13.782	5.	0.	-2349.5
13062	13.69	5.0909	0.	-2373.8
13063	13.782	5.0909	5.e-002	-4.8006
13064	13.782	4.8182	0.	-2348.8
13065	13.69	4.9091	0.	-2373.
13066	13.782	4.9091	5.e-002	-4.8022
13067	13.782	4.6364	0.	-2348.2
13068	13.69	4.7273	0.	-2372.3
13069	13.782	4.7273	5.e-002	-4.8036
13070	13.782	4.4545	0.	-2347.6
13071	13.69	4.5455	0.	-2371.7
13072	13.782	4.5455	5.e-002	-4.8047
13073	13.782	4.2727	0.	-2347.1
13074	13.69	4.3636	0.	-2371.2
13075	13.782	4.3636	5.e-002	-4.8058
13076	13.782	4.0909	0.	-2346.7
13077	13.69	4.1818	0.	-2370.7
13078	13.782	4.1818	5.e-002	-4.8067
13079	13.782	3.9091	0.	-2346.3
13080	13.69	4.	0.	-2370.3
13081	13.782	4.	5.e-002	-4.8074
13082	13.782	3.7273	0.	-2346.1
13083	13.69	3.8182	0.	-2370.
13084	13.782	3.8182	5.e-002	-4.8081
13085	13.782	3.5455	0.	-2345.8
13086	13.69	3.6364	0.	-2369.7
13087	13.782	3.6364	5.e-002	-4.8085
13088	13.782	3.3636	0.	-2345.7
13089	13.69	3.4545	0.	-2369.5
13090	13.782	3.4545	5.e-002	-4.8089
13091	13.782	3.1818	0.	-2345.6
13092	13.69	3.2727	0.	-2369.4
13093	13.782	3.2727	5.e-002	-4.8091
13094	13.782	3.	0.	-2345.6
13095	13.69	3.0909	0.	-2369.3
13096	13.782	3.0909	5.e-002	-4.8092
13097	13.782	2.8182	0.	-2345.6
13098	13.69	2.9091	0.	-2369.3
13099	13.782	2.9091	5.e-002	-4.8092
13100	13.782	2.6364	0.	-2345.7
13101	13.69	2.7273	0.	-2369.4
13102	13.782	2.7273	5.e-002	-4.8091
13103	13.782	2.4545	0.	-2345.8
13104	13.69	2.5455	0.	-2369.5
13105	13.782	2.5455	5.e-002	-4.8089
13106	13.782	2.2727	0.	-2346.1
13107	13.69	2.3636	0.	-2369.7
13108	13.782	2.3636	5.e-002	-4.8085
13109	13.782	2.0909	0.	-2346.3
13110	13.69	2.1818	0.	-2370.
13111	13.782	2.1818	5.e-002	-4.8081
13112	13.782	1.9091	0.	-2346.7
13113	13.69	2.	0.	-2370.3
13114	13.782	2.	5.e-002	-4.8074
13115	13.782	1.7273	0.	-2347.1
13116	13.69	1.8182	0.	-2370.7
13117	13.782	1.8182	5.e-002	-4.8067
13118	13.782	1.5455	0.	-2347.6
13119	13.69	1.6364	0.	-2371.2
13120	13.782	1.6364	5.e-002	-4.8058
13121	13.782	1.3636	0.	-2348.2
13122	13.69	1.4545	0.	-2371.7
13123	13.782	1.4545	5.e-002	-4.8047
13124	13.782	1.1818	0.	-2348.8
13125	13.69	1.2727	0.	-2372.3
13126	13.782	1.2727	5.e-002	-4.8036
13127	13.782	1.	0.	-2349.5
13128	13.69	1.0909	0.	-2373.
13129	13.782	1.0909	5.e-002	-4.8022
13130	13.782	0.81818	0.	-2350.3
13131	13.69	0.90909	0.	-2373.8
13132	13.782	0.90909	5.e-002	-4.8006
13133	13.782	0.63636	0.	-2351.2
13134	13.69	0.72727	0.	-2374.6
13135	13.782	0.72727	5.e-002	-4.7977
13136	13.782	0.45455	0.	-2352.2
13137	13.69	0.54545	0.	-2375.6
13138	13.782	0.54545	5.e-002	-4.7768
13139	13.782	0.27273	0.	-2354.1
13140	13.69	0.36364	0.	-2376.7
13141	13.782	0.36364	5.e-002	-4.4822
13142	13.69	0.18182	0.	-2379.5
13143	13.782	0.18182	5.e-002	-0.13181
13144	13.782	9.0909e-002	0.	-2350.8
13145	13.598	5.7273	0.	-2402.
13146	13.506	5.8182	0.	-2427.4
13147	13.598	5.8182	5.e-002	-0.11997
13148	13.598	5.9091	0.	-2398.7
13149	13.598	5.5455	0.	-2400.
13150	13.506	5.6364	0.	-2424.6
13151	13.598	5.6364	5.e-002	-4.5002
13152	13.598	5.3636	0.	-2399.
13153	13.506	5.4545	0.	-2423.5
13154	13.598	5.4545	5.e-002	-4.7961
13155	13.598	5.1818	0.	-2398.1
13156	13.506	5.2727	0.	-2422.5
13157	13.598	5.2727	5.e-002	-4.8172
13158	13.598	5.	0.	-2397.2
13159	13.506	5.0909	0.	-2421.6
13160	13.598	5.0909	5.e-002	-4.8202
13161	13.598	4.8182	0.	-2396.5
13162	13.506	4.9091	0.	-2420.8
13163	13.598	4.9091	5.e-002	-4.8218
13164	13.598	4.6364	0.	-2395.8
13165	13.506	4.7273	0.	-2420.1
13166	13.598	4.7273	5.e-002	-4.8232
13167	13.598	4.4545	0.	-2395.2
13168	13.506	4.5455	0.	-2419.4
13169	13.598	4.5455	5.e-002	-4.8245
13170	13.598	4.2727	0.	-2394.7
13171	13.506	4.3636	0.	-2418.9
13172	13.598	4.3636	5.e-002	-4.8256
13173	13.598	4.0909	0.	-2394.3
13174	13.506	4.1818	0.	-2418.4
13175	13.598	4.1818	5.e-002	-4.8265
13176	13.598	3.9091	0.	-2393.9
13177	13.506	4.	0.	-2418.
13178	13.598	4.	5.e-002	-4.8273
13179	13.598	3.7273	0.	-2393.6
13180	13.506	3.8182	0.	-2417.6
13181	13.598	3.8182	5.e-002	-4.8279
13182	13.598	3.5455	0.	-2393.4
13183	13.506	3.6364	0.	-2417.4
13184	13.598	3.6364	5.e-002	-4.8285
13185	13.598	3.3636	0.	-2393.2
13186	13.506	3.4545	0.	-2417.2
13187	13.598	3.4545	5.e-002	-4.8289
13188	13.598	3.1818	0.	-2393.1
13189	13.506	3.2727	0.	-2417.
13190	13.598	3.2727	5.e-002	-4.8291
13191	13.598	3.	0.	-2393.1
13192	13.506	3.0909	0.	-2417.
13193	13.598	3.0909	5.e-002	-4.8292
13194	13.598	2.8182	0.	-2393.1
13195	13.506	2.9091	0.	-2417.
13196	13.598	2.9091	5.e-002	-4.8292
13197	13.598	2.6364	0.	-2393.2
13198	13.506	2.7273	0.	-2417.
13199	13.598	2.7273	5.e-002	-4.8291
13200	13.598	2.4545	0.	-2393.4
13201	13.506	2.5455	0.	-2417.2
13202	13.598	2.5455	5.e-002	-4.8289
13203	13.598	2.2727	0.	-2393.6
13204	13.506	2.3636	0.	-2417.4
13205	13.598	2.3636	5.e-002	-4.8285
13206	13.598	2.0909	0.	-2393.9
13207	13.506	2.1818	0.	-2417.6
13208	13.598	2.1818	5.e-002	-4.8279
13209	13.598	1.9091	0.	-2394.3
13210	13.506	2.	0.	-2418.
13211	13.598	2.	5.e-002	-4.8273
13212	13.598	1.7273	0.	-2394.7
13213	13.506	1.8182	0.	-2418.4
13214	13.598	1.8182	5.e-002	-4.8265
13215	13.598	1.5455	0.	-2395.2
13216	13.506	1.6364	0.	-2418.9
13217	13.598	1.6364	5.e-002	-4.8256
13218	13.598	1.3636	0.	-2395.8
13219	13.506	1.4545	0.	-2419.4
13220	13.598	1.4545	5.e-002	-4.8245
13221	13.598	1.1818	0.	-2396.5
13222	13.506	1.2727	0.	-2420.1
13223	13.598	1.2727	5.e-002	-4.8232
13224	13.598	1.	0.	-2397.2
13225	13.506	1.0909	0.	-2420.8
13226	13.598	1.0909	5.e-002	-4.8218
13227	13.598	0.81818	0.	-2398.1
13228	13.506	0.90909	0.	-2421.6
13229	13.598	0.90909	5.e-002	-4.8202
13230	13.598	0.63636	0.	-2399.
13231	13.506	0.72727	0.	-2422.5
13232	13.598	0.72727	5.e-002	-4.8172
13233	13.598	0.45455	0.	-2400.
13234	13.506	0.54545	0.	-2423.5
13235	13.598	0.54545	5.e-002	-4.7961
13236	13.598	0.27273	0.	-2402.
13237	13.506	0.36364	0.	-2424.6
13238	13.598	0.36364	5.e-002	-4.5002
13239	13.506	0.18182	0.	-2427.4
13240	13.598	0.18182	5.e-002	-0.11997
13241	13.598	9.0909e-002	0.	-2398.7
13242	13.415	5.7273	0.	-2450.
13243	13.323	5.8182	0.	-2475.6
13244	13.415	5.8182	5.e-002	-0.10787
13245	13.415	5.9091	0.	-2446.9
13246	13.415	5.5455	0.	-2448.1
13247	13.323	5.6364	0.	-2472.8
13248	13.415	5.6364	5.e-002	-4.5186
13249	13.415	5.3636	0.	-2447.
13250	13.323	5.4545	0.	-2471.6
13251	13.415	5.4545	5.e-002	-4.8157
13252	13.415	5.1818	0.	-2446.
13253	13.323	5.2727	0.	-2470.6
13254	13.415	5.2727	5.e-002	-4.8369
13255	13.415	5.	0.	-2445.2
13256	13.323	5.0909	0.	-2469.7
13257	13.415	5.0909	5.e-002	-4.84
13258	13.415	4.8182	0.	-2444.4
13259	13.323	4.9091	0.	-2468.8
13260	13.415	4.9091	5.e-002	-4.8417
13261	13.415	4.6364	0.	-2443.7
13262	13.323	4.7273	0.	-2468.1
13263	13.415	4.7273	5.e-002	-4.8431
13264	13.415	4.4545	0.	-2443.1
13265	13.323	4.5455	0.	-2467.4
13266	13.415	4.5455	5.e-002	-4.8445
13267	13.415	4.2727	0.	-2442.5
13268	13.323	4.3636	0.	-2466.8
13269	13.415	4.3636	5.e-002	-4.8456
13270	13.415	4.0909	0.	-2442.1
13271	13.323	4.1818	0.	-2466.3
13272	13.415	4.1818	5.e-002	-4.8466
13273	13.415	3.9091	0.	-2441.7
13274	13.323	4.	0.	-2465.8
13275	13.415	4.	5.e-002	-4.8474
13276	13.415	3.7273	0.	-2441.4
13277	13.323	3.8182	0.	-2465.5
13278	13.415	3.8182	5.e-002	-4.8481
13279	13.415	3.5455	0.	-2441.1
13280	13.323	3.6364	0.	-2465.2
13281	13.415	3.6364	5.e-002	-4.8487
13282	13.415	3.3636	0.	-2440.9
13283	13.323	3.4545	0.	-2465.
13284	13.415	3.4545	5.e-002	-4.8491
13285	13.415	3.1818	0.	-2440.8
13286	13.323	3.2727	0.	-2464.8
13287	13.415	3.2727	5.e-002	-4.8494
13288	13.415	3.	0.	-2440.8
13289	13.323	3.0909	0.	-2464.8
13290	13.415	3.0909	5.e-002	-4.8495
13291	13.415	2.8182	0.	-2440.8
13292	13.323	2.9091	0.	-2464.8
13293	13.415	2.9091	5.e-002	-4.8495
13294	13.415	2.6364	0.	-2440.9
13295	13.323	2.7273	0.	-2464.8
13296	13.415	2.7273	5.e-002	-4.8494
13297	13.415	2.4545	0.	-2441.1
13298	13.323	2.5455	0.	-2465.
13299	13.415	2.5455	5.e-002	-4.8491
13300	13.415	2.2727	0.	-2441.4
13301	13.323	2.3636	0.	-2465.2
13302	13.415	2.3636	5.e-002	-4.8487
13303	13.415	2.0909	0.	-2441.7
13304	13.323	2.1818	0.	-2465.5
13305	13.415	2.1818	5.e-002	-4.8481
13306	13.415	1.9091	0.	-2442.1
13307	13.323	2.	0.	-2465.8
13308	13.415	2.	5.e-002	-4.8474
13309	13.415	1.7273	0.	-2442.5
13310	13.323	1.8182	0.	-2466.3
13311	13.415	1.8182	5.e-002	-4.8466
13312	13.415	1.5455	0.	-2443.1
13313	13.323	1.6364	0.	-2466.8
13314	13.415	1.6364	5.e-002	-4.8456
13315	13.415	1.3636	0.	-2443.7
13316	13.323	1.4545	0.	-2467.4
13317	13.415	1.4545	5.e-002	-4.8445
13318	13.415	1.1818	0.	-2444.4
13319	13.323	1.2727	0.	-2468.1
13320	13.415	1.2727	5.e-002	-4.8431
13321	13.415	1.	0.	-2445.2
13322	13.323	1.0909	0.	-2468.8
13323	13.415	1.0909	5.e-002	-4.8417
13324	13.415	0.81818	0.	-2446.
13325	13.323	0.90909	0.	-2469.7
13326	13.415	0.90909	5.e-002	-4.84
13327	13.415	0.63636	0.	-2447.
13328	13.323	0.72727	0.	-2470.6
13329	13.415	0.72727	5.e-002	-4.8369
13330	13.415	0.45455	0.	-2448.1
13331	13.323	0.54545	0.	-2471.6
13332	13.415	0.54545	5.e-002	-4.8158
13333	13.415	0.27273	0.	-2450.
13334	13.323	0.36364	0.	-2472.8
13335	13.415	0.36364	5.e-002	-4.5186
13336	13.323	0.18182	0.	-2475.6
13337	13.415	0.18182	5.e-002	-0.10787
13338	13.415	9.0909e-002	0.	-2446.9
13339	13.231	5.7273	0.	-2498.3
13340	13.139	5.8182	0.	-2523.9
13341	13.231	5.8182	5.e-002	-9.5383e-002
13342	13.231	5.9091	0.	-2495.2
13343	13.231	5.5455	0.	-2496.3
13344	13.139	5.6364	0.	-2521.1
13345	13.231	5.6364	5.e-002	-4.5374
13346	13.231	5.3636	0.	-2495.2
13347	13.139	5.4545	0.	-2519.9
13348	13.231	5.4545	5.e-002	-4.8357
13349	13.231	5.1818	0.	-2494.2
13350	13.139	5.2727	0.	-2518.8
13351	13.231	5.2727	5.e-002	-4.857
13352	13.231	5.	0.	-2493.3
13353	13.139	5.0909	0.	-2517.9
13354	13.231	5.0909	5.e-002	-4.8601
13355	13.231	4.8182	0.	-2492.5
13356	13.139	4.9091	0.	-2517.
13357	13.231	4.9091	5.e-002	-4.8618
13358	13.231	4.6364	0.	-2491.7
13359	13.139	4.7273	0.	-2516.2
13360	13.231	4.7273	5.e-002	-4.8634
13361	13.231	4.4545	0.	-2491.1
13362	13.139	4.5455	0.	-2515.5
13363	13.231	4.5455	5.e-002	-4.8647
13364	13.231	4.2727	0.	-2490.5
13365	13.139	4.3636	0.	-2514.9
13366	13.231	4.3636	5.e-002	-4.8659
13367	13.231	4.0909	0.	-2490.
13368	13.139	4.1818	0.	-2514.4
13369	13.231	4.1818	5.e-002	-4.867
13370	13.231	3.9091	0.	-2489.6
13371	13.139	4.	0.	-2513.9
13372	13.231	4.	5.e-002	-4.8679
13373	13.231	3.7273	0.	-2489.3
13374	13.139	3.8182	0.	-2513.5
13375	13.231	3.8182	5.e-002	-4.8686
13376	13.231	3.5455	0.	-2489.
13377	13.139	3.6364	0.	-2513.2
13378	13.231	3.6364	5.e-002	-4.8692
13379	13.231	3.3636	0.	-2488.9
13380	13.139	3.4545	0.	-2513.
13381	13.231	3.4545	5.e-002	-4.8696
13382	13.231	3.1818	0.	-2488.7
13383	13.139	3.2727	0.	-2512.8
13384	13.231	3.2727	5.e-002	-4.8699
13385	13.231	3.	0.	-2488.7
13386	13.139	3.0909	0.	-2512.8
13387	13.231	3.0909	5.e-002	-4.87
13388	13.231	2.8182	0.	-2488.7
13389	13.139	2.9091	0.	-2512.8
13390	13.231	2.9091	5.e-002	-4.87
13391	13.231	2.6364	0.	-2488.9
13392	13.139	2.7273	0.	-2512.8
13393	13.231	2.7273	5.e-002	-4.8699
13394	13.231	2.4545	0.	-2489.
13395	13.139	2.5455	0.	-2513.
13396	13.231	2.5455	5.e-002	-4.8696
13397	13.231	2.2727	0.	-2489.3
13398	13.139	2.3636	0.	-2513.2
13399	13.231	2.3636	5.e-002	-4.8692
13400	13.231	2.0909	0.	-2489.6
13401	13.139	2.1818	0.	-2513.5
13402	13.231	2.1818	5.e-002	-4.8686
13403	13.231	1.9091	0.	-2490.
13404	13.139	2.	0.	-2513.9
13405	13.231	2.	5.e-002	-4.8679
13406	13.231	1.7273	0.	-2490.5
13407	13.139	1.8182	0.	-2514.4
13408	13.231	1.8182	5.e-002	-4.867
13409	13.231	1.5455	0.	-2491.1
13410	13.139	1.6364	0.	-2514.9
13411	13.231	1.6364	5.e-002	-4.8659
13412	13.231	1.3636	0.	-2491.7
13413	13.139	1.4545	0.	-2515.5
13414	13.231	1.4545	5.e-002	-4.8648
13415	13.231	1.1818	0.	-2492.5
13416	13.139	1.2727	0.	-2516.2
13417	13.231	1.2727	5.e-002	-4.8634
13418	13.231	1.	0.	-2493.3
13419	13.139	1.0909	0.	-2517.
13420	13.231	1.0909	5.e-002	-4.8618
13421	13.231	0.81818	0.	-2494.2
13422	13.139	0.90909	0.	-2517.9
13423	13.231	0.90909	5.e-002	-4.8601
13424	13.231	0.63636	0.	-2495.2
13425	13.139	0.72727	0.	-2518.8
13426	13.231	0.72727	5.e-002	-4.857
13427	13.231	0.45455	0.	-2496.3
13428	13.139	0.54545	0.	-2519.9
13429	13.231	0.54545	5.e-002	-4.8357
13430	13.231	0.27273	0.	-2498.3
13431	13.139	0.36364	0.	-2521.1
13432	13.231	0.36364	5.e-002	-4.5374
13433	13.139	0.18182	0.	-2523.9
13434	13.231	0.18182	5.e-002	-9.5383e-002
13435	13.231	9.0909e-002	0.	-2495.2
13436	13.047	5.7273	0.	-2546.7
13437	12.955	5.8182	0.	-2572.5
13438	13.047	5.8182	5.e-002	-8.2529e-002
13439	13.047	5.9091	0.	-2543.7
13440	13.047	5.5455	0.	-2544.7
13441	12.955	5.6364	0.	-2569.6
13442	13.047	5.6364	5.e-002	-4.5567
13443	13.047	5.3636	0.	-2543.5
13444	12.955	5.4545	0.	-2568.4
13445	13.047	5.4545	5.e-002	-4.8559
13446	13.047	5.1818	0.	-2542.5
13447	12.955	5.2727	0.	-2567.3
13448	13.047	5.2727	5.e-002	-4.8774
13449	13.047	5.	0.	-2541.6
13450	12.955	5.0909	0.	-2566.3
13451	13.047	5.0909	5.e-002	-4.8806
13452	13.047	4.8182	0.	-2540.8
13453	12.955	4.9091	0.	-2565.4
13454	13.047	4.9091	5.e-002	-4.8824
13455	13.047	4.6364	0.	-2540.
13456	12.955	4.7273	0.	-2564.6
13457	13.047	4.7273	5.e-002	-4.884
13458	13.047	4.4545	0.	-2539.3
13459	12.955	4.5455	0.	-2563.9
13460	13.047	4.5455	5.e-002	-4.8854
13461	13.047	4.2727	0.	-2538.7
13462	12.955	4.3636	0.	-2563.2
13463	13.047	4.3636	5.e-002	-4.8867
13464	13.047	4.0909	0.	-2538.2
13465	12.955	4.1818	0.	-2562.7
13466	13.047	4.1818	5.e-002	-4.8878
13467	13.047	3.9091	0.	-2537.8
13468	12.955	4.	0.	-2562.2
13469	13.047	4.	5.e-002	-4.8887
13470	13.047	3.7273	0.	-2537.4
13471	12.955	3.8182	0.	-2561.8
13472	13.047	3.8182	5.e-002	-4.8895
13473	13.047	3.5455	0.	-2537.2
13474	12.955	3.6364	0.	-2561.5
13475	13.047	3.6364	5.e-002	-4.8901
13476	13.047	3.3636	0.	-2537.
13477	12.955	3.4545	0.	-2561.2
13478	13.047	3.4545	5.e-002	-4.8906
13479	13.047	3.1818	0.	-2536.9
13480	12.955	3.2727	0.	-2561.1
13481	13.047	3.2727	5.e-002	-4.8909
13482	13.047	3.	0.	-2536.8
13483	12.955	3.0909	0.	-2561.
13484	13.047	3.0909	5.e-002	-4.891
13485	13.047	2.8182	0.	-2536.9
13486	12.955	2.9091	0.	-2561.
13487	13.047	2.9091	5.e-002	-4.891
13488	13.047	2.6364	0.	-2537.
13489	12.955	2.7273	0.	-2561.1
13490	13.047	2.7273	5.e-002	-4.8909
13491	13.047	2.4545	0.	-2537.2
13492	12.955	2.5455	0.	-2561.2
13493	13.047	2.5455	5.e-002	-4.8906
13494	13.047	2.2727	0.	-2537.4
13495	12.955	2.3636	0.	-2561.5
13496	13.047	2.3636	5.e-002	-4.8901
13497	13.047	2.0909	0.	-2537.8
13498	12.955	2.1818	0.	-2561.8
13499	13.047	2.1818	5.e-002	-4.8895
13500	13.047	1.9091	0.	-2538.2
13501	12.955	2.	0.	-2562.2
13502	13.047	2.	5.e-002	-4.8887
13503	13.047	1.7273	0.	-2538.7
13504	12.955	1.8182	0.	-2562.7
13505	13.047	1.8182	5.e-002	-4.8878
13506	13.047	1.5455	0.	-2539.3
13507	12.955	1.6364	0.	-2563.2
13508	13.047	1.6364	5.e-002	-4.8867
13509	13.047	1.3636	0.	-2540.
13510	12.955	1.4545	0.	-2563.9
13511	13.047	1.4545	5.e-002	-4.8854
13512	13.047	1.1818	0.	-2540.8
13513	12.955	1.2727	0.	-2564.6
13514	13.047	1.2727	5.e-002	-4.884
13515	13.047	1.	0.	-2541.6
13516	12.955	1.0909	0.	-2565.4
13517	13.047	1.0909	5.e-002	-4.8824
13518	13.047	0.81818	0.	-2542.5
13519	12.955	0.90909	0.	-2566.3
13520	13.047	0.90909	5.e-002	-4.8806
13521	13.047	0.63636	0.	-2543.5
13522	12.955	0.72727	0.	-2567.3
13523	13.047	0.72727	5.e-002	-4.8774
13524	13.047	0.45455	0.	-2544.7
13525	12.955	0.54545	0.	-2568.4
13526	13.047	0.54545	5.e-002	-4.8559
13527	13.047	0.27273	0.	-2546.7
13528	12.955	0.36364	0.	-2569.6
13529	13.047	0.36364	5.e-002	-4.5567
13530	12.955	0.18182	0.	-2572.5
13531	13.047	0.18182	5.e-002	-8.2529e-002
13532	13.047	9.0909e-002	0.	-2543.7
13533	12.863	5.7273	0.	-2595.3
13534	12.771	5.8182	0.	-2621.2
13535	12.863	5.8182	5.e-002	-6.9644e-002
13536	12.863	5.9091	0.	-2592.4
13537	12.863	5.5455	0.	-2593.3
13538	12.771	5.6364	0.	-2618.4
13539	12.863	5.6364	5.e-002	-4.5763
13540	12.863	5.3636	0.	-2592.1
13541	12.771	5.4545	0.	-2617.1
13542	12.863	5.4545	5.e-002	-4.8765
13543	12.863	5.1818	0.	-2591.1
13544	12.771	5.2727	0.	-2616.
13545	12.863	5.2727	5.e-002	-4.8981
13546	12.863	5.	0.	-2590.1
13547	12.771	5.0909	0.	-2614.9
13548	12.863	5.0909	5.e-002	-4.9014
13549	12.863	4.8182	0.	-2589.2
13550	12.771	4.9091	0.	-2614.
13551	12.863	4.9091	5.e-002	-4.9033
13552	12.863	4.6364	0.	-2588.4
13553	12.771	4.7273	0.	-2613.2
13554	12.863	4.7273	5.e-002	-4.905
13555	12.863	4.4545	0.	-2587.7
13556	12.771	4.5455	0.	-2612.4
13557	12.863	4.5455	5.e-002	-4.9064
13558	12.863	4.2727	0.	-2587.1
13559	12.771	4.3636	0.	-2611.7
13560	12.863	4.3636	5.e-002	-4.9078
13561	12.863	4.0909	0.	-2586.6
13562	12.771	4.1818	0.	-2611.1
13563	12.863	4.1818	5.e-002	-4.9089
13564	12.863	3.9091	0.	-2586.1
13565	12.771	4.	0.	-2610.6
13566	12.863	4.	5.e-002	-4.9099
13567	12.863	3.7273	0.	-2585.8
13568	12.771	3.8182	0.	-2610.2
13569	12.863	3.8182	5.e-002	-4.9107
13570	12.863	3.5455	0.	-2585.5
13571	12.771	3.6364	0.	-2609.9
13572	12.863	3.6364	5.e-002	-4.9114
13573	12.863	3.3636	0.	-2585.3
13574	12.771	3.4545	0.	-2609.6
13575	12.863	3.4545	5.e-002	-4.9119
13576	12.863	3.1818	0.	-2585.2
13577	12.771	3.2727	0.	-2609.5
13578	12.863	3.2727	5.e-002	-4.9122
13579	12.863	3.	0.	-2585.1
13580	12.771	3.0909	0.	-2609.4
13581	12.863	3.0909	5.e-002	-4.9124
13582	12.863	2.8182	0.	-2585.2
13583	12.771	2.9091	0.	-2609.4
13584	12.863	2.9091	5.e-002	-4.9124
13585	12.863	2.6364	0.	-2585.3
13586	12.771	2.7273	0.	-2609.5
13587	12.863	2.7273	5.e-002	-4.9122
13588	12.863	2.4545	0.	-2585.5
13589	12.771	2.5455	0.	-2609.6
13590	12.863	2.5455	5.e-002	-4.9119
13591	12.863	2.2727	0.	-2585.8
13592	12.771	2.3636	0.	-2609.9
13593	12.863	2.3636	5.e-002	-4.9114
13594	12.863	2.0909	0.	-2586.1
13595	12.771	2.1818	0.	-2610.2
13596	12.863	2.1818	5.e-002	-4.9107
13597	12.863	1.9091	0.	-2586.6
13598	12.771	2.	0.	-2610.6
13599	12.863	2.	5.e-002	-4.9099
13600	12.863	1.7273	0.	-2587.1
13601	12.771	1.8182	0.	-2611.1
13602	12.863	1.8182	5.e-002	-4.9089
13603	12.863	1.5455	0.	-2587.7
13604	12.771	1.6364	0.	-2611.7
13605	12.863	1.6364	5.e-002	-4.9078
13606	12.863	1.3636	0.	-2588.4
13607	12.771	1.4545	0.	-2612.4
13608	12.863	1.4545	5.e-002	-4.9064
13609	12.863	1.1818	0.	-2589.2
13610	12.771	1.2727	0.	-2613.2
13611	12.863	1.2727	5.e-002	-4.905
13612	12.863	1.	0.	-2590.1
13613	12.771	1.0909	0.	-2614.
13614	12.863	1.0909	5.e-002	-4.9033
13615	12.863	0.81818	0.	-2591.1
13616	12.771	0.90909	0.	-2614.9
13617	12.863	0.90909	5.e-002	-4.9014
13618	12.863	0.63636	0.	-2592.1
13619	12.771	0.72727	0.	-2616.
13620	12.863	0.72727	5.e-002	-4.8981
13621	12.863	0.45455	0.	-2593.3
13622	12.771	0.54545	0.	-2617.1
13623	12.863	0.54545	5.e-002	-4.8765
13624	12.863	0.27273	0.	-2595.3
13625	12.771	0.36364	0.	-2618.4
13626	12.863	0.36364	5.e-002	-4.5763
13627	12.771	0.18182	0.	-2621.2
13628	12.863	0.18182	5.e-002	-6.9643e-002
13629	12.863	9.0909e-002	0.	-2592.4
13630	12.679	5.7273	0.	-2644.2
13631	12.588	5.8182	0.	-2670.2
13632	12.679	5.8182	5.e-002	-5.7686e-002
13633	12.679	5.9091	0.	-2641.3
13634	12.679	5.5455	0.	-2642.1
13635	12.588	5.6364	0.	-2667.3
13636	12.679	5.6364	5.e-002	-4.5964
13637	12.679	5.3636	0.	-2640.9
13638	12.588	5.4545	0.	-2666.
13639	12.679	5.4545	5.e-002	-4.8974
13640	12.679	5.1818	0.	-2639.8
13641	12.588	5.2727	0.	-2664.8
13642	12.679	5.2727	5.e-002	-4.9191
13643	12.679	5.	0.	-2638.8
13644	12.588	5.0909	0.	-2663.8
13645	12.679	5.0909	5.e-002	-4.9225
13646	12.679	4.8182	0.	-2637.9
13647	12.588	4.9091	0.	-2662.8
13648	12.679	4.9091	5.e-002	-4.9245
13649	12.679	4.6364	0.	-2637.1
13650	12.588	4.7273	0.	-2661.9
13651	12.679	4.7273	5.e-002	-4.9262
13652	12.679	4.4545	0.	-2636.4
13653	12.588	4.5455	0.	-2661.1
13654	12.679	4.5455	5.e-002	-4.9278
13655	12.679	4.2727	0.	-2635.7
13656	12.588	4.3636	0.	-2660.4
13657	12.679	4.3636	5.e-002	-4.9292
13658	12.679	4.0909	0.	-2635.2
13659	12.588	4.1818	0.	-2659.8
13660	12.679	4.1818	5.e-002	-4.9304
13661	12.679	3.9091	0.	-2634.7
13662	12.588	4.	0.	-2659.3
13663	12.679	4.	5.e-002	-4.9314
13664	12.679	3.7273	0.	-2634.3
13665	12.588	3.8182	0.	-2658.8
13666	12.679	3.8182	5.e-002	-4.9323
13667	12.679	3.5455	0.	-2634.
13668	12.588	3.6364	0.	-2658.5
13669	12.679	3.6364	5.e-002	-4.9329
13670	12.679	3.3636	0.	-2633.8
13671	12.588	3.4545	0.	-2658.2
13672	12.679	3.4545	5.e-002	-4.9335
13673	12.679	3.1818	0.	-2633.6
13674	12.588	3.2727	0.	-2658.
13675	12.679	3.2727	5.e-002	-4.9338
13676	12.679	3.	0.	-2633.6
13677	12.588	3.0909	0.	-2658.
13678	12.679	3.0909	5.e-002	-4.934
13679	12.679	2.8182	0.	-2633.6
13680	12.588	2.9091	0.	-2658.
13681	12.679	2.9091	5.e-002	-4.934
13682	12.679	2.6364	0.	-2633.8
13683	12.588	2.7273	0.	-2658.
13684	12.679	2.7273	5.e-002	-4.9338
13685	12.679	2.4545	0.	-2634.
13686	12.588	2.5455	0.	-2658.2
13687	12.679	2.5455	5.e-002	-4.9335
13688	12.679	2.2727	0.	-2634.3
13689	12.588	2.3636	0.	-2658.5
13690	12.679	2.3636	5.e-002	-4.9329
13691	12.679	2.0909	0.	-2634.7
13692	12.588	2.1818	0.	-2658.8
13693	12.679	2.1818	5.e-002	-4.9323
13694	12.679	1.9091	0.	-2635.2
13695	12.588	2.	0.	-2659.3
13696	12.679	2.	5.e-002	-4.9314
13697	12.679	1.7273	0.	-2635.7
13698	12.588	1.8182	0.	-2659.8
13699	12.679	1.8182	5.e-002	-4.9304
13700	12.679	1.5455	0.	-2636.4
13701	12.588	1.6364	0.	-2660.4
13702	12.679	1.6364	5.e-002	-4.9292
13703	12.679	1.3636	0.	-2637.1
13704	12.588	1.4545	0.	-2661.1
13705	12.679	1.4545	5.e-002	-4.9278
13706	12.679	1.1818	0.	-2637.9
13707	12.588	1.2727	0.	-2661.9
13708	12.679	1.2727	5.e-002	-4.9262
13709	12.679	1.	0.	-2638.8
13710	12.588	1.0909	0.	-2662.8
13711	12.679	1.0909	5.e-002	-4.9245
13712	12.679	0.81818	0.	-2639.8
13713	12.588	0.90909	0.	-2663.8
13714	12.679	0.90909	5.e-002	-4.9225
13715	12.679	0.63636	0.	-2640.9
13716	12.588	0.72727	0.	-2664.8
13717	12.679	0.72727	5.e-002	-4.9191
13718	12.679	0.45455	0.	-2642.1
13719	12.588	0.54545	0.	-2666.
13720	12.679	0.54545	5.e-002	-4.8974
13721	12.679	0.27273	0.	-2644.2
13722	12.588	0.36364	0.	-2667.3
13723	12.679	0.36364	5.e-002	-4.5964
13724	12.588	0.18182	0.	-2670.2
13725	12.679	0.18182	5.e-002	-5.7685e-002
13726	12.679	9.0909e-002	0.	-2641.3
13727	12.496	5.7273	0.	-2693.2
13728	12.404	5.8182	0.	-2719.3
13729	12.496	5.8182	5.e-002	-4.9029e-002
13730	12.496	5.9091	0.	-2690.5
13731	12.496	5.5455	0.	-2691.1
13732	12.404	5.6364	0.	-2716.4
13733	12.496	5.6364	5.e-002	-4.617
13734	12.496	5.3636	0.	-2689.9
13735	12.404	5.4545	0.	-2715.1
13736	12.496	5.4545	5.e-002	-4.9186
13737	12.496	5.1818	0.	-2688.8
13738	12.404	5.2727	0.	-2713.9
13739	12.496	5.2727	5.e-002	-4.9405
13740	12.496	5.	0.	-2687.7
13741	12.404	5.0909	0.	-2712.8
13742	12.496	5.0909	5.e-002	-4.9439
13743	12.496	4.8182	0.	-2686.8
13744	12.404	4.9091	0.	-2711.8
13745	12.496	4.9091	5.e-002	-4.946
13746	12.496	4.6364	0.	-2685.9
13747	12.404	4.7273	0.	-2710.9
13748	12.496	4.7273	5.e-002	-4.9479
13749	12.496	4.4545	0.	-2685.2
13750	12.404	4.5455	0.	-2710.
13751	12.496	4.5455	5.e-002	-4.9495
13752	12.496	4.2727	0.	-2684.5
13753	12.404	4.3636	0.	-2709.3
13754	12.496	4.3636	5.e-002	-4.9509
13755	12.496	4.0909	0.	-2683.9
13756	12.404	4.1818	0.	-2708.7
13757	12.496	4.1818	5.e-002	-4.9522
13758	12.496	3.9091	0.	-2683.4
13759	12.404	4.	0.	-2708.1
13760	12.496	4.	5.e-002	-4.9533
13761	12.496	3.7273	0.	-2683.
13762	12.404	3.8182	0.	-2707.7
13763	12.496	3.8182	5.e-002	-4.9542
13764	12.496	3.5455	0.	-2682.7
13765	12.404	3.6364	0.	-2707.3
13766	12.496	3.6364	5.e-002	-4.9549
13767	12.496	3.3636	0.	-2682.5
13768	12.404	3.4545	0.	-2707.
13769	12.496	3.4545	5.e-002	-4.9554
13770	12.496	3.1818	0.	-2682.3
13771	12.404	3.2727	0.	-2706.8
13772	12.496	3.2727	5.e-002	-4.9558
13773	12.496	3.	0.	-2682.3
13774	12.404	3.0909	0.	-2706.7
13775	12.496	3.0909	5.e-002	-4.956
13776	12.496	2.8182	0.	-2682.3
13777	12.404	2.9091	0.	-2706.7
13778	12.496	2.9091	5.e-002	-4.956
13779	12.496	2.6364	0.	-2682.5
13780	12.404	2.7273	0.	-2706.8
13781	12.496	2.7273	5.e-002	-4.9558
13782	12.496	2.4545	0.	-2682.7
13783	12.404	2.5455	0.	-2707.
13784	12.496	2.5455	5.e-002	-4.9554
13785	12.496	2.2727	0.	-2683.
13786	12.404	2.3636	0.	-2707.3
13787	12.496	2.3636	5.e-002	-4.9549
13788	12.496	2.0909	0.	-2683.4
13789	12.404	2.1818	0.	-2707.7
13790	12.496	2.1818	5.e-002	-4.9542
13791	12.496	1.9091	0.	-2683.9
13792	12.404	2.	0.	-2708.1
13793	12.496	2.	5.e-002	-4.9533
13794	12.496	1.7273	0.	-2684.5
13795	12.404	1.8182	0.	-2708.7
13796	12.496	1.8182	5.e-002	-4.9522
13797	12.496	1.5455	0.	-2685.2
13798	12.404	1.6364	0.	-2709.3
13799	12.496	1.6364	5.e-002	-4.9509
13800	12.496	1.3636	0.	-2685.9
13801	12.404	1.4545	0.	-2710.
13802	12.496	1.4545	5.e-002	-4.9495
13803	12.496	1.1818	0.	-2686.8
13804	12.404	1.2727	0.	-2710.9
13805	12.496	1.2727	5.e-002	-4.9479
13806	12.496	1.	0.	-2687.7
13807	12.404	1.0909	0.	-2711.8
13808	12.496	1.0909	5.e-002	-4.946
13809	12.496	0.81818	0.	-2688.8
13810	12.404	0.90909	0.	-2712.8
13811	12.496	0.90909	5.e-002	-4.9439
13812	12.496	0.63636	0.	-2689.9
13813	12.404	0.72727	0.	-2713.9
13814	12.496	0.72727	5.e-002	-4.9405
13815	12.496	0.45455	0.	-2691.1
13816	12.404	0.54545	0.	-2715.1
13817	12.496	0.54545	5.e-002	-4.9186
13818	12.496	0.27273	0.	-2693.2
13819	12.404	0.36364	0.	-2716.4
13820	12.496	0.36364	5.e-002	-4.617
13821	12.404	0.18182	0.	-2719.3
13822	12.496	0.18182	5.e-002	-4.9028e-002
13823	12.496	9.0909e-002	0.	-2690.5
13824	12.312	5.7273	0.	-2742.4
13825	12.22	5.8182	0.	-2768.7
13826	12.312	5.8182	5.e-002	-4.7845e-002
13827	12.312	5.9091	0.	-2739.8
13828	12.312	5.5455	0.	-2740.4
13829	12.22	5.6364	0.	-2765.8
13830	12.312	5.6364	5.e-002	-4.638
13831	12.312	5.3636	0.	-2739.1
13832	12.22	5.4545	0.	-2764.4
13833	12.312	5.4545	5.e-002	-4.9402
13834	12.312	5.1818	0.	-2737.9
13835	12.22	5.2727	0.	-2763.2
13836	12.312	5.2727	5.e-002	-4.9622
13837	12.312	5.	0.	-2736.8
13838	12.22	5.0909	0.	-2762.
13839	12.312	5.0909	5.e-002	-4.9658
13840	12.312	4.8182	0.	-2735.9
13841	12.22	4.9091	0.	-2761.
13842	12.312	4.9091	5.e-002	-4.968
13843	12.312	4.6364	0.	-2735.
13844	12.22	4.7273	0.	-2760.
13845	12.312	4.7273	5.e-002	-4.9699
13846	12.312	4.4545	0.	-2734.2
13847	12.22	4.5455	0.	-2759.2
13848	12.312	4.5455	5.e-002	-4.9716
13849	12.312	4.2727	0.	-2733.5
13850	12.22	4.3636	0.	-2758.4
13851	12.312	4.3636	5.e-002	-4.9731
13852	12.312	4.0909	0.	-2732.9
13853	12.22	4.1818	0.	-2757.7
13854	12.312	4.1818	5.e-002	-4.9745
13855	12.312	3.9091	0.	-2732.3
13856	12.22	4.	0.	-2757.1
13857	12.312	4.	5.e-002	-4.9756
13858	12.312	3.7273	0.	-2731.9
13859	12.22	3.8182	0.	-2756.7
13860	12.312	3.8182	5.e-002	-4.9766
13861	12.312	3.5455	0.	-2731.6
13862	12.22	3.6364	0.	-2756.3
13863	12.312	3.6364	5.e-002	-4.9773
13864	12.312	3.3636	0.	-2731.3
13865	12.22	3.4545	0.	-2756.
13866	12.312	3.4545	5.e-002	-4.9779
13867	12.312	3.1818	0.	-2731.2
13868	12.22	3.2727	0.	-2755.8
13869	12.312	3.2727	5.e-002	-4.9782
13870	12.312	3.	0.	-2731.1
13871	12.22	3.0909	0.	-2755.7
13872	12.312	3.0909	5.e-002	-4.9784
13873	12.312	2.8182	0.	-2731.2
13874	12.22	2.9091	0.	-2755.7
13875	12.312	2.9091	5.e-002	-4.9784
13876	12.312	2.6364	0.	-2731.3
13877	12.22	2.7273	0.	-2755.8
13878	12.312	2.7273	5.e-002	-4.9782
13879	12.312	2.4545	0.	-2731.6
13880	12.22	2.5455	0.	-2756.
13881	12.312	2.5455	5.e-002	-4.9779
13882	12.312	2.2727	0.	-2731.9
13883	12.22	2.3636	0.	-2756.3
13884	12.312	2.3636	5.e-002	-4.9773
13885	12.312	2.0909	0.	-2732.3
13886	12.22	2.1818	0.	-2756.7
13887	12.312	2.1818	5.e-002	-4.9766
13888	12.312	1.9091	0.	-2732.9
13889	12.22	2.	0.	-2757.1
13890	12.312	2.	5.e-002	-4.9756
13891	12.312	1.7273	0.	-2733.5
13892	12.22	1.8182	0.	-2757.7
13893	12.312	1.8182	5.e-002	-4.9745
13894	12.312	1.5455	0.	-2734.2
13895	12.22	1.6364	0.	-2758.4
13896	12.312	1.6364	5.e-002	-4.9731
13897	12.312	1.3636	0.	-2735.
13898	12.22	1.4545	0.	-2759.2
13899	12.312	1.4545	5.e-002	-4.9716
13900	12.312	1.1818	0.	-2735.9
13901	12.22	1.2727	0.	-2760.
13902	12.312	1.2727	5.e-002	-4.9699
13903	12.312	1.	0.	-2736.8
13904	12.22	1.0909	0.	-2761.
13905	12.312	1.0909	5.e-002	-4.968
13906	12.312	0.81818	0.	-2737.9
13907	12.22	0.90909	0.	-2762.
13908	12.312	0.90909	5.e-002	-4.9658
13909	12.312	0.63636	0.	-2739.1
13910	12.22	0.72727	0.	-2763.2
13911	12.312	0.72727	5.e-002	-4.9622
13912	12.312	0.45455	0.	-2740.4
13913	12.22	0.54545	0.	-2764.4
13914	12.312	0.54545	5.e-002	-4.9402
13915	12.312	0.27273	0.	-2742.4
13916	12.22	0.36364	0.	-2765.8
13917	12.312	0.36364	5.e-002	-4.6381
13918	12.22	0.18182	0.	-2768.7
13919	12.312	0.18182	5.e-002	-4.7845e-002
13920	12.312	9.0909e-002	0.	-2739.8
13921	12.128	5.7273	0.	-2791.9
13922	12.036	5.8182	0.	-2818.2
13923	12.128	5.8182	5.e-002	-5.7093e-002
13924	12.128	5.9091	0.	-2789.4
13925	12.128	5.5455	0.	-2789.8
13926	12.036	5.6364	0.	-2815.3
13927	12.128	5.6364	5.e-002	-4.6596
13928	12.128	5.3636	0.	-2788.4
13929	12.036	5.4545	0.	-2813.9
13930	12.128	5.4545	5.e-002	-4.9622
13931	12.128	5.1818	0.	-2787.2
13932	12.036	5.2727	0.	-2812.6
13933	12.128	5.2727	5.e-002	-4.9844
13934	12.128	5.	0.	-2786.1
13935	12.036	5.0909	0.	-2811.4
13936	12.128	5.0909	5.e-002	-4.9881
13937	12.128	4.8182	0.	-2785.1
13938	12.036	4.9091	0.	-2810.4
13939	12.128	4.9091	5.e-002	-4.9903
13940	12.128	4.6364	0.	-2784.2
13941	12.036	4.7273	0.	-2809.4
13942	12.128	4.7273	5.e-002	-4.9924
13943	12.128	4.4545	0.	-2783.4
13944	12.036	4.5455	0.	-2808.5
13945	12.128	4.5455	5.e-002	-4.9942
13946	12.128	4.2727	0.	-2782.6
13947	12.036	4.3636	0.	-2807.7
13948	12.128	4.3636	5.e-002	-4.9958
13949	12.128	4.0909	0.	-2782.
13950	12.036	4.1818	0.	-2807.
13951	12.128	4.1818	5.e-002	-4.9972
13952	12.128	3.9091	0.	-2781.4
13953	12.036	4.	0.	-2806.4
13954	12.128	4.	5.e-002	-4.9984
13955	12.128	3.7273	0.	-2781.
13956	12.036	3.8182	0.	-2805.9
13957	12.128	3.8182	5.e-002	-4.9993
13958	12.128	3.5455	0.	-2780.7
13959	12.036	3.6364	0.	-2805.4
13960	12.128	3.6364	5.e-002	-5.0002
13961	12.128	3.3636	0.	-2780.4
13962	12.036	3.4545	0.	-2805.1
13963	12.128	3.4545	5.e-002	-5.0007
13964	12.128	3.1818	0.	-2780.3
13965	12.036	3.2727	0.	-2804.9
13966	12.128	3.2727	5.e-002	-5.0011
13967	12.128	3.	0.	-2780.2
13968	12.036	3.0909	0.	-2804.8
13969	12.128	3.0909	5.e-002	-5.0014
13970	12.128	2.8182	0.	-2780.3
13971	12.036	2.9091	0.	-2804.8
13972	12.128	2.9091	5.e-002	-5.0014
13973	12.128	2.6364	0.	-2780.4
13974	12.036	2.7273	0.	-2804.9
13975	12.128	2.7273	5.e-002	-5.0011
13976	12.128	2.4545	0.	-2780.7
13977	12.036	2.5455	0.	-2805.1
13978	12.128	2.5455	5.e-002	-5.0007
13979	12.128	2.2727	0.	-2781.
13980	12.036	2.3636	0.	-2805.4
13981	12.128	2.3636	5.e-002	-5.0002
13982	12.128	2.0909	0.	-2781.4
13983	12.036	2.1818	0.	-2805.9
13984	12.128	2.1818	5.e-002	-4.9993
13985	12.128	1.9091	0.	-2782.
13986	12.036	2.	0.	-2806.4
13987	12.128	2.	5.e-002	-4.9984
13988	12.128	1.7273	0.	-2782.6
13989	12.036	1.8182	0.	-2807.
13990	12.128	1.8182	5.e-002	-4.9972
13991	12.128	1.5455	0.	-2783.4
13992	12.036	1.6364	0.	-2807.7
13993	12.128	1.6364	5.e-002	-4.9958
13994	12.128	1.3636	0.	-2784.2
13995	12.036	1.4545	0.	-2808.5
13996	12.128	1.4545	5.e-002	-4.9942
13997	12.128	1.1818	0.	-2785.1
13998	12.036	1.2727	0.	-2809.4
13999	12.128	1.2727	5.e-002	-4.9924
14000	12.128	1.	0.	-2786.1
14001	12.036	1.0909	0.	-2810.4
14002	12.128	1.0909	5.e-002	-4.9903
14003	12.128	0.81818	0.	-2787.2
14004	12.036	0.90909	0.	-2811.4
14005	12.128	0.90909	5.e-002	-4.9881
14006	12.128	0.63636	0.	-2788.4
14007	12.036	0.72727	0.	-2812.6
14008	12.128	0.72727	5.e-002	-4.9844
14009	12.128	0.45455	0.	-2789.8
14010	12.036	0.54545	0.	-2813.9
14011	12.128	0.54545	5.e-002	-4.9622
14012	12.128	0.27273	0.	-2791.9
14013	12.036	0.36364	0.	-2815.3
14014	12.128	0.36364	5.e-002	-4.6597
14015	12.036	0.18182	0.	-2818.2
14016	12.128	0.18182	5.e-002	-5.7122e-002
14017	12.128	9.0909e-002	0.	-2789.4
14018	11.944	5.7273	0.	-2841.5
14019	11.853	5.8182	0.	-2868.
14020	11.944	5.8182	5.e-002	-7.5097e-002
14021	11.944	5.9091	0.	-2839.1
14022	11.944	5.5455	0.	-2839.4
14023	11.853	5.6364	0.	-2865.1
14024	11.944	5.6364	5.e-002	-4.6817
14025	11.944	5.3636	0.	-2838.
14026	11.853	5.4545	0.	-2863.6
14027	11.944	5.4545	5.e-002	-4.9845
14028	11.944	5.1818	0.	-2836.8
14029	11.853	5.2727	0.	-2862.3
14030	11.944	5.2727	5.e-002	-5.0068
14031	11.944	5.	0.	-2835.6
14032	11.853	5.0909	0.	-2861.1
14033	11.944	5.0909	5.e-002	-5.0107
14034	11.944	4.8182	0.	-2834.6
14035	11.853	4.9091	0.	-2859.9
14036	11.944	4.9091	5.e-002	-5.0131
14037	11.944	4.6364	0.	-2833.6
14038	11.853	4.7273	0.	-2858.9
14039	11.944	4.7273	5.e-002	-5.0152
14040	11.944	4.4545	0.	-2832.8
14041	11.853	4.5455	0.	-2858.
14042	11.944	4.5455	5.e-002	-5.0171
14043	11.944	4.2727	0.	-2832.
14044	11.853	4.3636	0.	-2857.1
14045	11.944	4.3636	5.e-002	-5.0188
14046	11.944	4.0909	0.	-2831.3
14047	11.853	4.1818	0.	-2856.4
14048	11.944	4.1818	5.e-002	-5.0203
14049	11.944	3.9091	0.	-2830.7
14050	11.853	4.	0.	-2855.8
14051	11.944	4.	5.e-002	-5.0215
14052	11.944	3.7273	0.	-2830.3
14053	11.853	3.8182	0.	-2855.2
14054	11.944	3.8182	5.e-002	-5.0226
14055	11.944	3.5455	0.	-2829.9
14056	11.853	3.6364	0.	-2854.8
14057	11.944	3.6364	5.e-002	-5.0234
14058	11.944	3.3636	0.	-2829.7
14059	11.853	3.4545	0.	-2854.5
14060	11.944	3.4545	5.e-002	-5.024
14061	11.944	3.1818	0.	-2829.5
14062	11.853	3.2727	0.	-2854.3
14063	11.944	3.2727	5.e-002	-5.0245
14064	11.944	3.	0.	-2829.4
14065	11.853	3.0909	0.	-2854.2
14066	11.944	3.0909	5.e-002	-5.0246
14067	11.944	2.8182	0.	-2829.5
14068	11.853	2.9091	0.	-2854.2
14069	11.944	2.9091	5.e-002	-5.0246
14070	11.944	2.6364	0.	-2829.7
14071	11.853	2.7273	0.	-2854.3
14072	11.944	2.7273	5.e-002	-5.0245
14073	11.944	2.4545	0.	-2829.9
14074	11.853	2.5455	0.	-2854.5
14075	11.944	2.5455	5.e-002	-5.024
14076	11.944	2.2727	0.	-2830.3
14077	11.853	2.3636	0.	-2854.8
14078	11.944	2.3636	5.e-002	-5.0234
14079	11.944	2.0909	0.	-2830.7
14080	11.853	2.1818	0.	-2855.2
14081	11.944	2.1818	5.e-002	-5.0226
14082	11.944	1.9091	0.	-2831.3
14083	11.853	2.	0.	-2855.8
14084	11.944	2.	5.e-002	-5.0215
14085	11.944	1.7273	0.	-2832.
14086	11.853	1.8182	0.	-2856.4
14087	11.944	1.8182	5.e-002	-5.0203
14088	11.944	1.5455	0.	-2832.8
14089	11.853	1.6364	0.	-2857.1
14090	11.944	1.6364	5.e-002	-5.0188
14091	11.944	1.3636	0.	-2833.6
14092	11.853	1.4545	0.	-2858.
14093	11.944	1.4545	5.e-002	-5.0171
14094	11.944	1.1818	0.	-2834.6
14095	11.853	1.2727	0.	-2858.9
14096	11.944	1.2727	5.e-002	-5.0152
14097	11.944	1.	0.	-2835.6
14098	11.853	1.0909	0.	-2859.9
14099	11.944	1.0909	5.e-002	-5.0131
14100	11.944	0.81818	0.	-2836.8
14101	11.853	0.90909	0.	-2861.1
14102	11.944	0.90909	5.e-002	-5.0107
14103	11.944	0.63636	0.	-2838.
14104	11.853	0.72727	0.	-2862.3
14105	11.944	0.72727	5.e-002	-5.0069
14106	11.944	0.45455	0.	-2839.4
14107	11.853	0.54545	0.	-2863.6
14108	11.944	0.54545	5.e-002	-4.9845
14109	11.944	0.27273	0.	-2841.5
14110	11.853	0.36364	0.	-2865.1
14111	11.944	0.36364	5.e-002	-4.6817
14112	11.853	0.18182	0.	-2868.
14113	11.944	0.18182	5.e-002	-7.5128e-002
14114	11.944	9.0909e-002	0.	-2839.1
14115	11.761	5.7273	0.	-2891.4
14116	11.669	5.8182	0.	-2918.
14117	11.761	5.8182	5.e-002	-9.9243e-002
14118	11.761	5.9091	0.	-2889.1
14119	11.761	5.5455	0.	-2889.2
14120	11.669	5.6364	0.	-2915.
14121	11.761	5.6364	5.e-002	-4.7042
14122	11.761	5.3636	0.	-2887.8
14123	11.669	5.4545	0.	-2913.5
14124	11.761	5.4545	5.e-002	-5.0072
14125	11.761	5.1818	0.	-2886.5
14126	11.669	5.2727	0.	-2912.1
14127	11.761	5.2727	5.e-002	-5.0297
14128	11.761	5.	0.	-2885.3
14129	11.669	5.0909	0.	-2910.9
14130	11.761	5.0909	5.e-002	-5.0337
14131	11.761	4.8182	0.	-2884.2
14132	11.669	4.9091	0.	-2909.7
14133	11.761	4.9091	5.e-002	-5.0362
14134	11.761	4.6364	0.	-2883.2
14135	11.669	4.7273	0.	-2908.6
14136	11.761	4.7273	5.e-002	-5.0385
14137	11.761	4.4545	0.	-2882.3
14138	11.669	4.5455	0.	-2907.7
14139	11.761	4.5455	5.e-002	-5.0405
14140	11.761	4.2727	0.	-2881.5
14141	11.669	4.3636	0.	-2906.8
14142	11.761	4.3636	5.e-002	-5.0422
14143	11.761	4.0909	0.	-2880.8
14144	11.669	4.1818	0.	-2906.
14145	11.761	4.1818	5.e-002	-5.0438
14146	11.761	3.9091	0.	-2880.2
14147	11.669	4.	0.	-2905.4
14148	11.761	4.	5.e-002	-5.0451
14149	11.761	3.7273	0.	-2879.7
14150	11.669	3.8182	0.	-2904.8
14151	11.761	3.8182	5.e-002	-5.0462
14152	11.761	3.5455	0.	-2879.4
14153	11.669	3.6364	0.	-2904.4
14154	11.761	3.6364	5.e-002	-5.0471
14155	11.761	3.3636	0.	-2879.1
14156	11.669	3.4545	0.	-2904.
14157	11.761	3.4545	5.e-002	-5.0477
14158	11.761	3.1818	0.	-2878.9
14159	11.669	3.2727	0.	-2903.8
14160	11.761	3.2727	5.e-002	-5.0482
14161	11.761	3.	0.	-2878.9
14162	11.669	3.0909	0.	-2903.7
14163	11.761	3.0909	5.e-002	-5.0483
14164	11.761	2.8182	0.	-2878.9
14165	11.669	2.9091	0.	-2903.7
14166	11.761	2.9091	5.e-002	-5.0483
14167	11.761	2.6364	0.	-2879.1
14168	11.669	2.7273	0.	-2903.8
14169	11.761	2.7273	5.e-002	-5.0482
14170	11.761	2.4545	0.	-2879.4
14171	11.669	2.5455	0.	-2904.
14172	11.761	2.5455	5.e-002	-5.0477
14173	11.761	2.2727	0.	-2879.7
14174	11.669	2.3636	0.	-2904.4
14175	11.761	2.3636	5.e-002	-5.0471
14176	11.761	2.0909	0.	-2880.2
14177	11.669	2.1818	0.	-2904.8
14178	11.761	2.1818	5.e-002	-5.0462
14179	11.761	1.9091	0.	-2880.8
14180	11.669	2.	0.	-2905.4
14181	11.761	2.	5.e-002	-5.0451
14182	11.761	1.7273	0.	-2881.5
14183	11.669	1.8182	0.	-2906.
14184	11.761	1.8182	5.e-002	-5.0438
14185	11.761	1.5455	0.	-2882.3
14186	11.669	1.6364	0.	-2906.8
14187	11.761	1.6364	5.e-002	-5.0422
14188	11.761	1.3636	0.	-2883.2
14189	11.669	1.4545	0.	-2907.7
14190	11.761	1.4545	5.e-002	-5.0405
14191	11.761	1.1818	0.	-2884.2
14192	11.669	1.2727	0.	-2908.6
14193	11.761	1.2727	5.e-002	-5.0385
14194	11.761	1.	0.	-2885.3
14195	11.669	1.0909	0.	-2909.7
14196	11.761	1.0909	5.e-002	-5.0362
14197	11.761	0.81818	0.	-2886.5
14198	11.669	0.90909	0.	-2910.9
14199	11.761	0.90909	5.e-002	-5.0337
14200	11.761	0.63636	0.	-2887.8
14201	11.669	0.72727	0.	-2912.1
14202	11.761	0.72727	5.e-002	-5.0297
14203	11.761	0.45455	0.	-2889.2
14204	11.669	0.54545	0.	-2913.5
14205	11.761	0.54545	5.e-002	-5.0072
14206	11.761	0.27273	0.	-2891.4
14207	11.669	0.36364	0.	-2915.
14208	11.761	0.36364	5.e-002	-4.7042
14209	11.669	0.18182	0.	-2918.
14210	11.761	0.18182	5.e-002	-9.9244e-002
14211	11.761	9.0909e-002	0.	-2889.1
14212	11.577	5.7273	0.	-2941.5
14213	11.485	5.8182	0.	-2968.2
14214	11.577	5.8182	5.e-002	-0.12809
14215	11.577	5.9091	0.	-2939.3
14216	11.577	5.5455	0.	-2939.3
14217	11.485	5.6364	0.	-2965.2
14218	11.577	5.6364	5.e-002	-4.7274
14219	11.577	5.3636	0.	-2937.8
14220	11.485	5.4545	0.	-2963.6
14221	11.577	5.4545	5.e-002	-5.0303
14222	11.577	5.1818	0.	-2936.5
14223	11.485	5.2727	0.	-2962.2
14224	11.577	5.2727	5.e-002	-5.053
14225	11.577	5.	0.	-2935.2
14226	11.485	5.0909	0.	-2960.9
14227	11.577	5.0909	5.e-002	-5.0571
14228	11.577	4.8182	0.	-2934.1
14229	11.485	4.9091	0.	-2959.7
14230	11.577	4.9091	5.e-002	-5.0599
14231	11.577	4.6364	0.	-2933.
14232	11.485	4.7273	0.	-2958.6
14233	11.577	4.7273	5.e-002	-5.0622
14234	11.577	4.4545	0.	-2932.1
14235	11.485	4.5455	0.	-2957.5
14236	11.577	4.5455	5.e-002	-5.0643
14237	11.577	4.2727	0.	-2931.3
14238	11.485	4.3636	0.	-2956.6
14239	11.577	4.3636	5.e-002	-5.0662
14240	11.577	4.0909	0.	-2930.5
14241	11.485	4.1818	0.	-2955.8
14242	11.577	4.1818	5.e-002	-5.0678
14243	11.577	3.9091	0.	-2929.9
14244	11.485	4.	0.	-2955.1
14245	11.577	4.	5.e-002	-5.0692
14246	11.577	3.7273	0.	-2929.4
14247	11.485	3.8182	0.	-2954.6
14248	11.577	3.8182	5.e-002	-5.0704
14249	11.577	3.5455	0.	-2929.
14250	11.485	3.6364	0.	-2954.1
14251	11.577	3.6364	5.e-002	-5.0713
14252	11.577	3.3636	0.	-2928.7
14253	11.485	3.4545	0.	-2953.7
14254	11.577	3.4545	5.e-002	-5.072
14255	11.577	3.1818	0.	-2928.5
14256	11.485	3.2727	0.	-2953.5
14257	11.577	3.2727	5.e-002	-5.0724
14258	11.577	3.	0.	-2928.5
14259	11.485	3.0909	0.	-2953.4
14260	11.577	3.0909	5.e-002	-5.0726
14261	11.577	2.8182	0.	-2928.5
14262	11.485	2.9091	0.	-2953.4
14263	11.577	2.9091	5.e-002	-5.0726
14264	11.577	2.6364	0.	-2928.7
14265	11.485	2.7273	0.	-2953.5
14266	11.577	2.7273	5.e-002	-5.0724
14267	11.577	2.4545	0.	-2929.
14268	11.485	2.5455	0.	-2953.7
14269	11.577	2.5455	5.e-002	-5.072
14270	11.577	2.2727	0.	-2929.4
14271	11.485	2.3636	0.	-2954.1
14272	11.577	2.3636	5.e-002	-5.0713
14273	11.577	2.0909	0.	-2929.9
14274	11.485	2.1818	0.	-2954.6
14275	11.577	2.1818	5.e-002	-5.0704
14276	11.577	1.9091	0.	-2930.5
14277	11.485	2.	0.	-2955.1
14278	11.577	2.	5.e-002	-5.0692
14279	11.577	1.7273	0.	-2931.3
14280	11.485	1.8182	0.	-2955.8
14281	11.577	1.8182	5.e-002	-5.0678
14282	11.577	1.5455	0.	-2932.1
14283	11.485	1.6364	0.	-2956.6
14284	11.577	1.6364	5.e-002	-5.0662
14285	11.577	1.3636	0.	-2933.
14286	11.485	1.4545	0.	-2957.5
14287	11.577	1.4545	5.e-002	-5.0643
14288	11.577	1.1818	0.	-2934.1
14289	11.485	1.2727	0.	-2958.6
14290	11.577	1.2727	5.e-002	-5.0622
14291	11.577	1.	0.	-2935.2
14292	11.485	1.0909	0.	-2959.7
14293	11.577	1.0909	5.e-002	-5.0599
14294	11.577	0.81818	0.	-2936.5
14295	11.485	0.90909	0.	-2960.9
14296	11.577	0.90909	5.e-002	-5.0571
14297	11.577	0.63636	0.	-2937.8
14298	11.485	0.72727	0.	-2962.2
14299	11.577	0.72727	5.e-002	-5.053
14300	11.577	0.45455	0.	-2939.3
14301	11.485	0.54545	0.	-2963.6
14302	11.577	0.54545	5.e-002	-5.0304
14303	11.577	0.27273	0.	-2941.5
14304	11.485	0.36364	0.	-2965.2
14305	11.577	0.36364	5.e-002	-4.7274
14306	11.485	0.18182	0.	-2968.2
14307	11.577	0.18182	5.e-002	-0.12809
14308	11.577	9.0909e-002	0.	-2939.3
14309	11.393	5.7273	0.	-2991.8
14310	11.301	5.8182	0.	-3018.6
14311	11.393	5.8182	5.e-002	-0.16099
14312	11.393	5.9091	0.	-2989.7
14313	11.393	5.5455	0.	-2989.5
14314	11.301	5.6364	0.	-3015.6
14315	11.393	5.6364	5.e-002	-4.7511
14316	11.393	5.3636	0.	-2988.
14317	11.301	5.4545	0.	-3014.
14318	11.393	5.4545	5.e-002	-5.054
14319	11.393	5.1818	0.	-2986.6
14320	11.301	5.2727	0.	-3012.5
14321	11.393	5.2727	5.e-002	-5.0768
14322	11.393	5.	0.	-2985.3
14323	11.301	5.0909	0.	-3011.1
14324	11.393	5.0909	5.e-002	-5.081
14325	11.393	4.8182	0.	-2984.1
14326	11.301	4.9091	0.	-3009.9
14327	11.393	4.9091	5.e-002	-5.0839
14328	11.393	4.6364	0.	-2983.
14329	11.301	4.7273	0.	-3008.7
14330	11.393	4.7273	5.e-002	-5.0864
14331	11.393	4.4545	0.	-2982.1
14332	11.301	4.5455	0.	-3007.6
14333	11.393	4.5455	5.e-002	-5.0886
14334	11.393	4.2727	0.	-2981.2
14335	11.301	4.3636	0.	-3006.7
14336	11.393	4.3636	5.e-002	-5.0906
14337	11.393	4.0909	0.	-2980.4
14338	11.301	4.1818	0.	-3005.8
14339	11.393	4.1818	5.e-002	-5.0923
14340	11.393	3.9091	0.	-2979.8
14341	11.301	4.	0.	-3005.1
14342	11.393	4.	5.e-002	-5.0938
14343	11.393	3.7273	0.	-2979.2
14344	11.301	3.8182	0.	-3004.5
14345	11.393	3.8182	5.e-002	-5.095
14346	11.393	3.5455	0.	-2978.8
14347	11.301	3.6364	0.	-3004.
14348	11.393	3.6364	5.e-002	-5.096
14349	11.393	3.3636	0.	-2978.5
14350	11.301	3.4545	0.	-3003.6
14351	11.393	3.4545	5.e-002	-5.0967
14352	11.393	3.1818	0.	-2978.3
14353	11.301	3.2727	0.	-3003.4
14354	11.393	3.2727	5.e-002	-5.0972
14355	11.393	3.	0.	-2978.3
14356	11.301	3.0909	0.	-3003.3
14357	11.393	3.0909	5.e-002	-5.0974
14358	11.393	2.8182	0.	-2978.3
14359	11.301	2.9091	0.	-3003.3
14360	11.393	2.9091	5.e-002	-5.0974
14361	11.393	2.6364	0.	-2978.5
14362	11.301	2.7273	0.	-3003.4
14363	11.393	2.7273	5.e-002	-5.0972
14364	11.393	2.4545	0.	-2978.8
14365	11.301	2.5455	0.	-3003.6
14366	11.393	2.5455	5.e-002	-5.0967
14367	11.393	2.2727	0.	-2979.2
14368	11.301	2.3636	0.	-3004.
14369	11.393	2.3636	5.e-002	-5.096
14370	11.393	2.0909	0.	-2979.8
14371	11.301	2.1818	0.	-3004.5
14372	11.393	2.1818	5.e-002	-5.095
14373	11.393	1.9091	0.	-2980.4
14374	11.301	2.	0.	-3005.1
14375	11.393	2.	5.e-002	-5.0938
14376	11.393	1.7273	0.	-2981.2
14377	11.301	1.8182	0.	-3005.8
14378	11.393	1.8182	5.e-002	-5.0924
14379	11.393	1.5455	0.	-2982.1
14380	11.301	1.6364	0.	-3006.7
14381	11.393	1.6364	5.e-002	-5.0906
14382	11.393	1.3636	0.	-2983.
14383	11.301	1.4545	0.	-3007.6
14384	11.393	1.4545	5.e-002	-5.0886
14385	11.393	1.1818	0.	-2984.1
14386	11.301	1.2727	0.	-3008.7
14387	11.393	1.2727	5.e-002	-5.0864
14388	11.393	1.	0.	-2985.3
14389	11.301	1.0909	0.	-3009.9
14390	11.393	1.0909	5.e-002	-5.0839
14391	11.393	0.81818	0.	-2986.6
14392	11.301	0.90909	0.	-3011.1
14393	11.393	0.90909	5.e-002	-5.0811
14394	11.393	0.63636	0.	-2988.
14395	11.301	0.72727	0.	-3012.5
14396	11.393	0.72727	5.e-002	-5.0768
14397	11.393	0.45455	0.	-2989.5
14398	11.301	0.54545	0.	-3014.
14399	11.393	0.54545	5.e-002	-5.054
14400	11.393	0.27273	0.	-2991.8
14401	11.301	0.36364	0.	-3015.6
14402	11.393	0.36364	5.e-002	-4.7512
14403	11.301	0.18182	0.	-3018.6
14404	11.393	0.18182	5.e-002	-0.161
14405	11.393	9.0909e-002	0.	-2989.7
14406	11.209	5.7273	0.	-3042.3
14407	11.118	5.8182	0.	-3069.2
14408	11.209	5.8182	5.e-002	-0.19778
14409	11.209	5.9091	0.	-3040.3
14410	11.209	5.5455	0.	-3040.
14411	11.118	5.6364	0.	-3066.2
14412	11.209	5.6364	5.e-002	-4.7755
14413	11.209	5.3636	0.	-3038.4
14414	11.118	5.4545	0.	-3064.5
14415	11.209	5.4545	5.e-002	-5.078
14416	11.209	5.1818	0.	-3037.
14417	11.118	5.2727	0.	-3063.
14418	11.209	5.2727	5.e-002	-5.101
14419	11.209	5.	0.	-3035.6
14420	11.118	5.0909	0.	-3061.6
14421	11.209	5.0909	5.e-002	-5.1055
14422	11.209	4.8182	0.	-3034.4
14423	11.118	4.9091	0.	-3060.2
14424	11.209	4.9091	5.e-002	-5.1085
14425	11.209	4.6364	0.	-3033.2
14426	11.118	4.7273	0.	-3059.
14427	11.209	4.7273	5.e-002	-5.1111
14428	11.209	4.4545	0.	-3032.2
14429	11.118	4.5455	0.	-3057.9
14430	11.209	4.5455	5.e-002	-5.1135
14431	11.209	4.2727	0.	-3031.3
14432	11.118	4.3636	0.	-3056.9
14433	11.209	4.3636	5.e-002	-5.1156
14434	11.209	4.0909	0.	-3030.5
14435	11.118	4.1818	0.	-3056.
14436	11.209	4.1818	5.e-002	-5.1174
14437	11.209	3.9091	0.	-3029.8
14438	11.118	4.	0.	-3055.2
14439	11.209	4.	5.e-002	-5.1189
14440	11.209	3.7273	0.	-3029.2
14441	11.118	3.8182	0.	-3054.6
14442	11.209	3.8182	5.e-002	-5.1202
14443	11.209	3.5455	0.	-3028.8
14444	11.118	3.6364	0.	-3054.1
14445	11.209	3.6364	5.e-002	-5.1212
14446	11.209	3.3636	0.	-3028.5
14447	11.118	3.4545	0.	-3053.7
14448	11.209	3.4545	5.e-002	-5.1219
14449	11.209	3.1818	0.	-3028.3
14450	11.118	3.2727	0.	-3053.4
14451	11.209	3.2727	5.e-002	-5.1224
14452	11.209	3.	0.	-3028.2
14453	11.118	3.0909	0.	-3053.3
14454	11.209	3.0909	5.e-002	-5.1227
14455	11.209	2.8182	0.	-3028.3
14456	11.118	2.9091	0.	-3053.3
14457	11.209	2.9091	5.e-002	-5.1227
14458	11.209	2.6364	0.	-3028.5
14459	11.118	2.7273	0.	-3053.4
14460	11.209	2.7273	5.e-002	-5.1224
14461	11.209	2.4545	0.	-3028.8
14462	11.118	2.5455	0.	-3053.7
14463	11.209	2.5455	5.e-002	-5.1219
14464	11.209	2.2727	0.	-3029.2
14465	11.118	2.3636	0.	-3054.1
14466	11.209	2.3636	5.e-002	-5.1212
14467	11.209	2.0909	0.	-3029.8
14468	11.118	2.1818	0.	-3054.6
14469	11.209	2.1818	5.e-002	-5.1202
14470	11.209	1.9091	0.	-3030.5
14471	11.118	2.	0.	-3055.2
14472	11.209	2.	5.e-002	-5.1189
14473	11.209	1.7273	0.	-3031.3
14474	11.118	1.8182	0.	-3056.
14475	11.209	1.8182	5.e-002	-5.1174
14476	11.209	1.5455	0.	-3032.2
14477	11.118	1.6364	0.	-3056.9
14478	11.209	1.6364	5.e-002	-5.1156
14479	11.209	1.3636	0.	-3033.2
14480	11.118	1.4545	0.	-3057.9
14481	11.209	1.4545	5.e-002	-5.1135
14482	11.209	1.1818	0.	-3034.4
14483	11.118	1.2727	0.	-3059.
14484	11.209	1.2727	5.e-002	-5.1111
14485	11.209	1.	0.	-3035.6
14486	11.118	1.0909	0.	-3060.2
14487	11.209	1.0909	5.e-002	-5.1085
14488	11.209	0.81818	0.	-3037.
14489	11.118	0.90909	0.	-3061.6
14490	11.209	0.90909	5.e-002	-5.1055
14491	11.209	0.63636	0.	-3038.4
14492	11.118	0.72727	0.	-3063.
14493	11.209	0.72727	5.e-002	-5.101
14494	11.209	0.45455	0.	-3040.
14495	11.118	0.54545	0.	-3064.5
14496	11.209	0.54545	5.e-002	-5.078
14497	11.209	0.27273	0.	-3042.3
14498	11.118	0.36364	0.	-3066.2
14499	11.209	0.36364	5.e-002	-4.7755
14500	11.118	0.18182	0.	-3069.2
14501	11.209	0.18182	5.e-002	-0.19778
14502	11.209	9.0909e-002	0.	-3040.3
14503	11.026	5.7273	0.	-3093.
14504	10.934	5.8182	0.	-3120.1
14505	11.026	5.8182	5.e-002	-0.23848
14506	11.026	5.9091	0.	-3091.2
14507	11.026	5.5455	0.	-3090.7
14508	10.934	5.6364	0.	-3117.
14509	11.026	5.6364	5.e-002	-4.8006
14510	11.026	5.3636	0.	-3089.
14511	10.934	5.4545	0.	-3115.3
14512	11.026	5.4545	5.e-002	-5.1026
14513	11.026	5.1818	0.	-3087.5
14514	10.934	5.2727	0.	-3113.7
14515	11.026	5.2727	5.e-002	-5.1257
14516	11.026	5.	0.	-3086.1
14517	10.934	5.0909	0.	-3112.2
14518	11.026	5.0909	5.e-002	-5.1304
14519	11.026	4.8182	0.	-3084.8
14520	10.934	4.9091	0.	-3110.8
14521	11.026	4.9091	5.e-002	-5.1336
14522	11.026	4.6364	0.	-3083.6
14523	10.934	4.7273	0.	-3109.5
14524	11.026	4.7273	5.e-002	-5.1364
14525	11.026	4.4545	0.	-3082.6
14526	10.934	4.5455	0.	-3108.4
14527	11.026	4.5455	5.e-002	-5.1389
14528	11.026	4.2727	0.	-3081.6
14529	10.934	4.3636	0.	-3107.3
14530	11.026	4.3636	5.e-002	-5.1411
14531	11.026	4.0909	0.	-3080.8
14532	10.934	4.1818	0.	-3106.4
14533	11.026	4.1818	5.e-002	-5.143
14534	11.026	3.9091	0.	-3080.
14535	10.934	4.	0.	-3105.6
14536	11.026	4.	5.e-002	-5.1446
14537	11.026	3.7273	0.	-3079.4
14538	10.934	3.8182	0.	-3104.9
14539	11.026	3.8182	5.e-002	-5.1459
14540	11.026	3.5455	0.	-3079.
14541	10.934	3.6364	0.	-3104.4
14542	11.026	3.6364	5.e-002	-5.147
14543	11.026	3.3636	0.	-3078.6
14544	10.934	3.4545	0.	-3104.
14545	11.026	3.4545	5.e-002	-5.1478
14546	11.026	3.1818	0.	-3078.4
14547	10.934	3.2727	0.	-3103.7
14548	11.026	3.2727	5.e-002	-5.1483
14549	11.026	3.	0.	-3078.4
14550	10.934	3.0909	0.	-3103.5
14551	11.026	3.0909	5.e-002	-5.1485
14552	11.026	2.8182	0.	-3078.4
14553	10.934	2.9091	0.	-3103.5
14554	11.026	2.9091	5.e-002	-5.1486
14555	11.026	2.6364	0.	-3078.6
14556	10.934	2.7273	0.	-3103.7
14557	11.026	2.7273	5.e-002	-5.1483
14558	11.026	2.4545	0.	-3079.
14559	10.934	2.5455	0.	-3104.
14560	11.026	2.5455	5.e-002	-5.1478
14561	11.026	2.2727	0.	-3079.4
14562	10.934	2.3636	0.	-3104.4
14563	11.026	2.3636	5.e-002	-5.147
14564	11.026	2.0909	0.	-3080.
14565	10.934	2.1818	0.	-3104.9
14566	11.026	2.1818	5.e-002	-5.1459
14567	11.026	1.9091	0.	-3080.8
14568	10.934	2.	0.	-3105.6
14569	11.026	2.	5.e-002	-5.1446
14570	11.026	1.7273	0.	-3081.6
14571	10.934	1.8182	0.	-3106.4
14572	11.026	1.8182	5.e-002	-5.143
14573	11.026	1.5455	0.	-3082.6
14574	10.934	1.6364	0.	-3107.3
14575	11.026	1.6364	5.e-002	-5.1411
14576	11.026	1.3636	0.	-3083.6
14577	10.934	1.4545	0.	-3108.4
14578	11.026	1.4545	5.e-002	-5.1389
14579	11.026	1.1818	0.	-3084.8
14580	10.934	1.2727	0.	-3109.5
14581	11.026	1.2727	5.e-002	-5.1364
14582	11.026	1.	0.	-3086.1
14583	10.934	1.0909	0.	-3110.8
14584	11.026	1.0909	5.e-002	-5.1336
14585	11.026	0.81818	0.	-3087.5
14586	10.934	0.90909	0.	-3112.2
14587	11.026	0.90909	5.e-002	-5.1304
14588	11.026	0.63636	0.	-3089.
14589	10.934	0.72727	0.	-3113.7
14590	11.026	0.72727	5.e-002	-5.1257
14591	11.026	0.45455	0.	-3090.7
14592	10.934	0.54545	0.	-3115.3
14593	11.026	0.54545	5.e-002	-5.1026
14594	11.026	0.27273	0.	-3093.
14595	10.934	0.36364	0.	-3117.
14596	11.026	0.36364	5.e-002	-4.8006
14597	10.934	0.18182	0.	-3120.1
14598	11.026	0.18182	5.e-002	-0.23851
14599	11.026	9.0909e-002	0.	-3091.2
14600	10.842	5.7273	0.	-3144.
14601	10.75	5.8182	0.	-3171.1
14602	10.842	5.8182	5.e-002	-0.28341
14603	10.842	5.9091	0.	-3142.3
14604	10.842	5.5455	0.	-3141.6
14605	10.75	5.6364	0.	-3168.
14606	10.842	5.6364	5.e-002	-4.8264
14607	10.842	5.3636	0.	-3139.9
14608	10.75	5.4545	0.	-3166.2
14609	10.842	5.4545	5.e-002	-5.1277
14610	10.842	5.1818	0.	-3138.3
14611	10.75	5.2727	0.	-3164.6
14612	10.842	5.2727	5.e-002	-5.1511
14613	10.842	5.	0.	-3136.8
14614	10.75	5.0909	0.	-3163.
14615	10.842	5.0909	5.e-002	-5.156
14616	10.842	4.8182	0.	-3135.5
14617	10.75	4.9091	0.	-3161.6
14618	10.842	4.9091	5.e-002	-5.1593
14619	10.842	4.6364	0.	-3134.2
14620	10.75	4.7273	0.	-3160.2
14621	10.842	4.7273	5.e-002	-5.1623
14622	10.842	4.4545	0.	-3133.1
14623	10.75	4.5455	0.	-3159.
14624	10.842	4.5455	5.e-002	-5.1649
14625	10.842	4.2727	0.	-3132.1
14626	10.75	4.3636	0.	-3157.9
14627	10.842	4.3636	5.e-002	-5.1673
14628	10.842	4.0909	0.	-3131.2
14629	10.75	4.1818	0.	-3156.9
14630	10.842	4.1818	5.e-002	-5.1692
14631	10.842	3.9091	0.	-3130.4
14632	10.75	4.	0.	-3156.1
14633	10.842	4.	5.e-002	-5.1709
14634	10.842	3.7273	0.	-3129.8
14635	10.75	3.8182	0.	-3155.4
14636	10.842	3.8182	5.e-002	-5.1723
14637	10.842	3.5455	0.	-3129.3
14638	10.75	3.6364	0.	-3154.8
14639	10.842	3.6364	5.e-002	-5.1735
14640	10.842	3.3636	0.	-3129.
14641	10.75	3.4545	0.	-3154.4
14642	10.842	3.4545	5.e-002	-5.1743
14643	10.842	3.1818	0.	-3128.8
14644	10.75	3.2727	0.	-3154.1
14645	10.842	3.2727	5.e-002	-5.1748
14646	10.842	3.	0.	-3128.7
14647	10.75	3.0909	0.	-3153.9
14648	10.842	3.0909	5.e-002	-5.1751
14649	10.842	2.8182	0.	-3128.8
14650	10.75	2.9091	0.	-3153.9
14651	10.842	2.9091	5.e-002	-5.1751
14652	10.842	2.6364	0.	-3129.
14653	10.75	2.7273	0.	-3154.1
14654	10.842	2.7273	5.e-002	-5.1748
14655	10.842	2.4545	0.	-3129.3
14656	10.75	2.5455	0.	-3154.4
14657	10.842	2.5455	5.e-002	-5.1743
14658	10.842	2.2727	0.	-3129.8
14659	10.75	2.3636	0.	-3154.8
14660	10.842	2.3636	5.e-002	-5.1735
14661	10.842	2.0909	0.	-3130.4
14662	10.75	2.1818	0.	-3155.4
14663	10.842	2.1818	5.e-002	-5.1723
14664	10.842	1.9091	0.	-3131.2
14665	10.75	2.	0.	-3156.1
14666	10.842	2.	5.e-002	-5.1709
14667	10.842	1.7273	0.	-3132.1
14668	10.75	1.8182	0.	-3156.9
14669	10.842	1.8182	5.e-002	-5.1692
14670	10.842	1.5455	0.	-3133.1
14671	10.75	1.6364	0.	-3157.9
14672	10.842	1.6364	5.e-002	-5.1673
14673	10.842	1.3636	0.	-3134.2
14674	10.75	1.4545	0.	-3159.
14675	10.842	1.4545	5.e-002	-5.1649
14676	10.842	1.1818	0.	-3135.5
14677	10.75	1.2727	0.	-3160.2
14678	10.842	1.2727	5.e-002	-5.1623
14679	10.842	1.	0.	-3136.8
14680	10.75	1.0909	0.	-3161.6
14681	10.842	1.0909	5.e-002	-5.1594
14682	10.842	0.81818	0.	-3138.3
14683	10.75	0.90909	0.	-3163.
14684	10.842	0.90909	5.e-002	-5.156
14685	10.842	0.63636	0.	-3139.9
14686	10.75	0.72727	0.	-3164.6
14687	10.842	0.72727	5.e-002	-5.1511
14688	10.842	0.45455	0.	-3141.6
14689	10.75	0.54545	0.	-3166.2
14690	10.842	0.54545	5.e-002	-5.1277
14691	10.842	0.27273	0.	-3144.
14692	10.75	0.36364	0.	-3168.
14693	10.842	0.36364	5.e-002	-4.8264
14694	10.75	0.18182	0.	-3171.1
14695	10.842	0.18182	5.e-002	-0.28342
14696	10.842	9.0909e-002	0.	-3142.3
14697	10.658	5.7273	0.	-3195.1
14698	10.566	5.8182	0.	-3222.5
14699	10.658	5.8182	5.e-002	-0.33277
14700	10.658	5.9091	0.	-3193.6
14701	10.658	5.5455	0.	-3192.7
14702	10.566	5.6364	0.	-3219.3
14703	10.658	5.6364	5.e-002	-4.8532
14704	10.658	5.3636	0.	-3190.9
14705	10.566	5.4545	0.	-3217.4
14706	10.658	5.4545	5.e-002	-5.1536
14707	10.658	5.1818	0.	-3189.3
14708	10.566	5.2727	0.	-3215.7
14709	10.658	5.2727	5.e-002	-5.1771
14710	10.658	5.	0.	-3187.7
14711	10.566	5.0909	0.	-3214.1
14712	10.658	5.0909	5.e-002	-5.1822
14713	10.658	4.8182	0.	-3186.3
14714	10.566	4.9091	0.	-3212.5
14715	10.658	4.9091	5.e-002	-5.1858
14716	10.658	4.6364	0.	-3185.
14717	10.566	4.7273	0.	-3211.1
14718	10.658	4.7273	5.e-002	-5.1889
14719	10.658	4.4545	0.	-3183.8
14720	10.566	4.5455	0.	-3209.9
14721	10.658	4.5455	5.e-002	-5.1917
14722	10.658	4.2727	0.	-3182.7
14723	10.566	4.3636	0.	-3208.7
14724	10.658	4.3636	5.e-002	-5.1941
14725	10.658	4.0909	0.	-3181.8
14726	10.566	4.1818	0.	-3207.7
14727	10.658	4.1818	5.e-002	-5.1962
14728	10.658	3.9091	0.	-3181.
14729	10.566	4.	0.	-3206.8
14730	10.658	4.	5.e-002	-5.198
14731	10.658	3.7273	0.	-3180.4
14732	10.566	3.8182	0.	-3206.
14733	10.658	3.8182	5.e-002	-5.1995
14734	10.658	3.5455	0.	-3179.8
14735	10.566	3.6364	0.	-3205.4
14736	10.658	3.6364	5.e-002	-5.2006
14737	10.658	3.3636	0.	-3179.5
14738	10.566	3.4545	0.	-3205.
14739	10.658	3.4545	5.e-002	-5.2015
14740	10.658	3.1818	0.	-3179.3
14741	10.566	3.2727	0.	-3204.7
14742	10.658	3.2727	5.e-002	-5.2021
14743	10.658	3.	0.	-3179.2
14744	10.566	3.0909	0.	-3204.5
14745	10.658	3.0909	5.e-002	-5.2024
14746	10.658	2.8182	0.	-3179.3
14747	10.566	2.9091	0.	-3204.5
14748	10.658	2.9091	5.e-002	-5.2024
14749	10.658	2.6364	0.	-3179.5
14750	10.566	2.7273	0.	-3204.7
14751	10.658	2.7273	5.e-002	-5.2021
14752	10.658	2.4545	0.	-3179.8
14753	10.566	2.5455	0.	-3205.
14754	10.658	2.5455	5.e-002	-5.2015
14755	10.658	2.2727	0.	-3180.4
14756	10.566	2.3636	0.	-3205.4
14757	10.658	2.3636	5.e-002	-5.2007
14758	10.658	2.0909	0.	-3181.
14759	10.566	2.1818	0.	-3206.
14760	10.658	2.1818	5.e-002	-5.1995
14761	10.658	1.9091	0.	-3181.8
14762	10.566	2.	0.	-3206.8
14763	10.658	2.	5.e-002	-5.198
14764	10.658	1.7273	0.	-3182.7
14765	10.566	1.8182	0.	-3207.7
14766	10.658	1.8182	5.e-002	-5.1962
14767	10.658	1.5455	0.	-3183.8
14768	10.566	1.6364	0.	-3208.7
14769	10.658	1.6364	5.e-002	-5.1942
14770	10.658	1.3636	0.	-3185.
14771	10.566	1.4545	0.	-3209.9
14772	10.658	1.4545	5.e-002	-5.1917
14773	10.658	1.1818	0.	-3186.3
14774	10.566	1.2727	0.	-3211.1
14775	10.658	1.2727	5.e-002	-5.189
14776	10.658	1.	0.	-3187.7
14777	10.566	1.0909	0.	-3212.5
14778	10.658	1.0909	5.e-002	-5.1858
14779	10.658	0.81818	0.	-3189.3
14780	10.566	0.90909	0.	-3214.1
14781	10.658	0.90909	5.e-002	-5.1822
14782	10.658	0.63636	0.	-3190.9
14783	10.566	0.72727	0.	-3215.7
14784	10.658	0.72727	5.e-002	-5.1771
14785	10.658	0.45455	0.	-3192.7
14786	10.566	0.54545	0.	-3217.4
14787	10.658	0.54545	5.e-002	-5.1536
14788	10.658	0.27273	0.	-3195.1
14789	10.566	0.36364	0.	-3219.3
14790	10.658	0.36364	5.e-002	-4.8532
14791	10.566	0.18182	0.	-3222.5
14792	10.658	0.18182	5.e-002	-0.33278
14793	10.658	9.0909e-002	0.	-3193.6
14794	10.474	5.7273	0.	-3246.5
14795	10.382	5.8182	0.	-3274.
14796	10.474	5.8182	5.e-002	-0.38674
14797	10.474	5.9091	0.	-3245.1
14798	10.474	5.5455	0.	-3244.
14799	10.382	5.6364	0.	-3270.8
14800	10.474	5.6364	5.e-002	-4.8807
14801	10.474	5.3636	0.	-3242.2
14802	10.382	5.4545	0.	-3268.8
14803	10.474	5.4545	5.e-002	-5.18
14804	10.474	5.1818	0.	-3240.5
14805	10.382	5.2727	0.	-3267.
14806	10.474	5.2727	5.e-002	-5.2037
14807	10.474	5.	0.	-3238.9
14808	10.382	5.0909	0.	-3265.3
14809	10.474	5.0909	5.e-002	-5.2091
14810	10.474	4.8182	0.	-3237.4
14811	10.382	4.9091	0.	-3263.7
14812	10.474	4.9091	5.e-002	-5.2129
14813	10.474	4.6364	0.	-3236.
14814	10.382	4.7273	0.	-3262.2
14815	10.474	4.7273	5.e-002	-5.2162
14816	10.474	4.4545	0.	-3234.7
14817	10.382	4.5455	0.	-3260.9
14818	10.474	4.5455	5.e-002	-5.2191
14819	10.474	4.2727	0.	-3233.6
14820	10.382	4.3636	0.	-3259.7
14821	10.474	4.3636	5.e-002	-5.2217
14822	10.474	4.0909	0.	-3232.6
14823	10.382	4.1818	0.	-3258.6
14824	10.474	4.1818	5.e-002	-5.2239
14825	10.474	3.9091	0.	-3231.8
14826	10.382	4.	0.	-3257.6
14827	10.474	4.	5.e-002	-5.2258
14828	10.474	3.7273	0.	-3231.1
14829	10.382	3.8182	0.	-3256.9
14830	10.474	3.8182	5.e-002	-5.2273
14831	10.474	3.5455	0.	-3230.5
14832	10.382	3.6364	0.	-3256.2
14833	10.474	3.6364	5.e-002	-5.2285
14834	10.474	3.3636	0.	-3230.1
14835	10.382	3.4545	0.	-3255.7
14836	10.474	3.4545	5.e-002	-5.2294
14837	10.474	3.1818	0.	-3229.9
14838	10.382	3.2727	0.	-3255.4
14839	10.474	3.2727	5.e-002	-5.23
14840	10.474	3.	0.	-3229.8
14841	10.382	3.0909	0.	-3255.3
14842	10.474	3.0909	5.e-002	-5.2303
14843	10.474	2.8182	0.	-3229.9
14844	10.382	2.9091	0.	-3255.3
14845	10.474	2.9091	5.e-002	-5.2303
14846	10.474	2.6364	0.	-3230.1
14847	10.382	2.7273	0.	-3255.4
14848	10.474	2.7273	5.e-002	-5.23
14849	10.474	2.4545	0.	-3230.5
14850	10.382	2.5455	0.	-3255.7
14851	10.474	2.5455	5.e-002	-5.2294
14852	10.474	2.2727	0.	-3231.1
14853	10.382	2.3636	0.	-3256.2
14854	10.474	2.3636	5.e-002	-5.2285
14855	10.474	2.0909	0.	-3231.8
14856	10.382	2.1818	0.	-3256.9
14857	10.474	2.1818	5.e-002	-5.2273
14858	10.474	1.9091	0.	-3232.6
14859	10.382	2.	0.	-3257.6
14860	10.474	2.	5.e-002	-5.2258
14861	10.474	1.7273	0.	-3233.6
14862	10.382	1.8182	0.	-3258.6
14863	10.474	1.8182	5.e-002	-5.2239
14864	10.474	1.5455	0.	-3234.7
14865	10.382	1.6364	0.	-3259.7
14866	10.474	1.6364	5.e-002	-5.2217
14867	10.474	1.3636	0.	-3236.
14868	10.382	1.4545	0.	-3260.9
14869	10.474	1.4545	5.e-002	-5.2191
14870	10.474	1.1818	0.	-3237.4
14871	10.382	1.2727	0.	-3262.2
14872	10.474	1.2727	5.e-002	-5.2162
14873	10.474	1.	0.	-3238.9
14874	10.382	1.0909	0.	-3263.7
14875	10.474	1.0909	5.e-002	-5.2129
14876	10.474	0.81818	0.	-3240.5
14877	10.382	0.90909	0.	-3265.3
14878	10.474	0.90909	5.e-002	-5.2091
14879	10.474	0.63636	0.	-3242.2
14880	10.382	0.72727	0.	-3267.
14881	10.474	0.72727	5.e-002	-5.2038
14882	10.474	0.45455	0.	-3244.
14883	10.382	0.54545	0.	-3268.8
14884	10.474	0.54545	5.e-002	-5.18
14885	10.474	0.27273	0.	-3246.5
14886	10.382	0.36364	0.	-3270.8
14887	10.474	0.36364	5.e-002	-4.8807
14888	10.382	0.18182	0.	-3274.
14889	10.474	0.18182	5.e-002	-0.38676
14890	10.474	9.0909e-002	0.	-3245.1
14891	10.291	5.7273	0.	-3298.2
14892	10.199	5.8182	0.	-3325.8
14893	10.291	5.8182	5.e-002	-0.44567
14894	10.291	5.9091	0.	-3296.9
14895	10.291	5.5455	0.	-3295.6
14896	10.199	5.6364	0.	-3322.5
14897	10.291	5.6364	5.e-002	-4.9092
14898	10.291	5.3636	0.	-3293.7
14899	10.199	5.4545	0.	-3320.5
14900	10.291	5.4545	5.e-002	-5.2071
14901	10.291	5.1818	0.	-3291.9
14902	10.199	5.2727	0.	-3318.6
14903	10.291	5.2727	5.e-002	-5.2311
14904	10.291	5.	0.	-3290.2
14905	10.199	5.0909	0.	-3316.8
14906	10.291	5.0909	5.e-002	-5.2367
14907	10.291	4.8182	0.	-3288.6
14908	10.199	4.9091	0.	-3315.1
14909	10.291	4.9091	5.e-002	-5.2407
14910	10.291	4.6364	0.	-3287.1
14911	10.199	4.7273	0.	-3313.5
14912	10.291	4.7273	5.e-002	-5.2442
14913	10.291	4.4545	0.	-3285.8
14914	10.199	4.5455	0.	-3312.1
14915	10.291	4.5455	5.e-002	-5.2473
14916	10.291	4.2727	0.	-3284.6
14917	10.199	4.3636	0.	-3310.8
14918	10.291	4.3636	5.e-002	-5.25
14919	10.291	4.0909	0.	-3283.6
14920	10.199	4.1818	0.	-3309.7
14921	10.291	4.1818	5.e-002	-5.2523
14922	10.291	3.9091	0.	-3282.7
14923	10.199	4.	0.	-3308.7
14924	10.291	4.	5.e-002	-5.2542
14925	10.291	3.7273	0.	-3282.
14926	10.199	3.8182	0.	-3307.9
14927	10.291	3.8182	5.e-002	-5.2558
14928	10.291	3.5455	0.	-3281.4
14929	10.199	3.6364	0.	-3307.2
14930	10.291	3.6364	5.e-002	-5.2571
14931	10.291	3.3636	0.	-3281.
14932	10.199	3.4545	0.	-3306.7
14933	10.291	3.4545	5.e-002	-5.2581
14934	10.291	3.1818	0.	-3280.7
14935	10.199	3.2727	0.	-3306.3
14936	10.291	3.2727	5.e-002	-5.2587
14937	10.291	3.	0.	-3280.7
14938	10.199	3.0909	0.	-3306.2
14939	10.291	3.0909	5.e-002	-5.259
14940	10.291	2.8182	0.	-3280.7
14941	10.199	2.9091	0.	-3306.2
14942	10.291	2.9091	5.e-002	-5.259
14943	10.291	2.6364	0.	-3281.
14944	10.199	2.7273	0.	-3306.3
14945	10.291	2.7273	5.e-002	-5.2587
14946	10.291	2.4545	0.	-3281.4
14947	10.199	2.5455	0.	-3306.7
14948	10.291	2.5455	5.e-002	-5.2581
14949	10.291	2.2727	0.	-3282.
14950	10.199	2.3636	0.	-3307.2
14951	10.291	2.3636	5.e-002	-5.2571
14952	10.291	2.0909	0.	-3282.7
14953	10.199	2.1818	0.	-3307.9
14954	10.291	2.1818	5.e-002	-5.2558
14955	10.291	1.9091	0.	-3283.6
14956	10.199	2.	0.	-3308.7
14957	10.291	2.	5.e-002	-5.2542
14958	10.291	1.7273	0.	-3284.6
14959	10.199	1.8182	0.	-3309.7
14960	10.291	1.8182	5.e-002	-5.2523
14961	10.291	1.5455	0.	-3285.8
14962	10.199	1.6364	0.	-3310.8
14963	10.291	1.6364	5.e-002	-5.25
14964	10.291	1.3636	0.	-3287.1
14965	10.199	1.4545	0.	-3312.1
14966	10.291	1.4545	5.e-002	-5.2473
14967	10.291	1.1818	0.	-3288.6
14968	10.199	1.2727	0.	-3313.5
14969	10.291	1.2727	5.e-002	-5.2442
14970	10.291	1.	0.	-3290.2
14971	10.199	1.0909	0.	-3315.1
14972	10.291	1.0909	5.e-002	-5.2407
14973	10.291	0.81818	0.	-3291.9
14974	10.199	0.90909	0.	-3316.8
14975	10.291	0.90909	5.e-002	-5.2367
14976	10.291	0.63636	0.	-3293.7
14977	10.199	0.72727	0.	-3318.6
14978	10.291	0.72727	5.e-002	-5.2311
14979	10.291	0.45455	0.	-3295.6
14980	10.199	0.54545	0.	-3320.5
14981	10.291	0.54545	5.e-002	-5.2072
14982	10.291	0.27273	0.	-3298.2
14983	10.199	0.36364	0.	-3322.5
14984	10.291	0.36364	5.e-002	-4.9092
14985	10.199	0.18182	0.	-3325.8
14986	10.291	0.18182	5.e-002	-0.4457
14987	10.291	9.0909e-002	0.	-3296.9
14988	10.107	5.7273	0.	-3350.
14989	10.015	5.8182	0.	-3377.8
14990	10.107	5.8182	5.e-002	-0.50999
14991	10.107	5.9091	0.	-3349.
14992	10.107	5.5455	0.	-3347.4
14993	10.015	5.6364	0.	-3374.5
14994	10.107	5.6364	5.e-002	-4.9388
14995	10.107	5.3636	0.	-3345.4
14996	10.015	5.4545	0.	-3372.3
14997	10.107	5.4545	5.e-002	-5.2351
14998	10.107	5.1818	0.	-3343.5
14999	10.015	5.2727	0.	-3370.3
15000	10.107	5.2727	5.e-002	-5.2592
15001	10.107	5.	0.	-3341.7
15002	10.015	5.0909	0.	-3368.4
15003	10.107	5.0909	5.e-002	-5.265
15004	10.107	4.8182	0.	-3340.
15005	10.015	4.9091	0.	-3366.7
15006	10.107	4.9091	5.e-002	-5.2693
15007	10.107	4.6364	0.	-3338.5
15008	10.015	4.7273	0.	-3365.
15009	10.107	4.7273	5.e-002	-5.273
15010	10.107	4.4545	0.	-3337.1
15011	10.015	4.5455	0.	-3363.5
15012	10.107	4.5455	5.e-002	-5.2763
15013	10.107	4.2727	0.	-3335.9
15014	10.015	4.3636	0.	-3362.2
15015	10.107	4.3636	5.e-002	-5.2791
15016	10.107	4.0909	0.	-3334.8
15017	10.015	4.1818	0.	-3361.
15018	10.107	4.1818	5.e-002	-5.2815
15019	10.107	3.9091	0.	-3333.8
15020	10.015	4.	0.	-3359.9
15021	10.107	4.	5.e-002	-5.2835
15022	10.107	3.7273	0.	-3333.
15023	10.015	3.8182	0.	-3359.
15024	10.107	3.8182	5.e-002	-5.2852
15025	10.107	3.5455	0.	-3332.4
15026	10.015	3.6364	0.	-3358.3
15027	10.107	3.6364	5.e-002	-5.2865
15028	10.107	3.3636	0.	-3332.
15029	10.015	3.4545	0.	-3357.8
15030	10.107	3.4545	5.e-002	-5.2875
15031	10.107	3.1818	0.	-3331.7
15032	10.015	3.2727	0.	-3357.4
15033	10.107	3.2727	5.e-002	-5.2881
15034	10.107	3.	0.	-3331.6
15035	10.015	3.0909	0.	-3357.2
15036	10.107	3.0909	5.e-002	-5.2885
15037	10.107	2.8182	0.	-3331.7
15038	10.015	2.9091	0.	-3357.2
15039	10.107	2.9091	5.e-002	-5.2885
15040	10.107	2.6364	0.	-3332.
15041	10.015	2.7273	0.	-3357.4
15042	10.107	2.7273	5.e-002	-5.2881
15043	10.107	2.4545	0.	-3332.4
15044	10.015	2.5455	0.	-3357.8
15045	10.107	2.5455	5.e-002	-5.2875
15046	10.107	2.2727	0.	-3333.
15047	10.015	2.3636	0.	-3358.3
15048	10.107	2.3636	5.e-002	-5.2865
15049	10.107	2.0909	0.	-3333.8
15050	10.015	2.1818	0.	-3359.
15051	10.107	2.1818	5.e-002	-5.2852
15052	10.107	1.9091	0.	-3334.8
15053	10.015	2.	0.	-3359.9
15054	10.107	2.	5.e-002	-5.2835
15055	10.107	1.7273	0.	-3335.9
15056	10.015	1.8182	0.	-3361.
15057	10.107	1.8182	5.e-002	-5.2815
15058	10.107	1.5455	0.	-3337.1
15059	10.015	1.6364	0.	-3362.2
15060	10.107	1.6364	5.e-002	-5.2791
15061	10.107	1.3636	0.	-3338.5
15062	10.015	1.4545	0.	-3363.5
15063	10.107	1.4545	5.e-002	-5.2763
15064	10.107	1.1818	0.	-3340.
15065	10.015	1.2727	0.	-3365.
15066	10.107	1.2727	5.e-002	-5.273
15067	10.107	1.	0.	-3341.7
15068	10.015	1.0909	0.	-3366.7
15069	10.107	1.0909	5.e-002	-5.2693
15070	10.107	0.81818	0.	-3343.5
15071	10.015	0.90909	0.	-3368.4
15072	10.107	0.90909	5.e-002	-5.2651
15073	10.107	0.63636	0.	-3345.4
15074	10.015	0.72727	0.	-3370.3
15075	10.107	0.72727	5.e-002	-5.2592
15076	10.107	0.45455	0.	-3347.4
15077	10.015	0.54545	0.	-3372.3
15078	10.107	0.54545	5.e-002	-5.2351
15079	10.107	0.27273	0.	-3350.
15080	10.015	0.36364	0.	-3374.5
15081	10.107	0.36364	5.e-002	-4.9388
15082	10.015	0.18182	0.	-3377.8
15083	10.107	0.18182	5.e-002	-0.51001
15084	10.107	9.0909e-002	0.	-3349.
15085	9.9231	5.7273	0.	-3402.1
15086	9.8312	5.8182	0.	-3430.
15087	9.9231	5.8182	5.e-002	-0.58017
15088	9.9231	5.9091	0.	-3401.3
15089	9.9231	5.5455	0.	-3399.4
15090	9.8312	5.6364	0.	-3426.7
15091	9.9231	5.6364	5.e-002	-4.9696
15092	9.9231	5.3636	0.	-3397.3
15093	9.8312	5.4545	0.	-3424.4
15094	9.9231	5.4545	5.e-002	-5.264
15095	9.9231	5.1818	0.	-3395.3
15096	9.8312	5.2727	0.	-3422.3
15097	9.9231	5.2727	5.e-002	-5.2882
15098	9.9231	5.	0.	-3393.4
15099	9.8312	5.0909	0.	-3420.3
15100	9.9231	5.0909	5.e-002	-5.2944
15101	9.9231	4.8182	0.	-3391.7
15102	9.8312	4.9091	0.	-3418.5
15103	9.9231	4.9091	5.e-002	-5.2989
15104	9.9231	4.6364	0.	-3390.
15105	9.8312	4.7273	0.	-3416.7
15106	9.9231	4.7273	5.e-002	-5.3028
15107	9.9231	4.4545	0.	-3388.6
15108	9.8312	4.5455	0.	-3415.1
15109	9.9231	4.5455	5.e-002	-5.3062
15110	9.9231	4.2727	0.	-3387.3
15111	9.8312	4.3636	0.	-3413.7
15112	9.9231	4.3636	5.e-002	-5.3092
15113	9.9231	4.0909	0.	-3386.1
15114	9.8312	4.1818	0.	-3412.4
15115	9.9231	4.1818	5.e-002	-5.3117
15116	9.9231	3.9091	0.	-3385.1
15117	9.8312	4.	0.	-3411.3
15118	9.9231	4.	5.e-002	-5.3138
15119	9.9231	3.7273	0.	-3384.3
15120	9.8312	3.8182	0.	-3410.4
15121	9.9231	3.8182	5.e-002	-5.3156
15122	9.9231	3.5455	0.	-3383.6
15123	9.8312	3.6364	0.	-3409.6
15124	9.9231	3.6364	5.e-002	-5.3169
15125	9.9231	3.3636	0.	-3383.2
15126	9.8312	3.4545	0.	-3409.
15127	9.9231	3.4545	5.e-002	-5.3179
15128	9.9231	3.1818	0.	-3382.9
15129	9.8312	3.2727	0.	-3408.6
15130	9.9231	3.2727	5.e-002	-5.3185
15131	9.9231	3.	0.	-3382.8
15132	9.8312	3.0909	0.	-3408.4
15133	9.9231	3.0909	5.e-002	-5.3189
15134	9.9231	2.8182	0.	-3382.9
15135	9.8312	2.9091	0.	-3408.4
15136	9.9231	2.9091	5.e-002	-5.3189
15137	9.9231	2.6364	0.	-3383.2
15138	9.8312	2.7273	0.	-3408.6
15139	9.9231	2.7273	5.e-002	-5.3185
15140	9.9231	2.4545	0.	-3383.6
15141	9.8312	2.5455	0.	-3409.
15142	9.9231	2.5455	5.e-002	-5.3179
15143	9.9231	2.2727	0.	-3384.3
15144	9.8312	2.3636	0.	-3409.6
15145	9.9231	2.3636	5.e-002	-5.3169
15146	9.9231	2.0909	0.	-3385.1
15147	9.8312	2.1818	0.	-3410.4
15148	9.9231	2.1818	5.e-002	-5.3156
15149	9.9231	1.9091	0.	-3386.1
15150	9.8312	2.	0.	-3411.3
15151	9.9231	2.	5.e-002	-5.3138
15152	9.9231	1.7273	0.	-3387.3
15153	9.8312	1.8182	0.	-3412.4
15154	9.9231	1.8182	5.e-002	-5.3117
15155	9.9231	1.5455	0.	-3388.6
15156	9.8312	1.6364	0.	-3413.7
15157	9.9231	1.6364	5.e-002	-5.3092
15158	9.9231	1.3636	0.	-3390.
15159	9.8312	1.4545	0.	-3415.1
15160	9.9231	1.4545	5.e-002	-5.3062
15161	9.9231	1.1818	0.	-3391.7
15162	9.8312	1.2727	0.	-3416.7
15163	9.9231	1.2727	5.e-002	-5.3028
15164	9.9231	1.	0.	-3393.4
15165	9.8312	1.0909	0.	-3418.5
15166	9.9231	1.0909	5.e-002	-5.2989
15167	9.9231	0.81818	0.	-3395.3
15168	9.8312	0.90909	0.	-3420.3
15169	9.9231	0.90909	5.e-002	-5.2944
15170	9.9231	0.63636	0.	-3397.3
15171	9.8312	0.72727	0.	-3422.3
15172	9.9231	0.72727	5.e-002	-5.2883
15173	9.9231	0.45455	0.	-3399.4
15174	9.8312	0.54545	0.	-3424.4
15175	9.9231	0.54545	5.e-002	-5.264
15176	9.9231	0.27273	0.	-3402.1
15177	9.8312	0.36364	0.	-3426.7
15178	9.9231	0.36364	5.e-002	-4.9696
15179	9.8312	0.18182	0.	-3430.
15180	9.9231	0.18182	5.e-002	-0.58018
15181	9.9231	9.0909e-002	0.	-3401.3
15182	9.7393	5.7273	0.	-3454.5
15183	9.6474	5.8182	0.	-3482.5
15184	9.7393	5.8182	5.e-002	-0.65662
15185	9.7393	5.9091	0.	-3453.8
15186	9.7393	5.5455	0.	-3451.6
15187	9.6474	5.6364	0.	-3479.1
15188	9.7393	5.6364	5.e-002	-5.0016
15189	9.7393	5.3636	0.	-3449.4
15190	9.6474	5.4545	0.	-3476.7
15191	9.7393	5.4545	5.e-002	-5.2938
15192	9.7393	5.1818	0.	-3447.3
15193	9.6474	5.2727	0.	-3474.5
15194	9.7393	5.2727	5.e-002	-5.3183
15195	9.7393	5.	0.	-3445.3
15196	9.6474	5.0909	0.	-3472.4
15197	9.7393	5.0909	5.e-002	-5.3247
15198	9.7393	4.8182	0.	-3443.5
15199	9.6474	4.9091	0.	-3470.4
15200	9.7393	4.9091	5.e-002	-5.3295
15201	9.7393	4.6364	0.	-3441.8
15202	9.6474	4.7273	0.	-3468.6
15203	9.7393	4.7273	5.e-002	-5.3336
15204	9.7393	4.4545	0.	-3440.2
15205	9.6474	4.5455	0.	-3466.9
15206	9.7393	4.5455	5.e-002	-5.3372
15207	9.7393	4.2727	0.	-3438.8
15208	9.6474	4.3636	0.	-3465.4
15209	9.7393	4.3636	5.e-002	-5.3403
15210	9.7393	4.0909	0.	-3437.6
15211	9.6474	4.1818	0.	-3464.
15212	9.7393	4.1818	5.e-002	-5.3429
15213	9.7393	3.9091	0.	-3436.5
15214	9.6474	4.	0.	-3462.9
15215	9.7393	4.	5.e-002	-5.3451
15216	9.7393	3.7273	0.	-3435.7
15217	9.6474	3.8182	0.	-3461.9
15218	9.7393	3.8182	5.e-002	-5.3469
15219	9.7393	3.5455	0.	-3435.
15220	9.6474	3.6364	0.	-3461.1
15221	9.7393	3.6364	5.e-002	-5.3483
15222	9.7393	3.3636	0.	-3434.5
15223	9.6474	3.4545	0.	-3460.4
15224	9.7393	3.4545	5.e-002	-5.3493
15225	9.7393	3.1818	0.	-3434.2
15226	9.6474	3.2727	0.	-3460.
15227	9.7393	3.2727	5.e-002	-5.35
15228	9.7393	3.	0.	-3434.1
15229	9.6474	3.0909	0.	-3459.8
15230	9.7393	3.0909	5.e-002	-5.3504
15231	9.7393	2.8182	0.	-3434.2
15232	9.6474	2.9091	0.	-3459.8
15233	9.7393	2.9091	5.e-002	-5.3504
15234	9.7393	2.6364	0.	-3434.5
15235	9.6474	2.7273	0.	-3460.
15236	9.7393	2.7273	5.e-002	-5.35
15237	9.7393	2.4545	0.	-3435.
15238	9.6474	2.5455	0.	-3460.4
15239	9.7393	2.5455	5.e-002	-5.3493
15240	9.7393	2.2727	0.	-3435.7
15241	9.6474	2.3636	0.	-3461.1
15242	9.7393	2.3636	5.e-002	-5.3483
15243	9.7393	2.0909	0.	-3436.5
15244	9.6474	2.1818	0.	-3461.9
15245	9.7393	2.1818	5.e-002	-5.3469
15246	9.7393	1.9091	0.	-3437.6
15247	9.6474	2.	0.	-3462.9
15248	9.7393	2.	5.e-002	-5.3451
15249	9.7393	1.7273	0.	-3438.8
15250	9.6474	1.8182	0.	-3464.
15251	9.7393	1.8182	5.e-002	-5.3429
15252	9.7393	1.5455	0.	-3440.2
15253	9.6474	1.6364	0.	-3465.4
15254	9.7393	1.6364	5.e-002	-5.3403
15255	9.7393	1.3636	0.	-3441.8
15256	9.6474	1.4545	0.	-3466.9
15257	9.7393	1.4545	5.e-002	-5.3372
15258	9.7393	1.1818	0.	-3443.5
15259	9.6474	1.2727	0.	-3468.6
15260	9.7393	1.2727	5.e-002	-5.3336
15261	9.7393	1.	0.	-3445.3
15262	9.6474	1.0909	0.	-3470.4
15263	9.7393	1.0909	5.e-002	-5.3295
15264	9.7393	0.81818	0.	-3447.3
15265	9.6474	0.90909	0.	-3472.4
15266	9.7393	0.90909	5.e-002	-5.3247
15267	9.7393	0.63636	0.	-3449.4
15268	9.6474	0.72727	0.	-3474.5
15269	9.7393	0.72727	5.e-002	-5.3183
15270	9.7393	0.45455	0.	-3451.6
15271	9.6474	0.54545	0.	-3476.7
15272	9.7393	0.54545	5.e-002	-5.2939
15273	9.7393	0.27273	0.	-3454.5
15274	9.6474	0.36364	0.	-3479.1
15275	9.7393	0.36364	5.e-002	-5.0016
15276	9.6474	0.18182	0.	-3482.5
15277	9.7393	0.18182	5.e-002	-0.65664
15278	9.7393	9.0909e-002	0.	-3453.8
15279	9.5556	5.7273	0.	-3507.1
15280	9.4637	5.8182	0.	-3535.3
15281	9.5556	5.8182	5.e-002	-0.73976
15282	9.5556	5.9091	0.	-3506.6
15283	9.5556	5.5455	0.	-3504.1
15284	9.4637	5.6364	0.	-3531.7
15285	9.5556	5.6364	5.e-002	-5.035
15286	9.5556	5.3636	0.	-3501.8
15287	9.4637	5.4545	0.	-3529.3
15288	9.5556	5.4545	5.e-002	-5.3247
15289	9.5556	5.1818	0.	-3499.6
15290	9.4637	5.2727	0.	-3526.9
15291	9.5556	5.2727	5.e-002	-5.3494
15292	9.5556	5.	0.	-3497.5
15293	9.4637	5.0909	0.	-3524.7
15294	9.5556	5.0909	5.e-002	-5.3561
15295	9.5556	4.8182	0.	-3495.5
15296	9.4637	4.9091	0.	-3522.6
15297	9.5556	4.9091	5.e-002	-5.3611
15298	9.5556	4.6364	0.	-3493.7
15299	9.4637	4.7273	0.	-3520.7
15300	9.5556	4.7273	5.e-002	-5.3654
15301	9.5556	4.4545	0.	-3492.1
15302	9.4637	4.5455	0.	-3518.9
15303	9.5556	4.5455	5.e-002	-5.3692
15304	9.5556	4.2727	0.	-3490.6
15305	9.4637	4.3636	0.	-3517.3
15306	9.5556	4.3636	5.e-002	-5.3724
15307	9.5556	4.0909	0.	-3489.3
15308	9.4637	4.1818	0.	-3515.8
15309	9.5556	4.1818	5.e-002	-5.3752
15310	9.5556	3.9091	0.	-3488.2
15311	9.4637	4.	0.	-3514.6
15312	9.5556	4.	5.e-002	-5.3774
15313	9.5556	3.7273	0.	-3487.2
15314	9.4637	3.8182	0.	-3513.5
15315	9.5556	3.8182	5.e-002	-5.3793
15316	9.5556	3.5455	0.	-3486.5
15317	9.4637	3.6364	0.	-3512.7
15318	9.5556	3.6364	5.e-002	-5.3807
15319	9.5556	3.3636	0.	-3486.
15320	9.4637	3.4545	0.	-3512.
15321	9.5556	3.4545	5.e-002	-5.3818
15322	9.5556	3.1818	0.	-3485.7
15323	9.4637	3.2727	0.	-3511.6
15324	9.5556	3.2727	5.e-002	-5.3825
15325	9.5556	3.	0.	-3485.5
15326	9.4637	3.0909	0.	-3511.4
15327	9.5556	3.0909	5.e-002	-5.3828
15328	9.5556	2.8182	0.	-3485.7
15329	9.4637	2.9091	0.	-3511.4
15330	9.5556	2.9091	5.e-002	-5.3828
15331	9.5556	2.6364	0.	-3486.
15332	9.4637	2.7273	0.	-3511.6
15333	9.5556	2.7273	5.e-002	-5.3825
15334	9.5556	2.4545	0.	-3486.5
15335	9.4637	2.5455	0.	-3512.
15336	9.5556	2.5455	5.e-002	-5.3818
15337	9.5556	2.2727	0.	-3487.2
15338	9.4637	2.3636	0.	-3512.7
15339	9.5556	2.3636	5.e-002	-5.3807
15340	9.5556	2.0909	0.	-3488.2
15341	9.4637	2.1818	0.	-3513.5
15342	9.5556	2.1818	5.e-002	-5.3793
15343	9.5556	1.9091	0.	-3489.3
15344	9.4637	2.	0.	-3514.6
15345	9.5556	2.	5.e-002	-5.3775
15346	9.5556	1.7273	0.	-3490.6
15347	9.4637	1.8182	0.	-3515.8
15348	9.5556	1.8182	5.e-002	-5.3752
15349	9.5556	1.5455	0.	-3492.1
15350	9.4637	1.6364	0.	-3517.3
15351	9.5556	1.6364	5.e-002	-5.3725
15352	9.5556	1.3636	0.	-3493.7
15353	9.4637	1.4545	0.	-3518.9
15354	9.5556	1.4545	5.e-002	-5.3692
15355	9.5556	1.1818	0.	-3495.5
15356	9.4637	1.2727	0.	-3520.7
15357	9.5556	1.2727	5.e-002	-5.3654
15358	9.5556	1.	0.	-3497.5
15359	9.4637	1.0909	0.	-3522.6
15360	9.5556	1.0909	5.e-002	-5.3611
15361	9.5556	0.81818	0.	-3499.6
15362	9.4637	0.90909	0.	-3524.7
15363	9.5556	0.90909	5.e-002	-5.3561
15364	9.5556	0.63636	0.	-3501.8
15365	9.4637	0.72727	0.	-3526.9
15366	9.5556	0.72727	5.e-002	-5.3494
15367	9.5556	0.45455	0.	-3504.1
15368	9.4637	0.54545	0.	-3529.3
15369	9.5556	0.54545	5.e-002	-5.3247
15370	9.5556	0.27273	0.	-3507.1
15371	9.4637	0.36364	0.	-3531.7
15372	9.5556	0.36364	5.e-002	-5.0351
15373	9.4637	0.18182	0.	-3535.3
15374	9.5556	0.18182	5.e-002	-0.7398
15375	9.5556	9.0909e-002	0.	-3506.6
15376	9.3718	5.7273	0.	-3559.9
15377	9.2799	5.8182	0.	-3588.3
15378	9.3718	5.8182	5.e-002	-0.83021
15379	9.3718	5.9091	0.	-3559.7
15380	9.3718	5.5455	0.	-3556.9
15381	9.2799	5.6364	0.	-3584.7
15382	9.3718	5.6364	5.e-002	-5.07
15383	9.3718	5.3636	0.	-3554.4
15384	9.2799	5.4545	0.	-3582.
15385	9.3718	5.4545	5.e-002	-5.3568
15386	9.3718	5.1818	0.	-3552.1
15387	9.2799	5.2727	0.	-3579.6
15388	9.3718	5.2727	5.e-002	-5.3816
15389	9.3718	5.	0.	-3549.8
15390	9.2799	5.0909	0.	-3577.2
15391	9.3718	5.0909	5.e-002	-5.3887
15392	9.3718	4.8182	0.	-3547.8
15393	9.2799	4.9091	0.	-3575.
15394	9.3718	4.9091	5.e-002	-5.394
15395	9.3718	4.6364	0.	-3545.9
15396	9.2799	4.7273	0.	-3573.
15397	9.3718	4.7273	5.e-002	-5.3985
15398	9.3718	4.4545	0.	-3544.1
15399	9.2799	4.5455	0.	-3571.1
15400	9.3718	4.5455	5.e-002	-5.4024
15401	9.3718	4.2727	0.	-3542.5
15402	9.2799	4.3636	0.	-3569.3
15403	9.3718	4.3636	5.e-002	-5.4058
15404	9.3718	4.0909	0.	-3541.1
15405	9.2799	4.1818	0.	-3567.8
15406	9.3718	4.1818	5.e-002	-5.4086
15407	9.3718	3.9091	0.	-3539.9
15408	9.2799	4.	0.	-3566.5
15409	9.3718	4.	5.e-002	-5.4109
15410	9.3718	3.7273	0.	-3538.9
15411	9.2799	3.8182	0.	-3565.3
15412	9.3718	3.8182	5.e-002	-5.4128
15413	9.3718	3.5455	0.	-3538.2
15414	9.2799	3.6364	0.	-3564.4
15415	9.3718	3.6364	5.e-002	-5.4143
15416	9.3718	3.3636	0.	-3537.6
15417	9.2799	3.4545	0.	-3563.7
15418	9.3718	3.4545	5.e-002	-5.4154
15419	9.3718	3.1818	0.	-3537.3
15420	9.2799	3.2727	0.	-3563.3
15421	9.3718	3.2727	5.e-002	-5.4161
15422	9.3718	3.	0.	-3537.2
15423	9.2799	3.0909	0.	-3563.
15424	9.3718	3.0909	5.e-002	-5.4164
15425	9.3718	2.8182	0.	-3537.3
15426	9.2799	2.9091	0.	-3563.
15427	9.3718	2.9091	5.e-002	-5.4164
15428	9.3718	2.6364	0.	-3537.6
15429	9.2799	2.7273	0.	-3563.3
15430	9.3718	2.7273	5.e-002	-5.4161
15431	9.3718	2.4545	0.	-3538.2
15432	9.2799	2.5455	0.	-3563.7
15433	9.3718	2.5455	5.e-002	-5.4154
15434	9.3718	2.2727	0.	-3538.9
15435	9.2799	2.3636	0.	-3564.4
15436	9.3718	2.3636	5.e-002	-5.4143
15437	9.3718	2.0909	0.	-3539.9
15438	9.2799	2.1818	0.	-3565.3
15439	9.3718	2.1818	5.e-002	-5.4128
15440	9.3718	1.9091	0.	-3541.1
15441	9.2799	2.	0.	-3566.5
15442	9.3718	2.	5.e-002	-5.4109
15443	9.3718	1.7273	0.	-3542.5
15444	9.2799	1.8182	0.	-3567.8
15445	9.3718	1.8182	5.e-002	-5.4086
15446	9.3718	1.5455	0.	-3544.1
15447	9.2799	1.6364	0.	-3569.3
15448	9.3718	1.6364	5.e-002	-5.4058
15449	9.3718	1.3636	0.	-3545.9
15450	9.2799	1.4545	0.	-3571.1
15451	9.3718	1.4545	5.e-002	-5.4024
15452	9.3718	1.1818	0.	-3547.8
15453	9.2799	1.2727	0.	-3573.
15454	9.3718	1.2727	5.e-002	-5.3985
15455	9.3718	1.	0.	-3549.8
15456	9.2799	1.0909	0.	-3575.
15457	9.3718	1.0909	5.e-002	-5.394
15458	9.3718	0.81818	0.	-3552.1
15459	9.2799	0.90909	0.	-3577.2
15460	9.3718	0.90909	5.e-002	-5.3887
15461	9.3718	0.63636	0.	-3554.4
15462	9.2799	0.72727	0.	-3579.6
15463	9.3718	0.72727	5.e-002	-5.3816
15464	9.3718	0.45455	0.	-3556.9
15465	9.2799	0.54545	0.	-3582.
15466	9.3718	0.54545	5.e-002	-5.3568
15467	9.3718	0.27273	0.	-3559.9
15468	9.2799	0.36364	0.	-3584.7
15469	9.3718	0.36364	5.e-002	-5.07
15470	9.2799	0.18182	0.	-3588.3
15471	9.3718	0.18182	5.e-002	-0.83022
15472	9.3718	9.0909e-002	0.	-3559.7
15473	9.188	5.7273	0.	-3613.
15474	9.0962	5.8182	0.	-3641.6
15475	9.188	5.8182	5.e-002	-0.92847
15476	9.188	5.9091	0.	-3613.
15477	9.188	5.5455	0.	-3609.8
15478	9.0962	5.6364	0.	-3637.8
15479	9.188	5.6364	5.e-002	-5.1067
15480	9.188	5.3636	0.	-3607.2
15481	9.0962	5.4545	0.	-3635.1
15482	9.188	5.4545	5.e-002	-5.3901
15483	9.188	5.1818	0.	-3604.8
15484	9.0962	5.2727	0.	-3632.5
15485	9.188	5.2727	5.e-002	-5.4151
15486	9.188	5.	0.	-3602.4
15487	9.0962	5.0909	0.	-3630.
15488	9.188	5.0909	5.e-002	-5.4225
15489	9.188	4.8182	0.	-3600.2
15490	9.0962	4.9091	0.	-3627.6
15491	9.188	4.9091	5.e-002	-5.4281
15492	9.188	4.6364	0.	-3598.2
15493	9.0962	4.7273	0.	-3625.4
15494	9.188	4.7273	5.e-002	-5.4328
15495	9.188	4.4545	0.	-3596.3
15496	9.0962	4.5455	0.	-3623.4
15497	9.188	4.5455	5.e-002	-5.4369
15498	9.188	4.2727	0.	-3594.6
15499	9.0962	4.3636	0.	-3621.6
15500	9.188	4.3636	5.e-002	-5.4404
15501	9.188	4.0909	0.	-3593.1
15502	9.0962	4.1818	0.	-3620.
15503	9.188	4.1818	5.e-002	-5.4433
15504	9.188	3.9091	0.	-3591.9
15505	9.0962	4.	0.	-3618.5
15506	9.188	4.	5.e-002	-5.4457
15507	9.188	3.7273	0.	-3590.8
15508	9.0962	3.8182	0.	-3617.3
15509	9.188	3.8182	5.e-002	-5.4476
15510	9.188	3.5455	0.	-3590.
15511	9.0962	3.6364	0.	-3616.3
15512	9.188	3.6364	5.e-002	-5.4491
15513	9.188	3.3636	0.	-3589.4
15514	9.0962	3.4545	0.	-3615.6
15515	9.188	3.4545	5.e-002	-5.4502
15516	9.188	3.1818	0.	-3589.
15517	9.0962	3.2727	0.	-3615.1
15518	9.188	3.2727	5.e-002	-5.4509
15519	9.188	3.	0.	-3588.9
15520	9.0962	3.0909	0.	-3614.9
15521	9.188	3.0909	5.e-002	-5.4512
15522	9.188	2.8182	0.	-3589.
15523	9.0962	2.9091	0.	-3614.9
15524	9.188	2.9091	5.e-002	-5.4512
15525	9.188	2.6364	0.	-3589.4
15526	9.0962	2.7273	0.	-3615.1
15527	9.188	2.7273	5.e-002	-5.4509
15528	9.188	2.4545	0.	-3590.
15529	9.0962	2.5455	0.	-3615.6
15530	9.188	2.5455	5.e-002	-5.4502
15531	9.188	2.2727	0.	-3590.8
15532	9.0962	2.3636	0.	-3616.3
15533	9.188	2.3636	5.e-002	-5.4491
15534	9.188	2.0909	0.	-3591.9
15535	9.0962	2.1818	0.	-3617.3
15536	9.188	2.1818	5.e-002	-5.4476
15537	9.188	1.9091	0.	-3593.1
15538	9.0962	2.	0.	-3618.5
15539	9.188	2.	5.e-002	-5.4457
15540	9.188	1.7273	0.	-3594.6
15541	9.0962	1.8182	0.	-3620.
15542	9.188	1.8182	5.e-002	-5.4433
15543	9.188	1.5455	0.	-3596.3
15544	9.0962	1.6364	0.	-3621.6
15545	9.188	1.6364	5.e-002	-5.4404
15546	9.188	1.3636	0.	-3598.2
15547	9.0962	1.4545	0.	-3623.4
15548	9.188	1.4545	5.e-002	-5.4369
15549	9.188	1.1818	0.	-3600.2
15550	9.0962	1.2727	0.	-3625.4
15551	9.188	1.2727	5.e-002	-5.4328
15552	9.188	1.	0.	-3602.4
15553	9.0962	1.0909	0.	-3627.6
15554	9.188	1.0909	5.e-002	-5.4281
15555	9.188	0.81818	0.	-3604.8
15556	9.0962	0.90909	0.	-3630.
15557	9.188	0.90909	5.e-002	-5.4225
15558	9.188	0.63636	0.	-3607.2
15559	9.0962	0.72727	0.	-3632.5
15560	9.188	0.72727	5.e-002	-5.4152
15561	9.188	0.45455	0.	-3609.8
15562	9.0962	0.54545	0.	-3635.1
15563	9.188	0.54545	5.e-002	-5.3902
15564	9.188	0.27273	0.	-3613.
15565	9.0962	0.36364	0.	-3637.8
15566	9.188	0.36364	5.e-002	-5.1067
15567	9.0962	0.18182	0.	-3641.6
15568	9.188	0.18182	5.e-002	-0.9285
15569	9.188	9.0909e-002	0.	-3613.
15570	9.0043	5.7273	0.	-3666.4
15571	8.9124	5.8182	0.	-3695.2
15572	9.0043	5.8182	5.e-002	-1.0353
15573	9.0043	5.9091	0.	-3666.6
15574	9.0043	5.5455	0.	-3663.1
15575	8.9124	5.6364	0.	-3691.3
15576	9.0043	5.6364	5.e-002	-5.1451
15577	9.0043	5.3636	0.	-3660.3
15578	8.9124	5.4545	0.	-3688.3
15579	9.0043	5.4545	5.e-002	-5.425
15580	9.0043	5.1818	0.	-3657.7
15581	8.9124	5.2727	0.	-3685.6
15582	9.0043	5.2727	5.e-002	-5.4501
15583	9.0043	5.	0.	-3655.2
15584	8.9124	5.0909	0.	-3682.9
15585	9.0043	5.0909	5.e-002	-5.4578
15586	9.0043	4.8182	0.	-3652.9
15587	8.9124	4.9091	0.	-3680.4
15588	9.0043	4.9091	5.e-002	-5.4636
15589	9.0043	4.6364	0.	-3650.7
15590	8.9124	4.7273	0.	-3678.1
15591	9.0043	4.7273	5.e-002	-5.4686
15592	9.0043	4.4545	0.	-3648.7
15593	8.9124	4.5455	0.	-3676.
15594	9.0043	4.5455	5.e-002	-5.4728
15595	9.0043	4.2727	0.	-3646.9
15596	8.9124	4.3636	0.	-3674.
15597	9.0043	4.3636	5.e-002	-5.4764
15598	9.0043	4.0909	0.	-3645.3
15599	8.9124	4.1818	0.	-3672.3
15600	9.0043	4.1818	5.e-002	-5.4794
15601	9.0043	3.9091	0.	-3644.
15602	8.9124	4.	0.	-3670.7
15603	9.0043	4.	5.e-002	-5.4818
15604	9.0043	3.7273	0.	-3642.8
15605	8.9124	3.8182	0.	-3669.4
15606	9.0043	3.8182	5.e-002	-5.4838
15607	9.0043	3.5455	0.	-3642.
15608	8.9124	3.6364	0.	-3668.4
15609	9.0043	3.6364	5.e-002	-5.4852
15610	9.0043	3.3636	0.	-3641.3
15611	8.9124	3.4545	0.	-3667.6
15612	9.0043	3.4545	5.e-002	-5.4863
15613	9.0043	3.1818	0.	-3640.9
15614	8.9124	3.2727	0.	-3667.1
15615	9.0043	3.2727	5.e-002	-5.487
15616	9.0043	3.	0.	-3640.8
15617	8.9124	3.0909	0.	-3666.8
15618	9.0043	3.0909	5.e-002	-5.4874
15619	9.0043	2.8182	0.	-3640.9
15620	8.9124	2.9091	0.	-3666.8
15621	9.0043	2.9091	5.e-002	-5.4874
15622	9.0043	2.6364	0.	-3641.3
15623	8.9124	2.7273	0.	-3667.1
15624	9.0043	2.7273	5.e-002	-5.487
15625	9.0043	2.4545	0.	-3642.
15626	8.9124	2.5455	0.	-3667.6
15627	9.0043	2.5455	5.e-002	-5.4863
15628	9.0043	2.2727	0.	-3642.8
15629	8.9124	2.3636	0.	-3668.4
15630	9.0043	2.3636	5.e-002	-5.4852
15631	9.0043	2.0909	0.	-3644.
15632	8.9124	2.1818	0.	-3669.4
15633	9.0043	2.1818	5.e-002	-5.4838
15634	9.0043	1.9091	0.	-3645.3
15635	8.9124	2.	0.	-3670.7
15636	9.0043	2.	5.e-002	-5.4818
15637	9.0043	1.7273	0.	-3646.9
15638	8.9124	1.8182	0.	-3672.3
15639	9.0043	1.8182	5.e-002	-5.4794
15640	9.0043	1.5455	0.	-3648.7
15641	8.9124	1.6364	0.	-3674.
15642	9.0043	1.6364	5.e-002	-5.4764
15643	9.0043	1.3636	0.	-3650.7
15644	8.9124	1.4545	0.	-3676.
15645	9.0043	1.4545	5.e-002	-5.4728
15646	9.0043	1.1818	0.	-3652.9
15647	8.9124	1.2727	0.	-3678.1
15648	9.0043	1.2727	5.e-002	-5.4686
15649	9.0043	1.	0.	-3655.2
15650	8.9124	1.0909	0.	-3680.4
15651	9.0043	1.0909	5.e-002	-5.4636
15652	9.0043	0.81818	0.	-3657.7
15653	8.9124	0.90909	0.	-3682.9
15654	9.0043	0.90909	5.e-002	-5.4578
15655	9.0043	0.63636	0.	-3660.3
15656	8.9124	0.72727	0.	-3685.6
15657	9.0043	0.72727	5.e-002	-5.4501
15658	9.0043	0.45455	0.	-3663.1
15659	8.9124	0.54545	0.	-3688.3
15660	9.0043	0.54545	5.e-002	-5.425
15661	9.0043	0.27273	0.	-3666.4
15662	8.9124	0.36364	0.	-3691.3
15663	9.0043	0.36364	5.e-002	-5.1451
15664	8.9124	0.18182	0.	-3695.2
15665	9.0043	0.18182	5.e-002	-1.0353
15666	9.0043	9.0909e-002	0.	-3666.6
15667	8.8205	5.7273	0.	-3720.
15668	8.7286	5.8182	0.	-3749.
15669	8.8205	5.8182	5.e-002	-1.1512
15670	8.8205	5.9091	0.	-3720.5
15671	8.8205	5.5455	0.	-3716.5
15672	8.7286	5.6364	0.	-3745.
15673	8.8205	5.6364	5.e-002	-5.1856
15674	8.8205	5.3636	0.	-3713.6
15675	8.7286	5.4545	0.	-3741.9
15676	8.8205	5.4545	5.e-002	-5.4613
15677	8.8205	5.1818	0.	-3710.8
15678	8.7286	5.2727	0.	-3738.9
15679	8.8205	5.2727	5.e-002	-5.4866
15680	8.8205	5.	0.	-3708.2
15681	8.7286	5.0909	0.	-3736.1
15682	8.8205	5.0909	5.e-002	-5.4947
15683	8.8205	4.8182	0.	-3705.7
15684	8.7286	4.9091	0.	-3733.5
15685	8.8205	4.9091	5.e-002	-5.5007
15686	8.8205	4.6364	0.	-3703.4
15687	8.7286	4.7273	0.	-3731.
15688	8.8205	4.7273	5.e-002	-5.5059
15689	8.8205	4.4545	0.	-3701.3
15690	8.7286	4.5455	0.	-3728.7
15691	8.8205	4.5455	5.e-002	-5.5103
15692	8.8205	4.2727	0.	-3699.4
15693	8.7286	4.3636	0.	-3726.6
15694	8.8205	4.3636	5.e-002	-5.5139
15695	8.8205	4.0909	0.	-3697.7
15696	8.7286	4.1818	0.	-3724.7
15697	8.8205	4.1818	5.e-002	-5.517
15698	8.8205	3.9091	0.	-3696.2
15699	8.7286	4.	0.	-3723.1
15700	8.8205	4.	5.e-002	-5.5194
15701	8.8205	3.7273	0.	-3695.
15702	8.7286	3.8182	0.	-3721.7
15703	8.8205	3.8182	5.e-002	-5.5213
15704	8.8205	3.5455	0.	-3694.1
15705	8.7286	3.6364	0.	-3720.6
15706	8.8205	3.6364	5.e-002	-5.5228
15707	8.8205	3.3636	0.	-3693.4
15708	8.7286	3.4545	0.	-3719.8
15709	8.8205	3.4545	5.e-002	-5.5239
15710	8.8205	3.1818	0.	-3693.
15711	8.7286	3.2727	0.	-3719.2
15712	8.8205	3.2727	5.e-002	-5.5246
15713	8.8205	3.	0.	-3692.8
15714	8.7286	3.0909	0.	-3718.9
15715	8.8205	3.0909	5.e-002	-5.5249
15716	8.8205	2.8182	0.	-3693.
15717	8.7286	2.9091	0.	-3718.9
15718	8.8205	2.9091	5.e-002	-5.5249
15719	8.8205	2.6364	0.	-3693.4
15720	8.7286	2.7273	0.	-3719.2
15721	8.8205	2.7273	5.e-002	-5.5246
15722	8.8205	2.4545	0.	-3694.1
15723	8.7286	2.5455	0.	-3719.8
15724	8.8205	2.5455	5.e-002	-5.5239
15725	8.8205	2.2727	0.	-3695.
15726	8.7286	2.3636	0.	-3720.6
15727	8.8205	2.3636	5.e-002	-5.5229
15728	8.8205	2.0909	0.	-3696.2
15729	8.7286	2.1818	0.	-3721.7
15730	8.8205	2.1818	5.e-002	-5.5214
15731	8.8205	1.9091	0.	-3697.7
15732	8.7286	2.	0.	-3723.1
15733	8.8205	2.	5.e-002	-5.5194
15734	8.8205	1.7273	0.	-3699.4
15735	8.7286	1.8182	0.	-3724.7
15736	8.8205	1.8182	5.e-002	-5.517
15737	8.8205	1.5455	0.	-3701.3
15738	8.7286	1.6364	0.	-3726.6
15739	8.8205	1.6364	5.e-002	-5.5139
15740	8.8205	1.3636	0.	-3703.4
15741	8.7286	1.4545	0.	-3728.7
15742	8.8205	1.4545	5.e-002	-5.5103
15743	8.8205	1.1818	0.	-3705.7
15744	8.7286	1.2727	0.	-3731.
15745	8.8205	1.2727	5.e-002	-5.5059
15746	8.8205	1.	0.	-3708.2
15747	8.7286	1.0909	0.	-3733.5
15748	8.8205	1.0909	5.e-002	-5.5007
15749	8.8205	0.81818	0.	-3710.8
15750	8.7286	0.90909	0.	-3736.1
15751	8.8205	0.90909	5.e-002	-5.4947
15752	8.8205	0.63636	0.	-3713.6
15753	8.7286	0.72727	0.	-3738.9
15754	8.8205	0.72727	5.e-002	-5.4866
15755	8.8205	0.45455	0.	-3716.5
15756	8.7286	0.54545	0.	-3741.9
15757	8.8205	0.54545	5.e-002	-5.4614
15758	8.8205	0.27273	0.	-3720.
15759	8.7286	0.36364	0.	-3745.
15760	8.8205	0.36364	5.e-002	-5.1857
15761	8.7286	0.18182	0.	-3749.
15762	8.8205	0.18182	5.e-002	-1.1512
15763	8.8205	9.0909e-002	0.	-3720.5
15764	8.6368	5.7273	0.	-3773.9
15765	8.5449	5.8182	0.	-3803.1
15766	8.6368	5.8182	5.e-002	-1.277
15767	8.6368	5.9091	0.	-3774.7
15768	8.6368	5.5455	0.	-3770.3
15769	8.5449	5.6364	0.	-3798.9
15770	8.6368	5.6364	5.e-002	-5.2284
15771	8.6368	5.3636	0.	-3767.2
15772	8.5449	5.4545	0.	-3795.7
15773	8.6368	5.4545	5.e-002	-5.4995
15774	8.6368	5.1818	0.	-3764.2
15775	8.5449	5.2727	0.	-3792.5
15776	8.6368	5.2727	5.e-002	-5.5249
15777	8.6368	5.	0.	-3761.4
15778	8.5449	5.0909	0.	-3789.5
15779	8.6368	5.0909	5.e-002	-5.5332
15780	8.6368	4.8182	0.	-3758.7
15781	8.5449	4.9091	0.	-3786.7
15782	8.6368	4.9091	5.e-002	-5.5396
15783	8.6368	4.6364	0.	-3756.3
15784	8.5449	4.7273	0.	-3784.1
15785	8.6368	4.7273	5.e-002	-5.5449
15786	8.6368	4.4545	0.	-3754.
15787	8.5449	4.5455	0.	-3781.6
15788	8.6368	4.5455	5.e-002	-5.5494
15789	8.6368	4.2727	0.	-3752.
15790	8.5449	4.3636	0.	-3779.4
15791	8.6368	4.3636	5.e-002	-5.5531
15792	8.6368	4.0909	0.	-3750.2
15793	8.5449	4.1818	0.	-3777.4
15794	8.6368	4.1818	5.e-002	-5.5562
15795	8.6368	3.9091	0.	-3748.6
15796	8.5449	4.	0.	-3775.6
15797	8.6368	4.	5.e-002	-5.5587
15798	8.6368	3.7273	0.	-3747.3
15799	8.5449	3.8182	0.	-3774.2
15800	8.6368	3.8182	5.e-002	-5.5606
15801	8.6368	3.5455	0.	-3746.3
15802	8.5449	3.6364	0.	-3773.
15803	8.6368	3.6364	5.e-002	-5.5621
15804	8.6368	3.3636	0.	-3745.6
15805	8.5449	3.4545	0.	-3772.1
15806	8.6368	3.4545	5.e-002	-5.5631
15807	8.6368	3.1818	0.	-3745.1
15808	8.5449	3.2727	0.	-3771.4
15809	8.6368	3.2727	5.e-002	-5.5637
15810	8.6368	3.	0.	-3745.
15811	8.5449	3.0909	0.	-3771.1
15812	8.6368	3.0909	5.e-002	-5.5641
15813	8.6368	2.8182	0.	-3745.1
15814	8.5449	2.9091	0.	-3771.1
15815	8.6368	2.9091	5.e-002	-5.5641
15816	8.6368	2.6364	0.	-3745.6
15817	8.5449	2.7273	0.	-3771.4
15818	8.6368	2.7273	5.e-002	-5.5638
15819	8.6368	2.4545	0.	-3746.3
15820	8.5449	2.5455	0.	-3772.1
15821	8.6368	2.5455	5.e-002	-5.5631
15822	8.6368	2.2727	0.	-3747.3
15823	8.5449	2.3636	0.	-3773.
15824	8.6368	2.3636	5.e-002	-5.5621
15825	8.6368	2.0909	0.	-3748.6
15826	8.5449	2.1818	0.	-3774.2
15827	8.6368	2.1818	5.e-002	-5.5606
15828	8.6368	1.9091	0.	-3750.2
15829	8.5449	2.	0.	-3775.6
15830	8.6368	2.	5.e-002	-5.5587
15831	8.6368	1.7273	0.	-3752.
15832	8.5449	1.8182	0.	-3777.4
15833	8.6368	1.8182	5.e-002	-5.5562
15834	8.6368	1.5455	0.	-3754.
15835	8.5449	1.6364	0.	-3779.4
15836	8.6368	1.6364	5.e-002	-5.5532
15837	8.6368	1.3636	0.	-3756.3
15838	8.5449	1.4545	0.	-3781.6
15839	8.6368	1.4545	5.e-002	-5.5494
15840	8.6368	1.1818	0.	-3758.7
15841	8.5449	1.2727	0.	-3784.1
15842	8.6368	1.2727	5.e-002	-5.5449
15843	8.6368	1.	0.	-3761.4
15844	8.5449	1.0909	0.	-3786.7
15845	8.6368	1.0909	5.e-002	-5.5396
15846	8.6368	0.81818	0.	-3764.2
15847	8.5449	0.90909	0.	-3789.5
15848	8.6368	0.90909	5.e-002	-5.5333
15849	8.6368	0.63636	0.	-3767.2
15850	8.5449	0.72727	0.	-3792.5
15851	8.6368	0.72727	5.e-002	-5.5249
15852	8.6368	0.45455	0.	-3770.3
15853	8.5449	0.54545	0.	-3795.7
15854	8.6368	0.54545	5.e-002	-5.4995
15855	8.6368	0.27273	0.	-3773.9
15856	8.5449	0.36364	0.	-3798.9
15857	8.6368	0.36364	5.e-002	-5.2284
15858	8.5449	0.18182	0.	-3803.1
15859	8.6368	0.18182	5.e-002	-1.277
15860	8.6368	9.0909e-002	0.	-3774.7
15861	8.453	5.7273	0.	-3828.1
15862	8.3611	5.8182	0.	-3857.5
15863	8.453	5.8182	5.e-002	-1.4135
15864	8.453	5.9091	0.	-3829.2
15865	8.453	5.5455	0.	-3824.3
15866	8.3611	5.6364	0.	-3853.2
15867	8.453	5.6364	5.e-002	-5.2737
15868	8.453	5.3636	0.	-3821.
15869	8.3611	5.4545	0.	-3849.7
15870	8.453	5.4545	5.e-002	-5.5396
15871	8.453	5.1818	0.	-3817.8
15872	8.3611	5.2727	0.	-3846.4
15873	8.453	5.2727	5.e-002	-5.5651
15874	8.453	5.	0.	-3814.8
15875	8.3611	5.0909	0.	-3843.2
15876	8.453	5.0909	5.e-002	-5.5737
15877	8.453	4.8182	0.	-3812.
15878	8.3611	4.9091	0.	-3840.2
15879	8.453	4.9091	5.e-002	-5.5803
15880	8.453	4.6364	0.	-3809.4
15881	8.3611	4.7273	0.	-3837.3
15882	8.453	4.7273	5.e-002	-5.5859
15883	8.453	4.4545	0.	-3806.9
15884	8.3611	4.5455	0.	-3834.7
15885	8.453	4.5455	5.e-002	-5.5905
15886	8.453	4.2727	0.	-3804.8
15887	8.3611	4.3636	0.	-3832.3
15888	8.453	4.3636	5.e-002	-5.5943
15889	8.453	4.0909	0.	-3802.8
15890	8.3611	4.1818	0.	-3830.2
15891	8.453	4.1818	5.e-002	-5.5973
15892	8.453	3.9091	0.	-3801.2
15893	8.3611	4.	0.	-3828.3
15894	8.453	4.	5.e-002	-5.5997
15895	8.453	3.7273	0.	-3799.8
15896	8.3611	3.8182	0.	-3826.7
15897	8.453	3.8182	5.e-002	-5.6016
15898	8.453	3.5455	0.	-3798.7
15899	8.3611	3.6364	0.	-3825.4
15900	8.453	3.6364	5.e-002	-5.603
15901	8.453	3.3636	0.	-3797.9
15902	8.3611	3.4545	0.	-3824.5
15903	8.453	3.4545	5.e-002	-5.604
15904	8.453	3.1818	0.	-3797.4
15905	8.3611	3.2727	0.	-3823.8
15906	8.453	3.2727	5.e-002	-5.6046
15907	8.453	3.	0.	-3797.3
15908	8.3611	3.0909	0.	-3823.5
15909	8.453	3.0909	5.e-002	-5.6049
15910	8.453	2.8182	0.	-3797.4
15911	8.3611	2.9091	0.	-3823.5
15912	8.453	2.9091	5.e-002	-5.6049
15913	8.453	2.6364	0.	-3797.9
15914	8.3611	2.7273	0.	-3823.8
15915	8.453	2.7273	5.e-002	-5.6046
15916	8.453	2.4545	0.	-3798.7
15917	8.3611	2.5455	0.	-3824.5
15918	8.453	2.5455	5.e-002	-5.604
15919	8.453	2.2727	0.	-3799.8
15920	8.3611	2.3636	0.	-3825.4
15921	8.453	2.3636	5.e-002	-5.603
15922	8.453	2.0909	0.	-3801.2
15923	8.3611	2.1818	0.	-3826.7
15924	8.453	2.1818	5.e-002	-5.6016
15925	8.453	1.9091	0.	-3802.8
15926	8.3611	2.	0.	-3828.3
15927	8.453	2.	5.e-002	-5.5997
15928	8.453	1.7273	0.	-3804.8
15929	8.3611	1.8182	0.	-3830.2
15930	8.453	1.8182	5.e-002	-5.5973
15931	8.453	1.5455	0.	-3806.9
15932	8.3611	1.6364	0.	-3832.3
15933	8.453	1.6364	5.e-002	-5.5943
15934	8.453	1.3636	0.	-3809.4
15935	8.3611	1.4545	0.	-3834.7
15936	8.453	1.4545	5.e-002	-5.5905
15937	8.453	1.1818	0.	-3812.
15938	8.3611	1.2727	0.	-3837.3
15939	8.453	1.2727	5.e-002	-5.5859
15940	8.453	1.	0.	-3814.8
15941	8.3611	1.0909	0.	-3840.2
15942	8.453	1.0909	5.e-002	-5.5804
15943	8.453	0.81818	0.	-3817.8
15944	8.3611	0.90909	0.	-3843.2
15945	8.453	0.90909	5.e-002	-5.5738
15946	8.453	0.63636	0.	-3821.
15947	8.3611	0.72727	0.	-3846.4
15948	8.453	0.72727	5.e-002	-5.5651
15949	8.453	0.45455	0.	-3824.3
15950	8.3611	0.54545	0.	-3849.7
15951	8.453	0.54545	5.e-002	-5.5396
15952	8.453	0.27273	0.	-3828.1
15953	8.3611	0.36364	0.	-3853.2
15954	8.453	0.36364	5.e-002	-5.2737
15955	8.3611	0.18182	0.	-3857.5
15956	8.453	0.18182	5.e-002	-1.4136
15957	8.453	9.0909e-002	0.	-3829.2
15958	8.2692	5.7273	0.	-3882.5
15959	8.1774	5.8182	0.	-3912.2
15960	8.2692	5.8182	5.e-002	-1.5616
15961	8.2692	5.9091	0.	-3883.9
15962	8.2692	5.5455	0.	-3878.6
15963	8.1774	5.6364	0.	-3907.7
15964	8.2692	5.6364	5.e-002	-5.3217
15965	8.2692	5.3636	0.	-3875.1
15966	8.1774	5.4545	0.	-3904.
15967	8.2692	5.4545	5.e-002	-5.5819
15968	8.2692	5.1818	0.	-3871.7
15969	8.1774	5.2727	0.	-3900.4
15970	8.2692	5.2727	5.e-002	-5.6074
15971	8.2692	5.	0.	-3868.5
15972	8.1774	5.0909	0.	-3897.
15973	8.2692	5.0909	5.e-002	-5.6164
15974	8.2692	4.8182	0.	-3865.5
15975	8.1774	4.9091	0.	-3893.8
15976	8.2692	4.9091	5.e-002	-5.6232
15977	8.2692	4.6364	0.	-3862.6
15978	8.1774	4.7273	0.	-3890.8
15979	8.2692	4.7273	5.e-002	-5.6289
15980	8.2692	4.4545	0.	-3860.1
15981	8.1774	4.5455	0.	-3888.
15982	8.2692	4.5455	5.e-002	-5.6336
15983	8.2692	4.2727	0.	-3857.7
15984	8.1774	4.3636	0.	-3885.4
15985	8.2692	4.3636	5.e-002	-5.6374
15986	8.2692	4.0909	0.	-3855.6
15987	8.1774	4.1818	0.	-3883.1
15988	8.2692	4.1818	5.e-002	-5.6404
15989	8.2692	3.9091	0.	-3853.9
15990	8.1774	4.	0.	-3881.1
15991	8.2692	4.	5.e-002	-5.6427
15992	8.2692	3.7273	0.	-3852.4
15993	8.1774	3.8182	0.	-3879.4
15994	8.2692	3.8182	5.e-002	-5.6445
15995	8.2692	3.5455	0.	-3851.2
15996	8.1774	3.6364	0.	-3878.1
15997	8.2692	3.6364	5.e-002	-5.6458
15998	8.2692	3.3636	0.	-3850.4
15999	8.1774	3.4545	0.	-3877.
16000	8.2692	3.4545	5.e-002	-5.6467
16001	8.2692	3.1818	0.	-3849.9
16002	8.1774	3.2727	0.	-3876.3
16003	8.2692	3.2727	5.e-002	-5.6474
16004	8.2692	3.	0.	-3849.7
16005	8.1774	3.0909	0.	-3876.
16006	8.2692	3.0909	5.e-002	-5.6476
16007	8.2692	2.8182	0.	-3849.9
16008	8.1774	2.9091	0.	-3876.
16009	8.2692	2.9091	5.e-002	-5.6476
16010	8.2692	2.6364	0.	-3850.4
16011	8.1774	2.7273	0.	-3876.3
16012	8.2692	2.7273	5.e-002	-5.6474
16013	8.2692	2.4545	0.	-3851.2
16014	8.1774	2.5455	0.	-3877.
16015	8.2692	2.5455	5.e-002	-5.6467
16016	8.2692	2.2727	0.	-3852.4
16017	8.1774	2.3636	0.	-3878.1
16018	8.2692	2.3636	5.e-002	-5.6458
16019	8.2692	2.0909	0.	-3853.9
16020	8.1774	2.1818	0.	-3879.4
16021	8.2692	2.1818	5.e-002	-5.6445
16022	8.2692	1.9091	0.	-3855.6
16023	8.1774	2.	0.	-3881.1
16024	8.2692	2.	5.e-002	-5.6427
16025	8.2692	1.7273	0.	-3857.7
16026	8.1774	1.8182	0.	-3883.1
16027	8.2692	1.8182	5.e-002	-5.6404
16028	8.2692	1.5455	0.	-3860.1
16029	8.1774	1.6364	0.	-3885.4
16030	8.2692	1.6364	5.e-002	-5.6374
16031	8.2692	1.3636	0.	-3862.6
16032	8.1774	1.4545	0.	-3888.
16033	8.2692	1.4545	5.e-002	-5.6336
16034	8.2692	1.1818	0.	-3865.5
16035	8.1774	1.2727	0.	-3890.8
16036	8.2692	1.2727	5.e-002	-5.6289
16037	8.2692	1.	0.	-3868.5
16038	8.1774	1.0909	0.	-3893.8
16039	8.2692	1.0909	5.e-002	-5.6232
16040	8.2692	0.81818	0.	-3871.7
16041	8.1774	0.90909	0.	-3897.
16042	8.2692	0.90909	5.e-002	-5.6164
16043	8.2692	0.63636	0.	-3875.1
16044	8.1774	0.72727	0.	-3900.4
16045	8.2692	0.72727	5.e-002	-5.6074
16046	8.2692	0.45455	0.	-3878.6
16047	8.1774	0.54545	0.	-3904.
16048	8.2692	0.54545	5.e-002	-5.5819
16049	8.2692	0.27273	0.	-3882.5
16050	8.1774	0.36364	0.	-3907.7
16051	8.2692	0.36364	5.e-002	-5.3217
16052	8.1774	0.18182	0.	-3912.2
16053	8.2692	0.18182	5.e-002	-1.5616
16054	8.2692	9.0909e-002	0.	-3883.9
16055	8.0855	5.7273	0.	-3937.3
16056	7.9936	5.8182	0.	-3967.2
16057	8.0855	5.8182	5.e-002	-1.7222
16058	8.0855	5.9091	0.	-3939.1
16059	8.0855	5.5455	0.	-3933.1
16060	7.9936	5.6364	0.	-3962.5
16061	8.0855	5.6364	5.e-002	-5.3728
16062	8.0855	5.3636	0.	-3929.4
16063	7.9936	5.4545	0.	-3958.6
16064	8.0855	5.4545	5.e-002	-5.6266
16065	8.0855	5.1818	0.	-3925.8
16066	7.9936	5.2727	0.	-3954.8
16067	8.0855	5.2727	5.e-002	-5.6521
16068	8.0855	5.	0.	-3922.4
16069	7.9936	5.0909	0.	-3951.2
16070	8.0855	5.0909	5.e-002	-5.6614
16071	8.0855	4.8182	0.	-3919.1
16072	7.9936	4.9091	0.	-3947.7
16073	8.0855	4.9091	5.e-002	-5.6684
16074	8.0855	4.6364	0.	-3916.1
16075	7.9936	4.7273	0.	-3944.5
16076	8.0855	4.7273	5.e-002	-5.6742
16077	8.0855	4.4545	0.	-3913.3
16078	7.9936	4.5455	0.	-3941.4
16079	8.0855	4.5455	5.e-002	-5.6789
16080	8.0855	4.2727	0.	-3910.8
16081	7.9936	4.3636	0.	-3938.7
16082	8.0855	4.3636	5.e-002	-5.6827
16083	8.0855	4.0909	0.	-3908.6
16084	7.9936	4.1818	0.	-3936.2
16085	8.0855	4.1818	5.e-002	-5.6856
16086	8.0855	3.9091	0.	-3906.7
16087	7.9936	4.	0.	-3934.1
16088	8.0855	4.	5.e-002	-5.6879
16089	8.0855	3.7273	0.	-3905.1
16090	7.9936	3.8182	0.	-3932.3
16091	8.0855	3.8182	5.e-002	-5.6896
16092	8.0855	3.5455	0.	-3903.8
16093	7.9936	3.6364	0.	-3930.8
16094	8.0855	3.6364	5.e-002	-5.6908
16095	8.0855	3.3636	0.	-3902.9
16096	7.9936	3.4545	0.	-3929.7
16097	8.0855	3.4545	5.e-002	-5.6916
16098	8.0855	3.1818	0.	-3902.4
16099	7.9936	3.2727	0.	-3928.9
16100	8.0855	3.2727	5.e-002	-5.6921
16101	8.0855	3.	0.	-3902.2
16102	7.9936	3.0909	0.	-3928.5
16103	8.0855	3.0909	5.e-002	-5.6923
16104	8.0855	2.8182	0.	-3902.4
16105	7.9936	2.9091	0.	-3928.5
16106	8.0855	2.9091	5.e-002	-5.6923
16107	8.0855	2.6364	0.	-3902.9
16108	7.9936	2.7273	0.	-3928.9
16109	8.0855	2.7273	5.e-002	-5.6921
16110	8.0855	2.4545	0.	-3903.8
16111	7.9936	2.5455	0.	-3929.7
16112	8.0855	2.5455	5.e-002	-5.6916
16113	8.0855	2.2727	0.	-3905.1
16114	7.9936	2.3636	0.	-3930.8
16115	8.0855	2.3636	5.e-002	-5.6908
16116	8.0855	2.0909	0.	-3906.7
16117	7.9936	2.1818	0.	-3932.3
16118	8.0855	2.1818	5.e-002	-5.6896
16119	8.0855	1.9091	0.	-3908.6
16120	7.9936	2.	0.	-3934.1
16121	8.0855	2.	5.e-002	-5.6879
16122	8.0855	1.7273	0.	-3910.8
16123	7.9936	1.8182	0.	-3936.2
16124	8.0855	1.8182	5.e-002	-5.6856
16125	8.0855	1.5455	0.	-3913.3
16126	7.9936	1.6364	0.	-3938.7
16127	8.0855	1.6364	5.e-002	-5.6827
16128	8.0855	1.3636	0.	-3916.1
16129	7.9936	1.4545	0.	-3941.4
16130	8.0855	1.4545	5.e-002	-5.6789
16131	8.0855	1.1818	0.	-3919.1
16132	7.9936	1.2727	0.	-3944.5
16133	8.0855	1.2727	5.e-002	-5.6742
16134	8.0855	1.	0.	-3922.4
16135	7.9936	1.0909	0.	-3947.7
16136	8.0855	1.0909	5.e-002	-5.6684
16137	8.0855	0.81818	0.	-3925.8
16138	7.9936	0.90909	0.	-3951.2
16139	8.0855	0.90909	5.e-002	-5.6614
16140	8.0855	0.63636	0.	-3929.4
16141	7.9936	0.72727	0.	-3954.8
16142	8.0855	0.72727	5.e-002	-5.6521
16143	8.0855	0.45455	0.	-3933.1
16144	7.9936	0.54545	0.	-3958.6
16145	8.0855	0.54545	5.e-002	-5.6266
16146	8.0855	0.27273	0.	-3937.3
16147	7.9936	0.36364	0.	-3962.5
16148	8.0855	0.36364	5.e-002	-5.3728
16149	7.9936	0.18182	0.	-3967.2
16150	8.0855	0.18182	5.e-002	-1.7222
16151	8.0855	9.0909e-002	0.	-3939.1
16152	7.9017	5.7273	0.	-3992.4
16153	7.8098	5.8182	0.	-4022.6
16154	7.9017	5.8182	5.e-002	-1.8962
16155	7.9017	5.9091	0.	-3994.5
16156	7.9017	5.5455	0.	-3988.
16157	7.8098	5.6364	0.	-4017.7
16158	7.9017	5.6364	5.e-002	-5.4272
16159	7.9017	5.3636	0.	-3984.
16160	7.8098	5.4545	0.	-4013.5
16161	7.9017	5.4545	5.e-002	-5.6739
16162	7.9017	5.1818	0.	-3980.1
16163	7.8098	5.2727	0.	-4009.4
16164	7.9017	5.2727	5.e-002	-5.6994
16165	7.9017	5.	0.	-3976.5
16166	7.8098	5.0909	0.	-4005.5
16167	7.9017	5.0909	5.e-002	-5.709
16168	7.9017	4.8182	0.	-3973.
16169	7.8098	4.9091	0.	-4001.8
16170	7.9017	4.9091	5.e-002	-5.7162
16171	7.9017	4.6364	0.	-3969.8
16172	7.8098	4.7273	0.	-3998.3
16173	7.9017	4.7273	5.e-002	-5.7221
16174	7.9017	4.4545	0.	-3966.8
16175	7.8098	4.5455	0.	-3995.1
16176	7.9017	4.5455	5.e-002	-5.7268
16177	7.9017	4.2727	0.	-3964.1
16178	7.8098	4.3636	0.	-3992.1
16179	7.9017	4.3636	5.e-002	-5.7304
16180	7.9017	4.0909	0.	-3961.7
16181	7.8098	4.1818	0.	-3989.5
16182	7.9017	4.1818	5.e-002	-5.7333
16183	7.9017	3.9091	0.	-3959.7
16184	7.8098	4.	0.	-3987.2
16185	7.9017	4.	5.e-002	-5.7354
16186	7.9017	3.7273	0.	-3957.9
16187	7.8098	3.8182	0.	-3985.2
16188	7.9017	3.8182	5.e-002	-5.7369
16189	7.9017	3.5455	0.	-3956.6
16190	7.8098	3.6364	0.	-3983.6
16191	7.9017	3.6364	5.e-002	-5.7379
16192	7.9017	3.3636	0.	-3955.6
16193	7.8098	3.4545	0.	-3982.4
16194	7.9017	3.4545	5.e-002	-5.7386
16195	7.9017	3.1818	0.	-3955.
16196	7.8098	3.2727	0.	-3981.6
16197	7.9017	3.2727	5.e-002	-5.739
16198	7.9017	3.	0.	-3954.8
16199	7.8098	3.0909	0.	-3981.2
16200	7.9017	3.0909	5.e-002	-5.7392
16201	7.9017	2.8182	0.	-3955.
16202	7.8098	2.9091	0.	-3981.2
16203	7.9017	2.9091	5.e-002	-5.7392
16204	7.9017	2.6364	0.	-3955.6
16205	7.8098	2.7273	0.	-3981.6
16206	7.9017	2.7273	5.e-002	-5.739
16207	7.9017	2.4545	0.	-3956.6
16208	7.8098	2.5455	0.	-3982.4
16209	7.9017	2.5455	5.e-002	-5.7386
16210	7.9017	2.2727	0.	-3957.9
16211	7.8098	2.3636	0.	-3983.6
16212	7.9017	2.3636	5.e-002	-5.7379
16213	7.9017	2.0909	0.	-3959.7
16214	7.8098	2.1818	0.	-3985.2
16215	7.9017	2.1818	5.e-002	-5.7369
16216	7.9017	1.9091	0.	-3961.7
16217	7.8098	2.	0.	-3987.2
16218	7.9017	2.	5.e-002	-5.7354
16219	7.9017	1.7273	0.	-3964.1
16220	7.8098	1.8182	0.	-3989.5
16221	7.9017	1.8182	5.e-002	-5.7333
16222	7.9017	1.5455	0.	-3966.8
16223	7.8098	1.6364	0.	-3992.1
16224	7.9017	1.6364	5.e-002	-5.7305
16225	7.9017	1.3636	0.	-3969.8
16226	7.8098	1.4545	0.	-3995.1
16227	7.9017	1.4545	5.e-002	-5.7268
16228	7.9017	1.1818	0.	-3973.
16229	7.8098	1.2727	0.	-3998.3
16230	7.9017	1.2727	5.e-002	-5.7221
16231	7.9017	1.	0.	-3976.5
16232	7.8098	1.0909	0.	-4001.8
16233	7.9017	1.0909	5.e-002	-5.7163
16234	7.9017	0.81818	0.	-3980.1
16235	7.8098	0.90909	0.	-4005.5
16236	7.9017	0.90909	5.e-002	-5.709
16237	7.9017	0.63636	0.	-3984.
16238	7.8098	0.72727	0.	-4009.4
16239	7.9017	0.72727	5.e-002	-5.6994
16240	7.9017	0.45455	0.	-3988.
16241	7.8098	0.54545	0.	-4013.5
16242	7.9017	0.54545	5.e-002	-5.674
16243	7.9017	0.27273	0.	-3992.4
16244	7.8098	0.36364	0.	-4017.7
16245	7.9017	0.36364	5.e-002	-5.4272
16246	7.8098	0.18182	0.	-4022.6
16247	7.9017	0.18182	5.e-002	-1.8963
16248	7.9017	9.0909e-002	0.	-3994.5
16249	7.7179	5.7273	0.	-4047.8
16250	7.6261	5.8182	0.	-4078.3
16251	7.7179	5.8182	5.e-002	-2.0848
16252	7.7179	5.9091	0.	-4050.3
16253	7.7179	5.5455	0.	-4043.1
16254	7.6261	5.6364	0.	-4073.1
16255	7.7179	5.6364	5.e-002	-5.4853
16256	7.7179	5.3636	0.	-4038.9
16257	7.6261	5.4545	0.	-4068.6
16258	7.7179	5.4545	5.e-002	-5.7242
16259	7.7179	5.1818	0.	-4034.8
16260	7.6261	5.2727	0.	-4064.3
16261	7.7179	5.2727	5.e-002	-5.7496
16262	7.7179	5.	0.	-4030.8
16263	7.6261	5.0909	0.	-4060.1
16264	7.7179	5.0909	5.e-002	-5.7595
16265	7.7179	4.8182	0.	-4027.1
16266	7.6261	4.9091	0.	-4056.1
16267	7.7179	4.9091	5.e-002	-5.7669
16268	7.7179	4.6364	0.	-4023.6
16269	7.6261	4.7273	0.	-4052.4
16270	7.7179	4.7273	5.e-002	-5.7728
16271	7.7179	4.4545	0.	-4020.4
16272	7.6261	4.5455	0.	-4048.9
16273	7.7179	4.5455	5.e-002	-5.7774
16274	7.7179	4.2727	0.	-4017.5
16275	7.6261	4.3636	0.	-4045.8
16276	7.7179	4.3636	5.e-002	-5.7809
16277	7.7179	4.0909	0.	-4015.
16278	7.6261	4.1818	0.	-4042.9
16279	7.7179	4.1818	5.e-002	-5.7835
16280	7.7179	3.9091	0.	-4012.8
16281	7.6261	4.	0.	-4040.4
16282	7.7179	4.	5.e-002	-5.7854
16283	7.7179	3.7273	0.	-4010.9
16284	7.6261	3.8182	0.	-4038.3
16285	7.7179	3.8182	5.e-002	-5.7867
16286	7.7179	3.5455	0.	-4009.5
16287	7.6261	3.6364	0.	-4036.6
16288	7.7179	3.6364	5.e-002	-5.7876
16289	7.7179	3.3636	0.	-4008.4
16290	7.6261	3.4545	0.	-4035.3
16291	7.7179	3.4545	5.e-002	-5.7881
16292	7.7179	3.1818	0.	-4007.8
16293	7.6261	3.2727	0.	-4034.4
16294	7.7179	3.2727	5.e-002	-5.7884
16295	7.7179	3.	0.	-4007.6
16296	7.6261	3.0909	0.	-4034.
16297	7.7179	3.0909	5.e-002	-5.7885
16298	7.7179	2.8182	0.	-4007.8
16299	7.6261	2.9091	0.	-4034.
16300	7.7179	2.9091	5.e-002	-5.7885
16301	7.7179	2.6364	0.	-4008.4
16302	7.6261	2.7273	0.	-4034.4
16303	7.7179	2.7273	5.e-002	-5.7884
16304	7.7179	2.4545	0.	-4009.5
16305	7.6261	2.5455	0.	-4035.3
16306	7.7179	2.5455	5.e-002	-5.7881
16307	7.7179	2.2727	0.	-4010.9
16308	7.6261	2.3636	0.	-4036.6
16309	7.7179	2.3636	5.e-002	-5.7876
16310	7.7179	2.0909	0.	-4012.8
16311	7.6261	2.1818	0.	-4038.3
16312	7.7179	2.1818	5.e-002	-5.7868
16313	7.7179	1.9091	0.	-4015.
16314	7.6261	2.	0.	-4040.4
16315	7.7179	2.	5.e-002	-5.7854
16316	7.7179	1.7273	0.	-4017.5
16317	7.6261	1.8182	0.	-4042.9
16318	7.7179	1.8182	5.e-002	-5.7836
16319	7.7179	1.5455	0.	-4020.4
16320	7.6261	1.6364	0.	-4045.8
16321	7.7179	1.6364	5.e-002	-5.7809
16322	7.7179	1.3636	0.	-4023.6
16323	7.6261	1.4545	0.	-4048.9
16324	7.7179	1.4545	5.e-002	-5.7774
16325	7.7179	1.1818	0.	-4027.1
16326	7.6261	1.2727	0.	-4052.4
16327	7.7179	1.2727	5.e-002	-5.7728
16328	7.7179	1.	0.	-4030.8
16329	7.6261	1.0909	0.	-4056.1
16330	7.7179	1.0909	5.e-002	-5.7669
16331	7.7179	0.81818	0.	-4034.8
16332	7.6261	0.90909	0.	-4060.1
16333	7.7179	0.90909	5.e-002	-5.7595
16334	7.7179	0.63636	0.	-4038.9
16335	7.6261	0.72727	0.	-4064.3
16336	7.7179	0.72727	5.e-002	-5.7497
16337	7.7179	0.45455	0.	-4043.1
16338	7.6261	0.54545	0.	-4068.6
16339	7.7179	0.54545	5.e-002	-5.7243
16340	7.7179	0.27273	0.	-4047.8
16341	7.6261	0.36364	0.	-4073.1
16342	7.7179	0.36364	5.e-002	-5.4853
16343	7.6261	0.18182	0.	-4078.3
16344	7.7179	0.18182	5.e-002	-2.0849
16345	7.7179	9.0909e-002	0.	-4050.3
16346	7.5342	5.7273	0.	-4103.5
16347	7.4423	5.8182	0.	-4134.3
16348	7.5342	5.8182	5.e-002	-2.2892
16349	7.5342	5.9091	0.	-4106.4
16350	7.5342	5.5455	0.	-4098.6
16351	7.4423	5.6364	0.	-4128.9
16352	7.5342	5.6364	5.e-002	-5.5475
16353	7.5342	5.3636	0.	-4094.
16354	7.4423	5.4545	0.	-4124.1
16355	7.5342	5.4545	5.e-002	-5.7778
16356	7.5342	5.1818	0.	-4089.6
16357	7.4423	5.2727	0.	-4119.4
16358	7.5342	5.2727	5.e-002	-5.8031
16359	7.5342	5.	0.	-4085.4
16360	7.4423	5.0909	0.	-4115.
16361	7.5342	5.0909	5.e-002	-5.8132
16362	7.5342	4.8182	0.	-4081.4
16363	7.4423	4.9091	0.	-4110.7
16364	7.5342	4.9091	5.e-002	-5.8207
16365	7.5342	4.6364	0.	-4077.7
16366	7.4423	4.7273	0.	-4106.7
16367	7.5342	4.7273	5.e-002	-5.8266
16368	7.5342	4.4545	0.	-4074.3
16369	7.4423	4.5455	0.	-4103.
16370	7.5342	4.5455	5.e-002	-5.831
16371	7.5342	4.2727	0.	-4071.1
16372	7.4423	4.3636	0.	-4099.5
16373	7.5342	4.3636	5.e-002	-5.8344
16374	7.5342	4.0909	0.	-4068.4
16375	7.4423	4.1818	0.	-4096.5
16376	7.5342	4.1818	5.e-002	-5.8367
16377	7.5342	3.9091	0.	-4066.
16378	7.4423	4.	0.	-4093.8
16379	7.5342	4.	5.e-002	-5.8383
16380	7.5342	3.7273	0.	-4064.
16381	7.4423	3.8182	0.	-4091.5
16382	7.5342	3.8182	5.e-002	-5.8393
16383	7.5342	3.5455	0.	-4062.4
16384	7.4423	3.6364	0.	-4089.7
16385	7.5342	3.6364	5.e-002	-5.8399
16386	7.5342	3.3636	0.	-4061.3
16387	7.4423	3.4545	0.	-4088.3
16388	7.5342	3.4545	5.e-002	-5.8402
16389	7.5342	3.1818	0.	-4060.6
16390	7.4423	3.2727	0.	-4087.3
16391	7.5342	3.2727	5.e-002	-5.8404
16392	7.5342	3.	0.	-4060.4
16393	7.4423	3.0909	0.	-4086.9
16394	7.5342	3.0909	5.e-002	-5.8405
16395	7.5342	2.8182	0.	-4060.6
16396	7.4423	2.9091	0.	-4086.9
16397	7.5342	2.9091	5.e-002	-5.8405
16398	7.5342	2.6364	0.	-4061.3
16399	7.4423	2.7273	0.	-4087.3
16400	7.5342	2.7273	5.e-002	-5.8404
16401	7.5342	2.4545	0.	-4062.4
16402	7.4423	2.5455	0.	-4088.3
16403	7.5342	2.5455	5.e-002	-5.8402
16404	7.5342	2.2727	0.	-4064.
16405	7.4423	2.3636	0.	-4089.7
16406	7.5342	2.3636	5.e-002	-5.8399
16407	7.5342	2.0909	0.	-4066.
16408	7.4423	2.1818	0.	-4091.5
16409	7.5342	2.1818	5.e-002	-5.8393
16410	7.5342	1.9091	0.	-4068.4
16411	7.4423	2.	0.	-4093.8
16412	7.5342	2.	5.e-002	-5.8384
16413	7.5342	1.7273	0.	-4071.1
16414	7.4423	1.8182	0.	-4096.5
16415	7.5342	1.8182	5.e-002	-5.8368
16416	7.5342	1.5455	0.	-4074.3
16417	7.4423	1.6364	0.	-4099.5
16418	7.5342	1.6364	5.e-002	-5.8344
16419	7.5342	1.3636	0.	-4077.7
16420	7.4423	1.4545	0.	-4103.
16421	7.5342	1.4545	5.e-002	-5.8311
16422	7.5342	1.1818	0.	-4081.4
16423	7.4423	1.2727	0.	-4106.7
16424	7.5342	1.2727	5.e-002	-5.8266
16425	7.5342	1.	0.	-4085.4
16426	7.4423	1.0909	0.	-4110.7
16427	7.5342	1.0909	5.e-002	-5.8207
16428	7.5342	0.81818	0.	-4089.6
16429	7.4423	0.90909	0.	-4115.
16430	7.5342	0.90909	5.e-002	-5.8132
16431	7.5342	0.63636	0.	-4094.
16432	7.4423	0.72727	0.	-4119.4
16433	7.5342	0.72727	5.e-002	-5.8031
16434	7.5342	0.45455	0.	-4098.6
16435	7.4423	0.54545	0.	-4124.1
16436	7.5342	0.54545	5.e-002	-5.7778
16437	7.5342	0.27273	0.	-4103.5
16438	7.4423	0.36364	0.	-4128.9
16439	7.5342	0.36364	5.e-002	-5.5476
16440	7.4423	0.18182	0.	-4134.3
16441	7.5342	0.18182	5.e-002	-2.2892
16442	7.5342	9.0909e-002	0.	-4106.4
16443	7.3504	5.7273	0.	-4159.6
16444	7.2585	5.8182	0.	-4190.7
16445	7.3504	5.8182	5.e-002	-2.5104
16446	7.3504	5.9091	0.	-4162.9
16447	7.3504	5.5455	0.	-4154.4
16448	7.2585	5.6364	0.	-4185.
16449	7.3504	5.6364	5.e-002	-5.6142
16450	7.3504	5.3636	0.	-4149.5
16451	7.2585	5.4545	0.	-4179.9
16452	7.3504	5.4545	5.e-002	-5.8351
16453	7.3504	5.1818	0.	-4144.8
16454	7.2585	5.2727	0.	-4174.9
16455	7.3504	5.2727	5.e-002	-5.8602
16456	7.3504	5.	0.	-4140.2
16457	7.2585	5.0909	0.	-4170.1
16458	7.3504	5.0909	5.e-002	-5.8704
16459	7.3504	4.8182	0.	-4136.
16460	7.2585	4.9091	0.	-4165.5
16461	7.3504	4.9091	5.e-002	-5.878
16462	7.3504	4.6364	0.	-4131.9
16463	7.2585	4.7273	0.	-4161.2
16464	7.3504	4.7273	5.e-002	-5.8838
16465	7.3504	4.4545	0.	-4128.2
16466	7.2585	4.5455	0.	-4157.2
16467	7.3504	4.5455	5.e-002	-5.8881
16468	7.3504	4.2727	0.	-4124.9
16469	7.2585	4.3636	0.	-4153.5
16470	7.3504	4.3636	5.e-002	-5.8912
16471	7.3504	4.0909	0.	-4121.9
16472	7.2585	4.1818	0.	-4150.2
16473	7.3504	4.1818	5.e-002	-5.8931
16474	7.3504	3.9091	0.	-4119.3
16475	7.2585	4.	0.	-4147.3
16476	7.3504	4.	5.e-002	-5.8944
16477	7.3504	3.7273	0.	-4117.2
16478	7.2585	3.8182	0.	-4144.8
16479	7.3504	3.8182	5.e-002	-5.895
16480	7.3504	3.5455	0.	-4115.5
16481	7.2585	3.6364	0.	-4142.8
16482	7.3504	3.6364	5.e-002	-5.8953
16483	7.3504	3.3636	0.	-4114.3
16484	7.2585	3.4545	0.	-4141.3
16485	7.3504	3.4545	5.e-002	-5.8954
16486	7.3504	3.1818	0.	-4113.6
16487	7.2585	3.2727	0.	-4140.3
16488	7.3504	3.2727	5.e-002	-5.8953
16489	7.3504	3.	0.	-4113.3
16490	7.2585	3.0909	0.	-4139.8
16491	7.3504	3.0909	5.e-002	-5.8952
16492	7.3504	2.8182	0.	-4113.6
16493	7.2585	2.9091	0.	-4139.8
16494	7.3504	2.9091	5.e-002	-5.8952
16495	7.3504	2.6364	0.	-4114.3
16496	7.2585	2.7273	0.	-4140.3
16497	7.3504	2.7273	5.e-002	-5.8953
16498	7.3504	2.4545	0.	-4115.5
16499	7.2585	2.5455	0.	-4141.3
16500	7.3504	2.5455	5.e-002	-5.8954
16501	7.3504	2.2727	0.	-4117.2
16502	7.2585	2.3636	0.	-4142.8
16503	7.3504	2.3636	5.e-002	-5.8952
16504	7.3504	2.0909	0.	-4119.3
16505	7.2585	2.1818	0.	-4144.8
16506	7.3504	2.1818	5.e-002	-5.895
16507	7.3504	1.9091	0.	-4121.9
16508	7.2585	2.	0.	-4147.3
16509	7.3504	2.	5.e-002	-5.8944
16510	7.3504	1.7273	0.	-4124.9
16511	7.2585	1.8182	0.	-4150.2
16512	7.3504	1.8182	5.e-002	-5.8931
16513	7.3504	1.5455	0.	-4128.2
16514	7.2585	1.6364	0.	-4153.5
16515	7.3504	1.6364	5.e-002	-5.8912
16516	7.3504	1.3636	0.	-4131.9
16517	7.2585	1.4545	0.	-4157.2
16518	7.3504	1.4545	5.e-002	-5.8881
16519	7.3504	1.1818	0.	-4136.
16520	7.2585	1.2727	0.	-4161.2
16521	7.3504	1.2727	5.e-002	-5.8838
16522	7.3504	1.	0.	-4140.2
16523	7.2585	1.0909	0.	-4165.5
16524	7.3504	1.0909	5.e-002	-5.8781
16525	7.3504	0.81818	0.	-4144.8
16526	7.2585	0.90909	0.	-4170.1
16527	7.3504	0.90909	5.e-002	-5.8704
16528	7.3504	0.63636	0.	-4149.5
16529	7.2585	0.72727	0.	-4174.9
16530	7.3504	0.72727	5.e-002	-5.8602
16531	7.3504	0.45455	0.	-4154.4
16532	7.2585	0.54545	0.	-4179.9
16533	7.3504	0.54545	5.e-002	-5.8351
16534	7.3504	0.27273	0.	-4159.6
16535	7.2585	0.36364	0.	-4185.
16536	7.3504	0.36364	5.e-002	-5.6143
16537	7.2585	0.18182	0.	-4190.7
16538	7.3504	0.18182	5.e-002	-2.5105
16539	7.3504	9.0909e-002	0.	-4162.9
16540	7.1667	5.7273	0.	-4216.
16541	7.0748	5.8182	0.	-4247.5
16542	7.1667	5.8182	5.e-002	-2.75
16543	7.1667	5.9091	0.	-4219.8
16544	7.1667	5.5455	0.	-4210.5
16545	7.0748	5.6364	0.	-4241.4
16546	7.1667	5.6364	5.e-002	-5.6859
16547	7.1667	5.3636	0.	-4205.2
16548	7.0748	5.4545	0.	-4235.9
16549	7.1667	5.4545	5.e-002	-5.8965
16550	7.1667	5.1818	0.	-4200.2
16551	7.0748	5.2727	0.	-4230.6
16552	7.1667	5.2727	5.e-002	-5.9212
16553	7.1667	5.	0.	-4195.3
16554	7.0748	5.0909	0.	-4225.4
16555	7.1667	5.0909	5.e-002	-5.9316
16556	7.1667	4.8182	0.	-4190.7
16557	7.0748	4.9091	0.	-4220.5
16558	7.1667	4.9091	5.e-002	-5.9392
16559	7.1667	4.6364	0.	-4186.4
16560	7.0748	4.7273	0.	-4215.9
16561	7.1667	4.7273	5.e-002	-5.9448
16562	7.1667	4.4545	0.	-4182.4
16563	7.0748	4.5455	0.	-4211.6
16564	7.1667	4.5455	5.e-002	-5.9488
16565	7.1667	4.2727	0.	-4178.8
16566	7.0748	4.3636	0.	-4207.6
16567	7.1667	4.3636	5.e-002	-5.9515
16568	7.1667	4.0909	0.	-4175.6
16569	7.0748	4.1818	0.	-4204.
16570	7.1667	4.1818	5.e-002	-5.9531
16571	7.1667	3.9091	0.	-4172.8
16572	7.0748	4.	0.	-4200.9
16573	7.1667	4.	5.e-002	-5.9538
16574	7.1667	3.7273	0.	-4170.5
16575	7.0748	3.8182	0.	-4198.3
16576	7.1667	3.8182	5.e-002	-5.954
16577	7.1667	3.5455	0.	-4168.7
16578	7.0748	3.6364	0.	-4196.1
16579	7.1667	3.6364	5.e-002	-5.9539
16580	7.1667	3.3636	0.	-4167.4
16581	7.0748	3.4545	0.	-4194.5
16582	7.1667	3.4545	5.e-002	-5.9536
16583	7.1667	3.1818	0.	-4166.6
16584	7.0748	3.2727	0.	-4193.4
16585	7.1667	3.2727	5.e-002	-5.9534
16586	7.1667	3.	0.	-4166.3
16587	7.0748	3.0909	0.	-4192.8
16588	7.1667	3.0909	5.e-002	-5.9532
16589	7.1667	2.8182	0.	-4166.6
16590	7.0748	2.9091	0.	-4192.8
16591	7.1667	2.9091	5.e-002	-5.9532
16592	7.1667	2.6364	0.	-4167.4
16593	7.0748	2.7273	0.	-4193.4
16594	7.1667	2.7273	5.e-002	-5.9534
16595	7.1667	2.4545	0.	-4168.7
16596	7.0748	2.5455	0.	-4194.5
16597	7.1667	2.5455	5.e-002	-5.9536
16598	7.1667	2.2727	0.	-4170.5
16599	7.0748	2.3636	0.	-4196.1
16600	7.1667	2.3636	5.e-002	-5.954
16601	7.1667	2.0909	0.	-4172.8
16602	7.0748	2.1818	0.	-4198.3
16603	7.1667	2.1818	5.e-002	-5.954
16604	7.1667	1.9091	0.	-4175.6
16605	7.0748	2.	0.	-4200.9
16606	7.1667	2.	5.e-002	-5.9538
16607	7.1667	1.7273	0.	-4178.8
16608	7.0748	1.8182	0.	-4204.
16609	7.1667	1.8182	5.e-002	-5.9531
16610	7.1667	1.5455	0.	-4182.4
16611	7.0748	1.6364	0.	-4207.6
16612	7.1667	1.6364	5.e-002	-5.9515
16613	7.1667	1.3636	0.	-4186.4
16614	7.0748	1.4545	0.	-4211.6
16615	7.1667	1.4545	5.e-002	-5.9489
16616	7.1667	1.1818	0.	-4190.7
16617	7.0748	1.2727	0.	-4215.9
16618	7.1667	1.2727	5.e-002	-5.9448
16619	7.1667	1.	0.	-4195.3
16620	7.0748	1.0909	0.	-4220.5
16621	7.1667	1.0909	5.e-002	-5.9392
16622	7.1667	0.81818	0.	-4200.2
16623	7.0748	0.90909	0.	-4225.4
16624	7.1667	0.90909	5.e-002	-5.9317
16625	7.1667	0.63636	0.	-4205.2
16626	7.0748	0.72727	0.	-4230.6
16627	7.1667	0.72727	5.e-002	-5.9212
16628	7.1667	0.45455	0.	-4210.5
16629	7.0748	0.54545	0.	-4235.9
16630	7.1667	0.54545	5.e-002	-5.8965
16631	7.1667	0.27273	0.	-4216.
16632	7.0748	0.36364	0.	-4241.4
16633	7.1667	0.36364	5.e-002	-5.686
16634	7.0748	0.18182	0.	-4247.5
16635	7.1667	0.18182	5.e-002	-2.7501
16636	7.1667	9.0909e-002	0.	-4219.8
16637	6.9829	5.7273	0.	-4272.8
16638	6.891	5.8182	0.	-4304.7
16639	6.9829	5.8182	5.e-002	-3.0093
16640	6.9829	5.9091	0.	-4277.1
16641	6.9829	5.5455	0.	-4266.9
16642	6.891	5.6364	0.	-4298.2
16643	6.9829	5.6364	5.e-002	-5.7631
16644	6.9829	5.3636	0.	-4261.3
16645	6.891	5.4545	0.	-4292.4
16646	6.9829	5.4545	5.e-002	-5.9624
16647	6.9829	5.1818	0.	-4255.9
16648	6.891	5.2727	0.	-4286.6
16649	6.9829	5.2727	5.e-002	-5.9867
16650	6.9829	5.	0.	-4250.6
16651	6.891	5.0909	0.	-4281.1
16652	6.9829	5.0909	5.e-002	-5.9973
16653	6.9829	4.8182	0.	-4245.7
16654	6.891	4.9091	0.	-4275.8
16655	6.9829	4.9091	5.e-002	-6.0047
16656	6.9829	4.6364	0.	-4241.
16657	6.891	4.7273	0.	-4270.8
16658	6.9829	4.7273	5.e-002	-6.0101
16659	6.9829	4.4545	0.	-4236.7
16660	6.891	4.5455	0.	-4266.1
16661	6.9829	4.5455	5.e-002	-6.0137
16662	6.9829	4.2727	0.	-4232.8
16663	6.891	4.3636	0.	-4261.9
16664	6.9829	4.3636	5.e-002	-6.0158
16665	6.9829	4.0909	0.	-4229.4
16666	6.891	4.1818	0.	-4258.
16667	6.9829	4.1818	5.e-002	-6.0169
16668	6.9829	3.9091	0.	-4226.4
16669	6.891	4.	0.	-4254.7
16670	6.9829	4.	5.e-002	-6.0171
16671	6.9829	3.7273	0.	-4223.9
16672	6.891	3.8182	0.	-4251.8
16673	6.9829	3.8182	5.e-002	-6.0167
16674	6.9829	3.5455	0.	-4221.9
16675	6.891	3.6364	0.	-4249.5
16676	6.9829	3.6364	5.e-002	-6.0161
16677	6.9829	3.3636	0.	-4220.5
16678	6.891	3.4545	0.	-4247.7
16679	6.9829	3.4545	5.e-002	-6.0155
16680	6.9829	3.1818	0.	-4219.6
16681	6.891	3.2727	0.	-4246.5
16682	6.9829	3.2727	5.e-002	-6.0149
16683	6.9829	3.	0.	-4219.4
16684	6.891	3.0909	0.	-4245.9
16685	6.9829	3.0909	5.e-002	-6.0146
16686	6.9829	2.8182	0.	-4219.6
16687	6.891	2.9091	0.	-4245.9
16688	6.9829	2.9091	5.e-002	-6.0146
16689	6.9829	2.6364	0.	-4220.5
16690	6.891	2.7273	0.	-4246.5
16691	6.9829	2.7273	5.e-002	-6.0149
16692	6.9829	2.4545	0.	-4221.9
16693	6.891	2.5455	0.	-4247.7
16694	6.9829	2.5455	5.e-002	-6.0155
16695	6.9829	2.2727	0.	-4223.9
16696	6.891	2.3636	0.	-4249.5
16697	6.9829	2.3636	5.e-002	-6.0161
16698	6.9829	2.0909	0.	-4226.4
16699	6.891	2.1818	0.	-4251.8
16700	6.9829	2.1818	5.e-002	-6.0168
16701	6.9829	1.9091	0.	-4229.4
16702	6.891	2.	0.	-4254.7
16703	6.9829	2.	5.e-002	-6.0171
16704	6.9829	1.7273	0.	-4232.8
16705	6.891	1.8182	0.	-4258.
16706	6.9829	1.8182	5.e-002	-6.0169
16707	6.9829	1.5455	0.	-4236.7
16708	6.891	1.6364	0.	-4261.9
16709	6.9829	1.6364	5.e-002	-6.0159
16710	6.9829	1.3636	0.	-4241.
16711	6.891	1.4545	0.	-4266.1
16712	6.9829	1.4545	5.e-002	-6.0137
16713	6.9829	1.1818	0.	-4245.7
16714	6.891	1.2727	0.	-4270.8
16715	6.9829	1.2727	5.e-002	-6.0101
16716	6.9829	1.	0.	-4250.6
16717	6.891	1.0909	0.	-4275.8
16718	6.9829	1.0909	5.e-002	-6.0047
16719	6.9829	0.81818	0.	-4255.9
16720	6.891	0.90909	0.	-4281.1
16721	6.9829	0.90909	5.e-002	-5.9972
16722	6.9829	0.63636	0.	-4261.3
16723	6.891	0.72727	0.	-4286.6
16724	6.9829	0.72727	5.e-002	-5.9867
16725	6.9829	0.45455	0.	-4266.9
16726	6.891	0.54545	0.	-4292.4
16727	6.9829	0.54545	5.e-002	-5.9624
16728	6.9829	0.27273	0.	-4272.8
16729	6.891	0.36364	0.	-4298.3
16730	6.9829	0.36364	5.e-002	-5.7632
16731	6.891	0.18182	0.	-4304.7
16732	6.9829	0.18182	5.e-002	-3.0094
16733	6.9829	9.0909e-002	0.	-4277.1
16734	6.7991	5.7273	0.	-4330.
16735	6.7073	5.8182	0.	-4362.2
16736	6.7991	5.8182	5.e-002	-3.2899
16737	6.7991	5.9091	0.	-4334.8
16738	6.7991	5.5455	0.	-4323.7
16739	6.7073	5.6364	0.	-4355.5
16740	6.7991	5.6364	5.e-002	-5.8464
16741	6.7991	5.3636	0.	-4317.7
16742	6.7073	5.4545	0.	-4349.1
16743	6.7991	5.4545	5.e-002	-6.0333
16744	6.7991	5.1818	0.	-4311.9
16745	6.7073	5.2727	0.	-4343.
16746	6.7991	5.2727	5.e-002	-6.0571
16747	6.7991	5.	0.	-4306.2
16748	6.7073	5.0909	0.	-4337.
16749	6.7991	5.0909	5.e-002	-6.0676
16750	6.7991	4.8182	0.	-4300.9
16751	6.7073	4.9091	0.	-4331.3
16752	6.7991	4.9091	5.e-002	-6.075
16753	6.7991	4.6364	0.	-4295.9
16754	6.7073	4.7273	0.	-4325.9
16755	6.7991	4.7273	5.e-002	-6.08
16756	6.7991	4.4545	0.	-4291.3
16757	6.7073	4.5455	0.	-4320.9
16758	6.7991	4.5455	5.e-002	-6.0831
16759	6.7991	4.2727	0.	-4287.1
16760	6.7073	4.3636	0.	-4316.3
16761	6.7991	4.3636	5.e-002	-6.0847
16762	6.7991	4.0909	0.	-4283.3
16763	6.7073	4.1818	0.	-4312.2
16764	6.7991	4.1818	5.e-002	-6.085
16765	6.7991	3.9091	0.	-4280.1
16766	6.7073	4.	0.	-4308.5
16767	6.7991	4.	5.e-002	-6.0846
16768	6.7991	3.7273	0.	-4277.4
16769	6.7073	3.8182	0.	-4305.4
16770	6.7991	3.8182	5.e-002	-6.0836
16771	6.7991	3.5455	0.	-4275.3
16772	6.7073	3.6364	0.	-4302.9
16773	6.7991	3.6364	5.e-002	-6.0824
16774	6.7991	3.3636	0.	-4273.7
16775	6.7073	3.4545	0.	-4301.
16776	6.7991	3.4545	5.e-002	-6.0812
16777	6.7991	3.1818	0.	-4272.8
16778	6.7073	3.2727	0.	-4299.7
16779	6.7991	3.2727	5.e-002	-6.0803
16780	6.7991	3.	0.	-4272.5
16781	6.7073	3.0909	0.	-4299.1
16782	6.7991	3.0909	5.e-002	-6.0799
16783	6.7991	2.8182	0.	-4272.8
16784	6.7073	2.9091	0.	-4299.1
16785	6.7991	2.9091	5.e-002	-6.0799
16786	6.7991	2.6364	0.	-4273.7
16787	6.7073	2.7273	0.	-4299.7
16788	6.7991	2.7273	5.e-002	-6.0803
16789	6.7991	2.4545	0.	-4275.3
16790	6.7073	2.5455	0.	-4301.
16791	6.7991	2.5455	5.e-002	-6.0813
16792	6.7991	2.2727	0.	-4277.4
16793	6.7073	2.3636	0.	-4302.9
16794	6.7991	2.3636	5.e-002	-6.0824
16795	6.7991	2.0909	0.	-4280.1
16796	6.7073	2.1818	0.	-4305.4
16797	6.7991	2.1818	5.e-002	-6.0836
16798	6.7991	1.9091	0.	-4283.3
16799	6.7073	2.	0.	-4308.5
16800	6.7991	2.	5.e-002	-6.0846
16801	6.7991	1.7273	0.	-4287.1
16802	6.7073	1.8182	0.	-4312.2
16803	6.7991	1.8182	5.e-002	-6.085
16804	6.7991	1.5455	0.	-4291.3
16805	6.7073	1.6364	0.	-4316.3
16806	6.7991	1.6364	5.e-002	-6.0847
16807	6.7991	1.3636	0.	-4295.9
16808	6.7073	1.4545	0.	-4320.9
16809	6.7991	1.4545	5.e-002	-6.0832
16810	6.7991	1.1818	0.	-4300.9
16811	6.7073	1.2727	0.	-4325.9
16812	6.7991	1.2727	5.e-002	-6.08
16813	6.7991	1.	0.	-4306.2
16814	6.7073	1.0909	0.	-4331.3
16815	6.7991	1.0909	5.e-002	-6.075
16816	6.7991	0.81818	0.	-4311.9
16817	6.7073	0.90909	0.	-4337.
16818	6.7991	0.90909	5.e-002	-6.0677
16819	6.7991	0.63636	0.	-4317.7
16820	6.7073	0.72727	0.	-4343.
16821	6.7991	0.72727	5.e-002	-6.0572
16822	6.7991	0.45455	0.	-4323.7
16823	6.7073	0.54545	0.	-4349.1
16824	6.7991	0.54545	5.e-002	-6.0334
16825	6.7991	0.27273	0.	-4330.
16826	6.7073	0.36364	0.	-4355.5
16827	6.7991	0.36364	5.e-002	-5.8465
16828	6.7073	0.18182	0.	-4362.2
16829	6.7991	0.18182	5.e-002	-3.2899
16830	6.7991	9.0909e-002	0.	-4334.8
16831	6.6154	5.7273	0.	-4387.6
16832	6.5235	5.8182	0.	-4420.3
16833	6.6154	5.8182	5.e-002	-3.5933
16834	6.6154	5.9091	0.	-4392.9
16835	6.6154	5.5455	0.	-4380.9
16836	6.5235	5.6364	0.	-4413.1
16837	6.6154	5.6364	5.e-002	-5.9364
16838	6.6154	5.3636	0.	-4374.4
16839	6.5235	5.4545	0.	-4406.3
16840	6.6154	5.4545	5.e-002	-6.1097
16841	6.6154	5.1818	0.	-4368.1
16842	6.5235	5.2727	0.	-4399.7
16843	6.6154	5.2727	5.e-002	-6.133
16844	6.6154	5.	0.	-4362.1
16845	6.5235	5.0909	0.	-4393.2
16846	6.6154	5.0909	5.e-002	-6.1435
16847	6.6154	4.8182	0.	-4356.4
16848	6.5235	4.9091	0.	-4387.1
16849	6.6154	4.9091	5.e-002	-6.1506
16850	6.6154	4.6364	0.	-4351.
16851	6.5235	4.7273	0.	-4381.3
16852	6.6154	4.7273	5.e-002	-6.1551
16853	6.6154	4.4545	0.	-4346.
16854	6.5235	4.5455	0.	-4375.9
16855	6.6154	4.5455	5.e-002	-6.1576
16856	6.6154	4.2727	0.	-4341.4
16857	6.5235	4.3636	0.	-4370.9
16858	6.6154	4.3636	5.e-002	-6.1584
16859	6.6154	4.0909	0.	-4337.4
16860	6.5235	4.1818	0.	-4366.4
16861	6.6154	4.1818	5.e-002	-6.158
16862	6.6154	3.9091	0.	-4333.9
16863	6.5235	4.	0.	-4362.5
16864	6.6154	4.	5.e-002	-6.1567
16865	6.6154	3.7273	0.	-4331.
16866	6.5235	3.8182	0.	-4359.2
16867	6.6154	3.8182	5.e-002	-6.155
16868	6.6154	3.5455	0.	-4328.7
16869	6.5235	3.6364	0.	-4356.4
16870	6.6154	3.6364	5.e-002	-6.153
16871	6.6154	3.3636	0.	-4327.
16872	6.5235	3.4545	0.	-4354.4
16873	6.6154	3.4545	5.e-002	-6.1513
16874	6.6154	3.1818	0.	-4326.
16875	6.5235	3.2727	0.	-4353.
16876	6.6154	3.2727	5.e-002	-6.1501
16877	6.6154	3.	0.	-4325.7
16878	6.5235	3.0909	0.	-4352.3
16879	6.6154	3.0909	5.e-002	-6.1495
16880	6.6154	2.8182	0.	-4326.
16881	6.5235	2.9091	0.	-4352.3
16882	6.6154	2.9091	5.e-002	-6.1495
16883	6.6154	2.6364	0.	-4327.
16884	6.5235	2.7273	0.	-4353.
16885	6.6154	2.7273	5.e-002	-6.1501
16886	6.6154	2.4545	0.	-4328.7
16887	6.5235	2.5455	0.	-4354.4
16888	6.6154	2.5455	5.e-002	-6.1513
16889	6.6154	2.2727	0.	-4331.
16890	6.5235	2.3636	0.	-4356.4
16891	6.6154	2.3636	5.e-002	-6.153
16892	6.6154	2.0909	0.	-4333.9
16893	6.5235	2.1818	0.	-4359.2
16894	6.6154	2.1818	5.e-002	-6.155
16895	6.6154	1.9091	0.	-4337.4
16896	6.5235	2.	0.	-4362.5
16897	6.6154	2.	5.e-002	-6.1567
16898	6.6154	1.7273	0.	-4341.4
16899	6.5235	1.8182	0.	-4366.4
16900	6.6154	1.8182	5.e-002	-6.158
16901	6.6154	1.5455	0.	-4346.
16902	6.5235	1.6364	0.	-4370.9
16903	6.6154	1.6364	5.e-002	-6.1584
16904	6.6154	1.3636	0.	-4351.
16905	6.5235	1.4545	0.	-4375.9
16906	6.6154	1.4545	5.e-002	-6.1576
16907	6.6154	1.1818	0.	-4356.4
16908	6.5235	1.2727	0.	-4381.3
16909	6.6154	1.2727	5.e-002	-6.1552
16910	6.6154	1.	0.	-4362.1
16911	6.5235	1.0909	0.	-4387.1
16912	6.6154	1.0909	5.e-002	-6.1506
16913	6.6154	0.81818	0.	-4368.1
16914	6.5235	0.90909	0.	-4393.2
16915	6.6154	0.90909	5.e-002	-6.1435
16916	6.6154	0.63636	0.	-4374.4
16917	6.5235	0.72727	0.	-4399.7
16918	6.6154	0.72727	5.e-002	-6.133
16919	6.6154	0.45455	0.	-4380.9
16920	6.5235	0.54545	0.	-4406.3
16921	6.6154	0.54545	5.e-002	-6.1098
16922	6.6154	0.27273	0.	-4387.6
16923	6.5235	0.36364	0.	-4413.1
16924	6.6154	0.36364	5.e-002	-5.9364
16925	6.5235	0.18182	0.	-4420.3
16926	6.6154	0.18182	5.e-002	-3.5933
16927	6.6154	9.0909e-002	0.	-4392.9
16928	6.4316	5.7273	0.	-4445.7
16929	6.3397	5.8182	0.	-4478.7
16930	6.4316	5.8182	5.e-002	-3.9213
16931	6.4316	5.9091	0.	-4451.5
16932	6.4316	5.5455	0.	-4438.4
16933	6.3397	5.6364	0.	-4471.1
16934	6.4316	5.6364	5.e-002	-6.0337
16935	6.4316	5.3636	0.	-4431.5
16936	6.3397	5.4545	0.	-4463.8
16937	6.4316	5.4545	5.e-002	-6.1924
16938	6.4316	5.1818	0.	-4424.8
16939	6.3397	5.2727	0.	-4456.7
16940	6.4316	5.2727	5.e-002	-6.2148
16941	6.4316	5.	0.	-4418.2
16942	6.3397	5.0909	0.	-4449.8
16943	6.4316	5.0909	5.e-002	-6.2253
16944	6.4316	4.8182	0.	-4412.
16945	6.3397	4.9091	0.	-4443.1
16946	6.4316	4.9091	5.e-002	-6.2321
16947	6.4316	4.6364	0.	-4406.2
16948	6.3397	4.7273	0.	-4436.9
16949	6.4316	4.7273	5.e-002	-6.2361
16950	6.4316	4.4545	0.	-4400.8
16951	6.3397	4.5455	0.	-4431.
16952	6.4316	4.5455	5.e-002	-6.2378
16953	6.4316	4.2727	0.	-4395.9
16954	6.3397	4.3636	0.	-4425.7
16955	6.4316	4.3636	5.e-002	-6.2377
16956	6.4316	4.0909	0.	-4391.6
16957	6.3397	4.1818	0.	-4420.8
16958	6.4316	4.1818	5.e-002	-6.2362
16959	6.4316	3.9091	0.	-4387.8
16960	6.3397	4.	0.	-4416.6
16961	6.4316	4.	5.e-002	-6.234
16962	6.4316	3.7273	0.	-4384.6
16963	6.3397	3.8182	0.	-4413.
16964	6.4316	3.8182	5.e-002	-6.2313
16965	6.4316	3.5455	0.	-4382.1
16966	6.3397	3.6364	0.	-4410.
16967	6.4316	3.6364	5.e-002	-6.2286
16968	6.4316	3.3636	0.	-4380.3
16969	6.3397	3.4545	0.	-4407.8
16970	6.4316	3.4545	5.e-002	-6.2263
16971	6.4316	3.1818	0.	-4379.2
16972	6.3397	3.2727	0.	-4406.3
16973	6.4316	3.2727	5.e-002	-6.2245
16974	6.4316	3.	0.	-4378.9
16975	6.3397	3.0909	0.	-4405.5
16976	6.4316	3.0909	5.e-002	-6.2236
16977	6.4316	2.8182	0.	-4379.2
16978	6.3397	2.9091	0.	-4405.5
16979	6.4316	2.9091	5.e-002	-6.2236
16980	6.4316	2.6364	0.	-4380.3
16981	6.3397	2.7273	0.	-4406.3
16982	6.4316	2.7273	5.e-002	-6.2245
16983	6.4316	2.4545	0.	-4382.1
16984	6.3397	2.5455	0.	-4407.8
16985	6.4316	2.5455	5.e-002	-6.2263
16986	6.4316	2.2727	0.	-4384.6
16987	6.3397	2.3636	0.	-4410.
16988	6.4316	2.3636	5.e-002	-6.2286
16989	6.4316	2.0909	0.	-4387.8
16990	6.3397	2.1818	0.	-4413.
16991	6.4316	2.1818	5.e-002	-6.2313
16992	6.4316	1.9091	0.	-4391.6
16993	6.3397	2.	0.	-4416.6
16994	6.4316	2.	5.e-002	-6.234
16995	6.4316	1.7273	0.	-4395.9
16996	6.3397	1.8182	0.	-4420.8
16997	6.4316	1.8182	5.e-002	-6.2362
16998	6.4316	1.5455	0.	-4400.8
16999	6.3397	1.6364	0.	-4425.7
17000	6.4316	1.6364	5.e-002	-6.2377
17001	6.4316	1.3636	0.	-4406.2
17002	6.3397	1.4545	0.	-4431.
17003	6.4316	1.4545	5.e-002	-6.2378
17004	6.4316	1.1818	0.	-4412.
17005	6.3397	1.2727	0.	-4436.9
17006	6.4316	1.2727	5.e-002	-6.2361
17007	6.4316	1.	0.	-4418.2
17008	6.3397	1.0909	0.	-4443.1
17009	6.4316	1.0909	5.e-002	-6.2321
17010	6.4316	0.81818	0.	-4424.8
17011	6.3397	0.90909	0.	-4449.8
17012	6.4316	0.90909	5.e-002	-6.2253
17013	6.4316	0.63636	0.	-4431.5
17014	6.3397	0.72727	0.	-4456.7
17015	6.4316	0.72727	5.e-002	-6.2149
17016	6.4316	0.45455	0.	-4438.4
17017	6.3397	0.54545	0.	-4463.8
17018	6.4316	0.54545	5.e-002	-6.1925
17019	6.4316	0.27273	0.	-4445.7
17020	6.3397	0.36364	0.	-4471.1
17021	6.4316	0.36364	5.e-002	-6.0337
17022	6.3397	0.18182	0.	-4478.7
17023	6.4316	0.18182	5.e-002	-3.9214
17024	6.4316	9.0909e-002	0.	-4451.5
17025	6.2479	5.7273	0.	-4504.1
17026	6.156	5.8182	0.	-4537.7
17027	6.2479	5.8182	5.e-002	-4.2758
17028	6.2479	5.9091	0.	-4510.6
17029	6.2479	5.5455	0.	-4496.4
17030	6.156	5.6364	0.	-4529.5
17031	6.2479	5.6364	5.e-002	-6.139
17032	6.2479	5.3636	0.	-4489.
17033	6.156	5.4545	0.	-4521.7
17034	6.2479	5.4545	5.e-002	-6.2818
17035	6.2479	5.1818	0.	-4481.7
17036	6.156	5.2727	0.	-4514.
17037	6.2479	5.2727	5.e-002	-6.3034
17038	6.2479	5.	0.	-4474.7
17039	6.156	5.0909	0.	-4506.6
17040	6.2479	5.0909	5.e-002	-6.3137
17041	6.2479	4.8182	0.	-4468.
17042	6.156	4.9091	0.	-4499.5
17043	6.2479	4.9091	5.e-002	-6.32
17044	6.2479	4.6364	0.	-4461.7
17045	6.156	4.7273	0.	-4492.7
17046	6.2479	4.7273	5.e-002	-6.3233
17047	6.2479	4.4545	0.	-4455.9
17048	6.156	4.5455	0.	-4486.4
17049	6.2479	4.5455	5.e-002	-6.3241
17050	6.2479	4.2727	0.	-4450.6
17051	6.156	4.3636	0.	-4480.6
17052	6.2479	4.3636	5.e-002	-6.323
17053	6.2479	4.0909	0.	-4445.9
17054	6.156	4.1818	0.	-4475.4
17055	6.2479	4.1818	5.e-002	-6.3204
17056	6.2479	3.9091	0.	-4441.8
17057	6.156	4.	0.	-4470.8
17058	6.2479	4.	5.e-002	-6.317
17059	6.2479	3.7273	0.	-4438.4
17060	6.156	3.8182	0.	-4466.9
17061	6.2479	3.8182	5.e-002	-6.3133
17062	6.2479	3.5455	0.	-4435.7
17063	6.156	3.6364	0.	-4463.7
17064	6.2479	3.6364	5.e-002	-6.3096
17065	6.2479	3.3636	0.	-4433.7
17066	6.156	3.4545	0.	-4461.3
17067	6.2479	3.4545	5.e-002	-6.3065
17068	6.2479	3.1818	0.	-4432.5
17069	6.156	3.2727	0.	-4459.6
17070	6.2479	3.2727	5.e-002	-6.3043
17071	6.2479	3.	0.	-4432.1
17072	6.156	3.0909	0.	-4458.8
17073	6.2479	3.0909	5.e-002	-6.3031
17074	6.2479	2.8182	0.	-4432.5
17075	6.156	2.9091	0.	-4458.8
17076	6.2479	2.9091	5.e-002	-6.3031
17077	6.2479	2.6364	0.	-4433.7
17078	6.156	2.7273	0.	-4459.6
17079	6.2479	2.7273	5.e-002	-6.3043
17080	6.2479	2.4545	0.	-4435.7
17081	6.156	2.5455	0.	-4461.3
17082	6.2479	2.5455	5.e-002	-6.3065
17083	6.2479	2.2727	0.	-4438.4
17084	6.156	2.3636	0.	-4463.7
17085	6.2479	2.3636	5.e-002	-6.3096
17086	6.2479	2.0909	0.	-4441.8
17087	6.156	2.1818	0.	-4466.9
17088	6.2479	2.1818	5.e-002	-6.3133
17089	6.2479	1.9091	0.	-4445.9
17090	6.156	2.	0.	-4470.8
17091	6.2479	2.	5.e-002	-6.317
17092	6.2479	1.7273	0.	-4450.6
17093	6.156	1.8182	0.	-4475.4
17094	6.2479	1.8182	5.e-002	-6.3204
17095	6.2479	1.5455	0.	-4455.9
17096	6.156	1.6364	0.	-4480.6
17097	6.2479	1.6364	5.e-002	-6.323
17098	6.2479	1.3636	0.	-4461.7
17099	6.156	1.4545	0.	-4486.4
17100	6.2479	1.4545	5.e-002	-6.3242
17101	6.2479	1.1818	0.	-4468.
17102	6.156	1.2727	0.	-4492.7
17103	6.2479	1.2727	5.e-002	-6.3233
17104	6.2479	1.	0.	-4474.7
17105	6.156	1.0909	0.	-4499.5
17106	6.2479	1.0909	5.e-002	-6.32
17107	6.2479	0.81818	0.	-4481.7
17108	6.156	0.90909	0.	-4506.6
17109	6.2479	0.90909	5.e-002	-6.3137
17110	6.2479	0.63636	0.	-4489.
17111	6.156	0.72727	0.	-4514.
17112	6.2479	0.72727	5.e-002	-6.3035
17113	6.2479	0.45455	0.	-4496.4
17114	6.156	0.54545	0.	-4521.7
17115	6.2479	0.54545	5.e-002	-6.2819
17116	6.2479	0.27273	0.	-4504.1
17117	6.156	0.36364	0.	-4529.5
17118	6.2479	0.36364	5.e-002	-6.139
17119	6.156	0.18182	0.	-4537.7
17120	6.2479	0.18182	5.e-002	-4.2759
17121	6.2479	9.0909e-002	0.	-4510.6
17122	6.0641	5.7273	0.	-4563.1
17123	5.9722	5.8182	0.	-4597.2
17124	6.0641	5.8182	5.e-002	-4.6586
17125	6.0641	5.9091	0.	-4570.1
17126	6.0641	5.5455	0.	-4554.8
17127	5.9722	5.6364	0.	-4588.4
17128	6.0641	5.6364	5.e-002	-6.2532
17129	6.0641	5.3636	0.	-4546.8
17130	5.9722	5.4545	0.	-4580.
17131	6.0641	5.4545	5.e-002	-6.3788
17132	6.0641	5.1818	0.	-4538.9
17133	5.9722	5.2727	0.	-4571.7
17134	6.0641	5.2727	5.e-002	-6.3994
17135	6.0641	5.	0.	-4531.4
17136	5.9722	5.0909	0.	-4563.7
17137	6.0641	5.0909	5.e-002	-6.4095
17138	6.0641	4.8182	0.	-4524.2
17139	5.9722	4.9091	0.	-4556.1
17140	6.0641	4.9091	5.e-002	-6.4153
17141	6.0641	4.6364	0.	-4517.4
17142	5.9722	4.7273	0.	-4548.8
17143	6.0641	4.7273	5.e-002	-6.4177
17144	6.0641	4.4545	0.	-4511.1
17145	5.9722	4.5455	0.	-4542.
17146	6.0641	4.5455	5.e-002	-6.4175
17147	6.0641	4.2727	0.	-4505.4
17148	5.9722	4.3636	0.	-4535.7
17149	6.0641	4.3636	5.e-002	-6.4151
17150	6.0641	4.0909	0.	-4500.3
17151	5.9722	4.1818	0.	-4530.
17152	6.0641	4.1818	5.e-002	-6.4112
17153	6.0641	3.9091	0.	-4495.9
17154	5.9722	4.	0.	-4525.1
17155	6.0641	4.	5.e-002	-6.4065
17156	6.0641	3.7273	0.	-4492.2
17157	5.9722	3.8182	0.	-4520.8
17158	6.0641	3.8182	5.e-002	-6.4014
17159	6.0641	3.5455	0.	-4489.3
17160	5.9722	3.6364	0.	-4517.4
17161	6.0641	3.6364	5.e-002	-6.3967
17162	6.0641	3.3636	0.	-4487.2
17163	5.9722	3.4545	0.	-4514.8
17164	6.0641	3.4545	5.e-002	-6.3927
17165	6.0641	3.1818	0.	-4485.9
17166	5.9722	3.2727	0.	-4513.
17167	6.0641	3.2727	5.e-002	-6.3899
17168	6.0641	3.	0.	-4485.5
17169	5.9722	3.0909	0.	-4512.1
17170	6.0641	3.0909	5.e-002	-6.3883
17171	6.0641	2.8182	0.	-4485.9
17172	5.9722	2.9091	0.	-4512.1
17173	6.0641	2.9091	5.e-002	-6.3883
17174	6.0641	2.6364	0.	-4487.2
17175	5.9722	2.7273	0.	-4513.
17176	6.0641	2.7273	5.e-002	-6.3899
17177	6.0641	2.4545	0.	-4489.3
17178	5.9722	2.5455	0.	-4514.8
17179	6.0641	2.5455	5.e-002	-6.3928
17180	6.0641	2.2727	0.	-4492.2
17181	5.9722	2.3636	0.	-4517.4
17182	6.0641	2.3636	5.e-002	-6.3967
17183	6.0641	2.0909	0.	-4495.9
17184	5.9722	2.1818	0.	-4520.8
17185	6.0641	2.1818	5.e-002	-6.4015
17186	6.0641	1.9091	0.	-4500.3
17187	5.9722	2.	0.	-4525.1
17188	6.0641	2.	5.e-002	-6.4065
17189	6.0641	1.7273	0.	-4505.4
17190	5.9722	1.8182	0.	-4530.
17191	6.0641	1.8182	5.e-002	-6.4112
17192	6.0641	1.5455	0.	-4511.1
17193	5.9722	1.6364	0.	-4535.7
17194	6.0641	1.6364	5.e-002	-6.4151
17195	6.0641	1.3636	0.	-4517.4
17196	5.9722	1.4545	0.	-4542.
17197	6.0641	1.4545	5.e-002	-6.4175
17198	6.0641	1.1818	0.	-4524.2
17199	5.9722	1.2727	0.	-4548.8
17200	6.0641	1.2727	5.e-002	-6.4178
17201	6.0641	1.	0.	-4531.4
17202	5.9722	1.0909	0.	-4556.1
17203	6.0641	1.0909	5.e-002	-6.4153
17204	6.0641	0.81818	0.	-4538.9
17205	5.9722	0.90909	0.	-4563.7
17206	6.0641	0.90909	5.e-002	-6.4095
17207	6.0641	0.63636	0.	-4546.8
17208	5.9722	0.72727	0.	-4571.7
17209	6.0641	0.72727	5.e-002	-6.3995
17210	6.0641	0.45455	0.	-4554.8
17211	5.9722	0.54545	0.	-4580.
17212	6.0641	0.54545	5.e-002	-6.3789
17213	6.0641	0.27273	0.	-4563.1
17214	5.9722	0.36364	0.	-4588.4
17215	6.0641	0.36364	5.e-002	-6.2532
17216	5.9722	0.18182	0.	-4597.2
17217	6.0641	0.18182	5.e-002	-4.6587
17218	6.0641	9.0909e-002	0.	-4570.1
17219	5.8803	5.7273	0.	-4622.5
17220	5.7885	5.8182	0.	-4657.1
17221	5.8803	5.8182	5.e-002	-5.0719
17222	5.8803	5.9091	0.	-4630.2
17223	5.8803	5.5455	0.	-4613.6
17224	5.7885	5.6364	0.	-4647.8
17225	5.8803	5.6364	5.e-002	-6.3769
17226	5.8803	5.3636	0.	-4605.
17227	5.7885	5.4545	0.	-4638.7
17228	5.8803	5.4545	5.e-002	-6.4841
17229	5.8803	5.1818	0.	-4596.6
17230	5.7885	5.2727	0.	-4629.9
17231	5.8803	5.2727	5.e-002	-6.5036
17232	5.8803	5.	0.	-4588.4
17233	5.7885	5.0909	0.	-4621.2
17234	5.8803	5.0909	5.e-002	-6.5134
17235	5.8803	4.8182	0.	-4580.6
17236	5.7885	4.9091	0.	-4612.9
17237	5.8803	4.9091	5.e-002	-6.5186
17238	5.8803	4.6364	0.	-4573.3
17239	5.7885	4.7273	0.	-4605.1
17240	5.8803	4.7273	5.e-002	-6.52
17241	5.8803	4.4545	0.	-4566.5
17242	5.7885	4.5455	0.	-4597.7
17243	5.8803	4.5455	5.e-002	-6.5185
17244	5.8803	4.2727	0.	-4560.4
17245	5.7885	4.3636	0.	-4591.
17246	5.8803	4.3636	5.e-002	-6.5147
17247	5.8803	4.0909	0.	-4554.8
17248	5.7885	4.1818	0.	-4584.9
17249	5.8803	4.1818	5.e-002	-6.5094
17250	5.8803	3.9091	0.	-4550.1
17251	5.7885	4.	0.	-4579.5
17252	5.8803	4.	5.e-002	-6.5031
17253	5.8803	3.7273	0.	-4546.1
17254	5.7885	3.8182	0.	-4574.9
17255	5.8803	3.8182	5.e-002	-6.4966
17256	5.8803	3.5455	0.	-4542.9
17257	5.7885	3.6364	0.	-4571.2
17258	5.8803	3.6364	5.e-002	-6.4907
17259	5.8803	3.3636	0.	-4540.6
17260	5.7885	3.4545	0.	-4568.3
17261	5.8803	3.4545	5.e-002	-6.4856
17262	5.8803	3.1818	0.	-4539.2
17263	5.7885	3.2727	0.	-4566.4
17264	5.8803	3.2727	5.e-002	-6.482
17265	5.8803	3.	0.	-4538.8
17266	5.7885	3.0909	0.	-4565.5
17267	5.8803	3.0909	5.e-002	-6.4803
17268	5.8803	2.8182	0.	-4539.2
17269	5.7885	2.9091	0.	-4565.5
17270	5.8803	2.9091	5.e-002	-6.4803
17271	5.8803	2.6364	0.	-4540.6
17272	5.7885	2.7273	0.	-4566.4
17273	5.8803	2.7273	5.e-002	-6.482
17274	5.8803	2.4545	0.	-4542.9
17275	5.7885	2.5455	0.	-4568.3
17276	5.8803	2.5455	5.e-002	-6.4857
17277	5.8803	2.2727	0.	-4546.1
17278	5.7885	2.3636	0.	-4571.2
17279	5.8803	2.3636	5.e-002	-6.4907
17280	5.8803	2.0909	0.	-4550.1
17281	5.7885	2.1818	0.	-4574.9
17282	5.8803	2.1818	5.e-002	-6.4967
17283	5.8803	1.9091	0.	-4554.8
17284	5.7885	2.	0.	-4579.5
17285	5.8803	2.	5.e-002	-6.5031
17286	5.8803	1.7273	0.	-4560.4
17287	5.7885	1.8182	0.	-4584.9
17288	5.8803	1.8182	5.e-002	-6.5093
17289	5.8803	1.5455	0.	-4566.5
17290	5.7885	1.6364	0.	-4591.
17291	5.8803	1.6364	5.e-002	-6.5147
17292	5.8803	1.3636	0.	-4573.3
17293	5.7885	1.4545	0.	-4597.7
17294	5.8803	1.4545	5.e-002	-6.5186
17295	5.8803	1.1818	0.	-4580.6
17296	5.7885	1.2727	0.	-4605.1
17297	5.8803	1.2727	5.e-002	-6.52
17298	5.8803	1.	0.	-4588.4
17299	5.7885	1.0909	0.	-4612.9
17300	5.8803	1.0909	5.e-002	-6.5186
17301	5.8803	0.81818	0.	-4596.6
17302	5.7885	0.90909	0.	-4621.2
17303	5.8803	0.90909	5.e-002	-6.5134
17304	5.8803	0.63636	0.	-4605.
17305	5.7885	0.72727	0.	-4629.9
17306	5.8803	0.72727	5.e-002	-6.5037
17307	5.8803	0.45455	0.	-4613.6
17308	5.7885	0.54545	0.	-4638.7
17309	5.8803	0.54545	5.e-002	-6.4842
17310	5.8803	0.27273	0.	-4622.5
17311	5.7885	0.36364	0.	-4647.8
17312	5.8803	0.36364	5.e-002	-6.3769
17313	5.7885	0.18182	0.	-4657.1
17314	5.8803	0.18182	5.e-002	-5.072
17315	5.8803	9.0909e-002	0.	-4630.2
17316	5.6966	5.7273	0.	-4682.4
17317	5.6047	5.8182	0.	-4717.7
17318	5.6966	5.8182	5.e-002	-5.5178
17319	5.6966	5.9091	0.	-4690.8
17320	5.6966	5.5455	0.	-4672.9
17321	5.6047	5.6364	0.	-4707.6
17322	5.6966	5.6364	5.e-002	-6.5111
17323	5.6966	5.3636	0.	-4663.6
17324	5.6047	5.4545	0.	-4697.9
17325	5.6966	5.4545	5.e-002	-6.5985
17326	5.6966	5.1818	0.	-4654.5
17327	5.6047	5.2727	0.	-4688.3
17328	5.6966	5.2727	5.e-002	-6.6169
17329	5.6966	5.	0.	-4645.8
17330	5.6047	5.0909	0.	-4679.1
17331	5.6966	5.0909	5.e-002	-6.6263
17332	5.6966	4.8182	0.	-4637.4
17333	5.6047	4.9091	0.	-4670.1
17334	5.6966	4.9091	5.e-002	-6.6307
17335	5.6966	4.6364	0.	-4629.5
17336	5.6047	4.7273	0.	-4661.6
17337	5.6966	4.7273	5.e-002	-6.6312
17338	5.6966	4.4545	0.	-4622.2
17339	5.6047	4.5455	0.	-4653.7
17340	5.6966	4.5455	5.e-002	-6.6283
17341	5.6966	4.2727	0.	-4615.5
17342	5.6047	4.3636	0.	-4646.4
17343	5.6966	4.3636	5.e-002	-6.6229
17344	5.6966	4.0909	0.	-4609.5
17345	5.6047	4.1818	0.	-4639.8
17346	5.6966	4.1818	5.e-002	-6.6158
17347	5.6966	3.9091	0.	-4604.3
17348	5.6047	4.	0.	-4634.
17349	5.6966	4.	5.e-002	-6.6078
17350	5.6966	3.7273	0.	-4600.
17351	5.6047	3.8182	0.	-4629.1
17352	5.6966	3.8182	5.e-002	-6.5997
17353	5.6966	3.5455	0.	-4596.6
17354	5.6047	3.6364	0.	-4625.
17355	5.6966	3.6364	5.e-002	-6.5923
17356	5.6966	3.3636	0.	-4594.1
17357	5.6047	3.4545	0.	-4622.
17358	5.6966	3.4545	5.e-002	-6.5861
17359	5.6966	3.1818	0.	-4592.7
17360	5.6047	3.2727	0.	-4619.9
17361	5.6966	3.2727	5.e-002	-6.5817
17362	5.6966	3.	0.	-4592.2
17363	5.6047	3.0909	0.	-4618.9
17364	5.6966	3.0909	5.e-002	-6.5794
17365	5.6966	2.8182	0.	-4592.7
17366	5.6047	2.9091	0.	-4618.9
17367	5.6966	2.9091	5.e-002	-6.5794
17368	5.6966	2.6364	0.	-4594.1
17369	5.6047	2.7273	0.	-4619.9
17370	5.6966	2.7273	5.e-002	-6.5817
17371	5.6966	2.4545	0.	-4596.6
17372	5.6047	2.5455	0.	-4622.
17373	5.6966	2.5455	5.e-002	-6.5861
17374	5.6966	2.2727	0.	-4600.
17375	5.6047	2.3636	0.	-4625.
17376	5.6966	2.3636	5.e-002	-6.5923
17377	5.6966	2.0909	0.	-4604.3
17378	5.6047	2.1818	0.	-4629.1
17379	5.6966	2.1818	5.e-002	-6.5997
17380	5.6966	1.9091	0.	-4609.5
17381	5.6047	2.	0.	-4634.
17382	5.6966	2.	5.e-002	-6.6078
17383	5.6966	1.7273	0.	-4615.5
17384	5.6047	1.8182	0.	-4639.8
17385	5.6966	1.8182	5.e-002	-6.6158
17386	5.6966	1.5455	0.	-4622.2
17387	5.6047	1.6364	0.	-4646.4
17388	5.6966	1.6364	5.e-002	-6.6229
17389	5.6966	1.3636	0.	-4629.5
17390	5.6047	1.4545	0.	-4653.7
17391	5.6966	1.4545	5.e-002	-6.6283
17392	5.6966	1.1818	0.	-4637.4
17393	5.6047	1.2727	0.	-4661.6
17394	5.6966	1.2727	5.e-002	-6.6312
17395	5.6966	1.	0.	-4645.8
17396	5.6047	1.0909	0.	-4670.1
17397	5.6966	1.0909	5.e-002	-6.6308
17398	5.6966	0.81818	0.	-4654.5
17399	5.6047	0.90909	0.	-4679.1
17400	5.6966	0.90909	5.e-002	-6.6263
17401	5.6966	0.63636	0.	-4663.6
17402	5.6047	0.72727	0.	-4688.3
17403	5.6966	0.72727	5.e-002	-6.6169
17404	5.6966	0.45455	0.	-4672.9
17405	5.6047	0.54545	0.	-4697.9
17406	5.6966	0.54545	5.e-002	-6.5986
17407	5.6966	0.27273	0.	-4682.4
17408	5.6047	0.36364	0.	-4707.6
17409	5.6966	0.36364	5.e-002	-6.5112
17410	5.6047	0.18182	0.	-4717.7
17411	5.6966	0.18182	5.e-002	-5.5178
17412	5.6966	9.0909e-002	0.	-4690.8
17413	5.5128	5.7273	0.	-4742.9
17414	5.4209	5.8182	0.	-4778.8
17415	5.5128	5.8182	5.e-002	-5.9984
17416	5.5128	5.9091	0.	-4751.9
17417	5.5128	5.5455	0.	-4732.6
17418	5.4209	5.6364	0.	-4768.
17419	5.5128	5.6364	5.e-002	-6.6566
17420	5.5128	5.3636	0.	-4722.7
17421	5.4209	5.4545	0.	-4757.5
17422	5.5128	5.4545	5.e-002	-6.723
17423	5.5128	5.1818	0.	-4712.9
17424	5.4209	5.2727	0.	-4747.2
17425	5.5128	5.2727	5.e-002	-6.7401
17426	5.5128	5.	0.	-4703.4
17427	5.4209	5.0909	0.	-4737.2
17428	5.5128	5.0909	5.e-002	-6.7491
17429	5.5128	4.8182	0.	-4694.4
17430	5.4209	4.9091	0.	-4727.6
17431	5.5128	4.9091	5.e-002	-6.7529
17432	5.5128	4.6364	0.	-4685.9
17433	5.4209	4.7273	0.	-4718.5
17434	5.5128	4.7273	5.e-002	-6.7521
17435	5.5128	4.4545	0.	-4678.
17436	5.4209	4.5455	0.	-4709.9
17437	5.5128	4.5455	5.e-002	-6.7476
17438	5.5128	4.2727	0.	-4670.8
17439	5.4209	4.3636	0.	-4702.
17440	5.5128	4.3636	5.e-002	-6.7404
17441	5.5128	4.0909	0.	-4664.3
17442	5.4209	4.1818	0.	-4694.9
17443	5.5128	4.1818	5.e-002	-6.7314
17444	5.5128	3.9091	0.	-4658.7
17445	5.4209	4.	0.	-4688.6
17446	5.5128	4.	5.e-002	-6.7215
17447	5.5128	3.7273	0.	-4654.1
17448	5.4209	3.8182	0.	-4683.3
17449	5.5128	3.8182	5.e-002	-6.7116
17450	5.5128	3.5455	0.	-4650.4
17451	5.4209	3.6364	0.	-4678.9
17452	5.5128	3.6364	5.e-002	-6.7026
17453	5.5128	3.3636	0.	-4647.7
17454	5.4209	3.4545	0.	-4675.6
17455	5.5128	3.4545	5.e-002	-6.695
17456	5.5128	3.1818	0.	-4646.1
17457	5.4209	3.2727	0.	-4673.4
17458	5.5128	3.2727	5.e-002	-6.6898
17459	5.5128	3.	0.	-4645.6
17460	5.4209	3.0909	0.	-4672.3
17461	5.5128	3.0909	5.e-002	-6.6869
17462	5.5128	2.8182	0.	-4646.1
17463	5.4209	2.9091	0.	-4672.3
17464	5.5128	2.9091	5.e-002	-6.687
17465	5.5128	2.6364	0.	-4647.7
17466	5.4209	2.7273	0.	-4673.4
17467	5.5128	2.7273	5.e-002	-6.6898
17468	5.5128	2.4545	0.	-4650.4
17469	5.4209	2.5455	0.	-4675.6
17470	5.5128	2.5455	5.e-002	-6.695
17471	5.5128	2.2727	0.	-4654.1
17472	5.4209	2.3636	0.	-4678.9
17473	5.5128	2.3636	5.e-002	-6.7026
17474	5.5128	2.0909	0.	-4658.7
17475	5.4209	2.1818	0.	-4683.3
17476	5.5128	2.1818	5.e-002	-6.7116
17477	5.5128	1.9091	0.	-4664.3
17478	5.4209	2.	0.	-4688.6
17479	5.5128	2.	5.e-002	-6.7215
17480	5.5128	1.7273	0.	-4670.8
17481	5.4209	1.8182	0.	-4694.9
17482	5.5128	1.8182	5.e-002	-6.7315
17483	5.5128	1.5455	0.	-4678.
17484	5.4209	1.6364	0.	-4702.
17485	5.5128	1.6364	5.e-002	-6.7405
17486	5.5128	1.3636	0.	-4685.9
17487	5.4209	1.4545	0.	-4709.9
17488	5.5128	1.4545	5.e-002	-6.7476
17489	5.5128	1.1818	0.	-4694.4
17490	5.4209	1.2727	0.	-4718.5
17491	5.5128	1.2727	5.e-002	-6.7521
17492	5.5128	1.	0.	-4703.4
17493	5.4209	1.0909	0.	-4727.6
17494	5.5128	1.0909	5.e-002	-6.7529
17495	5.5128	0.81818	0.	-4712.9
17496	5.4209	0.90909	0.	-4737.2
17497	5.5128	0.90909	5.e-002	-6.7492
17498	5.5128	0.63636	0.	-4722.7
17499	5.4209	0.72727	0.	-4747.2
17500	5.5128	0.72727	5.e-002	-6.7402
17501	5.5128	0.45455	0.	-4732.6
17502	5.4209	0.54545	0.	-4757.5
17503	5.5128	0.54545	5.e-002	-6.723
17504	5.5128	0.27273	0.	-4742.9
17505	5.4209	0.36364	0.	-4768.
17506	5.5128	0.36364	5.e-002	-6.6567
17507	5.4209	0.18182	0.	-4778.8
17508	5.5128	0.18182	5.e-002	-5.9985
17509	5.5128	9.0909e-002	0.	-4751.9
17510	5.3291	5.7273	0.	-4803.9
17511	5.2372	5.8182	0.	-4840.5
17512	5.3291	5.8182	5.e-002	-6.5162
17513	5.3291	5.9091	0.	-4813.6
17514	5.3291	5.5455	0.	-4792.9
17515	5.2372	5.6364	0.	-4828.9
17516	5.3291	5.6364	5.e-002	-6.8145
17517	5.3291	5.3636	0.	-4782.1
17518	5.2372	5.4545	0.	-4817.6
17519	5.3291	5.4545	5.e-002	-6.8584
17520	5.3291	5.1818	0.	-4771.6
17521	5.2372	5.2727	0.	-4806.6
17522	5.3291	5.2727	5.e-002	-6.8744
17523	5.3291	5.	0.	-4761.4
17524	5.2372	5.0909	0.	-4795.8
17525	5.3291	5.0909	5.e-002	-6.8831
17526	5.3291	4.8182	0.	-4751.7
17527	5.2372	4.9091	0.	-4785.4
17528	5.3291	4.9091	5.e-002	-6.8859
17529	5.3291	4.6364	0.	-4742.5
17530	5.2372	4.7273	0.	-4775.6
17531	5.3291	4.7273	5.e-002	-6.8839
17532	5.3291	4.4545	0.	-4734.
17533	5.2372	4.5455	0.	-4766.3
17534	5.3291	4.5455	5.e-002	-6.8778
17535	5.3291	4.2727	0.	-4726.2
17536	5.2372	4.3636	0.	-4757.8
17537	5.3291	4.3636	5.e-002	-6.8686
17538	5.3291	4.0909	0.	-4719.3
17539	5.2372	4.1818	0.	-4750.2
17540	5.3291	4.1818	5.e-002	-6.8575
17541	5.3291	3.9091	0.	-4713.2
17542	5.2372	4.	0.	-4743.4
17543	5.3291	4.	5.e-002	-6.8454
17544	5.3291	3.7273	0.	-4708.2
17545	5.2372	3.8182	0.	-4737.6
17546	5.3291	3.8182	5.e-002	-6.8335
17547	5.3291	3.5455	0.	-4704.2
17548	5.2372	3.6364	0.	-4732.9
17549	5.3291	3.6364	5.e-002	-6.8226
17550	5.3291	3.3636	0.	-4701.3
17551	5.2372	3.4545	0.	-4729.4
17552	5.3291	3.4545	5.e-002	-6.8137
17553	5.3291	3.1818	0.	-4699.6
17554	5.2372	3.2727	0.	-4726.9
17555	5.3291	3.2727	5.e-002	-6.8073
17556	5.3291	3.	0.	-4699.
17557	5.2372	3.0909	0.	-4725.7
17558	5.3291	3.0909	5.e-002	-6.804
17559	5.3291	2.8182	0.	-4699.6
17560	5.2372	2.9091	0.	-4725.7
17561	5.3291	2.9091	5.e-002	-6.804
17562	5.3291	2.6364	0.	-4701.3
17563	5.2372	2.7273	0.	-4726.9
17564	5.3291	2.7273	5.e-002	-6.8073
17565	5.3291	2.4545	0.	-4704.2
17566	5.2372	2.5455	0.	-4729.4
17567	5.3291	2.5455	5.e-002	-6.8137
17568	5.3291	2.2727	0.	-4708.2
17569	5.2372	2.3636	0.	-4732.9
17570	5.3291	2.3636	5.e-002	-6.8226
17571	5.3291	2.0909	0.	-4713.2
17572	5.2372	2.1818	0.	-4737.6
17573	5.3291	2.1818	5.e-002	-6.8335
17574	5.3291	1.9091	0.	-4719.3
17575	5.2372	2.	0.	-4743.4
17576	5.3291	2.	5.e-002	-6.8453
17577	5.3291	1.7273	0.	-4726.2
17578	5.2372	1.8182	0.	-4750.2
17579	5.3291	1.8182	5.e-002	-6.8575
17580	5.3291	1.5455	0.	-4734.
17581	5.2372	1.6364	0.	-4757.8
17582	5.3291	1.6364	5.e-002	-6.8686
17583	5.3291	1.3636	0.	-4742.5
17584	5.2372	1.4545	0.	-4766.3
17585	5.3291	1.4545	5.e-002	-6.8779
17586	5.3291	1.1818	0.	-4751.7
17587	5.2372	1.2727	0.	-4775.6
17588	5.3291	1.2727	5.e-002	-6.884
17589	5.3291	1.	0.	-4761.4
17590	5.2372	1.0909	0.	-4785.4
17591	5.3291	1.0909	5.e-002	-6.886
17592	5.3291	0.81818	0.	-4771.6
17593	5.2372	0.90909	0.	-4795.8
17594	5.3291	0.90909	5.e-002	-6.8831
17595	5.3291	0.63636	0.	-4782.1
17596	5.2372	0.72727	0.	-4806.6
17597	5.3291	0.72727	5.e-002	-6.8744
17598	5.3291	0.45455	0.	-4792.9
17599	5.2372	0.54545	0.	-4817.6
17600	5.3291	0.54545	5.e-002	-6.8584
17601	5.3291	0.27273	0.	-4803.9
17602	5.2372	0.36364	0.	-4828.9
17603	5.3291	0.36364	5.e-002	-6.8146
17604	5.2372	0.18182	0.	-4840.5
17605	5.3291	0.18182	5.e-002	-6.5163
17606	5.3291	9.0909e-002	0.	-4813.6
17607	5.1453	5.7273	0.	-4865.5
17608	5.0534	5.8182	0.	-4902.8
17609	5.1453	5.8182	5.e-002	-7.0735
17610	5.1453	5.9091	0.	-4875.9
17611	5.1453	5.5455	0.	-4853.6
17612	5.0534	5.6364	0.	-4890.3
17613	5.1453	5.6364	5.e-002	-6.9855
17614	5.1453	5.3636	0.	-4842.1
17615	5.0534	5.4545	0.	-4878.2
17616	5.1453	5.4545	5.e-002	-7.0058
17617	5.1453	5.1818	0.	-4830.8
17618	5.0534	5.2727	0.	-4866.3
17619	5.1453	5.2727	5.e-002	-7.0206
17620	5.1453	5.	0.	-4819.8
17621	5.0534	5.0909	0.	-4854.7
17622	5.1453	5.0909	5.e-002	-7.0291
17623	5.1453	4.8182	0.	-4809.3
17624	5.0534	4.9091	0.	-4843.6
17625	5.1453	4.9091	5.e-002	-7.0312
17626	5.1453	4.6364	0.	-4799.4
17627	5.0534	4.7273	0.	-4833.
17628	5.1453	4.7273	5.e-002	-7.0279
17629	5.1453	4.4545	0.	-4790.2
17630	5.0534	4.5455	0.	-4823.
17631	5.1453	4.5455	5.e-002	-7.0199
17632	5.1453	4.2727	0.	-4781.8
17633	5.0534	4.3636	0.	-4813.9
17634	5.1453	4.3636	5.e-002	-7.0086
17635	5.1453	4.0909	0.	-4774.3
17636	5.0534	4.1818	0.	-4805.6
17637	5.1453	4.1818	5.e-002	-6.9952
17638	5.1453	3.9091	0.	-4767.8
17639	5.0534	4.	0.	-4798.3
17640	5.1453	4.	5.e-002	-6.9807
17641	5.1453	3.7273	0.	-4762.4
17642	5.0534	3.8182	0.	-4792.1
17643	5.1453	3.8182	5.e-002	-6.9665
17644	5.1453	3.5455	0.	-4758.1
17645	5.0534	3.6364	0.	-4787.
17646	5.1453	3.6364	5.e-002	-6.9537
17647	5.1453	3.3636	0.	-4755.
17648	5.0534	3.4545	0.	-4783.2
17649	5.1453	3.4545	5.e-002	-6.9431
17650	5.1453	3.1818	0.	-4753.1
17651	5.0534	3.2727	0.	-4780.6
17652	5.1453	3.2727	5.e-002	-6.9357
17653	5.1453	3.	0.	-4752.5
17654	5.0534	3.0909	0.	-4779.3
17655	5.1453	3.0909	5.e-002	-6.9318
17656	5.1453	2.8182	0.	-4753.1
17657	5.0534	2.9091	0.	-4779.3
17658	5.1453	2.9091	5.e-002	-6.9318
17659	5.1453	2.6364	0.	-4755.
17660	5.0534	2.7273	0.	-4780.6
17661	5.1453	2.7273	5.e-002	-6.9357
17662	5.1453	2.4545	0.	-4758.1
17663	5.0534	2.5455	0.	-4783.2
17664	5.1453	2.5455	5.e-002	-6.9431
17665	5.1453	2.2727	0.	-4762.4
17666	5.0534	2.3636	0.	-4787.
17667	5.1453	2.3636	5.e-002	-6.9537
17668	5.1453	2.0909	0.	-4767.8
17669	5.0534	2.1818	0.	-4792.1
17670	5.1453	2.1818	5.e-002	-6.9665
17671	5.1453	1.9091	0.	-4774.3
17672	5.0534	2.	0.	-4798.3
17673	5.1453	2.	5.e-002	-6.9807
17674	5.1453	1.7273	0.	-4781.8
17675	5.0534	1.8182	0.	-4805.6
17676	5.1453	1.8182	5.e-002	-6.9951
17677	5.1453	1.5455	0.	-4790.2
17678	5.0534	1.6364	0.	-4813.9
17679	5.1453	1.6364	5.e-002	-7.0087
17680	5.1453	1.3636	0.	-4799.4
17681	5.0534	1.4545	0.	-4823.
17682	5.1453	1.4545	5.e-002	-7.02
17683	5.1453	1.1818	0.	-4809.3
17684	5.0534	1.2727	0.	-4833.
17685	5.1453	1.2727	5.e-002	-7.0279
17686	5.1453	1.	0.	-4819.8
17687	5.0534	1.0909	0.	-4843.6
17688	5.1453	1.0909	5.e-002	-7.0313
17689	5.1453	0.81818	0.	-4830.8
17690	5.0534	0.90909	0.	-4854.7
17691	5.1453	0.90909	5.e-002	-7.0291
17692	5.1453	0.63636	0.	-4842.1
17693	5.0534	0.72727	0.	-4866.3
17694	5.1453	0.72727	5.e-002	-7.0206
17695	5.1453	0.45455	0.	-4853.6
17696	5.0534	0.54545	0.	-4878.2
17697	5.1453	0.54545	5.e-002	-7.0059
17698	5.1453	0.27273	0.	-4865.5
17699	5.0534	0.36364	0.	-4890.3
17700	5.1453	0.36364	5.e-002	-6.9855
17701	5.0534	0.18182	0.	-4902.8
17702	5.1453	0.18182	5.e-002	-7.0736
17703	5.1453	9.0909e-002	0.	-4875.9
17704	4.9615	5.7273	0.	-4927.6
17705	4.8697	5.8182	0.	-4965.7
17706	4.9615	5.8182	5.e-002	-7.6728
17707	4.9615	5.9091	0.	-4938.8
17708	4.9615	5.5455	0.	-4914.9
17709	4.8697	5.6364	0.	-4952.3
17710	4.9615	5.6364	5.e-002	-7.1708
17711	4.9615	5.3636	0.	-4902.5
17712	4.8697	5.4545	0.	-4939.3
17713	4.9615	5.4545	5.e-002	-7.1664
17714	4.9615	5.1818	0.	-4890.3
17715	4.8697	5.2727	0.	-4926.5
17716	4.9615	5.2727	5.e-002	-7.1802
17717	4.9615	5.	0.	-4878.5
17718	4.8697	5.0909	0.	-4914.
17719	4.9615	5.0909	5.e-002	-7.1886
17720	4.9615	4.8182	0.	-4867.2
17721	4.8697	4.9091	0.	-4902.
17722	4.9615	4.9091	5.e-002	-7.1901
17723	4.9615	4.6364	0.	-4856.6
17724	4.8697	4.7273	0.	-4890.6
17725	4.9615	4.7273	5.e-002	-7.1854
17726	4.9615	4.4545	0.	-4846.7
17727	4.8697	4.5455	0.	-4879.9
17728	4.9615	4.5455	5.e-002	-7.1756
17729	4.9615	4.2727	0.	-4837.6
17730	4.8697	4.3636	0.	-4870.1
17731	4.9615	4.3636	5.e-002	-7.162
17732	4.9615	4.0909	0.	-4829.6
17733	4.8697	4.1818	0.	-4861.2
17734	4.9615	4.1818	5.e-002	-7.1461
17735	4.9615	3.9091	0.	-4822.6
17736	4.8697	4.	0.	-4853.4
17737	4.9615	4.	5.e-002	-7.1291
17738	4.9615	3.7273	0.	-4816.7
17739	4.8697	3.8182	0.	-4846.7
17740	4.9615	3.8182	5.e-002	-7.1124
17741	4.9615	3.5455	0.	-4812.1
17742	4.8697	3.6364	0.	-4841.2
17743	4.9615	3.6364	5.e-002	-7.0974
17744	4.9615	3.3636	0.	-4808.7
17745	4.8697	3.4545	0.	-4837.1
17746	4.9615	3.4545	5.e-002	-7.0851
17747	4.9615	3.1818	0.	-4806.7
17748	4.8697	3.2727	0.	-4834.3
17749	4.9615	3.2727	5.e-002	-7.0764
17750	4.9615	3.	0.	-4806.
17751	4.8697	3.0909	0.	-4832.9
17752	4.9615	3.0909	5.e-002	-7.0719
17753	4.9615	2.8182	0.	-4806.7
17754	4.8697	2.9091	0.	-4832.9
17755	4.9615	2.9091	5.e-002	-7.0719
17756	4.9615	2.6364	0.	-4808.7
17757	4.8697	2.7273	0.	-4834.3
17758	4.9615	2.7273	5.e-002	-7.0764
17759	4.9615	2.4545	0.	-4812.1
17760	4.8697	2.5455	0.	-4837.1
17761	4.9615	2.5455	5.e-002	-7.0851
17762	4.9615	2.2727	0.	-4816.7
17763	4.8697	2.3636	0.	-4841.2
17764	4.9615	2.3636	5.e-002	-7.0974
17765	4.9615	2.0909	0.	-4822.6
17766	4.8697	2.1818	0.	-4846.7
17767	4.9615	2.1818	5.e-002	-7.1124
17768	4.9615	1.9091	0.	-4829.6
17769	4.8697	2.	0.	-4853.4
17770	4.9615	2.	5.e-002	-7.1291
17771	4.9615	1.7273	0.	-4837.6
17772	4.8697	1.8182	0.	-4861.2
17773	4.9615	1.8182	5.e-002	-7.1461
17774	4.9615	1.5455	0.	-4846.7
17775	4.8697	1.6364	0.	-4870.1
17776	4.9615	1.6364	5.e-002	-7.1621
17777	4.9615	1.3636	0.	-4856.6
17778	4.8697	1.4545	0.	-4879.9
17779	4.9615	1.4545	5.e-002	-7.1757
17780	4.9615	1.1818	0.	-4867.2
17781	4.8697	1.2727	0.	-4890.6
17782	4.9615	1.2727	5.e-002	-7.1854
17783	4.9615	1.	0.	-4878.5
17784	4.8697	1.0909	0.	-4902.
17785	4.9615	1.0909	5.e-002	-7.1901
17786	4.9615	0.81818	0.	-4890.3
17787	4.8697	0.90909	0.	-4914.
17788	4.9615	0.90909	5.e-002	-7.1886
17789	4.9615	0.63636	0.	-4902.5
17790	4.8697	0.72727	0.	-4926.5
17791	4.9615	0.72727	5.e-002	-7.1802
17792	4.9615	0.45455	0.	-4914.9
17793	4.8697	0.54545	0.	-4939.3
17794	4.9615	0.54545	5.e-002	-7.1664
17795	4.9615	0.27273	0.	-4927.6
17796	4.8697	0.36364	0.	-4952.3
17797	4.9615	0.36364	5.e-002	-7.1709
17798	4.8697	0.18182	0.	-4965.7
17799	4.9615	0.18182	5.e-002	-7.6728
17800	4.9615	9.0909e-002	0.	-4938.8
17801	4.7778	5.7273	0.	-4990.4
17802	4.6859	5.8182	0.	-5029.3
17803	4.7778	5.8182	5.e-002	-8.3164
17804	4.7778	5.9091	0.	-5002.3
17805	4.7778	5.5455	0.	-4976.7
17806	4.6859	5.6364	0.	-5014.9
17807	4.7778	5.6364	5.e-002	-7.3713
17808	4.7778	5.3636	0.	-4963.4
17809	4.6859	5.4545	0.	-5000.9
17810	4.7778	5.4545	5.e-002	-7.3412
17811	4.7778	5.1818	0.	-4950.3
17812	4.6859	5.2727	0.	-4987.1
17813	4.7778	5.2727	5.e-002	-7.3543
17814	4.7778	5.	0.	-4937.6
17815	4.6859	5.0909	0.	-4973.8
17816	4.7778	5.0909	5.e-002	-7.363
17817	4.7778	4.8182	0.	-4925.5
17818	4.6859	4.9091	0.	-4960.9
17819	4.7778	4.9091	5.e-002	-7.364
17820	4.7778	4.6364	0.	-4914.
17821	4.6859	4.7273	0.	-4948.6
17822	4.7778	4.7273	5.e-002	-7.358
17823	4.7778	4.4545	0.	-4903.4
17824	4.6859	4.5455	0.	-4937.1
17825	4.7778	4.5455	5.e-002	-7.3464
17826	4.7778	4.2727	0.	-4893.7
17827	4.6859	4.3636	0.	-4926.6
17828	4.7778	4.3636	5.e-002	-7.3305
17829	4.7778	4.0909	0.	-4885.
17830	4.6859	4.1818	0.	-4917.
17831	4.7778	4.1818	5.e-002	-7.3119
17832	4.7778	3.9091	0.	-4877.5
17833	4.6859	4.	0.	-4908.6
17834	4.7778	4.	5.e-002	-7.2922
17835	4.7778	3.7273	0.	-4871.2
17836	4.6859	3.8182	0.	-4901.4
17837	4.7778	3.8182	5.e-002	-7.2729
17838	4.7778	3.5455	0.	-4866.2
17839	4.6859	3.6364	0.	-4895.6
17840	4.7778	3.6364	5.e-002	-7.2556
17841	4.7778	3.3636	0.	-4862.6
17842	4.6859	3.4545	0.	-4891.1
17843	4.7778	3.4545	5.e-002	-7.2414
17844	4.7778	3.1818	0.	-4860.4
17845	4.6859	3.2727	0.	-4888.1
17846	4.7778	3.2727	5.e-002	-7.2314
17847	4.7778	3.	0.	-4859.7
17848	4.6859	3.0909	0.	-4886.6
17849	4.7778	3.0909	5.e-002	-7.2262
17850	4.7778	2.8182	0.	-4860.4
17851	4.6859	2.9091	0.	-4886.6
17852	4.7778	2.9091	5.e-002	-7.2262
17853	4.7778	2.6364	0.	-4862.6
17854	4.6859	2.7273	0.	-4888.1
17855	4.7778	2.7273	5.e-002	-7.2314
17856	4.7778	2.4545	0.	-4866.2
17857	4.6859	2.5455	0.	-4891.1
17858	4.7778	2.5455	5.e-002	-7.2414
17859	4.7778	2.2727	0.	-4871.2
17860	4.6859	2.3636	0.	-4895.6
17861	4.7778	2.3636	5.e-002	-7.2556
17862	4.7778	2.0909	0.	-4877.5
17863	4.6859	2.1818	0.	-4901.4
17864	4.7778	2.1818	5.e-002	-7.273
17865	4.7778	1.9091	0.	-4885.
17866	4.6859	2.	0.	-4908.6
17867	4.7778	2.	5.e-002	-7.2922
17868	4.7778	1.7273	0.	-4893.7
17869	4.6859	1.8182	0.	-4917.
17870	4.7778	1.8182	5.e-002	-7.3119
17871	4.7778	1.5455	0.	-4903.4
17872	4.6859	1.6364	0.	-4926.6
17873	4.7778	1.6364	5.e-002	-7.3306
17874	4.7778	1.3636	0.	-4914.
17875	4.6859	1.4545	0.	-4937.1
17876	4.7778	1.4545	5.e-002	-7.3464
17877	4.7778	1.1818	0.	-4925.5
17878	4.6859	1.2727	0.	-4948.6
17879	4.7778	1.2727	5.e-002	-7.3581
17880	4.7778	1.	0.	-4937.6
17881	4.6859	1.0909	0.	-4960.9
17882	4.7778	1.0909	5.e-002	-7.3641
17883	4.7778	0.81818	0.	-4950.3
17884	4.6859	0.90909	0.	-4973.8
17885	4.7778	0.90909	5.e-002	-7.363
17886	4.7778	0.63636	0.	-4963.4
17887	4.6859	0.72727	0.	-4987.1
17888	4.7778	0.72727	5.e-002	-7.3543
17889	4.7778	0.45455	0.	-4976.7
17890	4.6859	0.54545	0.	-5000.9
17891	4.7778	0.54545	5.e-002	-7.3412
17892	4.7778	0.27273	0.	-4990.4
17893	4.6859	0.36364	0.	-5014.9
17894	4.7778	0.36364	5.e-002	-7.3714
17895	4.6859	0.18182	0.	-5029.3
17896	4.7778	0.18182	5.e-002	-8.3165
17897	4.7778	9.0909e-002	0.	-5002.3
17898	4.594	5.7273	0.	-5053.8
17899	4.5021	5.8182	0.	-5093.6
17900	4.594	5.8182	5.e-002	-9.0068
17901	4.594	5.9091	0.	-5066.4
17902	4.594	5.5455	0.	-5039.1
17903	4.5021	5.6364	0.	-5078.
17904	4.594	5.6364	5.e-002	-7.588
17905	4.594	5.3636	0.	-5024.7
17906	4.5021	5.4545	0.	-5063.
17907	4.594	5.4545	5.e-002	-7.5315
17908	4.594	5.1818	0.	-5010.7
17909	4.5021	5.2727	0.	-5048.2
17910	4.594	5.2727	5.e-002	-7.5444
17911	4.594	5.	0.	-4997.
17912	4.5021	5.0909	0.	-5033.9
17913	4.594	5.0909	5.e-002	-7.5538
17914	4.594	4.8182	0.	-4984.
17915	4.5021	4.9091	0.	-5020.
17916	4.594	4.9091	5.e-002	-7.5546
17917	4.594	4.6364	0.	-4971.7
17918	4.5021	4.7273	0.	-5006.9
17919	4.594	4.7273	5.e-002	-7.5477
17920	4.594	4.4545	0.	-4960.3
17921	4.5021	4.5455	0.	-4994.6
17922	4.594	4.5455	5.e-002	-7.5342
17923	4.594	4.2727	0.	-4949.9
17924	4.5021	4.3636	0.	-4983.3
17925	4.594	4.3636	5.e-002	-7.516
17926	4.594	4.0909	0.	-4940.6
17927	4.5021	4.1818	0.	-4973.
17928	4.594	4.1818	5.e-002	-7.4946
17929	4.594	3.9091	0.	-4932.5
17930	4.5021	4.	0.	-4964.
17931	4.594	4.	5.e-002	-7.4721
17932	4.594	3.7273	0.	-4925.8
17933	4.5021	3.8182	0.	-4956.4
17934	4.594	3.8182	5.e-002	-7.4501
17935	4.594	3.5455	0.	-4920.5
17936	4.5021	3.6364	0.	-4950.1
17937	4.594	3.6364	5.e-002	-7.4304
17938	4.594	3.3636	0.	-4916.6
17939	4.5021	3.4545	0.	-4945.4
17940	4.594	3.4545	5.e-002	-7.4142
17941	4.594	3.1818	0.	-4914.3
17942	4.5021	3.2727	0.	-4942.2
17943	4.594	3.2727	5.e-002	-7.4028
17944	4.594	3.	0.	-4913.5
17945	4.5021	3.0909	0.	-4940.6
17946	4.594	3.0909	5.e-002	-7.3969
17947	4.594	2.8182	0.	-4914.3
17948	4.5021	2.9091	0.	-4940.6
17949	4.594	2.9091	5.e-002	-7.3969
17950	4.594	2.6364	0.	-4916.6
17951	4.5021	2.7273	0.	-4942.2
17952	4.594	2.7273	5.e-002	-7.4028
17953	4.594	2.4545	0.	-4920.5
17954	4.5021	2.5455	0.	-4945.4
17955	4.594	2.5455	5.e-002	-7.4142
17956	4.594	2.2727	0.	-4925.8
17957	4.5021	2.3636	0.	-4950.1
17958	4.594	2.3636	5.e-002	-7.4304
17959	4.594	2.0909	0.	-4932.5
17960	4.5021	2.1818	0.	-4956.4
17961	4.594	2.1818	5.e-002	-7.4501
17962	4.594	1.9091	0.	-4940.6
17963	4.5021	2.	0.	-4964.
17964	4.594	2.	5.e-002	-7.4721
17965	4.594	1.7273	0.	-4949.9
17966	4.5021	1.8182	0.	-4973.
17967	4.594	1.8182	5.e-002	-7.4946
17968	4.594	1.5455	0.	-4960.3
17969	4.5021	1.6364	0.	-4983.3
17970	4.594	1.6364	5.e-002	-7.516
17971	4.594	1.3636	0.	-4971.7
17972	4.5021	1.4545	0.	-4994.6
17973	4.594	1.4545	5.e-002	-7.5342
17974	4.594	1.1818	0.	-4984.
17975	4.5021	1.2727	0.	-5006.9
17976	4.594	1.2727	5.e-002	-7.5477
17977	4.594	1.	0.	-4997.
17978	4.5021	1.0909	0.	-5020.
17979	4.594	1.0909	5.e-002	-7.5546
17980	4.594	0.81818	0.	-5010.7
17981	4.5021	0.90909	0.	-5033.9
17982	4.594	0.90909	5.e-002	-7.5539
17983	4.594	0.63636	0.	-5024.7
17984	4.5021	0.72727	0.	-5048.2
17985	4.594	0.72727	5.e-002	-7.5444
17986	4.594	0.45455	0.	-5039.1
17987	4.5021	0.54545	0.	-5063.
17988	4.594	0.54545	5.e-002	-7.5316
17989	4.594	0.27273	0.	-5053.8
17990	4.5021	0.36364	0.	-5078.
17991	4.594	0.36364	5.e-002	-7.5881
17992	4.5021	0.18182	0.	-5093.6
17993	4.594	0.18182	5.e-002	-9.0069
17994	4.594	9.0909e-002	0.	-5066.4
17995	4.4103	5.7273	0.	-5117.8
17996	4.3184	5.8182	0.	-5158.5
17997	4.4103	5.8182	5.e-002	-9.7464
17998	4.4103	5.9091	0.	-5131.
17999	4.4103	5.5455	0.	-5101.9
18000	4.3184	5.6364	0.	-5141.7
18001	4.4103	5.6364	5.e-002	-7.822
18002	4.4103	5.3636	0.	-5086.5
18003	4.3184	5.4545	0.	-5125.6
18004	4.4103	5.4545	5.e-002	-7.7387
18005	4.4103	5.1818	0.	-5071.5
18006	4.3184	5.2727	0.	-5109.7
18007	4.4103	5.2727	5.e-002	-7.752
18008	4.4103	5.	0.	-5056.9
18009	4.3184	5.0909	0.	-5094.3
18010	4.4103	5.0909	5.e-002	-7.7627
18011	4.4103	4.8182	0.	-5042.9
18012	4.3184	4.9091	0.	-5079.5
18013	4.4103	4.9091	5.e-002	-7.7639
18014	4.4103	4.6364	0.	-5029.8
18015	4.3184	4.7273	0.	-5065.5
18016	4.4103	4.7273	5.e-002	-7.7562
18017	4.4103	4.4545	0.	-5017.5
18018	4.3184	4.5455	0.	-5052.3
18019	4.4103	4.5455	5.e-002	-7.7411
18020	4.4103	4.2727	0.	-5006.4
18021	4.3184	4.3636	0.	-5040.2
18022	4.4103	4.3636	5.e-002	-7.7206
18023	4.4103	4.0909	0.	-4996.5
18024	4.3184	4.1818	0.	-5029.3
18025	4.4103	4.1818	5.e-002	-7.6965
18026	4.4103	3.9091	0.	-4987.8
18027	4.3184	4.	0.	-5019.7
18028	4.4103	4.	5.e-002	-7.6712
18029	4.4103	3.7273	0.	-4980.7
18030	4.3184	3.8182	0.	-5011.6
18031	4.4103	3.8182	5.e-002	-7.6464
18032	4.4103	3.5455	0.	-4975.
18033	4.3184	3.6364	0.	-5004.9
18034	4.4103	3.6364	5.e-002	-7.6242
18035	4.4103	3.3636	0.	-4970.9
18036	4.3184	3.4545	0.	-4999.8
18037	4.4103	3.4545	5.e-002	-7.606
18038	4.4103	3.1818	0.	-4968.4
18039	4.3184	3.2727	0.	-4996.4
18040	4.4103	3.2727	5.e-002	-7.5932
18041	4.4103	3.	0.	-4967.6
18042	4.3184	3.0909	0.	-4994.7
18043	4.4103	3.0909	5.e-002	-7.5866
18044	4.4103	2.8182	0.	-4968.4
18045	4.3184	2.9091	0.	-4994.7
18046	4.4103	2.9091	5.e-002	-7.5866
18047	4.4103	2.6364	0.	-4970.9
18048	4.3184	2.7273	0.	-4996.4
18049	4.4103	2.7273	5.e-002	-7.5932
18050	4.4103	2.4545	0.	-4975.
18051	4.3184	2.5455	0.	-4999.8
18052	4.4103	2.5455	5.e-002	-7.606
18053	4.4103	2.2727	0.	-4980.7
18054	4.3184	2.3636	0.	-5004.9
18055	4.4103	2.3636	5.e-002	-7.6242
18056	4.4103	2.0909	0.	-4987.8
18057	4.3184	2.1818	0.	-5011.6
18058	4.4103	2.1818	5.e-002	-7.6465
18059	4.4103	1.9091	0.	-4996.5
18060	4.3184	2.	0.	-5019.7
18061	4.4103	2.	5.e-002	-7.6712
18062	4.4103	1.7273	0.	-5006.4
18063	4.3184	1.8182	0.	-5029.3
18064	4.4103	1.8182	5.e-002	-7.6966
18065	4.4103	1.5455	0.	-5017.5
18066	4.3184	1.6364	0.	-5040.2
18067	4.4103	1.6364	5.e-002	-7.7206
18068	4.4103	1.3636	0.	-5029.8
18069	4.3184	1.4545	0.	-5052.3
18070	4.4103	1.4545	5.e-002	-7.7412
18071	4.4103	1.1818	0.	-5042.9
18072	4.3184	1.2727	0.	-5065.5
18073	4.4103	1.2727	5.e-002	-7.7562
18074	4.4103	1.	0.	-5056.9
18075	4.3184	1.0909	0.	-5079.5
18076	4.4103	1.0909	5.e-002	-7.7639
18077	4.4103	0.81818	0.	-5071.5
18078	4.3184	0.90909	0.	-5094.3
18079	4.4103	0.90909	5.e-002	-7.7628
18080	4.4103	0.63636	0.	-5086.5
18081	4.3184	0.72727	0.	-5109.7
18082	4.4103	0.72727	5.e-002	-7.7521
18083	4.4103	0.45455	0.	-5101.9
18084	4.3184	0.54545	0.	-5125.6
18085	4.4103	0.54545	5.e-002	-7.7387
18086	4.4103	0.27273	0.	-5117.8
18087	4.3184	0.36364	0.	-5141.7
18088	4.4103	0.36364	5.e-002	-7.822
18089	4.3184	0.18182	0.	-5158.5
18090	4.4103	0.18182	5.e-002	-9.7464
18091	4.4103	9.0909e-002	0.	-5131.
18092	4.2265	5.7273	0.	-5182.4
18093	4.1346	5.8182	0.	-5224.1
18094	4.2265	5.8182	5.e-002	-10.537
18095	4.2265	5.9091	0.	-5196.3
18096	4.2265	5.5455	0.	-5165.3
18097	4.1346	5.6364	0.	-5205.9
18098	4.2265	5.6364	5.e-002	-8.0741
18099	4.2265	5.3636	0.	-5148.8
18100	4.1346	5.4545	0.	-5188.6
18101	4.2265	5.4545	5.e-002	-7.9642
18102	4.2265	5.1818	0.	-5132.7
18103	4.1346	5.2727	0.	-5171.7
18104	4.2265	5.2727	5.e-002	-7.979
18105	4.2265	5.	0.	-5117.1
18106	4.1346	5.0909	0.	-5155.2
18107	4.2265	5.0909	5.e-002	-7.9919
18108	4.2265	4.8182	0.	-5102.1
18109	4.1346	4.9091	0.	-5139.4
18110	4.2265	4.9091	5.e-002	-7.994
18111	4.2265	4.6364	0.	-5088.1
18112	4.1346	4.7273	0.	-5124.4
18113	4.2265	4.7273	5.e-002	-7.986
18114	4.2265	4.4545	0.	-5075.1
18115	4.1346	4.5455	0.	-5110.4
18116	4.2265	4.5455	5.e-002	-7.9696
18117	4.2265	4.2727	0.	-5063.2
18118	4.1346	4.3636	0.	-5097.5
18119	4.2265	4.3636	5.e-002	-7.9469
18120	4.2265	4.0909	0.	-5052.6
18121	4.1346	4.1818	0.	-5085.9
18122	4.2265	4.1818	5.e-002	-7.9204
18123	4.2265	3.9091	0.	-5043.4
18124	4.1346	4.	0.	-5075.7
18125	4.2265	4.	5.e-002	-7.8921
18126	4.2265	3.7273	0.	-5035.8
18127	4.1346	3.8182	0.	-5067.1
18128	4.2265	3.8182	5.e-002	-7.8647
18129	4.2265	3.5455	0.	-5029.8
18130	4.1346	3.6364	0.	-5060.
18131	4.2265	3.6364	5.e-002	-7.84
18132	4.2265	3.3636	0.	-5025.4
18133	4.1346	3.4545	0.	-5054.7
18134	4.2265	3.4545	5.e-002	-7.8198
18135	4.2265	3.1818	0.	-5022.8
18136	4.1346	3.2727	0.	-5051.1
18137	4.2265	3.2727	5.e-002	-7.8056
18138	4.2265	3.	0.	-5021.9
18139	4.1346	3.0909	0.	-5049.3
18140	4.2265	3.0909	5.e-002	-7.7983
18141	4.2265	2.8182	0.	-5022.8
18142	4.1346	2.9091	0.	-5049.3
18143	4.2265	2.9091	5.e-002	-7.7983
18144	4.2265	2.6364	0.	-5025.4
18145	4.1346	2.7273	0.	-5051.1
18146	4.2265	2.7273	5.e-002	-7.8056
18147	4.2265	2.4545	0.	-5029.8
18148	4.1346	2.5455	0.	-5054.7
18149	4.2265	2.5455	5.e-002	-7.8198
18150	4.2265	2.2727	0.	-5035.8
18151	4.1346	2.3636	0.	-5060.
18152	4.2265	2.3636	5.e-002	-7.84
18153	4.2265	2.0909	0.	-5043.4
18154	4.1346	2.1818	0.	-5067.1
18155	4.2265	2.1818	5.e-002	-7.8647
18156	4.2265	1.9091	0.	-5052.6
18157	4.1346	2.	0.	-5075.7
18158	4.2265	2.	5.e-002	-7.8921
18159	4.2265	1.7273	0.	-5063.2
18160	4.1346	1.8182	0.	-5085.9
18161	4.2265	1.8182	5.e-002	-7.9204
18162	4.2265	1.5455	0.	-5075.1
18163	4.1346	1.6364	0.	-5097.5
18164	4.2265	1.6364	5.e-002	-7.947
18165	4.2265	1.3636	0.	-5088.1
18166	4.1346	1.4545	0.	-5110.4
18167	4.2265	1.4545	5.e-002	-7.9697
18168	4.2265	1.1818	0.	-5102.1
18169	4.1346	1.2727	0.	-5124.4
18170	4.2265	1.2727	5.e-002	-7.986
18171	4.2265	1.	0.	-5117.1
18172	4.1346	1.0909	0.	-5139.4
18173	4.2265	1.0909	5.e-002	-7.9941
18174	4.2265	0.81818	0.	-5132.7
18175	4.1346	0.90909	0.	-5155.2
18176	4.2265	0.90909	5.e-002	-7.9919
18177	4.2265	0.63636	0.	-5148.8
18178	4.1346	0.72727	0.	-5171.7
18179	4.2265	0.72727	5.e-002	-7.979
18180	4.2265	0.45455	0.	-5165.3
18181	4.1346	0.54545	0.	-5188.6
18182	4.2265	0.54545	5.e-002	-7.9642
18183	4.2265	0.27273	0.	-5182.4
18184	4.1346	0.36364	0.	-5205.9
18185	4.2265	0.36364	5.e-002	-8.0742
18186	4.1346	0.18182	0.	-5224.1
18187	4.2265	0.18182	5.e-002	-10.537
18188	4.2265	9.0909e-002	0.	-5196.3
18189	4.0427	5.7273	0.	-5247.6
18190	3.9509	5.8182	0.	-5290.3
18191	4.0427	5.8182	5.e-002	-11.382
18192	4.0427	5.9091	0.	-5262.
18193	4.0427	5.5455	0.	-5229.2
18194	3.9509	5.6364	0.	-5270.5
18195	4.0427	5.6364	5.e-002	-8.3456
18196	4.0427	5.3636	0.	-5211.5
18197	3.9509	5.4545	0.	-5252.1
18198	4.0427	5.4545	5.e-002	-8.2096
18199	4.0427	5.1818	0.	-5194.3
18200	3.9509	5.2727	0.	-5234.
18201	4.0427	5.2727	5.e-002	-8.2272
18202	4.0427	5.	0.	-5177.6
18203	3.9509	5.0909	0.	-5216.4
18204	4.0427	5.0909	5.e-002	-8.2435
18205	4.0427	4.8182	0.	-5161.7
18206	3.9509	4.9091	0.	-5199.6
18207	4.0427	4.9091	5.e-002	-8.2474
18208	4.0427	4.6364	0.	-5146.7
18209	3.9509	4.7273	0.	-5183.6
18210	4.0427	4.7273	5.e-002	-8.2398
18211	4.0427	4.4545	0.	-5132.9
18212	3.9509	4.5455	0.	-5168.8
18213	4.0427	4.5455	5.e-002	-8.2225
18214	4.0427	4.2727	0.	-5120.3
18215	3.9509	4.3636	0.	-5155.1
18216	4.0427	4.3636	5.e-002	-8.198
18217	4.0427	4.0909	0.	-5109.1
18218	3.9509	4.1818	0.	-5142.9
18219	4.0427	4.1818	5.e-002	-8.169
18220	4.0427	3.9091	0.	-5099.4
18221	3.9509	4.	0.	-5132.1
18222	4.0427	4.	5.e-002	-8.1382
18223	4.0427	3.7273	0.	-5091.3
18224	3.9509	3.8182	0.	-5123.
18225	4.0427	3.8182	5.e-002	-8.1082
18226	4.0427	3.5455	0.	-5084.9
18227	3.9509	3.6364	0.	-5115.6
18228	4.0427	3.6364	5.e-002	-8.0813
18229	4.0427	3.3636	0.	-5080.3
18230	3.9509	3.4545	0.	-5110.
18231	4.0427	3.4545	5.e-002	-8.0593
18232	4.0427	3.1818	0.	-5077.5
18233	3.9509	3.2727	0.	-5106.2
18234	4.0427	3.2727	5.e-002	-8.0439
18235	4.0427	3.	0.	-5076.6
18236	3.9509	3.0909	0.	-5104.3
18237	4.0427	3.0909	5.e-002	-8.0359
18238	4.0427	2.8182	0.	-5077.5
18239	3.9509	2.9091	0.	-5104.3
18240	4.0427	2.9091	5.e-002	-8.0359
18241	4.0427	2.6364	0.	-5080.3
18242	3.9509	2.7273	0.	-5106.2
18243	4.0427	2.7273	5.e-002	-8.0439
18244	4.0427	2.4545	0.	-5084.9
18245	3.9509	2.5455	0.	-5110.
18246	4.0427	2.5455	5.e-002	-8.0593
18247	4.0427	2.2727	0.	-5091.3
18248	3.9509	2.3636	0.	-5115.6
18249	4.0427	2.3636	5.e-002	-8.0813
18250	4.0427	2.0909	0.	-5099.4
18251	3.9509	2.1818	0.	-5123.
18252	4.0427	2.1818	5.e-002	-8.1082
18253	4.0427	1.9091	0.	-5109.1
18254	3.9509	2.	0.	-5132.1
18255	4.0427	2.	5.e-002	-8.1382
18256	4.0427	1.7273	0.	-5120.3
18257	3.9509	1.8182	0.	-5142.9
18258	4.0427	1.8182	5.e-002	-8.169
18259	4.0427	1.5455	0.	-5132.9
18260	3.9509	1.6364	0.	-5155.1
18261	4.0427	1.6364	5.e-002	-8.198
18262	4.0427	1.3636	0.	-5146.7
18263	3.9509	1.4545	0.	-5168.8
18264	4.0427	1.4545	5.e-002	-8.2225
18265	4.0427	1.1818	0.	-5161.7
18266	3.9509	1.2727	0.	-5183.6
18267	4.0427	1.2727	5.e-002	-8.2398
18268	4.0427	1.	0.	-5177.6
18269	3.9509	1.0909	0.	-5199.6
18270	4.0427	1.0909	5.e-002	-8.2475
18271	4.0427	0.81818	0.	-5194.3
18272	3.9509	0.90909	0.	-5216.4
18273	4.0427	0.90909	5.e-002	-8.2435
18274	4.0427	0.63636	0.	-5211.5
18275	3.9509	0.72727	0.	-5234.
18276	4.0427	0.72727	5.e-002	-8.2273
18277	4.0427	0.45455	0.	-5229.2
18278	3.9509	0.54545	0.	-5252.1
18279	4.0427	0.54545	5.e-002	-8.2097
18280	4.0427	0.27273	0.	-5247.6
18281	3.9509	0.36364	0.	-5270.5
18282	4.0427	0.36364	5.e-002	-8.3457
18283	3.9509	0.18182	0.	-5290.3
18284	4.0427	0.18182	5.e-002	-11.382
18285	4.0427	9.0909e-002	0.	-5262.
18286	3.859	5.7273	0.	-5313.3
18287	3.7671	5.8182	0.	-5357.
18288	3.859	5.8182	5.e-002	-12.281
18289	3.859	5.9091	0.	-5328.2
18290	3.859	5.5455	0.	-5293.5
18291	3.7671	5.6364	0.	-5335.6
18292	3.859	5.6364	5.e-002	-8.6374
18293	3.859	5.3636	0.	-5274.6
18294	3.7671	5.4545	0.	-5315.9
18295	3.859	5.4545	5.e-002	-8.4769
18296	3.859	5.1818	0.	-5256.2
18297	3.7671	5.2727	0.	-5296.6
18298	3.859	5.2727	5.e-002	-8.4991
18299	3.859	5.	0.	-5238.4
18300	3.7671	5.0909	0.	-5277.9
18301	3.859	5.0909	5.e-002	-8.5202
18302	3.859	4.8182	0.	-5221.5
18303	3.7671	4.9091	0.	-5260.
18304	3.859	4.9091	5.e-002	-8.5271
18305	3.859	4.6364	0.	-5205.7
18306	3.7671	4.7273	0.	-5243.1
18307	3.859	4.7273	5.e-002	-8.5206
18308	3.859	4.4545	0.	-5191.
18309	3.7671	4.5455	0.	-5227.4
18310	3.859	4.5455	5.e-002	-8.503
18311	3.859	4.2727	0.	-5177.7
18312	3.7671	4.3636	0.	-5213.1
18313	3.859	4.3636	5.e-002	-8.4771
18314	3.859	4.0909	0.	-5165.9
18315	3.7671	4.1818	0.	-5200.2
18316	3.859	4.1818	5.e-002	-8.4461
18317	3.859	3.9091	0.	-5155.7
18318	3.7671	4.	0.	-5189.
18319	3.859	4.	5.e-002	-8.4131
18320	3.859	3.7273	0.	-5147.3
18321	3.7671	3.8182	0.	-5179.5
18322	3.859	3.8182	5.e-002	-8.3809
18323	3.859	3.5455	0.	-5140.6
18324	3.7671	3.6364	0.	-5171.7
18325	3.859	3.6364	5.e-002	-8.352
18326	3.859	3.3636	0.	-5135.8
18327	3.7671	3.4545	0.	-5165.9
18328	3.859	3.4545	5.e-002	-8.3286
18329	3.859	3.1818	0.	-5132.9
18330	3.7671	3.2727	0.	-5162.
18331	3.859	3.2727	5.e-002	-8.3121
18332	3.859	3.	0.	-5131.9
18333	3.7671	3.0909	0.	-5160.
18334	3.859	3.0909	5.e-002	-8.3036
18335	3.859	2.8182	0.	-5132.9
18336	3.7671	2.9091	0.	-5160.
18337	3.859	2.9091	5.e-002	-8.3036
18338	3.859	2.6364	0.	-5135.8
18339	3.7671	2.7273	0.	-5162.
18340	3.859	2.7273	5.e-002	-8.3122
18341	3.859	2.4545	0.	-5140.6
18342	3.7671	2.5455	0.	-5165.9
18343	3.859	2.5455	5.e-002	-8.3286
18344	3.859	2.2727	0.	-5147.3
18345	3.7671	2.3636	0.	-5171.7
18346	3.859	2.3636	5.e-002	-8.3521
18347	3.859	2.0909	0.	-5155.7
18348	3.7671	2.1818	0.	-5179.5
18349	3.859	2.1818	5.e-002	-8.3809
18350	3.859	1.9091	0.	-5165.9
18351	3.7671	2.	0.	-5189.
18352	3.859	2.	5.e-002	-8.4131
18353	3.859	1.7273	0.	-5177.7
18354	3.7671	1.8182	0.	-5200.2
18355	3.859	1.8182	5.e-002	-8.4462
18356	3.859	1.5455	0.	-5191.
18357	3.7671	1.6364	0.	-5213.1
18358	3.859	1.6364	5.e-002	-8.4772
18359	3.859	1.3636	0.	-5205.7
18360	3.7671	1.4545	0.	-5227.4
18361	3.859	1.4545	5.e-002	-8.503
18362	3.859	1.1818	0.	-5221.5
18363	3.7671	1.2727	0.	-5243.1
18364	3.859	1.2727	5.e-002	-8.5206
18365	3.859	1.	0.	-5238.4
18366	3.7671	1.0909	0.	-5260.
18367	3.859	1.0909	5.e-002	-8.5271
18368	3.859	0.81818	0.	-5256.2
18369	3.7671	0.90909	0.	-5277.9
18370	3.859	0.90909	5.e-002	-8.5202
18371	3.859	0.63636	0.	-5274.6
18372	3.7671	0.72727	0.	-5296.6
18373	3.859	0.72727	5.e-002	-8.4991
18374	3.859	0.45455	0.	-5293.5
18375	3.7671	0.54545	0.	-5315.9
18376	3.859	0.54545	5.e-002	-8.477
18377	3.859	0.27273	0.	-5313.3
18378	3.7671	0.36364	0.	-5335.6
18379	3.859	0.36364	5.e-002	-8.6374
18380	3.7671	0.18182	0.	-5357.
18381	3.859	0.18182	5.e-002	-12.281
18382	3.859	9.0909e-002	0.	-5328.2
18383	3.6752	5.7273	0.	-5379.4
18384	3.5833	5.8182	0.	-5424.1
18385	3.6752	5.8182	5.e-002	-13.237
18386	3.6752	5.9091	0.	-5394.8
18387	3.6752	5.5455	0.	-5358.1
18388	3.5833	5.6364	0.	-5401.
18389	3.6752	5.6364	5.e-002	-8.9507
18390	3.6752	5.3636	0.	-5338.
18391	3.5833	5.4545	0.	-5380.
18392	3.6752	5.4545	5.e-002	-8.7683
18393	3.6752	5.1818	0.	-5318.4
18394	3.5833	5.2727	0.	-5359.4
18395	3.6752	5.2727	5.e-002	-8.7974
18396	3.6752	5.	0.	-5299.5
18397	3.5833	5.0909	0.	-5339.6
18398	3.6752	5.0909	5.e-002	-8.8252
18399	3.6752	4.8182	0.	-5281.7
18400	3.5833	4.9091	0.	-5320.7
18401	3.6752	4.9091	5.e-002	-8.8364
18402	3.6752	4.6364	0.	-5264.9
18403	3.5833	4.7273	0.	-5302.9
18404	3.6752	4.7273	5.e-002	-8.8321
18405	3.6752	4.4545	0.	-5249.5
18406	3.5833	4.5455	0.	-5286.5
18407	3.6752	4.5455	5.e-002	-8.8149
18408	3.6752	4.2727	0.	-5235.6
18409	3.5833	4.3636	0.	-5271.5
18410	3.6752	4.3636	5.e-002	-8.7883
18411	3.6752	4.0909	0.	-5223.3
18412	3.5833	4.1818	0.	-5258.1
18413	3.6752	4.1818	5.e-002	-8.7558
18414	3.6752	3.9091	0.	-5212.7
18415	3.5833	4.	0.	-5246.4
18416	3.6752	4.	5.e-002	-8.7211
18417	3.6752	3.7273	0.	-5203.9
18418	3.5833	3.8182	0.	-5236.6
18419	3.6752	3.8182	5.e-002	-8.6874
18420	3.6752	3.5455	0.	-5197.
18421	3.5833	3.6364	0.	-5228.6
18422	3.6752	3.6364	5.e-002	-8.6571
18423	3.6752	3.3636	0.	-5192.
18424	3.5833	3.4545	0.	-5222.6
18425	3.6752	3.4545	5.e-002	-8.6327
18426	3.6752	3.1818	0.	-5189.
18427	3.5833	3.2727	0.	-5218.6
18428	3.6752	3.2727	5.e-002	-8.6157
18429	3.6752	3.	0.	-5188.
18430	3.5833	3.0909	0.	-5216.6
18431	3.6752	3.0909	5.e-002	-8.6068
18432	3.6752	2.8182	0.	-5189.
18433	3.5833	2.9091	0.	-5216.6
18434	3.6752	2.9091	5.e-002	-8.6068
18435	3.6752	2.6364	0.	-5192.
18436	3.5833	2.7273	0.	-5218.6
18437	3.6752	2.7273	5.e-002	-8.6157
18438	3.6752	2.4545	0.	-5197.
18439	3.5833	2.5455	0.	-5222.6
18440	3.6752	2.5455	5.e-002	-8.6327
18441	3.6752	2.2727	0.	-5203.9
18442	3.5833	2.3636	0.	-5228.6
18443	3.6752	2.3636	5.e-002	-8.6571
18444	3.6752	2.0909	0.	-5212.7
18445	3.5833	2.1818	0.	-5236.6
18446	3.6752	2.1818	5.e-002	-8.6874
18447	3.6752	1.9091	0.	-5223.3
18448	3.5833	2.	0.	-5246.4
18449	3.6752	2.	5.e-002	-8.7211
18450	3.6752	1.7273	0.	-5235.6
18451	3.5833	1.8182	0.	-5258.1
18452	3.6752	1.8182	5.e-002	-8.7558
18453	3.6752	1.5455	0.	-5249.5
18454	3.5833	1.6364	0.	-5271.5
18455	3.6752	1.6364	5.e-002	-8.7883
18456	3.6752	1.3636	0.	-5264.9
18457	3.5833	1.4545	0.	-5286.5
18458	3.6752	1.4545	5.e-002	-8.8149
18459	3.6752	1.1818	0.	-5281.7
18460	3.5833	1.2727	0.	-5302.9
18461	3.6752	1.2727	5.e-002	-8.8321
18462	3.6752	1.	0.	-5299.5
18463	3.5833	1.0909	0.	-5320.7
18464	3.6752	1.0909	5.e-002	-8.8365
18465	3.6752	0.81818	0.	-5318.4
18466	3.5833	0.90909	0.	-5339.6
18467	3.6752	0.90909	5.e-002	-8.8252
18468	3.6752	0.63636	0.	-5338.
18469	3.5833	0.72727	0.	-5359.4
18470	3.6752	0.72727	5.e-002	-8.7974
18471	3.6752	0.45455	0.	-5358.1
18472	3.5833	0.54545	0.	-5380.
18473	3.6752	0.54545	5.e-002	-8.7683
18474	3.6752	0.27273	0.	-5379.4
18475	3.5833	0.36364	0.	-5401.
18476	3.6752	0.36364	5.e-002	-8.9508
18477	3.5833	0.18182	0.	-5424.1
18478	3.6752	0.18182	5.e-002	-13.237
18479	3.6752	9.0909e-002	0.	-5394.8
18480	3.4915	5.7273	0.	-5445.8
18481	3.3996	5.8182	0.	-5491.5
18482	3.4915	5.8182	5.e-002	-14.25
18483	3.4915	5.9091	0.	-5461.5
18484	3.4915	5.5455	0.	-5423.
18485	3.3996	5.6364	0.	-5466.6
18486	3.4915	5.6364	5.e-002	-9.2871
18487	3.4915	5.3636	0.	-5401.5
18488	3.3996	5.4545	0.	-5444.1
18489	3.4915	5.4545	5.e-002	-9.0865
18490	3.4915	5.1818	0.	-5380.7
18491	3.3996	5.2727	0.	-5422.3
18492	3.4915	5.2727	5.e-002	-9.1255
18493	3.4915	5.	0.	-5360.8
18494	3.3996	5.0909	0.	-5401.4
18495	3.4915	5.0909	5.e-002	-9.1624
18496	3.4915	4.8182	0.	-5342.
18497	3.3996	4.9091	0.	-5381.5
18498	3.4915	4.9091	5.e-002	-9.1796
18499	3.4915	4.6364	0.	-5324.5
18500	3.3996	4.7273	0.	-5363.
18501	3.4915	4.7273	5.e-002	-9.1785
18502	3.4915	4.4545	0.	-5308.4
18503	3.3996	4.5455	0.	-5345.8
18504	3.4915	4.5455	5.e-002	-9.1626
18505	3.4915	4.2727	0.	-5294.
18506	3.3996	4.3636	0.	-5330.3
18507	3.4915	4.3636	5.e-002	-9.136
18508	3.4915	4.0909	0.	-5281.2
18509	3.3996	4.1818	0.	-5316.5
18510	3.4915	4.1818	5.e-002	-9.1028
18511	3.4915	3.9091	0.	-5270.3
18512	3.3996	4.	0.	-5304.6
18513	3.4915	4.	5.e-002	-9.0673
18514	3.4915	3.7273	0.	-5261.3
18515	3.3996	3.8182	0.	-5294.6
18516	3.4915	3.8182	5.e-002	-9.0327
18517	3.4915	3.5455	0.	-5254.2
18518	3.3996	3.6364	0.	-5286.5
18519	3.4915	3.6364	5.e-002	-9.0021
18520	3.4915	3.3636	0.	-5249.2
18521	3.3996	3.4545	0.	-5280.5
18522	3.4915	3.4545	5.e-002	-8.9775
18523	3.4915	3.1818	0.	-5246.1
18524	3.3996	3.2727	0.	-5276.4
18525	3.4915	3.2727	5.e-002	-8.9604
18526	3.4915	3.	0.	-5245.1
18527	3.3996	3.0909	0.	-5274.4
18528	3.4915	3.0909	5.e-002	-8.9516
18529	3.4915	2.8182	0.	-5246.1
18530	3.3996	2.9091	0.	-5274.4
18531	3.4915	2.9091	5.e-002	-8.9516
18532	3.4915	2.6364	0.	-5249.2
18533	3.3996	2.7273	0.	-5276.4
18534	3.4915	2.7273	5.e-002	-8.9604
18535	3.4915	2.4545	0.	-5254.2
18536	3.3996	2.5455	0.	-5280.5
18537	3.4915	2.5455	5.e-002	-8.9776
18538	3.4915	2.2727	0.	-5261.3
18539	3.3996	2.3636	0.	-5286.5
18540	3.4915	2.3636	5.e-002	-9.0021
18541	3.4915	2.0909	0.	-5270.3
18542	3.3996	2.1818	0.	-5294.6
18543	3.4915	2.1818	5.e-002	-9.0328
18544	3.4915	1.9091	0.	-5281.2
18545	3.3996	2.	0.	-5304.6
18546	3.4915	2.	5.e-002	-9.0673
18547	3.4915	1.7273	0.	-5294.
18548	3.3996	1.8182	0.	-5316.5
18549	3.4915	1.8182	5.e-002	-9.1028
18550	3.4915	1.5455	0.	-5308.4
18551	3.3996	1.6364	0.	-5330.3
18552	3.4915	1.6364	5.e-002	-9.136
18553	3.4915	1.3636	0.	-5324.5
18554	3.3996	1.4545	0.	-5345.8
18555	3.4915	1.4545	5.e-002	-9.1626
18556	3.4915	1.1818	0.	-5342.
18557	3.3996	1.2727	0.	-5363.
18558	3.4915	1.2727	5.e-002	-9.1786
18559	3.4915	1.	0.	-5360.8
18560	3.3996	1.0909	0.	-5381.5
18561	3.4915	1.0909	5.e-002	-9.1796
18562	3.4915	0.81818	0.	-5380.7
18563	3.3996	0.90909	0.	-5401.4
18564	3.4915	0.90909	5.e-002	-9.1624
18565	3.4915	0.63636	0.	-5401.5
18566	3.3996	0.72727	0.	-5422.3
18567	3.4915	0.72727	5.e-002	-9.1255
18568	3.4915	0.45455	0.	-5423.
18569	3.3996	0.54545	0.	-5444.1
18570	3.4915	0.54545	5.e-002	-9.0866
18571	3.4915	0.27273	0.	-5445.8
18572	3.3996	0.36364	0.	-5466.6
18573	3.4915	0.36364	5.e-002	-9.2871
18574	3.3996	0.18182	0.	-5491.5
18575	3.4915	0.18182	5.e-002	-14.25
18576	3.4915	9.0909e-002	0.	-5461.5
18577	3.3077	5.7273	0.	-5512.4
18578	3.2158	5.8182	0.	-5559.1
18579	3.3077	5.8182	5.e-002	-15.319
18580	3.3077	5.9091	0.	-5528.1
18581	3.3077	5.5455	0.	-5487.8
18582	3.2158	5.6364	0.	-5532.
18583	3.3077	5.6364	5.e-002	-9.6482
18584	3.3077	5.3636	0.	-5465.
18585	3.2158	5.4545	0.	-5508.2
18586	3.3077	5.4545	5.e-002	-9.4352
18587	3.3077	5.1818	0.	-5443.1
18588	3.2158	5.2727	0.	-5485.1
18589	3.3077	5.2727	5.e-002	-9.4879
18590	3.3077	5.	0.	-5422.2
18591	3.2158	5.0909	0.	-5463.2
18592	3.3077	5.0909	5.e-002	-9.5365
18593	3.3077	4.8182	0.	-5402.5
18594	3.2158	4.9091	0.	-5442.4
18595	3.3077	4.9091	5.e-002	-9.5615
18596	3.3077	4.6364	0.	-5384.3
18597	3.2158	4.7273	0.	-5423.2
18598	3.3077	4.7273	5.e-002	-9.565
18599	3.3077	4.4545	0.	-5367.7
18600	3.2158	4.5455	0.	-5405.5
18601	3.3077	4.5455	5.e-002	-9.5513
18602	3.3077	4.2727	0.	-5352.9
18603	3.2158	4.3636	0.	-5389.7
18604	3.3077	4.3636	5.e-002	-9.5254
18605	3.3077	4.0909	0.	-5339.9
18606	3.2158	4.1818	0.	-5375.7
18607	3.3077	4.1818	5.e-002	-9.4926
18608	3.3077	3.9091	0.	-5328.8
18609	3.2158	4.	0.	-5363.7
18610	3.3077	4.	5.e-002	-9.4573
18611	3.3077	3.7273	0.	-5319.7
18612	3.2158	3.8182	0.	-5353.7
18613	3.3077	3.8182	5.e-002	-9.4233
18614	3.3077	3.5455	0.	-5312.7
18615	3.2158	3.6364	0.	-5345.7
18616	3.3077	3.6364	5.e-002	-9.3936
18617	3.3077	3.3636	0.	-5307.6
18618	3.2158	3.4545	0.	-5339.7
18619	3.3077	3.4545	5.e-002	-9.3699
18620	3.3077	3.1818	0.	-5304.6
18621	3.2158	3.2727	0.	-5335.7
18622	3.3077	3.2727	5.e-002	-9.3536
18623	3.3077	3.	0.	-5303.5
18624	3.2158	3.0909	0.	-5333.7
18625	3.3077	3.0909	5.e-002	-9.3453
18626	3.3077	2.8182	0.	-5304.6
18627	3.2158	2.9091	0.	-5333.7
18628	3.3077	2.9091	5.e-002	-9.3453
18629	3.3077	2.6364	0.	-5307.6
18630	3.2158	2.7273	0.	-5335.7
18631	3.3077	2.7273	5.e-002	-9.3536
18632	3.3077	2.4545	0.	-5312.7
18633	3.2158	2.5455	0.	-5339.7
18634	3.3077	2.5455	5.e-002	-9.3699
18635	3.3077	2.2727	0.	-5319.7
18636	3.2158	2.3636	0.	-5345.7
18637	3.3077	2.3636	5.e-002	-9.3936
18638	3.3077	2.0909	0.	-5328.8
18639	3.2158	2.1818	0.	-5353.7
18640	3.3077	2.1818	5.e-002	-9.4233
18641	3.3077	1.9091	0.	-5339.9
18642	3.2158	2.	0.	-5363.7
18643	3.3077	2.	5.e-002	-9.4573
18644	3.3077	1.7273	0.	-5352.9
18645	3.2158	1.8182	0.	-5375.7
18646	3.3077	1.8182	5.e-002	-9.4926
18647	3.3077	1.5455	0.	-5367.7
18648	3.2158	1.6364	0.	-5389.7
18649	3.3077	1.6364	5.e-002	-9.5255
18650	3.3077	1.3636	0.	-5384.3
18651	3.2158	1.4545	0.	-5405.5
18652	3.3077	1.4545	5.e-002	-9.5513
18653	3.3077	1.1818	0.	-5402.5
18654	3.2158	1.2727	0.	-5423.2
18655	3.3077	1.2727	5.e-002	-9.5651
18656	3.3077	1.	0.	-5422.2
18657	3.2158	1.0909	0.	-5442.4
18658	3.3077	1.0909	5.e-002	-9.5615
18659	3.3077	0.81818	0.	-5443.1
18660	3.2158	0.90909	0.	-5463.2
18661	3.3077	0.90909	5.e-002	-9.5365
18662	3.3077	0.63636	0.	-5465.
18663	3.2158	0.72727	0.	-5485.1
18664	3.3077	0.72727	5.e-002	-9.4879
18665	3.3077	0.45455	0.	-5487.8
18666	3.2158	0.54545	0.	-5508.2
18667	3.3077	0.54545	5.e-002	-9.4352
18668	3.3077	0.27273	0.	-5512.4
18669	3.2158	0.36364	0.	-5532.
18670	3.3077	0.36364	5.e-002	-9.6482
18671	3.2158	0.18182	0.	-5559.1
18672	3.3077	0.18182	5.e-002	-15.32
18673	3.3077	9.0909e-002	0.	-5528.1
18674	3.1239	5.7273	0.	-5578.8
18675	3.0321	5.8182	0.	-5626.4
18676	3.1239	5.8182	5.e-002	-16.445
18677	3.1239	5.9091	0.	-5594.5
18678	3.1239	5.5455	0.	-5552.5
18679	3.0321	5.6364	0.	-5597.1
18680	3.1239	5.6364	5.e-002	-10.037
18681	3.1239	5.3636	0.	-5528.4
18682	3.0321	5.4545	0.	-5571.8
18683	3.1239	5.4545	5.e-002	-9.8191
18684	3.1239	5.1818	0.	-5505.3
18685	3.0321	5.2727	0.	-5547.6
18686	3.1239	5.2727	5.e-002	-9.8902
18687	3.1239	5.	0.	-5483.5
18688	3.0321	5.0909	0.	-5524.6
18689	3.1239	5.0909	5.e-002	-9.9537
18690	3.1239	4.8182	0.	-5463.1
18691	3.0321	4.9091	0.	-5503.2
18692	3.1239	4.9091	5.e-002	-9.9885
18693	3.1239	4.6364	0.	-5444.4
18694	3.0321	4.7273	0.	-5483.4
18695	3.1239	4.7273	5.e-002	-9.9977
18696	3.1239	4.4545	0.	-5427.5
18697	3.0321	4.5455	0.	-5465.5
18698	3.1239	4.5455	5.e-002	-9.9871
18699	3.1239	4.2727	0.	-5412.5
18700	3.0321	4.3636	0.	-5449.6
18701	3.1239	4.3636	5.e-002	-9.963
18702	3.1239	4.0909	0.	-5399.5
18703	3.0321	4.1818	0.	-5435.7
18704	3.1239	4.1818	5.e-002	-9.9315
18705	3.1239	3.9091	0.	-5388.5
18706	3.0321	4.	0.	-5423.9
18707	3.1239	4.	5.e-002	-9.898
18708	3.1239	3.7273	0.	-5379.5
18709	3.0321	3.8182	0.	-5414.2
18710	3.1239	3.8182	5.e-002	-9.8662
18711	3.1239	3.5455	0.	-5372.6
18712	3.0321	3.6364	0.	-5406.5
18713	3.1239	3.6364	5.e-002	-9.839
18714	3.1239	3.3636	0.	-5367.7
18715	3.0321	3.4545	0.	-5400.8
18716	3.1239	3.4545	5.e-002	-9.8179
18717	3.1239	3.1818	0.	-5364.7
18718	3.0321	3.2727	0.	-5397.
18719	3.1239	3.2727	5.e-002	-9.8036
18720	3.1239	3.	0.	-5363.8
18721	3.0321	3.0909	0.	-5395.1
18722	3.1239	3.0909	5.e-002	-9.7964
18723	3.1239	2.8182	0.	-5364.7
18724	3.0321	2.9091	0.	-5395.1
18725	3.1239	2.9091	5.e-002	-9.7964
18726	3.1239	2.6364	0.	-5367.7
18727	3.0321	2.7273	0.	-5397.
18728	3.1239	2.7273	5.e-002	-9.8036
18729	3.1239	2.4545	0.	-5372.6
18730	3.0321	2.5455	0.	-5400.8
18731	3.1239	2.5455	5.e-002	-9.8179
18732	3.1239	2.2727	0.	-5379.5
18733	3.0321	2.3636	0.	-5406.5
18734	3.1239	2.3636	5.e-002	-9.839
18735	3.1239	2.0909	0.	-5388.5
18736	3.0321	2.1818	0.	-5414.2
18737	3.1239	2.1818	5.e-002	-9.8662
18738	3.1239	1.9091	0.	-5399.5
18739	3.0321	2.	0.	-5423.9
18740	3.1239	2.	5.e-002	-9.898
18741	3.1239	1.7273	0.	-5412.5
18742	3.0321	1.8182	0.	-5435.7
18743	3.1239	1.8182	5.e-002	-9.9315
18744	3.1239	1.5455	0.	-5427.5
18745	3.0321	1.6364	0.	-5449.6
18746	3.1239	1.6364	5.e-002	-9.963
18747	3.1239	1.3636	0.	-5444.4
18748	3.0321	1.4545	0.	-5465.5
18749	3.1239	1.4545	5.e-002	-9.9871
18750	3.1239	1.1818	0.	-5463.1
18751	3.0321	1.2727	0.	-5483.4
18752	3.1239	1.2727	5.e-002	-9.9978
18753	3.1239	1.	0.	-5483.5
18754	3.0321	1.0909	0.	-5503.2
18755	3.1239	1.0909	5.e-002	-9.9885
18756	3.1239	0.81818	0.	-5505.3
18757	3.0321	0.90909	0.	-5524.6
18758	3.1239	0.90909	5.e-002	-9.9537
18759	3.1239	0.63636	0.	-5528.4
18760	3.0321	0.72727	0.	-5547.6
18761	3.1239	0.72727	5.e-002	-9.8902
18762	3.1239	0.45455	0.	-5552.5
18763	3.0321	0.54545	0.	-5571.8
18764	3.1239	0.54545	5.e-002	-9.8191
18765	3.1239	0.27273	0.	-5578.8
18766	3.0321	0.36364	0.	-5597.1
18767	3.1239	0.36364	5.e-002	-10.037
18768	3.0321	0.18182	0.	-5626.4
18769	3.1239	0.18182	5.e-002	-16.445
18770	3.1239	9.0909e-002	0.	-5594.5
18771	2.9402	5.7273	0.	-5644.8
18772	2.8483	5.8182	0.	-5693.
18773	2.9402	5.8182	5.e-002	-17.623
18774	2.9402	5.9091	0.	-5660.2
18775	2.9402	5.5455	0.	-5616.6
18776	2.8483	5.6364	0.	-5661.4
18777	2.9402	5.6364	5.e-002	-10.456
18778	2.9402	5.3636	0.	-5591.1
18779	2.8483	5.4545	0.	-5634.7
18780	2.9402	5.4545	5.e-002	-10.245
18781	2.9402	5.1818	0.	-5567.
18782	2.8483	5.2727	0.	-5609.3
18783	2.9402	5.2727	5.e-002	-10.34
18784	2.9402	5.	0.	-5544.5
18785	2.8483	5.0909	0.	-5585.6
18786	2.9402	5.0909	5.e-002	-10.422
18787	2.9402	4.8182	0.	-5523.6
18788	2.8483	4.9091	0.	-5563.6
18789	2.9402	4.9091	5.e-002	-10.468
18790	2.9402	4.6364	0.	-5504.6
18791	2.8483	4.7273	0.	-5543.7
18792	2.9402	4.7273	5.e-002	-10.484
18793	2.9402	4.4545	0.	-5487.7
18794	2.8483	4.5455	0.	-5525.8
18795	2.9402	4.5455	5.e-002	-10.477
18796	2.9402	4.2727	0.	-5472.9
18797	2.8483	4.3636	0.	-5510.2
18798	2.9402	4.3636	5.e-002	-10.456
18799	2.9402	4.0909	0.	-5460.2
18800	2.8483	4.1818	0.	-5496.8
18801	2.9402	4.1818	5.e-002	-10.427
18802	2.9402	3.9091	0.	-5449.6
18803	2.8483	4.	0.	-5485.6
18804	2.9402	4.	5.e-002	-10.397
18805	2.9402	3.7273	0.	-5441.
18806	2.8483	3.8182	0.	-5476.5
18807	2.9402	3.8182	5.e-002	-10.37
18808	2.9402	3.5455	0.	-5434.5
18809	2.8483	3.6364	0.	-5469.4
18810	2.9402	3.6364	5.e-002	-10.347
18811	2.9402	3.3636	0.	-5429.9
18812	2.8483	3.4545	0.	-5464.2
18813	2.9402	3.4545	5.e-002	-10.331
18814	2.9402	3.1818	0.	-5427.2
18815	2.8483	3.2727	0.	-5460.8
18816	2.9402	3.2727	5.e-002	-10.32
18817	2.9402	3.	0.	-5426.3
18818	2.8483	3.0909	0.	-5459.1
18819	2.9402	3.0909	5.e-002	-10.315
18820	2.9402	2.8182	0.	-5427.2
18821	2.8483	2.9091	0.	-5459.1
18822	2.9402	2.9091	5.e-002	-10.315
18823	2.9402	2.6364	0.	-5429.9
18824	2.8483	2.7273	0.	-5460.8
18825	2.9402	2.7273	5.e-002	-10.32
18826	2.9402	2.4545	0.	-5434.5
18827	2.8483	2.5455	0.	-5464.2
18828	2.9402	2.5455	5.e-002	-10.331
18829	2.9402	2.2727	0.	-5441.
18830	2.8483	2.3636	0.	-5469.4
18831	2.9402	2.3636	5.e-002	-10.347
18832	2.9402	2.0909	0.	-5449.6
18833	2.8483	2.1818	0.	-5476.5
18834	2.9402	2.1818	5.e-002	-10.37
18835	2.9402	1.9091	0.	-5460.2
18836	2.8483	2.	0.	-5485.6
18837	2.9402	2.	5.e-002	-10.397
18838	2.9402	1.7273	0.	-5472.9
18839	2.8483	1.8182	0.	-5496.8
18840	2.9402	1.8182	5.e-002	-10.427
18841	2.9402	1.5455	0.	-5487.7
18842	2.8483	1.6364	0.	-5510.2
18843	2.9402	1.6364	5.e-002	-10.456
18844	2.9402	1.3636	0.	-5504.6
18845	2.8483	1.4545	0.	-5525.8
18846	2.9402	1.4545	5.e-002	-10.477
18847	2.9402	1.1818	0.	-5523.6
18848	2.8483	1.2727	0.	-5543.7
18849	2.9402	1.2727	5.e-002	-10.484
18850	2.9402	1.	0.	-5544.5
18851	2.8483	1.0909	0.	-5563.6
18852	2.9402	1.0909	5.e-002	-10.468
18853	2.9402	0.81818	0.	-5567.
18854	2.8483	0.90909	0.	-5585.6
18855	2.9402	0.90909	5.e-002	-10.422
18856	2.9402	0.63636	0.	-5591.1
18857	2.8483	0.72727	0.	-5609.3
18858	2.9402	0.72727	5.e-002	-10.34
18859	2.9402	0.45455	0.	-5616.6
18860	2.8483	0.54545	0.	-5634.7
18861	2.9402	0.54545	5.e-002	-10.245
18862	2.9402	0.27273	0.	-5644.8
18863	2.8483	0.36364	0.	-5661.4
18864	2.9402	0.36364	5.e-002	-10.456
18865	2.8483	0.18182	0.	-5693.
18866	2.9402	0.18182	5.e-002	-17.623
18867	2.9402	9.0909e-002	0.	-5660.2
18868	2.7564	5.7273	0.	-5709.8
18869	2.6645	5.8182	0.	-5758.6
18870	2.7564	5.8182	5.e-002	-18.849
18871	2.7564	5.9091	0.	-5724.6
18872	2.7564	5.5455	0.	-5679.6
18873	2.6645	5.6364	0.	-5724.3
18874	2.7564	5.6364	5.e-002	-10.913
18875	2.7564	5.3636	0.	-5653.
18876	2.6645	5.4545	0.	-5696.2
18877	2.7564	5.4545	5.e-002	-10.723
18878	2.7564	5.1818	0.	-5628.
18879	2.6645	5.2727	0.	-5669.9
18880	2.7564	5.2727	5.e-002	-10.848
18881	2.7564	5.	0.	-5604.9
18882	2.6645	5.0909	0.	-5645.6
18883	2.7564	5.0909	5.e-002	-10.952
18884	2.7564	4.8182	0.	-5583.8
18885	2.6645	4.9091	0.	-5623.4
18886	2.7564	4.9091	5.e-002	-11.011
18887	2.7564	4.6364	0.	-5564.9
18888	2.6645	4.7273	0.	-5603.7
18889	2.7564	4.7273	5.e-002	-11.034
18890	2.7564	4.4545	0.	-5548.4
18891	2.6645	4.5455	0.	-5586.4
18892	2.7564	4.5455	5.e-002	-11.03
18893	2.7564	4.2727	0.	-5534.2
18894	2.6645	4.3636	0.	-5571.6
18895	2.7564	4.3636	5.e-002	-11.012
18896	2.7564	4.0909	0.	-5522.2
18897	2.6645	4.1818	0.	-5559.2
18898	2.7564	4.1818	5.e-002	-10.988
18899	2.7564	3.9091	0.	-5512.5
18900	2.6645	4.	0.	-5549.1
18901	2.7564	4.	5.e-002	-10.964
18902	2.7564	3.7273	0.	-5504.8
18903	2.6645	3.8182	0.	-5541.1
18904	2.7564	3.8182	5.e-002	-10.943
18905	2.7564	3.5455	0.	-5498.9
18906	2.6645	3.6364	0.	-5535.
18907	2.7564	3.6364	5.e-002	-10.929
18908	2.7564	3.3636	0.	-5494.9
18909	2.6645	3.4545	0.	-5530.7
18910	2.7564	3.4545	5.e-002	-10.919
18911	2.7564	3.1818	0.	-5492.5
18912	2.6645	3.2727	0.	-5527.9
18913	2.7564	3.2727	5.e-002	-10.914
18914	2.7564	3.	0.	-5491.7
18915	2.6645	3.0909	0.	-5526.5
18916	2.7564	3.0909	5.e-002	-10.911
18917	2.7564	2.8182	0.	-5492.5
18918	2.6645	2.9091	0.	-5526.5
18919	2.7564	2.9091	5.e-002	-10.911
18920	2.7564	2.6364	0.	-5494.9
18921	2.6645	2.7273	0.	-5527.9
18922	2.7564	2.7273	5.e-002	-10.914
18923	2.7564	2.4545	0.	-5498.9
18924	2.6645	2.5455	0.	-5530.7
18925	2.7564	2.5455	5.e-002	-10.919
18926	2.7564	2.2727	0.	-5504.8
18927	2.6645	2.3636	0.	-5535.
18928	2.7564	2.3636	5.e-002	-10.929
18929	2.7564	2.0909	0.	-5512.5
18930	2.6645	2.1818	0.	-5541.1
18931	2.7564	2.1818	5.e-002	-10.943
18932	2.7564	1.9091	0.	-5522.2
18933	2.6645	2.	0.	-5549.1
18934	2.7564	2.	5.e-002	-10.964
18935	2.7564	1.7273	0.	-5534.2
18936	2.6645	1.8182	0.	-5559.2
18937	2.7564	1.8182	5.e-002	-10.988
18938	2.7564	1.5455	0.	-5548.4
18939	2.6645	1.6364	0.	-5571.6
18940	2.7564	1.6364	5.e-002	-11.012
18941	2.7564	1.3636	0.	-5564.9
18942	2.6645	1.4545	0.	-5586.4
18943	2.7564	1.4545	5.e-002	-11.03
18944	2.7564	1.1818	0.	-5583.8
18945	2.6645	1.2727	0.	-5603.7
18946	2.7564	1.2727	5.e-002	-11.034
18947	2.7564	1.	0.	-5604.9
18948	2.6645	1.0909	0.	-5623.4
18949	2.7564	1.0909	5.e-002	-11.011
18950	2.7564	0.81818	0.	-5628.
18951	2.6645	0.90909	0.	-5645.6
18952	2.7564	0.90909	5.e-002	-10.952
18953	2.7564	0.63636	0.	-5653.
18954	2.6645	0.72727	0.	-5669.9
18955	2.7564	0.72727	5.e-002	-10.848
18956	2.7564	0.45455	0.	-5679.6
18957	2.6645	0.54545	0.	-5696.2
18958	2.7564	0.54545	5.e-002	-10.723
18959	2.7564	0.27273	0.	-5709.8
18960	2.6645	0.36364	0.	-5724.3
18961	2.7564	0.36364	5.e-002	-10.913
18962	2.6645	0.18182	0.	-5758.6
18963	2.7564	0.18182	5.e-002	-18.849
18964	2.7564	9.0909e-002	0.	-5724.6
18965	2.5726	5.7273	0.	-5773.2
18966	2.4808	5.8182	0.	-5822.2
18967	2.5726	5.8182	5.e-002	-20.117
18968	2.5726	5.9091	0.	-5787.
18969	2.5726	5.5455	0.	-5741.
18970	2.4808	5.6364	0.	-5785.1
18971	2.5726	5.6364	5.e-002	-11.416
18972	2.5726	5.3636	0.	-5713.2
18973	2.4808	5.4545	0.	-5755.7
18974	2.5726	5.4545	5.e-002	-11.266
18975	2.5726	5.1818	0.	-5687.6
18976	2.4808	5.2727	0.	-5728.6
18977	2.5726	5.2727	5.e-002	-11.429
18978	2.5726	5.	0.	-5664.3
18979	2.4808	5.0909	0.	-5704.1
18980	2.5726	5.0909	5.e-002	-11.557
18981	2.5726	4.8182	0.	-5643.4
18982	2.4808	4.9091	0.	-5682.3
18983	2.5726	4.9091	5.e-002	-11.629
18984	2.5726	4.6364	0.	-5625.2
18985	2.4808	4.7273	0.	-5663.3
18986	2.5726	4.7273	5.e-002	-11.657
18987	2.5726	4.4545	0.	-5609.6
18988	2.4808	4.5455	0.	-5647.2
18989	2.5726	4.5455	5.e-002	-11.657
18990	2.5726	4.2727	0.	-5596.6
18991	2.4808	4.3636	0.	-5633.9
18992	2.5726	4.3636	5.e-002	-11.642
18993	2.5726	4.0909	0.	-5586.1
18994	2.4808	4.1818	0.	-5623.3
18995	2.5726	4.1818	5.e-002	-11.623
18996	2.5726	3.9091	0.	-5577.7
18997	2.4808	4.	0.	-5615.
18998	2.5726	4.	5.e-002	-11.608
18999	2.5726	3.7273	0.	-5571.3
19000	2.4808	3.8182	0.	-5608.7
19001	2.5726	3.8182	5.e-002	-11.598
19002	2.5726	3.5455	0.	-5566.6
19003	2.4808	3.6364	0.	-5604.1
19004	2.5726	3.6364	5.e-002	-11.595
19005	2.5726	3.3636	0.	-5563.4
19006	2.4808	3.4545	0.	-5601.
19007	2.5726	3.4545	5.e-002	-11.595
19008	2.5726	3.1818	0.	-5561.6
19009	2.4808	3.2727	0.	-5599.
19010	2.5726	3.2727	5.e-002	-11.598
19011	2.5726	3.	0.	-5561.
19012	2.4808	3.0909	0.	-5598.1
19013	2.5726	3.0909	5.e-002	-11.599
19014	2.5726	2.8182	0.	-5561.6
19015	2.4808	2.9091	0.	-5598.1
19016	2.5726	2.9091	5.e-002	-11.599
19017	2.5726	2.6364	0.	-5563.4
19018	2.4808	2.7273	0.	-5599.
19019	2.5726	2.7273	5.e-002	-11.598
19020	2.5726	2.4545	0.	-5566.6
19021	2.4808	2.5455	0.	-5601.
19022	2.5726	2.5455	5.e-002	-11.595
19023	2.5726	2.2727	0.	-5571.3
19024	2.4808	2.3636	0.	-5604.1
19025	2.5726	2.3636	5.e-002	-11.595
19026	2.5726	2.0909	0.	-5577.7
19027	2.4808	2.1818	0.	-5608.7
19028	2.5726	2.1818	5.e-002	-11.598
19029	2.5726	1.9091	0.	-5586.1
19030	2.4808	2.	0.	-5615.
19031	2.5726	2.	5.e-002	-11.608
19032	2.5726	1.7273	0.	-5596.6
19033	2.4808	1.8182	0.	-5623.3
19034	2.5726	1.8182	5.e-002	-11.623
19035	2.5726	1.5455	0.	-5609.6
19036	2.4808	1.6364	0.	-5633.9
19037	2.5726	1.6364	5.e-002	-11.642
19038	2.5726	1.3636	0.	-5625.2
19039	2.4808	1.4545	0.	-5647.2
19040	2.5726	1.4545	5.e-002	-11.657
19041	2.5726	1.1818	0.	-5643.4
19042	2.4808	1.2727	0.	-5663.3
19043	2.5726	1.2727	5.e-002	-11.657
19044	2.5726	1.	0.	-5664.3
19045	2.4808	1.0909	0.	-5682.3
19046	2.5726	1.0909	5.e-002	-11.629
19047	2.5726	0.81818	0.	-5687.6
19048	2.4808	0.90909	0.	-5704.1
19049	2.5726	0.90909	5.e-002	-11.557
19050	2.5726	0.63636	0.	-5713.2
19051	2.4808	0.72727	0.	-5728.6
19052	2.5726	0.72727	5.e-002	-11.429
19053	2.5726	0.45455	0.	-5741.
19054	2.4808	0.54545	0.	-5755.7
19055	2.5726	0.54545	5.e-002	-11.266
19056	2.5726	0.27273	0.	-5773.2
19057	2.4808	0.36364	0.	-5785.1
19058	2.5726	0.36364	5.e-002	-11.416
19059	2.4808	0.18182	0.	-5822.2
19060	2.5726	0.18182	5.e-002	-20.117
19061	2.5726	9.0909e-002	0.	-5787.
19062	2.3889	5.7273	0.	-5834.2
19063	2.297	5.8182	0.	-5882.8
19064	2.3889	5.8182	5.e-002	-21.414
19065	2.3889	5.9091	0.	-5846.6
19066	2.3889	5.5455	0.	-5799.9
19067	2.297	5.6364	0.	-5842.7
19068	2.3889	5.6364	5.e-002	-11.982
19069	2.3889	5.3636	0.	-5771.2
19070	2.297	5.4545	0.	-5812.2
19071	2.3889	5.4545	5.e-002	-11.896
19072	2.3889	5.1818	0.	-5745.2
19073	2.297	5.2727	0.	-5784.7
19074	2.3889	5.2727	5.e-002	-12.105
19075	2.3889	5.	0.	-5722.2
19076	2.297	5.0909	0.	-5760.4
19077	2.3889	5.0909	5.e-002	-12.257
19078	2.3889	4.8182	0.	-5702.2
19079	2.297	4.9091	0.	-5739.6
19080	2.3889	4.9091	5.e-002	-12.339
19081	2.3889	4.6364	0.	-5685.3
19082	2.297	4.7273	0.	-5722.2
19083	2.3889	4.7273	5.e-002	-12.369
19084	2.3889	4.4545	0.	-5671.5
19085	2.297	4.5455	0.	-5708.2
19086	2.3889	4.5455	5.e-002	-12.369
19087	2.3889	4.2727	0.	-5660.5
19088	2.297	4.3636	0.	-5697.4
19089	2.3889	4.3636	5.e-002	-12.357
19090	2.3889	4.0909	0.	-5652.1
19091	2.297	4.1818	0.	-5689.4
19092	2.3889	4.1818	5.e-002	-12.346
19093	2.3889	3.9091	0.	-5645.8
19094	2.297	4.	0.	-5683.7
19095	2.3889	4.	5.e-002	-12.343
19096	2.3889	3.7273	0.	-5641.3
19097	2.297	3.8182	0.	-5679.9
19098	2.3889	3.8182	5.e-002	-12.347
19099	2.3889	3.5455	0.	-5638.3
19100	2.297	3.6364	0.	-5677.5
19101	2.3889	3.6364	5.e-002	-12.359
19102	2.3889	3.3636	0.	-5636.3
19103	2.297	3.4545	0.	-5676.1
19104	2.3889	3.4545	5.e-002	-12.373
19105	2.3889	3.1818	0.	-5635.3
19106	2.297	3.2727	0.	-5675.3
19107	2.3889	3.2727	5.e-002	-12.385
19108	2.3889	3.	0.	-5635.
19109	2.297	3.0909	0.	-5675.
19110	2.3889	3.0909	5.e-002	-12.392
19111	2.3889	2.8182	0.	-5635.3
19112	2.297	2.9091	0.	-5675.
19113	2.3889	2.9091	5.e-002	-12.392
19114	2.3889	2.6364	0.	-5636.3
19115	2.297	2.7273	0.	-5675.3
19116	2.3889	2.7273	5.e-002	-12.385
19117	2.3889	2.4545	0.	-5638.3
19118	2.297	2.5455	0.	-5676.1
19119	2.3889	2.5455	5.e-002	-12.373
19120	2.3889	2.2727	0.	-5641.3
19121	2.297	2.3636	0.	-5677.5
19122	2.3889	2.3636	5.e-002	-12.359
19123	2.3889	2.0909	0.	-5645.8
19124	2.297	2.1818	0.	-5679.9
19125	2.3889	2.1818	5.e-002	-12.347
19126	2.3889	1.9091	0.	-5652.1
19127	2.297	2.	0.	-5683.7
19128	2.3889	2.	5.e-002	-12.343
19129	2.3889	1.7273	0.	-5660.5
19130	2.297	1.8182	0.	-5689.4
19131	2.3889	1.8182	5.e-002	-12.346
19132	2.3889	1.5455	0.	-5671.5
19133	2.297	1.6364	0.	-5697.4
19134	2.3889	1.6364	5.e-002	-12.357
19135	2.3889	1.3636	0.	-5685.3
19136	2.297	1.4545	0.	-5708.2
19137	2.3889	1.4545	5.e-002	-12.369
19138	2.3889	1.1818	0.	-5702.2
19139	2.297	1.2727	0.	-5722.2
19140	2.3889	1.2727	5.e-002	-12.369
19141	2.3889	1.	0.	-5722.2
19142	2.297	1.0909	0.	-5739.6
19143	2.3889	1.0909	5.e-002	-12.339
19144	2.3889	0.81818	0.	-5745.2
19145	2.297	0.90909	0.	-5760.4
19146	2.3889	0.90909	5.e-002	-12.257
19147	2.3889	0.63636	0.	-5771.2
19148	2.297	0.72727	0.	-5784.7
19149	2.3889	0.72727	5.e-002	-12.105
19150	2.3889	0.45455	0.	-5799.9
19151	2.297	0.54545	0.	-5812.2
19152	2.3889	0.54545	5.e-002	-11.896
19153	2.3889	0.27273	0.	-5834.2
19154	2.297	0.36364	0.	-5842.7
19155	2.3889	0.36364	5.e-002	-11.982
19156	2.297	0.18182	0.	-5882.8
19157	2.3889	0.18182	5.e-002	-21.414
19158	2.3889	9.0909e-002	0.	-5846.6
19159	2.2051	5.7273	0.	-5891.5
19160	2.1132	5.8182	0.	-5939.1
19161	2.2051	5.8182	5.e-002	-22.726
19162	2.2051	5.9091	0.	-5902.1
19163	2.2051	5.5455	0.	-5855.2
19164	2.1132	5.6364	0.	-5895.8
19165	2.2051	5.6364	5.e-002	-12.633
19166	2.2051	5.3636	0.	-5825.8
19167	2.1132	5.4545	0.	-5864.4
19168	2.2051	5.4545	5.e-002	-12.645
19169	2.2051	5.1818	0.	-5800.1
19170	2.1132	5.2727	0.	-5837.
19171	2.2051	5.2727	5.e-002	-12.903
19172	2.2051	5.	0.	-5778.
19173	2.1132	5.0909	0.	-5813.8
19174	2.2051	5.0909	5.e-002	-13.077
19175	2.2051	4.8182	0.	-5759.7
19176	2.1132	4.9091	0.	-5794.9
19177	2.2051	4.9091	5.e-002	-13.161
19178	2.2051	4.6364	0.	-5745.1
19179	2.1132	4.7273	0.	-5780.2
19180	2.2051	4.7273	5.e-002	-13.186
19181	2.2051	4.4545	0.	-5734.1
19182	2.1132	4.5455	0.	-5769.5
19183	2.2051	4.5455	5.e-002	-13.182
19184	2.2051	4.2727	0.	-5726.1
19185	2.1132	4.3636	0.	-5762.3
19186	2.2051	4.3636	5.e-002	-13.172
19187	2.2051	4.0909	0.	-5720.8
19188	2.1132	4.1818	0.	-5758.1
19189	2.2051	4.1818	5.e-002	-13.17
19190	2.2051	3.9091	0.	-5717.6
19191	2.1132	4.	0.	-5756.1
19192	2.2051	4.	5.e-002	-13.182
19193	2.2051	3.7273	0.	-5715.8
19194	2.1132	3.8182	0.	-5755.7
19195	2.2051	3.8182	5.e-002	-13.205
19196	2.2051	3.5455	0.	-5715.
19197	2.1132	3.6364	0.	-5756.3
19198	2.2051	3.6364	5.e-002	-13.235
19199	2.2051	3.3636	0.	-5714.8
19200	2.1132	3.4545	0.	-5757.2
19201	2.2051	3.4545	5.e-002	-13.266
19202	2.2051	3.1818	0.	-5714.8
19203	2.1132	3.2727	0.	-5758.1
19204	2.2051	3.2727	5.e-002	-13.289
19205	2.2051	3.	0.	-5714.9
19206	2.1132	3.0909	0.	-5758.6
19207	2.2051	3.0909	5.e-002	-13.303
19208	2.2051	2.8182	0.	-5714.8
19209	2.1132	2.9091	0.	-5758.6
19210	2.2051	2.9091	5.e-002	-13.303
19211	2.2051	2.6364	0.	-5714.8
19212	2.1132	2.7273	0.	-5758.1
19213	2.2051	2.7273	5.e-002	-13.29
19214	2.2051	2.4545	0.	-5715.
19215	2.1132	2.5455	0.	-5757.2
19216	2.2051	2.5455	5.e-002	-13.266
19217	2.2051	2.2727	0.	-5715.8
19218	2.1132	2.3636	0.	-5756.3
19219	2.2051	2.3636	5.e-002	-13.235
19220	2.2051	2.0909	0.	-5717.6
19221	2.1132	2.1818	0.	-5755.7
19222	2.2051	2.1818	5.e-002	-13.205
19223	2.2051	1.9091	0.	-5720.8
19224	2.1132	2.	0.	-5756.1
19225	2.2051	2.	5.e-002	-13.182
19226	2.2051	1.7273	0.	-5726.1
19227	2.1132	1.8182	0.	-5758.1
19228	2.2051	1.8182	5.e-002	-13.17
19229	2.2051	1.5455	0.	-5734.1
19230	2.1132	1.6364	0.	-5762.3
19231	2.2051	1.6364	5.e-002	-13.172
19232	2.2051	1.3636	0.	-5745.1
19233	2.1132	1.4545	0.	-5769.5
19234	2.2051	1.4545	5.e-002	-13.182
19235	2.2051	1.1818	0.	-5759.7
19236	2.1132	1.2727	0.	-5780.2
19237	2.2051	1.2727	5.e-002	-13.186
19238	2.2051	1.	0.	-5778.
19239	2.1132	1.0909	0.	-5794.9
19240	2.2051	1.0909	5.e-002	-13.161
19241	2.2051	0.81818	0.	-5800.1
19242	2.1132	0.90909	0.	-5813.8
19243	2.2051	0.90909	5.e-002	-13.077
19244	2.2051	0.63636	0.	-5825.8
19245	2.1132	0.72727	0.	-5837.
19246	2.2051	0.72727	5.e-002	-12.903
19247	2.2051	0.45455	0.	-5855.2
19248	2.1132	0.54545	0.	-5864.4
19249	2.2051	0.54545	5.e-002	-12.645
19250	2.2051	0.27273	0.	-5891.5
19251	2.1132	0.36364	0.	-5895.8
19252	2.2051	0.36364	5.e-002	-12.633
19253	2.1132	0.18182	0.	-5939.1
19254	2.2051	0.18182	5.e-002	-22.726
19255	2.2051	9.0909e-002	0.	-5902.1
19256	2.0214	5.7273	0.	-5943.7
19257	1.9295	5.8182	0.	-5989.2
19258	2.0214	5.8182	5.e-002	-24.031
19259	2.0214	5.9091	0.	-5951.6
19260	2.0214	5.5455	0.	-5905.3
19261	1.9295	5.6364	0.	-5942.5
19262	2.0214	5.6364	5.e-002	-13.412
19263	2.0214	5.3636	0.	-5875.8
19264	1.9295	5.4545	0.	-5910.6
19265	2.0214	5.4545	5.e-002	-13.558
19266	2.0214	5.1818	0.	-5850.9
19267	1.9295	5.2727	0.	-5884.1
19268	2.0214	5.2727	5.e-002	-13.867
19269	2.0214	5.	0.	-5830.8
19270	1.9295	5.0909	0.	-5863.
19271	2.0214	5.0909	5.e-002	-14.051
19272	2.0214	4.8182	0.	-5815.4
19273	1.9295	4.9091	0.	-5847.3
19274	2.0214	4.9091	5.e-002	-14.124
19275	2.0214	4.6364	0.	-5804.5
19276	1.9295	4.7273	0.	-5836.9
19277	2.0214	4.7273	5.e-002	-14.13
19278	2.0214	4.4545	0.	-5797.6
19279	1.9295	4.5455	0.	-5831.1
19280	2.0214	4.5455	5.e-002	-14.114
19281	2.0214	4.2727	0.	-5794.1
19282	1.9295	4.3636	0.	-5829.2
19283	2.0214	4.3636	5.e-002	-14.103
19284	2.0214	4.0909	0.	-5793.2
19285	1.9295	4.1818	0.	-5830.2
19286	2.0214	4.1818	5.e-002	-14.112
19287	2.0214	3.9091	0.	-5794.1
19288	1.9295	4.	0.	-5833.3
19289	2.0214	4.	5.e-002	-14.142
19290	2.0214	3.7273	0.	-5796.
19291	1.9295	3.8182	0.	-5837.5
19292	2.0214	3.8182	5.e-002	-14.188
19293	2.0214	3.5455	0.	-5798.2
19294	1.9295	3.6364	0.	-5841.9
19295	2.0214	3.6364	5.e-002	-14.241
19296	2.0214	3.3636	0.	-5800.2
19297	1.9295	3.4545	0.	-5845.9
19298	2.0214	3.4545	5.e-002	-14.29
19299	2.0214	3.1818	0.	-5801.6
19300	1.9295	3.2727	0.	-5848.8
19301	2.0214	3.2727	5.e-002	-14.327
19302	2.0214	3.	0.	-5802.1
19303	1.9295	3.0909	0.	-5850.3
19304	2.0214	3.0909	5.e-002	-14.347
19305	2.0214	2.8182	0.	-5801.6
19306	1.9295	2.9091	0.	-5850.3
19307	2.0214	2.9091	5.e-002	-14.347
19308	2.0214	2.6364	0.	-5800.2
19309	1.9295	2.7273	0.	-5848.8
19310	2.0214	2.7273	5.e-002	-14.327
19311	2.0214	2.4545	0.	-5798.2
19312	1.9295	2.5455	0.	-5845.9
19313	2.0214	2.5455	5.e-002	-14.29
19314	2.0214	2.2727	0.	-5796.
19315	1.9295	2.3636	0.	-5841.9
19316	2.0214	2.3636	5.e-002	-14.241
19317	2.0214	2.0909	0.	-5794.1
19318	1.9295	2.1818	0.	-5837.5
19319	2.0214	2.1818	5.e-002	-14.188
19320	2.0214	1.9091	0.	-5793.2
19321	1.9295	2.	0.	-5833.3
19322	2.0214	2.	5.e-002	-14.142
19323	2.0214	1.7273	0.	-5794.1
19324	1.9295	1.8182	0.	-5830.2
19325	2.0214	1.8182	5.e-002	-14.112
19326	2.0214	1.5455	0.	-5797.6
19327	1.9295	1.6364	0.	-5829.2
19328	2.0214	1.6364	5.e-002	-14.103
19329	2.0214	1.3636	0.	-5804.5
19330	1.9295	1.4545	0.	-5831.1
19331	2.0214	1.4545	5.e-002	-14.114
19332	2.0214	1.1818	0.	-5815.4
19333	1.9295	1.2727	0.	-5836.9
19334	2.0214	1.2727	5.e-002	-14.13
19335	2.0214	1.	0.	-5830.8
19336	1.9295	1.0909	0.	-5847.3
19337	2.0214	1.0909	5.e-002	-14.124
19338	2.0214	0.81818	0.	-5850.9
19339	1.9295	0.90909	0.	-5863.
19340	2.0214	0.90909	5.e-002	-14.051
19341	2.0214	0.63636	0.	-5875.8
19342	1.9295	0.72727	0.	-5884.1
19343	2.0214	0.72727	5.e-002	-13.867
19344	2.0214	0.45455	0.	-5905.3
19345	1.9295	0.54545	0.	-5910.6
19346	2.0214	0.54545	5.e-002	-13.558
19347	2.0214	0.27273	0.	-5943.7
19348	1.9295	0.36364	0.	-5942.5
19349	2.0214	0.36364	5.e-002	-13.412
19350	1.9295	0.18182	0.	-5989.2
19351	2.0214	0.18182	5.e-002	-24.031
19352	2.0214	9.0909e-002	0.	-5951.7
19353	1.8376	5.7273	0.	-5988.4
19354	1.7457	5.8182	0.	-6030.4
19355	1.8376	5.8182	5.e-002	-25.297
19356	1.8376	5.9091	0.	-5993.
19357	1.8376	5.5455	0.	-5948.1
19358	1.7457	5.6364	0.	-5980.2
19359	1.8376	5.6364	5.e-002	-14.386
19360	1.8376	5.3636	0.	-5919.2
19361	1.7457	5.4545	0.	-5948.5
19362	1.8376	5.4545	5.e-002	-14.708
19363	1.8376	5.1818	0.	-5896.4
19364	1.7457	5.2727	0.	-5924.1
19365	1.8376	5.2727	5.e-002	-15.057
19366	1.8376	5.	0.	-5879.6
19367	1.7457	5.0909	0.	-5906.7
19368	1.8376	5.0909	5.e-002	-15.226
19369	1.8376	4.8182	0.	-5868.8
19370	1.7457	4.9091	0.	-5896.2
19371	1.8376	4.9091	5.e-002	-15.259
19372	1.8376	4.6364	0.	-5863.3
19373	1.7457	4.7273	0.	-5892.1
19374	1.8376	4.7273	5.e-002	-15.227
19375	1.8376	4.4545	0.	-5862.5
19376	1.7457	4.5455	0.	-5893.3
19377	1.8376	4.5455	5.e-002	-15.187
19378	1.8376	4.2727	0.	-5865.1
19379	1.7457	4.3636	0.	-5898.7
19380	1.8376	4.3636	5.e-002	-15.172
19381	1.8376	4.0909	0.	-5870.1
19382	1.7457	4.1818	0.	-5907.
19383	1.8376	4.1818	5.e-002	-15.193
19384	1.8376	3.9091	0.	-5876.5
19385	1.7457	4.	0.	-5916.7
19386	1.8376	4.	5.e-002	-15.245
19387	1.8376	3.7273	0.	-5883.2
19388	1.7457	3.8182	0.	-5926.7
19389	1.8376	3.8182	5.e-002	-15.316
19390	1.8376	3.5455	0.	-5889.3
19391	1.7457	3.6364	0.	-5936.
19392	1.8376	3.6364	5.e-002	-15.392
19393	1.8376	3.3636	0.	-5894.1
19394	1.7457	3.4545	0.	-5943.7
19395	1.8376	3.4545	5.e-002	-15.46
19396	1.8376	3.1818	0.	-5897.2
19397	1.7457	3.2727	0.	-5949.1
19398	1.8376	3.2727	5.e-002	-15.511
19399	1.8376	3.	0.	-5898.3
19400	1.7457	3.0909	0.	-5951.9
19401	1.8376	3.0909	5.e-002	-15.538
19402	1.8376	2.8182	0.	-5897.2
19403	1.7457	2.9091	0.	-5951.9
19404	1.8376	2.9091	5.e-002	-15.538
19405	1.8376	2.6364	0.	-5894.1
19406	1.7457	2.7273	0.	-5949.1
19407	1.8376	2.7273	5.e-002	-15.511
19408	1.8376	2.4545	0.	-5889.3
19409	1.7457	2.5455	0.	-5943.7
19410	1.8376	2.5455	5.e-002	-15.46
19411	1.8376	2.2727	0.	-5883.2
19412	1.7457	2.3636	0.	-5936.
19413	1.8376	2.3636	5.e-002	-15.392
19414	1.8376	2.0909	0.	-5876.5
19415	1.7457	2.1818	0.	-5926.7
19416	1.8376	2.1818	5.e-002	-15.316
19417	1.8376	1.9091	0.	-5870.1
19418	1.7457	2.	0.	-5916.7
19419	1.8376	2.	5.e-002	-15.245
19420	1.8376	1.7273	0.	-5865.1
19421	1.7457	1.8182	0.	-5907.
19422	1.8376	1.8182	5.e-002	-15.193
19423	1.8376	1.5455	0.	-5862.5
19424	1.7457	1.6364	0.	-5898.7
19425	1.8376	1.6364	5.e-002	-15.172
19426	1.8376	1.3636	0.	-5863.3
19427	1.7457	1.4545	0.	-5893.3
19428	1.8376	1.4545	5.e-002	-15.187
19429	1.8376	1.1818	0.	-5868.8
19430	1.7457	1.2727	0.	-5892.1
19431	1.8376	1.2727	5.e-002	-15.227
19432	1.8376	1.	0.	-5879.6
19433	1.7457	1.0909	0.	-5896.2
19434	1.8376	1.0909	5.e-002	-15.259
19435	1.8376	0.81818	0.	-5896.4
19436	1.7457	0.90909	0.	-5906.7
19437	1.8376	0.90909	5.e-002	-15.226
19438	1.8376	0.63636	0.	-5919.2
19439	1.7457	0.72727	0.	-5924.1
19440	1.8376	0.72727	5.e-002	-15.057
19441	1.8376	0.45455	0.	-5948.1
19442	1.7457	0.54545	0.	-5948.5
19443	1.8376	0.54545	5.e-002	-14.708
19444	1.8376	0.27273	0.	-5988.4
19445	1.7457	0.36364	0.	-5980.2
19446	1.8376	0.36364	5.e-002	-14.386
19447	1.7457	0.18182	0.	-6030.4
19448	1.8376	0.18182	5.e-002	-25.297
19449	1.8376	9.0909e-002	0.	-5993.
19450	1.6538	5.7273	0.	-6022.6
19451	1.562	5.8182	0.	-6058.9
19452	1.6538	5.8182	5.e-002	-26.484
19453	1.6538	5.9091	0.	-6022.8
19454	1.6538	5.5455	0.	-5980.9
19455	1.562	5.6364	0.	-6005.3
19456	1.6538	5.6364	5.e-002	-15.664
19457	1.6538	5.3636	0.	-5953.7
19458	1.562	5.4545	0.	-5975.
19459	1.6538	5.4545	5.e-002	-16.199
19460	1.6538	5.1818	0.	-5934.6
19461	1.562	5.2727	0.	-5954.4
19462	1.6538	5.2727	5.e-002	-16.555
19463	1.6538	5.	0.	-5923.3
19464	1.562	5.0909	0.	-5943.2
19465	1.6538	5.0909	5.e-002	-16.66
19466	1.6538	4.8182	0.	-5919.4
19467	1.562	4.9091	0.	-5940.7
19468	1.6538	4.9091	5.e-002	-16.608
19469	1.6538	4.6364	0.	-5921.9
19470	1.562	4.7273	0.	-5945.9
19471	1.6538	4.7273	5.e-002	-16.507
19472	1.6538	4.4545	0.	-5929.4
19473	1.562	4.5455	0.	-5957.
19474	1.6538	4.5455	5.e-002	-16.429
19475	1.6538	4.2727	0.	-5940.3
19476	1.562	4.3636	0.	-5972.3
19477	1.6538	4.3636	5.e-002	-16.406
19478	1.6538	4.0909	0.	-5953.2
19479	1.562	4.1818	0.	-5989.9
19480	1.6538	4.1818	5.e-002	-16.439
19481	1.6538	3.9091	0.	-5966.6
19482	1.562	4.	0.	-6008.1
19483	1.6538	4.	5.e-002	-16.514
19484	1.6538	3.7273	0.	-5979.2
19485	1.562	3.8182	0.	-6025.3
19486	1.6538	3.8182	5.e-002	-16.609
19487	1.6538	3.5455	0.	-5990.1
19488	1.562	3.6364	0.	-6040.5
19489	1.6538	3.6364	5.e-002	-16.707
19490	1.6538	3.3636	0.	-5998.3
19491	1.562	3.4545	0.	-6052.6
19492	1.6538	3.4545	5.e-002	-16.791
19493	1.6538	3.1818	0.	-6003.5
19494	1.562	3.2727	0.	-6061.
19495	1.6538	3.2727	5.e-002	-16.853
19496	1.6538	3.	0.	-6005.3
19497	1.562	3.0909	0.	-6065.3
19498	1.6538	3.0909	5.e-002	-16.885
19499	1.6538	2.8182	0.	-6003.5
19500	1.562	2.9091	0.	-6065.3
19501	1.6538	2.9091	5.e-002	-16.885
19502	1.6538	2.6364	0.	-5998.3
19503	1.562	2.7273	0.	-6061.
19504	1.6538	2.7273	5.e-002	-16.853
19505	1.6538	2.4545	0.	-5990.1
19506	1.562	2.5455	0.	-6052.6
19507	1.6538	2.5455	5.e-002	-16.791
19508	1.6538	2.2727	0.	-5979.2
19509	1.562	2.3636	0.	-6040.5
19510	1.6538	2.3636	5.e-002	-16.707
19511	1.6538	2.0909	0.	-5966.6
19512	1.562	2.1818	0.	-6025.3
19513	1.6538	2.1818	5.e-002	-16.609
19514	1.6538	1.9091	0.	-5953.2
19515	1.562	2.	0.	-6008.1
19516	1.6538	2.	5.e-002	-16.514
19517	1.6538	1.7273	0.	-5940.3
19518	1.562	1.8182	0.	-5989.9
19519	1.6538	1.8182	5.e-002	-16.439
19520	1.6538	1.5455	0.	-5929.4
19521	1.562	1.6364	0.	-5972.3
19522	1.6538	1.6364	5.e-002	-16.406
19523	1.6538	1.3636	0.	-5921.9
19524	1.562	1.4545	0.	-5957.
19525	1.6538	1.4545	5.e-002	-16.429
19526	1.6538	1.1818	0.	-5919.4
19527	1.562	1.2727	0.	-5945.9
19528	1.6538	1.2727	5.e-002	-16.507
19529	1.6538	1.	0.	-5923.3
19530	1.562	1.0909	0.	-5940.7
19531	1.6538	1.0909	5.e-002	-16.608
19532	1.6538	0.81818	0.	-5934.6
19533	1.562	0.90909	0.	-5943.2
19534	1.6538	0.90909	5.e-002	-16.66
19535	1.6538	0.63636	0.	-5953.7
19536	1.562	0.72727	0.	-5954.4
19537	1.6538	0.72727	5.e-002	-16.555
19538	1.6538	0.45455	0.	-5980.9
19539	1.562	0.54545	0.	-5975.
19540	1.6538	0.54545	5.e-002	-16.199
19541	1.6538	0.27273	0.	-6022.6
19542	1.562	0.36364	0.	-6005.3
19543	1.6538	0.36364	5.e-002	-15.664
19544	1.562	0.18182	0.	-6058.9
19545	1.6538	0.18182	5.e-002	-26.484
19546	1.6538	9.0909e-002	0.	-6022.8
19547	1.4701	5.7273	0.	-6042.
19548	1.3782	5.8182	0.	-6069.3
19549	1.4701	5.8182	5.e-002	-27.539
19550	1.4701	5.9091	0.	-6036.4
19551	1.4701	5.5455	0.	-5999.7
19552	1.3782	5.6364	0.	-6012.6
19553	1.4701	5.6364	5.e-002	-17.43
19554	1.4701	5.3636	0.	-5976.
19555	1.3782	5.4545	0.	-5985.6
19556	1.4701	5.4545	5.e-002	-18.189
19557	1.4701	5.1818	0.	-5963.2
19558	1.3782	5.2727	0.	-5972.
19559	1.4701	5.2727	5.e-002	-18.474
19560	1.4701	5.	0.	-5960.6
19561	1.3782	5.0909	0.	-5970.6
19562	1.4701	5.0909	5.e-002	-18.425
19563	1.4701	4.8182	0.	-5967.
19564	1.3782	4.9091	0.	-5980.3
19565	1.4701	4.9091	5.e-002	-18.219
19566	1.4701	4.6364	0.	-5980.7
19567	1.3782	4.7273	0.	-5998.8
19568	1.4701	4.7273	5.e-002	-18.009
19569	1.4701	4.4545	0.	-5999.6
19570	1.3782	4.5455	0.	-6023.6
19571	1.4701	4.5455	5.e-002	-17.876
19572	1.4701	4.2727	0.	-6021.6
19573	1.3782	4.3636	0.	-6051.9
19574	1.4701	4.3636	5.e-002	-17.84
19575	1.4701	4.0909	0.	-6044.4
19576	1.3782	4.1818	0.	-6081.4
19577	1.4701	4.1818	5.e-002	-17.884
19578	1.4701	3.9091	0.	-6066.5
19579	1.3782	4.	0.	-6109.9
19580	1.4701	4.	5.e-002	-17.977
19581	1.4701	3.7273	0.	-6086.3
19582	1.3782	3.8182	0.	-6135.7
19583	1.4701	3.8182	5.e-002	-18.091
19584	1.4701	3.5455	0.	-6102.7
19585	1.3782	3.6364	0.	-6157.7
19586	1.4701	3.6364	5.e-002	-18.201
19587	1.4701	3.3636	0.	-6114.9
19588	1.3782	3.4545	0.	-6174.8
19589	1.4701	3.4545	5.e-002	-18.294
19590	1.4701	3.1818	0.	-6122.5
19591	1.3782	3.2727	0.	-6186.6
19592	1.4701	3.2727	5.e-002	-18.36
19593	1.4701	3.	0.	-6125.1
19594	1.3782	3.0909	0.	-6192.5
19595	1.4701	3.0909	5.e-002	-18.394
19596	1.4701	2.8182	0.	-6122.5
19597	1.3782	2.9091	0.	-6192.5
19598	1.4701	2.9091	5.e-002	-18.394
19599	1.4701	2.6364	0.	-6114.9
19600	1.3782	2.7273	0.	-6186.6
19601	1.4701	2.7273	5.e-002	-18.36
19602	1.4701	2.4545	0.	-6102.7
19603	1.3782	2.5455	0.	-6174.8
19604	1.4701	2.5455	5.e-002	-18.294
19605	1.4701	2.2727	0.	-6086.3
19606	1.3782	2.3636	0.	-6157.7
19607	1.4701	2.3636	5.e-002	-18.201
19608	1.4701	2.0909	0.	-6066.5
19609	1.3782	2.1818	0.	-6135.7
19610	1.4701	2.1818	5.e-002	-18.091
19611	1.4701	1.9091	0.	-6044.4
19612	1.3782	2.	0.	-6109.9
19613	1.4701	2.	5.e-002	-17.977
19614	1.4701	1.7273	0.	-6021.6
19615	1.3782	1.8182	0.	-6081.4
19616	1.4701	1.8182	5.e-002	-17.884
19617	1.4701	1.5455	0.	-5999.6
19618	1.3782	1.6364	0.	-6051.9
19619	1.4701	1.6364	5.e-002	-17.84
19620	1.4701	1.3636	0.	-5980.7
19621	1.3782	1.4545	0.	-6023.6
19622	1.4701	1.4545	5.e-002	-17.876
19623	1.4701	1.1818	0.	-5967.
19624	1.3782	1.2727	0.	-5998.8
19625	1.4701	1.2727	5.e-002	-18.009
19626	1.4701	1.	0.	-5960.6
19627	1.3782	1.0909	0.	-5980.3
19628	1.4701	1.0909	5.e-002	-18.219
19629	1.4701	0.81818	0.	-5963.2
19630	1.3782	0.90909	0.	-5970.6
19631	1.4701	0.90909	5.e-002	-18.425
19632	1.4701	0.63636	0.	-5976.
19633	1.3782	0.72727	0.	-5972.
19634	1.4701	0.72727	5.e-002	-18.474
19635	1.4701	0.45455	0.	-5999.7
19636	1.3782	0.54545	0.	-5985.6
19637	1.4701	0.54545	5.e-002	-18.189
19638	1.4701	0.27273	0.	-6042.
19639	1.3782	0.36364	0.	-6012.6
19640	1.4701	0.36364	5.e-002	-17.43
19641	1.3782	0.18182	0.	-6069.3
19642	1.4701	0.18182	5.e-002	-27.539
19643	1.4701	9.0909e-002	0.	-6036.4
19644	1.2863	5.7273	0.	-6040.3
19645	1.1944	5.8182	0.	-6053.3
19646	1.2863	5.8182	5.e-002	-28.407
19647	1.2863	5.9091	0.	-6027.
19648	1.2863	5.5455	0.	-5998.9
19649	1.1944	5.6364	0.	-5994.7
19650	1.2863	5.6364	5.e-002	-19.977
19651	1.2863	5.3636	0.	-5981.9
19652	1.1944	5.4545	0.	-5974.6
19653	1.2863	5.4545	5.e-002	-20.907
19654	1.2863	5.1818	0.	-5979.5
19655	1.1944	5.2727	0.	-5972.9
19656	1.2863	5.2727	5.e-002	-20.962
19657	1.2863	5.	0.	-5990.2
19658	1.1944	5.0909	0.	-5987.4
19659	1.2863	5.0909	5.e-002	-20.606
19660	1.2863	4.8182	0.	-6011.8
19661	1.1944	4.9091	0.	-6015.3
19662	1.2863	4.9091	5.e-002	-20.145
19663	1.2863	4.6364	0.	-6041.3
19664	1.1944	4.7273	0.	-6052.8
19665	1.2863	4.7273	5.e-002	-19.778
19666	1.2863	4.4545	0.	-6075.4
19667	1.1944	4.5455	0.	-6095.9
19668	1.2863	4.5455	5.e-002	-19.574
19669	1.2863	4.2727	0.	-6111.4
19670	1.1944	4.3636	0.	-6140.8
19671	1.2863	4.3636	5.e-002	-19.519
19672	1.2863	4.0909	0.	-6146.5
19673	1.1944	4.1818	0.	-6184.8
19674	1.2863	4.1818	5.e-002	-19.565
19675	1.2863	3.9091	0.	-6178.8
19676	1.1944	4.	0.	-6225.3
19677	1.2863	4.	5.e-002	-19.664
19678	1.2863	3.7273	0.	-6206.8
19679	1.1944	3.8182	0.	-6260.9
19680	1.2863	3.8182	5.e-002	-19.777
19681	1.2863	3.5455	0.	-6229.5
19682	1.1944	3.6364	0.	-6290.3
19683	1.2863	3.6364	5.e-002	-19.884
19684	1.2863	3.3636	0.	-6246.1
19685	1.1944	3.4545	0.	-6312.8
19686	1.2863	3.4545	5.e-002	-19.97
19687	1.2863	3.1818	0.	-6256.3
19688	1.1944	3.2727	0.	-6328.1
19689	1.2863	3.2727	5.e-002	-20.029
19690	1.2863	3.	0.	-6259.7
19691	1.1944	3.0909	0.	-6335.8
19692	1.2863	3.0909	5.e-002	-20.06
19693	1.2863	2.8182	0.	-6256.3
19694	1.1944	2.9091	0.	-6335.8
19695	1.2863	2.9091	5.e-002	-20.06
19696	1.2863	2.6364	0.	-6246.1
19697	1.1944	2.7273	0.	-6328.1
19698	1.2863	2.7273	5.e-002	-20.029
19699	1.2863	2.4545	0.	-6229.5
19700	1.1944	2.5455	0.	-6312.8
19701	1.2863	2.5455	5.e-002	-19.97
19702	1.2863	2.2727	0.	-6206.8
19703	1.1944	2.3636	0.	-6290.3
19704	1.2863	2.3636	5.e-002	-19.884
19705	1.2863	2.0909	0.	-6178.8
19706	1.1944	2.1818	0.	-6260.9
19707	1.2863	2.1818	5.e-002	-19.777
19708	1.2863	1.9091	0.	-6146.5
19709	1.1944	2.	0.	-6225.3
19710	1.2863	2.	5.e-002	-19.664
19711	1.2863	1.7273	0.	-6111.4
19712	1.1944	1.8182	0.	-6184.8
19713	1.2863	1.8182	5.e-002	-19.565
19714	1.2863	1.5455	0.	-6075.4
19715	1.1944	1.6364	0.	-6140.8
19716	1.2863	1.6364	5.e-002	-19.519
19717	1.2863	1.3636	0.	-6041.3
19718	1.1944	1.4545	0.	-6095.9
19719	1.2863	1.4545	5.e-002	-19.574
19720	1.2863	1.1818	0.	-6011.8
19721	1.1944	1.2727	0.	-6052.8
19722	1.2863	1.2727	5.e-002	-19.778
19723	1.2863	1.	0.	-5990.2
19724	1.1944	1.0909	0.	-6015.3
19725	1.2863	1.0909	5.e-002	-20.145
19726	1.2863	0.81818	0.	-5979.5
19727	1.1944	0.90909	0.	-5987.4
19728	1.2863	0.90909	5.e-002	-20.606
19729	1.2863	0.63636	0.	-5981.9
19730	1.1944	0.72727	0.	-5972.9
19731	1.2863	0.72727	5.e-002	-20.962
19732	1.2863	0.45455	0.	-5998.9
19733	1.1944	0.54545	0.	-5974.6
19734	1.2863	0.54545	5.e-002	-20.907
19735	1.2863	0.27273	0.	-6040.3
19736	1.1944	0.36364	0.	-5994.7
19737	1.2863	0.36364	5.e-002	-19.977
19738	1.1944	0.18182	0.	-6053.3
19739	1.2863	0.18182	5.e-002	-28.407
19740	1.2863	9.0909e-002	0.	-6027.
19741	1.1026	5.7273	0.	-6008.1
19742	1.0107	5.8182	0.	-5997.7
19743	1.1026	5.8182	5.e-002	-29.102
19744	1.1026	5.9091	0.	-5984.1
19745	1.1026	5.5455	0.	-5970.9
19746	1.0107	5.6364	0.	-5940.1
19747	1.1026	5.6364	5.e-002	-23.8
19748	1.1026	5.3636	0.	-5965.9
19749	1.0107	5.4545	0.	-5933.6
19750	1.1026	5.4545	5.e-002	-24.685
19751	1.1026	5.1818	0.	-5980.7
19752	1.0107	5.2727	0.	-5952.5
19753	1.1026	5.2727	5.e-002	-24.197
19754	1.1026	5.	0.	-6012.1
19755	1.0107	5.0909	0.	-5992.5
19756	1.1026	5.0909	5.e-002	-23.296
19757	1.1026	4.8182	0.	-6055.8
19758	1.0107	4.9091	0.	-6047.6
19759	1.1026	4.9091	5.e-002	-22.457
19760	1.1026	4.6364	0.	-6106.8
19761	1.0107	4.7273	0.	-6111.4
19762	1.1026	4.7273	5.e-002	-21.891
19763	1.1026	4.4545	0.	-6160.8
19764	1.0107	4.5455	0.	-6178.2
19765	1.1026	4.5455	5.e-002	-21.607
19766	1.1026	4.2727	0.	-6213.8
19767	1.0107	4.3636	0.	-6243.4
19768	1.1026	4.3636	5.e-002	-21.521
19769	1.1026	4.0909	0.	-6263.3
19770	1.0107	4.1818	0.	-6304.
19771	1.1026	4.1818	5.e-002	-21.546
19772	1.1026	3.9091	0.	-6307.1
19773	1.0107	4.	0.	-6357.9
19774	1.1026	4.	5.e-002	-21.619
19775	1.1026	3.7273	0.	-6344.1
19776	1.0107	3.8182	0.	-6403.7
19777	1.1026	3.8182	5.e-002	-21.701
19778	1.1026	3.5455	0.	-6373.4
19779	1.0107	3.6364	0.	-6440.7
19780	1.1026	3.6364	5.e-002	-21.774
19781	1.1026	3.3636	0.	-6394.6
19782	1.0107	3.4545	0.	-6468.7
19783	1.1026	3.4545	5.e-002	-21.829
19784	1.1026	3.1818	0.	-6407.4
19785	1.0107	3.2727	0.	-6487.4
19786	1.1026	3.2727	5.e-002	-21.866
19787	1.1026	3.	0.	-6411.6
19788	1.0107	3.0909	0.	-6496.7
19789	1.1026	3.0909	5.e-002	-21.885
19790	1.1026	2.8182	0.	-6407.4
19791	1.0107	2.9091	0.	-6496.7
19792	1.1026	2.9091	5.e-002	-21.885
19793	1.1026	2.6364	0.	-6394.6
19794	1.0107	2.7273	0.	-6487.4
19795	1.1026	2.7273	5.e-002	-21.866
19796	1.1026	2.4545	0.	-6373.4
19797	1.0107	2.5455	0.	-6468.7
19798	1.1026	2.5455	5.e-002	-21.829
19799	1.1026	2.2727	0.	-6344.1
19800	1.0107	2.3636	0.	-6440.7
19801	1.1026	2.3636	5.e-002	-21.774
19802	1.1026	2.0909	0.	-6307.1
19803	1.0107	2.1818	0.	-6403.7
19804	1.1026	2.1818	5.e-002	-21.701
19805	1.1026	1.9091	0.	-6263.3
19806	1.0107	2.	0.	-6357.9
19807	1.1026	2.	5.e-002	-21.619
19808	1.1026	1.7273	0.	-6213.8
19809	1.0107	1.8182	0.	-6304.
19810	1.1026	1.8182	5.e-002	-21.546
19811	1.1026	1.5455	0.	-6160.8
19812	1.0107	1.6364	0.	-6243.4
19813	1.1026	1.6364	5.e-002	-21.521
19814	1.1026	1.3636	0.	-6106.8
19815	1.0107	1.4545	0.	-6178.2
19816	1.1026	1.4545	5.e-002	-21.607
19817	1.1026	1.1818	0.	-6055.8
19818	1.0107	1.2727	0.	-6111.4
19819	1.1026	1.2727	5.e-002	-21.891
19820	1.1026	1.	0.	-6012.1
19821	1.0107	1.0909	0.	-6047.6
19822	1.1026	1.0909	5.e-002	-22.457
19823	1.1026	0.81818	0.	-5980.7
19824	1.0107	0.90909	0.	-5992.5
19825	1.1026	0.90909	5.e-002	-23.296
19826	1.1026	0.63636	0.	-5965.9
19827	1.0107	0.72727	0.	-5952.5
19828	1.1026	0.72727	5.e-002	-24.197
19829	1.1026	0.45455	0.	-5970.9
19830	1.0107	0.54545	0.	-5933.6
19831	1.1026	0.54545	5.e-002	-24.685
19832	1.1026	0.27273	0.	-6008.1
19833	1.0107	0.36364	0.	-5940.1
19834	1.1026	0.36364	5.e-002	-23.8
19835	1.0107	0.18182	0.	-5997.7
19836	1.1026	0.18182	5.e-002	-29.102
19837	1.1026	9.0909e-002	0.	-5984.1
19838	0.9188	5.7273	0.	-5930.2
19839	0.82692	5.8182	0.	-5881.5
19840	0.9188	5.8182	5.e-002	-29.831
19841	0.9188	5.9091	0.	-5890.7
19842	0.9188	5.5455	0.	-5903.3
19843	0.82692	5.6364	0.	-5832.5
19844	0.9188	5.6364	5.e-002	-29.678
19845	0.9188	5.3636	0.	-5920.2
19846	0.82692	5.4545	0.	-5853.
19847	0.9188	5.4545	5.e-002	-29.973
19848	0.9188	5.1818	0.	-5963.8
19849	0.82692	5.2727	0.	-5908.9
19850	0.9188	5.2727	5.e-002	-28.355
19851	0.9188	5.	0.	-6027.2
19852	0.82692	5.0909	0.	-5990.
19853	0.9188	5.0909	5.e-002	-26.557
19854	0.9188	4.8182	0.	-6102.4
19855	0.82692	4.9091	0.	-6084.9
19856	0.9188	4.9091	5.e-002	-25.213
19857	0.9188	4.6364	0.	-6182.1
19858	0.82692	4.7273	0.	-6183.9
19859	0.9188	4.7273	5.e-002	-24.42
19860	0.9188	4.4545	0.	-6260.4
19861	0.82692	4.5455	0.	-6279.8
19862	0.9188	4.5455	5.e-002	-24.031
19863	0.9188	4.2727	0.	-6333.3
19864	0.82692	4.3636	0.	-6368.2
19865	0.9188	4.3636	5.e-002	-23.872
19866	0.9188	4.0909	0.	-6398.4
19867	0.82692	4.1818	0.	-6446.6
19868	0.9188	4.1818	5.e-002	-23.819
19869	0.9188	3.9091	0.	-6454.2
19870	0.82692	4.	0.	-6513.8
19871	0.9188	4.	5.e-002	-23.805
19872	0.9188	3.7273	0.	-6500.2
19873	0.82692	3.8182	0.	-6569.5
19874	0.9188	3.8182	5.e-002	-23.801
19875	0.9188	3.5455	0.	-6535.9
19876	0.82692	3.6364	0.	-6613.6
19877	0.9188	3.6364	5.e-002	-23.795
19878	0.9188	3.3636	0.	-6561.3
19879	0.82692	3.4545	0.	-6646.4
19880	0.9188	3.4545	5.e-002	-23.788
19881	0.9188	3.1818	0.	-6576.6
19882	0.82692	3.2727	0.	-6668.1
19883	0.9188	3.2727	5.e-002	-23.781
19884	0.9188	3.	0.	-6581.7
19885	0.82692	3.0909	0.	-6678.9
19886	0.9188	3.0909	5.e-002	-23.776
19887	0.9188	2.8182	0.	-6576.6
19888	0.82692	2.9091	0.	-6678.9
19889	0.9188	2.9091	5.e-002	-23.776
19890	0.9188	2.6364	0.	-6561.3
19891	0.82692	2.7273	0.	-6668.1
19892	0.9188	2.7273	5.e-002	-23.781
19893	0.9188	2.4545	0.	-6535.9
19894	0.82692	2.5455	0.	-6646.4
19895	0.9188	2.5455	5.e-002	-23.788
19896	0.9188	2.2727	0.	-6500.2
19897	0.82692	2.3636	0.	-6613.6
19898	0.9188	2.3636	5.e-002	-23.795
19899	0.9188	2.0909	0.	-6454.2
19900	0.82692	2.1818	0.	-6569.5
19901	0.9188	2.1818	5.e-002	-23.801
19902	0.9188	1.9091	0.	-6398.4
19903	0.82692	2.	0.	-6513.8
19904	0.9188	2.	5.e-002	-23.805
19905	0.9188	1.7273	0.	-6333.3
19906	0.82692	1.8182	0.	-6446.6
19907	0.9188	1.8182	5.e-002	-23.819
19908	0.9188	1.5455	0.	-6260.4
19909	0.82692	1.6364	0.	-6368.2
19910	0.9188	1.6364	5.e-002	-23.872
19911	0.9188	1.3636	0.	-6182.1
19912	0.82692	1.4545	0.	-6279.8
19913	0.9188	1.4545	5.e-002	-24.031
19914	0.9188	1.1818	0.	-6102.4
19915	0.82692	1.2727	0.	-6183.9
19916	0.9188	1.2727	5.e-002	-24.42
19917	0.9188	1.	0.	-6027.2
19918	0.82692	1.0909	0.	-6084.9
19919	0.9188	1.0909	5.e-002	-25.213
19920	0.9188	0.81818	0.	-5963.8
19921	0.82692	0.90909	0.	-5990.
19922	0.9188	0.90909	5.e-002	-26.557
19923	0.9188	0.63636	0.	-5920.2
19924	0.82692	0.72727	0.	-5908.9
19925	0.9188	0.72727	5.e-002	-28.355
19926	0.9188	0.45455	0.	-5903.3
19927	0.82692	0.54545	0.	-5853.
19928	0.9188	0.54545	5.e-002	-29.973
19929	0.9188	0.27273	0.	-5930.2
19930	0.82692	0.36364	0.	-5832.5
19931	0.9188	0.36364	5.e-002	-29.678
19932	0.82692	0.18182	0.	-5881.5
19933	0.9188	0.18182	5.e-002	-29.831
19934	0.9188	9.0909e-002	0.	-5890.7
19935	0.73504	5.7273	0.	-5784.4
19936	0.64316	5.8182	0.	-5662.8
19937	0.73504	5.8182	5.e-002	-32.166
19938	0.73504	5.9091	0.	-5719.5
19939	0.73504	5.5455	0.	-5782.4
19940	0.64316	5.6364	0.	-5640.1
19941	0.73504	5.6364	5.e-002	-38.98
19942	0.73504	5.3636	0.	-5841.1
19943	0.64316	5.4545	0.	-5715.9
19944	0.73504	5.4545	5.e-002	-37.298
19945	0.73504	5.1818	0.	-5934.
19946	0.64316	5.2727	0.	-5838.8
19947	0.73504	5.2727	5.e-002	-33.586
19948	0.73504	5.	0.	-6046.6
19949	0.64316	5.0909	0.	-5984.8
19950	0.73504	5.0909	5.e-002	-30.574
19951	0.73504	4.8182	0.	-6165.5
19952	0.64316	4.9091	0.	-6135.1
19953	0.73504	4.9091	5.e-002	-28.718
19954	0.73504	4.6364	0.	-6281.1
19955	0.64316	4.7273	0.	-6277.4
19956	0.73504	4.7273	5.e-002	-27.717
19957	0.73504	4.4545	0.	-6387.3
19958	0.64316	4.5455	0.	-6405.7
19959	0.73504	4.5455	5.e-002	-27.187
19960	0.73504	4.2727	0.	-6481.3
19961	0.64316	4.3636	0.	-6517.6
19962	0.73504	4.3636	5.e-002	-26.873
19963	0.73504	4.0909	0.	-6562.
19964	0.64316	4.1818	0.	-6612.7
19965	0.73504	4.1818	5.e-002	-26.651
19966	0.73504	3.9091	0.	-6629.
19967	0.64316	4.	0.	-6691.6
19968	0.73504	4.	5.e-002	-26.468
19969	0.73504	3.7273	0.	-6682.9
19970	0.64316	3.8182	0.	-6755.3
19971	0.73504	3.8182	5.e-002	-26.31
19972	0.73504	3.5455	0.	-6724.
19973	0.64316	3.6364	0.	-6804.9
19974	0.73504	3.6364	5.e-002	-26.176
19975	0.73504	3.3636	0.	-6753.
19976	0.64316	3.4545	0.	-6841.3
19977	0.73504	3.4545	5.e-002	-26.069
19978	0.73504	3.1818	0.	-6770.3
19979	0.64316	3.2727	0.	-6865.1
19980	0.73504	3.2727	5.e-002	-25.995
19981	0.73504	3.	0.	-6776.
19982	0.64316	3.0909	0.	-6876.9
19983	0.73504	3.0909	5.e-002	-25.957
19984	0.73504	2.8182	0.	-6770.3
19985	0.64316	2.9091	0.	-6876.9
19986	0.73504	2.9091	5.e-002	-25.957
19987	0.73504	2.6364	0.	-6753.
19988	0.64316	2.7273	0.	-6865.1
19989	0.73504	2.7273	5.e-002	-25.995
19990	0.73504	2.4545	0.	-6724.
19991	0.64316	2.5455	0.	-6841.3
19992	0.73504	2.5455	5.e-002	-26.069
19993	0.73504	2.2727	0.	-6682.9
19994	0.64316	2.3636	0.	-6804.9
19995	0.73504	2.3636	5.e-002	-26.176
19996	0.73504	2.0909	0.	-6629.
19997	0.64316	2.1818	0.	-6755.3
19998	0.73504	2.1818	5.e-002	-26.31
19999	0.73504	1.9091	0.	-6562.
20000	0.64316	2.	0.	-6691.6
20001	0.73504	2.	5.e-002	-26.468
20002	0.73504	1.7273	0.	-6481.3
20003	0.64316	1.8182	0.	-6612.7
20004	0.73504	1.8182	5.e-002	-26.651
20005	0.73504	1.5455	0.	-6387.3
20006	0.64316	1.6364	0.	-6517.6
20007	0.73504	1.6364	5.e-002	-26.873
20008	0.73504	1.3636	0.	-6281.1
20009	0.64316	1.4545	0.	-6405.7
20010	0.73504	1.4545	5.e-002	-27.187
20011	0.73504	1.1818	0.	-6165.5
20012	0.64316	1.2727	0.	-6277.4
20013	0.73504	1.2727	5.e-002	-27.717
20014	0.73504	1.	0.	-6046.6
20015	0.64316	1.0909	0.	-6135.1
20016	0.73504	1.0909	5.e-002	-28.718
20017	0.73504	0.81818	0.	-5934.
20018	0.64316	0.90909	0.	-5984.8
20019	0.73504	0.90909	5.e-002	-30.574
20020	0.73504	0.63636	0.	-5841.1
20021	0.64316	0.72727	0.	-5838.8
20022	0.73504	0.72727	5.e-002	-33.586
20023	0.73504	0.45455	0.	-5782.4
20024	0.64316	0.54545	0.	-5715.9
20025	0.73504	0.54545	5.e-002	-37.298
20026	0.73504	0.27273	0.	-5784.4
20027	0.64316	0.36364	0.	-5640.1
20028	0.73504	0.36364	5.e-002	-38.98
20029	0.64316	0.18182	0.	-5662.8
20030	0.73504	0.18182	5.e-002	-32.166
20031	0.73504	9.0909e-002	0.	-5719.5
20032	0.55128	5.7273	0.	-5518.6
20033	0.4594	5.8182	0.	-5271.5
20034	0.55128	5.8182	5.e-002	-40.269
20035	0.55128	5.9091	0.	-5410.8
20036	0.55128	5.5455	0.	-5572.8
20037	0.4594	5.6364	0.	-5336.8
20038	0.55128	5.6364	5.e-002	-54.011
20039	0.55128	5.3636	0.	-5711.8
20040	0.4594	5.4545	0.	-5540.7
20041	0.55128	5.4545	5.e-002	-46.989
20042	0.55128	5.1818	0.	-5888.
20043	0.4594	5.2727	0.	-5786.7
20044	0.55128	5.2727	5.e-002	-39.721
20045	0.55128	5.	0.	-6072.4
20046	0.4594	5.0909	0.	-6029.4
20047	0.55128	5.0909	5.e-002	-35.235
20048	0.55128	4.8182	0.	-6246.6
20049	0.4594	4.9091	0.	-6248.4
20050	0.55128	4.9091	5.e-002	-32.745
20051	0.55128	4.6364	0.	-6402.1
20052	0.4594	4.7273	0.	-6437.1
20053	0.55128	4.7273	5.e-002	-31.328
20054	0.55128	4.4545	0.	-6536.1
20055	0.4594	4.5455	0.	-6595.8
20056	0.55128	4.5455	5.e-002	-30.393
20057	0.55128	4.2727	0.	-6649.1
20058	0.4594	4.3636	0.	-6727.3
20059	0.55128	4.3636	5.e-002	-29.681
20060	0.55128	4.0909	0.	-6742.4
20061	0.4594	4.1818	0.	-6834.9
20062	0.55128	4.1818	5.e-002	-29.091
20063	0.55128	3.9091	0.	-6818.
20064	0.4594	4.	0.	-6921.7
20065	0.55128	4.	5.e-002	-28.592
20066	0.55128	3.7273	0.	-6877.4
20067	0.4594	3.8182	0.	-6990.3
20068	0.55128	3.8182	5.e-002	-28.174
20069	0.55128	3.5455	0.	-6922.1
20070	0.4594	3.6364	0.	-7042.9
20071	0.55128	3.6364	5.e-002	-27.837
20072	0.55128	3.3636	0.	-6953.2
20073	0.4594	3.4545	0.	-7080.9
20074	0.55128	3.4545	5.e-002	-27.582
20075	0.55128	3.1818	0.	-6971.6
20076	0.4594	3.2727	0.	-7105.7
20077	0.55128	3.2727	5.e-002	-27.411
20078	0.55128	3.	0.	-6977.7
20079	0.4594	3.0909	0.	-7117.9
20080	0.55128	3.0909	5.e-002	-27.325
20081	0.55128	2.8182	0.	-6971.6
20082	0.4594	2.9091	0.	-7117.9
20083	0.55128	2.9091	5.e-002	-27.325
20084	0.55128	2.6364	0.	-6953.2
20085	0.4594	2.7273	0.	-7105.7
20086	0.55128	2.7273	5.e-002	-27.411
20087	0.55128	2.4545	0.	-6922.1
20088	0.4594	2.5455	0.	-7080.9
20089	0.55128	2.5455	5.e-002	-27.582
20090	0.55128	2.2727	0.	-6877.4
20091	0.4594	2.3636	0.	-7042.9
20092	0.55128	2.3636	5.e-002	-27.837
20093	0.55128	2.0909	0.	-6818.
20094	0.4594	2.1818	0.	-6990.3
20095	0.55128	2.1818	5.e-002	-28.174
20096	0.55128	1.9091	0.	-6742.4
20097	0.4594	2.	0.	-6921.7
20098	0.55128	2.	5.e-002	-28.592
20099	0.55128	1.7273	0.	-6649.1
20100	0.4594	1.8182	0.	-6834.9
20101	0.55128	1.8182	5.e-002	-29.091
20102	0.55128	1.5455	0.	-6536.1
20103	0.4594	1.6364	0.	-6727.3
20104	0.55128	1.6364	5.e-002	-29.681
20105	0.55128	1.3636	0.	-6402.1
20106	0.4594	1.4545	0.	-6595.8
20107	0.55128	1.4545	5.e-002	-30.393
20108	0.55128	1.1818	0.	-6246.6
20109	0.4594	1.2727	0.	-6437.1
20110	0.55128	1.2727	5.e-002	-31.329
20111	0.55128	1.	0.	-6072.4
20112	0.4594	1.0909	0.	-6248.4
20113	0.55128	1.0909	5.e-002	-32.745
20114	0.55128	0.81818	0.	-5888.
20115	0.4594	0.90909	0.	-6029.4
20116	0.55128	0.90909	5.e-002	-35.235
20117	0.55128	0.63636	0.	-5711.8
20118	0.4594	0.72727	0.	-5786.7
20119	0.55128	0.72727	5.e-002	-39.721
20120	0.55128	0.45455	0.	-5572.8
20121	0.4594	0.54545	0.	-5540.7
20122	0.55128	0.54545	5.e-002	-46.989
20123	0.55128	0.27273	0.	-5518.6
20124	0.4594	0.36364	0.	-5336.8
20125	0.55128	0.36364	5.e-002	-54.011
20126	0.4594	0.18182	0.	-5271.5
20127	0.55128	0.18182	5.e-002	-40.269
20128	0.55128	9.0909e-002	0.	-5410.8
20129	0.36752	5.7273	0.	-5088.2
20130	0.27564	5.8182	0.	-4455.1
20131	0.36752	5.8182	5.e-002	-70.408
20132	0.36752	5.9091	0.	-4869.8
20133	0.36752	5.5455	0.	-5301.
20134	0.27564	5.6364	0.	-4818.8
20135	0.36752	5.6364	5.e-002	-78.136
20136	0.36752	5.3636	0.	-5612.5
20137	0.27564	5.4545	0.	-5309.6
20138	0.36752	5.4545	5.e-002	-59.479
20139	0.36752	5.1818	0.	-5927.1
20140	0.27564	5.2727	0.	-5739.3
20141	0.36752	5.2727	5.e-002	-48.939
20142	0.36752	5.	0.	-6205.6
20143	0.27564	5.0909	0.	-6090.3
20144	0.36752	5.0909	5.e-002	-43.519
20145	0.36752	4.8182	0.	-6439.4
20146	0.27564	4.9091	0.	-6369.5
20147	0.36752	4.9091	5.e-002	-40.63
20148	0.36752	4.6364	0.	-6631.4
20149	0.27564	4.7273	0.	-6590.8
20150	0.36752	4.7273	5.e-002	-38.676
20151	0.36752	4.4545	0.	-6787.5
20152	0.27564	4.5455	0.	-6766.6
20153	0.36752	4.5455	5.e-002	-37.161
20154	0.36752	4.2727	0.	-6913.6
20155	0.27564	4.3636	0.	-6906.3
20156	0.36752	4.3636	5.e-002	-35.913
20157	0.36752	4.0909	0.	-7014.5
20158	0.27564	4.1818	0.	-7017.3
20159	0.36752	4.1818	5.e-002	-34.87
20160	0.36752	3.9091	0.	-7094.2
20161	0.27564	4.	0.	-7104.8
20162	0.36752	4.	5.e-002	-34.004
20163	0.36752	3.7273	0.	-7155.9
20164	0.27564	3.8182	0.	-7172.9
20165	0.36752	3.8182	5.e-002	-33.3
20166	0.36752	3.5455	0.	-7201.7
20167	0.27564	3.6364	0.	-7224.4
20168	0.36752	3.6364	5.e-002	-32.747
20169	0.36752	3.3636	0.	-7233.4
20170	0.27564	3.4545	0.	-7261.4
20171	0.36752	3.4545	5.e-002	-32.34
20172	0.36752	3.1818	0.	-7251.9
20173	0.27564	3.2727	0.	-7285.3
20174	0.36752	3.2727	5.e-002	-32.071
20175	0.36752	3.	0.	-7258.
20176	0.27564	3.0909	0.	-7297.
20177	0.36752	3.0909	5.e-002	-31.937
20178	0.36752	2.8182	0.	-7251.9
20179	0.27564	2.9091	0.	-7297.
20180	0.36752	2.9091	5.e-002	-31.937
20181	0.36752	2.6364	0.	-7233.4
20182	0.27564	2.7273	0.	-7285.3
20183	0.36752	2.7273	5.e-002	-32.071
20184	0.36752	2.4545	0.	-7201.7
20185	0.27564	2.5455	0.	-7261.4
20186	0.36752	2.5455	5.e-002	-32.34
20187	0.36752	2.2727	0.	-7155.9
20188	0.27564	2.3636	0.	-7224.4
20189	0.36752	2.3636	5.e-002	-32.747
20190	0.36752	2.0909	0.	-7094.2
20191	0.27564	2.1818	0.	-7172.9
20192	0.36752	2.1818	5.e-002	-33.3
20193	0.36752	1.9091	0.	-7014.5
20194	0.27564	2.	0.	-7104.8
20195	0.36752	2.	5.e-002	-34.004
20196	0.36752	1.7273	0.	-6913.6
20197	0.27564	1.8182	0.	-7017.3
20198	0.36752	1.8182	5.e-002	-34.87
20199	0.36752	1.5455	0.	-6787.5
20200	0.27564	1.6364	0.	-6906.3
20201	0.36752	1.6364	5.e-002	-35.913
20202	0.36752	1.3636	0.	-6631.4
20203	0.27564	1.4545	0.	-6766.6
20204	0.36752	1.4545	5.e-002	-37.161
20205	0.36752	1.1818	0.	-6439.4
20206	0.27564	1.2727	0.	-6590.8
20207	0.36752	1.2727	5.e-002	-38.676
20208	0.36752	1.	0.	-6205.6
20209	0.27564	1.0909	0.	-6369.5
20210	0.36752	1.0909	5.e-002	-40.63
20211	0.36752	0.81818	0.	-5927.1
20212	0.27564	0.90909	0.	-6090.3
20213	0.36752	0.90909	5.e-002	-43.519
20214	0.36752	0.63636	0.	-5612.5
20215	0.27564	0.72727	0.	-5739.3
20216	0.36752	0.72727	5.e-002	-48.939
20217	0.36752	0.45455	0.	-5301.
20218	0.27564	0.54545	0.	-5309.6
20219	0.36752	0.54545	5.e-002	-59.479
20220	0.36752	0.27273	0.	-5088.2
20221	0.27564	0.36364	0.	-4818.8
20222	0.36752	0.36364	5.e-002	-78.136
20223	0.27564	0.18182	0.	-4455.1
20224	0.36752	0.18182	5.e-002	-70.408
20225	0.36752	9.0909e-002	0.	-4869.8
20226	0.18376	5.7273	0.	-4170.6
20227	0.18376	5.8182	5.e-002	-169.96
20228	0.18376	5.9091	0.	-3685.7
20229	9.188e-002	5.8182	0.	-3190.2
20230	0.18376	5.5455	0.	-4827.2
20231	0.18376	5.6364	5.e-002	-108.28
20232	9.188e-002	5.6364	0.	-4545.6
20233	0.18376	5.3636	0.	-5443.6
20234	0.18376	5.4545	5.e-002	-73.522
20235	9.188e-002	5.4545	0.	-5425.1
20236	0.18376	5.1818	0.	-5909.2
20237	0.18376	5.2727	5.e-002	-56.298
20238	9.188e-002	5.2727	0.	-6016.8
20239	0.18376	5.	0.	-6258.9
20240	0.18376	5.0909	5.e-002	-47.355
20241	9.188e-002	5.0909	0.	-6432.9
20242	0.18376	4.8182	0.	-6523.9
20243	0.18376	4.9091	5.e-002	-41.248
20244	9.188e-002	4.9091	0.	-6737.4
20245	0.18376	4.6364	0.	-6727.8
20246	0.18376	4.7273	5.e-002	-36.796
20247	9.188e-002	4.7273	0.	-6966.4
20248	0.18376	4.4545	0.	-6886.5
20249	0.18376	4.5455	5.e-002	-33.398
20250	9.188e-002	4.5455	0.	-7141.9
20251	0.18376	4.2727	0.	-7010.8
20252	0.18376	4.3636	5.e-002	-30.748
20253	9.188e-002	4.3636	0.	-7278.1
20254	0.18376	4.0909	0.	-7108.1
20255	0.18376	4.1818	5.e-002	-28.661
20256	9.188e-002	4.1818	0.	-7384.3
20257	0.18376	3.9091	0.	-7183.8
20258	0.18376	4.	5.e-002	-27.02
20259	9.188e-002	4.	0.	-7467.
20260	0.18376	3.7273	0.	-7241.5
20261	0.18376	3.8182	5.e-002	-25.744
20262	9.188e-002	3.8182	0.	-7530.6
20263	0.18376	3.5455	0.	-7284.1
20264	0.18376	3.6364	5.e-002	-24.777
20265	9.188e-002	3.6364	0.	-7578.3
20266	0.18376	3.3636	0.	-7313.3
20267	0.18376	3.4545	5.e-002	-24.081
20268	9.188e-002	3.4545	0.	-7612.4
20269	0.18376	3.1818	0.	-7330.4
20270	0.18376	3.2727	5.e-002	-23.63
20271	9.188e-002	3.2727	0.	-7634.4
20272	0.18376	3.	0.	-7336.
20273	0.18376	3.0909	5.e-002	-23.409
20274	9.188e-002	3.0909	0.	-7645.1
20275	0.18376	2.8182	0.	-7330.4
20276	0.18376	2.9091	5.e-002	-23.409
20277	9.188e-002	2.9091	0.	-7645.1
20278	0.18376	2.6364	0.	-7313.3
20279	0.18376	2.7273	5.e-002	-23.63
20280	9.188e-002	2.7273	0.	-7634.4
20281	0.18376	2.4545	0.	-7284.1
20282	0.18376	2.5455	5.e-002	-24.081
20283	9.188e-002	2.5455	0.	-7612.4
20284	0.18376	2.2727	0.	-7241.5
20285	0.18376	2.3636	5.e-002	-24.777
20286	9.188e-002	2.3636	0.	-7578.3
20287	0.18376	2.0909	0.	-7183.8
20288	0.18376	2.1818	5.e-002	-25.744
20289	9.188e-002	2.1818	0.	-7530.6
20290	0.18376	1.9091	0.	-7108.1
20291	0.18376	2.	5.e-002	-27.02
20292	9.188e-002	2.	0.	-7467.
20293	0.18376	1.7273	0.	-7010.8
20294	0.18376	1.8182	5.e-002	-28.661
20295	9.188e-002	1.8182	0.	-7384.3
20296	0.18376	1.5455	0.	-6886.5
20297	0.18376	1.6364	5.e-002	-30.748
20298	9.188e-002	1.6364	0.	-7278.1
20299	0.18376	1.3636	0.	-6727.8
20300	0.18376	1.4545	5.e-002	-33.398
20301	9.188e-002	1.4545	0.	-7141.9
20302	0.18376	1.1818	0.	-6523.9
20303	0.18376	1.2727	5.e-002	-36.796
20304	9.188e-002	1.2727	0.	-6966.4
20305	0.18376	1.	0.	-6258.9
20306	0.18376	1.0909	5.e-002	-41.248
20307	9.188e-002	1.0909	0.	-6737.4
20308	0.18376	0.81818	0.	-5909.2
20309	0.18376	0.90909	5.e-002	-47.355
20310	9.188e-002	0.90909	0.	-6432.9
20311	0.18376	0.63636	0.	-5443.6
20312	0.18376	0.72727	5.e-002	-56.298
20313	9.188e-002	0.72727	0.	-6016.8
20314	0.18376	0.45455	0.	-4827.2
20315	0.18376	0.54545	5.e-002	-73.522
20316	9.188e-002	0.54545	0.	-5425.1
20317	0.18376	0.27273	0.	-4170.6
20318	0.18376	0.36364	5.e-002	-108.28
20319	9.188e-002	0.36364	0.	-4545.6
20320	0.18376	0.18182	5.e-002	-169.96
20321	0.18376	9.0909e-002	0.	-3685.7
20322	9.188e-002	0.18182	0.	-3190.2
20323	21.846	0.27273	0.	-68.675
20324	21.936	0.18182	0.	-66.648
20325	21.846	0.18182	5.e-002	-4.4845
20326	21.846	9.0909e-002	0.	-43.565
20327	21.756	0.18182	0.	-41.671
20328	21.846	0.45455	0.	-98.845
20329	21.936	0.36364	0.	-87.551
20330	21.846	0.36364	5.e-002	-4.3189
20331	21.756	0.36364	0.	-69.283
20332	21.846	0.63636	0.	-134.72
20333	21.936	0.54545	0.	-117.17
20334	21.846	0.54545	5.e-002	-4.9691
20335	21.756	0.54545	0.	-99.719
20336	21.846	0.81818	0.	-177.5
20337	21.936	0.72727	0.	-153.4
20338	21.846	0.72727	5.e-002	-6.0058
20339	21.756	0.72727	0.	-134.47
20340	21.846	1.	0.	-230.39
20341	21.936	0.90909	0.	-197.82
20342	21.846	0.90909	5.e-002	-7.4721
20343	21.756	0.90909	0.	-176.04
20344	21.846	1.1818	0.	-298.45
20345	21.936	1.0909	0.	-253.55
20346	21.846	1.0909	5.e-002	-9.5189
20347	21.756	1.0909	0.	-227.88
20348	21.846	1.3636	0.	-391.
20349	21.936	1.2727	0.	-325.7
20350	21.846	1.2727	5.e-002	-12.576
20351	21.756	1.2727	0.	-295.28
20352	21.846	1.5455	0.	-525.65
20353	21.936	1.4545	0.	-423.73
20354	21.846	1.4545	5.e-002	-16.844
20355	21.756	1.4545	0.	-389.02
20356	21.846	1.7273	0.	-761.68
20357	21.936	1.6364	0.	-562.5
20358	21.846	1.6364	5.e-002	-25.968
20359	21.756	1.6364	0.	-525.17
20360	21.846	1.9091	0.	-1104.5
20361	21.936	1.8182	0.	-800.72
20362	21.846	1.8182	5.e-002	-43.2
20363	21.756	1.8182	0.	-779.88
20364	21.846	2.0909	0.	-1320.8
20365	21.936	2.	0.	-1075.4
20366	21.846	2.	5.e-002	-68.959
20367	21.756	2.	0.	-2048.4
20368	21.846	2.2727	0.	-1296.2
20369	21.936	2.1818	0.	-1168.3
20370	21.846	2.1818	5.e-002	-56.978
20371	21.846	2.4545	0.	-1185.9
20372	21.936	2.3636	0.	-1118.3
20373	21.846	2.3636	5.e-002	-24.369
20374	21.846	2.6364	0.	-1097.5
20375	21.936	2.5455	0.	-1048.9
20376	21.846	2.5455	5.e-002	-13.504
20377	21.846	2.8182	0.	-1050.8
20378	21.936	2.7273	0.	-1003.4
20379	21.846	2.7273	5.e-002	-8.4587
20380	21.846	3.	0.	-1036.
20381	21.936	2.9091	0.	-981.11
20382	21.846	2.9091	5.e-002	-6.8002
20383	21.846	3.1818	0.	-1050.8
20384	21.936	3.0909	0.	-981.11
20385	21.846	3.0909	5.e-002	-6.8002
20386	21.846	3.3636	0.	-1097.5
20387	21.936	3.2727	0.	-1003.4
20388	21.846	3.2727	5.e-002	-8.4587
20389	21.846	3.5455	0.	-1185.9
20390	21.936	3.4545	0.	-1048.9
20391	21.846	3.4545	5.e-002	-13.504
20392	21.846	3.7273	0.	-1296.2
20393	21.936	3.6364	0.	-1118.3
20394	21.846	3.6364	5.e-002	-24.37
20395	21.846	3.9091	0.	-1320.8
20396	21.936	3.8182	0.	-1168.3
20397	21.846	3.8182	5.e-002	-56.978
20398	21.846	4.0909	0.	-1104.5
20399	21.936	4.	0.	-1075.4
20400	21.846	4.	5.e-002	-68.959
20401	21.756	4.	0.	-2048.4
20402	21.846	4.2727	0.	-761.68
20403	21.936	4.1818	0.	-800.72
20404	21.846	4.1818	5.e-002	-43.2
20405	21.756	4.1818	0.	-779.88
20406	21.846	4.4545	0.	-525.65
20407	21.936	4.3636	0.	-562.5
20408	21.846	4.3636	5.e-002	-25.968
20409	21.756	4.3636	0.	-525.17
20410	21.846	4.6364	0.	-391.
20411	21.936	4.5455	0.	-423.73
20412	21.846	4.5455	5.e-002	-16.844
20413	21.756	4.5455	0.	-389.02
20414	21.846	4.8182	0.	-298.45
20415	21.936	4.7273	0.	-325.7
20416	21.846	4.7273	5.e-002	-12.576
20417	21.756	4.7273	0.	-295.28
20418	21.846	5.	0.	-230.39
20419	21.936	4.9091	0.	-253.55
20420	21.846	4.9091	5.e-002	-9.5189
20421	21.756	4.9091	0.	-227.88
20422	21.846	5.1818	0.	-177.5
20423	21.936	5.0909	0.	-197.82
20424	21.846	5.0909	5.e-002	-7.4721
20425	21.756	5.0909	0.	-176.04
20426	21.846	5.3636	0.	-134.72
20427	21.936	5.2727	0.	-153.4
20428	21.846	5.2727	5.e-002	-6.0058
20429	21.756	5.2727	0.	-134.47
20430	21.846	5.5455	0.	-98.845
20431	21.936	5.4545	0.	-117.17
20432	21.846	5.4545	5.e-002	-4.9691
20433	21.756	5.4545	0.	-99.719
20434	21.846	5.7273	0.	-68.675
20435	21.936	5.6364	0.	-87.551
20436	21.846	5.6364	5.e-002	-4.3189
20437	21.756	5.6364	0.	-69.283
20438	21.936	5.8182	0.	-66.648
20439	21.846	5.8182	5.e-002	-4.4845
20440	21.846	5.9091	0.	-43.565
20441	21.756	5.8182	0.	-41.671
20442	22.026	0.27273	0.	-86.576
20443	22.115	0.18182	0.	-89.124
20444	22.026	0.18182	5.e-002	-3.5165
20445	22.026	9.0909e-002	0.	-70.547
20446	22.026	0.45455	0.	-107.77
20447	22.115	0.36364	0.	-102.1
20448	22.026	0.36364	5.e-002	-3.1042
20449	22.026	0.63636	0.	-137.82
20450	22.115	0.54545	0.	-125.18
20451	22.026	0.54545	5.e-002	-3.3897
20452	22.026	0.81818	0.	-175.8
20453	22.115	0.72727	0.	-156.18
20454	22.026	0.72727	5.e-002	-3.8978
20455	22.026	1.	0.	-223.32
20456	22.115	0.90909	0.	-195.5
20457	22.026	0.90909	5.e-002	-4.6391
20458	22.026	1.1818	0.	-283.68
20459	22.115	1.0909	0.	-244.85
20460	22.026	1.0909	5.e-002	-5.6793
20461	22.026	1.3636	0.	-362.11
20462	22.115	1.2727	0.	-307.31
20463	22.026	1.2727	5.e-002	-7.0283
20464	22.026	1.5455	0.	-465.84
20465	22.115	1.4545	0.	-387.41
20466	22.026	1.4545	5.e-002	-9.1752
20467	22.026	1.7273	0.	-605.7
20468	22.115	1.6364	0.	-490.34
20469	22.026	1.6364	5.e-002	-12.008
20470	22.026	1.9091	0.	-767.11
20471	22.115	1.8182	0.	-621.95
20472	22.026	1.8182	5.e-002	-17.15
20473	22.026	2.0909	0.	-908.
20474	22.115	2.	0.	-756.34
20475	22.026	2.	5.e-002	-17.443
20476	22.026	2.2727	0.	-977.29
20477	22.115	2.1818	0.	-858.79
20478	22.026	2.1818	5.e-002	-25.801
20479	22.026	2.4545	0.	-976.15
20480	22.115	2.3636	0.	-890.68
20481	22.026	2.3636	5.e-002	-20.538
20482	22.026	2.6364	0.	-951.79
20483	22.115	2.5455	0.	-885.03
20484	22.026	2.5455	5.e-002	-14.91
20485	22.026	2.8182	0.	-931.33
20486	22.115	2.7273	0.	-871.18
20487	22.026	2.7273	5.e-002	-10.949
20488	22.026	3.	0.	-924.02
20489	22.115	2.9091	0.	-862.33
20490	22.026	2.9091	5.e-002	-9.2319
20491	22.026	3.1818	0.	-931.33
20492	22.115	3.0909	0.	-862.33
20493	22.026	3.0909	5.e-002	-9.2319
20494	22.026	3.3636	0.	-951.79
20495	22.115	3.2727	0.	-871.18
20496	22.026	3.2727	5.e-002	-10.949
20497	22.026	3.5455	0.	-976.15
20498	22.115	3.4545	0.	-885.03
20499	22.026	3.4545	5.e-002	-14.91
20500	22.026	3.7273	0.	-977.3
20501	22.115	3.6364	0.	-890.68
20502	22.026	3.6364	5.e-002	-20.538
20503	22.026	3.9091	0.	-908.
20504	22.115	3.8182	0.	-858.79
20505	22.026	3.8182	5.e-002	-25.801
20506	22.026	4.0909	0.	-767.11
20507	22.115	4.	0.	-756.34
20508	22.026	4.	5.e-002	-17.443
20509	22.026	4.2727	0.	-605.7
20510	22.115	4.1818	0.	-621.95
20511	22.026	4.1818	5.e-002	-17.15
20512	22.026	4.4545	0.	-465.84
20513	22.115	4.3636	0.	-490.34
20514	22.026	4.3636	5.e-002	-12.008
20515	22.026	4.6364	0.	-362.11
20516	22.115	4.5455	0.	-387.41
20517	22.026	4.5455	5.e-002	-9.1752
20518	22.026	4.8182	0.	-283.68
20519	22.115	4.7273	0.	-307.31
20520	22.026	4.7273	5.e-002	-7.0283
20521	22.026	5.	0.	-223.32
20522	22.115	4.9091	0.	-244.85
20523	22.026	4.9091	5.e-002	-5.6793
20524	22.026	5.1818	0.	-175.8
20525	22.115	5.0909	0.	-195.5
20526	22.026	5.0909	5.e-002	-4.6391
20527	22.026	5.3636	0.	-137.82
20528	22.115	5.2727	0.	-156.18
20529	22.026	5.2727	5.e-002	-3.8978
20530	22.026	5.5455	0.	-107.77
20531	22.115	5.4545	0.	-125.18
20532	22.026	5.4545	5.e-002	-3.3897
20533	22.026	5.7273	0.	-86.576
20534	22.115	5.6364	0.	-102.1
20535	22.026	5.6364	5.e-002	-3.1042
20536	22.115	5.8182	0.	-89.124
20537	22.026	5.8182	5.e-002	-3.5165
20538	22.026	5.9091	0.	-70.547
20539	22.205	0.27273	0.	-104.72
20540	22.295	0.18182	0.	-106.41
20541	22.205	0.18182	5.e-002	-2.8869
20542	22.205	9.0909e-002	0.	-92.004
20543	22.205	0.45455	0.	-120.32
20544	22.295	0.36364	0.	-115.6
20545	22.205	0.36364	5.e-002	-2.4343
20546	22.205	0.63636	0.	-144.87
20547	22.295	0.54545	0.	-133.78
20548	22.205	0.54545	5.e-002	-2.7218
20549	22.205	0.81818	0.	-177.5
20550	22.295	0.72727	0.	-159.57
20551	22.205	0.72727	5.e-002	-3.1533
20552	22.205	1.	0.	-218.87
20553	22.295	0.90909	0.	-193.12
20554	22.205	0.90909	5.e-002	-3.7251
20555	22.205	1.1818	0.	-270.55
20556	22.295	1.0909	0.	-235.2
20557	22.205	1.0909	5.e-002	-4.456
20558	22.205	1.3636	0.	-334.83
20559	22.295	1.2727	0.	-287.07
20560	22.205	1.2727	5.e-002	-5.4409
20561	22.205	1.5455	0.	-413.88
20562	22.295	1.4545	0.	-350.36
20563	22.205	1.4545	5.e-002	-6.6815
20564	22.205	1.7273	0.	-507.97
20565	22.295	1.6364	0.	-425.82
20566	22.205	1.6364	5.e-002	-7.9988
20567	22.205	1.9091	0.	-610.81
20568	22.295	1.8182	0.	-511.83
20569	22.205	1.8182	5.e-002	-10.149
20570	22.205	2.0909	0.	-703.52
20571	22.295	2.	0.	-599.56
20572	22.205	2.	5.e-002	-12.373
20573	22.205	2.2727	0.	-766.05
20574	22.295	2.1818	0.	-670.9
20575	22.205	2.1818	5.e-002	-14.507
20576	22.205	2.4545	0.	-794.53
20577	22.295	2.3636	0.	-714.17
20578	22.205	2.3636	5.e-002	-15.377
20579	22.205	2.6364	0.	-800.82
20580	22.295	2.5455	0.	-732.17
20581	22.205	2.5455	5.e-002	-13.222
20582	22.205	2.8182	0.	-799.27
20583	22.295	2.7273	0.	-736.95
20584	22.205	2.7273	5.e-002	-11.372
20585	22.205	3.	0.	-797.93
20586	22.295	2.9091	0.	-737.31
20587	22.205	2.9091	5.e-002	-10.287
20588	22.205	3.1818	0.	-799.27
20589	22.295	3.0909	0.	-737.31
20590	22.205	3.0909	5.e-002	-10.287
20591	22.205	3.3636	0.	-800.82
20592	22.295	3.2727	0.	-736.95
20593	22.205	3.2727	5.e-002	-11.372
20594	22.205	3.5455	0.	-794.53
20595	22.295	3.4545	0.	-732.17
20596	22.205	3.4545	5.e-002	-13.222
20597	22.205	3.7273	0.	-766.05
20598	22.295	3.6364	0.	-714.17
20599	22.205	3.6364	5.e-002	-15.377
20600	22.205	3.9091	0.	-703.52
20601	22.295	3.8182	0.	-670.9
20602	22.205	3.8182	5.e-002	-14.507
20603	22.205	4.0909	0.	-610.81
20604	22.295	4.	0.	-599.56
20605	22.205	4.	5.e-002	-12.373
20606	22.205	4.2727	0.	-507.97
20607	22.295	4.1818	0.	-511.83
20608	22.205	4.1818	5.e-002	-10.149
20609	22.205	4.4545	0.	-413.88
20610	22.295	4.3636	0.	-425.82
20611	22.205	4.3636	5.e-002	-7.9988
20612	22.205	4.6364	0.	-334.83
20613	22.295	4.5455	0.	-350.36
20614	22.205	4.5455	5.e-002	-6.6815
20615	22.205	4.8182	0.	-270.55
20616	22.295	4.7273	0.	-287.07
20617	22.205	4.7273	5.e-002	-5.4409
20618	22.205	5.	0.	-218.87
20619	22.295	4.9091	0.	-235.2
20620	22.205	4.9091	5.e-002	-4.456
20621	22.205	5.1818	0.	-177.5
20622	22.295	5.0909	0.	-193.12
20623	22.205	5.0909	5.e-002	-3.7251
20624	22.205	5.3636	0.	-144.87
20625	22.295	5.2727	0.	-159.57
20626	22.205	5.2727	5.e-002	-3.1533
20627	22.205	5.5455	0.	-120.32
20628	22.295	5.4545	0.	-133.78
20629	22.205	5.4545	5.e-002	-2.7218
20630	22.205	5.7273	0.	-104.72
20631	22.295	5.6364	0.	-115.6
20632	22.205	5.6364	5.e-002	-2.4343
20633	22.295	5.8182	0.	-106.41
20634	22.205	5.8182	5.e-002	-2.8869
20635	22.205	5.9091	0.	-92.004
20636	22.385	0.27273	0.	-117.32
20637	22.474	0.18182	0.	-116.93
20638	22.385	0.18182	5.e-002	-2.2318
20639	22.385	9.0909e-002	0.	-106.54
20640	22.385	0.45455	0.	-129.36
20641	22.474	0.36364	0.	-123.82
20642	22.385	0.36364	5.e-002	-1.7849
20643	22.385	0.63636	0.	-149.18
20644	22.474	0.54545	0.	-138.33
20645	22.385	0.54545	5.e-002	-2.126
20646	22.385	0.81818	0.	-176.19
20647	22.474	0.72727	0.	-159.37
20648	22.385	0.72727	5.e-002	-2.5653
20649	22.385	1.	0.	-210.62
20650	22.474	0.90909	0.	-187.
20651	22.385	0.90909	5.e-002	-3.0994
20652	22.385	1.1818	0.	-252.98
20653	22.474	1.0909	0.	-221.47
20654	22.385	1.0909	5.e-002	-3.7621
20655	22.385	1.3636	0.	-303.83
20656	22.474	1.2727	0.	-263.06
20657	22.385	1.2727	5.e-002	-4.5819
20658	22.385	1.5455	0.	-363.37
20659	22.474	1.4545	0.	-311.93
20660	22.385	1.4545	5.e-002	-5.6363
20661	22.385	1.7273	0.	-430.44
20662	22.474	1.6364	0.	-367.67
20663	22.385	1.6364	5.e-002	-6.9141
20664	22.385	1.9091	0.	-500.7
20665	22.474	1.8182	0.	-428.23
20666	22.385	1.8182	5.e-002	-8.096
20667	22.385	2.0909	0.	-565.71
20668	22.474	2.	0.	-488.63
20669	22.385	2.	5.e-002	-9.424
20670	22.385	2.2727	0.	-616.37
20671	22.474	2.1818	0.	-541.06
20672	22.385	2.1818	5.e-002	-10.892
20673	22.385	2.4545	0.	-648.66
20674	22.474	2.3636	0.	-579.24
20675	22.385	2.3636	5.e-002	-11.642
20676	22.385	2.6364	0.	-665.38
20677	22.474	2.5455	0.	-602.31
20678	22.385	2.5455	5.e-002	-11.427
20679	22.385	2.8182	0.	-672.35
20680	22.474	2.7273	0.	-614.01
20681	22.385	2.7273	5.e-002	-10.749
20682	22.385	3.	0.	-674.14
20683	22.474	2.9091	0.	-618.64
20684	22.385	2.9091	5.e-002	-10.283
20685	22.385	3.1818	0.	-672.35
20686	22.474	3.0909	0.	-618.64
20687	22.385	3.0909	5.e-002	-10.283
20688	22.385	3.3636	0.	-665.38
20689	22.474	3.2727	0.	-614.01
20690	22.385	3.2727	5.e-002	-10.749
20691	22.385	3.5455	0.	-648.66
20692	22.474	3.4545	0.	-602.31
20693	22.385	3.4545	5.e-002	-11.427
20694	22.385	3.7273	0.	-616.37
20695	22.474	3.6364	0.	-579.24
20696	22.385	3.6364	5.e-002	-11.642
20697	22.385	3.9091	0.	-565.71
20698	22.474	3.8182	0.	-541.06
20699	22.385	3.8182	5.e-002	-10.892
20700	22.385	4.0909	0.	-500.7
20701	22.474	4.	0.	-488.63
20702	22.385	4.	5.e-002	-9.424
20703	22.385	4.2727	0.	-430.44
20704	22.474	4.1818	0.	-428.23
20705	22.385	4.1818	5.e-002	-8.096
20706	22.385	4.4545	0.	-363.37
20707	22.474	4.3636	0.	-367.67
20708	22.385	4.3636	5.e-002	-6.9141
20709	22.385	4.6364	0.	-303.83
20710	22.474	4.5455	0.	-311.93
20711	22.385	4.5455	5.e-002	-5.6363
20712	22.385	4.8182	0.	-252.98
20713	22.474	4.7273	0.	-263.06
20714	22.385	4.7273	5.e-002	-4.5819
20715	22.385	5.	0.	-210.62
20716	22.474	4.9091	0.	-221.47
20717	22.385	4.9091	5.e-002	-3.7621
20718	22.385	5.1818	0.	-176.19
20719	22.474	5.0909	0.	-187.
20720	22.385	5.0909	5.e-002	-3.0994
20721	22.385	5.3636	0.	-149.18
20722	22.474	5.2727	0.	-159.37
20723	22.385	5.2727	5.e-002	-2.5653
20724	22.385	5.5455	0.	-129.36
20725	22.474	5.4545	0.	-138.33
20726	22.385	5.4545	5.e-002	-2.126
20727	22.385	5.7273	0.	-117.32
20728	22.474	5.6364	0.	-123.82
20729	22.385	5.6364	5.e-002	-1.7849
20730	22.474	5.8182	0.	-116.93
20731	22.385	5.8182	5.e-002	-2.2318
20732	22.385	5.9091	0.	-106.54
20733	22.564	0.27273	0.	-123.47
20734	22.654	0.18182	0.	-120.77
20735	22.564	0.18182	5.e-002	-1.5683
20736	22.564	9.0909e-002	0.	-114.19
20737	22.564	0.45455	0.	-132.92
20738	22.654	0.36364	0.	-125.96
20739	22.564	0.36364	5.e-002	-1.2594
20740	22.564	0.63636	0.	-148.86
20741	22.654	0.54545	0.	-137.6
20742	22.564	0.54545	5.e-002	-1.6945
20743	22.564	0.81818	0.	-170.71
20744	22.654	0.72727	0.	-154.54
20745	22.564	0.72727	5.e-002	-2.188
20746	22.564	1.	0.	-198.51
20747	22.654	0.90909	0.	-176.77
20748	22.564	0.90909	5.e-002	-2.7515
20749	22.564	1.1818	0.	-232.26
20750	22.654	1.0909	0.	-204.26
20751	22.564	1.0909	5.e-002	-3.4132
20752	22.564	1.3636	0.	-271.85
20753	22.654	1.2727	0.	-236.89
20754	22.564	1.2727	5.e-002	-4.1965
20755	22.564	1.5455	0.	-316.83
20756	22.654	1.4545	0.	-274.35
20757	22.564	1.4545	5.e-002	-5.0919
20758	22.564	1.7273	0.	-365.91
20759	22.654	1.6364	0.	-315.87
20760	22.564	1.6364	5.e-002	-6.0509
20761	22.564	1.9091	0.	-416.29
20762	22.654	1.8182	0.	-359.85
20763	22.564	1.8182	5.e-002	-7.0127
20764	22.564	2.0909	0.	-463.47
20765	22.654	2.	0.	-403.26
20766	22.564	2.	5.e-002	-7.9762
20767	22.564	2.2727	0.	-502.65
20768	22.654	2.1818	0.	-441.99
20769	22.564	2.1818	5.e-002	-8.9201
20770	22.564	2.4545	0.	-531.05
20771	22.654	2.3636	0.	-472.52
20772	22.564	2.3636	5.e-002	-9.6273
20773	22.564	2.6364	0.	-548.9
20774	22.654	2.5455	0.	-493.61
20775	22.564	2.5455	5.e-002	-9.8924
20776	22.564	2.8182	0.	-558.23
20777	22.654	2.7273	0.	-506.14
20778	22.564	2.7273	5.e-002	-9.8317
20779	22.564	3.	0.	-561.07
20780	22.654	2.9091	0.	-511.82
20781	22.564	2.9091	5.e-002	-9.7164
20782	22.564	3.1818	0.	-558.23
20783	22.654	3.0909	0.	-511.82
20784	22.564	3.0909	5.e-002	-9.7164
20785	22.564	3.3636	0.	-548.9
20786	22.654	3.2727	0.	-506.14
20787	22.564	3.2727	5.e-002	-9.8317
20788	22.564	3.5455	0.	-531.05
20789	22.654	3.4545	0.	-493.61
20790	22.564	3.4545	5.e-002	-9.8924
20791	22.564	3.7273	0.	-502.65
20792	22.654	3.6364	0.	-472.52
20793	22.564	3.6364	5.e-002	-9.6273
20794	22.564	3.9091	0.	-463.47
20795	22.654	3.8182	0.	-441.99
20796	22.564	3.8182	5.e-002	-8.9201
20797	22.564	4.0909	0.	-416.29
20798	22.654	4.	0.	-403.26
20799	22.564	4.	5.e-002	-7.9762
20800	22.564	4.2727	0.	-365.91
20801	22.654	4.1818	0.	-359.85
20802	22.564	4.1818	5.e-002	-7.0127
20803	22.564	4.4545	0.	-316.83
20804	22.654	4.3636	0.	-315.87
20805	22.564	4.3636	5.e-002	-6.0509
20806	22.564	4.6364	0.	-271.85
20807	22.654	4.5455	0.	-274.35
20808	22.564	4.5455	5.e-002	-5.0919
20809	22.564	4.8182	0.	-232.26
20810	22.654	4.7273	0.	-236.89
20811	22.564	4.7273	5.e-002	-4.1965
20812	22.564	5.	0.	-198.51
20813	22.654	4.9091	0.	-204.26
20814	22.564	4.9091	5.e-002	-3.4132
20815	22.564	5.1818	0.	-170.71
20816	22.654	5.0909	0.	-176.77
20817	22.564	5.0909	5.e-002	-2.7515
20818	22.564	5.3636	0.	-148.86
20819	22.654	5.2727	0.	-154.54
20820	22.564	5.2727	5.e-002	-2.188
20821	22.564	5.5455	0.	-132.92
20822	22.654	5.4545	0.	-137.6
20823	22.564	5.4545	5.e-002	-1.6945
20824	22.564	5.7273	0.	-123.47
20825	22.654	5.6364	0.	-125.96
20826	22.564	5.6364	5.e-002	-1.2593
20827	22.654	5.8182	0.	-120.77
20828	22.564	5.8182	5.e-002	-1.5683
20829	22.564	5.9091	0.	-114.19
20830	22.744	0.27273	0.	-123.3
20831	22.833	0.18182	0.	-118.45
20832	22.744	0.18182	5.e-002	-0.93229
20833	22.744	9.0909e-002	0.	-115.31
20834	22.744	0.45455	0.	-130.7
20835	22.833	0.36364	0.	-122.27
20836	22.744	0.36364	5.e-002	-1.0188
20837	22.744	0.63636	0.	-143.44
20838	22.833	0.54545	0.	-131.56
20839	22.744	0.54545	5.e-002	-1.531
20840	22.744	0.81818	0.	-160.86
20841	22.833	0.72727	0.	-145.06
20842	22.744	0.72727	5.e-002	-2.0605
20843	22.744	1.	0.	-182.86
20844	22.833	0.90909	0.	-162.66
20845	22.744	0.90909	5.e-002	-2.6423
20846	22.744	1.1818	0.	-209.26
20847	22.833	1.0909	0.	-184.19
20848	22.744	1.0909	5.e-002	-3.291
20849	22.744	1.3636	0.	-239.74
20850	22.833	1.2727	0.	-209.41
20851	22.744	1.2727	5.e-002	-4.0095
20852	22.744	1.5455	0.	-273.7
20853	22.833	1.4545	0.	-237.89
20854	22.744	1.4545	5.e-002	-4.7789
20855	22.744	1.7273	0.	-310.06
20856	22.833	1.6364	0.	-268.91
20857	22.744	1.6364	5.e-002	-5.5572
20858	22.744	1.9091	0.	-346.89
20859	22.833	1.8182	0.	-301.22
20860	22.744	1.8182	5.e-002	-6.3151
20861	22.744	2.0909	0.	-381.51
20862	22.833	2.	0.	-332.83
20863	22.744	2.	5.e-002	-7.0583
20864	22.744	2.2727	0.	-411.15
20865	22.833	2.1818	0.	-361.34
20866	22.744	2.1818	5.e-002	-7.7734
20867	22.744	2.4545	0.	-433.96
20868	22.833	2.3636	0.	-384.66
20869	22.744	2.3636	5.e-002	-8.3655
20870	22.744	2.6364	0.	-449.47
20871	22.833	2.5455	0.	-401.71
20872	22.744	2.5455	5.e-002	-8.7409
20873	22.744	2.8182	0.	-458.23
20874	22.833	2.7273	0.	-412.53
20875	22.744	2.7273	5.e-002	-8.9065
20876	22.744	3.	0.	-461.04
20877	22.833	2.9091	0.	-417.7
20878	22.744	2.9091	5.e-002	-8.952
20879	22.744	3.1818	0.	-458.23
20880	22.833	3.0909	0.	-417.7
20881	22.744	3.0909	5.e-002	-8.952
20882	22.744	3.3636	0.	-449.47
20883	22.833	3.2727	0.	-412.53
20884	22.744	3.2727	5.e-002	-8.9065
20885	22.744	3.5455	0.	-433.96
20886	22.833	3.4545	0.	-401.71
20887	22.744	3.4545	5.e-002	-8.7409
20888	22.744	3.7273	0.	-411.15
20889	22.833	3.6364	0.	-384.66
20890	22.744	3.6364	5.e-002	-8.3655
20891	22.744	3.9091	0.	-381.51
20892	22.833	3.8182	0.	-361.34
20893	22.744	3.8182	5.e-002	-7.7734
20894	22.744	4.0909	0.	-346.89
20895	22.833	4.	0.	-332.83
20896	22.744	4.	5.e-002	-7.0583
20897	22.744	4.2727	0.	-310.06
20898	22.833	4.1818	0.	-301.22
20899	22.744	4.1818	5.e-002	-6.3151
20900	22.744	4.4545	0.	-273.7
20901	22.833	4.3636	0.	-268.91
20902	22.744	4.3636	5.e-002	-5.5572
20903	22.744	4.6364	0.	-239.74
20904	22.833	4.5455	0.	-237.89
20905	22.744	4.5455	5.e-002	-4.7789
20906	22.744	4.8182	0.	-209.26
20907	22.833	4.7273	0.	-209.41
20908	22.744	4.7273	5.e-002	-4.0095
20909	22.744	5.	0.	-182.86
20910	22.833	4.9091	0.	-184.19
20911	22.744	4.9091	5.e-002	-3.291
20912	22.744	5.1818	0.	-160.86
20913	22.833	5.0909	0.	-162.66
20914	22.744	5.0909	5.e-002	-2.6423
20915	22.744	5.3636	0.	-143.44
20916	22.833	5.2727	0.	-145.06
20917	22.744	5.2727	5.e-002	-2.0605
20918	22.744	5.5455	0.	-130.7
20919	22.833	5.4545	0.	-131.56
20920	22.744	5.4545	5.e-002	-1.531
20921	22.744	5.7273	0.	-123.3
20922	22.833	5.6364	0.	-122.27
20923	22.744	5.6364	5.e-002	-1.0188
20924	22.833	5.8182	0.	-118.45
20925	22.744	5.8182	5.e-002	-0.93229
20926	22.744	5.9091	0.	-115.31
20927	22.923	0.27273	0.	-117.42
20928	23.013	0.18182	0.	-110.68
20929	22.923	0.18182	5.e-002	-0.36524
20930	22.923	9.0909e-002	0.	-110.57
20931	22.923	0.45455	0.	-123.16
20932	23.013	0.36364	0.	-113.39
20933	22.923	0.36364	5.e-002	-1.1402
20934	22.923	0.63636	0.	-133.25
20935	23.013	0.54545	0.	-120.78
20936	22.923	0.54545	5.e-002	-1.6247
20937	22.923	0.81818	0.	-146.97
20938	23.013	0.72727	0.	-131.45
20939	22.923	0.72727	5.e-002	-2.1303
20940	22.923	1.	0.	-164.13
20941	23.013	0.90909	0.	-145.18
20942	22.923	0.90909	5.e-002	-2.6865
20943	22.923	1.1818	0.	-184.49
20944	23.013	1.0909	0.	-161.79
20945	22.923	1.0909	5.e-002	-3.289
20946	22.923	1.3636	0.	-207.72
20947	23.013	1.2727	0.	-181.03
20948	22.923	1.2727	5.e-002	-3.9266
20949	22.923	1.5455	0.	-233.24
20950	23.013	1.4545	0.	-202.48
20951	22.923	1.4545	5.e-002	-4.5796
20952	22.923	1.7273	0.	-260.17
20953	23.013	1.6364	0.	-225.51
20954	22.923	1.6364	5.e-002	-5.2238
20955	22.923	1.9091	0.	-287.16
20956	23.013	1.8182	0.	-249.17
20957	22.923	1.8182	5.e-002	-5.8452
20958	22.923	2.0909	0.	-312.48
20959	23.013	2.	0.	-272.09
20960	22.923	2.	5.e-002	-6.4436
20961	22.923	2.2727	0.	-334.4
20962	23.013	2.1818	0.	-292.75
20963	22.923	2.1818	5.e-002	-7.0086
20964	22.923	2.4545	0.	-351.69
20965	23.013	2.3636	0.	-309.83
20966	22.923	2.3636	5.e-002	-7.4983
20967	22.923	2.6364	0.	-363.85
20968	23.013	2.5455	0.	-322.6
20969	22.923	2.5455	5.e-002	-7.8627
20970	22.923	2.8182	0.	-370.95
20971	23.013	2.7273	0.	-330.9
20972	22.923	2.7273	5.e-002	-8.0852
20973	22.923	3.	0.	-373.27
20974	23.013	2.9091	0.	-334.95
20975	22.923	2.9091	5.e-002	-8.1844
20976	22.923	3.1818	0.	-370.95
20977	23.013	3.0909	0.	-334.95
20978	22.923	3.0909	5.e-002	-8.1844
20979	22.923	3.3636	0.	-363.85
20980	23.013	3.2727	0.	-330.9
20981	22.923	3.2727	5.e-002	-8.0852
20982	22.923	3.5455	0.	-351.69
20983	23.013	3.4545	0.	-322.6
20984	22.923	3.4545	5.e-002	-7.8627
20985	22.923	3.7273	0.	-334.4
20986	23.013	3.6364	0.	-309.83
20987	22.923	3.6364	5.e-002	-7.4983
20988	22.923	3.9091	0.	-312.48
20989	23.013	3.8182	0.	-292.75
20990	22.923	3.8182	5.e-002	-7.0086
20991	22.923	4.0909	0.	-287.16
20992	23.013	4.	0.	-272.09
20993	22.923	4.	5.e-002	-6.4436
20994	22.923	4.2727	0.	-260.17
20995	23.013	4.1818	0.	-249.17
20996	22.923	4.1818	5.e-002	-5.8452
20997	22.923	4.4545	0.	-233.24
20998	23.013	4.3636	0.	-225.51
20999	22.923	4.3636	5.e-002	-5.2238
21000	22.923	4.6364	0.	-207.72
21001	23.013	4.5455	0.	-202.48
21002	22.923	4.5455	5.e-002	-4.5796
21003	22.923	4.8182	0.	-184.49
21004	23.013	4.7273	0.	-181.03
21005	22.923	4.7273	5.e-002	-3.9266
21006	22.923	5.	0.	-164.13
21007	23.013	4.9091	0.	-161.79
21008	22.923	4.9091	5.e-002	-3.289
21009	22.923	5.1818	0.	-146.97
21010	23.013	5.0909	0.	-145.18
21011	22.923	5.0909	5.e-002	-2.6865
21012	22.923	5.3636	0.	-133.25
21013	23.013	5.2727	0.	-131.45
21014	22.923	5.2727	5.e-002	-2.1303
21015	22.923	5.5455	0.	-123.16
21016	23.013	5.4545	0.	-120.78
21017	22.923	5.4545	5.e-002	-1.6247
21018	22.923	5.7273	0.	-117.42
21019	23.013	5.6364	0.	-113.39
21020	22.923	5.6364	5.e-002	-1.1402
21021	23.013	5.8182	0.	-110.68
21022	22.923	5.8182	5.e-002	-0.36524
21023	22.923	5.9091	0.	-110.57
21024	23.103	0.27273	0.	-106.62
21025	23.192	0.18182	0.	-98.272
21026	23.103	0.18182	5.e-002	-0.30129
21027	23.103	9.0909e-002	0.	-100.75
21028	23.103	0.45455	0.	-111.03
21029	23.192	0.36364	0.	-100.16
21030	23.103	0.36364	5.e-002	-1.4481
21031	23.103	0.63636	0.	-118.99
21032	23.192	0.54545	0.	-106.04
21033	23.103	0.54545	5.e-002	-1.8587
21034	23.103	0.81818	0.	-129.68
21035	23.192	0.72727	0.	-114.41
21036	23.103	0.72727	5.e-002	-2.3074
21037	23.103	1.	0.	-142.88
21038	23.192	0.90909	0.	-124.98
21039	23.103	0.90909	5.e-002	-2.8099
21040	23.103	1.1818	0.	-158.36
21041	23.192	1.0909	0.	-137.6
21042	23.103	1.0909	5.e-002	-3.3473
21043	23.103	1.3636	0.	-175.82
21044	23.192	1.2727	0.	-152.04
21045	23.103	1.2727	5.e-002	-3.9017
21046	23.103	1.5455	0.	-194.78
21047	23.192	1.4545	0.	-167.95
21048	23.103	1.4545	5.e-002	-4.4555
21049	23.103	1.7273	0.	-214.52
21050	23.192	1.6364	0.	-184.81
21051	23.103	1.6364	5.e-002	-4.9936
21052	23.103	1.9091	0.	-234.06
21053	23.192	1.8182	0.	-201.86
21054	23.103	1.8182	5.e-002	-5.5087
21055	23.103	2.0909	0.	-252.21
21056	23.192	2.	0.	-218.11
21057	23.103	2.	5.e-002	-5.999
21058	23.103	2.2727	0.	-267.87
21059	23.192	2.1818	0.	-232.55
21060	23.103	2.1818	5.e-002	-6.4569
21061	23.103	2.4545	0.	-280.25
21062	23.192	2.3636	0.	-244.37
21063	23.103	2.3636	5.e-002	-6.8598
21064	23.103	2.6364	0.	-289.
21065	23.192	2.5455	0.	-253.13
21066	23.103	2.5455	5.e-002	-7.1785
21067	23.103	2.8182	0.	-294.15
21068	23.192	2.7273	0.	-258.8
21069	23.103	2.7273	5.e-002	-7.3928
21070	23.103	3.	0.	-295.84
21071	23.192	2.9091	0.	-261.56
21072	23.103	2.9091	5.e-002	-7.4986
21073	23.103	3.1818	0.	-294.15
21074	23.192	3.0909	0.	-261.56
21075	23.103	3.0909	5.e-002	-7.4986
21076	23.103	3.3636	0.	-289.
21077	23.192	3.2727	0.	-258.8
21078	23.103	3.2727	5.e-002	-7.3928
21079	23.103	3.5455	0.	-280.25
21080	23.192	3.4545	0.	-253.13
21081	23.103	3.4545	5.e-002	-7.1785
21082	23.103	3.7273	0.	-267.87
21083	23.192	3.6364	0.	-244.37
21084	23.103	3.6364	5.e-002	-6.8598
21085	23.103	3.9091	0.	-252.21
21086	23.192	3.8182	0.	-232.55
21087	23.103	3.8182	5.e-002	-6.4569
21088	23.103	4.0909	0.	-234.06
21089	23.192	4.	0.	-218.11
21090	23.103	4.	5.e-002	-5.999
21091	23.103	4.2727	0.	-214.52
21092	23.192	4.1818	0.	-201.86
21093	23.103	4.1818	5.e-002	-5.5087
21094	23.103	4.4545	0.	-194.78
21095	23.192	4.3636	0.	-184.81
21096	23.103	4.3636	5.e-002	-4.9936
21097	23.103	4.6364	0.	-175.82
21098	23.192	4.5455	0.	-167.95
21099	23.103	4.5455	5.e-002	-4.4555
21100	23.103	4.8182	0.	-158.36
21101	23.192	4.7273	0.	-152.04
21102	23.103	4.7273	5.e-002	-3.9017
21103	23.103	5.	0.	-142.88
21104	23.192	4.9091	0.	-137.6
21105	23.103	4.9091	5.e-002	-3.3473
21106	23.103	5.1818	0.	-129.68
21107	23.192	5.0909	0.	-124.98
21108	23.103	5.0909	5.e-002	-2.8099
21109	23.103	5.3636	0.	-118.99
21110	23.192	5.2727	0.	-114.41
21111	23.103	5.2727	5.e-002	-2.3074
21112	23.103	5.5455	0.	-111.03
21113	23.192	5.4545	0.	-106.04
21114	23.103	5.4545	5.e-002	-1.8587
21115	23.103	5.7273	0.	-106.62
21116	23.192	5.6364	0.	-100.16
21117	23.103	5.6364	5.e-002	-1.4481
21118	23.192	5.8182	0.	-98.272
21119	23.103	5.8182	5.e-002	-0.30129
21120	23.103	5.9091	0.	-100.75
21121	23.282	0.27273	0.	-91.734
21122	23.372	0.18182	0.	-82.008
21123	23.282	0.18182	5.e-002	-0.76159
21124	23.282	9.0909e-002	0.	-86.675
21125	23.282	0.45455	0.	-95.172
21126	23.372	0.36364	0.	-83.423
21127	23.282	0.36364	5.e-002	-1.7896
21128	23.282	0.63636	0.	-101.46
21129	23.372	0.54545	0.	-88.182
21130	23.282	0.54545	5.e-002	-2.1379
21131	23.282	0.81818	0.	-109.7
21132	23.372	0.72727	0.	-94.7
21133	23.282	0.72727	5.e-002	-2.5279
21134	23.282	1.	0.	-119.69
21135	23.372	0.90909	0.	-102.73
21136	23.282	0.90909	5.e-002	-2.9692
21137	23.282	1.1818	0.	-131.26
21138	23.372	1.0909	0.	-112.15
21139	23.282	1.0909	5.e-002	-3.4372
21140	23.282	1.3636	0.	-144.16
21141	23.372	1.2727	0.	-122.8
21142	23.282	1.2727	5.e-002	-3.9123
21143	23.282	1.5455	0.	-157.98
21144	23.372	1.4545	0.	-134.38
21145	23.282	1.4545	5.e-002	-4.3799
21146	23.282	1.7273	0.	-172.15
21147	23.372	1.6364	0.	-146.45
21148	23.282	1.6364	5.e-002	-4.8303
21149	23.282	1.9091	0.	-185.89
21150	23.372	1.8182	0.	-158.36
21151	23.282	1.8182	5.e-002	-5.2588
21152	23.282	2.0909	0.	-198.37
21153	23.372	2.	0.	-169.38
21154	23.282	2.	5.e-002	-5.6636
21155	23.282	2.2727	0.	-208.86
21156	23.372	2.1818	0.	-178.77
21157	23.282	2.1818	5.e-002	-6.0387
21158	23.282	2.4545	0.	-216.93
21159	23.372	2.3636	0.	-186.06
21160	23.282	2.3636	5.e-002	-6.3701
21161	23.282	2.6364	0.	-222.46
21162	23.372	2.5455	0.	-191.12
21163	23.282	2.5455	5.e-002	-6.6382
21164	23.282	2.8182	0.	-225.63
21165	23.372	2.7273	0.	-194.15
21166	23.282	2.7273	5.e-002	-6.8253
21167	23.282	3.	0.	-226.66
21168	23.372	2.9091	0.	-195.53
21169	23.282	2.9091	5.e-002	-6.9209
21170	23.282	3.1818	0.	-225.63
21171	23.372	3.0909	0.	-195.53
21172	23.282	3.0909	5.e-002	-6.9209
21173	23.282	3.3636	0.	-222.46
21174	23.372	3.2727	0.	-194.15
21175	23.282	3.2727	5.e-002	-6.8253
21176	23.282	3.5455	0.	-216.93
21177	23.372	3.4545	0.	-191.12
21178	23.282	3.4545	5.e-002	-6.6382
21179	23.282	3.7273	0.	-208.86
21180	23.372	3.6364	0.	-186.06
21181	23.282	3.6364	5.e-002	-6.3701
21182	23.282	3.9091	0.	-198.37
21183	23.372	3.8182	0.	-178.77
21184	23.282	3.8182	5.e-002	-6.0387
21185	23.282	4.0909	0.	-185.89
21186	23.372	4.	0.	-169.38
21187	23.282	4.	5.e-002	-5.6636
21188	23.282	4.2727	0.	-172.15
21189	23.372	4.1818	0.	-158.36
21190	23.282	4.1818	5.e-002	-5.2588
21191	23.282	4.4545	0.	-157.98
21192	23.372	4.3636	0.	-146.45
21193	23.282	4.3636	5.e-002	-4.8303
21194	23.282	4.6364	0.	-144.16
21195	23.372	4.5455	0.	-134.38
21196	23.282	4.5455	5.e-002	-4.3799
21197	23.282	4.8182	0.	-131.26
21198	23.372	4.7273	0.	-122.8
21199	23.282	4.7273	5.e-002	-3.9123
21200	23.282	5.	0.	-119.69
21201	23.372	4.9091	0.	-112.15
21202	23.282	4.9091	5.e-002	-3.4372
21203	23.282	5.1818	0.	-109.7
21204	23.372	5.0909	0.	-102.73
21205	23.282	5.0909	5.e-002	-2.9692
21206	23.282	5.3636	0.	-101.46
21207	23.372	5.2727	0.	-94.7
21208	23.282	5.2727	5.e-002	-2.5279
21209	23.282	5.5455	0.	-95.172
21210	23.372	5.4545	0.	-88.182
21211	23.282	5.4545	5.e-002	-2.1379
21212	23.282	5.7273	0.	-91.734
21213	23.372	5.6364	0.	-83.423
21214	23.282	5.6364	5.e-002	-1.7896
21215	23.372	5.8182	0.	-82.008
21216	23.282	5.8182	5.e-002	-0.76159
21217	23.282	5.9091	0.	-86.675
21218	23.462	0.27273	0.	-73.578
21219	23.551	0.18182	0.	-62.637
21220	23.462	0.18182	5.e-002	-1.2273
21221	23.462	9.0909e-002	0.	-69.181
21222	23.462	0.45455	0.	-76.432
21223	23.551	0.36364	0.	-64.059
21224	23.462	0.36364	5.e-002	-2.1197
21225	23.462	0.63636	0.	-81.428
21226	23.551	0.54545	0.	-68.013
21227	23.462	0.54545	5.e-002	-2.4259
21228	23.462	0.81818	0.	-87.721
21229	23.551	0.72727	0.	-73.072
21230	23.462	0.72727	5.e-002	-2.7639
21231	23.462	1.	0.	-95.175
21232	23.551	0.90909	0.	-79.11
21233	23.462	0.90909	5.e-002	-3.1444
21234	23.462	1.1818	0.	-103.68
21235	23.551	1.0909	0.	-86.087
21236	23.462	1.0909	5.e-002	-3.5437
21237	23.462	1.3636	0.	-113.04
21238	23.551	1.2727	0.	-93.878
21239	23.462	1.2727	5.e-002	-3.9446
21240	23.462	1.5455	0.	-122.91
21241	23.551	1.4545	0.	-102.23
21242	23.462	1.4545	5.e-002	-4.3357
21243	23.462	1.7273	0.	-132.78
21244	23.551	1.6364	0.	-110.71
21245	23.462	1.6364	5.e-002	-4.7106
21246	23.462	1.9091	0.	-142.
21247	23.551	1.8182	0.	-118.77
21248	23.462	1.8182	5.e-002	-5.0666
21249	23.462	2.0909	0.	-149.92
21250	23.551	2.	0.	-125.72
21251	23.462	2.	5.e-002	-5.4019
21252	23.462	2.2727	0.	-156.04
21253	23.551	2.1818	0.	-130.98
21254	23.462	2.1818	5.e-002	-5.7119
21255	23.462	2.4545	0.	-160.18
21256	23.551	2.3636	0.	-134.23
21257	23.462	2.3636	5.e-002	-5.9864
21258	23.462	2.6364	0.	-162.52
21259	23.551	2.5455	0.	-135.56
21260	23.462	2.5455	5.e-002	-6.2107
21261	23.462	2.8182	0.	-163.57
21262	23.551	2.7273	0.	-135.54
21263	23.462	2.7273	5.e-002	-6.3698
21264	23.462	3.	0.	-163.84
21265	23.551	2.9091	0.	-135.12
21266	23.462	2.9091	5.e-002	-6.4522
21267	23.462	3.1818	0.	-163.57
21268	23.551	3.0909	0.	-135.12
21269	23.462	3.0909	5.e-002	-6.4522
21270	23.462	3.3636	0.	-162.52
21271	23.551	3.2727	0.	-135.54
21272	23.462	3.2727	5.e-002	-6.3698
21273	23.462	3.5455	0.	-160.18
21274	23.551	3.4545	0.	-135.56
21275	23.462	3.4545	5.e-002	-6.2107
21276	23.462	3.7273	0.	-156.04
21277	23.551	3.6364	0.	-134.23
21278	23.462	3.6364	5.e-002	-5.9864
21279	23.462	3.9091	0.	-149.92
21280	23.551	3.8182	0.	-130.98
21281	23.462	3.8182	5.e-002	-5.7119
21282	23.462	4.0909	0.	-142.
21283	23.551	4.	0.	-125.72
21284	23.462	4.	5.e-002	-5.4019
21285	23.462	4.2727	0.	-132.78
21286	23.551	4.1818	0.	-118.77
21287	23.462	4.1818	5.e-002	-5.0666
21288	23.462	4.4545	0.	-122.91
21289	23.551	4.3636	0.	-110.71
21290	23.462	4.3636	5.e-002	-4.7106
21291	23.462	4.6364	0.	-113.04
21292	23.551	4.5455	0.	-102.23
21293	23.462	4.5455	5.e-002	-4.3357
21294	23.462	4.8182	0.	-103.68
21295	23.551	4.7273	0.	-93.878
21296	23.462	4.7273	5.e-002	-3.9446
21297	23.462	5.	0.	-95.175
21298	23.551	4.9091	0.	-86.087
21299	23.462	4.9091	5.e-002	-3.5437
21300	23.462	5.1818	0.	-87.721
21301	23.551	5.0909	0.	-79.11
21302	23.462	5.0909	5.e-002	-3.1444
21303	23.462	5.3636	0.	-81.428
21304	23.551	5.2727	0.	-73.072
21305	23.462	5.2727	5.e-002	-2.7639
21306	23.462	5.5455	0.	-76.432
21307	23.551	5.4545	0.	-68.013
21308	23.462	5.4545	5.e-002	-2.4259
21309	23.462	5.7273	0.	-73.578
21310	23.551	5.6364	0.	-64.059
21311	23.462	5.6364	5.e-002	-2.1197
21312	23.551	5.8182	0.	-62.637
21313	23.462	5.8182	5.e-002	-1.2273
21314	23.462	5.9091	0.	-69.181
21315	23.641	0.27273	0.	-52.964
21316	23.731	0.18182	0.	-41.274
21317	23.641	0.18182	5.e-002	-1.7272
21318	23.641	9.0909e-002	0.	-49.077
21319	23.641	0.45455	0.	-55.648
21320	23.731	0.36364	0.	-43.225
21321	23.641	0.36364	5.e-002	-2.4694
21322	23.641	0.63636	0.	-59.67
21323	23.731	0.54545	0.	-46.618
21324	23.641	0.54545	5.e-002	-2.7296
21325	23.641	0.81818	0.	-64.476
21326	23.731	0.72727	0.	-50.703
21327	23.641	0.72727	5.e-002	-3.0111
21328	23.641	1.	0.	-70.055
21329	23.731	0.90909	0.	-55.482
21330	23.641	0.90909	5.e-002	-3.3225
21331	23.641	1.1818	0.	-76.357
21332	23.731	1.0909	0.	-60.96
21333	23.641	1.0909	5.e-002	-3.6488
21334	23.641	1.3636	0.	-83.212
21335	23.731	1.2727	0.	-67.027
21336	23.641	1.2727	5.e-002	-3.9763
21337	23.641	1.5455	0.	-90.298
21338	23.731	1.4545	0.	-73.431
21339	23.641	1.4545	5.e-002	-4.2964
21340	23.641	1.7273	0.	-97.129
21341	23.731	1.6364	0.	-79.756
21342	23.641	1.6364	5.e-002	-4.6048
21343	23.641	1.9091	0.	-103.1
21344	23.731	1.8182	0.	-85.426
21345	23.641	1.8182	5.e-002	-4.9
21346	23.641	2.0909	0.	-107.58
21347	23.731	2.	0.	-89.787
21348	23.641	2.	5.e-002	-5.1805
21349	23.641	2.2727	0.	-110.09
21350	23.731	2.1818	0.	-92.23
21351	23.641	2.1818	5.e-002	-5.4422
21352	23.641	2.4545	0.	-110.48
21353	23.731	2.3636	0.	-92.333
21354	23.641	2.3636	5.e-002	-5.676
21355	23.641	2.6364	0.	-109.05
21356	23.731	2.5455	0.	-89.965
21357	23.641	2.5455	5.e-002	-5.869
21358	23.641	2.8182	0.	-106.84
21359	23.731	2.7273	0.	-85.386
21360	23.641	2.7273	5.e-002	-6.0074
21361	23.641	3.	0.	-105.7
21362	23.731	2.9091	0.	-79.818
21363	23.641	2.9091	5.e-002	-6.0796
21364	23.641	3.1818	0.	-106.84
21365	23.731	3.0909	0.	-79.818
21366	23.641	3.0909	5.e-002	-6.0796
21367	23.641	3.3636	0.	-109.05
21368	23.731	3.2727	0.	-85.387
21369	23.641	3.2727	5.e-002	-6.0074
21370	23.641	3.5455	0.	-110.48
21371	23.731	3.4545	0.	-89.965
21372	23.641	3.4545	5.e-002	-5.869
21373	23.641	3.7273	0.	-110.09
21374	23.731	3.6364	0.	-92.333
21375	23.641	3.6364	5.e-002	-5.676
21376	23.641	3.9091	0.	-107.58
21377	23.731	3.8182	0.	-92.23
21378	23.641	3.8182	5.e-002	-5.4422
21379	23.641	4.0909	0.	-103.1
21380	23.731	4.	0.	-89.787
21381	23.641	4.	5.e-002	-5.1805
21382	23.641	4.2727	0.	-97.129
21383	23.731	4.1818	0.	-85.426
21384	23.641	4.1818	5.e-002	-4.9
21385	23.641	4.4545	0.	-90.298
21386	23.731	4.3636	0.	-79.756
21387	23.641	4.3636	5.e-002	-4.6048
21388	23.641	4.6364	0.	-83.212
21389	23.731	4.5455	0.	-73.431
21390	23.641	4.5455	5.e-002	-4.2964
21391	23.641	4.8182	0.	-76.357
21392	23.731	4.7273	0.	-67.027
21393	23.641	4.7273	5.e-002	-3.9763
21394	23.641	5.	0.	-70.055
21395	23.731	4.9091	0.	-60.96
21396	23.641	4.9091	5.e-002	-3.6488
21397	23.641	5.1818	0.	-64.476
21398	23.731	5.0909	0.	-55.482
21399	23.641	5.0909	5.e-002	-3.3225
21400	23.641	5.3636	0.	-59.67
21401	23.731	5.2727	0.	-50.703
21402	23.641	5.2727	5.e-002	-3.0111
21403	23.641	5.5455	0.	-55.648
21404	23.731	5.4545	0.	-46.618
21405	23.641	5.4545	5.e-002	-2.7296
21406	23.641	5.7273	0.	-52.964
21407	23.731	5.6364	0.	-43.225
21408	23.641	5.6364	5.e-002	-2.4694
21409	23.731	5.8182	0.	-41.274
21410	23.641	5.8182	5.e-002	-1.7272
21411	23.641	5.9091	0.	-49.077
21412	23.821	0.27273	0.	-31.411
21413	23.821	0.18182	5.e-002	-2.5768
21414	23.821	9.0909e-002	0.	-27.614
21415	23.91	0.18182	0.	-17.458
21416	23.821	0.45455	0.	-34.242
21417	23.821	0.36364	5.e-002	-3.0209
21418	23.91	0.36364	0.	-19.471
21419	23.821	0.63636	0.	-37.732
21420	23.821	0.54545	5.e-002	-3.126
21421	23.91	0.54545	0.	-21.842
21422	23.821	0.81818	0.	-41.839
21423	23.821	0.72727	5.e-002	-3.2582
21424	23.91	0.72727	0.	-24.703
21425	23.821	1.	0.	-46.592
21426	23.821	0.90909	5.e-002	-3.4314
21427	23.91	0.90909	0.	-28.141
21428	23.821	1.1818	0.	-51.947
21429	23.821	1.0909	5.e-002	-3.6357
21430	23.91	1.0909	0.	-32.242
21431	23.821	1.3636	0.	-57.726
21432	23.821	1.2727	5.e-002	-3.864
21433	23.91	1.2727	0.	-37.006
21434	23.821	1.5455	0.	-63.598
21435	23.821	1.4545	5.e-002	-4.1108
21436	23.91	1.4545	0.	-42.313
21437	23.821	1.7273	0.	-69.08
21438	23.821	1.6364	5.e-002	-4.3717
21439	23.91	1.6364	0.	-47.869
21440	23.821	1.9091	0.	-73.578
21441	23.821	1.8182	5.e-002	-4.6422
21442	23.91	1.8182	0.	-53.201
21443	23.821	2.0909	0.	-76.501
21444	23.821	2.	5.e-002	-4.9154
21445	23.91	2.	0.	-57.742
21446	23.821	2.2727	0.	-77.384
21447	23.821	2.1818	5.e-002	-5.18
21448	23.91	2.1818	0.	-60.98
21449	23.821	2.4545	0.	-76.001
21450	23.821	2.3636	5.e-002	-5.4212
21451	23.91	2.3636	0.	-62.623
21452	23.821	2.6364	0.	-72.461
21453	23.821	2.5455	5.e-002	-5.6218
21454	23.91	2.5455	0.	-62.732
21455	23.821	2.8182	0.	-67.438
21456	23.821	2.7273	5.e-002	-5.7657
21457	23.91	2.7273	0.	-61.817
21458	23.821	3.	0.	-64.007
21459	23.821	2.9091	5.e-002	-5.8409
21460	23.91	2.9091	0.	-60.859
21461	23.821	3.1818	0.	-67.438
21462	23.821	3.0909	5.e-002	-5.8409
21463	23.91	3.0909	0.	-60.859
21464	23.821	3.3636	0.	-72.461
21465	23.821	3.2727	5.e-002	-5.7657
21466	23.91	3.2727	0.	-61.817
21467	23.821	3.5455	0.	-76.001
21468	23.821	3.4545	5.e-002	-5.6218
21469	23.91	3.4545	0.	-62.732
21470	23.821	3.7273	0.	-77.384
21471	23.821	3.6364	5.e-002	-5.4212
21472	23.91	3.6364	0.	-62.624
21473	23.821	3.9091	0.	-76.501
21474	23.821	3.8182	5.e-002	-5.18
21475	23.91	3.8182	0.	-60.98
21476	23.821	4.0909	0.	-73.578
21477	23.821	4.	5.e-002	-4.9154
21478	23.91	4.	0.	-57.742
21479	23.821	4.2727	0.	-69.08
21480	23.821	4.1818	5.e-002	-4.6422
21481	23.91	4.1818	0.	-53.201
21482	23.821	4.4545	0.	-63.599
21483	23.821	4.3636	5.e-002	-4.3717
21484	23.91	4.3636	0.	-47.869
21485	23.821	4.6364	0.	-57.726
21486	23.821	4.5455	5.e-002	-4.1108
21487	23.91	4.5455	0.	-42.313
21488	23.821	4.8182	0.	-51.947
21489	23.821	4.7273	5.e-002	-3.864
21490	23.91	4.7273	0.	-37.006
21491	23.821	5.	0.	-46.592
21492	23.821	4.9091	5.e-002	-3.6357
21493	23.91	4.9091	0.	-32.242
21494	23.821	5.1818	0.	-41.839
21495	23.821	5.0909	5.e-002	-3.4314
21496	23.91	5.0909	0.	-28.141
21497	23.821	5.3636	0.	-37.732
21498	23.821	5.2727	5.e-002	-3.2582
21499	23.91	5.2727	0.	-24.703
21500	23.821	5.5455	0.	-34.242
21501	23.821	5.4545	5.e-002	-3.126
21502	23.91	5.4545	0.	-21.842
21503	23.821	5.7273	0.	-31.411
21504	23.821	5.6364	5.e-002	-3.0209
21505	23.91	5.6364	0.	-19.471
21506	23.821	5.8182	5.e-002	-2.5768
21507	23.91	5.8182	0.	-17.458
21508	23.821	5.9091	0.	-27.614
21509	23.821	5.7273	0.1	-29.818
21510	23.731	5.8182	0.1	-22.228
21511	23.821	5.9091	0.1	-15.561
21512	23.91	5.8182	0.1	-25.668
21513	23.821	5.5455	0.1	-38.479
21514	23.731	5.6364	0.1	-30.755
21515	23.91	5.6364	0.1	-38.569
21516	23.821	5.3636	0.1	-42.067
21517	23.731	5.4545	0.1	-35.334
21518	23.91	5.4545	0.1	-44.506
21519	23.821	5.1818	0.1	-41.588
21520	23.731	5.2727	0.1	-35.671
21521	23.91	5.2727	0.1	-45.493
21522	23.821	5.	0.1	-38.103
21523	23.731	5.0909	0.1	-32.645
21524	23.91	5.0909	0.1	-42.908
21525	23.821	4.8182	0.1	-32.478
21526	23.731	4.9091	0.1	-27.078
21527	23.91	4.9091	0.1	-37.816
21528	23.821	4.6364	0.1	-25.447
21529	23.731	4.7273	0.1	-19.732
21530	23.91	4.7273	0.1	-31.136
21531	23.821	4.4545	0.1	-17.613
21532	23.731	4.5455	0.1	-11.306
21533	23.91	4.5455	0.1	-23.644
21534	23.821	4.2727	0.1	-9.5523
21535	23.731	4.3636	0.1	-2.9561
21536	23.91	4.3636	0.1	-15.917
21537	23.821	4.0909	0.1	-3.0009
21538	23.731	4.1818	0.1	-0.63249
21539	23.91	4.1818	0.1	-8.314
21540	23.821	3.9091	0.1	-1.0679
21541	23.731	4.	0.1	-0.45221
21542	23.91	4.	0.1	-1.5175
21543	23.821	3.7273	0.1	-0.65896
21544	23.731	3.8182	0.1	-0.40466
21545	23.91	3.8182	0.1	-0.61412
21546	23.821	3.5455	0.1	-0.50205
21547	23.731	3.6364	0.1	-0.3851
21548	23.91	3.6364	0.1	-0.57701
21549	23.821	3.3636	0.1	-0.42358
21550	23.731	3.4545	0.1	-0.37466
21551	23.91	3.4545	0.1	-0.57346
21552	23.821	3.1818	0.1	-0.38396
21553	23.731	3.2727	0.1	-0.36843
21554	23.91	3.2727	0.1	-0.57574
21555	23.821	3.	0.1	-0.37163
21556	23.731	3.0909	0.1	-0.36534
21557	23.91	3.0909	0.1	-0.57782
21558	23.821	2.8182	0.1	-0.38396
21559	23.731	2.9091	0.1	-0.36534
21560	23.91	2.9091	0.1	-0.57782
21561	23.821	2.6364	0.1	-0.42357
21562	23.731	2.7273	0.1	-0.36843
21563	23.91	2.7273	0.1	-0.57574
21564	23.821	2.4545	0.1	-0.50205
21565	23.731	2.5455	0.1	-0.37466
21566	23.91	2.5455	0.1	-0.57346
21567	23.821	2.2727	0.1	-0.65896
21568	23.731	2.3636	0.1	-0.3851
21569	23.91	2.3636	0.1	-0.57701
21570	23.821	2.0909	0.1	-1.0679
21571	23.731	2.1818	0.1	-0.40466
21572	23.91	2.1818	0.1	-0.61412
21573	23.821	1.9091	0.1	-3.0008
21574	23.731	2.	0.1	-0.45221
21575	23.91	2.	0.1	-1.5175
21576	23.821	1.7273	0.1	-9.5523
21577	23.731	1.8182	0.1	-0.63248
21578	23.91	1.8182	0.1	-8.314
21579	23.821	1.5455	0.1	-17.613
21580	23.731	1.6364	0.1	-2.956
21581	23.91	1.6364	0.1	-15.917
21582	23.821	1.3636	0.1	-25.447
21583	23.731	1.4545	0.1	-11.306
21584	23.91	1.4545	0.1	-23.644
21585	23.821	1.1818	0.1	-32.478
21586	23.731	1.2727	0.1	-19.732
21587	23.91	1.2727	0.1	-31.136
21588	23.821	1.	0.1	-38.103
21589	23.731	1.0909	0.1	-27.078
21590	23.91	1.0909	0.1	-37.816
21591	23.821	0.81818	0.1	-41.588
21592	23.731	0.90909	0.1	-32.645
21593	23.91	0.90909	0.1	-42.908
21594	23.821	0.63636	0.1	-42.067
21595	23.731	0.72727	0.1	-35.671
21596	23.91	0.72727	0.1	-45.493
21597	23.821	0.45455	0.1	-38.479
21598	23.731	0.54545	0.1	-35.334
21599	23.91	0.54545	0.1	-44.506
21600	23.821	0.27273	0.1	-29.818
21601	23.731	0.36364	0.1	-30.755
21602	23.91	0.36364	0.1	-38.569
21603	23.731	0.18182	0.1	-22.228
21604	23.91	0.18182	0.1	-25.668
21605	23.821	9.0909e-002	0.1	-15.561
21606	23.641	5.7273	0.1	-23.04
21607	23.551	5.8182	0.1	-19.159
21608	23.641	5.9091	0.1	-13.957
21609	23.641	5.5455	0.1	-27.639
21610	23.551	5.6364	0.1	-22.976
21611	23.641	5.3636	0.1	-29.009
21612	23.551	5.4545	0.1	-24.965
21613	23.641	5.1818	0.1	-26.856
21614	23.551	5.2727	0.1	-23.572
21615	23.641	5.	0.1	-21.828
21616	23.551	5.0909	0.1	-19.14
21617	23.641	4.8182	0.1	-14.65
21618	23.551	4.9091	0.1	-12.272
21619	23.641	4.6364	0.1	-6.0403
21620	23.551	4.7273	0.1	-3.6423
21621	23.641	4.4545	0.1	-0.42328
21622	23.551	4.5455	0.1	-0.2132
21623	23.641	4.2727	0.1	-0.3743
21624	23.551	4.3636	0.1	-0.23161
21625	23.641	4.0909	0.1	-0.38862
21626	23.551	4.1818	0.1	-0.25413
21627	23.641	3.9091	0.1	-0.40931
21628	23.551	4.	0.1	-0.27767
21629	23.641	3.7273	0.1	-0.42967
21630	23.551	3.8182	0.1	-0.30041
21631	23.641	3.5455	0.1	-0.44697
21632	23.551	3.6364	0.1	-0.32048
21633	23.641	3.3636	0.1	-0.45981
21634	23.551	3.4545	0.1	-0.33628
21635	23.641	3.1818	0.1	-0.4676
21636	23.551	3.2727	0.1	-0.34692
21637	23.641	3.	0.1	-0.4702
21638	23.551	3.0909	0.1	-0.35219
21639	23.641	2.8182	0.1	-0.4676
21640	23.551	2.9091	0.1	-0.35219
21641	23.641	2.6364	0.1	-0.45981
21642	23.551	2.7273	0.1	-0.34692
21643	23.641	2.4545	0.1	-0.44697
21644	23.551	2.5455	0.1	-0.33628
21645	23.641	2.2727	0.1	-0.42967
21646	23.551	2.3636	0.1	-0.32048
21647	23.641	2.0909	0.1	-0.40931
21648	23.551	2.1818	0.1	-0.30041
21649	23.641	1.9091	0.1	-0.38862
21650	23.551	2.	0.1	-0.27767
21651	23.641	1.7273	0.1	-0.3743
21652	23.551	1.8182	0.1	-0.25413
21653	23.641	1.5455	0.1	-0.42328
21654	23.551	1.6364	0.1	-0.23161
21655	23.641	1.3636	0.1	-6.0403
21656	23.551	1.4545	0.1	-0.2132
21657	23.641	1.1818	0.1	-14.65
21658	23.551	1.2727	0.1	-3.6422
21659	23.641	1.	0.1	-21.828
21660	23.551	1.0909	0.1	-12.272
21661	23.641	0.81818	0.1	-26.856
21662	23.551	0.90909	0.1	-19.14
21663	23.641	0.63636	0.1	-29.009
21664	23.551	0.72727	0.1	-23.572
21665	23.641	0.45455	0.1	-27.639
21666	23.551	0.54545	0.1	-24.965
21667	23.641	0.27273	0.1	-23.04
21668	23.551	0.36364	0.1	-22.976
21669	23.551	0.18182	0.1	-19.159
21670	23.641	9.0909e-002	0.1	-13.957
21671	23.462	5.7273	0.1	-18.948
21672	23.372	5.8182	0.1	-17.252
21673	23.462	5.9091	0.1	-12.592
21674	23.462	5.5455	0.1	-20.3
21675	23.372	5.6364	0.1	-17.81
21676	23.462	5.3636	0.1	-19.533
21677	23.372	5.4545	0.1	-17.419
21678	23.462	5.1818	0.1	-15.866
21679	23.372	5.2727	0.1	-14.338
21680	23.462	5.	0.1	-9.6139
21681	23.372	5.0909	0.1	-8.6098
21682	23.462	4.8182	0.1	-1.3502
21683	23.372	4.9091	0.1	-0.7993
21684	23.462	4.6364	0.1	-0.12528
21685	23.372	4.7273	0.1	-0.11815
21686	23.462	4.4545	0.1	-0.13958
21687	23.372	4.5455	0.1	-0.12301
21688	23.462	4.2727	0.1	-0.1567
21689	23.372	4.3636	0.1	-0.13567
21690	23.462	4.0909	0.1	-0.17589
21691	23.372	4.1818	0.1	-0.1527
21692	23.462	3.9091	0.1	-0.19608
21693	23.372	4.	0.1	-0.17325
21694	23.462	3.7273	0.1	-0.21551
21695	23.372	3.8182	0.1	-0.19573
21696	23.462	3.5455	0.1	-0.23224
21697	23.372	3.6364	0.1	-0.21729
21698	23.462	3.3636	0.1	-0.24474
21699	23.372	3.4545	0.1	-0.23491
21700	23.462	3.1818	0.1	-0.25227
21701	23.372	3.2727	0.1	-0.24685
21702	23.462	3.	0.1	-0.25476
21703	23.372	3.0909	0.1	-0.25271
21704	23.462	2.8182	0.1	-0.25227
21705	23.372	2.9091	0.1	-0.25271
21706	23.462	2.6364	0.1	-0.24474
21707	23.372	2.7273	0.1	-0.24685
21708	23.462	2.4545	0.1	-0.23224
21709	23.372	2.5455	0.1	-0.23491
21710	23.462	2.2727	0.1	-0.21551
21711	23.372	2.3636	0.1	-0.21729
21712	23.462	2.0909	0.1	-0.19608
21713	23.372	2.1818	0.1	-0.19573
21714	23.462	1.9091	0.1	-0.17589
21715	23.372	2.	0.1	-0.17325
21716	23.462	1.7273	0.1	-0.15671
21717	23.372	1.8182	0.1	-0.1527
21718	23.462	1.5455	0.1	-0.13958
21719	23.372	1.6364	0.1	-0.13567
21720	23.462	1.3636	0.1	-0.12528
21721	23.372	1.4545	0.1	-0.12301
21722	23.462	1.1818	0.1	-1.3502
21723	23.372	1.2727	0.1	-0.11815
21724	23.462	1.	0.1	-9.6139
21725	23.372	1.0909	0.1	-0.79927
21726	23.462	0.81818	0.1	-15.866
21727	23.372	0.90909	0.1	-8.6097
21728	23.462	0.63636	0.1	-19.533
21729	23.372	0.72727	0.1	-14.338
21730	23.462	0.45455	0.1	-20.3
21731	23.372	0.54545	0.1	-17.419
21732	23.462	0.27273	0.1	-18.948
21733	23.372	0.36364	0.1	-17.81
21734	23.372	0.18182	0.1	-17.252
21735	23.462	9.0909e-002	0.1	-12.592
21736	23.282	5.7273	0.1	-16.005
21737	23.192	5.8182	0.1	-15.762
21738	23.282	5.9091	0.1	-11.466
21739	23.282	5.5455	0.1	-14.924
21740	23.192	5.6364	0.1	-14.06
21741	23.282	5.3636	0.1	-12.223
21742	23.192	5.4545	0.1	-11.69
21743	23.282	5.1818	0.1	-7.0794
21744	23.192	5.2727	0.1	-7.061
21745	23.282	5.	0.1	-0.39343
21746	23.192	5.0909	0.1	-0.68202
21747	23.282	4.8182	0.1	-0.12046
21748	23.192	4.9091	0.1	-0.12421
21749	23.282	4.6364	0.1	-0.11703
21750	23.192	4.7273	0.1	-0.10655
21751	23.282	4.4545	0.1	-0.12476
21752	23.192	4.5455	0.1	-0.10712
21753	23.282	4.2727	0.1	-0.13827
21754	23.192	4.3636	0.1	-0.11519
21755	23.282	4.0909	0.1	-0.15693
21756	23.192	4.1818	0.1	-0.13026
21757	23.282	3.9091	0.1	-0.17988
21758	23.192	4.	0.1	-0.15261
21759	23.282	3.7273	0.1	-0.20461
21760	23.192	3.8182	0.1	-0.17973
21761	23.282	3.5455	0.1	-0.22716
21762	23.192	3.6364	0.1	-0.20711
21763	23.282	3.3636	0.1	-0.24426
21764	23.192	3.4545	0.1	-0.23002
21765	23.282	3.1818	0.1	-0.25453
21766	23.192	3.2727	0.1	-0.24509
21767	23.282	3.	0.1	-0.2579
21768	23.192	3.0909	0.1	-0.25212
21769	23.282	2.8182	0.1	-0.25453
21770	23.192	2.9091	0.1	-0.25212
21771	23.282	2.6364	0.1	-0.24427
21772	23.192	2.7273	0.1	-0.24509
21773	23.282	2.4545	0.1	-0.22716
21774	23.192	2.5455	0.1	-0.23002
21775	23.282	2.2727	0.1	-0.20461
21776	23.192	2.3636	0.1	-0.20711
21777	23.282	2.0909	0.1	-0.17988
21778	23.192	2.1818	0.1	-0.17973
21779	23.282	1.9091	0.1	-0.15693
21780	23.192	2.	0.1	-0.15261
21781	23.282	1.7273	0.1	-0.13827
21782	23.192	1.8182	0.1	-0.13026
21783	23.282	1.5455	0.1	-0.12476
21784	23.192	1.6364	0.1	-0.11519
21785	23.282	1.3636	0.1	-0.11703
21786	23.192	1.4545	0.1	-0.10712
21787	23.282	1.1818	0.1	-0.12046
21788	23.192	1.2727	0.1	-0.10655
21789	23.282	1.	0.1	-0.39342
21790	23.192	1.0909	0.1	-0.12421
21791	23.282	0.81818	0.1	-7.0794
21792	23.192	0.90909	0.1	-0.682
21793	23.282	0.63636	0.1	-12.223
21794	23.192	0.72727	0.1	-7.061
21795	23.282	0.45455	0.1	-14.924
21796	23.192	0.54545	0.1	-11.69
21797	23.282	0.27273	0.1	-16.005
21798	23.192	0.36364	0.1	-14.06
21799	23.192	0.18182	0.1	-15.762
21800	23.282	9.0909e-002	0.1	-11.466
21801	23.103	5.7273	0.1	-13.75
21802	23.013	5.8182	0.1	-14.543
21803	23.103	5.9091	0.1	-10.493
21804	23.103	5.5455	0.1	-10.827
21805	23.013	5.6364	0.1	-11.176
21806	23.103	5.3636	0.1	-6.5371
21807	23.013	5.4545	0.1	-7.2833
21808	23.103	5.1818	0.1	-0.74018
21809	23.013	5.2727	0.1	-1.6894
21810	23.103	5.	0.1	-0.1298
21811	23.013	5.0909	0.1	-0.1718
21812	23.103	4.8182	0.1	-0.10084
21813	23.013	4.9091	0.1	-0.11096
21814	23.103	4.6364	0.1	-9.5397e-002
21815	23.013	4.7273	0.1	-9.4996e-002
21816	23.103	4.4545	0.1	-9.8305e-002
21817	23.013	4.5455	0.1	-9.0488e-002
21818	23.103	4.2727	0.1	-0.10864
21819	23.013	4.3636	0.1	-9.3702e-002
21820	23.103	4.0909	0.1	-0.12777
21821	23.013	4.1818	0.1	-0.10616
21822	23.103	3.9091	0.1	-0.15467
21823	23.013	4.	0.1	-0.12996
21824	23.103	3.7273	0.1	-0.18493
21825	23.013	3.8182	0.1	-0.16588
21826	23.103	3.5455	0.1	-0.21307
21827	23.013	3.6364	0.1	-0.20492
21828	23.103	3.3636	0.1	-0.2341
21829	23.013	3.4545	0.1	-0.23424
21830	23.103	3.1818	0.1	-0.24587
21831	23.013	3.2727	0.1	-0.25066
21832	23.103	3.	0.1	-0.24948
21833	23.013	3.0909	0.1	-0.257
21834	23.103	2.8182	0.1	-0.24587
21835	23.013	2.9091	0.1	-0.257
21836	23.103	2.6364	0.1	-0.2341
21837	23.013	2.7273	0.1	-0.25066
21838	23.103	2.4545	0.1	-0.21307
21839	23.013	2.5455	0.1	-0.23424
21840	23.103	2.2727	0.1	-0.18493
21841	23.013	2.3636	0.1	-0.20492
21842	23.103	2.0909	0.1	-0.15467
21843	23.013	2.1818	0.1	-0.16589
21844	23.103	1.9091	0.1	-0.12777
21845	23.013	2.	0.1	-0.12996
21846	23.103	1.7273	0.1	-0.10864
21847	23.013	1.8182	0.1	-0.10616
21848	23.103	1.5455	0.1	-9.8304e-002
21849	23.013	1.6364	0.1	-9.3701e-002
21850	23.103	1.3636	0.1	-9.5396e-002
21851	23.013	1.4545	0.1	-9.0487e-002
21852	23.103	1.1818	0.1	-0.10084
21853	23.013	1.2727	0.1	-9.4996e-002
21854	23.103	1.	0.1	-0.1298
21855	23.013	1.0909	0.1	-0.11096
21856	23.103	0.81818	0.1	-0.74017
21857	23.013	0.90909	0.1	-0.1718
21858	23.103	0.63636	0.1	-6.5371
21859	23.013	0.72727	0.1	-1.6894
21860	23.103	0.45455	0.1	-10.827
21861	23.013	0.54545	0.1	-7.2833
21862	23.103	0.27273	0.1	-13.75
21863	23.013	0.36364	0.1	-11.176
21864	23.013	0.18182	0.1	-14.543
21865	23.103	9.0909e-002	0.1	-10.493
21866	22.923	5.7273	0.1	-11.942
21867	22.833	5.8182	0.1	-13.474
21868	22.923	5.9091	0.1	-9.6314
21869	22.923	5.5455	0.1	-7.6468
21870	22.833	5.6364	0.1	-8.8489
21871	22.923	5.3636	0.1	-2.3774
21872	22.833	5.4545	0.1	-3.9901
21873	22.923	5.1818	0.1	-0.22537
21874	22.833	5.2727	0.1	-0.42102
21875	22.923	5.	0.1	-0.12635
21876	22.833	5.0909	0.1	-0.17292
21877	22.923	4.8182	0.1	-9.9596e-002
21878	22.833	4.9091	0.1	-0.12049
21879	22.923	4.6364	0.1	-8.8233e-002
21880	22.833	4.7273	0.1	-9.6917e-002
21881	22.923	4.4545	0.1	-8.4957e-002
21882	22.833	4.5455	0.1	-8.4918e-002
21883	22.923	4.2727	0.1	-9.0446e-002
21884	22.833	4.3636	0.1	-8.1928e-002
21885	22.923	4.0909	0.1	-0.10771
21886	22.833	4.1818	0.1	-9.3886e-002
21887	22.923	3.9091	0.1	-0.1411
21888	22.833	4.	0.1	-0.13234
21889	22.923	3.7273	0.1	-0.18681
21890	22.833	3.8182	0.1	-0.18235
21891	22.923	3.5455	0.1	-0.22786
21892	22.833	3.6364	0.1	-0.22874
21893	22.923	3.3636	0.1	-0.25269
21894	22.833	3.4545	0.1	-0.26427
21895	22.923	3.1818	0.1	-0.26325
21896	22.833	3.2727	0.1	-0.27708
21897	22.923	3.	0.1	-0.26573
21898	22.833	3.0909	0.1	-0.27691
21899	22.923	2.8182	0.1	-0.26325
21900	22.833	2.9091	0.1	-0.27691
21901	22.923	2.6364	0.1	-0.25269
21902	22.833	2.7273	0.1	-0.27708
21903	22.923	2.4545	0.1	-0.22786
21904	22.833	2.5455	0.1	-0.26427
21905	22.923	2.2727	0.1	-0.18681
21906	22.833	2.3636	0.1	-0.22874
21907	22.923	2.0909	0.1	-0.1411
21908	22.833	2.1818	0.1	-0.18235
21909	22.923	1.9091	0.1	-0.10771
21910	22.833	2.	0.1	-0.13234
21911	22.923	1.7273	0.1	-9.0446e-002
21912	22.833	1.8182	0.1	-9.3886e-002
21913	22.923	1.5455	0.1	-8.4957e-002
21914	22.833	1.6364	0.1	-8.1928e-002
21915	22.923	1.3636	0.1	-8.8234e-002
21916	22.833	1.4545	0.1	-8.4918e-002
21917	22.923	1.1818	0.1	-9.9596e-002
21918	22.833	1.2727	0.1	-9.6917e-002
21919	22.923	1.	0.1	-0.12635
21920	22.833	1.0909	0.1	-0.12049
21921	22.923	0.81818	0.1	-0.22537
21922	22.833	0.90909	0.1	-0.17292
21923	22.923	0.63636	0.1	-2.3774
21924	22.833	0.72727	0.1	-0.42102
21925	22.923	0.45455	0.1	-7.6468
21926	22.833	0.54545	0.1	-3.9901
21927	22.923	0.27273	0.1	-11.942
21928	22.833	0.36364	0.1	-8.8489
21929	22.833	0.18182	0.1	-13.474
21930	22.923	9.0909e-002	0.1	-9.6314
21931	22.744	5.7273	0.1	-10.39
21932	22.654	5.8182	0.1	-12.416
21933	22.744	5.9091	0.1	-8.7987
21934	22.744	5.5455	0.1	-5.1923
21935	22.654	5.6364	0.1	-6.8779
21936	22.744	5.3636	0.1	-0.79627
21937	22.654	5.4545	0.1	-2.0301
21938	22.744	5.1818	0.1	-0.24043
21939	22.654	5.2727	0.1	-0.41905
21940	22.744	5.	0.1	-0.1521
21941	22.654	5.0909	0.1	-0.22875
21942	22.744	4.8182	0.1	-0.11379
21943	22.654	4.9091	0.1	-0.15909
21944	22.744	4.6364	0.1	-9.1635e-002
21945	22.654	4.7273	0.1	-0.11873
21946	22.744	4.4545	0.1	-7.9778e-002
21947	22.654	4.5455	0.1	-8.6773e-002
21948	22.744	4.2727	0.1	-8.2461e-002
21949	22.654	4.3636	0.1	-6.1397e-002
21950	22.744	4.0909	0.1	-0.11519
21951	22.654	4.1818	0.1	-6.4739e-002
21952	22.744	3.9091	0.1	-0.17124
21953	22.654	4.	0.1	-8.33e-002
21954	22.744	3.7273	0.1	-0.22432
21955	22.654	3.8182	0.1	-0.17889
21956	22.744	3.5455	0.1	-0.26717
21957	22.654	3.6364	0.1	-0.29934
21958	22.744	3.3636	0.1	-0.29051
21959	22.654	3.4545	0.1	-0.33323
21960	22.744	3.1818	0.1	-0.29096
21961	22.654	3.2727	0.1	-0.32071
21962	22.744	3.	0.1	-0.2874
21963	22.654	3.0909	0.1	-0.29981
21964	22.744	2.8182	0.1	-0.29096
21965	22.654	2.9091	0.1	-0.29981
21966	22.744	2.6364	0.1	-0.29051
21967	22.654	2.7273	0.1	-0.32071
21968	22.744	2.4545	0.1	-0.26717
21969	22.654	2.5455	0.1	-0.33323
21970	22.744	2.2727	0.1	-0.22432
21971	22.654	2.3636	0.1	-0.29934
21972	22.744	2.0909	0.1	-0.17124
21973	22.654	2.1818	0.1	-0.17889
21974	22.744	1.9091	0.1	-0.11519
21975	22.654	2.	0.1	-8.3301e-002
21976	22.744	1.7273	0.1	-8.246e-002
21977	22.654	1.8182	0.1	-6.4739e-002
21978	22.744	1.5455	0.1	-7.9777e-002
21979	22.654	1.6364	0.1	-6.1397e-002
21980	22.744	1.3636	0.1	-9.1635e-002
21981	22.654	1.4545	0.1	-8.6773e-002
21982	22.744	1.1818	0.1	-0.11379
21983	22.654	1.2727	0.1	-0.11873
21984	22.744	1.	0.1	-0.15209
21985	22.654	1.0909	0.1	-0.15909
21986	22.744	0.81818	0.1	-0.24042
21987	22.654	0.90909	0.1	-0.22875
21988	22.744	0.63636	0.1	-0.79626
21989	22.654	0.72727	0.1	-0.41905
21990	22.744	0.45455	0.1	-5.1923
21991	22.654	0.54545	0.1	-2.0301
21992	22.744	0.27273	0.1	-10.39
21993	22.654	0.36364	0.1	-6.878
21994	22.654	0.18182	0.1	-12.416
21995	22.744	9.0909e-002	0.1	-8.7987
21996	22.564	5.7273	0.1	-8.9322
21997	22.474	5.8182	0.1	-11.209
21998	22.564	5.9091	0.1	-7.8831
21999	22.564	5.5455	0.1	-3.49
22000	22.474	5.6364	0.1	-5.2103
22001	22.564	5.3636	0.1	-0.7343
22002	22.474	5.4545	0.1	-1.5461
22003	22.564	5.1818	0.1	-0.34593
22004	22.474	5.2727	0.1	-0.61997
22005	22.564	5.	0.1	-0.22896
22006	22.474	5.0909	0.1	-0.39488
22007	22.564	4.8182	0.1	-0.16446
22008	22.474	4.9091	0.1	-0.2871
22009	22.564	4.6364	0.1	-0.1139
22010	22.474	4.7273	0.1	-0.20202
22011	22.564	4.4545	0.1	-6.5648e-002
22012	22.474	4.5455	0.1	-0.12869
22013	22.564	4.2727	0.1	-3.7458e-002
22014	22.474	4.3636	0.1	-0.10999
22015	22.564	4.0909	0.1	-2.4233e-002
22016	22.474	4.1818	0.1	-8.5456e-002
22017	22.564	3.9091	0.1	-8.431e-002
22018	22.474	4.	0.1	-0.31591
22019	22.564	3.7273	0.1	-0.25395
22020	22.474	3.8182	0.1	-0.44529
22021	22.564	3.5455	0.1	-0.37117
22022	22.474	3.6364	0.1	-0.44022
22023	22.564	3.3636	0.1	-0.3679
22024	22.474	3.4545	0.1	-0.49889
22025	22.564	3.1818	0.1	-0.32804
22026	22.474	3.2727	0.1	-0.39723
22027	22.564	3.	0.1	-0.30744
22028	22.474	3.0909	0.1	-0.31232
22029	22.564	2.8182	0.1	-0.32804
22030	22.474	2.9091	0.1	-0.31232
22031	22.564	2.6364	0.1	-0.3679
22032	22.474	2.7273	0.1	-0.39723
22033	22.564	2.4545	0.1	-0.37117
22034	22.474	2.5455	0.1	-0.49889
22035	22.564	2.2727	0.1	-0.25395
22036	22.474	2.3636	0.1	-0.44022
22037	22.564	2.0909	0.1	-8.431e-002
22038	22.474	2.1818	0.1	-0.44529
22039	22.564	1.9091	0.1	-2.4233e-002
22040	22.474	2.	0.1	-0.31591
22041	22.564	1.7273	0.1	-3.7458e-002
22042	22.474	1.8182	0.1	-8.5456e-002
22043	22.564	1.5455	0.1	-6.5649e-002
22044	22.474	1.6364	0.1	-0.10999
22045	22.564	1.3636	0.1	-0.1139
22046	22.474	1.4545	0.1	-0.12869
22047	22.564	1.1818	0.1	-0.16446
22048	22.474	1.2727	0.1	-0.20202
22049	22.564	1.	0.1	-0.22896
22050	22.474	1.0909	0.1	-0.2871
22051	22.564	0.81818	0.1	-0.34594
22052	22.474	0.90909	0.1	-0.39488
22053	22.564	0.63636	0.1	-0.73431
22054	22.474	0.72727	0.1	-0.61997
22055	22.564	0.45455	0.1	-3.4901
22056	22.474	0.54545	0.1	-1.5462
22057	22.564	0.27273	0.1	-8.9322
22058	22.474	0.36364	0.1	-5.2103
22059	22.474	0.18182	0.1	-11.209
22060	22.564	9.0909e-002	0.1	-7.8831
22061	22.385	5.7273	0.1	-7.4824
22062	22.295	5.8182	0.1	-9.7048
22063	22.385	5.9091	0.1	-6.7487
22064	22.385	5.5455	0.1	-2.7487
22065	22.295	5.6364	0.1	-4.0587
22066	22.385	5.3636	0.1	-1.0833
22067	22.295	5.4545	0.1	-1.9421
22068	22.385	5.1818	0.1	-0.66517
22069	22.295	5.2727	0.1	-1.2661
22070	22.385	5.	0.1	-0.48268
22071	22.295	5.0909	0.1	-0.95737
22072	22.385	4.8182	0.1	-0.35135
22073	22.295	4.9091	0.1	-0.73557
22074	22.385	4.6364	0.1	-0.23334
22075	22.295	4.7273	0.1	-0.54672
22076	22.385	4.4545	0.1	-0.17547
22077	22.295	4.5455	0.1	-0.35007
22078	22.385	4.2727	0.1	-0.14528
22079	22.295	4.3636	0.1	3.1918e-002
22080	22.385	4.0909	0.1	-0.3547
22081	22.295	4.1818	0.1	0.12133
22082	22.385	3.9091	0.1	-0.65714
22083	22.295	4.	0.1	0.60887
22084	22.385	3.7273	0.1	-0.63724
22085	22.295	3.8182	0.1	-0.26204
22086	22.385	3.5455	0.1	-0.59563
22087	22.295	3.6364	0.1	-1.2815
22088	22.385	3.3636	0.1	-0.55226
22089	22.295	3.4545	0.1	-0.95041
22090	22.385	3.1818	0.1	-0.37962
22091	22.295	3.2727	0.1	-0.65301
22092	22.385	3.	0.1	-0.29961
22093	22.295	3.0909	0.1	-0.31823
22094	22.385	2.8182	0.1	-0.37962
22095	22.295	2.9091	0.1	-0.31823
22096	22.385	2.6364	0.1	-0.55226
22097	22.295	2.7273	0.1	-0.65301
22098	22.385	2.4545	0.1	-0.59563
22099	22.295	2.5455	0.1	-0.95041
22100	22.385	2.2727	0.1	-0.63724
22101	22.295	2.3636	0.1	-1.2815
22102	22.385	2.0909	0.1	-0.65714
22103	22.295	2.1818	0.1	-0.26204
22104	22.385	1.9091	0.1	-0.3547
22105	22.295	2.	0.1	0.60888
22106	22.385	1.7273	0.1	-0.14528
22107	22.295	1.8182	0.1	0.12133
22108	22.385	1.5455	0.1	-0.17548
22109	22.295	1.6364	0.1	3.1918e-002
22110	22.385	1.3636	0.1	-0.23334
22111	22.295	1.4545	0.1	-0.35007
22112	22.385	1.1818	0.1	-0.35135
22113	22.295	1.2727	0.1	-0.54672
22114	22.385	1.	0.1	-0.48268
22115	22.295	1.0909	0.1	-0.73558
22116	22.385	0.81818	0.1	-0.66517
22117	22.295	0.90909	0.1	-0.95737
22118	22.385	0.63636	0.1	-1.0833
22119	22.295	0.72727	0.1	-1.2661
22120	22.385	0.45455	0.1	-2.7487
22121	22.295	0.54545	0.1	-1.9421
22122	22.385	0.27273	0.1	-7.4824
22123	22.295	0.36364	0.1	-4.0587
22124	22.295	0.18182	0.1	-9.7048
22125	22.385	9.0909e-002	0.1	-6.7487
22126	22.205	5.7273	0.1	-6.1619
22127	22.115	5.8182	0.1	-7.9955
22128	22.205	5.9091	0.1	-5.2403
22129	22.205	5.5455	0.1	-3.0603
22130	22.115	5.6364	0.1	-4.0435
22131	22.205	5.3636	0.1	-2.3193
22132	22.115	5.4545	0.1	-3.8772
22133	22.205	5.1818	0.1	-2.007
22134	22.115	5.2727	0.1	-4.5736
22135	22.205	5.	0.1	-1.664
22136	22.115	5.0909	0.1	-5.2123
22137	22.205	4.8182	0.1	-1.2697
22138	22.115	4.9091	0.1	-5.1939
22139	22.205	4.6364	0.1	-0.86238
22140	22.115	4.7273	0.1	-4.2536
22141	22.205	4.4545	0.1	-0.22627
22142	22.115	4.5455	0.1	-2.9295
22143	22.205	4.2727	0.1	0.31653
22144	22.115	4.3636	0.1	-1.3968
22145	22.205	4.0909	0.1	1.1634
22146	22.115	4.1818	0.1	-1.3678
22147	22.205	3.9091	0.1	1.0658
22148	22.115	4.	0.1	-4.7474
22149	22.205	3.7273	0.1	-0.95358
22150	22.115	3.8182	0.1	-3.4641
22151	22.205	3.5455	0.1	-1.895
22152	22.115	3.6364	0.1	-4.6371
22153	22.205	3.3636	0.1	-1.494
22154	22.115	3.4545	0.1	-9.4636
22155	22.205	3.1818	0.1	-0.9844
22156	22.115	3.2727	0.1	-18.238
22157	22.205	3.	0.1	-0.24591
22158	22.115	3.0909	0.1	-23.462
22159	22.205	2.8182	0.1	-0.9844
22160	22.115	2.9091	0.1	-23.462
22161	22.205	2.6364	0.1	-1.494
22162	22.115	2.7273	0.1	-18.238
22163	22.205	2.4545	0.1	-1.895
22164	22.115	2.5455	0.1	-9.4636
22165	22.205	2.2727	0.1	-0.95358
22166	22.115	2.3636	0.1	-4.6371
22167	22.205	2.0909	0.1	1.0658
22168	22.115	2.1818	0.1	-3.4641
22169	22.205	1.9091	0.1	1.1634
22170	22.115	2.	0.1	-4.7474
22171	22.205	1.7273	0.1	0.31652
22172	22.115	1.8182	0.1	-1.3678
22173	22.205	1.5455	0.1	-0.22627
22174	22.115	1.6364	0.1	-1.3968
22175	22.205	1.3636	0.1	-0.86238
22176	22.115	1.4545	0.1	-2.9295
22177	22.205	1.1818	0.1	-1.2697
22178	22.115	1.2727	0.1	-4.2536
22179	22.205	1.	0.1	-1.664
22180	22.115	1.0909	0.1	-5.1939
22181	22.205	0.81818	0.1	-2.007
22182	22.115	0.90909	0.1	-5.2123
22183	22.205	0.63636	0.1	-2.3193
22184	22.115	0.72727	0.1	-4.5736
22185	22.205	0.45455	0.1	-3.0603
22186	22.115	0.54545	0.1	-3.8772
22187	22.205	0.27273	0.1	-6.1619
22188	22.115	0.36364	0.1	-4.0435
22189	22.115	0.18182	0.1	-7.9955
22190	22.205	9.0909e-002	0.1	-5.2403
22191	22.026	5.7273	0.1	-5.809
22192	21.936	5.8182	0.1	-7.3857
22193	22.026	5.9091	0.1	-3.45
22194	22.026	5.5455	0.1	-5.4805
22195	21.936	5.6364	0.1	-7.6508
22196	22.026	5.3636	0.1	-7.7141
22197	21.936	5.4545	0.1	-12.223
22198	22.026	5.1818	0.1	-10.694
22199	21.936	5.2727	0.1	-18.347
22200	22.026	5.	0.1	-13.482
22201	21.936	5.0909	0.1	-25.293
22202	22.026	4.8182	0.1	-15.158
22203	21.936	4.9091	0.1	-32.866
22204	22.026	4.6364	0.1	-14.105
22205	21.936	4.7273	0.1	-41.084
22206	22.026	4.4545	0.1	-8.23
22207	21.936	4.5455	0.1	-48.02
22208	22.026	4.2727	0.1	-4.2441
22209	21.936	4.3636	0.1	-55.145
22210	22.026	4.0909	0.1	-6.6578
22211	21.936	4.1818	0.1	-37.706
22212	22.026	3.9091	0.1	-8.9307
22213	21.936	4.	0.1	20.157
22214	22.026	3.7273	0.1	-7.9241
22215	21.936	3.8182	0.1	-29.958
22216	22.026	3.5455	0.1	-19.781
22217	21.936	3.6364	0.1	-52.459
22218	22.026	3.3636	0.1	-36.346
22219	21.936	3.4545	0.1	-66.911
22220	22.026	3.1818	0.1	-44.798
22221	21.936	3.2727	0.1	-73.849
22222	22.026	3.	0.1	-47.394
22223	21.936	3.0909	0.1	-76.524
22224	22.026	2.8182	0.1	-44.798
22225	21.936	2.9091	0.1	-76.524
22226	22.026	2.6364	0.1	-36.346
22227	21.936	2.7273	0.1	-73.849
22228	22.026	2.4545	0.1	-19.781
22229	21.936	2.5455	0.1	-66.911
22230	22.026	2.2727	0.1	-7.9241
22231	21.936	2.3636	0.1	-52.459
22232	22.026	2.0909	0.1	-8.9307
22233	21.936	2.1818	0.1	-29.958
22234	22.026	1.9091	0.1	-6.6578
22235	21.936	2.	0.1	20.157
22236	22.026	1.7273	0.1	-4.2442
22237	21.936	1.8182	0.1	-37.706
22238	22.026	1.5455	0.1	-8.23
22239	21.936	1.6364	0.1	-55.145
22240	22.026	1.3636	0.1	-14.105
22241	21.936	1.4545	0.1	-48.02
22242	22.026	1.1818	0.1	-15.158
22243	21.936	1.2727	0.1	-41.084
22244	22.026	1.	0.1	-13.482
22245	21.936	1.0909	0.1	-32.866
22246	22.026	0.81818	0.1	-10.694
22247	21.936	0.90909	0.1	-25.293
22248	22.026	0.63636	0.1	-7.7141
22249	21.936	0.72727	0.1	-18.347
22250	22.026	0.45455	0.1	-5.4805
22251	21.936	0.54545	0.1	-12.223
22252	22.026	0.27273	0.1	-5.809
22253	21.936	0.36364	0.1	-7.6508
22254	21.936	0.18182	0.1	-7.3857
22255	22.026	9.0909e-002	0.1	-3.4501
22256	21.846	5.7273	0.1	-10.14
22257	21.756	5.8182	0.1	-3.1047
22258	21.846	5.9091	0.1	-3.1551
22259	21.846	5.5455	0.1	-16.263
22260	21.756	5.6364	0.1	-7.0087
22261	21.846	5.3636	0.1	-24.981
22262	21.756	5.4545	0.1	-13.19
22263	21.846	5.1818	0.1	-35.228
22264	21.756	5.2727	0.1	-20.16
22265	21.846	5.	0.1	-47.318
22266	21.756	5.0909	0.1	-28.161
22267	21.846	4.8182	0.1	-62.191
22268	21.756	4.9091	0.1	-37.792
22269	21.846	4.6364	0.1	-80.119
22270	21.756	4.7273	0.1	-49.758
22271	21.846	4.4545	0.1	-106.25
22272	21.756	4.5455	0.1	-66.908
22273	21.846	4.2727	0.1	-111.2
22274	21.756	4.3636	0.1	-77.637
22275	21.846	4.0909	0.1	-53.451
22276	21.756	4.1818	0.1	-145.68
22277	21.846	3.9091	0.1	-15.181
22278	21.756	4.	0.1	-72.324
22279	21.846	3.7273	0.1	-66.958
22280	21.756	3.8182	0.1	-122.75
22281	21.846	3.5455	0.1	-96.337
22282	21.756	3.6364	0.1	-142.12
22283	21.846	3.3636	0.1	-101.53
22284	21.756	3.4545	0.1	-135.54
22285	21.846	3.1818	0.1	-103.18
22286	21.756	3.2727	0.1	-131.38
22287	21.846	3.	0.1	-103.37
22288	21.756	3.0909	0.1	-128.76
22289	21.846	2.8182	0.1	-103.18
22290	21.756	2.9091	0.1	-128.76
22291	21.846	2.6364	0.1	-101.53
22292	21.756	2.7273	0.1	-131.38
22293	21.846	2.4545	0.1	-96.337
22294	21.756	2.5455	0.1	-135.54
22295	21.846	2.2727	0.1	-66.958
22296	21.756	2.3636	0.1	-142.12
22297	21.846	2.0909	0.1	-15.181
22298	21.756	2.1818	0.1	-122.75
22299	21.846	1.9091	0.1	-53.451
22300	21.756	2.	0.1	-72.324
22301	21.846	1.7273	0.1	-111.2
22302	21.756	1.8182	0.1	-145.68
22303	21.846	1.5455	0.1	-106.25
22304	21.756	1.6364	0.1	-77.637
22305	21.846	1.3636	0.1	-80.119
22306	21.756	1.4545	0.1	-66.908
22307	21.846	1.1818	0.1	-62.191
22308	21.756	1.2727	0.1	-49.758
22309	21.846	1.	0.1	-47.318
22310	21.756	1.0909	0.1	-37.792
22311	21.846	0.81818	0.1	-35.228
22312	21.756	0.90909	0.1	-28.161
22313	21.846	0.63636	0.1	-24.981
22314	21.756	0.72727	0.1	-20.16
22315	21.846	0.45455	0.1	-16.263
22316	21.756	0.54545	0.1	-13.19
22317	21.846	0.27273	0.1	-10.14
22318	21.756	0.36364	0.1	-7.0087
22319	21.756	0.18182	0.1	-3.1047
22320	21.846	9.0909e-002	0.1	-3.1551
22321	0.18376	0.27273	0.1	-448.11
22322	0.27564	0.18182	0.1	-164.57
22323	9.188e-002	0.18182	0.1	399.94
22324	0.18376	9.0909e-002	0.1	-222.92
22325	0.18376	0.45455	0.1	-676.23
22326	0.27564	0.36364	0.1	-235.73
22327	9.188e-002	0.36364	0.1	831.12
22328	0.18376	0.63636	0.1	-785.77
22329	0.27564	0.54545	0.1	-279.55
22330	9.188e-002	0.54545	0.1	1028.3
22331	0.18376	0.81818	0.1	-855.98
22332	0.27564	0.72727	0.1	-310.77
22333	9.188e-002	0.72727	0.1	1144.7
22334	0.18376	1.	0.1	-903.19
22335	0.27564	0.90909	0.1	-330.76
22336	9.188e-002	0.90909	0.1	1223.3
22337	0.18376	1.1818	0.1	-937.51
22338	0.27564	1.0909	0.1	-345.33
22339	9.188e-002	1.0909	0.1	1279.2
22340	0.18376	1.3636	0.1	-963.06
22341	0.27564	1.2727	0.1	-356.05
22342	9.188e-002	1.2727	0.1	1320.6
22343	0.18376	1.5455	0.1	-982.57
22344	0.27564	1.4545	0.1	-364.2
22345	9.188e-002	1.4545	0.1	1352.1
22346	0.18376	1.7273	0.1	-997.62
22347	0.27564	1.6364	0.1	-370.47
22348	9.188e-002	1.6364	0.1	1376.3
22349	0.18376	1.9091	0.1	-1009.3
22350	0.27564	1.8182	0.1	-375.34
22351	9.188e-002	1.8182	0.1	1395.1
22352	0.18376	2.0909	0.1	-1018.3
22353	0.27564	2.	0.1	-379.11
22354	9.188e-002	2.	0.1	1409.6
22355	0.18376	2.2727	0.1	-1025.1
22356	0.27564	2.1818	0.1	-382.
22357	9.188e-002	2.1818	0.1	1420.8
22358	0.18376	2.4545	0.1	-1030.1
22359	0.27564	2.3636	0.1	-384.17
22360	9.188e-002	2.3636	0.1	1429.2
22361	0.18376	2.6364	0.1	-1033.5
22362	0.27564	2.5455	0.1	-385.71
22363	9.188e-002	2.5455	0.1	1435.1
22364	0.18376	2.8182	0.1	-1035.5
22365	0.27564	2.7273	0.1	-386.7
22366	9.188e-002	2.7273	0.1	1439.
22367	0.18376	3.	0.1	-1036.2
22368	0.27564	2.9091	0.1	-387.19
22369	9.188e-002	2.9091	0.1	1440.9
22370	0.18376	3.1818	0.1	-1035.5
22371	0.27564	3.0909	0.1	-387.19
22372	9.188e-002	3.0909	0.1	1440.9
22373	0.18376	3.3636	0.1	-1033.5
22374	0.27564	3.2727	0.1	-386.7
22375	9.188e-002	3.2727	0.1	1439.
22376	0.18376	3.5455	0.1	-1030.1
22377	0.27564	3.4545	0.1	-385.71
22378	9.188e-002	3.4545	0.1	1435.1
22379	0.18376	3.7273	0.1	-1025.1
22380	0.27564	3.6364	0.1	-384.17
22381	9.188e-002	3.6364	0.1	1429.2
22382	0.18376	3.9091	0.1	-1018.3
22383	0.27564	3.8182	0.1	-382.
22384	9.188e-002	3.8182	0.1	1420.8
22385	0.18376	4.0909	0.1	-1009.3
22386	0.27564	4.	0.1	-379.11
22387	9.188e-002	4.	0.1	1409.6
22388	0.18376	4.2727	0.1	-997.62
22389	0.27564	4.1818	0.1	-375.34
22390	9.188e-002	4.1818	0.1	1395.1
22391	0.18376	4.4545	0.1	-982.57
22392	0.27564	4.3636	0.1	-370.47
22393	9.188e-002	4.3636	0.1	1376.3
22394	0.18376	4.6364	0.1	-963.06
22395	0.27564	4.5455	0.1	-364.2
22396	9.188e-002	4.5455	0.1	1352.1
22397	0.18376	4.8182	0.1	-937.51
22398	0.27564	4.7273	0.1	-356.05
22399	9.188e-002	4.7273	0.1	1320.6
22400	0.18376	5.	0.1	-903.19
22401	0.27564	4.9091	0.1	-345.33
22402	9.188e-002	4.9091	0.1	1279.2
22403	0.18376	5.1818	0.1	-855.98
22404	0.27564	5.0909	0.1	-330.76
22405	9.188e-002	5.0909	0.1	1223.3
22406	0.18376	5.3636	0.1	-785.77
22407	0.27564	5.2727	0.1	-310.77
22408	9.188e-002	5.2727	0.1	1144.7
22409	0.18376	5.5455	0.1	-676.23
22410	0.27564	5.4545	0.1	-279.55
22411	9.188e-002	5.4545	0.1	1028.3
22412	0.18376	5.7273	0.1	-448.11
22413	0.27564	5.6364	0.1	-235.73
22414	9.188e-002	5.6364	0.1	831.12
22415	0.27564	5.8182	0.1	-164.57
22416	9.188e-002	5.8182	0.1	399.94
22417	0.18376	5.9091	0.1	-222.92
22418	0.36752	0.27273	0.1	90.432
22419	0.4594	0.18182	0.1	-95.866
22420	0.36752	9.0909e-002	0.1	-132.3
22421	0.36752	0.45455	0.1	161.67
22422	0.4594	0.36364	0.1	48.834
22423	0.36752	0.63636	0.1	195.51
22424	0.4594	0.54545	0.1	67.29
22425	0.36752	0.81818	0.1	214.42
22426	0.4594	0.72727	0.1	76.529
22427	0.36752	1.	0.1	227.07
22428	0.4594	0.90909	0.1	82.357
22429	0.36752	1.1818	0.1	236.11
22430	0.4594	1.0909	0.1	86.393
22431	0.36752	1.3636	0.1	242.8
22432	0.4594	1.2727	0.1	89.324
22433	0.36752	1.5455	0.1	247.89
22434	0.4594	1.4545	0.1	91.527
22435	0.36752	1.7273	0.1	251.8
22436	0.4594	1.6364	0.1	93.213
22437	0.36752	1.9091	0.1	254.82
22438	0.4594	1.8182	0.1	94.515
22439	0.36752	2.0909	0.1	257.15
22440	0.4594	2.	0.1	95.521
22441	0.36752	2.2727	0.1	258.92
22442	0.4594	2.1818	0.1	96.291
22443	0.36752	2.4545	0.1	260.21
22444	0.4594	2.3636	0.1	96.866
22445	0.36752	2.6364	0.1	261.09
22446	0.4594	2.5455	0.1	97.276
22447	0.36752	2.8182	0.1	261.61
22448	0.4594	2.7273	0.1	97.539
22449	0.36752	3.	0.1	261.78
22450	0.4594	2.9091	0.1	97.668
22451	0.36752	3.1818	0.1	261.61
22452	0.4594	3.0909	0.1	97.668
22453	0.36752	3.3636	0.1	261.09
22454	0.4594	3.2727	0.1	97.539
22455	0.36752	3.5455	0.1	260.21
22456	0.4594	3.4545	0.1	97.276
22457	0.36752	3.7273	0.1	258.92
22458	0.4594	3.6364	0.1	96.866
22459	0.36752	3.9091	0.1	257.15
22460	0.4594	3.8182	0.1	96.291
22461	0.36752	4.0909	0.1	254.82
22462	0.4594	4.	0.1	95.521
22463	0.36752	4.2727	0.1	251.8
22464	0.4594	4.1818	0.1	94.515
22465	0.36752	4.4545	0.1	247.89
22466	0.4594	4.3636	0.1	93.213
22467	0.36752	4.6364	0.1	242.8
22468	0.4594	4.5455	0.1	91.527
22469	0.36752	4.8182	0.1	236.11
22470	0.4594	4.7273	0.1	89.324
22471	0.36752	5.	0.1	227.07
22472	0.4594	4.9091	0.1	86.393
22473	0.36752	5.1818	0.1	214.42
22474	0.4594	5.0909	0.1	82.357
22475	0.36752	5.3636	0.1	195.51
22476	0.4594	5.2727	0.1	76.529
22477	0.36752	5.5455	0.1	161.67
22478	0.4594	5.4545	0.1	67.29
22479	0.36752	5.7273	0.1	90.432
22480	0.4594	5.6364	0.1	48.834
22481	0.4594	5.8182	0.1	-95.866
22482	0.36752	5.9091	0.1	-132.3
22483	0.55128	0.27273	0.1	-33.777
22484	0.64316	0.18182	0.1	-86.961
22485	0.55128	9.0909e-002	0.1	-107.48
22486	0.55128	0.45455	0.1	-44.565
22487	0.64316	0.36364	0.1	-17.386
22488	0.55128	0.63636	0.1	-51.47
22489	0.64316	0.54545	0.1	-19.302
22490	0.55128	0.81818	0.1	-55.463
22491	0.64316	0.72727	0.1	-20.724
22492	0.55128	1.	0.1	-58.293
22493	0.64316	0.90909	0.1	-21.72
22494	0.55128	1.1818	0.1	-60.382
22495	0.64316	1.0909	0.1	-22.518
22496	0.55128	1.3636	0.1	-61.949
22497	0.64316	1.2727	0.1	-23.124
22498	0.55128	1.5455	0.1	-63.147
22499	0.64316	1.4545	0.1	-23.594
22500	0.55128	1.7273	0.1	-64.073
22501	0.64316	1.6364	0.1	-23.958
22502	0.55128	1.9091	0.1	-64.789
22503	0.64316	1.8182	0.1	-24.241
22504	0.55128	2.0909	0.1	-65.342
22505	0.64316	2.	0.1	-24.46
22506	0.55128	2.2727	0.1	-65.762
22507	0.64316	2.1818	0.1	-24.628
22508	0.55128	2.4545	0.1	-66.069
22509	0.64316	2.3636	0.1	-24.754
22510	0.55128	2.6364	0.1	-66.279
22511	0.64316	2.5455	0.1	-24.844
22512	0.55128	2.8182	0.1	-66.402
22513	0.64316	2.7273	0.1	-24.901
22514	0.55128	3.	0.1	-66.442
22515	0.64316	2.9091	0.1	-24.929
22516	0.55128	3.1818	0.1	-66.402
22517	0.64316	3.0909	0.1	-24.929
22518	0.55128	3.3636	0.1	-66.279
22519	0.64316	3.2727	0.1	-24.901
22520	0.55128	3.5455	0.1	-66.069
22521	0.64316	3.4545	0.1	-24.844
22522	0.55128	3.7273	0.1	-65.762
22523	0.64316	3.6364	0.1	-24.754
22524	0.55128	3.9091	0.1	-65.342
22525	0.64316	3.8182	0.1	-24.628
22526	0.55128	4.0909	0.1	-64.789
22527	0.64316	4.	0.1	-24.46
22528	0.55128	4.2727	0.1	-64.073
22529	0.64316	4.1818	0.1	-24.241
22530	0.55128	4.4545	0.1	-63.147
22531	0.64316	4.3636	0.1	-23.958
22532	0.55128	4.6364	0.1	-61.949
22533	0.64316	4.5455	0.1	-23.594
22534	0.55128	4.8182	0.1	-60.382
22535	0.64316	4.7273	0.1	-23.124
22536	0.55128	5.	0.1	-58.293
22537	0.64316	4.9091	0.1	-22.518
22538	0.55128	5.1818	0.1	-55.463
22539	0.64316	5.0909	0.1	-21.72
22540	0.55128	5.3636	0.1	-51.47
22541	0.64316	5.2727	0.1	-20.724
22542	0.55128	5.5455	0.1	-44.565
22543	0.64316	5.4545	0.1	-19.302
22544	0.55128	5.7273	0.1	-33.777
22545	0.64316	5.6364	0.1	-17.386
22546	0.64316	5.8182	0.1	-86.961
22547	0.55128	5.9091	0.1	-107.48
22548	0.73504	0.27273	0.1	-0.39925
22549	0.82692	0.18182	0.1	-61.585
22550	0.73504	9.0909e-002	0.1	-72.822
22551	0.73504	0.45455	0.1	8.4421
22552	0.82692	0.36364	0.1	0.40773
22553	0.73504	0.63636	0.1	11.591
22554	0.82692	0.54545	0.1	3.3323
22555	0.73504	0.81818	0.1	13.078
22556	0.82692	0.72727	0.1	4.2044
22557	0.73504	1.	0.1	14.081
22558	0.82692	0.90909	0.1	4.8281
22559	0.73504	1.1818	0.1	14.752
22560	0.82692	1.0909	0.1	5.1929
22561	0.73504	1.3636	0.1	15.236
22562	0.82692	1.2727	0.1	5.4439
22563	0.73504	1.5455	0.1	15.598
22564	0.82692	1.4545	0.1	5.6206
22565	0.73504	1.7273	0.1	15.875
22566	0.82692	1.6364	0.1	5.7528
22567	0.73504	1.9091	0.1	16.089
22568	0.82692	1.8182	0.1	5.8539
22569	0.73504	2.0909	0.1	16.255
22570	0.82692	2.	0.1	5.932
22571	0.73504	2.2727	0.1	16.38
22572	0.82692	2.1818	0.1	5.992
22573	0.73504	2.4545	0.1	16.472
22574	0.82692	2.3636	0.1	6.037
22575	0.73504	2.6364	0.1	16.535
22576	0.82692	2.5455	0.1	6.0692
22577	0.73504	2.8182	0.1	16.572
22578	0.82692	2.7273	0.1	6.09
22579	0.73504	3.	0.1	16.584
22580	0.82692	2.9091	0.1	6.1002
22581	0.73504	3.1818	0.1	16.572
22582	0.82692	3.0909	0.1	6.1002
22583	0.73504	3.3636	0.1	16.535
22584	0.82692	3.2727	0.1	6.09
22585	0.73504	3.5455	0.1	16.472
22586	0.82692	3.4545	0.1	6.0692
22587	0.73504	3.7273	0.1	16.38
22588	0.82692	3.6364	0.1	6.037
22589	0.73504	3.9091	0.1	16.255
22590	0.82692	3.8182	0.1	5.992
22591	0.73504	4.0909	0.1	16.089
22592	0.82692	4.	0.1	5.932
22593	0.73504	4.2727	0.1	15.875
22594	0.82692	4.1818	0.1	5.8539
22595	0.73504	4.4545	0.1	15.598
22596	0.82692	4.3636	0.1	5.7528
22597	0.73504	4.6364	0.1	15.236
22598	0.82692	4.5455	0.1	5.6206
22599	0.73504	4.8182	0.1	14.752
22600	0.82692	4.7273	0.1	5.4439
22601	0.73504	5.	0.1	14.081
22602	0.82692	4.9091	0.1	5.1929
22603	0.73504	5.1818	0.1	13.078
22604	0.82692	5.0909	0.1	4.8281
22605	0.73504	5.3636	0.1	11.591
22606	0.82692	5.2727	0.1	4.2044
22607	0.73504	5.5455	0.1	8.4421
22608	0.82692	5.4545	0.1	3.3323
22609	0.73504	5.7273	0.1	-0.39925
22610	0.82692	5.6364	0.1	0.40773
22611	0.82692	5.8182	0.1	-61.585
22612	0.73504	5.9091	0.1	-72.822
22613	0.9188	0.27273	0.1	-7.0654
22614	1.0107	0.18182	0.1	-43.421
22615	0.9188	9.0909e-002	0.1	-51.583
22616	0.9188	0.45455	0.1	-4.2567
22617	1.0107	0.36364	0.1	-3.3111
22618	0.9188	0.63636	0.1	-3.9443
22619	1.0107	0.54545	0.1	-2.
22620	0.9188	0.81818	0.1	-3.9985
22621	1.0107	0.72727	0.1	-1.86
22622	0.9188	1.	0.1	-4.0369
22623	1.0107	0.90909	0.1	-1.7234
22624	0.9188	1.1818	0.1	-4.1028
22625	1.0107	1.0909	0.1	-1.6855
22626	0.9188	1.3636	0.1	-4.1655
22627	1.0107	1.2727	0.1	-1.6733
22628	0.9188	1.5455	0.1	-4.2211
22629	1.0107	1.4545	0.1	-1.6772
22630	0.9188	1.7273	0.1	-4.2665
22631	1.0107	1.6364	0.1	-1.6853
22632	0.9188	1.9091	0.1	-4.3024
22633	1.0107	1.8182	0.1	-1.6939
22634	0.9188	2.0909	0.1	-4.3299
22635	1.0107	2.	0.1	-1.7011
22636	0.9188	2.2727	0.1	-4.3505
22637	1.0107	2.1818	0.1	-1.7068
22638	0.9188	2.4545	0.1	-4.3654
22639	1.0107	2.3636	0.1	-1.7109
22640	0.9188	2.6364	0.1	-4.3755
22641	1.0107	2.5455	0.1	-1.7137
22642	0.9188	2.8182	0.1	-4.3813
22643	1.0107	2.7273	0.1	-1.7154
22644	0.9188	3.	0.1	-4.3832
22645	1.0107	2.9091	0.1	-1.7162
22646	0.9188	3.1818	0.1	-4.3813
22647	1.0107	3.0909	0.1	-1.7162
22648	0.9188	3.3636	0.1	-4.3755
22649	1.0107	3.2727	0.1	-1.7154
22650	0.9188	3.5455	0.1	-4.3654
22651	1.0107	3.4545	0.1	-1.7137
22652	0.9188	3.7273	0.1	-4.3505
22653	1.0107	3.6364	0.1	-1.7109
22654	0.9188	3.9091	0.1	-4.3299
22655	1.0107	3.8182	0.1	-1.7068
22656	0.9188	4.0909	0.1	-4.3024
22657	1.0107	4.	0.1	-1.7011
22658	0.9188	4.2727	0.1	-4.2665
22659	1.0107	4.1818	0.1	-1.6939
22660	0.9188	4.4545	0.1	-4.2211
22661	1.0107	4.3636	0.1	-1.6853
22662	0.9188	4.6364	0.1	-4.1655
22663	1.0107	4.5455	0.1	-1.6772
22664	0.9188	4.8182	0.1	-4.1028
22665	1.0107	4.7273	0.1	-1.6733
22666	0.9188	5.	0.1	-4.0369
22667	1.0107	4.9091	0.1	-1.6855
22668	0.9188	5.1818	0.1	-3.9985
22669	1.0107	5.0909	0.1	-1.7234
22670	0.9188	5.3636	0.1	-3.9443
22671	1.0107	5.2727	0.1	-1.86
22672	0.9188	5.5455	0.1	-4.2567
22673	1.0107	5.4545	0.1	-2.
22674	0.9188	5.7273	0.1	-7.0654
22675	1.0107	5.6364	0.1	-3.3111
22676	1.0107	5.8182	0.1	-43.421
22677	0.9188	5.9091	0.1	-51.583
22678	1.1026	0.27273	0.1	-3.9876
22679	1.1944	0.18182	0.1	-28.592
22680	1.1026	9.0909e-002	0.1	-33.867
22681	1.1026	0.45455	0.1	-0.71915
22682	1.1944	0.36364	0.1	-1.8879
22683	1.1026	0.63636	0.1	0.16612
22684	1.1944	0.54545	0.1	-0.45195
22685	1.1026	0.81818	0.1	0.45083
22686	1.1944	0.72727	0.1	-0.19387
22687	1.1026	1.	0.1	0.64679
22688	1.1944	0.90909	0.1	2.5122e-002
22689	1.1026	1.1818	0.1	0.75463
22690	1.1944	1.0909	0.1	0.13161
22691	1.1026	1.3636	0.1	0.82118
22692	1.1944	1.2727	0.1	0.19706
22693	1.1026	1.5455	0.1	0.86226
22694	1.1944	1.4545	0.1	0.23323
22695	1.1026	1.7273	0.1	0.8896
22696	1.1944	1.6364	0.1	0.25466
22697	1.1026	1.9091	0.1	0.90884
22698	1.1944	1.8182	0.1	0.26774
22699	1.1026	2.0909	0.1	0.92302
22700	1.1944	2.	0.1	0.27633
22701	1.1026	2.2727	0.1	0.93365
22702	1.1944	2.1818	0.1	0.28229
22703	1.1026	2.4545	0.1	0.94148
22704	1.1944	2.3636	0.1	0.28657
22705	1.1026	2.6364	0.1	0.94689
22706	1.1944	2.5455	0.1	0.28958
22707	1.1026	2.8182	0.1	0.95009
22708	1.1944	2.7273	0.1	0.29153
22709	1.1026	3.	0.1	0.95114
22710	1.1944	2.9091	0.1	0.29249
22711	1.1026	3.1818	0.1	0.95009
22712	1.1944	3.0909	0.1	0.29249
22713	1.1026	3.3636	0.1	0.94689
22714	1.1944	3.2727	0.1	0.29153
22715	1.1026	3.5455	0.1	0.94148
22716	1.1944	3.4545	0.1	0.28958
22717	1.1026	3.7273	0.1	0.93365
22718	1.1944	3.6364	0.1	0.28657
22719	1.1026	3.9091	0.1	0.92302
22720	1.1944	3.8182	0.1	0.28229
22721	1.1026	4.0909	0.1	0.90884
22722	1.1944	4.	0.1	0.27633
22723	1.1026	4.2727	0.1	0.8896
22724	1.1944	4.1818	0.1	0.26774
22725	1.1026	4.4545	0.1	0.86226
22726	1.1944	4.3636	0.1	0.25466
22727	1.1026	4.6364	0.1	0.82118
22728	1.1944	4.5455	0.1	0.23323
22729	1.1026	4.8182	0.1	0.75463
22730	1.1944	4.7273	0.1	0.19706
22731	1.1026	5.	0.1	0.64679
22732	1.1944	4.9091	0.1	0.13161
22733	1.1026	5.1818	0.1	0.45083
22734	1.1944	5.0909	0.1	2.5123e-002
22735	1.1026	5.3636	0.1	0.16612
22736	1.1944	5.2727	0.1	-0.19387
22737	1.1026	5.5455	0.1	-0.71915
22738	1.1944	5.4545	0.1	-0.45195
22739	1.1026	5.7273	0.1	-3.9876
22740	1.1944	5.6364	0.1	-1.8879
22741	1.1944	5.8182	0.1	-28.592
22742	1.1026	5.9091	0.1	-33.867
22743	1.2863	0.27273	0.1	-3.6504
22744	1.3782	0.18182	0.1	-18.5
22745	1.2863	9.0909e-002	0.1	-20.533
22746	1.2863	0.45455	0.1	-1.3586
22747	1.3782	0.36364	0.1	-1.8672
22748	1.2863	0.63636	0.1	-0.74783
22749	1.3782	0.54545	0.1	-0.70063
22750	1.2863	0.81818	0.1	-0.59163
22751	1.3782	0.72727	0.1	-0.52692
22752	1.2863	1.	0.1	-0.47492
22753	1.3782	0.90909	0.1	-0.35942
22754	1.2863	1.1818	0.1	-0.41699
22755	1.3782	1.0909	0.1	-0.27981
22756	1.2863	1.3636	0.1	-0.38535
22757	1.3782	1.2727	0.1	-0.2304
22758	1.2863	1.5455	0.1	-0.37085
22759	1.3782	1.4545	0.1	-0.20495
22760	1.2863	1.7273	0.1	-0.36491
22761	1.3782	1.6364	0.1	-0.19199
22762	1.2863	1.9091	0.1	-0.36322
22763	1.3782	1.8182	0.1	-0.18618
22764	1.2863	2.0909	0.1	-0.36331
22765	1.3782	2.	0.1	-0.18393
22766	1.2863	2.2727	0.1	-0.36398
22767	1.3782	2.1818	0.1	-0.18337
22768	1.2863	2.4545	0.1	-0.36469
22769	1.3782	2.3636	0.1	-0.18348
22770	1.2863	2.6364	0.1	-0.36525
22771	1.3782	2.5455	0.1	-0.18378
22772	1.2863	2.8182	0.1	-0.36558
22773	1.3782	2.7273	0.1	-0.18404
22774	1.2863	3.	0.1	-0.36569
22775	1.3782	2.9091	0.1	-0.18419
22776	1.2863	3.1818	0.1	-0.36558
22777	1.3782	3.0909	0.1	-0.18419
22778	1.2863	3.3636	0.1	-0.36525
22779	1.3782	3.2727	0.1	-0.18404
22780	1.2863	3.5455	0.1	-0.36469
22781	1.3782	3.4545	0.1	-0.18378
22782	1.2863	3.7273	0.1	-0.36398
22783	1.3782	3.6364	0.1	-0.18348
22784	1.2863	3.9091	0.1	-0.36331
22785	1.3782	3.8182	0.1	-0.18337
22786	1.2863	4.0909	0.1	-0.36322
22787	1.3782	4.	0.1	-0.18393
22788	1.2863	4.2727	0.1	-0.36491
22789	1.3782	4.1818	0.1	-0.18618
22790	1.2863	4.4545	0.1	-0.37085
22791	1.3782	4.3636	0.1	-0.19199
22792	1.2863	4.6364	0.1	-0.38535
22793	1.3782	4.5455	0.1	-0.20495
22794	1.2863	4.8182	0.1	-0.41699
22795	1.3782	4.7273	0.1	-0.2304
22796	1.2863	5.	0.1	-0.47492
22797	1.3782	4.9091	0.1	-0.27981
22798	1.2863	5.1818	0.1	-0.59163
22799	1.3782	5.0909	0.1	-0.35942
22800	1.2863	5.3636	0.1	-0.74783
22801	1.3782	5.2727	0.1	-0.52692
22802	1.2863	5.5455	0.1	-1.3586
22803	1.3782	5.4545	0.1	-0.70063
22804	1.2863	5.7273	0.1	-3.6504
22805	1.3782	5.6364	0.1	-1.8672
22806	1.3782	5.8182	0.1	-18.5
22807	1.2863	5.9091	0.1	-20.533
22808	1.4701	0.27273	0.1	-2.8623
22809	1.562	0.18182	0.1	-12.002
22810	1.4701	9.0909e-002	0.1	-10.323
22811	1.4701	0.45455	0.1	-1.0029
22812	1.562	0.36364	0.1	-1.5688
22813	1.4701	0.63636	0.1	-0.4283
22814	1.562	0.54545	0.1	-0.53071
22815	1.4701	0.81818	0.1	-0.27231
22816	1.562	0.72727	0.1	-0.37732
22817	1.4701	1.	0.1	-0.15201
22818	1.562	0.90909	0.1	-0.22279
22819	1.4701	1.1818	0.1	-8.5716e-002
22820	1.562	1.0909	0.1	-0.14492
22821	1.4701	1.3636	0.1	-4.5171e-002
22822	1.562	1.2727	0.1	-9.336e-002
22823	1.4701	1.5455	0.1	-2.2877e-002
22824	1.562	1.4545	0.1	-6.4182e-002
22825	1.4701	1.7273	0.1	-1.1067e-002
22826	1.562	1.6364	0.1	-4.7799e-002
22827	1.4701	1.9091	0.1	-5.3516e-003
22828	1.562	1.8182	0.1	-3.9449e-002
22829	1.4701	2.0909	0.1	-2.8759e-003
22830	1.562	2.	0.1	-3.5607e-002
22831	1.4701	2.2727	0.1	-2.0202e-003
22832	1.562	2.1818	0.1	-3.419e-002
22833	1.4701	2.4545	0.1	-1.8831e-003
22834	1.562	2.3636	0.1	-3.394e-002
22835	1.4701	2.6364	0.1	-1.9959e-003
22836	1.562	2.5455	0.1	-3.4154e-002
22837	1.4701	2.8182	0.1	-2.1291e-003
22838	1.562	2.7273	0.1	-3.4448e-002
22839	1.4701	3.	0.1	-2.1827e-003
22840	1.562	2.9091	0.1	-3.4634e-002
22841	1.4701	3.1818	0.1	-2.1291e-003
22842	1.562	3.0909	0.1	-3.4634e-002
22843	1.4701	3.3636	0.1	-1.9959e-003
22844	1.562	3.2727	0.1	-3.4448e-002
22845	1.4701	3.5455	0.1	-1.883e-003
22846	1.562	3.4545	0.1	-3.4154e-002
22847	1.4701	3.7273	0.1	-2.0201e-003
22848	1.562	3.6364	0.1	-3.394e-002
22849	1.4701	3.9091	0.1	-2.8758e-003
22850	1.562	3.8182	0.1	-3.4189e-002
22851	1.4701	4.0909	0.1	-5.3515e-003
22852	1.562	4.	0.1	-3.5607e-002
22853	1.4701	4.2727	0.1	-1.1067e-002
22854	1.562	4.1818	0.1	-3.9449e-002
22855	1.4701	4.4545	0.1	-2.2876e-002
22856	1.562	4.3636	0.1	-4.7798e-002
22857	1.4701	4.6364	0.1	-4.517e-002
22858	1.562	4.5455	0.1	-6.4182e-002
22859	1.4701	4.8182	0.1	-8.5715e-002
22860	1.562	4.7273	0.1	-9.336e-002
22861	1.4701	5.	0.1	-0.15201
22862	1.562	4.9091	0.1	-0.14492
22863	1.4701	5.1818	0.1	-0.27231
22864	1.562	5.0909	0.1	-0.22279
22865	1.4701	5.3636	0.1	-0.4283
22866	1.562	5.2727	0.1	-0.37732
22867	1.4701	5.5455	0.1	-1.0029
22868	1.562	5.4545	0.1	-0.53071
22869	1.4701	5.7273	0.1	-2.8623
22870	1.562	5.6364	0.1	-1.5688
22871	1.562	5.8182	0.1	-12.002
22872	1.4701	5.9091	0.1	-10.323
22873	1.6538	0.27273	0.1	-2.3817
22874	1.7457	0.18182	0.1	-8.0798
22875	1.6538	9.0909e-002	0.1	-3.9827
22876	1.6538	0.45455	0.1	-0.93201
22877	1.7457	0.36364	0.1	-1.3932
22878	1.6538	0.63636	0.1	-0.43766
22879	1.7457	0.54545	0.1	-0.48646
22880	1.6538	0.81818	0.1	-0.30947
22881	1.7457	0.72727	0.1	-0.36155
22882	1.6538	1.	0.1	-0.20557
22883	1.7457	0.90909	0.1	-0.22666
22884	1.6538	1.1818	0.1	-0.14628
22885	1.7457	1.0909	0.1	-0.15703
22886	1.6538	1.3636	0.1	-0.10821
22887	1.7457	1.2727	0.1	-0.10865
22888	1.6538	1.5455	0.1	-8.6244e-002
22889	1.7457	1.4545	0.1	-7.9676e-002
22890	1.6538	1.7273	0.1	-7.4158e-002
22891	1.7457	1.6364	0.1	-6.2409e-002
22892	1.6538	1.9091	0.1	-6.8235e-002
22893	1.7457	1.8182	0.1	-5.3005e-002
22894	1.6538	2.0909	0.1	-6.582e-002
22895	1.7457	2.	0.1	-4.8354e-002
22896	1.6538	2.2727	0.1	-6.5254e-002
22897	1.7457	2.1818	0.1	-4.646e-002
22898	1.6538	2.4545	0.1	-6.5515e-002
22899	1.7457	2.3636	0.1	-4.6009e-002
22900	1.6538	2.6364	0.1	-6.6009e-002
22901	1.7457	2.5455	0.1	-4.619e-002
22902	1.6538	2.8182	0.1	-6.641e-002
22903	1.7457	2.7273	0.1	-4.6523e-002
22904	1.6538	3.	0.1	-6.656e-002
22905	1.7457	2.9091	0.1	-4.6746e-002
22906	1.6538	3.1818	0.1	-6.641e-002
22907	1.7457	3.0909	0.1	-4.6746e-002
22908	1.6538	3.3636	0.1	-6.6009e-002
22909	1.7457	3.2727	0.1	-4.6523e-002
22910	1.6538	3.5455	0.1	-6.5515e-002
22911	1.7457	3.4545	0.1	-4.619e-002
22912	1.6538	3.7273	0.1	-6.5254e-002
22913	1.7457	3.6364	0.1	-4.6008e-002
22914	1.6538	3.9091	0.1	-6.582e-002
22915	1.7457	3.8182	0.1	-4.646e-002
22916	1.6538	4.0909	0.1	-6.8234e-002
22917	1.7457	4.	0.1	-4.8354e-002
22918	1.6538	4.2727	0.1	-7.4158e-002
22919	1.7457	4.1818	0.1	-5.3005e-002
22920	1.6538	4.4545	0.1	-8.6244e-002
22921	1.7457	4.3636	0.1	-6.2408e-002
22922	1.6538	4.6364	0.1	-0.10821
22923	1.7457	4.5455	0.1	-7.9676e-002
22924	1.6538	4.8182	0.1	-0.14628
22925	1.7457	4.7273	0.1	-0.10865
22926	1.6538	5.	0.1	-0.20557
22927	1.7457	4.9091	0.1	-0.15703
22928	1.6538	5.1818	0.1	-0.30947
22929	1.7457	5.0909	0.1	-0.22666
22930	1.6538	5.3636	0.1	-0.43766
22931	1.7457	5.2727	0.1	-0.36155
22932	1.6538	5.5455	0.1	-0.93201
22933	1.7457	5.4545	0.1	-0.48646
22934	1.6538	5.7273	0.1	-2.3817
22935	1.7457	5.6364	0.1	-1.3932
22936	1.7457	5.8182	0.1	-8.0798
22937	1.6538	5.9091	0.1	-3.9827
22938	1.8376	0.27273	0.1	-1.9717
22939	1.9295	0.18182	0.1	-5.6785
22940	1.8376	9.0909e-002	0.1	-1.8392
22941	1.8376	0.45455	0.1	-0.81485
22942	1.9295	0.36364	0.1	-1.2275
22943	1.8376	0.63636	0.1	-0.37542
22944	1.9295	0.54545	0.1	-0.42461
22945	1.8376	0.81818	0.1	-0.26349
22946	1.9295	0.72727	0.1	-0.31959
22947	1.8376	1.	0.1	-0.16968
22948	1.9295	0.90909	0.1	-0.1997
22949	1.8376	1.1818	0.1	-0.11411
22950	1.9295	1.0909	0.1	-0.13653
22951	1.8376	1.3636	0.1	-7.6551e-002
22952	1.9295	1.2727	0.1	-9.0779e-002
22953	1.8376	1.5455	0.1	-5.333e-002
22954	1.9295	1.4545	0.1	-6.1824e-002
22955	1.8376	1.7273	0.1	-3.943e-002
22956	1.9295	1.6364	0.1	-4.3402e-002
22957	1.8376	1.9091	0.1	-3.1761e-002
22958	1.9295	1.8182	0.1	-3.2473e-002
22959	1.8376	2.0909	0.1	-2.7945e-002
22960	1.9295	2.	0.1	-2.6389e-002
22961	1.8376	2.2727	0.1	-2.638e-002
22962	1.9295	2.1818	0.1	-2.3342e-002
22963	1.8376	2.4545	0.1	-2.5992e-002
22964	1.9295	2.3636	0.1	-2.2055e-002
22965	1.8376	2.6364	0.1	-2.6103e-002
22966	1.9295	2.5455	0.1	-2.1684e-002
22967	1.8376	2.8182	0.1	-2.6309e-002
22968	1.9295	2.7273	0.1	-2.1691e-002
22969	1.8376	3.	0.1	-2.6399e-002
22970	1.9295	2.9091	0.1	-2.1765e-002
22971	1.8376	3.1818	0.1	-2.6309e-002
22972	1.9295	3.0909	0.1	-2.1765e-002
22973	1.8376	3.3636	0.1	-2.6103e-002
22974	1.9295	3.2727	0.1	-2.169e-002
22975	1.8376	3.5455	0.1	-2.5992e-002
22976	1.9295	3.4545	0.1	-2.1684e-002
22977	1.8376	3.7273	0.1	-2.638e-002
22978	1.9295	3.6364	0.1	-2.2055e-002
22979	1.8376	3.9091	0.1	-2.7945e-002
22980	1.9295	3.8182	0.1	-2.3342e-002
22981	1.8376	4.0909	0.1	-3.176e-002
22982	1.9295	4.	0.1	-2.6388e-002
22983	1.8376	4.2727	0.1	-3.943e-002
22984	1.9295	4.1818	0.1	-3.2473e-002
22985	1.8376	4.4545	0.1	-5.333e-002
22986	1.9295	4.3636	0.1	-4.3402e-002
22987	1.8376	4.6364	0.1	-7.655e-002
22988	1.9295	4.5455	0.1	-6.1823e-002
22989	1.8376	4.8182	0.1	-0.11411
22990	1.9295	4.7273	0.1	-9.0778e-002
22991	1.8376	5.	0.1	-0.16967
22992	1.9295	4.9091	0.1	-0.13653
22993	1.8376	5.1818	0.1	-0.26349
22994	1.9295	5.0909	0.1	-0.1997
22995	1.8376	5.3636	0.1	-0.37542
22996	1.9295	5.2727	0.1	-0.31959
22997	1.8376	5.5455	0.1	-0.81485
22998	1.9295	5.4545	0.1	-0.42461
22999	1.8376	5.7273	0.1	-1.9717
23000	1.9295	5.6364	0.1	-1.2275
23001	1.9295	5.8182	0.1	-5.6785
23002	1.8376	5.9091	0.1	-1.8392
23003	2.0214	0.27273	0.1	-1.656
23004	2.1132	0.18182	0.1	-4.1554
23005	2.0214	9.0909e-002	0.1	-1.2092
23006	2.0214	0.45455	0.1	-0.72895
23007	2.1132	0.36364	0.1	-1.0913
23008	2.0214	0.63636	0.1	-0.33944
23009	2.1132	0.54545	0.1	-0.37784
23010	2.0214	0.81818	0.1	-0.24295
23011	2.1132	0.72727	0.1	-0.28979
23012	2.0214	1.	0.1	-0.15944
23013	2.1132	0.90909	0.1	-0.18342
23014	2.0214	1.1818	0.1	-0.10871
23015	2.1132	1.0909	0.1	-0.12669
23016	2.0214	1.3636	0.1	-7.2995e-002
23017	2.1132	1.2727	0.1	-8.4208e-002
23018	2.0214	1.5455	0.1	-4.9705e-002
23019	2.1132	1.4545	0.1	-5.6118e-002
23020	2.0214	1.7273	0.1	-3.4818e-002
23021	2.1132	1.6364	0.1	-3.7262e-002
23022	2.0214	1.9091	0.1	-2.5857e-002
23023	2.1132	1.8182	0.1	-2.5277e-002
23024	2.0214	2.0909	0.1	-2.0806e-002
23025	2.1132	2.	0.1	-1.798e-002
23026	2.0214	2.2727	0.1	-1.8221e-002
23027	2.1132	2.1818	0.1	-1.3816e-002
23028	2.0214	2.4545	0.1	-1.7077e-002
23029	2.1132	2.3636	0.1	-1.1622e-002
23030	2.0214	2.6364	0.1	-1.6682e-002
23031	2.1132	2.5455	0.1	-1.0587e-002
23032	2.0214	2.8182	0.1	-1.6602e-002
23033	2.1132	2.7273	0.1	-1.0166e-002
23034	2.0214	3.	0.1	-1.66e-002
23035	2.1132	2.9091	0.1	-1.0033e-002
23036	2.0214	3.1818	0.1	-1.6602e-002
23037	2.1132	3.0909	0.1	-1.0033e-002
23038	2.0214	3.3636	0.1	-1.6682e-002
23039	2.1132	3.2727	0.1	-1.0166e-002
23040	2.0214	3.5455	0.1	-1.7077e-002
23041	2.1132	3.4545	0.1	-1.0586e-002
23042	2.0214	3.7273	0.1	-1.8221e-002
23043	2.1132	3.6364	0.1	-1.1622e-002
23044	2.0214	3.9091	0.1	-2.0805e-002
23045	2.1132	3.8182	0.1	-1.3816e-002
23046	2.0214	4.0909	0.1	-2.5856e-002
23047	2.1132	4.	0.1	-1.798e-002
23048	2.0214	4.2727	0.1	-3.4817e-002
23049	2.1132	4.1818	0.1	-2.5277e-002
23050	2.0214	4.4545	0.1	-4.9704e-002
23051	2.1132	4.3636	0.1	-3.7261e-002
23052	2.0214	4.6364	0.1	-7.2994e-002
23053	2.1132	4.5455	0.1	-5.6118e-002
23054	2.0214	4.8182	0.1	-0.10871
23055	2.1132	4.7273	0.1	-8.4208e-002
23056	2.0214	5.	0.1	-0.15944
23057	2.1132	4.9091	0.1	-0.12669
23058	2.0214	5.1818	0.1	-0.24295
23059	2.1132	5.0909	0.1	-0.18342
23060	2.0214	5.3636	0.1	-0.33944
23061	2.1132	5.2727	0.1	-0.28979
23062	2.0214	5.5455	0.1	-0.72895
23063	2.1132	5.4545	0.1	-0.37784
23064	2.0214	5.7273	0.1	-1.656
23065	2.1132	5.6364	0.1	-1.0913
23066	2.1132	5.8182	0.1	-4.1554
23067	2.0214	5.9091	0.1	-1.2092
23068	2.2051	0.27273	0.1	-1.4014
23069	2.297	0.18182	0.1	-3.1424
23070	2.2051	9.0909e-002	0.1	-0.92911
23071	2.2051	0.45455	0.1	-0.65095
23072	2.297	0.36364	0.1	-0.97336
23073	2.2051	0.63636	0.1	-0.30329
23074	2.297	0.54545	0.1	-0.33576
23075	2.2051	0.81818	0.1	-0.21931
23076	2.297	0.72727	0.1	-0.26138
23077	2.2051	1.	0.1	-0.1446
23078	2.297	0.90909	0.1	-0.16656
23079	2.2051	1.1818	0.1	-9.8352e-002
23080	2.297	1.0909	0.1	-0.1156
23081	2.2051	1.3636	0.1	-6.4698e-002
23082	2.297	1.2727	0.1	-7.6412e-002
23083	2.2051	1.5455	0.1	-4.1764e-002
23084	2.297	1.4545	0.1	-4.9566e-002
23085	2.2051	1.7273	0.1	-2.6279e-002
23086	2.297	1.6364	0.1	-3.0732e-002
23087	2.2051	1.9091	0.1	-1.6278e-002
23088	2.297	1.8182	0.1	-1.8074e-002
23089	2.2051	2.0909	0.1	-1.009e-002
23090	2.297	2.	0.1	-9.8156e-003
23091	2.2051	2.2727	0.1	-6.4718e-003
23092	2.297	2.1818	0.1	-4.6566e-003
23093	2.2051	2.4545	0.1	-4.4944e-003
23094	2.297	2.3636	0.1	-1.5861e-003
23095	2.2051	2.6364	0.1	-3.5031e-003
23096	2.297	2.5455	0.1	1.3346e-004
23097	2.2051	2.8182	0.1	-3.0685e-003
23098	2.297	2.7273	0.1	1.016e-003
23099	2.2051	3.	0.1	-2.9495e-003
23100	2.297	2.9091	0.1	1.3807e-003
23101	2.2051	3.1818	0.1	-3.0685e-003
23102	2.297	3.0909	0.1	1.3807e-003
23103	2.2051	3.3636	0.1	-3.5031e-003
23104	2.297	3.2727	0.1	1.016e-003
23105	2.2051	3.5455	0.1	-4.4942e-003
23106	2.297	3.4545	0.1	1.3358e-004
23107	2.2051	3.7273	0.1	-6.4717e-003
23108	2.297	3.6364	0.1	-1.586e-003
23109	2.2051	3.9091	0.1	-1.009e-002
23110	2.297	3.8182	0.1	-4.6564e-003
23111	2.2051	4.0909	0.1	-1.6278e-002
23112	2.297	4.	0.1	-9.8153e-003
23113	2.2051	4.2727	0.1	-2.6279e-002
23114	2.297	4.1818	0.1	-1.8074e-002
23115	2.2051	4.4545	0.1	-4.1764e-002
23116	2.297	4.3636	0.1	-3.0732e-002
23117	2.2051	4.6364	0.1	-6.4698e-002
23118	2.297	4.5455	0.1	-4.9565e-002
23119	2.2051	4.8182	0.1	-9.8351e-002
23120	2.297	4.7273	0.1	-7.6411e-002
23121	2.2051	5.	0.1	-0.1446
23122	2.297	4.9091	0.1	-0.1156
23123	2.2051	5.1818	0.1	-0.21931
23124	2.297	5.0909	0.1	-0.16656
23125	2.2051	5.3636	0.1	-0.30329
23126	2.297	5.2727	0.1	-0.26138
23127	2.2051	5.5455	0.1	-0.65095
23128	2.297	5.4545	0.1	-0.33576
23129	2.2051	5.7273	0.1	-1.4014
23130	2.297	5.6364	0.1	-0.97336
23131	2.297	5.8182	0.1	-3.1424
23132	2.2051	5.9091	0.1	-0.92911
23133	2.3889	0.27273	0.1	-1.196
23134	2.4808	0.18182	0.1	-2.4398
23135	2.3889	9.0909e-002	0.1	-0.76723
23136	2.3889	0.45455	0.1	-0.58392
23137	2.4808	0.36364	0.1	-0.87166
23138	2.3889	0.63636	0.1	-0.27253
23139	2.4808	0.54545	0.1	-0.29948
23140	2.3889	0.81818	0.1	-0.19921
23141	2.4808	0.72727	0.1	-0.2364
23142	2.3889	1.	0.1	-0.13234
23143	2.4808	0.90909	0.1	-0.15162
23144	2.3889	1.1818	0.1	-9.0358e-002
23145	2.4808	1.0909	0.1	-0.10588
23146	2.3889	1.3636	0.1	-5.8998e-002
23147	2.4808	1.2727	0.1	-6.9924e-002
23148	2.3889	1.5455	0.1	-3.6864e-002
23149	2.4808	1.4545	0.1	-4.4599e-002
23150	2.3889	1.7273	0.1	-2.1253e-002
23151	2.4808	1.6364	0.1	-2.619e-002
23152	2.3889	1.9091	0.1	-1.0605e-002
23153	2.4808	1.8182	0.1	-1.3259e-002
23154	2.3889	2.0909	0.1	-3.5623e-003
23155	2.4808	2.	0.1	-4.364e-003
23156	2.3889	2.2727	0.1	9.1736e-004
23157	2.4808	2.1818	0.1	1.557e-003
23158	2.3889	2.4545	0.1	3.6389e-003
23159	2.4808	2.3636	0.1	5.3578e-003
23160	2.3889	2.6364	0.1	5.1899e-003
23161	2.4808	2.5455	0.1	7.6801e-003
23162	2.3889	2.8182	0.1	5.9686e-003
23163	2.4808	2.7273	0.1	8.9852e-003
23164	2.3889	3.	0.1	6.2034e-003
23165	2.4808	2.9091	0.1	9.5664e-003
23166	2.3889	3.1818	0.1	5.9686e-003
23167	2.4808	3.0909	0.1	9.5664e-003
23168	2.3889	3.3636	0.1	5.19e-003
23169	2.4808	3.2727	0.1	8.9852e-003
23170	2.3889	3.5455	0.1	3.6389e-003
23171	2.4808	3.4545	0.1	7.6802e-003
23172	2.3889	3.7273	0.1	9.1756e-004
23173	2.4808	3.6364	0.1	5.3578e-003
23174	2.3889	3.9091	0.1	-3.562e-003
23175	2.4808	3.8182	0.1	1.5573e-003
23176	2.3889	4.0909	0.1	-1.0605e-002
23177	2.4808	4.	0.1	-4.3636e-003
23178	2.3889	4.2727	0.1	-2.1252e-002
23179	2.4808	4.1818	0.1	-1.3259e-002
23180	2.3889	4.4545	0.1	-3.6864e-002
23181	2.4808	4.3636	0.1	-2.619e-002
23182	2.3889	4.6364	0.1	-5.8997e-002
23183	2.4808	4.5455	0.1	-4.4599e-002
23184	2.3889	4.8182	0.1	-9.0357e-002
23185	2.4808	4.7273	0.1	-6.9924e-002
23186	2.3889	5.	0.1	-0.13233
23187	2.4808	4.9091	0.1	-0.10588
23188	2.3889	5.1818	0.1	-0.19921
23189	2.4808	5.0909	0.1	-0.15162
23190	2.3889	5.3636	0.1	-0.27253
23191	2.4808	5.2727	0.1	-0.2364
23192	2.3889	5.5455	0.1	-0.58392
23193	2.4808	5.4545	0.1	-0.29948
23194	2.3889	5.7273	0.1	-1.196
23195	2.4808	5.6364	0.1	-0.87166
23196	2.4808	5.8182	0.1	-2.4398
23197	2.3889	5.9091	0.1	-0.76723
23198	2.5726	0.27273	0.1	-1.0279
23199	2.6645	0.18182	0.1	-1.9347
23200	2.5726	9.0909e-002	0.1	-0.65827
23201	2.5726	0.45455	0.1	-0.52492
23202	2.6645	0.36364	0.1	-0.78303
23203	2.5726	0.63636	0.1	-0.24498
23204	2.6645	0.54545	0.1	-0.2676
23205	2.5726	0.81818	0.1	-0.18065
23206	2.6645	0.72727	0.1	-0.21386
23207	2.5726	1.	0.1	-0.12063
23208	2.6645	0.90909	0.1	-0.1378
23209	2.5726	1.1818	0.1	-8.2574e-002
23210	2.6645	1.0909	0.1	-9.6696e-002
23211	2.5726	1.3636	0.1	-5.3538e-002
23212	2.6645	1.2727	0.1	-6.3809e-002
23213	2.5726	1.5455	0.1	-3.2463e-002
23214	2.6645	1.4545	0.1	-4.0129e-002
23215	2.5726	1.7273	0.1	-1.707e-002
23216	2.6645	1.6364	0.1	-2.2417e-002
23217	2.5726	1.9091	0.1	-6.1178e-003
23218	2.6645	1.8182	0.1	-9.5321e-003
23219	2.5726	2.0909	0.1	1.4969e-003
23220	2.6645	2.	0.1	-3.0075e-004
23221	2.5726	2.2727	0.1	6.6277e-003
23222	2.6645	2.1818	0.1	6.1373e-003
23223	2.5726	2.4545	0.1	9.9521e-003
23224	2.6645	2.3636	0.1	1.0487e-002
23225	2.5726	2.6364	0.1	1.1978e-002
23226	2.6645	2.5455	0.1	1.329e-002
23227	2.5726	2.8182	0.1	1.3056e-002
23228	2.6645	2.7273	0.1	1.4945e-002
23229	2.5726	3.	0.1	1.3393e-002
23230	2.6645	2.9091	0.1	1.5709e-002
23231	2.5726	3.1818	0.1	1.3056e-002
23232	2.6645	3.0909	0.1	1.5709e-002
23233	2.5726	3.3636	0.1	1.1978e-002
23234	2.6645	3.2727	0.1	1.4945e-002
23235	2.5726	3.5455	0.1	9.9522e-003
23236	2.6645	3.4545	0.1	1.329e-002
23237	2.5726	3.7273	0.1	6.628e-003
23238	2.6645	3.6364	0.1	1.0487e-002
23239	2.5726	3.9091	0.1	1.4973e-003
23240	2.6645	3.8182	0.1	6.1376e-003
23241	2.5726	4.0909	0.1	-6.1174e-003
23242	2.6645	4.	0.1	-3.0036e-004
23243	2.5726	4.2727	0.1	-1.707e-002
23244	2.6645	4.1818	0.1	-9.5318e-003
23245	2.5726	4.4545	0.1	-3.2462e-002
23246	2.6645	4.3636	0.1	-2.2417e-002
23247	2.5726	4.6364	0.1	-5.3538e-002
23248	2.6645	4.5455	0.1	-4.0128e-002
23249	2.5726	4.8182	0.1	-8.2574e-002
23250	2.6645	4.7273	0.1	-6.3808e-002
23251	2.5726	5.	0.1	-0.12063
23252	2.6645	4.9091	0.1	-9.6696e-002
23253	2.5726	5.1818	0.1	-0.18064
23254	2.6645	5.0909	0.1	-0.1378
23255	2.5726	5.3636	0.1	-0.24498
23256	2.6645	5.2727	0.1	-0.21386
23257	2.5726	5.5455	0.1	-0.52492
23258	2.6645	5.4545	0.1	-0.2676
23259	2.5726	5.7273	0.1	-1.0279
23260	2.6645	5.6364	0.1	-0.78303
23261	2.6645	5.8182	0.1	-1.9347
23262	2.5726	5.9091	0.1	-0.65827
23263	2.7564	0.27273	0.1	-0.88906
23264	2.8483	0.18182	0.1	-1.5606
23265	2.7564	9.0909e-002	0.1	-0.57792
23266	2.7564	0.45455	0.1	-0.47299
23267	2.8483	0.36364	0.1	-0.70536
23268	2.7564	0.63636	0.1	-0.22054
23269	2.8483	0.54545	0.1	-0.23958
23270	2.7564	0.81818	0.1	-0.16388
23271	2.8483	0.72727	0.1	-0.19363
23272	2.7564	1.	0.1	-0.1099
23273	2.8483	0.90909	0.1	-0.12519
23274	2.7564	1.1818	0.1	-7.5419e-002
23275	2.8483	1.0909	0.1	-8.8204e-002
23276	2.7564	1.3636	0.1	-4.8659e-002
23277	2.8483	1.2727	0.1	-5.8179e-002
23278	2.7564	1.5455	0.1	-2.8797e-002
23279	2.8483	1.4545	0.1	-3.6178e-002
23280	2.7564	1.7273	0.1	-1.3882e-002
23281	2.8483	1.6364	0.1	-1.9343e-002
23282	2.7564	1.9091	0.1	-2.9123e-003
23283	2.8483	1.8182	0.1	-6.7494e-003
23284	2.7564	2.0909	0.1	5.0078e-003
23285	2.8483	2.	0.1	2.5631e-003
23286	2.7564	2.2727	0.1	1.057e-002
23287	2.8483	2.1818	0.1	9.2891e-003
23288	2.7564	2.4545	0.1	1.4333e-002
23289	2.8483	2.3636	0.1	1.4003e-002
23290	2.7564	2.6364	0.1	1.6722e-002
23291	2.8483	2.5455	0.1	1.7151e-002
23292	2.7564	2.8182	0.1	1.8037e-002
23293	2.8483	2.7273	0.1	1.9068e-002
23294	2.7564	3.	0.1	1.8456e-002
23295	2.8483	2.9091	0.1	1.9972e-002
23296	2.7564	3.1818	0.1	1.8038e-002
23297	2.8483	3.0909	0.1	1.9972e-002
23298	2.7564	3.3636	0.1	1.6722e-002
23299	2.8483	3.2727	0.1	1.9068e-002
23300	2.7564	3.5455	0.1	1.4333e-002
23301	2.8483	3.4545	0.1	1.7151e-002
23302	2.7564	3.7273	0.1	1.057e-002
23303	2.8483	3.6364	0.1	1.4003e-002
23304	2.7564	3.9091	0.1	5.0081e-003
23305	2.8483	3.8182	0.1	9.2893e-003
23306	2.7564	4.0909	0.1	-2.912e-003
23307	2.8483	4.	0.1	2.5635e-003
23308	2.7564	4.2727	0.1	-1.3882e-002
23309	2.8483	4.1818	0.1	-6.7492e-003
23310	2.7564	4.4545	0.1	-2.8797e-002
23311	2.8483	4.3636	0.1	-1.9342e-002
23312	2.7564	4.6364	0.1	-4.8658e-002
23313	2.8483	4.5455	0.1	-3.6178e-002
23314	2.7564	4.8182	0.1	-7.5419e-002
23315	2.8483	4.7273	0.1	-5.8178e-002
23316	2.7564	5.	0.1	-0.1099
23317	2.8483	4.9091	0.1	-8.8204e-002
23318	2.7564	5.1818	0.1	-0.16388
23319	2.8483	5.0909	0.1	-0.12519
23320	2.7564	5.3636	0.1	-0.22054
23321	2.8483	5.2727	0.1	-0.19363
23322	2.7564	5.5455	0.1	-0.47299
23323	2.8483	5.4545	0.1	-0.23958
23324	2.7564	5.7273	0.1	-0.88906
23325	2.8483	5.6364	0.1	-0.70536
23326	2.8483	5.8182	0.1	-1.5606
23327	2.7564	5.9091	0.1	-0.57791
23328	2.9402	0.27273	0.1	-0.77333
23329	3.0321	0.18182	0.1	-1.2767
23330	2.9402	9.0909e-002	0.1	-0.51498
23331	2.9402	0.45455	0.1	-0.42702
23332	3.0321	0.36364	0.1	-0.63691
23333	2.9402	0.63636	0.1	-0.19875
23334	3.0321	0.54545	0.1	-0.21485
23335	2.9402	0.81818	0.1	-0.14867
23336	3.0321	0.72727	0.1	-0.17542
23337	2.9402	1.	0.1	-0.10001
23338	3.0321	0.90909	0.1	-0.11368
23339	2.9402	1.1818	0.1	-6.8755e-002
23340	3.0321	1.0909	0.1	-8.0349e-002
23341	2.9402	1.3636	0.1	-4.4166e-002
23342	3.0321	1.2727	0.1	-5.2961e-002
23343	2.9402	1.5455	0.1	-2.5589e-002
23344	3.0321	1.4545	0.1	-3.2614e-002
23345	2.9402	1.7273	0.1	-1.1326e-002
23346	3.0321	1.6364	0.1	-1.6756e-002
23347	2.9402	1.9091	0.1	-5.5779e-004
23348	3.0321	1.8182	0.1	-4.6293e-003
23349	2.9402	2.0909	0.1	7.445e-003
23350	3.0321	2.	0.1	4.5639e-003
23351	2.9402	2.2727	0.1	1.3241e-002
23352	3.0321	2.1818	0.1	1.1384e-002
23353	2.9402	2.4545	0.1	1.7284e-002
23354	3.0321	2.3636	0.1	1.6294e-002
23355	2.9402	2.6364	0.1	1.9923e-002
23356	3.0321	2.5455	0.1	1.9658e-002
23357	2.9402	2.8182	0.1	2.1408e-002
23358	3.0321	2.7273	0.1	2.1751e-002
23359	2.9402	3.	0.1	2.1887e-002
23360	3.0321	2.9091	0.1	2.2752e-002
23361	2.9402	3.1818	0.1	2.1408e-002
23362	3.0321	3.0909	0.1	2.2752e-002
23363	2.9402	3.3636	0.1	1.9923e-002
23364	3.0321	3.2727	0.1	2.1751e-002
23365	2.9402	3.5455	0.1	1.7284e-002
23366	3.0321	3.4545	0.1	1.9658e-002
23367	2.9402	3.7273	0.1	1.3241e-002
23368	3.0321	3.6364	0.1	1.6294e-002
23369	2.9402	3.9091	0.1	7.4453e-003
23370	3.0321	3.8182	0.1	1.1384e-002
23371	2.9402	4.0909	0.1	-5.5745e-004
23372	3.0321	4.	0.1	4.5642e-003
23373	2.9402	4.2727	0.1	-1.1325e-002
23374	3.0321	4.1818	0.1	-4.6289e-003
23375	2.9402	4.4545	0.1	-2.5588e-002
23376	3.0321	4.3636	0.1	-1.6756e-002
23377	2.9402	4.6364	0.1	-4.4165e-002
23378	3.0321	4.5455	0.1	-3.2614e-002
23379	2.9402	4.8182	0.1	-6.8755e-002
23380	3.0321	4.7273	0.1	-5.296e-002
23381	2.9402	5.	0.1	-0.10001
23382	3.0321	4.9091	0.1	-8.0349e-002
23383	2.9402	5.1818	0.1	-0.14867
23384	3.0321	5.0909	0.1	-0.11368
23385	2.9402	5.3636	0.1	-0.19875
23386	3.0321	5.2727	0.1	-0.17542
23387	2.9402	5.5455	0.1	-0.42702
23388	3.0321	5.4545	0.1	-0.21485
23389	2.9402	5.7273	0.1	-0.77333
23390	3.0321	5.6364	0.1	-0.63691
23391	3.0321	5.8182	0.1	-1.2767
23392	2.9402	5.9091	0.1	-0.51498
23393	3.1239	0.27273	0.1	-0.67606
23394	3.2158	0.18182	0.1	-1.057
23395	3.1239	9.0909e-002	0.1	-0.46363
23396	3.1239	0.45455	0.1	-0.38618
23397	3.2158	0.36364	0.1	-0.57626
23398	3.1239	0.63636	0.1	-0.17932
23399	3.2158	0.54545	0.1	-0.19297
23400	3.1239	0.81818	0.1	-0.1349
23401	3.2158	0.72727	0.1	-0.15902
23402	3.1239	1.	0.1	-9.0947e-002
23403	3.2158	0.90909	0.1	-0.10321
23404	3.1239	1.1818	0.1	-6.2604e-002
23405	3.2158	1.0909	0.1	-7.3122e-002
23406	3.1239	1.3636	0.1	-4.0055e-002
23407	3.2158	1.2727	0.1	-4.8151e-002
23408	3.1239	1.5455	0.1	-2.2776e-002
23409	3.2158	1.4545	0.1	-2.9395e-002
23410	3.1239	1.7273	0.1	-9.2742e-003
23411	3.2158	1.6364	0.1	-1.4561e-002
23412	3.1239	1.9091	0.1	1.1318e-003
23413	3.2158	1.8182	0.1	-3.0165e-003
23414	3.1239	2.0909	0.1	9.0418e-003
23415	3.2158	2.	0.1	5.9081e-003
23416	3.1239	2.2727	0.1	1.4906e-002
23417	3.2158	2.1818	0.1	1.2667e-002
23418	3.1239	2.4545	0.1	1.909e-002
23419	3.2158	2.3636	0.1	1.7635e-002
23420	3.1239	2.6364	0.1	2.1875e-002
23421	3.2158	2.5455	0.1	2.1102e-002
23422	3.1239	2.8182	0.1	2.3466e-002
23423	3.2158	2.7273	0.1	2.3292e-002
23424	3.1239	3.	0.1	2.3983e-002
23425	3.2158	2.9091	0.1	2.4351e-002
23426	3.1239	3.1818	0.1	2.3466e-002
23427	3.2158	3.0909	0.1	2.4351e-002
23428	3.1239	3.3636	0.1	2.1876e-002
23429	3.2158	3.2727	0.1	2.3292e-002
23430	3.1239	3.5455	0.1	1.909e-002
23431	3.2158	3.4545	0.1	2.1103e-002
23432	3.1239	3.7273	0.1	1.4906e-002
23433	3.2158	3.6364	0.1	1.7635e-002
23434	3.1239	3.9091	0.1	9.042e-003
23435	3.2158	3.8182	0.1	1.2667e-002
23436	3.1239	4.0909	0.1	1.1322e-003
23437	3.2158	4.	0.1	5.9084e-003
23438	3.1239	4.2727	0.1	-9.2738e-003
23439	3.2158	4.1818	0.1	-3.0161e-003
23440	3.1239	4.4545	0.1	-2.2776e-002
23441	3.2158	4.3636	0.1	-1.4561e-002
23442	3.1239	4.6364	0.1	-4.0054e-002
23443	3.2158	4.5455	0.1	-2.9395e-002
23444	3.1239	4.8182	0.1	-6.2603e-002
23445	3.2158	4.7273	0.1	-4.815e-002
23446	3.1239	5.	0.1	-9.0946e-002
23447	3.2158	4.9091	0.1	-7.3121e-002
23448	3.1239	5.1818	0.1	-0.1349
23449	3.2158	5.0909	0.1	-0.10321
23450	3.1239	5.3636	0.1	-0.17932
23451	3.2158	5.2727	0.1	-0.15902
23452	3.1239	5.5455	0.1	-0.38618
23453	3.2158	5.4545	0.1	-0.19297
23454	3.1239	5.7273	0.1	-0.67606
23455	3.2158	5.6364	0.1	-0.57626
23456	3.2158	5.8182	0.1	-1.057
23457	3.1239	5.9091	0.1	-0.46363
23458	3.3077	0.27273	0.1	-0.59367
23459	3.3996	0.18182	0.1	-0.88398
23460	3.3077	9.0909e-002	0.1	-0.42048
23461	3.3077	0.45455	0.1	-0.34976
23462	3.3996	0.36364	0.1	-0.52229
23463	3.3077	0.63636	0.1	-0.16193
23464	3.3996	0.54545	0.1	-0.17355
23465	3.3077	0.81818	0.1	-0.12244
23466	3.3996	0.72727	0.1	-0.14424
23467	3.3077	1.	0.1	-8.2657e-002
23468	3.3996	0.90909	0.1	-9.3692e-002
23469	3.3077	1.1818	0.1	-5.6938e-002
23470	3.3996	1.0909	0.1	-6.6494e-002
23471	3.3077	1.3636	0.1	-3.6289e-002
23472	3.3996	1.2727	0.1	-4.373e-002
23473	3.3077	1.5455	0.1	-2.0286e-002
23474	3.3996	1.4545	0.1	-2.6483e-002
23475	3.3077	1.7273	0.1	-7.6039e-003
23476	3.3996	1.6364	0.1	-1.2681e-002
23477	3.3077	1.9091	0.1	2.3312e-003
23478	3.3996	1.8182	0.1	-1.7884e-003
23479	3.3077	2.0909	0.1	1.0018e-002
23480	3.3996	2.	0.1	6.7633e-003
23481	3.3077	2.2727	0.1	1.5819e-002
23482	3.3996	2.1818	0.1	1.3345e-002
23483	3.3077	2.4545	0.1	2.0029e-002
23484	3.3996	2.3636	0.1	1.8259e-002
23485	3.3077	2.6364	0.1	2.2874e-002
23486	3.3996	2.5455	0.1	2.1739e-002
23487	3.3077	2.8182	0.1	2.4516e-002
23488	3.3996	2.7273	0.1	2.3961e-002
23489	3.3077	3.	0.1	2.5052e-002
23490	3.3996	2.9091	0.1	2.5043e-002
23491	3.3077	3.1818	0.1	2.4516e-002
23492	3.3996	3.0909	0.1	2.5043e-002
23493	3.3077	3.3636	0.1	2.2874e-002
23494	3.3996	3.2727	0.1	2.3961e-002
23495	3.3077	3.5455	0.1	2.0029e-002
23496	3.3996	3.4545	0.1	2.1739e-002
23497	3.3077	3.7273	0.1	1.5819e-002
23498	3.3996	3.6364	0.1	1.826e-002
23499	3.3077	3.9091	0.1	1.0018e-002
23500	3.3996	3.8182	0.1	1.3346e-002
23501	3.3077	4.0909	0.1	2.3316e-003
23502	3.3996	4.	0.1	6.7636e-003
23503	3.3077	4.2727	0.1	-7.6034e-003
23504	3.3996	4.1818	0.1	-1.7879e-003
23505	3.3077	4.4545	0.1	-2.0286e-002
23506	3.3996	4.3636	0.1	-1.268e-002
23507	3.3077	4.6364	0.1	-3.6288e-002
23508	3.3996	4.5455	0.1	-2.6483e-002
23509	3.3077	4.8182	0.1	-5.6937e-002
23510	3.3996	4.7273	0.1	-4.3729e-002
23511	3.3077	5.	0.1	-8.2657e-002
23512	3.3996	4.9091	0.1	-6.6494e-002
23513	3.3077	5.1818	0.1	-0.12243
23514	3.3996	5.0909	0.1	-9.3691e-002
23515	3.3077	5.3636	0.1	-0.16193
23516	3.3996	5.2727	0.1	-0.14424
23517	3.3077	5.5455	0.1	-0.34975
23518	3.3996	5.4545	0.1	-0.17355
23519	3.3077	5.7273	0.1	-0.59367
23520	3.3996	5.6364	0.1	-0.52229
23521	3.3996	5.8182	0.1	-0.88398
23522	3.3077	5.9091	0.1	-0.42048
23523	3.4915	0.27273	0.1	-0.52341
23524	3.5833	0.18182	0.1	-0.7459
23525	3.4915	9.0909e-002	0.1	-0.38346
23526	3.4915	0.45455	0.1	-0.31717
23527	3.5833	0.36364	0.1	-0.47408
23528	3.4915	0.63636	0.1	-0.14636
23529	3.5833	0.54545	0.1	-0.15629
23530	3.4915	0.81818	0.1	-0.11115
23531	3.5833	0.72727	0.1	-0.13091
23532	3.4915	1.	0.1	-7.51e-002
23533	3.5833	0.90909	0.1	-8.5059e-002
23534	3.4915	1.1818	0.1	-5.1745e-002
23535	3.5833	1.0909	0.1	-6.0444e-002
23536	3.4915	1.3636	0.1	-3.2853e-002
23537	3.5833	1.2727	0.1	-3.9692e-002
23538	3.4915	1.5455	0.1	-1.8081e-002
23539	3.5833	1.4545	0.1	-2.3861e-002
23540	3.4915	1.7273	0.1	-6.241e-003
23541	3.5833	1.6364	0.1	-1.1072e-002
23542	3.4915	1.9091	0.1	3.155e-003
23543	3.5833	1.8182	0.1	-8.6652e-004
23544	3.4915	2.0909	0.1	1.0525e-002
23545	3.5833	2.	0.1	7.244e-003
23546	3.4915	2.2727	0.1	1.6167e-002
23547	3.5833	2.1818	0.1	1.3566e-002
23548	3.4915	2.4545	0.1	2.0314e-002
23549	3.5833	2.3636	0.1	1.8344e-002
23550	3.4915	2.6364	0.1	2.3147e-002
23551	3.5833	2.5455	0.1	2.1764e-002
23552	3.4915	2.8182	0.1	2.4796e-002
23553	3.5833	2.7273	0.1	2.3967e-002
23554	3.4915	3.	0.1	2.5337e-002
23555	3.5833	2.9091	0.1	2.5046e-002
23556	3.4915	3.1818	0.1	2.4796e-002
23557	3.5833	3.0909	0.1	2.5046e-002
23558	3.4915	3.3636	0.1	2.3147e-002
23559	3.5833	3.2727	0.1	2.3967e-002
23560	3.4915	3.5455	0.1	2.0314e-002
23561	3.5833	3.4545	0.1	2.1764e-002
23562	3.4915	3.7273	0.1	1.6167e-002
23563	3.5833	3.6364	0.1	1.8344e-002
23564	3.4915	3.9091	0.1	1.0526e-002
23565	3.5833	3.8182	0.1	1.3566e-002
23566	3.4915	4.0909	0.1	3.1555e-003
23567	3.5833	4.	0.1	7.2444e-003
23568	3.4915	4.2727	0.1	-6.2404e-003
23569	3.5833	4.1818	0.1	-8.66e-004
23570	3.4915	4.4545	0.1	-1.8081e-002
23571	3.5833	4.3636	0.1	-1.1071e-002
23572	3.4915	4.6364	0.1	-3.2853e-002
23573	3.5833	4.5455	0.1	-2.386e-002
23574	3.4915	4.8182	0.1	-5.1744e-002
23575	3.5833	4.7273	0.1	-3.9691e-002
23576	3.4915	5.	0.1	-7.5099e-002
23577	3.5833	4.9091	0.1	-6.0443e-002
23578	3.4915	5.1818	0.1	-0.11115
23579	3.5833	5.0909	0.1	-8.5058e-002
23580	3.4915	5.3636	0.1	-0.14636
23581	3.5833	5.2727	0.1	-0.13091
23582	3.4915	5.5455	0.1	-0.31717
23583	3.5833	5.4545	0.1	-0.15629
23584	3.4915	5.7273	0.1	-0.52341
23585	3.5833	5.6364	0.1	-0.47407
23586	3.5833	5.8182	0.1	-0.74589
23587	3.4915	5.9091	0.1	-0.38346
23588	3.6752	0.27273	0.1	-0.46314
23589	3.7671	0.18182	0.1	-0.63437
23590	3.6752	9.0909e-002	0.1	-0.3512
23591	3.6752	0.45455	0.1	-0.28794
23592	3.7671	0.36364	0.1	-0.43086
23593	3.6752	0.63636	0.1	-0.13241
23594	3.7671	0.54545	0.1	-0.1409
23595	3.6752	0.81818	0.1	-0.10095
23596	3.7671	0.72727	0.1	-0.11889
23597	3.6752	1.	0.1	-6.8233e-002
23598	3.7671	0.90909	0.1	-7.7242e-002
23599	3.6752	1.1818	0.1	-4.7014e-002
23600	3.7671	1.0909	0.1	-5.4942e-002
23601	3.6752	1.3636	0.1	-2.9742e-002
23602	3.7671	1.2727	0.1	-3.6023e-002
23603	3.6752	1.5455	0.1	-1.614e-002
23604	3.7671	1.4545	0.1	-2.1512e-002
23605	3.6752	1.7273	0.1	-5.139e-003
23606	3.7671	1.6364	0.1	-9.7012e-003
23607	3.6752	1.9091	0.1	3.6806e-003
23608	3.7671	1.8182	0.1	-1.927e-004
23609	3.6752	2.0909	0.1	1.0675e-002
23610	3.7671	2.	0.1	7.4374e-003
23611	3.6752	2.2727	0.1	1.6087e-002
23612	3.7671	2.1818	0.1	1.3444e-002
23613	3.6752	2.4545	0.1	2.0106e-002
23614	3.7671	2.3636	0.1	1.8028e-002
23615	3.6752	2.6364	0.1	2.2874e-002
23616	3.7671	2.5455	0.1	2.1336e-002
23617	3.6752	2.8182	0.1	2.4496e-002
23618	3.7671	2.7273	0.1	2.3481e-002
23619	3.6752	3.	0.1	2.5029e-002
23620	3.7671	2.9091	0.1	2.4536e-002
23621	3.6752	3.1818	0.1	2.4496e-002
23622	3.7671	3.0909	0.1	2.4536e-002
23623	3.6752	3.3636	0.1	2.2875e-002
23624	3.7671	3.2727	0.1	2.3481e-002
23625	3.6752	3.5455	0.1	2.0106e-002
23626	3.7671	3.4545	0.1	2.1336e-002
23627	3.6752	3.7273	0.1	1.6087e-002
23628	3.7671	3.6364	0.1	1.8028e-002
23629	3.6752	3.9091	0.1	1.0675e-002
23630	3.7671	3.8182	0.1	1.3445e-002
23631	3.6752	4.0909	0.1	3.6811e-003
23632	3.7671	4.	0.1	7.4378e-003
23633	3.6752	4.2727	0.1	-5.1385e-003
23634	3.7671	4.1818	0.1	-1.9224e-004
23635	3.6752	4.4545	0.1	-1.6139e-002
23636	3.7671	4.3636	0.1	-9.7007e-003
23637	3.6752	4.6364	0.1	-2.9742e-002
23638	3.7671	4.5455	0.1	-2.1512e-002
23639	3.6752	4.8182	0.1	-4.7013e-002
23640	3.7671	4.7273	0.1	-3.6022e-002
23641	3.6752	5.	0.1	-6.8233e-002
23642	3.7671	4.9091	0.1	-5.4941e-002
23643	3.6752	5.1818	0.1	-0.10094
23644	3.7671	5.0909	0.1	-7.7241e-002
23645	3.6752	5.3636	0.1	-0.13241
23646	3.7671	5.2727	0.1	-0.11889
23647	3.6752	5.5455	0.1	-0.28794
23648	3.7671	5.4545	0.1	-0.1409
23649	3.6752	5.7273	0.1	-0.46314
23650	3.7671	5.6364	0.1	-0.43086
23651	3.7671	5.8182	0.1	-0.63437
23652	3.6752	5.9091	0.1	-0.3512
23653	3.859	0.27273	0.1	-0.41115
23654	3.9509	0.18182	0.1	-0.5434
23655	3.859	9.0909e-002	0.1	-0.32278
23656	3.859	0.45455	0.1	-0.26166
23657	3.9509	0.36364	0.1	-0.392
23658	3.859	0.63636	0.1	-0.11988
23659	3.9509	0.54545	0.1	-0.12716
23660	3.859	0.81818	0.1	-9.172e-002
23661	3.9509	0.72727	0.1	-0.10803
23662	3.859	1.	0.1	-6.2008e-002
23663	3.9509	0.90909	0.1	-7.0167e-002
23664	3.859	1.1818	0.1	-4.2718e-002
23665	3.9509	1.0909	0.1	-4.9947e-002
23666	3.859	1.3636	0.1	-2.6936e-002
23667	3.9509	1.2727	0.1	-3.2699e-002
23668	3.859	1.5455	0.1	-1.4436e-002
23669	3.9509	1.4545	0.1	-1.9414e-002
23670	3.859	1.7273	0.1	-4.2545e-003
23671	3.9509	1.6364	0.1	-8.5341e-003
23672	3.859	1.9091	0.1	3.975e-003
23673	3.9509	1.8182	0.1	2.857e-004
23674	3.859	2.0909	0.1	1.0557e-002
23675	3.9509	2.	0.1	7.4174e-003
23676	3.859	2.2727	0.1	1.5694e-002
23677	3.9509	2.1818	0.1	1.3076e-002
23678	3.859	2.4545	0.1	1.9539e-002
23679	3.9509	2.3636	0.1	1.7426e-002
23680	3.859	2.6364	0.1	2.2205e-002
23681	3.9509	2.5455	0.1	2.0586e-002
23682	3.859	2.8182	0.1	2.3773e-002
23683	3.9509	2.7273	0.1	2.2646e-002
23684	3.859	3.	0.1	2.4291e-002
23685	3.9509	2.9091	0.1	2.3662e-002
23686	3.859	3.1818	0.1	2.3773e-002
23687	3.9509	3.0909	0.1	2.3662e-002
23688	3.859	3.3636	0.1	2.2205e-002
23689	3.9509	3.2727	0.1	2.2646e-002
23690	3.859	3.5455	0.1	1.9539e-002
23691	3.9509	3.4545	0.1	2.0586e-002
23692	3.859	3.7273	0.1	1.5695e-002
23693	3.9509	3.6364	0.1	1.7426e-002
23694	3.859	3.9091	0.1	1.0558e-002
23695	3.9509	3.8182	0.1	1.3077e-002
23696	3.859	4.0909	0.1	3.9754e-003
23697	3.9509	4.	0.1	7.4178e-003
23698	3.859	4.2727	0.1	-4.254e-003
23699	3.9509	4.1818	0.1	2.8624e-004
23700	3.859	4.4545	0.1	-1.4436e-002
23701	3.9509	4.3636	0.1	-8.5335e-003
23702	3.859	4.6364	0.1	-2.6936e-002
23703	3.9509	4.5455	0.1	-1.9413e-002
23704	3.859	4.8182	0.1	-4.2717e-002
23705	3.9509	4.7273	0.1	-3.2698e-002
23706	3.859	5.	0.1	-6.2007e-002
23707	3.9509	4.9091	0.1	-4.9946e-002
23708	3.859	5.1818	0.1	-9.1719e-002
23709	3.9509	5.0909	0.1	-7.0166e-002
23710	3.859	5.3636	0.1	-0.11988
23711	3.9509	5.2727	0.1	-0.10803
23712	3.859	5.5455	0.1	-0.26166
23713	3.9509	5.4545	0.1	-0.12716
23714	3.859	5.7273	0.1	-0.41115
23715	3.9509	5.6364	0.1	-0.39199
23716	3.9509	5.8182	0.1	-0.5434
23717	3.859	5.9091	0.1	-0.32277
23718	4.0427	0.27273	0.1	-0.36607
23719	4.1346	0.18182	0.1	-0.46855
23720	4.0427	9.0909e-002	0.1	-0.29751
23721	4.0427	0.45455	0.1	-0.23797
23722	4.1346	0.36364	0.1	-0.35695
23723	4.0427	0.63636	0.1	-0.10862
23724	4.1346	0.54545	0.1	-0.11487
23725	4.0427	0.81818	0.1	-8.3373e-002
23726	4.1346	0.72727	0.1	-9.8211e-002
23727	4.0427	1.	0.1	-5.6363e-002
23728	4.1346	0.90909	0.1	-6.3762e-002
23729	4.0427	1.1818	0.1	-3.8821e-002
23730	4.1346	1.0909	0.1	-4.5416e-002
23731	4.0427	1.3636	0.1	-2.4408e-002
23732	4.1346	1.2727	0.1	-2.9692e-002
23733	4.0427	1.5455	0.1	-1.294e-002
23734	4.1346	1.4545	0.1	-1.754e-002
23735	4.0427	1.7273	0.1	-3.5447e-003
23736	4.1346	1.6364	0.1	-7.5403e-003
23737	4.0427	1.9091	0.1	4.0972e-003
23738	4.1346	1.8182	0.1	6.113e-004
23739	4.0427	2.0909	0.1	1.0251e-002
23740	4.1346	2.	0.1	7.2426e-003
23741	4.0427	2.2727	0.1	1.5086e-002
23742	4.1346	2.1818	0.1	1.2537e-002
23743	4.0427	2.4545	0.1	1.8726e-002
23744	4.1346	2.3636	0.1	1.663e-002
23745	4.0427	2.6364	0.1	2.1264e-002
23746	4.1346	2.5455	0.1	1.9619e-002
23747	4.0427	2.8182	0.1	2.2762e-002
23748	4.1346	2.7273	0.1	2.1575e-002
23749	4.0427	3.	0.1	2.3258e-002
23750	4.1346	2.9091	0.1	2.2542e-002
23751	4.0427	3.1818	0.1	2.2762e-002
23752	4.1346	3.0909	0.1	2.2542e-002
23753	4.0427	3.3636	0.1	2.1264e-002
23754	4.1346	3.2727	0.1	2.1575e-002
23755	4.0427	3.5455	0.1	1.8727e-002
23756	4.1346	3.4545	0.1	1.9619e-002
23757	4.0427	3.7273	0.1	1.5086e-002
23758	4.1346	3.6364	0.1	1.663e-002
23759	4.0427	3.9091	0.1	1.0252e-002
23760	4.1346	3.8182	0.1	1.2537e-002
23761	4.0427	4.0909	0.1	4.0977e-003
23762	4.1346	4.	0.1	7.2429e-003
23763	4.0427	4.2727	0.1	-3.5441e-003
23764	4.1346	4.1818	0.1	6.1183e-004
23765	4.0427	4.4545	0.1	-1.2939e-002
23766	4.1346	4.3636	0.1	-7.5397e-003
23767	4.0427	4.6364	0.1	-2.4407e-002
23768	4.1346	4.5455	0.1	-1.754e-002
23769	4.0427	4.8182	0.1	-3.8821e-002
23770	4.1346	4.7273	0.1	-2.9692e-002
23771	4.0427	5.	0.1	-5.6362e-002
23772	4.1346	4.9091	0.1	-4.5416e-002
23773	4.0427	5.1818	0.1	-8.3372e-002
23774	4.1346	5.0909	0.1	-6.3761e-002
23775	4.0427	5.3636	0.1	-0.10862
23776	4.1346	5.2727	0.1	-9.8211e-002
23777	4.0427	5.5455	0.1	-0.23797
23778	4.1346	5.4545	0.1	-0.11487
23779	4.0427	5.7273	0.1	-0.36607
23780	4.1346	5.6364	0.1	-0.35695
23781	4.1346	5.8182	0.1	-0.46855
23782	4.0427	5.9091	0.1	-0.2975
23783	4.2265	0.27273	0.1	-0.32681
23784	4.3184	0.18182	0.1	-0.40652
23785	4.2265	9.0909e-002	0.1	-0.2749
23786	4.2265	0.45455	0.1	-0.21658
23787	4.3184	0.36364	0.1	-0.32529
23788	4.2265	0.63636	0.1	-9.8478e-002
23789	4.3184	0.54545	0.1	-0.10385
23790	4.2265	0.81818	0.1	-7.5816e-002
23791	4.3184	0.72727	0.1	-8.9331e-002
23792	4.2265	1.	0.1	-5.1249e-002
23793	4.3184	0.90909	0.1	-5.797e-002
23794	4.2265	1.1818	0.1	-3.5293e-002
23795	4.3184	1.0909	0.1	-4.1317e-002
23796	4.2265	1.3636	0.1	-2.2134e-002
23797	4.3184	1.2727	0.1	-2.6983e-002
23798	4.2265	1.5455	0.1	-1.1627e-002
23799	4.3184	1.4545	0.1	-1.5877e-002
23800	4.2265	1.7273	0.1	-2.9805e-003
23801	4.3184	1.6364	0.1	-6.7015e-003
23802	4.2265	1.9091	0.1	4.0884e-003
23803	4.3184	1.8182	0.1	8.1039e-004
23804	4.2265	2.0909	0.1	9.8114e-003
23805	4.3184	2.	0.1	6.9503e-003
23806	4.2265	2.2727	0.1	1.4331e-002
23807	4.3184	2.1818	0.1	1.1876e-002
23808	4.2265	2.4545	0.1	1.775e-002
23809	4.3184	2.3636	0.1	1.5702e-002
23810	4.2265	2.6364	0.1	2.0143e-002
23811	4.3184	2.5455	0.1	1.8506e-002
23812	4.2265	2.8182	0.1	2.156e-002
23813	4.3184	2.7273	0.1	2.0348e-002
23814	4.2265	3.	0.1	2.2029e-002
23815	4.3184	2.9091	0.1	2.126e-002
23816	4.2265	3.1818	0.1	2.156e-002
23817	4.3184	3.0909	0.1	2.126e-002
23818	4.2265	3.3636	0.1	2.0143e-002
23819	4.3184	3.2727	0.1	2.0348e-002
23820	4.2265	3.5455	0.1	1.7751e-002
23821	4.3184	3.4545	0.1	1.8507e-002
23822	4.2265	3.7273	0.1	1.4331e-002
23823	4.3184	3.6364	0.1	1.5702e-002
23824	4.2265	3.9091	0.1	9.8117e-003
23825	4.3184	3.8182	0.1	1.1876e-002
23826	4.2265	4.0909	0.1	4.0888e-003
23827	4.3184	4.	0.1	6.9507e-003
23828	4.2265	4.2727	0.1	-2.98e-003
23829	4.3184	4.1818	0.1	8.1089e-004
23830	4.2265	4.4545	0.1	-1.1627e-002
23831	4.3184	4.3636	0.1	-6.701e-003
23832	4.2265	4.6364	0.1	-2.2133e-002
23833	4.3184	4.5455	0.1	-1.5876e-002
23834	4.2265	4.8182	0.1	-3.5292e-002
23835	4.3184	4.7273	0.1	-2.6983e-002
23836	4.2265	5.	0.1	-5.1248e-002
23837	4.3184	4.9091	0.1	-4.1316e-002
23838	4.2265	5.1818	0.1	-7.5815e-002
23839	4.3184	5.0909	0.1	-5.7968e-002
23840	4.2265	5.3636	0.1	-9.8478e-002
23841	4.3184	5.2727	0.1	-8.9331e-002
23842	4.2265	5.5455	0.1	-0.21657
23843	4.3184	5.4545	0.1	-0.10385
23844	4.2265	5.7273	0.1	-0.32681
23845	4.3184	5.6364	0.1	-0.32529
23846	4.3184	5.8182	0.1	-0.40652
23847	4.2265	5.9091	0.1	-0.2749
23848	4.4103	0.27273	0.1	-0.29249
23849	4.5021	0.18182	0.1	-0.35481
23850	4.4103	9.0909e-002	0.1	-0.25459
23851	4.4103	0.45455	0.1	-0.19722
23852	4.5021	0.36364	0.1	-0.29662
23853	4.4103	0.63636	0.1	-8.9343e-002
23854	4.5021	0.54545	0.1	-9.3968e-002
23855	4.4103	0.81818	0.1	-6.8981e-002
23856	4.5021	0.72727	0.1	-8.1295e-002
23857	4.4103	1.	0.1	-4.6627e-002
23858	4.5021	0.90909	0.1	-5.2734e-002
23859	4.4103	1.1818	0.1	-3.2112e-002
23860	4.5021	1.0909	0.1	-3.7614e-002
23861	4.4103	1.3636	0.1	-2.0104e-002
23862	4.5021	1.2727	0.1	-2.455e-002
23863	4.4103	1.5455	0.1	-1.0489e-002
23864	4.5021	1.4545	0.1	-1.4407e-002
23865	4.4103	1.7273	0.1	-2.5473e-003
23866	4.5021	1.6364	0.1	-6.0008e-003
23867	4.4103	1.9091	0.1	3.9708e-003
23868	4.5021	1.8182	0.1	9.0488e-004
23869	4.4103	2.0909	0.1	9.2701e-003
23870	4.5021	2.	0.1	6.5702e-003
23871	4.4103	2.2727	0.1	1.3472e-002
23872	4.5021	2.1818	0.1	1.1133e-002
23873	4.4103	2.4545	0.1	1.6663e-002
23874	4.5021	2.3636	0.1	1.4689e-002
23875	4.4103	2.6364	0.1	1.8903e-002
23876	4.5021	2.5455	0.1	1.7304e-002
23877	4.4103	2.8182	0.1	2.0233e-002
23878	4.5021	2.7273	0.1	1.9025e-002
23879	4.4103	3.	0.1	2.0673e-002
23880	4.5021	2.9091	0.1	1.9879e-002
23881	4.4103	3.1818	0.1	2.0233e-002
23882	4.5021	3.0909	0.1	1.9879e-002
23883	4.4103	3.3636	0.1	1.8903e-002
23884	4.5021	3.2727	0.1	1.9025e-002
23885	4.4103	3.5455	0.1	1.6664e-002
23886	4.5021	3.4545	0.1	1.7304e-002
23887	4.4103	3.7273	0.1	1.3473e-002
23888	4.5021	3.6364	0.1	1.4689e-002
23889	4.4103	3.9091	0.1	9.2704e-003
23890	4.5021	3.8182	0.1	1.1133e-002
23891	4.4103	4.0909	0.1	3.9713e-003
23892	4.5021	4.	0.1	6.5707e-003
23893	4.4103	4.2727	0.1	-2.5467e-003
23894	4.5021	4.1818	0.1	9.0537e-004
23895	4.4103	4.4545	0.1	-1.0488e-002
23896	4.5021	4.3636	0.1	-6.0002e-003
23897	4.4103	4.6364	0.1	-2.0103e-002
23898	4.5021	4.5455	0.1	-1.4406e-002
23899	4.4103	4.8182	0.1	-3.2111e-002
23900	4.5021	4.7273	0.1	-2.4549e-002
23901	4.4103	5.	0.1	-4.6626e-002
23902	4.5021	4.9091	0.1	-3.7613e-002
23903	4.4103	5.1818	0.1	-6.898e-002
23904	4.5021	5.0909	0.1	-5.2732e-002
23905	4.4103	5.3636	0.1	-8.9342e-002
23906	4.5021	5.2727	0.1	-8.1295e-002
23907	4.4103	5.5455	0.1	-0.19722
23908	4.5021	5.4545	0.1	-9.3968e-002
23909	4.4103	5.7273	0.1	-0.29249
23910	4.5021	5.6364	0.1	-0.29662
23911	4.5021	5.8182	0.1	-0.35481
23912	4.4103	5.9091	0.1	-0.25459
23913	4.594	0.27273	0.1	-0.26238
23914	4.6859	0.18182	0.1	-0.31147
23915	4.594	9.0909e-002	0.1	-0.2363
23916	4.594	0.45455	0.1	-0.17968
23917	4.6859	0.36364	0.1	-0.27061
23918	4.594	0.63636	0.1	-8.1102e-002
23919	4.6859	0.54545	0.1	-8.5078e-002
23920	4.594	0.81818	0.1	-6.2794e-002
23921	4.6859	0.72727	0.1	-7.4013e-002
23922	4.594	1.	0.1	-4.245e-002
23923	4.6859	0.90909	0.1	-4.7996e-002
23924	4.594	1.1818	0.1	-2.9245e-002
23925	4.6859	1.0909	0.1	-3.4266e-002
23926	4.594	1.3636	0.1	-1.8292e-002
23927	4.6859	1.2727	0.1	-2.2363e-002
23928	4.594	1.5455	0.1	-9.5022e-003
23929	4.6859	1.4545	0.1	-1.3106e-002
23930	4.594	1.7273	0.1	-2.2214e-003
23931	4.6859	1.6364	0.1	-5.4148e-003
23932	4.594	1.9091	0.1	3.7732e-003
23933	4.6859	1.8182	0.1	9.2054e-004
23934	4.594	2.0909	0.1	8.6628e-003
23935	4.6859	2.	0.1	6.1334e-003
23936	4.594	2.2727	0.1	1.2553e-002
23937	4.6859	2.1818	0.1	1.0344e-002
23938	4.594	2.4545	0.1	1.5515e-002
23939	4.6859	2.3636	0.1	1.3635e-002
23940	4.594	2.6364	0.1	1.76e-002
23941	4.6859	2.5455	0.1	1.6061e-002
23942	4.594	2.8182	0.1	1.8839e-002
23943	4.6859	2.7273	0.1	1.7661e-002
23944	4.594	3.	0.1	1.925e-002
23945	4.6859	2.9091	0.1	1.8455e-002
23946	4.594	3.1818	0.1	1.8839e-002
23947	4.6859	3.0909	0.1	1.8455e-002
23948	4.594	3.3636	0.1	1.76e-002
23949	4.6859	3.2727	0.1	1.7661e-002
23950	4.594	3.5455	0.1	1.5515e-002
23951	4.6859	3.4545	0.1	1.6061e-002
23952	4.594	3.7273	0.1	1.2553e-002
23953	4.6859	3.6364	0.1	1.3636e-002
23954	4.594	3.9091	0.1	8.6632e-003
23955	4.6859	3.8182	0.1	1.0344e-002
23956	4.594	4.0909	0.1	3.7737e-003
23957	4.6859	4.	0.1	6.1339e-003
23958	4.594	4.2727	0.1	-2.2209e-003
23959	4.6859	4.1818	0.1	9.2104e-004
23960	4.594	4.4545	0.1	-9.5015e-003
23961	4.6859	4.3636	0.1	-5.4142e-003
23962	4.594	4.6364	0.1	-1.8291e-002
23963	4.6859	4.5455	0.1	-1.3105e-002
23964	4.594	4.8182	0.1	-2.9244e-002
23965	4.6859	4.7273	0.1	-2.2362e-002
23966	4.594	5.	0.1	-4.2449e-002
23967	4.6859	4.9091	0.1	-3.4265e-002
23968	4.594	5.1818	0.1	-6.2793e-002
23969	4.6859	5.0909	0.1	-4.7995e-002
23970	4.594	5.3636	0.1	-8.1102e-002
23971	4.6859	5.2727	0.1	-7.4012e-002
23972	4.594	5.5455	0.1	-0.17968
23973	4.6859	5.4545	0.1	-8.5078e-002
23974	4.594	5.7273	0.1	-0.26238
23975	4.6859	5.6364	0.1	-0.27061
23976	4.6859	5.8182	0.1	-0.31146
23977	4.594	5.9091	0.1	-0.2363
23978	4.7778	0.27273	0.1	-0.23586
23979	4.8697	0.18182	0.1	-0.27498
23980	4.7778	9.0909e-002	0.1	-0.21978
23981	4.7778	0.45455	0.1	-0.16376
23982	4.8697	0.36364	0.1	-0.24698
23983	4.7778	0.63636	0.1	-7.3653e-002
23984	4.8697	0.54545	0.1	-7.7071e-002
23985	4.7778	0.81818	0.1	-5.7182e-002
23986	4.8697	0.72727	0.1	-6.7406e-002
23987	4.7778	1.	0.1	-3.8666e-002
23988	4.8697	0.90909	0.1	-4.3707e-002
23989	4.7778	1.1818	0.1	-2.6656e-002
23990	4.8697	1.0909	0.1	-3.124e-002
23991	4.7778	1.3636	0.1	-1.6671e-002
23992	4.8697	1.2727	0.1	-2.0398e-002
23993	4.7778	1.5455	0.1	-8.6426e-003
23994	4.8697	1.4545	0.1	-1.1956e-002
23995	4.7778	1.7273	0.1	-1.9778e-003
23996	4.8697	1.6364	0.1	-4.9271e-003
23997	4.7778	1.9091	0.1	3.5231e-003
23998	4.8697	1.8182	0.1	8.7466e-004
23999	4.7778	2.0909	0.1	8.0216e-003
24000	4.8697	2.	0.1	5.6597e-003
24001	4.7778	2.2727	0.1	1.1609e-002
24002	4.8697	2.1818	0.1	9.5338e-003
24003	4.7778	2.4545	0.1	1.4348e-002
24004	4.8697	2.3636	0.1	1.2569e-002
24005	4.7778	2.6364	0.1	1.6278e-002
24006	4.8697	2.5455	0.1	1.4809e-002
24007	4.7778	2.8182	0.1	1.7427e-002
24008	4.8697	2.7273	0.1	1.6289e-002
24009	4.7778	3.	0.1	1.7809e-002
24010	4.8697	2.9091	0.1	1.7025e-002
24011	4.7778	3.1818	0.1	1.7428e-002
24012	4.8697	3.0909	0.1	1.7025e-002
24013	4.7778	3.3636	0.1	1.6278e-002
24014	4.8697	3.2727	0.1	1.6289e-002
24015	4.7778	3.5455	0.1	1.4348e-002
24016	4.8697	3.4545	0.1	1.481e-002
24017	4.7778	3.7273	0.1	1.161e-002
24018	4.8697	3.6364	0.1	1.2569e-002
24019	4.7778	3.9091	0.1	8.022e-003
24020	4.8697	3.8182	0.1	9.5342e-003
24021	4.7778	4.0909	0.1	3.5236e-003
24022	4.8697	4.	0.1	5.6602e-003
24023	4.7778	4.2727	0.1	-1.9773e-003
24024	4.8697	4.1818	0.1	8.7521e-004
24025	4.7778	4.4545	0.1	-8.642e-003
24026	4.8697	4.3636	0.1	-4.9266e-003
24027	4.7778	4.6364	0.1	-1.667e-002
24028	4.8697	4.5455	0.1	-1.1955e-002
24029	4.7778	4.8182	0.1	-2.6655e-002
24030	4.8697	4.7273	0.1	-2.0397e-002
24031	4.7778	5.	0.1	-3.8665e-002
24032	4.8697	4.9091	0.1	-3.1239e-002
24033	4.7778	5.1818	0.1	-5.7181e-002
24034	4.8697	5.0909	0.1	-4.3705e-002
24035	4.7778	5.3636	0.1	-7.3652e-002
24036	4.8697	5.2727	0.1	-6.7406e-002
24037	4.7778	5.5455	0.1	-0.16376
24038	4.8697	5.4545	0.1	-7.7071e-002
24039	4.7778	5.7273	0.1	-0.23586
24040	4.8697	5.6364	0.1	-0.24697
24041	4.8697	5.8182	0.1	-0.27498
24042	4.7778	5.9091	0.1	-0.21978
24043	4.9615	0.27273	0.1	-0.21245
24044	5.0534	0.18182	0.1	-0.24417
24045	4.9615	9.0909e-002	0.1	-0.20486
24046	4.9615	0.45455	0.1	-0.1493
24047	5.0534	0.36364	0.1	-0.22548
24048	4.9615	0.63636	0.1	-6.6917e-002
24049	5.0534	0.54545	0.1	-6.9854e-002
24050	4.9615	0.81818	0.1	-5.2096e-002
24051	5.0534	0.72727	0.1	-6.1413e-002
24052	4.9615	1.	0.1	-3.5246e-002
24053	5.0534	0.90909	0.1	-3.9826e-002
24054	4.9615	1.1818	0.1	-2.4325e-002
24055	5.0534	1.0909	0.1	-2.851e-002
24056	4.9615	1.3636	0.1	-1.5226e-002
24057	5.0534	1.2727	0.1	-1.8638e-002
24058	4.9615	1.5455	0.1	-7.9012e-003
24059	5.0534	1.4545	0.1	-1.0945e-002
24060	4.9615	1.7273	0.1	-1.8086e-003
24061	5.0534	1.6364	0.1	-4.5286e-003
24062	4.9615	1.9091	0.1	3.2298e-003
24063	5.0534	1.8182	0.1	7.7659e-004
24064	4.9615	2.0909	0.1	7.3585e-003
24065	5.0534	2.	0.1	5.1599e-003
24066	4.9615	2.2727	0.1	1.0658e-002
24067	5.0534	2.1818	0.1	8.7155e-003
24068	4.9615	2.4545	0.1	1.3181e-002
24069	5.0534	2.3636	0.1	1.1506e-002
24070	4.9615	2.6364	0.1	1.4961e-002
24071	5.0534	2.5455	0.1	1.3568e-002
24072	4.9615	2.8182	0.1	1.6023e-002
24073	5.0534	2.7273	0.1	1.4933e-002
24074	4.9615	3.	0.1	1.6375e-002
24075	5.0534	2.9091	0.1	1.5611e-002
24076	4.9615	3.1818	0.1	1.6023e-002
24077	5.0534	3.0909	0.1	1.5611e-002
24078	4.9615	3.3636	0.1	1.4962e-002
24079	5.0534	3.2727	0.1	1.4933e-002
24080	4.9615	3.5455	0.1	1.3181e-002
24081	5.0534	3.4545	0.1	1.3569e-002
24082	4.9615	3.7273	0.1	1.0658e-002
24083	5.0534	3.6364	0.1	1.1506e-002
24084	4.9615	3.9091	0.1	7.3589e-003
24085	5.0534	3.8182	0.1	8.7159e-003
24086	4.9615	4.0909	0.1	3.2303e-003
24087	5.0534	4.	0.1	5.1604e-003
24088	4.9615	4.2727	0.1	-1.8081e-003
24089	5.0534	4.1818	0.1	7.7711e-004
24090	4.9615	4.4545	0.1	-7.9007e-003
24091	5.0534	4.3636	0.1	-4.528e-003
24092	4.9615	4.6364	0.1	-1.5226e-002
24093	5.0534	4.5455	0.1	-1.0944e-002
24094	4.9615	4.8182	0.1	-2.4324e-002
24095	5.0534	4.7273	0.1	-1.8637e-002
24096	4.9615	5.	0.1	-3.5245e-002
24097	5.0534	4.9091	0.1	-2.8509e-002
24098	4.9615	5.1818	0.1	-5.2095e-002
24099	5.0534	5.0909	0.1	-3.9825e-002
24100	4.9615	5.3636	0.1	-6.6917e-002
24101	5.0534	5.2727	0.1	-6.1413e-002
24102	4.9615	5.5455	0.1	-0.1493
24103	5.0534	5.4545	0.1	-6.9854e-002
24104	4.9615	5.7273	0.1	-0.21245
24105	5.0534	5.6364	0.1	-0.22547
24106	5.0534	5.8182	0.1	-0.24417
24107	4.9615	5.9091	0.1	-0.20486
24108	5.1453	0.27273	0.1	-0.19173
24109	5.2372	0.18182	0.1	-0.21809
24110	5.1453	9.0909e-002	0.1	-0.19141
24111	5.1453	0.45455	0.1	-0.13614
24112	5.2372	0.36364	0.1	-0.20589
24113	5.1453	0.63636	0.1	-6.0823e-002
24114	5.2372	0.54545	0.1	-6.3337e-002
24115	5.1453	0.81818	0.1	-4.7486e-002
24116	5.2372	0.72727	0.1	-5.5969e-002
24117	5.1453	1.	0.1	-3.2155e-002
24118	5.2372	0.90909	0.1	-3.6311e-002
24119	5.1453	1.1818	0.1	-2.2229e-002
24120	5.2372	1.0909	0.1	-2.6042e-002
24121	5.1453	1.3636	0.1	-1.3944e-002
24122	5.2372	1.2727	0.1	-1.706e-002
24123	5.1453	1.5455	0.1	-7.2662e-003
24124	5.2372	1.4545	0.1	-1.0054e-002
24125	5.1453	1.7273	0.1	-1.7034e-003
24126	5.2372	1.6364	0.1	-4.2031e-003
24127	5.1453	1.9091	0.1	2.9038e-003
24128	5.2372	1.8182	0.1	6.4124e-004
24129	5.1453	2.0909	0.1	6.6852e-003
24130	5.2372	2.	0.1	4.6495e-003
24131	5.1453	2.2727	0.1	9.7118e-003
24132	5.2372	2.1818	0.1	7.9058e-003
24133	5.1453	2.4545	0.1	1.2029e-002
24134	5.2372	2.3636	0.1	1.0464e-002
24135	5.1453	2.6364	0.1	1.3667e-002
24136	5.2372	2.5455	0.1	1.2358e-002
24137	5.1453	2.8182	0.1	1.4643e-002
24138	5.2372	2.7273	0.1	1.3611e-002
24139	5.1453	3.	0.1	1.4968e-002
24140	5.2372	2.9091	0.1	1.4236e-002
24141	5.1453	3.1818	0.1	1.4644e-002
24142	5.2372	3.0909	0.1	1.4236e-002
24143	5.1453	3.3636	0.1	1.3667e-002
24144	5.2372	3.2727	0.1	1.3612e-002
24145	5.1453	3.5455	0.1	1.2029e-002
24146	5.2372	3.4545	0.1	1.2358e-002
24147	5.1453	3.7273	0.1	9.7121e-003
24148	5.2372	3.6364	0.1	1.0464e-002
24149	5.1453	3.9091	0.1	6.6856e-003
24150	5.2372	3.8182	0.1	7.9062e-003
24151	5.1453	4.0909	0.1	2.9042e-003
24152	5.2372	4.	0.1	4.6499e-003
24153	5.1453	4.2727	0.1	-1.7028e-003
24154	5.2372	4.1818	0.1	6.417e-004
24155	5.1453	4.4545	0.1	-7.2655e-003
24156	5.2372	4.3636	0.1	-4.2024e-003
24157	5.1453	4.6364	0.1	-1.3944e-002
24158	5.2372	4.5455	0.1	-1.0054e-002
24159	5.1453	4.8182	0.1	-2.2228e-002
24160	5.2372	4.7273	0.1	-1.7059e-002
24161	5.1453	5.	0.1	-3.2154e-002
24162	5.2372	4.9091	0.1	-2.6042e-002
24163	5.1453	5.1818	0.1	-4.7486e-002
24164	5.2372	5.0909	0.1	-3.631e-002
24165	5.1453	5.3636	0.1	-6.0823e-002
24166	5.2372	5.2727	0.1	-5.5968e-002
24167	5.1453	5.5455	0.1	-0.13614
24168	5.2372	5.4545	0.1	-6.3337e-002
24169	5.1453	5.7273	0.1	-0.19172
24170	5.2372	5.6364	0.1	-0.20589
24171	5.2372	5.8182	0.1	-0.21809
24172	5.1453	5.9091	0.1	-0.1914
24173	5.3291	0.27273	0.1	-0.17333
24174	5.4209	0.18182	0.1	-0.19599
24175	5.3291	9.0909e-002	0.1	-0.17928
24176	5.3291	0.45455	0.1	-0.12416
24177	5.4209	0.36364	0.1	-0.18802
24178	5.3291	0.63636	0.1	-5.5295e-002
24179	5.4209	0.54545	0.1	-5.744e-002
24180	5.3291	0.81818	0.1	-4.3296e-002
24181	5.4209	0.72727	0.1	-5.1015e-002
24182	5.3291	1.	0.1	-2.9353e-002
24183	5.4209	0.90909	0.1	-3.312e-002
24184	5.3291	1.1818	0.1	-2.0336e-002
24185	5.4209	1.0909	0.1	-2.3808e-002
24186	5.3291	1.3636	0.1	-1.2797e-002
24187	5.4209	1.2727	0.1	-1.5639e-002
24188	5.3291	1.5455	0.1	-6.715e-003
24189	5.4209	1.4545	0.1	-9.2655e-003
24190	5.3291	1.7273	0.1	-1.642e-003
24191	5.4209	1.6364	0.1	-3.9355e-003
24192	5.3291	1.9091	0.1	2.5647e-003
24193	5.4209	1.8182	0.1	4.8235e-004
24194	5.3291	2.0909	0.1	6.0218e-003
24195	5.4209	2.	0.1	4.1421e-003
24196	5.3291	2.2727	0.1	8.7922e-003
24197	5.4209	2.1818	0.1	7.1185e-003
24198	5.3291	2.4545	0.1	1.0915e-002
24199	5.4209	2.3636	0.1	9.4595e-003
24200	5.3291	2.6364	0.1	1.2417e-002
24201	5.4209	2.5455	0.1	1.1194e-002
24202	5.3291	2.8182	0.1	1.3314e-002
24203	5.4209	2.7273	0.1	1.2343e-002
24204	5.3291	3.	0.1	1.3612e-002
24205	5.4209	2.9091	0.1	1.2915e-002
24206	5.3291	3.1818	0.1	1.3314e-002
24207	5.4209	3.0909	0.1	1.2915e-002
24208	5.3291	3.3636	0.1	1.2418e-002
24209	5.4209	3.2727	0.1	1.2343e-002
24210	5.3291	3.5455	0.1	1.0916e-002
24211	5.4209	3.4545	0.1	1.1194e-002
24212	5.3291	3.7273	0.1	8.7925e-003
24213	5.4209	3.6364	0.1	9.4598e-003
24214	5.3291	3.9091	0.1	6.0222e-003
24215	5.4209	3.8182	0.1	7.1189e-003
24216	5.3291	4.0909	0.1	2.5651e-003
24217	5.4209	4.	0.1	4.1424e-003
24218	5.3291	4.2727	0.1	-1.6414e-003
24219	5.4209	4.1818	0.1	4.8284e-004
24220	5.3291	4.4545	0.1	-6.7144e-003
24221	5.4209	4.3636	0.1	-3.9348e-003
24222	5.3291	4.6364	0.1	-1.2797e-002
24223	5.4209	4.5455	0.1	-9.2649e-003
24224	5.3291	4.8182	0.1	-2.0336e-002
24225	5.4209	4.7273	0.1	-1.5638e-002
24226	5.3291	5.	0.1	-2.9352e-002
24227	5.4209	4.9091	0.1	-2.3807e-002
24228	5.3291	5.1818	0.1	-4.3295e-002
24229	5.4209	5.0909	0.1	-3.3119e-002
24230	5.3291	5.3636	0.1	-5.5295e-002
24231	5.4209	5.2727	0.1	-5.1014e-002
24232	5.3291	5.5455	0.1	-0.12415
24233	5.4209	5.4545	0.1	-5.744e-002
24234	5.3291	5.7273	0.1	-0.17333
24235	5.4209	5.6364	0.1	-0.18802
24236	5.4209	5.8182	0.1	-0.19598
24237	5.3291	5.9091	0.1	-0.17928
24238	5.5128	0.27273	0.1	-0.15697
24239	5.6047	0.18182	0.1	-0.17725
24240	5.5128	9.0909e-002	0.1	-0.16841
24241	5.5128	0.45455	0.1	-0.11322
24242	5.6047	0.36364	0.1	-0.17171
24243	5.5128	0.63636	0.1	-5.0275e-002
24244	5.6047	0.54545	0.1	-5.2101e-002
24245	5.5128	0.81818	0.1	-3.9485e-002
24246	5.6047	0.72727	0.1	-4.6506e-002
24247	5.5128	1.	0.1	-2.6811e-002
24248	5.6047	0.90909	0.1	-3.0225e-002
24249	5.5128	1.1818	0.1	-1.8626e-002
24250	5.6047	1.0909	0.1	-2.1786e-002
24251	5.5128	1.3636	0.1	-1.1771e-002
24252	5.6047	1.2727	0.1	-1.4364e-002
24253	5.5128	1.5455	0.1	-6.2368e-003
24254	5.6047	1.4545	0.1	-8.5703e-003
24255	5.5128	1.7273	0.1	-1.6158e-003
24256	5.6047	1.6364	0.1	-3.72e-003
24257	5.5128	1.9091	0.1	2.22e-003
24258	5.6047	1.8182	0.1	3.0375e-004
24259	5.5128	2.0909	0.1	5.3755e-003
24260	5.6047	2.	0.1	3.6404e-003
24261	5.5128	2.2727	0.1	7.9065e-003
24262	5.6047	2.1818	0.1	6.3564e-003
24263	5.5128	2.4545	0.1	9.8481e-003
24264	5.6047	2.3636	0.1	8.4946e-003
24265	5.5128	2.6364	0.1	1.1223e-002
24266	5.6047	2.5455	0.1	1.008e-002
24267	5.5128	2.8182	0.1	1.2043e-002
24268	5.6047	2.7273	0.1	1.113e-002
24269	5.5128	3.	0.1	1.2316e-002
24270	5.6047	2.9091	0.1	1.1654e-002
24271	5.5128	3.1818	0.1	1.2043e-002
24272	5.6047	3.0909	0.1	1.1654e-002
24273	5.5128	3.3636	0.1	1.1223e-002
24274	5.6047	3.2727	0.1	1.113e-002
24275	5.5128	3.5455	0.1	9.8484e-003
24276	5.6047	3.4545	0.1	1.008e-002
24277	5.5128	3.7273	0.1	7.907e-003
24278	5.6047	3.6364	0.1	8.495e-003
24279	5.5128	3.9091	0.1	5.3759e-003
24280	5.6047	3.8182	0.1	6.3568e-003
24281	5.5128	4.0909	0.1	2.2204e-003
24282	5.6047	4.	0.1	3.6407e-003
24283	5.5128	4.2727	0.1	-1.6152e-003
24284	5.6047	4.1818	0.1	3.043e-004
24285	5.5128	4.4545	0.1	-6.2361e-003
24286	5.6047	4.3636	0.1	-3.7193e-003
24287	5.5128	4.6364	0.1	-1.1771e-002
24288	5.6047	4.5455	0.1	-8.5696e-003
24289	5.5128	4.8182	0.1	-1.8625e-002
24290	5.6047	4.7273	0.1	-1.4363e-002
24291	5.5128	5.	0.1	-2.681e-002
24292	5.6047	4.9091	0.1	-2.1785e-002
24293	5.5128	5.1818	0.1	-3.9484e-002
24294	5.6047	5.0909	0.1	-3.0223e-002
24295	5.5128	5.3636	0.1	-5.0275e-002
24296	5.6047	5.2727	0.1	-4.6505e-002
24297	5.5128	5.5455	0.1	-0.11322
24298	5.6047	5.4545	0.1	-5.21e-002
24299	5.5128	5.7273	0.1	-0.15697
24300	5.6047	5.6364	0.1	-0.17171
24301	5.6047	5.8182	0.1	-0.17725
24302	5.5128	5.9091	0.1	-0.1684
24303	5.6966	0.27273	0.1	-0.1424
24304	5.7885	0.18182	0.1	-0.16142
24305	5.6966	9.0909e-002	0.1	-0.15871
24306	5.6966	0.45455	0.1	-0.10325
24307	5.7885	0.36364	0.1	-0.15682
24308	5.6966	0.63636	0.1	-4.5719e-002
24309	5.7885	0.54545	0.1	-4.7264e-002
24310	5.6966	0.81818	0.1	-3.6021e-002
24311	5.7885	0.72727	0.1	-4.2403e-002
24312	5.6966	1.	0.1	-2.451e-002
24313	5.7885	0.90909	0.1	-2.76e-002
24314	5.6966	1.1818	0.1	-1.7086e-002
24315	5.7885	1.0909	0.1	-1.996e-002
24316	5.6966	1.3636	0.1	-1.086e-002
24317	5.7885	1.2727	0.1	-1.3222e-002
24318	5.6966	1.5455	0.1	-5.8288e-003
24319	5.7885	1.4545	0.1	-7.9615e-003
24320	5.6966	1.7273	0.1	-1.6243e-003
24321	5.7885	1.6364	0.1	-3.5526e-003
24322	5.6966	1.9091	0.1	1.8686e-003
24323	5.7885	1.8182	0.1	1.078e-004
24324	5.6966	2.0909	0.1	4.7446e-003
24325	5.7885	2.	0.1	3.1455e-003
24326	5.6966	2.2727	0.1	7.0533e-003
24327	5.7885	2.1818	0.1	5.6204e-003
24328	5.6966	2.4545	0.1	8.8254e-003
24329	5.7885	2.3636	0.1	7.5699e-003
24330	5.6966	2.6364	0.1	1.008e-002
24331	5.7885	2.5455	0.1	9.0159e-003
24332	5.6966	2.8182	0.1	1.083e-002
24333	5.7885	2.7273	0.1	9.9747e-003
24334	5.6966	3.	0.1	1.108e-002
24335	5.7885	2.9091	0.1	1.0453e-002
24336	5.6966	3.1818	0.1	1.0831e-002
24337	5.7885	3.0909	0.1	1.0453e-002
24338	5.6966	3.3636	0.1	1.0081e-002
24339	5.7885	3.2727	0.1	9.9749e-003
24340	5.6966	3.5455	0.1	8.8257e-003
24341	5.7885	3.4545	0.1	9.0161e-003
24342	5.6966	3.7273	0.1	7.0537e-003
24343	5.7885	3.6364	0.1	7.5702e-003
24344	5.6966	3.9091	0.1	4.7449e-003
24345	5.7885	3.8182	0.1	5.6207e-003
24346	5.6966	4.0909	0.1	1.869e-003
24347	5.7885	4.	0.1	3.1458e-003
24348	5.6966	4.2727	0.1	-1.6237e-003
24349	5.7885	4.1818	0.1	1.0829e-004
24350	5.6966	4.4545	0.1	-5.828e-003
24351	5.7885	4.3636	0.1	-3.5519e-003
24352	5.6966	4.6364	0.1	-1.0859e-002
24353	5.7885	4.5455	0.1	-7.9607e-003
24354	5.6966	4.8182	0.1	-1.7086e-002
24355	5.7885	4.7273	0.1	-1.3222e-002
24356	5.6966	5.	0.1	-2.4509e-002
24357	5.7885	4.9091	0.1	-1.9959e-002
24358	5.6966	5.1818	0.1	-3.602e-002
24359	5.7885	5.0909	0.1	-2.7598e-002
24360	5.6966	5.3636	0.1	-4.5718e-002
24361	5.7885	5.2727	0.1	-4.2402e-002
24362	5.6966	5.5455	0.1	-0.10325
24363	5.7885	5.4545	0.1	-4.7264e-002
24364	5.6966	5.7273	0.1	-0.1424
24365	5.7885	5.6364	0.1	-0.15681
24366	5.7885	5.8182	0.1	-0.16142
24367	5.6966	5.9091	0.1	-0.15871
24368	5.8803	0.27273	0.1	-0.12941
24369	5.9722	0.18182	0.1	-0.14809
24370	5.8803	9.0909e-002	0.1	-0.15016
24371	5.8803	0.45455	0.1	-9.4142e-002
24372	5.9722	0.36364	0.1	-0.14319
24373	5.8803	0.63636	0.1	-4.1581e-002
24374	5.9722	0.54545	0.1	-4.2874e-002
24375	5.8803	0.81818	0.1	-3.2874e-002
24376	5.9722	0.72727	0.1	-3.8662e-002
24377	5.8803	1.	0.1	-2.2427e-002
24378	5.9722	0.90909	0.1	-2.5215e-002
24379	5.8803	1.1818	0.1	-1.5701e-002
24380	5.9722	1.0909	0.1	-1.8305e-002
24381	5.8803	1.3636	0.1	-1.0051e-002
24382	5.9722	1.2727	0.1	-1.2196e-002
24383	5.8803	1.5455	0.1	-5.4827e-003
24384	5.9722	1.4545	0.1	-7.4245e-003
24385	5.8803	1.7273	0.1	-1.6618e-003
24386	5.9722	1.6364	0.1	-3.4217e-003
24387	5.8803	1.9091	0.1	1.5148e-003
24388	5.9722	1.8182	0.1	-9.6115e-005
24389	5.8803	2.0909	0.1	4.1322e-003
24390	5.9722	2.	0.1	2.6656e-003
24391	5.8803	2.2727	0.1	6.2349e-003
24392	5.9722	2.1818	0.1	4.9174e-003
24393	5.8803	2.4545	0.1	7.8496e-003
24394	5.9722	2.3636	0.1	6.6922e-003
24395	5.8803	2.6364	0.1	8.9938e-003
24396	5.9722	2.5455	0.1	8.009e-003
24397	5.8803	2.8182	0.1	9.6777e-003
24398	5.9722	2.7273	0.1	8.8827e-003
24399	5.8803	3.	0.1	9.9053e-003
24400	5.9722	2.9091	0.1	9.3185e-003
24401	5.8803	3.1818	0.1	9.6777e-003
24402	5.9722	3.0909	0.1	9.3185e-003
24403	5.8803	3.3636	0.1	8.9939e-003
24404	5.9722	3.2727	0.1	8.8829e-003
24405	5.8803	3.5455	0.1	7.8499e-003
24406	5.9722	3.4545	0.1	8.0093e-003
24407	5.8803	3.7273	0.1	6.2352e-003
24408	5.9722	3.6364	0.1	6.6925e-003
24409	5.8803	3.9091	0.1	4.1326e-003
24410	5.9722	3.8182	0.1	4.9178e-003
24411	5.8803	4.0909	0.1	1.5152e-003
24412	5.9722	4.	0.1	2.666e-003
24413	5.8803	4.2727	0.1	-1.6612e-003
24414	5.9722	4.1818	0.1	-9.5669e-005
24415	5.8803	4.4545	0.1	-5.482e-003
24416	5.9722	4.3636	0.1	-3.4211e-003
24417	5.8803	4.6364	0.1	-1.005e-002
24418	5.9722	4.5455	0.1	-7.4238e-003
24419	5.8803	4.8182	0.1	-1.57e-002
24420	5.9722	4.7273	0.1	-1.2195e-002
24421	5.8803	5.	0.1	-2.2426e-002
24422	5.9722	4.9091	0.1	-1.8305e-002
24423	5.8803	5.1818	0.1	-3.2873e-002
24424	5.9722	5.0909	0.1	-2.5213e-002
24425	5.8803	5.3636	0.1	-4.158e-002
24426	5.9722	5.2727	0.1	-3.8662e-002
24427	5.8803	5.5455	0.1	-9.4141e-002
24428	5.9722	5.4545	0.1	-4.2874e-002
24429	5.8803	5.7273	0.1	-0.12941
24430	5.9722	5.6364	0.1	-0.14319
24431	5.9722	5.8182	0.1	-0.14809
24432	5.8803	5.9091	0.1	-0.15016
24433	6.0641	0.27273	0.1	-0.11781
24434	6.156	0.18182	0.1	-0.13698
24435	6.0641	9.0909e-002	0.1	-0.14273
24436	6.0641	0.45455	0.1	-8.5814e-002
24437	6.156	0.36364	0.1	-0.13073
24438	6.0641	0.63636	0.1	-3.7809e-002
24439	6.156	0.54545	0.1	-3.8884e-002
24440	6.0641	0.81818	0.1	-3.0002e-002
24441	6.156	0.72727	0.1	-3.5249e-002
24442	6.0641	1.	0.1	-2.0531e-002
24443	6.156	0.90909	0.1	-2.3044e-002
24444	6.0641	1.1818	0.1	-1.4445e-002
24445	6.156	1.0909	0.1	-1.6804e-002
24446	6.0641	1.3636	0.1	-9.3236e-003
24447	6.156	1.2727	0.1	-1.1271e-002
24448	6.0641	1.5455	0.1	-5.181e-003
24449	6.156	1.4545	0.1	-6.949e-003
24450	6.0641	1.7273	0.1	-1.7131e-003
24451	6.156	1.6364	0.1	-3.3197e-003
24452	6.0641	1.9091	0.1	1.1718e-003
24453	6.156	1.8182	0.1	-3.0235e-004
24454	6.0641	2.0909	0.1	3.5507e-003
24455	6.156	2.	0.1	2.2052e-003
24456	6.0641	2.2727	0.1	5.4628e-003
24457	6.156	2.1818	0.1	4.2509e-003
24458	6.0641	2.4545	0.1	6.9319e-003
24459	6.156	2.3636	0.1	5.8642e-003
24460	6.0641	2.6364	0.1	7.9732e-003
24461	6.156	2.5455	0.1	7.0615e-003
24462	6.0641	2.8182	0.1	8.5959e-003
24463	6.156	2.7273	0.1	7.8564e-003
24464	6.0641	3.	0.1	8.8031e-003
24465	6.156	2.9091	0.1	8.2528e-003
24466	6.0641	3.1818	0.1	8.596e-003
24467	6.156	3.0909	0.1	8.2529e-003
24468	6.0641	3.3636	0.1	7.9734e-003
24469	6.156	3.2727	0.1	7.8564e-003
24470	6.0641	3.5455	0.1	6.9322e-003
24471	6.156	3.4545	0.1	7.0618e-003
24472	6.0641	3.7273	0.1	5.4632e-003
24473	6.156	3.6364	0.1	5.8645e-003
24474	6.0641	3.9091	0.1	3.5511e-003
24475	6.156	3.8182	0.1	4.2513e-003
24476	6.0641	4.0909	0.1	1.1723e-003
24477	6.156	4.	0.1	2.2056e-003
24478	6.0641	4.2727	0.1	-1.7127e-003
24479	6.156	4.1818	0.1	-3.0185e-004
24480	6.0641	4.4545	0.1	-5.1804e-003
24481	6.156	4.3636	0.1	-3.3191e-003
24482	6.0641	4.6364	0.1	-9.3228e-003
24483	6.156	4.5455	0.1	-6.9483e-003
24484	6.0641	4.8182	0.1	-1.4444e-002
24485	6.156	4.7273	0.1	-1.127e-002
24486	6.0641	5.	0.1	-2.053e-002
24487	6.156	4.9091	0.1	-1.6803e-002
24488	6.0641	5.1818	0.1	-3.0001e-002
24489	6.156	5.0909	0.1	-2.3042e-002
24490	6.0641	5.3636	0.1	-3.7809e-002
24491	6.156	5.2727	0.1	-3.5248e-002
24492	6.0641	5.5455	0.1	-8.5813e-002
24493	6.156	5.4545	0.1	-3.8884e-002
24494	6.0641	5.7273	0.1	-0.11781
24495	6.156	5.6364	0.1	-0.13073
24496	6.156	5.8182	0.1	-0.13698
24497	6.0641	5.9091	0.1	-0.14273
24498	6.2479	0.27273	0.1	-0.10744
24499	6.3397	0.18182	0.1	-0.12787
24500	6.2479	9.0909e-002	0.1	-0.13643
24501	6.2479	0.45455	0.1	-7.8197e-002
24502	6.3397	0.36364	0.1	-0.11931
24503	6.2479	0.63636	0.1	-3.4375e-002
24504	6.3397	0.54545	0.1	-3.5256e-002
24505	6.2479	0.81818	0.1	-2.7385e-002
24506	6.3397	0.72727	0.1	-3.2134e-002
24507	6.2479	1.	0.1	-1.8809e-002
24508	6.3397	0.90909	0.1	-2.1069e-002
24509	6.2479	1.1818	0.1	-1.331e-002
24510	6.3397	1.0909	0.1	-1.5443e-002
24511	6.2479	1.3636	0.1	-8.675e-003
24512	6.3397	1.2727	0.1	-1.044e-002
24513	6.2479	1.5455	0.1	-4.9235e-003
24514	6.3397	1.4545	0.1	-6.5306e-003
24515	6.2479	1.7273	0.1	-1.7804e-003
24516	6.3397	1.6364	0.1	-3.2446e-003
24517	6.2479	1.9091	0.1	8.3626e-004
24518	6.3397	1.8182	0.1	-5.1087e-004
24519	6.2479	2.0909	0.1	2.9952e-003
24520	6.3397	2.	0.1	1.7624e-003
24521	6.2479	2.2727	0.1	4.7315e-003
24522	6.3397	2.1818	0.1	3.6183e-003
24523	6.2479	2.4545	0.1	6.0659e-003
24524	6.3397	2.3636	0.1	5.0826e-003
24525	6.2479	2.6364	0.1	7.0122e-003
24526	6.3397	2.5455	0.1	6.1696e-003
24527	6.2479	2.8182	0.1	7.5783e-003
24528	6.3397	2.7273	0.1	6.8914e-003
24529	6.2479	3.	0.1	7.7667e-003
24530	6.3397	2.9091	0.1	7.2517e-003
24531	6.2479	3.1818	0.1	7.5784e-003
24532	6.3397	3.0909	0.1	7.2517e-003
24533	6.2479	3.3636	0.1	7.0124e-003
24534	6.3397	3.2727	0.1	6.8916e-003
24535	6.2479	3.5455	0.1	6.0663e-003
24536	6.3397	3.4545	0.1	6.1698e-003
24537	6.2479	3.7273	0.1	4.7318e-003
24538	6.3397	3.6364	0.1	5.0829e-003
24539	6.2479	3.9091	0.1	2.9955e-003
24540	6.3397	3.8182	0.1	3.6187e-003
24541	6.2479	4.0909	0.1	8.3675e-004
24542	6.3397	4.	0.1	1.7628e-003
24543	6.2479	4.2727	0.1	-1.7798e-003
24544	6.3397	4.1818	0.1	-5.1029e-004
24545	6.2479	4.4545	0.1	-4.9229e-003
24546	6.3397	4.3636	0.1	-3.244e-003
24547	6.2479	4.6364	0.1	-8.6742e-003
24548	6.3397	4.5455	0.1	-6.53e-003
24549	6.2479	4.8182	0.1	-1.3309e-002
24550	6.3397	4.7273	0.1	-1.0439e-002
24551	6.2479	5.	0.1	-1.8808e-002
24552	6.3397	4.9091	0.1	-1.5442e-002
24553	6.2479	5.1818	0.1	-2.7384e-002
24554	6.3397	5.0909	0.1	-2.1068e-002
24555	6.2479	5.3636	0.1	-3.4374e-002
24556	6.3397	5.2727	0.1	-3.2133e-002
24557	6.2479	5.5455	0.1	-7.8196e-002
24558	6.3397	5.4545	0.1	-3.5255e-002
24559	6.2479	5.7273	0.1	-0.10744
24560	6.3397	5.6364	0.1	-0.11931
24561	6.3397	5.8182	0.1	-0.12786
24562	6.2479	5.9091	0.1	-0.13643
24563	6.4316	0.27273	0.1	-9.8182e-002
24564	6.5235	0.18182	0.1	-0.1206
24565	6.4316	9.0909e-002	0.1	-0.13134
24566	6.4316	0.45455	0.1	-7.1226e-002
24567	6.5235	0.36364	0.1	-0.10886
24568	6.4316	0.63636	0.1	-3.1245e-002
24569	6.5235	0.54545	0.1	-3.195e-002
24570	6.4316	0.81818	0.1	-2.5e-002
24571	6.5235	0.72727	0.1	-2.9286e-002
24572	6.4316	1.	0.1	-1.7246e-002
24573	6.5235	0.90909	0.1	-1.927e-002
24574	6.4316	1.1818	0.1	-1.2285e-002
24575	6.5235	1.0909	0.1	-1.4206e-002
24576	6.4316	1.3636	0.1	-8.0963e-003
24577	6.5235	1.2727	0.1	-9.6896e-003
24578	6.4316	1.5455	0.1	-4.7043e-003
24579	6.5235	1.4545	0.1	-6.1596e-003
24580	6.4316	1.7273	0.1	-1.8598e-003
24581	6.5235	1.6364	0.1	-3.1892e-003
24582	6.4316	1.9091	0.1	5.0979e-004
24583	6.5235	1.8182	0.1	-7.1617e-004
24584	6.4316	2.0909	0.1	2.4661e-003
24585	6.5235	2.	0.1	1.3416e-003
24586	6.4316	2.2727	0.1	4.0405e-003
24587	6.5235	2.1818	0.1	3.0226e-003
24588	6.4316	2.4545	0.1	5.251e-003
24589	6.5235	2.3636	0.1	4.3495e-003
24590	6.4316	2.6364	0.1	6.1094e-003
24591	6.5235	2.5455	0.1	5.3348e-003
24592	6.4316	2.8182	0.1	6.6232e-003
24593	6.5235	2.7273	0.1	5.9894e-003
24594	6.4316	3.	0.1	6.7943e-003
24595	6.5235	2.9091	0.1	6.3162e-003
24596	6.4316	3.1818	0.1	6.6233e-003
24597	6.5235	3.0909	0.1	6.3162e-003
24598	6.4316	3.3636	0.1	6.1097e-003
24599	6.5235	3.2727	0.1	5.9895e-003
24600	6.4316	3.5455	0.1	5.2511e-003
24601	6.5235	3.4545	0.1	5.3349e-003
24602	6.4316	3.7273	0.1	4.0408e-003
24603	6.5235	3.6364	0.1	4.3497e-003
24604	6.4316	3.9091	0.1	2.4665e-003
24605	6.5235	3.8182	0.1	3.023e-003
24606	6.4316	4.0909	0.1	5.1031e-004
24607	6.5235	4.	0.1	1.3419e-003
24608	6.4316	4.2727	0.1	-1.8591e-003
24609	6.5235	4.1818	0.1	-7.1574e-004
24610	6.4316	4.4545	0.1	-4.7036e-003
24611	6.5235	4.3636	0.1	-3.1885e-003
24612	6.4316	4.6364	0.1	-8.0956e-003
24613	6.5235	4.5455	0.1	-6.1589e-003
24614	6.4316	4.8182	0.1	-1.2284e-002
24615	6.5235	4.7273	0.1	-9.6888e-003
24616	6.4316	5.	0.1	-1.7245e-002
24617	6.5235	4.9091	0.1	-1.4205e-002
24618	6.4316	5.1818	0.1	-2.4999e-002
24619	6.5235	5.0909	0.1	-1.9268e-002
24620	6.4316	5.3636	0.1	-3.1245e-002
24621	6.5235	5.2727	0.1	-2.9286e-002
24622	6.4316	5.5455	0.1	-7.1225e-002
24623	6.5235	5.4545	0.1	-3.195e-002
24624	6.4316	5.7273	0.1	-9.818e-002
24625	6.5235	5.6364	0.1	-0.10885
24626	6.5235	5.8182	0.1	-0.1206
24627	6.4316	5.9091	0.1	-0.13134
24628	6.6154	0.27273	0.1	-8.9909e-002
24629	6.7073	0.18182	0.1	-0.11512
24630	6.6154	9.0909e-002	0.1	-0.12756
24631	6.6154	0.45455	0.1	-6.4836e-002
24632	6.7073	0.36364	0.1	-9.927e-002
24633	6.6154	0.63636	0.1	-2.8385e-002
24634	6.7073	0.54545	0.1	-2.8938e-002
24635	6.6154	0.81818	0.1	-2.2818e-002
24636	6.7073	0.72727	0.1	-2.6684e-002
24637	6.6154	1.	0.1	-1.5819e-002
24638	6.7073	0.90909	0.1	-1.763e-002
24639	6.6154	1.1818	0.1	-1.1352e-002
24640	6.7073	1.0909	0.1	-1.3083e-002
24641	6.6154	1.3636	0.1	-7.5741e-003
24642	6.7073	1.2727	0.1	-9.0132e-003
24643	6.6154	1.5455	0.1	-4.5123e-003
24644	6.7073	1.4545	0.1	-5.8317e-003
24645	6.6154	1.7273	0.1	-1.9422e-003
24646	6.7073	1.6364	0.1	-3.1514e-003
24647	6.6154	1.9091	0.1	2.0027e-004
24648	6.7073	1.8182	0.1	-9.1836e-004
24649	6.6154	2.0909	0.1	1.9702e-003
24650	6.7073	2.	0.1	9.4134e-004
24651	6.6154	2.2727	0.1	3.3952e-003
24652	6.7073	2.1818	0.1	2.4614e-003
24653	6.6154	2.4545	0.1	4.4913e-003
24654	6.7073	2.3636	0.1	3.6618e-003
24655	6.6154	2.6364	0.1	5.2691e-003
24656	6.7073	2.5455	0.1	4.5536e-003
24657	6.6154	2.8182	0.1	5.7347e-003
24658	6.7073	2.7273	0.1	5.1463e-003
24659	6.6154	3.	0.1	5.8897e-003
24660	6.7073	2.9091	0.1	5.4421e-003
24661	6.6154	3.1818	0.1	5.7347e-003
24662	6.7073	3.0909	0.1	5.4423e-003
24663	6.6154	3.3636	0.1	5.2691e-003
24664	6.7073	3.2727	0.1	5.1462e-003
24665	6.6154	3.5455	0.1	4.4916e-003
24666	6.7073	3.4545	0.1	4.5539e-003
24667	6.6154	3.7273	0.1	3.3956e-003
24668	6.7073	3.6364	0.1	3.6622e-003
24669	6.6154	3.9091	0.1	1.9706e-003
24670	6.7073	3.8182	0.1	2.4618e-003
24671	6.6154	4.0909	0.1	2.0056e-004
24672	6.7073	4.	0.1	9.4169e-004
24673	6.6154	4.2727	0.1	-1.9417e-003
24674	6.7073	4.1818	0.1	-9.1792e-004
24675	6.6154	4.4545	0.1	-4.5115e-003
24676	6.7073	4.3636	0.1	-3.1507e-003
24677	6.6154	4.6364	0.1	-7.5732e-003
24678	6.7073	4.5455	0.1	-5.8311e-003
24679	6.6154	4.8182	0.1	-1.1351e-002
24680	6.7073	4.7273	0.1	-9.0123e-003
24681	6.6154	5.	0.1	-1.5818e-002
24682	6.7073	4.9091	0.1	-1.3082e-002
24683	6.6154	5.1818	0.1	-2.2817e-002
24684	6.7073	5.0909	0.1	-1.7628e-002
24685	6.6154	5.3636	0.1	-2.8384e-002
24686	6.7073	5.2727	0.1	-2.6683e-002
24687	6.6154	5.5455	0.1	-6.4835e-002
24688	6.7073	5.4545	0.1	-2.8938e-002
24689	6.6154	5.7273	0.1	-8.9907e-002
24690	6.7073	5.6364	0.1	-9.9268e-002
24691	6.7073	5.8182	0.1	-0.11512
24692	6.6154	5.9091	0.1	-0.12756
24693	6.7991	0.27273	0.1	-8.254e-002
24694	6.891	0.18182	0.1	-0.11146
24695	6.7991	9.0909e-002	0.1	-0.12534
24696	6.7991	0.45455	0.1	-5.8983e-002
24697	6.891	0.36364	0.1	-9.0484e-002
24698	6.7991	0.63636	0.1	-2.5777e-002
24699	6.891	0.54545	0.1	-2.6194e-002
24700	6.7991	0.81818	0.1	-2.083e-002
24701	6.891	0.72727	0.1	-2.4307e-002
24702	6.7991	1.	0.1	-1.4524e-002
24703	6.891	0.90909	0.1	-1.6139e-002
24704	6.7991	1.1818	0.1	-1.0511e-002
24705	6.891	1.0909	0.1	-1.2066e-002
24706	6.7991	1.3636	0.1	-7.1107e-003
24707	6.891	1.2727	0.1	-8.4073e-003
24708	6.7991	1.5455	0.1	-4.3526e-003
24709	6.891	1.4545	0.1	-5.5464e-003
24710	6.7991	1.7273	0.1	-2.0351e-003
24711	6.891	1.6364	0.1	-3.1327e-003
24712	6.7991	1.9091	0.1	-1.016e-004
24713	6.891	1.8182	0.1	-1.1202e-003
24714	6.7991	2.0909	0.1	1.4971e-003
24715	6.891	2.	0.1	5.5724e-004
24716	6.7991	2.2727	0.1	2.7849e-003
24717	6.891	2.1818	0.1	1.9295e-003
24718	6.7991	2.4545	0.1	3.7759e-003
24719	6.891	2.3636	0.1	3.0136e-003
24720	6.7991	2.6364	0.1	4.4793e-003
24721	6.891	2.5455	0.1	3.8193e-003
24722	6.7991	2.8182	0.1	4.9004e-003
24723	6.891	2.7273	0.1	4.3548e-003
24724	6.7991	3.	0.1	5.0408e-003
24725	6.891	2.9091	0.1	4.6223e-003
24726	6.7991	3.1818	0.1	4.9006e-003
24727	6.891	3.0909	0.1	4.6225e-003
24728	6.7991	3.3636	0.1	4.4796e-003
24729	6.891	3.2727	0.1	4.355e-003
24730	6.7991	3.5455	0.1	3.7764e-003
24731	6.891	3.4545	0.1	3.8195e-003
24732	6.7991	3.7273	0.1	2.7854e-003
24733	6.891	3.6364	0.1	3.014e-003
24734	6.7991	3.9091	0.1	1.4975e-003
24735	6.891	3.8182	0.1	1.9298e-003
24736	6.7991	4.0909	0.1	-1.011e-004
24737	6.891	4.	0.1	5.5766e-004
24738	6.7991	4.2727	0.1	-2.0345e-003
24739	6.891	4.1818	0.1	-1.1196e-003
24740	6.7991	4.4545	0.1	-4.352e-003
24741	6.891	4.3636	0.1	-3.132e-003
24742	6.7991	4.6364	0.1	-7.1101e-003
24743	6.891	4.5455	0.1	-5.5458e-003
24744	6.7991	4.8182	0.1	-1.0511e-002
24745	6.891	4.7273	0.1	-8.4065e-003
24746	6.7991	5.	0.1	-1.4523e-002
24747	6.891	4.9091	0.1	-1.2065e-002
24748	6.7991	5.1818	0.1	-2.0828e-002
24749	6.891	5.0909	0.1	-1.6137e-002
24750	6.7991	5.3636	0.1	-2.5776e-002
24751	6.891	5.2727	0.1	-2.4307e-002
24752	6.7991	5.5455	0.1	-5.8982e-002
24753	6.891	5.4545	0.1	-2.6194e-002
24754	6.7991	5.7273	0.1	-8.2538e-002
24755	6.891	5.6364	0.1	-9.0482e-002
24756	6.891	5.8182	0.1	-0.11146
24757	6.7991	5.9091	0.1	-0.12534
24758	6.9829	0.27273	0.1	-7.5997e-002
24759	7.0748	0.18182	0.1	-0.10978
24760	6.9829	9.0909e-002	0.1	-0.12508
24761	6.9829	0.45455	0.1	-5.362e-002
24762	7.0748	0.36364	0.1	-8.2425e-002
24763	6.9829	0.63636	0.1	-2.3398e-002
24764	7.0748	0.54545	0.1	-2.369e-002
24765	6.9829	0.81818	0.1	-1.9017e-002
24766	7.0748	0.72727	0.1	-2.2134e-002
24767	6.9829	1.	0.1	-1.3349e-002
24768	7.0748	0.90909	0.1	-1.478e-002
24769	6.9829	1.1818	0.1	-9.7539e-003
24770	7.0748	1.0909	0.1	-1.1142e-002
24771	6.9829	1.3636	0.1	-6.7001e-003
24772	7.0748	1.2727	0.1	-7.8617e-003
24773	6.9829	1.5455	0.1	-4.221e-003
24774	7.0748	1.4545	0.1	-5.2955e-003
24775	6.9829	1.7273	0.1	-2.1354e-003
24776	7.0748	1.6364	0.1	-3.1269e-003
24777	6.9829	1.9091	0.1	-3.9391e-004
24778	7.0748	1.8182	0.1	-1.317e-003
24779	6.9829	2.0909	0.1	1.0471e-003
24780	7.0748	2.	0.1	1.929e-004
24781	6.9829	2.2727	0.1	2.2089e-003
24782	7.0748	2.1818	0.1	1.4292e-003
24783	6.9829	2.4545	0.1	3.1031e-003
24784	7.0748	2.3636	0.1	2.4064e-003
24785	6.9829	2.6364	0.1	3.7381e-003
24786	7.0748	2.5455	0.1	3.1329e-003
24787	6.9829	2.8182	0.1	4.1185e-003
24788	7.0748	2.7273	0.1	3.616e-003
24789	6.9829	3.	0.1	4.2452e-003
24790	7.0748	2.9091	0.1	3.8575e-003
24791	6.9829	3.1818	0.1	4.1186e-003
24792	7.0748	3.0909	0.1	3.8576e-003
24793	6.9829	3.3636	0.1	3.7382e-003
24794	7.0748	3.2727	0.1	3.6161e-003
24795	6.9829	3.5455	0.1	3.1034e-003
24796	7.0748	3.4545	0.1	3.133e-003
24797	6.9829	3.7273	0.1	2.2092e-003
24798	7.0748	3.6364	0.1	2.4068e-003
24799	6.9829	3.9091	0.1	1.0475e-003
24800	7.0748	3.8182	0.1	1.4294e-003
24801	6.9829	4.0909	0.1	-3.9341e-004
24802	7.0748	4.	0.1	1.9328e-004
24803	6.9829	4.2727	0.1	-2.1348e-003
24804	7.0748	4.1818	0.1	-1.3164e-003
24805	6.9829	4.4545	0.1	-4.2203e-003
24806	7.0748	4.3636	0.1	-3.1263e-003
24807	6.9829	4.6364	0.1	-6.6993e-003
24808	7.0748	4.5455	0.1	-5.2947e-003
24809	6.9829	4.8182	0.1	-9.7532e-003
24810	7.0748	4.7273	0.1	-7.861e-003
24811	6.9829	5.	0.1	-1.3348e-002
24812	7.0748	4.9091	0.1	-1.1142e-002
24813	6.9829	5.1818	0.1	-1.9016e-002
24814	7.0748	5.0909	0.1	-1.4779e-002
24815	6.9829	5.3636	0.1	-2.3398e-002
24816	7.0748	5.2727	0.1	-2.2133e-002
24817	6.9829	5.5455	0.1	-5.3619e-002
24818	7.0748	5.4545	0.1	-2.369e-002
24819	6.9829	5.7273	0.1	-7.5996e-002
24820	7.0748	5.6364	0.1	-8.2423e-002
24821	7.0748	5.8182	0.1	-0.10978
24822	6.9829	5.9091	0.1	-0.12508
24823	7.1667	0.27273	0.1	-7.0216e-002
24824	7.2585	0.18182	0.1	-0.11046
24825	7.1667	9.0909e-002	0.1	-0.12751
24826	7.1667	0.45455	0.1	-4.8696e-002
24827	7.2585	0.36364	0.1	-7.5026e-002
24828	7.1667	0.63636	0.1	-2.1221e-002
24829	7.2585	0.54545	0.1	-2.1399e-002
24830	7.1667	0.81818	0.1	-1.7358e-002
24831	7.2585	0.72727	0.1	-2.0142e-002
24832	7.1667	1.	0.1	-1.2277e-002
24833	7.2585	0.90909	0.1	-1.3537e-002
24834	7.1667	1.1818	0.1	-9.065e-003
24835	7.2585	1.0909	0.1	-1.03e-002
24836	7.1667	1.3636	0.1	-6.3299e-003
24837	7.2585	1.2727	0.1	-7.367e-003
24838	7.1667	1.5455	0.1	-4.1075e-003
24839	7.2585	1.4545	0.1	-5.0715e-003
24840	7.1667	1.7273	0.1	-2.2352e-003
24841	7.2585	1.6364	0.1	-3.1284e-003
24842	7.1667	1.9091	0.1	-6.7025e-004
24843	7.2585	1.8182	0.1	-1.5048e-003
24844	7.1667	2.0909	0.1	6.2607e-004
24845	7.2585	2.	0.1	-1.4882e-004
24846	7.1667	2.2727	0.1	1.6719e-003
24847	7.2585	2.1818	0.1	9.6247e-004
24848	7.1667	2.4545	0.1	2.4773e-003
24849	7.2585	2.3636	0.1	1.8416e-003
24850	7.1667	2.6364	0.1	3.0493e-003
24851	7.2585	2.5455	0.1	2.4953e-003
24852	7.1667	2.8182	0.1	3.3921e-003
24853	7.2585	2.7273	0.1	2.9303e-003
24854	7.1667	3.	0.1	3.5065e-003
24855	7.2585	2.9091	0.1	3.1477e-003
24856	7.1667	3.1818	0.1	3.3922e-003
24857	7.2585	3.0909	0.1	3.1479e-003
24858	7.1667	3.3636	0.1	3.0494e-003
24859	7.2585	3.2727	0.1	2.9304e-003
24860	7.1667	3.5455	0.1	2.4776e-003
24861	7.2585	3.4545	0.1	2.4954e-003
24862	7.1667	3.7273	0.1	1.6722e-003
24863	7.2585	3.6364	0.1	1.8419e-003
24864	7.1667	3.9091	0.1	6.2636e-004
24865	7.2585	3.8182	0.1	9.6292e-004
24866	7.1667	4.0909	0.1	-6.6978e-004
24867	7.2585	4.	0.1	-1.4843e-004
24868	7.1667	4.2727	0.1	-2.2347e-003
24869	7.2585	4.1818	0.1	-1.5041e-003
24870	7.1667	4.4545	0.1	-4.1069e-003
24871	7.2585	4.3636	0.1	-3.1277e-003
24872	7.1667	4.6364	0.1	-6.3292e-003
24873	7.2585	4.5455	0.1	-5.0709e-003
24874	7.1667	4.8182	0.1	-9.0643e-003
24875	7.2585	4.7273	0.1	-7.3662e-003
24876	7.1667	5.	0.1	-1.2276e-002
24877	7.2585	4.9091	0.1	-1.03e-002
24878	7.1667	5.1818	0.1	-1.7357e-002
24879	7.2585	5.0909	0.1	-1.3536e-002
24880	7.1667	5.3636	0.1	-2.1221e-002
24881	7.2585	5.2727	0.1	-2.0141e-002
24882	7.1667	5.5455	0.1	-4.8695e-002
24883	7.2585	5.4545	0.1	-2.1399e-002
24884	7.1667	5.7273	0.1	-7.0215e-002
24885	7.2585	5.6364	0.1	-7.5024e-002
24886	7.2585	5.8182	0.1	-0.11046
24887	7.1667	5.9091	0.1	-0.12751
24888	7.3504	0.27273	0.1	-6.5156e-002
24889	7.4423	0.18182	0.1	-0.11426
24890	7.3504	9.0909e-002	0.1	-0.13403
24891	7.3504	0.45455	0.1	-4.4172e-002
24892	7.4423	0.36364	0.1	-6.8234e-002
24893	7.3504	0.63636	0.1	-1.9226e-002
24894	7.4423	0.54545	0.1	-1.9305e-002
24895	7.3504	0.81818	0.1	-1.5838e-002
24896	7.4423	0.72727	0.1	-1.8318e-002
24897	7.3504	1.	0.1	-1.1297e-002
24898	7.4423	0.90909	0.1	-1.2404e-002
24899	7.3504	1.1818	0.1	-8.4377e-003
24900	7.4423	1.0909	0.1	-9.5355e-003
24901	7.3504	1.3636	0.1	-5.9958e-003
24902	7.4423	1.2727	0.1	-6.9217e-003
24903	7.3504	1.5455	0.1	-4.0093e-003
24904	7.4423	1.4545	0.1	-4.8752e-003
24905	7.3504	1.7273	0.1	-2.3331e-003
24906	7.4423	1.6364	0.1	-3.1391e-003
24907	7.3504	1.9091	0.1	-9.3027e-004
24908	7.4423	1.8182	0.1	-1.6868e-003
24909	7.3504	2.0909	0.1	2.3283e-004
24910	7.4423	2.	0.1	-4.7208e-004
24911	7.3504	2.2727	0.1	1.1722e-003
24912	7.4423	2.1818	0.1	5.2416e-004
24913	7.3504	2.4545	0.1	1.8961e-003
24914	7.4423	2.3636	0.1	1.3133e-003
24915	7.3504	2.6364	0.1	2.4104e-003
24916	7.4423	2.5455	0.1	1.9e-003
24917	7.3504	2.8182	0.1	2.7187e-003
24918	7.4423	2.7273	0.1	2.2909e-003
24919	7.3504	3.	0.1	2.8216e-003
24920	7.4423	2.9091	0.1	2.4862e-003
24921	7.3504	3.1818	0.1	2.7189e-003
24922	7.4423	3.0909	0.1	2.4862e-003
24923	7.3504	3.3636	0.1	2.4105e-003
24924	7.4423	3.2727	0.1	2.2911e-003
24925	7.3504	3.5455	0.1	1.8961e-003
24926	7.4423	3.4545	0.1	1.9001e-003
24927	7.3504	3.7273	0.1	1.1725e-003
24928	7.4423	3.6364	0.1	1.3135e-003
24929	7.3504	3.9091	0.1	2.3337e-004
24930	7.4423	3.8182	0.1	5.247e-004
24931	7.3504	4.0909	0.1	-9.2973e-004
24932	7.4423	4.	0.1	-4.7175e-004
24933	7.3504	4.2727	0.1	-2.3324e-003
24934	7.4423	4.1818	0.1	-1.6862e-003
24935	7.3504	4.4545	0.1	-4.0087e-003
24936	7.4423	4.3636	0.1	-3.1385e-003
24937	7.3504	4.6364	0.1	-5.9952e-003
24938	7.4423	4.5455	0.1	-4.8747e-003
24939	7.3504	4.8182	0.1	-8.437e-003
24940	7.4423	4.7273	0.1	-6.9209e-003
24941	7.3504	5.	0.1	-1.1296e-002
24942	7.4423	4.9091	0.1	-9.5349e-003
24943	7.3504	5.1818	0.1	-1.5837e-002
24944	7.4423	5.0909	0.1	-1.2403e-002
24945	7.3504	5.3636	0.1	-1.9226e-002
24946	7.4423	5.2727	0.1	-1.8318e-002
24947	7.3504	5.5455	0.1	-4.4171e-002
24948	7.4423	5.4545	0.1	-1.9305e-002
24949	7.3504	5.7273	0.1	-6.5154e-002
24950	7.4423	5.6364	0.1	-6.8233e-002
24951	7.4423	5.8182	0.1	-0.11426
24952	7.3504	5.9091	0.1	-0.13403
24953	7.5342	0.27273	0.1	-6.0806e-002
24954	7.6261	0.18182	0.1	-0.12273
24955	7.5342	9.0909e-002	0.1	-0.14761
24956	7.5342	0.45455	0.1	-4.0021e-002
24957	7.6261	0.36364	0.1	-6.2004e-002
24958	7.5342	0.63636	0.1	-1.7405e-002
24959	7.6261	0.54545	0.1	-1.7394e-002
24960	7.5342	0.81818	0.1	-1.4452e-002
24961	7.6261	0.72727	0.1	-1.6653e-002
24962	7.5342	1.	0.1	-1.0408e-002
24963	7.6261	0.90909	0.1	-1.1375e-002
24964	7.5342	1.1818	0.1	-7.8739e-003
24965	7.6261	1.0909	0.1	-8.8449e-003
24966	7.5342	1.3636	0.1	-5.7016e-003
24967	7.6261	1.2727	0.1	-6.5249e-003
24968	7.5342	1.5455	0.1	-3.9318e-003
24969	7.6261	1.4545	0.1	-4.7073e-003
24970	7.5342	1.7273	0.1	-2.4357e-003
24971	7.6261	1.6364	0.1	-3.1615e-003
24972	7.5342	1.9091	0.1	-1.1818e-003
24973	7.6261	1.8182	0.1	-1.8664e-003
24974	7.5342	2.0909	0.1	-1.4088e-004
24975	7.6261	2.	0.1	-7.8165e-004
24976	7.5342	2.2727	0.1	7.0044e-004
24977	7.6261	2.1818	0.1	1.0921e-004
24978	7.5342	2.4545	0.1	1.3493e-003
24979	7.6261	2.3636	0.1	8.1542e-004
24980	7.5342	2.6364	0.1	1.8106e-003
24981	7.6261	2.5455	0.1	1.3407e-003
24982	7.5342	2.8182	0.1	2.0873e-003
24983	7.6261	2.7273	0.1	1.6909e-003
24984	7.5342	3.	0.1	2.1795e-003
24985	7.6261	2.9091	0.1	1.8662e-003
24986	7.5342	3.1818	0.1	2.0874e-003
24987	7.6261	3.0909	0.1	1.8661e-003
24988	7.5342	3.3636	0.1	1.8107e-003
24989	7.6261	3.2727	0.1	1.6912e-003
24990	7.5342	3.5455	0.1	1.3496e-003
24991	7.6261	3.4545	0.1	1.3409e-003
24992	7.5342	3.7273	0.1	7.0088e-004
24993	7.6261	3.6364	0.1	8.1578e-004
24994	7.5342	3.9091	0.1	-1.4055e-004
24995	7.6261	3.8182	0.1	1.0969e-004
24996	7.5342	4.0909	0.1	-1.1815e-003
24997	7.6261	4.	0.1	-7.8141e-004
24998	7.5342	4.2727	0.1	-2.4352e-003
24999	7.6261	4.1818	0.1	-1.8659e-003
25000	7.5342	4.4545	0.1	-3.9313e-003
25001	7.6261	4.3636	0.1	-3.161e-003
25002	7.5342	4.6364	0.1	-5.7009e-003
25003	7.6261	4.5455	0.1	-4.7066e-003
25004	7.5342	4.8182	0.1	-7.8731e-003
25005	7.6261	4.7273	0.1	-6.5242e-003
25006	7.5342	5.	0.1	-1.0408e-002
25007	7.6261	4.9091	0.1	-8.8442e-003
25008	7.5342	5.1818	0.1	-1.4451e-002
25009	7.6261	5.0909	0.1	-1.1374e-002
25010	7.5342	5.3636	0.1	-1.7405e-002
25011	7.6261	5.2727	0.1	-1.6652e-002
25012	7.5342	5.5455	0.1	-4.0019e-002
25013	7.6261	5.4545	0.1	-1.7394e-002
25014	7.5342	5.7273	0.1	-6.0804e-002
25015	7.6261	5.6364	0.1	-6.2003e-002
25016	7.6261	5.8182	0.1	-0.12272
25017	7.5342	5.9091	0.1	-0.14761
25018	7.7179	0.27273	0.1	-5.7179e-002
25019	7.8098	0.18182	0.1	-0.13922
25020	7.7179	9.0909e-002	0.1	-0.17544
25021	7.7179	0.45455	0.1	-3.621e-002
25022	7.8098	0.36364	0.1	-5.6286e-002
25023	7.7179	0.63636	0.1	-1.5743e-002
25024	7.8098	0.54545	0.1	-1.5645e-002
25025	7.7179	0.81818	0.1	-1.319e-002
25026	7.8098	0.72727	0.1	-1.513e-002
25027	7.7179	1.	0.1	-9.6043e-003
25028	7.8098	0.90909	0.1	-1.0438e-002
25029	7.7179	1.1818	0.1	-7.3678e-003
25030	7.8098	1.0909	0.1	-8.2191e-003
25031	7.7179	1.3636	0.1	-5.4433e-003
25032	7.8098	1.2727	0.1	-6.1695e-003
25033	7.7179	1.5455	0.1	-3.8729e-003
25034	7.8098	1.4545	0.1	-4.562e-003
25035	7.7179	1.7273	0.1	-2.5423e-003
25036	7.8098	1.6364	0.1	-3.1914e-003
25037	7.7179	1.9091	0.1	-1.4253e-003
25038	7.8098	1.8182	0.1	-2.0404e-003
25039	7.7179	2.0909	0.1	-4.9662e-004
25040	7.8098	2.	0.1	-1.0753e-003
25041	7.7179	2.2727	0.1	2.5509e-004
25042	7.8098	2.1818	0.1	-2.8079e-004
25043	7.7179	2.4545	0.1	8.3508e-004
25044	7.8098	2.3636	0.1	3.4922e-004
25045	7.7179	2.6364	0.1	1.2475e-003
25046	7.8098	2.5455	0.1	8.1835e-004
25047	7.7179	2.8182	0.1	1.4952e-003
25048	7.8098	2.7273	0.1	1.1311e-003
25049	7.7179	3.	0.1	1.578e-003
25050	7.8098	2.9091	0.1	1.288e-003
25051	7.7179	3.1818	0.1	1.4954e-003
25052	7.8098	3.0909	0.1	1.2879e-003
25053	7.7179	3.3636	0.1	1.2478e-003
25054	7.8098	3.2727	0.1	1.1314e-003
25055	7.7179	3.5455	0.1	8.3532e-004
25056	7.8098	3.4545	0.1	8.1844e-004
25057	7.7179	3.7273	0.1	2.5547e-004
25058	7.8098	3.6364	0.1	3.4955e-004
25059	7.7179	3.9091	0.1	-4.9624e-004
25060	7.8098	3.8182	0.1	-2.8044e-004
25061	7.7179	4.0909	0.1	-1.4249e-003
25062	7.8098	4.	0.1	-1.0747e-003
25063	7.7179	4.2727	0.1	-2.5417e-003
25064	7.8098	4.1818	0.1	-2.04e-003
25065	7.7179	4.4545	0.1	-3.8722e-003
25066	7.8098	4.3636	0.1	-3.1907e-003
25067	7.7179	4.6364	0.1	-5.4426e-003
25068	7.8098	4.5455	0.1	-4.5614e-003
25069	7.7179	4.8182	0.1	-7.3672e-003
25070	7.8098	4.7273	0.1	-6.1689e-003
25071	7.7179	5.	0.1	-9.6032e-003
25072	7.8098	4.9091	0.1	-8.2184e-003
25073	7.7179	5.1818	0.1	-1.3189e-002
25074	7.8098	5.0909	0.1	-1.0437e-002
25075	7.7179	5.3636	0.1	-1.5742e-002
25076	7.8098	5.2727	0.1	-1.5129e-002
25077	7.7179	5.5455	0.1	-3.6209e-002
25078	7.8098	5.4545	0.1	-1.5645e-002
25079	7.7179	5.7273	0.1	-5.7177e-002
25080	7.8098	5.6364	0.1	-5.6284e-002
25081	7.8098	5.8182	0.1	-0.13922
25082	7.7179	5.9091	0.1	-0.17544
25083	7.9017	0.27273	0.1	-5.4329e-002
25084	7.9936	0.18182	0.1	-0.17228
25085	7.9017	9.0909e-002	0.1	-0.23839
25086	7.9017	0.45455	0.1	-3.2703e-002
25087	7.9936	0.36364	0.1	-5.1035e-002
25088	7.9017	0.63636	0.1	-1.4218e-002
25089	7.9936	0.54545	0.1	-1.4041e-002
25090	7.9017	0.81818	0.1	-1.2035e-002
25091	7.9936	0.72727	0.1	-1.3733e-002
25092	7.9017	1.	0.1	-8.8711e-003
25093	7.9936	0.90909	0.1	-9.5826e-003
25094	7.9017	1.1818	0.1	-6.909e-003
25095	7.9936	1.0909	0.1	-7.6498e-003
25096	7.9017	1.3636	0.1	-5.2122e-003
25097	7.9936	1.2727	0.1	-5.8487e-003
25098	7.9017	1.5455	0.1	-3.8248e-003
25099	7.9936	1.4545	0.1	-4.4344e-003
25100	7.9017	1.7273	0.1	-2.646e-003
25101	7.9936	1.6364	0.1	-3.2241e-003
25102	7.9017	1.9091	0.1	-1.6547e-003
25103	7.9936	1.8182	0.1	-2.2058e-003
25104	7.9017	2.0909	0.1	-8.2903e-004
25105	7.9936	2.	0.1	-1.35e-003
25106	7.9017	2.2727	0.1	-1.5974e-004
25107	7.9936	2.1818	0.1	-6.4432e-004
25108	7.9017	2.4545	0.1	3.5708e-004
25109	7.9936	2.3636	0.1	-8.4162e-005
25110	7.9017	2.6364	0.1	7.2506e-004
25111	7.9936	2.5455	0.1	3.3344e-004
25112	7.9017	2.8182	0.1	9.4608e-004
25113	7.9936	2.7273	0.1	6.1216e-004
25114	7.9017	3.	0.1	1.0199e-003
25115	7.9936	2.9091	0.1	7.5179e-004
25116	7.9017	3.1818	0.1	9.4611e-004
25117	7.9936	3.0909	0.1	7.5176e-004
25118	7.9017	3.3636	0.1	7.2509e-004
25119	7.9936	3.2727	0.1	6.1219e-004
25120	7.9017	3.5455	0.1	3.5725e-004
25121	7.9936	3.4545	0.1	3.3341e-004
25122	7.9017	3.7273	0.1	-1.5944e-004
25123	7.9936	3.6364	0.1	-8.3596e-005
25124	7.9017	3.9091	0.1	-8.2846e-004
25125	7.9936	3.8182	0.1	-6.4408e-004
25126	7.9017	4.0909	0.1	-1.6541e-003
25127	7.9936	4.	0.1	-1.3494e-003
25128	7.9017	4.2727	0.1	-2.6454e-003
25129	7.9936	4.1818	0.1	-2.2053e-003
25130	7.9017	4.4545	0.1	-3.8242e-003
25131	7.9936	4.3636	0.1	-3.2235e-003
25132	7.9017	4.6364	0.1	-5.2117e-003
25133	7.9936	4.5455	0.1	-4.4337e-003
25134	7.9017	4.8182	0.1	-6.9083e-003
25135	7.9936	4.7273	0.1	-5.848e-003
25136	7.9017	5.	0.1	-8.87e-003
25137	7.9936	4.9091	0.1	-7.649e-003
25138	7.9017	5.1818	0.1	-1.2034e-002
25139	7.9936	5.0909	0.1	-9.5814e-003
25140	7.9017	5.3636	0.1	-1.4218e-002
25141	7.9936	5.2727	0.1	-1.3732e-002
25142	7.9017	5.5455	0.1	-3.2702e-002
25143	7.9936	5.4545	0.1	-1.4041e-002
25144	7.9017	5.7273	0.1	-5.4327e-002
25145	7.9936	5.6364	0.1	-5.1033e-002
25146	7.9936	5.8182	0.1	-0.17227
25147	7.9017	5.9091	0.1	-0.23839
25148	8.0855	0.27273	0.1	-5.24e-002
25149	8.1774	0.18182	0.1	-0.24888
25150	8.0855	9.0909e-002	0.1	-0.40266
25151	8.0855	0.45455	0.1	-2.9475e-002
25152	8.1774	0.36364	0.1	-4.6219e-002
25153	8.0855	0.63636	0.1	-1.2821e-002
25154	8.1774	0.54545	0.1	-1.2573e-002
25155	8.0855	0.81818	0.1	-1.0978e-002
25156	8.1774	0.72727	0.1	-1.2456e-002
25157	8.0855	1.	0.1	-8.2025e-003
25158	8.1774	0.90909	0.1	-8.8056e-003
25159	8.0855	1.1818	0.1	-6.4927e-003
25160	8.1774	1.0909	0.1	-7.1359e-003
25161	8.0855	1.3636	0.1	-5.0052e-003
25162	8.1774	1.2727	0.1	-5.5631e-003
25163	8.0855	1.5455	0.1	-3.7856e-003
25164	8.1774	1.4545	0.1	-4.3262e-003
25165	8.0855	1.7273	0.1	-2.7464e-003
25166	8.1774	1.6364	0.1	-3.263e-003
25167	8.0855	1.9091	0.1	-1.8703e-003
25168	8.1774	1.8182	0.1	-2.3664e-003
25169	8.0855	2.0909	0.1	-1.139e-003
25170	8.1774	2.	0.1	-1.6109e-003
25171	8.0855	2.2727	0.1	-5.4547e-004
25172	8.1774	2.1818	0.1	-9.8665e-004
25173	8.0855	2.4545	0.1	-8.6523e-005
25174	8.1774	2.3636	0.1	-4.9032e-004
25175	8.0855	2.6364	0.1	2.4054e-004
25176	8.1774	2.5455	0.1	-1.2022e-004
25177	8.0855	2.8182	0.1	4.3715e-004
25178	8.1774	2.7273	0.1	1.2716e-004
25179	8.0855	3.	0.1	5.0274e-004
25180	8.1774	2.9091	0.1	2.513e-004
25181	8.0855	3.1818	0.1	4.3712e-004
25182	8.1774	3.0909	0.1	2.5124e-004
25183	8.0855	3.3636	0.1	2.4051e-004
25184	8.1774	3.2727	0.1	1.2734e-004
25185	8.0855	3.5455	0.1	-8.6165e-005
25186	8.1774	3.4545	0.1	-1.2013e-004
25187	8.0855	3.7273	0.1	-5.4497e-004
25188	8.1774	3.6364	0.1	-4.8981e-004
25189	8.0855	3.9091	0.1	-1.1387e-003
25190	8.1774	3.8182	0.1	-9.8626e-004
25191	8.0855	4.0909	0.1	-1.8698e-003
25192	8.1774	4.	0.1	-1.6103e-003
25193	8.0855	4.2727	0.1	-2.7459e-003
25194	8.1774	4.1818	0.1	-2.3658e-003
25195	8.0855	4.4545	0.1	-3.785e-003
25196	8.1774	4.3636	0.1	-3.2625e-003
25197	8.0855	4.6364	0.1	-5.0045e-003
25198	8.1774	4.5455	0.1	-4.3254e-003
25199	8.0855	4.8182	0.1	-6.4919e-003
25200	8.1774	4.7273	0.1	-5.5624e-003
25201	8.0855	5.	0.1	-8.2015e-003
25202	8.1774	4.9091	0.1	-7.135e-003
25203	8.0855	5.1818	0.1	-1.0977e-002
25204	8.1774	5.0909	0.1	-8.8043e-003
25205	8.0855	5.3636	0.1	-1.282e-002
25206	8.1774	5.2727	0.1	-1.2455e-002
25207	8.0855	5.5455	0.1	-2.9474e-002
25208	8.1774	5.4545	0.1	-1.2573e-002
25209	8.0855	5.7273	0.1	-5.2399e-002
25210	8.1774	5.6364	0.1	-4.6218e-002
25211	8.1774	5.8182	0.1	-0.24888
25212	8.0855	5.9091	0.1	-0.40266
25213	8.2692	0.27273	0.1	-5.1711e-002
25214	8.3611	0.18182	0.1	-0.47476
25215	8.2692	9.0909e-002	0.1	-0.77017
25216	8.2692	0.45455	0.1	-2.6508e-002
25217	8.3611	0.36364	0.1	-4.1811e-002
25218	8.2692	0.63636	0.1	-1.1547e-002
25219	8.3611	0.54545	0.1	-1.1232e-002
25220	8.2692	0.81818	0.1	-1.0019e-002
25221	8.3611	0.72727	0.1	-1.1294e-002
25222	8.2692	1.	0.1	-7.602e-003
25223	8.3611	0.90909	0.1	-8.1045e-003
25224	8.2692	1.1818	0.1	-6.1234e-003
25225	8.3611	1.0909	0.1	-6.6763e-003
25226	8.2692	1.3636	0.1	-4.8281e-003
25227	8.3611	1.2727	0.1	-5.3134e-003
25228	8.2692	1.5455	0.1	-3.7626e-003
25229	8.3611	1.4545	0.1	-4.2387e-003
25230	8.2692	1.7273	0.1	-2.8511e-003
25231	8.3611	1.6364	0.1	-3.3106e-003
25232	8.2692	1.9091	0.1	-2.0808e-003
25233	8.3611	1.8182	0.1	-2.5251e-003
25234	8.2692	2.0909	0.1	-1.4361e-003
25235	8.3611	2.	0.1	-1.8616e-003
25236	8.2692	2.2727	0.1	-9.1156e-004
25237	8.3611	2.1818	0.1	-1.3119e-003
25238	8.2692	2.4545	0.1	-5.0576e-004
25239	8.3611	2.3636	0.1	-8.7408e-004
25240	8.2692	2.6364	0.1	-2.1642e-004
25241	8.3611	2.5455	0.1	-5.4739e-004
25242	8.2692	2.8182	0.1	-4.2111e-005
25243	8.3611	2.7273	0.1	-3.2871e-004
25244	8.2692	3.	0.1	1.6193e-005
25245	8.3611	2.9091	0.1	-2.1897e-004
25246	8.2692	3.1818	0.1	-4.1962e-005
25247	8.3611	3.0909	0.1	-2.1891e-004
25248	8.2692	3.3636	0.1	-2.1613e-004
25249	8.3611	3.2727	0.1	-3.2865e-004
25250	8.2692	3.5455	0.1	-5.0553e-004
25251	8.3611	3.4545	0.1	-5.4709e-004
25252	8.2692	3.7273	0.1	-9.1118e-004
25253	8.3611	3.6364	0.1	-8.7384e-004
25254	8.2692	3.9091	0.1	-1.4354e-003
25255	8.3611	3.8182	0.1	-1.3115e-003
25256	8.2692	4.0909	0.1	-2.0801e-003
25257	8.3611	4.	0.1	-1.8611e-003
25258	8.2692	4.2727	0.1	-2.8505e-003
25259	8.3611	4.1818	0.1	-2.5247e-003
25260	8.2692	4.4545	0.1	-3.762e-003
25261	8.3611	4.3636	0.1	-3.31e-003
25262	8.2692	4.6364	0.1	-4.8274e-003
25263	8.3611	4.5455	0.1	-4.2381e-003
25264	8.2692	4.8182	0.1	-6.1226e-003
25265	8.3611	4.7273	0.1	-5.3126e-003
25266	8.2692	5.	0.1	-7.6007e-003
25267	8.3611	4.9091	0.1	-6.6757e-003
25268	8.2692	5.1818	0.1	-1.0018e-002
25269	8.3611	5.0909	0.1	-8.1031e-003
25270	8.2692	5.3636	0.1	-1.1547e-002
25271	8.3611	5.2727	0.1	-1.1293e-002
25272	8.2692	5.5455	0.1	-2.6507e-002
25273	8.3611	5.4545	0.1	-1.1232e-002
25274	8.2692	5.7273	0.1	-5.171e-002
25275	8.3611	5.6364	0.1	-4.1809e-002
25276	8.3611	5.8182	0.1	-0.47476
25277	8.2692	5.9091	0.1	-0.77017
25278	8.453	0.27273	0.1	-5.2963e-002
25279	8.5449	0.18182	0.1	-1.0634
25280	8.453	9.0909e-002	0.1	-1.2766
25281	8.453	0.45455	0.1	-2.3779e-002
25282	8.5449	0.36364	0.1	-3.7783e-002
25283	8.453	0.63636	0.1	-1.0387e-002
25284	8.5449	0.54545	0.1	-1.0004e-002
25285	8.453	0.81818	0.1	-9.1501e-003
25286	8.5449	0.72727	0.1	-1.0234e-002
25287	8.453	1.	0.1	-7.0621e-003
25288	8.5449	0.90909	0.1	-7.4705e-003
25289	8.453	1.1818	0.1	-5.7962e-003
25290	8.5449	1.0909	0.1	-6.2646e-003
25291	8.453	1.3636	0.1	-4.6769e-003
25292	8.5449	1.2727	0.1	-5.0934e-003
25293	8.453	1.5455	0.1	-3.7524e-003
25294	8.5449	1.4545	0.1	-4.1673e-003
25295	8.453	1.7273	0.1	-2.9578e-003
25296	8.5449	1.6364	0.1	-3.3628e-003
25297	8.453	1.9091	0.1	-2.2839e-003
25298	8.5449	1.8182	0.1	-2.679e-003
25299	8.453	2.0909	0.1	-1.7185e-003
25300	8.5449	2.	0.1	-2.0995e-003
25301	8.453	2.2727	0.1	-1.2576e-003
25302	8.5449	2.1818	0.1	-1.618e-003
25303	8.453	2.4545	0.1	-9.0022e-004
25304	8.5449	2.3636	0.1	-1.2337e-003
25305	8.453	2.6364	0.1	-6.4506e-004
25306	8.5449	2.5455	0.1	-9.4666e-004
25307	8.453	2.8182	0.1	-4.9145e-004
25308	8.5449	2.7273	0.1	-7.5413e-004
25309	8.453	3.	0.1	-4.4012e-004
25310	8.5449	2.9091	0.1	-6.5764e-004
25311	8.453	3.1818	0.1	-4.9148e-004
25312	8.5449	3.0909	0.1	-6.5743e-004
25313	8.453	3.3636	0.1	-6.45e-004
25314	8.5449	3.2727	0.1	-7.5413e-004
25315	8.453	3.5455	0.1	-8.9992e-004
25316	8.5449	3.4545	0.1	-9.4643e-004
25317	8.453	3.7273	0.1	-1.2573e-003
25318	8.5449	3.6364	0.1	-1.2335e-003
25319	8.453	3.9091	0.1	-1.7182e-003
25320	8.5449	3.8182	0.1	-1.6176e-003
25321	8.453	4.0909	0.1	-2.2837e-003
25322	8.5449	4.	0.1	-2.0991e-003
25323	8.453	4.2727	0.1	-2.9574e-003
25324	8.5449	4.1818	0.1	-2.6788e-003
25325	8.453	4.4545	0.1	-3.7518e-003
25326	8.5449	4.3636	0.1	-3.3622e-003
25327	8.453	4.6364	0.1	-4.6762e-003
25328	8.5449	4.5455	0.1	-4.1666e-003
25329	8.453	4.8182	0.1	-5.7956e-003
25330	8.5449	4.7273	0.1	-5.0927e-003
25331	8.453	5.	0.1	-7.0613e-003
25332	8.5449	4.9091	0.1	-6.2638e-003
25333	8.453	5.1818	0.1	-9.1489e-003
25334	8.5449	5.0909	0.1	-7.4692e-003
25335	8.453	5.3636	0.1	-1.0386e-002
25336	8.5449	5.2727	0.1	-1.0233e-002
25337	8.453	5.5455	0.1	-2.3778e-002
25338	8.5449	5.4545	0.1	-1.0004e-002
25339	8.453	5.7273	0.1	-5.2961e-002
25340	8.5449	5.6364	0.1	-3.7781e-002
25341	8.5449	5.8182	0.1	-1.0634
25342	8.453	5.9091	0.1	-1.2766
25343	8.6368	0.27273	0.1	-5.7974e-002
25344	8.7286	0.18182	0.1	-1.887
25345	8.6368	9.0909e-002	0.1	-1.8118
25346	8.6368	0.45455	0.1	-2.1261e-002
25347	8.7286	0.36364	0.1	-3.412e-002
25348	8.6368	0.63636	0.1	-9.3256e-003
25349	8.7286	0.54545	0.1	-8.8813e-003
25350	8.6368	0.81818	0.1	-8.3592e-003
25351	8.7286	0.72727	0.1	-9.2711e-003
25352	8.6368	1.	0.1	-6.5753e-003
25353	8.7286	0.90909	0.1	-6.9004e-003
25354	8.6368	1.1818	0.1	-5.5038e-003
25355	8.7286	1.0909	0.1	-5.8981e-003
25356	8.6368	1.3636	0.1	-4.5451e-003
25357	8.7286	1.2727	0.1	-4.9021e-003
25358	8.6368	1.5455	0.1	-3.7495e-003
25359	8.7286	1.4545	0.1	-4.1116e-003
25360	8.6368	1.7273	0.1	-3.0619e-003
25361	8.7286	1.6364	0.1	-3.4196e-003
25362	8.6368	1.9091	0.1	-2.4763e-003
25363	8.7286	1.8182	0.1	-2.8288e-003
25364	8.6368	2.0909	0.1	-1.9833e-003
25365	8.7286	2.	0.1	-2.3257e-003
25366	8.6368	2.2727	0.1	-1.5801e-003
25367	8.7286	2.1818	0.1	-1.9065e-003
25368	8.6368	2.4545	0.1	-1.2672e-003
25369	8.7286	2.3636	0.1	-1.5711e-003
25370	8.6368	2.6364	0.1	-1.0435e-003
25371	8.7286	2.5455	0.1	-1.3202e-003
25372	8.6368	2.8182	0.1	-9.0845e-004
25373	8.7286	2.7273	0.1	-1.1518e-003
25374	8.6368	3.	0.1	-8.6321e-004
25375	8.7286	2.9091	0.1	-1.0671e-003
25376	8.6368	3.1818	0.1	-9.0821e-004
25377	8.7286	3.0909	0.1	-1.0669e-003
25378	8.6368	3.3636	0.1	-1.0433e-003
25379	8.7286	3.2727	0.1	-1.1515e-003
25380	8.6368	3.5455	0.1	-1.2671e-003
25381	8.7286	3.4545	0.1	-1.3201e-003
25382	8.6368	3.7273	0.1	-1.5798e-003
25383	8.7286	3.6364	0.1	-1.5709e-003
25384	8.6368	3.9091	0.1	-1.9828e-003
25385	8.7286	3.8182	0.1	-1.9061e-003
25386	8.6368	4.0909	0.1	-2.476e-003
25387	8.7286	4.	0.1	-2.3255e-003
25388	8.6368	4.2727	0.1	-3.0614e-003
25389	8.7286	4.1818	0.1	-2.8283e-003
25390	8.6368	4.4545	0.1	-3.7488e-003
25391	8.7286	4.3636	0.1	-3.419e-003
25392	8.6368	4.6364	0.1	-4.5444e-003
25393	8.7286	4.5455	0.1	-4.1108e-003
25394	8.6368	4.8182	0.1	-5.503e-003
25395	8.7286	4.7273	0.1	-4.9015e-003
25396	8.6368	5.	0.1	-6.574e-003
25397	8.7286	4.9091	0.1	-5.8971e-003
25398	8.6368	5.1818	0.1	-8.3582e-003
25399	8.7286	5.0909	0.1	-6.8992e-003
25400	8.6368	5.3636	0.1	-9.3249e-003
25401	8.7286	5.2727	0.1	-9.2702e-003
25402	8.6368	5.5455	0.1	-2.126e-002
25403	8.7286	5.4545	0.1	-8.8807e-003
25404	8.6368	5.7273	0.1	-5.7973e-002
25405	8.7286	5.6364	0.1	-3.4119e-002
25406	8.7286	5.8182	0.1	-1.887
25407	8.6368	5.9091	0.1	-1.8118
25408	8.8205	0.27273	0.1	-7.3025e-002
25409	8.9124	0.18182	0.1	-2.7412
25410	8.8205	9.0909e-002	0.1	-2.3374
25411	8.8205	0.45455	0.1	-1.8942e-002
25412	8.9124	0.36364	0.1	-3.0832e-002
25413	8.8205	0.63636	0.1	-8.3637e-003
25414	8.9124	0.54545	0.1	-7.8596e-003
25415	8.8205	0.81818	0.1	-7.6488e-003
25416	8.9124	0.72727	0.1	-8.4038e-003
25417	8.8205	1.	0.1	-6.1435e-003
25418	8.9124	0.90909	0.1	-6.3955e-003
25419	8.8205	1.1818	0.1	-5.2496e-003
25420	8.9124	1.0909	0.1	-5.5785e-003
25421	8.8205	1.3636	0.1	-4.4376e-003
25422	8.9124	1.2727	0.1	-4.7423e-003
25423	8.8205	1.5455	0.1	-3.7591e-003
25424	8.9124	1.4545	0.1	-4.0751e-003
25425	8.8205	1.7273	0.1	-3.1688e-003
25426	8.9124	1.6364	0.1	-3.4851e-003
25427	8.8205	1.9091	0.1	-2.6634e-003
25428	8.9124	1.8182	0.1	-2.9789e-003
25429	8.8205	2.0909	0.1	-2.2361e-003
25430	8.9124	2.	0.1	-2.5454e-003
25431	8.8205	2.2727	0.1	-1.8859e-003
25432	8.9124	2.1818	0.1	-2.1826e-003
25433	8.8205	2.4545	0.1	-1.6135e-003
25434	8.9124	2.3636	0.1	-1.8918e-003
25435	8.8205	2.6364	0.1	-1.4184e-003
25436	8.9124	2.5455	0.1	-1.6738e-003
25437	8.8205	2.8182	0.1	-1.3006e-003
25438	8.9124	2.7273	0.1	-1.5274e-003
25439	8.8205	3.	0.1	-1.261e-003
25440	8.9124	2.9091	0.1	-1.4533e-003
25441	8.8205	3.1818	0.1	-1.3003e-003
25442	8.9124	3.0909	0.1	-1.4534e-003
25443	8.8205	3.3636	0.1	-1.4182e-003
25444	8.9124	3.2727	0.1	-1.5271e-003
25445	8.8205	3.5455	0.1	-1.6132e-003
25446	8.9124	3.4545	0.1	-1.6737e-003
25447	8.8205	3.7273	0.1	-1.8857e-003
25448	8.9124	3.6364	0.1	-1.8916e-003
25449	8.8205	3.9091	0.1	-2.236e-003
25450	8.9124	3.8182	0.1	-2.1823e-003
25451	8.8205	4.0909	0.1	-2.6631e-003
25452	8.9124	4.	0.1	-2.5452e-003
25453	8.8205	4.2727	0.1	-3.1681e-003
25454	8.9124	4.1818	0.1	-2.9783e-003
25455	8.8205	4.4545	0.1	-3.7584e-003
25456	8.9124	4.3636	0.1	-3.4846e-003
25457	8.8205	4.6364	0.1	-4.4369e-003
25458	8.9124	4.5455	0.1	-4.0743e-003
25459	8.8205	4.8182	0.1	-5.2489e-003
25460	8.9124	4.7273	0.1	-4.7417e-003
25461	8.8205	5.	0.1	-6.1425e-003
25462	8.9124	4.9091	0.1	-5.5777e-003
25463	8.8205	5.1818	0.1	-7.6476e-003
25464	8.9124	5.0909	0.1	-6.3943e-003
25465	8.8205	5.3636	0.1	-8.3628e-003
25466	8.9124	5.2727	0.1	-8.4028e-003
25467	8.8205	5.5455	0.1	-1.8941e-002
25468	8.9124	5.4545	0.1	-7.8591e-003
25469	8.8205	5.7273	0.1	-7.3024e-002
25470	8.9124	5.6364	0.1	-3.0832e-002
25471	8.9124	5.8182	0.1	-2.7412
25472	8.8205	5.9091	0.1	-2.3374
25473	9.0043	0.27273	0.1	-0.1371
25474	9.0962	0.18182	0.1	-3.5707
25475	9.0043	9.0909e-002	0.1	-2.8425
25476	9.0043	0.45455	0.1	-1.6808e-002
25477	9.0962	0.36364	0.1	-2.7966e-002
25478	9.0043	0.63636	0.1	-7.4987e-003
25479	9.0962	0.54545	0.1	-6.9318e-003
25480	9.0043	0.81818	0.1	-7.0178e-003
25481	9.0962	0.72727	0.1	-7.6272e-003
25482	9.0043	1.	0.1	-5.7678e-003
25483	9.0962	0.90909	0.1	-5.9525e-003
25484	9.0043	1.1818	0.1	-5.0351e-003
25485	9.0962	1.0909	0.1	-5.3033e-003
25486	9.0043	1.3636	0.1	-4.356e-003
25487	9.0962	1.2727	0.1	-4.6116e-003
25488	9.0043	1.5455	0.1	-3.7837e-003
25489	9.0962	1.4545	0.1	-4.0554e-003
25490	9.0043	1.7273	0.1	-3.2815e-003
25491	9.0962	1.6364	0.1	-3.558e-003
25492	9.0043	1.9091	0.1	-2.8494e-003
25493	9.0962	1.8182	0.1	-3.1277e-003
25494	9.0043	2.0909	0.1	-2.4817e-003
25495	9.0962	2.	0.1	-2.7577e-003
25496	9.0043	2.2727	0.1	-2.1793e-003
25497	9.0962	2.1818	0.1	-2.446e-003
25498	9.0043	2.4545	0.1	-1.9436e-003
25499	9.0962	2.3636	0.1	-2.1955e-003
25500	9.0043	2.6364	0.1	-1.7746e-003
25501	9.0962	2.5455	0.1	-2.0074e-003
25502	9.0043	2.8182	0.1	-1.6722e-003
25503	9.0962	2.7273	0.1	-1.8807e-003
25504	9.0043	3.	0.1	-1.6378e-003
25505	9.0962	2.9091	0.1	-1.8165e-003
25506	9.0043	3.1818	0.1	-1.6721e-003
25507	9.0962	3.0909	0.1	-1.8164e-003
25508	9.0043	3.3636	0.1	-1.7745e-003
25509	9.0962	3.2727	0.1	-1.8804e-003
25510	9.0043	3.5455	0.1	-1.9436e-003
25511	9.0962	3.4545	0.1	-2.0072e-003
25512	9.0043	3.7273	0.1	-2.1791e-003
25513	9.0962	3.6364	0.1	-2.1952e-003
25514	9.0043	3.9091	0.1	-2.4814e-003
25515	9.0962	3.8182	0.1	-2.4457e-003
25516	9.0043	4.0909	0.1	-2.8489e-003
25517	9.0962	4.	0.1	-2.7572e-003
25518	9.0043	4.2727	0.1	-3.281e-003
25519	9.0962	4.1818	0.1	-3.1273e-003
25520	9.0043	4.4545	0.1	-3.7831e-003
25521	9.0962	4.3636	0.1	-3.5573e-003
25522	9.0043	4.6364	0.1	-4.3553e-003
25523	9.0962	4.5455	0.1	-4.0547e-003
25524	9.0043	4.8182	0.1	-5.0344e-003
25525	9.0962	4.7273	0.1	-4.611e-003
25526	9.0043	5.	0.1	-5.7668e-003
25527	9.0962	4.9091	0.1	-5.3026e-003
25528	9.0043	5.1818	0.1	-7.0167e-003
25529	9.0962	5.0909	0.1	-5.9511e-003
25530	9.0043	5.3636	0.1	-7.498e-003
25531	9.0962	5.2727	0.1	-7.6263e-003
25532	9.0043	5.5455	0.1	-1.6807e-002
25533	9.0962	5.4545	0.1	-6.9316e-003
25534	9.0043	5.7273	0.1	-0.1371
25535	9.0962	5.6364	0.1	-2.7965e-002
25536	9.0962	5.8182	0.1	-3.5707
25537	9.0043	5.9091	0.1	-2.8425
25538	9.188	0.27273	0.1	-0.62063
25539	9.2799	0.18182	0.1	-4.3629
25540	9.188	9.0909e-002	0.1	-3.3241
25541	9.188	0.45455	0.1	-1.4836e-002
25542	9.2799	0.36364	0.1	-2.5716e-002
25543	9.188	0.63636	0.1	-6.7223e-003
25544	9.2799	0.54545	0.1	-6.0926e-003
25545	9.188	0.81818	0.1	-6.4593e-003
25546	9.2799	0.72727	0.1	-6.9373e-003
25547	9.188	1.	0.1	-5.4416e-003
25548	9.2799	0.90909	0.1	-5.5679e-003
25549	9.188	1.1818	0.1	-4.8536e-003
25550	9.2799	1.0909	0.1	-5.0686e-003
25551	9.188	1.3636	0.1	-4.2939e-003
25552	9.2799	1.2727	0.1	-4.5065e-003
25553	9.188	1.5455	0.1	-3.8172e-003
25554	9.2799	1.4545	0.1	-4.0495e-003
25555	9.188	1.7273	0.1	-3.3942e-003
25556	9.2799	1.6364	0.1	-3.6348e-003
25557	9.188	1.9091	0.1	-3.0275e-003
25558	9.2799	1.8182	0.1	-3.2728e-003
25559	9.188	2.0909	0.1	-2.7143e-003
25560	9.2799	2.	0.1	-2.9594e-003
25561	9.188	2.2727	0.1	-2.4552e-003
25562	9.2799	2.1818	0.1	-2.694e-003
25563	9.188	2.4545	0.1	-2.2527e-003
25564	9.2799	2.3636	0.1	-2.4797e-003
25565	9.188	2.6364	0.1	-2.107e-003
25566	9.2799	2.5455	0.1	-2.3186e-003
25567	9.188	2.8182	0.1	-2.0186e-003
25568	9.2799	2.7273	0.1	-2.2095e-003
25569	9.188	3.	0.1	-1.9889e-003
25570	9.2799	2.9091	0.1	-2.1545e-003
25571	9.188	3.1818	0.1	-2.0185e-003
25572	9.2799	3.0909	0.1	-2.1543e-003
25573	9.188	3.3636	0.1	-2.1068e-003
25574	9.2799	3.2727	0.1	-2.2095e-003
25575	9.188	3.5455	0.1	-2.2523e-003
25576	9.2799	3.4545	0.1	-2.3184e-003
25577	9.188	3.7273	0.1	-2.4549e-003
25578	9.2799	3.6364	0.1	-2.4794e-003
25579	9.188	3.9091	0.1	-2.7139e-003
25580	9.2799	3.8182	0.1	-2.6938e-003
25581	9.188	4.0909	0.1	-3.0271e-003
25582	9.2799	4.	0.1	-2.9588e-003
25583	9.188	4.2727	0.1	-3.3936e-003
25584	9.2799	4.1818	0.1	-3.2726e-003
25585	9.188	4.4545	0.1	-3.8164e-003
25586	9.2799	4.3636	0.1	-3.6341e-003
25587	9.188	4.6364	0.1	-4.2933e-003
25588	9.2799	4.5455	0.1	-4.0487e-003
25589	9.188	4.8182	0.1	-4.853e-003
25590	9.2799	4.7273	0.1	-4.5057e-003
25591	9.188	5.	0.1	-5.4405e-003
25592	9.2799	4.9091	0.1	-5.068e-003
25593	9.188	5.1818	0.1	-6.458e-003
25594	9.2799	5.0909	0.1	-5.5663e-003
25595	9.188	5.3636	0.1	-6.7218e-003
25596	9.2799	5.2727	0.1	-6.9363e-003
25597	9.188	5.5455	0.1	-1.4835e-002
25598	9.2799	5.4545	0.1	-6.0924e-003
25599	9.188	5.7273	0.1	-0.62063
25600	9.2799	5.6364	0.1	-2.5715e-002
25601	9.2799	5.8182	0.1	-4.3629
25602	9.188	5.9091	0.1	-3.3241
25603	9.3718	0.27273	0.1	-1.5378
25604	9.4637	0.18182	0.1	-5.115
25605	9.3718	9.0909e-002	0.1	-3.7818
25606	9.3718	0.45455	0.1	-1.3011e-002
25607	9.4637	0.36364	0.1	-2.5164e-002
25608	9.3718	0.63636	0.1	-6.0363e-003
25609	9.4637	0.54545	0.1	-5.3513e-003
25610	9.3718	0.81818	0.1	-5.9731e-003
25611	9.4637	0.72727	0.1	-6.3439e-003
25612	9.3718	1.	0.1	-5.1642e-003
25613	9.4637	0.90909	0.1	-5.2498e-003
25614	9.3718	1.1818	0.1	-4.7048e-003
25615	9.4637	1.0909	0.1	-4.8825e-003
25616	9.3718	1.3636	0.1	-4.2513e-003
25617	9.4637	1.2727	0.1	-4.4339e-003
25618	9.3718	1.5455	0.1	-3.8591e-003
25619	9.4637	1.4545	0.1	-4.0645e-003
25620	9.3718	1.7273	0.1	-3.5069e-003
25621	9.4637	1.6364	0.1	-3.7225e-003
25622	9.3718	1.9091	0.1	-3.1989e-003
25623	9.4637	1.8182	0.1	-3.4215e-003
25624	9.3718	2.0909	0.1	-2.9337e-003
25625	9.4637	2.	0.1	-3.1582e-003
25626	9.3718	2.2727	0.1	-2.7134e-003
25627	9.4637	2.1818	0.1	-2.934e-003
25628	9.3718	2.4545	0.1	-2.5407e-003
25629	9.4637	2.3636	0.1	-2.7521e-003
25630	9.3718	2.6364	0.1	-2.4162e-003
25631	9.4637	2.5455	0.1	-2.6152e-003
25632	9.3718	2.8182	0.1	-2.3405e-003
25633	9.4637	2.7273	0.1	-2.5219e-003
25634	9.3718	3.	0.1	-2.3151e-003
25635	9.4637	2.9091	0.1	-2.475e-003
25636	9.3718	3.1818	0.1	-2.3405e-003
25637	9.4637	3.0909	0.1	-2.4749e-003
25638	9.3718	3.3636	0.1	-2.4162e-003
25639	9.4637	3.2727	0.1	-2.5221e-003
25640	9.3718	3.5455	0.1	-2.5406e-003
25641	9.4637	3.4545	0.1	-2.615e-003
25642	9.3718	3.7273	0.1	-2.7133e-003
25643	9.4637	3.6364	0.1	-2.7518e-003
25644	9.3718	3.9091	0.1	-2.9334e-003
25645	9.4637	3.8182	0.1	-2.9337e-003
25646	9.3718	4.0909	0.1	-3.1984e-003
25647	9.4637	4.	0.1	-3.1577e-003
25648	9.3718	4.2727	0.1	-3.5065e-003
25649	9.4637	4.1818	0.1	-3.4212e-003
25650	9.3718	4.4545	0.1	-3.8584e-003
25651	9.4637	4.3636	0.1	-3.7221e-003
25652	9.3718	4.6364	0.1	-4.2504e-003
25653	9.4637	4.5455	0.1	-4.0637e-003
25654	9.3718	4.8182	0.1	-4.7042e-003
25655	9.4637	4.7273	0.1	-4.4333e-003
25656	9.3718	5.	0.1	-5.1631e-003
25657	9.4637	4.9091	0.1	-4.8818e-003
25658	9.3718	5.1818	0.1	-5.9717e-003
25659	9.4637	5.0909	0.1	-5.2482e-003
25660	9.3718	5.3636	0.1	-6.0354e-003
25661	9.4637	5.2727	0.1	-6.3428e-003
25662	9.3718	5.5455	0.1	-1.301e-002
25663	9.4637	5.4545	0.1	-5.3507e-003
25664	9.3718	5.7273	0.1	-1.5378
25665	9.4637	5.6364	0.1	-2.5163e-002
25666	9.4637	5.8182	0.1	-5.115
25667	9.3718	5.9091	0.1	-3.7818
25668	9.5556	0.27273	0.1	-2.4545
25669	9.6474	0.18182	0.1	-5.8277
25670	9.5556	9.0909e-002	0.1	-4.2161
25671	9.5556	0.45455	0.1	-1.1334e-002
25672	9.6474	0.36364	0.1	-8.5154e-002
25673	9.5556	0.63636	0.1	-5.462e-003
25674	9.6474	0.54545	0.1	-4.7146e-003
25675	9.5556	0.81818	0.1	-5.5781e-003
25676	9.6474	0.72727	0.1	-5.8502e-003
25677	9.5556	1.	0.1	-4.9527e-003
25678	9.6474	0.90909	0.1	-4.9972e-003
25679	9.5556	1.1818	0.1	-4.604e-003
25680	9.6474	1.0909	0.1	-4.7408e-003
25681	9.5556	1.3636	0.1	-4.2423e-003
25682	9.6474	1.2727	0.1	-4.3891e-003
25683	9.5556	1.5455	0.1	-3.9241e-003
25684	9.6474	1.4545	0.1	-4.0944e-003
25685	9.5556	1.7273	0.1	-3.6338e-003
25686	9.6474	1.6364	0.1	-3.8157e-003
25687	9.5556	1.9091	0.1	-3.3775e-003
25688	9.6474	1.8182	0.1	-3.5672e-003
25689	9.5556	2.0909	0.1	-3.1552e-003
25690	9.6474	2.	0.1	-3.3478e-003
25691	9.5556	2.2727	0.1	-2.9693e-003
25692	9.6474	2.1818	0.1	-3.1599e-003
25693	9.5556	2.4545	0.1	-2.8232e-003
25694	9.6474	2.3636	0.1	-3.0068e-003
25695	9.5556	2.6364	0.1	-2.7174e-003
25696	9.6474	2.5455	0.1	-2.891e-003
25697	9.5556	2.8182	0.1	-2.6529e-003
25698	9.6474	2.7273	0.1	-2.8122e-003
25699	9.5556	3.	0.1	-2.6314e-003
25700	9.6474	2.9091	0.1	-2.7722e-003
25701	9.5556	3.1818	0.1	-2.653e-003
25702	9.6474	3.0909	0.1	-2.7721e-003
25703	9.5556	3.3636	0.1	-2.7175e-003
25704	9.6474	3.2727	0.1	-2.8123e-003
25705	9.5556	3.5455	0.1	-2.8229e-003
25706	9.6474	3.4545	0.1	-2.8909e-003
25707	9.5556	3.7273	0.1	-2.9689e-003
25708	9.6474	3.6364	0.1	-3.0062e-003
25709	9.5556	3.9091	0.1	-3.1548e-003
25710	9.6474	3.8182	0.1	-3.1594e-003
25711	9.5556	4.0909	0.1	-3.3772e-003
25712	9.6474	4.	0.1	-3.3478e-003
25713	9.5556	4.2727	0.1	-3.6334e-003
25714	9.6474	4.1818	0.1	-3.5668e-003
25715	9.5556	4.4545	0.1	-3.9236e-003
25716	9.6474	4.3636	0.1	-3.8151e-003
25717	9.5556	4.6364	0.1	-4.2418e-003
25718	9.6474	4.5455	0.1	-4.094e-003
25719	9.5556	4.8182	0.1	-4.6034e-003
25720	9.6474	4.7273	0.1	-4.3883e-003
25721	9.5556	5.	0.1	-4.9515e-003
25722	9.6474	4.9091	0.1	-4.74e-003
25723	9.5556	5.1818	0.1	-5.5769e-003
25724	9.6474	5.0909	0.1	-4.9958e-003
25725	9.5556	5.3636	0.1	-5.4612e-003
25726	9.6474	5.2727	0.1	-5.8492e-003
25727	9.5556	5.5455	0.1	-1.1333e-002
25728	9.6474	5.4545	0.1	-4.7139e-003
25729	9.5556	5.7273	0.1	-2.4545
25730	9.6474	5.6364	0.1	-8.5155e-002
25731	9.6474	5.8182	0.1	-5.8277
25732	9.5556	5.9091	0.1	-4.2161
25733	9.7393	0.27273	0.1	-3.3254
25734	9.8312	0.18182	0.1	-6.5024
25735	9.7393	9.0909e-002	0.1	-4.6281
25736	9.7393	0.45455	0.1	-9.7644e-003
25737	9.8312	0.36364	0.1	-1.0463
25738	9.7393	0.63636	0.1	-4.9947e-003
25739	9.8312	0.54545	0.1	-4.2315e-003
25740	9.7393	0.81818	0.1	-5.2578e-003
25741	9.8312	0.72727	0.1	-5.4803e-003
25742	9.7393	1.	0.1	-4.7848e-003
25743	9.8312	0.90909	0.1	-4.8228e-003
25744	9.7393	1.1818	0.1	-4.5269e-003
25745	9.8312	1.0909	0.1	-4.6506e-003
25746	9.7393	1.3636	0.1	-4.242e-003
25747	9.8312	1.2727	0.1	-4.3766e-003
25748	9.7393	1.5455	0.1	-3.9862e-003
25749	9.8312	1.4545	0.1	-4.143e-003
25750	9.7393	1.7273	0.1	-3.7487e-003
25751	9.8312	1.6364	0.1	-3.9164e-003
25752	9.7393	1.9091	0.1	-3.5365e-003
25753	9.8312	1.8182	0.1	-3.7123e-003
25754	9.7393	2.0909	0.1	-3.3511e-003
25755	9.8312	2.	0.1	-3.5307e-003
25756	9.7393	2.2727	0.1	-3.1956e-003
25757	9.8312	2.1818	0.1	-3.3737e-003
25758	9.7393	2.4545	0.1	-3.0726e-003
25759	9.8312	2.3636	0.1	-3.2452e-003
25760	9.7393	2.6364	0.1	-2.9835e-003
25761	9.8312	2.5455	0.1	-3.1482e-003
25762	9.7393	2.8182	0.1	-2.9292e-003
25763	9.8312	2.7273	0.1	-3.0816e-003
25764	9.7393	3.	0.1	-2.9106e-003
25765	9.8312	2.9091	0.1	-3.0477e-003
25766	9.7393	3.1818	0.1	-2.9291e-003
25767	9.8312	3.0909	0.1	-3.0478e-003
25768	9.7393	3.3636	0.1	-2.9836e-003
25769	9.8312	3.2727	0.1	-3.0816e-003
25770	9.7393	3.5455	0.1	-3.0723e-003
25771	9.8312	3.4545	0.1	-3.148e-003
25772	9.7393	3.7273	0.1	-3.195e-003
25773	9.8312	3.6364	0.1	-3.245e-003
25774	9.7393	3.9091	0.1	-3.351e-003
25775	9.8312	3.8182	0.1	-3.3733e-003
25776	9.7393	4.0909	0.1	-3.5364e-003
25777	9.8312	4.	0.1	-3.5304e-003
25778	9.7393	4.2727	0.1	-3.7481e-003
25779	9.8312	4.1818	0.1	-3.7119e-003
25780	9.7393	4.4545	0.1	-3.9857e-003
25781	9.8312	4.3636	0.1	-3.9159e-003
25782	9.7393	4.6364	0.1	-4.2413e-003
25783	9.8312	4.5455	0.1	-4.1423e-003
25784	9.7393	4.8182	0.1	-4.526e-003
25785	9.8312	4.7273	0.1	-4.3758e-003
25786	9.7393	5.	0.1	-4.7838e-003
25787	9.8312	4.9091	0.1	-4.6499e-003
25788	9.7393	5.1818	0.1	-5.2566e-003
25789	9.8312	5.0909	0.1	-4.8214e-003
25790	9.7393	5.3636	0.1	-4.9938e-003
25791	9.8312	5.2727	0.1	-5.4792e-003
25792	9.7393	5.5455	0.1	-9.7637e-003
25793	9.8312	5.4545	0.1	-4.2308e-003
25794	9.7393	5.7273	0.1	-3.3254
25795	9.8312	5.6364	0.1	-1.0463
25796	9.8312	5.8182	0.1	-6.5024
25797	9.7393	5.9091	0.1	-4.6281
25798	9.9231	0.27273	0.1	-4.1473
25799	10.015	0.18182	0.1	-7.1412
25800	9.9231	9.0909e-002	0.1	-5.0189
25801	9.9231	0.45455	0.1	-8.3207e-003
25802	10.015	0.36364	0.1	-2.0073
25803	9.9231	0.63636	0.1	-4.7203e-003
25804	10.015	0.54545	0.1	-4.1164e-003
25805	9.9231	0.81818	0.1	-5.0653e-003
25806	10.015	0.72727	0.1	-5.3183e-003
25807	9.9231	1.	0.1	-4.7026e-003
25808	10.015	0.90909	0.1	-4.781e-003
25809	9.9231	1.1818	0.1	-4.5096e-003
25810	10.015	1.0909	0.1	-4.6555e-003
25811	9.9231	1.3636	0.1	-4.2838e-003
25812	10.015	1.2727	0.1	-4.4352e-003
25813	9.9231	1.5455	0.1	-4.0771e-003
25814	10.015	1.4545	0.1	-4.2458e-003
25815	9.9231	1.7273	0.1	-3.8823e-003
25816	10.015	1.6364	0.1	-4.0597e-003
25817	9.9231	1.9091	0.1	-3.7076e-003
25818	10.015	1.8182	0.1	-3.8909e-003
25819	9.9231	2.0909	0.1	-3.5536e-003
25820	10.015	2.	0.1	-3.7401e-003
25821	9.9231	2.2727	0.1	-3.423e-003
25822	10.015	2.1818	0.1	-3.6088e-003
25823	9.9231	2.4545	0.1	-3.32e-003
25824	10.015	2.3636	0.1	-3.5009e-003
25825	9.9231	2.6364	0.1	-3.2451e-003
25826	10.015	2.5455	0.1	-3.4197e-003
25827	9.9231	2.8182	0.1	-3.1989e-003
25828	10.015	2.7273	0.1	-3.3634e-003
25829	9.9231	3.	0.1	-3.1835e-003
25830	10.015	2.9091	0.1	-3.3347e-003
25831	9.9231	3.1818	0.1	-3.199e-003
25832	10.015	3.0909	0.1	-3.3348e-003
25833	9.9231	3.3636	0.1	-3.2449e-003
25834	10.015	3.2727	0.1	-3.3632e-003
25835	9.9231	3.5455	0.1	-3.3199e-003
25836	10.015	3.4545	0.1	-3.4193e-003
25837	9.9231	3.7273	0.1	-3.4229e-003
25838	10.015	3.6364	0.1	-3.5008e-003
25839	9.9231	3.9091	0.1	-3.553e-003
25840	10.015	3.8182	0.1	-3.6082e-003
25841	9.9231	4.0909	0.1	-3.7071e-003
25842	10.015	4.	0.1	-3.7397e-003
25843	9.9231	4.2727	0.1	-3.882e-003
25844	10.015	4.1818	0.1	-3.8907e-003
25845	9.9231	4.4545	0.1	-4.0764e-003
25846	10.015	4.3636	0.1	-4.059e-003
25847	9.9231	4.6364	0.1	-4.283e-003
25848	10.015	4.5455	0.1	-4.2452e-003
25849	9.9231	4.8182	0.1	-4.5091e-003
25850	10.015	4.7273	0.1	-4.4345e-003
25851	9.9231	5.	0.1	-4.7015e-003
25852	10.015	4.9091	0.1	-4.655e-003
25853	9.9231	5.1818	0.1	-5.064e-003
25854	10.015	5.0909	0.1	-4.7796e-003
25855	9.9231	5.3636	0.1	-4.7194e-003
25856	10.015	5.2727	0.1	-5.3168e-003
25857	9.9231	5.5455	0.1	-8.3199e-003
25858	10.015	5.4545	0.1	-4.1161e-003
25859	9.9231	5.7273	0.1	-4.1473
25860	10.015	5.6364	0.1	-2.0073
25861	10.015	5.8182	0.1	-7.1412
25862	9.9231	5.9091	0.1	-5.0189
25863	10.107	0.27273	0.1	-4.922
25864	10.199	0.18182	0.1	-7.7462
25865	10.107	9.0909e-002	0.1	-5.3898
25866	10.107	0.45455	0.1	-0.58492
25867	10.199	0.36364	0.1	-2.91
25868	10.107	0.63636	0.1	-4.832e-003
25869	10.199	0.54545	0.1	-5.7803e-003
25870	10.107	0.81818	0.1	-5.0831e-003
25871	10.199	0.72727	0.1	-5.4707e-003
25872	10.107	1.	0.1	-4.7614e-003
25873	10.199	0.90909	0.1	-4.8959e-003
25874	10.107	1.1818	0.1	-4.5983e-003
25875	10.199	1.0909	0.1	-4.7569e-003
25876	10.107	1.3636	0.1	-4.4085e-003
25877	10.199	1.2727	0.1	-4.5569e-003
25878	10.107	1.5455	0.1	-4.2359e-003
25879	10.199	1.4545	0.1	-4.3908e-003
25880	10.107	1.7273	0.1	-4.0732e-003
25881	10.199	1.6364	0.1	-4.2311e-003
25882	10.107	1.9091	0.1	-3.9265e-003
25883	10.199	1.8182	0.1	-4.0869e-003
25884	10.107	2.0909	0.1	-3.7971e-003
25885	10.199	2.	0.1	-3.9586e-003
25886	10.107	2.2727	0.1	-3.6876e-003
25887	10.199	2.1818	0.1	-3.8473e-003
25888	10.107	2.4545	0.1	-3.6008e-003
25889	10.199	2.3636	0.1	-3.7561e-003
25890	10.107	2.6364	0.1	-3.5377e-003
25891	10.199	2.5455	0.1	-3.6871e-003
25892	10.107	2.8182	0.1	-3.4987e-003
25893	10.199	2.7273	0.1	-3.6396e-003
25894	10.107	3.	0.1	-3.4854e-003
25895	10.199	2.9091	0.1	-3.6153e-003
25896	10.107	3.1818	0.1	-3.4984e-003
25897	10.199	3.0909	0.1	-3.6151e-003
25898	10.107	3.3636	0.1	-3.5373e-003
25899	10.199	3.2727	0.1	-3.6393e-003
25900	10.107	3.5455	0.1	-3.6004e-003
25901	10.199	3.4545	0.1	-3.6869e-003
25902	10.107	3.7273	0.1	-3.6869e-003
25903	10.199	3.6364	0.1	-3.7556e-003
25904	10.107	3.9091	0.1	-3.7967e-003
25905	10.199	3.8182	0.1	-3.8469e-003
25906	10.107	4.0909	0.1	-3.9263e-003
25907	10.199	4.	0.1	-3.9586e-003
25908	10.107	4.2727	0.1	-4.0725e-003
25909	10.199	4.1818	0.1	-4.0866e-003
25910	10.107	4.4545	0.1	-4.2353e-003
25911	10.199	4.3636	0.1	-4.2304e-003
25912	10.107	4.6364	0.1	-4.4079e-003
25913	10.199	4.5455	0.1	-4.3903e-003
25914	10.107	4.8182	0.1	-4.5975e-003
25915	10.199	4.7273	0.1	-4.5562e-003
25916	10.107	5.	0.1	-4.7606e-003
25917	10.199	4.9091	0.1	-4.7565e-003
25918	10.107	5.1818	0.1	-5.0815e-003
25919	10.199	5.0909	0.1	-4.8944e-003
25920	10.107	5.3636	0.1	-4.8311e-003
25921	10.199	5.2727	0.1	-5.4692e-003
25922	10.107	5.5455	0.1	-0.58493
25923	10.199	5.4545	0.1	-5.78e-003
25924	10.107	5.7273	0.1	-4.922
25925	10.199	5.6364	0.1	-2.91
25926	10.199	5.8182	0.1	-7.7462
25927	10.107	5.9091	0.1	-5.3898
25928	10.291	0.27273	0.1	-5.6522
25929	10.382	0.18182	0.1	-8.3195
25930	10.291	9.0909e-002	0.1	-5.7418
25931	10.291	0.45455	0.1	-1.6117
25932	10.382	0.36364	0.1	-3.7578
25933	10.291	0.63636	0.1	-5.8751e-003
25934	10.382	0.54545	0.1	-0.45646
25935	10.291	0.81818	0.1	-5.3445e-003
25936	10.382	0.72727	0.1	-6.2867e-003
25937	10.291	1.	0.1	-4.9298e-003
25938	10.382	0.90909	0.1	-5.2294e-003
25939	10.291	1.1818	0.1	-4.7399e-003
25940	10.382	1.0909	0.1	-4.9636e-003
25941	10.291	1.3636	0.1	-4.5553e-003
25942	10.382	1.2727	0.1	-4.7318e-003
25943	10.291	1.5455	0.1	-4.3968e-003
25944	10.382	1.4545	0.1	-4.5604e-003
25945	10.291	1.7273	0.1	-4.2521e-003
25946	10.382	1.6364	0.1	-4.4075e-003
25947	10.291	1.9091	0.1	-4.1239e-003
25948	10.382	1.8182	0.1	-4.2754e-003
25949	10.291	2.0909	0.1	-4.012e-003
25950	10.382	2.	0.1	-4.1606e-003
25951	10.291	2.2727	0.1	-3.9177e-003
25952	10.382	2.1818	0.1	-4.0624e-003
25953	10.291	2.4545	0.1	-3.8433e-003
25954	10.382	2.3636	0.1	-3.9826e-003
25955	10.291	2.6364	0.1	-3.7895e-003
25956	10.382	2.5455	0.1	-3.9226e-003
25957	10.291	2.8182	0.1	-3.7563e-003
25958	10.382	2.7273	0.1	-3.8815e-003
25959	10.291	3.	0.1	-3.745e-003
25960	10.382	2.9091	0.1	-3.8604e-003
25961	10.291	3.1818	0.1	-3.756e-003
25962	10.382	3.0909	0.1	-3.8604e-003
25963	10.291	3.3636	0.1	-3.7893e-003
25964	10.382	3.2727	0.1	-3.8813e-003
25965	10.291	3.5455	0.1	-3.8432e-003
25966	10.382	3.4545	0.1	-3.9226e-003
25967	10.291	3.7273	0.1	-3.9174e-003
25968	10.382	3.6364	0.1	-3.9821e-003
25969	10.291	3.9091	0.1	-4.0119e-003
25970	10.382	3.8182	0.1	-4.0622e-003
25971	10.291	4.0909	0.1	-4.1237e-003
25972	10.382	4.	0.1	-4.1605e-003
25973	10.291	4.2727	0.1	-4.2517e-003
25974	10.382	4.1818	0.1	-4.2749e-003
25975	10.291	4.4545	0.1	-4.3963e-003
25976	10.382	4.3636	0.1	-4.4069e-003
25977	10.291	4.6364	0.1	-4.5547e-003
25978	10.382	4.5455	0.1	-4.5596e-003
25979	10.291	4.8182	0.1	-4.7395e-003
25980	10.382	4.7273	0.1	-4.7312e-003
25981	10.291	5.	0.1	-4.9287e-003
25982	10.382	4.9091	0.1	-4.963e-003
25983	10.291	5.1818	0.1	-5.3432e-003
25984	10.382	5.0909	0.1	-5.2279e-003
25985	10.291	5.3636	0.1	-5.8743e-003
25986	10.382	5.2727	0.1	-6.2857e-003
25987	10.291	5.5455	0.1	-1.6117
25988	10.382	5.4545	0.1	-0.45648
25989	10.291	5.7273	0.1	-5.6522
25990	10.382	5.6364	0.1	-3.7578
25991	10.382	5.8182	0.1	-8.3195
25992	10.291	5.9091	0.1	-5.7418
25993	10.474	0.27273	0.1	-6.3409
25994	10.566	0.18182	0.1	-8.8634
25995	10.474	9.0909e-002	0.1	-6.0765
25996	10.474	0.45455	0.1	-2.5743
25997	10.566	0.36364	0.1	-4.5548
25998	10.474	0.63636	0.1	-1.4181e-002
25999	10.566	0.54545	0.1	-1.5221
26000	10.474	0.81818	0.1	-6.1453e-003
26001	10.566	0.72727	0.1	-9.5604e-003
26002	10.474	1.	0.1	-5.304e-003
26003	10.566	0.90909	0.1	-6.0039e-003
26004	10.474	1.1818	0.1	-4.9856e-003
26005	10.566	1.0909	0.1	-5.3514e-003
26006	10.474	1.3636	0.1	-4.7575e-003
26007	10.566	1.2727	0.1	-4.9963e-003
26008	10.474	1.5455	0.1	-4.5852e-003
26009	10.566	1.4545	0.1	-4.7738e-003
26010	10.474	1.7273	0.1	-4.4405e-003
26011	10.566	1.6364	0.1	-4.6015e-003
26012	10.474	1.9091	0.1	-4.3186e-003
26013	10.566	1.8182	0.1	-4.4643e-003
26014	10.474	2.0909	0.1	-4.2153e-003
26015	10.566	2.	0.1	-4.3512e-003
26016	10.474	2.2727	0.1	-4.13e-003
26017	10.566	2.1818	0.1	-4.2577e-003
26018	10.474	2.4545	0.1	-4.0635e-003
26019	10.566	2.3636	0.1	-4.1835e-003
26020	10.474	2.6364	0.1	-4.0156e-003
26021	10.566	2.5455	0.1	-4.1285e-003
26022	10.474	2.8182	0.1	-3.9861e-003
26023	10.566	2.7273	0.1	-4.0912e-003
26024	10.474	3.	0.1	-3.9762e-003
26025	10.566	2.9091	0.1	-4.072e-003
26026	10.474	3.1818	0.1	-3.9862e-003
26027	10.566	3.0909	0.1	-4.0719e-003
26028	10.474	3.3636	0.1	-4.0156e-003
26029	10.566	3.2727	0.1	-4.0914e-003
26030	10.474	3.5455	0.1	-4.0632e-003
26031	10.566	3.4545	0.1	-4.1285e-003
26032	10.474	3.7273	0.1	-4.1296e-003
26033	10.566	3.6364	0.1	-4.1833e-003
26034	10.474	3.9091	0.1	-4.2151e-003
26035	10.566	3.8182	0.1	-4.2571e-003
26036	10.474	4.0909	0.1	-4.3182e-003
26037	10.566	4.	0.1	-4.351e-003
26038	10.474	4.2727	0.1	-4.4397e-003
26039	10.566	4.1818	0.1	-4.4637e-003
26040	10.474	4.4545	0.1	-4.5843e-003
26041	10.566	4.3636	0.1	-4.6008e-003
26042	10.474	4.6364	0.1	-4.7567e-003
26043	10.566	4.5455	0.1	-4.7732e-003
26044	10.474	4.8182	0.1	-4.9848e-003
26045	10.566	4.7273	0.1	-4.9953e-003
26046	10.474	5.	0.1	-5.3029e-003
26047	10.566	4.9091	0.1	-5.3509e-003
26048	10.474	5.1818	0.1	-6.1442e-003
26049	10.566	5.0909	0.1	-6.0028e-003
26050	10.474	5.3636	0.1	-1.418e-002
26051	10.566	5.2727	0.1	-9.5594e-003
26052	10.474	5.5455	0.1	-2.5743
26053	10.566	5.4545	0.1	-1.5221
26054	10.474	5.7273	0.1	-6.3409
26055	10.566	5.6364	0.1	-4.5548
26056	10.566	5.8182	0.1	-8.8634
26057	10.474	5.9091	0.1	-6.0765
26058	10.658	0.27273	0.1	-6.9911
26059	10.75	0.18182	0.1	-9.3798
26060	10.658	9.0909e-002	0.1	-6.3947
26061	10.658	0.45455	0.1	-3.4778
26062	10.75	0.36364	0.1	-5.3049
26063	10.658	0.63636	0.1	-0.67635
26064	10.75	0.54545	0.1	-2.5245
26065	10.658	0.81818	0.1	-8.4896e-003
26066	10.75	0.72727	0.1	-6.918e-002
26067	10.658	1.	0.1	-6.0633e-003
26068	10.75	0.90909	0.1	-7.9385e-003
26069	10.658	1.1818	0.1	-5.3944e-003
26070	10.75	1.0909	0.1	-6.1167e-003
26071	10.658	1.3636	0.1	-5.0374e-003
26072	10.75	1.2727	0.1	-5.446e-003
26073	10.658	1.5455	0.1	-4.8076e-003
26074	10.75	1.4545	0.1	-5.0932e-003
26075	10.658	1.7273	0.1	-4.6374e-003
26076	10.75	1.6364	0.1	-4.8602e-003
26077	10.658	1.9091	0.1	-4.5051e-003
26078	10.75	1.8182	0.1	-4.6927e-003
26079	10.658	2.0909	0.1	-4.399e-003
26080	10.75	2.	0.1	-4.5654e-003
26081	10.658	2.2727	0.1	-4.3146e-003
26082	10.75	2.1818	0.1	-4.4656e-003
26083	10.658	2.4545	0.1	-4.2505e-003
26084	10.75	2.3636	0.1	-4.3894e-003
26085	10.658	2.6364	0.1	-4.2053e-003
26086	10.75	2.5455	0.1	-4.3345e-003
26087	10.658	2.8182	0.1	-4.1777e-003
26088	10.75	2.7273	0.1	-4.2978e-003
26089	10.658	3.	0.1	-4.1681e-003
26090	10.75	2.9091	0.1	-4.2793e-003
26091	10.658	3.1818	0.1	-4.1777e-003
26092	10.75	3.0909	0.1	-4.2791e-003
26093	10.658	3.3636	0.1	-4.2055e-003
26094	10.75	3.2727	0.1	-4.298e-003
26095	10.658	3.5455	0.1	-4.2506e-003
26096	10.75	3.4545	0.1	-4.3345e-003
26097	10.658	3.7273	0.1	-4.3143e-003
26098	10.75	3.6364	0.1	-4.3894e-003
26099	10.658	3.9091	0.1	-4.3984e-003
26100	10.75	3.8182	0.1	-4.4651e-003
26101	10.658	4.0909	0.1	-4.5047e-003
26102	10.75	4.	0.1	-4.5653e-003
26103	10.658	4.2727	0.1	-4.6368e-003
26104	10.75	4.1818	0.1	-4.6922e-003
26105	10.658	4.4545	0.1	-4.8071e-003
26106	10.75	4.3636	0.1	-4.8597e-003
26107	10.658	4.6364	0.1	-5.0367e-003
26108	10.75	4.5455	0.1	-5.0929e-003
26109	10.658	4.8182	0.1	-5.3937e-003
26110	10.75	4.7273	0.1	-5.4451e-003
26111	10.658	5.	0.1	-6.0626e-003
26112	10.75	4.9091	0.1	-6.1161e-003
26113	10.658	5.1818	0.1	-8.4886e-003
26114	10.75	5.0909	0.1	-7.9373e-003
26115	10.658	5.3636	0.1	-0.67637
26116	10.75	5.2727	0.1	-6.9185e-002
26117	10.658	5.5455	0.1	-3.4778
26118	10.75	5.4545	0.1	-2.5245
26119	10.658	5.7273	0.1	-6.9911
26120	10.75	5.6364	0.1	-5.3049
26121	10.75	5.8182	0.1	-9.3798
26122	10.658	5.9091	0.1	-6.3947
26123	10.842	0.27273	0.1	-7.6057
26124	10.934	0.18182	0.1	-9.8709
26125	10.842	9.0909e-002	0.1	-6.6979
26126	10.842	0.45455	0.1	-4.3271
26127	10.934	0.36364	0.1	-6.0121
26128	10.842	0.63636	0.1	-1.7598
26129	10.934	0.54545	0.1	-3.4664
26130	10.842	0.81818	0.1	-2.0725e-002
26131	10.934	0.72727	0.1	-1.0994
26132	10.842	1.	0.1	-7.8276e-003
26133	10.934	0.90909	0.1	-1.4781e-002
26134	10.842	1.1818	0.1	-6.1924e-003
26135	10.934	1.0909	0.1	-7.7581e-003
26136	10.842	1.3636	0.1	-5.5305e-003
26137	10.934	1.2727	0.1	-6.266e-003
26138	10.842	1.5455	0.1	-5.1672e-003
26139	10.934	1.4545	0.1	-5.6211e-003
26140	10.842	1.7273	0.1	-4.9304e-003
26141	10.934	1.6364	0.1	-5.2534e-003
26142	10.842	1.9091	0.1	-4.7631e-003
26143	10.934	1.8182	0.1	-5.0156e-003
26144	10.842	2.0909	0.1	-4.6385e-003
26145	10.934	2.	0.1	-4.8497e-003
26146	10.842	2.2727	0.1	-4.5444e-003
26147	10.934	2.1818	0.1	-4.728e-003
26148	10.842	2.4545	0.1	-4.4757e-003
26149	10.934	2.3636	0.1	-4.6397e-003
26150	10.842	2.6364	0.1	-4.4281e-003
26151	10.934	2.5455	0.1	-4.5782e-003
26152	10.842	2.8182	0.1	-4.3998e-003
26153	10.934	2.7273	0.1	-4.5378e-003
26154	10.842	3.	0.1	-4.3905e-003
26155	10.934	2.9091	0.1	-4.5181e-003
26156	10.842	3.1818	0.1	-4.3998e-003
26157	10.934	3.0909	0.1	-4.5177e-003
26158	10.842	3.3636	0.1	-4.4281e-003
26159	10.934	3.2727	0.1	-4.5377e-003
26160	10.842	3.5455	0.1	-4.4755e-003
26161	10.934	3.4545	0.1	-4.5781e-003
26162	10.842	3.7273	0.1	-4.5442e-003
26163	10.934	3.6364	0.1	-4.6394e-003
26164	10.842	3.9091	0.1	-4.6384e-003
26165	10.934	3.8182	0.1	-4.7277e-003
26166	10.842	4.0909	0.1	-4.7628e-003
26167	10.934	4.	0.1	-4.8495e-003
26168	10.842	4.2727	0.1	-4.93e-003
26169	10.934	4.1818	0.1	-5.0152e-003
26170	10.842	4.4545	0.1	-5.1669e-003
26171	10.934	4.3636	0.1	-5.253e-003
26172	10.842	4.6364	0.1	-5.5299e-003
26173	10.934	4.5455	0.1	-5.6205e-003
26174	10.842	4.8182	0.1	-6.1916e-003
26175	10.934	4.7273	0.1	-6.2655e-003
26176	10.842	5.	0.1	-7.8266e-003
26177	10.934	4.9091	0.1	-7.7573e-003
26178	10.842	5.1818	0.1	-2.0724e-002
26179	10.934	5.0909	0.1	-1.4779e-002
26180	10.842	5.3636	0.1	-1.7598
26181	10.934	5.2727	0.1	-1.0994
26182	10.842	5.5455	0.1	-4.3271
26183	10.934	5.4545	0.1	-3.4665
26184	10.842	5.7273	0.1	-7.6057
26185	10.934	5.6364	0.1	-6.0121
26186	10.934	5.8182	0.1	-9.8709
26187	10.842	5.9091	0.1	-6.6979
26188	11.026	0.27273	0.1	-8.1877
26189	11.118	0.18182	0.1	-10.338
26190	11.026	9.0909e-002	0.1	-6.9871
26191	11.026	0.45455	0.1	-5.1267
26192	11.118	0.36364	0.1	-6.6796
26193	11.026	0.63636	0.1	-2.7813
26194	11.118	0.54545	0.1	-4.3527
26195	11.026	0.81818	0.1	-0.59258
26196	11.118	0.72727	0.1	-2.1937
26197	11.026	1.	0.1	-1.3081e-002
26198	11.118	0.90909	0.1	-0.20944
26199	11.026	1.1818	0.1	-7.8088e-003
26200	11.118	1.0909	0.1	-1.2118e-002
26201	11.026	1.3636	0.1	-6.3889e-003
26202	11.118	1.2727	0.1	-7.8206e-003
26203	11.026	1.5455	0.1	-5.7348e-003
26204	11.118	1.4545	0.1	-6.4699e-003
26205	11.026	1.7273	0.1	-5.3578e-003
26206	11.118	1.6364	0.1	-5.8145e-003
26207	11.026	1.9091	0.1	-5.115e-003
26208	11.118	1.8182	0.1	-5.4334e-003
26209	11.026	2.0909	0.1	-4.9472e-003
26210	11.118	2.	0.1	-5.1879e-003
26211	11.026	2.2727	0.1	-4.8278e-003
26212	11.118	2.1818	0.1	-5.0202e-003
26213	11.026	2.4545	0.1	-4.7444e-003
26214	11.118	2.3636	0.1	-4.9038e-003
26215	11.026	2.6364	0.1	-4.6886e-003
26216	11.118	2.5455	0.1	-4.8258e-003
26217	11.026	2.8182	0.1	-4.6558e-003
26218	11.118	2.7273	0.1	-4.7761e-003
26219	11.026	3.	0.1	-4.6448e-003
26220	11.118	2.9091	0.1	-4.7521e-003
26221	11.026	3.1818	0.1	-4.6554e-003
26222	11.118	3.0909	0.1	-4.7516e-003
26223	11.026	3.3636	0.1	-4.6884e-003
26224	11.118	3.2727	0.1	-4.7761e-003
26225	11.026	3.5455	0.1	-4.7442e-003
26226	11.118	3.4545	0.1	-4.8254e-003
26227	11.026	3.7273	0.1	-4.8275e-003
26228	11.118	3.6364	0.1	-4.9035e-003
26229	11.026	3.9091	0.1	-4.9467e-003
26230	11.118	3.8182	0.1	-5.0196e-003
26231	11.026	4.0909	0.1	-5.1145e-003
26232	11.118	4.	0.1	-5.1877e-003
26233	11.026	4.2727	0.1	-5.3574e-003
26234	11.118	4.1818	0.1	-5.4328e-003
26235	11.026	4.4545	0.1	-5.7341e-003
26236	11.118	4.3636	0.1	-5.814e-003
26237	11.026	4.6364	0.1	-6.3883e-003
26238	11.118	4.5455	0.1	-6.4692e-003
26239	11.026	4.8182	0.1	-7.8083e-003
26240	11.118	4.7273	0.1	-7.8202e-003
26241	11.026	5.	0.1	-1.308e-002
26242	11.118	4.9091	0.1	-1.2117e-002
26243	11.026	5.1818	0.1	-0.59261
26244	11.118	5.0909	0.1	-0.20946
26245	11.026	5.3636	0.1	-2.7813
26246	11.118	5.2727	0.1	-2.1938
26247	11.026	5.5455	0.1	-5.1268
26248	11.118	5.4545	0.1	-4.3527
26249	11.026	5.7273	0.1	-8.1877
26250	11.118	5.6364	0.1	-6.6796
26251	11.118	5.8182	0.1	-10.338
26252	11.026	5.9091	0.1	-6.9871
26253	11.209	0.27273	0.1	-8.7393
26254	11.301	0.18182	0.1	-10.784
26255	11.209	9.0909e-002	0.1	-7.2632
26256	11.209	0.45455	0.1	-5.8807
26257	11.301	0.36364	0.1	-7.3109
26258	11.209	0.63636	0.1	-3.7428
26259	11.301	0.54545	0.1	-5.1881
26260	11.209	0.81818	0.1	-1.7407
26261	11.301	0.72727	0.1	-3.2261
26262	11.209	1.	0.1	-7.3287e-002
26263	11.301	0.90909	0.1	-1.3703
26264	11.209	1.1818	0.1	-1.1832e-002
26265	11.301	1.0909	0.1	-4.2989e-002
26266	11.209	1.3636	0.1	-7.941e-003
26267	11.301	1.2727	0.1	-1.1628e-002
26268	11.209	1.5455	0.1	-6.5911e-003
26269	11.301	1.4545	0.1	-8.0275e-003
26270	11.209	1.7273	0.1	-5.9185e-003
26271	11.301	1.6364	0.1	-6.6837e-003
26272	11.209	1.9091	0.1	-5.5242e-003
26273	11.301	1.8182	0.1	-5.9995e-003
26274	11.209	2.0909	0.1	-5.2713e-003
26275	11.301	2.	0.1	-5.5958e-003
26276	11.209	2.2727	0.1	-5.1015e-003
26277	11.301	2.1818	0.1	-5.338e-003
26278	11.209	2.4545	0.1	-4.9872e-003
26279	11.301	2.3636	0.1	-5.168e-003
26280	11.209	2.6364	0.1	-4.9132e-003
26281	11.301	2.5455	0.1	-5.0574e-003
26282	11.209	2.8182	0.1	-4.8709e-003
26283	11.301	2.7273	0.1	-4.9893e-003
26284	11.209	3.	0.1	-4.8571e-003
26285	11.301	2.9091	0.1	-4.957e-003
26286	11.209	3.1818	0.1	-4.8709e-003
26287	11.301	3.0909	0.1	-4.9568e-003
26288	11.209	3.3636	0.1	-4.913e-003
26289	11.301	3.2727	0.1	-4.9896e-003
26290	11.209	3.5455	0.1	-4.9868e-003
26291	11.301	3.4545	0.1	-5.0571e-003
26292	11.209	3.7273	0.1	-5.1011e-003
26293	11.301	3.6364	0.1	-5.1677e-003
26294	11.209	3.9091	0.1	-5.271e-003
26295	11.301	3.8182	0.1	-5.3375e-003
26296	11.209	4.0909	0.1	-5.5238e-003
26297	11.301	4.	0.1	-5.5958e-003
26298	11.209	4.2727	0.1	-5.9178e-003
26299	11.301	4.1818	0.1	-5.9988e-003
26300	11.209	4.4545	0.1	-6.5905e-003
26301	11.301	4.3636	0.1	-6.6831e-003
26302	11.209	4.6364	0.1	-7.9406e-003
26303	11.301	4.5455	0.1	-8.0272e-003
26304	11.209	4.8182	0.1	-1.1832e-002
26305	11.301	4.7273	0.1	-1.1627e-002
26306	11.209	5.	0.1	-7.3292e-002
26307	11.301	4.9091	0.1	-4.299e-002
26308	11.209	5.1818	0.1	-1.7408
26309	11.301	5.0909	0.1	-1.3703
26310	11.209	5.3636	0.1	-3.7428
26311	11.301	5.2727	0.1	-3.2261
26312	11.209	5.5455	0.1	-5.8807
26313	11.301	5.4545	0.1	-5.1881
26314	11.209	5.7273	0.1	-8.7393
26315	11.301	5.6364	0.1	-7.3109
26316	11.301	5.8182	0.1	-10.784
26317	11.209	5.9091	0.1	-7.2632
26318	11.393	0.27273	0.1	-9.2633
26319	11.485	0.18182	0.1	-11.21
26320	11.393	9.0909e-002	0.1	-7.5273
26321	11.393	0.45455	0.1	-6.5931
26322	11.485	0.36364	0.1	-7.9091
26323	11.393	0.63636	0.1	-4.6493
26324	11.485	0.54545	0.1	-5.9771
26325	11.393	0.81818	0.1	-2.8324
26326	11.485	0.72727	0.1	-4.2001
26327	11.393	1.	0.1	-1.1231
26328	11.485	0.90909	0.1	-2.5178
26329	11.393	1.1818	0.1	-3.6369e-002
26330	11.485	1.0909	0.1	-0.94441
26331	11.393	1.3636	0.1	-1.1813e-002
26332	11.485	1.2727	0.1	-3.3692e-002
26333	11.393	1.5455	0.1	-8.2145e-003
26334	11.485	1.4545	0.1	-1.2019e-002
26335	11.393	1.7273	0.1	-6.8206e-003
26336	11.485	1.6364	0.1	-8.3724e-003
26337	11.393	1.9091	0.1	-6.1029e-003
26338	11.485	1.8182	0.1	-6.9267e-003
26339	11.393	2.0909	0.1	-5.6796e-003
26340	11.485	2.	0.1	-6.1777e-003
26341	11.393	2.2727	0.1	-5.4124e-003
26342	11.485	2.1818	0.1	-5.7376e-003
26343	11.393	2.4545	0.1	-5.2402e-003
26344	11.485	2.3636	0.1	-5.4634e-003
26345	11.393	2.6364	0.1	-5.132e-003
26346	11.485	2.5455	0.1	-5.2919e-003
26347	11.393	2.8182	0.1	-5.0719e-003
26348	11.485	2.7273	0.1	-5.1892e-003
26349	11.393	3.	0.1	-5.0525e-003
26350	11.485	2.9091	0.1	-5.1414e-003
26351	11.393	3.1818	0.1	-5.0719e-003
26352	11.485	3.0909	0.1	-5.1412e-003
26353	11.393	3.3636	0.1	-5.1322e-003
26354	11.485	3.2727	0.1	-5.1895e-003
26355	11.393	3.5455	0.1	-5.2401e-003
26356	11.485	3.4545	0.1	-5.2919e-003
26357	11.393	3.7273	0.1	-5.412e-003
26358	11.485	3.6364	0.1	-5.4632e-003
26359	11.393	3.9091	0.1	-5.6794e-003
26360	11.485	3.8182	0.1	-5.7372e-003
26361	11.393	4.0909	0.1	-6.1026e-003
26362	11.485	4.	0.1	-6.1777e-003
26363	11.393	4.2727	0.1	-6.82e-003
26364	11.485	4.1818	0.1	-6.9261e-003
26365	11.393	4.4545	0.1	-8.2141e-003
26366	11.485	4.3636	0.1	-8.3719e-003
26367	11.393	4.6364	0.1	-1.1813e-002
26368	11.485	4.5455	0.1	-1.2019e-002
26369	11.393	4.8182	0.1	-3.6369e-002
26370	11.485	4.7273	0.1	-3.3693e-002
26371	11.393	5.	0.1	-1.1231
26372	11.485	4.9091	0.1	-0.94444
26373	11.393	5.1818	0.1	-2.8324
26374	11.485	5.0909	0.1	-2.5178
26375	11.393	5.3636	0.1	-4.6493
26376	11.485	5.2727	0.1	-4.2001
26377	11.393	5.5455	0.1	-6.5931
26378	11.485	5.4545	0.1	-5.9771
26379	11.393	5.7273	0.1	-9.2633
26380	11.485	5.6364	0.1	-7.9091
26381	11.485	5.8182	0.1	-11.21
26382	11.393	5.9091	0.1	-7.5273
26383	11.577	0.27273	0.1	-9.7618
26384	11.669	0.18182	0.1	-11.617
26385	11.577	9.0909e-002	0.1	-7.7802
26386	11.577	0.45455	0.1	-7.2676
26387	11.669	0.36364	0.1	-8.4771
26388	11.577	0.63636	0.1	-5.5056
26389	11.669	0.54545	0.1	-6.7241
26390	11.577	0.81818	0.1	-3.8635
26391	11.669	0.72727	0.1	-5.1207
26392	11.577	1.	0.1	-2.3153
26393	11.669	0.90909	0.1	-3.604
26394	11.577	1.1818	0.1	-0.87671
26395	11.669	1.0909	0.1	-2.1801
26396	11.577	1.3636	0.1	-3.6616e-002
26397	11.669	1.2727	0.1	-0.86473
26398	11.577	1.5455	0.1	-1.2658e-002
26399	11.669	1.4545	0.1	-4.3249e-002
26400	11.577	1.7273	0.1	-8.6606e-003
26401	11.669	1.6364	0.1	-1.3511e-002
26402	11.577	1.9091	0.1	-7.0855e-003
26403	11.669	1.8182	0.1	-8.9937e-003
26404	11.577	2.0909	0.1	-6.2758e-003
26405	11.669	2.	0.1	-7.2576e-003
26406	11.577	2.2727	0.1	-5.8058e-003
26407	11.669	2.1818	0.1	-6.3795e-003
26408	11.577	2.4545	0.1	-5.5193e-003
26409	11.669	2.3636	0.1	-5.8786e-003
26410	11.577	2.6364	0.1	-5.346e-003
26411	11.669	2.5455	0.1	-5.5824e-003
26412	11.577	2.8182	0.1	-5.2517e-003
26413	11.669	2.7273	0.1	-5.412e-003
26414	11.577	3.	0.1	-5.2219e-003
26415	11.669	2.9091	0.1	-5.3339e-003
26416	11.577	3.1818	0.1	-5.2518e-003
26417	11.669	3.0909	0.1	-5.3337e-003
26418	11.577	3.3636	0.1	-5.3461e-003
26419	11.669	3.2727	0.1	-5.412e-003
26420	11.577	3.5455	0.1	-5.5192e-003
26421	11.669	3.4545	0.1	-5.5823e-003
26422	11.577	3.7273	0.1	-5.8055e-003
26423	11.669	3.6364	0.1	-5.8784e-003
26424	11.577	3.9091	0.1	-6.2756e-003
26425	11.669	3.8182	0.1	-6.3791e-003
26426	11.577	4.0909	0.1	-7.0852e-003
26427	11.669	4.	0.1	-7.2578e-003
26428	11.577	4.2727	0.1	-8.6601e-003
26429	11.669	4.1818	0.1	-8.9934e-003
26430	11.577	4.4545	0.1	-1.2658e-002
26431	11.669	4.3636	0.1	-1.3511e-002
26432	11.577	4.6364	0.1	-3.6616e-002
26433	11.669	4.5455	0.1	-4.3251e-002
26434	11.577	4.8182	0.1	-0.87673
26435	11.669	4.7273	0.1	-0.86475
26436	11.577	5.	0.1	-2.3154
26437	11.669	4.9091	0.1	-2.1801
26438	11.577	5.1818	0.1	-3.8635
26439	11.669	5.0909	0.1	-3.604
26440	11.577	5.3636	0.1	-5.5056
26441	11.669	5.2727	0.1	-5.1207
26442	11.577	5.5455	0.1	-7.2676
26443	11.669	5.4545	0.1	-6.7241
26444	11.577	5.7273	0.1	-9.7618
26445	11.669	5.6364	0.1	-8.4771
26446	11.669	5.8182	0.1	-11.617
26447	11.577	5.9091	0.1	-7.7802
26448	11.761	0.27273	0.1	-10.237
26449	11.853	0.18182	0.1	-12.008
26450	11.761	9.0909e-002	0.1	-8.023
26451	11.761	0.45455	0.1	-7.9077
26452	11.853	0.36364	0.1	-9.0178
26453	11.761	0.63636	0.1	-6.3166
26454	11.853	0.54545	0.1	-7.433
26455	11.761	0.81818	0.1	-4.8392
26456	11.853	0.72727	0.1	-5.9932
26457	11.761	1.	0.1	-3.447
26458	11.853	0.90909	0.1	-4.633
26459	11.761	1.1818	0.1	-2.147
26460	11.853	1.0909	0.1	-3.3563
26461	11.761	1.3636	0.1	-0.95229
26462	11.853	1.2727	0.1	-2.171
26463	11.761	1.5455	0.1	-7.0402e-002
26464	11.853	1.4545	0.1	-1.0872
26465	11.761	1.7273	0.1	-1.5372e-002
26466	11.853	1.6364	0.1	-0.1713
26467	11.761	1.9091	0.1	-9.5771e-003
26468	11.853	1.8182	0.1	-1.8829e-002
26469	11.761	2.0909	0.1	-7.5164e-003
26470	11.853	2.	0.1	-1.0408e-002
26471	11.761	2.2727	0.1	-6.5135e-003
26472	11.853	2.1818	0.1	-7.8256e-003
26473	11.761	2.4545	0.1	-5.9604e-003
26474	11.853	2.3636	0.1	-6.647e-003
26475	11.761	2.6364	0.1	-5.6459e-003
26476	11.853	2.5455	0.1	-6.0277e-003
26477	11.761	2.8182	0.1	-5.4815e-003
26478	11.853	2.7273	0.1	-5.6972e-003
26479	11.761	3.	0.1	-5.4301e-003
26480	11.853	2.9091	0.1	-5.5509e-003
26481	11.761	3.1818	0.1	-5.4813e-003
26482	11.853	3.0909	0.1	-5.5509e-003
26483	11.761	3.3636	0.1	-5.6457e-003
26484	11.853	3.2727	0.1	-5.6971e-003
26485	11.761	3.5455	0.1	-5.9602e-003
26486	11.853	3.4545	0.1	-6.0277e-003
26487	11.761	3.7273	0.1	-6.5132e-003
26488	11.853	3.6364	0.1	-6.6468e-003
26489	11.761	3.9091	0.1	-7.5164e-003
26490	11.853	3.8182	0.1	-7.8252e-003
26491	11.761	4.0909	0.1	-9.5772e-003
26492	11.853	4.	0.1	-1.0408e-002
26493	11.761	4.2727	0.1	-1.5372e-002
26494	11.853	4.1818	0.1	-1.8829e-002
26495	11.761	4.4545	0.1	-7.0406e-002
26496	11.853	4.3636	0.1	-0.17131
26497	11.761	4.6364	0.1	-0.95232
26498	11.853	4.5455	0.1	-1.0872
26499	11.761	4.8182	0.1	-2.1471
26500	11.853	4.7273	0.1	-2.171
26501	11.761	5.	0.1	-3.447
26502	11.853	4.9091	0.1	-3.3563
26503	11.761	5.1818	0.1	-4.8392
26504	11.853	5.0909	0.1	-4.633
26505	11.761	5.3636	0.1	-6.3166
26506	11.853	5.2727	0.1	-5.9932
26507	11.761	5.5455	0.1	-7.9077
26508	11.853	5.4545	0.1	-7.433
26509	11.761	5.7273	0.1	-10.237
26510	11.853	5.6364	0.1	-9.0178
26511	11.853	5.8182	0.1	-12.008
26512	11.761	5.9091	0.1	-8.023
26513	11.944	0.27273	0.1	-10.692
26514	12.036	0.18182	0.1	-12.382
26515	11.944	9.0909e-002	0.1	-8.2564
26516	11.944	0.45455	0.1	-8.5168
26517	12.036	0.36364	0.1	-9.5337
26518	11.944	0.63636	0.1	-7.0867
26519	12.036	0.54545	0.1	-8.1076
26520	11.944	0.81818	0.1	-5.7647
26521	12.036	0.72727	0.1	-6.8223
26522	11.944	1.	0.1	-4.5204
26523	12.036	0.90909	0.1	-5.6102
26524	11.944	1.1818	0.1	-3.3588
26525	12.036	1.0909	0.1	-4.4737
26526	11.944	1.3636	0.1	-2.287
26527	12.036	1.2727	0.1	-3.4188
26528	11.944	1.5455	0.1	-1.3125
26529	12.036	1.4545	0.1	-2.4517
26530	11.944	1.7273	0.1	-0.45211
26531	12.036	1.6364	0.1	-1.5785
26532	11.944	1.9091	0.1	-3.1736e-002
26533	12.036	1.8182	0.1	-0.80637
26534	11.944	2.0909	0.1	-1.2318e-002
26535	12.036	2.	0.1	-0.17038
26536	11.944	2.2727	0.1	-8.4056e-003
26537	12.036	2.1818	0.1	-1.8342e-002
26538	11.944	2.4545	0.1	-6.8531e-003
26539	12.036	2.3636	0.1	-9.5833e-003
26540	11.944	2.6364	0.1	-6.1049e-003
26541	12.036	2.5455	0.1	-7.1409e-003
26542	11.944	2.8182	0.1	-5.7472e-003
26543	12.036	2.7273	0.1	-6.1452e-003
26544	11.944	3.	0.1	-5.6398e-003
26545	12.036	2.9091	0.1	-5.7565e-003
26546	11.944	3.1818	0.1	-5.7472e-003
26547	12.036	3.0909	0.1	-5.7565e-003
26548	11.944	3.3636	0.1	-6.1048e-003
26549	12.036	3.2727	0.1	-6.1451e-003
26550	11.944	3.5455	0.1	-6.853e-003
26551	12.036	3.4545	0.1	-7.1407e-003
26552	11.944	3.7273	0.1	-8.4053e-003
26553	12.036	3.6364	0.1	-9.5831e-003
26554	11.944	3.9091	0.1	-1.2318e-002
26555	12.036	3.8182	0.1	-1.8342e-002
26556	11.944	4.0909	0.1	-3.1736e-002
26557	12.036	4.	0.1	-0.17039
26558	11.944	4.2727	0.1	-0.45213
26559	12.036	4.1818	0.1	-0.80639
26560	11.944	4.4545	0.1	-1.3125
26561	12.036	4.3636	0.1	-1.5785
26562	11.944	4.6364	0.1	-2.287
26563	12.036	4.5455	0.1	-2.4517
26564	11.944	4.8182	0.1	-3.3589
26565	12.036	4.7273	0.1	-3.4188
26566	11.944	5.	0.1	-4.5204
26567	12.036	4.9091	0.1	-4.4737
26568	11.944	5.1818	0.1	-5.7647
26569	12.036	5.0909	0.1	-5.6103
26570	11.944	5.3636	0.1	-7.0867
26571	12.036	5.2727	0.1	-6.8223
26572	11.944	5.5455	0.1	-8.5168
26573	12.036	5.4545	0.1	-8.1076
26574	11.944	5.7273	0.1	-10.692
26575	12.036	5.6364	0.1	-9.5337
26576	12.036	5.8182	0.1	-12.382
26577	11.944	5.9091	0.1	-8.2564
26578	12.128	0.27273	0.1	-11.127
26579	12.22	0.18182	0.1	-12.743
26580	12.128	9.0909e-002	0.1	-8.4811
26581	12.128	0.45455	0.1	-9.0979
26582	12.22	0.36364	0.1	-10.027
26583	12.128	0.63636	0.1	-7.82
26584	12.22	0.54545	0.1	-8.7516
26585	12.128	0.81818	0.1	-6.6451
26586	12.22	0.72727	0.1	-7.6127
26587	12.128	1.	0.1	-5.5412
26588	12.22	0.90909	0.1	-6.5412
26589	12.128	1.1818	0.1	-4.5117
26590	12.22	1.0909	0.1	-5.538
26591	12.128	1.3636	0.1	-3.5622
26592	12.22	1.2727	0.1	-4.6079
26593	12.128	1.5455	0.1	-2.698
26594	12.22	1.4545	0.1	-3.7558
26595	12.128	1.7273	0.1	-1.9238
26596	12.22	1.6364	0.1	-2.9863
26597	12.128	1.9091	0.1	-1.2444
26598	12.22	1.8182	0.1	-2.3035
26599	12.128	2.0909	0.1	-0.66476
26600	12.22	2.	0.1	-1.711
26601	12.128	2.2727	0.1	-0.19788
26602	12.22	2.1818	0.1	-1.2121
26603	12.128	2.4545	0.1	-1.8412e-002
26604	12.22	2.3636	0.1	-0.80927
26605	12.128	2.6364	0.1	-8.3651e-003
26606	12.22	2.5455	0.1	-0.50469
26607	12.128	2.8182	0.1	-6.2691e-003
26608	12.22	2.7273	0.1	-0.29966
26609	12.128	3.	0.1	-5.7868e-003
26610	12.22	2.9091	0.1	-0.19556
26611	12.128	3.1818	0.1	-6.269e-003
26612	12.22	3.0909	0.1	-0.19556
26613	12.128	3.3636	0.1	-8.3648e-003
26614	12.22	3.2727	0.1	-0.29966
26615	12.128	3.5455	0.1	-1.8412e-002
26616	12.22	3.4545	0.1	-0.5047
26617	12.128	3.7273	0.1	-0.19789
26618	12.22	3.6364	0.1	-0.80928
26619	12.128	3.9091	0.1	-0.66478
26620	12.22	3.8182	0.1	-1.2121
26621	12.128	4.0909	0.1	-1.2445
26622	12.22	4.	0.1	-1.711
26623	12.128	4.2727	0.1	-1.9239
26624	12.22	4.1818	0.1	-2.3035
26625	12.128	4.4545	0.1	-2.698
26626	12.22	4.3636	0.1	-2.9864
26627	12.128	4.6364	0.1	-3.5622
26628	12.22	4.5455	0.1	-3.7558
26629	12.128	4.8182	0.1	-4.5117
26630	12.22	4.7273	0.1	-4.6079
26631	12.128	5.	0.1	-5.5412
26632	12.22	4.9091	0.1	-5.538
26633	12.128	5.1818	0.1	-6.6452
26634	12.22	5.0909	0.1	-6.5413
26635	12.128	5.3636	0.1	-7.82
26636	12.22	5.2727	0.1	-7.6127
26637	12.128	5.5455	0.1	-9.0979
26638	12.22	5.4545	0.1	-8.7516
26639	12.128	5.7273	0.1	-11.127
26640	12.22	5.6364	0.1	-10.027
26641	12.22	5.8182	0.1	-12.743
26642	12.128	5.9091	0.1	-8.4811
26643	12.312	0.27273	0.1	-11.544
26644	12.404	0.18182	0.1	-13.09
26645	12.312	9.0909e-002	0.1	-8.698
26646	12.312	0.45455	0.1	-9.6539
26647	12.404	0.36364	0.1	-10.501
26648	12.312	0.63636	0.1	-8.5207
26649	12.404	0.54545	0.1	-9.3683
26650	12.312	0.81818	0.1	-7.4857
26651	12.404	0.72727	0.1	-8.369
26652	12.312	1.	0.1	-6.5153
26653	12.404	0.90909	0.1	-7.4315
26654	12.312	1.1818	0.1	-5.6118
26655	12.404	1.0909	0.1	-6.5554
26656	12.312	1.3636	0.1	-4.7795
26657	12.404	1.2727	0.1	-5.7445
26658	12.312	1.5455	0.1	-4.0227
26659	12.404	1.4545	0.1	-5.0028
26660	12.312	1.7273	0.1	-3.3451
26661	12.404	1.6364	0.1	-4.3336
26662	12.312	1.9091	0.1	-2.7504
26663	12.404	1.8182	0.1	-3.7405
26664	12.312	2.0909	0.1	-2.2414
26665	12.404	2.	0.1	-3.2261
26666	12.312	2.2727	0.1	-1.821
26667	12.404	2.1818	0.1	-2.7932
26668	12.312	2.4545	0.1	-1.4913
26669	12.404	2.3636	0.1	-2.444
26670	12.312	2.6364	0.1	-1.2542
26671	12.404	2.5455	0.1	-2.1804
26672	12.312	2.8182	0.1	-1.1113
26673	12.404	2.7273	0.1	-2.0037
26674	12.312	3.	0.1	-1.0635
26675	12.404	2.9091	0.1	-1.9151
26676	12.312	3.1818	0.1	-1.1113
26677	12.404	3.0909	0.1	-1.9151
26678	12.312	3.3636	0.1	-1.2542
26679	12.404	3.2727	0.1	-2.0037
26680	12.312	3.5455	0.1	-1.4913
26681	12.404	3.4545	0.1	-2.1804
26682	12.312	3.7273	0.1	-1.821
26683	12.404	3.6364	0.1	-2.444
26684	12.312	3.9091	0.1	-2.2414
26685	12.404	3.8182	0.1	-2.7932
26686	12.312	4.0909	0.1	-2.7504
26687	12.404	4.	0.1	-3.2261
26688	12.312	4.2727	0.1	-3.3452
26689	12.404	4.1818	0.1	-3.7405
26690	12.312	4.4545	0.1	-4.0227
26691	12.404	4.3636	0.1	-4.3337
26692	12.312	4.6364	0.1	-4.7795
26693	12.404	4.5455	0.1	-5.0028
26694	12.312	4.8182	0.1	-5.6118
26695	12.404	4.7273	0.1	-5.7446
26696	12.312	5.	0.1	-6.5153
26697	12.404	4.9091	0.1	-6.5554
26698	12.312	5.1818	0.1	-7.4858
26699	12.404	5.0909	0.1	-7.4315
26700	12.312	5.3636	0.1	-8.5207
26701	12.404	5.2727	0.1	-8.369
26702	12.312	5.5455	0.1	-9.6539
26703	12.404	5.4545	0.1	-9.3683
26704	12.312	5.7273	0.1	-11.544
26705	12.404	5.6364	0.1	-10.501
26706	12.404	5.8182	0.1	-13.09
26707	12.312	5.9091	0.1	-8.698
26708	12.496	0.27273	0.1	-11.946
26709	12.588	0.18182	0.1	-13.426
26710	12.496	9.0909e-002	0.1	-8.9077
26711	12.496	0.45455	0.1	-10.188
26712	12.588	0.36364	0.1	-10.957
26713	12.496	0.63636	0.1	-9.1926
26714	12.588	0.54545	0.1	-9.961
26715	12.496	0.81818	0.1	-8.2913
26716	12.588	0.72727	0.1	-9.0953
26717	12.496	1.	0.1	-7.4485
26718	12.588	0.90909	0.1	-8.2861
26719	12.496	1.1818	0.1	-6.6654
26720	12.588	1.0909	0.1	-7.5318
26721	12.496	1.3636	0.1	-5.9453
26722	12.588	1.2727	0.1	-6.8353
26723	12.496	1.5455	0.1	-5.2916
26724	12.588	1.4545	0.1	-6.1994
26725	12.496	1.7273	0.1	-4.7071
26726	12.588	1.6364	0.1	-5.6267
26727	12.496	1.9091	0.1	-4.1946
26728	12.588	1.8182	0.1	-5.1197
26729	12.496	2.0909	0.1	-3.7566
26730	12.588	2.	0.1	-4.6807
26731	12.496	2.2727	0.1	-3.3951
26732	12.588	2.1818	0.1	-4.3117
26733	12.496	2.4545	0.1	-3.1119
26734	12.588	2.3636	0.1	-4.0142
26735	12.496	2.6364	0.1	-2.9086
26736	12.588	2.5455	0.1	-3.7899
26737	12.496	2.8182	0.1	-2.7862
26738	12.588	2.7273	0.1	-3.6397
26739	12.496	3.	0.1	-2.7453
26740	12.588	2.9091	0.1	-3.5644
26741	12.496	3.1818	0.1	-2.7862
26742	12.588	3.0909	0.1	-3.5644
26743	12.496	3.3636	0.1	-2.9086
26744	12.588	3.2727	0.1	-3.6397
26745	12.496	3.5455	0.1	-3.1119
26746	12.588	3.4545	0.1	-3.7899
26747	12.496	3.7273	0.1	-3.3951
26748	12.588	3.6364	0.1	-4.0142
26749	12.496	3.9091	0.1	-3.7566
26750	12.588	3.8182	0.1	-4.3117
26751	12.496	4.0909	0.1	-4.1947
26752	12.588	4.	0.1	-4.6807
26753	12.496	4.2727	0.1	-4.7071
26754	12.588	4.1818	0.1	-5.1198
26755	12.496	4.4545	0.1	-5.2916
26756	12.588	4.3636	0.1	-5.6267
26757	12.496	4.6364	0.1	-5.9454
26758	12.588	4.5455	0.1	-6.1994
26759	12.496	4.8182	0.1	-6.6654
26760	12.588	4.7273	0.1	-6.8353
26761	12.496	5.	0.1	-7.4485
26762	12.588	4.9091	0.1	-7.5319
26763	12.496	5.1818	0.1	-8.2913
26764	12.588	5.0909	0.1	-8.2861
26765	12.496	5.3636	0.1	-9.1927
26766	12.588	5.2727	0.1	-9.0953
26767	12.496	5.5455	0.1	-10.188
26768	12.588	5.4545	0.1	-9.961
26769	12.496	5.7273	0.1	-11.946
26770	12.588	5.6364	0.1	-10.957
26771	12.588	5.8182	0.1	-13.426
26772	12.496	5.9091	0.1	-8.9077
26773	12.679	0.27273	0.1	-12.335
26774	12.771	0.18182	0.1	-13.751
26775	12.679	9.0909e-002	0.1	-9.1107
26776	12.679	0.45455	0.1	-10.702
26777	12.771	0.36364	0.1	-11.397
26778	12.679	0.63636	0.1	-9.8393
26779	12.771	0.54545	0.1	-10.533
26780	12.679	0.81818	0.1	-9.0662
26781	12.771	0.72727	0.1	-9.7956
26782	12.679	1.	0.1	-8.346
26783	12.771	0.90909	0.1	-9.1099
26784	12.679	1.1818	0.1	-7.6786
26785	12.771	1.0909	0.1	-8.4731
26786	12.679	1.3636	0.1	-7.0665
26787	12.771	1.2727	0.1	-7.8868
26788	12.679	1.5455	0.1	-6.5119
26789	12.771	1.4545	0.1	-7.3528
26790	12.679	1.7273	0.1	-6.0169
26791	12.771	1.6364	0.1	-6.8731
26792	12.679	1.9091	0.1	-5.5837
26793	12.771	1.8182	0.1	-6.4493
26794	12.679	2.0909	0.1	-5.2138
26795	12.771	2.	0.1	-6.0829
26796	12.679	2.2727	0.1	-4.9089
26797	12.771	2.1818	0.1	-5.7752
26798	12.679	2.4545	0.1	-4.6704
26799	12.771	2.3636	0.1	-5.5276
26800	12.679	2.6364	0.1	-4.4992
26801	12.771	2.5455	0.1	-5.341
26802	12.679	2.8182	0.1	-4.3961
26803	12.771	2.7273	0.1	-5.2162
26804	12.679	3.	0.1	-4.3617
26805	12.771	2.9091	0.1	-5.1536
26806	12.679	3.1818	0.1	-4.3961
26807	12.771	3.0909	0.1	-5.1536
26808	12.679	3.3636	0.1	-4.4992
26809	12.771	3.2727	0.1	-5.2162
26810	12.679	3.5455	0.1	-4.6704
26811	12.771	3.4545	0.1	-5.341
26812	12.679	3.7273	0.1	-4.9089
26813	12.771	3.6364	0.1	-5.5276
26814	12.679	3.9091	0.1	-5.2138
26815	12.771	3.8182	0.1	-5.7753
26816	12.679	4.0909	0.1	-5.5837
26817	12.771	4.	0.1	-6.0829
26818	12.679	4.2727	0.1	-6.017
26819	12.771	4.1818	0.1	-6.4493
26820	12.679	4.4545	0.1	-6.5119
26821	12.771	4.3636	0.1	-6.8731
26822	12.679	4.6364	0.1	-7.0665
26823	12.771	4.5455	0.1	-7.3529
26824	12.679	4.8182	0.1	-7.6786
26825	12.771	4.7273	0.1	-7.8868
26826	12.679	5.	0.1	-8.346
26827	12.771	4.9091	0.1	-8.4731
26828	12.679	5.1818	0.1	-9.0663
26829	12.771	5.0909	0.1	-9.11
26830	12.679	5.3636	0.1	-9.8393
26831	12.771	5.2727	0.1	-9.7956
26832	12.679	5.5455	0.1	-10.702
26833	12.771	5.4545	0.1	-10.533
26834	12.679	5.7273	0.1	-12.335
26835	12.771	5.6364	0.1	-11.397
26836	12.771	5.8182	0.1	-13.751
26837	12.679	5.9091	0.1	-9.1107
26838	12.863	0.27273	0.1	-12.71
26839	12.955	0.18182	0.1	-14.066
26840	12.863	9.0909e-002	0.1	-9.3077
26841	12.863	0.45455	0.1	-11.199
26842	12.955	0.36364	0.1	-11.823
26843	12.863	0.63636	0.1	-10.464
26844	12.955	0.54545	0.1	-11.087
26845	12.863	0.81818	0.1	-9.8151
26846	12.955	0.72727	0.1	-10.474
26847	12.863	1.	0.1	-9.2132
26848	12.955	0.90909	0.1	-9.9079
26849	12.863	1.1818	0.1	-8.6577
26850	12.955	1.0909	0.1	-9.3848
26851	12.863	1.3636	0.1	-8.1499
26852	12.955	1.2727	0.1	-8.9052
26853	12.863	1.5455	0.1	-7.6911
26854	12.955	1.4545	0.1	-8.4702
26855	12.863	1.7273	0.1	-7.2827
26856	12.955	1.6364	0.1	-8.0805
26857	12.863	1.9091	0.1	-6.9259
26858	12.955	1.8182	0.1	-7.7372
26859	12.863	2.0909	0.1	-6.6219
26860	12.955	2.	0.1	-7.4411
26861	12.863	2.2727	0.1	-6.3717
26862	12.955	2.1818	0.1	-7.193
26863	12.863	2.4545	0.1	-6.1761
26864	12.955	2.3636	0.1	-6.9936
26865	12.863	2.6364	0.1	-6.0359
26866	12.955	2.5455	0.1	-6.8435
26867	12.863	2.8182	0.1	-5.9515
26868	12.955	2.7273	0.1	-6.7432
26869	12.863	3.	0.1	-5.9234
26870	12.955	2.9091	0.1	-6.6929
26871	12.863	3.1818	0.1	-5.9515
26872	12.955	3.0909	0.1	-6.6929
26873	12.863	3.3636	0.1	-6.0359
26874	12.955	3.2727	0.1	-6.7432
26875	12.863	3.5455	0.1	-6.1761
26876	12.955	3.4545	0.1	-6.8435
26877	12.863	3.7273	0.1	-6.3717
26878	12.955	3.6364	0.1	-6.9936
26879	12.863	3.9091	0.1	-6.6219
26880	12.955	3.8182	0.1	-7.193
26881	12.863	4.0909	0.1	-6.9259
26882	12.955	4.	0.1	-7.4412
26883	12.863	4.2727	0.1	-7.2827
26884	12.955	4.1818	0.1	-7.7373
26885	12.863	4.4545	0.1	-7.6911
26886	12.955	4.3636	0.1	-8.0806
26887	12.863	4.6364	0.1	-8.1499
26888	12.955	4.5455	0.1	-8.4702
26889	12.863	4.8182	0.1	-8.6577
26890	12.955	4.7273	0.1	-8.9053
26891	12.863	5.	0.1	-9.2133
26892	12.955	4.9091	0.1	-9.3848
26893	12.863	5.1818	0.1	-9.8151
26894	12.955	5.0909	0.1	-9.9079
26895	12.863	5.3636	0.1	-10.464
26896	12.955	5.2727	0.1	-10.474
26897	12.863	5.5455	0.1	-11.199
26898	12.955	5.4545	0.1	-11.087
26899	12.863	5.7273	0.1	-12.71
26900	12.955	5.6364	0.1	-11.823
26901	12.955	5.8182	0.1	-14.066
26902	12.863	5.9091	0.1	-9.3077
26903	13.047	0.27273	0.1	-13.075
26904	13.139	0.18182	0.1	-14.372
26905	13.047	9.0909e-002	0.1	-9.4991
26906	13.047	0.45455	0.1	-11.682
26907	13.139	0.36364	0.1	-12.238
26908	13.047	0.63636	0.1	-11.071
26909	13.139	0.54545	0.1	-11.625
26910	13.047	0.81818	0.1	-10.542
26911	13.139	0.72727	0.1	-11.134
26912	13.047	1.	0.1	-10.055
26913	13.139	0.90909	0.1	-10.685
26914	13.047	1.1818	0.1	-9.6084
26915	13.139	1.0909	0.1	-10.272
26916	13.047	1.3636	0.1	-9.2019
26917	13.139	1.2727	0.1	-9.897
26918	13.047	1.5455	0.1	-8.8363
26919	13.139	1.4545	0.1	-9.5583
26920	13.047	1.7273	0.1	-8.512
26921	13.139	1.6364	0.1	-9.2565
26922	13.047	1.9091	0.1	-8.2295
26923	13.139	1.8182	0.1	-8.9917
26924	13.047	2.0909	0.1	-7.9895
26925	13.139	2.	0.1	-8.7641
26926	13.047	2.2727	0.1	-7.7923
26927	13.139	2.1818	0.1	-8.5739
26928	13.047	2.4545	0.1	-7.6385
26929	13.139	2.3636	0.1	-8.4214
26930	13.047	2.6364	0.1	-7.5283
26931	13.139	2.5455	0.1	-8.3068
26932	13.047	2.8182	0.1	-7.4621
26933	13.139	2.7273	0.1	-8.2303
26934	13.047	3.	0.1	-7.44
26935	13.139	2.9091	0.1	-8.192
26936	13.047	3.1818	0.1	-7.4621
26937	13.139	3.0909	0.1	-8.192
26938	13.047	3.3636	0.1	-7.5283
26939	13.139	3.2727	0.1	-8.2303
26940	13.047	3.5455	0.1	-7.6385
26941	13.139	3.4545	0.1	-8.3068
26942	13.047	3.7273	0.1	-7.7923
26943	13.139	3.6364	0.1	-8.4214
26944	13.047	3.9091	0.1	-7.9895
26945	13.139	3.8182	0.1	-8.5739
26946	13.047	4.0909	0.1	-8.2295
26947	13.139	4.	0.1	-8.7641
26948	13.047	4.2727	0.1	-8.512
26949	13.139	4.1818	0.1	-8.9917
26950	13.047	4.4545	0.1	-8.8363
26951	13.139	4.3636	0.1	-9.2565
26952	13.047	4.6364	0.1	-9.202
26953	13.139	4.5455	0.1	-9.5584
26954	13.047	4.8182	0.1	-9.6085
26955	13.139	4.7273	0.1	-9.897
26956	13.047	5.	0.1	-10.055
26957	13.139	4.9091	0.1	-10.272
26958	13.047	5.1818	0.1	-10.542
26959	13.139	5.0909	0.1	-10.685
26960	13.047	5.3636	0.1	-11.071
26961	13.139	5.2727	0.1	-11.134
26962	13.047	5.5455	0.1	-11.682
26963	13.139	5.4545	0.1	-11.625
26964	13.047	5.7273	0.1	-13.075
26965	13.139	5.6364	0.1	-12.238
26966	13.139	5.8182	0.1	-14.372
26967	13.047	5.9091	0.1	-9.4991
26968	13.231	0.27273	0.1	-13.43
26969	13.323	0.18182	0.1	-14.671
26970	13.231	9.0909e-002	0.1	-9.6856
26971	13.231	0.45455	0.1	-12.152
26972	13.323	0.36364	0.1	-12.643
26973	13.231	0.63636	0.1	-11.663
26974	13.323	0.54545	0.1	-12.152
26975	13.231	0.81818	0.1	-11.251
26976	13.323	0.72727	0.1	-11.779
26977	13.231	1.	0.1	-10.877
26978	13.323	0.90909	0.1	-11.445
26979	13.231	1.1818	0.1	-10.537
26980	13.323	1.0909	0.1	-11.141
26981	13.231	1.3636	0.1	-10.229
26982	13.323	1.2727	0.1	-10.868
26983	13.231	1.5455	0.1	-9.9548
26984	13.323	1.4545	0.1	-10.624
26985	13.231	1.7273	0.1	-9.7127
26986	13.323	1.6364	0.1	-10.408
26987	13.231	1.9091	0.1	-9.5029
26988	13.323	1.8182	0.1	-10.221
26989	13.231	2.0909	0.1	-9.3254
26990	13.323	2.	0.1	-10.06
26991	13.231	2.2727	0.1	-9.18
26992	13.323	2.1818	0.1	-9.9267
26993	13.231	2.4545	0.1	-9.0669
26994	13.323	2.3636	0.1	-9.8201
26995	13.231	2.6364	0.1	-8.986
26996	13.323	2.5455	0.1	-9.7403
26997	13.231	2.8182	0.1	-8.9375
26998	13.323	2.7273	0.1	-9.6871
26999	13.231	3.	0.1	-8.9213
27000	13.323	2.9091	0.1	-9.6605
27001	13.231	3.1818	0.1	-8.9375
27002	13.323	3.0909	0.1	-9.6605
27003	13.231	3.3636	0.1	-8.986
27004	13.323	3.2727	0.1	-9.6871
27005	13.231	3.5455	0.1	-9.0669
27006	13.323	3.4545	0.1	-9.7403
27007	13.231	3.7273	0.1	-9.18
27008	13.323	3.6364	0.1	-9.8201
27009	13.231	3.9091	0.1	-9.3254
27010	13.323	3.8182	0.1	-9.9267
27011	13.231	4.0909	0.1	-9.503
27012	13.323	4.	0.1	-10.06
27013	13.231	4.2727	0.1	-9.7128
27014	13.323	4.1818	0.1	-10.221
27015	13.231	4.4545	0.1	-9.9549
27016	13.323	4.3636	0.1	-10.408
27017	13.231	4.6364	0.1	-10.229
27018	13.323	4.5455	0.1	-10.624
27019	13.231	4.8182	0.1	-10.537
27020	13.323	4.7273	0.1	-10.868
27021	13.231	5.	0.1	-10.877
27022	13.323	4.9091	0.1	-11.141
27023	13.231	5.1818	0.1	-11.252
27024	13.323	5.0909	0.1	-11.445
27025	13.231	5.3636	0.1	-11.663
27026	13.323	5.2727	0.1	-11.779
27027	13.231	5.5455	0.1	-12.152
27028	13.323	5.4545	0.1	-12.152
27029	13.231	5.7273	0.1	-13.43
27030	13.323	5.6364	0.1	-12.643
27031	13.323	5.8182	0.1	-14.671
27032	13.231	5.9091	0.1	-9.6856
27033	13.415	0.27273	0.1	-13.777
27034	13.506	0.18182	0.1	-14.962
27035	13.415	9.0909e-002	0.1	-9.8675
27036	13.415	0.45455	0.1	-12.613
27037	13.506	0.36364	0.1	-13.039
27038	13.415	0.63636	0.1	-12.243
27039	13.506	0.54545	0.1	-12.669
27040	13.415	0.81818	0.1	-11.947
27041	13.506	0.72727	0.1	-12.414
27042	13.415	1.	0.1	-11.684
27043	13.506	0.90909	0.1	-12.192
27044	13.415	1.1818	0.1	-11.448
27045	13.506	1.0909	0.1	-11.997
27046	13.415	1.3636	0.1	-11.239
27047	13.506	1.2727	0.1	-11.825
27048	13.415	1.5455	0.1	-11.054
27049	13.506	1.4545	0.1	-11.674
27050	13.415	1.7273	0.1	-10.892
27051	13.506	1.6364	0.1	-11.543
27052	13.415	1.9091	0.1	-10.754
27053	13.506	1.8182	0.1	-11.431
27054	13.415	2.0909	0.1	-10.638
27055	13.506	2.	0.1	-11.337
27056	13.415	2.2727	0.1	-10.543
27057	13.506	2.1818	0.1	-11.26
27058	13.415	2.4545	0.1	-10.47
27059	13.506	2.3636	0.1	-11.198
27060	13.415	2.6364	0.1	-10.418
27061	13.506	2.5455	0.1	-11.153
27062	13.415	2.8182	0.1	-10.387
27063	13.506	2.7273	0.1	-11.123
27064	13.415	3.	0.1	-10.377
27065	13.506	2.9091	0.1	-11.107
27066	13.415	3.1818	0.1	-10.387
27067	13.506	3.0909	0.1	-11.107
27068	13.415	3.3636	0.1	-10.418
27069	13.506	3.2727	0.1	-11.123
27070	13.415	3.5455	0.1	-10.47
27071	13.506	3.4545	0.1	-11.153
27072	13.415	3.7273	0.1	-10.543
27073	13.506	3.6364	0.1	-11.198
27074	13.415	3.9091	0.1	-10.638
27075	13.506	3.8182	0.1	-11.26
27076	13.415	4.0909	0.1	-10.754
27077	13.506	4.	0.1	-11.337
27078	13.415	4.2727	0.1	-10.892
27079	13.506	4.1818	0.1	-11.431
27080	13.415	4.4545	0.1	-11.054
27081	13.506	4.3636	0.1	-11.543
27082	13.415	4.6364	0.1	-11.239
27083	13.506	4.5455	0.1	-11.674
27084	13.415	4.8182	0.1	-11.448
27085	13.506	4.7273	0.1	-11.825
27086	13.415	5.	0.1	-11.684
27087	13.506	4.9091	0.1	-11.997
27088	13.415	5.1818	0.1	-11.947
27089	13.506	5.0909	0.1	-12.193
27090	13.415	5.3636	0.1	-12.243
27091	13.506	5.2727	0.1	-12.414
27092	13.415	5.5455	0.1	-12.613
27093	13.506	5.4545	0.1	-12.669
27094	13.415	5.7273	0.1	-13.777
27095	13.506	5.6364	0.1	-13.039
27096	13.506	5.8182	0.1	-14.962
27097	13.415	5.9091	0.1	-9.8675
27098	13.598	0.27273	0.1	-14.116
27099	13.69	0.18182	0.1	-15.246
27100	13.598	9.0909e-002	0.1	-10.045
27101	13.598	0.45455	0.1	-13.066
27102	13.69	0.36364	0.1	-13.43
27103	13.598	0.63636	0.1	-12.814
27104	13.69	0.54545	0.1	-13.179
27105	13.598	0.81818	0.1	-12.633
27106	13.69	0.72727	0.1	-13.041
27107	13.598	1.	0.1	-12.48
27108	13.69	0.90909	0.1	-12.932
27109	13.598	1.1818	0.1	-12.348
27110	13.69	1.0909	0.1	-12.844
27111	13.598	1.3636	0.1	-12.235
27112	13.69	1.2727	0.1	-12.772
27113	13.598	1.5455	0.1	-12.139
27114	13.69	1.4545	0.1	-12.715
27115	13.598	1.7273	0.1	-12.058
27116	13.69	1.6364	0.1	-12.669
27117	13.598	1.9091	0.1	-11.991
27118	13.69	1.8182	0.1	-12.632
27119	13.598	2.0909	0.1	-11.935
27120	13.69	2.	0.1	-12.603
27121	13.598	2.2727	0.1	-11.891
27122	13.69	2.1818	0.1	-12.581
27123	13.598	2.4545	0.1	-11.857
27124	13.69	2.3636	0.1	-12.565
27125	13.598	2.6364	0.1	-11.834
27126	13.69	2.5455	0.1	-12.553
27127	13.598	2.8182	0.1	-11.82
27128	13.69	2.7273	0.1	-12.546
27129	13.598	3.	0.1	-11.815
27130	13.69	2.9091	0.1	-12.542
27131	13.598	3.1818	0.1	-11.82
27132	13.69	3.0909	0.1	-12.542
27133	13.598	3.3636	0.1	-11.834
27134	13.69	3.2727	0.1	-12.546
27135	13.598	3.5455	0.1	-11.857
27136	13.69	3.4545	0.1	-12.553
27137	13.598	3.7273	0.1	-11.891
27138	13.69	3.6364	0.1	-12.565
27139	13.598	3.9091	0.1	-11.935
27140	13.69	3.8182	0.1	-12.581
27141	13.598	4.0909	0.1	-11.991
27142	13.69	4.	0.1	-12.603
27143	13.598	4.2727	0.1	-12.058
27144	13.69	4.1818	0.1	-12.632
27145	13.598	4.4545	0.1	-12.139
27146	13.69	4.3636	0.1	-12.669
27147	13.598	4.6364	0.1	-12.235
27148	13.69	4.5455	0.1	-12.715
27149	13.598	4.8182	0.1	-12.348
27150	13.69	4.7273	0.1	-12.772
27151	13.598	5.	0.1	-12.48
27152	13.69	4.9091	0.1	-12.844
27153	13.598	5.1818	0.1	-12.634
27154	13.69	5.0909	0.1	-12.933
27155	13.598	5.3636	0.1	-12.814
27156	13.69	5.2727	0.1	-13.041
27157	13.598	5.5455	0.1	-13.066
27158	13.69	5.4545	0.1	-13.179
27159	13.598	5.7273	0.1	-14.116
27160	13.69	5.6364	0.1	-13.43
27161	13.69	5.8182	0.1	-15.246
27162	13.598	5.9091	0.1	-10.045
27163	13.782	0.27273	0.1	-14.45
27164	13.874	0.18182	0.1	-15.525
27165	13.782	9.0909e-002	0.1	-10.219
27166	13.782	0.45455	0.1	-13.513
27167	13.874	0.36364	0.1	-13.815
27168	13.782	0.63636	0.1	-13.38
27169	13.874	0.54545	0.1	-13.685
27170	13.782	0.81818	0.1	-13.314
27171	13.874	0.72727	0.1	-13.665
27172	13.782	1.	0.1	-13.271
27173	13.874	0.90909	0.1	-13.669
27174	13.782	1.1818	0.1	-13.243
27175	13.874	1.0909	0.1	-13.688
27176	13.782	1.3636	0.1	-13.227
27177	13.874	1.2727	0.1	-13.717
27178	13.782	1.5455	0.1	-13.219
27179	13.874	1.4545	0.1	-13.753
27180	13.782	1.7273	0.1	-13.218
27181	13.874	1.6364	0.1	-13.791
27182	13.782	1.9091	0.1	-13.221
27183	13.874	1.8182	0.1	-13.83
27184	13.782	2.0909	0.1	-13.226
27185	13.874	2.	0.1	-13.867
27186	13.782	2.2727	0.1	-13.232
27187	13.874	2.1818	0.1	-13.9
27188	13.782	2.4545	0.1	-13.237
27189	13.874	2.3636	0.1	-13.929
27190	13.782	2.6364	0.1	-13.242
27191	13.874	2.5455	0.1	-13.951
27192	13.782	2.8182	0.1	-13.245
27193	13.874	2.7273	0.1	-13.966
27194	13.782	3.	0.1	-13.246
27195	13.874	2.9091	0.1	-13.973
27196	13.782	3.1818	0.1	-13.245
27197	13.874	3.0909	0.1	-13.973
27198	13.782	3.3636	0.1	-13.242
27199	13.874	3.2727	0.1	-13.966
27200	13.782	3.5455	0.1	-13.237
27201	13.874	3.4545	0.1	-13.951
27202	13.782	3.7273	0.1	-13.232
27203	13.874	3.6364	0.1	-13.929
27204	13.782	3.9091	0.1	-13.226
27205	13.874	3.8182	0.1	-13.9
27206	13.782	4.0909	0.1	-13.221
27207	13.874	4.	0.1	-13.867
27208	13.782	4.2727	0.1	-13.218
27209	13.874	4.1818	0.1	-13.83
27210	13.782	4.4545	0.1	-13.219
27211	13.874	4.3636	0.1	-13.791
27212	13.782	4.6364	0.1	-13.227
27213	13.874	4.5455	0.1	-13.753
27214	13.782	4.8182	0.1	-13.243
27215	13.874	4.7273	0.1	-13.717
27216	13.782	5.	0.1	-13.271
27217	13.874	4.9091	0.1	-13.688
27218	13.782	5.1818	0.1	-13.314
27219	13.874	5.0909	0.1	-13.669
27220	13.782	5.3636	0.1	-13.38
27221	13.874	5.2727	0.1	-13.665
27222	13.782	5.5455	0.1	-13.513
27223	13.874	5.4545	0.1	-13.685
27224	13.782	5.7273	0.1	-14.45
27225	13.874	5.6364	0.1	-13.815
27226	13.874	5.8182	0.1	-15.525
27227	13.782	5.9091	0.1	-10.219
27228	13.966	0.27273	0.1	-14.779
27229	14.058	0.18182	0.1	-15.798
27230	13.966	9.0909e-002	0.1	-10.389
27231	13.966	0.45455	0.1	-13.956
27232	14.058	0.36364	0.1	-14.197
27233	13.966	0.63636	0.1	-13.943
27234	14.058	0.54545	0.1	-14.189
27235	13.966	0.81818	0.1	-13.993
27236	14.058	0.72727	0.1	-14.288
27237	13.966	1.	0.1	-14.061
27238	14.058	0.90909	0.1	-14.407
27239	13.966	1.1818	0.1	-14.137
27240	14.058	1.0909	0.1	-14.535
27241	13.966	1.3636	0.1	-14.218
27242	14.058	1.2727	0.1	-14.665
27243	13.966	1.5455	0.1	-14.3
27244	14.058	1.4545	0.1	-14.795
27245	13.966	1.7273	0.1	-14.379
27246	14.058	1.6364	0.1	-14.918
27247	13.966	1.9091	0.1	-14.452
27248	14.058	1.8182	0.1	-15.033
27249	13.966	2.0909	0.1	-14.517
27250	14.058	2.	0.1	-15.136
27251	13.966	2.2727	0.1	-14.573
27252	14.058	2.1818	0.1	-15.225
27253	13.966	2.4545	0.1	-14.618
27254	14.058	2.3636	0.1	-15.298
27255	13.966	2.6364	0.1	-14.651
27256	14.058	2.5455	0.1	-15.353
27257	13.966	2.8182	0.1	-14.671
27258	14.058	2.7273	0.1	-15.391
27259	13.966	3.	0.1	-14.677
27260	14.058	2.9091	0.1	-15.41
27261	13.966	3.1818	0.1	-14.671
27262	14.058	3.0909	0.1	-15.41
27263	13.966	3.3636	0.1	-14.651
27264	14.058	3.2727	0.1	-15.391
27265	13.966	3.5455	0.1	-14.618
27266	14.058	3.4545	0.1	-15.353
27267	13.966	3.7273	0.1	-14.573
27268	14.058	3.6364	0.1	-15.298
27269	13.966	3.9091	0.1	-14.517
27270	14.058	3.8182	0.1	-15.225
27271	13.966	4.0909	0.1	-14.452
27272	14.058	4.	0.1	-15.136
27273	13.966	4.2727	0.1	-14.379
27274	14.058	4.1818	0.1	-15.033
27275	13.966	4.4545	0.1	-14.3
27276	14.058	4.3636	0.1	-14.918
27277	13.966	4.6364	0.1	-14.218
27278	14.058	4.5455	0.1	-14.795
27279	13.966	4.8182	0.1	-14.137
27280	14.058	4.7273	0.1	-14.665
27281	13.966	5.	0.1	-14.061
27282	14.058	4.9091	0.1	-14.535
27283	13.966	5.1818	0.1	-13.993
27284	14.058	5.0909	0.1	-14.407
27285	13.966	5.3636	0.1	-13.943
27286	14.058	5.2727	0.1	-14.288
27287	13.966	5.5455	0.1	-13.956
27288	14.058	5.4545	0.1	-14.189
27289	13.966	5.7273	0.1	-14.779
27290	14.058	5.6364	0.1	-14.197
27291	14.058	5.8182	0.1	-15.798
27292	13.966	5.9091	0.1	-10.389
27293	14.15	0.27273	0.1	-15.105
27294	14.241	0.18182	0.1	-16.067
27295	14.15	9.0909e-002	0.1	-10.556
27296	14.15	0.45455	0.1	-14.399
27297	14.241	0.36364	0.1	-14.578
27298	14.15	0.63636	0.1	-14.507
27299	14.241	0.54545	0.1	-14.694
27300	14.15	0.81818	0.1	-14.675
27301	14.241	0.72727	0.1	-14.914
27302	14.15	1.	0.1	-14.854
27303	14.241	0.90909	0.1	-15.15
27304	14.15	1.1818	0.1	-15.037
27305	14.241	1.0909	0.1	-15.388
27306	14.15	1.3636	0.1	-15.216
27307	14.241	1.2727	0.1	-15.623
27308	14.15	1.5455	0.1	-15.388
27309	14.241	1.4545	0.1	-15.847
27310	14.15	1.7273	0.1	-15.548
27311	14.241	1.6364	0.1	-16.057
27312	14.15	1.9091	0.1	-15.692
27313	14.241	1.8182	0.1	-16.248
27314	14.15	2.0909	0.1	-15.818
27315	14.241	2.	0.1	-16.418
27316	14.15	2.2727	0.1	-15.925
27317	14.241	2.1818	0.1	-16.562
27318	14.15	2.4545	0.1	-16.009
27319	14.241	2.3636	0.1	-16.681
27320	14.15	2.6364	0.1	-16.07
27321	14.241	2.5455	0.1	-16.77
27322	14.15	2.8182	0.1	-16.107
27323	14.241	2.7273	0.1	-16.831
27324	14.15	3.	0.1	-16.119
27325	14.241	2.9091	0.1	-16.861
27326	14.15	3.1818	0.1	-16.107
27327	14.241	3.0909	0.1	-16.861
27328	14.15	3.3636	0.1	-16.07
27329	14.241	3.2727	0.1	-16.831
27330	14.15	3.5455	0.1	-16.009
27331	14.241	3.4545	0.1	-16.77
27332	14.15	3.7273	0.1	-15.925
27333	14.241	3.6364	0.1	-16.681
27334	14.15	3.9091	0.1	-15.818
27335	14.241	3.8182	0.1	-16.563
27336	14.15	4.0909	0.1	-15.692
27337	14.241	4.	0.1	-16.418
27338	14.15	4.2727	0.1	-15.548
27339	14.241	4.1818	0.1	-16.248
27340	14.15	4.4545	0.1	-15.388
27341	14.241	4.3636	0.1	-16.057
27342	14.15	4.6364	0.1	-15.216
27343	14.241	4.5455	0.1	-15.847
27344	14.15	4.8182	0.1	-15.037
27345	14.241	4.7273	0.1	-15.623
27346	14.15	5.	0.1	-14.855
27347	14.241	4.9091	0.1	-15.388
27348	14.15	5.1818	0.1	-14.675
27349	14.241	5.0909	0.1	-15.15
27350	14.15	5.3636	0.1	-14.507
27351	14.241	5.2727	0.1	-14.915
27352	14.15	5.5455	0.1	-14.399
27353	14.241	5.4545	0.1	-14.694
27354	14.15	5.7273	0.1	-15.105
27355	14.241	5.6364	0.1	-14.578
27356	14.241	5.8182	0.1	-16.067
27357	14.15	5.9091	0.1	-10.556
27358	14.333	0.27273	0.1	-15.427
27359	14.425	0.18182	0.1	-16.331
27360	14.333	9.0909e-002	0.1	-10.72
27361	14.333	0.45455	0.1	-14.842
27362	14.425	0.36364	0.1	-14.959
27363	14.333	0.63636	0.1	-15.074
27364	14.425	0.54545	0.1	-15.203
27365	14.333	0.81818	0.1	-15.363
27366	14.425	0.72727	0.1	-15.548
27367	14.333	1.	0.1	-15.657
27368	14.425	0.90909	0.1	-15.904
27369	14.333	1.1818	0.1	-15.948
27370	14.425	1.0909	0.1	-16.255
27371	14.333	1.3636	0.1	-16.228
27372	14.425	1.2727	0.1	-16.595
27373	14.333	1.5455	0.1	-16.491
27374	14.425	1.4545	0.1	-16.917
27375	14.333	1.7273	0.1	-16.732
27376	14.425	1.6364	0.1	-17.215
27377	14.333	1.9091	0.1	-16.949
27378	14.425	1.8182	0.1	-17.484
27379	14.333	2.0909	0.1	-17.137
27380	14.425	2.	0.1	-17.721
27381	14.333	2.2727	0.1	-17.294
27382	14.425	2.1818	0.1	-17.922
27383	14.333	2.4545	0.1	-17.418
27384	14.425	2.3636	0.1	-18.086
27385	14.333	2.6364	0.1	-17.507
27386	14.425	2.5455	0.1	-18.21
27387	14.333	2.8182	0.1	-17.561
27388	14.425	2.7273	0.1	-18.294
27389	14.333	3.	0.1	-17.579
27390	14.425	2.9091	0.1	-18.336
27391	14.333	3.1818	0.1	-17.561
27392	14.425	3.0909	0.1	-18.336
27393	14.333	3.3636	0.1	-17.507
27394	14.425	3.2727	0.1	-18.294
27395	14.333	3.5455	0.1	-17.418
27396	14.425	3.4545	0.1	-18.21
27397	14.333	3.7273	0.1	-17.294
27398	14.425	3.6364	0.1	-18.086
27399	14.333	3.9091	0.1	-17.137
27400	14.425	3.8182	0.1	-17.922
27401	14.333	4.0909	0.1	-16.949
27402	14.425	4.	0.1	-17.721
27403	14.333	4.2727	0.1	-16.732
27404	14.425	4.1818	0.1	-17.484
27405	14.333	4.4545	0.1	-16.491
27406	14.425	4.3636	0.1	-17.215
27407	14.333	4.6364	0.1	-16.228
27408	14.425	4.5455	0.1	-16.917
27409	14.333	4.8182	0.1	-15.948
27410	14.425	4.7273	0.1	-16.595
27411	14.333	5.	0.1	-15.658
27412	14.425	4.9091	0.1	-16.255
27413	14.333	5.1818	0.1	-15.363
27414	14.425	5.0909	0.1	-15.904
27415	14.333	5.3636	0.1	-15.074
27416	14.425	5.2727	0.1	-15.548
27417	14.333	5.5455	0.1	-14.842
27418	14.425	5.4545	0.1	-15.203
27419	14.333	5.7273	0.1	-15.427
27420	14.425	5.6364	0.1	-14.959
27421	14.425	5.8182	0.1	-16.331
27422	14.333	5.9091	0.1	-10.72
27423	14.517	0.27273	0.1	-15.749
27424	14.609	0.18182	0.1	-16.591
27425	14.517	9.0909e-002	0.1	-10.881
27426	14.517	0.45455	0.1	-15.288
27427	14.609	0.36364	0.1	-15.342
27428	14.517	0.63636	0.1	-15.649
27429	14.609	0.54545	0.1	-15.719
27430	14.517	0.81818	0.1	-16.062
27431	14.609	0.72727	0.1	-16.193
27432	14.517	1.	0.1	-16.475
27433	14.609	0.90909	0.1	-16.672
27434	14.517	1.1818	0.1	-16.876
27435	14.609	1.0909	0.1	-17.141
27436	14.517	1.3636	0.1	-17.258
27437	14.609	1.2727	0.1	-17.59
27438	14.517	1.5455	0.1	-17.615
27439	14.609	1.4545	0.1	-18.011
27440	14.517	1.7273	0.1	-17.941
27441	14.609	1.6364	0.1	-18.399
27442	14.517	1.9091	0.1	-18.231
27443	14.609	1.8182	0.1	-18.748
27444	14.517	2.0909	0.1	-18.481
27445	14.609	2.	0.1	-19.054
27446	14.517	2.2727	0.1	-18.69
27447	14.609	2.1818	0.1	-19.313
27448	14.517	2.4545	0.1	-18.854
27449	14.609	2.3636	0.1	-19.523
27450	14.517	2.6364	0.1	-18.972
27451	14.609	2.5455	0.1	-19.682
27452	14.517	2.8182	0.1	-19.044
27453	14.609	2.7273	0.1	-19.789
27454	14.517	3.	0.1	-19.067
27455	14.609	2.9091	0.1	-19.842
27456	14.517	3.1818	0.1	-19.044
27457	14.609	3.0909	0.1	-19.842
27458	14.517	3.3636	0.1	-18.972
27459	14.609	3.2727	0.1	-19.789
27460	14.517	3.5455	0.1	-18.854
27461	14.609	3.4545	0.1	-19.682
27462	14.517	3.7273	0.1	-18.69
27463	14.609	3.6364	0.1	-19.523
27464	14.517	3.9091	0.1	-18.481
27465	14.609	3.8182	0.1	-19.313
27466	14.517	4.0909	0.1	-18.231
27467	14.609	4.	0.1	-19.054
27468	14.517	4.2727	0.1	-17.941
27469	14.609	4.1818	0.1	-18.748
27470	14.517	4.4545	0.1	-17.615
27471	14.609	4.3636	0.1	-18.399
27472	14.517	4.6364	0.1	-17.258
27473	14.609	4.5455	0.1	-18.011
27474	14.517	4.8182	0.1	-16.876
27475	14.609	4.7273	0.1	-17.59
27476	14.517	5.	0.1	-16.475
27477	14.609	4.9091	0.1	-17.141
27478	14.517	5.1818	0.1	-16.062
27479	14.609	5.0909	0.1	-16.672
27480	14.517	5.3636	0.1	-15.649
27481	14.609	5.2727	0.1	-16.193
27482	14.517	5.5455	0.1	-15.288
27483	14.609	5.4545	0.1	-15.719
27484	14.517	5.7273	0.1	-15.749
27485	14.609	5.6364	0.1	-15.342
27486	14.609	5.8182	0.1	-16.591
27487	14.517	5.9091	0.1	-10.881
27488	14.701	0.27273	0.1	-16.069
27489	14.793	0.18182	0.1	-16.847
27490	14.701	9.0909e-002	0.1	-11.039
27491	14.701	0.45455	0.1	-15.74
27492	14.793	0.36364	0.1	-15.729
27493	14.701	0.63636	0.1	-16.234
27494	14.793	0.54545	0.1	-16.244
27495	14.701	0.81818	0.1	-16.776
27496	14.793	0.72727	0.1	-16.853
27497	14.701	1.	0.1	-17.311
27498	14.793	0.90909	0.1	-17.461
27499	14.701	1.1818	0.1	-17.828
27500	14.793	1.0909	0.1	-18.051
27501	14.701	1.3636	0.1	-18.316
27502	14.793	1.2727	0.1	-18.613
27503	14.701	1.5455	0.1	-18.769
27504	14.793	1.4545	0.1	-19.137
27505	14.701	1.7273	0.1	-19.181
27506	14.793	1.6364	0.1	-19.618
27507	14.701	1.9091	0.1	-19.546
27508	14.793	1.8182	0.1	-20.049
27509	14.701	2.0909	0.1	-19.86
27510	14.793	2.	0.1	-20.425
27511	14.701	2.2727	0.1	-20.121
27512	14.793	2.1818	0.1	-20.743
27513	14.701	2.4545	0.1	-20.326
27514	14.793	2.3636	0.1	-21.
27515	14.701	2.6364	0.1	-20.474
27516	14.793	2.5455	0.1	-21.194
27517	14.701	2.8182	0.1	-20.562
27518	14.793	2.7273	0.1	-21.324
27519	14.701	3.	0.1	-20.592
27520	14.793	2.9091	0.1	-21.39
27521	14.701	3.1818	0.1	-20.562
27522	14.793	3.0909	0.1	-21.39
27523	14.701	3.3636	0.1	-20.474
27524	14.793	3.2727	0.1	-21.324
27525	14.701	3.5455	0.1	-20.326
27526	14.793	3.4545	0.1	-21.194
27527	14.701	3.7273	0.1	-20.121
27528	14.793	3.6364	0.1	-21.
27529	14.701	3.9091	0.1	-19.86
27530	14.793	3.8182	0.1	-20.743
27531	14.701	4.0909	0.1	-19.546
27532	14.793	4.	0.1	-20.425
27533	14.701	4.2727	0.1	-19.181
27534	14.793	4.1818	0.1	-20.049
27535	14.701	4.4545	0.1	-18.769
27536	14.793	4.3636	0.1	-19.618
27537	14.701	4.6364	0.1	-18.316
27538	14.793	4.5455	0.1	-19.137
27539	14.701	4.8182	0.1	-17.828
27540	14.793	4.7273	0.1	-18.613
27541	14.701	5.	0.1	-17.311
27542	14.793	4.9091	0.1	-18.051
27543	14.701	5.1818	0.1	-16.776
27544	14.793	5.0909	0.1	-17.461
27545	14.701	5.3636	0.1	-16.234
27546	14.793	5.2727	0.1	-16.853
27547	14.701	5.5455	0.1	-15.74
27548	14.793	5.4545	0.1	-16.244
27549	14.701	5.7273	0.1	-16.069
27550	14.793	5.6364	0.1	-15.729
27551	14.793	5.8182	0.1	-16.847
27552	14.701	5.9091	0.1	-11.039
27553	14.885	0.27273	0.1	-16.39
27554	14.976	0.18182	0.1	-17.101
27555	14.885	9.0909e-002	0.1	-11.194
27556	14.885	0.45455	0.1	-16.2
27557	14.976	0.36364	0.1	-16.121
27558	14.885	0.63636	0.1	-16.834
27559	14.976	0.54545	0.1	-16.782
27560	14.885	0.81818	0.1	-17.51
27561	14.976	0.72727	0.1	-17.533
27562	14.885	1.	0.1	-18.173
27563	14.976	0.90909	0.1	-18.276
27564	14.885	1.1818	0.1	-18.809
27565	14.976	1.0909	0.1	-18.992
27566	14.885	1.3636	0.1	-19.407
27567	14.976	1.2727	0.1	-19.671
27568	14.885	1.5455	0.1	-19.96
27569	14.976	1.4545	0.1	-20.303
27570	14.885	1.7273	0.1	-20.46
27571	14.976	1.6364	0.1	-20.879
27572	14.885	1.9091	0.1	-20.902
27573	14.976	1.8182	0.1	-21.394
27574	14.885	2.0909	0.1	-21.282
27575	14.976	2.	0.1	-21.842
27576	14.885	2.2727	0.1	-21.596
27577	14.976	2.1818	0.1	-22.221
27578	14.885	2.4545	0.1	-21.843
27579	14.976	2.3636	0.1	-22.526
27580	14.885	2.6364	0.1	-22.02
27581	14.976	2.5455	0.1	-22.756
27582	14.885	2.8182	0.1	-22.127
27583	14.976	2.7273	0.1	-22.91
27584	14.885	3.	0.1	-22.162
27585	14.976	2.9091	0.1	-22.987
27586	14.885	3.1818	0.1	-22.127
27587	14.976	3.0909	0.1	-22.987
27588	14.885	3.3636	0.1	-22.02
27589	14.976	3.2727	0.1	-22.91
27590	14.885	3.5455	0.1	-21.843
27591	14.976	3.4545	0.1	-22.756
27592	14.885	3.7273	0.1	-21.596
27593	14.976	3.6364	0.1	-22.526
27594	14.885	3.9091	0.1	-21.282
27595	14.976	3.8182	0.1	-22.221
27596	14.885	4.0909	0.1	-20.902
27597	14.976	4.	0.1	-21.842
27598	14.885	4.2727	0.1	-20.46
27599	14.976	4.1818	0.1	-21.394
27600	14.885	4.4545	0.1	-19.96
27601	14.976	4.3636	0.1	-20.879
27602	14.885	4.6364	0.1	-19.407
27603	14.976	4.5455	0.1	-20.303
27604	14.885	4.8182	0.1	-18.809
27605	14.976	4.7273	0.1	-19.671
27606	14.885	5.	0.1	-18.173
27607	14.976	4.9091	0.1	-18.992
27608	14.885	5.1818	0.1	-17.51
27609	14.976	5.0909	0.1	-18.276
27610	14.885	5.3636	0.1	-16.834
27611	14.976	5.2727	0.1	-17.533
27612	14.885	5.5455	0.1	-16.2
27613	14.976	5.4545	0.1	-16.782
27614	14.885	5.7273	0.1	-16.39
27615	14.976	5.6364	0.1	-16.121
27616	14.976	5.8182	0.1	-17.101
27617	14.885	5.9091	0.1	-11.194
27618	15.068	0.27273	0.1	-16.713
27619	15.16	0.18182	0.1	-17.351
27620	15.068	9.0909e-002	0.1	-11.346
27621	15.068	0.45455	0.1	-16.669
27622	15.16	0.36364	0.1	-16.52
27623	15.068	0.63636	0.1	-17.451
27624	15.16	0.54545	0.1	-17.336
27625	15.068	0.81818	0.1	-18.269
27626	15.16	0.72727	0.1	-18.236
27627	15.068	1.	0.1	-19.067
27628	15.16	0.90909	0.1	-19.121
27629	15.068	1.1818	0.1	-19.827
27630	15.16	1.0909	0.1	-19.971
27631	15.068	1.3636	0.1	-20.54
27632	15.16	1.2727	0.1	-20.773
27633	15.068	1.5455	0.1	-21.196
27634	15.16	1.4545	0.1	-21.516
27635	15.068	1.7273	0.1	-21.787
27636	15.16	1.6364	0.1	-22.191
27637	15.068	1.9091	0.1	-22.309
27638	15.16	1.8182	0.1	-22.793
27639	15.068	2.0909	0.1	-22.756
27640	15.16	2.	0.1	-23.316
27641	15.068	2.2727	0.1	-23.125
27642	15.16	2.1818	0.1	-23.756
27643	15.068	2.4545	0.1	-23.414
27644	15.16	2.3636	0.1	-24.11
27645	15.068	2.6364	0.1	-23.621
27646	15.16	2.5455	0.1	-24.377
27647	15.068	2.8182	0.1	-23.746
27648	15.16	2.7273	0.1	-24.555
27649	15.068	3.	0.1	-23.788
27650	15.16	2.9091	0.1	-24.645
27651	15.068	3.1818	0.1	-23.746
27652	15.16	3.0909	0.1	-24.645
27653	15.068	3.3636	0.1	-23.621
27654	15.16	3.2727	0.1	-24.555
27655	15.068	3.5455	0.1	-23.414
27656	15.16	3.4545	0.1	-24.377
27657	15.068	3.7273	0.1	-23.125
27658	15.16	3.6364	0.1	-24.11
27659	15.068	3.9091	0.1	-22.756
27660	15.16	3.8182	0.1	-23.756
27661	15.068	4.0909	0.1	-22.309
27662	15.16	4.	0.1	-23.316
27663	15.068	4.2727	0.1	-21.787
27664	15.16	4.1818	0.1	-22.793
27665	15.068	4.4545	0.1	-21.196
27666	15.16	4.3636	0.1	-22.191
27667	15.068	4.6364	0.1	-20.54
27668	15.16	4.5455	0.1	-21.516
27669	15.068	4.8182	0.1	-19.827
27670	15.16	4.7273	0.1	-20.773
27671	15.068	5.	0.1	-19.067
27672	15.16	4.9091	0.1	-19.971
27673	15.068	5.1818	0.1	-18.269
27674	15.16	5.0909	0.1	-19.121
27675	15.068	5.3636	0.1	-17.451
27676	15.16	5.2727	0.1	-18.236
27677	15.068	5.5455	0.1	-16.669
27678	15.16	5.4545	0.1	-17.336
27679	15.068	5.7273	0.1	-16.713
27680	15.16	5.6364	0.1	-16.52
27681	15.16	5.8182	0.1	-17.351
27682	15.068	5.9091	0.1	-11.346
27683	15.252	0.27273	0.1	-17.038
27684	15.344	0.18182	0.1	-17.597
27685	15.252	9.0909e-002	0.1	-11.496
27686	15.252	0.45455	0.1	-17.152
27687	15.344	0.36364	0.1	-16.928
27688	15.252	0.63636	0.1	-18.091
27689	15.344	0.54545	0.1	-17.91
27690	15.252	0.81818	0.1	-19.059
27691	15.344	0.72727	0.1	-18.969
27692	15.252	1.	0.1	-19.997
27693	15.344	0.90909	0.1	-20.004
27694	15.252	1.1818	0.1	-20.889
27695	15.344	1.0909	0.1	-20.995
27696	15.252	1.3636	0.1	-21.721
27697	15.344	1.2727	0.1	-21.925
27698	15.252	1.5455	0.1	-22.485
27699	15.344	1.4545	0.1	-22.785
27700	15.252	1.7273	0.1	-23.171
27701	15.344	1.6364	0.1	-23.564
27702	15.252	1.9091	0.1	-23.775
27703	15.344	1.8182	0.1	-24.256
27704	15.252	2.0909	0.1	-24.291
27705	15.344	2.	0.1	-24.855
27706	15.252	2.2727	0.1	-24.716
27707	15.344	2.1818	0.1	-25.358
27708	15.252	2.4545	0.1	-25.048
27709	15.344	2.3636	0.1	-25.762
27710	15.252	2.6364	0.1	-25.286
27711	15.344	2.5455	0.1	-26.066
27712	15.252	2.8182	0.1	-25.429
27713	15.344	2.7273	0.1	-26.269
27714	15.252	3.	0.1	-25.477
27715	15.344	2.9091	0.1	-26.371
27716	15.252	3.1818	0.1	-25.429
27717	15.344	3.0909	0.1	-26.371
27718	15.252	3.3636	0.1	-25.286
27719	15.344	3.2727	0.1	-26.269
27720	15.252	3.5455	0.1	-25.048
27721	15.344	3.4545	0.1	-26.066
27722	15.252	3.7273	0.1	-24.716
27723	15.344	3.6364	0.1	-25.762
27724	15.252	3.9091	0.1	-24.291
27725	15.344	3.8182	0.1	-25.358
27726	15.252	4.0909	0.1	-23.775
27727	15.344	4.	0.1	-24.855
27728	15.252	4.2727	0.1	-23.171
27729	15.344	4.1818	0.1	-24.256
27730	15.252	4.4545	0.1	-22.485
27731	15.344	4.3636	0.1	-23.564
27732	15.252	4.6364	0.1	-21.722
27733	15.344	4.5455	0.1	-22.785
27734	15.252	4.8182	0.1	-20.889
27735	15.344	4.7273	0.1	-21.925
27736	15.252	5.	0.1	-19.997
27737	15.344	4.9091	0.1	-20.995
27738	15.252	5.1818	0.1	-19.059
27739	15.344	5.0909	0.1	-20.004
27740	15.252	5.3636	0.1	-18.091
27741	15.344	5.2727	0.1	-18.969
27742	15.252	5.5455	0.1	-17.152
27743	15.344	5.4545	0.1	-17.91
27744	15.252	5.7273	0.1	-17.038
27745	15.344	5.6364	0.1	-16.928
27746	15.344	5.8182	0.1	-17.597
27747	15.252	5.9091	0.1	-11.496
27748	15.436	0.27273	0.1	-17.367
27749	15.528	0.18182	0.1	-17.841
27750	15.436	9.0909e-002	0.1	-11.643
27751	15.436	0.45455	0.1	-17.651
27752	15.528	0.36364	0.1	-17.348
27753	15.436	0.63636	0.1	-18.757
27754	15.528	0.54545	0.1	-18.507
27755	15.436	0.81818	0.1	-19.885
27756	15.528	0.72727	0.1	-19.736
27757	15.436	1.	0.1	-20.973
27758	15.528	0.90909	0.1	-20.932
27759	15.436	1.1818	0.1	-22.003
27760	15.528	1.0909	0.1	-22.071
27761	15.436	1.3636	0.1	-22.961
27762	15.528	1.2727	0.1	-23.138
27763	15.436	1.5455	0.1	-23.837
27764	15.528	1.4545	0.1	-24.119
27765	15.436	1.7273	0.1	-24.622
27766	15.528	1.6364	0.1	-25.006
27767	15.436	1.9091	0.1	-25.31
27768	15.528	1.8182	0.1	-25.791
27769	15.436	2.0909	0.1	-25.897
27770	15.528	2.	0.1	-26.469
27771	15.436	2.2727	0.1	-26.379
27772	15.528	2.1818	0.1	-27.037
27773	15.436	2.4545	0.1	-26.755
27774	15.528	2.3636	0.1	-27.492
27775	15.436	2.6364	0.1	-27.024
27776	15.528	2.5455	0.1	-27.834
27777	15.436	2.8182	0.1	-27.186
27778	15.528	2.7273	0.1	-28.062
27779	15.436	3.	0.1	-27.24
27780	15.528	2.9091	0.1	-28.176
27781	15.436	3.1818	0.1	-27.186
27782	15.528	3.0909	0.1	-28.176
27783	15.436	3.3636	0.1	-27.024
27784	15.528	3.2727	0.1	-28.062
27785	15.436	3.5455	0.1	-26.755
27786	15.528	3.4545	0.1	-27.834
27787	15.436	3.7273	0.1	-26.379
27788	15.528	3.6364	0.1	-27.492
27789	15.436	3.9091	0.1	-25.897
27790	15.528	3.8182	0.1	-27.037
27791	15.436	4.0909	0.1	-25.31
27792	15.528	4.	0.1	-26.469
27793	15.436	4.2727	0.1	-24.622
27794	15.528	4.1818	0.1	-25.791
27795	15.436	4.4545	0.1	-23.837
27796	15.528	4.3636	0.1	-25.006
27797	15.436	4.6364	0.1	-22.961
27798	15.528	4.5455	0.1	-24.119
27799	15.436	4.8182	0.1	-22.003
27800	15.528	4.7273	0.1	-23.138
27801	15.436	5.	0.1	-20.973
27802	15.528	4.9091	0.1	-22.071
27803	15.436	5.1818	0.1	-19.885
27804	15.528	5.0909	0.1	-20.932
27805	15.436	5.3636	0.1	-18.757
27806	15.528	5.2727	0.1	-19.736
27807	15.436	5.5455	0.1	-17.651
27808	15.528	5.4545	0.1	-18.507
27809	15.436	5.7273	0.1	-17.367
27810	15.528	5.6364	0.1	-17.348
27811	15.528	5.8182	0.1	-17.841
27812	15.436	5.9091	0.1	-11.643
27813	15.62	0.27273	0.1	-17.701
27814	15.712	0.18182	0.1	-18.082
27815	15.62	9.0909e-002	0.1	-11.787
27816	15.62	0.45455	0.1	-18.169
27817	15.712	0.36364	0.1	-17.782
27818	15.62	0.63636	0.1	-19.455
27819	15.712	0.54545	0.1	-19.132
27820	15.62	0.81818	0.1	-20.753
27821	15.712	0.72727	0.1	-20.543
27822	15.62	1.	0.1	-22.001
27823	15.712	0.90909	0.1	-21.911
27824	15.62	1.1818	0.1	-23.177
27825	15.712	1.0909	0.1	-23.209
27826	15.62	1.3636	0.1	-24.268
27827	15.712	1.2727	0.1	-24.419
27828	15.62	1.5455	0.1	-25.261
27829	15.712	1.4545	0.1	-25.529
27830	15.62	1.7273	0.1	-26.149
27831	15.712	1.6364	0.1	-26.528
27832	15.62	1.9091	0.1	-26.924
27833	15.712	1.8182	0.1	-27.41
27834	15.62	2.0909	0.1	-27.584
27835	15.712	2.	0.1	-28.169
27836	15.62	2.2727	0.1	-28.124
27837	15.712	2.1818	0.1	-28.803
27838	15.62	2.4545	0.1	-28.545
27839	15.712	2.3636	0.1	-29.31
27840	15.62	2.6364	0.1	-28.846
27841	15.712	2.5455	0.1	-29.69
27842	15.62	2.8182	0.1	-29.026
27843	15.712	2.7273	0.1	-29.943
27844	15.62	3.	0.1	-29.087
27845	15.712	2.9091	0.1	-30.069
27846	15.62	3.1818	0.1	-29.027
27847	15.712	3.0909	0.1	-30.069
27848	15.62	3.3636	0.1	-28.846
27849	15.712	3.2727	0.1	-29.943
27850	15.62	3.5455	0.1	-28.545
27851	15.712	3.4545	0.1	-29.69
27852	15.62	3.7273	0.1	-28.124
27853	15.712	3.6364	0.1	-29.31
27854	15.62	3.9091	0.1	-27.584
27855	15.712	3.8182	0.1	-28.803
27856	15.62	4.0909	0.1	-26.924
27857	15.712	4.	0.1	-28.169
27858	15.62	4.2727	0.1	-26.149
27859	15.712	4.1818	0.1	-27.41
27860	15.62	4.4545	0.1	-25.261
27861	15.712	4.3636	0.1	-26.528
27862	15.62	4.6364	0.1	-24.268
27863	15.712	4.5455	0.1	-25.529
27864	15.62	4.8182	0.1	-23.177
27865	15.712	4.7273	0.1	-24.419
27866	15.62	5.	0.1	-22.001
27867	15.712	4.9091	0.1	-23.209
27868	15.62	5.1818	0.1	-20.753
27869	15.712	5.0909	0.1	-21.911
27870	15.62	5.3636	0.1	-19.455
27871	15.712	5.2727	0.1	-20.543
27872	15.62	5.5455	0.1	-18.169
27873	15.712	5.4545	0.1	-19.132
27874	15.62	5.7273	0.1	-17.701
27875	15.712	5.6364	0.1	-17.782
27876	15.712	5.8182	0.1	-18.083
27877	15.62	5.9091	0.1	-11.787
27878	15.803	0.27273	0.1	-18.041
27879	15.895	0.18182	0.1	-18.321
27880	15.803	9.0909e-002	0.1	-11.927
27881	15.803	0.45455	0.1	-18.709
27882	15.895	0.36364	0.1	-18.232
27883	15.803	0.63636	0.1	-20.189
27884	15.895	0.54545	0.1	-19.79
27885	15.803	0.81818	0.1	-21.671
27886	15.895	0.72727	0.1	-21.398
27887	15.803	1.	0.1	-23.089
27888	15.895	0.90909	0.1	-22.95
27889	15.803	1.1818	0.1	-24.422
27890	15.895	1.0909	0.1	-24.417
27891	15.803	1.3636	0.1	-25.652
27892	15.895	1.2727	0.1	-25.78
27893	15.803	1.5455	0.1	-26.769
27894	15.895	1.4545	0.1	-27.025
27895	15.803	1.7273	0.1	-27.763
27896	15.895	1.6364	0.1	-28.142
27897	15.803	1.9091	0.1	-28.629
27898	15.895	1.8182	0.1	-29.124
27899	15.803	2.0909	0.1	-29.363
27900	15.895	2.	0.1	-29.966
27901	15.803	2.2727	0.1	-29.963
27902	15.895	2.1818	0.1	-30.667
27903	15.803	2.4545	0.1	-30.429
27904	15.895	2.3636	0.1	-31.226
27905	15.803	2.6364	0.1	-30.761
27906	15.895	2.5455	0.1	-31.644
27907	15.803	2.8182	0.1	-30.96
27908	15.895	2.7273	0.1	-31.922
27909	15.803	3.	0.1	-31.027
27910	15.895	2.9091	0.1	-32.061
27911	15.803	3.1818	0.1	-30.961
27912	15.895	3.0909	0.1	-32.061
27913	15.803	3.3636	0.1	-30.761
27914	15.895	3.2727	0.1	-31.922
27915	15.803	3.5455	0.1	-30.429
27916	15.895	3.4545	0.1	-31.644
27917	15.803	3.7273	0.1	-29.963
27918	15.895	3.6364	0.1	-31.226
27919	15.803	3.9091	0.1	-29.363
27920	15.895	3.8182	0.1	-30.667
27921	15.803	4.0909	0.1	-28.629
27922	15.895	4.	0.1	-29.966
27923	15.803	4.2727	0.1	-27.763
27924	15.895	4.1818	0.1	-29.124
27925	15.803	4.4545	0.1	-26.769
27926	15.895	4.3636	0.1	-28.142
27927	15.803	4.6364	0.1	-25.652
27928	15.895	4.5455	0.1	-27.025
27929	15.803	4.8182	0.1	-24.422
27930	15.895	4.7273	0.1	-25.78
27931	15.803	5.	0.1	-23.09
27932	15.895	4.9091	0.1	-24.417
27933	15.803	5.1818	0.1	-21.671
27934	15.895	5.0909	0.1	-22.95
27935	15.803	5.3636	0.1	-20.189
27936	15.895	5.2727	0.1	-21.398
27937	15.803	5.5455	0.1	-18.709
27938	15.895	5.4545	0.1	-19.79
27939	15.803	5.7273	0.1	-18.041
27940	15.895	5.6364	0.1	-18.232
27941	15.895	5.8182	0.1	-18.321
27942	15.803	5.9091	0.1	-11.927
27943	15.987	0.27273	0.1	-18.388
27944	16.079	0.18182	0.1	-18.556
27945	15.987	9.0909e-002	0.1	-12.064
27946	15.987	0.45455	0.1	-19.276
27947	16.079	0.36364	0.1	-18.702
27948	15.987	0.63636	0.1	-20.967
27949	16.079	0.54545	0.1	-20.486
27950	15.987	0.81818	0.1	-22.647
27951	16.079	0.72727	0.1	-22.308
27952	15.987	1.	0.1	-24.248
27953	16.079	0.90909	0.1	-24.058
27954	15.987	1.1818	0.1	-25.746
27955	16.079	1.0909	0.1	-25.706
27956	15.987	1.3636	0.1	-27.125
27957	16.079	1.2727	0.1	-27.232
27958	15.987	1.5455	0.1	-28.371
27959	16.079	1.4545	0.1	-28.619
27960	15.987	1.7273	0.1	-29.476
27961	16.079	1.6364	0.1	-29.859
27962	15.987	1.9091	0.1	-30.435
27963	16.079	1.8182	0.1	-30.944
27964	15.987	2.0909	0.1	-31.245
27965	16.079	2.	0.1	-31.872
27966	15.987	2.2727	0.1	-31.905
27967	16.079	2.1818	0.1	-32.641
27968	15.987	2.4545	0.1	-32.417
27969	16.079	2.3636	0.1	-33.253
27970	15.987	2.6364	0.1	-32.781
27971	16.079	2.5455	0.1	-33.709
27972	15.987	2.8182	0.1	-32.998
27973	16.079	2.7273	0.1	-34.011
27974	15.987	3.	0.1	-33.071
27975	16.079	2.9091	0.1	-34.162
27976	15.987	3.1818	0.1	-32.998
27977	16.079	3.0909	0.1	-34.162
27978	15.987	3.3636	0.1	-32.781
27979	16.079	3.2727	0.1	-34.011
27980	15.987	3.5455	0.1	-32.417
27981	16.079	3.4545	0.1	-33.709
27982	15.987	3.7273	0.1	-31.905
27983	16.079	3.6364	0.1	-33.253
27984	15.987	3.9091	0.1	-31.245
27985	16.079	3.8182	0.1	-32.641
27986	15.987	4.0909	0.1	-30.435
27987	16.079	4.	0.1	-31.872
27988	15.987	4.2727	0.1	-29.476
27989	16.079	4.1818	0.1	-30.944
27990	15.987	4.4545	0.1	-28.371
27991	16.079	4.3636	0.1	-29.859
27992	15.987	4.6364	0.1	-27.125
27993	16.079	4.5455	0.1	-28.619
27994	15.987	4.8182	0.1	-25.746
27995	16.079	4.7273	0.1	-27.232
27996	15.987	5.	0.1	-24.248
27997	16.079	4.9091	0.1	-25.706
27998	15.987	5.1818	0.1	-22.647
27999	16.079	5.0909	0.1	-24.059
28000	15.987	5.3636	0.1	-20.967
28001	16.079	5.2727	0.1	-22.308
28002	15.987	5.5455	0.1	-19.276
28003	16.079	5.4545	0.1	-20.486
28004	15.987	5.7273	0.1	-18.388
28005	16.079	5.6364	0.1	-18.702
28006	16.079	5.8182	0.1	-18.556
28007	15.987	5.9091	0.1	-12.064
28008	16.171	0.27273	0.1	-18.744
28009	16.263	0.18182	0.1	-18.788
28010	16.171	9.0909e-002	0.1	-12.197
28011	16.171	0.45455	0.1	-19.874
28012	16.263	0.36364	0.1	-19.194
28013	16.171	0.63636	0.1	-21.794
28014	16.263	0.54545	0.1	-21.226
28015	16.171	0.81818	0.1	-23.689
28016	16.263	0.72727	0.1	-23.281
28017	16.171	1.	0.1	-25.487
28018	16.263	0.90909	0.1	-25.246
28019	16.171	1.1818	0.1	-27.163
28020	16.263	1.0909	0.1	-27.089
28021	16.171	1.3636	0.1	-28.698
28022	16.263	1.2727	0.1	-28.787
28023	16.171	1.5455	0.1	-30.08
28024	16.263	1.4545	0.1	-30.325
28025	16.171	1.7273	0.1	-31.301
28026	16.263	1.6364	0.1	-31.693
28027	16.171	1.9091	0.1	-32.355
28028	16.263	1.8182	0.1	-32.885
28029	16.171	2.0909	0.1	-33.243
28030	16.263	2.	0.1	-33.899
28031	16.171	2.2727	0.1	-33.963
28032	16.263	2.1818	0.1	-34.737
28033	16.171	2.4545	0.1	-34.52
28034	16.263	2.3636	0.1	-35.401
28035	16.171	2.6364	0.1	-34.915
28036	16.263	2.5455	0.1	-35.894
28037	16.171	2.8182	0.1	-35.151
28038	16.263	2.7273	0.1	-36.221
28039	16.171	3.	0.1	-35.229
28040	16.263	2.9091	0.1	-36.383
28041	16.171	3.1818	0.1	-35.151
28042	16.263	3.0909	0.1	-36.383
28043	16.171	3.3636	0.1	-34.915
28044	16.263	3.2727	0.1	-36.221
28045	16.171	3.5455	0.1	-34.52
28046	16.263	3.4545	0.1	-35.894
28047	16.171	3.7273	0.1	-33.963
28048	16.263	3.6364	0.1	-35.401
28049	16.171	3.9091	0.1	-33.243
28050	16.263	3.8182	0.1	-34.737
28051	16.171	4.0909	0.1	-32.355
28052	16.263	4.	0.1	-33.9
28053	16.171	4.2727	0.1	-31.301
28054	16.263	4.1818	0.1	-32.885
28055	16.171	4.4545	0.1	-30.081
28056	16.263	4.3636	0.1	-31.693
28057	16.171	4.6364	0.1	-28.698
28058	16.263	4.5455	0.1	-30.325
28059	16.171	4.8182	0.1	-27.163
28060	16.263	4.7273	0.1	-28.787
28061	16.171	5.	0.1	-25.487
28062	16.263	4.9091	0.1	-27.089
28063	16.171	5.1818	0.1	-23.689
28064	16.263	5.0909	0.1	-25.247
28065	16.171	5.3636	0.1	-21.794
28066	16.263	5.2727	0.1	-23.281
28067	16.171	5.5455	0.1	-19.874
28068	16.263	5.4545	0.1	-21.226
28069	16.171	5.7273	0.1	-18.744
28070	16.263	5.6364	0.1	-19.194
28071	16.263	5.8182	0.1	-18.788
28072	16.171	5.9091	0.1	-12.197
28073	16.355	0.27273	0.1	-19.111
28074	16.447	0.18182	0.1	-19.016
28075	16.355	9.0909e-002	0.1	-12.326
28076	16.355	0.45455	0.1	-20.508
28077	16.447	0.36364	0.1	-19.713
28078	16.355	0.63636	0.1	-22.68
28079	16.447	0.54545	0.1	-22.017
28080	16.355	0.81818	0.1	-24.807
28081	16.447	0.72727	0.1	-24.327
28082	16.355	1.	0.1	-26.819
28083	16.447	0.90909	0.1	-26.526
28084	16.355	1.1818	0.1	-28.685
28085	16.447	1.0909	0.1	-28.578
28086	16.355	1.3636	0.1	-30.386
28087	16.447	1.2727	0.1	-30.461
28088	16.355	1.5455	0.1	-31.911
28089	16.447	1.4545	0.1	-32.157
28090	16.355	1.7273	0.1	-33.251
28091	16.447	1.6364	0.1	-33.659
28092	16.355	1.9091	0.1	-34.404
28093	16.447	1.8182	0.1	-34.96
28094	16.355	2.0909	0.1	-35.369
28095	16.447	2.	0.1	-36.062
28096	16.355	2.2727	0.1	-36.15
28097	16.447	2.1818	0.1	-36.968
28098	16.355	2.4545	0.1	-36.75
28099	16.447	2.3636	0.1	-37.683
28100	16.355	2.6364	0.1	-37.175
28101	16.447	2.5455	0.1	-38.212
28102	16.355	2.8182	0.1	-37.429
28103	16.447	2.7273	0.1	-38.561
28104	16.355	3.	0.1	-37.513
28105	16.447	2.9091	0.1	-38.735
28106	16.355	3.1818	0.1	-37.429
28107	16.447	3.0909	0.1	-38.735
28108	16.355	3.3636	0.1	-37.175
28109	16.447	3.2727	0.1	-38.561
28110	16.355	3.5455	0.1	-36.75
28111	16.447	3.4545	0.1	-38.212
28112	16.355	3.7273	0.1	-36.15
28113	16.447	3.6364	0.1	-37.683
28114	16.355	3.9091	0.1	-35.369
28115	16.447	3.8182	0.1	-36.968
28116	16.355	4.0909	0.1	-34.404
28117	16.447	4.	0.1	-36.063
28118	16.355	4.2727	0.1	-33.251
28119	16.447	4.1818	0.1	-34.96
28120	16.355	4.4545	0.1	-31.911
28121	16.447	4.3636	0.1	-33.659
28122	16.355	4.6364	0.1	-30.386
28123	16.447	4.5455	0.1	-32.157
28124	16.355	4.8182	0.1	-28.685
28125	16.447	4.7273	0.1	-30.461
28126	16.355	5.	0.1	-26.819
28127	16.447	4.9091	0.1	-28.578
28128	16.355	5.1818	0.1	-24.807
28129	16.447	5.0909	0.1	-26.526
28130	16.355	5.3636	0.1	-22.68
28131	16.447	5.2727	0.1	-24.327
28132	16.355	5.5455	0.1	-20.508
28133	16.447	5.4545	0.1	-22.018
28134	16.355	5.7273	0.1	-19.111
28135	16.447	5.6364	0.1	-19.713
28136	16.447	5.8182	0.1	-19.016
28137	16.355	5.9091	0.1	-12.326
28138	16.538	0.27273	0.1	-19.49
28139	16.63	0.18182	0.1	-19.241
28140	16.538	9.0909e-002	0.1	-12.449
28141	16.538	0.45455	0.1	-21.184
28142	16.63	0.36364	0.1	-20.263
28143	16.538	0.63636	0.1	-23.631
28144	16.63	0.54545	0.1	-22.868
28145	16.538	0.81818	0.1	-26.014
28146	16.63	0.72727	0.1	-25.456
28147	16.538	1.	0.1	-28.255
28148	16.63	0.90909	0.1	-27.91
28149	16.538	1.1818	0.1	-30.325
28150	16.63	1.0909	0.1	-30.188
28151	16.538	1.3636	0.1	-32.204
28152	16.63	1.2727	0.1	-32.268
28153	16.538	1.5455	0.1	-33.878
28154	16.63	1.4545	0.1	-34.132
28155	16.538	1.7273	0.1	-35.342
28156	16.63	1.6364	0.1	-35.772
28157	16.538	1.9091	0.1	-36.594
28158	16.63	1.8182	0.1	-37.186
28159	16.538	2.0909	0.1	-37.637
28160	16.63	2.	0.1	-38.376
28161	16.538	2.2727	0.1	-38.477
28162	16.63	2.1818	0.1	-39.349
28163	16.538	2.4545	0.1	-39.12
28164	16.63	2.3636	0.1	-40.112
28165	16.538	2.6364	0.1	-39.574
28166	16.63	2.5455	0.1	-40.675
28167	16.538	2.8182	0.1	-39.843
28168	16.63	2.7273	0.1	-41.045
28169	16.538	3.	0.1	-39.933
28170	16.63	2.9091	0.1	-41.229
28171	16.538	3.1818	0.1	-39.843
28172	16.63	3.0909	0.1	-41.229
28173	16.538	3.3636	0.1	-39.574
28174	16.63	3.2727	0.1	-41.045
28175	16.538	3.5455	0.1	-39.12
28176	16.63	3.4545	0.1	-40.675
28177	16.538	3.7273	0.1	-38.477
28178	16.63	3.6364	0.1	-40.112
28179	16.538	3.9091	0.1	-37.637
28180	16.63	3.8182	0.1	-39.349
28181	16.538	4.0909	0.1	-36.594
28182	16.63	4.	0.1	-38.376
28183	16.538	4.2727	0.1	-35.342
28184	16.63	4.1818	0.1	-37.186
28185	16.538	4.4545	0.1	-33.878
28186	16.63	4.3636	0.1	-35.772
28187	16.538	4.6364	0.1	-32.204
28188	16.63	4.5455	0.1	-34.132
28189	16.538	4.8182	0.1	-30.325
28190	16.63	4.7273	0.1	-32.268
28191	16.538	5.	0.1	-28.255
28192	16.63	4.9091	0.1	-30.188
28193	16.538	5.1818	0.1	-26.014
28194	16.63	5.0909	0.1	-27.91
28195	16.538	5.3636	0.1	-23.631
28196	16.63	5.2727	0.1	-25.456
28197	16.538	5.5455	0.1	-21.184
28198	16.63	5.4545	0.1	-22.868
28199	16.538	5.7273	0.1	-19.49
28200	16.63	5.6364	0.1	-20.264
28201	16.63	5.8182	0.1	-19.241
28202	16.538	5.9091	0.1	-12.449
28203	16.722	0.27273	0.1	-19.885
28204	16.814	0.18182	0.1	-19.462
28205	16.722	9.0909e-002	0.1	-12.568
28206	16.722	0.45455	0.1	-21.908
28207	16.814	0.36364	0.1	-20.849
28208	16.722	0.63636	0.1	-24.66
28209	16.814	0.54545	0.1	-23.787
28210	16.722	0.81818	0.1	-27.321
28211	16.814	0.72727	0.1	-26.683
28212	16.722	1.	0.1	-29.812
28213	16.814	0.90909	0.1	-29.413
28214	16.722	1.1818	0.1	-32.102
28215	16.814	1.0909	0.1	-31.937
28216	16.722	1.3636	0.1	-34.168
28217	16.814	1.2727	0.1	-34.227
28218	16.722	1.5455	0.1	-35.999
28219	16.814	1.4545	0.1	-36.267
28220	16.722	1.7273	0.1	-37.59
28221	16.814	1.6364	0.1	-38.052
28222	16.722	1.9091	0.1	-38.943
28223	16.814	1.8182	0.1	-39.579
28224	16.722	2.0909	0.1	-40.063
28225	16.814	2.	0.1	-40.856
28226	16.722	2.2727	0.1	-40.96
28227	16.814	2.1818	0.1	-41.893
28228	16.722	2.4545	0.1	-41.643
28229	16.814	2.3636	0.1	-42.702
28230	16.722	2.6364	0.1	-42.122
28231	16.814	2.5455	0.1	-43.295
28232	16.722	2.8182	0.1	-42.407
28233	16.814	2.7273	0.1	-43.684
28234	16.722	3.	0.1	-42.501
28235	16.814	2.9091	0.1	-43.876
28236	16.722	3.1818	0.1	-42.407
28237	16.814	3.0909	0.1	-43.876
28238	16.722	3.3636	0.1	-42.122
28239	16.814	3.2727	0.1	-43.684
28240	16.722	3.5455	0.1	-41.643
28241	16.814	3.4545	0.1	-43.295
28242	16.722	3.7273	0.1	-40.96
28243	16.814	3.6364	0.1	-42.702
28244	16.722	3.9091	0.1	-40.063
28245	16.814	3.8182	0.1	-41.893
28246	16.722	4.0909	0.1	-38.943
28247	16.814	4.	0.1	-40.857
28248	16.722	4.2727	0.1	-37.59
28249	16.814	4.1818	0.1	-39.579
28250	16.722	4.4545	0.1	-35.999
28251	16.814	4.3636	0.1	-38.052
28252	16.722	4.6364	0.1	-34.168
28253	16.814	4.5455	0.1	-36.267
28254	16.722	4.8182	0.1	-32.102
28255	16.814	4.7273	0.1	-34.227
28256	16.722	5.	0.1	-29.812
28257	16.814	4.9091	0.1	-31.937
28258	16.722	5.1818	0.1	-27.321
28259	16.814	5.0909	0.1	-29.413
28260	16.722	5.3636	0.1	-24.66
28261	16.814	5.2727	0.1	-26.683
28262	16.722	5.5455	0.1	-21.908
28263	16.814	5.4545	0.1	-23.787
28264	16.722	5.7273	0.1	-19.885
28265	16.814	5.6364	0.1	-20.849
28266	16.814	5.8182	0.1	-19.462
28267	16.722	5.9091	0.1	-12.568
28268	16.906	0.27273	0.1	-20.296
28269	16.998	0.18182	0.1	-19.678
28270	16.906	9.0909e-002	0.1	-12.679
28271	16.906	0.45455	0.1	-22.688
28272	16.998	0.36364	0.1	-21.477
28273	16.906	0.63636	0.1	-25.776
28274	16.998	0.54545	0.1	-24.785
28275	16.906	0.81818	0.1	-28.743
28276	16.998	0.72727	0.1	-28.019
28277	16.906	1.	0.1	-31.507
28278	16.998	0.90909	0.1	-31.054
28279	16.906	1.1818	0.1	-34.033
28280	16.998	1.0909	0.1	-33.842
28281	16.906	1.3636	0.1	-36.299
28282	16.998	1.2727	0.1	-36.358
28283	16.906	1.5455	0.1	-38.294
28284	16.998	1.4545	0.1	-38.585
28285	16.906	1.7273	0.1	-40.015
28286	16.998	1.6364	0.1	-40.517
28287	16.906	1.9091	0.1	-41.468
28288	16.998	1.8182	0.1	-42.16
28289	16.906	2.0909	0.1	-42.663
28290	16.998	2.	0.1	-43.522
28291	16.906	2.2727	0.1	-43.612
28292	16.998	2.1818	0.1	-44.619
28293	16.906	2.4545	0.1	-44.332
28294	16.998	2.3636	0.1	-45.469
28295	16.906	2.6364	0.1	-44.834
28296	16.998	2.5455	0.1	-46.087
28297	16.906	2.8182	0.1	-45.13
28298	16.998	2.7273	0.1	-46.491
28299	16.906	3.	0.1	-45.228
28300	16.998	2.9091	0.1	-46.689
28301	16.906	3.1818	0.1	-45.13
28302	16.998	3.0909	0.1	-46.689
28303	16.906	3.3636	0.1	-44.834
28304	16.998	3.2727	0.1	-46.491
28305	16.906	3.5455	0.1	-44.332
28306	16.998	3.4545	0.1	-46.087
28307	16.906	3.7273	0.1	-43.613
28308	16.998	3.6364	0.1	-45.469
28309	16.906	3.9091	0.1	-42.663
28310	16.998	3.8182	0.1	-44.619
28311	16.906	4.0909	0.1	-41.468
28312	16.998	4.	0.1	-43.522
28313	16.906	4.2727	0.1	-40.015
28314	16.998	4.1818	0.1	-42.16
28315	16.906	4.4545	0.1	-38.294
28316	16.998	4.3636	0.1	-40.517
28317	16.906	4.6364	0.1	-36.299
28318	16.998	4.5455	0.1	-38.585
28319	16.906	4.8182	0.1	-34.033
28320	16.998	4.7273	0.1	-36.358
28321	16.906	5.	0.1	-31.507
28322	16.998	4.9091	0.1	-33.842
28323	16.906	5.1818	0.1	-28.743
28324	16.998	5.0909	0.1	-31.054
28325	16.906	5.3636	0.1	-25.776
28326	16.998	5.2727	0.1	-28.019
28327	16.906	5.5455	0.1	-22.688
28328	16.998	5.4545	0.1	-24.785
28329	16.906	5.7273	0.1	-20.296
28330	16.998	5.6364	0.1	-21.477
28331	16.998	5.8182	0.1	-19.679
28332	16.906	5.9091	0.1	-12.679
28333	17.09	0.27273	0.1	-20.728
28334	17.182	0.18182	0.1	-19.891
28335	17.09	9.0909e-002	0.1	-12.784
28336	17.09	0.45455	0.1	-23.533
28337	17.182	0.36364	0.1	-22.153
28338	17.09	0.63636	0.1	-26.994
28339	17.182	0.54545	0.1	-25.874
28340	17.09	0.81818	0.1	-30.297
28341	17.182	0.72727	0.1	-29.483
28342	17.09	1.	0.1	-33.359
28343	17.182	0.90909	0.1	-32.85
28344	17.09	1.1818	0.1	-36.139
28345	17.182	1.0909	0.1	-35.927
28346	17.09	1.3636	0.1	-38.617
28347	17.182	1.2727	0.1	-38.685
28348	17.09	1.5455	0.1	-40.783
28349	17.182	1.4545	0.1	-41.107
28350	17.09	1.7273	0.1	-42.637
28351	17.182	1.6364	0.1	-43.193
28352	17.09	1.9091	0.1	-44.189
28353	17.182	1.8182	0.1	-44.949
28354	17.09	2.0909	0.1	-45.455
28355	17.182	2.	0.1	-46.392
28356	17.09	2.2727	0.1	-46.452
28357	17.182	2.1818	0.1	-47.544
28358	17.09	2.4545	0.1	-47.201
28359	17.182	2.3636	0.1	-48.427
28360	17.09	2.6364	0.1	-47.721
28361	17.182	2.5455	0.1	-49.065
28362	17.09	2.8182	0.1	-48.027
28363	17.182	2.7273	0.1	-49.478
28364	17.09	3.	0.1	-48.128
28365	17.182	2.9091	0.1	-49.68
28366	17.09	3.1818	0.1	-48.027
28367	17.182	3.0909	0.1	-49.68
28368	17.09	3.3636	0.1	-47.721
28369	17.182	3.2727	0.1	-49.478
28370	17.09	3.5455	0.1	-47.201
28371	17.182	3.4545	0.1	-49.065
28372	17.09	3.7273	0.1	-46.452
28373	17.182	3.6364	0.1	-48.427
28374	17.09	3.9091	0.1	-45.455
28375	17.182	3.8182	0.1	-47.544
28376	17.09	4.0909	0.1	-44.189
28377	17.182	4.	0.1	-46.392
28378	17.09	4.2727	0.1	-42.637
28379	17.182	4.1818	0.1	-44.949
28380	17.09	4.4545	0.1	-40.783
28381	17.182	4.3636	0.1	-43.193
28382	17.09	4.6364	0.1	-38.617
28383	17.182	4.5455	0.1	-41.107
28384	17.09	4.8182	0.1	-36.139
28385	17.182	4.7273	0.1	-38.685
28386	17.09	5.	0.1	-33.359
28387	17.182	4.9091	0.1	-35.927
28388	17.09	5.1818	0.1	-30.297
28389	17.182	5.0909	0.1	-32.85
28390	17.09	5.3636	0.1	-26.994
28391	17.182	5.2727	0.1	-29.483
28392	17.09	5.5455	0.1	-23.533
28393	17.182	5.4545	0.1	-25.874
28394	17.09	5.7273	0.1	-20.728
28395	17.182	5.6364	0.1	-22.153
28396	17.182	5.8182	0.1	-19.891
28397	17.09	5.9091	0.1	-12.784
28398	17.274	0.27273	0.1	-21.183
28399	17.365	0.18182	0.1	-20.098
28400	17.274	9.0909e-002	0.1	-12.881
28401	17.274	0.45455	0.1	-24.451
28402	17.365	0.36364	0.1	-22.884
28403	17.274	0.63636	0.1	-28.327
28404	17.365	0.54545	0.1	-27.067
28405	17.274	0.81818	0.1	-32.003
28406	17.365	0.72727	0.1	-31.091
28407	17.274	1.	0.1	-35.389
28408	17.365	0.90909	0.1	-34.826
28409	17.274	1.1818	0.1	-38.445
28410	17.365	1.0909	0.1	-38.217
28411	17.274	1.3636	0.1	-41.148
28412	17.365	1.2727	0.1	-41.233
28413	17.274	1.5455	0.1	-43.492
28414	17.365	1.4545	0.1	-43.862
28415	17.274	1.7273	0.1	-45.48
28416	17.365	1.6364	0.1	-46.104
28417	17.274	1.9091	0.1	-47.129
28418	17.365	1.8182	0.1	-47.972
28419	17.274	2.0909	0.1	-48.459
28420	17.365	2.	0.1	-49.49
28421	17.274	2.2727	0.1	-49.496
28422	17.365	2.1818	0.1	-50.687
28423	17.274	2.4545	0.1	-50.268
28424	17.365	2.3636	0.1	-51.595
28425	17.274	2.6364	0.1	-50.799
28426	17.365	2.5455	0.1	-52.243
28427	17.274	2.8182	0.1	-51.109
28428	17.365	2.7273	0.1	-52.659
28429	17.274	3.	0.1	-51.211
28430	17.365	2.9091	0.1	-52.862
28431	17.274	3.1818	0.1	-51.109
28432	17.365	3.0909	0.1	-52.862
28433	17.274	3.3636	0.1	-50.799
28434	17.365	3.2727	0.1	-52.659
28435	17.274	3.5455	0.1	-50.268
28436	17.365	3.4545	0.1	-52.243
28437	17.274	3.7273	0.1	-49.496
28438	17.365	3.6364	0.1	-51.595
28439	17.274	3.9091	0.1	-48.459
28440	17.365	3.8182	0.1	-50.687
28441	17.274	4.0909	0.1	-47.129
28442	17.365	4.	0.1	-49.49
28443	17.274	4.2727	0.1	-45.481
28444	17.365	4.1818	0.1	-47.972
28445	17.274	4.4545	0.1	-43.492
28446	17.365	4.3636	0.1	-46.104
28447	17.274	4.6364	0.1	-41.148
28448	17.365	4.5455	0.1	-43.862
28449	17.274	4.8182	0.1	-38.445
28450	17.365	4.7273	0.1	-41.233
28451	17.274	5.	0.1	-35.389
28452	17.365	4.9091	0.1	-38.217
28453	17.274	5.1818	0.1	-32.003
28454	17.365	5.0909	0.1	-34.826
28455	17.274	5.3636	0.1	-28.328
28456	17.365	5.2727	0.1	-31.091
28457	17.274	5.5455	0.1	-24.452
28458	17.365	5.4545	0.1	-27.067
28459	17.274	5.7273	0.1	-21.183
28460	17.365	5.6364	0.1	-22.884
28461	17.365	5.8182	0.1	-20.098
28462	17.274	5.9091	0.1	-12.881
28463	17.457	0.27273	0.1	-21.665
28464	17.549	0.18182	0.1	-20.299
28465	17.457	9.0909e-002	0.1	-12.968
28466	17.457	0.45455	0.1	-25.456
28467	17.549	0.36364	0.1	-23.679
28468	17.457	0.63636	0.1	-29.795
28469	17.549	0.54545	0.1	-28.379
28470	17.457	0.81818	0.1	-33.882
28471	17.549	0.72727	0.1	-32.867
28472	17.457	1.	0.1	-37.624
28473	17.549	0.90909	0.1	-37.006
28474	17.457	1.1818	0.1	-40.977
28475	17.549	1.0909	0.1	-40.739
28476	17.457	1.3636	0.1	-43.921
28477	17.549	1.2727	0.1	-44.034
28478	17.457	1.5455	0.1	-46.449
28479	17.549	1.4545	0.1	-46.879
28480	17.457	1.7273	0.1	-48.572
28481	17.549	1.6364	0.1	-49.28
28482	17.457	1.9091	0.1	-50.311
28483	17.549	1.8182	0.1	-51.257
28484	17.457	2.0909	0.1	-51.697
28485	17.549	2.	0.1	-52.841
28486	17.457	2.2727	0.1	-52.764
28487	17.549	2.1818	0.1	-54.072
28488	17.457	2.4545	0.1	-53.548
28489	17.549	2.3636	0.1	-54.991
28490	17.457	2.6364	0.1	-54.082
28491	17.549	2.5455	0.1	-55.638
28492	17.457	2.8182	0.1	-54.391
28493	17.549	2.7273	0.1	-56.049
28494	17.457	3.	0.1	-54.492
28495	17.549	2.9091	0.1	-56.247
28496	17.457	3.1818	0.1	-54.391
28497	17.549	3.0909	0.1	-56.247
28498	17.457	3.3636	0.1	-54.082
28499	17.549	3.2727	0.1	-56.049
28500	17.457	3.5455	0.1	-53.548
28501	17.549	3.4545	0.1	-55.638
28502	17.457	3.7273	0.1	-52.764
28503	17.549	3.6364	0.1	-54.991
28504	17.457	3.9091	0.1	-51.697
28505	17.549	3.8182	0.1	-54.072
28506	17.457	4.0909	0.1	-50.311
28507	17.549	4.	0.1	-52.841
28508	17.457	4.2727	0.1	-48.572
28509	17.549	4.1818	0.1	-51.257
28510	17.457	4.4545	0.1	-46.449
28511	17.549	4.3636	0.1	-49.28
28512	17.457	4.6364	0.1	-43.921
28513	17.549	4.5455	0.1	-46.879
28514	17.457	4.8182	0.1	-40.977
28515	17.549	4.7273	0.1	-44.034
28516	17.457	5.	0.1	-37.624
28517	17.549	4.9091	0.1	-40.739
28518	17.457	5.1818	0.1	-33.882
28519	17.549	5.0909	0.1	-37.006
28520	17.457	5.3636	0.1	-29.795
28521	17.549	5.2727	0.1	-32.867
28522	17.457	5.5455	0.1	-25.456
28523	17.549	5.4545	0.1	-28.379
28524	17.457	5.7273	0.1	-21.665
28525	17.549	5.6364	0.1	-23.679
28526	17.549	5.8182	0.1	-20.299
28527	17.457	5.9091	0.1	-12.968
28528	17.641	0.27273	0.1	-22.178
28529	17.733	0.18182	0.1	-20.495
28530	17.641	9.0909e-002	0.1	-13.045
28531	17.641	0.45455	0.1	-26.558
28532	17.733	0.36364	0.1	-24.548
28533	17.641	0.63636	0.1	-31.415
28534	17.733	0.54545	0.1	-29.828
28535	17.641	0.81818	0.1	-35.958
28536	17.733	0.72727	0.1	-34.832
28537	17.641	1.	0.1	-40.092
28538	17.733	0.90909	0.1	-39.419
28539	17.641	1.1818	0.1	-43.768
28540	17.733	1.0909	0.1	-43.526
28541	17.641	1.3636	0.1	-46.967
28542	17.733	1.2727	0.1	-47.121
28543	17.641	1.5455	0.1	-49.686
28544	17.733	1.4545	0.1	-50.194
28545	17.641	1.7273	0.1	-51.942
28546	17.733	1.6364	0.1	-52.756
28547	17.641	1.9091	0.1	-53.765
28548	17.733	1.8182	0.1	-54.835
28549	17.641	2.0909	0.1	-55.195
28550	17.733	2.	0.1	-56.474
28551	17.641	2.2727	0.1	-56.278
28552	17.733	2.1818	0.1	-57.723
28553	17.641	2.4545	0.1	-57.061
28554	17.733	2.3636	0.1	-58.637
28555	17.641	2.6364	0.1	-57.585
28556	17.733	2.5455	0.1	-59.269
28557	17.641	2.8182	0.1	-57.885
28558	17.733	2.7273	0.1	-59.662
28559	17.641	3.	0.1	-57.983
28560	17.733	2.9091	0.1	-59.85
28561	17.641	3.1818	0.1	-57.885
28562	17.733	3.0909	0.1	-59.85
28563	17.641	3.3636	0.1	-57.585
28564	17.733	3.2727	0.1	-59.662
28565	17.641	3.5455	0.1	-57.061
28566	17.733	3.4545	0.1	-59.269
28567	17.641	3.7273	0.1	-56.278
28568	17.733	3.6364	0.1	-58.637
28569	17.641	3.9091	0.1	-55.195
28570	17.733	3.8182	0.1	-57.723
28571	17.641	4.0909	0.1	-53.765
28572	17.733	4.	0.1	-56.474
28573	17.641	4.2727	0.1	-51.942
28574	17.733	4.1818	0.1	-54.835
28575	17.641	4.4545	0.1	-49.687
28576	17.733	4.3636	0.1	-52.756
28577	17.641	4.6364	0.1	-46.967
28578	17.733	4.5455	0.1	-50.194
28579	17.641	4.8182	0.1	-43.768
28580	17.733	4.7273	0.1	-47.121
28581	17.641	5.	0.1	-40.092
28582	17.733	4.9091	0.1	-43.526
28583	17.641	5.1818	0.1	-35.958
28584	17.733	5.0909	0.1	-39.419
28585	17.641	5.3636	0.1	-31.415
28586	17.733	5.2727	0.1	-34.832
28587	17.641	5.5455	0.1	-26.558
28588	17.733	5.4545	0.1	-29.828
28589	17.641	5.7273	0.1	-22.178
28590	17.733	5.6364	0.1	-24.548
28591	17.733	5.8182	0.1	-20.495
28592	17.641	5.9091	0.1	-13.045
28593	17.825	0.27273	0.1	-22.728
28594	17.917	0.18182	0.1	-20.685
28595	17.825	9.0909e-002	0.1	-13.111
28596	17.825	0.45455	0.1	-27.773
28597	17.917	0.36364	0.1	-25.502
28598	17.825	0.63636	0.1	-33.209
28599	17.917	0.54545	0.1	-31.434
28600	17.825	0.81818	0.1	-38.26
28601	17.917	0.72727	0.1	-37.014
28602	17.825	1.	0.1	-42.825
28603	17.917	0.90909	0.1	-42.098
28604	17.825	1.1818	0.1	-46.853
28605	17.917	1.0909	0.1	-46.616
28606	17.825	1.3636	0.1	-50.325
28607	17.917	1.2727	0.1	-50.536
28608	17.825	1.5455	0.1	-53.242
28609	17.917	1.4545	0.1	-53.849
28610	17.825	1.7273	0.1	-55.628
28611	17.917	1.6364	0.1	-56.573
28612	17.825	1.9091	0.1	-57.524
28613	17.917	1.8182	0.1	-58.745
28614	17.825	2.0909	0.1	-58.982
28615	17.917	2.	0.1	-60.422
28616	17.825	2.2727	0.1	-60.063
28617	17.917	2.1818	0.1	-61.67
28618	17.825	2.4545	0.1	-60.826
28619	17.917	2.3636	0.1	-62.557
28620	17.825	2.6364	0.1	-61.326
28621	17.917	2.5455	0.1	-63.153
28622	17.825	2.8182	0.1	-61.608
28623	17.917	2.7273	0.1	-63.515
28624	17.825	3.	0.1	-61.698
28625	17.917	2.9091	0.1	-63.684
28626	17.825	3.1818	0.1	-61.608
28627	17.917	3.0909	0.1	-63.684
28628	17.825	3.3636	0.1	-61.326
28629	17.917	3.2727	0.1	-63.515
28630	17.825	3.5455	0.1	-60.826
28631	17.917	3.4545	0.1	-63.153
28632	17.825	3.7273	0.1	-60.063
28633	17.917	3.6364	0.1	-62.557
28634	17.825	3.9091	0.1	-58.982
28635	17.917	3.8182	0.1	-61.67
28636	17.825	4.0909	0.1	-57.524
28637	17.917	4.	0.1	-60.422
28638	17.825	4.2727	0.1	-55.628
28639	17.917	4.1818	0.1	-58.745
28640	17.825	4.4545	0.1	-53.242
28641	17.917	4.3636	0.1	-56.573
28642	17.825	4.6364	0.1	-50.325
28643	17.917	4.5455	0.1	-53.849
28644	17.825	4.8182	0.1	-46.854
28645	17.917	4.7273	0.1	-50.536
28646	17.825	5.	0.1	-42.825
28647	17.917	4.9091	0.1	-46.616
28648	17.825	5.1818	0.1	-38.26
28649	17.917	5.0909	0.1	-42.098
28650	17.825	5.3636	0.1	-33.209
28651	17.917	5.2727	0.1	-37.014
28652	17.825	5.5455	0.1	-27.773
28653	17.917	5.4545	0.1	-31.434
28654	17.825	5.7273	0.1	-22.728
28655	17.917	5.6364	0.1	-25.502
28656	17.917	5.8182	0.1	-20.685
28657	17.825	5.9091	0.1	-13.111
28658	18.009	0.27273	0.1	-23.32
28659	18.1	0.18182	0.1	-20.869
28660	18.009	9.0909e-002	0.1	-13.163
28661	18.009	0.45455	0.1	-29.116
28662	18.1	0.36364	0.1	-26.551
28663	18.009	0.63636	0.1	-35.202
28664	18.1	0.54545	0.1	-33.217
28665	18.009	0.81818	0.1	-40.82
28666	18.1	0.72727	0.1	-39.442
28667	18.009	1.	0.1	-45.861
28668	18.1	0.90909	0.1	-45.079
28669	18.009	1.1818	0.1	-50.274
28670	18.1	1.0909	0.1	-50.051
28671	18.009	1.3636	0.1	-54.038
28672	18.1	1.2727	0.1	-54.323
28673	18.009	1.5455	0.1	-57.159
28674	18.1	1.4545	0.1	-57.891
28675	18.009	1.7273	0.1	-59.671
28676	18.1	1.6364	0.1	-60.777
28677	18.009	1.9091	0.1	-61.625
28678	18.1	1.8182	0.1	-63.031
28679	18.009	2.0909	0.1	-63.091
28680	18.1	2.	0.1	-64.726
28681	18.009	2.2727	0.1	-64.146
28682	18.1	2.1818	0.1	-65.945
28683	18.009	2.4545	0.1	-64.866
28684	18.1	2.3636	0.1	-66.779
28685	18.009	2.6364	0.1	-65.324
28686	18.1	2.5455	0.1	-67.314
28687	18.009	2.8182	0.1	-65.573
28688	18.1	2.7273	0.1	-67.624
28689	18.009	3.	0.1	-65.653
28690	18.1	2.9091	0.1	-67.765
28691	18.009	3.1818	0.1	-65.573
28692	18.1	3.0909	0.1	-67.766
28693	18.009	3.3636	0.1	-65.324
28694	18.1	3.2727	0.1	-67.624
28695	18.009	3.5455	0.1	-64.866
28696	18.1	3.4545	0.1	-67.314
28697	18.009	3.7273	0.1	-64.146
28698	18.1	3.6364	0.1	-66.779
28699	18.009	3.9091	0.1	-63.091
28700	18.1	3.8182	0.1	-65.945
28701	18.009	4.0909	0.1	-61.625
28702	18.1	4.	0.1	-64.726
28703	18.009	4.2727	0.1	-59.671
28704	18.1	4.1818	0.1	-63.031
28705	18.009	4.4545	0.1	-57.159
28706	18.1	4.3636	0.1	-60.777
28707	18.009	4.6364	0.1	-54.038
28708	18.1	4.5455	0.1	-57.891
28709	18.009	4.8182	0.1	-50.274
28710	18.1	4.7273	0.1	-54.323
28711	18.009	5.	0.1	-45.861
28712	18.1	4.9091	0.1	-50.051
28713	18.009	5.1818	0.1	-40.82
28714	18.1	5.0909	0.1	-45.079
28715	18.009	5.3636	0.1	-35.202
28716	18.1	5.2727	0.1	-39.442
28717	18.009	5.5455	0.1	-29.116
28718	18.1	5.4545	0.1	-33.217
28719	18.009	5.7273	0.1	-23.32
28720	18.1	5.6364	0.1	-26.551
28721	18.1	5.8182	0.1	-20.869
28722	18.009	5.9091	0.1	-13.163
28723	18.192	0.27273	0.1	-23.959
28724	18.284	0.18182	0.1	-21.045
28725	18.192	9.0909e-002	0.1	-13.201
28726	18.192	0.45455	0.1	-30.604
28727	18.284	0.36364	0.1	-27.708
28728	18.192	0.63636	0.1	-37.42
28729	18.284	0.54545	0.1	-35.2
28730	18.192	0.81818	0.1	-43.671
28731	18.284	0.72727	0.1	-42.149
28732	18.192	1.	0.1	-49.242
28733	18.284	0.90909	0.1	-48.403
28734	18.192	1.1818	0.1	-54.077
28735	18.284	1.0909	0.1	-53.879
28736	18.192	1.3636	0.1	-58.156
28737	18.284	1.2727	0.1	-58.538
28738	18.192	1.5455	0.1	-61.489
28739	18.284	1.4545	0.1	-62.376
28740	18.192	1.7273	0.1	-64.12
28741	18.284	1.6364	0.1	-65.424
28742	18.192	1.9091	0.1	-66.115
28743	18.284	1.8182	0.1	-67.747
28744	18.192	2.0909	0.1	-67.563
28745	18.284	2.	0.1	-69.433
28746	18.192	2.2727	0.1	-68.561
28747	18.284	2.1818	0.1	-70.59
28748	18.192	2.4545	0.1	-69.209
28749	18.284	2.3636	0.1	-71.333
28750	18.192	2.6364	0.1	-69.598
28751	18.284	2.5455	0.1	-71.775
28752	18.192	2.8182	0.1	-69.8
28753	18.284	2.7273	0.1	-72.01
28754	18.192	3.	0.1	-69.862
28755	18.284	2.9091	0.1	-72.109
28756	18.192	3.1818	0.1	-69.8
28757	18.284	3.0909	0.1	-72.109
28758	18.192	3.3636	0.1	-69.598
28759	18.284	3.2727	0.1	-72.01
28760	18.192	3.5455	0.1	-69.209
28761	18.284	3.4545	0.1	-71.775
28762	18.192	3.7273	0.1	-68.561
28763	18.284	3.6364	0.1	-71.333
28764	18.192	3.9091	0.1	-67.563
28765	18.284	3.8182	0.1	-70.59
28766	18.192	4.0909	0.1	-66.115
28767	18.284	4.	0.1	-69.433
28768	18.192	4.2727	0.1	-64.12
28769	18.284	4.1818	0.1	-67.747
28770	18.192	4.4545	0.1	-61.489
28771	18.284	4.3636	0.1	-65.424
28772	18.192	4.6364	0.1	-58.156
28773	18.284	4.5455	0.1	-62.376
28774	18.192	4.8182	0.1	-54.078
28775	18.284	4.7273	0.1	-58.538
28776	18.192	5.	0.1	-49.242
28777	18.284	4.9091	0.1	-53.879
28778	18.192	5.1818	0.1	-43.671
28779	18.284	5.0909	0.1	-48.403
28780	18.192	5.3636	0.1	-37.42
28781	18.284	5.2727	0.1	-42.149
28782	18.192	5.5455	0.1	-30.604
28783	18.284	5.4545	0.1	-35.2
28784	18.192	5.7273	0.1	-23.959
28785	18.284	5.6364	0.1	-27.708
28786	18.284	5.8182	0.1	-21.045
28787	18.192	5.9091	0.1	-13.201
28788	18.376	0.27273	0.1	-24.651
28789	18.468	0.18182	0.1	-21.215
28790	18.376	9.0909e-002	0.1	-13.223
28791	18.376	0.45455	0.1	-32.255
28792	18.468	0.36364	0.1	-28.985
28793	18.376	0.63636	0.1	-39.892
28794	18.468	0.54545	0.1	-37.406
28795	18.376	0.81818	0.1	-46.852
28796	18.468	0.72727	0.1	-45.168
28797	18.376	1.	0.1	-53.015
28798	18.468	0.90909	0.1	-52.115
28799	18.376	1.1818	0.1	-58.319
28800	18.468	1.0909	0.1	-58.155
28801	18.376	1.3636	0.1	-62.74
28802	18.468	1.2727	0.1	-63.241
28803	18.376	1.5455	0.1	-66.294
28804	18.468	1.4545	0.1	-67.372
28805	18.376	1.7273	0.1	-69.036
28806	18.468	1.6364	0.1	-70.584
28807	18.376	1.9091	0.1	-71.049
28808	18.468	1.8182	0.1	-72.956
28809	18.376	2.0909	0.1	-72.445
28810	18.468	2.	0.1	-74.6
28811	18.376	2.2727	0.1	-73.347
28812	18.468	2.1818	0.1	-75.652
28813	18.376	2.4545	0.1	-73.884
28814	18.468	2.3636	0.1	-76.259
28815	18.376	2.6364	0.1	-74.172
28816	18.468	2.5455	0.1	-76.565
28817	18.376	2.8182	0.1	-74.305
28818	18.468	2.7273	0.1	-76.693
28819	18.376	3.	0.1	-74.342
28820	18.468	2.9091	0.1	-76.733
28821	18.376	3.1818	0.1	-74.305
28822	18.468	3.0909	0.1	-76.733
28823	18.376	3.3636	0.1	-74.172
28824	18.468	3.2727	0.1	-76.693
28825	18.376	3.5455	0.1	-73.884
28826	18.468	3.4545	0.1	-76.565
28827	18.376	3.7273	0.1	-73.347
28828	18.468	3.6364	0.1	-76.259
28829	18.376	3.9091	0.1	-72.445
28830	18.468	3.8182	0.1	-75.652
28831	18.376	4.0909	0.1	-71.049
28832	18.468	4.	0.1	-74.6
28833	18.376	4.2727	0.1	-69.036
28834	18.468	4.1818	0.1	-72.956
28835	18.376	4.4545	0.1	-66.295
28836	18.468	4.3636	0.1	-70.584
28837	18.376	4.6364	0.1	-62.74
28838	18.468	4.5455	0.1	-67.372
28839	18.376	4.8182	0.1	-58.319
28840	18.468	4.7273	0.1	-63.241
28841	18.376	5.	0.1	-53.015
28842	18.468	4.9091	0.1	-58.155
28843	18.376	5.1818	0.1	-46.852
28844	18.468	5.0909	0.1	-52.115
28845	18.376	5.3636	0.1	-39.892
28846	18.468	5.2727	0.1	-45.168
28847	18.376	5.5455	0.1	-32.255
28848	18.468	5.4545	0.1	-37.406
28849	18.376	5.7273	0.1	-24.651
28850	18.468	5.6364	0.1	-28.985
28851	18.468	5.8182	0.1	-21.215
28852	18.376	5.9091	0.1	-13.223
28853	18.56	0.27273	0.1	-25.403
28854	18.652	0.18182	0.1	-21.377
28855	18.56	9.0909e-002	0.1	-13.226
28856	18.56	0.45455	0.1	-34.086
28857	18.652	0.36364	0.1	-30.394
28858	18.56	0.63636	0.1	-42.647
28859	18.652	0.54545	0.1	-39.858
28860	18.56	0.81818	0.1	-50.404
28861	18.652	0.72727	0.1	-48.535
28862	18.56	1.	0.1	-57.233
28863	18.652	0.90909	0.1	-56.265
28864	18.56	1.1818	0.1	-63.06
28865	18.652	1.0909	0.1	-62.941
28866	18.56	1.3636	0.1	-67.859
28867	18.652	1.2727	0.1	-68.509
28868	18.56	1.5455	0.1	-71.649
28869	18.652	1.4545	0.1	-72.961
28870	18.56	1.7273	0.1	-74.492
28871	18.652	1.6364	0.1	-76.34
28872	18.56	1.9091	0.1	-76.495
28873	18.652	1.8182	0.1	-78.74
28874	18.56	2.0909	0.1	-77.795
28875	18.652	2.	0.1	-80.3
28876	18.56	2.2727	0.1	-78.552
28877	18.652	2.1818	0.1	-81.192
28878	18.56	2.4545	0.1	-78.928
28879	18.652	2.3636	0.1	-81.603
28880	18.56	2.6364	0.1	-79.073
28881	18.652	2.5455	0.1	-81.718
28882	18.56	2.8182	0.1	-79.108
28883	18.652	2.7273	0.1	-81.697
28884	18.56	3.	0.1	-79.11
28885	18.652	2.9091	0.1	-81.655
28886	18.56	3.1818	0.1	-79.108
28887	18.652	3.0909	0.1	-81.655
28888	18.56	3.3636	0.1	-79.073
28889	18.652	3.2727	0.1	-81.697
28890	18.56	3.5455	0.1	-78.928
28891	18.652	3.4545	0.1	-81.718
28892	18.56	3.7273	0.1	-78.552
28893	18.652	3.6364	0.1	-81.603
28894	18.56	3.9091	0.1	-77.795
28895	18.652	3.8182	0.1	-81.192
28896	18.56	4.0909	0.1	-76.495
28897	18.652	4.	0.1	-80.3
28898	18.56	4.2727	0.1	-74.492
28899	18.652	4.1818	0.1	-78.74
28900	18.56	4.4545	0.1	-71.649
28901	18.652	4.3636	0.1	-76.34
28902	18.56	4.6364	0.1	-67.86
28903	18.652	4.5455	0.1	-72.961
28904	18.56	4.8182	0.1	-63.06
28905	18.652	4.7273	0.1	-68.509
28906	18.56	5.	0.1	-57.233
28907	18.652	4.9091	0.1	-62.941
28908	18.56	5.1818	0.1	-50.404
28909	18.652	5.0909	0.1	-56.265
28910	18.56	5.3636	0.1	-42.647
28911	18.652	5.2727	0.1	-48.535
28912	18.56	5.5455	0.1	-34.086
28913	18.652	5.4545	0.1	-39.858
28914	18.56	5.7273	0.1	-25.403
28915	18.652	5.6364	0.1	-30.394
28916	18.652	5.8182	0.1	-21.377
28917	18.56	5.9091	0.1	-13.226
28918	18.744	0.27273	0.1	-26.219
28919	18.835	0.18182	0.1	-21.531
28920	18.744	9.0909e-002	0.1	-13.21
28921	18.744	0.45455	0.1	-36.115
28922	18.835	0.36364	0.1	-31.942
28923	18.744	0.63636	0.1	-45.713
28924	18.835	0.54545	0.1	-42.575
28925	18.744	0.81818	0.1	-54.372
28926	18.835	0.72727	0.1	-52.285
28927	18.744	1.	0.1	-61.956
28928	18.835	0.90909	0.1	-60.904
28929	18.744	1.1818	0.1	-68.377
28930	18.835	1.0909	0.1	-68.31
28931	18.744	1.3636	0.1	-73.601
28932	18.835	1.2727	0.1	-74.429
28933	18.744	1.5455	0.1	-77.644
28934	18.835	1.4545	0.1	-79.244
28935	18.744	1.7273	0.1	-80.581
28936	18.835	1.6364	0.1	-82.799
28937	18.744	1.9091	0.1	-82.537
28938	18.835	1.8182	0.1	-85.202
28939	18.744	2.0909	0.1	-83.688
28940	18.835	2.	0.1	-86.625
28941	18.744	2.2727	0.1	-84.234
28942	18.835	2.1818	0.1	-87.284
28943	18.744	2.4545	0.1	-84.384
28944	18.835	2.3636	0.1	-87.422
28945	18.744	2.6364	0.1	-84.331
28946	18.835	2.5455	0.1	-87.275
28947	18.744	2.8182	0.1	-84.232
28948	18.835	2.7273	0.1	-87.049
28949	18.744	3.	0.1	-84.188
28950	18.835	2.9091	0.1	-86.896
28951	18.744	3.1818	0.1	-84.232
28952	18.835	3.0909	0.1	-86.896
28953	18.744	3.3636	0.1	-84.331
28954	18.835	3.2727	0.1	-87.049
28955	18.744	3.5455	0.1	-84.384
28956	18.835	3.4545	0.1	-87.275
28957	18.744	3.7273	0.1	-84.234
28958	18.835	3.6364	0.1	-87.422
28959	18.744	3.9091	0.1	-83.688
28960	18.835	3.8182	0.1	-87.284
28961	18.744	4.0909	0.1	-82.538
28962	18.835	4.	0.1	-86.625
28963	18.744	4.2727	0.1	-80.581
28964	18.835	4.1818	0.1	-85.202
28965	18.744	4.4545	0.1	-77.644
28966	18.835	4.3636	0.1	-82.799
28967	18.744	4.6364	0.1	-73.601
28968	18.835	4.5455	0.1	-79.244
28969	18.744	4.8182	0.1	-68.377
28970	18.835	4.7273	0.1	-74.429
28971	18.744	5.	0.1	-61.956
28972	18.835	4.9091	0.1	-68.31
28973	18.744	5.1818	0.1	-54.372
28974	18.835	5.0909	0.1	-60.904
28975	18.744	5.3636	0.1	-45.713
28976	18.835	5.2727	0.1	-52.285
28977	18.744	5.5455	0.1	-36.115
28978	18.835	5.4545	0.1	-42.575
28979	18.744	5.7273	0.1	-26.219
28980	18.835	5.6364	0.1	-31.942
28981	18.835	5.8182	0.1	-21.531
28982	18.744	5.9091	0.1	-13.21
28983	18.927	0.27273	0.1	-27.103
28984	19.019	0.18182	0.1	-21.676
28985	18.927	9.0909e-002	0.1	-13.171
28986	18.927	0.45455	0.1	-38.353
28987	19.019	0.36364	0.1	-33.635
28988	18.927	0.63636	0.1	-49.117
28989	19.019	0.54545	0.1	-45.573
28990	18.927	0.81818	0.1	-58.799
28991	19.019	0.72727	0.1	-56.45
28992	18.927	1.	0.1	-67.248
28993	19.019	0.90909	0.1	-66.09
28994	18.927	1.1818	0.1	-74.357
28995	19.019	1.0909	0.1	-74.344
28996	18.927	1.3636	0.1	-80.07
28997	19.019	1.2727	0.1	-81.111
28998	18.927	1.5455	0.1	-84.397
28999	19.019	1.4545	0.1	-86.349
29000	18.927	1.7273	0.1	-87.418
29001	19.019	1.6364	0.1	-90.096
29002	18.927	1.9091	0.1	-89.286
29003	19.019	1.8182	0.1	-92.473
29004	18.927	2.0909	0.1	-90.216
29005	19.019	2.	0.1	-93.692
29006	18.927	2.2727	0.1	-90.466
29007	19.019	2.1818	0.1	-94.026
29008	18.927	2.4545	0.1	-90.305
29009	19.019	2.3636	0.1	-93.787
29010	18.927	2.6364	0.1	-89.984
29011	19.019	2.5455	0.1	-93.283
29012	18.927	2.8182	0.1	-89.703
29013	19.019	2.7273	0.1	-92.781
29014	18.927	3.	0.1	-89.595
29015	19.019	2.9091	0.1	-92.479
29016	18.927	3.1818	0.1	-89.703
29017	19.019	3.0909	0.1	-92.479
29018	18.927	3.3636	0.1	-89.984
29019	19.019	3.2727	0.1	-92.781
29020	18.927	3.5455	0.1	-90.305
29021	19.019	3.4545	0.1	-93.283
29022	18.927	3.7273	0.1	-90.466
29023	19.019	3.6364	0.1	-93.787
29024	18.927	3.9091	0.1	-90.216
29025	19.019	3.8182	0.1	-94.026
29026	18.927	4.0909	0.1	-89.286
29027	19.019	4.	0.1	-93.692
29028	18.927	4.2727	0.1	-87.418
29029	19.019	4.1818	0.1	-92.473
29030	18.927	4.4545	0.1	-84.397
29031	19.019	4.3636	0.1	-90.096
29032	18.927	4.6364	0.1	-80.07
29033	19.019	4.5455	0.1	-86.349
29034	18.927	4.8182	0.1	-74.357
29035	19.019	4.7273	0.1	-81.111
29036	18.927	5.	0.1	-67.248
29037	19.019	4.9091	0.1	-74.344
29038	18.927	5.1818	0.1	-58.799
29039	19.019	5.0909	0.1	-66.09
29040	18.927	5.3636	0.1	-49.118
29041	19.019	5.2727	0.1	-56.45
29042	18.927	5.5455	0.1	-38.353
29043	19.019	5.4545	0.1	-45.573
29044	18.927	5.7273	0.1	-27.103
29045	19.019	5.6364	0.1	-33.635
29046	19.019	5.8182	0.1	-21.676
29047	18.927	5.9091	0.1	-13.171
29048	19.111	0.27273	0.1	-28.053
29049	19.203	0.18182	0.1	-21.81
29050	19.111	9.0909e-002	0.1	-13.109
29051	19.111	0.45455	0.1	-40.806
29052	19.203	0.36364	0.1	-35.466
29053	19.111	0.63636	0.1	-52.881
29054	19.203	0.54545	0.1	-48.853
29055	19.111	0.81818	0.1	-63.731
29056	19.203	0.72727	0.1	-61.054
29057	19.111	1.	0.1	-73.186
29058	19.203	0.90909	0.1	-71.88
29059	19.111	1.1818	0.1	-81.104
29060	19.203	1.0909	0.1	-81.142
29061	19.111	1.3636	0.1	-87.399
29062	19.203	1.2727	0.1	-88.691
29063	19.111	1.5455	0.1	-92.056
29064	19.203	1.4545	0.1	-94.442
29065	19.111	1.7273	0.1	-95.157
29066	19.203	1.6364	0.1	-98.412
29067	19.111	1.9091	0.1	-96.883
29068	19.203	1.8182	0.1	-100.73
29069	19.111	2.0909	0.1	-97.502
29070	19.203	2.	0.1	-101.66
29071	19.111	2.2727	0.1	-97.345
29072	19.203	2.1818	0.1	-101.54
29073	19.111	2.4545	0.1	-96.76
29074	19.203	2.3636	0.1	-100.79
29075	19.111	2.6364	0.1	-96.075
29076	19.203	2.5455	0.1	-99.803
29077	19.111	2.8182	0.1	-95.55
29078	19.203	2.7273	0.1	-98.932
29079	19.111	3.	0.1	-95.356
29080	19.203	2.9091	0.1	-98.43
29081	19.111	3.1818	0.1	-95.55
29082	19.203	3.0909	0.1	-98.43
29083	19.111	3.3636	0.1	-96.075
29084	19.203	3.2727	0.1	-98.932
29085	19.111	3.5455	0.1	-96.76
29086	19.203	3.4545	0.1	-99.803
29087	19.111	3.7273	0.1	-97.345
29088	19.203	3.6364	0.1	-100.79
29089	19.111	3.9091	0.1	-97.502
29090	19.203	3.8182	0.1	-101.54
29091	19.111	4.0909	0.1	-96.883
29092	19.203	4.	0.1	-101.66
29093	19.111	4.2727	0.1	-95.157
29094	19.203	4.1818	0.1	-100.73
29095	19.111	4.4545	0.1	-92.056
29096	19.203	4.3636	0.1	-98.412
29097	19.111	4.6364	0.1	-87.399
29098	19.203	4.5455	0.1	-94.443
29099	19.111	4.8182	0.1	-81.104
29100	19.203	4.7273	0.1	-88.691
29101	19.111	5.	0.1	-73.186
29102	19.203	4.9091	0.1	-81.142
29103	19.111	5.1818	0.1	-63.731
29104	19.203	5.0909	0.1	-71.88
29105	19.111	5.3636	0.1	-52.881
29106	19.203	5.2727	0.1	-61.054
29107	19.111	5.5455	0.1	-40.806
29108	19.203	5.4545	0.1	-48.854
29109	19.111	5.7273	0.1	-28.053
29110	19.203	5.6364	0.1	-35.466
29111	19.203	5.8182	0.1	-21.81
29112	19.111	5.9091	0.1	-13.109
29113	19.295	0.27273	0.1	-29.063
29114	19.387	0.18182	0.1	-21.927
29115	19.295	9.0909e-002	0.1	-13.021
29116	19.295	0.45455	0.1	-43.468
29117	19.387	0.36364	0.1	-37.416
29118	19.295	0.63636	0.1	-57.012
29119	19.387	0.54545	0.1	-52.404
29120	19.295	0.81818	0.1	-69.207
29121	19.387	0.72727	0.1	-66.111
29122	19.295	1.	0.1	-79.852
29123	19.387	0.90909	0.1	-78.333
29124	19.295	1.1818	0.1	-88.75
29125	19.387	1.0909	0.1	-88.82
29126	19.295	1.3636	0.1	-95.758
29127	19.387	1.2727	0.1	-97.344
29128	19.295	1.5455	0.1	-100.82
29129	19.387	1.4545	0.1	-103.75
29130	19.295	1.7273	0.1	-104.
29131	19.387	1.6364	0.1	-107.99
29132	19.295	1.9091	0.1	-105.52
29133	19.387	1.8182	0.1	-110.22
29134	19.295	2.0909	0.1	-105.71
29135	19.387	2.	0.1	-110.74
29136	19.295	2.2727	0.1	-104.99
29137	19.387	2.1818	0.1	-110.
29138	19.295	2.4545	0.1	-103.83
29139	19.387	2.3636	0.1	-108.55
29140	19.295	2.6364	0.1	-102.66
29141	19.387	2.5455	0.1	-106.91
29142	19.295	2.8182	0.1	-101.81
29143	19.387	2.7273	0.1	-105.55
29144	19.295	3.	0.1	-101.5
29145	19.387	2.9091	0.1	-104.78
29146	19.295	3.1818	0.1	-101.81
29147	19.387	3.0909	0.1	-104.78
29148	19.295	3.3636	0.1	-102.66
29149	19.387	3.2727	0.1	-105.55
29150	19.295	3.5455	0.1	-103.83
29151	19.387	3.4545	0.1	-106.91
29152	19.295	3.7273	0.1	-104.99
29153	19.387	3.6364	0.1	-108.55
29154	19.295	3.9091	0.1	-105.71
29155	19.387	3.8182	0.1	-110.
29156	19.295	4.0909	0.1	-105.52
29157	19.387	4.	0.1	-110.74
29158	19.295	4.2727	0.1	-104.
29159	19.387	4.1818	0.1	-110.22
29160	19.295	4.4545	0.1	-100.82
29161	19.387	4.3636	0.1	-107.99
29162	19.295	4.6364	0.1	-95.758
29163	19.387	4.5455	0.1	-103.75
29164	19.295	4.8182	0.1	-88.751
29165	19.387	4.7273	0.1	-97.344
29166	19.295	5.	0.1	-79.852
29167	19.387	4.9091	0.1	-88.82
29168	19.295	5.1818	0.1	-69.207
29169	19.387	5.0909	0.1	-78.333
29170	19.295	5.3636	0.1	-57.012
29171	19.387	5.2727	0.1	-66.111
29172	19.295	5.5455	0.1	-43.468
29173	19.387	5.4545	0.1	-52.404
29174	19.295	5.7273	0.1	-29.063
29175	19.387	5.6364	0.1	-37.416
29176	19.387	5.8182	0.1	-21.927
29177	19.295	5.9091	0.1	-13.021
29178	19.479	0.27273	0.1	-30.117
29179	19.571	0.18182	0.1	-22.021
29180	19.479	9.0909e-002	0.1	-12.902
29181	19.479	0.45455	0.1	-46.314
29182	19.571	0.36364	0.1	-39.445
29183	19.479	0.63636	0.1	-61.503
29184	19.571	0.54545	0.1	-56.184
29185	19.479	0.81818	0.1	-75.262
29186	19.571	0.72727	0.1	-71.615
29187	19.479	1.	0.1	-87.342
29188	19.571	0.90909	0.1	-85.51
29189	19.479	1.1818	0.1	-97.461
29190	19.571	1.0909	0.1	-97.524
29191	19.479	1.3636	0.1	-105.38
29192	19.571	1.2727	0.1	-107.3
29193	19.479	1.5455	0.1	-110.96
29194	19.571	1.4545	0.1	-114.56
29195	19.479	1.7273	0.1	-114.24
29196	19.571	1.6364	0.1	-119.18
29197	19.479	1.9091	0.1	-115.46
29198	19.571	1.8182	0.1	-121.27
29199	19.479	2.0909	0.1	-115.05
29200	19.571	2.	0.1	-121.22
29201	19.479	2.2727	0.1	-113.57
29202	19.571	2.1818	0.1	-119.63
29203	19.479	2.4545	0.1	-111.63
29204	19.571	2.3636	0.1	-117.22
29205	19.479	2.6364	0.1	-109.8
29206	19.571	2.5455	0.1	-114.7
29207	19.479	2.8182	0.1	-108.52
29208	19.571	2.7273	0.1	-112.68
29209	19.479	3.	0.1	-108.06
29210	19.571	2.9091	0.1	-111.56
29211	19.479	3.1818	0.1	-108.52
29212	19.571	3.0909	0.1	-111.56
29213	19.479	3.3636	0.1	-109.8
29214	19.571	3.2727	0.1	-112.68
29215	19.479	3.5455	0.1	-111.63
29216	19.571	3.4545	0.1	-114.7
29217	19.479	3.7273	0.1	-113.57
29218	19.571	3.6364	0.1	-117.22
29219	19.479	3.9091	0.1	-115.05
29220	19.571	3.8182	0.1	-119.63
29221	19.479	4.0909	0.1	-115.46
29222	19.571	4.	0.1	-121.22
29223	19.479	4.2727	0.1	-114.24
29224	19.571	4.1818	0.1	-121.27
29225	19.479	4.4545	0.1	-110.96
29226	19.571	4.3636	0.1	-119.18
29227	19.479	4.6364	0.1	-105.38
29228	19.571	4.5455	0.1	-114.56
29229	19.479	4.8182	0.1	-97.462
29230	19.571	4.7273	0.1	-107.3
29231	19.479	5.	0.1	-87.342
29232	19.571	4.9091	0.1	-97.524
29233	19.479	5.1818	0.1	-75.262
29234	19.571	5.0909	0.1	-85.51
29235	19.479	5.3636	0.1	-61.503
29236	19.571	5.2727	0.1	-71.615
29237	19.479	5.5455	0.1	-46.314
29238	19.571	5.4545	0.1	-56.184
29239	19.479	5.7273	0.1	-30.117
29240	19.571	5.6364	0.1	-39.445
29241	19.571	5.8182	0.1	-22.021
29242	19.479	5.9091	0.1	-12.902
29243	19.662	0.27273	0.1	-31.183
29244	19.754	0.18182	0.1	-22.076
29245	19.662	9.0909e-002	0.1	-12.75
29246	19.662	0.45455	0.1	-49.29
29247	19.754	0.36364	0.1	-41.483
29248	19.662	0.63636	0.1	-66.321
29249	19.754	0.54545	0.1	-60.118
29250	19.662	0.81818	0.1	-81.922
29251	19.754	0.72727	0.1	-77.538
29252	19.662	1.	0.1	-95.773
29253	19.754	0.90909	0.1	-93.472
29254	19.662	1.1818	0.1	-107.46
29255	19.754	1.0909	0.1	-107.44
29256	19.662	1.3636	0.1	-116.58
29257	19.754	1.2727	0.1	-118.9
29258	19.662	1.5455	0.1	-122.86
29259	19.754	1.4545	0.1	-127.33
29260	19.662	1.7273	0.1	-126.27
29261	19.754	1.6364	0.1	-132.47
29262	19.662	1.9091	0.1	-127.07
29263	19.754	1.8182	0.1	-134.37
29264	19.662	2.0909	0.1	-125.82
29265	19.754	2.	0.1	-133.51
29266	19.662	2.2727	0.1	-123.29
29267	19.754	2.1818	0.1	-130.72
29268	19.662	2.4545	0.1	-120.3
29269	19.754	2.3636	0.1	-126.99
29270	19.662	2.6364	0.1	-117.59
29271	19.754	2.5455	0.1	-123.29
29272	19.662	2.8182	0.1	-115.73
29273	19.754	2.7273	0.1	-120.4
29274	19.662	3.	0.1	-115.07
29275	19.754	2.9091	0.1	-118.83
29276	19.662	3.1818	0.1	-115.73
29277	19.754	3.0909	0.1	-118.83
29278	19.662	3.3636	0.1	-117.59
29279	19.754	3.2727	0.1	-120.4
29280	19.662	3.5455	0.1	-120.3
29281	19.754	3.4545	0.1	-123.29
29282	19.662	3.7273	0.1	-123.29
29283	19.754	3.6364	0.1	-126.99
29284	19.662	3.9091	0.1	-125.82
29285	19.754	3.8182	0.1	-130.72
29286	19.662	4.0909	0.1	-127.07
29287	19.754	4.	0.1	-133.51
29288	19.662	4.2727	0.1	-126.27
29289	19.754	4.1818	0.1	-134.37
29290	19.662	4.4545	0.1	-122.86
29291	19.754	4.3636	0.1	-132.47
29292	19.662	4.6364	0.1	-116.58
29293	19.754	4.5455	0.1	-127.33
29294	19.662	4.8182	0.1	-107.46
29295	19.754	4.7273	0.1	-118.9
29296	19.662	5.	0.1	-95.773
29297	19.754	4.9091	0.1	-107.44
29298	19.662	5.1818	0.1	-81.922
29299	19.754	5.0909	0.1	-93.473
29300	19.662	5.3636	0.1	-66.321
29301	19.754	5.2727	0.1	-77.538
29302	19.662	5.5455	0.1	-49.29
29303	19.754	5.4545	0.1	-60.118
29304	19.662	5.7273	0.1	-31.183
29305	19.754	5.6364	0.1	-41.483
29306	19.754	5.8182	0.1	-22.076
29307	19.662	5.9091	0.1	-12.75
29308	19.846	0.27273	0.1	-32.211
29309	19.938	0.18182	0.1	-22.07
29310	19.846	9.0909e-002	0.1	-12.555
29311	19.846	0.45455	0.1	-52.306
29312	19.938	0.36364	0.1	-43.42
29313	19.846	0.63636	0.1	-71.398
29314	19.938	0.54545	0.1	-64.083
29315	19.846	0.81818	0.1	-89.201
29316	19.938	0.72727	0.1	-83.815
29317	19.846	1.	0.1	-105.29
29318	19.938	0.90909	0.1	-102.29
29319	19.846	1.1818	0.1	-119.04
29320	19.938	1.0909	0.1	-118.82
29321	19.846	1.3636	0.1	-129.8
29322	19.938	1.2727	0.1	-132.57
29323	19.846	1.5455	0.1	-137.07
29324	19.938	1.4545	0.1	-142.69
29325	19.846	1.7273	0.1	-140.67
29326	19.938	1.6364	0.1	-148.6
29327	19.846	1.9091	0.1	-140.88
29328	19.938	1.8182	0.1	-150.24
29329	19.846	2.0909	0.1	-138.45
29330	19.938	2.	0.1	-148.22
29331	19.846	2.2727	0.1	-134.45
29332	19.938	2.1818	0.1	-143.71
29333	19.846	2.4545	0.1	-130.
29334	19.938	2.3636	0.1	-138.13
29335	19.846	2.6364	0.1	-126.12
29336	19.938	2.5455	0.1	-132.82
29337	19.846	2.8182	0.1	-123.51
29338	19.938	2.7273	0.1	-128.8
29339	19.846	3.	0.1	-122.6
29340	19.938	2.9091	0.1	-126.66
29341	19.846	3.1818	0.1	-123.51
29342	19.938	3.0909	0.1	-126.66
29343	19.846	3.3636	0.1	-126.12
29344	19.938	3.2727	0.1	-128.8
29345	19.846	3.5455	0.1	-130.
29346	19.938	3.4545	0.1	-132.82
29347	19.846	3.7273	0.1	-134.45
29348	19.938	3.6364	0.1	-138.13
29349	19.846	3.9091	0.1	-138.45
29350	19.938	3.8182	0.1	-143.71
29351	19.846	4.0909	0.1	-140.88
29352	19.938	4.	0.1	-148.22
29353	19.846	4.2727	0.1	-140.67
29354	19.938	4.1818	0.1	-150.24
29355	19.846	4.4545	0.1	-137.07
29356	19.938	4.3636	0.1	-148.6
29357	19.846	4.6364	0.1	-129.8
29358	19.938	4.5455	0.1	-142.69
29359	19.846	4.8182	0.1	-119.04
29360	19.938	4.7273	0.1	-132.57
29361	19.846	5.	0.1	-105.29
29362	19.938	4.9091	0.1	-118.83
29363	19.846	5.1818	0.1	-89.201
29364	19.938	5.0909	0.1	-102.29
29365	19.846	5.3636	0.1	-71.398
29366	19.938	5.2727	0.1	-83.815
29367	19.846	5.5455	0.1	-52.306
29368	19.938	5.4545	0.1	-64.083
29369	19.846	5.7273	0.1	-32.211
29370	19.938	5.6364	0.1	-43.42
29371	19.938	5.8182	0.1	-22.07
29372	19.846	5.9091	0.1	-12.555
29373	20.03	0.27273	0.1	-33.121
29374	20.122	0.18182	0.1	-21.968
29375	20.03	9.0909e-002	0.1	-12.308
29376	20.03	0.45455	0.1	-55.224
29377	20.122	0.36364	0.1	-45.098
29378	20.03	0.63636	0.1	-76.625
29379	20.122	0.54545	0.1	-67.904
29380	20.03	0.81818	0.1	-97.103
29381	20.122	0.72727	0.1	-90.352
29382	20.03	1.	0.1	-116.08
29383	20.122	0.90909	0.1	-112.04
29384	20.03	1.1818	0.1	-132.63
29385	20.122	1.0909	0.1	-132.02
29386	20.03	1.3636	0.1	-145.71
29387	20.122	1.2727	0.1	-149.
29388	20.03	1.5455	0.1	-154.42
29389	20.122	1.4545	0.1	-161.59
29390	20.03	1.7273	0.1	-158.31
29391	20.122	1.6364	0.1	-168.69
29392	20.03	1.9091	0.1	-157.68
29393	20.122	1.8182	0.1	-169.98
29394	20.03	2.0909	0.1	-153.53
29395	20.122	2.	0.1	-166.23
29396	20.03	2.2727	0.1	-147.42
29397	20.122	2.1818	0.1	-159.17
29398	20.03	2.4545	0.1	-140.97
29399	20.122	2.3636	0.1	-150.94
29400	20.03	2.6364	0.1	-135.51
29401	20.122	2.5455	0.1	-143.46
29402	20.03	2.8182	0.1	-131.94
29403	20.122	2.7273	0.1	-137.98
29404	20.03	3.	0.1	-130.71
29405	20.122	2.9091	0.1	-135.12
29406	20.03	3.1818	0.1	-131.94
29407	20.122	3.0909	0.1	-135.12
29408	20.03	3.3636	0.1	-135.51
29409	20.122	3.2727	0.1	-137.98
29410	20.03	3.5455	0.1	-140.97
29411	20.122	3.4545	0.1	-143.46
29412	20.03	3.7273	0.1	-147.42
29413	20.122	3.6364	0.1	-150.94
29414	20.03	3.9091	0.1	-153.53
29415	20.122	3.8182	0.1	-159.17
29416	20.03	4.0909	0.1	-157.68
29417	20.122	4.	0.1	-166.23
29418	20.03	4.2727	0.1	-158.31
29419	20.122	4.1818	0.1	-169.98
29420	20.03	4.4545	0.1	-154.42
29421	20.122	4.3636	0.1	-168.69
29422	20.03	4.6364	0.1	-145.71
29423	20.122	4.5455	0.1	-161.59
29424	20.03	4.8182	0.1	-132.63
29425	20.122	4.7273	0.1	-149.
29426	20.03	5.	0.1	-116.08
29427	20.122	4.9091	0.1	-132.02
29428	20.03	5.1818	0.1	-97.103
29429	20.122	5.0909	0.1	-112.04
29430	20.03	5.3636	0.1	-76.625
29431	20.122	5.2727	0.1	-90.352
29432	20.03	5.5455	0.1	-55.224
29433	20.122	5.4545	0.1	-67.904
29434	20.03	5.7273	0.1	-33.121
29435	20.122	5.6364	0.1	-45.098
29436	20.122	5.8182	0.1	-21.968
29437	20.03	5.9091	0.1	-12.308
29438	20.214	0.27273	0.1	-33.807
29439	20.306	0.18182	0.1	-21.722
29440	20.214	9.0909e-002	0.1	-11.991
29441	20.214	0.45455	0.1	-57.857
29442	20.306	0.36364	0.1	-46.314
29443	20.214	0.63636	0.1	-81.855
29444	20.306	0.54545	0.1	-71.361
29445	20.214	0.81818	0.1	-105.64
29446	20.306	0.72727	0.1	-97.043
29447	20.214	1.	0.1	-128.41
29448	20.306	0.90909	0.1	-122.86
29449	20.214	1.1818	0.1	-148.84
29450	20.306	1.0909	0.1	-147.52
29451	20.214	1.3636	0.1	-165.29
29452	20.306	1.2727	0.1	-169.14
29453	20.214	1.5455	0.1	-176.18
29454	20.306	1.4545	0.1	-185.49
29455	20.214	1.7273	0.1	-180.57
29456	20.306	1.6364	0.1	-194.53
29457	20.214	1.9091	0.1	-178.66
29458	20.306	1.8182	0.1	-195.35
29459	20.214	2.0909	0.1	-171.93
29460	20.306	2.	0.1	-188.91
29461	20.214	2.2727	0.1	-162.72
29462	20.306	2.1818	0.1	-177.93
29463	20.214	2.4545	0.1	-153.45
29464	20.306	2.3636	0.1	-165.82
29465	20.214	2.6364	0.1	-145.92
29466	20.306	2.5455	0.1	-155.36
29467	20.214	2.8182	0.1	-141.14
29468	20.306	2.7273	0.1	-148.05
29469	20.214	3.	0.1	-139.52
29470	20.306	2.9091	0.1	-144.37
29471	20.214	3.1818	0.1	-141.14
29472	20.306	3.0909	0.1	-144.37
29473	20.214	3.3636	0.1	-145.92
29474	20.306	3.2727	0.1	-148.05
29475	20.214	3.5455	0.1	-153.45
29476	20.306	3.4545	0.1	-155.36
29477	20.214	3.7273	0.1	-162.72
29478	20.306	3.6364	0.1	-165.82
29479	20.214	3.9091	0.1	-171.93
29480	20.306	3.8182	0.1	-177.93
29481	20.214	4.0909	0.1	-178.66
29482	20.306	4.	0.1	-188.91
29483	20.214	4.2727	0.1	-180.57
29484	20.306	4.1818	0.1	-195.35
29485	20.214	4.4545	0.1	-176.18
29486	20.306	4.3636	0.1	-194.53
29487	20.214	4.6364	0.1	-165.29
29488	20.306	4.5455	0.1	-185.49
29489	20.214	4.8182	0.1	-148.84
29490	20.306	4.7273	0.1	-169.14
29491	20.214	5.	0.1	-128.41
29492	20.306	4.9091	0.1	-147.52
29493	20.214	5.1818	0.1	-105.64
29494	20.306	5.0909	0.1	-122.86
29495	20.214	5.3636	0.1	-81.855
29496	20.306	5.2727	0.1	-97.043
29497	20.214	5.5455	0.1	-57.857
29498	20.306	5.4545	0.1	-71.361
29499	20.214	5.7273	0.1	-33.807
29500	20.306	5.6364	0.1	-46.314
29501	20.306	5.8182	0.1	-21.722
29502	20.214	5.9091	0.1	-11.991
29503	20.397	0.27273	0.1	-34.131
29504	20.489	0.18182	0.1	-21.267
29505	20.397	9.0909e-002	0.1	-11.577
29506	20.397	0.45455	0.1	-59.982
29507	20.489	0.36364	0.1	-46.835
29508	20.397	0.63636	0.1	-86.935
29509	20.489	0.54545	0.1	-74.242
29510	20.397	0.81818	0.1	-114.85
29511	20.489	0.72727	0.1	-103.84
29512	20.397	1.	0.1	-142.69
29513	20.489	0.90909	0.1	-134.98
29514	20.397	1.1818	0.1	-168.58
29515	20.489	1.0909	0.1	-166.02
29516	20.397	1.3636	0.1	-190.02
29517	20.489	1.2727	0.1	-194.38
29518	20.397	1.5455	0.1	-204.35
29519	20.489	1.4545	0.1	-216.61
29520	20.397	1.7273	0.1	-209.63
29521	20.489	1.6364	0.1	-228.99
29522	20.397	1.9091	0.1	-205.76
29523	20.489	1.8182	0.1	-229.28
29524	20.397	2.0909	0.1	-194.97
29525	20.489	2.	0.1	-218.45
29526	20.397	2.2727	0.1	-181.05
29527	20.489	2.1818	0.1	-201.14
29528	20.397	2.4545	0.1	-167.74
29529	20.489	2.3636	0.1	-183.18
29530	20.397	2.6364	0.1	-157.48
29531	20.489	2.5455	0.1	-168.68
29532	20.397	2.8182	0.1	-151.26
29533	20.489	2.7273	0.1	-159.16
29534	20.397	3.	0.1	-149.19
29535	20.489	2.9091	0.1	-154.58
29536	20.397	3.1818	0.1	-151.26
29537	20.489	3.0909	0.1	-154.58
29538	20.397	3.3636	0.1	-157.48
29539	20.489	3.2727	0.1	-159.16
29540	20.397	3.5455	0.1	-167.74
29541	20.489	3.4545	0.1	-168.68
29542	20.397	3.7273	0.1	-181.05
29543	20.489	3.6364	0.1	-183.18
29544	20.397	3.9091	0.1	-194.97
29545	20.489	3.8182	0.1	-201.14
29546	20.397	4.0909	0.1	-205.76
29547	20.489	4.	0.1	-218.45
29548	20.397	4.2727	0.1	-209.63
29549	20.489	4.1818	0.1	-229.28
29550	20.397	4.4545	0.1	-204.35
29551	20.489	4.3636	0.1	-228.99
29552	20.397	4.6364	0.1	-190.02
29553	20.489	4.5455	0.1	-216.61
29554	20.397	4.8182	0.1	-168.58
29555	20.489	4.7273	0.1	-194.38
29556	20.397	5.	0.1	-142.69
29557	20.489	4.9091	0.1	-166.02
29558	20.397	5.1818	0.1	-114.85
29559	20.489	5.0909	0.1	-134.98
29560	20.397	5.3636	0.1	-86.935
29561	20.489	5.2727	0.1	-103.84
29562	20.397	5.5455	0.1	-59.982
29563	20.489	5.4545	0.1	-74.242
29564	20.397	5.7273	0.1	-34.131
29565	20.489	5.6364	0.1	-46.835
29566	20.489	5.8182	0.1	-21.267
29567	20.397	5.9091	0.1	-11.577
29568	20.581	0.27273	0.1	-33.947
29569	20.673	0.18182	0.1	-20.53
29570	20.581	9.0909e-002	0.1	-11.028
29571	20.581	0.45455	0.1	-61.403
29572	20.673	0.36364	0.1	-46.473
29573	20.581	0.63636	0.1	-91.802
29574	20.673	0.54545	0.1	-76.494
29575	20.581	0.81818	0.1	-124.95
29576	20.673	0.72727	0.1	-110.92
29577	20.581	1.	0.1	-159.52
29578	20.673	0.90909	0.1	-148.89
29579	20.581	1.1818	0.1	-193.1
29580	20.673	1.0909	0.1	-188.48
29581	20.581	1.3636	0.1	-222.11
29582	20.673	1.2727	0.1	-226.55
29583	20.581	1.5455	0.1	-242.09
29584	20.673	1.4545	0.1	-258.27
29585	20.581	1.7273	0.1	-249.12
29586	20.673	1.6364	0.1	-277.08
29587	20.581	1.9091	0.1	-242.16
29588	20.673	1.8182	0.1	-277.03
29589	20.581	2.0909	0.1	-224.67
29590	20.673	2.	0.1	-258.76
29591	20.581	2.2727	0.1	-203.26
29592	20.673	2.1818	0.1	-230.62
29593	20.581	2.4545	0.1	-184.09
29594	20.673	2.3636	0.1	-203.37
29595	20.581	2.6364	0.1	-170.31
29596	20.673	2.5455	0.1	-183.4
29597	20.581	2.8182	0.1	-162.43
29598	20.673	2.7273	0.1	-171.36
29599	20.581	3.	0.1	-159.9
29600	20.673	2.9091	0.1	-165.86
29601	20.581	3.1818	0.1	-162.43
29602	20.673	3.0909	0.1	-165.86
29603	20.581	3.3636	0.1	-170.31
29604	20.673	3.2727	0.1	-171.36
29605	20.581	3.5455	0.1	-184.09
29606	20.673	3.4545	0.1	-183.4
29607	20.581	3.7273	0.1	-203.26
29608	20.673	3.6364	0.1	-203.37
29609	20.581	3.9091	0.1	-224.67
29610	20.673	3.8182	0.1	-230.62
29611	20.581	4.0909	0.1	-242.16
29612	20.673	4.	0.1	-258.76
29613	20.581	4.2727	0.1	-249.12
29614	20.673	4.1818	0.1	-277.03
29615	20.581	4.4545	0.1	-242.09
29616	20.673	4.3636	0.1	-277.08
29617	20.581	4.6364	0.1	-222.11
29618	20.673	4.5455	0.1	-258.27
29619	20.581	4.8182	0.1	-193.1
29620	20.673	4.7273	0.1	-226.55
29621	20.581	5.	0.1	-159.52
29622	20.673	4.9091	0.1	-188.48
29623	20.581	5.1818	0.1	-124.95
29624	20.673	5.0909	0.1	-148.89
29625	20.581	5.3636	0.1	-91.803
29626	20.673	5.2727	0.1	-110.92
29627	20.581	5.5455	0.1	-61.403
29628	20.673	5.4545	0.1	-76.494
29629	20.581	5.7273	0.1	-33.947
29630	20.673	5.6364	0.1	-46.473
29631	20.673	5.8182	0.1	-20.53
29632	20.581	5.9091	0.1	-11.028
29633	20.765	0.27273	0.1	-33.169
29634	20.857	0.18182	0.1	-19.424
29635	20.765	9.0909e-002	0.1	-10.297
29636	20.765	0.45455	0.1	-62.142
29637	20.857	0.36364	0.1	-45.262
29638	20.765	0.63636	0.1	-96.753
29639	20.857	0.54545	0.1	-78.587
29640	20.765	0.81818	0.1	-136.52
29641	20.857	0.72727	0.1	-119.11
29642	20.765	1.	0.1	-179.87
29643	20.857	0.90909	0.1	-165.58
29644	20.765	1.1818	0.1	-224.08
29645	20.857	1.0909	0.1	-216.15
29646	20.765	1.3636	0.1	-264.67
29647	20.857	1.2727	0.1	-267.74
29648	20.765	1.5455	0.1	-294.66
29649	20.857	1.4545	0.1	-314.97
29650	20.765	1.7273	0.1	-305.66
29651	20.857	1.6364	0.1	-346.79
29652	20.765	1.9091	0.1	-293.75
29653	20.857	1.8182	0.1	-348.86
29654	20.765	2.0909	0.1	-264.63
29655	20.857	2.	0.1	-317.21
29656	20.765	2.2727	0.1	-230.63
29657	20.857	2.1818	0.1	-268.46
29658	20.765	2.4545	0.1	-202.59
29659	20.857	2.3636	0.1	-226.36
29660	20.765	2.6364	0.1	-184.36
29661	20.857	2.5455	0.1	-199.32
29662	20.765	2.8182	0.1	-174.69
29663	20.857	2.7273	0.1	-184.4
29664	20.765	3.	0.1	-171.71
29665	20.857	2.9091	0.1	-177.93
29666	20.765	3.1818	0.1	-174.69
29667	20.857	3.0909	0.1	-177.93
29668	20.765	3.3636	0.1	-184.36
29669	20.857	3.2727	0.1	-184.4
29670	20.765	3.5455	0.1	-202.59
29671	20.857	3.4545	0.1	-199.32
29672	20.765	3.7273	0.1	-230.63
29673	20.857	3.6364	0.1	-226.36
29674	20.765	3.9091	0.1	-264.63
29675	20.857	3.8182	0.1	-268.46
29676	20.765	4.0909	0.1	-293.75
29677	20.857	4.	0.1	-317.21
29678	20.765	4.2727	0.1	-305.66
29679	20.857	4.1818	0.1	-348.86
29680	20.765	4.4545	0.1	-294.66
29681	20.857	4.3636	0.1	-346.79
29682	20.765	4.6364	0.1	-264.67
29683	20.857	4.5455	0.1	-314.97
29684	20.765	4.8182	0.1	-224.08
29685	20.857	4.7273	0.1	-267.74
29686	20.765	5.	0.1	-179.87
29687	20.857	4.9091	0.1	-216.15
29688	20.765	5.1818	0.1	-136.52
29689	20.857	5.0909	0.1	-165.58
29690	20.765	5.3636	0.1	-96.753
29691	20.857	5.2727	0.1	-119.11
29692	20.765	5.5455	0.1	-62.142
29693	20.857	5.4545	0.1	-78.587
29694	20.765	5.7273	0.1	-33.169
29695	20.857	5.6364	0.1	-45.262
29696	20.857	5.8182	0.1	-19.424
29697	20.765	5.9091	0.1	-10.297
29698	20.949	0.27273	0.1	-31.913
29699	21.041	0.18182	0.1	-18.11
29700	20.949	9.0909e-002	0.1	-9.2806
29701	20.949	0.45455	0.1	-62.871
29702	21.041	0.36364	0.1	-44.285
29703	20.949	0.63636	0.1	-103.
29704	21.041	0.54545	0.1	-82.718
29705	20.949	0.81818	0.1	-150.95
29706	21.041	0.72727	0.1	-131.
29707	20.949	1.	0.1	-205.14
29708	21.041	0.90909	0.1	-187.43
29709	20.949	1.1818	0.1	-263.33
29710	21.041	1.0909	0.1	-250.92
29711	20.949	1.3636	0.1	-321.4
29712	21.041	1.2727	0.1	-320.27
29713	20.949	1.5455	0.1	-369.59
29714	21.041	1.4545	0.1	-391.
29715	20.949	1.7273	0.1	-390.88
29716	21.041	1.6364	0.1	-453.19
29717	20.949	1.9091	0.1	-372.06
29718	21.041	1.8182	0.1	-472.17
29719	20.949	2.0909	0.1	-320.54
29720	21.041	2.	0.1	-412.12
29721	20.949	2.2727	0.1	-263.85
29722	21.041	2.1818	0.1	-319.33
29723	20.949	2.4545	0.1	-222.85
29724	21.041	2.3636	0.1	-251.42
29725	20.949	2.6364	0.1	-199.18
29726	21.041	2.5455	0.1	-215.24
29727	20.949	2.8182	0.1	-187.48
29728	21.041	2.7273	0.1	-196.9
29729	20.949	3.	0.1	-184.01
29730	21.041	2.9091	0.1	-189.24
29731	20.949	3.1818	0.1	-187.48
29732	21.041	3.0909	0.1	-189.24
29733	20.949	3.3636	0.1	-199.18
29734	21.041	3.2727	0.1	-196.9
29735	20.949	3.5455	0.1	-222.85
29736	21.041	3.4545	0.1	-215.24
29737	20.949	3.7273	0.1	-263.85
29738	21.041	3.6364	0.1	-251.42
29739	20.949	3.9091	0.1	-320.54
29740	21.041	3.8182	0.1	-319.33
29741	20.949	4.0909	0.1	-372.06
29742	21.041	4.	0.1	-412.12
29743	20.949	4.2727	0.1	-390.88
29744	21.041	4.1818	0.1	-472.17
29745	20.949	4.4545	0.1	-369.59
29746	21.041	4.3636	0.1	-453.19
29747	20.949	4.6364	0.1	-321.4
29748	21.041	4.5455	0.1	-391.
29749	20.949	4.8182	0.1	-263.33
29750	21.041	4.7273	0.1	-320.27
29751	20.949	5.	0.1	-205.14
29752	21.041	4.9091	0.1	-250.92
29753	20.949	5.1818	0.1	-150.95
29754	21.041	5.0909	0.1	-187.43
29755	20.949	5.3636	0.1	-103.
29756	21.041	5.2727	0.1	-131.
29757	20.949	5.5455	0.1	-62.871
29758	21.041	5.4545	0.1	-82.718
29759	20.949	5.7273	0.1	-31.913
29760	21.041	5.6364	0.1	-44.285
29761	21.041	5.8182	0.1	-18.11
29762	20.949	5.9091	0.1	-9.2806
29763	21.132	0.27273	0.1	-31.683
29764	21.224	0.18182	0.1	-18.448
29765	21.132	9.0909e-002	0.1	-8.1767
29766	21.132	0.45455	0.1	-66.807
29767	21.224	0.36364	0.1	-49.996
29768	21.132	0.63636	0.1	-114.53
29769	21.224	0.54545	0.1	-97.849
29770	21.132	0.81818	0.1	-171.98
29771	21.224	0.72727	0.1	-156.22
29772	21.132	1.	0.1	-238.24
29773	21.224	0.90909	0.1	-224.06
29774	21.132	1.1818	0.1	-313.38
29775	21.224	1.0909	0.1	-302.16
29776	21.132	1.3636	0.1	-395.75
29777	21.224	1.2727	0.1	-392.86
29778	21.132	1.5455	0.1	-479.55
29779	21.224	1.4545	0.1	-497.37
29780	21.132	1.7273	0.1	-536.76
29781	21.224	1.6364	0.1	-620.33
29782	21.132	1.9091	0.1	-510.01
29783	21.224	1.8182	0.1	-724.21
29784	21.132	2.0909	0.1	-409.01
29785	21.224	2.	0.1	-608.48
29786	21.132	2.2727	0.1	-305.92
29787	21.224	2.1818	0.1	-385.54
29788	21.132	2.4545	0.1	-243.36
29789	21.224	2.3636	0.1	-274.62
29790	21.132	2.6364	0.1	-212.73
29791	21.224	2.5455	0.1	-226.41
29792	21.132	2.8182	0.1	-198.51
29793	21.224	2.7273	0.1	-204.79
29794	21.132	3.	0.1	-194.35
29795	21.224	2.9091	0.1	-195.65
29796	21.132	3.1818	0.1	-198.51
29797	21.224	3.0909	0.1	-195.65
29798	21.132	3.3636	0.1	-212.73
29799	21.224	3.2727	0.1	-204.79
29800	21.132	3.5455	0.1	-243.36
29801	21.224	3.4545	0.1	-226.41
29802	21.132	3.7273	0.1	-305.92
29803	21.224	3.6364	0.1	-274.62
29804	21.132	3.9091	0.1	-409.01
29805	21.224	3.8182	0.1	-385.54
29806	21.132	4.0909	0.1	-510.01
29807	21.224	4.	0.1	-608.48
29808	21.132	4.2727	0.1	-536.76
29809	21.224	4.1818	0.1	-724.21
29810	21.132	4.4545	0.1	-479.55
29811	21.224	4.3636	0.1	-620.33
29812	21.132	4.6364	0.1	-395.75
29813	21.224	4.5455	0.1	-497.37
29814	21.132	4.8182	0.1	-313.38
29815	21.224	4.7273	0.1	-392.86
29816	21.132	5.	0.1	-238.24
29817	21.224	4.9091	0.1	-302.16
29818	21.132	5.1818	0.1	-171.98
29819	21.224	5.0909	0.1	-224.06
29820	21.132	5.3636	0.1	-114.53
29821	21.224	5.2727	0.1	-156.22
29822	21.132	5.5455	0.1	-66.807
29823	21.224	5.4545	0.1	-97.849
29824	21.132	5.7273	0.1	-31.683
29825	21.224	5.6364	0.1	-49.996
29826	21.224	5.8182	0.1	-18.448
29827	21.132	5.9091	0.1	-8.1767
29828	21.316	0.27273	0.1	-41.707
29829	21.408	0.18182	0.1	-14.49
29830	21.316	9.0909e-002	0.1	-9.2754
29831	21.316	0.45455	0.1	-88.003
29832	21.408	0.36364	0.1	-49.613
29833	21.316	0.63636	0.1	-146.78
29834	21.408	0.54545	0.1	-95.674
29835	21.316	0.81818	0.1	-215.66
29836	21.408	0.72727	0.1	-150.42
29837	21.316	1.	0.1	-295.81
29838	21.408	0.90909	0.1	-214.68
29839	21.316	1.1818	0.1	-390.57
29840	21.408	1.0909	0.1	-290.89
29841	21.316	1.3636	0.1	-505.37
29842	21.408	1.2727	0.1	-383.91
29843	21.316	1.5455	0.1	-653.69
29844	21.408	1.4545	0.1	-504.06
29845	21.316	1.7273	0.1	-819.9
29846	21.408	1.6364	0.1	-657.86
29847	21.316	1.9091	0.1	-816.4
29848	21.408	1.8182	0.1	-973.13
29849	21.316	2.0909	0.1	-571.57
29850	21.408	2.	0.1	-922.66
29851	21.316	2.2727	0.1	-352.95
29852	21.408	2.1818	0.1	-408.29
29853	21.316	2.4545	0.1	-257.65
29854	21.408	2.3636	0.1	-271.01
29855	21.316	2.6364	0.1	-218.57
29856	21.408	2.5455	0.1	-221.93
29857	21.316	2.8182	0.1	-201.94
29858	21.408	2.7273	0.1	-199.65
29859	21.316	3.	0.1	-196.91
29860	21.408	2.9091	0.1	-190.06
29861	21.316	3.1818	0.1	-201.94
29862	21.408	3.0909	0.1	-190.06
29863	21.316	3.3636	0.1	-218.57
29864	21.408	3.2727	0.1	-199.65
29865	21.316	3.5455	0.1	-257.65
29866	21.408	3.4545	0.1	-221.93
29867	21.316	3.7273	0.1	-352.95
29868	21.408	3.6364	0.1	-271.01
29869	21.316	3.9091	0.1	-571.57
29870	21.408	3.8182	0.1	-408.29
29871	21.316	4.0909	0.1	-816.4
29872	21.408	4.	0.1	-922.66
29873	21.316	4.2727	0.1	-819.9
29874	21.408	4.1818	0.1	-973.13
29875	21.316	4.4545	0.1	-653.69
29876	21.408	4.3636	0.1	-657.86
29877	21.316	4.6364	0.1	-505.37
29878	21.408	4.5455	0.1	-504.06
29879	21.316	4.8182	0.1	-390.57
29880	21.408	4.7273	0.1	-383.91
29881	21.316	5.	0.1	-295.81
29882	21.408	4.9091	0.1	-290.89
29883	21.316	5.1818	0.1	-215.66
29884	21.408	5.0909	0.1	-214.68
29885	21.316	5.3636	0.1	-146.78
29886	21.408	5.2727	0.1	-150.42
29887	21.316	5.5455	0.1	-88.003
29888	21.408	5.4545	0.1	-95.674
29889	21.316	5.7273	0.1	-41.707
29890	21.408	5.6364	0.1	-49.613
29891	21.408	5.8182	0.1	-14.49
29892	21.316	5.9091	0.1	-9.2754
29893	21.667	3.7273	0.1	-192.76
29894	21.583	3.8182	0.1	-287.9
29895	21.667	3.9091	0.1	-145.25
29896	21.667	3.5455	0.1	-182.1
29897	21.583	3.6364	0.1	-223.65
29898	21.667	3.3636	0.1	-164.9
29899	21.583	3.4545	0.1	-192.3
29900	21.667	3.1818	0.1	-155.81
29901	21.583	3.2727	0.1	-175.7
29902	21.667	3.	0.1	-152.85
29903	21.583	3.0909	0.1	-168.23
29904	21.667	2.8182	0.1	-155.81
29905	21.583	2.9091	0.1	-168.23
29906	21.667	2.6364	0.1	-164.9
29907	21.583	2.7273	0.1	-175.7
29908	21.667	2.4545	0.1	-182.1
29909	21.583	2.5455	0.1	-192.3
29910	21.667	2.2727	0.1	-192.76
29911	21.583	2.3636	0.1	-223.65
29912	21.583	2.1818	0.1	-287.9
29913	21.667	2.0909	0.1	-145.25
29914	21.5	3.7273	0.1	-343.93
29915	21.5	3.9091	0.1	-770.66
29916	21.5	3.5455	0.1	-239.31
29917	21.5	3.3636	0.1	-204.21
29918	21.5	3.1818	0.1	-188.
29919	21.5	3.	0.1	-183.2
29920	21.5	2.8182	0.1	-188.
29921	21.5	2.6364	0.1	-204.21
29922	21.5	2.4545	0.1	-239.31
29923	21.5	2.2727	0.1	-343.93
29924	21.5	2.0909	0.1	-770.66
29925	21.667	5.7273	0.1	-6.1441
29926	21.667	5.9091	0.1	-1.2342
29927	21.667	5.8182	5.e-002	-5.5563
29928	21.667	5.5455	0.1	-11.192
29929	21.667	5.6364	5.e-002	-12.317
29930	21.667	5.3636	0.1	-16.874
29931	21.667	5.4545	5.e-002	-18.999
29932	21.667	5.1818	0.1	-23.567
29933	21.667	5.2727	5.e-002	-26.542
29934	21.667	5.	0.1	-31.906
29935	21.667	5.0909	5.e-002	-35.564
29936	21.667	4.8182	0.1	-42.773
29937	21.667	4.9091	5.e-002	-46.962
29938	21.667	4.6364	0.1	-59.729
29939	21.667	4.7273	5.e-002	-62.181
29940	21.667	4.4545	0.1	-73.208
29941	21.667	4.5455	5.e-002	-84.038
29942	21.667	4.2727	0.1	-173.93
29943	21.667	4.3636	5.e-002	-118.43
29944	21.667	4.0909	0.1	-160.44
29945	21.667	4.1818	5.e-002	-220.37
29946	21.583	4.	0.1	-379.7
29947	21.667	4.	5.e-002	-247.72
29948	21.5	4.0909	0.1	-1040.9
29949	21.5	4.	5.e-002	-434.17
29950	21.5	4.2727	0.1	-866.48
29951	21.5	4.1818	5.e-002	-409.5
29952	21.5	4.4545	0.1	-548.32
29953	21.5	4.3636	5.e-002	-264.67
29954	21.5	4.6364	0.1	-413.23
29955	21.5	4.5455	5.e-002	-200.14
29956	21.5	4.8182	0.1	-310.07
29957	21.5	4.7273	5.e-002	-159.4
29958	21.5	5.	0.1	-231.2
29959	21.5	4.9091	5.e-002	-127.51
29960	21.5	5.1818	0.1	-167.38
29961	21.5	5.0909	5.e-002	-101.06
29962	21.5	5.3636	0.1	-114.43
29963	21.5	5.2727	5.e-002	-77.929
29964	21.5	5.5455	0.1	-70.389
29965	21.5	5.4545	5.e-002	-56.951
29966	21.5	5.7273	0.1	-34.557
29967	21.5	5.6364	5.e-002	-37.352
29968	21.5	5.9091	0.1	-6.2562
29969	21.5	5.8182	5.e-002	-17.932
29970	21.667	0.27273	0.1	-6.1442
29971	21.667	9.0909e-002	0.1	-1.2342
29972	21.667	0.18182	5.e-002	-5.5563
29973	21.667	0.45455	0.1	-11.192
29974	21.667	0.36364	5.e-002	-12.317
29975	21.667	0.63636	0.1	-16.874
29976	21.667	0.54545	5.e-002	-18.999
29977	21.667	0.81818	0.1	-23.567
29978	21.667	0.72727	5.e-002	-26.542
29979	21.667	1.	0.1	-31.906
29980	21.667	0.90909	5.e-002	-35.564
29981	21.667	1.1818	0.1	-42.773
29982	21.667	1.0909	5.e-002	-46.962
29983	21.667	1.3636	0.1	-59.729
29984	21.667	1.2727	5.e-002	-62.181
29985	21.667	1.5455	0.1	-73.208
29986	21.667	1.4545	5.e-002	-84.039
29987	21.667	1.7273	0.1	-173.93
29988	21.667	1.6364	5.e-002	-118.43
29989	21.667	1.9091	0.1	-160.44
29990	21.667	1.8182	5.e-002	-220.37
29991	21.583	2.	0.1	-379.7
29992	21.667	2.	5.e-002	-247.72
29993	21.5	1.9091	0.1	-1040.9
29994	21.5	2.	5.e-002	-434.17
29995	21.5	1.7273	0.1	-866.48
29996	21.5	1.8182	5.e-002	-409.5
29997	21.5	1.5455	0.1	-548.32
29998	21.5	1.6364	5.e-002	-264.67
29999	21.5	1.3636	0.1	-413.23
30000	21.5	1.4545	5.e-002	-200.14
30001	21.5	1.1818	0.1	-310.07
30002	21.5	1.2727	5.e-002	-159.4
30003	21.5	1.	0.1	-231.2
30004	21.5	1.0909	5.e-002	-127.51
30005	21.5	0.81818	0.1	-167.38
30006	21.5	0.90909	5.e-002	-101.06
30007	21.5	0.63636	0.1	-114.43
30008	21.5	0.72727	5.e-002	-77.929
30009	21.5	0.45455	0.1	-70.389
30010	21.5	0.54545	5.e-002	-56.951
30011	21.5	0.27273	0.1	-34.557
30012	21.5	0.36364	5.e-002	-37.352
30013	21.5	9.0909e-002	0.1	-6.2563
30014	21.5	0.18182	5.e-002	-17.932
30015	21.756	6.	0.1	-0.79385
30016	21.667	6.	5.e-002	-2.1563
30017	21.936	6.	0.1	-2.8319
30018	21.846	6.	5.e-002	-3.3481
30019	22.115	6.	0.1	-4.2362
30020	22.026	6.	5.e-002	-7.5414
30021	22.295	6.	0.1	-5.2738
30022	22.205	6.	5.e-002	-10.389
30023	22.474	6.	0.1	-6.0283
30024	22.385	6.	5.e-002	-12.471
30025	22.654	6.	0.1	-6.6068
30026	22.564	6.	5.e-002	-13.912
30027	22.833	6.	0.1	-7.1068
30028	22.744	6.	5.e-002	-14.826
30029	23.013	6.	0.1	-7.5906
30030	22.923	6.	5.e-002	-15.279
30031	23.192	6.	0.1	-8.0957
30032	23.103	6.	5.e-002	-15.297
30033	23.372	6.	0.1	-8.6145
30034	23.282	6.	5.e-002	-14.857
30035	23.551	6.	0.1	-9.1316
30036	23.462	6.	5.e-002	-13.873
30037	23.731	6.	0.1	-8.9999
30038	23.641	6.	5.e-002	-12.145
30039	23.91	6.	0.1	-6.9041
30040	23.821	6.	5.e-002	-9.0091
30041	24.	5.9091	0.1	-15.794
30042	24.	6.	5.e-002	-4.1524
30043	24.	5.7273	0.1	-35.211
30044	24.	5.8182	5.e-002	-4.2296
30045	24.	5.5455	0.1	-45.554
30046	24.	5.6364	5.e-002	-6.8032
30047	24.	5.3636	0.1	-49.07
30048	24.	5.4545	5.e-002	-9.1505
30049	24.	5.1818	0.1	-48.166
30050	24.	5.2727	5.e-002	-11.224
30051	24.	5.	0.1	-44.207
30052	24.	5.0909	5.e-002	-12.995
30053	24.	4.8182	0.1	-38.314
30054	24.	4.9091	5.e-002	-14.423
30055	24.	4.6364	0.1	-31.477
30056	24.	4.7273	5.e-002	-15.461
30057	24.	4.4545	0.1	-24.508
30058	24.	4.5455	5.e-002	-16.059
30059	24.	4.2727	0.1	-17.947
30060	24.	4.3636	5.e-002	-16.172
30061	24.	4.0909	0.1	-12.031
30062	24.	4.1818	5.e-002	-15.769
30063	24.	3.9091	0.1	-6.7958
30064	24.	4.	5.e-002	-14.835
30065	24.	3.7273	0.1	-2.9818
30066	24.	3.8182	5.e-002	-13.386
30067	24.	3.5455	0.1	-2.9628
30068	24.	3.6364	5.e-002	-11.483
30069	24.	3.3636	0.1	-3.0174
30070	24.	3.4545	5.e-002	-9.263
30071	24.	3.1818	0.1	-3.0555
30072	24.	3.2727	5.e-002	-7.0127
30073	24.	3.	0.1	-3.0688
30074	24.	3.0909	5.e-002	-5.3746
30075	24.	2.8182	0.1	-3.0555
30076	24.	2.9091	5.e-002	-5.3746
30077	24.	2.6364	0.1	-3.0174
30078	24.	2.7273	5.e-002	-7.0126
30079	24.	2.4545	0.1	-2.9628
30080	24.	2.5455	5.e-002	-9.2629
30081	24.	2.2727	0.1	-2.9818
30082	24.	2.3636	5.e-002	-11.483
30083	24.	2.0909	0.1	-6.7958
30084	24.	2.1818	5.e-002	-13.386
30085	24.	1.9091	0.1	-12.031
30086	24.	2.	5.e-002	-14.835
30087	24.	1.7273	0.1	-17.947
30088	24.	1.8182	5.e-002	-15.769
30089	24.	1.5455	0.1	-24.508
30090	24.	1.6364	5.e-002	-16.172
30091	24.	1.3636	0.1	-31.477
30092	24.	1.4545	5.e-002	-16.059
30093	24.	1.1818	0.1	-38.314
30094	24.	1.2727	5.e-002	-15.461
30095	24.	1.	0.1	-44.207
30096	24.	1.0909	5.e-002	-14.423
30097	24.	0.81818	0.1	-48.166
30098	24.	0.90909	5.e-002	-12.995
30099	24.	0.63636	0.1	-49.07
30100	24.	0.72727	5.e-002	-11.224
30101	24.	0.45455	0.1	-45.554
30102	24.	0.54545	5.e-002	-9.1505
30103	24.	0.27273	0.1	-35.211
30104	24.	0.36364	5.e-002	-6.8032
30105	24.	9.0909e-002	0.1	-15.794
30106	24.	0.18182	5.e-002	-4.2296
30107	2.3842e-015	0.27273	0.1	1663.7
30108	7.9472e-016	9.0909e-002	0.1	-144.4
30109	1.6109e-015	0.18182	5.e-002	-95.385
30110	3.9736e-015	0.45455	0.1	2513.2
30111	3.2219e-015	0.36364	5.e-002	-49.699
30112	5.563e-015	0.63636	0.1	2946.4
30113	4.8328e-015	0.54545	5.e-002	-44.95
30114	7.1525e-015	0.81818	0.1	3215.9
30115	6.4438e-015	0.72727	5.e-002	-39.545
30116	8.7419e-015	1.	0.1	3400.
30117	8.0547e-015	0.90909	5.e-002	-33.658
30118	1.0331e-014	1.1818	0.1	3533.1
30119	9.6657e-015	1.0909	5.e-002	-28.592
30120	1.1921e-014	1.3636	0.1	3632.6
30121	1.1277e-014	1.2727	5.e-002	-24.483
30122	1.351e-014	1.5455	0.1	3708.5
30123	1.2888e-014	1.4545	5.e-002	-21.145
30124	1.51e-014	1.7273	0.1	3767.1
30125	1.4498e-014	1.6364	5.e-002	-18.442
30126	1.6689e-014	1.9091	0.1	3812.6
30127	1.6109e-014	1.8182	5.e-002	-16.262
30128	1.8279e-014	2.0909	0.1	3847.6
30129	1.772e-014	2.	5.e-002	-14.519
30130	1.9868e-014	2.2727	0.1	3874.3
30131	1.9331e-014	2.1818	5.e-002	-13.148
30132	2.1457e-014	2.4545	0.1	3893.9
30133	2.0942e-014	2.3636	5.e-002	-12.102
30134	2.3047e-014	2.6364	0.1	3907.3
30135	2.2553e-014	2.5455	5.e-002	-11.344
30136	2.4636e-014	2.8182	0.1	3915.2
30137	2.4164e-014	2.7273	5.e-002	-10.852
30138	2.6226e-014	3.	0.1	3917.9
30139	2.5775e-014	2.9091	5.e-002	-10.609
30140	2.7815e-014	3.1818	0.1	3915.2
30141	2.7386e-014	3.0909	5.e-002	-10.609
30142	2.9405e-014	3.3636	0.1	3907.3
30143	2.8997e-014	3.2727	5.e-002	-10.852
30144	3.0994e-014	3.5455	0.1	3893.9
30145	3.0608e-014	3.4545	5.e-002	-11.344
30146	3.2583e-014	3.7273	0.1	3874.3
30147	3.2219e-014	3.6364	5.e-002	-12.102
30148	3.4173e-014	3.9091	0.1	3847.6
30149	3.383e-014	3.8182	5.e-002	-13.148
30150	3.5762e-014	4.0909	0.1	3812.6
30151	3.5441e-014	4.	5.e-002	-14.519
30152	3.7352e-014	4.2727	0.1	3767.1
30153	3.7052e-014	4.1818	5.e-002	-16.262
30154	3.8941e-014	4.4545	0.1	3708.5
30155	3.8663e-014	4.3636	5.e-002	-18.442
30156	4.0531e-014	4.6364	0.1	3632.6
30157	4.0274e-014	4.5455	5.e-002	-21.145
30158	4.212e-014	4.8182	0.1	3533.1
30159	4.1885e-014	4.7273	5.e-002	-24.483
30160	4.371e-014	5.	0.1	3400.
30161	4.3495e-014	4.9091	5.e-002	-28.592
30162	4.5299e-014	5.1818	0.1	3215.9
30163	4.5106e-014	5.0909	5.e-002	-33.658
30164	4.6888e-014	5.3636	0.1	2946.4
30165	4.6717e-014	5.2727	5.e-002	-39.545
30166	4.8478e-014	5.5455	0.1	2513.2
30167	4.8328e-014	5.4545	5.e-002	-44.95
30168	5.0067e-014	5.7273	0.1	1663.7
30169	4.9939e-014	5.6364	5.e-002	-49.699
30170	5.1657e-014	5.9091	0.1	-144.4
30171	5.155e-014	5.8182	5.e-002	-95.384
30172	23.91	0.	0.1	-6.9041
30173	24.	0.	5.e-002	-4.1525
30174	23.731	0.	0.1	-8.9999
30175	23.821	0.	5.e-002	-9.0091
30176	23.551	0.	0.1	-9.1316
30177	23.641	0.	5.e-002	-12.145
30178	23.372	0.	0.1	-8.6145
30179	23.462	0.	5.e-002	-13.873
30180	23.192	0.	0.1	-8.0957
30181	23.282	0.	5.e-002	-14.857
30182	23.013	0.	0.1	-7.5906
30183	23.103	0.	5.e-002	-15.297
30184	22.833	0.	0.1	-7.1068
30185	22.923	0.	5.e-002	-15.279
30186	22.654	0.	0.1	-6.6068
30187	22.744	0.	5.e-002	-14.826
30188	22.474	0.	0.1	-6.0283
30189	22.564	0.	5.e-002	-13.912
30190	22.295	0.	0.1	-5.2738
30191	22.385	0.	5.e-002	-12.471
30192	22.115	0.	0.1	-4.2362
30193	22.205	0.	5.e-002	-10.389
30194	21.936	0.	0.1	-2.8319
30195	22.026	0.	5.e-002	-7.5413
30196	21.756	0.	0.1	-0.79385
30197	21.846	0.	5.e-002	-3.3481
30198	21.667	0.	5.e-002	-2.1563
30199	21.408	-3.8656e-030	0.1	-0.38764
30200	21.5	-3.8822e-030	5.e-002	-4.5919
30201	21.224	-3.8324e-030	0.1	-1.2096
30202	21.316	0.	5.e-002	-1.2256
30203	21.041	-3.7992e-030	0.1	-1.3176
30204	21.132	0.	5.e-002	-0.48942
30205	20.857	-3.7661e-030	0.1	-1.5791
30206	20.949	0.	5.e-002	-1.2929
30207	20.673	-3.7329e-030	0.1	-1.8914
30208	20.765	0.	5.e-002	-4.1231
30209	20.489	-3.6997e-030	0.1	-2.2797
30210	20.581	0.	5.e-002	-7.9152
30211	20.306	-3.6665e-030	0.1	-2.7513
30212	20.397	0.	5.e-002	-12.202
30213	20.122	-3.6333e-030	0.1	-3.281
30214	20.214	0.	5.e-002	-16.687
30215	19.938	-3.6002e-030	0.1	-3.842
30216	20.03	0.	5.e-002	-21.159
30217	19.754	-3.567e-030	0.1	-4.4076
30218	19.846	0.	5.e-002	-25.476
30219	19.571	-3.5338e-030	0.1	-4.9564
30220	19.662	0.	5.e-002	-29.553
30221	19.387	-3.5006e-030	0.1	-5.4723
30222	19.479	0.	5.e-002	-33.345
30223	19.203	-3.4674e-030	0.1	-5.9452
30224	19.295	0.	5.e-002	-36.834
30225	19.019	-3.4342e-030	0.1	-6.3695
30226	19.111	0.	5.e-002	-40.024
30227	18.835	-3.4011e-030	0.1	-6.7433
30228	18.927	0.	5.e-002	-42.926
30229	18.652	-3.3679e-030	0.1	-7.0673
30230	18.744	0.	5.e-002	-45.562
30231	18.468	-3.3347e-030	0.1	-7.3439
30232	18.56	0.	5.e-002	-47.955
30233	18.284	-3.3015e-030	0.1	-7.5766
30234	18.376	0.	5.e-002	-50.127
30235	18.1	-3.2683e-030	0.1	-7.7691
30236	18.192	0.	5.e-002	-52.102
30237	17.917	-3.2352e-030	0.1	-7.9256
30238	18.009	0.	5.e-002	-53.9
30239	17.733	-3.202e-030	0.1	-8.0499
30240	17.825	0.	5.e-002	-55.542
30241	17.549	-3.1688e-030	0.1	-8.1459
30242	17.641	0.	5.e-002	-57.046
30243	17.365	-3.1356e-030	0.1	-8.2168
30244	17.457	0.	5.e-002	-58.425
30245	17.182	-3.1024e-030	0.1	-8.266
30246	17.274	0.	5.e-002	-59.695
30247	16.998	-3.0693e-030	0.1	-8.296
30248	17.09	0.	5.e-002	-60.866
30249	16.814	-3.0361e-030	0.1	-8.3094
30250	16.906	0.	5.e-002	-61.95
30251	16.63	-3.0029e-030	0.1	-8.3084
30252	16.722	0.	5.e-002	-62.956
30253	16.447	-2.9697e-030	0.1	-8.2948
30254	16.538	0.	5.e-002	-63.891
30255	16.263	-2.9365e-030	0.1	-8.2702
30256	16.355	0.	5.e-002	-64.762
30257	16.079	-2.9033e-030	0.1	-8.236
30258	16.171	0.	5.e-002	-65.575
30259	15.895	-2.8702e-030	0.1	-8.1936
30260	15.987	0.	5.e-002	-66.336
30261	15.712	-2.837e-030	0.1	-8.1438
30262	15.803	0.	5.e-002	-67.048
30263	15.528	-2.8038e-030	0.1	-8.0877
30264	15.62	0.	5.e-002	-67.715
30265	15.344	-2.7706e-030	0.1	-8.0259
30266	15.436	0.	5.e-002	-68.342
30267	15.16	-2.7374e-030	0.1	-7.9591
30268	15.252	0.	5.e-002	-68.93
30269	14.976	-2.7043e-030	0.1	-7.888
30270	15.068	0.	5.e-002	-69.482
30271	14.793	-2.6711e-030	0.1	-7.8129
30272	14.885	0.	5.e-002	-70.
30273	14.609	-2.6379e-030	0.1	-7.7341
30274	14.701	0.	5.e-002	-70.486
30275	14.425	-2.6047e-030	0.1	-7.6521
30276	14.517	0.	5.e-002	-70.941
30277	14.241	-2.5715e-030	0.1	-7.567
30278	14.333	0.	5.e-002	-71.367
30279	14.058	-2.5384e-030	0.1	-7.4791
30280	14.15	0.	5.e-002	-71.764
30281	13.874	-2.5052e-030	0.1	-7.3884
30282	13.966	0.	5.e-002	-72.134
30283	13.69	-2.472e-030	0.1	-7.2951
30284	13.782	0.	5.e-002	-72.476
30285	13.506	-2.4388e-030	0.1	-7.1993
30286	13.598	0.	5.e-002	-72.79
30287	13.323	-2.4056e-030	0.1	-7.1008
30288	13.415	0.	5.e-002	-73.078
30289	13.139	-2.3724e-030	0.1	-6.9998
30290	13.231	0.	5.e-002	-73.339
30291	12.955	-2.3393e-030	0.1	-6.8961
30292	13.047	0.	5.e-002	-73.572
30293	12.771	-2.3061e-030	0.1	-6.7896
30294	12.863	0.	5.e-002	-73.777
30295	12.588	-2.2729e-030	0.1	-6.6803
30296	12.679	0.	5.e-002	-73.953
30297	12.404	-2.2397e-030	0.1	-6.5679
30298	12.496	0.	5.e-002	-74.1
30299	12.22	-2.2065e-030	0.1	-6.4523
30300	12.312	0.	5.e-002	-74.216
30301	12.036	-2.1734e-030	0.1	-6.3333
30302	12.128	0.	5.e-002	-74.3
30303	11.853	-2.1402e-030	0.1	-6.2107
30304	11.944	0.	5.e-002	-74.351
30305	11.669	-2.107e-030	0.1	-6.0842
30306	11.761	0.	5.e-002	-74.367
30307	11.485	-2.0738e-030	0.1	-5.9536
30308	11.577	0.	5.e-002	-74.346
30309	11.301	-2.0406e-030	0.1	-5.8185
30310	11.393	0.	5.e-002	-74.286
30311	11.118	-2.0075e-030	0.1	-5.6785
30312	11.209	0.	5.e-002	-74.184
30313	10.934	-1.9743e-030	0.1	-5.5335
30314	11.026	0.	5.e-002	-74.038
30315	10.75	-1.9411e-030	0.1	-5.3829
30316	10.842	0.	5.e-002	-73.844
30317	10.566	-1.9079e-030	0.1	-5.2266
30318	10.658	0.	5.e-002	-73.601
30319	10.382	-1.8747e-030	0.1	-5.0639
30320	10.474	0.	5.e-002	-73.303
30321	10.199	-1.8416e-030	0.1	-4.8946
30322	10.291	0.	5.e-002	-72.947
30323	10.015	-1.8084e-030	0.1	-4.7181
30324	10.107	0.	5.e-002	-72.528
30325	9.8312	-1.7752e-030	0.1	-4.534
30326	9.9231	0.	5.e-002	-72.043
30327	9.6474	-1.742e-030	0.1	-4.342
30328	9.7393	0.	5.e-002	-71.485
30329	9.4637	-1.7088e-030	0.1	-4.1415
30330	9.5556	0.	5.e-002	-70.85
30331	9.2799	-1.6756e-030	0.1	-3.9321
30332	9.3718	0.	5.e-002	-70.131
30333	9.0962	-1.6425e-030	0.1	-3.7134
30334	9.188	0.	5.e-002	-69.321
30335	8.9124	-1.6093e-030	0.1	-3.4849
30336	9.0043	0.	5.e-002	-68.414
30337	8.7286	-1.5761e-030	0.1	-3.2463
30338	8.8205	0.	5.e-002	-67.401
30339	8.5449	-1.5429e-030	0.1	-2.9972
30340	8.6368	0.	5.e-002	-66.274
30341	8.3611	-1.5097e-030	0.1	-2.7373
30342	8.453	0.	5.e-002	-65.024
30343	8.1774	-1.4766e-030	0.1	-2.4664
30344	8.2692	0.	5.e-002	-63.641
30345	7.9936	-1.4434e-030	0.1	-2.1843
30346	8.0855	0.	5.e-002	-62.114
30347	7.8098	-1.4102e-030	0.1	-1.891
30348	7.9017	0.	5.e-002	-60.432
30349	7.6261	-1.377e-030	0.1	-1.5867
30350	7.7179	0.	5.e-002	-58.581
30351	7.4423	-1.3438e-030	0.1	-1.2716
30352	7.5342	0.	5.e-002	-56.549
30353	7.2585	-1.3107e-030	0.1	-0.9463
30354	7.3504	0.	5.e-002	-54.32
30355	7.0748	-1.2775e-030	0.1	-0.61179
30356	7.1667	0.	5.e-002	-51.879
30357	6.891	-1.2443e-030	0.1	-0.46984
30358	6.9829	0.	5.e-002	-49.208
30359	6.7073	-1.2111e-030	0.1	-0.51245
30360	6.7991	0.	5.e-002	-46.289
30361	6.5235	-1.1779e-030	0.1	-0.55884
30362	6.6154	0.	5.e-002	-43.102
30363	6.3397	-1.1447e-030	0.1	-0.60906
30364	6.4316	0.	5.e-002	-39.625
30365	6.156	-1.1116e-030	0.1	-0.66338
30366	6.2479	0.	5.e-002	-35.836
30367	5.9722	-1.0784e-030	0.1	-0.72214
30368	6.0641	0.	5.e-002	-31.709
30369	5.7885	-1.0452e-030	0.1	-0.78569
30370	5.8803	0.	5.e-002	-27.219
30371	5.6047	-1.012e-030	0.1	-0.85442
30372	5.6966	0.	5.e-002	-22.339
30373	5.4209	-9.7884e-031	0.1	-0.92877
30374	5.5128	0.	5.e-002	-17.043
30375	5.2372	-9.4566e-031	0.1	-1.0092
30376	5.3291	0.	5.e-002	-11.318
30377	5.0534	-9.1248e-031	0.1	-1.0963
30378	5.1453	0.	5.e-002	-5.2478
30379	4.8697	-8.793e-031	0.1	-1.1905
30380	4.9615	0.	5.e-002	-2.7824
30381	4.6859	-8.4612e-031	0.1	-1.2928
30382	4.7778	0.	5.e-002	-9.564
30383	4.5021	-8.1294e-031	0.1	-1.4038
30384	4.594	0.	5.e-002	-17.494
30385	4.3184	-7.7976e-031	0.1	-1.5247
30386	4.4103	0.	5.e-002	-26.156
30387	4.1346	-7.4657e-031	0.1	-1.6569
30388	4.2265	0.	5.e-002	-35.563
30389	3.9509	-7.1339e-031	0.1	-1.8028
30390	4.0427	0.	5.e-002	-45.764
30391	3.7671	-6.8021e-031	0.1	-1.9658
30392	3.859	0.	5.e-002	-56.816
30393	3.5833	-6.4703e-031	0.1	-2.1535
30394	3.6752	0.	5.e-002	-68.787
30395	3.3996	-6.1385e-031	0.1	-2.3843
30396	3.4915	0.	5.e-002	-81.75
30397	3.2158	-5.8067e-031	0.1	-2.722
30398	3.3077	0.	5.e-002	-95.786
30399	3.0321	-5.4749e-031	0.1	-3.4529
30400	3.1239	0.	5.e-002	-110.99
30401	2.8483	-5.1431e-031	0.1	-5.1262
30402	2.9402	0.	5.e-002	-127.45
30403	2.6645	-4.8113e-031	0.1	-7.6463
30404	2.7564	0.	5.e-002	-145.3
30405	2.4808	-4.4794e-031	0.1	-10.888
30406	2.5726	0.	5.e-002	-164.67
30407	2.297	-4.1476e-031	0.1	-14.92
30408	2.3889	0.	5.e-002	-185.7
30409	2.1132	-3.8158e-031	0.1	-19.886
30410	2.2051	0.	5.e-002	-208.58
30411	1.9295	-3.484e-031	0.1	-25.986
30412	2.0214	0.	5.e-002	-233.53
30413	1.7457	-3.1522e-031	0.1	-33.492
30414	1.8376	0.	5.e-002	-260.82
30415	1.562	-2.8204e-031	0.1	-42.774
30416	1.6538	0.	5.e-002	-290.8
30417	1.3782	-2.4886e-031	0.1	-54.379
30418	1.4701	0.	5.e-002	-323.92
30419	1.1944	-2.1568e-031	0.1	-69.085
30420	1.2863	0.	5.e-002	-360.77
30421	1.0107	-1.825e-031	0.1	-88.32
30422	1.1026	0.	5.e-002	-402.26
30423	0.82692	-1.4931e-031	0.1	-114.16
30424	0.9188	0.	5.e-002	-449.62
30425	0.64316	-1.1613e-031	0.1	-151.93
30426	0.73504	0.	5.e-002	-505.32
30427	0.4594	-8.2953e-032	0.1	-213.55
30428	0.55128	0.	5.e-002	-572.79
30429	0.27564	-4.9772e-032	0.1	-335.3
30430	0.36752	0.	5.e-002	-663.8
30431	9.188e-002	-1.6591e-032	0.1	-899.38
30432	0.18376	0.	5.e-002	-844.66
30433	0.	0.	5.e-002	-1118.4
30434	9.188e-002	6.	0.1	-899.38
30435	5.2451e-014	6.	5.e-002	-1118.4
30436	0.27564	6.	0.1	-335.3
30437	0.18376	6.	5.e-002	-844.66
30438	0.4594	6.	0.1	-213.55
30439	0.36752	6.	5.e-002	-663.8
30440	0.64316	6.	0.1	-151.93
30441	0.55128	6.	5.e-002	-572.79
30442	0.82692	6.	0.1	-114.16
30443	0.73504	6.	5.e-002	-505.32
30444	1.0107	6.	0.1	-88.32
30445	0.9188	6.	5.e-002	-449.62
30446	1.1944	6.	0.1	-69.085
30447	1.1026	6.	5.e-002	-402.26
30448	1.3782	6.	0.1	-54.379
30449	1.2863	6.	5.e-002	-360.77
30450	1.562	6.	0.1	-42.774
30451	1.4701	6.	5.e-002	-323.92
30452	1.7457	6.	0.1	-33.492
30453	1.6538	6.	5.e-002	-290.8
30454	1.9295	6.	0.1	-25.986
30455	1.8376	6.	5.e-002	-260.82
30456	2.1132	6.	0.1	-19.886
30457	2.0214	6.	5.e-002	-233.53
30458	2.297	6.	0.1	-14.92
30459	2.2051	6.	5.e-002	-208.58
30460	2.4808	6.	0.1	-10.888
30461	2.3889	6.	5.e-002	-185.7
30462	2.6645	6.	0.1	-7.6463
30463	2.5726	6.	5.e-002	-164.67
30464	2.8483	6.	0.1	-5.1262
30465	2.7564	6.	5.e-002	-145.3
30466	3.0321	6.	0.1	-3.4529
30467	2.9402	6.	5.e-002	-127.45
30468	3.2158	6.	0.1	-2.722
30469	3.1239	6.	5.e-002	-110.99
30470	3.3996	6.	0.1	-2.3843
30471	3.3077	6.	5.e-002	-95.786
30472	3.5833	6.	0.1	-2.1535
30473	3.4915	6.	5.e-002	-81.75
30474	3.7671	6.	0.1	-1.9658
30475	3.6752	6.	5.e-002	-68.787
30476	3.9509	6.	0.1	-1.8028
30477	3.859	6.	5.e-002	-56.816
30478	4.1346	6.	0.1	-1.6569
30479	4.0427	6.	5.e-002	-45.764
30480	4.3184	6.	0.1	-1.5247
30481	4.2265	6.	5.e-002	-35.563
30482	4.5021	6.	0.1	-1.4038
30483	4.4103	6.	5.e-002	-26.156
30484	4.6859	6.	0.1	-1.2928
30485	4.594	6.	5.e-002	-17.494
30486	4.8697	6.	0.1	-1.1905
30487	4.7778	6.	5.e-002	-9.564
30488	5.0534	6.	0.1	-1.0963
30489	4.9615	6.	5.e-002	-2.7824
30490	5.2372	6.	0.1	-1.0092
30491	5.1453	6.	5.e-002	-5.2478
30492	5.4209	6.	0.1	-0.92877
30493	5.3291	6.	5.e-002	-11.318
30494	5.6047	6.	0.1	-0.85442
30495	5.5128	6.	5.e-002	-17.043
30496	5.7885	6.	0.1	-0.78569
30497	5.6966	6.	5.e-002	-22.339
30498	5.9722	6.	0.1	-0.72214
30499	5.8803	6.	5.e-002	-27.219
30500	6.156	6.	0.1	-0.66338
30501	6.0641	6.	5.e-002	-31.709
30502	6.3397	6.	0.1	-0.60906
30503	6.2479	6.	5.e-002	-35.836
30504	6.5235	6.	0.1	-0.55884
30505	6.4316	6.	5.e-002	-39.625
30506	6.7073	6.	0.1	-0.51245
30507	6.6154	6.	5.e-002	-43.102
30508	6.891	6.	0.1	-0.46983
30509	6.7991	6.	5.e-002	-46.289
30510	7.0748	6.	0.1	-0.61179
30511	6.9829	6.	5.e-002	-49.208
30512	7.2585	6.	0.1	-0.9463
30513	7.1667	6.	5.e-002	-51.879
30514	7.4423	6.	0.1	-1.2716
30515	7.3504	6.	5.e-002	-54.32
30516	7.6261	6.	0.1	-1.5867
30517	7.5342	6.	5.e-002	-56.549
30518	7.8098	6.	0.1	-1.891
30519	7.7179	6.	5.e-002	-58.581
30520	7.9936	6.	0.1	-2.1843
30521	7.9017	6.	5.e-002	-60.431
30522	8.1774	6.	0.1	-2.4664
30523	8.0855	6.	5.e-002	-62.114
30524	8.3611	6.	0.1	-2.7373
30525	8.2692	6.	5.e-002	-63.641
30526	8.5449	6.	0.1	-2.9972
30527	8.453	6.	5.e-002	-65.024
30528	8.7286	6.	0.1	-3.2463
30529	8.6368	6.	5.e-002	-66.274
30530	8.9124	6.	0.1	-3.4849
30531	8.8205	6.	5.e-002	-67.401
30532	9.0962	6.	0.1	-3.7134
30533	9.0043	6.	5.e-002	-68.413
30534	9.2799	6.	0.1	-3.9321
30535	9.188	6.	5.e-002	-69.321
30536	9.4637	6.	0.1	-4.1415
30537	9.3718	6.	5.e-002	-70.131
30538	9.6474	6.	0.1	-4.342
30539	9.5556	6.	5.e-002	-70.85
30540	9.8312	6.	0.1	-4.534
30541	9.7393	6.	5.e-002	-71.485
30542	10.015	6.	0.1	-4.7181
30543	9.9231	6.	5.e-002	-72.043
30544	10.199	6.	0.1	-4.8946
30545	10.107	6.	5.e-002	-72.528
30546	10.382	6.	0.1	-5.0639
30547	10.291	6.	5.e-002	-72.947
30548	10.566	6.	0.1	-5.2266
30549	10.474	6.	5.e-002	-73.303
30550	10.75	6.	0.1	-5.3829
30551	10.658	6.	5.e-002	-73.601
30552	10.934	6.	0.1	-5.5335
30553	10.842	6.	5.e-002	-73.844
30554	11.118	6.	0.1	-5.6785
30555	11.026	6.	5.e-002	-74.038
30556	11.301	6.	0.1	-5.8185
30557	11.209	6.	5.e-002	-74.184
30558	11.485	6.	0.1	-5.9536
30559	11.393	6.	5.e-002	-74.286
30560	11.669	6.	0.1	-6.0842
30561	11.577	6.	5.e-002	-74.346
30562	11.853	6.	0.1	-6.2107
30563	11.761	6.	5.e-002	-74.367
30564	12.036	6.	0.1	-6.3333
30565	11.944	6.	5.e-002	-74.351
30566	12.22	6.	0.1	-6.4523
30567	12.128	6.	5.e-002	-74.3
30568	12.404	6.	0.1	-6.5679
30569	12.312	6.	5.e-002	-74.216
30570	12.588	6.	0.1	-6.6803
30571	12.496	6.	5.e-002	-74.1
30572	12.771	6.	0.1	-6.7896
30573	12.679	6.	5.e-002	-73.953
30574	12.955	6.	0.1	-6.8961
30575	12.863	6.	5.e-002	-73.777
30576	13.139	6.	0.1	-6.9998
30577	13.047	6.	5.e-002	-73.572
30578	13.323	6.	0.1	-7.1008
30579	13.231	6.	5.e-002	-73.339
30580	13.506	6.	0.1	-7.1993
30581	13.415	6.	5.e-002	-73.078
30582	13.69	6.	0.1	-7.2951
30583	13.598	6.	5.e-002	-72.79
30584	13.874	6.	0.1	-7.3884
30585	13.782	6.	5.e-002	-72.476
30586	14.058	6.	0.1	-7.4791
30587	13.966	6.	5.e-002	-72.134
30588	14.241	6.	0.1	-7.567
30589	14.15	6.	5.e-002	-71.764
30590	14.425	6.	0.1	-7.6521
30591	14.333	6.	5.e-002	-71.367
30592	14.609	6.	0.1	-7.7341
30593	14.517	6.	5.e-002	-70.941
30594	14.793	6.	0.1	-7.8129
30595	14.701	6.	5.e-002	-70.486
30596	14.976	6.	0.1	-7.888
30597	14.885	6.	5.e-002	-70.
30598	15.16	6.	0.1	-7.9591
30599	15.068	6.	5.e-002	-69.482
30600	15.344	6.	0.1	-8.0259
30601	15.252	6.	5.e-002	-68.93
30602	15.528	6.	0.1	-8.0877
30603	15.436	6.	5.e-002	-68.342
30604	15.712	6.	0.1	-8.1438
30605	15.62	6.	5.e-002	-67.716
30606	15.895	6.	0.1	-8.1936
30607	15.803	6.	5.e-002	-67.048
30608	16.079	6.	0.1	-8.236
30609	15.987	6.	5.e-002	-66.336
30610	16.263	6.	0.1	-8.2702
30611	16.171	6.	5.e-002	-65.575
30612	16.447	6.	0.1	-8.2948
30613	16.355	6.	5.e-002	-64.762
30614	16.63	6.	0.1	-8.3084
30615	16.538	6.	5.e-002	-63.891
30616	16.814	6.	0.1	-8.3095
30617	16.722	6.	5.e-002	-62.956
30618	16.998	6.	0.1	-8.296
30619	16.906	6.	5.e-002	-61.95
30620	17.182	6.	0.1	-8.266
30621	17.09	6.	5.e-002	-60.866
30622	17.365	6.	0.1	-8.2168
30623	17.274	6.	5.e-002	-59.695
30624	17.549	6.	0.1	-8.1459
30625	17.457	6.	5.e-002	-58.425
30626	17.733	6.	0.1	-8.0499
30627	17.641	6.	5.e-002	-57.046
30628	17.917	6.	0.1	-7.9256
30629	17.825	6.	5.e-002	-55.543
30630	18.1	6.	0.1	-7.7691
30631	18.009	6.	5.e-002	-53.9
30632	18.284	6.	0.1	-7.5766
30633	18.192	6.	5.e-002	-52.102
30634	18.468	6.	0.1	-7.344
30635	18.376	6.	5.e-002	-50.127
30636	18.652	6.	0.1	-7.0673
30637	18.56	6.	5.e-002	-47.955
30638	18.835	6.	0.1	-6.7433
30639	18.744	6.	5.e-002	-45.563
30640	19.019	6.	0.1	-6.3695
30641	18.927	6.	5.e-002	-42.926
30642	19.203	6.	0.1	-5.9452
30643	19.111	6.	5.e-002	-40.024
30644	19.387	6.	0.1	-5.4723
30645	19.295	6.	5.e-002	-36.834
30646	19.571	6.	0.1	-4.9564
30647	19.479	6.	5.e-002	-33.345
30648	19.754	6.	0.1	-4.4076
30649	19.662	6.	5.e-002	-29.553
30650	19.938	6.	0.1	-3.842
30651	19.846	6.	5.e-002	-25.476
30652	20.122	6.	0.1	-3.281
30653	20.03	6.	5.e-002	-21.159
30654	20.306	6.	0.1	-2.7513
30655	20.214	6.	5.e-002	-16.688
30656	20.489	6.	0.1	-2.2797
30657	20.397	6.	5.e-002	-12.202
30658	20.673	6.	0.1	-1.8914
30659	20.581	6.	5.e-002	-7.9152
30660	20.857	6.	0.1	-1.5791
30661	20.765	6.	5.e-002	-4.1231
30662	21.041	6.	0.1	-1.3176
30663	20.949	6.	5.e-002	-1.2929
30664	21.224	6.	0.1	-1.2096
30665	21.132	6.	5.e-002	-0.48941
30666	21.408	6.	0.1	-0.38763
30667	21.316	6.	5.e-002	-1.2257
30668	21.5	6.	5.e-002	-4.5919
30669	21.224	6.	0.	-137.03
30670	21.408	6.	0.	-47.339
30671	21.041	6.	0.	-231.8
30672	20.857	6.	0.	-323.67
30673	20.673	6.	0.	-412.08
30674	20.489	6.	0.	-496.16
30675	20.306	6.	0.	-575.43
30676	20.122	6.	0.	-649.77
30677	19.938	6.	0.	-719.42
30678	19.754	6.	0.	-784.78
30679	19.571	6.	0.	-846.37
30680	19.387	6.	0.	-904.71
30681	19.203	6.	0.	-960.34
30682	19.019	6.	0.	-1013.7
30683	18.835	6.	0.	-1065.3
30684	18.652	6.	0.	-1115.3
30685	18.468	6.	0.	-1164.2
30686	18.284	6.	0.	-1212.2
30687	18.1	6.	0.	-1259.4
30688	17.917	6.	0.	-1306.1
30689	17.733	6.	0.	-1352.4
30690	17.549	6.	0.	-1398.4
30691	17.365	6.	0.	-1444.2
30692	17.182	6.	0.	-1489.9
30693	16.998	6.	0.	-1535.4
30694	16.814	6.	0.	-1581.
30695	16.63	6.	0.	-1626.6
30696	16.447	6.	0.	-1672.2
30697	16.263	6.	0.	-1717.9
30698	16.079	6.	0.	-1763.6
30699	15.895	6.	0.	-1809.5
30700	15.712	6.	0.	-1855.5
30701	15.528	6.	0.	-1901.7
30702	15.344	6.	0.	-1948.
30703	15.16	6.	0.	-1994.4
30704	14.976	6.	0.	-2041.1
30705	14.793	6.	0.	-2087.8
30706	14.609	6.	0.	-2134.8
30707	14.425	6.	0.	-2181.9
30708	14.241	6.	0.	-2229.2
30709	14.058	6.	0.	-2276.7
30710	13.874	6.	0.	-2324.4
30711	13.69	6.	0.	-2372.3
30712	13.506	6.	0.	-2420.4
30713	13.323	6.	0.	-2468.6
30714	13.139	6.	0.	-2517.1
30715	12.955	6.	0.	-2565.8
30716	12.771	6.	0.	-2614.7
30717	12.588	6.	0.	-2663.7
30718	12.404	6.	0.	-2713.
30719	12.22	6.	0.	-2762.5
30720	12.036	6.	0.	-2812.2
30721	11.853	6.	0.	-2862.2
30722	11.669	6.	0.	-2912.3
30723	11.485	6.	0.	-2962.7
30724	11.301	6.	0.	-3013.3
30725	11.118	6.	0.	-3064.1
30726	10.934	6.	0.	-3115.1
30727	10.75	6.	0.	-3166.4
30728	10.566	6.	0.	-3217.9
30729	10.382	6.	0.	-3269.7
30730	10.199	6.	0.	-3321.7
30731	10.015	6.	0.	-3374.
30732	9.8312	6.	0.	-3426.5
30733	9.6474	6.	0.	-3479.3
30734	9.4637	6.	0.	-3532.3
30735	9.2799	6.	0.	-3585.6
30736	9.0962	6.	0.	-3639.2
30737	8.9124	6.	0.	-3693.1
30738	8.7286	6.	0.	-3747.3
30739	8.5449	6.	0.	-3801.8
30740	8.3611	6.	0.	-3856.6
30741	8.1774	6.	0.	-3911.7
30742	7.9936	6.	0.	-3967.2
30743	7.8098	6.	0.	-4023.
30744	7.6261	6.	0.	-4079.1
30745	7.4423	6.	0.	-4135.7
30746	7.2585	6.	0.	-4192.6
30747	7.0748	6.	0.	-4249.9
30748	6.891	6.	0.	-4307.7
30749	6.7073	6.	0.	-4365.8
30750	6.5235	6.	0.	-4424.5
30751	6.3397	6.	0.	-4483.6
30752	6.156	6.	0.	-4543.2
30753	5.9722	6.	0.	-4603.3
30754	5.7885	6.	0.	-4663.9
30755	5.6047	6.	0.	-4725.
30756	5.4209	6.	0.	-4786.8
30757	5.2372	6.	0.	-4849.1
30758	5.0534	6.	0.	-4912.
30759	4.8697	6.	0.	-4975.4
30760	4.6859	6.	0.	-5039.5
30761	4.5021	6.	0.	-5104.1
30762	4.3184	6.	0.	-5169.3
30763	4.1346	6.	0.	-5235.
30764	3.9509	6.	0.	-5301.1
30765	3.7671	6.	0.	-5367.5
30766	3.5833	6.	0.	-5434.1
30767	3.3996	6.	0.	-5500.7
30768	3.2158	6.	0.	-5566.9
30769	3.0321	6.	0.	-5632.6
30770	2.8483	6.	0.	-5697.
30771	2.6645	6.	0.	-5759.7
30772	2.4808	6.	0.	-5819.7
30773	2.297	6.	0.	-5875.9
30774	2.1132	6.	0.	-5926.8
30775	1.9295	6.	0.	-5970.2
30776	1.7457	6.	0.	-6003.1
30777	1.562	6.	0.	-6021.6
30778	1.3782	6.	0.	-6019.6
30779	1.1944	6.	0.	-5988.2
30780	1.0107	6.	0.	-5913.3
30781	0.82692	6.	0.	-5771.5
30782	0.64316	6.	0.	-5517.5
30783	0.4594	6.	0.	-5065.2
30784	0.27564	6.	0.	-4157.8
30785	9.188e-002	6.	0.	-1946.
30786	21.5	5.9091	0.	-30.136
30787	5.1657e-014	5.9091	0.	-1435.6
30788	0.27564	-4.9772e-032	0.	-4157.8
30789	9.188e-002	-1.6591e-032	0.	-1946.
30790	0.4594	-8.2953e-032	0.	-5065.2
30791	0.64316	-1.1613e-031	0.	-5517.5
30792	0.82692	-1.4931e-031	0.	-5771.5
30793	1.0107	-1.825e-031	0.	-5913.3
30794	1.1944	-2.1568e-031	0.	-5988.2
30795	1.3782	-2.4886e-031	0.	-6019.6
30796	1.562	-2.8204e-031	0.	-6021.6
30797	1.7457	-3.1522e-031	0.	-6003.1
30798	1.9295	-3.484e-031	0.	-5970.2
30799	2.1132	-3.8158e-031	0.	-5926.8
30800	2.297	-4.1476e-031	0.	-5875.9
30801	2.4808	-4.4794e-031	0.	-5819.7
30802	2.6645	-4.8113e-031	0.	-5759.7
30803	2.8483	-5.1431e-031	0.	-5697.
30804	3.0321	-5.4749e-031	0.	-5632.6
30805	3.2158	-5.8067e-031	0.	-5566.9
30806	3.3996	-6.1385e-031	0.	-5500.7
30807	3.5833	-6.4703e-031	0.	-5434.1
30808	3.7671	-6.8021e-031	0.	-5367.5
30809	3.9509	-7.1339e-031	0.	-5301.1
30810	4.1346	-7.4657e-031	0.	-5235.
30811	4.3184	-7.7976e-031	0.	-5169.3
30812	4.5021	-8.1294e-031	0.	-5104.1
30813	4.6859	-8.4612e-031	0.	-5039.5
30814	4.8697	-8.793e-031	0.	-4975.4
30815	5.0534	-9.1248e-031	0.	-4912.
30816	5.2372	-9.4566e-031	0.	-4849.1
30817	5.4209	-9.7884e-031	0.	-4786.8
30818	5.6047	-1.012e-030	0.	-4725.
30819	5.7885	-1.0452e-030	0.	-4663.9
30820	5.9722	-1.0784e-030	0.	-4603.3
30821	6.156	-1.1116e-030	0.	-4543.2
30822	6.3397	-1.1447e-030	0.	-4483.6
30823	6.5235	-1.1779e-030	0.	-4424.5
30824	6.7073	-1.2111e-030	0.	-4365.8
30825	6.891	-1.2443e-030	0.	-4307.7
30826	7.0748	-1.2775e-030	0.	-4249.9
30827	7.2585	-1.3107e-030	0.	-4192.6
30828	7.4423	-1.3438e-030	0.	-4135.7
30829	7.6261	-1.377e-030	0.	-4079.1
30830	7.8098	-1.4102e-030	0.	-4023.
30831	7.9936	-1.4434e-030	0.	-3967.2
30832	8.1774	-1.4766e-030	0.	-3911.7
30833	8.3611	-1.5097e-030	0.	-3856.6
30834	8.5449	-1.5429e-030	0.	-3801.8
30835	8.7286	-1.5761e-030	0.	-3747.3
30836	8.9124	-1.6093e-030	0.	-3693.1
30837	9.0962	-1.6425e-030	0.	-3639.2
30838	9.2799	-1.6756e-030	0.	-3585.6
30839	9.4637	-1.7088e-030	0.	-3532.3
30840	9.6474	-1.742e-030	0.	-3479.3
30841	9.8312	-1.7752e-030	0.	-3426.5
30842	10.015	-1.8084e-030	0.	-3374.
30843	10.199	-1.8416e-030	0.	-3321.7
30844	10.382	-1.8747e-030	0.	-3269.7
30845	10.566	-1.9079e-030	0.	-3217.9
30846	10.75	-1.9411e-030	0.	-3166.4
30847	10.934	-1.9743e-030	0.	-3115.1
30848	11.118	-2.0075e-030	0.	-3064.1
30849	11.301	-2.0406e-030	0.	-3013.3
30850	11.485	-2.0738e-030	0.	-2962.7
30851	11.669	-2.107e-030	0.	-2912.3
30852	11.853	-2.1402e-030	0.	-2862.2
30853	12.036	-2.1734e-030	0.	-2812.2
30854	12.22	-2.2065e-030	0.	-2762.5
30855	12.404	-2.2397e-030	0.	-2713.
30856	12.588	-2.2729e-030	0.	-2663.7
30857	12.771	-2.3061e-030	0.	-2614.7
30858	12.955	-2.3393e-030	0.	-2565.8
30859	13.139	-2.3724e-030	0.	-2517.1
30860	13.323	-2.4056e-030	0.	-2468.6
30861	13.506	-2.4388e-030	0.	-2420.4
30862	13.69	-2.472e-030	0.	-2372.3
30863	13.874	-2.5052e-030	0.	-2324.4
30864	14.058	-2.5384e-030	0.	-2276.7
30865	14.241	-2.5715e-030	0.	-2229.2
30866	14.425	-2.6047e-030	0.	-2181.9
30867	14.609	-2.6379e-030	0.	-2134.8
30868	14.793	-2.6711e-030	0.	-2087.8
30869	14.976	-2.7043e-030	0.	-2041.1
30870	15.16	-2.7374e-030	0.	-1994.4
30871	15.344	-2.7706e-030	0.	-1948.
30872	15.528	-2.8038e-030	0.	-1901.7
30873	15.712	-2.837e-030	0.	-1855.5
30874	15.895	-2.8702e-030	0.	-1809.5
30875	16.079	-2.9033e-030	0.	-1763.6
30876	16.263	-2.9365e-030	0.	-1717.9
30877	16.447	-2.9697e-030	0.	-1672.2
30878	16.63	-3.0029e-030	0.	-1626.6
30879	16.814	-3.0361e-030	0.	-1581.
30880	16.998	-3.0693e-030	0.	-1535.4
30881	17.182	-3.1024e-030	0.	-1489.9
30882	17.365	-3.1356e-030	0.	-1444.2
30883	17.549	-3.1688e-030	0.	-1398.4
30884	17.733	-3.202e-030	0.	-1352.4
30885	17.917	-3.2352e-030	0.	-1306.1
30886	18.1	-3.2683e-030	0.	-1259.4
30887	18.284	-3.3015e-030	0.	-1212.2
30888	18.468	-3.3347e-030	0.	-1164.2
30889	18.652	-3.3679e-030	0.	-1115.3
30890	18.835	-3.4011e-030	0.	-1065.3
30891	19.019	-3.4342e-030	0.	-1013.7
30892	19.203	-3.4674e-030	0.	-960.34
30893	19.387	-3.5006e-030	0.	-904.71
30894	19.571	-3.5338e-030	0.	-846.37
30895	19.754	-3.567e-030	0.	-784.78
30896	19.938	-3.6002e-030	0.	-719.42
30897	20.122	-3.6333e-030	0.	-649.77
30898	20.306	-3.6665e-030	0.	-575.43
30899	20.489	-3.6997e-030	0.	-496.16
30900	20.673	-3.7329e-030	0.	-412.08
30901	20.857	-3.7661e-030	0.	-323.67
30902	21.041	-3.7992e-030	0.	-231.8
30903	21.224	-3.8324e-030	0.	-137.03
30904	21.408	-3.8656e-030	0.	-47.339
30905	21.5	9.0909e-002	0.	-30.136
30906	7.9472e-016	9.0909e-002	0.	-1435.6
30907	21.936	0.	0.	-50.563
30908	21.756	0.	0.	-19.02
30909	22.115	0.	0.	-76.406
30910	22.295	0.	0.	-94.812
30911	22.474	0.	0.	-106.23
30912	22.654	0.	0.	-110.94
30913	22.833	0.	0.	-109.47
30914	23.013	0.	0.	-102.5
30915	23.192	0.	0.	-90.858
30916	23.372	0.	0.	-75.374
30917	23.551	0.	0.	-56.919
30918	23.731	0.	0.	-36.461
30919	23.91	0.	0.	-14.915
30920	21.667	9.0909e-002	0.	-17.644
30921	24.	9.0909e-002	0.	-5.848
30922	5.0067e-014	5.7273	0.	-3541.
30923	4.8478e-014	5.5455	0.	-5159.5
30924	4.6888e-014	5.3636	0.	-6007.1
30925	4.5299e-014	5.1818	0.	-6544.9
30926	4.371e-014	5.	0.	-6913.8
30927	4.212e-014	4.8182	0.	-7181.2
30928	4.0531e-014	4.6364	0.	-7381.2
30929	3.8941e-014	4.4545	0.	-7533.9
30930	3.7352e-014	4.2727	0.	-7651.9
30931	3.5762e-014	4.0909	0.	-7743.3
30932	3.4173e-014	3.9091	0.	-7813.9
30933	3.2583e-014	3.7273	0.	-7867.4
30934	3.0994e-014	3.5455	0.	-7906.7
30935	2.9405e-014	3.3636	0.	-7933.5
30936	2.7815e-014	3.1818	0.	-7949.2
30937	2.6226e-014	3.	0.	-7954.3
30938	2.4636e-014	2.8182	0.	-7949.2
30939	2.3047e-014	2.6364	0.	-7933.5
30940	2.1457e-014	2.4545	0.	-7906.7
30941	1.9868e-014	2.2727	0.	-7867.4
30942	1.8279e-014	2.0909	0.	-7813.9
30943	1.6689e-014	1.9091	0.	-7743.3
30944	1.51e-014	1.7273	0.	-7651.9
30945	1.351e-014	1.5455	0.	-7533.9
30946	1.1921e-014	1.3636	0.	-7381.2
30947	1.0331e-014	1.1818	0.	-7181.2
30948	8.7419e-015	1.	0.	-6913.8
30949	7.1525e-015	0.81818	0.	-6544.9
30950	5.563e-015	0.63636	0.	-6007.1
30951	3.9736e-015	0.45455	0.	-5159.5
30952	2.3842e-015	0.27273	0.	-3541.
30953	24.	0.27273	0.	-7.672
30954	24.	0.45455	0.	-9.3095
30955	24.	0.63636	0.	-11.27
30956	24.	0.81818	0.	-13.715
30957	24.	1.	0.	-16.765
30958	24.	1.1818	0.	-20.548
30959	24.	1.3636	0.	-25.136
30960	24.	1.5455	0.	-30.463
30961	24.	1.7273	0.	-36.246
30962	24.	1.9091	0.	-41.993
30963	24.	2.0909	0.	-47.147
30964	24.	2.2727	0.	-51.267
30965	24.	2.4545	0.	-54.158
30966	24.	2.6364	0.	-55.895
30967	24.	2.8182	0.	-56.74
30968	24.	3.	0.	-56.981
30969	24.	3.1818	0.	-56.74
30970	24.	3.3636	0.	-55.895
30971	24.	3.5455	0.	-54.158
30972	24.	3.7273	0.	-51.267
30973	24.	3.9091	0.	-47.147
30974	24.	4.0909	0.	-41.993
30975	24.	4.2727	0.	-36.246
30976	24.	4.4545	0.	-30.463
30977	24.	4.6364	0.	-25.136
30978	24.	4.8182	0.	-20.548
30979	24.	5.	0.	-16.765
30980	24.	5.1818	0.	-13.715
30981	24.	5.3636	0.	-11.27
30982	24.	5.5455	0.	-9.3095
30983	24.	5.7273	0.	-7.672
30984	24.	5.9091	0.	-5.8479
30985	23.91	6.	0.	-14.915
30986	23.731	6.	0.	-36.461
30987	23.551	6.	0.	-56.919
30988	23.372	6.	0.	-75.374
30989	23.192	6.	0.	-90.858
30990	23.013	6.	0.	-102.5
30991	22.833	6.	0.	-109.47
30992	22.654	6.	0.	-110.94
30993	22.474	6.	0.	-106.23
30994	22.295	6.	0.	-94.812
30995	22.115	6.	0.	-76.406
30996	21.936	6.	0.	-50.563
30997	21.756	6.	0.	-19.02
30998	21.667	5.9091	0.	-17.644
30999	21.5	1.7273	0.	-457.35
31000	21.5	1.9091	0.	-1357.5
31001	21.5	1.5455	0.	-336.
31002	21.5	1.3636	0.	-276.82
31003	21.5	1.1818	0.	-232.46
31004	21.5	1.	0.	-197.09
31005	21.5	0.81818	0.	-165.78
31006	21.5	0.63636	0.	-136.3
31007	21.5	0.45455	0.	-106.53
31008	21.5	0.27273	0.	-73.048
31009	21.583	2.	0.	-2327.7
31010	21.667	0.27273	0.	-47.647
31011	21.667	0.45455	0.	-76.77
31012	21.667	0.63636	0.	-107.62
31013	21.667	0.81818	0.	-143.29
31014	21.667	1.	0.	-186.74
31015	21.667	1.1818	0.	-242.06
31016	21.667	1.3636	0.	-317.14
31017	21.667	1.5455	0.	-422.66
31018	21.667	1.7273	0.	-619.56
31019	21.667	1.9091	0.	-1627.3
31020	21.5	4.2727	0.	-457.35
31021	21.5	4.0909	0.	-1357.5
31022	21.5	4.4545	0.	-336.
31023	21.5	4.6364	0.	-276.82
31024	21.5	4.8182	0.	-232.46
31025	21.5	5.	0.	-197.09
31026	21.5	5.1818	0.	-165.78
31027	21.5	5.3636	0.	-136.3
31028	21.5	5.5455	0.	-106.53
31029	21.5	5.7273	0.	-73.048
31030	21.583	4.	0.	-2327.7
31031	21.667	5.7273	0.	-47.647
31032	21.667	5.5455	0.	-76.77
31033	21.667	5.3636	0.	-107.62
31034	21.667	5.1818	0.	-143.29
31035	21.667	5.	0.	-186.74
31036	21.667	4.8182	0.	-242.06
31037	21.667	4.6364	0.	-317.14
31038	21.667	4.4545	0.	-422.66
31039	21.667	4.2727	0.	-619.56
31040	21.667	4.0909	0.	-1627.3
